coord_x,coord_y,stress_xx,stress_yy,tau_xy,velocity_x,velocity_y,stress_1,eps,damage,lx,ly
2.5069013e+0, 1.215195e+2, -1712115.6, -1748849.3, -90.755424, -0.0007813759, 0.023168828, -1712115.4, 36997.74, 0.0, 5.01395, 4.990032 
2.5069368e+0, 1.2650193e+2, -1668727.1, -1711256.1, -82.64948, -0.00041574985, -0.017532578, -1668727.0, 31554.553, 0.0, 5.0139523, 4.986293 
2.5070024e+0, 1.3148832e+2, -1619739.3, -1662261.6, -131.3223, 0.0002633852, -0.017239878, -1619738.9, 31675.26, 0.0, 5.01395, 4.9862924 
2.5070676e+0, 1.364747e+2, -1572959.4, -1617804.9, -180.10129, 0.00092889863, -0.015693681, -1572958.6, 29588.23, 0.0, 5.013948, 4.9847884 
2.5071084e+0, 1.414583e+2, -1530845.9, -1583054.1, -170.10626, 0.0012583114, 0.001103858, -1530845.3, 22862.459, 0.0, 5.013963, 4.9799786 
2.5071052e+0, 1.4643902e+2, -1481418.5, -1533458.4, -99.02106, 0.0009866008, 0.0043172785, -1481418.3, 23480.688, 0.0, 5.014011, 4.9801307 
2.507101e+0, 1.5141967e+2, -1432214.5, -1484329.0, -30.701786, 0.0006997989, 0.0067106187, -1432214.4, 23876.36, 0.0, 5.01406, 4.9801307 
2.507097e+0, 1.564003e+2, -1384440.3, -1438178.0, 37.663933, 0.00041031346, 0.009555331, -1384440.3, 22842.47, 0.0, 5.014109, 4.9791355 
2.507099e+0, 1.6137692e+2, -1343341.9, -1406046.1, 101.91039, 0.00014001076, 0.015212069, -1343341.8, 15170.86, 0.0, 5.014167, 4.973445 
2.5071138e+0, 1.6635005e+2, -1293850.0, -1356499.9, 123.37685, -0.00008073678, 0.008556735, -1293849.8, 15924.158, 0.0, 5.0142407, 4.973551 
2.5071287e+0, 1.7132318e+2, -1244509.3, -1307273.1, 141.07481, -0.00030466885, 0.0017158557, -1244509.0, 16525.977, 0.0, 5.0143156, 4.9735513 
2.5071436e+0, 1.7629631e+2, -1196306.1, -1260451.6, 159.10161, -0.00053368066, -0.004733135, -1196305.8, 15990.346, 0.0, 5.0143905, 4.9727435 
2.50715e+0, 1.81266e+2, -1156279.4, -1230891.4, 165.23076, -0.0007363656, -0.00042408647, -1156279.0, 7313.4224, 0.0, 5.0144434, 4.966112 
2.5071386e+0, 1.8623264e+2, -1106954.0, -1181346.4, 190.74686, -0.0007784686, 0.0011248366, -1106953.5, 7968.5576, 0.0, 5.0144296, 4.9662366 
2.507126e+0, 1.9119927e+2, -1057813.9, -1132179.1, 225.51707, -0.00081448973, 0.002535081, -1057813.1, 8438.561, 0.0, 5.014412, 4.9662366 
2.5071135e+0, 1.9616593e+2, -1009564.4, -1084927.8, 260.7715, -0.00085963163, 0.0042658416, -1009563.5, 8017.8174, 0.0, 5.0143943, 4.965586 
2.5071365e+0, 2.0112883e+2, -968854.94, -1054015.3, 278.94434, -0.0006243697, 0.010289042, -968854.0, 91.46561, 0.0, 5.0143924, 4.959349 
2.507266e+0, 2.0608766e+2, -918912.2, -1003417.0, 179.5309, 0.0005303542, -0.0017676208, -918911.8, 1431.1549, 0.0, 5.0144215, 4.9597883 
2.5074023e+0, 2.1104646e+2, -869567.2, -954117.94, 69.55932, 0.0017331335, -0.014870073, -869567.1, 2173.2813, 0.0, 5.0144525, 4.959789 
2.5075376e+0, 2.1600527e+2, -820887.25, -906273.8, -38.868706, 0.0029194679, -0.027844133, -820887.2, 2250.6768, 0.0, 5.0144835, 4.9592896 
2.5075838e+0, 2.2096103e+2, -782737.06, -881374.56, -94.74071, 0.0033428622, -0.021323308, -782736.94, -8168.1763, 0.0, 5.0144897, 4.9509025 
2.5074014e+0, 2.2591434e+2, -733639.94, -831746.25, -43.34048, 0.0023600585, -0.0026274058, -733639.9, -7605.83, 0.0, 5.0143237, 4.9510612 
2.507207e+0, 2.3086771e+2, -684817.7, -782642.6, 32.259098, 0.0013392005, 0.015847122, -684817.7, -7318.1123, 0.0, 5.0141387, 4.951062 
2.5070122e+0, 2.3582107e+2, -636638.8, -734982.9, 110.00085, 0.00028904786, 0.034335874, -636638.7, -7673.5806, 0.0, 5.013954, 4.9505615 
2.506862e+0, 2.4077004e+2, -597014.8, -707013.3, 377.2545, -0.0009443511, 0.056318134, -597013.5, -16543.592, 0.0, 5.0138936, 4.943174 
2.5070295e+0, 2.457109e+2, -545126.75, -654462.0, 532.96844, -0.0016591996, 0.02117066, -545124.2, -13083.525, 0.0, 5.0143657, 4.9440293 
2.5072378e+0, 2.5065112e+2, -494208.97, -604354.5, 570.84924, -0.0022618328, -0.022401541, -494206.0, -10589.419, 0.0, 5.014893, 4.9440317 
2.5074422e+0, 2.5559136e+2, -443546.16, -554824.1, 615.4999, -0.002910108, -0.06587075, -443542.75, -8350.341, 0.0, 5.015418, 4.9438357 
2.5075942e+0, 2.605285e+2, -407774.9, -539456.25, 1095.4478, -0.0045475466, -0.06609008, -407765.78, -20956.934, 0.0, 5.0160213, 4.931487 
2.5074238e+0, 2.6547185e+2, -352328.22, -476439.63, 588.60565, -0.0065356446, -0.009248282, -352325.44, -13918.833, 0.0, 5.0159664, 4.9358673 
2.5071937e+0, 2.7041695e+2, -303225.66, -427204.4, -138.19176, -0.008630434, 0.047008835, -303225.5, -13234.048, 0.0, 5.015736, 4.935873 
2.5069484e+0, 2.7536196e+2, -254089.66, -378124.44, -888.79395, -0.011223396, 0.10251288, -254083.28, -12506.549, 0.0, 5.015504, 4.9358315 
2.5066072e+0, 2.8030762e+2, -228440.48, -389018.44, 623.58026, -0.02033445, 0.29910505, -228438.06, -35296.293, 0.0, 5.0164533, 4.9145885 
2.5064605e+0, 2.8523415e+2, -160646.61, -296042.84, 363.76227, -0.02013027, 0.3005601, -160645.64, -15822.232, 0.0, 5.016359, 4.92963 
2.506432e+0, 2.9015237e+2, -114656.53, -248015.58, -306.60962, -0.013307384, 0.15575035, -114655.83, -18078.041, 0.0, 5.0151463, 4.929624 
2.5063932e+0, 2.9507053e+2, -68547.49, -199960.5, -1003.4654, -0.006909579, 0.010320009, -68539.83, -20207.14, 0.0, 5.013936, 4.9296184 
2.506389e+0, 3.0000678e+2, -13214.464, -98068.04, -1655.8956, -0.0014145115, -0.07598428, -13182.161, -13182.161, 0.0, 5.0128975, 4.9581933 
2.5064796e+0, 3.0498794e+2, -5582.724, -75990.74, -3012.176, 0.0032929534, 0.04269255, -5454.0933, -5454.0933, 0.0, 5.0120473, 4.9657984 
2.506533e+0, 3.099759e+2, -7845.7534, -76964.74, -4187.876, 0.0075115263, 0.18702483, -7592.9375, -7592.9375, 0.0, 5.0111146, 4.9658494 
2.5065607e+0, 3.1496403e+2, -9988.727, -77952.59, -5210.5503, 0.010984234, 0.3321531, -9591.572, -9591.572, 0.0, 5.0101857, 4.965901 
7.5206894e+0, 1.2151992e+2, -1711198.5, -1746979.0, -101.530685, -0.0025097346, 0.02840712, -1711198.1, 37913.7, 0.0, 5.013949, 4.990647 
7.5208074e+0, 1.2650207e+2, -1668816.9, -1711434.8, -87.53475, -0.001281615, -0.01514352, -1668816.6, 31465.826, 0.0, 5.0139513, 4.986234 
7.521005e+0, 1.3148862e+2, -1619826.9, -1662439.6, -135.21094, 0.0007624752, -0.012660614, -1619826.5, 31587.215, 0.0, 5.01395, 4.9862337 
7.5212014e+0, 1.3647515e+2, -1573046.9, -1617983.3, -182.80243, 0.0027657012, -0.008919986, -1573046.1, 29498.969, 0.0, 5.013948, 4.9847293 
7.5213253e+0, 1.4145876e+2, -1530744.8, -1582843.0, -142.48749, 0.0037732313, 0.008131658, -1530744.4, 22961.178, 0.0, 5.0139627, 4.9800487 
7.521316e+0, 1.464392e+2, -1481289.3, -1533188.4, -63.11705, 0.0029595173, 0.007671727, -1481289.3, 23609.232, 0.0, 5.0140104, 4.980221 
7.521303e+0, 1.5141955e+2, -1432086.1, -1484059.9, 6.170479, 0.0020965051, 0.0062808054, -1432086.1, 24005.855, 0.0, 5.0140595, 4.980221 
7.521291e+0, 1.563999e+2, -1384313.0, -1437909.6, 75.46788, 0.0012254419, 0.0053418563, -1384313.0, 22972.676, 0.0, 5.014108, 4.979226 
7.521297e+0, 1.6137637e+2, -1343278.1, -1405910.8, 154.60645, 0.00042034948, 0.008774732, -1343277.6, 15238.624, 0.0, 5.0141664, 4.9734907 
7.5213414e+0, 1.6634968e+2, -1293816.3, -1356428.1, 180.42206, -0.00024525778, 0.0037013139, -1293815.8, 15960.38, 0.0, 5.0142407, 4.9735756 
7.5213856e+0, 1.7132302e+2, -1244475.8, -1307200.8, 199.03807, -0.00092266995, -0.0013847438, -1244475.1, 16560.5, 0.0, 5.014315, 4.973576 
7.52143e+0, 1.7629634e+2, -1196273.4, -1260379.0, 217.89209, -0.0016153214, -0.0060770093, -1196272.6, 16022.586, 0.0, 5.01439, 4.972769 
7.5214505e+0, 1.8126617e+2, -1156202.5, -1230724.3, 172.56007, -0.0022067179, -0.0005464355, -1156202.1, 7388.062, 0.0, 5.014443, 4.9661694 
7.521416e+0, 1.8623292e+2, -1106888.5, -1181204.5, 178.6966, -0.0023375389, 0.0015708074, -1106888.1, 8030.5522, 0.0, 5.014429, 4.966285 
7.521378e+0, 1.9119968e+2, -1057748.1, -1132036.4, 215.23772, -0.0024571973, 0.0035826324, -1057747.5, 8499.641, 0.0, 5.0144114, 4.9662857 
7.521339e+0, 1.9616644e+2, -1009499.5, -1084784.5, 251.97247, -0.002604218, 0.0059146145, -1009498.6, 8076.856, 0.0, 5.014394, 4.965636 
7.521411e+0, 2.0112938e+2, -968945.25, -1054211.0, 294.76047, -0.001863078, 0.012355592, -968944.2, -4.8513746, 0.0, 5.014392, 4.9592834 
7.5218e+0, 2.060882e+2, -919092.4, -1003809.75, 206.51845, 0.0015897178, 0.0014313171, -919091.9, 1246.3854, 0.0, 5.014422, 4.9596553 
7.522205e+0, 2.1104698e+2, -869746.0, -954505.7, 99.06464, 0.0051688794, -0.010367995, -869745.9, 1991.2035, 0.0, 5.014452, 4.959657 
7.52261e+0, 2.1600579e+2, -821066.5, -906657.56, -7.476094, 0.0086987065, -0.022037584, -821066.5, 2069.4048, 0.0, 5.014482, 4.9591594 
7.522752e+0, 2.2096144e+2, -782554.2, -880950.2, -162.89458, 0.010055212, -0.016465658, -782553.94, -7985.6685, 0.0, 5.014485, 4.9510517 
7.522205e+0, 2.2591448e+2, -733480.94, -831377.06, -170.07474, 0.007091951, -0.0016319437, -733480.6, -7446.098, 0.0, 5.014321, 4.9511943 
7.521619e+0, 2.3086755e+2, -684652.8, -782264.6, -86.90431, 0.003964109, 0.013189372, -684652.75, -7151.9033, 0.0, 5.0141373, 4.9511976 
7.521031e+0, 2.3582065e+2, -636471.75, -734597.75, -3.1174824, 0.0007483821, 0.027996244, -636471.75, -7504.5513, 0.0, 5.0139527, 4.950699 
7.5206006e+0, 2.4076934e+2, -596713.56, -706350.4, 558.25757, -0.0028338875, 0.04556866, -596710.75, -16237.532, 0.0, 5.0138955, 4.9433994 
7.521094e+0, 2.4571073e+2, -545044.56, -654233.44, 909.2954, -0.0049900725, 0.014925063, -545037.0, -12996.989, 0.0, 5.0143595, 4.9441113 
7.521694e+0, 2.5065166e+2, -494165.6, -604131.1, 956.9741, -0.0069021126, -0.021776829, -494157.28, -10546.954, 0.0, 5.0148726, 4.944118 
7.522283e+0, 2.555926e+2, -443545.9, -554607.8, 1010.7946, -0.008951068, -0.05816715, -443536.72, -8356.451, 0.0, 5.015382, 4.943927 
7.5227034e+0, 2.6053065e+2, -406690.66, -536523.8, 1487.8253, -0.013760702, -0.056959987, -406673.63, -19885.402, 0.0, 5.0159426, 4.9325776 
7.522194e+0, 2.6547325e+2, -352716.0, -476946.5, 835.08795, -0.020282196, -0.003778947, -352710.38, -14323.115, 0.0, 5.015899, 4.9358373 
7.521514e+0, 2.7041715e+2, -303487.03, -427624.84, 165.62975, -0.027376343, 0.049192876, -303486.8, -13509.681, 0.0, 5.01569, 4.935855 
7.52079e+0, 2.7536094e+2, -254269.86, -378479.13, -562.6117, -0.03596506, 0.09990546, -254267.31, -12699.0205, 0.0, 5.0154624, 4.9358253 
7.5197315e+0, 2.8030324e+2, -225811.03, -380855.78, 1112.3163, -0.06104218, 0.2511058, -225803.06, -32642.42, 0.0, 5.016103, 4.9175854 
7.51931e+0, 2.8522873e+2, -162723.33, -297745.16, -757.1006, -0.058451086, 0.23714529, -162719.08, -17863.35, 0.0, 5.0159054, 4.929267 
7.5192845e+0, 2.9014784e+2, -116284.33, -249555.67, -1182.9086, -0.038295794, 0.1122923, -116273.836, -19668.393, 0.0, 5.0148416, 4.92925 
7.519227e+0, 2.9506674e+2, -69799.484, -201372.39, -1674.4948, -0.019415831, -0.014422646, -69778.18, -21421.484, 0.0, 5.013754, 4.9292326 
7.519231e+0, 3.0000433e+2, -12788.176, -95871.29, -2180.1907, -0.0031816699, -0.08505333, -12731.005, -12731.005, 0.0, 5.0127625, 4.9590287 
7.519313e+0, 3.0498302e+2, -7346.481, -78043.68, -3589.2686, 0.010065048, 0.02053332, -7164.7227, -7164.7227, 0.0, 5.011783, 4.9652925 
7.51926e+0, 3.0996704e+2, -10008.534, -78859.97, -4627.206, 0.021615991, 0.14635937, -9698.952, -9698.952, 0.0, 5.0106893, 4.965445 
7.5191313e+0, 3.1495142e+2, -12626.168, -79722.805, -5510.102, 0.0309298, 0.2745723, -12176.68, -12176.68, 0.0, 5.009571, 4.9655976 
1.2534459e+1, 1.21520326e+2, -1710225.4, -1745004.5, -113.43975, -0.0044588502, 0.033624846, -1710225.0, 38885.746, 0.0, 5.01395, 4.9912944 
1.2534675e+1, 1.265022e+2, -1668904.3, -1711611.0, -94.04366, -0.0021932975, -0.01266825, -1668904.0, 31379.383, 0.0, 5.013952, 4.9861755 
1.2535006e+1, 1.314889e+2, -1619914.4, -1662616.4, -139.42511, 0.0012246601, -0.008028057, -1619913.9, 31499.346, 0.0, 5.0139503, 4.986175 
1.2535334e+1, 1.3647561e+2, -1573134.5, -1618160.6, -184.72128, 0.004574512, -0.0021259172, -1573133.8, 29409.627, 0.0, 5.0139484, 4.98467 
1.2535542e+1, 1.4145924e+2, -1530647.9, -1582642.5, -114.3761, 0.00628588, 0.015186345, -1530647.6, 23055.69, 0.0, 5.0139627, 4.980115 
1.2535526e+1, 1.4643937e+2, -1481158.8, -1532917.6, -26.344748, 0.0049320534, 0.011045143, -1481158.6, 23739.2, 0.0, 5.0140104, 4.980311 
1.2535505e+1, 1.5141945e+2, -1431956.1, -1483789.6, 43.73221, 0.0034893553, 0.0058528637, -1431956.1, 24137.064, 0.0, 5.0140595, 4.980311 
1.2535483e+1, 1.563995e+2, -1384183.6, -1437639.8, 113.81169, 0.002033239, 0.0011131559, -1384183.4, 23105.172, 0.0, 5.014108, 4.979316 
1.2535496e+1, 1.6137584e+2, -1343216.9, -1405784.8, 207.90056, 0.00070111075, 0.0023604902, -1343216.1, 15303.878, 0.0, 5.0141664, 4.9735327 
1.2535569e+1, 1.6634932e+2, -1293780.6, -1356355.0, 237.56837, -0.00041384232, -0.0011311248, -1293779.8, 15998.587, 0.0, 5.0142407, 4.9736 
1.2535642e+1, 1.7132285e+2, -1244440.4, -1307127.3, 257.1265, -0.0015522225, -0.0044788946, -1244439.3, 16597.025, 0.0, 5.0143156, 4.9736004 
1.2535715e+1, 1.7629637e+2, -1196238.0, -1260305.0, 276.91342, -0.0027160016, -0.007430969, -1196236.9, 16057.423, 0.0, 5.01439, 4.9727936 
1.2535751e+1, 1.8126637e+2, -1156129.3, -1230569.0, 179.77042, -0.0036738985, -0.0006326646, -1156128.8, 7459.071, 0.0, 5.014443, 4.9662213 
1.2535693e+1, 1.8623324e+2, -1106821.4, -1181061.3, 166.52261, -0.003899453, 0.002046298, -1106821.0, 8094.2114, 0.0, 5.0144296, 4.966334 
1.2535629e+1, 1.9120009e+2, -1057680.5, -1131892.0, 204.82465, -0.004118209, 0.0046299053, -1057679.9, 8562.561, 0.0, 5.014412, 4.966335 
1.2535563e+1, 1.9616695e+2, -1009431.44, -1084639.3, 243.32278, -0.0043825684, 0.007533311, -1009430.7, 8139.0435, 0.0, 5.0143943, 4.965685 
1.253569e+1, 2.0112994e+2, -969042.06, -1054427.9, 310.90677, -0.0030884072, 0.014492536, -969040.94, -107.70907, 0.0, 5.0143933, 4.9592094 
1.2536335e+1, 2.0608875e+2, -919269.44, -1004200.1, 232.84203, 0.002647298, 0.0046992325, -919268.75, 1064.6904, 0.0, 5.0144234, 4.9595222 
1.2537007e+1, 2.1104752e+2, -869921.06, -954890.8, 128.38097, 0.0085639395, -0.0058533205, -869920.8, 1812.8846, 0.0, 5.0144534, 4.959525 
1.2537676e+1, 2.160063e+2, -821239.56, -907037.44, 24.83148, 0.014398355, -0.016274823, -821239.56, 1894.3779, 0.0, 5.0144835, 4.9590282 
1.2537922e+1, 2.2096185e+2, -782393.56, -880587.8, -234.69081, 0.016803062, -0.01147737, -782393.0, -7825.3433, 0.0, 5.0144835, 4.9511776 
1.2537009e+1, 2.259146e+2, -733318.06, -831004.0, -298.00766, 0.011839536, -0.000540477, -733317.1, -7282.1987, 0.0, 5.01432, 4.9513264 
1.2536028e+1, 2.308674e+2, -684484.1, -781882.75, -207.14708, 0.0065176864, 0.010473306, -684483.6, -6981.553, 0.0, 5.0141377, 4.951331 
1.2535043e+1, 2.358202e+2, -636297.2, -734207.06, -115.65314, 0.0010493624, 0.021443982, -636297.06, -7327.7705, 0.0, 5.0139546, 4.9508348 
1.253436e+1, 2.4076869e+2, -596450.2, -705788.4, 756.56506, -0.004724539, 0.035140283, -596444.94, -15968.727, 0.0, 5.013903, 4.943586 
1.2535167e+1, 2.457106e+2, -544946.6, -653989.7, 1289.4636, -0.008337592, 0.0091151325, -544931.4, -12892.436, 0.0, 5.014361, 4.9441915 
1.2536125e+1, 2.5065222e+2, -494096.13, -603887.94, 1348.45, -0.011697874, -0.020994889, -494079.56, -10475.821, 0.0, 5.0148635, 4.944203 
1.2537067e+1, 2.5559393e+2, -443504.78, -554365.0, 1413.5612, -0.015286328, -0.050584808, -443486.75, -8318.825, 0.0, 5.0153623, 4.9440165 
1.2537707e+1, 2.605327e+2, -405823.8, -534164.1, 1833.7377, -0.023131097, -0.04755004, -405797.63, -19029.4, 0.0, 5.0158896, 4.9334435 
1.2536861e+1, 2.6547447e+2, -352994.78, -477365.38, 1120.1208, -0.034928754, 0.0006394326, -352984.7, -14615.253, 0.0, 5.0158815, 4.9357796 
1.2535746e+1, 2.7041715e+2, -303530.28, -427908.3, 571.24884, -0.04810185, 0.04822613, -303527.66, -13562.731, 0.0, 5.015733, 4.935809 
1.2534559e+1, 2.753596e+2, -254079.0, -378628.66, -36.376003, -0.06376589, 0.09204746, -254078.98, -12516.363, 0.0, 5.0155663, 4.935791 
1.2532736e+1, 2.8029898e+2, -223296.38, -374201.13, 1403.7711, -0.10180249, 0.20376623, -223283.31, -30104.355, 0.0, 5.0159965, 4.919947 
1.2532063e+1, 2.852236e+2, -164286.08, -299165.75, -1527.5743, -0.09418351, 0.17845802, -164268.78, -19383.53, 0.0, 5.015653, 4.928888 
1.2532121e+1, 2.9014346e+2, -117620.04, -250913.48, -1848.1669, -0.061114322, 0.07142879, -117594.42, -20963.25, 0.0, 5.0146575, 4.9288588 
1.2532127e+1, 2.9506305e+2, -70909.016, -202668.53, -2234.5007, -0.030170698, -0.038703416, -70871.13, -22491.453, 0.0, 5.013638, 4.92883 
1.2532158e+1, 3.0000183e+2, -12680.291, -94509.55, -2760.6233, -0.0035331573, -0.09447782, -12587.264, -12587.264, 0.0, 5.0126677, 4.9595275 
1.2531978e+1, 3.0497786e+2, -9000.463, -79995.586, -4254.7974, 0.017085241, -0.0039421595, -8746.379, -8746.379, 0.0, 5.0115743, 4.9647574 
1.2531537e+1, 3.0995777e+2, -11938.167, -80600.24, -5125.3, 0.03449566, 0.099563435, -11557.696, -11557.696, 0.0, 5.010365, 4.9650106 
1.2530968e+1, 3.149383e+2, -14831.783, -81251.414, -5840.508, 0.048178595, 0.20704417, -14322.118, -14322.118, 0.0, 5.009131, 4.965265 
1.754821e+1, 1.2152071e+2, -1709325.5, -1742989.4, -122.71218, -0.006622175, 0.038821176, -1709325.1, 39784.613, 0.0, 5.0139112, 4.991975 
1.754854e+1, 1.2650235e+2, -1669049.0, -1711814.5, -100.62659, -0.003148056, -0.010107797, -1669048.8, 31235.564, 0.0, 5.013933, 4.986117 
1.7549004e+1, 1.3148922e+2, -1620021.0, -1662801.5, -142.78224, 0.0016506659, -0.0033428392, -1620020.5, 31392.291, 0.0, 5.013944, 4.986116 
1.7549463e+1, 1.3647604e+2, -1573226.6, -1618339.1, -184.71916, 0.006355486, 0.0046881414, -1573225.9, 29315.61, 0.0, 5.013947, 4.984611 
1.7549759e+1, 1.414597e+2, -1530562.6, -1582456.3, -84.12637, 0.008796752, 0.022267655, -1530562.5, 23138.63, 0.0, 5.013961, 4.9801774 
1.7549735e+1, 1.4643957e+2, -1481033.4, -1532649.1, 13.206412, 0.0069046393, 0.014437368, -1481033.4, 23863.916, 0.0, 5.014009, 4.980401 
1.7549707e+1, 1.5141934e+2, -1431837.0, -1483524.4, 83.75463, 0.004879052, 0.005426722, -1431836.9, 24257.48, 0.0, 5.014056, 4.980401 
1.7549677e+1, 1.5639912e+2, -1384077.1, -1437381.0, 153.92468, 0.0028350458, -0.0031307747, -1384076.8, 23214.754, 0.0, 5.014101, 4.9794064 
1.7549697e+1, 1.6137528e+2, -1343189.5, -1405683.3, 262.3074, 0.0009839615, -0.004030574, -1343188.4, 15335.309, 0.0, 5.0141573, 4.9735713 
1.7549796e+1, 1.6634896e+2, -1293762.6, -1356290.0, 294.4086, -0.0005853796, -0.005940361, -1293761.3, 16019.349, 0.0, 5.0142355, 4.973624 
1.7549898e+1, 1.7132267e+2, -1244425.3, -1307063.1, 313.4856, -0.0021920179, -0.007566332, -1244423.8, 16613.283, 0.0, 5.0143094, 4.973625 
1.7549999e+1, 1.762964e+2, -1196240.9, -1260248.9, 332.34595, -0.003833412, -0.0087947985, -1196239.1, 16054.213, 0.0, 5.0143776, 4.9728184 
1.7550053e+1, 1.8126659e+2, -1156112.9, -1230451.1, 181.91188, -0.005134963, -0.00068263494, -1156112.4, 7473.17, 0.0, 5.014426, 4.966269 
1.7549971e+1, 1.8623354e+2, -1106787.1, -1180933.0, 150.53087, -0.0054623266, 0.002551348, -1106786.9, 8124.853, 0.0, 5.014419, 4.966382 
1.7549878e+1, 1.9120048e+2, -1057649.8, -1131764.5, 191.4297, -0.005795431, 0.005676567, -1057649.3, 8588.617, 0.0, 5.0144, 4.9663835 
1.7549786e+1, 1.9616745e+2, -1009427.4, -1084523.5, 232.29745, -0.0061910017, 0.009120948, -1009426.6, 8137.2544, 0.0, 5.014373, 4.965734 
1.7549971e+1, 2.0113052e+2, -969233.94, -1054707.4, 325.28464, -0.004295528, 0.016698524, -969232.7, -305.74176, 0.0, 5.0143657, 4.9591274 
1.7550872e+1, 2.0608929e+2, -919503.3, -1004616.4, 257.77847, 0.0037061565, 0.008035319, -919502.56, 826.0556, 0.0, 5.0144057, 4.9593883 
1.755181e+1, 2.1104805e+2, -870161.6, -955305.75, 158.68274, 0.011921755, -0.0013270763, -870161.3, 1568.9655, 0.0, 5.0144324, 4.9593925 
1.755274e+1, 2.160068e+2, -821526.7, -907469.75, 61.65049, 0.02002462, -0.010557921, -821526.6, 1605.2946, 0.0, 5.014445, 4.958897 
1.7553093e+1, 2.2096229e+2, -782410.3, -880359.7, -305.10056, 0.023594579, -0.006361366, -782409.4, -7842.3774, 0.0, 5.014431, 4.9512806 
1.7551816e+1, 2.2591475e+2, -733217.0, -830657.5, -425.27066, 0.016606655, 0.0006452747, -733215.1, -7179.852, 0.0, 5.014298, 4.9514565 
1.7550434e+1, 2.3086727e+2, -684342.06, -781511.06, -328.27478, 0.009003074, 0.0076971026, -684340.94, -6837.6035, 0.0, 5.014129, 4.9514637 
1.7549047e+1, 2.3581977e+2, -636175.1, -733838.4, -226.83295, 0.0011986155, 0.014675653, -636174.6, -7203.1904, 0.0, 5.0139384, 4.9509697 
1.7548141e+1, 2.4076806e+2, -596335.1, -705378.2, 975.5546, -0.0066041527, 0.025027124, -596326.4, -15847.414, 0.0, 5.0138774, 4.9437337 
1.7549248e+1, 2.4571052e+2, -544881.06, -653752.7, 1680.4727, -0.011686246, 0.0037369062, -544855.1, -12817.707, 0.0, 5.0143533, 4.94427 
1.7550534e+1, 2.5065282e+2, -493993.7, -603621.4, 1759.0847, -0.016624227, -0.02005268, -493965.47, -10368.605, 0.0, 5.0148687, 4.9442863 
1.7551796e+1, 2.5559524e+2, -443378.84, -554075.2, 1847.9481, -0.021875197, -0.0431087, -443348.0, -8192.616, 0.0, 5.015376, 4.9441047 
1.7552613e+1, 2.605347e+2, -405158.63, -532369.4, 2162.1584, -0.032596253, -0.037837345, -405121.9, -18373.078, 0.0, 5.01587, 4.934085 
1.7551431e+1, 2.6547554e+2, -353613.44, -477897.0, 1507.5765, -0.050365612, 0.003981511, -353595.16, -15242.064, 0.0, 5.015754, 4.9356937 
1.7549905e+1, 2.7041692e+2, -304816.4, -428707.8, 1327.8856, -0.070599556, 0.043990057, -304802.2, -14847.249, 0.0, 5.0153403, 4.935736 
1.754828e+1, 2.7535796e+2, -256520.44, -379912.9, 1279.9559, -0.09427045, 0.07868691, -256507.17, -14947.327, 0.0, 5.01473, 4.9357314 
1.7545657e+1, 2.8029475e+2, -225471.6, -371099.88, 2357.944, -0.1421299, 0.15671934, -225433.42, -32236.502, 0.0, 5.014484, 4.9216747 
1.7544746e+1, 2.8521875e+2, -168532.14, -301731.06, -1375.9021, -0.12697397, 0.12428307, -168517.94, -23605.895, 0.0, 5.014446, 4.9284906 
1.7544958e+1, 2.9013932e+2, -120445.82, -252878.73, -1953.8931, -0.08154255, 0.033082444, -120417.0, -23762.004, 0.0, 5.013949, 4.9284506 
1.75451e+1, 2.950595e+2, -72752.98, -204232.56, -2489.5818, -0.039047677, -0.06250634, -72705.85, -24304.264, 0.0, 5.013271, 4.928411 
1.7545174e+1, 2.999993e+2, -13418.299, -94198.56, -3235.7566, -0.002396697, -0.10421413, -13288.894, -13288.894, 0.0, 5.01242, 4.959692 
1.754448e+1, 3.0497247e+2, -11613.614, -82281.266, -4369.6646, 0.02443352, -0.03078504, -11344.445, -11344.445, 0.0, 5.011025, 4.964201 
1.7543371e+1, 3.099481e+2, -15972.014, -83159.84, -4198.7866, 0.04631522, 0.046536017, -15710.635, -15710.635, 0.0, 5.0092764, 4.96456 
1.754209e+1, 3.1492466e+2, -20883.047, -84344.55, -3562.6443, 0.0630584, 0.12948737, -20683.672, -20683.672, 0.0, 5.007283, 4.9649186 
2.256209e+1, 1.2152064e+2, -1711221.5, -1743507.9, 35.084465, -0.0033052946, 0.038908146, -1711221.5, 37889.6, 0.0, 5.0131974, 4.9921536 
2.2562422e+1, 1.2650228e+2, -1670459.6, -1712541.3, 56.33993, -0.0013286475, -0.009995915, -1670459.5, 29826.227, 0.0, 5.0134754, 4.9861007 
2.2562926e+1, 1.3148928e+2, -1620608.6, -1663122.4, 72.94081, 0.0023519397, -0.0016885168, -1620608.5, 30804.742, 0.0, 5.013758, 4.9860997 
2.256343e+1, 1.3647625e+2, -1572973.4, -1618247.8, 89.45952, 0.006044164, 0.007873622, -1572973.3, 29567.72, 0.0, 5.014041, 4.9845943 
2.2563764e+1, 1.4145996e+2, -1529657.5, -1581891.3, 153.57677, 0.007858422, 0.025919432, -1529657.0, 24043.02, 0.0, 5.014238, 4.9802294 
2.2563773e+1, 1.4643972e+2, -1480212.6, -1532094.5, 198.81613, 0.0059590708, 0.01630745, -1480211.9, 24684.77, 0.0, 5.0142517, 4.9804673 
2.2563773e+1, 1.5141936e+2, -1431136.9, -1483030.9, 231.22052, 0.003969568, 0.0054373993, -1431135.9, 24958.36, 0.0, 5.0142593, 4.9804673 
2.2563776e+1, 1.56399e+2, -1383490.3, -1436944.4, 263.53943, 0.001987926, -0.0049826903, -1383488.9, 23802.934, 0.0, 5.014267, 4.979472 
2.2563851e+1, 1.6137514e+2, -1342877.5, -1405530.3, 328.42505, 0.0004355744, -0.006765939, -1342875.9, 15648.38, 0.0, 5.0142627, 4.973572 
2.2564052e+1, 1.6634893e+2, -1293818.9, -1356358.3, 293.2477, -0.00033378426, -0.00737316, -1293817.5, 15962.93, 0.0, 5.0142255, 4.9736066 
2.256426e+1, 1.7132276e+2, -1244813.1, -1307292.3, 245.8274, -0.0010648174, -0.0076254494, -1244812.1, 16224.223, 0.0, 5.0141864, 4.973607 
2.2564466e+1, 1.7629662e+2, -1196943.1, -1260629.8, 198.32059, -0.001771747, -0.0074900268, -1196942.5, 15349.592, 0.0, 5.0141473, 4.9728 
2.2564568e+1, 1.8126684e+2, -1156935.5, -1230682.8, 6.3943634, -0.002626332, 0.0011436229, -1156935.5, 6648.3657, 0.0, 5.014112, 4.966339 
2.2564378e+1, 1.8623376e+2, -1107641.3, -1181128.3, 25.716145, -0.0038649836, 0.0030862133, -1107641.3, 7268.314, 0.0, 5.014083, 4.966474 
2.2564177e+1, 1.9120067e+2, -1058532.1, -1131974.5, 126.23769, -0.0050770273, 0.004833775, -1058532.0, 7703.4116, 0.0, 5.0140533, 4.9664745 
2.2563975e+1, 1.9616759e+2, -1010314.75, -1084736.9, 226.81905, -0.006245722, 0.006875103, -1010314.06, 7247.0435, 0.0, 5.014024, 4.9658246 
2.2564095e+1, 2.0113066e+2, -970359.75, -1055376.1, 408.39218, -0.0047983746, 0.014221081, -970357.8, -1433.9917, 0.0, 5.014004, 4.959069 
2.2565012e+1, 2.0608962e+2, -920829.7, -1005507.9, 371.3923, 0.003114149, 0.008506479, -920828.06, -502.98978, 0.0, 5.0139995, 4.9592733 
2.2565967e+1, 2.1104856e+2, -871574.6, -956234.6, 285.65872, 0.011407864, 0.0021990007, -871573.7, 152.74374, 0.0, 5.0139937, 4.959278 
2.2566925e+1, 2.160075e+2, -822985.75, -908417.3, 200.01457, 0.019777365, -0.004048671, -822985.3, 142.43578, 0.0, 5.0139875, 4.9587827 
2.2567311e+1, 2.20963e+2, -783480.75, -880590.7, -157.17212, 0.023872754, 0.00050103967, -783480.5, -8917.227, 0.0, 5.0140057, 4.9513965 
2.2566031e+1, 2.2591503e+2, -733568.2, -830462.1, -229.72536, 0.016817095, 0.0018543969, -733567.6, -7533.989, 0.0, 5.014107, 4.951611 
2.2564654e+1, 2.3086706e+2, -683899.4, -780947.2, -102.43488, 0.009326819, 0.0028891482, -683899.25, -6395.243, 0.0, 5.014216, 4.9516196 
2.2563282e+1, 2.358191e+2, -634881.4, -732884.94, 21.89753, 0.0019733952, 0.0036997094, -634881.4, -5906.899, 0.0, 5.0143237, 4.951126 
2.2562495e+1, 2.4076717e+2, -594908.6, -704578.1, 1306.7441, -0.0047476147, 0.010299619, -594893.06, -14409.975, 0.0, 5.0143523, 4.943792 
2.2563766e+1, 2.4571052e+2, -545610.7, -654137.4, 1847.9039, -0.009208682, -0.0017892693, -545579.2, -13544.404, 0.0, 5.014112, 4.944238 
2.2565235e+1, 2.5065392e+2, -496923.75, -604990.5, 1726.4474, -0.013246506, -0.014332081, -496896.2, -13310.291, 0.0, 5.0138497, 4.94426 
2.256673e+1, 2.5559747e+2, -448480.03, -556408.5, 1603.922, -0.017050235, -0.025640555, -448456.2, -13320.673, 0.0, 5.013587, 4.9440846 
2.2567701e+1, 2.6053783e+2, -411339.25, -533349.0, 1780.9768, -0.026236594, -0.015402023, -411313.25, -24593.258, 0.0, 5.0133734, 4.9348583 
2.2566408e+1, 2.6547694e+2, -359799.88, -479773.03, 1805.0262, -0.046460237, 0.0065072733, -359772.72, -21440.072, 0.0, 5.01343, 4.9360957 
2.2564982e+1, 2.704159e+2, -309300.22, -429677.4, 2082.164, -0.066025525, 0.020180827, -309264.22, -19316.111, 0.0, 5.013535, 4.936241 
2.2563703e+1, 2.7535433e+2, -258738.98, -379847.0, 2293.2583, -0.084709786, 0.02387202, -258695.58, -17127.06, 0.0, 5.013638, 4.936339 
2.2561342e+1, 2.8028774e+2, -225403.7, -367033.38, 2494.443, -0.11955147, 0.05179844, -225359.78, -32128.506, 0.0, 5.013818, 4.923633 
2.2559786e+1, 2.8521317e+2, -171874.39, -304648.53, 82.64634, -0.107968256, 0.03645015, -171874.34, -26935.475, 0.0, 5.013897, 4.9279494 
2.2559446e+1, 2.901366e+2, -122175.46, -254734.2, -397.83008, -0.07095748, -0.012239831, -122174.266, -25512.88, 0.0, 5.0139155, 4.927947 
2.2559199e+1, 2.9505932e+2, -72403.51, -204893.81, -934.67, -0.033584695, -0.06990645, -72396.914, -24006.314, 0.0, 5.0139294, 4.9279447 
2.2558945e+1, 3.0000165e+2, -9266.315, -90410.73, -1964.8472, 0.0015759027, -0.08205806, -9218.766, -9218.766, 0.0, 5.013938, 4.9603558 
2.2557688e+1, 3.0497208e+2, -3532.765, -77228.62, -3811.6272, 0.03089738, -0.03175013, -3336.148, -3336.148, 0.0, 5.0141597, 4.96473 
2.2556362e+1, 3.0994427e+2, -1891.6655, -74463.61, -4788.15, 0.06115251, 0.01626334, -1577.1165, -1577.1165, 0.0, 5.0144496, 4.965579 
2.2555284e+1, 3.149186e+2, -57.946472, -71891.87, -5743.786, 0.09262816, 0.07706932, 398.42297, 398.42297, 0.0, 5.014733, 4.9664288 
2.757607e+1, 1.2152011e+2, -1711681.4, -1744435.6, 201.50772, 0.004362202, 0.03408347, -1711680.1, 37434.51, 0.0, 5.0131965, 4.991849 
2.7576312e+1, 1.26502e+2, -1670430.4, -1712475.4, 268.36453, 0.002736404, -0.012115236, -1670428.8, 29859.063, 0.0, 5.013475, 4.986122 
2.7576774e+1, 1.3148913e+2, -1620579.6, -1663056.5, 286.82214, 0.0032167828, -0.0028991136, -1620577.8, 30836.885, 0.0, 5.0137577, 4.9861207 
2.757724e+1, 1.3647622e+2, -1572944.8, -1618182.0, 305.13162, 0.0036746094, 0.0075735482, -1572942.6, 29599.08, 0.0, 5.01404, 4.984616 
2.7577567e+1, 1.4146002e+2, -1529598.0, -1581766.3, 202.1154, 0.0034470938, 0.026253095, -1529597.3, 24102.824, 0.0, 5.0142374, 4.980271 
2.7577642e+1, 1.464398e+2, -1480150.5, -1531964.9, 204.57776, 0.0020727224, 0.016710294, -1480149.6, 24746.348, 0.0, 5.0142517, 4.9805107 
2.757771e+1, 1.514195e+2, -1431074.9, -1482901.9, 237.65561, 0.00067932275, 0.005891139, -1431073.8, 25019.025, 0.0, 5.0142593, 4.98051 
2.757778e+1, 1.563992e+2, -1383428.3, -1436816.0, 270.64673, -0.0007175116, -0.00447977, -1383426.9, 23862.713, 0.0, 5.014267, 4.979515 
2.7577952e+1, 1.6137539e+2, -1342928.0, -1405636.0, 306.4188, -0.0012364706, -0.0059354627, -1342926.5, 15595.065, 0.0, 5.0142627, 4.973537 
2.757833e+1, 1.6634922e+2, -1293902.3, -1356533.1, 262.75253, 0.0001259733, -0.005546349, -1293901.1, 15877.099, 0.0, 5.0142255, 4.973549 
2.7578712e+1, 1.7132309e+2, -1244895.8, -1307466.6, 216.60957, 0.001552174, -0.0047729267, -1244895.0, 16139.352, 0.0, 5.0141864, 4.973549 
2.7579093e+1, 1.7629698e+2, -1197025.4, -1260803.8, 170.38528, 0.002979162, -0.0036110203, -1197024.9, 15265.658, 0.0, 5.0141473, 4.9727416 
2.757927e+1, 1.812672e+2, -1156810.1, -1230417.3, -19.876183, 0.003205226, 0.0047872285, -1156810.1, 6772.4795, 0.0, 5.014112, 4.9664288 
2.75789e+1, 1.8623392e+2, -1107458.6, -1180739.8, 2.1081257, 0.00046741604, 0.0036405753, -1107458.6, 7450.1616, 0.0, 5.014083, 4.9666057 
2.7578506e+1, 1.9120064e+2, -1058351.6, -1131588.5, 104.751686, -0.002392309, 0.0021980521, -1058351.5, 7883.414, 0.0, 5.0140533, 4.9666057 
2.7578107e+1, 1.9616738e+2, -1010136.3, -1084353.5, 207.45854, -0.005237297, 0.0010579517, -1010135.75, 7425.2637, 0.0, 5.0140233, 4.9659557 
2.7578032e+1, 2.0113042e+2, -970414.4, -1055491.0, 397.42545, -0.0055272365, 0.0074339225, -970412.5, -1489.1123, 0.0, 5.0140038, 4.95903 
2.757874e+1, 2.0608974e+2, -920970.75, -1005808.5, 367.1083, 0.00033929557, 0.0063252836, -920969.2, -646.4662, 0.0, 5.0139985, 4.959172 
2.7579483e+1, 2.1104906e+2, -871717.1, -956537.0, 285.14853, 0.0065177605, 0.0049091442, -871716.1, 5.8601794, 0.0, 5.0139923, 4.9591756 
2.7580225e+1, 2.160084e+2, -823129.6, -908721.5, 203.27992, 0.01273622, 0.0035684935, -823129.2, -7.878329, 0.0, 5.0139856, 4.95868 
2.7580553e+1, 2.2096401e+2, -783324.3, -880249.56, -136.13435, 0.016201925, 0.009627761, -783324.1, -8767.902, 0.0, 5.0140057, 4.9515133 
2.7579644e+1, 2.2591546e+2, -733322.56, -829940.0, -159.38304, 0.011809009, 0.0033754646, -733322.3, -7292.319, 0.0, 5.014109, 4.951792 
2.7578664e+1, 2.3086686e+2, -683656.94, -780438.25, -20.853186, 0.007014641, -0.0036861643, -683656.94, -6152.9834, 0.0, 5.0142183, 4.951797 
2.7577686e+1, 2.3581827e+2, -634642.06, -732389.06, 114.71145, 0.0023004026, -0.0109639205, -634641.94, -5663.8604, 0.0, 5.014327, 4.9513006 
2.7577257e+1, 2.4076608e+2, -594956.3, -704705.25, 1241.1306, -0.0015447746, -0.007654828, -594942.25, -14454.629, 0.0, 5.014354, 4.943749 
2.7578467e+1, 2.4571064e+2, -545788.6, -654554.0, 1651.9679, -0.0038816773, -0.0064336043, -545763.56, -13733.082, 0.0, 5.0141144, 4.9440928 
2.7579805e+1, 2.5065535e+2, -497096.06, -605406.1, 1544.388, -0.006079008, -0.0044183866, -497074.06, -13502.086, 0.0, 5.0138535, 4.944114 
2.7581167e+1, 2.5560018e+2, -448646.7, -556823.0, 1435.7522, -0.008093301, -0.0013372967, -448627.66, -13515.466, 0.0, 5.0135922, 4.943938 
2.7581885e+1, 2.6054138e+2, -410422.72, -531367.44, 1427.9385, -0.016135069, 0.014989227, -410405.84, -23716.898, 0.0, 5.013388, 4.9355593 
2.7580273e+1, 2.654784e+2, -358730.38, -477746.06, 1842.0626, -0.043416437, 0.010373789, -358701.84, -20391.871, 0.0, 5.013483, 4.93684 
2.7578554e+1, 2.704148e+2, -308163.78, -427794.63, 2349.308, -0.07169325, -0.0063763647, -308117.66, -18180.064, 0.0, 5.013627, 4.936935 
2.757698e+1, 2.7535054e+2, -257535.48, -378107.94, 2790.5293, -0.09927726, -0.033466753, -257470.94, -15899.872, 0.0, 5.0137687, 4.9369826 
2.7574393e+1, 2.802813e+2, -224146.97, -364021.78, 605.3869, -0.12774834, -0.040771194, -224144.34, -30893.684, 0.0, 5.0138054, 4.924683 
2.7572963e+1, 2.8520885e+2, -172912.13, -305971.75, -521.4648, -0.10792627, -0.03446463, -172910.1, -27963.777, 0.0, 5.0137553, 4.927501 
2.7572757e+1, 2.9013568e+2, -123198.555, -256181.38, -822.2111, -0.073488355, -0.042486668, -123193.48, -26546.748, 0.0, 5.013785, 4.927462 
2.7572638e+1, 2.9506183e+2, -73411.35, -206464.5, -1179.3854, -0.03888257, -0.059193168, -73400.9, -25046.99, 0.0, 5.013809, 4.9274235 
2.757241e+1, 3.0000725e+2, -9411.085, -90139.79, -2143.06, -0.006059412, -0.03684485, -9354.234, -9354.234, 0.0, 5.013829, 4.960491 
2.757094e+1, 3.049749e+2, -4192.875, -78327.12, -3444.73, 0.019878322, -0.0069057327, -4033.1558, -4033.1558, 0.0, 5.014079, 4.964451 
2.7569407e+1, 3.099427e+2, -2371.4644, -75260.02, -3966.9824, 0.04560769, 0.008496165, -2156.1958, -2156.1958, 0.0, 5.0143995, 4.9653726 
2.7568108e+1, 3.1491262e+2, -357.2759, -72386.64, -4468.45, 0.07202276, 0.035134796, -81.1276, -81.1276, 0.0, 5.0147133, 4.966295 
3.2590058e+1, 1.21519536e+2, -1712097.1, -1745272.0, 367.1118, 0.01207211, 0.028877234, -1712093.0, 37025.68, 0.0, 5.013196, 4.9915733 
3.2590201e+1, 1.2650175e+2, -1670401.9, -1712408.9, 480.43436, 0.006807682, -0.014184431, -1670396.4, 29893.332, 0.0, 5.0134745, 4.986143 
3.2590625e+1, 1.3148896e+2, -1620551.4, -1662990.1, 500.74872, 0.004085048, -0.0040781125, -1620545.5, 30870.482, 0.0, 5.013757, 4.986142 
3.2591045e+1, 1.3647616e+2, -1572916.6, -1618115.6, 520.84894, 0.0013056715, 0.0072865444, -1572910.6, 29631.8, 0.0, 5.0140395, 4.984637 
3.2591367e+1, 1.4146006e+2, -1529542.0, -1581647.5, 250.96222, -0.00096823584, 0.026598308, -1529540.8, 24159.393, 0.0, 5.0142374, 4.9803104 
3.2591507e+1, 1.4643991e+2, -1480088.5, -1531835.0, 210.49635, -0.0018167678, 0.017119648, -1480087.6, 24807.688, 0.0, 5.014251, 4.9805536 
3.2591644e+1, 1.5141967e+2, -1431013.0, -1482772.8, 244.24762, -0.0026125307, 0.0063431435, -1431011.9, 25079.457, 0.0, 5.0142593, 4.9805536 
3.259178e+1, 1.563994e+2, -1383366.6, -1436687.5, 277.91098, -0.0034230244, -0.00398683, -1383365.3, 23922.262, 0.0, 5.0142674, 4.979558 
3.2592052e+1, 1.6137563e+2, -1342981.5, -1405747.0, 284.11295, -0.0029074901, -0.0050922665, -1342980.1, 15538.833, 0.0, 5.0142627, 4.9735003 
3.2592607e+1, 1.663495e+2, -1293986.0, -1356707.6, 232.30836, 0.00058681366, -0.0037107444, -1293985.1, 15790.837, 0.0, 5.0142255, 4.97349 
3.2593164e+1, 1.7132342e+2, -1244979.0, -1307640.6, 187.44278, 0.004170305, -0.0019249996, -1244978.4, 16054.055, 0.0, 5.0141864, 4.9734907 
3.2593724e+1, 1.7629735e+2, -1197108.0, -1260977.4, 142.50107, 0.0077312673, 0.00025000118, -1197107.6, 15181.301, 0.0, 5.0141473, 4.9726834 
3.259397e+1, 1.8126753e+2, -1156691.9, -1230166.0, -45.648186, 0.009032569, 0.008460362, -1156691.9, 6889.531, 0.0, 5.014112, 4.966513 
3.2593423e+1, 1.8623409e+2, -1107276.5, -1180350.8, -21.244188, 0.0047985245, 0.004214102, -1107276.5, 7631.44, 0.0, 5.0140824, 4.966737 
3.259283e+1, 1.9120063e+2, -1058171.8, -1131202.1, 83.521225, 0.0002968006, -0.00045092977, -1058171.6, 8062.858, 0.0, 5.014053, 4.966737 
3.2592243e+1, 1.9616716e+2, -1009958.5, -1083969.5, 188.35345, -0.004218799, -0.0048048813, -1009958.0, 7602.936, 0.0, 5.014023, 4.966086 
3.2591972e+1, 2.0113018e+2, -970480.6, -1055629.8, 387.54453, -0.0062711225, 0.0007237842, -970478.9, -1555.8988, 0.0, 5.0140033, 4.958983 
3.259247e+1, 2.0608987e+2, -921112.5, -1006108.75, 363.15445, -0.002442036, 0.004203727, -921110.94, -790.7136, 0.0, 5.013997, 4.9590693 
3.2593e+1, 2.1104957e+2, -871860.25, -956838.94, 284.96872, 0.0016435926, 0.0075954963, -871859.3, -141.75839, 0.0, 5.0139904, 4.9590726 
3.2593527e+1, 2.1600929e+2, -823274.25, -909025.2, 206.8759, 0.0057334243, 0.011078441, -823273.75, -158.89072, 0.0, 5.0139837, 4.958576 
3.2593787e+1, 2.2096504e+2, -783223.25, -880028.1, -107.8128, 0.008458993, 0.018904798, -783223.1, -8673.991, 0.0, 5.014006, 4.9515886 
3.259326e+1, 2.259159e+2, -733078.4, -829417.3, -84.677345, 0.0067530237, 0.0049517374, -733078.3, -7051.935, 0.0, 5.0141106, 4.95197 
3.2592678e+1, 2.3086666e+2, -683415.94, -779928.75, 65.0903, 0.004740215, -0.0104743, -683415.9, -5911.85, 0.0, 5.0142207, 4.951972 
3.2592103e+1, 2.358174e+2, -634404.1, -731892.5, 211.88588, 0.0027508151, -0.026108403, -634403.7, -5421.7866, 0.0, 5.01433, 4.951472 
3.259202e+1, 2.4076506e+2, -595075.75, -704990.3, 1175.4906, 0.0016476087, -0.025049431, -595063.2, -14571.536, 0.0, 5.0143557, 4.9436502 
3.2593173e+1, 2.4571085e+2, -545967.9, -654970.0, 1456.3254, 0.0014748406, -0.010309173, -545948.44, -13923.058, 0.0, 5.0141163, 4.943946 
3.2594398e+1, 2.5065684e+2, -497269.63, -605820.94, 1362.6233, 0.0012630267, 0.005746619, -497252.5, -13695.011, 0.0, 5.0138574, 4.9439664 
3.2595643e+1, 2.5560296e+2, -448814.6, -557236.8, 1267.8783, 0.0011831939, 0.022699807, -448799.75, -13711.216, 0.0, 5.013598, 4.9437885 
3.2596046e+1, 2.6054466e+2, -410202.53, -530955.25, 1115.9384, -0.006544133, 0.045376394, -410192.22, -23531.658, 0.0, 5.013403, 4.9356875 
3.259416e+1, 2.654793e+2, -357671.13, -475723.38, 1956.1211, -0.040712286, 0.009787542, -357638.72, -19345.813, 0.0, 5.013536, 4.937505 
3.2592258e+1, 2.7041292e+2, -307036.78, -425915.22, 2693.3862, -0.07689178, -0.043221857, -306975.78, -17041.383, 0.0, 5.013719, 4.93755 
3.2590497e+1, 2.7534586e+2, -256340.7, -376371.34, 3364.6702, -0.112567, -0.10692766, -256246.45, -14663.731, 0.0, 5.0138993, 4.9375477 
3.258746e+1, 2.8027505e+2, -225255.1, -366470.9, -1425.0012, -0.13610579, -0.13037604, -225240.72, -31972.434, 0.0, 5.013794, 4.923806 
3.2585946e+1, 2.8520554e+2, -173959.95, -307289.94, -1054.4907, -0.109068, -0.08846516, -173951.61, -29007.682, 0.0, 5.0136137, 4.9270062 
3.258591e+1, 2.901356e+2, -124231.22, -257623.16, -1175.4944, -0.0765671, -0.061157558, -124220.86, -27596.646, 0.0, 5.0136538, 4.926931 
3.258596e+1, 2.9506496e+2, -74428.27, -208029.4, -1352.9717, -0.044092398, -0.04224209, -74414.58, -26103.236, 0.0, 5.013689, 4.9268556 
3.258574e+1, 3.0001256e+2, -10510.155, -92077.93, -2336.041, -0.013663329, 0.0069712726, -10443.308, -10443.308, 0.0, 5.013721, 4.959802 
3.2583922e+1, 3.049763e+2, -4864.4736, -79417.26, -3162.1423, 0.0067074336, 0.0029771852, -4730.5923, -4730.5923, 0.0, 5.0139985, 4.964048 
3.2582077e+1, 3.099392e+2, -2862.703, -76048.19, -3230.1145, 0.025681254, -0.028151236, -2720.4153, -2720.4153, 0.0, 5.0143495, 4.965042 
3.2580447e+1, 3.1490418e+2, -668.1765, -72873.164, -3277.5103, 0.044805694, -0.049599346, -519.70984, -519.70984, 0.0, 5.0146933, 4.9660363 
3.7604046e+1, 1.2151892e+2, -1712490.0, -1746027.5, 536.3011, 0.019829202, 0.023286618, -1712481.5, 36641.754, 0.0, 5.0131884, 4.991328 
3.760409e+1, 1.2650149e+2, -1670370.3, -1712339.8, 696.03784, 0.010886804, -0.016203575, -1670358.8, 29932.879, 0.0, 5.0134754, 4.986164 
3.7604472e+1, 1.3148881e+2, -1620519.0, -1662920.6, 718.0389, 0.004957396, -0.005225488, -1620506.9, 30910.459, 0.0, 5.0137587, 4.986163 
3.760485e+1, 1.3647611e+2, -1572903.1, -1618055.5, 740.12695, -0.0010609473, 0.0070119784, -1572891.0, 29652.11, 0.0, 5.0140347, 4.984658 
3.7605163e+1, 1.4146012e+2, -1529526.3, -1581553.3, 303.70508, -0.0053841625, 0.026953554, -1529524.5, 24175.752, 0.0, 5.0142245, 4.980347 
3.760537e+1, 1.4644001e+2, -1480066.1, -1531724.4, 218.69087, -0.0057059345, 0.01753418, -1480065.1, 24829.463, 0.0, 5.014238, 4.9805965 
3.760558e+1, 1.5141982e+2, -1430999.4, -1482666.9, 251.72086, -0.0059016976, 0.006792562, -1430998.1, 25091.777, 0.0, 5.014243, 4.9805965 
3.7605786e+1, 1.563996e+2, -1383368.8, -1436589.6, 284.84918, -0.006122631, -0.003504, -1383367.3, 23918.045, 0.0, 5.014246, 4.979601 
3.7606156e+1, 1.6137587e+2, -1343108.3, -1405897.6, 260.6387, -0.004571138, -0.0042359354, -1343107.3, 15409.1875, 0.0, 5.014239, 4.973461 
3.760688e+1, 1.6634978e+2, -1294122.0, -1356906.8, 201.38885, 0.0010518405, -0.0018661736, -1294121.4, 15652.283, 0.0, 5.014208, 4.973432 
3.7607616e+1, 1.7132375e+2, -1245106.4, -1307835.4, 158.32953, 0.006790898, 0.00091813214, -1245106.0, 15924.473, 0.0, 5.0141716, 4.973432 
3.760835e+1, 1.7629771e+2, -1197238.6, -1261173.5, 115.43172, 0.012485745, 0.0040923543, -1197238.4, 15048.947, 0.0, 5.0141306, 4.972625 
3.7608668e+1, 1.8126789e+2, -1156629.4, -1229952.1, -70.03396, 0.014857232, 0.012162172, -1156629.3, 6950.792, 0.0, 5.0140953, 4.966593 
3.760794e+1, 1.8623425e+2, -1107122.4, -1179974.5, -45.89845, 0.009129141, 0.004806834, -1107122.4, 7784.7183, 0.0, 5.0140734, 4.9668674 
3.7607157e+1, 1.912006e+2, -1058010.9, -1130824.1, 58.782627, 0.0029920067, -0.0031122917, -1058010.8, 8223.221, 0.0, 5.0140467, 4.9668674 
3.7606376e+1, 1.9616695e+2, -1009804.5, -1083596.1, 163.961, -0.003185879, -0.010711801, -1009804.1, 7756.76, 0.0, 5.0140147, 4.9662166 
3.760591e+1, 2.0112996e+2, -970592.56, -1055808.5, 373.6756, -0.0070233103, -0.005907575, -970590.94, -1668.5239, 0.0, 5.013991, 4.958927 
3.7606195e+1, 2.0609002e+2, -921291.3, -1006425.56, 356.38428, -0.0052239774, 0.0021431097, -921289.9, -972.1118, 0.0, 5.0139837, 4.9589663 
3.7606514e+1, 2.110501e+2, -872054.4, -957164.2, 280.54028, -0.0032075034, 0.010258747, -872053.44, -340.38742, 0.0, 5.013972, 4.958969 
3.760683e+1, 2.160102e+2, -823496.25, -909364.6, 201.41086, -0.0012202642, 0.018481096, -823495.75, -387.40564, 0.0, 5.013955, 4.9584723 
3.760702e+1, 2.2096607e+2, -783274.25, -879970.9, -83.207695, 0.00065781246, 0.028330507, -783274.2, -8732.046, 0.0, 5.0139728, 4.9516215 
3.7606868e+1, 2.2591633e+2, -732918.0, -828931.25, -3.8776045, 0.001660509, 0.0065806615, -732918.0, -6895.2, 0.0, 5.0140834, 4.952146 
3.7606698e+1, 2.3086642e+2, -683269.1, -779460.06, 168.96094, 0.002515274, -0.01747491, -683268.8, -5764.572, 0.0, 5.01419, 4.9521446 
3.7606528e+1, 2.3581651e+2, -634298.1, -731453.44, 337.23367, 0.0033400715, -0.04172677, -634296.94, -5311.0146, 0.0, 5.014287, 4.9516416 
3.7606782e+1, 2.407641e+2, -595439.94, -705511.25, 1143.1747, 0.004850909, -0.041868553, -595428.06, -14932.954, 0.0, 5.014297, 4.943497 
3.7607887e+1, 2.4571113e+2, -546270.75, -655442.2, 1286.2391, 0.0068868957, -0.01339486, -546255.56, -14236.168, 0.0, 5.0140758, 4.9437957 
3.7609017e+1, 2.506584e+2, -497477.5, -606252.94, 1171.7866, 0.008812967, 0.016183268, -497464.9, -13922.424, 0.0, 5.01385, 4.9438148 
3.7610164e+1, 2.5560573e+2, -448897.2, -557614.9, 1030.8875, 0.010822932, 0.04648465, -448887.4, -13822.809, 0.0, 5.013635, 4.943636 
3.7610188e+1, 2.6054764e+2, -410539.84, -532034.9, 791.1262, 0.0026075272, 0.07575168, -410534.7, -23899.813, 0.0, 5.0134645, 4.9352493 
3.7608087e+1, 2.6547965e+2, -357247.16, -473943.47, 2494.0027, -0.038141325, 0.0047579864, -357193.88, -18912.604, 0.0, 5.0133605, 4.938106 
3.760612e+1, 2.7041036e+2, -308057.5, -424932.06, 3925.7463, -0.08117524, -0.09016017, -307925.78, -17987.615, 0.0, 5.013039, 4.938106 
3.7604296e+1, 2.7534032e+2, -259487.33, -376477.25, 5320.735, -0.123795874, -0.19595513, -259245.84, -17643.236, 0.0, 5.0124664, 4.9380584 
3.7600595e+1, 2.8026912e+2, -234968.89, -377158.56, -1888.5637, -0.14355162, -0.21614505, -234943.81, -41660.94, 0.0, 5.0115385, 4.921002 
3.7598774e+1, 2.8520334e+2, -179351.44, -310581.75, -173.52977, -0.11060414, -0.12497446, -179351.2, -34420.36, 0.0, 5.0119047, 4.9264455 
3.759894e+1, 2.9013637e+2, -127781.57, -260213.1, -537.2915, -0.07968795, -0.06801353, -127779.39, -31185.982, 0.0, 5.0126133, 4.926338 
3.759919e+1, 2.9506865e+2, -76669.11, -210155.16, -881.21545, -0.04892073, -0.019072691, -76663.29, -28400.51, 0.0, 5.0131283, 4.926231 
3.7598935e+1, 3.0001754e+2, -13145.212, -96490.5, -2247.2468, -0.021068208, 0.049232863, -13084.663, -13084.663, 0.0, 5.0134006, 4.958285 
3.759665e+1, 3.049763e+2, -7046.022, -81174.53, -3136.019, -0.00837471, -0.002043748, -6913.589, -6913.589, 0.0, 5.01337, 4.963511 
3.7594396e+1, 3.0993378e+2, -6837.4546, -78380.63, -3709.2524, 0.0018670926, -0.09334982, -6645.6577, -6645.6577, 0.0, 5.0130267, 4.964567 
3.7592345e+1, 3.1489328e+2, -7346.376, -76169.97, -4745.9956, 0.011892403, -0.17650685, -7020.639, -7020.639, 0.0, 5.0123405, 4.9656243 
4.2617878e+1, 1.2151868e+2, -1710045.6, -1745694.1, 924.1624, 0.02124156, 0.0195022, -1710021.8, 39102.195, 0.0, 5.0141864, 4.990947 
4.2617962e+1, 1.2650156e+2, -1668365.1, -1711344.3, 1015.1235, 0.011459181, -0.016435644, -1668341.3, 31948.693, 0.0, 5.0141406, 4.986165 
4.2618394e+1, 1.3148881e+2, -1619545.5, -1662436.3, 997.2368, 0.0048991907, -0.006254935, -1619522.4, 31894.191, 0.0, 5.0140824, 4.9861636 
4.261882e+1, 1.3647604e+2, -1572934.5, -1618066.1, 979.3348, -0.001674115, 0.0051567317, -1572913.3, 29630.19, 0.0, 5.0140243, 4.9846582 
4.2619178e+1, 1.4146e+2, -1530252.1, -1581918.5, 434.36746, -0.006222016, 0.02484675, -1530248.5, 23452.45, 0.0, 5.0139837, 4.9803433 
4.261942e+1, 1.4644e+2, -1480885.1, -1532144.4, 256.4132, -0.0062189107, 0.016519642, -1480883.8, 24010.8, 0.0, 5.0139675, 4.9805884 
4.2619655e+1, 1.5141991e+2, -1431879.9, -1483114.5, 211.76714, -0.006045226, 0.006934133, -1431879.0, 24210.072, 0.0, 5.0139513, 4.980588 
4.2619893e+1, 1.563998e+2, -1384303.4, -1437061.6, 166.98396, -0.005865474, -0.0021923785, -1384302.8, 22980.85, 0.0, 5.013935, 4.979593 
4.2620268e+1, 1.6137615e+2, -1344030.0, -1406381.6, 118.15669, -0.0041977875, -0.0020847728, -1344029.8, 14484.481, 0.0, 5.013935, 4.973446 
4.2620942e+1, 1.6635005e+2, -1294868.1, -1357312.4, 114.92515, 0.0008917245, 0.00041910508, -1294867.9, 14903.901, 0.0, 5.013964, 4.973413 
4.2621627e+1, 1.7132401e+2, -1245656.4, -1308144.3, 128.70181, 0.0061315084, 0.003318799, -1245656.1, 15372.872, 0.0, 5.0139933, 4.9734135 
4.262231e+1, 1.7629798e+2, -1197582.0, -1261381.5, 142.6236, 0.011386059, 0.0066103144, -1197581.6, 14704.527, 0.0, 5.014023, 4.9726067 
4.2622632e+1, 1.812681e+2, -1156707.1, -1229913.4, -22.557032, 0.013770596, 0.014249769, -1156707.1, 6872.1665, 0.0, 5.014053, 4.966626 
4.2622006e+1, 1.8623434e+2, -1107027.8, -1179807.9, -111.18189, 0.009045045, 0.0050975746, -1107027.6, 7879.204, 0.0, 5.0140805, 4.96692 
4.2621338e+1, 1.9120054e+2, -1057759.5, -1130580.1, -127.88615, 0.004010398, -0.0046736207, -1057759.3, 8475.031, 0.0, 5.0141077, 4.966921 
4.262067e+1, 1.9616678e+2, -1009383.9, -1083269.1, -144.36375, -0.0010050943, -0.014117096, -1009383.56, 8178.1216, 0.0, 5.014135, 4.966271 
4.262021e+1, 2.0112976e+2, -970276.25, -1055654.1, -34.921043, -0.004455452, -0.009885056, -970276.25, -1353.1902, 0.0, 5.0141015, 4.958927 
4.2620242e+1, 2.0609005e+2, -921533.56, -1006591.56, 38.076473, -0.0042035026, 0.00054566097, -921533.56, -1216.8047, 0.0, 5.0139112, 4.958942 
4.26203e+1, 2.1105036e+2, -872833.0, -957591.2, 79.51624, -0.003747075, 0.011176082, -872832.94, -1122.5115, 0.0, 5.0137134, 4.9589415 
4.262036e+1, 2.1601067e+2, -824795.44, -910042.9, 121.40632, -0.0032467772, 0.021931665, -824795.25, -1691.1785, 0.0, 5.0135145, 4.9584417 
4.2620397e+1, 2.2096662e+2, -784895.7, -880698.1, 32.378975, -0.0023255253, 0.032861497, -784895.7, -10358.451, 0.0, 5.0133963, 4.9516354 
4.2620438e+1, 2.2591656e+2, -734545.06, -829470.8, -6.390823, -0.00035390447, 0.0069960686, -734545.06, -8525.167, 0.0, 5.013467, 4.952239 
4.2620492e+1, 2.3086634e+2, -684976.75, -780022.06, -26.133211, 0.0017477422, -0.021412581, -684976.75, -7473.474, 0.0, 5.0135455, 4.9522405 
4.262055e+1, 2.3581615e+2, -636061.8, -732022.1, -45.96397, 0.0039290558, -0.04981261, -636061.8, -7075.0537, 0.0, 5.013623, 4.95174 
4.262091e+1, 2.4076377e+2, -597648.06, -706748.2, 464.95267, 0.006511774, -0.04960135, -597646.1, -17151.064, 0.0, 5.0135784, 4.943393 
4.2621827e+1, 2.4571155e+2, -548868.1, -657014.06, 498.59204, 0.0095106885, -0.012544224, -548865.8, -16851.49, 0.0, 5.013232, 4.943631 
4.262277e+1, 2.5065947e+2, -500429.4, -608060.94, 401.66183, 0.012603817, 0.025225017, -500427.9, -16894.656, 0.0, 5.0128713, 4.9436235 
4.262375e+1, 2.556074e+2, -452233.88, -559668.7, 305.85907, 0.015876984, 0.06340835, -452233.0, -17181.146, 0.0, 5.012507, 4.9434175 
4.2623672e+1, 2.6054916e+2, -413833.75, -533642.44, 357.1016, 0.009448722, 0.09495754, -413832.66, -27208.684, 0.0, 5.0122266, 4.9352093 
4.2622402e+1, 2.6548013e+2, -360416.94, -472115.66, 1391.5153, -0.021003734, 0.00071297906, -360399.63, -22126.385, 0.0, 5.011615, 4.939383 
4.262164e+1, 2.7041063e+2, -312445.94, -422852.5, 1769.9652, -0.048512697, -0.11324235, -312417.56, -22493.404, 0.0, 5.010889, 4.93955 
4.2621216e+1, 2.7534115e+2, -264496.47, -373741.94, 2073.3901, -0.0716577, -0.22996813, -264457.16, -22882.22, 0.0, 5.010141, 4.939669 
4.2618474e+1, 2.8027242e+2, -239001.48, -384045.0, -5062.965, -0.07288954, -0.22364502, -238824.97, -45600.04, 0.0, 5.010938, 4.918661 
4.26156e+1, 2.852072e+2, -178693.55, -314352.72, -1388.7141, -0.0554378, -0.112158835, -178679.33, -33805.137, 0.0, 5.01222, 4.9250073 
4.2614707e+1, 2.901397e+2, -128354.34, -264077.56, -1644.6433, -0.043973174, -0.05449816, -128334.414, -31784.531, 0.0, 5.0125246, 4.9250813 
4.261404e+1, 2.9507202e+2, -77990.42, -213844.4, -1979.7333, -0.029853605, -0.0004022712, -77961.58, -29734.094, 0.0, 5.012798, 4.925155 
4.2612958e+1, 3.0001986e+2, -14436.251, -100420.09, -3110.3828, -0.01594177, 0.06652362, -14323.883, -14323.883, 0.0, 5.013275, 4.957043 
4.2610464e+1, 3.0497614e+2, -3056.6257, -81170.18, -2960.8594, -0.011611834, -0.009192459, -2944.5564, -2944.5564, 0.0, 5.014894, 4.962906 
4.2608586e+1, 3.0993125e+2, 2314.3083, -77147.89, -2397.1196, -0.0024367366, -0.12372832, 2386.5562, 2386.5562, 0.0, 5.016652, 4.9635177 
4.260735e+1, 3.1488776e+2, 7763.374, -73210.57, -1983.098, 0.01325417, -0.23097298, 7811.912, 7811.912, 0.0, 5.018378, 4.9641294 
4.7631553e+1, 1.2151882e+2, -1710796.3, -1747215.4, 945.4936, 0.0160354, 0.017801944, -1710771.8, 38348.887, 0.0, 5.014186, 4.9904475 
4.7631812e+1, 1.2650195e+2, -1668396.9, -1711402.9, 967.9711, 0.008487921, -0.014933358, -1668375.1, 31909.56, 0.0, 5.01414, 4.986146 
4.7632378e+1, 1.3148893e+2, -1619577.4, -1662494.9, 952.09705, 0.0038763955, -0.0071589774, -1619556.3, 31857.662, 0.0, 5.014082, 4.9861445 
4.7632942e+1, 1.364759e+2, -1572966.4, -1618124.5, 936.22156, -0.0007682156, 0.0018494577, -1572947.0, 29596.344, 0.0, 5.014024, 4.984639 
4.7633398e+1, 1.4145975e+2, -1530316.3, -1582047.9, 416.7311, -0.0039533605, 0.020534523, -1530312.9, 23389.41, 0.0, 5.0139832, 4.980301 
4.763363e+1, 1.464399e+2, -1480966.0, -1532310.1, 243.33998, -0.0038273465, 0.014272415, -1480964.9, 23930.297, 0.0, 5.0139675, 4.9805336 
4.7633857e+1, 1.5141995e+2, -1431960.3, -1483280.0, 199.59407, -0.0035837418, 0.0068603763, -1431959.4, 24129.387, 0.0, 5.0139513, 4.9805336 
4.7634086e+1, 1.5640001e+2, -1384383.0, -1437226.8, 155.71382, -0.003341185, -0.00009348914, -1384382.5, 22899.953, 0.0, 5.013935, 4.979538 
4.763438e+1, 1.6137645e+2, -1344020.1, -1406361.8, 133.28677, -0.0024723979, 0.0012576563, -1344019.9, 14492.804, 0.0, 5.0139356, 4.9734526 
4.7634804e+1, 1.663503e+2, -1294839.4, -1357252.8, 136.68036, -0.00017139208, 0.0031102744, -1294839.0, 14931.43, 0.0, 5.013964, 4.9734335 
4.763523e+1, 1.7132422e+2, -1245627.9, -1308084.6, 151.6683, 0.0021860553, 0.0053063245, -1245627.6, 15400.364, 0.0, 5.0139937, 4.973434 
4.7635654e+1, 1.7629813e+2, -1197553.9, -1261321.8, 166.79788, 0.004543747, 0.007896069, -1197553.4, 14731.986, 0.0, 5.014023, 4.972627 
4.76359e+1, 1.812682e+2, -1156716.0, -1229934.4, -0.43991598, 0.00590325, 0.014837899, -1156716.0, 6862.9556, 0.0, 5.0140533, 4.966619 
4.763565e+1, 1.8623435e+2, -1107052.5, -1179863.5, -89.65788, 0.0046427967, 0.0050873463, -1107052.5, 7854.6514, 0.0, 5.014081, 4.966902 
4.7635373e+1, 1.9120048e+2, -1057784.3, -1130635.1, -104.83075, 0.0032494434, -0.005264105, -1057784.1, 8451.142, 0.0, 5.014108, 4.9669023 
4.7635096e+1, 1.9616663e+2, -1009408.7, -1083323.6, -119.77942, 0.0018571176, -0.0152855795, -1009408.5, 8154.8857, 0.0, 5.014135, 4.9662523 
4.763483e+1, 2.0112959e+2, -970205.75, -1055506.0, -141.19643, 0.0006785935, -0.011544267, -970205.5, -1280.5289, 0.0, 5.0141025, 4.958977 
4.7634575e+1, 2.0608994e+2, -921457.1, -1006430.56, -111.87163, -0.00008295183, -0.0007511695, -921457.0, -1139.6337, 0.0, 5.0139117, 4.9589972 
4.7634315e+1, 2.1105038e+2, -872758.2, -957430.94, -68.14182, -0.0008216115, 0.010364832, -872758.1, -1048.5302, 0.0, 5.0137134, 4.9589972 
4.763406e+1, 2.160108e+2, -824722.2, -909883.4, -23.945354, -0.0015463126, 0.021614613, -824722.2, -1620.3722, 0.0, 5.0135145, 4.958497 
4.7633857e+1, 2.209668e+2, -784883.4, -880691.0, 46.635536, -0.0018757194, 0.032704495, -784883.4, -10349.178, 0.0, 5.0133986, 4.9516377 
4.763392e+1, 2.2591667e+2, -734557.44, -829530.1, 66.52761, -0.0003999745, 0.006426441, -734557.44, -8539.94, 0.0, 5.01347, 4.952219 
4.7634012e+1, 2.3086639e+2, -684989.06, -780081.6, 50.378292, 0.001284488, -0.022357736, -684989.0, -7487.424, 0.0, 5.0135493, 4.95222 
4.763411e+1, 2.3581614e+2, -636073.94, -732081.94, 34.134254, 0.002999306, -0.051128868, -636073.94, -7088.188, 0.0, 5.013627, 4.9517193 
4.763436e+1, 2.4076378e+2, -597684.4, -706896.4, 279.52444, 0.004763858, -0.050486192, -597683.6, -17189.45, 0.0, 5.013584, 4.943345 
4.763487e+1, 2.4571176e+2, -548986.2, -657385.5, 204.46811, 0.007166392, -0.01017927, -548985.8, -16972.764, 0.0, 5.013242, 4.9435077 
4.7635394e+1, 2.5065988e+2, -500537.47, -608424.7, 111.77663, 0.009776864, 0.03103823, -500537.34, -17005.783, 0.0, 5.0128837, 4.9435015 
4.7635955e+1, 2.5560802e+2, -452332.03, -560024.9, 20.226742, 0.012511145, 0.072574325, -452332.03, -17282.154, 0.0, 5.012522, 4.943297 
4.7635826e+1, 2.6054966e+2, -413470.8, -533251.5, 252.68687, 0.008071766, 0.10393567, -413470.25, -26846.281, 0.0, 5.012272, 4.93534 
4.7635782e+1, 2.6548022e+2, -359307.84, -470537.75, 1303.0751, -0.0071938187, -0.00013161478, -359292.56, -21019.004, 0.0, 5.011713, 4.9399223 
4.7636327e+1, 2.704104e+2, -311286.56, -421489.63, 1780.2633, -0.018894505, -0.124085166, -311257.8, -21333.805, 0.0, 5.0110283, 4.94002 
4.7637174e+1, 2.7534053e+2, -263286.34, -372593.44, 2182.549, -0.027557334, -0.2507898, -263242.78, -21667.602, 0.0, 5.0103216, 4.94007 
4.763543e+1, 2.8027228e+2, -240031.27, -386700.34, -4112.005, -0.024858426, -0.23800744, -239916.08, -46697.816, 0.0, 5.010972, 4.917713 
4.7631967e+1, 2.85208e+2, -179311.48, -315405.03, -1290.7289, -0.019017471, -0.111462556, -179299.25, -34436.707, 0.0, 5.0121284, 4.924623 
4.7630185e+1, 2.9014087e+2, -128954.44, -265314.25, -1423.0813, -0.017749682, -0.047912993, -128939.586, -32399.672, 0.0, 5.0124497, 4.924643 
4.7628602e+1, 2.9507354e+2, -78571.84, -215264.72, -1634.7002, -0.015020046, 0.012464954, -78552.3, -30332.936, 0.0, 5.012739, 4.924663 
4.7626713e+1, 3.0002055e+2, -14557.744, -101272.414, -2236.3157, -0.014327453, 0.074688226, -14500.109, -14500.109, 0.0, 5.0132785, 4.9567304 
4.762457e+1, 3.0497667e+2, -1870.3832, -80057.51, -1460.1073, -0.024021663, -0.012793466, -1843.1259, -1843.1259, 0.0, 5.015052, 4.9631324 
4.7623235e+1, 3.099327e+2, 3913.0767, -76040.23, -645.9923, -0.030105354, -0.13301927, 3918.2957, 3918.2957, 0.0, 5.01695, 4.96369 
4.7622463e+1, 3.1488985e+2, 9773.702, -72108.02, 18.1653, -0.03178578, -0.24865891, 9773.706, 9773.706, 0.0, 5.018817, 4.964247 
5.264523e+1, 1.2151895e+2, -1711492.9, -1748625.8, 966.61273, 0.010804485, 0.01603884, -1711467.8, 37649.773, 0.0, 5.014186, 4.989984 
5.264566e+1, 1.2650235e+2, -1668429.1, -1711461.4, 920.782, 0.005516717, -0.013339531, -1668409.4, 31870.027, 0.0, 5.0141397, 4.9861264 
5.264636e+1, 1.3148907e+2, -1619609.6, -1662553.1, 906.9205, 0.0028529437, -0.008007464, -1619590.5, 31820.734, 0.0, 5.0140815, 4.986125 
5.264706e+1, 1.3647579e+2, -1572998.8, -1618182.8, 893.0715, 0.00013631521, -0.0014382484, -1572981.1, 29562.102, 0.0, 5.0140233, 4.9846196 
5.264761e+1, 1.414595e+2, -1530387.5, -1582191.4, 399.43036, -0.0016894173, 0.016254023, -1530384.4, 23319.309, 0.0, 5.013983, 4.9802537 
5.264784e+1, 1.4643979e+2, -1481047.3, -1532475.9, 230.40419, -0.0014392955, 0.012050032, -1481046.3, 23849.586, 0.0, 5.013967, 4.980479 
5.264806e+1, 1.5142001e+2, -1432040.8, -1483445.4, 187.55847, -0.0011238065, 0.0067929155, -1432040.0, 24048.502, 0.0, 5.013951, 4.980479 
5.2648276e+1, 1.5640022e+2, -1384462.9, -1437392.0, 144.58118, -0.0008164798, 0.0019931472, -1384462.5, 22818.87, 0.0, 5.0139346, 4.979483 
5.2648497e+1, 1.6137676e+2, -1344016.3, -1406354.0, 148.51167, -0.0007436922, 0.0046290453, -1344015.9, 14495.141, 0.0, 5.0139356, 4.9734554 
5.2648664e+1, 1.6635057e+2, -1294810.9, -1357193.1, 158.24947, -0.0012332858, 0.005828188, -1294810.4, 14958.659, 0.0, 5.0139647, 4.9734535 
5.264883e+1, 1.7132443e+2, -1245599.8, -1308024.9, 174.44872, -0.0017605985, 0.007300204, -1245599.3, 15427.567, 0.0, 5.0139937, 4.973454 
5.2649e+1, 1.7629828e+2, -1197526.0, -1261261.9, 190.78607, -0.0023021912, 0.009167788, -1197525.4, 14759.167, 0.0, 5.014023, 4.972647 
5.2649176e+1, 1.8126829e+2, -1156731.6, -1229969.3, 21.858059, -0.0019630387, 0.01545989, -1156731.5, 6846.965, 0.0, 5.0140533, 4.9666076 
5.2649295e+1, 1.8623437e+2, -1107077.8, -1179919.0, -68.39158, 0.00023988505, 0.005109508, -1107077.8, 7829.6885, 0.0, 5.0140815, 4.9668827 
5.264941e+1, 1.9120042e+2, -1057809.5, -1130690.0, -82.03303, 0.002484317, -0.0058480855, -1057809.5, 8426.855, 0.0, 5.014108, 4.9668837 
5.264952e+1, 1.961665e+2, -1009433.94, -1083377.9, -95.45275, 0.004711649, -0.016473448, -1009433.8, 8131.266, 0.0, 5.0141354, 4.9662337 
5.264945e+1, 2.011294e+2, -970146.25, -1055381.0, -246.8026, 0.00581252, -0.013160573, -970145.56, -1218.7115, 0.0, 5.014103, 4.9590197 
5.26489e+1, 2.0608987e+2, -921381.3, -1006269.1, -262.01257, 0.0040415064, -0.0020041298, -921380.5, -1062.5657, 0.0, 5.013912, 4.9590526 
5.264833e+1, 2.1105039e+2, -872683.94, -957270.25, -215.99287, 0.0021088223, 0.009561886, -872683.4, -974.65094, 0.0, 5.0137134, 4.959052 
5.264776e+1, 2.1601091e+2, -824649.56, -909723.4, -169.49014, 0.000160184, 0.021270301, -824649.25, -1549.672, 0.0, 5.0135145, 4.9585524 
5.264732e+1, 2.2096696e+2, -784882.56, -880707.25, 64.821724, -0.0014242631, 0.032575905, -784882.56, -10351.426, 0.0, 5.013401, 4.951632 
5.2647406e+1, 2.2591677e+2, -734571.2, -829588.25, 139.80049, -0.00044740358, 0.005885303, -734571.0, -8555.946, 0.0, 5.013474, 4.9521985 
5.264753e+1, 2.3086645e+2, -685002.6, -780140.0, 127.24417, 0.000817959, -0.023318985, -685002.44, -7502.5728, 0.0, 5.0135527, 4.9521995 
5.264767e+1, 2.358161e+2, -636087.3, -732140.56, 114.5868, 0.0020643675, -0.0525058, -636087.2, -7102.491, 0.0, 5.013631, 4.951699 
5.2647823e+1, 2.407638e+2, -597742.5, -707083.4, 95.12889, 0.0030539553, -0.051246274, -597742.44, -17249.2, 0.0, 5.01359, 4.9432817 
5.264793e+1, 2.45712e+2, -549109.56, -657751.75, -89.17673, 0.0048906305, -0.0076160054, -549109.44, -17097.9, 0.0, 5.0132513, 4.9433837 
5.264805e+1, 2.506603e+2, -500650.84, -608783.3, -177.62836, 0.007021368, 0.036998723, -500650.56, -17120.783, 0.0, 5.0128965, 4.9433784 
5.264819e+1, 2.5560865e+2, -452435.5, -560375.94, -264.9242, 0.009219679, 0.08183653, -452434.88, -17387.047, 0.0, 5.012538, 4.9431753 
5.264802e+1, 2.6055005e+2, -413190.8, -532986.8, 224.82944, 0.006523313, 0.11262372, -413190.38, -26565.828, 0.0, 5.012317, 4.9354134 
5.2649313e+1, 2.6548022e+2, -358234.3, -468927.75, 1320.365, 0.007310729, -0.0024703252, -358218.56, -19943.445, 0.0, 5.011811, 4.9404445 
5.265129e+1, 2.7041003e+2, -310162.7, -420094.28, 1896.2826, 0.012547392, -0.13762589, -310129.97, -20204.5, 0.0, 5.011168, 4.9404726 
5.2653533e+1, 2.7533966e+2, -262111.5, -371412.16, 2397.423, 0.019496314, -0.27551308, -262058.94, -20481.549, 0.0, 5.010503, 4.9404535 
5.265243e+1, 2.8027213e+2, -241780.03, -391002.84, -3229.3645, 0.02286231, -0.25127292, -241710.17, -48498.87, 0.0, 5.0110064, 4.916184 
5.264805e+1, 2.852089e+2, -179979.7, -316409.3, -1091.1096, 0.014590262, -0.10684921, -179970.98, -35121.633, 0.0, 5.012037, 4.9242177 
5.264543e+1, 2.901421e+2, -129604.54, -266502.88, -1099.8649, 0.0064797164, -0.03958206, -129595.7, -33066.336, 0.0, 5.012375, 4.9241843 
5.264298e+1, 2.9507497e+2, -79203.016, -216636.97, -1187.9861, -0.0013625704, 0.024906913, -79192.75, -30981.117, 0.0, 5.0126805, 4.924151 
5.2640325e+1, 3.0002102e+2, -15076.7295, -102899.484, -1245.0343, -0.013776899, 0.08207705, -15059.082, -15059.082, 0.0, 5.0132823, 4.956106 
5.2638704e+1, 3.0497697e+2, -734.1034, -78896.26, 128.14983, -0.038030732, -0.019878386, -733.89325, -733.89325, 0.0, 5.0152097, 4.963306 
5.263811e+1, 3.0993366e+2, 5462.112, -74884.28, 1192.3752, -0.05961822, -0.15160076, 5479.803, 5479.803, 0.0, 5.017249, 4.963809 
5.2638006e+1, 3.1489122e+2, 11734.473, -70957.46, 2106.3906, -0.07891765, -0.28144535, 11788.094, 11788.094, 0.0, 5.0192566, 4.964312 
5.76589e+1, 1.2151906e+2, -1712208.6, -1749960.0, 976.50024, 0.005567347, 0.014216688, -1712183.4, 36931.164, 0.0, 5.014161, 4.9895573 
5.7659507e+1, 1.2650275e+2, -1668493.3, -1711534.9, 864.2185, 0.0025546104, -0.01165229, -1668476.0, 31798.13, 0.0, 5.0141287, 4.9861064 
5.766035e+1, 1.3148922e+2, -1619657.3, -1662618.5, 851.13477, 0.0018318321, -0.008798534, -1619640.4, 31768.086, 0.0, 5.014076, 4.986105 
5.7661176e+1, 1.3647565e+2, -1573051.5, -1618250.5, 838.0601, 0.0010398042, -0.004703959, -1573035.9, 29507.143, 0.0, 5.014016, 4.9846 
5.7661825e+1, 1.4145923e+2, -1530498.6, -1582365.1, 370.99213, 0.0005700118, 0.012007985, -1530496.0, 23209.037, 0.0, 5.013972, 4.9802017 
5.7662046e+1, 1.4643969e+2, -1481155.8, -1532654.6, 208.18071, 0.0009453946, 0.009854239, -1481155.0, 23741.393, 0.0, 5.0139575, 4.980424 
5.766226e+1, 1.5142006e+2, -1432146.4, -1483622.9, 167.32137, 0.0013357624, 0.006732562, -1432145.8, 23942.477, 0.0, 5.0139422, 4.9804235 
5.766247e+1, 1.5640044e+2, -1384569.9, -1437570.1, 125.3851, 0.001711971, 0.0040675015, -1384569.5, 22710.7, 0.0, 5.0139256, 4.979428 
5.7662606e+1, 1.6137707e+2, -1344046.9, -1406371.8, 156.594, 0.0009933367, 0.008028529, -1344046.5, 14462.867, 0.0, 5.013926, 4.973454 
5.766252e+1, 1.6635084e+2, -1294810.9, -1357146.5, 175.71332, -0.0022890577, 0.008571058, -1294810.4, 14957.347, 0.0, 5.013955, 4.973473 
5.7662433e+1, 1.7132464e+2, -1245610.3, -1307983.1, 195.48375, -0.0057016746, 0.00929733, -1245609.8, 15416.072, 0.0, 5.0139804, 4.973474 
5.7662344e+1, 1.7629844e+2, -1197557.9, -1261230.1, 214.36964, -0.009141005, 0.010420618, -1197557.1, 14726.693, 0.0, 5.0140023, 4.972667 
5.7662445e+1, 1.8126841e+2, -1156830.0, -1230054.1, 44.653255, -0.009815375, 0.016110707, -1156830.0, 6748.123, 0.0, 5.014028, 4.966591 
5.766294e+1, 1.8623438e+2, -1107170.1, -1180005.9, -48.433006, -0.004155771, 0.0051633473, -1107170.1, 7737.503, 0.0, 5.0140586, 4.9668636 
5.7663447e+1, 1.9120038e+2, -1057904.6, -1130777.5, -62.3469, 0.0017199226, -0.0064228536, -1057904.6, 8332.645, 0.0, 5.014085, 4.9668646 
5.766395e+1, 1.9616637e+2, -1009545.4, -1083472.5, -76.25387, 0.007562721, -0.01767573, -1009545.3, 8021.5063, 0.0, 5.014106, 4.966215 
5.766408e+1, 2.0112924e+2, -970189.3, -1055322.0, -357.91962, 0.010950324, -0.014729121, -970187.75, -1259.0657, 0.0, 5.014072, 4.9590535 
5.766324e+1, 2.0608978e+2, -921353.4, -1006129.3, -418.73755, 0.008171446, -0.0032113695, -921351.3, -1032.8545, 0.0, 5.0138965, 4.959107 
5.7662344e+1, 2.110504e+2, -872626.9, -957116.4, -368.60974, 0.005046615, 0.008765625, -872625.25, -917.33453, 0.0, 5.013708, 4.959107 
5.7661456e+1, 2.1601102e+2, -824579.56, -909563.1, -315.74652, 0.0018793939, 0.020893222, -824578.4, -1481.0729, 0.0, 5.0135136, 4.958607 
5.766079e+1, 2.2096713e+2, -784895.94, -880747.6, 90.916504, -0.0009602867, 0.032468114, -784895.9, -10367.836, 0.0, 5.0134025, 4.9516177 
5.766089e+1, 2.2591689e+2, -734602.4, -829651.75, 213.54639, -0.00048794242, 0.005368999, -734601.9, -8589.267, 0.0, 5.013472, 4.9521775 
5.766106e+1, 2.3086649e+2, -685072.2, -780220.9, 206.06549, 0.00035909764, -0.024298826, -685071.75, -7573.632, 0.0, 5.0135374, 4.952179 
5.766124e+1, 2.3581609e+2, -636221.1, -732250.44, 205.35962, 0.0011439368, -0.053948175, -636220.7, -7237.0376, 0.0, 5.0135927, 4.9516783 
5.766129e+1, 2.4076383e+2, -597998.56, -707386.8, -61.440975, 0.0014113904, -0.05189276, -597998.5, -17506.322, 0.0, 5.0135336, 4.9432044 
5.766101e+1, 2.4571224e+2, -549367.6, -658169.4, -337.1412, 0.0027081086, -0.004859756, -549366.56, -17356.604, 0.0, 5.0132155, 4.9432592 
5.766072e+1, 2.5066075e+2, -500853.28, -609172.56, -404.55804, 0.004359258, 0.0431245, -500851.78, -17323.969, 0.0, 5.01288, 4.9432554 
5.766046e+1, 2.556093e+2, -452593.47, -560742.06, -471.92282, 0.006025132, 0.091252446, -452591.4, -17545.844, 0.0, 5.012537, 4.9430532 
5.7660246e+1, 2.6055044e+2, -413061.13, -532860.94, 405.71024, 0.0048371274, 0.121103995, -413059.75, -26434.18, 0.0, 5.012337, 4.935436 
5.7662994e+1, 2.654801e+2, -357614.3, -467418.47, 1826.286, 0.022604646, -0.0062943413, -357583.94, -19306.193, 0.0, 5.011756, 4.9409666 
5.766654e+1, 2.7040952e+2, -310174.16, -419067.9, 3006.381, 0.046027042, -0.15392005, -310091.22, -20162.994, 0.0, 5.010909, 4.9409347 
5.7670313e+1, 2.7533868e+2, -263065.9, -371001.3, 4367.0024, 0.069893345, -0.30423826, -262889.5, -21308.453, 0.0, 5.009927, 4.9408555 
5.7669485e+1, 2.802721e+2, -247126.13, -398230.84, 67.18113, 0.07081976, -0.26358125, -247126.1, -53922.844, 0.0, 5.0100145, 4.9140754 
5.7663864e+1, 2.852101e+2, -182486.69, -318246.4, 1078.9156, 0.045739785, -0.09840384, -182478.11, -37644.1, 0.0, 5.011311, 4.923767 
5.7660455e+1, 2.901434e+2, -131151.9, -268076.84, 508.60196, 0.028896725, -0.029556926, -131150.02, -34632.145, 0.0, 5.0120015, 4.923688 
5.765718e+1, 2.9507646e+2, -80131.38, -218098.3, 59.368023, 0.0111967595, 0.036840785, -80131.36, -31927.23, 0.0, 5.0125394, 4.923609 
5.765381e+1, 3.000214e+2, -16022.775, -105295.83, 251.29132, -0.014243262, 0.08855036, -16022.068, -16022.068, 0.0, 5.0132813, 4.9551764 
5.765287e+1, 3.04977e+2, -340.7594, -77967.74, 1712.5465, -0.053470474, -0.030306824, -302.9969, -302.9969, 0.0, 5.0151267, 4.963427 
5.765323e+1, 3.0993414e+2, 4668.3647, -74662.77, 2061.105, -0.090479925, -0.17862399, 4721.8784, 4721.8784, 0.0, 5.016726, 4.9638653 
5.7654023e+1, 3.1489184e+2, 8859.207, -71820.4, 1757.7646, -0.12711301, -0.32737252, 8897.485, 8897.485, 0.0, 5.017963, 4.964304 
6.2673116e+1, 1.2151935e+2, -1711230.6, -1749168.9, 709.9562, 0.00488087, 0.015969517, -1711217.4, 37894.72, 0.0, 5.0144196, 4.989688 
6.267372e+1, 1.2650315e+2, -1668094.3, -1711444.6, 593.61145, 0.0025439505, -0.008519937, -1668086.1, 32184.145, 0.0, 5.014285, 4.986058 
6.267445e+1, 1.3148938e+2, -1619519.1, -1662657.5, 533.8249, 0.0017667544, -0.0075763403, -1619512.5, 31894.129, 0.0, 5.014146, 4.9860573 
6.267519e+1, 1.364756e+2, -1573151.6, -1618406.4, 473.8185, 0.0010088917, -0.0053734933, -1573146.8, 29396.693, 0.0, 5.0140066, 4.9845524 
6.267578e+1, 1.4145902e+2, -1530685.8, -1582512.4, 65.500305, 0.00065005914, 0.010310758, -1530685.8, 23021.01, 0.0, 5.0139217, 4.9801764 
6.267601e+1, 1.4643952e+2, -1481228.3, -1532732.0, -33.22533, 0.001108055, 0.008908259, -1481228.1, 23669.625, 0.0, 5.0139427, 4.9804053 
6.267624e+1, 1.5141997e+2, -1432102.8, -1483646.5, -24.076754, 0.00159983, 0.00659565, -1432102.8, 23986.738, 0.0, 5.0139666, 4.980404 
6.2676466e+1, 1.5640041e+2, -1384406.8, -1437538.8, -15.06337, 0.0021034314, 0.0047429167, -1384406.8, 22874.477, 0.0, 5.0139904, 4.979408 
6.2676585e+1, 1.6137707e+2, -1343797.8, -1406179.5, 60.221523, 0.0011659306, 0.009076375, -1343797.6, 14712.443, 0.0, 5.0139956, 4.9734845 
6.2676394e+1, 1.6635081e+2, -1294743.4, -1357010.3, 103.00205, -0.0031314883, 0.009020912, -1294743.3, 15025.039, 0.0, 5.0139565, 4.973518 
6.267619e+1, 1.713246e+2, -1245740.1, -1307945.4, 148.32257, -0.007544, 0.0091066975, -1245739.8, 15286.377, 0.0, 5.0139155, 4.973518 
6.2675995e+1, 1.7629838e+2, -1197872.9, -1261284.3, 193.82135, -0.011936726, 0.009581882, -1197872.3, 14411.702, 0.0, 5.0138745, 4.97271 
6.2676066e+1, 1.8126833e+2, -1157442.9, -1230437.8, 43.254166, -0.012891313, 0.0152302515, -1157442.9, 6135.198, 0.0, 5.0138373, 4.9665513 
6.26767e+1, 1.8623441e+2, -1107978.1, -1180547.1, -120.44728, -0.005882779, 0.0057314746, -1107978.0, 6929.56, 0.0, 5.0138144, 4.9667954 
6.2677354e+1, 1.9120046e+2, -1058849.4, -1131383.8, -214.72754, 0.0014714946, -0.00436719, -1058848.8, 7388.39, 0.0, 5.013792, 4.966796 
6.2678003e+1, 1.9616653e+2, -1010612.3, -1084136.8, -309.13724, 0.008846574, -0.014162302, -1010611.0, 6955.5747, 0.0, 5.0137696, 4.966146 
6.2678206e+1, 2.0112939e+2, -971021.4, -1055675.0, -671.1349, 0.013058146, -0.011124549, -971016.06, -2087.099, 0.0, 5.0137744, 4.9590726 
6.267721e+1, 2.060897e+2, -921435.56, -1006074.4, -771.61444, 0.00919077, -0.0023862142, -921428.5, -1108.4392, 0.0, 5.0138483, 4.959149 
6.267616e+1, 2.1105006e+2, -871944.94, -956696.06, -756.91925, 0.0049596075, 0.0067218603, -871938.2, -227.32594, 0.0, 5.013925, 4.959151 
6.267511e+1, 2.1601044e+2, -823122.25, -908775.1, -742.20605, 0.000770262, 0.015974015, -823115.8, -14.252976, 0.0, 5.014002, 4.958653 
6.267434e+1, 2.2096644e+2, -783148.6, -879904.06, -329.98825, -0.0025640044, 0.026151849, -783147.5, -8614.901, 0.0, 5.014012, 4.9516296 
6.2674457e+1, 2.2591655e+2, -733781.4, -829371.25, -269.3334, -0.0012145332, 0.0029736864, -733780.6, -7765.857, 0.0, 5.013787, 4.9521313 
6.2674654e+1, 2.308665e+2, -685121.1, -780326.7, -357.3982, 0.0007392962, -0.02243641, -685119.8, -7622.0776, 0.0, 5.013543, 4.9521384 
6.2674856e+1, 2.3581646e+2, -637106.5, -732726.56, -450.31064, 0.0027808605, -0.047949538, -637104.4, -8123.6484, 0.0, 5.0132985, 4.9516435 
6.267482e+1, 2.4076429e+2, -599402.6, -707841.75, -888.81323, 0.0038677186, -0.04505748, -599395.3, -18906.266, 0.0, 5.013006, 4.943279 
6.2674093e+1, 2.457122e+2, -550841.3, -658687.7, -1006.8132, 0.003927857, -0.0034639146, -550831.94, -18820.371, 0.0, 5.012671, 4.9433193 
6.267334e+1, 2.5066024e+2, -502305.1, -609676.2, -846.9812, 0.004209503, 0.03955609, -502298.4, -18764.682, 0.0, 5.012341, 4.9433165 
6.2672615e+1, 2.5560838e+2, -454011.34, -561228.0, -678.81, 0.0045679235, 0.08319453, -454007.03, -18951.707, 0.0, 5.0120068, 4.9431157 
6.267232e+1, 2.6054963e+2, -414032.66, -531440.94, 766.4402, 0.0053256787, 0.1100813, -414027.66, -27392.928, 0.0, 5.011654, 4.9362307 
6.267582e+1, 2.6548105e+2, -360025.25, -466492.8, 744.18274, 0.037066888, -0.005094802, -360020.03, -21747.826, 0.0, 5.010596, 4.941767 
6.268017e+1, 2.7041262e+2, -313278.6, -417772.1, -150.03232, 0.07629762, -0.13802171, -313278.38, -23374.24, 0.0, 5.009391, 4.9419746 
6.2684786e+1, 2.753443e+2, -266487.16, -369253.66, -1210.3842, 0.11681835, -0.2741903, -266472.9, -24937.295, 0.0, 5.0081673, 4.942135 
6.268458e+1, 2.8027913e+2, -248047.13, -397183.03, -3237.43, 0.12104093, -0.2339975, -247976.89, -54830.902, 0.0, 5.009125, 4.915083 
6.267859e+1, 2.852152e+2, -183382.39, -321838.53, 217.45317, 0.07860987, -0.081709005, -183382.05, -38586.66, 0.0, 5.011193, 4.923037 
6.267479e+1, 2.9014653e+2, -131647.78, -270530.8, 639.7349, 0.04998327, -0.021130526, -131644.83, -35147.074, 0.0, 5.0119925, 4.923183 
6.2671196e+1, 2.9507756e+2, -79878.24, -219298.94, 906.8866, 0.021844624, 0.03457481, -79872.34, -31669.893, 0.0, 5.0127616, 4.9233284 
6.266783e+1, 3.0002093e+2, -14453.699, -103394.99, 1487.5978, -0.012488023, 0.07455005, -14428.825, -14428.825, 0.0, 5.013669, 4.955799 
6.2668395e+1, 3.049781e+2, -520.386, -76160.516, 1963.6467, -0.05142407, -0.03286205, -469.44327, -469.44327, 0.0, 5.0148153, 4.964335 
6.2670684e+1, 3.09938e+2, 2712.1555, -74326.336, 2237.9956, -0.08202405, -0.15271506, 2777.1155, 2777.1155, 0.0, 5.015891, 4.9645443 
6.2673646e+1, 3.1489924e+2, 6014.4233, -72563.0, 2606.907, -0.10773225, -0.26078364, 6100.816, 6100.816, 0.0, 5.016932, 4.964754 
6.76878e+1, 1.2151979e+2, -1710299.8, -1747276.3, 610.95294, 0.007317822, 0.020611525, -1710289.6, 38820.703, 0.0, 5.0144196, 4.9903097 
6.768823e+1, 1.2650356e+2, -1668205.0, -1711670.5, 485.43317, 0.0047458457, -0.004167398, -1668199.6, 32067.96, 0.0, 5.014285, 4.9859843 
6.768867e+1, 1.3148957e+2, -1619629.1, -1662882.1, 427.11978, 0.002408917, -0.0045930776, -1619624.9, 31780.793, 0.0, 5.014146, 4.9859834 
6.768911e+1, 1.3647555e+2, -1573260.9, -1618629.9, 368.61945, 0.000066623776, -0.003758396, -1573257.9, 29286.244, 0.0, 5.0140066, 4.9844785 
6.768951e+1, 1.4145885e+2, -1530688.8, -1582518.3, 58.69807, -0.0013368789, 0.010844418, -1530688.6, 23020.033, 0.0, 5.0139217, 4.980175 
6.7689764e+1, 1.4643931e+2, -1481208.3, -1532690.9, -15.596722, -0.00083187077, 0.009033275, -1481208.3, 23691.854, 0.0, 5.0139427, 4.9804196 
6.7690027e+1, 1.5141974e+2, -1432082.8, -1483605.4, -5.531231, -0.00027409915, 0.0063406914, -1432082.8, 24009.314, 0.0, 5.0139666, 4.980418 
6.769028e+1, 1.5640014e+2, -1384386.6, -1437497.5, 4.3955917, 0.00028725417, 0.004109166, -1384386.6, 22897.404, 0.0, 5.0139904, 4.9794216 
6.769042e+1, 1.613768e+2, -1343719.6, -1406017.9, 39.698753, -0.00042616265, 0.007968579, -1343719.6, 14793.403, 0.0, 5.0139956, 4.973539 
6.769026e+1, 1.6635056e+2, -1294656.3, -1356828.9, 71.45164, -0.0040704845, 0.0074210465, -1294656.1, 15114.33, 0.0, 5.0139565, 4.973579 
6.7690086e+1, 1.7132436e+2, -1245653.9, -1307764.5, 117.97788, -0.007829115, 0.007037756, -1245653.8, 15373.947, 0.0, 5.0139155, 4.973579 
6.76899e+1, 1.7629814e+2, -1197787.6, -1261103.8, 164.68797, -0.011586213, 0.00705054, -1197787.3, 14497.577, 0.0, 5.013874, 4.972771 
6.7689973e+1, 1.8126817e+2, -1157530.6, -1230624.3, 20.539043, -0.012251317, 0.013188556, -1157530.6, 6047.616, 0.0, 5.0138373, 4.966489 
6.7690545e+1, 1.8623444e+2, -1108136.3, -1180885.1, -137.56976, -0.0055817734, 0.0068048327, -1108136.0, 6771.1426, 0.0, 5.0138144, 4.9666815 
6.769115e+1, 1.9120072e+2, -1059006.3, -1131720.8, -230.0568, 0.0014031637, -0.000025919342, -1059005.5, 7230.5024, 0.0, 5.013792, 4.9666824 
6.7691743e+1, 1.9616699e+2, -1010768.06, -1084472.8, -322.67035, 0.008391123, -0.0065488014, -1010766.6, 6798.1646, 0.0, 5.0137696, 4.9660325 
6.7691886e+1, 2.0112984e+2, -971017.1, -1055668.5, -634.6876, 0.012070184, -0.0029277524, -971012.4, -2084.4954, 0.0, 5.013775, 4.959075 
6.769087e+1, 2.060896e+2, -921399.4, -1006000.44, -712.56726, 0.007186789, 0.0002642998, -921393.4, -1070.7198, 0.0, 5.013849, 4.959175 
6.768979e+1, 2.1104941e+2, -871908.4, -956621.4, -694.9138, 0.0018808683, 0.0035893782, -871902.7, -185.4183, 0.0, 5.0139256, 4.959177 
6.7688704e+1, 2.1600921e+2, -823085.3, -908699.7, -677.2478, -0.0034052974, 0.0070450013, -823079.94, 31.864286, 0.0, 5.0140023, 4.9586797 
6.768793e+1, 2.20965e+2, -783137.7, -879869.94, -444.28558, -0.0068047284, 0.014443471, -783135.6, -8591.325, 0.0, 5.01401, 4.9516425 
6.7688066e+1, 2.2591577e+2, -733893.44, -829623.25, -453.36255, -0.0031151727, -0.0009936832, -733891.25, -7869.9478, 0.0, 5.0137873, 4.952048 
6.768827e+1, 2.3086649e+2, -685223.8, -780582.56, -533.434, 0.0012266104, -0.017853985, -685220.8, -7722.1167, 0.0, 5.0135465, 4.952052 
6.7688483e+1, 2.3581718e+2, -637199.9, -732986.4, -618.3326, 0.005609852, -0.0348606, -637195.9, -8219.63, 0.0, 5.013305, 4.951555 
6.7688346e+1, 2.4076517e+2, -599157.25, -707399.94, -1137.6567, 0.00831425, -0.030271715, -599145.3, -18661.428, 0.0, 5.013021, 4.9434257 
6.7687106e+1, 2.4571183e+2, -550548.6, -658104.56, -1267.3633, 0.006758463, -0.0027337507, -550533.7, -18516.824, 0.0, 5.0126805, 4.943519 
6.76858e+1, 2.506586e+2, -502040.66, -609091.6, -1094.2228, 0.0050166426, 0.025831603, -502029.47, -18479.82, 0.0, 5.0123405, 4.9435215 
6.768452e+1, 2.5560546e+2, -453775.03, -560641.9, -912.7286, 0.003298438, 0.055044062, -453767.25, -18685.479, 0.0, 5.0119967, 4.9433255 
6.768395e+1, 2.6054677e+2, -413004.13, -528990.94, 310.5728, 0.0052729966, 0.07607833, -413003.28, -26342.898, 0.0, 5.011631, 4.9371285 
6.76874e+1, 2.654817e+2, -359965.63, -466980.8, 261.11304, 0.043462317, -0.0006752966, -359964.97, -21693.678, 0.0, 5.0106735, 4.941684 
6.7691594e+1, 2.7041677e+2, -312868.8, -418360.7, -437.20123, 0.087730795, -0.091205865, -312867.0, -22988.898, 0.0, 5.0095916, 4.9418178 
6.7696023e+1, 2.7535164e+2, -265727.75, -369944.0, -1301.5454, 0.13220309, -0.18686819, -265711.5, -24224.799, 0.0, 5.008491, 4.941904 
6.769622e+1, 2.8028685e+2, -244759.8, -388751.94, -2141.6782, 0.13679677, -0.15382788, -244727.95, -51627.477, 0.0, 5.0090156, 4.9180336 
6.769107e+1, 2.8521967e+2, -184415.17, -320739.72, 487.09793, 0.091166556, -0.045159467, -184413.44, -39637.207, 0.0, 5.010741, 4.9235525 
6.768778e+1, 2.9014868e+2, -132420.53, -269561.8, 1081.4149, 0.059473842, -0.0064156987, -132412.02, -35917.125, 0.0, 5.011633, 4.9236317 
6.7684674e+1, 2.950773e+2, -80391.83, -218460.05, 1520.4587, 0.027270744, 0.026455019, -80375.086, -32157.908, 0.0, 5.0124936, 4.9237113 
6.768208e+1, 3.0001953e+2, -13179.317, -99184.305, 2676.35, -0.01039332, 0.049964685, -13096.114, -13096.114, 0.0, 5.013488, 4.9573464 
6.7684317e+1, 3.0497926e+2, 360.9238, -72982.37, 3607.3848, -0.044227082, -0.037809603, 537.9256, 537.9256, 0.0, 5.014643, 4.965633 
6.7688227e+1, 3.0994192e+2, 3684.8342, -70685.555, 4134.4414, -0.070643865, -0.13334776, 3913.9727, 3913.9727, 0.0, 5.0157022, 4.9659777 
6.7692727e+1, 3.149059e+2, 7078.11, -68459.63, 4755.8447, -0.09450935, -0.2184089, 7376.3594, 7376.3594, 0.0, 5.0167265, 4.9663224 
7.270248e+1, 1.2152021e+2, -1709316.6, -1745276.8, 511.86786, 0.009741432, 0.02500555, -1709309.4, 39799.5, 0.0, 5.0144196, 4.9909663 
7.270274e+1, 1.2650397e+2, -1668316.4, -1711896.0, 377.0997, 0.0069493307, 0.00022767409, -1668313.0, 31951.86, 0.0, 5.0142846, 4.98591 
7.270289e+1, 1.3148977e+2, -1619739.6, -1663106.5, 320.2596, 0.003048004, -0.0015848397, -1619737.3, 31667.53, 0.0, 5.014146, 4.9859095 
7.270303e+1, 1.3647553e+2, -1573370.5, -1618853.1, 263.26532, -0.00088338595, -0.00213588, -1573369.0, 29175.832, 0.0, 5.014006, 4.9844046 
7.270323e+1, 1.4145868e+2, -1530697.0, -1582534.9, 51.739685, -0.0033194998, 0.011406487, -1530697.0, 23013.668, 0.0, 5.0139213, 4.98017 
7.270352e+1, 1.4643912e+2, -1481188.5, -1532649.8, 2.0010562, -0.0027671074, 0.009178703, -1481188.5, 23713.875, 0.0, 5.0139427, 4.9804335 
7.27038e+1, 1.514195e+2, -1432062.9, -1483564.1, 12.983457, -0.0021467726, 0.00608822, -1432062.9, 24031.693, 0.0, 5.0139666, 4.980432 
7.2704095e+1, 1.5639989e+2, -1384366.8, -1437456.3, 23.82371, -0.0015311006, 0.0034599788, -1384366.8, 22920.145, 0.0, 5.0139904, 4.9794354 
7.270426e+1, 1.6137652e+2, -1343646.4, -1405865.6, 19.348835, -0.002015719, 0.0068802554, -1343646.4, 14869.54, 0.0, 5.013996, 4.9735894 
7.2704124e+1, 1.6635029e+2, -1294569.5, -1356647.3, 39.729645, -0.0050106687, 0.005839078, -1294569.4, 15203.277, 0.0, 5.013957, 4.97364 
7.270397e+1, 1.713241e+2, -1245568.1, -1307583.3, 87.461555, -0.008121022, 0.004970151, -1245568.0, 15461.179, 0.0, 5.0139155, 4.97364 
7.270382e+1, 1.7629792e+2, -1197702.9, -1260923.0, 135.3829, -0.011248093, 0.0045039733, -1197702.5, 14583.118, 0.0, 5.013874, 4.972832 
7.2703874e+1, 1.81268e+2, -1157625.1, -1230824.4, -1.897287, -0.0116099715, 0.011173385, -1157625.1, 5953.3125, 0.0, 5.0138373, 4.966421 
7.27044e+1, 1.8623449e+2, -1108294.6, -1181223.0, -154.66467, -0.005278021, 0.007892942, -1108294.4, 6612.293, 0.0, 5.0138144, 4.9665675 
7.2704935e+1, 1.9120096e+2, -1059163.5, -1132057.5, -245.35837, 0.0013340813, 0.004296605, -1059162.6, 7072.1953, 0.0, 5.013792, 4.966568 
7.270548e+1, 1.9616744e+2, -1010924.2, -1084808.5, -336.17563, 0.0079314215, 0.0010124561, -1010922.7, 6640.3467, 0.0, 5.0137696, 4.965918 
7.270557e+1, 2.0113029e+2, -971026.3, -1055690.3, -598.57056, 0.011090354, 0.0053481786, -971022.06, -2095.4038, 0.0, 5.013775, 4.959068 
7.2704524e+1, 2.0608951e+2, -921363.8, -1005926.1, -653.7461, 0.005195924, 0.0029928375, -921358.75, -1033.5433, 0.0, 5.0138493, 4.959201 
7.2703415e+1, 2.1104875e+2, -871872.4, -956546.3, -633.1346, -0.0011854701, 0.00046604397, -871867.6, -144.01508, 0.0, 5.013926, 4.9592032 
7.2702307e+1, 2.16008e+2, -823048.9, -908623.94, -612.51575, -0.00756917, -0.001943739, -823044.5, 77.514946, 0.0, 5.014003, 4.958706 
7.2701514e+1, 2.2096354e+2, -783164.44, -879916.1, -560.5373, -0.011080229, 0.0028304344, -783161.2, -8605.16, 0.0, 5.014008, 4.9516273 
7.270167e+1, 2.25915e+2, -734006.94, -829874.3, -633.407, -0.005038736, -0.0049370965, -734002.75, -7974.8584, 0.0, 5.0137873, 4.951962 
7.2701895e+1, 2.3086645e+2, -685328.0, -780837.44, -705.4835, 0.0017226927, -0.013431921, -685322.75, -7822.966, 0.0, 5.01355, 4.951964 
7.270213e+1, 2.3581786e+2, -637294.7, -733245.2, -782.3663, 0.008479302, -0.022116339, -637288.3, -8316.415, 0.0, 5.013312, 4.951464 
7.270189e+1, 2.4076608e+2, -598976.56, -707090.44, -1373.4215, 0.012778074, -0.015085752, -598959.1, -18480.71, 0.0, 5.013036, 4.9435253 
7.2700125e+1, 2.4571152e+2, -550262.3, -657515.6, -1533.1093, 0.009585791, -0.0014595514, -550240.4, -18218.754, 0.0, 5.01269, 4.943717 
7.269826e+1, 2.50657e+2, -501782.6, -608501.1, -1346.6666, 0.005815626, 0.012281397, -501765.6, -18200.4, 0.0, 5.0123405, 4.9437246 
7.2696394e+1, 2.5560257e+2, -453545.16, -560049.75, -1151.856, 0.0020159264, 0.026698183, -453532.7, -18424.66, 0.0, 5.0119867, 4.943534 
7.2695434e+1, 2.605438e+2, -412408.56, -527463.0, -127.64412, 0.004413383, 0.042265516, -412408.4, -25721.016, 0.0, 5.0116086, 4.937682 
7.269897e+1, 2.654821e+2, -359938.8, -467444.94, -97.27198, 0.048831683, 0.0010202824, -359938.75, -21665.342, 0.0, 5.0107512, 4.941546 
7.2703195e+1, 2.7042046e+2, -312491.38, -418924.75, -599.5102, 0.098349996, -0.051151644, -312488.0, -22631.709, 0.0, 5.009793, 4.9416065 
7.270761e+1, 2.7535844e+2, -265000.28, -370609.06, -1267.6556, 0.14698572, -0.11034583, -264985.06, -23541.8, 0.0, 5.008816, 4.941619 
7.2707766e+1, 2.8029454e+2, -243258.14, -384418.38, -1851.2435, 0.15211478, -0.07252101, -243233.88, -50179.184, 0.0, 5.0089064, 4.919547 
7.270311e+1, 2.8522462e+2, -185496.44, -319595.75, 887.75073, 0.10368708, 0.0012387392, -185490.56, -40737.96, 0.0, 5.01029, 4.924033 
7.2700477e+1, 2.9015115e+2, -133241.3, -268547.47, 1653.828, 0.0693788, 0.014487531, -133221.1, -36732.164, 0.0, 5.0112734, 4.9240465 
7.2698015e+1, 2.950772e+2, -80952.945, -217575.7, 2264.5017, 0.03356179, 0.02086361, -80915.42, -32685.242, 0.0, 5.012226, 4.9240594 
7.2696203e+1, 3.0001804e+2, -12282.296, -95702.766, 3843.1577, -0.008032181, 0.024983078, -12105.616, -12105.616, 0.0, 5.013307, 4.9586053 
7.2699845e+1, 3.049801e+2, 1187.763, -69753.01, 5079.715, -0.04018363, -0.047282632, 1549.6499, 1549.6499, 0.0, 5.014471, 4.966886 
7.27051e+1, 3.0994523e+2, 4602.945, -66994.516, 5859.1763, -0.065857336, -0.12447752, 5079.2617, 5079.2617, 0.0, 5.015514, 4.9673653 
7.271087e+1, 3.1491172e+2, 8087.095, -64307.008, 6732.6997, -0.09132051, -0.19250564, 8707.917, 8707.917, 0.0, 5.0165215, 4.9678454 
7.771715e+1, 1.2152058e+2, -1708458.4, -1743260.0, 397.09427, 0.012170925, 0.029144796, -1708453.9, 40653.86, 0.0, 5.014362, 4.9916573 
7.771726e+1, 1.2650438e+2, -1668521.1, -1712166.3, 258.425, 0.009162015, 0.004656595, -1668519.6, 31742.658, 0.0, 5.0142536, 4.985836 
7.77171e+1, 1.3148996e+2, -1619895.0, -1663351.5, 212.12914, 0.0036862418, 0.0014418206, -1619893.9, 31509.861, 0.0, 5.0141306, 4.9858356 
7.771694e+1, 1.3647552e+2, -1573505.6, -1619087.6, 164.596, -0.0018385741, -0.0005086106, -1573505.0, 29040.479, 0.0, 5.013998, 4.984331 
7.771696e+1, 1.414585e+2, -1530738.5, -1582575.8, 55.762882, -0.0052921604, 0.011997763, -1530738.5, 22974.084, 0.0, 5.013912, 4.9801607 
7.771727e+1, 1.4643893e+2, -1481197.5, -1532622.5, 27.994417, -0.0046925084, 0.009345196, -1481197.5, 23707.115, 0.0, 5.013933, 4.980447 
7.771759e+1, 1.5141928e+2, -1432076.9, -1483539.3, 37.10862, -0.0040126364, 0.005838496, -1432076.9, 24020.313, 0.0, 5.0139556, 4.980446 
7.77179e+1, 1.5639964e+2, -1384390.4, -1437435.9, 46.33842, -0.0033446, 0.0027950609, -1384390.4, 22899.475, 0.0, 5.013976, 4.9794493 
7.771811e+1, 1.6137627e+2, -1343624.0, -1405745.5, -0.25388706, -0.0035952257, 0.0058109253, -1343624.0, 14894.777, 0.0, 5.013981, 4.973637 
7.7717996e+1, 1.6635004e+2, -1294514.5, -1356480.9, 4.228439, -0.00594636, 0.004275479, -1294514.5, 15260.425, 0.0, 5.0139465, 4.9737005 
7.7717865e+1, 1.7132385e+2, -1245509.5, -1307415.0, 49.31167, -0.008412815, 0.0029047017, -1245509.5, 15521.232, 0.0, 5.0139065, 4.9737005 
7.771773e+1, 1.7629766e+2, -1197651.4, -1260757.9, 95.09017, -0.010911035, 0.0019426624, -1197651.3, 14635.3125, 0.0, 5.013863, 4.9728928 
7.771778e+1, 1.8126784e+2, -1157765.8, -1231056.8, -35.595825, -0.010953154, 0.009184053, -1157765.8, 5812.884, 0.0, 5.013824, 4.966349 
7.7718246e+1, 1.8623452e+2, -1108484.9, -1181575.0, -179.85796, -0.00496344, 0.008993959, -1108484.5, 6421.692, 0.0, 5.013804, 4.966453 
7.771873e+1, 1.9120118e+2, -1059354.1, -1132409.1, -265.38953, 0.0012687943, 0.008597413, -1059353.3, 6880.57, 0.0, 5.013781, 4.966454 
7.77192e+1, 1.9616787e+2, -1011125.75, -1085164.9, -351.16644, 0.0074714734, 0.008517351, -1011124.1, 6437.179, 0.0, 5.0137544, 4.965804 
7.7719253e+1, 2.0113072e+2, -971104.0, -1055766.1, -561.5451, 0.010123937, 0.013699091, -971100.3, -2174.847, 0.0, 5.0137563, 4.9590507 
7.771818e+1, 2.0608942e+2, -921375.5, -1005873.56, -594.58746, 0.0032253165, 0.005799041, -921371.3, -1043.6294, 0.0, 5.0138335, 4.9592257 
7.771704e+1, 2.110481e+2, -871890.8, -956496.4, -572.7765, -0.0042262855, -0.0026441226, -871886.94, -156.98831, 0.0, 5.013908, 4.9592285 
7.7715904e+1, 2.1600677e+2, -823090.94, -908584.3, -551.717, -0.011698059, -0.010983485, -823087.4, 44.880814, 0.0, 5.0139766, 4.9587317 
7.771509e+1, 2.2096206e+2, -783324.0, -880086.2, -682.8223, -0.015359653, -0.0086787585, -783319.2, -8751.422, 0.0, 5.013973, 4.951584 
7.771527e+1, 2.2591421e+2, -734187.6, -830153.2, -806.7607, -0.0069616283, -0.00886095, -734180.9, -8146.3643, 0.0, 5.0137644, 4.9518757 
7.771552e+1, 2.3086639e+2, -685497.0, -781118.25, -861.1541, 0.002249808, -0.0091853365, -685489.25, -7988.2793, 0.0, 5.013531, 4.951875 
7.7715784e+1, 2.3581856e+2, -637483.4, -733542.25, -917.5418, 0.011417333, -0.009739564, -637474.56, -8506.873, 0.0, 5.013286, 4.951373 
7.771547e+1, 2.4076703e+2, -598981.4, -706965.2, -1555.6586, 0.017299665, 0.00047540423, -598958.94, -18486.355, 0.0, 5.0130086, 4.9435782 
7.7713174e+1, 2.4571125e+2, -549998.6, -656925.7, -1756.5577, 0.012466228, 0.00035208446, -549969.8, -17943.877, 0.0, 5.0126953, 4.9439135 
7.771072e+1, 2.506554e+2, -501383.8, -607835.8, -1557.7484, 0.0066844537, -0.0010684456, -501361.03, -17780.666, 0.0, 5.0123944, 4.9439254 
7.770827e+1, 2.5559968e+2, -452964.66, -559288.1, -1357.08, 0.0008257604, -0.0017726169, -452947.34, -17813.34, 0.0, 5.0121074, 4.9437394 
7.770683e+1, 2.6054072e+2, -411761.56, -526598.7, -447.44443, 0.0029148743, 0.008705911, -411759.8, -25044.197, 0.0, 5.0117583, 4.9379044 
7.771054e+1, 2.654822e+2, -360256.9, -467919.13, 284.86108, 0.053636715, -0.00015557172, -360256.16, -21977.861, 0.0, 5.010714, 4.9413886 
7.771502e+1, 2.704238e+2, -314088.72, -420175.25, 826.9902, 0.1091516, -0.018155312, -314082.28, -24244.041, 0.0, 5.0092945, 4.9413896 
7.771966e+1, 2.7536482e+2, -268644.7, -372969.97, 1503.1124, 0.16292667, -0.044982463, -268623.03, -27218.797, 0.0, 5.007578, 4.9413433 
7.771934e+1, 2.803024e+2, -249926.8, -387011.3, 1397.4181, 0.16941668, 0.009594826, -249912.56, -56905.56, 0.0, 5.006524, 4.919629 
7.7714807e+1, 2.8523013e+2, -190662.14, -320360.63, 4387.2715, 0.11784758, 0.057328466, -190513.89, -45790.73, 0.0, 5.008413, 4.924434 
7.771294e+1, 2.9015407e+2, -136031.27, -268459.94, 4373.254, 0.08065553, 0.041605316, -135887.02, -39408.2, 0.0, 5.010243, 4.9243913 
7.7711225e+1, 2.9507735e+2, -82139.9, -216982.97, 4375.571, 0.041176233, 0.01796458, -81998.06, -33757.41, 0.0, 5.0117702, 4.924348 
7.7710223e+1, 3.0001655e+2, -11835.204, -92967.55, 5681.8823, -0.0052078785, -0.0002031744, -11439.222, -11439.222, 0.0, 5.013113, 4.959581 
7.7714974e+1, 3.0498064e+2, 1008.1588, -66797.914, 7071.133, -0.038979582, -0.061277986, 1737.7197, 1737.7197, 0.0, 5.0139565, 4.9681273 
7.7721334e+1, 3.0994794e+2, 2418.5984, -64464.93, 8208.012, -0.06682827, -0.12586631, 3411.1636, 3411.1636, 0.0, 5.0142083, 4.9687505 
7.772814e+1, 3.149168e+2, 2752.3347, -62701.473, 9473.7, -0.09640493, -0.18210259, 4095.964, 4095.964, 0.0, 5.0140004, 4.9693737 
8.27316e+1, 1.2152023e+2, -1709207.0, -1743637.3, 120.54889, 0.0144211035, 0.02739456, -1709206.5, 39904.277, 0.0, 5.014113, 4.9916563 
8.273161e+1, 1.2650411e+2, -1668984.1, -1712280.8, 95.54062, 0.011143097, 0.0032553836, -1668984.0, 31280.518, 0.0, 5.0140743, 4.9858875 
8.2731247e+1, 1.314898e+2, -1620064.5, -1663321.3, 207.1118, 0.0042481604, 0.000529548, -1620063.5, 31341.299, 0.0, 5.0140495, 4.985886 
8.2730883e+1, 1.3647544e+2, -1573354.4, -1618900.6, 318.31952, -0.0025843317, -0.00089889666, -1573352.1, 29193.262, 0.0, 5.014024, 4.9843807 
8.2730764e+1, 1.4145848e+2, -1530478.5, -1582510.9, 359.881, -0.0068398407, 0.0119738, -1530476.0, 23235.947, 0.0, 5.0140123, 4.980134 
8.2731086e+1, 1.4643885e+2, -1481016.0, -1532640.6, 264.99484, -0.006277764, 0.009344415, -1481014.6, 23889.982, 0.0, 5.0140166, 4.9804006 
8.2731414e+1, 1.5141918e+2, -1431950.0, -1483582.6, 186.82262, -0.005603199, 0.0058513023, -1431949.3, 24148.629, 0.0, 5.0140204, 4.9804 
8.273174e+1, 1.5639949e+2, -1384313.0, -1437501.9, 108.4345, -0.0049221427, 0.0028193167, -1384312.8, 22978.479, 0.0, 5.0140243, 4.979404 
8.273198e+1, 1.6137607e+2, -1343527.6, -1405709.9, -44.700497, -0.0048151435, 0.0056250314, -1343527.6, 14993.191, 0.0, 5.014016, 4.973632 
8.273194e+1, 1.6634978e+2, -1294424.9, -1356421.4, -124.30485, -0.006066756, 0.0033803175, -1294424.6, 15352.678, 0.0, 5.0139737, 4.973707 
8.273189e+1, 1.7132352e+2, -1245432.1, -1307360.3, -155.21027, -0.007349358, 0.001270728, -1245431.8, 15601.665, 0.0, 5.0139294, 4.9737077 
8.273184e+1, 1.7629728e+2, -1197575.3, -1260702.9, -186.4344, -0.008603981, -0.00044188855, -1197574.8, 14714.808, 0.0, 5.013885, 4.972901 
8.273189e+1, 1.8126743e+2, -1157773.9, -1231179.4, -342.4823, -0.008238003, 0.00691932, -1157772.3, 5809.42, 0.0, 5.0138464, 4.9662967 
8.2732165e+1, 1.8623428e+2, -1108535.8, -1181769.6, -434.2881, -0.003963187, 0.009087299, -1108533.1, 6375.2637, 0.0, 5.013822, 4.966378 
8.2732445e+1, 1.9120112e+2, -1059406.5, -1132604.3, -469.97314, 0.0005136082, 0.0111629255, -1059403.5, 6831.649, 0.0, 5.0137987, 4.9663787 
8.273272e+1, 1.9616799e+2, -1011169.1, -1085355.6, -505.99652, 0.0050158855, 0.013559936, -1011165.7, 6396.0576, 0.0, 5.0137753, 4.9657288 
8.2732683e+1, 2.0113085e+2, -971031.94, -1055785.5, -614.3499, 0.006656561, 0.0195897, -971027.5, -2101.5315, 0.0, 5.013792, 4.9590273 
8.273176e+1, 2.0608918e+2, -921175.56, -1005776.94, -654.4583, 0.0003374892, 0.007909859, -921170.5, -839.6143, 0.0, 5.0139017, 4.9592266 
8.273079e+1, 2.1104746e+2, -871582.06, -956350.44, -669.84155, -0.0063890135, -0.004584368, -871576.75, 159.30197, 0.0, 5.014015, 4.959229 
8.272982e+1, 2.1600573e+2, -822657.2, -908381.94, -685.57385, -0.01305883, -0.016965771, -822651.7, 489.54794, 0.0, 5.0141277, 4.9587317 
8.2729095e+1, 2.2096084e+2, -782838.06, -880014.1, -1009.7611, -0.015976915, -0.01615245, -782827.56, -8249.525, 0.0, 5.0141754, 4.951515 
8.2729125e+1, 2.2591348e+2, -733554.7, -830062.0, -1224.9976, -0.007367351, -0.010620232, -733539.1, -7497.566, 0.0, 5.014031, 4.951783 
8.2729226e+1, 2.3086621e+2, -684649.3, -780918.3, -1319.0953, 0.0021181302, -0.004732132, -684631.25, -7126.799, 0.0, 5.0138745, 4.9517856 
8.272932e+1, 2.3581891e+2, -636391.8, -733220.0, -1415.4359, 0.01168601, 0.0009957259, -636371.1, -7403.6265, 0.0, 5.0137177, 4.9512863 
8.2728875e+1, 2.4076757e+2, -597455.3, -706186.94, -2091.2478, 0.018059978, 0.01371974, -597415.06, -16943.77, 0.0, 5.0135503, 4.943596 
8.2726365e+1, 2.4571085e+2, -547792.44, -655611.6, -2437.0715, 0.013308869, 0.0029179335, -547737.4, -15705.528, 0.0, 5.0134377, 4.944025 
8.27237e+1, 2.5065398e+2, -498631.22, -606285.06, -2378.9702, 0.007619611, -0.010090569, -498578.7, -14984.677, 0.0, 5.013338, 4.944033 
8.272108e+1, 2.5559723e+2, -449718.3, -557524.44, -2319.8892, 0.0019475303, -0.022152897, -449668.44, -14513.277, 0.0, 5.0132356, 4.9438434 
8.2719314e+1, 2.6053807e+2, -408341.66, -524920.2, -2145.269, 0.0044620098, -0.014533216, -408302.2, -21563.748, 0.0, 5.013027, 4.9378943 
8.272253e+1, 2.654819e+2, -355935.34, -465328.2, -2958.4739, 0.056918986, -0.00035755846, -355855.4, -17568.186, 0.0, 5.012336, 4.9414797 
8.272673e+1, 2.7042636e+2, -307737.22, -415834.03, -4243.072, 0.11841629, 0.007144011, -307570.94, -17741.814, 0.0, 5.011598, 4.9417477 
8.2731307e+1, 2.753706e+2, -259501.72, -366553.72, -5652.5806, 0.18269841, 0.0067998576, -259204.08, -17830.965, 0.0, 5.010849, 4.941968 
8.2731223e+1, 2.803102e+2, -235322.92, -378892.13, -6316.642, 0.2048975, 0.07153045, -235045.55, -42082.383, 0.0, 5.011564, 4.9204254 
8.2727075e+1, 2.8523538e+2, -179165.83, -316380.8, -94.70236, 0.14610215, 0.09458376, -179165.75, -34467.875, 0.0, 5.0126367, 4.9244256 
8.2725716e+1, 2.9015666e+2, -129241.27, -265994.22, 1283.1249, 0.09810238, 0.055839013, -129229.234, -32758.105, 0.0, 5.012741, 4.9245358 
8.272469e+1, 2.9507735e+2, -79264.01, -215670.5, 2507.4324, 0.052086398, 0.0081305, -79217.93, -30967.828, 0.0, 5.012814, 4.924647 
8.272457e+1, 3.0001563e+2, -11808.097, -90197.664, 4369.7466, 0.0051086247, -0.02310682, -11565.262, -11565.262, 0.0, 5.012738, 4.960939 
8.2730216e+1, 3.049832e+2, -3632.837, -66114.08, 3764.7795, -0.018309766, -0.050124273, -3406.8096, -3406.8096, 0.0, 5.0120206, 4.9694734 
8.273779e+1, 3.09955e+2, -4713.7734, -64131.055, 2578.5413, -0.028535929, -0.06870069, -4602.082, -4602.082, 0.0, 5.011204, 4.9704766 
8.274624e+1, 3.1492954e+2, -5573.7974, -62369.07, 1375.4912, -0.033380467, -0.06962563, -5540.505, -5540.505, 0.0, 5.01035, 4.9714804 
8.774585e+1, 1.21519275e+2, -1710089.5, -1745428.0, -33.289333, 0.015686141, 0.020590138, -1710089.5, 39027.96, 0.0, 5.014112, 4.9910693 
8.774584e+1, 1.2650327e+2, -1668760.1, -1711822.8, 74.09339, 0.012573691, -0.003089348, -1668760.0, 31510.703, 0.0, 5.014074, 4.9860387 
8.774534e+1, 1.3148932e+2, -1619840.8, -1662864.1, 187.8602, 0.004649445, -0.003693445, -1619839.9, 31567.71, 0.0, 5.014049, 4.9860377 
8.7744844e+1, 1.3647534e+2, -1573130.6, -1618444.1, 301.2702, -0.0032369215, -0.003012377, -1573128.6, 29416.063, 0.0, 5.014024, 4.9845324 
8.7744635e+1, 1.414586e+2, -1530543.9, -1582645.8, 361.48456, -0.008255389, 0.011357318, -1530541.4, 23167.82, 0.0, 5.014012, 4.9800897 
8.774496e+1, 1.4643893e+2, -1481159.9, -1532938.0, 267.69235, -0.007791296, 0.009166884, -1481158.5, 23744.39, 0.0, 5.0140166, 4.9803023 
8.774528e+1, 1.514192e+2, -1432092.8, -1483879.3, 190.27328, -0.007198238, 0.006093508, -1432092.0, 24005.139, 0.0, 5.0140204, 4.9803014 
8.7745607e+1, 1.5639944e+2, -1384454.8, -1437797.9, 112.63796, -0.0066047315, 0.0034794987, -1384454.5, 22837.035, 0.0, 5.0140243, 4.9793053 
8.7745875e+1, 1.6137592e+2, -1343597.9, -1405856.5, -69.59502, -0.006052793, 0.0062578456, -1343597.8, 14924.386, 0.0, 5.0140157, 4.973583 
8.7745947e+1, 1.6634952e+2, -1294477.9, -1356533.5, -158.40425, -0.005698189, 0.0030697384, -1294477.5, 15302.398, 0.0, 5.0139737, 4.97367 
8.774602e+1, 1.7132312e+2, -1245484.4, -1307472.1, -188.21901, -0.0053451266, -0.0000145403355, -1245483.8, 15553.431, 0.0, 5.01393, 4.9736705 
8.7746084e+1, 1.7629674e+2, -1197626.6, -1260814.4, -218.34644, -0.00497629, -0.0027066106, -1197625.9, 14668.6, 0.0, 5.0138855, 4.972863 
8.774614e+1, 1.8126683e+2, -1157828.1, -1231296.1, -366.27478, -0.0042567346, 0.0044194167, -1157826.4, 5760.8975, 0.0, 5.013847, 4.966257 
8.774612e+1, 1.862338e+2, -1108595.8, -1181899.9, -452.52048, -0.0026930785, 0.008330893, -1108593.0, 6319.968, 0.0, 5.0138226, 4.9663343 
8.7746084e+1, 1.9120081e+2, -1059466.0, -1132734.6, -486.43777, -0.0010796618, 0.012251127, -1059462.8, 6775.8467, 0.0, 5.013799, 4.966335 
8.7746054e+1, 1.961678e+2, -1011228.06, -1085486.0, -520.6905, 0.00054279633, 0.016488673, -1011224.44, 6339.735, 0.0, 5.0137753, 4.9656844 
8.774588e+1, 2.0113072e+2, -971074.2, -1055873.8, -555.1246, 0.00062631024, 0.023350712, -971070.56, -2142.4646, 0.0, 5.0137916, 4.9589977 
8.7745255e+1, 2.060888e+2, -921202.25, -1005830.56, -567.34985, -0.0037252945, 0.009370706, -921198.44, -863.4862, 0.0, 5.013901, 4.959209 
8.774461e+1, 2.110468e+2, -871608.75, -956405.1, -580.1066, -0.008315984, -0.005639498, -871604.75, 137.49934, 0.0, 5.0140142, 4.9592104 
8.7743974e+1, 2.1600479e+2, -822683.8, -908437.7, -593.22095, -0.012871338, -0.0205394, -822679.7, 469.83502, 0.0, 5.0141273, 4.958713 
8.7743413e+1, 2.2095981e+2, -782959.2, -880294.25, -1074.6052, -0.014561826, -0.0203724, -782947.3, -8359.813, 0.0, 5.0141773, 4.9514184 
8.774317e+1, 2.259128e+2, -733692.94, -830396.6, -1343.6781, -0.0073991967, -0.010286734, -733674.25, -7625.1797, 0.0, 5.0140347, 4.951667 
8.774295e+1, 2.3086588e+2, -684786.06, -781257.1, -1431.9723, 0.0004156302, 0.0004730535, -684764.8, -7254.8657, 0.0, 5.013879, 4.951668 
8.7742746e+1, 2.3581895e+2, -636527.0, -733563.0, -1522.4962, 0.008268305, 0.011079171, -636503.06, -7532.1855, 0.0, 5.0137224, 4.951167 
8.774206e+1, 2.4076772e+2, -597443.8, -706257.2, -2174.095, 0.013578021, 0.025697006, -597400.4, -16925.992, 0.0, 5.0135617, 4.9435697 
8.773951e+1, 2.4571018e+2, -547687.2, -655501.5, -2523.1584, 0.009843552, 0.0063689933, -547628.1, -15587.681, 0.0, 5.013454, 4.944059 
8.773682e+1, 2.5065243e+2, -498522.44, -606170.44, -2458.9368, 0.0052859983, -0.016140936, -498466.28, -14857.563, 0.0, 5.0133553, 4.9440675 
8.773416e+1, 2.5559476e+2, -449606.03, -557405.4, -2393.7302, 0.0007063421, -0.037809916, -449552.9, -14376.828, 0.0, 5.013254, 4.943878 
8.773197e+1, 2.605352e+2, -409162.8, -527164.56, -2591.1377, 0.0014815311, -0.03163081, -409105.94, -22342.97, 0.0, 5.0130773, 4.9371057 
8.7733454e+1, 2.6548007e+2, -356971.6, -468746.66, -3330.887, 0.039238483, 0.0045939283, -356872.44, -18561.0, 0.0, 5.0124683, 4.9402733 
8.773582e+1, 2.7042547e+2, -308614.34, -419493.88, -4433.9683, 0.083958246, 0.03481298, -308437.3, -18582.379, 0.0, 5.011806, 4.9404454 
8.773853e+1, 2.7537048e+2, -260219.05, -370454.8, -5662.0747, 0.13069929, 0.05666307, -259928.98, -18526.852, 0.0, 5.0111322, 4.9405704 
8.773774e+1, 2.8031006e+2, -234476.45, -376094.63, -6844.8467, 0.1492035, 0.12720987, -234146.39, -41146.34, 0.0, 5.0114594, 4.9213896 
8.773555e+1, 2.8523403e+2, -178748.9, -312252.1, -481.85825, 0.11032712, 0.12296526, -178747.17, -34008.707, 0.0, 5.0122094, 4.9259157 
8.7736e+1, 2.9015428e+2, -128768.34, -262184.5, 1081.7589, 0.07742128, 0.059503943, -128759.58, -32247.473, 0.0, 5.0123534, 4.925932 
8.7736756e+1, 2.9507387e+2, -78734.21, -212178.44, 2492.0405, 0.045393392, -0.012427153, -78687.695, -30395.813, 0.0, 5.0124655, 4.9259486 
8.7738276e+1, 3.0001247e+2, -11624.142, -88203.27, 3953.7769, 0.0130441, -0.052692838, -11420.55, -11420.55, 0.0, 5.012456, 4.961742 
8.774471e+1, 3.0498463e+2, -4450.748, -67291.164, 3575.77, 0.0040212944, -0.026970424, -4247.9326, -4247.9326, 0.0, 5.011864, 4.969161 
8.7752867e+1, 3.0996093e+2, -4997.952, -64664.94, 2961.2986, 0.0048922193, 0.009456677, -4851.342, -4851.342, 0.0, 5.011161, 4.9703 
8.776181e+1, 3.149398e+2, -5323.7686, -62259.996, 2330.5393, 0.008721096, 0.058585335, -5228.533, -5228.533, 0.0, 5.01042, 4.97144 
9.2760116e+1, 1.2151831e+2, -1710928.3, -1747128.5, -187.65372, 0.01704783, 0.013732207, -1710927.3, 38196.902, 0.0, 5.014111, 4.9905114 
9.276006e+1, 1.2650245e+2, -1668536.8, -1711364.5, 52.734367, 0.014027862, -0.009333689, -1668536.8, 31740.244, 0.0, 5.014073, 4.9861903 
9.2759436e+1, 1.3148886e+2, -1619617.5, -1662406.8, 168.69662, 0.005072927, -0.007852078, -1619616.9, 31793.488, 0.0, 5.0140486, 4.986189 
9.2758805e+1, 1.3647525e+2, -1572907.5, -1617987.4, 284.30875, -0.0038686926, -0.0050975285, -1572905.6, 29638.234, 0.0, 5.014024, 4.984684 
9.275851e+1, 1.4145872e+2, -1530616.5, -1582795.3, 363.00607, -0.009670445, 0.01076894, -1530614.0, 23092.352, 0.0, 5.014012, 4.98004 
9.275883e+1, 1.46439e+2, -1481303.9, -1533235.4, 270.51505, -0.0093071265, 0.009009632, -1481302.5, 23598.596, 0.0, 5.0140166, 4.9802036 
9.275915e+1, 1.514192e+2, -1432235.6, -1484175.8, 193.84918, -0.008793332, 0.0063400934, -1432235.0, 23861.451, 0.0, 5.0140204, 4.9802027 
9.2759466e+1, 1.5639938e+2, -1384596.8, -1438093.8, 116.9667, -0.008285132, 0.0041281623, -1384596.5, 22695.404, 0.0, 5.0140243, 4.9792066 
9.2759776e+1, 1.6137579e+2, -1343672.8, -1406012.5, -94.61279, -0.007288678, 0.006911899, -1343672.6, 14850.941, 0.0, 5.0140157, 4.9735312 
9.2759967e+1, 1.6634925e+2, -1294531.1, -1356645.5, -192.3457, -0.0053258315, 0.002776007, -1294530.5, 15251.881, 0.0, 5.0139737, 4.9736323 
9.276016e+1, 1.7132272e+2, -1245536.8, -1307583.9, -221.06976, -0.0033347998, -0.001302363, -1245536.0, 15504.964, 0.0, 5.01393, 4.973633 
9.2760336e+1, 1.762962e+2, -1197678.3, -1260925.9, -250.10045, -0.0013401979, -0.0049932892, -1197677.3, 14622.165, 0.0, 5.013886, 4.9728255 
9.276039e+1, 1.8126623e+2, -1157891.0, -1231430.5, -390.14615, -0.00027599177, 0.0019533064, -1157888.9, 5703.827, 0.0, 5.013847, 4.966212 
9.276007e+1, 1.8623334e+2, -1108656.1, -1182030.0, -470.4841, -0.0014204631, 0.0076007317, -1108653.1, 6264.2905, 0.0, 5.0138226, 4.96629 
9.2759734e+1, 1.9120046e+2, -1059525.9, -1132864.8, -502.6336, -0.0026648124, 0.013331209, -1059522.4, 6719.6763, 0.0, 5.0137997, 4.96629 
9.27594e+1, 1.9616762e+2, -1011287.4, -1085616.1, -535.1156, -0.003916561, 0.019374928, -1011283.56, 6283.0566, 0.0, 5.013776, 4.9656396 
9.275907e+1, 2.0113058e+2, -971128.25, -1055986.8, -496.68137, -0.0054033045, 0.027170604, -971125.4, -2195.1853, 0.0, 5.013791, 4.958959 
9.2758757e+1, 2.0608841e+2, -921229.4, -1005883.94, -479.89377, -0.007779232, 0.01088545, -921226.7, -887.6909, 0.0, 5.0139003, 4.9591904 
9.2758447e+1, 2.1104614e+2, -871635.8, -956459.56, -490.0241, -0.010219706, -0.0067003956, -871633.0, 115.40196, 0.0, 5.014014, 4.959192 
9.275813e+1, 2.1600388e+2, -822710.9, -908493.2, -500.52032, -0.012646195, -0.024178458, -822708.0, 449.8638, 0.0, 5.014127, 4.9586935 
9.2757744e+1, 2.2095875e+2, -783109.6, -880637.2, -1133.8809, -0.013169188, -0.024582654, -783096.44, -8499.475, 0.0, 5.0141797, 4.9512997 
9.275721e+1, 2.2591208e+2, -733832.44, -830730.4, -1459.8573, -0.0074526006, -0.010000744, -733810.44, -7753.714, 0.0, 5.0140386, 4.9515495 
9.275669e+1, 2.3086554e+2, -684923.94, -781595.0, -1542.3473, -0.0012778563, 0.0055105714, -684899.4, -7383.8364, 0.0, 5.013883, 4.9515486 
9.2756164e+1, 2.3581898e+2, -636663.3, -733905.1, -1627.0538, 0.004890183, 0.020874795, -636636.1, -7661.631, 0.0, 5.0137277, 4.9510465 
9.2755246e+1, 2.407679e+2, -597460.94, -706383.94, -2249.0942, 0.009102889, 0.037991725, -597414.5, -16937.377, 0.0, 5.0135736, 4.9435225 
9.275268e+1, 2.4570957e+2, -547585.75, -655387.75, -2611.5854, 0.0063623963, 0.010314263, -547522.5, -15473.942, 0.0, 5.01347, 4.944092 
9.274996e+1, 2.5065088e+2, -498417.47, -606052.2, -2541.2434, 0.002936208, -0.021905597, -498357.5, -14734.447, 0.0, 5.0133724, 4.9441013 
9.274728e+1, 2.5559232e+2, -449497.56, -557282.6, -2469.912, -0.0005513631, -0.053389717, -449441.0, -14244.264, 0.0, 5.013273, 4.9439125 
9.27446e+1, 2.605321e+2, -410370.97, -530249.25, -2937.6653, -0.002386421, -0.04949417, -410299.03, -23509.193, 0.0, 5.0131273, 4.9360013 
9.2744493e+1, 2.6547775e+2, -358030.53, -472153.7, -3562.498, 0.021317763, 0.005014158, -357919.44, -19579.031, 0.0, 5.012601, 4.9390106 
9.2745215e+1, 2.7042395e+2, -309513.56, -423141.97, -4483.8857, 0.05057979, 0.05399863, -309336.9, -19450.205, 0.0, 5.0120144, 4.9390874 
9.2746264e+1, 2.753696e+2, -260957.89, -374343.78, -5530.387, 0.08109907, 0.09409204, -260688.78, -19250.523, 0.0, 5.011416, 4.939117 
9.274415e+1, 2.803101e+2, -235446.9, -377468.66, -7824.686, 0.09262291, 0.18588567, -235017.1, -41981.918, 0.0, 5.0113554, 4.9208827 
9.274341e+1, 2.8523356e+2, -178382.17, -308079.28, -698.2093, 0.071537636, 0.16536339, -178378.42, -33607.668, 0.0, 5.011782, 4.927369 
9.274578e+1, 2.9015252e+2, -128345.29, -258330.02, 1050.9591, 0.055148683, 0.073049076, -128336.79, -31790.434, 0.0, 5.0119658, 4.9272914 
9.2748433e+1, 2.9507086e+2, -78253.97, -208640.88, 2647.0046, 0.03853239, -0.027241783, -78200.26, -29871.756, 0.0, 5.0121174, 4.927214 
9.2751527e+1, 3.000089e+2, -12508.554, -88545.22, 3550.7039, 0.019966928, -0.08410261, -12343.105, -12343.105, 0.0, 5.012174, 4.961651 
9.275854e+1, 3.049844e+2, -5325.7573, -68413.53, 3232.8286, 0.020385599, -0.020885633, -5160.5293, -5160.5293, 0.0, 5.0117087, 4.9687066 
9.276718e+1, 3.0996463e+2, -5339.591, -65143.688, 3189.843, 0.028094506, 0.05534074, -5169.9316, -5169.9316, 0.0, 5.011118, 4.969981 
9.277652e+1, 3.1494722e+2, -5131.882, -62095.35, 3130.8105, 0.03633615, 0.13931148, -4960.3237, -4960.3237, 0.0, 5.01049, 4.9712567 
9.7774386e+1, 1.21517316e+2, -1711768.1, -1748758.5, -299.5361, 0.018519072, 0.00681889, -1711765.8, 37365.305, 0.0, 5.014095, 4.9899836 
9.777429e+1, 1.2650163e+2, -1668332.0, -1710915.4, 60.270767, 0.015506202, -0.01546529, -1668332.0, 31951.123, 0.0, 5.0140667, 4.9863405 
9.7773534e+1, 1.314884e+2, -1619404.1, -1661954.5, 162.92834, 0.0055190274, -0.011938614, -1619403.5, 32009.414, 0.0, 5.0140452, 4.9863396 
9.777277e+1, 1.3647515e+2, -1572700.9, -1617539.1, 266.29688, -0.0044745076, -0.0071525373, -1572699.3, 29843.84, 0.0, 5.0140185, 4.984834 
9.7772384e+1, 1.4145884e+2, -1530723.6, -1582972.8, 355.5044, -0.011074807, 0.010205932, -1530721.3, 22982.357, 0.0, 5.014003, 4.9799857 
9.777269e+1, 1.4643906e+2, -1481472.6, -1533544.4, 267.0428, -0.010817082, 0.008870655, -1481471.4, 23427.908, 0.0, 5.014008, 4.980105 
9.777301e+1, 1.5141921e+2, -1432405.8, -1484485.0, 194.29092, -0.0103811845, 0.0065894704, -1432405.0, 23690.637, 0.0, 5.0140114, 4.980104 
9.7773325e+1, 1.5639934e+2, -1384773.3, -1438405.8, 121.82264, -0.009955487, 0.0047635967, -1384773.0, 22519.117, 0.0, 5.014013, 4.979108 
9.7773665e+1, 1.6137567e+2, -1343788.3, -1406195.3, -116.89424, -0.008515812, 0.007585627, -1343788.0, 14736.862, 0.0, 5.0140038, 4.973476 
9.777398e+1, 1.6634898e+2, -1294603.0, -1356766.5, -226.72105, -0.0049475986, 0.0025008912, -1294602.3, 15182.712, 0.0, 5.0139675, 4.9735947 
9.777429e+1, 1.7132233e+2, -1245598.5, -1307700.0, -258.9408, -0.0013186652, -0.0025864851, -1245597.4, 15447.248, 0.0, 5.013927, 4.973595 
9.7774595e+1, 1.7629565e+2, -1197739.0, -1261041.8, -292.26276, 0.0023043589, -0.0072902073, -1197737.6, 14566.679, 0.0, 5.013883, 4.972788 
9.777464e+1, 1.8126564e+2, -1157967.8, -1231584.6, -427.15665, 0.0037061146, -0.00046656345, -1157965.4, 5632.8545, 0.0, 5.0138454, 4.9661603 
9.777402e+1, 1.8623288e+2, -1108703.1, -1182152.8, -498.10406, -0.00014122558, 0.0068983138, -1108699.8, 6222.207, 0.0, 5.013828, 4.966245 
9.7773385e+1, 1.9120015e+2, -1059564.3, -1132983.6, -525.43414, -0.004231485, 0.014393982, -1059560.5, 6685.0015, 0.0, 5.0138073, 4.966245 
9.7772735e+1, 1.9616744e+2, -1011329.56, -1085736.9, -553.20337, -0.008341492, 0.022199497, -1011325.44, 6243.635, 0.0, 5.0137825, 4.965595 
9.777227e+1, 2.0113045e+2, -971193.5, -1056123.9, -439.64368, -0.011403618, 0.03102559, -971191.2, -2258.9915, 0.0, 5.013791, 4.9589124 
9.7772264e+1, 2.0608802e+2, -921285.9, -1005950.75, -393.2922, -0.011801425, 0.012444682, -921284.06, -941.0986, 0.0, 5.01389, 4.9591713 
9.7772276e+1, 2.1104549e+2, -871733.06, -956546.75, -402.99246, -0.01208074, -0.0077577312, -871731.1, 23.378616, 0.0, 5.013989, 4.9591722 
9.77723e+1, 2.1600294e+2, -822859.9, -908605.5, -414.18152, -0.012364263, -0.027851906, -822857.9, 308.23547, 0.0, 5.014084, 4.9586735 
9.7772074e+1, 2.209577e+2, -783437.94, -881110.9, -1191.2764, -0.011779163, -0.028742416, -783423.4, -8816.963, 0.0, 5.0141296, 4.951159 
9.7771263e+1, 2.2591136e+2, -734075.25, -831107.5, -1563.0049, -0.0075076823, -0.009748132, -734050.06, -7985.651, 0.0, 5.014006, 4.951432 
9.777043e+1, 2.308652e+2, -685150.2, -781967.2, -1618.7607, -0.00293257, 0.010368152, -685123.1, -7601.874, 0.0, 5.013857, 4.9514303 
9.77696e+1, 2.35819e+2, -636909.44, -734288.94, -1669.1028, 0.0016015925, 0.030346178, -636880.8, -7902.61, 0.0, 5.013694, 4.950927 
9.7768456e+1, 2.407681e+2, -597651.06, -706625.0, -2222.1917, 0.004712067, 0.050552778, -597605.8, -17126.232, 0.0, 5.0135355, 4.9434566 
9.776587e+1, 2.45709e+2, -547574.3, -655307.6, -2603.7166, 0.0029733398, 0.014743385, -547511.44, -15455.276, 0.0, 5.013458, 4.9441233 
9.776314e+1, 2.5064942e+2, -498337.25, -605942.94, -2550.1326, 0.0007237284, -0.027328618, -498276.84, -14639.909, 0.0, 5.0133853, 4.944132 
9.776044e+1, 2.555899e+2, -449356.0, -557147.6, -2520.1243, -0.0016107312, -0.06875124, -449297.1, -14080.098, 0.0, 5.013308, 4.943942 
9.775724e+1, 2.6052877e+2, -412027.56, -534141.3, -3093.799, -0.0067989114, -0.06796089, -411949.25, -25130.396, 0.0, 5.013148, 4.934607 
9.77557e+1, 2.65475e+2, -360452.94, -475979.66, -2920.9912, 0.003922248, 0.00095648365, -360379.13, -22005.55, 0.0, 5.0122385, 4.937755 
9.775499e+1, 2.70422e+2, -313897.2, -428069.25, -2708.757, 0.019698411, 0.06494071, -313832.97, -23909.96, 0.0, 5.010966, 4.937758 
9.775459e+1, 2.7536833e+2, -268031.84, -380681.06, -2350.457, 0.03618111, 0.11982999, -267982.84, -26504.01, 0.0, 5.0094166, 4.937713 
9.7750574e+1, 2.803107e+2, -246721.25, -386783.72, -5129.8774, 0.03815031, 0.24881569, -246533.61, -53468.945, 0.0, 5.008215, 4.918908 
9.7750765e+1, 2.8523415e+2, -183616.19, -306592.22, 2464.5508, 0.03191886, 0.2226343, -183566.81, -38774.953, 0.0, 5.009375, 4.9287043 
9.775514e+1, 2.901517e+2, -130945.48, -255941.5, 3336.182, 0.0326701, 0.096910715, -130856.49, -34284.406, 0.0, 5.010521, 4.928554 
9.775979e+1, 2.9506847e+2, -79099.46, -205743.75, 4312.9844, 0.03232577, -0.03630017, -78952.75, -30593.652, 0.0, 5.011324, 4.928404 
9.7764367e+1, 3.0000478e+2, -15121.722, -91492.38, 4016.9321, 0.026436487, -0.11768534, -14911.0205, -14911.0205, 0.0, 5.011659, 4.960676 
9.7771776e+1, 3.0498257e+2, -9066.47, -70657.82, 3338.7148, 0.031877022, -0.031868607, -8886.015, -8886.015, 0.0, 5.0105386, 4.968124 
9.7780824e+1, 3.099662e+2, -12770.771, -68602.16, 3073.5723, 0.043366447, 0.070215516, -12602.078, -12602.078, 0.0, 5.0085254, 4.9695134 
9.779051e+1, 3.1495202e+2, -18083.672, -67541.62, 2203.449, 0.05356894, 0.17589048, -17985.697, -17985.697, 0.0, 5.0058064, 4.970904 
1.0278857e+2, 1.21516906e+2, -1711412.6, -1749157.8, 145.74486, 0.01811922, 0.0012108962, -1711412.0, 37720.78, 0.0, 5.0143366, 4.989734 
1.0278836e+2, 1.2650165e+2, -1667721.1, -1710614.0, 448.68945, 0.014490035, -0.016467443, -1667716.4, 32564.787, 0.0, 5.0142684, 4.9863415 
1.0278763e+2, 1.314884e+2, -1618927.6, -1661720.6, 352.02206, 0.0051922845, -0.013153378, -1618924.8, 32486.746, 0.0, 5.0142026, 4.9863405 
1.027869e+2, 1.3647513e+2, -1572342.8, -1617364.1, 255.71404, -0.0040492085, -0.008600139, -1572341.4, 30200.73, 0.0, 5.014137, 4.9848356 
1.02786504e+2, 1.4145878e+2, -1530551.6, -1583017.5, 257.0798, -0.010298072, 0.008730948, -1530550.4, 23152.58, 0.0, 5.014087, 4.9799304 
1.02786765e+2, 1.46439e+2, -1481387.3, -1533662.5, 206.34076, -0.010487121, 0.007947479, -1481386.4, 23512.53, 0.0, 5.014071, 4.980036 
1.0278703e+2, 1.5141913e+2, -1432376.9, -1484628.5, 167.78339, -0.010494338, 0.006239518, -1432376.4, 23719.186, 0.0, 5.014055, 4.9800353 
1.027873e+2, 1.5639926e+2, -1384795.5, -1438571.9, 129.04625, -0.010492361, 0.0049807034, -1384795.3, 22497.074, 0.0, 5.0140386, 4.97904 
1.02787614e+2, 1.6137555e+2, -1343815.9, -1406400.4, -100.67446, -0.009247834, 0.008109786, -1343815.8, 14709.892, 0.0, 5.0140347, 4.973392 
1.0278796e+2, 1.6634874e+2, -1294466.0, -1356905.3, -280.22928, -0.005318409, 0.0028035073, -1294464.8, 15322.274, 0.0, 5.0140576, 4.9735045 
1.027883e+2, 1.7132197e+2, -1245274.8, -1307749.4, -385.17346, -0.0012669894, -0.0025030077, -1245272.4, 15775.734, 0.0, 5.0140805, 4.9735045 
1.0278864e+2, 1.7629519e+2, -1197220.5, -1260998.5, -490.16364, 0.0028158277, -0.007406049, -1197216.8, 15092.301, 0.0, 5.0141034, 4.9726973 
1.02788694e+2, 1.8126509e+2, -1157191.4, -1231307.0, -651.0791, 0.004321481, -0.0007749224, -1157185.6, 6418.315, 0.0, 5.01413, 4.966119 
1.02788016e+2, 1.8623228e+2, -1107776.8, -1181768.3, -707.72815, -0.00024272598, 0.006380677, -1107770.0, 7158.0605, 0.0, 5.0141573, 4.96622 
1.0278731e+2, 1.9119951e+2, -1058504.4, -1132535.6, -724.0345, -0.0050224136, 0.013681199, -1058497.4, 7754.612, 0.0, 5.0141835, 4.9662204 
1.0278661e+2, 1.9616675e+2, -1010124.9, -1085220.5, -740.70496, -0.009761926, 0.021306157, -1010117.56, 7458.1743, 0.0, 5.01421, 4.9655704 
1.02786124e+2, 2.0112975e+2, -970028.06, -1055581.4, -604.2634, -0.0128941825, 0.030217417, -970023.8, -1084.9404, 0.0, 5.014196, 4.958908 
1.0278625e+2, 2.0608738e+2, -920771.7, -1005701.7, -532.6864, -0.011793803, 0.012317239, -920768.3, -419.3274, 0.0, 5.014066, 4.959174 
1.027864e+2, 2.1104494e+2, -871897.8, -956619.2, -516.9509, -0.010434995, -0.0071361316, -871894.7, -134.80594, 0.0, 5.01393, 4.959174 
1.0278656e+2, 2.1600248e+2, -823688.0, -908989.7, -501.23267, -0.009041265, -0.026434442, -823685.06, -514.36346, 0.0, 5.013793, 4.958675 
1.0278637e+2, 2.2095728e+2, -784604.9, -881732.2, -1158.1581, -0.007914684, -0.026908407, -784591.06, -9980.176, 0.0, 5.0137324, 4.9511304 
1.0278531e+2, 2.2591083e+2, -734568.2, -831404.4, -1450.82, -0.0062565673, -0.008516532, -734546.44, -8476.132, 0.0, 5.0138445, 4.951405 
1.0278421e+2, 2.3086458e+2, -684875.5, -781877.56, -1458.9768, -0.0043362174, 0.010996453, -684853.56, -7325.085, 0.0, 5.013962, 4.951412 
1.0278312e+2, 2.3581831e+2, -635836.0, -733801.75, -1470.1572, -0.0023090295, 0.030406922, -635813.94, -6827.224, 0.0, 5.014079, 4.9509172 
1.02781825e+2, 2.407674e+2, -595738.0, -705566.3, -1907.2003, -0.000779485, 0.050378192, -595704.94, -15216.758, 0.0, 5.014196, 4.9435153 
1.02779485e+2, 2.4570836e+2, -544617.4, -653840.44, -2260.611, -0.0009684047, 0.014686883, -544570.6, -12508.063, 0.0, 5.0144978, 4.944158 
1.0277708e+2, 2.5064883e+2, -494248.2, -604049.4, -2198.7646, -0.0011487451, -0.027102476, -494204.16, -10563.051, 0.0, 5.0148315, 4.9441414 
1.0277472e+2, 2.5558937e+2, -444134.94, -554832.5, -2131.5276, -0.0011746916, -0.06800934, -444093.9, -8874.889, 0.0, 5.015161, 4.9439263 
1.02771565e+2, 2.60528e+2, -405899.5, -532517.56, -2539.3354, -0.0064222235, -0.06722028, -405848.6, -19025.525, 0.0, 5.015533, 4.9341073 
1.0276911e+2, 2.6547396e+2, -351915.84, -471996.56, -3526.871, -0.0010544155, 0.00216667, -351812.34, -13427.504, 0.0, 5.015394, 4.937656 
1.0276751e+2, 2.7042162e+2, -302464.63, -421649.0, -4934.121, 0.012183366, 0.071705565, -302260.72, -12327.22, 0.0, 5.015125, 4.937982 
1.0276634e+2, 2.753694e+2, -253011.61, -371501.47, -6491.8306, 0.029191453, 0.13709609, -252657.0, -11175.946, 0.0, 5.014835, 4.938261 
1.0276169e+2, 2.8031397e+2, -224829.69, -378160.38, -9348.763, 0.033935133, 0.28660905, -224261.78, -31212.154, 0.0, 5.016146, 4.918544 
1.0276214e+2, 2.8523675e+2, -164345.53, -300061.8, 21.569435, 0.028070532, 0.25675276, -164345.53, -19563.334, 0.0, 5.016066, 4.9285 
1.02767035e+2, 2.901529e+2, -119333.93, -251804.16, 1012.859, 0.031616792, 0.11709858, -119326.18, -22752.719, 0.0, 5.0144324, 4.928646 
1.0277229e+2, 2.9506862e+2, -74241.805, -203573.05, 1853.6816, 0.03741341, -0.029723752, -74215.24, -25846.508, 0.0, 5.0127625, 4.9287925 
1.02777295e+2, 3.0000374e+2, -16810.19, -93438.54, 1030.9973, 0.040202383, -0.12365251, -16796.32, -16796.32, 0.0, 5.011174, 4.9603257 
1.0278448e+2, 3.049831e+2, -11574.952, -73177.63, -726.03503, 0.057859894, -0.017268734, -11566.396, -11566.396, 0.0, 5.009962, 4.967541 
1.0279364e+2, 3.0997002e+2, -13755.962, -71137.89, -1640.8945, 0.09086647, 0.1254555, -13709.077, -13709.077, 0.0, 5.008756, 4.9686384 
1.0280383e+2, 3.1495965e+2, -15785.541, -69252.13, -2678.7837, 0.13168879, 0.28322262, -15651.664, -15651.664, 0.0, 5.0075135, 4.969736 
1.0780266e+2, 1.2151694e+2, -1711430.1, -1749203.1, 43.53361, 0.015495482, -0.0033189696, -1711430.0, 37700.53, 0.0, 5.0143375, 4.9897194 
1.0780231e+2, 1.2650235e+2, -1667891.1, -1710970.4, 394.51077, 0.011175524, -0.013307993, -1667887.5, 32385.352, 0.0, 5.0142694, 4.9862247 
1.0780173e+2, 1.3148877e+2, -1619097.3, -1662075.9, 299.60446, 0.004125711, -0.0120625105, -1619095.3, 32311.555, 0.0, 5.014203, 4.986224 
1.0780115e+2, 1.3647516e+2, -1572512.1, -1617718.5, 205.07349, -0.0028960363, -0.009572895, -1572511.1, 30029.7, 0.0, 5.014137, 4.9847193 
1.0780084e+2, 1.4145862e+2, -1530634.0, -1583186.5, 236.383, -0.007908916, 0.006520686, -1530633.0, 23071.156, 0.0, 5.014087, 4.979875 
1.0780101e+2, 1.4643884e+2, -1481456.9, -1533805.6, 193.89581, -0.00878496, 0.006380042, -1481456.3, 23443.557, 0.0, 5.0140705, 4.9799886 
1.07801184e+2, 1.5141898e+2, -1432445.9, -1484771.0, 156.15099, -0.00953993, 0.005390297, -1432445.4, 23650.64, 0.0, 5.0140543, 4.979988 
1.0780136e+2, 1.5639915e+2, -1384863.8, -1438713.8, 118.229126, -0.0102921575, 0.0048510963, -1384863.5, 22428.928, 0.0, 5.0140386, 4.978993 
1.078016e+2, 1.6137542e+2, -1343973.3, -1406730.4, -90.11264, -0.00977068, 0.008531915, -1343973.1, 14552.884, 0.0, 5.0140347, 4.973282 
1.078019e+2, 1.6634853e+2, -1294652.8, -1357299.3, -262.53812, -0.0064362353, 0.0035669943, -1294651.6, 15137.138, 0.0, 5.0140576, 4.973373 
1.0780221e+2, 1.7132166e+2, -1245459.6, -1308140.9, -366.23737, -0.0029883815, -0.0013927936, -1245457.5, 15593.899, 0.0, 5.014081, 4.9733734 
1.0780252e+2, 1.7629479e+2, -1197403.6, -1261387.6, -469.98535, 0.00047321548, -0.005951857, -1197400.3, 14913.702, 0.0, 5.014104, 4.972566 
1.07802585e+2, 1.8126453e+2, -1157242.1, -1231415.5, -629.79474, 0.0018213362, 0.00038736945, -1157236.8, 6373.431, 0.0, 5.01413, 4.966083 
1.0780203e+2, 1.8623157e+2, -1107798.0, -1181816.0, -686.87964, -0.0017386897, 0.005972262, -1107791.6, 7143.948, 0.0, 5.0141573, 4.9662046 
1.0780145e+2, 1.911986e+2, -1058524.6, -1132582.8, -701.6155, -0.0054791234, 0.011665738, -1058518.0, 7742.7197, 0.0, 5.014184, 4.966205 
1.0780088e+2, 1.9616567e+2, -1010144.0, -1085266.9, -716.7179, -0.00919682, 0.017678654, -1010137.2, 7448.498, 0.0, 5.0142107, 4.965555 
1.0780049e+2, 2.0112862e+2, -969987.2, -1055493.0, -674.4753, -0.011299902, 0.025969876, -969981.9, -1032.719, 0.0, 5.0141954, 4.9589386 
1.078006e+2, 2.0608656e+2, -920735.94, -1005623.8, -636.34344, -0.008940015, 0.010976645, -920731.2, -374.53406, 0.0, 5.0140657, 4.959202 
1.0780075e+2, 2.1104445e+2, -871861.2, -956539.8, -618.27966, -0.006312681, -0.0053021014, -871856.7, -91.913795, 0.0, 5.01393, 4.9592023 
1.0780089e+2, 2.1600233e+2, -823650.44, -908908.9, -600.2217, -0.0036733414, -0.021440921, -823646.2, -473.37943, 0.0, 5.013793, 4.9587035 
1.07800655e+2, 2.2095726e+2, -784533.2, -881577.56, -1115.0819, -0.002506297, -0.020988507, -784520.4, -9908.444, 0.0, 5.0137324, 4.9511843 
1.07799344e+2, 2.259104e+2, -734551.1, -831384.0, -1351.1526, -0.0044778273, -0.0068345764, -734532.3, -8457.161, 0.0, 5.013846, 4.9514146 
1.0779798e+2, 2.3086369e+2, -684854.1, -781861.4, -1353.1469, -0.0064856187, 0.008239814, -684835.25, -7297.9253, 0.0, 5.013965, 4.9514194 
1.0779663e+2, 2.3581697e+2, -635810.25, -733789.8, -1358.1738, -0.008433886, 0.023194496, -635791.44, -6791.823, 0.0, 5.014084, 4.950923 
1.077952e+2, 2.4076585e+2, -595559.2, -705296.3, -1734.2966, -0.009826389, 0.04044022, -595531.8, -15028.98, 0.0, 5.01421, 4.9436088 
1.07793264e+2, 2.4570747e+2, -544477.8, -653687.94, -2020.6748, -0.008943625, 0.010973718, -544440.44, -12370.728, 0.0, 5.014515, 4.944214 
1.077913e+2, 2.5064868e+2, -494113.16, -603888.25, -1951.8531, -0.0077357325, -0.023574328, -494078.47, -10438.496, 0.0, 5.014847, 4.944201 
1.07789375e+2, 2.5558996e+2, -444004.44, -554662.75, -1877.6505, -0.0064301994, -0.057331067, -443972.6, -8763.031, 0.0, 5.015175, 4.9439898 
1.0778649e+2, 2.6052874e+2, -406348.16, -533878.56, -2250.0833, -0.012822286, -0.054392602, -406308.47, -19497.023, 0.0, 5.015567, 4.9336476 
1.0778305e+2, 2.6547274e+2, -352933.28, -475469.63, -3242.1267, -0.020136131, 0.006750273, -352847.56, -14453.51, 0.0, 5.0155263, 4.9364676 
1.0778026e+2, 2.7041808e+2, -303236.97, -425328.66, -4491.869, -0.022001226, 0.06740772, -303071.94, -13104.869, 0.0, 5.0153556, 4.9367 
1.0777787e+2, 2.7536336e+2, -253538.83, -375388.06, -5892.2695, -0.021323133, 0.122982584, -253254.56, -11713.7705, 0.0, 5.0151644, 4.9368854 
1.077727e+2, 2.8030583e+2, -223995.02, -375956.66, -9352.207, -0.027623799, 0.25918815, -223421.63, -30290.168, 0.0, 5.016108, 4.9193044 
1.0777357e+2, 2.8523067e+2, -164200.38, -297317.75, -1604.4391, -0.017644027, 0.23899746, -164181.05, -19333.06, 0.0, 5.01572, 4.9295325 
1.0777863e+2, 2.9014945e+2, -119071.77, -249315.08, -437.20013, 0.0035500494, 0.1172801, -119070.305, -22453.063, 0.0, 5.014141, 4.9295945 
1.0778401e+2, 2.950678e+2, -73861.97, -201338.47, 579.7622, 0.025658092, -0.011614988, -73859.336, -25468.113, 0.0, 5.012526, 4.929657 
1.0778903e+2, 3.000046e+2, -17180.693, -93828.4, -34.861404, 0.042326, -0.093469806, -17180.678, -17180.678, 0.0, 5.011038, 4.9602046 
1.0779532e+2, 3.049845e+2, -12514.94, -76132.62, -1367.9646, 0.061778463, 0.021151071, -12485.538, -12485.538, 0.0, 5.0099955, 4.9663496 
1.0780333e+2, 3.09972e+2, -14198.563, -73892.71, -1876.3865, 0.09224363, 0.1739085, -14139.641, -14139.641, 0.0, 5.008936, 4.9674444 
1.0781228e+2, 3.1496188e+2, -15729.758, -71807.31, -2507.7495, 0.12824765, 0.33790177, -15617.837, -15617.837, 0.0, 5.00784, 4.96854 
1.1281674e+2, 1.2151694e+2, -1711398.3, -1749146.8, -58.60909, 0.012851903, -0.008071307, -1711398.3, 37730.45, 0.0, 5.014338, 4.989738 
1.12816244e+2, 1.2650305e+2, -1668061.9, -1711326.3, 340.1329, 0.007858399, -0.010099266, -1668059.1, 32205.346, 0.0, 5.01427, 4.986108 
1.1281583e+2, 1.3148914e+2, -1619267.6, -1662430.6, 246.98785, 0.0030558212, -0.01094135, -1619266.3, 32135.79, 0.0, 5.0142035, 4.9861073 
1.1281541e+2, 1.364752e+2, -1572682.1, -1618072.3, 154.23396, -0.0017468828, -0.010534339, -1572681.6, 29858.084, 0.0, 5.0141373, 4.9846025 
1.1281517e+2, 1.4145845e+2, -1530721.3, -1583365.1, 215.3581, -0.0055156155, 0.0043350277, -1530720.4, 22984.838, 0.0, 5.014087, 4.979816 
1.1281525e+2, 1.4643869e+2, -1481526.9, -1533948.6, 181.50558, -0.007080309, 0.004828908, -1481526.3, 23374.367, 0.0, 5.01407, 4.979941 
1.12815335e+2, 1.5141886e+2, -1432515.0, -1484913.4, 144.57332, -0.0085870335, 0.0045405445, -1432514.6, 23581.887, 0.0, 5.0140543, 4.979941 
1.12815425e+2, 1.5639903e+2, -1384932.1, -1438855.6, 107.46676, -0.0100974655, 0.004704122, -1384932.0, 22360.58, 0.0, 5.014038, 4.9789457 
1.1281559e+2, 1.6137528e+2, -1344136.5, -1407072.4, -79.85561, -0.010279464, 0.008980286, -1344136.4, 14389.905, 0.0, 5.0140347, 4.973168 
1.1281586e+2, 1.663483e+2, -1294839.9, -1357693.0, -245.12737, -0.007542564, 0.0043560565, -1294839.0, 14951.637, 0.0, 5.0140576, 4.973241 
1.12816125e+2, 1.7132133e+2, -1245644.9, -1308532.1, -347.58163, -0.0047076275, -0.0002758178, -1245643.0, 15411.713, 0.0, 5.014081, 4.9732413 
1.128164e+2, 1.7629436e+2, -1197587.1, -1261776.6, -450.08737, -0.0018766011, -0.0045097163, -1197584.0, 14734.763, 0.0, 5.014104, 4.9724345 
1.1281647e+2, 1.8126401e+2, -1157299.4, -1231537.0, -609.31036, -0.00067208137, 0.0015751539, -1157294.4, 6322.0913, 0.0, 5.01413, 4.966042 
1.1281605e+2, 1.8623085e+2, -1107819.6, -1181863.6, -665.9197, -0.0032253515, 0.005582328, -1107813.6, 7129.435, 0.0, 5.0141573, 4.966189 
1.12815596e+2, 1.9119771e+2, -1058545.1, -1132629.6, -679.08496, -0.005931268, 0.009641059, -1058539.0, 7730.4404, 0.0, 5.0141845, 4.96619 
1.1281516e+2, 1.9616458e+2, -1010163.56, -1085313.0, -692.61926, -0.008631886, 0.014014236, -1010157.2, 7438.448, 0.0, 5.014211, 4.96554 
1.1281485e+2, 2.0112747e+2, -969958.75, -1055430.8, -746.45825, -0.009699795, 0.021780299, -969952.2, -992.8598, 0.0, 5.0141954, 4.95896 
1.1281496e+2, 2.0608576e+2, -920700.8, -1005545.56, -740.4188, -0.0060814098, 0.009697259, -920694.3, -330.0456, 0.0, 5.0140657, 4.959229 
1.12815104e+2, 2.1104395e+2, -871825.06, -956460.1, -720.0267, -0.0021914404, -0.003452921, -871818.94, -49.31798, 0.0, 5.01393, 4.95923 
1.1281524e+2, 2.1600218e+2, -823613.4, -908827.75, -699.629, 0.0016876153, -0.016478311, -823607.6, -432.68524, 0.0, 5.0137935, 4.9587317 
1.1281493e+2, 2.2095725e+2, -784480.44, -881462.4, -1072.3711, 0.0028940125, -0.015016499, -784468.6, -9855.6, 0.0, 5.0137324, 4.951224 
1.1281338e+2, 2.2590998e+2, -734535.5, -831362.56, -1248.4912, -0.0026810807, -0.005157764, -734519.4, -8439.464, 0.0, 5.0138474, 4.951422 
1.1281177e+2, 2.3086281e+2, -684834.1, -781844.2, -1244.3237, -0.008591988, 0.00535187, -684818.2, -7271.959, 0.0, 5.0139685, 4.9514256 
1.1281016e+2, 2.3581563e+2, -635785.94, -733776.8, -1243.1976, -0.014490687, 0.015724607, -635770.2, -6757.5356, 0.0, 5.014089, 4.9509273 
1.128086e+2, 2.4076433e+2, -595431.75, -705129.6, -1551.0714, -0.018812938, 0.030788565, -595409.8, -14892.59, 0.0, 5.0142245, 4.9436646 
1.1280706e+2, 2.4570662e+2, -544344.44, -653529.56, -1784.1157, -0.016882692, 0.0077488525, -544315.25, -12238.738, 0.0, 5.014532, 4.9442687 
1.1280554e+2, 2.506486e+2, -493984.25, -603721.2, -1708.3174, -0.014306059, -0.019709483, -493957.66, -10319.155, 0.0, 5.014862, 4.9442596 
1.1280405e+2, 2.555906e+2, -443880.06, -554487.06, -1627.1475, -0.011688548, -0.04646773, -443856.13, -8656.258, 0.0, 5.015188, 4.944052 
1.1280138e+2, 2.6052943e+2, -406974.0, -535579.06, -1885.7037, -0.019770395, -0.041954357, -406946.38, -20145.46, 0.0, 5.015601, 4.933049 
1.1279712e+2, 2.654713e+2, -353986.28, -478916.0, -2805.7212, -0.03922139, 0.0083193015, -353923.28, -15517.635, 0.0, 5.015658, 4.9352393 
1.1279334e+2, 2.704142e+2, -304044.34, -428981.56, -3897.9211, -0.05526359, 0.057258572, -303922.84, -13918.95, 0.0, 5.0155864, 4.935378 
1.12789914e+2, 2.7535683e+2, -254100.55, -379247.75, -5140.9697, -0.06998969, 0.100181855, -253889.7, -12285.081, 0.0, 5.0154943, 4.935469 
1.1278365e+2, 2.8029782e+2, -224695.22, -377283.56, -9872.633, -0.08982783, 0.23401159, -224059.1, -30846.918, 0.0, 5.0160704, 4.918819 
1.1278451e+2, 2.8522503e+2, -164112.1, -294521.78, -3073.4814, -0.06555929, 0.23092009, -164039.7, -19130.684, 0.0, 5.0153747, 4.93053 
1.1278985e+2, 2.9014632e+2, -118866.305, -246773.38, -1730.1359, -0.025675619, 0.12372572, -118842.91, -22185.318, 0.0, 5.01385, 4.9305086 
1.1279547e+2, 2.950671e+2, -73538.63, -199050.55, -536.8654, 0.01378559, 0.009344078, -73536.336, -25124.752, 0.0, 5.01229, 4.930487 
1.1280052e+2, 3.000052e+2, -18255.238, -95692.84, -999.3738, 0.04386281, -0.06435875, -18242.342, -18238.775, 0.0, 5.0109024, 4.9595037 
1.1280596e+2, 3.04985e+2, -13510.489, -79034.7, -1994.1067, 0.062881075, 0.04990303, -13449.858, -13449.858, 0.0, 5.0100293, 4.965059 
1.1281294e+2, 3.0997258e+2, -14696.519, -76593.71, -2095.5176, 0.08919149, 0.20211323, -14625.656, -14625.656, 0.0, 5.009117, 4.9661517 
1.1282077e+2, 3.1496233e+2, -15729.271, -74307.72, -2319.826, 0.11875981, 0.3617453, -15637.545, -15637.545, 0.0, 5.008168, 4.967245 
1.17830835e+2, 1.2151692e+2, -1711414.9, -1749033.3, -187.23291, 0.010227664, -0.013023588, -1711413.9, 37713.098, 0.0, 5.0143065, 4.989791 
1.17830195e+2, 1.2650374e+2, -1668271.6, -1711699.6, 264.20468, 0.0045528566, -0.0068334267, -1668270.0, 31986.139, 0.0, 5.014258, 4.985991 
1.1782993e+2, 1.3148952e+2, -1619445.0, -1662787.5, 173.92384, 0.0019859686, -0.009785078, -1619444.3, 31952.914, 0.0, 5.014202, 4.9859905 
1.1782966e+2, 1.3647525e+2, -1572844.9, -1618421.5, 81.77091, -0.0006023186, -0.011481543, -1572844.8, 29693.771, 0.0, 5.01414, 4.9844856 
1.178295e+2, 1.4145829e+2, -1530804.3, -1583548.6, 171.49173, -0.0031169676, 0.0021752887, -1530803.8, 22902.672, 0.0, 5.01409, 4.9797535 
1.178295e+2, 1.4643852e+2, -1481587.8, -1534086.9, 148.67085, -0.005369442, 0.0032925918, -1481587.4, 23314.105, 0.0, 5.014073, 4.9798937 
1.17829494e+2, 1.5141873e+2, -1432580.1, -1485053.5, 114.249596, -0.007627765, 0.0036863037, -1432579.9, 23517.113, 0.0, 5.0140557, 4.979893 
1.1782949e+2, 1.5639892e+2, -1385006.6, -1439000.1, 79.280396, -0.0098945545, 0.004533752, -1385006.5, 22286.152, 0.0, 5.014036, 4.978898 
1.17829576e+2, 1.6137516e+2, -1344318.0, -1407431.3, -83.904915, -0.010757377, 0.00944821, -1344317.9, 14208.709, 0.0, 5.014031, 4.9730496 
1.17829815e+2, 1.6634808e+2, -1295037.9, -1358090.5, -235.3272, -0.008623962, 0.005167203, -1295037.0, 14755.424, 0.0, 5.0140543, 4.9731092 
1.1783004e+2, 1.7132102e+2, -1245851.6, -1308932.5, -330.44577, -0.006410724, 0.00084810925, -1245849.9, 15208.12, 0.0, 5.014074, 4.9731097 
1.1783027e+2, 1.7629394e+2, -1197815.6, -1262186.0, -426.16632, -0.0042148107, -0.0030755114, -1197812.8, 14510.749, 0.0, 5.014089, 4.9723034 
1.1783036e+2, 1.8126348e+2, -1157426.0, -1231701.4, -580.3766, -0.0031371282, 0.0027936213, -1157421.5, 6201.1904, 0.0, 5.0141087, 4.9659967 
1.1783006e+2, 1.8623014e+2, -1107890.3, -1181933.6, -633.81665, -0.004689027, 0.0052112243, -1107884.9, 7065.693, 0.0, 5.0141406, 4.966173 
1.1782975e+2, 1.9119681e+2, -1058611.6, -1132697.1, -643.68225, -0.0063691335, 0.0076030786, -1058606.0, 7672.067, 0.0, 5.014169, 4.966174 
1.1782943e+2, 1.961635e+2, -1010238.8, -1085384.3, -653.5785, -0.0080568055, 0.010304979, -1010233.2, 7372.446, 0.0, 5.0141926, 4.965524 
1.1782922e+2, 2.0112634e+2, -970003.3, -1055422.9, -803.45325, -0.00808356, 0.017638655, -969995.75, -1026.2074, 0.0, 5.0141745, 4.9589725 
1.1782932e+2, 2.0608494e+2, -920703.6, -1005484.9, -831.425, -0.003216526, 0.008474869, -920695.5, -323.62323, 0.0, 5.0140524, 4.9592557 
1.1782945e+2, 2.1104349e+2, -871817.3, -956393.3, -812.0726, 0.0019270398, -0.0015839357, -871809.5, -35.085342, 0.0, 5.01392, 4.959257 
1.1782958e+2, 2.1600203e+2, -823609.94, -908761.75, -792.18243, 0.0070431693, -0.011530689, -823602.56, -425.57007, 0.0, 5.013782, 4.9587593 
1.1782922e+2, 2.2095725e+2, -784488.94, -881405.25, -1022.0382, 0.008295378, -0.008970593, -784478.1, -9864.142, 0.0, 5.0137177, 4.95125 
1.1782743e+2, 2.2590956e+2, -734562.94, -831356.94, -1129.8289, -0.0008496286, -0.0034774984, -734549.75, -8465.045, 0.0, 5.013834, 4.95143 
1.1782556e+2, 2.3086192e+2, -684886.4, -781854.6, -1110.629, -0.010622722, 0.002328448, -684873.7, -7318.4854, 0.0, 5.013947, 4.9514318 
1.1782369e+2, 2.3581429e+2, -635894.5, -733817.6, -1090.1178, -0.020422155, 0.007981869, -635882.4, -6856.632, 0.0, 5.014048, 4.950932 
1.1782203e+2, 2.4076281e+2, -595557.06, -705148.0, -1300.03, -0.02765729, 0.021396961, -595541.6, -15010.26, 0.0, 5.0141687, 4.9436865 
1.1782088e+2, 2.4570581e+2, -544396.8, -653436.0, -1461.8329, -0.024701567, 0.005008407, -544377.25, -12294.35, 0.0, 5.0144863, 4.944325 
1.178198e+2, 2.5064853e+2, -494007.53, -603603.6, -1348.7178, -0.020765252, -0.015460481, -493990.9, -10354.335, 0.0, 5.014827, 4.9443197 
1.1781875e+2, 2.5559127e+2, -443874.8, -554345.75, -1231.2338, -0.016833836, -0.035295926, -443861.1, -8671.389, 0.0, 5.015163, 4.944116 
1.1781627e+2, 2.6053002e+2, -407989.56, -537645.5, -1186.8723, -0.02706314, -0.029736657, -407978.72, -21187.63, 0.0, 5.015554, 4.9323373 
1.1781134e+2, 2.6546967e+2, -356333.28, -482731.53, -1476.6423, -0.057707466, 0.006957286, -356316.03, -17897.07, 0.0, 5.015329, 4.9340277 
1.17806785e+2, 2.7041012e+2, -307971.94, -433738.75, -1631.008, -0.086338945, 0.041398384, -307950.78, -17908.172, 0.0, 5.0146985, 4.9340935 
1.17802545e+2, 2.7535015e+2, -260320.33, -385255.25, -1654.1257, -0.11463337, 0.06905532, -260298.42, -18628.244, 0.0, 5.0137877, 4.934112 
1.1779467e+2, 2.8029025e+2, -234352.45, -385487.03, -7194.4243, -0.14975667, 0.21160711, -234010.75, -40722.23, 0.0, 5.013369, 4.9170876 
1.17795035e+2, 2.8522012e+2, -168443.08, -293918.9, -1594.0002, -0.11374087, 0.23288888, -168422.83, -23459.941, 0.0, 5.0134697, 4.93141 
1.1780073e+2, 2.9014373e+2, -120531.05, -245204.75, -1135.4222, -0.055050768, 0.13658783, -120520.7, -23827.67, 0.0, 5.012916, 4.9313293 
1.1780669e+2, 2.9506674e+2, -73500.65, -196946.27, -559.8278, 0.0022126802, 0.032983646, -73498.11, -25068.898, 0.0, 5.011983, 4.9312487 
1.17811784e+2, 3.0000547e+2, -19793.383, -98924.6, -1452.3273, 0.04502771, -0.036798652, -19766.736, -19747.682, 0.0, 5.010862, 4.958234 
1.1781643e+2, 3.0498457e+2, -16265.445, -82646.7, -2995.8887, 0.062006176, 0.06932542, -16130.511, -16130.511, 0.0, 5.0094686, 4.9636602 
1.1782256e+2, 3.09972e+2, -20956.043, -81785.9, -4294.016, 0.08394016, 0.21255258, -20654.422, -20654.422, 0.0, 5.0072627, 4.96472 
1.1782946e+2, 3.1496125e+2, -27414.543, -81883.0, -6526.0186, 0.107585475, 0.36062476, -26643.555, -26643.555, 0.0, 5.004322, 4.9657817 
1.2284518e+2, 1.2151713e+2, -1710803.8, -1748168.9, -309.49826, 0.010237035, -0.01395853, -1710801.1, 38323.73, 0.0, 5.0143867, 4.990035 
1.2284425e+2, 1.2650439e+2, -1668067.1, -1711930.4, 31.806961, 0.0018208051, -0.002338693, -1668067.1, 32182.385, 0.0, 5.014396, 4.985847 
1.228441e+2, 1.3148978e+2, -1619129.8, -1662968.1, -107.740845, 0.0007504321, -0.0076020164, -1619129.4, 32264.873, 0.0, 5.0143785, 4.9858446 
1.2284395e+2, 1.3647515e+2, -1572401.5, -1618544.6, -247.22047, -0.00025733272, -0.011593828, -1572400.3, 30139.21, 0.0, 5.01436, 4.984338 
1.22843854e+2, 1.4145792e+2, -1530121.6, -1583313.8, -162.25218, -0.0016914068, 0.00050796004, -1530121.1, 23588.781, 0.0, 5.014339, 4.97971 
1.22843824e+2, 1.4643812e+2, -1480901.9, -1533791.0, -143.611, -0.0040279306, 0.0014960964, -1480901.5, 24003.484, 0.0, 5.0143113, 4.979876 
1.2284379e+2, 1.514183e+2, -1431928.5, -1484776.4, -138.68932, -0.0063869185, 0.0018020008, -1431928.1, 24172.26, 0.0, 5.014283, 4.9798756 
1.2284375e+2, 1.5639848e+2, -1384383.8, -1438738.8, -134.05637, -0.008734782, 0.0025663495, -1384383.5, 22912.541, 0.0, 5.0142546, 4.97888 
1.2284381e+2, 1.613747e+2, -1343843.4, -1407362.3, -237.0422, -0.009738353, 0.00781683, -1343842.5, 14687.425, 0.0, 5.0142255, 4.972979 
1.22844e+2, 1.6634767e+2, -1294755.8, -1358151.0, -335.3173, -0.007932446, 0.0048165224, -1294754.0, 15041.819, 0.0, 5.0141916, 4.973023 
1.228442e+2, 1.7132065e+2, -1245729.9, -1309071.9, -381.32626, -0.0060078944, 0.0018161444, -1245727.5, 15334.01, 0.0, 5.0141573, 4.973023 
1.2284439e+2, 1.7629363e+2, -1197840.1, -1262396.9, -427.66653, -0.0040504998, -0.00078655855, -1197837.3, 14489.93, 0.0, 5.014123, 4.972216 
1.2284447e+2, 1.8126312e+2, -1157447.5, -1231749.0, -505.9428, -0.003035925, 0.005325966, -1157444.0, 6182.922, 0.0, 5.0141096, 4.9659805 
1.2284423e+2, 1.8622954e+2, -1107871.3, -1181911.6, -523.21094, -0.004448911, 0.0053951377, -1107867.5, 7088.8696, 0.0, 5.0141454, 4.966179 
1.22843966e+2, 1.9119598e+2, -1058564.0, -1132660.4, -510.41544, -0.0059422525, 0.0053278445, -1058560.5, 7725.167, 0.0, 5.014183, 4.96618 
1.22843705e+2, 1.9616243e+2, -1010149.75, -1085326.9, -498.62378, -0.007390489, 0.005575314, -1010146.5, 7468.443, 0.0, 5.0142207, 4.965531 
1.22843504e+2, 2.011252e+2, -969838.7, -1055354.5, -712.33356, -0.0071567553, 0.0120760575, -969832.75, -853.3723, 0.0, 5.014232, 4.958969 
1.22843534e+2, 2.0608416e+2, -920437.75, -1005384.8, -816.77295, -0.0020773108, 0.0068550226, -920429.94, -51.039326, 0.0, 5.014149, 4.9592457 
1.2284359e+2, 2.1104312e+2, -871432.1, -956234.44, -849.92523, 0.0033493952, 0.0010638174, -871423.56, 354.72046, 0.0, 5.014058, 4.959248 
1.2284364e+2, 2.1600209e+2, -823090.9, -908538.44, -883.3962, 0.008824759, -0.0045940997, -823081.7, 96.00854, 0.0, 5.013967, 4.958751 
1.2284322e+2, 2.209575e+2, -783833.94, -880976.25, -1015.70374, 0.010226283, -0.00033974412, -783823.3, -9209.952, 0.0, 5.0139227, 4.9513035 
1.2284144e+2, 2.259093e+2, -734070.3, -831004.3, -1043.3855, 0.00009776693, -0.0005590789, -734059.06, -7970.7793, 0.0, 5.0139856, 4.9514813 
1.2283957e+2, 2.3086108e+2, -684522.56, -781548.5, -1003.4687, -0.0106852595, -0.0009120248, -684512.1, -6948.8125, 0.0, 5.014053, 4.9514875 
1.228377e+2, 2.3581289e+2, -635626.1, -733543.4, -967.4442, -0.021401135, -0.0014009393, -635616.56, -6578.0664, 0.0, 5.0141196, 4.9509916 
1.22836106e+2, 2.4076118e+2, -595379.06, -704797.75, -1051.8857, -0.029099545, 0.008865998, -595369.0, -14823.228, 0.0, 5.0141945, 4.9437885 
1.2283535e+2, 2.4570511e+2, -544217.4, -653015.06, -1125.6273, -0.025323149, 0.000892997, -544205.7, -12117.698, 0.0, 5.014503, 4.944454 
1.228347e+2, 2.5064892e+2, -493798.25, -603156.4, -998.97455, -0.020377003, -0.009787466, -493789.13, -10158.03, 0.0, 5.0148487, 4.9444532 
1.2283409e+2, 2.555928e+2, -443635.47, -553872.8, -862.7861, -0.015337996, -0.019549957, -443628.72, -8455.404, 0.0, 5.015189, 4.944254 
1.22832045e+2, 2.6053217e+2, -407429.94, -536302.3, -426.33762, -0.02462942, -0.010725804, -407428.53, -20660.682, 0.0, 5.0155883, 4.9327564 
1.2282714e+2, 2.654702e+2, -354936.66, -481029.3, -724.2796, -0.056974005, 0.008382302, -354932.5, -16525.295, 0.0, 5.015772, 4.9343333 
1.2282259e+2, 2.704092e+2, -304294.3, -430244.53, -1334.0004, -0.08537116, 0.025120124, -304280.2, -14239.4, 0.0, 5.015881, 4.9346433 
1.2281846e+2, 2.7534822e+2, -253628.78, -379695.75, -2128.7085, -0.11065293, 0.0363953, -253592.86, -11918.638, 0.0, 5.015969, 4.934906 
1.22810714e+2, 2.8028744e+2, -221084.78, -380563.78, -6690.187, -0.14376788, 0.16494544, -220804.61, -27507.854, 0.0, 5.017983, 4.917023 
1.2281014e+2, 2.8521731e+2, -155286.44, -291881.63, -546.4631, -0.115627125, 0.1954396, -155284.25, -10313.561, 0.0, 5.018249, 4.9305983 
1.2281476e+2, 2.901413e+2, -110267.85, -243417.75, -472.23785, -0.061641056, 0.11253041, -110266.18, -13569.303, 0.0, 5.01663, 4.9307947 
1.2281978e+2, 2.9506478e+2, -65164.848, -194987.34, -577.75275, -0.005117114, 0.020754455, -65162.277, -16734.223, 0.0, 5.014966, 4.930991 
1.22824125e+2, 3.0000362e+2, -12993.058, -97380.92, -2151.1152, 0.04095284, -0.042729456, -12938.26, -12920.998, 0.0, 5.0134416, 4.957897 
1.22828096e+2, 3.0498144e+2, -10264.585, -83499.35, -5133.828, 0.06650255, 0.06461837, -9906.45, -9906.45, 0.0, 5.01221, 4.9624295 
1.2283375e+2, 3.099681e+2, -12994.977, -82973.38, -7076.887, 0.10504634, 0.22460225, -12286.468, -12286.468, 0.0, 5.010903, 4.9631047 
1.22840546e+2, 3.1495738e+2, -15589.408, -82586.66, -9075.621, 0.1537209, 0.4050718, -14381.77, -14381.77, 0.0, 5.009541, 4.963781 
1.2785971e+2, 1.2151753e+2, -1710219.0, -1746990.8, -143.4476, 0.011555652, -0.011915554, -1710218.4, 38903.797, 0.0, 5.0143876, 4.9904222 
1.2785839e+2, 1.26505e+2, -1668320.0, -1712457.6, 14.016038, -0.00080396474, 0.0030706571, -1668320.0, 31923.951, 0.0, 5.014397, 4.9856744 
1.2785834e+2, 1.3148999e+2, -1619381.3, -1663493.4, -123.35273, -0.0007278644, -0.0046217022, -1619380.9, 32011.896, 0.0, 5.0143795, 4.985672 
1.2785828e+2, 1.3647494e+2, -1572652.0, -1619068.1, -260.6488, -0.00061149546, -0.01104043, -1572650.5, 29891.514, 0.0, 5.014361, 4.9841657 
1.2785825e+2, 1.414574e+2, -1530163.1, -1583399.0, -183.03415, -0.0011818986, -0.0007562069, -1530162.5, 23552.69, 0.0, 5.014339, 4.979682 
1.2785824e+2, 1.4643754e+2, -1480890.5, -1533766.4, -165.16182, -0.003133754, -0.0004870408, -1480890.0, 24020.492, 0.0, 5.0143113, 4.9798846 
1.278582e+2, 1.5141766e+2, -1431917.0, -1484751.8, -159.46179, -0.0051269406, -0.00088377355, -1431916.5, 24189.63, 0.0, 5.014283, 4.979884 
1.2785818e+2, 1.5639776e+2, -1384372.0, -1438714.3, -154.04582, -0.007115756, -0.00082571467, -1384371.6, 22930.283, 0.0, 5.0142546, 4.9788885 
1.2785822e+2, 1.61374e+2, -1343898.1, -1407476.0, -262.3342, -0.00787893, 0.0045104465, -1343897.1, 14638.537, 0.0, 5.014225, 4.972941 
1.2785839e+2, 1.663471e+2, -1294835.4, -1358318.3, -361.6906, -0.0060578566, 0.0035292776, -1294833.4, 14967.258, 0.0, 5.014191, 4.972967 
1.2785855e+2, 1.7132024e+2, -1245808.6, -1309238.6, -406.6528, -0.0041368036, 0.0026298326, -1245806.0, 15259.283, 0.0, 5.0141573, 4.972967 
1.278587e+2, 1.7629339e+2, -1197918.3, -1262563.4, -451.94168, -0.0021970186, 0.0021245356, -1197915.1, 14415.01, 0.0, 5.014123, 4.9721603 
1.2785876e+2, 1.812629e+2, -1157443.0, -1231738.4, -492.91644, -0.001295129, 0.008864995, -1157439.8, 6189.9478, 0.0, 5.014109, 4.9659843 
1.2785852e+2, 1.8622905e+2, -1107841.5, -1181850.5, -494.18475, -0.0030993652, 0.006047192, -1107838.3, 7122.903, 0.0, 5.0141454, 4.9662 
1.2785825e+2, 1.911952e+2, -1058533.5, -1132600.6, -479.197, -0.0050216448, 0.0029284805, -1058530.4, 7762.123, 0.0, 5.0141835, 4.9662004 
1.2785798e+2, 1.9616136e+2, -1010118.3, -1085268.6, -465.21658, -0.006921224, 0.00011254934, -1010115.44, 7508.3525, 0.0, 5.0142217, 4.965551 
1.2785774e+2, 2.0112403e+2, -969865.56, -1055413.0, -751.9583, -0.0071380003, 0.005535068, -969859.0, -869.94183, 0.0, 5.014232, 4.9589496 
1.2785766e+2, 2.0608343e+2, -920489.6, -1005496.8, -886.4972, -0.0025177645, 0.0050081094, -920480.4, -94.8925, 0.0, 5.0141487, 4.959208 
1.2785757e+2, 2.1104287e+2, -871481.9, -956344.75, -916.0131, 0.0024253486, 0.004246353, -871471.94, 309.6728, 0.0, 5.0140586, 4.9592104 
1.2785748e+2, 2.1600229e+2, -823138.5, -908647.06, -945.83936, 0.007394117, 0.0035903652, -823128.06, 49.748913, 0.0, 5.0139675, 4.9587135 
1.2785701e+2, 2.209579e+2, -783767.75, -880821.94, -1007.05133, 0.0088015525, 0.010007733, -783757.3, -9145.376, 0.0, 5.0139213, 4.951357 
1.278554e+2, 2.259091e+2, -733979.7, -830806.0, -987.2557, -0.00024210931, 0.0032587475, -733969.6, -7878.293, 0.0, 5.013985, 4.9515505 
1.2785372e+2, 2.3086025e+2, -684426.9, -781355.94, -939.1135, -0.009961185, -0.004251691, -684417.8, -6846.5, 0.0, 5.014055, 4.951554 
1.2785204e+2, 2.3581138e+2, -635525.44, -733356.5, -894.8683, -0.019656718, -0.011902475, -635517.25, -6465.868, 0.0, 5.0141234, 4.951056 
1.2785067e+2, 2.4075936e+2, -595194.0, -704515.7, -884.0645, -0.02631483, -0.005657787, -595186.9, -14625.946, 0.0, 5.0142097, 4.943884 
1.2785026e+2, 2.4570432e+2, -543994.1, -652661.06, -866.43585, -0.021952258, -0.0042674374, -543987.2, -11893.428, 0.0, 5.0145197, 4.9445753 
1.2784998e+2, 2.506493e+2, -493586.8, -602787.1, -727.13635, -0.016616087, -0.0042384993, -493581.97, -9955.805, 0.0, 5.01486, 4.9445806 
1.2784971e+2, 2.5559437e+2, -443435.88, -553488.3, -578.31256, -0.011278611, -0.0033854465, -443432.8, -8275.093, 0.0, 5.015196, 4.9443874 
1.2784813e+2, 2.6053458e+2, -406706.34, -534802.94, -124.13737, -0.01972812, 0.009716873, -406706.22, -19962.887, 0.0, 5.0156007, 4.933295 
1.2784345e+2, 2.6547065e+2, -354514.1, -481060.63, -192.299, -0.056582812, 0.0092949355, -354513.8, -16120.188, 0.0, 5.0158916, 4.93435 
1.2783901e+2, 2.7040702e+2, -303582.88, -430537.28, -593.32086, -0.09207912, 0.0028762203, -303580.1, -13536.241, 0.0, 5.0161223, 4.934545 
1.2783495e+2, 2.7534315e+2, -252628.7, -380250.03, -1179.3846, -0.12571748, -0.010228061, -252617.8, -10921.575, 0.0, 5.016331, 4.9346924 
1.278278e+2, 2.802791e+2, -220259.05, -378099.34, -6240.6196, -0.16449612, 0.08361788, -220012.69, -26669.787, 0.0, 5.017911, 4.917859 
1.2782663e+2, 2.8520945e+2, -156847.64, -292408.9, -2149.3633, -0.13306677, 0.11716588, -156813.56, -11805.419, 0.0, 5.01781, 4.9304705 
1.2782991e+2, 2.901351e+2, -111700.28, -244264.67, -1868.0757, -0.07703417, 0.054345973, -111673.96, -14959.126, 0.0, 5.0162516, 4.9305625 
1.2783355e+2, 2.9506013e+2, -66467.445, -196153.27, -1766.5966, -0.019904153, -0.017166952, -66443.39, -18016.123, 0.0, 5.014648, 4.9306545 
1.278367e+2, 3.000003e+2, -13587.511, -97841.34, -2723.7295, 0.026571695, -0.065025374, -13499.551, -13498.968, 0.0, 5.013218, 4.957796 
1.2783945e+2, 3.0497533e+2, -11638.552, -86933.05, -5002.741, 0.050916195, 0.027325068, -11307.612, -11307.612, 0.0, 5.0121446, 4.961268 
1.2784359e+2, 3.099579e+2, -13798.824, -85886.74, -6497.8037, 0.083757766, 0.16299419, -13217.8125, -13217.8125, 0.0, 5.0109773, 4.9620337 
1.2784876e+2, 3.1494272e+2, -15821.755, -84980.17, -8047.907, 0.12319875, 0.31412768, -14897.576, -14897.576, 0.0, 5.0097556, 4.9628 
1.3287425e+2, 1.2151791e+2, -1709585.4, -1745711.6, 22.682142, 0.012961165, -0.009975778, -1709585.3, 39534.47, 0.0, 5.014389, 4.990842 
1.3287254e+2, 1.2650563e+2, -1668573.5, -1712984.5, -3.9894893, -0.0034201867, 0.008577793, -1668573.5, 31664.828, 0.0, 5.0143986, 4.985501 
1.3287257e+2, 1.3149019e+2, -1619633.5, -1664018.3, -139.17905, -0.0021992226, -0.0015799099, -1619633.1, 31758.242, 0.0, 5.01438, 4.985499 
1.3287261e+2, 1.3647471e+2, -1572903.0, -1619591.3, -274.29144, -0.0009603299, -0.010461861, -1572901.4, 29643.148, 0.0, 5.0143614, 4.9839926 
1.3287266e+2, 1.4145687e+2, -1530209.9, -1583494.5, -204.69301, -0.0006719313, -0.0019973877, -1530209.1, 23511.46, 0.0, 5.014339, 4.9796505 
1.3287264e+2, 1.4643696e+2, -1480879.4, -1533741.8, -186.65758, -0.002238769, -0.0024551945, -1480878.8, 24037.303, 0.0, 5.014311, 4.9798927 
1.3287263e+2, 1.5141702e+2, -1431905.6, -1484727.1, -180.1792, -0.0038652178, -0.0035696286, -1431905.0, 24206.814, 0.0, 5.0142827, 4.979892 
1.328726e+2, 1.5639706e+2, -1384360.4, -1438689.6, -173.9802, -0.0054940493, -0.0042329235, -1384359.9, 22947.84, 0.0, 5.0142546, 4.978896 
1.3287266e+2, 1.613733e+2, -1343957.6, -1407599.4, -287.88092, -0.006017729, 0.0012232473, -1343956.4, 14584.949, 0.0, 5.014225, 4.9729 
1.3287278e+2, 1.6634656e+2, -1294915.3, -1358485.1, -387.93994, -0.004178206, 0.002258934, -1294912.9, 14892.415, 0.0, 5.014191, 4.9729114 
1.328729e+2, 1.7131984e+2, -1245887.8, -1309405.3, -431.85535, -0.002257148, 0.0034434404, -1245884.9, 15184.28, 0.0, 5.0141573, 4.9729114 
1.3287301e+2, 1.7629312e+2, -1197996.6, -1262729.5, -476.09274, -0.00033147068, 0.005018568, -1197993.1, 14339.819, 0.0, 5.014123, 4.972104 
1.3287304e+2, 1.8126269e+2, -1157446.9, -1231744.6, -479.77267, 0.0004361869, 0.012433579, -1157443.8, 6188.713, 0.0, 5.014109, 4.9659824 
1.3287279e+2, 1.8622856e+2, -1107812.4, -1181789.0, -464.26007, -0.0017518926, 0.0067110974, -1107809.5, 7156.4165, 0.0, 5.0141454, 4.9662204 
1.3287252e+2, 1.9119443e+2, -1058503.4, -1132540.6, -447.08014, -0.004088888, 0.00049993047, -1058500.8, 7798.581, 0.0, 5.014184, 4.966221 
1.3287227e+2, 1.9616029e+2, -1010087.3, -1085210.0, -430.911, -0.006425588, -0.005420438, -1010084.9, 7547.785, 0.0, 5.0142226, 4.9655704 
1.32872e+2, 2.0112287e+2, -969909.8, -1055508.1, -793.67883, -0.0071074297, -0.0009227467, -969902.44, -903.81616, 0.0, 5.0142317, 4.9589176 
1.3287176e+2, 2.060827e+2, -920542.0, -1005608.6, -956.31793, -0.0029490232, 0.003233638, -920531.25, -139.24915, 0.0, 5.0141487, 4.9591694 
1.3287154e+2, 2.1104258e+2, -871532.1, -956454.75, -982.19745, 0.0015134577, 0.007412387, -871520.75, 264.14832, 0.0, 5.0140586, 4.9591722 
1.3287133e+2, 2.1600248e+2, -823186.7, -908755.4, -1008.3789, 0.005978591, 0.011669385, -823174.8, 3.0388389, 0.0, 5.0139685, 4.958676 
1.328708e+2, 2.209583e+2, -783744.2, -880759.0, -1000.18866, 0.0073636863, 0.020471675, -783733.9, -9123.4375, 0.0, 5.01392, 4.9513783 
1.3286936e+2, 2.2590892e+2, -733890.56, -830606.75, -927.4547, -0.0005915684, 0.0071471496, -733881.6, -7787.3374, 0.0, 5.0139847, 4.9516172 
1.3286787e+2, 2.308594e+2, -684332.75, -781162.4, -871.08795, -0.009230975, -0.007714609, -684324.9, -6745.6133, 0.0, 5.0140567, 4.9516187 
1.3286638e+2, 2.3580989e+2, -635426.25, -733168.6, -818.6225, -0.017890444, -0.022721091, -635419.4, -6354.9897, 0.0, 5.0141277, 4.951119 
1.3286525e+2, 2.4075757e+2, -595066.8, -704347.1, -705.86646, -0.023472968, -0.019836664, -595062.25, -14486.464, 0.0, 5.014225, 4.943938 
1.328652e+2, 2.457036e+2, -543779.56, -652298.6, -617.122, -0.018575562, -0.008933683, -543776.06, -11676.99, 0.0, 5.014536, 4.9446955 
1.3286527e+2, 2.5064975e+2, -493384.1, -602409.44, -465.17307, -0.012925144, 0.0014906883, -493382.1, -9761.156, 0.0, 5.014872, 4.944707 
1.3286534e+2, 2.5559598e+2, -443244.94, -553095.44, -303.7116, -0.007364968, 0.012645266, -443244.1, -8102.101, 0.0, 5.0152025, 4.94452 
1.3286412e+2, 2.6053676e+2, -406422.34, -534229.94, 250.02527, -0.01597757, 0.029985975, -406421.84, -19701.176, 0.0, 5.0156126, 4.9334836 
1.3285983e+2, 2.654707e+2, -354129.06, -481064.47, 518.20337, -0.056878906, 0.0067157033, -354126.94, -15743.084, 0.0, 5.0160108, 4.9343085 
1.3285573e+2, 2.704043e+2, -302908.28, -430802.06, 325.7496, -0.09832015, -0.026978038, -302907.47, -12855.491, 0.0, 5.016363, 4.9343886 
1.3285197e+2, 2.7533746e+2, -251664.88, -380775.84, -51.76616, -0.139161, -0.06857981, -251664.84, -9940.328, 0.0, 5.016694, 4.934421 
1.328448e+2, 2.8027087e+2, -221257.2, -379825.28, -6383.5093, -0.18636131, 0.0044899406, -221000.64, -27612.768, 0.0, 5.0178394, 4.917217 
1.3284254e+2, 2.8520226e+2, -158480.98, -292868.5, -3553.6067, -0.15315783, 0.051071405, -158387.1, -13348.123, 0.0, 5.017371, 4.930305 
1.3284463e+2, 2.9012936e+2, -113204.57, -245043.42, -3065.0605, -0.093588516, 0.004310161, -113133.35, -16405.707, 0.0, 5.015873, 4.9302926 
1.3284701e+2, 2.9505578e+2, -67841.63, -197250.58, -2756.358, -0.03436245, -0.050969496, -67782.945, -19360.139, 0.0, 5.01433, 4.9302807 
1.3284893e+2, 2.9999676e+2, -14984.472, -99942.25, -3249.778, 0.011808823, -0.08799968, -14860.344, -14860.344, 0.0, 5.012995, 4.9570565 
1.3285035e+2, 3.0496833e+2, -13096.504, -90285.81, -4969.5156, 0.030644469, -0.019715155, -12777.878, -12777.878, 0.0, 5.0120792, 4.9600167 
1.3285297e+2, 3.099463e+2, -14686.76, -88717.875, -6016.3896, 0.054187547, 0.0810325, -14201.005, -14201.005, 0.0, 5.011052, 4.960873 
1.3285647e+2, 3.149263e+2, -16138.549, -87290.17, -7117.802, 0.08079794, 0.19222352, -15433.491, -15433.491, 0.0, 5.0099707, 4.96173 
1.378888e+2, 1.2151827e+2, -1709021.4, -1744395.4, 140.90224, 0.014466254, -0.008144282, -1709020.8, 40096.793, 0.0, 5.014353, 4.991292 
1.3788669e+2, 1.2650625e+2, -1668887.9, -1713537.9, -64.29604, -0.006003345, 0.01412235, -1668887.8, 31345.076, 0.0, 5.0143795, 4.985328 
1.378868e+2, 1.3149038e+2, -1619919.3, -1664556.1, -181.24596, -0.0036512641, 0.0014931711, -1619918.5, 31471.318, 0.0, 5.01437, 4.9853263 
1.3788693e+2, 1.364745e+2, -1573180.0, -1620123.6, -295.71222, -0.0012969717, -0.009862122, -1573178.1, 29368.93, 0.0, 5.0143533, 4.9838204 
1.3788705e+2, 1.4145638e+2, -1530293.6, -1583615.1, -220.77165, -0.00015459252, -0.0032050342, -1530292.8, 23433.078, 0.0, 5.014328, 4.9796157 
1.3788705e+2, 1.464364e+2, -1480902.4, -1533733.8, -203.50073, -0.0013352874, -0.0043986337, -1480901.6, 24019.879, 0.0, 5.0142994, 4.9799004 
1.3788703e+2, 1.5141638e+2, -1431933.8, -1484721.8, -198.8495, -0.0025919036, -0.006246201, -1431933.0, 24184.426, 0.0, 5.0142694, 4.9799 
1.3788702e+2, 1.5639634e+2, -1384397.6, -1438688.6, -194.53703, -0.0038562138, -0.0076455013, -1384397.0, 22916.52, 0.0, 5.0142384, 4.9789042 
1.3788706e+2, 1.613726e+2, -1344070.0, -1407755.0, -314.57483, -0.004140428, -0.0020363133, -1344068.4, 14478.481, 0.0, 5.014209, 4.9728556 
1.3788716e+2, 1.6634601e+2, -1295020.4, -1358663.6, -412.49527, -0.0022852544, 0.001009491, -1295017.6, 14792.384, 0.0, 5.0141826, 4.972855 
1.3788724e+2, 1.7131944e+2, -1245976.4, -1309575.8, -453.4792, -0.00036408327, 0.0042575086, -1245973.1, 15099.84, 0.0, 5.014154, 4.9728556 
1.3788733e+2, 1.7629288e+2, -1198077.0, -1262896.1, -495.26355, 0.001550598, 0.007893637, -1198073.3, 14262.546, 0.0, 5.0141225, 4.9720483 
1.3788733e+2, 1.8126245e+2, -1157462.0, -1231768.5, -459.5922, 0.0021634467, 0.016027391, -1157459.1, 6176.1, 0.0, 5.0141077, 4.965975 
1.3788709e+2, 1.8622805e+2, -1107803.8, -1181735.8, -423.8939, -0.0003998448, 0.0073830388, -1107801.3, 7169.3076, 0.0, 5.0141387, 4.966241 
1.378868e+2, 1.9119364e+2, -1058524.6, -1132502.9, -400.8975, -0.0031306099, -0.0019571998, -1058522.5, 7783.609, 0.0, 5.0141673, 4.966241 
1.3788655e+2, 1.9615923e+2, -1010151.6, -1085193.6, -377.76532, -0.0058778804, -0.011015035, -1010149.7, 7491.825, 0.0, 5.0141907, 4.9655905 
1.3788624e+2, 2.011217e+2, -970099.6, -1055700.0, -813.4256, -0.007028561, -0.0072882297, -970091.9, -1083.7378, 0.0, 5.014188, 4.9588723 
1.3788588e+2, 2.0608197e+2, -920711.8, -1005777.0, -1008.2928, -0.0033375958, 0.0015276846, -920699.9, -301.39798, 0.0, 5.014108, 4.9591293 
1.3788553e+2, 2.1104231e+2, -871703.8, -956623.75, -1042.3368, 0.00065035635, 0.010556234, -871691.0, 97.16145, 0.0, 5.0140176, 4.959132 
1.3788517e+2, 2.1600266e+2, -823378.75, -908933.3, -1080.8999, 0.00462512, 0.019647172, -823365.1, -187.17438, 0.0, 5.01392, 4.958636 
1.3788459e+2, 2.2095871e+2, -783928.06, -880861.1, -1010.9666, 0.005966503, 0.031061457, -783917.5, -9308.537, 0.0, 5.0138607, 4.951369 
1.3788332e+2, 2.2590874e+2, -733973.8, -830479.3, -852.2843, -0.0009115431, 0.011092523, -733966.3, -7868.9834, 0.0, 5.0139236, 4.9516854 
1.3788204e+2, 2.3085856e+2, -684442.56, -781052.94, -755.08813, -0.0084606875, -0.011330598, -684436.7, -6849.3203, 0.0, 5.0139866, 4.9516854 
1.3788074e+2, 2.3580839e+2, -635587.94, -733088.3, -658.23193, -0.016062219, -0.03389521, -635583.5, -6505.969, 0.0, 5.01404, 4.9511833 
1.3787985e+2, 2.4075581e+2, -595329.75, -704431.4, -394.91306, -0.020519927, -0.033719007, -595328.3, -14738.054, 0.0, 5.0141244, 4.9439535 
1.3788016e+2, 2.4570292e+2, -543901.94, -652071.56, -241.98761, -0.015112147, -0.01312978, -543901.44, -11797.607, 0.0, 5.0144396, 4.944814 
1.3788056e+2, 2.5065023e+2, -493485.25, -602156.75, -89.36883, -0.0091664735, 0.0074467403, -493485.2, -9869.945, 0.0, 5.0147834, 4.9448304 
1.37881e+2, 2.5559762e+2, -443310.03, -552810.06, 52.368027, -0.003372997, 0.028700313, -443310.0, -8184.1484, 0.0, 5.0151277, 4.9446483 
1.3788006e+2, 2.6053885e+2, -406882.72, -534628.7, 861.9314, -0.012975317, 0.050271466, -406876.9, -20177.4, 0.0, 5.0155096, 4.9333596 
1.3787633e+2, 2.6547042e+2, -355202.88, -481433.7, 2276.4612, -0.056878887, 0.0005450744, -355161.84, -16784.61, 0.0, 5.0156064, 4.9342957 
1.3787286e+2, 2.7040124e+2, -305650.47, -432188.44, 3371.4885, -0.10215963, -0.06459029, -305560.7, -15497.147, 0.0, 5.015379, 4.934292 
1.378697e+2, 2.7533144e+2, -256818.02, -383493.03, 4606.4307, -0.14774583, -0.13856594, -256650.73, -14894.708, 0.0, 5.014861, 4.9342413 
1.3786195e+2, 2.8026325e+2, -232080.47, -389252.3, -2270.486, -0.20502295, -0.072124004, -232047.69, -38620.45, 0.0, 5.0149217, 4.9151154 
1.3785805e+2, 2.851961e+2, -164934.11, -295720.3, -891.49475, -0.17288698, -0.0025212213, -164928.03, -19868.393, 0.0, 5.0152683, 4.9299927 
1.37859e+2, 2.9012442e+2, -116727.55, -246888.27, -1422.1149, -0.10958373, -0.037187148, -116712.01, -19979.18, 0.0, 5.014835, 4.929901 
1.3786027e+2, 2.9505202e+2, -69349.2, -198493.61, -1895.1472, -0.047674786, -0.08023499, -69321.4, -20908.318, 0.0, 5.0140314, 4.92981 
1.378609e+2, 2.9999307e+2, -16362.774, -103287.99, -2726.6602, -0.0029698564, -0.11130645, -16277.329, -16277.329, 0.0, 5.013094, 4.9556985 
1.3786083e+2, 3.049605e+2, -14748.597, -93458.88, -4092.7305, 0.0064226417, -0.076207004, -14536.357, -14536.357, 0.0, 5.0119987, 4.958733 
1.3786197e+2, 3.0993357e+2, -18213.72, -92426.64, -4929.2627, 0.018180497, -0.019969309, -17887.748, -17887.748, 0.0, 5.0102344, 4.9596744 
1.3786389e+2, 3.1490842e+2, -22943.65, -92134.445, -6105.668, 0.030192092, 0.042863376, -22408.994, -22408.994, 0.0, 5.007905, 4.9606147 
1.4290312e+2, 1.21518284e+2, -1709030.8, -1744447.3, -346.2133, 0.014130028, -0.0039970134, -1709027.4, 40090.434, 0.0, 5.014361, 4.991271 
1.4290111e+2, 1.2650543e+2, -1668763.9, -1713431.0, -638.7538, -0.005697206, 0.009923727, -1668754.8, 31486.133, 0.0, 5.014412, 4.985348 
1.4290124e+2, 1.314898e+2, -1619735.0, -1664417.3, -518.1053, -0.0033241105, -0.00078019494, -1619729.0, 31666.658, 0.0, 5.0144215, 4.9853473 
1.4290136e+2, 1.3647412e+2, -1572916.5, -1619943.1, -397.56488, -0.00089006126, -0.010253219, -1572913.1, 29637.525, 0.0, 5.0144305, 4.9838424 
1.4290148e+2, 1.414561e+2, -1530018.8, -1583499.9, -186.21478, 0.0005012064, -0.0025061578, -1530018.1, 23709.979, 0.0, 5.014424, 4.9796066 
1.429015e+2, 1.4643605e+2, -1480676.8, -1533659.9, -197.52238, -0.00013375982, -0.004270007, -1480676.0, 24248.453, 0.0, 5.0143824, 4.979884 
1.4290151e+2, 1.5141596e+2, -1431747.3, -1484666.9, -225.49184, -0.0008207602, -0.0067368136, -1431746.3, 24374.857, 0.0, 5.01434, 4.9798837 
1.4290152e+2, 1.5639585e+2, -1384246.0, -1438650.6, -253.70013, -0.001503135, -0.008745367, -1384244.9, 23073.043, 0.0, 5.014297, 4.978888 
1.4290155e+2, 1.6137205e+2, -1343912.3, -1407747.8, -359.71832, -0.0015812496, -0.003331209, -1343910.3, 14641.467, 0.0, 5.0142765, 4.9728255 
1.429016e+2, 1.663455e+2, -1294714.6, -1358598.0, -428.53104, -0.0003063561, 0.00047835958, -1294711.8, 15102.867, 0.0, 5.0143037, 4.9728193 
1.4290163e+2, 1.7131898e+2, -1245503.5, -1309430.6, -447.26227, 0.0010371377, 0.0045428006, -1245500.4, 15576.776, 0.0, 5.0143323, 4.9728193 
1.4290166e+2, 1.7629246e+2, -1197429.9, -1262668.8, -466.1776, 0.002401819, 0.009008536, -1197426.5, 14913.239, 0.0, 5.0143604, 4.972012 
1.4290161e+2, 1.8126206e+2, -1156708.1, -1231392.8, -421.1297, 0.0026606452, 0.017358571, -1156705.8, 6933.3364, 0.0, 5.014361, 4.965982 
1.4290136e+2, 1.8622756e+2, -1107344.1, -1181460.9, -397.31406, 0.00032242728, 0.007453417, -1107342.0, 7633.178, 0.0, 5.014284, 4.9662657 
1.429011e+2, 1.9119304e+2, -1058385.1, -1132374.0, -385.02676, -0.0020926904, -0.0031700335, -1058383.1, 7928.1675, 0.0, 5.014203, 4.966267 
1.4290084e+2, 1.9615853e+2, -1010316.94, -1085202.6, -373.3745, -0.004469956, -0.013469148, -1010315.06, 7332.34, 0.0, 5.0141215, 4.9656186 
1.4290051e+2, 2.0112097e+2, -970534.5, -1055972.4, -815.1929, -0.0054271906, -0.010132973, -970526.75, -1512.4213, 0.0, 5.0140514, 4.9588423 
1.4290003e+2, 2.0608139e+2, -921147.06, -1006114.8, -1029.3975, -0.002099052, 0.0005827908, -921134.56, -730.53235, 0.0, 5.013984, 4.9590716 
1.4289957e+2, 2.1104188e+2, -872081.0, -956940.2, -1075.395, 0.0015622635, 0.011770579, -872067.4, -274.34152, 0.0, 5.0139146, 4.959072 
1.428991e+2, 2.1600239e+2, -823680.3, -909219.9, -1121.8966, 0.0052799685, 0.023152651, -823665.6, -483.61877, 0.0, 5.013845, 4.958573 
1.4289844e+2, 2.2095855e+2, -784029.0, -880720.0, -969.25525, 0.006555234, 0.03570414, -784019.3, -9406.856, 0.0, 5.0137863, 4.951452 
1.4289723e+2, 2.2590835e+2, -734304.94, -830213.25, -714.96747, 0.00013970221, 0.012021688, -734299.56, -8198.184, 0.0, 5.0137243, 4.9518666 
1.42896e+2, 2.3085797e+2, -685136.44, -780935.4, -556.6148, -0.0068009226, -0.0144800795, -685133.2, -7541.1123, 0.0, 5.0136595, 4.9518723 
1.4289477e+2, 2.3580757e+2, -636617.5, -733104.9, -401.36157, -0.013689836, -0.04104017, -636615.9, -7533.016, 0.0, 5.013594, 4.9513764 
1.42894e+2, 2.4075502e+2, -596925.3, -704896.0, 48.721195, -0.017451352, -0.04250622, -596925.3, -16330.34, 0.0, 5.013534, 4.9440455 
1.4289458e+2, 2.4570289e+2, -545969.7, -652893.5, 149.9693, -0.011699813, -0.014868638, -545969.44, -13866.323, 0.0, 5.0137124, 4.944839 
1.428953e+2, 2.5065106e+2, -495914.13, -603195.1, 148.08482, -0.0051674005, 0.013962981, -495913.94, -12305.408, 0.0, 5.0139318, 4.9448376 
1.4289607e+2, 2.5559932e+2, -446113.03, -554068.56, 147.95732, 0.0015111474, 0.04387677, -446112.84, -10999.966, 0.0, 5.0141473, 4.9446383 
1.4289564e+2, 2.6054117e+2, -409289.84, -534006.0, 915.0132, -0.005186815, 0.06989061, -409283.13, -22602.6, 0.0, 5.0143642, 4.9340615 
1.4289324e+2, 2.654721e+2, -357353.28, -478257.25, 1959.4851, -0.037937, -0.0004662268, -357321.53, -18965.275, 0.0, 5.014221, 4.9359136 
1.4289135e+2, 2.7040255e+2, -307615.56, -427901.6, 2251.9045, -0.06798096, -0.08747658, -307573.44, -17537.035, 0.0, 5.0140076, 4.936218 
1.428899e+2, 2.7533302e+2, -257859.47, -377763.34, 2375.184, -0.094860576, -0.18075068, -257812.44, -16095.331, 0.0, 5.013773, 4.936475 
1.4288358e+2, 2.8026524e+2, -229535.02, -387772.3, -3199.3591, -0.13877355, -0.1287399, -229470.34, -36093.867, 0.0, 5.0157633, 4.9154196 
1.4287812e+2, 2.851983e+2, -161334.7, -299401.6, -171.52426, -0.12748538, -0.0422779, -161334.48, -16324.39, 0.0, 5.017231, 4.9283085 
1.428771e+2, 2.9012713e+2, -112682.06, -249519.98, -246.09117, -0.085227095, -0.05346629, -112681.62, -15998.63, 0.0, 5.0169344, 4.9284496 
1.4287655e+2, 2.9505542e+2, -63967.38, -199697.3, -522.96545, -0.04068467, -0.07334447, -63965.363, -15604.213, 0.0, 5.016585, 4.928591 
1.428756e+2, 2.9999706e+2, -8131.5015, -100359.37, -1246.121, -0.009233408, -0.08743118, -8114.668, -8114.668, 0.0, 5.0163393, 4.955588 
1.4287455e+2, 3.0496082e+2, -3035.348, -88372.37, -3289.4146, -0.005259538, -0.07927671, -2908.7415, -2908.7415, 0.0, 5.0165687, 4.9589252 
1.4287508e+2, 3.0993012e+2, -1058.3016, -84818.44, -4605.598, 0.0076090884, -0.048376266, -805.8213, -805.8213, 0.0, 5.016802, 4.960011 
1.428767e+2, 3.1490237e+2, 1151.3002, -81497.34, -5895.461, 0.02670535, 0.0008392852, 1569.7147, 1569.7147, 0.0, 5.0169783, 4.9610977 
1.4791727e+2, 1.2151807e+2, -1709561.5, -1745534.3, -56.54148, 0.011786997, 0.0021852604, -1709561.4, 39558.29, 0.0, 5.014362, 4.9909143 
1.4791574e+2, 1.2650357e+2, -1668515.6, -1712930.8, -635.75104, -0.003477147, -0.0013589556, -1668506.5, 31752.43, 0.0, 5.0144124, 4.9855127 
1.4791581e+2, 1.314886e+2, -1619489.4, -1663919.5, -513.1995, -0.0017586391, -0.0070113656, -1619483.4, 31923.455, 0.0, 5.014422, 4.985512 
1.479159e+2, 1.3647358e+2, -1572673.4, -1619447.8, -390.75778, -0.000008639433, -0.011425458, -1572670.0, 29884.988, 0.0, 5.014431, 4.984007 
1.4791597e+2, 1.4145601e+2, -1530005.1, -1583470.9, -211.75931, 0.0011069354, -0.0004006784, -1530004.3, 23723.914, 0.0, 5.014424, 4.9796166 
1.47916e+2, 1.4643589e+2, -1480726.1, -1533761.1, -230.49017, 0.0011356224, -0.0025689583, -1480725.1, 24200.398, 0.0, 5.0143824, 4.979851 
1.4791605e+2, 1.514157e+2, -1431796.1, -1484767.6, -257.7922, 0.0011395123, -0.0055515994, -1431794.9, 24328.47, 0.0, 5.01434, 4.9798503 
1.4791608e+2, 1.5639552e+2, -1384294.4, -1438751.0, -285.32626, 0.001141995, -0.008077142, -1384292.9, 23028.297, 0.0, 5.014297, 4.9788547 
1.4791612e+2, 1.6137165e+2, -1343942.8, -1407810.5, -350.9723, 0.0012294273, -0.0031283146, -1343940.9, 14615.08, 0.0, 5.0142765, 4.9728045 
1.479161e+2, 1.6634504e+2, -1294744.9, -1358661.0, -406.95966, 0.0015500692, 0.0004770688, -1294742.3, 15076.737, 0.0, 5.014303, 4.972799 
1.4791605e+2, 1.713185e+2, -1245533.3, -1309492.9, -424.72452, 0.0018898445, 0.004357883, -1245530.4, 15551.468, 0.0, 5.014332, 4.972799 
1.4791602e+2, 1.7629193e+2, -1197458.9, -1262730.3, -442.677, 0.0022393703, 0.008636485, -1197455.9, 14888.746, 0.0, 5.0143604, 4.9719915 
1.4791591e+2, 1.812615e+2, -1156683.9, -1231341.9, -459.3377, 0.0019613516, 0.016816247, -1156681.0, 6963.1445, 0.0, 5.014361, 4.9659996 
1.4791565e+2, 1.8622704e+2, -1107313.1, -1181399.0, -457.57642, 0.00034635098, 0.007080279, -1107310.3, 7669.5313, 0.0, 5.0142846, 4.9662867 
1.479154e+2, 1.9119255e+2, -1058352.9, -1132312.3, -443.50342, -0.0012987093, -0.0033420362, -1058350.3, 7965.2856, 0.0, 5.0142035, 4.9662886 
1.4791512e+2, 1.9615807e+2, -1010283.5, -1085140.8, -430.05652, -0.0029265548, -0.013452918, -1010281.0, 7370.2295, 0.0, 5.0141225, 4.9656396 
1.4791478e+2, 2.0112053e+2, -970555.75, -1056014.6, -865.2171, -0.0033645486, -0.010201272, -970547.0, -1528.8114, 0.0, 5.014051, 4.9588284 
1.4791422e+2, 2.0608087e+2, -921221.2, -1006269.3, -1082.2196, -0.00022391416, 0.000381924, -921207.4, -798.3175, 0.0, 5.0139832, 4.9590197 
1.4791365e+2, 2.1104132e+2, -872153.1, -957093.5, -1125.8768, 0.0031780808, 0.011483382, -872138.25, -338.94366, 0.0, 5.013914, 4.95902 
1.4791308e+2, 2.1600175e+2, -823750.5, -909372.1, -1170.0323, 0.0066128233, 0.022759175, -823734.5, -545.05975, 0.0, 5.0138445, 4.9585214 
1.4791234e+2, 2.2095789e+2, -783838.8, -880300.94, -1011.6021, 0.0076423874, 0.034951493, -783828.2, -9208.062, 0.0, 5.013786, 4.951596 
1.479111e+2, 2.2590783e+2, -734008.44, -829575.44, -752.7759, 0.0014838998, 0.010576095, -734002.5, -7896.1064, 0.0, 5.0137258, 4.9520874 
1.4790985e+2, 2.3085758e+2, -684834.56, -780300.3, -588.3343, -0.0051639276, -0.016633924, -684830.94, -7236.6714, 0.0, 5.013664, 4.952092 
1.479086e+2, 2.3580733e+2, -636310.2, -732472.44, -426.98483, -0.01180181, -0.04394365, -636308.3, -7226.0977, 0.0, 5.013601, 4.951595 
1.4790781e+2, 2.407549e+2, -596733.5, -704613.6, 114.103165, -0.015546607, -0.045863423, -596733.4, -16140.872, 0.0, 5.013553, 4.944138 
1.4790851e+2, 2.457032e+2, -545942.5, -653021.25, 292.22482, -0.010152851, -0.013844068, -545941.75, -13841.974, 0.0, 5.013737, 4.9447885 
1.4790936e+2, 2.5065184e+2, -495887.25, -603317.56, 297.41696, -0.0040341048, 0.020154154, -495886.4, -12282.36, 0.0, 5.013956, 4.9447885 
1.479103e+2, 2.5560057e+2, -446086.4, -554185.9, 304.36047, 0.0021593021, 0.05513857, -446085.53, -10978.159, 0.0, 5.014171, 4.9445906 
1.4791025e+2, 2.605429e+2, -408320.78, -532217.5, 1024.7639, -0.002541563, 0.084494635, -408312.3, -21641.11, 0.0, 5.0144143, 4.934689 
1.479092e+2, 2.654736e+2, -355539.53, -475413.84, 2234.6196, -0.025507962, 0.0043037906, -355497.88, -17157.725, 0.0, 5.014381, 4.9369197 
1.479087e+2, 2.704035e+2, -305552.56, -425311.38, 2712.9155, -0.04625044, -0.09587629, -305491.16, -15475.113, 0.0, 5.014277, 4.9371185 
1.4790864e+2, 2.7533314e+2, -255547.5, -375426.06, 3022.32, -0.06510004, -0.20347473, -255471.34, -13776.719, 0.0, 5.0141525, 4.9372697 
1.4790398e+2, 2.8026417e+2, -227949.52, -382858.88, -2452.61, -0.102718584, -0.17686163, -227910.69, -34551.74, 0.0, 5.0156064, 4.9171267 
1.47898e+2, 2.8519887e+2, -163855.56, -300821.44, -743.6265, -0.09791612, -0.07658035, -163851.52, -18866.078, 0.0, 5.0166416, 4.92789 
1.4789566e+2, 2.901302e+2, -115034.99, -251261.27, -596.59686, -0.066671655, -0.0556711, -115032.38, -18387.818, 0.0, 5.016415, 4.927918 
1.4789373e+2, 2.9506087e+2, -66151.375, -201759.25, -652.1052, -0.0349677, -0.043377947, -66148.24, -17838.416, 0.0, 5.0161357, 4.927946 
1.4789146e+2, 3.0000478e+2, -9137.208, -100592.75, -1055.9701, -0.016713666, -0.030580882, -9125.017, -9125.017, 0.0, 5.0159874, 4.955585 
1.478896e+2, 3.0496478e+2, -4080.7397, -89457.57, -2316.7695, -0.02564413, -0.049974278, -4017.9185, -4017.9185, 0.0, 5.0163364, 4.9586687 
1.4788923e+2, 3.0992863e+2, -1574.5858, -85091.95, -3008.0347, -0.029427962, -0.06254264, -1466.386, -1466.386, 0.0, 5.0166626, 4.959939 
1.4788982e+2, 3.148952e+2, 1163.8322, -80959.72, -3672.5603, -0.03049955, -0.06212348, 1327.7416, 1327.7416, 0.0, 5.0169325, 4.9612103 
1.5293139e+2, 1.2151782e+2, -1710043.9, -1746521.3, 232.80772, 0.009345508, 0.008217663, -1710042.4, 39079.465, 0.0, 5.014363, 4.99059 
1.529304e+2, 1.2650172e+2, -1668268.0, -1712430.1, -632.69196, -0.0012612186, -0.012592102, -1668259.0, 32018.0, 0.0, 5.014413, 4.9856772 
1.5293041e+2, 1.3148741e+2, -1619244.4, -1663421.4, -508.23764, -0.00019206243, -0.0132151665, -1619238.5, 32179.535, 0.0, 5.014422, 4.9856763 
1.5293042e+2, 1.3647307e+2, -1572430.9, -1618951.8, -383.89478, 0.0008791221, -0.012592494, -1572427.6, 30131.742, 0.0, 5.014431, 4.9841714 
1.5293045e+2, 1.4145592e+2, -1529996.4, -1583451.5, -237.23761, 0.0017149306, 0.0017257595, -1529995.3, 23732.951, 0.0, 5.0144234, 4.979623 
1.5293053e+2, 1.4643571e+2, -1480775.6, -1533862.1, -263.4444, 0.00240492, -0.0008511856, -1480774.4, 24152.2, 0.0, 5.0143824, 4.9798174 
1.5293059e+2, 1.5141545e+2, -1431845.1, -1484868.3, -290.079, 0.0030988439, -0.004363331, -1431843.5, 24281.945, 0.0, 5.0143394, 4.979817 
1.5293065e+2, 1.5639517e+2, -1384342.9, -1438851.3, -316.9388, 0.0037853278, -0.0074195345, -1384341.1, 22983.418, 0.0, 5.014297, 4.9788213 
1.5293068e+2, 1.6137123e+2, -1343977.6, -1407882.0, -342.62277, 0.0040478013, -0.0029041087, -1343975.8, 14584.321, 0.0, 5.014276, 4.9727807 
1.5293057e+2, 1.663446e+2, -1294775.5, -1358723.8, -385.4728, 0.0034145704, 0.00049564365, -1294773.1, 15050.342, 0.0, 5.014303, 4.972778 
1.5293047e+2, 1.71318e+2, -1245563.1, -1309555.0, -402.2713, 0.0027477457, 0.0041776276, -1245560.6, 15525.902, 0.0, 5.014332, 4.972778 
1.5293036e+2, 1.7629139e+2, -1197488.3, -1262791.8, -419.26093, 0.002079235, 0.008253894, -1197485.5, 14864.005, 0.0, 5.0143604, 4.9719706 
1.529302e+2, 1.8126094e+2, -1156664.5, -1231301.0, -497.77078, 0.0012639771, 0.01629587, -1156661.1, 6987.928, 0.0, 5.014361, 4.9660134 
1.5292995e+2, 1.8622652e+2, -1107282.5, -1181337.0, -517.481, 0.00037556735, 0.006716285, -1107278.9, 7705.5234, 0.0, 5.014285, 4.966308 
1.529297e+2, 1.9119206e+2, -1058321.1, -1132250.1, -501.62234, -0.00049761846, -0.003536204, -1058317.8, 8002.052, 0.0, 5.0142045, 4.9663095 
1.5292941e+2, 1.9615762e+2, -1010250.44, -1085078.8, -486.38077, -0.0013742277, -0.013490163, -1010247.3, 7407.774, 0.0, 5.014124, 4.9656606 
1.5292905e+2, 2.011201e+2, -970591.6, -1056087.8, -918.1877, -0.0012956851, -0.010190446, -970581.75, -1559.7102, 0.0, 5.0140505, 4.9588037 
1.5292841e+2, 2.0608038e+2, -921295.75, -1006423.44, -1134.8112, 0.0016637365, 0.00027800404, -921280.6, -866.59106, 0.0, 5.0139823, 4.9589677 
1.5292774e+2, 2.1104074e+2, -872225.75, -957246.5, -1176.128, 0.004812177, 0.011245719, -872209.44, -404.01962, 0.0, 5.0139136, 4.958968 
1.5292707e+2, 2.1600111e+2, -823821.06, -909524.06, -1217.9374, 0.007969723, 0.022367818, -823803.75, -606.9601, 0.0, 5.0138445, 4.9584694 
1.5292624e+2, 2.2095723e+2, -783667.2, -879921.25, -1055.2655, 0.0087236315, 0.03424314, -783655.6, -9027.811, 0.0, 5.013785, 4.9517264 
1.5292497e+2, 2.259073e+2, -733713.25, -828936.9, -788.4762, 0.0028131932, 0.009101739, -733706.75, -7595.29, 0.0, 5.013727, 4.9523067 
1.5292369e+2, 2.308572e+2, -684534.0, -779664.5, -617.9461, -0.003541245, -0.018943503, -684530.0, -6933.444, 0.0, 5.0136676, 4.95231 
1.5292242e+2, 2.3580705e+2, -636004.2, -731839.25, -450.50092, -0.0099275075, -0.047129832, -636002.06, -6920.343, 0.0, 5.013607, 4.951812 
1.5292165e+2, 2.4075484e+2, -596584.4, -704414.25, 194.02017, -0.013604891, -0.048861627, -596584.0, -15994.307, 0.0, 5.013572, 4.9442005 
1.5292248e+2, 2.4570356e+2, -545922.1, -653142.4, 432.11234, -0.008567605, -0.012213247, -545920.4, -13824.564, 0.0, 5.013762, 4.944737 
1.5292348e+2, 2.5065267e+2, -495867.06, -603433.5, 444.38208, -0.0028978912, 0.02678083, -495865.22, -12266.105, 0.0, 5.0139804, 4.9447384 
1.5292452e+2, 2.5560182e+2, -446066.5, -554296.56, 458.3975, 0.0027750176, 0.066665106, -446064.53, -10962.998, 0.0, 5.0141945, 4.944542 
1.5292482e+2, 2.605444e+2, -407670.78, -531088.44, 1228.9498, -0.000999442, 0.09843516, -407658.53, -20994.676, 0.0, 5.0144644, 4.935063 
1.5292525e+2, 2.654747e+2, -353761.75, -472545.0, 2672.8318, -0.013802863, 0.0049730055, -353701.63, -15373.517, 0.0, 5.0145407, 4.937876 
1.5292639e+2, 2.704039e+2, -303525.16, -422694.84, 3336.8481, -0.024134604, -0.111897916, -303431.78, -13431.003, 0.0, 5.014547, 4.9379687 
1.5292794e+2, 2.753326e+2, -253270.72, -373061.66, 3832.2354, -0.033845257, -0.23734127, -253148.23, -11469.928, 0.0, 5.014532, 4.9380145 
1.5292418e+2, 2.8026325e+2, -228080.36, -381891.63, -2447.1584, -0.067871526, -0.22211215, -228041.44, -34701.563, 0.0, 5.0154514, 4.9174423 
1.5291716e+2, 2.8520015e+2, -166461.16, -302161.3, -1113.7007, -0.070973925, -0.09821012, -166452.02, -21498.39, 0.0, 5.0160527, 4.9274344 
1.5291363e+2, 2.9013383e+2, -117472.25, -252922.5, -744.998, -0.04923978, -0.049204327, -117468.16, -20867.66, 0.0, 5.015896, 4.9273496 
1.5291044e+2, 2.950668e+2, -68419.29, -203741.08, -579.04083, -0.028871125, -0.008740058, -68416.81, -20162.436, 0.0, 5.0156865, 4.927264 
1.5290686e+2, 3.0001202e+2, -11231.639, -103110.05, -870.72864, -0.024787104, 0.024567883, -11223.388, -11223.388, 0.0, 5.015635, 4.9546947 
1.5290388e+2, 3.0496722e+2, -5213.1035, -90460.83, -1575.2754, -0.05253264, -0.036695488, -5184.004, -5184.004, 0.0, 5.0161047, 4.958263 
1.5290241e+2, 3.09925e+2, -2178.222, -85283.81, -1642.2617, -0.078307986, -0.108221106, -2145.7817, -2145.7817, 0.0, 5.016524, 4.959718 
1.5290178e+2, 3.1488535e+2, 1088.3009, -80340.8, -1682.4762, -0.10488279, -0.1720784, 1123.0492, 1123.0492, 0.0, 5.016887, 4.9611745 
1.5794553e+2, 1.2151755e+2, -1710603.9, -1747466.6, 547.90857, 0.0068151886, 0.014041084, -1710595.8, 38528.566, 0.0, 5.0143213, 4.9903 
1.5794502e+2, 1.2649988e+2, -1668112.9, -1711976.3, -611.15076, 0.0009643316, -0.02370675, -1668104.4, 32190.518, 0.0, 5.0143833, 4.985841 
1.5794499e+2, 1.3148622e+2, -1619058.1, -1662953.0, -497.77982, 0.0013811137, -0.01935077, -1619052.5, 32376.762, 0.0, 5.0144033, 4.98584 
1.5794495e+2, 1.3647255e+2, -1572230.3, -1618477.1, -384.12057, 0.0017762379, -0.013742845, -1572227.1, 30336.725, 0.0, 5.0144176, 4.9843345 
1.5794495e+2, 1.4145581e+2, -1530025.8, -1583458.4, -277.59528, 0.002329055, 0.0038645936, -1530024.3, 23703.996, 0.0, 5.0144124, 4.979626 
1.5794504e+2, 1.4643554e+2, -1480842.6, -1533971.6, -311.82834, 0.0036769062, 0.00087811874, -1480840.8, 24086.756, 0.0, 5.014376, 4.9797835 
1.5794513e+2, 1.514152e+2, -1431899.0, -1484971.0, -338.0233, 0.0050616134, -0.0031729897, -1431896.9, 24230.809, 0.0, 5.014338, 4.979783 
1.5794522e+2, 1.5639484e+2, -1384387.5, -1438949.1, -364.19525, 0.006435732, -0.006769354, -1384385.1, 22942.758, 0.0, 5.0142984, 4.9787874 
1.5794523e+2, 1.6137083e+2, -1344009.0, -1407957.5, -347.68497, 0.006885765, -0.00265534, -1344007.1, 14557.116, 0.0, 5.0142784, 4.9727545 
1.5794507e+2, 1.6634415e+2, -1294805.0, -1358784.9, -370.28726, 0.0052957046, 0.0005301589, -1294802.9, 15025.001, 0.0, 5.014303, 4.972757 
1.5794489e+2, 1.713175e+2, -1245607.1, -1309622.6, -379.55878, 0.003619465, 0.0039908965, -1245604.9, 15486.361, 0.0, 5.014327, 4.9727573 
1.5794472e+2, 1.7629087e+2, -1197554.8, -1262869.8, -389.33548, 0.001933811, 0.007842512, -1197552.4, 14802.101, 0.0, 5.0143476, 4.97195 
1.579445e+2, 1.8126039e+2, -1156712.4, -1231299.6, -525.619, 0.0005845671, 0.0157778, -1156708.8, 6945.36, 0.0, 5.01434, 4.9660234 
1.5794425e+2, 1.86226e+2, -1107337.4, -1181314.9, -569.22437, 0.00042520557, 0.0063573048, -1107333.0, 7655.9297, 0.0, 5.0142565, 4.9663286 
1.5794396e+2, 1.9119158e+2, -1058415.0, -1132246.9, -555.0748, 0.0003316158, -0.0037379162, -1058410.8, 7913.166, 0.0, 5.0141625, 4.96633 
1.5794371e+2, 1.9615719e+2, -1010401.06, -1085102.4, -541.49994, 0.00022123312, -0.013545113, -1010397.2, 7261.7246, 0.0, 5.014062, 4.965681 
1.5794331e+2, 2.0111966e+2, -970862.25, -1056295.8, -973.68274, 0.00082292367, -0.010056123, -970851.1, -1825.348, 0.0, 5.0139737, 4.9587684 
1.5794258e+2, 2.060799e+2, -921538.56, -1006657.3, -1188.5271, 0.0035928967, 0.00029418996, -921522.0, -1103.092, 0.0, 5.0139236, 4.9589148 
1.5794182e+2, 2.110402e+2, -872424.1, -957459.2, -1230.5627, 0.0064836503, 0.011061423, -872406.3, -594.75714, 0.0, 5.01387, 4.958915 
1.5794106e+2, 2.1600048e+2, -823990.56, -909722.8, -1273.4968, 0.009366011, 0.021966016, -823971.7, -767.5007, 0.0, 5.01381, 4.958416 
1.5794012e+2, 2.2095658e+2, -783598.75, -879618.94, -1107.5424, 0.009816821, 0.03355259, -783585.94, -8950.488, 0.0, 5.0137544, 4.9518433 
1.5793884e+2, 2.2590677e+2, -733529.1, -828344.25, -823.2536, 0.004158553, 0.0075760945, -733522.0, -7405.4414, 0.0, 5.0136895, 4.9525266 
1.5793754e+2, 2.3085678e+2, -684407.44, -779100.2, -634.37683, -0.0018700269, -0.021416662, -684403.2, -6804.367, 0.0, 5.01361, 4.95253 
1.5793626e+2, 2.358068e+2, -635969.75, -731318.6, -441.72665, -0.007953392, -0.050583642, -635967.75, -6886.456, 0.0, 5.013518, 4.9520316 
1.5793552e+2, 2.4075481e+2, -596897.3, -704476.9, 344.34634, -0.011454218, -0.051481422, -596896.2, -16309.753, 0.0, 5.013445, 4.9442353 
1.579365e+2, 2.4570401e+2, -546536.4, -653539.56, 629.84296, -0.0067179664, -0.009951388, -546532.7, -14441.477, 0.0, 5.013568, 4.944684 
1.5793762e+2, 2.5065354e+2, -496716.56, -603938.7, 630.0407, -0.001441256, 0.033955272, -496712.88, -13119.328, 0.0, 5.0137033, 4.944685 
1.5793881e+2, 2.5560316e+2, -447180.47, -554921.8, 610.5306, 0.0038061726, 0.07873556, -447177.0, -12081.975, 0.0, 5.013824, 4.944488 
1.5793936e+2, 2.605458e+2, -408953.03, -531227.5, 1624.4657, 0.0001612648, 0.11209154, -408931.47, -22273.492, 0.0, 5.013925, 4.9352336 
1.5794146e+2, 2.6547545e+2, -355711.4, -470975.1, 4182.3926, -0.0012393615, 0.0016593983, -355559.84, -17240.777, 0.0, 5.013349, 4.9389067 
1.579445e+2, 2.70404e+2, -308370.03, -422608.25, 6351.5884, 0.001279243, -0.13545951, -308017.97, -18029.73, 0.0, 5.012331, 4.9389415 
1.5794793e+2, 2.7533197e+2, -261917.6, -374839.0, 8820.763, 0.0035843835, -0.28203338, -261232.72, -19569.016, 0.0, 5.0109625, 4.9389305 
1.5794441e+2, 2.8026316e+2, -243784.5, -390974.53, 2743.2239, -0.028031265, -0.26397535, -243733.39, -50420.496, 0.0, 5.0103483, 4.9164057 
1.5793572e+2, 2.852027e+2, -178395.92, -308003.34, 3398.1133, -0.042177074, -0.10657328, -178306.89, -33397.34, 0.0, 5.0121894, 4.926803 
1.5793113e+2, 2.901384e+2, -125084.71, -257105.05, 2485.8992, -0.030126335, -0.033577666, -125037.914, -28490.645, 0.0, 5.013584, 4.9266415 
1.5792684e+2, 2.9507333e+2, -72980.58, -206830.95, 1745.9816, -0.020725947, 0.030590668, -72957.805, -24764.953, 0.0, 5.0144806, 4.926481 
1.5792188e+2, 3.0001885e+2, -15290.188, -108162.68, 774.95715, -0.032206457, 0.077370815, -15283.723, -15283.723, 0.0, 5.0149784, 4.9529753 
1.5791754e+2, 3.0496833e+2, -9954.322, -92632.47, 617.2271, -0.08332976, -0.03905004, -9949.715, -9949.715, 0.0, 5.0146065, 4.957817 
1.5791488e+2, 3.0991974e+2, -11904.622, -89043.42, 987.1889, -0.1336666, -0.18167533, -11891.991, -11891.991, 0.0, 5.0131307, 4.959441 
1.5791298e+2, 3.1487375e+2, -16130.091, -86756.16, 869.33435, -0.18700132, -0.31974995, -16119.393, -16119.393, 0.0, 5.010684, 4.9610653 
1.6295934e+2, 1.2151653e+2, -1710790.5, -1747666.4, 828.5533, 0.0020081399, 0.010663981, -1710771.9, 38361.848, 0.0, 5.014281, 4.9902554 
1.6295959e+2, 1.2649912e+2, -1668175.4, -1711869.5, -455.82443, 0.0032111376, -0.025068253, -1668170.6, 32131.371, 0.0, 5.0143313, 4.9859023 
1.6295953e+2, 1.3148563e+2, -1618991.4, -1662780.4, -467.61053, 0.0028887945, -0.019731142, -1618986.4, 32448.443, 0.0, 5.0143943, 4.985902 
1.6295946e+2, 1.3647209e+2, -1572018.1, -1618231.1, -479.94766, 0.0025840786, -0.013155516, -1572013.3, 30554.74, 0.0, 5.014457, 4.984397 
1.6295944e+2, 1.4145546e+2, -1529772.6, -1583369.6, -484.96207, 0.0028189707, 0.0050789076, -1529768.3, 23963.414, 0.0, 5.014504, 4.9796114 
1.6295958e+2, 1.4643517e+2, -1480457.6, -1533865.3, -529.54767, 0.0045991517, 0.0020769786, -1480452.4, 24479.045, 0.0, 5.0145226, 4.9797487 
1.629597e+2, 1.5141478e+2, -1431348.4, -1484783.4, -559.5294, 0.0064651095, -0.0020061198, -1431342.5, 24789.586, 0.0, 5.01454, 4.9797482 
1.6295984e+2, 1.5639438e+2, -1383668.4, -1438679.5, -589.9364, 0.008345736, -0.005634735, -1383662.1, 23670.705, 0.0, 5.0145574, 4.978753 
1.6295987e+2, 1.6137032e+2, -1343149.0, -1407481.9, -552.801, 0.008974564, -0.0019385015, -1343144.3, 15425.524, 0.0, 5.0145564, 4.9727798 
1.6295964e+2, 1.6634355e+2, -1294112.0, -1358353.3, -499.75986, 0.006778338, 0.000008723065, -1294108.1, 15725.55, 0.0, 5.014518, 4.972799 
1.6295938e+2, 1.7131682e+2, -1245104.1, -1309284.1, -433.47888, 0.0044937558, 0.0022046866, -1245101.1, 15996.1455, 0.0, 5.0144777, 4.9727993 
1.6295914e+2, 1.762901e+2, -1197232.1, -1262619.1, -367.39468, 0.0022288335, 0.0047917822, -1197230.0, 15130.851, 0.0, 5.014437, 4.971992 
1.6295886e+2, 1.8125962e+2, -1156664.9, -1231293.0, -532.75006, 0.0006927739, 0.012508455, -1156661.1, 6999.18, 0.0, 5.014359, 4.966017 
1.6295853e+2, 1.8622544e+2, -1107588.4, -1181497.8, -667.1723, 0.0012119472, 0.005517995, -1107582.4, 7411.3555, 0.0, 5.014183, 4.966301 
1.629582e+2, 1.9119127e+2, -1058917.3, -1132547.4, -725.74475, 0.0018914208, -0.0019988613, -1058910.1, 7417.003, 0.0, 5.0140023, 4.966303 
1.6295788e+2, 1.9615708e+2, -1011135.1, -1085510.6, -784.91223, 0.0026170188, -0.009205462, -1011126.8, 6533.665, 0.0, 5.0138216, 4.9656544 
1.629574e+2, 2.0111966e+2, -971644.2, -1056701.6, -1155.9956, 0.0035231286, -0.004637199, -971628.5, -2601.5134, 0.0, 5.013711, 4.9587526 
1.6295654e+2, 2.0607959e+2, -921967.2, -1006903.6, -1283.2545, 0.0049133007, 0.0028413155, -921947.8, -1524.9495, 0.0, 5.013783, 4.9588957 
1.6295566e+2, 2.1103956e+2, -872458.94, -957519.56, -1273.9786, 0.006363826, 0.010554201, -872439.9, -621.46014, 0.0, 5.0138655, 4.9588966 
1.6295479e+2, 2.1599953e+2, -823618.75, -909593.3, -1264.8351, 0.007853609, 0.018425731, -823600.1, -386.1989, 0.0, 5.013947, 4.9583974 
1.6295378e+2, 2.2095545e+2, -782772.4, -878951.25, -1125.999, 0.0077849, 0.028000742, -782759.2, -8112.7056, 0.0, 5.01398, 4.9519706 
1.629526e+2, 2.2590601e+2, -732992.56, -827694.0, -977.65875, 0.0044599315, 0.004318458, -732982.44, -6859.187, 0.0, 5.0137935, 4.952704 
1.6295144e+2, 2.308565e+2, -684233.9, -778588.25, -910.58826, 0.0011456996, -0.021891847, -684225.1, -6624.4385, 0.0, 5.013585, 4.952716 
1.6295029e+2, 2.3580696e+2, -636121.25, -730927.6, -847.9837, -0.002059646, -0.04821725, -636113.6, -7035.563, 0.0, 5.0133758, 4.952226 
1.629496e+2, 2.407553e+2, -597814.8, -704690.1, -164.7167, -0.0035194487, -0.047504615, -597814.56, -17234.318, 0.0, 5.013097, 4.9443045 
1.6295032e+2, 2.457044e+2, -549080.3, -654858.0, 23.614891, 0.00041490042, -0.0065469462, -549080.3, -16991.826, 0.0, 5.012713, 4.9445972 
1.6295117e+2, 2.5065383e+2, -500708.44, -605974.5, -32.379726, 0.0050297217, 0.037513558, -500708.44, -17114.053, 0.0, 5.0123334, 4.9445806 
1.6295213e+2, 2.5560343e+2, -452578.47, -557651.94, -80.89414, 0.009976142, 0.08316547, -452578.4, -17479.535, 0.0, 5.01195, 4.944365 
1.6295268e+2, 2.605463e+2, -413906.3, -530670.0, 1062.8696, 0.009320923, 0.116270736, -413896.63, -27236.03, 0.0, 5.0116115, 4.9364567 
1.62956e+2, 2.654777e+2, -360356.8, -467248.66, 2344.749, 0.026316324, 0.004257542, -360305.4, -22004.523, 0.0, 5.010708, 4.941303 
1.6296048e+2, 2.7040878e+2, -312758.25, -417403.7, 2552.7065, 0.05274255, -0.13231622, -312696.0, -22755.266, 0.0, 5.009667, 4.9417644 
1.6296549e+2, 2.753399e+2, -265099.8, -367791.2, 2565.033, 0.08284434, -0.27664027, -265035.78, -23455.375, 0.0, 5.0086074, 4.9421787 
1.6296333e+2, 2.8027385e+2, -243601.89, -388539.34, -3400.4883, 0.075755544, -0.26150095, -243522.16, -50322.137, 0.0, 5.009791, 4.9177637 
1.6295408e+2, 2.8521228e+2, -180256.16, -314540.84, 979.1598, 0.037851766, -0.101560764, -180249.03, -35436.29, 0.0, 5.0120745, 4.9251804 
1.629487e+2, 2.9014662e+2, -127901.81, -262760.0, 1398.7369, 0.021476306, -0.022600807, -127887.305, -31416.756, 0.0, 5.0130525, 4.925348 
1.6294375e+2, 2.9508013e+2, -75492.484, -211084.56, 1633.6062, 0.0072222785, 0.043766435, -75472.805, -27336.48, 0.0, 5.0139937, 4.9255147 
1.6293828e+2, 3.0002454e+2, -14465.942, -106063.25, 1666.6519, -0.021243826, 0.08764694, -14435.627, -14435.627, 0.0, 5.015048, 4.953886 
1.6293423e+2, 3.0497453e+2, -2598.996, -84519.87, 2200.3462, -0.072373, -0.035121296, -2539.9387, -2539.9387, 0.0, 5.016772, 4.960038 
1.6293244e+2, 3.099282e+2, 3775.7214, -77374.81, 3237.7883, -0.109562956, -0.16531363, 3904.6995, 3904.6995, 0.0, 5.018578, 4.961662 
1.629319e+2, 3.1488615e+2, 10396.802, -70483.55, 4175.37, -0.13785757, -0.27048162, 10611.779, 10611.779, 0.0, 5.020346, 4.9632874 
1.6797294e+2, 1.21514976e+2, -1710588.3, -1747251.5, 741.8968, -0.0049121515, 0.0006875004, -1710573.3, 38574.965, 0.0, 5.0142803, 4.990392 
1.6797413e+2, 1.2649912e+2, -1668191.9, -1711900.6, -411.42206, 0.0052116965, -0.019494474, -1668188.0, 32113.416, 0.0, 5.014331, 4.9858923 
1.6797405e+2, 1.3148543e+2, -1619006.8, -1662810.5, -421.18796, 0.0042306087, -0.016026014, -1619002.8, 32433.893, 0.0, 5.0143943, 4.985892 
1.6797398e+2, 1.364717e+2, -1572032.4, -1618260.4, -431.5187, 0.0032421164, -0.011322771, -1572028.4, 30543.63, 0.0, 5.014457, 4.9843874 
1.6797398e+2, 1.4145492e+2, -1529814.3, -1583455.5, -467.2115, 0.0031124754, 0.0056746756, -1529810.3, 23927.172, 0.0, 5.014504, 4.979583 
1.6797414e+2, 1.4643462e+2, -1480510.8, -1533975.6, -516.35175, 0.0051619327, 0.0029259953, -1480505.8, 24431.643, 0.0, 5.0145226, 4.979712 
1.6797434e+2, 1.5141422e+2, -1431400.9, -1484893.6, -545.646, 0.0073043876, -0.00084489904, -1431395.4, 24742.854, 0.0, 5.01454, 4.979712 
1.6797452e+2, 1.5639381e+2, -1383720.5, -1438789.5, -575.368, 0.009454052, -0.004162419, -1383714.5, 23624.633, 0.0, 5.014558, 4.978717 
1.6797456e+2, 1.6136971e+2, -1343060.4, -1407297.8, -576.4815, 0.010187252, -0.0008953839, -1343055.1, 15521.082, 0.0, 5.014557, 4.9728413 
1.6797426e+2, 1.6634284e+2, -1293986.8, -1358091.8, -530.93933, 0.0077435067, -0.0009131462, -1293982.3, 15858.269, 0.0, 5.014518, 4.9728866 
1.6797394e+2, 1.71316e+2, -1244979.4, -1309023.4, -463.52057, 0.005185977, -0.0007312083, -1244976.1, 16128.463, 0.0, 5.0144777, 4.9728866 
1.6797362e+2, 1.7628916e+2, -1197108.1, -1262358.9, -396.29312, 0.0026339872, -0.00016084386, -1197105.8, 15262.801, 0.0, 5.0144377, 4.9720793 
1.6797327e+2, 1.812587e+2, -1156700.8, -1231367.5, -644.0756, 0.0011350889, 0.0072848303, -1156695.3, 6972.292, 0.0, 5.0143585, 4.965992 
1.6797282e+2, 1.8622486e+2, -1107684.3, -1181701.5, -803.97296, 0.0023216002, 0.004348198, -1107675.5, 7323.243, 0.0, 5.0141826, 4.966233 
1.6797239e+2, 1.9119105e+2, -1059012.0, -1132751.3, -860.5814, 0.0036622167, 0.0010831237, -1059002.0, 7327.913, 0.0, 5.0140023, 4.966234 
1.6797194e+2, 1.9615723e+2, -1011228.7, -1085714.6, -917.76544, 0.005029459, -0.0018748773, -1011217.4, 6443.537, 0.0, 5.013822, 4.965585 
1.6797136e+2, 2.0111991e+2, -971645.75, -1056701.5, -1154.2036, 0.0058632405, 0.0043911203, -971630.06, -2603.2385, 0.0, 5.01371, 4.9587536 
1.6797036e+2, 2.0607938e+2, -921943.25, -1006848.3, -1222.9583, 0.0051517016, 0.007089836, -921925.7, -1499.2152, 0.0, 5.0137825, 4.9589157 
1.6796933e+2, 2.1103884e+2, -872433.7, -957463.06, -1210.5094, 0.004355579, 0.009682529, -872416.5, -590.4883, 0.0, 5.013865, 4.9589167 
1.6796832e+2, 2.1599832e+2, -823592.2, -909535.56, -1198.1995, 0.003575293, 0.012412872, -823575.44, -349.96204, 0.0, 5.013947, 4.958418 
1.6796727e+2, 2.2095399e+2, -782619.5, -878610.25, -1200.5012, 0.0027701631, 0.018863292, -782604.5, -7944.64, 0.0, 5.0139785, 4.9520893 
1.6796629e+2, 2.2590515e+2, -732844.6, -827383.1, -1122.6492, 0.0033117337, 0.000039107817, -732831.3, -6700.292, 0.0, 5.0137944, 4.952814 
1.6796537e+2, 2.3085628e+2, -684077.06, -778280.06, -1046.7351, 0.0041240533, -0.02061516, -684065.44, -6463.1543, 0.0, 5.0135894, 4.9528246 
1.6796443e+2, 2.3580739e+2, -635955.44, -730622.06, -975.2668, 0.004988996, -0.04144015, -635945.44, -6871.8213, 0.0, 5.0133834, 4.952333 
1.6796377e+2, 2.4075606e+2, -597729.4, -704643.3, -397.5733, 0.0060474016, -0.038294774, -597727.94, -17154.822, 0.0, 5.013113, 4.9443207 
1.6796385e+2, 2.4570453e+2, -549136.9, -655157.44, -273.05402, 0.007774797, -0.002445792, -549136.2, -17046.943, 0.0, 5.012732, 4.944495 
1.6796403e+2, 2.506533e+2, -500763.78, -606253.9, -319.46072, 0.009773914, 0.036037214, -500762.8, -17159.006, 0.0, 5.012351, 4.9444847 
1.6796425e+2, 2.5560218e+2, -452632.72, -557911.3, -358.3689, 0.01203345, 0.07590802, -452631.5, -17514.357, 0.0, 5.0119667, 4.944276 
1.6796443e+2, 2.6054505e+2, -412495.1, -527775.1, 674.08234, 0.0114324, 0.10538374, -412491.16, -25810.72, 0.0, 5.011642, 4.937492 
1.6796812e+2, 2.654788e+2, -358514.13, -464319.22, 2002.433, 0.03595471, 0.008397709, -358476.25, -20178.83, 0.0, 5.0108566, 4.9423842 
1.6797303e+2, 2.704122e+2, -310615.0, -414745.88, 2444.36, 0.069331445, -0.1112326, -310557.66, -20643.924, 0.0, 5.0099435, 4.94273 
1.6797839e+2, 2.753454e+2, -262656.28, -365405.03, 2690.984, 0.10525405, -0.23993404, -262585.84, -21053.625, 0.0, 5.0090113, 4.943028 
1.6797723e+2, 2.8028e+2, -241278.22, -382799.5, -3386.365, 0.10990287, -0.23144126, -241197.23, -48051.676, 0.0, 5.0097404, 4.9197454 
1.6796885e+2, 2.8521726e+2, -181361.06, -313966.03, 1099.0615, 0.07149033, -0.091744564, -181351.95, -36578.96, 0.0, 5.0116363, 4.9254494 
1.6796377e+2, 2.901507e+2, -128883.516, -262523.94, 1753.4674, 0.045116935, -0.021367798, -128860.516, -32417.912, 0.0, 5.0126743, 4.9255075 
1.6795911e+2, 2.9508328e+2, -76350.1, -211186.03, 2222.8774, 0.019623203, 0.03666431, -76313.46, -28192.553, 0.0, 5.013676, 4.925566 
1.679541e+2, 3.0002755e+2, -13011.088, -101713.38, 2581.904, -0.018503953, 0.07465921, -12935.999, -12935.999, 0.0, 5.014836, 4.9555187 
1.679512e+2, 3.0498067e+2, 82.23184, -78591.69, 3957.3506, -0.07582685, -0.037940618, 280.78812, 280.78812, 0.0, 5.0167437, 4.962196 
1.679505e+2, 3.0993748e+2, 7058.754, -71022.664, 5621.881, -0.12236626, -0.15832795, 7461.4536, 7461.4536, 0.0, 5.0187125, 4.9638762 
1.6795097e+2, 3.1489822e+2, 14279.141, -63707.79, 7185.6123, -0.16254728, -0.258693, 14935.687, 14935.687, 0.0, 5.0206428, 4.965559 
1.7298652e+2, 1.2151339e+2, -1710338.8, -1746739.0, 654.866, -0.011824535, -0.009493133, -1710327.0, 38836.11, 0.0, 5.0142794, 4.9905605 
1.7298868e+2, 1.2649912e+2, -1668209.0, -1711931.5, -367.06064, 0.0072303256, -0.013854196, -1668205.9, 32094.895, 0.0, 5.0143304, 4.9858823 
1.729886e+2, 1.3148522e+2, -1619022.8, -1662840.4, -374.80637, 0.0055825934, -0.012284469, -1619019.5, 32418.795, 0.0, 5.014394, 4.985882 
1.729885e+2, 1.3647132e+2, -1572047.3, -1618289.1, -383.13077, 0.0039024244, -0.009483687, -1572044.1, 30531.986, 0.0, 5.014457, 4.9843774 
1.7298852e+2, 1.414544e+2, -1529860.8, -1583550.8, -449.76987, 0.003408981, 0.006285404, -1529857.0, 23886.176, 0.0, 5.014504, 4.9795513 
1.7298874e+2, 1.4643407e+2, -1480564.0, -1534086.0, -503.04892, 0.0057300264, 0.0037868991, -1480559.4, 24384.023, 0.0, 5.014522, 4.979676 
1.7298897e+2, 1.5141366e+2, -1431453.6, -1485003.8, -531.65564, 0.008149294, 0.00031679202, -1431448.4, 24695.908, 0.0, 5.01454, 4.9796753 
1.7298917e+2, 1.5639326e+2, -1383772.8, -1438899.5, -560.6925, 0.010568313, -0.0027010494, -1383767.0, 23578.354, 0.0, 5.014558, 4.97868 
1.7298925e+2, 1.6136912e+2, -1342976.3, -1407122.8, -600.2049, 0.01140099, 0.000169536, -1342970.6, 15612.075, 0.0, 5.014557, 4.9728994 
1.7298888e+2, 1.6634212e+2, -1293861.6, -1357830.1, -562.12, 0.00870865, -0.0018181902, -1293856.8, 15990.701, 0.0, 5.0145183, 4.972974 
1.7298847e+2, 1.7131516e+2, -1244855.1, -1308762.4, -493.5635, 0.0058779046, -0.003668933, -1244851.3, 16260.499, 0.0, 5.0144777, 4.972974 
1.729881e+2, 1.762882e+2, -1196984.4, -1262098.5, -425.19287, 0.0030385794, -0.005133954, -1196981.6, 15394.476, 0.0, 5.0144377, 4.972167 
1.7298767e+2, 1.8125778e+2, -1156743.3, -1231455.6, -755.9066, 0.0015809216, 0.0020897933, -1156735.6, 6939.0337, 0.0, 5.014358, 4.9659624 
1.7298712e+2, 1.8622428e+2, -1107780.5, -1181905.0, -940.2658, 0.0034430902, 0.0031929265, -1107768.5, 7235.147, 0.0, 5.0141826, 4.966164 
1.7298657e+2, 1.9119081e+2, -1059107.1, -1132954.9, -994.9101, 0.005451115, 0.00414095, -1059093.8, 7238.8423, 0.0, 5.0140023, 4.9661655 
1.7298602e+2, 1.9615735e+2, -1011322.75, -1085918.5, -1050.1105, 0.007466267, 0.005392866, -1011307.94, 6353.4243, 0.0, 5.013822, 4.965516 
1.729853e+2, 2.0112018e+2, -971667.6, -1056744.5, -1153.8746, 0.008213463, 0.013504851, -971652.0, -2625.3696, 0.0, 5.0137095, 4.9587393 
1.7298418e+2, 2.0607916e+2, -921919.9, -1006792.7, -1162.8477, 0.005395634, 0.01142776, -921903.94, -1473.9817, 0.0, 5.0137815, 4.958935 
1.7298302e+2, 2.1103813e+2, -872409.0, -957406.25, -1147.226, 0.002353149, 0.0088296635, -872393.5, -559.9792, 0.0, 5.0138645, 4.958936 
1.7298186e+2, 2.159971e+2, -823566.1, -909477.56, -1131.7496, -0.0006969199, 0.0063482267, -823551.2, -314.15054, 0.0, 5.013947, 4.958438 
1.7298076e+2, 2.2095253e+2, -782490.4, -878319.2, -1277.9197, -0.0022398971, 0.009826467, -782473.3, -7800.1597, 0.0, 5.013977, 4.95219 
1.7298e+2, 2.259043e+2, -732698.4, -827071.2, -1263.9597, 0.0021798967, -0.00421832, -732681.44, -6542.693, 0.0, 5.013795, 4.952922 
1.7297928e+2, 2.3085605e+2, -683921.8, -777970.75, -1179.2023, 0.007127064, -0.019515056, -683907.06, -6303.1323, 0.0, 5.0135937, 4.952931 
1.7297858e+2, 2.358078e+2, -635791.25, -730315.44, -1098.8699, 0.012070591, -0.035038125, -635778.5, -6709.3086, 0.0, 5.013391, 4.9524384 
1.7297797e+2, 2.4075685e+2, -597724.44, -704765.56, -626.6169, 0.01573527, -0.028574197, -597720.75, -17155.254, 0.0, 5.013129, 4.944277 
1.7297742e+2, 2.4570474e+2, -549198.75, -655451.94, -576.62494, 0.015268522, 0.0024557954, -549195.6, -17106.326, 0.0, 5.012751, 4.944392 
1.7297688e+2, 2.506528e+2, -500824.44, -606528.2, -613.4449, 0.014605234, 0.035060544, -500820.88, -17208.154, 0.0, 5.012369, 4.9443874 
1.729764e+2, 2.5560096e+2, -452692.25, -558165.7, -642.7481, 0.0141312, 0.0688495, -452688.34, -17553.31, 0.0, 5.0119834, 4.944185 
1.729761e+2, 2.605436e+2, -411455.38, -525665.56, 358.98624, 0.012674586, 0.09404597, -411454.25, -24752.076, 0.0, 5.011673, 4.938225 
1.7298037e+2, 2.6547945e+2, -356706.7, -461368.03, 1847.8961, 0.045225292, 0.0077634915, -356674.06, -18375.906, 0.0, 5.0110054, 4.9433975 
1.729859e+2, 2.7041504e+2, -308506.6, -412065.13, 2523.7517, 0.08665893, -0.09982335, -308445.13, -18552.73, 0.0, 5.01022, 4.943627 
1.7299189e+2, 2.7535018e+2, -260247.19, -362994.7, 3004.654, 0.12950851, -0.21780021, -260159.39, -18668.23, 0.0, 5.0094156, 4.943809 
1.7299107e+2, 2.8028637e+2, -241402.48, -382692.28, -4004.4553, 0.14289354, -0.19775483, -241289.08, -48200.113, 0.0, 5.0096917, 4.919747 
1.7298302e+2, 2.8522313e+2, -182525.33, -313336.16, 1423.8186, 0.10231144, -0.06514794, -182509.83, -37785.68, 0.0, 5.011198, 4.925668 
1.7297837e+2, 2.9015556e+2, -129923.86, -262232.72, 2312.8193, 0.0674616, -0.008398021, -129883.44, -33476.125, 0.0, 5.0122967, 4.9256177 
1.7297414e+2, 2.95087e+2, -77265.63, -211232.23, 3016.5647, 0.03224933, 0.03625462, -77197.74, -29097.826, 0.0, 5.0133586, 4.925567 
1.7296958e+2, 3.000301e+2, -12730.767, -99933.04, 3584.0642, -0.016188318, 0.06034094, -12583.707, -12583.707, 0.0, 5.014623, 4.9561663 
1.7296778e+2, 3.0498508e+2, 2699.453, -72612.84, 5656.9673, -0.08357716, -0.058125135, 3121.9966, 3121.9966, 0.0, 5.016716, 4.9641933 
1.7296824e+2, 3.099444e+2, 10277.635, -64621.61, 7947.734, -0.14256631, -0.18577307, 11111.699, 11111.699, 0.0, 5.018847, 4.9659305 
1.7296977e+2, 3.1490728e+2, 18096.832, -56884.758, 10136.632, -0.19773835, -0.29841155, 19443.018, 19443.018, 0.0, 5.02094, 4.96767 
1.7800014e+2, 1.2151179e+2, -1710065.1, -1746141.1, 597.05206, -0.018646423, -0.019784369, -1710055.3, 39122.848, 0.0, 5.0142717, 4.9907594 
1.7800322e+2, 1.2649912e+2, -1668225.1, -1711962.4, -303.68558, 0.009265527, -0.008177248, -1668223.1, 32077.115, 0.0, 5.014331, 4.985871 
1.7800313e+2, 1.3148503e+2, -1619021.5, -1662862.4, -321.99985, 0.0069401804, -0.008526925, -1619019.1, 32420.967, 0.0, 5.0144, 4.9858704 
1.7800304e+2, 1.3647091e+2, -1572042.8, -1618309.3, -341.18997, 0.0045665563, -0.0076456084, -1572040.3, 30539.97, 0.0, 5.014464, 4.9843664 
1.7800306e+2, 1.4145386e+2, -1529899.0, -1583648.6, -445.96564, 0.003716205, 0.006913353, -1529895.4, 23853.53, 0.0, 5.0145082, 4.979517 
1.7800333e+2, 1.4643353e+2, -1480612.4, -1534193.0, -498.91275, 0.006303189, 0.0046586087, -1480607.8, 24341.559, 0.0, 5.014524, 4.979639 
1.7800358e+2, 1.5141311e+2, -1431513.5, -1485116.3, -522.4674, 0.008993942, 0.0014745314, -1431508.4, 24641.979, 0.0, 5.014538, 4.979639 
1.7800386e+2, 1.563927e+2, -1383848.5, -1439019.6, -546.2896, 0.011679855, -0.001257958, -1383843.1, 23508.508, 0.0, 5.01455, 4.9786434 
1.7800392e+2, 1.6136852e+2, -1342934.1, -1406975.4, -622.5537, 0.01260764, 0.0012494491, -1342928.1, 15661.115, 0.0, 5.0145445, 4.9729543 
1.7800349e+2, 1.6634141e+2, -1293779.4, -1357590.0, -600.046, 0.009671311, -0.0027018874, -1293773.8, 16080.569, 0.0, 5.014504, 4.9730606 
1.7800304e+2, 1.7131434e+2, -1244788.3, -1308529.8, -539.4915, 0.0065787216, -0.006590194, -1244783.6, 16335.36, 0.0, 5.014459, 4.9730606 
1.7800258e+2, 1.7628728e+2, -1196943.4, -1261878.4, -479.5158, 0.0034693365, -0.0100936415, -1196939.8, 15443.873, 0.0, 5.01441, 4.9722533 
1.7800209e+2, 1.8125686e+2, -1156883.9, -1231599.9, -897.0767, 0.0020676067, -0.0030390797, -1156873.1, 6808.677, 0.0, 5.0143266, 4.965928 
1.7800143e+2, 1.8622372e+2, -1107928.3, -1182131.3, -1097.9738, 0.0045997654, 0.0020665298, -1107912.0, 7096.668, 0.0, 5.0141644, 4.966096 
1.7800076e+2, 1.9119059e+2, -1059222.8, -1133166.5, -1144.8815, 0.0072715716, 0.007167689, -1059205.1, 7130.2256, 0.0, 5.013995, 4.9660964 
1.7800009e+2, 1.9615747e+2, -1011417.8, -1086121.0, -1193.578, 0.009936198, 0.012572435, -1011398.75, 6263.0947, 0.0, 5.013822, 4.965447 
1.7799927e+2, 2.0112044e+2, -971703.6, -1056826.1, -1159.4603, 0.010580683, 0.022665529, -971687.8, -2661.4377, 0.0, 5.013711, 4.9587107 
1.7799799e+2, 2.0607896e+2, -921908.6, -1006741.56, -1099.0732, 0.005651383, 0.01582674, -921894.4, -1460.8837, 0.0, 5.013777, 4.958954 
1.779967e+2, 2.1103743e+2, -872429.0, -957369.25, -1073.9231, 0.0003705366, 0.007986481, -872415.44, -574.41284, 0.0, 5.013849, 4.9589553 
1.779954e+2, 2.159959e+2, -823630.9, -909460.56, -1050.314, -0.004932949, 0.0002487645, -823618.0, -369.43158, 0.0, 5.013916, 4.958457 
1.7799424e+2, 2.209511e+2, -782510.2, -878136.4, -1343.4009, -0.007204024, 0.00092350965, -782491.3, -7804.9536, 0.0, 5.013932, 4.9522724 
1.779937e+2, 2.2590342e+2, -732670.06, -826812.2, -1408.1675, 0.0010917305, -0.008431297, -732649.0, -6502.603, 0.0, 5.0137563, 4.9530277 
1.7799321e+2, 2.3085582e+2, -683917.06, -777727.6, -1339.1827, 0.010190066, -0.018555392, -683897.94, -6292.432, 0.0, 5.0135465, 4.9530354 
1.7799273e+2, 2.358082e+2, -635856.5, -730108.9, -1275.96, 0.019253103, -0.028935052, -635839.25, -6774.4185, 0.0, 5.01332, 4.9525414 
1.7799221e+2, 2.407577e+2, -598131.6, -705192.44, -914.69434, 0.025658062, -0.018243771, -598123.75, -17566.39, 0.0, 5.01303, 4.944177 
1.7799102e+2, 2.4570502e+2, -549627.6, -655890.3, -904.9738, 0.02303333, 0.008222017, -549619.94, -17531.3, 0.0, 5.0126443, 4.9442916 
1.7798978e+2, 2.5065237e+2, -501274.94, -606960.0, -896.406, 0.019690825, 0.03464776, -501267.3, -17646.348, 0.0, 5.012253, 4.944292 
1.779886e+2, 2.5559983e+2, -453169.25, -558592.7, -891.79016, 0.01647538, 0.062088586, -453161.72, -18009.408, 0.0, 5.011856, 4.944094 
1.7798775e+2, 2.60542e+2, -411467.3, -524548.5, 234.55025, 0.013403766, 0.08236761, -411466.8, -24741.281, 0.0, 5.0114517, 4.938693 
1.7799273e+2, 2.6547974e+2, -357536.72, -459290.34, 2360.5967, 0.05520598, 0.0025531317, -357481.97, -19179.762, 0.0, 5.010207, 4.9444327 
1.779992e+2, 2.7041754e+2, -312148.3, -411488.22, 3937.1772, 0.10709528, -0.09724413, -311992.5, -22118.074, 0.0, 5.0084324, 4.9445853 
1.7800607e+2, 2.7535474e+2, -267758.2, -364365.6, 5612.0493, 0.15981823, -0.20817585, -267433.28, -25980.666, 0.0, 5.006255, 4.9446917 
1.78005e+2, 2.8029364e+2, -256700.2, -393906.53, -1946.759, 0.18053015, -0.15737541, -256672.58, -63649.02, 0.0, 5.0050955, 4.9177756 
1.7799668e+2, 2.8523043e+2, -191843.02, -316781.16, 4383.301, 0.13425136, -0.019694194, -191689.42, -47027.89, 0.0, 5.007867, 4.925695 
1.7799258e+2, 2.901614e+2, -135413.05, -264223.28, 4415.249, 0.09073183, 0.017314324, -135261.88, -38899.703, 0.0, 5.010344, 4.9255786 
1.7798887e+2, 2.9509136e+2, -80414.18, -212427.23, 4573.776, 0.046265364, 0.04240944, -80255.91, -32183.19, 0.0, 5.012259, 4.9254622 
1.7798477e+2, 3.0003214e+2, -15346.945, -101489.59, 4766.661, -0.013374382, 0.043722577, -15083.986, -15083.986, 0.0, 5.013777, 4.955845 
1.7798403e+2, 3.0498782e+2, -92.22439, -69053.65, 6337.374, -0.09315879, -0.09475505, 485.3267, 485.3267, 0.0, 5.014763, 4.965986 
1.7798577e+2, 3.0994913e+2, 1487.278, -63651.168, 7058.5454, -0.16458261, -0.2426371, 2243.3809, 2243.3809, 0.0, 5.014665, 4.967703 
1.7798856e+2, 3.1491372e+2, 617.2928, -59627.82, 6581.922, -0.23324427, -0.3786213, 1327.9993, 1327.9993, 0.0, 5.0135374, 4.9694214 
1.8301448e+2, 1.2151133e+2, -1709019.9, -1745438.6, 672.58795, -0.01959179, -0.020801084, -1709007.5, 40174.777, 0.0, 5.0145745, 4.990842 
1.830177e+2, 1.2649885e+2, -1667574.3, -1711905.0, -121.174934, 0.009459472, -0.0063613467, -1667573.9, 32728.807, 0.0, 5.014601, 4.985757 
1.830177e+2, 1.314846e+2, -1618391.0, -1662814.0, -271.27866, 0.0072272583, -0.0071672737, -1618389.4, 33055.117, 0.0, 5.0146646, 4.985757 
1.8301769e+2, 1.3647033e+2, -1571418.3, -1618263.0, -421.6343, 0.0050134873, -0.006707519, -1571414.5, 31172.008, 0.0, 5.0147276, 4.984253 
1.8301773e+2, 1.4145318e+2, -1529161.1, -1583342.0, -637.2308, 0.0040877135, 0.0075371177, -1529153.6, 24602.895, 0.0, 5.014766, 4.979493 
1.8301792e+2, 1.4643282e+2, -1479906.1, -1533853.1, -658.3774, 0.005912106, 0.005082419, -1479898.1, 25058.834, 0.0, 5.0147614, 4.979637 
1.8301813e+2, 1.5141238e+2, -1430866.3, -1484805.1, -643.10187, 0.00783099, 0.0017017504, -1430858.6, 25299.406, 0.0, 5.014756, 4.979637 
1.8301833e+2, 1.5639193e+2, -1383255.3, -1438734.5, -628.353, 0.009765919, -0.0012232149, -1383248.1, 24111.111, 0.0, 5.014751, 4.9786425 
1.8301834e+2, 1.6136774e+2, -1342399.1, -1406672.3, -741.2107, 0.010544268, 0.0010961823, -1342390.6, 16206.233, 0.0, 5.014716, 4.9729733 
1.8301795e+2, 1.6634065e+2, -1293414.6, -1357359.3, -804.78076, 0.008802155, -0.0029496204, -1293404.5, 16457.129, 0.0, 5.014616, 4.9730844 
1.8301757e+2, 1.713136e+2, -1244593.3, -1308381.0, -822.6305, 0.0069964454, -0.0069054654, -1244582.6, 16543.54, 0.0, 5.014514, 4.9730844 
1.8301716e+2, 1.7628655e+2, -1196906.6, -1261805.5, -840.8885, 0.005216322, -0.010459799, -1196895.8, 15494.983, 0.0, 5.0144114, 4.9722776 
1.8301666e+2, 1.8125618e+2, -1156929.6, -1231640.3, -1319.2627, 0.0047048614, -0.00320183, -1156906.4, 6782.1787, 0.0, 5.0143147, 4.9659204 
1.8301587e+2, 1.8622309e+2, -1107753.8, -1182094.3, -1478.3802, 0.00695958, 0.0026635667, -1107724.4, 7290.7334, 0.0, 5.0142336, 4.9660754 
1.8301505e+2, 1.9119002e+2, -1058790.5, -1133008.6, -1473.6487, 0.009330746, 0.008571905, -1058761.3, 7580.172, 0.0, 5.0141535, 4.966076 
1.8301424e+2, 1.9615696e+2, -1010718.1, -1085838.5, -1469.1936, 0.011728364, 0.014810481, -1010689.44, 6978.302, 0.0, 5.0140734, 4.9654255 
1.8301326e+2, 2.0111993e+2, -970782.56, -1056292.9, -1285.8975, 0.011800278, 0.024917837, -970763.2, -1730.9994, 0.0, 5.0140066, 4.9587545 
1.8301186e+2, 2.060783e+2, -921271.56, -1006280.06, -1131.4987, 0.005553994, 0.0158968, -921256.5, -816.6187, 0.0, 5.0139623, 4.9590254 
1.8301044e+2, 2.1103664e+2, -872130.5, -957066.0, -1046.3895, -0.0010135865, 0.0058171228, -872117.6, -269.5991, 0.0, 5.013918, 4.9590273 
1.8300901e+2, 2.1599495e+2, -823655.4, -909306.8, -961.3742, -0.0075434255, -0.0041000233, -823644.56, -388.4677, 0.0, 5.013873, 4.9585295 
1.8300779e+2, 2.2095014e+2, -782878.5, -878375.3, -1341.3278, -0.010188252, -0.003983422, -782859.7, -8165.9277, 0.0, 5.013818, 4.9522414 
1.8300731e+2, 2.2590281e+2, -732993.2, -827159.9, -1702.1458, -0.000026748055, -0.009054779, -732962.44, -6810.576, 0.0, 5.013685, 4.9529376 
1.8300688e+2, 2.308556e+2, -684048.2, -777978.8, -1906.3529, 0.01124248, -0.0143446205, -684009.5, -6400.7407, 0.0, 5.013543, 4.9529467 
1.8300645e+2, 2.358084e+2, -635751.44, -730242.94, -2115.2642, 0.022664797, -0.019660631, -635704.1, -6638.4795, 0.0, 5.0134, 4.9524536 
1.8300585e+2, 2.407581e+2, -597861.4, -705103.9, -2060.3423, 0.030858656, -0.0061132996, -597821.8, -17264.438, 0.0, 5.0131493, 4.9441466 
1.8300413e+2, 2.4570473e+2, -549445.2, -655662.94, -2039.2853, 0.027211558, 0.013124396, -549406.06, -17311.256, 0.0, 5.0126925, 4.9443383 
1.8300231e+2, 2.506513e+2, -501266.06, -606828.3, -1924.4784, 0.022604015, 0.031385206, -501230.97, -17597.06, 0.0, 5.012231, 4.9443336 
1.8300053e+2, 2.55598e+2, -453328.25, -558553.25, -1802.0502, 0.018156143, 0.05080957, -453297.38, -18125.42, 0.0, 5.0117636, 4.944131 
1.8299922e+2, 2.6054e+2, -411283.97, -523011.97, -949.5913, 0.016374353, 0.067375496, -411275.88, -24528.602, 0.0, 5.011233, 4.939289 
1.8300393e+2, 2.6548046e+2, -357588.34, -456534.22, -942.052, 0.06689157, 0.005879568, -357579.38, -19276.084, 0.0, 5.0097723, 4.945464 
1.8301025e+2, 2.7042192e+2, -311617.72, -407532.28, -1909.2876, 0.13171126, -0.06862192, -311579.72, -21733.635, 0.0, 5.0081415, 4.9458857 
1.8301712e+2, 2.7536348e+2, -265586.47, -358741.75, -3090.4954, 0.20158438, -0.14979881, -265484.06, -24095.807, 0.0, 5.0064836, 4.94626 
1.8301651e+2, 2.803061e+2, -248995.25, -392469.4, -9949.346, 0.23936218, -0.06894715, -248308.6, -55380.926, 0.0, 5.007795, 4.9172106 
1.8300879e+2, 2.8523964e+2, -185149.6, -317562.28, -396.57462, 0.17867926, 0.044644177, -185148.4, -40553.66, 0.0, 5.009963, 4.924985 
1.8300518e+2, 2.9016653e+2, -134924.08, -266667.8, 620.8645, 0.11906124, 0.045123074, -134921.16, -38589.188, 0.0, 5.010203, 4.925179 
1.8300205e+2, 2.9509267e+2, -84638.79, -215854.56, 1450.7433, 0.06356833, 0.033746175, -84622.76, -36546.23, 0.0, 5.010379, 4.925373 
1.8299891e+2, 3.0003068e+2, -21792.523, -102892.2, 2247.0374, 0.0012353119, 0.0055704103, -21730.313, -21730.313, 0.0, 5.0106854, 4.95691 
1.8300034e+2, 3.0499128e+2, -7304.24, -69967.3, 2853.7349, -0.05991411, -0.096638836, -7174.547, -7174.547, 0.0, 5.0112195, 4.9674654 
1.8300474e+2, 3.0995932e+2, -4907.233, -65984.15, 3137.3862, -0.100295015, -0.18226133, -4746.495, -4746.495, 0.0, 5.0116444, 4.9685693 
1.830106e+2, 3.1493095e+2, -2314.9402, -62193.99, 3225.6504, -0.12676267, -0.24213788, -2141.6775, -2141.6775, 0.0, 5.011996, 4.9696746 
1.880293e+2, 1.2151164e+2, -1709001.9, -1745406.8, 400.4789, -0.017203897, -0.015668785, -1708997.4, 40181.84, 0.0, 5.014575, 4.9908524 
1.8803218e+2, 1.264984e+2, -1667848.6, -1712469.1, -76.38233, 0.008124998, -0.0072252518, -1667848.5, 32458.826, 0.0, 5.0146017, 4.985572 
1.880323e+2, 1.3148402e+2, -1618664.5, -1663376.5, -224.39665, 0.006685576, -0.007441996, -1618663.4, 32787.434, 0.0, 5.0146646, 4.985572 
1.8803243e+2, 1.3646962e+2, -1571691.0, -1618824.3, -372.6748, 0.0052434998, -0.0063888473, -1571688.0, 30906.488, 0.0, 5.0147276, 4.984068 
1.8803254e+2, 1.4145236e+2, -1529187.9, -1583397.0, -634.6336, 0.004374022, 0.008125339, -1529180.5, 24585.107, 0.0, 5.0147657, 4.979475 
1.8803258e+2, 1.4643197e+2, -1479874.9, -1533788.9, -662.44226, 0.0047171907, 0.0051585333, -1479866.8, 25099.12, 0.0, 5.0147614, 4.9796586 
1.8803261e+2, 1.514115e+2, -1430835.0, -1484741.1, -646.43195, 0.0050932807, 0.0012325178, -1430827.3, 25339.676, 0.0, 5.0147567, 4.9796586 
1.8803266e+2, 1.5639102e+2, -1383223.8, -1438670.6, -630.94666, 0.0054778564, -0.0022391498, -1383216.6, 24151.375, 0.0, 5.014751, 4.9786634 
1.880326e+2, 1.6136684e+2, -1342408.8, -1406692.8, -803.9039, 0.0058940887, 0.000031327596, -1342398.6, 16206.668, 0.0, 5.0147157, 4.9729667 
1.8803234e+2, 1.6633986e+2, -1293441.9, -1357417.4, -882.90515, 0.0064453078, -0.0027480847, -1293429.6, 16439.928, 0.0, 5.014616, 4.973065 
1.8803208e+2, 1.7131291e+2, -1244619.9, -1308438.9, -899.68414, 0.0070163603, -0.0053748926, -1244607.3, 16526.271, 0.0, 5.014514, 4.9730654 
1.8803181e+2, 1.7628598e+2, -1196932.6, -1261863.0, -916.85803, 0.007597194, -0.007604004, -1196919.8, 15477.603, 0.0, 5.0144114, 4.972258 
1.8803136e+2, 1.8125564e+2, -1156920.9, -1231620.5, -1386.2668, 0.008490576, 0.00010400892, -1156895.3, 6799.9116, 0.0, 5.014314, 4.965927 
1.8803039e+2, 1.862224e+2, -1107738.5, -1182060.9, -1538.8092, 0.009914779, 0.0044466844, -1107706.6, 7316.112, 0.0, 5.0142336, 4.9660873 
1.8802941e+2, 1.911892e+2, -1058774.5, -1132974.8, -1532.5314, 0.011345901, 0.008752075, -1058742.9, 7607.3877, 0.0, 5.0141535, 4.966088 
1.8802842e+2, 1.9615598e+2, -1010701.4, -1085804.0, -1526.5217, 0.01278613, 0.013380672, -1010670.4, 7007.3257, 0.0, 5.0140734, 4.965438 
1.8802728e+2, 2.0111886e+2, -970647.7, -1056002.8, -1323.8281, 0.01193697, 0.02206657, -970627.2, -1584.4982, 0.0, 5.0140066, 4.9588532 
1.8802577e+2, 2.0607732e+2, -921119.4, -1005952.2, -1165.6775, 0.0050454945, 0.012841704, -921103.4, -654.7718, 0.0, 5.0139623, 4.959138 
1.8802425e+2, 2.1103576e+2, -871978.75, -956738.4, -1078.566, -0.00215486, 0.0026911804, -871965.0, -110.14959, 0.0, 5.013918, 4.95914 
1.8802272e+2, 2.1599416e+2, -823503.94, -908979.4, -991.5444, -0.009337981, -0.007306424, -823492.44, -231.38791, 0.0, 5.0138736, 4.958642 
1.8802142e+2, 2.2094947e+2, -783040.3, -878722.06, -1413.618, -0.012261309, -0.0061873193, -783019.44, -8322.087, 0.0, 5.0138164, 4.952123 
1.8802084e+2, 2.2590238e+2, -733308.56, -827862.8, -1794.1038, -0.0016341174, -0.0070810723, -733274.5, -7118.564, 0.0, 5.013685, 4.952697 
1.8802033e+2, 2.3085535e+2, -684354.06, -778684.75, -1991.8401, 0.01005073, -0.008014757, -684312.0, -6698.414, 0.0, 5.013546, 4.9527035 
1.8801984e+2, 2.3580831e+2, -636047.94, -730951.94, -2194.27, 0.021825995, -0.00900731, -635997.2, -6925.9316, 0.0, 5.013406, 4.952208 
1.8801904e+2, 2.4075797e+2, -597846.5, -705190.1, -2341.663, 0.030148229, 0.00575036, -597795.44, -17230.375, 0.0, 5.013162, 4.9441166 
1.880168e+2, 2.4570379e+2, -549245.25, -655357.7, -2401.3838, 0.026056796, 0.016113339, -549190.94, -17082.791, 0.0, 5.0127077, 4.944444 
1.8801443e+2, 2.5064948e+2, -501066.03, -606505.4, -2276.2922, 0.020916415, 0.024523515, -501016.9, -17363.658, 0.0, 5.012245, 4.944445 
1.8801211e+2, 2.555953e+2, -453128.25, -558212.75, -2143.561, 0.015869202, 0.033860043, -453084.53, -17887.047, 0.0, 5.011777, 4.9442477 
1.880103e+2, 2.6053718e+2, -411191.78, -523113.84, -1613.3348, 0.014822493, 0.04777459, -411168.53, -24394.418, 0.0, 5.011265, 4.939258 
1.880138e+2, 2.654799e+2, -357695.66, -458123.78, -1612.6732, 0.061680704, 0.0128780445, -357669.78, -19351.48, 0.0, 5.009928, 4.9449058 
1.8801868e+2, 2.704235e+2, -311438.13, -409500.94, -2341.9094, 0.119774595, -0.033049315, -311382.22, -21531.123, 0.0, 5.0084295, 4.9451766 
1.8802406e+2, 2.753669e+2, -265119.16, -361089.53, -3285.0906, 0.18127212, -0.086618766, -265006.84, -23620.973, 0.0, 5.0069036, 4.9453998 
1.8802328e+2, 2.803103e+2, -248658.03, -391792.94, -8914.1455, 0.21373701, 0.008464357, -248105.02, -55178.95, 0.0, 5.007806, 4.917386 
1.8801728e+2, 2.8524172e+2, -184852.83, -314586.1, -564.4776, 0.16255847, 0.09129322, -184850.38, -40242.76, 0.0, 5.0095963, 4.9260426 
1.8801486e+2, 2.9016635e+2, -134624.44, -264154.38, 713.2688, 0.11185009, 0.05831517, -134620.5, -38261.508, 0.0, 5.0098667, 4.926112 
1.8801288e+2, 2.950902e+2, -84334.625, -213801.56, 1803.4126, 0.06334187, 0.014672744, -84309.51, -36191.688, 0.0, 5.010074, 4.926182 
1.8801124e+2, 3.0002734e+2, -20200.639, -98806.13, 3094.4888, 0.009764551, -0.033705156, -20079.006, -20079.006, 0.0, 5.0104756, 4.9584837 
1.8801516e+2, 3.0499485e+2, -4666.266, -65393.24, 4470.75, -0.03437133, -0.085008286, -4338.892, -4338.892, 0.0, 5.0112867, 4.969141 
1.880219e+2, 3.0997047e+2, -1341.6675, -60942.543, 5359.2017, -0.062138967, -0.11353971, -863.6124, -863.6124, 0.0, 5.0119805, 4.970274 
1.8802994e+2, 3.149491e+2, 2176.6875, -56685.36, 6052.3154, -0.08058097, -0.1235914, 2792.5552, 2792.5552, 0.0, 5.012601, 4.971409 
1.9304413e+2, 1.2151193e+2, -1708934.0, -1745272.5, 129.80942, -0.014913505, -0.010587132, -1708933.5, 40242.863, 0.0, 5.014576, 4.990896 
1.9304666e+2, 1.2649794e+2, -1668123.8, -1713033.0, -31.83336, 0.006787455, -0.008002312, -1668123.8, 32188.283, 0.0, 5.014602, 4.9853864 
1.9304693e+2, 1.3148344e+2, -1618938.6, -1663938.8, -177.75807, 0.0061440505, -0.007665275, -1618938.0, 32519.209, 0.0, 5.014665, 4.9853864 
1.930472e+2, 1.364689e+2, -1571964.3, -1619385.1, -323.9585, 0.005476893, -0.0060541346, -1571962.1, 30640.455, 0.0, 5.0147276, 4.983883 
1.9304733e+2, 1.4145155e+2, -1529221.1, -1583464.8, -631.869, 0.0046668933, 0.008733677, -1529213.8, 24560.889, 0.0, 5.0147657, 4.9794526 
1.9304723e+2, 1.4643112e+2, -1479844.0, -1533724.6, -666.423, 0.0035289947, 0.005249728, -1479835.8, 25139.182, 0.0, 5.014762, 4.9796796 
1.930471e+2, 1.5141062e+2, -1430803.9, -1484677.0, -649.6778, 0.0023613288, 0.0007649976, -1430796.1, 25379.725, 0.0, 5.0147567, 4.9796796 
1.9304699e+2, 1.5639012e+2, -1383192.6, -1438606.6, -633.4561, 0.0011945881, -0.00326674, -1383185.4, 24191.426, 0.0, 5.0147514, 4.9786844 
1.9304685e+2, 1.6136594e+2, -1342423.1, -1406722.6, -866.91077, 0.0012449725, -0.0010142525, -1342411.4, 16202.476, 0.0, 5.0147157, 4.9729567 
1.9304672e+2, 1.6633907e+2, -1293469.4, -1357475.4, -960.9412, 0.0040891482, -0.0025286363, -1293455.0, 16422.563, 0.0, 5.014616, 4.973046 
1.930466e+2, 1.7131223e+2, -1244646.9, -1308496.5, -976.6495, 0.007036908, -0.003841174, -1244631.9, 16508.844, 0.0, 5.014514, 4.973046 
1.9304647e+2, 1.762854e+2, -1196959.1, -1261920.4, -992.7393, 0.009978645, -0.004759829, -1196944.0, 15460.059, 0.0, 5.0144114, 4.972239 
1.9304606e+2, 1.812551e+2, -1156918.3, -1231613.1, -1454.2987, 0.012280262, 0.003437934, -1156890.0, 6811.661, 0.0, 5.014314, 4.96593 
1.9304493e+2, 1.8622172e+2, -1107723.6, -1182027.3, -1599.3206, 0.012873529, 0.006251712, -1107689.3, 7341.1626, 0.0, 5.014233, 4.966099 
1.9304378e+2, 1.9118835e+2, -1058759.0, -1132940.5, -1591.4967, 0.013362133, 0.008927984, -1058724.9, 7634.282, 0.0, 5.0141535, 4.9660993 
1.9304262e+2, 1.96155e+2, -1010685.06, -1085769.3, -1583.9324, 0.013842504, 0.011920435, -1010651.7, 7036.0337, 0.0, 5.0140734, 4.9654493 
1.9304132e+2, 2.0111778e+2, -970522.25, -1055732.1, -1362.5634, 0.012080531, 0.019264674, -970500.44, -1447.3809, 0.0, 5.0140066, 4.9589453 
1.930397e+2, 2.0607634e+2, -920967.7, -1005624.06, -1199.9465, 0.004545495, 0.009841714, -920950.7, -493.3933, 0.0, 5.0139623, 4.9592495 
1.9303808e+2, 2.1103486e+2, -871827.4, -956410.44, -1110.8329, -0.0032912495, -0.0004179346, -871812.8, 48.843906, 0.0, 5.0139184, 4.959252 
1.9303644e+2, 2.1599339e+2, -823353.0, -908651.56, -1021.80505, -0.01113127, -0.010534274, -823340.75, -74.75171, 0.0, 5.0138736, 4.9587545 
1.9303504e+2, 2.2094883e+2, -783220.94, -879107.2, -1487.5304, -0.014348265, -0.008310679, -783197.8, -8496.957, 0.0, 5.013815, 4.9519916 
1.930344e+2, 2.2590192e+2, -733625.9, -828564.25, -1881.8944, -0.0032251605, -0.0050652716, -733588.56, -7428.56, 0.0, 5.0136857, 4.952455 
1.9303381e+2, 2.3085509e+2, -684661.9, -779389.1, -2073.1587, 0.008909938, -0.0017588116, -684616.5, -6998.091, 0.0, 5.013549, 4.952459 
1.9303323e+2, 2.3580824e+2, -636346.3, -731659.44, -2269.1057, 0.021072784, 0.0014560883, -636292.3, -7215.379, 0.0, 5.013411, 4.9519615 
1.9303223e+2, 2.4075785e+2, -597879.25, -705365.25, -2619.8555, 0.029480277, 0.017973587, -597815.44, -17242.969, 0.0, 5.0131745, 4.9440536 
1.9302948e+2, 2.4570288e+2, -549054.3, -655043.7, -2771.4863, 0.024930855, 0.019569818, -548981.94, -16860.883, 0.0, 5.0127225, 4.944549 
1.9302659e+2, 2.506477e+2, -500875.06, -606173.75, -2636.1138, 0.019267295, 0.017858414, -500809.13, -17136.807, 0.0, 5.0122595, 4.9445553 
1.9302373e+2, 2.5559258e+2, -452937.28, -557863.44, -2493.0835, 0.013630393, 0.016836219, -452878.06, -17655.219, 0.0, 5.0117908, 4.944363 
1.930213e+2, 2.605341e+2, -411540.5, -524128.78, -2169.6165, 0.012089331, 0.028066197, -411498.72, -24695.94, 0.0, 5.011297, 4.9388785 
1.930238e+2, 2.6547888e+2, -357850.1, -459676.66, -2052.3284, 0.056207, 0.016118145, -357808.75, -19471.586, 0.0, 5.010084, 4.944285 
1.9302754e+2, 2.7042454e+2, -311305.16, -411432.34, -2543.2466, 0.10942764, -0.0057667084, -311240.6, -21379.234, 0.0, 5.008718, 4.9444046 
1.9303174e+2, 2.753697e+2, -264697.94, -363399.38, -3248.033, 0.1644019, -0.036259107, -264591.2, -23201.113, 0.0, 5.007324, 4.9444766 
1.930301e+2, 2.803147e+2, -250410.98, -395891.06, -8301.955, 0.18675965, 0.0892184, -249938.77, -57016.465, 0.0, 5.007818, 4.9158835 
1.9302513e+2, 2.8524473e+2, -184655.48, -311515.75, -488.70425, 0.1419921, 0.15281947, -184653.61, -40041.816, 0.0, 5.00923, 4.9270563 
1.9302404e+2, 2.9016688e+2, -134423.64, -261546.27, 1048.9768, 0.1022173, 0.0816503, -134415.0, -38035.973, 0.0, 5.0095315, 4.927001 
1.9302328e+2, 2.950883e+2, -84128.78, -211653.38, 2399.07, 0.06271731, 0.0010078661, -84083.67, -35929.867, 0.0, 5.0097694, 4.926946 
1.930231e+2, 3.000237e+2, -19854.303, -97301.766, 4059.9958, 0.017257227, -0.073198915, -19642.049, -19642.049, 0.0, 5.0102663, 4.9590607 
1.9302958e+2, 3.0499718e+2, -2143.2556, -60712.164, 6082.957, -0.014211379, -0.08536494, -1518.1525, -1518.1525, 0.0, 5.011354, 4.970692 
1.9303887e+2, 3.099798e+2, 2108.1838, -55794.563, 7575.3687, -0.032674078, -0.07089809, 3082.8564, 3082.8564, 0.0, 5.012317, 4.9718547 
1.9304928e+2, 3.149649e+2, 6551.3364, -51070.9, 8872.345, -0.046404887, -0.045234066, 7886.5117, 7886.5117, 0.0, 5.013207, 4.9730186 
1.9805893e+2, 1.2151221e+2, -1708902.4, -1745078.6, -231.95543, -0.012687018, -0.0054768724, -1708900.9, 40272.76, 0.0, 5.0145493, 4.9909725 
1.9806112e+2, 1.2649748e+2, -1668415.4, -1713597.5, -61.868332, 0.0054531586, -0.008759358, -1668415.3, 31901.414, 0.0, 5.014597, 4.9852033 
1.9806154e+2, 1.3148285e+2, -1619201.6, -1664489.0, -180.32986, 0.005599751, -0.007875366, -1619200.9, 32262.568, 0.0, 5.0146685, 4.985203 
1.9806196e+2, 1.3646819e+2, -1572214.0, -1619928.8, -300.44897, 0.0057116393, -0.005714155, -1572212.1, 30398.377, 0.0, 5.014735, 4.983699 
1.9806214e+2, 1.4145075e+2, -1529243.9, -1583535.5, -636.7052, 0.004974445, 0.009368865, -1529236.4, 24547.271, 0.0, 5.0147715, 4.979426 
1.9806187e+2, 1.4643028e+2, -1479820.3, -1533663.4, -675.2642, 0.002369662, 0.005363803, -1479811.8, 25172.098, 0.0, 5.0147595, 4.9797006 
1.9806159e+2, 1.5140975e+2, -1430809.3, -1484630.1, -655.652, -0.00032584462, 0.00030820674, -1430801.3, 25383.336, 0.0, 5.0147443, 4.9797006 
1.9806132e+2, 1.563892e+2, -1383232.4, -1438576.6, -636.65344, -0.0030252421, -0.0042952327, -1383225.1, 24160.424, 0.0, 5.0147276, 4.9787054 
1.9806111e+2, 1.6136503e+2, -1342534.3, -1406806.5, -929.28656, -0.0033396403, -0.0020307277, -1342520.9, 16101.527, 0.0, 5.014685, 4.9729433 
1.9806111e+2, 1.6633826e+2, -1293575.3, -1357571.0, -1041.5597, 0.001766899, -0.0022864288, -1293558.3, 16327.109, 0.0, 5.01459, 4.973026 
1.9806112e+2, 1.7131156e+2, -1244747.0, -1308589.4, -1060.7726, 0.0070659523, -0.002303761, -1244729.4, 16418.71, 0.0, 5.0144897, 4.9730263 
1.9806112e+2, 1.7628483e+2, -1197064.0, -1262015.4, -1080.7588, 0.012349495, -0.0019303728, -1197046.0, 15364.606, 0.0, 5.0143857, 4.972219 
1.9806077e+2, 1.8125457e+2, -1156992.4, -1231651.6, -1537.6053, 0.01605166, 0.006792495, -1156960.8, 6747.449, 0.0, 5.01429, 4.965928 
1.9805947e+2, 1.8622103e+2, -1107731.3, -1182003.5, -1673.17, 0.015812526, 0.008069844, -1107693.6, 7344.4473, 0.0, 5.0142255, 4.96611 
1.9805814e+2, 1.9118752e+2, -1058725.6, -1132896.9, -1663.0902, 0.015361256, 0.009091869, -1058688.4, 7679.5327, 0.0, 5.0141597, 4.9661107 
1.980568e+2, 1.9615401e+2, -1010620.8, -1085710.5, -1653.2965, 0.014890257, 0.0104249, -1010584.4, 7113.281, 0.0, 5.0140905, 4.965461 
1.9805536e+2, 2.0111671e+2, -970349.6, -1055454.1, -1413.1636, 0.012237333, 0.016508887, -970326.2, -1262.7571, 0.0, 5.0140266, 4.95903 
1.9805361e+2, 2.0607537e+2, -920796.8, -1005287.8, -1249.4231, 0.0040748524, 0.0068970867, -920778.4, -312.46054, 0.0, 5.01397, 4.9593606 
1.9805188e+2, 2.1103399e+2, -871711.1, -956100.7, -1165.7739, -0.0043755122, -0.0034993277, -871695.06, 173.36722, 0.0, 5.013907, 4.9593625 
1.9805014e+2, 2.159926e+2, -823307.06, -908375.2, -1085.1439, -0.012837494, -0.013755366, -823293.25, -22.318226, 0.0, 5.0138383, 4.958865 
1.9804867e+2, 2.2094819e+2, -783568.94, -879596.25, -1599.7725, -0.016337188, -0.0103250155, -783542.3, -8837.909, 0.0, 5.0137615, 4.951847 
1.9804794e+2, 2.2590147e+2, -734053.2, -829306.2, -1984.5773, -0.004720278, -0.0030276463, -734011.9, -7847.7793, 0.0, 5.0136476, 4.9522147 
1.9804728e+2, 2.3085481e+2, -685064.4, -780124.44, -2147.8728, 0.007879602, 0.004362637, -685015.9, -7392.576, 0.0, 5.0135193, 4.952217 
1.9804664e+2, 2.3580815e+2, -636754.6, -732402.06, -2312.9097, 0.020460976, 0.011639233, -636698.75, -7616.1177, 0.0, 5.013379, 4.951718 
1.9804546e+2, 2.4075778e+2, -598068.06, -705660.75, -2827.9214, 0.028923456, 0.030428432, -597993.75, -17414.277, 0.0, 5.0131507, 4.9439626 
1.980422e+2, 2.4570203e+2, -548780.9, -654671.4, -3058.5781, 0.023925865, 0.023415701, -548692.6, -16559.203, 0.0, 5.012775, 4.9446526 
1.9803879e+2, 2.5064597e+2, -500352.16, -605678.06, -2917.6802, 0.017786097, 0.011459739, -500271.38, -16580.541, 0.0, 5.012402, 4.944662 
1.980354e+2, 2.5558996e+2, -452141.2, -557234.06, -2791.3057, 0.011620491, 0.000037162343, -452067.13, -16819.479, 0.0, 5.0120325, 4.944473 
1.9803229e+2, 2.6053098e+2, -411511.75, -525559.06, -2501.3171, 0.008508156, 0.008614111, -411456.9, -24624.264, 0.0, 5.011612, 4.9381995 
1.9803402e+2, 2.6547757e+2, -358106.34, -460861.22, -1619.4269, 0.05144769, 0.015422328, -358080.8, -19721.771, 0.0, 5.0102034, 4.9437213 
1.9803695e+2, 2.7042523e+2, -313040.94, -413584.06, -959.6437, 0.102813795, 0.012994973, -313031.78, -23157.02, 0.0, 5.008343, 4.94374 
1.9804035e+2, 2.7537227e+2, -268709.9, -366847.38, -154.30414, 0.15479004, 0.0015651943, -268709.66, -27313.139, 0.0, 5.0061717, 4.9437103 
1.9803722e+2, 2.8032005e+2, -260374.13, -407355.47, -3632.3528, 0.16375607, 0.17386065, -260284.4, -67374.375, 0.0, 5.0056915, 4.912741 
1.980326e+2, 2.8524902e+2, -188019.8, -310455.22, 3348.324, 0.12067945, 0.22933042, -187928.3, -43325.605, 0.0, 5.0077066, 4.92785 
1.9803284e+2, 2.9016843e+2, -135783.73, -259895.97, 3832.676, 0.09226228, 0.11511778, -135665.48, -39276.313, 0.0, 5.0087395, 4.927721 
1.980334e+2, 2.9508704e+2, -84378.97, -209800.83, 4453.602, 0.062712274, -0.007457105, -84221.02, -36038.035, 0.0, 5.0093946, 4.9275923 
1.9803455e+2, 3.0001986e+2, -20999.676, -98329.94, 5781.8545, 0.024258155, -0.11339454, -20569.766, -20569.766, 0.0, 5.009988, 4.958702 
1.9804364e+2, 3.049983e+2, -2337.7651, -56836.703, 7958.2266, 0.001913948, -0.09774945, -1199.4386, -1199.4386, 0.0, 5.0105124, 4.9721932 
1.9805573e+2, 3.0998757e+2, -1486.5199, -53355.3, 9176.641, -0.008452943, -0.05179416, 89.14844, 89.14844, 0.0, 5.010198, 4.97335 
1.9806884e+2, 3.149789e+2, -2243.994, -50809.04, 9620.679, -0.017426176, 0.0002216424, -407.5892, -407.5892, 0.0, 5.009156, 4.9745064 
2.0307371e+2, 1.2151264e+2, -1708496.5, -1745061.5, -965.49335, -0.01127483, 0.007500401, -1708471.0, 40699.883, 0.0, 5.0147247, 4.99089 
2.030756e+2, 1.264959e+2, -1667752.1, -1713326.9, -608.4807, 0.0030765405, -0.0154234115, -1667744.0, 32589.586, 0.0, 5.0148306, 4.9851756 
2.030762e+2, 1.3148154e+2, -1618489.6, -1664199.9, -561.6948, 0.004239461, -0.011569979, -1618482.8, 32994.582, 0.0, 5.0149198, 4.985174 
2.030768e+2, 1.3646714e+2, -1571438.5, -1619613.8, -514.8384, 0.0054341517, -0.0064416407, -1571433.0, 31188.453, 0.0, 5.015009, 4.9836693 
2.0307711e+2, 1.4144987e+2, -1528385.5, -1583057.6, -800.63885, 0.005472743, 0.010562676, -1528373.8, 25418.719, 0.0, 5.0150456, 4.979451 
2.0307678e+2, 1.4642942e+2, -1479121.0, -1533233.8, -834.4224, 0.002893949, 0.006174715, -1479108.1, 25884.375, 0.0, 5.014975, 4.979739 
2.0307647e+2, 1.5140888e+2, -1430290.4, -1484289.5, -797.18304, 0.00021819388, 0.00065720483, -1430278.5, 25914.613, 0.0, 5.0149, 4.9797387 
2.0307614e+2, 1.5638834e+2, -1382887.0, -1438321.0, -760.45294, -0.0024439238, -0.0044041723, -1382876.5, 24517.387, 0.0, 5.0148253, 4.978744 
2.0307587e+2, 1.6136417e+2, -1342415.3, -1406818.5, -1080.2139, -0.0028305356, -0.0021870772, -1342397.1, 16233.585, 0.0, 5.01474, 4.9729133 
2.0307574e+2, 1.6633745e+2, -1293510.6, -1357660.3, -1238.7563, 0.0019210235, -0.0014995703, -1293486.8, 16406.967, 0.0, 5.0146375, 4.972974 
2.030756e+2, 1.7131078e+2, -1244690.3, -1308683.0, -1300.4358, 0.0068905577, -0.00052412733, -1244663.9, 16492.344, 0.0, 5.0145345, 4.972974 
2.0307548e+2, 1.762841e+2, -1197004.8, -1262108.5, -1362.6237, 0.011883199, 0.00084809883, -1196976.3, 15442.532, 0.0, 5.014431, 4.9721665 
2.0307499e+2, 1.8125382e+2, -1156758.3, -1231549.0, -1787.7218, 0.015231501, 0.009741049, -1156715.6, 7001.041, 0.0, 5.014371, 4.9659247 
2.0307365e+2, 1.8622014e+2, -1107175.8, -1181711.4, -1907.2927, 0.01449509, 0.009311291, -1107126.9, 7920.709, 0.0, 5.01441, 4.966122 
2.0307226e+2, 1.9118644e+2, -1057857.8, -1132455.5, -1901.5638, 0.013580813, 0.008570375, -1057809.4, 8569.301, 0.0, 5.0144525, 4.9661236 
2.030709e+2, 1.9615278e+2, -1009432.9, -1085117.4, -1896.1954, 0.012681756, 0.008155392, -1009385.44, 8324.139, 0.0, 5.0144944, 4.965474 
2.0306942e+2, 2.0111538e+2, -968942.06, -1054597.3, -1725.9254, 0.0101366425, 0.0130097745, -968907.25, 168.35008, 0.0, 5.014474, 4.9591136 
2.030677e+2, 2.0607418e+2, -919776.6, -1004594.8, -1608.0719, 0.0034822498, 0.0037664762, -919746.2, 730.19763, 0.0, 5.0142803, 4.959454 
2.0306599e+2, 2.1103294e+2, -871103.0, -955609.0, -1542.3896, -0.0033052573, -0.006105099, -871074.9, 802.1877, 0.0, 5.014076, 4.959454 
2.0306426e+2, 2.1599172e+2, -823092.1, -908074.6, -1477.2401, -0.01002349, -0.015788112, -823066.5, 211.20868, 0.0, 5.013872, 4.958955 
2.0306274e+2, 2.2094743e+2, -783838.94, -879977.6, -1952.2681, -0.012767862, -0.011157442, -783799.3, -9089.392, 0.0, 5.013719, 4.9517365 
2.0306171e+2, 2.259008e+2, -734201.5, -829812.44, -2320.1582, -0.0035107054, -0.0011071205, -734145.2, -7974.6543, 0.0, 5.0136876, 4.952022 
2.0306076e+2, 2.3085423e+2, -684919.1, -780480.9, -2491.7522, 0.0066045243, 0.009166486, -684854.2, -7223.397, 0.0, 5.013662, 4.9520288 
2.0305979e+2, 2.3580767e+2, -636287.2, -732597.4, -2667.386, 0.016788457, 0.019380111, -636213.3, -7122.277, 0.0, 5.013635, 4.9515333 
2.0305832e+2, 2.407572e+2, -596778.4, -704820.44, -3183.4187, 0.023324514, 0.03791501, -596684.6, -16094.88, 0.0, 5.0135784, 4.944051 
2.0305492e+2, 2.4570082e+2, -546215.6, -653073.6, -3355.0781, 0.018186204, 0.02292501, -546110.4, -13963.651, 0.0, 5.013625, 4.9448156 
2.0305136e+2, 2.5064415e+2, -496564.7, -603581.6, -3153.0464, 0.012183553, 0.003293358, -496471.84, -12765.192, 0.0, 5.0136976, 4.944807 
2.0304787e+2, 2.5558758e+2, -447164.84, -554658.94, -2946.5632, 0.0062370943, -0.015221842, -447084.13, -11818.54, 0.0, 5.0137653, 4.9446006 
2.0304452e+2, 2.605285e+2, -405930.72, -523720.8, -2939.717, 0.0028645697, -0.007369651, -405857.4, -19006.781, 0.0, 5.013786, 4.937864 
2.0304519e+2, 2.6547638e+2, -351381.9, -458120.84, -4537.069, 0.043603487, 0.016805945, -351189.38, -12815.46, 0.0, 5.0128694, 4.943413 
2.0304714e+2, 2.7042603e+2, -304009.66, -408698.75, -6854.378, 0.09519666, 0.0358289, -303562.78, -13681.837, 0.0, 5.0117755, 4.943772 
2.0304964e+2, 2.753757e+2, -256598.86, -359484.2, -9389.46, 0.1503349, 0.049165756, -255748.98, -14361.566, 0.0, 5.010651, 4.944084 
2.0304623e+2, 2.8032538e+2, -240504.16, -397043.38, -11083.104, 0.15647, 0.23294486, -239723.36, -46833.46, 0.0, 5.012514, 4.913523 
2.0304199e+2, 2.8525186e+2, -171702.0, -304899.3, -1816.7466, 0.10850407, 0.26513246, -171677.22, -27077.807, 0.0, 5.0135646, 4.927764 
2.0304255e+2, 2.9016867e+2, -126008.984, -256078.48, -274.58243, 0.08328499, 0.1288557, -126008.41, -29607.082, 0.0, 5.012203, 4.9279547 
2.0304357e+2, 2.9508495e+2, -80223.23, -207309.53, 984.9797, 0.059529442, -0.016674716, -80215.59, -32007.16, 0.0, 5.01077, 4.928146 
2.0304547e+2, 3.0001673e+2, -21618.441, -96198.61, 2432.779, 0.030170457, -0.13816784, -21539.17, -21539.17, 0.0, 5.009488, 4.9598126 
2.0305651e+2, 3.049986e+2, -8778.8545, -58663.37, 258.69235, 0.031334642, -0.08454539, -8777.513, -8777.513, 0.0, 5.008287, 4.9726996 
2.0307107e+2, 3.0999285e+2, -11010.231, -56729.004, -2640.1523, 0.05338008, 0.023151334, -10858.274, -10858.274, 0.0, 5.0068974, 4.973849 
2.03087e+2, 3.1499046e+2, -13005.652, -55032.855, -5417.621, 0.083217755, 0.15278548, -12318.515, -12318.515, 0.0, 5.0054255, 4.974999 
2.080885e+2, 1.2151314e+2, -1708763.1, -1745617.3, -801.9486, -0.010860732, 0.025606984, -1708745.6, 40422.605, 0.0, 5.014726, 4.990707 
2.0809011e+2, 1.2649359e+2, -1667646.9, -1713125.8, -544.58594, -0.00024862832, -0.025905564, -1667640.4, 32717.887, 0.0, 5.0148325, 4.9852414 
2.0809093e+2, 1.3147974e+2, -1618386.4, -1663997.9, -495.62448, 0.002252246, -0.017532602, -1618381.0, 33115.23, 0.0, 5.014921, 4.9852405 
2.0809175e+2, 1.3646586e+2, -1571337.0, -1619410.6, -446.6069, 0.0047544395, -0.007874655, -1571332.9, 31301.578, 0.0, 5.0150094, 4.983736 
2.080922e+2, 1.4144897e+2, -1528301.9, -1582883.9, -833.09515, 0.0059856246, 0.012116319, -1528289.1, 25512.197, 0.0, 5.0150456, 4.9795084 
2.0809191e+2, 1.4642853e+2, -1479048.8, -1533082.9, -891.1746, 0.0044423207, 0.0074379137, -1479034.1, 25967.004, 0.0, 5.0149746, 4.9797893 
2.0809163e+2, 1.5140799e+2, -1430218.4, -1484139.3, -853.2615, 0.0027942837, 0.0015216842, -1430204.9, 25996.758, 0.0, 5.0149, 4.9797893 
2.0809132e+2, 1.5638745e+2, -1382815.3, -1438171.4, -815.84454, 0.0011526825, -0.003940886, -1382803.3, 24599.035, 0.0, 5.0148253, 4.978794 
2.0809099e+2, 1.613633e+2, -1342478.3, -1406950.9, -1157.6708, 0.00085898145, -0.0018051516, -1342457.5, 16181.636, 0.0, 5.01474, 4.972869 
2.0809054e+2, 1.6633658e+2, -1293618.0, -1357887.1, -1318.3107, 0.003584357, -0.0003509685, -1293591.0, 16311.336, 0.0, 5.0146375, 4.972898 
2.080901e+2, 1.713099e+2, -1244796.8, -1308909.1, -1378.8945, 0.0064290226, 0.0014333896, -1244767.1, 16398.08, 0.0, 5.0145345, 4.972898 
2.0808966e+2, 1.7628324e+2, -1197110.4, -1262334.0, -1439.9738, 0.009279387, 0.0036127996, -1197078.5, 15349.539, 0.0, 5.0144315, 4.9720907 
2.0808896e+2, 1.812529e+2, -1156766.0, -1231565.6, -1780.8273, 0.011010964, 0.012452723, -1156723.6, 7002.8916, 0.0, 5.014371, 4.965919 
2.0808764e+2, 1.8621905e+2, -1107159.4, -1181677.3, -1873.4636, 0.010062983, 0.010199981, -1107112.3, 7946.435, 0.0, 5.01441, 4.966134 
2.0808627e+2, 1.9118518e+2, -1057840.9, -1132421.1, -1866.302, 0.008995098, 0.007581969, -1057794.3, 8596.678, 0.0, 5.0144525, 4.966135 
2.0808491e+2, 1.9615133e+2, -1009415.5, -1085082.5, -1859.5048, 0.007926833, 0.0052836905, -1009369.8, 8353.194, 0.0, 5.014495, 4.965486 
2.080835e+2, 2.0111388e+2, -968837.1, -1054365.0, -1830.0626, 0.006114495, 0.0089298, -968797.94, 291.4751, 0.0, 5.014473, 4.959193 
2.080819e+2, 2.0607282e+2, -919660.9, -1004338.2, -1763.9526, 0.002499324, 0.0004904492, -919624.1, 864.2693, 0.0, 5.014279, 4.9595428 
2.0808029e+2, 2.1103175e+2, -870986.0, -955352.0, -1696.1711, -0.0011634937, -0.008464813, -870951.94, 935.275, 0.0, 5.0140758, 4.9595428 
2.0807867e+2, 2.159907e+2, -822973.94, -907817.2, -1628.906, -0.0047853906, -0.017251845, -822942.7, 343.28836, 0.0, 5.013872, 4.9590435 
2.080771e+2, 2.2094657e+2, -783977.0, -880281.3, -2006.7067, -0.0063421065, -0.011477611, -783935.2, -9218.058, 0.0, 5.013719, 4.951633 
2.0807566e+2, 2.2589996e+2, -734451.44, -830385.25, -2324.548, -0.001299798, 0.0009297477, -734395.1, -8216.372, 0.0, 5.0136905, 4.9518256 
2.0807421e+2, 2.3085344e+2, -685156.7, -781051.4, -2489.2568, 0.0042096204, 0.01362614, -685092.1, -7451.948, 0.0, 5.013668, 4.951831 
2.0807278e+2, 2.358069e+2, -636512.5, -733165.7, -2658.0037, 0.00972268, 0.026190447, -636439.44, -7337.725, 0.0, 5.0136447, 4.9513345 
2.0807092e+2, 2.4075621e+2, -596493.1, -704335.06, -3182.9888, 0.012536073, 0.04318266, -596399.25, -15796.459, 0.0, 5.0136003, 4.9442096 
2.0806752e+2, 2.4569926e+2, -545859.6, -652425.6, -3335.0383, 0.007218805, 0.020247202, -545755.4, -13593.493, 0.0, 5.013646, 4.9450326 
2.0806402e+2, 2.50642e+2, -496229.72, -602936.0, -3125.1877, 0.0013310396, -0.007046151, -496138.28, -12414.926, 0.0, 5.013712, 4.9450274 
2.0806056e+2, 2.5558487e+2, -446850.84, -554015.6, -2910.8865, -0.004534526, -0.033243638, -446771.84, -11488.014, 0.0, 5.0137725, 4.9448237 
2.0805703e+2, 2.6052573e+2, -406866.7, -526077.25, -3089.8022, -0.009678564, -0.026060894, -406786.66, -19918.45, 0.0, 5.01381, 4.937063 
2.0805609e+2, 2.6547384e+2, -353308.47, -463851.7, -4679.6235, 0.017759977, 0.021276081, -353110.72, -14712.242, 0.0, 5.0130367, 4.941441 
2.0805615e+2, 2.704233e+2, -305520.72, -414639.1, -6771.8545, 0.052754495, 0.0633353, -305102.06, -15184.369, 0.0, 5.0120955, 4.9416814 
2.0805672e+2, 2.7537248e+2, -257694.44, -365635.22, -9082.132, 0.08937429, 0.09762149, -256935.61, -15496.245, 0.0, 5.0111237, 4.941875 
2.0805249e+2, 2.8032e+2, -237704.55, -389026.63, -10180.897, 0.07832291, 0.2628914, -237022.66, -44052.64, 0.0, 5.012318, 4.916322 
2.080494e+2, 2.8524578e+2, -172216.6, -300587.66, -3186.789, 0.04692807, 0.2674041, -172137.53, -27459.834, 0.0, 5.0128555, 4.9294367 
2.080508e+2, 2.9016322e+2, -126185.445, -252120.77, -1363.121, 0.043776356, 0.12721637, -126170.695, -29707.736, 0.0, 5.011626, 4.929488 
2.0805258e+2, 2.9507992e+2, -80061.39, -203705.4, 178.32082, 0.039669514, -0.023131898, -80061.13, -31805.848, 0.0, 5.0103235, 4.9295406 
2.0805536e+2, 3.0001318e+2, -21387.738, -93661.44, 2061.13, 0.028442508, -0.14268965, -21329.006, -21329.006, 0.0, 5.0091677, 4.9608016 
2.080675e+2, 3.049961e+2, -11952.08, -64516.21, 519.56757, 0.04917115, -0.055464152, -11946.945, -11946.945, 0.0, 5.0080295, 4.970762 
2.0808293e+2, 3.099904e+2, -13735.5, -61520.98, -1674.6995, 0.08647591, 0.08671303, -13676.88, -13676.88, 0.0, 5.006677, 4.972188 
2.0809954e+2, 3.1498805e+2, -15281.502, -58764.258, -3745.5652, 0.1263176, 0.24586259, -14961.221, -14961.221, 0.0, 5.005242, 4.973616 
2.1310332e+2, 1.2151363e+2, -1708974.0, -1746058.3, -636.35956, -0.010238887, 0.043545004, -1708963.1, 40202.695, 0.0, 5.014728, 4.9905615 
2.1310465e+2, 1.2649128e+2, -1667542.4, -1712924.1, -481.695, -0.0035546743, -0.03631409, -1667537.3, 32845.625, 0.0, 5.0148344, 4.9853067 
2.1310566e+2, 1.3147795e+2, -1618283.8, -1663795.3, -430.55804, 0.0002739625, -0.023449114, -1618279.8, 33235.332, 0.0, 5.0149226, 4.9853067 
2.1310669e+2, 1.364646e+2, -1571236.3, -1619207.0, -379.3796, 0.0040734694, -0.009289069, -1571233.3, 31414.162, 0.0, 5.0150104, 4.983803 
2.131073e+2, 1.4144807e+2, -1528223.5, -1582720.5, -866.28357, 0.006499621, 0.01368902, -1528209.8, 25600.53, 0.0, 5.0150456, 4.9795623 
2.1310705e+2, 1.4642763e+2, -1478976.9, -1532932.0, -947.8482, 0.0059958594, 0.00871367, -1478960.1, 26049.56, 0.0, 5.014974, 4.9798393 
2.1310678e+2, 1.5140712e+2, -1430146.6, -1483989.0, -909.26135, 0.0053763394, 0.0023861951, -1430131.4, 26078.83, 0.0, 5.0148997, 4.9798393 
2.1310653e+2, 1.5638658e+2, -1382743.8, -1438021.6, -871.1576, 0.0047560544, -0.0034900932, -1382730.1, 24680.611, 0.0, 5.0148253, 4.9788437 
2.131061e+2, 1.6136242e+2, -1342545.8, -1407092.0, -1235.1271, 0.0045517115, -0.0014077061, -1342522.1, 16125.347, 0.0, 5.01474, 4.972822 
2.1310535e+2, 1.6633572e+2, -1293725.9, -1358113.6, -1397.7589, 0.005251254, 0.00081226527, -1293695.5, 16215.514, 0.0, 5.0146375, 4.972822 
2.131046e+2, 1.7130905e+2, -1244903.6, -1309135.0, -1457.2474, 0.0059720646, 0.0033925097, -1244870.6, 16303.625, 0.0, 5.0145345, 4.972822 
2.1310383e+2, 1.7628238e+2, -1197216.3, -1262559.3, -1517.218, 0.0066811666, 0.006366075, -1197181.0, 15256.351, 0.0, 5.0144315, 4.972015 
2.131029e+2, 1.81252e+2, -1156777.6, -1231589.9, -1774.3824, 0.0067935376, 0.015187684, -1156735.5, 7000.9077, 0.0, 5.014371, 4.9659104 
2.131016e+2, 1.8621798e+2, -1107143.4, -1181642.9, -1839.628, 0.0056317966, 0.011104984, -1107098.0, 7971.807, 0.0, 5.01441, 4.966145 
2.1310028e+2, 1.9118392e+2, -1057824.4, -1132386.4, -1831.0337, 0.0044081383, 0.0065846345, -1057779.5, 8623.714, 0.0, 5.014453, 4.9661465 
2.1309896e+2, 1.961499e+2, -1009398.44, -1085047.4, -1822.8076, 0.0031685003, 0.0023778211, -1009354.56, 8381.924, 0.0, 5.0144954, 4.9654975 
2.1309759e+2, 2.0111236e+2, -968744.9, -1054159.3, -1936.7505, 0.0021191142, 0.00491191, -968700.94, 402.2473, 0.0, 5.014472, 4.959264 
2.1309608e+2, 2.0607147e+2, -919545.6, -1004081.1, -1919.7571, 0.0015547259, -0.0027084583, -919502.0, 998.3512, 0.0, 5.014278, 4.959631 
2.1309459e+2, 2.1103057e+2, -870869.56, -955094.6, -1849.8765, 0.0010144311, -0.01078165, -870828.94, 1068.3728, 0.0, 5.0140753, 4.9596314 
2.1309309e+2, 2.159897e+2, -822856.25, -907559.4, -1780.4956, 0.00048670333, -0.018706942, -822818.9, 475.37347, 0.0, 5.013872, 4.959132 
2.1309148e+2, 2.209457e+2, -784129.25, -880614.0, -2062.1035, 0.00007008439, -0.01177275, -784085.2, -9360.866, 0.0, 5.013719, 4.9515185 
2.1308957e+2, 2.2589915e+2, -734703.2, -830956.75, -2326.621, 0.0008884886, 0.0029029797, -734647.0, -8459.968, 0.0, 5.0136933, 4.951628 
2.1308768e+2, 2.3085263e+2, -685396.1, -781620.5, -2484.4438, 0.0017967003, 0.017894244, -685332.0, -7682.3286, 0.0, 5.0136743, 4.951632 
2.1308579e+2, 2.3580612e+2, -636739.56, -733732.56, -2646.3025, 0.0026434897, 0.03268132, -636667.44, -7554.9497, 0.0, 5.013654, 4.9511347 
2.1308355e+2, 2.4075526e+2, -596263.44, -703958.1, -3164.6213, 0.0017353941, 0.04887509, -596170.5, -15555.075, 0.0, 5.0136223, 4.9443293 
2.1308017e+2, 2.4569774e+2, -545511.6, -651770.0, -3317.1462, -0.003742558, 0.018256962, -545408.2, -13231.769, 0.0, 5.013667, 4.9452486 
2.130767e+2, 2.5063992e+2, -495902.78, -602282.75, -3099.4775, -0.009504321, -0.016911462, -495812.53, -12072.976, 0.0, 5.013726, 4.945246 
2.1307327e+2, 2.555822e+2, -446544.8, -553364.56, -2877.3594, -0.015277877, -0.051004566, -446467.34, -11165.682, 0.0, 5.0137796, 4.945046 
2.1306942e+2, 2.6052275e+2, -408141.3, -529110.1, -3157.2288, -0.023505706, -0.045250658, -408058.97, -21171.332, 0.0, 5.0138345, 4.935999 
2.1306702e+2, 2.654709e+2, -355287.84, -469544.5, -4633.044, -0.009222971, 0.021551061, -355100.28, -16673.283, 0.0, 5.013204, 4.939414 
2.130655e+2, 2.7042e+2, -307083.72, -420541.22, -6499.842, 0.010157138, 0.08263349, -306712.56, -16752.94, 0.0, 5.0124154, 4.939536 
2.130644e+2, 2.7536857e+2, -258841.14, -371747.8, -8584.955, 0.029242368, 0.13385597, -258192.11, -16694.41, 0.0, 5.0115967, 4.939611 
2.1305855e+2, 2.8031468e+2, -237001.72, -385806.56, -10344.966, -0.0007545948, 0.2961417, -236285.98, -43237.26, 0.0, 5.0121236, 4.917435 
2.1305603e+2, 2.8524038e+2, -172844.05, -296170.6, -4303.372, -0.016123736, 0.2835522, -172694.06, -27945.063, 0.0, 5.0121465, 4.931062 
2.1305852e+2, 2.9015827e+2, -126474.65, -248056.48, -2198.247, 0.0043397173, 0.13467097, -126434.914, -29915.563, 0.0, 5.011048, 4.930975 
2.1306132e+2, 2.9507524e+2, -80012.17, -199993.53, -374.95074, 0.021429684, -0.02527771, -80011.0, -31712.387, 0.0, 5.009877, 4.9308887 
2.13065e+2, 3.0000928e+2, -22217.828, -93227.33, 1596.5256, 0.02778044, -0.14832038, -22181.951, -22181.951, 0.0, 5.008847, 4.9609528 
2.1307774e+2, 3.0499235e+2, -15256.377, -70248.39, 429.82373, 0.060987234, -0.0406546, -15253.018, -15253.018, 0.0, 5.007772, 4.968671 
2.130936e+2, 3.0998608e+2, -16592.74, -66189.83, -1060.6659, 0.106105, 0.11967784, -16570.066, -16570.066, 0.0, 5.0064564, 4.9703746 
2.1311046e+2, 3.1498313e+2, -17690.541, -62370.266, -2426.2434, 0.14850643, 0.29201636, -17559.176, -17559.176, 0.0, 5.005059, 4.9720798 
2.1811815e+2, 1.2151405e+2, -1709205.5, -1746423.4, -542.8391, -0.009330599, 0.06105016, -1709197.6, 39966.395, 0.0, 5.0147076, 4.990451 
2.1811916e+2, 1.2648898e+2, -1667489.0, -1712736.0, -471.97495, -0.006759998, -0.046498727, -1667484.0, 32923.41, 0.0, 5.014819, 4.9853754 
2.181204e+2, 1.3147616e+2, -1618245.5, -1663615.3, -392.95087, -0.0016626859, -0.029229598, -1618242.1, 33291.71, 0.0, 5.014902, 4.985375 
2.1812163e+2, 1.3646331e+2, -1571238.3, -1619047.3, -317.6141, 0.0033934256, -0.010663516, -1571236.1, 31424.209, 0.0, 5.014976, 4.983871 
2.181224e+2, 1.4144714e+2, -1528282.5, -1582633.1, -893.5177, 0.007006021, 0.015253072, -1528267.8, 25551.342, 0.0, 5.0150013, 4.9796124 
2.1812218e+2, 1.4642674e+2, -1479002.8, -1532831.5, -1010.4464, 0.0075453855, 0.009984465, -1478983.8, 26034.564, 0.0, 5.0149417, 4.979888 
2.1812195e+2, 1.5140623e+2, -1430139.8, -1483872.8, -985.1877, 0.007957477, 0.0032472806, -1430121.8, 26096.941, 0.0, 5.0148787, 4.979888 
2.181217e+2, 1.563857e+2, -1382708.4, -1437891.8, -960.40295, 0.008364204, -0.003039463, -1382691.6, 24727.41, 0.0, 5.014814, 4.978893 
2.1812122e+2, 1.6136156e+2, -1342626.1, -1407245.0, -1352.9662, 0.00824992, -0.0009775602, -1342597.8, 16058.1, 0.0, 5.014737, 4.972772 
2.1812016e+2, 1.6633485e+2, -1293822.9, -1358332.5, -1507.9187, 0.0069264495, 0.0019865234, -1293787.6, 16132.114, 0.0, 5.0146413, 4.972747 
2.1811908e+2, 1.7130817e+2, -1244991.9, -1309349.1, -1555.6038, 0.005534502, 0.005327208, -1244954.3, 16228.96, 0.0, 5.014541, 4.972747 
2.1811801e+2, 1.7628153e+2, -1197306.6, -1262773.9, -1603.0631, 0.004121251, 0.009058608, -1197267.4, 15179.259, 0.0, 5.014437, 4.9719396 
2.1811686e+2, 1.8125108e+2, -1156799.6, -1231623.3, -1767.1508, 0.002628419, 0.017884796, -1156757.9, 6988.3994, 0.0, 5.014369, 4.9659 
2.1811557e+2, 1.8621689e+2, -1107183.5, -1181634.4, -1802.145, 0.0012513369, 0.01198768, -1107139.9, 7940.9663, 0.0, 5.014391, 4.9661565 
2.1811427e+2, 1.9118266e+2, -1057925.6, -1132407.0, -1791.5188, -0.00012188894, 0.0055672107, -1057882.5, 8532.87, 0.0, 5.014413, 4.966158 
2.1811298e+2, 1.9614847e+2, -1009573.2, -1085102.8, -1782.6296, -0.001517844, -0.0005427049, -1009531.2, 8218.739, 0.0, 5.01443, 4.9655085 
2.1811166e+2, 2.0111085e+2, -968897.8, -1054091.3, -2044.5631, -0.0017688248, 0.000997825, -968848.75, 268.15912, 0.0, 5.0143914, 4.9593244 
2.1811028e+2, 2.0607013e+2, -919599.4, -1003905.56, -2087.517, 0.00069093355, -0.005784202, -919547.75, 964.5491, 0.0, 5.0142193, 4.9597178 
2.1810889e+2, 2.1102943e+2, -870868.94, -954893.8, -2031.6511, 0.0032395378, -0.013002824, -870819.9, 1087.5062, 0.0, 5.014035, 4.959718 
2.1810749e+2, 2.1598871e+2, -822818.1, -907341.25, -1977.4547, 0.005781347, -0.020091401, -822771.94, 530.5383, 0.0, 5.0138454, 4.959219 
2.1810584e+2, 2.2094482e+2, -784340.9, -880990.56, -2165.7422, 0.006452361, -0.0119955465, -784292.4, -9560.85, 0.0, 5.0137024, 4.9513965 
2.181035e+2, 2.258983e+2, -734982.06, -831526.25, -2334.1062, 0.0030751827, 0.0047845584, -734925.7, -8730.36, 0.0, 5.013686, 4.9514337 
2.1810114e+2, 2.308518e+2, -685690.8, -782196.94, -2438.0754, -0.00053893786, 0.021876594, -685629.25, -7970.01, 0.0, 5.013661, 4.951438 
2.180988e+2, 2.3580532e+2, -637096.25, -734337.0, -2540.284, -0.0042442223, 0.03870465, -637029.94, -7906.5835, 0.0, 5.0136185, 4.95094 
2.1809626e+2, 2.4075437e+2, -596327.0, -703778.75, -2986.714, -0.008740026, 0.05482022, -596244.06, -15616.377, 0.0, 5.0135627, 4.9444137 
2.1809286e+2, 2.456963e+2, -545435.8, -651222.44, -3162.0527, -0.014239838, 0.016948989, -545341.4, -13151.219, 0.0, 5.0136023, 4.945462 
2.1808943e+2, 2.5063792e+2, -495845.56, -601746.94, -2968.3345, -0.01971226, -0.02602102, -495762.44, -12007.57, 0.0, 5.013658, 4.9454594 
2.1808605e+2, 2.5557968e+2, -446495.6, -552835.1, -2795.3643, -0.02519485, -0.06783675, -446422.16, -11103.732, 0.0, 5.0137134, 4.9452586 
2.180818e+2, 2.605197e+2, -410216.75, -532841.0, -3000.1675, -0.037373353, -0.06414835, -410143.38, -23235.486, 0.0, 5.013678, 4.934747 
2.180782e+2, 2.6546767e+2, -360008.2, -475868.38, -3263.4155, -0.034508012, 0.017344158, -359916.34, -21458.352, 0.0, 5.0123687, 4.937527 
2.1807542e+2, 2.704165e+2, -315065.25, -428443.75, -3193.6858, -0.027295852, 0.09249057, -314975.34, -24971.69, 0.0, 5.010409, 4.937609 
2.1807307e+2, 2.753646e+2, -271341.6, -381774.34, -2684.5825, -0.021495234, 0.15594473, -271276.38, -29719.738, 0.0, 5.0079637, 4.937643 
2.1806486e+2, 2.8031042e+2, -253438.53, -393968.13, -3649.8105, -0.06937408, 0.33009803, -253343.81, -60226.13, 0.0, 5.0065947, 4.916934 
2.1806222e+2, 2.852364e+2, -182940.0, -296587.78, 1165.0603, -0.07258453, 0.31179115, -182928.06, -38121.477, 0.0, 5.008204, 4.9324164 
2.1806595e+2, 2.9015434e+2, -131188.45, -246319.02, 1528.0424, -0.03026052, 0.15021154, -131168.17, -34602.48, 0.0, 5.009026, 4.932262 
2.1806996e+2, 2.9507115e+2, -81121.63, -196898.73, 2127.5222, 0.0073433984, -0.02403051, -81082.55, -32747.02, 0.0, 5.009153, 4.932107 
2.1807453e+2, 3.0000514e+2, -24048.334, -94505.15, 3012.644, 0.029848939, -0.15645829, -23919.752, -23919.752, 0.0, 5.008595, 4.960398 
2.1808748e+2, 3.0498767e+2, -22944.81, -76973.69, 2449.0283, 0.070834965, -0.040240884, -22834.027, -22834.027, 0.0, 5.006008, 4.966685 
2.1810345e+2, 3.099808e+2, -32163.531, -75384.58, 2067.6868, 0.12138612, 0.12704124, -32064.84, -32064.84, 0.0, 5.001735, 4.968676 
2.1812035e+2, 3.1497753e+2, -44711.156, -75556.11, 1485.6344, 0.16643254, 0.30516136, -44639.766, -44639.766, 0.0, 4.9960933, 4.9706683 
2.2313315e+2, 1.2151223e+2, -1708715.5, -1747233.3, -805.00183, -0.008421172, 0.059714336, -1708698.8, 40484.355, 0.0, 5.0151005, 4.9899893 
2.2313417e+2, 1.2648766e+2, -1666453.0, -1711779.5, -775.0573, -0.0061383974, -0.044143464, -1666439.8, 33982.28, 0.0, 5.015072, 4.9855633 
2.2313535e+2, 1.3147491e+2, -1617592.1, -1662861.5, -595.9929, -0.0017911585, -0.027886305, -1617584.3, 33962.62, 0.0, 5.0150304, 4.985559 
2.2313653e+2, 1.3646214e+2, -1570939.0, -1618481.4, -416.45575, 0.0026319535, -0.0103815645, -1570935.4, 31736.572, 0.0, 5.014989, 4.984051 
2.2313727e+2, 1.4144601e+2, -1528373.9, -1582652.4, -958.01733, 0.0061730896, 0.014940533, -1528357.0, 25472.844, 0.0, 5.014965, 4.979624 
2.2313713e+2, 1.4642565e+2, -1478945.9, -1532891.1, -1168.7833, 0.007590704, 0.0101797525, -1478920.6, 26108.559, 0.0, 5.014979, 4.979851 
2.2313696e+2, 1.5140514e+2, -1429850.4, -1483818.6, -1241.7362, 0.008923072, 0.0040007806, -1429821.9, 26407.71, 0.0, 5.014994, 4.9798503 
2.2313681e+2, 1.5638465e+2, -1382183.8, -1437723.3, -1315.3156, 0.01026522, -0.0017151184, -1382152.6, 25277.465, 0.0, 5.015009, 4.978855 
2.2313629e+2, 1.6136047e+2, -1341885.3, -1406922.6, -1792.5627, 0.0104118325, 0.00044042862, -1341835.9, 16831.256, 0.0, 5.014995, 4.9727564 
2.2313504e+2, 1.6633365e+2, -1293003.8, -1357960.4, -1889.0181, 0.007815248, 0.0024243356, -1292948.9, 16982.783, 0.0, 5.0149236, 4.972737 
2.2313374e+2, 1.7130686e+2, -1244095.4, -1308939.0, -1867.6074, 0.0051368563, 0.0047436133, -1244041.8, 17154.154, 0.0, 5.0148506, 4.9727373 
2.2313246e+2, 1.7628011e+2, -1196322.3, -1262321.1, -1846.7119, 0.0024837612, 0.00744958, -1196270.6, 16189.432, 0.0, 5.014777, 4.971931 
2.2313115e+2, 1.812496e+2, -1155822.6, -1231104.1, -1930.982, 0.00012562514, 0.015586078, -1155773.1, 7986.793, 0.0, 5.0146923, 4.965922 
2.2312981e+2, 1.8621546e+2, -1106575.6, -1181284.5, -1940.3717, -0.001296619, 0.009928697, -1106525.3, 8568.675, 0.0, 5.0145874, 4.966182 
2.2312847e+2, 1.9118129e+2, -1057690.4, -1132237.5, -1915.0356, -0.0026294277, 0.0038222393, -1057641.3, 8786.781, 0.0, 5.014482, 4.9661827 
2.2312713e+2, 1.9614714e+2, -1009695.3, -1085105.1, -1890.0292, -0.003931466, -0.0019492992, -1009647.94, 8113.929, 0.0, 5.0143766, 4.965533 
2.2312579e+2, 2.011096e+2, -969248.2, -1054266.9, -2214.403, -0.0036968028, 0.0002079661, -969190.56, -62.34231, 0.0, 5.0142717, 4.95932 
2.2312438e+2, 2.0606901e+2, -919758.94, -1004011.0, -2384.0168, 0.000110709196, -0.005318293, -919691.5, 831.2917, 0.0, 5.0141697, 4.959705 
2.2312301e+2, 2.110284e+2, -870793.4, -954890.1, -2446.131, 0.0040938105, -0.0112390295, -870722.3, 1194.8312, 0.0, 5.014067, 4.959705 
2.2312163e+2, 2.159878e+2, -822492.4, -907222.44, -2508.348, 0.008120916, -0.017016813, -822418.2, 893.2163, 0.0, 5.013965, 4.959205 
2.2311991e+2, 2.2094393e+2, -783717.4, -880677.6, -2619.0574, 0.009242026, -0.008914751, -783646.7, -8906.02, 0.0, 5.0139146, 4.951407 
2.2311738e+2, 2.2589707e+2, -734137.56, -831088.44, -2554.748, 0.0034422816, 0.004630974, -734070.3, -7863.1646, 0.0, 5.013975, 4.9514513 
2.2311482e+2, 2.3085028e+2, -684593.56, -781622.2, -2466.1511, -0.002534545, 0.018409207, -684530.94, -6857.2217, 0.0, 5.0140395, 4.9514613 
2.2311229e+2, 2.3580347e+2, -635701.5, -733606.2, -2381.492, -0.008375105, 0.031986844, -635643.6, -6503.213, 0.0, 5.0141025, 4.9509697 
2.2310966e+2, 2.4075238e+2, -594508.1, -702534.4, -2663.129, -0.013810396, 0.04583943, -594442.5, -13797.207, 0.0, 5.0141487, 4.944568 
2.2310658e+2, 2.4569482e+2, -543300.75, -649883.5, -2934.3428, -0.01699113, 0.011470215, -543220.06, -11018.978, 0.0, 5.0143104, 4.945598 
2.2310348e+2, 2.5063702e+2, -493362.22, -600326.9, -2831.041, -0.019682245, -0.026630757, -493287.34, -9529.524, 0.0, 5.0144978, 4.9455733 
2.2310045e+2, 2.555794e+2, -443675.78, -551341.7, -2721.1506, -0.022146245, -0.06292967, -443607.03, -8293.97, 0.0, 5.014682, 4.94535 
2.2309628e+2, 2.605198e+2, -406896.5, -531738.06, -2988.9182, -0.033439137, -0.056601603, -406825.0, -19926.748, 0.0, 5.014966, 4.934565 
2.2309174e+2, 2.6546645e+2, -353291.3, -472871.66, -4508.3125, -0.03563689, 0.01754302, -353121.56, -14657.817, 0.0, 5.014975, 4.937352 
2.230881e+2, 2.7041444e+2, -302683.97, -421341.63, -6430.1665, -0.029042179, 0.084916614, -302336.53, -12315.753, 0.0, 5.0148907, 4.9379625 
2.2308505e+2, 2.7536237e+2, -251996.52, -370109.4, -8576.977, -0.018719537, 0.14079247, -251376.92, -9798.667, 0.0, 5.0147867, 4.938526 
2.2307646e+2, 2.8030765e+2, -223504.1, -376404.44, -10791.361, -0.052693553, 0.28900537, -222746.22, -29599.252, 0.0, 5.0164847, 4.919173 
2.2307366e+2, 2.8523314e+2, -160935.72, -290176.7, -2966.596, -0.061470367, 0.27173054, -160867.67, -16028.328, 0.0, 5.0165534, 4.9318914 
2.2307725e+2, 2.901514e+2, -115849.06, -241159.63, -2252.3105, -0.027938168, 0.1277091, -115808.59, -19214.445, 0.0, 5.014873, 4.932159 
2.2308132e+2, 2.9506847e+2, -70628.39, -192224.34, -1749.7687, 0.007673732, -0.034392204, -70603.21, -22243.064, 0.0, 5.0131507, 4.932427 
2.2308588e+2, 3.000034e+2, -16989.59, -89458.625, -2142.7712, 0.036552515, -0.15459423, -16926.287, -16926.287, 0.0, 5.0113444, 4.9611487 
2.230979e+2, 3.0498716e+2, -15874.678, -73140.69, -5603.3867, 0.097690076, -0.013540535, -15331.547, -15331.547, 0.0, 5.00937, 4.966787 
2.2311331e+2, 3.099832e+2, -19046.8, -68307.75, -8420.157, 0.1839391, 0.20182112, -17647.307, -17647.307, 0.0, 5.0073857, 4.9691215 
2.2313024e+2, 3.1498533e+2, -21870.666, -63828.67, -11335.275, 0.2804911, 0.45402136, -19004.186, -19004.186, 0.0, 5.0053515, 4.9714594 
2.2814827e+2, 1.2150906e+2, -1709753.3, -1749372.6, -774.39484, -0.008543081, 0.046954036, -1709738.1, 39476.41, 0.0, 5.015105, 4.9892864 
2.2814952e+2, 1.2648696e+2, -1666081.3, -1711046.3, -811.44354, -0.0035490603, -0.033705227, -1666066.6, 34363.46, 0.0, 5.015075, 4.985804 
2.2815047e+2, 1.31474e+2, -1617225.4, -1662129.4, -629.6953, -0.00091461634, -0.022010684, -1617216.6, 34339.824, 0.0, 5.015033, 4.9858007 
2.2815144e+2, 1.3646102e+2, -1570577.3, -1617749.8, -447.45087, 0.0017659953, -0.0090488065, -1570573.0, 32110.02, 0.0, 5.01499, 4.9842935 
2.2815207e+2, 1.4144474e+2, -1528395.0, -1582696.6, -957.0718, 0.004369149, 0.013498901, -1528378.1, 25463.77, 0.0, 5.014965, 4.9796095 
2.28152e+2, 1.4642438e+2, -1479080.0, -1533168.1, -1157.6194, 0.006543524, 0.00975177, -1479055.3, 25986.313, 0.0, 5.014979, 4.979759 
2.2815195e+2, 1.514039e+2, -1429983.4, -1484094.6, -1229.9487, 0.008679657, 0.0047146664, -1429955.5, 26286.693, 0.0, 5.014994, 4.9797587 
2.2815187e+2, 1.5638342e+2, -1382315.8, -1437998.4, -1302.9039, 0.010820473, 0.00013889177, -1382285.3, 25157.66, 0.0, 5.015009, 4.978764 
2.2815138e+2, 1.6135922e+2, -1341877.8, -1406907.3, -1836.75, 0.011312113, 0.002418321, -1341826.0, 16854.45, 0.0, 5.014995, 4.9727616 
2.2814998e+2, 1.6633222e+2, -1292960.6, -1357870.8, -1945.1459, 0.008012016, 0.0023236705, -1292902.4, 17043.543, 0.0, 5.014924, 4.972767 
2.2814855e+2, 1.7130525e+2, -1244052.4, -1308850.0, -1922.6633, 0.004576098, 0.0024891968, -1243995.4, 17215.646, 0.0, 5.0148506, 4.9727674 
2.281471e+2, 1.762783e+2, -1196279.4, -1262232.6, -1900.6863, 0.0011530995, 0.0030409126, -1196224.6, 16251.609, 0.0, 5.0147777, 4.9719605 
2.2814567e+2, 1.8124773e+2, -1155768.1, -1230988.9, -2007.7185, -0.0016942262, 0.010101452, -1155714.5, 8061.86, 0.0, 5.0146923, 4.965961 
2.2814423e+2, 1.8621376e+2, -1106525.1, -1181178.0, -2019.9749, -0.0030327213, 0.006032559, -1106470.5, 8638.259, 0.0, 5.0145874, 4.966219 
2.281428e+2, 1.9117981e+2, -1057639.6, -1132131.0, -1993.3895, -0.0042821458, 0.0016358725, -1057586.4, 8854.676, 0.0, 5.014482, 4.9662194 
2.2814135e+2, 1.9614588e+2, -1009644.44, -1084998.6, -1967.1224, -0.0055152243, -0.0024292488, -1009593.1, 8180.0903, 0.0, 5.014377, 4.9655695 
2.2813992e+2, 2.011085e+2, -969312.2, -1054402.9, -2295.6968, -0.005127013, 0.0013244707, -969250.25, -111.96655, 0.0, 5.0142717, 4.9592743 
2.2813848e+2, 2.0606796e+2, -919863.56, -1004234.7, -2462.4585, -0.0008108981, -0.0026630037, -919791.75, 741.0024, 0.0, 5.014169, 4.959629 
2.2813706e+2, 2.1102744e+2, -870896.56, -955111.75, -2522.6587, 0.0036929755, -0.00703096, -870821.06, 1105.9335, 0.0, 5.014067, 4.9596295 
2.2813562e+2, 2.1598694e+2, -822594.1, -907442.06, -2582.953, 0.008219439, -0.011267398, -822515.56, 805.6428, 0.0, 5.0139647, 4.95913 
2.2813386e+2, 2.2094296e+2, -783604.0, -880438.5, -2598.5625, 0.0093537625, -0.0038739329, -783534.3, -8782.9, 0.0, 5.0139155, 4.9514894 
2.2813123e+2, 2.2589558e+2, -733957.94, -830725.44, -2495.6301, 0.0021254462, 0.0031734733, -733893.6, -7672.0347, 0.0, 5.013979, 4.9515777 
2.2812861e+2, 2.3084822e+2, -684410.3, -781266.2, -2400.0415, -0.005411618, 0.010148325, -684350.9, -6658.858, 0.0, 5.014045, 4.9515853 
2.2812599e+2, 2.3580085e+2, -635514.56, -733257.0, -2308.3948, -0.012861619, 0.01689329, -635460.06, -6297.4814, 0.0, 5.01411, 4.951092 
2.2812343e+2, 2.4074954e+2, -594274.2, -702153.75, -2552.466, -0.018880298, 0.027336642, -594213.8, -13545.693, 0.0, 5.014165, 4.9447 
2.2812073e+2, 2.4569307e+2, -543106.6, -649613.9, -2803.5754, -0.019411035, 0.003008874, -543032.9, -10820.557, 0.0, 5.014329, 4.945693 
2.2811803e+2, 2.506365e+2, -493170.84, -600043.8, -2691.1506, -0.019270275, -0.023892976, -493103.13, -9346.597, 0.0, 5.014515, 4.945673 
2.2811538e+2, 2.5558007e+2, -443487.22, -551045.2, -2572.1426, -0.018954914, -0.049175747, -443425.75, -8126.396, 0.0, 5.014697, 4.9454546 
2.2811133e+2, 2.605209e+2, -407355.7, -533127.7, -2819.374, -0.03133104, -0.038462926, -407292.53, -20413.535, 0.0, 5.015004, 4.9341087 
2.2810544e+2, 2.6546457e+2, -354520.16, -477152.16, -4072.8926, -0.054225057, 0.02171185, -354385.03, -15912.93, 0.0, 5.0151563, 4.935909 
2.2810027e+2, 2.7040893e+2, -303530.38, -425901.47, -5683.5273, -0.07173315, 0.07272111, -303267.0, -13204.049, 0.0, 5.015222, 4.936386 
2.2809562e+2, 2.7535293e+2, -252460.69, -374949.25, -7519.6523, -0.08669896, 0.11065426, -252000.78, -10343.795, 0.0, 5.0152674, 4.9368157 
2.2808653e+2, 2.802942e+2, -221290.02, -370922.16, -12694.538, -0.12225235, 0.2225986, -220220.67, -26956.174, 0.0, 5.0164375, 4.921063 
2.2808439e+2, 2.852215e+2, -161757.1, -288483.16, -5330.802, -0.106917456, 0.210987, -161533.25, -16589.738, 0.0, 5.0160537, 4.932569 
2.2808813e+2, 2.9014298e+2, -116509.13, -239821.66, -4317.141, -0.06122232, 0.09654032, -116358.17, -19687.129, 0.0, 5.0144467, 4.9327197 
2.2809228e+2, 2.9506323e+2, -71126.04, -191241.36, -3515.1604, -0.014881713, -0.03587933, -71023.26, -22612.63, 0.0, 5.0127974, 4.932871 
2.2809666e+2, 3.0000106e+2, -18002.098, -90862.71, -3848.05, 0.023713483, -0.12845267, -17799.432, -17799.432, 0.0, 5.011117, 4.9606986 
2.2810654e+2, 3.049833e+2, -18152.781, -79034.73, -6497.718, 0.082617305, 0.018279495, -17467.025, -17467.025, 0.0, 5.009357, 4.9646835 
2.2811937e+2, 3.0997643e+2, -20586.127, -73596.484, -8442.72, 0.16061555, 0.23068877, -19273.973, -19273.973, 0.0, 5.007557, 4.9671135 
2.2813359e+2, 3.1497538e+2, -22667.705, -68514.77, -10485.411, 0.24577147, 0.47382444, -20383.457, -20383.457, 0.0, 5.005707, 4.969546 
2.3316339e+2, 1.2150587e+2, -1710747.1, -1751421.3, -744.1447, -0.008540098, 0.034028854, -1710733.5, 38512.688, 0.0, 5.0151086, 4.988613 
2.3316486e+2, 1.2648626e+2, -1665710.3, -1710312.6, -849.17017, -0.0009401183, -0.023143083, -1665694.0, 34743.938, 0.0, 5.0150785, 4.9860444 
2.331656e+2, 1.3147308e+2, -1616859.5, -1661396.8, -664.7386, -0.00002751841, -0.016055414, -1616849.6, 34716.313, 0.0, 5.015035, 4.9860415 
2.3316635e+2, 1.3645987e+2, -1570216.1, -1617017.8, -479.7874, 0.00090154324, -0.0076806587, -1570211.3, 32482.744, 0.0, 5.0149913, 4.9845347 
2.3316686e+2, 1.4144348e+2, -1528421.3, -1582751.1, -956.9126, 0.0025656477, 0.012082573, -1528404.5, 25449.55, 0.0, 5.014965, 4.979592 
2.3316689e+2, 1.4642313e+2, -1479214.1, -1533445.3, -1146.4398, 0.005498702, 0.00934347, -1479190.0, 25863.879, 0.0, 5.014979, 4.979667 
2.3316692e+2, 1.5140268e+2, -1430116.6, -1484370.6, -1218.1458, 0.008438389, 0.005436298, -1430089.3, 26165.496, 0.0, 5.0149937, 4.979667 
2.3316695e+2, 1.5638222e+2, -1382447.9, -1438273.5, -1290.4767, 0.0113776615, 0.0019887122, -1382418.0, 25037.682, 0.0, 5.015009, 4.978672 
2.3316647e+2, 1.6135795e+2, -1341874.6, -1406900.4, -1880.8569, 0.012216294, 0.004414441, -1341820.4, 16873.377, 0.0, 5.014995, 4.972764 
2.3316494e+2, 1.6633078e+2, -1292917.8, -1357781.0, -2001.1294, 0.008214742, 0.0022349101, -1292856.0, 17104.11, 0.0, 5.014924, 4.9727964 
2.3316334e+2, 1.7130363e+2, -1244009.8, -1308760.8, -1977.5748, 0.0040223533, 0.00022903079, -1243949.4, 17276.947, 0.0, 5.014851, 4.972797 
2.3316176e+2, 1.7627649e+2, -1196236.8, -1262143.9, -1954.5162, -0.00016949394, -0.0013911572, -1196178.9, 16313.6, 0.0, 5.0147777, 4.97199 
2.3316018e+2, 1.8124585e+2, -1155719.6, -1230886.3, -2084.9858, -0.0035035354, 0.004642057, -1155661.9, 8130.871, 0.0, 5.0146923, 4.965996 
2.3315865e+2, 1.8621208e+2, -1106474.9, -1181071.3, -2099.5977, -0.004759361, 0.0021643853, -1106415.8, 8707.649, 0.0, 5.0145874, 4.966255 
2.3315711e+2, 1.9117834e+2, -1057589.3, -1132024.3, -2071.763, -0.0059278323, -0.0005432244, -1057531.6, 8922.38, 0.0, 5.0144825, 4.9662557 
2.3315558e+2, 1.961446e+2, -1009593.9, -1084891.9, -2044.2355, -0.007094382, -0.0029226216, -1009538.44, 8246.063, 0.0, 5.014377, 4.9656057 
2.3315406e+2, 2.011074e+2, -969385.7, -1054558.8, -2378.2139, -0.006553349, 0.0024897086, -969319.3, -170.94475, 0.0, 5.0142713, 4.959221 
2.3315257e+2, 2.0606694e+2, -919968.7, -1004458.2, -2541.2485, -0.0017285196, 0.00004036742, -919892.3, 650.4076, 0.0, 5.0141687, 4.959553 
2.3315108e+2, 2.110265e+2, -871000.2, -955333.1, -2599.5342, 0.0032944134, -0.0028106729, -870920.1, 1016.74036, 0.0, 5.0140667, 4.9595532 
2.331496e+2, 2.1598607e+2, -822696.25, -907661.44, -2657.9055, 0.008318519, -0.0055416273, -822613.2, 717.7828, 0.0, 5.013964, 4.9590545 
2.3314779e+2, 2.20942e+2, -783504.94, -880229.0, -2575.8955, 0.0094548715, 0.0011860592, -783436.4, -8674.204, 0.0, 5.013917, 4.951561 
2.3314512e+2, 2.258941e+2, -733779.7, -830361.5, -2432.6235, 0.0008397182, 0.0016354119, -733718.5, -7482.4185, 0.0, 5.0139823, 4.9517026 
2.331424e+2, 2.3084615e+2, -684228.44, -780909.1, -2330.045, -0.008213853, 0.0016550063, -684172.3, -6461.918, 0.0, 5.0140505, 4.951708 
2.3313974e+2, 2.3579821e+2, -635329.06, -732906.8, -2231.4114, -0.017229572, 0.0014154383, -635278.06, -6093.081, 0.0, 5.0141177, 4.951212 
2.3313722e+2, 2.4074675e+2, -594113.75, -701926.44, -2434.8228, -0.023854906, 0.009394723, -594058.8, -13368.362, 0.0, 5.0141807, 4.944777 
2.331349e+2, 2.4569139e+2, -542918.2, -649338.9, -2678.3567, -0.021755587, -0.004583444, -542850.8, -10627.947, 0.0, 5.0143476, 4.9457865 
2.3313262e+2, 2.50636e+2, -492985.16, -599755.4, -2556.8074, -0.018789144, -0.020574242, -492923.97, -9169.286, 0.0, 5.0145316, 4.945771 
2.3313037e+2, 2.5558072e+2, -443304.34, -550743.3, -2428.68, -0.015700627, -0.03512902, -443249.47, -7964.244, 0.0, 5.014713, 4.945558 
2.331263e+2, 2.6052174e+2, -408252.03, -535447.9, -2554.6804, -0.030188834, -0.021145258, -408200.75, -21338.316, 0.0, 5.015042, 4.933289 
2.3311926e+2, 2.654621e+2, -355787.47, -481413.88, -3421.4375, -0.07324773, 0.01879218, -355694.34, -17208.043, 0.0, 5.015337, 4.934369 
2.3311284e+2, 2.704026e+2, -304414.0, -430442.13, -4720.813, -0.113641046, 0.046548173, -304237.4, -14124.381, 0.0, 5.015553, 4.934713 
2.331069e+2, 2.753425e+2, -252960.83, -379769.53, -6246.1816, -0.1526784, 0.05965363, -252653.9, -10908.2, 0.0, 5.0157485, 4.9350095 
2.3309654e+2, 2.80281e+2, -222695.02, -373791.75, -15349.272, -0.19300899, 0.16104683, -221151.52, -27771.76, 0.0, 5.016393, 4.920011 
2.3309444e+2, 2.8521103e+2, -162646.5, -286729.7, -7471.5225, -0.15543202, 0.17414956, -162198.23, -17162.305, 0.0, 5.015554, 4.9331775 
2.3309848e+2, 2.9013556e+2, -117236.64, -238422.75, -6158.2207, -0.09608599, 0.0828527, -116924.51, -20186.246, 0.0, 5.0140204, 4.933212 
2.331029e+2, 2.9505876e+2, -71690.58, -190196.39, -5056.505, -0.037528366, -0.026310671, -71475.22, -23021.709, 0.0, 5.012444, 4.9332457 
2.3310705e+2, 2.99998e+2, -20082.521, -94549.25, -5474.936, 0.009709696, -0.10529774, -19682.146, -19657.244, 0.0, 5.0108905, 4.9593444 
2.3311464e+2, 3.0497688e+2, -20506.074, -84862.086, -7491.6416, 0.06117049, 0.021351803, -19645.484, -19645.484, 0.0, 5.0093455, 4.962351 
2.331249e+2, 3.0996624e+2, -22200.486, -78815.23, -8563.418, 0.12649816, 0.20678928, -20933.555, -20933.555, 0.0, 5.0077295, 4.9648757 
2.3313642e+2, 3.1496102e+2, -23540.285, -73127.29, -9732.478, 0.1958316, 0.41682625, -21698.494, -21698.494, 0.0, 5.0060635, 4.967403 
2.3817854e+2, 1.2150266e+2, -1711770.0, -1753394.9, -564.09827, -0.008320491, 0.020894628, -1711762.4, 37515.805, 0.0, 5.015086, 4.9879766 
2.3818022e+2, 1.2648557e+2, -1665359.3, -1709594.9, -774.47, 0.0016828894, -0.012534444, -1665345.8, 35100.14, 0.0, 5.0150785, 4.9862804 
2.3818074e+2, 1.3147217e+2, -1616469.3, -1660659.4, -637.91547, 0.000863967, -0.010054561, -1616460.0, 35115.277, 0.0, 5.0150485, 4.986278 
2.3818126e+2, 1.3645874e+2, -1569817.5, -1616275.4, -500.48904, 0.000046069043, -0.0062794136, -1569812.1, 32892.79, 0.0, 5.0150075, 4.984772 
2.3818164e+2, 1.414422e+2, -1528422.8, -1582802.1, -977.3912, 0.00078165863, 0.010699748, -1528405.1, 25460.896, 0.0, 5.0149755, 4.97957 
2.3818177e+2, 1.4642188e+2, -1479335.6, -1533715.1, -1153.8136, 0.004459693, 0.008949786, -1479311.1, 25755.03, 0.0, 5.014983, 4.9795756 
2.3818189e+2, 1.5140143e+2, -1430259.4, -1484650.8, -1223.0371, 0.008188557, 0.0061463974, -1430231.9, 26035.447, 0.0, 5.014991, 4.9795756 
2.3818201e+2, 1.56381e+2, -1382616.4, -1438565.6, -1293.2424, 0.011914306, 0.0038004806, -1382586.5, 24882.094, 0.0, 5.0149965, 4.9785805 
2.3818155e+2, 1.613567e+2, -1341925.9, -1406924.9, -1935.8002, 0.01309797, 0.0063903932, -1341868.3, 16838.78, 0.0, 5.014978, 4.9727635 
2.3817988e+2, 1.6632934e+2, -1292909.6, -1357706.3, -2062.0266, 0.008410282, 0.0021433837, -1292844.0, 17130.387, 0.0, 5.014912, 4.972827 
2.3817815e+2, 1.7130202e+2, -1243993.6, -1308682.6, -2032.2089, 0.003481679, -0.0020247304, -1243929.8, 17311.71, 0.0, 5.014842, 4.972827 
2.3817642e+2, 1.7627469e+2, -1196221.3, -1262066.3, -2003.2131, -0.0014534782, -0.0058059026, -1196160.4, 16348.255, 0.0, 5.0147686, 4.97202 
2.381747e+2, 1.8124397e+2, -1155713.0, -1230813.3, -2156.4639, -0.005253205, -0.00073639816, -1155651.1, 8157.96, 0.0, 5.0146804, 4.966026 
2.3817308e+2, 1.8621041e+2, -1106474.0, -1180988.9, -2182.5125, -0.0064278077, -0.0016360659, -1106410.1, 8728.055, 0.0, 5.014571, 4.9662905 
2.3817144e+2, 1.9117686e+2, -1057611.9, -1131953.4, -2164.2751, -0.0075112283, -0.0026937085, -1057548.9, 8918.122, 0.0, 5.014458, 4.966291 
2.3816982e+2, 1.9614331e+2, -1009650.7, -1084837.3, -2146.937, -0.00859942, -0.0034281474, -1009589.44, 8206.374, 0.0, 5.014341, 4.965641 
2.381682e+2, 2.0110628e+2, -969597.8, -1054794.3, -2491.0898, -0.0079003805, 0.0036846444, -969525.0, -366.56525, 0.0, 5.0142264, 4.9591618 
2.3816666e+2, 2.0606592e+2, -920195.94, -1004737.2, -2641.8525, -0.0025925727, 0.0027685747, -920113.44, 439.221, 0.0, 5.014126, 4.9594765 
2.3816511e+2, 2.1102554e+2, -871232.44, -955613.0, -2691.699, 0.0029308589, 0.0013999316, -871146.6, 800.06244, 0.0, 5.0140214, 4.9594774 
2.3816359e+2, 2.1598518e+2, -822947.94, -907948.7, -2742.4932, 0.008444827, 0.00014369657, -822859.56, 481.21234, 0.0, 5.013912, 4.9589787 
2.3816171e+2, 2.2094104e+2, -783601.9, -880129.2, -2551.917, 0.009580033, 0.00625668, -783534.44, -8761.478, 0.0, 5.013854, 4.9516234 
2.3815899e+2, 2.2589257e+2, -733832.1, -830095.4, -2355.8965, -0.0003521019, 0.00003460337, -733774.5, -7523.948, 0.0, 5.0139055, 4.951828 
2.3815623e+2, 2.3084408e+2, -684370.94, -780689.75, -2233.8777, -0.0108245, -0.0070030987, -684319.1, -6590.315, 0.0, 5.0139427, 4.9518323 
2.3815349e+2, 2.3579554e+2, -635609.75, -732755.5, -2113.3242, -0.021282306, -0.014306825, -635563.75, -6356.476, 0.0, 5.013962, 4.9513345 
2.3815104e+2, 2.4074402e+2, -594656.25, -702119.0, -2252.2148, -0.028449979, -0.0078122797, -594609.06, -13897.002, 0.0, 5.013976, 4.9448047 
2.3814912e+2, 2.4568981e+2, -543377.94, -649333.6, -2488.7163, -0.023708174, -0.011176087, -543319.5, -11087.012, 0.0, 5.014141, 4.945882 
2.3814723e+2, 2.506356e+2, -493394.9, -599713.5, -2355.2588, -0.0178936, -0.016569598, -493342.75, -9590.659, 0.0, 5.0143423, 4.9458714 
2.3814538e+2, 2.5558147e+2, -443620.7, -550644.9, -2221.3496, -0.012007414, -0.020696951, -443574.6, -8304.072, 0.0, 5.014556, 4.945662 
2.3814125e+2, 2.6052234e+2, -410259.63, -538795.7, -1994.2119, -0.02930023, -0.004603074, -410228.72, -23380.498, 0.0, 5.014817, 4.932185 
2.3813334e+2, 2.654592e+2, -360424.06, -486668.8, -1644.1085, -0.0901042, 0.009171305, -360402.66, -21898.031, 0.0, 5.0142965, 4.932899 
2.3812604e+2, 2.7039593e+2, -313142.8, -437752.63, -1625.2454, -0.14910416, 0.0082508, -313121.63, -22955.188, 0.0, 5.0130634, 4.9331613 
2.3811923e+2, 2.7533194e+2, -267387.78, -389816.53, -1583.452, -0.20685534, -0.0077624507, -267367.3, -25531.83, 0.0, 5.0112286, 4.933376 
2.3810701e+2, 2.802693e+2, -245437.63, -392879.1, -13945.021, -0.2517568, 0.110791415, -244130.3, -50650.14, 0.0, 5.009988, 4.916048 
2.3810422e+2, 2.8520268e+2, -174066.92, -290364.22, -5369.4497, -0.19799273, 0.165375, -173819.53, -28712.123, 0.0, 5.0112863, 4.9335 
2.3810856e+2, 2.9012963e+2, -122698.34, -239668.31, -4971.259, -0.12748139, 0.08866584, -122487.445, -25697.223, 0.0, 5.0119114, 4.933473 
2.3811331e+2, 2.950553e+2, -73320.336, -189993.53, -4540.34, -0.05785981, -0.0054842285, -73143.92, -24657.752, 0.0, 5.0117383, 4.933447 
2.3811716e+2, 2.999942e+2, -23052.55, -100605.484, -5936.981, -0.0040320093, -0.08579905, -22600.684, -22535.248, 0.0, 5.010736, 4.957085 
2.3812243e+2, 3.049681e+2, -27193.502, -92911.0, -9167.134, 0.037490107, -0.0016804822, -25938.709, -25938.709, 0.0, 5.007875, 4.959665 
2.3813027e+2, 3.0995286e+2, -36996.81, -90374.38, -12625.991, 0.09157092, 0.13873784, -34160.91, -34160.91, 0.0, 5.003307, 4.962141 
2.3813936e+2, 3.1494266e+2, -50536.016, -89868.91, -17722.53, 0.14943324, 0.29989824, -43728.754, -43728.754, 0.0, 4.9972186, 4.964628 
2.4319413e+2, 1.2150039e+2, -1710605.9, -1753205.6, 169.71082, -0.005676531, 0.009281168, -1710605.3, 38694.73, 0.0, 5.0155563, 4.9878073 
2.4319558e+2, 1.264852e+2, -1664169.9, -1709093.6, -209.13528, 0.0023435398, -0.0046716994, -1664169.0, 36280.504, 0.0, 5.0154934, 4.986242 
2.43196e+2, 1.3147143e+2, -1615339.0, -1660191.0, -378.71448, 0.0008780734, -0.0054417527, -1615335.8, 36246.855, 0.0, 5.0154443, 4.98624 
2.4319641e+2, 1.3645762e+2, -1568715.1, -1615823.6, -548.1813, -0.00051600457, -0.0049827844, -1568708.6, 34007.395, 0.0, 5.015395, 4.9847336 
2.431967e+2, 1.4144081e+2, -1527407.5, -1582464.6, -1212.4259, -0.0002411762, 0.009786774, -1527380.8, 26499.195, 0.0, 5.015349, 4.9795003 
2.4319677e+2, 1.464204e+2, -1478457.9, -1533472.5, -1377.7374, 0.0030738995, 0.008246997, -1478423.4, 26657.332, 0.0, 5.015317, 4.979495 
2.4319686e+2, 1.5139994e+2, -1429499.6, -1484467.1, -1438.3378, 0.006451676, 0.005727111, -1429462.0, 26820.553, 0.0, 5.0152855, 4.9794946 
2.4319692e+2, 1.5637943e+2, -1381969.1, -1438438.3, -1499.8307, 0.009837929, 0.0036618777, -1381929.3, 25555.133, 0.0, 5.015254, 4.9784994 
2.4319644e+2, 1.6135511e+2, -1341207.1, -1406509.5, -2159.5166, 0.011015884, 0.0062392754, -1341135.8, 17587.332, 0.0, 5.0152063, 4.9727926 
2.4319476e+2, 1.6632774e+2, -1292186.9, -1357219.0, -2265.6216, 0.0070947027, 0.001379401, -1292108.0, 17881.986, 0.0, 5.015128, 4.9728866 
2.4319305e+2, 1.713004e+2, -1243300.9, -1308211.0, -2208.9495, 0.0029883983, -0.0034090984, -1243225.8, 18030.72, 0.0, 5.015049, 4.972887 
2.4319132e+2, 1.7627308e+2, -1195549.9, -1261605.9, -2152.905, -0.0010995438, -0.0077994987, -1195479.8, 17043.303, 0.0, 5.01497, 4.97208 
2.4318957e+2, 1.8124238e+2, -1155173.5, -1230551.0, -2337.4387, -0.0042924136, -0.00299086, -1155101.0, 8722.01, 0.0, 5.014865, 4.9660273 
2.431878e+2, 1.8620884e+2, -1106091.3, -1180848.8, -2428.5217, -0.0054957527, -0.0033657663, -1106012.5, 9139.585, 0.0, 5.014712, 4.966272 
2.4318604e+2, 1.9117533e+2, -1057350.5, -1131873.3, -2471.8184, -0.0066025537, -0.0038754155, -1057268.6, 9212.211, 0.0, 5.014557, 4.966272 
2.4318427e+2, 1.9614181e+2, -1009499.1, -1084811.3, -2515.455, -0.0076774065, -0.004071405, -1009415.2, 8394.434, 0.0, 5.014402, 4.9656215 
2.431825e+2, 2.0110483e+2, -969524.4, -1054816.3, -2863.0654, -0.0072336313, 0.0036958877, -969428.4, -256.20706, 0.0, 5.0142617, 4.9591374 
2.4318077e+2, 2.0606455e+2, -920202.7, -1004806.6, -2961.99, -0.00269172, 0.0039431266, -920099.06, 466.82504, 0.0, 5.014135, 4.9594483 
2.4317905e+2, 2.1102427e+2, -871308.3, -955715.0, -2962.756, 0.0021203607, 0.0038001372, -871204.44, 755.0419, 0.0, 5.014007, 4.959449 
2.4317732e+2, 2.15984e+2, -823078.25, -908076.1, -2964.0422, 0.0069792527, 0.0037871576, -822975.06, 378.0238, 0.0, 5.0138783, 4.95895 
2.4317534e+2, 2.2093984e+2, -783629.7, -879812.56, -2632.398, 0.007934577, 0.00941034, -783557.7, -8772.384, 0.0, 5.0137777, 4.951766 
2.431727e+2, 2.2589105e+2, -734040.7, -829699.94, -2334.431, -0.0012345896, -0.0022013758, -733983.75, -7719.129, 0.0, 5.0137353, 4.9520397 
2.4317004e+2, 2.308422e+2, -684798.0, -780384.06, -2146.9011, -0.010796138, -0.014780489, -684749.75, -7005.2515, 0.0, 5.013695, 4.952047 
2.4316739e+2, 2.3579335e+2, -636205.56, -732515.75, -1963.2164, -0.020209545, -0.027475758, -636165.56, -6941.079, 0.0, 5.013653, 4.951552 
2.4316509e+2, 2.4074185e+2, -595663.3, -702537.7, -2003.1364, -0.02621097, -0.021901594, -595625.8, -14897.972, 0.0, 5.013621, 4.944814 
2.4316342e+2, 2.4568874e+2, -544311.06, -649857.9, -2422.8574, -0.020391807, -0.013919033, -544255.44, -12016.678, 0.0, 5.0138316, 4.9458294 
2.4316183e+2, 2.5063565e+2, -494156.06, -600155.0, -2548.318, -0.013543423, -0.007341963, -494094.84, -10346.281, 0.0, 5.0140777, 4.9458184 
2.4316029e+2, 2.555827e+2, -444255.75, -551024.8, -2665.0264, -0.006645705, 0.00041007862, -444189.25, -8931.963, 0.0, 5.0143166, 4.945609 
2.4315657e+2, 2.6052383e+2, -410064.0, -537692.94, -2232.5874, -0.021946358, 0.018803542, -410024.94, -23193.143, 0.0, 5.0146713, 4.932572 
2.4314924e+2, 2.6545867e+2, -358084.34, -482955.3, -1407.4037, -0.077773675, 0.00395236, -358068.47, -19568.498, 0.0, 5.0147367, 4.9338284 
2.431427e+2, 2.7039406e+2, -307397.97, -431571.88, -1247.6971, -0.12603325, -0.021537289, -307385.44, -17218.637, 0.0, 5.014685, 4.9343333 
2.4313687e+2, 2.7532947e+2, -256675.33, -380440.8, -1318.8179, -0.16680735, -0.055083957, -256661.28, -14828.457, 0.0, 5.014595, 4.934791 
2.4312587e+2, 2.8026766e+2, -225263.39, -389075.1, -11976.974, -0.19064815, 0.07404042, -224392.33, -30930.285, 0.0, 5.0176187, 4.914065 
2.4312188e+2, 2.8520155e+2, -152961.11, -286487.6, -1982.0785, -0.15491797, 0.14757854, -152931.7, -7845.061, 0.0, 5.0185685, 4.932182 
2.4312447e+2, 2.9012868e+2, -108814.15, -238156.2, -1860.4985, -0.10592427, 0.07917746, -108787.39, -12016.811, 0.0, 5.0166736, 4.932425 
2.4312769e+2, 2.95055e+2, -64562.7, -189872.27, -1932.6471, -0.050296303, -0.003408758, -64532.9, -16069.778, 0.0, 5.0146875, 4.932668 
2.4313016e+2, 2.9999375e+2, -17436.635, -102429.695, -3789.2979, -0.00150147, -0.07774358, -17268.027, -17221.475, 0.0, 5.0128856, 4.9559526 
2.4313344e+2, 3.049649e+2, -18167.387, -95984.74, -6531.7725, 0.04455801, -0.0024574867, -17622.938, -17622.938, 0.0, 5.0117517, 4.9573803 
2.4313962e+2, 3.099465e+2, -19637.418, -92540.6, -8187.8535, 0.117552474, 0.13959372, -18729.146, -18729.146, 0.0, 5.010567, 4.958868 
2.4314769e+2, 3.1493264e+2, -20887.57, -89318.44, -10175.6, 0.21062204, 0.31234115, -19406.523, -19406.523, 0.0, 5.009278, 4.9603567 
2.4821006e+2, 1.2149872e+2, -1710411.8, -1752831.8, -4.75255, -0.0023318443, -0.00074163644, -1710411.8, 38903.54, 0.0, 5.015559, 4.98793 
2.48211e+2, 1.26485e+2, -1664472.9, -1709729.3, -251.17467, 0.001522692, 0.001920762, -1664471.5, 35978.957, 0.0, 5.0154953, 4.986033 
2.4821138e+2, 1.3147075e+2, -1615640.9, -1660822.5, -418.44043, 0.0002722977, -0.0015302226, -1615637.0, 35951.785, 0.0, 5.015446, 4.9860315 
2.4821177e+2, 1.3645647e+2, -1569016.1, -1616451.4, -585.55304, -0.00094926637, -0.0037444874, -1569008.9, 33718.61, 0.0, 5.015396, 4.984526 
2.48212e+2, 1.4143932e+2, -1527556.0, -1582770.1, -1243.3607, -0.00091157213, 0.009152953, -1527528.0, 26367.236, 0.0, 5.015349, 4.9793997 
2.4821194e+2, 1.4641881e+2, -1478568.9, -1533700.9, -1401.7168, 0.001365312, 0.0073671783, -1478533.3, 26563.62, 0.0, 5.0153165, 4.979419 
2.4821188e+2, 1.5139823e+2, -1429609.5, -1484694.8, -1461.5518, 0.003672555, 0.004647161, -1429570.8, 26728.824, 0.0, 5.0152855, 4.979419 
2.4821179e+2, 1.5637764e+2, -1382077.8, -1438665.3, -1522.2678, 0.005981613, 0.0023793513, -1382036.9, 25465.348, 0.0, 5.015254, 4.978424 
2.4821125e+2, 1.6135328e+2, -1341144.9, -1406379.3, -2214.8975, 0.0069267275, 0.0048665125, -1341069.8, 17671.25, 0.0, 5.0152063, 4.9728365 
2.4820966e+2, 1.66326e+2, -1292078.6, -1356993.1, -2326.2761, 0.004744573, 0.00025512834, -1291995.4, 18011.219, 0.0, 5.015128, 4.972963 
2.4820803e+2, 1.7129877e+2, -1243192.6, -1307985.8, -2268.5918, 0.002444138, -0.004268259, -1243113.4, 18158.35, 0.0, 5.0150495, 4.972963 
2.4820642e+2, 1.7627154e+2, -1195441.6, -1261381.4, -2211.5254, 0.00014823263, -0.008397506, -1195367.5, 17169.285, 0.0, 5.0149703, 4.972156 
2.482047e+2, 1.8124089e+2, -1155198.1, -1230607.5, -2445.7634, -0.0018235521, -0.0034818458, -1155119.0, 8717.156, 0.0, 5.0148654, 4.966008 
2.4820276e+2, 1.8620731e+2, -1106162.0, -1181003.5, -2546.2703, -0.0031253719, -0.003964553, -1106075.5, 9090.424, 0.0, 5.0147123, 4.9662194 
2.4820082e+2, 1.9117372e+2, -1057420.9, -1132027.4, -2588.109, -0.0044048093, -0.0045758914, -1057331.1, 9164.496, 0.0, 5.0145574, 4.9662194 
2.4819888e+2, 1.9614016e+2, -1009568.94, -1084964.9, -2630.2717, -0.005673361, -0.0048755296, -1009477.25, 8348.041, 0.0, 5.0144024, 4.965569 
2.4819691e+2, 2.0110314e+2, -969528.94, -1054825.0, -2960.4016, -0.005867968, 0.0029788907, -969426.4, -238.01614, 0.0, 5.0142612, 4.9591346 
2.481949e+2, 2.0606296e+2, -920200.25, -1004801.2, -3059.4963, -0.0027570517, 0.004163606, -920089.75, 491.68924, 0.0, 5.014135, 4.9594507 
2.481929e+2, 2.1102278e+2, -871304.7, -955709.06, -3058.3972, 0.0005959638, 0.0050291894, -871194.06, 780.298, 0.0, 5.014007, 4.959451 
2.4819092e+2, 2.1598262e+2, -823073.44, -908069.75, -3057.808, 0.0039714086, 0.0060120495, -822963.6, 403.61435, 0.0, 5.013879, 4.9589524 
2.481888e+2, 2.2093847e+2, -783382.6, -879276.1, -2680.62, 0.0044979188, 0.011183539, -783307.75, -8508.701, 0.0, 5.013778, 4.9519506 
2.4818632e+2, 2.2588944e+2, -733699.6, -828970.6, -2352.6042, -0.002610595, -0.0051011317, -733641.56, -7362.71, 0.0, 5.0137367, 4.9522915 
2.4818385e+2, 2.3084036e+2, -684455.75, -779663.94, -2158.5525, -0.010080389, -0.02262357, -684406.9, -6647.4707, 0.0, 5.013698, 4.9522963 
2.4818139e+2, 2.3579127e+2, -635862.1, -731804.7, -1968.3423, -0.017468542, -0.04026231, -635821.8, -6581.7827, 0.0, 5.013658, 4.951799 
2.4817923e+2, 2.4073981e+2, -595675.75, -702723.8, -1912.0619, -0.022025902, -0.035639018, -595641.56, -14899.532, 0.0, 5.013637, 4.944751 
2.4817774e+2, 2.4568774e+2, -544487.06, -650461.06, -2247.865, -0.016695088, -0.015248444, -544439.4, -12194.178, 0.0, 5.0138535, 4.9456205 
2.4817629e+2, 2.506358e+2, -494326.94, -600735.3, -2363.8965, -0.010537561, 0.0046246327, -494274.47, -10527.688, 0.0, 5.0141, 4.9456153 
2.4817489e+2, 2.555839e+2, -444421.63, -551582.4, -2471.1787, -0.0043767677, 0.025454236, -444364.66, -9117.23, 0.0, 5.0143385, 4.945412 
2.4817167e+2, 2.6052547e+2, -409099.28, -536042.56, -1819.215, -0.018157907, 0.047047224, -409073.22, -22255.076, 0.0, 5.014728, 4.9331436 
2.4816532e+2, 2.6545784e+2, -356309.53, -480637.94, -648.7301, -0.07256603, -0.0018901697, -356306.16, -17807.18, 0.0, 5.0149283, 4.934629 
2.4815968e+2, 2.7039012e+2, -305383.53, -429765.38, -214.58972, -0.122531965, -0.06562199, -305383.16, -15200.526, 0.0, 5.015012, 4.934951 
2.4815467e+2, 2.7532226e+2, -254420.69, -379143.84, -11.106612, -0.16736174, -0.13796271, -254420.69, -12552.496, 0.0, 5.015057, 4.935226 
2.4814512e+2, 2.802583e+2, -226171.19, -391565.72, -10758.93, -0.19639507, -0.027637433, -225474.25, -31966.135, 0.0, 5.0176654, 4.913112 
2.481405e+2, 2.8519478e+2, -153888.97, -286777.47, -3783.4014, -0.15740488, 0.074074335, -153781.34, -8674.029, 0.0, 5.018214, 4.932044 
2.4814138e+2, 2.9012495e+2, -109827.53, -239013.33, -3345.6563, -0.10578496, 0.03356074, -109740.94, -12976.881, 0.0, 5.0163255, 4.9321413 
2.4814276e+2, 2.9505423e+2, -65659.0, -191294.4, -3101.7368, -0.05040234, -0.019208627, -65582.47, -17153.322, 0.0, 5.0143466, 4.9322386 
2.4814354e+2, 2.999951e+2, -18472.87, -104878.625, -4272.181, -0.00423819, -0.070148416, -18262.152, -18262.152, 0.0, 5.0126615, 4.9551797 
2.4814445e+2, 3.0496395e+2, -17805.578, -98033.086, -5897.699, 0.024615174, -0.01545395, -17374.342, -17374.342, 0.0, 5.011929, 4.956562 
2.4814774e+2, 3.0994198e+2, -18038.322, -94230.336, -6819.9663, 0.0701069, 0.09007785, -17432.68, -17432.68, 0.0, 5.0111284, 4.958002 
2.4815267e+2, 3.1492364e+2, -18049.482, -90651.38, -8073.5513, 0.12912886, 0.21668084, -17162.516, -17162.516, 0.0, 5.010224, 4.9594426 
2.5322598e+2, 1.2149702e+2, -1710164.4, -1752347.4, -181.4901, 0.001031426, -0.010959638, -1710163.6, 39167.418, 0.0, 5.015562, 4.988088 
2.5322643e+2, 1.2648481e+2, -1664776.6, -1710364.3, -294.26807, 0.00073180225, 0.00858098, -1664774.8, 35676.594, 0.0, 5.0154977, 4.9858236 
2.532268e+2, 1.314701e+2, -1615943.8, -1661453.5, -459.22025, -0.00031685276, 0.0024263097, -1615939.1, 35655.906, 0.0, 5.0154476, 4.9858227 
2.532271e+2, 1.3645534e+2, -1569318.1, -1617078.4, -623.97876, -0.001379234, -0.0024839428, -1569310.0, 33429.01, 0.0, 5.015397, 4.9843187 
2.532273e+2, 1.4143781e+2, -1527709.9, -1583086.1, -1275.2422, -0.0015802942, 0.008544965, -1527680.6, 26229.934, 0.0, 5.0153484, 4.9792953 
2.5322708e+2, 1.4641722e+2, -1478680.1, -1533929.1, -1425.4985, -0.00034014694, 0.0065053334, -1478643.4, 26469.682, 0.0, 5.0153165, 4.9793434 
2.5322688e+2, 1.5139653e+2, -1429719.5, -1484922.4, -1484.5684, 0.00089524116, 0.0035699736, -1429679.6, 26636.877, 0.0, 5.0152855, 4.9793434 
2.5322667e+2, 1.5637584e+2, -1382186.6, -1438892.0, -1544.5073, 0.0021257827, 0.0010843773, -1382144.6, 25375.35, 0.0, 5.015254, 4.9783483 
2.5322604e+2, 1.6135144e+2, -1341087.9, -1406259.4, -2270.6074, 0.0028391888, 0.0035129406, -1341008.9, 17750.133, 0.0, 5.0152063, 4.9728765 
2.5322455e+2, 1.6632426e+2, -1291970.8, -1356767.0, -2386.809, 0.0023968972, -0.0008514112, -1291882.9, 18140.256, 0.0, 5.015128, 4.9730387 
2.5322303e+2, 1.7129713e+2, -1243084.8, -1307760.4, -2328.1128, 0.0019021812, -0.005125226, -1243001.1, 18285.787, 0.0, 5.0150495, 4.9730387 
2.532215e+2, 1.7627001e+2, -1195333.8, -1261156.5, -2270.0242, 0.001398162, -0.009008858, -1195255.5, 17295.074, 0.0, 5.014971, 4.9722314 
2.532198e+2, 1.8123941e+2, -1155228.4, -1230674.8, -2554.3726, 0.00064836314, -0.0039614816, -1155142.0, 8707.122, 0.0, 5.014866, 4.9659853 
2.5321773e+2, 1.8620576e+2, -1106233.3, -1181157.9, -2664.0112, -0.00074991584, -0.004557778, -1106138.6, 9041.146, 0.0, 5.014713, 4.966167 
2.532156e+2, 1.9117212e+2, -1057491.5, -1132181.3, -2704.3918, -0.002201056, -0.0052904873, -1057393.8, 9116.665, 0.0, 5.014558, 4.966167 
2.532135e+2, 1.9613849e+2, -1009639.2, -1085118.1, -2745.0806, -0.0036623736, -0.0057134544, -1009539.44, 8301.528, 0.0, 5.014403, 4.965517 
2.5321132e+2, 2.0110145e+2, -969540.94, -1054848.9, -3058.7979, -0.0044952556, 0.0022947488, -969431.44, -226.93327, 0.0, 5.014261, 4.959127 
2.5320905e+2, 2.0606135e+2, -920198.4, -1004795.4, -3156.8948, -0.0028125981, 0.004420201, -920080.75, 516.24023, 0.0, 5.014135, 4.9594526 
2.5320676e+2, 2.1102129e+2, -871301.6, -955702.75, -3153.9304, -0.0009175117, 0.0062629855, -871183.9, 805.2468, 0.0, 5.014007, 4.9594536 
2.5320452e+2, 2.1598122e+2, -823069.1, -908063.0, -3151.4656, 0.00097562146, 0.008210316, -822952.44, 428.90182, 0.0, 5.0138793, 4.9589543 
2.5320223e+2, 2.209371e+2, -783153.06, -878775.06, -2728.097, 0.0010550664, 0.013008241, -783075.25, -8262.503, 0.0, 5.013778, 4.952122 
2.5319996e+2, 2.2588785e+2, -733360.7, -828239.7, -2366.899, -0.003967362, -0.008005393, -733301.6, -7008.5044, 0.0, 5.0137386, 4.9525423 
2.5319767e+2, 2.3083852e+2, -684115.6, -778942.2, -2166.3267, -0.009313145, -0.030586977, -684066.2, -6291.846, 0.0, 5.0137014, 4.9525447 
2.5319538e+2, 2.3578915e+2, -635520.75, -731092.0, -1969.5919, -0.014643789, -0.053285006, -635480.2, -6224.5835, 0.0, 5.0136633, 4.952045 
2.531934e+2, 2.4073781e+2, -595735.2, -702992.94, -1811.9055, -0.017788082, -0.049041063, -595704.56, -14948.587, 0.0, 5.0136538, 4.944656 
2.5319207e+2, 2.456868e+2, -544674.75, -651052.75, -2081.4778, -0.0129918, -0.016076347, -544634.06, -12382.872, 0.0, 5.0138755, 4.9454107 
2.5319076e+2, 2.5063595e+2, -494509.53, -601304.1, -2188.0737, -0.0075543677, 0.016877744, -494464.72, -10720.078, 0.0, 5.014122, 4.9454117 
2.5318953e+2, 2.555852e+2, -444599.2, -552128.44, -2285.9243, -0.0021597368, 0.05056985, -444550.63, -9313.273, 0.0, 5.014361, 4.9452143 
2.5318673e+2, 2.6052687e+2, -408531.25, -535172.4, -1256.1335, -0.015558463, 0.07488089, -408518.78, -21712.344, 0.0, 5.0147843, 4.9334087 
2.5318164e+2, 2.654565e+2, -354599.9, -478268.47, 381.00372, -0.066976674, -0.012264108, -354598.72, -16096.585, 0.0, 5.0151196, 4.9353623 
2.5317723e+2, 2.7038565e+2, -303433.53, -427905.84, 1089.2258, -0.11610397, -0.11897243, -303424.03, -13219.946, 0.0, 5.015339, 4.9355016 
2.5317338e+2, 2.7531433e+2, -252229.8, -377792.9, 1567.0236, -0.16244444, -0.23484154, -252210.25, -10299.671, 0.0, 5.015519, 4.935594 
2.531644e+2, 2.8024915e+2, -229382.4, -399334.47, -9827.2705, -0.20389634, -0.12550524, -228816.03, -35264.31, 0.0, 5.017714, 4.910304 
2.531584e+2, 2.8518906e+2, -154960.11, -286929.3, -5304.732, -0.16651519, 0.017379701, -154747.23, -9628.975, 0.0, 5.01786, 4.9318585 
2.5315762e+2, 2.90122e+2, -110983.98, -239731.9, -4550.623, -0.10961598, -0.00011742677, -110823.336, -14073.831, 0.0, 5.015978, 4.93181 
2.5315732e+2, 2.9505414e+2, -66898.195, -192577.52, -3990.3552, -0.051826872, -0.027938066, -66771.625, -18382.775, 0.0, 5.0140057, 4.9317613 
2.5315624e+2, 2.9999593e+2, -20882.605, -110060.76, -4527.93, -0.009361842, -0.063480206, -20653.295, -20653.295, 0.0, 5.0124373, 4.9533343 
2.5315502e+2, 3.0496132e+2, -17604.92, -99922.72, -5159.9927, -0.0020946243, -0.044717655, -17282.732, -17282.732, 0.0, 5.012107, 4.955602 
2.531559e+2, 3.0993512e+2, -16600.184, -95759.89, -5347.745, 0.013604789, 0.008417195, -16240.543, -16240.543, 0.0, 5.011691, 4.956994 
2.5315818e+2, 3.1491175e+2, -15372.909, -91822.48, -5866.6035, 0.03628521, 0.07298784, -14925.337, -14925.337, 0.0, 5.011171, 4.958386 
2.582419e+2, 1.2149531e+2, -1709862.0, -1751736.3, -357.78763, 0.0044259904, -0.02117561, -1709859.0, 39487.816, 0.0, 5.015564, 4.9882874 
2.5824186e+2, 1.2648463e+2, -1665005.8, -1710959.1, -332.12714, -0.000055922814, 0.015260938, -1665003.4, 35448.9, 0.0, 5.0155253, 4.9856143 
2.5824216e+2, 1.3146943e+2, -1616139.8, -1662030.4, -497.94443, -0.0009019061, 0.0063954955, -1616134.4, 35466.867, 0.0, 5.0154853, 4.985614 
2.582425e+2, 1.364542e+2, -1569505.8, -1617649.8, -667.8563, -0.0017851188, -0.0012136386, -1569496.5, 33253.89, 0.0, 5.015437, 4.98411 
2.5824255e+2, 1.4143632e+2, -1527773.5, -1583364.0, -1316.0698, -0.0021922137, 0.007964419, -1527742.3, 26183.46, 0.0, 5.01538, 4.9791875 
2.5824225e+2, 1.4641562e+2, -1478744.3, -1534131.6, -1446.5924, -0.0019821676, 0.0056602997, -1478706.5, 26422.723, 0.0, 5.0153317, 4.979269 
2.582419e+2, 1.5139483e+2, -1429836.8, -1485150.5, -1493.9279, -0.0018114945, 0.0024931692, -1429796.4, 26537.047, 0.0, 5.0152826, 4.9792686 
2.5824153e+2, 1.5637405e+2, -1382361.4, -1439147.5, -1542.0457, -0.001647923, -0.00022466813, -1382319.5, 25218.291, 0.0, 5.0152316, 4.9782734 
2.5824085e+2, 1.6134961e+2, -1341139.3, -1406202.0, -2298.3943, -0.0011669963, 0.00218116, -1341058.1, 17718.783, 0.0, 5.015172, 4.9729123 
2.5823945e+2, 1.6632254e+2, -1291945.4, -1356584.8, -2439.252, 0.0000922521, -0.0019216861, -1291853.4, 18186.309, 0.0, 5.0151014, 4.973112 
2.5823805e+2, 1.7129551e+2, -1243045.5, -1307572.0, -2401.337, 0.0013705001, -0.005942856, -1242956.3, 18345.764, 0.0, 5.0150275, 4.9731126 
2.5823662e+2, 1.7626847e+2, -1195291.1, -1260966.9, -2364.083, 0.0026337495, -0.0095760785, -1195206.1, 17358.248, 0.0, 5.0149503, 4.9723053 
2.5823492e+2, 1.8123794e+2, -1155326.0, -1230781.1, -2709.711, 0.0030941279, -0.004367941, -1155228.8, 8633.4, 0.0, 5.0148454, 4.965959 
2.5823265e+2, 1.8620421e+2, -1106364.9, -1181337.9, -2817.6262, 0.0016073749, -0.0051155505, -1106259.1, 8934.617, 0.0, 5.0146923, 4.9661155 
2.582304e+2, 1.911705e+2, -1057633.8, -1132365.8, -2845.4146, 0.0000029919638, -0.0060223476, -1057525.6, 8999.687, 0.0, 5.0145335, 4.9661155 
2.5822812e+2, 1.9613682e+2, -1009804.2, -1085312.9, -2873.3792, -0.0016217488, -0.0066212937, -1009695.0, 8161.7173, 0.0, 5.0143704, 4.965465 
2.5822574e+2, 2.0109977e+2, -969671.9, -1054938.1, -3159.0442, -0.0030669537, 0.0015816083, -969555.0, -334.31815, 0.0, 5.014222, 4.9591146 
2.5822318e+2, 2.0605977e+2, -920289.4, -1004831.3, -3247.9014, -0.0028138834, 0.0046563805, -920164.8, 447.6709, 0.0, 5.0141025, 4.959455 
2.5822064e+2, 2.1101978e+2, -871390.6, -955737.94, -3237.749, -0.0023662278, 0.0074575413, -871266.56, 737.4351, 0.0, 5.0139756, 4.9594555 
2.582181e+2, 2.1597983e+2, -823177.75, -908107.3, -3228.6877, -0.0019287564, 0.010355399, -823055.2, 340.3247, 0.0, 5.013841, 4.9589567 
2.582157e+2, 2.2093573e+2, -783093.06, -878378.5, -2755.5442, -0.002292411, 0.014880593, -783013.44, -8186.9595, 0.0, 5.013726, 4.952281 
2.5821355e+2, 2.2588626e+2, -733234.3, -827601.4, -2364.4473, -0.005218112, -0.010877486, -733175.1, -6867.704, 0.0, 5.013667, 4.952793 
2.582115e+2, 2.3083667e+2, -684074.56, -778349.56, -2160.7993, -0.008402161, -0.038588934, -684025.06, -6235.818, 0.0, 5.0136013, 4.9527936 
2.582094e+2, 2.3578706e+2, -635593.06, -730557.2, -1956.8978, -0.011614683, -0.066414654, -635552.75, -6281.5825, 0.0, 5.0135245, 4.952292 
2.5820762e+2, 2.4073584e+2, -596394.75, -703572.1, -1667.1818, -0.013337744, -0.062012907, -596368.9, -15599.344, 0.0, 5.0134764, 4.944536 
2.5820643e+2, 2.4568592e+2, -545500.0, -651897.44, -1840.5791, -0.009097893, -0.016410723, -545468.2, -13211.53, 0.0, 5.01368, 4.9452043 
2.582053e+2, 2.5063616e+2, -495365.2, -602147.4, -1909.3466, -0.004351541, 0.02941643, -495331.06, -11588.983, 0.0, 5.0139155, 4.9452085 
2.582042e+2, 2.5558648e+2, -445466.97, -552961.3, -1985.0945, 0.00034298137, 0.07586296, -445430.3, -10203.462, 0.0, 5.0141506, 4.945015 
2.5820178e+2, 2.6052812e+2, -409195.6, -535253.56, -310.04364, -0.013508661, 0.10248913, -409194.84, -22398.65, 0.0, 5.0145254, 4.933446 
2.5819826e+2, 2.6545495e+2, -355383.0, -476413.03, 2530.89, -0.059244867, -0.027036056, -355330.1, -16822.154, 0.0, 5.0144157, 4.9362063 
2.581955e+2, 2.70381e+2, -306540.63, -427415.0, 4576.2075, -0.103179455, -0.18090503, -306367.63, -16140.333, 0.0, 5.013859, 4.936233 
2.5819322e+2, 2.7530646e+2, -258501.45, -379001.4, 6800.5063, -0.1460235, -0.34383768, -258118.88, -16166.255, 0.0, 5.0129633, 4.936213 
2.581841e+2, 2.8024134e+2, -245223.3, -416683.06, -3616.101, -0.2049275, -0.21752922, -245147.06, -51564.34, 0.0, 5.014118, 4.9057364 
2.5817582e+2, 2.8518507e+2, -162206.64, -290410.25, -2058.481, -0.1765521, -0.021309214, -162173.61, -17061.428, 0.0, 5.015453, 4.931363 
2.5817344e+2, 2.9012036e+2, -114768.55, -241998.83, -2661.0078, -0.11421796, -0.021019854, -114712.914, -17990.334, 0.0, 5.014831, 4.931239 
2.5817144e+2, 2.950549e+2, -68302.98, -194095.14, -3083.8647, -0.05307567, -0.029504234, -68227.42, -19886.822, 0.0, 5.0137405, 4.931115 
2.5816843e+2, 2.9999644e+2, -23381.445, -117169.69, -3806.6663, -0.016060209, -0.0585323, -23227.193, -23227.193, 0.0, 5.0127, 4.9505253 
2.581653e+2, 3.0495715e+2, -17977.348, -101496.36, -3815.1536, -0.033199262, -0.089903414, -17803.434, -17803.434, 0.0, 5.012201, 4.954624 
2.5816438e+2, 3.0992642e+2, -19731.713, -98746.14, -4016.5925, -0.046184234, -0.10036351, -19528.059, -19528.059, 0.0, 5.0107956, 4.9559135 
2.5816467e+2, 3.1489792e+2, -23357.5, -97069.91, -5212.597, -0.056979846, -0.10550394, -22990.715, -22990.715, 0.0, 5.0085382, 4.957201 
2.6325777e+2, 1.2149469e+2, -1707565.8, -1749642.0, -204.97849, 0.0049038157, -0.02104713, -1707564.8, 41788.945, 0.0, 5.0161185, 4.988701 
2.632573e+2, 1.2648417e+2, -1663659.8, -1710894.0, -340.91492, -0.0038529567, 0.018996188, -1663657.4, 36799.414, 0.0, 5.016101, 4.9853525 
2.6325777e+2, 1.3146855e+2, -1614833.9, -1661993.5, -583.8006, -0.002599631, 0.00849959, -1614826.8, 36783.57, 0.0, 5.0160503, 4.985349 
2.6325828e+2, 1.364529e+2, -1568214.3, -1617628.6, -827.44073, -0.0012873731, -0.0007155959, -1568200.4, 34563.645, 0.0, 5.0159993, 4.983843 
2.6325843e+2, 1.4143471e+2, -1526284.3, -1582796.8, -1540.5947, -0.0003425353, 0.0073440853, -1526242.4, 27700.139, 0.0, 5.0159125, 4.979117 
2.632579e+2, 1.4641397e+2, -1477503.4, -1533564.0, -1620.4725, -0.0007833132, 0.0047819973, -1477456.6, 27689.334, 0.0, 5.015756, 4.979252 
2.6325738e+2, 1.5139315e+2, -1428925.1, -1484744.5, -1610.768, -0.0013126376, 0.0013837225, -1428878.8, 27471.305, 0.0, 5.0155973, 4.979252 
2.6325688e+2, 1.5637231e+2, -1381772.1, -1438898.8, -1602.0396, -0.0018278058, -0.0015553735, -1381727.3, 25826.984, 0.0, 5.0154386, 4.9782567 
2.63256e+2, 1.6134787e+2, -1340796.1, -1406125.5, -2327.2156, -0.0018820923, 0.0010235052, -1340713.4, 18079.8, 0.0, 5.015307, 4.972873 
2.6325452e+2, 1.6632086e+2, -1291582.6, -1356514.5, -2581.5708, -0.0008316323, -0.00195348, -1291480.1, 18575.563, 0.0, 5.015247, 4.9730663 
2.6325303e+2, 1.712939e+2, -1242633.4, -1307477.8, -2675.2551, 0.00028914158, -0.0047966405, -1242523.3, 18794.451, 0.0, 5.01519, 4.973067 
2.632515e+2, 1.7626695e+2, -1194819.3, -1260844.3, -2769.5393, 0.001432385, -0.0072436803, -1194703.3, 17876.436, 0.0, 5.015133, 4.97226 
2.6324975e+2, 1.812364e+2, -1154756.9, -1230502.9, -3245.2974, 0.0020356504, -0.0017595585, -1154618.1, 9259.59, 0.0, 5.0150385, 4.9659615 
2.632474e+2, 1.8620251e+2, -1105866.1, -1181067.5, -3307.5386, 0.0013580248, -0.0043246923, -1105720.9, 9489.415, 0.0, 5.0148563, 4.9661293 
2.6324505e+2, 1.9116864e+2, -1057217.3, -1132135.1, -3268.4282, 0.0006513324, -0.007123756, -1057075.0, 9468.107, 0.0, 5.0146704, 4.9661293 
2.632427e+2, 1.9613476e+2, -1009457.06, -1085115.9, -3229.6243, -0.000022962171, -0.0096101975, -1009319.44, 8556.32, 0.0, 5.014484, 4.9654794 
2.6324022e+2, 2.0109762e+2, -969372.0, -1054700.4, -3427.3625, -0.000987975, -0.0024743362, -969234.56, 5.625459, 0.0, 5.014306, 4.959157 
2.6323742e+2, 2.060578e+2, -920107.94, -1004642.7, -3462.8223, -0.0016675432, 0.0017592598, -919966.4, 664.47687, 0.0, 5.014144, 4.9595013 
2.6323465e+2, 2.1101801e+2, -871310.56, -955599.06, -3408.1992, -0.0021601596, 0.005869499, -871172.94, 848.07794, 0.0, 5.0139823, 4.9595013 
2.6323187e+2, 2.159782e+2, -823176.5, -908007.9, -3353.88, -0.0025831321, 0.010102833, -823044.1, 367.11963, 0.0, 5.01382, 4.959002 
2.6322928e+2, 2.209343e+2, -783112.4, -878054.0, -2853.409, -0.0030774227, 0.015577834, -783026.7, -8186.045, 0.0, 5.0136514, 4.9524264 
2.632272e+2, 2.2588494e+2, -733649.94, -827330.9, -2536.6204, -0.004267336, -0.010824442, -733581.3, -7261.838, 0.0, 5.01343, 4.952993 
2.6322517e+2, 2.3083548e+2, -684947.3, -778277.75, -2425.4187, -0.005520229, -0.039326087, -684884.3, -7085.1465, 0.0, 5.013203, 4.952997 
2.632231e+2, 2.35786e+2, -636891.3, -730668.3, -2317.5168, -0.006710799, -0.06793732, -636834.06, -7555.0713, 0.0, 5.012975, 4.9524994 
2.6322135e+2, 2.4073489e+2, -598423.75, -704278.75, -1941.346, -0.007082588, -0.06412268, -598388.1, -17612.088, 0.0, 5.0127354, 4.944614 
2.6322013e+2, 2.456852e+2, -548336.1, -653230.6, -1898.0842, -0.0037368427, -0.015992766, -548301.8, -16038.365, 0.0, 5.012707, 4.9451637 
2.6321903e+2, 2.5063577e+2, -498834.66, -603801.7, -1822.0597, 0.0001421147, 0.033367135, -498803.03, -15054.304, 0.0, 5.012717, 4.945157 
2.6321796e+2, 2.5558645e+2, -449583.28, -554941.3, -1747.2721, 0.0041561606, 0.083844475, -449554.3, -14321.317, 0.0, 5.012719, 4.9449515 
2.6321605e+2, 2.6052856e+2, -412631.72, -533975.06, 289.41412, -0.006313368, 0.111980006, -412631.03, -25833.182, 0.0, 5.0127826, 4.9346476 
2.6321435e+2, 2.6545602e+2, -359102.38, -472521.66, 1863.1676, -0.033623837, -0.029472878, -359071.78, -20578.0, 0.0, 5.0121827, 4.9384637 
2.6321366e+2, 2.703832e+2, -310581.0, -422475.0, 2007.7072, -0.05565011, -0.19478446, -310544.97, -20354.225, 0.0, 5.0114126, 4.938862 
2.6321357e+2, 2.753105e+2, -262010.55, -372660.4, 1915.8048, -0.07431209, -0.3667018, -261977.39, -20090.03, 0.0, 5.010603, 4.9392133 
2.6320633e+2, 2.8024662e+2, -244590.39, -413923.7, -4521.1724, -0.12906842, -0.25759718, -244469.77, -50972.28, 0.0, 5.013746, 4.9070663 
2.6319653e+2, 2.8518957e+2, -162359.98, -297728.28, -2052.2117, -0.12827796, -0.04968949, -162328.89, -17285.787, 0.0, 5.016375, 4.928935 
2.631921e+2, 2.9012448e+2, -114162.695, -247620.53, -2780.6506, -0.08379288, -0.024771303, -114104.79, -17436.477, 0.0, 5.015972, 4.929161 
2.6318815e+2, 2.9505867e+2, -65872.09, -197605.1, -3823.2898, -0.038007498, -0.011680599, -65761.23, -17460.855, 0.0, 5.015473, 4.929387 
2.6318353e+2, 2.9999992e+2, -16034.125, -113067.26, -4678.8105, -0.014981707, -0.029249933, -15809.041, -15809.041, 0.0, 5.015392, 4.9509754 
2.6318035e+2, 3.0495742e+2, -5415.141, -93695.5, -6239.6143, -0.03927865, -0.089933425, -4976.3096, -4976.3096, 0.0, 5.016718, 4.955799 
2.631798e+2, 3.0992422e+2, -121.57085, -88083.11, -7230.905, -0.052299213, -0.11660162, 468.88434, 468.88434, 0.0, 5.018012, 4.9571033 
2.631808e+2, 3.1489488e+2, 5435.711, -82737.06, -7977.0303, -0.057791233, -0.11686109, 6151.5845, 6151.5845, 0.0, 5.019199, 4.95841 
2.682737e+2, 1.2149471e+2, -1706765.9, -1748017.6, -5.543703, 0.0029891422, -0.014896251, -1706765.9, 42589.207, 0.0, 5.0161185, 4.989235 
2.6827282e+2, 1.2648357e+2, -1664112.6, -1711822.4, -382.1725, -0.0096616475, 0.02106638, -1664109.5, 36353.76, 0.0, 5.0161014, 4.9850483 
2.682736e+2, 1.3146755e+2, -1615282.8, -1662917.1, -622.8911, -0.0050111343, 0.009565532, -1615274.6, 36346.473, 0.0, 5.016051, 4.9850454 
2.682744e+2, 1.3645148e+2, -1568659.3, -1618547.8, -864.29425, -0.0003216913, -0.00065463793, -1568644.4, 34134.87, 0.0, 5.016, 4.9835396 
2.6827466e+2, 1.4143302e+2, -1526361.6, -1582954.9, -1648.0237, 0.0027923163, 0.0066826586, -1526313.6, 27646.643, 0.0, 5.0159125, 4.979065 
2.6827392e+2, 1.4641225e+2, -1477482.3, -1533520.0, -1741.3047, 0.0019398978, 0.003893292, -1477428.3, 27734.957, 0.0, 5.015756, 4.9792666 
2.682732e+2, 1.5139142e+2, -1428903.3, -1484700.6, -1730.7842, 0.00090366515, 0.00026947784, -1428849.6, 27517.012, 0.0, 5.015598, 4.9792666 
2.6827246e+2, 1.563706e+2, -1381749.4, -1438855.0, -1721.2006, -0.00012678228, -0.0029021455, -1381697.5, 25872.662, 0.0, 5.015439, 4.9782715 
2.6827142e+2, 1.6134615e+2, -1340919.0, -1406384.1, -2394.0466, -0.00092687807, -0.000035643916, -1340831.5, 17977.258, 0.0, 5.015307, 4.972787 
2.6826975e+2, 1.6631918e+2, -1291748.5, -1356864.6, -2626.1538, -0.0011316685, -0.0013954998, -1291642.8, 18428.904, 0.0, 5.015247, 4.9729495 
2.6826808e+2, 1.7129228e+2, -1242797.5, -1307825.9, -2718.4548, -0.0012980783, -0.0025622004, -1242684.0, 18650.047, 0.0, 5.01519, 4.97295 
2.6826638e+2, 1.7626536e+2, -1194981.4, -1261190.5, -2811.3486, -0.001456205, -0.003339222, -1194862.3, 17734.168, 0.0, 5.0151334, 4.972143 
2.6826447e+2, 1.8123479e+2, -1154732.4, -1230455.8, -3363.657, -0.0013835715, 0.0024910565, -1154583.3, 9311.721, 0.0, 5.015039, 4.9659767 
2.682621e+2, 1.8620068e+2, -1105790.3, -1180910.9, -3450.0176, -0.0006330271, -0.0028202005, -1105632.1, 9596.873, 0.0, 5.0148573, 4.966182 
2.6825967e+2, 1.9116656e+2, -1057142.5, -1131979.5, -3409.3965, 0.00016769257, -0.008486814, -1056987.5, 9575.592, 0.0, 5.014671, 4.966182 
2.682573e+2, 1.9613247e+2, -1009383.25, -1084961.1, -3369.0623, 0.000983674, -0.013835327, -1009233.4, 8663.681, 0.0, 5.0144844, 4.965532 
2.6825473e+2, 2.0109521e+2, -969275.7, -1054490.5, -3557.4414, 0.0010511297, -0.008433112, -969127.44, 134.60281, 0.0, 5.0143056, 4.9592285 
2.6825175e+2, 2.0605558e+2, -920010.25, -1004428.1, -3586.2842, -0.00012694634, -0.0029328482, -919858.1, 793.0382, 0.0, 5.0141435, 4.959575 
2.682487e+2, 2.11016e+2, -871213.3, -955385.44, -3529.237, -0.0012589038, 0.0026018682, -871065.6, 974.2042, 0.0, 5.013982, 4.959575 
2.6824573e+2, 2.1597643e+2, -823079.8, -907795.06, -3472.4802, -0.0023476996, 0.008253522, -822937.7, 490.74896, 0.0, 5.0138197, 4.9590755 
2.6824296e+2, 2.2093277e+2, -782940.44, -877681.8, -3002.637, -0.0030021267, 0.01536932, -782845.4, -7989.734, 0.0, 5.0136523, 4.9525537 
2.682408e+2, 2.2588375e+2, -733433.9, -826878.75, -2695.9468, -0.002590616, -0.009000138, -733356.1, -7025.415, 0.0, 5.0134335, 4.953148 
2.6823875e+2, 2.3083463e+2, -684727.0, -777830.06, -2578.3909, -0.0021515621, -0.035506632, -684655.6, -6849.045, 0.0, 5.0132084, 4.9531503 
2.6823667e+2, 2.3578551e+2, -636666.75, -730224.9, -2464.1162, -0.0017089084, -0.062151723, -636601.9, -7319.251, 0.0, 5.012983, 4.9526515 
2.6823476e+2, 2.4073452e+2, -598164.2, -703833.75, -2037.2756, -0.0011699781, -0.058940697, -598124.94, -17346.066, 0.0, 5.012754, 4.9447613 
2.682334e+2, 2.4568449e+2, -548195.6, -653074.5, -1930.2521, 0.0008155188, -0.014761367, -548160.06, -15887.804, 0.0, 5.012728, 4.9452114 
2.6823208e+2, 2.5063473e+2, -498702.34, -603650.1, -1844.9375, 0.0030989035, 0.030984726, -498669.9, -14906.199, 0.0, 5.012735, 4.9452043 
2.6823083e+2, 2.5558507e+2, -449459.13, -554794.25, -1760.8584, 0.0054501086, 0.07779381, -449429.7, -14175.525, 0.0, 5.0127344, 4.944999 
2.6822925e+2, 2.6052764e+2, -411020.53, -530671.0, 401.13223, -0.0024745218, 0.10562155, -411019.2, -24204.146, 0.0, 5.0128217, 4.9358306 
2.6822922e+2, 2.6545694e+2, -356834.94, -468923.97, 2194.8804, -0.015054415, -0.025287176, -356791.97, -18307.713, 0.0, 5.012383, 4.9397864 
2.6823014e+2, 2.7038562e+2, -307857.2, -419063.44, 2612.1619, -0.023771482, -0.1817747, -307795.84, -17639.092, 0.0, 5.011782, 4.9400754 
2.682316e+2, 2.7531406e+2, -258831.72, -369435.8, 2793.4663, -0.031607293, -0.34742075, -258761.22, -16929.164, 0.0, 5.0111413, 4.9403167 
2.6822627e+2, 2.8024885e+2, -240592.05, -402510.47, -2397.2617, -0.087715484, -0.2785313, -240556.56, -47107.355, 0.0, 5.01347, 4.9110584 
2.682162e+2, 2.8519115e+2, -167046.75, -301690.13, -2727.4016, -0.09677917, -0.07894421, -166991.53, -21976.732, 0.0, 5.015493, 4.9277544 
2.6821056e+2, 2.9012707e+2, -118377.71, -251867.94, -3094.0972, -0.05949592, -0.022395778, -118306.04, -21660.076, 0.0, 5.0152516, 4.927838 
2.6820534e+2, 2.9506204e+2, -69615.266, -202138.83, -3775.7551, -0.024132421, 0.020744544, -69507.77, -21221.44, 0.0, 5.014914, 4.9279213 
2.6819983e+2, 3.00005e+2, -15904.795, -109805.125, -3412.9148, -0.01404318, 0.028496165, -15780.912, -15780.912, 0.0, 5.014962, 4.952243 
2.681967e+2, 3.0495867e+2, -6136.663, -92280.09, -3578.2888, -0.054226905, -0.06352427, -5988.281, -5988.281, 0.0, 5.016277, 4.956613 
2.6819608e+2, 3.0991945e+2, -550.5507, -85340.26, -3753.3489, -0.089949116, -0.13750784, -384.72717, -384.72717, 0.0, 5.0175285, 4.9582944 
2.681967e+2, 3.1488425e+2, 5297.848, -78667.055, -3683.182, -0.124924846, -0.18947324, 5459.104, 5459.104, 0.0, 5.018674, 4.959978 
2.7328968e+2, 1.2149474e+2, -1705909.3, -1746276.6, 194.38034, 0.00110354, -0.008660175, -1705908.3, 43448.24, 0.0, 5.0161185, 4.989807 
2.7328837e+2, 1.2648298e+2, -1664566.0, -1712750.6, -423.78238, -0.015427022, 0.023259984, -1664562.3, 35907.51, 0.0, 5.0161014, 4.9847436 
2.7328944e+2, 1.3146654e+2, -1615732.3, -1663840.6, -662.33374, -0.007394368, 0.010716687, -1615723.1, 35908.78, 0.0, 5.016051, 4.984741 
2.7329046e+2, 1.3645005e+2, -1569104.9, -1619466.8, -901.4996, 0.00065721595, -0.0005466688, -1569088.8, 33705.508, 0.0, 5.0160003, 4.983236 
2.7329087e+2, 1.4143132e+2, -1526444.9, -1583124.8, -1756.1942, 0.0059310473, 0.006049046, -1526390.5, 27587.621, 0.0, 5.015912, 4.9790087 
2.7328998e+2, 1.4641054e+2, -1477461.5, -1533475.9, -1861.8373, 0.004668678, 0.0030216977, -1477399.6, 27780.848, 0.0, 5.0157557, 4.9792814 
2.7328902e+2, 1.513897e+2, -1428881.6, -1484656.8, -1850.5009, 0.0031259991, -0.0008428832, -1428820.3, 27562.992, 0.0, 5.015598, 4.979281 
2.7328807e+2, 1.5636887e+2, -1381726.8, -1438811.1, -1840.062, 0.0015807343, -0.004262259, -1381667.5, 25918.598, 0.0, 5.0154395, 4.978286 
2.7328685e+2, 1.6134442e+2, -1341047.9, -1406654.8, -2461.937, 0.000035431854, -0.0010688636, -1340955.6, 17868.855, 0.0, 5.0153074, 4.972697 
2.7328497e+2, 1.6631751e+2, -1291914.8, -1357214.5, -2670.8904, -0.0014275608, -0.0008195518, -1291805.8, 18281.951, 0.0, 5.0152473, 4.9728327 
2.7328312e+2, 1.7129065e+2, -1242961.9, -1308173.9, -2761.8079, -0.002885357, -0.00033522065, -1242845.1, 18505.352, 0.0, 5.0151906, 4.972833 
2.7328122e+2, 1.7626378e+2, -1195143.9, -1261536.6, -2853.3113, -0.0043490557, 0.00053235085, -1195021.5, 17591.62, 0.0, 5.015134, 4.9720263 
2.7327916e+2, 1.8123317e+2, -1154716.9, -1230426.8, -3481.9812, -0.0048005497, 0.0067655966, -1154557.0, 9355.332, 0.0, 5.01504, 4.9659863 
2.7327675e+2, 1.8619883e+2, -1105714.8, -1180754.0, -3592.4526, -0.0026179606, -0.0012916283, -1105543.1, 9704.524, 0.0, 5.014858, 4.9662347 
2.7327433e+2, 1.911645e+2, -1057068.0, -1131823.6, -3550.3208, -0.00030923323, -0.009853358, -1056899.8, 9683.271, 0.0, 5.0146713, 4.9662347 
2.732719e+2, 1.9613016e+2, -1009309.9, -1084806.3, -3508.4563, 0.0019976196, -0.018091505, -1009147.2, 8771.231, 0.0, 5.014485, 4.9655843 
2.7326924e+2, 2.0109281e+2, -969190.25, -1054303.4, -3688.313, 0.0030973898, -0.014342948, -969030.7, 253.15433, 0.0, 5.014305, 4.9592924 
2.7326602e+2, 2.0605338e+2, -919913.0, -1004213.25, -3709.7532, 0.0014281572, -0.007577999, -919750.06, 921.4249, 0.0, 5.0141425, 4.959648 
2.7326283e+2, 2.11014e+2, -871116.6, -955171.44, -3650.2817, -0.00033603475, -0.0006650589, -870958.4, 1100.1632, 0.0, 5.013981, 4.959648 
2.7325958e+2, 2.1597464e+2, -822983.56, -907581.94, -3591.0876, -0.0020835488, 0.0063586673, -822831.44, 614.21497, 0.0, 5.013819, 4.9591484 
2.7325663e+2, 2.2093123e+2, -782788.9, -877351.8, -3149.079, -0.002958083, 0.015177692, -782684.1, -7813.437, 0.0, 5.013653, 4.9526663 
2.7325442e+2, 2.2588257e+2, -733219.5, -826425.3, -2852.6257, -0.0009551259, -0.0072204503, -733132.25, -6790.2793, 0.0, 5.0134363, 4.9533014 
2.732523e+2, 2.308338e+2, -684508.44, -777380.94, -2728.7153, 0.0011918509, -0.0318508, -684428.3, -6614.2207, 0.0, 5.0132136, 4.953303 
2.732502e+2, 2.3578501e+2, -636443.9, -729780.0, -2608.0676, 0.003283695, -0.056648746, -636371.06, -7084.7, 0.0, 5.01299, 4.952802 
2.7324823e+2, 2.4073416e+2, -597954.0, -703477.6, -2116.607, 0.0047616465, -0.053387173, -597911.56, -17130.139, 0.0, 5.0127726, 4.9448752 
2.7324668e+2, 2.4568382e+2, -548066.56, -652907.2, -1962.1373, 0.0053929, -0.012936228, -548029.9, -15749.249, 0.0, 5.0127497, 4.945258 
2.732452e+2, 2.5063372e+2, -498581.53, -603487.3, -1867.5326, 0.006068349, 0.028998904, -498548.28, -14769.985, 0.0, 5.0127535, 4.945251 
2.7324373e+2, 2.555837e+2, -449346.47, -554635.9, -1774.1614, 0.0067443675, 0.071942605, -449316.6, -14041.507, 0.0, 5.0127497, 4.9450455 
2.7324235e+2, 2.605265e+2, -409766.38, -528055.75, 598.46643, -0.00010490704, 0.09851355, -409763.38, -22928.943, 0.0, 5.012861, 4.936739 
2.732441e+2, 2.6545736e+2, -354634.75, -465273.34, 2709.8137, 0.0017213107, -0.026198719, -354568.4, -16089.112, 0.0, 5.012583, 4.9410453 
2.7324694e+2, 2.703874e+2, -305200.25, -415597.84, 3399.6238, 0.006842049, -0.17848669, -305095.66, -14966.934, 0.0, 5.0121512, 4.941224 
2.7325025e+2, 2.7531686e+2, -255719.47, -366156.1, 3853.9106, 0.010359676, -0.34248587, -255585.14, -13801.04, 0.0, 5.0116796, 4.9413557 
2.732459e+2, 2.802513e+2, -239121.81, -396914.06, -1659.2509, -0.04728526, -0.29515448, -239104.38, -45705.258, 0.0, 5.0131993, 4.9130144 
2.73235e+2, 2.8519362e+2, -171890.22, -305506.9, -3146.6958, -0.065254964, -0.091088146, -171816.16, -26838.242, 0.0, 5.01461, 4.926518 
2.732285e+2, 2.9013038e+2, -122748.336, -255970.45, -3151.3855, -0.03377524, -0.008565339, -122673.83, -26056.857, 0.0, 5.0145307, 4.926459 
2.7322233e+2, 2.950659e+2, -73512.95, -206527.84, -3471.792, -0.007435953, 0.058969468, -73422.4, -25154.799, 0.0, 5.014354, 4.9263997 
2.7321583e+2, 3.000097e+2, -16957.34, -108813.23, -2324.7346, -0.011178851, 0.08529737, -16898.541, -16898.541, 0.0, 5.0145326, 4.9525986 
2.7321213e+2, 3.0495852e+2, -7023.121, -90708.445, -1413.6082, -0.07594616, -0.053052966, -6999.249, -6999.249, 0.0, 5.0158362, 4.9572577 
2.7321067e+2, 3.0991253e+2, -1145.3638, -82444.59, -774.50385, -0.14361666, -0.19249785, -1137.9861, -1137.9861, 0.0, 5.0170455, 4.9593153 
2.7321026e+2, 3.1487077e+2, 4992.993, -74448.02, 109.21168, -0.21730967, -0.31429902, 4993.143, 4993.143, 0.0, 5.018149, 4.9613757 
2.7830562e+2, 1.2149475e+2, -1705175.5, -1744532.5, 256.10092, -0.0006459176, -0.0023121536, -1705173.9, 44184.215, 0.0, 5.016066, 4.9904056 
2.783039e+2, 1.2648237e+2, -1665101.6, -1713706.6, -578.3857, -0.02099126, 0.02542336, -1665094.8, 35381.676, 0.0, 5.0160728, 4.984443 
2.7830523e+2, 1.3146551e+2, -1616200.5, -1664761.0, -771.51666, -0.009687415, 0.011881808, -1616188.3, 35454.574, 0.0, 5.016043, 4.9844413 
2.7830657e+2, 1.3644865e+2, -1569523.3, -1620360.3, -964.51306, 0.0016228874, -0.00038407886, -1569505.0, 33304.34, 0.0, 5.0160074, 4.982937 
2.783071e+2, 1.4142963e+2, -1526478.1, -1583276.8, -1859.2068, 0.00899452, 0.0054973434, -1526417.3, 27578.605, 0.0, 5.01593, 4.9789495 
2.78306e+2, 1.4640883e+2, -1477355.3, -1533390.1, -1977.5728, 0.0073393467, 0.0022100366, -1477285.6, 27912.098, 0.0, 5.0157847, 4.9792957 
2.7830485e+2, 1.5138799e+2, -1428749.3, -1484558.4, -1967.6282, 0.0053133345, -0.0019198313, -1428680.0, 27719.893, 0.0, 5.0156355, 4.9792953 
2.783037e+2, 1.5636712e+2, -1381573.9, -1438702.6, -1957.9274, 0.0032811624, -0.005607884, -1381506.9, 26095.248, 0.0, 5.0154843, 4.9783 
2.7830225e+2, 1.613427e+2, -1341056.0, -1406875.4, -2529.9202, 0.0010177664, -0.002065385, -1340958.9, 17881.223, 0.0, 5.0153503, 4.9726024 
2.783002e+2, 1.6631582e+2, -1292016.1, -1357533.4, -2715.762, -0.0016860588, -0.00024905943, -1291903.8, 18199.943, 0.0, 5.0152698, 4.972715 
2.7829814e+2, 1.7128901e+2, -1243133.0, -1308525.4, -2806.9207, -0.0044108285, 0.001834027, -1243012.8, 18354.12, 0.0, 5.015189, 4.9727154 
2.7829608e+2, 1.7626218e+2, -1195392.9, -1261924.4, -2899.1758, -0.007147041, 0.0043011387, -1195266.9, 17363.117, 0.0, 5.0151052, 4.971909 
2.7829388e+2, 1.8123156e+2, -1154853.0, -1230481.6, -3601.175, -0.00809609, 0.010998265, -1154682.0, 9247.837, 0.0, 5.0149918, 4.96599 
2.782914e+2, 1.8619701e+2, -1105776.6, -1180660.1, -3731.986, -0.0045110574, 0.00024928286, -1105591.1, 9675.227, 0.0, 5.0148115, 4.9662876 
2.7828893e+2, 1.9116244e+2, -1057135.5, -1131733.1, -3686.231, -0.00072015077, -0.011184315, -1056953.9, 9649.192, 0.0, 5.014623, 4.9662876 
2.782865e+2, 1.9612785e+2, -1009396.9, -1084725.6, -3641.3591, 0.0030614783, -0.022295142, -1009221.25, 8718.391, 0.0, 5.01443, 4.9656367 
2.7828375e+2, 2.0109041e+2, -969291.9, -1054224.6, -3814.4167, 0.005183567, -0.020109015, -969120.94, 184.64888, 0.0, 5.0142446, 4.9593472 
2.7828035e+2, 2.0605116e+2, -919964.25, -1004072.5, -3846.4897, 0.003026107, -0.012115224, -919788.7, 903.074, 0.0, 5.014092, 4.959719 
2.782769e+2, 2.11012e+2, -871147.06, -955021.0, -3805.0383, 0.00064134307, -0.0039005363, -870974.8, 1102.5189, 0.0, 5.013938, 4.9597187 
2.7827343e+2, 2.1597286e+2, -823005.2, -907427.2, -3763.2366, -0.001744816, 0.0044222805, -822837.75, 625.1244, 0.0, 5.013779, 4.959219 
2.782703e+2, 2.2092968e+2, -782785.1, -877120.3, -3356.4277, -0.0028855633, 0.014986605, -782665.8, -7780.015, 0.0, 5.0136094, 4.9527645 
2.7826807e+2, 2.2588137e+2, -733215.4, -826059.44, -3064.5383, 0.0007024929, -0.0054935236, -733114.4, -6760.931, 0.0, 5.0133667, 4.953457 
2.782659e+2, 2.3083293e+2, -684625.3, -777071.8, -2919.7874, 0.004608808, -0.028371008, -684533.2, -6711.4307, 0.0, 5.0131016, 4.9534583 
2.7826375e+2, 2.3578449e+2, -636721.5, -729545.1, -2768.9758, 0.008435294, -0.051462375, -636638.94, -7348.6377, 0.0, 5.0128217, 4.952957 
2.7826172e+2, 2.4073386e+2, -598511.5, -703507.3, -2162.9148, 0.01098734, -0.047573857, -598466.94, -17683.299, 0.0, 5.01254, 4.944964 
2.7826e+2, 2.4568322e+2, -548870.1, -653125.8, -1947.1653, 0.010418476, -0.010574994, -548833.8, -16545.436, 0.0, 5.0124526, 4.945307 
2.782583e+2, 2.506328e+2, -499538.0, -603783.6, -1829.3011, 0.009652077, 0.027635932, -499505.9, -15713.808, 0.0, 5.0124063, 4.945297 
2.7825668e+2, 2.5558248e+2, -450412.25, -554988.9, -1727.5896, 0.008847751, 0.06700602, -450383.72, -15088.909, 0.0, 5.0123696, 4.945089 
2.7825537e+2, 2.6052532e+2, -410563.97, -526652.44, 1056.6667, 0.0022071726, 0.09171403, -410554.38, -23699.887, 0.0, 5.012286, 4.9374666 
2.782592e+2, 2.6545757e+2, -357849.47, -463303.84, 4461.1963, 0.020685837, -0.032054637, -357661.1, -19184.361, 0.0, 5.010834, 4.9424763 
2.7826434e+2, 2.7038908e+2, -313692.75, -416013.66, 7102.437, 0.044348314, -0.18580022, -313202.1, -23099.563, 0.0, 5.008507, 4.942653 
2.7826992e+2, 2.7531973e+2, -271308.22, -369740.56, 10265.793, 0.06541135, -0.35380748, -270248.97, -28512.777, 0.0, 5.0054836, 4.9427843 
2.7826592e+2, 2.8025502e+2, -264744.06, -407845.5, 5955.8667, 0.01111423, -0.310857, -264496.63, -71159.62, 0.0, 5.004237, 4.913077 
2.782534e+2, 2.8519785e+2, -193087.53, -317294.9, 3537.849, -0.020620601, -0.08873472, -192986.84, -48062.51, 0.0, 5.0080914, 4.9249816 
2.7824613e+2, 2.9013494e+2, -135728.34, -264248.25, 1900.0276, 0.0006966866, 0.0148373535, -135700.27, -39124.586, 0.0, 5.0109043, 4.92487 
2.782392e+2, 2.950706e+2, -80738.27, -212398.81, 540.52094, 0.015589741, 0.10077308, -80736.055, -32495.045, 0.0, 5.012769, 4.9247603 
2.7823174e+2, 3.0001417e+2, -20053.871, -109841.06, 1369.9897, -0.0042635747, 0.13793884, -20032.973, -20032.973, 0.0, 5.0138373, 4.9522715 
2.782269e+2, 3.049576e+2, -13904.779, -90369.625, 3854.8418, -0.098070756, -0.05865446, -13710.936, -13710.936, 0.0, 5.0133157, 4.9581456 
2.7822426e+2, 3.099052e+2, -17993.758, -85113.15, 6139.9565, -0.19806118, -0.27287805, -17436.71, -17436.71, 0.0, 5.010791, 4.960613 
2.7822265e+2, 3.148577e+2, -26521.572, -82143.06, 8385.624, -0.30657035, -0.4684056, -25284.834, -25284.834, 0.0, 5.0064507, 4.9630823 
2.8332204e+2, 1.2149427e+2, -1704255.6, -1744051.8, -425.88895, 0.0013183649, 0.007076851, -1704251.1, 45113.29, 0.0, 5.016365, 4.9904165 
2.8332028e+2, 1.2648046e+2, -1664205.3, -1713425.5, -1267.8674, -0.019632947, 0.021101976, -1664172.6, 36323.68, 0.0, 5.0164046, 4.9843736 
2.8332153e+2, 1.3146378e+2, -1615149.5, -1664403.5, -1229.9789, -0.009243851, 0.010011515, -1615118.9, 36542.03, 0.0, 5.0164266, 4.9843726 
2.8332278e+2, 1.3644709e+2, -1568301.5, -1619918.0, -1192.6693, 0.0011750029, 0.00017609168, -1568273.9, 34551.746, 0.0, 5.0164485, 4.982869 
2.8332317e+2, 1.4142816e+2, -1525023.5, -1582612.6, -2007.8171, 0.008019631, 0.0074994066, -1524953.5, 29057.549, 0.0, 5.0164266, 4.9789286 
2.8332198e+2, 1.4640729e+2, -1475767.1, -1532623.4, -2159.0032, 0.0066686315, 0.0035264313, -1475685.3, 29527.863, 0.0, 5.0163193, 4.9792914 
2.8332078e+2, 1.5138637e+2, -1427048.1, -1483735.9, -2174.8833, 0.0050029755, -0.0013521323, -1426964.9, 29450.67, 0.0, 5.0162096, 4.979292 
2.8331953e+2, 1.5636544e+2, -1379754.4, -1437822.0, -2191.6152, 0.003352531, -0.0057757134, -1379671.8, 27946.26, 0.0, 5.0161, 4.978298 
2.8331792e+2, 1.613409e+2, -1339383.6, -1406259.5, -2795.8987, 0.0014082267, -0.002758474, -1339267.0, 19589.674, 0.0, 5.0159564, 4.972518 
2.8331578e+2, 1.6631395e+2, -1290805.3, -1357215.4, -2983.4585, -0.0011419449, -0.0007950819, -1290671.5, 19450.135, 0.0, 5.0157366, 4.9725986 
2.8331357e+2, 1.7128703e+2, -1242346.0, -1308412.9, -3074.404, -0.0036840818, 0.001512625, -1242203.3, 19182.934, 0.0, 5.015513, 4.9725995 
2.8331137e+2, 1.7626013e+2, -1195018.5, -1262010.8, -3166.2292, -0.0062014605, 0.0042382255, -1194869.1, 17781.467, 0.0, 5.0152893, 4.971793 
2.8330898e+2, 1.8122946e+2, -1154600.8, -1230321.5, -3876.9285, -0.0070547536, 0.011214109, -1154402.9, 9548.245, 0.0, 5.015071, 4.966007 
2.8330633e+2, 1.8619497e+2, -1105511.0, -1180403.0, -4017.9543, -0.00372024, 0.0006461901, -1105296.0, 9990.525, 0.0, 5.014876, 4.966345 
2.8330365e+2, 1.9116046e+2, -1056885.1, -1131487.0, -3982.5237, -0.00015590587, -0.010649561, -1056673.1, 9949.036, 0.0, 5.014683, 4.966344 
2.8330097e+2, 1.9612594e+2, -1009147.44, -1084484.0, -3947.0518, 0.00344026, -0.021653462, -1008941.25, 9016.5625, 0.0, 5.0144897, 4.965692 
2.8329805e+2, 2.010885e+2, -969117.9, -1054124.9, -4122.145, 0.0054568937, -0.019779334, -968918.44, 404.99182, 0.0, 5.0143, 4.9593563 
2.8329447e+2, 2.0604916e+2, -919868.2, -1004063.8, -4224.8506, 0.0032936593, -0.0127684325, -919656.7, 1054.4579, 0.0, 5.014132, 4.959704 
2.8329086e+2, 2.1100989e+2, -871082.94, -955025.0, -4274.697, 0.0009321412, -0.0055230306, -870865.8, 1232.466, 0.0, 5.0139666, 4.9597044 
2.8328726e+2, 2.1597062e+2, -822961.06, -907438.25, -4324.9375, -0.001402103, 0.0018443079, -822740.25, 745.1103, 0.0, 5.013801, 4.9592056 
2.8328395e+2, 2.209275e+2, -782665.94, -876807.2, -4043.6284, -0.0024176957, 0.0125943525, -782492.56, -7584.423, 0.0, 5.0135984, 4.952878 
2.8328148e+2, 2.258797e+2, -733395.44, -825747.9, -3811.744, 0.0018768134, -0.004365552, -733238.44, -6867.4067, 0.0, 5.013225, 4.953629 
2.8327906e+2, 2.308318e+2, -685154.1, -776899.44, -3700.0867, 0.006720233, -0.023618285, -685005.2, -7170.843, 0.0, 5.012835, 4.953637 
2.8327668e+2, 2.3578387e+2, -637555.44, -729492.25, -3592.3962, 0.011636942, -0.043202225, -637415.25, -8117.3794, 0.0, 5.0124435, 4.9531436 
2.8327444e+2, 2.4073347e+2, -599863.2, -703603.0, -3018.1553, 0.015529422, -0.03904539, -599775.5, -18986.17, 0.0, 5.011978, 4.9451656 
2.8327253e+2, 2.4568246e+2, -551498.0, -654005.06, -2809.942, 0.016583648, -0.0072839744, -551421.0, -19121.564, 0.0, 5.011486, 4.9454145 
2.8327063e+2, 2.5063172e+2, -503376.47, -605253.8, -2665.1997, 0.01756414, 0.026845975, -503306.8, -19498.795, 0.0, 5.011016, 4.9453926 
2.8326884e+2, 2.5558117e+2, -455495.34, -557061.75, -2515.3845, 0.018640438, 0.06321086, -455433.1, -20118.504, 0.0, 5.0105414, 4.9451723 
2.832675e+2, 2.6052466e+2, -415265.3, -525092.06, -74.40364, 0.01705297, 0.08832473, -415265.25, -28396.508, 0.0, 5.0099516, 4.9390492 
2.832719e+2, 2.6546e+2, -362142.44, -459089.13, 1391.506, 0.055208992, -0.023228837, -362122.47, -23663.02, 0.0, 5.008312, 4.9450083 
2.8327802e+2, 2.7039525e+2, -315982.06, -409372.56, 1326.044, 0.10726264, -0.16500616, -315963.25, -25916.389, 0.0, 5.006509, 4.9457183 
2.8328475e+2, 2.7533025e+2, -269672.88, -359958.1, 1025.2183, 0.16435757, -0.32284036, -269661.22, -28024.613, 0.0, 5.004685, 4.946381 
2.8328225e+2, 2.802678e+2, -256963.27, -397509.97, -3924.498, 0.15391342, -0.3032524, -256853.77, -63638.813, 0.0, 5.0056324, 4.9165425 
2.8326964e+2, 2.852075e+2, -194367.02, -323859.8, 244.47076, 0.09195877, -0.09947981, -194366.56, -49529.21, 0.0, 5.008628, 4.9233327 
2.8326195e+2, 2.9014182e+2, -140028.17, -270281.78, 863.982, 0.06969478, 0.0051059215, -140022.45, -43501.16, 0.0, 5.010214, 4.9236617 
2.8325492e+2, 2.950746e+2, -85592.805, -216887.89, 1240.2916, 0.050666172, 0.085483745, -85581.09, -37360.746, 0.0, 5.01175, 4.9239907 
2.8324768e+2, 3.0001715e+2, -20122.723, -103391.14, 2572.0728, 0.011139291, 0.119376756, -20043.35, -20043.35, 0.0, 5.0132155, 4.95496 
2.8324363e+2, 3.0496505e+2, -7003.5464, -76396.72, 3635.2124, -0.07191342, -0.05415772, -6813.633, -6813.633, 0.0, 5.0148077, 4.962779 
2.8324264e+2, 3.099199e+2, 119.86173, -65370.566, 4498.467, -0.13843206, -0.21784185, 427.41223, 427.41223, 0.0, 5.016468, 4.9657264 
2.8324354e+2, 3.1488252e+2, 7659.984, -54769.164, 5197.426, -0.19171667, -0.33400118, 8089.728, 8089.728, 0.0, 5.018074, 4.96868 
2.8833878e+2, 1.2149352e+2, -1704699.5, -1744959.9, -305.65085, 0.004922071, 0.018350363, -1704697.3, 44676.227, 0.0, 5.0163655, 4.9901185 
2.883372e+2, 1.2647781e+2, -1664117.1, -1713253.0, -1253.896, -0.01461417, 0.0133381095, -1664085.3, 36438.492, 0.0, 5.016405, 4.9844303 
2.8833812e+2, 1.3146162e+2, -1615061.1, -1664230.0, -1214.1051, -0.0073527414, 0.006516191, -1615031.3, 36652.008, 0.0, 5.0164275, 4.98443 
2.8833908e+2, 1.3644542e+2, -1568212.5, -1619742.8, -1174.7861, -0.000093218485, 0.0009423393, -1568185.8, 34657.242, 0.0, 5.0164495, 4.982927 
2.883393e+2, 1.4142679e+2, -1525027.9, -1582622.5, -2076.1035, 0.0047532828, 0.010903318, -1524953.1, 29071.96, 0.0, 5.0164266, 4.9789257 
2.8833807e+2, 1.464058e+2, -1475792.1, -1532676.1, -2242.9465, 0.0040885913, 0.0060266857, -1475703.9, 29523.988, 0.0, 5.0163193, 4.9792743 
2.8833678e+2, 1.5138476e+2, -1427072.1, -1483788.1, -2257.649, 0.0032048663, 0.00010834519, -1426982.4, 29448.71, 0.0, 5.01621, 4.9792747 
2.8833553e+2, 1.5636371e+2, -1379777.0, -1437873.6, -2273.1558, 0.0023285926, -0.0053676297, -1379688.3, 27946.166, 0.0, 5.0161004, 4.978281 
2.883339e+2, 1.6133904e+2, -1339504.1, -1406511.9, -2948.9421, 0.0012253701, -0.00332596, -1339374.6, 19499.572, 0.0, 5.0159564, 4.972434 
2.8833157e+2, 1.6631192e+2, -1290965.9, -1357554.1, -3154.5842, -0.0003186611, -0.0019449998, -1290816.8, 19324.275, 0.0, 5.0157366, 4.9724855 
2.8832924e+2, 1.7128484e+2, -1242504.4, -1308750.3, -3243.9063, -0.0018603192, -0.00019612329, -1242345.9, 19061.635, 0.0, 5.0155134, 4.9724865 
2.8832695e+2, 1.7625774e+2, -1195174.6, -1262346.8, -3334.0798, -0.003390047, 0.001960522, -1195009.5, 17664.39, 0.0, 5.0152903, 4.9716797 
2.8832442e+2, 1.8122701e+2, -1154581.8, -1230284.5, -4035.892, -0.0038850098, 0.009056153, -1154367.3, 9607.839, 0.0, 5.0150714, 4.96602 
2.883214e+2, 1.8619277e+2, -1105440.0, -1180252.9, -4166.702, -0.0017188832, 0.00028923343, -1105208.6, 10099.558, 0.0, 5.014876, 4.9663963 
2.8831843e+2, 1.9115849e+2, -1056815.3, -1131336.8, -4129.2637, 0.0005911327, -0.009130149, -1056587.3, 10054.288, 0.0, 5.014683, 4.9663954 
2.883154e+2, 1.9612423e+2, -1009078.7, -1084333.8, -4091.7637, 0.002917112, -0.018252788, -1008856.8, 9117.826, 0.0, 5.014489, 4.965744 
2.883122e+2, 2.0108685e+2, -969142.2, -1054177.6, -4260.3296, 0.0040773195, -0.015812714, -968929.3, 410.21176, 0.0, 5.0143, 4.9593387 
2.883085e+2, 2.0604722e+2, -919946.2, -1004236.7, -4351.167, 0.0023021877, -0.011092124, -919722.1, 1008.22723, 0.0, 5.0141325, 4.9596453 
2.8830478e+2, 2.1100765e+2, -871159.3, -955196.5, -4398.827, 0.00038817723, -0.00623226, -870929.7, 1191.1565, 0.0, 5.0139675, 4.959646 
2.8830105e+2, 2.1596809e+2, -823035.9, -907608.5, -4446.8687, -0.0015202151, -0.001259179, -822802.7, 708.58887, 0.0, 5.013802, 4.959147 
2.8829753e+2, 2.209249e+2, -782516.0, -876490.25, -4278.251, -0.0022372396, 0.008704823, -782321.6, -7386.3765, 0.0, 5.0136, 4.952987 
2.882947e+2, 2.2587769e+2, -733173.25, -825288.75, -4099.963, 0.002112135, -0.003713128, -732991.1, -6598.42, 0.0, 5.013229, 4.9537883 
2.8829196e+2, 2.3083043e+2, -684928.06, -776446.44, -3979.8032, 0.0069668447, -0.01803266, -684755.3, -6905.0693, 0.0, 5.0128403, 4.9537945 
2.8828922e+2, 2.3578314e+2, -637325.44, -729045.4, -3863.577, 0.011845107, -0.03270279, -637162.94, -7854.896, 0.0, 5.012451, 4.953299 
2.8828666e+2, 2.4073304e+2, -599544.5, -703061.44, -3347.1365, 0.016268242, -0.027249241, -599436.4, -18639.322, 0.0, 5.0119977, 4.9453516 
2.882844e+2, 2.4568148e+2, -551239.2, -653644.7, -3181.0198, 0.01965362, -0.0022871024, -551140.44, -18826.852, 0.0, 5.0115123, 4.945539 
2.882822e+2, 2.5063014e+2, -503117.13, -604881.5, -3026.995, 0.023045775, 0.024740001, -503027.16, -19198.137, 0.0, 5.0110416, 4.945521 
2.8828007e+2, 2.5557896e+2, -455235.53, -556677.56, -2867.879, 0.026491718, 0.05382449, -455154.53, -19811.887, 0.0, 5.010567, 4.9453044 
2.8827828e+2, 2.6052278e+2, -413718.13, -522095.7, -993.7893, 0.027676882, 0.07704729, -413709.0, -26814.135, 0.0, 5.010011, 4.940119 
2.8828174e+2, 2.6546133e+2, -360279.1, -456550.66, 510.1768, 0.063762836, -0.009446524, -360276.38, -21818.836, 0.0, 5.0085177, 4.945964 
2.8828675e+2, 2.7039963e+2, -313804.66, -407246.94, 822.18585, 0.11150678, -0.123874724, -313797.4, -23779.723, 0.0, 5.0068626, 4.946511 
2.8829238e+2, 2.7533743e+2, -267181.03, -358244.75, 899.21924, 0.16297677, -0.25552496, -267172.16, -25589.08, 0.0, 5.0051866, 4.947011 
2.882901e+2, 2.8027564e+2, -253517.75, -389236.84, -5837.624, 0.17122868, -0.24425289, -253267.11, -60109.594, 0.0, 5.0055866, 4.91939 
2.8827947e+2, 2.8521273e+2, -195334.84, -322511.7, 66.530235, 0.12110279, -0.080388546, -195334.81, -50529.38, 0.0, 5.008113, 4.9238725 
2.8827325e+2, 2.901448e+2, -140852.39, -269398.3, 1062.4667, 0.08877563, 0.00006133448, -140843.61, -44332.95, 0.0, 5.009774, 4.924056 
2.8826758e+2, 2.950753e+2, -86272.14, -216467.13, 1814.4756, 0.058067173, 0.056798156, -86246.86, -38014.99, 0.0, 5.0113854, 4.9242396 
2.882618e+2, 3.0001715e+2, -17991.354, -97772.445, 3401.9197, 0.009817515, 0.07703426, -17846.555, -17846.555, 0.0, 5.0129995, 4.957073 
2.882592e+2, 3.04971e+2, -3031.0037, -68468.945, 5579.4097, -0.07466603, -0.059908096, -2558.6975, -2558.6975, 0.0, 5.014876, 4.965734 
2.8825957e+2, 3.099321e+2, 5009.8633, -56831.58, 7467.412, -0.14655335, -0.18458892, 5898.7827, 5898.7827, 0.0, 5.0167856, 4.96876 
2.882616e+2, 3.1490052e+2, 13463.298, -45620.336, 9189.238, -0.20877783, -0.26938817, 14859.5, 14859.5, 0.0, 5.0186415, 4.971793 
2.933555e+2, 1.21492736e+2, -1705082.3, -1745741.9, -183.2774, 0.008463894, 0.02951603, -1705081.4, 44301.266, 0.0, 5.016366, 4.9898615 
2.933541e+2, 1.2647517e+2, -1664029.8, -1713079.9, -1240.3591, -0.009570603, 0.0056307665, -1663998.4, 36552.613, 0.0, 5.016406, 4.984487 
2.9335478e+2, 1.3145947e+2, -1614973.5, -1664055.8, -1198.6659, -0.0054447893, 0.003057889, -1614944.1, 36761.305, 0.0, 5.0164285, 4.984487 
2.933554e+2, 1.3644373e+2, -1568124.1, -1619567.0, -1157.3378, -0.0013525432, 0.0017261076, -1568098.1, 34762.06, 0.0, 5.0164504, 4.982984 
2.9335538e+2, 1.4142542e+2, -1525038.6, -1582644.8, -2145.8489, 0.0014875713, 0.01434082, -1524958.9, 29080.365, 0.0, 5.0164266, 4.9789186 
2.9335412e+2, 1.4640433e+2, -1475817.4, -1532728.9, -2326.6404, 0.001512057, 0.00854478, -1475722.5, 29520.096, 0.0, 5.0163198, 4.9792566 
2.9335284e+2, 1.5138315e+2, -1427096.3, -1483840.4, -2340.1653, 0.0014121169, 0.0015590258, -1426999.9, 29446.74, 0.0, 5.0162106, 4.9792576 
2.9335153e+2, 1.5636197e+2, -1379799.9, -1437925.1, -2354.4468, 0.0013118678, -0.004996977, -1379704.8, 27946.06, 0.0, 5.0161014, 4.978264 
2.9334983e+2, 1.6133718e+2, -1339635.8, -1406787.5, -3103.1958, 0.0010478204, -0.003846291, -1339492.6, 19398.988, 0.0, 5.0159564, 4.972342 
2.9334742e+2, 1.6630988e+2, -1291126.8, -1357892.9, -3325.5386, 0.0005098991, -0.0030508325, -1290961.6, 19198.848, 0.0, 5.0157366, 4.972372 
2.9334497e+2, 1.7128262e+2, -1242663.0, -1309087.5, -3413.2366, -0.00003170839, -0.0018982383, -1242488.0, 18940.77, 0.0, 5.015514, 4.9723725 
2.9334253e+2, 1.7625538e+2, -1195331.0, -1262682.8, -3501.7585, -0.0005742128, -0.00034799508, -1195149.5, 17547.734, 0.0, 5.015291, 4.971566 
2.933398e+2, 1.812246e+2, -1154576.1, -1230275.3, -4195.855, -0.00070232776, 0.0069223703, -1154344.3, 9654.792, 0.0, 5.015072, 4.966023 
2.9333648e+2, 1.8619055e+2, -1105369.5, -1180102.5, -4315.806, 0.0002938961, -0.00005454116, -1105121.1, 10208.873, 0.0, 5.014876, 4.966447 
2.9333317e+2, 1.9115652e+2, -1056745.9, -1131186.4, -4276.36, 0.001344718, -0.007639139, -1056501.0, 10159.825, 0.0, 5.0146823, 4.9664464 
2.9332986e+2, 1.9612248e+2, -1009010.25, -1084183.3, -4236.8325, 0.0023956362, -0.01492209, -1008772.2, 9219.371, 0.0, 5.0144887, 4.9657955 
2.9332638e+2, 2.0108522e+2, -969178.6, -1054255.8, -4398.229, 0.0026964478, -0.011794359, -968951.9, 403.66354, 0.0, 5.0143, 4.959312 
2.9332253e+2, 2.060453e+2, -920024.6, -1004409.2, -4477.582, 0.0013074534, -0.009349089, -919787.7, 961.8532, 0.0, 5.014133, 4.959586 
2.933187e+2, 2.1100543e+2, -871236.1, -955367.75, -4523.0557, -0.00016171187, -0.006923034, -870993.7, 1149.7142, 0.0, 5.0139685, 4.959587 
2.9331484e+2, 2.1596555e+2, -823111.1, -907778.44, -4568.8975, -0.0016469151, -0.004392473, -822865.3, 671.94257, 0.0, 5.0138035, 4.9590883 
2.9331115e+2, 2.2092229e+2, -782389.3, -876222.2, -4511.6045, -0.0020777066, 0.004819824, -782172.9, -7210.4575, 0.0, 5.0136013, 4.9530787 
2.93308e+2, 2.2587568e+2, -732952.6, -824828.6, -4384.524, 0.002345102, -0.0031992213, -732743.8, -6329.2437, 0.0, 5.013232, 4.953946 
2.9330486e+2, 2.3082905e+2, -684703.5, -775992.5, -4255.8623, 0.007233529, -0.0127814915, -684505.5, -6639.1226, 0.0, 5.012846, 4.9539504 
2.9330176e+2, 2.3578238e+2, -637096.94, -728597.5, -4131.0996, 0.012095768, -0.022733703, -636910.8, -7592.266, 0.0, 5.0124593, 4.9534526 
2.932989e+2, 2.4073268e+2, -599305.5, -702685.56, -3665.4873, 0.01707611, -0.014783088, -599175.7, -18371.467, 0.0, 5.0120177, 4.9454784 
2.9329634e+2, 2.4568059e+2, -550986.7, -653278.3, -3557.2166, 0.022774376, 0.003797842, -550863.1, -18536.348, 0.0, 5.011538, 4.945662 
2.932938e+2, 2.5062862e+2, -502864.13, -604503.2, -3393.911, 0.02854105, 0.02338064, -502750.9, -18901.604, 0.0, 5.0110674, 4.9456477 
2.9329133e+2, 2.5557682e+2, -454982.03, -556287.4, -3225.4956, 0.0343195, 0.044843312, -454879.44, -19509.316, 0.0, 5.010593, 4.945435 
2.9328904e+2, 2.6052058e+2, -412754.63, -520354.25, -1782.9058, 0.037188593, 0.06455034, -412725.06, -25800.348, 0.0, 5.010071, 4.9407034 
2.9329175e+2, 2.654618e+2, -358457.6, -453991.2, -126.31761, 0.072263, -0.0048081283, -358457.44, -19993.773, 0.0, 5.0087237, 4.9467993 
2.93296e+2, 2.7040297e+2, -311668.3, -405098.28, 563.23535, 0.11759979, -0.10038008, -311664.94, -21665.809, 0.0, 5.0072165, 4.9471836 
2.9330087e+2, 2.7534327e+2, -264729.6, -356506.3, 1018.25574, 0.16534592, -0.2143327, -264718.28, -23175.594, 0.0, 5.005688, 4.9475207 
2.9329786e+2, 2.8028372e+2, -254580.56, -391332.75, -8412.522, 0.18708758, -0.17938359, -254065.0, -60967.22, 0.0, 5.0055437, 4.918601 
2.9328847e+2, 2.8521943e+2, -196385.02, -321088.44, 162.61635, 0.14530523, -0.031537317, -196384.8, -51625.66, 0.0, 5.0075984, 4.9243245 
2.9328388e+2, 2.90149e+2, -141757.4, -268439.78, 1534.4799, 0.10491812, 0.016721858, -141738.83, -45250.652, 0.0, 5.009335, 4.9243627 
2.932798e+2, 2.950769e+2, -87030.78, -215971.34, 2661.7397, 0.06453284, 0.041760437, -86975.86, -38741.81, 0.0, 5.0110216, 4.924401 
2.9327548e+2, 3.0001634e+2, -17083.273, -94753.55, 4351.5176, 0.006803842, 0.03168071, -16840.236, -16840.236, 0.0, 5.012783, 4.9581566 
2.932743e+2, 3.049741e+2, 847.31134, -60471.574, 7451.2246, -0.084324054, -0.09853302, 1739.7653, 1739.7653, 0.0, 5.0149436, 4.968419 
2.9327607e+2, 3.099404e+2, 9804.851, -48225.973, 10362.305, -0.165991, -0.21247895, 11599.688, 11599.688, 0.0, 5.017103, 4.9715242 
2.9327938e+2, 3.1491348e+2, 19169.861, -36407.43, 13105.077, -0.24157563, -0.2942142, 22105.016, 22105.016, 0.0, 5.019209, 4.974636 
2.983722e+2, 1.2149192e+2, -1705476.9, -1746432.9, -44.317024, 0.0119680315, 0.040312394, -1705476.9, 43915.39, 0.0, 5.0163426, 4.9896455 
2.9837102e+2, 1.2647256e+2, -1663966.6, -1712918.0, -1209.8022, -0.004580001, -0.0018803679, -1663936.8, 36641.434, 0.0, 5.0164, 4.984543 
2.983714e+2, 1.3145731e+2, -1614864.0, -1663870.6, -1169.8553, -0.0035531854, -0.00032272047, -1614836.0, 36891.62, 0.0, 5.0164375, 4.984543 
2.9837176e+2, 1.3644208e+2, -1567984.9, -1619366.0, -1132.3192, -0.002570148, 0.0024772114, -1567960.0, 34917.457, 0.0, 5.0164695, 4.983041 
2.983715e+2, 1.4142403e+2, -1524990.9, -1582651.0, -2217.4963, -0.0016929536, 0.017714694, -1524905.8, 29147.488, 0.0, 5.016449, 4.978905 
2.983702e+2, 1.4640284e+2, -1475784.1, -1532757.6, -2428.4624, -0.0009934667, 0.011029638, -1475680.8, 29576.578, 0.0, 5.0163403, 4.979237 
2.9836887e+2, 1.5138155e+2, -1427075.9, -1483875.4, -2459.9038, -0.00032046484, 0.0030118227, -1426969.5, 29492.701, 0.0, 5.016227, 4.9792376 
2.9836756e+2, 1.5636024e+2, -1379800.3, -1437969.6, -2492.602, 0.0003515229, -0.0045754453, -1379693.6, 27973.564, 0.0, 5.016111, 4.9782443 
2.9836577e+2, 1.6133533e+2, -1339767.1, -1407074.6, -3319.9753, 0.0009168697, -0.0041943947, -1339603.8, 19305.45, 0.0, 5.0159597, 4.9722443 
2.983632e+2, 1.6630785e+2, -1291274.1, -1358217.9, -3534.803, 0.001361214, -0.0040469146, -1291088.0, 19091.781, 0.0, 5.0157404, 4.972261 
2.9836065e+2, 1.7128043e+2, -1242813.9, -1309414.5, -3598.3381, 0.001800962, -0.003585875, -1242620.1, 18830.09, 0.0, 5.015516, 4.9722614 
2.9835808e+2, 1.7625299e+2, -1195493.4, -1263015.3, -3663.4111, 0.0022332887, -0.002733233, -1195295.3, 17425.277, 0.0, 5.015289, 4.9714546 
2.983552e+2, 1.8122216e+2, -1154602.5, -1230302.6, -4335.5547, 0.0024757446, 0.0047321585, -1154355.0, 9668.039, 0.0, 5.0150657, 4.966017 
2.9835156e+2, 1.8618834e+2, -1105316.1, -1179962.9, -4456.459, 0.0023068325, -0.0004378401, -1105051.0, 10300.698, 0.0, 5.014871, 4.9664965 
2.9834792e+2, 1.9115454e+2, -1056697.8, -1131048.1, -4429.209, 0.0021073674, -0.0061972314, -1056434.8, 10245.383, 0.0, 5.0146756, 4.9664965 
2.983443e+2, 1.9612074e+2, -1008975.75, -1084050.1, -4401.256, 0.0018990312, -0.011651071, -1008718.6, 9289.905, 0.0, 5.0144773, 4.9658456 
2.9834056e+2, 2.0108357e+2, -969262.8, -1054374.6, -4559.2354, 0.0013522215, -0.007700006, -969019.25, 352.30252, 0.0, 5.0142875, 4.959277 
2.9833657e+2, 2.0604338e+2, -920115.9, -1004585.75, -4621.14, 0.0003365966, -0.007513596, -919863.8, 904.85474, 0.0, 5.014129, 4.959527 
2.983326e+2, 2.1100321e+2, -871315.5, -955537.56, -4657.6016, -0.0006881996, -0.007559236, -871058.75, 1107.1371, 0.0, 5.0139685, 4.9595284 
2.9832867e+2, 2.1596304e+2, -823192.94, -907948.1, -4693.453, -0.0017357375, -0.007501917, -822933.8, 629.253, 0.0, 5.0138025, 4.9590297 
2.983248e+2, 2.2091968e+2, -782314.5, -876017.5, -4744.0405, -0.0018678197, 0.0010072603, -782074.94, -7085.3774, 0.0, 5.0135946, 4.9531517 
2.9832125e+2, 2.2587365e+2, -732812.9, -824406.4, -4704.1484, 0.0026703312, -0.0027435445, -732571.9, -6135.3447, 0.0, 5.0132113, 4.9540997 
2.9831782e+2, 2.3082763e+2, -684663.6, -775619.4, -4604.543, 0.0076847803, -0.007768346, -684431.1, -6548.3853, 0.0, 5.01279, 4.954103 
2.9831433e+2, 2.357816e+2, -637214.44, -728299.3, -4502.619, 0.012672465, -0.013180583, -636992.44, -7663.1523, 0.0, 5.012348, 4.9536047 
2.9831114e+2, 2.4073239e+2, -599683.1, -702684.7, -4084.1829, 0.01836777, -0.0015842502, -599521.44, -18710.576, 0.0, 5.0118494, 4.9455566 
2.9830828e+2, 2.4567981e+2, -551329.5, -653131.0, -3989.2007, 0.026397621, 0.0109382365, -551173.4, -18834.309, 0.0, 5.0113573, 4.9457955 
2.9830545e+2, 2.506272e+2, -503205.0, -604342.7, -3755.1719, 0.034549214, 0.022703582, -503065.75, -19196.99, 0.0, 5.010887, 4.9457846 
2.9830265e+2, 2.5557476e+2, -455291.22, -556099.56, -3517.7056, 0.04269111, 0.036221072, -455168.63, -19771.807, 0.0, 5.0104237, 4.9455757 
2.9829982e+2, 2.6051798e+2, -413335.34, -520076.84, -2270.3564, 0.046627086, 0.05087532, -413287.06, -26329.4, 0.0, 5.009771, 4.940884 
2.9830208e+2, 2.6546168e+2, -361137.34, -452883.4, -87.21722, 0.08414955, -0.008282355, -361137.28, -22661.771, 0.0, 5.007321, 4.947684 
2.98306e+2, 2.704058e+2, -319505.03, -406534.34, 1484.2662, 0.1328411, -0.09092164, -319479.72, -29494.396, 0.0, 5.004016, 4.947972 
2.9831052e+2, 2.7534896e+2, -279447.66, -361195.56, 3054.987, 0.18396315, -0.19155335, -279333.66, -37829.39, 0.0, 5.0000715, 4.9482126 
2.9830605e+2, 2.8029367e+2, -281516.56, -413164.2, -8406.814, 0.21823192, -0.098085634, -280981.88, -87961.81, 0.0, 4.9978795, 4.9142485 
2.9829708e+2, 2.852287e+2, -210620.34, -326380.06, 3448.7354, 0.17584433, 0.05342065, -210517.69, -65829.93, 0.0, 5.0023713, 4.9244566 
2.9829413e+2, 2.9015505e+2, -149689.9, -271265.3, 4250.842, 0.12440777, 0.05793425, -149541.47, -53093.65, 0.0, 5.0063734, 4.9244175 
2.9829168e+2, 2.950797e+2, -91255.02, -217467.03, 5016.045, 0.07321339, 0.0405391, -91055.984, -42831.51, 0.0, 5.009414, 4.9243784 
2.9828882e+2, 3.000148e+2, -20365.098, -95931.96, 5930.615, 0.004424694, -0.017251873, -19902.486, -19902.486, 0.0, 5.0114822, 4.958189 
2.9828915e+2, 3.0497465e+2, -5058.45, -57478.637, 7190.5376, -0.09434584, -0.16448604, -4090.0076, -4090.0076, 0.0, 5.011597, 4.970563 
2.982926e+2, 3.0994514e+2, -7012.2505, -50245.727, 6527.328, -0.18169789, -0.28673917, -6048.2583, -6048.2583, 0.0, 5.0097756, 4.9734964 
2.9829767e+2, 3.149218e+2, -13269.951, -45350.883, 3769.103, -0.2625377, -0.3821522, -12833.078, -12833.078, 0.0, 5.0061746, 4.9764385 
3.0338898e+2, 1.214899e+2, -1704312.5, -1746422.3, 88.02415, 0.013377695, 0.03799376, -1704312.3, 45099.387, 0.0, 5.0168447, 4.9894023 
3.033877e+2, 1.2647055e+2, -1662443.4, -1712139.3, -1094.2324, -0.0041334787, -0.004149828, -1662419.3, 38178.27, 0.0, 5.0168967, 4.984555 
3.0338812e+2, 1.3145536e+2, -1613261.0, -1663052.4, -1111.3436, -0.0033735207, -0.0022305485, -1613236.3, 38510.016, 0.0, 5.016964, 4.984555 
3.033885e+2, 1.3644017e+2, -1566285.0, -1618499.8, -1128.5586, -0.0025719951, 0.00097189733, -1566260.6, 36634.645, 0.0, 5.0170302, 4.983053 
3.0338824e+2, 1.4142218e+2, -1523367.3, -1582045.6, -2380.4336, -0.0017565057, 0.016910706, -1523270.8, 30799.828, 0.0, 5.0170326, 4.978822 
3.0338684e+2, 1.4640099e+2, -1474277.0, -1532271.4, -2706.4604, -0.0010198171, 0.011415106, -1474151.0, 31124.191, 0.0, 5.0168996, 4.9791284 
3.0338538e+2, 1.5137972e+2, -1425646.9, -1483429.0, -2832.5903, -0.00027758605, 0.004652146, -1425508.4, 30972.19, 0.0, 5.0167613, 4.979129 
3.0338395e+2, 1.5635844e+2, -1378440.4, -1437558.3, -2959.9465, 0.000493307, -0.0016217378, -1378292.6, 29393.352, 0.0, 5.0166235, 4.9781356 
3.03382e+2, 1.6133347e+2, -1338367.8, -1406456.3, -3887.4734, 0.0012165108, -0.000982126, -1338146.5, 20782.135, 0.0, 5.0164466, 4.9722176 
3.0337924e+2, 1.6630575e+2, -1289967.3, -1357598.4, -4027.7183, 0.0019005601, -0.003038875, -1289728.1, 20472.668, 0.0, 5.0161867, 4.972255 
3.0337647e+2, 1.7127809e+2, -1241623.8, -1308855.0, -3994.981, 0.0026040883, -0.0048565003, -1241387.3, 20085.53, 0.0, 5.015924, 4.972255 
3.033737e+2, 1.7625044e+2, -1194411.3, -1262511.3, -3962.4841, 0.003322265, -0.0062653637, -1194181.5, 18563.215, 0.0, 5.0156612, 4.9714484 
3.0337054e+2, 1.812195e+2, -1153623.9, -1229872.0, -4554.026, 0.0036155987, 0.00025470494, -1153352.9, 10695.039, 0.0, 5.0154066, 4.966002 
3.0336663e+2, 1.8618591e+2, -1104448.9, -1179601.0, -4734.5117, 0.002900088, -0.0024486037, -1104151.8, 11223.106, 0.0, 5.015178, 4.966475 
3.0336276e+2, 1.9115235e+2, -1055925.5, -1130729.1, -4789.0356, 0.002149727, -0.005559762, -1055620.1, 11081.495, 0.0, 5.0149508, 4.966476 
3.0335885e+2, 1.9611879e+2, -1008288.9, -1083769.8, -4844.0107, 0.0014128209, -0.008363231, -1007979.25, 10048.934, 0.0, 5.0147233, 4.9658265 
3.0335486e+2, 2.0108174e+2, -968615.8, -1054075.4, -5015.736, 0.00053989526, -0.0031368055, -968322.44, 1067.9961, 0.0, 5.014511, 4.9592757 
3.0335075e+2, 2.0604132e+2, -919539.4, -1004328.75, -5012.602, -0.00032923956, -0.005139942, -919244.06, 1545.4572, 0.0, 5.014331, 4.9595222 
3.0334666e+2, 2.1100092e+2, -870792.94, -955303.2, -4993.056, -0.0011290207, -0.007511037, -870498.94, 1689.8889, 0.0, 5.014152, 4.959524 
3.0334252e+2, 2.1596052e+2, -822709.0, -907730.1, -4973.672, -0.0018912023, -0.009749009, -822419.0, 1169.0636, 0.0, 5.0139723, 4.959027 
3.0333847e+2, 2.2091709e+2, -781894.6, -875809.4, -5129.8823, -0.0017102822, -0.0019764705, -781615.25, -6599.765, 0.0, 5.0137405, 4.953157 
3.0333456e+2, 2.2587146e+2, -732545.56, -824278.8, -5300.6704, 0.0028608688, -0.0014897705, -732240.3, -5780.377, 0.0, 5.0133076, 4.954098 
3.033307e+2, 2.3082592e+2, -684475.2, -775515.9, -5385.576, 0.00805257, -0.0018557507, -684157.75, -6254.447, 0.0, 5.0128565, 4.954105 
3.0332682e+2, 2.3578034e+2, -637045.6, -728193.5, -5474.9927, 0.013421553, -0.0025661224, -636717.94, -7371.045, 0.0, 5.012404, 4.95361 
3.033232e+2, 2.4073146e+2, -599435.44, -702239.25, -5247.512, 0.019512663, 0.011998623, -599168.25, -18342.023, 0.0, 5.011874, 4.9456906 
3.0331975e+2, 2.4567847e+2, -551028.3, -652382.06, -5199.3335, 0.027104374, 0.01805439, -550762.25, -18405.064, 0.0, 5.0113378, 4.94605 
3.033163e+2, 2.5062534e+2, -502986.84, -603619.25, -4956.344, 0.03478439, 0.022135044, -502743.3, -18852.994, 0.0, 5.01082, 4.946044 
3.033129e+2, 2.5557238e+2, -455186.0, -555415.1, -4706.5215, 0.042534463, 0.02796684, -454965.47, -19543.65, 0.0, 5.010293, 4.945839 
3.0330947e+2, 2.6051548e+2, -413211.13, -519181.34, -4182.1606, 0.0487312, 0.039095145, -413046.3, -26061.564, 0.0, 5.0096083, 4.941197 
3.0331087e+2, 2.6546195e+2, -359817.28, -449918.2, -4467.0703, 0.0973111, -0.0004754199, -359596.34, -21111.78, 0.0, 5.0074167, 4.9484906 
3.0331406e+2, 2.7041006e+2, -315716.38, -401542.0, -5503.6367, 0.16301902, -0.05305758, -315364.88, -25399.734, 0.0, 5.0049653, 4.9490027 
3.0331802e+2, 2.7535808e+2, -271529.5, -353378.7, -6768.3916, 0.23701918, -0.11564297, -270973.6, -29527.215, 0.0, 5.0024705, 4.9494677 
3.0331382e+2, 2.803079e+2, -263996.53, -409852.63, -16112.324, 0.29517838, 0.032500938, -262237.84, -69318.79, 0.0, 5.0043, 4.9125395 
3.033056e+2, 2.8523967e+2, -193944.8, -321066.88, 223.61955, 0.23238431, 0.15180518, -193944.39, -49333.465, 0.0, 5.007106, 4.924718 
3.0330324e+2, 2.901613e+2, -144830.98, -270504.25, 2360.8062, 0.15793742, 0.09789653, -144786.66, -48379.26, 0.0, 5.006992, 4.924926 
3.0330166e+2, 2.950819e+2, -95638.51, -220030.6, 4295.335, 0.09162234, 0.027994545, -95490.36, -47276.24, 0.0, 5.0067596, 4.9251347 
3.0330005e+2, 3.0001393e+2, -31364.059, -101107.35, 5483.468, 0.021120498, -0.06901898, -30935.56, -30935.56, 0.0, 5.006564, 4.9589796 
3.033029e+2, 3.0498028e+2, -17208.254, -64216.85, 5614.7827, -0.045058444, -0.15813981, -16546.92, -16546.92, 0.0, 5.0063186, 4.9709744 
3.033096e+2, 3.099587e+2, -16442.693, -59374.535, 5696.6367, -0.080579825, -0.19442633, -15699.665, -15699.665, 0.0, 5.005893, 4.9725914 
3.0331856e+2, 3.1494197e+2, -15469.791, -54736.734, 5407.764, -0.09234563, -0.1973889, -14738.658, -14738.658, 0.0, 5.0053368, 4.9742103 
3.084058e+2, 1.21487215e+2, -1704679.0, -1747173.9, 12.561172, 0.013120979, 0.028262455, -1704679.0, 44757.664, 0.0, 5.016845, 4.989156 
3.084044e+2, 1.2646884e+2, -1662463.6, -1712190.1, -1044.9828, -0.0063317325, -0.0037236947, -1662441.8, 38171.184, 0.0, 5.0168977, 4.984538 
3.08405e+2, 1.3145348e+2, -1613280.0, -1663100.6, -1059.9479, -0.004161516, -0.00336972, -1613257.5, 38505.66, 0.0, 5.016965, 4.984539 
3.084056e+2, 1.3643813e+2, -1566302.0, -1618544.0, -1074.8279, -0.0019782346, -0.0017384451, -1566279.9, 36633.63, 0.0, 5.0170317, 4.9830384 
3.0840543e+2, 1.4142002e+2, -1523552.4, -1582425.4, -2457.7188, -0.00027593513, 0.013894854, -1523450.0, 30640.057, 0.0, 5.017032, 4.978697 
3.0840385e+2, 1.4639893e+2, -1474508.0, -1532748.0, -2811.8472, 0.00019014716, 0.010714446, -1474372.5, 30922.434, 0.0, 5.016899, 4.9789705 
3.084022e+2, 1.5137774e+2, -1425874.8, -1483904.3, -2936.6924, 0.00060556876, 0.006335628, -1425726.6, 30774.088, 0.0, 5.016762, 4.978971 
3.084006e+2, 1.5635653e+2, -1378665.3, -1438032.1, -3062.683, 0.001040543, 0.0024325643, -1378507.6, 29198.807, 0.0, 5.016624, 4.9779778 
3.083985e+2, 1.6133153e+2, -1338361.3, -1406446.9, -4069.199, 0.0014966124, 0.0037844656, -1338118.9, 20830.93, 0.0, 5.016447, 4.972221 
3.0839548e+2, 1.6630359e+2, -1289899.9, -1357460.8, -4229.0225, 0.0020711164, -0.0011204708, -1289636.1, 20587.135, 0.0, 5.016187, 4.972302 
3.083924e+2, 1.7127566e+2, -1241556.3, -1308716.3, -4194.541, 0.0026611339, -0.0059137633, -1241295.3, 20201.19, 0.0, 5.0159245, 4.9723024 
3.0838934e+2, 1.7624776e+2, -1194343.5, -1262371.4, -4160.2676, 0.003254897, -0.010306026, -1194090.0, 18679.639, 0.0, 5.0156617, 4.9714956 
3.0838594e+2, 1.8121669e+2, -1153662.6, -1229956.5, -4739.6206, 0.0034152106, -0.0052104546, -1153369.3, 10704.145, 0.0, 5.015407, 4.9659734 
3.083818e+2, 1.8618332e+2, -1104535.3, -1179787.9, -4908.6626, 0.0025460806, -0.0051884935, -1104216.4, 11182.837, 0.0, 5.015178, 4.966412 
3.0837765e+2, 1.9115e+2, -1056010.4, -1130914.3, -4960.0596, 0.0016256433, -0.005349637, -1055683.4, 11041.297, 0.0, 5.014951, 4.9664135 
3.083735e+2, 1.9611667e+2, -1008372.3, -1083953.4, -5011.8843, 0.000702843, -0.005200805, -1008041.44, 10008.476, 0.0, 5.014724, 4.965764 
3.0836934e+2, 2.0107974e+2, -968603.94, -1054055.0, -5163.9927, -0.00021507476, 0.0016171929, -968293.0, 1118.476, 0.0, 5.0145116, 4.959283 
3.0836502e+2, 2.0603915e+2, -919496.7, -1004243.9, -5150.169, -0.0010014283, -0.0025281787, -919184.9, 1627.0615, 0.0, 5.014332, 4.959552 
3.0836076e+2, 2.1099852e+2, -870748.8, -955216.9, -5126.6416, -0.0017615623, -0.0072659794, -870438.8, 1773.7996, 0.0, 5.014153, 4.959554 
3.0835646e+2, 2.159579e+2, -822663.56, -907642.3, -5103.261, -0.0025066733, -0.0118851075, -822358.2, 1255.1415, 0.0, 5.013974, 4.959057 
3.0835214e+2, 2.209144e+2, -781955.56, -875963.0, -5409.8154, -0.0022637176, -0.0048952647, -781645.25, -6603.676, 0.0, 5.013744, 4.9531026 
3.0834782e+2, 2.258691e+2, -732655.4, -824554.8, -5630.421, 0.002127766, -0.00029401082, -732311.7, -5826.747, 0.0, 5.0133114, 4.9540014 
3.0834347e+2, 2.3082393e+2, -684587.06, -775806.44, -5703.883, 0.0070027006, 0.0038497502, -684231.75, -6304.684, 0.0, 5.012861, 4.9540043 
3.0833915e+2, 2.3577873e+2, -637159.44, -728498.6, -5781.8184, 0.011969968, 0.0077079795, -636794.94, -7425.447, 0.0, 5.0124083, 4.953505 
3.0833504e+2, 2.4073009e+2, -599255.6, -702021.6, -5621.1245, 0.017026162, 0.02533195, -598949.06, -18101.467, 0.0, 5.011891, 4.945772 
3.083307e+2, 2.4567671e+2, -550595.4, -651690.25, -5606.0503, 0.021817591, 0.025482468, -550285.44, -17905.756, 0.0, 5.011365, 4.9462967 
3.0832642e+2, 2.506231e+2, -502539.13, -602904.94, -5350.603, 0.026533952, 0.02213987, -502254.7, -18339.99, 0.0, 5.0108523, 4.946295 
3.0832213e+2, 2.5556964e+2, -454723.63, -554678.44, -5088.3037, 0.031264182, 0.020214224, -454465.25, -19016.926, 0.0, 5.01033, 4.946095 
3.0831787e+2, 2.6051244e+2, -413310.63, -520176.53, -5015.0107, 0.036093574, 0.028333751, -413075.78, -26061.83, 0.0, 5.0096955, 4.9408374 
3.0831766e+2, 2.6546025e+2, -359889.1, -452074.1, -5383.3306, 0.08147332, 0.006889133, -359575.8, -21062.645, 0.0, 5.0076427, 4.947702 
3.0831897e+2, 2.704097e+2, -315564.34, -404235.38, -6118.1123, 0.14040624, -0.025372561, -315144.22, -25149.588, 0.0, 5.005321, 4.948022 
3.0832097e+2, 2.7535877e+2, -271151.88, -356608.9, -7081.0137, 0.20495512, -0.067880414, -270569.13, -29089.787, 0.0, 5.002956, 4.948294 
3.0831635e+2, 2.8030986e+2, -264203.34, -410971.6, -14436.644, 0.2516685, 0.10605236, -262796.78, -69847.72, 0.0, 5.0043736, 4.912054 
3.0830994e+2, 2.8524128e+2, -191580.38, -314203.28, -151.6274, 0.20086123, 0.20304513, -191580.19, -46948.125, 0.0, 5.0067854, 4.9270854 
3.0830884e+2, 2.9016182e+2, -142583.97, -264269.84, 2359.9846, 0.14171474, 0.11049549, -142538.22, -46113.8, 0.0, 5.0066786, 4.9271393 
3.083084e+2, 2.9508135e+2, -93506.68, -214421.47, 4669.191, 0.08701258, 0.0042238124, -93326.65, -45100.074, 0.0, 5.0064535, 4.927195 
3.083082e+2, 3.0001298e+2, -29899.43, -98429.14, 6193.119, 0.028844478, -0.11708355, -29344.246, -29344.246, 0.0, 5.006404, 4.960052 
3.083138e+2, 3.0498734e+2, -13871.854, -60399.727, 7062.7383, -0.0146468785, -0.14585015, -12823.386, -12823.386, 0.0, 5.006611, 4.9722476 
3.083229e+2, 3.0997503e+2, -11797.347, -55234.29, 7894.322, -0.034342684, -0.11313424, -10407.111, -10407.111, 0.0, 5.0065975, 4.9737973 
3.08334e+2, 3.1496677e+2, -9516.371, -50274.484, 8355.577, -0.038114477, -0.05694358, -7869.951, -7869.951, 0.0, 5.006454, 4.975349 
3.1342265e+2, 1.21484496e+2, -1704984.8, -1747800.6, -61.462627, 0.0129654035, 0.018266045, -1704984.8, 44477.246, 0.0, 5.0168457, 4.98895 
3.1342107e+2, 1.2646715e+2, -1662484.6, -1712240.6, -996.29376, -0.008491766, -0.003201123, -1662464.8, 38163.535, 0.0, 5.016899, 4.9845214 
3.134219e+2, 1.3145164e+2, -1613299.6, -1663148.4, -1009.1127, -0.0049282108, -0.0044413977, -1613279.1, 38500.76, 0.0, 5.0169663, 4.984523 
3.1342274e+2, 1.3643607e+2, -1566319.6, -1618587.9, -1021.6573, -0.0013800901, -0.0044102357, -1566299.8, 36632.113, 0.0, 5.017033, 4.983023 
3.1342262e+2, 1.414179e+2, -1523746.8, -1582823.6, -2537.0686, 0.001205548, 0.010933453, -1523638.0, 30471.326, 0.0, 5.0170317, 4.978565 
3.1342086e+2, 1.4639686e+2, -1474739.1, -1533224.5, -2916.6357, 0.0014101028, 0.010053717, -1474594.0, 30720.598, 0.0, 5.0168986, 4.9788127 
3.134191e+2, 1.5137574e+2, -1426103.0, -1484379.5, -3040.1965, 0.0015037041, 0.008029902, -1425944.9, 30575.908, 0.0, 5.016762, 4.9788127 
3.134173e+2, 1.5635462e+2, -1378890.3, -1438505.9, -3164.8215, 0.0016077486, 0.0064685233, -1378722.8, 29004.18, 0.0, 5.016625, 4.9778194 
3.13415e+2, 1.6132961e+2, -1338366.0, -1406460.8, -4252.0483, 0.0017909537, 0.008598376, -1338101.5, 20869.447, 0.0, 5.0164475, 4.9722166 
3.1341168e+2, 1.663014e+2, -1289832.8, -1357322.9, -4430.801, 0.0022477133, 0.000832907, -1289543.1, 20702.586, 0.0, 5.0161877, 4.9723477 
3.1340832e+2, 1.7127325e+2, -1241489.0, -1308577.4, -4394.5747, 0.0027166973, -0.0069789817, -1241202.4, 20317.84, 0.0, 5.015925, 4.9723487 
3.13405e+2, 1.7624508e+2, -1194276.0, -1262231.4, -4358.525, 0.0031785253, -0.014397563, -1193997.6, 18797.033, 0.0, 5.015662, 4.9715424 
3.134013e+2, 1.812139e+2, -1153718.5, -1230077.0, -4926.149, 0.0032254637, -0.010603769, -1153402.0, 10696.879, 0.0, 5.015407, 4.965933 
3.1339693e+2, 1.8618074e+2, -1104622.0, -1179974.8, -5082.838, 0.0021965734, -0.007870971, -1104280.8, 11142.834, 0.0, 5.0151787, 4.966348 
3.1339258e+2, 1.9114763e+2, -1056095.6, -1131099.5, -5131.108, 0.0010903312, -0.005157971, -1055746.3, 11001.372, 0.0, 5.0149517, 4.96635 
3.1338817e+2, 1.9611456e+2, -1008456.25, -1084136.9, -5179.7813, -0.000034088327, -0.0021326954, -1008103.4, 9968.29, 0.0, 5.0147243, 4.965701 
3.1338376e+2, 2.0107774e+2, -968618.5, -1054090.6, -5313.8135, -0.00095925573, 0.006486946, -968289.4, 1143.0863, 0.0, 5.014512, 4.9592714 
3.1337932e+2, 2.0603696e+2, -919454.56, -1004158.75, -5288.3267, -0.0016520664, 0.00021368341, -919125.7, 1708.5, 0.0, 5.014333, 4.959581 
3.1337485e+2, 2.1099612e+2, -870705.4, -955130.25, -5260.818, -0.0023809841, -0.0069943117, -870378.8, 1857.5662, 0.0, 5.0141544, 4.9595833 
3.133704e+2, 2.1595529e+2, -822618.7, -907554.25, -5233.442, -0.003117455, -0.014098062, -822297.44, 1341.0929, 0.0, 5.0139756, 4.9590864 
3.1336585e+2, 2.209117e+2, -782066.2, -876221.5, -5683.354, -0.0028806385, -0.0077356906, -781724.4, -6656.6733, 0.0, 5.0137467, 4.953011 
3.1336105e+2, 2.2586675e+2, -732767.8, -824828.9, -5953.6777, 0.0013745574, 0.00086919096, -732384.4, -5874.296, 0.0, 5.013315, 4.953903 
3.1335628e+2, 2.3082191e+2, -684701.5, -776095.06, -6015.6943, 0.006012369, 0.009278762, -684307.25, -6356.167, 0.0, 5.012865, 4.953902 
3.133515e+2, 2.3577707e+2, -637275.9, -728801.75, -6082.1484, 0.010657546, 0.017461715, -636873.5, -7481.1665, 0.0, 5.012413, 4.953398 
3.1334683e+2, 2.4072877e+2, -599154.0, -701951.06, -5988.57, 0.014610961, 0.039122112, -598806.3, -17937.766, 0.0, 5.011907, 4.9458 
3.133417e+2, 2.4567503e+2, -550176.75, -650984.56, -6022.044, 0.016536022, 0.033700284, -549818.3, -17416.842, 0.0, 5.011392, 4.946542 
3.1333655e+2, 2.5062093e+2, -502105.72, -602176.7, -5754.139, 0.018278347, 0.022607638, -501775.94, -17837.422, 0.0, 5.0108843, 4.946545 
3.1333143e+2, 2.5556692e+2, -454275.56, -553927.8, -5479.3647, 0.019978357, 0.012597809, -453975.2, -18500.688, 0.0, 5.010368, 4.9463496 
3.133263e+2, 2.605092e+2, -413884.25, -522106.6, -5673.6665, 0.022339568, 0.016910277, -413587.6, -26542.0, 0.0, 5.0097833, 4.9401126 
3.1332475e+2, 2.6545808e+2, -360034.84, -454168.06, -6017.9863, 0.06628242, 0.008887241, -359651.66, -21104.709, 0.0, 5.0078692, 4.946841 
3.1332454e+2, 2.7040863e+2, -315485.8, -406866.1, -6450.4434, 0.12122075, -0.008257435, -315032.72, -25001.838, 0.0, 5.005677, 4.946968 
3.1332496e+2, 2.7535862e+2, -270847.25, -359775.8, -7110.8765, 0.17909852, -0.035889123, -270282.25, -28761.627, 0.0, 5.003442, 4.947048 
3.1331894e+2, 2.8031197e+2, -266961.25, -417893.5, -12967.25, 0.20612967, 0.18332186, -265855.28, -72878.305, 0.0, 5.004449, 4.909536 
3.1331348e+2, 2.852439e+2, -189402.61, -307166.7, -229.34319, 0.16128725, 0.27224845, -189402.16, -44759.02, 0.0, 5.006465, 4.9294 
3.133137e+2, 2.9016316e+2, -140522.8, -257861.1, 2655.8804, 0.11999052, 0.1357285, -140462.7, -44029.445, 0.0, 5.0063653, 4.929301 
3.1331447e+2, 2.950815e+2, -91559.91, -208636.75, 5339.049, 0.079449214, -0.012241937, -91316.93, -43084.234, 0.0, 5.0061474, 4.929203 
3.1331575e+2, 3.000116e+2, -29736.082, -98174.81, 7195.173, 0.03263872, -0.16610828, -28987.813, -28987.813, 0.0, 5.006244, 4.960151 
3.133242e+2, 3.049928e+2, -10738.523, -56386.32, 8637.082, 0.0076722386, -0.14899321, -9158.948, -9158.948, 0.0, 5.006903, 4.9733877 
3.1333628e+2, 3.099892e+2, -7355.7964, -50897.28, 10217.822, 0.0015842796, -0.062118348, -5077.233, -5077.233, 0.0, 5.0073028, 4.9748707 
3.1335008e+2, 3.149888e+2, -3768.241, -45614.777, 11428.463, 0.0035753904, 0.038352437, -850.5168, -850.5168, 0.0, 5.007572, 4.976355 
3.184395e+2, 1.2148177e+2, -1704633.6, -1747999.8, -70.33767, 0.0129396, 0.008113573, -1704633.5, 44853.96, 0.0, 5.017045, 4.9887853 
3.184378e+2, 1.2646547e+2, -1662025.8, -1712049.0, -900.9456, -0.010593605, -0.0024934078, -1662009.5, 38633.875, 0.0, 5.0170608, 4.984504 
3.184388e+2, 1.3144977e+2, -1613021.9, -1663048.1, -924.0346, -0.0056679263, -0.0053528035, -1613004.8, 38791.83, 0.0, 5.017068, 4.9845057 
3.184398e+2, 1.3643405e+2, -1566251.6, -1618591.3, -951.10034, -0.0007550576, -0.006941946, -1566234.4, 36715.563, 0.0, 5.0170646, 4.9830065 
3.1843978e+2, 1.4141579e+2, -1524020.0, -1583274.8, -2607.6821, 0.0027339275, 0.00811097, -1523905.4, 30223.158, 0.0, 5.0170083, 4.978427 
3.184379e+2, 1.463948e+2, -1475045.0, -1533737.4, -3009.079, 0.002668007, 0.009445197, -1474891.1, 30443.18, 0.0, 5.0168734, 4.9786544 
3.1843594e+2, 1.5137376e+2, -1426409.8, -1484893.0, -3131.8972, 0.0024272352, 0.009677577, -1426242.5, 30298.367, 0.0, 5.0167356, 4.9786544 
3.18434e+2, 1.5635271e+2, -1379201.0, -1439021.0, -3256.0173, 0.0021898071, 0.010362846, -1379024.4, 28723.219, 0.0, 5.016597, 4.9776607 
3.1843147e+2, 1.6132766e+2, -1338443.8, -1406524.9, -4420.3076, 0.0020811434, 0.013306087, -1338157.9, 20834.371, 0.0, 5.016427, 4.9722047 
3.184279e+2, 1.6629924e+2, -1289741.1, -1357172.0, -4614.5957, 0.0024060677, 0.0027421215, -1289426.9, 20841.297, 0.0, 5.0161967, 4.972394 
3.1842428e+2, 1.7127082e+2, -1241317.4, -1308387.6, -4577.245, 0.0027505287, -0.008042337, -1241006.5, 20537.348, 0.0, 5.0159616, 4.972395 
3.1842068e+2, 1.762424e+2, -1194034.0, -1262007.4, -4542.0854, 0.0030865923, -0.018432759, -1193731.9, 19087.633, 0.0, 5.015723, 4.9715886 
3.184167e+2, 1.8121111e+2, -1153578.5, -1230133.4, -5103.9355, 0.0030518207, -0.015775004, -1153239.8, 10884.473, 0.0, 5.0154815, 4.9658785 
3.184121e+2, 1.8617816e+2, -1104538.8, -1180085.9, -5266.4233, 0.0018637615, -0.010414889, -1104173.5, 11274.308, 0.0, 5.0152392, 4.9662814 
3.1840748e+2, 1.9114529e+2, -1056071.8, -1131238.4, -5334.722, 0.00058006804, -0.0049639284, -1055695.0, 11075.704, 0.0, 5.0149918, 4.966283 
3.1840283e+2, 1.961124e+2, -1008507.06, -1084310.4, -5406.72, -0.00072051014, 0.0008129739, -1008123.4, 9970.147, 0.0, 5.0147386, 4.9656343 
3.1839824e+2, 2.0107575e+2, -968683.7, -1054181.9, -5526.1006, -0.0015909765, 0.011395791, -968328.0, 1125.5653, 0.0, 5.0145025, 4.9592447 
3.183936e+2, 2.0603478e+2, -919467.1, -1004084.9, -5445.864, -0.0022100583, 0.0030160635, -919118.1, 1738.3512, 0.0, 5.0143123, 4.9596143 
3.1838894e+2, 2.1099374e+2, -870763.06, -955077.7, -5374.665, -0.0029311567, -0.0067271814, -870421.8, 1838.1963, 0.0, 5.0141187, 4.959617 
3.1838432e+2, 2.159527e+2, -822738.06, -907530.06, -5306.035, -0.00366537, -0.01635851, -822407.3, 1256.2568, 0.0, 5.0139184, 4.9591203 
3.1837952e+2, 2.2090903e+2, -782408.7, -876667.8, -5857.4556, -0.003499141, -0.010436212, -782046.06, -6952.4204, 0.0, 5.013686, 4.9528837 
3.1837434e+2, 2.2586437e+2, -732925.9, -825124.0, -6201.0337, 0.0006399008, 0.0020052728, -732510.7, -5975.4756, 0.0, 5.013306, 4.9538007 
3.1836912e+2, 2.3081988e+2, -684743.7, -776341.1, -6272.9595, 0.0051276153, 0.0143581685, -684316.06, -6340.839, 0.0, 5.012898, 4.9537973 
3.183639e+2, 2.3577538e+2, -637240.4, -729015.8, -6337.013, 0.009571535, 0.026520863, -636804.9, -7389.3823, 0.0, 5.0124755, 4.9532924 
3.1835866e+2, 2.4072745e+2, -598932.8, -701881.4, -6277.167, 0.012434757, 0.052998222, -598551.5, -17662.281, 0.0, 5.0119967, 4.945787 
3.183528e+2, 2.4567342e+2, -549397.94, -650050.94, -6327.049, 0.011516101, 0.042391293, -549001.75, -16579.2, 0.0, 5.0115595, 4.946793 
3.183468e+2, 2.5061882e+2, -501081.16, -601130.6, -6030.549, 0.010379932, 0.0234837, -500718.97, -16757.41, 0.0, 5.0111423, 4.946797 
3.1834084e+2, 2.555643e+2, -452992.16, -552763.3, -5747.8955, 0.009167357, 0.005462761, -452662.13, -17162.455, 0.0, 5.0107217, 4.946602 
3.1833482e+2, 2.605058e+2, -413904.78, -524270.84, -5948.638, 0.008284997, 0.0054266267, -413585.1, -26506.613, 0.0, 5.0102215, 4.9391117 
3.1833228e+2, 2.654555e+2, -360181.9, -455560.63, -5823.744, 0.053671733, 0.005720596, -359827.66, -21243.662, 0.0, 5.0081053, 4.9461017 
3.1833097e+2, 2.704073e+2, -317322.9, -409256.56, -5141.523, 0.1093392, -0.0012592574, -317036.28, -26966.58, 0.0, 5.0053716, 4.946132 
3.1833023e+2, 2.753584e+2, -275278.22, -363523.47, -4197.999, 0.16607754, -0.018203273, -275078.97, -33516.86, 0.0, 5.0022793, 4.9461136 
3.183221e+2, 2.8031543e+2, -278400.03, -432854.38, -6629.9976, 0.1677635, 0.26506564, -278115.97, -85124.2, 0.0, 5.0024114, 4.905142 
3.1831658e+2, 2.852483e+2, -190398.69, -302316.53, 4023.5803, 0.11991296, 0.35940406, -190254.22, -45617.836, 0.0, 5.005248, 4.9313383 
3.183181e+2, 2.9016584e+2, -139502.61, -252383.33, 5468.8623, 0.096137226, 0.17396706, -139238.27, -42809.184, 0.0, 5.0058775, 4.931186 
3.1832004e+2, 2.9508245e+2, -89716.42, -203041.61, 7153.3354, 0.07048606, -0.021318585, -89266.67, -41036.24, 0.0, 5.005975, 4.9310346 
3.183226e+2, 3.000099e+2, -31129.027, -100068.69, 8561.323, 0.033521168, -0.21652326, -30081.742, -30081.742, 0.0, 5.0060115, 4.959437 
3.1833437e+2, 3.0499688e+2, -11845.477, -53544.887, 9607.362, 0.024941243, -0.16606236, -9738.448, -9738.448, 0.0, 5.005825, 4.974525 
3.1835002e+2, 3.1000188e+2, -13446.715, -50482.574, 10505.172, 0.034676377, -0.033379767, -10674.451, -10674.451, 0.0, 5.0044355, 4.975879 
3.1836712e+2, 3.1500942e+2, -17224.457, -48583.707, 10396.16, 0.046977576, 0.10759877, -14091.033, -14091.033, 0.0, 5.002064, 4.9772315 
3.234572e+2, 1.21479854e+2, -1700010.8, -1746279.8, 313.00998, 0.009943335, 0.0030143925, -1700008.6, 49497.46, 0.0, 5.0187044, 4.9885316 
3.2345533e+2, 1.2646446e+2, -1658077.4, -1710314.0, -813.13586, -0.0135969985, 0.0024295333, -1658064.8, 42588.547, 0.0, 5.0184226, 4.9844055 
3.2345635e+2, 1.3144848e+2, -1610098.5, -1661835.0, -939.3593, -0.006618733, -0.0023270294, -1610081.4, 41727.793, 0.0, 5.0180936, 4.9844036 
3.2345736e+2, 1.3643245e+2, -1564315.1, -1617876.6, -1065.1052, 0.00046665178, -0.0057984726, -1564293.9, 38671.42, 0.0, 5.017764, 4.9829016 
3.234573e+2, 1.4141394e+2, -1522829.1, -1583043.8, -2760.7524, 0.0052967733, 0.007999721, -1522702.9, 31443.676, 0.0, 5.0174823, 4.978274 
3.2345513e+2, 1.4639279e+2, -1473976.5, -1533581.1, -3154.7896, 0.0043803956, 0.0092192795, -1473810.0, 31544.201, 0.0, 5.0173097, 4.978495 
3.2345295e+2, 1.5137158e+2, -1425435.5, -1484784.6, -3283.3208, 0.0032076298, 0.009369081, -1425254.5, 31308.336, 0.0, 5.0171413, 4.978495 
3.2345074e+2, 1.5635036e+2, -1378316.5, -1438957.8, -3412.4092, 0.0020435965, 0.009981856, -1378125.1, 29646.264, 0.0, 5.0169725, 4.9775014 
3.2344797e+2, 1.613252e+2, -1337314.8, -1405978.8, -4589.143, 0.0012041053, 0.012720112, -1337009.4, 22007.895, 0.0, 5.016809, 4.9722047 
3.2344422e+2, 1.6629678e+2, -1288311.1, -1356391.6, -4799.837, 0.0013070583, 0.0019874235, -1287974.4, 22317.938, 0.0, 5.0166636, 4.972433 
3.234404e+2, 1.712684e+2, -1239627.5, -1307486.1, -4780.409, 0.001487997, -0.0089023495, -1239292.4, 22274.578, 0.0, 5.016519, 4.9724336 
3.2343662e+2, 1.7624001e+2, -1192076.4, -1260981.8, -4761.511, 0.0016950686, -0.019366328, -1191748.9, 21092.684, 0.0, 5.016374, 4.9716263 
3.2343245e+2, 1.8120873e+2, -1151674.4, -1229424.5, -5409.1885, 0.0016740487, -0.016539216, -1151299.9, 12846.155, 0.0, 5.016175, 4.9657903 
3.234276e+2, 1.8617572e+2, -1103003.0, -1179677.0, -5668.7397, 0.00091286673, -0.010374778, -1102586.3, 12884.883, 0.0, 5.0158334, 4.9661407 
3.234227e+2, 1.911428e+2, -1054836.3, -1130977.1, -5815.7324, 0.00014214861, -0.0040489216, -1054394.6, 12401.025, 0.0, 5.0154843, 4.9661417 
3.234178e+2, 1.9610986e+2, -1007553.94, -1084187.6, -5964.5713, -0.00058604876, 0.002638482, -1007092.44, 11027.557, 0.0, 5.015135, 4.965492 
3.2341293e+2, 2.0107317e+2, -967697.8, -1053491.1, -6055.405, -0.0010357775, 0.013465312, -967272.5, 2208.3328, 0.0, 5.0147953, 4.959343 
3.23408e+2, 2.0603223e+2, -918763.2, -1003314.9, -5837.9346, -0.0015802662, 0.0034783988, -918362.0, 2520.299, 0.0, 5.0144653, 4.959806 
3.2340315e+2, 2.109912e+2, -870458.44, -954498.25, -5635.1245, -0.002175231, -0.007904033, -870082.25, 2202.0032, 0.0, 5.0141344, 4.959808 
3.2339826e+2, 2.159502e+2, -822813.56, -907130.8, -5433.0947, -0.0027265882, -0.01909532, -822464.9, 1221.2323, 0.0, 5.0138035, 4.95931 
3.233932e+2, 2.209066e+2, -782966.44, -877063.1, -5843.347, -0.002741188, -0.013547497, -782605.0, -7489.967, 0.0, 5.0135174, 4.952827 
3.2338756e+2, 2.2586209e+2, -733202.9, -825633.56, -6262.682, 0.0002312063, 0.0018784213, -732780.5, -6223.279, 0.0, 5.013287, 4.9536343 
3.2338196e+2, 2.3081775e+2, -684517.7, -776589.94, -6451.4155, 0.0036114003, 0.017329892, -684067.8, -6069.768, 0.0, 5.0130525, 4.9536395 
3.233764e+2, 2.3577338e+2, -636477.1, -728991.25, -6645.4736, 0.007061446, 0.032480266, -636002.2, -6563.0664, 0.0, 5.0128174, 4.953143 
3.233707e+2, 2.4072547e+2, -597320.7, -700660.75, -6666.497, 0.008803891, 0.059379213, -596892.4, -15978.61, 0.0, 5.0124984, 4.945967 
3.233643e+2, 2.4567118e+2, -546918.4, -648097.25, -6671.2817, 0.005847581, 0.043108094, -546480.4, -14033.841, 0.0, 5.012309, 4.9471164 
3.2335782e+2, 2.5061637e+2, -497842.13, -598887.56, -6359.2915, 0.0026105826, 0.018840507, -497443.47, -13459.298, 0.0, 5.012168, 4.947105 
3.233514e+2, 2.5556165e+2, -449013.13, -550243.4, -6039.8076, -0.00067236705, -0.003937169, -448654.03, -13133.535, 0.0, 5.012017, 4.9468946 
3.2334495e+2, 2.6050335e+2, -409680.97, -523048.56, -6295.285, -0.0032909566, -0.0037076334, -409332.47, -22235.91, 0.0, 5.011908, 4.9387784 
3.2334125e+2, 2.6545376e+2, -353337.4, -453705.13, -9131.498, 0.039895236, 0.013854105, -352513.38, -13908.21, 0.0, 5.011, 4.945401 
3.2333875e+2, 2.7040684e+2, -305631.06, -403922.88, -12179.873, 0.0949153, 0.0272266, -304144.28, -14054.641, 0.0, 5.009891, 4.9458594 
3.2333687e+2, 2.753599e+2, -257857.84, -354381.72, -15470.8125, 0.15307343, 0.032503188, -255438.81, -13864.67, 0.0, 5.0087395, 4.946272 
3.2332826e+2, 2.8031766e+2, -249227.66, -414747.22, -14637.141, 0.140639, 0.30867726, -247943.23, -54938.0, 0.0, 5.0117764, 4.9076123 
3.2332277e+2, 2.85249e+2, -168831.56, -293824.7, -2885.8762, 0.08532542, 0.38358635, -168764.97, -24105.252, 0.0, 5.012862, 4.9317236 
3.2332417e+2, 2.901657e+2, -126635.805, -246277.6, -1212.318, 0.07096262, 0.1939457, -126623.52, -30170.266, 0.0, 5.010289, 4.93195 
3.2332614e+2, 2.950815e+2, -84298.6, -198792.45, 88.96872, 0.056896318, -0.010187238, -84298.53, -36042.813, 0.0, 5.007604, 4.9321775 
3.2332918e+2, 3.000096e+2, -31701.973, -96070.73, 1039.4521, 0.03450049, -0.2091989, -31685.191, -31685.191, 0.0, 5.005238, 4.9613595 
3.2334322e+2, 3.0499908e+2, -19516.637, -57382.96, -3140.6357, 0.058616832, -0.12007243, -19257.92, -19257.92, 0.0, 5.003622, 4.9743824 
3.2336164e+2, 3.1000775e+2, -22511.2, -54814.023, -7020.6323, 0.10995617, 0.078217335, -21051.326, -21051.326, 0.0, 5.001826, 4.9758515 
3.233818e+2, 3.1502098e+2, -25242.457, -52514.56, -10566.027, 0.16904734, 0.30843765, -21627.92, -21627.92, 0.0, 4.9999022, 4.9773235 
3.2847542e+2, 1.21478386e+2, -1700466.6, -1747214.4, 395.5784, 0.0047397795, 0.00047959771, -1700463.3, 49057.82, 0.0, 5.018705, 4.988225 
3.284734e+2, 1.264638e+2, -1658305.4, -1710792.0, -1064.6642, -0.017361932, 0.009652633, -1658283.9, 42376.51, 0.0, 5.0184236, 4.9842486 
3.2847434e+2, 1.3144745e+2, -1610323.4, -1662309.6, -1188.978, -0.007735843, 0.0027781127, -1610296.1, 41523.69, 0.0, 5.018095, 4.9842477 
3.2847527e+2, 1.3643107e+2, -1564536.0, -1618346.0, -1312.3867, 0.0019632285, -0.00282345, -1564504.0, 38475.57, 0.0, 5.0177655, 4.9827466 
3.2847506e+2, 1.414122e+2, -1523069.6, -1583543.0, -2922.122, 0.0082330825, 0.009176007, -1522928.8, 31235.318, 0.0, 5.0174828, 4.978109 
3.2847264e+2, 1.4639078e+2, -1474210.4, -1534067.0, -3284.6475, 0.0061917612, 0.009165534, -1474030.6, 31343.918, 0.0, 5.01731, 4.978334 
3.2847014e+2, 1.5136927e+2, -1425667.0, -1485269.0, -3411.8755, 0.0037996848, 0.008079623, -1425472.4, 31113.445, 0.0, 5.017142, 4.978334 
3.2846764e+2, 1.5634777e+2, -1378545.5, -1439440.0, -3539.5237, 0.0014107493, 0.0074445615, -1378340.4, 29456.74, 0.0, 5.016973, 4.97734 
3.2846463e+2, 1.6132244e+2, -1337318.1, -1405990.0, -4708.3105, -0.00036233108, 0.009525726, -1336996.9, 22047.602, 0.0, 5.0168095, 4.9722013 
3.284607e+2, 1.6629417e+2, -1288265.1, -1356300.6, -4909.9346, -0.00049866387, -0.000053629945, -1287912.6, 22405.041, 0.0, 5.016664, 4.972464 
3.2845673e+2, 1.7126593e+2, -1239580.3, -1307393.6, -4888.595, -0.0005396869, -0.009691986, -1239229.6, 22360.709, 0.0, 5.01652, 4.9724646 
3.2845277e+2, 1.762377e+2, -1192027.8, -1260887.9, -4867.768, -0.0005671649, -0.018918583, -1191685.4, 21177.58, 0.0, 5.0163755, 4.971658 
3.2844839e+2, 1.8120648e+2, -1151834.0, -1229758.0, -5636.414, -0.00058943545, -0.015293439, -1151428.4, 12738.371, 0.0, 5.016174, 4.965679 
3.2844326e+2, 1.861733e+2, -1103248.9, -1180199.6, -5931.763, -0.0005583301, -0.009101236, -1102794.3, 12700.199, 0.0, 5.015833, 4.9659653 
3.284381e+2, 1.9114019e+2, -1055074.9, -1131495.5, -6075.185, -0.0005114979, -0.002794216, -1054594.9, 12226.978, 0.0, 5.0154853, 4.965966 
3.2843298e+2, 1.9610707e+2, -1007785.44, -1084701.9, -6220.4175, -0.00045144215, 0.0038352907, -1007285.6, 10863.577, 0.0, 5.015137, 4.9653163 
3.284278e+2, 2.0107028e+2, -967490.9, -1053051.0, -6310.4756, -0.00039705823, 0.014119824, -967027.94, 2483.5654, 0.0, 5.014796, 4.959493 
3.284226e+2, 2.0602944e+2, -918404.3, -1002544.7, -6090.5107, -0.00064215995, 0.0028469623, -917965.75, 2944.5078, 0.0, 5.0144663, 4.9600697 
3.2841742e+2, 2.1098855e+2, -870098.4, -953728.5, -5884.1553, -0.00092812267, -0.009854461, -869686.4, 2622.8574, 0.0, 5.0141363, 4.9600716 
3.2841223e+2, 2.1594767e+2, -822452.3, -906361.44, -5678.553, -0.0011982025, -0.02240608, -822069.75, 1638.4956, 0.0, 5.0138063, 4.959574 
3.2840684e+2, 2.2090419e+2, -782998.0, -877137.5, -6035.1963, -0.0015204943, -0.01744698, -782612.6, -7477.4346, 0.0, 5.0135183, 4.9528017 
3.2840082e+2, 2.2585978e+2, -733460.44, -826221.6, -6424.5073, -0.0003035199, 0.0007241764, -733017.56, -6439.0454, 0.0, 5.01329, 4.953433 
3.283948e+2, 2.308155e+2, -684764.75, -777182.9, -6603.0586, 0.0012041351, 0.01921234, -684295.4, -6274.615, 0.0, 5.013059, 4.9534354 
3.283888e+2, 2.3577122e+2, -636713.9, -729589.1, -6786.9194, 0.0027350362, 0.03738057, -636220.5, -6757.2256, 0.0, 5.0128274, 4.9529357 
3.2838273e+2, 2.4072318e+2, -596937.06, -700044.25, -6857.561, 0.0026753203, 0.06353354, -596482.94, -15542.772, 0.0, 5.012532, 4.9461694 
3.283759e+2, 2.4566856e+2, -546371.75, -647120.56, -6837.1943, -0.0024171756, 0.040988173, -545909.9, -13437.256, 0.0, 5.0123434, 4.9474444 
3.2836902e+2, 2.5061348e+2, -497334.72, -597914.25, -6510.158, -0.008024371, 0.010929, -496915.1, -12906.121, 0.0, 5.012189, 4.947438 
3.283622e+2, 2.5555852e+2, -448544.7, -549273.1, -6175.622, -0.013801367, -0.017580237, -448167.5, -12623.61, 0.0, 5.012024, 4.9472327 
3.283552e+2, 2.6050055e+2, -410513.88, -525157.6, -6313.7183, -0.020314584, -0.016533138, -410167.22, -23051.717, 0.0, 5.011929, 4.938092 
3.2834995e+2, 2.6545066e+2, -355872.1, -460931.7, -8917.535, 0.00730256, 0.026093641, -355120.56, -16484.816, 0.0, 5.011188, 4.942963 
3.2834557e+2, 2.7040273e+2, -307624.75, -411256.13, -11657.682, 0.042547785, 0.06369423, -306329.56, -16189.869, 0.0, 5.010259, 4.9433174 
3.2834184e+2, 2.7535447e+2, -259311.16, -361824.0, -14640.7705, 0.07832891, 0.090196766, -257261.17, -15614.061, 0.0, 5.0092874, 4.943626 
3.2833236e+2, 2.803081e+2, -244235.67, -400785.72, -13231.491, 0.04088626, 0.3222384, -243125.23, -49999.004, 0.0, 5.0114665, 4.9125047 
3.2832766e+2, 2.8523934e+2, -170247.52, -289621.9, -5183.077, 0.0048672236, 0.369328, -170022.89, -25242.965, 0.0, 5.011926, 4.933472 
3.2832938e+2, 2.9015875e+2, -127487.3, -242422.52, -3096.0698, 0.019607771, 0.20090225, -127403.95, -30859.748, 0.0, 5.0095563, 4.9335318 
3.2833153e+2, 2.9507694e+2, -84585.664, -195285.55, -1380.7452, 0.030924741, 0.015969297, -84568.445, -36248.117, 0.0, 5.007074, 4.933593 
3.2833502e+2, 3.000093e+2, -31147.373, -91912.875, 291.2676, 0.031647988, -0.15556635, -31145.977, -31145.977, 0.0, 5.004836, 4.962959 
3.2834986e+2, 3.0499688e+2, -24882.285, -66398.57, -2959.55, 0.077064924, -0.04883298, -24672.371, -24672.371, 0.0, 5.0031333, 4.97145 
3.2836863e+2, 3.100005e+2, -27701.695, -62345.3, -5953.0596, 0.14186628, 0.15437704, -26707.281, -26707.281, 0.0, 5.001237, 4.973363 
3.283889e+2, 3.1500903e+2, -30255.744, -58561.727, -8607.984, 0.20672147, 0.38615882, -27843.574, -27843.574, 0.0, 4.999213, 4.9752784 
3.3349362e+2, 1.21476874e+2, -1700865.3, -1748030.9, 477.34103, -0.00025920465, -0.0024002965, -1700860.4, 48676.023, 0.0, 5.0187054, 4.987957 
3.334914e+2, 1.2646315e+2, -1658534.1, -1711269.6, -1316.4952, -0.02106553, 0.016941313, -1658501.3, 42166.082, 0.0, 5.018425, 4.984092 
3.3349234e+2, 1.314464e+2, -1610548.9, -1662783.6, -1438.8993, -0.008801075, 0.007930307, -1610509.3, 41321.164, 0.0, 5.0180964, 4.9840913 
3.3349323e+2, 1.3642967e+2, -1564757.6, -1618814.8, -1559.9702, 0.0035022318, 0.00018009917, -1564712.6, 38281.176, 0.0, 5.0177674, 4.9825916 
3.3349285e+2, 1.4141046e+2, -1523318.3, -1584058.6, -3085.2212, 0.011167697, 0.010398928, -1523161.9, 31019.666, 0.0, 5.017483, 4.977938 
3.3349013e+2, 1.4638875e+2, -1474444.3, -1534553.0, -3414.2195, 0.00799985, 0.009137554, -1474251.0, 31143.82, 0.0, 5.01731, 4.978173 
3.3348736e+2, 1.5136696e+2, -1425898.8, -1485753.5, -3540.1443, 0.004394563, 0.006782108, -1425690.1, 30918.742, 0.0, 5.0171423, 4.9781723 
3.334846e+2, 1.5634517e+2, -1378774.6, -1439922.3, -3666.352, 0.0007868243, 0.0048653935, -1378555.5, 29267.395, 0.0, 5.016974, 4.977179 
3.3348128e+2, 1.6131969e+2, -1337333.5, -1406025.8, -4828.562, -0.0019065915, 0.0063914354, -1336995.8, 22075.896, 0.0, 5.0168095, 4.9721894 
3.3347717e+2, 1.6629156e+2, -1288219.4, -1356209.4, -5020.1836, -0.0022868565, -0.0020372376, -1287850.8, 22492.19, 0.0, 5.0166645, 4.9724946 
3.3347306e+2, 1.7126347e+2, -1239533.3, -1307301.0, -4996.9316, -0.0025595662, -0.0104697915, -1239166.8, 22446.889, 0.0, 5.016521, 4.9724956 
3.334689e+2, 1.7623538e+2, -1191979.5, -1260793.9, -4974.176, -0.0028313156, -0.018504614, -1191621.8, 21262.53, 0.0, 5.016377, 4.9716897 
3.3346435e+2, 1.8120424e+2, -1152012.6, -1230131.4, -5867.7495, -0.0028387946, -0.013978529, -1151574.4, 12613.085, 0.0, 5.016173, 4.9655538 
3.3345896e+2, 1.8617088e+2, -1103495.4, -1180722.1, -6194.1646, -0.002019681, -0.007777321, -1103001.6, 12516.197, 0.0, 5.0158324, 4.965789 
3.3345357e+2, 1.9113758e+2, -1055314.1, -1132013.6, -6334.0156, -0.0011708406, -0.0015646538, -1054794.6, 12053.594, 0.0, 5.0154862, 4.96579 
3.3344814e+2, 1.9610429e+2, -1008017.6, -1085215.8, -6475.64, -0.0003380703, 0.0049314583, -1007478.2, 10700.231, 0.0, 5.0151396, 4.9651403 
3.334427e+2, 2.010674e+2, -967308.0, -1052662.4, -6571.0186, 0.00025484498, 0.014889998, -966805.06, 2736.9841, 0.0, 5.0147967, 4.9596252 
3.3343717e+2, 2.0602669e+2, -918046.0, -1001774.25, -6343.0405, 0.00032669603, 0.0023604287, -917568.2, 3369.8672, 0.0, 5.014467, 4.960333 
3.3343166e+2, 2.1098591e+2, -869738.9, -952958.56, -6133.139, 0.00034677325, -0.0117498515, -869289.3, 3044.8574, 0.0, 5.014138, 4.960335 
3.3342618e+2, 2.1594515e+2, -822091.56, -905591.9, -5923.9653, 0.00035500908, -0.025751643, -821673.4, 2056.8809, 0.0, 5.013809, 4.9598374 
3.3342046e+2, 2.2090176e+2, -783074.6, -877308.4, -6228.889, -0.0003289321, -0.021299636, -782664.7, -7509.2354, 0.0, 5.0135193, 4.9527426 
3.3341405e+2, 2.2585742e+2, -733719.9, -826808.44, -6581.6133, -0.00086478645, -0.00053314876, -733256.9, -6656.826, 0.0, 5.013293, 4.9532294 
3.3340767e+2, 2.3081324e+2, -685013.8, -777774.56, -6749.981, -0.0012016839, 0.020745203, -684525.2, -6481.4546, 0.0, 5.0130653, 4.9532285 
3.3340126e+2, 2.3576902e+2, -636952.5, -730185.9, -6923.642, -0.0015619573, 0.041684844, -636441.1, -6953.347, 0.0, 5.012837, 4.952726 
3.333948e+2, 2.4072091e+2, -596632.6, -699575.75, -7012.423, -0.0034735454, 0.0681807, -596157.1, -15191.019, 0.0, 5.012566, 4.946317 
3.3338755e+2, 2.4566601e+2, -545841.4, -646128.1, -7009.6978, -0.010751372, 0.03977902, -545353.8, -12855.871, 0.0, 5.0123777, 4.947771 
3.3338022e+2, 2.5061065e+2, -496843.5, -596925.1, -6667.6196, -0.018748255, 0.0036321443, -496401.22, -12368.113, 0.0, 5.0122094, 4.9477696 
3.3337292e+2, 2.5555545e+2, -448092.44, -548287.2, -6318.035, -0.027038757, -0.030904705, -447695.6, -12128.825, 0.0, 5.012031, 4.94757 
3.3336532e+2, 2.6049748e+2, -411777.3, -528104.1, -6263.856, -0.03887585, -0.03032756, -411441.0, -24303.947, 0.0, 5.01195, 4.9370747 
3.3335865e+2, 2.6544696e+2, -358480.56, -468106.16, -8528.658, -0.027294109, 0.03209245, -357821.0, -19149.082, 0.0, 5.011376, 4.940449 
3.3335274e+2, 2.703979e+2, -309690.8, -418536.84, -10960.103, -0.011473424, 0.08842724, -308598.16, -18401.148, 0.0, 5.0106273, 4.9407005 
3.3334732e+2, 2.753481e+2, -260835.48, -369213.25, -13634.888, 0.0022800446, 0.13066135, -259146.42, -17417.402, 0.0, 5.0098352, 4.940905 
3.3333614e+2, 2.802988e+2, -242203.28, -393590.38, -13377.604, -0.059463866, 0.3406428, -241030.23, -47785.313, 0.0, 5.011159, 4.915031 
3.333317e+2, 2.8523085e+2, -171838.86, -285253.75, -7183.501, -0.07442728, 0.37528157, -171385.67, -26496.156, 0.0, 5.01099, 4.935154 
3.333341e+2, 2.9015267e+2, -128514.21, -238400.2, -4682.8027, -0.029136192, 0.22151852, -128315.016, -31688.271, 0.0, 5.008823, 4.9350467 
3.3333683e+2, 2.9507306e+2, -85048.24, -191609.53, -2553.191, 0.009010996, 0.049234428, -84987.11, -36608.37, 0.0, 5.006544, 4.934941 
3.333408e+2, 3.0000854e+2, -32126.756, -90745.53, -724.96857, 0.032689437, -0.1027112, -32117.791, -32117.791, 0.0, 5.004434, 4.9633713 
3.3335552e+2, 3.0499297e+2, -30452.424, -75232.66, -3371.1685, 0.09012857, 0.005215692, -30200.057, -30200.057, 0.0, 5.0026455, 4.9683447 
3.3337379e+2, 3.0999082e+2, -33098.367, -69690.29, -5480.011, 0.15753496, 0.19393991, -32295.305, -32295.305, 0.0, 5.000648, 4.970701 
3.3339325e+2, 3.149939e+2, -35477.125, -64418.297, -7247.0474, 0.21730804, 0.40788174, -33763.844, -33763.844, 0.0, 4.998524, 4.97306 
3.385119e+2, 1.2147533e+2, -1701246.0, -1748726.1, 585.9869, -0.0048295446, -0.00553313, -1701238.8, 48313.242, 0.0, 5.018689, 4.9877367 
3.3850953e+2, 1.2646249e+2, -1658699.0, -1711719.1, -1544.2853, -0.024506768, 0.024220772, -1658654.1, 42020.266, 0.0, 5.0184493, 4.983933 
3.3851033e+2, 1.314454e+2, -1610572.1, -1663162.0, -1685.3431, -0.009752479, 0.0130741615, -1610518.3, 41322.895, 0.0, 5.018167, 4.9839325 
3.3851117e+2, 1.3642827e+2, -1564656.8, -1619129.5, -1825.3413, 0.005016853, 0.0031824966, -1564595.6, 38412.47, 0.0, 5.017879, 4.982434 
3.3851063e+2, 1.4140873e+2, -1523167.4, -1584383.8, -3270.8643, 0.013964435, 0.011651589, -1522993.1, 31206.096, 0.0, 5.0176187, 4.977765 
3.3850762e+2, 1.4638673e+2, -1474277.1, -1534833.4, -3534.233, 0.009705053, 0.009114615, -1474071.5, 31343.563, 0.0, 5.017443, 4.978015 
3.3850458e+2, 1.5136465e+2, -1425745.3, -1486039.8, -3627.2817, 0.0049366127, 0.0054605165, -1425527.8, 31104.021, 0.0, 5.01727, 4.978015 
3.3850148e+2, 1.5634258e+2, -1378638.8, -1440215.5, -3719.9033, 0.00016421643, 0.0022405486, -1378414.9, 29433.758, 0.0, 5.0170956, 4.977022 
3.3849797e+2, 1.6131696e+2, -1337065.3, -1405945.0, -4862.4653, -0.0033922696, 0.00332369, -1336723.6, 22374.867, 0.0, 5.016911, 4.972168 
3.3849367e+2, 1.6628896e+2, -1288039.6, -1356063.0, -5073.5635, -0.003985871, -0.003929711, -1287663.3, 22704.768, 0.0, 5.016713, 4.9725204 
3.3848938e+2, 1.7126101e+2, -1239519.3, -1307234.9, -5082.8833, -0.004455334, -0.011158872, -1239139.9, 22497.01, 0.0, 5.0165133, 4.9725213 
3.3848506e+2, 1.7623308e+2, -1192137.3, -1260809.9, -5095.318, -0.004926854, -0.01799127, -1191761.3, 21144.38, 0.0, 5.0163107, 4.9717155 
3.384803e+2, 1.81202e+2, -1152502.3, -1230676.5, -6126.2036, -0.0048826444, -0.012467097, -1152025.1, 12182.966, 0.0, 5.0160704, 4.9654183 
3.3847463e+2, 1.8616848e+2, -1103968.9, -1181339.3, -6440.6597, -0.003348741, -0.0064012273, -1103436.4, 12104.906, 0.0, 5.015752, 4.965617 
3.3846897e+2, 1.9113497e+2, -1055726.8, -1132598.5, -6537.434, -0.0017659551, -0.0004611489, -1055174.8, 11699.684, 0.0, 5.015425, 4.965619 
3.3846328e+2, 1.961015e+2, -1008384.4, -1085775.4, -6634.794, -0.00020805448, 0.005747381, -1007819.7, 10387.942, 0.0, 5.015094, 4.9649706 
3.3845755e+2, 2.0106451e+2, -967259.56, -1052378.1, -6712.675, 0.0009423479, 0.015556839, -966733.44, 2839.0945, 0.0, 5.0147605, 4.959739 
3.3845174e+2, 2.0602393e+2, -917797.0, -1001069.1, -6513.2163, 0.0013386845, 0.0019337154, -917290.6, 3675.095, 0.0, 5.0144334, 4.9605885 
3.3844596e+2, 2.109833e+2, -869499.06, -952257.75, -6347.56, 0.0016722312, -0.013483667, -869015.0, 3343.86, 0.0, 5.014102, 4.9605913 
3.3844018e+2, 2.1594267e+2, -821875.75, -904901.94, -6182.07, 0.00198673, -0.028795807, -821418.0, 2334.051, 0.0, 5.0137653, 4.9600945 
3.3843407e+2, 2.2089939e+2, -783327.25, -877627.56, -6449.799, 0.000928941, -0.024664529, -782888.2, -7712.726, 0.0, 5.0134726, 4.9526544 
3.3842734e+2, 2.2585508e+2, -734055.06, -827407.75, -6721.0547, -0.0013543428, -0.0017528437, -733573.7, -6952.1226, 0.0, 5.0132666, 4.953033 
3.3842054e+2, 2.3081093e+2, -685311.0, -778352.25, -6823.618, -0.0034887157, 0.02172071, -684813.25, -6746.236, 0.0, 5.013052, 4.9530325 
3.3841375e+2, 2.3576675e+2, -637241.1, -730755.5, -6911.6787, -0.0056708106, 0.044806942, -636733.0, -7220.211, 0.0, 5.0128264, 4.9525304 
3.3840695e+2, 2.4071866e+2, -596498.44, -699230.3, -6891.347, -0.0093896855, 0.072385505, -596038.2, -15046.25, 0.0, 5.012571, 4.9464245 
3.383993e+2, 2.4566354e+2, -545310.7, -645086.94, -6949.8794, -0.018606214, 0.038957383, -544828.94, -12306.53, 0.0, 5.012434, 4.948093 
3.3839154e+2, 2.5060797e+2, -496184.03, -595840.06, -6652.197, -0.028577302, -0.00278569, -495741.94, -11685.978, 0.0, 5.012322, 4.948088 
3.3838382e+2, 2.5555256e+2, -447298.78, -547155.2, -6387.293, -0.038842216, -0.042594176, -446891.88, -11304.1455, 0.0, 5.012204, 4.947885 
3.383755e+2, 2.6049435e+2, -413324.4, -531521.9, -6011.508, -0.05627635, -0.04316135, -413019.44, -25860.523, 0.0, 5.012016, 4.935845 
3.3836776e+2, 2.6544297e+2, -364474.94, -475891.34, -6768.076, -0.05744127, 0.031666864, -364065.3, -25354.334, 0.0, 5.0103393, 4.9381604 
3.383608e+2, 2.703927e+2, -320988.47, -428637.9, -6978.29, -0.054926917, 0.09880601, -320538.0, -30280.838, 0.0, 5.0076723, 4.938429 
3.3835426e+2, 2.753415e+2, -279539.2, -382557.2, -6659.1035, -0.05523441, 0.14881597, -279110.53, -37298.336, 0.0, 5.0042057, 4.9386477 
3.3834076e+2, 2.8029072e+2, -266560.8, -403380.56, -5727.3125, -0.13396981, 0.35581914, -266321.47, -72970.52, 0.0, 5.002609, 4.9153385 
3.3833572e+2, 2.8522405e+2, -187542.53, -288119.4, -1342.5837, -0.13470799, 0.39483985, -187524.61, -42543.71, 0.0, 5.005326, 4.936411 
3.3833882e+2, 2.901479e+2, -135072.61, -237248.61, -952.24786, -0.06576913, 0.2508431, -135063.73, -38367.465, 0.0, 5.006382, 4.936285 
3.383423e+2, 2.9506987e+2, -85682.4, -187890.95, -135.46263, -0.0047016176, 0.08480751, -85682.22, -37252.99, 0.0, 5.0062013, 4.936158 
3.383468e+2, 3.000073e+2, -32985.684, -90902.21, 466.8645, 0.03989341, -0.05640733, -32981.92, -32962.29, 0.0, 5.0047216, 4.962893 
3.3836073e+2, 3.0498794e+2, -41118.79, -84544.16, -938.6422, 0.10548166, 0.03937695, -41098.51, -41098.51, 0.0, 5.000462, 4.9655538 
3.3837786e+2, 3.0998042e+2, -56624.125, -83121.89, -1194.2832, 0.1764348, 0.20368609, -56570.406, -56570.406, 0.0, 4.993708, 4.9683623 
3.3839622e+2, 3.1497896e+2, -77772.63, -84505.625, -1512.0093, 0.23798887, 0.3958537, -77448.67, -77448.67, 0.0, 4.984721, 4.9711723 
3.4353113e+2, 1.2147428e+2, -1698867.0, -1747472.0, 603.71783, -0.00327171, -0.005283468, -1698859.5, 50703.89, 0.0, 5.019461, 4.98777 
3.4352866e+2, 1.2646173e+2, -1656534.0, -1711227.8, -1618.1813, -0.021977227, 0.029520761, -1656486.3, 44196.695, 0.0, 5.0192924, 4.983682 
3.435291e+2, 1.3144422e+2, -1608042.9, -1662493.0, -1855.1724, -0.008863551, 0.016720133, -1607979.8, 43874.313, 0.0, 5.0191336, 4.9836817 
3.4352958e+2, 1.3642669e+2, -1561745.4, -1618273.1, -2089.83, 0.0042903437, 0.0051940056, -1561668.3, 41357.117, 0.0, 5.0189743, 4.982184 
3.4352872e+2, 1.414068e+2, -1519748.6, -1582882.3, -3544.8743, 0.012177375, 0.012138668, -1519550.3, 34669.395, 0.0, 5.0187993, 4.9776897 
3.4352553e+2, 1.4638466e+2, -1470918.3, -1533257.3, -3690.0845, 0.008018539, 0.008449965, -1470700.6, 34735.527, 0.0, 5.0185847, 4.9779873 
3.4352228e+2, 1.5136245e+2, -1422526.6, -1484533.6, -3670.0337, 0.0034083112, 0.003699113, -1422310.1, 34343.14, 0.0, 5.018368, 4.977988 
3.4351903e+2, 1.5634023e+2, -1375553.5, -1438774.8, -3649.9563, -0.0011925714, -0.0005891931, -1375343.5, 32526.957, 0.0, 5.018151, 4.9769964 
3.435153e+2, 1.6131455e+2, -1334368.0, -1404817.8, -4836.533, -0.0042962646, 0.0003077353, -1334037.5, 25083.012, 0.0, 5.017862, 4.9720893 
3.4351078e+2, 1.6628665e+2, -1286143.9, -1355395.0, -5195.3296, -0.0038045996, -0.00491923, -1285756.3, 24633.395, 0.0, 5.017409, 4.9724126 
3.4350622e+2, 1.7125882e+2, -1238392.0, -1306942.1, -5334.514, -0.0031351773, -0.009962964, -1237979.4, 23678.693, 0.0, 5.0169497, 4.9724126 
3.4350172e+2, 1.7623098e+2, -1191766.5, -1260884.4, -5474.0796, -0.0024378684, -0.014559616, -1191335.6, 21590.79, 0.0, 5.01649, 4.971606 
3.4349665e+2, 1.811999e+2, -1152515.9, -1230771.0, -6518.2056, -0.0019044667, -0.008392037, -1151976.6, 12252.811, 0.0, 5.0160813, 4.9653826 
3.4349057e+2, 1.8616606e+2, -1103913.0, -1181367.8, -6702.666, -0.0015993136, -0.005106563, -1103337.3, 12228.039, 0.0, 5.015781, 4.965595 
3.4348446e+2, 1.9113226e+2, -1055585.9, -1132577.8, -6678.068, -0.0012536065, -0.0019663048, -1055011.0, 11890.183, 0.0, 5.0154834, 4.965599 
3.4347835e+2, 1.9609849e+2, -1008143.9, -1085700.1, -6655.619, -0.0008603659, 0.0015247206, -1007576.8, 10660.012, 0.0, 5.0151854, 4.9649534 
3.4347224e+2, 2.010614e+2, -966812.0, -1051983.6, -6687.087, -0.00035618473, 0.009936933, -966290.1, 3312.385, 0.0, 5.014875, 4.959821 
3.4346613e+2, 2.060212e+2, -917510.6, -1000744.56, -6646.605, 0.0005563839, -0.00052644603, -916983.2, 4008.6172, 0.0, 5.014492, 4.960674 
3.4346002e+2, 2.1098101e+2, -869384.2, -952006.25, -6649.1797, 0.0015329838, -0.012270383, -868852.5, 3528.0654, 0.0, 5.0141015, 4.9606786 
3.4345394e+2, 2.1594086e+2, -821915.1, -904716.94, -6652.4697, 0.0025635036, -0.023766786, -821384.06, 2385.1099, 0.0, 5.0137105, 4.9601836 
3.4344757e+2, 2.2089778e+2, -783427.6, -877540.75, -6856.069, 0.0017436676, -0.018459208, -782930.8, -7740.404, 0.0, 5.0134063, 4.952719 
3.434405e+2, 2.2585292e+2, -734101.25, -827472.1, -6947.861, -0.0021883524, -0.0007805492, -733587.06, -6945.445, 0.0, 5.0132594, 4.953018 
3.4343338e+2, 2.3080818e+2, -685147.56, -778269.7, -6947.644, -0.0060637984, 0.01708165, -684632.06, -6539.3716, 0.0, 5.013113, 4.953033 
3.434263e+2, 2.357634e+2, -636836.44, -730518.4, -6954.41, -0.009917832, 0.034381412, -636323.0, -6778.952, 0.0, 5.0129657, 4.952546 
3.4341928e+2, 2.4071491e+2, -595682.6, -698209.06, -6801.218, -0.014390387, 0.056883793, -595233.44, -14206.881, 0.0, 5.012763, 4.946662 
3.434118e+2, 2.4566062e+2, -544167.6, -644045.7, -7030.4097, -0.020731363, 0.029562376, -543675.2, -11127.713, 0.0, 5.0127773, 4.94827 
3.434043e+2, 2.506061e+2, -494558.2, -594693.06, -6899.854, -0.02699168, -0.0030234256, -494084.97, -10015.942, 0.0, 5.012854, 4.948232 
3.4339687e+2, 2.5555184e+2, -445197.63, -545910.3, -6754.977, -0.03303552, -0.03247517, -444746.6, -9158.673, 0.0, 5.0129247, 4.947996 
3.4338868e+2, 2.6049456e+2, -410093.97, -529601.1, -6314.8823, -0.04800802, -0.026609046, -409761.22, -22612.64, 0.0, 5.0131254, 4.9360456 
3.4338006e+2, 2.654414e+2, -356620.47, -472348.03, -7626.329, -0.053928398, 0.036014672, -356120.1, -17402.088, 0.0, 5.013321, 4.938079 
3.433724e+2, 2.7038935e+2, -304783.84, -419960.7, -9280.213, -0.049604274, 0.08698231, -304040.9, -13759.291, 0.0, 5.013463, 4.938857 
3.433654e+2, 2.753369e+2, -252803.92, -367951.56, -11156.824, -0.040153425, 0.11858382, -251732.89, -9883.73, 0.0, 5.0135827, 4.939588 
3.4335196e+2, 2.802838e+2, -226202.67, -377959.94, -11913.69, -0.08853086, 0.2742814, -225273.08, -31862.834, 0.0, 5.0156455, 4.919054 
3.4334612e+2, 2.85217e+2, -161680.38, -279592.03, -3076.9373, -0.10104227, 0.31438357, -161600.13, -16556.697, 0.0, 5.015309, 4.93598 
3.4334826e+2, 2.901422e+2, -118329.54, -230519.42, -2378.9866, -0.0551387, 0.20251697, -118279.11, -21532.799, 0.0, 5.0129147, 4.9364057 
3.433511e+2, 2.950656e+2, -74775.24, -181577.2, -1946.2101, -0.0047822553, 0.061300445, -74739.79, -26272.572, 0.0, 5.01046, 4.9368315 
3.4335494e+2, 3.0000535e+2, -25186.297, -84283.97, -3477.843, 0.043680422, -0.055131488, -24982.334, -24944.754, 0.0, 5.0078673, 4.9638247 
3.4336674e+2, 3.0498686e+2, -30140.621, -78267.26, -8110.6265, 0.13179374, 0.06389747, -28810.525, -28810.525, 0.0, 5.0053897, 4.965702 
3.4338227e+2, 3.0998138e+2, -33807.89, -71184.195, -11097.5, 0.24879746, 0.2695612, -30761.24, -30761.24, 0.0, 5.0030046, 4.968864 
3.433999e+2, 3.1498453e+2, -37093.598, -64490.508, -14296.46, 0.3814599, 0.52927464, -30992.145, -30992.145, 0.0, 5.000547, 4.9720306 
3.4855103e+2, 1.2147346e+2, -1698623.9, -1746982.3, 366.2475, 0.00079346186, -0.0033613394, -1698621.0, 50951.598, 0.0, 5.0194616, 4.9879303 
3.485485e+2, 1.2646091e+2, -1656976.8, -1712140.3, -1739.7838, -0.016717501, 0.03395376, -1656922.0, 43770.086, 0.0, 5.019294, 4.983382 
3.4854844e+2, 1.3144296e+2, -1608481.5, -1663400.9, -1975.1648, -0.0071399845, 0.019698812, -1608410.6, 43457.426, 0.0, 5.0191345, 4.983382 
3.4854835e+2, 1.3642497e+2, -1562178.8, -1619173.9, -2207.617, 0.002450874, 0.0067040953, -1562093.4, 40950.81, 0.0, 5.0189757, 4.9818864 
3.4854713e+2, 1.4140476e+2, -1519797.4, -1582984.1, -3703.2034, 0.008129818, 0.012217061, -1519581.1, 34660.613, 0.0, 5.0187993, 4.9776564 
3.485438e+2, 1.4638254e+2, -1470872.8, -1533164.5, -3856.3208, 0.004655465, 0.0074854665, -1470634.9, 34822.824, 0.0, 5.0185847, 4.9780183 
3.485404e+2, 1.5136026e+2, -1422480.5, -1484441.5, -3834.774, 0.0008237116, 0.0017258842, -1422244.0, 34430.117, 0.0, 5.0183682, 4.978019 
3.4853703e+2, 1.5633796e+2, -1375506.3, -1438681.9, -3812.9724, -0.0030041882, -0.0035765932, -1375277.0, 32613.783, 0.0, 5.0181513, 4.977028 
3.4853312e+2, 1.6131225e+2, -1334529.3, -1405162.4, -5147.754, -0.0050262907, -0.0027063445, -1334156.1, 24984.332, 0.0, 5.017863, 4.971975 
3.485283e+2, 1.6628444e+2, -1286383.4, -1355907.3, -5545.7725, -0.0027979335, -0.005482575, -1285943.8, 24466.186, 0.0, 5.0174103, 4.9722414 
3.4852347e+2, 1.7125668e+2, -1238627.6, -1307449.9, -5682.7603, -0.00038525098, -0.007972624, -1238161.5, 23517.27, 0.0, 5.016951, 4.9722424 
3.4851864e+2, 1.7622894e+2, -1191998.3, -1261387.8, -5820.071, 0.0020398763, -0.010033611, -1191513.5, 21434.148, 0.0, 5.016492, 4.971436 
3.4851325e+2, 1.8119778e+2, -1152510.8, -1230761.0, -6775.058, 0.0032245822, -0.0033802758, -1151928.5, 12323.187, 0.0, 5.0160813, 4.9653864 
3.4850666e+2, 1.8616362e+2, -1103852.1, -1181246.0, -6925.5845, 0.0014476577, -0.0038650618, -1103237.3, 12352.607, 0.0, 5.0157814, 4.965637 
3.4850004e+2, 1.9112948e+2, -1055519.4, -1132454.6, -6895.926, -0.00044265884, -0.004654039, -1054906.1, 12022.114, 0.0, 5.015486, 4.9656415 
3.4849343e+2, 1.9609533e+2, -1008071.56, -1085575.8, -6868.385, -0.0023083568, -0.005138112, -1007467.56, 10798.843, 0.0, 5.01519, 4.9649954 
3.4848684e+2, 2.010581e+2, -966750.9, -1051859.8, -6967.676, -0.0031909721, 0.0015264818, -966184.25, 3448.5254, 0.0, 5.014876, 4.9598646 
3.484804e+2, 2.0601845e+2, -917494.9, -1000713.9, -6949.221, -0.0015516384, -0.0036565885, -916918.56, 4098.909, 0.0, 5.0144925, 4.9606857 
3.4847403e+2, 2.1097885e+2, -869363.5, -951971.75, -6944.724, 0.00022426296, -0.009679468, -868783.75, 3617.6736, 0.0, 5.014103, 4.9606915 
3.4846762e+2, 2.1593925e+2, -821889.5, -904678.7, -6940.9126, 0.0020309724, -0.015515631, -821311.6, 2473.5942, 0.0, 5.0137134, 4.960197 
3.4846097e+2, 2.208964e+2, -783300.75, -877256.2, -7031.176, 0.0015656758, -0.008566741, -782777.44, -7573.0127, 0.0, 5.0134053, 4.9528184 
3.4845358e+2, 2.2585073e+2, -734038.44, -827347.9, -7050.5127, -0.0039797253, 0.0007087754, -733508.7, -6846.5444, 0.0, 5.013261, 4.953064 
3.4844616e+2, 2.3080511e+2, -685070.94, -778150.44, -7030.698, -0.009714842, 0.009664289, -684542.9, -6422.5957, 0.0, 5.013119, 4.953076 
3.4843877e+2, 2.3575947e+2, -636746.06, -730404.06, -7017.857, -0.015462536, 0.018016376, -636223.1, -6644.357, 0.0, 5.012977, 4.952586 
3.4843168e+2, 2.407105e+2, -595368.3, -697786.4, -6792.9355, -0.020512259, 0.034791846, -594919.75, -13855.003, 0.0, 5.0127964, 4.946805 
3.4842455e+2, 2.4565744e+2, -543876.6, -643740.2, -7005.5967, -0.022744887, 0.018910406, -543387.56, -10814.644, 0.0, 5.012818, 4.948375 
3.4841743e+2, 2.5060436e+2, -494278.78, -594364.5, -6856.7065, -0.024591915, -0.00016833548, -493811.22, -9731.321, 0.0, 5.0128894, 4.948347 
3.4841037e+2, 2.5555155e+2, -444929.9, -545558.75, -6693.498, -0.026321946, -0.01625802, -444486.63, -8902.377, 0.0, 5.012955, 4.9481196 
3.4840214e+2, 2.6049513e+2, -409910.2, -529668.5, -6195.319, -0.04190314, -0.0041582114, -409590.56, -22455.248, 0.0, 5.01318, 4.9360538 
3.4839207e+2, 2.6543894e+2, -357190.72, -475236.53, -6946.731, -0.07464663, 0.039576925, -356783.3, -18054.037, 0.0, 5.0135107, 4.937144 
3.483827e+2, 2.7038306e+2, -305039.88, -423234.22, -8159.0234, -0.10167295, 0.06836671, -304479.3, -14154.288, 0.0, 5.0137944, 4.937763 
3.4837398e+2, 2.7532655e+2, -252745.44, -371609.9, -9594.836, -0.12488324, 0.07677987, -251975.92, -10048.541, 0.0, 5.014056, 4.9383354 
3.4836003e+2, 2.8026912e+2, -223166.5, -370932.22, -15642.003, -0.16835351, 0.18863897, -221528.83, -28001.48, 0.0, 5.0156426, 4.9214563 
3.483547e+2, 2.852041e+2, -161897.23, -277477.7, -6702.0947, -0.14766292, 0.23148987, -161509.9, -16364.469, 0.0, 5.014891, 4.936774 
3.4835663e+2, 2.901329e+2, -118438.11, -228985.19, -5562.225, -0.090686284, 0.15071802, -118158.945, -21341.783, 0.0, 5.0125723, 4.9370246 
3.483592e+2, 2.9505977e+2, -74773.305, -180621.84, -4687.4497, -0.03126586, 0.041884005, -74566.125, -26058.707, 0.0, 5.0101933, 4.9372764 
3.4836227e+2, 3.0000272e+2, -25865.549, -86266.62, -5709.5757, 0.023877148, -0.042931214, -25330.574, -25280.264, 0.0, 5.0077457, 4.9631805 
3.483706e+2, 3.0498287e+2, -31562.785, -84153.24, -9107.013, 0.101803094, 0.08346169, -30030.389, -30030.389, 0.0, 5.0055776, 4.963597 
3.4838215e+2, 3.099745e+2, -34189.92, -76515.09, -11099.222, 0.20107241, 0.28536525, -31455.902, -31455.902, 0.0, 5.003484, 4.966797 
3.4839562e+2, 3.1497416e+2, -36430.56, -69270.805, -13303.377, 0.31176788, 0.53357416, -31717.762, -31717.762, 0.0, 5.001318, 4.970001 
3.5357088e+2, 1.21472634e+2, -1698327.5, -1746383.1, 125.80209, 0.00476862, -0.0016182692, -1698327.1, 51255.01, 0.0, 5.0194626, 4.9881268 
3.5356832e+2, 1.264601e+2, -1657420.1, -1713052.5, -1861.6426, -0.011437515, 0.038433775, -1657357.9, 43343.297, 0.0, 5.0192947, 4.983082 
3.5356775e+2, 1.3144171e+2, -1608920.9, -1664308.5, -2095.413, -0.0053996127, 0.02270559, -1608841.6, 43040.344, 0.0, 5.019136, 4.9830823 
3.5356715e+2, 1.3642327e+2, -1562612.8, -1620074.3, -2325.658, 0.0006247596, 0.008223373, -1562518.8, 40544.273, 0.0, 5.0189767, 4.981588 
3.535655e+2, 1.4140274e+2, -1519855.9, -1583105.8, -3863.1987, 0.0040832954, 0.012349906, -1519620.8, 34643.008, 0.0, 5.0188, 4.9776163 
3.5356206e+2, 1.4638044e+2, -1470827.4, -1533071.9, -4022.0066, 0.0012945826, 0.0065576793, -1470568.5, 34910.68, 0.0, 5.0185847, 4.9780493 
3.5355854e+2, 1.5135807e+2, -1422434.6, -1484349.4, -3998.9634, -0.0017571821, -0.00024962935, -1422177.4, 34517.656, 0.0, 5.0183687, 4.9780498 
3.53555e+2, 1.5633571e+2, -1375459.3, -1438588.9, -3975.4377, -0.0048105842, -0.0066052657, -1375209.9, 32701.158, 0.0, 5.018152, 4.9770594 
3.535509e+2, 1.6130999e+2, -1334706.0, -1405538.9, -5460.0293, -0.005723123, -0.0056389635, -1334287.6, 24872.709, 0.0, 5.0178633, 4.9718494 
3.535458e+2, 1.6628224e+2, -1286623.3, -1356419.5, -5896.6836, -0.0017643798, -0.005963066, -1286128.5, 24301.674, 0.0, 5.0174117, 4.97207 
3.5354072e+2, 1.7125456e+2, -1238863.5, -1307957.6, -6031.4746, 0.0023742174, -0.005951216, -1238341.0, 23358.54, 0.0, 5.016953, 4.9720716 
3.535356e+2, 1.762269e+2, -1192230.3, -1261891.1, -6166.53, 0.0065098223, -0.0055283085, -1191688.6, 21280.15, 0.0, 5.0164943, 4.971266 
3.535298e+2, 1.8119569e+2, -1152525.9, -1230793.4, -7035.895, 0.008362248, 0.0017392419, -1151898.4, 12375.466, 0.0, 5.0160813, 4.965376 
3.5352275e+2, 1.8616119e+2, -1103792.0, -1181124.0, -7147.25, 0.004511264, -0.0025662305, -1103137.0, 12477.512, 0.0, 5.0157824, 4.965678 
3.5351563e+2, 1.9112667e+2, -1055453.4, -1132331.5, -7112.531, 0.00037846615, -0.007412131, -1054800.9, 12154.38, 0.0, 5.0154886, 4.9656825 
3.5350847e+2, 1.9609216e+2, -1007999.9, -1085451.4, -7079.8975, -0.003752624, -0.011998944, -1007358.0, 10937.996, 0.0, 5.0151944, 4.965036 
3.5350144e+2, 2.0105484e+2, -966746.94, -1051858.5, -7256.5195, -0.0059997663, -0.006603601, -966132.7, 3530.1245, 0.0, 5.014877, 4.959865 
3.534947e+2, 2.0601574e+2, -917479.75, -1000683.2, -7252.117, -0.00362089, -0.0064548054, -916852.4, 4190.542, 0.0, 5.014493, 4.9606967 
3.53488e+2, 2.1097669e+2, -869343.4, -951937.25, -7240.5483, -0.0010502858, -0.0069612013, -868713.44, 3708.623, 0.0, 5.014105, 4.9607024 
3.534813e+2, 2.1593766e+2, -821864.4, -904640.4, -7229.6343, 0.0015280149, -0.007341641, -821237.7, 2563.4028, 0.0, 5.013716, 4.960209 
3.5347435e+2, 2.2089502e+2, -783262.4, -877163.8, -7212.59, 0.0013823095, 0.0015207425, -782711.56, -7493.062, 0.0, 5.0134044, 4.95285 
3.534667e+2, 2.2584854e+2, -733977.5, -827223.3, -7147.177, -0.0057875914, 0.002118182, -733432.9, -6750.02, 0.0, 5.013262, 4.953105 
3.5345897e+2, 2.3080203e+2, -684996.1, -778030.8, -7107.767, -0.013386161, 0.0016217949, -684456.25, -6308.046, 0.0, 5.0131254, 4.9531145 
3.5345128e+2, 2.3575547e+2, -636657.44, -730289.4, -7075.321, -0.021031298, 0.00048119013, -636125.8, -6511.8145, 0.0, 5.012988, 4.9526215 
3.534441e+2, 2.4070616e+2, -595233.75, -697746.8, -6766.2783, -0.026515607, 0.0136595955, -594789.06, -13686.957, 0.0, 5.0128303, 4.946813 
3.5343733e+2, 2.4565442e+2, -543595.06, -643425.75, -6992.76, -0.024654306, 0.010090399, -543107.6, -10510.766, 0.0, 5.012858, 4.948479 
3.5343057e+2, 2.5060275e+2, -494008.8, -594027.0, -6825.5303, -0.022197891, 0.00394268, -493545.16, -9455.6045, 0.0, 5.012925, 4.9484596 
3.534239e+2, 2.5555134e+2, -444671.56, -545198.2, -6643.9844, -0.019723974, 0.0006389674, -444234.34, -8654.696, 0.0, 5.012986, 4.9482417 
3.5341558e+2, 2.6049522e+2, -410430.66, -531255.5, -5960.6797, -0.036798704, 0.016886134, -410137.3, -23010.951, 0.0, 5.013233, 4.9354787 
3.5340425e+2, 2.654355e+2, -357805.7, -478106.44, -6031.535, -0.09518195, 0.032187197, -357504.06, -18753.914, 0.0, 5.0136995, 4.9360666 
3.5339355e+2, 2.7037552e+2, -305338.84, -426488.6, -6802.372, -0.15164004, 0.028573813, -304958.13, -14577.011, 0.0, 5.014126, 4.9365277 
3.5338342e+2, 2.7531457e+2, -252728.22, -375248.44, -7797.4663, -0.20559531, 0.0035823188, -252233.95, -10212.592, 0.0, 5.0145297, 4.936941 
3.533681e+2, 2.8025448e+2, -225597.4, -376530.66, -19863.148, -0.2502656, 0.10855475, -223027.14, -29383.664, 0.0, 5.015646, 4.9194136 
3.5336253e+2, 2.851927e+2, -162212.02, -275277.94, -10006.548, -0.200423, 0.1820678, -161333.25, -16100.042, 0.0, 5.014474, 4.937461 
3.5336435e+2, 2.901247e+2, -118643.75, -227363.86, -8424.2, -0.13017786, 0.12309781, -117994.87, -21118.271, 0.0, 5.012231, 4.937537 
3.5336682e+2, 2.9505485e+2, -74867.64, -179577.69, -7106.7915, -0.059497282, 0.03735297, -74387.5, -25848.484, 0.0, 5.0099277, 4.9376135 
3.533692e+2, 2.9999936e+2, -27335.896, -89777.35, -7786.401, 0.002393802, -0.034067836, -26379.586, -26309.018, 0.0, 5.007625, 4.9618864 
3.5337415e+2, 3.0497622e+2, -33091.75, -89940.9, -10125.788, 0.06547175, 0.07034556, -31342.031, -31342.031, 0.0, 5.0057673, 4.961238 
3.5338187e+2, 3.0996388e+2, -34678.5, -81743.85, -11121.013, 0.14253189, 0.24144995, -32183.043, -32183.043, 0.0, 5.003965, 4.9644756 
3.5339135e+2, 3.14959e+2, -35874.723, -73944.75, -12328.221, 0.22677669, 0.4510954, -32231.182, -32231.182, 0.0, 5.002091, 4.9677167 
3.5859075e+2, 1.21471755e+2, -1697766.4, -1745597.1, -104.34073, 0.008624053, -0.00016361543, -1697766.1, 51825.832, 0.0, 5.0195403, 4.988346 
3.5858813e+2, 1.2645929e+2, -1657568.6, -1713804.9, -1950.6187, -0.0063334084, 0.04281661, -1657501.0, 43209.297, 0.0, 5.0193915, 4.982787 
3.5858706e+2, 1.3144046e+2, -1609047.9, -1665049.0, -2148.3306, -0.0037244086, 0.02561239, -1608965.5, 42930.41, 0.0, 5.019239, 4.9827876 
3.5858595e+2, 1.364216e+2, -1562737.1, -1620810.1, -2343.498, -0.001132067, 0.009648289, -1562642.6, 40439.08, 0.0, 5.0190797, 4.9812946 
3.5858393e+2, 1.4140072e+2, -1519666.3, -1583125.4, -3911.0044, 0.00020460301, 0.012472998, -1519426.1, 34859.496, 0.0, 5.018887, 4.977567 
3.5858032e+2, 1.4637832e+2, -1470630.8, -1532916.1, -4104.3247, -0.001892014, 0.0056680907, -1470361.4, 35139.168, 0.0, 5.018638, 4.978075 
3.5857666e+2, 1.5135589e+2, -1422346.1, -1484247.6, -4113.6445, -0.004155156, -0.002154604, -1422073.9, 34641.95, 0.0, 5.018386, 4.9780755 
3.58573e+2, 1.5633345e+2, -1375481.6, -1438540.8, -4123.5464, -0.006419259, -0.009526879, -1375213.1, 32718.129, 0.0, 5.018132, 4.9770846 
3.585687e+2, 1.613077e+2, -1335016.9, -1405999.8, -5773.628, -0.0062228693, -0.008330625, -1334550.3, 24629.738, 0.0, 5.0178237, 4.971715 
3.5856333e+2, 1.6628005e+2, -1286923.0, -1356954.6, -6234.0986, -0.0006510169, -0.0062987795, -1286372.4, 24078.041, 0.0, 5.0173917, 4.9719 
3.585579e+2, 1.7125244e+2, -1239112.6, -1308467.4, -6356.7715, 0.0051018186, -0.00392303, -1238534.9, 23185.365, 0.0, 5.0169497, 4.971902 
3.5855252e+2, 1.7622486e+2, -1192444.3, -1262382.8, -6483.572, 0.010854949, -0.0011418593, -1191848.3, 21141.654, 0.0, 5.0165024, 4.9710965 
3.585464e+2, 1.811936e+2, -1152517.1, -1230838.9, -7258.7197, 0.013357189, 0.0068260822, -1151850.1, 12445.953, 0.0, 5.016095, 4.965354 
3.585388e+2, 1.8615875e+2, -1103705.9, -1180982.1, -7308.2183, 0.0074961376, -0.0012804407, -1103020.8, 12618.243, 0.0, 5.0157914, 4.9657207 
3.5853118e+2, 1.9112389e+2, -1055406.6, -1132209.0, -7255.2754, 0.0012036161, -0.010190535, -1054727.3, 12254.92, 0.0, 5.0154843, 4.9657245 
3.5852355e+2, 1.9608903e+2, -1008017.0, -1085358.8, -7208.827, -0.0050823633, -0.018845545, -1007350.8, 10974.507, 0.0, 5.0151687, 4.965078 
3.5851604e+2, 2.0105164e+2, -966950.7, -1052043.9, -7458.597, -0.008586935, -0.014191283, -966301.9, 3390.398, 0.0, 5.0148263, 4.959825 
3.58509e+2, 2.0601305e+2, -917662.4, -1000753.0, -7481.746, -0.005491947, -0.008825796, -916994.06, 4073.818, 0.0, 5.014427, 4.9607015 
3.5850197e+2, 2.1097454e+2, -869581.2, -952035.1, -7498.8936, -0.0021499898, -0.0041282005, -868904.75, 3537.7998, 0.0, 5.0140195, 4.9607067 
3.58495e+2, 2.1593605e+2, -822173.6, -904772.5, -7525.517, 0.0011989573, 0.0006914827, -821493.56, 2323.4988, 0.0, 5.013606, 4.9602127 
3.584877e+2, 2.2089362e+2, -783690.1, -877421.4, -7415.7954, 0.0013612127, 0.01170517, -783107.06, -7874.232, 0.0, 5.0132666, 4.9528227 
3.5847974e+2, 2.2584634e+2, -734366.56, -827271.8, -7181.4785, -0.0073961276, 0.003368202, -733814.7, -7110.9707, 0.0, 5.0130997, 4.953156 
3.5847178e+2, 2.3079893e+2, -685484.4, -778120.8, -7039.8413, -0.016766919, -0.006988344, -684952.44, -6776.247, 0.0, 5.0129285, 4.953166 
3.5846382e+2, 2.3575151e+2, -637278.2, -730433.9, -6896.788, -0.026173258, -0.017923266, -636770.3, -7121.271, 0.0, 5.0127454, 4.952674 
3.5845658e+2, 2.4070202e+2, -596187.4, -698421.7, -6387.505, -0.031808928, -0.006108786, -595789.9, -14652.299, 0.0, 5.012547, 4.946707 
3.5845023e+2, 2.4565165e+2, -544229.0, -643481.75, -6666.1406, -0.02577945, 0.003338169, -543783.3, -11164.799, 0.0, 5.0125923, 4.9485793 
3.5844383e+2, 2.5060132e+2, -494568.5, -594051.06, -6554.6426, -0.018963026, 0.009372637, -494138.5, -10040.981, 0.0, 5.012686, 4.948559 
3.5843754e+2, 2.5555125e+2, -445146.0, -545184.25, -6469.732, -0.012146507, 0.018067667, -444729.3, -9155.189, 0.0, 5.012778, 4.948341 
3.584291e+2, 2.6049492e+2, -412668.53, -534474.9, -5423.796, -0.030645072, 0.03620772, -412427.5, -25305.832, 0.0, 5.0128818, 4.9344606 
3.5841697e+2, 2.654314e+2, -363400.97, -482400.88, -3895.4055, -0.10949426, 0.014812755, -363273.6, -24496.104, 0.0, 5.012072, 4.9351254 
3.584054e+2, 2.7036753e+2, -316793.78, -433592.44, -3212.8372, -0.18765691, -0.02780436, -316705.47, -26264.213, 0.0, 5.010456, 4.935492 
3.5839447e+2, 2.7530265e+2, -271915.72, -385922.88, -2632.6985, -0.26303774, -0.09053117, -271854.94, -29740.271, 0.0, 5.008144, 4.935811 
3.5837713e+2, 2.8024226e+2, -256990.81, -404967.63, -19362.783, -0.3092931, 0.048520297, -254499.14, -60763.29, 0.0, 5.007215, 4.9130363 
3.583703e+2, 2.851843e+2, -176137.67, -280219.1, -8279.226, -0.24227291, 0.17498541, -175483.2, -30192.51, 0.0, 5.0091734, 4.9376974 
3.5837203e+2, 2.9011866e+2, -124727.65, -229248.61, -7594.322, -0.16398717, 0.12383994, -124178.734, -27263.564, 0.0, 5.0097904, 4.937685 
3.583744e+2, 2.9505116e+2, -75862.02, -179601.84, -6967.6353, -0.084804446, 0.048307005, -75396.14, -26838.377, 0.0, 5.009371, 4.9376726 
3.5837603e+2, 2.9999536e+2, -28551.676, -94809.445, -8571.577, -0.018092956, -0.02912565, -27460.756, -27364.137, 0.0, 5.0078998, 4.9598956 
3.583778e+2, 3.0496725e+2, -38686.484, -98426.414, -12496.294, 0.03003032, 0.030496426, -36177.875, -36177.875, 0.0, 5.004689, 4.9583235 
3.5838223e+2, 3.099498e+2, -49966.043, -94967.914, -16957.457, 0.09100331, 0.15276936, -44291.68, -44291.68, 0.0, 4.9994383, 4.9612994 
3.583885e+2, 3.14939e+2, -66248.875, -94078.88, -23690.15, 0.16062564, 0.3073875, -52689.336, -52689.336, 0.0, 4.9921885, 4.9642935 
3.6361104e+2, 1.21470675e+2, -1694257.3, -1744213.8, -76.54776, 0.009683956, -0.0019117403, -1694257.1, 55345.547, 0.0, 5.0207806, 4.988191 
3.6360806e+2, 1.2645829e+2, -1654162.4, -1712512.4, -1894.3286, -0.007488027, 0.043428816, -1654100.9, 46619.203, 0.0, 5.0206084, 4.9826155 
3.6360684e+2, 1.3143916e+2, -1605763.8, -1663824.3, -1993.4929, -0.0045247637, 0.025112504, -1605695.4, 46213.086, 0.0, 5.020419, 4.9826155 
3.6360562e+2, 1.3642003e+2, -1559551.3, -1619637.6, -2087.9866, -0.0015047132, 0.0080595855, -1559478.8, 43618.254, 0.0, 5.0202293, 4.9811225 
3.636034e+2, 1.4139895e+2, -1516590.3, -1581876.9, -3715.0837, 0.0004794846, 0.010469605, -1516379.5, 37923.14, 0.0, 5.0199723, 4.977454 
3.6359954e+2, 1.4637657e+2, -1468013.3, -1531868.0, -4045.0276, -0.00085914886, 0.0046645277, -1467758.0, 37759.656, 0.0, 5.0195665, 4.977975 
3.635956e+2, 1.5135413e+2, -1420211.1, -1483440.6, -4172.212, -0.0023591989, -0.0020993769, -1419937.1, 36795.79, 0.0, 5.019154, 4.9779744 
3.6359167e+2, 1.5633172e+2, -1373821.0, -1437967.4, -4298.3765, -0.003843193, -0.008401213, -1373534.3, 34413.848, 0.0, 5.0187416, 4.976984 
3.6358702e+2, 1.6130592e+2, -1333725.4, -1405672.8, -6071.447, -0.0034259171, -0.006542789, -1333216.6, 25980.867, 0.0, 5.018323, 4.971585 
3.6358115e+2, 1.662781e+2, -1285653.0, -1356669.1, -6538.344, 0.0012252268, -0.004695002, -1285056.0, 25413.938, 0.0, 5.0178914, 4.9717574 
3.6357522e+2, 1.7125033e+2, -1237820.6, -1308177.0, -6650.8506, 0.0060811276, -0.0024929848, -1237197.4, 24544.406, 0.0, 5.017459, 4.971758 
3.6356932e+2, 1.7622258e+2, -1191115.1, -1262080.4, -6763.8516, 0.010994473, 0.00014957358, -1190476.1, 22537.492, 0.0, 5.0170264, 4.970951 
3.6356273e+2, 1.811912e+2, -1150914.8, -1229934.6, -7446.3525, 0.012957298, 0.0075189425, -1150219.3, 14101.889, 0.0, 5.016614, 4.965414 
3.635548e+2, 1.8615632e+2, -1102307.8, -1180045.1, -7429.4834, 0.0072764684, -0.002135105, -1101604.0, 14059.165, 0.0, 5.0162153, 4.9658384 
3.6354685e+2, 1.9112141e+2, -1054289.1, -1131407.5, -7321.5503, 0.0012903048, -0.012488953, -1053600.3, 13405.174, 0.0, 5.0158143, 4.965842 
3.6353892e+2, 1.9608653e+2, -1007154.06, -1084679.6, -7216.2856, -0.004602249, -0.022455854, -1006488.06, 11859.365, 0.0, 5.015413, 4.9651947 
3.6353102e+2, 2.0104916e+2, -966555.94, -1051974.9, -7483.4414, -0.0077432306, -0.01801587, -965905.25, 3808.243, 0.0, 5.0149856, 4.959773 
3.6352354e+2, 2.0601076e+2, -917782.94, -1001098.2, -7660.7305, -0.004421654, -0.009817988, -917084.4, 4004.502, 0.0, 5.014442, 4.9605756 
3.6351606e+2, 2.1097246e+2, -870128.06, -952587.94, -7815.4365, -0.0007753271, -0.001903423, -869393.9, 3069.2832, 0.0, 5.013888, 4.960578 
3.635086e+2, 2.1593417e+2, -823128.1, -905523.2, -7970.1895, 0.002951176, 0.006321997, -822364.25, 1472.9962, 0.0, 5.0133333, 4.9600806 
3.6350092e+2, 2.208918e+2, -784552.75, -877403.0, -7706.065, 0.0035385676, 0.01829499, -783917.56, -8664.73, 0.0, 5.0128713, 4.9530106 
3.6349276e+2, 2.2584413e+2, -735449.9, -827016.44, -7229.8145, -0.005105785, 0.0029304528, -734882.5, -8157.6704, 0.0, 5.012562, 4.953487 
3.634846e+2, 2.3079637e+2, -686958.9, -778001.8, -6918.7983, -0.014271478, -0.014635153, -686436.1, -8237.977, 0.0, 5.0122504, 4.953509 
3.6347646e+2, 2.3574862e+2, -639110.0, -730433.44, -6619.9067, -0.02331875, -0.032366317, -638632.6, -8961.255, 0.0, 5.011938, 4.9530287 
3.6346906e+2, 2.4069917e+2, -598991.06, -699704.1, -5876.137, -0.028351141, -0.021977417, -598649.4, -17491.813, 0.0, 5.011587, 4.946678 
3.6346278e+2, 2.4564986e+2, -547145.1, -645149.0, -6352.3267, -0.021699926, -0.0006238112, -546735.06, -14104.507, 0.0, 5.011639, 4.9484057 
3.6345652e+2, 2.5060058e+2, -497294.5, -595712.06, -6563.329, -0.014064848, 0.017538678, -496858.72, -12756.606, 0.0, 5.0117774, 4.9483585 
3.6345035e+2, 2.5555146e+2, -447693.72, -546847.75, -6745.8003, -0.006153995, 0.03794037, -447236.88, -11664.927, 0.0, 5.0119033, 4.9481125 
3.6344245e+2, 2.6049528e+2, -413620.66, -533301.94, -5466.4395, -0.02037689, 0.058014832, -413371.47, -26253.6, 0.0, 5.012121, 4.9351425 
3.6343142e+2, 2.6543036e+2, -361775.7, -477270.03, -3565.2136, -0.08636519, 0.005430803, -361665.75, -22889.477, 0.0, 5.0118084, 4.936858 
3.6342123e+2, 2.7036586e+2, -312048.5, -426241.16, -2733.9524, -0.14604804, -0.06214703, -311983.1, -21549.79, 0.0, 5.0113225, 4.937399 
3.6341178e+2, 2.753014e+2, -262267.66, -375466.06, -2115.116, -0.1971444, -0.13968304, -262228.16, -20137.52, 0.0, 5.0107884, 4.937893 
3.6339608e+2, 2.802431e+2, -238551.78, -404348.8, -15575.667, -0.22001228, 0.02454802, -237101.22, -43419.863, 0.0, 5.014506, 4.909959 
3.6338735e+2, 2.8518507e+2, -156242.3, -278328.72, -3636.4053, -0.17940383, 0.16899309, -156134.08, -10892.86, 0.0, 5.0159073, 4.9358397 
3.633864e+2, 2.901186e+2, -113600.7, -230621.31, -4117.9478, -0.13013831, 0.11691166, -113455.97, -16576.537, 0.0, 5.013524, 4.93607 
3.633863e+2, 2.9505104e+2, -70828.66, -182973.16, -4805.861, -0.071760595, 0.04761941, -70623.08, -22094.582, 0.0, 5.010995, 4.9363 
3.633858e+2, 2.9999438e+2, -26273.111, -99451.945, -7724.4307, -0.016304897, -0.02743896, -25466.643, -25386.55, 0.0, 5.008735, 4.958485 
3.633855e+2, 3.0496368e+2, -30385.016, -102633.19, -10265.385, 0.032980498, 0.023764912, -28954.771, -28954.771, 0.0, 5.0079355, 4.956145 
3.6338854e+2, 3.0994245e+2, -30424.307, -98168.43, -10834.742, 0.11354438, 0.14264153, -28733.633, -28733.633, 0.0, 5.00717, 4.957702 
3.633944e+2, 3.14926e+2, -30292.926, -93875.61, -11781.943, 0.22295995, 0.29484892, -28179.938, -28179.938, 0.0, 5.0062375, 4.9592605 
3.6863178e+2, 1.2146953e+2, -1694736.0, -1745185.0, -138.49702, 0.008882305, -0.005143684, -1694735.6, 54877.953, 0.0, 5.02078, 4.9878726 
3.6862826e+2, 1.2645721e+2, -1654346.6, -1712888.1, -2038.8713, -0.011645575, 0.042374656, -1654275.8, 46454.23, 0.0, 5.020608, 4.982493 
3.6862707e+2, 1.3143787e+2, -1605945.8, -1664199.0, -2136.8623, -0.0064786384, 0.023091482, -1605867.5, 46052.74, 0.0, 5.0204186, 4.9824924 
3.6862588e+2, 1.364185e+2, -1559728.9, -1620007.1, -2229.323, -0.0012736953, 0.005062349, -1559646.6, 43464.152, 0.0, 5.0202293, 4.9810014 
3.686236e+2, 1.4139731e+2, -1516802.6, -1582316.5, -3994.0303, 0.0025351983, 0.0074138404, -1516560.0, 37757.645, 0.0, 5.019973, 4.977309 
3.6861938e+2, 1.4637496e+2, -1468242.3, -1532346.3, -4358.5947, 0.0019656126, 0.0035647042, -1467947.3, 37585.566, 0.0, 5.019567, 4.9778166 
3.6861512e+2, 1.5135257e+2, -1420436.9, -1483916.6, -4484.739, 0.0011701057, -0.001184367, -1420121.6, 36626.59, 0.0, 5.019155, 4.977816 
3.6861083e+2, 1.5633017e+2, -1374042.4, -1438439.6, -4609.482, 0.00038039373, -0.0054836385, -1373714.1, 34249.457, 0.0, 5.018743, 4.9768267 
3.6860576e+2, 1.6130432e+2, -1333917.4, -1406083.0, -6402.1855, 0.00061071053, -0.0027439685, -1333353.9, 25860.139, 0.0, 5.0183244, 4.9714484 
3.6859924e+2, 1.6627623e+2, -1285845.1, -1357083.5, -6868.1426, 0.0033109367, -0.002184587, -1285189.0, 25300.293, 0.0, 5.017893, 4.971619 
3.685927e+2, 1.712482e+2, -1238008.6, -1308587.4, -6978.8467, 0.0061446493, -0.0013421361, -1237325.3, 24438.887, 0.0, 5.017461, 4.97162 
3.6858615e+2, 1.7622016e+2, -1191299.1, -1262486.9, -7089.9863, 0.009010728, -0.00008408468, -1190599.9, 22439.066, 0.0, 5.017029, 4.9708138 
3.6857903e+2, 1.8118863e+2, -1150785.5, -1229661.0, -7749.2305, 0.009840732, 0.006088548, -1150031.4, 14316.369, 0.0, 5.016614, 4.965508 
3.6857086e+2, 1.8615383e+2, -1102094.8, -1179603.0, -7727.682, 0.0054911585, -0.003990153, -1101331.9, 14355.68, 0.0, 5.0162168, 4.9659896 
3.685626e+2, 1.9111903e+2, -1054069.3, -1130965.1, -7615.287, 0.000928745, -0.0147622675, -1053322.4, 13704.987, 0.0, 5.015818, 4.965993 
3.6855444e+2, 1.9608425e+2, -1006927.1, -1084237.0, -7505.518, -0.003582613, -0.025212, -1006205.2, 12161.8125, 0.0, 5.015419, 4.965345 
3.6854625e+2, 2.0104696e+2, -966648.2, -1052189.4, -7869.966, -0.005803493, -0.02089952, -965930.1, 3801.7788, 0.0, 5.014988, 4.9597 
3.6853817e+2, 2.0600858e+2, -918033.06, -1001645.56, -8088.799, -0.0023590513, -0.010417909, -917257.75, 3850.8735, 0.0, 5.014443, 4.9603896 
3.6853018e+2, 2.1097036e+2, -870371.9, -953127.7, -8238.069, 0.0013818516, 0.0000010877577, -869559.75, 2924.505, 0.0, 5.0138893, 4.9603934 
3.6852217e+2, 2.1593213e+2, -823365.6, -906055.5, -8387.344, 0.0051755905, 0.010664599, -822523.5, 1336.2837, 0.0, 5.0133357, 4.9598975 
3.6851403e+2, 2.2088979e+2, -784198.4, -876609.56, -7968.6885, 0.006083566, 0.02303593, -783516.25, -8240.472, 0.0, 5.012868, 4.953285 
3.6850572e+2, 2.2584194e+2, -734875.56, -825783.0, -7428.2236, -0.0015695986, 0.0018918721, -734272.56, -7526.3394, 0.0, 5.0125637, 4.953914 
3.6849734e+2, 2.3079397e+2, -686364.4, -776783.0, -7101.217, -0.009774898, -0.02199027, -685810.06, -7592.053, 0.0, 5.0122614, 4.95393 
3.68489e+2, 2.3574598e+2, -638495.25, -729229.06, -6786.3047, -0.017925663, -0.046134997, -637990.44, -8300.557, 0.0, 5.011958, 4.953444 
3.684814e+2, 2.4069658e+2, -598988.4, -700117.06, -5968.837, -0.022794016, -0.037710983, -598637.3, -17463.373, 0.0, 5.011636, 4.946533 
3.6847487e+2, 2.4564816e+2, -547377.5, -646150.5, -6302.1406, -0.018602688, -0.003972213, -546977.06, -14335.311, 0.0, 5.0116935, 4.948057 
3.6846843e+2, 2.5059986e+2, -497541.0, -596656.9, -6490.5547, -0.013797344, 0.027311502, -497117.78, -13009.875, 0.0, 5.0118227, 4.9480286 
3.684621e+2, 2.5555173e+2, -447954.53, -547736.1, -6650.4277, -0.008845058, 0.060527995, -447513.22, -11940.734, 0.0, 5.0119395, 4.9478016 
3.684545e+2, 2.604959e+2, -412250.8, -530788.1, -5073.6563, -0.021978837, 0.08407064, -412034.06, -24918.822, 0.0, 5.0121803, 4.936019 
3.68445e+2, 2.6542914e+2, -359060.56, -472761.2, -2774.471, -0.079615414, -0.004086187, -358992.9, -20215.541, 0.0, 5.0119843, 4.938423 
3.6843625e+2, 2.7036232e+2, -309160.66, -422271.06, -1622.402, -0.13394886, -0.11192253, -309137.4, -18696.13, 0.0, 5.0116177, 4.938781 
3.6842814e+2, 2.7529523e+2, -259206.44, -372032.84, -682.3311, -0.18265107, -0.22985192, -259202.3, -17094.432, 0.0, 5.0112023, 4.9390917 
3.6841428e+2, 2.802357e+2, -240200.53, -408757.2, -13553.027, -0.21278296, -0.07801913, -239117.75, -45419.633, 0.0, 5.014576, 4.9083133 
3.6840436e+2, 2.8517997e+2, -157649.31, -280841.84, -5783.794, -0.17384781, 0.09917552, -157378.36, -12138.5625, 0.0, 5.015654, 4.934867 
3.684008e+2, 2.9011565e+2, -115131.52, -233810.0, -5829.579, -0.12331861, 0.073375985, -114845.86, -17982.006, 0.0, 5.0132756, 4.9349236 
3.6839804e+2, 2.950503e+2, -72480.016, -186835.17, -6082.2046, -0.06836029, 0.03327166, -72157.43, -23659.43, 0.0, 5.0107517, 4.9349794 
3.68395e+2, 2.999945e+2, -27194.85, -102899.02, -7788.499, -0.021280214, -0.02284036, -26401.87, -26355.967, 0.0, 5.008622, 4.9573517 
3.6839238e+2, 3.049614e+2, -28082.254, -101707.53, -8807.326, 0.0045151715, -0.00050805224, -27043.35, -27043.35, 0.0, 5.008263, 4.9563923 
3.6839265e+2, 3.0993727e+2, -26778.57, -96877.09, -8618.867, 0.048847385, 0.0765284, -25734.404, -25734.404, 0.0, 5.0079136, 4.957891 
3.6839536e+2, 3.1491703e+2, -25303.887, -92220.086, -8807.907, 0.11181318, 0.17695808, -24163.957, -24163.957, 0.0, 5.007397, 4.9593906 
3.7365246e+2, 1.2146836e+2, -1695166.8, -1746057.4, -199.457, 0.007853588, -0.008437966, -1695166.0, 54458.72, 0.0, 5.020779, 4.9875865 
3.7364846e+2, 1.2645614e+2, -1654531.4, -1713263.5, -2182.9272, -0.015781263, 0.04135421, -1654450.3, 46289.473, 0.0, 5.0206075, 4.98237 
3.736473e+2, 1.3143659e+2, -1606128.1, -1664573.5, -2279.7449, -0.008406481, 0.021090915, -1606039.4, 45892.594, 0.0, 5.0204186, 4.98237 
3.7364614e+2, 1.3641699e+2, -1559906.9, -1620376.3, -2370.1707, -0.001012472, 0.0020723138, -1559814.1, 43310.22, 0.0, 5.02023, 4.98088 
3.736438e+2, 1.4139566e+2, -1517020.9, -1582767.6, -4273.5146, 0.0046024877, 0.0043857987, -1516744.3, 37588.438, 0.0, 5.019973, 4.9771605 
3.7363926e+2, 1.4637333e+2, -1468471.5, -1532824.3, -4671.859, 0.0047949012, 0.0024827877, -1468134.1, 37413.85, 0.0, 5.0195675, 4.9776583 
3.7363464e+2, 1.51351e+2, -1420662.8, -1484392.8, -4796.9624, 0.00470082, -0.0002720751, -1420303.8, 36459.758, 0.0, 5.019156, 4.977658 
3.7363005e+2, 1.5632865e+2, -1374264.0, -1438911.6, -4920.2827, 0.0046022744, -0.0025893995, -1373891.6, 34087.37, 0.0, 5.018745, 4.976669 
3.736245e+2, 1.6130273e+2, -1334116.8, -1406508.3, -6735.1494, 0.0046762344, 0.0010990497, -1333495.4, 25735.045, 0.0, 5.0183253, 4.971307 
3.7361738e+2, 1.6627438e+2, -1286037.6, -1357497.8, -7198.02, 0.0054271156, 0.00037028358, -1285319.8, 25188.809, 0.0, 5.0178943, 4.971481 
3.7361017e+2, 1.7124607e+2, -1238197.1, -1308997.6, -7306.922, 0.006227132, -0.00017614923, -1237450.9, 24335.516, 0.0, 5.0174627, 4.971482 
3.7360296e+2, 1.7621776e+2, -1191483.4, -1262893.1, -7416.2, 0.007034445, -0.0003319102, -1190721.4, 22342.746, 0.0, 5.017031, 4.9706764 
3.7359533e+2, 1.8118607e+2, -1150669.9, -1229415.5, -8057.356, 0.0067461547, 0.0047398075, -1149853.9, 14520.369, 0.0, 5.0166135, 4.965592 
3.735869e+2, 1.8615136e+2, -1101882.9, -1179160.3, -8024.1567, 0.0037409668, -0.005796814, -1101058.5, 14653.367, 0.0, 5.0162177, 4.9661403 
3.7357843e+2, 1.9111666e+2, -1053850.3, -1130522.3, -7907.301, 0.00060008204, -0.017075803, -1053043.3, 14005.95, 0.0, 5.015822, 4.9661427 
3.7356997e+2, 1.9608197e+2, -1006701.1, -1083793.8, -7793.028, -0.002532301, -0.028096939, -1005921.2, 12465.36, 0.0, 5.015425, 4.9654946 
3.7356144e+2, 2.0104474e+2, -966782.44, -1052494.1, -8266.481, -0.0038193464, -0.0235723, -965992.44, 3757.75, 0.0, 5.0149903, 4.959596 
3.7355286e+2, 2.0600644e+2, -918283.75, -1002192.94, -8517.648, -0.00024747298, -0.010764493, -917427.9, 3700.29, 0.0, 5.014444, 4.960202 
3.7354428e+2, 2.1096826e+2, -870616.2, -953667.4, -8661.483, 0.003576067, 0.002016696, -869722.5, 2782.7483, 0.0, 5.013891, 4.9602075 
3.7353572e+2, 2.1593009e+2, -823603.7, -906587.7, -8805.277, 0.007425106, 0.014976109, -822679.6, 1202.5433, 0.0, 5.013338, 4.959713 
3.7352717e+2, 2.2088777e+2, -783900.44, -875936.6, -8240.189, 0.008604524, 0.027980613, -783168.5, -7869.7964, 0.0, 5.0128646, 4.953517 
3.7351862e+2, 2.2583975e+2, -734304.25, -824547.94, -7615.7715, 0.001970871, 0.0008908049, -733666.06, -6898.4727, 0.0, 5.0125656, 4.954338 
3.735101e+2, 2.3079155e+2, -685772.9, -775562.56, -7272.781, -0.005236066, -0.029702807, -685187.56, -6949.566, 0.0, 5.0122724, 4.9543476 
3.735016e+2, 2.3574333e+2, -637883.4, -728023.0, -6941.8535, -0.012452362, -0.0606559, -637351.94, -7643.2485, 0.0, 5.011978, 4.9538555 
3.7349376e+2, 2.4069403e+2, -599154.1, -700869.06, -6044.9067, -0.017061207, -0.05266808, -598796.1, -17606.42, 0.0, 5.0116844, 4.9462667 
3.734871e+2, 2.4564658e+2, -547629.25, -647133.44, -6278.794, -0.015379028, -0.0059206816, -547234.6, -14582.77, 0.0, 5.011748, 4.947706 
3.7348044e+2, 2.5059924e+2, -497806.78, -597583.06, -6444.592, -0.013515731, 0.038016766, -497392.25, -13279.419, 0.0, 5.011868, 4.947696 
3.7347388e+2, 2.5555202e+2, -448234.56, -548605.94, -6581.8403, -0.0116342995, 0.08358058, -447804.8, -12232.456, 0.0, 5.0119753, 4.947488 
3.7346655e+2, 2.6049635e+2, -411323.38, -529118.3, -4547.207, -0.024688393, 0.10978627, -411148.1, -24033.637, 0.0, 5.0122385, 4.936562 
3.7345883e+2, 2.6542747e+2, -356427.3, -468187.66, -1721.9032, -0.07214327, -0.01872773, -356400.78, -17617.844, 0.0, 5.0121603, 4.9399147 
3.7345183e+2, 2.7035812e+2, -306353.97, -418234.78, -249.47255, -0.11831072, -0.17234501, -306353.4, -15898.005, 0.0, 5.0119123, 4.940089 
3.7344542e+2, 2.7528828e+2, -256225.64, -368531.9, 1011.46185, -0.16180186, -0.33619022, -256216.53, -14083.5625, 0.0, 5.0116158, 4.9402175 
3.7343255e+2, 2.802285e+2, -244686.94, -419638.7, -11555.064, -0.20813382, -0.17711066, -243927.06, -50213.832, 0.0, 5.0146494, 4.904402 
3.7342057e+2, 2.851758e+2, -159288.05, -283130.47, -7606.395, -0.1774511, 0.047595974, -158822.61, -13593.326, 0.0, 5.0154004, 4.9338355 
3.7341452e+2, 2.9011342e+2, -116893.75, -236774.08, -7216.003, -0.12294174, 0.042592026, -116460.96, -19619.951, 0.0, 5.013027, 4.933718 
3.7340915e+2, 2.950501e+2, -74362.53, -190472.56, -7032.7827, -0.06868929, 0.026194066, -73938.11, -25476.023, 0.0, 5.010508, 4.933601 
3.7340346e+2, 2.9999435e+2, -29121.873, -107904.17, -7561.923, -0.030577797, -0.018877024, -28402.61, -28388.002, 0.0, 5.008509, 4.9555445 
3.7339875e+2, 3.04958e+2, -26039.67, -100525.07, -7226.9526, -0.03274601, -0.037489265, -25344.953, -25344.953, 0.0, 5.008591, 4.9565315 
3.733967e+2, 3.0993035e+2, -23393.338, -95328.21, -6280.8574, -0.02752497, -0.014695632, -22849.055, -22849.055, 0.0, 5.008658, 4.9579716 
3.7339675e+2, 3.149058e+2, -20576.383, -90306.14, -5712.1875, -0.013894671, 0.021542959, -20111.545, -20111.545, 0.0, 5.0085583, 4.959412 
3.7867314e+2, 1.21467225e+2, -1694910.5, -1746502.8, -164.26347, 0.0065734847, -0.011623507, -1694910.0, 54725.605, 0.0, 5.020988, 4.9873376 
3.786687e+2, 1.2645508e+2, -1654199.5, -1713387.0, -2241.01, -0.019686827, 0.040401407, -1654114.8, 46634.723, 0.0, 5.0207796, 4.9822454 
3.7866756e+2, 1.314353e+2, -1605910.3, -1664753.9, -2348.688, -0.010200744, 0.019198678, -1605816.6, 46126.895, 0.0, 5.020553, 4.982245 
3.786664e+2, 1.3641551e+2, -1559806.9, -1620611.6, -2448.435, -0.00070753926, -0.00076243305, -1559708.4, 43429.484, 0.0, 5.0203238, 4.9807568 
3.7866396e+2, 1.4139405e+2, -1517060.9, -1583142.5, -4496.926, 0.0066229147, 0.0015526633, -1516756.3, 37591.297, 0.0, 5.020035, 4.9770064 
3.786591e+2, 1.4637175e+2, -1468548.4, -1533230.3, -4934.518, 0.0075398847, 0.0015218614, -1468174.1, 37388.906, 0.0, 5.0196195, 4.9774985 
3.7865415e+2, 1.5134944e+2, -1420768.9, -1484812.1, -5065.6123, 0.008123866, 0.000682847, -1420370.8, 36407.996, 0.0, 5.0191984, 4.977498 
3.786492e+2, 1.5632711e+2, -1374402.0, -1439344.0, -5194.3213, 0.008701815, 0.0002773833, -1373989.1, 34005.332, 0.0, 5.0187755, 4.9765096 
3.7864324e+2, 1.6130117e+2, -1334237.3, -1406898.1, -7025.558, 0.008656751, 0.004933692, -1333564.3, 25682.719, 0.0, 5.0183544, 4.9711633 
3.7863547e+2, 1.6627254e+2, -1286102.6, -1357841.6, -7456.939, 0.007506261, 0.0028955922, -1285335.8, 25192.14, 0.0, 5.0179377, 4.9713454 
3.7862766e+2, 1.7124394e+2, -1238238.5, -1309329.3, -7541.141, 0.0063300407, 0.0009367466, -1237447.4, 24361.154, 0.0, 5.0175138, 4.971347 
3.7861985e+2, 1.7621537e+2, -1191523.1, -1263222.5, -7629.1167, 0.0051566665, -0.00063251745, -1190720.3, 22368.803, 0.0, 5.0170827, 4.970541 
3.7861165e+2, 1.811835e+2, -1150468.3, -1229155.0, -8253.776, 0.0038249926, 0.0034627323, -1149611.8, 14788.83, 0.0, 5.0166492, 4.965663 
3.7860292e+2, 1.861489e+2, -1101686.1, -1178732.4, -8237.068, 0.0021369057, -0.007521365, -1100815.3, 14920.595, 0.0, 5.0162163, 4.966285 
3.7859425e+2, 1.911143e+2, -1053781.3, -1130155.8, -8152.35, 0.00040247288, -0.01930111, -1052920.8, 14150.2295, 0.0, 5.0157766, 4.9662876 
3.7858552e+2, 1.9607972e+2, -1006779.6, -1083497.0, -8070.502, -0.0013342727, -0.030841375, -1005939.8, 12466.192, 0.0, 5.01533, 4.9656396 
3.7857664e+2, 2.0104258e+2, -967338.25, -1053051.3, -8660.199, -0.0016605844, -0.02574099, -966472.0, 3296.158, 0.0, 5.014859, 4.9594674 
3.7856752e+2, 2.0600434e+2, -918879.2, -1002895.7, -8901.216, 0.0019912818, -0.010762036, -917946.5, 3200.9294, 0.0, 5.014324, 4.9600167 
3.785584e+2, 2.1096618e+2, -871194.0, -954361.9, -9022.381, 0.005860393, 0.004109606, -870226.44, 2299.5933, 0.0, 5.013777, 4.960022 
3.785493e+2, 2.1592805e+2, -824189.06, -907284.7, -9155.596, 0.009757024, 0.01915686, -823192.25, 712.2991, 0.0, 5.013221, 4.959527 
3.7854025e+2, 2.2088574e+2, -784043.7, -875551.4, -8450.541, 0.011173473, 0.03298503, -783269.9, -7948.317, 0.0, 5.012725, 4.953711 
3.7853155e+2, 2.2583756e+2, -734291.3, -823549.6, -7727.5005, 0.0055845557, -0.00012865641, -733627.25, -6838.34, 0.0, 5.0123715, 4.9547644 
3.785229e+2, 2.3078915e+2, -685948.9, -774659.0, -7364.097, -0.00054078555, -0.037610684, -685341.7, -7083.7954, 0.0, 5.012014, 4.954772 
3.7851423e+2, 2.3574072e+2, -638276.94, -727224.25, -7004.139, -0.006691049, -0.075448945, -637728.75, -8001.6377, 0.0, 5.011645, 4.9542775 
3.785062e+2, 2.4069163e+2, -600739.44, -702402.06, -5901.7676, -0.010845003, -0.0664014, -600397.94, -19193.797, 0.0, 5.011288, 4.9459157 
3.7849936e+2, 2.4564515e+2, -549382.75, -648707.6, -5947.7837, -0.011616365, -0.0065060407, -549027.8, -16367.402, 0.0, 5.011286, 4.947364 
3.784925e+2, 2.5059873e+2, -499784.6, -599240.2, -6059.8364, -0.012630661, 0.049346033, -499416.72, -15300.101, 0.0, 5.0113254, 4.947358 
3.784857e+2, 2.5555244e+2, -450458.0, -550351.9, -6208.677, -0.013693673, 0.10665131, -450073.6, -14502.094, 0.0, 5.011347, 4.9471545 
3.7847865e+2, 2.6049665e+2, -413114.6, -528985.2, -3516.0908, -0.027128663, 0.1346766, -413008.0, -25892.78, 0.0, 5.011448, 4.9369082 
3.7847295e+2, 2.654256e+2, -358302.9, -464739.94, 515.1011, -0.060807075, -0.038381446, -358300.4, -19509.963, 0.0, 5.010703, 4.9416165 
3.7846822e+2, 2.70354e+2, -311301.9, -416334.53, 3376.5474, -0.09331943, -0.24176577, -311193.47, -20724.338, 0.0, 5.009429, 4.9417124 
3.7846386e+2, 2.7528182e+2, -265152.06, -368522.84, 6487.2495, -0.12527655, -0.4546386, -264746.53, -22593.037, 0.0, 5.007789, 4.9417624 
3.7845123e+2, 2.8022316e+2, -266288.25, -442621.72, -3000.7793, -0.19353619, -0.26921147, -266237.2, -72527.05, 0.0, 5.0096846, 4.89851 
3.7843627e+2, 2.851739e+2, -170027.28, -290323.63, -3426.6353, -0.1816007, 0.016473485, -169929.75, -24732.375, 0.0, 5.0121574, 4.932372 
3.7842777e+2, 2.9011285e+2, -122900.72, -242087.45, -4567.5107, -0.124197796, 0.026452908, -122725.94, -25922.908, 0.0, 5.0114727, 4.932215 
3.784198e+2, 2.950509e+2, -77124.74, -194541.89, -5332.5327, -0.070312575, 0.026354497, -76883.06, -28465.559, 0.0, 5.010135, 4.9320583 
3.7841147e+2, 2.9999405e+2, -30920.725, -113336.84, -5404.783, -0.042393018, -0.017938877, -30567.795, -30567.795, 0.0, 5.0088124, 4.953325 
3.7840503e+2, 3.049538e+2, -25658.123, -98858.38, -3974.0063, -0.07387422, -0.085953265, -25443.01, -25443.01, 0.0, 5.0085025, 4.956871 
3.7840137e+2, 3.099231e+2, -27540.764, -95784.76, -2614.6475, -0.104106046, -0.11997969, -27440.734, -27440.734, 0.0, 5.0069747, 4.958228 
3.7839955e+2, 3.148951e+2, -32357.031, -94180.54, -2071.8513, -0.13288227, -0.14467561, -32287.676, -32287.676, 0.0, 5.004172, 4.959583 
3.8369483e+2, 1.2146692e+2, -1689977.5, -1744419.4, 169.12523, 0.004169989, -0.011041692, -1689977.0, 59662.07, 0.0, 5.022704, 4.9871793 
3.8369042e+2, 1.2645452e+2, -1649776.0, -1711596.3, -2065.829, -0.018725133, 0.040113274, -1649707.1, 51048.195, 0.0, 5.0223355, 4.982073 
3.8368893e+2, 1.3143462e+2, -1602003.4, -1663224.5, -2220.793, -0.009453813, 0.0193906, -1601923.0, 50027.555, 0.0, 5.0219407, 4.9820724 
3.8368744e+2, 1.3641469e+2, -1556402.8, -1619330.8, -2367.21, -0.00016347283, -0.00007417349, -1556313.8, 46832.17, 0.0, 5.021546, 4.980586 
3.8368464e+2, 1.413931e+2, -1514095.8, -1582116.3, -4539.4404, 0.0070494716, 0.0026759421, -1513794.1, 40562.758, 0.0, 5.0211186, 4.9768214 
3.8367927e+2, 1.4637065e+2, -1465858.5, -1532360.4, -5032.2563, 0.007892058, 0.0030211904, -1465479.9, 40094.457, 0.0, 5.0206175, 4.9773054 
3.8367385e+2, 1.5134819e+2, -1418332.5, -1484067.3, -5198.4697, 0.008421102, 0.0025837845, -1417924.0, 38867.91, 0.0, 5.020113, 4.977306 
3.8366842e+2, 1.5632571e+2, -1372212.1, -1438717.8, -5361.5273, 0.008968324, 0.0026017623, -1371782.6, 36226.816, 0.0, 5.0196085, 4.9763193 
3.8366202e+2, 1.6129959e+2, -1332026.0, -1405968.6, -7158.2656, 0.008728827, 0.0069422466, -1331339.4, 27924.232, 0.0, 5.0191326, 4.9711018 
3.8365376e+2, 1.6627075e+2, -1283885.0, -1356854.1, -7499.2837, 0.0070223087, 0.0032205842, -1283122.3, 27423.848, 0.0, 5.018708, 4.971309 
3.8364547e+2, 1.7124195e+2, -1236030.5, -1308352.9, -7499.3184, 0.0053393007, -0.00037537122, -1235261.1, 26567.023, 0.0, 5.0182843, 4.9713097 
3.836372e+2, 1.7621318e+2, -1189302.4, -1262246.8, -7500.4224, 0.003719733, -0.0035117846, -1188539.1, 24570.959, 0.0, 5.01786, 4.970503 
3.8362858e+2, 1.8118124e+2, -1148365.9, -1228160.4, -8180.535, 0.0025824879, 0.000057542286, -1147535.9, 16886.115, 0.0, 5.0173683, 4.965659 
3.8361946e+2, 1.8614687e+2, -1100304.4, -1178081.6, -8339.14, 0.0025221838, -0.008658172, -1099420.3, 16335.112, 0.0, 5.016691, 4.966282 
3.836103e+2, 1.9111252e+2, -1053123.8, -1129843.8, -8407.03, 0.0025719963, -0.017881162, -1052213.4, 14874.997, 0.0, 5.0160036, 4.9662867 
3.8360122e+2, 1.9607818e+2, -1006821.3, -1083509.8, -8476.857, 0.0027105957, -0.02673684, -1005895.5, 12525.552, 0.0, 5.015316, 4.965641 
3.8359186e+2, 2.0104113e+2, -967847.75, -1053289.4, -9082.778, 0.0033269092, -0.020881176, -966892.9, 2889.7205, 0.0, 5.0146804, 4.9594693 
3.8358206e+2, 2.0600258e+2, -919604.9, -1003391.56, -9229.414, 0.005598827, -0.008494966, -918600.3, 2565.0337, 0.0, 5.0141015, 4.9599524 
3.8357222e+2, 2.1096413e+2, -872031.1, -954921.25, -9246.224, 0.008095221, 0.0040275967, -871012.25, 1535.1534, 0.0, 5.0135174, 4.9599524 
3.8356245e+2, 2.159257e+2, -825111.3, -907897.1, -9263.901, 0.010714922, 0.016933221, -824087.3, -158.00504, 0.0, 5.0129333, 4.9594526 
3.835528e+2, 2.208833e+2, -784690.2, -875211.9, -8415.891, 0.011647634, 0.029292502, -783914.4, -8567.368, 0.0, 5.0123615, 4.953997 
3.8354376e+2, 2.2583562e+2, -735696.44, -823308.8, -7819.4297, 0.008164775, -0.0021956924, -735004.06, -8196.513, 0.0, 5.0116973, 4.9551563 
3.8353482e+2, 2.3078781e+2, -688264.2, -774786.25, -7614.494, 0.004469936, -0.037434123, -687599.1, -9330.337, 0.0, 5.0110154, 4.9551787 
3.8352588e+2, 2.3573999e+2, -641466.75, -727703.4, -7420.1777, 0.00085504627, -0.07279247, -640832.94, -11102.937, 0.0, 5.010331, 4.9546995 
3.8351753e+2, 2.4069123e+2, -605095.5, -703589.7, -6078.7764, -0.0021587487, -0.06484266, -604721.75, -23518.629, 0.0, 5.0096283, 4.946221 
3.8351023e+2, 2.4564447e+2, -555387.56, -651429.7, -5775.098, -0.004807305, -0.008011618, -555041.56, -22376.656, 0.0, 5.0091934, 4.9473233 
3.8350293e+2, 2.5059783e+2, -506986.9, -602656.3, -5676.5747, -0.007499005, 0.04656617, -506651.25, -22524.78, 0.0, 5.0088134, 4.9472675 
3.8349575e+2, 2.5555134e+2, -458824.5, -554446.94, -5565.029, -0.010028518, 0.10320333, -458501.72, -22915.107, 0.0, 5.0084257, 4.947014 
3.8348883e+2, 2.6049602e+2, -420210.78, -528156.8, -2464.8162, -0.020169063, 0.13062988, -420154.53, -33028.508, 0.0, 5.008132, 4.9386888 
3.8348496e+2, 2.6542693e+2, -365292.97, -461519.84, -880.9403, -0.03168303, -0.041998632, -365284.9, -26512.15, 0.0, 5.007112, 4.944346 
3.834821e+2, 2.7035794e+2, -317792.84, -411570.28, -1239.5554, -0.038827855, -0.24340874, -317776.47, -27360.635, 0.0, 5.0058856, 4.9448886 
3.8347974e+2, 2.7528903e+2, -270193.5, -361892.53, -1800.4956, -0.044001598, -0.4528175, -270158.16, -28100.32, 0.0, 5.004618, 4.9453835 
3.8346884e+2, 2.8023142e+2, -266489.44, -434734.66, -6011.0474, -0.110973604, -0.3027258, -266274.94, -72678.65, 0.0, 5.007897, 4.902482 
3.8345248e+2, 2.8517988e+2, -176377.83, -301342.53, -3829.3862, -0.13161948, -0.023697065, -176260.6, -31148.027, 0.0, 5.0110464, 4.929826 
3.83442e+2, 2.9011756e+2, -127757.37, -250506.02, -4312.4688, -0.093450986, 0.01065945, -127606.05, -30866.957, 0.0, 5.0107613, 4.9301357 
3.8343212e+2, 2.950541e+2, -79007.09, -199808.0, -5186.5303, -0.055918846, 0.02672592, -78784.82, -30408.227, 0.0, 5.0103717, 4.9304466 
3.8342226e+2, 2.999969e+2, -25457.047, -107286.84, -5171.6333, -0.042931456, -0.007520667, -25131.496, -25131.496, 0.0, 5.010481, 4.9549026 
3.8341624e+2, 3.0495542e+2, -13629.376, -88880.625, -6295.006, -0.08086921, -0.08974156, -13106.413, -13106.413, 0.0, 5.012769, 4.9589286 
3.8341355e+2, 3.0992433e+2, -5270.805, -80705.5, -7178.4077, -0.10853367, -0.12152032, -4593.7803, -4593.7803, 0.0, 5.0151725, 4.960575 
3.8341296e+2, 3.148984e+2, 3321.937, -72776.18, -7786.4766, -0.12807068, -0.117276475, 4110.49, 4110.49, 0.0, 5.0174475, 4.962225 
3.8871723e+2, 1.21466994e+2, -1690143.8, -1744753.4, 9.529564, 0.0010714231, -0.009021964, -1690143.8, 59495.363, 0.0, 5.022703, 4.98707 
3.8871306e+2, 1.264542e+2, -1650068.6, -1712196.1, -2366.951, -0.015755337, 0.0400701, -1649978.6, 50780.508, 0.0, 5.022336, 4.981876 
3.8871107e+2, 1.3143422e+2, -1602293.1, -1663823.5, -2520.6348, -0.0076477267, 0.020453054, -1602190.1, 49765.035, 0.0, 5.021941, 4.981875 
3.8870904e+2, 1.364142e+2, -1556686.9, -1619923.3, -2664.6072, 0.00045690252, 0.0020868364, -1556574.9, 46576.563, 0.0, 5.021547, 4.98039 
3.8870573e+2, 1.4139247e+2, -1514388.1, -1582729.5, -4907.258, 0.00674653, 0.0054559545, -1514037.5, 40326.176, 0.0, 5.0211196, 4.976619 
3.8869983e+2, 1.463698e+2, -1466159.1, -1532994.3, -5416.155, 0.0071596806, 0.0055503324, -1465723.0, 39860.723, 0.0, 5.020619, 4.9770956 
3.8869384e+2, 1.5134709e+2, -1418630.1, -1484698.5, -5581.579, 0.0072653964, 0.004833265, -1418161.9, 38642.09, 0.0, 5.020115, 4.977096 
3.886879e+2, 1.5632437e+2, -1372505.3, -1439343.4, -5743.287, 0.0073812166, 0.004560433, -1372015.4, 36008.84, 0.0, 5.0196104, 4.9761105 
3.8868096e+2, 1.6129802e+2, -1332073.6, -1406067.5, -7498.098, 0.0068665473, 0.008048962, -1331321.4, 27959.08, 0.0, 5.019132, 4.97107 
3.886723e+2, 1.6626902e+2, -1283874.8, -1356834.1, -7822.583, 0.0052522435, 0.0025349327, -1283045.5, 27518.346, 0.0, 5.018708, 4.9713173 
3.8866356e+2, 1.7124005e+2, -1236016.4, -1308331.8, -7820.445, 0.0036526904, -0.002887763, -1235180.3, 26666.389, 0.0, 5.0182853, 4.9713173 
3.886549e+2, 1.7621109e+2, -1189284.1, -1262224.1, -7819.3037, 0.0020890096, -0.007883335, -1188455.4, 24674.197, 0.0, 5.0178623, 4.970511 
3.8864586e+2, 1.811791e+2, -1148417.9, -1228285.6, -8647.484, 0.0016006264, -0.0046900096, -1147492.4, 16949.078, 0.0, 5.01737, 4.965618 
3.8863626e+2, 1.8614502e+2, -1100395.6, -1178305.3, -8857.137, 0.003601667, -0.009602067, -1099401.4, 16371.41, 0.0, 5.016695, 4.966208 
3.8862664e+2, 1.91111e+2, -1053206.0, -1130064.1, -8920.798, 0.005742996, -0.0148430895, -1052184.1, 14919.509, 0.0, 5.01601, 4.9662123 
3.886171e+2, 1.9607696e+2, -1006894.5, -1083727.0, -8986.322, 0.007931792, -0.019790495, -1005857.44, 12576.888, 0.0, 5.0153246, 4.965566 
3.8860717e+2, 2.0104e+2, -967798.4, -1053188.9, -9541.448, 0.009426198, -0.013038434, -966745.2, 3050.6753, 0.0, 5.0146813, 4.959505 
3.8859656e+2, 2.0600098e+2, -919612.25, -1003398.9, -9681.004, 0.009678461, -0.005173297, -918508.2, 2674.6682, 0.0, 5.0141, 4.9599533 
3.8858593e+2, 2.1096204e+2, -872029.7, -954919.56, -9690.487, 0.009989674, 0.002744371, -870911.9, 1657.5258, 0.0, 5.013518, 4.959955 
3.8857532e+2, 2.1592313e+2, -825101.06, -907886.5, -9700.794, 0.010386661, 0.010964624, -823979.56, -23.847046, 0.0, 5.012935, 4.959458 
3.88565e+2, 2.208806e+2, -784295.5, -874345.5, -8869.195, 0.0102999825, 0.020671653, -783430.3, -8056.063, 0.0, 5.0123596, 4.9543 
3.8855565e+2, 2.2583382e+2, -735241.2, -822373.7, -8282.912, 0.009636259, -0.0046139355, -734460.8, -7636.0444, 0.0, 5.011705, 4.9554853 
3.8854635e+2, 2.3078695e+2, -687768.8, -773840.1, -8057.0313, 0.008912311, -0.03299994, -687021.06, -8745.61, 0.0, 5.011036, 4.955507 
3.8853708e+2, 2.3574008e+2, -640931.4, -726746.25, -7841.712, 0.008125995, -0.061798822, -640220.7, -10494.38, 0.0, 5.0103645, 4.955026 
3.8852826e+2, 2.4069156e+2, -604334.1, -702285.2, -6481.232, 0.006132244, -0.055421542, -603907.1, -22710.717, 0.0, 5.0096865, 4.94665 
3.8852024e+2, 2.456439e+2, -555093.06, -651108.3, -6141.871, 0.001370233, -0.00919842, -554701.75, -22032.09, 0.0, 5.009242, 4.947421 
3.885123e+2, 2.5059643e+2, -506756.75, -602343.75, -6022.2305, -0.003384115, 0.0366309, -506378.84, -22236.598, 0.0, 5.008839, 4.9473743 
3.8850442e+2, 2.5554913e+2, -458658.4, -554142.9, -5889.553, -0.0080102505, 0.08479311, -458296.53, -22683.55, 0.0, 5.008429, 4.947129 
3.8849735e+2, 2.604944e+2, -418191.84, -523614.28, -2560.1636, -0.016275626, 0.109949276, -418129.72, -30982.275, 0.0, 5.008118, 4.940363 
3.8849476e+2, 2.654282e+2, -363404.16, -458279.97, -615.4653, -0.01382055, -0.037662566, -363400.16, -24640.783, 0.0, 5.00724, 4.945667 
3.8849315e+2, 2.7036163e+2, -315365.72, -408268.47, -614.16315, -0.008401285, -0.21420555, -315361.66, -24991.137, 0.0, 5.0061817, 4.946163 
3.88492e+2, 2.752949e+2, -267230.53, -358530.94, -814.7961, -0.0034483129, -0.40223905, -267223.25, -25239.611, 0.0, 5.005083, 4.9466133 
3.8848263e+2, 2.8023517e+2, -258814.53, -414107.72, -4166.5815, -0.07082593, -0.31444293, -258702.81, -65164.9, 0.0, 5.0075235, 4.909683 
3.8846627e+2, 2.8518122e+2, -181087.45, -304650.56, -4585.573, -0.10060256, -0.07356869, -180917.52, -35832.344, 0.0, 5.010088, 4.9289885 
3.8845497e+2, 2.9011938e+2, -131804.89, -254129.52, -4629.4014, -0.07017726, -0.011250283, -131629.94, -34913.445, 0.0, 5.0100317, 4.929122 
3.884442e+2, 2.950561e+2, -82393.35, -203748.31, -5065.362, -0.043472324, 0.030878648, -82182.29, -33820.62, 0.0, 5.009871, 4.9292555 
3.884337e+2, 3.0000108e+2, -24944.076, -103439.76, -3635.7534, -0.043926813, 0.027752718, -24776.035, -24776.035, 0.0, 5.0101213, 4.956373 
3.8842827e+2, 3.0495623e+2, -14996.17, -88782.78, -3094.0774, -0.10029742, -0.07772879, -14866.653, -14866.653, 0.0, 5.0123286, 4.9592667 
3.8842604e+2, 3.0991864e+2, -6448.367, -79259.23, -3152.4966, -0.15491843, -0.15514825, -6312.1284, -6312.1284, 0.0, 5.014647, 4.9613085 
3.8842556e+2, 3.148865e+2, 2332.6455, -69982.76, -2935.776, -0.2095533, -0.19936699, 2451.6328, 2451.6328, 0.0, 5.016838, 4.963354 
3.937396e+2, 1.2146706e+2, -1690258.3, -1744980.5, -144.91953, -0.0021783651, -0.007109009, -1690257.9, 59381.56, 0.0, 5.022702, 4.9869957 
3.9373568e+2, 1.264539e+2, -1650361.6, -1712795.6, -2667.3906, -0.012793196, 0.040057667, -1650247.9, 50515.004, 0.0, 5.022336, 4.981679 
3.9373317e+2, 1.3143383e+2, -1602583.4, -1664422.3, -2819.7942, -0.0058398265, 0.021531615, -1602455.0, 49504.67, 0.0, 5.021942, 4.9816775 
3.9373067e+2, 1.3641371e+2, -1556971.5, -1620515.6, -2961.3203, 0.0010885599, 0.004249323, -1556833.9, 46322.99, 0.0, 5.021548, 4.980194 
3.937268e+2, 1.4139184e+2, -1514684.9, -1583351.6, -5275.507, 0.0064530545, 0.008255449, -1514282.0, 40088.574, 0.0, 5.021121, 4.9764132 
3.9372036e+2, 1.4636892e+2, -1466459.9, -1533628.1, -5800.0522, 0.0064350497, 0.008090846, -1465962.6, 39630.51, 0.0, 5.020621, 4.9768853 
3.9371386e+2, 1.51346e+2, -1418927.8, -1485329.6, -5964.6875, 0.00611677, 0.0070760744, -1418396.3, 38419.785, 0.0, 5.020117, 4.976886 
3.9370733e+2, 1.5632303e+2, -1372798.6, -1439969.1, -6125.0444, 0.005800521, 0.0064943973, -1372244.6, 35794.31, 0.0, 5.019613, 4.9759016 
3.936999e+2, 1.6129646e+2, -1332130.5, -1406185.4, -7841.4194, 0.0050275903, 0.009211742, -1331309.3, 27988.045, 0.0, 5.019132, 4.971031 
3.9369082e+2, 1.6626728e+2, -1283865.0, -1356813.9, -8144.985, 0.003513074, 0.0019061087, -1282966.8, 27614.799, 0.0, 5.018708, 4.971325 
3.936817e+2, 1.7123812e+2, -1236002.8, -1308310.3, -8140.6743, 0.0019958294, -0.005376436, -1235097.5, 26767.701, 0.0, 5.018286, 4.971325 
3.936726e+2, 1.7620899e+2, -1189266.5, -1262201.3, -8137.2876, 0.00048689183, -0.012264258, -1188369.6, 24779.336, 0.0, 5.017864, 4.9705186 
3.936631e+2, 1.8117698e+2, -1148481.1, -1228433.8, -9117.931, 0.0006484755, -0.009367533, -1147454.5, 17006.34, 0.0, 5.017372, 4.965569 
3.9365304e+2, 1.8614319e+2, -1100487.8, -1178528.5, -9373.952, 0.0047181267, -0.010515714, -1099377.5, 16412.672, 0.0, 5.016699, 4.9661326 
3.93643e+2, 1.9110946e+2, -1053288.9, -1130284.1, -9433.383, 0.008948336, -0.011866492, -1052150.0, 14968.958, 0.0, 5.0160165, 4.966137 
3.9363298e+2, 1.9607574e+2, -1006968.44, -1083943.9, -9494.6045, 0.013184693, -0.012997305, -1005814.6, 12633.071, 0.0, 5.015333, 4.965491 
3.936225e+2, 2.0103887e+2, -967803.06, -1053205.0, -10015.325, 0.015631491, -0.004923959, -966644.3, 3164.6943, 0.0, 5.0146823, 4.9595003 
3.9361107e+2, 2.0599939e+2, -919620.25, -1003406.2, -10132.812, 0.013865008, -0.0015349233, -918412.25, 2787.9902, 0.0, 5.0140986, 4.9599524 
3.9359966e+2, 2.1095996e+2, -872028.9, -954917.8, -10134.969, 0.011945516, 0.0015962304, -870807.6, 1783.5526, 0.0, 5.0135183, 4.9599566 
3.9358822e+2, 2.1592057e+2, -825091.5, -907875.75, -10137.904, 0.010074289, 0.0049495865, -823868.06, 113.89667, 0.0, 5.0129375, 4.9594607 
3.9357722e+2, 2.208779e+2, -783958.8, -873601.56, -9339.445, 0.009000133, 0.012269707, -782996.1, -7594.8037, 0.0, 5.0123577, 4.9545593 
3.935675e+2, 2.2583202e+2, -734790.3, -821435.7, -8742.539, 0.011132009, -0.00701278, -733917.0, -7075.0845, 0.0, 5.0117126, 4.9558105 
3.935579e+2, 2.3078609e+2, -687277.75, -772891.0, -8495.711, 0.013295155, -0.029017951, -686442.8, -8160.644, 0.0, 5.0110564, 4.9558306 
3.9354828e+2, 2.3574013e+2, -640400.3, -725786.1, -8259.387, 0.015253617, -0.051728826, -639608.75, -9885.863, 0.0, 5.0103984, 4.955349 
3.9353904e+2, 2.4069197e+2, -603795.8, -701449.94, -6851.455, 0.014449953, -0.04500306, -603317.44, -22128.47, 0.0, 5.0097446, 4.9469132 
3.9353034e+2, 2.4564345e+2, -554810.75, -650775.56, -6511.1553, 0.007652016, -0.00865214, -554371.0, -21697.738, 0.0, 5.00929, 4.947516 
3.9352167e+2, 2.5059512e+2, -506538.78, -602019.75, -6370.4043, 0.0007681956, 0.027804594, -506115.63, -21958.59, 0.0, 5.008865, 4.9474773 
3.9351305e+2, 2.55547e+2, -458504.47, -553827.3, -6216.603, -0.006021349, 0.06686796, -458100.75, -22462.129, 0.0, 5.008432, 4.947241 
3.935057e+2, 2.604926e+2, -416659.0, -520048.47, -2669.5703, -0.0131901, 0.08883148, -416590.13, -29419.102, 0.0, 5.0081043, 4.9416566 
3.935045e+2, 2.654289e+2, -361586.16, -454987.97, -258.01398, 0.002186208, -0.039769843, -361585.44, -22834.186, 0.0, 5.0073676, 4.946894 
3.9350432e+2, 2.7036458e+2, -313008.75, -404913.44, 103.02451, 0.01934577, -0.19845602, -313008.66, -22676.072, 0.0, 5.0064783, 4.9473453 
3.9350456e+2, 2.752998e+2, -264337.25, -355114.97, 262.45706, 0.03359988, -0.37212417, -264336.5, -22417.527, 0.0, 5.005548, 4.947749 
3.93496e+2, 2.8023914e+2, -254919.98, -402177.72, -3953.408, -0.031788424, -0.32084766, -254813.94, -61336.94, 0.0, 5.0071554, 4.9138656 
3.9347923e+2, 2.8518382e+2, -185967.64, -307800.94, -5036.811, -0.06735393, -0.09907595, -185759.75, -40714.082, 0.0, 5.0091295, 4.928069 
3.9346743e+2, 2.9012218e+2, -136021.16, -257595.58, -4641.377, -0.043885, -0.016238365, -135844.22, -39160.07, 0.0, 5.0093017, 4.9280257 
3.9345607e+2, 2.9505885e+2, -85946.625, -207531.36, -4639.2285, -0.027221866, 0.044512194, -85769.87, -37430.516, 0.0, 5.00937, 4.927983 
3.9344513e+2, 3.0000502e+2, -25751.504, -102104.38, -2323.3533, -0.04109283, 0.06318935, -25680.871, -25680.871, 0.0, 5.0097623, 4.9568334 
3.9343956e+2, 3.0495557e+2, -16562.215, -88494.99, -424.05258, -0.12416734, -0.08069362, -16559.715, -16559.715, 0.0, 5.0118885, 4.95945 
3.9343682e+2, 3.0991077e+2, -7825.8755, -77627.38, 340.80356, -0.21617952, -0.2210372, -7824.212, -7824.212, 0.0, 5.0141225, 4.9618864 
3.9343563e+2, 3.1487176e+2, 1142.5962, -67008.57, 1380.0275, -0.3163242, -0.33098632, 1170.5297, 1170.5297, 0.0, 5.016229, 4.964327 
3.9876202e+2, 1.21467136e+2, -1690083.4, -1745021.0, -160.03787, -0.005242728, -0.0052781883, -1690082.9, 59556.71, 0.0, 5.022788, 4.9869404 
3.9875832e+2, 1.2645362e+2, -1650319.3, -1713231.9, -2838.9597, -0.009879885, 0.04022458, -1650191.5, 50574.91, 0.0, 5.022448, 4.9814806 
3.987553e+2, 1.3143344e+2, -1602453.8, -1664814.6, -2992.526, -0.004091099, 0.022671001, -1602310.5, 49653.61, 0.0, 5.022083, 4.9814796 
3.987523e+2, 1.3641323e+2, -1556772.3, -1620868.4, -3132.3206, 0.0016779966, 0.0063629807, -1556619.5, 46542.625, 0.0, 5.021711, 4.9799986 
3.9874792e+2, 1.4139123e+2, -1514462.1, -1583718.0, -5511.1035, 0.0061436687, 0.01095893, -1514026.4, 40350.97, 0.0, 5.0212965, 4.9762073 
3.9874095e+2, 1.4636809e+2, -1466232.1, -1533997.1, -6034.0947, 0.0057201567, 0.0105317505, -1465699.0, 39903.47, 0.0, 5.0207987, 4.9766774 
3.9873388e+2, 1.513449e+2, -1418701.6, -1485700.0, -6183.049, 0.005012373, 0.009222742, -1418135.8, 38692.15, 0.0, 5.020294, 4.9766774 
3.9872685e+2, 1.5632172e+2, -1372580.8, -1440341.8, -6328.869, 0.0043067555, 0.008349317, -1371994.8, 36058.773, 0.0, 5.0197873, 4.975694 
3.9871886e+2, 1.6129494e+2, -1331746.0, -1406110.0, -8010.8257, 0.0033180101, 0.010420837, -1330892.8, 28421.064, 0.0, 5.019286, 4.970983 
3.987094e+2, 1.6626556e+2, -1283566.9, -1356663.6, -8318.36, 0.0018918687, 0.001385677, -1282632.3, 27966.64, 0.0, 5.0188084, 4.9713273 
3.9869982e+2, 1.7123623e+2, -1235876.1, -1308242.9, -8341.654, 0.0004514187, -0.0077171037, -1234927.0, 26956.447, 0.0, 5.018328, 4.971328 
3.986903e+2, 1.7620693e+2, -1189322.1, -1262220.6, -8365.954, -0.0009925397, -0.016448345, -1188374.4, 24793.738, 0.0, 5.0178437, 4.9705215 
3.986804e+2, 1.8117486e+2, -1148747.4, -1228694.9, -9517.65, -0.00019414771, -0.013762263, -1147629.9, 16850.074, 0.0, 5.017309, 4.9655113 
3.9866987e+2, 1.8614137e+2, -1100749.1, -1178829.5, -9821.609, 0.0058729495, -0.011314275, -1099532.6, 16274.867, 0.0, 5.016646, 4.9660563 
3.9865935e+2, 1.9110796e+2, -1053546.8, -1130584.6, -9888.411, 0.012147928, -0.008935075, -1052297.8, 14836.559, 0.0, 5.0159645, 4.96606 
3.9864883e+2, 1.9607453e+2, -1007257.06, -1084259.4, -9960.792, 0.01842618, -0.006347668, -1005989.44, 12471.585, 0.0, 5.015271, 4.965413 
3.9863783e+2, 2.0103775e+2, -968075.2, -1053427.1, -10455.056, 0.021915054, 0.0034697712, -966813.2, 3008.752, 0.0, 5.0146093, 4.95946 
3.986256e+2, 2.0599784e+2, -919768.56, -1003477.0, -10509.146, 0.018121814, 0.0024094165, -918469.4, 2747.943, 0.0, 5.0140495, 4.959951 
3.9861336e+2, 2.1095791e+2, -872129.1, -954965.5, -10492.286, 0.013944752, 0.0006102013, -870820.8, 1791.9105, 0.0, 5.0134845, 4.959955 
3.9860114e+2, 2.1591803e+2, -825178.06, -907915.3, -10489.176, 0.00980683, -0.0009985511, -823869.0, 138.99419, 0.0, 5.012908, 4.9594603 
3.985894e+2, 2.2087523e+2, -783797.7, -873033.1, -9758.513, 0.007793417, 0.0041814665, -782743.0, -7314.865, 0.0, 5.0123143, 4.9547734 
3.985794e+2, 2.2583021e+2, -734594.56, -820593.06, -9167.952, 0.012634383, -0.009515811, -733628.06, -6768.9683, 0.0, 5.0116324, 4.956135 
3.9856943e+2, 2.3078522e+2, -687275.75, -772125.0, -8919.5205, 0.01768693, -0.025620652, -686348.25, -8059.115, 0.0, 5.0109086, 4.956159 
3.9855954e+2, 2.3574018e+2, -640684.44, -725137.06, -8664.792, 0.022543814, -0.042517185, -639804.56, -10084.992, 0.0, 5.0101504, 4.955682 
3.985499e+2, 2.4069254e+2, -604713.1, -701541.6, -7116.7603, 0.023472948, -0.03337236, -604192.8, -23012.416, 0.0, 5.0093775, 4.947037 
3.9854053e+2, 2.4564318e+2, -556120.5, -651131.7, -6775.844, 0.015086481, -0.0061782477, -555639.75, -22964.615, 0.0, 5.0088067, 4.947599 
3.9853114e+2, 2.5059396e+2, -508188.75, -602570.4, -6688.1323, 0.0063879215, 0.02035652, -507717.16, -23546.818, 0.0, 5.0082693, 4.9475493 
3.9852178e+2, 2.5554496e+2, -460480.9, -554561.94, -6671.9243, -0.0022289008, 0.04981339, -460010.1, -24346.91, 0.0, 5.0077305, 4.947302 
3.9851406e+2, 2.6049054e+2, -418466.8, -518570.44, -3084.7505, -0.008144489, 0.067475945, -418371.84, -31175.18, 0.0, 5.0070744, 4.942644 
3.985144e+2, 2.6542914e+2, -367249.03, -454310.38, 494.76755, 0.02297944, -0.049136724, -367246.22, -28498.59, 0.0, 5.004822, 4.948274 
3.9851606e+2, 2.7036718e+2, -325203.75, -406960.25, 2482.405, 0.057329763, -0.19728547, -325128.44, -34829.71, 0.0, 5.0015793, 4.9487877 
3.985181e+2, 2.7530456e+2, -285188.7, -360804.38, 4815.9097, 0.08850514, -0.3631304, -284883.2, -43027.1, 0.0, 4.997534, 4.949253 
3.9850986e+2, 2.8024468e+2, -285665.28, -412492.53, 876.9683, 0.03496624, -0.3230564, -285659.22, -92257.3, 0.0, 4.995934, 4.915175 
3.98492e+2, 2.851885e+2, -211081.33, -320826.44, -63.632263, -0.012397578, -0.10187431, -211081.3, -66094.82, 0.0, 5.001233, 4.926751 
3.9847985e+2, 2.901264e+2, -150432.86, -265853.03, -1048.4164, -0.0041126423, -0.0066383407, -150423.34, -53784.707, 0.0, 5.0051394, 4.926698 
3.9846817e+2, 2.9506233e+2, -93041.984, -212546.8, -1612.8118, -0.0024029957, 0.06331071, -93020.23, -44710.3, 0.0, 5.007777, 4.9266443 
3.9845684e+2, 3.0000842e+2, -28575.363, -102425.21, 879.7638, -0.031494696, 0.09193437, -28564.885, -28564.885, 0.0, 5.0091805, 4.956655 
3.9845058e+2, 3.0495408e+2, -26284.45, -89858.47, 5085.793, -0.14231531, -0.10107145, -25880.168, -25880.168, 0.0, 5.008582, 4.960022 
3.984471e+2, 3.0990273e+2, -32664.203, -84277.53, 7828.341, -0.26608238, -0.3103195, -31502.98, -31502.98, 0.0, 5.005224, 4.962854 
3.9844516e+2, 3.1485802e+2, -46074.58, -82064.07, 10315.675, -0.39782274, -0.48607266, -43327.484, -43327.484, 0.0, 4.9991064, 4.9656897 
4.0378585e+2, 1.2146783e+2, -1685978.1, -1743874.0, 200.73575, -0.003019251, -0.0039611347, -1685977.5, 63656.05, 0.0, 5.0243397, 4.986557 
4.0378174e+2, 1.2645422e+2, -1646053.6, -1711610.4, -2468.421, -0.008615422, 0.042994164, -1645960.8, 54800.57, 0.0, 5.0239697, 4.98127 
4.0377825e+2, 1.3143374e+2, -1598190.5, -1663195.0, -2641.4111, -0.0038356078, 0.024555547, -1598083.4, 53878.668, 0.0, 5.0236073, 4.9812703 
4.0377477e+2, 1.3641323e+2, -1552486.6, -1619232.9, -2800.2212, 0.000994074, 0.00738996, -1552369.3, 50793.57, 0.0, 5.0232453, 4.9797926 
4.0376994e+2, 1.41391e+2, -1510116.9, -1581947.6, -5269.2793, 0.0048689432, 0.011226361, -1509732.4, 44648.0, 0.0, 5.0228305, 4.97605 
4.0376243e+2, 1.4636764e+2, -1462002.0, -1532286.1, -5777.5293, 0.0044185943, 0.010460507, -1461530.3, 44077.016, 0.0, 5.0222974, 4.976522 
4.0375486e+2, 1.5134428e+2, -1414586.6, -1484054.5, -5887.7407, 0.0037210824, 0.008884994, -1414091.1, 42743.254, 0.0, 5.0217586, 4.976521 
4.037473e+2, 1.5632091e+2, -1368569.1, -1438752.6, -5991.84, 0.0030475755, 0.0077862153, -1368061.3, 40000.242, 0.0, 5.02122, 4.975538 
4.037388e+2, 1.61294e+2, -1327963.9, -1404537.3, -7737.847, 0.0023112684, 0.009898656, -1327189.8, 32133.305, 0.0, 5.020621, 4.9708705 
4.0372872e+2, 1.662646e+2, -1280575.3, -1355456.3, -8157.176, 0.0016201017, 0.0014193546, -1279697.0, 30911.654, 0.0, 5.0198736, 4.971225 
4.0371862e+2, 1.7123522e+2, -1233696.6, -1307429.5, -8278.473, 0.00096848095, -0.007089889, -1232778.6, 29115.125, 0.0, 5.0191193, 4.9712257 
4.0370852e+2, 1.7620586e+2, -1187937.6, -1261789.9, -8399.718, 0.00034844162, -0.015208364, -1186994.4, 26184.389, 0.0, 5.018365, 4.9704204 
4.03698e+2, 1.8117374e+2, -1147991.1, -1228621.3, -9658.41, 0.0015010565, -0.012037611, -1146850.4, 17641.094, 0.0, 5.017627, 4.9653854 
4.036867e+2, 1.8614015e+2, -1100172.5, -1178885.9, -10059.985, 0.0068252836, -0.009077088, -1098907.1, 16913.316, 0.0, 5.0169125, 4.9659114 
4.0367544e+2, 1.9110666e+2, -1053073.4, -1130690.8, -10211.628, 0.01243249, -0.0059720688, -1051752.4, 15396.347, 0.0, 5.016198, 4.9659142 
4.0366414e+2, 1.9607317e+2, -1006852.7, -1084398.3, -10363.349, 0.018161487, -0.0024706097, -1005491.6, 12985.207, 0.0, 5.0154834, 4.9652667 
4.0365243e+2, 2.0103635e+2, -967376.06, -1052920.9, -10787.212, 0.021382064, 0.0073080566, -966036.75, 3801.8801, 0.0, 5.0148168, 4.9595356 
4.0363964e+2, 2.0599627e+2, -919093.44, -1002842.2, -10684.149, 0.017461993, 0.0034603465, -917751.9, 3482.2356, 0.0, 5.0142183, 4.9600906 
4.0362683e+2, 2.109562e+2, -871564.25, -954400.4, -10522.396, 0.013208283, -0.001131725, -870248.56, 2381.0942, 0.0, 5.013618, 4.9600897 
4.03614e+2, 2.1591617e+2, -824688.75, -907404.3, -10363.315, 0.009069567, -0.0054063825, -823410.1, 614.8605, 0.0, 5.013017, 4.9595885 
4.0360168e+2, 2.2087337e+2, -783663.0, -872912.25, -9737.186, 0.0074295746, -0.0013787658, -782613.0, -7168.2896, 0.0, 5.012337, 4.9548044 
4.035909e+2, 2.2582881e+2, -735517.6, -821059.3, -9664.467, 0.013330023, -0.010254535, -734439.3, -7566.631, 0.0, 5.011315, 4.956115 
4.0358022e+2, 2.3078439e+2, -689135.3, -772945.56, -9894.23, 0.019953294, -0.020346079, -687983.1, -9684.399, 0.0, 5.0102606, 4.9561625 
4.0356964e+2, 2.3574002e+2, -643381.8, -726264.6, -10134.096, 0.026891444, -0.030612633, -642160.7, -12436.383, 0.0, 5.009205, 4.955708 
4.035594e+2, 2.406927e+2, -608003.3, -702074.06, -8847.429, 0.03057166, -0.019993432, -607178.44, -25995.418, 0.0, 5.00809, 4.9474063 
4.0354934e+2, 2.4564268e+2, -560808.8, -652618.0, -8332.6, 0.024674218, -0.0025834627, -560058.7, -27375.02, 0.0, 5.0070767, 4.9478383 
4.0353927e+2, 2.5059265e+2, -514127.7, -604854.94, -8021.5205, 0.018379062, 0.014588545, -513423.94, -29238.559, 0.0, 5.006105, 4.9477143 
4.0352926e+2, 2.5554284e+2, -467667.22, -557649.44, -7692.4634, 0.012254567, 0.034952346, -467014.3, -31329.166, 0.0, 5.0051293, 4.947392 
4.03521e+2, 2.604886e+2, -425354.63, -519280.03, -4521.8853, 0.012256023, 0.049118716, -425137.44, -37920.22, 0.0, 5.004095, 4.943765 
4.0352112e+2, 2.6543027e+2, -372820.16, -452962.2, -3102.1763, 0.05965806, -0.047761127, -372700.25, -33958.367, 0.0, 5.002127, 4.9499826 
4.0352282e+2, 2.7037218e+2, -327351.38, -402931.53, -3657.6301, 0.118527085, -0.17226925, -327174.78, -36915.707, 0.0, 4.9999886, 4.950903 
4.035251e+2, 2.7531415e+2, -281699.56, -353233.0, -4397.6387, 0.18267193, -0.3132072, -281430.22, -39654.04, 0.0, 4.9978313, 4.9517765 
4.0351808e+2, 2.8025663e+2, -273586.7, -398625.9, -8954.383, 0.18147689, -0.28991976, -272948.7, -79645.81, 0.0, 4.998517, 4.919317 
4.0350112e+2, 2.8519708e+2, -211875.58, -325578.94, -2256.6875, 0.10839216, -0.09847447, -211830.81, -66908.664, 0.0, 5.0016985, 4.92559 
4.0348953e+2, 2.9013222e+2, -156579.22, -270732.97, -1565.9059, 0.0701807, -0.008985041, -156557.73, -59954.895, 0.0, 5.003512, 4.9260917 
4.0347868e+2, 2.9506558e+2, -101139.34, -216138.6, -1159.3018, 0.03743359, 0.05029706, -101127.66, -52826.406, 0.0, 5.005261, 4.926594 
4.0346852e+2, 3.0001098e+2, -33219.848, -97555.95, 730.8897, -0.009148149, 0.07335203, -33211.547, -33211.547, 0.0, 5.00681, 4.9592443 
4.034632e+2, 3.0496162e+2, -24208.736, -77623.56, 2961.2285, -0.102940746, -0.09791228, -24045.072, -24045.072, 0.0, 5.007992, 4.9646344 
4.034617e+2, 3.099173e+2, -18341.137, -66529.16, 4112.928, -0.17767458, -0.26523784, -17992.611, -17992.611, 0.0, 5.009171, 4.9676666 
4.03463e+2, 3.1488153e+2, -12150.377, -55756.35, 4857.5576, -0.22833848, -0.37796116, -11615.815, -11615.815, 0.0, 5.010269, 4.970706 
4.0881062e+2, 1.2146881e+2, -1686719.9, -1745383.9, -200.84087, 0.0010623768, -0.0033739894, -1686719.1, 62905.383, 0.0, 5.0243387, 4.986062 
4.0880576e+2, 1.2645526e+2, -1646376.1, -1712275.0, -2744.7056, -0.008166585, 0.046697855, -1646262.0, 54490.07, 0.0, 5.02397, 4.981052 
4.0880182e+2, 1.3143441e+2, -1598510.0, -1663857.8, -2916.7058, -0.0042144563, 0.026698599, -1598380.1, 53576.277, 0.0, 5.023608, 4.9810524 
4.0879792e+2, 1.3641353e+2, -1552799.9, -1619887.0, -3073.225, -0.00022603334, 0.00797029, -1552659.4, 50501.58, 0.0, 5.023246, 4.979577 
4.087926e+2, 1.4139096e+2, -1510324.8, -1582386.5, -5652.9136, 0.0031230336, 0.010514909, -1509884.0, 44497.414, 0.0, 5.022832, 4.975905 
4.0878454e+2, 1.4636745e+2, -1462197.5, -1532701.6, -6187.2324, 0.0027523083, 0.009350854, -1461658.6, 43951.008, 0.0, 5.022299, 4.9763846 
4.0877646e+2, 1.513439e+2, -1414780.1, -1484468.1, -6296.9116, 0.0021433083, 0.0074279904, -1414215.8, 42622.332, 0.0, 5.02176, 4.9763837 
4.0876836e+2, 1.5632036e+2, -1368758.9, -1439160.5, -6399.7295, 0.0015508258, 0.005978006, -1368181.9, 39884.67, 0.0, 5.0212216, 4.9754024 
4.087593e+2, 1.6129333e+2, -1328159.0, -1404959.1, -8274.57, 0.0012197501, 0.008322765, -1327277.6, 32051.393, 0.0, 5.0206227, 4.9707303 
4.087486e+2, 1.6626395e+2, -1280779.1, -1355903.1, -8731.299, 0.0017586701, 0.0015273542, -1279777.8, 30837.066, 0.0, 5.019876, 4.9710755 
4.087379e+2, 1.7123461e+2, -1233897.1, -1307875.3, -8851.258, 0.0023559644, -0.005241583, -1232852.9, 29047.191, 0.0, 5.0191226, 4.9710765 
4.0872714e+2, 1.7620526e+2, -1188134.6, -1262234.3, -8971.017, 0.0029612407, -0.011633899, -1187064.0, 26121.246, 0.0, 5.0183687, 4.9702706 
4.087159e+2, 1.8117309e+2, -1148213.9, -1229116.0, -10205.425, 0.004375758, -0.007560102, -1146946.3, 17552.787, 0.0, 5.0176296, 4.9652195 
4.087037e+2, 1.8613924e+2, -1100420.6, -1179440.1, -10601.367, 0.0076524513, -0.0053513926, -1099023.1, 16808.22, 0.0, 5.016916, 4.965725 
4.086915e+2, 1.9110547e+2, -1053316.5, -1131242.1, -10751.114, 0.011085619, -0.0030697803, -1051860.4, 15302.508, 0.0, 5.0162024, 4.965728 
4.086793e+2, 1.9607171e+2, -1007090.8, -1084946.9, -10900.866, 0.014608746, -0.00042924826, -1005593.4, 12900.978, 0.0, 5.0154886, 4.9650803 
4.086668e+2, 2.0103468e+2, -967208.9, -1052557.3, -11267.586, 0.01653571, 0.008132751, -965746.4, 4111.6885, 0.0, 5.0148163, 4.9596605 
4.086535e+2, 2.0599467e+2, -918794.4, -1002191.44, -11146.673, 0.013766424, 0.0026752513, -917330.25, 3921.202, 0.0, 5.0142174, 4.9603143 
4.086402e+2, 2.1095465e+2, -871257.94, -953748.1, -10978.301, 0.0107613355, -0.003564864, -869821.9, 2822.686, 0.0, 5.0136194, 4.960314 
4.086269e+2, 2.1591465e+2, -824375.2, -906750.44, -10812.555, 0.00782512, -0.009574757, -822979.6, 1058.0483, 0.0, 5.013021, 4.959813 
4.08614e+2, 2.2087197e+2, -783753.25, -873147.2, -10385.315, 0.007340606, -0.0058234576, -782562.6, -7106.989, 0.0, 5.012341, 4.9547276 
4.0860227e+2, 2.2582771e+2, -735819.2, -821826.4, -10426.797, 0.013696258, -0.009122329, -734573.2, -7689.814, 0.0, 5.0113273, 4.955855 
4.0859064e+2, 2.307836e+2, -689403.8, -773708.94, -10636.837, 0.02058717, -0.013271538, -688082.5, -9773.173, 0.0, 5.010283, 4.9558997 
4.0857905e+2, 2.3573951e+2, -643617.44, -727024.6, -10856.892, 0.027681837, -0.017822074, -642227.44, -12492.279, 0.0, 5.0092373, 4.955442 
4.0856788e+2, 2.4069221e+2, -607524.4, -701365.56, -9676.915, 0.03236647, -0.0062345937, -606536.94, -25341.434, 0.0, 5.0081363, 4.947645 
4.08557e+2, 2.4564157e+2, -560168.4, -651521.44, -9139.519, 0.029324913, 0.0016554153, -559263.0, -26563.38, 0.0, 5.0071177, 4.9482193 
4.0854615e+2, 2.5059098e+2, -513518.72, -603739.25, -8797.52, 0.025844436, 0.00910079, -512668.88, -28464.41, 0.0, 5.0061345, 4.9481072 
4.0853533e+2, 2.5554055e+2, -467089.72, -556514.44, -8437.519, 0.022502705, 0.019678865, -466300.56, -30593.254, 0.0, 5.0051475, 4.9477973 
4.0852618e+2, 2.604866e+2, -424525.97, -517747.97, -5602.8203, 0.025514293, 0.031930692, -424190.44, -36954.56, 0.0, 5.004125, 4.944343 
4.085246e+2, 2.654311e+2, -372007.06, -452409.22, -4004.0547, 0.06567488, -0.03742976, -371808.16, -33066.098, 0.0, 5.002271, 4.9502482 
4.0852433e+2, 2.7037576e+2, -326270.84, -402685.7, -4113.1587, 0.113857985, -0.13263448, -326050.1, -35807.508, 0.0, 5.0002537, 4.951041 
4.0852463e+2, 2.7532017e+2, -280351.34, -353294.06, -4406.8145, 0.16608901, -0.24537863, -280086.1, -38340.594, 0.0, 4.9982176, 4.951787 
4.085173e+2, 2.8026348e+2, -270237.16, -391237.6, -11757.322, 0.18649492, -0.22314557, -269105.3, -75833.125, 0.0, 4.998551, 4.9218044 
4.0850332e+2, 2.8520235e+2, -211322.28, -323113.06, -2834.788, 0.13530432, -0.0636627, -211250.44, -66344.51, 0.0, 5.0014234, 4.926468 
4.0849423e+2, 2.9013637e+2, -155959.08, -268974.94, -1649.4165, 0.09160734, 0.007772844, -155935.02, -59338.777, 0.0, 5.003313, 4.9267683 
4.084858e+2, 2.9506853e+2, -100449.836, -215084.7, -749.3661, 0.051448885, 0.051241975, -100444.94, -52140.695, 0.0, 5.0051384, 4.9270687 
4.0847793e+2, 3.0001402e+2, -30165.027, -92544.66, 1808.6814, -0.0013691842, 0.06783332, -30112.629, -30112.629, 0.0, 5.0068493, 4.961165 
4.0847394e+2, 3.0497035e+2, -18073.45, -68608.94, 5058.152, -0.09758242, -0.073170625, -17572.146, -17572.146, 0.0, 5.0084715, 4.9679556 
4.0847328e+2, 3.0993187e+2, -10789.775, -57130.227, 7078.6626, -0.17986248, -0.2127078, -9732.604, -9732.604, 0.0, 5.010092, 4.9709363 
4.084753e+2, 3.1490108e+2, -3188.046, -45975.434, 8691.231, -0.2433304, -0.30758658, -1490.0172, -1490.0172, 0.0, 5.011631, 4.973924 
4.1383538e+2, 1.2146975e+2, -1687398.3, -1746764.1, -599.027, 0.0052376124, -0.0031645724, -1687392.1, 62223.855, 0.0, 5.0243382, 4.9856095 
4.1382977e+2, 1.2645632e+2, -1646699.0, -1712939.4, -3020.64, -0.007704473, 0.050436787, -1646561.5, 54181.258, 0.0, 5.02397, 4.9808345 
4.1382542e+2, 1.3143507e+2, -1598829.9, -1664520.4, -3191.6504, -0.004580714, 0.028863251, -1598675.3, 53275.56, 0.0, 5.0236087, 4.9808345 
4.1382104e+2, 1.3641381e+2, -1553113.4, -1620540.9, -3345.8806, -0.0014342326, 0.008558589, -1552947.8, 50211.168, 0.0, 5.023247, 4.9793615 
4.1381526e+2, 1.4139093e+2, -1510537.1, -1582834.6, -6036.898, 0.0013928184, 0.009827347, -1510036.5, 44345.81, 0.0, 5.022833, 4.975757 
4.1380668e+2, 1.4636724e+2, -1462393.0, -1533117.1, -6596.9927, 0.0010999993, 0.008264254, -1461783.0, 43829.023, 0.0, 5.0223002, 4.976247 
4.1379806e+2, 1.5134352e+2, -1414973.8, -1484881.9, -6706.139, 0.0005762855, 0.005985062, -1414336.3, 42505.453, 0.0, 5.021762, 4.9762464 
4.1378942e+2, 1.5631981e+2, -1368948.6, -1439568.4, -6807.6733, 0.000061604085, 0.0041749002, -1368298.4, 39773.082, 0.0, 5.0212235, 4.9752665 
4.1377982e+2, 1.6129266e+2, -1328357.0, -1405386.5, -8811.648, 0.00012547532, 0.0067575946, -1327361.9, 31973.113, 0.0, 5.0206246, 4.9705877 
4.137685e+2, 1.662633e+2, -1280983.4, -1356350.0, -9304.648, 0.0018956258, 0.0016352454, -1279851.6, 30769.32, 0.0, 5.019879, 4.9709263 
4.1375715e+2, 1.7123398e+2, -1234098.0, -1308320.9, -9423.2705, 0.0037438204, -0.003410581, -1232920.3, 28986.115, 0.0, 5.019126, 4.970927 
4.137458e+2, 1.7620465e+2, -1188332.0, -1262678.4, -9541.541, 0.0055763987, -0.008093925, -1187127.0, 26064.885, 0.0, 5.0183725, 4.970121 
4.1373384e+2, 1.8117243e+2, -1148441.1, -1229620.3, -10755.344, 0.007291801, -0.0030411303, -1147040.4, 17466.324, 0.0, 5.0176325, 4.96505 
4.1372073e+2, 1.8613832e+2, -1100669.3, -1179994.3, -11142.358, 0.008546196, -0.0015782556, -1099133.9, 16708.254, 0.0, 5.016919, 4.9655385 
4.1370758e+2, 1.9110428e+2, -1053560.0, -1131793.3, -11290.21, 0.009813533, -0.00015098791, -1051963.3, 15213.778, 0.0, 5.0162067, 4.9655414 
4.1369447e+2, 1.9607025e+2, -1007329.4, -1085495.3, -11437.991, 0.011138998, 0.0015977003, -1005690.06, 12821.79, 0.0, 5.0154943, 4.964894 
4.1368112e+2, 2.0103303e+2, -967075.94, -1052267.1, -11756.155, 0.0117093, 0.009131326, -965483.44, 4394.0522, 0.0, 5.014816, 4.9597597 
4.1366735e+2, 2.0599304e+2, -918496.2, -1001540.56, -11607.074, 0.010075791, 0.002034968, -916904.4, 4364.302, 0.0, 5.0142164, 4.9605365 
4.1365355e+2, 2.109531e+2, -870952.5, -953095.7, -11432.084, 0.008319391, -0.0059914365, -869391.1, 3268.365, 0.0, 5.013621, 4.960536 
4.136398e+2, 2.1591315e+2, -824062.5, -906096.4, -11259.673, 0.0065857414, -0.013874734, -822545.06, 1505.229, 0.0, 5.013025, 4.960036 
4.1362634e+2, 2.2087057e+2, -783871.25, -873439.9, -11043.882, 0.0073275366, -0.010038435, -782529.6, -7063.3105, 0.0, 5.012345, 4.9546294 
4.1361368e+2, 2.2582665e+2, -736123.75, -822591.8, -11182.452, 0.014225578, -0.007931025, -734701.0, -7807.3057, 0.0, 5.0113397, 4.9555917 
4.1360107e+2, 2.3078284e+2, -689675.4, -774470.6, -11372.763, 0.021410383, -0.006625552, -688176.5, -9856.734, 0.0, 5.0103054, 4.9556327 
4.1358852e+2, 2.3573901e+2, -643856.06, -727782.9, -11572.998, 0.028687807, -0.0059474194, -642289.5, -12543.497, 0.0, 5.0092697, 4.9551716 
4.1357645e+2, 2.4069184e+2, -607378.2, -701382.7, -10499.235, 0.034329433, 0.009136401, -606219.8, -25012.854, 0.0, 5.0081825, 4.94763 
4.1356477e+2, 2.4564064e+2, -559534.6, -650420.3, -9956.864, 0.034083888, 0.008418401, -558456.6, -25742.572, 0.0, 5.0071588, 4.9485927 
4.1355303e+2, 2.505894e+2, -512916.34, -602618.9, -9583.961, 0.033362325, 0.005255997, -511903.8, -27681.51, 0.0, 5.006164, 4.9484935 
4.135414e+2, 2.5553837e+2, -466518.72, -555374.75, -9193.028, 0.032747604, 0.0051676007, -465577.6, -29849.08, 0.0, 5.005166, 4.9481955 
4.1353133e+2, 2.6048443e+2, -424215.47, -517325.34, -6611.42, 0.038342834, 0.014650664, -423748.38, -36491.875, 0.0, 5.0041556, 4.944483 
4.1352823e+2, 2.6543137e+2, -371234.6, -451839.0, -4721.9697, 0.07244382, -0.035885792, -370958.9, -32211.03, 0.0, 5.0024157, 4.9503727 
4.1352627e+2, 2.7037835e+2, -325229.9, -402420.7, -4384.657, 0.11151869, -0.1125866, -324981.63, -34746.457, 0.0, 5.0005193, 4.951038 
4.1352487e+2, 2.7532488e+2, -279041.78, -353334.03, -4231.857, 0.15341179, -0.20792404, -278801.5, -37074.2, 0.0, 4.998604, 4.9516563 
4.1351658e+2, 2.8027046e+2, -273103.84, -398091.25, -14794.726, 0.18895099, -0.15023641, -271376.47, -78136.234, 0.0, 4.9985876, 4.9193025 
4.135049e+2, 2.852089e+2, -210878.17, -320550.1, -3032.292, 0.15547185, 0.0049744546, -210794.39, -65916.984, 0.0, 5.001148, 4.9272223 
4.1349843e+2, 2.901414e+2, -155445.67, -267119.9, -1353.1863, 0.10862649, 0.04790497, -155429.28, -58848.84, 0.0, 5.003114, 4.9273205 
4.134926e+2, 2.9507208e+2, -99864.71, -213933.94, 39.568733, 0.06339337, 0.065108575, -99864.695, -51563.508, 0.0, 5.0050154, 4.9274197 
4.1348708e+2, 3.0001658e+2, -27571.201, -88237.734, 3135.532, 0.0045893956, 0.060404222, -27409.572, -27409.572, 0.0, 5.0068893, 4.962733 
4.1348463e+2, 3.0497754e+2, -12075.636, -59484.73, 7289.168, -0.09811072, -0.07120867, -10980.233, -10980.233, 0.0, 5.008952, 4.9710717 
4.1348526e+2, 3.0994397e+2, -3377.8486, -47624.176, 10176.237, -0.19191626, -0.20499264, -1149.6226, -1149.6226, 0.0, 5.011014, 4.974 
4.1348836e+2, 3.1491727e+2, 5631.934, -36089.574, 12654.355, -0.2721767, -0.3040838, 9170.027, 9170.027, 0.0, 5.0129943, 4.9769363 
4.1886017e+2, 1.2147068e+2, -1687104.9, -1747553.9, -750.48004, 0.009288564, -0.0033069928, -1687095.5, 62511.992, 0.0, 5.024637, 4.9852047 
4.1885382e+2, 1.2645736e+2, -1646205.5, -1713199.3, -3069.2703, -0.0071963826, 0.053903546, -1646065.1, 54668.305, 0.0, 5.024243, 4.980616 
4.18849e+2, 1.3143577e+2, -1598467.6, -1664846.1, -3244.3684, -0.0049010585, 0.030867672, -1598309.5, 53635.508, 0.0, 5.0238376, 4.980616 
4.1884416e+2, 1.3641414e+2, -1552884.3, -1620927.9, -3400.8328, -0.0025869631, 0.009087827, -1552714.8, 50441.984, 0.0, 5.02343, 4.9791455 
4.1883793e+2, 1.4139095e+2, -1510331.5, -1583085.8, -6204.8936, -0.00026576797, 0.009175061, -1509806.0, 44576.902, 0.0, 5.0229764, 4.9756055 
4.1882882e+2, 1.4636706e+2, -1462232.0, -1533360.5, -6798.167, -0.00047617214, 0.007234369, -1461588.0, 44025.93, 0.0, 5.0224223, 4.976108 
4.1881967e+2, 1.5134318e+2, -1414875.8, -1485155.9, -6915.7354, -0.0009100953, 0.0046074702, -1414201.8, 42643.31, 0.0, 5.0218625, 4.9761076 
4.1881052e+2, 1.5631929e+2, -1368914.1, -1439869.6, -7024.81, -0.0013411752, 0.0024423834, -1368225.4, 39850.76, 0.0, 5.0213017, 4.975129 
4.1880032e+2, 1.6129203e+2, -1328353.5, -1405722.5, -9161.896, -0.00091562845, 0.005259326, -1327283.4, 32057.3, 0.0, 5.020696, 4.9704423 
4.187884e+2, 1.6626269e+2, -1280899.1, -1356658.1, -9700.387, 0.0019968022, 0.0017514525, -1279676.8, 30950.15, 0.0, 5.01998, 4.9707756 
4.187764e+2, 1.7123337e+2, -1233937.1, -1308591.8, -9828.924, 0.0050296695, -0.0016262997, -1232664.8, 29247.852, 0.0, 5.0192533, 4.970776 
4.1876444e+2, 1.7620407e+2, -1188110.5, -1262919.4, -9956.03, 0.008048101, -0.0046446165, -1186808.1, 26390.152, 0.0, 5.018521, 4.9699707 
4.1875178e+2, 1.8117179e+2, -1148219.6, -1229907.5, -11153.234, 0.0101122, 0.0014416511, -1146724.3, 17789.932, 0.0, 5.017791, 4.9648805 
4.1873777e+2, 1.8613744e+2, -1100492.9, -1180338.0, -11509.4, 0.009473704, 0.002174381, -1098866.9, 16985.74, 0.0, 5.0170684, 4.965354 
4.187237e+2, 1.9110312e+2, -1053435.5, -1132165.6, -11640.427, 0.008705643, 0.0027533495, -1051750.5, 15440.331, 0.0, 5.0163383, 4.9653554 
4.1870967e+2, 1.9606882e+2, -1007281.56, -1085907.3, -11776.519, 0.0079763075, 0.0036391094, -1005555.56, 12973.404, 0.0, 5.0155993, 4.964707 
4.186955e+2, 2.010314e+2, -966781.06, -1051960.6, -12051.204, 0.0071984013, 0.01035549, -965108.9, 4787.548, 0.0, 5.014884, 4.9598327 
4.186812e+2, 2.0599146e+2, -918134.7, -1000866.56, -11904.991, 0.006555423, 0.0015460863, -916455.6, 4830.0063, 0.0, 5.01424, 4.960754 
4.1866696e+2, 2.1095155e+2, -870742.06, -952490.6, -11771.452, 0.005935598, -0.008414373, -869080.75, 3593.56, 0.0, 5.013592, 4.9607544 
4.186527e+2, 2.1591166e+2, -824025.8, -905568.9, -11642.886, 0.0053222408, -0.018287258, -822396.0, 1667.004, 0.0, 5.0129356, 4.960255 
4.1863868e+2, 2.2086921e+2, -784384.3, -873921.9, -11669.068, 0.007291889, -0.014056202, -782888.5, -7411.712, 0.0, 5.012221, 4.9545174 
4.1862512e+2, 2.2582562e+2, -736675.6, -823439.3, -11867.48, 0.014881356, -0.0067112707, -735081.7, -8178.0176, 0.0, 5.0112696, 4.955328 
4.186116e+2, 2.307821e+2, -690185.06, -775326.5, -12051.572, 0.022625176, -0.00014475526, -688512.06, -10182.275, 0.0, 5.0102525, 4.95536 
4.185981e+2, 2.3573858e+2, -644458.06, -728704.75, -12281.216, 0.030506164, 0.005829677, -642704.25, -12948.201, 0.0, 5.009188, 4.95489 
4.1858515e+2, 2.4069165e+2, -608046.75, -702276.0, -11304.002, 0.0374721, 0.02728665, -606709.7, -25493.404, 0.0, 5.0080585, 4.9473886 
4.185726e+2, 2.4563995e+2, -559418.8, -649477.06, -10686.2, 0.04000107, 0.018229147, -558168.2, -25442.027, 0.0, 5.007017, 4.9489865 
4.1856006e+2, 2.5058797e+2, -512824.84, -601627.75, -10202.791, 0.041922994, 0.0024515013, -511667.7, -27428.697, 0.0, 5.006011, 4.948904 
4.1854754e+2, 2.5553614e+2, -466422.66, -554318.06, -9688.09, 0.043849606, -0.010801885, -465367.47, -29617.32, 0.0, 5.0050125, 4.9486227 
4.1853654e+2, 2.6048183e+2, -425149.7, -517918.72, -7142.5264, 0.05183127, -0.006456941, -424602.97, -37321.69, 0.0, 5.0038905, 4.944325 
4.185322e+2, 2.6543126e+2, -374305.56, -452407.6, -4722.662, 0.0841232, -0.04361258, -374021.03, -35263.61, 0.0, 5.0012174, 4.950518 
4.1852906e+2, 2.7038097e+2, -333011.63, -405373.72, -4111.5034, 0.12078341, -0.10536829, -332778.78, -42550.746, 0.0, 4.99774, 4.951047 
4.1852644e+2, 2.7533025e+2, -293213.88, -359309.06, -4068.6484, 0.16076164, -0.18345661, -292964.38, -51260.785, 0.0, 4.9936543, 4.95153 
4.1851667e+2, 2.802801e+2, -300948.9, -427150.9, -17561.152, 0.21034962, -0.04619469, -298550.8, -105368.86, 0.0, 4.9919715, 4.9119425 
4.185065e+2, 2.8521842e+2, -222413.22, -323995.38, -1627.6584, 0.18375607, 0.1225106, -222387.16, -77567.04, 0.0, 4.9965415, 4.927663 
4.1850254e+2, 2.9014826e+2, -162281.28, -268998.7, 499.78107, 0.1299844, 0.11795045, -162278.94, -65732.12, 0.0, 5.0002155, 4.927667 
4.1849923e+2, 2.9507652e+2, -104061.56, -215098.9, 2502.7239, 0.07786287, 0.09200463, -104005.19, -55716.22, 0.0, 5.0031123, 4.927672 
4.1849604e+2, 3.0001873e+2, -30086.506, -86767.09, 5902.343, 0.011614351, 0.04843296, -29478.398, -29478.398, 0.0, 5.0051904, 4.964039 
4.1849548e+2, 3.0498353e+2, -17480.906, -55888.79, 8652.853, -0.09692805, -0.0863418, -15621.533, -15621.533, 0.0, 5.0054474, 4.9737864 
4.184981e+2, 3.0995432e+2, -19425.557, -49416.81, 8415.61, -0.19517995, -0.22447683, -17225.506, -17225.506, 0.0, 5.003671, 4.976388 
4.185033e+2, 3.149309e+2, -26190.627, -45367.277, 5968.6753, -0.279176, -0.33579844, -24484.658, -24484.658, 0.0, 4.999936, 4.9789968 
4.2388603e+2, 1.2147274e+2, -1680872.3, -1745109.0, 69.58784, 0.008859662, -0.0026733058, -1680872.1, 68714.914, 0.0, 5.026848, 4.984925 
4.238793e+2, 1.2645893e+2, -1640369.3, -1710843.4, -2429.453, -0.006226269, 0.05206539, -1640285.5, 60432.29, 0.0, 5.0263014, 4.980385 
4.238739e+2, 1.3143714e+2, -1593197.6, -1662779.6, -2622.4888, -0.0046326835, 0.029539507, -1593098.9, 58832.215, 0.0, 5.0257125, 4.9803843 
4.238685e+2, 1.3641533e+2, -1548165.5, -1619135.4, -2795.0315, -0.0030054715, 0.008240178, -1548055.6, 55089.074, 0.0, 5.025123, 4.978916 
4.2386162e+2, 1.4139193e+2, -1506027.1, -1581382.1, -5684.3467, -0.0010653812, 0.008596236, -1505600.8, 48771.926, 0.0, 5.0245075, 4.9754276 
4.2385197e+2, 1.4636791e+2, -1458283.8, -1531832.9, -6325.9766, -0.001014944, 0.006742002, -1457743.6, 47861.824, 0.0, 5.0238366, 4.9759326 
4.238422e+2, 1.5134385e+2, -1411276.4, -1483804.6, -6480.7256, -0.0011634063, 0.004200946, -1410701.9, 46136.313, 0.0, 5.0231624, 4.975932 
4.2383242e+2, 1.563198e+2, -1365655.9, -1438686.1, -6625.652, -0.0013088478, 0.002110642, -1365059.6, 43011.324, 0.0, 5.022488, 4.974955 
4.238216e+2, 1.6129239e+2, -1325363.1, -1404715.4, -8852.925, -0.0008762782, 0.0051910137, -1324387.4, 34949.707, 0.0, 5.0218024, 4.97025 
4.238089e+2, 1.662629e+2, -1277940.6, -1355694.8, -9460.249, 0.0014639131, 0.0024612602, -1276806.3, 33818.813, 0.0, 5.021083, 4.970573 
4.2379615e+2, 1.7123348e+2, -1230970.1, -1307626.1, -9646.827, 0.003963857, -0.00008494669, -1229774.8, 32137.576, 0.0, 5.0203614, 4.9705744 
4.237834e+2, 1.7620406e+2, -1185118.6, -1261943.0, -9831.92, 0.0065111537, -0.0022416317, -1183880.3, 29319.348, 0.0, 5.01964, 4.96977 
4.2376995e+2, 1.8117163e+2, -1145137.3, -1228704.6, -11069.661, 0.008201511, 0.004046606, -1143695.8, 20821.383, 0.0, 5.0189033, 4.9647603 
4.237552e+2, 1.8613702e+2, -1097570.1, -1179183.5, -11367.846, 0.0073013897, 0.003476217, -1096016.3, 19841.525, 0.0, 5.0181217, 4.965249 
4.2374036e+2, 1.9110247e+2, -1050681.5, -1131106.3, -11424.857, 0.0063044745, 0.0027643414, -1049090.0, 18108.111, 0.0, 5.0173373, 4.9652476 
4.2372552e+2, 1.9606793e+2, -1004669.56, -1084930.1, -11480.114, 0.005374919, 0.0024282902, -1003059.75, 15478.482, 0.0, 5.0165524, 4.9645953 
4.2371058e+2, 2.0103039e+2, -964323.0, -1050828.8, -11756.462, 0.0045748493, 0.008532378, -962753.75, 7153.064, 0.0, 5.0157347, 4.9598236 
4.2369553e+2, 2.059906e+2, -916628.44, -1000116.44, -11836.893, 0.0046395957, 0.0009984445, -914982.7, 6311.673, 0.0, 5.01475, 4.9607754 
4.2368048e+2, 2.1095085e+2, -870257.94, -952212.25, -11920.716, 0.0048647276, -0.0074751554, -868559.25, 4121.9087, 0.0, 5.0137486, 4.960778 
4.2366546e+2, 2.1591112e+2, -824535.06, -905745.0, -12007.673, 0.0051563205, -0.015798725, -822796.8, 1271.0862, 0.0, 5.012747, 4.9602814 
4.2365062e+2, 2.2086877e+2, -785816.6, -874852.2, -12216.489, 0.0074041453, -0.01070497, -784170.8, -8689.538, 0.0, 5.011783, 4.954389 
4.236361e+2, 2.2582497e+2, -738110.44, -824683.06, -12543.247, 0.014125871, -0.0029301802, -736329.7, -9417.74, 0.0, 5.010894, 4.9550633 
4.2362162e+2, 2.3078132e+2, -691269.44, -776460.5, -12793.265, 0.021463115, 0.00505765, -689389.75, -11048.208, 0.0, 5.0100074, 4.9550757 
4.236072e+2, 2.3573768e+2, -645064.56, -729669.75, -13044.856, 0.029405454, 0.013339295, -643098.94, -13328.136, 0.0, 5.0091176, 4.954586 
4.2359325e+2, 2.4069078e+2, -607547.7, -701821.0, -12018.528, 0.036640562, 0.0369891, -606039.6, -24807.545, 0.0, 5.008178, 4.9475055 
4.2357975e+2, 2.4563898e+2, -558785.6, -648238.5, -11581.36, 0.040379286, 0.023366954, -557310.56, -24570.098, 0.0, 5.0070305, 4.949414 
4.2356616e+2, 2.505867e+2, -512612.63, -600477.3, -11355.517, 0.04359158, 0.0001523581, -511168.78, -26915.371, 0.0, 5.0058513, 4.949356 
4.2355263e+2, 2.555344e+2, -466662.78, -553265.9, -11127.735, 0.046568103, -0.022584436, -465255.8, -29489.332, 0.0, 5.0046663, 4.9491 
4.2354056e+2, 2.604798e+2, -426028.7, -517828.06, -9407.421, 0.055779465, -0.024922974, -425074.56, -37774.258, 0.0, 5.0034723, 4.9444427 
4.235351e+2, 2.6543146e+2, -374248.3, -452442.2, -9782.423, 0.09673374, -0.040122118, -373043.06, -34277.746, 0.0, 5.001356, 4.9503117 
4.2353103e+2, 2.7038464e+2, -330104.94, -404085.38, -11502.677, 0.14860773, -0.06351281, -328357.75, -38143.37, 0.0, 4.9990416, 4.950761 
4.2352778e+2, 2.7533823e+2, -285925.6, -355896.44, -13376.45, 0.20936811, -0.08962716, -283455.6, -41796.03, 0.0, 4.99668, 4.951163 
4.2351818e+2, 2.802926e+2, -282758.8, -424091.38, -21433.97, 0.2735372, 0.11321742, -279579.72, -86476.914, 0.0, 4.998729, 4.909957 
4.2350864e+2, 2.8522754e+2, -205356.47, -316400.53, -2090.5264, 0.22947, 0.23961161, -205317.13, -60553.277, 0.0, 5.0008826, 4.928742 
4.2350507e+2, 2.9015326e+2, -159105.72, -266831.75, 357.72067, 0.1619949, 0.16982585, -159104.53, -62585.203, 0.0, 4.999737, 4.9290524 
4.235023e+2, 2.9507837e+2, -112770.05, -217322.66, 2542.462, 0.101321824, 0.088850364, -112708.26, -64427.934, 0.0, 4.99846, 4.9293647 
4.2350006e+2, 3.0001912e+2, -48076.72, -92367.88, 5099.5117, 0.03574583, 0.009224153, -47497.164, -47497.164, 0.0, 4.997249, 4.966008 
4.235024e+2, 3.0499056e+2, -39553.69, -65452.09, 5825.3936, -0.03827028, -0.07124561, -38303.7, -38303.7, 0.0, 4.9963055, 4.9749293 
4.23509e+2, 3.0996838e+2, -40493.742, -61671.96, 5904.1914, -0.080417335, -0.13574083, -38958.96, -38958.96, 0.0, 4.995229, 4.976378 
4.2351905e+2, 3.1495047e+2, -41283.91, -58040.074, 5544.706, -0.09029815, -0.17158501, -39615.3, -39615.3, 0.0, 4.9939766, 4.977829 
4.2891267e+2, 1.2147534e+2, -1681180.1, -1745741.1, -101.49407, 0.0067565925, -0.0020627643, -1681180.0, 68380.89, 0.0, 5.0268483, 4.984718 
4.289057e+2, 1.2646084e+2, -1640727.8, -1711584.9, -2877.8145, -0.005124664, 0.048325233, -1640611.1, 60087.227, 0.0, 5.0263023, 4.980141 
4.2889965e+2, 1.3143893e+2, -1593553.5, -1663519.6, -3069.8462, -0.0041545494, 0.026973793, -1593419.0, 58493.793, 0.0, 5.0257134, 4.9801407 
4.288936e+2, 1.3641697e+2, -1548515.3, -1619866.5, -3240.1775, -0.0031655838, 0.006849788, -1548368.4, 54759.21, 0.0, 5.0251245, 4.978675 
4.288861e+2, 1.4139347e+2, -1506305.9, -1581970.4, -6187.9883, -0.001586618, 0.008012842, -1505803.3, 48553.813, 0.0, 5.0245094, 4.9752336 
4.2887577e+2, 1.4636925e+2, -1458561.6, -1532421.9, -6838.322, -0.0011974819, 0.0064252345, -1457933.9, 47657.715, 0.0, 5.023838, 4.9757376 
4.2886534e+2, 1.5134503e+2, -1411552.3, -1484391.8, -6992.859, -0.0009806487, 0.0041493815, -1410887.0, 45939.17, 0.0, 5.0231643, 4.975737 
4.2885497e+2, 1.563208e+2, -1365927.4, -1439266.8, -7136.654, -0.000765321, 0.0023230705, -1365239.4, 42821.4, 0.0, 5.02249, 4.9747615 
4.2884344e+2, 1.6129322e+2, -1325665.6, -1405369.1, -9396.661, -0.00044268247, 0.005725881, -1324572.9, 34756.02, 0.0, 5.021805, 4.9700327 
4.288299e+2, 1.6626357e+2, -1278259.6, -1356390.3, -10008.956, 0.00069031934, 0.0034821448, -1276997.9, 33621.125, 0.0, 5.021086, 4.9703407 
4.288163e+2, 1.7123395e+2, -1231286.1, -1308320.4, -10194.555, 0.0019193366, 0.0014237246, -1229959.8, 31948.799, 0.0, 5.020365, 4.9703417 
4.288027e+2, 1.7620434e+2, -1185431.3, -1262635.4, -10378.454, 0.0031758528, -0.00025233894, -1184060.4, 29137.758, 0.0, 5.0196443, 4.9695373 
4.2878845e+2, 1.8117172e+2, -1145276.8, -1229020.6, -11656.313, 0.0040032505, 0.005840267, -1143684.6, 20833.203, 0.0, 5.0189056, 4.964655 
4.2877293e+2, 1.8613687e+2, -1097657.3, -1179384.4, -11965.428, 0.0033654685, 0.0035874543, -1095941.5, 19918.83, 0.0, 5.0181236, 4.9651823 
4.287573e+2, 1.9110209e+2, -1050766.9, -1131303.8, -12021.035, 0.0026659607, 0.001127116, -1049010.9, 18191.477, 0.0, 5.017339, 4.9651814 
4.2874172e+2, 1.9606729e+2, -1004753.25, -1085124.5, -12074.808, 0.0020062735, -0.00097478466, -1002978.4, 15565.957, 0.0, 5.016555, 4.96453 
4.2872602e+2, 2.0102963e+2, -964385.8, -1050984.5, -12451.079, 0.0016293861, 0.004466598, -962631.1, 7282.504, 0.0, 5.015737, 4.9597716 
4.2871007e+2, 2.0599008e+2, -916727.5, -1000375.75, -12594.559, 0.0028689655, 0.00030804606, -914872.4, 6426.6978, 0.0, 5.0147557, 4.9606886 
4.286942e+2, 2.1095063e+2, -870346.7, -952470.44, -12673.526, 0.004293646, -0.0044935704, -868435.4, 4248.1655, 0.0, 5.013757, 4.9606905 
4.2867827e+2, 2.1591115e+2, -824613.5, -906002.1, -12755.548, 0.0057190573, -0.009198677, -822661.25, 1406.7656, 0.0, 5.0127583, 4.9601927 
4.286625e+2, 2.2086884e+2, -786029.4, -875403.0, -12883.248, 0.008168211, -0.0026117726, -784209.3, -8727.632, 0.0, 5.0117927, 4.9542046 
4.2864692e+2, 2.2582449e+2, -738446.56, -825534.3, -13171.905, 0.012840419, 0.0027598797, -736497.94, -9578.631, 0.0, 5.010906, 4.954778 
4.286313e+2, 2.3078027e+2, -691584.9, -777297.94, -13409.812, 0.017850336, 0.008237374, -689535.9, -11179.636, 0.0, 5.010025, 4.9547915 
4.286158e+2, 2.3573606e+2, -645359.44, -730493.56, -13649.219, 0.023244092, 0.013826142, -643224.6, -13431.637, 0.0, 5.00914, 4.954303 
4.2860067e+2, 2.4068873e+2, -607146.25, -701174.9, -12832.684, 0.027406707, 0.034214165, -605426.4, -24167.162, 0.0, 5.00821, 4.947726 
4.2858598e+2, 2.456373e+2, -558305.06, -647416.4, -12528.808, 0.030972566, 0.021848133, -556577.06, -23815.836, 0.0, 5.0070596, 4.9497056 
4.2857128e+2, 2.5058553e+2, -512154.63, -599663.9, -12290.765, 0.034867488, 0.0011792717, -510461.13, -26194.71, 0.0, 5.0058727, 4.949652 
4.2855665e+2, 2.5553375e+2, -466227.22, -552461.0, -12050.753, 0.038591478, -0.018938702, -464574.84, -28803.283, 0.0, 5.004681, 4.9494 
4.2854336e+2, 2.6047954e+2, -426403.53, -519158.66, -10121.55, 0.047398612, -0.019189516, -425311.88, -38010.016, 0.0, 5.003504, 4.944029 
4.285363e+2, 2.654308e+2, -375550.0, -456855.56, -10298.16, 0.08547173, -0.023946261, -374265.94, -35483.348, 0.0, 5.0014954, 4.948837 
4.2853042e+2, 2.7038336e+2, -331109.44, -408654.3, -11779.289, 0.13185668, -0.035808265, -329359.63, -39108.4, 0.0, 4.999292, 4.9491987 
4.2852527e+2, 2.7533606e+2, -286632.56, -360621.88, -13413.882, 0.18402824, -0.051996347, -284275.78, -42557.47, 0.0, 4.9970407, 4.949514 
4.2851484e+2, 2.8028953e+2, -281112.63, -420063.1, -18881.025, 0.22569811, 0.15049459, -278592.72, -85413.836, 0.0, 4.998683, 4.9113054 
4.2850628e+2, 2.8522483e+2, -202929.11, -309111.84, -3035.8438, 0.18925169, 0.25431547, -202842.38, -58019.55, 0.0, 5.0005217, 4.931388 
4.2850333e+2, 2.90151e+2, -156543.97, -260092.06, -235.34306, 0.14321439, 0.16291392, -156543.42, -59986.316, 0.0, 4.9994617, 4.931534 
4.285011e+2, 2.9507655e+2, -110073.29, -211129.5, 2302.1208, 0.10007341, 0.061534036, -110020.875, -61723.535, 0.0, 4.99827, 4.931682 
4.2849967e+2, 3.0001804e+2, -45771.656, -88742.61, 5458.123, 0.050720423, -0.031298183, -45089.207, -45089.207, 0.0, 4.9972396, 4.9674387 
4.285048e+2, 3.049951e+2, -36108.566, -62524.215, 7140.6875, 0.0044781975, -0.07213625, -34301.863, -34301.863, 0.0, 4.996743, 4.9759197 
4.285142e+2, 3.0997893e+2, -35617.914, -58362.38, 7947.009, -0.017592788, -0.09391253, -33116.336, -33116.336, 0.0, 4.9960985, 4.977312 
4.2852667e+2, 3.1496623e+2, -34977.277, -54349.5, 8316.019, -0.018781392, -0.09722511, -31897.146, -31897.146, 0.0, 4.995278, 4.9787064 
4.339393e+2, 1.2147787e+2, -1681418.8, -1746231.0, -276.9379, 0.0048335814, -0.0020072442, -1681417.6, 68117.68, 0.0, 5.026849, 4.984557 
4.3393213e+2, 1.2646276e+2, -1641086.6, -1712326.4, -3325.8384, -0.0040237242, 0.044622764, -1640931.8, 59747.043, 0.0, 5.0263033, 4.979898 
4.3392542e+2, 1.3144071e+2, -1593909.6, -1664259.4, -3516.866, -0.0036762292, 0.024431186, -1593734.3, 58160.246, 0.0, 5.0257144, 4.979897 
4.339187e+2, 1.3641864e+2, -1548865.3, -1620597.6, -3684.9968, -0.0033246614, 0.0054679294, -1548676.4, 54434.05, 0.0, 5.025126, 4.978433 
4.3391052e+2, 1.4139497e+2, -1506587.8, -1582565.1, -6691.7427, -0.0021091625, 0.0074370503, -1506002.9, 48338.42, 0.0, 5.024511, 4.975037 
4.3389958e+2, 1.463706e+2, -1458839.5, -1533011.1, -7350.591, -0.0013817649, 0.0061139297, -1458118.0, 47459.613, 0.0, 5.02384, 4.975542 
4.3388855e+2, 1.513462e+2, -1411828.1, -1484979.1, -7504.9165, -0.00079933053, 0.004098247, -1411066.0, 45748.07, 0.0, 5.023166, 4.975542 
4.338775e+2, 1.5632181e+2, -1366199.0, -1439847.4, -7647.5786, -0.00022292756, 0.002530898, -1365413.3, 42637.438, 0.0, 5.0224924, 4.974568 
4.338653e+2, 1.6129407e+2, -1325969.8, -1406025.8, -9939.886, -0.000009321773, 0.006264596, -1324754.1, 34566.543, 0.0, 5.0218077, 4.969814 
4.3385088e+2, 1.6626422e+2, -1278579.0, -1357085.5, -10557.08, -0.00007549832, 0.0045015565, -1277184.1, 33428.81, 0.0, 5.0210896, 4.9701085 
4.3383646e+2, 1.7123443e+2, -1231602.4, -1309014.4, -10741.699, -0.00010974191, 0.0029204793, -1230139.5, 31765.373, 0.0, 5.020369, 4.970109 
4.3382198e+2, 1.7620464e+2, -1185744.1, -1263327.5, -10924.404, -0.00013634241, 0.0017146012, -1184235.3, 28961.443, 0.0, 5.0196486, 4.969304 
4.3380696e+2, 1.811718e+2, -1145423.0, -1229350.4, -12246.064, -0.00015437834, 0.0076676444, -1143672.6, 20845.852, 0.0, 5.0189085, 4.964545 
4.3379062e+2, 1.8613672e+2, -1097744.6, -1179585.0, -12563.648, -0.0005302282, 0.0037388743, -1095859.4, 20003.361, 0.0, 5.018126, 4.9651155 
4.337743e+2, 1.9110169e+2, -1050852.5, -1131501.3, -12617.852, -0.00093937776, -0.0004889467, -1048924.5, 18282.117, 0.0, 5.0173416, 4.965115 
4.3375796e+2, 1.9606665e+2, -1004837.25, -1085318.8, -12670.14, -0.0013362393, -0.0043757027, -1002889.7, 15660.684, 0.0, 5.016557, 4.9644647 
4.3374145e+2, 2.0102887e+2, -964457.7, -1051159.4, -13145.612, -0.0013310352, 0.00044202452, -962508.44, 7412.0845, 0.0, 5.0157404, 4.959713 
4.3372467e+2, 2.0598958e+2, -916827.6, -1000634.3, -13348.91, 0.0010626802, -0.0003787402, -914752.75, 6551.0063, 0.0, 5.0147614, 4.9606004 
4.337079e+2, 2.1095037e+2, -870436.44, -952727.9, -13423.021, 0.00367131, -0.0015809707, -868302.3, 4383.6396, 0.0, 5.013766, 4.960602 
4.336911e+2, 2.1591118e+2, -824693.0, -906258.56, -13500.105, 0.006214953, -0.0027401638, -822516.6, 1551.5239, 0.0, 5.0127697, 4.9601035 
4.336744e+2, 2.2086893e+2, -786266.0, -875999.75, -13564.718, 0.009154107, 0.0056257294, -784260.25, -8778.356, 0.0, 5.0118027, 4.9540033 
4.3365774e+2, 2.2582406e+2, -738787.5, -826381.3, -13801.425, 0.011924852, 0.008648629, -736664.4, -9737.952, 0.0, 5.010919, 4.9544916 
4.3364108e+2, 2.3077923e+2, -691905.06, -778131.06, -14027.216, 0.014593689, 0.011477887, -689680.5, -11309.726, 0.0, 5.0100427, 4.9545064 
4.3362448e+2, 2.3573443e+2, -645659.0, -731313.1, -14254.434, 0.017425146, 0.014235982, -643349.06, -13534.056, 0.0, 5.009163, 4.9540186 
4.336081e+2, 2.4068667e+2, -606866.9, -700779.06, -13632.6, 0.018210799, 0.031943157, -604927.94, -23641.805, 0.0, 5.0082426, 4.947857 
4.3359223e+2, 2.4563564e+2, -557833.56, -646586.4, -13467.371, 0.02148513, 0.020954689, -555835.0, -23053.201, 0.0, 5.0070887, 4.949993 
4.335764e+2, 2.505844e+2, -511705.56, -598842.5, -13217.137, 0.026083993, 0.0024956474, -509744.88, -25465.594, 0.0, 5.005895, 4.949944 
4.335606e+2, 2.5553313e+2, -465800.6, -551648.1, -12964.902, 0.03057675, -0.015339169, -463885.34, -28108.758, 0.0, 5.004696, 4.949696 
4.3354625e+2, 2.6047927e+2, -426888.7, -520608.03, -10797.827, 0.03955725, -0.013471235, -425660.72, -38357.145, 0.0, 5.0035357, 4.943546 
4.3353772e+2, 2.654301e+2, -376930.47, -461200.8, -10680.69, 0.076044254, -0.010205946, -375597.8, -36797.26, 0.0, 5.001635, 4.9473195 
4.3353027e+2, 2.7038187e+2, -332192.4, -413154.7, -11922.31, 0.11783778, -0.013897407, -330473.25, -40183.4, 0.0, 4.999542, 4.947594 
4.3352345e+2, 2.7533358e+2, -287417.75, -365278.3, -13317.322, 0.16231906, -0.02351608, -285202.94, -43423.043, 0.0, 4.997402, 4.947822 
4.335114e+2, 2.8028658e+2, -281607.72, -420893.8, -16808.045, 0.17638509, 0.19074036, -279608.16, -86354.516, 0.0, 4.998641, 4.9109535 
4.3350324e+2, 2.8522253e+2, -200709.3, -301630.16, -3675.8406, 0.14418066, 0.28056172, -200575.6, -55698.16, 0.0, 5.0001607, 4.933988 
4.3350103e+2, 2.90149e+2, -154189.4, -253158.08, -523.9018, 0.12106375, 0.16340186, -154186.63, -57594.617, 0.0, 4.999186, 4.9339695 
4.3349946e+2, 2.9507485e+2, -107583.34, -204740.8, 2365.5388, 0.09693498, 0.037477884, -107525.78, -59212.84, 0.0, 4.99808, 4.9339533 
4.3349883e+2, 3.0001676e+2, -44088.02, -85799.984, 6069.7217, 0.06257546, -0.07281949, -43222.734, -43222.734, 0.0, 4.99723, 4.968511 
4.3350703e+2, 3.0499887e+2, -32937.355, -59327.777, 8605.959, 0.039508376, -0.08173361, -30378.96, -30378.96, 0.0, 4.9971814, 4.9768143 
4.335196e+2, 3.0998838e+2, -31017.807, -54784.02, 10138.953, 0.033807058, -0.070808515, -27280.203, -27280.203, 0.0, 4.9969683, 4.97815 
4.3353486e+2, 3.1498045e+2, -28948.86, -50389.926, 11235.253, 0.03759568, -0.05162114, -24140.041, -24140.041, 0.0, 4.99658, 4.9794874 
4.3896604e+2, 1.2148039e+2, -1680991.5, -1746336.8, -181.46094, 0.003270133, -0.002459901, -1680991.0, 68518.97, 0.0, 5.02706, 4.984419 
4.3895856e+2, 1.2646472e+2, -1640845.1, -1712766.4, -3484.7754, -0.0029032251, 0.041086737, -1640676.6, 59982.063, 0.0, 5.0265036, 4.9796557 
4.389512e+2, 1.3144255e+2, -1593651.9, -1664691.4, -3669.3838, -0.0031701853, 0.022013655, -1593462.8, 58412.906, 0.0, 5.0259204, 4.979655 
4.3894383e+2, 1.3642035e+2, -1548594.3, -1621017.6, -3828.3555, -0.0034366199, 0.004169087, -1548392.5, 54700.42, 0.0, 5.0253344, 4.9781938 
4.38935e+2, 1.4139655e+2, -1506256.1, -1582864.1, -6890.3745, -0.0025839559, 0.0069137057, -1505641.4, 48683.805, 0.0, 5.0247197, 4.974838 
4.389234e+2, 1.4637199e+2, -1458511.9, -1533307.0, -7567.515, -0.0015722519, 0.0058241836, -1457754.0, 47809.49, 0.0, 5.0240464, 4.975345 
4.3891174e+2, 1.5134743e+2, -1411510.6, -1485279.8, -7731.898, -0.00067353144, 0.0040367856, -1410708.9, 46092.848, 0.0, 5.023369, 4.975345 
4.3890005e+2, 1.5632287e+2, -1365891.9, -1440149.0, -7883.0654, 0.00022115304, 0.0026980347, -1365064.3, 42976.004, 0.0, 5.022691, 4.9743733 
4.3888715e+2, 1.6129495e+2, -1325705.5, -1406399.8, -10205.271, 0.00031655794, 0.0067422176, -1324434.9, 34877.188, 0.0, 5.022002, 4.9695973 
4.3887192e+2, 1.6626492e+2, -1278341.5, -1357499.0, -10804.267, -0.00088023604, 0.0054221596, -1276893.3, 33713.36, 0.0, 5.0212803, 4.9698806 
4.3885663e+2, 1.7123494e+2, -1231386.5, -1309439.1, -10963.888, -0.0020972001, 0.0042822184, -1229875.6, 32025.004, 0.0, 5.020552, 4.9698806 
4.3884134e+2, 1.7620496e+2, -1185561.1, -1263768.3, -11120.817, -0.0033171512, 0.0035166554, -1184010.5, 29184.285, 0.0, 5.01982, 4.9690757 
4.3882546e+2, 1.8117194e+2, -1145134.9, -1229490.5, -12479.696, -0.004105648, 0.009405193, -1143327.4, 21191.264, 0.0, 5.019064, 4.964426 
4.3880838e+2, 1.8613662e+2, -1097470.6, -1179630.3, -12843.392, -0.004238726, 0.0039250017, -1095509.6, 20355.027, 0.0, 5.0182557, 4.9650407 
4.387913e+2, 1.9110133e+2, -1050664.4, -1131586.0, -12939.382, -0.00437825, -0.0019693966, -1048645.8, 18564.596, 0.0, 5.0174417, 4.965041 
4.387742e+2, 1.9606607e+2, -1004744.8, -1085447.0, -13033.717, -0.0045242216, -0.0075450717, -1002692.0, 15863.942, 0.0, 5.016624, 4.964391 
4.3875688e+2, 2.0102817e+2, -964425.3, -1051306.0, -13640.865, -0.004206795, -0.0032901766, -962333.94, 7592.944, 0.0, 5.0157847, 4.9596434 
4.3873924e+2, 2.059891e+2, -916734.7, -1000797.5, -13930.068, -0.0007941318, -0.0010152205, -914486.44, 6821.8447, 0.0, 5.0148363, 4.9605107 
4.3872157e+2, 2.1095015e+2, -870283.7, -952859.7, -14026.323, 0.0029284793, 0.0011254612, -867966.25, 4722.1553, 0.0, 5.0138607, 4.960513 
4.3870392e+2, 2.159112e+2, -824527.44, -906380.8, -14119.425, 0.0065882374, 0.0032888886, -822160.3, 1908.1862, 0.0, 5.012869, 4.960016 
4.3868634e+2, 2.20869e+2, -786253.56, -876485.06, -14132.812, 0.010348015, 0.013634086, -784091.8, -8609.577, 0.0, 5.011907, 4.9537916 
4.3866864e+2, 2.2582364e+2, -738764.3, -827024.94, -14242.441, 0.011430781, 0.014554155, -736522.94, -9589.857, 0.0, 5.0110598, 4.9542103 
4.386509e+2, 2.3077829e+2, -691871.56, -778771.56, -14394.762, 0.011913364, 0.014932992, -689549.2, -11164.788, 0.0, 5.010187, 4.954224 
4.3863323e+2, 2.3573293e+2, -645719.06, -731997.7, -14554.844, 0.012429953, 0.015169831, -643329.9, -13494.171, 0.0, 5.009276, 4.9537363 
4.3861568e+2, 2.4068479e+2, -606587.3, -700540.4, -14037.695, 0.009850878, 0.03097066, -604534.75, -23223.457, 0.0, 5.0083194, 4.9479117 
4.3859857e+2, 2.4563411e+2, -557102.7, -645599.3, -14055.509, 0.012610238, 0.020886978, -554923.94, -22122.678, 0.0, 5.007222, 4.9502826 
4.3858162e+2, 2.5058326e+2, -510786.78, -597740.6, -13859.938, 0.01772004, 0.0035979832, -508631.03, -24339.082, 0.0, 5.0060973, 4.9502425 
4.3856463e+2, 2.5553244e+2, -464682.84, -550425.5, -13653.396, 0.0227534, -0.013097398, -462561.22, -26778.857, 0.0, 5.0049725, 4.950004 
4.3854913e+2, 2.6047888e+2, -426657.75, -521458.8, -11276.64, 0.032400206, -0.009876427, -425334.84, -38028.266, 0.0, 5.0038424, 4.9431043 
4.3853945e+2, 2.6542944e+2, -378671.5, -464919.6, -10320.014, 0.069737434, -0.00009999899, -377453.84, -38636.156, 0.0, 5.0016565, 4.945978 
4.3853074e+2, 2.7038085e+2, -335881.56, -417770.2, -10460.877, 0.110092625, 0.0035753378, -334566.38, -44242.66, 0.0, 4.9989066, 4.94623 
4.385225e+2, 2.7533212e+2, -294083.84, -371225.78, -10496.105, 0.15102504, 0.0011165878, -292681.22, -50850.258, 0.0, 4.9957495, 4.9464316 
4.3850827e+2, 2.8028563e+2, -292283.6, -429758.97, -10225.503, 0.13567339, 0.24074893, -291527.2, -98218.74, 0.0, 4.995804, 4.909106 
4.3849972e+2, 2.8522205e+2, -203523.19, -297349.44, 137.6486, 0.101122856, 0.3228735, -203522.98, -58608.95, 0.0, 4.998245, 4.9361997 
4.3849832e+2, 2.901482e+2, -154283.97, -247759.1, 1902.6133, 0.09920664, 0.17416249, -154245.27, -57629.64, 0.0, 4.9982147, 4.9361725 
4.3849742e+2, 2.9507363e+2, -106453.38, -198881.19, 4012.431, 0.0937129, 0.01673158, -106279.52, -57955.816, 0.0, 4.997547, 4.936143 
4.3849763e+2, 3.000152e+2, -44908.074, -83582.27, 7618.8057, 0.07307677, -0.11833525, -43461.293, -43461.293, 0.0, 4.9965377, 4.9695234 
4.385091e+2, 3.0500254e+2, -38383.34, -58266.266, 10771.256, 0.07318171, -0.09926526, -33666.95, -33666.95, 0.0, 4.994673, 4.978028 
4.3852538e+2, 3.0999845e+2, -46282.117, -57983.05, 12895.808, 0.089106925, -0.053714097, -37971.73, -37971.73, 0.0, 4.9909425, 4.9793286 
4.3854406e+2, 3.149967e+2, -58479.883, -59716.805, 14293.833, 0.10729841, -0.0025217761, -44791.137, -44791.137, 0.0, 4.9854603, 4.980628 
4.439943e+2, 1.214843e+2, -1675394.1, -1744658.0, 657.68713, 0.004132791, -0.002554461, -1675387.9, 74083.12, 0.0, 5.02916, 4.9839416 
4.4398624e+2, 1.2646824e+2, -1635211.0, -1710490.8, -2628.6997, -0.0017952297, 0.039721347, -1635119.4, 65504.55, 0.0, 5.028493, 4.979431 
4.4397825e+2, 1.3144591e+2, -1588234.3, -1662530.1, -2806.4753, -0.0023164623, 0.0213036, -1588128.4, 63714.074, 0.0, 5.027842, 4.979431 
4.4397023e+2, 1.3642354e+2, -1543380.0, -1618957.5, -2957.8193, -0.0028203093, 0.004111044, -1543264.4, 59796.875, 0.0, 5.027191, 4.9779725 
4.4396073e+2, 1.4139955e+2, -1501247.5, -1580907.1, -6082.5293, -0.002320815, 0.0071444325, -1500785.8, 53509.637, 0.0, 5.026509, 4.9746194 
4.4394836e+2, 1.4637475e+2, -1453752.1, -1531512.1, -6801.033, -0.0019355493, 0.005831536, -1453161.8, 52374.5, 0.0, 5.025763, 4.9751124 
4.439359e+2, 1.5134992e+2, -1406975.0, -1483601.1, -7000.7617, -0.0016621588, 0.0038263265, -1406340.6, 50436.598, 0.0, 5.025014, 4.9751124 
4.4392347e+2, 1.5632509e+2, -1361572.6, -1438577.6, -7186.18, -0.0013798857, 0.0022742455, -1360907.8, 47110.43, 0.0, 5.024265, 4.9741426 
4.4390973e+2, 1.6129695e+2, -1321519.0, -1404753.8, -9544.741, -0.001746929, 0.006101605, -1320438.6, 38853.742, 0.0, 5.0235023, 4.9694295 
4.4389373e+2, 1.6626674e+2, -1274364.3, -1355931.8, -10099.11, -0.0030527904, 0.0045418004, -1273132.5, 37455.95, 0.0, 5.022707, 4.9697256 
4.438777e+2, 1.7123659e+2, -1227622.4, -1307980.9, -10208.861, -0.0043477775, 0.003176718, -1226345.8, 35538.277, 0.0, 5.0219097, 4.9697256 
4.4386163e+2, 1.7620644e+2, -1181996.0, -1262410.8, -10314.978, -0.0056283087, 0.0022042908, -1180694.0, 32485.553, 0.0, 5.0211124, 4.968921 
4.4384494e+2, 1.8117325e+2, -1141857.8, -1228364.8, -11732.406, -0.006288581, 0.008194085, -1140294.9, 24210.092, 0.0, 5.0202765, 4.9642334 
4.4382706e+2, 1.861378e+2, -1094656.0, -1178775.1, -12228.887, -0.0058879214, 0.0036031818, -1092914.3, 22938.234, 0.0, 5.019321, 4.96483 
4.4380912e+2, 1.9110242e+2, -1048291.1, -1130946.4, -12440.4, -0.005470613, -0.0013713519, -1046459.4, 20740.295, 0.0, 5.018358, 4.96483 
4.4379118e+2, 1.9606702e+2, -1002799.75, -1085015.4, -12649.707, -0.005050973, -0.00604127, -1000897.44, 17649.283, 0.0, 5.017395, 4.9641795 
4.4377294e+2, 2.0102896e+2, -962862.7, -1051017.4, -13406.726, -0.0045947805, -0.001336063, -960868.8, 9050.658, 0.0, 5.0164175, 4.959449 
4.4375423e+2, 2.0598964e+2, -915372.25, -1000644.1, -13847.506, -0.0024456794, 0.0005323011, -913179.9, 8123.829, 0.0, 5.0154104, 4.960297 
4.4373545e+2, 2.1095042e+2, -869009.5, -952734.7, -14089.867, 0.00008830472, 0.0023418998, -866702.0, 5984.643, 0.0, 5.0144024, 4.9603043 
4.437167e+2, 2.1591124e+2, -823294.44, -906261.75, -14334.618, 0.002751702, 0.0042711673, -820887.6, 3181.7915, 0.0, 5.0133934, 4.959811 
4.436981e+2, 2.2086883e+2, -784858.4, -876107.7, -14336.793, 0.005779786, 0.014177877, -782658.9, -7173.3125, 0.0, 5.012447, 4.9536657 
4.436795e+2, 2.2582336e+2, -737188.7, -826435.6, -14262.893, 0.005760842, 0.015007385, -734964.75, -8027.63, 0.0, 5.0116386, 4.954141 
4.4366086e+2, 2.3077796e+2, -690116.75, -778104.3, -14240.95, 0.005293363, 0.015777469, -687869.2, -9480.724, 0.0, 5.010834, 4.954154 
4.4364226e+2, 2.357326e+2, -643680.44, -731207.5, -14215.282, 0.0051237475, 0.016739035, -641429.56, -11589.989, 0.0, 5.0100293, 4.953665 
4.436238e+2, 2.4068439e+2, -603866.5, -698811.06, -13610.917, 0.0026151035, 0.030630194, -601953.8, -20637.824, 0.0, 5.009194, 4.94812 
4.4360572e+2, 2.4563359e+2, -554454.8, -644468.4, -14043.719, 0.0057197707, 0.019727418, -552314.6, -19507.168, 0.0, 5.0081954, 4.950245 
4.4358772e+2, 2.5058267e+2, -507869.66, -596449.9, -14328.171, 0.0109358635, 0.002976343, -505609.66, -21310.47, 0.0, 5.007168, 4.9502144 
4.4356966e+2, 2.5553176e+2, -461505.66, -548988.56, -14645.839, 0.01595015, -0.013492824, -459118.84, -23327.988, 0.0, 5.0061345, 4.949985 
4.4355318e+2, 2.604781e+2, -423124.2, -520182.03, -13132.5625, 0.025460025, -0.011165154, -421378.66, -34062.03, 0.0, 5.0052013, 4.942963 
4.4354177e+2, 2.6542878e+2, -372943.47, -463510.6, -14165.251, 0.0581242, 0.011219113, -370779.63, -31948.357, 0.0, 5.004104, 4.9454565 
4.4353122e+2, 2.7038103e+2, -325581.38, -413408.0, -16344.969, 0.09487869, 0.034743726, -322638.13, -32304.771, 0.0, 5.00293, 4.9460464 
4.4352123e+2, 2.753339e+2, -278127.78, -363574.56, -18620.51, 0.13453509, 0.055725012, -274246.3, -32416.945, 0.0, 5.001728, 4.946589 
4.4350612e+2, 2.8028715e+2, -263239.34, -404638.84, -13824.701, 0.1103847, 0.2631571, -261900.38, -68588.5, 0.0, 5.003612, 4.9149985 
4.434976e+2, 2.8522116e+2, -188382.77, -292307.63, -2653.7983, 0.071758844, 0.3062548, -188315.05, -43382.496, 0.0, 5.0035777, 4.9365993 
4.4349575e+2, 2.9014626e+2, -146731.63, -243944.4, -1669.6794, 0.07722129, 0.15638945, -146702.95, -50069.21, 0.0, 5.0006647, 4.9370937 
4.4349444e+2, 2.9507074e+2, -104903.19, -195675.38, -1008.71594, 0.082241215, -0.008275865, -104891.98, -56550.492, 0.0, 4.9976907, 4.9375896 
4.434946e+2, 3.0001295e+2, -48055.246, -80259.195, 154.18254, 0.07814847, -0.14415187, -48054.508, -48054.508, 0.0, 4.9949064, 4.971465 
4.4350764e+2, 3.0500415e+2, -44156.39, -58090.508, -2827.9055, 0.11784569, -0.08063526, -43604.344, -43604.344, 0.0, 4.9929643, 4.9789023 
4.4352585e+2, 3.100064e+2, -47617.637, -54849.605, -6166.8184, 0.18754661, 0.04270758, -44084.844, -44084.844, 0.0, 4.9910774, 4.980579 
4.4354665e+2, 3.150139e+2, -50885.227, -51809.973, -9531.776, 0.27117035, 0.20159353, -41804.613, -41804.613, 0.0, 4.989105, 4.9822574 
4.4902363e+2, 1.214889e+2, -1676237.6, -1746387.3, 21.879404, 0.0054463274, -0.0027382812, -1676237.6, 73187.695, 0.0, 5.029161, 4.9833736 
4.4901484e+2, 1.2647255e+2, -1635538.9, -1711173.1, -3123.88, -0.00077924726, 0.039159067, -1635410.1, 65171.457, 0.0, 5.0284944, 4.979207 
4.4900617e+2, 1.3145003e+2, -1588560.1, -1663211.4, -3300.7703, -0.001370716, 0.021217363, -1588414.5, 63387.42, 0.0, 5.0278435, 4.9792066 
4.4899753e+2, 1.3642748e+2, -1543701.0, -1619631.6, -3450.6511, -0.0019563888, 0.0045001023, -1543544.5, 59477.996, 0.0, 5.0271926, 4.97775 
4.4898728e+2, 1.4140327e+2, -1501581.3, -1581612.9, -6642.495, -0.0018155453, 0.007650478, -1501033.8, 53224.89, 0.0, 5.0265107, 4.974386 
4.4897407e+2, 1.4637817e+2, -1454110.1, -1532271.8, -7369.4004, -0.0023808263, 0.0059565403, -1453421.4, 52081.008, 0.0, 5.025765, 4.9748607 
4.4896075e+2, 1.5135308e+2, -1407330.4, -1484358.8, -7568.841, -0.0030880044, 0.003572343, -1406593.6, 50152.492, 0.0, 5.0250163, 4.9748607 
4.4894746e+2, 1.5632796e+2, -1361923.0, -1439328.0, -7753.02, -0.0037916817, 0.0016412731, -1361154.0, 46836.05, 0.0, 5.024267, 4.9738927 
4.4893292e+2, 1.6129956e+2, -1321732.3, -1405221.5, -10147.774, -0.0047833226, 0.005057476, -1320516.5, 38750.03, 0.0, 5.023505, 4.969274 
4.4891617e+2, 1.6626917e+2, -1274544.6, -1356333.1, -10704.936, -0.005840619, 0.0029866225, -1273166.8, 37397.31, 0.0, 5.02271, 4.9695916 
4.4889933e+2, 1.7123881e+2, -1227801.5, -1308381.8, -10814.331, -0.006859526, 0.0011038621, -1226375.4, 35485.59, 0.0, 5.0219126, 4.9695916 
4.4888252e+2, 1.7620848e+2, -1182173.4, -1262809.9, -10919.75, -0.0078731915, -0.00038600242, -1180720.9, 32437.066, 0.0, 5.021116, 4.9687877 
4.4886503e+2, 1.8117514e+2, -1142162.4, -1229032.9, -12431.975, -0.008141653, 0.0057266536, -1140418.3, 24066.313, 0.0, 5.0202794, 4.9640093 
4.4884625e+2, 1.8613963e+2, -1095013.6, -1179557.3, -12962.386, -0.0069658724, 0.0029980466, -1093070.9, 22762.643, 0.0, 5.019324, 4.964566 
4.4882742e+2, 1.9110417e+2, -1048647.0, -1131726.8, -13173.141, -0.005761757, -0.000013627771, -1046608.25, 20573.738, 0.0, 5.0183606, 4.964566 
4.4880858e+2, 1.960687e+2, -1003153.75, -1085794.0, -13381.591, -0.004566293, -0.0027167073, -1001040.94, 17489.451, 0.0, 5.0173974, 4.963916 
4.4878942e+2, 2.0103051e+2, -963199.3, -1051779.9, -14169.913, -0.003957908, 0.0029691348, -960987.8, 8917.454, 0.0, 5.0164227, 4.959191 
4.4876945e+2, 2.0599072e+2, -915737.0, -1001494.0, -14611.925, -0.0039012877, 0.0032014197, -913315.7, 7978.4634, 0.0, 5.015418, 4.9600086 
4.4874948e+2, 2.1095105e+2, -869367.6, -953589.6, -14850.067, -0.003689808, 0.0032223316, -866825.94, 5856.0103, 0.0, 5.014412, 4.960013 
4.487295e+2, 2.1591137e+2, -823646.0, -907121.9, -15090.52, -0.0034025158, 0.0033523815, -821001.75, 3068.013, 0.0, 5.0134053, 4.9595175 
4.487098e+2, 2.2086857e+2, -784976.25, -876439.75, -14979.184, -0.0024024886, 0.011890504, -782585.56, -7095.9644, 0.0, 5.0124564, 4.953553 
4.4869024e+2, 2.2582313e+2, -737114.2, -826333.2, -14865.462, -0.0035128559, 0.013014166, -734702.5, -7762.4883, 0.0, 5.0116467, 4.954179 
4.4867072e+2, 2.3077779e+2, -690038.06, -777990.8, -14834.22, -0.005054951, 0.014129069, -687603.5, -9213.624, 0.0, 5.0108433, 4.9541945 
4.4865122e+2, 2.3573247e+2, -643597.6, -731083.0, -14799.192, -0.0063623483, 0.015302685, -641162.0, -11322.504, 0.0, 5.0100384, 4.953708 
4.4863197e+2, 2.4068415e+2, -603645.94, -698347.6, -14349.796, -0.00856735, 0.02661101, -601519.3, -20203.145, 0.0, 5.009201, 4.9482784 
4.4861302e+2, 2.4563329e+2, -554795.8, -645313.25, -14839.19, -0.0039221183, 0.017099723, -552425.2, -19615.322, 0.0, 5.0082064, 4.9499593 
4.485941e+2, 2.505824e+2, -508194.78, -597350.0, -15093.724, 0.002452923, 0.0040431586, -505708.78, -21405.447, 0.0, 5.007185, 4.9499125 
4.485752e+2, 2.555315e+2, -461814.75, -549943.8, -15381.459, 0.008590037, -0.008550589, -459207.3, -23410.697, 0.0, 5.0061584, 4.949668 
4.485578e+2, 2.6047784e+2, -423923.38, -522491.66, -13543.918, 0.018263983, -0.0024901645, -422096.22, -34772.227, 0.0, 5.005248, 4.9422364 
4.4854426e+2, 2.6542708e+2, -374383.6, -468006.66, -14138.029, 0.03439895, 0.029797308, -372295.2, -33442.45, 0.0, 5.004254, 4.9440374 
4.485312e+2, 2.7037767e+2, -326589.1, -417620.72, -15986.475, 0.049800806, 0.062335808, -323863.28, -33491.26, 0.0, 5.003185, 4.944657 
4.485187e+2, 2.7532864e+2, -278705.22, -367507.3, -17930.777, 0.06629763, 0.08911168, -275221.34, -33334.168, 0.0, 5.002087, 4.9452295 
4.4850266e+2, 2.8027755e+2, -254861.69, -382907.44, -13839.441, 0.029197497, 0.22805506, -253382.97, -59971.93, 0.0, 5.0032873, 4.922643 
4.4849437e+2, 2.8521103e+2, -190010.98, -290094.8, -5772.058, 0.010278586, 0.23412903, -189679.19, -44648.355, 0.0, 5.0027895, 4.9377537 
4.4849193e+2, 2.9013827e+2, -147771.36, -241918.33, -4420.2007, 0.034347937, 0.10935037, -147564.3, -50860.348, 0.0, 5.000074, 4.938123 
4.4848996e+2, 2.9506466e+2, -105354.945, -193837.52, -3391.307, 0.056137353, -0.03203467, -105225.16, -56839.313, 0.0, 4.9972973, 4.9384937 
4.4848981e+2, 3.0000997e+2, -48816.617, -80683.82, -1219.9928, 0.06996515, -0.13559659, -48769.98, -48769.98, 0.0, 4.994683, 4.9713964 
4.485027e+2, 3.0500028e+2, -47720.895, -66058.78, -2962.955, 0.124546945, -0.047241777, -47254.04, -47254.04, 0.0, 4.992871, 4.976185 
4.4852027e+2, 3.099994e+2, -50482.484, -61876.605, -5675.157, 0.20116638, 0.088726364, -48138.156, -48138.156, 0.0, 4.991108, 4.978073 
4.4854024e+2, 3.1500363e+2, -53047.855, -57896.914, -8411.645, 0.28602028, 0.2544736, -46718.297, -46718.297, 0.0, 4.9892597, 4.979963 
4.540529e+2, 1.2149346e+2, -1677003.9, -1747958.9, -615.59375, 0.006509974, -0.0032697201, -1676998.6, 72381.37, 0.0, 5.029162, 4.9828577 
4.5404342e+2, 1.2647685e+2, -1635867.0, -1711855.5, -3618.694, 0.00021603778, 0.038634505, -1635695.0, 64844.168, 0.0, 5.028496, 4.9789824 
4.5403412e+2, 1.3145414e+2, -1588886.1, -1663892.5, -3794.6995, -0.00043858448, 0.02115371, -1588694.6, 63066.598, 0.0, 5.0278454, 4.978982 
4.540248e+2, 1.3643141e+2, -1544022.1, -1620305.9, -3943.1455, -0.001099014, 0.0048966147, -1543818.9, 59164.766, 0.0, 5.0271945, 4.977527 
4.5401382e+2, 1.41407e+2, -1501918.3, -1582325.3, -7202.359, -0.0013150456, 0.008163767, -1501278.3, 52943.645, 0.0, 5.026513, 4.9741507 
4.5399976e+2, 1.4638162e+2, -1454468.1, -1533031.6, -7937.5586, -0.002830159, 0.0060869753, -1453674.1, 51794.246, 0.0, 5.0257673, 4.974609 
4.5398563e+2, 1.5135622e+2, -1407685.9, -1485116.6, -8136.7104, -0.004516192, 0.0033187107, -1406840.0, 49875.137, 0.0, 5.0250187, 4.974609 
4.5397148e+2, 1.5633081e+2, -1362273.4, -1440078.5, -8319.652, -0.006204106, 0.0010035769, -1361393.6, 46568.332, 0.0, 5.02427, 4.9736423 
4.5395613e+2, 1.6130216e+2, -1321946.6, -1405692.0, -10750.742, -0.007820247, 0.0040169796, -1320588.5, 38652.273, 0.0, 5.023508, 4.9691176 
4.5393857e+2, 1.662716e+2, -1274725.0, -1356734.6, -11310.556, -0.00862539, 0.0014334833, -1273193.8, 37345.977, 0.0, 5.022713, 4.969458 
4.53921e+2, 1.7124106e+2, -1227980.6, -1308782.6, -11419.596, -0.009363749, -0.00097304536, -1226397.8, 35440.258, 0.0, 5.021916, 4.9694576 
4.5390338e+2, 1.7621052e+2, -1182350.8, -1263209.3, -11524.314, -0.010106083, -0.0029864335, -1180740.4, 32395.898, 0.0, 5.021119, 4.9686537 
4.538851e+2, 1.8117703e+2, -1142471.5, -1229710.8, -13131.951, -0.009999491, 0.0032774925, -1140537.6, 23926.62, 0.0, 5.0202827, 4.9637814 
4.538654e+2, 1.8614146e+2, -1095371.4, -1180339.4, -13695.623, -0.008052263, 0.0024111136, -1093218.4, 22596.102, 0.0, 5.0193267, 4.964302 
4.5384574e+2, 1.9110593e+2, -1049002.9, -1132507.1, -13905.62, -0.006057245, 0.0013484646, -1046748.1, 20416.23, 0.0, 5.0183635, 4.964302 
4.53826e+2, 1.960704e+2, -1003507.9, -1086572.9, -14113.211, -0.004081863, 0.00059839943, -1001175.5, 17338.604, 0.0, 5.0174003, 4.9636517 
4.5380586e+2, 2.0103204e+2, -963543.25, -1052556.5, -14928.442, -0.003354649, 0.0073007382, -961106.3, 8784.683, 0.0, 5.0164275, 4.958927 
4.537847e+2, 2.0599182e+2, -916102.94, -1002343.1, -15372.057, -0.0053646867, 0.005859904, -913444.9, 7839.7393, 0.0, 5.0154257, 4.9597197 
4.537635e+2, 2.1095166e+2, -869726.9, -954443.75, -15605.981, -0.007432903, 0.0040255035, -866943.5, 5733.824, 0.0, 5.014422, 4.959721 
4.537423e+2, 2.1591151e+2, -823998.6, -907981.2, -15842.135, -0.009478932, 0.0022897592, -821109.6, 2960.4531, 0.0, 5.0134172, 4.959223 
4.5372146e+2, 2.2086835e+2, -785127.1, -876841.7, -15628.641, -0.010446393, 0.009841055, -782537.06, -7043.565, 0.0, 5.0124664, 4.9534163 
4.5370102e+2, 2.2582293e+2, -737040.94, -826230.06, -15471.889, -0.01260998, 0.011277063, -734433.25, -7490.5073, 0.0, 5.0116553, 4.954214 
4.536806e+2, 2.3077762e+2, -689960.6, -777876.6, -15431.345, -0.015212616, 0.012507002, -687330.75, -8939.69, 0.0, 5.010852, 4.954233 
4.5366022e+2, 2.3573233e+2, -643516.1, -730957.8, -15386.957, -0.01764373, 0.013663059, -640887.5, -11048.244, 0.0, 5.010048, 4.9537497 
4.536401e+2, 2.4068396e+2, -603593.2, -698244.75, -15076.571, -0.01984752, 0.023350831, -601249.7, -19933.697, 0.0, 5.009208, 4.948309 
4.5362025e+2, 2.4563304e+2, -555145.9, -646151.0, -15596.857, -0.013694705, 0.015323876, -552547.06, -19735.145, 0.0, 5.0082173, 4.9496665 
4.5360047e+2, 2.5058213e+2, -508528.88, -598242.94, -15821.474, -0.00603838, 0.005272861, -505820.47, -21513.24, 0.0, 5.0072026, 4.949604 
4.5358065e+2, 2.5553122e+2, -462132.72, -550891.8, -16079.273, 0.0013438244, -0.0041339793, -459309.63, -23507.34, 0.0, 5.006182, 4.949343 
4.5356247e+2, 2.604776e+2, -425020.97, -525393.25, -13990.007, 0.011977435, 0.0071973326, -423107.5, -35776.652, 0.0, 5.005295, 4.941265 
4.5354688e+2, 2.654254e+2, -375874.47, -472470.88, -14132.106, 0.010741033, 0.045181554, -373849.4, -34974.97, 0.0, 5.004404, 4.9425263 
4.5353144e+2, 2.7037403e+2, -327646.34, -421800.3, -15649.031, 0.0029716662, 0.079571344, -325113.5, -34700.344, 0.0, 5.0034394, 4.943176 
4.5351642e+2, 2.7532288e+2, -279331.03, -371405.72, -17261.93, -0.005507594, 0.104985185, -276201.22, -34251.438, 0.0, 5.0024467, 4.943778 
4.5349884e+2, 2.802683e+2, -250617.52, -370662.34, -15319.987, -0.05224745, 0.19844957, -248693.23, -55186.184, 0.0, 5.0029664, 4.926979 
4.5349056e+2, 2.8520188e+2, -191736.84, -287795.22, -8670.341, -0.047679514, 0.18478742, -190960.52, -45840.953, 0.0, 5.002002, 4.938819 
4.5348772e+2, 2.9013103e+2, -148908.17, -239803.98, -6950.193, -0.005291717, 0.077666685, -148379.8, -51612.836, 0.0, 4.999484, 4.9390626 
4.5348534e+2, 2.9505908e+2, -105903.266, -191909.86, -5552.8364, 0.032978356, -0.04786376, -105546.234, -57120.848, 0.0, 4.996905, 4.939308 
4.5348486e+2, 3.0000693e+2, -50371.586, -82600.89, -2674.0999, 0.06302096, -0.12642267, -50151.223, -50151.223, 0.0, 4.99446, 4.970696 
4.534972e+2, 3.049956e+2, -51422.31, -73905.88, -3333.391, 0.12555817, -0.02375121, -50938.516, -50938.516, 0.0, 4.992778, 4.9733377 
4.535138e+2, 3.09991e+2, -53484.965, -68779.63, -5419.019, 0.20120469, 0.110479176, -51759.598, -51759.598, 0.0, 4.9911385, 4.975437 
4.5353252e+2, 3.1499133e+2, -55349.176, -63857.363, -7527.5435, 0.27940735, 0.2687338, -50956.813, -50956.813, 0.0, 4.989414, 4.9775386 
4.590822e+2, 1.21498086e+2, -1676665.1, -1748855.0, -733.6097, 0.007344586, -0.0038891176, -1676657.6, 72676.375, 0.0, 5.029505, 4.9823956 
4.5907205e+2, 1.264812e+2, -1635254.0, -1712077.1, -3623.194, 0.0012105188, 0.03790849, -1635083.5, 65412.797, 0.0, 5.028813, 4.9787555 
4.5906207e+2, 1.3145833e+2, -1588398.3, -1664176.4, -3814.4307, 0.00046640704, 0.02095313, -1588206.8, 63513.316, 0.0, 5.0281205, 4.9787545 
4.590521e+2, 1.364354e+2, -1543661.0, -1620647.6, -3975.7495, -0.00027994736, 0.005226765, -1543456.3, 59487.824, 0.0, 5.027426, 4.977302 
4.5904037e+2, 1.414108e+2, -1501679.4, -1582759.4, -7308.458, -0.0008324826, 0.008676312, -1501025.9, 53158.504, 0.0, 5.0267096, 4.9739127 
4.590255e+2, 1.4638513e+2, -1454292.8, -1533529.6, -8055.7104, -0.0032237428, 0.006229179, -1453482.0, 51951.816, 0.0, 5.0259495, 4.9743567 
4.5901054e+2, 1.5135944e+2, -1407552.3, -1485635.0, -8258.833, -0.0058096023, 0.0030834293, -1406688.3, 49995.24, 0.0, 5.0251865, 4.974356 
4.5899555e+2, 1.5633374e+2, -1362179.6, -1440612.0, -8444.168, -0.008400108, 0.00038958926, -1361280.8, 46652.418, 0.0, 5.024423, 4.973392 
4.5897934e+2, 1.6130486e+2, -1321775.4, -1405982.5, -10920.605, -0.010594178, 0.0030120118, -1320382.1, 38832.254, 0.0, 5.0236435, 4.9689574 
4.5896104e+2, 1.6627406e+2, -1274601.4, -1356996.1, -11505.384, -0.011179588, -0.00008523424, -1273025.0, 37489.707, 0.0, 5.0228214, 4.9693203 
4.5894265e+2, 1.7124334e+2, -1227940.6, -1309084.6, -11635.868, -0.011666795, -0.0030199464, -1226305.0, 35509.37, 0.0, 5.0219955, 4.96932 
4.589243e+2, 1.7621264e+2, -1182395.6, -1263551.1, -11760.755, -0.012161401, -0.005561028, -1180725.6, 32388.416, 0.0, 5.021169, 4.9685163 
4.589052e+2, 1.8117899e+2, -1142677.8, -1230342.8, -13467.624, -0.011748736, 0.0008594346, -1140655.4, 23788.06, 0.0, 5.020322, 4.963551 
4.5888466e+2, 1.8614332e+2, -1095508.5, -1181010.1, -14052.822, -0.0091601955, 0.0017718873, -1093258.0, 22537.037, 0.0, 5.0194044, 4.9640403 
4.58864e+2, 1.9110772e+2, -1049022.4, -1133121.3, -14252.037, -0.00648806, 0.002550503, -1046672.8, 20473.506, 0.0, 5.018481, 4.96404 
4.588434e+2, 1.9607213e+2, -1003413.7, -1087132.6, -14447.895, -0.003833354, 0.0036373052, -1000990.44, 17506.988, 0.0, 5.017556, 4.96339 
4.5882234e+2, 2.010336e+2, -963335.94, -1053070.0, -15274.692, -0.003051315, 0.011313387, -960807.1, 9069.343, 0.0, 5.016624, 4.958662 
4.588e+2, 2.0599294e+2, -915793.0, -1002854.56, -15711.631, -0.006935223, 0.008224546, -913044.4, 8230.303, 0.0, 5.015667, 4.9594345 
4.5877758e+2, 2.1095231e+2, -869314.25, -954913.06, -15929.049, -0.011041758, 0.0045481743, -866446.1, 6226.1333, 0.0, 5.0147, 4.9594336 
4.5875522e+2, 2.159117e+2, -823509.3, -908420.44, -16144.96, -0.015161263, 0.00096264586, -820543.1, 3526.7302, 0.0, 5.0137234, 4.9589334 
4.5873326e+2, 2.2086821e+2, -784480.3, -876913.2, -15822.1, -0.017849954, 0.007965364, -781847.0, -6350.5195, 0.0, 5.012771, 4.9532533 
4.5871192e+2, 2.2582282e+2, -736419.25, -825902.6, -15676.161, -0.020912465, 0.009821081, -733752.5, -6808.048, 0.0, 5.011868, 4.954231 
4.5869058e+2, 2.3077753e+2, -689696.6, -777728.3, -15718.408, -0.024435414, 0.011051414, -686974.25, -8582.814, 0.0, 5.010941, 4.954246 
4.586693e+2, 2.3573226e+2, -643680.5, -731016.8, -15783.338, -0.02784271, 0.012084402, -640915.7, -11077.221, 0.0, 5.0099883, 4.9537597 
4.586483e+2, 2.4068382e+2, -604229.56, -698744.25, -15702.757, -0.030294945, 0.02110991, -601689.0, -20373.701, 0.0, 5.0090346, 4.948212 
4.5862758e+2, 2.4563281e+2, -555502.75, -646880.8, -16198.172, -0.022979803, 0.014140341, -552716.4, -19902.771, 0.0, 5.0082226, 4.949402 
4.586069e+2, 2.5058183e+2, -508261.0, -598685.5, -16292.739, -0.014249818, 0.0056820596, -505414.94, -21103.623, 0.0, 5.007433, 4.94934 
4.5858622e+2, 2.5553086e+2, -461226.13, -551041.06, -16357.951, -0.005809167, -0.0021189302, -458339.63, -22530.836, 0.0, 5.006647, 4.949079 
4.5856726e+2, 2.6047736e+2, -425006.53, -527864.1, -13805.336, 0.006723541, 0.015254381, -423185.84, -35847.883, 0.0, 5.005849, 4.9401546 
4.585499e+2, 2.654239e+2, -378905.28, -477271.47, -12976.545, -0.00884287, 0.056382447, -377222.2, -38328.055, 0.0, 5.004082, 4.9409933 
4.5853224e+2, 2.703707e+2, -335653.44, -428848.6, -13914.634, -0.035181712, 0.08887387, -333620.25, -43169.375, 0.0, 5.00136, 4.941626 
4.5851508e+2, 2.7531758e+2, -294620.22, -381669.06, -15285.901, -0.062019665, 0.11060406, -292014.03, -50007.016, 0.0, 4.99779, 4.942215 
4.5849568e+2, 2.8026062e+2, -271168.34, -377126.16, -16563.828, -0.108149305, 0.18512116, -268639.34, -75052.23, 0.0, 4.9954224, 4.9279737 
4.5848688e+2, 2.851944e+2, -205802.58, -291091.75, -9676.589, -0.084969014, 0.16371547, -204718.48, -59526.977, 0.0, 4.9968915, 4.939733 
4.584836e+2, 2.9012474e+2, -154848.22, -239678.48, -7966.1426, -0.03277831, 0.06198538, -154106.63, -57286.047, 0.0, 4.9972386, 4.939944 
4.5848083e+2, 2.950539e+2, -106371.23, -189531.17, -6346.521, 0.016265614, -0.058664754, -105889.67, -57428.418, 0.0, 4.996605, 4.940153 
4.5848e+2, 3.0000356e+2, -50886.008, -84303.82, -2966.8833, 0.05871483, -0.121587515, -50624.65, -50624.65, 0.0, 4.9949007, 4.9697027 
4.5849153e+2, 3.0499068e+2, -60329.742, -82690.19, -2091.8206, 0.12838948, -0.010602908, -60135.734, -60135.734, 0.0, 4.9908934, 4.97077 
4.5850712e+2, 3.0998284e+2, -76140.79, -82964.68, -3476.1042, 0.20906787, 0.11835767, -74681.94, -74681.94, 0.0, 4.9842434, 4.973031 
4.5852488e+2, 3.1498012e+2, -98757.414, -86425.445, -5690.139, 0.29379138, 0.27094617, -84201.13, -84201.13, 0.0, 4.975014, 4.975295 
4.6411303e+2, 1.2150515e+2, -1669722.6, -1746275.6, 791.9726, 0.0071310103, -0.0010252096, -1669714.4, 79549.266, 0.0, 5.0320077, 4.982016 
4.6410224e+2, 1.2648727e+2, -1628595.5, -1709398.1, -2264.898, 0.0020836424, 0.033639044, -1628532.1, 71903.96, 0.0, 5.03117, 4.978484 
4.6409142e+2, 1.3146427e+2, -1582293.6, -1661779.5, -2494.6123, 0.0010505517, 0.018480893, -1582215.4, 69445.336, 0.0, 5.0302973, 4.978484 
4.6408063e+2, 1.3644129e+2, -1538097.1, -1618520.0, -2694.3855, 0.00004004538, 0.0045621456, -1538007.0, 64878.723, 0.0, 5.0294247, 4.977034 
4.640681e+2, 1.4141652e+2, -1496563.5, -1580827.9, -6071.8623, -0.0006364629, 0.009130925, -1496128.1, 57999.36, 0.0, 5.0285535, 4.973658 
4.640524e+2, 1.4639056e+2, -1449517.3, -1531798.1, -6830.602, -0.002866957, 0.0065618204, -1448954.1, 56425.79, 0.0, 5.0276885, 4.9740915 
4.640366e+2, 1.513646e+2, -1403093.8, -1484066.1, -7050.3, -0.005282101, 0.0032674435, -1402484.5, 54147.977, 0.0, 5.026822, 4.974091 
4.6402085e+2, 1.563386e+2, -1358031.6, -1439196.9, -7250.709, -0.007697835, 0.00042260007, -1357389.0, 50496.18, 0.0, 5.0259557, 4.973129 
4.6400377e+2, 1.6130945e+2, -1317884.3, -1404578.8, -9802.354, -0.009832723, 0.0027573942, -1316789.6, 42379.41, 0.0, 5.0250654, 4.968746 
4.6398455e+2, 1.662784e+2, -1271099.6, -1355767.9, -10450.302, -0.010638006, -0.00089395087, -1269828.9, 40642.793, 0.0, 5.02411, 4.9691176 
4.6396527e+2, 1.7124742e+2, -1224839.0, -1308054.5, -10636.49, -0.011351246, -0.0043859323, -1223501.0, 38272.598, 0.0, 5.023151, 4.969117 
4.6394598e+2, 1.7621645e+2, -1179688.4, -1262713.6, -10816.528, -0.01206363, -0.007479579, -1178302.3, 34773.164, 0.0, 5.022192, 4.968314 
4.6392593e+2, 1.8118258e+2, -1140244.0, -1229650.9, -12544.754, -0.012142419, -0.001355089, -1138517.3, 25889.652, 0.0, 5.021254, 4.9633446 
4.6390435e+2, 1.8614672e+2, -1093053.5, -1180341.8, -13097.794, -0.010702648, -0.000082806946, -1091130.5, 24629.748, 0.0, 5.020351, 4.963821 
4.638827e+2, 1.9111094e+2, -1046510.4, -1132431.5, -13266.961, -0.00918608, 0.0010698893, -1044508.5, 22604.867, 0.0, 5.019448, 4.9638205 
4.638611e+2, 1.9607516e+2, -1000841.1, -1086420.4, -13433.361, -0.007662435, 0.0025096072, -998782.06, 19684.3, 0.0, 5.0185447, 4.96317 
4.6383905e+2, 2.010364e+2, -960753.94, -1052447.4, -14259.984, -0.0076478804, 0.010169935, -958587.44, 11260.271, 0.0, 5.0176353, 4.9584017 
4.6381584e+2, 2.0599541e+2, -913124.1, -1002252.5, -14727.524, -0.011271141, 0.006735283, -910753.6, 10495.697, 0.0, 5.0167246, 4.959147 
4.6379253e+2, 2.1095449e+2, -866485.56, -954231.06, -14978.344, -0.0150136165, 0.0027980898, -863999.2, 8651.025, 0.0, 5.0158157, 4.9591484 
4.637693e+2, 2.1591355e+2, -820496.75, -907647.06, -15226.305, -0.018728357, -0.0010138087, -817913.1, 6138.0063, 0.0, 5.014907, 4.9586506 
4.6374637e+2, 2.2086982e+2, -781319.4, -875838.25, -14953.956, -0.02122683, 0.0061491183, -779009.9, -3529.846, 0.0, 5.0139656, 4.9530673 
4.6372405e+2, 2.2582428e+2, -733901.4, -825094.75, -14978.087, -0.023668386, 0.008011002, -731504.3, -4575.3438, 0.0, 5.012829, 4.9540677 
4.6370175e+2, 2.3077883e+2, -687874.25, -777314.7, -15143.786, -0.02640386, 0.009137681, -685379.7, -7002.5513, 0.0, 5.011667, 4.954062 
4.636794e+2, 2.3573336e+2, -642477.5, -730960.25, -15304.673, -0.029024921, 0.010126249, -639905.06, -10079.527, 0.0, 5.0105047, 4.9535546 
4.636574e+2, 2.4068467e+2, -603613.56, -699393.06, -15235.329, -0.03103113, 0.019298509, -601248.5, -19943.781, 0.0, 5.0094194, 4.9478235 
4.636358e+2, 2.4563344e+2, -554436.06, -647396.94, -16013.132, -0.026240883, 0.01450924, -551755.0, -18948.22, 0.0, 5.0088053, 4.948953 
4.6361423e+2, 2.5058225e+2, -506509.22, -598684.2, -16586.193, -0.02053542, 0.008134057, -503615.5, -19307.207, 0.0, 5.008255, 4.9489474 
4.6359265e+2, 2.5553107e+2, -458820.8, -550529.7, -17168.791, -0.015126373, 0.0018805887, -455712.03, -19902.395, 0.0, 5.007701, 4.948744 
4.635727e+2, 2.6047748e+2, -421539.34, -526236.25, -14952.795, -0.0058489577, 0.021197809, -419445.66, -32105.678, 0.0, 5.007228, 4.940019 
4.6355456e+2, 2.6542342e+2, -371581.5, -473719.7, -13476.812, -0.020124374, 0.055822227, -369833.2, -30936.768, 0.0, 5.0068436, 4.9409676 
4.635364e+2, 2.703695e+2, -322322.9, -423184.0, -13268.292, -0.03686384, 0.08344885, -320606.66, -30152.643, 0.0, 5.0064383, 4.9413958 
4.6351883e+2, 2.7531576e+2, -273050.63, -372856.75, -13120.207, -0.046231374, 0.1053572, -271354.72, -29344.773, 0.0, 5.0060163, 4.941777 
4.6349978e+2, 2.8025782e+2, -239642.75, -362534.72, -13144.462, -0.05715811, 0.17318472, -238252.56, -44656.773, 0.0, 5.0066724, 4.928251 
4.6348956e+2, 2.851906e+2, -182616.44, -282449.3, -6335.6216, -0.045763258, 0.14278209, -182215.98, -37000.195, 0.0, 5.005357, 4.939253 
4.6348417e+2, 2.9012084e+2, -140028.6, -234058.33, -7054.82, -0.018440247, 0.044115227, -139502.23, -42649.266, 0.0, 5.002682, 4.9397197 
4.634795e+2, 2.950505e+2, -97317.47, -185711.84, -7999.9287, 0.015297299, -0.06830783, -96599.29, -48103.195, 0.0, 4.999951, 4.940187 
4.6347696e+2, 3.0000126e+2, -45201.31, -81638.44, -7336.25, 0.053809315, -0.11815993, -43779.695, -43779.695, 0.0, 4.997116, 4.9697685 
4.6348587e+2, 3.0498895e+2, -51961.84, -79734.54, -8768.605, 0.13694021, 0.012363981, -49425.063, -49425.063, 0.0, 4.9943256, 4.9705772 
4.6349943e+2, 3.0998233e+2, -57256.023, -76100.14, -11913.529, 0.25682798, 0.1760802, -51489.027, -51489.027, 0.0, 4.9916005, 4.9726806 
4.6351606e+2, 3.1498167e+2, -62329.254, -72694.9, -15621.243, 0.40734375, 0.37831208, -51053.496, -51053.496, 0.0, 4.9887905, 4.974786 
4.6914497e+2, 1.2151331e+2, -1670206.9, -1747275.5, 361.26218, 0.0061141294, 0.0024725397, -1670205.3, 78977.39, 0.0, 5.0320086, 4.981688 
4.6913347e+2, 1.2649423e+2, -1629022.0, -1710288.0, -2926.502, 0.0028253228, 0.028216349, -1628916.8, 71450.0, 0.0, 5.031172, 4.978192 
4.6912175e+2, 1.3147117e+2, -1582716.9, -1662667.0, -3155.5005, 0.00150465, 0.015291991, -1582592.6, 68999.586, 0.0, 5.030299, 4.978192 
4.6911004e+2, 1.364481e+2, -1538515.8, -1619402.1, -3355.2332, 0.00019384125, 0.0036016225, -1538376.9, 64440.97, 0.0, 5.029427, 4.9767427 
4.6909666e+2, 1.414232e+2, -1496945.9, -1581641.1, -6737.9688, -0.00055118545, 0.00959339, -1496413.3, 57647.824, 0.0, 5.0285563, 4.9733896 
4.6908015e+2, 1.4639698e+2, -1449908.9, -1532634.0, -7487.647, -0.0022872759, 0.006990238, -1449236.6, 56079.7, 0.0, 5.0276914, 4.9738145 
4.6906355e+2, 1.5137072e+2, -1403482.6, -1484899.8, -7707.1694, -0.004195398, 0.003630675, -1402759.5, 53812.46, 0.0, 5.026825, 4.973814 
4.6904695e+2, 1.5634446e+2, -1358415.3, -1440023.0, -7906.6787, -0.006107442, 0.00072079775, -1357656.3, 50171.43, 0.0, 5.025959, 4.972853 
4.69029e+2, 1.6131501e+2, -1318209.9, -1405286.9, -10520.284, -0.008000731, 0.0028253458, -1316956.9, 42157.5, 0.0, 5.0250688, 4.96851 
4.690088e+2, 1.6628368e+2, -1271417.3, -1356461.4, -11179.234, -0.009155822, -0.0014002175, -1269972.3, 40447.152, 0.0, 5.0241137, 4.968886 
4.689885e+2, 1.7125241e+2, -1225154.8, -1308746.4, -11365.24, -0.010248693, -0.0054748473, -1223637.0, 38086.887, 0.0, 5.0231543, 4.9688854 
4.689682e+2, 1.7622113e+2, -1180001.5, -1263402.5, -11544.552, -0.011345741, -0.009147692, -1178433.0, 34595.445, 0.0, 5.0221953, 4.968083 
4.6894714e+2, 1.81187e+2, -1140513.9, -1230254.9, -13244.212, -0.01218689, -0.0035020115, -1138600.1, 25762.031, 0.0, 5.021258, 4.963142 
4.689245e+2, 1.8615092e+2, -1093323.9, -1180953.9, -13783.847, -0.012467253, -0.0023878638, -1091206.9, 24510.65, 0.0, 5.0203557, 4.9636145 
4.6890178e+2, 1.9111492e+2, -1046777.2, -1133042.1, -13951.674, -0.012732068, -0.0013720412, -1044576.9, 22495.57, 0.0, 5.019453, 4.963614 
4.6887913e+2, 1.960789e+2, -1001104.56, -1087029.8, -14116.643, -0.013002278, -0.00007085828, -998844.75, 19582.652, 0.0, 5.018551, 4.962963 
4.68856e+2, 2.010399e+2, -961100.8, -1053261.5, -14955.283, -0.014076184, 0.0073786494, -958734.7, 11076.44, 0.0, 5.0176444, 4.9581246 
4.6883196e+2, 2.0599864e+2, -913511.9, -1003165.3, -15417.142, -0.016861249, 0.0041715475, -910934.8, 10280.924, 0.0, 5.0167346, 4.9588356 
4.688079e+2, 2.1095742e+2, -866871.44, -955141.6, -15666.303, -0.019688044, 0.00057786994, -864173.44, 8446.137, 0.0, 5.0158257, 4.958837 
4.6878383e+2, 2.1591622e+2, -820880.8, -908555.56, -15912.533, -0.022521185, -0.0028728421, -818082.1, 5941.319, 0.0, 5.0149164, 4.9583387 
4.6876e+2, 2.2087225e+2, -781574.7, -876435.5, -15758.431, -0.024518771, 0.0044802562, -779025.4, -3570.476, 0.0, 5.013971, 4.9528637 
4.6873668e+2, 2.2582644e+2, -734160.5, -825675.9, -15867.802, -0.025957173, 0.0057136766, -731487.3, -4581.2373, 0.0, 5.0128303, 4.9538703 
4.6871328e+2, 2.3078072e+2, -688136.8, -777891.44, -16029.389, -0.027513994, 0.0061854688, -685360.0, -7003.551, 0.0, 5.0116663, 4.9538665 
4.6868992e+2, 2.3573498e+2, -642743.6, -731532.8, -16186.07, -0.029008903, 0.0065787714, -639885.0, -10077.922, 0.0, 5.0105023, 4.9533606 
4.686669e+2, 2.4068604e+2, -604245.1, -700951.2, -15840.369, -0.030504161, 0.016286643, -601716.6, -20427.84, 0.0, 5.00944, 4.9472833 
4.6864438e+2, 2.456347e+2, -555271.44, -649551.06, -16418.611, -0.029013274, 0.01715175, -552494.0, -19700.182, 0.0, 5.0088406, 4.948205 
4.6862185e+2, 2.505834e+2, -507338.3, -600858.25, -16979.248, -0.02729782, 0.017193954, -504351.03, -20052.94, 0.0, 5.008292, 4.9481926 
4.6859935e+2, 2.5553215e+2, -459643.56, -552723.7, -17549.414, -0.026032899, 0.017506056, -456444.72, -20642.596, 0.0, 5.0077395, 4.947982 
4.685783e+2, 2.6047823e+2, -421362.0, -526308.0, -15137.222, -0.023980668, 0.039592132, -419222.25, -31887.078, 0.0, 5.007275, 4.940014 
4.6855924e+2, 2.6542237e+2, -370548.38, -472181.8, -13400.732, -0.047507733, 0.051758062, -368811.13, -29910.133, 0.0, 5.0069184, 4.941542 
4.685403e+2, 2.7036628e+2, -321280.72, -421879.16, -13018.418, -0.073178604, 0.052868504, -319623.3, -29152.633, 0.0, 5.0065446, 4.9418945 
4.6852195e+2, 2.7531022e+2, -271998.7, -371783.8, -12696.65, -0.09281543, 0.048211202, -270408.5, -28368.65, 0.0, 5.0061545, 4.9422 
4.6850282e+2, 2.8025037e+2, -239813.42, -362850.0, -15035.493, -0.09847835, 0.09493176, -238002.69, -44364.21, 0.0, 5.0066547, 4.9281054 
4.6849176e+2, 2.8518462e+2, -183951.48, -285617.94, -9265.829, -0.07093996, 0.08702518, -183113.9, -37858.195, 0.0, 5.0052376, 4.938148 
4.684847e+2, 2.901169e+2, -141256.14, -237713.48, -9717.804, -0.03806057, 0.01984408, -140286.84, -43399.63, 0.0, 5.00263, 4.9384646 
4.6847832e+2, 2.9504856e+2, -98435.53, -189852.64, -10396.004, -0.0007587624, -0.060037557, -97268.2, -48743.063, 0.0, 4.9999657, 4.938782 
4.684738e+2, 3.0000043e+2, -45433.34, -85602.65, -8880.744, 0.037289, -0.08543926, -43557.555, -43557.555, 0.0, 4.997331, 4.9684205 
4.6847847e+2, 3.049856e+2, -50510.38, -84005.74, -9216.895, 0.09832073, 0.03875637, -48141.68, -48141.68, 0.0, 4.9950905, 4.969074 
4.6848726e+2, 3.0997527e+2, -54196.5, -80277.016, -11678.3545, 0.18727435, 0.1853933, -49731.55, -49731.55, 0.0, 4.9928875, 4.97101 
4.6849892e+2, 3.1496972e+2, -57657.477, -76780.516, -14702.51, 0.3006018, 0.3585581, -49680.85, -49680.85, 0.0, 4.9906, 4.9729476 
4.7417682e+2, 1.2152138e+2, -1670615.3, -1748120.1, -68.77954, 0.004775496, 0.0053284825, -1670615.3, 78486.97, 0.0, 5.0320096, 4.981411 
4.741647e+2, 1.2650119e+2, -1629448.5, -1711178.0, -3587.8127, 0.0035548361, 0.022827055, -1629291.4, 71006.08, 0.0, 5.0311737, 4.9778996 
4.741521e+2, 1.3147807e+2, -1583140.3, -1663554.6, -3816.0957, 0.0019507732, 0.01212294, -1582959.6, 68563.96, 0.0, 5.0303016, 4.977899 
4.7413948e+2, 1.3645492e+2, -1538934.5, -1620284.6, -4015.8396, 0.00034383315, 0.0026474027, -1538736.8, 64013.137, 0.0, 5.0294294, 4.976451 
4.7412518e+2, 1.4142989e+2, -1497331.9, -1582462.0, -7403.964, -0.00046797725, 0.010062638, -1496692.6, 57301.9, 0.0, 5.028559, 4.9731183 
4.7410786e+2, 1.4640339e+2, -1450300.5, -1533470.0, -8144.502, -0.0017081454, 0.0074219503, -1449510.4, 55742.406, 0.0, 5.0276947, 4.9735374 
4.7409046e+2, 1.5137683e+2, -1403871.4, -1485733.6, -8363.849, -0.0031070558, 0.0039906297, -1403025.6, 53485.79, 0.0, 5.0268283, 4.973537 
4.7407302e+2, 1.5635028e+2, -1358798.8, -1440849.4, -8562.47, -0.0045132204, 0.0010091531, -1357914.6, 49855.434, 0.0, 5.0259624, 4.9725776 
4.7405422e+2, 1.6132057e+2, -1318537.6, -1406000.0, -11238.425, -0.006177437, 0.0029020307, -1317116.6, 41943.004, 0.0, 5.0250726, 4.9682727 
4.7403303e+2, 1.6628894e+2, -1271734.9, -1357155.3, -11907.988, -0.0076849926, -0.0018950996, -1270105.9, 40261.375, 0.0, 5.024117, 4.968654 
4.7401172e+2, 1.7125739e+2, -1225470.4, -1309438.5, -12093.811, -0.009155525, -0.0065575135, -1223763.3, 37911.09, 0.0, 5.023158, 4.9686537 
4.7399044e+2, 1.7622583e+2, -1180314.5, -1264091.5, -12272.391, -0.01063527, -0.010814688, -1178553.8, 34427.586, 0.0, 5.0221987, 4.9678516 
4.7396836e+2, 1.8119141e+2, -1140788.1, -1230868.1, -13942.443, -0.012246779, -0.005645294, -1138679.5, 25637.912, 0.0, 5.021262, 4.962936 
4.7394463e+2, 1.8615514e+2, -1093594.4, -1181565.9, -14469.345, -0.014254225, -0.0047094394, -1091275.6, 24399.092, 0.0, 5.0203605, 4.963408 
4.7392088e+2, 1.911189e+2, -1047044.25, -1133652.9, -14635.833, -0.016303757, -0.003856681, -1044637.8, 22393.809, 0.0, 5.019459, 4.963407 
4.738971e+2, 1.9608267e+2, -1001368.2, -1087639.3, -14799.369, -0.01837115, -0.0027202026, -998900.0, 19488.477, 0.0, 5.018557, 4.962756 
4.73873e+2, 2.0104343e+2, -961455.7, -1054092.4, -15647.829, -0.020491071, 0.004622777, -958883.94, 10890.595, 0.0, 5.0176535, 4.9578414 
4.738481e+2, 2.0600186e+2, -913900.2, -1004077.8, -16106.773, -0.022431312, 0.0016736177, -911109.7, 10072.397, 0.0, 5.0167446, 4.9585238 
4.7382322e+2, 2.1096037e+2, -867257.9, -956051.9, -16354.275, -0.024353294, -0.0016007129, -864341.5, 8247.444, 0.0, 5.015836, 4.9585247 
4.7379833e+2, 2.1591888e+2, -821265.4, -909463.8, -16598.777, -0.02631569, -0.004714391, -818245.0, 5750.7476, 0.0, 5.0149264, 4.958027 
4.737737e+2, 2.2087467e+2, -781850.25, -877077.44, -16568.76, -0.02774207, 0.002840228, -779049.8, -3620.0227, 0.0, 5.0139766, 4.9526443 
4.7374928e+2, 2.258286e+2, -734420.06, -826256.9, -16759.732, -0.028173242, 0.0033899867, -731457.1, -4573.8867, 0.0, 5.0128317, 4.953672 
4.737248e+2, 2.3078261e+2, -688399.9, -778468.1, -16917.207, -0.02858314, 0.003126008, -685327.2, -6991.261, 0.0, 5.011666, 4.9536695 
4.737004e+2, 2.3573661e+2, -643010.2, -732105.2, -17069.684, -0.02898359, 0.0028432142, -639851.8, -10063.055, 0.0, 5.0105, 4.953165 
4.7367638e+2, 2.4068746e+2, -604905.8, -702565.94, -16408.225, -0.030158676, 0.013425331, -602222.75, -20950.006, 0.0, 5.0094604, 4.9467225 
4.7365296e+2, 2.4563597e+2, -556113.6, -651699.7, -16810.586, -0.032025214, 0.020049531, -553243.4, -20462.74, 0.0, 5.008876, 4.947456 
4.736295e+2, 2.5058457e+2, -508174.2, -603026.75, -17358.803, -0.034259032, 0.026373196, -505097.22, -20809.492, 0.0, 5.0083294, 4.947436 
4.7360605e+2, 2.5553322e+2, -460473.13, -554912.2, -17916.545, -0.03709752, 0.03311504, -457188.3, -21393.8, 0.0, 5.007778, 4.9472175 
4.7358397e+2, 2.6047897e+2, -421222.94, -526421.75, -15281.254, -0.041440148, 0.057568565, -419048.13, -31717.34, 0.0, 5.007322, 4.9399734 
4.7356418e+2, 2.6542118e+2, -369544.34, -470623.63, -13241.052, -0.07228991, 0.044317413, -367838.6, -28931.697, 0.0, 5.006993, 4.9420695 
4.7354472e+2, 2.7036276e+2, -320267.06, -420553.5, -12685.112, -0.10530337, 0.015486595, -318687.4, -28197.64, 0.0, 5.006651, 4.942346 
4.735257e+2, 2.753043e+2, -270974.72, -370689.6, -12189.816, -0.13362183, -0.019158315, -269506.2, -27432.861, 0.0, 5.0062923, 4.9425764 
4.7350585e+2, 2.8024295e+2, -242404.22, -368705.56, -16871.12, -0.14083974, 0.019695036, -240189.44, -46508.668, 0.0, 5.006638, 4.926001 
4.7349346e+2, 2.85179e+2, -185377.6, -288703.2, -11918.954, -0.10198339, 0.042995147, -184020.52, -38727.813, 0.0, 5.00512, 4.9369884 
4.734849e+2, 2.901131e+2, -142574.3, -241284.95, -12103.2, -0.06173283, 0.0023731673, -141111.95, -44191.664, 0.0, 5.0025787, 4.937155 
4.7347695e+2, 2.950465e+2, -99643.78, -193909.44, -12513.937, -0.0190527, -0.049890768, -98010.83, -49456.027, 0.0, 4.999981, 4.937322 
4.734705e+2, 2.999993e+2, -45833.723, -89618.67, -10130.279, 0.01884175, -0.05519817, -43603.53, -43593.94, 0.0, 4.997547, 4.9669724 
4.734716e+2, 3.0498168e+2, -49188.113, -88151.92, -9348.198, 0.05646135, 0.051977374, -47061.375, -47061.375, 0.0, 4.995857, 4.9674187 
4.7347635e+2, 3.0996698e+2, -51266.125, -84328.11, -11124.669, 0.113154255, 0.1663182, -47871.457, -47871.457, 0.0, 4.9941764, 4.9691873 
4.734837e+2, 3.149559e+2, -53115.66, -80739.32, -13463.85, 0.18796682, 0.2951981, -47639.1, -47639.1, 0.0, 4.992412, 4.970957 
4.792087e+2, 1.2152943e+2, -1670022.3, -1748388.3, -21.250673, 0.003321415, 0.007150362, -1670022.3, 78999.945, 0.0, 5.0323286, 4.981167 
4.7919595e+2, 1.2650827e+2, -1629050.5, -1711647.4, -3742.1982, 0.0041709086, 0.017857114, -1628881.3, 71345.79, 0.0, 5.0314493, 4.977611 
4.7918242e+2, 1.3148506e+2, -1582823.6, -1664064.9, -3956.8738, 0.002350135, 0.009164166, -1582631.4, 68822.63, 0.0, 5.03055, 4.9776106 
4.7916895e+2, 1.3646182e+2, -1538703.3, -1620835.0, -4143.3477, 0.00051947735, 0.0017058667, -1538494.8, 64186.465, 0.0, 5.0296483, 4.9761634 
4.7915375e+2, 1.4143664e+2, -1497158.8, -1583001.4, -7520.946, -0.0003198683, 0.010426451, -1496504.8, 57422.676, 0.0, 5.0287495, 4.972849 
4.7913563e+2, 1.4640985e+2, -1450205.8, -1534057.0, -8238.467, -0.0010976001, 0.0077577196, -1449404.0, 55784.613, 0.0, 5.0278597, 4.9732637 
4.7911736e+2, 1.5138303e+2, -1403848.5, -1486356.3, -8444.621, -0.002017391, 0.004266332, -1402993.0, 53457.055, 0.0, 5.026969, 4.973263 
4.7909915e+2, 1.563562e+2, -1358844.5, -1441501.8, -8629.368, -0.0029425337, 0.0012248792, -1357953.1, 49758.56, 0.0, 5.026078, 4.972306 
4.7907946e+2, 1.613262e+2, -1318582.8, -1406577.5, -11357.824, -0.0043927683, 0.0029450634, -1317140.4, 41863.645, 0.0, 5.025172, 4.968034 
4.7905725e+2, 1.6629429e+2, -1271763.8, -1357709.5, -12045.742, -0.0062141796, -0.0023942436, -1270107.4, 40206.848, 0.0, 5.024219, 4.9684215 
4.7903496e+2, 1.7126246e+2, -1225492.1, -1309988.5, -12239.908, -0.008013411, -0.007629813, -1223754.9, 37869.023, 0.0, 5.0232615, 4.968421 
4.790127e+2, 1.7623061e+2, -1180331.1, -1264636.9, -12425.012, -0.009822411, -0.012464606, -1178538.0, 34395.48, 0.0, 5.0223036, 4.96762 
4.789896e+2, 1.8119593e+2, -1140784.3, -1231346.8, -14067.2, -0.012152012, -0.007778639, -1138649.5, 25622.467, 0.0, 5.0213623, 4.9627285 
4.789648e+2, 1.861594e+2, -1093634.5, -1182057.6, -14579.969, -0.015806135, -0.0070790816, -1091292.5, 24338.742, 0.0, 5.020444, 4.963204 
4.7893998e+2, 1.9112293e+2, -1047141.06, -1134171.5, -14741.54, -0.01953546, -0.006452648, -1044711.9, 22278.193, 0.0, 5.019522, 4.9632025 
4.7891513e+2, 1.9608648e+2, -1001529.8, -1088188.4, -14898.501, -0.02327608, -0.0055429735, -999040.0, 19308.893, 0.0, 5.0185976, 4.962551 
4.7889003e+2, 2.0104702e+2, -961783.06, -1054909.4, -15744.806, -0.026304787, 0.0017790718, -959193.1, 10543.954, 0.0, 5.0176744, 4.9575562 
4.7886434e+2, 2.0600519e+2, -914314.75, -1004989.75, -16197.927, -0.027408885, -0.0008563334, -911508.06, 9639.47, 0.0, 5.0167456, 4.9582143 
4.7883862e+2, 2.1096341e+2, -867753.56, -957001.1, -16437.684, -0.028438201, -0.003836074, -864822.4, 7735.028, 0.0, 5.0158076, 4.958215 
4.7881293e+2, 2.1592164e+2, -821865.1, -910460.75, -16673.16, -0.029522557, -0.0066678235, -818831.2, 5135.9624, 0.0, 5.0148616, 4.957717 
4.7878736e+2, 2.2087716e+2, -782429.94, -877898.2, -16761.07, -0.030338978, 0.0010667413, -779572.8, -4168.8384, 0.0, 5.013887, 4.952406 
4.7876188e+2, 2.2583081e+2, -734752.6, -826892.44, -17077.932, -0.030012285, 0.000997656, -731689.1, -4829.349, 0.0, 5.012815, 4.9534616 
4.787364e+2, 2.3078455e+2, -688494.1, -778991.7, -17292.424, -0.029553063, 0.000021200574, -685302.44, -6987.5957, 0.0, 5.011731, 4.9534597 
4.7871092e+2, 2.3573826e+2, -642873.9, -732520.9, -17501.918, -0.029109713, -0.00095252215, -639578.1, -9808.209, 0.0, 5.010645, 4.952956 
4.7868592e+2, 2.406889e+2, -605016.06, -703907.2, -16505.182, -0.030223705, 0.010725706, -602334.06, -21077.941, 0.0, 5.0096703, 4.946168 
4.786616e+2, 2.456373e+2, -556540.1, -653478.0, -16552.566, -0.035007045, 0.022589942, -553791.7, -21024.838, 0.0, 5.009035, 4.9467697 
4.7863725e+2, 2.505858e+2, -508946.44, -604921.8, -16793.623, -0.0403802, 0.034239475, -506092.75, -21815.867, 0.0, 5.008366, 4.94676 
4.7861293e+2, 2.555343e+2, -461752.1, -556997.9, -16975.613, -0.046295058, 0.04629075, -458817.0, -23030.385, 0.0, 5.0076365, 4.946551 
4.785899e+2, 2.6047972e+2, -422618.72, -527029.1, -13811.525, -0.05499457, 0.07233978, -420822.63, -33496.523, 0.0, 5.00685, 4.9399505 
4.7856963e+2, 2.654203e+2, -372717.7, -470885.84, -11735.559, -0.08966684, 0.03507484, -371334.25, -32424.467, 0.0, 5.005665, 4.9425144 
4.785497e+2, 2.7035996e+2, -326804.84, -422596.97, -11610.955, -0.12670276, -0.020923141, -325417.6, -34915.117, 0.0, 5.004192, 4.9426785 
4.7853014e+2, 2.7529943e+2, -281544.66, -374749.53, -11851.533, -0.16027951, -0.08160012, -280061.28, -37964.65, 0.0, 5.0024652, 4.942797 
4.7850886e+2, 2.8023735e+2, -260705.63, -385707.56, -18803.596, -0.17491308, -0.0329128, -257938.33, -64232.457, 0.0, 5.0018296, 4.9220686 
4.7849467e+2, 2.8517482e+2, -194737.63, -295236.63, -13269.325, -0.13263293, 0.022519354, -193015.14, -47700.223, 0.0, 5.002038, 4.9358616 
4.7848475e+2, 2.9011014e+2, -147634.0, -246418.31, -12577.409, -0.08568933, -0.0029442583, -146057.78, -49113.254, 0.0, 5.001086, 4.9359083 
4.7847542e+2, 2.9504487e+2, -101941.01, -198286.08, -12161.775, -0.037194397, -0.036899637, -100429.52, -51849.688, 0.0, 4.999545, 4.9359546 
4.784673e+2, 2.999983e+2, -47033.477, -93787.84, -8696.79, 0.0011121487, -0.02775094, -45468.188, -45428.1, 0.0, 4.9975314, 4.9655867 
4.784655e+2, 3.0497813e+2, -54055.8, -94748.586, -7664.4253, 0.018310204, 0.05965506, -52660.086, -52660.086, 0.0, 4.9945774, 4.965664 
4.7846687e+2, 3.0995917e+2, -63649.5, -94960.72, -10502.311, 0.04766238, 0.13836913, -60453.145, -60453.145, 0.0, 4.9902625, 4.96713 
4.784706e+2, 3.1494266e+2, -76394.08, -96781.555, -14858.576, 0.090422876, 0.22223826, -68568.67, -68568.67, 0.0, 4.984669, 4.968601 
4.8424247e+2, 1.2153919e+2, -1663080.4, -1745882.3, 1301.1821, 0.0035437264, 0.003989975, -1663059.9, 85865.734, 0.0, 5.034851, 4.980754 
4.8422858e+2, 1.2651806e+2, -1622422.5, -1708928.8, -2302.3357, 0.0034447624, 0.017711526, -1622361.3, 77769.18, 0.0, 5.033789, 4.9773607 
4.842142e+2, 1.3149457e+2, -1576650.3, -1661581.5, -2499.2178, 0.0022293876, 0.008725349, -1576576.8, 74783.41, 0.0, 5.032743, 4.9773602 
4.8419973e+2, 1.3647103e+2, -1532973.4, -1618578.0, -2667.7263, 0.0010079168, 0.0009943597, -1532890.3, 69699.9, 0.0, 5.031697, 4.9759135 
4.8418358e+2, 1.4144559e+2, -1491811.0, -1580878.6, -6010.272, 0.0005631704, 0.009460271, -1491407.4, 62431.633, 0.0, 5.030658, 4.972626 
4.8416448e+2, 1.4641859e+2, -1445260.4, -1532153.6, -6686.3477, -0.00023832574, 0.006876618, -1444748.9, 60353.383, 0.0, 5.0296397, 4.9730353 
4.8414525e+2, 1.5139154e+2, -1399294.0, -1484653.0, -6863.9663, -0.0011909525, 0.0035077434, -1398745.5, 57620.42, 0.0, 5.0286207, 4.973034 
4.8412606e+2, 1.5636449e+2, -1354675.1, -1439990.6, -7018.0293, -0.0021393325, 0.000591112, -1354101.6, 53528.08, 0.0, 5.027602, 4.972078 
4.8410544e+2, 1.6133428e+2, -1314755.0, -1405257.1, -9743.302, -0.0035065555, 0.0023992264, -1313718.0, 45206.24, 0.0, 5.026585, 4.9677978 
4.8408228e+2, 1.6630211e+2, -1268165.8, -1356528.4, -10438.251, -0.0049800347, -0.0030013465, -1266949.5, 43287.563, 0.0, 5.025561, 4.9681764 
4.8405907e+2, 1.7126998e+2, -1222101.1, -1308912.4, -10644.235, -0.0064144656, -0.008324962, -1220815.0, 40734.176, 0.0, 5.0245357, 4.9681764 
4.840358e+2, 1.7623788e+2, -1177141.6, -1263660.9, -10840.393, -0.007852826, -0.013263793, -1175804.0, 37057.332, 0.0, 5.02351, 4.9673758 
4.840117e+2, 1.8120295e+2, -1137784.6, -1230360.4, -12485.467, -0.010017683, -0.008957379, -1136130.3, 28072.006, 0.0, 5.022483, 4.96253 
4.8398593e+2, 1.8616612e+2, -1091000.3, -1181239.8, -12995.552, -0.013946408, -0.009182739, -1089166.0, 26397.73, 0.0, 5.021439, 4.96301 
4.839601e+2, 1.9112939e+2, -1044870.4, -1133530.3, -13159.418, -0.017928418, -0.009487434, -1042958.4, 23966.408, 0.0, 5.020394, 4.963009 
4.8393422e+2, 1.9609262e+2, -999611.9, -1087717.3, -13318.361, -0.021880684, -0.009497917, -997642.6, 20643.213, 0.0, 5.019348, 4.9623575 
4.8390815e+2, 2.0105289e+2, -960271.2, -1054784.8, -14142.839, -0.025059199, -0.0026024668, -958200.3, 11475.902, 0.0, 5.018317, 4.9572954 
4.8388144e+2, 2.0601083e+2, -913076.7, -1005049.6, -14583.789, -0.026373096, -0.004537584, -910819.56, 10269.453, 0.0, 5.017306, 4.95793 
4.838547e+2, 2.1096884e+2, -866730.5, -957164.3, -14816.881, -0.027595256, -0.0068357633, -864364.75, 8136.553, 0.0, 5.016294, 4.957931 
4.83828e+2, 2.1592686e+2, -821032.2, -910715.2, -15045.748, -0.028828353, -0.0090566985, -818575.3, 5338.231, 0.0, 5.015282, 4.9574327 
4.8380142e+2, 2.2088207e+2, -781729.06, -878201.44, -15166.662, -0.029877616, -0.001354883, -779400.9, -4047.6401, 0.0, 5.0142603, 4.9521284 
4.8377487e+2, 2.2583535e+2, -734008.8, -827322.2, -15556.675, -0.030086778, -0.0018820068, -731483.6, -4670.9, 0.0, 5.01323, 4.953123 
4.837483e+2, 2.307887e+2, -687583.56, -779357.9, -15854.544, -0.030160349, -0.0032225146, -684921.8, -6650.257, 0.0, 5.0122023, 4.9531183 
4.8372173e+2, 2.3574203e+2, -641789.6, -732823.3, -16147.148, -0.030231144, -0.0046077617, -639010.4, -9279.891, 0.0, 5.011174, 4.952612 
4.8369578e+2, 2.4069233e+2, -603879.94, -704062.9, -14972.124, -0.031762555, 0.0070929155, -601690.25, -20470.246, 0.0, 5.0101786, 4.9458904 
4.836707e+2, 2.4564059e+2, -555619.56, -653460.2, -14815.848, -0.036867853, 0.019974206, -553425.2, -20692.402, 0.0, 5.009433, 4.946593 
4.836457e+2, 2.5058895e+2, -508115.2, -604732.9, -14982.326, -0.041828703, 0.03212285, -505845.22, -21600.293, 0.0, 5.008718, 4.9466443 
4.8362076e+2, 2.5553733e+2, -460846.22, -556563.8, -15166.413, -0.046498198, 0.044048525, -458500.6, -22743.852, 0.0, 5.007998, 4.9464974 
4.8359713e+2, 2.6048246e+2, -421372.38, -525787.4, -12350.692, -0.052983336, 0.06673179, -419931.38, -32632.523, 0.0, 5.0072336, 4.9401655 
4.8357666e+2, 2.6542318e+2, -371669.7, -470042.3, -11148.761, -0.07730687, 0.030996935, -370422.0, -31545.684, 0.0, 5.0060706, 4.94263 
4.835565e+2, 2.7036345e+2, -325372.8, -421901.75, -11449.83, -0.10239546, -0.015594268, -324033.28, -33575.91, 0.0, 5.004833, 4.942671 
4.8353663e+2, 2.7530393e+2, -279081.25, -373907.53, -11746.385, -0.12434469, -0.0612211, -277647.88, -35610.85, 0.0, 5.0035796, 4.942664 
4.8351485e+2, 2.802427e+2, -253261.08, -382884.25, -14306.07, -0.14055122, 0.000010214626, -251700.95, -58067.934, 0.0, 5.0040956, 4.922215 
4.8349896e+2, 2.851786e+2, -188185.78, -295902.13, -9207.213, -0.11594887, 0.039831188, -187404.45, -42144.973, 0.0, 5.0040293, 4.9351397 
4.83487e+2, 2.9011244e+2, -143127.8, -247679.06, -9917.586, -0.07905197, 0.004111127, -142195.34, -45289.3, 0.0, 5.002447, 4.9353156 
4.8347566e+2, 2.9504645e+2, -98015.39, -199462.84, -10670.487, -0.037844304, -0.031278946, -96905.195, -48354.367, 0.0, 5.0008054, 4.9354916 
4.834654e+2, 2.9999924e+2, -42543.293, -94047.234, -8453.517, -0.0040812283, -0.020446071, -41191.28, -41171.574, 0.0, 4.9992013, 4.965292 
4.8346114e+2, 3.0497846e+2, -44807.363, -92358.04, -7052.487, 0.009874838, 0.07077989, -43783.42, -43783.42, 0.0, 4.998097, 4.965559 
4.8345977e+2, 3.0995917e+2, -46368.273, -90648.53, -7660.551, 0.03858972, 0.16364357, -45080.44, -45080.44, 0.0, 4.9970813, 4.9664116 
4.834603e+2, 3.1494185e+2, -47825.74, -89044.04, -8578.571, 0.08328904, 0.26741654, -46111.605, -46111.605, 0.0, 4.9959936, 4.967264 
4.8927736e+2, 1.2154996e+2, -1663732.4, -1747220.6, 320.4383, 0.0041079223, -0.00061471795, -1663731.1, 85088.31, 0.0, 5.0348506, 4.980315 
4.8926222e+2, 1.2652914e+2, -1622782.4, -1709687.6, -3094.1892, 0.0023010904, 0.019044887, -1622672.4, 77348.875, 0.0, 5.0337915, 4.977112 
4.8924685e+2, 1.315053e+2, -1577007.3, -1662338.4, -3290.5508, 0.0019484077, 0.009094483, -1576880.6, 74373.81, 0.0, 5.032746, 4.977111 
4.8923147e+2, 1.3648143e+2, -1533328.1, -1619334.3, -3461.157, 0.0015803683, 0.00039853647, -1533189.0, 69298.76, 0.0, 5.0316997, 4.9756637 
4.8921433e+2, 1.4145568e+2, -1492116.8, -1581540.8, -6796.3506, 0.0016460015, 0.008138073, -1491603.1, 62136.313, 0.0, 5.0306616, 4.972408 
4.8919418e+2, 1.4642845e+2, -1445569.3, -1532825.3, -7458.272, 0.00066655554, 0.0056637498, -1444936.4, 60068.42, 0.0, 5.0296435, 4.972813 
4.8917395e+2, 1.5140119e+2, -1399600.8, -1485323.0, -7635.7183, -0.00049562746, 0.002457393, -1398926.0, 57344.42, 0.0, 5.0286245, 4.9728117 
4.8915368e+2, 1.5637395e+2, -1354977.8, -1440654.4, -7789.501, -0.0016563338, -0.00029417095, -1354275.4, 53260.75, 0.0, 5.027606, 4.971857 
4.8913202e+2, 1.6134351e+2, -1315083.6, -1405980.8, -10527.723, -0.003005667, 0.0016845481, -1313880.3, 44952.344, 0.0, 5.0265894, 4.967557 
4.8910788e+2, 1.6631112e+2, -1268512.4, -1357293.6, -11216.358, -0.0039048493, -0.0035991825, -1267117.3, 43030.49, 0.0, 5.0255656, 4.9679203 
4.890837e+2, 1.7127876e+2, -1222445.4, -1309675.9, -11422.141, -0.0047490923, -0.008811694, -1220974.6, 40487.91, 0.0, 5.0245404, 4.9679203 
4.890595e+2, 1.7624642e+2, -1177482.8, -1264420.8, -11617.313, -0.005603528, -0.01363631, -1175957.1, 36820.074, 0.0, 5.0235147, 4.9671206 
4.890344e+2, 1.8121122e+2, -1138051.6, -1230978.4, -13280.401, -0.0073162303, -0.009610859, -1136190.9, 27929.523, 0.0, 5.0224895, 4.9623227 
4.890076e+2, 1.8617406e+2, -1091255.8, -1181839.8, -13789.862, -0.011048749, -0.011015065, -1089203.0, 26281.307, 0.0, 5.021446, 4.9628077 
4.889807e+2, 1.9113699e+2, -1045124.9, -1134130.5, -13952.712, -0.014856847, -0.012520412, -1042988.9, 23858.785, 0.0, 5.020401, 4.962806 
4.8895386e+2, 1.9609994e+2, -999865.5, -1088317.9, -14110.53, -0.018649908, -0.013717472, -997669.0, 20542.014, 0.0, 5.019356, 4.962155 
4.8892674e+2, 2.0105991e+2, -960608.9, -1055564.3, -14919.793, -0.021956848, -0.0073859273, -958319.8, 11283.798, 0.0, 5.0183244, 4.9570313 
4.8889893e+2, 2.0601766e+2, -913442.8, -1005888.25, -15354.015, -0.024081957, -0.008494452, -910959.44, 10059.229, 0.0, 5.017312, 4.957645 
4.8887113e+2, 2.1097547e+2, -867096.0, -958001.1, -15585.818, -0.026165543, -0.009893781, -864498.06, 7935.025, 0.0, 5.0162997, 4.957646 
4.8884332e+2, 2.159333e+2, -821397.25, -911550.3, -15813.316, -0.028275648, -0.011191956, -818703.94, 5143.5815, 0.0, 5.0152874, 4.9571476 
4.8881564e+2, 2.2088824e+2, -782101.5, -879100.5, -15969.427, -0.030018365, -0.0033942151, -779540.06, -4249.998, 0.0, 5.0142717, 4.95182 
4.8878804e+2, 2.2584106e+2, -734458.9, -828406.9, -16349.666, -0.030500425, -0.0048132674, -731694.9, -4940.8296, 0.0, 5.0132427, 4.9527507 
4.887604e+2, 2.3079397e+2, -688037.1, -780442.1, -16640.861, -0.030866051, -0.0068788603, -685131.7, -6914.3433, 0.0, 5.012213, 4.952746 
4.8873278e+2, 2.3574686e+2, -642246.7, -733907.3, -16926.713, -0.0312536, -0.008941649, -639220.8, -9540.095, 0.0, 5.0111833, 4.9522395 
4.8870584e+2, 2.4069683e+2, -604172.56, -704788.2, -15615.397, -0.032994796, 0.002870958, -601804.8, -20631.336, 0.0, 5.010185, 4.9456515 
4.8868e+2, 2.4564502e+2, -555804.3, -654037.3, -15365.23, -0.03914604, 0.01723234, -553457.06, -20769.719, 0.0, 5.0094466, 4.9464116 
4.886542e+2, 2.505933e+2, -508272.38, -605332.9, -15514.885, -0.04546455, 0.030873392, -505852.7, -21652.158, 0.0, 5.0087423, 4.946452 
4.8862845e+2, 2.5554162e+2, -460975.84, -557186.75, -15682.133, -0.05160838, 0.044335194, -458484.22, -22770.77, 0.0, 5.008033, 4.946295 
4.8860413e+2, 2.6048625e+2, -421179.5, -525866.8, -12900.953, -0.05824038, 0.06385389, -419613.13, -32353.307, 0.0, 5.007286, 4.9401774 
4.885836e+2, 2.6542616e+2, -371400.53, -470052.06, -11662.064, -0.073231705, 0.023300603, -370040.66, -31198.43, 0.0, 5.0061345, 4.9427056 
4.8856348e+2, 2.7036583e+2, -325048.47, -421792.34, -11864.43, -0.088387534, -0.02593672, -323614.7, -33188.816, 0.0, 5.0049005, 4.942776 
4.8854357e+2, 2.7530566e+2, -278702.3, -373679.63, -12062.271, -0.101587705, -0.074706815, -277194.3, -35186.277, 0.0, 5.00365, 4.942799 
4.8852214e+2, 2.8024378e+2, -250849.17, -376489.9, -13073.558, -0.11962, -0.032648362, -249503.22, -55895.89, 0.0, 5.0039687, 4.9244986 
4.885046e+2, 2.8517935e+2, -190303.52, -299350.1, -10447.105, -0.104819976, 0.0047297725, -189311.66, -44078.1, 0.0, 5.0037656, 4.93411 
4.8849002e+2, 2.9011306e+2, -145115.47, -251037.89, -10993.05, -0.07454219, -0.01742513, -143986.6, -47108.24, 0.0, 5.002209, 4.9342923 
4.8847595e+2, 2.9504696e+2, -99873.52, -202733.25, -11581.498, -0.042148866, -0.039715584, -98585.625, -50064.145, 0.0, 5.000592, 4.934474 
4.8846295e+2, 2.9999834e+2, -43998.438, -97239.48, -8849.481, -0.02097458, -0.027146462, -42566.055, -42565.3, 0.0, 4.999104, 4.9641967 
4.88456e+2, 3.0497405e+2, -43589.664, -91488.055, -6670.393, -0.03053303, 0.030731935, -42678.086, -42678.086, 0.0, 4.9982905, 4.9658165 
4.8845187e+2, 3.0995163e+2, -44350.773, -89699.664, -6919.858, -0.030556282, 0.0873615, -43318.363, -43318.363, 0.0, 4.99752, 4.9665937 
4.8844942e+2, 3.1493062e+2, -45008.453, -88016.664, -7479.2637, -0.019633347, 0.14900659, -43744.906, -43744.906, 0.0, 4.9966784, 4.9673715 
4.9431226e+2, 1.2156069e+2, -1664306.9, -1748402.4, -647.1824, 0.004478792, -0.0053368853, -1664302.0, 84411.46, 0.0, 5.0348506, 4.9799285 
4.942959e+2, 1.2654023e+2, -1623142.3, -1710446.8, -3885.7588, 0.0011529359, 0.020398965, -1622969.6, 76942.43, 0.0, 5.033794, 4.9768624 
4.9427956e+2, 1.3151604e+2, -1577364.3, -1663095.4, -4081.5999, 0.0016622319, 0.009471265, -1577170.4, 73978.25, 0.0, 5.032748, 4.9768615 
4.942632e+2, 1.3649182e+2, -1533682.8, -1620090.8, -4254.382, 0.002146882, -0.00020270726, -1533473.8, 68911.516, 0.0, 5.031703, 4.975414 
4.9424508e+2, 1.4146575e+2, -1492426.6, -1582212.4, -7582.219, 0.0027255493, 0.006826031, -1491790.9, 61849.1, 0.0, 5.0306654, 4.9721856 
4.9422386e+2, 1.4643833e+2, -1445877.9, -1533497.4, -8230.002, 0.0015695171, 0.004460218, -1445111.6, 59795.633, 0.0, 5.0296474, 4.9725904 
4.942026e+2, 1.5141088e+2, -1399907.5, -1485993.4, -8407.277, 0.00019881295, 0.0014085518, -1399094.1, 57080.71, 0.0, 5.028629, 4.972589 
4.941813e+2, 1.5638341e+2, -1355280.3, -1441318.5, -8560.803, -0.0011731858, -0.0011857654, -1354436.8, 53005.664, 0.0, 5.0276103, 4.971636 
4.9415863e+2, 1.6135277e+2, -1315413.9, -1406708.8, -11311.714, -0.0025088356, 0.0009749514, -1314033.3, 44707.68, 0.0, 5.026594, 4.9673147 
4.941335e+2, 1.6632013e+2, -1268859.0, -1358059.3, -11994.211, -0.0028337936, -0.004192527, -1267274.4, 42784.246, 0.0, 5.0255704, 4.9676647 
4.9410838e+2, 1.7128754e+2, -1222789.6, -1310439.6, -12199.793, -0.0030860174, -0.0093001565, -1221123.3, 40252.53, 0.0, 5.024545, 4.9676642 
4.940832e+2, 1.7625493e+2, -1177823.8, -1265180.9, -12393.973, -0.0033546975, -0.014016776, -1176099.4, 36593.645, 0.0, 5.02352, 4.966865 
4.9405712e+2, 1.8121947e+2, -1138323.6, -1231607.1, -14073.174, -0.0046126326, -0.010262062, -1136246.6, 27792.0, 0.0, 5.022496, 4.962111 
4.9402928e+2, 1.8618202e+2, -1091511.3, -1182439.9, -14583.633, -0.00814276, -0.0128562115, -1089229.5, 26175.295, 0.0, 5.0214534, 4.9626055 
4.9400142e+2, 1.9114462e+2, -1045379.5, -1134730.9, -14745.466, -0.011769519, -0.015580784, -1043009.0, 23761.604, 0.0, 5.020408, 4.9626036 
4.9397352e+2, 1.9610722e+2, -1000119.2, -1088918.8, -14902.161, -0.0153959505, -0.017982978, -997685.06, 20451.21, 0.0, 5.019363, 4.9619513 
4.939453e+2, 2.0106693e+2, -960951.56, -1056354.9, -15695.573, -0.018870857, -0.012145565, -958435.7, 11095.364, 0.0, 5.018331, 4.956763 
4.9391642e+2, 2.0602447e+2, -913809.06, -1006727.06, -16124.3955, -0.021828808, -0.012421925, -911090.5, 9857.752, 0.0, 5.0173182, 4.9573593 
4.938875e+2, 2.1098208e+2, -867461.7, -958838.06, -16354.911, -0.024775222, -0.012954487, -864622.6, 7742.2305, 0.0, 5.0163054, 4.9573603 
4.938586e+2, 2.1593972e+2, -821762.4, -912385.56, -16581.041, -0.027763734, -0.013361963, -818823.9, 4957.6147, 0.0, 5.0152926, 4.956862 
4.9382985e+2, 2.2089441e+2, -782515.06, -880089.2, -16763.041, -0.030201867, -0.0053384337, -779715.56, -4488.6045, 0.0, 5.014283, 4.9514804 
4.9380118e+2, 2.2584677e+2, -734909.75, -829491.56, -17142.738, -0.030946724, -0.0077121747, -731898.56, -5203.0854, 0.0, 5.013255, 4.9523764 
4.9377248e+2, 2.3079921e+2, -688491.5, -781526.3, -17427.258, -0.03158628, -0.01066196, -685334.2, -7170.8833, 0.0, 5.0122237, 4.952372 
4.9374384e+2, 2.3575164e+2, -642704.6, -734991.25, -17706.36, -0.032272458, -0.013561269, -639424.0, -9792.907, 0.0, 5.0111923, 4.9518657 
4.937159e+2, 2.4070135e+2, -604487.8, -705552.06, -16264.14, -0.03411614, -0.0011764218, -601934.94, -20808.203, 0.0, 5.0101905, 4.9453974 
4.9368927e+2, 2.4564949e+2, -555997.0, -654607.3, -15898.746, -0.041258305, 0.014747319, -553497.06, -20855.605, 0.0, 5.0094604, 4.946227 
4.936627e+2, 2.505977e+2, -508437.44, -605925.75, -16031.586, -0.048928775, 0.0295856, -505868.78, -21712.965, 0.0, 5.0087667, 4.946257 
4.9363616e+2, 2.5554588e+2, -461113.28, -557802.5, -16182.006, -0.056541227, 0.044288617, -458476.94, -22806.98, 0.0, 5.0080676, 4.946089 
4.9361125e+2, 2.6049015e+2, -421140.97, -526242.6, -13459.638, -0.062356222, 0.06177365, -419444.7, -32224.74, 0.0, 5.007339, 4.940074 
4.9359065e+2, 2.6542923e+2, -371158.63, -470037.72, -12215.005, -0.06813306, 0.016128171, -369672.0, -30864.842, 0.0, 5.0061984, 4.942761 
4.9357054e+2, 2.7036822e+2, -324751.16, -421658.72, -12318.677, -0.07429247, -0.037303705, -323209.75, -32815.836, 0.0, 5.0049677, 4.942861 
4.9355054e+2, 2.7530742e+2, -278350.22, -373427.34, -12417.823, -0.07967885, -0.09076391, -276755.13, -34775.98, 0.0, 5.003721, 4.942913 
4.9352935e+2, 2.802448e+2, -249260.17, -371957.4, -12265.844, -0.09860014, -0.06546841, -248045.98, -54463.832, 0.0, 5.003844, 4.9261246 
4.9350992e+2, 2.8518e+2, -192516.28, -302707.53, -11703.466, -0.093080685, -0.029313298, -191286.97, -46077.914, 0.0, 5.003503, 4.933061 
4.9349266e+2, 2.9011348e+2, -147198.02, -254305.8, -12084.892, -0.07042174, -0.039893422, -145851.42, -48998.32, 0.0, 5.0019712, 4.933249 
4.934759e+2, 2.950471e+2, -101826.32, -205912.4, -12508.805, -0.047840916, -0.051072277, -100344.15, -51848.617, 0.0, 5.0003796, 4.933437 
4.934601e+2, 2.9999703e+2, -45846.867, -101024.266, -9069.032, -0.04224746, -0.03712855, -44394.5, -44394.5, 0.0, 4.9990067, 4.962823 
4.9345064e+2, 3.049691e+2, -42483.484, -90508.664, -6150.0903, -0.07780508, -0.015613394, -41708.414, -41708.414, 0.0, 4.9984837, 4.966007 
4.93444e+2, 3.099433e+2, -42444.97, -88641.68, -6041.127, -0.10755923, -0.00073840475, -41668.04, -41668.04, 0.0, 4.9979596, 4.966709 
4.9343893e+2, 3.1491837e+2, -42303.24, -86880.43, -6242.1685, -0.1314028, 0.0132638365, -41445.64, -41445.64, 0.0, 4.9973636, 4.967411 
4.9934712e+2, 1.2157162e+2, -1663756.9, -1748956.4, -868.7221, 0.00436506, -0.009218895, -1663748.1, 84857.52, 0.0, 5.0352116, 4.9795704 
4.993296e+2, 1.2655139e+2, -1622517.4, -1710714.6, -3983.3696, 0.00008397361, 0.021324687, -1622337.8, 77464.53, 0.0, 5.0341263, 4.976613 
4.9931228e+2, 1.3152687e+2, -1576888.9, -1663437.4, -4185.7915, 0.0013999613, 0.0096750045, -1576686.9, 74355.07, 0.0, 5.0330305, 4.976612 
4.99295e+2, 1.3650234e+2, -1533357.1, -1620507.3, -4366.4854, 0.0026988275, -0.00073388405, -1533138.9, 69142.97, 0.0, 5.0319347, 4.9751644 
4.992758e+2, 1.4147596e+2, -1492198.8, -1582616.6, -7685.8745, 0.003792866, 0.005740439, -1491550.1, 61989.19, 0.0, 5.03085, 4.971964 
4.992536e+2, 1.4644831e+2, -1445766.0, -1533952.1, -8314.456, 0.0025119528, 0.0034112432, -1444989.0, 59819.65, 0.0, 5.0297914, 4.972371 
4.9923125e+2, 1.5142065e+2, -1399911.1, -1486503.6, -8485.921, 0.0009850066, 0.00042938563, -1399087.4, 56990.78, 0.0, 5.0287337, 4.9723697 
4.9920896e+2, 1.5639298e+2, -1355393.9, -1441877.6, -8632.462, -0.0005466564, -0.0020927896, -1354540.6, 52807.12, 0.0, 5.0276766, 4.9714184 
4.9918523e+2, 1.6136214e+2, -1315642.5, -1407378.6, -11383.8545, -0.0018556656, 0.00021156334, -1314251.0, 44397.266, 0.0, 5.026632, 4.967074 
4.9915916e+2, 1.6632923e+2, -1269138.6, -1358782.0, -12053.568, -0.0016581843, -0.0048148828, -1267546.1, 42422.23, 0.0, 5.025596, 4.9674115 
4.9913302e+2, 1.712964e+2, -1223104.9, -1311179.1, -12252.66, -0.0013591442, -0.009803837, -1221432.1, 39855.99, 0.0, 5.024558, 4.967411 
4.991069e+2, 1.7626357e+2, -1178177.4, -1265936.8, -12438.819, -0.0010709572, -0.014408536, -1176448.4, 36159.387, 0.0, 5.0235186, 4.966613 
4.9907982e+2, 1.8122785e+2, -1138649.4, -1232254.5, -14121.291, -0.001872979, -0.010910679, -1136565.5, 27390.398, 0.0, 5.022484, 4.9619007 
4.99051e+2, 1.8619008e+2, -1091829.3, -1183052.6, -14626.556, -0.005148858, -0.0146877915, -1089541.5, 25782.879, 0.0, 5.0214367, 4.962408 
4.9902207e+2, 1.9115236e+2, -1045713.9, -1135349.9, -14778.306, -0.008534379, -0.018633084, -1043340.2, 23352.22, 0.0, 5.0203857, 4.9624057 
4.9899316e+2, 1.9611464e+2, -1000476.9, -1089547.3, -14922.4, -0.011929238, -0.022245068, -998043.3, 20017.113, 0.0, 5.019332, 4.961754 
4.9896392e+2, 2.0107406e+2, -961441.8, -1057206.9, -15683.85, -0.01555663, -0.01683543, -958938.6, 10518.684, 0.0, 5.018288, 4.9564943 
4.9893394e+2, 2.0603141e+2, -914370.6, -1007650.3, -16114.953, -0.019330204, -0.01628041, -911665.06, 9211.622, 0.0, 5.0172577, 4.957073 
4.9890393e+2, 2.1098883e+2, -868080.44, -959788.56, -16352.671, -0.023080466, -0.016028045, -865251.8, 7043.8013, 0.0, 5.016223, 4.957074 
4.9887392e+2, 2.1594624e+2, -822447.75, -913367.4, -16584.77, -0.026864652, -0.015676137, -819516.94, 4197.5693, 0.0, 5.0151854, 4.9565754 
4.988441e+2, 2.2090064e+2, -783329.3, -881296.44, -16765.705, -0.029937634, -0.007418097, -780539.56, -5376.461, 0.0, 5.0141616, 4.9511228 
4.9881437e+2, 2.2585255e+2, -735674.7, -830670.44, -17105.37, -0.030982804, -0.0108275665, -732688.44, -6052.3984, 0.0, 5.0131497, 4.9520187 
4.9878463e+2, 2.3080455e+2, -689216.6, -782678.5, -17330.992, -0.031909674, -0.014848225, -686106.4, -7998.072, 0.0, 5.0121317, 4.9520154 
4.9875492e+2, 2.3575655e+2, -643401.56, -736121.25, -17545.393, -0.032883395, -0.018795826, -640192.5, -10611.949, 0.0, 5.01111, 4.95151 
4.98726e+2, 2.4070603e+2, -605176.56, -706459.5, -15933.594, -0.03467699, -0.005477103, -602729.06, -21650.473, 0.0, 5.010073, 4.9451385 
4.986986e+2, 2.4565412e+2, -557146.94, -655582.3, -15463.88, -0.042425588, 0.0122193005, -554774.75, -22180.906, 0.0, 5.0091467, 4.946037 
4.9867123e+2, 2.5060222e+2, -510287.66, -607266.5, -15617.988, -0.051024497, 0.02807875, -507834.5, -23725.002, 0.0, 5.0082073, 4.946053 
4.9864393e+2, 2.5555032e+2, -463770.28, -559551.6, -15794.489, -0.059636876, 0.043767784, -461232.97, -25607.92, 0.0, 5.007225, 4.9458714 
4.9861848e+2, 2.6049423e+2, -424707.7, -528415.2, -13143.212, -0.06343099, 0.060561452, -423067.94, -35889.984, 0.0, 5.006177, 4.939869 
4.9859774e+2, 2.654327e+2, -375547.25, -472015.6, -11915.225, -0.06057998, 0.010766103, -374097.34, -35328.727, 0.0, 5.004645, 4.942809 
4.9857736e+2, 2.7037108e+2, -330699.53, -424240.94, -11928.562, -0.058912538, -0.047279827, -329202.34, -38844.375, 0.0, 5.0028524, 4.942937 
4.9855712e+2, 2.7530962e+2, -286344.1, -376822.13, -11925.147, -0.057381712, -0.106068745, -284798.75, -42852.797, 0.0, 5.000871, 4.9430165 
4.9853587e+2, 2.8024635e+2, -258532.77, -373800.63, -10702.227, -0.0760509, -0.09472517, -257547.53, -63994.848, 0.0, 5.0001707, 4.927115 
4.9851462e+2, 2.8518108e+2, -201296.31, -309074.06, -11697.188, -0.08024738, -0.058161613, -200041.42, -54860.406, 0.0, 5.0009227, 4.931975 
4.9849483e+2, 2.9011416e+2, -152823.81, -259259.11, -12140.465, -0.06649225, -0.058983106, -151456.6, -54630.97, 0.0, 5.0004873, 4.932157 
4.9847546e+2, 2.950474e+2, -105890.95, -210155.67, -12682.716, -0.05398356, -0.06141919, -104370.41, -55901.047, 0.0, 4.999441, 4.9323397 
4.9845684e+2, 2.999957e+2, -50780.74, -106471.76, -8443.181, -0.06473769, -0.04675305, -49528.83, -49528.83, 0.0, 4.9979057, 4.96128 
4.984452e+2, 3.0496442e+2, -50724.016, -93107.93, -4833.3843, -0.12346642, -0.060431454, -50179.813, -50179.813, 0.0, 4.9953594, 4.9662976 
4.9843645e+2, 3.099357e+2, -60278.17, -95518.63, -4693.949, -0.17682311, -0.08422532, -59663.664, -59663.664, 0.0, 4.9913983, 4.9669385 
4.98429e+2, 3.1490767e+2, -73183.02, -99494.95, -5006.485, -0.22764447, -0.110728845, -72262.62, -72262.62, 0.0, 4.986143, 4.9675794 
5.043834e+2, 1.2158649e+2, -1656595.4, -1746564.8, 1117.5912, 0.00053154625, -0.002783337, -1656581.5, 91878.45, 0.0, 5.037859, 4.9790597 
5.04365e+2, 1.2656493e+2, -1615441.1, -1707778.1, -2163.4033, -0.00035184424, 0.017515622, -1615390.4, 84279.4, 0.0, 5.0366206, 4.97636 
5.0434655e+2, 1.3154036e+2, -1570366.6, -1660783.8, -2373.3525, 0.0013342551, 0.007958808, -1570304.4, 80605.695, 0.0, 5.0353446, 4.9763594 
5.043281e+2, 1.3651577e+2, -1527385.0, -1618134.8, -2563.922, 0.0030217199, -0.00037673226, -1527312.6, 74837.93, 0.0, 5.0340686, 4.974911 
5.0430775e+2, 1.4148927e+2, -1486666.1, -1580341.4, -5849.6045, 0.004541965, 0.0071765846, -1486302.3, 67107.05, 0.0, 5.0328107, 4.971766 
5.0428444e+2, 1.4646135e+2, -1440708.1, -1531905.6, -6446.943, 0.0037378368, 0.0041611367, -1440254.6, 64426.28, 0.0, 5.031594, 4.972179 
5.0426096e+2, 1.5143341e+2, -1395333.9, -1484698.6, -6605.216, 0.0026767212, 0.0004587383, -1394848.4, 61104.47, 0.0, 5.030377, 4.972178 
5.042376e+2, 1.5640546e+2, -1351294.9, -1440307.9, -6738.207, 0.0016062164, -0.0027827, -1350787.6, 56437.176, 0.0, 5.02916, 4.971228 
5.0421274e+2, 1.6137438e+2, -1311972.9, -1406035.0, -9433.607, 0.00054466835, -0.00089159457, -1311036.1, 47491.344, 0.0, 5.027972, 4.9668794 
5.0418556e+2, 1.663413e+2, -1265803.0, -1357636.4, -10051.049, 0.0005621783, -0.005588135, -1264715.8, 45133.742, 0.0, 5.0268316, 4.9672036 
5.041583e+2, 1.713083e+2, -1220075.5, -1310187.4, -10214.93, 0.0006854572, -0.010228336, -1218932.0, 42239.02, 0.0, 5.025691, 4.9672027 
5.041311e+2, 1.7627527e+2, -1175446.9, -1265092.4, -10363.915, 0.0008189965, -0.01449934, -1174264.3, 38228.39, 0.0, 5.024551, 4.966405 
5.0410295e+2, 1.8123934e+2, -1136141.6, -1231429.3, -12004.483, 0.00014764727, -0.011038748, -1134652.5, 29190.172, 0.0, 5.0234203, 4.9617333 
5.040731e+2, 1.862013e+2, -1089550.4, -1182329.8, -12487.797, -0.0023241942, -0.015650414, -1087899.0, 27314.227, 0.0, 5.0222955, 4.9622445 
5.040431e+2, 1.9116333e+2, -1043656.3, -1134731.5, -12625.84, -0.004873839, -0.02045684, -1041938.44, 24644.86, 0.0, 5.021169, 4.9622436 
5.0401324e+2, 1.9612536e+2, -998632.4, -1089028.4, -12756.91, -0.007430071, -0.024927283, -996866.6, 21086.654, 0.0, 5.0200434, 4.961593 
5.0398296e+2, 2.0108454e+2, -959911.8, -1056951.9, -13484.858, -0.010473671, -0.020139817, -958072.8, 11279.306, 0.0, 5.0189157, 4.9562845 
5.0395185e+2, 2.0604163e+2, -913251.06, -1007688.56, -13875.337, -0.01416081, -0.01941302, -911254.6, 9519.188, 0.0, 5.0177617, 4.956822 
5.039208e+2, 2.1099879e+2, -867310.7, -959998.4, -14073.393, -0.017789293, -0.019014684, -865220.94, 6974.2505, 0.0, 5.0166044, 4.956821 
5.038897e+2, 2.1595594e+2, -822015.3, -913742.75, -14265.959, -0.021400202, -0.018617889, -819847.8, 3768.853, 0.0, 5.015447, 4.9563212 
5.038588e+2, 2.2091003e+2, -783224.3, -881841.94, -14365.5625, -0.024420325, -0.01075977, -781174.3, -6106.221, 0.0, 5.01431, 4.9508624 
5.038279e+2, 2.258616e+2, -735808.4, -831323.2, -14686.605, -0.026051847, -0.014923514, -733601.1, -7056.78, 0.0, 5.0132155, 4.951757 
5.037971e+2, 2.3081325e+2, -689558.5, -783404.06, -14921.166, -0.027601706, -0.019663954, -687243.2, -9223.409, 0.0, 5.0121226, 4.95176 
5.037663e+2, 2.3576489e+2, -643940.75, -736913.1, -15148.21, -0.029157573, -0.024372673, -641534.9, -12039.667, 0.0, 5.0110292, 4.9512606 
5.0373626e+2, 2.4071409e+2, -605851.75, -707001.6, -13544.204, -0.031344168, -0.011923849, -604069.56, -23073.578, 0.0, 5.009895, 4.9450107 
5.0370795e+2, 2.4566203e+2, -558472.56, -656492.9, -13005.849, -0.037639994, 0.0059820986, -556776.25, -24263.21, 0.0, 5.008756, 4.9458776 
5.036797e+2, 2.5061e+2, -512157.22, -608465.44, -13107.062, -0.04434824, 0.02226997, -510405.28, -26374.807, 0.0, 5.007632, 4.9458814 
5.0365144e+2, 2.5555792e+2, -466070.88, -560985.7, -13203.647, -0.050916374, 0.038328033, -464268.34, -28720.293, 0.0, 5.006506, 4.945687 
5.0362504e+2, 2.6050183e+2, -427289.28, -529773.7, -10553.595, -0.05212086, 0.05697062, -426213.78, -39112.46, 0.0, 5.005344, 4.9397745 
5.0360304e+2, 2.6544088e+2, -378008.9, -473396.94, -9773.357, -0.04651895, 0.016811965, -377017.84, -38330.066, 0.0, 5.003901, 4.9427094 
5.035813e+2, 2.7037987e+2, -332378.72, -425266.53, -10295.214, -0.041720163, -0.031618245, -331251.34, -40978.313, 0.0, 5.0024085, 4.9428577 
5.035596e+2, 2.7531898e+2, -286729.56, -377298.06, -10802.448, -0.03642468, -0.0818599, -285458.94, -43601.52, 0.0, 5.000915, 4.942959 
5.035376e+2, 2.8025532e+2, -257775.03, -370812.1, -8540.99, -0.048331045, -0.080307074, -257133.31, -63664.453, 0.0, 4.999953, 4.928481 
5.0351596e+2, 2.8518966e+2, -205507.58, -313068.56, -8854.908, -0.060047198, -0.04699699, -204783.48, -59681.984, 0.0, 4.999658, 4.931438 
5.034951e+2, 2.9012275e+2, -157171.5, -263509.44, -8894.063, -0.056712206, -0.038027253, -156432.73, -59686.098, 0.0, 4.9991164, 4.931549 
5.0347465e+2, 2.950556e+2, -108805.11, -213963.86, -8979.753, -0.05110292, -0.03316946, -108043.82, -59649.79, 0.0, 4.9985585, 4.93166 
5.03455e+2, 3.0000415e+2, -49432.89, -103904.805, -3512.2195, -0.061659314, -0.011598552, -49207.367, -49207.367, 0.0, 4.9977775, 4.962542 
5.0344205e+2, 3.0497345e+2, -46690.777, -87390.305, 801.6576, -0.10699814, -0.025757335, -46674.992, -46674.992, 0.0, 4.9961095, 4.968427 
5.034315e+2, 3.0994597e+2, -50656.55, -87074.984, 858.6372, -0.14110833, -0.039674338, -50636.316, -50636.316, 0.0, 4.9943624, 4.9691453 
5.0342196e+2, 3.1492057e+2, -54522.67, -86860.234, 727.01465, -0.16634452, -0.040762037, -54506.336, -54506.336, 0.0, 4.992594, 4.969864 
5.094208e+2, 1.216029e+2, -1657358.0, -1748152.1, 377.70926, -0.003894154, 0.005064935, -1657356.4, 90942.875, 0.0, 5.037862, 4.9785385 
5.0940156e+2, 1.2657976e+2, -1615819.8, -1708588.8, -3127.8284, -0.0006660071, 0.012503155, -1615714.4, 83810.5, 0.0, 5.036624, 4.976094 
5.093819e+2, 1.3155521e+2, -1570742.8, -1661592.0, -3337.2117, 0.0013029774, 0.005782007, -1570620.3, 80144.805, 0.0, 5.0353484, 4.9760933 
5.093621e+2, 1.3653064e+2, -1527761.5, -1618946.9, -3532.2568, 0.0032601864, 0.00028327046, -1527624.9, 74380.69, 0.0, 5.0340724, 4.9746437 
5.093406e+2, 1.4150406e+2, -1486944.6, -1580957.8, -6787.7285, 0.005167355, 0.00936707, -1486457.0, 66807.914, 0.0, 5.0328155, 4.971563 
5.093161e+2, 1.4647587e+2, -1440973.9, -1532498.9, -7367.0605, 0.0050122817, 0.0054748636, -1440384.8, 64154.297, 0.0, 5.0315986, 4.971983 
5.092915e+2, 1.5144762e+2, -1395597.8, -1485290.4, -7525.2646, 0.0045956587, 0.0008456634, -1394970.8, 60842.625, 0.0, 5.0303817, 4.9719815 
5.092669e+2, 1.5641938e+2, -1351555.4, -1440895.3, -7659.1436, 0.004164916, -0.003320655, -1350903.5, 56184.363, 0.0, 5.0291653, 4.971033 
5.092409e+2, 1.6138805e+2, -1312224.3, -1406606.9, -10318.759, 0.0034092288, -0.001981969, -1311109.3, 47283.39, 0.0, 5.0279775, 4.966689 
5.0921255e+2, 1.6635484e+2, -1266067.1, -1358237.1, -10915.892, 0.0030208714, -0.0063174614, -1264792.0, 44924.402, 0.0, 5.026837, 4.9670033 
5.091841e+2, 1.7132165e+2, -1220338.3, -1310787.0, -11079.415, 0.0027063815, -0.010549707, -1219000.8, 42038.8, 0.0, 5.0256963, 4.9670024 
5.091557e+2, 1.7628847e+2, -1175707.0, -1265688.8, -11227.008, 0.0023964627, -0.014406018, -1174327.4, 38035.434, 0.0, 5.024556, 4.966205 
5.091264e+2, 1.8125236e+2, -1136347.9, -1231925.3, -12865.079, 0.0016761352, -0.010844855, -1134646.4, 29068.084, 0.0, 5.023428, 4.961567 
5.0909555e+2, 1.8621409e+2, -1089754.3, -1182826.8, -13341.619, 0.0001485353, -0.016144877, -1087879.6, 27207.31, 0.0, 5.022303, 4.9620776 
5.0906456e+2, 1.9117588e+2, -1043859.0, -1135227.9, -13479.037, -0.0014229013, -0.021670103, -1041912.0, 24546.848, 0.0, 5.0211773, 4.962076 
5.090336e+2, 1.9613767e+2, -998833.8, -1089524.0, -13609.365, -0.0030120427, -0.026852231, -996835.56, 20995.127, 0.0, 5.020051, 4.9614253 
5.090023e+2, 2.0109661e+2, -960156.2, -1057548.6, -14360.162, -0.0052562333, -0.022785, -958082.94, 11148.616, 0.0, 5.0189247, 4.9560823 
5.0897014e+2, 2.0605345e+2, -913544.7, -1008393.8, -14757.742, -0.008494988, -0.022265457, -911301.56, 9354.049, 0.0, 5.0177703, 4.956583 
5.0893795e+2, 2.1101037e+2, -867604.8, -960703.8, -14953.355, -0.011706127, -0.021951657, -865262.0, 6817.2285, 0.0, 5.0166125, 4.9565816 
5.0890577e+2, 2.1596727e+2, -822310.06, -914448.56, -15143.389, -0.014917133, -0.02160308, -819885.0, 3617.9714, 0.0, 5.015455, 4.9560814 
5.088737e+2, 2.209211e+2, -783532.0, -882625.0, -15209.834, -0.017739663, -0.01386136, -781250.0, -6293.229, 0.0, 5.0143237, 4.950595 
5.0884175e+2, 2.2587232e+2, -736130.75, -832157.1, -15511.646, -0.019995004, -0.018419348, -733687.25, -7251.311, 0.0, 5.013232, 4.9514713 
5.0880975e+2, 2.3082364e+2, -689880.94, -784232.8, -15741.079, -0.022302356, -0.023528913, -687324.1, -9409.764, 0.0, 5.0121384, 4.9514747 
5.0877774e+2, 2.3577496e+2, -644263.3, -737736.9, -15962.909, -0.024656551, -0.02857156, -641612.44, -12219.796, 0.0, 5.011044, 4.950977 
5.087465e+2, 2.4072377e+2, -605954.5, -707342.2, -14419.915, -0.027669085, -0.017612502, -603943.5, -23046.707, 0.0, 5.00991, 4.9448934 
5.087172e+2, 2.4567148e+2, -558601.7, -656869.0, -13862.632, -0.032899663, -0.0011031039, -556683.5, -24266.773, 0.0, 5.008766, 4.94575 
5.08688e+2, 2.506192e+2, -512305.22, -608848.25, -13954.152, -0.038259137, 0.014555812, -510328.78, -26392.28, 0.0, 5.0076356, 4.9457545 
5.0865877e+2, 2.5556698e+2, -466237.7, -561375.0, -14041.013, -0.043583926, 0.030220846, -464208.7, -28752.508, 0.0, 5.006503, 4.9455605 
5.086313e+2, 2.60511e+2, -427525.4, -530376.25, -11598.099, -0.04385172, 0.05126758, -426233.75, -39224.363, 0.0, 5.0053506, 4.93958 
5.08608e+2, 2.6545063e+2, -378448.13, -474446.94, -10857.936, -0.037174366, 0.022096584, -377235.34, -38641.566, 0.0, 5.0039063, 4.942383 
5.085849e+2, 2.703902e+2, -332849.63, -426315.63, -11288.258, -0.031220226, -0.014776042, -331505.63, -41328.15, 0.0, 5.0024033, 4.942531 
5.085619e+2, 2.7532983e+2, -287231.94, -378346.16, -11704.021, -0.024880426, -0.053373046, -285752.53, -43992.188, 0.0, 5.0008993, 4.942632 
5.0853926e+2, 2.802658e+2, -256848.83, -367691.63, -9389.846, -0.028984074, -0.057973474, -256059.02, -62679.94, 0.0, 4.9998198, 4.929596 
5.08517e+2, 2.8519976e+2, -206419.97, -313654.1, -9520.157, -0.040665388, -0.03133606, -205581.33, -60563.613, 0.0, 4.9994283, 4.931311 
5.084951e+2, 2.9013324e+2, -158107.56, -264221.16, -9486.429, -0.04529586, -0.015137483, -157266.16, -60604.742, 0.0, 4.9988847, 4.9313874 
5.0847346e+2, 2.9506648e+2, -109764.14, -214800.94, -9499.309, -0.04826774, -0.0024073576, -108911.96, -60604.84, 0.0, 4.9983244, 4.931464 
5.0845283e+2, 3.0001664e+2, -47643.22, -98784.73, -4512.955, -0.063194096, 0.030286547, -47248.03, -47248.03, 0.0, 4.9975905, 4.9644923 
5.084385e+2, 3.0498606e+2, -44394.25, -82460.74, -232.5108, -0.109213516, 0.005016413, -44392.832, -44392.832, 0.0, 4.9961057, 4.970402 
5.084262e+2, 3.0995688e+2, -47826.31, -82123.555, 86.279045, -0.1482271, -0.033399194, -47826.094, -47826.094, 0.0, 4.994534, 4.9710565 
5.084148e+2, 3.1492925e+2, -51159.21, -81886.91, 216.44585, -0.18008715, -0.06369723, -51157.688, -51157.688, 0.0, 4.9929414, 4.9717126 
5.1445824e+2, 1.2161914e+2, -1658043.3, -1749581.4, -367.461, -0.007809815, 0.011259673, -1658041.8, 90098.58, 0.0, 5.0378647, 4.9780693 
5.1443815e+2, 1.2659462e+2, -1616198.4, -1709399.5, -4092.1846, -0.0009789529, 0.007537368, -1616019.0, 83361.0, 0.0, 5.036628, 4.9758277 
5.144172e+2, 1.3157007e+2, -1571118.6, -1662400.4, -4301.002, 0.0012692342, 0.0036381646, -1570916.5, 79703.61, 0.0, 5.035352, 4.975827 
5.143962e+2, 1.3654552e+2, -1528137.1, -1619757.9, -4500.6934, 0.0034924743, 0.00096251746, -1527916.5, 73943.875, 0.0, 5.0340767, 4.974376 
5.143734e+2, 1.4151885e+2, -1487226.3, -1581581.8, -7725.4497, 0.0057893055, 0.011563483, -1486597.9, 66522.73, 0.0, 5.03282, 4.9713573 
5.143478e+2, 1.4649035e+2, -1441239.5, -1533092.4, -8286.992, 0.0062847943, 0.006788015, -1440497.9, 63899.3, 0.0, 5.0316033, 4.9717865 
5.1432204e+2, 1.5146184e+2, -1395861.4, -1485882.4, -8445.127, 0.0065135104, 0.0012260518, -1395076.0, 60598.016, 0.0, 5.030387, 4.9717855 
5.1429635e+2, 1.564333e+2, -1351815.8, -1441483.1, -8579.933, 0.0067233765, -0.003871102, -1351002.1, 55948.832, 0.0, 5.0291705, 4.9708376 
5.142691e+2, 1.6140173e+2, -1312479.0, -1407186.8, -11203.5205, 0.0062679723, -0.003065554, -1311171.8, 47086.145, 0.0, 5.027983, 4.966496 
5.1423955e+2, 1.6636835e+2, -1266331.1, -1358838.1, -11780.427, 0.005473731, -0.007043798, -1264854.5, 44728.773, 0.0, 5.0268426, 4.9668026 
5.1421e+2, 1.7133501e+2, -1220600.8, -1311387.1, -11943.594, 0.0047239778, -0.010879882, -1219055.8, 41852.418, 0.0, 5.025702, 4.9668016 
5.1418036e+2, 1.7630167e+2, -1175967.1, -1266285.6, -12089.784, 0.0039731055, -0.014333281, -1174376.8, 37856.28, 0.0, 5.024562, 4.9660053 
5.1414996e+2, 1.812654e+2, -1136557.6, -1232429.6, -13723.451, 0.003200512, -0.010630509, -1134632.0, 28954.395, 0.0, 5.023435, 4.9613976 
5.14118e+2, 1.862269e+2, -1089958.3, -1183323.9, -14195.253, 0.002615873, -0.016615262, -1087847.6, 27112.898, 0.0, 5.022311, 4.9619102 
5.1408607e+2, 1.9118842e+2, -1044061.6, -1135724.3, -14332.046, 0.0020241018, -0.022873247, -1041873.0, 24461.434, 0.0, 5.0211854, 4.961909 
5.1405406e+2, 1.9614999e+2, -999035.25, -1090019.8, -14461.632, 0.0014035082, -0.02878101, -996791.94, 20916.195, 0.0, 5.0200596, 4.9612575 
5.140217e+2, 2.0110868e+2, -960412.2, -1058170.5, -15233.427, -0.000041417363, -0.02542185, -958093.4, 11017.714, 0.0, 5.018934, 4.9558716 
5.139884e+2, 2.0606527e+2, -913838.56, -1009099.2, -15639.622, -0.0028334232, -0.02515189, -911336.56, 9200.897, 0.0, 5.0177794, 4.956343 
5.139551e+2, 2.1102193e+2, -867899.25, -961409.44, -15832.794, -0.0056252857, -0.02498351, -865291.2, 6672.2046, 0.0, 5.0166206, 4.9563417 
5.139218e+2, 2.1597858e+2, -822605.0, -915154.44, -16020.295, -0.008434456, -0.024743984, -819910.4, 3479.0364, 0.0, 5.0154624, 4.9558415 
5.1388866e+2, 2.2093216e+2, -783864.3, -883461.06, -16045.321, -0.011046128, -0.016833296, -781343.2, -6497.808, 0.0, 5.014338, 4.950309 
5.138555e+2, 2.2588307e+2, -736454.1, -832990.5, -16339.059, -0.013956732, -0.021731528, -733763.7, -7436.271, 0.0, 5.0132484, 4.9511843 
5.138224e+2, 2.3083405e+2, -690204.4, -785061.0, -16563.361, -0.017055273, -0.027319144, -687395.4, -9586.583, 0.0, 5.012154, 4.951189 
5.137892e+2, 2.3578504e+2, -644586.9, -738560.06, -16779.977, -0.020241447, -0.03280455, -641680.5, -12390.476, 0.0, 5.011059, 4.9506917 
5.1375675e+2, 2.4073349e+2, -606096.3, -707765.94, -15293.041, -0.02392174, -0.023177981, -603845.75, -23048.178, 0.0, 5.0099254, 4.944746 
5.137264e+2, 2.4568091e+2, -558733.4, -657243.06, -14720.801, -0.028068777, -0.008113388, -556580.6, -24260.193, 0.0, 5.0087767, 4.9456215 
5.1369625e+2, 2.5062844e+2, -512455.78, -609228.9, -14802.632, -0.03215592, 0.006692546, -510242.2, -26399.602, 0.0, 5.0076394, 4.945626 
5.136661e+2, 2.55576e+2, -466407.03, -561762.2, -14879.7705, -0.036313694, 0.021740679, -464139.06, -28774.592, 0.0, 5.0065007, 4.945432 
5.136375e+2, 2.6052016e+2, -427949.84, -531400.2, -12620.061, -0.035606794, 0.04601475, -426432.56, -39514.92, 0.0, 5.0053573, 4.9392276 
5.13613e+2, 2.654603e+2, -378891.88, -475498.53, -11962.483, -0.027704168, 0.02662233, -377432.63, -38932.258, 0.0, 5.0039115, 4.942023 
5.1358855e+2, 2.7040035e+2, -333324.72, -427366.1, -12301.255, -0.020441173, -0.0009262566, -331742.28, -41659.08, 0.0, 5.0023985, 4.942171 
5.135643e+2, 2.753405e+2, -287738.2, -379395.34, -12625.534, -0.012903712, -0.030109705, -286030.88, -44365.656, 0.0, 5.0008845, 4.9422717 
5.135408e+2, 2.8027633e+2, -256837.48, -366645.13, -10378.427, -0.010407891, -0.03556587, -255865.17, -62576.363, 0.0, 4.9996867, 4.9299765 
5.1351774e+2, 2.8521013e+2, -207359.3, -314214.75, -10131.576, -0.022868935, -0.011017455, -206407.14, -61475.574, 0.0, 4.9991984, 4.93117 
5.1349473e+2, 2.9014388e+2, -159070.39, -264907.9, -10025.043, -0.035026055, 0.010960552, -158129.19, -61554.76, 0.0, 4.998653, 4.931212 
5.134719e+2, 2.9507744e+2, -110749.79, -215613.02, -9965.19, -0.046140715, 0.030115115, -109811.195, -61592.14, 0.0, 4.9980907, 4.931254 
5.1345026e+2, 3.0002868e+2, -46623.45, -95371.46, -5394.4106, -0.067383826, 0.07138615, -46033.645, -46033.645, 0.0, 4.997404, 4.965797 
5.134346e+2, 3.0499765e+2, -42132.57, -77503.125, -1170.1298, -0.115843184, 0.02875744, -42093.902, -42093.902, 0.0, 4.9961023, 4.9723115 
5.134208e+2, 3.0996653e+2, -45031.367, -77144.4, -589.95233, -0.15940014, -0.040674333, -45020.535, -45020.535, 0.0, 4.9947066, 4.9729037 
5.134079e+2, 3.1493646e+2, -47831.61, -76886.125, -198.42372, -0.1975236, -0.106685676, -47830.254, -47830.254, 0.0, 4.993289, 4.973497 
5.1949584e+2, 1.21635266e+2, -1657671.5, -1750300.1, -225.8969, -0.010930961, 0.0149034755, -1657670.9, 90311.54, 0.0, 5.038184, 4.977677 
5.1947474e+2, 1.2660968e+2, -1615707.1, -1709786.4, -4158.9453, -0.0014764878, 0.0034790186, -1615523.6, 83709.13, 0.0, 5.0369277, 4.975554 
5.194525e+2, 1.315851e+2, -1570634.8, -1662791.1, -4408.739, 0.0010997597, 0.001978183, -1570424.3, 80048.984, 0.0, 5.03565, 4.975554 
5.194303e+2, 1.3656051e+2, -1527663.6, -1620157.6, -4653.134, 0.0036503046, 0.0017208444, -1527430.1, 74283.92, 0.0, 5.034371, 4.9741015 
5.1940626e+2, 1.4153372e+2, -1486696.4, -1581800.6, -7874.5293, 0.006384429, 0.0136024235, -1486048.8, 66926.59, 0.0, 5.033099, 4.971151 
5.1937944e+2, 1.4650497e+2, -1440812.1, -1533332.6, -8419.188, 0.0075272564, 0.008018535, -1440052.3, 64202.03, 0.0, 5.0318418, 4.9715934 
5.193526e+2, 1.5147616e+2, -1395555.6, -1486183.3, -8576.521, 0.008404662, 0.0015971458, -1394751.1, 60782.363, 0.0, 5.030584, 4.971592 
5.193257e+2, 1.5644735e+2, -1351627.6, -1441840.0, -8711.266, 0.009266595, -0.0043682302, -1350794.1, 56018.79, 0.0, 5.029327, 4.970645 
5.1929736e+2, 1.6141555e+2, -1312404.3, -1407590.5, -11289.608, 0.009130166, -0.00405235, -1311083.6, 47038.395, 0.0, 5.0280986, 4.966308 
5.192666e+2, 1.6638198e+2, -1266398.0, -1359320.4, -11825.473, 0.0079695145, -0.0077194623, -1264916.8, 44532.254, 0.0, 5.0269113, 4.96661 
5.192358e+2, 1.7134848e+2, -1220802.6, -1311934.9, -11967.062, 0.0068308027, -0.0112163415, -1219257.4, 41518.207, 0.0, 5.0257244, 4.9666085 
5.1920503e+2, 1.7631498e+2, -1176300.9, -1266895.1, -12090.611, 0.005689363, -0.0143256225, -1174715.0, 37387.04, 0.0, 5.0245385, 4.965812 
5.1917344e+2, 1.8127856e+2, -1136974.0, -1233025.1, -13700.058, 0.004880108, -0.010465591, -1135058.1, 28398.748, 0.0, 5.0233717, 4.961229 
5.191405e+2, 1.8623982e+2, -1090456.6, -1183951.8, -14178.582, 0.005180119, -0.01708279, -1088353.8, 26479.262, 0.0, 5.0222178, 4.961744 
5.1910746e+2, 1.9120112e+2, -1044646.8, -1136391.0, -14324.3, 0.00552301, -0.024055231, -1042462.3, 23746.465, 0.0, 5.021061, 4.961743 
5.1907444e+2, 1.9616243e+2, -999709.94, -1090726.6, -14459.963, 0.005840533, -0.030693142, -997467.9, 20116.578, 0.0, 5.019903, 4.961092 
5.19041e+2, 2.0112087e+2, -961205.94, -1059034.9, -15238.005, 0.005176784, -0.028039487, -958887.4, 10102.143, 0.0, 5.018757, 4.9556613 
5.1900667e+2, 2.060772e+2, -914616.5, -1009998.75, -15626.005, 0.0028151886, -0.028055908, -912121.8, 8296.354, 0.0, 5.0176163, 4.9561133 
5.189722e+2, 2.1103361e+2, -868639.44, -962290.94, -15790.572, 0.000449121, -0.028099678, -866048.7, 5797.7183, 0.0, 5.01647, 4.9561114 
5.189379e+2, 2.1599e+2, -823317.8, -916022.6, -15949.613, -0.0019310066, -0.028051103, -820650.5, 2624.1416, 0.0, 5.0153203, 4.9556103 
5.189036e+2, 2.2094338e+2, -784667.75, -884515.0, -15888.179, -0.0042547174, -0.019718932, -782200.5, -7467.9775, 0.0, 5.0141926, 4.950016 
5.1886934e+2, 2.2589396e+2, -737339.06, -834051.1, -16168.282, -0.007653148, -0.024873478, -734707.7, -8490.299, 0.0, 5.0130672, 4.950904 
5.18835e+2, 2.308446e+2, -691230.6, -786182.75, -16374.311, -0.011330792, -0.03108149, -688486.2, -10784.44, 0.0, 5.0119214, 4.9509096 
5.188007e+2, 2.3579524e+2, -645792.9, -739759.75, -16568.68, -0.015105835, -0.037233833, -642957.0, -13770.942, 0.0, 5.0107613, 4.950413 
5.187672e+2, 2.4074334e+2, -607380.8, -708777.6, -15126.527, -0.019098165, -0.02891759, -605172.4, -24475.223, 0.0, 5.009555, 4.9445667 
5.187357e+2, 2.456905e+2, -560295.2, -658283.2, -14609.387, -0.022311736, -0.015206217, -558163.44, -25940.52, 0.0, 5.00829, 4.945482 
5.187045e+2, 2.506378e+2, -514415.84, -610440.25, -14736.411, -0.025351362, -0.0014169584, -512205.22, -28457.588, 0.0, 5.0070114, 4.945489 
5.1867324e+2, 2.5558513e+2, -468812.2, -563164.4, -14843.416, -0.028514685, 0.012723572, -466532.13, -31260.207, 0.0, 5.005715, 4.9452972 
5.186436e+2, 2.6052937e+2, -431340.25, -534151.56, -12758.833, -0.026882624, 0.040894862, -429780.56, -42955.24, 0.0, 5.0044026, 4.9386897 
5.1861775e+2, 2.6547e+2, -382628.63, -478250.88, -12522.448, -0.01771885, 0.030526374, -381015.9, -42608.793, 0.0, 5.0028024, 4.941537 
5.185921e+2, 2.7041036e+2, -337673.97, -430438.56, -13294.268, -0.009012034, 0.010687319, -335806.34, -45815.914, 0.0, 5.0010886, 4.941656 
5.185664e+2, 2.753508e+2, -292866.5, -382827.38, -14232.225, -0.000051655392, -0.010696381, -290668.6, -49095.246, 0.0, 4.9993186, 4.9417305 
5.185419e+2, 2.8028664e+2, -262832.22, -369941.53, -12746.531, 0.007866206, -0.011355173, -261336.22, -68135.6, 0.0, 4.997783, 4.9295764 
5.18518e+2, 2.852204e+2, -212667.8, -316550.4, -11746.846, -0.0059544677, 0.014671065, -211356.06, -66510.15, 0.0, 4.9974117, 4.931022 
5.184939e+2, 2.901544e+2, -164134.61, -267313.0, -11412.883, -0.024671081, 0.03992794, -162887.28, -66398.336, 0.0, 4.9969563, 4.931018 
5.1847005e+2, 2.9508817e+2, -116167.88, -218339.08, -11174.81, -0.042767487, 0.06301025, -114959.94, -66826.25, 0.0, 4.996274, 4.931014 
5.1844716e+2, 3.000399e+2, -51809.656, -95972.74, -6784.4805, -0.07120087, 0.10930604, -50790.902, -50790.902, 0.0, 4.9952226, 4.9664874 
5.1843023e+2, 3.05008e+2, -48821.047, -76393.21, -2547.2747, -0.12202242, 0.044634692, -48587.69, -48587.69, 0.0, 4.9928594, 4.974175 
5.184153e+2, 3.0997494e+2, -56056.48, -78115.21, -1858.1356, -0.16771965, -0.058755584, -55901.055, -55901.055, 0.0, 4.989899, 4.9746966 
5.184011e+2, 3.1494266e+2, -64317.383, -80407.01, -1509.9714, -0.20948526, -0.16197811, -64176.902, -64176.902, 0.0, 4.986516, 4.9752192 
5.245354e+2, 1.2165412e+2, -1650044.8, -1746677.6, 1959.6475, -0.011331794, 0.009977351, -1650005.0, 97793.12, 0.0, 5.04078, 4.9775934 
5.245127e+2, 1.2662911e+2, -1608877.0, -1707192.8, -1905.1871, -0.004046577, 0.0077637243, -1608840.0, 90202.88, 0.0, 5.0393953, 4.975199 
5.244893e+2, 1.3160403e+2, -1564117.1, -1660361.9, -2213.5984, -0.00046746412, 0.004859301, -1564066.3, 86222.57, 0.0, 5.0380173, 4.9751997 
5.244658e+2, 1.3657892e+2, -1521456.9, -1617895.5, -2521.0525, 0.0030899143, 0.0032296109, -1521391.0, 80143.93, 0.0, 5.0366387, 4.9737453 
5.2444047e+2, 1.4155173e+2, -1480602.5, -1579234.9, -5777.892, 0.0066573075, 0.014119965, -1480265.3, 72535.266, 0.0, 5.035251, 4.9709554 
5.244124e+2, 1.4652278e+2, -1435131.8, -1530916.1, -6301.8394, 0.008298388, 0.008559006, -1434718.9, 69362.02, 0.0, 5.033845, 4.9714255 
5.243842e+2, 1.514938e+2, -1390331.4, -1484000.5, -6444.0947, 0.009671258, 0.0021964367, -1389890.1, 65471.566, 0.0, 5.0324373, 4.9714236 
5.24356e+2, 1.5646482e+2, -1346857.0, -1439886.4, -6563.6914, 0.011040636, -0.0037260188, -1346396.3, 60246.414, 0.0, 5.0310297, 4.970477 
5.2432644e+2, 1.6143285e+2, -1308001.8, -1405684.0, -9069.909, 0.011295639, -0.0034897442, -1307166.8, 50786.39, 0.0, 5.029647, 4.966201 
5.242944e+2, 1.6639914e+2, -1262472.5, -1357635.9, -9522.104, 0.010274273, -0.007439221, -1261529.1, 47752.105, 0.0, 5.028297, 4.96651 
5.242623e+2, 1.713655e+2, -1217364.6, -1310493.1, -9595.754, 0.009267412, -0.01121791, -1216386.1, 44222.62, 0.0, 5.026947, 4.966508 
5.2423024e+2, 1.7633185e+2, -1173347.3, -1265690.8, -9648.088, 0.008260258, -0.014603737, -1172350.0, 39586.45, 0.0, 5.025597, 4.965712 
5.2419746e+2, 1.8129528e+2, -1134511.1, -1232113.6, -11160.277, 0.0075718868, -0.010898812, -1133251.3, 30041.13, 0.0, 5.024274, 4.961105 
5.241632e+2, 1.862564e+2, -1088427.4, -1183315.9, -11608.345, 0.007933826, -0.017364247, -1087027.9, 27642.096, 0.0, 5.022986, 4.9615917 
5.24129e+2, 1.9121754e+2, -1043000.7, -1135938.6, -11741.463, 0.008353241, -0.024211695, -1041540.25, 24507.191, 0.0, 5.021698, 4.9615917 
5.2409476e+2, 1.9617869e+2, -998441.25, -1090453.8, -11866.034, 0.008772144, -0.030773293, -996935.6, 20489.127, 0.0, 5.02041, 4.960942 
5.240602e+2, 2.0113695e+2, -960223.56, -1058813.0, -12573.322, 0.008413523, -0.028426306, -958645.3, 10186.238, 0.0, 5.0191474, 4.955549 
5.2402467e+2, 2.0609307e+2, -913842.7, -1009871.56, -12862.926, 0.0066474006, -0.029118877, -912149.56, 8112.226, 0.0, 5.017934, 4.9560027 
5.2398914e+2, 2.110493e+2, -868057.3, -962255.3, -12940.156, 0.004886011, -0.02979247, -866312.06, 5379.4194, 0.0, 5.0167217, 4.956 
5.239536e+2, 2.160055e+2, -822916.56, -916072.8, -13009.381, 0.0031327712, -0.030367443, -821133.9, 1987.3365, 0.0, 5.015509, 4.955498 
5.239183e+2, 2.2095874e+2, -784592.25, -884775.6, -12831.397, 0.001507061, -0.02206613, -782974.94, -8394.777, 0.0, 5.0142837, 4.9498744 
5.238829e+2, 2.2590917e+2, -737715.3, -834656.5, -13060.435, -0.00045472966, -0.02649937, -735986.56, -9920.096, 0.0, 5.013026, 4.9507036 
5.238476e+2, 2.3085964e+2, -691920.44, -786935.0, -13231.403, -0.0025062351, -0.032233004, -690112.25, -12559.624, 0.0, 5.011767, 4.9507093 
5.238122e+2, 2.3581007e+2, -646754.9, -740639.9, -13394.758, -0.004560551, -0.03812827, -644881.2, -15842.259, 0.0, 5.0105076, 4.9502134 
5.2377754e+2, 2.407578e+2, -608526.1, -709635.5, -12003.587, -0.007077064, -0.03143542, -607120.6, -26567.258, 0.0, 5.0092096, 4.944418 
5.237447e+2, 2.4570452e+2, -562072.7, -659442.6, -11524.178, -0.010777417, -0.020335594, -560727.3, -28644.49, 0.0, 5.0077295, 4.9453263 
5.237119e+2, 2.5065142e+2, -516828.25, -611858.94, -11636.009, -0.014493767, -0.008848311, -515424.22, -31813.281, 0.0, 5.006228, 4.9453416 
5.236792e+2, 2.5559834e+2, -471803.84, -564819.5, -11743.009, -0.018241383, 0.0027431073, -470344.22, -35205.49, 0.0, 5.004727, 4.945158 
5.23648e+2, 2.6054233e+2, -435118.25, -536613.1, -9509.228, -0.017647645, 0.030830013, -434235.0, -47540.785, 0.0, 5.003239, 4.938346 
5.236205e+2, 2.6548317e+2, -386246.47, -481344.66, -8838.189, -0.00938136, 0.028412016, -385432.06, -47156.023, 0.0, 5.001815, 4.940914 
5.235932e+2, 2.704237e+2, -340615.38, -433571.0, -9022.927, -0.0010151457, 0.017431544, -339747.66, -49886.867, 0.0, 5.0003967, 4.940909 
5.23566e+2, 2.7536413e+2, -295008.2, -385913.9, -9195.289, 0.007868066, 0.005303299, -294087.38, -52640.855, 0.0, 4.9989777, 4.940856 
5.235398e+2, 2.8029978e+2, -264175.4, -371609.13, -6639.3447, 0.016286302, 0.01150273, -263766.66, -70688.195, 0.0, 4.9974957, 4.929081 
5.23515e+2, 2.852329e+2, -216444.13, -318535.1, -5345.481, 0.003711176, 0.031924047, -216165.0, -71433.46, 0.0, 4.9960117, 4.930855 
5.234903e+2, 2.901662e+2, -170747.28, -270770.53, -5442.0073, -0.013264615, 0.050350443, -170452.08, -74069.1, 0.0, 4.9945397, 4.9308043 
5.2346563e+2, 2.950993e+2, -125011.18, -222987.6, -5505.01, -0.029054275, 0.06722916, -124702.836, -76666.61, 0.0, 4.9930563, 4.9307537 
5.234419e+2, 3.0005056e+2, -59966.02, -96672.1, -1480.522, -0.0519136, 0.10452745, -59906.4, -59906.4, 0.0, 4.9914746, 4.967938 
5.234239e+2, 3.050203e+2, -56839.27, -75980.77, 2508.4487, -0.08804555, 0.041329294, -56516.0, -56516.0, 0.0, 4.9889903, 4.976223 
5.234074e+2, 3.099895e+2, -63622.28, -77605.02, 3104.7188, -0.11836341, -0.05151411, -62963.91, -62963.91, 0.0, 4.9862924, 4.976679 
5.233915e+2, 3.1495965e+2, -70318.05, -79326.8, 3505.498, -0.14448267, -0.14048368, -69114.72, -69114.72, 0.0, 4.9835763, 4.977136 
5.295761e+2, 1.21674545e+2, -1650029.9, -1746687.1, 746.0138, -0.011559062, 0.004109857, -1650024.1, 97574.305, 0.0, 5.040784, 4.97759 
5.295517e+2, 1.2665041e+2, -1609433.3, -1708387.5, -2946.5735, -0.007197764, 0.014190683, -1609345.6, 89489.17, 0.0, 5.039401, 4.9748063 
5.2952707e+2, 1.316247e+2, -1564670.1, -1661553.0, -3254.1714, -0.0024091618, 0.008949541, -1564561.0, 85526.34, 0.0, 5.038023, 4.974807 
5.2950233e+2, 1.3659897e+2, -1522011.0, -1619092.5, -3568.406, 0.0023364224, 0.004986187, -1521880.0, 79459.984, 0.0, 5.036645, 4.9733496 
5.294757e+2, 1.415713e+2, -1480880.5, -1579862.1, -6846.7437, 0.0068376926, 0.014311411, -1480409.1, 72201.18, 0.0, 5.035257, 4.970749 
5.2944624e+2, 1.465422e+2, -1435360.9, -1531443.6, -7365.7583, 0.008919146, 0.008991936, -1434799.5, 69092.71, 0.0, 5.0338507, 4.9712515 
5.294167e+2, 1.5151307e+2, -1390558.9, -1484527.0, -7508.0454, 0.010709335, 0.0029448273, -1389962.8, 65211.473, 0.0, 5.032443, 4.9712496 
5.293871e+2, 1.5648395e+2, -1347082.6, -1440411.9, -7630.1074, 0.01249178, -0.0026585702, -1346463.0, 59993.363, 0.0, 5.0310354, 4.9703026 
5.293561e+2, 1.6145185e+2, -1308113.8, -1405973.8, -10109.353, 0.013107497, -0.0023395056, -1307080.3, 50687.55, 0.0, 5.029653, 4.966105 
5.2932274e+2, 1.6641802e+2, -1262567.3, -1357889.4, -10544.913, 0.012367789, -0.0067535434, -1261414.6, 47682.08, 0.0, 5.028303, 4.9664264 
5.2928936e+2, 1.7138425e+2, -1217459.3, -1310746.6, -10618.281, 0.01163425, -0.011011405, -1216265.9, 44159.336, 0.0, 5.026953, 4.966424 
5.2925605e+2, 1.7635046e+2, -1173440.6, -1265942.0, -10669.11, 0.010894435, -0.014869297, -1172226.0, 39527.652, 0.0, 5.0256033, 4.965629 
5.292219e+2, 1.8131378e+2, -1134651.1, -1232473.3, -12151.364, 0.010337121, -0.01140124, -1133164.3, 29946.1, 0.0, 5.024281, 4.960985 
5.291864e+2, 1.862748e+2, -1088615.1, -1183783.4, -12585.235, 0.0104772635, -0.017447637, -1086978.9, 27510.436, 0.0, 5.022994, 4.9614353 
5.2915084e+2, 1.9123583e+2, -1043186.25, -1136406.0, -12717.645, 0.010645314, -0.023831226, -1041482.4, 24385.74, 0.0, 5.0217066, 4.961435 
5.291153e+2, 1.9619687e+2, -998624.75, -1090921.3, -12841.373, 0.010804585, -0.029923184, -996871.44, 20375.328, 0.0, 5.0204186, 4.9607844 
5.290794e+2, 2.0115498e+2, -960320.44, -1059118.8, -13511.726, 0.010531801, -0.027544713, -958505.9, 10149.037, 0.0, 5.01916, 4.955445 
5.290428e+2, 2.0611094e+2, -913917.8, -1010133.44, -13782.442, 0.009471303, -0.029101074, -911982.44, 8103.9624, 0.0, 5.0179462, 4.9559135 
5.290061e+2, 2.1106699e+2, -868135.94, -962518.7, -13857.19, 0.008384856, -0.030615686, -866143.5, 5373.827, 0.0, 5.0167327, 4.9559107 
5.2896947e+2, 2.1602303e+2, -822998.6, -916337.6, -13923.837, 0.007277169, -0.03199078, -820965.8, 1982.439, 0.0, 5.015519, 4.9554086 
5.28933e+2, 2.2097616e+2, -784705.0, -885109.7, -13787.102, 0.0063610664, -0.023866212, -782846.25, -8438.428, 0.0, 5.014294, 4.9497623 
5.288966e+2, 2.2592653e+2, -737936.2, -835226.8, -14019.737, 0.0061633354, -0.027198981, -735956.25, -10061.254, 0.0, 5.0130367, 4.950511 
5.2886015e+2, 2.308769e+2, -692143.7, -787507.4, -14185.527, 0.0060009654, -0.031734284, -690078.3, -12696.127, 0.0, 5.0117764, 4.9505157 
5.2882373e+2, 2.3582725e+2, -646980.56, -741214.3, -14343.604, 0.0058084503, -0.036366414, -644845.6, -15976.17, 0.0, 5.010516, 4.9500194 
5.287879e+2, 2.4077472e+2, -608708.9, -710111.3, -13076.502, 0.0047517125, -0.03036364, -607049.75, -26663.402, 0.0, 5.0092177, 4.9442554 
5.2875346e+2, 2.4572091e+2, -562221.06, -659830.1, -12685.988, 0.00025029678, -0.023131812, -560599.25, -28679.236, 0.0, 5.007736, 4.9451947 
5.287191e+2, 2.506673e+2, -516984.0, -612249.8, -12784.765, -0.00460495, -0.015221759, -515298.13, -31846.299, 0.0, 5.0062323, 4.945209 
5.2868474e+2, 2.5561374e+2, -471966.97, -565213.75, -12878.672, -0.009523404, -0.0071027, -470220.94, -35237.668, 0.0, 5.004729, 4.945025 
5.2865183e+2, 2.605575e+2, -435185.94, -536881.06, -10643.233, -0.01083401, 0.01941352, -434083.97, -47543.17, 0.0, 5.0032525, 4.938254 
5.2862275e+2, 2.6549873e+2, -386437.63, -481900.13, -9909.969, -0.004506432, 0.0222416, -385419.72, -47298.727, 0.0, 5.001827, 4.9407253 
5.285939e+2, 2.7043965e+2, -340839.06, -434127.06, -10070.961, 0.0021430166, 0.01757975, -339764.22, -50060.53, 0.0, 5.0003977, 4.940723 
5.2856505e+2, 2.7538052e+2, -295264.22, -386470.38, -10219.584, 0.009178972, 0.012079479, -294133.16, -52846.074, 0.0, 4.998968, 4.940673 
5.2853715e+2, 2.8031647e+2, -264123.2, -371670.88, -7796.675, 0.01504833, 0.022473378, -263560.9, -70642.78, 0.0, 4.997516, 4.929062 
5.285112e+2, 2.8524885e+2, -216539.4, -318997.22, -6464.4585, 0.004650549, 0.036488857, -216133.14, -71552.88, 0.0, 4.996018, 4.9307203 
5.284854e+2, 2.9018125e+2, -170985.38, -271250.47, -6510.3696, -0.0087304525, 0.04799297, -170564.42, -74322.64, 0.0, 4.9944963, 4.930683 
5.2845967e+2, 2.9511353e+2, -125391.39, -223484.67, -6522.7725, -0.021375295, 0.05881988, -124959.555, -77055.31, 0.0, 4.992963, 4.930646 
5.28435e+2, 3.0006438e+2, -58505.96, -92642.28, -2980.8274, -0.03836527, 0.087833, -58247.63, -58247.63, 0.0, 4.9913435, 4.9694905 
5.28416e+2, 3.0503646e+2, -54551.477, -70939.766, 706.85187, -0.062226843, 0.03250512, -54521.047, -54521.047, 0.0, 4.9889846, 4.9781713 
5.283984e+2, 3.1000832e+2, -60849.566, -72616.36, 1545.067, -0.08204898, -0.048014443, -60650.07, -60650.07, 0.0, 4.986452, 4.978549 
5.2838117e+2, 3.1498072e+2, -67060.43, -74390.18, 2187.831, -0.09901912, -0.12817936, -66457.055, -66457.055, 0.0, 4.9839, 4.9789286 
5.346168e+2, 1.2169506e+2, -1649981.4, -1746628.1, -464.03665, -0.012128752, -0.00085693365, -1649979.1, 97418.66, 0.0, 5.040788, 4.9776096 
5.345908e+2, 1.266717e+2, -1609989.8, -1709582.6, -3988.1445, -0.010357316, 0.020628015, -1609830.3, 88796.47, 0.0, 5.0394073, 4.9744134 
5.3456473e+2, 1.3164537e+2, -1565223.1, -1662744.3, -4294.9287, -0.0043622553, 0.013036769, -1565034.4, 84851.414, 0.0, 5.038029, 4.974414 
5.345388e+2, 1.36619e+2, -1522565.1, -1620289.9, -4616.0557, 0.0015684768, 0.00672638, -1522347.6, 78797.39, 0.0, 5.036651, 4.9729543 
5.345109e+2, 1.4159086e+2, -1481160.6, -1580494.8, -7916.3525, 0.007015548, 0.0145060355, -1480533.6, 71886.54, 0.0, 5.035263, 4.97054 
5.3448004e+2, 1.4656161e+2, -1435589.6, -1531971.6, -8429.339, 0.009541135, 0.009427753, -1434857.9, 68845.484, 0.0, 5.033857, 4.971077 
5.3444916e+2, 1.5153237e+2, -1390785.9, -1485054.0, -8571.658, 0.011750274, 0.0036887731, -1390012.9, 64973.85, 0.0, 5.0324492, 4.971075 
5.344183e+2, 1.5650308e+2, -1347308.0, -1440937.8, -8696.239, 0.013947416, -0.0016028921, -1346507.1, 59762.973, 0.0, 5.0310416, 4.970128 
5.3438586e+2, 1.6147086e+2, -1308228.4, -1406270.3, -11148.442, 0.014917038, -0.0011735331, -1306976.6, 50605.945, 0.0, 5.0296597, 4.966007 
5.3435117e+2, 1.664369e+2, -1262661.6, -1358143.4, -11567.514, 0.014458291, -0.0060550263, -1261280.3, 47632.06, 0.0, 5.02831, 4.9663424 
5.343165e+2, 1.7140299e+2, -1217553.4, -1311000.5, -11640.6, 0.01400002, -0.010804045, -1216125.3, 44116.37, 0.0, 5.0269594, 4.96634 
5.342818e+2, 1.7636909e+2, -1173533.6, -1266193.5, -11689.917, 0.013529486, -0.015145974, -1172081.6, 39489.254, 0.0, 5.0256095, 4.9655457 
5.342463e+2, 1.8133228e+2, -1134795.1, -1232842.4, -13140.334, 0.013090718, -0.011892759, -1133064.6, 29863.82, 0.0, 5.0242887, 4.960862 
5.3420955e+2, 1.8629318e+2, -1088802.6, -1184251.1, -13561.452, 0.01300567, -0.017530572, -1086913.1, 27395.52, 0.0, 5.023002, 4.9612784 
5.3417265e+2, 1.9125411e+2, -1043371.6, -1136873.9, -13693.152, 0.012924511, -0.02347317, -1041407.56, 24281.205, 0.0, 5.021715, 4.9612775 
5.341358e+2, 1.9621503e+2, -998808.1, -1091389.1, -13816.039, 0.012826302, -0.02911834, -996790.3, 20278.482, 0.0, 5.020428, 4.9606266 
5.340987e+2, 2.0117302e+2, -960431.1, -1059454.1, -14445.153, 0.0126391, -0.02660608, -958366.94, 10111.347, 0.0, 5.019172, 4.9553304 
5.340609e+2, 2.0612882e+2, -913993.4, -1010395.0, -14702.032, 0.012279337, -0.029024918, -911801.06, 8109.9443, 0.0, 5.0179586, 4.955824 
5.340231e+2, 2.110847e+2, -868215.0, -962781.75, -14774.299, 0.011867506, -0.03142804, -865960.5, 5382.607, 0.0, 5.016744, 4.955821 
5.339854e+2, 2.1604055e+2, -823081.1, -916602.2, -14838.369, 0.011405047, -0.03365071, -820783.3, 1991.9508, 0.0, 5.0155296, 4.955319 
5.339477e+2, 2.209936e+2, -784834.56, -885480.9, -14739.323, 0.011225494, -0.025614351, -782720.44, -8484.998, 0.0, 5.014305, 4.949637 
5.339102e+2, 2.2594388e+2, -738157.3, -835797.4, -14979.005, 0.01279891, -0.027918309, -735911.06, -10187.571, 0.0, 5.013047, 4.9503174 
5.338727e+2, 2.3089416e+2, -692367.2, -788080.0, -15139.616, 0.014526798, -0.031397395, -690029.56, -12817.766, 0.0, 5.011786, 4.950321 
5.3383523e+2, 2.3584443e+2, -647206.44, -741789.0, -15292.415, 0.01619721, -0.03490836, -644795.4, -16095.278, 0.0, 5.010525, 4.949824 
5.337983e+2, 2.4079166e+2, -608972.2, -710767.1, -14148.133, 0.016539088, -0.028958794, -607042.4, -26823.139, 0.0, 5.0092263, 4.9440293 
5.337623e+2, 2.4573731e+2, -562369.7, -660218.3, -13849.42, 0.011194279, -0.025521569, -560447.2, -28690.313, 0.0, 5.007743, 4.9450593 
5.337263e+2, 2.5068322e+2, -517140.0, -612641.4, -13935.142, 0.005206641, -0.021565331, -515148.2, -31855.61, 0.0, 5.006237, 4.945073 
5.336903e+2, 2.5562915e+2, -472130.28, -565608.6, -14015.956, -0.00087615283, -0.01729483, -470074.0, -35246.17, 0.0, 5.004731, 4.944888 
5.336557e+2, 2.6057267e+2, -435384.7, -537444.75, -11752.245, -0.004035994, 0.008394622, -434048.9, -47661.74, 0.0, 5.003267, 4.9380574 
5.33625e+2, 2.6551425e+2, -386631.13, -482454.47, -10990.732, 0.00032423777, 0.016634779, -385386.7, -47421.063, 0.0, 5.001839, 4.940531 
5.3359455e+2, 2.7045563e+2, -341065.06, -434681.94, -11127.982, 0.005199003, 0.017714364, -339760.47, -50214.004, 0.0, 5.0003996, 4.9405313 
5.3356415e+2, 2.753969e+2, -295522.56, -387025.7, -11252.868, 0.010329855, 0.018265521, -294159.03, -53031.293, 0.0, 4.9989586, 4.9404845 
5.3353465e+2, 2.8033313e+2, -264272.53, -372185.6, -8888.089, 0.013840595, 0.033412784, -263545.38, -70787.4, 0.0, 4.997537, 4.928881 
5.335074e+2, 2.852647e+2, -216655.38, -319440.47, -7603.9614, 0.0058443504, 0.04079752, -216095.89, -71666.33, 0.0, 4.996024, 4.930579 
5.334804e+2, 2.9019618e+2, -171244.13, -271711.5, -7599.266, -0.0039088577, 0.044270404, -170672.56, -74570.89, 0.0, 4.9944525, 4.9305553 
5.334535e+2, 2.9512763e+2, -125792.195, -223962.77, -7561.0757, -0.013376012, 0.04793823, -125213.25, -77439.42, 0.0, 4.992869, 4.930531 
5.334277e+2, 3.0007806e+2, -57806.902, -90309.29, -4467.245, -0.025673311, 0.071444504, -57204.09, -57204.09, 0.0, 4.9912133, 4.970407 
5.334079e+2, 3.050524e+2, -52290.816, -65876.1, -969.9684, -0.03795766, 0.022774328, -52221.91, -52221.91, 0.0, 4.9889812, 4.9800572 
5.333894e+2, 3.1002668e+2, -58104.266, -67605.04, 110.06543, -0.046784807, -0.051242594, -58102.99, -58102.99, 0.0, 4.9866133, 4.980357 
5.333713e+2, 3.1500113e+2, -63830.59, -69430.875, 994.6907, -0.05410805, -0.1284148, -63659.168, -63659.168, 0.0, 4.9842257, 4.9806585 
5.3965753e+2, 1.21715926e+2, -1648598.4, -1746098.3, -901.3503, -0.01306947, -0.0031585034, -1648590.1, 98603.56, 0.0, 5.0412865, 4.977539 
5.396299e+2, 1.2669301e+2, -1609248.3, -1710048.0, -4211.5503, -0.012930608, 0.025984205, -1609072.6, 89346.05, 0.0, 5.0398355, 4.9740515 
5.396026e+2, 1.3166612e+2, -1564719.5, -1663331.3, -4426.213, -0.00603913, 0.016560217, -1564521.3, 85162.24, 0.0, 5.038378, 4.9740505 
5.395754e+2, 1.3663921e+2, -1522308.6, -1621009.9, -4665.7495, 0.0008175885, 0.0084066065, -1522088.5, 78859.87, 0.0, 5.036918, 4.9725866 
5.395461e+2, 1.4161064e+2, -1480829.5, -1580808.4, -7923.968, 0.007055956, 0.014964886, -1480205.4, 72022.58, 0.0, 5.0354743, 4.9703355 
5.3951395e+2, 1.4658123e+2, -1435237.6, -1532207.1, -8446.425, 0.0099821575, 0.010060082, -1434507.4, 69005.33, 0.0, 5.03406, 4.970902 
5.3948164e+2, 1.5155181e+2, -1390454.3, -1485300.5, -8609.178, 0.012578997, 0.0045495937, -1389679.1, 65118.227, 0.0, 5.0326457, 4.9709 
5.3944933e+2, 1.5652238e+2, -1346997.1, -1441195.3, -8755.933, 0.015169653, -0.00050702214, -1346190.1, 59892.055, 0.0, 5.0312314, 4.969953 
5.394156e+2, 1.6149002e+2, -1307830.9, -1406313.8, -11196.624, 0.016486574, 0.000011418313, -1306573.9, 50821.926, 0.0, 5.0298414, 4.965908 
5.393796e+2, 1.6645592e+2, -1262283.1, -1358160.5, -11619.293, 0.016335854, -0.005338895, -1260895.1, 47831.39, 0.0, 5.0284777, 4.9662585 
5.393436e+2, 1.7142187e+2, -1217218.8, -1311038.9, -11711.14, 0.01618616, -0.010599177, -1215779.0, 44277.637, 0.0, 5.0271125, 4.9662566 
5.3930753e+2, 1.7638783e+2, -1173243.1, -1266251.1, -11776.524, 0.01602155, -0.015458187, -1171775.3, 39611.586, 0.0, 5.0257473, 4.965463 
5.392708e+2, 1.8135092e+2, -1134641.8, -1233053.3, -13203.851, 0.01574279, -0.012421536, -1132901.0, 29844.28, 0.0, 5.0243983, 4.9607415 
5.392327e+2, 1.863117e+2, -1088837.6, -1184622.8, -13607.661, 0.01552703, -0.017619032, -1086942.0, 27184.809, 0.0, 5.0230613, 4.961127 
5.391945e+2, 1.9127253e+2, -1043555.06, -1137318.9, -13732.245, 0.015309336, -0.02310348, -1041585.3, 23922.898, 0.0, 5.021723, 4.961125 
5.391564e+2, 1.9623333e+2, -999141.1, -1091907.6, -13848.131, 0.015077122, -0.028294787, -997118.0, 19771.52, 0.0, 5.020384, 4.960473 
5.39118e+2, 2.011912e+2, -960868.94, -1059937.1, -14418.496, 0.015054846, -0.02554531, -958813.06, 9487.191, 0.0, 5.019073, 4.955215 
5.3907907e+2, 2.0614682e+2, -914582.94, -1010870.44, -14660.367, 0.015385895, -0.028887518, -912400.3, 7334.0117, 0.0, 5.017791, 4.955742 
5.390401e+2, 2.1110252e+2, -869012.0, -963351.4, -14722.447, 0.015663197, -0.03233431, -866767.9, 4399.9233, 0.0, 5.016504, 4.955739 
5.3900117e+2, 2.160582e+2, -824091.7, -917268.06, -14772.54, 0.015881658, -0.035604093, -821805.7, 795.51917, 0.0, 5.0152144, 4.9552374 
5.389624e+2, 2.2101113e+2, -786070.75, -886358.9, -14679.153, 0.01646629, -0.027692422, -783966.4, -9904.26, 0.0, 5.0139346, 4.949509 
5.3892374e+2, 2.2596136e+2, -739434.4, -836831.25, -14916.685, 0.019661002, -0.028797166, -737201.0, -11650.168, 0.0, 5.0126886, 4.9501286 
5.3888524e+2, 2.3091155e+2, -693614.9, -789104.75, -15067.382, 0.023152608, -0.031134408, -691293.8, -14253.734, 0.0, 5.011437, 4.9501305 
5.388467e+2, 2.3586175e+2, -648449.1, -742814.9, -15211.988, 0.026601672, -0.033501633, -646057.56, -17528.25, 0.0, 5.010177, 4.9496307 
5.388086e+2, 2.4080877e+2, -610344.5, -712048.7, -14168.094, 0.02824734, -0.026916472, -608407.6, -28357.283, 0.0, 5.0088735, 4.943747 
5.38771e+2, 2.457539e+2, -563532.56, -661073.6, -14003.815, 0.022098906, -0.027356781, -561561.9, -29969.629, 0.0, 5.0073953, 4.9449167 
5.3873336e+2, 2.5069925e+2, -518304.4, -613502.3, -14132.731, 0.015104523, -0.028036796, -516250.63, -33118.24, 0.0, 5.0058875, 4.9449277 
5.3869575e+2, 2.5564462e+2, -473326.5, -566485.7, -14256.115, 0.00800831, -0.028455382, -471193.72, -36521.58, 0.0, 5.0043697, 4.944741 
5.386596e+2, 2.6058787e+2, -436846.22, -538787.56, -11937.944, 0.0031569153, -0.0033617823, -435466.88, -49233.297, 0.0, 5.0028763, 4.937764 
5.386272e+2, 2.6552984e+2, -388122.28, -483607.06, -11196.312, 0.0053969715, 0.010879755, -386827.0, -49017.188, 0.0, 5.0013943, 4.940322 
5.3859514e+2, 2.7047166e+2, -342717.66, -435907.3, -11371.648, 0.008326239, 0.017769083, -341350.1, -51961.598, 0.0, 4.9998965, 4.9403214 
5.3856313e+2, 2.754134e+2, -297340.6, -388319.38, -11557.194, 0.011414201, 0.024447462, -295895.4, -54928.074, 0.0, 4.9983974, 4.940274 
5.38532e+2, 2.803499e+2, -266377.53, -373929.13, -9229.864, 0.012802138, 0.04522485, -265591.2, -72994.48, 0.0, 4.996925, 4.9285483 
5.385035e+2, 2.8528056e+2, -219079.4, -320854.4, -8063.1455, 0.007814784, 0.04491018, -218444.56, -74165.68, 0.0, 4.9951982, 4.9304495 
5.3847533e+2, 2.9021093e+2, -174568.06, -273445.1, -7969.171, 0.0021950884, 0.038167123, -173929.89, -77966.87, 0.0, 4.993304, 4.9304466 
5.384472e+2, 2.951414e+2, -130231.836, -226104.72, -7807.2173, -0.0035348937, 0.032299843, -129600.23, -81953.81, 0.0, 4.991323, 4.930443 
5.384201e+2, 3.0009133e+2, -63190.906, -91893.26, -5021.8193, -0.011686004, 0.052044164, -62337.645, -62337.645, 0.0, 4.98915, 4.9707155 
5.3839946e+2, 3.05068e+2, -58299.74, -64389.313, -1765.5825, -0.01198298, 0.010669319, -57824.867, -57824.867, 0.0, 4.9860177, 4.9818587 
5.383804e+2, 3.100448e+2, -67605.805, -67877.72, -767.0702, -0.008025376, -0.059161846, -66962.734, -66962.734, 0.0, 4.982403, 4.982075 
5.383615e+2, 3.1502146e+2, -77756.63, -71838.414, -47.807636, -0.0037421074, -0.13472751, -71838.03, -71838.03, 0.0, 4.978442, 4.982293 
5.4470015e+2, 1.2174164e+2, -1641327.0, -1744394.0, 1136.6288, -0.015350071, 0.009057107, -1641314.5, 105628.75, 0.0, 5.044148, 4.976695 
5.446713e+2, 1.2671694e+2, -1601557.3, -1706511.6, -2031.9536, -0.011090282, 0.022453241, -1601517.9, 96668.04, 0.0, 5.042488, 4.973915 
5.446423e+2, 1.3169014e+2, -1557681.8, -1660133.9, -2120.7976, -0.005439, 0.015530977, -1557637.9, 91811.625, 0.0, 5.0408177, 4.973913 
5.4461336e+2, 1.3666332e+2, -1515917.0, -1618153.4, -2236.2112, 0.00023525246, 0.009859489, -1515868.1, 84845.19, 0.0, 5.0391474, 4.972444 
5.445825e+2, 1.4163472e+2, -1474964.5, -1578264.9, -5314.4517, 0.0056554303, 0.017805154, -1474691.8, 77301.305, 0.0, 5.037535, 4.9701757 
5.4454875e+2, 1.4660507e+2, -1429701.1, -1529883.1, -5808.7163, 0.008409477, 0.012516637, -1429365.5, 73914.85, 0.0, 5.0360246, 4.9707212 
5.44515e+2, 1.5157542e+2, -1385209.5, -1483128.8, -5971.6284, 0.010864673, 0.00661104, -1384846.6, 69720.98, 0.0, 5.0345154, 4.970719 
5.444813e+2, 1.5654573e+2, -1342041.3, -1439174.3, -6119.8633, 0.013327072, 0.0011684629, -1341657.1, 64197.844, 0.0, 5.0330067, 4.9697714 
5.4444605e+2, 1.6151316e+2, -1303019.0, -1404157.5, -8516.519, 0.014751863, 0.0014150933, -1302306.9, 54863.715, 0.0, 5.0315228, 4.9658194 
5.444087e+2, 1.6647896e+2, -1257753.6, -1356128.5, -8916.468, 0.015187276, -0.004075334, -1256952.0, 51550.26, 0.0, 5.030062, 4.9661794 
5.4437137e+2, 1.7144479e+2, -1212982.0, -1309155.1, -9000.454, 0.015636874, -0.009499616, -1212146.9, 47686.496, 0.0, 5.0286, 4.9661775 
5.4433393e+2, 1.7641062e+2, -1169294.1, -1264510.3, -9056.311, 0.01607109, -0.01454586, -1168440.4, 42724.164, 0.0, 5.0271387, 4.965385 
5.4429585e+2, 1.813736e+2, -1131028.5, -1231423.0, -10472.224, 0.016479759, -0.011739461, -1129947.8, 32576.295, 0.0, 5.025665, 4.9606867 
5.442563e+2, 1.8633433e+2, -1085760.3, -1183289.6, -10803.813, 0.017171089, -0.016701015, -1084577.8, 29328.53, 0.0, 5.0241537, 4.9610567 
5.442168e+2, 1.9129507e+2, -1040989.06, -1136237.6, -10856.829, 0.017879564, -0.021879964, -1039767.2, 25521.215, 0.0, 5.022641, 4.9610534 
5.441773e+2, 1.9625582e+2, -997081.1, -1091074.0, -10898.028, 0.018588483, -0.026762098, -995834.1, 20836.385, 0.0, 5.0211287, 4.9604006 
5.441376e+2, 2.0121364e+2, -959245.75, -1059164.6, -11343.2, 0.019174991, -0.023813207, -957974.25, 10107.461, 0.0, 5.019637, 4.9552064 
5.4409724e+2, 2.0616916e+2, -913526.1, -1010354.0, -11522.088, 0.019464288, -0.027831715, -912173.9, 7342.403, 0.0, 5.0181575, 4.955739 
5.440569e+2, 2.1112472e+2, -868516.6, -963094.56, -11532.12, 0.01972001, -0.032137513, -867130.8, 3819.6663, 0.0, 5.016675, 4.9557385 
5.4401654e+2, 2.160803e+2, -824147.4, -917264.2, -11532.752, 0.019959163, -0.036367387, -822740.3, -355.65506, 0.0, 5.015193, 4.955239 
5.4397637e+2, 2.2103313e+2, -786604.1, -886567.94, -11306.046, 0.02057054, -0.029411009, -785341.4, -11495.087, 0.0, 5.0137477, 4.9495134 
5.4393655e+2, 2.2598341e+2, -740252.1, -837330.1, -11390.612, 0.023613688, -0.0290514, -738933.56, -13598.894, 0.0, 5.012434, 4.9500647 
5.438967e+2, 2.3093368e+2, -694580.4, -789679.3, -11424.535, 0.026984114, -0.029562797, -693227.2, -16403.822, 0.0, 5.011131, 4.950063 
5.438568e+2, 2.3588395e+2, -649537.56, -743454.3, -11447.121, 0.030383516, -0.030151548, -648162.44, -19850.34, 0.0, 5.009827, 4.94956 
5.4381746e+2, 2.4083096e+2, -611628.25, -712841.6, -10335.62, 0.032345515, -0.02249818, -610583.6, -30750.266, 0.0, 5.0084724, 4.9436445 
5.437785e+2, 2.4577565e+2, -565008.5, -661978.06, -10170.383, 0.028032871, -0.025902681, -563953.3, -32574.357, 0.0, 5.006926, 4.9448056 
5.4373956e+2, 2.5072044e+2, -519930.06, -614494.06, -10261.819, 0.023071483, -0.03049927, -518829.28, -35905.7, 0.0, 5.005361, 4.944811 
5.4370064e+2, 2.556652e+2, -475072.7, -567551.1, -10346.645, 0.018044438, -0.035341926, -473929.22, -39460.84, 0.0, 5.003796, 4.944618 
5.4366297e+2, 2.6060796e+2, -438724.03, -539378.8, -7881.0513, 0.014068542, -0.014904146, -438110.7, -52076.742, 0.0, 5.002155, 4.937873 
5.4362875e+2, 2.6555017e+2, -391221.78, -485071.28, -6923.732, 0.0142793795, 0.0021250837, -390713.72, -53106.16, 0.0, 5.0002985, 4.940299 
5.435948e+2, 2.7049232e+2, -346847.72, -437867.44, -6888.824, 0.015098762, 0.013837786, -346329.28, -57146.844, 0.0, 4.9984293, 4.9402895 
5.4356086e+2, 2.7543443e+2, -302487.88, -390774.56, -6843.776, 0.016068764, 0.025705164, -301960.5, -61203.285, 0.0, 4.9965606, 4.9402323 
5.4352796e+2, 2.8037113e+2, -272494.8, -376532.16, -4185.873, 0.016154751, 0.048809078, -272326.66, -79941.65, 0.0, 4.994663, 4.9286513 
5.434978e+2, 2.8530118e+2, -226273.38, -323986.4, -3092.089, 0.014489752, 0.0421716, -226175.63, -82100.82, 0.0, 4.992552, 4.930523 
5.434679e+2, 2.9023087e+2, -182448.08, -276714.22, -3060.1494, 0.013160929, 0.028114868, -182348.83, -86581.164, 0.0, 4.990393, 4.930558 
5.43438e+2, 2.9516056e+2, -138578.38, -229408.81, -3038.2935, 0.012009387, 0.013813373, -138476.86, -91016.484, 0.0, 4.9882336, 4.9305935 
5.4340917e+2, 3.0011004e+2, -71343.86, -94771.086, -660.89557, 0.009468903, 0.02787522, -71325.23, -71325.23, 0.0, 4.986053, 4.9709835 
5.433867e+2, 3.05089e+2, -64409.727, -65424.746, 1326.6813, 0.020887828, 0.0027522056, -63496.797, -63496.797, 0.0, 4.9835057, 4.982566 
5.4336554e+2, 3.10069e+2, -71358.53, -68012.6, 1140.6149, 0.03853659, -0.042283863, -67660.766, -67660.766, 0.0, 4.9808583, 4.982721 
5.433445e+2, 3.150492e+2, -78284.52, -70633.305, 909.2287, 0.057447344, -0.08803347, -70526.734, -70526.734, 0.0, 4.9782076, 4.9828763 
5.49744e+2, 1.2176908e+2, -1642662.1, -1747194.8, -169.09325, -0.01767077, 0.021609917, -1642661.9, 104014.15, 0.0, 5.044154, 4.9757757 
5.4971397e+2, 1.2674242e+2, -1601686.9, -1706847.9, -3290.7065, -0.008391019, 0.017092902, -1601584.0, 96353.99, 0.0, 5.0424957, 4.9738054 
5.4968315e+2, 1.3171586e+2, -1557811.1, -1660468.6, -3378.875, -0.0043702116, 0.013611929, -1557700.0, 91498.85, 0.0, 5.040825, 4.9738035 
5.4965234e+2, 1.3668928e+2, -1516052.0, -1618499.8, -3503.1682, -0.00034398225, 0.011380317, -1515932.4, 84527.67, 0.0, 5.039154, 4.9723306 
5.496197e+2, 1.4166074e+2, -1475181.4, -1578780.3, -6483.0884, 0.0038700234, 0.021281239, -1474777.3, 76961.69, 0.0, 5.037542, 4.970006 
5.4958445e+2, 1.4663084e+2, -1429958.8, -1530484.0, -6948.7183, 0.006285928, 0.015479509, -1429480.6, 73548.17, 0.0, 5.0360312, 4.9705234 
5.495492e+2, 1.5160093e+2, -1385465.5, -1483728.3, -7111.711, 0.008423112, 0.009033451, -1384953.5, 69365.47, 0.0, 5.0345225, 4.970521 
5.495139e+2, 1.56571e+2, -1342297.1, -1439775.8, -7264.1514, 0.010563611, 0.0030547248, -1341758.9, 63850.223, 0.0, 5.0330133, 4.969572 
5.4947716e+2, 1.6153826e+2, -1303131.3, -1404457.9, -9635.795, 0.0119800735, 0.0029692606, -1302223.0, 54703.61, 0.0, 5.03153, 4.965721 
5.494384e+2, 1.6650395e+2, -1257854.6, -1356406.9, -10023.252, 0.013062359, -0.0025147162, -1256845.5, 51413.492, 0.0, 5.0300694, 4.966088 
5.493997e+2, 1.714697e+2, -1213081.9, -1309433.5, -10107.088, 0.014171663, -0.00792471, -1212033.1, 47557.863, 0.0, 5.028608, 4.966086 
5.493608e+2, 1.7643544e+2, -1169392.1, -1264786.8, -10161.625, 0.0152593, -0.012953088, -1168321.8, 42601.094, 0.0, 5.0271463, 4.965294 
5.4932135e+2, 1.8139833e+2, -1131063.9, -1231578.5, -11622.24, 0.016493693, -0.010275427, -1129737.6, 32545.498, 0.0, 5.025674, 4.9606357 
5.4928046e+2, 1.86359e+2, -1085802.5, -1183461.3, -11952.044, 0.018359587, -0.015186345, -1084361.0, 29304.854, 0.0, 5.024163, 4.9610004 
5.492396e+2, 1.9131972e+2, -1041032.44, -1136410.4, -12004.187, 0.020235173, -0.020243809, -1039544.8, 25503.67, 0.0, 5.02265, 4.960997 
5.491987e+2, 1.9628042e+2, -997125.7, -1091247.9, -12044.357, 0.022097282, -0.024984796, -995608.9, 20822.162, 0.0, 5.021137, 4.960344 
5.4915756e+2, 2.0123823e+2, -959193.8, -1059138.5, -12468.5625, 0.023252169, -0.021840872, -957661.75, 10180.405, 0.0, 5.0196466, 4.9552174 
5.4911566e+2, 2.0619372e+2, -913482.9, -1010347.44, -12646.465, 0.023074638, -0.026239894, -911859.0, 7417.733, 0.0, 5.0181675, 4.955744 
5.4907376e+2, 2.1114925e+2, -868474.6, -963088.7, -12654.591, 0.022833033, -0.030986542, -866811.3, 3899.532, 0.0, 5.016685, 4.9557433 
5.4903185e+2, 2.1610476e+2, -824106.6, -917258.94, -12653.198, 0.022561649, -0.035632517, -822418.5, -273.49335, 0.0, 5.0152025, 4.9552436 
5.4899025e+2, 2.2105753e+2, -786529.94, -886523.8, -12356.479, 0.0227289, -0.029435705, -785025.6, -11418.695, 0.0, 5.0137625, 4.9495287 
5.48949e+2, 2.2600791e+2, -740235.44, -837412.94, -12388.301, 0.025074642, -0.028232459, -738681.0, -13586.0625, 0.0, 5.0124483, 4.9500375 
5.4890776e+2, 2.3095828e+2, -694572.3, -789765.8, -12417.079, 0.02763815, -0.027427146, -692979.3, -16396.342, 0.0, 5.0111427, 4.9500356 
5.488665e+2, 2.3590864e+2, -649538.2, -743544.44, -12434.42, 0.030193062, -0.02661139, -647921.25, -19850.266, 0.0, 5.0098367, 4.9495325 
5.488258e+2, 2.4085574e+2, -611637.5, -712952.5, -11466.774, 0.031992946, -0.01790519, -610355.9, -30764.396, 0.0, 5.0084825, 4.9436088 
5.4878557e+2, 2.4580015e+2, -565089.0, -662234.2, -11368.951, 0.030694673, -0.023131771, -563776.25, -32637.129, 0.0, 5.006934, 4.9447217 
5.487454e+2, 2.5074464e+2, -520022.56, -614755.2, -11451.722, 0.029031139, -0.02979098, -518657.88, -35971.684, 0.0, 5.005366, 4.9447265 
5.487053e+2, 2.556891e+2, -475177.1, -567817.2, -11527.838, 0.027257644, -0.03655895, -473764.16, -39530.863, 0.0, 5.0037975, 4.9445333 
5.486661e+2, 2.6063153e+2, -438363.47, -538634.44, -9247.502, 0.025237378, -0.020173075, -437517.75, -51716.566, 0.0, 5.0021605, 4.9381423 
5.4862994e+2, 2.6557374e+2, -391072.94, -484793.63, -8350.09, 0.024034576, -0.0045349635, -390334.78, -52961.004, 0.0, 5.0003023, 4.940419 
5.4859394e+2, 2.7051592e+2, -346716.4, -437578.22, -8292.563, 0.023208024, 0.0076437043, -345965.78, -57019.258, 0.0, 4.9984264, 4.940415 
5.48558e+2, 2.7545813e+2, -302374.13, -390473.75, -8224.902, 0.022472564, 0.020041524, -301612.84, -61093.723, 0.0, 4.9965506, 4.940363 
5.485231e+2, 2.803948e+2, -272189.38, -375720.78, -5707.675, 0.021467028, 0.04153512, -271875.66, -79729.6, 0.0, 4.994643, 4.9289465 
5.4849094e+2, 2.85325e+2, -226225.02, -323770.8, -4784.822, 0.0208098, 0.03495873, -225990.88, -82154.72, 0.0, 4.9925313, 4.930616 
5.4845905e+2, 2.9025492e+2, -182394.55, -276521.06, -4737.781, 0.02055755, 0.023057971, -182156.67, -86628.08, 0.0, 4.9903765, 4.9306436 
5.4842716e+2, 2.9518488e+2, -138519.61, -229238.06, -4700.8423, 0.020419167, 0.010930731, -138276.67, -91055.72, 0.0, 4.98822, 4.9306717 
5.4839635e+2, 3.0013457e+2, -71095.3, -94155.91, -2375.0676, 0.019243998, 0.026191384, -70853.22, -70853.22, 0.0, 4.9860363, 4.97122 
5.4837173e+2, 3.0511454e+2, -64247.117, -65183.73, -567.8643, 0.032504085, 0.009484933, -63979.367, -63979.367, 0.0, 4.9835095, 4.9826655 
5.483482e+2, 3.1009582e+2, -71108.95, -67823.555, -693.0208, 0.051464826, -0.023550693, -67683.35, -67683.35, 0.0, 4.980897, 4.982793 
5.4832476e+2, 3.1507722e+2, -77947.95, -70496.21, -863.5594, 0.07129967, -0.057717405, -70397.445, -70397.445, 0.0, 4.9782805, 4.9829206 
5.54788e+2, 1.217962e+2, -1643837.1, -1749667.9, -1475.6376, -0.01938072, 0.03099193, -1643816.5, 102595.68, 0.0, 5.044161, 4.974964 
5.5475664e+2, 1.2676792e+2, -1601816.4, -1707184.4, -4549.8286, -0.005727312, 0.0118101565, -1601620.3, 96069.84, 0.0, 5.0425034, 4.9736953 
5.54724e+2, 1.317416e+2, -1557940.3, -1660803.9, -4637.3213, -0.0033375255, 0.0117546795, -1557731.6, 91216.63, 0.0, 5.0408325, 4.9736934 
5.546914e+2, 1.3671523e+2, -1516186.8, -1618846.8, -4770.6143, -0.0009598844, 0.012947173, -1515965.5, 84241.12, 0.0, 5.0391617, 4.9722166 
5.546569e+2, 1.4168677e+2, -1475405.0, -1579311.0, -7651.5347, 0.0020751723, 0.024771592, -1474844.6, 76640.21, 0.0, 5.0375495, 4.969832 
5.546202e+2, 1.4665662e+2, -1430215.9, -1531085.5, -8088.548, 0.0041584284, 0.01844597, -1429571.4, 73206.016, 0.0, 5.036039, 4.970325 
5.545833e+2, 1.5162645e+2, -1385721.0, -1484328.3, -8251.62, 0.0059784492, 0.011451901, -1385035.3, 69034.92, 0.0, 5.0345297, 4.9703226 
5.5454654e+2, 1.5659627e+2, -1342552.8, -1440378.0, -8408.33, 0.0077979006, 0.0049294815, -1341835.3, 63527.848, 0.0, 5.033021, 4.9693727 
5.545083e+2, 1.6156334e+2, -1303244.3, -1404761.6, -10754.726, 0.009201874, 0.0045268224, -1302117.4, 54565.242, 0.0, 5.031537, 4.9656215 
5.5446815e+2, 1.6652894e+2, -1257955.1, -1356685.8, -11129.663, 0.010929887, -0.0009568329, -1256716.1, 51299.715, 0.0, 5.0300765, 4.9659963 
5.54428e+2, 1.714946e+2, -1213181.4, -1309712.3, -11213.349, 0.012699165, -0.0063639157, -1211895.9, 47452.617, 0.0, 5.0286155, 4.9659944 
5.543878e+2, 1.7646025e+2, -1169489.8, -1265063.8, -11266.5625, 0.014440489, -0.011385791, -1168179.6, 42501.547, 0.0, 5.027154, 4.9652023 
5.5434686e+2, 1.8142307e+2, -1131106.3, -1231750.1, -12770.802, 0.016518379, -0.008782861, -1129511.0, 32531.072, 0.0, 5.0256834, 4.9605794 
5.543046e+2, 1.863837e+2, -1085844.5, -1183633.4, -13099.982, 0.01956351, -0.013646403, -1084120.0, 29305.451, 0.0, 5.0241723, 4.9609437 
5.5426234e+2, 1.9134437e+2, -1041075.56, -1136583.6, -13151.253, 0.022608032, -0.018607354, -1039297.75, 25510.809, 0.0, 5.0226593, 4.9609404 
5.5422e+2, 1.9630502e+2, -997169.94, -1091422.3, -13190.395, 0.02562516, -0.023232136, -995358.75, 20832.807, 0.0, 5.0211463, 4.9602866 
5.541774e+2, 2.0126283e+2, -959147.4, -1059125.6, -13590.969, 0.027315803, -0.019834545, -957332.75, 10269.904, 0.0, 5.019657, 4.955224 
5.54134e+2, 2.0621829e+2, -913439.44, -1010341.3, -13771.116, 0.02665104, -0.024642853, -911520.4, 7516.7266, 0.0, 5.018178, 4.955748 
5.5409056e+2, 2.1117377e+2, -868432.44, -963083.2, -13777.336, 0.025903411, -0.02988725, -866467.8, 4003.4495, 0.0, 5.016695, 4.955747 
5.5404717e+2, 2.1612924e+2, -824065.7, -917254.1, -13773.919, 0.02511281, -0.03500617, -822072.44, -167.04279, 0.0, 5.0152125, 4.9552474 
5.54004e+2, 2.2108197e+2, -786491.06, -886557.5, -13398.19, 0.024857048, -0.029318566, -784728.2, -11360.562, 0.0, 5.0137773, 4.9495173 
5.539614e+2, 2.2603239e+2, -740219.2, -837495.75, -13386.727, 0.026504071, -0.02724906, -738410.6, -13555.421, 0.0, 5.012463, 4.950009 
5.5391884e+2, 2.3098287e+2, -694564.75, -789852.3, -13410.362, 0.028259609, -0.025248177, -692713.44, -16370.878, 0.0, 5.0111547, 4.950007 
5.538762e+2, 2.3593335e+2, -649539.2, -743634.56, -13422.459, 0.029968986, -0.023148922, -647662.0, -19832.15, 0.0, 5.009846, 4.949504 
5.538341e+2, 2.4088052e+2, -611686.56, -713153.2, -12590.746, 0.031609073, -0.013160273, -610147.5, -30797.943, 0.0, 5.0084934, 4.9435415 
5.537927e+2, 2.4582466e+2, -565169.8, -662490.75, -12568.602, 0.0333152, -0.020265276, -563572.8, -32673.572, 0.0, 5.0069427, 4.944635 
5.537513e+2, 2.5076884e+2, -520115.28, -615016.75, -12642.71, 0.034947015, -0.029224852, -518459.9, -36011.086, 0.0, 5.0053706, 4.9446397 
5.537099e+2, 2.55713e+2, -475281.7, -568083.7, -12710.119, 0.03642457, -0.0381556, -473572.4, -39574.117, 0.0, 5.003799, 4.944446 
5.536694e+2, 2.6065513e+2, -438134.94, -538189.7, -10606.19, 0.036413193, -0.025112817, -437023.0, -51454.61, 0.0, 5.0021667, 4.938305 
5.536311e+2, 2.6559725e+2, -390925.28, -484516.1, -9787.478, 0.033787835, -0.010753881, -389912.7, -52772.79, 0.0, 5.0003066, 4.9405317 
5.535931e+2, 2.7053952e+2, -346586.25, -437289.06, -9707.335, 0.03128077, 0.0013254045, -345558.97, -56848.258, 0.0, 4.998424, 4.9405327 
5.5355513e+2, 2.754818e+2, -302261.44, -390172.94, -9617.062, 0.028805314, 0.0136890495, -301221.66, -60940.406, 0.0, 4.9965415, 4.940486 
5.5351824e+2, 2.8041846e+2, -272040.2, -375264.63, -7239.3877, 0.026657121, 0.03423631, -271534.94, -79627.78, 0.0, 4.9946246, 4.929116 
5.534841e+2, 2.853488e+2, -226179.22, -323553.34, -6467.331, 0.02705567, 0.028233547, -225751.55, -82154.12, 0.0, 4.9925113, 4.9307046 
5.5345017e+2, 2.90279e+2, -182343.52, -276326.03, -6405.19, 0.027970385, 0.01809074, -181908.98, -86619.38, 0.0, 4.9903603, 4.9307246 
5.5341625e+2, 2.9520917e+2, -138463.27, -229065.36, -6353.171, 0.028935408, 0.00774032, -138019.95, -91038.195, 0.0, 4.9882073, 4.930745 
5.5338347e+2, 3.0015907e+2, -70954.72, -93780.02, -4085.2253, 0.029012207, 0.024349565, -70245.58, -70245.58, 0.0, 4.9860206, 4.9713593 
5.5335665e+2, 3.0514002e+2, -64089.805, -64937.57, -2423.2078, 0.044096857, 0.015464338, -62053.684, -62053.684, 0.0, 4.983515, 4.9827447 
5.533309e+2, 3.1012252e+2, -70864.69, -67629.39, -2487.442, 0.06454547, -0.0069140415, -66279.86, -66279.86, 0.0, 4.980937, 4.982845 
5.533052e+2, 3.151051e+2, -77616.69, -70354.04, -2597.1184, 0.08547995, -0.030838491, -69520.89, -69520.89, 0.0, 4.978355, 4.982945 
5.5983204e+2, 1.21823e+2, -1643984.9, -1751127.5, -1479.8492, -0.019404493, 0.034849145, -1643964.5, 102187.08, 0.0, 5.0444117, 4.974362 
5.597993e+2, 1.267938e+2, -1601218.4, -1707166.1, -4562.7554, -0.0035627556, 0.008183522, -1601022.1, 96415.94, 0.0, 5.0427647, 4.9735737 
5.597648e+2, 1.3176762e+2, -1557351.5, -1660790.8, -4716.07, -0.0025906062, 0.010594168, -1557136.9, 91557.8, 0.0, 5.0410905, 4.9735727 
5.597304e+2, 1.3674138e+2, -1515622.5, -1618856.4, -4922.751, -0.0016241475, 0.014307638, -1515388.3, 84563.22, 0.0, 5.0394135, 4.9720917 
5.5969423e+2, 1.4171289e+2, -1474933.4, -1579478.9, -7736.2305, 0.00041029687, 0.027562963, -1474364.0, 76865.54, 0.0, 5.037792, 4.9696603 
5.596559e+2, 1.4668253e+2, -1429814.5, -1531328.9, -8136.342, 0.0021627024, 0.020920837, -1429166.5, 73358.14, 0.0, 5.036266, 4.970136 
5.596176e+2, 1.5165213e+2, -1385363.5, -1484594.3, -8290.799, 0.00366286, 0.013582241, -1384675.6, 69144.38, 0.0, 5.0347424, 4.9701333 
5.5957913e+2, 1.5662172e+2, -1342237.4, -1440667.6, -8443.0625, 0.0051594446, 0.0066991877, -1341518.4, 63597.06, 0.0, 5.0332193, 4.9691825 
5.5953944e+2, 1.6158861e+2, -1302839.9, -1404798.4, -10762.459, 0.0065221875, 0.006102298, -1301716.1, 54720.613, 0.0, 5.0317206, 4.9655237 
5.594979e+2, 1.6655412e+2, -1257599.9, -1356731.5, -11145.188, 0.008835615, 0.00062228076, -1256362.4, 51408.492, 0.0, 5.03024, 4.9659057 
5.594563e+2, 1.7151967e+2, -1212889.1, -1309790.0, -11249.126, 0.011224648, -0.004792524, -1211600.4, 47504.023, 0.0, 5.028757, 4.965903 
5.5941474e+2, 1.7648523e+2, -1169263.5, -1265173.1, -11320.492, 0.013598927, -0.009827451, -1167945.5, 42492.54, 0.0, 5.027273, 4.9651117 
5.5937237e+2, 1.8144795e+2, -1130857.9, -1231768.1, -12874.444, 0.016504932, -0.007251956, -1129241.3, 32558.484, 0.0, 5.025793, 4.960524 
5.5932873e+2, 1.8640853e+2, -1085549.6, -1183614.8, -13205.518, 0.02065509, -0.012072595, -1083802.5, 29381.064, 0.0, 5.0242953, 4.9608946 
5.5928504e+2, 1.9136916e+2, -1040752.5, -1136551.5, -13256.381, 0.024806026, -0.016980918, -1038951.94, 25615.23, 0.0, 5.0227923, 4.9608912 
5.5924135e+2, 1.9632977e+2, -996829.94, -1091382.3, -13293.086, 0.028931238, -0.021552103, -994996.6, 20954.127, 0.0, 5.021286, 4.9602375 
5.591973e+2, 2.0128758e+2, -958772.1, -1058944.1, -13670.81, 0.03114825, -0.017888485, -956939.94, 10421.816, 0.0, 5.019785, 4.9552293 
5.591524e+2, 2.06243e+2, -913159.94, -1010215.0, -13892.593, 0.030120341, -0.023053093, -911210.5, 7585.673, 0.0, 5.0182743, 4.9557495 
5.591075e+2, 2.111984e+2, -868250.06, -963005.6, -13936.167, 0.029019875, -0.028806435, -866242.94, 3987.552, 0.0, 5.0167575, 4.955748 
5.5906254e+2, 2.1615385e+2, -823989.9, -917228.94, -13968.966, 0.02787809, -0.034463897, -821942.0, -277.23657, 0.0, 5.015238, 4.9552474 
5.5901796e+2, 2.211065e+2, -786605.2, -886682.2, -13525.476, 0.027343662, -0.029093951, -784809.44, -11682.19, 0.0, 5.013747, 4.949491 
5.5897385e+2, 2.2605701e+2, -740622.25, -837723.06, -13457.228, 0.028287226, -0.026204389, -738791.75, -14177.352, 0.0, 5.012326, 4.949996 
5.5892986e+2, 2.3100756e+2, -695294.2, -790228.44, -13445.062, 0.029260108, -0.023244184, -693426.8, -17325.701, 0.0, 5.0109034, 4.9499946 
5.5888593e+2, 2.3595814e+2, -650602.3, -744161.06, -13416.295, 0.030181859, -0.02015452, -648716.44, -21128.688, 0.0, 5.009478, 4.949491 
5.588424e+2, 2.4090539e+2, -613096.56, -714015.6, -12653.537, 0.03168844, -0.008788512, -611534.2, -32427.514, 0.0, 5.0080404, 4.943451 
5.5879974e+2, 2.4584928e+2, -566461.1, -663307.0, -12752.55, 0.03623729, -0.017500665, -564810.0, -34151.72, 0.0, 5.0065317, 4.944539 
5.5875707e+2, 2.5079313e+2, -521280.1, -615776.4, -12875.029, 0.041061167, -0.028744467, -519557.28, -37346.88, 0.0, 5.0050025, 4.944543 
5.587144e+2, 2.5573698e+2, -476352.25, -568800.1, -12986.579, 0.045751456, -0.039967787, -474562.6, -40800.176, 0.0, 5.0034633, 4.944349 
5.586725e+2, 2.606788e+2, -438953.2, -538434.9, -11080.65, 0.04783143, -0.029622706, -437733.9, -52399.19, 0.0, 5.0018477, 4.9383683 
5.5863225e+2, 2.6562092e+2, -391757.2, -484654.44, -10392.459, 0.043777525, -0.016570235, -390608.78, -53703.523, 0.0, 4.999962, 4.940645 
5.585922e+2, 2.7056316e+2, -347540.28, -437456.7, -10319.349, 0.03956502, -0.005307464, -346371.2, -57896.684, 0.0, 4.9980345, 4.9406524 
5.5855215e+2, 2.7550542e+2, -303377.78, -390384.13, -10226.283, 0.0353403, 0.0062365434, -302192.0, -62148.598, 0.0, 4.996094, 4.940612 
5.585132e+2, 2.8044215e+2, -273475.34, -375757.25, -7968.884, 0.03203594, 0.026277663, -272858.2, -81189.96, 0.0, 4.9941034, 4.9291654 
5.584771e+2, 2.8537264e+2, -227655.08, -324010.88, -7374.527, 0.033555526, 0.021324435, -227093.94, -83735.33, 0.0, 4.9919624, 4.930776 
5.584412e+2, 2.9030305e+2, -183891.39, -276855.38, -7383.8706, 0.035749316, 0.012579817, -183308.56, -88257.78, 0.0, 4.989786, 4.9307857 
5.5840534e+2, 2.952334e+2, -140124.64, -229679.81, -7415.2886, 0.03794243, 0.003636622, -139514.8, -92771.766, 0.0, 4.987594, 4.9307957 
5.5837053e+2, 3.001835e+2, -72783.64, -94411.73, -5260.015, 0.03926855, 0.021855732, -71572.24, -71572.24, 0.0, 4.985328, 4.9714184 
5.5834156e+2, 3.0516556e+2, -66570.94, -65768.49, -3720.2434, 0.05665412, 0.021196906, -62427.9, -62427.9, 0.0, 4.9825664, 4.9828277 
5.583136e+2, 3.1014937e+2, -74438.695, -69004.25, -3839.4072, 0.07950228, 0.00971085, -67017.82, -67017.82, 0.0, 4.9796066, 4.9828978 
5.582857e+2, 3.151332e+2, -82602.81, -72400.734, -4076.245, 0.10264779, -0.0033667055, -70972.12, -70972.12, 0.0, 4.97653, 4.982969 
5.648782e+2, 1.2185283e+2, -1636099.3, -1746511.9, 1405.2727, -0.014544649, 0.023224527, -1636081.4, 109780.0, 0.0, 5.0469236, 4.9746428 
5.648431e+2, 1.268254e+2, -1594393.0, -1704233.4, -1801.6699, -0.005240414, 0.016258262, -1594363.4, 102766.305, 0.0, 5.0451713, 4.973358 
5.6480694e+2, 1.3179852e+2, -1550863.4, -1658034.5, -2009.7224, -0.0038817767, 0.0144183375, -1550825.8, 97566.73, 0.0, 5.0433884, 4.9733577 
5.6477076e+2, 1.3677162e+2, -1509464.5, -1616281.9, -2279.0347, -0.0025243526, 0.01395455, -1509415.9, 90239.52, 0.0, 5.041606, 4.9718723 
5.647329e+2, 1.417427e+2, -1468931.6, -1576762.5, -4999.8013, -0.00040687108, 0.02491489, -1468700.3, 82237.26, 0.0, 5.039883, 4.9695415 
5.64693e+2, 1.4671233e+2, -1424143.8, -1528784.6, -5330.9023, 0.0010040128, 0.019572813, -1423872.9, 78360.22, 0.0, 5.0382495, 4.970018 
5.64653e+2, 1.5168191e+2, -1380026.4, -1482223.0, -5438.6553, 0.0021662791, 0.013608024, -1379737.8, 73791.14, 0.0, 5.036617, 4.9700146 
5.64613e+2, 1.5665148e+2, -1337235.5, -1438472.5, -5546.45, 0.003323002, 0.008071265, -1336932.5, 67892.3, 0.0, 5.034984, 4.969062 
5.645717e+2, 1.6161835e+2, -1298073.0, -1402581.6, -7787.613, 0.00438153, 0.008299134, -1297495.9, 58650.902, 0.0, 5.0333753, 4.965466 
5.645286e+2, 1.6658376e+2, -1253165.5, -1354700.5, -8124.3457, 0.0064856447, 0.002825613, -1252519.6, 54962.51, 0.0, 5.0317883, 4.9658413 
5.6448543e+2, 1.7154922e+2, -1208770.3, -1307919.3, -8195.489, 0.008695269, -0.0025990866, -1208097.4, 50719.547, 0.0, 5.0302005, 4.9658384 
5.644423e+2, 1.7651466e+2, -1165453.0, -1263457.0, -8231.217, 0.010920404, -0.0076510385, -1164766.5, 45385.29, 0.0, 5.0286136, 4.9650474 
5.643984e+2, 1.8147732e+2, -1127182.4, -1229964.4, -9720.633, 0.013755455, -0.004983443, -1126271.1, 35243.15, 0.0, 5.027055, 4.960528 
5.643532e+2, 1.864379e+2, -1081951.5, -1181822.9, -9989.514, 0.017859686, -0.009515735, -1080962.1, 31935.916, 0.0, 5.025528, 4.9609113 
5.6430805e+2, 1.9139855e+2, -1037233.2, -1134799.8, -9991.932, 0.021974472, -0.014153331, -1036220.44, 28061.102, 0.0, 5.0240006, 4.9609084 
5.642628e+2, 1.9635916e+2, -993377.75, -1089664.8, -9979.542, 0.026085705, -0.018478362, -992354.3, 23310.654, 0.0, 5.022474, 4.960256 
5.6421727e+2, 2.0131698e+2, -955465.75, -1057211.1, -10347.705, 0.028770082, -0.0149516305, -954424.06, 12651.93, 0.0, 5.0209074, 4.9552855 
5.6417096e+2, 2.0627232e+2, -910317.56, -1008817.8, -10540.462, 0.029419167, -0.02045696, -909202.25, 9308.752, 0.0, 5.0192604, 4.955758 
5.641246e+2, 2.1122767e+2, -865792.75, -961799.9, -10551.641, 0.03006099, -0.02655279, -864646.75, 5299.2305, 0.0, 5.0176115, 4.9557557 
5.640783e+2, 2.16183e+2, -821904.8, -916208.0, -10551.169, 0.030676054, -0.032628387, -820738.7, 642.38684, 0.0, 5.0159626, 4.9552536 
5.6403214e+2, 2.2113563e+2, -784922.9, -885659.9, -10056.189, 0.0312772, -0.027830923, -783928.8, -11084.741, 0.0, 5.0142937, 4.9495797 
5.639864e+2, 2.2608618e+2, -739783.3, -836992.56, -9909.072, 0.031461492, -0.025194861, -738783.5, -14453.319, 0.0, 5.0125594, 4.9501286 
5.6394076e+2, 2.3103681e+2, -695358.5, -789906.6, -9816.241, 0.03159415, -0.022475183, -694350.06, -18534.32, 0.0, 5.0108204, 4.95013 
5.638951e+2, 2.3598744e+2, -651555.9, -744238.9, -9709.383, 0.03173186, -0.019709637, -650549.7, -23248.357, 0.0, 5.0090814, 4.9496303 
5.638499e+2, 2.409348e+2, -614767.5, -714375.5, -8725.686, 0.032643784, -0.008753914, -614008.9, -35189.95, 0.0, 5.007388, 4.943609 
5.6380576e+2, 2.4587879e+2, -568332.06, -664102.75, -8597.693, 0.03733588, -0.01623935, -567566.3, -37196.574, 0.0, 5.005875, 4.9445486 
5.6376165e+2, 2.5082266e+2, -523048.9, -616533.0, -8554.518, 0.04253076, -0.026186718, -522272.56, -40351.215, 0.0, 5.004378, 4.9445496 
5.637176e+2, 2.5576657e+2, -477986.94, -569506.7, -8504.651, 0.047770444, -0.036427435, -477203.3, -43730.2, 0.0, 5.002881, 4.9443526 
5.6367415e+2, 2.6070824e+2, -440366.3, -538742.75, -6649.1, 0.0508392, -0.027512372, -439918.97, -54872.36, 0.0, 5.001285, 4.938501 
5.636321e+2, 2.656501e+2, -393295.44, -485094.03, -6131.9556, 0.04755206, -0.017372191, -392887.66, -56268.887, 0.0, 4.999374, 4.9407454 
5.6359017e+2, 2.7059212e+2, -349109.63, -437883.2, -6159.4907, 0.043923855, -0.008590057, -348684.28, -60495.008, 0.0, 4.997436, 4.9407587 
5.6354815e+2, 2.7553418e+2, -304941.78, -390777.8, -6187.109, 0.040285494, 0.00018509522, -304498.1, -64738.492, 0.0, 4.995499, 4.9407244 
5.635073e+2, 2.8047067e+2, -275026.2, -375813.66, -4018.012, 0.037709143, 0.017214647, -274866.25, -83480.78, 0.0, 4.993474, 4.9293957 
5.6346905e+2, 2.8540128e+2, -229499.64, -324387.5, -3247.6326, 0.03944069, 0.0120261945, -229388.61, -86313.85, 0.0, 4.991263, 4.930925 
5.6343096e+2, 2.9033178e+2, -185852.47, -277350.88, -3040.5874, 0.04168195, 0.0038882378, -185751.55, -90985.91, 0.0, 4.9890447, 4.930916 
5.6339294e+2, 2.9526228e+2, -142161.69, -230276.25, -2824.633, 0.043981884, -0.004350989, -142071.23, -95614.52, 0.0, 4.9868245, 4.9309072 
5.6335604e+2, 3.002127e+2, -74339.14, -94072.17, -524.74774, 0.04620554, 0.01444066, -74325.195, -74325.195, 0.0, 4.9845686, 4.971872 
5.6332445e+2, 3.0519602e+2, -68748.01, -67150.375, 216.4993, 0.06525384, 0.028340332, -67121.56, -67121.56, 0.0, 4.9818583, 4.9826674 
5.632939e+2, 3.1018135e+2, -76250.06, -70246.59, -751.8629, 0.0902154, 0.037389535, -70153.86, -70153.86, 0.0, 4.9790363, 4.982729 
5.632634e+2, 3.1516677e+2, -83733.89, -73376.01, -1776.5638, 0.11654193, 0.046903454, -73079.766, -73079.766, 0.0, 4.9762053, 4.982791 
5.699254e+2, 1.218849e+2, -1635409.1, -1745186.8, 185.18803, -0.011094316, 0.013704819, -1635408.9, 110140.25, 0.0, 5.046933, 4.975078 
5.6988794e+2, 1.2685926e+2, -1594735.6, -1705030.0, -3145.5073, -0.0077615576, 0.026722211, -1594646.0, 102153.01, 0.0, 5.045181, 4.973097 
5.6985e+2, 1.3183156e+2, -1551204.0, -1658828.1, -3352.6646, -0.0056150877, 0.019320171, -1551099.8, 96969.62, 0.0, 5.043398, 4.973097 
5.698121e+2, 1.3680385e+2, -1509810.1, -1617088.0, -3631.752, -0.0034965128, 0.013297266, -1509687.3, 89652.57, 0.0, 5.0416155, 4.971607 
5.697726e+2, 1.4177443e+2, -1469083.9, -1577161.8, -6254.5874, -0.0010884604, 0.021223968, -1468723.1, 81903.63, 0.0, 5.039892, 4.969411 
5.6973094e+2, 1.4674407e+2, -1424287.4, -1529165.9, -6562.88, -0.00002406071, 0.017519653, -1423878.4, 78043.91, 0.0, 5.038258, 4.969893 
5.6968933e+2, 1.5171371e+2, -1380168.9, -1482603.6, -6670.6987, 0.0007925235, 0.01330341, -1379736.3, 73481.555, 0.0, 5.0366254, 4.9698896 
5.6964767e+2, 1.5668336e+2, -1337379.9, -1438859.3, -6784.242, 0.0015992697, 0.009516158, -1336928.3, 67585.25, 0.0, 5.034993, 4.9689345 
5.696047e+2, 1.6165021e+2, -1298131.4, -1402783.0, -9005.109, 0.0022839408, 0.010822152, -1297362.1, 58473.59, 0.0, 5.0333834, 4.9654016 
5.695599e+2, 1.6661556e+2, -1253235.3, -1354924.0, -9327.88, 0.003932275, 0.0053334525, -1252386.8, 54785.344, 0.0, 5.031796, 4.965769 
5.695151e+2, 1.7158093e+2, -1208840.0, -1308142.9, -9398.814, 0.0056750826, -0.00011184268, -1207958.3, 50549.676, 0.0, 5.030208, 4.9657664 
5.694704e+2, 1.765463e+2, -1165522.6, -1263680.0, -9433.626, 0.007427616, -0.0051749432, -1164624.3, 45219.664, 0.0, 5.0286207, 4.9649754 
5.6942487e+2, 1.8150896e+2, -1127144.6, -1229972.1, -10893.945, 0.009810545, -0.0022927064, -1126003.1, 35203.664, 0.0, 5.0270643, 4.9605274 
5.6937814e+2, 1.864696e+2, -1081894.5, -1181789.8, -11146.886, 0.013458458, -0.0064103496, -1080665.8, 31924.31, 0.0, 5.0255375, 4.9609246 
5.6933135e+2, 1.9143029e+2, -1037177.3, -1134767.1, -11148.608, 0.017100882, -0.010632393, -1035919.94, 28053.037, 0.0, 5.02401, 4.960922 
5.692846e+2, 1.9639097e+2, -993323.2, -1089632.8, -11135.354, 0.02073052, -0.014528726, -992052.5, 23303.34, 0.0, 5.022483, 4.960269 
5.692375e+2, 2.0134881e+2, -955354.3, -1057074.8, -11593.9375, 0.023798088, -0.011171735, -954049.6, 12716.956, 0.0, 5.020919, 4.955334 
5.691898e+2, 2.063041e+2, -910269.4, -1008819.5, -11795.514, 0.026767213, -0.017236693, -908877.2, 9324.966, 0.0, 5.019272, 4.9557614 
5.6914204e+2, 2.1125941e+2, -865748.6, -961805.2, -11803.791, 0.029771293, -0.023760851, -864319.44, 5318.325, 0.0, 5.017622, 4.955758 
5.6909424e+2, 2.162147e+2, -821864.75, -916216.9, -11800.288, 0.032724988, -0.03021697, -820411.3, 662.0553, 0.0, 5.015972, 4.9552555 
5.690466e+2, 2.2116733e+2, -784755.44, -885407.75, -11360.597, 0.03474895, -0.025728501, -783489.1, -10952.799, 0.0, 5.014306, 4.949668 
5.689991e+2, 2.2611795e+2, -739553.3, -836594.0, -11231.88, 0.034041755, -0.023671972, -738270.25, -14249.189, 0.0, 5.012571, 4.950268 
5.6895155e+2, 2.3106867e+2, -695138.06, -789511.06, -11134.078, 0.033132106, -0.021503907, -693842.25, -18337.174, 0.0, 5.0108294, 4.95027 
5.68904e+2, 2.3601937e+2, -651345.06, -743846.2, -11022.111, 0.03219782, -0.019217316, -650049.8, -23060.75, 0.0, 5.009088, 4.9497705 
5.688571e+2, 2.4096687e+2, -614436.3, -713746.6, -9952.4795, 0.032066524, -0.008967154, -613448.75, -34943.844, 0.0, 5.0073996, 4.9438295 
5.6881136e+2, 2.4591112e+2, -568175.6, -663863.25, -9755.089, 0.035831176, -0.014903347, -567191.25, -37137.73, 0.0, 5.0058866, 4.9446383 
5.6876564e+2, 2.508553e+2, -522905.94, -616302.7, -9701.056, 0.040056694, -0.022661064, -521908.94, -40306.184, 0.0, 5.0043864, 4.9446383 
5.6872e+2, 2.5579944e+2, -477857.34, -569285.44, -9640.297, 0.04429559, -0.030595452, -476851.9, -43699.773, 0.0, 5.0028863, 4.94444 
5.686749e+2, 2.607412e+2, -440215.38, -538468.2, -8042.06, 0.047289196, -0.02153682, -439561.5, -54836.73, 0.0, 5.0012903, 4.9386015 
5.686312e+2, 2.656828e+2, -393230.25, -485020.1, -7635.2285, 0.045919836, -0.014453735, -392599.5, -56300.51, 0.0, 4.99938, 4.940778 
5.685875e+2, 2.7062458e+2, -349047.8, -437819.53, -7647.661, 0.044187594, -0.00835922, -348393.78, -60522.383, 0.0, 4.9974427, 4.940788 
5.685438e+2, 2.7556634e+2, -304883.25, -390724.4, -7660.1826, 0.04242565, -0.002241027, -304205.06, -64761.39, 0.0, 4.995506, 4.94075 
5.6850106e+2, 2.805027e+2, -274608.16, -374992.88, -5667.095, 0.04136384, 0.011963539, -274289.25, -83218.836, 0.0, 4.9934893, 4.9296837 
5.684605e+2, 2.854335e+2, -229116.89, -323611.2, -4958.771, 0.042412207, 0.0058749956, -228857.39, -86100.49, 0.0, 4.9912715, 4.931203 
5.684201e+2, 2.9036424e+2, -185515.5, -276585.22, -4738.7188, 0.043577936, -0.0024144487, -185269.6, -90825.125, 0.0, 4.9890385, 4.9311976 
5.6837976e+2, 2.9529494e+2, -141870.3, -229521.02, -4509.769, 0.044752054, -0.010633851, -141638.88, -95506.83, 0.0, 4.986803, 4.9311924 
5.683406e+2, 3.002458e+2, -73963.14, -92980.98, -2329.0566, 0.046156913, 0.007393166, -73682.06, -73682.06, 0.0, 4.9845233, 4.972304 
5.6830615e+2, 3.0522949e+2, -69573.484, -69086.6, -1769.9668, 0.06129584, 0.031220347, -67543.414, -67543.414, 0.0, 4.981844, 4.98203 
5.682725e+2, 3.1021497e+2, -76902.02, -72150.695, -2651.503, 0.080434546, 0.052443072, -70966.266, -70966.266, 0.0, 4.9790764, 4.982082 
5.6823885e+2, 3.1520048e+2, -84212.03, -75247.984, -3589.43, 0.10015794, 0.072845265, -73987.836, -73987.836, 0.0, 4.9762993, 4.9821343 
5.749724e+2, 1.21917434e+2, -1634743.5, -1743912.1, -1048.286, -0.009515335, 0.008827028, -1634733.4, 110498.766, 0.0, 5.046943, 4.9754963 
5.7493275e+2, 1.2689312e+2, -1595078.1, -1705827.0, -4489.752, -0.010290742, 0.037152324, -1594896.4, 101571.87, 0.0, 5.045191, 4.9728355 
5.748931e+2, 1.3186459e+2, -1551544.5, -1659622.0, -4696.0137, -0.0073580705, 0.024174385, -1551340.9, 96405.336, 0.0, 5.0434074, 4.9728355 
5.7485354e+2, 1.3683608e+2, -1510155.6, -1617894.5, -4985.011, -0.004479974, 0.012578611, -1509925.5, 89098.875, 0.0, 5.041625, 4.971341 
5.7481223e+2, 1.4180616e+2, -1469239.3, -1577568.8, -7509.6094, -0.0017870913, 0.017552793, -1468721.1, 81594.81, 0.0, 5.039901, 4.969278 
5.7476896e+2, 1.4677584e+2, -1424430.6, -1529547.8, -7794.6055, -0.0010678831, 0.015494963, -1423855.8, 77755.59, 0.0, 5.038267, 4.9697676 
5.747256e+2, 1.5174553e+2, -1380310.9, -1482984.6, -7902.4907, -0.0005953648, 0.013019194, -1379706.3, 73200.55, 0.0, 5.0366344, 4.969764 
5.746823e+2, 1.5671521e+2, -1337523.8, -1439246.6, -8021.8477, -0.00013697763, 0.010973385, -1336895.0, 67307.23, 0.0, 5.035002, 4.968807 
5.7463765e+2, 1.6168208e+2, -1298193.4, -1402994.0, -10223.35, 0.000184671, 0.013356286, -1297205.4, 58319.29, 0.0, 5.033392, 4.9653335 
5.745912e+2, 1.6664736e+2, -1253304.5, -1355148.3, -10531.288, 0.0013790355, 0.007839866, -1252226.9, 54635.207, 0.0, 5.031804, 4.9656963 
5.7454485e+2, 1.7161265e+2, -1208909.4, -1308367.1, -10602.015, 0.002656029, 0.0023584117, -1207791.8, 50407.363, 0.0, 5.030216, 4.9656935 
5.744985e+2, 1.7657796e+2, -1165591.8, -1263903.6, -10635.906, 0.0039369604, -0.0027313838, -1164454.3, 45081.836, 0.0, 5.028629, 4.964903 
5.744513e+2, 1.815406e+2, -1127109.9, -1229987.9, -12064.59, 0.005852453, 0.00044091945, -1125714.0, 35185.375, 0.0, 5.027074, 4.960524 
5.74403e+2, 1.865013e+2, -1081837.0, -1181757.4, -12304.468, 0.009033811, -0.003266884, -1080344.1, 31937.91, 0.0, 5.0255475, 4.960937 
5.7435465e+2, 1.9146204e+2, -1037121.06, -1134735.1, -12305.495, 0.012198991, -0.007098498, -1035593.75, 28070.658, 0.0, 5.0240197, 4.9609346 
5.743063e+2, 1.9642277e+2, -993268.2, -1089601.1, -12291.368, 0.015342161, -0.010591223, -991724.6, 23322.041, 0.0, 5.0224924, 4.960282 
5.7425773e+2, 2.0138064e+2, -955259.1, -1056975.3, -12836.992, 0.01883052, -0.0073483004, -953664.06, 12793.083, 0.0, 5.020931, 4.9553704 
5.7420856e+2, 2.0633589e+2, -910221.0, -1008821.7, -13050.138, 0.02413367, -0.01401588, -908523.0, 9370.36, 0.0, 5.019284, 4.9557633 
5.7415944e+2, 2.1129115e+2, -865704.4, -961811.0, -13055.514, 0.029507333, -0.0210473, -863962.44, 5367.112, 0.0, 5.017633, 4.9557595 
5.741102e+2, 2.162464e+2, -821824.5, -916226.2, -13048.981, 0.03480698, -0.027962772, -820054.0, 711.7421, 0.0, 5.015982, 4.9552565 
5.740611e+2, 2.2119902e+2, -784611.1, -885208.0, -12658.901, 0.038192395, -0.023435516, -783042.6, -10814.209, 0.0, 5.0143194, 4.9497385 
5.7401174e+2, 2.2614974e+2, -739323.25, -836196.0, -12556.472, 0.03656166, -0.021944825, -737722.2, -14010.451, 0.0, 5.012583, 4.950406 
5.7396233e+2, 2.3110053e+2, -694917.6, -789116.06, -12453.701, 0.034607865, -0.020468881, -693298.94, -18104.686, 0.0, 5.0108385, 4.9504085 
5.73913e+2, 2.3605134e+2, -651134.1, -743454.06, -12336.628, 0.03259974, -0.018801577, -649514.0, -22837.3, 0.0, 5.0090947, 4.949909 
5.738643e+2, 2.4099895e+2, -614178.44, -713282.6, -11165.147, 0.031425815, -0.0089774495, -612936.2, -34745.33, 0.0, 5.007412, 4.9439926 
5.738169e+2, 2.4594344e+2, -568019.5, -663624.4, -10912.4375, 0.034287117, -0.013447862, -566789.8, -37052.48, 0.0, 5.005899, 4.944725 
5.737696e+2, 2.5088787e+2, -522763.28, -616073.0, -10847.551, 0.03758264, -0.019326912, -521518.8, -40234.492, 0.0, 5.004395, 4.944724 
5.7372236e+2, 2.558323e+2, -477728.0, -569064.8, -10775.901, 0.04086006, -0.025265537, -476473.88, -43642.51, 0.0, 5.0028915, 4.944525 
5.736757e+2, 2.6077422e+2, -440173.47, -538442.3, -9430.425, 0.04367811, -0.015193849, -439276.66, -54873.914, 0.0, 5.001296, 4.9386144 
5.736303e+2, 2.6571554e+2, -393164.56, -484947.66, -9137.058, 0.044216264, -0.01093111, -392263.8, -56285.008, 0.0, 4.999387, 4.940805 
5.735848e+2, 2.7065703e+2, -348985.44, -437757.34, -9134.391, 0.04446354, -0.007957125, -348055.28, -60502.0, 0.0, 4.9974494, 4.9408116 
5.735393e+2, 2.7559856e+2, -304824.16, -390672.4, -9131.816, 0.04466146, -0.0049281972, -303863.53, -64735.914, 0.0, 4.995513, 4.940771 
5.7349473e+2, 2.8053477e+2, -274302.03, -374428.22, -7292.164, 0.04496961, 0.006838447, -273773.72, -83018.51, 0.0, 4.993506, 4.9298806 
5.7345194e+2, 2.854657e+2, -228738.05, -322832.1, -6673.6616, 0.045266725, -0.0000014233432, -228267.06, -85828.164, 0.0, 4.991281, 4.931478 
5.7340926e+2, 2.9039663e+2, -185182.38, -275816.75, -6440.6187, 0.045442913, -0.008836287, -184726.98, -90603.65, 0.0, 4.9890327, 4.9314766 
5.733665e+2, 2.953276e+2, -141582.73, -228762.95, -6198.6895, 0.04557706, -0.017429145, -141144.2, -95336.586, 0.0, 4.9867826, 4.9314747 
5.7332504e+2, 3.0027878e+2, -73842.25, -92454.17, -4160.4966, 0.045799963, 0.00021484596, -72954.555, -72954.555, 0.0, 4.9844785, 4.9725237 
5.7328767e+2, 3.0526277e+2, -70410.58, -71009.49, -3727.293, 0.056461044, 0.033120465, -66970.734, -66970.734, 0.0, 4.9818316, 4.981373 
5.732509e+2, 3.1024837e+2, -77565.555, -74041.445, -4521.8975, 0.069533065, 0.064717434, -70950.42, -70950.42, 0.0, 4.9791183, 4.9814153 
5.7321423e+2, 3.152339e+2, -84701.71, -77106.6, -5372.949, 0.08241003, 0.09421154, -74324.64, -74324.64, 0.0, 4.976395, 4.9814587 
5.800193e+2, 1.2195091e+2, -1634947.9, -1743313.8, -1102.0854, -0.008164765, 0.011106868, -1634936.6, 109968.945, 0.0, 5.0467277, 4.975796 
5.799775e+2, 1.2692693e+2, -1595670.8, -1706659.6, -4548.1606, -0.011991627, 0.044894505, -1595484.8, 100653.016, 0.0, 5.04511, 4.9725995 
5.799362e+2, 1.3189773e+2, -1551704.6, -1660244.9, -4716.94, -0.008716738, 0.027662612, -1551500.1, 95921.86, 0.0, 5.0434723, 4.972598 
5.7989496e+2, 1.3686854e+2, -1509917.6, -1618338.1, -4981.8154, -0.0054384973, 0.011730635, -1509689.1, 89017.21, 0.0, 5.0418262, 4.971097 
5.798519e+2, 1.4183818e+2, -1468586.9, -1577541.1, -7407.059, -0.0026440814, 0.014471129, -1468085.6, 81916.54, 0.0, 5.0401826, 4.969152 
5.79807e+2, 1.468079e+2, -1423785.6, -1529510.1, -7684.701, -0.0022299073, 0.013817394, -1423230.0, 78067.68, 0.0, 5.0385427, 4.969649 
5.79762e+2, 1.517776e+2, -1379688.6, -1482960.4, -7806.5034, -0.002045515, 0.012820852, -1379101.9, 73491.28, 0.0, 5.036903, 4.969645 
5.7971704e+2, 1.5674728e+2, -1336928.1, -1439242.6, -7945.013, -0.0018685898, 0.012264393, -1336314.9, 67573.98, 0.0, 5.035263, 4.968685 
5.7967067e+2, 1.6171415e+2, -1297526.0, -1402835.4, -10142.215, -0.001831774, 0.015593973, -1296558.0, 58653.598, 0.0, 5.0336504, 4.9652658 
5.796227e+2, 1.6667934e+2, -1252644.8, -1354999.4, -10461.207, -0.0010344847, 0.0101052495, -1251586.5, 54963.617, 0.0, 5.032061, 4.9656267 
5.7957464e+2, 1.7164457e+2, -1208260.1, -1308223.8, -10557.353, -0.0001673938, 0.0046346444, -1207157.3, 50731.016, 0.0, 5.0304704, 4.965624 
5.795266e+2, 1.7660978e+2, -1164957.3, -1263767.1, -10614.5625, 0.0006978445, -0.0004450285, -1163829.9, 45396.473, 0.0, 5.028878, 4.9648337 
5.794779e+2, 1.8157242e+2, -1126449.8, -1229686.6, -12033.44, 0.0021524902, 0.0030921563, -1125065.8, 35524.387, 0.0, 5.027301, 4.960521 
5.7942796e+2, 1.8653315e+2, -1081308.5, -1181483.8, -12294.604, 0.0048424257, -0.00025706628, -1079821.6, 32150.664, 0.0, 5.025721, 4.9609504 
5.7937807e+2, 1.9149393e+2, -1036750.9, -1134538.4, -12326.096, 0.00753356, -0.0038036252, -1035221.1, 28133.2, 0.0, 5.024139, 4.960948 
5.793281e+2, 1.964547e+2, -993059.94, -1089482.3, -12340.77, 0.010215872, -0.0070353835, -991505.56, 23230.668, 0.0, 5.022556, 4.960295 
5.7927793e+2, 2.0141257e+2, -955113.4, -1056847.6, -12986.182, 0.014114011, -0.003898055, -953481.9, 12664.813, 0.0, 5.0209646, 4.955401 
5.792273e+2, 2.0636779e+2, -910019.25, -1008715.75, -13232.695, 0.021539742, -0.010990785, -908275.9, 9307.494, 0.0, 5.019347, 4.955773 
5.7917684e+2, 2.1132301e+2, -865435.7, -961674.7, -13253.916, 0.029112846, -0.018416489, -863643.75, 5376.2876, 0.0, 5.0177207, 4.955769 
5.7912624e+2, 2.1627823e+2, -821512.7, -916070.3, -13259.919, 0.036640648, -0.025724921, -819688.44, 768.2891, 0.0, 5.016086, 4.9552655 
5.790756e+2, 2.2123091e+2, -784221.7, -884907.44, -12920.087, 0.041330982, -0.020778563, -782590.2, -10671.27, 0.0, 5.014429, 4.9497943 
5.790244e+2, 2.2618167e+2, -738843.3, -835681.4, -12909.949, 0.03898659, -0.019890128, -737151.75, -13750.845, 0.0, 5.012689, 4.950537 
5.789732e+2, 2.311325e+2, -694477.4, -788622.25, -12866.353, 0.036249682, -0.01937629, -692750.7, -17868.326, 0.0, 5.010931, 4.9505396 
5.789219e+2, 2.3608334e+2, -650763.7, -742993.3, -12805.434, 0.03343891, -0.01869828, -649018.75, -22655.063, 0.0, 5.0091634, 4.9500403 
5.788715e+2, 2.4103107e+2, -613948.6, -712909.44, -11542.966, 0.031388007, -0.009241296, -612620.06, -34743.66, 0.0, 5.0074363, 4.9441156 
5.7882243e+2, 2.4597582e+2, -568024.4, -663398.7, -11216.603, 0.033197217, -0.012192467, -566723.0, -37302.43, 0.0, 5.0058484, 4.9448304 
5.787736e+2, 2.5092053e+2, -522987.75, -615951.56, -11106.55, 0.035449117, -0.016368385, -521679.25, -40714.05, 0.0, 5.0042686, 4.9448276 
5.7872474e+2, 2.5586525e+2, -478171.22, -569044.3, -10988.153, 0.037695203, -0.020543754, -476861.44, -44351.61, 0.0, 5.00269, 4.9446263 
5.7867646e+2, 2.6080734e+2, -440977.2, -538982.0, -9848.154, 0.040166784, -0.008559997, -439997.38, -55917.9, 0.0, 5.001046, 4.938538 
5.786292e+2, 2.657484e+2, -393745.72, -485204.94, -9772.194, 0.042572476, -0.0068174, -392713.25, -57055.855, 0.0, 4.999177, 4.9408064 
5.7858205e+2, 2.706896e+2, -349457.44, -437975.44, -9880.732, 0.04486678, -0.0072741816, -348367.94, -61133.688, 0.0, 4.9972787, 4.94081 
5.785349e+2, 2.756308e+2, -305214.88, -390860.16, -9989.169, 0.047109455, -0.0076637566, -304065.22, -65254.242, 0.0, 4.995372, 4.940767 
5.7848847e+2, 2.8056684e+2, -274501.78, -374267.84, -8360.611, 0.048673153, 0.0021045795, -273806.0, -83366.47, 0.0, 4.993384, 4.9299946 
5.7844335e+2, 2.85498e+2, -228858.14, -322218.7, -7826.5024, 0.04824994, -0.0054480247, -228206.6, -86086.17, 0.0, 4.9911118, 4.93177 
5.783983e+2, 2.9042912e+2, -185489.7, -275271.84, -7532.657, 0.047632664, -0.01534381, -184862.1, -91060.24, 0.0, 4.9887996, 4.9317727 
5.783533e+2, 2.9536027e+2, -142093.66, -228291.9, -7219.61, 0.046938453, -0.024868568, -141493.16, -96010.16, 0.0, 4.98648, 4.931775 
5.783093e+2, 3.0031174e+2, -74999.75, -92864.4, -5285.4243, 0.045756742, -0.0073650586, -73553.15, -73553.15, 0.0, 4.9840674, 4.9725547 
5.782691e+2, 3.05296e+2, -72988.73, -73582.67, -4797.728, 0.051757697, 0.033748727, -68478.79, -68478.79, 0.0, 4.9812016, 4.9807243 
5.782293e+2, 3.1028166e+2, -81028.81, -77022.59, -5330.9873, 0.05907449, 0.07407642, -73330.805, -73330.805, 0.0, 4.9781647, 4.9807625 
5.781896e+2, 3.1526718e+2, -89359.945, -80631.15, -5876.394, 0.06554551, 0.11111665, -77675.71, -77675.71, 0.0, 4.9750075, 4.9808 
5.8506745e+2, 1.2199071e+2, -1629135.5, -1740596.1, 1546.1642, -0.0023274152, 0.030342117, -1629114.0, 115401.18, 0.0, 5.048741, 4.9756956 
5.850238e+2, 1.2696378e+2, -1589862.0, -1703984.6, -1494.9335, -0.009259367, 0.036296193, -1589842.4, 105933.695, 0.0, 5.0471325, 4.9724827 
5.849807e+2, 1.3193482e+2, -1545808.6, -1657540.9, -1606.5702, -0.0078087854, 0.022868406, -1545785.5, 101272.58, 0.0, 5.045529, 4.9724793 
5.8493763e+2, 1.369058e+2, -1503913.6, -1615606.8, -1817.2675, -0.0062881927, 0.010653069, -1503884.1, 94456.36, 0.0, 5.0439262, 4.9709716 
5.848928e+2, 1.4187555e+2, -1462502.4, -1574642.0, -4233.409, -0.0047379383, 0.015541358, -1462342.9, 87292.6, 0.0, 5.0422797, 4.969089 
5.848462e+2, 1.468451e+2, -1418007.8, -1526806.3, -4480.1934, -0.0045810076, 0.014671887, -1417823.5, 83109.06, 0.0, 5.040548, 4.969571 
5.847995e+2, 1.5181467e+2, -1374196.6, -1480406.6, -4569.467, -0.004605613, 0.013454144, -1374000.5, 78229.34, 0.0, 5.038815, 4.969567 
5.847528e+2, 1.5678422e+2, -1331722.4, -1436845.3, -4678.9272, -0.004623593, 0.012690638, -1331514.5, 72012.555, 0.0, 5.0370827, 4.9686036 
5.8470476e+2, 1.6175097e+2, -1292497.8, -1400432.5, -6794.682, -0.0045798495, 0.015990134, -1292071.6, 62779.6, 0.0, 5.0353885, 4.9652286 
5.8465517e+2, 1.6671613e+2, -1247851.0, -1352731.6, -7067.624, -0.0035779364, 0.010875546, -1247376.9, 58813.793, 0.0, 5.033726, 4.965584 
5.846055e+2, 1.7168128e+2, -1203686.6, -1306068.8, -7132.46, -0.0025187125, 0.005789606, -1203192.3, 54337.426, 0.0, 5.032064, 4.9655814 
5.845559e+2, 1.7664647e+2, -1160597.6, -1261720.1, -7156.6426, -0.0014687341, 0.0010895598, -1160093.8, 48774.906, 0.0, 5.030401, 4.9647913 
5.845055e+2, 1.8160906e+2, -1122246.6, -1227492.4, -8550.064, -0.00018288862, 0.0048607616, -1121556.5, 38676.188, 0.0, 5.028724, 4.9605784 
5.844539e+2, 1.8656981e+2, -1077534.6, -1179506.3, -8752.73, 0.0018308056, 0.0013703419, -1076788.8, 34826.176, 0.0, 5.027001, 4.9610057 
5.8440214e+2, 1.9153057e+2, -1033396.25, -1132768.5, -8731.791, 0.0038712886, -0.0023750288, -1032634.8, 30362.184, 0.0, 5.025276, 4.961003 
5.843505e+2, 1.964913e+2, -990117.1, -1087915.0, -8693.109, 0.005936759, -0.0058585126, -989350.4, 25028.697, 0.0, 5.023552, 4.96035 
5.842987e+2, 2.0144919e+2, -952471.7, -1055419.0, -9271.17, 0.0093227755, -0.0028032442, -951643.4, 14146.277, 0.0, 5.0218563, 4.9554577 
5.842464e+2, 2.0640454e+2, -907452.7, -1007358.3, -9480.375, 0.016169453, -0.008422763, -906561.0, 10664.661, 0.0, 5.020223, 4.9558153 
5.841941e+2, 2.1135992e+2, -862887.8, -960323.6, -9485.704, 0.023211507, -0.014256811, -861972.94, 6688.58, 0.0, 5.018592, 4.955813 
5.841419e+2, 2.163153e+2, -818959.94, -914714.75, -9475.724, 0.03029589, -0.020012686, -818031.25, 2066.1387, 0.0, 5.016961, 4.955312 
5.840896e+2, 2.2126807e+2, -781576.4, -883277.1, -9135.08, 0.035150137, -0.01435411, -780762.3, -9203.547, 0.0, 5.015293, 4.949941 
5.840369e+2, 2.2621872e+2, -736287.7, -834122.9, -9096.499, 0.034775924, -0.015421006, -735449.1, -12407.768, 0.0, 5.013527, 4.950675 
5.839841e+2, 2.311694e+2, -691962.2, -787094.7, -9010.845, 0.03414685, -0.01719163, -691116.25, -16592.541, 0.0, 5.011756, 4.950676 
5.839313e+2, 2.3612007e+2, -648258.1, -741483.06, -8910.344, 0.033462796, -0.018996421, -647414.1, -21408.033, 0.0, 5.009985, 4.9501753 
5.8387923e+2, 2.4106772e+2, -611541.9, -711155.06, -7588.089, 0.032827877, -0.011748304, -610967.1, -33448.023, 0.0, 5.008168, 4.9443765 
5.8382833e+2, 2.4601284e+2, -566482.4, -662020.5, -7184.2764, 0.03335608, -0.013081373, -565945.1, -36885.93, 0.0, 5.006276, 4.945102 
5.8377755e+2, 2.5095794e+2, -522338.94, -614978.1, -7006.6567, 0.034136254, -0.015156574, -521812.0, -41212.668, 0.0, 5.0043845, 4.9451 
5.837268e+2, 2.5590307e+2, -478412.1, -568470.1, -6821.9487, 0.034970753, -0.017278664, -477898.28, -45758.727, 0.0, 5.002493, 4.9448996 
5.8367664e+2, 2.6084548e+2, -442096.6, -539191.5, -5523.558, 0.036397237, -0.0038129946, -441783.4, -58077.42, 0.0, 5.0006204, 4.9386334 
5.8362764e+2, 2.6578638e+2, -394731.63, -485621.38, -5304.085, 0.039038192, -0.0034505322, -394423.16, -59137.176, 0.0, 4.9988475, 4.9407854 
5.8357865e+2, 2.7072734e+2, -350064.53, -438237.63, -5288.946, 0.041754358, -0.005599154, -349748.4, -62882.92, 0.0, 4.9970837, 4.9407854 
5.835297e+2, 2.7566826e+2, -305422.9, -390957.3, -5273.7686, 0.044488385, -0.0076925238, -305098.97, -66654.055, 0.0, 4.9953203, 4.9407377 
5.834815e+2, 2.8060418e+2, -273940.3, -373343.56, -3604.7515, 0.046491697, 0.00082245877, -273809.75, -83735.31, 0.0, 4.99348, 4.930265 
5.834342e+2, 2.855356e+2, -227673.95, -320664.6, -3195.3706, 0.04625586, -0.0070215985, -227564.28, -85813.59, 0.0, 4.9913726, 4.9321923 
5.833869e+2, 2.9046708e+2, -183829.73, -273470.16, -2950.7314, 0.045930125, -0.017429305, -183732.7, -90305.48, 0.0, 4.9892344, 4.9322047 
5.8333963e+2, 2.9539853e+2, -139945.28, -226238.39, -2710.057, 0.045651324, -0.027733283, -139860.25, -94756.63, 0.0, 4.987097, 4.932217 
5.832933e+2, 3.0035025e+2, -72741.766, -91641.69, -1136.3513, 0.0440072, -0.0108453445, -72673.69, -72673.69, 0.0, 4.9849105, 4.972623 
5.832502e+2, 3.0533427e+2, -69907.336, -73161.71, -883.6562, 0.046929125, 0.032030735, -69682.875, -69682.875, 0.0, 4.9825788, 4.980293 
5.832076e+2, 3.1031963e+2, -76057.45, -75719.53, -1565.887, 0.05195282, 0.07447396, -74313.52, -74313.52, 0.0, 4.980229, 4.9803696 
5.8316505e+2, 3.153049e+2, -82177.164, -78316.54, -2273.5693, 0.057202116, 0.11381454, -77264.37, -77264.37, 0.0, 4.9778776, 4.980447 
5.9011656e+2, 1.2203197e+2, -1629259.4, -1740953.4, -30.28361, 0.003050689, 0.043209106, -1629259.4, 114850.61, 0.0, 5.0487504, 4.9755793 
5.90071e+2, 1.270025e+2, -1590000.0, -1704394.3, -2703.8743, -0.0059464457, 0.025067473, -1589936.1, 105459.76, 0.0, 5.0471463, 4.9723477 
5.900262e+2, 1.3197392e+2, -1545946.4, -1657949.0, -2814.154, -0.006587713, 0.01680044, -1545875.6, 100798.49, 0.0, 5.0455427, 4.972345 
5.899813e+2, 1.3694529e+2, -1504058.1, -1616029.4, -3034.089, -0.007189935, 0.009747599, -1503976.0, 93976.77, 0.0, 5.04394, 4.970832 
5.899347e+2, 1.4191522e+2, -1462575.1, -1574894.8, -5537.3877, -0.007122515, 0.017547727, -1462302.8, 86943.234, 0.0, 5.0422897, 4.969007 
5.8988625e+2, 1.4688465e+2, -1418104.6, -1527107.5, -5786.5605, -0.007250949, 0.016157279, -1417798.4, 82746.56, 0.0, 5.040558, 4.9694734 
5.898378e+2, 1.5185405e+2, -1374292.8, -1480707.4, -5875.9277, -0.0075324317, 0.0143977795, -1373969.3, 77874.52, 0.0, 5.038825, 4.969469 
5.897894e+2, 1.5682344e+2, -1331822.8, -1437157.3, -5992.1504, -0.0078120376, 0.013097033, -1331483.0, 71659.84, 0.0, 5.0370927, 4.9685016 
5.897396e+2, 1.617901e+2, -1292537.5, -1400609.5, -8068.386, -0.007759198, 0.016216418, -1291938.5, 62529.758, 0.0, 5.0353975, 4.965172 
5.8968836e+2, 1.6675523e+2, -1247899.6, -1352924.8, -8326.519, -0.0064101717, 0.011521781, -1247243.6, 58564.535, 0.0, 5.0337353, 4.965522 
5.896371e+2, 1.7172039e+2, -1203735.6, -1306261.6, -8391.207, -0.0050125346, 0.006873846, -1203053.4, 54094.293, 0.0, 5.0320725, 4.9655194 
5.895859e+2, 1.7668554e+2, -1160647.1, -1261913.6, -8415.476, -0.003630944, 0.002619336, -1159952.5, 48534.637, 0.0, 5.03041, 4.9647293 
5.8953375e+2, 1.8164816e+2, -1122134.5, -1227349.0, -9861.283, -0.0024436894, 0.006566916, -1121218.1, 38633.168, 0.0, 5.0287333, 4.9606304 
5.894803e+2, 1.8660891e+2, -1077427.9, -1179372.8, -10060.442, -0.0011762202, 0.0027756374, -1076444.5, 34788.8, 0.0, 5.02701, 4.9610553 
5.894268e+2, 1.9156969e+2, -1033291.6, -1132636.8, -10038.522, 0.00010082503, -0.0012512967, -1032287.44, 30327.695, 0.0, 5.025285, 4.961052 
5.8937335e+2, 1.9653046e+2, -990014.56, -1087785.0, -9998.652, 0.0013928863, -0.004993205, -989002.5, 24994.393, 0.0, 5.0235605, 4.960399 
5.893197e+2, 2.0148839e+2, -952388.75, -1055362.0, -10535.362, 0.003881182, -0.0017036645, -951321.94, 14085.166, 0.0, 5.0218697, 4.9554796 
5.892657e+2, 2.0644395e+2, -907383.3, -1007328.4, -10718.129, 0.009299846, -0.005388209, -906246.8, 10594.969, 0.0, 5.020236, 4.955828 
5.8921164e+2, 2.1139956e+2, -862824.3, -960295.25, -10720.77, 0.014844926, -0.009127569, -861659.06, 6617.179, 0.0, 5.0186033, 4.9558263 
5.8915764e+2, 2.1635514e+2, -818902.3, -914687.8, -10707.975, 0.020407967, -0.012742101, -817719.9, 1990.863, 0.0, 5.0169706, 4.9553246 
5.8910364e+2, 2.213081e+2, -781328.94, -882843.4, -10461.904, 0.024797741, -0.006304419, -780262.0, -9091.023, 0.0, 5.0153036, 4.9500933 
5.890494e+2, 2.2625862e+2, -736065.3, -833736.56, -10448.318, 0.02705559, -0.009981295, -734960.1, -12305.897, 0.0, 5.013537, 4.950813 
5.889951e+2, 2.3120917e+2, -691748.4, -786714.8, -10358.461, 0.02920671, -0.014410414, -690631.7, -16494.307, 0.0, 5.011764, 4.950813 
5.8894086e+2, 2.3615971e+2, -648052.8, -741109.56, -10253.615, 0.031274963, -0.01879923, -646936.44, -21315.865, 0.0, 5.009991, 4.950311 
5.888871e+2, 2.4110731e+2, -611181.5, -710469.2, -9023.483, 0.03254323, -0.01365995, -610368.1, -33234.754, 0.0, 5.008179, 4.944617 
5.888342e+2, 2.4605282e+2, -566104.25, -661296.25, -8635.648, 0.0321376, -0.013687151, -565327.2, -36658.14, 0.0, 5.0062876, 4.945358 
5.887814e+2, 2.5099838e+2, -521972.66, -614262.94, -8451.645, 0.03171666, -0.013948383, -521205.06, -41000.793, 0.0, 5.0043936, 4.9453545 
5.887287e+2, 2.559439e+2, -478057.56, -567763.94, -8260.497, 0.031316243, -0.0141878305, -477303.25, -45563.69, 0.0, 5.0024996, 4.945153 
5.886766e+2, 2.6088667e+2, -441830.16, -538675.8, -6913.2056, 0.031500213, 0.00030768054, -441339.16, -58036.94, 0.0, 5.000627, 4.938818 
5.886257e+2, 2.658275e+2, -394624.88, -485470.9, -6665.531, 0.033474825, -0.0005732378, -394138.4, -59255.195, 0.0, 4.998855, 4.9408436 
5.8857495e+2, 2.7076837e+2, -349959.44, -438092.94, -6645.67, 0.035598174, -0.0039853877, -349461.16, -62996.953, 0.0, 4.997092, 4.940842 
5.8852416e+2, 2.7570924e+2, -305319.5, -390818.4, -6625.764, 0.037720334, -0.0073393886, -304809.1, -66763.95, 0.0, 4.9953284, 4.9407926 
5.8847404e+2, 2.8064516e+2, -273524.6, -372477.22, -5136.795, 0.0393014, 0.00003492444, -273258.63, -83584.19, 0.0, 4.993486, 4.9305744 
5.884246e+2, 2.8557703e+2, -227222.08, -319719.16, -4856.7446, 0.03903293, -0.0072059054, -226967.77, -85623.01, 0.0, 4.991379, 4.9325337 
5.883753e+2, 2.9050893e+2, -183374.6, -272532.4, -4609.5376, 0.038641553, -0.016667616, -183136.9, -90121.93, 0.0, 4.989243, 4.9325438 
5.883258e+2, 2.9544076e+2, -139486.86, -225308.33, -4366.3003, 0.03827549, -0.026078714, -139265.28, -94580.19, 0.0, 4.9871078, 4.932554 
5.8827716e+2, 3.003927e+2, -72869.805, -92071.89, -2900.21, 0.035035677, -0.009198633, -72441.336, -72441.336, 0.0, 4.984921, 4.9724784 
5.882313e+2, 3.0537575e+2, -70525.82, -74835.71, -2659.3296, 0.031833015, 0.02979041, -69257.92, -69257.92, 0.0, 4.982603, 4.9796963 
5.8818585e+2, 3.1036e+2, -76621.04, -77403.95, -3269.7512, 0.030277615, 0.067696236, -73719.39, -73719.39, 0.0, 4.9802723, 4.979764 
5.881404e+2, 3.1534413e+2, -82685.77, -80011.41, -3905.7473, 0.02878661, 0.10235953, -77220.28, -77220.28, 0.0, 4.97794, 4.979832 
5.9516567e+2, 1.2207231e+2, -1629357.1, -1741260.4, -1548.3464, 0.007722733, 0.046786275, -1629335.6, 114378.305, 0.0, 5.048761, 4.975479 
5.9511834e+2, 1.2704125e+2, -1590138.4, -1704803.8, -3913.1343, -0.0026933623, 0.0139549915, -1590005.0, 105010.62, 0.0, 5.0471606, 4.9722123 
5.950717e+2, 1.3201304e+2, -1546084.4, -1658356.9, -4022.0576, -0.0054286453, 0.010834486, -1545940.5, 100349.664, 0.0, 5.0455565, 4.97221 
5.9502494e+2, 1.369848e+2, -1504203.0, -1616451.9, -4251.392, -0.00815582, 0.008929934, -1504042.3, 93522.75, 0.0, 5.043954, 4.9706917 
5.949765e+2, 1.419549e+2, -1462652.1, -1575157.9, -6845.255, -0.009520782, 0.019564703, -1462237.3, 86619.39, 0.0, 5.0423007, 4.968922 
5.9492636e+2, 1.4692417e+2, -1418201.1, -1527409.3, -7092.5957, -0.009925102, 0.017636012, -1417742.4, 82414.81, 0.0, 5.0405684, 4.969375 
5.948761e+2, 1.5189342e+2, -1374388.3, -1481008.8, -7182.0566, -0.010461772, 0.015325436, -1373906.6, 77551.13, 0.0, 5.0388355, 4.969371 
5.948259e+2, 1.5686266e+2, -1331922.6, -1437469.9, -7305.116, -0.011001309, 0.013478138, -1331419.4, 71339.12, 0.0, 5.0371037, 4.9683995 
5.947745e+2, 1.6182922e+2, -1292580.8, -1400795.8, -9342.693, -0.010941126, 0.016477078, -1291780.1, 62305.08, 0.0, 5.035407, 4.965112 
5.9472156e+2, 1.6679434e+2, -1247947.6, -1353118.8, -9585.447, -0.009246928, 0.012199182, -1247081.1, 58344.42, 0.0, 5.0337443, 4.9654593 
5.946686e+2, 1.7175947e+2, -1203783.9, -1306455.4, -9649.988, -0.007511324, 0.007975307, -1202884.8, 53880.918, 0.0, 5.0320816, 4.965457 
5.9461576e+2, 1.7672463e+2, -1160695.9, -1262107.6, -9674.337, -0.0057985717, 0.004152404, -1159781.3, 48324.47, 0.0, 5.030419, 4.964667 
5.94562e+2, 1.8168724e+2, -1122025.5, -1227214.9, -11171.822, -0.004716272, 0.008285623, -1120852.1, 38617.883, 0.0, 5.0287433, 4.960679 
5.9450674e+2, 1.8664803e+2, -1077320.5, -1179239.9, -11368.064, -0.0041967887, 0.0041617714, -1076067.9, 34783.78, 0.0, 5.0270195, 4.961104 
5.944515e+2, 1.9160882e+2, -1033186.44, -1132505.8, -11345.164, -0.00368295, -0.0001850844, -1031907.0, 30326.277, 0.0, 5.0252943, 4.9611006 
5.9439623e+2, 1.9656959e+2, -989911.44, -1087655.6, -11304.102, -0.0031640672, -0.004223727, -988621.2, 24993.605, 0.0, 5.023569, 4.9604473 
5.9434074e+2, 2.0152761e+2, -952323.6, -1055345.3, -11792.979, -0.0015898864, -0.00046968675, -950990.9, 14033.517, 0.0, 5.021883, 4.9554873 
5.9428495e+2, 2.0648338e+2, -907313.94, -1007298.9, -11956.937, 0.0023892222, -0.0022148078, -905903.94, 10553.936, 0.0, 5.020249, 4.95584 
5.9422916e+2, 2.114392e+2, -862760.8, -960267.2, -11956.889, 0.006436242, -0.003927928, -861316.0, 6574.9863, 0.0, 5.0186143, 4.9558387 
5.941733e+2, 2.1639502e+2, -818844.6, -914661.25, -11941.281, 0.010476855, -0.0054694754, -817378.9, 1945.1558, 0.0, 5.01698, 4.9553375 
5.9411764e+2, 2.2134814e+2, -781103.2, -882459.2, -11783.96, 0.014428732, 0.0018347406, -779751.2, -8968.084, 0.0, 5.015315, 4.950228 
5.940619e+2, 2.2629853e+2, -735842.7, -833351.0, -11800.071, 0.019344838, -0.0045232857, -734435.0, -12167.931, 0.0, 5.013547, 4.950949 
5.940062e+2, 2.3124893e+2, -691534.3, -786335.75, -11706.012, 0.024297869, -0.011735858, -690110.25, -16359.189, 0.0, 5.011772, 4.9509487 
5.939504e+2, 2.3619933e+2, -647847.25, -740736.9, -11596.824, 0.029140117, -0.018833494, -646421.3, -21186.275, 0.0, 5.009998, 4.950446 
5.93895e+2, 2.4114692e+2, -610868.9, -709892.4, -10447.55, 0.032188445, -0.01534935, -609778.56, -33031.12, 0.0, 5.008191, 4.944819 
5.938401e+2, 2.4609281e+2, -565726.0, -660572.8, -10086.926, 0.030830067, -0.014004782, -564665.1, -36386.508, 0.0, 5.0062995, 4.945612 
5.9378535e+2, 2.510388e+2, -521606.22, -613548.7, -9896.541, 0.029255984, -0.012626929, -520553.03, -40744.016, 0.0, 5.004403, 4.945607 
5.9373057e+2, 2.5598475e+2, -477702.88, -567058.6, -9698.958, 0.027668538, -0.011158367, -476662.22, -45322.785, 0.0, 5.0025063, 4.945405 
5.9367645e+2, 2.6092786e+2, -441614.2, -538276.9, -8295.549, 0.026552362, 0.004535036, -440907.44, -58009.063, 0.0, 5.0006347, 4.9389615 
5.9362376e+2, 2.6586866e+2, -394517.6, -485321.3, -8025.213, 0.027865607, 0.002425251, -393813.78, -59333.316, 0.0, 4.9988637, 4.9409003 
5.935712e+2, 2.708094e+2, -349853.8, -437949.16, -8000.6313, 0.029443128, -0.002397228, -349133.13, -63070.17, 0.0, 4.9971, 4.940897 
5.935186e+2, 2.7575022e+2, -305215.53, -390680.38, -7975.9985, 0.031000348, -0.007158445, -304477.53, -66832.125, 0.0, 4.995337, 4.9408464 
5.9346664e+2, 2.806862e+2, -273142.9, -371690.47, -6673.894, 0.03211836, -0.00079447014, -272693.0, -83418.5, 0.0, 4.993492, 4.9308558 
5.934151e+2, 2.8561842e+2, -226770.03, -318774.28, -6515.664, 0.031770613, -0.007384778, -226310.89, -85372.0, 0.0, 4.9913855, 4.9328732 
5.933635e+2, 2.905507e+2, -182919.25, -271595.2, -6265.8877, 0.031312246, -0.01601012, -182478.69, -89875.84, 0.0, 4.9892526, 4.932881 
5.93312e+2, 2.95483e+2, -139028.22, -224378.8, -6020.0854, 0.030857557, -0.02463781, -138605.69, -94338.91, 0.0, 4.987119, 4.9328885 
5.93261e+2, 3.0043498e+2, -73138.055, -92825.25, -4660.5786, 0.025832491, -0.008394539, -72090.49, -72090.49, 0.0, 4.9849324, 4.9722047 
5.9321237e+2, 3.0541697e+2, -71146.086, -76508.375, -4416.6206, 0.016289948, 0.024785139, -68660.5, -68660.5, 0.0, 4.9826283, 4.979075 
5.931641e+2, 3.1040007e+2, -77186.34, -79087.11, -4955.2, 0.008054797, 0.05638096, -73091.21, -73091.21, 0.0, 4.9803166, 4.979134 
5.9311587e+2, 3.1538296e+2, -83196.055, -81705.086, -5519.4775, -0.00027699905, 0.08459754, -76880.98, -76880.98, 0.0, 4.9780035, 4.979193 
6.002145e+2, 1.2211178e+2, -1629502.6, -1741983.9, -1631.1636, 0.009611449, 0.0392879, -1629479.0, 113847.16, 0.0, 5.048855, 4.9751935 
6.001657e+2, 1.2708047e+2, -1590058.4, -1704995.1, -3769.0327, 0.00087804464, 0.0052876174, -1589935.0, 104695.375, 0.0, 5.0472393, 4.9721093 
6.0011715e+2, 1.3205254e+2, -1546110.1, -1658602.3, -3829.3018, -0.0040364536, 0.0060119736, -1545980.0, 99922.22, 0.0, 5.0456, 4.972106 
6.000686e+2, 1.3702458e+2, -1504352.4, -1616772.6, -4021.543, -0.0089268265, 0.00804017, -1504208.8, 92965.62, 0.0, 5.043958, 4.9705825 
6.000183e+2, 1.4199477e+2, -1462753.4, -1575375.6, -6661.346, -0.011679988, 0.02079359, -1462360.8, 86104.234, 0.0, 5.0423017, 4.9688497 
5.9996635e+2, 1.4696391e+2, -1418186.1, -1527600.6, -6905.3154, -0.012373204, 0.018443285, -1417752.0, 82015.16, 0.0, 5.0406146, 4.96929 
5.9991443e+2, 1.5193301e+2, -1374243.4, -1481138.8, -6999.6777, -0.013179932, 0.01570763, -1373787.0, 77282.43, 0.0, 5.038926, 4.969285 
5.998625e+2, 1.5690212e+2, -1331657.5, -1437552.8, -7134.635, -0.013989151, 0.01343286, -1331179.0, 71192.79, 0.0, 5.037237, 4.968309 
5.9980935e+2, 1.618686e+2, -1292174.8, -1400740.0, -9149.774, -0.013981216, 0.016470669, -1291409.0, 62290.473, 0.0, 5.0355716, 4.9650545 
5.9975475e+2, 1.6683368e+2, -1247527.1, -1353063.0, -9413.786, -0.012051438, 0.0126765575, -1246694.0, 58346.563, 0.0, 5.033915, 4.965399 
5.997003e+2, 1.717988e+2, -1203354.9, -1306396.3, -9514.1045, -0.010065451, 0.0089057535, -1202483.8, 53897.504, 0.0, 5.032255, 4.965397 
5.9964573e+2, 1.7676392e+2, -1160266.9, -1262049.4, -9573.152, -0.00808909, 0.0055149533, -1159374.3, 48347.742, 0.0, 5.030593, 4.9646063 
5.995902e+2, 1.8172653e+2, -1121440.4, -1226845.4, -11161.64, -0.007086836, 0.00983923, -1120271.4, 38815.17, 0.0, 5.028922, 4.9607224 
5.995332e+2, 1.8668732e+2, -1076678.6, -1178843.1, -11420.829, -0.0071498104, 0.0054392144, -1075417.5, 35050.785, 0.0, 5.0272183, 4.9611483 
5.9947616e+2, 1.916481e+2, -1032499.5, -1132089.6, -11461.861, -0.0072320015, 0.0008058143, -1031197.4, 30652.34, 0.0, 5.025509, 4.961145 
5.994191e+2, 1.9660889e+2, -989192.5, -1087225.9, -11482.034, -0.00732131, -0.0035204412, -987865.7, 25365.494, 0.0, 5.023796, 4.9604917 
5.9936196e+2, 2.0156698e+2, -951698.0, -1055038.9, -11951.191, -0.0065638963, 0.0008754667, -950333.9, 14306.459, 0.0, 5.022094, 4.9554973 
5.993043e+2, 2.0652296e+2, -906863.7, -1007033.4, -12091.399, -0.0039849654, 0.000870079, -905424.8, 10647.711, 0.0, 5.02039, 4.9558687 
5.992467e+2, 2.1147898e+2, -862526.0, -960102.4, -12073.196, -0.0013649747, 0.0008605068, -861054.4, 6450.061, 0.0, 5.018681, 4.9558673 
5.9918916e+2, 2.1643499e+2, -818836.0, -914600.75, -12036.89, 0.0012452109, 0.0010156912, -817346.25, 1590.0221, 0.0, 5.0169687, 4.955366 
5.991317e+2, 2.2138824e+2, -781092.2, -882184.1, -11943.793, 0.0047487635, 0.009144739, -779700.2, -9305.927, 0.0, 5.015262, 4.9503508 
5.990744e+2, 2.2633854e+2, -735643.06, -832970.6, -12065.56, 0.011979672, 0.00057436817, -734169.6, -12290.819, 0.0, 5.0135555, 4.9510803 
5.9901714e+2, 2.3128882e+2, -691173.1, -785885.0, -12045.753, 0.019450165, -0.0090739075, -689665.06, -16301.552, 0.0, 5.011838, 4.951079 
5.989599e+2, 2.362391e+2, -647354.8, -740229.2, -12005.863, 0.02685975, -0.018648611, -645827.94, -20979.695, 0.0, 5.0101104, 4.950576 
5.989029e+2, 2.411867e+2, -610244.9, -709231.8, -10972.876, 0.031508368, -0.01628538, -609043.1, -32683.016, 0.0, 5.0083313, 4.9449887 
5.988461e+2, 2.4613294e+2, -565025.6, -659679.1, -10693.34, 0.029390108, -0.013845917, -563832.6, -35945.53, 0.0, 5.0064273, 4.9458685 
5.987893e+2, 2.510793e+2, -520973.1, -612684.6, -10532.425, 0.026923403, -0.01134148, -519779.06, -40366.004, 0.0, 5.0045075, 4.945865 
5.987325e+2, 2.5602564e+2, -477160.47, -566233.94, -10352.621, 0.024403878, -0.00868283, -475973.06, -45034.06, 0.0, 5.0025806, 4.945663 
5.986764e+2, 2.6096904e+2, -441357.53, -537923.25, -8880.539, 0.022065349, 0.008165398, -440547.63, -58053.176, 0.0, 5.0006747, 4.939072 
5.9862185e+2, 2.6590982e+2, -394428.66, -485166.5, -8615.138, 0.022623025, 0.005153916, -393617.94, -59540.582, 0.0, 4.998868, 4.9409575 
5.985674e+2, 2.7085057e+2, -349880.97, -437847.44, -8608.691, 0.023603238, -0.0008712972, -349046.4, -63385.285, 0.0, 4.997063, 4.940954 
5.98513e+2, 2.7579126e+2, -305369.6, -390635.8, -8595.37, 0.024569588, -0.0068639503, -304511.78, -67266.86, 0.0, 4.995255, 4.940903 
5.984592e+2, 2.8072727e+2, -273159.66, -371121.28, -7490.1714, 0.02514872, -0.0012272745, -272590.28, -83716.72, 0.0, 4.993374, 4.9311113 
5.9840554e+2, 2.8565988e+2, -226604.38, -317948.53, -7499.656, 0.024693612, -0.0073933145, -225992.73, -85460.28, 0.0, 4.9912987, 4.9332075 
5.9835184e+2, 2.9059252e+2, -182646.05, -270737.75, -7318.5874, 0.024174528, -0.015534921, -182042.17, -89851.59, 0.0, 4.989206, 4.933211 
5.9829813e+2, 2.955252e+2, -138650.44, -223489.4, -7149.791, 0.023629818, -0.023690004, -138052.11, -94203.375, 0.0, 4.9871125, 4.9332147 
5.982448e+2, 3.004771e+2, -73621.41, -93925.766, -5978.385, 0.016719716, -0.008770043, -71991.914, -71991.914, 0.0, 4.984926, 4.971803 
5.9819335e+2, 3.0545795e+2, -72479.36, -78474.02, -5854.6084, 0.0011989321, 0.017384145, -68899.42, -68899.42, 0.0, 4.9824147, 4.9784274 
5.981423e+2, 3.1043985e+2, -79460.164, -81469.82, -6539.827, -0.013034426, 0.041932046, -73848.42, -73848.42, 0.0, 4.97977, 4.9784775 
5.9809136e+2, 3.154216e+2, -86714.68, -84630.36, -7321.506, -0.027410693, 0.063145205, -78277.21, -78277.21, 0.0, 4.977015, 4.978528 
6.0526365e+2, 1.221551e+2, -1623923.6, -1740951.1, 1643.496, 0.0033526479, 0.021314334, -1623900.6, 118998.82, 0.0, 5.051134, 4.9744077 
6.052143e+2, 1.2712607e+2, -1583666.1, -1701654.1, -570.00574, 0.005685478, 0.010504909, -1583663.4, 110518.52, 0.0, 5.0493836, 4.9721513 
6.051638e+2, 1.3209778e+2, -1540147.9, -1655483.3, -561.139, -0.0013985487, 0.0077718445, -1540145.1, 105312.266, 0.0, 5.0476046, 4.972148 
6.051133e+2, 1.3706948e+2, -1498810.3, -1613880.4, -687.4246, -0.008444331, 0.006433405, -1498806.3, 97926.85, 0.0, 5.0458274, 4.9706187 
6.050612e+2, 1.4203946e+2, -1457524.8, -1572705.3, -3240.3499, -0.012565903, 0.017128192, -1457433.6, 90592.37, 0.0, 5.0440774, 4.9688625 
6.050075e+2, 1.4700854e+2, -1413160.6, -1525096.1, -3422.904, -0.013709016, 0.015108555, -1413056.1, 86272.29, 0.0, 5.0423384, 4.9692774 
6.049538e+2, 1.5197763e+2, -1369380.1, -1478722.9, -3466.9885, -0.014952306, 0.012763134, -1369270.3, 81360.555, 0.0, 5.040599, 4.9692726 
6.0490006e+2, 1.5694669e+2, -1326956.3, -1435235.3, -3554.2766, -0.01619843, 0.010877923, -1326839.8, 75093.72, 0.0, 5.03886, 4.9682918 
6.0484517e+2, 1.6191317e+2, -1287614.3, -1398475.6, -5495.7363, -0.016736181, 0.014661595, -1287342.4, 65918.85, 0.0, 5.0371413, 4.9650483 
6.047889e+2, 1.668783e+2, -1243197.3, -1350959.3, -5708.9985, -0.015485605, 0.011963218, -1242895.6, 61706.96, 0.0, 5.035418, 4.965375 
6.0473263e+2, 1.7184342e+2, -1199221.3, -1304394.3, -5767.842, -0.014159486, 0.009252559, -1198905.9, 57037.76, 0.0, 5.0336943, 4.965373 
6.046763e+2, 1.7680857e+2, -1156320.3, -1260144.5, -5784.623, -0.01282006, 0.0068884813, -1155998.9, 51285.805, 0.0, 5.0319705, 4.9645824 
6.046191e+2, 1.8177114e+2, -1117591.1, -1224878.6, -7366.8037, -0.011890453, 0.01147292, -1117087.6, 41562.465, 0.0, 5.030244, 4.9607477 
6.0456043e+2, 1.8673185e+2, -1072970.3, -1176983.6, -7612.9727, -0.011076999, 0.006769432, -1072416.0, 37617.047, 0.0, 5.028502, 4.9611588 
6.045018e+2, 1.9169255e+2, -1028893.94, -1130284.0, -7655.998, -0.0102867875, 0.0018759653, -1028319.1, 33096.707, 0.0, 5.02676, 4.961156 
6.044431e+2, 1.9665328e+2, -985675.3, -1085466.6, -7677.2876, -0.009520486, -0.0027094525, -985088.1, 27710.398, 0.0, 5.0250187, 4.9605036 
6.043842e+2, 2.0161138e+2, -948176.75, -1052911.4, -8130.5044, -0.008534388, 0.0017482792, -947549.3, 16658.322, 0.0, 5.023243, 4.95567 
6.0432464e+2, 2.0656751e+2, -903742.0, -1005030.06, -8145.5146, -0.006911115, 0.0019853488, -903091.1, 12546.799, 0.0, 5.02139, 4.9560714 
6.0426515e+2, 2.1152367e+2, -859830.94, -958302.0, -7999.782, -0.005253908, 0.0021149642, -859185.25, 7882.667, 0.0, 5.0195346, 4.956071 
6.0420567e+2, 2.1647982e+2, -816553.2, -912995.25, -7837.4414, -0.0035746351, 0.0023149007, -815920.4, 2577.6377, 0.0, 5.017679, 4.955571 
6.0414636e+2, 2.2143318e+2, -779171.44, -880848.1, -7575.724, -0.0009018724, 0.010112874, -778610.1, -8655.134, 0.0, 5.015869, 4.950513 
6.0408735e+2, 2.2638363e+2, -733779.25, -831850.56, -7675.6143, 0.0053700935, 0.0028272418, -733182.1, -11743.231, 0.0, 5.0141826, 4.9511623 
6.0402834e+2, 2.3133406e+2, -689207.75, -784722.1, -7676.881, 0.011959842, -0.0053711105, -688594.7, -15671.686, 0.0, 5.0125017, 4.951161 
6.039693e+2, 2.3628446e+2, -645258.5, -739011.44, -7660.0474, 0.018622141, -0.013631778, -644636.75, -20229.611, 0.0, 5.010821, 4.950658 
6.039105e+2, 2.4123217e+2, -607888.94, -707489.5, -6712.0435, 0.0232857, -0.010908969, -607438.7, -31520.576, 0.0, 5.0090547, 4.945246 
6.038519e+2, 2.4617843e+2, -562768.25, -657881.0, -6442.0156, 0.022827206, -0.010436255, -562333.9, -34890.0, 0.0, 5.007099, 4.9461703 
6.037933e+2, 2.511248e+2, -518839.94, -610928.44, -6259.885, 0.02209629, -0.01006105, -518416.34, -39447.645, 0.0, 5.005135, 4.9461737 
6.037348e+2, 2.5607118e+2, -475127.72, -564508.06, -6071.7744, 0.021312803, -0.009578621, -474717.13, -44223.7, 0.0, 5.003172, 4.9459786 
6.0367686e+2, 2.6101464e+2, -439494.9, -536305.75, -4442.7817, 0.020084493, 0.005196241, -439291.44, -57243.848, 0.0, 5.00121, 4.9393783 
6.0362035e+2, 2.6595566e+2, -393086.38, -484021.9, -4022.0627, 0.019559417, 0.0031566692, -392908.8, -59280.566, 0.0, 4.9992676, 4.9411645 
6.035639e+2, 2.7089664e+2, -348933.28, -436869.25, -3871.165, 0.019319149, -0.0013502587, -348763.2, -63553.668, 0.0, 4.997324, 4.9411645 
6.035075e+2, 2.7583763e+2, -304802.5, -389817.3, -3722.1455, 0.019124754, -0.0058161765, -304639.84, -67849.07, 0.0, 4.995381, 4.9411173 
6.034516e+2, 2.807739e+2, -272637.63, -369962.6, -2493.2544, 0.018917639, 0.00038431791, -272573.8, -84156.99, 0.0, 4.9934287, 4.9314647 
6.03396e+2, 2.857067e+2, -225476.89, -316598.66, -2457.8066, 0.01837778, -0.006566894, -225410.64, -85337.96, 0.0, 4.991587, 4.9335294 
6.033404e+2, 2.9063952e+2, -180783.5, -269105.1, -2243.491, 0.01774886, -0.015272157, -180726.55, -88998.79, 0.0, 4.9897623, 4.9335217 
6.032847e+2, 2.9557234e+2, -136056.11, -221577.7, -2030.7756, 0.017054636, -0.02395988, -136007.9, -92624.98, 0.0, 4.987937, 4.9335146 
6.032294e+2, 3.0052415e+2, -70816.75, -93169.4, -886.1811, 0.00980927, -0.010426187, -70781.67, -70781.67, 0.0, 4.98607, 4.9715657 
6.0317576e+2, 3.0550408e+2, -68749.86, -77971.3, -618.87024, -0.005727662, 0.012446951, -68708.51, -68708.51, 0.0, 4.9840527, 4.97788 
6.031225e+2, 3.1048518e+2, -74179.43, -80239.18, -1071.1216, -0.018449273, 0.036197554, -73995.664, -73995.664, 0.0, 4.982011, 4.9779177 
6.030695e+2, 3.1546634e+2, -79605.81, -82516.516, -1534.8193, -0.029567901, 0.059400342, -78946.05, -78946.05, 0.0, 4.979964, 4.9779553 
6.103147e+2, 1.2220172e+2, -1624662.0, -1742617.1, 436.47137, 0.0037643313, 0.014346005, -1624660.4, 117779.875, 0.0, 5.0511513, 4.973859 
6.1026394e+2, 1.2717415e+2, -1583566.4, -1701591.6, -1907.8955, 0.010484333, 0.018075654, -1583535.5, 110173.41, 0.0, 5.0493994, 4.9721713 
6.1021143e+2, 1.3214543e+2, -1540048.6, -1655419.6, -1897.7777, 0.0013030822, 0.010732892, -1540017.5, 104971.45, 0.0, 5.04762, 4.9721684 
6.10159e+2, 1.3711669e+2, -1498717.9, -1613830.1, -2031.763, -0.007868976, 0.004788193, -1498682.1, 97586.96, 0.0, 5.0458426, 4.9706354 
6.101049e+2, 1.420864e+2, -1457489.3, -1572757.3, -4565.084, -0.013298954, 0.012762301, -1457308.8, 90255.94, 0.0, 5.0440907, 4.968847 
6.100494e+2, 1.4705549e+2, -1413158.3, -1525213.6, -4732.5586, -0.014928083, 0.011195562, -1412958.8, 85908.08, 0.0, 5.042351, 4.96924 
6.0999393e+2, 1.520246e+2, -1369378.3, -1478840.5, -4776.4688, -0.016655097, 0.009366484, -1369170.1, 80998.77, 0.0, 5.040611, 4.969235 
6.099385e+2, 1.5699369e+2, -1326961.6, -1435368.1, -4870.4487, -0.018393317, 0.008004074, -1326743.3, 74728.03, 0.0, 5.0388722, 4.9682493 
6.098817e+2, 1.6196023e+2, -1287611.0, -1398574.1, -6809.895, -0.019602146, 0.012697595, -1287194.6, 65604.05, 0.0, 5.0371513, 4.9650187 
6.098236e+2, 1.6692542e+2, -1243221.6, -1351112.3, -7014.038, -0.019252962, 0.011235692, -1242767.5, 61372.227, 0.0, 5.035427, 4.9653273 
6.097655e+2, 1.7189063e+2, -1199246.1, -1304547.0, -7072.6836, -0.018836817, 0.009763194, -1198773.1, 56707.453, 0.0, 5.0337033, 4.9653254 
6.097074e+2, 1.7685583e+2, -1156346.4, -1260299.3, -7090.7993, -0.018413344, 0.008647568, -1155864.9, 50956.535, 0.0, 5.031979, 4.9645343 
6.0964847e+2, 1.8181844e+2, -1117566.5, -1224940.1, -8703.987, -0.017586183, 0.01360084, -1116865.5, 41321.78, 0.0, 5.030255, 4.9607306 
6.0958815e+2, 1.8677905e+2, -1072966.1, -1177084.8, -8934.712, -0.015580472, 0.008433412, -1072205.0, 37366.61, 0.0, 5.028512, 4.961128 
6.095278e+2, 1.917397e+2, -1028892.9, -1130385.8, -8976.333, -0.013599732, 0.0031346178, -1028105.1, 32850.61, 0.0, 5.026769, 4.961126 
6.0946757e+2, 1.9670035e+2, -985677.0, -1085568.5, -8996.0, -0.011658512, -0.0018259624, -984873.3, 27466.41, 0.0, 5.025027, 4.9604735 
6.0940695e+2, 2.016585e+2, -947884.2, -1052391.1, -9530.14, -0.010258528, 0.002597702, -947022.25, 16726.209, 0.0, 5.0232534, 4.955851 
6.0934544e+2, 2.0661484e+2, -903407.6, -1004414.5, -9552.658, -0.009541509, 0.0027791392, -902512.1, 12663.875, 0.0, 5.0213995, 4.9562864 
6.09284e+2, 2.1157122e+2, -859502.2, -957691.25, -9404.547, -0.008836023, 0.0028564623, -858609.56, 7993.7124, 0.0, 5.019543, 4.9562855 
6.092226e+2, 2.1652757e+2, -816230.0, -912389.25, -9239.6875, -0.008124901, 0.0030443913, -815350.25, 2680.3254, 0.0, 5.0176873, 4.955785 
6.091614e+2, 2.2148108e+2, -778963.75, -880530.6, -8902.516, -0.0065107, 0.01058837, -778189.3, -8703.602, 0.0, 5.015883, 4.950625 
6.0910046e+2, 2.2643174e+2, -733681.25, -831769.0, -8960.092, -0.0019466105, 0.00496718, -732869.5, -11900.704, 0.0, 5.0141954, 4.9511952 
6.0903955e+2, 2.313824e+2, -689119.8, -784646.1, -8956.437, 0.0028383902, -0.0012079829, -688287.3, -15835.482, 0.0, 5.012512, 4.9511933 
6.089787e+2, 2.3633304e+2, -645180.5, -738940.94, -8934.55, 0.0076669785, -0.0073738047, -644336.75, -20401.813, 0.0, 5.0108285, 4.95069 
6.0891813e+2, 2.4128096e+2, -607529.6, -706795.1, -8161.032, 0.011636504, -0.0037500141, -606863.1, -31418.762, 0.0, 5.0090632, 4.9454913 
6.088578e+2, 2.4622723e+2, -562371.44, -657102.94, -7948.012, 0.013417079, -0.0058217123, -561709.2, -34740.258, 0.0, 5.0071077, 4.946446 
6.087975e+2, 2.511736e+2, -518448.5, -610158.3, -7761.332, 0.015046827, -0.0081491545, -517796.3, -39303.617, 0.0, 5.0051436, 4.9464474 
6.087372e+2, 2.5611997e+2, -474741.6, -563745.8, -7568.6157, 0.016606055, -0.01034869, -474102.6, -44086.246, 0.0, 5.00318, 4.946251 
6.086775e+2, 2.610635e+2, -439043.22, -535373.0, -5932.025, 0.017047528, 0.0017449218, -438679.3, -57110.13, 0.0, 5.0012155, 4.939711 
6.086189e+2, 2.6600483e+2, -392744.44, -483342.38, -5526.1587, 0.015588216, 0.00041795263, -392408.63, -59262.09, 0.0, 4.999274, 4.9414124 
6.0856044e+2, 2.7094615e+2, -348588.25, -436197.22, -5370.0107, 0.0141522605, -0.00280524, -348260.3, -63536.047, 0.0, 4.9973326, 4.94141 
6.08502e+2, 2.7588746e+2, -304454.34, -389152.78, -5215.7344, 0.012740568, -0.0060303877, -304134.38, -67832.305, 0.0, 4.995392, 4.94136 
6.0844404e+2, 2.8082404e+2, -272137.2, -368989.4, -3967.5488, 0.011615438, 0.00049633154, -271974.9, -84050.234, 0.0, 4.993446, 4.931808 
6.083865e+2, 2.8575715e+2, -225032.75, -315774.9, -3878.1667, 0.010745894, -0.0062238467, -224867.3, -85290.86, 0.0, 4.9916067, 4.9338207 
6.0832906e+2, 2.9069033e+2, -180344.45, -268290.06, -3661.8706, 0.009772023, -0.01429817, -180192.23, -88965.03, 0.0, 4.9897814, 4.933812 
6.082716e+2, 2.956235e+2, -135622.13, -220771.34, -3447.178, 0.008721977, -0.022332124, -135482.8, -92604.73, 0.0, 4.987955, 4.933804 
6.0821444e+2, 3.0057538e+2, -70854.36, -93512.03, -2322.0781, 0.0012027805, -0.009711017, -70618.83, -70618.83, 0.0, 4.9860916, 4.9714456 
6.0815865e+2, 3.0555418e+2, -69197.305, -79359.695, -2079.4795, -0.01631876, 0.005656158, -68788.26, -68788.26, 0.0, 4.984083, 4.977383 
6.081032e+2, 3.1053394e+2, -74609.15, -81653.766, -2502.0007, -0.032023363, 0.021068742, -73810.97, -73810.97, 0.0, 4.982051, 4.9774103 
6.0804796e+2, 3.155137e+2, -80017.82, -83957.29, -2935.9846, -0.0465846, 0.03590994, -78452.04, -78452.04, 0.0, 4.9800134, 4.9774375 
6.1536634e+2, 1.2224927e+2, -1625052.5, -1743567.0, -829.8561, 0.0105996365, 0.01680369, -1625046.8, 116925.516, 0.0, 5.0511684, 4.9735446 
6.1531353e+2, 1.2722224e+2, -1583466.8, -1701528.9, -3246.425, 0.015203358, 0.02559601, -1583377.6, 109858.44, 0.0, 5.049415, 4.9721913 
6.152591e+2, 1.3219307e+2, -1539949.6, -1655355.9, -3235.056, 0.0039195204, 0.013629945, -1539859.0, 104661.42, 0.0, 5.047636, 4.972189 
6.152046e+2, 1.3716388e+2, -1498625.8, -1613779.9, -3376.942, -0.0073841135, 0.00306541, -1498526.9, 97278.2, 0.0, 5.0458584, 4.970651 
6.151486e+2, 1.4213334e+2, -1457463.1, -1572829.9, -5892.1055, -0.014058852, 0.008417963, -1457163.0, 89940.24, 0.0, 5.044104, 4.968824 
6.150914e+2, 1.4710245e+2, -1413155.5, -1525331.4, -6042.0464, -0.016167691, 0.0073076673, -1412831.0, 85574.2, 0.0, 5.0423636, 4.9692025 
6.150341e+2, 1.5207157e+2, -1369376.0, -1478958.6, -6085.782, -0.018375669, 0.0059839133, -1369039.0, 80668.03, 0.0, 5.0406237, 4.9691973 
6.149769e+2, 1.5704067e+2, -1326966.6, -1435501.5, -6186.543, -0.02060322, 0.0051333, -1326615.1, 74393.93, 0.0, 5.038885, 4.9682064 
6.149183e+2, 1.6200727e+2, -1287612.3, -1398684.3, -8126.0166, -0.02248819, 0.01077504, -1287020.9, 65315.13, 0.0, 5.0371614, 4.964985 
6.148583e+2, 1.6697253e+2, -1243245.3, -1351266.1, -8319.163, -0.023043536, 0.010535192, -1242608.4, 61068.574, 0.0, 5.035437, 4.965279 
6.147984e+2, 1.7193782e+2, -1199270.1, -1304700.8, -8377.611, -0.023539765, 0.01028206, -1198608.6, 56408.914, 0.0, 5.033713, 4.965277 
6.147385e+2, 1.7690311e+2, -1156371.9, -1260454.8, -8397.055, -0.024034645, 0.0103961155, -1155698.8, 50659.49, 0.0, 5.0319886, 4.9644856 
6.146778e+2, 1.8186572e+2, -1117551.4, -1225024.0, -10039.348, -0.02326767, 0.015786478, -1116621.6, 41102.926, 0.0, 5.0302663, 4.9607053 
6.1461586e+2, 1.8682626e+2, -1072961.6, -1177186.6, -10256.922, -0.020067697, 0.010131278, -1071961.9, 37148.4, 0.0, 5.028523, 4.9610972 
6.145539e+2, 1.9178684e+2, -1028891.4, -1130488.4, -10297.141, -0.016898235, 0.0043841074, -1027858.25, 32637.414, 0.0, 5.026779, 4.961095 
6.1449206e+2, 1.967474e+2, -985678.25, -1085671.0, -10315.177, -0.013783901, -0.0009946246, -984625.25, 27255.738, 0.0, 5.025036, 4.960443 
6.1442965e+2, 2.0170565e+2, -947596.7, -1051884.4, -10927.049, -0.012018707, 0.0035379499, -946464.06, 16825.088, 0.0, 5.0232644, 4.956028 
6.1436623e+2, 2.066622e+2, -903072.7, -1003799.9, -10959.854, -0.012210916, 0.0036153528, -901894.0, 12819.972, 0.0, 5.02141, 4.9565005 
6.143028e+2, 2.1161877e+2, -859172.94, -957081.5, -10809.363, -0.012447904, 0.0035602362, -857993.75, 8144.7593, 0.0, 5.0195527, 4.956499 
6.1423945e+2, 2.1657532e+2, -815906.3, -911784.2, -10641.987, -0.012695703, 0.003656123, -814739.3, 2823.739, 0.0, 5.017696, 4.955998 
6.1417633e+2, 2.21529e+2, -778799.5, -880310.5, -10218.063, -0.012197717, 0.011269497, -777781.2, -8764.754, 0.0, 5.0158978, 4.950703 
6.141135e+2, 2.2647987e+2, -733583.4, -831687.94, -10244.866, -0.009336529, 0.007305498, -732524.94, -12026.358, 0.0, 5.0142093, 4.951226 
6.140508e+2, 2.3143074e+2, -689031.94, -784570.7, -10236.292, -0.0063241217, 0.0030185024, -687947.5, -15966.86, 0.0, 5.012523, 4.951224 
6.139881e+2, 2.363816e+2, -645102.6, -738871.0, -10209.3545, -0.0032971392, -0.0011872972, -644003.9, -20541.219, 0.0, 5.010837, 4.95072 
6.139257e+2, 2.4132974e+2, -607199.2, -706168.2, -9605.572, -0.000040009832, 0.0035433038, -606275.5, -31304.992, 0.0, 5.0090723, 4.9457126 
6.1386365e+2, 2.4627604e+2, -561973.94, -656326.1, -9452.751, 0.0040091183, -0.0011196755, -561036.25, -34542.32, 0.0, 5.0071173, 4.9467196 
6.138016e+2, 2.5122237e+2, -518056.38, -609389.44, -9261.524, 0.008045112, -0.0062972363, -517126.7, -39110.08, 0.0, 5.005152, 4.94672 
6.1373955e+2, 2.5616872e+2, -474354.78, -562984.75, -9064.204, 0.011992573, -0.011325993, -473437.28, -43898.055, 0.0, 5.003188, 4.946522 
6.136781e+2, 2.611123e+2, -438643.66, -534560.3, -7422.6543, 0.013974657, -0.0015638643, -438072.66, -56981.996, 0.0, 5.001221, 4.9400015 
6.136175e+2, 2.6605397e+2, -392401.8, -482663.97, -7027.122, 0.011555411, -0.002102694, -391858.03, -59193.35, 0.0, 4.999281, 4.941658 
6.1355686e+2, 2.7099565e+2, -348242.47, -435526.3, -6865.725, 0.008970857, -0.0042002373, -347705.72, -63466.797, 0.0, 4.9973416, 4.9416533 
6.134964e+2, 2.759373e+2, -304105.44, -388489.34, -6706.192, 0.0063888803, -0.006342465, -303575.78, -67762.484, 0.0, 4.9954033, 4.9416013 
6.134364e+2, 2.8087416e+2, -271674.75, -368103.94, -5428.5215, 0.004281924, 0.0006307051, -271370.13, -83937.6, 0.0, 4.9934635, 4.93212 
6.133771e+2, 2.8580764e+2, -224589.92, -314950.25, -5294.9404, 0.0030413275, -0.005752416, -224280.7, -85200.586, 0.0, 4.9916263, 4.9341116 
6.133177e+2, 2.9074115e+2, -179906.72, -267474.1, -5076.6675, 0.0017334076, -0.01323935, -179613.38, -88886.77, 0.0, 4.9898005, 4.934102 
6.132584e+2, 2.9567468e+2, -135189.45, -219964.06, -4860.0015, 0.0003384234, -0.020663012, -134911.73, -92538.58, 0.0, 4.987974, 4.9340925 
6.131994e+2, 3.006266e+2, -70931.414, -93931.94, -3747.8289, -0.007460172, -0.009249031, -70336.13, -70336.13, 0.0, 4.986114, 4.9712925 
6.1314154e+2, 3.056042e+2, -69652.836, -80740.67, -3525.6907, -0.026950492, -0.0018650714, -68626.7, -68626.7, 0.0, 4.984114, 4.976881 
6.1308396e+2, 3.1058258e+2, -75046.96, -83060.945, -3918.4895, -0.04555899, 0.004830112, -73449.445, -73449.445, 0.0, 4.9820914, 4.9768977 
6.130265e+2, 3.1556094e+2, -80437.92, -85390.67, -4322.7676, -0.063483864, 0.010931045, -77932.45, -77932.45, 0.0, 4.9800634, 4.976915 
6.204186e+2, 1.2229734e+2, -1625459.0, -1744734.0, -443.16364, 0.023645476, 0.018711217, -1625457.4, 116041.58, 0.0, 5.0512447, 4.973121 
6.203631e+2, 1.2727061e+2, -1583411.4, -1701489.0, -2497.9822, 0.019160777, 0.030880922, -1583358.5, 109401.35, 0.0, 5.049434, 4.9721923 
6.203066e+2, 1.3224107e+2, -1539971.5, -1655353.8, -2596.7134, 0.006095486, 0.015405617, -1539913.1, 104135.086, 0.0, 5.047628, 4.972191 
6.202502e+2, 1.3721152e+2, -1498751.3, -1613840.0, -2855.0386, -0.006950625, 0.0012651909, -1498680.5, 96656.15, 0.0, 5.0458174, 4.9706492 
6.2019235e+2, 1.4218074e+2, -1457640.9, -1572991.8, -5422.132, -0.014571949, 0.0046210173, -1457386.5, 89250.71, 0.0, 5.044059, 4.9687915 
6.201333e+2, 1.4714982e+2, -1413252.5, -1525474.8, -5625.6816, -0.017120477, 0.0037965013, -1412971.1, 84968.27, 0.0, 5.0423503, 4.969161 
6.200743e+2, 1.5211889e+2, -1369383.5, -1479054.8, -5739.6514, -0.019749846, 0.0027815974, -1369084.0, 80157.59, 0.0, 5.0406404, 4.969157 
6.2001526e+2, 1.5708797e+2, -1326898.8, -1435569.5, -5913.3247, -0.022387596, 0.0022405372, -1326577.9, 73965.92, 0.0, 5.0389295, 4.9681625 
6.199548e+2, 1.620546e+2, -1287503.1, -1398701.9, -7900.823, -0.024837349, 0.00865724, -1286944.5, 64926.125, 0.0, 5.037211, 4.9649577 
6.1989313e+2, 1.6701992e+2, -1243258.3, -1351373.0, -8105.724, -0.026174745, 0.009501669, -1242654.0, 60557.58, 0.0, 5.0354505, 4.9652395 
6.198314e+2, 1.7198525e+2, -1199390.5, -1304861.4, -8187.949, -0.027461601, 0.010326377, -1198758.6, 55793.496, 0.0, 5.033689, 4.9652367 
6.1976963e+2, 1.7695059e+2, -1156600.5, -1260670.6, -8232.925, -0.028753638, 0.011523167, -1155953.1, 49939.664, 0.0, 5.031928, 4.964444 
6.1970717e+2, 1.819132e+2, -1117775.1, -1225195.9, -9915.611, -0.02808677, 0.01745003, -1116867.5, 40392.145, 0.0, 5.030198, 4.960682 
6.196436e+2, 1.8687369e+2, -1073092.3, -1177312.1, -10154.376, -0.024044646, 0.011545873, -1072112.1, 36534.523, 0.0, 5.0284863, 4.961075 
6.1958003e+2, 1.9183418e+2, -1028945.56, -1130576.0, -10225.541, -0.01998852, 0.0055042757, -1027926.94, 32106.395, 0.0, 5.026769, 4.9610724 
6.195165e+2, 1.9679469e+2, -985673.94, -1085728.8, -10272.069, -0.015949365, -0.00020767708, -984630.25, 26789.703, 0.0, 5.0250463, 4.960421 
6.1945236e+2, 2.0175299e+2, -947262.4, -1051351.9, -10997.323, -0.013929003, 0.0045761047, -946113.2, 16714.502, 0.0, 5.023301, 4.9561954 
6.1938703e+2, 2.0670971e+2, -902545.2, -1003100.3, -11143.904, -0.014839809, 0.00453411, -901325.0, 12925.072, 0.0, 5.0214972, 4.9567027 
6.193217e+2, 2.1166646e+2, -858523.75, -956329.6, -11092.956, -0.015806925, 0.004264799, -857281.4, 8390.8545, 0.0, 5.019683, 4.9567003 
6.1925644e+2, 2.1662319e+2, -815163.7, -910992.75, -11021.047, -0.0167956, 0.0041364287, -813912.56, 3181.8506, 0.0, 5.0178595, 4.956199 
6.1919135e+2, 2.2157703e+2, -778271.25, -879934.7, -10555.657, -0.017313438, 0.012030155, -777186.8, -8640.687, 0.0, 5.016051, 4.9507666 
6.1912674e+2, 2.265281e+2, -733325.1, -831463.0, -10542.603, -0.016110351, 0.009577582, -732205.3, -12177.899, 0.0, 5.014273, 4.951279 
6.190621e+2, 2.3147917e+2, -689038.6, -784468.2, -10502.823, -0.014791688, 0.006880575, -687896.4, -16387.807, 0.0, 5.012495, 4.951277 
6.189975e+2, 2.3643026e+2, -645376.25, -738890.0, -10440.717, -0.013474009, 0.0042949184, -644224.7, -21235.064, 0.0, 5.0107164, 4.9507723 
6.1893326e+2, 2.4137859e+2, -607410.75, -705821.44, -9975.226, -0.010982899, 0.01026538, -606409.8, -31913.97, 0.0, 5.008907, 4.945912 
6.188695e+2, 2.4632491e+2, -561910.94, -655712.06, -9985.149, -0.004913791, 0.003354598, -560859.8, -34841.85, 0.0, 5.0070186, 4.946982 
6.188057e+2, 2.5127125e+2, -517817.4, -608699.94, -9896.233, 0.0013387769, -0.004461322, -516752.28, -39212.676, 0.0, 5.005116, 4.9469814 
6.187419e+2, 2.5621763e+2, -473969.47, -562232.5, -9794.75, 0.007541377, -0.012185134, -472895.6, -43834.35, 0.0, 5.0032043, 4.946783 
6.186786e+2, 2.6116127e+2, -438192.25, -533796.7, -8215.009, 0.010856057, -0.004303561, -437491.5, -56880.29, 0.0, 5.0012665, 4.940254 
6.1861604e+2, 2.661032e+2, -391963.13, -481915.75, -7842.83, 0.007519243, -0.004196604, -391284.44, -59102.37, 0.0, 4.999323, 4.941909 
6.185534e+2, 2.710452e+2, -347826.66, -434796.84, -7691.2417, 0.0038943836, -0.005483626, -347151.72, -63398.684, 0.0, 4.9973764, 4.941902 
6.1849076e+2, 2.7598715e+2, -303722.6, -387782.4, -7540.3916, 0.0002453881, -0.0068149236, -303051.56, -67727.414, 0.0, 4.9954276, 4.941848 
6.184288e+2, 2.8092438e+2, -271268.44, -367292.3, -6235.188, -0.0028786075, 0.0006818448, -270865.25, -83925.25, 0.0, 4.9934764, 4.9324055 
6.183676e+2, 2.8585815e+2, -224249.08, -314145.78, -6100.164, -0.0045374082, -0.0052615292, -223837.02, -85253.516, 0.0, 4.9916124, 4.9344068 
6.183064e+2, 2.9079202e+2, -179670.55, -266714.4, -5900.8574, -0.0061583966, -0.012196423, -179272.34, -89046.59, 0.0, 4.98975, 4.9343987 
6.1824524e+2, 2.9572588e+2, -135074.2, -219256.89, -5689.1816, -0.007857294, -0.019048473, -134691.45, -92823.43, 0.0, 4.987881, 4.93439 
6.181844e+2, 3.0067784e+2, -71485.09, -94534.1, -4547.9478, -0.015896013, -0.009076991, -70620.164, -70620.164, 0.0, 4.985974, 4.971135 
6.181244e+2, 3.0565423e+2, -70774.83, -82275.16, -4168.0356, -0.0372547, -0.009874386, -69423.1, -69423.1, 0.0, 4.983902, 4.9764132 
6.180647e+2, 3.1063128e+2, -76522.28, -84760.47, -4303.589, -0.058585938, -0.012003712, -74684.21, -74684.21, 0.0, 4.9817557, 4.9764237 
6.1800504e+2, 3.156083e+2, -82411.945, -87323.43, -4404.6006, -0.07968746, -0.014775927, -79824.76, -79824.76, 0.0, 4.9795523, 4.976433 
6.254723e+2, 1.2234997e+2, -1620095.0, -1743686.4, 1645.3043, 0.039854668, 0.0017933296, -1620073.1, 120906.93, 0.0, 5.0534368, 4.9723787 
6.2541336e+2, 1.2732407e+2, -1577495.8, -1698673.6, 1264.6603, 0.019508876, 0.023955839, -1577482.5, 114750.336, 0.0, 5.0514903, 4.9721017 
6.25355e+2, 1.3229464e+2, -1534480.4, -1652756.6, 1135.4122, 0.0064366786, 0.011202346, -1534469.5, 109050.55, 0.0, 5.0495453, 4.9721007 
6.252967e+2, 1.3726519e+2, -1493664.0, -1611458.4, 843.06305, -0.00658069, -0.0002833342, -1493658.0, 101149.625, 0.0, 5.0476027, 4.9705553 
6.252369e+2, 1.422344e+2, -1452768.5, -1570649.0, -1619.0726, -0.014172782, 0.0044434583, -1452746.3, 93362.29, 0.0, 5.045756, 4.9687314 
6.2517613e+2, 1.4720327e+2, -1408584.5, -1523283.9, -1808.496, -0.017107038, 0.0029046931, -1408556.0, 88857.36, 0.0, 5.0439916, 4.9690814 
6.251153e+2, 1.5217212e+2, -1364880.9, -1476947.4, -1933.2185, -0.02009726, 0.0011495077, -1364847.5, 83870.66, 0.0, 5.042228, 4.969079 
6.2505454e+2, 1.5714097e+2, -1322559.3, -1433556.0, -2124.3647, -0.023075974, -0.00013584118, -1322518.6, 77504.5, 0.0, 5.0404663, 4.9680805 
6.249924e+2, 1.6210747e+2, -1283190.0, -1396399.0, -4153.9023, -0.025516782, 0.005697827, -1283037.8, 68313.76, 0.0, 5.038673, 4.965013 
6.2492883e+2, 1.6707276e+2, -1239345.0, -1349296.5, -4287.343, -0.026570318, 0.006592494, -1239178.1, 63514.4, 0.0, 5.036784, 4.9652834 
6.248653e+2, 1.7203806e+2, -1195861.9, -1302979.0, -4297.2144, -0.02759294, 0.0075032893, -1195689.8, 58343.605, 0.0, 5.0348945, 4.96528 
6.2480175e+2, 1.7700337e+2, -1153454.1, -1258982.1, -4268.5464, -0.028631028, 0.008796186, -1153281.8, 52092.367, 0.0, 5.0330048, 4.9644856 
6.2473744e+2, 1.8196604e+2, -1114886.9, -1223616.1, -5801.7544, -0.02833488, 0.01550313, -1114578.1, 42162.652, 0.0, 5.0311823, 4.960731 
6.24672e+2, 1.8692668e+2, -1070324.3, -1175806.9, -5959.385, -0.025700293, 0.0115052685, -1069988.6, 38138.33, 0.0, 5.029435, 4.9611177 
6.2460655e+2, 1.9188733e+2, -1026268.4, -1129115.6, -5974.5503, -0.023011103, 0.0073114084, -1025922.5, 33590.547, 0.0, 5.027689, 4.961117 
6.2454116e+2, 1.9684799e+2, -983068.8, -1084303.1, -5964.64, -0.020275604, 0.0033611886, -982718.56, 28180.494, 0.0, 5.025943, 4.9604664 
6.244752e+2, 2.0180634e+2, -944579.5, -1049643.8, -6687.3613, -0.01870132, 0.008407273, -944155.56, 18151.168, 0.0, 5.024176, 4.9563484 
6.244082e+2, 2.0676294e+2, -899883.8, -1001457.5, -6837.2266, -0.018428303, 0.006670264, -899425.7, 14304.442, 0.0, 5.022378, 4.9568343 
6.243412e+2, 2.1171954e+2, -855820.7, -954674.5, -6803.5903, -0.01817763, 0.004713026, -855354.6, 9798.677, 0.0, 5.0205793, 4.9568324 
6.2427425e+2, 2.1667616e+2, -812391.06, -909313.3, -6750.368, -0.017949771, 0.0028833451, -811923.2, 4653.289, 0.0, 5.0187817, 4.9563303 
6.2420744e+2, 2.2163e+2, -775498.0, -878003.2, -6289.1035, -0.017911213, 0.009925456, -775113.56, -7085.55, 0.0, 5.0169234, 4.9510083 
6.241408e+2, 2.265814e+2, -731084.2, -829728.94, -6151.1865, -0.017776463, 0.008910842, -730702.06, -11195.932, 0.0, 5.0149527, 4.9515433 
6.2407416e+2, 2.315328e+2, -687358.2, -782988.3, -5976.4834, -0.017577147, 0.007672647, -686986.1, -16002.012, 0.0, 5.0129795, 4.9515433 
6.240076e+2, 2.3648418e+2, -644250.5, -737659.1, -5782.544, -0.017355911, 0.0064428123, -643893.9, -21431.766, 0.0, 5.0110073, 4.9510417 
6.2394136e+2, 2.4143277e+2, -606700.25, -704844.56, -5153.1426, -0.015705457, 0.013002932, -606430.44, -32464.484, 0.0, 5.0090666, 4.9461546 
6.238757e+2, 2.4637915e+2, -561146.94, -654888.25, -5177.368, -0.010249544, 0.0057744742, -560861.9, -35373.99, 0.0, 5.0072327, 4.9471498 
6.2381e+2, 2.5132552e+2, -516846.94, -607784.2, -5133.452, -0.004530024, -0.0023907195, -516558.1, -39548.613, 0.0, 5.0054035, 4.9471493 
6.237443e+2, 2.562719e+2, -472765.84, -561213.56, -5082.5684, 0.0012570483, -0.010561609, -472474.75, -43943.69, 0.0, 5.003575, 4.946951 
6.2367916e+2, 2.6121563e+2, -436658.66, -532187.9, -3535.766, 0.00466648, -0.0034356995, -436527.97, -56447.78, 0.0, 5.0016704, 4.940612 
6.236146e+2, 2.6615784e+2, -390661.94, -480311.53, -3067.708, 0.002466217, -0.00407205, -390557.06, -58909.26, 0.0, 4.9996266, 4.9423122 
6.235501e+2, 2.7110007e+2, -346821.4, -433325.06, -2779.7253, -0.000011402056, -0.0059585674, -346732.2, -63516.8, 0.0, 4.9975767, 4.942306 
6.234857e+2, 2.7604228e+2, -303003.2, -386435.5, -2491.6467, -0.0025543303, -0.007794512, -302928.84, -68145.805, 0.0, 4.9955277, 4.942252 
6.234217e+2, 2.8097975e+2, -270806.78, -366089.63, -950.6067, -0.0050953054, -0.0004972905, -270797.3, -84401.92, 0.0, 4.99349, 4.932798 
6.233586e+2, 2.859139e+2, -224016.1, -313077.03, -735.30896, -0.0073204082, -0.005877154, -224010.03, -85974.28, 0.0, 4.991555, 4.9347835 
6.232954e+2, 2.908481e+2, -179620.17, -265681.47, -499.2681, -0.009436826, -0.012196314, -179617.28, -89942.5, 0.0, 4.989627, 4.9347887 
6.2323225e+2, 2.9578236e+2, -135189.5, -218249.81, -265.77072, -0.011494509, -0.018438652, -135188.64, -93874.945, 0.0, 4.987698, 4.9347944 
6.231695e+2, 3.0073464e+2, -71688.16, -93554.86, 909.16833, -0.01937195, -0.008229535, -71650.42, -71650.42, 0.0, 4.9857745, 4.971543 
6.231078e+2, 3.057109e+2, -70499.24, -81301.24, 1512.6882, -0.039747935, -0.011379208, -70291.41, -70291.41, 0.0, 4.983945, 4.976712 
6.230463e+2, 3.1068778e+2, -75298.76, -83182.945, 1529.2009, -0.06018435, -0.016499551, -75012.55, -75012.55, 0.0, 4.9821253, 4.976792 
6.2298477e+2, 3.156647e+2, -80084.664, -85085.25, 1519.9431, -0.08040054, -0.022337193, -79658.914, -79658.914, 0.0, 4.9803014, 4.976872 
6.305261e+2, 1.2240574e+2, -1619728.8, -1743001.4, 47.04205, 0.046655077, -0.00829411, -1619728.8, 120701.45, 0.0, 5.053433, 4.972615 
6.304645e+2, 1.2737983e+2, -1577641.9, -1699142.9, -197.98383, 0.019347971, 0.015214373, -1577641.6, 114041.484, 0.0, 5.0515075, 4.971948 
6.3040423e+2, 1.3235064e+2, -1534625.9, -1653223.1, -326.13412, 0.00651519, 0.0061955755, -1534625.0, 108343.195, 0.0, 5.049562, 4.9719477 
6.30344e+2, 1.373214e+2, -1493812.8, -1611931.8, -623.0196, -0.006290594, -0.0015567251, -1493809.5, 100444.19, 0.0, 5.0476193, 4.9704 
6.302824e+2, 1.4229068e+2, -1452868.1, -1571003.0, -2968.6816, -0.013754695, 0.005124613, -1452793.5, 92760.695, 0.0, 5.0457706, 4.968616 
6.302198e+2, 1.4725931e+2, -1408713.4, -1523697.3, -3135.9385, -0.017094038, 0.0026896351, -1408628.0, 88233.836, 0.0, 5.044006, 4.9689455 
6.301572e+2, 1.5222794e+2, -1365008.9, -1477359.3, -3260.59, -0.020488817, 0.000015713009, -1364914.3, 83255.1, 0.0, 5.0422425, 4.9689436 
6.300945e+2, 1.5719657e+2, -1322693.4, -1433982.4, -3457.7502, -0.023878552, -0.002186606, -1322586.0, 76891.01, 0.0, 5.040481, 4.96794 
6.300306e+2, 1.6216291e+2, -1283102.5, -1396334.9, -5587.0146, -0.026246365, 0.0028659708, -1282827.5, 67979.54, 0.0, 5.0386834, 4.9650383 
6.299651e+2, 1.6712822e+2, -1239270.8, -1349254.6, -5717.7944, -0.02680542, 0.0035766328, -1238974.4, 63173.516, 0.0, 5.0367937, 4.965302 
6.298998e+2, 1.7209353e+2, -1195789.8, -1302938.4, -5727.141, -0.027351998, 0.004342107, -1195484.5, 58003.996, 0.0, 5.0349035, 4.9652987 
6.298345e+2, 1.7705883e+2, -1153385.5, -1258946.0, -5700.9907, -0.027923977, 0.0055077416, -1153078.5, 51750.55, 0.0, 5.0330133, 4.964503 
6.297682e+2, 1.8202162e+2, -1114809.9, -1223578.5, -7148.7476, -0.028077623, 0.013180831, -1114342.1, 41852.688, 0.0, 5.031194, 4.9607472 
6.2970084e+2, 1.8698251e+2, -1070255.4, -1175782.8, -7283.4004, -0.027266951, 0.011576364, -1069755.1, 37824.203, 0.0, 5.029446, 4.9611297 
6.296335e+2, 1.9194342e+2, -1026202.4, -1129092.9, -7297.376, -0.026428834, 0.009808058, -1025687.4, 33276.29, 0.0, 5.0276995, 4.961128 
6.2956613e+2, 1.9690433e+2, -983005.2, -1084281.0, -7286.083, -0.025557803, 0.008307775, -982483.7, 27864.314, 0.0, 5.025953, 4.9604783 
6.2949836e+2, 2.0186278e+2, -944389.75, -1049362.9, -8068.4204, -0.024593676, 0.01367129, -943773.2, 17981.982, 0.0, 5.024188, 4.9564486 
6.2942976e+2, 2.0681919e+2, -899731.06, -1001248.8, -8204.845, -0.02264798, 0.009430081, -899072.2, 14108.009, 0.0, 5.0223885, 4.956911 
6.2936115e+2, 2.1177565e+2, -855674.2, -954469.6, -8168.546, -0.020703614, 0.0050296253, -855003.4, 9601.645, 0.0, 5.0205884, 4.9569087 
6.2929255e+2, 2.1673208e+2, -812250.94, -909112.3, -8112.5396, -0.01880303, 0.0008063246, -811576.2, 4453.596, 0.0, 5.0187893, 4.9564066 
6.2922394e+2, 2.2168598e+2, -775140.2, -877340.06, -7771.6753, -0.017944615, 0.0068963934, -774552.56, -7071.819, 0.0, 5.0169334, 4.951241 
6.291552e+2, 2.266378e+2, -730689.44, -828981.06, -7655.721, -0.018763395, 0.0076461355, -730096.75, -11142.484, 0.0, 5.014962, 4.9518065 
6.290865e+2, 2.3158965e+2, -686969.94, -782246.8, -7478.262, -0.019592412, 0.008277176, -686386.56, -15959.076, 0.0, 5.012988, 4.9518056 
6.2901783e+2, 2.365415e+2, -643868.7, -736923.9, -7281.4106, -0.020414911, 0.008944843, -643302.4, -21401.615, 0.0, 5.011015, 4.9513035 
6.289496e+2, 2.4149041e+2, -606396.56, -704300.9, -6588.261, -0.019706381, 0.016162688, -605955.2, -32553.797, 0.0, 5.009078, 4.9463477 
6.2888193e+2, 2.4643682e+2, -560964.9, -654620.3, -6583.2964, -0.015462189, 0.008364886, -560504.4, -35580.86, 0.0, 5.0072446, 4.9472485 
6.2881434e+2, 2.5138324e+2, -516668.25, -607521.8, -6536.729, -0.011031034, -0.0002476342, -516200.34, -39754.85, 0.0, 5.0054154, 4.9472475 
6.287467e+2, 2.563297e+2, -472590.47, -560956.7, -6483.139, -0.0065521044, -0.00885386, -472117.34, -44149.895, 0.0, 5.0035863, 4.9470477 
6.2867963e+2, 2.6127353e+2, -436158.88, -531181.2, -5065.1904, -0.0034815976, -0.0023687321, -435889.63, -56374.08, 0.0, 5.0016794, 4.9409695 
6.2861323e+2, 2.6621607e+2, -390097.13, -479156.8, -4646.1143, -0.003580778, -0.0036714985, -389855.4, -58776.8, 0.0, 4.9996357, 4.942723 
6.2854695e+2, 2.7115867e+2, -346258.1, -432176.94, -4356.7134, -0.003863126, -0.006187823, -346037.75, -63396.26, 0.0, 4.9975867, 4.9427156 
6.284806e+2, 2.761012e+2, -302441.38, -385293.9, -4067.2026, -0.0042312616, -0.008668349, -302242.2, -68037.68, 0.0, 4.9955387, 4.9426603 
6.2841487e+2, 2.8103906e+2, -270269.2, -365038.94, -2460.7634, -0.0053827777, -0.0016558387, -270205.34, -84392.97, 0.0, 4.9935064, 4.9331717 
6.2834966e+2, 2.859736e+2, -223535.72, -312176.0, -2230.081, -0.008311492, -0.006388747, -223479.64, -86030.18, 0.0, 4.9915733, 4.9351063 
6.282845e+2, 2.9090822e+2, -179142.98, -264788.5, -1994.01, -0.011283722, -0.012009072, -179096.58, -90011.14, 0.0, 4.9896445, 4.93511 
6.282193e+2, 2.9584283e+2, -134715.45, -217364.83, -1760.4825, -0.014221753, -0.017537829, -134677.97, -93956.67, 0.0, 4.9877157, 4.9351144 
6.2815464e+2, 3.0079558e+2, -71066.75, -92382.14, -490.83554, -0.022473719, -0.00670204, -71055.45, -71055.45, 0.0, 4.9857993, 4.9719863 
6.280914e+2, 3.0577186e+2, -69993.49, -80560.41, 202.69943, -0.04129665, -0.011630529, -69989.61, -69989.61, 0.0, 4.983992, 4.977007 
6.2802833e+2, 3.1074858e+2, -74716.72, -82424.54, 264.4825, -0.060278755, -0.01946755, -74707.66, -74707.66, 0.0, 4.982195, 4.977083 
6.279653e+2, 3.1572527e+2, -79426.32, -84309.266, 300.43933, -0.0792927, -0.028376572, -79407.91, -79407.91, 0.0, 4.9803934, 4.97716 
6.355793e+2, 1.22462094e+2, -1617810.5, -1739187.0, 290.44138, 0.047434095, -0.01252464, -1617809.8, 122064.81, 0.0, 5.053442, 4.9738727 
6.355157e+2, 1.274356e+2, -1577788.1, -1699612.3, -1661.3508, 0.019181114, 0.0065605002, -1577765.5, 113367.805, 0.0, 5.051525, 4.971794 
6.3545346e+2, 1.3240662e+2, -1534771.4, -1653689.9, -1788.4026, 0.006581435, 0.0012606647, -1534744.5, 107671.81, 0.0, 5.0495796, 4.971794 
6.353913e+2, 1.3737759e+2, -1493961.5, -1612405.4, -2090.0703, -0.0060189753, -0.0027739524, -1493924.6, 99774.98, 0.0, 5.0476365, 4.970244 
6.353278e+2, 1.4234693e+2, -1452973.3, -1571369.8, -4318.8647, -0.013349521, 0.005818392, -1452815.9, 92184.01, 0.0, 5.0457854, 4.9684963 
6.3526344e+2, 1.4731535e+2, -1408841.9, -1524111.0, -4463.55, -0.01709503, 0.002469377, -1408669.3, 87640.93, 0.0, 5.044021, 4.96881 
6.3519895e+2, 1.5228376e+2, -1365136.4, -1477771.5, -4588.1304, -0.020893881, -0.0011351089, -1364949.8, 82670.83, 0.0, 5.042258, 4.9688077 
6.351346e+2, 1.5725215e+2, -1322827.1, -1434409.3, -4791.408, -0.024694143, -0.004266212, -1322621.8, 76309.305, 0.0, 5.040496, 4.967799 
6.350687e+2, 1.6221836e+2, -1283019.4, -1396282.1, -7024.8486, -0.02697224, 0.00006524153, -1282585.4, 67677.305, 0.0, 5.0386944, 4.9650598 
6.3500154e+2, 1.6718367e+2, -1239195.8, -1349213.8, -7148.2964, -0.027035948, 0.0005735438, -1238733.3, 62869.918, 0.0, 5.036804, 4.96532 
6.349343e+2, 1.7214899e+2, -1195716.8, -1302898.6, -7157.1177, -0.027104335, 0.001165597, -1195241.0, 57702.59, 0.0, 5.034913, 4.965317 
6.3486713e+2, 1.7711431e+2, -1153316.0, -1258910.8, -7133.4653, -0.027208073, 0.002175908, -1152836.3, 51447.664, 0.0, 5.0330224, 4.9645195 
6.3479894e+2, 1.820772e+2, -1114740.3, -1223558.6, -8491.252, -0.027878672, 0.010977427, -1114081.6, 41567.066, 0.0, 5.031206, 4.9607573 
6.347297e+2, 1.8703836e+2, -1070186.0, -1175759.4, -8607.735, -0.028899178, 0.011743436, -1069488.8, 37542.7, 0.0, 5.029458, 4.961141 
6.346604e+2, 1.9199951e+2, -1026135.8, -1129070.9, -8620.521, -0.029911144, 0.012361242, -1025418.9, 32995.383, 0.0, 5.0277104, 4.9611397 
6.345911e+2, 1.9696069e+2, -982941.0, -1084259.3, -8607.829, -0.030903593, 0.013271515, -982214.9, 27582.02, 0.0, 5.025963, 4.9604897 
6.345215e+2, 2.0191921e+2, -944216.1, -1049119.5, -9446.557, -0.030482413, 0.018989658, -943372.25, 17831.39, 0.0, 5.0242004, 4.956536 
6.344512e+2, 2.0687547e+2, -899577.9, -1001040.94, -9572.625, -0.026841395, 0.012182208, -898682.6, 13947.6875, 0.0, 5.0223994, 4.9569874 
6.34381e+2, 2.1183175e+2, -855527.3, -954265.56, -9533.666, -0.023188794, 0.005257001, -854615.2, 9441.554, 0.0, 5.0205984, 4.9569845 
6.343108e+2, 2.1678801e+2, -812110.4, -908912.2, -9474.877, -0.019600974, -0.0014413331, -811191.7, 4291.4336, 0.0, 5.0187974, 4.956482 
6.342404e+2, 2.2174197e+2, -774799.1, -876717.1, -9249.876, -0.018045707, 0.0040578176, -773966.44, -7033.121, 0.0, 5.016944, 4.9514594 
6.3416964e+2, 2.2669423e+2, -730294.06, -828234.3, -9159.879, -0.01981841, 0.0065577906, -729444.75, -11042.604, 0.0, 5.0149727, 4.952069 
6.340988e+2, 2.3164651e+2, -686581.0, -781506.56, -8979.666, -0.021645844, 0.008962766, -685739.0, -15868.393, 0.0, 5.0129976, 4.952067 
6.340281e+2, 2.365988e+2, -643486.1, -736189.8, -8779.904, -0.02348221, 0.011432782, -642661.94, -21322.723, 0.0, 5.011023, 4.951564 
6.339578e+2, 2.4154802e+2, -606130.2, -703843.44, -8015.119, -0.023785193, 0.01941479, -605477.1, -32640.338, 0.0, 5.00909, 4.9465113 
6.338882e+2, 2.4649449e+2, -560782.3, -654353.25, -7987.874, -0.020738266, 0.011025949, -560105.3, -35746.08, 0.0, 5.007257, 4.9473467 
6.338186e+2, 2.5144097e+2, -516489.0, -607260.4, -7938.657, -0.017552428, 0.0018797263, -515799.9, -39918.355, 0.0, 5.0054274, 4.9473443 
6.3374907e+2, 2.563874e+2, -472414.5, -560700.75, -7882.3633, -0.014338659, -0.0072480817, -471716.28, -44312.355, 0.0, 5.003598, 4.9471436 
6.3368005e+2, 2.613314e+2, -435668.6, -530198.94, -6596.778, -0.011617284, -0.0012762317, -435210.44, -56259.625, 0.0, 5.001689, 4.941318 
6.3361186e+2, 2.6627433e+2, -389531.47, -478003.34, -6222.6875, -0.009605802, -0.0032307992, -389095.94, -58586.65, 0.0, 4.999645, 4.943133 
6.335437e+2, 2.7121723e+2, -345693.94, -431030.03, -5931.869, -0.007672191, -0.0064278697, -345283.56, -63216.055, 0.0, 4.9975977, 4.9431243 
6.3347554e+2, 2.7616012e+2, -301878.66, -384153.56, -5640.927, -0.005844882, -0.009603838, -301493.72, -67867.82, 0.0, 4.99555, 4.943068 
6.334079e+2, 2.810984e+2, -269742.4, -364013.97, -3962.6084, -0.005654431, -0.0028088316, -269576.13, -84346.84, 0.0, 4.993523, 4.933536 
6.333407e+2, 2.860333e+2, -223056.2, -311274.47, -3723.1384, -0.009331778, -0.0068670847, -222899.36, -86036.2, 0.0, 4.991592, 4.935429 
6.332735e+2, 2.9096833e+2, -178666.66, -263894.97, -3487.0376, -0.013183879, -0.011793426, -178524.22, -90028.14, 0.0, 4.989663, 4.935431 
6.3320637e+2, 2.9590333e+2, -134242.3, -216479.31, -3253.4805, -0.017026287, -0.016613439, -134113.78, -93984.875, 0.0, 4.9877343, 4.9354334 
6.331398e+2, 3.0085647e+2, -70483.93, -91289.26, -1876.348, -0.02578083, -0.0056400415, -70316.06, -70316.06, 0.0, 4.9858246, 4.972394 
6.3307494e+2, 3.0583268e+2, -69491.84, -79813.79, -1095.5724, -0.043362927, -0.013502892, -69376.836, -69376.836, 0.0, 4.98404, 4.9772887 
6.330104e+2, 3.1080917e+2, -74138.766, -81660.414, -988.51886, -0.061171886, -0.025069272, -74011.02, -74011.02, 0.0, 4.9822655, 4.977362 
6.329458e+2, 3.157857e+2, -78772.06, -83527.62, -907.3485, -0.07926423, -0.038060505, -78604.83, -78604.83, 0.0, 4.9804864, 4.9774356 
6.4063233e+2, 1.22519664e+2, -1619497.5, -1741425.0, 1032.2362, 0.047053497, -0.007729411, -1619488.8, 119818.23, 0.0, 5.053183, 4.973257 
6.405668e+2, 1.2749164e+2, -1578509.9, -1700181.6, -1489.6283, 0.019753102, -0.002730479, -1578491.6, 112089.09, 0.0, 5.0513334, 4.9716954 
6.405027e+2, 1.3246289e+2, -1535328.6, -1654189.8, -1565.9723, 0.007039773, -0.0043984624, -1535308.0, 106553.43, 0.0, 5.049444, 4.971691 
6.404386e+2, 1.3743411e+2, -1494390.5, -1612861.6, -1828.9352, -0.005601761, -0.0047541726, -1494362.3, 98780.164, 0.0, 5.047548, 4.970134 
6.4037323e+2, 1.4240353e+2, -1453336.6, -1571771.9, -3922.0513, -0.012894608, 0.005846711, -1453206.9, 91235.445, 0.0, 5.0457106, 4.968398 
6.40307e+2, 1.4737175e+2, -1409308.6, -1524600.6, -4045.8372, -0.016994225, 0.0019345045, -1409166.9, 86588.2, 0.0, 5.0439177, 4.968696 
6.402408e+2, 1.5233995e+2, -1365685.4, -1478305.3, -4172.745, -0.021140268, -0.002275995, -1365530.9, 81537.09, 0.0, 5.042126, 4.968693 
6.401746e+2, 1.5730813e+2, -1323463.6, -1435002.0, -4386.273, -0.025292892, -0.0060477913, -1323291.4, 75089.664, 0.0, 5.040337, 4.9676776 
6.401069e+2, 1.6227423e+2, -1283428.0, -1396446.3, -6740.6484, -0.027406152, -0.0022817578, -1283027.5, 66686.77, 0.0, 5.038543, 4.965079 
6.4003783e+2, 1.6723949e+2, -1239473.3, -1349318.9, -6924.8794, -0.026921138, -0.0021078233, -1239038.4, 62016.65, 0.0, 5.036699, 4.965337 
6.399688e+2, 1.7220478e+2, -1195872.8, -1302942.6, -7003.273, -0.026446313, -0.0018474584, -1195416.6, 56978.953, 0.0, 5.034849, 4.9653344 
6.3989985e+2, 1.7717004e+2, -1153366.6, -1258904.1, -7048.4077, -0.026006889, -0.0011672574, -1152898.0, 50838.18, 0.0, 5.032995, 4.964537 
6.3982975e+2, 1.8213305e+2, -1114815.1, -1223562.1, -8360.159, -0.027116109, 0.008695529, -1114176.3, 40923.926, 0.0, 5.031171, 4.960775 
6.397585e+2, 1.8709442e+2, -1070422.3, -1175833.8, -8486.278, -0.0297417, 0.011603576, -1069743.4, 36738.098, 0.0, 5.0293646, 4.9611616 
6.3968736e+2, 1.920558e+2, -1026544.06, -1129230.3, -8522.727, -0.03236806, 0.01433873, -1025841.5, 32021.357, 0.0, 5.0275574, 4.9611597 
6.3961613e+2, 1.9701718e+2, -983526.56, -1084504.1, -8533.893, -0.034986317, 0.017360324, -982810.44, 26433.67, 0.0, 5.0257483, 4.9605093 
6.3954467e+2, 2.0197578e+2, -944808.6, -1049225.5, -9452.615, -0.03508107, 0.023464402, -943959.8, 16690.799, 0.0, 5.023954, 4.956618 
6.394728e+2, 2.0693189e+2, -900121.75, -1001125.8, -9641.099, -0.030179357, 0.014513687, -899209.7, 12869.08, 0.0, 5.0221705, 4.9570684 
6.394009e+2, 2.11888e+2, -856032.0, -954329.44, -9665.927, -0.025197327, 0.005383335, -855090.56, 8416.239, 0.0, 5.020383, 4.957066 
6.3932896e+2, 2.1684411e+2, -812589.8, -908961.3, -9664.241, -0.020235106, -0.0035649552, -811630.25, 3304.5237, 0.0, 5.018591, 4.9565644 
6.3925683e+2, 2.2179815e+2, -775042.7, -876373.2, -9586.876, -0.018228633, 0.0017484652, -774143.7, -7759.727, 0.0, 5.0167627, 4.9516654 
6.39184e+2, 2.267508e+2, -730296.56, -827665.7, -9604.491, -0.02082645, 0.005809503, -729358.2, -11509.753, 0.0, 5.0148516, 4.952325 
6.3911116e+2, 2.317035e+2, -686432.44, -780870.44, -9500.09, -0.023492102, 0.009720539, -685486.25, -16173.621, 0.0, 5.012929, 4.952323 
6.390383e+2, 2.366562e+2, -643212.9, -735498.0, -9371.327, -0.02617986, 0.013708135, -642270.9, -21493.963, 0.0, 5.0109987, 4.9518194 
6.389661e+2, 2.416057e+2, -605964.6, -703446.44, -8569.997, -0.027456272, 0.022439122, -605216.94, -32945.223, 0.0, 5.0090766, 4.9466605 
6.388945e+2, 2.4655223e+2, -560799.2, -654123.75, -8528.936, -0.025558861, 0.013523966, -560026.1, -36231.816, 0.0, 5.007196, 4.9474607 
6.388229e+2, 2.5149876e+2, -516652.7, -607103.3, -8477.095, -0.02354979, 0.0038589106, -515865.06, -40548.094, 0.0, 5.0053153, 4.947457 
6.3875145e+2, 2.5644526e+2, -472726.6, -560615.94, -8417.884, -0.021532543, -0.0057842257, -471927.6, -45087.977, 0.0, 5.003434, 4.947254 
6.3868046e+2, 2.613894e+2, -435759.34, -529492.6, -7282.5933, -0.01922228, -0.00014250119, -435196.9, -56811.688, 0.0, 5.001501, 4.9416556 
6.386105e+2, 2.663326e+2, -389440.75, -477068.44, -7052.205, -0.015289848, -0.002736039, -388876.8, -58937.52, 0.0, 4.999493, 4.9435353 
6.3854045e+2, 2.7127588e+2, -345521.88, -430057.78, -6857.494, -0.011274375, -0.006642303, -344969.22, -63476.19, 0.0, 4.997474, 4.9435277 
6.384705e+2, 2.762191e+2, -301651.03, -383156.13, -6651.731, -0.0073356186, -0.010532447, -301111.75, -68064.82, 0.0, 4.9954476, 4.9434724 
6.38401e+2, 2.811577e+2, -269564.84, -363134.63, -4949.945, -0.005881312, -0.0038624138, -269303.72, -84657.83, 0.0, 4.993422, 4.933898 
6.383318e+2, 2.8609306e+2, -223013.2, -310531.7, -4714.9604, -0.010299753, -0.007239919, -222759.92, -86483.36, 0.0, 4.991457, 4.9357595 
6.382625e+2, 2.9102844e+2, -178718.84, -263202.1, -4485.7305, -0.015017764, -0.011508403, -178481.33, -90574.85, 0.0, 4.9894953, 4.935759 
6.3819337e+2, 2.9596382e+2, -134379.84, -215831.61, -4262.0557, -0.019764692, -0.01566499, -134157.44, -94621.13, 0.0, 4.987537, 4.935759 
6.381248e+2, 3.0091733e+2, -70755.45, -90599.35, -2798.1694, -0.029102162, -0.005088693, -70368.44, -70368.44, 0.0, 4.9855585, 4.972772 
6.3805854e+2, 3.058934e+2, -70525.91, -79702.9, -1996.7771, -0.04549432, -0.016921867, -70110.266, -70110.266, 0.0, 4.9835396, 4.9775615 
6.3799244e+2, 3.1086966e+2, -76078.9, -81959.19, -1938.9155, -0.062070947, -0.03311124, -75497.13, -75497.13, 0.0, 4.9814334, 4.9776297 
6.379264e+2, 3.158459e+2, -81864.93, -84340.38, -1940.2317, -0.07917566, -0.051092904, -80801.25, -80801.25, 0.0, 4.979233, 4.9776983 
6.45686e+2, 1.2258457e+2, -1614311.8, -1739394.6, 4690.1367, 0.04561515, 0.015023725, -1614136.1, 124530.76, 0.0, 5.055089, 4.972977 
6.4561903e+2, 1.275533e+2, -1573094.3, -1697328.0, 2062.4841, 0.023242865, -0.012180041, -1573060.0, 116912.33, 0.0, 5.0531673, 4.971723 
6.455529e+2, 1.325247e+2, -1530093.5, -1651434.5, 2023.0868, 0.0092171375, -0.011832437, -1530059.8, 111191.81, 0.0, 5.051223, 4.971718 
6.454867e+2, 1.3749608e+2, -1489309.1, -1610207.3, 1802.5829, -0.0047012656, -0.010116777, -1489282.4, 103248.73, 0.0, 5.0492816, 4.970153 
6.4541936e+2, 1.4246559e+2, -1448426.6, -1569200.9, -172.04243, -0.01263346, 0.0019557239, -1448426.4, 95403.945, 0.0, 5.0473866, 4.9684205 
6.4535123e+2, 1.4743385e+2, -1404795.9, -1522289.0, -229.7381, -0.016844794, -0.00062955427, -1404795.5, 90347.92, 0.0, 5.045475, 4.9686937 
6.452832e+2, 1.524021e+2, -1361536.1, -1476180.9, -287.40793, -0.021087077, -0.0034898769, -1361535.4, 84921.07, 0.0, 5.0435634, 4.9686894 
6.4521515e+2, 1.5737033e+2, -1319682.1, -1433076.8, -430.66016, -0.025338458, -0.0059409896, -1319680.4, 78089.375, 0.0, 5.041654, 4.9676685 
6.4514565e+2, 1.623364e+2, -1279830.1, -1394521.9, -2729.3267, -0.026980216, -0.0018682694, -1279765.1, 69338.61, 0.0, 5.0397778, 4.9651113 
6.450748e+2, 1.6730148e+2, -1236034.8, -1347515.8, -2876.8557, -0.025724802, -0.0025679443, -1235960.6, 64485.746, 0.0, 5.03789, 4.9653525 
6.45004e+2, 1.722666e+2, -1192552.1, -1301198.0, -2937.9788, -0.024484614, -0.003195384, -1192472.8, 59315.973, 0.0, 5.036002, 4.965351 
6.4493316e+2, 1.7723171e+2, -1150150.1, -1257213.6, -2970.0625, -0.023274187, -0.003409261, -1150067.9, 53063.203, 0.0, 5.034115, 4.9645543 
6.448613e+2, 1.8219467e+2, -1111636.8, -1221546.1, -4234.298, -0.024074191, 0.005942228, -1111473.9, 43021.58, 0.0, 5.032206, 4.960943 
6.4478815e+2, 1.8715613e+2, -1067680.9, -1174061.5, -4236.129, -0.026845241, 0.009023424, -1067512.5, 38363.23, 0.0, 5.0302577, 4.9613175 
6.44715e+2, 1.9211759e+2, -1024213.44, -1127661.9, -4159.923, -0.029617114, 0.01194761, -1024046.4, 33209.523, 0.0, 5.0283103, 4.9613137 
6.44642e+2, 1.9707905e+2, -981596.9, -1083133.0, -4055.232, -0.032379188, 0.015148301, -981435.2, 27200.975, 0.0, 5.026364, 4.960663 
6.4456856e+2, 2.0203772e+2, -943261.7, -1048183.6, -4851.692, -0.03299687, 0.021609237, -943037.8, 17004.414, 0.0, 5.0244675, 4.9567075 
6.4449465e+2, 2.0699395e+2, -898757.2, -1000231.1, -5030.647, -0.029572055, 0.014462794, -898508.44, 12961.829, 0.0, 5.022636, 4.9571314 
6.444208e+2, 2.1195021e+2, -854795.6, -953488.4, -5076.165, -0.026029034, 0.0070962813, -854535.2, 8362.903, 0.0, 5.0208044, 4.9571323 
6.44347e+2, 2.1690644e+2, -811467.56, -908167.25, -5099.7324, -0.022431139, -0.00020978283, -811199.4, 3126.5989, 0.0, 5.018974, 4.9566336 
6.442729e+2, 2.2186062e+2, -773748.7, -875010.44, -5035.226, -0.020859804, 0.005473766, -773498.94, -7724.4263, 0.0, 5.0171084, 4.951948 
6.441983e+2, 2.2681326e+2, -729010.6, -826311.3, -4995.683, -0.022269204, 0.0076813684, -728754.8, -11516.604, 0.0, 5.0151954, 4.9526076 
6.4412373e+2, 2.3176594e+2, -685121.25, -779506.6, -4835.9097, -0.023730814, 0.009734349, -684874.1, -16172.506, 0.0, 5.0132823, 4.9526057 
6.4404905e+2, 2.3671862e+2, -641851.06, -734113.4, -4654.68, -0.025227126, 0.0118853515, -641616.9, -21451.783, 0.0, 5.0113697, 4.9521027 
6.4397496e+2, 2.4166821e+2, -604679.5, -702044.9, -3793.2695, -0.02591059, 0.019540858, -604532.0, -32873.37, 0.0, 5.0094113, 4.9469666 
6.439013e+2, 2.4661508e+2, -559977.0, -653002.94, -3669.1072, -0.024868594, 0.012281424, -559832.5, -36654.055, 0.0, 5.007383, 4.947738 
6.438277e+2, 2.5156194e+2, -516259.06, -606178.3, -3521.6511, -0.023759652, 0.004419504, -516121.34, -41423.082, 0.0, 5.005352, 4.947734 
6.437541e+2, 2.5650883e+2, -472757.03, -559883.2, -3366.1677, -0.022628872, -0.0034467645, -472627.16, -46409.02, 0.0, 5.003322, 4.9475317 
6.4368117e+2, 2.6145324e+2, -436016.5, -528722.44, -2143.505, -0.020907274, 0.0030357486, -435966.97, -58205.766, 0.0, 5.0012803, 4.941995 
6.436091e+2, 2.6639655e+2, -389776.4, -476369.3, -1962.5753, -0.01711565, -0.0006937108, -389731.94, -60418.137, 0.0, 4.9992537, 4.9438586 
6.435371e+2, 2.713399e+2, -345877.2, -429347.1, -1816.4764, -0.013125487, -0.00573633, -345837.7, -64971.633, 0.0, 4.997228, 4.9438577 
6.434651e+2, 2.7628326e+2, -302001.3, -382421.7, -1669.2966, -0.00907641, -0.010702766, -301966.7, -69548.41, 0.0, 4.9952025, 4.943809 
6.4339364e+2, 2.812221e+2, -269870.4, -361969.25, 51.659824, -0.007161963, -0.004529808, -269870.38, -85855.85, 0.0, 4.9931254, 4.9344068 
6.433224e+2, 2.8615794e+2, -223787.22, -309528.4, 414.99484, -0.010626431, -0.0073155845, -223785.22, -88144.26, 0.0, 4.990987, 4.9362884 
6.4325124e+2, 2.9109377e+2, -179997.88, -262425.5, 800.78503, -0.014466001, -0.01102004, -179990.11, -92723.31, 0.0, 4.9888463, 4.936286 
6.4318e+2, 2.9602966e+2, -136170.55, -215282.5, 1183.1172, -0.018426249, -0.014698723, -136152.86, -97260.18, 0.0, 4.986706, 4.9362836 
6.4310956e+2, 3.0098352e+2, -73185.6, -90284.984, 2636.2349, -0.026627874, -0.004446247, -72788.4, -72788.4, 0.0, 4.984491, 4.973318 
6.4304143e+2, 3.0595973e+2, -73704.234, -79988.56, 3600.2917, -0.03925663, -0.01803579, -72067.766, -72067.766, 0.0, 4.98226, 4.9779906 
6.429737e+2, 3.1093606e+2, -79622.4, -82486.766, 3869.2605, -0.05050326, -0.035916466, -76928.77, -76928.77, 0.0, 4.9800463, 4.9780254 
6.4290607e+2, 3.1591234e+2, -85532.9, -84998.93, 4121.7104, -0.060830098, -0.05548896, -81135.56, -81135.56, 0.0, 4.97783, 4.9780607 
6.5074015e+2, 1.2265002e+2, -1613590.4, -1738145.0, 3171.7756, 0.03996351, 0.018782351, -1613509.6, 124511.76, 0.0, 5.0551147, 4.973387 
6.506722e+2, 1.2761751e+2, -1573038.1, -1697424.1, 602.18585, 0.02696543, -0.02075968, -1573035.3, 116303.68, 0.0, 5.0531898, 4.9716916 
6.506039e+2, 1.3258906e+2, -1530039.6, -1651527.8, 564.7623, 0.011516922, -0.018890921, -1530037.0, 110579.9, 0.0, 5.051244, 4.971688 
6.5053564e+2, 1.3756055e+2, -1489307.1, -1610401.8, 291.92776, -0.0038569188, -0.015649274, -1489306.4, 102588.72, 0.0, 5.049302, 4.9700894 
6.504663e+2, 1.4253014e+2, -1448350.0, -1569203.3, -1562.1857, -0.012501608, -0.00242657, -1448329.9, 94864.04, 0.0, 5.047402, 4.9684224 
6.503963e+2, 1.4749853e+2, -1404788.5, -1522433.9, -1667.8788, -0.016797667, -0.0033993754, -1404764.9, 89741.516, 0.0, 5.04549, 4.968649 
6.503263e+2, 1.5246691e+2, -1361529.5, -1476325.6, -1725.3983, -0.021118946, -0.0045820796, -1361503.6, 84315.46, 0.0, 5.043578, 4.9686446 
6.5025634e+2, 1.5743525e+2, -1319681.6, -1433233.6, -1872.7928, -0.025454002, -0.0053503336, -1319650.8, 77481.125, 0.0, 5.0416684, 4.9676194 
6.501849e+2, 1.6240132e+2, -1279807.6, -1394609.5, -4177.2017, -0.026575988, -0.00073842064, -1279655.9, 68810.234, 0.0, 5.039789, 4.9650865 
6.5011233e+2, 1.6736628e+2, -1236037.6, -1347652.5, -4305.514, -0.024544045, -0.002394098, -1235871.8, 63938.43, 0.0, 5.0379004, 4.965311 
6.500397e+2, 1.7233127e+2, -1192556.5, -1301335.0, -4366.1543, -0.022545194, -0.0039770603, -1192381.5, 58772.656, 0.0, 5.036012, 4.96531 
6.49967e+2, 1.7729625e+2, -1150157.6, -1257355.0, -4402.3433, -0.020587165, -0.005130559, -1149977.3, 52520.902, 0.0, 5.034125, 4.9645114 
6.498932e+2, 1.8225919e+2, -1111379.6, -1221125.5, -5724.4146, -0.021014733, 0.0034698003, -1111081.9, 42780.746, 0.0, 5.0322165, 4.9610906 
6.498182e+2, 1.8722074e+2, -1067444.9, -1173679.6, -5713.383, -0.023703968, 0.006218622, -1067138.5, 38102.754, 0.0, 5.0302672, 4.961453 
6.4974314e+2, 1.921823e+2, -1023981.9, -1127283.3, -5635.803, -0.026407482, 0.00886053, -1023675.3, 32944.598, 0.0, 5.028319, 4.961449 
6.496681e+2, 1.9714385e+2, -981369.1, -1082756.3, -5529.5933, -0.02911633, 0.011811012, -981068.44, 26930.088, 0.0, 5.0263715, 4.9607983 
6.495927e+2, 2.0210268e+2, -943192.25, -1048177.5, -6269.6563, -0.03035244, 0.018898433, -942819.2, 16584.273, 0.0, 5.0244803, 4.9567137 
6.495168e+2, 2.0705917e+2, -898722.25, -1000295.0, -6425.441, -0.028868088, 0.014443537, -898317.4, 12513.079, 0.0, 5.0226474, 4.9571147 
6.4944094e+2, 2.1201569e+2, -854764.8, -953554.94, -6468.4595, -0.027308337, 0.009847823, -854343.06, 7914.192, 0.0, 5.0208154, 4.957115 
6.493651e+2, 2.169722e+2, -811441.1, -908236.94, -6489.426, -0.02570955, 0.005342332, -811008.0, 2676.0623, 0.0, 5.0189834, 4.9566154 
6.4928913e+2, 2.2192651e+2, -773360.9, -874297.7, -6494.519, -0.024719171, 0.011557745, -772944.7, -7813.2495, 0.0, 5.0171194, 4.9521985 
6.492128e+2, 2.2687909e+2, -728632.25, -825615.56, -6453.9, -0.024251495, 0.010576667, -728204.6, -11609.738, 0.0, 5.0152063, 4.9528537 
6.491364e+2, 2.318317e+2, -684748.44, -778817.5, -6291.881, -0.02381819, 0.009434856, -684329.5, -16271.384, 0.0, 5.0132923, 4.952851 
6.4906013e+2, 2.3678431e+2, -641483.8, -733430.6, -6108.2554, -0.023437466, 0.008418075, -641079.8, -21558.473, 0.0, 5.0113792, 4.952347 
6.4898413e+2, 2.4173401e+2, -604282.9, -701300.5, -5332.2046, -0.023159305, 0.014601207, -603990.7, -32977.44, 0.0, 5.009422, 4.947231 
6.489084e+2, 2.4668138e+2, -559612.9, -652331.44, -5228.5327, -0.022986785, 0.0099682575, -559318.94, -36790.297, 0.0, 5.0073934, 4.947978 
6.488326e+2, 2.5162876e+2, -515897.63, -605511.56, -5079.3804, -0.022805428, 0.0048901658, -515610.66, -41566.75, 0.0, 5.005363, 4.9479733 
6.48757e+2, 2.5657615e+2, -472398.28, -559221.2, -4922.1396, -0.02261312, -0.00020077817, -472120.13, -46560.89, 0.0, 5.0033326, 4.94777 
6.486819e+2, 2.6152095e+2, -435607.78, -527949.44, -3695.9854, -0.021533584, 0.007570194, -435460.06, -58361.4, 0.0, 5.0012913, 4.942272 
6.4860773e+2, 2.6646435e+2, -389419.63, -475718.75, -3523.6206, -0.018282253, 0.002348667, -389276.0, -60625.77, 0.0, 4.9992657, 4.944094 
6.4853364e+2, 2.7140778e+2, -345520.72, -428700.2, -3376.9973, -0.014899394, -0.0042518293, -345383.84, -65182.234, 0.0, 4.9972405, 4.9440923 
6.4845955e+2, 2.7635118e+2, -301645.1, -381778.38, -3229.2776, -0.011484804, -0.010792416, -301515.16, -69762.22, 0.0, 4.995216, 4.944043 
6.48386e+2, 2.8129032e+2, -269192.78, -360609.56, -1584.6287, -0.009497553, -0.0055916836, -269165.34, -85818.47, 0.0, 4.993141, 4.9348907 
6.483128e+2, 2.862267e+2, -223060.75, -308078.0, -1244.5645, -0.0112745045, -0.007760832, -223042.55, -88074.58, 0.0, 4.9910054, 4.936806 
6.482396e+2, 2.9116315e+2, -179270.61, -260984.67, -858.45026, -0.013392122, -0.010740747, -179261.6, -92673.19, 0.0, 4.9888673, 4.9368014 
6.481665e+2, 2.960996e+2, -135442.47, -213851.25, -475.79343, -0.015655769, -0.013687123, -135439.58, -97230.69, 0.0, 4.9867287, 4.936797 
6.4809406e+2, 3.0105397e+2, -72420.84, -88875.96, 928.9956, -0.022168277, -0.0035458093, -72368.56, -72368.56, 0.0, 4.9845257, 4.973835 
6.48024e+2, 3.060305e+2, -72996.336, -78819.055, 1932.5912, -0.032934126, -0.018628376, -72413.28, -72413.28, 0.0, 4.9823065, 4.9784226 
6.4795434e+2, 3.110071e+2, -78905.195, -81365.79, 2230.3909, -0.042512845, -0.03787604, -77588.28, -77588.28, 0.0, 4.9801006, 4.9784408 
6.478847e+2, 3.1598368e+2, -84806.43, -83926.47, 2511.65, -0.05137516, -0.058692873, -81816.555, -81816.555, 0.0, 4.977892, 4.9784594 
6.5579474e+2, 1.227137e+2, -1612481.4, -1736096.3, 1513.5804, 0.03793638, 0.0047442513, -1612462.9, 124930.41, 0.0, 5.0551405, 4.974059 
6.5572536e+2, 1.2768175e+2, -1572982.3, -1697520.1, -859.9899, 0.030639777, -0.029210923, -1572976.4, 115728.945, 0.0, 5.0532126, 4.97166 
6.5565497e+2, 1.326534e+2, -1529986.0, -1651620.8, -895.43866, 0.013756031, -0.025845489, -1529979.4, 110002.63, 0.0, 5.0512657, 4.9716573 
6.555846e+2, 1.3762501e+2, -1489257.1, -1610495.9, -1168.7424, -0.0030826991, -0.021104781, -1489245.9, 102013.19, 0.0, 5.0493226, 4.970059 
6.555132e+2, 1.425947e+2, -1448332.8, -1569331.1, -3007.4727, -0.012391302, -0.0067454856, -1448258.1, 94299.35, 0.0, 5.0474176, 4.968383 
6.554413e+2, 1.475632e+2, -1404780.6, -1522579.5, -3106.1648, -0.016764408, -0.0061195944, -1404698.8, 89170.67, 0.0, 5.0455055, 4.968603 
6.553694e+2, 1.525317e+2, -1361522.3, -1476471.0, -3163.5342, -0.021161653, -0.005644595, -1361435.4, 83746.26, 0.0, 5.0435934, 4.968599 
6.5529746e+2, 1.5750016e+2, -1319699.5, -1433431.3, -3326.8206, -0.025577338, -0.0047497824, -1319602.3, 76891.55, 0.0, 5.0416837, 4.967557 
6.5522426e+2, 1.6246626e+2, -1279777.4, -1394682.8, -5617.2817, -0.026153741, 0.0004327648, -1279503.4, 68324.97, 0.0, 5.039801, 4.965066 
6.5514976e+2, 1.6743109e+2, -1236039.6, -1347790.1, -5734.4575, -0.023347506, -0.002205812, -1235746.1, 63427.91, 0.0, 5.037912, 4.9652696 
6.550753e+2, 1.7239593e+2, -1192560.1, -1301472.9, -5794.6147, -0.020588266, -0.004770781, -1192252.6, 58267.023, 0.0, 5.036023, 4.965268 
6.550009e+2, 1.7736079e+2, -1150164.4, -1257497.4, -5834.894, -0.017880922, -0.0068903477, -1149848.1, 52017.07, 0.0, 5.034135, 4.9644685 
6.549252e+2, 1.823237e+2, -1111126.3, -1220716.0, -7214.0693, -0.017960094, 0.0010449544, -1110653.5, 42576.242, 0.0, 5.032227, 4.9612346 
6.548482e+2, 1.8728535e+2, -1067208.1, -1173298.9, -7190.6553, -0.020562612, 0.0034162446, -1066723.0, 37883.76, 0.0, 5.030277, 4.961588 
6.5477127e+2, 1.92247e+2, -1023749.56, -1126905.8, -7111.703, -0.023192104, 0.0057227714, -1023261.56, 32722.25, 0.0, 5.028328, 4.9615836 
6.5469426e+2, 1.9720867e+2, -981140.56, -1082380.5, -7003.9697, -0.025842072, 0.008370022, -980658.3, 26702.518, 0.0, 5.026379, 4.960933 
6.546169e+2, 2.0216766e+2, -943146.1, -1048224.8, -7680.4287, -0.02779472, 0.01640079, -942587.75, 16176.803, 0.0, 5.024493, 4.9567018 
6.545389e+2, 2.0712441e+2, -898686.75, -1000359.75, -7820.3735, -0.028246041, 0.0145954415, -898088.75, 12101.801, 0.0, 5.02266, 4.9570966 
6.544611e+2, 2.1208118e+2, -854733.5, -953622.44, -7860.8936, -0.028650848, 0.012692172, -854112.56, 7503.8223, 0.0, 5.020827, 4.957097 
6.543832e+2, 2.1703795e+2, -811414.2, -908307.56, -7879.26, -0.029032487, 0.010909026, -810777.6, 2264.485, 0.0, 5.018994, 4.956597 
6.543053e+2, 2.2199243e+2, -772985.7, -873615.5, -7950.372, -0.028588256, 0.01769037, -772361.44, -7873.06, 0.0, 5.0171313, 4.9524384 
6.5422726e+2, 2.2694494e+2, -728253.25, -824920.94, -7911.147, -0.026206717, 0.013449507, -727610.06, -11658.497, 0.0, 5.0152173, 4.953099 
6.541492e+2, 2.3189746e+2, -684375.0, -778129.5, -7746.8843, -0.023845397, 0.009031463, -683739.2, -16324.636, 0.0, 5.013303, 4.9530954 
6.540711e+2, 2.3684998e+2, -641115.9, -732749.06, -7560.8643, -0.021554586, 0.004765588, -640496.2, -21618.602, 0.0, 5.0113893, 4.95259 
6.5399325e+2, 2.4179982e+2, -603911.6, -700616.0, -6868.7813, -0.020461328, 0.0098163225, -603426.1, -33058.33, 0.0, 5.009433, 4.947474 
6.539154e+2, 2.467477e+2, -559247.75, -651661.3, -6786.9277, -0.021160426, 0.007827421, -558752.0, -36873.285, 0.0, 5.007405, 4.9482174 
6.538375e+2, 2.5169557e+2, -515535.25, -604846.2, -6636.08, -0.021879435, 0.0054669124, -515044.84, -41655.45, 0.0, 5.005374, 4.948212 
6.537597e+2, 2.5664347e+2, -472038.56, -558560.44, -6477.0825, -0.02259842, 0.0030851488, -471556.38, -46656.152, 0.0, 5.003344, 4.948008 
6.5368253e+2, 2.6158866e+2, -435209.16, -527202.2, -5247.7954, -0.022183299, 0.012100957, -434910.75, -58474.645, 0.0, 5.0013027, 4.94254 
6.536063e+2, 2.6653215e+2, -389062.1, -475069.1, -5083.6436, -0.019473761, 0.005375276, -388762.66, -60776.016, 0.0, 4.999278, 4.9443293 
6.5353006e+2, 2.7147564e+2, -345163.44, -428054.13, -4936.496, -0.016683964, -0.0028017175, -344870.5, -65333.367, 0.0, 4.997254, 4.944327 
6.5345395e+2, 2.7641916e+2, -301288.13, -381135.94, -4788.2363, -0.013889649, -0.010935048, -301002.0, -69914.37, 0.0, 4.9952297, 4.944277 
6.5337837e+2, 2.8135848e+2, -268515.25, -359252.2, -3216.859, -0.011820959, -0.006652155, -268401.34, -85722.195, 0.0, 4.993158, 4.9353733 
6.533032e+2, 2.8629547e+2, -222334.53, -306627.88, -2900.3037, -0.011934876, -0.008182578, -222234.86, -87939.95, 0.0, 4.991025, 4.937323 
6.532281e+2, 2.9123253e+2, -178543.58, -259544.1, -2513.8657, -0.012351948, -0.01044022, -178465.63, -92555.67, 0.0, 4.9888887, 4.9373164 
6.5315294e+2, 2.9616955e+2, -134714.63, -212420.23, -2130.8845, -0.012940365, -0.012656552, -134656.23, -97131.164, 0.0, 4.986752, 4.93731 
6.5307856e+2, 3.0112442e+2, -71682.45, -87525.516, -751.0846, -0.017678292, -0.0029118191, -71646.92, -71646.92, 0.0, 4.984562, 4.974324 
6.530066e+2, 3.0610123e+2, -72291.56, -77648.13, 286.98636, -0.026361778, -0.020118678, -72276.234, -72276.234, 0.0, 4.9823537, 4.978846 
6.5293497e+2, 3.110781e+2, -78191.11, -80243.4, 613.5908, -0.03406584, -0.041340046, -78021.65, -78021.65, 0.0, 4.9801555, 4.9788475 
6.5286344e+2, 3.160549e+2, -84083.08, -82852.59, 923.6327, -0.041257255, -0.06400682, -82358.055, -82358.055, 0.0, 4.9779553, 4.9788494 
6.6084933e+2, 1.2277711e+2, -1613107.6, -1734867.4, 1690.9766, 0.038231272, -0.016972326, -1613084.1, 123683.92, 0.0, 5.0546036, 4.9747214 
6.607783e+2, 1.2774675e+2, -1574143.4, -1698152.9, -473.47366, 0.033109836, -0.034475103, -1574141.5, 113923.164, 0.0, 5.05284, 4.9716287 
6.6070586e+2, 1.3271837e+2, -1530719.6, -1652042.9, -579.758, 0.015314983, -0.030832032, -1530716.9, 108625.01, 0.0, 5.051037, 4.971626 
6.606335e+2, 1.3768996e+2, -1489640.3, -1610759.1, -929.5946, -0.0023109475, -0.025712114, -1489633.0, 100986.086, 0.0, 5.0492144, 4.970022 
6.605602e+2, 1.4265963e+2, -1448535.4, -1569427.0, -2779.6467, -0.01171844, -0.010991493, -1448471.5, 93446.4, 0.0, 5.047351, 4.9683824 
6.604864e+2, 1.4762823e+2, -1405147.0, -1522783.6, -2859.7124, -0.01592167, -0.009054137, -1405077.5, 88151.93, 0.0, 5.0453877, 4.968591 
6.6041255e+2, 1.5259682e+2, -1362033.3, -1476752.0, -2905.8027, -0.020146517, -0.007186277, -1361959.8, 82581.33, 0.0, 5.0434265, 4.9685855 
6.6033876e+2, 1.575654e+2, -1320372.1, -1433837.6, -3128.2498, -0.024388084, -0.0048601367, -1320285.9, 75566.89, 0.0, 5.04147, 4.9675236 
6.6026354e+2, 1.6253151e+2, -1280494.6, -1395056.4, -5298.759, -0.024545908, 0.0010049575, -1280250.1, 66937.36, 0.0, 5.0395575, 4.965058 
6.6018724e+2, 1.6749622e+2, -1236847.5, -1348255.0, -5492.3804, -0.02139396, -0.0022652082, -1236577.4, 61957.35, 0.0, 5.037647, 4.9652405 
6.6011095e+2, 1.7246094e+2, -1193435.0, -1301970.6, -5589.0596, -0.018236442, -0.005540725, -1193147.9, 56733.918, 0.0, 5.035734, 4.9652395 
6.600347e+2, 1.7742565e+2, -1151114.0, -1258034.5, -5669.713, -0.015080621, -0.008427904, -1150814.3, 50414.72, 0.0, 5.0338206, 4.9644375 
6.599571e+2, 1.8238854e+2, -1111833.8, -1220755.1, -7154.615, -0.014922847, -0.001054466, -1111365.9, 41227.816, 0.0, 5.0319166, 4.96137 
6.598782e+2, 1.8735024e+2, -1067811.1, -1173304.0, -7220.828, -0.017356994, 0.000842831, -1067319.1, 36650.496, 0.0, 5.0300055, 4.961716 
6.597993e+2, 1.9231197e+2, -1024251.25, -1126860.5, -7238.266, -0.019825032, 0.0026911679, -1023743.1, 31602.459, 0.0, 5.028091, 4.9617133 
6.597204e+2, 1.972737e+2, -981555.0, -1082290.5, -7221.3296, -0.022323221, 0.004890843, -981039.94, 25681.508, 0.0, 5.026172, 4.961064 
6.59641e+2, 2.0223282e+2, -943752.06, -1048545.06, -7868.193, -0.024940358, 0.014024827, -943164.56, 14959.479, 0.0, 5.024285, 4.956692 
6.595611e+2, 2.071898e+2, -899381.6, -1000703.7, -7999.37, -0.02710402, 0.014669437, -898754.0, 10795.134, 0.0, 5.022415, 4.9570956 
6.5948117e+2, 2.121468e+2, -855534.56, -954017.94, -8039.5645, -0.029242016, 0.015199339, -854882.6, 6091.4194, 0.0, 5.020544, 4.9570947 
6.5940124e+2, 2.1710381e+2, -812326.94, -908756.1, -8058.4165, -0.03137585, 0.01584463, -811658.1, 740.7787, 0.0, 5.018672, 4.9565935 
6.593215e+2, 2.2205845e+2, -773616.4, -873383.2, -8210.519, -0.031435758, 0.023187863, -772945.2, -9101.023, 0.0, 5.0167966, 4.952676 
6.592416e+2, 2.2701088e+2, -728793.9, -824623.2, -8263.542, -0.027408581, 0.016008265, -728086.5, -12779.439, 0.0, 5.0149093, 4.953347 
6.5916187e+2, 2.3196334e+2, -684854.6, -777805.4, -8180.4766, -0.02334248, 0.008572086, -684140.2, -17370.361, 0.0, 5.0130167, 4.9533434 
6.590821e+2, 2.3691578e+2, -641548.8, -732404.8, -8067.6924, -0.01931408, 0.0012480486, -640838.0, -22605.38, 0.0, 5.01112, 4.952838 
6.590023e+2, 2.4186577e+2, -604306.06, -700304.9, -7504.364, -0.017647753, 0.005558943, -603723.0, -34001.926, 0.0, 5.0091867, 4.9477 
6.589224e+2, 2.4681412e+2, -559513.9, -651260.8, -7500.535, -0.019211506, 0.0060234247, -558904.7, -37676.996, 0.0, 5.007197, 4.9484577 
6.588424e+2, 2.5176248e+2, -515707.66, -604402.94, -7401.4966, -0.0207956, 0.006153155, -515094.25, -42360.098, 0.0, 5.0051994, 4.9484525 
6.5876245e+2, 2.5671086e+2, -472134.72, -558082.5, -7290.611, -0.022385553, 0.0062818434, -471520.7, -47280.01, 0.0, 5.0031962, 4.9482484 
6.5868324e+2, 2.616564e+2, -435228.2, -526633.8, -6100.8438, -0.022659974, 0.016451182, -434822.78, -59049.598, 0.0, 5.0011716, 4.942806 
6.5860486e+2, 2.666e+2, -389111.75, -474575.3, -5991.0244, -0.020519024, 0.008279485, -388693.8, -61371.094, 0.0, 4.9991465, 4.94457 
6.585266e+2, 2.715436e+2, -345223.66, -427569.2, -5888.472, -0.018323438, -0.0014264614, -344804.72, -65932.39, 0.0, 4.997119, 4.9445662 
6.5844834e+2, 2.764871e+2, -301367.47, -380663.6, -5783.803, -0.01613947, -0.011115788, -300947.8, -70525.83, 0.0, 4.9950886, 4.944515 
6.5837073e+2, 2.8142673e+2, -268301.25, -358083.97, -4325.457, -0.014004659, -0.0076697646, -268093.34, -86082.23, 0.0, 4.9930105, 4.9358582 
6.582936e+2, 2.863643e+2, -222077.95, -305362.7, -4085.834, -0.012523423, -0.008573721, -221878.0, -88256.4, 0.0, 4.990878, 4.937844 
6.582165e+2, 2.913019e+2, -178311.72, -258294.78, -3741.4316, -0.011272079, -0.010153457, -178137.08, -92905.74, 0.0, 4.9887342, 4.9378366 
6.581394e+2, 2.9623953e+2, -134529.6, -211197.66, -3389.4875, -0.010191711, -0.011687409, -134380.03, -97538.89, 0.0, 4.9865823, 4.9378295 
6.5806305e+2, 3.0119482e+2, -71636.484, -86482.164, -2050.271, -0.013015, -0.002608334, -71358.53, -71358.53, 0.0, 4.984359, 4.974796 
6.5798926e+2, 3.061719e+2, -72573.42, -76851.9, -1031.9572, -0.019303646, -0.022287695, -72337.52, -72337.52, 0.0, 4.9820485, 4.9792705 
6.579158e+2, 3.111491e+2, -78882.66, -79667.34, -721.17804, -0.024829712, -0.045785513, -78454.01, -78454.01, 0.0, 4.979708, 4.9792566 
6.5784234e+2, 3.161261e+2, -85284.41, -82543.81, -425.3649, -0.030068137, -0.07065846, -82479.31, -82479.31, 0.0, 4.9773293, 4.979242 
6.6590333e+2, 1.2284604e+2, -1607455.6, -1731109.1, 5055.145, 0.028696872, -0.042794466, -1607249.4, 128840.42, 0.0, 5.05635, 4.975087 
6.658309e+2, 1.2781887e+2, -1569206.4, -1695598.0, 3253.866, 0.02857076, -0.027191848, -1569122.8, 118233.01, 0.0, 5.054534, 4.971625 
6.65757e+2, 1.3278994e+2, -1525873.6, -1649536.0, 3182.353, 0.01351092, -0.028082076, -1525791.9, 112847.164, 0.0, 5.0527043, 4.971623 
6.656831e+2, 1.3776098e+2, -1484795.8, -1608231.3, 2878.2312, -0.0013317439, -0.027421309, -1484728.6, 105193.66, 0.0, 5.0508795, 4.9700303 
6.6560817e+2, 1.4273037e+2, -1443582.4, -1566511.6, 946.7704, -0.00864187, -0.015565852, -1443575.1, 97648.8, 0.0, 5.048983, 4.9685373 
6.6553235e+2, 1.4769901e+2, -1400636.6, -1520165.4, 928.48456, -0.011983252, -0.013384606, -1400629.4, 91904.88, 0.0, 5.046889, 4.968715 
6.6545653e+2, 1.5266767e+2, -1357925.6, -1474339.0, 957.3592, -0.015348775, -0.0112063605, -1357917.8, 85926.89, 0.0, 5.044794, 4.9687085 
6.653808e+2, 1.576363e+2, -1316660.8, -1431613.9, 813.1194, -0.018727085, -0.008530302, -1316655.0, 78500.22, 0.0, 5.0427027, 4.9676514 
6.653036e+2, 1.6260253e+2, -1277198.8, -1393171.3, -1226.5538, -0.01921546, -0.0016727672, -1277185.9, 69303.02, 0.0, 5.0406775, 4.965126 
6.6522515e+2, 1.6756731e+2, -1233860.3, -1346557.5, -1344.9218, -0.017508078, -0.003646096, -1233844.3, 63991.63, 0.0, 5.0386705, 4.9652944 
6.6514677e+2, 1.7253211e+2, -1190728.1, -1300414.4, -1382.2979, -0.015748655, -0.0056898794, -1190710.6, 58472.254, 0.0, 5.0366645, 4.9652925 
6.650684e+2, 1.7749688e+2, -1148682.4, -1256622.1, -1406.588, -0.013941466, -0.007405682, -1148664.1, 51865.875, 0.0, 5.034659, 4.964488 
6.6498876e+2, 1.8245973e+2, -1109529.6, -1219276.1, -2829.8804, -0.0139357, -0.00031434404, -1109456.6, 42438.844, 0.0, 5.032685, 4.9614773 
6.6490805e+2, 1.8742128e+2, -1065677.0, -1171954.3, -2886.1565, -0.015298991, 0.0002717498, -1065598.6, 37674.453, 0.0, 5.0307274, 4.961804 
6.6482735e+2, 1.9238286e+2, -1022242.2, -1125569.0, -2914.9795, -0.01670814, 0.00083417725, -1022160.06, 32490.547, 0.0, 5.028771, 4.9618025 
6.6474664e+2, 1.9734444e+2, -979655.5, -1081047.9, -2911.8337, -0.018156879, 0.0017583602, -979571.94, 26455.969, 0.0, 5.0268145, 4.9611554 
6.646654e+2, 2.023036e+2, -941917.06, -1047029.75, -3486.382, -0.020263065, 0.010786682, -941801.56, 15628.593, 0.0, 5.024843, 4.9569173 
6.645835e+2, 2.0726082e+2, -897937.25, -999396.75, -3444.7656, -0.022558562, 0.01278803, -897820.44, 11032.411, 0.0, 5.0228434, 4.957311 
6.645016e+2, 2.1221805e+2, -854461.4, -952890.2, -3321.3547, -0.024831865, 0.014646496, -854349.44, 5926.046, 0.0, 5.020844, 4.9573092 
6.644197e+2, 2.1717526e+2, -811617.8, -907803.56, -3174.3403, -0.027097238, 0.016573615, -811513.2, 185.02956, 0.0, 5.018845, 4.9568067 
6.6433793e+2, 2.2213003e+2, -773128.2, -872490.1, -3195.538, -0.027397322, 0.024077717, -773025.56, -9883.294, 0.0, 5.0168853, 4.9529076 
6.6425616e+2, 2.2708255e+2, -728427.94, -823889.3, -3305.0823, -0.024146687, 0.016955853, -728313.6, -13708.631, 0.0, 5.0149775, 4.953535 
6.6417444e+2, 2.3203507e+2, -684534.44, -777085.94, -3297.2324, -0.020798057, 0.009574065, -684417.06, -18349.533, 0.0, 5.013069, 4.953534 
6.640927e+2, 2.3698759e+2, -641260.25, -731693.4, -3264.8647, -0.017400807, 0.0022192006, -641142.5, -23612.389, 0.0, 5.0111613, 4.9530315 
6.64011e+2, 2.4193771e+2, -603925.4, -699224.94, -2741.1304, -0.015919305, 0.006491522, -603846.6, -34829.25, 0.0, 5.0091968, 4.948037 
6.6392905e+2, 2.4688624e+2, -559271.3, -650239.0, -2649.0498, -0.01703716, 0.006653133, -559194.25, -38672.508, 0.0, 5.0071583, 4.9487967 
6.638471e+2, 2.518348e+2, -515586.63, -603430.06, -2450.9216, -0.018187743, 0.0065332446, -515518.28, -43492.375, 0.0, 5.0051184, 4.9487934 
6.637652e+2, 2.567834e+2, -472118.34, -557149.7, -2243.6587, -0.019362586, 0.0064869085, -472059.2, -48529.06, 0.0, 5.0030785, 4.9485917 
6.636839e+2, 2.6172915e+2, -435388.8, -525781.8, -995.7534, -0.019617718, 0.01652113, -435377.84, -60317.49, 0.0, 5.000993, 4.9431477 
6.6360337e+2, 2.6667294e+2, -389659.88, -473994.75, -887.1479, -0.018414833, 0.008648397, -389650.56, -63042.484, 0.0, 4.9988484, 4.9448705 
6.6352296e+2, 2.7161673e+2, -346101.2, -427135.0, -764.83295, -0.017163664, -0.0007444946, -346093.97, -67938.03, 0.0, 4.9967027, 4.9448676 
6.634425e+2, 2.765605e+2, -302563.97, -380369.8, -640.7911, -0.01588972, -0.010161098, -302558.7, -72854.78, 0.0, 4.9945574, 4.9448166 
6.633627e+2, 2.815004e+2, -269560.2, -357274.06, 816.30365, -0.014159515, -0.006470805, -269552.6, -88262.17, 0.0, 4.992355, 4.936394 
6.632835e+2, 2.8643838e+2, -223629.39, -304585.38, 1044.2047, -0.0119124055, -0.007372687, -223615.92, -90718.945, 0.0, 4.9901023, 4.938419 
6.632043e+2, 2.9137644e+2, -180161.36, -257614.73, 1388.3755, -0.009673791, -0.009051575, -180136.48, -95633.695, 0.0, 4.987849, 4.938422 
6.631251e+2, 2.9631448e+2, -136653.89, -210601.88, 1730.3676, -0.007418858, -0.010774562, -136613.42, -100504.75, 0.0, 4.985596, 4.938425 
6.630467e+2, 3.012702e+2, -74441.18, -86566.55, 2732.243, -0.007818209, -0.0018309033, -73853.96, -73853.96, 0.0, 4.983212, 4.9752073 
6.6297096e+2, 3.0624765e+2, -76260.07, -77371.84, 3352.3445, -0.009143272, -0.019772926, -73417.836, -73417.836, 0.0, 4.9806294, 4.9796305 
6.6289556e+2, 3.1122532e+2, -83254.76, -80337.32, 3299.6814, -0.0093949465, -0.040025707, -78188.305, -78188.305, 0.0, 4.978052, 4.979652 
6.628203e+2, 3.1620303e+2, -90253.58, -83309.77, 3243.872, -0.009040386, -0.060165547, -82030.164, -82030.164, 0.0, 4.975472, 4.979673 
6.709584e+2, 1.2291858e+2, -1607608.1, -1731703.8, 3340.0994, 0.019946741, -0.057236634, -1607518.3, 127857.695, 0.0, 5.0563803, 4.974892 
6.708844e+2, 1.2789363e+2, -1569174.5, -1695788.9, 1874.9318, 0.023042245, -0.018713754, -1569146.8, 117474.44, 0.0, 5.054561, 4.971563 
6.70809e+2, 1.3286413e+2, -1525842.6, -1649721.8, 1806.2748, 0.011287933, -0.024515202, -1525816.3, 112094.37, 0.0, 5.0527306, 4.9715624 
6.707336e+2, 1.3783464e+2, -1484744.0, -1608366.1, 1507.8231, -0.00029101988, -0.028785395, -1484725.6, 104474.484, 0.0, 5.0509043, 4.9699874 
6.7065686e+2, 1.4280377e+2, -1443353.6, -1566224.8, -617.3698, -0.005306922, -0.01995137, -1443350.5, 97153.57, 0.0, 5.0490003, 4.9686365 
6.705791e+2, 1.477725e+2, -1400456.0, -1519971.8, -644.15137, -0.0077647455, -0.017665867, -1400452.5, 91360.42, 0.0, 5.046905, 4.9687843 
6.705013e+2, 1.5274122e+2, -1357748.4, -1474145.6, -614.6163, -0.010262816, -0.015354159, -1357745.1, 85376.586, 0.0, 5.0448093, 4.968778 
6.704235e+2, 1.5770994e+2, -1316482.5, -1431412.6, -764.0283, -0.012789083, -0.012525056, -1316477.4, 77953.38, 0.0, 5.042717, 4.9677243 
6.703442e+2, 1.6267632e+2, -1277131.0, -1393160.3, -2758.1033, -0.013820069, -0.0045716856, -1277065.5, 68697.35, 0.0, 5.040687, 4.9651356 
6.702636e+2, 1.6764127e+2, -1233813.5, -1346588.9, -2861.9536, -0.013769625, -0.0049714185, -1233740.9, 63368.11, 0.0, 5.0386796, 4.96529 
6.7018306e+2, 1.726062e+2, -1190682.6, -1300447.3, -2898.9724, -0.013675141, -0.0054324856, -1190606.1, 57848.98, 0.0, 5.036673, 4.965288 
6.701025e+2, 1.7757113e+2, -1148643.5, -1256668.4, -2930.1528, -0.013542151, -0.0055497144, -1148564.1, 51237.234, 0.0, 5.0346675, 4.9644794 
6.700209e+2, 1.8253398e+2, -1109436.1, -1219221.6, -4328.8354, -0.013692503, 0.0013878661, -1109265.8, 41901.57, 0.0, 5.0326962, 4.961501 
6.6993827e+2, 1.874954e+2, -1065612.6, -1171956.0, -4370.9634, -0.013774704, 0.00041002283, -1065433.3, 37113.207, 0.0, 5.0307374, 4.961809 
6.698557e+2, 1.9245681e+2, -1022181.1, -1125572.1, -4398.516, -0.013918446, -0.0005591855, -1021994.3, 31931.287, 0.0, 5.02878, 4.9618077 
6.697732e+2, 1.9741824e+2, -979596.75, -1081050.6, -4394.113, -0.0141168125, -0.0011400577, -979406.75, 25897.797, 0.0, 5.0268235, 4.9611616 
6.696901e+2, 2.023775e+2, -941574.94, -1046427.25, -5018.0405, -0.015523493, 0.0076494985, -941335.3, 15370.536, 0.0, 5.024853, 4.9571295 
6.6960615e+2, 2.0733504e+2, -897613.25, -998829.06, -4965.1084, -0.0176378, 0.010751753, -897370.25, 10754.901, 0.0, 5.0228524, 4.9575124 
6.695223e+2, 2.1229257e+2, -854141.3, -952327.3, -4840.3193, -0.019744448, 0.013739109, -853903.25, 5641.144, 0.0, 5.020853, 4.9575095 
6.694384e+2, 2.172501e+2, -811302.0, -907246.1, -4691.858, -0.021855544, 0.016814688, -811073.1, -109.384346, 0.0, 5.0188537, 4.957006 
6.693547e+2, 2.2220506e+2, -772910.8, -872174.75, -4668.2246, -0.022457521, 0.02457751, -772691.75, -10285.809, 0.0, 5.0168986, 4.953022 
6.692709e+2, 2.2715771e+2, -728278.06, -823721.4, -4766.3535, -0.020538516, 0.018121468, -728040.6, -14172.394, 0.0, 5.014991, 4.9535995 
6.69187e+2, 2.3211037e+2, -684387.8, -776921.4, -4756.637, -0.01855087, 0.011484719, -684143.94, -18813.572, 0.0, 5.0130816, 4.953598 
6.6910326e+2, 2.3706304e+2, -641116.9, -731532.2, -4722.253, -0.016525105, 0.0048871054, -640870.94, -24078.387, 0.0, 5.0111732, 4.953095 
6.690196e+2, 2.4201334e+2, -603470.9, -698369.75, -4291.726, -0.015400774, 0.009302088, -603277.1, -34998.965, 0.0, 5.009208, 4.9483404 
6.6893566e+2, 2.4696206e+2, -558818.2, -649386.75, -4211.184, -0.015406475, 0.008210384, -558622.8, -38842.688, 0.0, 5.00717, 4.9491005 
6.688518e+2, 2.519108e+2, -515136.1, -602582.5, -4012.5012, -0.015449673, 0.00680445, -514952.34, -43670.438, 0.0, 5.00513, 4.949096 
6.68768e+2, 2.5685954e+2, -471670.38, -556306.6, -3804.6204, -0.015532331, 0.00546715, -471499.7, -48715.926, 0.0, 5.0030904, 4.948894 
6.686847e+2, 2.6180553e+2, -434987.78, -525051.7, -2623.6887, -0.015426704, 0.014867995, -434911.4, -60600.008, 0.0, 5.0010056, 4.94341 
6.6860193e+2, 2.6674965e+2, -389320.34, -473407.44, -2539.0803, -0.015297255, 0.008078253, -389243.75, -63387.42, 0.0, 4.9988623, 4.945084 
6.6851914e+2, 2.716938e+2, -345763.2, -426551.16, -2416.7566, -0.015171574, -0.00015850257, -345690.94, -68289.51, 0.0, 4.9967165, 4.9450803 
6.6843647e+2, 2.7663785e+2, -302227.44, -379789.4, -2292.6902, -0.015039138, -0.008421155, -302159.75, -73213.1, 0.0, 4.9945717, 4.9450293 
6.6835445e+2, 2.8157815e+2, -268907.66, -356006.3, -912.7058, -0.013943355, -0.0039670295, -268898.1, -88368.34, 0.0, 4.9923725, 4.936848 
6.6827303e+2, 2.865166e+2, -222944.4, -303260.25, -702.3476, -0.011257009, -0.0050661433, -222938.27, -90806.12, 0.0, 4.990122, 4.9388957 
6.681916e+2, 2.9145512e+2, -179478.81, -256298.0, -358.0354, -0.008561662, -0.0069676857, -179477.14, -95743.25, 0.0, 4.9878697, 4.938897 
6.6811025e+2, 2.963936e+2, -135973.75, -209293.5, -15.902995, -0.005868234, -0.008898705, -135973.75, -100638.05, 0.0, 4.985617, 4.9388986 
6.680297e+2, 3.0134967e+2, -74136.28, -86216.59, 842.8717, -0.004347816, 0.00010453733, -74077.75, -74077.75, 0.0, 4.983242, 4.975346 
6.679519e+2, 3.0632713e+2, -76092.766, -77396.75, 1441.1975, -0.0008689435, -0.017440533, -75162.945, -75162.945, 0.0, 4.9806657, 4.979635 
6.6787446e+2, 3.113048e+2, -83072.37, -80352.54, 1405.0817, 0.0034290226, -0.037395533, -79757.05, -79757.05, 0.0, 4.978092, 4.9796567 
6.6779715e+2, 3.1628254e+2, -90056.086, -83315.29, 1365.8236, 0.008058618, -0.05728634, -83049.06, -83049.06, 0.0, 4.975516, 4.979679 
6.760137e+2, 1.22992985e+2, -1608289.1, -1733384.9, 1643.8314, 0.014052952, -0.053143874, -1608267.5, 126376.64, 0.0, 5.056411, 4.974339 
6.7593795e+2, 1.2796837e+2, -1569143.3, -1695979.1, 493.61478, 0.017660642, -0.010267698, -1569141.4, 116745.3, 0.0, 5.054589, 4.971501 
6.7586094e+2, 1.3293833e+2, -1525812.3, -1649906.8, 427.81506, 0.009188799, -0.021013673, -1525810.8, 111371.55, 0.0, 5.0527573, 4.971502 
6.7578405e+2, 1.3790828e+2, -1484692.0, -1608497.4, 129.06914, 0.0008476672, -0.030255206, -1484691.9, 103786.23, 0.0, 5.05093, 4.969945 
6.757056e+2, 1.4287716e+2, -1443132.1, -1565954.4, -2185.1682, -0.0019500001, -0.024282193, -1443093.3, 96691.1, 0.0, 5.049018, 4.96873 
6.756258e+2, 1.4784598e+2, -1400275.0, -1519778.8, -2217.599, -0.0035223474, -0.02190995, -1400233.9, 90857.7, 0.0, 5.0469217, 4.9688525 
6.7554605e+2, 1.5281479e+2, -1357570.9, -1473953.0, -2187.4033, -0.005149978, -0.01949236, -1357529.8, 84869.11, 0.0, 5.0448246, 4.9688473 
6.7546624e+2, 1.5778358e+2, -1316311.8, -1431228.0, -2345.9644, -0.0068273633, -0.016531138, -1316263.9, 77442.336, 0.0, 5.0427313, 4.967791 
6.7538476e+2, 1.6275012e+2, -1277066.4, -1393159.1, -4287.7583, -0.008488781, -0.0073801437, -1276908.3, 68128.48, 0.0, 5.040697, 4.965142 
6.75302e+2, 1.677152e+2, -1233765.6, -1346621.5, -4378.8164, -0.010092466, -0.0062357625, -1233596.0, 62786.02, 0.0, 5.038689, 4.9652853 
6.7521924e+2, 1.7268032e+2, -1190636.4, -1300481.3, -4415.4785, -0.011660121, -0.0051422333, -1190459.1, 57268.223, 0.0, 5.0366826, 4.965283 
6.751365e+2, 1.776454e+2, -1148607.0, -1256723.5, -4454.846, -0.013196962, -0.0036894176, -1148423.8, 50648.906, 0.0, 5.0346766, 4.964467 
6.7505294e+2, 1.8260825e+2, -1109349.5, -1219184.5, -5823.708, -0.01342957, 0.0031349503, -1109041.6, 41397.375, 0.0, 5.032708, 4.961519 
6.749685e+2, 1.875695e+2, -1065547.6, -1171958.8, -5856.1006, -0.012224634, 0.00054907886, -1065226.3, 36593.633, 0.0, 5.0307484, 4.961814 
6.748841e+2, 1.9253078e+2, -1022119.25, -1125576.4, -5882.3843, -0.011096855, -0.0019985854, -1021785.9, 31414.79, 0.0, 5.0287905, 4.9618125 
6.7479974e+2, 1.9749206e+2, -979537.2, -1081054.4, -5876.719, -0.010038743, -0.004131258, -979198.1, 25383.12, 0.0, 5.0268326, 4.961167 
6.747147e+2, 2.0245142e+2, -941237.5, -1045838.1, -6547.737, -0.010810814, 0.004638905, -940829.2, 15152.268, 0.0, 5.0248632, 4.957337 
6.746288e+2, 2.0740926e+2, -897288.4, -998262.7, -6484.8164, -0.012727629, 0.008784004, -896873.6, 10523.761, 0.0, 5.0228624, 4.957713 
6.7454296e+2, 2.123671e+2, -853820.4, -951765.6, -6358.6504, -0.014649661, 0.012839762, -853409.25, 5403.957, 0.0, 5.020862, 4.9577093 
6.7445713e+2, 2.1732494e+2, -810985.4, -906690.0, -6208.7427, -0.016588544, 0.01700341, -810584.25, -355.04645, 0.0, 5.0188627, 4.9572053 
6.743714e+2, 2.222801e+2, -772719.7, -871920.4, -6134.0703, -0.017595345, 0.025218744, -772341.8, -10672.271, 0.0, 5.0169125, 4.9531145 
6.7428553e+2, 2.2723289e+2, -728127.5, -823554.44, -6227.136, -0.016992724, 0.019392416, -727722.8, -14591.3955, 0.0, 5.015004, 4.953663 
6.7419964e+2, 2.3218569e+2, -684240.5, -776757.94, -6215.554, -0.01634, 0.013430804, -683824.75, -19231.59, 0.0, 5.013095, 4.953661 
6.741138e+2, 2.3713848e+2, -640972.8, -731372.1, -6179.1553, -0.01565971, 0.007520649, -640552.4, -24497.422, 0.0, 5.0111856, 4.9531574 
6.7402816e+2, 2.4208897e+2, -603020.5, -697527.2, -5842.6074, -0.014889591, 0.01214759, -602660.7, -35121.758, 0.0, 5.00922, 4.9486394 
6.739423e+2, 2.4703787e+2, -558364.1, -648535.75, -5772.5195, -0.013766203, 0.009773625, -557996.06, -38957.656, 0.0, 5.007182, 4.9494033 
6.7385656e+2, 2.5198677e+2, -514684.6, -601736.1, -5573.282, -0.012682999, 0.0070479624, -514329.25, -43791.375, 0.0, 5.005142, 4.9493985 
6.737707e+2, 2.569357e+2, -471221.47, -555464.75, -5364.7837, -0.011654487, 0.0043860665, -470881.2, -48843.83, 0.0, 5.003103, 4.9491954 
6.7368543e+2, 2.6188195e+2, -434597.28, -524348.9, -4250.744, -0.011277088, 0.013250347, -434396.4, -60834.02, 0.0, 5.0010195, 4.943663 
6.736004e+2, 2.668264e+2, -388979.78, -472821.3, -4190.196, -0.0122301355, 0.007560777, -388770.88, -63666.38, 0.0, 4.9988766, 4.9452972 
6.7351544e+2, 2.717708e+2, -345424.13, -425968.47, -4067.8638, -0.013222369, 0.00046695478, -345219.22, -68572.34, 0.0, 4.9967313, 4.945293 
6.734305e+2, 2.7671525e+2, -301889.9, -379210.16, -3943.7725, -0.014223881, -0.0066549275, -301689.28, -73499.98, 0.0, 4.9945865, 4.945241 
6.7334616e+2, 2.816559e+2, -268249.88, -354728.94, -2637.3289, -0.013726665, -0.00146837, -268169.53, -88400.53, 0.0, 4.9923916, 4.9373055 
6.732626e+2, 2.865948e+2, -222259.58, -301935.47, -2446.9268, -0.010599212, -0.00278306, -222184.5, -90817.24, 0.0, 4.9901423, 4.9393716 
6.73179e+2, 2.9153377e+2, -178796.42, -254981.58, -2102.473, -0.0074517466, -0.0049190763, -178738.44, -95773.49, 0.0, 4.9878907, 4.9393716 
6.7309535e+2, 2.9647276e+2, -135293.77, -207985.45, -1760.2001, -0.0043244353, -0.007069926, -135251.17, -100688.484, 0.0, 4.985639, 4.9393716 
6.730127e+2, 3.0142915e+2, -73847.31, -85896.21, -1038.0499, -0.00080106786, 0.002023916, -73758.54, -73758.54, 0.0, 4.983273, 4.975471 
6.729329e+2, 3.0640665e+2, -75929.66, -77416.74, -470.3272, 0.007357307, -0.015313206, -75793.39, -75793.39, 0.0, 4.980703, 4.9796357 
6.728534e+2, 3.113843e+2, -82894.19, -80362.836, -489.89215, 0.016054122, -0.035187587, -80271.33, -80271.33, 0.0, 4.978133, 4.979659 
6.727739e+2, 3.1636196e+2, -89862.82, -83315.875, -512.5953, 0.02480826, -0.055046145, -83275.984, -83275.984, 0.0, 4.9755607, 4.979683 
6.8106943e+2, 1.2306874e+2, -1607874.0, -1734819.4, 1918.7417, 0.011176386, -0.040634893, -1607845.0, 126054.23, 0.0, 5.0569205, 4.9736156 
6.8099165e+2, 1.2804337e+2, -1568217.6, -1695539.1, 1050.1567, 0.013122003, -0.0044491426, -1568209.0, 116940.97, 0.0, 5.0549183, 4.971483 
6.809131e+2, 1.3301295e+2, -1525441.6, -1649761.8, 977.1673, 0.00735796, -0.018217515, -1525433.9, 111016.02, 0.0, 5.0529, 4.9714794 
6.8083453e+2, 1.3798252e+2, -1484872.6, -1608602.4, 664.17444, 0.0018245404, -0.030735983, -1484869.1, 102881.19, 0.0, 5.050877, 4.9699354 
6.8075424e+2, 1.4295122e+2, -1443484.9, -1565923.1, -1850.6361, 0.0010102739, -0.02690021, -1443457.0, 95601.46, 0.0, 5.048856, 4.9688187 
6.8067247e+2, 1.4792001e+2, -1400708.4, -1519837.1, -1974.3328, 0.00030700347, -0.024933599, -1400675.8, 89689.4, 0.0, 5.046742, 4.9689198 
6.805906e+2, 1.5288882e+2, -1358054.6, -1474033.3, -2032.2001, -0.00044160325, -0.022918722, -1358019.0, 83652.71, 0.0, 5.0446267, 4.9689155 
6.8050885e+2, 1.5785763e+2, -1316857.1, -1431351.9, -2286.4465, -0.001244277, -0.020334756, -1316811.5, 76166.945, 0.0, 5.0425143, 4.967854 
6.804252e+2, 1.6282424e+2, -1277711.0, -1393420.6, -4204.7744, -0.0033403053, -0.010271821, -1277558.4, 66749.56, 0.0, 5.0404625, 4.965168 
6.8034035e+2, 1.6778947e+2, -1234509.3, -1346957.1, -4307.5317, -0.006221986, -0.0076984665, -1234344.5, 61307.96, 0.0, 5.0384254, 4.9652996 
6.802554e+2, 1.727547e+2, -1191464.5, -1300858.8, -4366.505, -0.009101253, -0.00517475, -1191290.5, 55706.387, 0.0, 5.0363884, 4.9652967 
6.801706e+2, 1.7771992e+2, -1149534.0, -1257172.8, -4433.311, -0.011979964, -0.0022847455, -1149351.8, 48989.75, 0.0, 5.034353, 4.9644704 
6.8008494e+2, 1.8268275e+2, -1110280.4, -1219585.0, -5799.8945, -0.01224766, 0.004598449, -1109973.5, 39734.676, 0.0, 5.0323715, 4.961544 
6.7999864e+2, 1.8764387e+2, -1066485.5, -1172387.6, -5884.559, -0.010015967, 0.00071224116, -1066159.5, 34931.203, 0.0, 5.030414, 4.9618278 
6.799124e+2, 1.9260499e+2, -1023063.0, -1126005.6, -5968.2363, -0.0078164395, -0.0032073895, -1022718.2, 29755.0, 0.0, 5.028453, 4.961827 
6.7982626e+2, 1.9756614e+2, -980544.7, -1081582.3, -6001.17, -0.005647848, -0.006766715, -980189.44, 23665.992, 0.0, 5.0264874, 4.9611506 
6.797392e+2, 2.0252559e+2, -941844.7, -1045590.4, -6788.3438, -0.005897935, 0.0020455183, -941402.4, 13852.326, 0.0, 5.0245366, 4.9575768 
6.796514e+2, 2.074837e+2, -897804.1, -998060.9, -6782.3237, -0.007626716, 0.0069966414, -897347.4, 9320.221, 0.0, 5.022585, 4.957915 
6.795636e+2, 2.124418e+2, -854210.5, -951505.8, -6731.6987, -0.0093591595, 0.011895309, -853747.0, 4333.51, 0.0, 5.020628, 4.9579115 
6.794758e+2, 2.173999e+2, -811267.94, -906381.3, -6652.565, -0.011108998, 0.01693586, -810804.9, -1311.4847, 0.0, 5.0186663, 4.9574065 
6.79388e+2, 2.2235528e+2, -773141.44, -871947.1, -6570.0083, -0.012593414, 0.02574201, -772706.44, -11774.389, 0.0, 5.0167212, 4.9531984 
6.793001e+2, 2.2730817e+2, -728645.25, -823652.2, -6699.2207, -0.013250686, 0.02054882, -728175.2, -15781.525, 0.0, 5.014784, 4.9537354 
6.792122e+2, 2.3226108e+2, -684836.9, -776892.6, -6720.0034, -0.013868202, 0.015220243, -684348.9, -20493.828, 0.0, 5.0128465, 4.9537334 
6.7912436e+2, 2.3721398e+2, -641644.2, -731541.4, -6714.5522, -0.014467026, 0.009932974, -641145.44, -25828.938, 0.0, 5.0109105, 4.953229 
6.790366e+2, 2.4216467e+2, -603388.56, -697032.4, -6505.6753, -0.014068545, 0.014842805, -602938.75, -36139.934, 0.0, 5.008947, 4.9489408 
6.7894894e+2, 2.4711375e+2, -558623.25, -647981.3, -6518.776, -0.011908671, 0.011232782, -558150.2, -39854.17, 0.0, 5.006945, 4.9497104 
6.788612e+2, 2.5206283e+2, -514858.44, -601145.94, -6389.2876, -0.009763489, 0.007228401, -514387.9, -44594.71, 0.0, 5.0049353, 4.949705 
6.787735e+2, 2.570119e+2, -471325.8, -554846.2, -6245.9014, -0.007661916, 0.0032724557, -470861.3, -49570.875, 0.0, 5.002921, 4.9495015 
6.786861e+2, 2.619584e+2, -434686.16, -523853.94, -5246.073, -0.0071319817, 0.011727185, -434378.56, -61565.676, 0.0, 5.000869, 4.9439125 
6.785989e+2, 2.6690316e+2, -388994.1, -472365.9, -5249.0234, -0.009175753, 0.0071350206, -388664.9, -64312.652, 0.0, 4.998766, 4.945516 
6.785116e+2, 2.718479e+2, -345350.5, -425476.78, -5165.3564, -0.011269524, 0.0011568364, -345018.88, -69126.98, 0.0, 4.996652, 4.945511 
6.7842436e+2, 2.7679265e+2, -301752.53, -378693.44, -5079.482, -0.013379685, -0.0048505883, -301418.66, -73987.0, 0.0, 4.9945307, 4.9454584 
6.783379e+2, 2.817337e+2, -267779.47, -353501.03, -3884.9001, -0.013440965, 0.0010234556, -267603.78, -88595.805, 0.0, 4.992344, 4.937771 
6.782521e+2, 2.8667307e+2, -221806.39, -300688.38, -3768.3562, -0.009890932, -0.0005290654, -221626.78, -91024.625, 0.0, 4.9900827, 4.939852 
6.781663e+2, 2.9161248e+2, -178398.44, -253766.88, -3472.596, -0.0063031465, -0.0029055579, -178238.77, -96042.96, 0.0, 4.987813, 4.9398503 
6.7808044e+2, 2.965519e+2, -134965.61, -206809.48, -3176.9587, -0.0027444134, -0.0052760704, -134825.39, -101035.88, 0.0, 4.9855375, 4.9398484 
6.779957e+2, 3.0150864e+2, -74044.23, -85773.43, -2625.7346, 0.002873961, 0.0039579147, -73483.25, -73483.25, 0.0, 4.983135, 4.975592 
6.7791384e+2, 3.0648616e+2, -76555.64, -77729.89, -2087.4602, 0.015622811, -0.013367559, -74974.305, -74974.305, 0.0, 4.980456, 4.9796457 
6.7783225e+2, 3.1146377e+2, -84014.37, -80885.12, -2030.4963, 0.028615404, -0.0334145, -79886.35, -79886.35, 0.0, 4.977705, 4.979671 
6.777507e+2, 3.1644145e+2, -91669.78, -84134.67, -1927.8286, 0.041372016, -0.053496465, -83670.09, -83670.09, 0.0, 4.9748816, 4.9796944 
6.861271e+2, 1.2314914e+2, -1602170.1, -1733580.8, 5253.556, 0.011658038, -0.042798094, -1601960.5, 131149.02, 0.0, 5.059251, 4.9728646 
6.860467e+2, 1.2812325e+2, -1562074.4, -1692139.5, 4688.772, 0.0100118695, -0.011292934, -1561905.5, 122460.47, 0.0, 5.0569816, 4.971576 
6.8596613e+2, 1.3309337e+2, -1520067.6, -1646755.5, 4670.1523, 0.0058144196, -0.01966373, -1519895.6, 115766.086, 0.0, 5.054707, 4.971572 
6.8588555e+2, 1.3806342e+2, -1480188.3, -1605875.9, 4433.5835, 0.001863889, -0.026964866, -1480032.0, 106925.99, 0.0, 5.0524387, 4.970057 
6.8580323e+2, 1.4303225e+2, -1439271.8, -1563509.1, 2003.3898, 0.0022662967, -0.021886531, -1439239.5, 99025.4, 0.0, 5.0502763, 4.9689054 
6.857193e+2, 1.4800076e+2, -1396733.9, -1517597.1, 1905.5743, 0.0021326547, -0.022363562, -1396703.9, 92870.3, 0.0, 5.0480957, 4.968984 
6.8563545e+2, 1.5296927e+2, -1354279.9, -1471893.9, 1863.4711, 0.0019618508, -0.022791473, -1354250.4, 86633.07, 0.0, 5.0459146, 4.968981 
6.855516e+2, 1.5793778e+2, -1313261.5, -1429280.9, 1613.5302, 0.0017472233, -0.022640193, -1313239.1, 78953.66, 0.0, 5.0437384, 4.9679303 
6.854659e+2, 1.6290432e+2, -1274239.1, -1391220.6, -201.08563, 0.00027345718, -0.013626314, -1274238.8, 69284.08, 0.0, 5.0416045, 4.965328 
6.853789e+2, 1.6786963e+2, -1231412.3, -1344977.6, -211.84016, -0.00202306, -0.0105383275, -1231411.9, 63454.36, 0.0, 5.0394497, 4.9654446 
6.85292e+2, 1.7283493e+2, -1188718.3, -1299052.0, -184.1481, -0.004352229, -0.0074776188, -1188717.9, 57491.83, 0.0, 5.037295, 4.9654417 
6.8520504e+2, 1.7780024e+2, -1147131.5, -1255529.9, -170.08545, -0.006713579, -0.0040367655, -1147131.1, 50422.105, 0.0, 5.0351415, 4.9646177 
6.8511736e+2, 1.8276314e+2, -1108222.8, -1218239.5, -1359.2225, -0.0070164753, 0.0036782057, -1108205.9, 40713.516, 0.0, 5.03307, 4.9616327 
6.8502903e+2, 1.8772434e+2, -1064638.5, -1171184.9, -1395.8807, -0.005364829, 0.0010635355, -1064620.1, 35681.7, 0.0, 5.03105, 4.9618998 
6.8494076e+2, 1.9268553e+2, -1021385.25, -1124882.9, -1441.6938, -0.0036857105, -0.0016737217, -1021365.1, 30319.146, 0.0, 5.0290313, 4.9619 
6.848525e+2, 1.9764672e+2, -978994.2, -1080474.5, -1445.9175, -0.0019753177, -0.0041475226, -978973.6, 24093.084, 0.0, 5.0270133, 4.9612446 
6.8476355e+2, 2.0260617e+2, -940204.7, -1044099.44, -2143.5947, -0.0020945352, 0.00399532, -940160.5, 14305.445, 0.0, 5.025025, 4.95782 
6.846738e+2, 2.0756418e+2, -896248.0, -996650.6, -2108.73, -0.0031752663, 0.0071083847, -896203.75, 9675.315, 0.0, 5.0230546, 4.958141 
6.845841e+2, 2.1252221e+2, -852696.94, -950114.4, -2040.3427, -0.0042614983, 0.010250055, -852654.2, 4637.813, 0.0, 5.021085, 4.958139 
6.8449444e+2, 2.1748023e+2, -809780.06, -905002.0, -1945.7081, -0.0053658444, 0.013612067, -809740.3, -1035.3354, 0.0, 5.0191154, 4.957635 
6.844047e+2, 2.2243567e+2, -771859.7, -870647.0, -1827.8657, -0.0067434115, 0.022163644, -771825.9, -11683.126, 0.0, 5.017097, 4.9534335 
6.8431467e+2, 2.2738883e+2, -727788.7, -822598.3, -1856.955, -0.008059899, 0.018713962, -727752.3, -16149.97, 0.0, 5.0150213, 4.95395 
6.8422467e+2, 2.3234197e+2, -684378.44, -776022.2, -1776.7094, -0.0093443375, 0.015085784, -684344.06, -21282.086, 0.0, 5.0129447, 4.953948 
6.841348e+2, 2.3729514e+2, -641585.6, -730853.25, -1669.5492, -0.0106096575, 0.011441985, -641554.4, -27032.758, 0.0, 5.0108685, 4.9534445 
6.8404496e+2, 2.4224602e+2, -603417.0, -696110.2, -1372.4666, -0.010599783, 0.016748274, -603396.7, -37394.3, 0.0, 5.0088215, 4.949275 
6.8395525e+2, 2.4719515e+2, -558710.44, -647169.2, -1428.0677, -0.008755088, 0.012269554, -558687.4, -41188.566, 0.0, 5.006816, 4.9500093 
6.838655e+2, 2.521443e+2, -514940.72, -600329.3, -1346.7637, -0.006870243, 0.0074221906, -514919.5, -45924.316, 0.0, 5.0048084, 4.9500055 
6.8377584e+2, 2.5709346e+2, -471387.9, -554018.3, -1254.9811, -0.004960857, 0.0026211706, -471368.88, -50877.27, 0.0, 5.002802, 4.9498034 
6.836863e+2, 2.6204014e+2, -434730.3, -522905.72, -302.52182, -0.0045573036, 0.010900725, -434729.28, -62716.94, 0.0, 5.0007367, 4.944261 
6.8359697e+2, 2.6698518e+2, -389145.38, -471505.34, -266.15738, -0.006569625, 0.0071684076, -389144.53, -65595.51, 0.0, 4.998605, 4.9458475 
6.835076e+2, 2.7193022e+2, -345559.97, -424641.2, -118.99091, -0.0086250305, 0.0020635133, -345559.8, -70473.77, 0.0, 4.996471, 4.945843 
6.834183e+2, 2.7687523e+2, -301996.22, -377871.66, 30.705275, -0.0106903305, -0.0030719198, -301996.22, -75373.04, 0.0, 4.994338, 4.945791 
6.833296e+2, 2.818166e+2, -267919.44, -352150.5, 1166.774, -0.010725142, 0.003038465, -267903.28, -89706.65, 0.0, 4.9921007, 4.93831 
6.832414e+2, 2.8675625e+2, -222228.08, -299465.25, 1248.6648, -0.0072521237, 0.0007382143, -222207.89, -92419.91, 0.0, 4.9897413, 4.9403915 
6.831533e+2, 2.91696e+2, -179079.9, -252654.89, 1537.2701, -0.0036892146, -0.0022929816, -179047.8, -97669.06, 0.0, 4.98738, 4.940391 
6.830652e+2, 2.9663578e+2, -135890.63, -205800.3, 1824.8416, -0.000092365684, -0.005212062, -135843.02, -102873.58, 0.0, 4.9850187, 4.940391 
6.8297815e+2, 3.0159286e+2, -75459.16, -85846.734, 2080.4692, 0.0067918263, 0.0050633173, -75057.97, -75057.97, 0.0, 4.9826164, 4.9757476 
6.828941e+2, 3.065705e+2, -77407.586, -77843.805, 2197.2803, 0.022499979, -0.009216231, -75417.62, -75417.62, 0.0, 4.980209, 4.9796658 
6.8281025e+2, 3.1154817e+2, -83857.65, -80467.88, 1802.8812, 0.038868435, -0.027036952, -79688.3, -79688.3, 0.0, 4.9778132, 4.979728 
6.8272644e+2, 3.1652594e+2, -90305.266, -83103.42, 1393.3254, 0.055498604, -0.045748245, -82843.26, -82843.26, 0.0, 4.9754167, 4.9797916 
6.9118553e+2, 1.2323286e+2, -1602971.6, -1735506.0, 3324.7893, 0.009086561, -0.037413668, -1602888.3, 129399.08, 0.0, 5.059277, 4.9722347 
6.911028e+2, 1.2820561e+2, -1561935.9, -1692103.3, 2976.4111, 0.0069519538, -0.019502752, -1561867.8, 121690.12, 0.0, 5.0570045, 4.971592 
6.9102e+2, 1.3317637e+2, -1519932.8, -1646717.5, 2960.4666, 0.004274972, -0.021492692, -1519863.6, 114984.47, 0.0, 5.054729, 4.9715886 
6.9093734e+2, 1.3814709e+2, -1480004.5, -1605723.4, 2738.7283, 0.0017759851, -0.022451926, -1479944.9, 106193.91, 0.0, 5.052459, 4.9701123 
6.908529e+2, 1.4311613e+2, -1439191.3, -1563530.5, 359.05402, 0.0032677506, -0.015734563, -1439190.3, 98253.47, 0.0, 5.0502915, 4.9689035 
6.9076693e+2, 1.4808436e+2, -1396675.6, -1517663.5, 267.82382, 0.0036481, -0.018911295, -1396675.1, 92080.42, 0.0, 5.048111, 4.9689674 
6.9068086e+2, 1.5305258e+2, -1354222.6, -1471960.8, 226.31303, 0.0039808303, -0.022034205, -1354222.3, 85845.12, 0.0, 5.0459294, 4.968964 
6.9059485e+2, 1.580208e+2, -1313186.6, -1429307.8, -37.923027, 0.0042603817, -0.024555683, -1313186.5, 78192.65, 0.0, 5.0437527, 4.9679275 
6.90507e+2, 1.6298729e+2, -1274046.4, -1390960.8, -1833.5308, 0.0034912713, -0.016686007, -1274017.6, 68692.01, 0.0, 5.041614, 4.9654226 
6.90418e+2, 1.6795272e+2, -1231237.4, -1344751.5, -1840.0706, 0.0020316325, -0.013291597, -1231207.6, 62843.953, 0.0, 5.0394583, 4.9655285 
6.9032896e+2, 1.7291813e+2, -1188546.4, -1298828.1, -1811.5752, 0.0005235595, -0.00990449, -1188516.6, 56876.895, 0.0, 5.037303, 4.9655256 
6.9023997e+2, 1.7788354e+2, -1146965.3, -1255316.3, -1804.9143, -0.0010342579, -0.006117053, -1146935.3, 49800.434, 0.0, 5.0351496, 4.9646983 
6.901502e+2, 1.828466e+2, -1108149.0, -1218225.3, -2897.6184, -0.0014359483, 0.0026522968, -1108072.9, 40027.59, 0.0, 5.0330796, 4.9616446 
6.9005984e+2, 1.8780796e+2, -1064593.9, -1171231.0, -2929.1445, -0.00064536976, 0.0018029194, -1064513.5, 34968.418, 0.0, 5.0310593, 4.9618917 
6.899694e+2, 1.9276933e+2, -1021342.4, -1124930.6, -2974.143, 0.00015923384, 0.00085488893, -1021257.06, 29606.365, 0.0, 5.0290403, 4.9618917 
6.89879e+2, 1.9773069e+2, -978925.94, -1080466.0, -2984.4207, 0.0009803605, 0.00018534937, -978838.3, 23406.531, 0.0, 5.0270214, 4.9612556 
6.8978804e+2, 2.0269017e+2, -939929.25, -1043662.44, -3650.9976, 0.00088822184, 0.007615096, -939800.9, 13842.828, 0.0, 5.0250363, 4.957976 
6.8969643e+2, 2.0764805e+2, -896002.5, -996274.0, -3608.2476, 0.00065223, 0.008089454, -895872.9, 9184.44, 0.0, 5.0230656, 4.9582767 
6.896049e+2, 2.1260594e+2, -852454.9, -949741.44, -3538.2263, 0.00040022645, 0.008611954, -852326.4, 4144.393, 0.0, 5.0210953, 4.9582744 
6.895133e+2, 2.1756384e+2, -809573.44, -904702.6, -3432.1912, 0.00011824301, 0.009374334, -809449.8, -1565.5737, 0.0, 5.0191255, 4.957746 
6.894216e+2, 2.2251943e+2, -771536.56, -870096.8, -3424.9028, -0.0010393752, 0.01760702, -771417.7, -12097.13, 0.0, 5.017108, 4.95363 
6.893294e+2, 2.2747295e+2, -727522.4, -822171.4, -3443.1545, -0.0028303745, 0.016277159, -727397.25, -16620.188, 0.0, 5.015032, 4.954105 
6.892373e+2, 2.3242646e+2, -684114.4, -775598.75, -3362.1025, -0.0046028662, 0.01477515, -683991.0, -21757.46, 0.0, 5.0129547, 4.9541025 
6.8914527e+2, 2.3737998e+2, -641323.75, -730433.25, -3253.973, -0.0063641444, 0.01326001, -641205.1, -27514.988, 0.0, 5.0108786, 4.9535985 
6.890534e+2, 2.4233112e+2, -603066.75, -695519.7, -2915.3074, -0.006794558, 0.01902604, -602974.9, -37806.164, 0.0, 5.008836, 4.9494867 
6.8896157e+2, 2.4728033e+2, -558420.44, -646715.75, -2968.5273, -0.0056884647, 0.013655896, -558320.75, -41656.25, 0.0, 5.006831, 4.9501743 
6.888698e+2, 2.5222957e+2, -514652.72, -599879.44, -2886.6797, -0.004563827, 0.007951855, -514555.06, -46394.816, 0.0, 5.0048237, 4.95017 
6.88778e+2, 2.5717878e+2, -471101.88, -553571.94, -2794.2908, -0.0034278145, 0.002295156, -471007.28, -51351.26, 0.0, 5.002817, 4.949967 
6.8868643e+2, 2.6212564e+2, -434316.97, -522171.53, -1925.186, -0.003218358, 0.010421076, -434274.8, -63099.926, 0.0, 5.0007515, 4.9445257 
6.88595e+2, 2.6707104e+2, -388749.88, -470811.97, -1904.7944, -0.0045072595, 0.0074048825, -388705.7, -65997.414, 0.0, 4.99862, 4.946099 
6.885036e+2, 2.7201638e+2, -345167.03, -423950.53, -1757.7799, -0.005849592, 0.0030229874, -345127.84, -70885.805, 0.0, 4.996486, 4.9460945 
6.884122e+2, 2.769617e+2, -301605.84, -377183.75, -1608.2194, -0.007218507, -0.0013875117, -301571.63, -75795.71, 0.0, 4.994353, 4.946042 
6.883213e+2, 2.8190342e+2, -267288.38, -350953.97, -641.6443, -0.006913251, 0.00470372, -267283.44, -89937.3, 0.0, 4.9921203, 4.9387403 
6.882307e+2, 2.8684342e+2, -221611.11, -298311.6, -581.39276, -0.0037743237, 0.00128034, -221606.7, -92672.04, 0.0, 4.9897614, 4.940809 
6.881402e+2, 2.9178348e+2, -178467.13, -251507.67, -292.39536, -0.0005876886, -0.0028539298, -178465.95, -97943.31, 0.0, 4.9874, 4.940808 
6.880497e+2, 2.9672354e+2, -135282.02, -204659.5, -4.4314003, 0.002601229, -0.006849253, -135282.02, -103171.46, 0.0, 4.9850388, 4.9408064 
6.879603e+2, 3.0168098e+2, -75465.96, -86211.2, 233.58101, 0.009721826, 0.004695713, -75460.88, -75460.88, 0.0, 4.9826465, 4.9756303 
6.8787396e+2, 3.0665874e+2, -77641.87, -78834.39, 364.63373, 0.025864013, -0.004196486, -77539.21, -77539.21, 0.0, 4.9802513, 4.9793205 
6.8778783e+2, 3.116366e+2, -84064.44, -81473.6, -9.854366, 0.04248541, -0.016628286, -81473.56, -81473.56, 0.0, 4.9778666, 4.9793754 
6.877017e+2, 3.1661445e+2, -90484.53, -84124.27, -399.52313, 0.05927748, -0.030023668, -84099.28, -84099.28, 0.0, 4.9754806, 4.9794307 
6.9624376e+2, 1.23316176e+2, -1603462.3, -1736790.4, 1417.6006, 0.005071741, -0.03582346, -1603447.1, 128021.836, 0.0, 5.0593038, 4.9718146 
6.961588e+2, 1.28288e+2, -1561797.6, -1692067.0, 1262.3678, 0.003960979, -0.02748737, -1561785.5, 120964.195, 0.0, 5.0570283, 4.971607 
6.9607395e+2, 1.3325942e+2, -1519798.1, -1646679.4, 1249.0994, 0.0027928753, -0.023131132, -1519785.9, 114248.336, 0.0, 5.0547514, 4.971605 
6.959891e+2, 1.3823076e+2, -1479832.9, -1605594.8, 1043.5642, 0.0017285121, -0.01780113, -1479824.3, 105495.125, 0.0, 5.0524793, 4.9701595 
6.959026e+2, 1.432e+2, -1439110.8, -1563554.1, -1289.255, 0.0042742677, -0.009618143, -1439097.4, 97525.1, 0.0, 5.0503078, 4.9689007 
6.958144e+2, 1.4816794e+2, -1396617.0, -1517730.6, -1369.9976, 0.005174245, -0.015529555, -1396601.5, 91335.48, 0.0, 5.0481267, 4.9689503 
6.957263e+2, 1.5313588e+2, -1354164.9, -1472028.4, -1410.9158, 0.00601737, -0.021379257, -1354148.0, 85103.3, 0.0, 5.045945, 4.968947 
6.956381e+2, 1.5810381e+2, -1313116.6, -1429346.3, -1694.3438, 0.006797249, -0.026587121, -1313091.9, 77473.88, 0.0, 5.0437675, 4.9679203 
6.9554824e+2, 1.6307026e+2, -1273857.1, -1390711.6, -3464.6375, 0.0067185266, -0.019655375, -1273754.5, 68141.81, 0.0, 5.0416245, 4.965513 
6.954571e+2, 1.6803579e+2, -1231061.6, -1344526.8, -3468.2751, 0.0061039166, -0.01599023, -1230955.8, 62281.098, 0.0, 5.039468, 4.9656115 
6.95366e+2, 1.7300132e+2, -1188373.6, -1298605.6, -3438.9768, 0.005425228, -0.01231465, -1188266.5, 56310.844, 0.0, 5.037312, 4.9656086 
6.9527495e+2, 1.7796685e+2, -1146810.9, -1255131.3, -3436.8896, 0.0046726316, -0.008206584, -1146701.9, 49216.01, 0.0, 5.0351586, 4.964769 
6.9518304e+2, 1.8293008e+2, -1108075.9, -1218214.9, -4434.8433, 0.0041021155, 0.0017377464, -1107897.6, 39383.746, 0.0, 5.0330896, 4.961655 
6.9509053e+2, 1.8789162e+2, -1064548.5, -1171278.1, -4462.181, 0.00403936, 0.0026166532, -1064362.3, 34299.684, 0.0, 5.031069, 4.961883 
6.9499797e+2, 1.9285314e+2, -1021298.6, -1124979.4, -4506.365, 0.0039770985, 0.003419992, -1021103.1, 28939.363, 0.0, 5.0290494, 4.9618826 
6.949055e+2, 1.9781467e+2, -978863.5, -1080473.5, -4519.01, 0.003917744, 0.00451507, -978662.94, 22760.053, 0.0, 5.0270305, 4.961261 
6.9481254e+2, 2.0277417e+2, -939656.2, -1043233.56, -5157.7407, 0.0038727876, 0.011252272, -939399.94, 13421.511, 0.0, 5.0250487, 4.958128 
6.947191e+2, 2.0773192e+2, -895756.25, -995898.6, -5107.3643, 0.0044979937, 0.009024846, -895496.44, 8739.107, 0.0, 5.0230775, 4.9584117 
6.946256e+2, 2.126897e+2, -852212.06, -949369.7, -5035.71, 0.0050969697, 0.0068639424, -851951.75, 3697.8098, 0.0, 5.0211062, 4.958409 
6.9453216e+2, 2.1764746e+2, -809356.7, -904384.3, -4926.754, 0.005651913, 0.0049703917, -809101.94, -2038.4668, 0.0, 5.019136, 4.957863 
6.944384e+2, 2.226032e+2, -771237.6, -869603.06, -5012.9795, 0.004615667, 0.013226194, -770982.75, -12484.516, 0.0, 5.017119, 4.9538074 
6.943441e+2, 2.2755708e+2, -727254.94, -821745.75, -5028.685, 0.0023660024, 0.013971224, -726988.06, -17036.414, 0.0, 5.0150433, 4.95426 
6.9424987e+2, 2.3251097e+2, -683849.25, -775176.7, -4946.827, 0.00012271274, 0.0145479385, -683582.06, -22177.053, 0.0, 5.012966, 4.9542565 
6.941557e+2, 2.3746485e+2, -641060.9, -730014.56, -4837.728, -0.0021172976, 0.015114084, -640798.56, -27940.018, 0.0, 5.0108895, 4.953752 
6.9406176e+2, 2.4241622e+2, -602727.8, -694957.9, -4452.289, -0.003047235, 0.02132371, -602513.4, -38178.36, 0.0, 5.0088515, 4.9496884 
6.939678e+2, 2.473655e+2, -558129.56, -646263.44, -4508.219, -0.0026683793, 0.015045038, -557899.56, -42069.39, 0.0, 5.006847, 4.950339 
6.9387394e+2, 2.523148e+2, -514363.8, -599430.6, -4425.828, -0.0022876253, 0.008454813, -514134.2, -46808.875, 0.0, 5.00484, 4.950334 
6.9378e+2, 2.572641e+2, -470814.9, -553126.56, -4332.834, -0.0019086929, 0.0019129729, -470587.47, -51766.99, 0.0, 5.002833, 4.9501305 
6.936865e+2, 2.6221117e+2, -433904.38, -521442.22, -3549.0408, -0.001865811, 0.009969921, -433760.72, -63423.383, 0.0, 5.000767, 4.944789 
6.9359297e+2, 2.671569e+2, -388353.3, -470119.75, -3543.238, -0.0024273286, 0.007671027, -388200.06, -66332.63, 0.0, 4.998636, 4.94635 
6.934995e+2, 2.7210256e+2, -344773.03, -423261.1, -3396.375, -0.0030560521, 0.00400191, -344626.34, -71228.4, 0.0, 4.9965014, 4.9463453 
6.9340605e+2, 2.7704823e+2, -301214.4, -376497.03, -3246.95, -0.0037280496, 0.00030613894, -301074.63, -76146.03, 0.0, 4.994368, 4.946293 
6.93313e+2, 2.8199026e+2, -266656.7, -349759.66, -2447.2598, -0.0031185832, 0.006374729, -266584.7, -90089.11, 0.0, 4.9921403, 4.9391694 
6.9321996e+2, 2.8693056e+2, -220993.94, -297158.6, -2410.2153, -0.00034317753, 0.001819847, -220917.75, -92836.46, 0.0, 4.989783, 4.9412255 
6.931271e+2, 2.9187095e+2, -177854.14, -250361.1, -2120.8254, 0.0024452915, -0.0034299525, -177792.17, -98125.67, 0.0, 4.987421, 4.9412236 
6.930341e+2, 2.968113e+2, -134673.22, -203519.33, -1832.4685, 0.00520441, -0.008513943, -134624.47, -103372.86, 0.0, 4.9850597, 4.9412217 
6.929425e+2, 3.0176908e+2, -75511.18, -86665.94, -1595.5535, 0.012637085, 0.0042977016, -75287.445, -75287.445, 0.0, 4.9826775, 4.9754753 
6.928538e+2, 3.0674702e+2, -77876.305, -79824.68, -1455.5735, 0.02923965, 0.00031894085, -77099.0, -77099.0, 0.0, 4.980295, 4.978969 
6.927654e+2, 3.1172493e+2, -84271.37, -82479.04, -1810.1406, 0.04613108, -0.0072257994, -81355.37, -81355.37, 0.0, 4.977921, 4.9790163 
6.926771e+2, 3.1670284e+2, -90663.94, -85144.86, -2179.9124, 0.06310212, -0.015806306, -84387.71, -84387.71, 0.0, 4.9755454, 4.9790635 
7.0130205e+2, 1.23398975e+2, -1602641.3, -1736637.8, 1329.7006, 0.00043802755, -0.043595236, -1602628.1, 128028.82, 0.0, 5.0596447, 4.971696 
7.0121497e+2, 1.2837093e+2, -1561027.6, -1691488.6, 1336.025, 0.00087076606, -0.034343597, -1561014.0, 120922.695, 0.0, 5.0572534, 4.9716864 
7.0112795e+2, 1.3334286e+2, -1519392.8, -1646303.3, 1336.417, 0.0012919435, -0.02500549, -1519378.8, 113837.7, 0.0, 5.054855, 4.971678 
7.0104086e+2, 1.3831475e+2, -1479786.8, -1605374.9, 1153.2563, 0.0017925082, -0.014623183, -1479776.3, 104720.52, 0.0, 5.0524545, 4.970244 
7.0095223e+2, 1.4328419e+2, -1439405.4, -1563626.5, -1125.6998, 0.0053425464, -0.004905761, -1439395.3, 96402.92, 0.0, 5.050194, 4.9689307 
7.008619e+2, 1.4825192e+2, -1397097.8, -1517944.4, -1226.9233, 0.006696559, -0.01253594, -1397085.3, 90029.23, 0.0, 5.047959, 4.9689593 
7.0077163e+2, 1.5321966e+2, -1354802.4, -1472320.5, -1299.3, 0.008034785, -0.020234875, -1354788.0, 83642.93, 0.0, 5.0457234, 4.9689555 
7.006813e+2, 1.5818736e+2, -1313894.5, -1429692.9, -1627.4756, 0.009345021, -0.027376011, -1313871.6, 75875.83, 0.0, 5.0434937, 4.9679356 
7.0058924e+2, 1.6315375e+2, -1274453.6, -1390793.4, -3388.1082, 0.00997661, -0.021267112, -1274355.0, 66723.28, 0.0, 5.041373, 4.9656076 
7.004961e+2, 1.6811933e+2, -1231508.4, -1344550.0, -3462.7317, 0.010224505, -0.017797727, -1231402.5, 61015.617, 0.0, 5.03927, 4.9657 
7.00403e+2, 1.7308488e+2, -1188682.1, -1298561.4, -3505.0032, 0.010419927, -0.0142810065, -1188570.4, 55187.46, 0.0, 5.0371614, 4.965698 
7.003098e+2, 1.7805046e+2, -1147021.3, -1255073.3, -3574.4011, 0.01053444, -0.010267917, -1146903.1, 48194.46, 0.0, 5.0350485, 4.964844 
7.002158e+2, 1.8301383e+2, -1108322.5, -1218269.3, -4509.5913, 0.00977018, 0.00070647366, -1108137.9, 38322.113, 0.0, 5.032987, 4.9616885 
7.0012116e+2, 1.8797551e+2, -1064855.9, -1171408.8, -4546.683, 0.008854285, 0.003214925, -1064662.3, 33177.33, 0.0, 5.030954, 4.9618964 
7.000266e+2, 1.9293718e+2, -1021648.06, -1125134.8, -4606.0757, 0.00794472, 0.005661, -1021443.44, 27775.766, 0.0, 5.0289197, 4.9618945 
6.99932e+2, 1.9789886e+2, -979246.75, -1080624.9, -4636.054, 0.0070429263, 0.008403856, -979035.2, 21563.625, 0.0, 5.026884, 4.961282 
6.9983697e+2, 2.0285837e+2, -939916.2, -1043042.4, -5313.8574, 0.0070174797, 0.014535783, -939643.1, 12353.99, 0.0, 5.024886, 4.958273 
6.9974166e+2, 2.0781597e+2, -896079.6, -995770.2, -5372.7915, 0.008398404, 0.009793742, -895790.9, 7621.065, 0.0, 5.022899, 4.958543 
6.9964623e+2, 2.1277359e+2, -852582.6, -949261.06, -5408.1904, 0.009776041, 0.005067742, -852281.0, 2545.72, 0.0, 5.020911, 4.958541 
6.995509e+2, 2.1773124e+2, -809808.5, -904360.75, -5396.991, 0.011120316, 0.0005931763, -809501.44, -3259.9797, 0.0, 5.0189223, 4.957974 
6.9945514e+2, 2.2268711e+2, -771568.6, -869357.6, -5618.406, 0.010140954, 0.009113256, -771246.9, -13572.234, 0.0, 5.0169134, 4.9539924 
6.9935876e+2, 2.2764133e+2, -727512.56, -821517.06, -5680.548, 0.00751212, 0.0117823295, -727170.5, -18045.428, 0.0, 5.0148726, 4.9544234 
6.9926244e+2, 2.3259556e+2, -684020.2, -774910.5, -5644.3677, 0.0048760213, 0.01430157, -683671.0, -23095.463, 0.0, 5.012826, 4.9544196 
6.991661e+2, 2.375498e+2, -641167.0, -729735.0, -5577.1973, 0.002232027, 0.01682912, -640817.1, -28791.1, 0.0, 5.010775, 4.9539084 
6.9907016e+2, 2.4250138e+2, -602703.6, -694505.56, -5185.25, 0.00075743103, 0.023463015, -602411.6, -38910.97, 0.0, 5.008759, 4.949896 
6.9897413e+2, 2.4745074e+2, -558120.0, -645904.4, -5302.8813, 0.0003985495, 0.01634506, -557800.8, -42805.594, 0.0, 5.006766, 4.9505095 
6.988781e+2, 2.5240013e+2, -514334.22, -599064.06, -5270.928, 0.000042388507, 0.008909866, -514007.6, -47517.79, 0.0, 5.0047655, 4.9505043 
6.9878215e+2, 2.573495e+2, -470777.06, -552757.9, -5224.5376, -0.0003156108, 0.0015076798, -470445.47, -52461.04, 0.0, 5.002762, 4.9503007 
6.986865e+2, 2.6229677e+2, -433702.28, -520778.72, -4570.701, -0.00042835227, 0.009586138, -433463.03, -63963.773, 0.0, 5.0007105, 4.9450564 
6.9859093e+2, 2.672428e+2, -388087.22, -469455.9, -4632.5005, -0.00030333153, 0.007966756, -387824.34, -66798.15, 0.0, 4.998607, 4.9466066 
6.984954e+2, 2.7218878e+2, -344455.22, -422575.94, -4535.7695, -0.000240552, 0.004972882, -344192.75, -71639.17, 0.0, 4.9964924, 4.946602 
6.983999e+2, 2.7713475e+2, -300869.34, -375801.84, -4432.1606, -0.00021960225, 0.0019611937, -300608.1, -76527.055, 0.0, 4.994369, 4.9465494 
6.9830465e+2, 2.820771e+2, -266059.4, -348552.6, -3839.409, 0.00066047185, 0.008018929, -265881.1, -90236.28, 0.0, 4.9921517, 4.9396033 
6.982092e+2, 2.8701776e+2, -220395.66, -295984.53, -3873.3093, 0.0030515974, 0.00235873, -220197.69, -92969.98, 0.0, 4.9898005, 4.941648 
6.981139e+2, 2.919584e+2, -177282.81, -249204.05, -3623.4905, 0.0054360125, -0.00400563, -177100.72, -98290.55, 0.0, 4.9874306, 4.9416456 
6.9801855e+2, 2.9689908e+2, -134168.28, -202396.94, -3368.7788, 0.00776272, -0.010193379, -134002.36, -103609.83, 0.0, 4.9850464, 4.9416428 
6.979246e+2, 3.0185714e+2, -75826.09, -87283.28, -3160.6704, 0.015611611, 0.0038714444, -75012.01, -75012.01, 0.0, 4.982629, 4.975288 
6.978337e+2, 3.068352e+2, -78634.26, -81022.055, -3090.1497, 0.032743488, 0.004368705, -76515.39, -76515.39, 0.0, 4.980154, 4.978613 
6.9774306e+2, 3.1181324e+2, -85498.016, -83907.664, -3529.8062, 0.049958378, 0.0012362387, -81084.58, -81084.58, 0.0, 4.9776096, 4.9786515 
6.976524e+2, 3.1679124e+2, -92567.34, -86892.04, -4018.705, 0.067114316, -0.0030405773, -84810.11, -84810.11, 0.0, 4.9749885, 4.978692 
7.063615e+2, 1.23488694e+2, -1596699.1, -1733140.1, 4816.8584, -0.004989765, -0.0428004, -1596529.4, 133249.83, 0.0, 5.061603, 4.9718633 
7.06272e+2, 1.284606e+2, -1555579.3, -1688242.8, 4832.226, -0.0026609031, -0.034476604, -1555403.5, 125655.48, 0.0, 5.0590487, 4.971854 
7.061826e+2, 1.3343251e+2, -1514416.4, -1643300.5, 4850.1055, -0.00035980283, -0.025951434, -1514234.1, 118104.57, 0.0, 5.056495, 4.971845 
7.060933e+2, 1.3840437e+2, -1475224.6, -1602531.9, 4725.8413, 0.0019791124, -0.016257925, -1475049.4, 108569.42, 0.0, 5.053947, 4.9704328 
7.060023e+2, 1.4337394e+2, -1435215.4, -1561105.5, 2632.7402, 0.0062699425, -0.0057425476, -1435160.4, 99758.69, 0.0, 5.0515914, 4.9690604 
7.059097e+2, 1.4834183e+2, -1393217.6, -1515622.8, 2605.5166, 0.00783353, -0.011568512, -1393162.3, 93072.09, 0.0, 5.0492635, 4.9690704 
7.058172e+2, 1.533097e+2, -1351200.8, -1470138.3, 2594.2483, 0.009402442, -0.017533833, -1351144.3, 86405.54, 0.0, 5.046936, 4.9690676 
7.0572466e+2, 1.5827757e+2, -1310529.3, -1427573.8, 2336.436, 0.010974984, -0.023033444, -1310482.6, 78382.75, 0.0, 5.044616, 4.968072 
7.056304e+2, 1.6324395e+2, -1271201.8, -1388685.6, 779.8398, 0.012290637, -0.017343255, -1271196.5, 68999.7, 0.0, 5.0424485, 4.965763 
7.055353e+2, 1.6820936e+2, -1228357.8, -1342514.6, 758.90576, 0.013420399, -0.015433211, -1228352.8, 63184.38, 0.0, 5.0403185, 4.965847 
7.054401e+2, 1.7317478e+2, -1185600.0, -1296561.1, 764.4314, 0.01451388, -0.013453436, -1185594.6, 57283.223, 0.0, 5.038189, 4.9658456 
7.05345e+2, 1.7814022e+2, -1143970.9, -1253062.4, 728.3387, 0.015534832, -0.010959147, -1143966.0, 50252.617, 0.0, 5.0360613, 4.965005 
7.0524883e+2, 1.8310359e+2, -1105337.6, -1216150.4, -56.112255, 0.014903384, -0.0006502391, -1105337.6, 40242.92, 0.0, 5.0339513, 4.9619102 
7.051521e+2, 1.8806535e+2, -1062130.3, -1169477.0, 20.223225, 0.01358103, 0.0021156042, -1062130.3, 34828.68, 0.0, 5.0318437, 4.9620924 
7.050554e+2, 1.930271e+2, -1019139.7, -1123312.8, 77.20517, 0.012272729, 0.0048609087, -1019139.6, 29197.672, 0.0, 5.0297375, 4.9620895 
7.0495874e+2, 1.9798887e+2, -976930.8, -1078872.1, 166.45103, 0.010984764, 0.007916266, -976930.5, 22785.146, 0.0, 5.0276318, 4.9614882 
7.0486164e+2, 2.0294838e+2, -937929.2, -1041653.2, -408.46478, 0.010606659, 0.01403226, -937927.6, 13186.178, 0.0, 5.025566, 4.958386 
7.047642e+2, 2.0790596e+2, -894281.5, -994505.06, -483.2833, 0.011495343, 0.009434056, -894279.1, 8250.364, 0.0, 5.023523, 4.958641 
7.0466673e+2, 2.1286353e+2, -850943.0, -948064.6, -549.1411, 0.012423382, 0.0047573377, -850939.94, 3005.256, 0.0, 5.02148, 4.9586425 
7.0456934e+2, 2.1782112e+2, -808296.1, -903171.6, -578.8803, 0.01336462, 0.00024365367, -808292.6, -2931.8352, 0.0, 5.019438, 4.9580994 
7.044715e+2, 2.2277704e+2, -769975.25, -867768.75, -767.63586, 0.012513713, 0.008442326, -769969.25, -13175.742, 0.0, 5.017388, 4.954274 
7.043732e+2, 2.2773132e+2, -726006.0, -820029.2, -789.63617, 0.01053847, 0.010692487, -725999.4, -17756.504, 0.0, 5.0153303, 4.95468 
7.0427483e+2, 2.3268563e+2, -682552.4, -773441.75, -717.4426, 0.00853878, 0.012870327, -682546.7, -22854.426, 0.0, 5.013272, 4.954677 
7.0417655e+2, 2.3763992e+2, -639716.9, -728263.0, -611.9962, 0.006512255, 0.015129237, -639712.6, -28570.959, 0.0, 5.0112133, 4.954172 
7.0407856e+2, 2.4259163e+2, -601371.6, -693056.3, -157.22697, 0.0051274896, 0.021686777, -601371.4, -38756.28, 0.0, 5.009152, 4.9501724 
7.0398045e+2, 2.4754119e+2, -557069.25, -644646.6, -261.991, 0.0041905087, 0.015362881, -557068.5, -42960.258, 0.0, 5.007074, 4.950759 
7.0388234e+2, 2.5249073e+2, -513513.7, -597906.7, -212.78758, 0.0032759043, 0.008685578, -513513.16, -47911.668, 0.0, 5.0049925, 4.950756 
7.037843e+2, 2.5744024e+2, -470173.97, -551693.94, -151.87518, 0.0023852605, 0.0019870682, -470173.7, -53078.855, 0.0, 5.0029116, 4.950555 
7.0368654e+2, 2.623877e+2, -433090.03, -519551.84, 502.14297, 0.001922198, 0.0104180835, -433087.1, -64478.91, 0.0, 5.0008345, 4.9453793 
7.0358884e+2, 2.6733387e+2, -387422.9, -468257.0, 395.80353, 0.0017367621, 0.008560966, -387420.97, -67286.875, 0.0, 4.9987617, 4.946908 
7.034912e+2, 2.7227998e+2, -343686.6, -421325.56, 456.85284, 0.0015502081, 0.0053629535, -343683.9, -72023.51, 0.0, 4.9966846, 4.9469056 
7.033936e+2, 2.7722606e+2, -299972.75, -374489.78, 520.61487, 0.0013949838, 0.0021842706, -299969.13, -76782.39, 0.0, 4.9946084, 4.946856 
7.0329607e+2, 2.8216866e+2, -264954.44, -346785.9, 898.62714, 0.0022040696, 0.0082398895, -264944.56, -90196.266, 0.0, 4.992399, 4.9400663 
7.031984e+2, 2.871096e+2, -219316.02, -294255.78, 761.9901, 0.0044841357, 0.00268754, -219308.27, -92980.31, 0.0, 4.9900465, 4.942102 
7.031006e+2, 2.9205057e+2, -176165.05, -247449.38, 923.312, 0.006820021, -0.0036926607, -176153.08, -98245.766, 0.0, 4.9876914, 4.942104 
7.030029e+2, 2.9699153e+2, -132973.14, -200599.03, 1084.8567, 0.00917419, -0.01003637, -132955.75, -103469.06, 0.0, 4.985337, 4.942106 
7.029067e+2, 3.0194968e+2, -74811.06, -87038.8, 1279.0612, 0.01732376, 0.0045224335, -74678.7, -74678.7, 0.0, 4.983151, 4.9750967 
7.0281374e+2, 3.0692744e+2, -76142.16, -80553.2, 1275.9159, 0.034676455, 0.0069711455, -75799.68, -75799.68, 0.0, 4.9812946, 4.978244 
7.027209e+2, 3.1190512e+2, -81123.91, -82716.25, 797.79364, 0.052714117, 0.006289416, -80792.98, -80792.98, 0.0, 4.9794526, 4.9782486 
7.0262814e+2, 3.1688282e+2, -86105.52, -84883.945, 318.86087, 0.071408875, 0.0049537043, -84805.72, -84805.72, 0.0, 4.977608, 4.9782534 
7.114217e+2, 1.23581305e+2, -1596483.5, -1732946.8, 2899.9224, -0.010393306, -0.039618127, -1596421.9, 132451.28, 0.0, 5.0616245, 4.971932 
7.1132994e+2, 1.285531e+2, -1555370.6, -1688049.5, 2917.9248, -0.0061646183, -0.033015803, -1555306.4, 124847.03, 0.0, 5.059068, 4.971924 
7.1123815e+2, 1.3352492e+2, -1514214.8, -1643107.5, 2938.4363, -0.0020126814, -0.026175478, -1514147.8, 117285.94, 0.0, 5.0565124, 4.9719157 
7.111464e+2, 1.3849668e+2, -1474994.8, -1602259.4, 2853.1584, 0.0020899721, -0.018106204, -1474930.8, 107783.516, 0.0, 5.0539613, 4.9705305 
7.110531e+2, 1.434664e+2, -1435071.5, -1560994.6, 871.73724, 0.007004174, -0.007026193, -1435065.4, 98947.836, 0.0, 5.0516047, 4.969105 
7.1095824e+2, 1.4843453e+2, -1393094.5, -1515552.9, 858.35425, 0.008786935, -0.01071831, -1393088.5, 92238.24, 0.0, 5.0492764, 4.969102 
7.108634e+2, 1.5340267e+2, -1351078.6, -1470070.3, 847.7801, 0.010561579, -0.014541316, -1351072.6, 85567.67, 0.0, 5.046949, 4.969098 
7.107686e+2, 1.5837076e+2, -1310381.4, -1427448.8, 600.66254, 0.012333616, -0.017908338, -1310378.4, 77575.734, 0.0, 5.0446286, 4.968122 
7.106722e+2, 1.633372e+2, -1271031.9, -1388482.5, -833.4523, 0.0142842615, -0.0124546215, -1271026.0, 68258.49, 0.0, 5.042458, 4.965839 
7.10575e+2, 1.6830252e+2, -1228208.9, -1342354.4, -849.8737, 0.016281947, -0.012208913, -1228202.5, 62423.473, 0.0, 5.0403275, 4.965909 
7.1047777e+2, 1.7326784e+2, -1185452.4, -1296402.8, -843.75836, 0.018231612, -0.011882434, -1185446.0, 56521.52, 0.0, 5.038198, 4.9659066 
7.103806e+2, 1.7823318e+2, -1143803.1, -1252863.0, -898.1446, 0.020082867, -0.011030879, -1143795.8, 49513.09, 0.0, 5.036071, 4.9650807 
7.102823e+2, 1.8319657e+2, -1105067.5, -1215725.8, -1652.3395, 0.01959629, -0.0015580792, -1105042.9, 39626.93, 0.0, 5.0339603, 4.962063 
7.101835e+2, 1.8815845e+2, -1061898.5, -1169132.0, -1577.1664, 0.018021243, 0.0010753452, -1061875.3, 34171.105, 0.0, 5.0318522, 4.9622188 
7.100846e+2, 1.9312032e+2, -1018910.5, -1122970.0, -1519.3608, 0.016449148, 0.0037060657, -1018888.3, 28534.72, 0.0, 5.0297456, 4.962216 
7.0998585e+2, 1.9808218e+2, -976701.25, -1078526.6, -1430.8414, 0.014886944, 0.006642682, -976681.1, 22118.555, 0.0, 5.02764, 4.9616156 
7.098866e+2, 2.0304179e+2, -937879.94, -1041708.6, -1975.5751, 0.014035804, 0.012988739, -937842.4, 12354.653, 0.0, 5.0255766, 4.958375 
7.09787e+2, 2.0799942e+2, -894256.75, -994611.8, -2041.5061, 0.014112571, 0.009203676, -894215.25, 7397.5776, 0.0, 5.023533, 4.9586124 
7.096874e+2, 2.1295704e+2, -850918.94, -948172.44, -2106.644, 0.014214011, 0.005351858, -850873.3, 2155.3223, 0.0, 5.02149, 4.958614 
7.095879e+2, 2.1791469e+2, -808231.9, -903191.44, -2142.2012, 0.014320105, 0.0016781975, -808183.56, -3739.2344, 0.0, 5.019448, 4.958101 
7.0948803e+2, 2.2287068e+2, -769667.25, -867274.4, -2342.8152, 0.013589017, 0.009439801, -769611.06, -13734.738, 0.0, 5.0174003, 4.954453 
7.093878e+2, 2.27825e+2, -725738.5, -819622.25, -2361.1265, 0.012580182, 0.010403724, -725679.2, -18354.287, 0.0, 5.0153427, 4.954829 
7.0928746e+2, 2.327793e+2, -682287.1, -773037.94, -2288.1338, 0.011540463, 0.011311133, -682229.44, -23455.975, 0.0, 5.0132837, 4.954826 
7.091872e+2, 2.3773362e+2, -639451.8, -727857.9, -2177.4622, 0.010463784, 0.012302927, -639398.2, -29176.082, 0.0, 5.0112257, 4.954322 
7.0908713e+2, 2.4268547e+2, -601084.75, -692614.0, -1745.6749, 0.0093582515, 0.018690834, -601051.44, -39357.55, 0.0, 5.0091662, 4.9503336 
7.0898694e+2, 2.476353e+2, -556822.94, -644295.9, -1855.8127, 0.007999571, 0.0137246465, -556783.56, -43598.79, 0.0, 5.007088, 4.9508896 
7.0888674e+2, 2.525851e+2, -513268.97, -597558.44, -1806.3835, 0.0066482658, 0.008419487, -513230.28, -48554.457, 0.0, 5.005007, 4.9508862 
7.087865e+2, 2.5753492e+2, -469935.2, -551357.8, -1749.2031, 0.0053086854, 0.003092847, -469897.63, -53730.676, 0.0, 5.002926, 4.950681 
7.0868665e+2, 2.6248258e+2, -432759.16, -519047.88, -1082.503, 0.004381644, 0.011968684, -432745.6, -65066.99, 0.0, 5.0008545, 4.945563 
7.085869e+2, 2.6742882e+2, -387130.22, -467843.2, -1203.2108, 0.0034558724, 0.009439838, -387112.28, -67908.39, 0.0, 4.998782, 4.9470606 
7.08487e+2, 2.72375e+2, -343396.56, -420915.16, -1141.6876, 0.0024993126, 0.0055841175, -343379.75, -72650.12, 0.0, 4.996705, 4.947058 
7.0838726e+2, 2.7732116e+2, -299685.38, -374082.72, -1077.4355, 0.001548364, 0.0017593686, -299669.75, -77414.375, 0.0, 4.9946284, 4.9470077 
7.082875e+2, 2.82264e+2, -264494.6, -345998.34, -922.8449, 0.0019600808, 0.0077386065, -264484.13, -90669.305, 0.0, 4.9924192, 4.940354 
7.081874e+2, 2.8720525e+2, -218874.64, -293517.03, -1060.962, 0.004188276, 0.0027871302, -218859.56, -93468.84, 0.0, 4.9900675, 4.9423733 
7.0808727e+2, 2.9214656e+2, -175724.8, -246712.16, -899.1735, 0.0064404616, -0.0029799098, -175713.42, -98747.08, 0.0, 4.987713, 4.942375 
7.0798725e+2, 2.9708785e+2, -132534.06, -199863.36, -737.1631, 0.008690768, -0.0087137725, -132526.0, -103984.016, 0.0, 4.9853587, 4.942377 
7.0788884e+2, 3.0204597e+2, -75097.87, -88153.01, -155.23463, 0.016131679, 0.0055332207, -75096.016, -75096.016, 0.0, 4.983196, 4.9746933 
7.077939e+2, 3.0702305e+2, -76566.305, -82022.58, -113.2183, 0.03152006, 0.0064430377, -76563.95, -76563.95, 0.0, 4.9813433, 4.9777117 
7.0769906e+2, 3.120001e+2, -81556.87, -84200.26, -577.3342, 0.047378503, 0.0043325704, -81436.27, -81436.27, 0.0, 4.9795, 4.9777136 
7.076042e+2, 3.169771e+2, -86547.31, -86382.59, -1042.2634, 0.06371078, 0.0016898381, -85419.44, -85419.44, 0.0, 4.977654, 4.9777155 
7.16482e+2, 1.2367393e+2, -1596267.4, -1732754.3, 981.12396, -0.01576154, -0.03628545, -1596260.4, 131706.61, 0.0, 5.061647, 4.9719996 
7.163878e+2, 1.2864563e+2, -1555161.6, -1687857.3, 1001.759, -0.00963497, -0.03146515, -1555154.0, 124093.836, 0.0, 5.059088, 4.9719925 
7.162937e+2, 1.3361734e+2, -1514012.8, -1642915.5, 1024.9016, -0.0036341366, -0.026370125, -1514004.6, 116524.02, 0.0, 5.05653, 4.9719853 
7.161996e+2, 1.3858902e+2, -1474760.9, -1601982.3, 969.6779, 0.002221366, -0.019966204, -1474753.4, 107056.3, 0.0, 5.053977, 4.9706297 
7.161039e+2, 1.4355887e+2, -1434945.8, -1560923.1, -878.7409, 0.0077345846, -0.008195471, -1434939.6, 98167.805, 0.0, 5.0516186, 4.969136 
7.160067e+2, 1.4852725e+2, -1392970.5, -1515484.1, -888.3989, 0.009748453, -0.009791966, -1392964.1, 91454.99, 0.0, 5.04929, 4.9691324 
7.1590954e+2, 1.5349562e+2, -1350955.8, -1470003.3, -898.279, 0.011739966, -0.011512349, -1350949.0, 84781.84, 0.0, 5.0469623, 4.9691286 
7.158124e+2, 1.5846395e+2, -1310266.6, -1427393.9, -1126.3594, 0.013718964, -0.012782179, -1310255.8, 76787.016, 0.0, 5.0446415, 4.9681487 
7.157139e+2, 1.6343045e+2, -1270839.0, -1388235.9, -2454.564, 0.01628485, -0.007554229, -1270787.6, 67584.96, 0.0, 5.042468, 4.965929 
7.156146e+2, 1.6839565e+2, -1228058.9, -1342195.5, -2458.377, 0.019158559, -0.009006037, -1228006.0, 61708.883, 0.0, 5.040338, 4.96597 
7.1551543e+2, 1.7336087e+2, -1185303.8, -1296245.8, -2451.6719, 0.021972176, -0.010366441, -1185249.6, 55807.414, 0.0, 5.038208, 4.9659677 
7.154162e+2, 1.7832612e+2, -1143639.0, -1252674.9, -2522.8892, 0.024653526, -0.011173859, -1143580.6, 48818.465, 0.0, 5.036081, 4.9651527 
7.153158e+2, 1.8328959e+2, -1104798.9, -1215307.5, -3249.7598, 0.02426843, -0.0024089012, -1104703.4, 39055.586, 0.0, 5.03397, 4.962213 
7.152148e+2, 1.8825155e+2, -1061665.8, -1168788.1, -3174.4736, 0.022445086, 0.000053831798, -1061571.9, 33562.01, 0.0, 5.031862, 4.962344 
7.151138e+2, 1.9321354e+2, -1018680.4, -1122628.4, -3115.8447, 0.020612827, 0.0025309967, -1018587.06, 27921.672, 0.0, 5.0297546, 4.962341 
7.150129e+2, 1.981755e+2, -976488.4, -1078220.9, -3024.9922, 0.018776018, 0.005325024, -976398.5, 21485.164, 0.0, 5.0276484, 4.961729 
7.149115e+2, 2.031352e+2, -937832.25, -1041770.75, -3542.472, 0.01741838, 0.012054787, -937711.6, 11568.537, 0.0, 5.025587, 4.9583616 
7.1480983e+2, 2.0809288e+2, -894231.06, -994719.75, -3599.3792, 0.016687926, 0.009041768, -894102.3, 6593.853, 0.0, 5.0235434, 4.958584 
7.1470815e+2, 2.1305057e+2, -850893.8, -948281.44, -3663.797, 0.015969018, 0.0059736804, -850756.2, 1355.9258, 0.0, 5.0215006, 4.958585 
7.1460646e+2, 2.1800825e+2, -808165.7, -903210.6, -3703.8342, 0.015248303, 0.0031013393, -808021.56, -4493.5933, 0.0, 5.019458, 4.9581027 
7.145046e+2, 2.2296433e+2, -769362.2, -866790.1, -3916.7708, 0.014687883, 0.010446815, -769205.0, -14245.918, 0.0, 5.0174136, 4.954628 
7.1440226e+2, 2.2791865e+2, -725470.0, -819216.56, -3932.1348, 0.014659304, 0.010081671, -725305.3, -18898.463, 0.0, 5.015356, 4.954978 
7.1430004e+2, 2.32873e+2, -682020.8, -772635.44, -3858.3438, 0.0145916315, 0.009674637, -681856.8, -24002.139, 0.0, 5.0132966, 4.954974 
7.141978e+2, 2.378273e+2, -639192.5, -727469.2, -3741.898, 0.01447171, 0.009359817, -639034.2, -29731.621, 0.0, 5.011238, 4.954466 
7.140958e+2, 2.4277933e+2, -600800.94, -692182.06, -3332.3027, 0.013548251, 0.015810838, -600679.56, -39906.98, 0.0, 5.0091805, 4.950492 
7.1399343e+2, 2.4772942e+2, -556575.56, -643946.4, -3449.1506, 0.011776665, 0.012186011, -556439.6, -44178.34, 0.0, 5.007103, 4.9510193 
7.13891e+2, 2.526795e+2, -513023.22, -597211.4, -3399.4956, 0.009997882, 0.008230125, -512886.16, -49136.086, 0.0, 5.0050216, 4.951016 
7.1378875e+2, 2.5762954e+2, -469686.47, -551003.06, -3343.4165, 0.008220572, 0.00425187, -469549.22, -54310.24, 0.0, 5.0029407, 4.9508142 
7.1368676e+2, 2.625774e+2, -432440.94, -518575.4, -2663.8076, 0.0068000406, 0.013513945, -432358.63, -65609.65, 0.0, 5.0008755, 4.945735 
7.135848e+2, 2.6752374e+2, -386836.84, -467430.22, -2801.6748, 0.0051422403, 0.010302688, -386739.6, -68465.88, 0.0, 4.9988036, 4.947213 
7.134828e+2, 2.7247003e+2, -343105.84, -420505.6, -2739.678, 0.0034246051, 0.005775858, -343009.0, -73210.13, 0.0, 4.996726, 4.94721 
7.133809e+2, 2.774163e+2, -299397.28, -373676.53, -2674.9363, 0.0016868443, 0.0012916639, -299301.1, -77977.03, 0.0, 4.9946494, 4.9471593 
7.132789e+2, 2.8235933e+2, -264036.7, -345217.72, -2747.843, 0.001704595, 0.0072822883, -263943.78, -91062.52, 0.0, 4.9924397, 4.9406385 
7.1317637e+2, 2.8730097e+2, -218432.66, -292778.94, -2884.1763, 0.0038670949, 0.002910236, -218320.94, -93867.54, 0.0, 4.9900894, 4.942644 
7.1307397e+2, 2.922426e+2, -175283.97, -245975.6, -2721.9202, 0.006026577, -0.0022701237, -175179.31, -99154.02, 0.0, 4.987735, 4.942646 
7.1297157e+2, 2.971842e+2, -132094.38, -199128.36, -2559.443, 0.008164026, -0.007420576, -131996.8, -104399.586, 0.0, 4.985381, 4.942648 
7.1287096e+2, 3.0214223e+2, -75428.08, -89363.95, -1552.7142, 0.014882185, 0.006562031, -75257.17, -75257.17, 0.0, 4.983241, 4.9742513 
7.12774e+2, 3.0711865e+2, -76994.13, -83489.57, -1497.6152, 0.028360784, 0.0057518636, -76665.46, -76665.46, 0.0, 4.981392, 4.977177 
7.126772e+2, 3.12095e+2, -81993.52, -85681.875, -1947.7266, 0.042088594, 0.0020056674, -81155.42, -81155.42, 0.0, 4.9795475, 4.9771757 
7.125804e+2, 3.1707135e+2, -86992.805, -87878.86, -2398.6538, 0.056106932, -0.0021508248, -84996.6, -84996.6, 0.0, 4.9777007, 4.9771743 
7.2154224e+2, 1.2376721e+2, -1597077.1, -1732906.3, 849.4165, -0.020588435, -0.030746683, -1597071.8, 129984.016, 0.0, 5.0613213, 4.972107 
7.214457e+2, 1.2873878e+2, -1555624.4, -1687836.0, 854.86365, -0.0128357, -0.028010463, -1555618.8, 122718.63, 0.0, 5.0588784, 4.9721003 
7.213492e+2, 1.3371032e+2, -1514198.3, -1642756.1, 863.4125, -0.0050966656, -0.02505605, -1514192.4, 115426.586, 0.0, 5.056413, 4.9720936 
7.212527e+2, 1.3868187e+2, -1474705.6, -1601646.3, 821.35175, 0.0025428724, -0.020781826, -1474700.3, 106200.56, 0.0, 5.0539293, 4.9707627 
7.2115475e+2, 1.4365184e+2, -1434886.5, -1560705.1, -880.69495, 0.008716537, -0.008776679, -1434880.3, 97317.22, 0.0, 5.051598, 4.9692183 
7.2105515e+2, 1.4862043e+2, -1392897.4, -1515258.5, -878.7781, 0.010988959, -0.008781108, -1392891.0, 90616.414, 0.0, 5.0492754, 4.9692144 
7.209557e+2, 1.53589e+2, -1350879.9, -1469775.9, -876.3525, 0.01322718, -0.008804295, -1350873.4, 83944.05, 0.0, 5.04695, 4.9692106 
7.2085625e+2, 1.5855755e+2, -1310197.9, -1427173.9, -1065.3856, 0.015433676, -0.008294479, -1310188.1, 75939.47, 0.0, 5.0446277, 4.96823 
7.2075564e+2, 1.6352408e+2, -1270745.8, -1387982.8, -2307.8152, 0.01836976, -0.0031646187, -1270700.3, 66756.664, 0.0, 5.0424542, 4.9660225 
7.206543e+2, 1.6848919e+2, -1227997.8, -1342014.8, -2367.4934, 0.021816153, -0.005923577, -1227948.6, 60851.254, 0.0, 5.0403237, 4.96604 
7.20553e+2, 1.734543e+2, -1185255.0, -1296076.4, -2430.2896, 0.02526681, -0.008662083, -1185201.6, 54941.19, 0.0, 5.0381894, 4.9660373 
7.2045165e+2, 1.7841941e+2, -1143595.8, -1252487.5, -2588.5144, 0.028619703, -0.010883809, -1143534.3, 47951.445, 0.0, 5.0360546, 4.9652324 
7.203492e+2, 1.8338291e+2, -1104608.3, -1214877.0, -3340.9907, 0.028389808, -0.002853832, -1104507.1, 38337.668, 0.0, 5.0339594, 4.962368 
7.20246e+2, 1.8834494e+2, -1061431.4, -1168388.4, -3349.316, 0.026506387, -0.0008773954, -1061326.6, 32891.94, 0.0, 5.0318766, 4.9624777 
7.2014296e+2, 1.9330698e+2, -1018392.44, -1122204.9, -3367.6055, 0.024599163, 0.0011431059, -1018283.3, 27308.887, 0.0, 5.029788, 4.962475 
7.200399e+2, 1.9826901e+2, -976195.25, -1077843.9, -3346.622, 0.022663794, 0.0035288362, -976085.2, 20880.734, 0.0, 5.0276947, 4.961842 
7.1993643e+2, 2.0322879e+2, -937694.9, -1041723.75, -3871.783, 0.020837607, 0.010818762, -937550.94, 10810.791, 0.0, 5.025632, 4.9583626 
7.198326e+2, 2.0818652e+2, -894127.8, -994724.3, -3954.5332, 0.019316396, 0.008756577, -893972.56, 5805.1826, 0.0, 5.023582, 4.95857 
7.1972877e+2, 2.1314426e+2, -850811.6, -948299.9, -4053.0286, 0.017804015, 0.0066058817, -850643.44, 550.3229, 0.0, 5.0215316, 4.95857 
7.19625e+2, 2.1810201e+2, -808068.56, -903153.8, -4129.7266, 0.016294526, 0.004626678, -807889.56, -5279.8726, 0.0, 5.0194798, 4.958119 
7.1952105e+2, 2.2305812e+2, -769035.4, -866266.75, -4418.658, 0.015920222, 0.011547988, -768835.0, -14794.817, 0.0, 5.0174417, 4.9548025 
7.194168e+2, 2.2801244e+2, -725136.7, -818746.7, -4522.653, 0.016795278, 0.009775518, -724918.7, -19431.176, 0.0, 5.0153975, 4.955129 
7.193126e+2, 2.3296677e+2, -681660.56, -772155.0, -4534.7207, 0.017652892, 0.00797247, -681433.94, -24499.068, 0.0, 5.0133486, 4.955126 
7.192084e+2, 2.3792109e+2, -638828.0, -727008.4, -4491.263, 0.01846123, 0.0062814075, -638599.8, -30217.629, 0.0, 5.011296, 4.954609 
7.191043e+2, 2.4287328e+2, -600414.9, -691664.8, -4162.1196, 0.017637946, 0.012977612, -600225.44, -40374.84, 0.0, 5.0092363, 4.9506555 
7.189998e+2, 2.4782361e+2, -556238.3, -643513.5, -4335.7046, 0.01548296, 0.010652627, -556023.5, -44686.367, 0.0, 5.007153, 4.9511576 
7.188953e+2, 2.5277394e+2, -512709.03, -596791.75, -4332.4263, 0.013314205, 0.008006253, -512486.38, -49662.59, 0.0, 5.005064, 4.9511538 
7.187909e+2, 2.577243e+2, -469398.9, -550594.25, -4316.2646, 0.01114444, 0.005340359, -469170.1, -54859.535, 0.0, 5.002973, 4.9509535 
7.186868e+2, 2.626723e+2, -432091.72, -518056.0, -3664.6873, 0.009199357, 0.014977998, -431935.75, -66116.734, 0.0, 5.000911, 4.9459124 
7.185827e+2, 2.6761872e+2, -386499.44, -466960.94, -3861.4822, 0.006803631, 0.011144648, -386314.56, -68971.4, 0.0, 4.9988427, 4.9473724 
7.1847856e+2, 2.725651e+2, -342778.2, -420043.3, -3836.0896, 0.004334189, 0.005977944, -342588.2, -73720.414, 0.0, 4.9967623, 4.947369 
7.183745e+2, 2.7751145e+2, -299102.22, -373240.25, -3794.951, 0.0018310137, 0.00084291556, -298908.47, -78516.06, 0.0, 4.9946756, 4.9473143 
7.182702e+2, 2.824547e+2, -263502.88, -344359.53, -4130.9507, 0.0014551824, 0.006907036, -263292.38, -91344.99, 0.0, 4.992489, 4.940934 
7.181654e+2, 2.8739664e+2, -217794.56, -291915.16, -4272.8096, 0.0035293177, 0.0030385035, -217549.06, -94033.24, 0.0, 4.990183, 4.9429235 
7.1806055e+2, 2.9233858e+2, -174596.98, -245094.44, -4131.457, 0.0055911164, -0.0016168825, -174355.69, -99271.625, 0.0, 4.9878473, 4.942925 
7.179558e+2, 2.9728055e+2, -131429.4, -198260.78, -3992.8938, 0.0076178857, -0.006230486, -131191.69, -104539.37, 0.0, 4.985487, 4.9429264 
7.178531e+2, 3.0223846e+2, -75801.164, -90625.18, -2554.3774, 0.013613012, 0.0075695524, -75373.36, -75373.36, 0.0, 4.983288, 4.973783 
7.177541e+2, 3.0721423e+2, -77824.305, -85081.42, -2492.0652, 0.02524993, 0.0049215276, -77050.95, -77050.95, 0.0, 4.981296, 4.9766517 
7.176553e+2, 3.121899e+2, -83259.984, -87478.11, -2846.539, 0.036899332, -0.00063985464, -81826.32, -81826.32, 0.0, 4.9792953, 4.9766455 
7.1755654e+2, 3.1716558e+2, -88576.87, -89835.12, -3200.7957, 0.048630923, -0.0065532057, -85943.95, -85943.95, 0.0, 4.9773355, 4.9766374 
7.266028e+2, 1.23866715e+2, -1592015.0, -1729677.3, 4249.744, -0.02646919, -0.02197386, -1591883.9, 134202.47, 0.0, 5.062952, 4.9723434 
7.2650397e+2, 1.2883815e+2, -1550880.6, -1684765.0, 4315.235, -0.01649717, -0.021540964, -1550741.6, 126626.805, 0.0, 5.0604057, 4.972338 
7.2640514e+2, 1.3380957e+2, -1509703.5, -1639808.1, 4382.262, -0.006542732, -0.020908622, -1509556.0, 119094.484, 0.0, 5.05786, 4.9723334 
7.263064e+2, 1.38781e+2, -1470320.5, -1598638.3, 4431.0444, 0.0032558602, -0.01893045, -1470167.6, 109765.1, 0.0, 5.055318, 4.9710526 
7.2620606e+2, 1.4375103e+2, -1430684.4, -1557886.6, 2915.7927, 0.010305342, -0.0076593584, -1430617.6, 100610.625, 0.0, 5.052946, 4.969467 
7.2610426e+2, 1.4871973e+2, -1388877.6, -1512527.6, 2999.3982, 0.012916323, -0.007432434, -1388805.0, 93731.555, 0.0, 5.0505652, 4.9694653 
7.260025e+2, 1.5368845e+2, -1347030.4, -1467126.5, 3083.4736, 0.015484556, -0.0071725613, -1346951.4, 86893.53, 0.0, 5.048185, 4.969464 
7.2590077e+2, 1.5865713e+2, -1306468.9, -1424525.3, 2992.8115, 0.017978748, -0.00637623, -1306393.0, 78760.28, 0.0, 5.0458126, 4.9685097 
7.257978e+2, 1.6362377e+2, -1267266.9, -1385657.6, 1998.4487, 0.020355474, -0.0012461649, -1267233.1, 69248.445, 0.0, 5.043598, 4.966215 
7.2569424e+2, 1.685889e+2, -1224651.3, -1339796.1, 2017.2386, 0.02282837, -0.0037468302, -1224615.9, 63208.14, 0.0, 5.041434, 4.9662156 
7.2559065e+2, 1.7355406e+2, -1182003.3, -1293906.0, 2035.8839, 0.025353055, -0.006259956, -1181966.3, 57200.387, 0.0, 5.03927, 4.966213 
7.254871e+2, 1.7851922e+2, -1140395.1, -1250298.1, 1950.7521, 0.02785379, -0.008316745, -1140360.5, 50148.527, 0.0, 5.0371103, 4.9654293 
7.253825e+2, 1.8348268e+2, -1101437.9, -1212666.1, 1338.6327, 0.027934114, -0.0012213411, -1101421.8, 40446.313, 0.0, 5.0350018, 4.9625773 
7.252774e+2, 1.884446e+2, -1058290.0, -1166232.1, 1366.0416, 0.026914703, -0.0007873005, -1058272.8, 34969.73, 0.0, 5.0329204, 4.9626713 
7.2517234e+2, 1.9340649e+2, -1015236.9, -1120042.6, 1381.2256, 0.025859233, -0.00028605678, -1015218.6, 29398.12, 0.0, 5.03084, 4.96267 
7.2506726e+2, 1.9836843e+2, -972993.44, -1075635.9, 1433.3508, 0.024753626, 0.0006200501, -972973.44, 23017.564, 0.0, 5.02876, 4.9620495 
7.2496176e+2, 2.0332825e+2, -934620.56, -1039648.5, 1008.5205, 0.02310842, 0.007964284, -934610.9, 12775.431, 0.0, 5.026674, 4.958535 
7.248558e+2, 2.0828609e+2, -891198.75, -992765.5, 1029.7993, 0.021440951, 0.0071162577, -891188.3, 7612.9937, 0.0, 5.0245857, 4.9587235 
7.2474986e+2, 2.1324393e+2, -847994.3, -946399.9, 1024.7345, 0.019778408, 0.0061834385, -847983.6, 2232.757, 0.0, 5.022499, 4.958723 
7.2464406e+2, 2.1820177e+2, -805317.75, -901229.1, 1046.1902, 0.018129025, 0.005374539, -805306.3, -3674.8599, 0.0, 5.0204134, 4.958298 
7.24538e+2, 2.2315788e+2, -766330.4, -864338.9, 822.6995, 0.017612154, 0.012024851, -766323.44, -13261.608, 0.0, 5.018361, 4.9549885 
7.244317e+2, 2.281121e+2, -722468.6, -816897.5, 690.31464, 0.018125089, 0.009393787, -722463.56, -17953.533, 0.0, 5.016319, 4.95529 
7.243254e+2, 2.3306632e+2, -678981.6, -770300.56, 640.45435, 0.018680291, 0.00671369, -678977.1, -23018.938, 0.0, 5.014275, 4.955289 
7.242192e+2, 2.3802054e+2, -636117.75, -725118.25, 641.41754, 0.01924552, 0.0041373065, -636113.1, -28706.807, 0.0, 5.0122313, 4.954783 
7.24113e+2, 2.4297276e+2, -597723.44, -689621.06, 930.31934, 0.018345086, 0.0106312735, -597714.0, -38839.688, 0.0, 5.010138, 4.9508986 
7.2400635e+2, 2.4792317e+2, -553752.7, -641627.3, 740.9621, 0.01626923, 0.008526997, -553746.44, -43386.23, 0.0, 5.007997, 4.9513755 
7.238998e+2, 2.5287357e+2, -510385.88, -594981.2, 733.7584, 0.014186906, 0.006148359, -510379.5, -48533.254, 0.0, 5.0058517, 4.951373 
7.2379327e+2, 2.5782397e+2, -467227.1, -548847.3, 741.6073, 0.012119356, 0.003789682, -467220.34, -53888.043, 0.0, 5.0037074, 4.9511776 
7.2368705e+2, 2.6277214e+2, -430067.7, -516244.25, 1420.806, 0.010173578, 0.013905096, -430044.28, -65204.695, 0.0, 5.0015693, 4.946193 
7.2358084e+2, 2.6771873e+2, -384766.56, -465333.97, 1196.9769, 0.0076242355, 0.010784318, -384748.78, -68386.39, 0.0, 4.999409, 4.947632 
7.2347456e+2, 2.7266523e+2, -341285.13, -418522.16, 1213.4563, 0.0050270916, 0.006274004, -341266.1, -73380.305, 0.0, 4.997244, 4.9476304 
7.233683e+2, 2.7761173e+2, -297840.94, -371839.88, 1247.3975, 0.0024277628, 0.0017187031, -297819.9, -78410.68, 0.0, 4.995079, 4.947569 
7.232619e+2, 2.8255516e+2, -261593.61, -342078.6, 973.0093, 0.0017814637, 0.0071429806, -261581.84, -90619.125, 0.0, 4.993014, 4.941447 
7.231549e+2, 2.8749722e+2, -214984.03, -289329.97, 911.64777, 0.003305741, 0.0015846943, -214972.86, -92443.19, 0.0, 4.9910517, 4.9433985 
7.2304785e+2, 2.9243934e+2, -170772.48, -242075.67, 1124.1226, 0.004921449, -0.004699485, -170754.77, -96658.34, 0.0, 4.989086, 4.943397 
7.229409e+2, 2.973814e+2, -126525.63, -194784.39, 1335.7435, 0.006606329, -0.010878328, -126499.51, -100836.34, 0.0, 4.9871206, 4.943396 
7.22836e+2, 3.0233923e+2, -72579.336, -90711.86, 2334.802, 0.011567681, 0.0052159023, -72283.52, -72283.52, 0.0, 4.9848776, 4.9729977 
7.227346e+2, 3.073147e+2, -75734.125, -85643.914, 1452.507, 0.021058485, 0.009416381, -75525.61, -75525.61, 0.0, 4.9824867, 4.975856 
7.226333e+2, 3.1229013e+2, -82170.68, -88307.09, 138.33951, 0.030783793, 0.010858136, -82167.56, -82167.56, 0.0, 4.980106, 4.9759073 
7.225321e+2, 3.172657e+2, -88770.9, -91044.695, -1127.7919, 0.040850252, 0.012127937, -88306.41, -88306.41, 0.0, 4.9776645, 4.975959 
7.316642e+2, 1.239689e+2, -1591675.6, -1729255.9, 2335.83, -0.032617114, -0.012980132, -1591636.0, 133454.83, 0.0, 5.0629754, 4.9724884 
7.31563e+2, 1.2894024e+2, -1550546.8, -1684344.3, 2404.3948, -0.020280348, -0.014875354, -1550503.6, 125869.305, 0.0, 5.0604277, 4.9724846 
7.3146194e+2, 1.339116e+2, -1509375.3, -1639388.1, 2474.495, -0.008017611, -0.01654546, -1509328.1, 118326.83, 0.0, 5.05788, 4.9724803 
7.313608e+2, 1.3888294e+2, -1469937.9, -1598085.6, 2560.0916, 0.003947362, -0.016757192, -1469886.8, 109050.28, 0.0, 5.055336, 4.971244 
7.312581e+2, 1.438531e+2, -1430364.6, -1557425.8, 1129.7413, 0.011781092, -0.006035584, -1430354.6, 99876.03, 0.0, 5.0529604, 4.969629 
7.3115396e+2, 1.48822e+2, -1388560.6, -1512068.3, 1214.5055, 0.014743602, -0.005701846, -1388548.6, 92988.17, 0.0, 5.050579, 4.969627 
7.310499e+2, 1.5379086e+2, -1346716.0, -1466668.5, 1299.7373, 0.017651973, -0.005333978, -1346702.0, 86141.11, 0.0, 5.048198, 4.9696255 
7.3094577e+2, 1.5875971e+2, -1306117.0, -1423982.5, 1225.2726, 0.020431872, -0.0044737854, -1306104.3, 78045.2, 0.0, 5.045825, 4.9687004 
7.3084044e+2, 1.6372652e+2, -1267073.5, -1385418.3, 361.55093, 0.022124695, 0.00073649356, -1267072.4, 68403.74, 0.0, 5.043608, 4.9663043 
7.3073465e+2, 1.6869178e+2, -1224464.9, -1339569.1, 381.1242, 0.023429764, -0.0013779502, -1224463.6, 62353.78, 0.0, 5.0414433, 4.9663014 
7.306288e+2, 1.7365706e+2, -1181818.9, -1293680.9, 400.61606, 0.0247688, -0.0034919942, -1181817.4, 56341.28, 0.0, 5.039279, 4.9662986 
7.3052293e+2, 1.7862235e+2, -1140185.5, -1250019.1, 304.4283, 0.026103389, -0.0051625976, -1140184.6, 49315.34, 0.0, 5.0371194, 4.965533 
7.3041624e+2, 1.8358584e+2, -1101246.3, -1212412.9, -238.18118, 0.026501328, 0.0010614599, -1101245.8, 39612.625, 0.0, 5.03501, 4.962672 
7.303092e+2, 1.8854766e+2, -1058121.4, -1166026.9, -212.19191, 0.026454063, -0.00013286887, -1058121.0, 34111.992, 0.0, 5.0329285, 4.9627504 
7.302021e+2, 1.9350947e+2, -1015069.94, -1119839.4, -196.37524, 0.026353808, -0.0012438683, -1015069.56, 28538.0, 0.0, 5.030848, 4.9627485 
7.300951e+2, 1.9847131e+2, -972811.94, -1075401.6, -151.2832, 0.02616739, -0.0018946304, -972811.75, 22170.28, 0.0, 5.0287676, 4.962139 
7.2998744e+2, 2.0343125e+2, -934450.0, -1039454.0, -590.5071, 0.024784563, 0.0054075196, -934446.7, 11929.53, 0.0, 5.026684, 4.958611 
7.298794e+2, 2.0838924e+2, -891063.2, -992643.25, -557.22076, 0.023179336, 0.0055824425, -891060.1, 6729.5703, 0.0, 5.0245953, 4.9587755 
7.2977144e+2, 2.1334723e+2, -847860.2, -946279.3, -561.62775, 0.021571264, 0.005693652, -847857.0, 1346.2813, 0.0, 5.0225086, 4.9587746 
7.296635e+2, 2.183052e+2, -805162.2, -901062.4, -536.87177, 0.019974336, 0.005887646, -805159.2, -4542.3535, 0.0, 5.0204234, 4.9583654 
7.295554e+2, 2.2326139e+2, -766215.75, -864282.25, -742.4362, 0.019162564, 0.012405406, -766210.2, -14163.542, 0.0, 5.0183744, 4.955016 
7.2944695e+2, 2.2821555e+2, -722393.2, -816926.3, -871.1779, 0.01891222, 0.009198158, -722385.2, -18889.871, 0.0, 5.016332, 4.9552884 
7.293386e+2, 2.331697e+2, -678906.8, -770331.0, -920.4227, 0.01868642, 0.0059487526, -678897.56, -23953.607, 0.0, 5.0142884, 4.955287 
7.292302e+2, 2.3812386e+2, -636020.25, -725097.06, -924.0627, 0.018456018, 0.0028271794, -636010.7, -29618.063, 0.0, 5.0122437, 4.9547997 
7.2912186e+2, 2.4307613e+2, -597528.25, -689398.44, -705.1589, 0.017352749, 0.008994974, -597522.9, -39662.695, 0.0, 5.010153, 4.9509854 
7.2901314e+2, 2.4802658e+2, -553588.44, -641477.06, -900.5404, 0.015511712, 0.0065944507, -553579.2, -44233.58, 0.0, 5.008012, 4.9514375 
7.289044e+2, 2.52977e+2, -510221.8, -594833.0, -907.5528, 0.013645755, 0.003925878, -510212.1, -49380.844, 0.0, 5.005867, 4.951435 
7.2879577e+2, 2.5792742e+2, -467056.0, -548685.25, -892.2808, 0.011781582, 0.0012770724, -467046.25, -54729.35, 0.0, 5.003723, 4.9512444 
7.286875e+2, 2.6287577e+2, -429807.7, -515897.4, -225.81009, 0.010085252, 0.01178962, -429807.1, -65984.32, 0.0, 5.0015874, 4.9463234 
7.285791e+2, 2.6782256e+2, -384539.16, -465065.16, -464.58932, 0.007802577, 0.009809613, -384536.47, -69192.82, 0.0, 4.999428, 4.9477353 
7.284707e+2, 2.7276927e+2, -341058.63, -418255.44, -448.19736, 0.005458912, 0.0064740186, -341056.03, -74190.94, 0.0, 4.9972625, 4.9477334 
7.283623e+2, 2.77716e+2, -297602.97, -371547.28, -432.54434, 0.0030992252, 0.003090567, -297600.44, -79213.82, 0.0, 4.995098, 4.9476814 
7.282538e+2, 2.8265962e+2, -260974.8, -341005.16, -544.7405, 0.002184961, 0.0074006715, -260971.1, -91032.4, 0.0, 4.9930453, 4.9418316 
7.281447e+2, 2.876017e+2, -214398.6, -288337.06, -609.85345, 0.002905936, -0.0010718305, -214393.56, -92888.68, 0.0, 4.991084, 4.9437566 
7.280357e+2, 2.925439e+2, -170191.31, -241089.11, -395.90836, 0.0037060496, -0.010247553, -170189.11, -97118.19, 0.0, 4.9891186, 4.9437547 
7.279266e+2, 2.9748604e+2, -125948.72, -193804.14, -182.8189, 0.0045513217, -0.019287635, -125948.23, -101311.33, 0.0, 4.9871526, 4.9437532 
7.278194e+2, 3.0244374e+2, -74220.01, -94888.555, 518.1544, 0.007634675, 0.0011990159, -74207.02, -74207.02, 0.0, 4.984907, 4.971494 
7.2771525e+2, 3.0741882e+2, -77383.86, -89919.29, -347.5221, 0.013590245, 0.01724924, -77374.234, -77374.234, 0.0, 4.982528, 4.9743123 
7.2761124e+2, 3.1239387e+2, -83797.49, -92574.87, -1639.2563, 0.019642701, 0.030420724, -83501.34, -83501.34, 0.0, 4.980155, 4.974364 
7.275074e+2, 3.1736898e+2, -90215.47, -95236.055, -2937.6, 0.025904043, 0.0433082, -88861.69, -88861.69, 0.0, 4.97778, 4.974416 
7.367255e+2, 1.2407109e+2, -1591335.9, -1728835.5, 420.49756, -0.038647007, -0.0038906347, -1591334.6, 132760.53, 0.0, 5.063, 4.972633 
7.366221e+2, 1.2904234e+2, -1550212.6, -1683924.5, 492.1356, -0.023948848, -0.008183094, -1550210.8, 125166.484, 0.0, 5.0604506, 4.9726295 
7.365186e+2, 1.3401361e+2, -1509046.5, -1638969.0, 565.3078, -0.009381177, -0.012224644, -1509044.1, 117615.26, 0.0, 5.0579014, 4.9726257 
7.3641515e+2, 1.3898487e+2, -1469570.1, -1597566.0, 687.7262, 0.004720562, -0.01464696, -1469566.4, 108374.94, 0.0, 5.0553546, 4.971424 
7.363102e+2, 1.439552e+2, -1430044.0, -1556966.1, -656.87976, 0.013243502, -0.004320076, -1430040.6, 99192.3, 0.0, 5.052975, 4.9697895 
7.362037e+2, 1.4892426e+2, -1388242.6, -1511610.1, -570.95624, 0.016563565, -0.003930135, -1388240.0, 92297.016, 0.0, 5.0505934, 4.969788 
7.3609716e+2, 1.5389329e+2, -1346400.9, -1466211.9, -484.56754, 0.019818088, -0.0035048032, -1346398.9, 85442.38, 0.0, 5.0482125, 4.9697866 
7.359907e+2, 1.5886232e+2, -1305785.1, -1423484.8, -542.2442, 0.022882102, -0.002610657, -1305782.6, 77362.984, 0.0, 5.0458384, 4.9688764 
7.358831e+2, 1.6382927e+2, -1266884.1, -1385190.5, -1275.1165, 0.02385353, 0.0027971258, -1266870.4, 67600.15, 0.0, 5.0436187, 4.966389 
7.3577493e+2, 1.6879466e+2, -1224277.6, -1339343.3, -1254.6956, 0.023992954, 0.0010323457, -1224263.9, 61546.76, 0.0, 5.0414534, 4.9663863 
7.356669e+2, 1.7376007e+2, -1181633.6, -1293456.9, -1234.357, 0.02414851, -0.0007191476, -1181620.0, 55530.82, 0.0, 5.039289, 4.9663835 
7.3555875e+2, 1.7872547e+2, -1139997.4, -1249791.4, -1350.3616, 0.02432925, -0.0020308765, -1139980.8, 48510.05, 0.0, 5.0371294, 4.965619 
7.3545e+2, 1.8368898e+2, -1101040.4, -1212130.9, -1804.8375, 0.025099019, 0.0033197706, -1101011.1, 38837.508, 0.0, 5.0350184, 4.9627767 
7.3534095e+2, 1.8865071e+2, -1057951.9, -1165822.9, -1790.213, 0.026026845, 0.00046854094, -1057922.1, 33301.348, 0.0, 5.032937, 4.9628286 
7.352319e+2, 1.9361246e+2, -1014902.06, -1119637.3, -1773.7635, 0.026884902, -0.0022836763, -1014872.0, 27726.33, 0.0, 5.030856, 4.9628267 
7.351228e+2, 1.9857422e+2, -972638.44, -1075188.4, -1734.9724, 0.0276091, -0.0044786283, -972609.06, 21363.951, 0.0, 5.0287766, 4.9622216 
7.350131e+2, 2.0353425e+2, -934279.94, -1039263.94, -2188.1458, 0.026457667, 0.0029418713, -934234.4, 11131.691, 0.0, 5.026695, 4.9586854 
7.3490304e+2, 2.0849238e+2, -890926.6, -992522.2, -2143.991, 0.024921264, 0.0041030194, -890881.4, 5896.651, 0.0, 5.0246058, 4.9588265 
7.3479295e+2, 2.1345054e+2, -847725.06, -946160.0, -2147.7402, 0.023373537, 0.005220162, -847678.25, 511.87344, 0.0, 5.0225186, 4.9588256 
7.346829e+2, 2.1840866e+2, -805015.9, -900919.7, -2113.2522, 0.02182485, 0.006380295, -804969.4, -5367.1885, 0.0, 5.020434, 4.9584246 
7.3457277e+2, 2.2336489e+2, -766104.7, -864236.7, -2309.5867, 0.020656137, 0.012828426, -766050.4, -15018.978, 0.0, 5.0183883, 4.95504 
7.344622e+2, 2.28319e+2, -722316.8, -816956.3, -2432.049, 0.019650368, 0.009015852, -722254.4, -19773.799, 0.0, 5.0163455, 4.9552865 
7.343517e+2, 2.332731e+2, -678831.06, -770362.6, -2480.6787, 0.018651975, 0.0051662857, -678763.94, -24834.162, 0.0, 5.014302, 4.9552846 
7.342411e+2, 2.382272e+2, -635921.56, -725076.7, -2491.7083, 0.017636087, 0.001478385, -635852.0, -30473.107, 0.0, 5.012257, 4.9548154 
7.3413074e+2, 2.431795e+2, -597335.44, -689184.75, -2337.7153, 0.016362954, 0.0073699486, -597276.0, -40430.047, 0.0, 5.010168, 4.9510694 
7.340199e+2, 2.4812998e+2, -553423.0, -641328.0, -2541.273, 0.014765946, 0.0046528927, -553349.6, -45018.61, 0.0, 5.0080276, 4.9514995 
7.339091e+2, 2.5308043e+2, -510056.66, -594686.0, -2548.0938, 0.013124611, 0.0016728467, -509980.0, -50163.758, 0.0, 5.005883, 4.9514966 
7.3379827e+2, 2.580309e+2, -466882.4, -548521.2, -2523.5605, 0.011469822, -0.0012815337, -466804.47, -55502.945, 0.0, 5.0037394, 4.951312 
7.336879e+2, 2.629794e+2, -429550.84, -515561.06, -1871.6447, 0.010002968, 0.009749901, -429510.13, -66704.23, 0.0, 5.001606, 4.94645 
7.335773e+2, 2.679264e+2, -384310.63, -464797.56, -2125.616, 0.007989458, 0.008905576, -384254.53, -69929.695, 0.0, 4.999447, 4.9478383 
7.334668e+2, 2.7287334e+2, -340831.0, -417989.94, -2109.311, 0.00590338, 0.0067306804, -340773.4, -74929.06, 0.0, 4.997282, 4.9478364 
7.3335624e+2, 2.778203e+2, -297357.28, -371242.25, -2095.3967, 0.0037882943, 0.0044908817, -297297.9, -79933.96, 0.0, 4.9951177, 4.9477987 
7.332457e+2, 2.8276402e+2, -260363.45, -339948.7, -2062.97, 0.0025434871, 0.0075553544, -260310.02, -91395.3, 0.0, 4.9930773, 4.9422107 
7.3313457e+2, 2.877062e+2, -213813.31, -287344.4, -2129.9563, 0.002457177, -0.0038693445, -213751.67, -93271.51, 0.0, 4.991117, 4.9441147 
7.3302346e+2, 2.9264843e+2, -169610.3, -240102.8, -1914.5417, 0.0024375, -0.015973423, -169558.34, -97512.875, 0.0, 4.989151, 4.944112 
7.329124e+2, 2.9759064e+2, -125500.445, -193120.73, -1724.2113, 0.0024353478, -0.02790254, -125456.51, -101845.805, 0.0, 4.987185, 4.9440036 
7.328028e+2, 3.0254826e+2, -75885.94, -99120.53, -1268.5022, 0.0035712514, -0.002235074, -75816.89, -75816.89, 0.0, 4.984938, 4.9699697 
7.32696e+2, 3.0752292e+2, -79035.9, -94194.6, -2145.0325, 0.005894602, 0.025162432, -78738.21, -78738.21, 0.0, 4.982571, 4.9727664 
7.325893e+2, 3.1249756e+2, -85426.66, -96842.555, -3414.3213, 0.008175091, 0.049545027, -84483.414, -84483.414, 0.0, 4.9802055, 4.9728184 
7.324827e+2, 3.1747225e+2, -91821.695, -99496.12, -4690.199, 0.01053047, 0.07352281, -89599.02, -89599.02, 0.0, 4.977838, 4.972871 
7.417873e+2, 1.2417384e+2, -1592056.3, -1728735.0, 753.2064, -0.03985431, 0.0037794886, -1592052.0, 131041.41, 0.0, 5.0626755, 4.9728174 
7.4168134e+2, 1.2914507e+2, -1550620.9, -1683694.1, 760.6731, -0.024903476, -0.0018833323, -1550616.6, 123758.63, 0.0, 5.060231, 4.972808 
7.415754e+2, 1.3411629e+2, -1509204.0, -1638638.5, 765.35925, -0.00972754, -0.007513769, -1509199.5, 116457.55, 0.0, 5.057767, 4.972799 
7.4146956e+2, 1.3908753e+2, -1469498.3, -1597071.6, 851.3629, 0.0052088215, -0.011597908, -1469492.5, 107446.37, 0.0, 5.0552835, 4.971622 
7.413621e+2, 1.4405794e+2, -1429864.6, -1556461.4, -463.32147, 0.014003366, -0.0018531482, -1429863.0, 98366.13, 0.0, 5.05295, 4.9699693 
7.412533e+2, 1.4902706e+2, -1387910.9, -1511043.6, -453.6431, 0.017667523, -0.001886392, -1387909.3, 91622.75, 0.0, 5.0506206, 4.969965 
7.411445e+2, 1.539962e+2, -1345940.6, -1465594.8, -444.54, 0.021306872, -0.0018572035, -1345939.0, 84895.92, 0.0, 5.048284, 4.9699607 
7.4103564e+2, 1.5896532e+2, -1305197.8, -1422791.3, -555.28595, 0.024738198, -0.0013215978, -1305195.1, 76942.87, 0.0, 5.045949, 4.9690595 
7.409258e+2, 1.6393238e+2, -1266295.6, -1384636.9, -1179.5607, 0.025152005, 0.004330566, -1266283.9, 67177.48, 0.0, 5.0437593, 4.9665112 
7.4081534e+2, 1.6889791e+2, -1223637.3, -1338770.4, -1182.5161, 0.024356432, 0.0029865818, -1223625.1, 61175.18, 0.0, 5.041613, 4.966507 
7.40705e+2, 1.7386344e+2, -1180961.3, -1292874.4, -1187.1775, 0.023558674, 0.0016488389, -1180948.8, 55190.492, 0.0, 5.0394607, 4.9665027 
7.405947e+2, 1.7882895e+2, -1139294.9, -1249171.9, -1338.7563, 0.022815907, 0.0007347521, -1139278.5, 48199.52, 0.0, 5.0373073, 4.9657497 
7.4048376e+2, 1.8379247e+2, -1100356.3, -1211615.0, -1786.2738, 0.02390366, 0.0054379087, -1100327.5, 38507.793, 0.0, 5.0352106, 4.9628654 
7.4037266e+2, 1.8875411e+2, -1057218.6, -1165312.6, -1873.1292, 0.025600754, 0.0012168712, -1057186.3, 33024.547, 0.0, 5.0331507, 4.962907 
7.402616e+2, 1.9371575e+2, -1014126.9, -1119112.0, -1953.6862, 0.027274864, -0.0029677125, -1014090.5, 27495.686, 0.0, 5.0310845, 4.9629045 
7.401506e+2, 1.9867742e+2, -971831.0, -1074633.9, -2018.3365, 0.028818242, -0.006543556, -971791.44, 21169.938, 0.0, 5.0290117, 4.962307 
7.4003875e+2, 2.0363751e+2, -933432.2, -1038670.4, -2515.8098, 0.027907398, 0.0008925803, -933372.1, 10981.339, 0.0, 5.026941, 4.9587803 
7.3992664e+2, 2.0859577e+2, -890077.3, -991982.56, -2508.508, 0.026514145, 0.00269359, -890015.56, 5748.686, 0.0, 5.0248632, 4.958899 
7.398145e+2, 2.1355401e+2, -846862.4, -945621.44, -2553.3262, 0.025107402, 0.0045018727, -846796.44, 378.6948, 0.0, 5.0227823, 4.958896 
7.397024e+2, 2.1851225e+2, -804160.1, -900397.5, -2549.4182, 0.023677476, 0.006358777, -804092.6, -5506.625, 0.0, 5.020697, 4.9584913 
7.395901e+2, 2.2346853e+2, -765331.5, -863852.06, -2799.6826, 0.022093015, 0.012883252, -765252.06, -15237.238, 0.0, 5.0186424, 4.955064 
7.394774e+2, 2.2842257e+2, -721610.75, -816657.2, -2998.5269, 0.020314174, 0.0086623635, -721516.25, -20051.654, 0.0, 5.016587, 4.9552875 
7.3936474e+2, 2.333766e+2, -678171.7, -770086.25, -3122.3025, 0.018550944, 0.004362066, -678065.75, -25151.383, 0.0, 5.0145264, 4.955286 
7.3925215e+2, 2.3833065e+2, -635292.25, -724769.5, -3209.7693, 0.016780693, 0.00022065843, -635177.25, -30813.184, 0.0, 5.0124617, 4.9548383 
7.391396e+2, 2.4328297e+2, -596631.5, -688708.94, -3191.5977, 0.015387699, 0.005869238, -596521.0, -40690.19, 0.0, 5.0103707, 4.9511533 
7.390266e+2, 2.4823345e+2, -552727.9, -640901.7, -3484.1135, 0.014037854, 0.002783546, -552590.44, -45274.715, 0.0, 5.008236, 4.9515653 
7.389137e+2, 2.531839e+2, -509364.63, -594263.75, -3564.9805, 0.012637895, -0.00055431447, -509215.2, -50414.47, 0.0, 5.00609, 4.9515624 
7.3880076e+2, 2.581344e+2, -466202.25, -548090.75, -3594.6917, 0.011216001, -0.003845595, -466044.75, -55759.023, 0.0, 5.0039396, 4.951385 
7.3868823e+2, 2.6308304e+2, -428818.63, -514975.9, -3013.0537, 0.009951943, 0.007787811, -428713.38, -66924.75, 0.0, 5.001798, 4.9465814 
7.385756e+2, 2.680303e+2, -383637.5, -464291.2, -3325.9397, 0.008198302, 0.00803172, -383500.6, -70194.875, 0.0, 4.999628, 4.9479485 
7.3846287e+2, 2.7297744e+2, -340210.8, -417510.03, -3346.9856, 0.0063748327, 0.0069727087, -340066.16, -75242.82, 0.0, 4.997444, 4.9479465 
7.383503e+2, 2.779246e+2, -296792.94, -370763.38, -3359.1301, 0.004517916, 0.0058275885, -296640.7, -80299.6, 0.0, 4.9952555, 4.9479203 
7.3823756e+2, 2.8286844e+2, -259502.34, -338748.16, -3233.7698, 0.0028784792, 0.0075677694, -259370.61, -91479.9, 0.0, 4.993203, 4.9425936 
7.381244e+2, 2.878107e+2, -213039.36, -286235.03, -3376.3882, 0.001969665, -0.006753713, -212883.94, -93428.56, 0.0, 4.991222, 4.944477 
7.3801124e+2, 2.9275298e+2, -168940.53, -239041.55, -3198.915, 0.0011244757, -0.02177013, -168794.86, -97774.93, 0.0, 4.9892197, 4.944475 
7.378981e+2, 2.9769528e+2, -125196.305, -192632.3, -3105.2668, 0.0002752804, -0.036533784, -125053.62, -102469.23, 0.0, 4.987201, 4.9441867 
7.377861e+2, 3.0265278e+2, -77628.95, -103305.46, -2741.8933, -0.0006011916, -0.0050879, -77339.42, -77339.42, 0.0, 4.9849377, 4.9684696 
7.376766e+2, 3.0762702e+2, -80934.86, -98537.4, -3617.5544, -0.0019796283, 0.03310728, -80220.4, -80220.4, 0.0, 4.9825277, 4.971227 
7.3756725e+2, 3.1260127e+2, -87814.54, -101403.125, -4874.759, -0.003583115, 0.06819312, -86246.68, -86246.68, 0.0, 4.9799833, 4.9712787 
7.3746425e+2, 3.176148e+2, -16268.028, 76342.6, -7239.2075, 0.057328817, 0.4808399, 76905.06, 76905.06, 0.0, 4.977603, 5.038094 
7.468499e+2, 1.2428292e+2, -1587506.6, -1725661.6, 4353.728, -0.035332404, 0.010637323, -1587369.5, 134659.38, 0.0, 5.0641274, 4.9730835 
7.467413e+2, 1.2925419e+2, -1546382.0, -1680782.0, 4419.9927, -0.022004347, 0.0044267806, -1546236.8, 127073.14, 0.0, 5.061582, 4.9730735 
7.466327e+2, 1.3422546e+2, -1505214.6, -1635857.8, 4487.4927, -0.008441484, -0.0017489949, -1505060.6, 119530.484, 0.0, 5.0590377, 4.9730635 
7.4652416e+2, 1.3919675e+2, -1465630.6, -1594242.0, 4668.3735, 0.0048806155, -0.006396946, -1465461.4, 110410.875, 0.0, 5.056493, 4.9719343 
7.464143e+2, 1.4416718e+2, -1426175.6, -1553796.6, 3561.3464, 0.012933634, 0.0021212136, -1426076.4, 101085.31, 0.0, 5.054119, 4.9702473 
7.463031e+2, 1.4913629e+2, -1384276.3, -1508407.0, 3649.8767, 0.01654413, 0.00065219594, -1384169.0, 94295.35, 0.0, 5.0517745, 4.970244 
7.4619204e+2, 1.541054e+2, -1342336.9, -1462975.6, 3738.351, 0.02015775, -0.0007508592, -1342221.3, 87545.91, 0.0, 5.049431, 4.97024 
7.460809e+2, 1.5907449e+2, -1301538.6, -1420041.8, 3733.9453, 0.023586906, -0.0016007831, -1301421.0, 79648.914, 0.0, 5.0470953, 4.969385 
7.4596876e+2, 1.6404168e+2, -1262715.6, -1382020.5, 3334.835, 0.02405152, 0.0038654243, -1262622.5, 69769.2, 0.0, 5.044904, 4.966794 
7.458563e+2, 1.6900738e+2, -1220061.3, -1336159.1, 3412.0193, 0.023339335, 0.002999048, -1219961.0, 63767.73, 0.0, 5.0427604, 4.96679 
7.457437e+2, 1.7397304e+2, -1177369.8, -1290259.0, 3488.922, 0.022618845, 0.0021345573, -1177262.0, 57803.89, 0.0, 5.040617, 4.9667864 
7.456313e+2, 1.7893869e+2, -1135673.8, -1246553.3, 3415.9302, 0.021952948, 0.0016530936, -1135568.6, 50834.496, 0.0, 5.0384784, 4.9660306 
7.4551827e+2, 1.839023e+2, -1096857.8, -1209278.6, 3137.9158, 0.022843326, 0.0065181716, -1096770.3, 40989.45, 0.0, 5.0363927, 4.9630446 
7.454051e+2, 1.8886392e+2, -1053686.9, -1163016.0, 3110.1052, 0.024187628, 0.0025038845, -1053598.4, 35536.906, 0.0, 5.034358, 4.963064 
7.4529195e+2, 1.9382554e+2, -1010510.5, -1116780.4, 3083.6692, 0.025562998, -0.0015232775, -1010421.06, 30089.912, 0.0, 5.032324, 4.9630623 
7.451788e+2, 1.987872e+2, -968045.9, -1072118.0, 3060.8352, 0.026875928, -0.0050314534, -967955.94, 23930.457, 0.0, 5.03029, 4.9625134 
7.45065e+2, 2.0374726e+2, -929521.8, -1036015.5, 2654.6501, 0.026119709, 0.0013935479, -929455.7, 13822.713, 0.0, 5.0282555, 4.9590154 
7.4495083e+2, 2.0870538e+2, -886086.2, -989347.0, 2712.3306, 0.025090475, 0.0018915657, -886015.0, 8674.494, 0.0, 5.0262203, 4.959112 
7.448367e+2, 2.1366353e+2, -842743.94, -942933.8, 2713.5276, 0.02405489, 0.002450293, -842670.5, 3430.1382, 0.0, 5.0241876, 4.9591093 
7.447226e+2, 2.1862167e+2, -799907.3, -897665.7, 2767.0403, 0.02298581, 0.0031163944, -799829.06, -2317.3042, 0.0, 5.0221553, 4.9586997 
7.446082e+2, 2.235779e+2, -761247.2, -861455.56, 2547.1125, 0.021291327, 0.00973752, -761182.5, -12241.725, 0.0, 5.020101, 4.9551554 
7.444934e+2, 2.285319e+2, -717601.9, -814333.06, 2365.467, 0.019128747, 0.006236564, -717544.06, -17152.865, 0.0, 5.018029, 4.955366 
7.443787e+2, 2.3348589e+2, -674203.7, -767784.06, 2248.1748, 0.016997304, 0.0026132413, -674149.75, -22308.09, 0.0, 5.015957, 4.9553666 
7.442639e+2, 2.3843989e+2, -631321.0, -722418.6, 2167.8503, 0.014902613, -0.0009305366, -631269.44, -27977.453, 0.0, 5.013885, 4.954942 
7.441492e+2, 2.4339212e+2, -592715.3, -686406.6, 2109.2932, 0.013571095, 0.0046257526, -592667.9, -37908.12, 0.0, 5.0117855, 4.951245 
7.440342e+2, 2.4834247e+2, -548881.5, -638685.7, 1729.2234, 0.012322478, 0.0013760454, -548848.25, -42602.113, 0.0, 5.0096397, 4.951636 
7.439191e+2, 2.532928e+2, -505536.0, -592055.44, 1552.9298, 0.011050776, -0.0021145162, -505508.13, -47775.54, 0.0, 5.007489, 4.951637 
7.4380404e+2, 2.5824314e+2, -462357.53, -545841.6, 1429.1683, 0.009784198, -0.0055320403, -462333.06, -53114.145, 0.0, 5.005339, 4.9514775 
7.436894e+2, 2.6319176e+2, -424981.47, -512559.84, 1893.2943, 0.008737109, 0.006188196, -424940.53, -64218.402, 0.0, 5.0031652, 4.9467473 
7.435745e+2, 2.6813895e+2, -379981.78, -462017.13, 1450.8064, 0.0074149054, 0.0065299007, -379956.13, -67716.664, 0.0, 5.0009446, 4.9480925 
7.434597e+2, 2.730861e+2, -336682.78, -415293.63, 1309.6544, 0.0060608895, 0.0056360136, -336660.97, -72903.72, 0.0, 4.998717, 4.9480944 
7.433449e+2, 2.7803323e+2, -293379.3, -368608.2, 1186.0261, 0.004706956, 0.004642904, -293360.6, -78085.52, 0.0, 4.9964905, 4.948067 
7.432301e+2, 2.82977e+2, -256084.0, -336688.78, 1196.9451, 0.002850797, 0.0061592543, -256066.23, -89240.805, 0.0, 4.99446, 4.9427 
7.4311495e+2, 2.8791925e+2, -209428.05, -284125.38, 523.1363, 0.0011252682, -0.007771349, -209424.39, -91033.77, 0.0, 4.9925575, 4.9445724 
7.429997e+2, 2.9286155e+2, -165058.6, -236786.55, 156.26668, -0.00048958225, -0.022479836, -165058.25, -95102.76, 0.0, 4.9906507, 4.944586 
7.428845e+2, 2.9780382e+2, -121094.3, -190428.47, -371.01746, -0.0020487206, -0.03693771, -121092.31, -99572.29, 0.0, 4.9887443, 4.944236 
7.4277055e+2, 3.027609e+2, -72990.6, -103326.35, 306.06073, -0.003825131, -0.0034505362, -72987.516, -72987.516, 0.0, 4.987165, 4.967431 
7.4265933e+2, 3.0773395e+2, -72571.27, -97070.66, -394.01245, -0.006132778, 0.03486155, -72564.94, -72564.94, 0.0, 4.986132, 4.9701376 
7.4254805e+2, 3.1270704e+2, -75254.3, -98181.37, -1305.4084, -0.008188384, 0.07074341, -75180.21, -75180.21, 0.0, 4.985119, 4.9701676 
7.424348e+2, 3.1766444e+2, -108655.12, -167612.97, -608.1446, -0.030260993, -0.043698125, -108648.84, -108648.84, 0.0, 4.983537, 4.945811 
7.519133e+2, 1.243948e+2, -1587138.9, -1725199.4, 2436.1753, -0.03095492, 0.018027434, -1587095.9, 133841.06, 0.0, 5.0641513, 4.9732447 
7.5180197e+2, 1.2936616e+2, -1546020.8, -1680322.8, 2506.4136, -0.01920107, 0.011150213, -1545974.0, 126242.875, 0.0, 5.061605, 4.9732347 
7.516907e+2, 1.3433754e+2, -1504859.8, -1635401.5, 2577.887, -0.00728266, 0.004348818, -1504808.9, 118687.98, 0.0, 5.0590587, 4.9732246 
7.5157934e+2, 1.3930891e+2, -1465227.1, -1593660.6, 2784.6133, 0.0042948597, -0.00087354734, -1465166.9, 109609.875, 0.0, 5.056511, 4.9721375 
7.5146705e+2, 1.4427945e+2, -1425832.3, -1553293.8, 1801.388, 0.011542076, 0.0065066214, -1425806.9, 100258.0, 0.0, 5.054133, 4.970424 
7.513535e+2, 1.4924857e+2, -1383934.8, -1507906.0, 1890.9012, 0.015076861, 0.0035240941, -1383905.9, 93460.84, 0.0, 5.0517883, 4.9704204 
7.512401e+2, 1.5421769e+2, -1341997.4, -1462476.6, 1980.3562, 0.018606141, 0.00061201316, -1341964.8, 86703.96, 0.0, 5.049444, 4.9704165 
7.511265e+2, 1.5918683e+2, -1301144.6, -1419418.3, 1997.5195, 0.02194, -0.0016480844, -1301110.9, 78859.875, 0.0, 5.047108, 4.969604 
7.5101227e+2, 1.6415423e+2, -1262413.5, -1381551.0, 1718.9441, 0.022496402, 0.0036770748, -1262388.8, 68901.52, 0.0, 5.044913, 4.966962 
7.508976e+2, 1.6912012e+2, -1219760.3, -1335691.6, 1796.6582, 0.021980096, 0.003222989, -1219732.5, 62892.508, 0.0, 5.042769, 4.966958 
7.5078297e+2, 1.7408599e+2, -1177070.0, -1289793.5, 1874.0898, 0.02144428, 0.0027695019, -1177038.9, 56920.92, 0.0, 5.0406256, 4.9669538 
7.5066835e+2, 1.7905185e+2, -1135386.8, -1246119.4, 1789.8951, 0.020940732, 0.0026704653, -1135357.9, 49936.79, 0.0, 5.038488, 4.9661875 
7.5055325e+2, 1.8401557e+2, -1096719.8, -1209155.3, 1593.6017, 0.021530068, 0.007787257, -1096697.1, 39952.883, 0.0, 5.036402, 4.963096 
7.50438e+2, 1.8897729e+2, -1053579.6, -1162957.6, 1567.7549, 0.02237268, 0.0041612783, -1053557.3, 34467.99, 0.0, 5.034367, 4.963094 
7.5032276e+2, 1.9393897e+2, -1010404.1, -1116722.8, 1541.823, 0.023230901, 0.0005309566, -1010381.75, 29018.607, 0.0, 5.032333, 4.963092 
7.502076e+2, 1.989007e+2, -967880.7, -1071937.1, 1493.7585, 0.024034692, -0.0026374871, -967859.25, 22915.996, 0.0, 5.0302997, 4.9625845 
7.500917e+2, 2.0386074e+2, -929317.3, -1035751.44, 1114.3505, 0.023376944, 0.0026924743, -929305.7, 12860.951, 0.0, 5.0282655, 4.9591155 
7.4997544e+2, 2.088188e+2, -885929.25, -989185.2, 1168.5995, 0.022681339, 0.001542192, -885916.0, 7661.827, 0.0, 5.0262303, 4.9591775 
7.4985933e+2, 2.1377683e+2, -842588.1, -942774.0, 1170.6216, 0.021964386, 0.00047007558, -842574.44, 2414.6338, 0.0, 5.0241976, 4.9591746 
7.497432e+2, 2.1873488e+2, -799759.44, -897525.06, 1223.3372, 0.021175958, -0.0004262246, -799744.1, -3343.864, 0.0, 5.022166, 4.9587584 
7.4962676e+2, 2.236911e+2, -761266.44, -861705.5, 958.7553, 0.01945336, 0.0062655616, -761257.3, -13428.145, 0.0, 5.020114, 4.955079 
7.495099e+2, 2.2864509e+2, -717631.56, -814604.5, 788.1739, 0.017090255, 0.0035262515, -717625.1, -18345.242, 0.0, 5.018042, 4.955282 
7.4939305e+2, 2.3359908e+2, -674232.94, -768055.25, 671.50354, 0.01474087, 0.0006754667, -674228.1, -23497.46, 0.0, 5.0159698, 4.9552827 
7.492762e+2, 2.3855306e+2, -631329.2, -722643.94, 595.43634, 0.012437891, -0.0021425395, -631325.3, -29143.947, 0.0, 5.0138984, 4.954874 
7.4915946e+2, 2.4350522e+2, -592782.75, -686779.06, 460.4492, 0.011170202, 0.003461823, -592780.5, -39130.55, 0.0, 5.0118003, 4.951126 
7.490422e+2, 2.4845542e+2, -548979.94, -639130.5, 84.50723, 0.009951804, 0.00021234258, -548979.8, -43841.92, 0.0, 5.0096545, 4.951492 
7.48925e+2, 2.534056e+2, -505633.03, -592500.0, -91.04826, 0.008687203, -0.0032686475, -505632.94, -49006.99, 0.0, 5.0075045, 4.9514923 
7.488078e+2, 2.583558e+2, -462431.66, -546236.1, -208.38658, 0.00740433, -0.0066423477, -462431.13, -54317.305, 0.0, 5.0053544, 4.95135 
7.4869096e+2, 2.6330435e+2, -424948.47, -512747.5, 195.06839, 0.0065884674, 0.004957531, -424948.06, -65330.195, 0.0, 5.003185, 4.9466915 
7.4857396e+2, 2.682514e+2, -379983.1, -462288.97, -258.72037, 0.0058353213, 0.0049449177, -379982.28, -68846.086, 0.0, 5.0009646, 4.948008 
7.4845695e+2, 2.7319843e+2, -336683.38, -415566.34, -399.1625, 0.0050275703, 0.00374636, -336681.34, -74026.35, 0.0, 4.998737, 4.948009 
7.4833995e+2, 2.7814543e+2, -293405.66, -368947.84, -485.7004, 0.004180594, 0.0023847218, -293402.53, -79228.58, 0.0, 4.996512, 4.947958 
7.482231e+2, 2.83089e+2, -256350.0, -337659.7, -284.7435, 0.0021699388, 0.004136358, -256349.0, -90622.57, 0.0, 4.9944935, 4.942362 
7.4810594e+2, 2.880311e+2, -209717.78, -285153.53, -954.0118, -0.00027099517, -0.007976206, -209705.72, -92412.05, 0.0, 4.9925914, 4.944213 
7.4798876e+2, 2.9297322e+2, -165347.44, -237809.64, -1318.5599, -0.0026461445, -0.020842887, -165323.45, -96462.87, 0.0, 4.990683, 4.944227 
7.478716e+2, 2.9791534e+2, -121377.97, -191440.0, -1850.3634, -0.0049930266, -0.033317626, -121329.13, -100902.1, 0.0, 4.9887767, 4.94388 
7.477562e+2, 3.0287167e+2, -73928.82, -106105.305, -491.1603, -0.007410403, -0.000089119305, -73921.33, -73921.33, 0.0, 4.9872346, 4.966421 
7.476438e+2, 3.0784303e+2, -73506.65, -99895.99, -1170.5568, -0.010065951, 0.031388856, -73454.83, -73454.83, 0.0, 4.986208, 4.96911 
7.475315e+2, 3.1281435e+2, -76233.38, -101049.56, -2093.6084, -0.0125813605, 0.060579717, -76058.0, -76058.0, 0.0, 4.9851813, 4.969133 
7.474148e+2, 3.1772453e+2, -46464.023, -25277.074, 273.57916, -0.060953576, -0.5392189, -25273.543, -25273.543, 0.0, 4.983845, 4.99744 
7.5697666e+2, 1.2450668e+2, -1586771.0, -1724737.8, 518.0077, -0.02662865, 0.025559016, -1586769.1, 133075.81, 0.0, 5.0641766, 4.9734044 
7.568626e+2, 1.2947816e+2, -1545659.4, -1679864.3, 592.219, -0.016447838, 0.017933771, -1545656.8, 125466.93, 0.0, 5.0616283, 4.9733944 
7.567486e+2, 1.344496e+2, -1504504.9, -1634946.0, 667.6641, -0.006172723, 0.010425564, -1504501.4, 117901.13, 0.0, 5.0590806, 4.9733844 
7.566346e+2, 1.3942108e+2, -1464837.6, -1593110.1, 899.88837, 0.0036669502, 0.0045823944, -1464831.3, 108849.84, 0.0, 5.0565305, 4.97233 
7.5651973e+2, 1.4439172e+2, -1425488.0, -1552792.1, 41.41782, 0.010141405, 0.010913938, -1425488.0, 99479.97, 0.0, 5.0541472, 4.9706 
7.5640386e+2, 1.4936085e+2, -1383592.4, -1507406.4, 131.91476, 0.013603452, 0.0063679763, -1383592.3, 92676.94, 0.0, 5.0518026, 4.9705963 
7.5628805e+2, 1.5433e+2, -1341656.8, -1461978.9, 222.35101, 0.017051363, 0.0018970228, -1341656.4, 85913.99, 0.0, 5.0494585, 4.970592 
7.561722e+2, 1.5929918e+2, -1300763.1, -1418823.8, 260.53842, 0.020292202, -0.0017554354, -1300762.5, 78108.95, 0.0, 5.047121, 4.969813 
7.560557e+2, 1.6426678e+2, -1262110.4, -1381082.8, 103.36825, 0.020943075, 0.0035615873, -1262110.3, 68078.375, 0.0, 5.044922, 4.967129 
7.559389e+2, 1.6923288e+2, -1219458.4, -1335225.4, 181.6127, 0.02062528, 0.0034877625, -1219458.1, 62062.992, 0.0, 5.042778, 4.967125 
7.558221e+2, 1.7419894e+2, -1176769.3, -1289329.4, 259.57352, 0.020276764, 0.003413298, -1176768.8, 56084.89, 0.0, 5.040635, 4.9671206 
7.557054e+2, 1.79165e+2, -1135084.3, -1245656.4, 164.38443, 0.019927647, 0.0036801547, -1135084.0, 49102.14, 0.0, 5.0384984, 4.9663544 
7.555881e+2, 1.8412888e+2, -1096611.0, -1209096.9, 50.920273, 0.020195637, 0.009100553, -1096611.0, 38929.426, 0.0, 5.036412, 4.963125 
7.554708e+2, 1.8909064e+2, -1053471.6, -1162900.1, 25.578375, 0.020536147, 0.0058388803, -1053471.6, 33443.37, 0.0, 5.0343766, 4.9631233 
7.553535e+2, 1.940524e+2, -1010296.94, -1116666.3, 0.1508291, 0.020876816, 0.0025809752, -1010296.94, 27992.834, 0.0, 5.0323424, 4.963121 
7.5523627e+2, 1.9901417e+2, -967739.25, -1071809.8, -59.957687, 0.021176906, -0.0002738346, -967739.2, 21924.896, 0.0, 5.0303097, 4.962638 
7.551183e+2, 2.0397425e+2, -929092.94, -1035448.2, -436.42743, 0.020653479, 0.003960051, -929091.1, 11963.687, 0.0, 5.028276, 4.9592285 
7.550001e+2, 2.0893218e+2, -885771.4, -989024.56, -374.6919, 0.020292165, 0.0011288981, -885770.0, 6696.1523, 0.0, 5.026241, 4.959243 
7.54882e+2, 2.1389012e+2, -842431.4, -942615.3, -371.8449, 0.019894853, -0.0016080154, -842430.0, 1447.4944, 0.0, 5.024208, 4.959239 
7.5476384e+2, 2.1884806e+2, -799627.3, -897421.6, -310.29156, 0.019376017, -0.0040447833, -799626.3, -4337.567, 0.0, 5.0221763, 4.958804 
7.5464535e+2, 2.2380431e+2, -761283.4, -861954.9, -637.4843, 0.017612996, 0.0028697588, -761279.3, -14561.786, 0.0, 5.020128, 4.9550033 
7.545264e+2, 2.2875828e+2, -717660.2, -814877.06, -788.96533, 0.015048211, 0.00085942814, -717653.8, -19485.201, 0.0, 5.0180554, 4.955198 
7.544074e+2, 2.3371226e+2, -674261.06, -768327.6, -905.0137, 0.012481128, -0.001250906, -674252.4, -24632.729, 0.0, 5.015983, 4.9551983 
7.542885e+2, 2.3866624e+2, -631347.0, -722894.1, -977.0103, 0.009967958, -0.0033759223, -631336.6, -30265.902, 0.0, 5.0139117, 4.9547973 
7.5416964e+2, 2.4361831e+2, -592853.6, -687162.7, -1187.9803, 0.008749795, 0.0023622944, -592838.7, -40298.457, 0.0, 5.011816, 4.951003 
7.5405025e+2, 2.4856836e+2, -549077.3, -639576.44, -1559.6235, 0.007565997, -0.0009115726, -549050.44, -45020.715, 0.0, 5.0096703, 4.951347 
7.5393087e+2, 2.535184e+2, -505729.13, -592945.6, -1734.4406, 0.006313246, -0.004411172, -505694.63, -50175.254, 0.0, 5.00752, 4.951347 
7.5381154e+2, 2.5846848e+2, -462502.28, -546626.4, -1842.759, 0.0050220345, -0.007759209, -462461.94, -55453.15, 0.0, 5.00537, 4.9512243 
7.5369257e+2, 2.634169e+2, -424920.56, -512949.8, -1503.5391, 0.0044782343, 0.003735421, -424894.88, -66381.28, 0.0, 5.0032043, 4.9466314 
7.535734e+2, 2.6836386e+2, -379983.44, -462561.9, -1967.468, 0.0042965556, 0.003348986, -379936.6, -69903.61, 0.0, 5.000985, 4.9479227 
7.534542e+2, 2.7331075e+2, -336683.0, -415840.13, -2107.2, 0.0040369844, 0.0018228464, -336626.94, -75074.125, 0.0, 4.998758, 4.9479237 
7.5333506e+2, 2.7825767e+2, -293458.5, -369352.8, -2141.0354, 0.0036920155, 0.000056768244, -293398.13, -80325.23, 0.0, 4.996534, 4.947825 
7.532162e+2, 2.83201e+2, -256617.52, -338633.84, -1765.8083, 0.001450169, 0.002186962, -256579.52, -91951.89, 0.0, 4.994528, 4.9420223 
7.5309706e+2, 2.8814292e+2, -210007.45, -286181.94, -2432.4197, -0.0017287527, -0.008151223, -209929.86, -93732.96, 0.0, 4.992625, 4.9438524 
7.5297785e+2, 2.9308483e+2, -165636.23, -238832.97, -2794.646, -0.0048796204, -0.019228349, -165529.69, -97763.82, 0.0, 4.9907165, 4.943868 
7.5285864e+2, 2.9802686e+2, -121777.4, -192720.89, -3323.4863, -0.00802401, -0.029614104, -121622.04, -102287.94, 0.0, 4.9888096, 4.943428 
7.5274175e+2, 3.029824e+2, -74859.45, -108860.5, -1234.2418, -0.010979166, 0.0030100255, -74814.71, -74814.71, 0.0, 4.9873047, 4.965415 
7.5262845e+2, 3.07952e+2, -74446.19, -102720.1, -1936.3049, -0.0138674965, 0.026739404, -74314.2, -74314.2, 0.0, 4.986284, 4.968079 
7.52515e+2, 3.129216e+2, -77178.12, -103899.99, -2817.1772, -0.016751776, 0.04830327, -76884.34, -76884.34, 0.0, 4.985258, 4.9680943 
7.523973e+2, 3.1784832e+2, -59099.25, -54439.59, -2595.7393, -0.06573992, -0.37434298, -53281.445, -53281.445, 0.0, 4.983764, 4.9867773 
7.6203996e+2, 1.2461882e+2, -1587742.6, -1724652.5, 794.14813, -0.021239523, 0.028713878, -1587738.0, 131010.95, 0.0, 5.0637326, 4.973649 
7.619232e+2, 1.2959047e+2, -1546200.6, -1679577.9, 877.8324, -0.013187984, 0.02126182, -1546194.9, 123830.9, 0.0, 5.061331, 4.9736342 
7.6180655e+2, 1.345621e+2, -1504705.1, -1634503.9, 958.8817, -0.004931844, 0.01383059, -1504698.0, 116604.734, 0.0, 5.0589, 4.97362 
7.616898e+2, 1.3953376e+2, -1464761.6, -1592491.0, 1216.2567, 0.0030035495, 0.008033258, -1464750.1, 107829.44, 0.0, 5.056434, 4.972583 
7.615724e+2, 1.4450453e+2, -1425257.5, -1552195.3, 461.5631, 0.008639772, 0.014149467, -1425255.9, 98608.82, 0.0, 5.054124, 4.9708104 
7.614542e+2, 1.4947376e+2, -1383140.6, -1506718.6, 492.6696, 0.011915101, 0.008875526, -1383138.6, 92026.28, 0.0, 5.0518556, 4.9708023 
7.613361e+2, 1.5444298e+2, -1341018.1, -1461216.6, 521.69653, 0.015220556, 0.0035778459, -1341015.9, 85449.42, 0.0, 5.0495768, 4.970794 
7.612179e+2, 1.5941222e+2, -1299924.3, -1417898.4, 524.74457, 0.018356582, -0.0008597321, -1299921.9, 77843.555, 0.0, 5.047293, 4.970045 
7.6109916e+2, 1.6437997e+2, -1261192.8, -1380216.6, 439.53568, 0.019168947, 0.0042469357, -1261191.1, 67889.84, 0.0, 5.045145, 4.9673166 
7.609803e+2, 1.6934618e+2, -1218394.4, -1334294.5, 438.7375, 0.019131714, 0.0040731407, -1218392.6, 62019.184, 0.0, 5.0430517, 4.967312 
7.608614e+2, 1.7431237e+2, -1175586.6, -1288347.0, 439.21716, 0.019060438, 0.0039299587, -1175584.9, 56157.934, 0.0, 5.0409503, 4.967307 
7.6074255e+2, 1.7927857e+2, -1133814.5, -1244649.0, 261.71375, 0.018944673, 0.004182837, -1133813.9, 49259.92, 0.0, 5.0388465, 4.9665356 
7.6062316e+2, 1.8424252e+2, -1095448.4, -1208421.4, 193.19049, 0.018858083, 0.009945885, -1095448.1, 38978.93, 0.0, 5.0367823, 4.9631844 
7.605037e+2, 1.8920435e+2, -1052263.9, -1162210.9, 129.77582, 0.01867288, 0.0071363505, -1052263.8, 33537.523, 0.0, 5.0347643, 4.9631805 
7.603843e+2, 1.9416615e+2, -1009062.56, -1115972.0, 64.40344, 0.018500892, 0.0043179826, -1009062.56, 28113.002, 0.0, 5.0327406, 4.9631767 
7.60265e+2, 1.99128e+2, -966438.44, -1071006.5, -81.06846, 0.01833162, 0.0018196407, -966438.4, 22111.096, 0.0, 5.0307136, 4.96273 
7.6014495e+2, 2.0408803e+2, -927785.44, -1034666.6, -489.38556, 0.017934794, 0.005093809, -927783.2, 12156.738, 0.0, 5.028689, 4.9593096 
7.600248e+2, 2.0904584e+2, -884456.7, -988291.9, -572.382, 0.01785593, 0.0007211648, -884453.5, 6898.3257, 0.0, 5.0266657, 4.9593034 
7.599047e+2, 2.1400365e+2, -841104.6, -941880.06, -684.838, 0.0177603, -0.0035943054, -841099.94, 1663.7192, 0.0, 5.024637, 4.9593005 
7.597845e+2, 2.1896148e+2, -798333.44, -896740.7, -736.0087, 0.017514624, -0.0074816174, -798327.94, -4152.5225, 0.0, 5.0226016, 4.9588513 
7.5966394e+2, 2.2391768e+2, -760195.1, -861639.0, -1153.6636, 0.015751004, -0.00030738168, -760182.0, -14577.717, 0.0, 5.0205355, 4.9549336 
7.595428e+2, 2.2887163e+2, -716635.25, -814596.06, -1360.3302, 0.01303052, -0.0017131052, -716616.4, -19560.521, 0.0, 5.018441, 4.9551277 
7.594218e+2, 2.3382556e+2, -673308.5, -768086.25, -1532.9701, 0.010297359, -0.0031984653, -673283.7, -24776.229, 0.0, 5.016344, 4.9551272 
7.5930077e+2, 2.387795e+2, -630475.4, -722700.94, -1656.7278, 0.0076200967, -0.0047264523, -630445.6, -30486.559, 0.0, 5.014246, 4.9547224 
7.5917983e+2, 2.4373151e+2, -592032.94, -687092.1, -1990.7828, 0.006400497, 0.0012758203, -591991.25, -40561.684, 0.0, 5.012151, 4.9508867 
7.590583e+2, 2.486814e+2, -548268.5, -639558.8, -2416.6355, 0.0052098795, -0.0019724632, -548204.56, -45283.848, 0.0, 5.01001, 4.951211 
7.589367e+2, 2.536313e+2, -504934.72, -592936.6, -2642.5234, 0.003960019, -0.0054668593, -504855.44, -50443.395, 0.0, 5.007855, 4.9512115 
7.588152e+2, 2.5858122e+2, -461723.47, -546579.06, -2792.6099, 0.0026837408, -0.008780185, -461631.66, -55728.652, 0.0, 5.0056896, 4.95111 
7.5869423e+2, 2.6352954e+2, -424129.28, -512785.94, -2578.771, 0.0024418489, 0.002552475, -424054.34, -66645.484, 0.0, 5.0035043, 4.9465685 
7.585728e+2, 2.6847634e+2, -379281.2, -462483.2, -3135.7126, 0.002809566, 0.0017006195, -379163.2, -70233.68, 0.0, 5.001261, 4.947842 
7.5845146e+2, 2.7342314e+2, -336064.5, -415799.47, -3339.9421, 0.0030937586, -0.00021678382, -335924.84, -75474.336, 0.0, 4.9990034, 4.9478436 
7.5833017e+2, 2.7836984e+2, -293024.7, -369555.72, -3357.6038, 0.0032516012, -0.0024292644, -292877.66, -80905.78, 0.0, 4.996745, 4.947675 
7.582092e+2, 2.83313e+2, -256421.98, -339345.6, -2819.1675, 0.00069758267, 0.00029654158, -256326.25, -92797.445, 0.0, 4.9947286, 4.9416966 
7.5808805e+2, 2.8825474e+2, -209885.88, -286978.7, -3481.2083, -0.0032380056, -0.00824361, -209729.0, -94628.914, 0.0, 4.992809, 4.9435034 
7.579669e+2, 2.931965e+2, -165609.4, -239669.55, -3839.804, -0.007169515, -0.017570227, -165410.86, -98739.74, 0.0, 4.9908657, 4.943519 
7.578457e+2, 2.9813835e+2, -122106.734, -194117.42, -4337.55, -0.011114639, -0.025768934, -121846.41, -103605.29, 0.0, 4.988907, 4.942901 
7.577275e+2, 3.0309305e+2, -75948.68, -111642.07, -1532.1941, -0.014485111, 0.005798613, -75883.03, -75883.03, 0.0, 4.9873223, 4.9644127 
7.5761306e+2, 3.0806088e+2, -75854.78, -105700.07, -2320.6772, -0.017500367, 0.02087048, -75675.414, -75675.414, 0.0, 4.9861917, 4.967054 
7.574987e+2, 3.1302872e+2, -78341.8, -106802.91, -3197.956, -0.020680472, 0.033847824, -77986.89, -77986.89, 0.0, 4.985258, 4.96706 
7.5738084e+2, 3.1800896e+2, -72822.29, -87386.55, -4231.081, -0.059694283, 0.18067089, -71682.336, -71682.336, 0.0, 4.983935, 4.9746823 
7.671034e+2, 1.24736704e+2, -1583568.4, -1721376.0, 4506.548, -0.015648065, 0.025865605, -1583421.3, 134173.42, 0.0, 5.0649815, 4.974078 
7.669839e+2, 1.2970869e+2, -1542406.0, -1676480.6, 4680.1597, -0.009699585, 0.019315157, -1542242.8, 126625.3, 0.0, 5.062455, 4.974067 
7.6686454e+2, 1.3468066e+2, -1501200.5, -1631541.6, 4856.421, -0.0035841945, 0.012786922, -1501019.8, 119121.92, 0.0, 5.0599294, 4.9740562 
7.667451e+2, 1.3965267e+2, -1461422.8, -1589541.3, 5237.4917, 0.0022839932, 0.007862971, -1461209.0, 110206.13, 0.0, 5.0573983, 4.973048 
7.6662534e+2, 1.4462374e+2, -1422153.0, -1549596.0, 4757.454, 0.006804502, 0.0147602195, -1421975.6, 100721.7, 0.0, 5.0550637, 4.9711714 
7.665048e+2, 1.4959323e+2, -1380008.5, -1504102.5, 4886.763, 0.009579928, 0.010420323, -1379816.4, 94178.984, 0.0, 5.0528083, 4.9711647 
7.663844e+2, 1.5456271e+2, -1337824.9, -1458569.1, 5016.7373, 0.0124030635, 0.0060477466, -1337616.9, 87676.555, 0.0, 5.0505533, 4.9711585 
7.662639e+2, 1.595322e+2, -1296569.5, -1415052.3, 5147.668, 0.015108479, 0.002405188, -1296346.4, 80244.94, 0.0, 5.048304, 4.970461 
7.6614314e+2, 1.6450006e+2, -1257905.3, -1377642.8, 5300.519, 0.016193425, 0.0067336266, -1257671.1, 70234.37, 0.0, 5.046192, 4.9676228 
7.660222e+2, 1.6946626e+2, -1214969.9, -1331652.3, 5372.378, 0.016572876, 0.0054555177, -1214723.0, 64513.023, 0.0, 5.04415, 4.96762 
7.659014e+2, 1.7443246e+2, -1171998.9, -1285624.6, 5443.8447, 0.016920453, 0.0042351885, -1171738.6, 58827.973, 0.0, 5.0421076, 4.967617 
7.6578045e+2, 1.7939866e+2, -1130000.0, -1241754.4, 5329.4775, 0.017166471, 0.0034800286, -1129746.4, 52150.883, 0.0, 5.040072, 4.966875 
7.65659e+2, 1.8436268e+2, -1091598.4, -1205725.5, 5441.3486, 0.016677834, 0.009009822, -1091339.5, 41909.992, 0.0, 5.038072, 4.963425 
7.6553756e+2, 1.8932456e+2, -1048229.4, -1159433.1, 5456.3047, 0.015919305, 0.006349531, -1047962.3, 36660.813, 0.0, 5.0361223, 4.9634213 
7.6541615e+2, 1.942864e+2, -1004826.06, -1113105.3, 5471.113, 0.015190996, 0.003692535, -1004550.3, 31446.502, 0.0, 5.0341725, 4.9634175 
7.6529473e+2, 1.9924828e+2, -961956.0, -1067995.3, 5364.035, 0.01451757, 0.0013081369, -961685.4, 25684.803, 0.0, 5.032227, 4.9629874 
7.651727e+2, 2.0420828e+2, -923351.1, -1031997.56, 5066.5557, 0.0140102785, 0.004576402, -923115.4, 15645.452, 0.0, 5.030259, 4.959422 
7.6505053e+2, 2.0916598e+2, -879824.9, -985544.56, 4975.6606, 0.0138160605, 0.00011816878, -879591.2, 10582.591, 0.0, 5.02831, 4.9594135 
7.649284e+2, 2.1412365e+2, -836252.56, -939034.94, 4868.223, 0.013648713, -0.0043338947, -836022.5, 5564.2344, 0.0, 5.0263615, 4.959412 
7.648063e+2, 2.1908136e+2, -793239.56, -893769.6, 4793.032, 0.013399151, -0.008398618, -793011.56, -12.03696, 0.0, 5.0244102, 4.9589725 
7.6468366e+2, 2.2403742e+2, -755076.5, -858740.94, 4378.104, 0.0121036, -0.0016895973, -754891.94, -10462.14, 0.0, 5.0223765, 4.9550138 
7.645605e+2, 2.2899117e+2, -711551.8, -811794.94, 4174.0083, 0.009995543, -0.003375603, -711378.3, -15495.095, 0.0, 5.0202885, 4.9551773 
7.644375e+2, 2.3394491e+2, -668209.56, -765288.7, 4005.2952, 0.007872886, -0.005103996, -668044.56, -20707.951, 0.0, 5.018201, 4.955177 
7.643145e+2, 2.3889865e+2, -625333.3, -719871.9, 3901.9028, 0.0057749976, -0.0068264194, -625172.5, -26382.543, 0.0, 5.0161176, 4.9547825 
7.641913e+2, 2.4385053e+2, -586921.7, -684470.06, 3548.462, 0.004521129, -0.00028394835, -586792.75, -36530.934, 0.0, 5.014054, 4.950861 
7.6406765e+2, 2.4880025e+2, -543086.06, -636916.6, 3101.837, 0.003111644, -0.0028254762, -542983.7, -41228.99, 0.0, 5.0119433, 4.951184 
7.63944e+2, 2.5374997e+2, -499647.03, -590249.8, 2851.6655, 0.0017179867, -0.0056515797, -499557.38, -46309.727, 0.0, 5.0098286, 4.951187 
7.638203e+2, 2.586997e+2, -456307.56, -543842.06, 2672.037, 0.0004127517, -0.008414891, -456226.06, -51485.67, 0.0, 5.007713, 4.951087 
7.636971e+2, 2.636476e+2, -418832.47, -510258.9, 2700.4695, 0.00042149203, 0.0012811249, -418752.78, -62502.242, 0.0, 5.005518, 4.946479 
7.6357347e+2, 2.6859385e+2, -374127.84, -460084.5, 1956.6199, 0.0009654134, -0.001972185, -374083.3, -66306.4, 0.0, 5.003239, 4.947729 
7.6344985e+2, 2.7354008e+2, -330992.47, -413431.1, 1560.414, 0.0015042934, -0.0061205397, -330962.94, -71659.53, 0.0, 5.000953, 4.9477377 
7.633263e+2, 2.784863e+2, -288026.84, -367217.34, 1420.6573, 0.001961475, -0.010280211, -288001.34, -77171.52, 0.0, 4.998669, 4.9475746 
7.632034e+2, 2.834297e+2, -251327.67, -336916.0, 2229.627, -0.0009611444, -0.0022691411, -251269.63, -88885.17, 0.0, 4.996676, 4.9416223 
7.6308024e+2, 2.8837204e+2, -204583.39, -284528.13, 1628.0288, -0.005334842, -0.0019139205, -204550.25, -90600.17, 0.0, 4.994847, 4.9434047 
7.629571e+2, 2.9331434e+2, -160020.17, -237112.72, 1342.8616, -0.009620911, -0.002923267, -159996.8, -94480.72, 0.0, 4.9930115, 4.943417 
7.62834e+2, 2.9825667e+2, -116312.67, -191658.2, 958.9882, -0.0137936, -0.0035326355, -116300.47, -99218.57, 0.0, 4.9911656, 4.942721 
7.6271385e+2, 3.0320933e+2, -73570.08, -110662.695, 4065.341, -0.015380854, 0.011336901, -73129.75, -73129.75, 0.0, 4.988366, 4.96423 
7.625975e+2, 3.0817375e+2, -79116.13, -107289.35, 4193.3257, -0.015287816, -0.004082549, -78505.24, -78505.24, 0.0, 4.985206, 4.9668193 
7.624813e+2, 3.1313848e+2, -88207.34, -111339.81, 4218.0703, -0.015055477, -0.017536381, -87462.21, -87462.21, 0.0, 4.9818892, 4.9667892 
7.623635e+2, 3.1811276e+2, -38266.92, 22274.54, 2593.0146, -0.036773622, 0.04727868, 22385.396, 22385.396, 0.0, 4.978391, 5.0173736 
7.7216756e+2, 1.248575e+2, -1582951.4, -1720433.3, 2600.784, -0.010349113, 0.023699768, -1582902.3, 133509.48, 0.0, 5.0650096, 4.974397 
7.720453e+2, 1.2982988e+2, -1541797.1, -1675537.5, 2779.3833, -0.0064698667, 0.017913718, -1541739.4, 125941.84, 0.0, 5.062481, 4.974388 
7.719232e+2, 1.3480227e+2, -1500599.9, -1630598.0, 2960.6296, -0.002490576, 0.012191346, -1500532.5, 118418.445, 0.0, 5.0599527, 4.9743786 
7.7180094e+2, 1.3977467e+2, -1460815.3, -1588560.5, 3367.4353, 0.0013046106, 0.008113739, -1460726.6, 109493.67, 0.0, 5.0574193, 4.973384 
7.7167875e+2, 1.4474612e+2, -1421708.6, -1548899.4, 3061.713, 0.0046861516, 0.01584248, -1421635.0, 99864.15, 0.0, 5.055079, 4.971413 
7.715559e+2, 1.4971595e+2, -1379568.9, -1503408.6, 3192.772, 0.006964279, 0.012401844, -1379486.6, 93307.43, 0.0, 5.0528226, 4.971407 
7.714332e+2, 1.5468575e+2, -1337390.1, -1457877.9, 3324.4937, 0.009276186, 0.008943402, -1337298.5, 86790.664, 0.0, 5.0505667, 4.9714007 
7.7131045e+2, 1.5965556e+2, -1296080.5, -1414233.1, 3478.0344, 0.011505602, 0.0061095194, -1295978.3, 79405.74, 0.0, 5.0483165, 4.970746 
7.711875e+2, 1.646236e+2, -1257601.4, -1377176.6, 3761.2751, 0.012903055, 0.009684064, -1257483.1, 69213.17, 0.0, 5.046201, 4.967789 
7.7106464e+2, 1.6958985e+2, -1214667.3, -1331188.3, 3833.9668, 0.013710714, 0.007245698, -1214541.3, 63484.79, 0.0, 5.0441585, 4.967786 
7.7094173e+2, 1.7455608e+2, -1171697.6, -1285163.0, 3906.2654, 0.014471342, 0.004871329, -1171563.4, 57792.457, 0.0, 5.0421166, 4.967783 
7.708188e+2, 1.7952234e+2, -1129662.9, -1241219.0, 3780.4446, 0.015036809, 0.0030520877, -1129534.9, 51150.594, 0.0, 5.0400815, 4.9670663 
7.706953e+2, 1.844865e+2, -1091414.9, -1205502.1, 3968.1533, 0.014123885, 0.008267108, -1091277.0, 40759.313, 0.0, 5.03808, 4.963511 
7.705718e+2, 1.8944843e+2, -1048046.9, -1159211.1, 3984.0332, 0.012791226, 0.0055778855, -1047904.25, 35504.62, 0.0, 5.0361304, 4.963507 
7.7044845e+2, 1.9441037e+2, -1004644.5, -1112884.5, 3999.7644, 0.011471576, 0.002899006, -1004496.9, 30284.613, 0.0, 5.0341806, 4.963503 
7.7032506e+2, 1.9937234e+2, -961764.25, -1067764.0, 3853.8196, 0.010226308, 0.00047937874, -961624.3, 24529.527, 0.0, 5.0322366, 4.9630766 
7.70201e+2, 2.0433235e+2, -923378.2, -1032242.9, 3598.6582, 0.009570414, 0.0039553833, -923259.3, 14284.817, 0.0, 5.030269, 4.959348 
7.7007693e+2, 2.0928998e+2, -879847.75, -985782.94, 3500.433, 0.009172941, -0.00033039032, -879732.25, 9225.496, 0.0, 5.0283203, 4.9593425 
7.699528e+2, 2.142476e+2, -836275.7, -939273.8, 3393.7231, 0.008786462, -0.0045986595, -836163.94, 4207.3037, 0.0, 5.026372, 4.9593406 
7.698287e+2, 2.1920526e+2, -793215.25, -893900.2, 3314.3396, 0.008355821, -0.008495053, -793106.25, -1321.6554, 0.0, 5.02442, 4.958938 
7.697041e+2, 2.241612e+2, -755175.3, -859162.6, 2761.993, 0.007620939, -0.0024198561, -755102.0, -11885.964, 0.0, 5.0223875, 4.95488 
7.69579e+2, 2.2911474e+2, -711666.7, -812247.44, 2588.9038, 0.006364955, -0.0045880396, -711600.06, -16928.873, 0.0, 5.020299, 4.955033 
7.694539e+2, 2.340683e+2, -668323.6, -765740.94, 2420.8027, 0.005081332, -0.006777399, -668263.5, -22137.186, 0.0, 5.018212, 4.9550323 
7.693288e+2, 2.3902185e+2, -625426.56, -720283.06, 2341.2068, 0.003750467, -0.008884978, -625368.8, -27787.465, 0.0, 5.0161285, 4.9546514 
7.6920366e+2, 2.439736e+2, -587130.44, -685180.4, 1933.5393, 0.0025095548, -0.001710472, -587092.4, -38038.086, 0.0, 5.0140705, 4.950625 
7.6907784e+2, 2.4892317e+2, -543285.8, -637611.5, 1490.4055, 0.0009157201, -0.0034387307, -543262.25, -42713.75, 0.0, 5.01196, 4.9509525 
7.68952e+2, 2.5387272e+2, -499844.1, -590943.4, 1240.7957, -0.0006796957, -0.0054508317, -499827.2, -47784.3, 0.0, 5.0098457, 4.950956 
7.6882625e+2, 2.588223e+2, -456521.63, -544577.0, 1058.9344, -0.0021570493, -0.00756503, -456508.88, -52971.656, 0.0, 5.00773, 4.9508405 
7.687008e+2, 2.637697e+2, -419192.6, -511345.03, 943.458, -0.0019501273, -0.00014494048, -419182.94, -64130.176, 0.0, 5.005537, 4.94611 
7.6857495e+2, 2.6871517e+2, -374523.7, -461257.06, 202.4673, -0.001294193, -0.0066802925, -374523.2, -67936.58, 0.0, 5.003258, 4.9473286 
7.68449e+2, 2.736607e+2, -331384.94, -414600.06, -193.03127, -0.00066724676, -0.014073038, -331384.5, -73263.93, 0.0, 5.0009723, 4.947337 
7.683232e+2, 2.7860624e+2, -288362.06, -368263.78, -234.75854, -0.00019848965, -0.021066392, -288361.38, -78707.336, 0.0, 4.998689, 4.947216 
7.6819825e+2, 2.8355023e+2, -251434.45, -337561.5, 799.84937, -0.0035451637, -0.0047049266, -251427.03, -90223.69, 0.0, 4.9967136, 4.9414005 
7.6807326e+2, 2.884937e+2, -204700.14, -285220.6, 210.03883, -0.008196785, 0.009231228, -204699.58, -91941.375, 0.0, 4.9948883, 4.943164 
7.679483e+2, 2.9343706e+2, -160126.7, -237799.6, -71.172844, -0.012790886, 0.021756638, -160126.64, -95813.11, 0.0, 4.993056, 4.9431767 
7.678233e+2, 2.9838037e+2, -116460.38, -192413.44, -546.1619, -0.01722111, 0.03370788, -116456.45, -100586.7, 0.0, 4.991204, 4.9424586 
7.677008e+2, 3.0333006e+2, -73141.79, -110034.26, 1621.2212, -0.015485104, 0.017920904, -73070.68, -73070.68, 0.0, 4.988385, 4.9644775 
7.675817e+2, 3.0828935e+2, -78630.99, -106702.92, 1849.4797, -0.01033658, -0.052870713, -78509.67, -78509.67, 0.0, 4.985256, 4.9670396 
7.674628e+2, 3.1324884e+2, -87202.36, -110532.58, 2004.7737, -0.005201785, -0.12202984, -87031.34, -87031.34, 0.0, 4.9821277, 4.9670086 
7.673389e+2, 3.1824753e+2, -41716.867, 13415.189, -111.89451, -0.05424207, 0.18160522, 13415.417, 13415.417, 0.0, 4.978514, 5.0140305 
7.7723163e+2, 1.24978326e+2, -1582334.4, -1719491.5, 692.58575, -0.005041023, 0.021864912, -1582330.9, 132897.67, 0.0, 5.065038, 4.9747157 
7.7710664e+2, 1.299511e+2, -1541188.3, -1674595.3, 876.17206, -0.0032648812, 0.016734734, -1541182.5, 125311.664, 0.0, 5.0625076, 4.974708 
7.769817e+2, 1.3492388e+2, -1499999.1, -1629655.4, 1062.4021, -0.0014555159, 0.011709897, -1499990.4, 117769.445, 0.0, 5.059977, 4.9747 
7.7685684e+2, 1.3989668e+2, -1460234.8, -1587638.1, 1497.515, 0.00027002947, 0.0084159365, -1460217.1, 108808.14, 0.0, 5.0574408, 4.9736996 
7.767321e+2, 1.4486851e+2, -1421263.6, -1548203.9, 1365.6367, 0.0025387239, 0.01705907, -1421248.9, 99051.75, 0.0, 5.0550947, 4.971654 
7.76607e+2, 1.4983866e+2, -1379128.8, -1502715.9, 1498.4456, 0.0043232273, 0.01445662, -1379110.5, 92482.125, 0.0, 5.0528374, 4.971648 
7.7648187e+2, 1.5480879e+2, -1336954.8, -1457187.9, 1631.9146, 0.006127574, 0.011851335, -1336932.6, 85952.16, 0.0, 5.0505805, 4.971642 
7.763568e+2, 1.5977895e+2, -1295606.3, -1413447.8, 1810.3453, 0.007900842, 0.009780786, -1295578.4, 78598.27, 0.0, 5.048329, 4.9710197 
7.762319e+2, 1.6474712e+2, -1257296.6, -1376711.6, 2222.4607, 0.009634749, 0.012623405, -1257255.3, 68231.875, 0.0, 5.046211, 4.9679546 
7.76107e+2, 1.6971341e+2, -1214363.9, -1330725.4, 2295.9854, 0.010868238, 0.008991119, -1214318.6, 62497.414, 0.0, 5.0441685, 4.9679513 
7.7598214e+2, 1.746797e+2, -1171395.6, -1284702.3, 2369.116, 0.012039536, 0.005429096, -1171346.1, 56798.81, 0.0, 5.0421267, 4.967948 
7.7585715e+2, 1.7964603e+2, -1129336.0, -1240708.5, 2232.6174, 0.012901967, 0.002576282, -1129291.3, 50182.414, 0.0, 5.0400915, 4.967249 
7.757316e+2, 1.846103e+2, -1091230.6, -1205279.5, 2495.1538, 0.0115497885, 0.00756259, -1091176.0, 39646.95, 0.0, 5.0380893, 4.9635963 
7.7560616e+2, 1.8957232e+2, -1047863.56, -1158989.9, 2511.9578, 0.009640199, 0.0048144017, -1047806.8, 34387.68, 0.0, 5.036139, 4.963592 
7.754807e+2, 1.9453433e+2, -1004462.2, -1112664.8, 2528.6128, 0.0077264127, 0.0020836503, -1004403.1, 29162.963, 0.0, 5.0341897, 4.9635878 
7.7535534e+2, 1.9949639e+2, -961591.3, -1067575.5, 2352.544, 0.005912004, -0.00036396718, -961539.1, 23398.287, 0.0, 5.0322466, 4.963151 
7.7522933e+2, 2.0445642e+2, -923403.3, -1032487.94, 2124.6113, 0.0051154816, 0.0033797405, -923361.94, 12965.569, 0.0, 5.0302806, 4.959275 
7.751032e+2, 2.09414e+2, -879869.94, -986022.2, 2025.498, 0.0045152656, -0.0007609477, -879831.3, 7910.3384, 0.0, 5.0283313, 4.9592705 
7.749771e+2, 2.1437156e+2, -836298.0, -939513.5, 1919.5155, 0.003910176, -0.004872966, -836262.3, 2893.4539, 0.0, 5.026383, 4.9592686 
7.748511e+2, 2.1932918e+2, -793218.2, -894096.56, 1817.751, 0.0033187573, -0.008623894, -793185.44, -2615.754, 0.0, 5.0244303, 4.9588814 
7.747244e+2, 2.2428498e+2, -755254.56, -859541.9, 1162.8466, 0.0031861053, -0.003139744, -755241.6, -13239.304, 0.0, 5.0223994, 4.954761 
7.745973e+2, 2.2923832e+2, -711780.5, -812701.1, 1004.20996, 0.0027842605, -0.005813844, -711770.5, -18311.318, 0.0, 5.0203104, 4.954888 
7.744702e+2, 2.3419167e+2, -668436.75, -766194.4, 836.7211, 0.0023402069, -0.008492653, -668429.56, -23513.49, 0.0, 5.018223, 4.954887 
7.743432e+2, 2.3914506e+2, -625547.2, -720760.75, 773.5489, 0.0017526954, -0.01097098, -625540.94, -29168.174, 0.0, 5.016141, 4.954497 
7.7421594e+2, 2.4409668e+2, -587322.25, -685854.8, 330.10825, 0.00049456465, -0.0030765277, -587321.1, -39474.445, 0.0, 5.0140877, 4.9504013 
7.7408797e+2, 2.490461e+2, -543484.5, -638307.5, -120.4089, -0.001280448, -0.004020189, -543484.3, -44141.973, 0.0, 5.0119777, 4.950721 
7.7396e+2, 2.539955e+2, -500040.1, -591638.1, -369.45676, -0.003074575, -0.0052464386, -500038.6, -49200.457, 0.0, 5.009864, 4.9507236 
7.738321e+2, 2.589449e+2, -456751.84, -545352.1, -560.34064, -0.004714729, -0.0067824144, -456748.3, -54414.15, 0.0, 5.0077477, 4.95058 
7.737045e+2, 2.6389173e+2, -419556.88, -512443.84, -809.4091, -0.004337943, -0.0016634908, -419549.84, -65694.56, 0.0, 5.005556, 4.945736 
7.735764e+2, 2.688365e+2, -374918.5, -462430.94, -1551.6525, -0.00356722, -0.011504541, -374891.0, -69494.38, 0.0, 5.003278, 4.946927 
7.7344817e+2, 2.7378127e+2, -331776.4, -415770.3, -1946.443, -0.0028479132, -0.022171052, -331731.34, -74793.31, 0.0, 5.0009923, 4.946936 
7.733201e+2, 2.7872616e+2, -288700.1, -369321.1, -1877.8788, -0.002372635, -0.03184415, -288656.38, -80178.02, 0.0, 4.99871, 4.946853 
7.731932e+2, 2.8367078e+2, -251545.9, -338218.63, -621.8292, -0.0061261863, -0.006560814, -251541.45, -91519.64, 0.0, 4.9967523, 4.941174 
7.730663e+2, 2.8861535e+2, -204816.31, -285913.16, -1207.5729, -0.0110627385, 0.020849273, -204798.34, -93232.375, 0.0, 4.9949303, 4.9429226 
7.7293944e+2, 2.9355985e+2, -160232.67, -238486.6, -1484.8268, -0.015970036, 0.046805244, -160204.5, -97093.875, 0.0, 4.993101, 4.942936 
7.7281255e+2, 2.9850408e+2, -116749.34, -193486.94, -2159.442, -0.020617703, 0.07093784, -116688.625, -102030.875, 0.0, 4.991241, 4.942083 
7.7268773e+2, 3.0345058e+2, -72700.49, -109380.49, -784.59296, -0.015279307, 0.021791447, -72683.71, -72683.71, 0.0, 4.988408, 4.9647303 
7.7256596e+2, 3.0840462e+2, -78134.93, -106110.34, -503.7756, -0.005038982, -0.10630371, -78125.86, -78125.86, 0.0, 4.9853125, 4.967257 
7.724443e+2, 3.133589e+2, -86622.58, -109905.18, -269.4458, 0.005006971, -0.23320632, -86619.46, -86619.46, 0.0, 4.982213, 4.967226 
7.7231395e+2, 3.1838918e+2, -60340.67, -30194.17, -1626.6005, -0.07651851, 0.40054002, -30106.658, -30106.658, 0.0, 4.9785666, 4.9978447 
7.822953e+2, 1.2510026e+2, -1583714.5, -1719368.3, 1377.1914, -0.0016139632, 0.020610502, -1583700.5, 130334.1, 0.0, 5.0643964, 4.9750714 
7.8216773e+2, 1.3007334e+2, -1542095.0, -1674244.8, 1506.2747, -0.0011599076, 0.01594325, -1542077.9, 123219.1, 0.0, 5.0620236, 4.975063 
7.820402e+2, 1.3504642e+2, -1500505.9, -1629114.1, 1629.776, -0.000659309, 0.01131477, -1500485.3, 116074.24, 0.0, 5.0596275, 4.9750543 
7.819127e+2, 1.4001955e+2, -1460432.4, -1586961.3, 2033.0035, -0.0001847821, 0.008446033, -1460399.8, 107421.97, 0.0, 5.0572014, 4.9740453 
7.8178555e+2, 1.4499168e+2, -1421239.3, -1547543.3, 2043.9751, 0.0010771437, 0.017822018, -1421206.3, 97887.99, 0.0, 5.0549664, 4.9719367 
7.816581e+2, 1.4996211e+2, -1378743.8, -1501878.4, 2121.1592, 0.0023452968, 0.015860453, -1378707.3, 91676.54, 0.0, 5.0528316, 4.971931 
7.8153074e+2, 1.5493251e+2, -1336246.6, -1456192.4, 2200.027, 0.0036392356, 0.013863474, -1336206.4, 85467.055, 0.0, 5.050686, 4.9719253 
7.814034e+2, 1.5990293e+2, -1294596.9, -1412275.5, 2348.163, 0.004950039, 0.012289006, -1294550.0, 78412.77, 0.0, 5.048531, 4.9713187 
7.8127635e+2, 1.6487125e+2, -1256284.6, -1375798.8, 2812.1384, 0.0066618314, 0.014679192, -1256218.5, 68053.29, 0.0, 5.046471, 4.9681387 
7.811494e+2, 1.6983756e+2, -1213211.1, -1329754.6, 2803.9404, 0.007930254, 0.010249797, -1213143.6, 62456.363, 0.0, 5.0444775, 4.9681334 
7.8102255e+2, 1.748039e+2, -1170125.6, -1283684.8, 2794.0469, 0.009206117, 0.0058482895, -1170056.9, 56871.453, 0.0, 5.0424767, 4.968128 
7.808956e+2, 1.7977026e+2, -1127946.4, -1239595.1, 2568.388, 0.01016549, 0.0022665353, -1127887.3, 50369.023, 0.0, 5.040474, 4.9674487 
7.807679e+2, 1.8473461e+2, -1089908.6, -1204403.5, 2848.7932, 0.008591755, 0.0070124804, -1089837.8, 39766.887, 0.0, 5.0384927, 4.9637065 
7.806405e+2, 1.8969667e+2, -1046493.9, -1158100.9, 2801.23, 0.0064094644, 0.0040601115, -1046423.56, 34551.984, 0.0, 5.0365605, 4.9637003 
7.805131e+2, 1.9465873e+2, -1003074.94, -1111776.8, 2751.906, 0.0042106463, 0.0011263819, -1003005.3, 29341.291, 0.0, 5.034619, 4.9636946 
7.8038573e+2, 1.996208e+2, -960241.44, -1066768.3, 2483.0215, 0.0021159844, -0.0014512483, -960183.56, 23533.719, 0.0, 5.032675, 4.9632335 
7.802577e+2, 2.0458084e+2, -922232.4, -1032086.94, 2216.8062, 0.0011685044, 0.0026702515, -922187.7, 12919.795, 0.0, 5.0307126, 4.959217 
7.8012955e+2, 2.0953831e+2, -878696.44, -985623.44, 2036.7595, 0.0002996429, -0.0012501838, -878657.7, 7864.8335, 0.0, 5.0287642, 4.9592137 
7.800015e+2, 2.1449581e+2, -835148.1, -939131.75, 1852.878, -0.00055586273, -0.005165429, -835115.1, 2822.4043, 0.0, 5.0268083, 4.959211 
7.7987355e+2, 2.1945332e+2, -792082.1, -893693.94, 1629.9937, -0.0013045582, -0.008760933, -792056.0, -2703.6863, 0.0, 5.024844, 4.958838 
7.7974486e+2, 2.2440897e+2, -754156.4, -859335.44, 850.94836, -0.00094985496, -0.003785508, -754149.5, -13363.114, 0.0, 5.0228353, 4.9546404 
7.796157e+2, 2.2936209e+2, -710631.6, -812513.0, 597.8203, -0.0006452371, -0.006935946, -710628.1, -18382.85, 0.0, 5.0207715, 4.9547515 
7.7948666e+2, 2.3431523e+2, -667248.06, -765992.9, 347.8388, -0.00034840452, -0.010095931, -667246.9, -23542.71, 0.0, 5.018698, 4.95475 
7.7935755e+2, 2.392684e+2, -624370.94, -720588.0, 231.88193, -0.00026388335, -0.012920012, -624370.4, -29207.693, 0.0, 5.016616, 4.954352 
7.7922827e+2, 2.4421987e+2, -586346.6, -685949.06, -328.52057, -0.0015380407, -0.004362333, -586345.56, -39707.55, 0.0, 5.014524, 4.950183 
7.7909815e+2, 2.491691e+2, -542642.5, -638469.1, -841.222, -0.0034636522, -0.0046704006, -542635.1, -44499.78, 0.0, 5.012367, 4.9505014 
7.7896804e+2, 2.5411832e+2, -499340.9, -591869.9, -1151.5559, -0.0054171626, -0.005216459, -499326.56, -49693.773, 0.0, 5.0102024, 4.950504 
7.7883804e+2, 2.590675e+2, -456246.75, -545764.7, -1413.8436, -0.0071763657, -0.0062688226, -456224.4, -55093.688, 0.0, 5.008035, 4.9503202 
7.787082e+2, 2.640138e+2, -419187.5, -513165.94, -1821.9774, -0.006682329, -0.0032316502, -419152.2, -66494.76, 0.0, 5.0058417, 4.9453692 
7.7857774e+2, 2.6895788e+2, -374556.4, -463209.25, -2607.015, -0.0058153197, -0.01618229, -374479.8, -70273.695, 0.0, 5.0035696, 4.946538 
7.784473e+2, 2.739019e+2, -331447.53, -416565.9, -3040.7874, -0.0049958676, -0.030028412, -331339.03, -75584.06, 0.0, 5.0012717, 4.9465466 
7.783169e+2, 2.7884617e+2, -288425.63, -370067.4, -2893.0972, -0.004497282, -0.042177994, -288323.22, -81021.234, 0.0, 4.998955, 4.946496 
7.7818805e+2, 2.8379142e+2, -251399.2, -338722.72, -1477.2228, -0.008632803, -0.0077886363, -251374.22, -92534.67, 0.0, 4.9968877, 4.940953 
7.780593e+2, 2.8873706e+2, -204997.52, -286591.16, -2131.6492, -0.013866416, 0.03277436, -204941.86, -94568.54, 0.0, 4.994952, 4.9426894 
7.779306e+2, 2.9368266e+2, -160632.34, -239260.25, -2475.7617, -0.019099126, 0.07206307, -160554.47, -98647.07, 0.0, 4.993043, 4.942703 
7.778018e+2, 2.986278e+2, -117565.67, -194951.25, -3521.7405, -0.023926353, 0.108058505, -117405.73, -103959.766, 0.0, 4.991128, 4.9416265 
7.776747e+2, 3.0357087e+2, -72492.57, -108804.62, -2806.9353, -0.014741535, 0.022833178, -72276.875, -72276.875, 0.0, 4.9883547, 4.964979 
7.775503e+2, 3.0851972e+2, -77881.89, -105575.05, -2448.097, 0.00062086654, -0.1645175, -77667.14, -77667.14, 0.0, 4.9852834, 4.967482 
7.77426e+2, 3.1346872e+2, -86094.34, -109257.87, -2226.8132, 0.015596025, -0.35115436, -85882.22, -85882.22, 0.0, 4.982283, 4.9674497 
7.77291e+2, 3.1849605e+2, -72786.914, -60082.08, -184.0886, -0.08542516, 0.27099738, -60079.41, -60079.41, 0.0, 4.9787374, 4.986752 
7.873583e+2, 1.2522882e+2, -1580684.1, -1716333.1, 5200.3833, -0.0017187763, 0.020448158, -1580485.0, 132290.25, 0.0, 5.065213, 4.9756174 
7.8722835e+2, 1.3020225e+2, -1539347.5, -1671358.4, 5445.86, -0.0010215542, 0.015703458, -1539123.3, 124910.73, 0.0, 5.06275, 4.9756064 
7.870984e+2, 1.3517568e+2, -1497969.4, -1626340.6, 5691.164, -0.00027643677, 0.011032826, -1497717.5, 117575.37, 0.0, 5.060287, 4.975596 
7.8696847e+2, 1.4014915e+2, -1458005.8, -1584194.6, 6248.1577, 0.0002943611, 0.008151549, -1457697.1, 108854.516, 0.0, 5.0578175, 4.9746075 
7.8683907e+2, 1.451216e+2, -1418986.9, -1545067.4, 6630.414, 0.0009530321, 0.017623805, -1418639.1, 99181.9, 0.0, 5.0555806, 4.9724007 
7.867095e+2, 1.500923e+2, -1376327.5, -1499316.8, 6820.4453, 0.0016775033, 0.015878491, -1375950.4, 93157.55, 0.0, 5.0535054, 4.9723973 
7.8658e+2, 1.5506297e+2, -1333632.1, -1453528.9, 7009.655, 0.0024301514, 0.014094355, -1333223.6, 87171.3, 0.0, 5.0514307, 4.9723935 
7.864505e+2, 1.6003364e+2, -1291748.4, -1409469.1, 7273.7334, 0.0031800226, 0.012553634, -1291300.6, 80381.29, 0.0, 5.049354, 4.971799 
7.863214e+2, 1.6500212e+2, -1253450.6, -1373287.9, 7967.149, 0.004019292, 0.0146659715, -1252923.3, 70066.086, 0.0, 5.0473638, 4.968484 
7.861924e+2, 1.6996855e+2, -1210121.1, -1327124.8, 8046.8867, 0.0042908364, 0.0101308795, -1209570.4, 64746.176, 0.0, 5.045462, 4.968478 
7.860635e+2, 1.7493498e+2, -1166758.4, -1280927.3, 8126.83, 0.004607632, 0.0056170993, -1166182.8, 59461.016, 0.0, 5.043561, 4.968473 
7.859345e+2, 1.7990147e+2, -1124219.0, -1236565.6, 7977.9214, 0.0047839554, 0.0019169683, -1123655.3, 53315.434, 0.0, 5.0416636, 4.9678383 
7.8580505e+2, 1.8486589e+2, -1086074.4, -1201558.4, 8427.952, 0.003772114, 0.006324724, -1085462.6, 42855.344, 0.0, 5.0397778, 4.9639883 
7.856758e+2, 1.8982796e+2, -1042369.94, -1155126.4, 8446.757, 0.002443827, 0.0030629209, -1041740.7, 37947.734, 0.0, 5.0379505, 4.9639816 
7.8554666e+2, 1.9479e+2, -998633.06, -1108660.9, 8465.175, 0.0011088896, -0.00017793926, -997985.56, 33073.44, 0.0, 5.036124, 4.963975 
7.8541744e+2, 1.9975209e+2, -955485.25, -1063560.6, 8238.452, -0.00017276079, -0.00301697, -954860.9, 27568.537, 0.0, 5.0343037, 4.963493 
7.852875e+2, 2.0471205e+2, -917455.3, -1029276.8, 8062.218, -0.0010513779, 0.0012765285, -916877.0, 16943.328, 0.0, 5.0324373, 4.9592957 
7.8515744e+2, 2.096694e+2, -873688.75, -982712.2, 7912.627, -0.0019541257, -0.002336586, -873117.44, 12119.515, 0.0, 5.030574, 4.959293 
7.850275e+2, 2.1462676e+2, -829888.06, -936112.1, 7759.766, -0.0028348868, -0.005966467, -829324.2, 7329.3823, 0.0, 5.0287104, 4.9592905 
7.8489757e+2, 2.1958414e+2, -786513.25, -890502.7, 7541.544, -0.0036134496, -0.009351346, -785969.1, 2100.8203, 0.0, 5.0268507, 4.9589343 
7.84767e+2, 2.2453958e+2, -748439.3, -856317.1, 6776.235, -0.0035856508, -0.0042739757, -748015.4, -8509.543, 0.0, 5.0249443, 4.954632 
7.846357e+2, 2.2949246e+2, -704672.6, -809418.56, 6524.997, -0.0036926188, -0.0072664805, -704267.75, -13300.685, 0.0, 5.0229745, 4.9547324 
7.845046e+2, 2.3444535e+2, -661005.2, -762780.5, 6284.16, -0.003735378, -0.010293656, -660618.7, -18190.379, 0.0, 5.0210056, 4.9547315 
7.8437346e+2, 2.3939826e+2, -617805.8, -717172.5, 6185.1196, -0.0038581498, -0.013058353, -617422.25, -23533.04, 0.0, 5.019028, 4.954363 
7.842421e+2, 2.4434935e+2, -579926.9, -682815.56, 5512.751, -0.0046816193, -0.0055305962, -579632.4, -34264.133, 0.0, 5.0169277, 4.950103 
7.8410983e+2, 2.4929816e+2, -536382.25, -635427.25, 5021.303, -0.006109487, -0.006890425, -536128.3, -39258.43, 0.0, 5.0147204, 4.950419 
7.8397757e+2, 2.5424695e+2, -493222.06, -588905.8, 4706.505, -0.0075644935, -0.008339012, -492991.13, -44619.64, 0.0, 5.0125103, 4.9504213 
7.838454e+2, 2.5919574e+2, -450239.75, -542864.4, 4484.3213, -0.008843754, -0.010002416, -450023.16, -50149.793, 0.0, 5.010308, 4.950238 
7.837134e+2, 2.6414195e+2, -413192.7, -510525.4, 4046.909, -0.008417549, -0.004191764, -413024.7, -61623.582, 0.0, 5.0081596, 4.9451766 
7.8358066e+2, 2.690859e+2, -368379.34, -460505.47, 3299.9014, -0.0076599885, -0.01373217, -368261.3, -65310.54, 0.0, 5.005958, 4.946344 
7.834479e+2, 2.7402982e+2, -325033.22, -413773.56, 2893.2964, -0.0068375776, -0.024516175, -324938.97, -70438.03, 0.0, 5.0037494, 4.946351 
7.8331536e+2, 2.7897388e+2, -281757.63, -367054.72, 3067.8699, -0.0061927927, -0.034176998, -281647.44, -75597.54, 0.0, 5.0015044, 4.9463544 
7.8318423e+2, 2.8391814e+2, -246360.34, -336345.66, 4359.5293, -0.009124563, -0.0060486994, -246149.63, -88552.2, 0.0, 4.9988356, 4.9408555 
7.830532e+2, 2.888626e+2, -202449.8, -285364.6, 3684.191, -0.012910157, 0.026034046, -202286.42, -93142.836, 0.0, 4.9960103, 4.942579 
7.829222e+2, 2.9380718e+2, -160640.61, -239185.11, 3328.9263, -0.016783018, 0.059090372, -160499.77, -99811.84, 0.0, 4.993179, 4.9425864 
7.8279114e+2, 2.9875153e+2, -119846.65, -195467.13, 2350.4465, -0.020388884, 0.09080024, -119773.66, -107538.93, 0.0, 4.990359, 4.9416914 
7.8266156e+2, 3.0369595e+2, -71835.59, -106929.66, 3006.5767, -0.012794383, 0.017126963, -71579.875, -71579.875, 0.0, 4.988462, 4.9655175 
7.825348e+2, 3.086472e+2, -72195.62, -101525.71, 2800.2122, 0.00067607244, -0.1499753, -71930.664, -71930.664, 0.0, 4.987244, 4.9680023 
7.82408e+2, 3.1359825e+2, -76273.086, -103371.78, 2764.645, 0.015055646, -0.3199179, -75993.914, -75993.914, 0.0, 4.9857516, 4.9679785 
7.8227246e+2, 3.185889e+2, -51732.305, -32119.67, 6845.818, -0.06964417, -0.08543789, -29966.51, -29966.51, 0.0, 4.982936, 4.9950905 
7.924218e+2, 1.2536046e+2, -1579950.5, -1715098.8, 3344.4058, -0.0021357297, 0.020825243, -1579867.9, 131618.31, 0.0, 5.0652328, 4.976036 
7.922894e+2, 1.3033429e+2, -1538618.3, -1670128.1, 3594.0366, -0.001148703, 0.015960736, -1538520.1, 124220.516, 0.0, 5.062769, 4.976025 
7.92157e+2, 1.353081e+2, -1497244.4, -1625114.4, 3843.492, -0.000171719, 0.011202109, -1497128.9, 116866.36, 0.0, 5.060306, 4.9760146 
7.920246e+2, 1.40282e+2, -1457271.3, -1582947.8, 4426.922, 0.00040999468, 0.008349312, -1457115.6, 108134.08, 0.0, 5.0578375, 4.975033 
7.918929e+2, 1.4525485e+2, -1418423.1, -1544114.6, 5068.873, 0.00052701903, 0.018037364, -1418219.0, 98296.23, 0.0, 5.055595, 4.972728 
7.917612e+2, 1.5022588e+2, -1375766.0, -1498368.4, 5260.361, 0.0007501, 0.016418057, -1375540.8, 92258.07, 0.0, 5.0535197, 4.972724 
7.916296e+2, 1.551969e+2, -1333073.1, -1452584.9, 5451.0254, 0.0009901166, 0.014767254, -1332825.0, 86257.65, 0.0, 5.051445, 4.9727197 
7.91498e+2, 1.6016789e+2, -1291199.6, -1408536.6, 5715.6567, 0.0011869713, 0.013213884, -1290921.9, 79444.56, 0.0, 5.049368, 4.972122 
7.913668e+2, 1.6513658e+2, -1253135.5, -1372793.5, 6537.8926, 0.0011261471, 0.015014794, -1252779.4, 68892.38, 0.0, 5.047372, 4.96866 
7.9123586e+2, 1.7010318e+2, -1209808.1, -1326631.5, 6618.741, 0.0003496237, 0.010317777, -1209434.4, 63563.082, 0.0, 5.0454698, 4.9686546 
7.9110485e+2, 1.7506976e+2, -1166447.4, -1280435.0, 6699.795, -0.0004025147, 0.005644596, -1166054.9, 58268.25, 0.0, 5.043568, 4.9686494 
7.9097396e+2, 1.8003641e+2, -1123852.3, -1235954.8, 6530.194, -0.0011157716, 0.0018092778, -1123473.1, 52175.273, 0.0, 5.0416713, 4.9680557 
7.9084265e+2, 1.8500096e+2, -1085887.3, -1201318.1, 7052.732, -0.0014253308, 0.0058953287, -1085457.9, 41536.086, 0.0, 5.039784, 4.9640803 
7.9071164e+2, 1.8996309e+2, -1042183.8, -1154888.4, 7072.739, -0.001771082, 0.0023121035, -1041741.75, 36621.824, 0.0, 5.037957, 4.964073 
7.9058075e+2, 1.9492519e+2, -998448.06, -1108425.1, 7092.3594, -0.0021496878, -0.0012407736, -997992.56, 31740.668, 0.0, 5.036131, 4.9640665 
7.9044986e+2, 1.9988734e+2, -955341.56, -1063422.4, 6833.2935, -0.002595261, -0.004319424, -954911.25, 26191.473, 0.0, 5.0343113, 4.9635515 
7.90318e+2, 2.0484726e+2, -917561.06, -1029683.25, 6658.146, -0.0033846798, 0.000044888133, -917167.06, 15327.1875, 0.0, 5.032446, 4.9591675 
7.9018617e+2, 2.0980449e+2, -873793.1, -983116.6, 6507.679, -0.004174483, -0.0033625884, -873407.1, 10505.097, 0.0, 5.030582, 4.959165 
7.900543e+2, 2.1476173e+2, -829992.06, -936516.06, 6356.069, -0.0049694213, -0.0067774504, -829614.1, 5716.0146, 0.0, 5.028719, 4.9591627 
7.8992254e+2, 2.1971901e+2, -786600.75, -890872.6, 6150.2485, -0.005746058, -0.009966928, -786239.25, 508.58795, 0.0, 5.0268593, 4.9588175 
7.897899e+2, 2.2467433e+2, -748646.25, -856990.6, 5258.288, -0.0061593773, -0.0045498027, -748391.6, -10206.748, 0.0, 5.0249567, 4.954411 
7.896567e+2, 2.29627e+2, -704896.44, -810123.75, 5038.213, -0.0069063352, -0.0072632143, -704655.75, -15007.653, 0.0, 5.0229864, 4.9545007 
7.895235e+2, 2.3457967e+2, -661227.2, -763484.0, 4798.498, -0.007613711, -0.010003836, -661002.5, -19891.217, 0.0, 5.0210176, 4.9544992 
7.893904e+2, 2.3953237e+2, -617972.2, -717746.7, 4683.1294, -0.008286184, -0.012598633, -617752.9, -25178.639, 0.0, 5.0190387, 4.954176 
7.892569e+2, 2.4448308e+2, -580236.06, -683747.3, 3812.0725, -0.008463496, -0.00662533, -580095.9, -36038.723, 0.0, 5.0169415, 4.949792 
7.891225e+2, 2.494314e+2, -536683.44, -636343.94, 3343.2075, -0.009106205, -0.009555139, -536571.44, -41008.01, 0.0, 5.0147343, 4.9501123 
7.889881e+2, 2.5437975e+2, -493520.44, -589821.7, 3030.2073, -0.009812081, -0.012538614, -493425.2, -46355.547, 0.0, 5.0125246, 4.9501143 
7.8885376e+2, 2.593281e+2, -450560.63, -543845.2, 2839.7715, -0.010447592, -0.015270348, -450474.28, -51898.586, 0.0, 5.0103235, 4.949907 
7.887196e+2, 2.6427445e+2, -413532.56, -511620.47, 2376.6707, -0.010128882, -0.0044951467, -413475.0, -63372.97, 0.0, 5.0081844, 4.944803 
7.8858465e+2, 2.6921865e+2, -368743.06, -461666.3, 1617.1942, -0.00951006, -0.0076091727, -368714.9, -67065.72, 0.0, 5.0059843, 4.945946 
7.884497e+2, 2.741628e+2, -325392.47, -414931.34, 1212.1549, -0.008859304, -0.0119677065, -325376.03, -72179.11, 0.0, 5.003776, 4.9459534 
7.883149e+2, 2.79107e+2, -282088.75, -368115.44, 1281.565, -0.008283519, -0.016363708, -282069.66, -77325.09, 0.0, 5.001524, 4.945993 
7.8818136e+2, 2.8404942e+2, -246628.66, -337262.2, 2169.7634, -0.009023485, -0.0039094468, -246576.73, -90265.69, 0.0, 4.998851, 4.9405484 
7.8804773e+2, 2.8899118e+2, -202735.58, -286351.78, 1501.5098, -0.009980798, 0.0051506716, -202708.63, -94824.86, 0.0, 4.996031, 4.942244 
7.879141e+2, 2.9393315e+2, -160910.63, -240159.78, 1157.23, -0.011114245, 0.015139035, -160893.73, -101439.0, 0.0, 4.9932036, 4.9422536 
7.877806e+2, 2.9887512e+2, -119751.23, -195590.42, 453.6353, -0.012430794, 0.026475854, -119748.51, -108723.47, 0.0, 4.990382, 4.9416623 
7.8764856e+2, 3.038256e+2, -71239.734, -106239.24, 1916.3918, -0.01128824, 0.011162917, -71135.12, -71135.12, 0.0, 4.9885383, 4.965771 
7.875194e+2, 3.0878624e+2, -71450.97, -100858.734, 1906.5325, -0.0077446615, -0.062158495, -71327.88, -71327.88, 0.0, 4.987387, 4.9682217 
7.8739023e+2, 3.1374666e+2, -74594.86, -102321.71, 1892.5328, -0.003559877, -0.13881646, -74466.28, -74466.28, 0.0, 4.986234, 4.9681916 
7.872538e+2, 3.18733e+2, -54445.168, -41731.824, 3171.305, -0.07555358, 0.047173742, -40984.66, -40984.66, 0.0, 4.983508, 4.9913344 
7.974853e+2, 1.254921e+2, -1579211.9, -1713863.5, 1495.0576, -0.0024568501, 0.02137165, -1579195.3, 131001.48, 0.0, 5.0652547, 4.976454 
7.973504e+2, 1.3046634e+2, -1537888.5, -1668899.1, 1742.4242, -0.0012071104, 0.016282432, -1537865.4, 123581.73, 0.0, 5.0627894, 4.976443 
7.972156e+2, 1.3544056e+2, -1496518.9, -1623889.4, 1996.0308, -0.000025287109, 0.011331013, -1496487.6, 116209.91, 0.0, 5.0603256, 4.976432 
7.970807e+2, 1.4041485e+2, -1456564.3, -1581762.0, 2610.869, 0.000525858, 0.00851329, -1456509.8, 107437.766, 0.0, 5.057858, 4.9754376 
7.969467e+2, 1.4538811e+2, -1417858.8, -1543163.0, 3508.0898, 0.000075123906, 0.018542962, -1417760.6, 97448.61, 0.0, 5.0556097, 4.9730544 
7.9681295e+2, 1.5035948e+2, -1375204.1, -1497421.0, 3701.035, -0.00020429469, 0.016997911, -1375092.1, 91397.45, 0.0, 5.053535, 4.9730496 
7.966792e+2, 1.5533082e+2, -1332513.5, -1451641.9, 3893.1548, -0.00047801656, 0.015428765, -1332386.5, 85383.695, 0.0, 5.0514603, 4.973045 
7.965454e+2, 1.6030213e+2, -1290668.9, -1407644.1, 4156.199, -0.0008398674, 0.013855317, -1290521.4, 78529.44, 0.0, 5.049382, 4.9724317 
7.9641217e+2, 1.6527104e+2, -1252820.0, -1372300.0, 5108.3315, -0.0018151269, 0.015393944, -1252602.0, 67752.07, 0.0, 5.0473804, 4.9688354 
7.962792e+2, 1.702378e+2, -1209494.6, -1326139.0, 5190.291, -0.003643692, 0.010506386, -1209264.1, 62414.07, 0.0, 5.0454783, 4.9688306 
7.961462e+2, 1.7520455e+2, -1166135.9, -1279943.5, 5272.4556, -0.0054687345, 0.0056452225, -1165892.1, 57110.285, 0.0, 5.0435762, 4.9688253 
7.960133e+2, 1.8017136e+2, -1123492.5, -1235361.6, 5083.242, -0.007020693, 0.0016778936, -1123262.0, 51063.94, 0.0, 5.0416794, 4.968267 
7.958802e+2, 1.8513605e+2, -1085699.6, -1201078.5, 5678.0684, -0.0065676733, 0.0054669254, -1085420.9, 40249.1, 0.0, 5.039791, 4.964172 
7.957475e+2, 1.9009823e+2, -1041997.3, -1154651.0, 5699.2783, -0.0059310696, 0.0015360917, -1041709.7, 35328.87, 0.0, 5.0379643, 4.9641647 
7.956148e+2, 1.9506037e+2, -998262.6, -1108190.0, 5720.1025, -0.0053535276, -0.0023549579, -997965.75, 30441.564, 0.0, 5.036138, 4.964157 
7.9548216e+2, 2.0002256e+2, -955218.44, -1063330.8, 5430.861, -0.004994471, -0.0056486917, -954946.3, 24829.73, 0.0, 5.03432, 4.9635935 
7.9534847e+2, 2.0498246e+2, -917665.5, -1030088.7, 5253.241, -0.0056962315, -0.001123679, -917420.56, 13747.597, 0.0, 5.032455, 4.959039 
7.952148e+2, 2.0993958e+2, -873897.06, -983521.8, 5102.8384, -0.006375273, -0.0043542786, -873660.06, 8927.393, 0.0, 5.030591, 4.9590364 
7.950811e+2, 2.1489671e+2, -830095.56, -936920.75, 4952.4785, -0.0070865606, -0.0075828456, -829866.44, 4140.2573, 0.0, 5.0287275, 4.959034 
7.9494745e+2, 2.1985388e+2, -786711.8, -891297.94, 4758.838, -0.007887296, -0.010573431, -786495.7, -1070.0306, 0.0, 5.026869, 4.958681 
7.948128e+2, 2.2480907e+2, -748841.7, -857640.4, 3743.691, -0.008771557, -0.004790823, -748713.0, -11849.008, 0.0, 5.02497, 4.9541984 
7.9467756e+2, 2.2976154e+2, -705119.5, -810829.8, 3551.611, -0.01016105, -0.007255951, -705000.3, -16671.146, 0.0, 5.022999, 4.954268 
7.945423e+2, 2.3471399e+2, -661448.4, -764188.3, 3313.0193, -0.0115357535, -0.009740579, -661341.7, -21547.395, 0.0, 5.02103, 4.954267 
7.944072e+2, 2.3966648e+2, -618182.3, -718422.94, 3164.1526, -0.012715494, -0.012212595, -618082.5, -26823.188, 0.0, 5.0190496, 4.9539533 
7.942716e+2, 2.4461678e+2, -580514.9, -684611.75, 2125.0522, -0.012206873, -0.007752319, -580471.5, -37725.305, 0.0, 5.016956, 4.9495034 
7.941351e+2, 2.4956463e+2, -536984.0, -637261.6, 1666.1699, -0.012059098, -0.012288816, -536956.3, -42699.195, 0.0, 5.014749, 4.9498053 
7.9399854e+2, 2.5451252e+2, -493818.1, -590738.5, 1354.9684, -0.012009379, -0.016847081, -493799.13, -48031.215, 0.0, 5.0125394, 4.9498067 
7.938621e+2, 2.5946048e+2, -450872.03, -544806.6, 1213.7485, -0.012021146, -0.020500883, -450856.34, -53578.34, 0.0, 5.01034, 4.9495826 
7.937258e+2, 2.6440698e+2, -413895.06, -512771.38, 697.14233, -0.011854703, -0.0044011613, -413890.16, -65087.453, 0.0, 5.00821, 4.9444103 
7.9358864e+2, 2.6935145e+2, -369106.0, -462828.13, -64.91509, -0.011367486, -0.0011289227, -369105.94, -68758.555, 0.0, 5.006011, 4.945548 
7.934514e+2, 2.7429584e+2, -325750.9, -416090.16, -468.388, -0.010883609, 0.0009015159, -325748.5, -73855.79, 0.0, 5.0038033, 4.9455547 
7.9331434e+2, 2.792401e+2, -282433.34, -369208.22, -546.1453, -0.010311542, 0.0012328147, -282429.9, -78990.32, 0.0, 5.001544, 4.94562 
7.931784e+2, 2.841805e+2, -246916.02, -338225.53, -6.3669705, -0.008773526, -0.0031891111, -246916.02, -91889.76, 0.0, 4.998868, 4.9402246 
7.9304224e+2, 2.8911963e+2, -203019.52, -287339.8, -681.53577, -0.0069294833, -0.0174108, -203014.02, -96388.445, 0.0, 4.9960527, 4.941909 
7.9290605e+2, 2.9405895e+2, -161178.8, -241135.31, -1014.8241, -0.005347861, -0.03076023, -161165.92, -102942.73, 0.0, 4.9932303, 4.94192 
7.927699e+2, 2.9899877e+2, -120029.69, -196577.03, -1469.7667, -0.0045468165, -0.03726606, -120001.48, -110186.375, 0.0, 4.990405, 4.941325 
7.9263556e+2, 3.0395576e+2, -70658.2, -105579.375, 874.1364, -0.010179637, 0.010519494, -70636.336, -70636.336, 0.0, 4.988618, 4.966006 
7.925041e+2, 3.089258e+2, -70750.85, -100206.89, 1028.6528, -0.016498057, 0.0263951, -70714.97, -70714.97, 0.0, 4.987516, 4.968435 
7.923727e+2, 3.1389552e+2, -73770.016, -101640.85, 1197.2749, -0.022515777, 0.038334284, -73718.68, -73718.68, 0.0, 4.986409, 4.968397 
7.922368e+2, 3.1887463e+2, -70815.08, -80429.89, 177.51585, -0.06590068, 0.17868257, -70811.8, -70811.8, 0.0, 4.9835835, 4.977122 
8.025488e+2, 1.2562509e+2, -1580187.3, -1713407.5, 2620.7732, -0.0011987885, 0.021690255, -1580135.6, 128758.125, 0.0, 5.0647197, 4.9768696 
8.0241144e+2, 1.3059965e+2, -1538498.0, -1668264.6, 2732.6365, -0.0004131982, 0.016880961, -1538440.5, 121700.19, 0.0, 5.062376, 4.976859 
8.022741e+2, 1.355742e+2, -1496843.5, -1623117.4, 2841.8342, 0.0003653424, 0.011970977, -1496779.6, 114608.28, 0.0, 5.060008, 4.976848 
8.021367e+2, 1.4054881e+2, -1456698.3, -1580881.0, 3360.6707, 0.00042649492, 0.009103338, -1456607.4, 106027.31, 0.0, 5.0576034, 4.975858 
8.0200046e+2, 1.4552236e+2, -1417956.4, -1542368.8, 4460.45, -0.0006290746, 0.018873852, -1417796.8, 96096.81, 0.0, 5.055399, 4.9734206 
8.0186456e+2, 1.5049396e+2, -1375127.1, -1496547.6, 4594.4033, -0.0013386708, 0.016804265, -1374953.6, 90217.99, 0.0, 5.0533843, 4.9734144 
8.017287e+2, 1.5546553e+2, -1332280.6, -1450698.8, 4727.703, -0.002029885, 0.014766087, -1332092.1, 84357.55, 0.0, 5.051364, 4.9734087 
8.015929e+2, 1.6043709e+2, -1290301.4, -1406680.4, 4945.539, -0.0028012786, 0.01284382, -1290091.5, 77636.42, 0.0, 5.049341, 4.972777 
8.014576e+2, 1.654062e+2, -1252401.9, -1371600.5, 5993.901, -0.0043184482, 0.014589873, -1252101.1, 66927.93, 0.0, 5.047425, 4.9690495 
8.0132264e+2, 1.7037313e+2, -1208840.6, -1325329.6, 6022.079, -0.006790883, 0.009984619, -1208530.1, 61821.68, 0.0, 5.0456047, 4.9690437 
8.0118775e+2, 1.7534001e+2, -1165280.3, -1279041.3, 6050.342, -0.009281447, 0.0053247176, -1164959.4, 56715.254, 0.0, 5.0437737, 4.9690375 
8.0105287e+2, 1.8030699e+2, -1122438.4, -1234334.1, 5786.7656, -0.011343345, 0.0014951283, -1122139.9, 50856.633, 0.0, 5.041939, 4.968495 
8.009179e+2, 1.8527174e+2, -1084655.8, -1200363.3, 6354.143, -0.010523968, 0.0051010437, -1084307.9, 40031.83, 0.0, 5.0401115, 4.9642663 
8.0078346e+2, 1.9023392e+2, -1040800.7, -1153867.3, 6257.449, -0.009377895, 0.0008954812, -1040455.44, 35252.715, 0.0, 5.038337, 4.964259 
8.0064905e+2, 1.9519608e+2, -996946.06, -1107353.6, 6164.1025, -0.008225538, -0.0032912095, -996603.0, 30473.627, 0.0, 5.036553, 4.964252 
8.005146e+2, 2.0015827e+2, -953887.75, -1062593.6, 5742.894, -0.007351987, -0.006764748, -953585.2, 24859.92, 0.0, 5.0347605, 4.963645 
8.0037904e+2, 2.0511808e+2, -916533.25, -1029784.56, 5517.49, -0.008024242, -0.0020688777, -916265.06, 13573.052, 0.0, 5.032896, 4.9589424 
8.0024344e+2, 2.1007505e+2, -872782.7, -983235.4, 5319.5493, -0.008606186, -0.005201146, -872527.1, 8731.915, 0.0, 5.031027, 4.9589376 
8.001079e+2, 2.1503204e+2, -829023.94, -936662.94, 5119.9756, -0.0091992635, -0.008338072, -828780.94, 3898.9338, 0.0, 5.029149, 4.9589334 
7.9997236e+2, 2.1998908e+2, -785685.8, -891043.3, 4858.934, -0.009954499, -0.011195938, -785462.2, -1361.8031, 0.0, 5.0272694, 4.9585905 
7.9983574e+2, 2.2494408e+2, -748023.06, -857805.6, 3714.1301, -0.011196407, -0.005074704, -747897.56, -12357.108, 0.0, 5.0253596, 4.9539714 
7.996985e+2, 2.298963e+2, -704322.94, -810983.0, 3437.1594, -0.013098413, -0.0073461467, -704212.25, -17204.357, 0.0, 5.023375, 4.954052 
7.995612e+2, 2.3484851e+2, -660712.6, -764375.06, 3116.8909, -0.015002608, -0.0096299015, -660618.94, -22143.62, 0.0, 5.0213847, 4.95405 
7.99424e+2, 2.3980074e+2, -617539.06, -718693.8, 2840.005, -0.016537797, -0.012020554, -617459.4, -27516.55, 0.0, 5.019379, 4.95372 
7.992864e+2, 2.4475062e+2, -579918.06, -684999.44, 1565.3397, -0.015458852, -0.008819385, -579894.75, -38460.99, 0.0, 5.0172834, 4.949232 
7.991477e+2, 2.4969803e+2, -536442.25, -637744.3, 1003.3776, -0.014652582, -0.0147792855, -536432.3, -43482.906, 0.0, 5.015069, 4.949505 
7.99009e+2, 2.546454e+2, -493325.56, -591246.7, 597.3498, -0.0139149865, -0.020819066, -493321.9, -48856.938, 0.0, 5.012841, 4.9495063 
7.9887044e+2, 2.5959295e+2, -450489.72, -545411.5, 429.37027, -0.013348502, -0.025219427, -450487.78, -54508.64, 0.0, 5.0106106, 4.9492626 
7.987319e+2, 2.645396e+2, -413711.78, -513616.5, -188.95076, -0.013434734, -0.0038477562, -413711.44, -66209.055, 0.0, 5.008434, 4.9440293 
7.985925e+2, 2.6948428e+2, -369069.94, -463746.44, -991.0257, -0.013130021, 0.0054702605, -369059.56, -70014.53, 0.0, 5.006181, 4.945165 
7.9845315e+2, 2.744289e+2, -325863.72, -417081.38, -1438.8857, -0.012832995, 0.013691107, -325841.03, -75252.88, 0.0, 5.0039196, 4.94517 
7.983138e+2, 2.7937317e+2, -282694.47, -370264.2, -1722.6469, -0.012204935, 0.018134933, -282660.6, -80525.57, 0.0, 5.001605, 4.945236 
7.981754e+2, 2.8431147e+2, -247050.08, -339066.25, -1574.9485, -0.008365722, -0.0039091897, -247023.13, -93280.39, 0.0, 4.998941, 4.9399133 
7.980367e+2, 2.89248e+2, -203149.3, -288209.56, -2293.6208, -0.0037631686, -0.041392524, -203087.48, -97719.04, 0.0, 4.9961324, 4.941584 
7.9789793e+2, 2.9418463e+2, -161396.05, -242043.31, -2679.5332, 0.0005357601, -0.07826609, -161307.11, -104314.35, 0.0, 4.993277, 4.941595 
7.9775923e+2, 2.991225e+2, -120825.01, -198452.1, -2969.715, 0.00328823, -0.09967237, -120711.56, -112107.26, 0.0, 4.9903784, 4.9406867 
7.976225e+2, 3.0408648e+2, -70211.18, -104943.92, 191.29128, -0.009439072, 0.01484271, -70210.125, -70210.125, 0.0, 4.988655, 4.9662375 
7.9748887e+2, 3.0906588e+2, -69961.01, -99467.1, 484.0313, -0.025566213, 0.11532259, -69953.07, -69953.07, 0.0, 4.9876814, 4.968652 
7.9735535e+2, 3.140449e+2, -72927.28, -100906.445, 804.8094, -0.041735064, 0.21128035, -72904.15, -72904.15, 0.0, 4.986594, 4.9686055 
7.972244e+2, 3.1898707e+2, -65849.516, -70164.84, -1509.2194, -0.012298442, -0.013127098, -65374.074, -65374.074, 0.0, 4.983766, 4.980711 
8.076118e+2, 1.2576483e+2, -1578683.8, -1711016.9, 6501.0786, 0.0013029175, 0.022360714, -1578365.1, 129158.99, 0.0, 5.06501, 4.977455 
8.07472e+2, 1.307398e+2, -1537194.9, -1665962.1, 6759.744, 0.0011745341, 0.017836982, -1536841.0, 121926.33, 0.0, 5.062602, 4.9774475 
8.073322e+2, 1.3571472e+2, -1495664.9, -1620865.8, 7018.9106, 0.0009643541, 0.01317628, -1495272.6, 114738.26, 0.0, 5.060194, 4.9774394 
8.071923e+2, 1.406897e+2, -1455511.0, -1578499.0, 7703.7476, -0.000055227978, 0.010235077, -1455030.4, 106223.75, 0.0, 5.057771, 4.976501 
8.070539e+2, 1.4566348e+2, -1416827.0, -1540142.9, 9261.27, -0.0016553751, 0.018557249, -1416135.4, 96374.836, 0.0, 5.055594, 4.9739904 
8.06916e+2, 1.5063526e+2, -1373725.9, -1494180.8, 9513.009, -0.0026472344, 0.015023616, -1372979.3, 90806.7, 0.0, 5.053675, 4.9739866 
8.067782e+2, 1.5560704e+2, -1330591.1, -1448184.4, 9763.899, -0.0036122783, 0.011532067, -1329785.9, 85275.91, 0.0, 5.0517564, 4.973983 
8.066404e+2, 1.6057882e+2, -1288292.4, -1403982.1, 10126.303, -0.004568569, 0.008514862, -1287412.6, 78924.86, 0.0, 5.0498433, 4.9733624 
8.065033e+2, 1.6554826e+2, -1250259.1, -1369167.5, 11462.177, -0.005890965, 0.010969647, -1249164.3, 68471.234, 0.0, 5.0480585, 4.969479 
8.063666e+2, 1.7051548e+2, -1206253.9, -1322674.8, 11592.212, -0.008182619, 0.0075554745, -1205110.9, 63844.594, 0.0, 5.0463943, 4.9694757 
8.0623007e+2, 1.7548265e+2, -1162218.9, -1276151.8, 11722.086, -0.010494582, 0.004050302, -1161025.4, 59250.17, 0.0, 5.0447307, 4.969473 
8.0609345e+2, 1.8044989e+2, -1118909.9, -1231252.4, 11534.758, -0.0124200685, 0.0011219454, -1117737.8, 53857.383, 0.0, 5.0430684, 4.968916 
8.059567e+2, 1.8541472e+2, -1080976.9, -1197625.8, 12254.406, -0.011918019, 0.0048255166, -1079703.4, 43234.383, 0.0, 5.0413876, 4.964503 
8.058206e+2, 1.9037686e+2, -1036711.56, -1150937.8, 12221.717, -0.011223582, 0.00064624834, -1035418.5, 38888.26, 0.0, 5.03976, 4.964496 
8.056844e+2, 1.95339e+2, -992416.9, -1104219.9, 12189.04, -0.010498265, -0.0035350805, -991103.44, 34572.383, 0.0, 5.0381327, 4.96449 
8.055482e+2, 2.0030114e+2, -948877.0, -1059191.9, 11776.445, -0.009970948, -0.007045214, -947633.8, 29410.914, 0.0, 5.036503, 4.9639025 
8.054108e+2, 2.0526086e+2, -911338.4, -1026610.3, 11629.57, -0.010653876, -0.0024612267, -910176.8, 18261.74, 0.0, 5.034768, 4.9590635 
8.052734e+2, 2.102177e+2, -867258.5, -979918.8, 11495.895, -0.011216512, -0.005646773, -866097.44, 13763.366, 0.0, 5.033019, 4.959058 
8.051361e+2, 2.1517453e+2, -823147.1, -933195.2, 11362.465, -0.011732292, -0.008826781, -821986.25, 9296.859, 0.0, 5.0312705, 4.9590526 
8.0499876e+2, 2.2013138e+2, -779419.3, -887382.9, 11146.667, -0.0122618005, -0.011719668, -778280.5, 4424.625, 0.0, 5.0295277, 4.9587207 
8.0486035e+2, 2.2508611e+2, -741731.9, -854642.4, 10012.54, -0.012912055, -0.0058960277, -740850.9, -6702.8257, 0.0, 5.027721, 4.9538894 
8.047212e+2, 2.3003794e+2, -697797.6, -807667.75, 9764.913, -0.014168045, -0.008439335, -696936.5, -11317.284, 0.0, 5.025813, 4.9539948 
8.0458206e+2, 2.349898e+2, -653964.44, -760968.94, 9480.721, -0.0154134575, -0.010982326, -653130.94, -16040.587, 0.0, 5.023907, 4.953993 
8.04443e+2, 2.3994167e+2, -610589.8, -715289.6, 9192.012, -0.016335124, -0.013495018, -609788.94, -21227.531, 0.0, 5.021993, 4.953628 
8.043032e+2, 2.4489129e+2, -572890.2, -681699.44, 7819.2407, -0.015348581, -0.009264403, -572331.2, -32275.754, 0.0, 5.019948, 4.949087 
8.0416226e+2, 2.4983835e+2, -529460.3, -634591.0, 7236.0806, -0.014559841, -0.01374645, -528964.56, -37390.082, 0.0, 5.017743, 4.949312 
8.040214e+2, 2.547854e+2, -486297.56, -588084.44, 6809.483, -0.013693812, -0.018507732, -485844.03, -42750.363, 0.0, 5.0155344, 4.949315 
8.0388063e+2, 2.5973257e+2, -443320.72, -541994.56, 6659.1216, -0.012887283, -0.022078862, -442873.34, -48261.67, 0.0, 5.013318, 4.949161 
8.037398e+2, 2.646787e+2, -406951.97, -510451.75, 5986.5376, -0.013072725, -0.0023584913, -406606.88, -60466.62, 0.0, 5.0110054, 4.943903 
8.03598e+2, 2.6962274e+2, -362863.9, -460824.2, 5296.7896, -0.0129691735, 0.0048635285, -362578.34, -64889.6, 0.0, 5.008553, 4.9450502 
8.034562e+2, 2.745668e+2, -320224.1, -414442.3, 4956.0713, -0.012788381, 0.0115385065, -319964.13, -70726.81, 0.0, 5.0060935, 4.9450493 
8.0331445e+2, 2.795106e+2, -277462.16, -367688.3, 4725.065, -0.0121467905, 0.014959159, -277215.38, -76426.31, 0.0, 5.0036097, 4.9451737 
8.031734e+2, 2.8444883e+2, -241709.05, -336262.84, 4774.166, -0.00838904, -0.0047195097, -241468.61, -89071.234, 0.0, 5.000956, 4.9399266 
8.0303186e+2, 2.893853e+2, -197631.6, -285410.13, 4169.898, -0.003444212, -0.03946602, -197433.95, -93410.44, 0.0, 4.998226, 4.9415703 
8.028904e+2, 2.9432172e+2, -155570.23, -239156.16, 3903.3396, 0.0017453382, -0.07519723, -155388.34, -99738.32, 0.0, 4.995489, 4.9415693 
8.02749e+2, 2.992593e+2, -114461.945, -194882.13, 4213.048, 0.005730762, -0.09641639, -114241.836, -106977.54, 0.0, 4.9926977, 4.9408636 
8.026102e+2, 3.0422306e+2, -67511.05, -104305.125, 6505.589, -0.00691203, 0.021180235, -66394.66, -66394.66, 0.0, 4.989937, 4.965815 
8.024746e+2, 3.0920306e+2, -71748.99, -100803.586, 4570.1797, -0.023062663, 0.13681597, -71047.08, -71047.08, 0.0, 4.9873323, 4.968217 
8.023391e+2, 3.1418407e+2, -78706.414, -103939.36, 2771.99, -0.03899549, 0.26044974, -78405.484, -78405.484, 0.0, 4.9847794, 4.968193 
8.022131e+2, 3.1908235e+2, -42602.75, -5071.295, -4054.8203, 0.061188642, -0.45640638, -4638.218, -4638.218, 0.0, 4.9817815, 5.0053854 
8.1267506e+2, 1.2590775e+2, -1577882.4, -1709673.1, 4672.563, 0.0032308933, 0.023994658, -1577717.0, 128406.46, 0.0, 5.0650334, 4.9779096 
8.125327e+2, 1.3088316e+2, -1536399.8, -1664621.4, 4937.433, 0.0022443938, 0.019505087, -1536209.9, 121152.34, 0.0, 5.0626245, 4.9779024 
8.1239045e+2, 1.3585855e+2, -1494875.9, -1619528.0, 5202.802, 0.0010986535, 0.014919942, -1494659.1, 113942.23, 0.0, 5.0602155, 4.977895 
8.1224805e+2, 1.4083399e+2, -1454675.1, -1577058.0, 5910.6377, -0.00091604027, 0.011851681, -1454390.4, 105449.82, 0.0, 5.0577927, 4.9769907 
8.1210744e+2, 1.4580806e+2, -1416166.0, -1538967.9, 7815.469, -0.0029826513, 0.018731155, -1415670.6, 95422.2, 0.0, 5.0556054, 4.9743915 
8.119676e+2, 1.507801e+2, -1373067.5, -1493010.8, 8068.902, -0.0042403704, 0.013652252, -1372527.1, 89838.59, 0.0, 5.053687, 4.9743867 
8.1182784e+2, 1.5575212e+2, -1329935.3, -1447019.3, 8321.484, -0.005483308, 0.008620814, -1329346.8, 84291.914, 0.0, 5.051769, 4.974382 
8.116881e+2, 1.607242e+2, -1287640.8, -1402819.6, 8707.433, -0.006607728, 0.004582061, -1286986.1, 77925.08, 0.0, 5.049855, 4.973762 
8.115493e+2, 1.6569403e+2, -1249870.8, -1368497.3, 10210.926, -0.0076793805, 0.0077690673, -1248998.3, 67207.31, 0.0, 5.048064, 4.969714 
8.11411e+2, 1.7066157e+2, -1205866.9, -1322005.4, 10342.722, -0.00974901, 0.00547884, -1204953.0, 62569.3, 0.0, 5.0464005, 4.9697113 
8.1127274e+2, 1.7562911e+2, -1161833.3, -1275483.4, 10474.355, -0.011865461, 0.003092016, -1160876.0, 57963.246, 0.0, 5.044737, 4.9697084 
8.111345e+2, 1.8059666e+2, -1118574.5, -1230686.8, 10255.025, -0.013681063, 0.0010688616, -1117644.3, 52511.566, 0.0, 5.043073, 4.969118 
8.109961e+2, 1.855616e+2, -1080905.9, -1197599.6, 11031.811, -0.013456813, 0.0048726294, -1079872.1, 41625.63, 0.0, 5.0413904, 4.9645224 
8.1085825e+2, 1.9052374e+2, -1036641.7, -1150912.9, 11000.951, -0.013223914, 0.00066975335, -1035592.25, 37274.58, 0.0, 5.0397625, 4.9645157 
8.107204e+2, 1.9548589e+2, -992348.1, -1104196.4, 10970.104, -0.0129920915, -0.0035279163, -991282.4, 32953.617, 0.0, 5.038135, 4.964509 
8.105825e+2, 2.0044808e+2, -948782.5, -1059119.5, 10496.77, -0.012910824, -0.0070553757, -947792.75, 27812.096, 0.0, 5.0365057, 4.9639387 
8.104434e+2, 2.0540774e+2, -911427.7, -1026954.6, 10318.509, -0.013549234, -0.0025989353, -910513.3, 16485.705, 0.0, 5.034773, 4.9589567 
8.103043e+2, 2.1036446e+2, -867348.9, -980263.6, 10186.594, -0.0140744895, -0.00586326, -866437.25, 11984.99, 0.0, 5.0330234, 4.958951 
8.1016517e+2, 2.1532117e+2, -823238.56, -933540.56, 10054.925, -0.014581537, -0.009104047, -822329.44, 7516.024, 0.0, 5.0312743, 4.9589453 
8.100261e+2, 2.2027789e+2, -779518.25, -887757.25, 9813.775, -0.014972134, -0.012036597, -778635.7, 2632.871, 0.0, 5.029533, 4.9586034 
8.098859e+2, 2.2523235e+2, -742063.94, -855572.7, 8588.064, -0.01486407, -0.0066737407, -741417.8, -8703.589, 0.0, 5.0277305, 4.9535804 
8.0974495e+2, 2.3018385e+2, -698102.06, -808542.25, 8333.609, -0.015190691, -0.0096125575, -697476.75, -13287.885, 0.0, 5.0258226, 4.9537044 
8.09604e+2, 2.3513538e+2, -654266.5, -761840.75, 8051.4644, -0.015544261, -0.012534329, -653667.25, -18003.852, 0.0, 5.0239167, 4.953703 
8.094631e+2, 2.4008694e+2, -610880.6, -716130.6, 7746.133, -0.015737927, -0.015110543, -610313.56, -23175.973, 0.0, 5.0220017, 4.953348 
8.093212e+2, 2.4503636e+2, -573350.6, -683007.56, 6124.2935, -0.014821798, -0.009159874, -573009.7, -34375.96, 0.0, 5.019965, 4.948645 
8.0917805e+2, 2.4998322e+2, -529918.5, -635893.9, 5574.193, -0.014030769, -0.011385647, -529626.06, -39470.84, 0.0, 5.01776, 4.948871 
8.0903494e+2, 2.5493005e+2, -486751.0, -589383.94, 5149.969, -0.013208067, -0.013885367, -486493.22, -44816.34, 0.0, 5.015552, 4.9488735 
8.0889195e+2, 2.5987694e+2, -443689.66, -543096.1, 5029.5146, -0.012475709, -0.016007654, -443435.8, -50237.89, 0.0, 5.013334, 4.948788 
8.0874884e+2, 2.648223e+2, -407178.0, -511290.53, 4078.2183, -0.012497321, -0.0006961425, -407018.5, -62284.617, 0.0, 5.0110264, 4.9436226 
8.0860454e+2, 2.6976547e+2, -363126.47, -461747.88, 3432.3015, -0.01228758, 0.00075944955, -363007.16, -66716.016, 0.0, 5.0085745, 4.944739 
8.0846035e+2, 2.747087e+2, -320482.1, -415363.0, 3093.7744, -0.012061251, 0.0016889375, -320381.3, -72532.91, 0.0, 5.0061154, 4.9447384 
8.083161e+2, 2.7965176e+2, -277645.7, -368428.38, 2818.2253, -0.011553234, 0.0012426857, -277558.28, -78151.375, 0.0, 5.0036283, 4.944927 
8.081722e+2, 2.8459126e+2, -241723.08, -336720.2, 2664.9727, -0.009173315, -0.0039986917, -241648.38, -90645.82, 0.0, 5.000986, 4.9397817 
8.0802774e+2, 2.895294e+2, -197664.78, -285937.56, 2088.753, -0.0057526375, -0.019456254, -197615.38, -95004.086, 0.0, 4.998261, 4.9413986 
8.0788344e+2, 2.9446757e+2, -155591.56, -239675.6, 1845.1527, -0.0021737248, -0.03593432, -155551.1, -101330.59, 0.0, 4.9955273, 4.941398 
8.077392e+2, 2.9940635e+2, -114172.48, -194650.42, 2352.0725, 0.0006471561, -0.04488644, -114103.8, -108280.86, 0.0, 4.9927297, 4.940963 
8.0759853e+2, 3.0436403e+2, -68951.39, -108329.18, 4352.5723, -0.0047501754, 0.024568701, -68476.02, -68476.02, 0.0, 4.99, 4.964371 
8.07461e+2, 3.0933562e+2, -73044.06, -104906.93, 2811.9116, -0.01152267, 0.07981078, -72797.81, -72797.81, 0.0, 4.987476, 4.9667096 
8.073235e+2, 3.1430826e+2, -79913.84, -108033.77, 1283.8737, -0.018494084, 0.1439867, -79855.34, -79855.34, 0.0, 4.9849586, 4.9666767 
8.071928e+2, 3.1922483e+2, -51888.453, -27152.348, -5464.914, 0.06102081, -0.36694735, -25998.787, -25998.787, 0.0, 4.981815, 4.9973664 
8.177383e+2, 1.260507e+2, -1577131.6, -1708355.3, 2852.8833, 0.0052315146, 0.025898982, -1577069.8, 127652.76, 0.0, 5.0650406, 4.9783626 
8.1759346e+2, 1.3102657e+2, -1535622.6, -1663290.1, 3117.7722, 0.0033361972, 0.021308767, -1535546.6, 120410.33, 0.0, 5.0626416, 4.978356 
8.174486e+2, 1.3600239e+2, -1494087.1, -1618191.0, 3386.2212, 0.0012150996, 0.016666774, -1493994.9, 113196.766, 0.0, 5.060238, 4.978349 
8.173038e+2, 1.4097828e+2, -1453863.0, -1575669.6, 4122.5947, -0.001788634, 0.01339932, -1453723.6, 104702.44, 0.0, 5.057815, 4.977463 
8.1716096e+2, 1.4595267e+2, -1415504.6, -1537794.0, 6370.4053, -0.004334366, 0.018881388, -1415173.6, 94501.67, 0.0, 5.0556173, 4.974791 
8.1701916e+2, 1.5092494e+2, -1372408.8, -1491841.8, 6625.5317, -0.0058591687, 0.012200347, -1372042.3, 88903.12, 0.0, 5.053699, 4.974786 
8.168774e+2, 1.558972e+2, -1329279.1, -1445855.0, 6879.806, -0.0073812227, 0.0055722296, -1328874.5, 83341.1, 0.0, 5.051781, 4.9747806 
8.167358e+2, 1.6086958e+2, -1287008.6, -1401700.4, 7288.2803, -0.008629003, 0.00065450784, -1286547.3, 76937.49, 0.0, 5.0498676, 4.974148 
8.1659526e+2, 1.6583982e+2, -1249482.1, -1367827.5, 8959.571, -0.009431179, 0.004690285, -1248807.6, 65967.695, 0.0, 5.0480704, 4.969949 
8.164553e+2, 1.708077e+2, -1205479.6, -1321336.5, 9093.128, -0.011290362, 0.0034843371, -1204770.3, 61318.664, 0.0, 5.0464067, 4.969946 
8.163154e+2, 1.7577559e+2, -1161447.3, -1274815.4, 9226.522, -0.0132228695, 0.002176239, -1160701.3, 56701.336, 0.0, 5.044743, 4.9699435 
8.161755e+2, 1.8074344e+2, -1118261.5, -1230170.3, 8973.218, -0.014966831, 0.001046622, -1117546.6, 51169.754, 0.0, 5.043079, 4.9693036 
8.1603545e+2, 1.8570848e+2, -1080834.6, -1197573.9, 9809.45, -0.015007287, 0.004979291, -1080016.1, 40041.418, 0.0, 5.0413933, 4.9645414 
8.1589586e+2, 1.9067064e+2, -1036571.6, -1150888.5, 9780.42, -0.015231218, 0.0007168899, -1035740.94, 35685.86, 0.0, 5.0397654, 4.9645343 
8.157564e+2, 1.956328e+2, -992279.3, -1104173.3, 9751.4, -0.015488189, -0.0035329983, -991435.8, 31360.244, 0.0, 5.0381374, 4.964527 
8.1561685e+2, 2.00595e+2, -948701.25, -1059078.1, 9217.721, -0.015842726, -0.007066008, -947936.75, 26228.219, 0.0, 5.036509, 4.963964 
8.1547594e+2, 2.055546e+2, -911516.8, -1027299.56, 9007.644, -0.01645533, -0.0027086884, -910820.2, 14739.275, 0.0, 5.0347776, 4.9588494 
8.153351e+2, 2.105112e+2, -867439.0, -980609.06, 8877.49, -0.016940964, -0.0060890694, -866746.9, 10236.812, 0.0, 5.033028, 4.9588437 
8.151942e+2, 2.1546781e+2, -823329.7, -933886.5, 8747.582, -0.017437035, -0.009427875, -822641.9, 5766.007, 0.0, 5.0312786, 4.9588375 
8.1505346e+2, 2.2042441e+2, -779662.0, -888231.8, 8485.538, -0.017649889, -0.012397127, -779002.8, 829.2001, 0.0, 5.029538, 4.9584517 
8.149115e+2, 2.2537859e+2, -742370.44, -856448.94, 7160.811, -0.01676662, -0.0074220565, -741922.7, -10642.205, 0.0, 5.027741, 4.95329 
8.147687e+2, 2.3032975e+2, -698406.06, -809417.44, 6902.382, -0.01617464, -0.0107958, -697978.5, -15219.993, 0.0, 5.025833, 4.9534135 
8.146259e+2, 2.3528095e+2, -654568.2, -762713.25, 6622.285, -0.015647285, -0.014136432, -654164.2, -19927.703, 0.0, 5.023927, 4.953412 
8.1448317e+2, 2.4023221e+2, -611223.3, -717089.06, 6302.056, -0.015137802, -0.016675586, -610849.5, -25135.71, 0.0, 5.022011, 4.9530272 
8.1433916e+2, 2.4518146e+2, -573775.56, -684239.25, 4427.324, -0.014273432, -0.008877771, -573598.4, -36386.473, 0.0, 5.0199833, 4.94823 
8.141938e+2, 2.501281e+2, -530376.06, -637197.8, 3912.8293, -0.013480031, -0.008891785, -530232.94, -41497.0, 0.0, 5.017778, 4.948429 
8.140485e+2, 2.5507468e+2, -487203.88, -590684.44, 3490.981, -0.012701755, -0.0091789365, -487086.22, -46826.15, 0.0, 5.01557, 4.9484315 
8.1390333e+2, 2.600213e+2, -444085.25, -544262.4, 3390.5298, -0.0120380195, -0.01008322, -443970.63, -52186.29, 0.0, 5.013351, 4.9483924 
8.1375784e+2, 2.649659e+2, -407386.88, -512091.72, 2175.6582, -0.011941315, 0.00072499056, -407341.7, -64013.836, 0.0, 5.0110483, 4.943355 
8.136111e+2, 2.699082e+2, -363388.16, -462672.47, 1568.3647, -0.011631872, -0.0036330335, -363363.4, -68469.555, 0.0, 5.0085964, 4.9444275 
8.1346434e+2, 2.748505e+2, -320739.25, -416284.6, 1232.0297, -0.011364398, -0.008493872, -320723.38, -74263.49, 0.0, 5.0061383, 4.9444265 
8.133177e+2, 2.7979293e+2, -277819.63, -369148.4, 909.1339, -0.011013792, -0.012261095, -277810.6, -79785.95, 0.0, 5.003648, 4.944688 
8.13171e+2, 2.847337e+2, -241791.23, -337307.22, 550.9123, -0.010008253, -0.0027241379, -241788.05, -92180.89, 0.0, 5.0010176, 4.93959 
8.130236e+2, 2.8967363e+2, -197696.45, -286465.72, 7.779179, -0.00813688, 0.00050260284, -197696.45, -96497.85, 0.0, 4.9982967, 4.9412255 
8.1287634e+2, 2.9461345e+2, -155611.34, -240195.75, -212.8532, -0.006194493, 0.0026757945, -155610.81, -102820.22, 0.0, 4.995567, 4.9412255 
8.1272936e+2, 2.9955325e+2, -114780.6, -196500.19, 441.0277, -0.004374195, 0.0067297714, -114778.23, -110395.45, 0.0, 4.992761, 4.940318 
8.1258684e+2, 3.045046e+2, -70459.29, -112472.125, 2252.6099, -0.0020276208, 0.0250669, -70338.85, -70338.85, 0.0, 4.9900594, 4.9628778 
8.124474e+2, 3.094677e+2, -74532.18, -109090.2, 1049.152, 0.0006330681, 0.011011545, -74500.36, -74500.36, 0.0, 4.9875517, 4.965195 
8.123081e+2, 3.144318e+2, -81373.71, -112227.38, -145.339, 0.0025787144, 0.006345207, -81373.02, -81373.02, 0.0, 4.9850492, 4.965154 
8.1217134e+2, 3.1938955e+2, -65711.62, -59863.01, -4955.574, 0.04759528, -0.037506048, -57033.25, -57033.25, 0.0, 4.9818773, 4.98538 
8.2280153e+2, 1.2619475e+2, -1578525.4, -1707941.6, 3951.5952, 0.009248657, 0.024664603, -1578404.8, 124904.125, 0.0, 5.064314, 4.978853 
8.226541e+2, 1.31171e+2, -1536629.6, -1662694.1, 4159.312, 0.0056457515, 0.020147266, -1536492.5, 118047.26, 0.0, 5.062048, 4.978843 
8.225068e+2, 1.3614726e+2, -1494742.4, -1617429.4, 4356.2085, 0.0019961165, 0.015630297, -1494588.0, 111182.84, 0.0, 5.0597663, 4.978833 
8.2235944e+2, 1.4112355e+2, -1454159.0, -1574677.3, 5057.0923, -0.0022412841, 0.012472652, -1453947.1, 103054.266, 0.0, 5.057459, 4.9779677 
8.222144e+2, 1.460983e+2, -1415623.9, -1536847.4, 7587.8496, -0.005413074, 0.017724771, -1415150.8, 93096.45, 0.0, 5.0553675, 4.975223 
8.220707e+2, 1.5107086e+2, -1372237.1, -1490755.5, 7768.3184, -0.007300368, 0.010648713, -1371730.1, 87784.02, 0.0, 5.0535502, 4.975218 
8.2192713e+2, 1.5604343e+2, -1328846.8, -1444644.8, 7948.2593, -0.0091726, 0.003540418, -1328303.6, 82477.67, 0.0, 5.051724, 4.975212 
8.2178354e+2, 1.6101612e+2, -1286409.9, -1400438.0, 8305.86, -0.010548628, -0.0015277066, -1285808.0, 76239.3, 0.0, 5.049875, 4.974567 
8.216412e+2, 1.6598664e+2, -1249096.0, -1366995.3, 10095.191, -0.010960258, 0.002839395, -1248237.9, 65097.27, 0.0, 5.0480804, 4.9702187 
8.214997e+2, 1.7095478e+2, -1205086.6, -1320518.6, 10173.632, -0.0124406675, 0.0021150757, -1204196.9, 60449.727, 0.0, 5.046421, 4.9702115 
8.2135814e+2, 1.7592287e+2, -1161071.8, -1274022.8, 10242.043, -0.013964107, 0.0013865295, -1160150.6, 55807.473, 0.0, 5.0447536, 4.9702044 
8.2121664e+2, 1.8089095e+2, -1117946.9, -1229532.6, 9904.79, -0.01543204, 0.0008032619, -1117074.5, 50195.273, 0.0, 5.0430937, 4.9695125 
8.2107484e+2, 1.8585603e+2, -1080567.0, -1197289.8, 10766.131, -0.015710533, 0.0047971033, -1079582.3, 39028.48, 0.0, 5.0414658, 4.964601 
8.209336e+2, 1.9081815e+2, -1036136.56, -1150529.0, 10688.828, -0.016376812, 0.00039035524, -1035146.4, 34834.21, 0.0, 5.0398965, 4.964593 
8.2079244e+2, 1.9578028e+2, -991717.75, -1103758.3, 10610.513, -0.017040497, -0.004006201, -990721.8, 30628.71, 0.0, 5.038314, 4.964585 
8.206512e+2, 2.0074245e+2, -948033.2, -1058653.4, 9971.881, -0.017730998, -0.00756471, -947141.44, 25578.342, 0.0, 5.0367293, 4.964006 
8.205086e+2, 2.0570196e+2, -910796.25, -1027168.3, 9647.762, -0.018457448, -0.0031039596, -910001.8, 14113.324, 0.0, 5.035079, 4.9587555 
8.2036597e+2, 2.106584e+2, -866526.2, -980392.6, 9411.071, -0.019015023, -0.00644927, -865753.56, 9787.217, 0.0, 5.033396, 4.958749 
8.202234e+2, 2.1561484e+2, -822275.06, -933608.8, 9175.897, -0.019563053, -0.009791769, -821523.9, 5442.544, 0.0, 5.031696, 4.9587426 
8.200809e+2, 2.2057128e+2, -778629.6, -888095.44, 8789.072, -0.019626567, -0.012720075, -777928.44, 463.63947, 0.0, 5.029973, 4.958302 
8.1993705e+2, 2.2552516e+2, -741562.56, -856702.94, 7281.593, -0.018179579, -0.007903211, -741103.9, -11260.267, 0.0, 5.028148, 4.9530215 
8.197924e+2, 2.3047598e+2, -697713.7, -809742.94, 6919.2637, -0.01684018, -0.011586962, -697288.0, -15962.657, 0.0, 5.026201, 4.95314 
8.1964785e+2, 2.354268e+2, -654013.0, -763108.7, 6544.054, -0.015513245, -0.015295565, -653621.8, -20814.912, 0.0, 5.0242457, 4.953137 
8.195032e+2, 2.4037772e+2, -610868.1, -717692.6, 6121.6255, -0.014323533, -0.01773298, -610518.5, -26230.861, 0.0, 5.022281, 4.9527025 
8.193571e+2, 2.4532676e+2, -573440.94, -685012.94, 3934.6753, -0.013550462, -0.008322343, -573302.4, -37514.027, 0.0, 5.0202694, 4.9478436 
8.192095e+2, 2.502731e+2, -530076.25, -638072.6, 3368.194, -0.012802073, -0.006438785, -529971.3, -42655.98, 0.0, 5.0180674, 4.9480057 
8.19062e+2, 2.5521946e+2, -486949.75, -591583.5, 2870.0806, -0.012066772, -0.0047410415, -486871.06, -48028.742, 0.0, 5.015843, 4.9480076 
8.189146e+2, 2.601657e+2, -443828.06, -544959.2, 2657.1394, -0.011429689, -0.0046900534, -443758.28, -53388.07, 0.0, 5.013582, 4.948058 
8.187667e+2, 2.6510954e+2, -407211.25, -512810.0, 1175.4597, -0.011319424, 0.0018995951, -407198.16, -65276.855, 0.0, 5.0112395, 4.943034 
8.186176e+2, 2.7005094e+2, -363282.38, -463394.28, 427.75778, -0.010939419, -0.008056413, -363280.53, -69784.48, 0.0, 5.0087547, 4.9441204 
8.184684e+2, 2.7499235e+2, -320756.5, -417062.75, -24.663404, -0.010621589, -0.01860732, -320756.5, -75685.58, 0.0, 5.0062513, 4.9441204 
8.183192e+2, 2.7993417e+2, -277932.06, -369926.8, -552.15076, -0.010411075, -0.025128795, -277928.75, -81287.125, 0.0, 5.0037155, 4.9444017 
8.181697e+2, 2.8487626e+2, -241607.77, -337705.3, -1112.9264, -0.01082015, -0.00094934885, -241594.88, -93383.8, 0.0, 5.0011363, 4.93942 
8.1801945e+2, 2.8981784e+2, -197435.36, -286829.5, -1763.9524, -0.010529854, 0.020147746, -197400.58, -97614.984, 0.0, 4.9984417, 4.941057 
8.178692e+2, 2.9475936e+2, -155418.39, -240589.95, -2030.277, -0.010246256, 0.040337767, -155370.03, -104009.516, 0.0, 4.995686, 4.941058 
8.177195e+2, 2.9970002e+2, -116358.95, -200603.84, -1236.6073, -0.009274915, 0.058681883, -116340.805, -113396.7, 0.0, 4.992802, 4.9388604 
8.175753e+2, 3.0464482e+2, -71841.06, -116404.8, 312.0095, 0.0012940763, 0.021926219, -71838.875, -71838.875, 0.0, 4.9901457, 4.961438 
8.1743395e+2, 3.0959934e+2, -75851.63, -113166.15, -471.30713, 0.013428872, -0.07031124, -75845.68, -75845.68, 0.0, 4.987694, 4.9636793 
8.172927e+2, 3.1455478e+2, -82643.0, -116310.81, -1387.9441, 0.024336062, -0.15272206, -82585.88, -82585.88, 0.0, 4.9852133, 4.9636292 
8.1714904e+2, 3.195508e+2, -42925.78, -7772.679, -2555.6602, 0.027310185, 0.16375038, -7587.8525, -7587.8525, 0.0, 4.981956, 5.004418 
8.2786363e+2, 1.2634484e+2, -1579259.9, -1706352.8, 7787.393, 0.013823354, 0.019387959, -1578784.5, 123050.08, 0.0, 5.063785, 4.979564 
8.2771385e+2, 1.3132165e+2, -1537318.3, -1661058.1, 8140.5615, 0.008650592, 0.01540599, -1536785.0, 116275.664, 0.0, 5.0615373, 4.9795594 
8.2756406e+2, 1.3629845e+2, -1495337.8, -1615724.6, 8494.198, 0.00339192, 0.0114983935, -1494741.4, 109545.47, 0.0, 5.0592895, 4.9795547 
8.274144e+2, 1.412753e+2, -1454507.9, -1572657.4, 9415.661, -0.0022557676, 0.008894299, -1453762.3, 101750.1, 0.0, 5.0570345, 4.9787664 
8.272674e+2, 1.462506e+2, -1415873.1, -1535018.6, 12486.55, -0.006043535, 0.014849774, -1414578.6, 92174.125, 0.0, 5.055058, 4.9758925 
8.27122e+2, 1.512237e+2, -1372009.4, -1488675.1, 12810.7, -0.008493091, 0.00875416, -1370619.3, 87395.71, 0.0, 5.0534067, 4.975891 
8.269765e+2, 1.5619677e+2, -1328115.6, -1442302.3, 13135.14, -0.010931111, 0.0026537362, -1326624.1, 82653.08, 0.0, 5.0517554, 4.9758897 
8.2683116e+2, 1.6116998e+2, -1285165.8, -1397815.5, 13630.3545, -0.0125206215, -0.0016597554, -1283539.9, 76998.53, 0.0, 5.050084, 4.9752526 
8.266874e+2, 1.6614081e+2, -1247620.1, -1364610.9, 15707.063, -0.012191076, 0.002408476, -1245548.0, 66275.4, 0.0, 5.048463, 4.9707346 
8.265443e+2, 1.7110913e+2, -1203080.4, -1317891.0, 15894.503, -0.01285676, 0.0014132311, -1200920.5, 62212.117, 0.0, 5.046992, 4.9707236 
8.264013e+2, 1.7607746e+2, -1158514.0, -1271144.0, 16081.445, -0.013503713, 0.00048755654, -1156262.8, 58179.277, 0.0, 5.0455203, 4.9707127 
8.2625824e+2, 1.8104573e+2, -1114865.6, -1226493.6, 15879.411, -0.014272166, -0.00028360507, -1112650.6, 53101.258, 0.0, 5.044065, 4.969982 
8.26115e+2, 1.8601088e+2, -1077189.6, -1194459.0, 16940.701, -0.014642069, 0.0035664327, -1074791.4, 42300.848, 0.0, 5.042628, 4.9649057 
8.259723e+2, 1.9097301e+2, -1032220.7, -1147447.9, 16946.416, -0.015614805, -0.0009509796, -1029780.06, 38682.09, 0.0, 5.04125, 4.964897 
8.258296e+2, 1.9593513e+2, -987226.4, -1100411.5, 16951.705, -0.016511474, -0.005459058, -984742.06, 35090.12, 0.0, 5.0398726, 4.964889 
8.256869e+2, 2.0089732e+2, -942952.4, -1055073.6, 16369.309, -0.01730177, -0.009076694, -940611.4, 30590.17, 0.0, 5.0385065, 4.964293 
8.2554275e+2, 2.0585676e+2, -905365.56, -1023860.2, 16136.426, -0.018067906, -0.0044246484, -903207.44, 19390.604, 0.0, 5.037063, 4.9588594 
8.2539856e+2, 2.10813e+2, -860545.2, -976837.4, 15985.255, -0.018600198, -0.0073874164, -858387.9, 15637.547, 0.0, 5.0355787, 4.958852 
8.252544e+2, 2.1576928e+2, -815697.25, -929787.5, 15834.235, -0.019114869, -0.010406252, -813540.44, 11912.45, 0.0, 5.0340943, 4.9588447 
8.251103e+2, 2.2072554e+2, -771513.8, -884124.4, 15445.169, -0.019081345, -0.013034137, -769433.9, 7446.6294, 0.0, 5.0325837, 4.9583645 
8.2496464e+2, 2.2567917e+2, -734245.0, -852979.06, 13903.882, -0.017737662, -0.007627368, -732638.56, -4303.833, 0.0, 5.030886, 4.9529505 
8.2481813e+2, 2.3062965e+2, -690237.1, -806027.94, 13580.628, -0.016265081, -0.010393896, -688665.7, -8845.898, 0.0, 5.029014, 4.953039 
8.2467157e+2, 2.3558015e+2, -646315.25, -759310.1, 13248.243, -0.0146881705, -0.013277673, -644782.7, -13477.909, 0.0, 5.027143, 4.953036 
8.2452506e+2, 2.4053071e+2, -602909.56, -713784.3, 12886.254, -0.013164574, -0.015254934, -601431.6, -18642.348, 0.0, 5.0252767, 4.952602 
8.2437694e+2, 2.4547918e+2, -565390.4, -681344.0, 10547.96, -0.0122012, -0.0067012915, -564438.7, -30143.293, 0.0, 5.023344, 4.9476337 
8.2422715e+2, 2.504249e+2, -521942.9, -634390.9, 10042.519, -0.011452211, -0.005954829, -521053.06, -35224.254, 0.0, 5.021182, 4.9477897 
8.240775e+2, 2.5537062e+2, -478656.53, -587828.3, 9578.749, -0.010613969, -0.0051720035, -477822.44, -40460.45, 0.0, 5.0190196, 4.947797 
8.239279e+2, 2.6031628e+2, -435315.75, -541031.1, 9293.595, -0.009805449, -0.0056440895, -434504.94, -45609.43, 0.0, 5.0168242, 4.9478884 
8.2377756e+2, 2.652597e+2, -399077.78, -509260.25, 7632.0273, -0.00986924, 0.0020143294, -398551.63, -58100.984, 0.0, 5.014361, 4.9428 
8.236257e+2, 2.7020067e+2, -355802.53, -460176.34, 6778.049, -0.009581713, -0.0066254428, -355364.22, -63334.56, 0.0, 5.0116487, 4.94388 
8.2347393e+2, 2.7514163e+2, -313886.7, -414125.94, 6242.8564, -0.009152273, -0.01622165, -313499.38, -69890.31, 0.0, 5.0089273, 4.943884 
8.233221e+2, 2.80083e+2, -271513.34, -367227.88, 5663.612, -0.008631119, -0.02206158, -271179.38, -75995.016, 0.0, 5.0062394, 4.944154 
8.231701e+2, 2.8502452e+2, -234726.63, -334534.06, 4910.1543, -0.009165496, 0.0015747091, -234485.64, -87726.516, 0.0, 5.0037823, 4.939283 
8.230172e+2, 2.899656e+2, -190152.88, -283642.22, 3857.2178, -0.0090690795, 0.022831678, -189994.0, -91655.79, 0.0, 5.001264, 4.9408584 
8.2286423e+2, 2.9490682e+2, -147512.27, -237129.55, 3211.1326, -0.008820895, 0.04460945, -147397.34, -97481.305, 0.0, 4.998735, 4.940868 
8.227119e+2, 2.9984704e+2, -108269.516, -197230.47, 4061.3367, -0.007473477, 0.063568026, -108084.484, -106580.85, 0.0, 4.9959526, 4.9386015 
8.225646e+2, 3.047903e+2, -67678.125, -115040.33, 5377.8936, 0.0052772374, 0.018384473, -67075.16, -67075.16, 0.0, 4.991986, 4.961007 
8.2242024e+2, 3.0974224e+2, -76144.0, -113720.766, 4708.3105, 0.021651251, -0.09117668, -75563.04, -75563.04, 0.0, 4.987917, 4.9632416 
8.22276e+2, 3.146943e+2, -87407.48, -118741.1, 4109.9536, 0.03906807, -0.2014587, -86877.35, -86877.35, 0.0, 4.983804, 4.963213 
8.221271e+2, 3.1969696e+2, -7924.769, 85162.03, -4481.2227, 0.021432959, 0.07870871, 85377.26, 85377.26, 0.0, 4.9799056, 5.039865 
8.329256e+2, 1.264981e+2, -1578259.0, -1704619.6, 6073.7256, 0.017443513, 0.014320376, -1577967.6, 122361.85, 0.0, 5.0638123, 4.980147 
8.3277345e+2, 1.3147555e+2, -1536323.8, -1659328.9, 6433.3755, 0.010864086, 0.010984398, -1535988.3, 115561.516, 0.0, 5.0615635, 4.9801426 
8.326213e+2, 1.3645299e+2, -1494349.8, -1613999.3, 6793.4907, 0.004122897, 0.0077469246, -1493965.3, 108804.766, 0.0, 5.059315, 4.9801383 
8.324691e+2, 1.4143051e+2, -1453436.6, -1570751.1, 7776.6177, -0.0027934718, 0.0058837, -1452923.4, 101066.08, 0.0, 5.0570602, 4.9794106 
8.323203e+2, 1.4640646e+2, -1415088.9, -1533569.0, 11232.751, -0.00708386, 0.012581014, -1414033.3, 91190.44, 0.0, 5.055068, 4.976385 
8.321731e+2, 1.5138012e+2, -1371231.4, -1487231.0, 11559.58, -0.010079907, 0.007325748, -1370090.6, 86389.82, 0.0, 5.053416, 4.976383 
8.3202595e+2, 1.5635377e+2, -1327344.0, -1440863.5, 11886.695, -0.013083816, 0.0020754014, -1326112.8, 81624.65, 0.0, 5.0517645, 4.976382 
8.3187896e+2, 1.6132753e+2, -1284429.0, -1396421.6, 12371.2705, -0.0147858085, -0.0016382652, -1283078.8, 75914.66, 0.0, 5.050089, 4.975733 
8.3173364e+2, 1.662987e+2, -1247182.3, -1363767.5, 14600.68, -0.013607801, 0.002214274, -1245381.6, 64893.258, 0.0, 5.0484595, 4.9710293 
8.315892e+2, 1.712673e+2, -1202644.6, -1317050.5, 14789.587, -0.013393386, 0.0010099988, -1200763.6, 60817.816, 0.0, 5.046988, 4.9710183 
8.314448e+2, 1.762359e+2, -1158080.3, -1270306.6, 14977.997, -0.013183899, -0.00012345218, -1156115.6, 56772.605, 0.0, 5.045517, 4.9710073 
8.313004e+2, 1.8120444e+2, -1114500.4, -1225806.8, 14783.608, -0.013411371, -0.001117383, -1112570.4, 51625.266, 0.0, 5.044063, 4.970226 
8.3115566e+2, 1.8616971e+2, -1077084.4, -1194309.3, 15912.858, -0.013862741, 0.0025752238, -1074962.6, 40572.242, 0.0, 5.042624, 4.9649673 
8.3101153e+2, 1.9113187e+2, -1032115.9, -1147299.4, 15920.552, -0.015031312, -0.0020325312, -1029955.9, 36948.684, 0.0, 5.0412464, 4.9649587 
8.3086747e+2, 1.9609404e+2, -987121.94, -1100264.3, 15927.818, -0.016149333, -0.0066309357, -984922.44, 33351.8, 0.0, 5.0398693, 4.96495 
8.3072335e+2, 2.0105629e+2, -942878.56, -1054998.9, 15305.718, -0.017096033, -0.010244158, -940826.7, 28816.523, 0.0, 5.038504, 4.9643297 
8.305777e+2, 2.0601566e+2, -905515.75, -1024287.25, 15029.034, -0.017842406, -0.0054463716, -903643.5, 17396.877, 0.0, 5.0370626, 4.958725 
8.3043206e+2, 2.1097182e+2, -860694.94, -977263.3, 14880.812, -0.01826469, -0.008074193, -858825.25, 13643.772, 0.0, 5.035578, 4.958718 
8.3028644e+2, 2.1592796e+2, -815846.6, -930212.3, 14732.738, -0.01870984, -0.010754838, -813979.2, 9918.553, 0.0, 5.0340934, 4.95871 
8.301409e+2, 2.2088413e+2, -771730.9, -884702.44, 14237.941, -0.018596929, -0.012937056, -769964.1, 5362.475, 0.0, 5.032582, 4.9581776 
8.299934e+2, 2.2583756e+2, -734602.0, -853938.9, 12510.682, -0.01734577, -0.006896563, -733304.56, -6521.5635, 0.0, 5.030891, 4.952631 
8.2984495e+2, 2.307878e+2, -690641.06, -807097.2, 12185.3125, -0.015759248, -0.008616638, -689379.75, -11109.016, 0.0, 5.0290194, 4.952681 
8.296966e+2, 2.3573802e+2, -646717.06, -760378.56, 11856.186, -0.014126794, -0.010430152, -645493.5, -15735.036, 0.0, 5.0271482, 4.9526772 
8.2954824e+2, 2.406883e+2, -603310.3, -714859.75, 11492.76, -0.012579822, -0.011845864, -602138.5, -20892.422, 0.0, 5.0252833, 4.9522395 
8.2939816e+2, 2.4563622e+2, -565879.3, -682746.4, 8912.745, -0.011099216, -0.004442339, -565203.5, -32446.016, 0.0, 5.0233645, 4.9471583 
8.292462e+2, 2.5058123e+2, -522430.34, -635789.2, 8416.628, -0.01014476, -0.0057342416, -521808.84, -37511.258, 0.0, 5.021202, 4.9473147 
8.2909435e+2, 2.5552627e+2, -479142.88, -589223.06, 7956.8174, -0.009176617, -0.006952514, -478570.72, -42733.355, 0.0, 5.019038, 4.947322 
8.2894254e+2, 2.6047137e+2, -435774.4, -542349.4, 7560.2183, -0.008363866, -0.008519244, -435240.78, -47864.203, 0.0, 5.016839, 4.947441 
8.2878965e+2, 2.6541463e+2, -399585.13, -510786.03, 5601.035, -0.008482479, 0.0020811008, -399303.72, -60370.15, 0.0, 5.0143843, 4.9422817 
8.2863516e+2, 2.703555e+2, -356318.72, -461739.1, 4728.6216, -0.008193127, -0.0022142474, -356107.06, -65593.41, 0.0, 5.0116735, 4.9433484 
8.2848066e+2, 2.7529636e+2, -314398.47, -415683.97, 4196.6367, -0.007832674, -0.007380768, -314224.9, -72130.805, 0.0, 5.008952, 4.943352 
8.283262e+2, 2.8023747e+2, -271986.4, -368735.34, 3752.9067, -0.0072665922, -0.010712284, -271841.06, -78168.836, 0.0, 5.0062704, 4.943636 
8.2817173e+2, 2.8517747e+2, -235239.98, -336248.34, 2968.9448, -0.006841806, 0.0038418018, -235152.8, -89891.02, 0.0, 5.0038266, 4.9386907 
8.2801634e+2, 2.9011676e+2, -190683.38, -285396.63, 1938.0643, -0.005816703, 0.013997254, -190643.73, -93785.484, 0.0, 5.0013075, 4.940251 
8.2786095e+2, 2.9505622e+2, -148045.03, -238880.39, 1320.0833, -0.0047840434, 0.024753261, -148025.86, -99572.44, 0.0, 4.9987755, 4.940261 
8.27706e+2, 2.999951e+2, -107718.234, -196410.13, 1581.267, -0.0030143752, 0.03304387, -107690.055, -107635.88, 0.0, 4.9959817, 4.9389167 
8.2755464e+2, 3.049411e+2, -67572.055, -115412.58, 2203.48, 0.00751019, 0.021308089, -67470.78, -67470.78, 0.0, 4.992026, 4.9609103 
8.2740575e+2, 3.0989715e+2, -75954.39, -114085.914, 1802.4104, 0.021189513, -0.036369532, -75869.38, -75869.38, 0.0, 4.987991, 4.9631343 
8.272571e+2, 3.1485328e+2, -86961.43, -119021.586, 1310.2261, 0.035534564, -0.09406525, -86907.97, -86907.97, 0.0, 4.983972, 4.963098 
8.271048e+2, 3.1984562e+2, -34169.914, 23568.34, -5618.8735, 0.021356111, 0.14142986, 24110.066, 24110.066, 0.0, 4.979975, 5.01698 
8.3798754e+2, 1.2665138e+2, -1577298.4, -1702904.4, 4395.586, 0.021084169, 0.009514939, -1577144.8, 121679.41, 0.0, 5.063827, 4.9807286 
8.378329e+2, 1.3162945e+2, -1535341.5, -1657604.5, 4743.838, 0.01306249, 0.0066919522, -1535157.8, 114880.875, 0.0, 5.061587, 4.980725 
8.376784e+2, 1.3660754e+2, -1493365.9, -1612275.5, 5100.232, 0.0048110564, 0.0039879763, -1493147.5, 108105.67, 0.0, 5.0593405, 4.9807205 
8.375239e+2, 1.4158574e+2, -1452399.9, -1568917.4, 6143.0835, -0.003353758, 0.002962364, -1452076.9, 100389.32, 0.0, 5.0570865, 4.9800305 
8.37373e+2, 1.4656235e+2, -1414304.8, -1532120.3, 9979.0, -0.008192097, 0.010506881, -1413465.5, 90228.93, 0.0, 5.055078, 4.9768767 
8.372242e+2, 1.5153658e+2, -1370453.6, -1485787.5, 10308.506, -0.0117297, 0.0060253246, -1369539.5, 85406.26, 0.0, 5.053426, 4.976875 
8.370753e+2, 1.565108e+2, -1326572.6, -1439425.3, 10638.298, -0.015294569, 0.0015584948, -1325578.6, 80618.7, 0.0, 5.0517735, 4.9768734 
8.3692664e+2, 1.614851e+2, -1283713.3, -1395072.5, 11107.844, -0.016985668, -0.0016036358, -1282616.0, 74832.11, 0.0, 5.050094, 4.9761977 
8.3677983e+2, 1.6645662e+2, -1246744.4, -1362924.5, 13494.749, -0.01493533, 0.0020437671, -1245197.5, 63528.625, 0.0, 5.048456, 4.971324 
8.3663404e+2, 1.7142549e+2, -1202208.8, -1316210.5, 13685.125, -0.013845537, 0.0005989814, -1200589.0, 59441.164, 0.0, 5.046985, 4.971313 
8.364883e+2, 1.7639434e+2, -1157646.5, -1269469.6, 13875.004, -0.01278433, -0.00077369565, -1155950.6, 55383.727, 0.0, 5.045514, 4.971302 
8.3634233e+2, 1.8136315e+2, -1114152.5, -1225158.3, 13690.105, -0.012536231, -0.0019444402, -1112489.0, 50150.184, 0.0, 5.0440617, 4.9704566 
8.3619624e+2, 1.8632852e+2, -1076979.3, -1194159.8, 14885.557, -0.013106745, 0.0016236958, -1075117.9, 38859.656, 0.0, 5.042621, 4.965029 
8.360508e+2, 1.9129075e+2, -1032011.06, -1147151.1, 14895.229, -0.0144691765, -0.003113234, -1030115.3, 35231.473, 0.0, 5.0412436, 4.9650197 
8.359053e+2, 1.9625296e+2, -987017.5, -1100117.3, 14904.474, -0.015806578, -0.007840761, -985086.3, 31629.854, 0.0, 5.0398664, 4.965011 
8.3575976e+2, 2.0121527e+2, -942827.44, -1054974.4, 14241.268, -0.016901692, -0.0113860285, -941047.2, 27037.55, 0.0, 5.038502, 4.964349 
8.3561265e+2, 2.0617458e+2, -905666.06, -1024714.5, 13921.534, -0.017604379, -0.006362429, -904059.75, 15422.874, 0.0, 5.037062, 4.95859 
8.354655e+2, 2.1113062e+2, -860844.8, -977689.44, 13776.258, -0.017913725, -0.008708601, -859242.56, 11669.988, 0.0, 5.0355773, 4.9585824 
8.3531845e+2, 2.1608666e+2, -815996.1, -930637.3, 13631.133, -0.018286422, -0.011104302, -814397.6, 7944.922, 0.0, 5.0340924, 4.9585752 
8.3517134e+2, 2.2104271e+2, -771972.06, -885334.5, 13030.078, -0.018092738, -0.01279245, -770493.6, 3278.9739, 0.0, 5.03258, 4.9579716 
8.3502215e+2, 2.2599594e+2, -734955.9, -854893.06, 11115.627, -0.01694782, -0.0060612946, -733934.44, -8703.243, 0.0, 5.0308967, 4.9523125 
8.348718e+2, 2.3094594e+2, -691045.0, -808167.0, 10790.77, -0.015248779, -0.006788219, -690059.1, -13337.517, 0.0, 5.0290256, 4.9523225 
8.347216e+2, 2.3589592e+2, -647118.9, -761447.56, 10464.9, -0.013561914, -0.0075870627, -646168.9, -17956.826, 0.0, 5.0271544, 4.9523177 
8.3457136e+2, 2.4084587e+2, -603711.44, -715943.7, 10087.309, -0.01199336, -0.008534929, -602812.0, -23108.965, 0.0, 5.025291, 4.951874 
8.3441925e+2, 2.4579324e+2, -566390.4, -684195.44, 7290.7993, -0.009993426, -0.0022179442, -565940.9, -34721.055, 0.0, 5.023385, 4.946666 
8.3426523e+2, 2.5073758e+2, -522917.63, -637188.2, 6790.3896, -0.008838417, -0.0056215785, -522515.5, -39748.98, 0.0, 5.021222, 4.946839 
8.341112e+2, 2.5568193e+2, -479629.1, -590618.56, 6334.5386, -0.007745027, -0.008910941, -479268.72, -44955.77, 0.0, 5.0190578, 4.9468465 
8.339572e+2, 2.6062647e+2, -436327.63, -543882.94, 5821.5874, -0.0069335294, -0.011317503, -436013.44, -50155.84, 0.0, 5.0168543, 4.946918 
8.338018e+2, 2.6556954e+2, -400024.97, -512162.8, 3567.4568, -0.0071212454, 0.0024867, -399911.56, -62495.297, 0.0, 5.0144086, 4.941816 
8.336445e+2, 2.7051035e+2, -356833.9, -463303.38, 2679.418, -0.0068382835, 0.0024815088, -356766.5, -67769.06, 0.0, 5.011699, 4.9428153 
8.3348733e+2, 2.754511e+2, -314909.25, -417243.5, 2150.64, -0.0065573393, 0.0016732949, -314864.1, -74285.13, 0.0, 5.0089784, 4.94282 
8.333302e+2, 2.803918e+2, -272527.44, -370397.9, 1887.1288, -0.0059021967, 0.0002998548, -272491.06, -80330.375, 0.0, 5.006302, 4.9430633 
8.331734e+2, 2.8533024e+2, -235766.84, -338000.1, 1001.45325, -0.0044082105, 0.00491443, -235757.05, -91991.26, 0.0, 5.0038724, 4.9380846 
8.330155e+2, 2.9026777e+2, -191214.19, -287151.9, 19.288877, -0.0024730167, 0.0032402747, -191214.19, -95834.43, 0.0, 5.0013514, 4.9396424 
8.3285767e+2, 2.952054e+2, -148578.06, -240632.17, -570.5824, -0.00066546455, 0.0022603944, -148574.53, -101582.14, 0.0, 4.998817, 4.9396524 
8.327001e+2, 3.001432e+2, -107985.984, -197510.23, -976.6972, 0.0013224926, 0.005213878, -107975.33, -107975.33, 0.0, 4.996013, 4.938545 
8.325445e+2, 3.050923e+2, -67535.81, -115867.734, -908.67694, 0.009461054, 0.027425557, -67518.734, -67518.734, 0.0, 4.9920554, 4.9607787 
8.3239114e+2, 3.100523e+2, -75963.96, -114546.21, -1016.79425, 0.020558128, 0.012227956, -75937.18, -75937.18, 0.0, 4.987997, 4.963013 
8.322379e+2, 3.1501245e+2, -87052.8, -119553.664, -1164.9902, 0.03172297, -0.001712192, -87011.09, -87011.09, 0.0, 4.983953, 4.962963 
8.320833e+2, 3.199932e+2, -59158.785, -34660.637, -3375.8047, 0.02619646, 0.19126904, -34203.97, -34203.97, 0.0, 4.9799614, 4.9955225 
8.430489e+2, 1.2680607e+2, -1578580.9, -1701977.1, 5311.2573, 0.020761525, 0.004532485, -1578352.6, 118952.69, 0.0, 5.063067, 4.9814024 
8.4289205e+2, 1.3178481e+2, -1536358.1, -1656564.4, 5692.8867, 0.0128006665, 0.0026513934, -1536089.1, 112424.55, 0.0, 5.060919, 4.9813924 
8.4273523e+2, 1.367635e+2, -1494232.5, -1611180.9, 6049.6987, 0.0046533956, 0.00081364013, -1493920.4, 105801.984, 0.0, 5.058725, 4.9813824 
8.425785e+2, 1.4174235e+2, -1453189.4, -1567784.9, 7158.06, -0.0033540523, 0.00075778033, -1452744.0, 98185.34, 0.0, 5.0564957, 4.9806943 
8.4242576e+2, 1.4671953e+2, -1415176.9, -1531307.3, 11331.852, -0.008046946, 0.009058898, -1414081.5, 88070.86, 0.0, 5.0545306, 4.9774065 
8.4227526e+2, 1.5169424e+2, -1371158.1, -1484905.4, 11596.861, -0.011440449, 0.0051454864, -1369987.9, 83411.39, 0.0, 5.052935, 4.9774017 
8.421248e+2, 1.5666895e+2, -1327138.5, -1438487.1, 11860.108, -0.014877495, 0.0011832156, -1325889.3, 78757.23, 0.0, 5.0513306, 4.977397 
8.419745e+2, 1.6164368e+2, -1284130.8, -1394142.0, 12282.045, -0.016422244, -0.0017564679, -1282776.3, 73116.98, 0.0, 5.049719, 4.9766874 
8.418262e+2, 1.6661547e+2, -1247060.8, -1362297.9, 14788.043, -0.014568906, 0.0016488135, -1245193.4, 61975.22, 0.0, 5.0482006, 4.9716516 
8.416789e+2, 1.7158455e+2, -1202176.6, -1315416.1, 14916.32, -0.013584683, -0.000056092747, -1200244.8, 58225.8, 0.0, 5.0468497, 4.97164 
8.415317e+2, 1.765536e+2, -1157301.1, -1268525.3, 15045.254, -0.012542507, -0.0017331776, -1155301.9, 54470.863, 0.0, 5.045488, 4.9716287 
8.4138435e+2, 1.815226e+2, -1113622.6, -1224232.9, 14829.445, -0.012321176, -0.0030442, -1111669.0, 49406.66, 0.0, 5.044122, 4.9707365 
8.412368e+2, 1.8648809e+2, -1076486.1, -1193613.8, 16091.18, -0.0127938185, 0.000640902, -1074315.8, 38097.16, 0.0, 5.042747, 4.9651484 
8.4108996e+2, 1.9145036e+2, -1031370.4, -1146541.9, 16087.114, -0.01406977, -0.004026624, -1029165.56, 34616.355, 0.0, 5.0414224, 4.9651375 
8.4094316e+2, 1.9641261e+2, -986265.9, -1099462.5, 16077.769, -0.015354917, -0.008718284, -984026.56, 31124.523, 0.0, 5.040086, 4.965126 
8.4079623e+2, 2.0137492e+2, -942099.75, -1054521.9, 15334.527, -0.016357465, -0.012051999, -940045.6, 26473.924, 0.0, 5.0387506, 4.964383 
8.406477e+2, 2.0633413e+2, -905057.2, -1024678.4, 14880.169, -0.01685313, -0.0067912447, -903233.94, 14684.863, 0.0, 5.0373383, 4.958472 
8.404991e+2, 2.1128999e+2, -860215.6, -977642.0, 14628.679, -0.0168753, -0.008936945, -858420.6, 10930.091, 0.0, 5.0358596, 4.9584656 
8.403505e+2, 2.1624584e+2, -815390.44, -930598.8, 14383.856, -0.016948622, -0.01113755, -813621.75, 7160.86, 0.0, 5.034366, 4.95846 
8.402019e+2, 2.2120173e+2, -771427.7, -885450.0, 13608.142, -0.016556028, -0.012398561, -769826.06, 2388.4063, 0.0, 5.0328565, 4.9578032 
8.400509e+2, 2.2615471e+2, -734381.5, -855373.56, 11421.981, -0.015820801, -0.0051666833, -733312.7, -9636.771, 0.0, 5.0312495, 4.951988 
8.3989877e+2, 2.3110437e+2, -690335.75, -808622.3, 10981.306, -0.014252871, -0.005138885, -689324.94, -14155.19, 0.0, 5.0294313, 4.951983 
8.3974665e+2, 2.3605403e+2, -646342.94, -761877.06, 10545.111, -0.012642047, -0.005130351, -645388.3, -18724.893, 0.0, 5.0275836, 4.9519777 
8.3959454e+2, 2.4100362e+2, -603000.8, -716461.2, 10039.684, -0.011099089, -0.0057304385, -602119.3, -23961.139, 0.0, 5.025707, 4.951511 
8.394404e+2, 2.4595045e+2, -565868.5, -685084.7, 6987.1416, -0.008713723, -0.00017436268, -565460.44, -35780.023, 0.0, 5.023781, 4.9461875 
8.3928424e+2, 2.5089407e+2, -522450.34, -638060.5, 6376.181, -0.007445073, -0.00552034, -522099.72, -40865.88, 0.0, 5.0215855, 4.9463825 
8.391281e+2, 2.5583774e+2, -479303.2, -591569.5, 5828.0063, -0.0062207216, -0.010814906, -479001.47, -46214.395, 0.0, 5.01937, 4.946387 
8.3897185e+2, 2.607817e+2, -436149.38, -544925.94, 5091.5483, -0.0053510317, -0.0138051035, -435911.56, -51574.34, 0.0, 5.017116, 4.94645 
8.3881384e+2, 2.657246e+2, -399786.7, -513312.25, 2450.2732, -0.0056699417, 0.0032169994, -399733.8, -63835.926, 0.0, 5.014707, 4.941301 
8.3865386e+2, 2.7066523e+2, -356552.34, -464458.38, 1425.9271, -0.005434264, 0.007301944, -356533.5, -69052.96, 0.0, 5.0120144, 4.942292 
8.384939e+2, 2.7560586e+2, -314661.47, -418420.94, 776.8016, -0.0052344496, 0.01071613, -314655.66, -75592.25, 0.0, 5.00928, 4.9422956 
8.383342e+2, 2.8054613e+2, -272600.56, -372066.38, 597.6378, -0.004424066, 0.010760711, -272596.97, -81947.26, 0.0, 5.0065546, 4.9423866 
8.38175e+2, 2.854829e+2, -235896.84, -339441.4, -529.92883, -0.0018419928, 0.004754273, -235894.14, -93623.195, 0.0, 5.0040445, 4.9375277 
8.3801466e+2, 2.9041865e+2, -191637.3, -288832.78, -1556.4094, 0.0009763359, -0.009433215, -191612.38, -97709.78, 0.0, 5.001436, 4.9390373 
8.378543e+2, 2.953545e+2, -149221.5, -242413.34, -2213.6025, 0.0035748712, -0.022925988, -149168.94, -103636.02, 0.0, 4.998821, 4.9390464 
8.3769405e+2, 3.0029148e+2, -109277.59, -200553.3, -3400.6787, 0.005545871, -0.01913332, -109151.07, -109151.07, 0.0, 4.995965, 4.9375124 
8.3753425e+2, 3.052439e+2, -67497.875, -116348.34, -3936.3748, 0.0111704515, 0.035880428, -67182.71, -67182.71, 0.0, 4.9920974, 4.960622 
8.373763e+2, 3.102077e+2, -75810.52, -114919.03, -3721.6682, 0.019804431, 0.05370392, -75459.51, -75459.51, 0.0, 4.9880667, 4.9628844 
8.372186e+2, 3.151717e+2, -87028.48, -120019.87, -3527.7095, 0.027886448, 0.07407118, -86655.484, -86655.484, 0.0, 4.98398, 4.9628205 
8.370632e+2, 3.201274e+2, -52666.867, -19597.072, 879.5138, 0.04509055, -0.001641661, -19573.697, -19573.697, 0.0, 4.9798794, 5.0009737 
8.481082e+2, 1.2696671e+2, -1581683.6, -1700925.3, 8883.269, 0.016943399, 0.00035047272, -1581025.5, 114702.836, 0.0, 5.0616317, 4.9823623 
8.479493e+2, 1.3194624e+2, -1539344.9, -1655463.3, 9391.063, 0.010504979, -0.0007435256, -1538590.3, 108338.79, 0.0, 5.0595274, 4.982347 
8.4779054e+2, 1.3692574e+2, -1496969.0, -1609964.9, 9895.897, 0.0039094486, -0.0017621288, -1496108.9, 102021.21, 0.0, 5.0574226, 4.9823318 
8.476318e+2, 1.4190535e+2, -1455510.9, -1566337.9, 11303.652, -0.002717726, -0.0011726683, -1454369.8, 94960.12, 0.0, 5.055334, 4.9816504 
8.474776e+2, 1.4688319e+2, -1417183.0, -1530036.9, 16079.982, -0.0062894905, 0.0076211356, -1414936.6, 85610.15, 0.0, 5.053576, 4.978192 
8.4732574e+2, 1.5185851e+2, -1372455.9, -1483274.9, 16497.53, -0.008863897, 0.0043544155, -1370052.0, 81736.25, 0.0, 5.052224, 4.978189 
8.4717387e+2, 1.5683378e+2, -1327704.0, -1436488.4, 16914.084, -0.011505116, 0.0010212805, -1325134.9, 77895.19, 0.0, 5.050872, 4.978186 
8.470221e+2, 1.6180906e+2, -1283999.1, -1391835.0, 17506.309, -0.012885633, -0.0018593861, -1281228.3, 73043.62, 0.0, 5.0495133, 4.9774585 
8.468724e+2, 1.6678119e+2, -1246520.4, -1360136.6, 20377.656, -0.012210255, 0.0008825328, -1242976.1, 62567.89, 0.0, 5.0482316, 4.972254 
8.467238e+2, 1.7175053e+2, -1200925.5, -1312896.6, 20648.914, -0.012500286, -0.001268099, -1197239.0, 59604.48, 0.0, 5.0471287, 4.9722466 
8.4657526e+2, 1.7671986e+2, -1155310.1, -1265636.4, 20919.586, -0.0128090205, -0.0034636671, -1151476.8, 56666.43, 0.0, 5.0460258, 4.972239 
8.4642655e+2, 1.8168917e+2, -1110862.4, -1220931.3, 20839.215, -0.013390417, -0.004989533, -1107049.1, 52393.855, 0.0, 5.0449243, 4.9713635 
8.462779e+2, 1.8665496e+2, -1073249.1, -1190476.4, 22330.842, -0.013259815, -0.00080404937, -1069139.4, 41637.984, 0.0, 5.0438037, 4.9655986 
8.4612995e+2, 1.9161743e+2, -1027434.44, -1143070.4, 22477.389, -0.013909504, -0.0048123915, -1023218.94, 38925.23, 0.0, 5.042728, 4.9655886 
8.45982e+2, 1.9657987e+2, -981599.3, -1095644.8, 22622.93, -0.014615878, -0.008886132, -977275.56, 36235.625, 0.0, 5.0416517, 4.9655786 
8.458339e+2, 2.0154236e+2, -936846.94, -1050711.6, 21995.44, -0.0149782775, -0.011718353, -932745.75, 32132.553, 0.0, 5.0405846, 4.9647126 
8.456842e+2, 2.0650144e+2, -899345.3, -1021177.06, 21647.191, -0.014827177, -0.0064550154, -895613.3, 20665.82, 0.0, 5.039432, 4.9585814 
8.455343e+2, 2.114571e+2, -853891.1, -973844.7, 21516.227, -0.014098498, -0.008283526, -850148.5, 17564.719, 0.0, 5.038174, 4.9585805 
8.453845e+2, 2.164128e+2, -808413.06, -926489.75, 21384.81, -0.013340966, -0.0101596005, -804659.4, 14487.848, 0.0, 5.036916, 4.958579 
8.452345e+2, 2.213685e+2, -763767.9, -881029.3, 20663.37, -0.012375348, -0.011299064, -760233.2, 10348.092, 0.0, 5.0356545, 4.9579234 
8.4508187e+2, 2.2632112e+2, -726378.06, -851302.5, 18488.459, -0.012040175, -0.0042316657, -723699.3, -1653.2025, 0.0, 5.0342584, 4.951905 
8.449279e+2, 2.3127031e+2, -681791.1, -804299.7, 18185.703, -0.0110657485, -0.0046556746, -679148.56, -5604.024, 0.0, 5.0326395, 4.951903 
8.4477407e+2, 2.3621951e+2, -637174.2, -757267.5, 17882.742, -0.009949959, -0.0050473353, -634567.9, -9525.01, 0.0, 5.0310206, 4.9519014 
8.446201e+2, 2.4116863e+2, -593221.1, -711572.25, 17414.666, -0.008688584, -0.0059476616, -590711.9, -14169.79, 0.0, 5.02937, 4.951436 
8.44464e+2, 2.4611498e+2, -556066.75, -680445.94, 14297.034, -0.006536255, -0.000086936445, -554444.5, -26375.648, 0.0, 5.0275025, 4.946003 
8.443055e+2, 2.5105813e+2, -512651.4, -633503.4, 13714.471, -0.0055210846, -0.004768243, -511114.6, -31487.354, 0.0, 5.025319, 4.946178 
8.4414715e+2, 2.5600126e+2, -469452.7, -587047.7, 13233.839, -0.004331499, -0.009603754, -467981.78, -36796.074, 0.0, 5.0231314, 4.9461703 
8.439887e+2, 2.6094466e+2, -426037.75, -540166.75, 12535.597, -0.0032313655, -0.012214132, -424677.1, -41935.73, 0.0, 5.0209465, 4.9462976 
8.438283e+2, 2.658869e+2, -389648.3, -509071.03, 9706.242, -0.0034240691, 0.004479735, -388864.56, -54556.105, 0.0, 5.0186415, 4.9409313 
8.4366566e+2, 2.7082685e+2, -346285.28, -460093.9, 8673.94, -0.0028714295, 0.008827034, -345628.0, -59730.17, 0.0, 5.015981, 4.9419656 
8.43503e+2, 2.7576682e+2, -304253.1, -414032.6, 8045.4595, -0.0022059295, 0.012857623, -303666.6, -66179.44, 0.0, 5.0133057, 4.941963 
8.4334064e+2, 2.8070635e+2, -262302.88, -367763.5, 7938.902, -0.0009778421, 0.0128783705, -261708.6, -72627.89, 0.0, 5.010546, 4.942051 
8.431784e+2, 2.8564224e+2, -227216.5, -335860.53, 6607.6187, 0.00070639746, 0.005341181, -226816.11, -86105.305, 0.0, 5.0074434, 4.9371967 
8.4301496e+2, 2.9057702e+2, -185072.83, -286236.88, 5614.682, 0.003002729, -0.011243983, -184762.16, -92410.14, 0.0, 5.004075, 4.938699 
8.4285164e+2, 2.9551178e+2, -144779.4, -240787.4, 4985.6187, 0.005658005, -0.028629333, -144521.2, -100527.94, 0.0, 5.000692, 4.938704 
8.426882e+2, 3.0044803e+2, -106066.47, -198745.75, 4176.7686, 0.008161746, -0.02578097, -105878.62, -105878.62, 0.0, 4.9972544, 4.9374905 
8.425248e+2, 3.054014e+2, -61865.555, -112587.586, 3030.5093, 0.013016946, 0.04030164, -61685.133, -61685.133, 0.0, 4.994128, 4.960988 
8.423631e+2, 3.103662e+2, -67432.54, -109796.5, 2545.6174, 0.020940356, 0.06665425, -67280.125, -67280.125, 0.0, 4.9910717, 4.96331 
8.4220153e+2, 3.1533116e+2, -76202.21, -113692.47, 2181.6987, 0.029524595, 0.09293696, -76075.67, -76075.67, 0.0, 4.9878526, 4.963292 
8.4204453e+2, 3.2026672e+2, -18515.44, 42696.91, 128.26778, 0.06742538, -0.27933255, 42697.18, 42697.18, 0.0, 4.983401, 5.02235 
8.531668e+2, 1.2713048e+2, -1580392.9, -1698545.3, 7268.3853, 0.011750059, -0.003220263, -1579947.4, 114173.305, 0.0, 5.06165, 4.983164 
8.530061e+2, 1.3211086e+2, -1538057.5, -1653091.6, 7784.6455, 0.00734317, -0.003711009, -1537533.1, 107780.09, 0.0, 5.0595465, 4.9831476 
8.528453e+2, 1.3709122e+2, -1495685.3, -1607601.8, 8297.944, 0.0026779994, -0.0041415025, -1495073.3, 101432.82, 0.0, 5.057443, 4.983131 
8.5268474e+2, 1.4207166e+2, -1454246.4, -1564006.1, 9856.169, -0.0024185374, -0.0029958014, -1453368.3, 94329.586, 0.0, 5.0553565, 4.9824386 
8.52529e+2, 1.4705025e+2, -1416283.4, -1528280.9, 15048.46, -0.0047838506, 0.0063654613, -1414296.6, 84611.25, 0.0, 5.0535784, 4.9787884 
8.523759e+2, 1.5202624e+2, -1371561.3, -1481526.0, 15468.752, -0.006513015, 0.0038263595, -1369426.6, 80716.62, 0.0, 5.0522265, 4.9787846 
8.522228e+2, 1.5700217e+2, -1326814.5, -1434746.8, 15888.055, -0.008343754, 0.0012164087, -1324524.3, 76854.695, 0.0, 5.0508747, 4.9787807 
8.520696e+2, 1.6197802e+2, -1283161.8, -1390186.0, 16486.352, -0.009692382, -0.0015333921, -1280679.8, 71935.555, 0.0, 5.049515, 4.9780235 
8.519186e+2, 1.6695055e+2, -1245977.4, -1359011.8, 19542.688, -0.010217785, 0.00042346507, -1242694.0, 61189.777, 0.0, 5.0482235, 4.972643 
8.517688e+2, 1.7192023e+2, -1200384.0, -1311774.1, 19816.838, -0.011769141, -0.002308995, -1196963.5, 58216.594, 0.0, 5.047121, 4.9726353 
8.51619e+2, 1.7688988e+2, -1154770.1, -1264516.3, 20090.406, -0.013392202, -0.0051003783, -1151208.0, 55268.72, 0.0, 5.046018, 4.972628 
8.514691e+2, 1.8185957e+2, -1110317.6, -1219787.0, 19989.582, -0.014548716, -0.006707491, -1106781.6, 50991.07, 0.0, 5.0449147, 4.971763 
8.5131943e+2, 1.8682571e+2, -1072968.9, -1189853.9, 21526.03, -0.013697314, -0.002010523, -1069130.6, 39973.016, 0.0, 5.043789, 4.965822 
8.511705e+2, 1.9178846e+2, -1027153.56, -1142448.9, 21676.318, -0.013765175, -0.005371456, -1023212.94, 37254.63, 0.0, 5.042714, 4.9658117 
8.510215e+2, 1.9675119e+2, -981317.9, -1095024.3, 21825.598, -0.013950924, -0.008819519, -977272.44, 34559.367, 0.0, 5.0416384, 4.9658017 
8.5087246e+2, 2.0171386e+2, -936751.06, -1050491.5, 21158.193, -0.013734033, -0.011053598, -932942.7, 30254.232, 0.0, 5.040571, 4.9648 
8.507215e+2, 2.066729e+2, -899514.44, -1021576.2, 20707.848, -0.012933058, -0.0057793353, -896097.06, 18501.514, 0.0, 5.0394225, 4.9584556 
8.505705e+2, 2.1162851e+2, -854060.5, -974244.9, 20581.28, -0.011424108, -0.0072139064, -850633.75, 15400.198, 0.0, 5.0381646, 4.958454 
8.5041946e+2, 2.165841e+2, -808582.7, -926891.0, 20454.258, -0.0099437, -0.008695592, -805146.2, 12323.093, 0.0, 5.0369062, 4.958452 
8.5026824e+2, 2.2153969e+2, -763955.25, -881480.1, 19656.951, -0.008648788, -0.009663211, -760754.7, 8150.1064, 0.0, 5.0356455, 4.957779 
8.5011405e+2, 2.2649208e+2, -726733.56, -852242.3, 17276.576, -0.008434922, -0.0025140955, -724398.8, -4026.9958, 0.0, 5.0342627, 4.9515905 
8.499585e+2, 2.3144089e+2, -682148.75, -805242.44, 16979.084, -0.007896439, -0.003611671, -679849.7, -7975.663, 0.0, 5.032643, 4.9515877 
8.498029e+2, 2.363897e+2, -637533.94, -758213.06, 16681.387, -0.007300423, -0.004637654, -635270.56, -11894.486, 0.0, 5.0310225, 4.951585 
8.4964734e+2, 2.4133849e+2, -593625.06, -712627.0, 16075.162, -0.006485747, -0.0058540236, -591491.8, -16613.164, 0.0, 5.0293717, 4.9510813 
8.4948915e+2, 2.4628444e+2, -556528.6, -681773.6, 12699.237, -0.004539327, 0.000096836586, -555253.94, -28844.67, 0.0, 5.027519, 4.9455557 
8.493285e+2, 2.512272e+2, -513166.2, -634965.2, 12089.389, -0.003656413, -0.0033190218, -511977.84, -34006.426, 0.0, 5.0253367, 4.9456835 
8.491679e+2, 2.5616995e+2, -469965.8, -588508.25, 11613.985, -0.0026947728, -0.0068549006, -468838.66, -39305.063, 0.0, 5.0231485, 4.945675 
8.4900725e+2, 2.6111293e+2, -426537.34, -541608.44, 10899.421, -0.0017585519, -0.0085903555, -425514.06, -44420.598, 0.0, 5.020965, 4.945807 
8.4884447e+2, 2.6605445e+2, -390237.56, -510878.53, 7717.9097, -0.0014658041, 0.006561516, -389745.84, -57078.414, 0.0, 5.018676, 4.940314 
8.486792e+2, 2.7099362e+2, -346881.22, -461933.9, 6669.11, -0.00015526179, 0.009359351, -346495.94, -62231.39, 0.0, 5.016017, 4.941335 
8.4851396e+2, 2.759328e+2, -304844.78, -415866.4, 6045.087, 0.0011803503, 0.011895248, -304516.63, -68655.02, 0.0, 5.0133405, 4.941334 
8.4834886e+2, 2.808716e+2, -262879.75, -369539.1, 5752.637, 0.0025588567, 0.010990224, -262570.38, -75108.2, 0.0, 5.0105753, 4.9414434 
8.4818333e+2, 2.8580725e+2, -227669.28, -337479.88, 4067.4014, 0.0024799772, 0.007120037, -227518.83, -88423.62, 0.0, 5.0074825, 4.936648 
8.480164e+2, 2.9074192e+2, -185553.06, -287926.63, 3060.9912, 0.0031936667, -0.0042526666, -185461.63, -94723.73, 0.0, 5.0041127, 4.938125 
8.478494e+2, 2.956766e+2, -145266.05, -242477.88, 2457.921, 0.004163352, -0.016293045, -145203.94, -102823.44, 0.0, 5.000726, 4.93813 
8.4768254e+2, 3.0061248e+2, -105193.35, -197427.67, 1679.8823, 0.0059377356, -0.015561709, -105162.766, -105162.766, 0.0, 4.997317, 4.937976 
8.4751624e+2, 3.0556458e+2, -61187.83, -112094.93, 608.4909, 0.012459858, 0.039614208, -61180.555, -61180.555, 0.0, 4.994237, 4.961184 
8.4735155e+2, 3.105279e+2, -66476.445, -109201.84, 504.72418, 0.020527769, 0.056858376, -66470.484, -66470.484, 0.0, 4.991286, 4.9634986 
8.47187e+2, 3.154914e+2, -74466.21, -112792.36, 246.07877, 0.028806416, 0.07488588, -74464.625, -74464.625, 0.0, 4.988352, 4.963471 
8.4702486e+2, 3.2043928e+2, -39260.434, -9511.781, -3811.388, 0.055222392, -0.10422736, -9031.23, -9031.23, 0.0, 4.9840927, 5.002908 
8.5822546e+2, 1.272943e+2, -1579081.6, -1696151.5, 5664.0894, 0.006902278, -0.006399442, -1578808.3, 113704.484, 0.0, 5.061677, 4.983965 
8.580628e+2, 1.3227552e+2, -1536751.6, -1650709.0, 6183.2334, 0.004507781, -0.00647192, -1536417.1, 107279.93, 0.0, 5.0595737, 4.9839473 
8.579001e+2, 1.3725671e+2, -1494398.8, -1605236.4, 6698.229, 0.0017624808, -0.0064941477, -1493995.4, 100886.47, 0.0, 5.0574656, 4.9839296 
8.577376e+2, 1.42238e+2, -1453032.3, -1561769.1, 8413.531, -0.0019425831, -0.004748286, -1452385.0, 93680.57, 0.0, 5.055377, 4.983196 
8.5758036e+2, 1.4721733e+2, -1415394.8, -1526530.1, 14016.791, -0.0032370344, 0.0052482923, -1413654.1, 83614.59, 0.0, 5.0535774, 4.979384 
8.5742605e+2, 1.5219396e+2, -1370667.3, -1479777.5, 14440.808, -0.0041098096, 0.0033804474, -1368788.4, 79709.76, 0.0, 5.0522294, 4.979379 
8.572717e+2, 1.5717058e+2, -1325925.5, -1433005.5, 14862.855, -0.005119771, 0.0014381652, -1323900.9, 75826.88, 0.0, 5.0508776, 4.979375 
8.571172e+2, 1.6214702e+2, -1282343.5, -1388577.8, 15463.206, -0.006589098, -0.0012209166, -1280138.4, 70820.09, 0.0, 5.049516, 4.978575 
8.569647e+2, 1.6711994e+2, -1245434.9, -1357886.6, 18708.072, -0.00833345, -0.000026146217, -1242404.3, 59819.055, 0.0, 5.0482154, 4.973031 
8.568137e+2, 1.7208993e+2, -1199843.0, -1310651.3, 18985.117, -0.011155238, -0.0033755114, -1196680.5, 56836.023, 0.0, 5.0471134, 4.973024 
8.566627e+2, 1.770599e+2, -1154230.8, -1263395.8, 19261.578, -0.014101743, -0.0067977677, -1150931.9, 53878.258, 0.0, 5.046011, 4.9730167 
8.5651165e+2, 1.8203e+2, -1109786.3, -1218671.3, 19132.074, -0.015677739, -0.008351025, -1106522.4, 49579.87, 0.0, 5.0449057, 4.9721527 
8.5636103e+2, 1.8699649e+2, -1072689.3, -1189231.0, 20721.938, -0.014029861, -0.0031186466, -1069114.4, 38315.234, 0.0, 5.043775, 4.966045 
8.56211e+2, 1.9195952e+2, -1026873.4, -1141826.9, 20875.965, -0.013518279, -0.005883732, -1023199.6, 35591.188, 0.0, 5.0427003, 4.9660344 
8.5606104e+2, 1.9692251e+2, -981037.1, -1094403.4, 21028.986, -0.0131857935, -0.008757648, -977262.0, 32890.24, 0.0, 5.0416255, 4.9660244 
8.559109e+2, 2.018854e+2, -936692.6, -1050351.4, 20319.271, -0.01240867, -0.010305604, -933169.25, 28346.195, 0.0, 5.040558, 4.964859 
8.5575885e+2, 2.0684442e+2, -899684.25, -1021975.2, 19769.326, -0.010989942, -0.004964954, -896567.8, 16350.057, 0.0, 5.039414, 4.958329 
8.556066e+2, 2.117999e+2, -854230.56, -974644.94, 19647.154, -0.008683823, -0.006081532, -851105.94, 13248.617, 0.0, 5.0381556, 4.958327 
8.5545444e+2, 2.1675542e+2, -808753.0, -927292.06, 19524.53, -0.006463643, -0.0072447206, -805619.94, 10171.372, 0.0, 5.036897, 4.9583244 
8.553019e+2, 2.2171089e+2, -764179.4, -882011.44, 18655.98, -0.0049255146, -0.008034046, -761296.2, 5932.0376, 0.0, 5.0356364, 4.957607 
8.551463e+2, 2.2666304e+2, -727089.8, -853182.3, 16065.909, -0.004906986, -0.00073603017, -725075.0, -6377.4077, 0.0, 5.034267, 4.951276 
8.54989e+2, 2.3161146e+2, -682507.2, -806185.25, 15773.678, -0.004778696, -0.0025852127, -680527.1, -10323.627, 0.0, 5.032646, 4.951272 
8.548318e+2, 2.365599e+2, -637894.5, -759158.8, 15481.243, -0.0046767145, -0.004323494, -635949.3, -14239.982, 0.0, 5.031025, 4.9512677 
8.546745e+2, 2.4150833e+2, -594076.1, -713787.6, 14741.623, -0.004311717, -0.0057297023, -592287.5, -19072.34, 0.0, 5.029374, 4.95069 
8.545143e+2, 2.464539e+2, -556966.2, -683048.06, 11097.795, -0.0025880802, 0.00045907675, -555996.8, -31247.148, 0.0, 5.027537, 4.9451265 
8.5435146e+2, 2.5139627e+2, -513681.28, -636427.6, 10465.074, -0.0018284601, -0.0017659474, -512795.44, -36479.92, 0.0, 5.0253553, 4.9451876 
8.541886e+2, 2.5633863e+2, -470479.2, -589969.44, 9994.897, -0.0010864128, -0.004082934, -469648.94, -41767.477, 0.0, 5.0231667, 4.9451785 
8.540258e+2, 2.6128116e+2, -427158.1, -543328.3, 9267.366, -0.00029496106, -0.005031334, -426423.44, -46977.777, 0.0, 5.0209846, 4.9452186 
8.538606e+2, 2.6622197e+2, -390743.28, -512498.94, 5727.8247, 0.00051212026, 0.008614519, -390474.4, -59447.824, 0.0, 5.018711, 4.939761 
8.5369277e+2, 2.7116036e+2, -347476.47, -463775.28, 4664.1953, 0.0025634104, 0.00978197, -347289.72, -64658.25, 0.0, 5.016053, 4.940704 
8.535249e+2, 2.7609873e+2, -305435.84, -417701.56, 4044.6304, 0.0045547467, 0.010725862, -305290.3, -71054.03, 0.0, 5.0133767, 4.940703 
8.533571e+2, 2.8103688e+2, -263521.9, -371472.28, 3540.651, 0.006024822, 0.009278816, -263405.9, -77562.07, 0.0, 5.010606, 4.9407797 
8.5318816e+2, 2.8597227e+2, -228124.56, -339105.03, 1542.3505, 0.004251674, 0.008924719, -228103.13, -90623.414, 0.0, 5.0075226, 4.9360957 
8.530176e+2, 2.9090676e+2, -186032.5, -289619.06, 508.6067, 0.0033686028, 0.0020695878, -186030.02, -96906.03, 0.0, 5.0041523, 4.937549 
8.528471e+2, 2.958413e+2, -145751.84, -244171.08, -68.46791, 0.002636193, -0.005330237, -145751.8, -104983.695, 0.0, 5.000762, 4.937554 
8.5267687e+2, 3.00777e+2, -104950.26, -197591.55, -715.31604, 0.0036165044, -0.003677014, -104944.734, -104944.734, 0.0, 4.9973836, 4.937929 
8.5250765e+2, 3.0572778e+2, -60591.344, -111665.31, -1830.2576, 0.011852737, 0.03824954, -60525.84, -60525.84, 0.0, 4.9943247, 4.961357 
8.523399e+2, 3.1068948e+2, -65990.41, -108821.28, -1554.7242, 0.020170968, 0.039358083, -65934.05, -65934.05, 0.0, 4.9913325, 4.963673 
8.521724e+2, 3.1565148e+2, -74099.62, -112505.74, -1557.8978, 0.028084796, 0.042676948, -74036.52, -74036.52, 0.0, 4.9883604, 4.96363 
8.520052e+2, 3.2061276e+2, -57960.418, -52995.35, -5283.7974, 0.04352873, 0.065665394, -49639.95, -49639.95, 0.0, 4.984017, 4.987044 
8.63284e+2, 1.274597e+2, -1580998.1, -1695202.4, 6488.411, 0.0051477086, -0.007261196, -1580630.8, 110259.9, 0.0, 5.060604, 4.98481 
8.6311936e+2, 1.3244171e+2, -1538359.5, -1649596.5, 6958.1714, 0.0036623438, -0.0068731015, -1537925.9, 104141.55, 0.0, 5.0586033, 4.9847956 
8.6295474e+2, 1.3742368e+2, -1495741.3, -1603982.3, 7440.525, 0.0018357424, -0.006579183, -1495232.3, 98012.53, 0.0, 5.056584, 4.984781 
8.6279017e+2, 1.424057e+2, -1454171.1, -1560445.4, 9342.083, -0.001441841, -0.0049741245, -1453356.3, 91065.17, 0.0, 5.0545764, 4.9840293 
8.6263144e+2, 1.4738563e+2, -1416594.4, -1525566.5, 15363.124, -0.0025405458, 0.0046336656, -1414469.9, 81148.6, 0.0, 5.0528483, 4.980054 
8.6247575e+2, 1.5236282e+2, -1371737.5, -1478740.3, 15785.193, -0.003123319, 0.0026366282, -1369457.4, 77385.016, 0.0, 5.051545, 4.9800515 
8.6232007e+2, 1.5733999e+2, -1326883.3, -1431903.0, 16213.032, -0.003717389, 0.000679863, -1324437.3, 73629.24, 0.0, 5.050233, 4.980049 
8.621643e+2, 1.62317e+2, -1283165.9, -1387524.6, 16873.709, -0.0049654236, -0.0019412851, -1280505.4, 68786.51, 0.0, 5.0489416, 4.9791994 
8.6201066e+2, 1.672903e+2, -1246122.0, -1357137.5, 20320.227, -0.006977761, -0.001026858, -1242519.5, 58033.418, 0.0, 5.0477734, 4.9734864 
8.618586e+2, 1.7226064e+2, -1200159.6, -1309720.9, 20588.533, -0.010133185, -0.004557244, -1196418.5, 55424.645, 0.0, 5.046801, 4.973479 
8.617065e+2, 1.7723094e+2, -1154207.0, -1262300.3, 20849.904, -0.013401354, -0.00811158, -1150324.8, 52808.71, 0.0, 5.045819, 4.973471 
8.615544e+2, 1.822014e+2, -1109526.9, -1217614.8, 20621.117, -0.014788095, -0.009247947, -1105726.4, 48695.813, 0.0, 5.0448256, 4.972542 
8.6140263e+2, 1.8716814e+2, -1072385.8, -1188515.8, 22158.572, -0.012706903, -0.003497964, -1068301.4, 37445.91, 0.0, 5.0437894, 4.9662695 
8.6125165e+2, 1.9213134e+2, -1026340.7, -1140994.4, 22206.113, -0.011898341, -0.0056721987, -1022190.06, 34916.555, 0.0, 5.0427947, 4.9662623 
8.611007e+2, 1.9709456e+2, -980323.2, -1093477.6, 22255.379, -0.011148953, -0.007908042, -976103.4, 32362.768, 0.0, 5.041784, 4.966255 
8.6094946e+2, 2.020576e+2, -935993.25, -1049712.5, 21471.682, -0.01003825, -0.008876299, -932074.1, 27753.918, 0.0, 5.0407696, 4.9649677 
8.607963e+2, 2.0701651e+2, -899008.06, -1021759.44, 20834.45, -0.008606638, -0.0038457008, -895568.25, 15663.327, 0.0, 5.039695, 4.9582644 
8.6064285e+2, 2.1197186e+2, -853425.94, -974392.8, 20688.498, -0.0059295646, -0.0050379867, -849985.5, 12684.57, 0.0, 5.038484, 4.958255 
8.604894e+2, 2.1692722e+2, -807890.5, -927036.06, 20527.248, -0.003200175, -0.006198524, -804453.06, 9655.527, 0.0, 5.037249, 4.9582458 
8.603357e+2, 2.2188252e+2, -763352.56, -881964.3, 19549.273, -0.0015028133, -0.0068339612, -760213.56, 5333.7935, 0.0, 5.036013, 4.957448 
8.601785e+2, 2.268344e+2, -726190.3, -853401.6, 16668.918, -0.0017003904, 0.0008755999, -724042.4, -7023.0537, 0.0, 5.0347185, 4.950995 
8.6001956e+2, 2.3178239e+2, -681488.0, -806363.06, 16289.267, -0.0018508272, -0.0016428228, -679398.1, -10868.7705, 0.0, 5.03314, 4.9509873 
8.598607e+2, 2.3673041e+2, -636843.1, -759334.7, 15911.52, -0.0020166698, -0.004118807, -634809.94, -14770.659, 0.0, 5.0315313, 4.95098 
8.5970163e+2, 2.4167848e+2, -593178.7, -714259.3, 14958.115, -0.0019029224, -0.005655511, -591358.2, -19809.322, 0.0, 5.029868, 4.9503074 
8.5953945e+2, 2.466236e+2, -556031.44, -683625.56, 10922.802, -0.0004920961, 0.0009006339, -555103.1, -32015.582, 0.0, 5.0280533, 4.9447064 
8.593744e+2, 2.5156555e+2, -512859.22, -637198.7, 10144.018, 0.000115237344, -0.00019093725, -512037.1, -37379.496, 0.0, 5.0258565, 4.9447074 
8.5920936e+2, 2.5650752e+2, -469799.44, -590806.94, 9564.225, 0.0007070032, -0.0014075493, -469048.16, -42820.492, 0.0, 5.023616, 4.944699 
8.590443e+2, 2.6144952e+2, -426913.94, -544729.4, 8734.384, 0.0014428458, -0.0016973633, -426269.94, -48473.23, 0.0, 5.0213485, 4.9445796 
8.588767e+2, 2.663896e+2, -390354.25, -513556.3, 4738.492, 0.0026369635, 0.010576631, -390172.28, -60787.39, 0.0, 5.019054, 4.9392624 
8.5870624e+2, 2.7132717e+2, -347289.34, -465210.53, 3522.3052, 0.0053003496, 0.010110761, -347184.22, -66186.45, 0.0, 5.016375, 4.940083 
8.5853577e+2, 2.7626473e+2, -305372.7, -419199.9, 2771.9548, 0.007920445, 0.009376678, -305305.22, -72694.6, 0.0, 5.0136523, 4.94008 
8.583652e+2, 2.8120214e+2, -263699.63, -373269.53, 1917.583, 0.009464118, 0.0077689714, -263666.06, -79440.83, 0.0, 5.010828, 4.9400764 
8.58193e+2, 2.8613728e+2, -228087.92, -340488.4, -457.64743, 0.006068073, 0.010653796, -228086.06, -92221.984, 0.0, 5.0077457, 4.935545 
8.580188e+2, 2.9107165e+2, -186130.31, -291119.6, -1660.5139, 0.0035926255, 0.0075784745, -186104.05, -98593.836, 0.0, 5.004332, 4.9369764 
8.5784477e+2, 2.9600605e+2, -146098.64, -245791.88, -2354.0918, 0.0011601025, 0.0040890216, -146043.08, -106886.98, 0.0, 5.0008507, 4.9369783 
8.5767114e+2, 3.009415e+2, -105466.305, -199262.55, -2955.634, 0.0012306599, 0.010317991, -105373.26, -105373.26, 0.0, 4.9974027, 4.9373612 
8.574989e+2, 3.0589095e+2, -59894.977, -111161.8, -4251.116, 0.011238683, 0.035534147, -59544.86, -59544.86, 0.0, 4.994448, 4.9615326 
8.573282e+2, 3.1085098e+2, -65403.535, -108390.58, -3552.3843, 0.019943139, 0.013357112, -65111.953, -65111.953, 0.0, 4.99142, 4.963838 
8.571575e+2, 3.1581134e+2, -73838.53, -112269.34, -3381.6677, 0.027629083, -0.0051658973, -73543.24, -73543.24, 0.0, 4.9883337, 4.9637775 
8.5698617e+2, 3.2077885e+2, -55479.734, -46592.53, -5799.461, 0.041155238, 0.06727473, -43730.016, -43730.016, 0.0, 4.983801, 4.9893584 
8.683403e+2, 1.2763008e+2, -1587700.5, -1695694.3, 9154.207, 0.0053295246, -0.0074773845, -1586930.0, 102290.555, 0.0, 5.057849, 4.985924 
8.6817384e+2, 1.3261311e+2, -1544377.4, -1649675.6, 9854.685, 0.004265553, -0.006052899, -1543463.0, 96924.72, 0.0, 5.056076, 4.9859257 
8.6800724e+2, 1.3759607e+2, -1501012.6, -1603604.8, 10556.4, 0.0026735219, -0.0049316, -1499937.6, 91617.86, 0.0, 5.0543027, 4.985935 
8.6784095e+2, 1.4257899e+2, -1458576.1, -1559516.3, 12889.9795, -0.0009951192, -0.0039678244, -1456956.1, 85767.29, 0.0, 5.0525765, 4.9852233 
8.676809e+2, 1.475596e+2, -1420439.0, -1524798.8, 19513.19, -0.0025271059, 0.0040254453, -1416909.8, 77003.5, 0.0, 5.0511613, 4.981034 
8.6752397e+2, 1.5253747e+2, -1374670.0, -1477476.9, 20128.121, -0.0034780633, 0.0011152462, -1370869.8, 74260.67, 0.0, 5.0501685, 4.9810433 
8.673672e+2, 1.575153e+2, -1328886.8, -1430145.5, 20738.709, -0.004391484, -0.0017435522, -1324803.9, 71543.76, 0.0, 5.0491757, 4.9810495 
8.672103e+2, 1.6249302e+2, -1284268.6, -1385403.4, 21705.148, -0.005146483, -0.0044255746, -1279807.1, 67758.53, 0.0, 5.048217, 4.9801617 
8.6705595e+2, 1.67467e+2, -1246580.0, -1355075.9, 25528.387, -0.0062965318, -0.0029781372, -1240873.5, 57946.855, 0.0, 5.0473638, 4.9742723 
8.669031e+2, 1.724379e+2, -1199772.6, -1307218.4, 26007.36, -0.008418937, -0.0057970355, -1193808.6, 56296.246, 0.0, 5.0466866, 4.9742727 
8.6675036e+2, 1.7740881e+2, -1152952.4, -1259348.9, 26486.295, -0.010515507, -0.008507334, -1146723.5, 54666.016, 0.0, 5.046009, 4.9742727 
8.665975e+2, 1.8237983e+2, -1107570.0, -1214568.6, 26451.64, -0.010973607, -0.0088748215, -1101387.9, 51285.39, 0.0, 5.0453215, 4.97323 
8.6644495e+2, 1.8734686e+2, -1069792.1, -1185570.0, 28251.652, -0.008942046, -0.002831593, -1063266.1, 40729.656, 0.0, 5.0445976, 4.966772 
8.6629313e+2, 1.9231035e+2, -1022895.94, -1137621.8, 28497.11, -0.008071552, -0.004465213, -1016207.4, 39145.7, 0.0, 5.0439053, 4.9667706 
8.661414e+2, 1.9727384e+2, -975986.1, -1089661.5, 28741.52, -0.0070948466, -0.0060819173, -969132.4, 37578.156, 0.0, 5.0432124, 4.9667697 
8.6598927e+2, 2.0223708e+2, -930703.9, -1045328.8, 28126.994, -0.0060659223, -0.0071407505, -924173.94, 33896.563, 0.0, 5.042518, 4.965531 
8.65835e+2, 2.0719607e+2, -893158.4, -1017590.0, 27694.258, -0.005276931, -0.00267365, -887272.94, 22200.104, 0.0, 5.041738, 4.9586234 
8.6568046e+2, 2.1215138e+2, -846744.06, -969845.94, 27803.604, -0.003523143, -0.004459348, -840755.7, 20156.064, 0.0, 5.040831, 4.958611 
8.6552596e+2, 2.1710667e+2, -800311.44, -922086.0, 27910.559, -0.0016132095, -0.0061613126, -794219.2, 18131.373, 0.0, 5.0399237, 4.9585986 
8.6537105e+2, 2.2206192e+2, -754964.56, -876813.0, 27163.877, -0.0002513803, -0.0071007586, -749183.2, 14606.682, 0.0, 5.0390224, 4.9577227 
8.6521256e+2, 2.2701357e+2, -717289.25, -848441.06, 24366.938, -0.0002868629, 0.000670921, -712908.4, 2355.7126, 0.0, 5.038002, 4.951081 
8.650523e+2, 2.3196131e+2, -671893.8, -801085.8, 24190.973, -0.000037371883, -0.0015478368, -667512.6, -735.6655, 0.0, 5.036679, 4.951075 
8.64892e+2, 2.36909e+2, -626472.7, -753707.2, 24012.375, 0.00034719554, -0.0039243177, -622091.75, -3801.7576, 0.0, 5.035355, 4.95107 
8.6473155e+2, 2.4185674e+2, -582031.06, -708285.8, 23101.49, 0.0011356923, -0.0055444315, -577936.8, -8133.9834, 0.0, 5.0339804, 4.9503965 
8.645674e+2, 2.4680144e+2, -544631.6, -678133.1, 19021.545, 0.0024169013, 0.0010822241, -541974.25, -20628.414, 0.0, 5.0323706, 4.9445415 
8.644002e+2, 2.5174284e+2, -501083.1, -631503.8, 18391.496, 0.0031213814, 0.0006368086, -498539.2, -25618.201, 0.0, 5.030311, 4.9445596 
8.64233e+2, 2.5668427e+2, -457558.0, -584886.25, 17960.822, 0.0040724906, -0.00011974439, -455072.97, -30576.73, 0.0, 5.0282426, 4.9445615 
8.6406577e+2, 2.6162574e+2, -414354.22, -538888.9, 17198.309, 0.0051306165, -0.00043061312, -412022.78, -35951.9, 0.0, 5.0261426, 4.944349 
8.638957e+2, 2.6656508e+2, -377878.4, -507715.78, 13063.619, 0.0057761185, 0.011308277, -376577.06, -48910.883, 0.0, 5.0237956, 4.9390707 
8.6372226e+2, 2.7150187e+2, -335468.3, -459944.53, 11919.423, 0.0075628543, 0.010767156, -334337.22, -55050.375, 0.0, 5.0209365, 4.9397836 
8.6354893e+2, 2.7643862e+2, -294016.06, -414176.38, 11286.622, 0.009677617, 0.009690367, -292965.1, -62057.367, 0.0, 5.018054, 4.9397774 
8.633754e+2, 2.8137532e+2, -252446.61, -367902.28, 10463.645, 0.011104591, 0.0076354416, -251505.95, -68976.234, 0.0, 5.015117, 4.939955 
8.6319995e+2, 2.863098e+2, -217081.63, -335257.34, 8073.871, 0.007785361, 0.010635346, -216532.56, -82359.336, 0.0, 5.011939, 4.935426 
8.630223e+2, 2.912436e+2, -175594.02, -286093.66, 6997.553, 0.0056175515, 0.007854511, -175152.64, -89328.51, 0.0, 5.008351, 4.9368763 
8.628447e+2, 2.9617742e+2, -135953.75, -240989.56, 6534.409, 0.003689338, 0.0046241777, -135548.8, -98073.68, 0.0, 5.004736, 4.9368668 
8.6266756e+2, 3.0111232e+2, -96292.41, -195131.88, 6492.719, 0.0038104195, 0.011875184, -95867.73, -95867.73, 0.0, 5.000989, 4.937146 
8.624917e+2, 3.0606085e+2, -52543.21, -107224.195, 3707.719, 0.011244632, 0.032890446, -52292.95, -52292.95, 0.0, 4.9972835, 4.9615726 
8.6231726e+2, 3.1101954e+2, -59885.406, -105124.19, 2819.6016, 0.017951187, -0.00021833417, -59710.348, -59710.348, 0.0, 4.9935646, 4.963928 
8.62143e+2, 3.159783e+2, -70068.5, -109566.305, 1826.0317, 0.02529014, -0.034489557, -69984.26, -69984.26, 0.0, 4.9898148, 4.9639378 
8.619682e+2, 3.2094866e+2, -31279.047, -2599.1545, -6365.761, 0.04342369, -0.0075229844, -1249.7103, -1249.7103, 0.0, 4.986501, 5.0040913 
8.733953e+2, 1.27803e+2, -1586062.6, -1692573.1, 7769.017, 0.0044087814, -0.007715904, -1585498.9, 102026.87, 0.0, 5.0578666, 4.9869685 
8.732271e+2, 1.3278714e+2, -1542745.6, -1646561.6, 8478.318, 0.0039202557, -0.00541536, -1542057.8, 96624.445, 0.0, 5.0560946, 4.9869704 
8.7305886e+2, 1.3777122e+2, -1499384.6, -1600493.3, 9188.048, 0.002786149, -0.0034832314, -1498556.5, 91282.8, 0.0, 5.054322, 4.9869814 
8.7289083e+2, 1.4275514e+2, -1456932.8, -1556351.9, 11762.521, -0.0011532162, -0.0029624274, -1455560.1, 85437.08, 0.0, 5.0525966, 4.986287 
8.7272954e+2, 1.4773653e+2, -1419224.8, -1522321.9, 18732.807, -0.002995812, 0.0033401146, -1415926.5, 76252.59, 0.0, 5.0511565, 4.9818726 
8.7257165e+2, 1.5271512e+2, -1373465.0, -1475008.9, 19349.951, -0.004287324, -0.0006737113, -1369902.8, 73486.016, 0.0, 5.0501633, 4.9818816 
8.7241375e+2, 1.5769368e+2, -1327688.4, -1427681.8, 19961.498, -0.0055585583, -0.0046331836, -1323850.9, 70747.68, 0.0, 5.04917, 4.9818892 
8.7225604e+2, 1.626722e+2, -1283164.0, -1383124.8, 21055.65, -0.005773311, -0.0073066284, -1278909.9, 66898.72, 0.0, 5.0482125, 4.98094 
8.7210107e+2, 1.6764694e+2, -1245741.9, -1353266.4, 25002.58, -0.0058955047, -0.0051203123, -1240212.4, 56843.508, 0.0, 5.04735, 4.974892 
8.719477e+2, 1.7261857e+2, -1198938.9, -1305412.3, 25484.418, -0.0068338243, -0.007040205, -1193153.6, 55180.11, 0.0, 5.0466733, 4.974893 
8.717943e+2, 1.7759016e+2, -1152125.0, -1257549.9, 25959.379, -0.0077876393, -0.008859095, -1146079.5, 53532.117, 0.0, 5.0459957, 4.9748926 
8.716408e+2, 1.8256178e+2, -1106938.0, -1213152.3, 25914.832, -0.0075763455, -0.008454596, -1100952.5, 49937.168, 0.0, 5.045304, 4.973723 
8.714877e+2, 1.8752927e+2, -1069403.8, -1184650.5, 27721.328, -0.0055248877, -0.0020777718, -1063082.4, 39126.07, 0.0, 5.044577, 4.9670954 
8.7133515e+2, 1.9249314e+2, -1022507.3, -1136704.3, 27970.592, -0.0044139163, -0.0030964403, -1016024.44, 37538.26, 0.0, 5.0438857, 4.967094 
8.711827e+2, 1.9745699e+2, -975597.3, -1088745.9, 28218.809, -0.0032461165, -0.0041266456, -968950.1, 35966.926, 0.0, 5.043194, 4.967093 
8.7102985e+2, 2.0242058e+2, -930270.4, -1044302.06, 27536.363, -0.002483662, -0.0052948035, -923969.1, 32304.947, 0.0, 5.0424967, 4.965894 
8.708747e+2, 2.0737979e+2, -892973.44, -1017126.1, 27011.668, -0.0021578, -0.0010267459, -887351.1, 20322.818, 0.0, 5.0417185, 4.9587946 
8.7071913e+2, 2.1233521e+2, -846556.56, -969385.3, 27127.146, -0.0013939979, -0.003293468, -840832.25, 18279.008, 0.0, 5.0408134, 4.9587812 
8.705636e+2, 2.1729062e+2, -800121.5, -921628.56, 27240.234, -0.0005520991, -0.00550503, -794294.06, 16254.609, 0.0, 5.0399075, 4.958768 
8.704077e+2, 2.2224596e+2, -754909.75, -876645.1, 26414.129, 0.00026399002, -0.006707867, -749425.44, 12561.448, 0.0, 5.0390053, 4.9577923 
8.702481e+2, 2.2719751e+2, -717479.4, -848940.7, 23387.344, 0.0005622184, 0.0006767204, -713442.7, 19.646187, 0.0, 5.0379972, 4.95092 
8.7008655e+2, 2.321451e+2, -672081.2, -801590.2, 23219.344, 0.0014033424, -0.0010699406, -668044.06, -3067.5237, 0.0, 5.0366755, 4.9509125 
8.6992496e+2, 2.3709267e+2, -626657.25, -754216.2, 23048.713, 0.002276079, -0.0029727325, -622620.3, -6129.349, 0.0, 5.0353527, 4.9509053 
8.697632e+2, 2.4204025e+2, -582210.75, -708796.8, 21946.09, 0.0034554822, -0.0041542673, -578513.94, -10508.6, 0.0, 5.033978, 4.9502306 
8.6959726e+2, 2.4698463e+2, -545083.5, -679463.9, 17479.871, 0.004985785, 0.002398033, -542847.0, -23295.705, 0.0, 5.0323896, 4.944092 
8.69428e+2, 2.5192562e+2, -501521.94, -632796.44, 16848.09, 0.0061560553, 0.0020213034, -499394.13, -28263.47, 0.0, 5.030328, 4.9441237 
8.6925876e+2, 2.5686657e+2, -458003.5, -586180.0, 16426.492, 0.0074264975, 0.0014046571, -455931.84, -33221.793, 0.0, 5.0282564, 4.944125 
8.690895e+2, 2.6180762e+2, -414788.7, -540181.56, 15485.318, 0.008270837, 0.0011728331, -412904.66, -38615.613, 0.0, 5.026158, 4.9439125 
8.689167e+2, 2.6674643e+2, -378421.72, -509490.0, 10969.08, 0.008349414, 0.012619639, -377510.06, -51620.082, 0.0, 5.0238347, 4.9384646 
8.687403e+2, 2.7168262e+2, -336013.1, -461754.66, 9758.241, 0.0090549365, 0.012384246, -335260.3, -57743.605, 0.0, 5.020978, 4.9391646 
8.6856395e+2, 2.7661878e+2, -294561.66, -415986.5, 9133.413, 0.00993269, 0.011661887, -293878.5, -64734.89, 0.0, 5.018094, 4.939158 
8.6838746e+2, 2.8155488e+2, -252616.69, -368861.78, 8147.735, 0.010620016, 0.00904005, -252048.38, -71277.586, 0.0, 5.015158, 4.9396358 
8.682088e+2, 2.8648883e+2, -217264.7, -336378.66, 5408.0283, 0.008529238, 0.009866336, -217019.67, -84601.375, 0.0, 5.01199, 4.9350557 
8.680276e+2, 2.9142204e+2, -175723.5, -287088.94, 4274.488, 0.0075685205, 0.004847841, -175559.67, -91486.25, 0.0, 5.008398, 4.9365525 
8.6784655e+2, 2.9635525e+2, -136100.55, -241984.61, 3833.4048, 0.006678962, -0.00044319785, -135961.95, -100233.516, 0.0, 5.004776, 4.936545 
8.6766565e+2, 3.012895e+2, -96413.78, -196278.38, 3591.2383, 0.006068491, 0.002604897, -96284.8, -96284.8, 0.0, 5.0010633, 4.936757 
8.6748564e+2, 3.0623767e+2, -53062.58, -109847.88, 966.4134, 0.008425167, 0.032733176, -53046.133, -53046.133, 0.0, 4.9974394, 4.960628 
8.6730695e+2, 3.1119642e+2, -60298.074, -107644.87, 168.89505, 0.009759981, 0.014902868, -60297.473, -60297.473, 0.0, 4.993746, 4.9630127 
8.671284e+2, 3.1615528e+2, -70314.81, -112043.2, -913.3151, 0.011289534, -0.0036092214, -70294.83, -70294.83, 0.0, 4.990058, 4.963015 
8.669496e+2, 3.2112816e+2, -40023.113, -25603.904, -7155.21, 0.022349915, 0.09886977, -22655.979, -22655.979, 0.0, 4.986915, 4.9957075 
8.784503e+2, 1.2797596e+2, -1584709.0, -1689591.3, 6460.7485, 0.0036364028, -0.0076352223, -1584312.6, 101517.87, 0.0, 5.0577893, 4.988013 
8.7828034e+2, 1.3296123e+2, -1541273.6, -1643524.8, 7159.5474, 0.0037190756, -0.0046518845, -1540774.8, 96201.44, 0.0, 5.05606, 4.9880147 
8.7811035e+2, 1.3794641e+2, -1497829.3, -1597412.3, 7860.658, 0.003053007, -0.0021004486, -1497212.6, 90910.11, 0.0, 5.0543165, 4.988029 
8.7794065e+2, 1.4293133e+2, -1455370.6, -1553304.1, 10660.215, -0.0013355211, -0.0020343354, -1454223.6, 85047.04, 0.0, 5.0526056, 4.9873176 
8.777781e+2, 1.479135e+2, -1418017.8, -1519848.6, 17962.586, -0.003545303, 0.00266386, -1414942.1, 75502.56, 0.0, 5.05115, 4.9827104 
8.776192e+2, 1.528928e+2, -1372254.6, -1472538.4, 18575.242, -0.0051636533, -0.0025061304, -1368924.5, 72722.31, 0.0, 5.0501604, 4.9827194 
8.774603e+2, 1.5787207e+2, -1326500.1, -1425238.3, 19183.824, -0.0067653344, -0.0076090777, -1322903.9, 69945.35, 0.0, 5.0491643, 4.982722 
8.7730175e+2, 1.6285142e+2, -1282073.0, -1380874.8, 20408.678, -0.0062947, -0.010076864, -1278023.3, 66027.89, 0.0, 5.048208, 4.9817085 
8.771461e+2, 1.678269e+2, -1244904.4, -1351456.9, 24476.607, -0.005355586, -0.007153678, -1239550.8, 55740.39, 0.0, 5.0473366, 4.975512 
8.7699217e+2, 1.7279923e+2, -1198105.9, -1303605.9, 24961.313, -0.005123928, -0.008220701, -1192498.1, 54064.13, 0.0, 5.04666, 4.9755135 
8.7683827e+2, 1.7777152e+2, -1151316.8, -1255789.6, 25429.975, -0.0049482123, -0.009188325, -1145455.6, 52377.797, 0.0, 5.0459824, 4.975499 
8.766841e+2, 1.8274376e+2, -1106319.5, -1211764.1, 25372.564, -0.0041365735, -0.007912632, -1100531.9, 48573.95, 0.0, 5.045286, 4.974206 
8.765303e+2, 1.8771169e+2, -1069015.9, -1183730.6, 27191.832, -0.0020660057, -0.0011907252, -1062896.9, 37524.16, 0.0, 5.0445566, 4.9674177 
8.7637705e+2, 1.9267592e+2, -1022119.3, -1135786.3, 27444.9, -0.00071550923, -0.0016588969, -1015839.7, 35932.477, 0.0, 5.043866, 4.967417 
8.762239e+2, 1.9764015e+2, -975209.9, -1087831.4, 27692.379, 0.0006414124, -0.002169523, -968769.0, 34354.46, 0.0, 5.043175, 4.967415 
8.760703e+2, 2.0260407e+2, -929865.5, -1043335.3, 26941.45, 0.0010921498, -0.0033827375, -923793.6, 30683.762, 0.0, 5.0424757, 4.9662366 
8.759144e+2, 2.0756352e+2, -892789.3, -1016661.7, 26331.35, 0.0009164142, 0.000696153, -887424.5, 18450.232, 0.0, 5.0416994, 4.9589653 
8.7575775e+2, 2.1251905e+2, -846370.0, -968924.06, 26452.963, 0.0007033997, -0.0021497796, -840904.0, 16406.625, 0.0, 5.040796, 4.9589505 
8.756012e+2, 2.1747456e+2, -799932.44, -921170.56, 26572.186, 0.0004904218, -0.004969082, -794364.25, 14382.493, 0.0, 5.0398912, 4.958936 
8.7544435e+2, 2.2242999e+2, -754898.56, -876570.4, 25661.906, 0.0007820368, -0.0062360596, -749707.6, 10476.263, 0.0, 5.0389876, 4.9578285 
8.7528366e+2, 2.2738144e+2, -717670.7, -849439.94, 22410.885, 0.0014313373, 0.00085727574, -713963.44, -2303.0405, 0.0, 5.037993, 4.9507585 
8.7512076e+2, 2.323289e+2, -672269.7, -802094.06, 22250.852, 0.0028914332, -0.0005481327, -668561.94, -5385.9463, 0.0, 5.036672, 4.950749 
8.749579e+2, 2.3727635e+2, -626842.94, -754724.8, 22088.188, 0.0042796605, -0.0021079746, -623135.25, -8443.447, 0.0, 5.035351, 4.9507394 
8.747947e+2, 2.4222378e+2, -582468.5, -709482.1, 20793.49, 0.005765869, -0.0027279851, -579151.06, -12943.294, 0.0, 5.0339766, 4.9500036 
8.74627e+2, 2.4716783e+2, -545527.25, -680774.06, 15935.883, 0.0075495937, 0.0038824072, -543674.94, -25918.13, 0.0, 5.032409, 4.9436483 
8.7445575e+2, 2.5210837e+2, -501962.06, -634089.1, 15304.143, 0.009214073, 0.0034334618, -500212.56, -30872.197, 0.0, 5.030345, 4.943686 
8.7428457e+2, 2.5704888e+2, -458450.25, -587473.75, 14891.615, 0.010832022, 0.0028151898, -456753.78, -35829.805, 0.0, 5.0282707, 4.9436874 
8.74113e+2, 2.619895e+2, -415220.9, -541472.56, 13775.331, 0.011374154, 0.0027851756, -413735.34, -41228.04, 0.0, 5.0261736, 4.943476 
8.7393767e+2, 2.6692778e+2, -379008.72, -511362.56, 8878.392, 0.010730861, 0.014197678, -378415.78, -54302.055, 0.0, 5.023875, 4.937824 
8.737583e+2, 2.7186337e+2, -336558.28, -463565.7, 7598.073, 0.010355797, 0.014139793, -336105.34, -60358.793, 0.0, 5.021021, 4.9385443 
8.735789e+2, 2.7679896e+2, -295107.63, -417797.5, 6981.216, 0.009995574, 0.013646409, -294711.7, -67332.18, 0.0, 5.0181355, 4.938537 
8.7339944e+2, 2.8173444e+2, -252833.48, -369931.03, 5834.0425, 0.010107478, 0.0103201615, -252543.53, -73531.555, 0.0, 5.0152, 4.939276 
8.732176e+2, 2.866678e+2, -217448.75, -337505.6, 2735.9368, 0.009427626, 0.008586305, -217386.44, -86722.7, 0.0, 5.0120425, 4.9346824 
8.730329e+2, 2.9160038e+2, -175852.81, -288086.44, 1549.4073, 0.009641837, 0.0007697611, -175831.44, -93508.234, 0.0, 5.008447, 4.936227 
8.728483e+2, 2.96533e+2, -136247.14, -242981.83, 1130.3772, 0.009760861, -0.0071322266, -136235.17, -102252.82, 0.0, 5.004818, 4.936221 
8.726636e+2, 3.014667e+2, -97005.1, -198536.2, 783.40857, 0.0077892784, -0.0045399503, -96999.06, -96999.06, 0.0, 5.001143, 4.9359674 
8.724795e+2, 3.0641457e+2, -53821.305, -112655.56, -1820.8818, 0.005417697, 0.03344563, -53765.004, -53765.004, 0.0, 4.9975276, 4.9596386 
8.722965e+2, 3.1137332e+2, -61068.117, -110335.016, -2528.8718, 0.0016201062, 0.026158107, -60938.65, -60938.65, 0.0, 4.993802, 4.9620824 
8.721136e+2, 3.1633225e+2, -71199.92, -114819.11, -3431.5535, -0.002600059, 0.01940882, -70931.61, -70931.61, 0.0, 4.990079, 4.9620714 
8.7193197e+2, 3.2130367e+2, -45142.11, -38215.65, -5748.5317, 0.0106921615, 0.14606486, -34967.727, -34967.727, 0.0, 4.986958, 4.99119 
8.835045e+2, 1.2815039e+2, -1588473.1, -1688821.6, 7388.1074, 0.00451904, -0.006883035, -1587932.1, 96188.71, 0.0, 5.055941, 4.9891624 
8.833329e+2, 1.3313663e+2, -1544283.4, -1642376.0, 8189.811, 0.004057676, -0.004738124, -1543604.4, 91652.55, 0.0, 5.0544705, 4.9891634 
8.8316125e+2, 1.3812286e+2, -1500221.8, -1595957.3, 8965.386, 0.003390915, -0.0023703561, -1499389.4, 87003.734, 0.0, 5.052941, 4.9891753 
8.8299006e+2, 1.4310879e+2, -1457326.0, -1551843.1, 12046.059, -0.0010707753, -0.0022159857, -1455814.9, 81716.375, 0.0, 5.0514245, 4.9883738 
8.8282645e+2, 1.4809173e+2, -1419709.0, -1518677.5, 19657.748, -0.0033116585, 0.0019050019, -1415947.4, 72750.086, 0.0, 5.0501623, 4.9835715 
8.826667e+2, 1.5307173e+2, -1373364.0, -1471087.4, 20202.586, -0.0049628285, -0.00365449, -1369352.1, 70540.52, 0.0, 5.049372, 4.983579 
8.8250685e+2, 1.5805173e+2, -1327075.6, -1423545.6, 20725.598, -0.0065637534, -0.009185165, -1322811.5, 68276.59, 0.0, 5.0485635, 4.983575 
8.823474e+2, 1.6303183e+2, -1282569.0, -1379265.3, 21970.47, -0.005565679, -0.011309857, -1277811.3, 64471.543, 0.0, 5.047668, 4.982502 
8.821912e+2, 1.6800801e+2, -1245478.0, -1350148.5, 26137.303, -0.00404684, -0.007661135, -1239314.3, 54201.836, 0.0, 5.0468445, 4.976173 
8.820366e+2, 1.7298098e+2, -1198553.4, -1302243.3, 26562.24, -0.0030110092, -0.007867073, -1192144.9, 52636.016, 0.0, 5.046212, 4.976173 
8.818821e+2, 1.779539e+2, -1151787.8, -1254480.6, 26961.645, -0.0018711453, -0.008025914, -1145139.5, 50906.527, 0.0, 5.045535, 4.9761415 
8.817273e+2, 1.8292667e+2, -1106786.9, -1210651.9, 26948.996, -0.00071469374, -0.006456105, -1100211.0, 47102.645, 0.0, 5.0448823, 4.9747605 
8.815728e+2, 1.8789493e+2, -1069258.8, -1182869.8, 28826.313, 0.0010097998, -0.00019071336, -1062363.3, 36262.47, 0.0, 5.0443068, 4.967815 
8.8141894e+2, 1.9285946e+2, -1021959.0, -1134751.8, 29073.004, 0.0023463208, -0.00079651887, -1014906.3, 35068.168, 0.0, 5.0437603, 4.967808 
8.8126516e+2, 1.9782396e+2, -974755.7, -1086679.6, 29296.96, 0.003799416, -0.0013234724, -967550.75, 33772.535, 0.0, 5.043177, 4.9677978 
8.811108e+2, 2.0278816e+2, -929070.06, -1042068.8, 28458.123, 0.0040648873, -0.002382758, -922307.75, 30366.688, 0.0, 5.0426035, 4.9666038 
8.8095397e+2, 2.0774785e+2, -891695.25, -1015631.0, 27704.139, 0.0035239472, 0.0019337321, -885784.25, 18285.176, 0.0, 5.042004, 4.9591713 
8.8079643e+2, 2.1270347e+2, -844900.94, -967716.44, 27749.227, 0.0026444087, -0.0011784582, -838922.25, 16582.018, 0.0, 5.041233, 4.9591575 
8.806389e+2, 2.1765906e+2, -798211.75, -919856.4, 27805.182, 0.0017970562, -0.0043507037, -792157.44, 14781.816, 0.0, 5.040422, 4.9591384 
8.8048106e+2, 2.2261456e+2, -753261.2, -875647.06, 26742.725, 0.0018114914, -0.005472371, -747672.75, 10702.977, 0.0, 5.03956, 4.9578795 
8.8031924e+2, 2.2756585e+2, -716111.9, -849004.06, 23199.129, 0.002610204, 0.0013369961, -712178.44, -2324.567, 0.0, 5.038617, 4.9506235 
8.801551e+2, 2.3251314e+2, -670700.3, -801647.3, 22945.525, 0.0046165334, 0.00020740736, -666796.0, -5424.666, 0.0, 5.0373, 4.9506164 
8.7999105e+2, 2.3746042e+2, -625380.44, -754321.2, 22706.838, 0.0066397707, -0.0010232065, -621498.56, -8609.698, 0.0, 5.0359416, 4.9506087 
8.7982637e+2, 2.4240766e+2, -581248.1, -709476.5, 21188.191, 0.0084158145, -0.0009472296, -577837.7, -13431.069, 0.0, 5.0345325, 4.9497547 
8.796568e+2, 2.4735132e+2, -544318.25, -681217.1, 15857.469, 0.010189781, 0.0056105494, -542505.44, -26545.984, 0.0, 5.033021, 4.9432316 
8.794835e+2, 2.5229135e+2, -500727.28, -634531.1, 15116.349, 0.012229162, 0.0048207766, -499040.78, -31492.867, 0.0, 5.0309668, 4.943267 
8.793103e+2, 2.5723138e+2, -457295.0, -587959.1, 14599.59, 0.014263619, 0.0039950744, -455683.6, -36547.395, 0.0, 5.028866, 4.9432664 
8.791367e+2, 2.621715e+2, -414239.28, -542120.8, 13217.459, 0.014534345, 0.0042983894, -412887.47, -42163.234, 0.0, 5.0267177, 4.9430256 
8.7895864e+2, 2.6710925e+2, -378270.66, -512578.3, 7825.1323, 0.012979693, 0.015896315, -377816.28, -55479.953, 0.0, 5.0243998, 4.9371915 
8.787762e+2, 2.7204418e+2, -335937.28, -464791.72, 6342.0664, 0.01151518, 0.01591842, -335625.9, -61650.348, 0.0, 5.0214877, 4.937937 
8.785938e+2, 2.7697915e+2, -294725.7, -419141.3, 5600.733, 0.009973408, 0.015534759, -294474.1, -68859.25, 0.0, 5.018515, 4.937927 
8.784113e+2, 2.8191403e+2, -252401.39, -370765.34, 4156.138, 0.009729086, 0.011389536, -252255.64, -75002.73, 0.0, 5.015499, 4.9388824 
8.7822634e+2, 2.868467e+2, -216963.92, -338302.06, 510.68417, 0.010525367, 0.006721524, -216961.77, -88052.42, 0.0, 5.012341, 4.934313 
8.780381e+2, 2.9177865e+2, -175432.19, -288819.75, -861.8933, 0.011858222, -0.004458484, -175425.64, -94852.21, 0.0, 5.0087, 4.935902 
8.7784994e+2, 2.9671064e+2, -136091.7, -243834.77, -1387.0701, 0.012984227, -0.015547259, -136073.84, -103836.94, 0.0, 5.004973, 4.9358964 
8.776616e+2, 3.0164397e+2, -97999.84, -201886.1, -1924.9207, 0.008990059, -0.009097459, -97964.19, -97964.19, 0.0, 5.001254, 4.9347725 
8.774733e+2, 3.0659157e+2, -54475.09, -115420.08, -4611.0903, 0.0022787878, 0.0345688, -54128.19, -54128.19, 0.0, 4.9976616, 4.958637 
8.7728596e+2, 3.115502e+2, -61876.984, -113039.02, -5249.1655, -0.0063727796, 0.03289434, -61343.977, -61343.977, 0.0, 4.9938493, 4.9611435 
8.770986e+2, 3.165091e+2, -72343.97, -117699.734, -5932.8003, -0.016068773, 0.032978427, -71580.77, -71580.77, 0.0, 4.99001, 4.9611206 
8.7691545e+2, 3.214723e+2, -35944.19, -16082.303, -3986.4063, 0.016446551, 0.049093287, -15312.074, -15312.074, 0.0, 4.98672, 4.9993744 
8.885555e+2, 1.2832883e+2, -1598184.0, -1690178.1, 9250.159, 0.0061219633, -0.006350492, -1597263.1, 85108.78, 0.0, 5.052017, 4.99056 
8.883825e+2, 1.333162e+2, -1553117.6, -1643296.4, 10166.826, 0.0049506146, -0.0052557033, -1551985.6, 81510.84, 0.0, 5.0508466, 4.990555 
8.8820946e+2, 1.383036e+2, -1508028.3, -1596394.6, 11096.139, 0.0038834256, -0.0035639594, -1506656.1, 77964.95, 0.0, 5.0496745, 4.99055 
8.880371e+2, 1.4329068e+2, -1464021.6, -1551855.0, 14655.372, -0.00045992853, -0.0032294628, -1461640.9, 74106.79, 0.0, 5.048571, 4.9896846 
8.878728e+2, 1.4827468e+2, -1425522.1, -1518752.8, 22791.426, -0.002292504, 0.001082108, -1420248.8, 66655.35, 0.0, 5.0477242, 4.9846563 
8.877125e+2, 1.5325563e+2, -1378076.1, -1470595.4, 23551.264, -0.0036410994, -0.0039403, -1372426.1, 65664.07, 0.0, 5.047309, 4.9846683 
8.875521e+2, 1.5823658e+2, -1330653.8, -1422490.3, 24276.512, -0.0049128085, -0.00891167, -1324631.3, 64645.24, 0.0, 5.046891, 4.9846606 
8.8739204e+2, 1.632176e+2, -1285059.1, -1377699.8, 25742.656, -0.0034743175, -0.010463427, -1278386.5, 62075.97, 0.0, 5.0463886, 4.9835663 
8.872352e+2, 1.6819465e+2, -1247310.6, -1348455.4, 30329.553, -0.0016615249, -0.006141577, -1238913.1, 52774.414, 0.0, 5.0458565, 4.977131 
8.8708025e+2, 1.7316844e+2, -1199519.0, -1300092.9, 30997.33, -0.00042601128, -0.0055028, -1190733.0, 52211.6, 0.0, 5.045524, 4.9771395 
8.869253e+2, 1.7814218e+2, -1151772.8, -1251838.6, 31639.965, 0.0009886039, -0.0049520154, -1142607.9, 51594.13, 0.0, 5.045192, 4.977109 
8.8677e+2, 1.8311559e+2, -1105706.4, -1207501.4, 31998.34, 0.0018020833, -0.004054821, -1096483.6, 48979.598, 0.0, 5.0449204, 4.9757195 
8.8661504e+2, 1.8808433e+2, -1067490.4, -1179666.9, 34264.97, 0.0028531472, 0.0006311321, -1057852.0, 38918.344, 0.0, 5.044652, 4.9686475 
8.8646084e+2, 1.9304928e+2, -1019339.7, -1131107.0, 34851.99, 0.0035491907, -0.0012996363, -1009362.56, 38752.164, 0.0, 5.04441, 4.9686484 
8.863066e+2, 1.9801421e+2, -971186.44, -1082550.4, 35428.508, 0.004412786, -0.003073743, -960871.0, 38588.207, 0.0, 5.044168, 4.968647 
8.861518e+2, 2.0297894e+2, -924559.1, -1037581.8, 34952.242, 0.004649454, -0.004170068, -914623.56, 36181.695, 0.0, 5.043958, 4.967408 
8.8599455e+2, 2.079391e+2, -886409.7, -1011110.7, 34529.594, 0.0043557254, 0.0010238476, -877486.94, 24708.766, 0.0, 5.0437155, 4.95982 
8.8583654e+2, 2.1289513e+2, -838572.8, -962635.06, 34946.418, 0.00395324, -0.0010758745, -829406.2, 24220.346, 0.0, 5.04332, 4.959826 
8.856785e+2, 2.1785113e+2, -790748.5, -914197.3, 35360.05, 0.0036828218, -0.0033204677, -781337.56, 23720.117, 0.0, 5.042924, 4.9598174 
8.855201e+2, 2.2280693e+2, -744766.9, -869576.06, 34512.37, 0.0043410193, -0.004156523, -735859.2, 20632.14, 0.0, 5.0424633, 4.95852 
8.8535726e+2, 2.2775832e+2, -707022.25, -843245.7, 31224.785, 0.005282633, 0.0025257305, -700206.06, 7762.7544, 0.0, 5.041871, 4.9509916 
8.85192e+2, 2.327056e+2, -660654.9, -795371.44, 31343.531, 0.007340046, 0.0019824645, -653719.44, 5767.0547, 0.0, 5.040904, 4.951008 
8.850268e+2, 2.3765288e+2, -614278.6, -747504.44, 31455.885, 0.009661415, 0.0014286152, -607225.06, 3778.9688, 0.0, 5.039936, 4.9510164 
8.848609e+2, 2.4260008e+2, -569031.44, -702141.9, 30207.145, 0.011628395, 0.0014883375, -562497.2, 25.01556, 0.0, 5.038942, 4.950161 
8.846896e+2, 2.4754335e+2, -531599.9, -674351.2, 24886.533, 0.012639662, 0.0066695046, -527385.7, -13307.089, 0.0, 5.0377336, 4.943342 
8.8451433e+2, 2.524829e+2, -487366.53, -627374.75, 24468.22, 0.013944661, 0.005030348, -483213.6, -17542.025, 0.0, 5.0359263, 4.94338 
8.843391e+2, 2.5742245e+2, -443188.47, -580463.0, 24271.244, 0.015632806, 0.0034724742, -439023.47, -21759.13, 0.0, 5.034108, 4.943384 
8.841634e+2, 2.6236215e+2, -399422.06, -534194.3, 23025.338, 0.0159739, 0.0031966183, -395596.84, -26740.412, 0.0, 5.032211, 4.9431934 
8.839827e+2, 2.6729935e+2, -363637.4, -505214.63, 17529.734, 0.014210705, 0.014706274, -361499.2, -41026.105, 0.0, 5.029919, 4.9371533 
8.837973e+2, 2.7223366e+2, -321565.97, -457567.22, 16289.552, 0.012501429, 0.0146880075, -319642.13, -47523.934, 0.0, 5.026922, 4.9379 
8.836119e+2, 2.7716798e+2, -280549.03, -412014.47, 15857.58, 0.010990316, 0.014133716, -278663.3, -54899.754, 0.0, 5.023888, 4.937894 
8.8342637e+2, 2.8210217e+2, -238319.1, -363609.84, 14554.278, 0.011150529, 0.009352389, -236650.63, -61242.74, 0.0, 5.0208373, 4.938881 
8.8323784e+2, 2.8703418e+2, -203503.5, -331680.53, 10381.084, 0.011493008, 0.004255848, -202668.19, -75597.03, 0.0, 5.0174932, 4.9342113 
8.830458e+2, 2.9196537e+2, -162818.19, -282632.9, 8709.78, 0.0128326975, -0.007167996, -162188.34, -83446.42, 0.0, 5.0135465, 4.9357986 
8.8285375e+2, 2.968966e+2, -124197.67, -238005.81, 7914.71, 0.014741291, -0.019323459, -123649.89, -93237.375, 0.0, 5.0095587, 4.9357944 
8.826615e+2, 3.018293e+2, -87565.28, -197300.06, 7747.9443, 0.010722136, -0.011121254, -87020.93, -87020.93, 0.0, 5.005423, 4.934421 
8.82469e+2, 3.0677634e+2, -45796.254, -111177.36, 4845.392, 0.0016822463, 0.035452392, -45439.113, -45439.113, 0.0, 5.001124, 4.9584894 
8.822769e+2, 3.1173435e+2, -55579.46, -109681.48, 3962.4226, -0.0093307905, 0.0334981, -55290.793, -55290.793, 0.0, 4.996395, 4.961066 
8.820849e+2, 3.1669256e+2, -68825.0, -115449.62, 3249.9905, -0.020598523, 0.031444516, -68599.55, -68599.55, 0.0, 4.9915156, 4.9610834 
8.8189846e+2, 3.216471e+2, -19489.47, 20888.955, -503.13013, 0.019162968, -0.09936941, 20895.223, 20895.223, 0.0, 4.987335, 5.0125055 
8.936045e+2, 1.2850897e+2, -1596162.0, -1686233.1, 8308.221, 0.0046817563, -0.0071496824, -1595402.1, 85204.125, 0.0, 5.052032, 4.991879 
8.9343035e+2, 1.3349761e+2, -1551096.3, -1639373.4, 9236.336, 0.0041826996, -0.0066078533, -1550140.3, 81577.97, 0.0, 5.050866, 4.9918694 
8.932562e+2, 1.384862e+2, -1506027.1, -1592536.5, 10198.713, 0.003624304, -0.005584056, -1504841.1, 77989.37, 0.0, 5.0496993, 4.9918456 
8.930828e+2, 1.4347455e+2, -1462165.4, -1548240.8, 14070.827, -0.000411909, -0.0051807472, -1459923.6, 74021.266, 0.0, 5.0485945, 4.990897 
8.9291805e+2, 1.4845967e+2, -1424074.6, -1515754.6, 22435.758, -0.0018833746, -0.00059688085, -1418878.6, 66211.85, 0.0, 5.04772, 4.9856677 
8.9275724e+2, 1.5344173e+2, -1376638.4, -1467609.3, 23200.078, -0.0028878152, -0.004792991, -1371063.4, 65202.97, 0.0, 5.047305, 4.985678 
8.9259654e+2, 1.5842374e+2, -1329241.4, -1419545.3, 23903.707, -0.0038484598, -0.00893152, -1323304.3, 64138.066, 0.0, 5.0468864, 4.985661 
8.924361e+2, 1.634058e+2, -1283719.4, -1374870.9, 25343.434, -0.001973876, -0.009624209, -1277146.9, 61471.38, 0.0, 5.04638, 4.9845304 
8.922789e+2, 1.6838384e+2, -1246137.3, -1345882.9, 30035.027, 0.0003584344, -0.0047191055, -1237791.5, 52042.504, 0.0, 5.045837, 4.978009 
8.9212364e+2, 1.7335856e+2, -1198354.0, -1297525.8, 30707.023, 0.0019138153, -0.0033551415, -1189615.9, 51466.164, 0.0, 5.0455046, 4.9780183 
8.9196837e+2, 1.7833325e+2, -1150628.0, -1249304.4, 31360.566, 0.0035189004, -0.002109623, -1141504.6, 50825.832, 0.0, 5.045172, 4.977979 
8.9181274e+2, 1.8330745e+2, -1104596.1, -1205013.3, 31785.646, 0.0038481236, -0.0017883185, -1095380.6, 48203.4, 0.0, 5.0449, 4.976576 
8.9165753e+2, 1.8827687e+2, -1066543.5, -1177470.8, 34047.344, 0.0044486723, 0.0015535644, -1056926.9, 37957.46, 0.0, 5.044625, 4.969405 
8.91503e+2, 1.9324245e+2, -1018394.8, -1128914.1, 34639.277, 0.004559069, -0.001594434, -1008435.5, 37786.82, 0.0, 5.0443845, 4.969407 
8.913484e+2, 1.98208e+2, -970248.56, -1080371.1, 35212.504, 0.004753291, -0.0046034167, -959951.9, 37608.594, 0.0, 5.044143, 4.9694023 
8.9119345e+2, 2.0317346e+2, -923710.25, -1035567.3, 34723.383, 0.004958099, -0.0055540577, -913807.8, 35091.46, 0.0, 5.0439305, 4.9681096 
8.910359e+2, 2.0813432e+2, -885748.56, -1009534.44, 34210.684, 0.0050310735, 0.0004702746, -876923.0, 23359.95, 0.0, 5.0436907, 4.9603715 
8.9087754e+2, 2.13091e+2, -837912.2, -961064.4, 34634.293, 0.005239392, -0.00048130064, -828840.2, 22867.377, 0.0, 5.0432973, 4.960377 
8.907192e+2, 2.1804765e+2, -790107.5, -912672.3, 35040.21, 0.005481954, -0.0016208787, -780797.06, 22335.443, 0.0, 5.042902, 4.960354 
8.9056027e+2, 2.23004e+2, -744200.5, -868193.8, 33995.97, 0.0066150744, -0.0019274154, -735491.3, 19069.719, 0.0, 5.042437, 4.9590106 
8.9039665e+2, 2.279557e+2, -706757.4, -842695.6, 30469.736, 0.008023599, 0.004668783, -700240.2, 5795.218, 0.0, 5.041863, 4.951195 
8.902305e+2, 2.329032e+2, -660388.44, -794830.06, 30599.412, 0.010175731, 0.004471153, -653751.56, 3799.5215, 0.0, 5.040898, 4.9512086 
8.9006436e+2, 2.3785071e+2, -614014.44, -746979.8, 30718.72, 0.012431404, 0.0042391103, -607260.6, 1806.0449, 0.0, 5.0399313, 4.9512115 
8.8989735e+2, 2.4279803e+2, -568835.3, -701681.2, 29323.281, 0.01403851, 0.0037913409, -562650.7, -2067.1643, 0.0, 5.038924, 4.950337 
8.897245e+2, 2.4774115e+2, -531708.7, -674816.0, 23512.412, 0.014551324, 0.007580508, -527944.6, -15803.426, 0.0, 5.0377398, 4.943197 
8.895473e+2, 2.5268045e+2, -487479.47, -627862.9, 23110.723, 0.015047749, 0.0052668084, -483772.75, -20036.492, 0.0, 5.0359344, 4.9432263 
8.893702e+2, 2.5761977e+2, -443299.97, -580963.8, 22919.807, 0.015761023, 0.003004505, -439584.3, -24253.107, 0.0, 5.0341177, 4.943226 
8.8919246e+2, 2.6255924e+2, -399452.53, -534504.0, 21403.48, 0.015498149, 0.0020278227, -396141.6, -29216.676, 0.0, 5.032216, 4.9431033 
8.8900924e+2, 2.6749617e+2, -363912.0, -506369.28, 15282.904, 0.014181029, 0.013089931, -362290.88, -43746.973, 0.0, 5.0299525, 4.9367704 
8.888208e+2, 2.724301e+2, -321800.34, -458656.03, 14010.928, 0.0129463, 0.012642179, -320380.66, -50188.19, 0.0, 5.0269575, 4.9375405 
8.8863236e+2, 2.7736396e+2, -280785.06, -413109.34, 13589.454, 0.011755729, 0.011715301, -279403.88, -57562.56, 0.0, 5.023923, 4.9375324 
8.8844377e+2, 2.8229776e+2, -238699.34, -365027.22, 12158.085, 0.01177436, 0.006926673, -237539.88, -64050.55, 0.0, 5.020871, 4.9384036 
8.8825166e+2, 2.872292e+2, -203979.83, -333684.63, 7391.8784, 0.011150209, 0.0030171233, -203559.92, -78401.59, 0.0, 5.017563, 4.9335303 
8.880555e+2, 2.9215991e+2, -163308.34, -284690.3, 5701.5005, 0.012023803, -0.006136398, -163041.11, -86206.33, 0.0, 5.013617, 4.9350986 
8.8785946e+2, 2.9709062e+2, -124692.49, -240063.97, 4924.245, 0.013318519, -0.015923359, -124482.7, -95971.7, 0.0, 5.0096264, 4.9350934 
8.876631e+2, 3.020227e+2, -87359.58, -197871.47, 4511.6475, 0.009510021, -0.009934105, -87175.695, -87175.695, 0.0, 5.0055118, 4.9342456 
8.8746643e+2, 3.06969e+2, -45443.684, -111910.445, 1523.0682, 0.0014432449, 0.034561172, -45408.8, -45408.8, 0.0, 5.0012846, 4.9582353 
8.8726974e+2, 3.1192625e+2, -54857.57, -110284.14, 667.5633, -0.009501837, 0.0306095, -54849.53, -54849.53, 0.0, 4.996687, 4.9608083 
8.8707304e+2, 3.1688362e+2, -67393.77, -115768.984, 69.073166, -0.021006875, 0.026362685, -67393.68, -67393.68, 0.0, 4.9920673, 4.960818 
8.868785e+2, 3.2184312e+2, -29889.143, -5813.2295, -2163.3218, -0.023871783, -0.003159692, -5620.3906, -5620.3906, 0.0, 4.9876947, 5.0026784 
8.9865345e+2, 1.2868918e+2, -1594187.4, -1682306.6, 7462.253, 0.0032647096, -0.0077095367, -1593560.0, 85279.96, 0.0, 5.0520334, 4.993198 
8.9847815e+2, 1.3367905e+2, -1549089.0, -1635452.9, 8368.153, 0.003544662, -0.007914829, -1548285.6, 81653.77, 0.0, 5.0508823, 4.9931836 
8.983028e+2, 1.3866888e+2, -1504076.9, -1588732.5, 9348.91, 0.0036142534, -0.0077149114, -1503056.8, 77982.58, 0.0, 5.049715, 4.993126 
8.9812845e+2, 1.4365846e+2, -1460398.5, -1544738.0, 13501.866, -0.00027996444, -0.00699919, -1458289.8, 73851.93, 0.0, 5.0486035, 4.992079 
8.979633e+2, 1.4864472e+2, -1422677.4, -1512779.8, 22087.809, -0.0015465582, -0.0020762216, -1417554.0, 65722.49, 0.0, 5.0476995, 4.9866786 
8.978021e+2, 1.5362784e+2, -1375258.4, -1464650.6, 22850.264, -0.002175232, -0.005527517, -1369756.1, 64685.95, 0.0, 5.047282, 4.986688 
8.97641e+2, 1.5861094e+2, -1327894.4, -1416647.4, 23524.357, -0.0027864366, -0.008903223, -1322044.6, 63563.17, 0.0, 5.0468636, 4.9866533 
8.9748013e+2, 1.6359405e+2, -1282393.8, -1372069.5, 24938.068, -0.00042055975, -0.008705913, -1275925.3, 60848.65, 0.0, 5.0463715, 4.9854856 
8.973226e+2, 1.6857305e+2, -1244965.9, -1343309.5, 29739.629, 0.0024180177, -0.0031862236, -1236672.0, 51308.305, 0.0, 5.0458174, 4.978887 
8.9716697e+2, 1.7354874e+2, -1197190.9, -1294958.0, 30415.846, 0.0042717066, -0.0011208861, -1188500.8, 50718.504, 0.0, 5.0454845, 4.9788976 
8.970114e+2, 1.7852437e+2, -1149491.8, -1246783.8, 31082.506, 0.006026279, 0.00077361456, -1140409.4, 50049.363, 0.0, 5.0451527, 4.9788446 
8.968555e+2, 1.8349932e+2, -1103497.4, -1202549.3, 31564.895, 0.005882476, 0.00046331342, -1094293.8, 47410.855, 0.0, 5.0448794, 4.977424 
8.967e+2, 1.8846942e+2, -1065598.0, -1175274.0, 33830.35, 0.0060397726, 0.002441817, -1056002.3, 36995.87, 0.0, 5.0445976, 4.9701624 
8.965452e+2, 1.9343562e+2, -1017451.2, -1126720.6, 34427.2, 0.005544102, -0.00197651, -1007508.94, 36820.844, 0.0, 5.0443583, 4.970165 
8.963903e+2, 1.9840181e+2, -969321.0, -1078210.6, 35007.145, 0.0050641806, -0.0062395493, -959037.6, 36623.934, 0.0, 5.0441184, 4.970151 
8.9623505e+2, 2.0336802e+2, -922877.7, -1033584.56, 34475.543, 0.0053336318, -0.0067810384, -913019.44, 33973.582, 0.0, 5.043903, 4.9687996 
8.960772e+2, 2.0832959e+2, -885088.75, -1007957.44, 33893.84, 0.005839923, 0.00010742179, -876359.2, 22010.707, 0.0, 5.0436664, 4.9609222 
8.959185e+2, 2.132869e+2, -837252.8, -959492.94, 34324.234, 0.006671567, 0.00020627993, -828274.25, 21514.023, 0.0, 5.0432744, 4.960927 
8.957599e+2, 2.182442e+2, -789476.9, -911166.94, 34714.44, 0.0074423486, 0.00007346673, -780270.4, 20936.61, 0.0, 5.0428805, 4.9608827 
8.956004e+2, 2.2320107e+2, -743696.25, -866944.2, 33479.613, 0.008966735, 0.0003877969, -735188.94, 17441.656, 0.0, 5.042411, 4.9594545 
8.9543605e+2, 2.2815311e+2, -706494.2, -842144.3, 29719.523, 0.010798095, 0.006905973, -700268.6, 3833.355, 0.0, 5.041855, 4.951396 
8.952689e+2, 2.3310082e+2, -660123.8, -794287.44, 29860.129, 0.013088403, 0.0068944963, -653778.1, 1837.6136, 0.0, 5.0408916, 4.9514074 
8.951018e+2, 2.3804852e+2, -613745.94, -746439.7, 29986.178, 0.015316826, 0.006821417, -607284.3, -154.8978, 0.0, 5.0399265, 4.9514103 
8.9493364e+2, 2.4299598e+2, -568701.9, -701351.75, 28424.39, 0.01640642, 0.0060627945, -562867.6, -4222.759, 0.0, 5.0389056, 4.950466 
8.9475936e+2, 2.4793896e+2, -531817.8, -675278.3, 22142.666, 0.016364424, 0.008747357, -528477.94, -18274.35, 0.0, 5.0377464, 4.9430504 
8.945802e+2, 2.52878e+2, -487593.75, -628350.3, 21758.203, 0.016112687, 0.005590616, -484307.1, -22506.299, 0.0, 5.035943, 4.943071 
8.944012e+2, 2.5781712e+2, -443409.5, -581456.56, 21583.588, 0.015911657, 0.002456015, -440113.6, -26715.629, 0.0, 5.034128, 4.943068 
8.9422137e+2, 2.6275638e+2, -399495.4, -534837.94, 19766.184, 0.014982976, 0.0009626748, -396667.72, -31674.486, 0.0, 5.032222, 4.943003 
8.9403564e+2, 2.6769295e+2, -364249.06, -507671.16, 13034.756, 0.014095354, 0.0116449315, -363074.03, -46459.285, 0.0, 5.0299873, 4.936334 
8.9384425e+2, 2.7262643e+2, -322034.47, -459746.22, 11735.779, 0.013390959, 0.01054836, -321041.5, -52774.62, 0.0, 5.026994, 4.937179 
8.9365286e+2, 2.775599e+2, -281023.13, -414210.7, 11322.232, 0.012578926, 0.009046086, -280067.5, -60148.28, 0.0, 5.0239587, 4.9371667 
8.934611e+2, 2.8249332e+2, -239089.6, -366472.53, 9758.614, 0.012280801, 0.004682789, -238346.33, -66775.37, 0.0, 5.020906, 4.9379153 
8.932653e+2, 2.8742427e+2, -204544.05, -335894.53, 4414.3145, 0.01076464, 0.0020754149, -204395.86, -81150.266, 0.0, 5.017635, 4.9327755 
8.930651e+2, 2.9235443e+2, -163797.38, -286750.97, 2694.4683, 0.011227201, -0.0052608354, -163738.34, -88810.49, 0.0, 5.01369, 4.934396 
8.92865e+2, 2.972846e+2, -125186.16, -242125.39, 1935.0256, 0.011960648, -0.0131447865, -125154.15, -98544.336, 0.0, 5.0096965, 4.9343905 
8.926647e+2, 3.0221608e+2, -87402.77, -199040.73, 1295.4523, 0.007998501, -0.0077154734, -87387.74, -87387.74, 0.0, 5.005605, 4.9338527 
8.924638e+2, 3.071616e+2, -45295.07, -112831.164, -1825.5144, 0.0014903845, 0.032544482, -45245.76, -45245.76, 0.0, 5.0013943, 4.957928 
8.922625e+2, 3.12118e+2, -54665.74, -111140.29, -2739.1372, -0.008688202, 0.02283003, -54533.195, -54533.195, 0.0, 4.996791, 4.960534 
8.9206123e+2, 3.1707454e+2, -67261.586, -116706.68, -3200.9912, -0.019943083, 0.013121434, -67055.22, -67055.22, 0.0, 4.9921556, 4.960524 
8.918594e+2, 3.2203767e+2, -39465.082, -27900.957, -2340.0347, -0.057671387, 0.06551944, -27445.39, -27445.39, 0.0, 4.987537, 4.9946947 
9.037014e+2, 1.288706e+2, -1597583.9, -1680842.8, 8490.098, 0.00017944549, -0.008728902, -1596726.9, 80335.1, 0.0, 5.050215, 4.994571 
9.035252e+2, 1.3386177e+2, -1551972.3, -1633728.8, 9448.449, 0.0016022989, -0.008676038, -1550894.5, 77254.15, 0.0, 5.049236, 4.994558 
9.033488e+2, 1.3885286e+2, -1506531.5, -1586837.0, 10500.603, 0.0028126528, -0.00850963, -1505181.1, 74054.74, 0.0, 5.0482225, 4.99448 
9.031736e+2, 1.4384364e+2, -1462783.3, -1543170.5, 14949.508, -0.00028543785, -0.0074812006, -1460093.1, 70233.48, 0.0, 5.047219, 4.993269 
9.030079e+2, 1.4883094e+2, -1425176.0, -1511551.1, 23758.818, -0.0009952094, -0.0022538495, -1419072.1, 62379.48, 0.0, 5.0463567, 4.987728 
9.028466e+2, 1.5381508e+2, -1377590.3, -1463339.1, 24479.172, -0.00062580954, -0.004946926, -1371094.3, 61513.18, 0.0, 5.0459948, 4.987738 
9.026851e+2, 1.5879922e+2, -1330082.8, -1415298.3, 25103.123, -0.00021349415, -0.0075629107, -1323237.6, 60525.78, 0.0, 5.045632, 4.9876885 
9.025238e+2, 1.6378327e+2, -1284076.8, -1370527.9, 26530.664, 0.0021129628, -0.007089534, -1276584.3, 58335.97, 0.0, 5.0453215, 4.9865007 
9.02366e+2, 1.6876312e+2, -1246103.6, -1341676.1, 31411.383, 0.0044843373, -0.0018070156, -1236704.3, 49414.08, 0.0, 5.0449967, 4.9798203 
9.022101e+2, 1.7373964e+2, -1197663.4, -1292993.8, 32058.82, 0.0058688615, 0.00018862473, -1187885.3, 49463.992, 0.0, 5.0448947, 4.9798326 
9.0205425e+2, 1.7871611e+2, -1149343.0, -1244530.8, 32709.373, 0.007212659, 0.002098817, -1139186.8, 49393.773, 0.0, 5.044784, 4.9797745 
9.018981e+2, 1.8369186e+2, -1102890.9, -1200132.4, 33225.492, 0.0067670094, 0.0015086919, -1092622.6, 47195.92, 0.0, 5.044682, 4.978332 
9.017424e+2, 1.886627e+2, -1064735.8, -1172938.4, 35491.027, 0.006854142, 0.0029739363, -1054133.4, 36971.43, 0.0, 5.044534, 4.970979 
9.015873e+2, 1.9362956e+2, -1016282.4, -1124248.1, 36057.65, 0.0062587294, -0.0019351464, -1005347.56, 37082.13, 0.0, 5.044405, 4.970979 
9.014323e+2, 1.9859643e+2, -967938.4, -1075680.5, 36592.734, 0.005688778, -0.006748876, -956685.56, 37069.145, 0.0, 5.0442514, 4.9709477 
9.012767e+2, 2.0356335e+2, -921496.25, -1031222.94, 35992.383, 0.006256782, -0.006813666, -910743.75, 34335.516, 0.0, 5.044073, 4.969522 
9.011186e+2, 2.0852552e+2, -883773.5, -1005918.56, 35295.32, 0.0071189054, 0.0005055709, -874308.0, 22142.23, 0.0, 5.043876, 4.961515 
9.009596e+2, 2.1348344e+2, -835906.8, -957437.1, 35679.164, 0.008608719, 0.0013358239, -826206.3, 21656.69, 0.0, 5.0434985, 4.961521 
9.008006e+2, 2.1844134e+2, -788246.4, -909234.94, 35999.406, 0.010164313, 0.002109471, -778345.25, 20930.84, 0.0, 5.0430827, 4.9614463 
9.006406e+2, 2.2339869e+2, -742440.2, -865215.2, 34639.395, 0.01187877, 0.0029990673, -733341.44, 17353.633, 0.0, 5.042661, 4.95993 
9.0047544e+2, 2.2835095e+2, -705076.1, -840873.75, 30672.682, 0.013546365, 0.009098587, -698469.5, 3694.5627, 0.0, 5.042254, 4.95165 
9.0030736e+2, 2.3329882e+2, -658479.44, -792926.94, 30825.807, 0.015788281, 0.008977476, -651748.7, 1927.4884, 0.0, 5.041376, 4.9516563 
9.0013933e+2, 2.3824671e+2, -612036.4, -745070.44, 30932.31, 0.018114813, 0.008929183, -605195.94, -7.6172075, 0.0, 5.040442, 4.951651 
8.999701e+2, 2.4319428e+2, -567026.3, -700217.75, 29229.799, 0.018682944, 0.0080745565, -560894.0, -4191.3945, 0.0, 5.0394554, 4.950611 
8.997941e+2, 2.4813712e+2, -530105.6, -674783.94, 22421.047, 0.017964922, 0.009921176, -526710.7, -18448.137, 0.0, 5.038412, 4.942933 
8.9961314e+2, 2.530759e+2, -485774.88, -627829.2, 21973.36, 0.017092308, 0.0058996966, -482453.63, -22591.379, 0.0, 5.0366497, 4.942946 
8.994322e+2, 2.5801468e+2, -441661.28, -580959.9, 21730.018, 0.016303059, 0.0018914489, -438350.2, -26888.213, 0.0, 5.034807, 4.9429493 
8.992504e+2, 2.6295373e+2, -397854.47, -534389.0, 19512.68, 0.014802521, 0.0001105732, -395120.6, -32061.422, 0.0, 5.032857, 4.9428916 
8.9906204e+2, 2.6788992e+2, -362808.4, -508169.78, 12030.072, 0.014119901, 0.010406941, -361819.53, -47135.547, 0.0, 5.0306854, 4.9358788 
8.988676e+2, 2.7282295e+2, -320498.5, -459973.22, 10523.988, 0.013927607, 0.00845424, -319708.88, -53368.72, 0.0, 5.027676, 4.9368296 
8.986733e+2, 2.7775595e+2, -279764.63, -414617.22, 9975.756, 0.013644472, 0.0061957575, -279030.66, -61034.293, 0.0, 5.0245495, 4.9367957 
8.984784e+2, 2.8268892e+2, -238472.84, -367647.22, 8138.4478, 0.01291107, 0.002679097, -237962.11, -68309.91, 0.0, 5.0213547, 4.937338 
8.9827895e+2, 2.8761932e+2, -204230.81, -337595.4, 2070.2605, 0.010487228, 0.0013728191, -204198.67, -82866.0, 0.0, 5.0180135, 4.932063 
8.980747e+2, 2.9254892e+2, -163786.25, -288563.75, 122.4883, 0.01055513, -0.004598583, -163786.13, -90765.11, 0.0, 5.013948, 4.9336977 
8.978705e+2, 2.974786e+2, -125589.93, -244127.92, -802.94336, 0.010786524, -0.011051807, -125584.49, -100875.55, 0.0, 5.009802, 4.9336905 
8.976661e+2, 3.0240944e+2, -87829.03, -200765.67, -1832.3435, 0.006231581, -0.0043512727, -87799.31, -87799.31, 0.0, 5.00564, 4.933281 
8.974612e+2, 3.0735412e+2, -45330.1, -113928.12, -5113.114, 0.0019403666, 0.028996995, -44951.08, -44951.08, 0.0, 5.0014644, 4.957564 
8.972553e+2, 3.1230956e+2, -54764.19, -112110.22, -6094.6255, -0.0067142164, 0.009671704, -54123.62, -54123.62, 0.0, 4.9967933, 4.9602532 
8.970494e+2, 3.1726515e+2, -67537.984, -117813.18, -6439.376, -0.01699165, -0.009348959, -66726.31, -66726.31, 0.0, 4.9920993, 4.9602222 
8.968424e+2, 3.2222405e+2, -41478.64, -29961.35, -2136.2358, -0.0658112, 0.0010750084, -29577.887, -29577.887, 0.0, 4.986923, 4.994105 
9.087455e+2, 1.2905444e+2, -1610263.6, -1683549.3, 8508.436, -0.0029379078, -0.008774364, -1609288.8, 65971.83, 0.0, 5.045199, 4.9960976 
9.085686e+2, 1.3404714e+2, -1563293.9, -1635743.1, 9611.833, -0.00016995608, -0.008043324, -1562040.4, 64291.73, 0.0, 5.0446725, 4.9960837 
9.083916e+2, 1.3903971e+2, -1516452.8, -1588219.0, 10879.47, 0.0020596143, -0.00763511, -1514839.8, 62564.934, 0.0, 5.0441446, 4.9959726 
9.0821594e+2, 1.4403181e+2, -1471384.6, -1544264.0, 15705.233, -0.00029687316, -0.0065848534, -1468144.3, 60338.188, 0.0, 5.043667, 4.994596 
9.0805006e+2, 1.4902031e+2, -1432677.9, -1512456.6, 24934.11, -0.0004320147, -0.0010378528, -1425526.1, 54069.965, 0.0, 5.0432415, 4.9889116 
9.078886e+2, 1.5400565e+2, -1384065.6, -1463681.4, 25897.295, 0.0014505131, -0.002887308, -1376383.1, 54357.438, 0.0, 5.0432253, 4.988934 
9.077271e+2, 1.5899095e+2, -1335515.4, -1415062.4, 26775.527, 0.003262915, -0.004757527, -1327342.4, 54542.926, 0.0, 5.0432134, 4.988902 
9.075657e+2, 1.6397606e+2, -1288436.8, -1369757.3, 28534.02, 0.005293326, -0.0048046666, -1279423.6, 53608.246, 0.0, 5.0432696, 4.9877152 
9.0740776e+2, 1.6895688e+2, -1249539.3, -1340505.5, 33826.387, 0.0064807422, -0.00085189636, -1238339.6, 45880.86, 0.0, 5.043275, 4.9810085 
9.0725183e+2, 1.7393434e+2, -1200224.3, -1291309.1, 34851.598, 0.006373796, -0.000016168584, -1188419.1, 47022.84, 0.0, 5.0434747, 4.9810433 
9.070959e+2, 1.7891178e+2, -1151012.4, -1242322.1, 35863.496, 0.0061584646, 0.0008047732, -1138610.8, 48052.883, 0.0, 5.043672, 4.981009 
9.0693974e+2, 1.8388863e+2, -1103692.8, -1197384.0, 36765.13, 0.005308532, 0.0003831625, -1090988.5, 46902.324, 0.0, 5.04386, 4.9796095 
9.067842e+2, 1.8886061e+2, -1064736.9, -1169858.4, 39507.348, 0.0058684116, 0.0027771622, -1051544.6, 37620.97, 0.0, 5.0440216, 4.97222 
9.0662926e+2, 1.9382867e+2, -1015350.25, -1120612.1, 40576.426, 0.0061570546, -0.00085267884, -1001524.75, 38954.145, 0.0, 5.0442233, 4.972248 
9.0647435e+2, 1.9879669e+2, -966066.0, -1071567.1, 41593.41, 0.0065381695, -0.004415509, -951640.44, 40152.0, 0.0, 5.0444217, 4.9722104 
9.0631884e+2, 2.0376462e+2, -918789.1, -1026724.9, 41390.836, 0.0080994535, -0.004116779, -904744.25, 38363.22, 0.0, 5.0445714, 4.970756 
9.061607e+2, 2.0872763e+2, -880373.3, -1001181.0, 41204.16, 0.009464764, 0.0024254727, -867658.06, 26812.537, 0.0, 5.0446844, 4.9626684 
9.060015e+2, 2.1368639e+2, -831507.56, -952113.1, 42125.875, 0.011299039, 0.0032102235, -818250.75, 27624.746, 0.0, 5.044671, 4.962706 
9.058424e+2, 2.1864514e+2, -782744.3, -903279.5, 42968.207, 0.0133680925, 0.004209558, -768995.4, 28285.021, 0.0, 5.0446568, 4.962663 
9.0568215e+2, 2.2360331e+2, -735700.25, -858520.75, 42183.242, 0.014523173, 0.0046164, -722607.8, 26083.346, 0.0, 5.0446715, 4.9612 
9.0551645e+2, 2.2855625e+2, -697403.7, -834077.7, 38676.08, 0.014818954, 0.009654708, -687218.2, 12935.104, 0.0, 5.044692, 4.9527407 
9.053476e+2, 2.3350467e+2, -649532.56, -785458.8, 39499.664, 0.015916774, 0.00859531, -638887.75, 12771.797, 0.0, 5.044289, 4.952766 
9.0517884e+2, 2.384531e+2, -601661.5, -736856.3, 40285.17, 0.017456332, 0.0076952614, -590567.7, 12598.076, 0.0, 5.0438848, 4.9527836 
9.050088e+2, 2.434012e+2, -555296.0, -691501.9, 39165.383, 0.017832866, 0.0060910834, -544837.25, 9837.325, 0.0, 5.0434437, 4.9516735 
9.0483165e+2, 2.483444e+2, -517451.84, -666268.3, 32615.266, 0.016745767, 0.008063279, -510617.6, -4386.715, 0.0, 5.0428677, 4.9437103 
9.0464914e+2, 2.5328344e+2, -471920.66, -618689.25, 32865.586, 0.015799709, 0.0045963936, -464897.22, -7069.094, 0.0, 5.0415564, 4.9437447 
9.044666e+2, 2.5822243e+2, -426403.63, -571087.4, 33324.223, 0.015369318, 0.0010596468, -419097.2, -9671.65, 0.0, 5.0402336, 4.9437804 
9.0428317e+2, 2.6316163e+2, -381386.47, -524120.97, 31433.986, 0.014945273, -0.00061610644, -374770.53, -13749.195, 0.0, 5.038782, 4.943646 
9.040924e+2, 2.6809758e+2, -346265.4, -498937.72, 23940.373, 0.014353339, 0.009575763, -342599.38, -29950.748, 0.0, 5.0368423, 4.936164 
9.0389496e+2, 2.7303022e+2, -303612.97, -450369.28, 22793.414, 0.014607105, 0.0077832867, -300154.3, -35845.99, 0.0, 5.0339384, 4.9372077 
9.036976e+2, 2.7796286e+2, -262416.3, -404736.88, 22628.24, 0.015408128, 0.005652601, -258905.16, -42937.28, 0.0, 5.0309877, 4.937202 
9.034995e+2, 2.8289542e+2, -221013.39, -357505.2, 20870.262, 0.015431203, 0.0013534828, -217893.53, -50265.887, 0.0, 5.0278063, 4.937844 
9.03296e+2, 2.8782526e+2, -188680.81, -329152.56, 14900.953, 0.01264491, -0.00036965118, -187117.56, -67804.01, 0.0, 5.0239377, 4.9321938 
9.030872e+2, 2.927542e+2, -149924.73, -280687.8, 13366.66, 0.011956509, -0.0060993065, -148572.38, -77564.21, 0.0, 5.019228, 4.933915 
9.0287846e+2, 2.9768324e+2, -113572.77, -237324.61, 12992.911, 0.011963409, -0.012108949, -112223.336, -89521.05, 0.0, 5.014466, 4.9337945 
9.026696e+2, 3.026135e+2, -76785.74, -193418.52, 12679.42, 0.007032914, -0.0051088193, -75423.25, -75423.25, 0.0, 5.009794, 4.933785 
9.024601e+2, 3.0755755e+2, -35771.91, -107416.71, 8262.1875, 0.0020013594, 0.026399646, -34831.445, -34831.445, 0.0, 5.0051417, 4.9580016 
9.022493e+2, 3.1251255e+2, -46941.613, -106287.8, 6417.86, -0.0041131675, 0.006037277, -46255.5, -46255.5, 0.0, 4.9998007, 4.9607325 
9.0203846e+2, 3.1746775e+2, -62120.53, -112947.25, 5537.673, -0.009883256, -0.014861502, -61524.188, -61524.188, 0.0, 4.9941945, 4.960742 
9.018266e+2, 3.2242262e+2, -34380.56, -11980.496, 6582.6074, -0.048165422, -0.07656302, -10189.321, -10189.321, 0.0, 4.987164, 5.0002236 
9.137873e+2, 1.2923871e+2, -1607956.5, -1678960.0, 8030.679, -0.006547828, -0.008940588, -1607059.6, 66395.35, 0.0, 5.045214, 4.997625 
9.136099e+2, 1.3423294e+2, -1560988.6, -1631166.0, 9146.927, -0.0025647231, -0.008064415, -1559816.0, 64694.992, 0.0, 5.0446916, 4.9976096 
9.134325e+2, 1.3922703e+2, -1514223.9, -1583809.1, 10492.023, 0.00069405715, -0.007628913, -1512676.3, 62892.348, 0.0, 5.044168, 4.9974456 
9.1325665e+2, 1.4422056e+2, -1469406.4, -1540320.0, 15527.804, -0.0009258661, -0.006255822, -1466155.4, 60477.457, 0.0, 5.0436883, 4.995914 
9.130907e+2, 1.4921035e+2, -1430920.3, -1508780.1, 24859.0, -0.00039041124, -0.0004359701, -1423660.3, 54073.863, 0.0, 5.043238, 4.9901476 
9.129294e+2, 1.5419698e+2, -1382323.0, -1460018.1, 25825.49, 0.0031642886, -0.0016275655, -1374522.0, 54344.19, 0.0, 5.0432205, 4.9901705 
9.127681e+2, 1.5918356e+2, -1333788.1, -1411418.6, 26731.799, 0.006426903, -0.002906297, -1325473.6, 54525.035, 0.0, 5.043209, 4.9901357 
9.126068e+2, 1.6416985e+2, -1286702.3, -1366079.6, 28574.084, 0.008184382, -0.0035005012, -1277486.3, 53647.453, 0.0, 5.0432653, 4.9889636 
9.1244894e+2, 1.6915183e+2, -1247795.5, -1336695.3, 33899.504, 0.00816535, -0.0007023209, -1236344.0, 45966.79, 0.0, 5.0432596, 4.9823017 
9.1229296e+2, 1.7413047e+2, -1198494.3, -1287507.6, 34928.832, 0.0065066344, -0.0008284557, -1186424.8, 47095.883, 0.0, 5.0434585, 4.982338 
9.121371e+2, 1.791091e+2, -1149302.3, -1238539.6, 35934.914, 0.0047471346, -0.0008907319, -1136631.0, 48099.543, 0.0, 5.043655, 4.9823017 
9.119811e+2, 1.8408729e+2, -1101940.4, -1193482.8, 36829.4, 0.0036375914, -0.0008173039, -1088962.9, 46981.574, 0.0, 5.043839, 4.9809475 
9.118258e+2, 1.8906073e+2, -1062987.6, -1165896.1, 39581.547, 0.0046972623, 0.002506232, -1049524.6, 37680.242, 0.0, 5.0439935, 4.9735794 
9.1167116e+2, 1.9403026e+2, -1013611.3, -1116662.5, 40654.977, 0.0058278264, 0.00014926298, -999503.7, 39000.01, 0.0, 5.044196, 4.9736075 
9.1151655e+2, 1.9899976e+2, -964403.25, -1067767.0, 41640.145, 0.006991379, -0.0021637434, -949715.56, 40087.32, 0.0, 5.044394, 4.973523 
9.113612e+2, 2.0396894e+2, -917205.94, -1023074.1, 41346.21, 0.009428447, -0.0015006246, -902972.1, 38133.504, 0.0, 5.0445404, 4.9720216 
9.1120315e+2, 2.0893313e+2, -878884.6, -997742.0, 41115.074, 0.011461064, 0.0043330635, -866048.44, 26409.285, 0.0, 5.0446553, 4.963861 
9.11044e+2, 2.1389307e+2, -830023.25, -948685.56, 42046.17, 0.013694496, 0.005125079, -816635.3, 27216.098, 0.0, 5.044644, 4.9638977 
9.108849e+2, 2.18853e+2, -781264.7, -899863.3, 42868.51, 0.015971748, 0.006045068, -767392.1, 27853.004, 0.0, 5.044632, 4.9638543 
9.107244e+2, 2.2381228e+2, -734213.8, -855013.56, 42065.477, 0.016212443, 0.005754759, -721009.0, 25635.6, 0.0, 5.044637, 4.9624295 
9.105584e+2, 2.2876626e+2, -696105.2, -831056.5, 38311.945, 0.015576122, 0.010013415, -685987.25, 12108.682, 0.0, 5.044665, 4.9538 
9.1038907e+2, 2.3371565e+2, -648232.1, -782445.06, 39148.574, 0.0154205505, 0.0080438135, -637647.6, 11944.705, 0.0, 5.0442657, 4.953825 
9.102197e+2, 2.3866504e+2, -600378.25, -733892.56, 39919.977, 0.015506288, 0.0061466135, -589352.9, 11735.981, 0.0, 5.043865, 4.9538274 
9.100491e+2, 2.4361409e+2, -554157.56, -688800.1, 38658.78, 0.015229275, 0.004162256, -543847.25, 8740.589, 0.0, 5.043415, 4.9526305 
9.09871e+2, 2.4855807e+2, -516591.2, -664504.5, 31562.05, 0.01415215, 0.0064263353, -510137.94, -6001.5234, 0.0, 5.0428715, 4.94434 
9.0968716e+2, 2.5349778e+2, -471053.38, -616913.75, 31849.027, 0.013429387, 0.003609356, -464402.3, -8675.52, 0.0, 5.041562, 4.9443803 
9.0950334e+2, 2.5843745e+2, -425540.44, -569327.7, 32293.51, 0.012937997, 0.00068089116, -418620.6, -11303.197, 0.0, 5.040241, 4.9444118 
9.093184e+2, 2.6337725e+2, -380806.8, -522888.9, 30006.143, 0.013289951, -0.0004924373, -374729.78, -15822.403, 0.0, 5.0387692, 4.944101 
9.0912527e+2, 2.6831338e+2, -346079.63, -499077.6, 21712.332, 0.013689405, 0.009889147, -343058.06, -32524.906, 0.0, 5.0368752, 4.9361424 
9.08925e+2, 2.7324602e+2, -303405.66, -450495.75, 20565.322, 0.014696102, 0.008580175, -300584.44, -38391.367, 0.0, 5.0339756, 4.937192 
9.087247e+2, 2.781787e+2, -262160.0, -404774.3, 20446.88, 0.015905915, 0.006892124, -259286.4, -45433.46, 0.0, 5.031028, 4.9372177 
9.085234e+2, 2.8311113e+2, -220629.28, -357177.1, 17967.229, 0.015836662, 0.0010934907, -218304.7, -52791.063, 0.0, 5.0278296, 4.937995 
9.0831566e+2, 2.880407e+2, -188705.89, -329974.66, 11354.512, 0.013500995, -0.0023018525, -187799.1, -70597.73, 0.0, 5.023976, 4.931944 
9.08102e+2, 2.9296935e+2, -149886.67, -281387.7, 9768.535, 0.0120577365, -0.008697453, -149164.98, -80266.54, 0.0, 5.019267, 4.933711 
9.078884e+2, 2.9789808e+2, -113512.11, -237954.08, 9413.437, 0.010773022, -0.015302882, -112804.055, -92208.984, 0.0, 5.0145016, 4.933616 
9.0767485e+2, 3.028283e+2, -76526.99, -193743.25, 9312.402, 0.004641546, -0.008300192, -75791.77, -75791.77, 0.0, 5.0098543, 4.9337106 
9.0746033e+2, 3.0777228e+2, -35370.645, -108580.61, 4372.267, -0.003042284, 0.028147224, -35110.45, -35110.45, 0.0, 5.005364, 4.9575987 
9.072442e+2, 3.1272718e+2, -46135.797, -107497.57, 2611.1072, -0.010161383, 0.015052857, -46024.887, -46024.887, 0.0, 5.0002127, 4.960234 
9.07028e+2, 3.1768236e+2, -61057.11, -115608.195, 1973.6691, -0.017287241, 0.002229718, -60985.797, -60985.797, 0.0, 4.9950004, 4.9595504 
9.068093e+2, 3.2263964e+2, -36413.72, -22482.553, 1755.4998, -0.0641176, -0.014841619, -22264.742, -22264.742, 0.0, 4.9880905, 4.9962287 
9.18829e+2, 1.2942305e+2, -1606288.6, -1674684.5, 7564.0986, -0.009898813, -0.008758472, -1605462.0, 66186.57, 0.0, 5.045016, 4.9991508 
9.186512e+2, 1.3441882e+2, -1559056.1, -1626769.6, 8685.972, -0.004750485, -0.007983287, -1557959.6, 64729.91, 0.0, 5.0445867, 4.999135 
9.1847336e+2, 1.3941441e+2, -1512230.9, -1579555.4, 10087.874, -0.0004448852, -0.007687875, -1510751.9, 62980.305, 0.0, 5.044123, 4.9988985 
9.182973e+2, 1.4440934e+2, -1467540.9, -1536477.6, 15364.1045, -0.0014949157, -0.005880719, -1464271.8, 60511.035, 0.0, 5.0436826, 4.9972105 
9.181314e+2, 1.4940043e+2, -1429170.5, -1505104.9, 24787.568, -0.00033731063, 0.0003147404, -1421795.3, 54076.43, 0.0, 5.043232, 4.991384 
9.179703e+2, 1.5438835e+2, -1380569.5, -1456348.1, 25759.646, 0.0049023563, -0.00027078998, -1372642.3, 54349.23, 0.0, 5.0432205, 4.9914064 
9.1780907e+2, 1.5937622e+2, -1332087.9, -1407810.0, 26699.729, 0.009560598, -0.0010283152, -1323620.4, 54491.184, 0.0, 5.043201, 4.991359 
9.1764784e+2, 1.6436368e+2, -1285001.4, -1362425.1, 28606.87, 0.011014211, -0.002185064, -1275578.4, 53656.777, 0.0, 5.043251, 4.9902096 
9.1749e+2, 1.693468e+2, -1246064.3, -1332890.9, 33970.582, 0.0098398505, -0.00057032524, -1234353.0, 46047.867, 0.0, 5.043241, 4.9835944 
9.173341e+2, 1.7432663e+2, -1196766.1, -1283707.0, 35004.926, 0.006602418, -0.0017094803, -1184424.1, 47174.77, 0.0, 5.0434422, 4.983632 
9.171783e+2, 1.7930646e+2, -1147596.6, -1234763.3, 36012.645, 0.0033133598, -0.0026232838, -1134643.1, 48153.87, 0.0, 5.0436373, 4.983592 
9.1702247e+2, 1.84286e+2, -1100201.5, -1189610.4, 36876.934, 0.0020276476, -0.0018766669, -1086954.3, 47043.383, 0.0, 5.0438175, 4.982276 
9.168674e+2, 1.8926089e+2, -1061240.1, -1161935.0, 39656.734, 0.003629983, 0.002375279, -1047497.6, 37746.2, 0.0, 5.043965, 4.9749384 
9.16713e+2, 1.9423188e+2, -1011874.2, -1112713.9, 40734.52, 0.00559837, 0.0012355872, -997475.3, 39052.8, 0.0, 5.0441685, 4.974967 
9.165587e+2, 1.9920284e+2, -962757.2, -1063999.8, 41677.79, 0.007555317, 0.00012983609, -947807.5, 40005.49, 0.0, 5.0443664, 4.974825 
9.164036e+2, 2.0417331e+2, -915653.3, -1019487.06, 41302.598, 0.010876387, 0.0012115563, -901228.2, 37875.363, 0.0, 5.04451, 4.9732656 
9.162455e+2, 2.0913866e+2, -877398.25, -994302.8, 41029.246, 0.01346644, 0.0063304114, -864435.75, 26008.799, 0.0, 5.044626, 4.9650526 
9.1608644e+2, 2.1409978e+2, -828541.2, -945257.94, 41969.734, 0.016091006, 0.006996022, -815016.6, 26810.48, 0.0, 5.044617, 4.965089 
9.159273e+2, 2.1906087e+2, -779799.2, -896471.6, 42775.855, 0.018552102, 0.007730788, -765796.7, 27413.01, 0.0, 5.0446067, 4.9650364 
9.157667e+2, 2.240213e+2, -732759.5, -851572.56, 41922.332, 0.01785458, 0.0069979993, -719456.9, 25140.797, 0.0, 5.0446024, 4.963636 
9.1560036e+2, 2.2897635e+2, -694809.2, -828034.0, 37951.31, 0.016416462, 0.010546538, -684756.6, 11281.471, 0.0, 5.0446377, 4.954859 
9.154305e+2, 2.3392668e+2, -646934.2, -779430.0, 38800.984, 0.014985311, 0.007486691, -636407.75, 11116.992, 0.0, 5.0442424, 4.954883 
9.152606e+2, 2.3887698e+2, -599116.06, -730969.9, 39561.563, 0.013621194, 0.004441683, -588156.9, 10854.746, 0.0, 5.0438457, 4.954855 
9.1508937e+2, 2.4382703e+2, -553080.56, -686226.9, 38134.46, 0.012747453, 0.0024713895, -542932.0, 7568.6973, 0.0, 5.043386, 4.9535418 
9.1491026e+2, 2.4877176e+2, -515737.44, -662747.1, 30513.74, 0.011565287, 0.004982198, -509655.53, -7613.8394, 0.0, 5.042876, 4.9449654 
9.147251e+2, 2.5371215e+2, -470189.22, -615135.5, 30837.742, 0.011096196, 0.0026125442, -463901.2, -10275.939, 0.0, 5.041568, 4.945014 
9.1454005e+2, 2.5865254e+2, -424697.47, -567602.8, 31276.168, 0.010601176, 0.00011069946, -418152.2, -12943.073, 0.0, 5.040248, 4.945029 
9.143535e+2, 2.635929e+2, -380348.13, -521921.22, 28545.795, 0.011649008, -0.00022484355, -374809.1, -18015.75, 0.0, 5.038755, 4.944462 
9.141581e+2, 2.685292e+2, -345856.2, -499129.38, 19483.934, 0.013188904, 0.010552924, -343418.2, -35000.688, 0.0, 5.03691, 4.9361496 
9.13955e+2, 2.7346185e+2, -303200.25, -450621.16, 18345.146, 0.015036564, 0.009494519, -300951.66, -40873.984, 0.0, 5.034014, 4.937174 
9.1375184e+2, 2.783945e+2, -261897.33, -404792.03, 18240.686, 0.016723221, 0.0079768635, -259605.63, -47867.7, 0.0, 5.0310693, 4.9372373 
9.135471e+2, 2.833268e+2, -220401.45, -357204.28, 15065.103, 0.016195657, 0.0009651654, -218762.1, -55362.625, 0.0, 5.027854, 4.9380193 
9.133351e+2, 2.8825614e+2, -188684.67, -330694.06, 7797.7764, 0.01399198, -0.004388601, -188257.78, -73168.31, 0.0, 5.024018, 4.931728 
9.131166e+2, 2.931845e+2, -149848.83, -282088.94, 6173.591, 0.011843141, -0.01193037, -149561.25, -82772.06, 0.0, 5.0193095, 4.933503 
9.128982e+2, 2.9811284e+2, -113554.14, -238826.13, 5918.6772, 0.009330236, -0.019524822, -113275.125, -94786.73, 0.0, 5.0145416, 4.933348 
9.126799e+2, 3.03043e+2, -76504.28, -194617.22, 5987.2856, 0.0014988541, -0.01086472, -76201.555, -76201.555, 0.0, 5.0099177, 4.9334335 
9.1246057e+2, 3.0798697e+2, -35182.875, -109918.016, 374.73413, -0.007940915, 0.028841909, -35180.996, -35180.996, 0.0, 5.0055275, 4.95715 
9.1223913e+2, 3.1294164e+2, -46008.484, -109032.23, -1254.4158, -0.015748942, 0.019177048, -45983.527, -45983.527, 0.0, 5.0003843, 4.9597125 
9.1201764e+2, 3.1789657e+2, -60319.74, -115675.93, -2044.456, -0.024148704, 0.0096945055, -60244.332, -60244.332, 0.0, 4.995167, 4.9595613 
9.1179293e+2, 3.228545e+2, -34835.332, -20083.467, -2761.3992, -0.07428295, 0.0041354466, -19583.506, -19583.506, 0.0, 4.9881496, 4.997209 
9.238698e+2, 1.2960827e+2, -1612175.5, -1673985.5, 8551.192, -0.008571106, -0.006585212, -1611014.4, 58819.996, 0.0, 5.0422797, 5.000707 
9.2369175e+2, 1.3460541e+2, -1563732.5, -1625410.8, 9662.452, -0.0036147994, -0.007046053, -1562254.3, 58607.492, 0.0, 5.0422544, 5.000707 
9.2351365e+2, 1.3960248e+2, -1515853.0, -1577677.8, 11176.328, 0.0008417441, -0.0071513318, -1513894.6, 57995.406, 0.0, 5.042158, 5.0004597 
9.2333746e+2, 1.4459883e+2, -1470536.1, -1534707.8, 16672.37, -0.001057767, -0.0051256977, -1466463.0, 56463.598, 0.0, 5.0420136, 4.9985957 
9.231715e+2, 1.4959116e+2, -1431598.5, -1503229.5, 26268.873, -0.00094955607, 0.0009383126, -1422997.8, 51005.438, 0.0, 5.0417843, 4.992705 
9.2301047e+2, 1.5458032e+2, -1382291.8, -1454148.3, 27221.102, 0.00463186, 0.0003988027, -1373144.3, 51966.527, 0.0, 5.042016, 4.9927206 
9.228495e+2, 1.5956943e+2, -1333141.1, -1405338.5, 28143.95, 0.009887883, -0.00027960693, -1323466.5, 52752.254, 0.0, 5.0422354, 4.992653 
9.226884e+2, 1.6455804e+2, -1285757.5, -1359770.8, 30085.031, 0.012087899, -0.0017497191, -1275071.4, 52259.42, 0.0, 5.042387, 4.991512 
9.225308e+2, 1.6954239e+2, -1246601.4, -1329969.9, 35492.313, 0.010617833, -0.00071511493, -1233538.3, 44946.33, 0.0, 5.0424304, 4.9849534 
9.223751e+2, 1.7452346e+2, -1197152.3, -1280757.5, 36495.16, 0.006810984, -0.0022972573, -1183462.9, 46207.5, 0.0, 5.0426884, 4.984979 
9.2221934e+2, 1.7950451e+2, -1147947.9, -1231896.9, 37427.875, 0.0032110629, -0.0035550857, -1133684.4, 47171.938, 0.0, 5.042912, 4.984903 
9.2206377e+2, 1.8448538e+2, -1100470.4, -1186621.5, 38205.227, 0.0022301918, -0.002090801, -1085968.8, 46075.484, 0.0, 5.043099, 4.9836307 
9.2190886e+2, 1.8946163e+2, -1061290.0, -1158753.5, 40927.938, 0.0039742263, 0.0028569307, -1046383.06, 36893.902, 0.0, 5.0433125, 4.9763236 
9.2175484e+2, 1.9443405e+2, -1011738.44, -1109451.5, 41931.75, 0.0064011533, 0.002674228, -996211.5, 38336.055, 0.0, 5.043584, 4.9763513 
9.2160076e+2, 1.9940642e+2, -962605.75, -1060881.5, 42783.75, 0.008979554, 0.0025431009, -946590.06, 39228.65, 0.0, 5.0438204, 4.9761443 
9.214458e+2, 2.0437813e+2, -915093.2, -1016160.8, 42404.11, 0.01242653, 0.003686385, -899659.0, 37438.297, 0.0, 5.044109, 4.9745903 
9.212878e+2, 2.0934464e+2, -876336.0, -990856.1, 42172.64, 0.014760591, 0.007971266, -862481.75, 25945.342, 0.0, 5.0444293, 4.9663215 
9.211288e+2, 2.1430692e+2, -827029.9, -941628.2, 43174.27, 0.017455976, 0.008380436, -812584.94, 27213.262, 0.0, 5.0445867, 4.9663496 
9.2096967e+2, 2.1926919e+2, -778002.0, -892783.0, 43989.074, 0.020068, 0.008879893, -763082.7, 28086.86, 0.0, 5.0446963, 4.9662676 
9.208089e+2, 2.2423078e+2, -730592.5, -847615.9, 43180.48, 0.018737799, 0.007960697, -716384.4, 26161.465, 0.0, 5.04481, 4.964907 
9.206423e+2, 2.291869e+2, -692427.0, -824286.56, 39069.76, 0.016921612, 0.011038228, -681720.1, 12255.069, 0.0, 5.044986, 4.9559894 
9.2047197e+2, 2.3413822e+2, -644330.9, -775588.56, 39998.13, 0.014720958, 0.0069936044, -633102.75, 12349.204, 0.0, 5.0446773, 4.956011 
9.203016e+2, 2.3908947e+2, -596571.44, -727225.0, 40793.133, 0.012671206, 0.0029736543, -584880.9, 12048.172, 0.0, 5.0442815, 4.955953 
9.201298e+2, 2.4404047e+2, -550815.2, -683033.06, 39307.742, 0.011270121, 0.0013137959, -540011.9, 8396.6045, 0.0, 5.0438075, 4.9544587 
9.1994965e+2, 2.489859e+2, -513312.56, -660119.8, 31148.332, 0.009369216, 0.003897981, -506977.16, -7034.514, 0.0, 5.043447, 4.9456334 
9.197632e+2, 2.5392693e+2, -467724.72, -612482.5, 31418.426, 0.00911178, 0.0019244936, -461199.75, -9679.861, 0.0, 5.042156, 4.9456863 
9.195768e+2, 2.5886795e+2, -422535.2, -565172.8, 31709.04, 0.009019044, -0.00008033079, -415803.8, -12706.465, 0.0, 5.0407486, 4.9456644 
9.1938865e+2, 2.6380888e+2, -378767.03, -520445.22, 28598.229, 0.010664453, 0.0006800493, -373212.2, -18535.938, 0.0, 5.039178, 4.944802 
9.1919094e+2, 2.687453e+2, -344176.47, -498357.1, 18708.31, 0.013094656, 0.011641126, -341938.88, -35639.527, 0.0, 5.0374675, 4.9362063 
9.1898495e+2, 2.736779e+2, -301451.75, -449921.38, 17529.758, 0.015719198, 0.010431469, -299410.1, -41449.703, 0.0, 5.034617, 4.9371877 
9.1877896e+2, 2.7861044e+2, -260307.83, -404078.78, 17380.248, 0.018102368, 0.008825484, -258236.6, -48615.145, 0.0, 5.031598, 4.93729 
9.1857076e+2, 2.8354263e+2, -219208.39, -356910.44, 13368.366, 0.016812429, 0.0010010952, -217922.58, -56638.547, 0.0, 5.0282817, 4.937971 
9.183544e+2, 2.8847158e+2, -187661.56, -330847.63, 5271.407, 0.014267336, -0.006605438, -187467.77, -74490.65, 0.0, 5.0244217, 4.931546 
9.1813105e+2, 2.9339957e+2, -149181.52, -282462.06, 3334.2786, 0.011453223, -0.015765155, -149098.14, -84418.18, 0.0, 5.019588, 4.9333034 
9.179077e+2, 2.983276e+2, -113691.09, -239945.75, 2880.0056, 0.007836416, -0.024605216, -113625.44, -97243.27, 0.0, 5.014598, 4.932981 
9.176848e+2, 3.0325764e+2, -77064.88, -195948.84, 2910.4504, -0.0022246472, -0.012842376, -76993.67, -76993.67, 0.0, 5.009812, 4.9330616 
9.1746074e+2, 3.0820158e+2, -35457.203, -111658.97, -3550.8022, -0.01255245, 0.028059555, -35292.1, -35292.1, 0.0, 5.0055747, 4.956591 
9.1723406e+2, 3.1315598e+2, -46218.234, -110672.39, -5038.6665, -0.020666793, 0.01783406, -45826.72, -45826.72, 0.0, 5.000439, 4.9591894 
9.1700727e+2, 3.181107e+2, -61439.91, -119876.695, -6047.7124, -0.030558866, 0.0101606, -60820.586, -60820.586, 0.0, 4.9953146, 4.9580708 
9.1677916e+2, 3.2306403e+2, -27842.02, -5121.899, -5734.395, -0.062690295, -0.083872594, -3756.6199, -3756.6199, 0.0, 4.9882507, 5.002584 
9.289064e+2, 1.29794e+2, -1625912.0, -1677401.5, 6761.095, -0.0053584035, -0.0043512397, -1625039.0, 42976.37, 0.0, 5.036882, 5.0022316 
9.2872846e+2, 1.3479269e+2, -1576119.0, -1628089.4, 7919.094, -0.0007330501, -0.0051227934, -1574939.1, 44088.727, 0.0, 5.037299, 5.002247 
9.285505e+2, 1.397913e+2, -1526714.3, -1579592.4, 9532.829, 0.0033467507, -0.005317924, -1525048.1, 44992.81, 0.0, 5.037718, 5.001991 
9.2837447e+2, 1.4478919e+2, -1479784.4, -1536089.8, 15227.332, -0.00008803545, -0.003343275, -1475930.1, 45132.26, 0.0, 5.038158, 5.0000196 
9.282087e+2, 1.4978282e+2, -1439645.5, -1504456.4, 24953.418, -0.0019102474, 0.0021121614, -1431151.3, 40974.438, 0.0, 5.0383515, 4.9940085 
9.2804796e+2, 1.5477331e+2, -1389602.3, -1454986.4, 26129.197, 0.002907665, 0.0014303538, -1380443.4, 42776.492, 0.0, 5.0388293, 4.994028 
9.2788726e+2, 1.5976374e+2, -1339721.3, -1405831.3, 27268.0, 0.0077101025, 0.00053192466, -1329925.6, 44389.15, 0.0, 5.039302, 4.9939466 
9.277266e+2, 1.6475366e+2, -1291550.0, -1359664.9, 29402.256, 0.011054915, -0.0011494692, -1280614.1, 44799.74, 0.0, 5.039687, 4.9928813 
9.275693e+2, 1.6973945e+2, -1251646.0, -1329275.8, 35162.39, 0.010087688, -0.0001593389, -1238087.4, 38465.96, 0.0, 5.0399356, 4.986419 
9.274141e+2, 1.7472202e+2, -1201661.6, -1279758.9, 36543.094, 0.0071215956, -0.0015907043, -1187229.5, 40495.035, 0.0, 5.04038, 4.9864526 
9.272589e+2, 1.7970456e+2, -1151877.6, -1230634.6, 37846.625, 0.004768705, -0.002631399, -1136639.0, 42257.016, 0.0, 5.040819, 4.986357 
9.271037e+2, 1.8468688e+2, -1103738.5, -1184906.0, 39029.51, 0.004836337, -0.0005142606, -1088016.4, 42053.25, 0.0, 5.0412254, 4.985127 
9.2694914e+2, 1.8966472e+2, -1063989.9, -1156284.9, 42273.137, 0.0064244326, 0.0046292446, -1047554.56, 33733.004, 0.0, 5.041575, 4.9779963 
9.267955e+2, 1.9463879e+2, -1013960.44, -1106613.4, 43807.297, 0.0085621355, 0.00497087, -996527.8, 36014.543, 0.0, 5.042015, 4.9780602 
9.266417e+2, 1.996128e+2, -964221.75, -1057595.1, 45187.484, 0.010888315, 0.005309818, -945934.94, 37862.8, 0.0, 5.0424614, 4.9778996 
9.264869e+2, 2.0458604e+2, -915902.2, -1012111.6, 45392.027, 0.012713947, 0.005313251, -897866.94, 37193.973, 0.0, 5.042991, 4.976485 
9.263292e+2, 2.0955423e+2, -876316.9, -986003.2, 45897.67, 0.013616464, 0.008325596, -859645.25, 26728.604, 0.0, 5.043578, 4.9683414 
9.261704e+2, 2.1451823e+2, -825943.7, -936144.6, 47692.17, 0.014928794, 0.007869998, -808170.3, 29557.398, 0.0, 5.044123, 4.9684 
9.260116e+2, 2.194822e+2, -775716.7, -886585.0, 49298.805, 0.016252596, 0.007446274, -756966.5, 32115.4, 0.0, 5.044666, 4.968359 
9.2585105e+2, 2.2444558e+2, -727212.94, -840730.4, 49160.074, 0.015114531, 0.006509886, -708883.3, 31556.965, 0.0, 5.0451775, 4.967042 
9.2568463e+2, 2.2940363e+2, -688057.0, -816561.0, 45842.57, 0.014002393, 0.010029888, -673379.56, 18471.398, 0.0, 5.045706, 4.9582133 
9.2551434e+2, 2.3435684e+2, -638583.06, -767032.3, 47746.547, 0.012493524, 0.006700912, -622779.3, 20529.385, 0.0, 5.045908, 4.958284 
9.253441e+2, 2.3931001e+2, -589290.06, -717842.3, 49452.625, 0.011501661, 0.0033485156, -572467.56, 22299.447, 0.0, 5.0460954, 4.9582434 
9.251719e+2, 2.4426281e+2, -542317.5, -673167.9, 48921.07, 0.01087895, 0.0018321099, -526049.8, 20179.432, 0.0, 5.0461226, 4.9566917 
9.2499113e+2, 2.4920973e+2, -503829.47, -650316.4, 41560.49, 0.008666225, 0.004539421, -492859.66, 4889.3154, 0.0, 5.0462556, 4.9476104 
9.248038e+2, 2.541522e+2, -456891.84, -601780.3, 43117.85, 0.00920265, 0.0037499093, -445031.2, 4281.0977, 0.0, 5.0454793, 4.9477334 
9.2461646e+2, 2.5909466e+2, -410099.13, -553509.75, 44569.28, 0.0104868915, 0.0029511354, -397376.53, 3499.3022, 0.0, 5.0446877, 4.947762 
9.2442685e+2, 2.640368e+2, -364771.47, -508161.8, 42592.51, 0.012699264, 0.0028094293, -353074.06, -631.4762, 0.0, 5.0437636, 4.9468193 
9.242269e+2, 2.689739e+2, -329739.06, -486599.88, 33226.305, 0.013485242, 0.011437928, -322991.3, -18932.137, 0.0, 5.042395, 4.937847 
9.24018e+2, 2.7390695e+2, -286272.13, -437829.56, 33181.21, 0.014759222, 0.008880165, -279325.94, -23610.705, 0.0, 5.03987, 4.9388037 
9.2380923e+2, 2.7884004e+2, -243878.9, -391137.2, 34126.656, 0.016998861, 0.006412386, -236354.61, -28983.582, 0.0, 5.0372996, 4.939013 
9.2359775e+2, 2.8377306e+2, -201544.0, -343075.25, 30662.877, 0.016431438, -0.00049112865, -195186.44, -36161.688, 0.0, 5.0344057, 4.939829 
9.2337686e+2, 2.8870243e+2, -171242.16, -318925.94, 22963.64, 0.013818764, -0.006808996, -167753.89, -57040.19, 0.0, 5.030336, 4.932805 
9.2314845e+2, 2.9363042e+2, -133953.97, -271027.94, 21915.264, 0.012147259, -0.015053344, -130535.43, -68119.51, 0.0, 5.0250998, 4.934557 
9.2292017e+2, 2.9855847e+2, -99404.94, -228918.03, 22497.049, 0.01099894, -0.023353223, -95608.38, -81490.39, 0.0, 5.0198, 4.9342136 
9.2269236e+2, 3.0348775e+2, -64589.883, -186922.23, 23185.31, 0.0024540261, -0.013919368, -60343.066, -60343.066, 0.0, 5.0145907, 4.933791 
9.2246324e+2, 3.0843085e+2, -25834.395, -103956.35, 15971.003, -0.00872363, 0.024544701, -22695.457, -22695.457, 0.0, 5.0094094, 4.957248 
9.222311e+2, 3.133844e+2, -37922.63, -103799.4, 13540.922, -0.017082462, 0.014119424, -35247.902, -35247.902, 0.0, 5.003811, 4.9597554 
9.2199886e+2, 3.1833872e+2, -55210.215, -114417.53, 11724.777, -0.0254176, 0.011446949, -52972.91, -52972.91, 0.0, 4.99799, 4.9584403 
9.217687e+2, 3.2329065e+2, -13419.108, 14828.701, 4771.4316, -0.022401875, -0.14542769, 15612.89, 15612.89, 0.0, 4.991714, 5.0079913 
9.339401e+2, 1.2997843e+2, -1623496.5, -1672587.5, 6981.2295, -0.0054842075, -0.0029497687, -1622523.0, 43686.016, 0.0, 5.036906, 5.003828 
9.3376267e+2, 1.3497867e+2, -1573702.8, -1623301.0, 8156.682, 0.00038458972, -0.003951931, -1572395.8, 44810.613, 0.0, 5.0373297, 5.003838 
9.335853e+2, 1.3997883e+2, -1524329.1, -1574902.3, 9884.14, 0.005066644, -0.004497896, -1522466.0, 45738.62, 0.0, 5.037757, 5.003552 
9.3340975e+2, 1.4497815e+2, -1477619.1, -1531747.3, 15689.278, 0.00034567658, -0.0028815842, -1473400.3, 45811.285, 0.0, 5.0381846, 5.0014687 
9.3324435e+2, 1.4997317e+2, -1437506.0, -1500006.3, 25237.498, -0.0034834682, 0.0017728582, -1428587.8, 41673.31, 0.0, 5.038355, 4.9955044 
9.33084e+2, 1.5496515e+2, -1387476.3, -1450553.5, 26419.215, 0.0005062484, 0.0010249215, -1377872.9, 43467.504, 0.0, 5.038833, 4.995523 
9.3292373e+2, 1.5995704e+2, -1337634.3, -1401462.8, 27553.33, 0.004682568, 0.000051637344, -1327385.6, 45034.95, 0.0, 5.039306, 4.9954247 
9.3276364e+2, 1.6494842e+2, -1289405.5, -1355131.5, 29639.754, 0.008879254, -0.0015704776, -1278013.8, 45491.438, 0.0, 5.039687, 4.994419 
9.326069e+2, 1.6993588e+2, -1249259.6, -1324149.0, 35394.9, 0.008768509, -0.0006380378, -1235178.6, 39449.855, 0.0, 5.0399246, 4.988161 
9.3245214e+2, 1.7492019e+2, -1199295.1, -1274646.4, 36779.918, 0.0067841946, -0.00201065, -1184319.0, 41463.617, 0.0, 5.0403676, 4.9881954 
9.3229747e+2, 1.7990446e+2, -1149576.4, -1225628.5, 38066.95, 0.0052566878, -0.0028158268, -1133796.6, 43140.305, 0.0, 5.040805, 4.9880705 
9.321427e+2, 1.8488859e+2, -1101427.6, -1179834.4, 39199.863, 0.0057031293, 0.00012633062, -1085191.6, 42901.957, 0.0, 5.0412083, 4.986867 
9.319886e+2, 1.8986835e+2, -1061411.4, -1150556.3, 42468.777, 0.0076553435, 0.0058319964, -1044418.4, 34874.613, 0.0, 5.041549, 4.9799614 
9.318354e+2, 1.9484447e+2, -1011397.0, -1100901.8, 44009.547, 0.0101276385, 0.0070495484, -993383.06, 37145.066, 0.0, 5.0419903, 4.980026 
9.3168205e+2, 1.9982049e+2, -961658.7, -1051878.5, 45388.527, 0.012482497, 0.00798041, -942776.25, 38987.75, 0.0, 5.04244, 4.979872 
9.315277e+2, 2.0479564e+2, -913187.56, -1006064.5, 45601.87, 0.012875134, 0.0068580606, -894541.0, 38467.164, 0.0, 5.042972, 4.9785776 
9.3137026e+2, 2.0976588e+2, -873395.1, -979372.25, 46165.145, 0.012500763, 0.008492003, -856105.6, 28194.717, 0.0, 5.043546, 4.9706364 
9.3121177e+2, 2.1473204e+2, -823043.4, -929535.2, 47967.684, 0.011975369, 0.006760938, -804623.2, 31009.438, 0.0, 5.0440917, 4.970695 
9.3105334e+2, 2.1969816e+2, -772848.9, -880016.1, 49532.336, 0.01143662, 0.005174174, -753462.25, 33502.945, 0.0, 5.044634, 4.970648 
9.308933e+2, 2.2466385e+2, -724359.3, -834197.56, 49248.21, 0.010446308, 0.004526705, -705511.94, 32788.902, 0.0, 5.045146, 4.9693265 
9.307272e+2, 2.2962427e+2, -684959.1, -809548.8, 45813.313, 0.010217222, 0.008330511, -669926.7, 19761.383, 0.0, 5.0456834, 4.960662 
9.305572e+2, 2.3458001e+2, -635504.6, -760034.94, 47732.957, 0.00955387, 0.0059765866, -619313.5, 21807.406, 0.0, 5.045886, 4.9607353 
9.303872e+2, 2.3953572e+2, -586335.94, -711066.8, 49338.348, 0.0091416715, 0.0035944239, -569179.56, 23374.877, 0.0, 5.046069, 4.960626 
9.3021494e+2, 2.4449094e+2, -539474.4, -666469.56, 48686.547, 0.009178526, 0.0028772221, -522957.44, 21035.693, 0.0, 5.0460734, 4.9590607 
9.3003386e+2, 2.4944015e+2, -501101.7, -644140.3, 40756.695, 0.0079660965, 0.0060273716, -490303.8, 5186.8726, 0.0, 5.046235, 4.9497952 
9.298458e+2, 2.5438482e+2, -454206.0, -595696.06, 42395.184, 0.009236948, 0.006124979, -442475.53, 4557.1797, 0.0, 5.0454636, 4.94989 
9.2965776e+2, 2.5932947e+2, -407422.0, -547455.56, 43750.52, 0.010750608, 0.0058457935, -394876.94, 3698.2913, 0.0, 5.044677, 4.949913 
9.29467e+2, 2.6427355e+2, -362376.47, -502604.3, 41474.32, 0.012473902, 0.0039884155, -351028.25, -905.6862, 0.0, 5.0437303, 4.948808 
9.292648e+2, 2.69212e+2, -327753.5, -482614.6, 31119.182, 0.011800289, 0.009944031, -321734.1, -20008.678, 0.0, 5.042427, 4.939279 
9.290532e+2, 2.7414626e+2, -284397.63, -434095.34, 31186.459, 0.011596234, 0.006137276, -278160.44, -24791.107, 0.0, 5.039905, 4.94015 
9.288417e+2, 2.7908057e+2, -241871.89, -387123.56, 32079.287, 0.01193837, 0.0025101206, -235102.55, -30089.861, 0.0, 5.03734, 4.9404607 
9.286271e+2, 2.8401548e+2, -199439.73, -338719.84, 27693.184, 0.011613216, -0.0021419271, -194135.48, -37487.81, 0.0, 5.0344157, 4.9414206 
9.284016e+2, 2.8894627e+2, -169911.36, -316891.3, 18880.268, 0.010663317, -0.0049014012, -167524.84, -59202.332, 0.0, 5.0303903, 4.933583 
9.281681e+2, 2.938752e+2, -132659.3, -269134.0, 17878.395, 0.010885628, -0.011151819, -130356.06, -70340.445, 0.0, 5.025162, 4.935286 
9.2793477e+2, 2.9880407e+2, -98173.766, -227199.81, 18525.219, 0.01096509, -0.017635161, -95566.65, -83857.74, 0.0, 5.0198655, 4.9348826 
9.2770207e+2, 3.037328e+2, -64342.53, -187555.5, 18922.596, 0.0047889436, -0.013916528, -61501.957, -61501.957, 0.0, 5.0146627, 4.933629 
9.274677e+2, 3.0867478e+2, -25963.506, -105828.39, 11855.867, -0.004032991, 0.018638663, -24240.678, -24240.678, 0.0, 5.009555, 4.956605 
9.2722994e+2, 3.1362695e+2, -37869.53, -105674.41, 9625.523, -0.0121501135, 0.00480879, -36529.58, -36529.58, 0.0, 5.004034, 4.9590826 
9.269921e+2, 3.1857982e+2, -53022.055, -112705.805, 8309.082, -0.019854838, -0.0034294575, -51886.867, -51886.867, 0.0, 4.998481, 4.958955 
9.267561e+2, 3.2354033e+2, -15793.338, 247.66801, 3711.5698, -0.019788392, -0.02750527, 1064.8242, 1064.8242, 0.0, 4.9932995, 5.0022125 
9.3897396e+2, 1.3016294e+2, -1621526.8, -1667991.5, 7254.6646, -0.0054383273, -0.0015165423, -1620420.5, 43981.688, 0.0, 5.0367827, 5.005423 
9.38797e+2, 1.3516471e+2, -1571521.6, -1618625.6, 8446.769, 0.0016722373, -0.0029037574, -1570052.6, 45331.777, 0.0, 5.037284, 5.005428 
9.3862003e+2, 1.4016639e+2, -1522165.9, -1570398.8, 10316.719, 0.0070021152, -0.0039065774, -1520051.9, 46315.89, 0.0, 5.037741, 5.005076 
9.3844503e+2, 1.4516717e+2, -1475567.8, -1527491.9, 16109.705, 0.0008130777, -0.0023981857, -1470975.8, 46384.49, 0.0, 5.038181, 5.0029044 
9.3828e+2, 1.5016358e+2, -1435434.1, -1495590.6, 25533.65, -0.005229112, 0.0015764162, -1426057.8, 42338.12, 0.0, 5.0383363, 4.9969993 
9.3812007e+2, 1.5515701e+2, -1385403.0, -1446146.6, 26714.467, -0.0020277028, 0.0006597769, -1375326.0, 44134.523, 0.0, 5.0388207, 4.997017 
9.379602e+2, 1.6015036e+2, -1335588.6, -1397122.6, 27831.72, 0.0016407125, -0.00046694704, -1324868.1, 45657.938, 0.0, 5.039299, 4.9968987 
9.378006e+2, 1.6514324e+2, -1287296.5, -1350650.1, 29873.215, 0.006793666, -0.001964169, -1275432.1, 46163.863, 0.0, 5.039683, 4.995942 
9.3764436e+2, 1.7013234e+2, -1246880.0, -1319026.5, 35625.438, 0.0075771287, -0.0010363589, -1232253.6, 40449.492, 0.0, 5.039912, 4.9899025 
9.374902e+2, 1.7511837e+2, -1196931.1, -1269536.3, 37015.586, 0.0065429714, -0.0023946578, -1181387.4, 42452.73, 0.0, 5.0403557, 4.9899383 
9.373361e+2, 1.8010442e+2, -1147301.5, -1220675.9, 38283.09, 0.0057845977, -0.0029435542, -1130964.8, 44012.68, 0.0, 5.040791, 4.989766 
9.371817e+2, 1.8509032e+2, -1099115.9, -1174758.3, 39361.938, 0.0066297925, 0.00090683124, -1082349.5, 43767.484, 0.0, 5.0411906, 4.988609 
9.3702805e+2, 1.90072e+2, -1058836.4, -1144830.4, 42665.793, 0.008889008, 0.007127247, -1041260.2, 36037.8, 0.0, 5.0415235, 4.9819264 
9.368752e+2, 1.9505017e+2, -1008837.2, -1095192.9, 44213.176, 0.01166531, 0.009134798, -990215.9, 38297.523, 0.0, 5.0419655, 4.9819913 
9.367224e+2, 2.0002821e+2, -959094.06, -1046155.4, 45612.188, 0.013969267, 0.010532816, -939574.06, 40155.813, 0.0, 5.042419, 4.9818482 
9.365683e+2, 2.0500527e+2, -910499.44, -1000073.4, 45783.62, 0.012912708, 0.0083384905, -891239.44, 39715.457, 0.0, 5.0429535, 4.980652 
9.3641126e+2, 2.099776e+2, -870477.56, -972745.44, 46433.047, 0.011315387, 0.008712672, -852541.2, 29685.053, 0.0, 5.043514, 4.972931 
9.3625325e+2, 2.1494591e+2, -820147.2, -922929.8, 48243.63, 0.008938311, 0.005585503, -801050.8, 32486.238, 0.0, 5.04406, 4.9729905 
9.360951e+2, 2.1991418e+2, -770008.75, -873503.25, 49744.26, 0.0066486597, 0.0028318241, -749976.7, 34871.242, 0.0, 5.044602, 4.9729185 
9.3593556e+2, 2.2488219e+2, -721554.4, -827768.06, 49352.402, 0.0060385503, 0.0027378194, -702163.0, 33997.848, 0.0, 5.045115, 4.9715767 
9.3576974e+2, 2.2984494e+2, -681867.06, -802540.0, 45783.86, 0.00646678, 0.0066414215, -666462.9, 21062.014, 0.0, 5.045661, 4.96311 
9.3560004e+2, 2.3480324e+2, -632432.0, -753040.9, 47719.188, 0.006583673, 0.005052879, -615835.56, 23097.256, 0.0, 5.0458646, 4.9631863 
9.354303e+2, 2.3976144e+2, -583418.25, -704357.94, 49171.727, 0.006721512, 0.0034712995, -565949.3, 24392.365, 0.0, 5.046042, 4.962986 
9.35258e+2, 2.447191e+2, -536662.94, -659851.2, 48429.67, 0.0074223154, 0.0039829686, -519903.56, 21853.084, 0.0, 5.046026, 4.9614024 
9.350766e+2, 2.4967067e+2, -498397.9, -637992.2, 39989.74, 0.007621083, 0.007991731, -487753.66, 5477.899, 0.0, 5.046213, 4.95197 
9.348878e+2, 2.5461754e+2, -451525.66, -589611.9, 41679.223, 0.009543189, 0.00872924, -439920.72, 4831.5815, 0.0, 5.045449, 4.9520464 
9.3469906e+2, 2.5956434e+2, -404786.22, -541487.25, 42891.367, 0.011192096, 0.008662154, -392443.1, 3830.886, 0.0, 5.0446663, 4.9520335 
9.345071e+2, 2.645104e+2, -360078.1, -497251.38, 40333.895, 0.012468392, 0.0053874967, -349097.47, -1295.5626, 0.0, 5.043696, 4.9507246 
9.343026e+2, 2.6945013e+2, -325771.34, -478620.8, 29038.357, 0.0100640375, 0.008365158, -320440.56, -21049.053, 0.0, 5.0424595, 4.94071 
9.340883e+2, 2.743856e+2, -282527.03, -430358.56, 29200.004, 0.00834281, 0.0028544294, -276968.4, -25945.021, 0.0, 5.0399413, 4.9414926 
9.3387413e+2, 2.7932113e+2, -239846.67, -383059.84, 30049.336, 0.006852766, -0.0021230325, -233797.19, -31143.04, 0.0, 5.037382, 4.9419227 
9.336562e+2, 2.84258e+2, -197487.72, -334708.28, 24630.566, 0.0069235917, -0.003546226, -193200.56, -38930.758, 0.0, 5.0344257, 4.942888 
9.334262e+2, 2.8919017e+2, -168633.33, -314991.53, 14797.403, 0.007446062, -0.0024297838, -167152.23, -61221.625, 0.0, 5.03045, 4.934308 
9.3318754e+2, 2.9411995e+2, -131362.78, -267240.6, 13855.8, 0.009359984, -0.007342635, -129964.26, -72349.445, 0.0, 5.02523, 4.936011 
9.329492e+2, 2.9904974e+2, -97131.28, -225932.86, 14581.598, 0.010540122, -0.012494795, -95501.13, -86201.46, 0.0, 5.0199356, 4.935387 
9.3271166e+2, 3.039777e+2, -64276.566, -188598.28, 14591.245, 0.007965074, -0.013638601, -62587.0, -62587.0, 0.0, 5.0147386, 4.933312 
9.3247205e+2, 3.089185e+2, -26363.396, -107949.69, 7717.607, 0.0011864062, 0.010375024, -25639.771, -25639.771, 0.0, 5.009633, 4.9558845 
9.3222857e+2, 3.1386924e+2, -38189.016, -107711.76, 5445.472, -0.007140231, -0.0110533, -37765.08, -37765.08, 0.0, 5.004127, 4.9583893 
9.319853e+2, 3.1882066e+2, -53584.83, -115111.1, 3994.601, -0.014424725, -0.02535988, -53326.563, -53326.563, 0.0, 4.9985385, 4.9581447 
9.317433e+2, 3.2378823e+2, -19032.549, -10609.42, 4092.0513, -0.027550435, 0.049226716, -8948.834, -8948.834, 0.0, 4.9938273, 4.998063 
9.440062e+2, 1.303475e+2, -1628052.9, -1667357.1, 8115.0166, -0.006140636, -0.00085475814, -1626443.3, 36150.832, 0.0, 5.0338087, 5.007069 
9.438301e+2, 1.3535084e+2, -1576383.6, -1617129.3, 9364.38, 0.000927483, -0.002524136, -1574334.5, 39226.508, 0.0, 5.034864, 5.007085 
9.436538e+2, 1.4035411e+2, -1525677.0, -1568279.3, 11432.928, 0.0064447876, -0.0037135608, -1522802.8, 41726.0, 0.0, 5.035793, 5.006706 
9.4347954e+2, 1.4535639e+2, -1478923.1, -1525816.4, 17282.354, 0.0002817074, -0.0020963906, -1473242.1, 42264.617, 0.0, 5.0363946, 5.0043077 
9.43315e+2, 1.5035413e+2, -1438380.1, -1493552.8, 26589.068, -0.0065948293, 0.0013968094, -1427652.1, 38876.87, 0.0, 5.0366406, 4.9984884 
9.431557e+2, 1.5534899e+2, -1388001.0, -1443925.9, 27655.57, -0.0027701051, 0.00028200494, -1376635.0, 40944.496, 0.0, 5.0372396, 4.9985113 
9.429964e+2, 1.6034377e+2, -1337903.1, -1394755.3, 28695.395, 0.0013547479, -0.0010315028, -1325937.8, 42693.1, 0.0, 5.037813, 4.998396 
9.4283736e+2, 1.6533817e+2, -1289178.6, -1347898.0, 30638.473, 0.006614593, -0.0021870635, -1276103.6, 43582.34, 0.0, 5.0383005, 4.9975243 
9.4268155e+2, 1.7032897e+2, -1248158.3, -1315587.3, 36368.785, 0.0075216778, -0.00073239673, -1232280.9, 38495.527, 0.0, 5.0386376, 4.9916735 
9.4252795e+2, 1.753168e+2, -1198003.8, -1266018.0, 37661.793, 0.0066835014, -0.0017041352, -1181267.5, 40628.582, 0.0, 5.0391526, 4.991706 
9.423743e+2, 1.803046e+2, -1148245.5, -1217179.8, 38838.93, 0.0059987055, -0.0019595285, -1130785.4, 42230.813, 0.0, 5.039647, 4.991501 
9.4222033e+2, 1.8529221e+2, -1099558.1, -1170849.6, 39939.605, 0.006319656, 0.0018769859, -1081670.8, 42468.168, 0.0, 5.0401926, 4.990416 
9.420671e+2, 1.902758e+2, -1058475.5, -1140016.0, 43286.9, 0.0084698545, 0.007928663, -1039781.75, 35519.668, 0.0, 5.0407023, 4.9839554 
9.4191486e+2, 1.95256e+2, -1008064.4, -1090208.6, 44849.46, 0.011517466, 0.010126953, -988322.1, 38175.055, 0.0, 5.041294, 4.984014 
9.417625e+2, 2.0023605e+2, -957992.0, -1040983.75, 46285.273, 0.013973404, 0.011565559, -937324.94, 40369.09, 0.0, 5.0418577, 4.98389 
9.4160885e+2, 2.0521513e+2, -909185.56, -994654.6, 46422.387, 0.012404038, 0.009047902, -888822.7, 40076.348, 0.0, 5.042436, 4.9827642 
9.414522e+2, 2.1018964e+2, -868810.25, -966591.94, 47228.516, 0.010246526, 0.008936979, -849724.25, 30424.414, 0.0, 5.043018, 4.9752793 
9.412946e+2, 2.1516016e+2, -818466.2, -916765.56, 49123.082, 0.0067407703, 0.004868213, -798126.5, 33310.727, 0.0, 5.0435777, 4.975341 
9.4113696e+2, 2.2013067e+2, -768441.06, -867408.2, 50717.664, 0.0036098326, 0.0012975923, -747066.25, 35659.746, 0.0, 5.0440927, 4.975262 
9.409778e+2, 2.2510092e+2, -720137.8, -821990.9, 50203.098, 0.0032023122, 0.0014417975, -699553.06, 34463.598, 0.0, 5.0446067, 4.973814 
9.4081223e+2, 2.30066e+2, -679864.25, -795951.75, 46643.73, 0.003551294, 0.0051120804, -663445.2, 21912.959, 0.0, 5.045248, 4.9655886 
9.4064283e+2, 2.3502679e+2, -630459.6, -746491.06, 48555.37, 0.004416698, 0.004219765, -612821.9, 23919.607, 0.0, 5.045451, 4.9656596 
9.404733e+2, 2.3998751e+2, -581747.94, -698165.8, 49844.25, 0.00544561, 0.003486656, -563323.1, 24802.781, 0.0, 5.045572, 4.965366 
9.40301e+2, 2.449476e+2, -534619.44, -653428.0, 49041.184, 0.0066678775, 0.005211697, -516991.88, 22525.205, 0.0, 5.0456886, 4.963804 
9.401193e+2, 2.4990152e+2, -495848.5, -631698.3, 40351.242, 0.007962002, 0.009745323, -484767.0, 6202.146, 0.0, 5.0461316, 4.9542084 
9.3992984e+2, 2.5485057e+2, -448484.06, -583122.4, 42183.633, 0.0101576345, 0.010577172, -436359.34, 6109.4536, 0.0, 5.045559, 4.9542756 
9.397403e+2, 2.597995e+2, -401689.72, -535047.1, 43350.285, 0.012111441, 0.010580442, -388836.7, 5132.974, 0.0, 5.0448194, 4.9542346 
9.3954706e+2, 2.647475e+2, -356774.3, -491463.44, 40544.98, 0.012602882, 0.0064157015, -345511.1, -32.819786, 0.0, 5.0440793, 4.9525943 
9.393405e+2, 2.6968855e+2, -321603.1, -473511.53, 28418.514, 0.008031512, 0.006467493, -316460.72, -19405.686, 0.0, 5.0433083, 4.9421587 
9.3912345e+2, 2.7462515e+2, -278204.34, -425389.13, 28534.17, 0.0052434066, -0.000612098, -272866.16, -24191.111, 0.0, 5.0408936, 4.942854 
9.389066e+2, 2.7956194e+2, -235917.69, -378101.9, 29032.084, 0.0028281272, -0.0065699257, -230218.2, -29925.035, 0.0, 5.0381613, 4.9433627 
9.386853e+2, 2.845007e+2, -194072.94, -330031.16, 22657.225, 0.003192805, -0.004339368, -190396.56, -38506.73, 0.0, 5.035022, 4.9443164 
9.384507e+2, 2.894342e+2, -166142.39, -312493.06, 11624.958, 0.0046088165, 0.00029657083, -165224.73, -61687.14, 0.0, 5.0309877, 4.93502 
9.382069e+2, 2.9436484e+2, -129841.164, -265132.97, 10547.1875, 0.008045752, -0.0039000602, -129023.85, -73810.414, 0.0, 5.025399, 4.936751 
9.3796337e+2, 2.9929537e+2, -97978.484, -226108.55, 10864.51, 0.010538426, -0.0077751754, -97063.78, -90173.31, 0.0, 5.0194573, 4.9356017 
9.3772113e+2, 3.0422243e+2, -66406.195, -190734.8, 10395.904, 0.012365251, -0.013162891, -65542.92, -65542.92, 0.0, 5.014051, 4.9329195 
9.374763e+2, 3.0916208e+2, -27791.941, -110537.51, 3367.504, 0.007116694, -0.0006444588, -27655.121, -27655.121, 0.0, 5.009332, 4.9551477 
9.372272e+2, 3.1411117e+2, -39469.258, -110233.88, 991.62555, -0.001935444, -0.033615198, -39455.363, -39455.363, 0.0, 5.0038724, 4.957662 
9.369781e+2, 3.190613e+2, -57085.594, -122523.94, -1056.085, -0.009389859, -0.04977877, -57068.555, -57068.555, 0.0, 4.998226, 4.955679 
9.367318e+2, 3.240258e+2, -18044.963, -10968.231, 4955.517, -0.037726317, -0.03204597, -8417.493, -8417.493, 0.0, 4.9942527, 4.9976044 
9.490343e+2, 1.3053045e+2, -1640075.4, -1670333.4, 4540.4253, -0.0065002497, 0.001011347, -1639408.8, 21393.063, 0.0, 5.0290084, 5.0084853 
9.488592e+2, 1.3553537e+2, -1587432.6, -1619560.0, 5590.613, -0.00031563087, -0.0011572196, -1586487.6, 25265.676, 0.0, 5.0303736, 5.008518 
9.4868404e+2, 1.4054026e+2, -1535513.8, -1570193.3, 7470.4326, 0.0043531195, -0.0023255572, -1533973.0, 28732.082, 0.0, 5.0317245, 5.0080953 
9.4851094e+2, 1.4554404e+2, -1487337.3, -1527465.5, 13008.1, -0.0011297883, -0.00069302897, -1483489.5, 30178.58, 0.0, 5.0328593, 5.0055346 
9.483472e+2, 1.5054311e+2, -1445899.3, -1495124.4, 22138.232, -0.0071737953, 0.002060477, -1437407.8, 27269.646, 0.0, 5.0333705, 4.999669 
9.4818866e+2, 1.5553932e+2, -1395410.5, -1445376.0, 23301.752, -0.0018579593, 0.00072458235, -1386230.3, 29484.32, 0.0, 5.033998, 4.9997053 
9.480301e+2, 1.6053547e+2, -1345074.9, -1395913.8, 24396.992, 0.0033719474, -0.000697593, -1335261.4, 31491.162, 0.0, 5.03462, 4.9996524 
9.4787157e+2, 1.6553141e+2, -1295971.6, -1348647.1, 26430.145, 0.008542851, -0.0014197686, -1284996.8, 32795.957, 0.0, 5.035169, 4.9988923 
9.4771636e+2, 1.7052396e+2, -1254418.8, -1315669.8, 32342.82, 0.009141497, 0.00071767566, -1240502.4, 28364.002, 0.0, 5.03555, 4.9932704 
9.475631e+2, 1.7551364e+2, -1204267.4, -1265977.8, 33925.258, 0.007413767, 0.00067829574, -1189264.5, 30703.432, 0.0, 5.036056, 4.9933333 
9.474098e+2, 1.8050328e+2, -1154385.6, -1216910.8, 35444.965, 0.005426986, 0.00093095016, -1138386.3, 32683.84, 0.0, 5.036575, 4.9931803 
9.472562e+2, 1.8549263e+2, -1105496.8, -1170183.3, 36739.12, 0.0037500418, 0.0034987843, -1088892.5, 33283.13, 0.0, 5.0371456, 4.992202 
9.4710356e+2, 1.904782e+2, -1063832.0, -1138137.4, 40540.0, 0.005217678, 0.0082481615, -1045995.5, 27322.764, 0.0, 5.0376897, 4.9861193 
9.46952e+2, 1.954606e+2, -1013151.9, -1088082.6, 42561.23, 0.008103534, 0.009558656, -993915.3, 30576.887, 0.0, 5.0383716, 4.9862065 
9.4680023e+2, 2.0044287e+2, -962689.56, -1038466.75, 44418.42, 0.010538726, 0.010237219, -942195.44, 33471.535, 0.0, 5.0390487, 4.98615 
9.466473e+2, 2.0542444e+2, -913445.8, -991518.0, 44927.2, 0.010289162, 0.00857112, -892964.94, 33882.56, 0.0, 5.0397115, 4.9851847 
9.464912e+2, 2.1040171e+2, -872393.4, -961995.44, 46397.23, 0.00837243, 0.009077069, -852697.6, 25372.09, 0.0, 5.0403266, 4.9781637 
9.4633424e+2, 2.1537523e+2, -821857.1, -911887.6, 49059.97, 0.0052316487, 0.005586006, -800289.7, 29039.088, 0.0, 5.040955, 4.9782753 
9.4617724e+2, 2.2034872e+2, -771652.56, -862411.1, 51245.152, 0.0028075147, 0.002344893, -748582.3, 32006.148, 0.0, 5.0415645, 4.978178 
9.460186e+2, 2.2532183e+2, -723113.4, -816363.8, 51578.625, 0.0027013624, 0.001792038, -700209.7, 31641.951, 0.0, 5.042097, 4.9769287 
9.458534e+2, 2.3029003e+2, -682345.1, -789234.6, 49012.027, 0.0035656008, 0.00482267, -663274.2, 19888.633, 0.0, 5.042802, 4.9690294 
9.4568443e+2, 2.3525418e+2, -632653.8, -739412.94, 52216.48, 0.0057057394, 0.004787098, -611361.2, 23152.594, 0.0, 5.043127, 4.9691525 
9.455153e+2, 2.4021819e+2, -583344.06, -690452.44, 54749.215, 0.008183862, 0.004679767, -560311.56, 25554.566, 0.0, 5.043459, 4.968965 
9.453431e+2, 2.451815e+2, -535492.75, -644663.5, 55304.168, 0.009586102, 0.004884982, -512372.8, 24852.473, 0.0, 5.043783, 4.9676433 
9.4516104e+2, 2.5013885e+2, -496334.78, -621154.56, 48177.707, 0.0089402525, 0.0068041687, -479902.53, 8740.532, 0.0, 5.044246, 4.958554 
9.44971e+2, 2.550915e+2, -447810.44, -571612.25, 52149.332, 0.007628352, 0.0052072676, -428771.4, 11335.614, 0.0, 5.044127, 4.958723 
9.447809e+2, 2.6004398e+2, -399525.97, -522628.56, 55413.6, 0.007136097, 0.0037131966, -378256.8, 13315.257, 0.0, 5.0440063, 4.958691 
9.4458693e+2, 2.6499575e+2, -352677.97, -477801.5, 54986.605, 0.005455195, 0.00080165704, -331948.06, 11095.767, 0.0, 5.0440264, 4.9571095 
9.4437915e+2, 2.6994064e+2, -314806.16, -457877.63, 44877.355, 0.0005302357, 0.0032829489, -301894.66, -7311.5566, 0.0, 5.0442567, 4.946857 
9.441606e+2, 2.74881e+2, -269382.53, -408424.63, 48252.848, 0.0010969959, 0.00045726314, -254277.84, -8111.1646, 0.0, 5.042731, 4.9475555 
9.4394195e+2, 2.798213e+2, -224408.27, -359104.0, 51493.957, 0.0030153578, -0.0028296793, -206977.81, -9227.551, 0.0, 5.041047, 4.9482465 
9.437175e+2, 2.8476286e+2, -182443.52, -309932.13, 46775.24, 0.0075246864, -0.006043619, -167122.9, -17803.47, 0.0, 5.037974, 4.949456 
9.4347775e+2, 2.8969774e+2, -157671.73, -297880.16, 37854.29, 0.008642807, -0.008454789, -148104.45, -47151.09, 0.0, 5.0337725, 4.9381294 
9.432287e+2, 2.946291e+2, -117914.336, -249242.16, 37702.273, 0.011632061, -0.01405629, -107860.28, -55238.71, 0.0, 5.029517, 4.9397607 
9.4298005e+2, 2.9956052e+2, -81617.3, -208871.58, 39753.965, 0.015986351, -0.015653985, -70219.164, -65929.34, 0.0, 5.025303, 4.9383745 
9.427334e+2, 3.0448735e+2, -45869.094, -177205.63, 40971.555, 0.013246409, -0.017068285, -34135.88, -34135.88, 0.0, 5.0224895, 4.9332204 
9.424841e+2, 3.0942434e+2, -3691.162, -103816.94, 28776.373, 0.002174652, 0.004025082, 3989.9749, 3989.9749, 0.0, 5.0203896, 4.952048 
9.4223046e+2, 3.1436914e+2, -9646.252, -102512.15, 19873.727, -0.0038325025, -0.023521777, -5571.937, -5571.937, 0.0, 5.016993, 4.9541955 
9.4197685e+2, 3.1931564e+2, -21668.123, -112849.02, 13269.611, -0.004972253, -0.029681772, -19776.242, -19776.242, 0.0, 5.013118, 4.9523063 
9.417279e+2, 3.2427076e+2, 12063.64, 5648.357, 9397.037, -0.021898767, -0.11364256, 18785.412, 18785.412, 0.0, 5.0049, 4.999 
9.5406026e+2, 1.3071032e+2, -1637780.0, -1665792.1, 5447.887, -0.0070489426, 0.0014876302, -1636757.9, 22281.838, 0.0, 5.0290484, 5.00998 
9.5388633e+2, 1.3571672e+2, -1585160.5, -1615040.6, 6520.446, -0.0019755159, -0.0007192467, -1583799.6, 26176.91, 0.0, 5.030412, 5.010012 
9.537124e+2, 1.4072306e+2, -1533435.9, -1566040.6, 8487.66, 0.0016461781, -0.0018154964, -1531358.8, 29555.31, 0.0, 5.0317607, 5.0094724 
9.535407e+2, 1.4572817e+2, -1485329.8, -1523361.9, 13827.4795, -0.0032126713, -0.00042996823, -1480833.9, 31030.27, 0.0, 5.0328803, 5.006905 
9.5337796e+2, 1.507286e+2, -1443776.0, -1490710.4, 22520.66, -0.008407185, 0.0017540584, -1434718.0, 28142.074, 0.0, 5.033376, 5.001153 
9.532202e+2, 1.5572628e+2, -1393311.5, -1440978.4, 23689.998, -0.0016700971, 0.00051159214, -1383540.6, 30342.139, 0.0, 5.0340014, 5.00119 
9.5306236e+2, 1.6072395e+2, -1342947.9, -1391420.3, 24790.48, 0.004594923, -0.0005935365, -1332514.8, 32391.04, 0.0, 5.03462, 5.0011764 
9.529044e+2, 1.6572155e+2, -1293646.4, -1343699.5, 26749.37, 0.009745977, -0.00040660167, -1282041.6, 33888.348, 0.0, 5.0351644, 5.000576 
9.5274967e+2, 1.7071602e+2, -1251594.0, -1309669.1, 32589.754, 0.0100520225, 0.0021306383, -1236982.1, 30002.678, 0.0, 5.0355473, 4.995312 
9.525969e+2, 1.7570779e+2, -1201466.4, -1259996.3, 34176.785, 0.0075471974, 0.0026817136, -1185737.0, 32329.146, 0.0, 5.0360518, 4.9953756 
9.52444e+2, 1.806995e+2, -1151598.4, -1210935.9, 35720.273, 0.0045694197, 0.0031908955, -1134832.5, 34315.65, 0.0, 5.0365715, 4.995227 
9.522909e+2, 1.8569076e+2, -1102571.9, -1163890.0, 37015.215, 0.0014243234, 0.004318856, -1085167.4, 35067.242, 0.0, 5.037142, 4.994364 
9.5213866e+2, 1.9067858e+2, -1060362.1, -1130546.8, 40891.848, 0.0018127622, 0.007347307, -1041569.2, 29785.867, 0.0, 5.037673, 4.9887285 
9.519877e+2, 1.9566344e+2, -1009704.3, -1080516.5, 42920.137, 0.003809574, 0.0073282924, -989471.1, 33033.418, 0.0, 5.038356, 4.9888163 
9.518366e+2, 2.0064822e+2, -959205.75, -1030786.9, 44759.145, 0.0055538914, 0.007028659, -937687.1, 35967.277, 0.0, 5.039033, 4.9888077 
9.5168436e+2, 2.0563255e+2, -909793.9, -983487.6, 45131.77, 0.0061231256, 0.006131985, -888377.9, 36429.617, 0.0, 5.039698, 4.987973 
9.5152885e+2, 2.1061304e+2, -867883.2, -952122.75, 46645.09, 0.004773858, 0.007425299, -847155.25, 28842.893, 0.0, 5.0403194, 4.9815917 
9.513727e+2, 2.155901e+2, -817377.0, -902054.4, 49320.05, 0.002772533, 0.005223425, -794715.44, 32506.893, 0.0, 5.04095, 4.981702 
9.5121634e+2, 2.2056708e+2, -767334.75, -852875.94, 51421.17, 0.0012903619, 0.0031985699, -743221.44, 35226.145, 0.0, 5.041556, 4.981513 
9.5105815e+2, 2.255436e+2, -718536.6, -806204.25, 51613.004, 0.00185975, 0.003070948, -694655.56, 35022.3, 0.0, 5.0420847, 4.980493 
9.508935e+2, 2.3051567e+2, -677112.06, -777445.8, 48927.996, 0.0037255718, 0.005840558, -657202.8, 23749.033, 0.0, 5.0427694, 4.973169 
9.507249e+2, 2.3548399e+2, -627453.0, -727661.6, 52144.58, 0.0063315732, 0.0065237028, -605242.0, 27020.457, 0.0, 5.043098, 4.9732924 
9.505561e+2, 2.4045211e+2, -578071.0, -678518.8, 54630.266, 0.008622325, 0.0066078976, -554086.4, 29488.3, 0.0, 5.043435, 4.973181 
9.503839e+2, 2.4541949e+2, -530071.0, -632367.44, 54902.293, 0.008681461, 0.0049890266, -506183.22, 28710.232, 0.0, 5.043754, 4.9720035 
9.502016e+2, 2.5038135e+2, -489920.8, -606589.0, 47652.793, 0.0066917934, 0.004245897, -472931.25, 13334.71, 0.0, 5.044212, 4.9637084 
9.5001125e+2, 2.5533894e+2, -441429.78, -557079.4, 51652.254, 0.0030080727, 0.0004310669, -421719.66, 15960.852, 0.0, 5.044097, 4.9638824 
9.4982076e+2, 2.6029646e+2, -393388.28, -508601.06, 54831.117, -0.0004188174, -0.002372598, -371465.16, 17630.748, 0.0, 5.04398, 4.963685 
9.496264e+2, 2.6525363e+2, -346499.44, -463486.97, 54563.84, -0.0036597096, -0.0017503533, -325001.13, 15514.016, 0.0, 5.043984, 4.9622283 
9.49418e+2, 2.702044e+2, -307567.44, -441895.6, 42955.39, -0.007125033, 0.0051252414, -295005.88, -3009.1392, 0.0, 5.044297, 4.9525843 
9.4919807e+2, 2.751505e+2, -262456.16, -393070.38, 46556.758, -0.004791891, 0.005976009, -247560.1, -4035.868, 0.0, 5.0427732, 4.9530706 
9.4897795e+2, 2.8009623e+2, -217835.63, -344367.28, 49189.836, -0.0010827391, 0.003260804, -200962.8, -5907.937, 0.0, 5.041064, 4.953562 
9.487502e+2, 2.8504205e+2, -175952.16, -295013.78, 42310.316, 0.0074427603, -0.009602225, -162448.19, -15866.705, 0.0, 5.037887, 4.9549117 
9.4850534e+2, 2.8997937e+2, -156079.28, -293524.03, 34475.457, 0.010425636, -0.022280771, -147916.55, -49725.42, 0.0, 5.0336084, 4.939761 
9.482517e+2, 2.9491192e+2, -116432.81, -245280.11, 34633.75, 0.010531945, -0.030723792, -107713.43, -57866.023, 0.0, 5.0293827, 4.94124 
9.4799846e+2, 2.9984468e+2, -80354.45, -205736.44, 37552.83, 0.007579119, -0.033689767, -69967.58, -68465.16, 0.0, 5.0252237, 4.939539 
9.47748e+2, 3.0477247e+2, -49475.848, -185355.19, 39790.14, -0.008910273, -0.021987975, -38681.445, -38681.445, 0.0, 5.022413, 4.930349 
9.474958e+2, 3.097054e+2, -12755.146, -126626.45, 26699.39, -0.021894956, 0.022676665, -6805.7773, -6805.7773, 0.0, 5.020589, 4.943751 
9.47239e+2, 3.146423e+2, -18186.121, -125867.56, 18381.049, -0.026127944, 0.004450017, -15134.961, -15134.961, 0.0, 5.017553, 4.9455433 
9.469823e+2, 3.1958038e+2, -22381.666, -121841.445, 11010.716, -0.027851444, -0.009499382, -21177.307, -21177.307, 0.0, 5.014406, 4.948583 
9.467277e+2, 3.2453623e+2, 11154.034, 4618.8726, 686.7601, -0.0041121813, 0.010699772, 11225.424, 11225.424, 0.0, 5.0046296, 4.9989758 
9.5908624e+2, 1.3089024e+2, -1636130.3, -1661571.5, 6259.0405, -0.0072609023, 0.002415833, -1634673.8, 22603.22, 0.0, 5.028876, 5.0114703 
9.5891356e+2, 1.358981e+2, -1583139.1, -1610645.4, 7357.75, -0.0032387797, -0.00018040488, -1581294.8, 26904.78, 0.0, 5.03037, 5.011502 
9.5874095e+2, 1.409059e+2, -1531454.4, -1561834.6, 9417.602, -0.00044724048, -0.0014605612, -1528771.9, 30350.873, 0.0, 5.031746, 5.010891 
9.5857054e+2, 1.459123e+2, -1483541.1, -1519566.8, 14573.32, -0.004770602, -0.00016509258, -1478384.1, 31675.828, 0.0, 5.0328717, 5.0081854 
9.584088e+2, 1.5091409e+2, -1441736.4, -1486338.6, 22866.623, -0.009531243, 0.0015645428, -1432096.5, 28945.943, 0.0, 5.0333543, 5.002636 
9.582518e+2, 1.5591326e+2, -1391296.1, -1436623.4, 24048.236, -0.0014224098, 0.00030370362, -1380915.0, 31135.607, 0.0, 5.0339766, 5.0026736 
9.580946e+2, 1.6091245e+2, -1340922.6, -1387004.6, 25121.473, 0.0058215368, -0.00048640094, -1329875.9, 33183.023, 0.0, 5.0345907, 5.002688 
9.5793724e+2, 1.6591175e+2, -1291353.8, -1338768.8, 27102.344, 0.010936529, 0.0006882676, -1279053.1, 35013.574, 0.0, 5.0351496, 5.0022593 
9.577831e+2, 1.7090812e+2, -1248779.3, -1303675.4, 32835.945, 0.010973093, 0.003659781, -1233430.1, 31672.732, 0.0, 5.035542, 4.9973536 
9.576307e+2, 1.75902e+2, -1198668.5, -1254018.5, 34428.566, 0.0076643093, 0.004736384, -1182170.8, 33993.105, 0.0, 5.0360484, 4.997418 
9.574783e+2, 1.8089575e+2, -1148816.3, -1204971.5, 35999.53, 0.003630679, 0.005403912, -1131239.6, 35986.332, 0.0, 5.036569, 4.997271 
9.573255e+2, 1.8588895e+2, -1099656.3, -1157613.8, 37283.383, -0.000962963, 0.005108725, -1081414.1, 36879.055, 0.0, 5.0371375, 4.996522 
9.571738e+2, 1.90879e+2, -1056897.4, -1122962.1, 41245.145, -0.0016866507, 0.00638625, -1037087.56, 32303.85, 0.0, 5.0376563, 4.991338 
9.5702344e+2, 1.9586632e+2, -1006261.94, -1072956.4, 43280.496, -0.00058858265, 0.0049490123, -984971.8, 35544.57, 0.0, 5.0383406, 4.991426 
9.56873e+2, 2.0085362e+2, -955746.44, -1023157.94, 45049.387, 0.0005571947, 0.0037967116, -933189.2, 38451.965, 0.0, 5.0390167, 4.9914503 
9.5672137e+2, 2.0584077e+2, -906139.94, -975445.4, 45387.15, 0.0020214175, 0.003856304, -883689.2, 39077.42, 0.0, 5.039685, 4.9907684 
9.565665e+2, 2.1082444e+2, -863382.25, -942260.7, 46898.617, 0.0011744432, 0.005850065, -841544.0, 32381.7, 0.0, 5.040312, 4.985019 
9.5641106e+2, 2.1580505e+2, -812906.0, -892231.75, 49585.8, 0.00033257404, 0.0047331923, -789071.6, 36043.36, 0.0, 5.0409446, 4.985128 
9.562555e+2, 2.2078554e+2, -763030.1, -843355.2, 51526.64, -0.00021766682, 0.0038025796, -737862.5, 38443.465, 0.0, 5.041546, 4.984847 
9.560978e+2, 2.2576547e+2, -714081.4, -796311.7, 51698.223, 0.0010787304, 0.004367655, -689142.3, 38360.977, 0.0, 5.042074, 4.9839683 
9.559336e+2, 2.3074141e+2, -671889.7, -765673.0, 48846.703, 0.004295696, 0.0072692577, -651070.0, 27669.955, 0.0, 5.0427375, 4.97731 
9.5576537e+2, 2.357139e+2, -622262.8, -715926.2, 52075.43, 0.0073092706, 0.008484855, -599058.4, 30951.943, 0.0, 5.0430684, 4.977434 
9.5559686e+2, 2.4068615e+2, -572813.5, -666610.9, 54487.42, 0.009277485, 0.008563633, -547820.9, 33461.523, 0.0, 5.04341, 4.9773965 
9.554247e+2, 2.4565756e+2, -524691.8, -620158.7, 54505.336, 0.0078084855, 0.005164141, -499973.1, 32587.607, 0.0, 5.0437264, 4.9763393 
9.5524204e+2, 2.5062394e+2, -483526.2, -592044.6, 47129.676, 0.0037224586, 0.0011793984, -465915.6, 17972.77, 0.0, 5.0441785, 4.968866 
9.5505136e+2, 2.5558648e+2, -435068.4, -542567.56, 51157.02, -0.0024456948, -0.0051992303, -414615.2, 20638.393, 0.0, 5.0440674, 4.9690437 
9.5486045e+2, 2.60549e+2, -387340.28, -494749.03, 54234.945, -0.008817842, -0.009046001, -364719.13, 21899.988, 0.0, 5.0439525, 4.968628 
9.5466584e+2, 2.655116e+2, -340440.16, -449398.84, 54194.88, -0.013409292, -0.0037776986, -318074.94, 19910.281, 0.0, 5.0439405, 4.967275 
9.544569e+2, 2.7046835e+2, -300417.2, -426121.3, 40942.785, -0.01361744, 0.008436847, -288257.97, 1150.5403, 0.0, 5.044343, 4.958245 
9.542356e+2, 2.754202e+2, -255554.11, -377734.5, 44859.242, -0.009756772, 0.0121970745, -240852.73, 27.301268, 0.0, 5.0428176, 4.958585 
9.5401406e+2, 2.803712e+2, -211293.23, -329646.72, 46650.73, -0.0038366148, 0.008502791, -195116.3, -2757.165, 0.0, 5.0410767, 4.9588795 
9.537827e+2, 2.8532135e+2, -169819.38, -280921.78, 37716.234, 0.00817089, -0.013103273, -158225.58, -14382.788, 0.0, 5.0378046, 4.9600773 
9.535326e+2, 2.902611e+2, -154357.38, -288796.66, 31116.9, 0.012094145, -0.037340447, -147504.47, -52076.152, 0.0, 5.033449, 4.941509 
9.5327437e+2, 2.9519477e+2, -114969.57, -241286.7, 31596.027, 0.00899687, -0.05009006, -107507.22, -60434.15, 0.0, 5.0292535, 4.942713 
9.530166e+2, 3.0012897e+2, -79496.94, -203442.8, 35377.832, -0.0020651172, -0.053307615, -70109.97, -70109.97, 0.0, 5.0251427, 4.940386 
9.5276225e+2, 3.0505764e+2, -54259.176, -196146.64, 38771.945, -0.031577863, -0.022767287, -44355.664, -44355.664, 0.0, 5.0223365, 4.926513 
9.525075e+2, 3.0998626e+2, -22142.723, -149510.78, 24471.422, -0.04394325, 0.039835013, -17602.813, -17602.813, 0.0, 5.0206723, 4.935485 
9.5224756e+2, 3.1491497e+2, -27913.385, -149781.06, 16961.244, -0.046941184, 0.022618575, -25596.797, -25596.797, 0.0, 5.0177035, 4.936872 
9.519885e+2, 3.1984448e+2, -30787.373, -142638.34, 9170.231, -0.04366161, 0.0044543967, -30040.527, -30040.527, 0.0, 5.014538, 4.9410586 
9.517233e+2, 3.2479855e+2, 16632.209, 22041.098, -8352.06, -0.008577181, 0.016131671, 28115.658, 28115.658, 0.0, 5.0037885, 5.0055623 
9.641112e+2, 1.3106923e+2, -1642647.4, -1661306.0, 6311.092, -0.005227951, 0.0042741913, -1640713.3, 14809.476, 0.0, 5.0260134, 5.012926 
9.639404e+2, 1.3607846e+2, -1588108.5, -1609637.1, 7479.7754, -0.00006406675, 0.00020482669, -1585764.9, 20667.152, 0.0, 5.028024, 5.0129504 
9.6376944e+2, 1.4108767e+2, -1535042.3, -1560307.1, 9546.992, 0.0036371879, -0.0021035133, -1531840.4, 25501.406, 0.0, 5.029896, 5.012271 
9.636003e+2, 1.4609548e+2, -1486820.9, -1517912.8, 14555.256, -0.0020534622, -0.000663693, -1481070.5, 27194.523, 0.0, 5.031128, 5.0095572 
9.634391e+2, 1.5109874e+2, -1444479.4, -1484088.3, 22521.146, -0.009091109, 0.0010855624, -1434293.5, 24939.668, 0.0, 5.0317035, 5.0041733 
9.6328264e+2, 1.5609951e+2, -1393917.5, -1434339.1, 23697.684, -0.0016130088, 0.00011160155, -1382982.5, 27243.184, 0.0, 5.0323677, 5.0042043 
9.631262e+2, 1.6110031e+2, -1343395.3, -1384562.0, 24799.88, 0.005491589, -0.00021894492, -1331749.6, 29468.56, 0.0, 5.03301, 5.004261 
9.629694e+2, 1.661013e+2, -1293336.3, -1335817.6, 26775.54, 0.010790427, 0.0016512402, -1280399.6, 31809.54, 0.0, 5.033667, 5.003964 
9.628159e+2, 1.7109965e+2, -1249841.8, -1299483.1, 32379.793, 0.010565395, 0.004779182, -1233863.9, 29362.277, 0.0, 5.034199, 4.9994154 
9.62664e+2, 1.7609562e+2, -1199460.3, -1249706.0, 33952.836, 0.0067934804, 0.0060750577, -1182346.3, 31920.22, 0.0, 5.034801, 4.9994783 
9.625121e+2, 1.8109144e+2, -1149516.4, -1200624.8, 35536.94, 0.0024774678, 0.00672017, -1131299.6, 34008.434, 0.0, 5.0353565, 4.99933 
9.623599e+2, 1.860867e+2, -1100357.4, -1152935.1, 36800.21, -0.002238483, 0.0054844962, -1081420.6, 34934.375, 0.0, 5.035855, 4.9987283 
9.6220875e+2, 1.9107908e+2, -1057213.8, -1117123.0, 40876.414, -0.0035382102, 0.0054987115, -1036491.3, 30938.865, 0.0, 5.0363097, 4.993969 
9.62059e+2, 1.9606896e+2, -1006797.6, -1067229.6, 42941.996, -0.0027126933, 0.003018859, -984506.3, 34023.586, 0.0, 5.0369225, 4.994056 
9.619092e+2, 2.0105886e+2, -956494.44, -1017451.1, 44672.996, -0.001526351, 0.0012955213, -932893.1, 36735.797, 0.0, 5.0375113, 4.9941187 
9.6175826e+2, 2.0604883e+2, -906830.0, -969481.94, 45068.277, -0.00011939705, 0.0021705574, -883270.06, 37456.785, 0.0, 5.0381455, 4.993549 
9.6160394e+2, 2.1103574e+2, -863131.75, -934455.0, 46537.58, -0.0012852943, 0.004811772, -840163.2, 31691.186, 0.0, 5.038807, 4.9884286 
9.614492e+2, 2.1601991e+2, -812723.4, -884475.5, 49174.3, -0.0013568547, 0.004793174, -787729.06, 35279.793, 0.0, 5.0394216, 4.988536 
9.612943e+2, 2.2100392e+2, -762972.5, -835747.44, 51085.207, -0.0011613443, 0.0049802405, -736640.4, 37524.895, 0.0, 5.040001, 4.98822 
9.611372e+2, 2.2598736e+2, -713529.56, -788228.56, 51261.813, 0.0007728064, 0.006179101, -687453.9, 37874.77, 0.0, 5.040658, 4.987456 
9.6097344e+2, 2.3096724e+2, -669812.5, -755187.06, 48581.813, 0.0047979928, 0.009208222, -647828.3, 28698.734, 0.0, 5.0415397, 4.981537 
9.608056e+2, 2.3594394e+2, -619542.25, -705159.9, 52024.29, 0.0075786547, 0.01051721, -594978.06, 32778.41, 0.0, 5.0421166, 4.9816585 
9.606374e+2, 2.4092036e+2, -569620.3, -655404.9, 54630.625, 0.008937854, 0.010306247, -543055.75, 35931.98, 0.0, 5.0425954, 4.981727 
9.6046525e+2, 2.4589589e+2, -520999.03, -608665.06, 54499.46, 0.005533207, 0.0050982027, -494892.6, 35332.598, 0.0, 5.043084, 4.980706 
9.6028227e+2, 2.5086683e+2, -477995.6, -577754.56, 47273.492, -0.00050977257, -0.0018657034, -459152.84, 22354.512, 0.0, 5.043815, 4.974095 
9.600914e+2, 2.5583443e+2, -429414.72, -528264.0, 51409.008, -0.0074537816, -0.010027404, -407525.4, 25296.756, 0.0, 5.0437737, 4.9742656 
9.599003e+2, 2.6080212e+2, -382305.06, -481277.25, 54458.836, -0.014752188, -0.013869537, -358206.94, 25929.963, 0.0, 5.0435624, 4.9736114 
9.597055e+2, 2.6577014e+2, -335540.22, -435712.56, 55023.81, -0.019876586, -0.00384671, -311220.47, 24229.313, 0.0, 5.0434685, 4.9723887 
9.59496e+2, 2.7073282e+2, -294763.84, -410799.75, 40394.508, -0.01673645, 0.012858836, -282086.7, 4728.7563, 0.0, 5.0438385, 4.9639955 
9.592733e+2, 2.7569032e+2, -250708.2, -362994.75, 44825.723, -0.012509668, 0.018180614, -235008.5, 3223.276, 0.0, 5.0420966, 4.9642267 
9.590502e+2, 2.8064644e+2, -208215.75, -316758.03, 45820.76, -0.0036994803, 0.0128960945, -191459.44, -1799.2262, 0.0, 5.039934, 4.964045 
9.588148e+2, 2.8560102e+2, -165513.23, -267275.2, 34964.324, 0.010625644, -0.016288463, -154657.84, -13557.302, 0.0, 5.037024, 4.9653893 
9.585595e+2, 2.9054314e+2, -151368.22, -282990.7, 29978.326, 0.013768865, -0.05283708, -144861.97, -52199.977, 0.0, 5.033733, 4.943414 
9.582968e+2, 2.954779e+2, -111988.51, -236222.16, 30686.076, 0.0072908043, -0.07097425, -104822.33, -60526.51, 0.0, 5.0297084, 4.9442687 
9.5803595e+2, 3.0042362e+2, -74955.66, -202352.81, 33171.406, 0.0024607263, 0.028365457, -66836.055, -66836.055, 0.0, 5.027084, 4.939873 
9.5780426e+2, 3.053412e+2, -13760.595, -188357.84, 24333.006, 0.2192666, -0.03667568, -10432.815, -10432.815, 0.0, 5.0392632, 4.921984 
9.5753646e+2, 3.1025884e+2, -47490.594, -179453.42, 29099.908, 0.10390038, -0.031161606, -41358.543, -41358.543, 0.0, 5.0150747, 4.927071 
9.572653e+2, 3.1518117e+2, -35535.797, -172657.34, 16064.658, 0.019878786, -0.03352368, -33678.867, -33678.867, 0.0, 5.0186877, 4.9281964 
9.5700186e+2, 3.2010278e+2, -42926.26, -173329.56, 5257.008, 0.009651536, -0.036418013, -42714.676, -42714.676, 0.0, 5.014929, 4.9298515 
9.567162e+2, 3.2505378e+2, 29432.21, 59831.535, -16139.906, -0.019291269, -0.19810718, 66802.266, 66802.266, 0.0, 5.002365, 5.0195255 
9.6913296e+2, 1.312444e+2, -1649064.9, -1662324.9, 1437.2545, -0.0035137523, 0.007731031, -1648911.0, 4894.8374, 0.0, 5.0232434, 5.0140104 
9.6896416e+2, 1.3625477e+2, -1594488.6, -1610759.6, 2233.2822, 0.003752797, 0.0016143398, -1594187.8, 10516.414, 0.0, 5.025266, 5.014001 
9.687953e+2, 1.4126518e+2, -1541257.5, -1561508.8, 3817.4512, 0.008725866, -0.0019273801, -1540561.8, 15040.483, 0.0, 5.0272007, 5.0132694 
9.686274e+2, 1.4627439e+2, -1492564.4, -1518912.5, 8054.4976, 0.0011236605, -0.0002232298, -1490297.3, 16214.93, 0.0, 5.0285516, 5.0105824 
9.684669e+2, 1.5127899e+2, -1450092.4, -1485249.0, 15338.544, -0.008194547, 0.0017770916, -1444341.1, 13125.888, 0.0, 5.029112, 5.0052123 
9.683109e+2, 1.5628116e+2, -1399938.9, -1435735.0, 16328.67, -0.0019730492, 0.0013311662, -1393609.5, 14836.419, 0.0, 5.029631, 5.0052323 
9.6815497e+2, 1.6128336e+2, -1349549.8, -1385853.5, 17317.723, 0.004445969, 0.0014714955, -1342613.9, 16810.656, 0.0, 5.0301757, 5.005369 
9.679989e+2, 1.6628584e+2, -1299522.6, -1336945.6, 19191.355, 0.009859338, 0.003471274, -1291430.6, 18970.018, 0.0, 5.0307636, 5.00516 
9.67846e+2, 1.712859e+2, -1255712.0, -1299769.4, 24435.09, 0.00882775, 0.006758667, -1244841.8, 16558.785, 0.0, 5.031222, 5.0009427 
9.6769464e+2, 1.7628373e+2, -1205566.9, -1250067.6, 25859.309, 0.0048085204, 0.008115847, -1193703.0, 18719.318, 0.0, 5.031731, 5.0010157 
9.6754324e+2, 1.8128143e+2, -1155652.8, -1200789.8, 27233.293, 0.0009431254, 0.008575794, -1142851.9, 20593.426, 0.0, 5.0322266, 5.000953 
9.6739167e+2, 1.8627866e+2, -1106428.8, -1152899.4, 28325.877, -0.002086661, 0.006915648, -1093027.5, 21445.209, 0.0, 5.032697, 5.000427 
9.6724105e+2, 1.9127333e+2, -1062777.6, -1115705.6, 32294.412, -0.0032734007, 0.0061941883, -1047489.1, 18036.004, 0.0, 5.0330505, 4.9961944 
9.670918e+2, 1.9626579e+2, -1012906.8, -1066003.5, 34366.69, -0.0020805753, 0.0033534893, -996028.4, 20570.924, 0.0, 5.0334644, 4.996298 
9.6694255e+2, 2.0125836e+2, -963023.7, -1016261.9, 36092.45, -0.000377134, 0.0015906063, -944795.94, 22876.432, 0.0, 5.0338755, 4.996419 
9.66792e+2, 2.0625111e+2, -913639.9, -968063.94, 36421.242, 0.0005035588, 0.0028943324, -895387.6, 23355.56, 0.0, 5.0343184, 4.9960184 
9.6663815e+2, 2.1124135e+2, -869720.56, -931318.0, 38129.844, -0.0008968691, 0.0060090744, -851504.5, 18334.336, 0.0, 5.0346994, 4.9916334 
9.664839e+2, 2.1622925e+2, -820250.2, -881652.6, 41126.05, -0.00092690444, 0.0074122595, -799629.75, 21327.465, 0.0, 5.0349746, 4.9917703 
9.6632934e+2, 2.21217e+2, -771054.9, -832762.75, 43357.023, -0.0006207509, 0.008642427, -748694.2, 23383.059, 0.0, 5.0352845, 4.9916186 
9.6617264e+2, 2.2620437e+2, -721877.8, -784517.9, 44011.277, 0.0012226698, 0.00972681, -699179.9, 24022.22, 0.0, 5.0356894, 4.9912095 
9.660091e+2, 2.3118882e+2, -677926.25, -748951.8, 42034.152, 0.0027707093, 0.012072571, -658411.5, 15943.914, 0.0, 5.0361786, 4.9863405 
9.6584135e+2, 2.3617055e+2, -628611.0, -699131.75, 46426.652, 0.0018287842, 0.012402542, -605572.75, 19962.492, 0.0, 5.036413, 4.9865184 
9.656732e+2, 2.4115202e+2, -579396.56, -649326.94, 49748.4, 0.00018727154, 0.0108953295, -553554.94, 23161.87, 0.0, 5.0366035, 4.986708 
9.655012e+2, 2.4613279e+2, -531263.3, -601696.3, 50775.344, -0.0046234797, 0.0045005144, -504687.1, 23215.531, 0.0, 5.0367303, 4.9861517 
9.6531844e+2, 2.5111008e+2, -488038.16, -567851.7, 44581.586, -0.0073786704, -0.0010068325, -468111.25, 11011.47, 0.0, 5.03702, 4.980758 
9.6512806e+2, 2.5608462e+2, -441042.72, -518685.5, 50613.266, -0.0075023575, -0.0069376556, -416076.94, 14292.631, 0.0, 5.0364175, 4.981024 
9.649372e+2, 2.6105917e+2, -395006.94, -471409.56, 55411.71, -0.0075791623, -0.009240176, -365904.47, 15712.452, 0.0, 5.0357604, 4.980626 
9.6474206e+2, 2.6603398e+2, -350231.0, -424866.2, 57660.625, -0.006593886, -0.001974065, -318865.63, 13998.136, 0.0, 5.034664, 4.9801593 
9.645303e+2, 2.7100438e+2, -311637.9, -395599.47, 45719.81, -0.00808003, 0.008089681, -291548.7, -7394.7485, 0.0, 5.033453, 4.9739037 
9.643048e+2, 2.7597067e+2, -268790.03, -347211.13, 54888.04, -0.011764497, 0.010936769, -240545.67, -5061.759, 0.0, 5.0313387, 4.974403 
9.64079e+2, 2.80936e+2, -226113.08, -299013.44, 60300.5, -0.005339922, 0.0072336327, -192102.17, -5279.567, 0.0, 5.029185, 4.9748 
9.6384114e+2, 2.8590068e+2, -177861.39, -244886.69, 55718.793, 0.010879694, -0.013567902, -146353.42, -8188.7275, 0.0, 5.0281696, 4.9768696 
9.635808e+2, 2.9085565e+2, -164028.39, -249444.13, 57417.473, 0.009828972, -0.03493581, -135177.0, -45575.06, 0.0, 5.0232987, 4.9591417 
9.633101e+2, 2.9580313e+2, -147643.5, -207534.11, 73439.03, 0.0023073799, -0.048129324, -98279.21, -57167.4, 0.0, 5.011191, 4.961143 
9.741533e+2, 1.3141543e+2, -1647400.3, -1659023.9, 2865.5327, -0.0060436907, 0.011543117, -1646732.3, 5397.263, 0.0, 5.0232763, 5.015098 
9.739869e+2, 1.3642663e+2, -1592834.6, -1607473.6, 3691.2983, 0.0060633007, 0.002998411, -1591956.5, 11063.636, 0.0, 5.0253005, 5.015087 
9.7382015e+2, 1.4143792e+2, -1539619.3, -1558210.3, 5117.1904, 0.013272478, -0.002006191, -1538303.9, 15605.907, 0.0, 5.0272264, 5.0143685 
9.7365344e+2, 1.4644818e+2, -1491013.0, -1515672.8, 8937.842, 0.0032993534, 0.000022077076, -1488114.3, 16694.88, 0.0, 5.0285583, 5.0116687 
9.734935e+2, 1.5145402e+2, -1448225.3, -1481395.0, 15655.213, -0.008168093, 0.0018748349, -1442003.5, 13748.719, 0.0, 5.0291176, 5.00651 
9.73338e+2, 1.5645745e+2, -1398083.3, -1431891.8, 16654.748, -0.002941158, 0.0013729043, -1391257.0, 15461.437, 0.0, 5.029638, 5.00653 
9.731825e+2, 1.6146095e+2, -1347591.6, -1381795.8, 17682.586, 0.0028985268, 0.0014281464, -1340093.8, 17590.39, 0.0, 5.030185, 5.006743 
9.7302717e+2, 1.6646488e+2, -1297450.4, -1332530.0, 19679.38, 0.008310222, 0.003153031, -1288628.9, 20017.24, 0.0, 5.0307603, 5.006662 
9.728747e+2, 1.7146659e+2, -1253180.6, -1294418.6, 24694.135, 0.006598569, 0.006479659, -1241629.0, 18000.404, 0.0, 5.031219, 5.0027685 
9.7272384e+2, 1.7646623e+2, -1203053.1, -1244725.3, 26126.408, 0.0020276362, 0.0076889093, -1190471.6, 20161.518, 0.0, 5.031728, 5.002844 
9.725729e+2, 1.8146573e+2, -1153127.4, -1195377.6, 27502.035, -0.002134396, 0.007812572, -1139573.5, 22064.86, 0.0, 5.03222, 5.002813 
9.7242194e+2, 1.8646483e+2, -1103636.0, -1146895.3, 28535.746, -0.004481193, 0.005640162, -1089458.8, 23188.34, 0.0, 5.032692, 5.002493 
9.7227186e+2, 1.9146185e+2, -1059162.5, -1107972.0, 32428.76, -0.0044741966, 0.0044020717, -1042981.3, 20694.967, 0.0, 5.0330496, 4.9988613 
9.721232e+2, 1.9645697e+2, -1009319.8, -1058289.4, 34506.605, -0.0018523792, 0.0014847658, -991493.7, 23230.46, 0.0, 5.033462, 4.9989676 
9.7197443e+2, 2.0145224e+2, -959444.9, -1008527.3, 36174.47, 0.0007950977, 0.000059302733, -940272.6, 25498.053, 0.0, 5.0338717, 4.9991055 
9.718242e+2, 2.0644784e+2, -909697.94, -959526.8, 36533.742, 0.001431462, 0.001889579, -890392.0, 26422.232, 0.0, 5.0343165, 4.9989934 
9.716706e+2, 2.1144158e+2, -864571.3, -920128.06, 38103.168, -0.00025567136, 0.005248152, -845195.8, 22680.26, 0.0, 5.0346947, 4.995541 
9.715166e+2, 2.1643347e+2, -815132.06, -870506.25, 41108.902, -0.0011481859, 0.007646634, -793255.9, 25699.945, 0.0, 5.0349736, 4.9956756 
9.713623e+2, 2.214252e+2, -765739.25, -821171.1, 43364.527, -0.0021552218, 0.009291381, -741990.06, 28047.1, 0.0, 5.03529, 4.995692 
9.7120565e+2, 2.264167e+2, -716166.8, -772089.44, 43880.984, -0.0020772396, 0.009836508, -692095.6, 29025.564, 0.0, 5.0357037, 4.9955893 
9.7104216e+2, 2.3140617e+2, -670434.7, -732655.75, 41817.387, -0.002297347, 0.01133282, -649424.56, 22800.336, 0.0, 5.0362062, 4.992088 
9.7087455e+2, 2.3639362e+2, -621170.4, -682866.75, 46224.65, -0.004727698, 0.010821625, -596445.8, 26902.896, 0.0, 5.03644, 4.9922743 
9.707065e+2, 2.4138083e+2, -571918.9, -632863.5, 49362.996, -0.007357166, 0.008639792, -544380.25, 30093.328, 0.0, 5.0366235, 4.9925566 
9.705346e+2, 2.4636774e+2, -523265.88, -584158.4, 50296.207, -0.010403477, 0.0030146663, -494918.56, 30680.785, 0.0, 5.0367684, 4.992404 
9.703517e+2, 2.5135228e+2, -477718.28, -545415.6, 43521.97, -0.010733983, -0.0009939787, -456431.72, 20316.535, 0.0, 5.0370975, 4.988773 
9.701609e+2, 2.563348e+2, -430783.16, -496341.9, 49583.938, -0.00970715, -0.0063251257, -404123.03, 23793.73, 0.0, 5.036502, 4.989032 
9.699694e+2, 2.613173e+2, -384415.63, -448173.16, 54173.723, -0.009292639, -0.009425018, -353437.03, 25649.488, 0.0, 5.035836, 4.9889812 
9.697729e+2, 2.6630005e+2, -339379.38, -400718.8, 54979.496, -0.008480867, -0.006402757, -307093.75, 23161.95, 0.0, 5.034673, 4.988898 
9.6955836e+2, 2.7128032e+2, -296755.28, -362038.56, 42886.492, -0.011018154, -0.0041109496, -275501.4, 5948.063, 0.0, 5.0334144, 4.986077 
9.693307e+2, 2.762587e+2, -253966.61, -313731.53, 52109.617, -0.015091828, -0.0029760362, -223779.33, 8882.067, 0.0, 5.03131, 4.98658 
9.6910244e+2, 2.8123677e+2, -210737.16, -264205.22, 57339.547, -0.011893513, -0.0037809713, -174205.63, 9670.403, 0.0, 5.02917, 4.987489 
9.68863e+2, 2.8621626e+2, -161898.5, -208738.67, 54134.715, 0.007289701, -0.005545384, -126334.96, 8739.773, 0.0, 5.028228, 4.990086 
9.685966e+2, 2.9119283e+2, -132759.64, -183625.5, 44647.363, 0.0065334593, 0.0036331154, -106809.484, -20507.418, 0.0, 5.0238023, 4.9832664 
9.683126e+2, 2.96164e+2, -117149.99, -142849.45, 61297.445, -0.015772292, -0.003366727, -67369.914, -29787.973, 0.0, 5.011585, 4.984897 
9.791738e+2, 1.3158633e+2, -1646010.8, -1655836.0, 3977.6165, -0.0068859253, 0.014675242, -1644602.4, 5851.877, 0.0, 5.023217, 5.016191 
9.7900975e+2, 1.3659842e+2, -1591605.4, -1604373.4, 4875.0737, 0.009124077, 0.004047841, -1589956.9, 11379.67, 0.0, 5.025192, 5.016179 
9.788451e+2, 1.4161065e+2, -1538712.6, -1555448.5, 6248.6416, 0.018104449, -0.0020984113, -1536637.0, 15580.101, 0.0, 5.0270486, 5.015384 
9.7867954e+2, 1.4662203e+2, -1489842.3, -1512541.6, 9656.698, 0.0055106487, 0.00047564608, -1486290.0, 16815.76, 0.0, 5.02842, 5.0127883 
9.785202e+2, 1.5162905e+2, -1446519.8, -1477616.8, 15885.062, -0.008494854, 0.002208337, -1439840.0, 14197.036, 0.0, 5.0290694, 5.0078063 
9.783651e+2, 1.5663378e+2, -1396288.8, -1428075.4, 16918.908, -0.0041496893, 0.0015146062, -1388969.0, 16021.724, 0.0, 5.0296245, 5.007827 
9.7821015e+2, 1.616386e+2, -1345636.3, -1377766.3, 18016.297, 0.0012301395, 0.0014210311, -1337562.6, 18380.857, 0.0, 5.030201, 5.0081034 
9.7805536e+2, 1.6664393e+2, -1295374.1, -1328111.9, 20118.498, 0.0067250268, 0.002966434, -1285806.8, 21084.41, 0.0, 5.030758, 5.0081644 
9.779035e+2, 1.7164733e+2, -1250656.3, -1289073.0, 24931.254, 0.0044761393, 0.006310111, -1238392.0, 19465.924, 0.0, 5.031215, 5.004593 
9.777531e+2, 1.7664875e+2, -1200561.0, -1239394.4, 26375.191, -0.00072406157, 0.0072762626, -1187226.3, 21617.508, 0.0, 5.0317187, 5.0046716 
9.776027e+2, 1.8165006e+2, -1150604.1, -1189952.9, 27721.75, -0.005086512, 0.0070557366, -1136284.8, 23546.26, 0.0, 5.0322104, 5.0046782 
9.774522e+2, 1.8665107e+2, -1100854.8, -1140910.1, 28776.225, -0.006753503, 0.0044043506, -1085822.8, 24998.18, 0.0, 5.032687, 5.004553 
9.773027e+2, 1.9165042e+2, -1055552.4, -1100245.3, 32561.076, -0.0054662996, 0.0026171876, -1038407.1, 23419.725, 0.0, 5.0330486, 5.001528 
9.771546e+2, 1.966482e+2, -1005737.8, -1050582.0, 34644.49, -0.0014386761, -0.00046012373, -986892.56, 25955.893, 0.0, 5.0334597, 5.0016375 
9.770064e+2, 2.0164618e+2, -955847.6, -1000745.56, 36289.56, 0.0020298087, -0.0014396176, -935624.75, 28243.672, 0.0, 5.033868, 5.001811 
9.7685647e+2, 2.0664465e+2, -905789.3, -951064.56, 36605.465, 0.0024479323, 0.0010551712, -885387.1, 29497.229, 0.0, 5.034315, 5.0019455 
9.7670317e+2, 2.1164191e+2, -859432.25, -908952.9, 38080.598, 0.0004337503, 0.0047066975, -838770.06, 27142.25, 0.0, 5.0346904, 4.99945 
9.765494e+2, 2.1663779e+2, -810024.0, -859374.5, 41095.867, -0.0012673159, 0.007933897, -786764.5, 30188.969, 0.0, 5.0349727, 4.9995823 
9.763952e+2, 2.2163351e+2, -760469.9, -809669.7, 43434.234, -0.0036260767, 0.009852008, -735152.94, 32843.1, 0.0, 5.035295, 4.9997406 
9.762387e+2, 2.2662917e+2, -710459.9, -759661.7, 43707.99, -0.005376604, 0.010097064, -684905.06, 34133.887, 0.0, 5.0357175, 4.999978 
9.760752e+2, 2.3162368e+2, -662963.7, -716392.0, 41595.484, -0.0078984555, 0.010530408, -640242.75, 29850.443, 0.0, 5.036234, 4.997839 
9.759078e+2, 2.3661679e+2, -613750.3, -666634.0, 46017.523, -0.011982066, 0.008877569, -587118.75, 34042.2, 0.0, 5.036467, 4.9980345 
9.7573984e+2, 2.4160978e+2, -564410.1, -616318.5, 48909.77, -0.015594888, 0.0059775067, -534994.75, 37234.215, 0.0, 5.036642, 4.9984508 
9.7556806e+2, 2.466029e+2, -515460.0, -567038.25, 49889.74, -0.01637838, 0.0017688086, -485088.06, 38205.953, 0.0, 5.0368085, 4.9985247 
9.753852e+2, 2.515947e+2, -467437.53, -523043.9, 42476.65, -0.012962718, -0.00057621225, -444473.78, 29897.94, 0.0, 5.037175, 4.9967947 
9.751939e+2, 2.5658524e+2, -420562.53, -474062.47, 48568.957, -0.010698401, -0.005860621, -391864.28, 33597.617, 0.0, 5.0365863, 4.997047 
9.750018e+2, 2.6157564e+2, -374008.66, -425326.9, 52787.855, -0.0099531375, -0.010315916, -340974.1, 35579.977, 0.0, 5.03591, 4.9972305 
9.748035e+2, 2.6656634e+2, -328660.7, -376844.44, 52311.406, -0.011036259, -0.011039825, -295160.03, 32485.596, 0.0, 5.034681, 4.9975777 
9.7458607e+2, 2.7155632e+2, -281951.13, -328630.34, 40072.98, -0.015996877, -0.017854549, -258916.39, 19827.914, 0.0, 5.0333776, 4.998267 
9.743565e+2, 2.7654675e+2, -239221.44, -280404.53, 49351.086, -0.020334018, -0.019752933, -206338.31, 23499.967, 0.0, 5.0312834, 4.9987745 
9.741255e+2, 2.8153777e+2, -195565.9, -229928.56, 54092.313, -0.02126079, -0.016235534, -155991.83, 24934.715, 0.0, 5.029168, 5.00006 
9.738848e+2, 2.865324e+2, -146190.53, -173258.25, 52607.78, 0.0019327936, 0.0043841638, -105403.64, 26575.508, 0.0, 5.028302, 5.003142 
9.7361284e+2, 2.9153028e+2, -102183.28, -119295.51, 32202.44, 0.011188601, 0.04019228, -77419.67, 5580.2334, 0.0, 5.024323, 5.0071487 
9.733155e+2, 2.965251e+2, -86926.32, -78810.01, 49193.418, -0.02667487, 0.033928894, -33507.645, 542.76996, 0.0, 5.012008, 5.0087094 
9.841945e+2, 1.317542e+2, -1649064.9, -1654856.6, 2950.3599, -0.00082228426, 0.009178494, -1647826.6, 982.164, 0.0, 5.0216646, 5.017301 
9.8403144e+2, 1.3676791e+2, -1595238.5, -1603628.9, 3690.4678, 0.0068693836, 0.0031699894, -1593846.3, 5829.26, 0.0, 5.0234323, 5.017306 
9.838681e+2, 1.4178155e+2, -1542835.4, -1555215.3, 5105.8223, 0.012568022, -0.0008084818, -1541001.4, 9540.974, 0.0, 5.0251756, 5.016388 
9.8370427e+2, 1.4679395e+2, -1493187.6, -1511643.1, 8058.75, 0.0013847096, 0.0009665512, -1490164.1, 11256.485, 0.0, 5.0267534, 5.013904 
9.83546e+2, 1.518022e+2, -1448942.0, -1475832.8, 13821.726, -0.011735731, 0.0023470053, -1443104.8, 9234.779, 0.0, 5.0276294, 5.0090995 
9.833919e+2, 1.5680824e+2, -1397948.3, -1425886.9, 14867.957, -0.004405431, 0.00096649845, -1391516.6, 11763.315, 0.0, 5.0284405, 5.009129 
9.832378e+2, 1.6181436e+2, -1346941.5, -1375397.4, 15916.819, 0.0027896946, -0.00013936838, -1339820.5, 14399.37, 0.0, 5.0291386, 5.009405 
9.830836e+2, 1.6682099e+2, -1296824.3, -1325824.0, 17901.533, 0.007773887, 0.00040578056, -1288287.0, 16867.87, 0.0, 5.029654, 5.0094543 
9.8293227e+2, 1.7182592e+2, -1251803.9, -1285761.4, 22374.857, 0.004359217, 0.0031510494, -1240695.1, 15411.31, 0.0, 5.0300264, 5.0062723 
9.827822e+2, 1.7682908e+2, -1202050.4, -1236229.5, 23706.908, -0.0020023638, 0.0032557605, -1189915.4, 17159.889, 0.0, 5.0304065, 5.00636 
9.8263216e+2, 1.8183218e+2, -1152415.0, -1186639.5, 24921.34, -0.006845339, 0.0026466723, -1139296.5, 18748.209, 0.0, 5.0307245, 5.0065 
9.8248214e+2, 1.868353e+2, -1102846.9, -1137276.8, 26143.611, -0.008566165, 0.0008285008, -1088759.4, 20254.506, 0.0, 5.031051, 5.006558 
9.823331e+2, 1.9183722e+2, -1056845.8, -1094987.9, 29755.387, -0.0066180606, 0.000045304314, -1040574.4, 19420.348, 0.0, 5.03137, 5.0041237 
9.8218554e+2, 1.9683783e+2, -1007314.56, -1045469.4, 31781.531, -0.0014623598, -0.0019022593, -989324.3, 21664.287, 0.0, 5.031682, 5.0042324 
9.820378e+2, 2.0183863e+2, -957846.9, -995721.9, 33486.55, 0.003018288, -0.0020924967, -938313.94, 23667.098, 0.0, 5.0319214, 5.004455 
9.8188823e+2, 2.0684e+2, -907749.7, -945165.3, 33737.074, 0.0039216806, 0.00021668847, -887880.7, 25088.215, 0.0, 5.0322146, 5.004965 
9.817353e+2, 2.1184078e+2, -860091.6, -900450.8, 35341.13, 0.0013508819, 0.0029709835, -839574.6, 24387.867, 0.0, 5.0326324, 5.0033655 
9.8158175e+2, 2.1684065e+2, -810520.75, -850810.75, 38489.223, -0.0009973986, 0.0057517802, -787223.3, 27741.643, 0.0, 5.0329814, 5.0034947 
9.814278e+2, 2.2184041e+2, -760828.4, -800606.4, 40949.34, -0.0041857865, 0.0071209604, -735193.5, 30774.658, 0.0, 5.0332704, 5.0038514 
9.8127145e+2, 2.268404e+2, -710633.25, -749895.7, 41464.813, -0.007972773, 0.0074505894, -684387.3, 32581.043, 0.0, 5.033645, 5.004366 
9.8110795e+2, 2.3184007e+2, -661502.56, -702945.75, 39285.086, -0.012286924, 0.0070060333, -637809.06, 30162.803, 0.0, 5.034126, 5.0035734 
9.8094076e+2, 2.3683901e+2, -612806.7, -653468.8, 43684.543, -0.016387276, 0.0045932224, -584953.8, 34028.777, 0.0, 5.034187, 5.003763 
9.80773e+2, 2.418379e+2, -563877.0, -603176.5, 46350.676, -0.019161833, 0.0015677757, -533182.94, 36809.664, 0.0, 5.034189, 5.004262 
9.8060155e+2, 2.4683729e+2, -514568.03, -553140.8, 47475.574, -0.016898764, -0.000649446, -482610.94, 38385.2, 0.0, 5.0343738, 5.004612 
9.804187e+2, 2.5183645e+2, -463684.13, -503552.3, 39573.92, -0.010774814, -0.0012906397, -439307.22, 32694.764, 0.0, 5.0348897, 5.0048575 
9.802269e+2, 2.5683513e+2, -416759.03, -454541.8, 45774.67, -0.008570278, -0.0063317833, -386130.7, 36881.836, 0.0, 5.0343404, 5.0051174 
9.80034e+2, 2.6183373e+2, -370338.78, -405071.25, 49898.2, -0.00816599, -0.011271022, -334871.2, 39153.563, 0.0, 5.0334735, 5.0056696 
9.798336e+2, 2.6683256e+2, -324200.78, -356347.5, 48199.88, -0.0144702345, -0.014505743, -289464.88, 35571.95, 0.0, 5.0325294, 5.0060043 
9.796133e+2, 2.7183238e+2, -271225.5, -297130.63, 36388.17, -0.022791741, -0.030337583, -245553.34, 30485.498, 0.0, 5.031866, 5.010464 
9.793818e+2, 2.7683514e+2, -228606.48, -248862.5, 46048.52, -0.025272058, -0.034968805, -191585.34, 35426.637, 0.0, 5.02976, 5.011015 
9.7914827e+2, 2.818395e+2, -186249.06, -198988.44, 50825.04, -0.028881721, -0.025754783, -141396.13, 36574.57, 0.0, 5.0272064, 5.012308 
9.7890675e+2, 2.86849e+2, -135591.11, -140458.11, 50379.07, 0.000058878362, 0.015634434, -87586.8, 41292.766, 0.0, 5.026597, 5.0160465 
9.786298e+2, 2.9186746e+2, -74028.32, -56587.313, 18781.617, 0.025108736, 0.07068614, -44600.418, 35100.133, 0.0, 5.0241356, 5.031023 
9.7831905e+2, 2.9688594e+2, -62565.105, -18018.053, 34789.76, -0.02612486, 0.060518477, 1017.46936, 31538.764, 0.0, 5.0103755, 5.0325193 
9.892141e+2, 1.3191698e+2, -1646929.8, -1653365.4, -2257.64, 0.0069222073, 0.00035871656, -1646216.8, 996.4386, 0.0, 5.0219774, 5.017833 
9.890512e+2, 1.369321e+2, -1594648.1, -1602814.4, -1761.059, 0.0025916516, 0.0009762621, -1594284.5, 3781.9822, 0.0, 5.0232124, 5.017864 
9.888889e+2, 1.4194685e+2, -1543516.9, -1555136.8, -574.92444, 0.0019982364, 0.0005972618, -1543488.5, 5433.961, 0.0, 5.0245447, 5.0168915 
9.88727e+2, 1.4695986e+2, -1495059.4, -1512256.8, 1747.5482, -0.0048797703, 0.0005711786, -1494883.5, 4910.6284, 0.0, 5.0257454, 5.0143433 
9.885702e+2, 1.5196882e+2, -1450623.0, -1476079.0, 6368.904, -0.014241352, 0.0012979753, -1449118.4, 1586.9851, 0.0, 5.026599, 5.009701 
9.8841727e+2, 1.5697569e+2, -1399588.5, -1426178.1, 6686.4873, -0.0030137468, -0.0010148258, -1398001.8, 3635.7156, 0.0, 5.027414, 5.0097203 
9.882641e+2, 1.6198255e+2, -1348606.5, -1376103.5, 6862.971, 0.005960361, -0.0032732012, -1346988.8, 5581.052, 0.0, 5.028164, 5.009837 
9.8811036e+2, 1.6698977e+2, -1298411.1, -1326629.3, 7883.455, 0.009626509, -0.004130038, -1296358.0, 7140.7813, 0.0, 5.028708, 5.0098467 
9.879592e+2, 1.7199558e+2, -1253359.9, -1285980.4, 11314.911, 0.0050550275, -0.002382719, -1249819.5, 4622.498, 0.0, 5.028946, 5.0069427 
9.878093e+2, 1.7699979e+2, -1203933.0, -1236760.4, 11737.533, -0.0026447638, -0.0026477631, -1200168.0, 5232.5063, 0.0, 5.0292068, 5.006993 
9.876595e+2, 1.8200415e+2, -1154212.5, -1186887.6, 12017.275, -0.008282774, -0.0024708523, -1150268.8, 6088.9067, 0.0, 5.029457, 5.007275 
9.875097e+2, 1.8700895e+2, -1104428.3, -1136892.8, 12291.098, -0.009568594, -0.0017481506, -1100299.9, 7010.586, 0.0, 5.0296845, 5.007625 
9.873609e+2, 1.9201301e+2, -1058504.0, -1093681.9, 15079.946, -0.0077414676, -0.00019273991, -1052924.5, 5345.8804, 0.0, 5.029686, 5.005699 
9.8721343e+2, 1.97016e+2, -1010066.6, -1044775.9, 16410.758, -0.0025979232, 0.00024940306, -1003536.2, 5704.727, 0.0, 5.0296073, 5.0057845 
9.8706573e+2, 2.0201913e+2, -961213.94, -995054.06, 17357.396, 0.0021915545, 0.0009218854, -953894.2, 6316.626, 0.0, 5.0295362, 5.006151 
9.8691624e+2, 2.0702286e+2, -911586.06, -944032.3, 16997.69, 0.004039814, 0.0018892656, -904312.1, 6863.3105, 0.0, 5.0294857, 5.006995 
9.8676336e+2, 2.1202667e+2, -863959.2, -897415.3, 17931.197, 0.000852433, 0.0022575855, -856164.7, 5974.6274, 0.0, 5.029386, 5.0063567 
9.866097e+2, 2.1703006e+2, -816334.6, -848693.5, 20576.135, -0.002564449, 0.0028488692, -806338.6, 6768.7188, 0.0, 5.0290346, 5.006485 
9.864557e+2, 2.2203356e+2, -768084.75, -798540.8, 22346.838, -0.0063902945, 0.0028688302, -756270.7, 7803.3086, 0.0, 5.028658, 5.0071325 
9.862991e+2, 2.270378e+2, -719392.5, -747710.1, 22586.297, -0.010849947, 0.0028289873, -706894.0, 8138.591, 0.0, 5.028304, 5.0080347 
9.8613566e+2, 2.3204246e+2, -670165.75, -698465.1, 19980.342, -0.013193092, 0.0014061911, -659832.25, 6154.693, 0.0, 5.028221, 5.0084167 
9.8596853e+2, 2.3704702e+2, -623481.3, -649822.25, 24398.922, -0.013620206, -0.0013400404, -608925.1, 8017.542, 0.0, 5.027549, 5.008626 
9.858008e+2, 2.4205172e+2, -576070.2, -599711.6, 27099.268, -0.011537321, -0.0034892068, -558325.75, 9570.219, 0.0, 5.026898, 5.0093436 
9.856294e+2, 2.4705736e+2, -528323.94, -548958.8, 27899.887, -0.004229407, -0.004656799, -508894.88, 9944.858, 0.0, 5.026216, 5.0103226 
9.854456e+2, 2.5206405e+2, -477828.63, -496336.66, 19841.258, -0.00096385606, -0.004270563, -465189.44, 4583.427, 0.0, 5.025819, 5.012136 
9.852525e+2, 2.570712e+2, -432615.7, -447866.47, 25766.303, -0.003576825, -0.00591537, -413370.1, 7331.504, 0.0, 5.0246234, 5.012451 
9.850582e+2, 2.6207873e+2, -387007.3, -397917.44, 29107.64, -0.005590819, -0.0048170863, -362847.97, 8778.38, 0.0, 5.0232873, 5.0133595 
9.848561e+2, 2.6708716e+2, -339648.72, -347718.03, 27913.258, -0.015970254, -0.0006796034, -315480.03, 7062.906, 0.0, 5.022491, 5.0142107 
9.846345e+2, 2.7209798e+2, -283728.8, -286015.72, 13092.609, -0.022142246, -0.0060518817, -271729.8, 1706.5402, 0.0, 5.0222106, 5.019623 
9.8440146e+2, 2.7711207e+2, -242654.95, -239351.73, 19052.316, -0.015952807, -0.0039488627, -221879.58, 2417.8987, 0.0, 5.019499, 5.019942 
9.841665e+2, 2.8212607e+2, -200012.05, -191228.03, 20562.717, -0.006428615, -0.0048700273, -174593.52, 567.7298, 0.0, 5.0171437, 5.0206394 
9.83924e+2, 2.8714114e+2, -154630.56, -138403.58, 15283.73, 0.034245532, -0.0062238853, -129213.28, -3196.5183, 0.0, 5.014857, 5.0232415 
9.8364466e+2, 2.9216462e+2, -71723.35, -47058.52, -26338.72, 0.05438287, 0.0032377366, -30308.006, 46481.77, 0.0, 5.019735, 5.0386915 
9.833332e+2, 2.9719064e+2, -1591.1483, 9063.222, -27722.938, 0.02821783, -0.029732317, 31966.164, 59503.85, 0.0, 5.0279255, 5.038244 
9.942336e+2, 1.3207582e+2, -1645889.9, -1651297.9, -1486.8352, 0.008563672, -0.0045392006, -1645508.1, 148.40381, 0.0, 5.022013, 5.018493 
9.940708e+2, 1.3709211e+2, -1593736.3, -1600837.4, -898.93225, -0.0054880893, 0.0013680162, -1593624.3, 2874.147, 0.0, 5.0232177, 5.0185113 
9.939094e+2, 1.4210777e+2, -1542822.0, -1553495.8, 479.93585, -0.010560828, 0.0042713997, -1542800.5, 4544.9136, 0.0, 5.0245233, 5.0174446 
9.937493e+2, 1.471212e+2, -1494661.3, -1511313.0, 2646.3464, -0.0131878285, 0.003571112, -1494250.8, 3961.6104, 0.0, 5.025738, 5.0146546 
9.9359393e+2, 1.521305e+2, -1449858.1, -1474736.5, 6905.0835, -0.0183773, 0.0035974875, -1448070.1, 1049.9241, 0.0, 5.0266423, 5.010132 
9.934422e+2, 1.5713769e+2, -1398828.0, -1424839.4, 7241.743, -0.0035829116, -0.00007897052, -1396947.8, 3100.4363, 0.0, 5.0274577, 5.010151 
9.932898e+2, 1.621448e+2, -1348195.8, -1375430.6, 7288.224, 0.006508384, -0.0035126389, -1346368.0, 4609.779, 0.0, 5.028197, 5.0100484 
9.931365e+2, 1.671521e+2, -1297976.3, -1325883.9, 8123.373, 0.0084879715, -0.0059829494, -1295784.0, 6122.1772, 0.0, 5.0287347, 5.010084 
9.9298567e+2, 1.7215812e+2, -1252578.1, -1284433.9, 11388.512, 0.0031991114, -0.006308492, -1248925.5, 3921.463, 0.0, 5.0289598, 5.007455 
9.9283594e+2, 1.7716275e+2, -1203181.4, -1235229.1, 11837.283, -0.005649624, -0.008292725, -1199283.3, 4518.4634, 0.0, 5.0292144, 5.0075045 
9.926863e+2, 1.8216775e+2, -1153227.4, -1184827.1, 12131.727, -0.012166326, -0.007834308, -1149107.0, 5645.531, 0.0, 5.0294604, 5.0079727 
9.925367e+2, 1.8717363e+2, -1102943.3, -1133792.6, 12328.643, -0.013484319, -0.00511962, -1098621.6, 7073.296, 0.0, 5.029693, 5.0086823 
9.923879e+2, 1.9217937e+2, -1056019.6, -1088614.3, 14842.616, -0.012547577, -0.0021641124, -1050273.8, 6364.8506, 0.0, 5.029715, 5.007435 
9.922402e+2, 1.971843e+2, -1007594.75, -1039719.94, 16201.815, -0.0085500665, -0.0004068196, -1000842.75, 6747.518, 0.0, 5.0296373, 5.007521 
9.920923e+2, 2.0218922e+2, -958470.3, -989451.1, 17049.578, -0.0051945015, 0.00017412493, -950925.06, 7617.2627, 0.0, 5.0295734, 5.008083 
9.919427e+2, 2.0719494e+2, -908527.94, -937591.6, 16884.209, -0.004099003, -0.00035385694, -900783.06, 8704.533, 0.0, 5.029505, 5.009237 
9.917897e+2, 2.1220164e+2, -859305.25, -887560.9, 17397.648, -0.0062851342, -0.0007375339, -851021.56, 9401.686, 0.0, 5.029405, 5.0098195 
9.916357e+2, 2.1720842e+2, -811686.6, -838869.4, 20067.52, -0.009275415, -0.0010547137, -801041.06, 10317.101, 0.0, 5.029062, 5.009946 
9.914813e+2, 2.2221547e+2, -763179.7, -788138.0, 21752.867, -0.012648244, -0.0011159921, -750580.6, 11709.236, 0.0, 5.0286884, 5.0108094 
9.913243e+2, 2.2722363e+2, -713891.75, -735758.3, 22039.6, -0.016263438, -0.0014901351, -700222.6, 12987.307, 0.0, 5.0283074, 5.012285 
9.9116045e+2, 2.3223342e+2, -662936.44, -682335.2, 19036.842, -0.01797352, -0.0019932725, -651270.44, 12843.73, 0.0, 5.028171, 5.014202 
9.9099255e+2, 2.3724382e+2, -616316.5, -633756.1, 23487.68, -0.019100087, -0.0031737196, -599982.25, 15030.077, 0.0, 5.027497, 5.0144086 
9.908241e+2, 2.4225459e+2, -568755.8, -583278.94, 26156.44, -0.017174646, -0.0026880736, -548871.7, 17035.426, 0.0, 5.0268517, 5.0152783 
9.906519e+2, 2.4726653e+2, -520051.8, -530593.75, 26705.492, -0.01029515, -0.00177406, -498102.1, 18688.078, 0.0, 5.0261965, 5.016969 
9.904673e+2, 2.5228086e+2, -467478.6, -474023.63, 18218.281, -0.0048984685, -0.0006534322, -452241.25, 15408.508, 0.0, 5.0258865, 5.020226 
9.902734e+2, 2.5729635e+2, -422299.0, -425641.9, 24203.154, -0.0029606363, -0.00092910544, -399709.66, 18788.164, 0.0, 5.0247054, 5.0205326 
9.9007803e+2, 2.6231274e+2, -376552.7, -375169.94, 27136.12, -0.0024904613, 0.005083536, -348716.38, 20619.54, 0.0, 5.023353, 5.021663 
9.898753e+2, 2.6733118e+2, -328306.38, -323001.34, 26844.592, -0.007836011, 0.019705234, -298678.53, 21474.727, 0.0, 5.022584, 5.0232844 
9.8965234e+2, 2.723521e+2, -272961.44, -263233.47, 10254.209, -0.011594997, 0.03180881, -256748.13, 14197.861, 0.0, 5.0223646, 5.0281014 
9.894159e+2, 2.773751e+2, -232032.72, -216596.89, 16355.86, -0.012342864, 0.041753866, -206229.44, 15489.444, 0.0, 5.0196233, 5.0284367 
9.891784e+2, 2.8239468e+2, -189503.73, -168694.17, 18028.521, -0.0033640729, 0.016446484, -158283.4, 14244.398, 0.0, 5.0172963, 5.029048 
9.8893243e+2, 2.874108e+2, -147198.84, -122031.7, 11098.8545, 0.035242733, -0.04380525, -117836.39, 5536.666, 0.0, 5.0148425, 5.0294404 
9.886554e+2, 2.9242966e+2, -75396.42, -51987.316, -19398.633, 0.06231502, -0.10451366, -41035.664, 33156.074, 0.0, 5.0193677, 5.036719 
9.8835504e+2, 2.9745027e+2, -5281.065, 4312.752, -20277.482, 0.05944102, -0.17891702, 20352.99, 45345.863, 0.0, 5.027524, 5.036325 
9.9925286e+2, 1.3223487e+2, -1647005.8, -1650481.9, 186.09238, 0.0087614525, -0.008350204, -1646995.8, -2898.4395, 0.0, 5.021387, 5.019059 
9.990907e+2, 1.372521e+2, -1592680.1, -1598840.1, 93.483986, -0.011277422, 0.0015521303, -1592678.8, 2251.9136, 0.0, 5.023298, 5.0191264 
9.989304e+2, 1.4226854e+2, -1542068.1, -1551900.5, 1300.069, -0.018525599, 0.006748939, -1541899.1, 3870.736, 0.0, 5.024546, 5.0179553 
9.987719e+2, 1.4728244e+2, -1494235.8, -1510530.9, 3274.5366, -0.019018767, 0.0058951173, -1493602.4, 3029.331, 0.0, 5.025782, 5.0148835 
9.986179e+2, 1.5229203e+2, -1449140.9, -1473436.4, 7082.1772, -0.021404525, 0.0053884136, -1447227.3, 308.77972, 0.0, 5.0266757, 5.01055 
9.984672e+2, 1.5729956e+2, -1398477.8, -1423719.6, 7491.7627, -0.0037357484, 0.0003201395, -1396421.8, 2038.4395, 0.0, 5.027368, 5.010569 
9.9831575e+2, 1.6230693e+2, -1348262.1, -1375008.0, 7411.9414, 0.0070994273, -0.004032998, -1346345.5, 3041.5322, 0.0, 5.028073, 5.010246 
9.981628e+2, 1.6731435e+2, -1297847.4, -1325453.4, 8257.707, 0.0074348976, -0.007923799, -1295565.8, 4748.485, 0.0, 5.028695, 5.0102425 
9.980121e+2, 1.7232063e+2, -1251881.4, -1282912.3, 11425.399, 0.0013108365, -0.010145081, -1248128.5, 3124.1028, 0.0, 5.0289445, 5.007967 
9.978626e+2, 1.7732564e+2, -1202489.8, -1233715.6, 11975.859, -0.008704401, -0.01421264, -1198425.8, 3777.8083, 0.0, 5.029203, 5.0080137 
9.977131e+2, 1.8233131e+2, -1152258.4, -1182723.5, 12222.524, -0.01595728, -0.013218883, -1147960.9, 5186.9526, 0.0, 5.02945, 5.0086865 
9.975638e+2, 1.8733831e+2, -1101608.0, -1130944.1, 12466.177, -0.017586688, -0.008423135, -1097026.3, 7053.279, 0.0, 5.0296907, 5.009653 
9.974148e+2, 1.9234571e+2, -1053545.0, -1083543.6, 14606.286, -0.017886305, -0.004033167, -1047608.1, 7398.878, 0.0, 5.0297437, 5.0091677 
9.9726695e+2, 1.9735254e+2, -1005132.44, -1034660.9, 15993.872, -0.015112005, -0.0012353786, -998130.0, 7809.886, 0.0, 5.029667, 5.0092545 
9.9711883e+2, 2.023593e+2, -955812.2, -984008.44, 16785.768, -0.013149916, -0.00087000005, -947989.56, 8884.685, 0.0, 5.0296106, 5.0099554 
9.9696904e+2, 2.0736703e+2, -905446.2, -931107.7, 16691.629, -0.012513087, -0.0026258668, -897223.7, 10576.088, 0.0, 5.0295253, 5.0114927 
9.9681604e+2, 2.1237664e+2, -854662.1, -877716.3, 16874.639, -0.013265667, -0.0037669817, -845753.3, 12953.791, 0.0, 5.029423, 5.0132794 
9.966617e+2, 2.1738678e+2, -807049.5, -829055.06, 19569.44, -0.015888492, -0.0054337224, -795601.8, 14007.063, 0.0, 5.029089, 5.013404 
9.965069e+2, 2.2239742e+2, -758360.1, -777897.25, 21221.691, -0.018880356, -0.005413724, -744766.6, 15738.713, 0.0, 5.028718, 5.014431 
9.963495e+2, 2.2740951e+2, -708491.5, -724042.8, 21359.97, -0.021432875, -0.0061836964, -693535.94, 17850.957, 0.0, 5.0283136, 5.0164557 
9.961852e+2, 2.3242438e+2, -655731.75, -666234.1, 18095.807, -0.022234123, -0.005467464, -642140.6, 20100.633, 0.0, 5.0281215, 5.0199885 
9.9601656e+2, 2.3744066e+2, -609176.2, -617718.75, 22578.896, -0.024051929, -0.0055640647, -590468.1, 22613.766, 0.0, 5.0274453, 5.020192 
9.958474e+2, 2.4245748e+2, -561535.1, -567065.0, 25067.377, -0.022053445, -0.002241562, -539080.7, 24837.072, 0.0, 5.0268087, 5.0211473 
9.9567425e+2, 2.4747577e+2, -511932.1, -512485.78, 25790.334, -0.016932502, 0.0011815879, -486417.13, 28322.701, 0.0, 5.026171, 5.023539 
9.954887e+2, 2.5249776e+2, -457174.1, -451769.63, 16622.469, -0.011472652, 0.0035067603, -437631.2, 27894.348, 0.0, 5.0259547, 5.028319 
9.952943e+2, 2.5752163e+2, -412086.9, -403606.5, 22636.736, -0.00495969, 0.0036963471, -384816.25, 31476.73, 0.0, 5.024788, 5.028569 
9.9509746e+2, 2.6254696e+2, -366037.34, -352225.0, 25269.9, -0.0030187874, 0.015000913, -332934.56, 34108.883, 0.0, 5.0234175, 5.030067 
9.948945e+2, 2.6757556e+2, -317519.6, -299551.1, 25635.467, 0.0005798067, 0.042451777, -281371.16, 36388.582, 0.0, 5.0226827, 5.031928 
9.9467075e+2, 2.7260655e+2, -262249.25, -240514.25, 7385.1196, 0.0054915384, 0.07136076, -238242.4, 30210.582, 0.0, 5.0225205, 5.0365734 
9.944309e+2, 2.7763835e+2, -221514.38, -194021.6, 13687.265, -0.0022241261, 0.08679284, -188369.42, 30768.775, 0.0, 5.0197506, 5.0368814 
9.9419093e+2, 2.8266275e+2, -179668.67, -147700.77, 15100.99, 0.0055843275, 0.029896084, -141695.48, 28203.826, 0.0, 5.0174565, 5.036896 
9.9394e+2, 2.8767973e+2, -140012.81, -105892.34, 7566.475, 0.029487794, -0.08981976, -104289.695, 16447.248, 0.0, 5.014806, 5.035537 
9.9366474e+2, 2.926951e+2, -79094.695, -56906.473, -12434.382, 0.054047566, -0.21283644, -51336.457, 20253.67, 0.0, 5.019015, 5.034711 
9.933473e+2, 2.9777196e+2, -8315.885, -2403.2341, -15256.419, -0.20449848, 0.28084418, 10180.651, 32019.96, 0.0, 5.027852, 5.0333185 
1.0042693e+3, 1.3239732e+2, -1645740.8, -1651096.8, 367.9519, -0.011299461, 0.014445444, -1645715.5, -3212.2803, 0.0, 5.0220175, 5.0185685 
1.0041148e+3, 1.3741098e+2, -1591579.4, -1599915.5, -296.14536, 0.025438555, -0.005837093, -1591568.9, 1804.6074, 0.0, 5.0239406, 5.0184817 
1.0039583e+3, 1.4242569e+2, -1539600.0, -1551054.1, -515.8263, 0.034270376, -0.0146574285, -1539576.8, 4653.6694, 0.0, 5.0253596, 5.017856 
1.0037983e+3, 1.4743999e+2, -1494603.9, -1511948.0, -271.41003, 0.011720113, -0.012050996, -1494599.6, 488.98337, 0.0, 5.0258174, 5.014412 
1.00364394e+3, 1.5245001e+2, -1449389.0, -1474358.0, 2312.373, -0.0020095392, -0.006758594, -1449176.8, -3188.089, 0.0, 5.02662, 5.010309 
1.00349285e+3, 1.5745822e+2, -1398636.5, -1424849.4, 1313.594, 0.0050168554, -0.005159021, -1398570.9, -1664.5334, 0.0, 5.027337, 5.0102763 
1.0033417e+3, 1.6246627e+2, -1346631.4, -1373792.0, 321.08032, 0.010809816, -0.005257578, -1346627.6, 1198.0166, 0.0, 5.028282, 5.01066 
1.0031899e+3, 1.6747417e+2, -1296131.4, -1324667.9, 721.4815, 0.01607754, -0.011539897, -1296113.3, 2633.7817, 0.0, 5.029026, 5.010461 
1.0030405e+3, 1.7248169e+2, -1249924.9, -1281092.8, 3788.3376, 0.019970166, -0.010829081, -1249471.0, 201.01932, 0.0, 5.0291343, 5.008614 
1.00289196e+3, 1.7748798e+2, -1200824.5, -1232349.5, 4395.134, 0.017366333, -0.012655053, -1200223.3, 385.9319, 0.0, 5.0293083, 5.0085764 
1.0027425e+3, 1.824941e+2, -1151767.9, -1183223.4, 3728.613, 0.006888184, -0.014018241, -1151332.0, 217.36995, 0.0, 5.0293894, 5.008711 
1.0025921e+3, 1.8750061e+2, -1101350.8, -1130883.9, 3097.9644, -0.008160638, -0.019343808, -1101029.3, 1457.4276, 0.0, 5.0294175, 5.0099716 
1.0024432e+3, 1.9250898e+2, -1052518.5, -1081518.0, 3895.9387, -0.008404652, -0.017720055, -1052004.3, 1401.4772, 0.0, 5.0293546, 5.0102396 
1.0022954e+3, 1.975172e+2, -1004728.3, -1033251.1, 4343.688, -0.004108524, -0.01717466, -1004081.5, 244.64502, 0.0, 5.0290728, 5.010236 
1.002147e+3, 2.0252587e+2, -955817.0, -981940.44, 4055.235, -0.0044439905, -0.015290415, -955202.0, 40.034084, 0.0, 5.0286527, 5.0113583 
1.0019965e+3, 2.0753592e+2, -906423.06, -928655.6, 3183.879, -0.008904079, -0.0153995035, -905976.06, 168.4547, 0.0, 5.028028, 5.0133 
1.00184284e+3, 2.1254918e+2, -855374.7, -872841.4, 2655.7893, -0.01208333, -0.0093665905, -854979.8, 2035.8514, 0.0, 5.0275025, 5.016163 
1.001688e+3, 2.1756338e+2, -808829.0, -824997.9, 4714.0757, -0.017143562, -0.0056356112, -807554.94, 322.78503, 0.0, 5.0267963, 5.016197 
1.0015327e+3, 2.2257802e+2, -760108.1, -773438.8, 5565.3394, -0.022716977, -0.0013156905, -758090.1, 644.3966, 0.0, 5.0263047, 5.0174465 
1.00137435e+3, 2.2759418e+2, -709988.25, -718883.94, 4840.6963, -0.028014349, -0.0012325468, -707862.2, 1713.739, 0.0, 5.0258474, 5.0197654 
1.00121066e+3, 2.3261434e+2, -655170.0, -656462.7, 703.1326, -0.017100522, 0.0037354266, -654861.3, 5516.8633, 0.0, 5.0256453, 5.024978 
1.0010423e+3, 2.3763637e+2, -608571.44, -608252.0, 4579.158, -0.010291304, 0.003731485, -603829.75, 7332.3833, 0.0, 5.0250015, 5.0250826 
1.0008723e+3, 2.426592e+2, -562649.5, -558161.9, 5697.7485, -0.008683853, 0.009577019, -554282.06, 7657.446, 0.0, 5.0236483, 5.02619 
1.000698e+3, 2.4768454e+2, -515066.5, -503783.7, 6400.5693, -0.006364491, 0.02281892, -500893.25, 11800.336, 0.0, 5.0220957, 5.028942 
1.00051165e+3, 2.5271484e+2, -460418.63, -439260.7, -3980.1245, 0.0003633747, 0.03294075, -438536.75, 24862.256, 0.0, 5.0210214, 5.0355415 
1.0003162e+3, 2.5774762e+2, -416901.13, -391918.06, 2277.0005, 0.009628805, 0.037810747, -391712.22, 22367.875, 0.0, 5.019286, 5.035745 
1.0001167e+3, 2.6277566e+2, -369884.2, -339070.4, 5206.6626, -0.003003268, -0.010310354, -338214.4, 26589.275, 0.0, 5.0180473, 5.0377326 
9.999104e+2, 2.6780522e+2, -321837.13, -286806.25, 6975.619, -0.021282818, -0.063462876, -285468.3, 30041.363, 0.0, 5.0171824, 5.0395374 
9.9968344e+2, 2.7284133e+2, -260014.56, -223740.33, -9618.293, -0.032085404, -0.07090796, -221347.8, 44803.383, 0.0, 5.0193353, 5.0446806 
9.994399e+2, 2.7788097e+2, -212805.77, -174061.8, 54.773052, -0.05137127, -0.06682112, -174061.72, 42696.684, 0.0, 5.019019, 5.045039 
9.991954e+2, 2.8292745e+2, -168235.75, -129789.4, 2726.4182, -0.06709713, 0.016292898, -129597.016, 37704.93, 0.0, 5.0185337, 5.043432 
9.989449e+2, 2.8796542e+2, -119691.64, -84491.32, -1191.1665, -0.004510773, 0.033886533, -84451.06, 33481.66, 0.0, 5.0194874, 5.041708 
9.986756e+2, 2.9299214e+2, -69130.29, -55907.555, -7369.1963, 0.05766894, -0.010934671, -52618.656, 16055.947, 0.0, 5.0236616, 5.0328197 
9.9838364e+2, 2.980301e+2, -13407.573, -27496.303, 16891.33, -0.04746836, 0.09934491, -2150.568, 17156.426, 0.0, 5.0308356, 5.022261 
