coord_x,coord_y,stress_xx,stress_yy,tau_xy,velocity_x,velocity_y,stress_1,eps,damage,lx,ly
2.507021e+0, 1.215075e+2, -1710798.9, -1747023.3, 442.14438, -0.00049243256, -0.10572153, -1710793.5, 38442.125, 0.0, 5.014135, 4.9905405 
2.5069052e+0, 1.2651719e+2, -1668361.1, -1711043.6, 378.26022, -0.0013034679, 0.12572677, -1668357.8, 31778.527, 0.0, 5.0140676, 4.9863067 
2.506925e+0, 1.3149677e+2, -1619600.8, -1662162.4, 302.85254, -0.0007083073, 0.057607643, -1619598.5, 31736.742, 0.0, 5.01399, 4.9863067 
2.5069445e+0, 1.3647632e+2, -1573047.6, -1617817.6, 227.73112, -0.00012262589, -0.009261846, -1573046.5, 29488.033, 0.0, 5.013912, 4.9848022 
2.5069547e+0, 1.4145564e+2, -1530757.0, -1582349.8, 182.50467, 0.00027745284, -0.036554933, -1530756.4, 22979.451, 0.0, 5.0138526, 4.980265 
2.506948e+0, 1.4643745e+2, -1481489.5, -1532724.0, 138.82465, 0.0003511731, -0.025640843, -1481489.1, 23423.588, 0.0, 5.0138245, 4.9804645 
2.506941e+0, 1.5141937e+2, -1432514.0, -1483706.6, 91.60335, 0.0004154124, -0.013837117, -1432513.9, 23574.5, 0.0, 5.013797, 4.9804645 
2.5069338e+0, 1.5640129e+2, -1384966.9, -1437665.9, 44.501762, 0.00047657083, -0.0015821642, -1384966.9, 22297.236, 0.0, 5.0137696, 4.97947 
2.5069246e+0, 1.6137877e+2, -1344458.0, -1406383.8, 12.902966, 0.0004958348, 0.010217214, -1344458.0, 14025.066, 0.0, 5.013747, 4.9735327 
2.5069132e+0, 1.6635178e+2, -1295324.1, -1357173.1, -11.887295, 0.00045431912, 0.0021592027, -1295324.1, 14421.13, 0.0, 5.013733, 4.973567 
2.5069016e+0, 1.7132476e+2, -1246238.3, -1308066.3, -38.152355, 0.0004076534, -0.0063879676, -1246238.3, 14769.62, 0.0, 5.0137196, 4.973567 
2.50689e+0, 1.7629774e+2, -1198288.4, -1261363.6, -64.1521, 0.00035611697, -0.014543258, -1198288.4, 13981.983, 0.0, 5.013706, 4.9727597 
2.5068754e+0, 1.812672e+2, -1158571.6, -1232159.5, -65.57161, 0.00026042332, -0.012338487, -1158571.5, 4996.618, 0.0, 5.0136957, 4.966038 
2.5068608e+0, 1.8623337e+2, -1109269.4, -1182713.4, -34.159225, 0.00014358829, -0.014452193, -1109269.4, 5630.5117, 0.0, 5.01369, 4.966122 
2.5068468e+0, 1.9119953e+2, -1060084.1, -1133520.1, -3.2125897, 0.000023979777, -0.016834775, -1060084.1, 6147.4917, 0.0, 5.0136847, 4.9661226 
2.5068322e+0, 1.9616568e+2, -1011790.44, -1086243.5, 28.267876, -0.00010441763, -0.018895853, -1011790.44, 5773.004, 0.0, 5.0136795, 4.965472 
2.5068206e+0, 2.0112835e+2, -971936.4, -1057116.4, 46.22734, -0.00015430388, -0.011785068, -971936.4, -3005.7092, 0.0, 5.0136647, 4.958633 
2.506823e+0, 2.0608771e+2, -922514.06, -1007274.56, 28.82275, 0.00012800368, -0.009189994, -922514.0, -2181.1465, 0.0, 5.0136147, 4.9588466 
2.5068265e+0, 2.110471e+2, -873391.94, -958072.1, 12.472291, 0.00042846004, -0.006843188, -873391.94, -1656.8818, 0.0, 5.013562, 4.9588466 
2.50683e+0, 2.1600649e+2, -824934.7, -910324.06, -3.4840024, 0.0007189652, -0.004364952, -824934.7, -1797.3936, 0.0, 5.01351, 4.9583473 
2.5068158e+0, 2.2096238e+2, -784403.3, -879809.2, -62.579155, 0.0009651123, 0.0052644247, -784403.3, -9830.986, 0.0, 5.013431, 4.9519253 
2.5067577e+0, 2.2591464e+2, -734607.3, -828617.8, -200.83232, 0.0012434886, -0.0009832673, -734606.94, -8568.812, 0.0, 5.013258, 4.9526315 
2.506697e+0, 2.3086691e+2, -685774.8, -779513.8, -335.08655, 0.0015161912, -0.008348422, -685773.6, -8270.08, 0.0, 5.0130777, 4.952632 
2.5066358e+0, 2.3581919e+2, -637588.06, -731852.5, -468.78223, 0.0017679543, -0.015687698, -637585.7, -8616.645, 0.0, 5.012898, 4.9521303 
2.506556e+0, 2.4076836e+2, -599320.9, -706154.25, -552.1921, 0.0019701323, -0.0049328543, -599318.0, -18851.26, 0.0, 5.01269, 4.94401 
2.506489e+0, 2.4571475e+2, -550186.56, -656344.25, -441.80692, 0.0023329165, 0.013047884, -550184.75, -18186.559, 0.0, 5.012475, 4.944226 
2.5064284e+0, 2.5066105e+2, -501306.44, -607164.56, -330.58295, 0.002702538, 0.029737968, -501305.4, -17774.467, 0.0, 5.012267, 4.9442263 
2.5063658e+0, 2.5560737e+2, -452667.06, -558546.1, -217.17934, 0.0030339032, 0.046473186, -452666.63, -17602.99, 0.0, 5.0120583, 4.9440284 
2.5063676e+0, 2.6054823e+2, -411509.8, -526586.4, -214.7208, 0.0042387135, 0.054491494, -411509.4, -24868.148, 0.0, 5.0117855, 4.937932 
2.5064227e+0, 2.65483e+2, -358885.38, -466292.13, -864.60425, 0.008118861, -0.025131203, -358878.44, -20632.53, 0.0, 5.01101, 4.9418945 
2.5064486e+0, 2.70418e+2, -311597.25, -417828.9, -1546.3434, 0.0118517345, -0.11203262, -311574.75, -21729.998, 0.0, 5.010159, 4.9418974 
2.506464e+0, 2.7535295e+2, -264312.84, -369482.78, -2228.7249, 0.015278657, -0.19920996, -264265.63, -22821.89, 0.0, 5.009307, 4.941853 
2.5065264e+0, 2.802874e+2, -244687.1, -390577.22, -1187.73, 0.013691436, -0.16619468, -244677.42, -51617.21, 0.0, 5.009606, 4.916979 
2.5067466e+0, 2.852178e+2, -187472.33, -329866.7, -729.31665, 0.010211809, -0.061409105, -187468.6, -42693.3, 0.0, 5.0109115, 4.920088 
2.5069767e+0, 2.9014492e+2, -135766.48, -279283.1, -483.96674, 0.009388288, -0.012628119, -135764.86, -39234.82, 0.0, 5.0116887, 4.920085 
2.5072008e+0, 2.9507205e+2, -84017.19, -228707.45, -246.06616, 0.00827547, 0.03591777, -84016.766, -35731.813, 0.0, 5.012465, 4.9200826 
2.5075182e+0, 3.0001464e+2, -12601.427, -99199.555, -77.70756, 0.0072868774, 0.08875465, -12601.356, -12601.356, 0.0, 5.0133348, 4.9575334 
2.5079435e+0, 3.0497593e+2, 5543.407, -60002.707, -1133.7631, 0.007795326, -0.02584984, 5563.012, 5563.012, 0.0, 5.0139327, 4.970842 
2.508286e+0, 3.0993798e+2, 7038.3325, -59318.17, -2116.9216, 0.0077171694, -0.18284371, 7105.799, 7105.799, 0.0, 5.0143843, 4.970889 
2.508604e+0, 3.149001e+2, 8636.238, -58637.07, -2961.2795, 0.0069605187, -0.3396018, 8766.338, 8766.338, 0.0, 5.01484, 4.970936 
7.521055e+0, 1.2151031e+2, -1710564.1, -1746542.8, 407.76266, -0.0015842587, -0.08362525, -1710559.5, 38647.8, 0.0, 5.014134, 4.990699 
7.520714e+0, 1.265155e+2, -1668503.3, -1711330.6, 318.3411, -0.0039303503, 0.10346832, -1668500.9, 31651.232, 0.0, 5.014067, 4.9862127 
7.5207734e+0, 1.3149618e+2, -1619739.9, -1662447.5, 243.8165, -0.0021432661, 0.047324345, -1619738.5, 31602.295, 0.0, 5.01399, 4.9862123 
7.5208324e+0, 1.3647681e+2, -1573185.1, -1618101.8, 169.67328, -0.00038461908, -0.00757418, -1573184.5, 29345.18, 0.0, 5.0139127, 4.9847083 
7.520864e+0, 1.4145677e+2, -1530842.3, -1582524.6, 153.57364, 0.0008322137, -0.02776581, -1530841.8, 22883.31, 0.0, 5.013852, 4.9802074 
7.520844e+0, 1.4643823e+2, -1481575.9, -1532901.3, 117.37966, 0.0010543857, -0.019726083, -1481575.6, 23329.752, 0.0, 5.013824, 4.9804063 
7.520822e+0, 1.5141979e+2, -1432600.0, -1483883.0, 71.10012, 0.0012439269, -0.0110927485, -1432600.0, 23484.809, 0.0, 5.0137963, 4.9804063 
7.520801e+0, 1.5640132e+2, -1385053.0, -1437841.8, 24.939678, 0.0014242257, -0.0020078474, -1385053.0, 22211.295, 0.0, 5.0137687, 4.9794116 
7.5207746e+0, 1.6137853e+2, -1344499.4, -1406467.9, 0.48665595, 0.0014889664, 0.007656375, -1344499.4, 13986.37, 0.0, 5.0137463, 4.973505 
7.52074e+0, 1.6635156e+2, -1295369.4, -1357266.8, -21.673735, 0.0013609363, 0.00012642119, -1295369.4, 14378.323, 0.0, 5.013733, 4.9735365 
7.520705e+0, 1.7132458e+2, -1246282.9, -1308158.8, -46.870533, 0.0012147562, -0.007759025, -1246282.9, 14727.06, 0.0, 5.0137196, 4.973537 
7.5206697e+0, 1.7629759e+2, -1198333.0, -1261455.3, -71.91935, 0.0010539639, -0.015250704, -1198333.0, 13939.104, 0.0, 5.0137057, 4.9727297 
7.520627e+0, 1.8126707e+2, -1158518.8, -1232046.1, -70.72488, 0.00078312645, -0.012775404, -1158518.6, 5050.8525, 0.0, 5.0136952, 4.966077 
7.520583e+0, 1.862333e+2, -1109211.1, -1182588.3, -36.54329, 0.00042970004, -0.0147946505, -1109211.1, 5689.473, 0.0, 5.01369, 4.966165 
7.520539e+0, 1.911995e+2, -1060026.9, -1133394.4, -4.031002, 0.000061086874, -0.017011508, -1060026.9, 6204.8, 0.0, 5.0136843, 4.966166 
7.5204957e+0, 1.9616573e+2, -1011735.2, -1086117.5, 28.85016, -0.00033389305, -0.018905232, -1011735.2, 5827.589, 0.0, 5.013678, 4.965516 
7.520462e+0, 2.0112842e+2, -971912.6, -1057057.1, 17.715988, -0.00046413505, -0.011771859, -971912.6, -2983.1213, 0.0, 5.0136633, 4.958654 
7.5204694e+0, 2.0608781e+2, -922540.25, -1007325.06, -11.492728, 0.00038265807, -0.008780851, -922540.25, -2208.6487, 0.0, 5.0136137, 4.9588304 
7.5204796e+0, 2.1104725e+2, -873417.8, -958121.56, -25.742966, 0.0012740935, -0.005925704, -873417.8, -1684.1725, 0.0, 5.0135612, 4.958831 
7.5204885e+0, 2.1600665e+2, -824961.4, -910373.0, -39.76281, 0.0021356752, -0.0029317206, -824961.4, -1825.652, 0.0, 5.0135083, 4.9583316 
7.520447e+0, 2.2096254e+2, -784519.44, -880048.06, -163.42097, 0.002888308, 0.0071366765, -784519.1, -9948.225, 0.0, 5.013428, 4.951845 
7.520272e+0, 2.2591479e+2, -734823.7, -829075.3, -329.0047, 0.0037132974, 0.0022550947, -734822.5, -8784.659, 0.0, 5.013255, 4.952477 
7.5200886e+0, 2.3086704e+2, -685990.8, -779968.44, -460.42065, 0.0045114416, -0.0035493718, -685988.56, -8484.085, 0.0, 5.013074, 4.9524775 
7.519904e+0, 2.3581931e+2, -637806.25, -732305.5, -591.77795, 0.0052467654, -0.009333362, -637802.56, -8831.464, 0.0, 5.0128922, 4.951977 
7.519673e+0, 2.4076833e+2, -599213.3, -705892.4, -726.2475, 0.0058758785, 0.0005472597, -599208.4, -18737.568, 0.0, 5.012686, 4.9441004 
7.519468e+0, 2.457144e+2, -550024.5, -655926.56, -614.74634, 0.0069606244, 0.013909828, -550020.94, -18016.625, 0.0, 5.0124655, 4.9443727 
7.519278e+0, 2.5066042e+2, -501173.0, -606756.6, -498.4815, 0.008047138, 0.026331987, -501170.66, -17631.957, 0.0, 5.012248, 4.9443746 
7.519081e+0, 2.5560647e+2, -452567.75, -558150.3, -380.3273, 0.009018885, 0.038892183, -452566.38, -17493.459, 0.0, 5.012027, 4.944178 
7.519065e+0, 2.6054752e+2, -411776.47, -526911.3, -511.1773, 0.012497347, 0.047131114, -411774.2, -25125.443, 0.0, 5.011736, 4.937848 
7.519223e+0, 2.6548305e+2, -359848.88, -468154.16, -1289.6985, 0.023829192, -0.017417744, -359833.5, -21583.947, 0.0, 5.0109496, 4.941298 
7.5193036e+0, 2.704188e+2, -312576.94, -419676.28, -1973.1981, 0.034746468, -0.08861684, -312540.6, -22694.723, 0.0, 5.0100813, 4.941307 
7.519354e+0, 2.7535447e+2, -265337.0, -371328.03, -2673.8396, 0.044745773, -0.16064379, -265269.6, -23826.936, 0.0, 5.009202, 4.941269 
7.519528e+0, 2.8028834e+2, -243798.48, -386888.22, -275.44772, 0.041081134, -0.13554977, -243797.95, -50730.313, 0.0, 5.0093255, 4.9183793 
7.520199e+0, 2.8521705e+2, -187929.7, -328787.13, -199.53178, 0.031571183, -0.05490967, -187929.42, -43135.656, 0.0, 5.0105896, 4.9206157 
7.5209135e+0, 2.9014307e+2, -135982.56, -278114.8, 177.20511, 0.02898116, -0.019083949, -135982.34, -39429.414, 0.0, 5.0114493, 4.9206085 
7.521608e+0, 2.95069e+2, -84041.04, -227472.94, 525.101, 0.025523273, 0.016036484, -84039.12, -35726.465, 0.0, 5.012291, 4.920601 
7.522532e+0, 3.0001143e+2, -12347.87, -97395.57, 774.88135, 0.022263605, 0.06139702, -12340.811, -12340.811, 0.0, 5.013171, 4.958246 
7.523642e+0, 3.0497354e+2, 3859.3032, -62033.207, -394.41702, 0.022704532, -0.034410417, 3861.664, 3861.664, 0.0, 5.0136647, 4.9703155 
7.524511e+0, 3.0993608e+2, 5065.542, -61175.43, -1338.1647, 0.021342497, -0.16933335, 5092.564, 5092.564, 0.0, 5.013987, 4.970456 
7.5253075e+0, 3.1489885e+2, 6304.9795, -60351.33, -2170.0295, 0.017945156, -0.30354923, 6375.5513, 6375.5513, 0.0, 5.0142884, 4.9705963 
1.2535076e+1, 1.21513076e+2, -1710293.4, -1745996.0, 372.61804, -0.0028182035, -0.061940458, -1710289.5, 38890.02, 0.0, 5.014135, 4.9908776 
1.253452e+1, 1.2651381e+2, -1668643.5, -1711616.0, 257.4242, -0.006583826, 0.08126145, -1668642.0, 31525.984, 0.0, 5.014067, 4.9861183 
1.253462e+1, 1.3149558e+2, -1619878.6, -1662731.9, 184.47478, -0.0036026826, 0.037071582, -1619877.9, 31468.363, 0.0, 5.0139904, 4.9861183 
1.253472e+1, 1.3647732e+2, -1573322.5, -1618385.1, 111.9251, -0.00066893315, -0.005877021, -1573322.3, 29202.504, 0.0, 5.013913, 4.984614 
1.2534773e+1, 1.414579e+2, -1530932.3, -1582710.5, 124.083, 0.0013867813, -0.018946225, -1530931.9, 22782.4, 0.0, 5.0138526, 4.980146 
1.253474e+1, 1.4643903e+2, -1481661.5, -1533078.0, 96.34651, 0.0017587534, -0.013788213, -1481661.3, 23236.738, 0.0, 5.013824, 4.9803476 
1.2534705e+1, 1.5142018e+2, -1432684.9, -1484058.6, 50.939034, 0.0020693613, -0.008343869, -1432684.8, 23396.352, 0.0, 5.0137963, 4.980348 
1.2534668e+1, 1.5640134e+2, -1385137.0, -1438016.4, 5.6553526, 0.002364565, -0.0024476175, -1385137.0, 22127.355, 0.0, 5.0137687, 4.979353 
1.2534624e+1, 1.6137831e+2, -1344544.0, -1406562.9, -11.589951, 0.0024840478, 0.00512295, -1344544.0, 13944.355, 0.0, 5.0137467, 4.9734735 
1.2534566e+1, 1.6635136e+2, -1295412.9, -1357359.3, -31.61144, 0.0022648587, -0.001880581, -1295412.9, 14337.259, 0.0, 5.0137334, 4.9735055 
1.2534508e+1, 1.713244e+2, -1246325.9, -1308250.3, -55.76962, 0.00201092, -0.009124066, -1246325.9, 14686.108, 0.0, 5.0137196, 4.973506 
1.2534447e+1, 1.7629744e+2, -1198375.6, -1261545.6, -79.77751, 0.0017326281, -0.015971899, -1198375.5, 13898.242, 0.0, 5.013706, 4.972699 
1.253438e+1, 1.8126695e+2, -1158470.5, -1231946.3, -75.89778, 0.0013083045, -0.013173041, -1158470.4, 5100.45, 0.0, 5.0136957, 4.96611 
1.2534305e+1, 1.8623322e+2, -1109151.0, -1182461.8, -39.197746, 0.00071439164, -0.015100711, -1109151.0, 5750.256, 0.0, 5.0136905, 4.966208 
1.2534232e+1, 1.9119948e+2, -1059967.1, -1133266.9, -5.0032034, 0.00008372382, -0.01718102, -1059967.1, 6264.6157, 0.0, 5.0136847, 4.966209 
1.2534156e+1, 1.9616576e+2, -1011675.7, -1085989.0, 29.561499, -0.0005908886, -0.018936563, -1011675.7, 5886.442, 0.0, 5.0136786, 4.9655595 
1.2534104e+1, 2.0112851e+2, -971893.94, -1057018.6, -10.086561, -0.00077559677, -0.011703177, -971893.94, -2965.661, 0.0, 5.013664, 4.958667 
1.2534116e+1, 2.0608793e+2, -922562.0, -1007372.9, -51.36624, 0.0006355104, -0.008310972, -922562.0, -2231.7625, 0.0, 5.013614, 4.958814 
1.2534133e+1, 2.1104738e+2, -873439.6, -958168.5, -63.57055, 0.0021046798, -0.004985899, -873439.56, -1707.3661, 0.0, 5.0135612, 4.9588146 
1.2534146e+1, 2.1600682e+2, -824983.1, -910419.06, -75.539604, 0.0035240927, -0.0015145828, -824983.06, -1848.9443, 0.0, 5.0135083, 4.958316 
1.2534076e+1, 2.2096272e+2, -784643.75, -880314.6, -264.47113, 0.0048021325, 0.009065942, -784643.0, -10073.489, 0.0, 5.0134277, 4.951754 
1.2533785e+1, 2.2591497e+2, -735033.6, -829528.1, -456.3176, 0.006160217, 0.0055432334, -735031.4, -8993.836, 0.0, 5.0132546, 4.9523215 
1.2533478e+1, 2.308672e+2, -686197.25, -780416.94, -583.76514, 0.0074571827, 0.001235566, -686193.7, -8688.323, 0.0, 5.013074, 4.952323 
1.2533168e+1, 2.3581943e+2, -638009.3, -732749.8, -711.13794, 0.008649448, -0.003057027, -638004.0, -9030.859, 0.0, 5.0128927, 4.9518223 
1.2532797e+1, 2.4076831e+2, -599106.3, -705664.5, -885.45386, 0.009735607, 0.006154574, -599098.94, -18624.238, 0.0, 5.0126905, 4.9441743 
1.253245e+1, 2.4571407e+2, -549835.7, -655488.5, -781.23096, 0.01153751, 0.014963084, -549829.9, -17819.588, 0.0, 5.0124674, 4.944519 
1.2532118e+1, 2.506598e+2, -500999.28, -606322.2, -658.24304, 0.013311116, 0.023029989, -500995.2, -17448.854, 0.0, 5.0122447, 4.944522 
1.2531775e+1, 2.5560555e+2, -452409.1, -557719.44, -533.35724, 0.014893445, 0.03132782, -452406.4, -17324.287, 0.0, 5.0120187, 4.9443264 
1.2531711e+1, 2.605467e+2, -412017.13, -527310.5, -802.27386, 0.020464221, 0.03969769, -412011.53, -25355.072, 0.0, 5.01172, 4.937717 
1.2531964e+1, 2.6548308e+2, -360668.44, -469926.53, -1675.5538, 0.038836177, -0.0102063175, -360642.75, -22389.043, 0.0, 5.010947, 4.9406943 
1.2532103e+1, 2.7041954e+2, -313314.13, -421389.97, -2315.1084, 0.0565627, -0.066210404, -313264.56, -23416.91, 0.0, 5.0100975, 4.9407096 
1.2532192e+1, 2.7535588e+2, -265992.22, -372983.56, -2971.774, 0.07275911, -0.12359444, -265909.75, -24467.367, 0.0, 5.009237, 4.940677 
1.2532464e+1, 2.8028926e+2, -242571.17, -383486.3, 625.2495, 0.06848006, -0.10459974, -242568.4, -49493.484, 0.0, 5.009255, 4.9195848 
1.2533598e+1, 2.8521633e+2, -187921.64, -327460.3, 546.08746, 0.05417844, -0.047304135, -187919.52, -43107.832, 0.0, 5.0104465, 4.921136 
1.2534827e+1, 2.9014117e+2, -135889.86, -276769.84, 981.3681, 0.04966262, -0.025540868, -135883.02, -39307.19, 0.0, 5.0113325, 4.921124 
1.2536024e+1, 2.950659e+2, -83864.21, -226110.2, 1387.7968, 0.043700464, -0.004952878, -83850.67, -35509.76, 0.0, 5.012201, 4.9211116 
1.2537514e+1, 3.0000812e+2, -12190.128, -96058.64, 1595.4894, 0.037777837, 0.033412367, -12159.787, -12159.787, 0.0, 5.013072, 4.9587483 
1.2539089e+1, 3.04971e+2, 2384.0256, -63927.84, 327.00226, 0.036706343, -0.04417787, 2385.6382, 2385.6382, 0.0, 5.0134864, 4.9697676 
1.2540275e+1, 3.0993393e+2, 3457.8584, -62829.195, -491.7816, 0.03255789, -0.15962166, 3461.5068, 3461.5068, 0.0, 5.013738, 4.970001 
1.254134e+1, 3.1489727e+2, 4565.011, -61764.32, -1198.5774, 0.02501782, -0.27388844, 4586.6626, 4586.6626, 0.0, 5.0139685, 4.9702353 
1.7549086e+1, 1.21515796e+2, -1710079.9, -1745429.1, 336.29178, -0.0041882484, -0.040653646, -1710076.8, 39075.418, 0.0, 5.014107, 4.9910774 
1.7548324e+1, 1.2651211e+2, -1668825.8, -1711921.3, 194.35524, -0.009261207, 0.059105, -1668824.8, 31358.924, 0.0, 5.014054, 4.986024 
1.7548466e+1, 1.3149498e+2, -1620033.1, -1663023.1, 123.02769, -0.0050856266, 0.02684883, -1620032.8, 31318.953, 0.0, 5.0139856, 4.986024 
1.7548604e+1, 1.3647783e+2, -1573468.3, -1618671.9, 52.008766, -0.0009752481, -0.004170346, -1573468.3, 29051.637, 0.0, 5.0139112, 4.9845195 
1.7548683e+1, 1.4145905e+2, -1531038.9, -1582913.0, 91.744774, 0.0019416251, -0.0100959, -1531038.8, 22664.771, 0.0, 5.013849, 4.9800806 
1.7548637e+1, 1.464398e+2, -1481755.8, -1533258.6, 74.82104, 0.0024647668, -0.007827118, -1481755.6, 23135.076, 0.0, 5.013821, 4.980289 
1.7548586e+1, 1.514206e+2, -1432784.0, -1484241.0, 31.185055, 0.002892679, -0.0055905255, -1432784.0, 23293.498, 0.0, 5.013792, 4.9802895 
1.7548534e+1, 1.5640137e+2, -1385249.9, -1438204.8, -12.750275, 0.0032994978, -0.0029016784, -1385249.9, 22014.598, 0.0, 5.013759, 4.979295 
1.7548475e+1, 1.6137809e+2, -1344629.5, -1406686.8, -22.460695, 0.0034834568, 0.002616662, -1344629.4, 13861.5205, 0.0, 5.0137353, 4.973438 
1.7548396e+1, 1.6635115e+2, -1295472.8, -1357459.5, -40.979057, 0.003167505, -0.0038619637, -1295472.8, 14279.733, 0.0, 5.013728, 4.9734745 
1.7548311e+1, 1.7132424e+2, -1246381.1, -1308347.3, -64.84837, 0.002797381, -0.010483127, -1246381.1, 14632.89, 0.0, 5.0137157, 4.9734755 
1.7548226e+1, 1.762973e+2, -1198441.9, -1261647.1, -89.00166, 0.0023940082, -0.01670675, -1198441.8, 13833.743, 0.0, 5.013698, 4.9726686 
1.7548133e+1, 1.8126684e+2, -1158462.0, -1231876.4, -83.44603, 0.0018383865, -0.013531248, -1158461.9, 5110.28, 0.0, 5.013685, 4.966139 
1.7548029e+1, 1.8623315e+2, -1109109.9, -1182343.6, -44.539173, 0.0009994283, -0.0153703755, -1109109.8, 5792.158, 0.0, 5.0136847, 4.9662504 
1.7547923e+1, 1.9119948e+2, -1059933.6, -1133151.3, -8.875994, 0.00009431587, -0.017343545, -1059933.6, 6298.142, 0.0, 5.013676, 4.966252 
1.7547818e+1, 1.961658e+2, -1011672.75, -1085886.6, 27.000925, -0.00087090675, -0.0189904, -1011672.7, 5888.688, 0.0, 5.0136595, 4.965603 
1.7547749e+1, 2.011286e+2, -971967.3, -1057041.9, -41.007576, -0.001082611, -0.011579806, -971967.25, -3040.2813, 0.0, 5.013636, 4.9586716 
1.7547765e+1, 2.0608804e+2, -922639.44, -1007446.3, -94.15136, 0.00089069817, -0.007781017, -922639.4, -2310.5205, 0.0, 5.0135956, 4.9587975 
1.7547783e+1, 2.1104752e+2, -873517.1, -958240.94, -103.70862, 0.0029238772, -0.004024408, -873517.0, -1786.3215, 0.0, 5.0135427, 4.9587984 
1.75478e+1, 2.16007e+2, -825089.9, -910504.2, -112.67616, 0.004889105, -0.00011427066, -825089.7, -1957.2488, 0.0, 5.013479, 4.9582996 
1.7547704e+1, 2.2096293e+2, -784892.75, -880663.1, -366.4806, 0.006712803, 0.01105119, -784891.3, -10323.288, 0.0, 5.013389, 4.9516516 
1.7547296e+1, 2.2591513e+2, -735316.2, -830012.94, -581.6839, 0.008589308, 0.008879018, -735312.6, -9275.386, 0.0, 5.0132294, 4.952166 
1.7546864e+1, 2.3086734e+2, -686475.56, -780896.8, -699.7498, 0.010359974, 0.0060021537, -686470.4, -8964.22, 0.0, 5.0130496, 4.9521675 
1.7546429e+1, 2.3581956e+2, -638326.5, -733244.75, -814.7772, 0.011986992, 0.0031339745, -638319.5, -9344.322, 0.0, 5.0128536, 4.951668 
1.754593e+1, 2.4076831e+2, -599188.3, -705557.3, -1011.84375, 0.013565809, 0.011879101, -599178.7, -18700.176, 0.0, 5.012637, 4.9442306 
1.7545435e+1, 2.4571374e+2, -549792.4, -655109.44, -930.8229, 0.016082877, 0.016200956, -549784.1, -17768.02, 0.0, 5.01242, 4.944664 
1.754495e+1, 2.5065917e+2, -500980.66, -605951.1, -812.55273, 0.018520823, 0.01983158, -500974.34, -17420.543, 0.0, 5.0121894, 4.9446683 
1.7544451e+1, 2.5560465e+2, -452457.1, -557375.25, -696.64325, 0.020695679, 0.023788534, -452452.47, -17361.314, 0.0, 5.01194, 4.944474 
1.754431e+1, 2.6054594e+2, -412678.5, -527986.8, -1123.283, 0.028197164, 0.032202933, -412667.56, -26003.168, 0.0, 5.0115795, 4.937538 
1.7544651e+1, 2.6548302e+2, -362411.94, -472089.8, -2011.8845, 0.053245094, -0.0035263484, -362375.03, -24116.66, 0.0, 5.010621, 4.940084 
1.7544857e+1, 2.7042016e+2, -315860.28, -423889.6, -2445.391, 0.077478595, -0.044913277, -315804.94, -25954.793, 0.0, 5.009471, 4.9401054 
1.7544994e+1, 2.753572e+2, -269646.5, -375953.44, -2812.3164, 0.099593334, -0.08825829, -269572.16, -28129.125, 0.0, 5.008198, 4.9400797 
1.7545348e+1, 2.802902e+2, -245612.95, -382435.9, 1984.6237, 0.09624652, -0.07362167, -245584.17, -52501.96, 0.0, 5.00774, 4.920595 
1.7546958e+1, 2.852157e+2, -190892.67, -327422.97, 1863.4524, 0.0783107, -0.03876489, -190867.25, -46038.12, 0.0, 5.0092416, 4.9216475 
1.754873e+1, 2.9013932e+2, -137732.86, -276243.63, 2167.4338, 0.07162721, -0.03206351, -137698.95, -41100.21, 0.0, 5.010528, 4.9216304 
1.7550457e+1, 2.9506278e+2, -84922.61, -225251.55, 2472.4592, 0.06294262, -0.027032582, -84879.06, -36509.367, 0.0, 5.011675, 4.9216137 
1.7552471e+1, 3.0000475e+2, -13228.34, -95655.39, 2487.0173, 0.053934917, 0.004847971, -13153.369, -13153.369, 0.0, 5.0126333, 4.959042 
1.755429e+1, 3.049684e+2, -765.25726, -66473.484, 1703.7783, 0.049940728, -0.055232488, -721.1089, -721.1089, 0.0, 5.0127, 4.9692073 
1.7555588e+1, 3.0993158e+2, -1281.5791, -65755.055, 2102.996, 0.041593783, -0.15392274, -1213.0563, -1213.0563, 0.0, 5.012339, 4.9695387 
1.7556717e+1, 3.148954e+2, -2413.8174, -65352.793, 3006.0222, 0.028551186, -0.25094512, -2270.573, -2270.573, 0.0, 5.011717, 4.9698696 
2.2563213e+1, 1.21518746e+2, -1710367.0, -1744944.1, 240.30412, -0.0027868808, -0.016398015, -1710365.4, 38757.508, 0.0, 5.01388, 4.9913473 
2.256234e+1, 1.2651e+2, -1669475.6, -1712468.5, 83.34788, -0.008784774, 0.03337405, -1669475.4, 30728.479, 0.0, 5.0138893, 4.9859233 
2.2562386e+1, 1.3149413e+2, -1620444.6, -1663453.1, -2.0137167, -0.0053111897, 0.0148809515, -1620444.6, 30915.27, 0.0, 5.0139, 4.985923 
2.2562434e+1, 1.3647826e+2, -1573624.3, -1618976.9, -87.516815, -0.0018193851, -0.0023854862, -1573624.1, 28891.908, 0.0, 5.01391, 4.9844184 
2.2562456e+1, 1.4146024e+2, -1530859.4, -1582878.5, -14.237208, 0.0008218374, -0.00006753812, -1530859.4, 22833.24, 0.0, 5.0139213, 4.980057 
2.256243e+1, 1.4644064e+2, -1481433.5, -1533111.6, 51.533398, 0.0016172907, -0.0011749993, -1481433.4, 23449.424, 0.0, 5.013932, 4.9802837 
2.2562401e+1, 1.5142106e+2, -1432343.8, -1484038.3, 85.71657, 0.002365034, -0.0026912796, -1432343.6, 23729.56, 0.0, 5.0139427, 4.9802837 
2.256237e+1, 1.5640146e+2, -1384683.6, -1437942.4, 119.89771, 0.0031261123, -0.0037561832, -1384683.4, 22580.29, 0.0, 5.013953, 4.979289 
2.2562341e+1, 1.6137794e+2, -1344010.5, -1406487.1, 167.79376, 0.0036587417, -0.00045931572, -1344010.1, 14482.293, 0.0, 5.013966, 4.9733944 
2.2562292e+1, 1.6635107e+2, -1294814.5, -1357267.0, 115.37338, 0.0036094598, -0.005782366, -1294814.3, 14939.203, 0.0, 5.013978, 4.97342 
2.256224e+1, 1.7132421e+2, -1245655.5, -1308124.5, 52.461773, 0.0035623668, -0.011128533, -1245655.5, 15359.078, 0.0, 5.0139894, 4.9734206 
2.2562191e+1, 1.7629735e+2, -1197633.6, -1261386.8, -10.717501, 0.003545674, -0.016078949, -1197633.6, 14641.92, 0.0, 5.014001, 4.972614 
2.2562115e+1, 1.8126692e+2, -1157587.4, -1231513.8, -65.92171, 0.003270538, -0.012135731, -1157587.3, 5984.7773, 0.0, 5.0139966, 4.966114 
2.2561973e+1, 1.8623318e+2, -1108380.0, -1182039.4, -130.06082, 0.0022900072, -0.014179296, -1108379.8, 6522.444, 0.0, 5.0139446, 4.966231 
2.256183e+1, 1.9119947e+2, -1059341.3, -1132914.3, -196.45757, 0.0013251676, -0.01638564, -1059340.8, 6891.683, 0.0, 5.01389, 4.9662323 
2.2561689e+1, 1.9616576e+2, -1011193.94, -1085705.0, -263.2877, 0.0004114353, -0.01827477, -1011193.0, 6369.4604, 0.0, 5.013835, 4.965583 
2.2561586e+1, 2.0112851e+2, -971520.4, -1056813.9, -386.78766, 0.00027248485, -0.011122805, -971518.6, -2590.3262, 0.0, 5.0137877, 4.958679 
2.2561543e+1, 2.0608793e+2, -922162.6, -1007188.3, -401.30206, 0.0019745072, -0.0077159856, -922160.7, -1830.5538, 0.0, 5.0137544, 4.958812 
2.2561501e+1, 2.1104738e+2, -872985.8, -957957.8, -368.92975, 0.0038259504, -0.00437918, -872984.2, -1252.202, 0.0, 5.013721, 4.9588137 
2.2561459e+1, 2.1600682e+2, -824475.3, -910182.5, -336.9642, 0.005742591, -0.00089888787, -824474.0, -1340.1862, 0.0, 5.013687, 4.958315 
2.2561307e+1, 2.2096273e+2, -784195.06, -880539.9, -551.6667, 0.007569489, 0.010349428, -784191.9, -9622.292, 0.0, 5.0136747, 4.9515634 
2.2560827e+1, 2.25915e+2, -734101.6, -829783.56, -761.242, 0.009171698, 0.0100432485, -734095.56, -8056.103, 0.0, 5.0137253, 4.952019 
2.256033e+1, 2.3086725e+2, -684598.9, -780358.7, -885.07294, 0.010855107, 0.009081715, -684590.75, -7081.541, 0.0, 5.013779, 4.952023 
2.2559838e+1, 2.358195e+2, -635748.2, -732382.9, -1010.0934, 0.012628969, 0.008030564, -635737.6, -6758.666, 0.0, 5.013833, 4.951525 
2.2559315e+1, 2.4076818e+2, -595710.2, -703848.1, -1248.2788, 0.014847885, 0.016594054, -595695.8, -15211.878, 0.0, 5.0138493, 4.9442744 
2.25588e+1, 2.4571332e+2, -545928.75, -653080.4, -1246.5063, 0.018801855, 0.017032325, -545914.25, -13891.082, 0.0, 5.013749, 4.9447727 
2.2558303e+1, 2.506585e+2, -496820.88, -603814.44, -1169.4368, 0.023063514, 0.01706255, -496808.1, -13246.039, 0.0, 5.01364, 4.944771 
2.2557816e+1, 2.5560373e+2, -447960.6, -555113.7, -1092.8741, 0.027443297, 0.017689686, -447949.47, -12849.066, 0.0, 5.01353, 4.9445705 
2.2557674e+1, 2.605452e+2, -407977.72, -526328.9, -1701.9604, 0.037828855, 0.02715177, -407953.25, -21281.168, 0.0, 5.013405, 4.9373293 
2.2558078e+1, 2.6548293e+2, -355999.53, -470611.78, -2872.5083, 0.068690896, 0.0039648996, -355927.6, -17661.945, 0.0, 5.01326, 4.939479 
2.2558446e+1, 2.704205e+2, -306591.9, -421089.1, -3621.8406, 0.10094144, -0.026985768, -306477.44, -16617.771, 0.0, 5.013121, 4.9395485 
2.255883e+1, 2.7535778e+2, -257199.22, -371741.75, -4384.8584, 0.13299826, -0.06273258, -257031.61, -15575.337, 0.0, 5.012982, 4.939571 
2.2559392e+1, 2.8029004e+2, -230409.89, -372079.78, 535.28015, 0.14023219, -0.06110667, -230407.86, -37301.03, 0.0, 5.0128045, 4.922141 
2.2561038e+1, 2.8521478e+2, -181211.98, -320959.7, 1919.239, 0.115733385, -0.041388858, -181185.64, -36332.234, 0.0, 5.012833, 4.9224577 
2.2562927e+1, 2.9013816e+2, -131116.08, -271136.0, 2720.1145, 0.10007183, -0.039794665, -131063.25, -34446.816, 0.0, 5.012968, 4.9224257 
2.2564839e+1, 2.9506117e+2, -80984.72, -221351.95, 3497.953, 0.084305905, -0.04247377, -80897.6, -32514.77, 0.0, 5.0131, 4.9223943 
2.2567068e+1, 3.0000347e+2, -11267.386, -92505.34, 3650.8665, 0.07062082, -0.01381241, -11103.645, -11103.645, 0.0, 5.0132737, 4.9598656 
2.2569314e+1, 3.0496854e+2, 1549.4257, -64702.26, 1574.9663, 0.068504535, -0.0553058, 1586.8453, 1586.8453, 0.0, 5.013845, 4.969385 
2.2571273e+1, 3.099335e+2, 4243.263, -61409.047, 90.28164, 0.066848285, -0.13194686, 4243.3877, 4243.3877, 0.0, 5.0145063, 4.97022 
2.2573237e+1, 3.1489995e+2, 7084.8125, -58265.69, -1336.9469, 0.06448771, -0.20418209, 7112.1523, 7112.1523, 0.0, 5.015164, 4.9710555 
2.7577424e+1, 1.2152188e+2, -1709839.4, -1743862.8, 234.30988, 0.00040381568, 0.010206814, -1709837.8, 39254.367, 0.0, 5.013879, 4.991703 
2.757654e+1, 1.265075e+2, -1669642.0, -1712801.4, 88.1343, -0.005694296, 0.004357642, -1669641.9, 30586.213, 0.0, 5.013889, 4.985814 
2.7576375e+1, 1.3149308e+2, -1620609.9, -1663785.4, 4.5170965, -0.004455936, 0.0013034017, -1620609.9, 30760.713, 0.0, 5.013899, 4.9858136 
2.7576205e+1, 1.3647862e+2, -1573788.4, -1619308.8, -79.243805, -0.0032295818, -0.00052512554, -1573788.3, 28724.965, 0.0, 5.0139093, 4.9843087 
2.7576095e+1, 1.4146148e+2, -1530837.8, -1582832.1, -7.4787493, -0.0020275912, 0.011045738, -1530837.8, 22843.75, 0.0, 5.013921, 4.980072 
2.7576116e+1, 1.4644155e+2, -1481367.0, -1532973.4, 59.42668, -0.00084506907, 0.0061179805, -1481366.9, 23507.754, 0.0, 5.0139318, 4.98033 
2.7576143e+1, 1.5142158e+2, -1432277.5, -1483900.8, 94.34422, 0.0003393055, 0.00035570224, -1432277.4, 23790.809, 0.0, 5.0139427, 4.98033 
2.757617e+1, 1.5640159e+2, -1384617.6, -1437805.6, 129.258, 0.0015237341, -0.004957651, -1384617.4, 22644.486, 0.0, 5.013953, 4.979335 
2.7576205e+1, 1.6137783e+2, -1344083.9, -1406639.5, 175.9988, 0.0025867035, -0.004046824, -1344083.4, 14409.263, 0.0, 5.0139656, 4.973344 
2.7576247e+1, 1.6635107e+2, -1294925.6, -1357500.0, 123.21536, 0.0033410932, -0.007621066, -1294925.4, 14827.859, 0.0, 5.013978, 4.973343 
2.7576286e+1, 1.7132431e+2, -1245765.4, -1308357.1, 61.494923, 0.0040880376, -0.011070582, -1245765.4, 15248.215, 0.0, 5.0139894, 4.973343 
2.7576327e+1, 1.7629758e+2, -1197742.4, -1261619.1, -0.49470475, 0.0048428783, -0.014127712, -1197742.4, 14531.505, 0.0, 5.014001, 4.972536 
2.7576303e+1, 1.8126719e+2, -1157694.9, -1231739.8, -94.54155, 0.0051288097, -0.009056844, -1157694.8, 5875.757, 0.0, 5.013996, 4.966038 
2.7576116e+1, 1.8623333e+2, -1108493.8, -1182280.0, -172.26566, 0.00423887, -0.01156994, -1108493.4, 6408.5977, 0.0, 5.013944, 4.96615 
2.7575925e+1, 1.9119947e+2, -1059454.0, -1133155.0, -236.99805, 0.0033199156, -0.014296477, -1059453.3, 6780.309, 0.0, 5.01389, 4.9661508 
2.7575734e+1, 1.9616562e+2, -1011305.8, -1085945.9, -302.1578, 0.0024260692, -0.016708734, -1011304.56, 6260.5317, 0.0, 5.013835, 4.9655013 
2.757557e+1, 2.0112826e+2, -971507.6, -1056781.6, -418.0934, 0.0021334172, -0.010196173, -971505.56, -2573.6135, 0.0, 5.013787, 4.9586906 
2.7575415e+1, 2.0608762e+2, -922104.2, -1007057.25, -428.3942, 0.0031108772, -0.007983409, -922102.06, -1768.027, 0.0, 5.0137534, 4.9588575 
2.7575263e+1, 2.1104698e+2, -872927.75, -957828.2, -393.6699, 0.0041577183, -0.005899436, -872925.94, -1189.9285, 0.0, 5.01372, 4.9588585 
2.7575105e+1, 2.1600634e+2, -824417.7, -910054.4, -359.34943, 0.005233265, -0.0036751325, -824416.2, -1278.1416, 0.0, 5.013686, 4.9583597 
2.757486e+1, 2.2096223e+2, -784299.5, -880768.3, -536.8281, 0.006252219, 0.0071833017, -784296.5, -9722.551, 0.0, 5.0136747, 4.9514856 
2.757435e+1, 2.259146e+2, -734289.5, -830204.1, -722.8979, 0.0070350976, 0.009398449, -734284.06, -8240.075, 0.0, 5.0137258, 4.9518757 
2.757383e+1, 2.3086697e+2, -684783.94, -780779.75, -841.7513, 0.007839262, 0.011171762, -684776.56, -7262.682, 0.0, 5.0137806, 4.951879 
2.7573308e+1, 2.3581935e+2, -635930.44, -732804.6, -961.798, 0.008688405, 0.012843628, -635920.9, -6937.007, 0.0, 5.013835, 4.9513803 
2.7572805e+1, 2.40768e+2, -595663.75, -703755.6, -1266.9259, 0.010644676, 0.022190752, -595648.9, -15159.165, 0.0, 5.013851, 4.944306 
2.7572337e+1, 2.4571286e+2, -545793.44, -652783.1, -1332.9392, 0.016259542, 0.018842498, -545776.9, -13746.157, 0.0, 5.01375, 4.9448757 
2.7571875e+1, 2.5065777e+2, -496688.5, -603520.0, -1251.4214, 0.02223679, 0.0149547905, -496673.84, -13102.621, 0.0, 5.01364, 4.9448733 
2.7571416e+1, 2.5560272e+2, -447831.1, -554822.0, -1170.4064, 0.02827587, 0.011664385, -447818.28, -12707.117, 0.0, 5.01353, 4.944673 
2.7571145e+1, 2.6054427e+2, -408343.63, -527145.7, -1863.1196, 0.03887951, 0.022031445, -408314.4, -21632.217, 0.0, 5.0134044, 4.9370546 
2.7571225e+1, 2.6548296e+2, -356899.16, -472709.75, -2945.3308, 0.06622078, 0.015963798, -356824.3, -18550.352, 0.0, 5.013269, 4.93877 
2.7571303e+1, 2.7042142e+2, -307446.44, -423173.28, -3618.6372, 0.094757706, 0.003091608, -307333.4, -17466.252, 0.0, 5.013142, 4.9388366 
2.757139e+1, 2.7535957e+2, -258008.83, -373812.47, -4305.626, 0.1230008, -0.014834933, -257848.97, -16385.814, 0.0, 5.013014, 4.9388556 
2.7571616e+1, 2.802917e+2, -228751.73, -367943.06, -614.52264, 0.13404188, -0.015237823, -228749.02, -35629.31, 0.0, 5.0127664, 4.9236045 
2.757342e+1, 2.8521532e+2, -180186.92, -317835.63, 1739.3405, 0.11470256, -0.019261094, -180164.95, -35297.293, 0.0, 5.0127444, 4.923603 
2.7575618e+1, 2.90138e+2, -130063.914, -268042.28, 2625.5154, 0.098849, -0.03364021, -130013.98, -33387.754, 0.0, 5.0128927, 4.9235606 
2.757783e+1, 2.9506028e+2, -79905.6, -218288.58, 3488.6726, 0.08275073, -0.05240005, -79817.7, -31429.39, 0.0, 5.0130377, 4.9235187 
2.7580306e+1, 3.0000272e+2, -10810.711, -90918.71, 3734.6982, 0.068604365, -0.031883694, -10636.974, -10636.974, 0.0, 5.013212, 4.9604697 
2.7583262e+1, 3.0497006e+2, -104.64584, -67843.45, 2126.4634, 0.06736079, -0.03722849, -37.95735, -37.95735, 0.0, 5.013756, 4.9683833 
2.758613e+1, 3.0993736e+2, 2564.833, -64374.58, 965.6759, 0.06695266, -0.07048238, 2578.761, 2578.761, 0.0, 5.01439, 4.969276 
2.758899e+1, 3.1490615e+2, 5382.487, -61056.086, -137.7738, 0.06549355, -0.099397436, 5382.7725, 5382.7725, 0.0, 5.0150204, 4.970169 
3.2591632e+1, 1.21524885e+2, -1709237.1, -1742628.3, 226.80115, 0.003568194, 0.035682842, -1709235.6, 39827.035, 0.0, 5.0138774, 4.992109 
3.259074e+1, 1.26505e+2, -1669809.1, -1713133.8, 93.2369, -0.0026014643, -0.024616368, -1669808.9, 30443.338, 0.0, 5.013888, 4.9857044 
3.259036e+1, 1.3149202e+2, -1620775.6, -1664117.1, 11.364179, -0.003597267, -0.0122468695, -1620775.6, 30605.549, 0.0, 5.0138984, 4.985704 
3.2589978e+1, 1.36479e+2, -1573953.1, -1619640.0, -70.65439, -0.0046353023, 0.001347395, -1573953.0, 28557.414, 0.0, 5.0139084, 4.984199 
3.2589734e+1, 1.4146271e+2, -1530819.9, -1582792.8, -0.25790423, -0.004880282, 0.022170728, -1530819.9, 22850.586, 0.0, 5.013921, 4.980085 
3.2589805e+1, 1.4644244e+2, -1481300.6, -1532835.0, 67.48741, -0.0033090624, 0.013417872, -1481300.6, 23565.826, 0.0, 5.0139318, 4.980376 
3.2589886e+1, 1.5142208e+2, -1432211.5, -1483763.3, 103.13931, -0.0016843446, 0.0034016345, -1432211.4, 23851.807, 0.0, 5.0139427, 4.980376 
3.258997e+1, 1.5640174e+2, -1384552.0, -1437668.8, 138.7857, -0.00007285346, -0.006168128, -1384551.6, 22708.438, 0.0, 5.0139537, 4.97938 
3.2590067e+1, 1.6137774e+2, -1344160.1, -1406797.4, 183.83502, 0.0015156046, -0.0076220757, -1344159.6, 14333.2295, 0.0, 5.0139656, 4.9732914 
3.2590201e+1, 1.6635108e+2, -1295037.1, -1357732.6, 131.32433, 0.0030750926, -0.009449938, -1295036.8, 14716.091, 0.0, 5.0139775, 4.973265 
3.2590333e+1, 1.7132443e+2, -1245875.8, -1308589.4, 70.79509, 0.0046193944, -0.011014205, -1245875.8, 15136.932, 0.0, 5.0139894, 4.973265 
3.259046e+1, 1.762978e+2, -1197851.6, -1261851.1, 9.995176, 0.0061490885, -0.01218945, -1197851.6, 14420.676, 0.0, 5.0140014, 4.972458 
3.2590488e+1, 1.8126744e+2, -1157806.6, -1231974.0, -123.523026, 0.0069858828, -0.0059582456, -1157806.4, 5762.4883, 0.0, 5.0139956, 4.965959 
3.2590258e+1, 1.8623346e+2, -1108608.1, -1182520.4, -214.05804, 0.0061897486, -0.008946495, -1108607.5, 6294.3, 0.0, 5.0139437, 4.9660687 
3.259002e+1, 1.9119948e+2, -1059567.4, -1133395.4, -277.12598, 0.005323932, -0.012214968, -1059566.3, 6668.4883, 0.0, 5.0138893, 4.9660697 
3.2589778e+1, 1.961655e+2, -1011418.1, -1086186.5, -340.6153, 0.004457223, -0.015172095, -1011416.56, 6151.1597, 0.0, 5.0138345, 4.96542 
3.258955e+1, 2.0112804e+2, -971504.06, -1056768.1, -449.73077, 0.003991068, -0.00922055, -971501.7, -2566.0972, 0.0, 5.0137863, 4.9586954 
3.258929e+1, 2.0608729e+2, -922046.44, -1006925.6, -455.05322, 0.004244756, -0.008194861, -922044.0, -1706.194, 0.0, 5.0137525, 4.9589024 
3.2589018e+1, 2.1104659e+2, -872870.4, -957698.06, -417.977, 0.004497312, -0.007397009, -872868.3, -1128.336, 0.0, 5.013719, 4.958903 
3.2588753e+1, 2.1600586e+2, -824360.6, -909925.7, -381.3016, 0.0047420827, -0.006461982, -824358.94, -1216.7649, 0.0, 5.0136857, 4.958404 
3.2588413e+1, 2.209617e+2, -784419.7, -881030.0, -520.7704, 0.004925855, 0.004027205, -784416.9, -9838.49, 0.0, 5.0136747, 4.951396 
3.258788e+1, 2.2591418e+2, -734478.4, -830624.06, -683.4748, 0.0048905723, 0.0087014735, -734473.5, -8424.897, 0.0, 5.0137267, 4.951731 
3.258733e+1, 2.3086669e+2, -684969.94, -781200.25, -797.3504, 0.0048314855, 0.01311357, -684963.3, -7444.627, 0.0, 5.013782, 4.9517336 
3.2586783e+1, 2.3581916e+2, -636113.6, -733225.75, -912.4229, 0.0047719046, 0.017412392, -636105.0, -7116.1025, 0.0, 5.013837, 4.951234 
3.25863e+1, 2.4076785e+2, -595647.8, -703729.56, -1284.6722, 0.006447004, 0.028032836, -595632.56, -15137.299, 0.0, 5.013853, 4.944314 
3.258588e+1, 2.4571244e+2, -545659.4, -652484.94, -1418.8993, 0.013719277, 0.021100072, -545640.56, -13602.708, 0.0, 5.013751, 4.9449778 
3.2585448e+1, 2.5065705e+2, -496557.28, -603224.56, -1332.9335, 0.02142315, 0.013187029, -496540.66, -12960.621, 0.0, 5.0136404, 4.9449754 
3.2585022e+1, 2.556017e+2, -447702.75, -554529.4, -1247.4666, 0.029132558, 0.00587168, -447688.2, -12566.53, 0.0, 5.0135293, 4.944775 
3.25846e+1, 2.6054326e+2, -408848.88, -528274.5, -2023.9124, 0.039810013, 0.01632755, -408814.6, -22121.105, 0.0, 5.013404, 4.9366612 
3.2584357e+1, 2.6548272e+2, -357802.78, -474809.03, -3012.3276, 0.063493766, 0.025348825, -357725.28, -19440.607, 0.0, 5.013278, 4.9380336 
3.2584155e+1, 2.70422e+2, -308304.75, -425258.53, -3609.5786, 0.08825396, 0.02867354, -308193.44, -18315.795, 0.0, 5.0131626, 4.9380975 
3.2583964e+1, 2.75361e+2, -258821.9, -375883.94, -4220.51, 0.11262026, 0.026685884, -258669.94, -17196.328, 0.0, 5.013046, 4.938114 
3.2583797e+1, 2.8029346e+2, -228078.73, -366077.1, -1893.2983, 0.12775348, 0.032294825, -228052.77, -34920.94, 0.0, 5.012728, 4.9242644 
3.2585734e+1, 2.8521624e+2, -179166.98, -314710.66, 1577.0403, 0.113902405, 0.009603395, -179148.64, -34270.28, 0.0, 5.0126557, 4.9247246 
3.258826e+1, 2.9013807e+2, -129016.64, -264947.4, 2548.453, 0.097931795, -0.023513203, -128968.88, -32335.215, 0.0, 5.012817, 4.924672 
3.2590798e+1, 2.9505947e+2, -78831.14, -215223.75, 3496.8684, 0.08157618, -0.061118115, -78741.55, -30348.873, 0.0, 5.0129757, 4.9246197 
3.2593507e+1, 3.0000168e+2, -10891.2295, -90580.11, 3779.0132, 0.06684945, -0.051792007, -10712.422, -10712.422, 0.0, 5.013151, 4.9606013 
3.2597056e+1, 3.0497074e+2, -1765.4285, -70982.08, 2600.053, 0.06540417, -0.029105166, -1667.8976, -1667.8976, 0.0, 5.0136666, 4.967285 
3.2600713e+1, 3.0993995e+2, 879.74994, -67337.61, 1763.3762, 0.065076336, -0.028853219, 925.3017, 925.3017, 0.0, 5.0142736, 4.9682355 
3.2604352e+1, 3.1491074e+2, 3673.4858, -63843.973, 983.8748, 0.06335077, -0.02433086, 3687.82, 3687.82, 0.0, 5.0148773, 4.9691863 
3.760584e+1, 1.21527776e+2, -1708654.9, -1741287.5, 206.8401, 0.006711468, 0.060072977, -1708653.5, 40380.734, 0.0, 5.013845, 4.992564 
3.7604943e+1, 1.2650251e+2, -1670021.0, -1713487.6, 88.92964, 0.0004965881, -0.053537093, -1670020.9, 30255.545, 0.0, 5.0138726, 4.9855947 
3.7604347e+1, 1.3149095e+2, -1620957.3, -1664455.9, 11.334711, -0.0027338897, -0.025765434, -1620957.3, 30434.564, 0.0, 5.0138927, 4.9855943 
3.7603748e+1, 1.3647936e+2, -1574123.4, -1619973.3, -66.081985, -0.0060346546, 0.003230773, -1574123.4, 28384.238, 0.0, 5.0139065, 4.9840894 
3.760337e+1, 1.4146395e+2, -1530812.9, -1582763.9, 5.3548336, -0.0077330885, 0.033303045, -1530812.9, 22846.502, 0.0, 5.013918, 4.9800954 
3.7603492e+1, 1.4644334e+2, -1481242.5, -1532700.4, 73.300934, -0.0057720267, 0.02072176, -1481242.4, 23615.809, 0.0, 5.013929, 4.9804215 
3.760363e+1, 1.514226e+2, -1432162.3, -1483633.4, 109.12497, -0.0037026496, 0.0064454568, -1432162.0, 23896.162, 0.0, 5.0139375, 4.980421 
3.760377e+1, 1.5640187e+2, -1384519.6, -1437547.9, 144.86256, -0.0016585989, -0.0073865904, -1384519.3, 22738.975, 0.0, 5.0139422, 4.979426 
3.7603936e+1, 1.6137765e+2, -1344283.0, -1406982.1, 187.59093, 0.0004514873, -0.0111828605, -1344282.5, 14210.615, 0.0, 5.013951, 4.973237 
3.7604156e+1, 1.6635108e+2, -1295179.4, -1357979.6, 136.65178, 0.0028153898, -0.011267841, -1295179.1, 14573.438, 0.0, 5.013967, 4.9731874 
3.7604383e+1, 1.7132455e+2, -1246012.6, -1308833.9, 78.20072, 0.0051595997, -0.010959341, -1246012.6, 14999.11, 0.0, 5.013981, 4.9731874 
3.7604603e+1, 1.7629802e+2, -1197992.9, -1262097.8, 19.739296, 0.007468189, -0.010265117, -1197992.9, 14277.89, 0.0, 5.0139904, 4.97238 
3.7604678e+1, 1.8126771e+2, -1157958.9, -1232233.9, -152.66428, 0.008846447, -0.0028413069, -1157958.6, 5608.6313, 0.0, 5.013983, 4.9658775 
3.7604403e+1, 1.8623361e+2, -1108749.5, -1182773.0, -255.19206, 0.008146148, -0.006309237, -1108748.6, 6152.9316, 0.0, 5.013934, 4.965987 
3.7604114e+1, 1.9119948e+2, -1059708.9, -1133648.6, -316.89615, 0.0073409043, -0.010140012, -1059707.5, 6528.459, 0.0, 5.0138793, 4.9659877 
3.7603825e+1, 1.9616535e+2, -1011571.7, -1086445.9, -379.2651, 0.006510277, -0.01366217, -1011569.75, 6000.6533, 0.0, 5.0138206, 4.9653378 
3.760353e+1, 2.011278e+2, -971559.56, -1056796.9, -482.39734, 0.0058523333, -0.008192563, -971556.8, -2617.619, 0.0, 5.013768, 4.9586935 
3.760316e+1, 2.06087e+2, -922018.94, -1006807.3, -481.8103, 0.005381938, -0.0083486745, -922016.2, -1674.617, 0.0, 5.0137415, 4.958947 
3.7602782e+1, 2.1104619e+2, -872833.5, -957576.6, -442.1748, 0.0048513506, -0.008872128, -872831.2, -1087.2634, 0.0, 5.0137115, 4.958947 
3.76024e+1, 2.1600538e+2, -824326.8, -909806.9, -402.76993, 0.0042786193, -0.009261677, -824324.94, -1178.5997, 0.0, 5.013677, 4.958448 
3.7601966e+1, 2.2096118e+2, -784588.6, -881340.2, -502.97238, 0.0036034721, 0.00087785354, -784586.0, -10003.184, 0.0, 5.013663, 4.9512944 
3.7601402e+1, 2.2591378e+2, -734719.06, -831067.06, -643.9823, 0.00275279, 0.007952474, -734714.8, -8661.508, 0.0, 5.0137095, 4.951586 
3.7600833e+1, 2.3086637e+2, -685253.1, -781664.56, -755.39594, 0.0018513108, 0.014912967, -685247.2, -7723.6143, 0.0, 5.0137496, 4.951587 
3.760027e+1, 2.3581898e+2, -636467.1, -733724.06, -868.75433, 0.00090740586, 0.021750325, -636459.4, -7465.3022, 0.0, 5.013779, 4.951087 
3.75998e+1, 2.4076773e+2, -595906.4, -703881.25, -1310.6458, 0.002292634, 0.034140166, -595890.44, -15389.882, 0.0, 5.013769, 4.9442987 
3.7599424e+1, 2.4571207e+2, -545773.94, -652298.6, -1515.5665, 0.01122645, 0.023819666, -545752.4, -13707.848, 0.0, 5.0136647, 4.9450793 
3.7599027e+1, 2.5065637e+2, -496692.97, -603049.44, -1432.8638, 0.020681402, 0.011763475, -496673.7, -13085.188, 0.0, 5.013547, 4.9450765 
3.7598628e+1, 2.5560072e+2, -447881.53, -554375.25, -1356.3419, 0.030091964, 0.00030079475, -447864.25, -12732.387, 0.0, 5.0134206, 4.9448757 
3.759805e+1, 2.605421e+2, -409992.94, -529938.0, -2217.9612, 0.04074044, 0.010017436, -409951.94, -23245.996, 0.0, 5.0132246, 4.936151 
3.7597495e+1, 2.6548225e+2, -360202.53, -477572.53, -3041.9604, 0.06077022, 0.032144103, -360123.75, -21825.951, 0.0, 5.0127516, 4.9372745 
3.7597033e+1, 2.704223e+2, -312190.78, -428687.94, -3496.5427, 0.081904635, 0.049890712, -312085.94, -22194.963, 0.0, 5.012095, 4.9373364 
3.7596583e+1, 2.7536207e+2, -264670.3, -380185.56, -3970.5986, 0.10261187, 0.06212171, -264534.0, -23046.682, 0.0, 5.011262, 4.9373517 
3.7595984e+1, 2.8029534e+2, -235107.83, -369487.06, -3096.6907, 0.12235975, 0.08193429, -235036.5, -41893.81, 0.0, 5.010267, 4.92412 
3.7598014e+1, 2.8521755e+2, -183145.17, -313826.22, 1571.652, 0.11410827, 0.045506388, -183126.28, -38241.1, 0.0, 5.010758, 4.925817 
3.7600887e+1, 2.901384e+2, -131254.6, -263318.2, 2563.0059, 0.09787049, -0.009269028, -131204.88, -34566.25, 0.0, 5.011549, 4.9257555 
3.7603763e+1, 2.9505882e+2, -79796.055, -213061.64, 3558.6199, 0.081161834, -0.06862346, -79701.09, -31305.197, 0.0, 5.012172, 4.925694 
3.760669e+1, 3.000003e+2, -12997.984, -92139.64, 3775.9536, 0.06564254, -0.073624715, -12818.236, -12818.236, 0.0, 5.0125422, 4.960258 
3.761071e+1, 3.0497056e+2, -6577.736, -75502.31, 2621.8894, 0.063062005, -0.030888118, -6478.143, -6478.143, 0.0, 5.012419, 4.9660816 
3.7615043e+1, 3.099413e+2, -6852.8916, -72947.31, 1420.9513, 0.061961476, -0.0068094446, -6822.357, -6822.357, 0.0, 5.0119295, 4.9670844 
3.7619355e+1, 3.149137e+2, -7972.181, -70967.75, -7.2942, 0.059265252, 0.0214913, -7972.1807, -7972.1807, 0.0, 5.0110683, 4.968088 
4.2619675e+1, 1.21528625e+2, -1709345.5, -1741334.8, -220.51443, 0.008197314, 0.06733486, -1709344.0, 39682.402, 0.0, 5.0135508, 4.9926944 
4.2618954e+1, 1.2650184e+2, -1670534.1, -1713793.1, -241.59819, 0.0027308909, -0.061459523, -1670532.9, 29750.51, 0.0, 5.0137115, 4.985574 
4.2618304e+1, 1.3149065e+2, -1621040.1, -1664545.5, -193.15585, -0.0019888913, -0.029858598, -1621039.3, 30355.998, 0.0, 5.013874, 4.9855733 
4.2617658e+1, 1.3647944e+2, -1573759.6, -1619840.8, -144.77744, -0.0067006387, 0.0030014918, -1573759.3, 28748.14, 0.0, 5.0140367, 4.9840693 
4.2617252e+1, 1.4146425e+2, -1530127.3, -1582372.9, -50.404392, -0.009200633, 0.035456143, -1530127.3, 23529.488, 0.0, 5.014135, 4.9801197 
4.2617399e+1, 1.464436e+2, -1480725.5, -1532376.5, -18.903267, -0.0068067173, 0.022159824, -1480725.5, 24130.17, 0.0, 5.014087, 4.9804525 
4.2617565e+1, 1.5142283e+2, -1431830.0, -1483400.3, -6.6951327, -0.004217655, 0.007088226, -1431830.0, 24225.973, 0.0, 5.0140343, 4.9804525 
4.2617732e+1, 1.5640204e+2, -1384362.4, -1437400.4, 5.533085, -0.0016100496, -0.0075261197, -1384362.4, 22893.936, 0.0, 5.013981, 4.979457 
4.261793e+1, 1.6137777e+2, -1344348.8, -1407116.3, 68.80769, 0.00091368135, -0.011691231, -1344348.8, 14142.767, 0.0, 5.01395, 4.973193 
4.261817e+1, 1.663512e+2, -1295279.3, -1358181.8, 38.610363, 0.0033458488, -0.01117709, -1295279.1, 14472.169, 0.0, 5.0139656, 4.973121 
4.2618424e+1, 1.7132467e+2, -1246100.3, -1309028.4, -7.303516, 0.0058010295, -0.010219272, -1246100.3, 14910.556, 0.0, 5.013983, 4.973121 
4.2618674e+1, 1.7629814e+2, -1198058.6, -1262280.3, -53.172832, 0.008274416, -0.008867147, -1198058.5, 14211.734, 0.0, 5.014, 4.9723144 
4.2618766e+1, 1.8126781e+2, -1157873.1, -1232264.9, -193.3019, 0.0097304275, -0.0011721472, -1157872.6, 5694.5283, 0.0, 5.0140276, 4.965846 
4.2618474e+1, 1.8623361e+2, -1108368.6, -1182647.0, -213.90273, 0.0088202795, -0.005215881, -1108368.0, 6534.1724, 0.0, 5.0140767, 4.965963 
4.2618167e+1, 1.9119942e+2, -1059025.4, -1133379.4, -190.00435, 0.007842653, -0.009633931, -1059024.9, 7212.473, 0.0, 5.0141263, 4.9659634 
4.2617857e+1, 1.961652e+2, -1010575.56, -1086029.9, -166.05656, 0.0068923635, -0.013726304, -1010575.2, 6997.323, 0.0, 5.014176, 4.965313 
4.261755e+1, 2.0112759e+2, -970259.6, -1056191.6, -205.50572, 0.0061372197, -0.00857964, -970259.1, -1317.4523, 0.0, 5.014219, 4.9586897 
4.2617184e+1, 2.0608681e+2, -920554.7, -1006111.6, -263.30466, 0.005680817, -0.0085423915, -920553.9, -210.23549, 0.0, 5.014247, 4.95895 
4.2616817e+1, 2.1104604e+2, -871208.75, -956806.9, -295.7251, 0.0052548824, -0.008849999, -871207.75, 537.85974, 0.0, 5.0142746, 4.9589505 
4.2616448e+1, 2.1600525e+2, -822530.0, -908958.1, -328.0511, 0.0048621125, -0.0090184985, -822528.75, 618.77563, 0.0, 5.014302, 4.9584513 
4.2616028e+1, 2.2096106e+2, -782758.1, -880708.1, -424.1325, 0.0041982676, 0.001390031, -782756.25, -8172.114, 0.0, 5.0143466, 4.951198 
4.261549e+1, 2.2591358e+2, -732851.0, -830513.56, -539.76666, 0.0029040729, 0.009160031, -732848.0, -6791.928, 0.0, 5.014427, 4.9514484 
4.261495e+1, 2.3086615e+2, -683274.06, -781059.06, -642.1567, 0.0016705856, 0.016973829, -683269.8, -5741.992, 0.0, 5.0145087, 4.9514503 
4.261441e+1, 2.3581871e+2, -634350.2, -733053.5, -744.71014, 0.00052373484, 0.024767686, -634344.56, -5344.964, 0.0, 5.0145893, 4.9509506 
4.2613983e+1, 2.4076745e+2, -593434.25, -702884.6, -1203.7257, 0.001787638, 0.03836246, -593421.0, -12914.292, 0.0, 5.014676, 4.9442353 
4.2613629e+1, 2.4571171e+2, -542469.5, -650810.2, -1598.0974, 0.010734854, 0.027436173, -542445.94, -10395.021, 0.0, 5.0148396, 4.9450707 
4.2613262e+1, 2.5065586e+2, -492559.94, -601207.75, -1696.9943, 0.020441456, 0.014135543, -492533.44, -8937.954, 0.0, 5.015014, 4.945062 
4.261291e+1, 2.5560004e+2, -442903.25, -552175.94, -1792.5245, 0.030332867, 0.0012075366, -442873.84, -7734.0835, 0.0, 5.015186, 4.9448557 
4.2612293e+1, 2.6054114e+2, -404303.66, -528267.5, -2744.2898, 0.040998887, 0.0100270575, -404242.94, -17525.895, 0.0, 5.0153956, 4.9357624 
4.261173e+1, 2.6548153e+2, -352594.0, -475038.28, -3411.2979, 0.061786577, 0.038367573, -352499.03, -14187.111, 0.0, 5.0156436, 4.936848 
4.261141e+1, 2.7042225e+2, -302144.22, -424878.3, -3714.0852, 0.08666565, 0.066021055, -302031.9, -12126.793, 0.0, 5.0158806, 4.9369445 
4.2611226e+1, 2.7536282e+2, -251740.94, -374879.25, -4026.1892, 0.11389777, 0.09077562, -251609.44, -10110.218, 0.0, 5.0161095, 4.936993 
4.261075e+1, 2.802974e+2, -218234.0, -363254.94, -3895.7163, 0.14537594, 0.13072741, -218129.42, -24983.705, 0.0, 5.0164576, 4.9235497 
4.2612404e+1, 2.8521916e+2, -166831.11, -305230.22, 1388.7958, 0.13390698, 0.08443433, -166817.17, -21931.225, 0.0, 5.0160375, 4.926572 
4.261498e+1, 2.90139e+2, -119215.25, -256508.61, 2062.0652, 0.11015132, 0.008658129, -119184.28, -22543.055, 0.0, 5.0153174, 4.9265666 
4.2617637e+1, 2.9505855e+2, -71559.78, -207799.19, 2744.4602, 0.08816916, -0.07045213, -71504.516, -23105.553, 0.0, 5.0145855, 4.9265614 
4.2620322e+1, 2.999991e+2, -9408.456, -91673.55, 2781.5308, 0.0703849, -0.09164428, -9314.515, -9314.515, 0.0, 5.013851, 4.9599166 
4.2624336e+1, 3.0497104e+2, -5647.3926, -78369.88, 2515.318, 0.07410626, -0.025176354, -5560.497, -5560.497, 0.0, 5.013156, 4.9647245 
4.262906e+1, 3.0994415e+2, -6797.1274, -76871.98, 2275.9602, 0.08653153, 0.03318139, -6723.284, -6723.284, 0.0, 5.012462, 4.965435 
4.263405e+1, 3.1491858e+2, -7863.527, -75457.92, 1895.068, 0.10361091, 0.09586336, -7810.4385, -7810.4385, 0.0, 5.011755, 4.9661455 
4.763316e+1, 1.2152767e+2, -1709637.5, -1741924.6, -149.01965, 0.007428546, 0.05946933, -1709636.8, 39399.742, 0.0, 5.0135503, 4.9925003 
4.7632787e+1, 1.2650283e+2, -1670439.8, -1713596.0, -118.30778, 0.003860509, -0.050235473, -1670439.4, 29835.135, 0.0, 5.013711, 4.9856386 
4.7632232e+1, 1.3149105e+2, -1620946.1, -1664349.4, -68.54491, -0.0014868587, -0.025316361, -1620946.0, 30445.826, 0.0, 5.0138736, 4.985638 
4.7631684e+1, 1.3647921e+2, -1573666.1, -1619645.4, -18.883654, -0.006843956, 0.0008619278, -1573666.1, 28843.25, 0.0, 5.014036, 4.9841337 
4.7631347e+1, 1.4146368e+2, -1530075.5, -1582265.1, -55.875015, -0.009622041, 0.029415049, -1530075.4, 23586.344, 0.0, 5.014135, 4.9801555 
4.7631496e+1, 1.4644328e+2, -1480699.0, -1532321.4, -60.083603, -0.006711577, 0.01825347, -1480698.9, 24159.672, 0.0, 5.014087, 4.9804716 
4.7631663e+1, 1.5142274e+2, -1431803.4, -1483345.3, -46.82291, -0.0035898418, 0.005524385, -1431803.4, 24253.037, 0.0, 5.014034, 4.980471 
4.7631833e+1, 1.564022e+2, -1384335.8, -1437345.4, -33.533497, -0.00045903938, -0.0067486814, -1384335.8, 22918.572, 0.0, 5.013981, 4.979476 
4.7632015e+1, 1.613781e+2, -1344398.9, -1407221.3, 70.14814, 0.0022889995, -0.009489008, -1344398.8, 14089.4795, 0.0, 5.01395, 4.9731584 
4.7632232e+1, 1.6635142e+2, -1295359.1, -1358349.9, 51.380527, 0.0042746654, -0.0093618855, -1295359.1, 14390.217, 0.0, 5.0139656, 4.973065 
4.7632453e+1, 1.713248e+2, -1246179.8, -1309195.9, 6.540172, 0.006245605, -0.008836839, -1246179.8, 14830.303, 0.0, 5.013983, 4.9730654 
4.763267e+1, 1.7629817e+2, -1198137.6, -1262447.1, -38.257427, 0.00822253, -0.007916849, -1198137.6, 14133.153, 0.0, 5.014, 4.9722586 
4.763275e+1, 1.8126775e+2, -1157849.6, -1232215.3, -161.28328, 0.009245939, -0.0007920222, -1157849.3, 5719.4033, 0.0, 5.0140276, 4.965863 
4.7632468e+1, 1.8623352e+2, -1108321.3, -1182547.3, -175.62662, 0.007944491, -0.005578341, -1108320.9, 6582.9316, 0.0, 5.014076, 4.965997 
4.7632167e+1, 1.9119926e+2, -1058978.3, -1133279.8, -150.26782, 0.006549489, -0.010729662, -1058978.0, 7261.1147, 0.0, 5.0141263, 4.9659977 
4.7631872e+1, 1.9616503e+2, -1010528.7, -1085930.4, -124.864525, 0.0051656305, -0.015555915, -1010528.44, 7045.862, 0.0, 5.014176, 4.9653473 
4.7631592e+1, 2.0112741e+2, -970265.4, -1056205.8, -181.72282, 0.0042784684, -0.01066545, -970265.0, -1321.612, 0.0, 5.014219, 4.958685 
4.7631335e+1, 2.0608674e+2, -920603.75, -1006220.75, -242.04622, 0.004653596, -0.008952122, -920603.06, -258.85455, 0.0, 5.014247, 4.958914 
4.7631085e+1, 2.1104611e+2, -871257.3, -956915.2, -272.6905, 0.0051059076, -0.0074092383, -871256.44, 488.54037, 0.0, 5.0142746, 4.9589143 
4.7630832e+1, 2.1600549e+2, -822578.06, -909065.75, -303.24203, 0.0055722455, -0.005728628, -822577.0, 568.7433, 0.0, 5.0143023, 4.9584155 
4.7630516e+1, 2.2096133e+2, -782872.4, -880965.7, -367.6567, 0.0054682996, 0.005634907, -782871.0, -8288.708, 0.0, 5.014347, 4.9511104 
4.763004e+1, 2.2591361e+2, -733014.06, -830882.94, -471.9668, 0.0039698547, 0.012245384, -733011.8, -6954.7793, 0.0, 5.0144277, 4.9513226 
4.762956e+1, 2.3086594e+2, -683436.6, -781428.25, -571.2124, 0.0024591435, 0.018839043, -683433.25, -5901.503, 0.0, 5.014509, 4.951324 
4.7629082e+1, 2.3581825e+2, -634512.25, -733422.5, -670.62787, 0.0009998574, 0.025422165, -634507.75, -5501.17, 0.0, 5.01459, 4.9508243 
4.762868e+1, 2.4076688e+2, -593577.06, -703233.75, -1095.0323, 0.001450947, 0.03891186, -593566.1, -13050.806, 0.0, 5.0146766, 4.94412 
4.762827e+1, 2.4571124e+2, -542604.2, -651167.3, -1462.3073, 0.008216939, 0.030434402, -542584.5, -10526.376, 0.0, 5.014842, 4.9449544 
4.762784e+1, 2.5065553e+2, -492688.13, -601554.7, -1555.7954, 0.015594093, 0.019593874, -492665.88, -9064.663, 0.0, 5.015018, 4.944948 
4.7627425e+1, 2.555998e+2, -443025.03, -552512.9, -1645.922, 0.0230861, 0.009055015, -443000.28, -7856.177, 0.0, 5.0151916, 4.9447436 
4.7626713e+1, 2.6054072e+2, -404676.38, -529297.2, -2481.951, 0.030429777, 0.018096866, -404626.97, -17903.102, 0.0, 5.0154123, 4.9354033 
4.7625935e+1, 2.6548043e+2, -353013.47, -476279.22, -3054.4075, 0.044622317, 0.042714987, -352937.8, -14608.723, 0.0, 5.0156646, 4.9364114 
4.7625387e+1, 2.704205e+2, -302601.16, -426215.38, -3305.9402, 0.062190995, 0.06734666, -302512.8, -12580.284, 0.0, 5.015899, 4.936483 
4.7624946e+1, 2.753605e+2, -252234.83, -376311.9, -3566.8127, 0.08163901, 0.08953675, -252132.39, -10595.547, 0.0, 5.016125, 4.9365067 
4.762421e+1, 2.8029528e+2, -218758.19, -365146.66, -4309.411, 0.10883893, 0.13941847, -218631.42, -25447.535, 0.0, 5.016541, 4.9228716 
4.762569e+1, 2.85218e+2, -165172.16, -302571.28, 712.3973, 0.10335437, 0.09722336, -165168.47, -20257.31, 0.0, 5.016155, 4.9274793 
4.7628093e+1, 2.901383e+2, -117654.05, -253930.1, 1459.4922, 0.08522467, 0.015636982, -117638.414, -20981.883, 0.0, 5.0154114, 4.9274654 
4.7630572e+1, 2.9505843e+2, -70095.81, -205300.47, 2215.7473, 0.06842457, -0.0686979, -70059.51, -21655.51, 0.0, 5.014656, 4.927452 
4.7633037e+1, 2.9999882e+2, -8996.516, -91727.56, 2241.788, 0.055373393, -0.098508015, -8935.813, -8935.813, 0.0, 5.013937, 4.9598966 
4.7636795e+1, 3.049728e+2, -5461.262, -79745.76, 2157.1775, 0.061901983, -0.014643696, -5398.672, -5398.672, 0.0, 5.0133476, 4.9640946 
4.764125e+1, 3.0994907e+2, -6386.495, -78481.52, 2122.5596, 0.07594741, 0.072245754, -6324.0586, -6324.0586, 0.0, 5.012755, 4.9647026 
4.764594e+1, 3.149264e+2, -7228.193, -77301.3, 1946.3223, 0.09376873, 0.16237663, -7174.174, -7174.174, 0.0, 5.012149, 4.9653106 
5.264663e+1, 1.215267e+2, -1709911.1, -1742476.3, -78.144585, 0.0065696584, 0.05152341, -1709910.9, 39135.953, 0.0, 5.01355, 4.992319 
5.2646613e+1, 1.2650383e+2, -1670345.6, -1713398.5, 5.1716566, 0.0049783, -0.03896565, -1670345.6, 29920.094, 0.0, 5.0137105, 4.9857035 
5.264616e+1, 1.3149142e+2, -1620852.6, -1664152.9, 56.255016, -0.0009953426, -0.020747446, -1620852.5, 30536.008, 0.0, 5.013873, 4.985703 
5.264571e+1, 1.36479e+2, -1573573.0, -1619449.9, 107.19909, -0.00699648, -0.001270054, -1573572.8, 28938.695, 0.0, 5.0140357, 4.9841986 
5.2645445e+1, 1.4146313e+2, -1530030.1, -1582170.1, -61.28642, -0.010044962, 0.0234066, -1530030.0, 23636.777, 0.0, 5.0141344, 4.9801874 
5.2645594e+1, 1.4644296e+2, -1480672.5, -1532266.3, -101.21884, -0.006616391, 0.014371425, -1480672.4, 24189.006, 0.0, 5.0140867, 4.98049 
5.264576e+1, 1.5142268e+2, -1431777.0, -1483290.1, -86.9056, -0.0029621024, 0.0039644055, -1431776.9, 24279.938, 0.0, 5.014034, 4.98049 
5.2645934e+1, 1.564024e+2, -1384309.4, -1437290.4, -72.555, 0.0006917767, -0.0059878277, -1384309.3, 22943.049, 0.0, 5.013981, 4.9794946 
5.2646106e+1, 1.6137841e+2, -1344454.6, -1407338.0, 71.39368, 0.00366539, -0.007261004, -1344454.6, 14030.383, 0.0, 5.01395, 4.9731197 
5.26463e+1, 1.6635166e+2, -1295439.3, -1358517.8, 64.0733, 0.005204642, -0.0075213495, -1295439.3, 14307.991, 0.0, 5.0139656, 4.973009 
5.264648e+1, 1.7132492e+2, -1246259.5, -1309363.1, 20.306507, 0.0066910726, -0.007448131, -1246259.5, 14749.786, 0.0, 5.013983, 4.973009 
5.264667e+1, 1.762982e+2, -1198216.9, -1262613.9, -23.419348, 0.008171267, -0.0069793304, -1198216.9, 14054.318, 0.0, 5.014, 4.9722023 
5.264673e+1, 1.8126768e+2, -1157833.6, -1232181.3, -129.25034, 0.0087645855, -0.00037880064, -1157833.4, 5736.632, 0.0, 5.014027, 4.9658747 
5.2646464e+1, 1.8623342e+2, -1108274.3, -1182447.3, -137.41151, 0.0070711966, -0.0059099034, -1108274.0, 6631.3438, 0.0, 5.014076, 4.966031 
5.264617e+1, 1.9119911e+2, -1058931.5, -1133179.9, -110.592316, 0.005257207, -0.0118196765, -1058931.4, 7309.424, 0.0, 5.0141263, 4.9660316 
5.264588e+1, 1.9616485e+2, -1010482.2, -1085830.6, -83.73354, 0.0034381668, -0.017404992, -1010482.06, 7094.081, 0.0, 5.014176, 4.9653816 
5.264563e+1, 2.0112723e+2, -970279.9, -1056238.0, -157.93683, 0.0024210701, -0.012712018, -970279.56, -1334.5504, 0.0, 5.014219, 4.9586744 
5.2645487e+1, 2.060867e+2, -920653.3, -1006329.56, -220.8918, 0.0036274106, -0.009320273, -920652.75, -307.92615, 0.0, 5.0142474, 4.9588766 
5.264535e+1, 2.110462e+2, -871306.3, -957023.25, -249.75984, 0.0049562496, -0.0059588193, -871305.6, 438.7847, 0.0, 5.014275, 4.9588776 
5.264521e+1, 2.1600573e+2, -822626.56, -909173.06, -278.53693, 0.0062799756, -0.0024610215, -822625.7, 518.2909, 0.0, 5.0143023, 4.958379 
5.2645004e+1, 2.209616e+2, -782998.44, -881247.56, -310.8527, 0.006750196, 0.00990816, -782997.44, -8417.068, 0.0, 5.0143476, 4.951014 
5.264459e+1, 2.2591366e+2, -733178.2, -831251.56, -403.70013, 0.0050575878, 0.0153504005, -733176.5, -7118.5522, 0.0, 5.0144286, 4.9511957 
5.2644175e+1, 2.3086572e+2, -683600.2, -781796.56, -499.80118, 0.0032729665, 0.020673469, -683597.6, -6061.905, 0.0, 5.0145097, 4.9511976 
5.264375e+1, 2.3581779e+2, -634675.3, -733790.7, -596.07837, 0.0015045593, 0.025995405, -634671.75, -5658.238, 0.0, 5.0145903, 4.9506974 
5.2643377e+1, 2.4076629e+2, -593742.5, -703625.9, -989.8172, 0.0011527159, 0.03958526, -593733.56, -13209.712, 0.0, 5.014677, 4.9439883 
5.264291e+1, 2.4571079e+2, -542743.0, -651520.5, -1329.1598, 0.005735453, 0.033631735, -542726.75, -10661.61, 0.0, 5.014844, 4.9448376 
5.264242e+1, 2.5065517e+2, -492820.44, -601897.75, -1417.2385, 0.010776003, 0.025187502, -492802.03, -9195.185, 0.0, 5.015022, 4.9448338 
5.264195e+1, 2.555996e+2, -443150.94, -552845.8, -1501.9607, 0.015861446, 0.016973978, -443130.38, -7982.012, 0.0, 5.015197, 4.944631 
5.2641165e+1, 2.6054022e+2, -405092.7, -530398.5, -2190.563, 0.020007279, 0.025919018, -405054.4, -18323.361, 0.0, 5.015429, 4.9350114 
5.2640224e+1, 2.6547924e+2, -353446.94, -477508.5, -2662.3628, 0.028189054, 0.04595794, -353389.8, -15042.753, 0.0, 5.015685, 4.9359627 
5.2639467e+1, 2.7041867e+2, -303072.0, -427540.72, -2862.6343, 0.039036997, 0.066726685, -303006.22, -13045.213, 0.0, 5.0159173, 4.9360094 
5.263881e+1, 2.7535802e+2, -252742.48, -377732.78, -3072.266, 0.051290486, 0.08551116, -252667.02, -11091.244, 0.0, 5.016141, 4.9360085 
5.263775e+1, 2.8029323e+2, -219804.48, -368234.97, -4501.514, 0.072167434, 0.14904657, -219668.1, -26446.402, 0.0, 5.0166245, 4.921767 
5.263897e+1, 2.8521693e+2, -163533.0, -299896.0, 54.059246, 0.07102798, 0.112766385, -163532.98, -18597.77, 0.0, 5.016272, 4.92837 
5.2641183e+1, 2.9013768e+2, -116112.44, -251334.97, 874.9291, 0.058890425, 0.02347834, -116106.77, -19435.19, 0.0, 5.0155053, 4.9283485 
5.2643466e+1, 2.9505822e+2, -68651.26, -202784.86, 1704.9967, 0.04763851, -0.067972526, -68629.59, -20219.896, 0.0, 5.0147266, 4.928327 
5.264574e+1, 2.999984e+2, -8979.566, -92652.9, 1806.781, 0.03965567, -0.106393665, -8940.57, -8940.57, 0.0, 5.014023, 4.959542 
5.2649474e+1, 3.049743e+2, -5294.8164, -81103.055, 1942.741, 0.050179202, -0.007778625, -5245.0625, -5245.0625, 0.0, 5.01354, 4.963411 
5.265391e+1, 3.099534e+2, -5995.486, -80072.62, 2113.108, 0.06725777, 0.1019203, -5935.257, -5935.257, 0.0, 5.013048, 4.9639163 
5.265856e+1, 3.1493342e+2, -6612.4463, -79126.31, 2141.8083, 0.08723345, 0.21377677, -6549.2397, -6549.2397, 0.0, 5.012543, 4.9644217 
5.7660097e+1, 1.2152572e+2, -1710170.5, -1742992.8, -3.238385, 0.005635379, 0.043494172, -1710170.5, 38886.83, 0.0, 5.0135484, 4.9921494 
5.766044e+1, 1.2650482e+2, -1670243.9, -1713196.9, 132.4222, 0.006089182, -0.0276461, -1670243.5, 30013.436, 0.0, 5.0137124, 4.985768 
5.7660085e+1, 1.3149181e+2, -1620757.8, -1663955.4, 186.57375, -0.0005122814, -0.016149096, -1620757.0, 30628.133, 0.0, 5.0138736, 4.9857674 
5.7659733e+1, 1.3647878e+2, -1573499.0, -1619263.1, 241.59152, -0.0071554217, -0.0033928985, -1573497.8, 29015.793, 0.0, 5.0140295, 4.984263 
5.7659537e+1, 1.4146258e+2, -1530029.3, -1582106.8, -56.939613, -0.01046461, 0.017431336, -1530029.3, 23642.598, 0.0, 5.0141215, 4.9802146 
5.76597e+1, 1.4644264e+2, -1480680.3, -1532227.8, -136.53195, -0.0065174014, 0.010513971, -1480679.9, 24184.26, 0.0, 5.0140753, 4.9805083 
5.7659864e+1, 1.514226e+2, -1431784.4, -1483251.5, -125.48694, -0.0023308196, 0.0024086558, -1431784.0, 24273.172, 0.0, 5.0140224, 4.9805083 
5.766003e+1, 1.5640257e+2, -1384321.3, -1437254.0, -114.548546, 0.0018469121, -0.0052428017, -1384321.0, 22929.402, 0.0, 5.013968, 4.9795127 
5.76602e+1, 1.6137874e+2, -1344554.0, -1407484.5, 67.44382, 0.005047673, -0.00500644, -1344553.9, 13927.795, 0.0, 5.013937, 4.973077 
5.766036e+1, 1.6635188e+2, -1295542.8, -1358696.5, 74.04975, 0.006138718, -0.0056558666, -1295542.8, 14202.411, 0.0, 5.0139575, 4.972953 
5.7660514e+1, 1.7132506e+2, -1246355.8, -1309538.0, 33.69906, 0.0071401317, -0.0060548, -1246355.8, 14652.651, 0.0, 5.013977, 4.9729533 
5.766067e+1, 1.7629822e+2, -1198314.6, -1262788.9, -6.8264437, 0.008124848, -0.0060576, -1198314.6, 13957.104, 0.0, 5.0139937, 4.972146 
5.7660717e+1, 1.8126763e+2, -1157846.9, -1232173.1, -94.10941, 0.008291811, 0.000064151325, -1157846.8, 5724.722, 0.0, 5.01402, 4.965881 
5.7660455e+1, 1.8623331e+2, -1108245.5, -1182355.5, -97.77178, 0.006204086, -0.006211649, -1108245.4, 6661.531, 0.0, 5.0140705, 4.966065 
5.7660174e+1, 1.9119897e+2, -1058909.8, -1133091.6, -71.41115, 0.0039695753, -0.012902914, -1058909.6, 7332.776, 0.0, 5.0141177, 4.9660654 
5.7659894e+1, 1.9616464e+2, -1010478.25, -1085750.6, -45.120186, 0.0017158323, -0.019270625, -1010478.25, 7099.7285, 0.0, 5.014161, 4.9654155 
5.7659674e+1, 2.0112702e+2, -970356.1, -1056313.5, -137.67, 0.00057266344, -0.014715974, -970355.9, -1409.2388, 0.0, 5.0142007, 4.958657 
5.7659644e+1, 2.0608665e+2, -920732.9, -1006452.0, -203.52443, 0.0026075167, -0.00964526, -920732.44, -387.09097, 0.0, 5.0142374, 4.95884 
5.765962e+1, 2.110463e+2, -871373.6, -957139.3, -231.12126, 0.004810807, -0.0044987407, -871373.0, 370.75262, 0.0, 5.014269, 4.9588404 
5.76596e+1, 2.1600595e+2, -822695.2, -909289.1, -258.87146, 0.006992191, 0.0007830077, -822694.4, 447.78357, 0.0, 5.0142956, 4.958342 
5.7659495e+1, 2.2096188e+2, -783160.5, -881564.56, -257.9044, 0.008052712, 0.014207754, -783159.9, -8581.387, 0.0, 5.01434, 4.950909 
5.7659143e+1, 2.259137e+2, -733354.94, -831624.1, -335.80936, 0.006173407, 0.018474393, -733353.75, -7294.8477, 0.0, 5.0144253, 4.951069 
5.7658786e+1, 2.3086551e+2, -683780.25, -782170.56, -426.11288, 0.004118757, 0.022479318, -683778.44, -6238.74, 0.0, 5.0145044, 4.9510703 
5.765842e+1, 2.3581733e+2, -634877.2, -734174.56, -517.2813, 0.0020487462, 0.02649395, -634874.5, -5854.0186, 0.0, 5.014577, 4.95057 
5.765807e+1, 2.4076572e+2, -593987.5, -704085.4, -879.5372, 0.0009086069, 0.040391978, -593980.44, -13448.19, 0.0, 5.0146575, 4.9438415 
5.765756e+1, 2.4571034e+2, -542911.5, -651879.2, -1179.1436, 0.0033048089, 0.03703266, -542898.75, -10826.674, 0.0, 5.0148373, 4.9447207 
5.765702e+1, 2.5065485e+2, -492975.4, -602242.8, -1250.5446, 0.0060051675, 0.03091226, -492961.1, -9348.739, 0.0, 5.015019, 4.9447184 
5.765649e+1, 2.5559938e+2, -443322.66, -553190.94, -1318.151, 0.00868606, 0.024947846, -443306.84, -8154.336, 0.0, 5.0151873, 4.944518 
5.765566e+1, 2.6053974e+2, -405657.16, -531613.3, -1817.3606, 0.009772437, 0.033471927, -405630.94, -18892.322, 0.0, 5.015408, 4.934589 
5.765459e+1, 2.65478e+2, -354172.84, -478841.5, -2208.392, 0.012545642, 0.048139915, -354133.75, -15767.956, 0.0, 5.0156064, 4.9355035 
5.7653666e+1, 2.7041677e+2, -304131.13, -429095.63, -2416.7822, 0.017294789, 0.06433266, -304084.4, -14094.06, 0.0, 5.0157304, 4.935526 
5.765282e+1, 2.7535543e+2, -254251.66, -379558.38, -2665.318, 0.022990935, 0.07905728, -254194.98, -12579.265, 0.0, 5.015803, 4.935501 
5.765138e+1, 2.8029123e+2, -222639.47, -373083.78, -4652.5757, 0.035537712, 0.16011657, -222495.72, -29237.031, 0.0, 5.0162506, 4.9202356 
5.765226e+1, 2.8521597e+2, -162699.56, -297572.28, -760.9894, 0.037050795, 0.13137123, -162695.27, -17737.389, 0.0, 5.016101, 4.929239 
5.7654256e+1, 2.9013705e+2, -115039.07, -248934.22, 127.162125, 0.031232297, 0.03230183, -115038.95, -18352.605, 0.0, 5.0154333, 4.929211 
5.765631e+1, 2.9505798e+2, -67538.82, -200394.11, 1039.0127, 0.02588362, -0.06830455, -67530.695, -19114.553, 0.0, 5.014681, 4.929184 
5.765843e+1, 2.999978e+2, -9775.25, -94642.41, 1253.4467, 0.023322217, -0.115388505, -9756.741, -9756.741, 0.0, 5.013957, 4.9588456 
5.7662374e+1, 3.049754e+2, -6242.846, -82973.36, 954.3177, 0.03910442, -0.0043981276, -6230.979, -6230.979, 0.0, 5.01334, 4.962646 
5.7667047e+1, 3.0995718e+2, -7933.046, -82725.8, 118.57999, 0.06078397, 0.122709684, -7932.858, -7932.858, 0.0, 5.012508, 4.9630346 
5.7671905e+1, 3.149396e+2, -10047.168, -82771.336, -1310.4489, 0.08455971, 0.25088653, -10023.562, -10023.562, 0.0, 5.011478, 4.9634247 
6.2673926e+1, 1.21524476e+2, -1709322.4, -1743873.8, 48.487118, 0.005539151, 0.032555483, -1709322.3, 39747.31, 0.0, 5.0141077, 4.991585 
6.267438e+1, 1.2650622e+2, -1668963.9, -1712241.8, 254.42075, 0.006464963, -0.012929093, -1668962.4, 31281.564, 0.0, 5.0140667, 4.9859085 
6.267412e+1, 1.3149256e+2, -1620096.4, -1663304.0, 417.38065, 0.00024083609, -0.009448832, -1620092.3, 31285.627, 0.0, 5.0140233, 4.985909 
6.267386e+1, 1.3647886e+2, -1573438.4, -1618904.3, 580.2126, -0.0059343097, -0.004713277, -1573431.0, 29081.201, 0.0, 5.0139794, 4.9844055 
6.2673724e+1, 1.4146227e+2, -1530580.4, -1582431.3, 272.28384, -0.008960973, 0.011372229, -1530578.9, 23095.107, 0.0, 5.013949, 4.980191 
6.2673813e+1, 1.4644247e+2, -1481198.6, -1532639.1, 58.768753, -0.0053447313, 0.006665201, -1481198.6, 23666.67, 0.0, 5.0139346, 4.98044 
6.2673914e+1, 1.514226e+2, -1432185.8, -1483605.1, -54.93757, -0.0014932501, 0.0010026855, -1432185.6, 23871.344, 0.0, 5.013921, 4.98044 
6.2674016e+1, 1.5640275e+2, -1384601.8, -1437548.0, -168.68213, 0.0023718767, -0.0041979244, -1384601.3, 22647.701, 0.0, 5.013906, 4.9794445 
6.2674147e+1, 1.6137901e+2, -1344623.4, -1407560.0, 6.6469717, 0.0052287844, -0.0026213313, -1344623.4, 13856.309, 0.0, 5.013922, 4.9730587 
6.2674314e+1, 1.6635203e+2, -1295407.5, -1358642.5, 94.25369, 0.0058658966, -0.0044066133, -1295407.4, 14336.645, 0.0, 5.0140057, 4.972948 
6.267448e+1, 1.7132507e+2, -1246025.6, -1309390.8, 123.512146, 0.0064464477, -0.006033379, -1246025.4, 14982.951, 0.0, 5.0140915, 4.972948 
6.267465e+1, 1.7629811e+2, -1197782.4, -1262545.4, 152.73079, 0.007050144, -0.0072651748, -1197782.0, 14490.605, 0.0, 5.0141773, 4.9721413 
6.267471e+1, 1.8126747e+2, -1157234.1, -1231873.1, 85.705605, 0.0069875927, -0.0017439303, -1157234.0, 6338.7236, 0.0, 5.0142274, 4.965884 
6.267446e+1, 1.8623324e+2, -1107892.0, -1182168.0, 38.59002, 0.004967656, -0.007259139, -1107892.0, 7015.491, 0.0, 5.014187, 4.9660735 
6.2674195e+1, 1.9119897e+2, -1058826.1, -1133033.0, 26.136974, 0.0028565077, -0.013151955, -1058826.0, 7416.265, 0.0, 5.0141416, 4.966074 
6.2673926e+1, 1.9616473e+2, -1010651.7, -1085814.3, 13.592707, 0.00077102944, -0.018729206, -1010651.7, 6925.398, 0.0, 5.0140963, 4.965424 
6.267375e+1, 2.0112717e+2, -970647.4, -1056500.5, -41.776524, -0.00024547777, -0.013712338, -970647.4, -1701.9426, 0.0, 5.014109, 4.958636 
6.267381e+1, 2.0608675e+2, -920698.9, -1006526.5, -91.62739, 0.0017156706, -0.008564903, -920698.8, -354.20892, 0.0, 5.0142665, 4.958801 
6.267388e+1, 2.1104637e+2, -870958.94, -957034.3, -126.19893, 0.0038837742, -0.0033025318, -870958.75, 784.7564, 0.0, 5.014431, 4.9588017 
6.2673956e+1, 2.16006e+2, -821888.8, -909000.94, -160.7678, 0.006082744, 0.0021081066, -821888.5, 1253.8823, 0.0, 5.014595, 4.958303 
6.267397e+1, 2.209619e+2, -781995.3, -881018.56, -98.459984, 0.007312768, 0.015448629, -781995.25, -7416.121, 0.0, 5.014747, 4.950909 
6.2673765e+1, 2.2591364e+2, -732110.94, -831011.4, 11.914432, 0.0058292295, 0.018898789, -732110.94, -6050.848, 0.0, 5.0148554, 4.9510827 
6.267355e+1, 2.3086539e+2, -682469.7, -781528.0, 114.53996, 0.0042399126, 0.022072027, -682469.56, -4928.131, 0.0, 5.014959, 4.9510846 
6.2673336e+1, 2.3581713e+2, -633481.9, -733494.06, 216.43713, 0.0027072278, 0.02529755, -633481.4, -4458.661, 0.0, 5.015062, 4.950585 
6.2673086e+1, 2.407655e+2, -592472.1, -703420.56, 130.45784, 0.0014505472, 0.039003685, -592471.94, -11937.4, 0.0, 5.015199, 4.9438267 
6.267261e+1, 2.4571025e+2, -540980.1, -651058.3, 2.437538, 0.0015013398, 0.03719089, -540980.1, -8906.981, 0.0, 5.0155334, 4.9446926 
6.267212e+1, 2.5065488e+2, -490549.34, -601189.94, 18.997173, 0.0017895016, 0.032638602, -490549.3, -6937.0796, 0.0, 5.0158887, 4.944693 
6.267164e+1, 2.5559953e+2, -440375.2, -551896.2, 37.050076, 0.0021607422, 0.028126957, -440375.16, -5223.8657, 0.0, 5.01624, 4.9444947 
6.267094e+1, 2.6053983e+2, -402371.38, -530449.56, -164.73595, 0.0011780604, 0.03694408, -402371.16, -15633.124, 0.0, 5.0166383, 4.934435 
6.266995e+1, 2.6547778e+2, -350620.97, -477805.0, -677.61, 0.0006564247, 0.05086759, -350617.38, -12247.831, 0.0, 5.016996, 4.9352245 
6.2669045e+1, 2.7041635e+2, -300042.06, -427768.53, -1104.3452, 0.0016063887, 0.06811383, -300032.5, -10035.155, 0.0, 5.0173182, 4.9352517 
6.266821e+1, 2.7535498e+2, -249519.98, -377883.78, -1568.006, 0.0033967318, 0.08552514, -249500.83, -7876.141, 0.0, 5.0176272, 4.935231 
6.266676e+1, 2.8029105e+2, -215951.31, -371766.16, -2290.866, 0.006844315, 0.17567003, -215917.64, -22651.455, 0.0, 5.0187855, 4.919592 
6.266716e+1, 2.852158e+2, -154983.89, -294306.63, 275.20297, 0.0072111003, 0.14676216, -154983.34, -10016.3955, 0.0, 5.018553, 4.9294 
6.266859e+1, 2.9013672e+2, -108961.19, -246232.58, 68.051476, 0.0064729294, 0.042394515, -108961.15, -12262.702, 0.0, 5.01731, 4.9294324 
6.267009e+1, 2.9505765e+2, -62901.734, -198151.13, -177.87788, 0.0065286676, -0.062305376, -62901.5, -14471.617, 0.0, 5.0160437, 4.929465 
6.2671757e+1, 2.9999712e+2, -7284.7266, -94991.93, -867.21124, 0.00936043, -0.11354726, -7276.153, -7276.153, 0.0, 5.0148897, 4.9583864 
6.267537e+1, 3.0497506e+2, -5869.595, -85858.76, -1650.7098, 0.029693218, 0.006943545, -5835.545, -5835.545, 0.0, 5.013721, 4.9614787 
6.267966e+1, 3.099572e+2, -9145.154, -87378.06, -2150.2063, 0.05652821, 0.1488335, -9086.101, -9086.101, 0.0, 5.0124226, 4.961448 
6.268414e+1, 3.149394e+2, -12415.05, -88906.27, -2622.6482, 0.086413525, 0.29199415, -12325.232, -12325.232, 0.0, 5.011094, 4.9614177 
6.7688036e+1, 1.2152295e+2, -1710651.3, -1746576.8, 12.945202, 0.005388381, 0.01857144, -1710651.3, 38432.902, 0.0, 5.0141077, 4.9906974 
6.7688394e+1, 1.2650795e+2, -1668647.8, -1711598.8, 219.14514, 0.005877244, 0.004750083, -1668646.6, 31580.695, 0.0, 5.0140667, 4.98612 
6.768823e+1, 1.3149358e+2, -1619781.5, -1662663.0, 383.4937, 0.0011378304, -0.00093265425, -1619778.0, 31589.398, 0.0, 5.0140233, 4.9861207 
6.768808e+1, 1.3647918e+2, -1573124.6, -1618265.0, 547.7245, -0.0035718505, -0.0053651445, -1573118.0, 29389.85, 0.0, 5.01398, 4.984617 
6.768797e+1, 1.4146213e+2, -1530679.8, -1582636.8, 257.68555, -0.005931509, 0.0052063903, -1530678.4, 22995.305, 0.0, 5.013949, 4.9801235 
6.768795e+1, 1.4644244e+2, -1481409.1, -1533074.8, 47.92063, -0.0033851156, 0.002811206, -1481409.1, 23455.693, 0.0, 5.0139346, 4.980296 
6.7687917e+1, 1.514227e+2, -1432394.5, -1484039.1, -64.96967, -0.00067488034, -0.00028065767, -1432394.4, 23661.883, 0.0, 5.013921, 4.980296 
6.76879e+1, 1.5640295e+2, -1384808.8, -1437980.8, -177.89575, 0.0020397597, -0.0029129589, -1384808.3, 22439.672, 0.0, 5.0139065, 4.9793005 
6.768795e+1, 1.6137925e+2, -1344618.9, -1407550.3, 54.255135, 0.004000307, -0.00016786908, -1344618.9, 13859.835, 0.0, 5.013922, 4.9730625 
6.768816e+1, 1.6635211e+2, -1295351.6, -1358525.1, 159.21162, 0.004290069, -0.003722275, -1295351.3, 14392.504, 0.0, 5.0140057, 4.9729877 
6.768839e+1, 1.7132501e+2, -1245969.9, -1309273.6, 189.50331, 0.0045252317, -0.007210775, -1245969.4, 15039.3545, 0.0, 5.0140915, 4.9729877 
6.7688596e+1, 1.762979e+2, -1197726.9, -1262428.8, 219.74426, 0.004767195, -0.010304167, -1197726.1, 14547.563, 0.0, 5.0141773, 4.972181 
6.7688704e+1, 1.8126722e+2, -1157231.9, -1231868.0, 76.7086, 0.004586705, -0.0054877643, -1157231.8, 6342.162, 0.0, 5.0142274, 4.965886 
6.768847e+1, 1.8623315e+2, -1107909.3, -1182205.1, 4.7492933, 0.0031683238, -0.008961229, -1107909.3, 6998.008, 0.0, 5.014187, 4.9660616 
6.7688227e+1, 1.9119911e+2, -1058842.8, -1133070.0, -6.2200904, 0.0016818683, -0.012696332, -1058842.8, 7397.842, 0.0, 5.0141416, 4.966062 
6.768797e+1, 1.9616507e+2, -1010667.75, -1085850.9, -17.275679, 0.00020143112, -0.016118143, -1010667.75, 6906.0293, 0.0, 5.0140963, 4.9654117 
6.7687833e+1, 2.0112759e+2, -970680.06, -1056571.4, 41.31102, -0.0005589606, -0.010086018, -970680.06, -1738.3915, 0.0, 5.014109, 4.958612 
6.768797e+1, 2.0608701e+2, -920753.75, -1006645.5, 33.52698, 0.00063029496, -0.0062485165, -920753.75, -411.06058, 0.0, 5.0142665, 4.9587607 
6.7688125e+1, 2.1104644e+2, -871013.4, -957152.8, 0.9114353, 0.0019363412, -0.0023503506, -871013.4, 730.1165, 0.0, 5.0144305, 4.9587617 
6.7688286e+1, 2.160059e+2, -821942.9, -909118.94, -31.714315, 0.003250314, 0.001694055, -821942.9, 1201.4447, 0.0, 5.0145946, 4.958263 
6.7688406e+1, 2.2096169e+2, -781873.5, -880750.4, 0.69820035, 0.0041277893, 0.013919118, -781873.5, -7291.5137, 0.0, 5.0147467, 4.951002 
6.768843e+1, 2.2591351e+2, -731927.1, -830611.7, 100.89187, 0.003733114, 0.016834686, -731927.0, -5865.4966, 0.0, 5.0148554, 4.9512215 
6.768844e+1, 2.3086533e+2, -682284.25, -781129.06, 207.5038, 0.0032598071, 0.019475918, -682283.8, -4742.5815, 0.0, 5.0149603, 4.951223 
6.768845e+1, 2.3581715e+2, -633294.8, -733095.8, 313.37903, 0.0027917747, 0.022150226, -633293.8, -4272.8643, 0.0, 5.0150642, 4.9507227 
6.768837e+1, 2.4076556e+2, -592346.25, -703171.9, 318.30017, 0.0017629357, 0.03503834, -592345.3, -11813.527, 0.0, 5.0152035, 4.943911 
6.7688006e+1, 2.4571043e+2, -540935.44, -650984.6, 271.82898, -0.0005890118, 0.034051105, -540934.8, -8865.347, 0.0, 5.015536, 4.944718 
6.768761e+1, 2.506552e+2, -490512.63, -601117.7, 295.3931, -0.0029718948, 0.030799052, -490511.8, -6904.523, 0.0, 5.015888, 4.944719 
6.7687225e+1, 2.556e+2, -440346.38, -551825.3, 320.4389, -0.005342151, 0.0276204, -440345.47, -5200.375, 0.0, 5.016237, 4.944522 
6.768676e+1, 2.6054052e+2, -402403.53, -530519.2, 296.79153, -0.008482431, 0.037927307, -402402.84, -15673.05, 0.0, 5.016633, 4.9344215 
6.768602e+1, 2.6547825e+2, -350903.72, -478634.97, -105.9731, -0.011865331, 0.052452523, -350903.63, -12540.88, 0.0, 5.017015, 4.934952 
6.7685294e+1, 2.7041638e+2, -300237.2, -428608.8, -487.1047, -0.014974427, 0.06954825, -300235.34, -10241.724, 0.0, 5.0173664, 4.9349637 
6.7684615e+1, 2.7535453e+2, -249627.8, -378734.72, -905.17773, -0.0179988, 0.0863427, -249621.44, -7996.9517, 0.0, 5.0177035, 4.9349284 
6.768338e+1, 2.8028977e+2, -215559.98, -370646.2, -1240.4016, -0.025287809, 0.16820538, -215550.06, -22275.762, 0.0, 5.0187564, 4.919987 
6.7683226e+1, 2.8521463e+2, -155597.11, -294945.44, -527.4334, -0.024924379, 0.1409293, -155595.13, -10614.661, 0.0, 5.018441, 4.929216 
6.768384e+1, 2.9013607e+2, -109511.984, -246909.36, -666.96155, -0.019385057, 0.04582336, -109508.75, -12795.077, 0.0, 5.017221, 4.92923 
6.76845e+1, 2.9505754e+2, -63390.11, -198866.0, -845.24347, -0.013761023, -0.049776267, -63384.836, -14937.73, 0.0, 5.015977, 4.929244 
6.76854e+1, 2.999974e+2, -7296.8657, -94781.66, -1196.0044, -0.0069065318, -0.09593511, -7280.518, -7267.8022, 0.0, 5.0148406, 4.958479 
6.768791e+1, 3.0497444e+2, -6303.406, -86651.53, -1815.0626, 0.011721355, 0.01939081, -6262.4243, -6262.4243, 0.0, 5.013669, 4.9612517 
6.7690843e+1, 3.099555e+2, -9564.269, -88059.016, -2219.9373, 0.033878896, 0.15641102, -9501.536, -9501.536, 0.0, 5.012365, 4.9612546 
6.7693895e+1, 3.1493664e+2, -12819.434, -89475.336, -2597.6748, 0.05706598, 0.29438224, -12731.505, -12731.505, 0.0, 5.0110307, 4.9612575 
7.2702134e+1, 1.2152136e+2, -1711923.1, -1749163.0, -23.68002, 0.0051880185, 0.004015743, -1711923.0, 37176.24, 0.0, 5.0141077, 4.9898486 
7.270241e+1, 1.265097e+2, -1668332.0, -1710955.5, 184.07442, 0.0052970117, 0.022479193, -1668331.3, 31879.451, 0.0, 5.0140667, 4.986332 
7.2702354e+1, 1.3149461e+2, -1619467.0, -1662021.8, 349.8115, 0.0020422859, 0.007613962, -1619464.1, 31892.795, 0.0, 5.0140233, 4.9863324 
7.27023e+1, 1.3647951e+2, -1572811.1, -1617625.4, 515.44104, -0.0012019561, -0.0060060686, -1572805.3, 29698.123, 0.0, 5.0139804, 4.9848285 
7.2702235e+1, 1.4146203e+2, -1530783.9, -1582851.9, 242.31474, -0.0028992828, -0.00093444885, -1530782.8, 22890.621, 0.0, 5.013949, 4.9800525 
7.270208e+1, 1.4644241e+2, -1481619.9, -1533510.3, 37.11913, -0.001424202, -0.0010232594, -1481619.9, 23244.47, 0.0, 5.0139346, 4.980152 
7.2701925e+1, 1.5142277e+2, -1432603.5, -1484473.1, -74.955086, 0.00014414654, -0.0015584328, -1432603.4, 23452.182, 0.0, 5.013921, 4.9801517 
7.2701764e+1, 1.5640314e+2, -1385016.1, -1438413.4, -187.06262, 0.001707659, -0.001636387, -1385015.5, 22231.406, 0.0, 5.0139065, 4.9791565 
7.270175e+1, 1.6137946e+2, -1344618.8, -1407548.9, 101.56376, 0.0027738477, 0.0023033712, -1344618.5, 13859.153, 0.0, 5.013922, 4.973063 
7.270201e+1, 1.663522e+2, -1295296.1, -1358407.4, 224.21614, 0.002715879, -0.0030213671, -1295295.3, 14448.151, 0.0, 5.014005, 4.973027 
7.270229e+1, 1.7132495e+2, -1245914.6, -1309156.4, 255.54103, 0.0026044992, -0.008384747, -1245913.6, 15095.557, 0.0, 5.0140915, 4.973027 
7.270255e+1, 1.762977e+2, -1197671.8, -1262311.9, 286.80426, 0.0024835754, -0.013352883, -1197670.5, 14604.326, 0.0, 5.0141773, 4.9722204 
7.27027e+1, 1.8126695e+2, -1157234.8, -1231872.9, 67.57678, 0.0021843729, -0.009212598, -1157234.6, 6340.46, 0.0, 5.014227, 4.9658847 
7.2702485e+1, 1.8623309e+2, -1107926.9, -1182242.0, -29.030333, 0.0013665385, -0.010650943, -1107926.9, 6980.103, 0.0, 5.0141864, 4.9660487 
7.270225e+1, 1.9119924e+2, -1058859.8, -1133106.5, -38.516033, 0.0005036102, -0.012250384, -1058859.8, 7379.0044, 0.0, 5.0141416, 4.966049 
7.2702026e+1, 1.9616541e+2, -1010684.25, -1085887.3, -48.08292, -0.00037295173, -0.013538801, -1010684.25, 6886.253, 0.0, 5.0140967, 4.9653993 
7.270192e+1, 2.0112802e+2, -970721.2, -1056659.6, 123.95813, -0.0008749315, -0.00641452, -970721.06, -1783.1599, 0.0, 5.014109, 4.958582 
7.270214e+1, 2.0608726e+2, -920809.1, -1006764.1, 158.6967, -0.0004557615, -0.003879, -920808.8, -468.13705, 0.0, 5.014266, 4.95872 
7.270238e+1, 2.1104655e+2, -871068.4, -957270.94, 128.03719, -0.000011357073, -0.0013766895, -871068.2, 675.2763, 0.0, 5.0144305, 4.958721 
7.2702605e+1, 2.160058e+2, -821997.44, -909236.56, 97.35461, 0.00041803438, 0.001269834, -821997.4, 1148.8278, 0.0, 5.0145946, 4.958223 
7.270285e+1, 2.2096148e+2, -781764.75, -880508.5, 99.24897, 0.0009320624, 0.012437692, -781764.7, -7179.8755, 0.0, 5.014746, 4.951085 
7.270309e+1, 2.2591338e+2, -731744.75, -830210.75, 190.14812, 0.0016206249, 0.0148085365, -731744.4, -5681.521, 0.0, 5.014856, 4.9513593 
7.2703326e+1, 2.3086528e+2, -682100.3, -780728.8, 300.74606, 0.0022615814, 0.016861442, -682099.4, -4558.367, 0.0, 5.0149612, 4.9513607 
7.270355e+1, 2.3581718e+2, -633109.3, -732696.2, 410.59897, 0.0028564543, 0.018928215, -633107.56, -4088.363, 0.0, 5.015066, 4.95086 
7.270366e+1, 2.4076565e+2, -592244.56, -702965.56, 509.44833, 0.0020673217, 0.031183371, -592242.25, -11713.275, 0.0, 5.0152073, 4.9439793 
7.270339e+1, 2.4571063e+2, -540897.0, -650904.94, 540.6479, -0.0026865364, 0.031071281, -540894.3, -8828.733, 0.0, 5.015538, 4.944742 
7.27031e+1, 2.5065556e+2, -490482.1, -601039.44, 571.2172, -0.007747837, 0.029032089, -490479.13, -6876.885, 0.0, 5.0158877, 4.944744 
7.2702813e+1, 2.5560048e+2, -440323.75, -551748.44, 603.2566, -0.012866958, 0.027099052, -440320.5, -5181.7026, 0.0, 5.0162334, 4.9445477 
7.270255e+1, 2.6054123e+2, -402502.44, -530695.8, 762.9693, -0.018352194, 0.03896862, -402497.9, -15776.271, 0.0, 5.016628, 4.9343643 
7.2702086e+1, 2.6547867e+2, -351208.0, -479444.5, 489.7324, -0.024707166, 0.053853832, -351206.16, -12849.933, 0.0, 5.017034, 4.9346724 
7.2701573e+1, 2.7041638e+2, -300453.75, -429428.66, 154.1836, -0.031894606, 0.07038553, -300453.56, -10463.341, 0.0, 5.017414, 4.9346695 
7.270108e+1, 2.7535403e+2, -249756.95, -379565.2, -218.3237, -0.039752975, 0.0861496, -249756.58, -8131.7944, 0.0, 5.0177803, 4.9346194 
7.2699964e+1, 2.802885e+2, -215354.47, -369933.88, -386.2956, -0.057636548, 0.16079947, -215353.5, -22071.055, 0.0, 5.0187273, 4.9202332 
7.269919e+1, 2.852134e+2, -156247.6, -295548.0, -1295.0881, -0.057051666, 0.13518874, -156235.55, -11241.409, 0.0, 5.0183296, 4.929023 
7.269902e+1, 2.9013538e+2, -110099.98, -247549.7, -1366.9342, -0.0451125, 0.048124395, -110086.38, -13356.625, 0.0, 5.017132, 4.929018 
7.2698873e+1, 2.9505724e+2, -63915.605, -199544.25, -1477.5099, -0.03379783, -0.039594892, -63899.51, -15433.639, 0.0, 5.01591, 4.9290137 
7.269901e+1, 2.9999763e+2, -7550.9194, -95009.58, -1533.9205, -0.023085378, -0.078547426, -7524.0244, -7491.9307, 0.0, 5.014792, 4.9583964 
7.270034e+1, 3.0497393e+2, -6785.125, -87396.77, -2023.5094, -0.0069612763, 0.033833493, -6734.363, -6734.363, 0.0, 5.013618, 4.9610205 
7.270186e+1, 3.099539e+2, -10031.349, -88692.32, -2333.8271, 0.009779521, 0.1648086, -9962.166, -9962.166, 0.0, 5.0123076, 4.9610567 
7.270342e+1, 3.149339e+2, -13271.834, -89996.6, -2616.9258, 0.025529506, 0.29641512, -13182.68, -13182.68, 0.0, 5.010967, 4.9610925 
7.771623e+1, 1.2151971e+2, -1713125.9, -1751624.0, -40.861053, 0.004954551, -0.01111596, -1713125.9, 35989.23, 0.0, 5.014111, 4.989039 
7.771642e+1, 1.2651144e+2, -1668005.4, -1710306.4, 162.86583, 0.004731291, 0.040223096, -1668004.8, 32189.223, 0.0, 5.0140705, 4.9865437 
7.7716476e+1, 1.3149565e+2, -1619159.0, -1661383.4, 319.7995, 0.0029557194, 0.016175348, -1619156.5, 32189.803, 0.0, 5.014022, 4.9865437 
7.771653e+1, 1.3647984e+2, -1572537.6, -1617005.3, 476.26306, 0.0011745759, -0.0066325273, -1572532.5, 29966.434, 0.0, 5.0139675, 4.9850397 
7.771648e+1, 1.414619e+2, -1530955.0, -1583106.6, 213.84676, 0.00013482729, -0.0070358547, -1530954.1, 22718.93, 0.0, 5.013928, 4.9799786 
7.771621e+1, 1.4644238e+2, -1481869.0, -1533964.0, 18.852215, 0.00053702464, -0.004829644, -1481869.0, 22994.834, 0.0, 5.0139217, 4.9800076 
7.771593e+1, 1.5142287e+2, -1432831.0, -1484915.5, -87.480156, 0.0009641063, -0.00282857, -1432830.8, 23224.025, 0.0, 5.0139146, 4.980007 
7.771565e+1, 1.5640333e+2, -1385227.5, -1438847.3, -193.902, 0.0013785218, -0.00037270616, -1385226.8, 22019.098, 0.0, 5.013905, 4.979012 
7.771555e+1, 1.6137968e+2, -1344618.5, -1407553.8, 154.38083, 0.0015544787, 0.004784489, -1344618.1, 13858.557, 0.0, 5.013923, 4.9730606 
7.771587e+1, 1.663523e+2, -1295239.3, -1358288.6, 295.1202, 0.0011482581, -0.002307656, -1295237.9, 14505.187, 0.0, 5.0140057, 4.9730663 
7.7716184e+1, 1.713249e+2, -1245871.5, -1309044.5, 327.38428, 0.00069143454, -0.009554597, -1245869.8, 15139.759, 0.0, 5.014087, 4.973067 
7.7716506e+1, 1.7629749e+2, -1197652.6, -1262211.8, 359.5958, 0.00021124608, -0.01640613, -1197650.6, 14625.303, 0.0, 5.014165, 4.9722595 
7.771669e+1, 1.812667e+2, -1157297.3, -1231914.0, 64.437195, -0.00020427183, -0.012911719, -1157297.3, 6279.089, 0.0, 5.0142083, 4.9658794 
7.77165e+1, 1.8623303e+2, -1107992.4, -1182301.1, -57.486374, -0.00042634373, -0.012326045, -1107992.4, 6914.351, 0.0, 5.01417, 4.9660363 
7.7716285e+1, 1.9119939e+2, -1058928.8, -1133167.4, -67.314384, -0.0006676259, -0.011815847, -1058928.6, 7308.3315, 0.0, 5.0141244, 4.9660363 
7.771607e+1, 1.9616574e+2, -1010769.2, -1085955.6, -77.97122, -0.0009387333, -0.010996194, -1010769.1, 6798.0723, 0.0, 5.0140734, 4.9653864 
7.771601e+1, 2.0112845e+2, -970856.6, -1056805.4, 206.61766, -0.0011777304, -0.0027046925, -970856.1, -1922.0697, 0.0, 5.0140796, 4.9585457 
7.771631e+1, 2.0608754e+2, -920954.4, -1006924.0, 288.9161, -0.0015308282, -0.0014624627, -920953.44, -614.7513, 0.0, 5.014235, 4.958679 
7.771662e+1, 2.1104662e+2, -871232.1, -957439.2, 263.70374, -0.0019476543, -0.0003867399, -871231.3, 512.0573, 0.0, 5.014393, 4.9586806 
7.771693e+1, 2.1600571e+2, -822196.1, -909420.75, 237.21053, -0.0023979894, 0.0008311594, -822195.44, 952.5687, 0.0, 5.0145445, 4.958182 
7.771729e+1, 2.2096129e+2, -781842.5, -880373.3, 209.89384, -0.002253829, 0.010999647, -781842.06, -7254.462, 0.0, 5.0146856, 4.951159 
7.771775e+1, 2.2591326e+2, -731723.4, -829882.2, 293.5116, -0.00049008866, 0.012811322, -731722.5, -5658.3223, 0.0, 5.0148, 4.9514966 
7.771821e+1, 2.3086524e+2, -682087.6, -780405.4, 409.7638, 0.0012678616, 0.014212852, -682085.9, -4545.078, 0.0, 5.014903, 4.9514976 
7.7718663e+1, 2.358172e+2, -633133.0, -732390.56, 526.17316, 0.002936028, 0.015606624, -633130.2, -4112.6846, 0.0, 5.0149956, 4.9509974 
7.7718955e+1, 2.4076574e+2, -592418.75, -702916.4, 726.5889, 0.0024141928, 0.027404783, -592414.0, -11887.931, 0.0, 5.015123, 4.9440312 
7.771879e+1, 2.4571085e+2, -541105.25, -650929.44, 830.4286, -0.004732073, 0.02822604, -541098.94, -9037.341, 0.0, 5.015456, 4.944765 
7.77186e+1, 2.5065592e+2, -490699.4, -601066.25, 860.0989, -0.012464212, 0.027333513, -490692.7, -7095.6104, 0.0, 5.0158033, 4.944768 
7.77184e+1, 2.55601e+2, -440568.2, -551785.5, 885.4781, -0.020317268, 0.026590748, -440561.16, -5428.764, 0.0, 5.01614, 4.944572 
7.771832e+1, 2.605419e+2, -402993.38, -531116.75, 1248.1871, -0.028295755, 0.04010262, -402981.22, -16267.721, 0.0, 5.016508, 4.934266 
7.771816e+1, 2.6547906e+2, -352130.84, -480473.03, 1336.1903, -0.037619147, 0.054939043, -352116.94, -13767.034, 0.0, 5.01684, 4.9343977 
7.771791e+1, 2.7041632e+2, -301757.84, -430663.7, 1398.337, -0.048717625, 0.070250474, -301742.7, -11755.44, 0.0, 5.01708, 4.9343843 
7.771767e+1, 2.7535346e+2, -251625.63, -381087.28, 1547.6787, -0.061174802, 0.084267855, -251607.13, -9981.449, 0.0, 5.0172396, 4.934324 
7.7716583e+1, 2.802872e+2, -217672.31, -370659.3, 1813.9093, -0.08927974, 0.1525269, -217650.81, -24360.068, 0.0, 5.01787, 4.920335 
7.771509e+1, 2.852122e+2, -158708.38, -296927.88, -776.33875, -0.08844623, 0.12897731, -158704.02, -13696.108, 0.0, 5.0175986, 4.928807 
7.7714163e+1, 2.9013458e+2, -111899.76, -248689.0, -1149.8196, -0.07019749, 0.049110264, -111890.09, -15143.663, 0.0, 5.0166364, 4.9287853 
7.771325e+1, 2.9505688e+2, -65222.676, -200518.63, -1504.1583, -0.053229406, -0.031661123, -65205.957, -16720.186, 0.0, 5.0155916, 4.9287643 
7.77126e+1, 2.999979e+2, -8527.349, -95836.83, -1479.2024, -0.03892425, -0.061189726, -8502.296, -8451.334, 0.0, 5.0145783, 4.958148 
7.7712685e+1, 3.0497366e+2, -7823.7993, -88192.32, -1348.8184, -0.026096558, 0.049949795, -7801.169, -7801.169, 0.0, 5.0133824, 4.960822 
7.771273e+1, 3.0995238e+2, -11436.487, -89495.84, -604.0001, -0.015372099, 0.17322047, -11431.814, -11431.814, 0.0, 5.0119233, 4.9609075 
7.771277e+1, 3.1493124e+2, -15377.804, -90953.69, 517.71735, -0.0075283735, 0.2969384, -15374.257, -15374.257, 0.0, 5.010311, 4.9609933 
8.273082e+1, 1.2151962e+2, -1711914.5, -1751839.8, 308.77792, 0.006746713, -0.013812339, -1711912.0, 37203.125, 0.0, 5.01469, 4.988683 
8.2730705e+1, 1.265117e+2, -1666901.9, -1709616.3, 345.264, 0.005116683, 0.040786732, -1666899.0, 33292.35, 0.0, 5.0144076, 4.986605 
8.2730615e+1, 1.3149598e+2, -1618797.3, -1661064.1, 288.776, 0.003640701, 0.01688475, -1618795.4, 32547.658, 0.0, 5.014114, 4.9866047 
8.273052e+1, 1.3648024e+2, -1572897.1, -1617044.4, 232.35754, 0.0022133135, -0.0057847844, -1572896.0, 29598.906, 0.0, 5.0138197, 4.9850993 
8.2730377e+1, 1.4146231e+2, -1531795.3, -1583616.5, 19.583359, 0.0011480597, -0.0062416196, -1531795.3, 21873.662, 0.0, 5.0136685, 4.979936 
8.2730085e+1, 1.4644268e+2, -1482281.8, -1534324.3, -37.370483, 0.0006132672, -0.0044617997, -1482281.8, 22579.195, 0.0, 5.0138173, 4.979939 
8.272979e+1, 1.5142305e+2, -1432749.3, -1485033.9, -42.572025, 0.00009446147, -0.0028999094, -1432749.3, 23303.854, 0.0, 5.0139756, 4.9799385 
8.2729495e+1, 1.5640341e+2, -1384649.3, -1438724.4, -47.627712, -0.00041260026, -0.0008855851, -1384649.1, 22596.205, 0.0, 5.0141335, 4.9789433 
8.2729423e+1, 1.613797e+2, -1343672.0, -1407056.5, 343.50726, -0.0005969125, 0.0039308392, -1343670.1, 14806.683, 0.0, 5.014235, 4.9730773 
8.272984e+1, 1.6635233e+2, -1294589.5, -1357881.6, 478.25366, -0.0001493351, -0.0032423337, -1294585.9, 15156.712, 0.0, 5.0142064, 4.9731073 
8.273029e+1, 1.7132495e+2, -1245562.0, -1308802.0, 509.88995, 0.00033388936, -0.0105563905, -1245557.9, 15450.367, 0.0, 5.014173, 4.9731073 
8.273072e+1, 1.7629759e+2, -1197670.8, -1262126.6, 541.50226, 0.0008375904, -0.017473191, -1197666.3, 14607.731, 0.0, 5.014139, 4.9723005 
8.2730955e+1, 1.8126683e+2, -1157641.3, -1232110.3, 205.24722, 0.0010284572, -0.013893952, -1157640.8, 5933.0825, 0.0, 5.014097, 4.9658656 
8.27307e+1, 1.8623318e+2, -1108429.5, -1182589.3, 39.113678, 0.00055522076, -0.012807389, -1108429.5, 6474.949, 0.0, 5.014037, 4.9660015 
8.2730407e+1, 1.9119956e+2, -1059408.4, -1133476.4, -4.7926383, 0.000094488314, -0.011757162, -1059408.4, 6826.505, 0.0, 5.013976, 4.9660015 
8.2730126e+1, 1.9616593e+2, -1011278.75, -1086279.5, -48.777718, -0.00033524286, -0.01038036, -1011278.7, 6286.652, 0.0, 5.0139146, 4.9653506 
8.2730013e+1, 2.0112866e+2, -971421.4, -1057045.8, 325.59155, -0.00092644297, -0.001817705, -971420.1, -2487.8027, 0.0, 5.013879, 4.9585576 
8.2730293e+1, 2.0608771e+2, -921883.4, -1007299.56, 522.62146, -0.00224804, -0.0010862128, -921880.2, -1543.1202, 0.0, 5.0139003, 4.958707 
8.27306e+1, 2.1104677e+2, -872544.5, -957996.8, 586.4929, -0.00359182, -0.00055859867, -872540.44, -798.6499, 0.0, 5.0139236, 4.958707 
8.2730913e+1, 2.1600582e+2, -823872.94, -910150.3, 650.34283, -0.004891109, 0.00011441714, -823868.0, -721.46423, 0.0, 5.013947, 4.9582076 
8.2731307e+1, 2.2096139e+2, -783706.9, -881075.94, 711.0606, -0.0052750935, 0.009868271, -783701.7, -9115.82, 0.0, 5.0139995, 4.951232 
8.273193e+1, 2.2591344e+2, -733497.2, -830489.6, 738.2572, -0.0031962954, 0.011439976, -733491.56, -7430.1035, 0.0, 5.014135, 4.951591 
8.2732564e+1, 2.3086548e+2, -683751.8, -780959.25, 773.3763, -0.00094080187, 0.012535686, -683745.7, -6208.5366, 0.0, 5.014275, 4.9515924 
8.273321e+1, 2.358175e+2, -634660.4, -732879.4, 808.2634, 0.001354982, 0.013566107, -634653.7, -5640.829, 0.0, 5.014415, 4.9510922 
8.273369e+1, 2.4076606e+2, -593900.4, -703398.06, 1056.419, 0.0013334703, 0.024609258, -593890.2, -13369.203, 0.0, 5.014565, 4.9441133 
8.2733756e+1, 2.4571128e+2, -542896.7, -651630.4, 1246.2252, -0.0063062985, 0.025938237, -542882.4, -10826.382, 0.0, 5.014808, 4.94481 
8.273381e+1, 2.5065652e+2, -492766.75, -601909.75, 1309.3335, -0.014545304, 0.026206417, -492751.03, -9160.58, 0.0, 5.015065, 4.9448066 
8.273386e+1, 2.556018e+2, -442891.4, -552761.4, 1371.8369, -0.022801936, 0.026905693, -442874.28, -7749.7534, 0.0, 5.015321, 4.9446044 
8.2734054e+1, 2.6054302e+2, -405277.6, -531444.25, 1937.9056, -0.031190552, 0.042078923, -405247.84, -18545.557, 0.0, 5.0156, 4.934567 
8.273427e+1, 2.6548007e+2, -354159.75, -480314.53, 2403.5962, -0.041167527, 0.052684184, -354113.97, -15777.76, 0.0, 5.015986, 4.9348454 
8.2734466e+1, 2.704171e+2, -303269.03, -430024.2, 2682.9834, -0.051953714, 0.060668115, -303212.28, -13239.962, 0.0, 5.0163884, 4.9349318 
8.273473e+1, 2.7535397e+2, -252414.69, -379910.7, 2932.6702, -0.06299467, 0.06554503, -252347.27, -10737.702, 0.0, 5.0167866, 4.9349704 
8.2734054e+1, 2.8028676e+2, -218211.2, -368179.7, 3628.1948, -0.090671405, 0.11198054, -218123.48, -24842.623, 0.0, 5.0174155, 4.9215255 
8.2731867e+1, 2.8521183e+2, -161982.2, -299830.44, 831.73236, -0.09246483, 0.09312086, -161977.19, -16977.129, 0.0, 5.01709, 4.9281454 
8.2730055e+1, 2.9013482e+2, -114448.35, -251095.92, 330.99527, -0.075579226, 0.031201268, -114447.55, -17712.184, 0.0, 5.0163364, 4.928148 
8.27283e+1, 2.9505762e+2, -66866.836, -202380.69, -229.00684, -0.059246536, -0.034007415, -66866.45, -18393.406, 0.0, 5.015572, 4.92815 
8.2726806e+1, 2.9999954e+2, -7753.0205, -93668.4, -253.31113, -0.04589897, -0.050177176, -7752.2734, -7720.95, 0.0, 5.014876, 4.958788 
8.272563e+1, 3.0497393e+2, -4474.061, -83606.73, -772.2823, -0.039191823, 0.045775432, -4466.525, -4466.525, 0.0, 5.014482, 4.9620786 
8.27244e+1, 3.0995107e+2, -4679.4443, -82261.234, -1084.1954, -0.034180313, 0.1486419, -4664.296, -4664.296, 0.0, 5.014114, 4.962668 
8.2723254e+1, 3.1492937e+2, -4754.6377, -81046.06, -1250.7909, -0.03053207, 0.25596672, -4734.1367, -4734.1367, 0.0, 5.0137296, 4.9632573 
8.774581e+1, 1.2152089e+2, -1711897.9, -1751809.3, 144.61938, 0.009691621, -0.0056373565, -1711897.4, 37204.3, 0.0, 5.0146904, 4.9886937 
8.774521e+1, 1.2651072e+2, -1667005.4, -1709831.1, 119.157616, 0.006063773, 0.027042978, -1667005.0, 33195.32, 0.0, 5.0144076, 4.986535 
8.7744766e+1, 1.3149571e+2, -1618900.1, -1661278.6, 64.06269, 0.004045056, 0.01103974, -1618900.0, 32445.49, 0.0, 5.014114, 4.986534 
8.774433e+1, 1.364807e+2, -1572999.4, -1617258.4, 9.106265, 0.0020530457, -0.0037326901, -1572999.4, 29491.617, 0.0, 5.0138197, 4.985029 
8.774397e+1, 1.4146316e+2, -1531818.3, -1583665.0, 67.85457, 0.00033469626, 0.00027262382, -1531818.1, 21843.389, 0.0, 5.0136685, 4.9799204 
8.774374e+1, 1.4644326e+2, -1482289.1, -1534340.1, 83.216064, -0.0010077256, -0.00062487676, -1482289.0, 22566.854, 0.0, 5.0138173, 4.9799337 
8.774352e+1, 1.5142334e+2, -1432756.5, -1485049.5, 78.693535, -0.0023470807, -0.0019640473, -1432756.4, 23294.096, 0.0, 5.0139756, 4.9799337 
8.77433e+1, 1.564034e+2, -1384656.3, -1438739.8, 74.29234, -0.0036821342, -0.0028533319, -1384656.1, 22589.03, 0.0, 5.0141335, 4.9789386 
8.774334e+1, 1.6137953e+2, -1343624.1, -1406957.0, 350.1791, -0.00383075, 0.000337697, -1343622.3, 14855.587, 0.0, 5.014235, 4.9731107 
8.7743926e+1, 1.6635233e+2, -1294529.1, -1357756.3, 452.6483, -0.0014149232, -0.0055365716, -1294526.0, 15215.837, 0.0, 5.0142064, 4.9731493 
8.774454e+1, 1.7132513e+2, -1245501.8, -1308676.8, 485.3359, 0.0010933664, -0.011439515, -1245498.0, 15507.544, 0.0, 5.014173, 4.97315 
8.774514e+1, 1.7629796e+2, -1197610.5, -1262001.4, 518.00415, 0.0036071222, -0.016948428, -1197606.4, 14662.986, 0.0, 5.0141397, 4.972343 
8.774545e+1, 1.8126729e+2, -1157673.1, -1232177.6, 162.57236, 0.0049360087, -0.012671693, -1157672.8, 5895.572, 0.0, 5.014097, 4.965843 
8.774504e+1, 1.8623352e+2, -1108503.1, -1182746.6, -7.057349, 0.003605078, -0.012286199, -1108503.1, 6397.278, 0.0, 5.0140367, 4.9659486 
8.77446e+1, 1.9119976e+2, -1059481.1, -1133633.1, -49.481857, 0.002186853, -0.011973479, -1059481.1, 6751.4683, 0.0, 5.013976, 4.9659486 
8.774416e+1, 1.9616601e+2, -1011350.5, -1086435.5, -91.97843, 0.00077867217, -0.011338232, -1011350.4, 6214.229, 0.0, 5.013915, 4.965298 
8.7743914e+1, 2.0112868e+2, -971353.3, -1056898.3, 327.8973, -0.0008287835, -0.0032601117, -971352.06, -2419.6975, 0.0, 5.013879, 4.958608 
8.7744117e+1, 2.0608783e+2, -921769.94, -1007053.3, 540.8066, -0.0031284434, -0.0023385086, -921766.5, -1430.9011, 0.0, 5.0139, 4.9587913 
8.774435e+1, 2.1104698e+2, -872431.4, -957750.75, 606.7372, -0.005463646, -0.0015884665, -872427.06, -688.19995, 0.0, 5.0139236, 4.9587917 
8.7744576e+1, 2.1600614e+2, -823760.06, -909904.44, 672.6447, -0.0077823177, -0.00069733214, -823754.8, -612.7618, 0.0, 5.0139465, 4.958292 
8.774495e+1, 2.2096182e+2, -783613.5, -880872.7, 790.9277, -0.0090285195, 0.009172472, -783607.06, -9027.0, 0.0, 5.0139995, 4.951302 
8.7745684e+1, 2.2591393e+2, -733425.94, -830338.1, 847.3736, -0.00721105, 0.010960263, -733418.56, -7363.5713, 0.0, 5.014136, 4.951644 
8.7746435e+1, 2.3086603e+2, -683679.7, -780807.9, 886.60767, -0.0052069915, 0.0123162335, -683671.6, -6141.623, 0.0, 5.0142765, 4.9516454 
8.774719e+1, 2.3581813e+2, -634587.3, -732728.1, 925.5993, -0.003204802, 0.013597778, -634578.6, -5573.5303, 0.0, 5.0144167, 4.9511447 
8.7747854e+1, 2.407667e+2, -593749.44, -703090.0, 1222.076, -0.0032090019, 0.0241338, -593735.75, -13222.595, 0.0, 5.01457, 4.9442163 
8.774825e+1, 2.4571203e+2, -542778.1, -651387.6, 1436.4353, -0.009953579, 0.02535792, -542759.1, -10710.875, 0.0, 5.0148134, 4.94489 
8.7748617e+1, 2.5065735e+2, -492656.22, -601672.06, 1504.5448, -0.01731769, 0.02596484, -492635.47, -9052.949, 0.0, 5.015068, 4.944886 
8.774899e+1, 2.5560278e+2, -442788.88, -552528.7, 1572.0411, -0.024761144, 0.027047401, -442766.34, -7649.9844, 0.0, 5.015321, 4.944684 
8.7749445e+1, 2.605443e+2, -404674.25, -530086.4, 2204.154, -0.033372425, 0.04310675, -404635.53, -17944.898, 0.0, 5.0156035, 4.935051 
8.774986e+1, 2.6548153e+2, -353327.03, -478589.25, 2815.3352, -0.046887025, 0.05147392, -353263.8, -14946.41, 0.0, 5.0160136, 4.9354744 
8.775028e+1, 2.7041852e+2, -302359.6, -428291.53, 3159.4436, -0.061640467, 0.055589024, -302280.38, -12332.922, 0.0, 5.0164413, 4.9355536 
8.7750757e+1, 2.7535534e+2, -251428.94, -378170.94, 3473.8474, -0.07690433, 0.05599024, -251333.8, -9754.582, 0.0, 5.016865, 4.935586 
8.7750304e+1, 2.8028718e+2, -216690.23, -363808.75, 3116.009, -0.10409292, 0.08057221, -216624.27, -23369.234, 0.0, 5.017308, 4.923079 
8.774777e+1, 2.8521168e+2, -163653.33, -301703.6, 81.103, -0.10198049, 0.056697812, -163653.28, -18674.66, 0.0, 5.0168514, 4.927551 
8.7745446e+1, 2.9013488e+2, -116002.55, -252993.55, -328.926, -0.08408456, 0.0061719054, -116001.76, -19290.16, 0.0, 5.0161347, 4.92753 
8.774316e+1, 2.950578e+2, -68304.234, -204303.11, -798.22064, -0.06713463, -0.048107553, -68299.55, -19852.049, 0.0, 5.0154066, 4.927509 
8.774099e+1, 3.0000052e+2, -7578.397, -91932.16, -649.4888, -0.054735094, -0.053317178, -7573.3965, -7573.3965, 0.0, 5.014718, 4.9594617 
8.7738454e+1, 3.049731e+2, -4750.5063, -82361.35, -705.0013, -0.058674153, 0.028977927, -4744.1025, -4744.1025, 0.0, 5.014252, 4.962755 
8.773574e+1, 3.0994722e+2, -5033.4805, -80565.53, -705.9411, -0.06710117, 0.11044466, -5026.883, -5026.883, 0.0, 5.0138087, 4.963496 
8.773308e+1, 3.1492275e+2, -5186.3613, -78899.96, -561.5884, -0.07800357, 0.19610341, -5182.083, -5182.083, 0.0, 5.01335, 4.964238 
9.2760795e+1, 1.2152212e+2, -1711840.8, -1751695.3, -20.726385, 0.012564834, 0.0021652498, -1711840.8, 37247.758, 0.0, 5.0146904, 4.9887314 
9.275972e+1, 1.2650974e+2, -1667109.3, -1710045.8, -106.85926, 0.00701433, 0.013343164, -1667109.0, 33100.22, 0.0, 5.014408, 4.9864645 
9.2758924e+1, 1.3149545e+2, -1619003.5, -1661492.6, -160.56107, 0.0044549545, 0.005221939, -1619002.9, 32345.246, 0.0, 5.014114, 4.9864635 
9.275813e+1, 1.3648115e+2, -1573102.1, -1617472.1, -214.05539, 0.0019003961, -0.0016701219, -1573101.1, 29386.125, 0.0, 5.01382, 4.9849586 
9.275756e+1, 1.4146401e+2, -1531845.4, -1583721.6, 115.9141, -0.00047728844, 0.006804112, -1531845.1, 21809.018, 0.0, 5.0136685, 4.979902 
9.27574e+1, 1.4644384e+2, -1482296.6, -1534355.9, 203.7382, -0.002628813, 0.0032229656, -1482295.8, 22554.885, 0.0, 5.0138173, 4.979929 
9.2757255e+1, 1.5142362e+2, -1432763.9, -1485065.0, 199.8947, -0.0047885287, -0.0010295365, -1432763.1, 23284.72, 0.0, 5.013975, 4.9799285 
9.275711e+1, 1.5640338e+2, -1384663.5, -1438755.0, 196.14801, -0.0069513847, -0.004834701, -1384662.8, 22582.227, 0.0, 5.0141335, 4.9789333 
9.2757255e+1, 1.6137937e+2, -1343580.1, -1406864.9, 356.72247, -0.0070626237, -0.0032378032, -1343578.1, 14900.667, 0.0, 5.0142345, 4.9731417 
9.275801e+1, 1.6635233e+2, -1294469.1, -1357630.6, 427.03412, -0.0026792428, -0.0078152595, -1294466.3, 15274.677, 0.0, 5.0142064, 4.9731913 
9.2758787e+1, 1.7132531e+2, -1245441.8, -1308551.3, 460.77304, 0.0018525567, -0.012322255, -1245438.4, 15564.44, 0.0, 5.014173, 4.9731917 
9.275957e+1, 1.7629832e+2, -1197550.6, -1261876.0, 494.49716, 0.0063748118, -0.016438445, -1197546.8, 14717.966, 0.0, 5.0141397, 4.972385 
9.275995e+1, 1.8126775e+2, -1157710.8, -1232256.6, 119.272385, 0.008847406, -0.011427612, -1157710.6, 5852.2813, 0.0, 5.014097, 4.9658165 
9.2759395e+1, 1.8623386e+2, -1108577.3, -1182903.6, -53.156845, 0.006661106, -0.01174597, -1108577.3, 6319.227, 0.0, 5.0140367, 4.9658957 
9.2758787e+1, 1.9119999e+2, -1059554.3, -1133789.5, -94.09949, 0.0042849826, -0.012191752, -1059554.1, 6676.0576, 0.0, 5.013976, 4.9658957 
9.2758197e+1, 1.9616611e+2, -1011422.7, -1086591.3, -135.1075, 0.0018979469, -0.012319058, -1011422.44, 6141.437, 0.0, 5.013915, 4.965245 
9.2757803e+1, 2.0112869e+2, -971293.1, -1056767.0, 329.38574, -0.00072340795, -0.0046631824, -971291.9, -2359.56, 0.0, 5.0138783, 4.958653 
9.2757934e+1, 2.0608793e+2, -921657.1, -1006806.6, 558.86743, -0.004003545, -0.003548554, -921653.44, -1319.2767, 0.0, 5.0139, 4.9588757 
9.275809e+1, 2.1104722e+2, -872318.8, -957504.3, 626.85706, -0.00733429, -0.0026073887, -872314.2, -578.3288, 0.0, 5.013923, 4.9588757 
9.275825e+1, 2.1600647e+2, -823647.8, -909658.25, 694.8221, -0.010676465, -0.0015294406, -823642.2, -504.62222, 0.0, 5.0139465, 4.9583764 
9.2758584e+1, 2.2096224e+2, -783532.7, -880695.56, 870.8915, -0.012787791, 0.008487741, -783524.9, -8950.582, 0.0, 5.014, 4.9513626 
9.275943e+1, 2.2591442e+2, -733355.7, -830185.9, 956.4996, -0.011233376, 0.010454469, -733346.25, -7297.732, 0.0, 5.0141363, 4.951696 
9.2760307e+1, 2.308666e+2, -683608.56, -780655.8, 999.8485, -0.009483063, 0.011997866, -683598.25, -6075.3525, 0.0, 5.0142775, 4.951697 
9.276118e+1, 2.3581876e+2, -634515.25, -732576.2, 1042.9445, -0.0077767787, 0.013457703, -634504.2, -5506.8267, 0.0, 5.014418, 4.9511967 
9.2762023e+1, 2.4076739e+2, -593625.9, -702839.25, 1395.6536, -0.007797796, 0.02386874, -593608.0, -13102.905, 0.0, 5.014576, 4.9442987 
9.276273e+1, 2.4571279e+2, -542661.94, -651142.75, 1627.0804, -0.013660023, 0.025140788, -542637.56, -10597.376, 0.0, 5.0148187, 4.944969 
9.2763436e+1, 2.5065824e+2, -492548.1, -601432.25, 1700.1912, -0.020144789, 0.025995605, -492521.53, -8947.236, 0.0, 5.0150704, 4.944965 
9.276412e+1, 2.5560373e+2, -442688.66, -552293.8, 1772.6804, -0.026770612, 0.027370606, -442660.0, -7552.0444, 0.0, 5.015321, 4.9447627 
9.2764795e+1, 2.605455e+2, -404159.38, -528916.9, 2476.8953, -0.03587714, 0.04365792, -404110.22, -17430.436, 0.0, 5.0156064, 4.9354606 
9.276543e+1, 2.6548278e+2, -352501.88, -476860.6, 3238.7632, -0.05315919, 0.048220612, -352417.6, -14117.289, 0.0, 5.0160413, 4.9360824 
9.276611e+1, 2.7041975e+2, -301457.5, -426555.3, 3647.5588, -0.07197804, 0.047026493, -301351.22, -11426.46, 0.0, 5.0164943, 4.9361553 
9.2766833e+1, 2.7535647e+2, -250450.33, -376427.47, 4026.6453, -0.09156294, 0.041511793, -250321.75, -8770.296, 0.0, 5.0169435, 4.936181 
9.276644e+1, 2.8028762e+2, -215980.81, -361305.25, 2260.2373, -0.11760466, 0.05071684, -215945.66, -22717.256, 0.0, 5.0172014, 4.92397 
9.276349e+1, 2.852118e+2, -165343.0, -303561.5, -630.6729, -0.11083647, 0.025634963, -165340.13, -20385.768, 0.0, 5.0166135, 4.9269347 
9.2760706e+1, 2.9013512e+2, -117575.08, -254875.66, -949.91656, -0.091760784, -0.016001415, -117568.51, -20882.352, 0.0, 5.015933, 4.926891 
9.275795e+1, 2.9505807e+2, -69759.72, -206209.77, -1328.4249, -0.07402407, -0.061855823, -69746.79, -21325.387, 0.0, 5.0152416, 4.9268465 
9.275508e+1, 3.0000123e+2, -7948.645, -91415.164, -1146.3751, -0.06297652, -0.05791129, -7932.9033, -7932.9033, 0.0, 5.0145607, 4.95967 
9.275088e+1, 3.0497152e+2, -5050.1826, -81094.64, -838.8245, -0.080316864, 0.004557418, -5040.9307, -5040.9307, 0.0, 5.0140224, 4.9633474 
9.2746377e+1, 3.0994242e+2, -5410.772, -78848.82, -529.0854, -0.105105385, 0.055965394, -5406.9604, -5406.9604, 0.0, 5.013504, 4.964241 
9.2741877e+1, 3.1491482e+2, -5641.412, -76733.16, -74.170555, -0.13348022, 0.111299105, -5641.335, -5641.335, 0.0, 5.0129704, 4.9651346 
9.777578e+1, 1.21523306e+2, -1711955.4, -1751598.3, -170.36136, 0.015373552, 0.009613416, -1711954.6, 37121.168, 0.0, 5.0146194, 4.988798 
9.7774225e+1, 1.2650876e+2, -1667341.1, -1710323.8, -319.26428, 0.007973329, -0.00029829232, -1667338.9, 32879.277, 0.0, 5.014366, 4.9863935 
9.777308e+1, 1.314952e+2, -1619156.9, -1661731.6, -381.5866, 0.004871722, -0.00056240405, -1619153.5, 32197.154, 0.0, 5.014098, 4.9863925 
9.777194e+1, 1.3648161e+2, -1573188.5, -1617678.0, -443.4733, 0.0017563502, 0.00040188307, -1573184.1, 29299.29, 0.0, 5.013826, 4.9848876 
9.777115e+1, 1.4146486e+2, -1531827.0, -1583761.8, 151.88373, -0.0012844531, 0.0133475745, -1531826.5, 21820.219, 0.0, 5.013685, 4.9798803 
9.7771055e+1, 1.4644442e+2, -1482278.5, -1534358.6, 315.925, -0.0042431746, 0.0070779524, -1482276.6, 22568.957, 0.0, 5.013826, 4.9799237 
9.777099e+1, 1.514239e+2, -1432776.3, -1485082.4, 316.641, -0.0072181877, -0.00009762323, -1432774.3, 23270.902, 0.0, 5.0139737, 4.9799237 
9.777093e+1, 1.5640336e+2, -1384710.9, -1438789.0, 317.37094, -0.010202263, -0.0068275696, -1384709.0, 22535.838, 0.0, 5.01412, 4.9789286 
9.7771174e+1, 1.613792e+2, -1343607.1, -1406812.9, 364.88806, -0.01027269, -0.006791235, -1343605.0, 14874.775, 0.0, 5.014212, 4.97317 
9.77721e+1, 1.6635235e+2, -1294483.4, -1357540.9, 400.09967, -0.0039317603, -0.010074696, -1294480.9, 15259.315, 0.0, 5.0141816, 4.973233 
9.777304e+1, 1.7132552e+2, -1245472.6, -1308469.5, 431.04285, 0.0026156255, -0.013201398, -1245469.8, 15530.412, 0.0, 5.0141425, 4.9732337 
9.777399e+1, 1.762987e+2, -1197609.1, -1261807.4, 461.5098, 0.009141874, -0.015940223, -1197605.8, 14654.373, 0.0, 5.0140996, 4.972427 
9.7774434e+1, 1.812682e+2, -1157882.0, -1232408.4, 64.281876, 0.012762913, -0.010159407, -1157882.0, 5675.38, 0.0, 5.0140533, 4.965786 
9.7773737e+1, 1.862342e+2, -1108735.8, -1183100.0, -106.64684, 0.009722743, -0.011186054, -1108735.6, 6156.8623, 0.0, 5.014008, 4.9658427 
9.777298e+1, 1.9120018e+2, -1059681.1, -1133970.1, -141.6178, 0.006391602, -0.012412798, -1059680.9, 6546.9766, 0.0, 5.0139575, 4.9658427 
9.7772235e+1, 1.9616619e+2, -1011533.5, -1086763.8, -175.73111, 0.0030328385, -0.013324967, -1011533.06, 6030.02, 0.0, 5.013902, 4.965192 
9.7771704e+1, 2.0112872e+2, -971281.1, -1056670.8, 336.89578, -0.00059239136, -0.006030109, -971279.8, -2347.5337, 0.0, 5.0138645, 4.9586916 
9.777176e+1, 2.0608805e+2, -921604.75, -1006588.1, 580.90564, -0.004854286, -0.0047185747, -921600.8, -1268.157, 0.0, 5.013879, 4.958959 
9.7771835e+1, 2.1104743e+2, -872305.06, -957304.0, 647.59015, -0.00917888, -0.0036162909, -872300.1, -567.26355, 0.0, 5.013889, 4.9589596 
9.777191e+1, 2.1600679e+2, -823690.94, -909484.4, 714.18585, -0.013537634, -0.0023814903, -823685.0, -551.9549, 0.0, 5.0138927, 4.9584603 
9.7772217e+1, 2.2096264e+2, -783675.0, -880642.56, 947.65485, -0.0165066, 0.007814375, -783665.75, -9097.214, 0.0, 5.0139265, 4.9514136 
9.7773176e+1, 2.2591488e+2, -733529.06, -830144.94, 1066.0693, -0.015215018, 0.009922052, -733517.3, -7475.207, 0.0, 5.014052, 4.9517474 
9.777418e+1, 2.3086715e+2, -683853.4, -780647.5, 1118.7439, -0.013707388, 0.0115829455, -683840.44, -6324.594, 0.0, 5.0141683, 4.9517484 
9.7775185e+1, 2.3581937e+2, -634874.4, -732619.9, 1172.8961, -0.012273488, 0.013154844, -634860.3, -5870.632, 0.0, 5.0142684, 4.951248 
9.7776204e+1, 2.4076807e+2, -594099.2, -702907.44, 1594.7277, -0.012312722, 0.023829214, -594075.8, -13578.9375, 0.0, 5.014381, 4.9443603 
9.7777236e+1, 2.4571358e+2, -543230.6, -651210.0, 1823.296, -0.017274626, 0.025297098, -543199.8, -11168.06, 0.0, 5.014583, 4.9450464 
9.777825e+1, 2.5065914e+2, -493280.56, -601575.1, 1884.6824, -0.022823464, 0.026299406, -493247.78, -9681.968, 0.0, 5.014776, 4.945042 
9.7779256e+1, 2.5560474e+2, -443632.6, -552533.1, 1942.7797, -0.028552305, 0.027861997, -443597.97, -8498.608, 0.0, 5.014951, 4.9448395 
9.778014e+1, 2.605466e+2, -405191.56, -528581.0, 2741.1213, -0.03828654, 0.043698467, -405130.7, -18460.93, 0.0, 5.0150876, 4.935803 
9.7781026e+1, 2.654839e+2, -354574.3, -476387.0, 3873.8843, -0.05916608, 0.042901587, -354451.22, -16166.43, 0.0, 5.0150294, 4.936688 
9.7782004e+1, 2.704208e+2, -305529.5, -426980.7, 4663.26, -0.081570536, 0.035047792, -305350.72, -15446.887, 0.0, 5.014757, 4.9367604 
9.778302e+1, 2.753574e+2, -257081.88, -377993.16, 5506.136, -0.10483577, 0.022345142, -256831.66, -15306.177, 0.0, 5.0142736, 4.9367857 
9.7782564e+1, 2.8028834e+2, -225805.75, -365007.75, 2361.5022, -0.12845935, 0.022825237, -225765.7, -32565.895, 0.0, 5.01359, 4.924204 
9.777909e+1, 2.8521234e+2, -174213.5, -308644.7, -228.93732, -0.11690894, 0.0002713655, -174213.11, -29286.766, 0.0, 5.0137897, 4.9262824 
9.77759e+1, 2.901356e+2, -123826.734, -258839.81, -719.02484, -0.09710255, -0.03510807, -123822.9, -27164.521, 0.0, 5.014047, 4.92622 
9.7772735e+1, 2.950584e+2, -74086.74, -209368.77, -1199.0814, -0.07884278, -0.07518902, -74076.11, -25681.727, 0.0, 5.014048, 4.926157 
9.776913e+1, 3.000017e+2, -10900.251, -92962.27, -1213.2614, -0.06971229, -0.064055495, -10882.316, -10882.316, 0.0, 5.0136642, 4.959422 
9.776297e+1, 3.0496937e+2, -9628.675, -81584.69, -488.39755, -0.102541044, -0.027493991, -9625.36, -9625.36, 0.0, 5.0122337, 4.9638762 
9.7756404e+1, 3.0993667e+2, -14181.75, -80668.195, 302.09836, -0.14537418, -0.014454872, -14180.377, -14180.377, 0.0, 5.010126, 4.9649243 
9.774982e+1, 3.149057e+2, -20180.822, -80563.54, 1229.6194, -0.19241497, 0.002459189, -20155.793, -20155.793, 0.0, 5.007424, 4.9659734 
1.0278999e+2, 1.215248e+2, -1713348.6, -1750618.0, 128.69495, 0.015734388, 0.017633466, -1713348.3, 35713.31, 0.0, 5.0137987, 4.9895234 
1.02788374e+2, 1.2650837e+2, -1669084.4, -1711640.8, -107.275734, 0.00842538, -0.01014167, -1669084.1, 31137.252, 0.0, 5.013885, 4.986197 
1.0278711e+2, 1.3149518e+2, -1619832.8, -1662518.3, -338.05432, 0.0048240707, -0.00474783, -1619830.1, 31520.82, 0.0, 5.0139694, 4.986196 
1.0278583e+2, 1.3648197e+2, -1572792.9, -1617935.9, -568.7628, 0.0012512291, 0.0018876139, -1572785.8, 29694.979, 0.0, 5.014054, 4.9846916 
1.0278499e+2, 1.4146541e+2, -1530549.4, -1583150.5, 28.751713, -0.0019608985, 0.01801552, -1530549.4, 23093.072, 0.0, 5.014115, 4.979874 
1.0278501e+2, 1.464448e+2, -1481344.6, -1533805.9, 273.0834, -0.0045255288, 0.009702801, -1481343.1, 23499.121, 0.0, 5.014118, 4.9799657 
1.0278506e+2, 1.5142411e+2, -1432283.5, -1484745.5, 333.46332, -0.007066503, 0.00033326415, -1432281.4, 23761.623, 0.0, 5.014119, 4.9799657 
1.027851e+2, 1.5640338e+2, -1384651.8, -1438662.8, 393.84177, -0.009595369, -0.008575738, -1384648.9, 22595.021, 0.0, 5.0141196, 4.978971 
1.0278539e+2, 1.6137913e+2, -1343986.0, -1406976.4, 377.90894, -0.009443846, -0.009660431, -1343983.6, 14495.579, 0.0, 5.01408, 4.9731784 
1.027862e+2, 1.663524e+2, -1295178.0, -1357881.0, 328.09003, -0.0034085372, -0.011732472, -1295176.4, 14562.386, 0.0, 5.013947, 4.973231 
1.02787025e+2, 1.713257e+2, -1246453.1, -1308947.0, 297.66983, 0.0028602902, -0.013553368, -1246451.6, 14546.077, 0.0, 5.0138097, 4.9732313 
1.0278786e+2, 1.76299e+2, -1198862.6, -1262415.3, 267.4203, 0.009155393, -0.014978376, -1198861.5, 13395.297, 0.0, 5.013673, 4.972424 
1.0278824e+2, 1.8126859e+2, -1159151.0, -1233033.8, -62.181404, 0.0125571415, -0.008570982, -1159151.0, 4402.682, 0.0, 5.0136223, 4.965779 
1.0278757e+2, 1.8623449e+2, -1109437.1, -1183461.0, -155.93604, 0.009203384, -0.010455145, -1109436.8, 5452.883, 0.0, 5.0137725, 4.9658313 
1.0278684e+2, 1.9120036e+2, -1059774.3, -1134036.6, -142.55629, 0.0056058257, -0.012579626, -1059774.0, 6452.0234, 0.0, 5.0139303, 4.9658327 
1.02786124e+2, 1.9616626e+2, -1011006.94, -1086532.6, -129.08102, 0.00203995, -0.014381773, -1011006.7, 6555.468, 0.0, 5.014088, 4.9651833 
1.0278563e+2, 2.0112875e+2, -970390.25, -1056114.6, 337.4021, -0.0014519994, -0.0077115074, -970388.9, -1457.2598, 0.0, 5.014145, 4.9587502 
1.0278567e+2, 2.0608817e+2, -921324.6, -1006267.8, 553.88306, -0.0048012817, -0.006481007, -921321.0, -990.0505, 0.0, 5.013937, 4.9590416 
1.0278574e+2, 2.110476e+2, -872692.25, -957297.94, 620.9828, -0.008106455, -0.0054399604, -872687.75, -957.7561, 0.0, 5.0137153, 4.9590416 
1.027858e+2, 2.1600705e+2, -824722.56, -909779.7, 688.203, -0.011376048, -0.004260832, -824717.0, -1587.9883, 0.0, 5.013493, 4.9585423 
1.0278609e+2, 2.2096299e+2, -785272.7, -881195.9, 1043.7301, -0.013855045, 0.005826264, -785261.4, -10697.971, 0.0, 5.013326, 4.9514995 
1.02786966e+2, 2.2591531e+2, -735541.6, -830881.6, 1238.5983, -0.013866002, 0.007991731, -735525.5, -9489.763, 0.0, 5.0133033, 4.951835 
1.0278789e+2, 2.3086765e+2, -686230.06, -781540.06, 1322.3075, -0.013593634, 0.009827983, -686211.75, -8703.568, 0.0, 5.0132885, 4.951839 
1.0278882e+2, 2.3582003e+2, -637569.94, -733646.1, 1405.6034, -0.013211117, 0.011649469, -637549.4, -8568.76, 0.0, 5.0132732, 4.951341 
1.0278985e+2, 2.4076888e+2, -597342.3, -704329.56, 1834.6449, -0.013474698, 0.02298532, -597310.9, -16824.307, 0.0, 5.0132174, 4.9443927 
1.0279108e+2, 2.4571449e+2, -547568.94, -653226.9, 1921.7827, -0.016282449, 0.025661295, -547534.0, -15512.385, 0.0, 5.0130405, 4.945039 
1.02792315e+2, 2.5066015e+2, -498663.38, -604072.56, 1867.1261, -0.019164158, 0.02777195, -498630.3, -15074.246, 0.0, 5.0128536, 4.94503 
1.0279356e+2, 2.5560585e+2, -450003.6, -555482.3, 1814.038, -0.021882225, 0.03036718, -449972.4, -14882.279, 0.0, 5.0126653, 4.9448237 
1.02794595e+2, 2.6054776e+2, -411562.66, -529879.4, 2600.6157, -0.028910775, 0.044965867, -411505.53, -24845.635, 0.0, 5.012469, 4.9365067 
1.0279563e+2, 2.6548544e+2, -360865.78, -476139.28, 4067.3757, -0.0459898, 0.036181122, -360722.44, -22456.777, 0.0, 5.0121765, 4.9380074 
1.0279685e+2, 2.7042297e+2, -311865.03, -426428.47, 5150.708, -0.061695427, 0.021083651, -311633.94, -21761.709, 0.0, 5.0118685, 4.9381714 
1.02798186e+2, 2.7536047e+2, -262891.34, -376878.56, 6213.752, -0.07565272, 0.0024091532, -262553.6, -21074.244, 0.0, 5.011556, 4.938288 
1.02797925e+2, 2.8029242e+2, -231370.16, -367121.84, 2498.106, -0.08439316, 0.002017145, -231324.2, -38185.125, 0.0, 5.0114727, 4.924402 
1.0279433e+2, 2.852168e+2, -180034.23, -313304.22, 1312.7598, -0.07780327, -0.0109484345, -180021.3, -35155.42, 0.0, 5.0119405, 4.925535 
1.0279107e+2, 2.9014027e+2, -129027.914, -262952.72, 986.8424, -0.0684268, -0.036751755, -129020.64, -32419.94, 0.0, 5.0124097, 4.925545 
1.02787904e+2, 2.9506335e+2, -77997.41, -212645.34, 656.2512, -0.057621554, -0.06738769, -77994.21, -29655.244, 0.0, 5.0128717, 4.925555 
1.0278408e+2, 3.0000663e+2, -11704.013, -92553.83, 631.3128, -0.053080942, -0.052285876, -11699.083, -11699.083, 0.0, 5.0132546, 4.959779 
1.02776885e+2, 3.049731e+2, -4995.703, -76482.56, 1936.3015, -0.086961724, -0.037803087, -4943.2944, -4943.2944, 0.0, 5.0134754, 4.9652166 
1.0276949e+2, 3.099394e+2, -3271.194, -72648.33, 3046.3, -0.12309151, -0.047311954, -3137.6902, -3137.6902, 0.0, 5.0137134, 4.966336 
1.02762304e+2, 3.1490785e+2, -1404.5442, -68957.48, 4034.3015, -0.15557423, -0.049934976, -1164.4666, -1164.4666, 0.0, 5.0139446, 4.967456 
1.0780359e+2, 1.2152652e+2, -1711452.0, -1746762.1, 179.82076, 0.0136029795, 0.025727933, -1711451.1, 37595.16, 0.0, 5.013798, 4.99079 
1.0780225e+2, 1.2650844e+2, -1669527.4, -1712543.5, -44.380898, 0.00823898, -0.017037924, -1669527.3, 30693.021, 0.0, 5.0138845, 4.9859004 
1.0780103e+2, 1.3149534e+2, -1620272.3, -1663418.4, -273.88174, 0.0043021925, -0.007698452, -1620270.5, 31078.96, 0.0, 5.0139694, 4.9859 
1.07799806e+2, 1.3648222e+2, -1573229.3, -1618833.9, -503.33206, 0.00037718654, 0.002879329, -1573223.6, 29255.303, 0.0, 5.014054, 4.984395 
1.0779904e+2, 1.4146571e+2, -1530542.3, -1583136.5, 43.44894, -0.0026403128, 0.021178566, -1530542.3, 23098.2, 0.0, 5.014115, 4.979879 
1.07799195e+2, 1.4644502e+2, -1481229.0, -1533567.3, 273.44382, -0.0038405715, 0.011353271, -1481227.5, 23612.896, 0.0, 5.014118, 4.980045 
1.0779939e+2, 1.5142424e+2, -1432168.5, -1484507.5, 334.57022, -0.0049859285, 0.00035559462, -1432166.4, 23874.879, 0.0, 5.014119, 4.9800453 
1.0779957e+2, 1.5640344e+2, -1384537.3, -1438425.5, 395.69513, -0.006125053, -0.010182357, -1384534.4, 22707.803, 0.0, 5.0141196, 4.97905 
1.0779986e+2, 1.6137914e+2, -1343998.1, -1407002.4, 297.47104, -0.0056464784, -0.012066436, -1343996.8, 14480.867, 0.0, 5.01408, 4.97317 
1.07800335e+2, 1.663525e+2, -1295230.6, -1357991.8, 223.4652, -0.0016396518, -0.012971629, -1295229.9, 14507.027, 0.0, 5.0139465, 4.973194 
1.07800804e+2, 1.7132588e+2, -1246505.4, -1309057.3, 194.19495, 0.0024998612, -0.013542355, -1246504.9, 14490.854, 0.0, 5.0138097, 4.9731946 
1.0780129e+2, 1.7629929e+2, -1198914.8, -1262525.0, 165.11334, 0.0066500334, -0.013717407, -1198914.3, 13340.206, 0.0, 5.0136724, 4.9723873 
1.07801475e+2, 1.8126889e+2, -1159134.5, -1232999.4, 5.134671, 0.008627548, -0.0067809965, -1159134.5, 4416.8594, 0.0, 5.0136223, 4.9657907 
1.07800975e+2, 1.8623473e+2, -1109408.4, -1183401.5, -35.043327, 0.0054781744, -0.00959162, -1109408.3, 5479.479, 0.0, 5.0137725, 4.965852 
1.0780043e+2, 1.9120052e+2, -1059745.8, -1133977.5, -20.112482, 0.0021279913, -0.012678001, -1059745.8, 6478.7485, 0.0, 5.0139303, 4.965853 
1.07799895e+2, 1.9616635e+2, -1010978.75, -1086473.9, -5.1021147, -0.0012078258, -0.015441293, -1010978.75, 6582.3345, 0.0, 5.014088, 4.965204 
1.07799545e+2, 2.011288e+2, -970288.7, -1055896.1, 244.44365, -0.003807017, -0.0095917545, -970288.0, -1357.3844, 0.0, 5.0141444, 4.958825 
1.07799634e+2, 2.0608826e+2, -921204.7, -1006009.4, 384.4807, -0.0045696287, -0.008707952, -921202.94, -873.90594, 0.0, 5.0139365, 4.9591303 
1.0779975e+2, 2.1104775e+2, -872573.3, -957040.56, 453.73584, -0.005229127, -0.00797666, -872570.9, -843.68054, 0.0, 5.013715, 4.959131 
1.0779986e+2, 2.1600726e+2, -824604.5, -909523.1, 523.12976, -0.0058772964, -0.0071087643, -824601.25, -1475.9307, 0.0, 5.013493, 4.958631 
1.0780011e+2, 2.2096325e+2, -785120.5, -880865.0, 989.98, -0.006992518, 0.0026337777, -785110.25, -10551.528, 0.0, 5.0133257, 4.951614 
1.07800744e+2, 2.259157e+2, -735391.9, -830559.25, 1230.9261, -0.00926698, 0.004841329, -735376.0, -9346.503, 0.0, 5.0133033, 4.951948 
1.0780141e+2, 2.3086818e+2, -686082.1, -781221.6, 1318.5599, -0.011524396, 0.0068075242, -686063.9, -8563.711, 0.0, 5.0132885, 4.951951 
1.0780207e+2, 2.3582065e+2, -637423.75, -733331.6, 1405.7828, -0.013709315, 0.008763973, -637403.1, -8432.243, 0.0, 5.0132732, 4.9514523 
1.07802935e+2, 2.4076965e+2, -597341.06, -704336.44, 1757.275, -0.0154409865, 0.020876095, -597312.2, -16836.885, 0.0, 5.013216, 4.944395 
1.0780421e+2, 2.4571544e+2, -547646.25, -653424.1, 1782.4553, -0.015933026, 0.02584005, -547616.2, -15605.859, 0.0, 5.0130396, 4.9449773 
1.078055e+2, 2.5066125e+2, -498735.13, -604264.94, 1732.7654, -0.016240643, 0.030233987, -498706.7, -15161.627, 0.0, 5.0128546, 4.9449697 
1.078068e+2, 2.5560713e+2, -450069.84, -555669.94, 1684.6511, -0.01643748, 0.035051886, -450042.97, -14963.566, 0.0, 5.0126677, 4.9447637 
1.0780779e+2, 2.605491e+2, -410463.3, -527515.1, 2451.1895, -0.022003716, 0.04842581, -410412.0, -23763.227, 0.0, 5.0124793, 4.937338 
1.0780854e+2, 2.6548707e+2, -359019.22, -472192.53, 3942.56, -0.040959395, 0.028943399, -358882.03, -20635.63, 0.0, 5.012197, 4.9394007 
1.0780946e+2, 2.7042493e+2, -310040.72, -422586.66, 5085.429, -0.058954373, 0.0030169364, -309811.4, -19967.861, 0.0, 5.0118966, 4.9395385 
1.0781049e+2, 2.7536273e+2, -261088.95, -373141.16, 6208.076, -0.075450756, -0.026231388, -260746.05, -19304.645, 0.0, 5.0115914, 4.9396296 
1.078101e+2, 2.8029555e+2, -231197.56, -367242.28, 1811.0769, -0.079865076, -0.026228419, -231173.45, -38084.465, 0.0, 5.0115356, 4.9243493 
1.07807085e+2, 2.8522155e+2, -180074.53, -314155.06, 1409.0421, -0.06819178, -0.02021463, -180059.72, -35252.18, 0.0, 5.0120087, 4.9252167 
1.0780442e+2, 2.9014644e+2, -129117.086, -263868.72, 1164.2384, -0.058974884, -0.029304067, -129107.03, -32569.7, 0.0, 5.0124664, 4.925215 
1.0780185e+2, 2.95071e+2, -78134.93, -213626.03, 914.72687, -0.048611842, -0.04279971, -78128.76, -29858.408, 0.0, 5.012917, 4.925213 
1.077984e+2, 3.0001473e+2, -10753.361, -91128.58, 631.69617, -0.04532795, -0.022085771, -10748.396, -10748.396, 0.0, 5.013321, 4.9603 
1.0779088e+2, 3.0498055e+2, -2637.4663, -72459.29, 2069.7292, -0.086062685, -0.030419141, -2576.1672, -2576.1672, 0.0, 5.013637, 4.966605 
1.07783094e+2, 3.099467e+2, -708.54614, -68809.98, 3489.2988, -0.13045515, -0.061307117, -530.23254, -530.23254, 0.0, 5.013965, 4.96764 
1.0777554e+2, 3.1491467e+2, 1361.9828, -65303.72, 4786.823, -0.17176297, -0.08636861, 1703.939, 1703.939, 0.0, 5.014286, 4.9686756 
1.1281717e+2, 1.21528186e+2, -1709499.5, -1742791.6, 229.85909, 0.011344103, 0.033368234, -1709497.9, 39533.69, 0.0, 5.0137978, 4.9920945 
1.1281612e+2, 1.265085e+2, -1669970.6, -1713446.0, 18.777006, 0.00804403, -0.02388708, -1669970.6, 30248.525, 0.0, 5.013884, 4.9856043 
1.1281495e+2, 1.3149552e+2, -1620712.1, -1664318.4, -209.44594, 0.003774759, -0.010621901, -1620711.1, 30636.863, 0.0, 5.013969, 4.9856033 
1.1281377e+2, 1.3648248e+2, -1573665.9, -1619731.8, -437.63788, -0.00049941655, 0.0038782905, -1573661.8, 28815.4, 0.0, 5.014054, 4.9840984 
1.12813085e+2, 1.4146602e+2, -1530539.9, -1583131.6, 57.833714, -0.0033183594, 0.024365045, -1530539.8, 23098.654, 0.0, 5.014115, 4.9798803 
1.1281338e+2, 1.4644524e+2, -1481113.5, -1533328.5, 273.8506, -0.0031538631, 0.013021128, -1481112.0, 23726.469, 0.0, 5.014118, 4.980124 
1.1281371e+2, 1.5142438e+2, -1432053.6, -1484269.5, 335.72342, -0.0029038638, 0.0003802573, -1432051.5, 23987.943, 0.0, 5.014119, 4.9801245 
1.1281404e+2, 1.5640348e+2, -1384423.0, -1438188.1, 397.5948, -0.0026535082, -0.011801699, -1384420.1, 22820.398, 0.0, 5.01412, 4.9791293 
1.1281432e+2, 1.6137919e+2, -1344015.0, -1407037.5, 216.83032, -0.0018462942, -0.014453139, -1344014.3, 14461.695, 0.0, 5.01408, 4.973158 
1.12814456e+2, 1.663526e+2, -1295283.5, -1358102.4, 118.711586, 0.00013211541, -0.014193885, -1295283.3, 14451.666, 0.0, 5.0139465, 4.9731574 
1.1281458e+2, 1.7132609e+2, -1246558.1, -1309167.3, 90.5913, 0.00214181, -0.013531044, -1246558.0, 14435.63, 0.0, 5.0138097, 4.973158 
1.1281471e+2, 1.7629956e+2, -1198967.1, -1262634.5, 62.677616, 0.0041465485, -0.012472745, -1198967.1, 13285.107, 0.0, 5.0136724, 4.9723506 
1.1281471e+2, 1.8126921e+2, -1159124.3, -1232977.6, 72.664314, 0.0046972856, -0.0049580494, -1159124.1, 4424.929, 0.0, 5.0136223, 4.965798 
1.12814374e+2, 1.8623495e+2, -1109379.9, -1183341.8, 85.93037, 0.001753126, -0.008698227, -1109379.9, 5506.0522, 0.0, 5.0137725, 4.9658723 
1.12814024e+2, 1.9120069e+2, -1059717.6, -1133918.1, 102.412285, -0.0013480317, -0.012773455, -1059717.5, 6505.472, 0.0, 5.0139303, 4.9658732 
1.1281367e+2, 1.9616643e+2, -1010950.94, -1086414.9, 118.957726, -0.0044521396, -0.016524842, -1010950.75, 6609.2144, 0.0, 5.014088, 4.965224 
1.1281346e+2, 2.0112884e+2, -970198.44, -1055701.3, 151.33215, -0.00616535, -0.011422667, -970198.2, -1268.657, 0.0, 5.0141444, 4.9588914 
1.128136e+2, 2.0608836e+2, -921085.4, -1005750.6, 215.11012, -0.0043408475, -0.01088303, -921084.8, -757.6733, 0.0, 5.0139365, 4.9592185 
1.12813756e+2, 2.1104792e+2, -872454.94, -956782.75, 286.52048, -0.002351185, -0.010499795, -872453.94, -729.5155, 0.0, 5.013715, 4.959219 
1.1281392e+2, 2.1600746e+2, -824487.0, -909266.25, 358.08807, -0.00037444357, -0.009981438, -824485.5, -1363.788, 0.0, 5.0134926, 4.9587197 
1.1281414e+2, 2.2096352e+2, -784981.25, -880561.1, 936.6958, -0.00012260616, -0.00052134646, -784972.06, -10418.016, 0.0, 5.0133257, 4.9517183 
1.1281453e+2, 2.2591609e+2, -735243.1, -830236.2, 1224.4298, -0.0046404903, 0.0017080698, -735227.4, -9204.223, 0.0, 5.0133033, 4.9520597 
1.1281493e+2, 2.3086868e+2, -685935.2, -780902.5, 1315.9879, -0.009406272, 0.0037317825, -685916.94, -8424.799, 0.0, 5.0132885, 4.952062 
1.12815335e+2, 2.3582128e+2, -637278.5, -733016.3, 1407.1377, -0.014137212, 0.005750769, -637257.8, -8296.64, 0.0, 5.0132732, 4.951563 
1.12816006e+2, 2.4077044e+2, -597369.25, -704404.44, 1675.5382, -0.017368298, 0.018931143, -597343.0, -16879.064, 0.0, 5.013214, 4.9443755 
1.1281733e+2, 2.4571642e+2, -547726.06, -653619.1, 1642.7548, -0.015557634, 0.026293956, -547700.6, -15701.722, 0.0, 5.013038, 4.9449153 
1.1281869e+2, 2.506624e+2, -498809.4, -604455.06, 1598.0319, -0.013280586, 0.032886364, -498785.25, -15251.372, 0.0, 5.012855, 4.944908 
1.12820044e+2, 2.556084e+2, -450138.63, -555855.2, 1554.8918, -0.010945622, 0.039842114, -450115.75, -15047.196, 0.0, 5.01267, 4.944703 
1.1282102e+2, 2.6055038e+2, -409397.34, -525212.25, 2326.6538, -0.014953291, 0.051505797, -409350.63, -22712.521, 0.0, 5.01249, 4.9381394 
1.1282153e+2, 2.6548856e+2, -357181.7, -468243.06, 3856.4697, -0.035308946, 0.019998303, -357047.94, -18819.76, 0.0, 5.012218, 4.9407754 
1.1282218e+2, 2.7042672e+2, -308225.25, -418741.75, 5058.837, -0.055110052, -0.01805294, -307994.2, -18177.885, 0.0, 5.0119247, 4.940888 
1.12822935e+2, 2.7536482e+2, -259295.22, -369400.3, 6241.0513, -0.07366234, -0.059170853, -258942.6, -17537.33, 0.0, 5.011627, 4.940953 
1.1282234e+2, 2.8029877e+2, -231848.55, -369254.7, 1258.8778, -0.075527996, -0.05295618, -231837.02, -38798.906, 0.0, 5.0115986, 4.923626 
1.1281979e+2, 2.8522652e+2, -180126.38, -314996.56, 1529.8059, -0.060196534, -0.024579387, -180109.03, -35362.105, 0.0, 5.0120773, 4.9248767 
1.1281773e+2, 2.9015276e+2, -129217.59, -264775.22, 1366.1302, -0.050840117, -0.019317163, -129203.82, -32731.064, 0.0, 5.012523, 4.9248624 
1.1281573e+2, 2.9507867e+2, -78283.56, -214597.08, 1197.716, -0.04062025, -0.018034589, -78273.04, -30071.426, 0.0, 5.0129623, 4.9248486 
1.128127e+2, 3.0002254e+2, -10329.849, -90907.83, 721.8548, -0.038298994, 0.0064286306, -10323.383, -10323.383, 0.0, 5.0133877, 4.9603586 
1.12805046e+2, 3.0498734e+2, -292.82416, -68427.88, 2320.644, -0.08491756, -0.031351767, -213.87573, -213.87573, 0.0, 5.0137987, 4.9679027 
1.1279711e+2, 3.0995288e+2, 1840.4762, -64963.4, 4049.5945, -0.13646355, -0.09285417, 2085.0637, 2085.0637, 0.0, 5.0142174, 4.968853 
1.1278937e+2, 3.1492007e+2, 4114.7783, -61641.547, 5656.51, -0.18548787, -0.14959097, 4597.816, 4597.816, 0.0, 5.014628, 4.969804 
1.1783074e+2, 1.2152979e+2, -1707740.6, -1738835.6, 238.11832, 0.008985201, 0.04051941, -1707738.8, 41278.566, 0.0, 5.013716, 4.993435 
1.1782998e+2, 1.2650858e+2, -1670562.8, -1714420.8, 47.01671, 0.0078520635, -0.030633466, -1670562.8, 29655.22, 0.0, 5.0138345, 4.985308 
1.1782887e+2, 1.3149568e+2, -1621219.8, -1665250.0, -165.90181, 0.0032464059, -0.0134947505, -1621219.1, 30127.375, 0.0, 5.0139465, 4.985307 
1.1782775e+2, 1.3648275e+2, -1574106.5, -1620629.5, -377.65295, -0.0013756901, 0.004877381, -1574103.4, 28372.004, 0.0, 5.0140524, 4.9838023 
1.1782714e+2, 1.4146632e+2, -1530522.5, -1583126.3, 75.35821, -0.003991245, 0.027551558, -1530522.4, 23114.021, 0.0, 5.0141215, 4.979879 
1.1782758e+2, 1.4644547e+2, -1481010.3, -1533095.9, 273.00626, -0.0024634157, 0.01469388, -1481008.9, 23827.8, 0.0, 5.0141144, 4.980203 
1.1782804e+2, 1.5142451e+2, -1431987.6, -1484055.6, 330.0068, -0.0008190748, 0.00040600434, -1431985.5, 24052.176, 0.0, 5.014103, 4.980203 
1.1782851e+2, 1.5640356e+2, -1384397.8, -1437994.4, 386.54984, 0.00082093896, -0.013424354, -1384395.0, 22843.83, 0.0, 5.01409, 4.979208 
1.1782878e+2, 1.613792e+2, -1344139.9, -1407131.8, 120.342766, 0.001958219, -0.016806852, -1344139.8, 14334.538, 0.0, 5.0140452, 4.973143 
1.17828585e+2, 1.663527e+2, -1295397.3, -1358241.5, 0.77802587, 0.0019069915, -0.015393326, -1295397.3, 14335.805, 0.0, 5.013926, 4.97312 
1.1782836e+2, 1.7132626e+2, -1246636.0, -1309288.6, -24.127975, 0.0017887645, -0.013521821, -1246636.0, 14355.518, 0.0, 5.013801, 4.9731207 
1.1782814e+2, 1.7629984e+2, -1199018.9, -1262742.9, -49.290318, 0.0016537561, -0.011255255, -1199018.8, 13231.151, 0.0, 5.0136724, 4.972314 
1.1782795e+2, 1.8126951e+2, -1159113.0, -1232964.4, 133.17416, 0.0007808084, -0.0031171776, -1159112.8, 4433.9756, 0.0, 5.0136247, 4.9658012 
1.1782778e+2, 1.862352e+2, -1109375.3, -1183292.4, 203.5369, -0.0019576903, -0.0077825855, -1109374.6, 5509.2676, 0.0, 5.0137644, 4.9658923 
1.1782762e+2, 1.9120085e+2, -1059757.1, -1133890.0, 224.76733, -0.0048042326, -0.012865576, -1059756.4, 6465.0444, 0.0, 5.0139074, 4.9658933 
1.17827445e+2, 1.9616652e+2, -1011046.6, -1086413.4, 245.37892, -0.007666351, -0.017623968, -1011045.8, 6513.052, 0.0, 5.0140457, 4.965244 
1.1782738e+2, 2.0112889e+2, -970278.1, -1055605.0, 60.331596, -0.008495691, -0.01319135, -970278.06, -1349.6802, 0.0, 5.0140896, 4.9589496 
1.17827564e+2, 2.0608845e+2, -921089.06, -1005549.9, 36.76985, -0.0040961225, -0.012995002, -921089.06, -763.85895, 0.0, 5.013894, 4.9593062 
1.17827766e+2, 2.1104807e+2, -872434.94, -956571.1, 97.54102, 0.00053881307, -0.012999691, -872434.8, -713.21326, 0.0, 5.013681, 4.9593067 
1.17827974e+2, 2.1600768e+2, -824459.06, -909051.1, 158.0298, 0.0051427917, -0.012870697, -824458.75, -1340.7029, 0.0, 5.013462, 4.958807 
1.1782816e+2, 2.2096379e+2, -784948.8, -880327.94, 838.3606, 0.0067681945, -0.0036307415, -784941.44, -10392.043, 0.0, 5.0132933, 4.951813 
1.1782831e+2, 2.2591648e+2, -735204.25, -829962.9, 1168.595, 0.000030651383, -0.0013919874, -735189.9, -9173.036, 0.0, 5.013265, 4.952171 
1.1782845e+2, 2.3086919e+2, -685933.75, -780649.06, 1259.4403, -0.0072118514, 0.0006252475, -685917.0, -8432.818, 0.0, 5.013238, 4.9521723 
1.1782861e+2, 2.358219e+2, -637335.4, -732792.06, 1350.3175, -0.014450305, 0.0026427198, -637316.3, -8364.772, 0.0, 5.0132027, 4.951672 
1.17829084e+2, 2.4077125e+2, -597701.8, -704656.06, 1529.6166, -0.019195879, 0.017184818, -597680.0, -17227.535, 0.0, 5.0131154, 4.944335 
1.17830455e+2, 2.457174e+2, -548154.7, -653965.56, 1448.1974, -0.01509734, 0.02704152, -548134.9, -16147.661, 0.0, 5.012914, 4.944853 
1.1783188e+2, 2.5066355e+2, -499330.1, -604840.1, 1414.1057, -0.010217358, 0.035720542, -499311.13, -15788.597, 0.0, 5.012697, 4.944847 
1.1783331e+2, 2.556097e+2, -450781.13, -556291.8, 1382.3551, -0.0053205946, 0.044690546, -450763.0, -15705.379, 0.0, 5.012468, 4.9446425 
1.1783428e+2, 2.6055163e+2, -409176.56, -523335.9, 2164.2314, -0.0076230452, 0.054157283, -409135.56, -22507.63, 0.0, 5.012211, 4.9389114 
1.17834575e+2, 2.6548997e+2, -356885.78, -464980.84, 3576.3938, -0.02873958, 0.009560171, -356767.6, -18556.664, 0.0, 5.0116925, 4.9421287 
1.1783501e+2, 2.7042845e+2, -308996.16, -416043.28, 4587.262, -0.049615774, -0.04146973, -308799.94, -19009.777, 0.0, 5.0110307, 4.9422135 
1.1783553e+2, 2.7536678e+2, -261424.25, -367387.34, 5507.635, -0.06941326, -0.095150165, -261138.75, -19768.473, 0.0, 5.0102572, 4.9422507 
1.1783465e+2, 2.8030217e+2, -238134.84, -375324.97, -206.69931, -0.070247166, -0.076459795, -238134.53, -45149.004, 0.0, 5.00992, 4.922224 
1.17832474e+2, 2.8523177e+2, -183594.6, -317394.72, 732.7996, -0.05297894, -0.023008747, -183590.6, -38906.855, 0.0, 5.0108953, 4.9245033 
1.17830984e+2, 2.9015917e+2, -131611.84, -266724.53, 742.1279, -0.043429855, -0.006407092, -131607.77, -35200.543, 0.0, 5.011735, 4.9244814 
1.1782957e+2, 2.950863e+2, -80060.76, -216298.69, 742.55365, -0.03317818, 0.00678489, -80056.71, -31923.318, 0.0, 5.0124044, 4.924459 
1.1782699e+2, 3.0003e+2, -11997.226, -92650.4, 110.921486, -0.03148557, 0.032951597, -11997.073, -11997.073, 0.0, 5.012879, 4.959926 
1.1781943e+2, 3.0499327e+2, -1223.7828, -66053.48, 733.0306, -0.08251145, -0.039980307, -1215.4955, -1215.4955, 0.0, 5.0127845, 4.9690094 
1.1781157e+2, 3.099578e+2, -1897.1517, -64178.395, 775.65063, -0.13919614, -0.14030415, -1887.4933, -1887.4933, 0.0, 5.012197, 4.969827 
1.17803894e+2, 3.1492373e+2, -3608.6003, -62937.36, -1.9487686, -0.19356051, -0.23700583, -3608.6003, -3608.6003, 0.0, 5.0111685, 4.9706445 
1.2284405e+2, 1.2152972e+2, -1708747.4, -1737711.4, -308.17255, 0.008632056, 0.036321804, -1708744.1, 40275.355, 0.0, 5.013031, 4.9941435 
1.2284363e+2, 1.2650965e+2, -1672013.9, -1715390.0, -303.3453, 0.008334821, -0.023217294, -1672011.8, 28195.666, 0.0, 5.0134053, 4.985202 
1.2284272e+2, 1.3149624e+2, -1621856.3, -1665810.5, -268.86908, 0.0031953545, -0.01024626, -1621854.6, 29486.459, 0.0, 5.0137863, 4.985202 
1.22841805e+2, 1.3648278e+2, -1573916.9, -1620778.6, -234.9439, -0.0019047409, 0.003978074, -1573915.8, 28559.174, 0.0, 5.014167, 4.9836984 
1.2284133e+2, 1.4146605e+2, -1529774.4, -1582773.5, 156.29193, -0.004568984, 0.024313267, -1529774.0, 23864.904, 0.0, 5.0143747, 4.9798727 
1.2284176e+2, 1.4644535e+2, -1480673.1, -1532886.4, 227.8628, -0.0022700655, 0.0128143905, -1480672.1, 24165.465, 0.0, 5.014218, 4.980222 
1.22842215e+2, 1.5142456e+2, -1432119.6, -1484077.0, 205.31631, 0.00018298975, -0.000010698338, -1432118.9, 23918.195, 0.0, 5.014049, 4.9802217 
1.2284267e+2, 1.5640377e+2, -1384992.3, -1438241.9, 182.68294, 0.0026434269, -0.012386912, -1384991.6, 22244.973, 0.0, 5.0138803, 4.9792266 
1.2284288e+2, 1.6137949e+2, -1344955.0, -1407545.9, -92.46489, 0.0039249337, -0.01504221, -1344954.9, 13516.371, 0.0, 5.0137734, 4.973135 
1.22842506e+2, 1.663529e+2, -1295774.1, -1358462.8, -181.96965, 0.0025429134, -0.014451134, -1295773.6, 13957.637, 0.0, 5.0138063, 4.973103 
1.2284212e+2, 1.7132635e+2, -1246531.9, -1309278.8, -185.82124, 0.0010827405, -0.013455304, -1246531.3, 14459.524, 0.0, 5.013845, 4.9731035 
1.2284172e+2, 1.7629983e+2, -1198427.4, -1262500.3, -189.57538, -0.00035263656, -0.012064689, -1198426.9, 13823.532, 0.0, 5.013883, 4.972296 
1.22841455e+2, 1.8126947e+2, -1158245.0, -1232435.0, 80.38633, -0.0018646129, -0.0044084894, -1158244.9, 5302.626, 0.0, 5.0138974, 4.965851 
1.2284142e+2, 1.8623526e+2, -1109031.6, -1182965.5, 226.7347, -0.0037312547, -0.0086690765, -1109031.0, 5852.365, 0.0, 5.0138483, 4.965964 
1.2284138e+2, 1.9120102e+2, -1059984.3, -1133836.3, 311.05313, -0.0055939094, -0.013311481, -1059983.0, 6236.3247, 0.0, 5.0137954, 4.9659643 
1.2284134e+2, 1.961668e+2, -1011828.6, -1086623.3, 395.19788, -0.0074228835, -0.017626423, -1011826.5, 5728.7056, 0.0, 5.013742, 4.9653144 
1.22841366e+2, 2.0112923e+2, -971482.3, -1056215.9, 119.663956, -0.0073629883, -0.012955846, -971482.2, -2558.1477, 0.0, 5.013681, 4.958932 
1.2284146e+2, 2.0608874e+2, -922027.2, -1006101.6, -114.58394, -0.0024589498, -0.012949994, -922027.06, -1705.1783, 0.0, 5.01359, 4.959259 
1.22841574e+2, 2.1104828e+2, -873024.2, -956955.8, -238.98975, 0.0027289698, -0.013146325, -873023.56, -1304.0806, 0.0, 5.013497, 4.9592595 
1.22841686e+2, 2.1600781e+2, -824686.3, -909263.94, -362.69373, 0.007951166, -0.013200145, -824684.75, -1567.7299, 0.0, 5.0134034, 4.9587603 
1.2284179e+2, 2.209639e+2, -784821.5, -880083.0, 236.49915, 0.010049116, -0.004272098, -784820.9, -10272.1045, 0.0, 5.013298, 4.951895 
1.2284184e+2, 2.2591664e+2, -735348.6, -829741.06, 597.64825, 0.003228162, -0.0026280566, -735344.9, -9330.246, 0.0, 5.0131536, 4.9522977 
1.22841895e+2, 2.3086943e+2, -686416.7, -780581.06, 706.02277, -0.004078307, -0.001191723, -686411.4, -8931.184, 0.0, 5.013006, 4.9523 
1.2284195e+2, 2.358222e+2, -638133.7, -732865.94, 814.1189, -0.011320944, 0.00026438394, -638126.7, -9180.934, 0.0, 5.0128574, 4.9518003 
1.2284228e+2, 2.4077165e+2, -599130.6, -705339.2, 876.52313, -0.015946448, 0.014996061, -599123.4, -18678.13, 0.0, 5.012614, 4.944324 
1.22843385e+2, 2.457179e+2, -550348.6, -655104.8, 715.81805, -0.011198434, 0.026215661, -550343.75, -18363.195, 0.0, 5.012157, 4.9447956 
1.2284455e+2, 2.5066406e+2, -502188.1, -606266.9, 644.88446, -0.005505336, 0.036033846, -502184.1, -18667.26, 0.0, 5.011691, 4.944793 
1.228457e+2, 2.5561026e+2, -454268.97, -557988.0, 577.979, 0.0003026255, 0.045961108, -454265.75, -19212.717, 0.0, 5.011221, 4.944592 
1.2284649e+2, 2.6055223e+2, -412812.9, -523897.34, 1077.5515, 0.00026390326, 0.054624565, -412802.47, -26178.625, 0.0, 5.010662, 4.93938 
1.2284665e+2, 2.65491e+2, -361661.4, -465446.88, 1486.2976, -0.015163021, 0.0074042836, -361640.13, -23440.268, 0.0, 5.0096087, 4.9428453 
1.2284691e+2, 2.7043015e+2, -315069.3, -417121.16, 1557.2233, -0.029665543, -0.04365158, -315045.56, -25275.914, 0.0, 5.008483, 4.9428954 
1.2284727e+2, 2.7536932e+2, -268509.06, -368917.75, 1598.1233, -0.042458013, -0.094964996, -268483.63, -27144.629, 0.0, 5.0073433, 4.942898 
1.22846425e+2, 2.8030595e+2, -245086.42, -381129.53, -2834.8325, -0.040645897, -0.061073385, -245027.38, -52086.953, 0.0, 5.0075827, 4.921153 
1.2284479e+2, 2.8523558e+2, -187677.11, -320750.6, -1413.4034, -0.0292677, -0.0031912804, -187662.1, -43019.508, 0.0, 5.0090933, 4.9241204 
1.2284387e+2, 2.901626e+2, -135721.25, -269991.88, -1575.8861, -0.023401743, 0.009034561, -135702.75, -39327.977, 0.0, 5.0099535, 4.924145 
1.2284303e+2, 2.9508957e+2, -83769.59, -219267.13, -1748.126, -0.015653705, 0.020169243, -83747.05, -35639.508, 0.0, 5.010783, 4.92417 
1.2284121e+2, 3.0003247e+2, -14718.582, -95519.69, -2412.7988, -0.013644182, 0.0407758, -14646.598, -14646.598, 0.0, 5.0116806, 4.9594994 
1.228349e+2, 3.0499533e+2, -1524.7484, -67711.0, -2000.3712, -0.054744802, -0.040286876, -1464.3456, -1464.3456, 0.0, 5.012281, 4.968692 
1.2282836e+2, 3.0995926e+2, 27.18434, -66607.34, -1391.239, -0.09712536, -0.14619881, 56.218884, 56.218884, 0.0, 5.0126977, 4.968826 
1.2282206e+2, 3.1492358e+2, 1589.0045, -65514.285, -850.7321, -0.1335173, -0.24986239, 1599.7883, 1599.7883, 0.0, 5.013077, 4.968961 
1.2785715e+2, 1.2152835e+2, -1708411.6, -1737020.5, -105.09973, 0.009261627, 0.023197986, -1708411.3, 40623.184, 0.0, 5.0130296, 4.9943714 
1.2785712e+2, 1.265115e+2, -1671949.6, -1715252.6, -15.264416, 0.009102794, -0.004815886, -1671949.6, 28240.055, 0.0, 5.013404, 4.9852476 
1.2785652e+2, 1.3149709e+2, -1621791.3, -1665674.3, 20.817564, 0.0034432593, -0.0022283809, -1621791.3, 29541.156, 0.0, 5.0137854, 4.985247 
1.2785594e+2, 1.3648264e+2, -1573851.3, -1620643.5, 56.259388, -0.0022004147, 0.001604162, -1573851.1, 28624.268, 0.0, 5.0141664, 4.983743 
1.2785566e+2, 1.4146534e+2, -1529792.9, -1582811.3, 113.18648, -0.0051688715, 0.01604577, -1529792.6, 23852.02, 0.0, 5.0143743, 4.9798603 
1.2785596e+2, 1.4644498e+2, -1480713.5, -1532969.5, 99.04767, -0.00257393, 0.008140965, -1480713.3, 24127.477, 0.0, 5.014218, 4.980195 
1.2785627e+2, 1.5142454e+2, -1432159.6, -1484159.9, 77.21391, 0.00019174976, -0.0007876645, -1432159.5, 23877.832, 0.0, 5.014049, 4.9801946 
1.2785658e+2, 1.564041e+2, -1385031.8, -1438324.6, 55.319717, 0.0029576223, -0.009269113, -1385031.8, 22202.234, 0.0, 5.0138803, 4.979199 
1.2785669e+2, 1.6138001e+2, -1344962.0, -1407561.6, -100.50584, 0.0042245844, -0.010024708, -1344961.9, 13505.368, 0.0, 5.0137734, 4.9731297 
1.2785628e+2, 1.6635318e+2, -1295778.6, -1358473.5, -153.00351, 0.002162454, -0.011783083, -1295778.3, 13951.071, 0.0, 5.0138063, 4.9730997 
1.2785585e+2, 1.7132638e+2, -1246536.4, -1309289.3, -155.8156, -0.000014889988, -0.013277411, -1246535.9, 14455.143, 0.0, 5.013845, 4.9731 
1.2785544e+2, 1.7629959e+2, -1198431.9, -1262510.6, -158.53494, -0.0021838525, -0.014377467, -1198431.5, 13821.334, 0.0, 5.013883, 4.972293 
1.2785517e+2, 1.8126914e+2, -1158126.8, -1232183.0, 58.72882, -0.0037989398, -0.008070606, -1158126.6, 5424.041, 0.0, 5.0138974, 4.9659357 
1.2785521e+2, 1.8623517e+2, -1108877.3, -1182636.9, 187.60757, -0.0041881674, -0.01094481, -1108876.8, 6006.9526, 0.0, 5.013848, 4.966075 
1.2785529e+2, 1.9120118e+2, -1059830.1, -1133508.6, 273.66263, -0.0045240927, -0.0140843475, -1059829.1, 6387.5596, 0.0, 5.0137954, 4.9660754 
1.2785536e+2, 1.9616722e+2, -1011674.75, -1086296.5, 359.5499, -0.0048512453, -0.016900564, -1011673.06, 5876.638, 0.0, 5.0137424, 4.9654255 
1.2785539e+2, 2.011298e+2, -971586.56, -1056444.5, 59.051056, -0.0040061916, -0.011304934, -971586.56, -2669.4075, 0.0, 5.013681, 4.958854 
1.278553e+2, 2.0608915e+2, -922236.4, -1006556.56, -184.7557, -0.00008814963, -0.011300873, -922236.0, -1918.5001, 0.0, 5.0135903, 4.959104 
1.2785521e+2, 2.1104854e+2, -873232.4, -957407.6, -306.79395, 0.003997835, -0.011484998, -873231.25, -1513.5409, 0.0, 5.013497, 4.959105 
1.2785512e+2, 2.1600792e+2, -824893.44, -909712.75, -428.1221, 0.008088099, -0.011526263, -824891.3, -1773.4006, 0.0, 5.013403, 4.9586067 
1.2785508e+2, 2.209639e+2, -784726.0, -879872.25, 140.23207, 0.009783894, -0.002980349, -784725.75, -10174.6, 0.0, 5.0132976, 4.9519677 
1.2785517e+2, 2.2591665e+2, -735156.94, -829321.44, 493.08456, 0.004657456, -0.0026191596, -735154.3, -9138.77, 0.0, 5.013153, 4.952443 
1.2785524e+2, 2.3086944e+2, -686226.06, -780163.4, 605.5238, -0.00087756466, -0.002481912, -686222.2, -8742.668, 0.0, 5.0130057, 4.9524455 
1.2785535e+2, 2.3582223e+2, -637944.2, -732450.0, 717.6974, -0.006398029, -0.0023153923, -637938.75, -8995.318, 0.0, 5.0128574, 4.951946 
1.2785555e+2, 2.4077168e+2, -599130.5, -705363.0, 582.9688, -0.009861966, 0.0114578195, -599127.3, -18685.36, 0.0, 5.0126147, 4.944318 
1.2785615e+2, 2.4571793e+2, -550448.5, -655356.2, 363.8552, -0.0058310074, 0.023451181, -550447.25, -18468.996, 0.0, 5.012157, 4.944712 
1.2785676e+2, 2.5066411e+2, -502290.9, -606510.3, 301.00793, -0.0011009995, 0.03425935, -502290.06, -18774.51, 0.0, 5.0116897, 4.944712 
1.2785737e+2, 2.556103e+2, -454374.78, -558223.56, 242.20699, 0.003655285, 0.04515815, -454374.22, -19321.48, 0.0, 5.0112176, 4.9445133 
1.2785777e+2, 2.6055238e+2, -412558.3, -523352.78, 595.7077, 0.0049140444, 0.05463807, -412555.13, -25931.738, 0.0, 5.0106597, 4.9395757 
1.2785777e+2, 2.654915e+2, -361303.25, -464819.97, 933.26855, -0.003536397, 0.008080036, -361294.84, -23098.81, 0.0, 5.0096216, 4.943071 
1.2785782e+2, 2.7043095e+2, -314681.5, -416561.94, 1048.4247, -0.01172994, -0.04230635, -314670.72, -24908.111, 0.0, 5.0085135, 4.943097 
1.2785794e+2, 2.753704e+2, -268091.44, -368426.06, 1133.6001, -0.019043848, -0.09298521, -268078.66, -26749.553, 0.0, 5.0073915, 4.9430757 
1.2785725e+2, 2.8030726e+2, -245369.4, -382020.22, -1400.3682, -0.019623693, -0.05608306, -245355.06, -52426.848, 0.0, 5.0076094, 4.920834 
1.2785634e+2, 2.852368e+2, -187744.33, -321121.63, -599.5075, -0.012620644, 0.002927816, -187741.64, -43108.754, 0.0, 5.009089, 4.9239974 
1.2785603e+2, 2.9016364e+2, -135816.3, -270420.72, -685.3681, -0.0072035654, 0.014109915, -135812.8, -39443.996, 0.0, 5.009944, 4.9240103 
1.2785576e+2, 2.950904e+2, -83892.086, -219753.42, -781.02625, -0.000810061, 0.024491549, -83887.59, -35782.4, 0.0, 5.010769, 4.924023 
1.2785485e+2, 3.0003288e+2, -14219.229, -94673.15, -1218.2577, 0.0010854354, 0.041110337, -14200.785, -14200.785, 0.0, 5.0116777, 4.9598265 
1.2785041e+2, 3.0499658e+2, -170.97992, -65334.105, -741.1413, -0.030890169, -0.04227609, -162.55154, -162.55154, 0.0, 5.012335, 4.969531 
1.2784564e+2, 3.099618e+2, 1510.8207, -64333.6, -15.073953, -0.06548745, -0.14766644, 1510.8241, 1510.8241, 0.0, 5.012809, 4.969616 
1.2784106e+2, 3.1492725e+2, 3202.322, -63343.617, 642.42596, -0.09662701, -0.2516043, 3208.5234, 3208.5234, 0.0, 5.0132446, 4.9697013 
1.3287024e+2, 1.2152693e+2, -1708015.4, -1736205.8, 96.04918, 0.009773598, 0.009593953, -1708015.0, 41034.887, 0.0, 5.013028, 4.9946404 
1.328706e+2, 1.2651335e+2, -1671885.9, -1715114.9, 273.415, 0.009872423, 0.013639326, -1671884.1, 28287.766, 0.0, 5.013403, 4.985293 
1.3287035e+2, 1.3149793e+2, -1621726.8, -1665537.8, 311.10248, 0.0036969346, 0.005823609, -1621724.6, 29599.178, 0.0, 5.013785, 4.9852924 
1.328701e+2, 1.3648249e+2, -1573786.0, -1620507.9, 348.0607, -0.0024862043, -0.00075532903, -1573783.4, 28692.492, 0.0, 5.014166, 4.983788 
1.3286996e+2, 1.4146464e+2, -1529816.3, -1582858.4, 70.092926, -0.005768926, 0.0077976044, -1529816.1, 23834.404, 0.0, 5.0143743, 4.9798446 
1.3287014e+2, 1.4644459e+2, -1480754.0, -1533052.6, -29.721224, -0.00288047, 0.0034794048, -1480754.0, 24089.934, 0.0, 5.014218, 4.9801674 
1.3287032e+2, 1.5142453e+2, -1432199.6, -1484242.8, -50.842224, 0.00019832801, -0.0015663276, -1432199.6, 23837.914, 0.0, 5.014049, 4.980167 
1.328705e+2, 1.5640445e+2, -1385071.4, -1438407.3, -71.99721, 0.0032701294, -0.006166572, -1385071.4, 22159.93, 0.0, 5.0138803, 4.9791713 
1.328705e+2, 1.6138053e+2, -1344973.3, -1407585.5, -108.61175, 0.004526806, -0.004989661, -1344973.0, 13490.203, 0.0, 5.0137734, 4.9731216 
1.3287006e+2, 1.6635345e+2, -1295783.4, -1358484.0, -124.08974, 0.0017851612, -0.009097402, -1295783.1, 13944.191, 0.0, 5.0138063, 4.9730964 
1.328696e+2, 1.713264e+2, -1246541.1, -1309299.5, -125.86231, -0.0011100178, -0.013095364, -1246540.9, 14450.453, 0.0, 5.013845, 4.9730964 
1.3286912e+2, 1.7629936e+2, -1198436.8, -1262520.8, -127.54688, -0.00401323, -0.016699566, -1198436.5, 13818.835, 0.0, 5.013883, 4.972289 
1.3286887e+2, 1.812688e+2, -1158013.9, -1231941.6, 36.848293, -0.0057350737, -0.011706616, -1158013.9, 5539.9443, 0.0, 5.013897, 4.9660172 
1.3286904e+2, 1.8623507e+2, -1108723.4, -1182307.9, 148.65646, -0.0046485644, -0.013199903, -1108723.0, 6160.9927, 0.0, 5.013848, 4.966186 
1.328692e+2, 1.9120137e+2, -1059676.6, -1133180.6, 236.44806, -0.003458915, -0.014860127, -1059675.9, 6538.2534, 0.0, 5.0137954, 4.9661865 
1.3286936e+2, 1.9616766e+2, -1011521.5, -1085969.4, 324.07776, -0.0022854016, -0.016201172, -1011520.1, 6024.0356, 0.0, 5.0137424, 4.9655366 
1.3286942e+2, 2.0113038e+2, -971699.94, -1056691.6, -2.179493, -0.00064319273, -0.009607159, -971699.94, -2789.7402, 0.0, 5.0136814, 4.9587703 
1.3286914e+2, 2.0608959e+2, -922446.25, -1007011.0, -255.69202, 0.0022845587, -0.009601693, -922445.5, -2132.465, 0.0, 5.0135903, 4.958949 
1.3286886e+2, 2.110488e+2, -873441.2, -957858.94, -375.36252, 0.005258794, -0.009810268, -873439.56, -1723.6356, 0.0, 5.0134964, 4.958951 
1.3286854e+2, 2.1600802e+2, -825101.3, -910161.0, -494.3148, 0.008207313, -0.009875633, -825098.44, -1979.6975, 0.0, 5.0134025, 4.9584527 
1.3286836e+2, 2.2096391e+2, -784646.3, -879693.75, 44.27918, 0.009511184, -0.0016216867, -784646.3, -10092.788, 0.0, 5.013297, 4.952029 
1.3286848e+2, 2.2591667e+2, -734966.6, -828900.6, 388.7875, 0.006081664, -0.002543489, -734965.0, -8948.541, 0.0, 5.013153, 4.952588 
1.328686e+2, 2.3086946e+2, -686036.9, -779744.44, 505.29114, 0.0023135054, -0.0037686, -686034.1, -8555.391, 0.0, 5.0130057, 4.95259 
1.3286872e+2, 2.3582226e+2, -637756.06, -732032.8, 621.54193, -0.0014893733, -0.0049549416, -637752.0, -8810.933, 0.0, 5.012858, 4.9520903 
1.3286884e+2, 2.4077171e+2, -599156.1, -705432.2, 288.90424, -0.0037656864, 0.008009456, -599155.3, -18716.713, 0.0, 5.012616, 4.944294 
1.3286892e+2, 2.4571796e+2, -550555.3, -655600.8, 7.761146, -0.0004579023, 0.020809328, -550555.3, -18579.479, 0.0, 5.0121574, 4.944628 
1.3286898e+2, 2.5066414e+2, -502400.7, -606747.06, -47.001503, 0.0032855978, 0.032519504, -502400.66, -18886.498, 0.0, 5.011688, 4.94463 
1.3286904e+2, 2.5561035e+2, -454487.56, -558452.44, -97.69973, 0.0069667893, 0.04430187, -454487.47, -19435.043, 0.0, 5.0112143, 4.944434 
1.3286905e+2, 2.6055253e+2, -412361.66, -522892.44, 129.7463, 0.0093923975, 0.054728497, -412361.5, -25738.586, 0.0, 5.0106573, 4.9397354 
1.3286893e+2, 2.6549196e+2, -360967.53, -464171.53, 415.12766, 0.008120748, 0.008700257, -360965.88, -22773.611, 0.0, 5.009635, 4.9432917 
1.328688e+2, 2.704317e+2, -314316.16, -415981.03, 574.54144, 0.006548283, -0.04133962, -314312.9, -24557.146, 0.0, 5.0085444, 4.9432936 
1.328687e+2, 2.753714e+2, -267696.28, -367912.66, 704.01935, 0.005025083, -0.09170693, -267691.3, -26371.861, 0.0, 5.007439, 4.9432483 
1.328681e+2, 2.8030854e+2, -245805.72, -383238.47, 37.184208, 0.0012345546, -0.051034354, -245805.7, -52889.69, 0.0, 5.007636, 4.9203944 
1.3286784e+2, 2.85238e+2, -187858.08, -321447.13, 240.22713, 0.0032548956, 0.008884044, -187857.64, -43234.14, 0.0, 5.0090847, 4.9238653 
1.3286814e+2, 2.9016456e+2, -135957.73, -270804.1, 230.9789, 0.008493883, 0.017839244, -135957.33, -39593.492, 0.0, 5.0099344, 4.923866 
1.3286845e+2, 2.9509106e+2, -84060.836, -220194.23, 211.89493, 0.013803534, 0.026284883, -84060.5, -35955.97, 0.0, 5.0107546, 4.9238667 
1.3286842e+2, 3.0003333e+2, -13991.803, -94304.664, 33.22264, 0.015439332, 0.041287642, -13991.788, -13991.788, 0.0, 5.011675, 4.95996 
1.3286594e+2, 3.0499804e+2, 1123.912, -62899.61, 587.1015, -0.0071670925, -0.042105064, 1129.2953, 1129.2953, 0.0, 5.0123887, 4.9703646 
1.328631e+2, 3.0996445e+2, 2935.6008, -62002.23, 1429.9971, -0.03325016, -0.14831285, 2967.0757, 2967.0757, 0.0, 5.0129204, 4.9704 
1.3286035e+2, 3.1493095e+2, 4756.809, -61115.3, 2204.379, -0.05840686, -0.25386438, 4830.495, 4830.495, 0.0, 5.0134134, 4.9704356 
1.3788334e+2, 1.21525444e+2, -1707440.3, -1735219.8, 277.5191, 0.010187747, -0.0044742436, -1707437.5, 41628.49, 0.0, 5.013068, 4.994944 
1.3788408e+2, 1.265152e+2, -1671756.1, -1714943.9, 537.9087, 0.010645692, 0.032102842, -1671749.4, 28404.742, 0.0, 5.013424, 4.9853387 
1.3788415e+2, 1.3149878e+2, -1621671.0, -1665404.4, 581.62964, 0.003956153, 0.013888393, -1621663.3, 29651.83, 0.0, 5.013781, 4.9853377 
1.3788423e+2, 1.3648234e+2, -1573816.1, -1620417.9, 625.9403, -0.002758915, -0.0030960978, -1573807.8, 28668.617, 0.0, 5.014134, 4.9838333 
1.3788427e+2, 1.414639e+2, -1529990.3, -1582986.1, 19.172346, -0.0063618743, -0.0004122879, -1529990.3, 23666.068, 0.0, 5.0143256, 4.979826 
1.3788432e+2, 1.4644422e+2, -1480896.9, -1533185.5, -165.49106, -0.0031860082, -0.0011607289, -1480896.4, 23950.701, 0.0, 5.0141835, 4.9801393 
1.3788436e+2, 1.5142451e+2, -1432300.0, -1484354.6, -185.42535, 0.00020491931, -0.002346398, -1432299.3, 23738.48, 0.0, 5.014029, 4.980139 
1.3788441e+2, 1.5640478e+2, -1385134.1, -1438500.5, -205.04402, 0.0035841593, -0.0030874708, -1385133.4, 22095.234, 0.0, 5.0138726, 4.979143 
1.378843e+2, 1.6138104e+2, -1344983.1, -1407614.5, -120.623436, 0.0048368624, 0.0000509472, -1344982.9, 13476.297, 0.0, 5.0137753, 4.973111 
1.3788381e+2, 1.6635373e+2, -1295774.3, -1358487.1, -96.51461, 0.0014187845, -0.0063995016, -1295774.1, 13951.238, 0.0, 5.0138116, 4.9730926 
1.3788334e+2, 1.7132643e+2, -1246536.1, -1309304.6, -95.2263, -0.0021878402, -0.012906933, -1246536.0, 14455.551, 0.0, 5.0138483, 4.973093 
1.3788284e+2, 1.7629914e+2, -1198448.3, -1262533.6, -94.36827, -0.0058142575, -0.019020533, -1198448.1, 13809.63, 0.0, 5.0138807, 4.9722857 
1.3788259e+2, 1.8126847e+2, -1157934.4, -1231725.1, 15.636553, -0.007639849, -0.015302406, -1157934.4, 5622.557, 0.0, 5.0138874, 4.9660945 
1.3788283e+2, 1.8623498e+2, -1108611.6, -1181999.1, 101.20694, -0.0050906097, -0.015426585, -1108611.5, 6272.8457, 0.0, 5.013834, 4.9662967 
1.378831e+2, 1.9120154e+2, -1059592.8, -1132885.6, 181.24529, -0.0023823043, -0.015637828, -1059592.3, 6619.2466, 0.0, 5.013772, 4.966297 
1.3788338e+2, 1.961681e+2, -1011479.94, -1085694.9, 261.77493, 0.00029149678, -0.015534259, -1011479.0, 6059.5938, 0.0, 5.013705, 4.965647 
1.3788345e+2, 2.0113094e+2, -971951.8, -1057017.9, -93.38719, 0.0027439522, -0.007874109, -971951.7, -3048.3982, 0.0, 5.0136375, 4.9586797 
1.3788298e+2, 2.0609002e+2, -922727.44, -1007498.0, -352.13116, 0.004670651, -0.007861851, -922726.0, -2417.4248, 0.0, 5.0135665, 4.9587936 
1.3788247e+2, 2.1104906e+2, -873681.8, -958324.44, -466.48822, 0.0065269293, -0.008127491, -873679.25, -1965.1775, 0.0, 5.013486, 4.958796 
1.3788198e+2, 2.1600814e+2, -825324.9, -910616.06, -581.4144, 0.008338302, -0.008248424, -825320.94, -2201.3413, 0.0, 5.013397, 4.958298 
1.3788167e+2, 2.2096391e+2, -784592.94, -879552.44, -73.56919, 0.009273482, -0.00019411735, -784592.9, -10037.04, 0.0, 5.0132937, 4.952079 
1.378818e+2, 2.2591667e+2, -734769.5, -828475.25, 250.47968, 0.007530883, -0.0024073003, -734768.8, -8751.506, 0.0, 5.0131564, 4.9527316 
1.3788196e+2, 2.3086949e+2, -685844.44, -779322.75, 357.67096, 0.0055221184, -0.005069699, -685843.06, -8365.046, 0.0, 5.013008, 4.9527335 
1.3788211e+2, 2.3582229e+2, -637592.7, -731625.8, 464.03033, 0.0034410649, -0.0076870625, -637590.4, -8651.628, 0.0, 5.0128508, 4.9522333 
1.3788213e+2, 2.4077176e+2, -599247.5, -705563.9, -72.529106, 0.0023894866, 0.0046009133, -599247.44, -18812.193, 0.0, 5.012604, 4.944253 
1.3788167e+2, 2.45718e+2, -550641.56, -655826.2, -415.2889, 0.0049630855, 0.018249463, -550639.94, -18666.568, 0.0, 5.0121694, 4.944542 
1.3788117e+2, 2.506642e+2, -502448.44, -606946.7, -464.23227, 0.0077090603, 0.030799517, -502446.38, -18933.586, 0.0, 5.0117135, 4.944546 
1.378807e+2, 2.556104e+2, -454531.25, -558641.94, -513.89545, 0.01032358, 0.04341559, -454528.7, -19476.64, 0.0, 5.011242, 4.9443526 
1.3788033e+2, 2.605527e+2, -412158.84, -522481.22, -408.06882, 0.013832983, 0.054932773, -412157.34, -25534.842, 0.0, 5.0106816, 4.9398603 
1.378801e+2, 2.6549244e+2, -360612.0, -463455.6, -127.51983, 0.020015644, 0.009129965, -360611.84, -22423.15, 0.0, 5.009668, 4.9435153 
1.3787985e+2, 2.7043244e+2, -314055.3, -415368.66, 191.45834, 0.02550764, -0.04114212, -314054.94, -24305.635, 0.0, 5.008552, 4.943499 
1.3787962e+2, 2.753724e+2, -267636.38, -367448.88, 562.4245, 0.030277237, -0.09184281, -267633.2, -26322.756, 0.0, 5.0073843, 4.9434347 
1.3787903e+2, 2.8030983e+2, -246973.8, -385008.4, 2026.0842, 0.022636896, -0.04696657, -246944.08, -54039.836, 0.0, 5.0074778, 4.9198403 
1.3787934e+2, 2.8523913e+2, -188372.27, -321919.94, 1502.9799, 0.018868541, 0.014032549, -188355.34, -43740.73, 0.0, 5.008985, 4.923704 
1.378802e+2, 2.9016536e+2, -136282.84, -271227.16, 1307.8547, 0.024001034, 0.020045998, -136270.17, -39910.35, 0.0, 5.009904, 4.923695 
1.378811e+2, 2.9509157e+2, -84335.75, -220626.5, 1135.4612, 0.028367363, 0.025741154, -84326.29, -36220.973, 0.0, 5.010745, 4.923686 
1.3788195e+2, 3.0003378e+2, -14111.091, -94399.73, 1088.0743, 0.029539645, 0.041632287, -14096.348, -14096.348, 0.0, 5.011663, 4.959904 
1.3788152e+2, 3.0499962e+2, 2318.0422, -60314.53, 1816.3616, 0.016590986, -0.040089317, 2370.673, 2370.673, 0.0, 5.012442, 4.971218 
1.3788077e+2, 3.0996713e+2, 4114.9614, -59523.746, 3132.2444, -0.000086367865, -0.14911416, 4268.756, 4268.756, 0.0, 5.012979, 4.971221 
1.3788e+2, 3.1493464e+2, 5708.2827, -58828.85, 4621.648, -0.01825268, -0.25818545, 6037.5693, 6037.5693, 0.0, 5.013402, 4.9712243 
1.4289685e+2, 1.21524125e+2, -1705945.9, -1735957.0, 134.30702, 0.010499713, -0.01505053, -1705945.3, 43132.07, 0.0, 5.0138783, 4.9943037 
1.4289771e+2, 1.2651587e+2, -1670182.9, -1713927.3, 391.92358, 0.010130855, 0.041004904, -1670179.4, 29967.777, 0.0, 5.013891, 4.985444 
1.4289796e+2, 1.3149904e+2, -1621152.0, -1664905.6, 511.92297, 0.0036043958, 0.017607579, -1621146.0, 30166.008, 0.0, 5.0139, 4.9854445 
1.4289822e+2, 1.364822e+2, -1574332.3, -1620424.3, 631.3366, -0.002898223, -0.0045436495, -1574323.5, 28153.63, 0.0, 5.013908, 4.983941 
1.4289838e+2, 1.4146355e+2, -1531196.8, -1583571.1, -53.04799, -0.006439815, -0.004795965, -1531196.6, 22462.797, 0.0, 5.0139203, 4.9798293 
1.4289835e+2, 1.46444e+2, -1481644.1, -1533607.4, -265.98657, -0.0035743068, -0.0037542249, -1481642.8, 23206.291, 0.0, 5.0139446, 4.980115 
1.428983e+2, 1.5142445e+2, -1432511.9, -1484513.0, -284.58963, -0.00048215926, -0.00298429, -1432510.4, 23528.148, 0.0, 5.0139694, 4.980115 
1.4289826e+2, 1.5640491e+2, -1384809.5, -1438396.8, -303.19177, 0.00262199, -0.0017592931, -1384807.8, 22420.322, 0.0, 5.0139937, 4.97912 
1.428981e+2, 1.6138126e+2, -1344227.9, -1407203.8, -144.91063, 0.0038150332, 0.0023957747, -1344227.5, 14230.38, 0.0, 5.0140214, 4.97313 
1.4289771e+2, 1.6635387e+2, -1295019.3, -1358055.5, -64.112305, 0.0008010092, -0.0051156566, -1295019.1, 14705.429, 0.0, 5.0140533, 4.9731216 
1.428973e+2, 1.7132649e+2, -1245798.6, -1308883.6, -22.425714, -0.0023421699, -0.012746416, -1245798.6, 15192.726, 0.0, 5.0140853, 4.9731216 
1.4289688e+2, 1.7629911e+2, -1197715.5, -1262117.3, 19.283943, -0.005461924, -0.019973354, -1197715.5, 14542.505, 0.0, 5.0141172, 4.9723144 
1.4289667e+2, 1.8126842e+2, -1157329.6, -1231392.5, 39.36395, -0.006706164, -0.0167827, -1157329.5, 6227.7876, 0.0, 5.014085, 4.9661136 
1.4289686e+2, 1.8623504e+2, -1108391.9, -1181858.1, -23.327822, -0.0034220011, -0.016026702, -1108391.9, 6491.868, 0.0, 5.0139017, 4.9663124 
1.428971e+2, 1.9120169e+2, -1059745.6, -1132920.5, -70.22714, 0.000088929955, -0.015293431, -1059745.5, 6464.4014, 0.0, 5.013712, 4.9663134 
1.4289731e+2, 1.9616835e+2, -1011988.25, -1085896.3, -117.35214, 0.0036248318, -0.014244797, -1011988.06, 5547.9434, 0.0, 5.0135217, 4.965664 
1.4289731e+2, 2.0113125e+2, -972666.4, -1057489.6, -438.05185, 0.006245453, -0.0060238764, -972664.06, -3763.723, 0.0, 5.0134177, 4.9586215 
1.428967e+2, 2.0609021e+2, -922991.25, -1007839.56, -592.134, 0.0064270706, -0.0062464457, -922987.1, -2680.031, 0.0, 5.013519, 4.9586997 
1.4289604e+2, 2.1104917e+2, -873400.7, -958413.3, -628.6958, 0.006537436, -0.006752043, -873396.06, -1681.9207, 0.0, 5.0136285, 4.9587007 
1.4289539e+2, 2.1600811e+2, -824479.2, -910445.25, -665.8219, 0.006707296, -0.007097176, -824474.06, -1352.9349, 0.0, 5.013737, 4.9582024 
1.4289497e+2, 2.209638e+2, -783240.94, -878985.2, -232.99939, 0.0069645513, 0.00080526696, -783240.4, -8681.988, 0.0, 5.0137806, 4.952051 
1.4289515e+2, 2.2591653e+2, -733424.44, -827839.9, -132.30719, 0.0069591594, -0.0017249581, -733424.25, -7404.426, 0.0, 5.0136285, 4.952737 
1.4289536e+2, 2.308693e+2, -684552.7, -778718.0, -225.72139, 0.006916452, -0.0047925794, -684552.1, -7071.575, 0.0, 5.0134635, 4.952738 
1.4289555e+2, 2.3582207e+2, -636329.06, -731040.4, -320.2578, 0.0069002155, -0.007856697, -636328.0, -7386.6777, 0.0, 5.0132976, 4.952237 
1.4289549e+2, 2.4077143e+2, -597859.75, -704840.06, -1068.4523, 0.007342271, 0.0032406459, -597849.1, -17410.727, 0.0, 5.0130796, 4.944289 
1.428946e+2, 2.4571754e+2, -548953.1, -654980.25, -1298.314, 0.0091158, 0.0152496025, -548937.2, -16959.947, 0.0, 5.0127597, 4.944571 
1.4289366e+2, 2.5066364e+2, -500411.1, -605958.9, -1189.3218, 0.01101539, 0.0265089, -500397.7, -16880.57, 0.0, 5.012438, 4.944571 
1.4289272e+2, 2.5560978e+2, -452112.78, -557499.3, -1081.602, 0.01294864, 0.037997484, -452101.7, -17044.918, 0.0, 5.012113, 4.944373 
1.42892e+2, 2.6055217e+2, -409627.13, -521962.22, -1249.9772, 0.01742697, 0.05113311, -409613.22, -22986.914, 0.0, 5.01174, 4.939586 
1.4289169e+2, 2.6549217e+2, -357275.7, -462899.5, -2388.9739, 0.029754927, 0.012502961, -357221.7, -19028.775, 0.0, 5.0111084, 4.943092 
1.4289138e+2, 2.7043235e+2, -309436.47, -414055.25, -3569.9033, 0.04195584, -0.03175249, -309314.8, -19560.078, 0.0, 5.010443, 4.9431496 
1.4289108e+2, 2.753725e+2, -261624.27, -365354.25, -4766.8906, 0.053610213, -0.07757478, -261405.67, -20088.719, 0.0, 5.009771, 4.94316 
1.4289068e+2, 2.803094e+2, -239489.36, -379849.78, -2088.1475, 0.04614718, -0.041610453, -239458.31, -46540.477, 0.0, 5.0100117, 4.9206333 
1.4289127e+2, 2.852377e+2, -183973.89, -320299.5, -1924.8688, 0.034992557, 0.0097645195, -183946.72, -39311.063, 0.0, 5.010919, 4.923546 
1.4289233e+2, 2.9016322e+2, -133120.13, -270033.22, -1809.1903, 0.03584543, 0.013670137, -133096.22, -36711.453, 0.0, 5.011354, 4.9235578 
1.4289342e+2, 2.950886e+2, -82248.914, -219803.69, -1750.9211, 0.036094364, 0.015571574, -82226.63, -34091.41, 0.0, 5.0117693, 4.9235697 
1.4289486e+2, 3.0003068e+2, -12341.146, -92463.32, -1499.5815, 0.035406627, 0.031346183, -12313.09, -12313.09, 0.0, 5.0123277, 4.9603143 
1.4289702e+2, 3.0499706e+2, 4224.078, -58533.48, -3290.4897, 0.036754344, -0.04141045, 4396.1323, 4396.1323, 0.0, 5.013262, 4.9715834 
1.428991e+2, 3.0996525e+2, 7351.7534, -56356.742, -4963.843, 0.036857396, -0.1405217, 7736.191, 7736.191, 0.0, 5.0141673, 4.9719434 
1.4290115e+2, 3.149341e+2, 10575.101, -54277.86, -6434.9097, 0.034869757, -0.23680526, 11207.427, 11207.427, 0.0, 5.015046, 4.9723043 
1.4791071e+2, 1.2152288e+2, -1707927.1, -1739982.5, 130.82487, 0.010198021, -0.023472542, -1707926.6, 41159.082, 0.0, 5.013878, 4.9929795 
1.4791143e+2, 1.2651564e+2, -1669950.5, -1713450.6, 396.15482, 0.0084428415, 0.042678572, -1669946.9, 30201.25, 0.0, 5.0138907, 4.985601 
1.4791177e+2, 1.3149886e+2, -1620921.0, -1664431.5, 517.72046, 0.0027157937, 0.01805786, -1620914.8, 30398.273, 0.0, 5.0138993, 4.985601 
1.4791213e+2, 1.3648205e+2, -1574102.3, -1619952.3, 638.69867, -0.003007647, -0.005317929, -1574093.4, 28384.828, 0.0, 5.013908, 4.9840975 
1.4791232e+2, 1.4146341e+2, -1531169.5, -1583515.0, -39.629143, -0.0062451405, -0.0062962244, -1531169.5, 22491.043, 0.0, 5.0139203, 4.979848 
1.4791223e+2, 1.4644389e+2, -1481676.9, -1533675.4, -247.39482, -0.004124063, -0.004791357, -1481675.8, 23174.361, 0.0, 5.0139446, 4.9800925 
1.4791214e+2, 1.5142438e+2, -1432544.5, -1484580.9, -265.188, -0.001824919, -0.0035088083, -1432543.1, 23496.426, 0.0, 5.0139694, 4.9800925 
1.4791204e+2, 1.5640487e+2, -1384841.8, -1438464.6, -282.98386, 0.0004779873, -0.0017713204, -1384840.3, 22388.803, 0.0, 5.0139937, 4.9790974 
1.4791189e+2, 1.6138124e+2, -1344169.6, -1407080.9, -121.83608, 0.0015158949, 0.0026746124, -1344169.4, 14289.358, 0.0, 5.0140214, 4.9731717 
1.4791165e+2, 1.6635391e+2, -1294941.0, -1357890.1, -39.90786, -0.00021370723, -0.004930731, -1294941.0, 14783.768, 0.0, 5.0140533, 4.9731774 
1.4791141e+2, 1.7132656e+2, -1245720.8, -1308718.5, 2.8534265, -0.0020360586, -0.012659811, -1245720.8, 15269.95, 0.0, 5.0140853, 4.9731774 
1.4791116e+2, 1.7629923e+2, -1197638.1, -1261952.4, 45.633846, -0.003851817, -0.019985616, -1197638.0, 14618.64, 0.0, 5.014117, 4.97237 
1.4791101e+2, 1.8126857e+2, -1157362.5, -1231463.1, -65.18181, -0.0040744906, -0.016760819, -1157362.5, 6193.1543, 0.0, 5.0140853, 4.9660897 
1.4791107e+2, 1.862352e+2, -1108468.5, -1182024.3, -167.2865, -0.00042453772, -0.015402529, -1108468.1, 6414.215, 0.0, 5.0139017, 4.9662566 
1.4791113e+2, 1.9120187e+2, -1059821.5, -1133086.5, -212.47083, 0.0034021586, -0.014020767, -1059820.9, 6388.0474, 0.0, 5.0137124, 4.9662576 
1.479112e+2, 1.9616853e+2, -1012063.44, -1086062.4, -257.8605, 0.0072304113, -0.012327101, -1012062.5, 5472.8657, 0.0, 5.013522, 4.9656076 
1.4791106e+2, 2.011314e+2, -972717.0, -1057592.1, -412.19485, 0.009423961, -0.0038407268, -972715.0, -3814.7878, 0.0, 5.013417, 4.958587 
1.4791033e+2, 2.0609029e+2, -923051.7, -1007961.7, -508.86816, 0.0073772697, -0.004527009, -923048.6, -2741.0242, 0.0, 5.0135174, 4.958659 
1.4790955e+2, 2.1104914e+2, -873460.2, -958536.2, -543.0276, 0.0051388936, -0.0055109933, -873456.75, -1741.4243, 0.0, 5.013627, 4.9586596 
1.4790876e+2, 2.16008e+2, -824537.8, -910568.9, -577.7599, 0.0029277694, -0.006338841, -824533.94, -1410.9415, 0.0, 5.0137362, 4.9581604 
1.4790827e+2, 2.2096361e+2, -783363.5, -879245.2, -296.17374, 0.0019201834, 0.0013807577, -783362.6, -8801.564, 0.0, 5.013779, 4.9519625 
1.479085e+2, 2.259163e+2, -733568.94, -828153.9, -252.18814, 0.0039601033, -0.0004690217, -733568.3, -7544.954, 0.0, 5.0136275, 4.952629 
1.4790875e+2, 2.3086902e+2, -684692.6, -779030.0, -341.24902, 0.0061269966, -0.002827934, -684691.4, -7206.452, 0.0, 5.013464, 4.95263 
1.4790903e+2, 2.3582174e+2, -636464.5, -731350.4, -431.41763, 0.008271337, -0.005211189, -636462.5, -7515.9424, 0.0, 5.0132995, 4.952129 
1.4790891e+2, 2.4077095e+2, -597715.94, -704544.5, -1281.1554, 0.010171586, 0.0047442904, -597700.56, -17255.54, 0.0, 5.013085, 4.9443874 
1.4790763e+2, 2.4571683e+2, -548757.44, -654559.56, -1553.1263, 0.0112156505, 0.012880646, -548734.6, -16749.793, 0.0, 5.012764, 4.9447126 
1.4790626e+2, 2.506627e+2, -500224.66, -605545.4, -1438.0331, 0.012148176, 0.020503148, -500205.03, -16679.746, 0.0, 5.0124393, 4.944712 
1.4790489e+2, 2.5560862e+2, -451935.5, -557092.8, -1324.2003, 0.013042152, 0.028407792, -451918.8, -16853.383, 0.0, 5.012112, 4.944514 
1.479038e+2, 2.6055107e+2, -410497.16, -523896.1, -1565.8501, 0.017204363, 0.0430016, -410475.53, -23841.355, 0.0, 5.011737, 4.93892 
1.479033e+2, 2.654913e+2, -358795.22, -466400.75, -2698.5876, 0.0324095, 0.02053288, -358727.6, -20524.504, 0.0, 5.011121, 4.9418855 
1.4790282e+2, 2.704317e+2, -310868.16, -417488.13, -3829.0513, 0.04748614, -0.0074163633, -310730.84, -20962.133, 0.0, 5.0104733, 4.941951 
1.4790234e+2, 2.7537197e+2, -262968.56, -368719.34, -4975.5386, 0.06160165, -0.037580337, -262734.97, -21399.852, 0.0, 5.0098195, 4.9419684 
1.4790201e+2, 2.803078e+2, -238188.81, -375812.34, -1653.508, 0.055041112, -0.012124065, -238168.95, -45218.45, 0.0, 5.009881, 4.922075 
1.4790288e+2, 2.8523403e+2, -184732.5, -319940.88, -1616.8137, 0.041180518, 0.013494939, -184713.17, -40030.953, 0.0, 5.0106716, 4.9237585 
1.4790407e+2, 2.9015815e+2, -133736.16, -269669.0, -1413.0768, 0.038726192, 0.0051893424, -133721.47, -37283.34, 0.0, 5.0111513, 4.9237533 
1.4790528e+2, 2.9508203e+2, -82723.0, -219434.36, -1266.7625, 0.03503881, -0.005837206, -82711.26, -34515.188, 0.0, 5.011611, 4.9237475 
1.479072e+2, 3.0002385e+2, -12587.409, -91599.52, -633.09485, 0.032582767, 0.0052078087, -12582.337, -12582.337, 0.0, 5.012168, 4.9606724 
1.4791198e+2, 3.0499062e+2, 1702.533, -62067.258, -1948.8236, 0.04900792, -0.043590624, 1762.034, 1762.034, 0.0, 5.012978, 4.9705477 
1.4791699e+2, 3.0995867e+2, 4632.3604, -59388.387, -3353.4756, 0.06550096, -0.11623616, 4807.54, 4807.54, 0.0, 5.013761, 4.971092 
1.4792192e+2, 3.1492773e+2, 7658.419, -56807.883, -4555.535, 0.078103215, -0.18555044, 7978.746, 7978.746, 0.0, 5.0145173, 4.971637 
1.5292457e+2, 1.2152158e+2, -1709835.6, -1743859.0, 125.8781, 0.009720107, -0.032444973, -1709835.1, 39259.55, 0.0, 5.0138774, 4.9917054 
1.5292515e+2, 1.2651542e+2, -1669718.6, -1712973.6, 400.79883, 0.006740699, 0.044406176, -1669714.9, 30434.232, 0.0, 5.0138903, 4.9857574 
1.5292558e+2, 1.3149868e+2, -1620690.4, -1663957.0, 523.93066, 0.0018187233, 0.018539045, -1620684.0, 30630.06, 0.0, 5.0138993, 4.9857574 
1.5292603e+2, 1.3648188e+2, -1573872.9, -1619479.9, 646.4733, -0.0031198806, -0.006084337, -1573863.8, 28615.553, 0.0, 5.013908, 4.9842534 
1.5292627e+2, 1.414633e+2, -1531147.6, -1583469.5, -26.190504, -0.006052717, -0.007773682, -1531147.6, 22513.914, 0.0, 5.0139203, 4.979863 
1.5292612e+2, 1.464438e+2, -1481709.9, -1533743.3, -228.72972, -0.004675719, -0.0058116764, -1481708.9, 23142.227, 0.0, 5.0139446, 4.98007 
1.5292598e+2, 1.5142432e+2, -1432577.3, -1484648.8, -245.71301, -0.0031683543, -0.004031628, -1432576.1, 23464.508, 0.0, 5.0139694, 4.98007 
1.5292583e+2, 1.5640482e+2, -1384874.4, -1438532.4, -262.7026, -0.0016654667, -0.0017967626, -1384873.0, 22357.094, 0.0, 5.013994, 4.979075 
1.5292569e+2, 1.6138124e+2, -1344116.4, -1406968.0, -99.031845, -0.0007824004, 0.002973696, -1344116.3, 14343.304, 0.0, 5.014021, 4.9732094 
1.5292561e+2, 1.6635394e+2, -1294863.1, -1357724.4, -15.731137, -0.0012287558, -0.004724871, -1294863.0, 14861.772, 0.0, 5.014053, 4.973233 
1.5292552e+2, 1.7132665e+2, -1245643.3, -1308553.1, 28.104805, -0.0017313557, -0.012565836, -1245643.3, 15346.849, 0.0, 5.014085, 4.973233 
1.5292545e+2, 1.7629935e+2, -1197561.0, -1261787.3, 71.955956, -0.0022441947, -0.02000407, -1197560.9, 14694.454, 0.0, 5.014117, 4.972426 
1.5292537e+2, 1.8126872e+2, -1157400.0, -1231542.5, -169.32248, -0.0014479215, -0.016717149, -1157399.6, 6154.3286, 0.0, 5.0140853, 4.966063 
1.5292528e+2, 1.8623535e+2, -1108545.8, -1182190.0, -310.9845, 0.0025723677, -0.0147665255, -1108544.4, 6336.6245, 0.0, 5.013902, 4.9662004 
1.529252e+2, 1.9120203e+2, -1059897.9, -1133252.3, -354.4537, 0.006719911, -0.0127623845, -1059896.1, 6311.756, 0.0, 5.0137124, 4.9662013 
1.5292509e+2, 1.961687e+2, -1012139.06, -1086228.1, -398.10797, 0.010845596, -0.010449802, -1012136.94, 5397.8423, 0.0, 5.0135226, 4.9655514 
1.529248e+2, 2.0113157e+2, -972779.3, -1057718.9, -387.8507, 0.012605844, -0.0015986608, -972777.56, -3877.5828, 0.0, 5.013416, 4.9585443 
1.5292394e+2, 2.0609035e+2, -923112.75, -1008083.3, -424.98077, 0.00833635, -0.002735398, -923110.6, -2802.5679, 0.0, 5.013516, 4.9586177 
1.5292303e+2, 2.1104912e+2, -873520.4, -958658.56, -456.73782, 0.0037585062, -0.0042344495, -873517.94, -1801.4535, 0.0, 5.013626, 4.958618 
1.5292214e+2, 2.1600787e+2, -824597.1, -910691.94, -489.0763, -0.0008243287, -0.005581693, -824594.3, -1469.4501, 0.0, 5.0137353, 4.9581184 
1.5292156e+2, 2.209634e+2, -783499.3, -879532.44, -359.95117, -0.0031329002, 0.0019889125, -783498.0, -8934.304, 0.0, 5.0137777, 4.951864 
1.5292183e+2, 2.2591604e+2, -733714.7, -828466.9, -371.7829, 0.0009326774, 0.0007869985, -733713.25, -7686.429, 0.0, 5.013627, 4.9525204 
1.5292217e+2, 2.3086873e+2, -684833.8, -779340.94, -456.48996, 0.0053061917, -0.00093520014, -684831.56, -7342.268, 0.0, 5.0134645, 4.9525213 
1.5292248e+2, 2.358214e+2, -636601.1, -731659.4, -542.2902, 0.009608127, -0.002709589, -636598.0, -7646.1387, 0.0, 5.013301, 4.95202 
1.5292233e+2, 2.4077049e+2, -597598.9, -704301.56, -1487.0839, 0.012962373, 0.0063964515, -597578.1, -17126.557, 0.0, 5.01309, 4.944466 
1.5292065e+2, 2.4571612e+2, -548565.6, -654135.3, -1807.044, 0.013282001, 0.01076908, -548534.7, -16542.498, 0.0, 5.0127683, 4.944854 
1.5291886e+2, 2.5066176e+2, -500042.06, -605128.2, -1685.8507, 0.013253877, 0.014666807, -500015.0, -16481.785, 0.0, 5.0124407, 4.9448524 
1.5291707e+2, 2.5560746e+2, -451762.03, -556682.75, -1565.9058, 0.013115001, 0.018899525, -451738.66, -16664.72, 0.0, 5.0121107, 4.944653 
1.5291555e+2, 2.605499e+2, -411417.22, -525920.94, -1889.2648, 0.016695956, 0.034558944, -411386.06, -24743.586, 0.0, 5.011734, 4.9382153 
1.5291485e+2, 2.6549038e+2, -360326.8, -469894.44, -3016.2356, 0.034349494, 0.02728664, -360243.84, -22029.682, 0.0, 5.011133, 4.940666 
1.5291421e+2, 2.7043092e+2, -312311.78, -420913.22, -4096.196, 0.05197458, 0.014722967, -312157.5, -22373.62, 0.0, 5.0105042, 4.9407387 
1.5291356e+2, 2.753713e+2, -264324.6, -372076.44, -5192.1475, 0.06822389, -0.00070347893, -264075.0, -22720.205, 0.0, 5.009868, 4.940764 
1.5291321e+2, 2.8030622e+2, -237468.53, -373088.88, -1593.1211, 0.063906446, 0.018504346, -237449.83, -44467.207, 0.0, 5.00975, 4.9230494 
1.5291432e+2, 2.8523055e+2, -185522.75, -319552.44, -1282.9275, 0.048605423, 0.020593438, -185510.47, -40783.277, 0.0, 5.0104246, 4.9239545 
1.5291572e+2, 2.9015315e+2, -134383.64, -269274.78, -991.1735, 0.042830765, -0.0018973708, -134376.36, -37885.516, 0.0, 5.0109487, 4.9239316 
1.529171e+2, 2.9507545e+2, -83228.336, -219034.92, -756.8572, 0.035194054, -0.0278258, -83224.12, -34966.92, 0.0, 5.0114527, 4.9239087 
1.529195e+2, 3.0001685e+2, -13289.378, -91693.93, 84.75559, 0.030770661, -0.02195971, -13289.287, -13289.287, 0.0, 5.0120077, 4.960657 
1.5292656e+2, 3.0498376e+2, -861.38196, -65562.82, -855.7684, 0.0595614, -0.050470244, -850.0652, -850.0652, 0.0, 5.0126944, 4.96945 
1.5293406e+2, 3.0995145e+2, 1870.6995, -62381.574, -1991.5034, 0.08917007, -0.10323582, 1932.3671, 1932.3671, 0.0, 5.0133553, 4.970178 
1.5294144e+2, 3.1492046e+2, 4699.5625, -59299.215, -2924.4138, 0.1130883, -0.15216935, 4832.9155, 4832.9155, 0.0, 5.013989, 4.9709067 
1.5793839e+2, 1.2152022e+2, -1711579.9, -1747532.1, 147.63817, 0.009094717, -0.041872095, -1711579.3, 37524.92, 0.0, 5.0139055, 4.990484 
1.5793888e+2, 1.2651521e+2, -1669428.8, -1712468.8, 429.85028, 0.0050392244, 0.046116244, -1669424.5, 30725.68, 0.0, 5.01391, 4.9859133 
1.579394e+2, 1.3149849e+2, -1620444.9, -1663475.6, 543.3882, 0.00091878633, 0.01901919, -1620438.0, 30877.121, 0.0, 5.0139046, 4.9859133 
1.5793993e+2, 1.3648173e+2, -1573684.4, -1619028.0, 657.3097, -0.003230431, -0.006835389, -1573674.9, 28805.44, 0.0, 5.0138946, 4.984409 
1.579402e+2, 1.4146316e+2, -1531208.1, -1583471.8, -13.693445, -0.00585389, -0.0091981795, -1531208.1, 22454.469, 0.0, 5.0138946, 4.9798746 
1.5794002e+2, 1.4644371e+2, -1481801.3, -1533838.8, -206.47879, -0.005217786, -0.006796788, -1481800.5, 23051.691, 0.0, 5.013925, 4.980048 
1.579398e+2, 1.5142424e+2, -1432653.6, -1484737.0, -218.09048, -0.004495588, -0.004547602, -1432652.8, 23388.857, 0.0, 5.0139546, 4.9800477 
1.5793961e+2, 1.5640478e+2, -1384941.5, -1438616.1, -229.54962, -0.0037834155, -0.0018442019, -1384940.5, 22290.645, 0.0, 5.0139823, 4.9790525 
1.579395e+2, 1.6138123e+2, -1344102.1, -1406882.5, -63.427525, -0.0030524686, 0.0032779076, -1344102.0, 14358.312, 0.0, 5.0140095, 4.973243 
1.5793955e+2, 1.6635397e+2, -1294830.8, -1357581.6, 10.041254, -0.0022288016, -0.00450231, -1294830.8, 14894.187, 0.0, 5.0140376, 4.973288 
1.5793966e+2, 1.7132673e+2, -1245633.9, -1308421.5, 43.41295, -0.0014202176, -0.012459236, -1245633.8, 15355.709, 0.0, 5.014062, 4.973288 
1.5793973e+2, 1.7629947e+2, -1197585.5, -1261671.8, 77.24174, -0.00063349644, -0.020016229, -1197585.4, 14668.683, 0.0, 5.014082, 4.972481 
1.5793972e+2, 1.8126887e+2, -1157544.8, -1231679.6, -299.4953, 0.0011776958, -0.016638996, -1157543.5, 6008.7285, 0.0, 5.01405, 4.966033 
1.5793948e+2, 1.8623552e+2, -1108641.6, -1182363.5, -479.01617, 0.00556791, -0.014115303, -1108638.5, 6241.173, 0.0, 5.0138965, 4.966144 
1.5793924e+2, 1.912022e+2, -1059922.5, -1133392.1, -518.8977, 0.010044865, -0.01152281, -1059918.9, 6288.091, 0.0, 5.013731, 4.9661446 
1.57939e+2, 1.9616887e+2, -1012110.4, -1086343.0, -558.71844, 0.014485416, -0.008623691, -1012106.1, 5427.9966, 0.0, 5.01356, 4.9654946 
1.5793855e+2, 2.0113173e+2, -972722.25, -1057806.9, -381.35916, 0.015820915, 0.00068818027, -972720.5, -3820.804, 0.0, 5.0134606, 4.958493 
1.5793756e+2, 2.0609042e+2, -923056.3, -1008148.7, -350.02554, 0.009338783, -0.0008805016, -923054.9, -2746.4626, 0.0, 5.013556, 4.958576 
1.5793654e+2, 2.1104911e+2, -873496.5, -958740.8, -372.90424, 0.0024425164, -0.0029264325, -873494.8, -1777.2614, 0.0, 5.0136547, 4.9585757 
1.5793552e+2, 2.1600777e+2, -824624.9, -910799.75, -396.6206, -0.0044829426, -0.004826348, -824623.06, -1496.3223, 0.0, 5.0137463, 4.958076 
1.5793483e+2, 2.2096321e+2, -783659.3, -879853.3, -417.0146, -0.008113033, 0.0026257534, -783657.5, -9091.228, 0.0, 5.013773, 4.951755 
1.5793517e+2, 2.259158e+2, -733869.3, -828783.06, -491.95944, -0.002048753, 0.002027301, -733866.75, -7836.411, 0.0, 5.013624, 4.952411 
1.5793556e+2, 2.3086844e+2, -685014.8, -779667.5, -576.6906, 0.004538331, 0.0008597924, -685011.3, -7517.5654, 0.0, 5.0134516, 4.9524126 
1.5793596e+2, 2.3582104e+2, -636846.5, -732013.44, -656.8723, 0.011024303, -0.0003863288, -636841.94, -7884.66, 0.0, 5.013265, 4.9519114 
1.5793575e+2, 2.4077006e+2, -597684.0, -704191.44, -1687.1028, 0.015871877, 0.008156883, -597657.3, -17199.326, 0.0, 5.0130353, 4.9445252 
1.579337e+2, 2.4571544e+2, -548534.44, -653786.8, -2088.0586, 0.015523696, 0.008903546, -548493.06, -16493.7, 0.0, 5.012721, 4.94499 
1.5793148e+2, 2.5066087e+2, -500044.38, -604802.4, -2003.8585, 0.014626146, 0.009049294, -500006.03, -16465.049, 0.0, 5.012384, 4.944987 
1.5792926e+2, 2.5560632e+2, -451851.56, -556403.44, -1933.5858, 0.013580022, 0.0096110245, -451815.8, -16733.54, 0.0, 5.0120254, 4.9447856 
1.579273e+2, 2.605487e+2, -412901.2, -528257.94, -2379.7327, 0.016527908, 0.025992371, -412852.1, -26200.998, 0.0, 5.011552, 4.937479 
1.5792644e+2, 2.6548934e+2, -363525.63, -474069.3, -3323.4775, 0.036787946, 0.03271682, -363425.8, -25199.643, 0.0, 5.010554, 4.939458 
1.5792567e+2, 2.7043003e+2, -317195.25, -425783.4, -4030.5916, 0.057488155, 0.034282137, -317045.84, -27245.605, 0.0, 5.0093055, 4.9395475 
1.5792486e+2, 2.753705e+2, -271448.0, -377885.25, -4627.6226, 0.076641016, 0.032258764, -271247.2, -29871.328, 0.0, 5.0078473, 4.9395895 
1.579244e+2, 2.8030473e+2, -245111.55, -375126.63, -612.2665, 0.07683181, 0.04915048, -245108.66, -52094.695, 0.0, 5.006845, 4.923572 
1.5792572e+2, 2.8522727e+2, -191862.6, -321629.63, 189.27286, 0.060405936, 0.030431299, -191862.31, -47092.203, 0.0, 5.008225, 4.9241166 
1.5792736e+2, 2.9014826e+2, -138398.72, -270344.25, 298.49728, 0.050382093, -0.0077286083, -138398.05, -41855.805, 0.0, 5.0095744, 4.9240804 
1.5792899e+2, 2.9506892e+2, -85705.86, -219452.16, 409.97647, 0.03819142, -0.0501835, -85704.6, -37386.766, 0.0, 5.0106273, 4.9240437 
1.5793183e+2, 3.0000973e+2, -16052.398, -93334.65, 1212.5753, 0.03145406, -0.049883287, -16033.378, -16033.378, 0.0, 5.0112867, 4.960294 
1.5794082e+2, 3.0497658e+2, -7825.335, -70671.695, 1082.7357, 0.07104677, -0.06224652, -7806.687, -7806.687, 0.0, 5.010822, 4.9683647 
1.5795049e+2, 3.0994377e+2, -10176.759, -69036.42, 1133.5221, 0.112651564, -0.10197363, -10154.9375, -10154.9375, 0.0, 5.009554, 4.969306 
1.5796e+2, 3.1491253e+2, -14248.428, -68296.56, 1717.2802, 0.14765143, -0.1371084, -14193.919, -14193.919, 0.0, 5.00759, 4.970247 
1.6295248e+2, 1.2152063e+2, -1710609.4, -1748472.5, 349.2532, 0.0075994134, -0.035793167, -1710606.1, 38492.527, 0.0, 5.014532, 4.9898677 
1.6295286e+2, 1.265142e+2, -1668028.8, -1711600.0, 585.7338, 0.003425637, 0.03789748, -1668020.9, 32138.998, 0.0, 5.0143356, 4.9859905 
1.6295333e+2, 1.3149798e+2, -1619664.6, -1662913.0, 603.1082, 0.00011056782, 0.015125609, -1619656.3, 31663.69, 0.0, 5.0141253, 4.9859905 
1.6295382e+2, 1.3648175e+2, -1573507.0, -1618761.0, 619.95526, -0.0031672798, -0.0064063896, -1573498.5, 28981.787, 0.0, 5.0139155, 4.984487 
1.629541e+2, 1.4146349e+2, -1531429.0, -1583507.3, 15.865597, -0.0052960156, -0.0062340847, -1531429.0, 22230.645, 0.0, 5.0138054, 4.9799066 
1.6295393e+2, 1.4644392e+2, -1481844.8, -1533818.8, -100.167915, -0.005090127, -0.00504185, -1481844.5, 23005.54, 0.0, 5.0139017, 4.9800663 
1.6295375e+2, 1.5142435e+2, -1432480.8, -1484611.3, -64.43741, -0.0048096236, -0.004123989, -1432480.8, 23559.889, 0.0, 5.0140038, 4.9800663 
1.6295359e+2, 1.5640476e+2, -1384548.0, -1438383.4, -28.495762, -0.004517285, -0.0027557444, -1384548.0, 22683.174, 0.0, 5.014106, 4.9790707 
1.629535e+2, 1.6138117e+2, -1343709.8, -1406755.4, 84.62713, -0.0039238883, 0.0018394669, -1343709.6, 14751.293, 0.0, 5.014155, 4.9732165 
1.6295359e+2, 1.66354e+2, -1294742.1, -1357630.8, 30.025396, -0.002630068, -0.0046530203, -1294742.1, 14982.8125, 0.0, 5.0140862, 4.9732485 
1.6295369e+2, 1.7132685e+2, -1245830.6, -1308607.1, -55.129753, -0.0012893446, -0.011271932, -1245830.6, 15158.334, 0.0, 5.0140133, 4.973249 
1.629538e+2, 1.7629968e+2, -1198054.8, -1261986.9, -140.19666, 0.00007053833, -0.017509898, -1198054.4, 14198.556, 0.0, 5.0139403, 4.9724417 
1.629538e+2, 1.8126911e+2, -1157977.5, -1231984.9, -581.9309, 0.0022110506, -0.013594756, -1157973.0, 5578.2817, 0.0, 5.013922, 4.9659905 
1.6295353e+2, 1.8623559e+2, -1108305.5, -1182311.5, -754.6273, 0.006277095, -0.012202236, -1108297.9, 6582.4756, 0.0, 5.014034, 4.966097 
1.6295324e+2, 1.9120209e+2, -1058767.1, -1132949.5, -790.51, 0.010471588, -0.010777855, -1058758.8, 7450.5806, 0.0, 5.014151, 4.966098 
1.6295296e+2, 1.9616862e+2, -1010123.44, -1085506.8, -826.4863, 0.01470544, -0.00902555, -1010114.4, 7423.7964, 0.0, 5.014268, 4.9654484 
1.629525e+2, 2.0113139e+2, -970086.06, -1056470.0, -565.35034, 0.015891273, -0.00038670772, -970082.3, -1177.976, 0.0, 5.0143533, 4.958533 
1.6295154e+2, 2.060902e+2, -920648.5, -1006864.4, -378.99042, 0.009281131, -0.0014535193, -920646.8, -335.54193, 0.0, 5.0143595, 4.9586425 
1.6295056e+2, 2.1104899e+2, -871372.44, -957595.75, -259.2952, 0.0023180465, -0.0029449547, -871371.7, 346.80923, 0.0, 5.014362, 4.958642 
1.6294958e+2, 2.1600778e+2, -822763.0, -909783.1, -139.2362, -0.0046119113, -0.0042980416, -822762.75, 362.95755, 0.0, 5.0143642, 4.958142 
1.6294889e+2, 2.2096327e+2, -782243.7, -879546.75, -177.29486, -0.008165906, 0.0037048606, -782243.4, -7678.714, 0.0, 5.014333, 4.9516068 
1.6294913e+2, 2.2591574e+2, -732601.56, -828743.06, -462.94595, -0.0016209934, 0.0040637585, -732599.3, -6567.7896, 0.0, 5.0141745, 4.952176 
1.6294941e+2, 2.3086824e+2, -683739.06, -779603.75, -736.963, 0.0056662983, 0.0039471863, -683733.44, -6235.5347, 0.0, 5.014005, 4.9521837 
1.6294973e+2, 2.3582074e+2, -635524.5, -731908.94, -1011.4155, 0.013025056, 0.0037746036, -635513.9, -6549.6416, 0.0, 5.0138354, 4.9516897 
1.6294944e+2, 2.407696e+2, -595746.44, -703299.25, -2138.3865, 0.018575128, 0.012209947, -595703.94, -15236.743, 0.0, 5.013725, 4.9445205 
1.6294724e+2, 2.4571477e+2, -545361.6, -652226.25, -2616.3083, 0.018046347, 0.010239382, -545297.56, -13289.117, 0.0, 5.013827, 4.9450374 
1.6294488e+2, 2.5065997e+2, -495616.25, -602722.7, -2597.3145, 0.017187335, 0.007907517, -495553.3, -12003.634, 0.0, 5.0139475, 4.9450207 
1.6294254e+2, 2.5560525e+2, -446122.06, -553789.0, -2575.6792, 0.016486011, 0.0062966887, -446060.47, -10970.17, 0.0, 5.014067, 4.944806 
1.6294044e+2, 2.6054746e+2, -406196.5, -526569.56, -3113.4045, 0.020138506, 0.022564001, -406116.03, -19456.193, 0.0, 5.014212, 4.936916 
1.6293953e+2, 2.6548785e+2, -353946.75, -471656.38, -4134.528, 0.044150837, 0.03563335, -353801.72, -15559.203, 0.0, 5.014394, 4.938631 
1.629388e+2, 2.7042827e+2, -303591.34, -421281.94, -4994.7275, 0.071346626, 0.043266144, -303379.75, -13555.295, 0.0, 5.0145745, 4.9388247 
1.6293807e+2, 2.7536863e+2, -253262.13, -371089.5, -5858.835, 0.099320084, 0.046358623, -252971.52, -11564.128, 0.0, 5.0147533, 4.93897 
1.6293766e+2, 2.803024e+2, -222618.34, -363474.63, -2616.9036, 0.11378653, 0.059025515, -222569.73, -29515.764, 0.0, 5.014794, 4.924261 
1.6293903e+2, 2.852248e+2, -174470.02, -313172.16, -258.25397, 0.09206616, 0.035859663, -174469.53, -29659.203, 0.0, 5.0145974, 4.924426 
1.6294077e+2, 2.901458e+2, -125132.56, -263607.28, 132.85718, 0.07133092, -0.0020513644, -125132.44, -28552.58, 0.0, 5.0144486, 4.9244156 
1.6294253e+2, 2.950664e+2, -75751.05, -214080.31, 529.1556, 0.051478453, -0.045894496, -75749.02, -27395.166, 0.0, 5.014296, 4.9244056 
1.6294558e+2, 3.0000758e+2, -8789.995, -89377.68, 1422.5581, 0.04266916, -0.044485144, -8764.892, -8764.892, 0.0, 5.0140853, 4.9605236 
1.6295539e+2, 3.0497554e+2, -701.9313, -67938.29, 799.90875, 0.097238995, -0.03847072, -692.41614, -692.41614, 0.0, 5.013938, 4.968035 
1.6296624e+2, 3.0994433e+2, 398.7758, -63809.297, -467.4009, 0.16388507, -0.05456534, 402.17804, 402.17804, 0.0, 5.0138626, 4.9693727 
1.6297714e+2, 3.149156e+2, 1681.6965, -59863.797, -1782.7362, 0.232345, -0.06283995, 1733.2922, 1733.2922, 0.0, 5.0137825, 4.9707117 
1.6796675e+2, 1.2152227e+2, -1710869.4, -1749000.8, 247.26584, 0.0048258323, -0.018882701, -1710867.8, 38214.81, 0.0, 5.014532, 4.989694 
1.67967e+2, 1.2651262e+2, -1667995.6, -1711531.5, 423.41467, 0.0016036667, 0.02264948, -1667991.5, 32184.156, 0.0, 5.014335, 4.986013 
1.679674e+2, 1.3149725e+2, -1619631.4, -1662845.4, 442.39987, -0.0007277663, 0.008141725, -1619626.9, 31700.629, 0.0, 5.0141253, 4.986013 
1.6796775e+2, 1.3648187e+2, -1573473.5, -1618694.0, 460.9071, -0.0030449356, -0.0051284917, -1573468.9, 29010.74, 0.0, 5.0139155, 4.9845095 
1.6796798e+2, 1.4146413e+2, -1531362.3, -1583371.1, 43.869293, -0.0046042097, -0.00013618276, -1531362.3, 22291.533, 0.0, 5.0138054, 4.9799514 
1.6796789e+2, 1.4644437e+2, -1481775.9, -1533677.0, -22.589096, -0.0046200515, -0.0013210304, -1481775.9, 23069.973, 0.0, 5.0139017, 4.9801135 
1.6796778e+2, 1.5142457e+2, -1432412.5, -1484470.0, 13.896358, -0.0045941845, -0.003006384, -1432412.5, 23625.504, 0.0, 5.0140038, 4.9801135 
1.6796768e+2, 1.5640478e+2, -1384480.4, -1438242.5, 50.57716, -0.0045637386, -0.0042407336, -1384480.4, 22749.994, 0.0, 5.014106, 4.979118 
1.6796762e+2, 1.6138107e+2, -1343810.0, -1406966.8, 57.036087, -0.004144229, -0.0007875286, -1343809.9, 14651.272, 0.0, 5.0141554, 4.973146 
1.6796765e+2, 1.6635403e+2, -1294893.0, -1357949.1, -26.22849, -0.0028237854, -0.005043786, -1294893.0, 14831.853, 0.0, 5.0140867, 4.973142 
1.6796768e+2, 1.71327e+2, -1245980.9, -1308924.6, -110.29816, -0.0014644313, -0.0092876, -1245980.8, 15007.684, 0.0, 5.0140133, 4.9731426 
1.679677e+2, 1.7629997e+2, -1198204.4, -1262303.6, -194.26982, -0.00010117081, -0.013147684, -1198203.8, 14048.159, 0.0, 5.01394, 4.9723353 
1.6796768e+2, 1.8126939e+2, -1158052.6, -1232144.3, -528.28546, 0.0018197076, -0.008311086, -1158048.9, 5501.8486, 0.0, 5.013922, 4.965937 
1.6796744e+2, 1.8623559e+2, -1108364.4, -1182438.0, -664.77527, 0.005074564, -0.009292867, -1108358.4, 6524.02, 0.0, 5.014034, 4.966055 
1.679672e+2, 1.912018e+2, -1058825.4, -1133075.6, -699.2498, 0.008406604, -0.010368075, -1058818.8, 7395.3003, 0.0, 5.014151, 4.966056 
1.6796693e+2, 1.9616804e+2, -1010181.06, -1085632.5, -733.82983, 0.011759685, -0.011117863, -1010173.94, 7371.703, 0.0, 5.014268, 4.9654064 
1.6796656e+2, 2.0113066e+2, -969937.8, -1056147.8, -545.14044, 0.012747774, -0.0040568435, -969934.4, -1021.57477, 0.0, 5.014353, 4.958643 
1.6796574e+2, 2.0608975e+2, -920439.1, -1006406.9, -379.0416, 0.0076778056, -0.0039246334, -920437.5, -121.49928, 0.0, 5.0143585, 4.9587994 
1.6796492e+2, 2.1104883e+2, -871164.56, -957138.6, -257.01556, 0.002315087, -0.004037869, -871163.8, 555.4072, 0.0, 5.014361, 4.958799 
1.679641e+2, 2.1600792e+2, -822556.5, -909326.2, -134.62587, -0.0030389056, -0.0040190015, -822556.3, 566.1589, 0.0, 5.014363, 4.958299 
1.679635e+2, 2.2096358e+2, -782475.5, -880053.1, -255.75055, -0.005609377, 0.0051816953, -782474.8, -7915.2783, 0.0, 5.0143323, 4.9514337 
1.6796352e+2, 2.2591586e+2, -733047.06, -829727.56, -586.1169, 0.00031024788, 0.0070380704, -733043.5, -7013.082, 0.0, 5.0141745, 4.951839 
1.6796356e+2, 2.3086819e+2, -684180.6, -780584.75, -855.7225, 0.0068498785, 0.008533483, -684173.0, -6671.836, 0.0, 5.014005, 4.9518466 
1.6796364e+2, 2.3582052e+2, -635962.1, -732886.6, -1125.7472, 0.013428596, 0.009969266, -635949.0, -6977.113, 0.0, 5.013836, 4.951352 
1.6796319e+2, 2.4076916e+2, -595834.75, -703497.1, -2100.6199, 0.018241847, 0.018920429, -595793.8, -15315.727, 0.0, 5.013723, 4.944455 
1.67961e+2, 2.4571411e+2, -545318.0, -652131.7, -2523.4575, 0.017017689, 0.014593491, -545258.4, -13239.659, 0.0, 5.013825, 4.945075 
1.6795868e+2, 2.506591e+2, -495570.38, -602620.9, -2498.289, 0.015393795, 0.009741957, -495512.13, -11953.135, 0.0, 5.013946, 4.9450607 
1.6795634e+2, 2.5560415e+2, -446074.03, -553680.06, -2470.4834, 0.013875717, 0.0055684047, -446017.34, -10918.627, 0.0, 5.014066, 4.944848 
1.6795418e+2, 2.6054603e+2, -406900.56, -528189.7, -2993.7654, 0.015615894, 0.020001473, -406826.72, -20156.717, 0.0, 5.014213, 4.936356 
1.6795304e+2, 2.6548585e+2, -355163.44, -474476.44, -3931.1055, 0.033989336, 0.03652653, -355034.06, -16770.51, 0.0, 5.0143948, 4.937659 
1.6795214e+2, 2.7042568e+2, -304815.4, -424133.0, -4716.744, 0.055173755, 0.048678797, -304629.25, -14772.2295, 0.0, 5.014574, 4.937842 
1.6795121e+2, 2.7536544e+2, -254493.33, -373971.4, -5506.322, 0.07701034, 0.05649727, -254240.1, -12788.641, 0.0, 5.014752, 4.937978 
1.679506e+2, 2.802989e+2, -222344.78, -363093.25, -3883.0771, 0.095442794, 0.072377615, -222237.73, -29131.115, 0.0, 5.0148253, 4.924395 
1.6795212e+2, 2.852221e+2, -173439.3, -311290.47, -705.1059, 0.081352435, 0.051831763, -173435.69, -28579.205, 0.0, 5.014649, 4.925095 
1.6795406e+2, 2.9014412e+2, -124142.32, -261758.81, -223.17413, 0.06159453, 0.017718771, -124141.96, -27524.63, 0.0, 5.0144916, 4.9250817 
1.6795604e+2, 2.950657e+2, -74801.086, -212264.81, 263.94833, 0.04252584, -0.022113271, -74800.58, -26418.057, 0.0, 5.0143304, 4.9250684 
1.6795915e+2, 3.0000776e+2, -8658.964, -89484.66, 907.0824, 0.03478693, -0.017196225, -8648.785, -8648.785, 0.0, 5.014124, 4.9604993 
1.6796884e+2, 3.0497706e+2, -1894.1816, -71400.61, 557.3687, 0.08883289, 0.012158721, -1889.7124, -1889.7124, 0.0, 5.0140095, 4.9667935 
1.6797966e+2, 3.0994755e+2, -735.91864, -67386.69, -327.62558, 0.15412064, 0.026817827, -734.30817, -734.30817, 0.0, 5.013966, 4.968087 
1.6799052e+2, 3.1492037e+2, 605.0684, -63556.746, -1261.0405, 0.22085114, 0.049150985, 629.84344, 629.84344, 0.0, 5.013918, 4.9693813 
1.7298101e+2, 1.21523835e+2, -1711049.8, -1749365.6, 143.40907, 0.0019012138, -0.002716013, -1711049.3, 38018.19, 0.0, 5.014532, 4.9895744 
1.7298117e+2, 1.2651105e+2, -1667963.0, -1711462.8, 261.45395, -0.00022280139, 0.007447757, -1667961.5, 32230.035, 0.0, 5.014335, 4.986036 
1.7298143e+2, 1.3149653e+2, -1619598.6, -1662777.4, 282.05002, -0.0015675343, 0.0011831914, -1619596.8, 31738.275, 0.0, 5.0141253, 4.9860353 
1.729817e+2, 1.36482e+2, -1573440.6, -1618626.8, 302.2175, -0.0029209608, -0.0038461713, -1573438.5, 29040.328, 0.0, 5.0139155, 4.9845314 
1.7298186e+2, 1.4146477e+2, -1531301.0, -1583245.6, 71.762, -0.003913365, 0.005983624, -1531300.9, 22347.078, 0.0, 5.0138054, 4.979993 
1.7298184e+2, 1.4644483e+2, -1481707.1, -1533535.1, 54.926785, -0.0041512987, 0.0024167618, -1481707.0, 23134.443, 0.0, 5.0139017, 4.98016 
1.7298181e+2, 1.5142483e+2, -1432344.4, -1484328.6, 92.16718, -0.004379171, -0.0018860893, -1432344.3, 23691.164, 0.0, 5.0140038, 4.98016 
1.7298178e+2, 1.564048e+2, -1384412.9, -1438101.6, 129.58714, -0.0046097212, -0.0057373173, -1384412.6, 22816.865, 0.0, 5.014106, 4.979165 
1.7298177e+2, 1.6138098e+2, -1343914.5, -1407186.9, 29.875721, -0.0043661916, -0.0033961625, -1343914.5, 14546.872, 0.0, 5.0141554, 4.9730725 
1.7298172e+2, 1.6635405e+2, -1295044.1, -1358267.5, -82.550514, -0.0030192614, -0.0054185214, -1295044.0, 14680.668, 0.0, 5.0140867, 4.9730353 
1.729817e+2, 1.7132714e+2, -1246131.5, -1309242.0, -165.53464, -0.001640453, -0.007303005, -1246131.0, 14856.812, 0.0, 5.0140133, 4.973036 
1.7298165e+2, 1.7630026e+2, -1198354.4, -1262620.1, -248.41101, -0.00027299122, -0.008800974, -1198353.4, 13897.542, 0.0, 5.01394, 4.972229 
1.7298156e+2, 1.812697e+2, -1158133.1, -1232314.3, -474.54596, 0.0014302521, -0.0030000976, -1158130.0, 5420.186, 0.0, 5.0139217, 4.9658804 
1.7298135e+2, 1.862356e+2, -1108423.6, -1182564.3, -574.8626, 0.0038759941, -0.0063573914, -1108419.1, 6465.362, 0.0, 5.014034, 4.9660125 
1.7298114e+2, 1.9120154e+2, -1058884.0, -1133201.5, -607.92896, 0.006347271, -0.009954324, -1058879.0, 7339.833, 0.0, 5.014151, 4.9660134 
1.7298092e+2, 1.9616747e+2, -1010239.1, -1085757.9, -641.1126, 0.008821274, -0.013228339, -1010233.7, 7319.4365, 0.0, 5.014268, 4.965364 
1.7298059e+2, 2.0112994e+2, -969802.2, -1055851.8, -525.87476, 0.009604466, -0.007679028, -969798.94, -877.7263, 0.0, 5.0143523, 4.9587436 
1.7297995e+2, 2.0608929e+2, -920230.4, -1005949.1, -379.52084, 0.00606971, -0.006351707, -920228.7, 91.99941, 0.0, 5.014358, 4.958956 
1.729793e+2, 2.1104868e+2, -870957.25, -956681.2, -255.16418, 0.0023047824, -0.00512737, -870956.44, 763.4767, 0.0, 5.01436, 4.958956 
1.7297864e+2, 2.1600804e+2, -822350.56, -908869.0, -130.444, -0.0014758211, -0.003777175, -822350.4, 768.8475, 0.0, 5.014362, 4.9584565 
1.729781e+2, 2.2096387e+2, -782714.2, -880573.7, -334.0327, -0.0030508377, 0.006701277, -782713.0, -8158.672, 0.0, 5.014332, 4.9512553 
1.729779e+2, 2.25916e+2, -733493.44, -830711.6, -708.9911, 0.0022488232, 0.010022327, -733488.3, -7458.9927, 0.0, 5.0141745, 4.9515004 
1.7297772e+2, 2.3086813e+2, -684622.94, -781565.3, -974.1843, 0.008038571, 0.013030497, -684613.2, -7108.7417, 0.0, 5.0140057, 4.951508 
1.7297754e+2, 2.3582026e+2, -636400.5, -733863.9, -1239.7804, 0.013835027, 0.015975416, -636384.75, -7405.1753, 0.0, 5.0138364, 4.951014 
1.7297694e+2, 2.4076876e+2, -595975.4, -703808.9, -2068.728, 0.017956767, 0.02590549, -595935.7, -15446.953, 0.0, 5.0137215, 4.94435 
1.7297478e+2, 2.457135e+2, -545276.0, -652035.75, -2433.4905, 0.01604014, 0.019386519, -545220.56, -13191.897, 0.0, 5.0138226, 4.945112 
1.7297246e+2, 2.5065827e+2, -495526.2, -602517.75, -2402.1477, 0.013626648, 0.011875512, -495472.28, -11904.242, 0.0, 5.013944, 4.9450994 
1.7297016e+2, 2.5560305e+2, -446027.63, -553569.75, -2368.1711, 0.011267097, 0.0049994276, -445975.5, -10868.601, 0.0, 5.014065, 4.9448886 
1.7296791e+2, 2.6054454e+2, -407661.0, -529931.4, -2865.5664, 0.011131707, 0.017095901, -407593.88, -20913.209, 0.0, 5.014214, 4.935745 
1.729666e+2, 2.654837e+2, -356385.22, -477297.34, -3712.9072, 0.024088796, 0.035338517, -356271.3, -17985.479, 0.0, 5.014395, 4.936661 
1.729655e+2, 2.704229e+2, -306044.34, -426984.66, -4423.9546, 0.039487116, 0.050192636, -305882.75, -15991.348, 0.0, 5.0145736, 4.936834 
1.729644e+2, 2.7536204e+2, -255729.14, -376853.72, -5138.9697, 0.055412047, 0.06091975, -255511.5, -14013.628, 0.0, 5.01475, 4.9369597 
1.7296357e+2, 2.8029546e+2, -223148.33, -365197.75, -5055.4194, 0.07701026, 0.08761584, -222968.64, -29810.523, 0.0, 5.014857, 4.9236493 
1.7296523e+2, 2.8521973e+2, -172415.75, -309405.03, -1146.6233, 0.06989821, 0.07448074, -172406.16, -27506.836, 0.0, 5.0147004, 4.925739 
1.7296736e+2, 2.9014263e+2, -123158.98, -259906.33, -573.9033, 0.051262595, 0.04141273, -123156.56, -26503.902, 0.0, 5.0145345, 4.9257226 
1.7296952e+2, 2.950651e+2, -73857.76, -210445.02, 4.011353, 0.03312262, 0.0028387145, -73857.76, -25447.52, 0.0, 5.0143647, 4.925706 
1.7297272e+2, 3.0000755e+2, -9182.155, -91110.94, 432.76767, 0.026644208, 0.008223528, -9179.869, -9179.869, 0.0, 5.0141625, 4.959894 
1.729824e+2, 3.049776e+2, -3093.7686, -74860.234, 374.0566, 0.080808274, 0.05166475, -3091.819, -3091.819, 0.0, 5.014081, 4.965434 
1.7299329e+2, 3.0994928e+2, -1877.9159, -70961.695, -128.2704, 0.14547083, 0.08542026, -1877.6777, -1877.6777, 0.0, 5.0140696, 4.966683 
1.730042e+2, 3.149233e+2, -478.94623, -67247.52, -679.3691, 0.21120477, 0.12670323, -472.03436, -472.03436, 0.0, 5.0140533, 4.9679327 
1.7799523e+2, 1.2152531e+2, -1711374.4, -1749664.5, 72.27102, -0.0011279824, 0.012661099, -1711374.3, 37678.734, 0.0, 5.0144553, 4.9895134 
1.7799532e+2, 1.265095e+2, -1668088.5, -1711472.0, 131.77814, -0.0020261488, -0.007636365, -1668088.1, 32119.059, 0.0, 5.014283, 4.9860573 
1.7799547e+2, 1.3149582e+2, -1619661.6, -1662756.6, 141.72687, -0.0023992683, -0.005716788, -1619661.1, 31681.412, 0.0, 5.0140944, 4.9860573 
1.7799562e+2, 1.3648212e+2, -1573457.3, -1618584.1, 151.36986, -0.0027966883, -0.002565877, -1573456.8, 29021.365, 0.0, 5.0139, 4.984553 
1.7799573e+2, 1.4146541e+2, -1531272.8, -1583144.6, 97.44641, -0.0032271154, 0.012094532, -1531272.5, 22369.621, 0.0, 5.0137963, 4.9800305 
1.7799579e+2, 1.4644526e+2, -1481671.8, -1533410.0, 124.903305, -0.0036831733, 0.0061531905, -1481671.5, 23165.693, 0.0, 5.0138907, 4.980207 
1.7799583e+2, 1.5142505e+2, -1432320.3, -1484209.1, 157.42232, -0.0041570077, -0.00076772145, -1432319.8, 23713.104, 0.0, 5.0139894, 4.980207 
1.7799589e+2, 1.5640484e+2, -1384404.0, -1437989.5, 189.9264, -0.004638349, -0.0072365026, -1384403.4, 22825.31, 0.0, 5.0140862, 4.979212 
1.7799589e+2, 1.6138089e+2, -1344082.6, -1407443.0, -15.609247, -0.004568398, -0.0059722685, -1344082.6, 14379.045, 0.0, 5.0141354, 4.972996 
1.7799579e+2, 1.6635408e+2, -1295226.5, -1358599.0, -149.07837, -0.0032020258, -0.0057738353, -1295226.1, 14498.398, 0.0, 5.014076, 4.9729295 
1.7799568e+2, 1.7132732e+2, -1246295.4, -1309564.0, -222.75478, -0.0018038338, -0.0053252415, -1246294.6, 14692.647, 0.0, 5.014009, 4.9729295 
1.7799558e+2, 1.7630054e+2, -1198511.3, -1262938.1, -296.744, -0.00042566322, -0.0044866563, -1198509.9, 13740.046, 0.0, 5.0139375, 4.9721227 
1.7799547e+2, 1.8126999e+2, -1158223.1, -1232496.4, -408.79852, 0.0010668108, 0.0023186924, -1158220.9, 5328.8115, 0.0, 5.0139203, 4.9658194 
1.7799528e+2, 1.8623562e+2, -1108478.5, -1182688.0, -473.31052, 0.0026993998, -0.0033999765, -1108475.5, 6411.0313, 0.0, 5.014035, 4.9659696 
1.7799509e+2, 1.9120125e+2, -1058940.8, -1133326.1, -506.32162, 0.004311274, -0.009524231, -1058937.4, 7286.2456, 0.0, 5.014152, 4.9659705 
1.779949e+2, 1.9616689e+2, -1010310.06, -1085889.4, -540.03314, 0.005913944, -0.015327887, -1010306.2, 7254.3394, 0.0, 5.014264, 4.9653206 
1.7799464e+2, 2.0112924e+2, -969703.25, -1055594.0, -501.46564, 0.006491163, -0.011217708, -969700.3, -770.7264, 0.0, 5.0143437, 4.958835 
1.7799416e+2, 2.0608886e+2, -920039.94, -1005500.44, -382.7016, 0.004483622, -0.008714651, -920038.2, 287.13736, 0.0, 5.014351, 4.959111 
1.7799367e+2, 2.1104851e+2, -870778.2, -956237.2, -265.33972, 0.0023196132, -0.006208439, -870777.4, 943.27405, 0.0, 5.01435, 4.9591117 
1.7799316e+2, 2.1600816e+2, -822200.1, -908437.44, -147.74619, 0.0001250956, -0.0035815805, -822199.9, 916.0904, 0.0, 5.0143423, 4.958613 
1.779927e+2, 2.2096418e+2, -783032.44, -881138.5, -432.9138, -0.00042828784, 0.008246313, -783030.56, -8481.395, 0.0, 5.014306, 4.951073 
1.779923e+2, 2.2591613e+2, -733977.56, -831709.06, -833.43365, 0.004253573, 0.013015746, -733970.5, -7942.374, 0.0, 5.0141616, 4.9511623 
1.7799187e+2, 2.3086809e+2, -685100.7, -782559.5, -1080.9626, 0.009305302, 0.017466063, -685088.7, -7581.0767, 0.0, 5.0139937, 4.9511695 
1.7799145e+2, 2.3582004e+2, -636910.75, -734872.6, -1335.2458, 0.014350541, 0.021859756, -636892.56, -7905.3857, 0.0, 5.013812, 4.950675 
1.779907e+2, 2.4076839e+2, -596275.94, -704282.6, -2021.5872, 0.017866358, 0.033261728, -596238.1, -15739.052, 0.0, 5.0136824, 4.944205 
1.7798856e+2, 2.4571292e+2, -545299.0, -651966.06, -2334.228, 0.015283989, 0.0246904, -545247.94, -13209.73, 0.0, 5.0137987, 4.945148 
1.7798625e+2, 2.5065744e+2, -495547.5, -602440.2, -2307.4607, 0.012098469, 0.014320583, -495497.72, -11920.883, 0.0, 5.01392, 4.9451375 
1.7798397e+2, 2.55602e+2, -446101.97, -553508.75, -2277.2405, 0.008935458, 0.0045078686, -446053.72, -10938.7295, 0.0, 5.014021, 4.9449286 
1.7798167e+2, 2.6054296e+2, -408832.78, -531959.8, -2761.4475, 0.0070897094, 0.013709931, -408770.88, -22078.848, 0.0, 5.014089, 4.93508 
1.779802e+2, 2.654814e+2, -358960.1, -480756.06, -3658.8792, 0.015253346, 0.03228329, -358850.28, -20540.875, 0.0, 5.01392, 4.935625 
1.7797893e+2, 2.7041999e+2, -310093.5, -431141.25, -4570.5303, 0.025688382, 0.04865402, -309921.2, -19993.875, 0.0, 5.0135727, 4.935781 
1.7797767e+2, 2.7535844e+2, -261672.16, -381883.06, -5611.6597, 0.03670469, 0.06135413, -261410.77, -19864.762, 0.0, 5.0130696, 4.9358892 
1.7797664e+2, 2.8029227e+2, -231006.84, -372474.78, -7290.169, 0.06128133, 0.107137926, -230632.16, -37424.504, 0.0, 5.0127234, 4.922014 
1.7797838e+2, 2.852177e+2, -175365.34, -309299.78, -2528.131, 0.059837203, 0.10522854, -175317.64, -30378.947, 0.0, 5.013285, 4.926354 
1.7798069e+2, 2.9014128e+2, -124579.31, -259136.31, -1689.8593, 0.04191924, 0.06956378, -124558.09, -27871.791, 0.0, 5.0136805, 4.926335 
1.7798305e+2, 2.950645e+2, -74470.91, -209327.73, -883.23596, 0.024572294, 0.028873513, -74465.12, -26027.291, 0.0, 5.013813, 4.926316 
1.7798634e+2, 3.0000684e+2, -12100.11, -95161.47, -654.137, 0.019618802, 0.03153288, -12094.959, -12090.938, 0.0, 5.0135646, 4.958656 
1.7799613e+2, 3.0497703e+2, -9295.105, -80921.95, -1639.8158, 0.07562077, 0.080961995, -9257.584, -9257.584, 0.0, 5.012359, 4.963787 
1.7800719e+2, 3.099493e+2, -13221.311, -79526.305, -3815.3157, 0.14228794, 0.123116255, -13002.492, -13002.492, 0.0, 5.010486, 4.9649262 
1.7801829e+2, 3.149237e+2, -18644.762, -79000.12, -6710.0625, 0.21038255, 0.17218581, -17907.766, -17907.766, 0.0, 5.007996, 4.96607 
1.8300943e+2, 1.2152637e+2, -1711586.8, -1748508.6, 345.30447, -0.0018276523, 0.021126527, -1711583.5, 37460.8, 0.0, 5.014116, 4.99006 
1.8300948e+2, 1.2650913e+2, -1668875.4, -1712011.0, 353.3403, -0.001958427, -0.013442992, -1668872.4, 31338.922, 0.0, 5.014056, 4.9859915 
1.8300948e+2, 1.314957e+2, -1620071.9, -1663110.1, 251.97829, -0.0026056666, -0.00839422, -1620070.4, 31273.736, 0.0, 5.0139914, 4.9859905 
1.8300949e+2, 1.3648224e+2, -1573477.5, -1618747.0, 150.33926, -0.0032275491, -0.002130123, -1573477.0, 29000.18, 0.0, 5.0139265, 4.9844856 
1.8300954e+2, 1.4146565e+2, -1530955.6, -1583008.8, 135.99826, -0.0037037188, 0.014346566, -1530955.4, 22684.387, 0.0, 5.013907, 4.980022 
1.830097e+2, 1.4644544e+2, -1481399.1, -1533262.0, 146.54362, -0.003856302, 0.0075283335, -1481398.8, 23436.785, 0.0, 5.013979, 4.980213 
1.8300988e+2, 1.5142512e+2, -1432120.0, -1484097.3, 128.55475, -0.003995822, -0.00035509357, -1432119.6, 23912.457, 0.0, 5.014054, 4.980213 
1.8301004e+2, 1.5640482e+2, -1384271.3, -1437911.3, 110.51587, -0.004126545, -0.0077867843, -1384271.0, 22957.688, 0.0, 5.014128, 4.9792175 
1.8301012e+2, 1.6138083e+2, -1344007.0, -1407476.3, -174.59251, -0.00388855, -0.006887364, -1344006.6, 14455.682, 0.0, 5.014176, 4.9729657 
1.8300997e+2, 1.6635409e+2, -1295029.9, -1358601.0, -258.78995, -0.002760615, -0.005675977, -1295028.8, 14696.116, 0.0, 5.0141635, 4.972887 
1.830098e+2, 1.7132738e+2, -1245945.1, -1309492.9, -260.4781, -0.0015690693, -0.0041518724, -1245944.0, 15043.245, 0.0, 5.014148, 4.9728875 
1.8300962e+2, 1.7630067e+2, -1197997.1, -1262789.5, -262.20087, -0.00035026405, -0.0022292158, -1197996.1, 14253.62, 0.0, 5.0141335, 4.97208 
1.8300948e+2, 1.8127014e+2, -1157577.1, -1232274.3, -220.40067, 0.00080023095, 0.005134297, -1157576.4, 5973.056, 0.0, 5.0141587, 4.9657817 
1.8300934e+2, 1.8623567e+2, -1107817.5, -1182458.5, -245.1504, 0.001579748, -0.0013319326, -1107816.6, 7070.8286, 0.0, 5.014279, 4.965933 
1.8300919e+2, 1.9120117e+2, -1058259.6, -1133089.8, -271.1469, 0.0023572596, -0.008259014, -1058258.6, 7967.125, 0.0, 5.014403, 4.965933 
1.8300903e+2, 1.961667e+2, -1009596.5, -1085640.3, -297.18344, 0.0031679103, -0.014860766, -1009595.4, 7968.567, 0.0, 5.014527, 4.965283 
1.8300885e+2, 2.0112897e+2, -968867.8, -1055110.4, -346.8654, 0.0037315954, -0.0113519365, -968866.44, 67.13198, 0.0, 5.014611, 4.958875 
1.8300855e+2, 2.0608865e+2, -919289.9, -1004984.56, -360.59256, 0.0036623615, -0.008794498, -919288.4, 1039.7623, 0.0, 5.014575, 4.9591837 
1.8300824e+2, 2.110484e+2, -870154.2, -955778.8, -354.9901, 0.0036008973, -0.0061697415, -870152.7, 1569.4155, 0.0, 5.014531, 4.9591846 
1.8300794e+2, 2.1600814e+2, -821684.1, -908027.56, -349.3498, 0.0035755974, -0.0034108735, -821682.75, 1433.339, 0.0, 5.014487, 4.9586864 
1.8300755e+2, 2.2096421e+2, -782671.44, -881070.4, -663.17676, 0.004213525, 0.0086621465, -782667.0, -8118.475, 0.0, 5.014454, 4.9510274 
1.8300688e+2, 2.2591613e+2, -733304.9, -831671.25, -823.5228, 0.0070136962, 0.014111436, -733297.94, -7269.2354, 0.0, 5.014453, 4.951041 
1.830062e+2, 2.3086804e+2, -683950.06, -782316.7, -800.0831, 0.010100574, 0.019376159, -683943.56, -6433.9336, 0.0, 5.014454, 4.9510436 
1.8300551e+2, 2.3581995e+2, -635247.0, -734409.9, -777.349, 0.0133138, 0.024685021, -635240.94, -6250.39, 0.0, 5.014454, 4.950544 
1.8300463e+2, 2.4076825e+2, -593957.4, -703538.2, -1036.6527, 0.01545635, 0.037315894, -593947.56, -13444.444, 0.0, 5.014556, 4.9440713 
1.830028e+2, 2.4571268e+2, -541810.0, -650565.0, -1380.2762, 0.012771162, 0.028508008, -541792.5, -9750.579, 0.0, 5.0150585, 4.9450707 
1.8300083e+2, 2.5065702e+2, -490869.66, -600487.4, -1534.6766, 0.00971033, 0.017182114, -490848.2, -7267.6655, 0.0, 5.015596, 4.9450645 
1.8299888e+2, 2.5560138e+2, -440189.47, -550987.8, -1684.8403, 0.0067984075, 0.0060476405, -440163.84, -5044.854, 0.0, 5.0161295, 4.94486 
1.829969e+2, 2.6054195e+2, -402078.5, -529896.7, -2219.9844, 0.005201155, 0.012918561, -402039.94, -15340.519, 0.0, 5.016648, 4.934644 
1.8299548e+2, 2.6547968e+2, -351300.66, -478990.56, -2664.5754, 0.012919346, 0.030355873, -351245.1, -12919.119, 0.0, 5.0169244, 4.9348845 
1.8299425e+2, 2.704177e+2, -300925.16, -428889.97, -2919.7305, 0.02389989, 0.04858998, -300858.56, -10906.291, 0.0, 5.0171504, 4.93496 
1.8299304e+2, 2.753557e+2, -250603.89, -378941.63, -3184.945, 0.03669102, 0.06572389, -250524.89, -8946.442, 0.0, 5.017364, 4.9349875 
1.8299215e+2, 2.802899e+2, -216746.48, -369708.56, -3801.0627, 0.064446986, 0.13090171, -216652.08, -23413.117, 0.0, 5.0182076, 4.9205136 
1.8299398e+2, 2.8521582e+2, -160011.38, -301805.97, 743.3537, 0.062386177, 0.13160934, -160007.47, -15041.601, 0.0, 5.0181184, 4.926862 
1.829963e+2, 2.901396e+2, -112730.98, -253269.4, 964.21814, 0.044182584, 0.08704225, -112724.36, -16011.889, 0.0, 5.0172963, 4.9268584 
1.8299866e+2, 2.9506314e+2, -65415.73, -204737.72, 1224.157, 0.028445669, 0.040284924, -65404.973, -16944.277, 0.0, 5.0164437, 4.9268556 
1.8300179e+2, 3.0000514e+2, -7005.197, -96700.72, 998.14813, 0.026652323, 0.03737615, -6994.091, -6962.16, 0.0, 5.0155606, 4.957336 
1.830101e+2, 3.0497545e+2, -6100.116, -86343.1, 878.04224, 0.083846256, 0.10203685, -6090.5093, -6090.5093, 0.0, 5.0140104, 4.9611545 
1.8301953e+2, 3.099477e+2, -10160.0, -86826.99, 458.0068, 0.15553811, 0.16372485, -10157.264, -10157.264, 0.0, 5.012238, 4.9615803 
1.8302907e+2, 3.1492072e+2, -14186.83, -87348.0, -95.81603, 0.23382705, 0.22821175, -14186.705, -14186.705, 0.0, 5.0104265, 4.962006 
1.880236e+2, 1.21527165e+2, -1710137.8, -1745560.9, 288.85385, -0.0014489772, 0.024945743, -1710135.4, 38903.824, 0.0, 5.0141153, 4.991028 
1.8802366e+2, 1.2650958e+2, -1669070.6, -1712406.4, 302.26138, -0.00081714656, -0.012755328, -1669068.5, 31138.836, 0.0, 5.0140557, 4.985862 
1.8802348e+2, 1.3149598e+2, -1620265.5, -1663505.0, 202.57158, -0.0024629235, -0.008124683, -1620264.6, 31076.99, 0.0, 5.0139914, 4.985861 
1.8802333e+2, 1.3648234e+2, -1573669.6, -1619141.5, 102.62064, -0.0041039744, -0.002280396, -1573669.4, 28806.68, 0.0, 5.0139265, 4.9843554 
1.880233e+2, 1.4146565e+2, -1531017.8, -1583137.4, 170.05785, -0.0050870418, 0.013930609, -1531017.1, 22622.424, 0.0, 5.013907, 4.9799795 
1.8802361e+2, 1.4644542e+2, -1481430.8, -1533328.0, 203.2343, -0.004576354, 0.007262997, -1481429.9, 23405.799, 0.0, 5.013979, 4.9801917 
1.8802392e+2, 1.5142511e+2, -1432151.3, -1484163.0, 186.03217, -0.004016587, -0.00044933034, -1432150.5, 23881.967, 0.0, 5.014054, 4.980191 
1.8802425e+2, 1.5640478e+2, -1384302.3, -1437976.8, 168.7688, -0.0034547162, -0.0077104014, -1384301.8, 22927.674, 0.0, 5.014128, 4.979196 
1.880244e+2, 1.613808e+2, -1344009.1, -1407480.6, -171.45598, -0.0028384633, -0.0066676103, -1344008.6, 14454.43, 0.0, 5.014176, 4.972965 
1.880242e+2, 1.6635408e+2, -1295029.3, -1358600.4, -270.39673, -0.002042914, -0.0052592657, -1295028.1, 14697.363, 0.0, 5.014163, 4.9728875 
1.8802397e+2, 1.713274e+2, -1245944.5, -1309492.3, -270.98492, -0.0012271975, -0.003527862, -1245943.3, 15044.422, 0.0, 5.014148, 4.972888 
1.8802376e+2, 1.763007e+2, -1197996.3, -1262788.9, -271.60574, -0.00040112488, -0.0013998953, -1197995.1, 14254.725, 0.0, 5.0141335, 4.9720807 
1.880236e+2, 1.8127018e+2, -1157608.8, -1232340.4, -151.37817, 0.00021389405, 0.006195602, -1157608.5, 5941.0586, 0.0, 5.0141582, 4.9657598 
1.8802348e+2, 1.8623571e+2, -1107861.4, -1182550.8, -150.14575, 0.00020822936, 0.000067287656, -1107861.0, 7026.6924, 0.0, 5.0142784, 4.965902 
1.8802337e+2, 1.9120122e+2, -1058303.1, -1133181.8, -174.72974, 0.00017611537, -0.0065149735, -1058302.6, 7923.515, 0.0, 5.014403, 4.9659023 
1.8802327e+2, 1.9616674e+2, -1009639.56, -1085731.9, -199.36656, 0.00015588578, -0.012774074, -1009639.06, 7925.4814, 0.0, 5.0145264, 4.965252 
1.8802318e+2, 2.01129e+2, -968862.2, -1055098.6, -341.01904, 0.0007630705, -0.009288297, -968860.9, 73.6673, 0.0, 5.014611, 4.9588795 
1.8802308e+2, 2.0608863e+2, -919274.94, -1004953.9, -393.04782, 0.0030324224, -0.007333817, -919273.2, 1056.3684, 0.0, 5.014575, 4.9591947 
1.8802297e+2, 2.1104832e+2, -870139.5, -955748.4, -385.3963, 0.005401762, -0.0053022164, -870137.75, 1586.1735, 0.0, 5.0145307, 4.9591956 
1.8802285e+2, 2.1600802e+2, -821669.75, -907997.3, -377.70288, 0.007780407, -0.0031375582, -821668.06, 1450.2506, 0.0, 5.0144863, 4.9586973 
1.8802255e+2, 2.2096406e+2, -782618.44, -880943.8, -670.31067, 0.009518124, 0.008419048, -782613.9, -8062.9565, 0.0, 5.014452, 4.951072 
1.880216e+2, 2.2591601e+2, -733259.6, -831561.6, -812.28375, 0.009475144, 0.0137040485, -733252.9, -7222.1963, 0.0, 5.0144506, 4.9510813 
1.8802062e+2, 2.3086795e+2, -683904.3, -782208.94, -784.50244, 0.009384685, 0.01884056, -683898.06, -6386.8853, 0.0, 5.014452, 4.951083 
1.8801962e+2, 2.3581988e+2, -635200.75, -734303.9, -757.42645, 0.009356082, 0.02401813, -635195.0, -6203.3066, 0.0, 5.014452, 4.950583 
1.880186e+2, 2.4076821e+2, -594126.6, -703898.5, -774.6266, 0.008820854, 0.03703318, -594121.1, -13617.38, 0.0, 5.0145507, 4.9439516 
1.8801726e+2, 2.4571261e+2, -542056.25, -651092.8, -970.7013, 0.006124937, 0.029803617, -542047.6, -10005.597, 0.0, 5.015051, 4.944894 
1.8801586e+2, 2.5065693e+2, -491111.94, -601002.1, -1117.8599, 0.0032655625, 0.020026283, -491100.56, -7520.437, 0.0, 5.0155883, 4.944891 
1.8801448e+2, 2.5560123e+2, -440427.84, -551489.56, -1260.7991, 0.00046960398, 0.010363295, -440413.53, -5295.375, 0.0, 5.0161223, 4.9446893 
1.8801305e+2, 2.6054156e+2, -402354.4, -530494.2, -1784.95, -0.0013306579, 0.016586624, -402329.53, -15629.0205, 0.0, 5.016637, 4.934438 
1.880118e+2, 2.654785e+2, -351679.84, -479865.28, -2213.1616, 0.0033844826, 0.027028868, -351641.63, -13305.456, 0.0, 5.0169106, 4.9345784 
1.8801062e+2, 2.7041557e+2, -301326.7, -429837.66, -2423.7341, 0.010222726, 0.038216934, -301280.97, -11308.815, 0.0, 5.0171366, 4.9346337 
1.8800946e+2, 2.753527e+2, -251027.38, -379961.94, -2644.3833, 0.018193731, 0.04866028, -250973.16, -9365.158, 0.0, 5.0173507, 4.934642 
1.880088e+2, 2.8028676e+2, -217499.19, -372226.88, -3101.5654, 0.039213523, 0.11991064, -217437.05, -24166.494, 0.0, 5.0183005, 4.919617 
1.8801065e+2, 2.8521365e+2, -158735.56, -300342.28, 233.9074, 0.041424837, 0.12893249, -158735.17, -13746.969, 0.0, 5.018267, 4.927356 
1.880128e+2, 2.9013813e+2, -111572.42, -251831.95, 541.36035, 0.030829884, 0.08463022, -111570.336, -14842.525, 0.0, 5.017411, 4.9273624 
1.8801492e+2, 2.9506248e+2, -64374.08, -203325.98, 887.9018, 0.021804884, 0.038725596, -64368.406, -15899.888, 0.0, 5.0165243, 4.927369 
1.8801756e+2, 3.0000445e+2, -7167.7227, -98056.18, 603.3987, 0.023276763, 0.033479907, -7163.717, -7123.1006, 0.0, 5.0156355, 4.956854 
1.8802324e+2, 3.049759e+2, -6180.741, -88150.33, 387.81717, 0.065237835, 0.10851016, -6178.9067, -6178.9067, 0.0, 5.014163, 4.960396 
1.8802948e+2, 3.0995e+2, -10114.107, -88991.53, 138.47072, 0.115937494, 0.18736279, -10113.864, -10113.864, 0.0, 5.0124736, 4.9606934 
1.8803573e+2, 3.1492466e+2, -14014.092, -89870.164, -244.64954, 0.17068774, 0.26874918, -14013.303, -14013.303, 0.0, 5.0107446, 4.960991 
1.9303773e+2, 1.21527895e+2, -1708604.9, -1742441.4, 230.62679, -0.0012633262, 0.028183626, -1708603.3, 40431.586, 0.0, 5.014115, 4.992053 
1.9303782e+2, 1.2651005e+2, -1669266.5, -1712801.4, 251.5895, 0.00031072978, -0.0120064, -1669265.0, 30938.398, 0.0, 5.0140553, 4.985732 
1.930375e+2, 1.3149628e+2, -1620459.6, -1663899.5, 153.57207, -0.0023289921, -0.007820175, -1620459.1, 30879.89, 0.0, 5.013991, 4.9857306 
1.9303717e+2, 1.3648246e+2, -1573862.1, -1619535.8, 55.309414, -0.004984619, -0.0024219893, -1573862.0, 28612.814, 0.0, 5.0139265, 4.9842253 
1.9303708e+2, 1.4146563e+2, -1531085.1, -1583276.4, 204.02654, -0.006470951, 0.013538867, -1531084.3, 22555.197, 0.0, 5.013907, 4.9799333 
1.9303752e+2, 1.4644541e+2, -1481462.5, -1533394.0, 259.95392, -0.0052965134, 0.007016129, -1481461.1, 23374.734, 0.0, 5.013979, 4.98017 
1.9303797e+2, 1.5142508e+2, -1432182.8, -1484228.8, 243.53859, -0.004037163, -0.000540702, -1432181.5, 23851.408, 0.0, 5.014054, 4.98017 
1.9303845e+2, 1.5640475e+2, -1384333.5, -1438042.3, 227.05072, -0.0027824002, -0.007646757, -1384332.5, 22897.596, 0.0, 5.014128, 4.979174 
1.9303869e+2, 1.6138077e+2, -1344015.9, -1407494.3, -168.5285, -0.0017873999, -0.0064290753, -1344015.5, 14448.406, 0.0, 5.0141754, 4.97296 
1.9303843e+2, 1.6635408e+2, -1295029.1, -1358599.5, -281.93686, -0.0013228869, -0.004823942, -1295027.9, 14698.236, 0.0, 5.014163, 4.972888 
1.9303817e+2, 1.7132741e+2, -1245944.1, -1309491.4, -281.42514, -0.0008817908, -0.002899226, -1245942.9, 15045.2295, 0.0, 5.014148, 4.972888 
1.9303788e+2, 1.7630073e+2, -1197995.8, -1262788.0, -280.94397, -0.0004472425, -0.00057993585, -1197994.6, 14255.466, 0.0, 5.0141335, 4.972081 
1.9303769e+2, 1.8127023e+2, -1157645.8, -1232416.9, -82.78311, -0.00037235973, 0.007278191, -1157645.6, 5903.969, 0.0, 5.0141582, 4.965734 
1.9303763e+2, 1.8623577e+2, -1107905.8, -1182642.8, -55.10346, -0.0011625557, 0.0014849232, -1107905.6, 6982.33, 0.0, 5.0142784, 4.965871 
1.9303757e+2, 1.9120128e+2, -1058347.0, -1133273.4, -78.274895, -0.0020020385, -0.0047712694, -1058346.9, 7879.6943, 0.0, 5.0144024, 4.9658713 
1.9303751e+2, 1.961668e+2, -1009683.1, -1085823.4, -101.51196, -0.0028508916, -0.010706471, -1009683.0, 7882.197, 0.0, 5.014526, 4.9652214 
1.9303751e+2, 2.0112903e+2, -968863.44, -1055100.8, -334.922, -0.0022041062, -0.007193193, -968862.2, 73.309685, 0.0, 5.014611, 4.9588785 
1.930376e+2, 2.0608862e+2, -919260.7, -1004922.75, -425.39365, 0.002404169, -0.005841647, -919258.56, 1072.3477, 0.0, 5.014575, 4.959205 
1.9303769e+2, 2.1104826e+2, -870125.44, -955717.4, -415.693, 0.007206322, -0.0044319904, -870123.44, 1602.3138, 0.0, 5.0145307, 4.959206 
1.9303778e+2, 2.160079e+2, -821655.9, -907966.5, -405.9465, 0.011990922, -0.002890331, -821654.0, 1466.5543, 0.0, 5.0144863, 4.9587083 
1.9303755e+2, 2.2096393e+2, -782577.56, -880841.2, -679.61707, 0.014834114, 0.00823457, -782572.9, -8019.625, 0.0, 5.01445, 4.9511085 
1.9303632e+2, 2.2591591e+2, -733216.06, -831450.44, -800.12646, 0.011960884, 0.013359245, -733209.56, -7176.9497, 0.0, 5.014448, 4.951121 
1.9303502e+2, 2.3086786e+2, -683860.3, -782099.56, -768.00354, 0.008704369, 0.018314932, -683854.3, -6341.6035, 0.0, 5.01445, 4.951122 
1.9303373e+2, 2.358198e+2, -635156.25, -734196.4, -736.5858, 0.005445219, 0.023308594, -635150.75, -6157.963, 0.0, 5.0144506, 4.9506216 
1.9303255e+2, 2.4076816e+2, -594320.75, -704303.25, -521.39954, 0.002224462, 0.036841113, -594318.25, -13813.9, 0.0, 5.014545, 4.943815 
1.9303173e+2, 2.4571253e+2, -542308.3, -651615.06, -565.6192, -0.0004957837, 0.03121192, -542305.44, -10263.363, 0.0, 5.0150433, 4.9447165 
1.9303091e+2, 2.5065684e+2, -491360.03, -601511.25, -705.5328, -0.0031631866, 0.022897216, -491355.5, -7775.8154, 0.0, 5.015581, 4.944716 
1.9303009e+2, 2.5560114e+2, -440672.0, -551985.75, -841.2446, -0.0058526723, 0.014619778, -440665.66, -5548.3726, 0.0, 5.016115, 4.9445176 
1.9302918e+2, 2.605412e+2, -402667.66, -531137.7, -1343.2576, -0.007848461, 0.020301795, -402653.6, -15952.027, 0.0, 5.016626, 4.93421 
1.930281e+2, 2.6547727e+2, -352077.97, -480722.34, -1733.8965, -0.0057828254, 0.023481218, -352054.63, -13708.211, 0.0, 5.016897, 4.9342647 
1.9302703e+2, 2.704135e+2, -301747.1, -430767.7, -1899.8813, -0.002680676, 0.02714666, -301719.13, -11726.91, 0.0, 5.017123, 4.934301 
1.9302595e+2, 2.7534968e+2, -251469.67, -380964.56, -2075.9585, 0.00087638415, 0.030422775, -251436.4, -9798.539, 0.0, 5.017337, 4.9342895 
1.9302557e+2, 2.802837e+2, -218540.14, -375380.7, -2163.3945, 0.013968325, 0.109378666, -218510.31, -25208.463, 0.0, 5.018394, 4.918491 
1.9302742e+2, 2.852115e+2, -157507.75, -298832.5, -286.2398, 0.019343423, 0.12707163, -157507.17, -12496.862, 0.0, 5.018416, 4.927838 
1.9302931e+2, 2.9013664e+2, -110461.75, -250348.19, 107.73717, 0.016472658, 0.081585534, -110461.664, -13718.007, 0.0, 5.017526, 4.927854 
1.9303119e+2, 2.9506165e+2, -63380.188, -201867.73, 540.8199, 0.014274972, 0.03508519, -63378.074, -14900.48, 0.0, 5.0166054, 4.9278703 
1.9303334e+2, 3.0000377e+2, -7710.547, -100137.234, 312.2752, 0.019104501, 0.029327651, -7709.4917, -7659.8403, 0.0, 5.0157104, 4.956084 
1.9303659e+2, 3.0497634e+2, -6321.995, -89898.086, 72.3781, 0.04764302, 0.11559277, -6321.932, -6321.932, 0.0, 5.0143156, 4.959614 
1.9303994e+2, 3.0995214e+2, -10128.895, -91096.78, -5.849776, 0.079702266, 0.20868286, -10128.894, -10128.894, 0.0, 5.012709, 4.959783 
1.9304319e+2, 3.1492835e+2, -13902.072, -92333.22, -217.82246, 0.113263205, 0.30404145, -13901.467, -13901.467, 0.0, 5.0110636, 4.9599524 
1.9805185e+2, 1.2152854e+2, -1707287.8, -1739316.0, 193.0567, -0.0012197982, 0.030739343, -1707286.6, 41744.633, 0.0, 5.014019, 4.9931273 
1.9805199e+2, 1.2651052e+2, -1669639.3, -1713285.3, 209.61882, 0.0014445811, -0.011118222, -1669638.3, 30561.1, 0.0, 5.013996, 4.9856014 
1.980515e+2, 1.3149656e+2, -1620731.5, -1664332.8, 110.216934, -0.002194148, -0.0074440264, -1620731.3, 30605.1, 0.0, 5.013965, 4.9856 
1.98051e+2, 1.364826e+2, -1574050.3, -1619927.3, 12.921799, -0.005860525, -0.0025569159, -1574050.3, 28423.408, 0.0, 5.013928, 4.9840946 
1.9805084e+2, 1.4146563e+2, -1531118.9, -1583407.0, 241.32016, -0.007843987, 0.013147375, -1531117.8, 22521.596, 0.0, 5.0139203, 4.9798837 
1.9805142e+2, 1.464454e+2, -1481492.6, -1533459.8, 314.5297, -0.006010775, 0.006775103, -1481490.8, 23345.344, 0.0, 5.01398, 4.9801474 
1.9805203e+2, 1.5142506e+2, -1432255.8, -1484315.3, 293.14832, -0.0040545277, -0.0006287041, -1432254.1, 23779.322, 0.0, 5.01404, 4.9801474 
1.9805264e+2, 1.5640472e+2, -1384453.9, -1438151.5, 271.6184, -0.0021066307, -0.0075816647, -1384452.5, 22778.363, 0.0, 5.0140986, 4.9791517 
1.9805297e+2, 1.6138075e+2, -1344137.6, -1407569.4, -179.26965, -0.00073237857, -0.0061539714, -1344137.1, 14327.515, 0.0, 5.014138, 4.972953 
1.9805267e+2, 1.6635406e+2, -1295103.6, -1358632.6, -298.05603, -0.00059921, -0.004369039, -1295102.3, 14624.455, 0.0, 5.0141377, 4.972889 
1.9805235e+2, 1.7132743e+2, -1245991.0, -1309511.1, -287.74484, -0.0005274428, -0.0022822146, -1245989.6, 14998.813, 0.0, 5.014132, 4.972889 
1.9805203e+2, 1.7630076e+2, -1198025.4, -1262799.4, -277.4617, -0.00047321068, 0.00019726332, -1198024.1, 14226.109, 0.0, 5.014123, 4.9720817 
1.9805181e+2, 1.8127027e+2, -1157720.6, -1232517.8, 6.500399, -0.0009330839, 0.008339802, -1157720.5, 5829.1255, 0.0, 5.014147, 4.9657054 
1.9805178e+2, 1.8623583e+2, -1108020.5, -1182766.8, 66.90331, -0.0025055464, 0.0028935252, -1108020.4, 6867.786, 0.0, 5.0142536, 4.9658403 
1.9805175e+2, 1.9120133e+2, -1058511.3, -1133420.6, 50.893547, -0.004141942, -0.0030389996, -1058511.1, 7715.865, 0.0, 5.014361, 4.965841 
1.9805174e+2, 1.9616686e+2, -1009908.1, -1085998.9, 34.95994, -0.005801732, -0.008652601, -1009908.1, 7657.6343, 0.0, 5.0144634, 4.9651904 
1.9805184e+2, 2.0112908e+2, -969092.44, -1055222.0, -286.57568, -0.005115, -0.005050076, -969091.5, -155.17545, 0.0, 5.014535, 4.9588723 
1.9805211e+2, 2.060886e+2, -919426.56, -1004978.3, -430.23553, 0.0017975555, -0.0043005175, -919424.4, 907.8229, 0.0, 5.0145135, 4.9592137 
1.9805239e+2, 2.110482e+2, -870261.8, -955759.25, -436.06085, 0.009008727, -0.003540754, -870259.6, 1467.8829, 0.0, 5.0144796, 4.959215 
1.9805269e+2, 2.160078e+2, -821780.2, -908002.6, -442.92612, 0.016187126, -0.0026499995, -821777.94, 1344.864, 0.0, 5.014439, 4.958717 
1.9805254e+2, 2.2096379e+2, -782660.06, -880812.56, -709.61035, 0.020137625, 0.008119499, -782654.94, -8099.3354, 0.0, 5.014409, 4.9511366 
1.9805104e+2, 2.259158e+2, -733203.7, -831347.8, -789.1407, 0.014453587, 0.013061743, -733197.3, -7162.833, 0.0, 5.014435, 4.9511614 
1.9804944e+2, 2.3086777e+2, -683788.8, -781971.3, -733.85895, 0.0080652535, 0.017756116, -683783.3, -6269.144, 0.0, 5.0144577, 4.951162 
1.9804783e+2, 2.3581973e+2, -635051.4, -734054.25, -678.44037, 0.0016260364, 0.022483265, -635046.7, -6052.8047, 0.0, 5.014471, 4.9506607 
1.980465e+2, 2.407681e+2, -594465.75, -704716.9, -216.59076, -0.0042486126, 0.036635485, -594465.3, -13960.403, 0.0, 5.0145664, 4.943662 
1.9804618e+2, 2.4571249e+2, -542513.3, -652112.4, -107.12604, -0.0070083425, 0.032656133, -542513.2, -10471.163, 0.0, 5.0150566, 4.9445357 
1.9804594e+2, 2.5065675e+2, -491624.8, -602025.9, -254.10257, -0.009472616, 0.025778554, -491624.25, -8045.04, 0.0, 5.015572, 4.9445386 
1.980457e+2, 2.5560102e+2, -441038.72, -552536.06, -403.0157, -0.012016658, 0.018884784, -441037.25, -5920.909, 0.0, 5.0160694, 4.9443426 
1.9804533e+2, 2.6054087e+2, -403235.1, -531933.2, -911.18585, -0.014141353, 0.024202362, -403228.63, -16526.117, 0.0, 5.016542, 4.933956 
1.9804446e+2, 2.6547605e+2, -352680.25, -481659.53, -1323.4469, -0.014353234, 0.019748367, -352666.7, -14309.928, 0.0, 5.0168242, 4.9339385 
1.980435e+2, 2.7041128e+2, -302386.84, -431783.38, -1536.9393, -0.014530053, 0.015230432, -302368.6, -12355.747, 0.0, 5.017048, 4.9339523 
1.9804251e+2, 2.7534652e+2, -252212.48, -382082.72, -1777.101, -0.01489019, 0.010613005, -252188.17, -10519.35, 0.0, 5.0172367, 4.933919 
1.9804247e+2, 2.802805e+2, -220235.44, -379241.56, -1201.9677, -0.010859283, 0.098458976, -220226.34, -26892.248, 0.0, 5.0183644, 4.917153 
1.980443e+2, 2.8520933e+2, -156531.75, -297314.9, -874.9092, -0.0036049213, 0.12535474, -156526.31, -11493.243, 0.0, 5.0185075, 4.928306 
1.9804588e+2, 2.90135e+2, -109474.64, -248821.73, -418.86923, 0.0012369396, 0.07769702, -109473.38, -12712.923, 0.0, 5.0176296, 4.928326 
1.9804744e+2, 2.950607e+2, -62521.14, -200387.0, 17.54626, 0.0059340927, 0.029628929, -62521.137, -14033.16, 0.0, 5.016673, 4.928346 
1.9804908e+2, 3.0000305e+2, -8776.305, -102977.94, -144.40634, 0.014227126, 0.025523096, -8776.084, -8717.297, 0.0, 5.015749, 4.955019 
1.9805019e+2, 3.0497682e+2, -6538.3936, -91592.45, -525.44586, 0.031197995, 0.12319104, -6535.1475, -6535.1475, 0.0, 5.014489, 4.9587865 
1.9805092e+2, 3.0995405e+2, -10280.14, -93132.32, -520.97144, 0.04716413, 0.22627282, -10276.864, -10276.864, 0.0, 5.0129504, 4.958829 
1.9805148e+2, 3.1493142e+2, -14250.99, -94803.58, -523.6556, 0.062235594, 0.33083883, -14247.586, -14247.586, 0.0, 5.0112815, 4.9588723 
2.0306581e+2, 1.2152817e+2, -1707943.5, -1738757.3, 316.01425, 0.00054803566, 0.022035746, -1707940.3, 41094.63, 0.0, 5.0136085, 4.9935145 
2.03066e+2, 1.2651175e+2, -1670467.5, -1713985.4, 305.4439, 0.00298745, -0.003067565, -1670465.4, 29721.139, 0.0, 5.0137806, 4.985479 
2.030655e+2, 1.3149725e+2, -1620943.3, -1664719.6, 220.95679, -0.001638551, -0.0035887675, -1620942.1, 30386.965, 0.0, 5.0139527, 4.98548 
2.0306501e+2, 1.3648273e+2, -1573632.9, -1619996.8, 136.18591, -0.0062365755, -0.0028786438, -1573632.5, 28839.332, 0.0, 5.0141244, 4.983977 
2.0306483e+2, 1.4146544e+2, -1530309.8, -1583180.0, 313.82523, -0.008762041, 0.01041643, -1530307.9, 23333.197, 0.0, 5.0142264, 4.97981 
2.0306543e+2, 1.4644524e+2, -1480978.5, -1533354.0, 328.72897, -0.006778972, 0.0053636236, -1480976.4, 23861.1, 0.0, 5.014183, 4.9800844 
2.0306605e+2, 1.5142502e+2, -1432064.1, -1484367.3, 256.36203, -0.004637073, -0.0005934733, -1432062.9, 23971.498, 0.0, 5.0141354, 4.980084 
2.0306668e+2, 1.5640475e+2, -1384578.1, -1438357.1, 183.87483, -0.0024858254, -0.0060948636, -1384577.5, 22653.928, 0.0, 5.014087, 4.979089 
2.0306705e+2, 1.6138081e+2, -1344283.9, -1407560.0, -258.09912, -0.0009231212, -0.004121324, -1344282.9, 14182.227, 0.0, 5.0140715, 4.972988 
2.0306678e+2, 1.6635405e+2, -1295042.5, -1358461.3, -304.87292, -0.0006492523, -0.0037534966, -1295041.1, 14686.441, 0.0, 5.014128, 4.972951 
2.0306651e+2, 1.7132732e+2, -1245740.1, -1309248.6, -226.92058, -0.00040364364, -0.0031465134, -1245739.4, 15250.336, 0.0, 5.0141873, 4.972951 
2.0306624e+2, 1.7630059e+2, -1197575.9, -1262441.9, -148.84406, -0.00013972432, -0.0021431006, -1197575.5, 14676.348, 0.0, 5.0142465, 4.972144 
2.0306605e+2, 1.8127008e+2, -1157282.9, -1232249.9, 211.45407, -0.0005333372, 0.005488551, -1157282.3, 6268.8423, 0.0, 5.014283, 4.9657316 
2.0306604e+2, 1.8623583e+2, -1107961.4, -1182708.3, 326.42374, -0.0023914946, 0.0018887608, -1107959.9, 6928.049, 0.0, 5.014267, 4.965854 
2.0306604e+2, 1.9120155e+2, -1058817.0, -1133534.5, 359.7592, -0.0042834682, -0.0020835304, -1058815.3, 7409.715, 0.0, 5.0142484, 4.965855 
2.0306604e+2, 1.9616728e+2, -1010564.9, -1086277.5, 393.33374, -0.0061554783, -0.005730941, -1010562.8, 6999.163, 0.0, 5.01423, 4.965205 
2.0306613e+2, 2.0112963e+2, -970038.56, -1055776.1, 85.209915, -0.00561089, -0.0009587846, -970038.44, -1106.7092, 0.0, 5.0142303, 4.958826 
2.0306644e+2, 2.06089e+2, -920224.5, -1005533.5, -157.5751, 0.0012882367, -0.0010180498, -920224.2, 105.350624, 0.0, 5.014273, 4.9591365 
2.0306674e+2, 2.1104841e+2, -870830.94, -956208.56, -264.72787, 0.008564604, -0.0011531651, -870830.1, 896.78784, 0.0, 5.014318, 4.9591365 
2.0306705e+2, 2.1600784e+2, -822104.9, -908339.9, -372.12335, 0.015882917, -0.0011519593, -822103.25, 1021.02264, 0.0, 5.0143623, 4.958637 
2.0306693e+2, 2.2096372e+2, -782455.6, -880528.0, -630.55396, 0.019716453, 0.008560562, -782451.56, -7893.2925, 0.0, 5.014439, 4.9512215 
2.0306541e+2, 2.2591572e+2, -732487.6, -830654.0, -564.463, 0.012983892, 0.0120467525, -732484.4, -6448.56, 0.0, 5.0146103, 4.951321 
2.0306385e+2, 2.3086768e+2, -682638.2, -781074.1, -383.78445, 0.0055681067, 0.015263328, -682636.7, -5122.791, 0.0, 5.0147877, 4.951323 
2.0306225e+2, 2.3581967e+2, -633443.56, -732945.1, -202.20427, -0.0018093816, 0.018501334, -633443.1, -4451.129, 0.0, 5.0149646, 4.9508233 
2.0306101e+2, 2.4076805e+2, -592727.3, -703877.94, 598.04785, -0.008283562, 0.031402607, -592724.1, -12222.144, 0.0, 5.015171, 4.9436827 
2.0306118e+2, 2.457125e+2, -541276.44, -651782.6, 960.31274, -0.010687745, 0.028879032, -541268.06, -9229.199, 0.0, 5.0155396, 4.944439 
2.0306146e+2, 2.5065687e+2, -490768.06, -601885.25, 931.5366, -0.012562994, 0.024096983, -490760.28, -7184.656, 0.0, 5.015925, 4.9444375 
2.0306171e+2, 2.5560126e+2, -440517.03, -552562.75, 900.1013, -0.014358069, 0.019503305, -440509.78, -5397.5977, 0.0, 5.016307, 4.9442377 
2.030619e+2, 2.605412e+2, -402809.0, -531947.75, 558.43524, -0.015831776, 0.026685597, -402806.6, -16108.9795, 0.0, 5.0167336, 4.933881 
2.030614e+2, 2.65476e+2, -351795.63, -481619.8, 200.17496, -0.017595364, 0.01987616, -351795.3, -13440.4375, 0.0, 5.0172033, 4.9338098 
2.0306076e+2, 2.7041066e+2, -300820.56, -431448.78, 53.295013, -0.020073438, 0.011677865, -300820.53, -10805.289, 0.0, 5.0176606, 4.933829 
2.0306009e+2, 2.7534527e+2, -249897.53, -381439.4, -84.00976, -0.023099449, 0.0026899537, -249897.48, -8221.513, 0.0, 5.0181065, 4.9338007 
2.0306036e+2, 2.8027844e+2, -217201.03, -376668.06, 2383.2163, -0.028883962, 0.080462895, -217165.42, -23816.807, 0.0, 5.019272, 4.917662 
2.0306166e+2, 2.8520763e+2, -155255.97, -296698.38, 1117.9077, -0.02425268, 0.1107106, -155247.14, -10200.407, 0.0, 5.0190926, 4.928255 
2.0306255e+2, 2.9013416e+2, -108763.95, -248559.14, 528.9667, -0.015144913, 0.07337779, -108761.95, -11992.157, 0.0, 5.018011, 4.928238 
2.0306335e+2, 2.9506058e+2, -62229.047, -200422.77, -94.02199, -0.006444042, 0.035139572, -62228.984, -13735.35, 0.0, 5.016901, 4.928221 
2.0306417e+2, 3.0000377e+2, -7984.4077, -102024.836, -572.33606, 0.0026010955, 0.039352354, -7980.9243, -7921.815, 0.0, 5.0159836, 4.955252 
2.0306364e+2, 3.0497664e+2, -4436.7607, -91016.664, -1457.981, 0.0081664175, 0.13238448, -4412.216, -4412.216, 0.0, 5.0153785, 4.9586496 
2.0306249e+2, 3.0995253e+2, -5704.45, -91149.66, -1920.2068, 0.010173677, 0.22669628, -5661.319, -5661.319, 0.0, 5.0146685, 4.958838 
2.0306109e+2, 3.1492862e+2, -6908.3403, -91347.62, -2151.1924, 0.009917272, 0.32099664, -6853.572, -6853.572, 0.0, 5.01392, 4.959026 
2.0807967e+2, 1.2152704e+2, -1708005.8, -1738879.9, 396.6684, 0.0029030433, 0.005417846, -1708000.8, 41043.258, 0.0, 5.0136075, 4.9934745 
2.0807995e+2, 1.2651345e+2, -1670631.4, -1714315.0, 434.72812, 0.0045726993, 0.009644158, -1670627.1, 29541.074, 0.0, 5.0137796, 4.9853706 
2.0807955e+2, 1.3149819e+2, -1621105.4, -1665048.9, 351.77356, -0.0008874524, 0.0025465968, -1621102.6, 30216.111, 0.0, 5.0139523, 4.9853716 
2.0807913e+2, 1.3648291e+2, -1573793.5, -1620325.9, 268.4966, -0.006340141, -0.0033228777, -1573791.9, 28677.549, 0.0, 5.014124, 4.983868 
2.08079e+2, 1.4146513e+2, -1530444.1, -1583457.8, 309.10086, -0.009484392, 0.006151166, -1530442.4, 23201.62, 0.0, 5.0142264, 4.9797187 
2.0807953e+2, 1.4644505e+2, -1481111.3, -1533629.6, 292.08487, -0.007685287, 0.0031945095, -1481109.6, 23730.06, 0.0, 5.0141835, 4.979993 
2.080801e+2, 1.5142496e+2, -1432196.0, -1484642.0, 220.53835, -0.0057279393, -0.00046932383, -1432195.0, 23840.646, 0.0, 5.0141354, 4.979993 
2.0808066e+2, 1.5640485e+2, -1384709.0, -1438631.0, 148.87965, -0.003768597, -0.0036787875, -1384708.6, 22523.22, 0.0, 5.0140877, 4.9789977 
2.0808099e+2, 1.6138093e+2, -1344195.9, -1407376.1, -232.16602, -0.0021720794, -0.0009360387, -1344195.0, 14270.165, 0.0, 5.0140715, 4.9730496 
2.0808086e+2, 1.6635402e+2, -1294898.0, -1358158.0, -259.99857, -0.0013532027, -0.0030251185, -1294896.9, 14831.536, 0.0, 5.014128, 4.9730525 
2.080807e+2, 1.7132713e+2, -1245596.5, -1308946.0, -181.04643, -0.0005568802, -0.004979355, -1245596.0, 15395.438, 0.0, 5.0141873, 4.973053 
2.0808053e+2, 1.7630024e+2, -1197433.1, -1262140.0, -101.97751, 0.0002437482, -0.006538222, -1197433.0, 14821.507, 0.0, 5.0142465, 4.9722457 
2.0808043e+2, 1.8126975e+2, -1157195.5, -1232065.3, 211.88551, 0.000258991, 0.0000751997, -1157194.9, 6358.5693, 0.0, 5.014283, 4.9657936 
2.0808041e+2, 1.8623582e+2, -1107899.3, -1182576.8, 313.18304, -0.0015020823, -0.0006708494, -1107897.9, 6989.431, 0.0, 5.014267, 4.9658985 
2.080804e+2, 1.9120188e+2, -1058755.6, -1133403.3, 347.8054, -0.0033284004, -0.0016020417, -1058754.0, 7467.309, 0.0, 5.0142484, 4.9658995 
2.0808038e+2, 1.9616796e+2, -1010504.2, -1086146.4, 382.6692, -0.0051508667, -0.0022069912, -1010502.25, 7052.9854, 0.0, 5.01423, 4.96525 
2.0808044e+2, 2.011305e+2, -970141.1, -1055993.1, 106.722015, -0.0049473695, 0.004458134, -970141.0, -1217.432, 0.0, 5.0142293, 4.9587526 
2.0808065e+2, 2.0608965e+2, -920402.8, -1005916.3, -122.82209, 0.0005719646, 0.0034309528, -920402.6, -78.41142, 0.0, 5.0142727, 4.9590063 
2.0808086e+2, 2.1104883e+2, -871007.25, -956589.9, -227.89993, 0.0063873357, 0.0021917387, -871006.6, 718.0616, 0.0, 5.0143175, 4.959007 
2.0808107e+2, 2.16008e+2, -822279.1, -908719.8, -333.22385, 0.012221054, 0.0010857206, -822277.9, 847.29065, 0.0, 5.014362, 4.9585075 
2.080809e+2, 2.2096369e+2, -782291.44, -880169.4, -523.64355, 0.014993351, 0.009302635, -782288.6, -7727.567, 0.0, 5.014439, 4.9513445 
2.080796e+2, 2.2591569e+2, -732174.2, -829966.06, -420.83432, 0.0085289655, 0.010665854, -732172.4, -6136.0313, 0.0, 5.0146103, 4.9515586 
2.0807824e+2, 2.3086767e+2, -682326.6, -780385.75, -236.43869, 0.0014371338, 0.011763993, -682326.06, -4814.083, 0.0, 5.0147877, 4.951561 
2.0807688e+2, 2.3581967e+2, -633133.8, -732256.2, -51.155376, -0.0056564035, 0.012863696, -633133.75, -4146.1533, 0.0, 5.0149646, 4.951062 
2.0807591e+2, 2.4076805e+2, -592548.25, -703453.75, 827.4858, -0.011655538, 0.023520716, -592542.06, -12045.985, 0.0, 5.0151696, 4.943827 
2.080765e+2, 2.4571265e+2, -541297.94, -651786.9, 1248.7593, -0.013300126, 0.022065278, -541283.8, -9250.861, 0.0, 5.0155354, 4.9444356 
2.0807725e+2, 2.5065717e+2, -490796.2, -601897.94, 1226.5393, -0.014496851, 0.019131653, -490782.66, -7213.142, 0.0, 5.015918, 4.9444327 
2.0807797e+2, 2.5560173e+2, -440551.7, -552583.8, 1201.6472, -0.015675176, 0.016449392, -440538.78, -5432.919, 0.0, 5.016298, 4.9442315 
2.0807862e+2, 2.60542e+2, -402780.75, -531760.6, 1035.6677, -0.016785022, 0.0261963, -402772.44, -16083.331, 0.0, 5.016716, 4.9339614 
2.080786e+2, 2.6547688e+2, -351835.56, -481549.34, 845.1186, -0.020339925, 0.022410301, -351830.06, -13487.273, 0.0, 5.0171847, 4.9338684 
2.080784e+2, 2.7041158e+2, -300812.38, -431267.4, 753.75244, -0.025648516, 0.016423013, -300808.0, -10807.908, 0.0, 5.017646, 4.9339156 
2.0807812e+2, 2.7534625e+2, -249841.84, -381147.78, 671.9492, -0.032226853, 0.009042659, -249838.4, -8180.548, 0.0, 5.018095, 4.933915 
2.0807865e+2, 2.802785e+2, -215784.17, -372438.5, 3167.9875, -0.046992596, 0.06904935, -215720.13, -22382.164, 0.0, 5.019152, 4.919182 
2.0807923e+2, 2.852073e+2, -156633.98, -298361.28, 446.42307, -0.0442536, 0.09563741, -156632.58, -11587.63, 0.0, 5.0189195, 4.927761 
2.0807919e+2, 2.9013422e+2, -109994.234, -250154.86, -49.433178, -0.03223455, 0.07151319, -109994.22, -13224.26, 0.0, 5.0178795, 4.927742 
2.0807905e+2, 2.9506093e+2, -63312.195, -201952.05, -579.289, -0.021495735, 0.045601908, -63309.777, -14813.339, 0.0, 5.016811, 4.9277234 
2.0807885e+2, 3.0000505e+2, -7325.101, -99298.04, -658.3611, -0.013918287, 0.05964572, -7320.388, -7263.4834, 0.0, 5.0158687, 4.9562836 
2.0807661e+2, 3.0497628e+2, -5393.8447, -90807.27, -1160.2767, -0.022347244, 0.14267215, -5378.086, -5378.086, 0.0, 5.0150924, 4.9589825 
2.0807353e+2, 3.0994964e+2, -6994.1865, -90510.586, -1392.4568, -0.038296033, 0.22493462, -6970.9766, -6970.9766, 0.0, 5.0142236, 4.9593487 
2.0807013e+2, 3.1492364e+2, -8531.076, -90278.67, -1393.2715, -0.059139103, 0.30889297, -8507.337, -8507.337, 0.0, 5.0133157, 4.959715 
2.1309349e+2, 1.21525824e+2, -1707974.8, -1738811.6, 475.09174, 0.0050697415, -0.012002589, -1707967.4, 41086.516, 0.0, 5.013607, 4.9934974 
2.1309389e+2, 1.2651516e+2, -1670795.8, -1714644.3, 564.45306, 0.0061489306, 0.022402596, -1670788.5, 29361.309, 0.0, 5.0137787, 4.985263 
2.1309356e+2, 1.3149913e+2, -1621268.0, -1665377.9, 483.03107, -0.00014097514, 0.008707384, -1621262.8, 30045.576, 0.0, 5.0139513, 4.985263 
2.1309325e+2, 1.3648307e+2, -1573954.5, -1620654.8, 401.24814, -0.00644393, -0.003762981, -1573951.0, 28516.063, 0.0, 5.014124, 4.9837594 
2.1309316e+2, 1.4146481e+2, -1530584.0, -1583746.5, 304.45206, -0.010209396, 0.0019103776, -1530582.4, 23064.447, 0.0, 5.0142264, 4.9796233 
2.1309362e+2, 1.4644487e+2, -1481244.3, -1533905.1, 255.43344, -0.0085947, 0.0010443612, -1481243.0, 23598.848, 0.0, 5.0141835, 4.979902 
2.1309412e+2, 1.514249e+2, -1432328.0, -1484916.5, 184.70735, -0.006820888, -0.0003420236, -1432327.4, 23709.625, 0.0, 5.0141354, 4.9799013 
2.1309462e+2, 1.5640493e+2, -1384840.1, -1438904.8, 113.877205, -0.005052433, -0.0012753756, -1384839.9, 22392.35, 0.0, 5.0140877, 4.978906 
2.1309493e+2, 1.6138105e+2, -1344112.4, -1407201.3, -206.49055, -0.0034220577, 0.0022660964, -1344111.8, 14353.567, 0.0, 5.0140715, 4.973108 
2.130949e+2, 1.66354e+2, -1294753.8, -1357854.5, -215.23409, -0.0020596029, -0.0022806937, -1294753.0, 14976.36, 0.0, 5.014128, 4.973154 
2.1309486e+2, 1.7132695e+2, -1245453.3, -1308643.3, -135.28221, -0.0007139108, -0.006810326, -1245452.9, 15540.279, 0.0, 5.0141873, 4.9731545 
2.1309482e+2, 1.7629991e+2, -1197290.8, -1261837.8, -55.220963, 0.0006220826, -0.010945651, -1197290.6, 14966.413, 0.0, 5.0142465, 4.9723473 
2.1309479e+2, 1.8126939e+2, -1157113.1, -1231890.5, 212.42245, 0.0010483265, -0.005311159, -1157112.5, 6443.2817, 0.0, 5.014283, 4.9658523 
2.1309477e+2, 1.862358e+2, -1107837.5, -1182445.1, 299.78195, -0.0006164174, -0.0032043857, -1107836.4, 7050.4077, 0.0, 5.014267, 4.965943 
2.1309474e+2, 1.9120221e+2, -1058694.6, -1133271.8, 335.6912, -0.0023788742, -0.0011145985, -1058693.1, 7524.5054, 0.0, 5.0142484, 4.965944 
2.1309471e+2, 1.9616865e+2, -1010443.9, -1086015.0, 371.8442, -0.0041535906, 0.001302793, -1010442.06, 7106.417, 0.0, 5.0142293, 4.9652944 
2.1309476e+2, 2.0113136e+2, -970253.44, -1056230.4, 127.686386, -0.004283609, 0.009917573, -970253.25, -1337.9547, 0.0, 5.014229, 4.958672 
2.1309486e+2, 2.060903e+2, -920581.7, -1006298.7, -87.99823, -0.00014231946, 0.007920834, -920581.6, -262.7667, 0.0, 5.0142717, 4.958876 
2.1309496e+2, 2.1104924e+2, -871184.06, -956970.8, -191.00104, 0.004210484, 0.0055436483, -871183.7, 538.76013, 0.0, 5.014317, 4.9588766 
2.1309508e+2, 2.1600816e+2, -822454.0, -909099.3, -294.25323, 0.0085580405, 0.0032965331, -822453.0, 673.0012, 0.0, 5.014362, 4.958377 
2.1309488e+2, 2.2096366e+2, -782137.94, -879832.4, -417.26886, 0.010265776, 0.010092708, -782136.1, -7572.394, 0.0, 5.014439, 4.95146 
2.130938e+2, 2.2591566e+2, -731861.94, -829277.3, -278.42325, 0.004062238, 0.009323149, -731861.1, -5824.252, 0.0, 5.0146103, 4.951795 
2.1309264e+2, 2.3086765e+2, -682016.2, -779696.56, -90.310844, -0.0027137431, 0.00823691, -682016.1, -4506.0757, 0.0, 5.0147877, 4.9517984 
2.130915e+2, 2.3581967e+2, -632825.1, -731566.44, 98.67523, -0.009531434, 0.0071323696, -632825.0, -3841.833, 0.0, 5.014964, 4.9513 
2.1309079e+2, 2.4076806e+2, -592400.5, -703090.7, 1059.1956, -0.015075686, 0.01579266, -592390.3, -11900.3125, 0.0, 5.0151677, 4.9439487 
2.1309184e+2, 2.457128e+2, -541324.44, -651786.4, 1540.0782, -0.01594, 0.015486961, -541302.94, -9276.108, 0.0, 5.0155306, 4.944432 
2.1309303e+2, 2.506575e+2, -490829.28, -601905.8, 1524.4141, -0.016427686, 0.014310023, -490808.38, -7245.1074, 0.0, 5.015911, 4.944427 
2.1309422e+2, 2.5560224e+2, -440591.3, -552600.0, 1506.0651, -0.016958747, 0.013447444, -440571.06, -5471.619, 0.0, 5.0162888, 4.9442244 
2.1309534e+2, 2.6054275e+2, -402810.4, -531668.4, 1483.5071, -0.017863048, 0.025618654, -402793.3, -16112.51, 0.0, 5.016699, 4.934001 
2.1309574e+2, 2.6547772e+2, -351894.06, -481462.13, 1453.9712, -0.023801427, 0.024210852, -351877.75, -13546.497, 0.0, 5.0171666, 4.9339166 
2.1309592e+2, 2.7041245e+2, -300822.56, -431069.22, 1418.1234, -0.03252228, 0.019694926, -300807.13, -10821.415, 0.0, 5.017631, 4.9339914 
2.1309601e+2, 2.753471e+2, -249804.42, -380839.28, 1391.8232, -0.043234706, 0.013182433, -249789.64, -8148.9043, 0.0, 5.0180836, 4.934019 
2.1309683e+2, 2.802786e+2, -214780.45, -369137.97, 3652.3486, -0.0648623, 0.05841983, -214694.08, -21367.232, 0.0, 5.019032, 4.9203696 
2.1309675e+2, 2.852071e+2, -158056.92, -299981.6, -228.37148, -0.062190603, 0.08266207, -158056.55, -13014.452, 0.0, 5.018747, 4.9272523 
2.1309584e+2, 2.9013428e+2, -111269.3, -251707.69, -631.0769, -0.047514666, 0.06998094, -111266.46, -14496.516, 0.0, 5.017748, 4.927232 
2.1309483e+2, 2.9506126e+2, -64439.98, -203438.19, -1067.7386, -0.034992125, 0.054631323, -64431.78, -15931.834, 0.0, 5.0167212, 4.9272113 
2.130936e+2, 3.0000618e+2, -7173.4644, -97604.484, -924.70966, -0.02869299, 0.07944665, -7164.01, -7108.1895, 0.0, 5.0157547, 4.956914 
2.1308929e+2, 3.0497572e+2, -6410.05, -90539.52, -1109.2355, -0.052987684, 0.15142111, -6395.4272, -6395.4272, 0.0, 5.0148067, 4.9592733 
2.1308385e+2, 3.099464e+2, -8343.002, -89813.266, -1111.7693, -0.08971828, 0.21699446, -8327.834, -8327.834, 0.0, 5.0137787, 4.9598174 
2.1307799e+2, 3.1491807e+2, -10212.847, -89151.586, -882.8391, -0.1339717, 0.2859691, -10202.974, -10202.974, 0.0, 5.012712, 4.960362 
2.1810731e+2, 1.2152452e+2, -1707795.9, -1738539.1, 455.03683, 0.0070464164, -0.03011707, -1707789.1, 41275.71, 0.0, 5.0136275, 4.993576 
2.1810783e+2, 1.2651686e+2, -1670925.9, -1714951.4, 612.15765, 0.007700524, 0.035146225, -1670917.4, 29214.201, 0.0, 5.0137887, 4.9851565 
2.181076e+2, 1.3150007e+2, -1621443.5, -1665707.8, 556.7009, 0.00059665414, 0.014855315, -1621436.5, 29861.438, 0.0, 5.013946, 4.9851565 
2.1810736e+2, 1.3648325e+2, -1574188.0, -1621013.5, 501.13354, -0.006530846, -0.004210978, -1574182.6, 28282.043, 0.0, 5.0140986, 4.983653 
2.1810731e+2, 1.414645e+2, -1530849.0, -1584101.0, 290.45886, -0.010902188, -0.0023021335, -1530847.4, 22802.205, 0.0, 5.014186, 4.9795256 
2.1810773e+2, 1.4644468e+2, -1481500.1, -1534237.5, 225.79906, -0.009477207, -0.0010919162, -1481499.1, 23344.814, 0.0, 5.0141416, 4.9798117 
2.1810815e+2, 1.5142484e+2, -1432589.3, -1485250.9, 171.75719, -0.007888298, -0.00022577553, -1432588.8, 23449.533, 0.0, 5.0140915, 4.979811 
2.1810858e+2, 1.56405e+2, -1385111.4, -1439243.3, 117.66886, -0.0063087917, 0.0010924657, -1385111.1, 22121.484, 0.0, 5.01404, 4.978816 
2.181089e+2, 1.613812e+2, -1344184.9, -1407109.8, -134.61476, -0.0046468293, 0.0054643964, -1344184.6, 14280.733, 0.0, 5.014021, 4.9731627 
2.1810898e+2, 1.6635397e+2, -1294764.0, -1357627.9, -138.62083, -0.002753788, -0.0015125661, -1294763.6, 14966.541, 0.0, 5.014076, 4.973254 
2.1810904e+2, 1.7132679e+2, -1245475.3, -1308422.5, -73.5376, -0.00086543325, -0.008602611, -1245475.1, 15519.794, 0.0, 5.0141315, 4.9732547 
2.1810912e+2, 1.7629957e+2, -1197333.6, -1261627.1, -8.7129545, 0.001005898, -0.015299818, -1197333.6, 14925.999, 0.0, 5.014184, 4.972448 
2.1810916e+2, 1.8126906e+2, -1157234.8, -1231821.3, 202.23727, 0.0018488732, -0.010598131, -1157234.1, 6323.8906, 0.0, 5.014216, 4.965907 
2.1810913e+2, 1.8623579e+2, -1107966.0, -1182403.8, 274.00024, 0.00027991482, -0.005681035, -1107965.0, 6921.125, 0.0, 5.0142026, 4.965987 
2.1810909e+2, 1.9120255e+2, -1058826.0, -1133231.6, 309.17575, -0.0014131196, -0.00063480926, -1058824.8, 7389.2207, 0.0, 5.0141826, 4.9659877 
2.1810906e+2, 1.9616932e+2, -1010590.75, -1085981.9, 343.9028, -0.0031270182, 0.004739211, -1010589.2, 6952.5747, 0.0, 5.0141582, 4.965338 
2.1810906e+2, 2.0113224e+2, -970594.25, -1056587.1, 136.89926, -0.003570485, 0.015328059, -970594.0, -1686.8856, 0.0, 5.014152, 4.958586 
2.1810907e+2, 2.0609096e+2, -920966.44, -1006772.7, -41.531704, -0.00080924307, 0.012373551, -920966.44, -652.9456, 0.0, 5.0141997, 4.9587474 
2.1810909e+2, 2.1104963e+2, -871564.7, -957442.2, -120.02144, 0.0020842864, 0.008841975, -871564.56, 155.6142, 0.0, 5.0142455, 4.958748 
2.1810909e+2, 2.1600834e+2, -822843.4, -909574.06, -199.39447, 0.0049586366, 0.0054381, -822842.9, 283.9172, 0.0, 5.0142865, 4.958248 
2.1810888e+2, 2.2096364e+2, -782236.2, -879632.06, -244.9117, 0.0056174546, 0.010903289, -782235.56, -7669.193, 0.0, 5.014356, 4.9515657 
2.1810798e+2, 2.2591564e+2, -731844.7, -828731.25, -99.3399, -0.00031379602, 0.008002281, -731844.56, -5807.238, 0.0, 5.0145097, 4.9520283 
2.1810704e+2, 2.3086765e+2, -682084.44, -779188.75, 59.657066, -0.0067446865, 0.0046772915, -682084.4, -4576.3335, 0.0, 5.0146575, 4.952032 
2.181061e+2, 2.3581967e+2, -633009.94, -731110.6, 218.22514, -0.013238005, 0.001313757, -633009.44, -4030.6057, 0.0, 5.0147934, 4.9515343 
2.1810569e+2, 2.4076809e+2, -592918.2, -703088.6, 1235.1925, -0.01828569, 0.0082252165, -592904.3, -12420.4, 0.0, 5.0149446, 4.9440455 
2.1810716e+2, 2.4571295e+2, -542183.25, -652173.6, 1759.5084, -0.018312668, 0.009143055, -542155.1, -10134.463, 0.0, 5.015236, 4.944423 
2.181088e+2, 2.5065783e+2, -491924.63, -602409.06, 1726.4131, -0.018002287, 0.009641044, -491897.66, -8340.657, 0.0, 5.015534, 4.9444156 
2.1811044e+2, 2.5560272e+2, -441952.97, -553231.7, 1682.0035, -0.017771292, 0.010533148, -441927.56, -6834.5107, 0.0, 5.015818, 4.94421 
2.1811202e+2, 2.6054347e+2, -404618.97, -532456.9, 1751.0459, -0.018426843, 0.024948696, -404595.0, -17922.037, 0.0, 5.016072, 4.9340034 
2.1811281e+2, 2.6547846e+2, -354913.44, -482660.28, 2037.956, -0.026574614, 0.02479988, -354880.94, -16560.232, 0.0, 5.0160966, 4.9339714 
2.1811341e+2, 2.7041316e+2, -305614.0, -432950.5, 2353.5967, -0.03813526, 0.0202727, -305570.5, -15597.6, 0.0, 5.015908, 4.9340825 
2.1811388e+2, 2.7534774e+2, -256890.3, -383633.66, 2790.0156, -0.05206233, 0.012907614, -256828.9, -15203.083, 0.0, 5.015516, 4.934146 
2.1811503e+2, 2.802786e+2, -223541.39, -370886.9, 5049.8057, -0.07712913, 0.045479722, -223368.53, -30051.766, 0.0, 5.015583, 4.921244 
2.1811436e+2, 2.8520688e+2, -166682.47, -304708.25, 122.84613, -0.073980264, 0.069607094, -166682.36, -21643.307, 0.0, 5.0160522, 4.9267135 
2.1811262e+2, 2.9013434e+2, -117388.516, -255285.53, -498.2086, -0.05816325, 0.06753064, -117386.71, -20616.662, 0.0, 5.015939, 4.9266925 
2.1811077e+2, 2.950615e+2, -68805.89, -206208.61, -1086.1044, -0.044932418, 0.061592404, -68797.31, -20293.207, 0.0, 5.0155344, 4.9266715 
2.1810852e+2, 3.0000722e+2, -10058.421, -97805.6, -945.27936, -0.039915282, 0.09808403, -10048.239, -9992.4795, 0.0, 5.014753, 4.95719 
2.1810186e+2, 3.0497494e+2, -12186.856, -91722.53, 239.31111, -0.08012378, 0.15615125, -12186.137, -12186.137, 0.0, 5.012796, 4.9596887 
2.1809374e+2, 3.099428e+2, -18779.674, -92248.03, 2411.5881, -0.13713574, 0.19849193, -18700.598, -18700.598, 0.0, 5.0100064, 4.9604883 
2.1808514e+2, 3.1491217e+2, -27152.422, -93648.27, 5495.5615, -0.20300987, 0.24605045, -26701.3, -26701.3, 0.0, 5.0065064, 4.9612894 
2.2312108e+2, 1.215236e+2, -1707088.8, -1739202.3, -148.19861, 0.0059107034, -0.03856168, -1707088.0, 41984.56, 0.0, 5.0140786, 4.9931355 
2.2312169e+2, 1.2651755e+2, -1669925.5, -1714341.8, 126.3949, 0.006799226, 0.042740073, -1669925.1, 30199.309, 0.0, 5.014095, 4.9852066 
2.2312163e+2, 1.3150035e+2, -1620891.8, -1665319.6, 242.34361, 0.00061185774, 0.017936176, -1620890.4, 30404.418, 0.0, 5.0141044, 4.985207 
2.2312155e+2, 1.3648313e+2, -1574069.0, -1620837.6, 357.67114, -0.0055453284, -0.005624779, -1574066.3, 28399.244, 0.0, 5.0141134, 4.9837036 
2.2312158e+2, 1.4146419e+2, -1531060.6, -1584162.5, 229.0746, -0.00941516, -0.006278727, -1531059.6, 22592.887, 0.0, 5.0141063, 4.9795437 
2.2312188e+2, 1.464445e+2, -1481744.5, -1534333.1, 257.78586, -0.008584047, -0.0035955796, -1481743.3, 23102.203, 0.0, 5.014055, 4.9798217 
2.2312221e+2, 1.5142484e+2, -1432844.0, -1485350.9, 313.98996, -0.0076069827, -0.0011244278, -1432842.1, 23196.107, 0.0, 5.014001, 4.9798217 
2.2312252e+2, 1.5640517e+2, -1385371.9, -1439345.4, 370.2567, -0.0066202623, 0.0018014701, -1385369.4, 21861.785, 0.0, 5.013947, 4.9788265 
2.2312278e+2, 1.6138147e+2, -1344483.9, -1407239.1, 221.34259, -0.0053482694, 0.0071893097, -1344483.0, 13979.887, 0.0, 5.0139165, 4.9731693 
2.231229e+2, 1.6635425e+2, -1295167.1, -1357812.0, 129.91553, -0.0033941495, -0.000052529565, -1295166.9, 14561.228, 0.0, 5.0139375, 4.973259 
2.2312301e+2, 1.7132701e+2, -1245973.6, -1308652.9, 85.212944, -0.0013905244, -0.0074518896, -1245973.5, 15019.592, 0.0, 5.01396, 4.973259 
2.2312313e+2, 1.762998e+2, -1197917.5, -1261899.0, 40.54338, 0.0006333381, -0.014460011, -1197917.5, 14340.656, 0.0, 5.0139823, 4.9724517 
2.2312322e+2, 1.8126924e+2, -1157830.6, -1232028.6, 150.78067, 0.0017126205, -0.010087223, -1157830.4, 5726.3994, 0.0, 5.013996, 4.9659414 
2.2312322e+2, 1.8623598e+2, -1108527.9, -1182577.6, 206.15245, 0.00050372444, -0.005483793, -1108527.4, 6357.036, 0.0, 5.0139904, 4.966028 
2.2312321e+2, 1.9120274e+2, -1059348.3, -1133387.4, 235.41046, -0.0007872487, -0.0007491843, -1059347.5, 6864.41, 0.0, 5.0139837, 4.9660287 
2.231232e+2, 1.9616953e+2, -1011060.94, -1086114.0, 264.88147, -0.0020584145, 0.004308644, -1011060.0, 6479.315, 0.0, 5.013977, 4.9653783 
2.231232e+2, 2.0113246e+2, -971069.75, -1056758.8, 129.77274, -0.0024649568, 0.014646987, -971069.56, -2165.1555, 0.0, 5.013977, 4.9586096 
2.2312313e+2, 2.060912e+2, -921525.75, -1007008.2, 115.64585, -0.0007929829, 0.011720356, -921525.56, -1214.9327, 0.0, 5.0140004, 4.9587603 
2.2312307e+2, 2.110499e+2, -872182.1, -957705.1, 192.63826, 0.0010011566, 0.008250656, -872181.7, -464.49698, 0.0, 5.0140257, 4.95876 
2.2312301e+2, 2.160086e+2, -823505.75, -909858.4, 269.84018, 0.0028271142, 0.0049187774, -823504.94, -381.1747, 0.0, 5.014051, 4.95826 
2.231228e+2, 2.2096391e+2, -782919.5, -879858.44, 363.64557, 0.002840554, 0.010226782, -782918.1, -8355.108, 0.0, 5.0140977, 4.9516077 
2.2312209e+2, 2.2591591e+2, -732676.1, -828989.8, 348.72003, -0.0025217084, 0.006618036, -732674.9, -6641.612, 0.0, 5.014191, 4.952086 
2.2312135e+2, 2.308679e+2, -683067.25, -779517.8, 308.66998, -0.008186834, 0.0025694857, -683066.25, -5563.099, 0.0, 5.0142856, 4.9520893 
2.2312059e+2, 2.3581992e+2, -634111.5, -731494.8, 269.4426, -0.013804653, -0.00151599, -634110.75, -5137.7183, 0.0, 5.01438, 4.951591 
2.2312036e+2, 2.407683e+2, -594235.8, -703515.0, 1156.2954, -0.01789123, 0.004300885, -594223.56, -13745.71, 0.0, 5.014438, 4.9441304 
2.2312202e+2, 2.4571314e+2, -544531.6, -653168.2, 1759.5851, -0.017108062, 0.0044468413, -544503.1, -12487.68, 0.0, 5.014379, 4.944471 
2.231238e+2, 2.50658e+2, -495314.9, -603909.2, 1848.8807, -0.015892701, 0.0045235986, -495283.44, -11730.85, 0.0, 5.01431, 4.9444532 
2.2312559e+2, 2.5560293e+2, -446345.3, -555216.75, 1938.7429, -0.014617612, 0.005141355, -446310.78, -11221.447, 0.0, 5.0142393, 4.9442377 
2.231273e+2, 2.6054382e+2, -409157.78, -533669.4, 2316.0535, -0.014366892, 0.019689173, -409114.72, -22447.139, 0.0, 5.0142627, 4.934419 
2.231284e+2, 2.6547936e+2, -358297.63, -482529.3, 3191.0837, -0.021107972, 0.018863931, -358215.72, -19908.748, 0.0, 5.014542, 4.934753 
2.2312935e+2, 2.7041456e+2, -307559.6, -431968.03, 3991.8384, -0.029046483, 0.011603815, -307431.66, -17481.178, 0.0, 5.0148363, 4.934952 
2.2313021e+2, 2.7534968e+2, -256844.61, -381597.1, 4811.8643, -0.03716762, -0.00040263173, -256659.28, -15064.327, 0.0, 5.0151296, 4.9351034 
2.2313158e+2, 2.8028032e+2, -223622.27, -367767.4, 6563.4175, -0.051723722, 0.014619389, -223324.03, -30038.877, 0.0, 5.0151873, 4.922588 
2.2313027e+2, 2.8520817e+2, -172428.72, -308852.66, 2146.6345, -0.054447018, 0.03975638, -172394.94, -27380.787, 0.0, 5.0147605, 4.925838 
2.2312786e+2, 2.9013544e+2, -123673.516, -259476.8, 1075.2529, -0.048813332, 0.04968873, -123665.0, -26915.207, 0.0, 5.014392, 4.925842 
2.2312537e+2, 2.9506224e+2, -74863.016, -210141.97, 34.60377, -0.043032337, 0.053045254, -74863.01, -26372.846, 0.0, 5.01402, 4.925846 
2.231224e+2, 3.0000815e+2, -12382.012, -95373.98, -291.1541, -0.042038713, 0.0953511, -12380.99, -12339.83, 0.0, 5.013676, 4.958405 
2.2311476e+2, 3.049757e+2, -7369.9043, -82402.945, 941.41254, -0.08051209, 0.13428019, -7358.0947, -7358.0947, 0.0, 5.013741, 4.9626055 
2.2310583e+2, 3.0994388e+2, -5383.719, -77558.18, 2396.6643, -0.127783, 0.15408966, -5304.222, -5304.222, 0.0, 5.013909, 4.964086 
2.230967e+2, 3.1491473e+2, -3187.4458, -72926.195, 3887.1091, -0.17565463, 0.1820809, -2971.4546, -2971.4546, 0.0, 5.0140724, 4.965568 
2.281348e+2, 1.21522896e+2, -1708217.8, -1741495.0, -146.54367, 0.0022835745, -0.041238908, -1708217.1, 40861.7, 0.0, 5.014078, 4.992382 
2.2813553e+2, 1.2651761e+2, -1669704.5, -1713888.0, 131.53792, 0.0041492973, 0.04705493, -1669704.1, 30420.201, 0.0, 5.0140944, 4.985356 
2.2813568e+2, 1.3150024e+2, -1620671.4, -1664867.8, 249.20271, 0.000102677084, 0.019085003, -1620670.0, 30626.13, 0.0, 5.014104, 4.985356 
2.2813584e+2, 1.3648286e+2, -1573849.0, -1620387.5, 366.24875, -0.0039366875, -0.007646086, -1573846.1, 28621.922, 0.0, 5.0141134, 4.9838524 
2.2813597e+2, 1.4146385e+2, -1530929.1, -1583891.8, 198.89412, -0.0066540367, -0.010110271, -1530928.5, 22727.05, 0.0, 5.0141063, 4.9796333 
2.2813614e+2, 1.4644435e+2, -1481637.9, -1534112.6, 216.37016, -0.006673337, -0.006321723, -1481637.0, 23209.568, 0.0, 5.014055, 4.979895 
2.281363e+2, 1.5142488e+2, -1432737.9, -1485130.9, 273.31287, -0.006616165, -0.0026496905, -1432736.5, 23300.947, 0.0, 5.014001, 4.9798946 
2.2813648e+2, 1.564054e+2, -1385266.3, -1439125.9, 330.3277, -0.0065554976, 0.0014747197, -1385264.3, 21964.16, 0.0, 5.013947, 4.9788995 
2.2813663e+2, 1.6138186e+2, -1344519.9, -1407314.6, 224.63698, -0.0059767966, 0.008001337, -1344519.1, 13939.729, 0.0, 5.0139165, 4.973144 
2.2813676e+2, 1.6635467e+2, -1295246.0, -1357977.9, 147.04959, -0.00418215, 0.0018518611, -1295245.8, 14478.277, 0.0, 5.0139375, 4.9732037 
2.2813688e+2, 1.713275e+2, -1246051.9, -1308818.3, 103.3828, -0.0023315165, -0.00444972, -1246051.8, 14937.31, 0.0, 5.01396, 4.9732037 
2.28137e+2, 1.7630033e+2, -1197995.1, -1262063.9, 59.746407, -0.0004748853, -0.01036109, -1197995.1, 14259.015, 0.0, 5.0139823, 4.9723964 
2.2813712e+2, 1.8126978e+2, -1157803.9, -1231970.1, 150.23416, 0.0006509739, -0.0059193783, -1157803.6, 5749.5483, 0.0, 5.0139956, 4.965961 
2.2813717e+2, 1.8623632e+2, -1108473.9, -1182459.8, 201.4857, 0.000011882361, -0.0035673233, -1108473.3, 6408.6943, 0.0, 5.01399, 4.9660683 
2.2813721e+2, 1.912029e+2, -1059294.6, -1133269.4, 232.14436, -0.0007052025, -0.0011710816, -1059293.9, 6916.812, 0.0, 5.0139832, 4.9660687 
2.2813725e+2, 1.9616948e+2, -1011007.8, -1085996.0, 263.01715, -0.0014202464, 0.0015478892, -1011006.94, 6532.4736, 0.0, 5.0139766, 4.965419 
2.2813727e+2, 2.0113231e+2, -970947.8, -1056495.6, 138.80014, -0.0016747956, 0.010300084, -970947.56, -2042.7314, 0.0, 5.013977, 4.958699 
2.2813715e+2, 2.060912e+2, -921389.25, -1006714.9, 134.04858, -0.00081464346, 0.008019376, -921389.0, -1079.8855, 0.0, 5.0140004, 4.9588604 
2.2813703e+2, 2.110501e+2, -872046.44, -957412.4, 213.06651, 0.000100169564, 0.0053404425, -872045.9, -332.27902, 0.0, 5.0140257, 4.9588604 
2.281369e+2, 2.1600898e+2, -823370.8, -909566.1, 292.2922, 0.0010223682, 0.0027982974, -823369.8, -251.75775, 0.0, 5.014051, 4.9583607 
2.2813667e+2, 2.2096442e+2, -782914.8, -879842.2, 426.73413, 0.0004824082, 0.00867515, -782912.94, -8357.124, 0.0, 5.0140967, 4.9516134 
2.281361e+2, 2.2591639e+2, -732740.0, -829118.56, 423.90994, -0.00428738, 0.0053496487, -732738.1, -6712.1265, 0.0, 5.0141892, 4.9520426 
2.2813553e+2, 2.3086838e+2, -683131.94, -779645.25, 387.15433, -0.009305914, 0.0016151363, -683130.4, -5634.5205, 0.0, 5.014283, 4.952047 
2.2813495e+2, 2.3582037e+2, -634177.1, -731621.06, 351.21503, -0.014308977, -0.0021512096, -634175.9, -5210.0737, 0.0, 5.014377, 4.951549 
2.2813486e+2, 2.407687e+2, -594131.2, -703237.8, 1162.6465, -0.017831149, 0.0031839062, -594118.75, -13647.803, 0.0, 5.014432, 4.944228 
2.2813646e+2, 2.4571347e+2, -544378.94, -652772.0, 1706.7577, -0.016695246, 0.0011699825, -544352.06, -12342.351, 0.0, 5.0143714, 4.9446106 
2.281382e+2, 2.5065827e+2, -495161.9, -603510.94, 1801.5457, -0.015203206, -0.00093772693, -495131.97, -11583.911, 0.0, 5.0143023, 4.944594 
2.2813992e+2, 2.5560308e+2, -446192.03, -554816.4, 1896.903, -0.013699019, -0.002525997, -446158.9, -11072.874, 0.0, 5.014232, 4.9443793 
2.2814155e+2, 2.6054415e+2, -408312.53, -531676.0, 2465.659, -0.014368031, 0.010714048, -408263.28, -21601.18, 0.0, 5.0142527, 4.935123 
2.2814262e+2, 2.6548088e+2, -357007.28, -479421.25, 3515.491, -0.025874184, 0.012365743, -356906.4, -18620.135, 0.0, 5.014519, 4.935867 
2.2814359e+2, 2.7041736e+2, -306312.0, -428844.06, 4399.288, -0.038920864, 0.008080817, -306154.28, -16241.347, 0.0, 5.0148005, 4.9360785 
2.2814447e+2, 2.7535376e+2, -255639.83, -378457.06, 5302.3135, -0.052250184, -0.0008399689, -255411.34, -13871.007, 0.0, 5.015081, 4.9362426 
2.2814564e+2, 2.8028506e+2, -222642.94, -365579.63, 5023.509, -0.061983578, 0.008552734, -222466.61, -29245.633, 0.0, 5.015195, 4.9233704 
2.281439e+2, 2.8521174e+2, -173518.94, -311794.94, 1423.4609, -0.060660563, 0.028036311, -173504.3, -28542.254, 0.0, 5.014815, 4.924829 
2.2814107e+2, 2.901379e+2, -124769.84, -262350.38, 454.4628, -0.058755897, 0.038502168, -124768.34, -28058.252, 0.0, 5.014438, 4.924852 
2.2813813e+2, 2.9506356e+2, -75965.555, -212947.17, -483.7541, -0.056867354, 0.042257383, -75963.85, -27501.004, 0.0, 5.014058, 4.924875 
2.2813468e+2, 3.000088e+2, -11057.135, -92285.81, -763.0674, -0.05975846, 0.08276084, -11049.967, -11030.504, 0.0, 5.01369, 4.9595604 
2.2812669e+2, 3.0497694e+2, -4630.919, -75647.61, 964.304, -0.103428885, 0.1119737, -4617.8276, -4617.8276, 0.0, 5.013705, 4.9652157 
2.2811756e+2, 3.0994597e+2, -2789.5078, -70861.54, 2853.8796, -0.15631661, 0.123156816, -2670.07, -2670.07, 0.0, 5.0138307, 4.9666996 
2.2810817e+2, 3.149178e+2, -738.6963, -66287.29, 4778.242, -0.21014489, 0.14365049, -392.21216, -392.21216, 0.0, 5.0139523, 4.968185 
2.3314852e+2, 1.215221e+2, -1709249.5, -1743589.3, -147.17796, -0.0015213655, -0.04472489, -1709248.9, 39836.91, 0.0, 5.0140777, 4.9916935 
2.3314935e+2, 1.2651767e+2, -1669484.0, -1713433.9, 137.10675, 0.0014947479, 0.051428672, -1669483.6, 30640.568, 0.0, 5.014094, 4.985505 
2.3314974e+2, 1.3150014e+2, -1620451.5, -1664415.6, 256.48746, -0.00040891574, 0.020267777, -1620450.0, 30847.324, 0.0, 5.014104, 4.985505 
2.3315011e+2, 1.3648258e+2, -1573629.6, -1619936.9, 375.25192, -0.0023282513, -0.009658381, -1573626.6, 28844.092, 0.0, 5.014114, 4.984001 
2.3315036e+2, 1.4146352e+2, -1530803.3, -1583632.1, 168.29576, -0.0038931714, -0.01392009, -1530802.8, 22855.684, 0.0, 5.0141063, 4.979719 
2.331504e+2, 1.464442e+2, -1481531.5, -1533892.0, 174.96132, -0.004763097, -0.00903193, -1481530.9, 23316.803, 0.0, 5.014055, 4.979968 
2.3315041e+2, 1.5142493e+2, -1432632.0, -1484910.8, 232.64258, -0.0056257495, -0.0041735675, -1432631.0, 23405.66, 0.0, 5.014001, 4.979968 
2.3315044e+2, 1.5640564e+2, -1385160.9, -1438906.4, 290.40543, -0.0064910688, 0.0011348042, -1385159.3, 22066.412, 0.0, 5.0139475, 4.978973 
2.331505e+2, 1.6138224e+2, -1344560.4, -1407398.6, 227.7074, -0.0066037076, 0.008830901, -1344559.5, 13895.219, 0.0, 5.0139165, 4.973116 
2.3315062e+2, 1.6635512e+2, -1295325.3, -1358143.5, 164.20569, -0.0049678907, 0.003772672, -1295324.9, 14395.02, 0.0, 5.0139375, 4.9731483 
2.3315075e+2, 1.7132801e+2, -1246130.5, -1308983.4, 121.57473, -0.0032702459, -0.0014457044, -1246130.3, 14854.727, 0.0, 5.01396, 4.9731483 
2.3315088e+2, 1.7630088e+2, -1198073.1, -1262228.5, 78.97154, -0.0015808436, -0.006274897, -1198073.0, 14177.08, 0.0, 5.0139823, 4.972341 
2.3315102e+2, 1.812703e+2, -1157782.4, -1231922.1, 149.27455, -0.0004087452, -0.001726629, -1157782.0, 5767.46, 0.0, 5.013995, 4.965977 
2.3315111e+2, 1.8623666e+2, -1108420.1, -1182341.5, 196.62721, -0.0004798295, -0.0016292984, -1108419.6, 6459.9546, 0.0, 5.0139894, 4.9661083 
2.331512e+2, 1.9120303e+2, -1059241.4, -1133151.3, 228.6865, -0.0006247786, -0.0015936475, -1059240.8, 6968.8257, 0.0, 5.013983, 4.966109 
2.3315129e+2, 1.9616942e+2, -1010955.1, -1085877.8, 260.96097, -0.00078545336, -0.0012357582, -1010954.2, 6585.253, 0.0, 5.0139756, 4.9654593 
2.3315133e+2, 2.0113216e+2, -970836.1, -1056253.9, 148.24928, -0.0008880735, 0.005992929, -970835.9, -1930.606, 0.0, 5.0139766, 4.9587812 
2.3315115e+2, 2.0609121e+2, -921253.25, -1006421.25, 152.30994, -0.0008423501, 0.0043604914, -921253.0, -945.3845, 0.0, 5.0140004, 4.9589605 
2.3315097e+2, 2.1105027e+2, -871911.25, -957119.25, 233.35327, -0.00081021216, 0.002440139, -871910.56, -200.5917, 0.0, 5.014026, 4.9589605 
2.3315077e+2, 2.1600933e+2, -823236.4, -909273.5, 314.6026, -0.00079512096, 0.0006555418, -823235.25, -122.85561, 0.0, 5.014051, 4.958461 
2.3315054e+2, 2.2096491e+2, -782917.56, -879841.2, 488.13797, -0.0018710011, 0.0071492787, -782915.06, -8366.497, 0.0, 5.014096, 4.951614 
2.3315012e+2, 2.2591688e+2, -732804.56, -829246.75, 498.47385, -0.0060423133, 0.0040858435, -732802.0, -6783.2964, 0.0, 5.0141873, 4.9519987 
2.3314972e+2, 2.3086885e+2, -683197.44, -779772.25, 465.0128, -0.0104169855, 0.0006010916, -683195.2, -5706.5576, 0.0, 5.0142813, 4.9520035 
2.3314929e+2, 2.3582081e+2, -634243.5, -731746.75, 432.3617, -0.014808021, -0.0029104014, -634241.56, -5283.0054, 0.0, 5.0143743, 4.9515057 
2.3314933e+2, 2.4076913e+2, -594063.7, -703041.2, 1164.3584, -0.017784256, 0.0022635818, -594051.25, -13587.289, 0.0, 5.0144258, 4.9442973 
2.3315091e+2, 2.4571382e+2, -544227.75, -652374.7, 1652.4523, -0.016298536, -0.0018095797, -544202.5, -12198.727, 0.0, 5.014364, 4.9447494 
2.3315257e+2, 2.506585e+2, -495010.4, -603111.5, 1752.732, -0.014524036, -0.006210079, -494982.0, -11438.635, 0.0, 5.0142946, 4.944733 
2.3315424e+2, 2.5560325e+2, -446040.22, -554414.8, 1853.584, -0.012784976, -0.010112704, -446008.5, -10925.917, 0.0, 5.014225, 4.944519 
2.3315577e+2, 2.6054442e+2, -407493.06, -529736.1, 2603.4346, -0.014354764, 0.0013414423, -407437.63, -20780.582, 0.0, 5.0142426, 4.935798 
2.3315683e+2, 2.6548225e+2, -355721.7, -476315.28, 3822.2153, -0.030710638, 0.0035262248, -355600.7, -17333.965, 0.0, 5.0144963, 4.9369516 
2.3315775e+2, 2.7041996e+2, -305068.9, -425721.9, 4789.016, -0.048972707, 0.00013621319, -304879.1, -15001.949, 0.0, 5.014765, 4.9371758 
2.3315863e+2, 2.7535763e+2, -254439.2, -375318.63, 5774.999, -0.0676174, -0.007778868, -254163.94, -12675.808, 0.0, 5.015032, 4.9373527 
2.3315975e+2, 2.8028992e+2, -223020.69, -366524.34, 3551.551, -0.07195989, 0.004705539, -222932.84, -29777.047, 0.0, 5.015203, 4.923046 
2.3315763e+2, 2.8521565e+2, -174616.05, -314735.1, 667.18933, -0.066256985, 0.02414883, -174612.88, -29706.156, 0.0, 5.0148697, 4.92379 
2.3315436e+2, 2.9014054e+2, -125872.74, -265221.47, -199.364, -0.06827615, 0.032143407, -125872.46, -29204.068, 0.0, 5.0144844, 4.923831 
2.3315099e+2, 2.95065e+2, -77074.36, -215749.52, -1035.0924, -0.07047488, 0.03329251, -77066.63, -28631.912, 0.0, 5.0140963, 4.9238725 
2.3314703e+2, 3.0000904e+2, -10206.259, -90294.11, -1259.0876, -0.07717738, 0.06795122, -10186.47, -10184.837, 0.0, 5.013704, 4.960283 
2.3313864e+2, 3.0497718e+2, -1901.4973, -68895.17, 985.06445, -0.12558042, 0.0764125, -1887.0161, -1887.0161, 0.0, 5.0136685, 4.9676905 
2.3312925e+2, 3.0994657e+2, -204.74211, -64167.87, 3308.4236, -0.18368793, 0.06570468, -34.07288, -34.07288, 0.0, 5.0137525, 4.9691777 
2.3311956e+2, 3.1491882e+2, 1700.5662, -59651.293, 5666.1816, -0.24307588, 0.06543517, 2219.4802, 2219.4802, 0.0, 5.0138316, 4.9706664 
2.3816222e+2, 1.2152123e+2, -1710201.1, -1745486.4, -128.04906, -0.0054210285, -0.04890547, -1710200.6, 38893.035, 0.0, 5.014071, 4.991073 
2.3816319e+2, 1.2651773e+2, -1669308.4, -1713000.1, 167.61713, -0.0011277624, 0.055765215, -1669307.8, 30816.363, 0.0, 5.0140786, 4.9856544 
2.3816378e+2, 1.3150004e+2, -1620320.1, -1664005.5, 287.9135, -0.00091867446, 0.021453142, -1620318.3, 30980.28, 0.0, 5.0140743, 4.985654 
2.3816438e+2, 1.3648231e+2, -1573559.4, -1619558.3, 407.53864, -0.0007356507, -0.011627779, -1573555.8, 28917.43, 0.0, 5.0140643, 4.9841495 
2.3816474e+2, 1.4146319e+2, -1530878.8, -1583480.0, 159.56276, -0.0011503939, -0.017637996, -1530878.3, 22783.041, 0.0, 5.014041, 4.9798007 
2.3816463e+2, 1.4644407e+2, -1481613.0, -1533764.4, 148.86096, -0.002856348, -0.011677702, -1481612.6, 23236.11, 0.0, 5.0139923, 4.98004 
2.3816451e+2, 1.5142497e+2, -1432708.6, -1484781.0, 199.3626, -0.0046205777, -0.0056698527, -1432707.9, 23327.947, 0.0, 5.0139403, 4.98004 
2.381644e+2, 1.5640587e+2, -1385237.0, -1438776.3, 249.72545, -0.0063906615, 0.0007866507, -1385235.9, 21987.076, 0.0, 5.0138865, 4.979045 
2.3816435e+2, 1.6138263e+2, -1344778.5, -1407575.0, 225.788, -0.0071821003, 0.009664495, -1344777.6, 13673.014, 0.0, 5.013858, 4.973085 
2.3816447e+2, 1.6635557e+2, -1295554.1, -1358380.5, 178.32712, -0.005718978, 0.005687492, -1295553.6, 14162.23, 0.0, 5.0138865, 4.973093 
2.3816463e+2, 1.7132849e+2, -1246343.6, -1309212.1, 138.26881, -0.004182637, 0.0015310172, -1246343.4, 14637.626, 0.0, 5.013914, 4.973093 
2.3816477e+2, 1.7630142e+2, -1198280.4, -1262453.9, 98.138626, -0.0026614838, -0.0022358436, -1198280.3, 13965.927, 0.0, 5.0139384, 4.9722857 
2.3816492e+2, 1.8127082e+2, -1157902.4, -1231949.5, 149.00008, -0.0014424397, 0.0024584332, -1157902.1, 5643.7646, 0.0, 5.0139484, 4.96599 
2.3816505e+2, 1.8623699e+2, -1108532.4, -1182302.5, 190.7315, -0.0009486628, 0.0003175447, -1108531.9, 6345.214, 0.0, 5.013932, 4.966148 
2.381652e+2, 1.9120319e+2, -1059398.0, -1133132.9, 221.7605, -0.0005137372, -0.0020104626, -1059397.3, 6811.0605, 0.0, 5.0139103, 4.9661484 
2.3816535e+2, 1.9616938e+2, -1011169.6, -1085886.4, 252.76239, -0.000101132784, -0.00401878, -1011168.75, 6370.715, 0.0, 5.0138836, 4.965499 
2.381654e+2, 2.0113201e+2, -971049.1, -1056182.8, 150.50511, -0.000031483185, 0.00175514, -971048.9, -2143.2507, 0.0, 5.0138683, 4.9588556 
2.3816516e+2, 2.0609125e+2, -921432.94, -1006276.9, 155.49945, -0.0008016982, 0.0007632034, -921432.6, -1126.613, 0.0, 5.013892, 4.9590592 
2.381649e+2, 2.1105048e+2, -872108.1, -956982.5, 230.13887, -0.0016425963, -0.00044015615, -872107.5, -401.11023, 0.0, 5.0139112, 4.9590597 
2.3816466e+2, 2.160097e+2, -823469.44, -909152.9, 304.9416, -0.0025114573, -0.0015080965, -823468.3, -361.61365, 0.0, 5.0139236, 4.95856 
2.3816441e+2, 2.2096542e+2, -783344.0, -880049.0, 511.3977, -0.0040798695, 0.005645147, -783341.3, -8799.945, 0.0, 5.01395, 4.9516087 
2.3816417e+2, 2.2591735e+2, -733344.2, -829596.6, 533.36865, -0.0076449015, 0.0028327797, -733341.25, -7329.846, 0.0, 5.01402, 4.951954 
2.381639e+2, 2.3086931e+2, -683826.4, -780163.06, 495.8914, -0.011357856, -0.00045611986, -683823.8, -6342.405, 0.0, 5.0140815, 4.9519577 
2.3816365e+2, 2.3582126e+2, -634993.0, -732192.44, 454.91684, -0.0150977895, -0.0037686322, -634990.9, -6039.488, 0.0, 5.0141315, 4.9514604 
2.3816381e+2, 2.4076958e+2, -594857.8, -703313.7, 1084.114, -0.017497662, 0.0015711634, -594847.0, -14390.141, 0.0, 5.0141287, 4.9443355 
2.3816533e+2, 2.4571417e+2, -545066.75, -652437.4, 1483.3328, -0.015633313, -0.004441319, -545046.3, -13048.516, 0.0, 5.014006, 4.9448843 
2.3816694e+2, 2.5065878e+2, -496058.63, -603260.94, 1557.9178, -0.013503549, -0.011240411, -496035.97, -12497.323, 0.0, 5.013862, 4.9448705 
2.3816855e+2, 2.5560343e+2, -447341.03, -554669.3, 1639.7637, -0.011418292, -0.017585356, -447315.97, -12236.778, 0.0, 5.013701, 4.9446588 
2.3817e+2, 2.605447e+2, -408713.66, -528804.5, 2484.6028, -0.013606107, -0.008365896, -408662.25, -22009.605, 0.0, 5.0135245, 4.9364257 
2.3817103e+2, 2.6548347e+2, -358351.0, -475108.1, 3499.231, -0.03393447, -0.0071689207, -358246.22, -19997.57, 0.0, 5.0130982, 4.9379554 
2.3817194e+2, 2.704223e+2, -310386.38, -425734.63, 3970.3147, -0.05612806, -0.011098798, -310249.88, -20406.053, 0.0, 5.0124063, 4.93817 
2.3817278e+2, 2.7536112e+2, -263103.63, -376826.53, 4260.5415, -0.07842669, -0.01925472, -262944.22, -21504.822, 0.0, 5.0114703, 4.938337 
2.3817393e+2, 2.8029472e+2, -237035.17, -376085.72, -381.05273, -0.075455844, 0.0056044864, -237034.13, -43942.95, 0.0, 5.010775, 4.921608 
2.3817153e+2, 2.8521973e+2, -184769.39, -321577.9, -2038.8014, -0.06659439, 0.029734468, -184739.02, -39889.277, 0.0, 5.0115986, 4.9227653 
2.381678e+2, 2.9014328e+2, -133138.8, -270761.44, -2289.175, -0.074115865, 0.031663314, -133100.72, -36474.78, 0.0, 5.0122533, 4.9228086 
2.3816398e+2, 2.9506636e+2, -82392.055, -220403.36, -2661.4583, -0.08146309, 0.02705075, -82340.75, -33934.156, 0.0, 5.012572, 4.922852 
2.3815946e+2, 3.0000886e+2, -13462.108, -91243.97, -2800.7397, -0.092017755, 0.05224145, -13361.391, -13361.391, 0.0, 5.0123954, 4.9604797 
2.3815076e+2, 3.0497628e+2, -6401.8477, -65950.25, -1512.7988, -0.14247109, 0.030244391, -6363.4404, -6363.4404, 0.0, 5.011042, 4.9697723 
2.3814113e+2, 3.099452e+2, -11037.162, -64142.613, -985.8492, -0.20156881, -0.015209084, -11018.867, -11018.867, 0.0, 5.0088243, 4.9711776 
2.3813125e+2, 3.1491685e+2, -17703.59, -63479.793, -984.4862, -0.26091996, -0.05029658, -17682.426, -17682.426, 0.0, 5.0057836, 4.9725842 
2.4317628e+2, 1.2152132e+2, -1709892.9, -1746395.0, 12.055743, -0.007134287, -0.04507963, -1709892.9, 39200.01, 0.0, 5.0144014, 4.9906116 
2.431772e+2, 1.2651731e+2, -1668544.1, -1712282.9, 301.52402, -0.0027061957, 0.05360035, -1668542.0, 31587.059, 0.0, 5.0142593, 4.985801 
2.431778e+2, 1.3149987e+2, -1620006.4, -1663512.4, 412.38846, -0.0015806385, 0.020546967, -1620002.5, 31298.105, 0.0, 5.0141068, 4.9858007 
2.4317841e+2, 1.3648243e+2, -1573676.0, -1619278.0, 522.9182, -0.0004151331, -0.011273372, -1573670.0, 28802.266, 0.0, 5.013954, 4.984296 
2.4317876e+2, 1.4146349e+2, -1531396.0, -1583612.6, 291.5206, -0.00011294084, -0.016578551, -1531394.4, 22264.02, 0.0, 5.013843, 4.9798527 
2.4317862e+2, 1.4644435e+2, -1482121.8, -1533947.1, 239.36374, -0.0017636144, -0.011064423, -1482120.6, 22725.18, 0.0, 5.013808, 4.9800687 
2.4317847e+2, 1.5142524e+2, -1433161.6, -1484936.6, 239.53096, -0.0034782798, -0.005531256, -1433160.5, 22872.537, 0.0, 5.0137744, 4.980068 
2.431783e+2, 1.5640613e+2, -1385630.1, -1438903.1, 239.80215, -0.0051840576, 0.00045707542, -1385629.1, 21591.186, 0.0, 5.0137405, 4.9790726 
2.4317822e+2, 1.6138287e+2, -1345184.1, -1407837.3, 241.00597, -0.0061191446, 0.009231834, -1345183.1, 13264.975, 0.0, 5.0137343, 4.973057 
2.4317834e+2, 1.6635583e+2, -1295895.4, -1358649.6, 216.84306, -0.0053016897, 0.005988455, -1295894.6, 13818.697, 0.0, 5.0137925, 4.9730477 
2.4317847e+2, 1.713288e+2, -1246586.6, -1309432.9, 184.34288, -0.0043963864, 0.0026105726, -1246586.0, 14392.465, 0.0, 5.013853, 4.9730477 
2.4317859e+2, 1.7630178e+2, -1198416.1, -1262622.4, 151.83348, -0.003469644, -0.00036660684, -1198415.8, 13827.95, 0.0, 5.0139136, 4.9722404 
2.4317873e+2, 1.8127117e+2, -1157948.6, -1231932.6, 143.87234, -0.002440829, 0.0045530433, -1157948.4, 5595.1387, 0.0, 5.013924, 4.966007 
2.4317889e+2, 1.8623728e+2, -1108834.9, -1182366.8, 159.37924, -0.0011599656, 0.0013386117, -1108834.5, 6040.518, 0.0, 5.013811, 4.9661837 
2.4317905e+2, 1.9120337e+2, -1059981.6, -1133331.4, 184.59581, 0.00016504638, -0.0021188797, -1059981.1, 6225.4136, 0.0, 5.013692, 4.966184 
2.431792e+2, 1.9616948e+2, -1012018.6, -1086210.9, 210.04315, 0.001525506, -0.0052647605, -1012018.06, 5519.8975, 0.0, 5.013572, 4.9655337 
2.4317925e+2, 2.0113207e+2, -972073.6, -1056552.1, 153.30698, 0.0021307499, -0.00038332323, -972073.3, -3169.1782, 0.0, 5.0134883, 4.9589067 
2.4317896e+2, 2.0609134e+2, -922495.94, -1006646.2, 132.79247, 0.0007060909, -0.001578873, -922495.75, -2191.9102, 0.0, 5.013494, 4.9591174 
2.4317867e+2, 2.1105061e+2, -873193.75, -957359.56, 157.23148, -0.0007873675, -0.0029354605, -873193.44, -1490.0281, 0.0, 5.0135045, 4.959118 
2.4317835e+2, 2.1600989e+2, -824558.6, -909528.9, 181.96045, -0.0022396657, -0.0041462593, -824558.25, -1455.2975, 0.0, 5.0135145, 4.9586186 
2.4317811e+2, 2.2096564e+2, -784564.7, -880561.9, 371.72992, -0.0039657247, 0.003000516, -784563.25, -10026.457, 0.0, 5.0135098, 4.951634 
2.4317797e+2, 2.2591765e+2, -734933.6, -830350.1, 447.83368, -0.006619166, 0.00074886635, -734931.5, -8925.356, 0.0, 5.0134616, 4.951949 
2.4317782e+2, 2.3086965e+2, -685730.8, -781071.8, 471.0991, -0.009256988, -0.0019137686, -685728.5, -8253.07, 0.0, 5.0134096, 4.9519496 
2.4317765e+2, 2.3582165e+2, -637178.9, -733240.0, 495.47934, -0.0118164625, -0.0045938143, -637176.3, -8231.5205, 0.0, 5.013357, 4.9514484 
2.4317783e+2, 2.4076998e+2, -597438.0, -704705.7, 1021.91516, -0.013488756, 0.0014825391, -597428.3, -16978.316, 0.0, 5.0132384, 4.94426 
2.4317902e+2, 2.4571449e+2, -548195.1, -654059.25, 1111.9673, -0.0124675995, -0.004849372, -548183.44, -16190.824, 0.0, 5.01291, 4.9448175 
2.4318026e+2, 2.5065896e+2, -499721.13, -605087.3, 929.27997, -0.011096535, -0.012374092, -499712.94, -16177.39, 0.0, 5.0125623, 4.9448133 
2.4318151e+2, 2.5560346e+2, -451490.63, -556676.25, 748.41345, -0.009566002, -0.019618409, -451485.3, -16407.053, 0.0, 5.0122113, 4.944611 
2.4318264e+2, 2.605446e+2, -412768.53, -529460.7, 1321.1388, -0.011365842, -0.012496869, -412753.6, -26101.06, 0.0, 5.011797, 4.9369454 
2.4318348e+2, 2.6548383e+2, -363103.88, -475595.03, 2482.8765, -0.026845649, -0.015016733, -363049.1, -24808.865, 0.0, 5.010972, 4.93871 
2.4318425e+2, 2.7042317e+2, -315759.66, -426876.75, 3421.7048, -0.041788243, -0.020937897, -315654.4, -25828.012, 0.0, 5.010082, 4.9387836 
2.4318498e+2, 2.7536246e+2, -268444.84, -378292.56, 4387.1045, -0.05485382, -0.02938302, -268269.94, -26856.44, 0.0, 5.009179, 4.93881 
2.4318604e+2, 2.8029686e+2, -242630.45, -381807.88, 1013.44324, -0.04123299, 0.009583536, -242623.08, -49569.43, 0.0, 5.00904, 4.920234 
2.4318372e+2, 2.85222e+2, -189270.1, -324896.9, -3.6025739, -0.03861372, 0.038964678, -189270.1, -44457.35, 0.0, 5.009702, 4.9222884 
2.431801e+2, 2.9014516e+2, -138714.95, -274948.1, -782.27637, -0.05456882, 0.03693547, -138710.45, -42116.06, 0.0, 5.010027, 4.922249 
2.4317643e+2, 2.9506803e+2, -88144.016, -225028.52, -1482.5925, -0.067602254, 0.031488847, -88127.96, -39749.01, 0.0, 5.0103197, 4.922209 
2.431722e+2, 3.0000955e+2, -17515.35, -94718.93, -2067.529, -0.07845082, 0.050741583, -17460.021, -17460.021, 0.0, 5.010594, 4.9601097 
2.4316418e+2, 3.0497614e+2, -6102.32, -66492.195, -614.06866, -0.112320945, 0.011065615, -6096.076, -6096.076, 0.0, 5.010412, 4.96993 
2.4315546e+2, 3.0994368e+2, -5971.248, -64240.86, 693.5131, -0.1459672, -0.055317365, -5962.995, -5962.995, 0.0, 5.010064, 4.970689 
2.4314667e+2, 3.1491247e+2, -5763.758, -62066.28, 1827.1216, -0.17254418, -0.1182955, -5704.527, -5704.527, 0.0, 5.009673, 4.9714484 
2.481906e+2, 1.2152197e+2, -1710414.9, -1747456.9, -80.0573, -0.008174684, -0.036688466, -1710414.8, 38672.297, 0.0, 5.0144014, 4.9902635 
2.4819134e+2, 1.2651661e+2, -1668330.6, -1711846.5, 183.28305, -0.0039029883, 0.04750492, -1668329.9, 31807.307, 0.0, 5.0142593, 4.985945 
2.4819183e+2, 1.3149972e+2, -1619793.8, -1663078.1, 295.88004, -0.0024150629, 0.018387582, -1619791.8, 31511.229, 0.0, 5.0141068, 4.985944 
2.4819233e+2, 1.364828e+2, -1573464.3, -1618845.5, 408.18903, -0.0009076113, -0.0094989985, -1573460.6, 29008.553, 0.0, 5.013954, 4.984439 
2.481926e+2, 1.4146419e+2, -1531348.6, -1583515.3, 248.7734, -0.00020183399, -0.012610918, -1531347.4, 22304.451, 0.0, 5.013843, 4.979885 
2.4819247e+2, 1.4644492e+2, -1482119.9, -1533943.0, 213.48761, -0.001273998, -0.008475077, -1482119.0, 22721.584, 0.0, 5.013808, 4.98007 
2.4819236e+2, 1.5142566e+2, -1433159.5, -1484932.4, 214.40742, -0.0024081313, -0.004427686, -1433158.6, 22870.443, 0.0, 5.013774, 4.9800696 
2.4819222e+2, 1.5640639e+2, -1385628.0, -1438898.9, 215.43906, -0.0035395834, 0.00007371531, -1385627.1, 21590.611, 0.0, 5.0137405, 4.9790745 
2.4819216e+2, 1.6138305e+2, -1345225.4, -1407922.9, 269.68018, -0.0043253223, 0.007968112, -1345224.3, 13222.336, 0.0, 5.0137343, 4.973028 
2.4819224e+2, 1.6635601e+2, -1295952.6, -1358769.9, 262.49527, -0.004353287, 0.0052961223, -1295951.5, 13760.19, 0.0, 5.0137925, 4.9730077 
2.4819233e+2, 1.71329e+2, -1246643.3, -1309552.8, 230.98975, -0.0043484187, 0.0025509507, -1246642.4, 14334.6, 0.0, 5.013853, 4.9730077 
2.4819243e+2, 1.7630199e+2, -1198472.0, -1262741.9, 199.46712, -0.0043370184, 0.00020431224, -1198471.4, 13770.705, 0.0, 5.0139136, 4.9722004 
2.4819253e+2, 1.812714e+2, -1157921.5, -1231875.1, 87.103935, -0.00369439, 0.005392228, -1157921.4, 5620.5117, 0.0, 5.013924, 4.966027 
2.4819267e+2, 1.862375e+2, -1108787.8, -1182265.9, 69.298386, -0.0014307171, 0.0017838576, -1108787.8, 6085.4106, 0.0, 5.0138106, 4.966218 
2.4819283e+2, 1.912036e+2, -1059935.4, -1133231.0, 96.07942, 0.0009241787, -0.002072769, -1059935.3, 6269.051, 0.0, 5.0136914, 4.9662185 
2.4819297e+2, 1.9616969e+2, -1011973.3, -1086111.0, 123.104195, 0.0032939897, -0.005614918, -1011973.1, 5562.2974, 0.0, 5.0135717, 4.9655685 
2.48193e+2, 2.0113228e+2, -972026.44, -1056448.1, 134.972, 0.0044846614, -0.001239927, -972026.2, -3124.8235, 0.0, 5.013488, 4.9589424 
2.4819265e+2, 2.060915e+2, -922452.44, -1006550.1, 140.93953, 0.002525048, -0.0031597395, -922452.2, -2151.0837, 0.0, 5.0134935, 4.959151 
2.481923e+2, 2.1105073e+2, -873150.9, -957264.0, 167.42015, 0.00040876903, -0.005239603, -873150.56, -1449.8541, 0.0, 5.013504, 4.9591513 
2.4819194e+2, 2.1600996e+2, -824516.5, -909433.75, 194.19022, -0.0016919428, -0.0071720406, -824516.06, -1415.7644, 0.0, 5.0135136, 4.958652 
2.4819168e+2, 2.209657e+2, -784509.94, -880433.7, 347.90482, -0.0036226579, -0.00047609277, -784508.7, -9974.793, 0.0, 5.0135083, 4.9516788 
2.481916e+2, 2.2591782e+2, -734896.75, -830254.4, 413.12344, -0.0051387544, -0.0020288136, -734894.94, -8892.968, 0.0, 5.0134587, 4.951984 
2.4819149e+2, 2.3086995e+2, -685697.1, -780976.2, 440.04788, -0.006597554, -0.0038597793, -685695.1, -8225.179, 0.0, 5.0134063, 4.951985 
2.4819142e+2, 2.3582207e+2, -637148.3, -733144.5, 468.092, -0.008025163, -0.0056927786, -637146.06, -8208.121, 0.0, 5.013353, 4.9514837 
2.4819154e+2, 2.4077049e+2, -597648.44, -705109.5, 844.86523, -0.009348491, 0.0014653095, -597641.8, -17199.426, 0.0, 5.0132265, 4.944127 
2.4819219e+2, 2.4571486e+2, -548493.75, -654662.56, 848.59595, -0.010412723, -0.0041336785, -548487.0, -16499.945, 0.0, 5.0128965, 4.944617 
2.4819286e+2, 2.5065917e+2, -500010.66, -605681.3, 672.0005, -0.0113689825, -0.011127319, -500006.38, -16474.002, 0.0, 5.0125513, 4.9446135 
2.4819353e+2, 2.5560352e+2, -451771.1, -557261.06, 497.23898, -0.012226518, -0.017893624, -451768.75, -16691.23, 0.0, 5.0122027, 4.944412 
2.4819411e+2, 2.605445e+2, -412005.1, -527674.3, 942.63275, -0.015542733, -0.012950997, -411997.4, -25344.006, 0.0, 5.0117817, 4.9375725 
2.4819449e+2, 2.6548395e+2, -361782.2, -472390.44, 2061.7883, -0.029321875, -0.025188137, -361743.78, -23508.488, 0.0, 5.0109286, 4.9398403 
2.481948e+2, 2.7042365e+2, -314547.4, -423732.97, 3054.843, -0.04298316, -0.040478155, -314462.0, -24648.025, 0.0, 5.010012, 4.9399114 
2.4819502e+2, 2.7536327e+2, -267341.6, -375209.0, 4074.4937, -0.055549607, -0.05753824, -267187.9, -25794.783, 0.0, 5.0090833, 4.9399347 
2.4819572e+2, 2.8029874e+2, -243409.38, -384545.22, 1399.2286, -0.044199035, -0.011296883, -243395.5, -50375.223, 0.0, 5.0091534, 4.9192705 
2.4819392e+2, 2.8522444e+2, -188902.48, -326406.63, 344.1055, -0.03951367, 0.031221986, -188901.61, -44126.285, 0.0, 5.009957, 4.9217277 
2.4819092e+2, 2.9014763e+2, -138489.86, -276413.22, -336.44943, -0.051502597, 0.03327215, -138489.05, -41930.477, 0.0, 5.010233, 4.9217176 
2.4818784e+2, 2.9507065e+2, -88061.0, -226448.73, -938.6334, -0.061512902, 0.03249111, -88054.64, -39710.633, 0.0, 5.0104775, 4.921708 
2.481843e+2, 3.0001125e+2, -16788.256, -94511.85, -1639.6106, -0.068684526, 0.04677516, -16753.682, -16753.682, 0.0, 5.010745, 4.9601808 
2.4817748e+2, 3.049781e+2, -3316.6191, -62198.07, -116.74657, -0.09304514, -0.010680937, -3316.3877, -3316.3877, 0.0, 5.01065, 4.9713755 
2.4816996e+2, 3.0994686e+2, -3132.5955, -60546.76, 1458.7816, -0.119224176, -0.08940018, -3095.5544, -3095.5544, 0.0, 5.0103865, 4.9719377 
2.481622e+2, 3.1491673e+2, -2872.561, -58971.766, 2860.76, -0.14121965, -0.16415493, -2727.055, -2727.055, 0.0, 5.01008, 4.972501 
2.5320488e+2, 1.2152254e+2, -1710835.8, -1748311.9, -174.40692, -0.009419963, -0.029126007, -1710835.0, 38247.156, 0.0, 5.0144014, 4.9899826 
2.5320548e+2, 1.2651591e+2, -1668117.5, -1711409.8, 65.46963, -0.0051053083, 0.041481085, -1668117.5, 32027.691, 0.0, 5.014259, 4.9860888 
2.5320587e+2, 1.3149956e+2, -1619581.8, -1662643.6, 179.79912, -0.003250864, 0.016272346, -1619581.0, 31724.475, 0.0, 5.0141068, 4.9860873 
2.5320622e+2, 1.3648318e+2, -1573253.0, -1618412.8, 293.88733, -0.0013973158, -0.0077079204, -1573251.1, 29214.922, 0.0, 5.013954, 4.984582 
2.5320643e+2, 1.4146487e+2, -1531306.5, -1583428.1, 205.70354, -0.00028914414, -0.0086200945, -1531305.6, 22339.709, 0.0, 5.013843, 4.9799137 
2.5320634e+2, 1.4644547e+2, -1482118.1, -1533938.8, 187.63733, -0.00078362424, -0.0058698426, -1482117.5, 22717.81, 0.0, 5.013808, 4.9800715 
2.5320622e+2, 1.5142606e+2, -1433157.8, -1484928.1, 189.30972, -0.0013371938, -0.0033231117, -1433157.0, 22868.176, 0.0, 5.013774, 4.980071 
2.5320613e+2, 1.5640664e+2, -1385626.0, -1438894.5, 191.1018, -0.0018942889, -0.0003235251, -1385625.3, 21589.867, 0.0, 5.0137405, 4.979076 
2.5320607e+2, 1.613832e+2, -1345271.1, -1408017.5, 298.09045, -0.0025313292, 0.0067233085, -1345269.8, 13175.206, 0.0, 5.013734, 4.9729967 
2.5320613e+2, 1.663562e+2, -1296010.3, -1358889.9, 308.19687, -0.0034049235, 0.0046233037, -1296008.8, 13701.421, 0.0, 5.0137925, 4.9729676 
2.532062e+2, 1.7132922e+2, -1246700.1, -1309672.4, 277.68597, -0.004300565, 0.0024975108, -1246698.9, 14276.48, 0.0, 5.013853, 4.9729676 
2.5320625e+2, 1.7630221e+2, -1198528.3, -1262861.0, 247.15016, -0.0052045803, 0.0007680819, -1198527.4, 13713.211, 0.0, 5.0139136, 4.9721603 
2.5320634e+2, 1.8127164e+2, -1157899.3, -1231827.4, 30.085588, -0.0049472144, 0.0062545426, -1157899.3, 5641.0366, 0.0, 5.013924, 4.966043 
2.5320646e+2, 1.8623774e+2, -1108741.1, -1182164.6, -20.821234, -0.001698662, 0.0022453596, -1108741.1, 6130.0605, 0.0, 5.01381, 4.9662523 
2.5320658e+2, 1.9120382e+2, -1059889.6, -1133130.4, 7.5242243, 0.001688159, -0.002033845, -1059889.6, 6312.4478, 0.0, 5.013691, 4.966253 
2.5320673e+2, 1.9616991e+2, -1011928.44, -1086010.9, 36.126385, 0.0050693625, -0.005995706, -1011928.44, 5604.457, 0.0, 5.0135713, 4.965603 
2.5320673e+2, 2.0113248e+2, -971988.9, -1056363.9, 116.95727, 0.0068405587, -0.002052006, -971988.75, -3090.1228, 0.0, 5.0134873, 4.9589715 
2.5320634e+2, 2.0609166e+2, -922409.44, -1006453.6, 149.01924, 0.004345419, -0.0046877316, -922409.2, -2110.8728, 0.0, 5.013493, 4.9591837 
2.5320593e+2, 2.1105085e+2, -873108.6, -957167.94, 177.54144, 0.0016085765, -0.007522131, -873108.25, -1410.2813, 0.0, 5.013503, 4.959184 
2.5320554e+2, 2.1601005e+2, -824474.9, -909338.2, 206.35254, -0.0011382914, -0.010207467, -824474.4, -1376.8177, 0.0, 5.013513, 4.958685 
2.5320524e+2, 2.2096577e+2, -784466.75, -880329.06, 323.42773, -0.0032802804, -0.00391611, -784465.6, -9934.736, 0.0, 5.013507, 4.951715 
2.532052e+2, 2.25918e+2, -734861.0, -830157.7, 377.80038, -0.0036625287, -0.004785267, -734859.5, -8861.7295, 0.0, 5.0134563, 4.952018 
2.532052e+2, 2.3087023e+2, -685664.56, -780879.56, 408.3837, -0.0039412077, -0.005840769, -685662.8, -8198.419, 0.0, 5.0134025, 4.952019 
2.5320518e+2, 2.3582248e+2, -637118.94, -733048.0, 440.09152, -0.004235854, -0.006882927, -637116.94, -8185.836, 0.0, 5.013348, 4.9515185 
2.5320524e+2, 2.40771e+2, -597882.94, -705558.25, 655.29047, -0.005173252, 0.001559537, -597878.94, -17444.295, 0.0, 5.0132146, 4.9439774 
2.5320533e+2, 2.4571526e+2, -548797.56, -655261.06, 583.11865, -0.008312265, -0.00323878, -548794.4, -16813.033, 0.0, 5.0128827, 4.944415 
2.5320545e+2, 2.5065944e+2, -500305.28, -606270.5, 412.61603, -0.01160392, -0.009775239, -500303.7, -16774.596, 0.0, 5.01254, 4.944413 
2.5320554e+2, 2.556036e+2, -452056.7, -557841.06, 243.96048, -0.0148576, -0.016137434, -452056.13, -16979.412, 0.0, 5.0121937, 4.944213 
2.532056e+2, 2.6054436e+2, -411277.47, -525930.1, 560.1317, -0.019480124, -0.013526309, -411274.72, -24620.29, 0.0, 5.011766, 4.938178 
2.532055e+2, 2.6548404e+2, -360481.03, -469168.84, 1640.2623, -0.031182202, -0.036079228, -360456.28, -22225.523, 0.0, 5.0108857, 4.940962 
2.5320533e+2, 2.7042404e+2, -313355.56, -420572.06, 2687.4963, -0.04324579, -0.061396316, -313288.22, -23486.031, 0.0, 5.0099425, 4.9410295 
2.5320503e+2, 2.7536404e+2, -266258.6, -372108.06, 3761.354, -0.05499669, -0.08772966, -266125.1, -24751.533, 0.0, 5.0089874, 4.94105 
2.5320554e+2, 2.8030062e+2, -244604.11, -388209.75, 2190.4817, -0.047018, -0.031238116, -244570.7, -51584.39, 0.0, 5.0092664, 4.917976 
2.5320432e+2, 2.8522697e+2, -188584.45, -327868.5, 639.5885, -0.04152116, 0.025682608, -188581.52, -43844.758, 0.0, 5.010211, 4.9211526 
2.5320184e+2, 2.9015014e+2, -138314.22, -277830.38, 57.212357, -0.049708106, 0.03006153, -138314.2, -41791.785, 0.0, 5.0104394, 4.9211726 
2.5319928e+2, 2.950732e+2, -88027.31, -227820.88, -446.77744, -0.056859687, 0.032195684, -88025.88, -39716.273, 0.0, 5.0106354, 4.921193 
2.5319642e+2, 3.000129e+2, -16582.979, -95348.625, -1058.9261, -0.060154635, 0.042260405, -16568.746, -16568.746, 0.0, 5.010896, 4.9598427 
2.5319123e+2, 3.0497983e+2, -598.869, -57841.2, 639.29395, -0.071551554, -0.034848206, -591.73016, -591.73016, 0.0, 5.010888, 4.972771 
2.5318524e+2, 3.0994958e+2, -361.8135, -56789.234, 2482.74, -0.086138226, -0.13136864, -252.78653, -252.78653, 0.0, 5.0107093, 4.973137 
2.5317898e+2, 3.1492022e+2, -49.150894, -55813.21, 4153.1294, -0.0994295, -0.22336623, 258.46402, 258.46402, 0.0, 5.0104866, 4.9735036 
2.5821915e+2, 1.2152301e+2, -1711511.4, -1749130.1, -169.35983, -0.010793388, -0.022397665, -1711510.5, 37567.504, 0.0, 5.0142827, 4.989772 
2.5821963e+2, 1.2651522e+2, -1668167.4, -1711108.5, 27.755898, -0.006266398, 0.03550088, -1668167.4, 31985.61, 0.0, 5.014173, 4.9862294 
2.5821987e+2, 1.3149941e+2, -1619548.6, -1662301.9, 117.73585, -0.0040657036, 0.014177453, -1619548.3, 31759.508, 0.0, 5.0140486, 4.986228 
2.5822014e+2, 1.3648355e+2, -1573155.5, -1618039.8, 209.59422, -0.0018769256, -0.005920445, -1573154.5, 29308.273, 0.0, 5.0139174, 4.984723 
2.582203e+2, 1.4146556e+2, -1531339.8, -1583387.8, 174.68497, -0.0003753915, -0.004622317, -1531339.3, 22299.6, 0.0, 5.0138197, 4.979938 
2.582202e+2, 1.4644603e+2, -1482161.9, -1533958.4, 164.57506, -0.00030153192, -0.003254818, -1482161.3, 22668.674, 0.0, 5.013793, 4.980072 
2.5822014e+2, 1.5142646e+2, -1433180.4, -1484937.4, 157.34894, -0.00028033776, -0.0022125521, -1433180.0, 22841.307, 0.0, 5.0137663, 4.9800715 
2.5822002e+2, 1.5640691e+2, -1385631.8, -1438895.4, 150.21597, -0.00026595895, -0.0007181361, -1385631.4, 21581.299, 0.0, 5.013738, 4.9790764 
2.5821996e+2, 1.6138336e+2, -1345329.9, -1408124.4, 304.53256, -0.0007534357, 0.0055166087, -1345328.4, 13114.905, 0.0, 5.013731, 4.9729624 
2.5822e+2, 1.6635638e+2, -1296123.0, -1359035.1, 336.4426, -0.0024610194, 0.0039769835, -1296121.3, 13587.321, 0.0, 5.0137734, 4.9729276 
2.5822008e+2, 1.7132941e+2, -1246871.4, -1309845.5, 311.3283, -0.004237269, 0.0024454214, -1246869.9, 14103.924, 0.0, 5.0138144, 4.9729276 
2.582201e+2, 1.7630245e+2, -1198769.0, -1263067.1, 286.03775, -0.00602899, 0.001308501, -1198767.8, 13471.277, 0.0, 5.013851, 4.9721203 
2.5822017e+2, 1.8127188e+2, -1158109.6, -1231898.5, -32.308193, -0.0061394423, 0.0071179634, -1158109.6, 5429.022, 0.0, 5.0138464, 4.9660554 
2.5822026e+2, 1.8623796e+2, -1108883.0, -1182153.9, -122.17442, -0.0019260186, 0.0027118472, -1108882.8, 5986.53, 0.0, 5.0137463, 4.9662857 
2.5822037e+2, 1.9120404e+2, -1059999.5, -1133104.4, -99.69955, 0.0024800005, -0.0020022937, -1059999.4, 6200.4624, 0.0, 5.0136375, 4.966286 
2.582205e+2, 1.9617012e+2, -1012017.8, -1085974.9, -77.15644, 0.0068692453, -0.0063971225, -1012017.7, 5512.6714, 0.0, 5.013525, 4.9656363 
2.5822046e+2, 2.0113267e+2, -972078.0, -1056356.8, 65.62632, 0.009216038, -0.0028007915, -972077.94, -3182.1511, 0.0, 5.013447, 4.9589925 
2.5822002e+2, 2.0609182e+2, -922461.4, -1006404.06, 108.85772, 0.0061848117, -0.006126455, -922461.2, -2165.6602, 0.0, 5.0134606, 4.959215 
2.5821957e+2, 2.1105097e+2, -873153.4, -957114.94, 124.11354, 0.0028420605, -0.009730226, -873153.2, -1457.9335, 0.0, 5.0134735, 4.9592156 
2.5821912e+2, 2.1601014e+2, -824528.8, -909289.06, 140.08957, -0.000523453, -0.013186396, -824528.56, -1433.6719, 0.0, 5.01348, 4.9587164 
2.5821882e+2, 2.2096585e+2, -784551.7, -880304.9, 205.8358, -0.00286389, -0.0072525935, -784551.25, -10023.275, 0.0, 5.013466, 4.9517417 
2.5821885e+2, 2.2591819e+2, -734981.3, -830136.3, 232.53502, -0.002135583, -0.007471789, -734980.75, -8987.112, 0.0, 5.0134, 4.9520493 
2.582189e+2, 2.3087053e+2, -685850.0, -780887.3, 248.21538, -0.0012351489, -0.007829898, -685849.4, -8390.329, 0.0, 5.0133233, 4.9520507 
2.5821894e+2, 2.3582287e+2, -637392.3, -733094.75, 263.64365, -0.00037657245, -0.008163361, -637391.56, -8467.138, 0.0, 5.013238, 4.9515505 
2.582189e+2, 2.4077149e+2, -598512.6, -706222.2, 301.95258, -0.0008605599, 0.0017294646, -598511.75, -18084.697, 0.0, 5.0130706, 4.943812 
2.5821847e+2, 2.4571563e+2, -549473.4, -656023.6, 186.26753, -0.006043344, -0.0021971879, -549473.06, -17497.387, 0.0, 5.012738, 4.9442143 
2.5821802e+2, 2.5065964e+2, -500989.88, -607031.75, 39.26588, -0.011638866, -0.008334028, -500989.88, -17464.018, 0.0, 5.0123906, 4.944213 
2.5821754e+2, 2.5560367e+2, -452777.47, -558613.06, -108.566795, -0.017236277, -0.0143476995, -452777.34, -17701.428, 0.0, 5.0120306, 4.9440136 
2.582171e+2, 2.6054424e+2, -411118.66, -524554.6, -14.5463705, -0.022882866, -0.01413999, -411118.66, -24462.867, 0.0, 5.011574, 4.9387283 
2.5821656e+2, 2.6548398e+2, -359870.34, -466415.0, 515.6681, -0.032021113, -0.04738422, -359867.84, -21640.521, 0.0, 5.0106297, 4.9420033 
2.5821584e+2, 2.704242e+2, -313061.47, -418008.7, 984.1376, -0.041965112, -0.08330533, -313052.25, -23259.633, 0.0, 5.009591, 4.942053 
2.5821504e+2, 2.7536443e+2, -266373.66, -369768.4, 1389.1685, -0.052283067, -0.119648345, -266354.97, -24997.365, 0.0, 5.008508, 4.9420543 
2.5821555e+2, 2.8030223e+2, -247650.5, -393308.38, 940.9371, -0.048549302, -0.05057783, -247644.42, -54688.582, 0.0, 5.0088606, 4.916376 
2.5821492e+2, 2.8522924e+2, -189337.84, -329497.97, -974.46405, -0.043765005, 0.02163495, -189331.06, -44630.43, 0.0, 5.0100837, 4.920615 
2.582129e+2, 2.9015243e+2, -138746.98, -279277.28, -1052.4786, -0.048517026, 0.026778147, -138739.11, -42250.41, 0.0, 5.010432, 4.9206486 
2.5821075e+2, 2.9507554e+2, -88310.25, -229153.63, -1175.1489, -0.053062163, 0.03046796, -88300.445, -40022.83, 0.0, 5.0106897, 4.9206815 
2.5820866e+2, 3.000143e+2, -17077.05, -97370.86, -1415.2994, -0.052301247, 0.037661113, -17052.111, -17052.111, 0.0, 5.0110016, 4.9590454 
2.582054e+2, 3.0498108e+2, 1745.7928, -53853.953, -348.63275, -0.047319222, -0.060946885, 1747.9789, 1747.9789, 0.0, 5.0110765, 4.9739604 
2.5820145e+2, 3.0995136e+2, 1729.0564, -53494.992, 802.0493, -0.04599867, -0.18206245, 1740.7026, 1740.7026, 0.0, 5.0108805, 4.9741173 
2.5819707e+2, 3.1492215e+2, 1509.0859, -53291.8, 1898.8502, -0.04602504, -0.29946607, 1574.8022, 1574.8022, 0.0, 5.010549, 4.974274 
2.6323333e+2, 1.215239e+2, -1712514.6, -1749679.5, 357.35223, -0.009804338, -0.01683493, -1712511.1, 36557.55, 0.0, 5.013961, 4.989751 
2.6323372e+2, 1.2651484e+2, -1668796.3, -1711383.4, 448.17813, -0.0056262193, 0.028113648, -1668791.5, 31364.889, 0.0, 5.0139556, 4.986247 
2.6323387e+2, 1.3149944e+2, -1619841.8, -1662405.8, 407.45813, -0.00391949, 0.010763503, -1619837.9, 31469.387, 0.0, 5.0139413, 4.986247 
2.6323402e+2, 1.36484e+2, -1573096.9, -1617965.8, 366.6422, -0.002186157, -0.0053683445, -1573093.9, 29364.313, 0.0, 5.013927, 4.984743 
2.6323408e+2, 1.4146625e+2, -1531076.9, -1583342.6, 267.4215, -0.00093387003, -0.0016480311, -1531075.6, 22556.447, 0.0, 5.0139256, 4.9799023 
2.6323402e+2, 1.4644659e+2, -1481785.5, -1533895.4, 208.52316, -0.00075116754, -0.0010281494, -1481784.6, 23040.01, 0.0, 5.0139446, 4.9800196 
2.6323396e+2, 1.5142688e+2, -1432667.8, -1484808.1, 142.21764, -0.00059823977, -0.00082573044, -1432667.4, 23350.139, 0.0, 5.013964, 4.980019 
2.632339e+2, 1.5640718e+2, -1384979.6, -1438698.8, 75.98173, -0.0004401231, -0.00016835415, -1384979.5, 22230.926, 0.0, 5.0139837, 4.979024 
2.6323384e+2, 1.6138354e+2, -1344646.9, -1407838.3, 184.66792, -0.0007923715, 0.0054344544, -1344646.3, 13795.966, 0.0, 5.013971, 4.972943 
2.6323387e+2, 1.6635653e+2, -1295802.3, -1358907.9, 238.53989, -0.002359603, 0.0037815012, -1295801.4, 13906.222, 0.0, 5.0138874, 4.9729156 
2.632339e+2, 1.7132954e+2, -1246924.1, -1309898.5, 240.78146, -0.0039590923, 0.0021662915, -1246923.3, 14049.615, 0.0, 5.0138016, 4.972916 
2.632339e+2, 1.7630255e+2, -1199181.6, -1263292.6, 243.07507, -0.0055393907, 0.000949851, -1199180.6, 13057.364, 0.0, 5.0137157, 4.972109 
2.6323393e+2, 1.8127197e+2, -1158708.3, -1232193.5, -81.410515, -0.0054699806, 0.006729342, -1158708.3, 4829.467, 0.0, 5.0136433, 4.966052 
2.63234e+2, 1.8623807e+2, -1109301.4, -1182361.9, -217.23091, -0.0011979223, 0.0025089302, -1109300.8, 5567.4336, 0.0, 5.0136037, 4.9662824 
2.6323405e+2, 1.9120416e+2, -1060211.8, -1133214.3, -238.6441, 0.0033003872, -0.0019995351, -1060211.0, 5987.64, 0.0, 5.0135655, 4.966283 
2.632341e+2, 1.9617027e+2, -1012014.0, -1085982.9, -260.01083, 0.007822154, -0.0061888313, -1012013.1, 5515.8203, 0.0, 5.013527, 4.9656324 
2.6323405e+2, 2.0113285e+2, -971944.3, -1056357.5, -107.48869, 0.010347634, -0.002398341, -971944.2, -3049.9124, 0.0, 5.013505, 4.9589653 
2.6323363e+2, 2.0609196e+2, -922331.1, -1006430.1, -116.42304, 0.0075602806, -0.0055971392, -922331.0, -2036.7942, 0.0, 5.013522, 4.9591784 
2.6323324e+2, 2.1105109e+2, -873004.2, -957131.2, -177.67932, 0.0045210747, -0.009093322, -873003.8, -1309.6992, 0.0, 5.013541, 4.959179 
2.6323286e+2, 2.1601021e+2, -824344.44, -909288.3, -238.95644, 0.0015170999, -0.012455762, -824343.75, -1249.7781, 0.0, 5.01356, 4.95868 
2.6323253e+2, 2.2096588e+2, -784387.3, -880270.0, -319.32092, -0.0004450443, -0.0067401864, -784386.25, -9858.882, 0.0, 5.0135283, 4.951726 
2.6323247e+2, 2.259181e+2, -735169.8, -830258.2, -370.54434, 0.0006175956, -0.007759093, -735168.4, -9174.743, 0.0, 5.013336, 4.952038 
2.632324e+2, 2.3087037e+2, -686397.5, -781176.44, -395.85934, 0.0019327878, -0.008922099, -686395.8, -8936.212, 0.0, 5.013132, 4.952039 
2.6323238e+2, 2.3582262e+2, -638273.1, -733538.5, -420.09085, 0.003292197, -0.010064866, -638271.25, -9345.658, 0.0, 5.0129275, 4.951538 
2.6323217e+2, 2.4077116e+2, -599595.1, -706712.8, -440.9888, 0.0031158077, -0.0008300695, -599593.3, -19164.719, 0.0, 5.0126743, 4.943824 
2.632314e+2, 2.4571532e+2, -550535.06, -656510.8, -339.99466, -0.0026918903, -0.0048103095, -550533.94, -18556.879, 0.0, 5.0123444, 4.9442263 
2.6323053e+2, 2.5065935e+2, -501990.75, -607496.44, -238.86996, -0.008928453, -0.010927985, -501990.22, -18463.115, 0.0, 5.012015, 4.9442234 
2.6322964e+2, 2.5560337e+2, -453690.13, -559043.94, -140.12547, -0.01509647, -0.016913287, -453689.94, -18612.934, 0.0, 5.0116816, 4.9440227 
2.6322886e+2, 2.605439e+2, -411975.56, -525235.56, -230.51807, -0.020371662, -0.016715886, -411975.1, -25318.166, 0.0, 5.0112796, 4.938635 
2.6322785e+2, 2.6548344e+2, -360521.38, -467421.53, -848.8244, -0.026720064, -0.049627673, -360514.63, -22284.582, 0.0, 5.0104456, 4.9417644 
2.632267e+2, 2.7042332e+2, -313299.3, -419016.34, -1397.0443, -0.03400812, -0.08574649, -313280.88, -23482.814, 0.0, 5.009545, 4.9417644 
2.6322538e+2, 2.7536312e+2, -266102.38, -370746.2, -1897.7853, -0.04189809, -0.12301907, -266067.97, -24701.11, 0.0, 5.0086317, 4.941716 
2.6322573e+2, 2.8030035e+2, -247093.11, -392527.63, -132.5084, -0.04345128, -0.058170136, -247092.98, -54123.176, 0.0, 5.008894, 4.916595 
2.6322597e+2, 2.8522748e+2, -189421.3, -329200.6, -2186.887, -0.03953141, 0.013548405, -189387.1, -44673.574, 0.0, 5.0100346, 4.920641 
2.632248e+2, 2.901509e+2, -138359.95, -279006.0, -2568.876, -0.03859217, 0.021662742, -138313.05, -41814.223, 0.0, 5.0105658, 4.920606 
2.6322353e+2, 2.9507425e+2, -87286.195, -228845.98, -2929.941, -0.037751753, 0.028911473, -87225.58, -38940.582, 0.0, 5.0110655, 4.920572 
2.6322255e+2, 3.0001315e+2, -15449.191, -97505.52, -3039.4727, -0.031373437, 0.03922559, -15336.759, -15336.759, 0.0, 5.0116863, 4.9586673 
2.6322135e+2, 3.0497888e+2, 3971.0273, -54674.695, -4298.995, -0.013042788, -0.063549474, 4284.4873, 4284.4873, 0.0, 5.012101, 4.9731836 
2.6321945e+2, 3.0994758e+2, 5228.18, -53702.74, -5661.9424, 0.0021551533, -0.19362625, 5767.2354, 5767.2354, 0.0, 5.0123105, 4.9733644 
2.632171e+2, 3.1491643e+2, 6533.8135, -52779.402, -6809.7373, 0.014641531, -0.32451525, 7305.5957, 7305.5957, 0.0, 5.012479, 4.9735456 
2.682475e+2, 1.21525e+2, -1712346.0, -1749331.3, 349.1226, -0.007863467, -0.012288255, -1712342.6, 36714.027, 0.0, 5.01396, 4.989866 
2.6824784e+2, 1.2651463e+2, -1668875.9, -1711539.6, 435.6884, -0.004107338, 0.0199448, -1668871.5, 31285.707, 0.0, 5.013954, 4.986196 
2.6824787e+2, 1.3149956e+2, -1619919.9, -1662562.0, 396.5838, -0.0032809915, 0.0065920316, -1619916.3, 31388.654, 0.0, 5.013941, 4.986196 
2.6824793e+2, 1.3648449e+2, -1573173.5, -1618122.0, 357.4109, -0.0024484172, -0.0055467747, -1573170.8, 29282.059, 0.0, 5.0139265, 4.984692 
2.6824793e+2, 1.4146692e+2, -1531185.9, -1583567.0, 276.398, -0.0018540258, 0.0007245665, -1531184.4, 22440.564, 0.0, 5.013925, 4.979828 
2.6824787e+2, 1.4644712e+2, -1481907.9, -1534148.8, 223.29964, -0.001823714, 0.0009719966, -1481907.0, 22912.252, 0.0, 5.0139446, 4.9799356 
2.682478e+2, 1.5142731e+2, -1432789.1, -1485060.6, 157.76001, -0.0018151012, 0.0007166253, -1432788.6, 23225.06, 0.0, 5.013964, 4.9799356 
2.6824775e+2, 1.5640748e+2, -1385100.0, -1438950.5, 92.29273, -0.0018079623, 0.0009144655, -1385099.9, 22108.504, 0.0, 5.0139837, 4.97894 
2.682477e+2, 1.6138373e+2, -1344664.1, -1407874.4, 136.15038, -0.0020469, 0.006000187, -1344663.9, 13777.543, 0.0, 5.013971, 4.972931 
2.682477e+2, 1.6635667e+2, -1295795.6, -1358893.8, 172.67519, -0.0028550345, 0.0038531537, -1295795.1, 13911.649, 0.0, 5.0138874, 4.972921 
2.6824772e+2, 1.7132963e+2, -1246917.5, -1309884.1, 175.9115, -0.0036811456, 0.0017580685, -1246917.0, 14055.172, 0.0, 5.0138016, 4.972921 
2.6824772e+2, 1.763026e+2, -1199174.9, -1263278.0, 179.21086, -0.0045024315, 0.00006084256, -1199174.4, 13063.058, 0.0, 5.0137153, 4.9721136 
2.6824772e+2, 1.81272e+2, -1158729.8, -1232238.1, -119.99912, -0.004006945, 0.005616201, -1158729.5, 4807.503, 0.0, 5.013643, 4.9660373 
2.6824772e+2, 1.8623812e+2, -1109337.5, -1182438.3, -245.37552, -0.00013546685, 0.0019214601, -1109336.8, 5530.762, 0.0, 5.0136037, 4.9662566 
2.682477e+2, 1.9120425e+2, -1060247.8, -1133290.5, -265.31702, 0.003903357, -0.0020143269, -1060246.8, 5951.068, 0.0, 5.013565, 4.966257 
2.6824766e+2, 1.9617039e+2, -1012049.8, -1086059.1, -285.20767, 0.007946991, -0.005630771, -1012048.75, 5479.335, 0.0, 5.013527, 4.9656067 
2.6824754e+2, 2.0113297e+2, -972020.2, -1056519.5, -105.17808, 0.010349674, -0.0013186828, -972020.06, -3126.6006, 0.0, 5.0135045, 4.958911 
2.6824725e+2, 2.0609207e+2, -922433.1, -1006649.6, -101.30764, 0.008397564, -0.003945599, -922433.0, -2139.3506, 0.0, 5.0135217, 4.959104 
2.6824698e+2, 2.1105118e+2, -873105.1, -957349.56, -160.49252, 0.006221167, -0.0068492815, -873104.8, -1411.0177, 0.0, 5.0135407, 4.959105 
2.6824668e+2, 2.1601029e+2, -824444.44, -909505.7, -219.6993, 0.00405681, -0.00962216, -824443.9, -1349.8826, 0.0, 5.0135593, 4.9586062 
2.682464e+2, 2.2096589e+2, -784440.6, -880381.25, -415.7482, 0.0027117, -0.003991656, -784438.8, -9910.726, 0.0, 5.0135274, 4.951688 
2.6824614e+2, 2.2591792e+2, -735211.3, -830337.6, -516.1407, 0.0037356191, -0.006693912, -735208.56, -9212.7, 0.0, 5.0133343, 4.952011 
2.6824588e+2, 2.3086998e+2, -686440.7, -781253.94, -537.7138, 0.0049214554, -0.009591769, -686437.7, -8974.332, 0.0, 5.0131297, 4.952013 
2.6824564e+2, 2.3582202e+2, -638318.1, -733614.0, -558.1858, 0.00610684, -0.01246311, -638314.8, -9383.98, 0.0, 5.0129237, 4.951513 
2.682452e+2, 2.4077041e+2, -599456.4, -706345.2, -678.67487, 0.005826632, -0.005078824, -599452.06, -19017.227, 0.0, 5.012666, 4.943952 
2.682441e+2, 2.4571466e+2, -550359.75, -656045.1, -595.94, 0.00027375843, -0.009784621, -550356.4, -18374.559, 0.0, 5.012335, 4.94439 
2.6824293e+2, 2.506588e+2, -501817.28, -607035.3, -487.9791, -0.0057395264, -0.016307982, -501815.03, -18284.953, 0.0, 5.0120044, 4.944386 
2.6824176e+2, 2.5560293e+2, -453518.44, -558587.3, -382.3859, -0.011751724, -0.022664815, -453517.06, -18438.883, 0.0, 5.0116706, 4.944184 
2.6824066e+2, 2.6054364e+2, -412406.22, -526058.25, -566.7288, -0.01640881, -0.021417761, -412403.4, -25746.969, 0.0, 5.011258, 4.93836 
2.6823917e+2, 2.6548308e+2, -361436.22, -469115.44, -1200.3555, -0.02130786, -0.048065826, -361422.84, -23191.254, 0.0, 5.010396, 4.9412026 
2.682374e+2, 2.7042288e+2, -314243.22, -420570.7, -1691.8368, -0.02791147, -0.07757367, -314216.28, -24414.533, 0.0, 5.009469, 4.941248 
2.682355e+2, 2.7536267e+2, -267075.7, -372161.4, -2135.75, -0.035850246, -0.10836224, -267032.3, -25660.027, 0.0, 5.0085297, 4.9412456 
2.6823565e+2, 2.802992e+2, -246095.1, -389467.6, 979.1749, -0.0429297, -0.05324624, -246088.42, -53105.29, 0.0, 5.008796, 4.9177113 
2.6823702e+2, 2.852256e+2, -189975.81, -329804.88, -1613.0034, -0.035552856, 0.009411953, -189957.22, -45224.41, 0.0, 5.0099683, 4.9205155 
2.682371e+2, 2.9014876e+2, -138829.33, -279462.47, -1898.3025, -0.025902681, 0.019633647, -138803.7, -42284.836, 0.0, 5.010516, 4.9205093 
2.6823702e+2, 2.950718e+2, -87671.37, -229155.61, -2162.6953, -0.017331518, 0.028115125, -87638.31, -39332.094, 0.0, 5.0110316, 4.920503 
2.6823738e+2, 3.0001098e+2, -15680.602, -97075.82, -2054.5073, -0.004143632, 0.04146548, -15628.777, -15628.777, 0.0, 5.0116076, 4.9588637 
2.6823792e+2, 3.0497578e+2, 1443.2529, -58294.836, -3185.9297, 0.023443423, -0.053202044, 1612.6831, 1612.6831, 0.0, 5.011841, 4.9720755 
2.6823765e+2, 3.099431e+2, 2293.6995, -57047.34, -4347.719, 0.046153218, -0.17250256, 2610.5505, 2610.5505, 0.0, 5.011881, 4.972397 
2.6823682e+2, 3.1491104e+2, 3192.934, -55848.62, -5293.9805, 0.06343202, -0.2901536, 3663.8645, 3663.8645, 0.0, 5.01188, 4.972719 
2.7326167e+2, 1.21525995e+2, -1712072.9, -1748769.6, 338.25833, -0.0061076735, -0.008637081, -1712069.8, 36975.91, 0.0, 5.013959, 4.9900503 
2.7326193e+2, 1.265144e+2, -1668956.1, -1711695.4, 423.68832, -0.0025913778, 0.011833404, -1668951.9, 31206.041, 0.0, 5.013953, 4.9861455 
2.7326187e+2, 1.314997e+2, -1619998.5, -1662717.8, 386.19925, -0.0026432439, 0.002454425, -1619995.0, 31307.436, 0.0, 5.01394, 4.9861445 
2.7326182e+2, 1.3648495e+2, -1573250.6, -1618277.9, 348.6694, -0.0027092602, -0.0057149273, -1573248.0, 29199.322, 0.0, 5.0139265, 4.9846406 
2.7326176e+2, 1.4146759e+2, -1531300.4, -1583802.1, 285.3788, -0.002776566, 0.0031201392, -1531298.8, 22319.172, 0.0, 5.013925, 4.97975 
2.732617e+2, 1.4644769e+2, -1482030.5, -1534402.0, 238.13501, -0.0028995, 0.0029885855, -1482029.5, 22784.287, 0.0, 5.0139446, 4.9798517 
2.7326164e+2, 1.5142773e+2, -1432910.8, -1485313.1, 173.36131, -0.0030346997, 0.0022601911, -1432910.3, 23099.781, 0.0, 5.013964, 4.9798512 
2.7326158e+2, 1.5640777e+2, -1385220.6, -1439202.1, 108.66272, -0.003178036, 0.0019832626, -1385220.5, 21985.887, 0.0, 5.0139837, 4.978856 
2.7326155e+2, 1.6138391e+2, -1344686.0, -1407919.4, 87.25593, -0.003298372, 0.0065831956, -1344686.0, 13754.648, 0.0, 5.013971, 4.972916 
2.7326155e+2, 1.6635682e+2, -1295789.4, -1358879.4, 106.73706, -0.0033475969, 0.003941665, -1295789.3, 13916.888, 0.0, 5.0138874, 4.9729257 
2.7326155e+2, 1.7132972e+2, -1246911.1, -1309869.5, 110.9681, -0.003402012, 0.0013527484, -1246910.9, 14060.541, 0.0, 5.0138016, 4.9729257 
2.7326155e+2, 1.7630266e+2, -1199168.4, -1263263.1, 115.2732, -0.003465967, -0.00083921885, -1199168.1, 13068.563, 0.0, 5.0137153, 4.972119 
2.7326155e+2, 1.8127203e+2, -1158756.5, -1232293.4, -158.71274, -0.0025441477, 0.00453066, -1158756.3, 4780.1875, 0.0, 5.013643, 4.966018 
2.7326143e+2, 1.8623817e+2, -1109374.1, -1182514.4, -273.48547, 0.0009280853, 0.0013582708, -1109373.1, 5493.639, 0.0, 5.013603, 4.966231 
2.7326128e+2, 1.9120434e+2, -1060284.1, -1133366.5, -291.95523, 0.0045082993, -0.0020270692, -1060283.0, 5914.051, 0.0, 5.013565, 4.9662313 
2.732612e+2, 1.9617051e+2, -1012086.1, -1086135.0, -310.36984, 0.008074676, -0.0050928933, -1012084.8, 5442.4126, 0.0, 5.0135264, 4.965581 
2.7326107e+2, 2.011331e+2, -972104.9, -1056699.5, -103.03665, 0.010352795, -0.0001977837, -972104.75, -3212.1965, 0.0, 5.013504, 4.95885 
2.732609e+2, 2.060922e+2, -922535.6, -1006868.7, -86.35165, 0.009234144, -0.0022524814, -922535.56, -2242.523, 0.0, 5.0135217, 4.959029 
2.7326068e+2, 2.1105129e+2, -873206.7, -957567.5, -143.46504, 0.007919553, -0.004597986, -873206.44, -1512.9359, 0.0, 5.0135407, 4.95903 
2.732605e+2, 2.1601038e+2, -824545.0, -909722.56, -200.6014, 0.0065938123, -0.006815626, -824544.56, -1450.5702, 0.0, 5.0135593, 4.9585314 
2.7326027e+2, 2.209659e+2, -784506.6, -880518.25, -513.1141, 0.005864471, -0.0011863996, -784503.9, -9975.158, 0.0, 5.0135264, 4.9516406 
2.732598e+2, 2.2591774e+2, -735254.1, -830416.0, -662.8971, 0.006840286, -0.0055703204, -735249.5, -9251.545, 0.0, 5.0133324, 4.9519835 
2.7325934e+2, 2.3086958e+2, -686485.25, -781330.3, -680.7285, 0.007887025, -0.010260509, -686480.4, -9013.336, 0.0, 5.013127, 4.9519863 
2.732589e+2, 2.3582143e+2, -638364.4, -733688.4, -697.4412, 0.008888643, -0.0149179045, -638359.25, -9423.1875, 0.0, 5.0129204, 4.951487 
2.7325818e+2, 2.4076968e+2, -599346.2, -706030.4, -920.2045, 0.008513396, -0.009201974, -599338.25, -18897.275, 0.0, 5.0126586, 4.944061 
2.7325678e+2, 2.4571402e+2, -550190.4, -655573.9, -851.5052, 0.0032244525, -0.014580567, -550183.5, -18197.035, 0.0, 5.012325, 4.944552 
2.7325535e+2, 2.5065827e+2, -501649.72, -606568.56, -736.70874, -0.0025629452, -0.021592513, -501644.56, -18111.61, 0.0, 5.0119944, 4.944547 
2.732539e+2, 2.5560254e+2, -453352.66, -558125.0, -624.26746, -0.008416714, -0.028403781, -453348.94, -18269.68, 0.0, 5.01166, 4.9443436 
2.7325246e+2, 2.6054335e+2, -412886.94, -526952.7, -942.3359, -0.012447784, -0.026186526, -412879.16, -26223.084, 0.0, 5.011237, 4.938052 
2.732504e+2, 2.654827e+2, -362371.63, -470791.2, -1616.1866, -0.016472068, -0.047182348, -362347.53, -24114.012, 0.0, 5.010347, 4.94063 
2.73248e+2, 2.704224e+2, -315207.6, -422106.7, -2050.9595, -0.02305333, -0.07082812, -315168.25, -25362.129, 0.0, 5.0093937, 4.9407206 
2.7324542e+2, 2.7536213e+2, -268069.44, -373558.0, -2438.077, -0.031703096, -0.09588166, -268013.13, -26634.533, 0.0, 5.008428, 4.9407635 
2.732455e+2, 2.8029805e+2, -245543.14, -387403.94, 1964.9861, -0.041828252, -0.04766569, -245515.92, -52519.81, 0.0, 5.0086985, 4.9184723 
2.7324817e+2, 2.8522375e+2, -190581.03, -330360.16, -1099.6106, -0.029101765, 0.0072556585, -190572.38, -45821.043, 0.0, 5.009902, 4.9203753 
2.732495e+2, 2.9014662e+2, -139349.2, -279869.88, -1288.2028, -0.011276218, 0.017960278, -139337.4, -42798.418, 0.0, 5.010466, 4.9203978 
2.7325067e+2, 2.950693e+2, -88106.86, -229416.05, -1455.9126, 0.004490297, 0.026050396, -88091.87, -39763.53, 0.0, 5.0109982, 4.9204197 
2.7325234e+2, 3.0000874e+2, -16307.367, -97398.05, -1236.6427, 0.024600472, 0.043243825, -16288.513, -16288.513, 0.0, 5.011529, 4.95876 
2.7325428e+2, 3.0497253e+2, -1148.7537, -61854.223, -2267.8186, 0.060472023, -0.043875877, -1064.151, -1064.151, 0.0, 5.01158, 4.970937 
2.7325526e+2, 3.0993834e+2, -705.128, -60330.824, -3228.3313, 0.08890643, -0.15612692, -530.8449, -530.8449, 0.0, 5.0114512, 4.971399 
2.732556e+2, 3.1490514e+2, -212.42062, -58856.355, -3972.9382, 0.1091916, -0.26426908, 55.509094, 55.509094, 0.0, 5.011281, 4.9718614 
2.7827576e+2, 1.2152689e+2, -1711784.8, -1748041.3, 324.13907, -0.004514457, -0.0058923927, -1711781.9, 37253.773, 0.0, 5.013929, 4.990304 
2.7827603e+2, 1.2651421e+2, -1669140.4, -1711906.1, 400.20117, -0.0010731271, 0.0038754002, -1669136.6, 31021.855, 0.0, 5.0139184, 4.9860926 
2.7827588e+2, 1.3149984e+2, -1620205.6, -1662939.8, 352.81064, -0.0020031973, -0.0016134785, -1620202.8, 31097.293, 0.0, 5.0138974, 4.986092 
2.7827573e+2, 1.3648544e+2, -1573493.0, -1618516.9, 306.41092, -0.0029551745, -0.0058932235, -1573490.9, 28950.922, 0.0, 5.0138717, 4.9845877 
2.7827558e+2, 1.4146826e+2, -1531606.5, -1584138.3, 257.91852, -0.0036761495, 0.0054840776, -1531605.1, 22005.771, 0.0, 5.0138626, 4.9796696 
2.7827552e+2, 1.4644824e+2, -1482315.5, -1534732.8, 223.37259, -0.0039578895, 0.0049753133, -1482314.6, 22493.785, 0.0, 5.01389, 4.9797683 
2.782755e+2, 1.5142816e+2, -1433174.3, -1485632.4, 166.26828, -0.004236795, 0.0037692082, -1433173.8, 22832.537, 0.0, 5.0139165, 4.9797683 
2.7827543e+2, 1.5640807e+2, -1385467.6, -1439512.5, 109.58136, -0.004525455, 0.003013521, -1385467.5, 21736.86, 0.0, 5.013941, 4.978773 
2.782754e+2, 1.6138409e+2, -1344819.9, -1408024.8, 28.4022, -0.0045206244, 0.007170256, -1344819.9, 13619.922, 0.0, 5.0139346, 4.972898 
2.782754e+2, 1.6635697e+2, -1295861.4, -1358902.9, 29.32734, -0.0038220182, 0.004048416, -1295861.4, 13844.019, 0.0, 5.013861, 4.97293 
2.7827537e+2, 1.7132984e+2, -1246962.6, -1309883.0, 31.890795, -0.0031097622, 0.0009664712, -1246962.6, 14008.08, 0.0, 5.013782, 4.9729304 
2.7827537e+2, 1.763027e+2, -1199209.5, -1263271.4, 34.230824, -0.0024132116, -0.0017198444, -1199209.5, 13026.651, 0.0, 5.0136995, 4.972123 
2.7827534e+2, 1.8127206e+2, -1158828.3, -1232380.1, -219.1715, -0.0010609735, 0.0035087287, -1158827.6, 4708.175, 0.0, 5.01363, 4.965995 
2.782751e+2, 1.8623823e+2, -1109433.8, -1182603.4, -335.50635, 0.0020040434, 0.0008464484, -1109432.3, 5433.861, 0.0, 5.013596, 4.9662037 
2.7827492e+2, 1.9120443e+2, -1060339.0, -1133452.9, -365.3157, 0.005126969, -0.002018977, -1060337.1, 5859.0967, 0.0, 5.0135593, 4.966204 
2.7827474e+2, 1.9617063e+2, -1012149.9, -1086225.1, -394.86658, 0.008228047, -0.004564028, -1012147.75, 5378.6313, 0.0, 5.013518, 4.9655538 
2.782746e+2, 2.0113324e+2, -972232.7, -1056913.0, -165.9716, 0.010386087, 0.0009619242, -972232.4, -3340.6074, 0.0, 5.0134926, 4.958782 
2.782745e+2, 2.0609231e+2, -922662.1, -1007098.25, -135.26608, 0.010078791, -0.00053317717, -922661.94, -2369.4443, 0.0, 5.0135136, 4.958954 
2.7827442e+2, 2.1105137e+2, -873338.1, -957799.25, -190.38918, 0.009617278, -0.0023653677, -873337.75, -1644.45, 0.0, 5.0135307, 4.958955 
2.7827433e+2, 2.1601045e+2, -824699.6, -909964.75, -246.15439, 0.009135725, -0.0040721293, -824698.94, -1604.8687, 0.0, 5.013541, 4.958456 
2.7827412e+2, 2.209659e+2, -784644.06, -880707.56, -671.3679, 0.009036063, 0.0016313763, -784639.4, -10110.01, 0.0, 5.013506, 4.9515843 
2.7827346e+2, 2.2591756e+2, -735291.1, -830490.75, -863.32794, 0.009971673, -0.004436648, -735283.3, -9283.148, 0.0, 5.013334, 4.9519563 
2.782728e+2, 2.3086919e+2, -686485.94, -781386.44, -871.43286, 0.010912211, -0.010997269, -686477.94, -9007.106, 0.0, 5.013141, 4.951959 
2.7827212e+2, 2.3582083e+2, -638361.1, -733740.6, -878.7213, 0.011789466, -0.017537536, -638353.06, -9411.577, 0.0, 5.012936, 4.9514604 
2.7827117e+2, 2.4076894e+2, -599200.3, -705755.2, -1206.768, 0.011403607, -0.013347144, -599186.7, -18739.412, 0.0, 5.0126767, 4.9441447 
2.7826947e+2, 2.4571337e+2, -549908.3, -655070.9, -1202.6254, 0.0064304224, -0.019240052, -549894.56, -17903.396, 0.0, 5.0123625, 4.9447045 
2.7826777e+2, 2.5065774e+2, -501356.56, -606065.4, -1143.4795, 0.000950899, -0.026653843, -501344.1, -17808.232, 0.0, 5.0120397, 4.9446983 
2.7826598e+2, 2.5560212e+2, -453090.6, -557640.3, -1087.4203, -0.0046208994, -0.03378771, -453079.28, -17999.002, 0.0, 5.0116987, 4.944494 
2.7826428e+2, 2.6054302e+2, -413452.28, -527999.25, -1673.1171, -0.0077809207, -0.030534796, -413427.84, -26771.969, 0.0, 5.011224, 4.93769 
2.782616e+2, 2.654822e+2, -364017.2, -472876.4, -2607.6316, -0.010706521, -0.047063597, -363954.75, -25718.021, 0.0, 5.010079, 4.94001 
2.782585e+2, 2.7042162e+2, -318053.88, -424607.2, -3172.3645, -0.016709225, -0.06674617, -317959.53, -28146.139, 0.0, 5.0086846, 4.940139 
2.7825525e+2, 2.753611e+2, -272605.47, -376689.72, -3675.6235, -0.025136588, -0.08848451, -272475.84, -31085.902, 0.0, 5.0071015, 4.94022 
2.7825543e+2, 2.802964e+2, -250805.36, -388579.25, 2030.8511, -0.034524966, -0.04607658, -250775.44, -57760.81, 0.0, 5.0067267, 4.9189196 
2.7825958e+2, 2.852216e+2, -194767.4, -332127.0, -1039.6699, -0.01619317, 0.0038290191, -194759.53, -49986.44, 0.0, 5.00863, 4.920283 
2.782621e+2, 2.901443e+2, -141442.73, -280643.66, -915.9266, 0.007787406, 0.015172209, -141436.7, -44875.664, 0.0, 5.0099297, 4.9203143 
2.782645e+2, 2.9506668e+2, -88931.29, -229567.67, -830.7701, 0.029335443, 0.02279134, -88926.38, -40574.926, 0.0, 5.0109115, 4.9203453 
2.782675e+2, 3.0000654e+2, -17484.957, -98293.79, -456.7563, 0.05639139, 0.045432918, -17482.375, -17482.375, 0.0, 5.0114546, 4.9583964 
2.7827063e+2, 3.0496925e+2, -6306.075, -65907.26, -693.4047, 0.10185466, -0.03706854, -6298.0093, -6298.0093, 0.0, 5.010427, 4.969917 
2.7827257e+2, 3.0993336e+2, -10746.165, -65751.484, 184.4173, 0.13839117, -0.14956029, -10745.547, -10745.547, 0.0, 5.008456, 4.9706316 
2.7827385e+2, 3.1489894e+2, -17053.889, -66494.88, 2162.0503, 0.16569182, -0.25629216, -16959.523, -16959.523, 0.0, 5.0057425, 4.9713454 
2.8328982e+2, 1.21527545e+2, -1710889.5, -1747074.9, 259.62, -0.004164399, -0.005483592, -1710887.6, 38140.703, 0.0, 5.0141096, 4.990534 
2.8329006e+2, 1.2651445e+2, -1668980.1, -1712058.4, 303.7599, -0.00028800624, 0.0006799101, -1668978.0, 31177.08, 0.0, 5.014018, 4.9859953 
2.8328982e+2, 1.3150008e+2, -1620274.1, -1663200.8, 211.7348, -0.0015445049, -0.003845471, -1620273.1, 31023.738, 0.0, 5.013921, 4.985996 
2.8328958e+2, 1.3648567e+2, -1573776.3, -1618879.4, 119.580574, -0.0027700244, -0.00714484, -1573775.9, 28662.906, 0.0, 5.0138235, 4.9844923 
2.8328937e+2, 1.414685e+2, -1531939.3, -1584439.0, 124.8936, -0.0037702476, 0.0049622175, -1531939.0, 21669.236, 0.0, 5.01378, 4.9796104 
2.8328934e+2, 1.4644842e+2, -1482520.8, -1534949.5, 139.82051, -0.004433721, 0.004608658, -1482520.4, 22285.857, 0.0, 5.0138454, 4.979718 
2.8328928e+2, 1.514283e+2, -1433253.5, -1485786.0, 113.47266, -0.0050759525, 0.00354217, -1433253.3, 22751.512, 0.0, 5.013914, 4.979718 
2.8328925e+2, 1.5640818e+2, -1385417.0, -1439601.4, 87.125145, -0.0057058195, 0.0029295387, -1385416.9, 21786.613, 0.0, 5.0139823, 4.9787235 
2.8328922e+2, 1.6138418e+2, -1344588.6, -1407942.5, -34.46355, -0.0057551838, 0.007231616, -1344588.6, 13850.613, 0.0, 5.0140185, 4.972885 
2.8328922e+2, 1.6635707e+2, -1295514.5, -1358744.1, -60.24804, -0.0044893953, 0.004298874, -1295514.5, 14190.172, 0.0, 5.0139804, 4.9729266 
2.8328922e+2, 1.7132996e+2, -1246507.5, -1309673.5, -67.89367, -0.0031539924, 0.0014125262, -1246507.5, 14462.365, 0.0, 5.0139384, 4.9729266 
2.8328922e+2, 1.7630284e+2, -1198636.9, -1263007.1, -75.49784, -0.0018008563, -0.0010781889, -1198636.8, 13598.249, 0.0, 5.0138965, 4.9721193 
2.8328916e+2, 1.8127221e+2, -1158261.4, -1232268.4, -335.14325, -0.00007569469, 0.0043785474, -1158259.9, 5274.804, 0.0, 5.013856, 4.965926 
2.832889e+2, 1.8623832e+2, -1108895.5, -1182551.4, -510.70978, 0.0025743393, 0.0019994031, -1108892.0, 5973.8535, 0.0, 5.013823, 4.966115 
2.8328863e+2, 1.9120444e+2, -1059790.5, -1133394.9, -609.7349, 0.005283395, -0.00057500595, -1059785.4, 6411.5146, 0.0, 5.0137906, 4.966116 
2.8328836e+2, 1.9617057e+2, -1011577.3, -1086154.9, -708.86804, 0.008013263, -0.002822206, -1011570.56, 5957.2847, 0.0, 5.0137577, 4.965466 
2.8328815e+2, 2.0113312e+2, -971607.7, -1056752.3, -487.52933, 0.009921552, 0.0027161636, -971604.9, -2710.7861, 0.0, 5.0137367, 4.9587235 
2.832881e+2, 2.0609209e+2, -922084.06, -1006966.25, -432.58783, 0.009718759, 0.0008473736, -922081.9, -1786.1499, 0.0, 5.0137434, 4.9588933 
2.8328803e+2, 2.1105108e+2, -872790.75, -957684.9, -474.52606, 0.009445664, -0.0013316002, -872788.1, -1090.687, 0.0, 5.013751, 4.9588933 
2.83288e+2, 2.1601003e+2, -824164.4, -909859.5, -516.5965, 0.0092102345, -0.0033766727, -824161.25, -1062.1597, 0.0, 5.013758, 4.958394 
2.8328782e+2, 2.2096543e+2, -783920.3, -880360.9, -960.85394, 0.009505522, 0.0019399858, -783910.75, -9375.678, 0.0, 5.0137553, 4.951592 
2.832871e+2, 2.2591703e+2, -734182.1, -829893.3, -1109.4226, 0.011086336, -0.004936799, -734169.25, -8163.0464, 0.0, 5.0137033, 4.9519973 
2.832864e+2, 2.3086861e+2, -684996.9, -780618.7, -1047.5193, 0.012779902, -0.01244338, -684985.44, -7508.1865, 0.0, 5.0136456, 4.9519997 
2.832857e+2, 2.3582017e+2, -636461.94, -732790.8, -984.67523, 0.014518567, -0.020019364, -636451.9, -7503.5337, 0.0, 5.013588, 4.9515004 
2.832847e+2, 2.4076824e+2, -596779.0, -704596.44, -1306.7955, 0.015085529, -0.016783435, -596763.2, -16308.785, 0.0, 5.0135117, 4.944176 
2.832829e+2, 2.4571286e+2, -547058.94, -653843.5, -1450.0437, 0.0111222, -0.020727428, -547039.25, -15043.24, 0.0, 5.013377, 4.9446864 
2.8328103e+2, 2.5065747e+2, -498024.84, -604631.9, -1528.7432, 0.006817703, -0.025422933, -498002.9, -14465.142, 0.0, 5.0132375, 4.9446783 
2.8327918e+2, 2.5560215e+2, -449237.56, -555985.06, -1608.64, 0.0025947625, -0.029564986, -449213.34, -14134.283, 0.0, 5.013096, 4.944472 
2.8327733e+2, 2.6054317e+2, -409246.4, -527487.0, -2404.0823, 0.0013025859, -0.023086442, -409197.53, -22544.195, 0.0, 5.013002, 4.9371195 
2.832746e+2, 2.6548132e+2, -357122.53, -472083.8, -3593.0579, 0.0026548656, -0.040068477, -357010.34, -18763.602, 0.0, 5.012981, 4.9390764 
2.8327152e+2, 2.7041936e+2, -307314.34, -422159.78, -4379.2114, 0.0027006413, -0.063728414, -307147.63, -17307.836, 0.0, 5.012955, 4.9392133 
2.832682e+2, 2.7535725e+2, -257522.98, -372416.66, -5111.8696, 0.001901053, -0.09234091, -257296.0, -15861.276, 0.0, 5.012925, 4.939303 
2.8326842e+2, 2.8029057e+2, -232476.19, -376898.25, 904.6934, 0.0019460174, -0.071227536, -232470.53, -39389.98, 0.0, 5.012902, 4.920346 
2.8327298e+2, 2.852166e+2, -182182.38, -323950.63, -701.8858, 0.015135176, -0.021815533, -182178.9, -37348.785, 0.0, 5.0132384, 4.921096 
2.8327608e+2, 2.9014084e+2, -131168.22, -273708.6, -384.41055, 0.03179078, 0.0016870053, -131167.19, -34565.566, 0.0, 5.013702, 4.9210553 
2.8327906e+2, 2.9506457e+2, -80121.45, -223517.03, -8.8043785, 0.04866579, 0.01942094, -80121.45, -31743.79, 0.0, 5.0141573, 4.921015 
2.832827e+2, 3.0000627e+2, -9191.155, -93127.875, 315.67178, 0.075259686, 0.054590326, -9189.969, -9189.969, 0.0, 5.0146236, 4.9588275 
2.832868e+2, 3.049689e+2, 5182.192, -61630.742, -1849.8756, 0.13380837, -0.016309524, 5233.3706, 5233.3706, 0.0, 5.0153265, 4.9693785 
2.8329003e+2, 3.099327e+2, 8825.697, -56175.92, -4088.7554, 0.19239137, -0.12153761, 9081.88, 9081.88, 0.0, 5.016088, 4.9708343 
2.832927e+2, 3.148989e+2, 12679.846, -50935.76, -6225.3105, 0.24923971, -0.22198811, 13283.319, 13283.319, 0.0, 5.01684, 4.9722924 
2.8830385e+2, 1.2152801e+2, -1710526.8, -1746333.9, 167.29434, -0.0050174636, -0.0068731997, -1710525.9, 38497.254, 0.0, 5.014109, 4.9907775 
2.8830412e+2, 1.2651491e+2, -1669158.0, -1712417.3, 227.83818, -0.00010693093, 0.0001451849, -1669156.9, 30992.441, 0.0, 5.0140176, 4.9858775 
2.8830376e+2, 1.3150035e+2, -1620449.9, -1663559.1, 137.47845, -0.0012579364, -0.0050399676, -1620449.5, 30843.559, 0.0, 5.0139203, 4.985878 
2.8830343e+2, 1.3648577e+2, -1573949.8, -1619237.1, 47.06404, -0.0023964106, -0.009003715, -1573949.8, 28487.234, 0.0, 5.0138235, 4.9843745 
2.883032e+2, 1.4146847e+2, -1532011.4, -1584587.3, 150.73523, -0.003505838, 0.0028085425, -1532011.0, 21596.803, 0.0, 5.01378, 4.9795613 
2.8830317e+2, 1.464484e+2, -1482569.8, -1535050.1, 191.93149, -0.0046721785, 0.0029270223, -1482569.0, 22236.85, 0.0, 5.0138454, 4.979685 
2.8830314e+2, 1.5142831e+2, -1433302.0, -1485886.4, 166.25174, -0.0058365655, 0.0023546072, -1433301.4, 22703.04, 0.0, 5.013914, 4.979685 
2.883031e+2, 1.5640819e+2, -1385464.8, -1439701.5, 140.57448, -0.0069958093, 0.0022337013, -1385464.4, 21738.709, 0.0, 5.0139823, 4.97869 
2.883031e+2, 1.6138422e+2, -1344605.8, -1407977.5, -47.106228, -0.0072493916, 0.007018267, -1344605.8, 13833.193, 0.0, 5.0140185, 4.9728737 
2.883031e+2, 1.6635716e+2, -1295525.8, -1358766.9, -92.13998, -0.0054492457, 0.0046414337, -1295525.6, 14178.328, 0.0, 5.01398, 4.972919 
2.8830314e+2, 1.713301e+2, -1246518.6, -1309696.0, -98.78392, -0.0035642062, 0.0023213031, -1246518.5, 14450.277, 0.0, 5.0139384, 4.972919 
2.8830314e+2, 1.7630304e+2, -1198647.8, -1263029.5, -105.381165, -0.001674414, 0.00039552405, -1198647.6, 13585.911, 0.0, 5.0138965, 4.9721117 
2.8830308e+2, 1.8127239e+2, -1158394.9, -1232551.4, -362.96268, 0.00034409112, 0.006313696, -1158393.1, 5140.295, 0.0, 5.013856, 4.9658313 
2.8830272e+2, 1.8623841e+2, -1109067.1, -1182917.9, -534.888, 0.0026572628, 0.004134737, -1109063.3, 5802.544, 0.0, 5.013823, 4.9659915 
2.883024e+2, 1.9120443e+2, -1059960.4, -1133759.8, -632.40375, 0.0049776905, 0.0017465503, -1059955.0, 6243.167, 0.0, 5.0137906, 4.9659925 
2.8830206e+2, 1.9617045e+2, -1011745.75, -1086518.1, -730.0237, 0.0072993385, -0.00031753784, -1011738.6, 5791.8413, 0.0, 5.0137577, 4.9653425 
2.883018e+2, 2.0113288e+2, -971686.4, -1056919.1, -491.27338, 0.008819924, 0.0049206596, -971683.56, -2785.4626, 0.0, 5.0137362, 4.958667 
2.8830174e+2, 2.060917e+2, -922153.0, -1007111.4, -427.81033, 0.008391925, 0.0021238623, -922150.8, -1849.8353, 0.0, 5.013743, 4.9588447 
2.8830165e+2, 2.1105054e+2, -872859.3, -957829.7, -467.54132, 0.007885207, -0.0009458956, -872856.75, -1152.8369, 0.0, 5.01375, 4.9588447 
2.883016e+2, 2.1600936e+2, -824232.56, -910004.1, -507.4047, 0.007390871, -0.0038785632, -824229.56, -1122.79, 0.0, 5.013757, 4.9583454 
2.8830138e+2, 2.2096467e+2, -783864.2, -880225.9, -984.23456, 0.0077527724, 0.00078694586, -783854.1, -9310.655, 0.0, 5.0137534, 4.9516387 
2.8830075e+2, 2.2591633e+2, -734076.9, -829642.7, -1147.3336, 0.010340498, -0.006232214, -734063.1, -8049.1064, 0.0, 5.0137005, 4.952084 
2.883001e+2, 2.3086798e+2, -684894.56, -780368.06, -1081.1592, 0.013055675, -0.013859608, -684882.4, -7397.984, 0.0, 5.0136423, 4.9520874 
2.8829944e+2, 2.3581962e+2, -636362.56, -732540.1, -1014.0376, 0.0157759, -0.021550942, -636351.9, -7397.048, 0.0, 5.0135837, 4.951588 
2.882985e+2, 2.4076776e+2, -596779.1, -704522.6, -1370.063, 0.017322361, -0.018318003, -596761.75, -16301.684, 0.0, 5.0135016, 4.9442024 
2.8829667e+2, 2.4571264e+2, -547183.06, -654027.6, -1557.6106, 0.014535357, -0.019338742, -547160.4, -15161.372, 0.0, 5.0133653, 4.9446235 
2.8829473e+2, 2.5065753e+2, -498148.16, -604817.06, -1630.9829, 0.011376141, -0.020550558, -498123.22, -14585.47, 0.0, 5.013225, 4.944615 
2.8829283e+2, 2.5560248e+2, -449360.06, -556171.4, -1705.5471, 0.008236749, -0.021200843, -449332.84, -14256.825, 0.0, 5.0130835, 4.9444075 
2.8829095e+2, 2.6054364e+2, -410069.2, -529154.56, -2422.3433, 0.00750437, -0.011590361, -410019.94, -23370.217, 0.0, 5.0129766, 4.936546 
2.8828835e+2, 2.654808e+2, -358478.8, -474687.47, -3473.3733, 0.008705119, -0.028672395, -358375.1, -20119.246, 0.0, 5.01292, 4.938194 
2.8828546e+2, 2.7041772e+2, -308734.78, -424662.16, -4174.5625, 0.008481767, -0.052874327, -308584.66, -18721.865, 0.0, 5.0128603, 4.938368 
2.8828236e+2, 2.753546e+2, -259007.6, -374817.94, -4822.1787, 0.007174666, -0.081812136, -258807.16, -17336.115, 0.0, 5.0127964, 4.9384947 
2.8828248e+2, 2.8028667e+2, -231067.77, -373611.8, -88.05035, 0.01197281, -0.0727567, -231067.7, -37935.938, 0.0, 5.0128965, 4.9215236 
2.88287e+2, 2.85213e+2, -180827.06, -321590.2, -648.471, 0.025919579, -0.029952373, -180824.08, -35946.156, 0.0, 5.0133457, 4.921969 
2.8829032e+2, 2.9013816e+2, -129834.74, -271233.16, -233.7252, 0.037789043, -0.003222529, -129834.35, -33195.277, 0.0, 5.0137987, 4.921964 
2.8829345e+2, 2.9506284e+2, -78810.38, -220927.08, 239.0455, 0.049548984, 0.017433153, -78809.984, -30405.242, 0.0, 5.014243, 4.9219594 
2.8829715e+2, 3.00006e+2, -8916.405, -92543.02, 350.7866, 0.07106516, 0.059625965, -8914.934, -8914.934, 0.0, 5.0146623, 4.959077 
2.8830186e+2, 3.0496907e+2, 2445.63, -67247.016, -1473.0682, 0.12707728, 0.016558925, 2476.7517, 2476.7517, 0.0, 5.015242, 4.967562 
2.8830585e+2, 3.099329e+2, 5728.5366, -61917.402, -3257.8672, 0.18341176, -0.05540767, 5885.075, 5885.075, 0.0, 5.015895, 4.9690237 
2.8830934e+2, 3.148993e+2, 9223.624, -56802.98, -4940.7124, 0.23736383, -0.11985329, 9591.286, 9591.286, 0.0, 5.0165386, 4.9704876 
2.9331788e+2, 1.2152837e+2, -1710057.1, -1745375.0, 72.25516, -0.006059344, -0.009145752, -1710057.0, 38961.926, 0.0, 5.014108, 4.9910927 
2.9331815e+2, 1.2651539e+2, -1669336.4, -1712775.8, 152.44545, 0.00006911897, -0.00032488472, -1669335.9, 30807.605, 0.0, 5.0140166, 4.98576 
2.933177e+2, 1.3150065e+2, -1620626.1, -1663917.3, 63.7513, -0.0009728323, -0.0061971964, -1620626.0, 30663.174, 0.0, 5.0139203, 4.98576 
2.933173e+2, 1.3648587e+2, -1574123.9, -1619594.6, -24.922987, -0.0020207008, -0.010852708, -1574123.9, 28311.332, 0.0, 5.0138235, 4.9842563 
2.93317e+2, 1.4146845e+2, -1532088.5, -1584745.4, 176.15833, -0.0032412682, 0.0006728489, -1532087.9, 21519.336, 0.0, 5.01378, 4.9795094 
2.93317e+2, 1.464484e+2, -1482618.9, -1535150.8, 244.12234, -0.004910106, 0.0012592573, -1482617.8, 22187.752, 0.0, 5.0138454, 4.9796515 
2.93317e+2, 1.5142831e+2, -1433350.5, -1485986.6, 219.1107, -0.0065953494, 0.0011691564, -1433349.6, 22654.482, 0.0, 5.0139136, 4.9796515 
2.93317e+2, 1.5640822e+2, -1385512.8, -1439801.4, 194.10371, -0.008282672, 0.0015282168, -1385512.1, 21690.725, 0.0, 5.0139823, 4.978657 
2.9331696e+2, 1.6138428e+2, -1344627.0, -1408021.0, -59.978706, -0.008743395, 0.0068235896, -1344627.0, 13811.562, 0.0, 5.0140185, 4.972859 
2.93317e+2, 1.6635725e+2, -1295537.3, -1358789.5, -124.06897, -0.006409452, 0.0049998653, -1295537.0, 14166.218, 0.0, 5.01398, 4.9729114 
2.9331702e+2, 1.7133023e+2, -1246530.0, -1309718.4, -129.71123, -0.003974342, 0.0032306977, -1246529.8, 14437.926, 0.0, 5.013938, 4.9729114 
2.9331705e+2, 1.7630322e+2, -1198659.1, -1263051.6, -135.30154, -0.001547459, 0.0018545991, -1198658.8, 13573.314, 0.0, 5.013896, 4.972104 
2.9331696e+2, 1.8127258e+2, -1158533.8, -1232845.1, -390.707, 0.0007606032, 0.008275742, -1158531.8, 5000.3696, 0.0, 5.013856, 4.965732 
2.9331657e+2, 1.862385e+2, -1109239.1, -1183284.1, -559.1227, 0.0027327952, 0.0062937476, -1109234.9, 5630.805, 0.0, 5.013823, 4.9658675 
2.9331616e+2, 1.9120441e+2, -1060130.9, -1134124.3, -655.1289, 0.0046612173, 0.0040680734, -1060125.0, 6074.398, 0.0, 5.0137906, 4.9658685 
2.9331577e+2, 1.9617033e+2, -1011914.6, -1086881.1, -751.23553, 0.006571266, 0.0021633862, -1011907.06, 5625.9854, 0.0, 5.013758, 4.965219 
2.9331544e+2, 2.0113263e+2, -971776.44, -1057109.6, -496.1047, 0.0077260784, 0.0071737603, -971773.56, -2871.5103, 0.0, 5.013736, 4.9586024 
2.9331535e+2, 2.0609133e+2, -922222.44, -1007256.06, -423.03564, 0.007081007, 0.0034513422, -922220.3, -1914.1086, 0.0, 5.013742, 4.9587955 
2.9331523e+2, 2.1105e+2, -872928.4, -957974.1, -460.55927, 0.00634022, -0.0005459934, -872925.94, -1215.5582, 0.0, 5.0137496, 4.9587955 
2.9331514e+2, 2.160087e+2, -824301.4, -910148.3, -498.21555, 0.005586528, -0.0044030496, -824298.44, -1183.9751, 0.0, 5.0137568, 4.958296 
2.9331496e+2, 2.2096393e+2, -783818.6, -880112.75, -1008.2806, 0.005991405, -0.00033405682, -783808.1, -9256.257, 0.0, 5.013752, 4.9516773 
2.933144e+2, 2.2591564e+2, -733972.7, -829391.4, -1186.1628, 0.009572592, -0.0075275777, -733957.94, -7936.144, 0.0, 5.0136976, 4.9521704 
2.9331377e+2, 2.3086736e+2, -684793.3, -780116.7, -1115.7174, 0.013306909, -0.015357519, -684780.25, -7288.7314, 0.0, 5.0136385, 4.952174 
2.9331318e+2, 2.3581907e+2, -636264.1, -732288.6, -1044.3186, 0.01700622, -0.023245933, -636252.8, -7291.4844, 0.0, 5.0135794, 4.9516754 
2.9331225e+2, 2.4076732e+2, -596813.8, -704521.5, -1438.5067, 0.019514581, -0.01964908, -596794.6, -16329.123, 0.0, 5.013492, 4.944203 
2.933104e+2, 2.4571243e+2, -547309.75, -654209.44, -1664.9048, 0.01792347, -0.017609792, -547283.8, -15282.081, 0.0, 5.013353, 4.9445596 
2.9330847e+2, 2.5065762e+2, -498273.94, -605000.0, -1732.9495, 0.015942235, -0.015439159, -498245.8, -14708.335, 0.0, 5.0132127, 4.94455 
2.933065e+2, 2.5560284e+2, -449485.03, -556355.4, -1802.1812, 0.013919094, -0.012698917, -449454.66, -14381.865, 0.0, 5.0130715, 4.9443426 
2.9330453e+2, 2.6054397e+2, -410956.75, -530955.94, -2476.726, 0.013777276, -0.00055972004, -410905.66, -24258.855, 0.0, 5.012952, 4.935915 
2.9330203e+2, 2.6548004e+2, -359843.53, -477288.88, -3409.4148, 0.0144646205, -0.019684719, -359744.66, -21478.115, 0.0, 5.0128584, 4.937283 
2.9329926e+2, 2.704159e+2, -310163.4, -427161.88, -4025.6028, 0.013569665, -0.046376962, -310025.06, -20137.111, 0.0, 5.012765, 4.9374943 
2.932963e+2, 2.7535164e+2, -260500.16, -377216.22, -4588.1465, 0.011352583, -0.07758816, -260320.06, -18809.99, 0.0, 5.0126677, 4.9376583 
2.9329655e+2, 2.8028288e+2, -230831.7, -373026.3, -950.6793, 0.02244697, -0.07226551, -230825.34, -37643.47, 0.0, 5.012892, 4.9217477 
2.9330122e+2, 2.8520975e+2, -179485.88, -319219.47, -662.50586, 0.038141422, -0.030533645, -179482.73, -34560.69, 0.0, 5.013453, 4.922816 
2.9330468e+2, 2.9013574e+2, -128515.086, -268747.34, -150.49557, 0.044720035, -0.0032126077, -128514.92, -31840.973, 0.0, 5.0138955, 4.9228473 
2.9330796e+2, 2.950613e+2, -77512.836, -218326.67, 419.4255, 0.05086023, 0.017728781, -77511.586, -29081.268, 0.0, 5.0143294, 4.9228783 
2.9331177e+2, 3.000053e+2, -9283.016, -93424.62, 322.6426, 0.06765726, 0.06230642, -9281.778, -9281.778, 0.0, 5.014701, 4.958756 
2.93317e+2, 3.0496803e+2, -307.57556, -72856.54, -1115.8651, 0.12249617, 0.034897592, -290.41666, -290.41666, 0.0, 5.0151577, 4.9656086 
2.9332167e+2, 3.0993134e+2, 2614.3928, -67652.71, -2446.0276, 0.17760465, -0.017197236, 2699.437, 2699.437, 0.0, 5.015702, 4.967076 
2.933258e+2, 3.1489742e+2, 5749.8765, -62664.46, -3674.5808, 0.22968322, -0.05902785, 5946.675, 5946.675, 0.0, 5.0162373, 4.968545 
2.983319e+2, 1.2152864e+2, -1709781.6, -1744360.3, -98.73035, -0.0072119944, -0.012242195, -1709781.4, 39234.44, 0.0, 5.014012, 4.991473 
2.9833218e+2, 1.2651587e+2, -1669700.9, -1713221.8, 9.158251, 0.00026159707, -0.000607075, -1669700.9, 30436.77, 0.0, 5.013954, 4.985644 
2.9833168e+2, 1.3150093e+2, -1620895.0, -1664316.0, -66.60233, -0.0006887804, -0.0072346367, -1620894.9, 30390.414, 0.0, 5.0138884, 4.9856434 
2.9833114e+2, 1.3648598e+2, -1574310.0, -1619952.6, -141.70387, -0.0016515077, -0.012645495, -1574309.5, 28123.8, 0.0, 5.0138187, 4.98414 
2.983308e+2, 1.4146844e+2, -1532158.6, -1584904.1, 166.11185, -0.0029790457, -0.00142524, -1532158.0, 21448.762, 0.0, 5.0137835, 4.979455 
2.983308e+2, 1.4644839e+2, -1482736.5, -1535282.3, 270.75, -0.005131088, -0.0003839061, -1482735.1, 22069.918, 0.0, 5.0138216, 4.979619 
2.983308e+2, 1.5142831e+2, -1433556.5, -1486161.1, 256.07492, -0.0073122643, -0.0000102006015, -1433555.3, 22448.51, 0.0, 5.0138607, 4.979619 
2.9833084e+2, 1.5640824e+2, -1385812.1, -1440021.0, 241.3088, -0.009498251, 0.00081150583, -1385811.0, 21391.463, 0.0, 5.0138974, 4.9786243 
2.9833084e+2, 1.6138433e+2, -1344954.6, -1408220.1, -72.13352, -0.010156628, 0.0066406336, -1344954.6, 13483.508, 0.0, 5.0139165, 4.972841 
2.9833087e+2, 1.6635734e+2, -1295794.5, -1358932.8, -164.03378, -0.0073164217, 0.0053657982, -1295794.1, 13908.409, 0.0, 5.013897, 4.9729023 
2.9833093e+2, 1.7133038e+2, -1246734.1, -1309835.4, -178.91682, -0.0043508895, 0.0041313837, -1246733.6, 14232.964, 0.0, 5.013873, 4.9729023 
2.9833096e+2, 1.763034e+2, -1198818.8, -1263146.5, -193.46893, -0.0013979396, 0.0032885263, -1198818.3, 13412.52, 0.0, 5.013846, 4.9720955 
2.9833087e+2, 1.8127277e+2, -1158776.6, -1233194.4, -447.7534, 0.0011907197, 0.010245064, -1158773.9, 4756.8574, 0.0, 5.013822, 4.9656305 
2.9833043e+2, 1.862386e+2, -1109451.1, -1183666.0, -600.0207, 0.0028211107, 0.008439071, -1109446.3, 5419.454, 0.0, 5.013809, 4.965745 
2.9832992e+2, 1.912044e+2, -1060300.0, -1134485.0, -681.9688, 0.0043727867, 0.006334235, -1060293.6, 5907.061, 0.0, 5.013791, 4.965746 
2.9832944e+2, 1.9617021e+2, -1012058.94, -1087229.4, -764.32227, 0.005901729, 0.004546364, -1012051.1, 5484.5425, 0.0, 5.013767, 4.9650965 
2.983291e+2, 2.0113239e+2, -971842.94, -1057304.4, -480.62567, 0.006736488, 0.009395812, -971840.25, -2934.2432, 0.0, 5.0137477, 4.9585304 
2.9832894e+2, 2.0609094e+2, -922254.5, -1007380.44, -386.89246, 0.0058535063, 0.0047918167, -922252.75, -1941.3914, 0.0, 5.0137544, 4.958747 
2.9832885e+2, 2.1104948e+2, -872971.75, -958103.44, -412.4207, 0.0048605907, -0.00012502332, -872969.75, -1253.02, 0.0, 5.0137577, 4.958747 
2.9832873e+2, 2.1600804e+2, -824370.7, -910289.2, -437.60077, 0.0038441897, -0.004898845, -824368.44, -1246.4194, 0.0, 5.013756, 4.958247 
2.9832855e+2, 2.209632e+2, -783808.7, -880040.1, -981.07916, 0.004278254, -0.0013425323, -783798.7, -9238.668, 0.0, 5.013744, 4.951705 
2.9832804e+2, 2.2591497e+2, -733876.56, -829157.1, -1220.2803, 0.008863938, -0.008735474, -733860.94, -7831.4814, 0.0, 5.0136957, 4.95225 
2.9832748e+2, 2.3086673e+2, -684705.4, -779885.8, -1197.5148, 0.0136673795, -0.016846199, -684690.3, -7191.6475, 0.0, 5.0136347, 4.952254 
2.9832694e+2, 2.358185e+2, -636214.1, -732074.3, -1175.0813, 0.01842402, -0.025014985, -636199.7, -7231.7554, 0.0, 5.013562, 4.9517555 
2.9832605e+2, 2.4076687e+2, -596923.7, -704628.6, -1653.2043, 0.02196354, -0.02070774, -596898.3, -16427.324, 0.0, 5.013471, 4.9441724 
2.9832417e+2, 2.4571225e+2, -547337.44, -654362.9, -1936.4703, 0.021637416, -0.015492712, -547302.44, -15298.038, 0.0, 5.01338, 4.94449 
2.9832217e+2, 2.5065768e+2, -498203.4, -605110.0, -2023.3278, 0.020969521, -0.010054107, -498165.13, -14627.83, 0.0, 5.0132766, 4.94448 
2.983202e+2, 2.5560316e+2, -449367.34, -556445.06, -2111.5754, 0.020258086, -0.0040362165, -449325.72, -14255.993, 0.0, 5.0131536, 4.9442716 
2.9831818e+2, 2.605442e+2, -411868.84, -532983.75, -2870.478, 0.021112518, 0.010078942, -411800.84, -25155.813, 0.0, 5.0129642, 4.9351873 
2.9831573e+2, 2.6547906e+2, -362485.06, -480736.8, -4157.5303, 0.022218602, -0.012762161, -362339.06, -24059.14, 0.0, 5.0123887, 4.936249 
2.9831308e+2, 2.7041358e+2, -314887.56, -431514.7, -5373.8784, 0.022108313, -0.04368883, -314640.47, -24722.848, 0.0, 5.0115495, 4.9364614 
2.9831025e+2, 2.75348e+2, -267949.7, -382743.34, -6748.929, 0.020934548, -0.07901151, -267554.25, -25998.338, 0.0, 5.010473, 4.9366274 
2.9831088e+2, 2.8027862e+2, -239952.05, -378749.8, -4663.5493, 0.041652977, -0.069319695, -239795.53, -46558.82, 0.0, 5.009959, 4.921009 
2.983159e+2, 2.8520635e+2, -183931.67, -319091.06, -3084.8213, 0.05800154, -0.023462873, -183861.3, -38893.895, 0.0, 5.0114503, 4.9237065 
2.9831943e+2, 2.901332e+2, -130797.36, -267656.9, -1979.1658, 0.056908738, 0.0018922609, -130768.74, -34058.87, 0.0, 5.0126734, 4.923739 
2.983228e+2, 2.950596e+2, -78568.48, -216686.53, -988.0185, 0.05570315, 0.020866193, -78561.414, -30104.584, 0.0, 5.013555, 4.9237714 
2.9832667e+2, 3.000039e+2, -12674.988, -97111.84, -1242.9906, 0.067792274, 0.06384888, -12656.694, -12633.327, 0.0, 5.013892, 4.9577394 
2.983323e+2, 3.0496532e+2, -9273.184, -81885.984, -3256.6475, 0.12501936, 0.040195826, -9127.417, -9127.417, 0.0, 5.012865, 4.963225 
2.983376e+2, 3.099272e+2, -12971.783, -79656.13, -5552.7383, 0.1839934, -0.0069500343, -12512.575, -12512.575, 0.0, 5.0110064, 4.96463 
2.9834238e+2, 3.1489182e+2, -18542.135, -78502.31, -8042.922, 0.24089268, -0.043044038, -17482.018, -17482.018, 0.0, 5.008378, 4.9660397 
3.033458e+2, 1.2152877e+2, -1710015.4, -1744286.8, -432.49213, -0.0072114905, -0.013491739, -1710009.9, 39005.293, 0.0, 5.0138936, 4.9915547 
3.0334613e+2, 1.2651661e+2, -1669805.6, -1713415.9, -272.75897, 0.00036756555, 0.0048129517, -1669803.9, 30326.83, 0.0, 5.01395, 4.985582 
3.0334562e+2, 1.3150138e+2, -1620637.1, -1664328.8, -299.40848, -0.0007637943, -0.004331565, -1620635.1, 30646.469, 0.0, 5.0140047, 4.985582 
3.0334508e+2, 1.364861e+2, -1573679.3, -1619780.0, -325.82172, -0.0018639608, -0.012237858, -1573676.9, 28755.736, 0.0, 5.0140595, 4.984079 
3.033447e+2, 1.4146835e+2, -1531301.1, -1584475.5, 8.0441885, -0.0031522433, -0.0026754993, -1531301.1, 22306.895, 0.0, 5.014068, 4.9794583 
3.033447e+2, 1.4644833e+2, -1482268.9, -1535009.0, 157.05374, -0.004969978, -0.0015659627, -1482268.4, 22537.28, 0.0, 5.013969, 4.9796386 
3.033447e+2, 1.514283e+2, -1433513.5, -1486096.0, 193.74406, -0.0067909677, -0.001061054, -1433512.8, 22490.908, 0.0, 5.0138655, 4.9796386 
3.0334473e+2, 1.5640825e+2, -1386185.4, -1440158.3, 230.60834, -0.008600069, -0.00010142229, -1386184.4, 21017.389, 0.0, 5.0137615, 4.9786434 
3.0334473e+2, 1.6138437e+2, -1345630.8, -1408641.5, -15.483094, -0.009098119, 0.0059852353, -1345630.8, 12806.2295, 0.0, 5.0137076, 4.9728007 
3.0334476e+2, 1.6635738e+2, -1296276.9, -1359301.5, -145.60547, -0.0066125575, 0.005272476, -1296276.5, 13425.221, 0.0, 5.0137615, 4.972843 
3.033448e+2, 1.713304e+2, -1246973.0, -1310084.9, -214.88457, -0.0039915605, 0.004617991, -1246972.3, 13994.062, 0.0, 5.0138197, 4.972844 
3.0334482e+2, 1.7630343e+2, -1198807.5, -1263274.6, -284.25092, -0.0013515485, 0.0043566055, -1198806.3, 13424.672, 0.0, 5.013878, 4.972037 
3.033447e+2, 1.8127277e+2, -1158495.4, -1233177.3, -539.12946, 0.00090201857, 0.011521273, -1158491.5, 5040.0615, 0.0, 5.0139422, 4.9655795 
3.0334428e+2, 1.8623847e+2, -1108895.3, -1183516.6, -615.8499, 0.0021638866, 0.00902512, -1108890.3, 5977.382, 0.0, 5.0140233, 4.965695 
3.0334377e+2, 1.9120415e+2, -1059455.8, -1134200.5, -624.6472, 0.0034087528, 0.0061911177, -1059450.6, 6753.2188, 0.0, 5.014105, 4.965696 
3.0334333e+2, 1.9616982e+2, -1010910.4, -1086803.3, -633.4791, 0.0046908846, 0.003673233, -1010905.1, 6634.7793, 0.0, 5.014186, 4.965046 
3.0334294e+2, 2.0113194e+2, -970431.6, -1056652.1, -305.4467, 0.00528406, 0.008163146, -970430.56, -1519.7472, 0.0, 5.014237, 4.958525 
3.0334276e+2, 2.0609057e+2, -920949.8, -1006749.94, -162.28564, 0.0039529502, 0.004384852, -920949.5, -634.2641, 0.0, 5.014202, 4.958755 
3.0334258e+2, 2.1104923e+2, -871795.1, -957533.8, -131.31067, 0.0025418024, 0.0003829726, -871794.94, -75.38574, 0.0, 5.0141625, 4.9587555 
3.0334243e+2, 2.1600789e+2, -823306.4, -909772.6, -100.42407, 0.0011617903, -0.0034721966, -823306.25, -182.47719, 0.0, 5.0141225, 4.9582562 
3.0334222e+2, 2.2096309e+2, -782891.8, -879784.9, -626.5502, 0.0016905762, 0.00083675585, -782887.75, -8326.273, 0.0, 5.0140967, 4.9516315 
3.0334184e+2, 2.2591478e+2, -732864.5, -828964.6, -1043.9352, 0.0077288784, -0.0062534893, -732853.1, -6820.3438, 0.0, 5.0141034, 4.9521317 
3.0334142e+2, 2.3086648e+2, -683499.7, -779608.44, -1215.6588, 0.014192625, -0.0140862735, -683484.3, -5980.2485, 0.0, 5.014111, 4.9521346 
3.0334103e+2, 2.3581815e+2, -634786.25, -731699.9, -1386.6804, 0.02072242, -0.02198161, -634766.4, -5790.9614, 0.0, 5.014118, 4.9516354 
3.0334032e+2, 2.4076645e+2, -594916.9, -703886.3, -1875.1543, 0.025592005, -0.017194798, -594884.6, -14404.975, 0.0, 5.0142016, 4.9441075 
3.0333853e+2, 2.4571188e+2, -544042.4, -652993.0, -2074.0242, 0.02488681, -0.011012892, -544002.94, -11991.481, 0.0, 5.014555, 4.94445 
3.0333668e+2, 2.5065735e+2, -493570.75, -603134.3, -2090.8523, 0.023931285, -0.004603471, -493530.88, -9988.336, 0.0, 5.0149274, 4.944441 
3.0333477e+2, 2.556029e+2, -443355.84, -553850.6, -2106.7083, 0.023176823, 0.002365887, -443315.72, -8242.528, 0.0, 5.0152965, 4.9442334 
3.0333298e+2, 2.6054376e+2, -404839.06, -531323.5, -2646.4807, 0.025223713, 0.016870474, -404783.72, -18133.514, 0.0, 5.0157156, 4.9345636 
3.0333126e+2, 2.6547763e+2, -353133.56, -479244.66, -3199.9814, 0.033558097, -0.00653891, -353052.44, -14753.759, 0.0, 5.016139, 4.9351573 
3.0332944e+2, 2.7041095e+2, -302193.1, -428995.3, -3425.9675, 0.043282676, -0.03780264, -302100.6, -12148.082, 0.0, 5.0165343, 4.935219 
3.0332744e+2, 2.75344e+2, -251294.66, -378916.63, -3587.809, 0.053912196, -0.07334701, -251193.88, -9585.119, 0.0, 5.0169187, 4.9352326 
3.033285e+2, 2.8027388e+2, -219386.98, -370878.7, -581.86456, 0.08671438, -0.056566536, -219384.75, -26085.12, 0.0, 5.0174217, 4.920409 
3.0333298e+2, 2.8520286e+2, -165809.13, -308047.97, 1234.9567, 0.09292084, -0.008676086, -165798.4, -20783.924, 0.0, 5.017225, 4.924906 
3.0333593e+2, 2.9013085e+2, -117553.57, -259303.8, 1486.7706, 0.07858414, 0.013341144, -117537.98, -20797.402, 0.0, 5.01674, 4.924819 
3.033387e+2, 2.9505843e+2, -69253.62, -210583.42, 1862.7307, 0.06664948, 0.030584581, -69229.07, -20758.123, 0.0, 5.016225, 4.9247327 
3.03342e+2, 3.0000314e+2, -7632.5806, -98037.94, 1299.3848, 0.07170869, 0.07164248, -7613.9087, -7582.456, 0.0, 5.015834, 4.956598 
3.0334693e+2, 3.0496484e+2, -3049.9272, -86165.83, 841.4789, 0.12895057, 0.06543112, -3041.409, -3041.409, 0.0, 5.0157156, 4.960462 
3.0335155e+2, 3.099265e+2, -2295.141, -83174.29, 463.02298, 0.19413526, 0.036796138, -2292.4905, -2292.4905, 0.0, 5.0155263, 4.9614077 
3.0335575e+2, 3.1488973e+2, -1427.8995, -80295.01, -30.276539, 0.26351234, 0.011878777, -1427.888, -1427.888, 0.0, 5.015299, 4.9623537 
3.083597e+2, 1.215288e+2, -1710098.4, -1744458.0, -441.82715, -0.0071141273, -0.014217781, -1710092.8, 38923.473, 0.0, 5.0138936, 4.991499 
3.0836004e+2, 1.2651753e+2, -1669856.1, -1713520.1, -232.43375, 0.00022062214, 0.013351882, -1669854.9, 30268.111, 0.0, 5.01395, 4.9855475 
3.0835956e+2, 1.315019e+2, -1620686.9, -1664433.0, -257.30475, -0.0011134318, 0.00074961653, -1620685.4, 30592.275, 0.0, 5.014005, 4.9855475 
3.0835906e+2, 1.3648623e+2, -1573727.9, -1619883.8, -281.84766, -0.0024373364, -0.010617188, -1573726.1, 28706.328, 0.0, 5.01406, 4.9840446 
3.0835873e+2, 1.4146824e+2, -1531253.4, -1584378.1, -44.97222, -0.0036301103, -0.0034684048, -1531253.3, 22356.758, 0.0, 5.014068, 4.9794908 
3.083587e+2, 1.4644827e+2, -1482198.3, -1534863.1, 77.68575, -0.004676433, -0.0024987273, -1482198.1, 22608.557, 0.0, 5.013969, 4.979687 
3.0835867e+2, 1.5142827e+2, -1433443.5, -1485950.5, 115.08153, -0.0057123518, -0.0020545104, -1433443.3, 22560.402, 0.0, 5.013865, 4.979687 
3.0835867e+2, 1.5640827e+2, -1386115.8, -1440013.0, 152.69473, -0.0067438968, -0.0011561186, -1386115.4, 21085.26, 0.0, 5.0137615, 4.978692 
3.0835864e+2, 1.613844e+2, -1345707.6, -1408802.1, 0.73531246, -0.0069265515, 0.0050392537, -1345707.6, 12727.805, 0.0, 5.0137076, 4.9727473 
3.0835864e+2, 1.663574e+2, -1296400.4, -1359561.1, -101.6421, -0.0051937117, 0.0049151066, -1296400.1, 13300.824, 0.0, 5.013762, 4.972757 
3.0835867e+2, 1.7133039e+2, -1247095.6, -1310344.0, -169.87868, -0.0033832178, 0.00487703, -1247095.1, 13871.23, 0.0, 5.0138197, 4.9727573 
3.0835867e+2, 1.763034e+2, -1198929.3, -1263533.3, -238.21078, -0.0015685831, 0.0052320994, -1198928.4, 13303.378, 0.0, 5.013878, 4.97195 
3.0835855e+2, 1.8127267e+2, -1158530.8, -1233249.6, -482.84485, -0.00004950339, 0.012451935, -1158527.6, 5005.785, 0.0, 5.013942, 4.9655557 
3.0835816e+2, 1.8623824e+2, -1108908.8, -1183541.8, -553.4148, 0.00080750557, 0.008791059, -1108904.6, 5965.8, 0.0, 5.0140224, 4.965687 
3.0835772e+2, 1.912038e+2, -1059469.4, -1134225.9, -560.65576, 0.0016515832, 0.0047535696, -1059465.1, 6742.4746, 0.0, 5.014104, 4.9656878 
3.083573e+2, 1.9616935e+2, -1010924.1, -1086829.0, -567.9396, 0.0025127546, 0.0010331266, -1010919.9, 6624.886, 0.0, 5.0141854, 4.965038 
3.0835694e+2, 2.0113142e+2, -970391.44, -1056562.5, -311.62155, 0.0027045072, 0.0050879554, -970390.3, -1474.4518, 0.0, 5.014236, 4.958556 
3.083567e+2, 2.0609027e+2, -920894.75, -1006629.75, -193.34688, 0.0010056735, 0.0030416863, -920894.3, -576.16736, 0.0, 5.0142016, 4.9587965 
3.083564e+2, 2.1104915e+2, -871740.25, -957414.06, -160.32698, -0.0007997246, 0.00090181094, -871739.94, -19.723522, 0.0, 5.014162, 4.958797 
3.0835617e+2, 2.1600802e+2, -823251.7, -909653.3, -127.39199, -0.0025976207, -0.0010947702, -823251.5, -129.2337, 0.0, 5.014122, 4.9582977 
3.0835596e+2, 2.2096336e+2, -783059.6, -880144.9, -629.31714, -0.0019915393, 0.0046423995, -783055.56, -8496.511, 0.0, 5.014096, 4.9515085 
3.0835575e+2, 2.2591491e+2, -733154.06, -829586.2, -1033.2859, 0.0056514717, -0.0018341049, -733143.0, -7109.5547, 0.0, 5.014101, 4.951919 
3.0835554e+2, 2.3086646e+2, -683790.0, -780228.1, -1200.9237, 0.013788403, -0.0090391, -683775.06, -6267.077, 0.0, 5.0141077, 4.9519224 
3.0835527e+2, 2.3581798e+2, -635077.3, -732317.8, -1367.8585, 0.021955753, -0.016293809, -635058.06, -6075.49, 0.0, 5.0141134, 4.9514236 
3.0835477e+2, 2.4076617e+2, -595052.8, -704084.94, -1672.9563, 0.027694814, -0.010931079, -595027.1, -14538.266, 0.0, 5.0141845, 4.944047 
3.0835316e+2, 2.4571157e+2, -544081.6, -652961.56, -1791.7161, 0.025066936, -0.0051317746, -544052.1, -12032.733, 0.0, 5.014534, 4.944471 
3.083514e+2, 2.5065702e+2, -493597.97, -603092.8, -1801.2722, 0.02186377, 0.0006660438, -493568.34, -10019.2, 0.0, 5.01491, 4.9444633 
3.0834967e+2, 2.5560248e+2, -443371.13, -553799.1, -1809.8688, 0.018790793, 0.0069366917, -443341.47, -8262.998, 0.0, 5.0152836, 4.944257 
3.0834815e+2, 2.6054317e+2, -405218.03, -532045.56, -2230.9187, 0.01941076, 0.02028927, -405178.8, -18522.021, 0.0, 5.0156918, 4.9343147 
3.083473e+2, 2.6547673e+2, -353825.3, -480347.03, -2660.2021, 0.030135231, -0.003367152, -353769.4, -15456.955, 0.0, 5.0160637, 4.9347825 
3.083464e+2, 2.7040994e+2, -303033.22, -430077.0, -2815.7378, 0.042064574, -0.033516325, -302970.84, -12998.108, 0.0, 5.0164075, 4.934869 
3.0834532e+2, 2.75343e+2, -252282.52, -379977.16, -2907.1182, 0.054257892, -0.066983074, -252216.36, -10582.013, 0.0, 5.016741, 4.9349074 
3.0834675e+2, 2.8027347e+2, -219509.42, -372098.63, -775.4999, 0.086794496, -0.03883771, -219505.48, -26183.123, 0.0, 5.017534, 4.919992 
3.083504e+2, 2.852032e+2, -163529.52, -305528.22, 842.1959, 0.090345494, 0.011427988, -163524.53, -18500.373, 0.0, 5.0175443, 4.9257855 
3.083525e+2, 2.9013163e+2, -115459.555, -256664.66, 1214.978, 0.07282603, 0.02746656, -115449.1, -18709.871, 0.0, 5.0169954, 4.925757 
3.0835447e+2, 2.950597e+2, -67345.28, -207824.66, 1711.797, 0.05680629, 0.0391971, -67324.43, -18866.66, 0.0, 5.0164165, 4.925729 
3.0835685e+2, 3.0000442e+2, -7478.1294, -98908.93, 1412.1095, 0.055797793, 0.07487543, -7456.325, -7441.9023, 0.0, 5.015978, 4.956287 
3.083604e+2, 3.0496892e+2, -3240.5896, -88006.48, 1368.9141, 0.09687842, 0.09647452, -3218.4883, -3218.4883, 0.0, 5.015868, 4.959718 
3.083635e+2, 3.0993468e+2, -2643.9333, -85688.02, 1319.6353, 0.14154667, 0.108254224, -2622.9685, -2622.9685, 0.0, 5.0156994, 4.9604716 
3.0836603e+2, 3.149019e+2, -1934.5845, -83481.67, 1155.2511, 0.18784109, 0.12603642, -1918.2217, -1918.2217, 0.0, 5.015492, 4.961226 
3.133736e+2, 1.2152871e+2, -1710072.1, -1744405.9, -453.77777, -0.007217913, -0.015852164, -1710066.1, 38952.12, 0.0, 5.0138936, 4.9915156 
3.1337398e+2, 1.2651844e+2, -1669907.3, -1713623.9, -191.86063, 0.000066643755, 0.021961266, -1669906.4, 30208.94, 0.0, 5.01395, 4.985513 
3.1337354e+2, 1.3150243e+2, -1620737.1, -1664536.9, -214.95314, -0.0014675191, 0.005874124, -1620736.0, 30537.639, 0.0, 5.014005, 4.985513 
3.133731e+2, 1.364864e+2, -1573777.0, -1619987.1, -237.62566, -0.003012577, -0.008980323, -1573775.8, 28656.484, 0.0, 5.0140605, 4.98401 
3.1337273e+2, 1.4146814e+2, -1531211.5, -1584292.6, -98.58753, -0.00410957, -0.004240475, -1531211.4, 22400.75, 0.0, 5.0140686, 4.979519 
3.133727e+2, 1.464482e+2, -1482127.9, -1534717.1, -1.7139425, -0.004383699, -0.0034162954, -1482127.9, 22679.87, 0.0, 5.013969, 4.9797354 
3.1337264e+2, 1.5142824e+2, -1433373.6, -1485805.0, 36.387253, -0.0046335296, -0.0030454777, -1433373.6, 22629.934, 0.0, 5.013865, 4.9797354 
3.133726e+2, 1.5640828e+2, -1386046.5, -1439867.6, 74.74936, -0.004886499, -0.0022210334, -1386046.4, 21153.162, 0.0, 5.0137615, 4.9787407 
3.1337258e+2, 1.6138443e+2, -1345788.3, -1408970.3, 17.224699, -0.0047561596, 0.004110903, -1345788.3, 12645.54, 0.0, 5.013707, 4.972691 
3.1337255e+2, 1.663574e+2, -1296524.0, -1359820.6, -57.56785, -0.0037752406, 0.0045729405, -1296524.0, 13176.161, 0.0, 5.013762, 4.97267 
3.1337255e+2, 1.7133038e+2, -1247218.5, -1310602.9, -124.76187, -0.0027735056, 0.005136544, -1247218.3, 13748.143, 0.0, 5.0138197, 4.97267 
3.1337252e+2, 1.7630336e+2, -1199051.5, -1263791.6, -192.05966, -0.0017825046, 0.0060933395, -1199050.9, 13181.835, 0.0, 5.013878, 4.9718633 
3.133724e+2, 1.8127258e+2, -1158571.8, -1233333.4, -427.05322, -0.0009963488, 0.013406898, -1158569.3, 4965.888, 0.0, 5.0139413, 4.9655275 
3.1337205e+2, 1.8623802e+2, -1108922.6, -1183566.6, -490.8665, -0.00054105604, 0.008576264, -1108919.4, 5953.883, 0.0, 5.014022, 4.9656787 
3.1337163e+2, 1.9120345e+2, -1059483.4, -1134251.1, -496.5512, -0.00009443916, 0.0033110224, -1059480.0, 6731.411, 0.0, 5.0141034, 4.965679 
3.1337127e+2, 1.9616887e+2, -1010938.25, -1086854.4, -502.2869, 0.0003490994, -0.0016362432, -1010934.94, 6614.688, 0.0, 5.0141845, 4.9650297 
3.133709e+2, 2.0113091e+2, -970362.0, -1056495.5, -317.32004, 0.00012263509, 0.0020629363, -970360.8, -1439.9772, 0.0, 5.0142355, 4.958579 
3.1337062e+2, 2.0608996e+2, -920840.25, -1006509.2, -224.35057, -0.0019485834, 0.0017561481, -920839.6, -518.5999, 0.0, 5.0142016, 4.9588375 
3.1337026e+2, 2.1104905e+2, -871685.9, -957293.94, -189.28578, -0.0041459515, 0.0014442292, -871685.44, 35.42088, 0.0, 5.014162, 4.958838 
3.1336993e+2, 2.1600816e+2, -823197.44, -909533.6, -154.30244, -0.006359452, 0.0012721882, -823197.2, -76.4965, 0.0, 5.014122, 4.9583387 
3.1336972e+2, 2.2096364e+2, -783237.5, -880525.5, -633.2822, -0.005664936, 0.00847904, -783233.44, -8676.797, 0.0, 5.0140944, 4.9513783 
3.1336966e+2, 2.2591506e+2, -733444.6, -830207.0, -1022.8979, 0.003590863, 0.0025786574, -733433.8, -7399.7695, 0.0, 5.0140986, 4.951706 
3.1336963e+2, 2.3086645e+2, -684081.3, -780847.1, -1186.4493, 0.013405121, -0.004079536, -684066.75, -6554.8716, 0.0, 5.014104, 4.9517093 
3.1336957e+2, 2.358178e+2, -635369.4, -732935.06, -1349.2969, 0.023214169, -0.010774604, -635350.75, -6360.9453, 0.0, 5.014109, 4.9512115 
3.1336924e+2, 2.4076593e+2, -595228.44, -704363.7, -1491.8224, 0.029845139, -0.004464567, -595208.06, -14710.118, 0.0, 5.014167, 4.943958 
3.1336772e+2, 2.4571127e+2, -544125.94, -652925.4, -1512.417, 0.0252982, 0.0010875408, -544104.9, -12077.751, 0.0, 5.0145135, 4.9444914 
3.1336614e+2, 2.5065666e+2, -493630.2, -603046.5, -1514.7013, 0.019838875, 0.006165382, -493609.22, -10053.705, 0.0, 5.0148935, 4.944484 
3.1336454e+2, 2.556021e+2, -443391.4, -553742.8, -1516.0387, 0.014438863, 0.011628939, -443370.6, -8286.99, 0.0, 5.01527, 4.944279 
3.1336334e+2, 2.6054254e+2, -405655.75, -532866.9, -1839.4912, 0.013875693, 0.023481812, -405629.16, -18965.416, 0.0, 5.0156684, 4.9340215 
3.133633e+2, 2.6547578e+2, -354534.28, -481435.34, -2159.9104, 0.027082436, -0.0015901556, -354497.53, -16170.387, 0.0, 5.015989, 4.934391 
3.1336325e+2, 2.7040878e+2, -303890.38, -431144.47, -2244.9387, 0.041194357, -0.03185132, -303850.8, -13856.579, 0.0, 5.016281, 4.934502 
3.1336296e+2, 2.7534178e+2, -253287.3, -381023.3, -2265.7993, 0.05492931, -0.06446684, -253247.11, -11585.494, 0.0, 5.016563, 4.9345655 
3.133651e+2, 2.802731e+2, -220378.1, -375019.88, -489.7798, 0.087379865, -0.019607157, -220376.53, -27032.238, 0.0, 5.0176463, 4.91897 
3.133681e+2, 2.852037e+2, -161298.28, -302964.3, 344.06567, 0.087919295, 0.0359032, -161297.45, -16265.779, 0.0, 5.0178633, 4.9266443 
3.133693e+2, 2.9013246e+2, -113413.63, -253981.23, 837.67224, 0.0667034, 0.043526515, -113408.64, -16671.86, 0.0, 5.0172505, 4.9266744 
3.133703e+2, 2.9506096e+2, -65484.758, -205021.48, 1455.2028, 0.046084758, 0.04730769, -65469.582, -17025.057, 0.0, 5.0166078, 4.9267044 
3.133718e+2, 3.0000558e+2, -7866.977, -100890.555, 1629.2358, 0.039312705, 0.07738208, -7838.451, -7838.451, 0.0, 5.016122, 4.9555416 
3.1337434e+2, 3.0497268e+2, -3490.4387, -89790.66, 2141.1633, 0.068317376, 0.12289671, -3437.348, -3437.348, 0.0, 5.0160213, 4.958902 
3.133762e+2, 3.0994216e+2, -3052.127, -88146.31, 2421.4766, 0.09706621, 0.16741498, -2983.276, -2983.276, 0.0, 5.015873, 4.959463 
3.133774e+2, 3.1491306e+2, -2500.9404, -86614.016, 2586.5447, 0.12487015, 0.2202257, -2421.477, -2421.477, 0.0, 5.0156856, 4.960025 
3.1838748e+2, 1.2152852e+2, -1710206.8, -1744277.9, -518.11206, -0.0074257455, -0.018410353, -1710198.9, 38822.457, 0.0, 5.0138083, 4.9915996 
3.1838793e+2, 1.2651935e+2, -1670191.8, -1713837.4, -192.50403, -0.000056495774, 0.03050399, -1670190.9, 29916.873, 0.0, 5.013872, 4.9854813 
3.183875e+2, 1.3150296e+2, -1621014.1, -1664746.8, -198.1735, -0.0017991514, 0.01095587, -1621013.3, 30256.451, 0.0, 5.0139294, 4.985481 
3.183871e+2, 1.3648655e+2, -1574064.6, -1620202.0, -202.90376, -0.0035597554, -0.007362629, -1574063.8, 28368.201, 0.0, 5.013981, 4.983978 
3.183868e+2, 1.4146805e+2, -1531420.3, -1584338.9, -151.0068, -0.004556929, -0.0049906294, -1531419.8, 22194.254, 0.0, 5.013987, 4.9795427 
3.1838667e+2, 1.4644814e+2, -1482261.5, -1534673.1, -88.36874, -0.004074833, -0.004305292, -1482261.4, 22547.457, 0.0, 5.013901, 4.9797826 
3.183866e+2, 1.5142822e+2, -1433470.0, -1485742.9, -60.18722, -0.0035506568, -0.004009234, -1433470.0, 22533.584, 0.0, 5.0138097, 4.9797826 
3.1838655e+2, 1.564083e+2, -1386111.3, -1439790.0, -31.920368, -0.0030326394, -0.0032607915, -1386111.3, 21087.156, 0.0, 5.0137167, 4.978788 
3.183865e+2, 1.6138448e+2, -1345984.3, -1409196.6, 2.9207299, -0.0025970975, 0.0032332907, -1345984.3, 12447.85, 0.0, 5.013669, 4.972634 
3.1838647e+2, 1.6635741e+2, -1296763.0, -1360130.8, -29.17739, -0.0023677226, 0.004255672, -1296763.0, 12936.381, 0.0, 5.013722, 4.9725847 
3.1838644e+2, 1.7133036e+2, -1247472.0, -1310919.6, -79.70368, -0.0021638505, 0.0053832205, -1247471.9, 13494.572, 0.0, 5.013775, 4.972585 
3.183864e+2, 1.7630331e+2, -1199330.1, -1264120.1, -130.525, -0.0019760376, 0.006904645, -1199329.9, 12903.693, 0.0, 5.013824, 4.971778 
3.1838626e+2, 1.8127249e+2, -1158781.6, -1233504.4, -340.99402, -0.0019053261, 0.014340721, -1158780.1, 4756.87, 0.0, 5.0138845, 4.965496 
3.1838593e+2, 1.8623781e+2, -1109045.9, -1183642.6, -392.95673, -0.0018552691, 0.008367261, -1109043.8, 5832.255, 0.0, 5.0139837, 4.9656706 
3.183856e+2, 1.9120309e+2, -1059560.1, -1134305.3, -394.2641, -0.0018006742, 0.0018848218, -1059558.1, 6657.124, 0.0, 5.014081, 4.965671 
3.1838524e+2, 1.9616838e+2, -1010979.75, -1086892.0, -395.95026, -0.0017590546, -0.0042789816, -1010977.7, 6576.6665, 0.0, 5.0141745, 4.965021 
3.1838492e+2, 2.011304e+2, -970356.75, -1056456.9, -280.18588, -0.0023987792, -0.00084424374, -970355.9, -1430.1517, 0.0, 5.0142307, 4.958594 
3.1838453e+2, 2.0608968e+2, -920827.7, -1006408.5, -219.27963, -0.0048153955, 0.00056486647, -920827.1, -503.30167, 0.0, 5.014187, 4.9588776 
3.183841e+2, 2.1104898e+2, -871718.5, -957214.4, -189.12851, -0.0073539875, 0.002016624, -871718.06, 3.3760307, 0.0, 5.014132, 4.958878 
3.1838372e+2, 2.1600832e+2, -823291.25, -909482.25, -158.74727, -0.009915399, 0.0036062333, -823291.0, -171.88144, 0.0, 5.014071, 4.9583793 
3.1838346e+2, 2.2096391e+2, -783599.8, -881008.2, -616.0412, -0.009093637, 0.012305311, -783595.94, -9041.749, 0.0, 5.014033, 4.95124 
3.1838357e+2, 2.259152e+2, -733820.56, -830870.7, -992.5367, 0.0016710873, 0.006970873, -733810.4, -7775.7397, 0.0, 5.014067, 4.9514904 
3.183837e+2, 2.308664e+2, -684388.2, -781478.6, -1160.1047, 0.013069619, 0.0008128612, -684374.4, -6858.5635, 0.0, 5.0140963, 4.9514933 
3.183838e+2, 2.3581763e+2, -635636.0, -733547.44, -1331.4391, 0.02445206, -0.005367571, -635617.9, -6620.9155, 0.0, 5.0141153, 4.950995 
3.1838363e+2, 2.4076568e+2, -595357.06, -704691.44, -1336.4166, 0.031974666, 0.002250955, -595340.7, -14833.906, 0.0, 5.0141797, 4.9438376 
3.1838232e+2, 2.45711e+2, -543981.8, -652809.4, -1247.9849, 0.025614468, 0.007624694, -543967.5, -11932.803, 0.0, 5.0145607, 4.9445086 
3.183809e+2, 2.5065634e+2, -493403.8, -602887.6, -1253.96, 0.018035373, 0.011804005, -493389.47, -9827.536, 0.0, 5.0149693, 4.9445033 
3.1837946e+2, 2.5560167e+2, -443117.7, -553556.7, -1258.4896, 0.010477401, 0.016268585, -443103.34, -8014.45, 0.0, 5.0153627, 4.9442997 
3.183786e+2, 2.605418e+2, -405926.5, -533783.7, -1575.4979, 0.009189951, 0.026313875, -405907.1, -19235.564, 0.0, 5.0157385, 4.9336505 
3.1837934e+2, 2.6547465e+2, -355489.7, -482875.5, -2221.9844, 0.025434608, -0.0008982538, -355450.94, -17107.307, 0.0, 5.0158644, 4.9338913 
3.1838006e+2, 2.7040732e+2, -305723.72, -432984.63, -2856.9246, 0.042478003, -0.032206774, -305659.63, -15640.727, 0.0, 5.015853, 4.9339933 
3.1838056e+2, 2.7534e+2, -256267.13, -383369.47, -3607.973, 0.058797155, -0.06510095, -256164.8, -14470.759, 0.0, 5.0157347, 4.9340477 
3.1838372e+2, 2.8027228e+2, -224925.33, -380757.78, -2106.9731, 0.09210571, 0.0010603274, -224896.84, -31526.008, 0.0, 5.0166893, 4.9173813 
3.1838626e+2, 2.85204e+2, -161300.98, -300923.28, -1929.852, 0.088223234, 0.063961394, -161274.33, -16232.431, 0.0, 5.017356, 4.927573 
3.1838635e+2, 2.901331e+2, -112727.1, -251567.28, -881.80316, 0.06189846, 0.060845803, -112721.5, -15984.52, 0.0, 5.017, 4.927626 
3.1838626e+2, 2.9506198e+2, -64440.277, -202369.84, 100.110985, 0.03558325, 0.054737043, -64440.203, -16006.301, 0.0, 5.0164995, 4.927679 
3.1838688e+2, 3.0000645e+2, -9423.235, -104386.7, 934.0917, 0.023008438, 0.07979167, -9414.048, -9414.048, 0.0, 5.016052, 4.9542828 
3.1838867e+2, 3.0497578e+2, -5021.8296, -92532.71, 1253.5287, 0.044037003, 0.14496647, -5003.8774, -5003.8774, 0.0, 5.015792, 4.9577827 
3.1838968e+2, 3.0994815e+2, -5815.1665, -91990.74, 1019.4523, 0.062187154, 0.21139148, -5803.108, -5803.108, 0.0, 5.015279, 4.95813 
3.1838998e+2, 3.1492165e+2, -7027.8643, -91736.195, 830.27545, 0.07750098, 0.28553587, -7019.727, -7019.727, 0.0, 5.0145464, 4.958478 
3.2340142e+2, 1.2152808e+2, -1710454.5, -1744819.3, -708.302, -0.0057003577, -0.021419574, -1710439.9, 38585.59, 0.0, 5.013817, 4.991417 
3.2340184e+2, 1.2651956e+2, -1670202.8, -1713729.3, -295.56256, 0.000526383, 0.033716086, -1670200.8, 29905.092, 0.0, 5.013844, 4.9855304 
3.2340142e+2, 1.3150306e+2, -1621125.3, -1664688.0, -225.48999, -0.0013250171, 0.012641964, -1621124.1, 30144.682, 0.0, 5.0138683, 4.98553 
3.2340103e+2, 1.3648655e+2, -1574256.9, -1620182.4, -154.8886, -0.0031451907, -0.0072062705, -1574256.3, 28175.676, 0.0, 5.013892, 4.9840274 
3.2340074e+2, 1.4146799e+2, -1531654.0, -1584427.9, -111.62188, -0.0041190395, -0.005777614, -1531653.8, 21960.885, 0.0, 5.0139036, 4.9795537 
3.2340062e+2, 1.4644812e+2, -1482335.1, -1534710.8, -109.21709, -0.0035403452, -0.004696652, -1482334.9, 22474.023, 0.0, 5.0138764, 4.979782 
3.2340053e+2, 1.5142824e+2, -1433358.1, -1485690.9, -131.13101, -0.0029028018, -0.0039540343, -1433357.8, 22645.488, 0.0, 5.013848, 4.9797816 
3.2340038e+2, 1.5640835e+2, -1385809.1, -1439646.4, -152.79916, -0.0022557788, -0.0027610422, -1385808.6, 21389.047, 0.0, 5.0138187, 4.978787 
3.234003e+2, 1.6138455e+2, -1345598.8, -1409028.6, -76.38069, -0.0018464641, 0.003881903, -1345598.6, 12832.693, 0.0, 5.013803, 4.9726257 
3.2340026e+2, 1.6635744e+2, -1296499.8, -1360031.6, -27.271626, -0.0019971626, 0.004425155, -1296499.8, 13199.312, 0.0, 5.013817, 4.972573 
3.234002e+2, 1.7133032e+2, -1247321.1, -1310875.5, -9.418326, -0.0021535326, 0.0050589666, -1247321.1, 13645.743, 0.0, 5.013832, 4.972573 
3.2340017e+2, 1.7630321e+2, -1199280.0, -1264124.9, 8.432207, -0.0022923935, 0.006091827, -1199280.0, 12954.5625, 0.0, 5.013847, 4.9717655 
3.2340008e+2, 1.8127234e+2, -1158691.0, -1233417.5, -71.447716, -0.0025412282, 0.013143821, -1158691.0, 4847.2236, 0.0, 5.013906, 4.9655156 
3.2339984e+2, 1.862377e+2, -1108761.6, -1183455.3, -65.027016, -0.0028570835, 0.007257986, -1108761.5, 6115.342, 0.0, 5.0140696, 4.965694 
3.2339963e+2, 1.9120301e+2, -1059072.1, -1134022.1, -32.40441, -0.003139335, 0.0009113473, -1059072.1, 7143.5625, 0.0, 5.0142374, 4.965694 
3.233994e+2, 1.9616835e+2, -1010278.4, -1086509.5, 0.28537515, -0.003401888, -0.0051122853, -1010278.4, 7276.022, 0.0, 5.014405, 4.9650435 
3.233991e+2, 2.011304e+2, -969574.9, -1056071.8, 13.876791, -0.003979751, -0.0013772442, -969574.9, -649.5947, 0.0, 5.014496, 4.958602 
3.2339874e+2, 2.0608974e+2, -920261.9, -1006136.2, -14.671294, -0.0053517586, 0.0006343636, -920261.9, 61.022217, 0.0, 5.01438, 4.9588814 
3.2339838e+2, 2.1104912e+2, -871361.3, -957038.7, -31.544764, -0.0067280144, 0.0027033535, -871361.25, 358.82138, 0.0, 5.0142527, 4.9588823 
3.23398e+2, 2.1600851e+2, -823125.0, -909394.3, -48.554756, -0.008065831, 0.0049193585, -823125.0, -7.7219796, 0.0, 5.0141244, 4.9583836 
3.233977e+2, 2.2096415e+2, -783586.56, -881215.3, -390.99948, -0.0070259655, 0.014156963, -783584.94, -9032.573, 0.0, 5.014077, 4.9511485 
3.2339767e+2, 2.2591534e+2, -733483.1, -831066.8, -634.95544, 0.00088475726, 0.009557073, -733479.0, -7444.679, 0.0, 5.014251, 4.9513392 
3.233976e+2, 2.308665e+2, -683602.8, -781475.9, -714.42773, 0.009302857, 0.004222126, -683597.6, -6080.6387, 0.0, 5.014438, 4.9513397 
3.2339758e+2, 2.3581764e+2, -634377.56, -733336.2, -792.7398, 0.017782515, -0.0011121992, -634371.25, -5371.5283, 0.0, 5.0146236, 4.950838 
3.233974e+2, 2.407656e+2, -593413.6, -703915.9, -513.8077, 0.02353507, 0.0068490137, -593411.25, -12900.352, 0.0, 5.014869, 4.943801 
3.2339677e+2, 2.4571075e+2, -541518.1, -651619.8, -251.65062, 0.019163258, 0.010082754, -541517.56, -9477.739, 0.0, 5.0153937, 4.944555 
3.2339606e+2, 2.5065586e+2, -490533.44, -601510.94, -214.37413, 0.013977912, 0.011758881, -490533.03, -6964.858, 0.0, 5.0159454, 4.944552 
3.2339534e+2, 2.5560102e+2, -439809.6, -551980.2, -176.9833, 0.008902056, 0.013636554, -439809.3, -4712.971, 0.0, 5.0164933, 4.9443502 
3.2339525e+2, 2.6054105e+2, -402320.44, -532571.5, -272.83932, 0.010197915, 0.022587037, -402319.88, -15639.956, 0.0, 5.0170503, 4.9335036 
3.2339665e+2, 2.6547405e+2, -351510.84, -482244.97, -314.7262, 0.029054368, 0.0010397899, -351510.06, -13157.688, 0.0, 5.0173883, 4.933476 
3.2339805e+2, 2.7040687e+2, -300947.5, -432360.3, -122.32996, 0.049058326, -0.02424158, -300947.38, -10917.933, 0.0, 5.0176673, 4.9334702 
3.2339916e+2, 2.7533948e+2, -250430.11, -382635.63, 142.2717, 0.068810254, -0.0515679, -250429.95, -8721.969, 0.0, 5.0179305, 4.9334173 
3.2340282e+2, 2.8027168e+2, -218652.63, -378041.9, 3887.6323, 0.09870206, 0.019634085, -218557.86, -25170.043, 0.0, 5.018839, 4.9173026 
3.2340455e+2, 2.8520346e+2, -156581.55, -297070.7, 2296.3647, 0.08721865, 0.07774732, -156544.02, -11485.961, 0.0, 5.0187044, 4.9281626 
3.2340366e+2, 2.901326e+2, -109583.2, -248814.1, 1634.3242, 0.057791498, 0.06815653, -109564.02, -12811.494, 0.0, 5.017814, 4.9281106 
3.234026e+2, 2.9506156e+2, -62543.434, -200564.67, 1039.6635, 0.02877819, 0.0567529, -62535.605, -14086.921, 0.0, 5.016892, 4.9280586 
3.234022e+2, 3.0000597e+2, -8933.298, -104875.13, 1307.8698, 0.010991956, 0.07862761, -8915.473, -8914.685, 0.0, 5.01618, 4.954012 
3.234025e+2, 3.049756e+2, -5355.85, -94801.45, 2007.7534, 0.01667155, 0.15092939, -5310.805, -5310.805, 0.0, 5.0157704, 4.9569044 
3.234019e+2, 3.0994782e+2, -6053.943, -94328.38, 2281.1912, 0.018785316, 0.21950237, -5995.0313, -5995.0313, 0.0, 5.015228, 4.9571958 
3.2340062e+2, 3.149203e+2, -6702.376, -93905.65, 2734.7236, 0.018390885, 0.2869088, -6616.698, -6616.698, 0.0, 5.014645, 4.9574866 
3.2841548e+2, 1.2152749e+2, -1710900.3, -1745722.0, -733.4356, -0.0034454975, -0.025072103, -1710884.8, 38145.582, 0.0, 5.0138164, 4.991121 
3.2841575e+2, 1.2651944e+2, -1670069.4, -1713452.6, -278.46423, 0.0013010838, 0.034202993, -1670067.6, 30038.92, 0.0, 5.013843, 4.9856215 
3.2841536e+2, 1.3150297e+2, -1620992.3, -1664412.9, -206.6773, -0.00049785903, 0.01258252, -1620991.3, 30277.879, 0.0, 5.013868, 4.985621 
3.28415e+2, 1.364865e+2, -1574123.5, -1619907.6, -134.16705, -0.0022869827, -0.007814287, -1574123.0, 28308.836, 0.0, 5.013892, 4.9841185 
3.284147e+2, 1.4146797e+2, -1531652.1, -1584424.1, -124.10632, -0.0033194097, -0.006586977, -1531651.9, 21962.326, 0.0, 5.0139036, 4.979555 
3.2841456e+2, 1.4644815e+2, -1482373.9, -1534790.8, -131.42244, -0.002982969, -0.004829371, -1482373.5, 22434.941, 0.0, 5.0138764, 4.9797554 
3.284144e+2, 1.5142831e+2, -1433396.6, -1485770.6, -152.55528, -0.0026002375, -0.0033673195, -1433396.1, 22606.508, 0.0, 5.013848, 4.9797554 
3.284142e+2, 1.5640847e+2, -1385847.3, -1439725.6, -173.38188, -0.0022143302, -0.0014543652, -1385846.6, 21350.37, 0.0, 5.0138187, 4.9787607 
3.2841408e+2, 1.6138467e+2, -1345577.5, -1408983.9, -73.64699, -0.0020252778, 0.005358442, -1345577.5, 12853.251, 0.0, 5.013803, 4.9726405 
3.2841405e+2, 1.6635747e+2, -1296464.9, -1359958.5, -16.237902, -0.0022887285, 0.004870167, -1296464.9, 13234.021, 0.0, 5.013817, 4.9725976 
3.28414e+2, 1.7133027e+2, -1247286.3, -1310802.4, 2.5658686, -0.0025650961, 0.004430339, -1247286.3, 13680.844, 0.0, 5.0138316, 4.9725976 
3.2841396e+2, 1.7630309e+2, -1199245.3, -1264052.0, 21.363525, -0.0028365608, 0.0043876506, -1199245.3, 12990.069, 0.0, 5.013847, 4.9717903 
3.284139e+2, 1.8127218e+2, -1158626.3, -1233279.1, 27.876667, -0.0032480038, 0.0107806865, -1158626.3, 4912.8667, 0.0, 5.0139055, 4.9655623 
3.284138e+2, 1.8623766e+2, -1108701.4, -1183326.3, 63.49257, -0.0038488156, 0.00561878, -1108701.3, 6175.3506, 0.0, 5.0140696, 4.9657373 
3.2841372e+2, 1.9120309e+2, -1059012.4, -1133893.6, 97.60602, -0.0044441298, 0.00009376017, -1059012.3, 7202.018, 0.0, 5.014237, 4.965738 
3.2841364e+2, 1.9616856e+2, -1010219.06, -1086381.4, 131.76938, -0.0050374246, -0.0051089884, -1010218.8, 7332.9375, 0.0, 5.0144043, 4.9650874 
3.284135e+2, 2.011307e+2, -969574.1, -1056067.9, -20.542463, -0.005370258, -0.0007528866, -969574.1, -652.3186, 0.0, 5.0144954, 4.9586034 
3.284132e+2, 2.0609003e+2, -920288.7, -1006193.25, -110.819954, -0.004942431, 0.0013236422, -920288.56, 31.30297, 0.0, 5.0143795, 4.9588623 
3.2841286e+2, 2.110494e+2, -871387.0, -957095.25, -125.74558, -0.0044570183, 0.003420657, -871386.8, 330.66846, 0.0, 5.014252, 4.9588633 
3.2841253e+2, 2.1600875e+2, -823149.7, -909450.4, -140.79707, -0.003956877, 0.0056581288, -823149.44, -34.31581, 0.0, 5.014125, 4.958365 
3.2841223e+2, 2.2096437e+2, -783672.8, -881396.44, -314.96817, -0.002845415, 0.014927289, -783671.75, -9120.961, 0.0, 5.014076, 4.951087 
3.2841185e+2, 2.2591554e+2, -733616.06, -831343.1, -482.09766, -0.000023743527, 0.011003899, -733613.7, -7580.429, 0.0, 5.014249, 4.951246 
3.2841143e+2, 2.3086669e+2, -683736.1, -781748.75, -557.3946, 0.0029202849, 0.0064560426, -683732.94, -6216.519, 0.0, 5.014435, 4.9512467 
3.2841104e+2, 2.358178e+2, -634511.2, -733605.75, -631.54614, 0.005874698, 0.0019077825, -634507.2, -5507.5684, 0.0, 5.01462, 4.9507465 
3.284108e+2, 2.4076568e+2, -593408.06, -703825.6, -201.25386, 0.008158955, 0.009584556, -593407.7, -12895.952, 0.0, 5.0148582, 4.943835 
3.2841107e+2, 2.457106e+2, -541458.1, -651381.9, 164.02484, 0.0077328803, 0.009816199, -541457.9, -9415.337, 0.0, 5.015379, 4.944641 
3.284114e+2, 2.506555e+2, -490474.66, -601272.2, 207.595, 0.0070721037, 0.008393266, -490474.28, -6901.489, 0.0, 5.01593, 4.9446383 
3.284117e+2, 2.5560042e+2, -439752.03, -551740.6, 251.2607, 0.006446048, 0.007184798, -439751.47, -4648.64, 0.0, 5.016477, 4.944437 
3.284125e+2, 2.605405e+2, -402143.44, -531918.7, 230.42538, 0.011110384, 0.015262621, -402143.03, -15457.267, 0.0, 5.017014, 4.933745 
3.2841438e+2, 2.6547453e+2, -351490.34, -481561.6, 273.58078, 0.028910166, 0.001696038, -351489.75, -13139.533, 0.0, 5.0173006, 4.93375 
3.2841608e+2, 2.7040842e+2, -301030.34, -431554.88, 531.26483, 0.046491496, -0.014455812, -301028.2, -11010.136, 0.0, 5.017533, 4.933795 
3.2841754e+2, 2.7534223e+2, -250616.39, -381708.25, 861.1319, 0.06294597, -0.03234769, -250610.73, -8924.21, 0.0, 5.0177503, 4.9337926 
3.2842124e+2, 2.80275e+2, -218072.36, -376391.7, 4590.9966, 0.08309154, 0.03865325, -217939.34, -24576.602, 0.0, 5.0187993, 4.917923 
3.2842228e+2, 2.852057e+2, -156793.42, -298171.16, 1774.1622, 0.06985298, 0.0876156, -156771.16, -11724.6455, 0.0, 5.0187974, 4.9278235 
3.284207e+2, 2.9013377e+2, -109782.76, -249732.66, 1210.0521, 0.04418746, 0.07294477, -109772.29, -13018.199, 0.0, 5.017899, 4.927819 
3.284189e+2, 2.9506168e+2, -62731.402, -201302.02, 713.37897, 0.01797268, 0.05584863, -62727.727, -14264.2705, 0.0, 5.0169687, 4.927814 
3.2841757e+2, 3.0000553e+2, -8104.7905, -102671.414, 1399.4507, -0.0021034437, 0.07135588, -8084.0854, -8060.7217, 0.0, 5.0161953, 4.954836 
3.284157e+2, 3.0497533e+2, -5435.2583, -93411.99, 2425.592, -0.017770948, 0.1451034, -5368.4336, -5368.4336, 0.0, 5.015604, 4.957575 
3.2841253e+2, 3.0994806e+2, -6617.018, -92905.96, 2899.212, -0.04178104, 0.22173783, -6519.718, -6519.718, 0.0, 5.0148935, 4.957939 
3.2840863e+2, 3.1492147e+2, -7749.5396, -92450.17, 3553.002, -0.070908934, 0.30064654, -7600.7607, -7600.7607, 0.0, 5.0141435, 4.9583035 
3.3342955e+2, 1.2152679e+2, -1711234.5, -1746397.1, -761.16754, -0.0013945868, -0.029695865, -1711218.0, 37818.293, 0.0, 5.013816, 4.990899 
3.3342966e+2, 1.2651932e+2, -1669936.6, -1713175.5, -260.93094, 0.002066953, 0.034755606, -1669935.0, 30172.232, 0.0, 5.0138426, 4.9857125 
3.334293e+2, 1.315029e+2, -1620859.6, -1664137.4, -187.42972, 0.00032340342, 0.012562689, -1620858.9, 30410.566, 0.0, 5.0138674, 4.9857116 
3.33429e+2, 1.3648646e+2, -1573990.5, -1619632.4, -113.00989, -0.0014317344, -0.008408787, -1573990.3, 28441.559, 0.0, 5.0138917, 4.984209 
3.334287e+2, 1.4146796e+2, -1531656.5, -1584432.5, -136.61203, -0.0025211116, -0.0073724007, -1531656.1, 21957.662, 0.0, 5.0139036, 4.9795523 
3.334285e+2, 1.4644818e+2, -1482412.8, -1534870.6, -153.58913, -0.0024262173, -0.0049454425, -1482412.3, 22395.674, 0.0, 5.0138764, 4.979729 
3.3342826e+2, 1.5142839e+2, -1433435.4, -1485850.4, -173.94087, -0.0022974124, -0.0027798796, -1433434.8, 22567.348, 0.0, 5.013848, 4.9797287 
3.3342803e+2, 1.564086e+2, -1385885.5, -1439804.9, -193.92584, -0.0021717362, -0.00016288651, -1385884.9, 21311.518, 0.0, 5.0138187, 4.978734 
3.3342788e+2, 1.6138479e+2, -1345560.9, -1408948.4, -70.99185, -0.002203648, 0.006855355, -1345560.9, 12869.218, 0.0, 5.013803, 4.972653 
3.3342785e+2, 1.6635752e+2, -1296430.4, -1359885.1, -5.241406, -0.0025797437, 0.0053359717, -1296430.4, 13268.442, 0.0, 5.013817, 4.972622 
3.334278e+2, 1.7133023e+2, -1247251.8, -1310729.1, 14.512822, -0.0029756217, 0.0038079198, -1247251.8, 13715.661, 0.0, 5.0138316, 4.9726224 
3.3342776e+2, 1.7630297e+2, -1199210.9, -1263978.8, 34.257584, -0.003379202, 0.002675097, -1199210.9, 13025.3, 0.0, 5.0138464, 4.971815 
3.3342776e+2, 1.8127203e+2, -1158567.5, -1233153.3, 126.993286, -0.0039555007, 0.008446327, -1158567.3, 4972.6084, 0.0, 5.0139055, 4.9656043 
3.334278e+2, 1.862376e+2, -1108641.5, -1183197.0, 192.04178, -0.004840891, 0.004003117, -1108641.0, 6235.3735, 0.0, 5.014069, 4.965781 
3.3342785e+2, 1.9120319e+2, -1058953.0, -1133764.8, 227.64603, -0.0057483036, -0.0007245201, -1058952.3, 7260.507, 0.0, 5.014237, 4.965781 
3.3342788e+2, 1.9616877e+2, -1010160.1, -1086252.9, 263.28296, -0.0066713765, -0.005130621, -1010159.2, 7389.9, 0.0, 5.0144043, 4.9651313 
3.3342785e+2, 2.0113102e+2, -969581.56, -1056080.5, -55.51592, -0.006754366, -0.00008733094, -969581.5, -663.1533, 0.0, 5.014495, 4.9585996 
3.334276e+2, 2.0609032e+2, -920316.06, -1006249.9, -206.90497, -0.0045255427, 0.0020595104, -920315.56, 1.1908487, 0.0, 5.0143795, 4.958843 
3.3342734e+2, 2.1104966e+2, -871413.3, -957151.3, -219.88272, -0.002179416, 0.0041534137, -871412.75, 302.12775, 0.0, 5.014252, 4.958844 
3.334271e+2, 2.1600902e+2, -823174.9, -909505.94, -232.97563, 0.00015772777, 0.0063812155, -823174.25, -61.294052, 0.0, 5.014125, 4.9583454 
3.334267e+2, 2.2096458e+2, -783773.3, -881606.5, -241.64948, 0.0013448723, 0.015745617, -783772.7, -9223.494, 0.0, 5.014075, 4.9510155 
3.3342603e+2, 2.2591574e+2, -733750.44, -831618.25, -330.43686, -0.0009304843, 0.012484603, -733749.3, -7717.1245, 0.0, 5.014246, 4.9511514 
3.3342528e+2, 2.3086685e+2, -683870.8, -782020.5, -401.55786, -0.0034722341, 0.008660731, -683869.1, -6353.2896, 0.0, 5.0144315, 4.9511538 
3.3342454e+2, 2.3581797e+2, -634646.25, -733874.1, -471.5484, -0.0060547707, 0.0048354296, -634644.0, -5644.447, 0.0, 5.0146155, 4.950654 
3.3342415e+2, 2.4076578e+2, -593426.6, -703777.9, 101.98576, -0.007224642, 0.012427984, -593426.56, -12914.074, 0.0, 5.0148473, 4.9438524 
3.3342537e+2, 2.4571048e+2, -541404.4, -651137.9, 578.2237, -0.0036888272, 0.00973192, -541401.4, -9356.199, 0.0, 5.0153637, 4.944726 
3.334267e+2, 2.5065514e+2, -490422.13, -601027.4, 628.0877, 0.00018086343, 0.0051432773, -490418.56, -6841.276, 0.0, 5.0159144, 4.9447236 
3.3342803e+2, 2.5559983e+2, -439700.7, -551495.0, 678.0284, 0.0040105116, 0.00078201084, -439696.56, -4587.365, 0.0, 5.0164614, 4.944523 
3.3342975e+2, 2.6053995e+2, -402024.72, -531350.3, 680.47504, 0.012174155, 0.0077923867, -402021.13, -15329.258, 0.0, 5.016978, 4.933947 
3.33432e+2, 2.654749e+2, -351494.1, -480856.03, 786.8255, 0.028504511, 0.0014578683, -351489.3, -13140.597, 0.0, 5.017213, 4.934012 
3.334339e+2, 2.7040988e+2, -301137.3, -430727.22, 1109.8307, 0.043129127, -0.00637027, -301127.8, -11120.256, 0.0, 5.017399, 4.934108 
3.3343557e+2, 2.7534488e+2, -250826.64, -380758.56, 1504.9962, 0.05575199, -0.015633529, -250809.2, -9142.99, 0.0, 5.0175695, 4.934156 
3.334396e+2, 2.8027835e+2, -217972.31, -375822.56, 5424.2725, 0.0681478, 0.058417015, -217786.14, -24448.764, 0.0, 5.0187597, 4.9181576 
3.334402e+2, 2.8520802e+2, -157055.03, -299223.6, 1157.4186, 0.054450553, 0.099896714, -157045.6, -12011.602, 0.0, 5.0188904, 4.927469 
3.3343792e+2, 2.9013497e+2, -110031.93, -250602.92, 691.19666, 0.031895623, 0.07851563, -110028.53, -13273.063, 0.0, 5.017984, 4.927511 
3.334354e+2, 2.9506177e+2, -62968.88, -201990.8, 292.4628, 0.007828454, 0.0540971, -62968.266, -14489.452, 0.0, 5.0170455, 4.9275537 
3.3343318e+2, 3.00005e+2, -7654.8867, -101184.95, 1364.2478, -0.014001666, 0.06375005, -7634.9917, -7588.2095, 0.0, 5.016211, 4.955373 
3.334289e+2, 3.049749e+2, -5576.524, -91961.26, 2730.7751, -0.050290443, 0.13809536, -5490.2856, -5490.2856, 0.0, 5.015438, 4.958214 
3.3342293e+2, 3.0994803e+2, -7241.942, -91422.17, 3404.3901, -0.10056447, 0.21903111, -7104.487, -7104.487, 0.0, 5.01456, 4.958651 
3.3341613e+2, 3.1492218e+2, -8858.601, -90933.21, 4258.27, -0.15856677, 0.3056809, -8638.261, -8638.261, 0.0, 5.013642, 4.9590883 
3.3844355e+2, 1.21526e+2, -1711552.3, -1746898.3, -793.2954, 0.00049251644, -0.035148386, -1711534.4, 37508.707, 0.0, 5.0137854, 4.990749 
3.3844358e+2, 1.2651919e+2, -1669929.1, -1712963.4, -257.38907, 0.0028254979, 0.035311747, -1669927.6, 30180.445, 0.0, 5.013801, 4.985802 
3.3844328e+2, 1.315028e+2, -1620905.3, -1663951.9, -191.32048, 0.0011300229, 0.012543509, -1620904.4, 30365.297, 0.0, 5.0138083, 4.985801 
3.3844295e+2, 1.364864e+2, -1574104.0, -1619479.5, -122.78855, -0.00058503106, -0.009003257, -1574103.8, 28327.97, 0.0, 5.01381, 4.984299 
3.3844268e+2, 1.4146794e+2, -1531963.8, -1584596.9, -180.25139, -0.0017190231, -0.008131859, -1531963.1, 21650.295, 0.0, 5.013804, 4.979546 
3.3844241e+2, 1.464482e+2, -1482740.9, -1535090.3, -202.45296, -0.0018591092, -0.0050488645, -1482740.1, 22067.361, 0.0, 5.013779, 4.979703 
3.3844215e+2, 1.5142845e+2, -1433757.1, -1486066.4, -218.35733, -0.0019730174, -0.0022022985, -1433756.1, 22245.348, 0.0, 5.0137525, 4.9797025 
3.3844188e+2, 1.5640871e+2, -1386204.5, -1440018.5, -233.81487, -0.0020915326, 0.0010960421, -1386203.5, 20992.19, 0.0, 5.013724, 4.9787083 
3.3844167e+2, 1.6138493e+2, -1345813.5, -1409047.4, -80.45742, -0.0023384793, 0.008350534, -1345813.4, 12616.077, 0.0, 5.0137134, 4.972663 
3.384416e+2, 1.6635756e+2, -1296616.3, -1359915.4, 2.5559323, -0.002843441, 0.005810806, -1296616.3, 13082.318, 0.0, 5.0137415, 4.9726477 
3.3844158e+2, 1.713302e+2, -1247401.9, -1310741.8, 31.87316, -0.003366393, 0.0031908227, -1247401.9, 13565.879, 0.0, 5.0137687, 4.972648 
3.3844155e+2, 1.7630284e+2, -1199334.6, -1263978.4, 61.370235, -0.0039002802, 0.0009631419, -1199334.6, 12902.328, 0.0, 5.0137925, 4.971841 
3.3844158e+2, 1.8127188e+2, -1158675.1, -1233115.6, 246.07288, -0.0046373582, 0.0061567137, -1158674.3, 4866.415, 0.0, 5.0138507, 4.9656425 
3.3844176e+2, 1.8623757e+2, -1108796.0, -1183170.0, 338.63705, -0.0058007445, 0.0024338448, -1108794.5, 6081.519, 0.0, 5.0139956, 4.965824 
3.3844197e+2, 1.9120328e+2, -1059174.3, -1133769.3, 373.4309, -0.0070014857, -0.0015135106, -1059172.4, 7038.9067, 0.0, 5.0141406, 4.9658246 
3.3844215e+2, 1.9616897e+2, -1010459.06, -1086293.5, 408.37808, -0.008223636, -0.0051403577, -1010456.9, 7089.563, 0.0, 5.0142813, 4.965174 
3.3844224e+2, 2.0113131e+2, -969984.06, -1056291.3, -72.54559, -0.008044277, 0.00064356026, -969984.0, -1069.1927, 0.0, 5.014361, 4.9585896 
3.3844206e+2, 2.0609063e+2, -920618.25, -1006435.75, -285.30057, -0.004080076, 0.0028298243, -920617.3, -303.70578, 0.0, 5.0142846, 4.958823 
3.3844182e+2, 2.1104994e+2, -871611.94, -957288.7, -300.6138, 0.00007109945, 0.0048561054, -871610.9, 101.32245, 0.0, 5.014193, 4.958824 
3.3844164e+2, 2.1600926e+2, -823289.4, -909604.0, -316.87366, 0.004206054, 0.0070110885, -823288.2, -177.38307, 0.0, 5.0140953, 4.9583254 
3.3844125e+2, 2.2096482e+2, -783910.5, -881850.0, -157.34447, 0.005473338, 0.016503852, -783910.25, -9362.63, 0.0, 5.014065, 4.950936 
3.384402e+2, 2.2591594e+2, -733891.4, -831888.1, -133.97029, -0.0018185345, 0.013866363, -733891.25, -7860.0864, 0.0, 5.0142403, 4.9510603 
3.384391e+2, 2.3086701e+2, -684029.75, -782296.1, -167.74992, -0.009735468, 0.0106665455, -684029.5, -6514.1772, 0.0, 5.014419, 4.951063 
3.38438e+2, 2.3581812e+2, -634852.94, -734168.9, -201.22559, -0.017715145, 0.0074496297, -634852.56, -5853.067, 0.0, 5.0145864, 4.950564 
3.3843756e+2, 2.4076585e+2, -593627.06, -703866.6, 527.10236, -0.022204107, 0.0150998, -593624.56, -13111.437, 0.0, 5.0147824, 4.943848 
3.384397e+2, 2.4571034e+2, -541752.75, -651113.6, 1054.51, -0.014732719, 0.009676033, -541742.56, -9694.927, 0.0, 5.0152144, 4.944797 
3.3844203e+2, 2.506548e+2, -491068.63, -601139.0, 1030.2603, -0.0063329516, 0.002073306, -491058.97, -7477.279, 0.0, 5.015661, 4.9447947 
3.3844432e+2, 2.5559926e+2, -440688.72, -551760.56, 1002.5394, 0.0020045862, -0.005225702, -440679.7, -5564.194, 0.0, 5.016088, 4.9445934 
3.3844697e+2, 2.605394e+2, -403427.34, -531635.8, 858.8688, 0.01396234, 0.00076694903, -403421.56, -16723.3, 0.0, 5.016439, 4.9340777 
3.3844945e+2, 2.654751e+2, -353796.03, -481375.5, 749.2395, 0.029163929, 0.00037087474, -353791.63, -15442.694, 0.0, 5.016341, 4.9341936 
3.384516e+2, 2.7041093e+2, -304774.1, -431749.78, 827.32935, 0.04152464, -0.0012969984, -304768.72, -14767.708, 0.0, 5.0160437, 4.9343176 
3.3845344e+2, 2.753468e+2, -256203.17, -382459.9, 925.1522, 0.051437184, -0.004851922, -256196.39, -14543.46, 0.0, 5.015584, 4.9343934 
3.3845803e+2, 2.8028083e+2, -225449.27, -379204.2, 5263.8086, 0.059408005, 0.07289425, -225269.27, -31948.953, 0.0, 5.016197, 4.9180837 
3.3845845e+2, 2.852098e+2, -162958.02, -302168.72, 14.579361, 0.044867232, 0.11006967, -162958.02, -17931.691, 0.0, 5.0170107, 4.927211 
3.3845538e+2, 2.9013592e+2, -114034.19, -252662.89, -15.025557, 0.023321142, 0.08280545, -114034.19, -17275.102, 0.0, 5.016779, 4.927257 
3.384521e+2, 2.950618e+2, -65818.38, -203498.83, -135.33296, -0.000039186547, 0.051823825, -65818.25, -17324.014, 0.0, 5.016254, 4.927304 
3.3844897e+2, 3.0000454e+2, -9871.547, -101187.36, 1375.0942, -0.023043746, 0.05778595, -9850.845, -9782.491, 0.0, 5.015441, 4.955648 
3.3844227e+2, 3.0497444e+2, -10030.508, -91838.914, 3680.8982, -0.07661734, 0.12870954, -9865.224, -9865.224, 0.0, 5.013729, 4.958937 
3.384334e+2, 3.099475e+2, -15943.15, -92568.02, 6054.3926, -0.14871985, 0.20421983, -15467.722, -15467.722, 0.0, 5.011266, 4.959568 
3.3842364e+2, 3.1492195e+2, -23427.959, -94058.914, 9489.371, -0.22951782, 0.28668094, -22175.266, -22175.266, 0.0, 5.0081754, 4.9602 
3.434576e+2, 1.2152567e+2, -1711023.4, -1747150.5, -808.47485, 0.001973836, -0.036114667, -1711005.3, 38040.08, 0.0, 5.0140686, 4.990528 
3.4345746e+2, 1.2651882e+2, -1669306.4, -1712510.8, -305.32297, 0.0028818785, 0.033549547, -1669304.3, 30806.914, 0.0, 5.0139737, 4.9858675 
3.4345713e+2, 1.3150252e+2, -1620629.6, -1663667.8, -262.42233, 0.0013498508, 0.011098622, -1620628.1, 30643.686, 0.0, 5.0138664, 4.9858675 
3.4345675e+2, 1.364862e+2, -1574156.9, -1619352.6, -218.29936, -0.00016146751, -0.010123192, -1574155.9, 28276.816, 0.0, 5.0137587, 4.984367 
3.4345645e+2, 1.4146784e+2, -1532315.1, -1584750.4, -257.1321, -0.0011424263, -0.008878707, -1532313.9, 21299.807, 0.0, 5.0136824, 4.979554 
3.4345615e+2, 1.4644814e+2, -1483108.3, -1535296.6, -262.56436, -0.0013229977, -0.005302978, -1483106.9, 21700.781, 0.0, 5.013662, 4.9796915 
3.4345585e+2, 1.5142843e+2, -1434100.5, -1486260.4, -268.15457, -0.001468802, -0.0019550293, -1434099.1, 21902.635, 0.0, 5.0136423, 4.979691 
3.4345555e+2, 1.5640873e+2, -1386520.3, -1440198.1, -273.24976, -0.0016038989, 0.0018439915, -1386518.9, 20677.06, 0.0, 5.0136228, 4.978697 
3.4345534e+2, 1.6138497e+2, -1345977.9, -1409006.8, -49.62276, -0.0019829858, 0.009209365, -1345977.8, 12451.847, 0.0, 5.0136323, 4.972715 
3.434553e+2, 1.6635759e+2, -1296633.3, -1359765.9, 87.553085, -0.0028871843, 0.0059611113, -1296633.1, 13065.228, 0.0, 5.013703, 4.9727163 
3.434553e+2, 1.7133023e+2, -1247284.8, -1310527.4, 156.92914, -0.0037899897, 0.0026053882, -1247284.3, 13682.905, 0.0, 5.0137753, 4.972717 
3.4345528e+2, 1.7630285e+2, -1199074.8, -1263695.5, 226.37654, -0.004674114, -0.0003600629, -1199073.9, 13162.086, 0.0, 5.013848, 4.97191 
3.4345537e+2, 1.8127194e+2, -1158425.3, -1232883.5, 462.64655, -0.005524265, 0.004575656, -1158422.4, 5116.8735, 0.0, 5.013912, 4.965692 
3.4345567e+2, 1.8623778e+2, -1108860.1, -1183111.5, 557.3411, -0.006312369, 0.0018559262, -1108856.0, 6017.4277, 0.0, 5.0139546, 4.965863 
3.43456e+2, 1.9120361e+2, -1059538.9, -1133852.8, 585.19836, -0.0070840633, -0.0010199527, -1059534.3, 6673.1973, 0.0, 5.013996, 4.9658637 
3.434563e+2, 1.9616948e+2, -1011110.94, -1086511.9, 613.19244, -0.007840366, -0.003573176, -1011105.94, 6435.471, 0.0, 5.0140376, 4.965214 
3.4345645e+2, 2.0113187e+2, -970796.1, -1056679.6, 89.25032, -0.007425747, 0.0025417365, -970796.0, -1886.6332, 0.0, 5.0140815, 4.9585876 
3.4345624e+2, 2.06091e+2, -921075.2, -1006711.06, -144.83653, -0.0038934515, 0.0032759297, -921074.94, -765.12415, 0.0, 5.0141387, 4.958797 
3.43456e+2, 2.1105014e+2, -871638.0, -957363.5, -169.58246, -0.0001593966, 0.0037818882, -871637.6, 72.48485, 0.0, 5.014197, 4.958797 
3.4345576e+2, 2.1600929e+2, -822868.6, -909472.8, -194.29773, 0.0036111597, 0.0044251173, -822868.2, 242.27998, 0.0, 5.014255, 4.9582977 
3.434553e+2, 2.2096473e+2, -783030.2, -881325.25, 113.41008, 0.0042421916, 0.012915797, -783030.06, -8482.052, 0.0, 5.0143466, 4.9509892 
3.434543e+2, 2.25916e+2, -732978.9, -831268.75, 352.30338, -0.004606144, 0.010861987, -732977.6, -6948.435, 0.0, 5.014517, 4.9511504 
3.4345326e+2, 2.3086724e+2, -683135.4, -781687.7, 496.17966, -0.01406289, 0.008315448, -683132.9, -5622.025, 0.0, 5.0146904, 4.9511533 
3.434522e+2, 2.3581846e+2, -633946.25, -733557.94, 642.2447, -0.023496957, 0.005700103, -633942.1, -4949.5664, 0.0, 5.0148635, 4.9506545 
3.434519e+2, 2.4076626e+2, -592915.5, -703537.3, 1568.2626, -0.028747702, 0.012926741, -592893.25, -12387.762, 0.0, 5.0150175, 4.9438634 
3.4345433e+2, 2.457106e+2, -542126.44, -651535.1, 2032.3508, -0.019853288, 0.006650597, -542088.7, -10045.302, 0.0, 5.015111, 4.944709 
3.434571e+2, 2.5065494e+2, -492464.44, -602038.4, 1905.8254, -0.009686382, -0.0012041755, -492431.3, -8850.657, 0.0, 5.0151978, 4.944703 
3.4345978e+2, 2.5559932e+2, -443053.47, -553110.7, 1777.1838, 0.000590778, -0.008443484, -443024.78, -7907.4077, 0.0, 5.0152817, 4.9444995 
3.4346274e+2, 2.605397e+2, -405871.25, -532144.75, 1672.7344, 0.013887616, -0.0004158548, -405849.1, -19149.984, 0.0, 5.0154123, 4.934397 
3.434653e+2, 2.654763e+2, -355244.94, -481271.53, 2110.4468, 0.02821886, 0.0052231853, -355209.6, -16869.22, 0.0, 5.015581, 4.9346495 
3.434675e+2, 2.7041274e+2, -304891.06, -431237.38, 2841.699, 0.040572934, 0.006751866, -304827.2, -14841.938, 0.0, 5.015736, 4.934743 
3.4346944e+2, 2.7534896e+2, -254554.86, -381389.78, 3651.0522, 0.05164034, 0.003226609, -254449.84, -12817.21, 0.0, 5.0158834, 4.934789 
3.4347382e+2, 2.802824e+2, -224073.05, -374437.66, 8945.913, 0.059642732, 0.06320535, -223542.69, -30237.867, 0.0, 5.016062, 4.9197993 
3.4347355e+2, 2.8521138e+2, -167320.27, -302943.2, 3670.902, 0.039490044, 0.09563157, -167220.97, -22211.22, 0.0, 5.015709, 4.927371 
3.4347e+2, 2.9013807e+2, -119136.27, -254179.75, 2862.9524, 0.013938397, 0.07699356, -119075.6, -22339.416, 0.0, 5.0152097, 4.9272833 
3.4346622e+2, 2.9506427e+2, -70899.26, -205447.25, 2134.0754, -0.011427314, 0.053435132, -70865.414, -22398.48, 0.0, 5.0146947, 4.9271955 
3.4346253e+2, 3.0000803e+2, -11727.196, -97728.83, 3148.7805, -0.035031706, 0.0657394, -11612.064, -11583.076, 0.0, 5.0142026, 4.9573674 
3.434549e+2, 3.049783e+2, -7938.228, -85477.34, 4889.779, -0.08683981, 0.12706994, -7631.085, -7631.085, 0.0, 5.01375, 4.96127 
3.4344518e+2, 3.0995136e+2, -7726.873, -82032.53, 5911.8975, -0.15168072, 0.18454422, -7259.4517, -7259.4517, 0.0, 5.0132713, 4.9625278 
3.4343472e+2, 3.149263e+2, -7320.8823, -78784.07, 7101.629, -0.21988243, 0.24422792, -6621.9956, -6621.9956, 0.0, 5.012776, 4.963786 
3.4847176e+2, 1.2152552e+2, -1711362.8, -1747834.9, -861.11096, 0.0028076267, -0.03532274, -1711342.5, 37703.254, 0.0, 5.0140676, 4.990304 
3.4847137e+2, 1.2651834e+2, -1669225.3, -1712338.5, -389.22372, 0.0024263992, 0.030640554, -1669221.8, 30893.385, 0.0, 5.0139728, 4.9859247 
3.48471e+2, 1.3150217e+2, -1620548.4, -1663497.1, -344.49573, 0.001212944, 0.008954427, -1620545.6, 30728.746, 0.0, 5.013866, 4.9859242 
3.4847054e+2, 1.3648598e+2, -1574074.5, -1619181.4, -298.1593, 0.000000085367944, -0.011505777, -1574072.5, 28361.443, 0.0, 5.013758, 4.9844236 
3.4847015e+2, 1.414677e+2, -1532297.3, -1584713.9, -284.87744, -0.0007668203, -0.0096241245, -1532295.8, 21318.176, 0.0, 5.0136824, 4.9795666 
3.4846985e+2, 1.4644805e+2, -1483117.1, -1535315.5, -277.6041, -0.00089265633, -0.0056298156, -1483115.6, 21692.371, 0.0, 5.013662, 4.9796853 
3.4846956e+2, 1.5142837e+2, -1434109.3, -1486279.3, -282.46747, -0.0009943469, -0.001865261, -1434107.8, 21894.426, 0.0, 5.013643, 4.979685 
3.4846923e+2, 1.5640871e+2, -1386528.5, -1440216.0, -286.7243, -0.0010924522, 0.0023489764, -1386527.0, 20669.445, 0.0, 5.013623, 4.978691 
3.4846902e+2, 1.6138498e+2, -1345873.9, -1408789.5, -10.829365, -0.0015937829, 0.009779762, -1345873.9, 12556.064, 0.0, 5.0136323, 4.9727874 
3.4846902e+2, 1.6635764e+2, -1296504.3, -1359494.9, 142.34729, -0.0029706936, 0.005968868, -1296503.9, 13194.098, 0.0, 5.013703, 4.9728074 
3.4846902e+2, 1.713303e+2, -1247156.6, -1310257.3, 212.76855, -0.0043726214, 0.0020408179, -1247155.9, 13810.132, 0.0, 5.0137753, 4.972808 
3.4846905e+2, 1.7630298e+2, -1198947.6, -1263426.3, 283.2497, -0.0057696593, -0.0014969232, -1198946.4, 13287.713, 0.0, 5.013848, 4.9720006 
3.4846917e+2, 1.8127212e+2, -1158350.0, -1232723.3, 500.4972, -0.0067445906, 0.003366882, -1158346.6, 5189.7773, 0.0, 5.013912, 4.965746 
3.484696e+2, 1.8623811e+2, -1108807.8, -1182999.6, 589.82764, -0.0067476495, 0.0018079245, -1108803.0, 6066.337, 0.0, 5.0139546, 4.9659014 
3.4847003e+2, 1.9120412e+2, -1059486.8, -1133741.0, 619.1014, -0.006713309, 0.00015000507, -1059481.5, 6720.6484, 0.0, 5.013996, 4.965902 
3.4847045e+2, 1.9617014e+2, -1011059.06, -1086400.3, 648.5082, -0.0066800737, -0.0011866947, -1011053.5, 6481.4688, 0.0, 5.014037, 4.965252 
3.4847066e+2, 2.0113257e+2, -970801.1, -1056686.3, 125.96068, -0.0060916515, 0.0050866134, -970801.0, -1898.2426, 0.0, 5.0140805, 4.9585857 
3.4847036e+2, 2.0609145e+2, -921115.06, -1006793.06, -101.12004, -0.0040287105, 0.0035977182, -921114.94, -809.5632, 0.0, 5.0141377, 4.9587693 
3.4847003e+2, 2.1105033e+2, -871677.1, -957445.0, -123.861336, -0.0018770411, 0.0017966689, -871677.0, 31.137884, 0.0, 5.0141964, 4.95877 
3.484697e+2, 2.1600921e+2, -822907.06, -909553.75, -146.57645, 0.0002889769, 0.00013240063, -822906.8, 204.01431, 0.0, 5.0142546, 4.9582705 
3.4846923e+2, 2.2096452e+2, -782869.5, -880964.44, 225.71738, -0.00022597276, 0.0070582586, -782869.0, -8319.941, 0.0, 5.014345, 4.951113 
3.4846842e+2, 2.2591604e+2, -732738.44, -830721.1, 494.08484, -0.008846681, 0.0057135336, -732736.0, -6709.6797, 0.0, 5.0145144, 4.9513397 
3.4846756e+2, 2.3086755e+2, -682899.4, -781138.44, 642.5685, -0.018026993, 0.0040401593, -682895.2, -5391.5063, 0.0, 5.0146866, 4.951344 
3.484667e+2, 2.3581906e+2, -633714.7, -733007.0, 793.22797, -0.027225038, 0.0023020112, -633708.4, -4727.247, 0.0, 5.0148582, 4.9508467 
3.4846658e+2, 2.4076699e+2, -592899.5, -703396.94, 1682.5586, -0.03227357, 0.009409313, -592873.9, -12381.904, 0.0, 5.0150037, 4.9439135 
3.4846917e+2, 2.4571122e+2, -542322.4, -651840.94, 2098.3357, -0.023341121, 0.002856543, -542282.2, -10248.336, 0.0, 5.0150933, 4.9446054 
3.4847194e+2, 2.5065544e+2, -492658.63, -602346.1, 1977.9963, -0.013217656, -0.0048590912, -492622.97, -9047.64, 0.0, 5.01518, 4.944598 
3.4847474e+2, 2.5559974e+2, -443245.9, -553420.4, 1855.5381, -0.0030404967, -0.011925053, -443214.66, -8098.394, 0.0, 5.015264, 4.944393 
3.4847766e+2, 2.6054046e+2, -405230.94, -530436.06, 1847.7603, 0.008918584, -0.0017442559, -405203.7, -18506.807, 0.0, 5.0153785, 4.9350095 
3.4848008e+2, 2.6547867e+2, -354276.22, -478411.97, 2456.2424, 0.017618729, 0.012560537, -354227.63, -15906.981, 0.0, 5.015498, 4.9356966 
3.4848207e+2, 2.7041692e+2, -304023.78, -428229.2, 3284.2925, 0.023555778, 0.02337116, -303937.0, -13991.0, 0.0, 5.0156064, 4.93585 
3.4848386e+2, 2.7535498e+2, -253789.28, -378233.1, 4190.3516, 0.027775023, 0.029316314, -253648.34, -12075.376, 0.0, 5.0157075, 4.9359565 
3.484876e+2, 2.8028908e+2, -221952.98, -369423.22, 8026.6455, 0.0318017, 0.07965772, -221517.39, -28281.203, 0.0, 5.016044, 4.9215984 
3.4848672e+2, 2.8521696e+2, -167416.7, -304118.53, 3109.337, 0.014000882, 0.099624395, -167346.02, -22396.795, 0.0, 5.0158424, 4.9270234 
3.4848285e+2, 2.901429e+2, -119221.016, -255156.34, 2414.6523, -0.010442339, 0.08108464, -119178.13, -22498.658, 0.0, 5.015335, 4.9269886 
3.4847873e+2, 2.9506838e+2, -70973.14, -206225.98, 1799.084, -0.035257395, 0.057013515, -70949.22, -22535.127, 0.0, 5.014813, 4.9269543 
3.4847453e+2, 3.0001238e+2, -9382.039, -92237.26, 2486.9211, -0.059308268, 0.0686491, -9307.461, -9307.461, 0.0, 5.014253, 4.9593997 
3.484665e+2, 3.0498365e+2, -6119.3423, -79845.68, 4406.8936, -0.11202594, 0.12865862, -5856.8604, -5856.8604, 0.0, 5.013608, 4.9636064 
3.484565e+2, 3.0995747e+2, -6463.2856, -76528.84, 5867.1626, -0.17821692, 0.1885316, -5975.378, -5975.378, 0.0, 5.012956, 4.9648976 
3.484457e+2, 3.1493363e+2, -6613.3633, -73407.336, 7494.8574, -0.24884933, 0.2548532, -5782.706, -5782.706, 0.0, 5.012288, 4.9661894 
3.5348594e+2, 1.21525265e+2, -1711589.9, -1748289.6, -916.49927, 0.003428277, -0.03547984, -1711567.0, 37480.125, 0.0, 5.0140667, 4.9901547 
3.5348532e+2, 1.2651785e+2, -1669144.6, -1712165.9, -472.52322, 0.0019610336, 0.027809752, -1669139.5, 30979.666, 0.0, 5.013972, 4.9859815 
3.5348484e+2, 1.3150181e+2, -1620467.6, -1663326.0, -425.9679, 0.0010718806, 0.0068588234, -1620463.4, 30813.607, 0.0, 5.013865, 4.9859805 
3.534843e+2, 1.3648577e+2, -1573992.5, -1619009.8, -377.41696, 0.00016321085, -0.012869373, -1573989.3, 28445.848, 0.0, 5.013758, 4.9844804 
3.534839e+2, 1.4146759e+2, -1532285.6, -1584689.5, -312.5934, -0.00039153016, -0.010348159, -1532283.8, 21330.43, 0.0, 5.0136824, 4.9795747 
3.5348356e+2, 1.4644797e+2, -1483126.3, -1535334.4, -292.65204, -0.00046290611, -0.0059417817, -1483124.6, 21683.76, 0.0, 5.013662, 4.979679 
3.5348326e+2, 1.5142833e+2, -1434118.3, -1486298.0, -296.7886, -0.0005193434, -0.0017741703, -1434116.6, 21886.021, 0.0, 5.013643, 4.9796786 
3.534829e+2, 1.564087e+2, -1386537.0, -1440233.9, -300.2069, -0.0005793177, 0.0028417353, -1386535.3, 20661.64, 0.0, 5.013623, 4.978685 
3.534827e+2, 1.61385e+2, -1345774.3, -1408580.6, 27.923462, -0.0012056581, 0.01036824, -1345774.3, 12656.061, 0.0, 5.0136323, 4.972857 
3.5348272e+2, 1.663577e+2, -1296375.5, -1359223.8, 197.12599, -0.0030554123, 0.005992119, -1296374.9, 13322.752, 0.0, 5.0137024, 4.972898 
3.5348275e+2, 1.7133038e+2, -1247028.9, -1309987.1, 268.5924, -0.004955731, 0.0014759506, -1247027.8, 13937.153, 0.0, 5.0137753, 4.9728985 
3.5348278e+2, 1.7630309e+2, -1198820.8, -1263156.9, 340.10727, -0.0068649505, -0.002649872, -1198819.0, 13413.145, 0.0, 5.0138474, 4.972091 
3.5348296e+2, 1.8127231e+2, -1158280.3, -1232574.0, 538.3713, -0.0079658795, 0.0021835908, -1158276.4, 5257.21, 0.0, 5.0139117, 4.965796 
3.5348353e+2, 1.8623847e+2, -1108755.6, -1182887.5, 622.2286, -0.007185624, 0.0017823037, -1108750.5, 6114.8647, 0.0, 5.0139546, 4.965939 
3.5348406e+2, 1.9120462e+2, -1059435.0, -1133628.9, 652.9188, -0.006346897, 0.0013187466, -1059429.3, 6767.731, 0.0, 5.013996, 4.96594 
3.5348463e+2, 1.9617079e+2, -1011007.6, -1086288.3, 683.7382, -0.0055257725, 0.0011749731, -1011001.4, 6527.112, 0.0, 5.014037, 4.96529 
3.5348493e+2, 2.0113327e+2, -970817.1, -1056715.6, 161.77188, -0.0047489265, 0.0076773106, -970816.8, -1920.7899, 0.0, 5.01408, 4.9585757 
3.534845e+2, 2.0609191e+2, -921155.5, -1006874.7, -57.40548, -0.0041527273, 0.0039685424, -921155.44, -854.47974, 0.0, 5.0141373, 4.9587417 
3.5348406e+2, 2.1105053e+2, -871716.8, -957526.06, -78.14213, -0.0035869933, -0.00017409744, -871716.75, -10.667716, 0.0, 5.014196, 4.9587417 
3.5348362e+2, 2.1600915e+2, -822945.94, -909634.3, -98.85706, -0.003029064, -0.004180446, -822945.8, 165.30862, 0.0, 5.014254, 4.9582424 
3.5348314e+2, 2.2096433e+2, -782718.1, -880622.2, 336.59952, -0.004699105, 0.0012332384, -782717.0, -8166.846, 0.0, 5.014344, 4.9512305 
3.5348254e+2, 2.2591609e+2, -732499.2, -830172.7, 633.78174, -0.013113143, 0.0005559242, -732495.06, -6471.682, 0.0, 5.0145116, 4.9515285 
3.5348186e+2, 2.3086786e+2, -682664.56, -780588.44, 786.8727, -0.022035962, -0.0003352029, -682658.2, -5161.683, 0.0, 5.014683, 4.9515343 
3.5348123e+2, 2.3581964e+2, -633484.25, -732455.25, 942.1265, -0.031016925, -0.0012870736, -633475.25, -4505.563, 0.0, 5.0148535, 4.951038 
3.5348132e+2, 2.4076775e+2, -592925.94, -703344.2, 1787.691, -0.035847068, 0.0061439876, -592897.0, -12418.745, 0.0, 5.01499, 4.9439325 
3.5348397e+2, 2.4571188e+2, -542522.06, -652143.25, 2165.3064, -0.026841944, -0.0005241321, -542479.3, -10455.323, 0.0, 5.0150757, 4.9445004 
3.534868e+2, 2.50656e+2, -492856.56, -602650.4, 2051.1538, -0.016737366, -0.008225401, -492818.25, -9248.492, 0.0, 5.0151625, 4.9444923 
3.5348967e+2, 2.556002e+2, -443442.06, -553726.56, 1934.8793, -0.0066356505, -0.015242794, -443408.13, -8293.166, 0.0, 5.015247, 4.9442863 
3.534926e+2, 2.6054117e+2, -404690.97, -528930.7, 1967.9521, 0.0041127717, -0.003481772, -404659.78, -17964.383, 0.0, 5.0153446, 4.9355383 
3.5349473e+2, 2.6548088e+2, -353321.16, -475545.34, 2713.9746, 0.006576018, 0.017481482, -353260.9, -14958.241, 0.0, 5.015415, 4.9367146 
3.5349646e+2, 2.7042082e+2, -303169.78, -425213.75, 3638.7915, 0.0053426144, 0.035507705, -303061.38, -13152.303, 0.0, 5.0154767, 4.9369283 
3.534979e+2, 2.7536067e+2, -253036.69, -375069.1, 4641.515, 0.00196031, 0.048857037, -252860.4, -11344.131, 0.0, 5.015531, 4.937094 
3.5350135e+2, 2.802959e+2, -220990.75, -367073.78, 7240.054, 0.004652165, 0.098105915, -220632.81, -27466.453, 0.0, 5.0160275, 4.922456 
3.535002e+2, 2.852229e+2, -167537.7, -305272.25, 2448.537, -0.0090042, 0.11122527, -167494.19, -22609.49, 0.0, 5.015976, 4.926649 
3.5349596e+2, 2.9014802e+2, -119330.03, -256110.97, 1867.1256, -0.033151966, 0.08993923, -119304.55, -22684.594, 0.0, 5.015461, 4.9266677 
3.5349146e+2, 2.9507267e+2, -71071.055, -206982.42, 1364.862, -0.05822931, 0.062511094, -71057.35, -22697.707, 0.0, 5.014931, 4.9266863 
3.5348675e+2, 3.000163e+2, -7795.9136, -88453.15, 1717.3799, -0.08215548, 0.06949417, -7759.3633, -7759.3633, 0.0, 5.014304, 4.9607773 
3.5347822e+2, 3.0498776e+2, -4326.45, -74196.15, 3864.8997, -0.13411677, 0.11734815, -4113.31, -4113.31, 0.0, 5.013466, 4.9658184 
3.5346773e+2, 3.0996194e+2, -5225.3857, -71006.86, 5762.642, -0.20072657, 0.16703172, -4724.378, -4724.378, 0.0, 5.0126414, 4.9671426 
3.5345638e+2, 3.1493878e+2, -5931.458, -68011.73, 7827.6367, -0.2728579, 0.22740005, -4959.691, -4959.691, 0.0, 5.0118003, 4.9684677 
3.5850003e+2, 1.2152492e+2, -1712078.8, -1748703.5, -1025.5842, 0.0038728865, -0.036415726, -1712050.0, 36999.45, 0.0, 5.0139437, 4.990079 
3.5849923e+2, 1.2651737e+2, -1669360.0, -1712139.1, -609.48236, 0.00151603, 0.025104199, -1669351.3, 30771.904, 0.0, 5.013873, 4.9860377 
3.5849866e+2, 1.3150147e+2, -1620627.4, -1663272.4, -561.98346, 0.00093560456, 0.004856118, -1620620.0, 30659.674, 0.0, 5.013785, 4.9860373 
3.584981e+2, 1.3648553e+2, -1574112.0, -1618935.3, -510.8205, 0.0003337804, -0.014170632, -1574106.1, 28330.238, 0.0, 5.0136905, 4.9845376 
3.5849762e+2, 1.4146747e+2, -1532452.9, -1584757.9, -388.18597, -0.0000034232507, -0.01101705, -1532450.0, 21164.512, 0.0, 5.013624, 4.9795804 
3.5849726e+2, 1.4644788e+2, -1483283.5, -1535421.3, -342.33542, -0.000022119271, -0.006229637, -1483281.3, 21527.42, 0.0, 5.013612, 4.9796743 
3.584969e+2, 1.5142828e+2, -1434255.8, -1486374.8, -332.1734, -0.000028899212, -0.0016970261, -1434253.6, 21749.39, 0.0, 5.013599, 4.9796743 
3.5849658e+2, 1.5640867e+2, -1386659.4, -1440302.0, -320.69485, -0.000040923533, 0.0032824343, -1386657.5, 20540.03, 0.0, 5.013584, 4.978681 
3.5849637e+2, 1.6138501e+2, -1345806.3, -1408441.6, 67.41442, -0.0007818359, 0.010922487, -1345806.3, 12624.444, 0.0, 5.0135894, 4.9729238 
3.5849643e+2, 1.6635774e+2, -1296440.1, -1359047.9, 244.81146, -0.0030856954, 0.0060034064, -1296439.1, 13258.046, 0.0, 5.013638, 4.972987 
3.5849646e+2, 1.7133048e+2, -1247170.8, -1309848.8, 308.42334, -0.0054541957, 0.00091225246, -1247169.3, 13794.502, 0.0, 5.0136843, 4.9729877 
3.5849652e+2, 1.7630321e+2, -1199049.8, -1263060.4, 371.51373, -0.007834693, -0.0037866158, -1199047.6, 13182.611, 0.0, 5.013727, 4.9721804 
3.5849676e+2, 1.812725e+2, -1158639.3, -1232637.8, 547.8338, -0.009046431, 0.0010668224, -1158635.3, 4895.444, 0.0, 5.0137672, 4.9658427 
3.584974e+2, 1.862388e+2, -1109141.6, -1182982.9, 629.54333, -0.0075366893, 0.001783055, -1109136.4, 5724.9556, 0.0, 5.013805, 4.965977 
3.5849807e+2, 1.9120511e+2, -1059847.0, -1133736.0, 664.1823, -0.0059350748, 0.0024520997, -1059841.0, 6350.732, 0.0, 5.013837, 4.9659777 
3.5849875e+2, 1.9617143e+2, -1011459.7, -1086413.3, 698.6097, -0.004352005, 0.003439225, -1011453.2, 6068.9614, 0.0, 5.013864, 4.9653277 
3.584991e+2, 2.0113395e+2, -971343.75, -1056999.8, 187.4049, -0.0033812905, 0.010220439, -971343.4, -2453.9106, 0.0, 5.0139065, 4.9585595 
3.5849863e+2, 2.0609236e+2, -921571.7, -1007129.44, -9.645517, -0.004238845, 0.0043452606, -921571.7, -1275.1532, 0.0, 5.014006, 4.958715 
3.584981e+2, 2.1105072e+2, -872018.06, -957726.5, -17.400993, -0.0052358876, -0.0021163472, -872018.0, -314.08444, 0.0, 5.0141044, 4.958715 
3.5849756e+2, 2.160091e+2, -823148.44, -909788.1, -25.78796, -0.006247679, -0.008441521, -823148.44, -37.11354, 0.0, 5.014197, 4.9582157 
3.5849708e+2, 2.2096415e+2, -782717.94, -880371.06, 469.6082, -0.0090295095, -0.0044581136, -782715.7, -8164.6533, 0.0, 5.014295, 4.9513383 
3.5849664e+2, 2.2591613e+2, -732573.94, -829784.56, 759.2534, -0.017186547, -0.004551517, -732568.06, -6547.569, 0.0, 5.014403, 4.95171 
3.5849622e+2, 2.3086816e+2, -682958.1, -780300.56, 875.8705, -0.025756814, -0.004806155, -682950.25, -5460.756, 0.0, 5.0144973, 4.9517164 
3.5849577e+2, 2.3582019e+2, -634030.94, -732282.2, 990.4854, -0.034382794, -0.005128851, -634021.0, -5062.3916, 0.0, 5.0145793, 4.9512205 
3.5849604e+2, 2.4076848e+2, -594023.9, -703880.44, 1740.905, -0.038832765, 0.0030148563, -593996.3, -13531.592, 0.0, 5.0146165, 4.943912 
3.5849875e+2, 2.4571255e+2, -544024.9, -653075.4, 2039.723, -0.029700259, -0.0035090924, -543986.75, -11972.576, 0.0, 5.014602, 4.944385 
3.5850167e+2, 2.5065655e+2, -494670.25, -603727.56, 1876.5165, -0.019529078, -0.011217662, -494637.97, -11073.711, 0.0, 5.014579, 4.944375 
3.5850456e+2, 2.5560063e+2, -445600.06, -554962.44, 1707.6613, -0.009363805, -0.018227862, -445573.4, -10459.654, 0.0, 5.0145407, 4.944167 
3.5850745e+2, 2.605417e+2, -406815.13, -528959.5, 1591.4071, 0.00066656223, -0.005431813, -406794.4, -20099.133, 0.0, 5.0144258, 4.935927 
3.5850927e+2, 2.6548266e+2, -356730.22, -475029.56, 1912.5044, -0.002053972, 0.019883955, -356699.3, -18410.941, 0.0, 5.013831, 4.93757 
3.585107e+2, 2.70424e+2, -309231.13, -425831.34, 2172.856, -0.0087294215, 0.04240692, -309190.66, -19311.885, 0.0, 5.012942, 4.937795 
3.585118e+2, 2.753653e+2, -262441.16, -377110.97, 2301.1628, -0.017265541, 0.06011031, -262395.0, -20925.08, 0.0, 5.0117927, 4.937973 
3.5851538e+2, 2.8030172e+2, -234332.34, -373218.84, 3205.6624, -0.010759231, 0.115497984, -234258.39, -41152.598, 0.0, 5.0113144, 4.92235 
3.5851413e+2, 2.8522834e+2, -178080.75, -310588.03, -1105.8627, -0.021147769, 0.12772314, -178071.53, -33246.305, 0.0, 5.0123544, 4.926328 
3.5850942e+2, 2.9015267e+2, -126890.234, -260038.14, -1183.4673, -0.048262887, 0.10183951, -126879.71, -30314.973, 0.0, 5.0129, 4.9263587 
3.585045e+2, 2.950766e+2, -76562.53, -209927.95, -1335.2291, -0.07602874, 0.06938558, -76549.164, -28240.23, 0.0, 5.0131087, 4.9263887 
3.5849938e+2, 3.000194e+2, -11529.456, -88624.85, -1316.985, -0.09978329, 0.06880741, -11506.965, -11506.965, 0.0, 5.0127296, 4.9613466 
3.5849023e+2, 3.0499005e+2, -10028.424, -72473.51, 292.6174, -0.14645892, 0.092475265, -10027.053, -10027.053, 0.0, 5.0106554, 4.9675922 
3.5847923e+2, 3.0996346e+2, -16708.719, -71751.65, 1705.6359, -0.20718434, 0.115317665, -16655.916, -16655.916, 0.0, 5.007729, 4.9689097 
3.5846737e+2, 3.1493968e+2, -25145.11, -72037.29, 3274.9812, -0.27239808, 0.15029417, -24917.486, -24917.486, 0.0, 5.00408, 4.9702287 
3.6351383e+2, 1.21524855e+2, -1712396.6, -1749095.3, -1153.5452, 0.0028825246, -0.032677572, -1712360.5, 36690.055, 0.0, 5.0138874, 4.989978 
3.63513e+2, 1.2651686e+2, -1669328.4, -1711983.4, -804.0711, 0.0009320647, 0.023946755, -1669313.3, 30815.404, 0.0, 5.0138526, 4.9860992 
3.635124e+2, 1.3150106e+2, -1620493.1, -1663063.1, -753.4793, 0.00068762247, 0.0042672893, -1620479.8, 30803.951, 0.0, 5.013798, 4.9860992 
3.635118e+2, 1.3648526e+2, -1573858.5, -1618662.6, -700.10474, 0.0004784394, -0.014184164, -1573847.5, 28591.596, 0.0, 5.013744, 4.9846015 
3.635113e+2, 1.4146729e+2, -1532094.3, -1584445.3, -508.95847, 0.0004690594, -0.010761332, -1532089.3, 21526.9, 0.0, 5.013715, 4.9796395 
3.6351097e+2, 1.4644772e+2, -1482864.8, -1535092.3, -399.6823, 0.00051731226, -0.006295583, -1482861.8, 21948.334, 0.0, 5.0137258, 4.9797287 
3.6351064e+2, 1.5142813e+2, -1433766.3, -1486010.6, -336.82565, 0.00058461726, -0.0020958725, -1433764.1, 22239.996, 0.0, 5.0137367, 4.9797287 
3.635103e+2, 1.5640853e+2, -1386094.0, -1439899.8, -272.9256, 0.00066328025, 0.0025500734, -1386092.6, 21105.625, 0.0, 5.013748, 4.9787364 
3.635101e+2, 1.6138493e+2, -1345276.1, -1408044.1, 137.34467, 0.00009606968, 0.009981458, -1345275.9, 13155.145, 0.0, 5.013739, 4.9729843 
3.6351016e+2, 1.6635773e+2, -1296228.8, -1358813.1, 282.00217, -0.0018634616, 0.005244927, -1296227.5, 13469.254, 0.0, 5.013682, 4.9730444 
3.6351025e+2, 1.7133054e+2, -1247271.9, -1309766.0, 313.08163, -0.0038508347, 0.00036840446, -1247270.3, 13692.236, 0.0, 5.0136228, 4.9730444 
3.6351034e+2, 1.7630336e+2, -1199450.9, -1263122.8, 344.0467, -0.0058185314, -0.0041073677, -1199449.1, 12779.182, 0.0, 5.013563, 4.972237 
3.6351055e+2, 1.8127273e+2, -1159285.6, -1232816.4, 526.3682, -0.0069813323, 0.0009776235, -1159281.9, 4246.0283, 0.0, 5.0135193, 4.9659 
3.6351115e+2, 1.8623911e+2, -1109910.8, -1183221.4, 628.9487, -0.0063260384, 0.001855325, -1109905.4, 4952.3984, 0.0, 5.0135145, 4.966033 
3.6351174e+2, 1.9120549e+2, -1060716.1, -1134020.8, 678.96313, -0.0055693057, 0.0026785394, -1060709.9, 5477.739, 0.0, 5.013511, 4.966034 
3.6351234e+2, 1.9617188e+2, -1012414.25, -1086737.1, 729.1396, -0.0047827037, 0.0038213811, -1012407.06, 5110.2207, 0.0, 5.013508, 4.965384 
3.635127e+2, 2.0113443e+2, -972250.06, -1057338.5, 350.59503, -0.0045003514, 0.010372086, -972248.56, -3364.333, 0.0, 5.013574, 4.958599 
3.6351234e+2, 2.0609277e+2, -922084.25, -1007310.75, 241.00584, -0.0058060354, 0.0036037832, -922083.56, -1791.8563, 0.0, 5.0138154, 4.9587417 
3.6351195e+2, 2.1105108e+2, -872095.06, -957703.7, 281.36374, -0.0071946713, -0.0037396525, -872094.1, -394.6362, 0.0, 5.0140653, 4.958741 
3.6351156e+2, 2.1600936e+2, -822777.5, -909557.2, 321.94357, -0.008557311, -0.010938224, -822776.3, 330.96295, 0.0, 5.014314, 4.9582415 
3.6351123e+2, 2.2096442e+2, -782108.8, -879930.1, 733.30566, -0.011111294, -0.0076188873, -782103.3, -7556.506, 0.0, 5.014475, 4.951409 
3.63511e+2, 2.2591646e+2, -732588.56, -829618.5, 893.71643, -0.01727107, -0.007889742, -732580.3, -6565.601, 0.0, 5.014359, 4.9517903 
3.6351073e+2, 2.3086855e+2, -683628.4, -780448.25, 927.39575, -0.023587322, -0.008325003, -683619.5, -6137.279, 0.0, 5.014223, 4.9517937 
3.6351046e+2, 2.3582062e+2, -635316.94, -732722.94, 962.8605, -0.029823788, -0.008855845, -635307.4, -6357.586, 0.0, 5.0140867, 4.951295 
3.6351082e+2, 2.4076895e+2, -596097.44, -705094.9, 1602.4833, -0.032909323, -0.0006223434, -596073.9, -15618.549, 0.0, 5.0139184, 4.943815 
3.6351308e+2, 2.4571298e+2, -546911.9, -654910.44, 1807.5695, -0.026246827, -0.0057476787, -546881.6, -14874.569, 0.0, 5.013656, 4.9441857 
3.6351556e+2, 2.5065693e+2, -498240.06, -605879.44, 1610.4354, -0.018725924, -0.012005225, -498216.0, -14656.227, 0.0, 5.013384, 4.944173 
3.6351797e+2, 2.5560093e+2, -449812.53, -557411.06, 1414.6151, -0.01105968, -0.017656209, -449793.94, -14681.941, 0.0, 5.0131087, 4.943962 
3.6352035e+2, 2.6054198e+2, -410693.78, -530235.2, 1360.2789, -0.0034172023, -0.004655195, -410678.3, -23983.508, 0.0, 5.0128736, 4.936198 
3.6352178e+2, 2.6548293e+2, -359297.4, -475338.16, 2102.3425, -0.006567441, 0.01580976, -359259.34, -20975.78, 0.0, 5.0125847, 4.9380774 
3.6352286e+2, 2.704241e+2, -310262.16, -425915.84, 3025.9956, -0.011217077, 0.03221357, -310183.06, -20311.996, 0.0, 5.012259, 4.9381623 
3.6352366e+2, 2.7536497e+2, -261242.47, -376663.0, 4036.4038, -0.015459605, 0.043042187, -261101.48, -19639.928, 0.0, 5.0119233, 4.9381995 
3.635268e+2, 2.8030106e+2, -233083.8, -373144.44, 5365.6616, -0.0004681111, 0.09475384, -232878.53, -39781.13, 0.0, 5.0117235, 4.9221225 
3.635256e+2, 2.85228e+2, -180689.36, -312254.38, 1131.5568, -0.011246734, 0.11296717, -180679.63, -35863.234, 0.0, 5.0114946, 4.925912 
3.6352128e+2, 2.901527e+2, -131950.44, -263176.66, -213.20012, -0.04079298, 0.09336291, -131950.1, -35393.47, 0.0, 5.011164, 4.92584 
3.6351675e+2, 2.950769e+2, -83162.945, -214133.06, -1416.552, -0.06852405, 0.06777456, -83147.625, -34845.77, 0.0, 5.0108056, 4.9257684 
3.6351192e+2, 3.0001944e+2, -16937.768, -91164.67, -2450.777, -0.08823574, 0.067671604, -16856.938, -16856.938, 0.0, 5.010443, 4.96135 
3.6350286e+2, 3.049891e+2, -10137.98, -70836.12, -671.05414, -0.11943933, 0.068221405, -10130.5625, -10130.5625, 0.0, 5.0096993, 4.968568 
3.6349213e+2, 3.099611e+2, -11180.255, -68289.555, 1175.8654, -0.1571711, 0.06042245, -11156.054, -11156.054, 0.0, 5.0087934, 4.969665 
3.634807e+2, 3.14935e+2, -12081.531, -65884.56, 2963.6768, -0.19281244, 0.05732968, -11918.772, -11918.772, 0.0, 5.007853, 4.9707637 
3.685275e+2, 1.21524885e+2, -1712515.1, -1749334.5, -1112.2156, 0.00058343913, -0.027248645, -1712481.5, 36569.65, 0.0, 5.013887, 4.9898996 
3.6852676e+2, 1.2651636e+2, -1669231.1, -1711782.3, -847.5829, 0.000040139177, 0.02354797, -1669214.3, 30920.174, 0.0, 5.013852, 4.9861655 
3.6852616e+2, 1.3150069e+2, -1620396.0, -1662863.8, -795.2109, 0.0002916463, 0.004362548, -1620381.1, 30907.107, 0.0, 5.0137978, 4.9861655 
3.6852556e+2, 1.3648498e+2, -1573759.9, -1618461.4, -739.43335, 0.0005557902, -0.013597041, -1573747.6, 28694.72, 0.0, 5.013744, 4.9846683 
3.6852506e+2, 1.4146711e+2, -1531971.1, -1584192.3, -509.41022, 0.0009042263, -0.010087958, -1531966.1, 21652.168, 0.0, 5.013715, 4.9797235 
3.6852476e+2, 1.4644754e+2, -1482745.4, -1534845.6, -391.40997, 0.0010392838, -0.006268009, -1482742.5, 22069.23, 0.0, 5.0137258, 4.9798107 
3.6852443e+2, 1.5142798e+2, -1433647.8, -1485764.8, -327.87323, 0.0011754805, -0.002725448, -1433645.6, 22359.615, 0.0, 5.0137367, 4.9798107 
3.6852413e+2, 1.564084e+2, -1385975.5, -1439653.0, -263.09534, 0.0013160814, 0.0012623542, -1385974.3, 21224.703, 0.0, 5.013748, 4.978819 
3.6852396e+2, 1.6138482e+2, -1345198.1, -1407879.5, 103.395615, 0.0010352677, 0.008360413, -1345197.9, 13233.145, 0.0, 5.013739, 4.973039 
3.6852401e+2, 1.6635773e+2, -1296170.0, -1358688.6, 236.23317, -0.00015487566, 0.0041436334, -1296169.0, 13527.068, 0.0, 5.013682, 4.9730864 
3.6852413e+2, 1.7133063e+2, -1247213.0, -1309641.9, 268.38727, -0.0013708681, -0.00017249233, -1247211.9, 13749.201, 0.0, 5.0136228, 4.9730864 
3.6852422e+2, 1.7630354e+2, -1199392.1, -1262998.9, 300.43265, -0.002581136, -0.004090274, -1199390.8, 12835.35, 0.0, 5.013563, 4.972279 
3.685244e+2, 1.8127301e+2, -1159200.5, -1232632.6, 512.8846, -0.0036868833, 0.0013213782, -1159196.9, 4328.09, 0.0, 5.013519, 4.965962 
3.6852485e+2, 1.862394e+2, -1109821.6, -1183027.5, 627.096, -0.0046228594, 0.0019514598, -1109816.3, 5038.047, 0.0, 5.0135136, 4.9660993 
3.6852527e+2, 1.9120583e+2, -1060627.6, -1133827.1, 678.53516, -0.0055447835, 0.0025002353, -1060621.4, 5562.253, 0.0, 5.01351, 4.9661 
3.6852568e+2, 1.9617225e+2, -1012326.4, -1086543.9, 730.13696, -0.0064562303, 0.0033674268, -1012319.2, 5193.623, 0.0, 5.013507, 4.9654503 
3.6852598e+2, 2.0113485e+2, -972164.6, -1057151.5, 488.955, -0.007409917, 0.009499149, -972161.8, -3282.4568, 0.0, 5.0135736, 4.9586625 
3.685259e+2, 2.060932e+2, -922011.9, -1007152.94, 430.25693, -0.008551986, 0.002394484, -922009.7, -1723.3187, 0.0, 5.0138154, 4.958796 
3.6852577e+2, 2.1105152e+2, -872023.06, -957546.1, 472.71326, -0.009712807, -0.0052314657, -872020.44, -326.75558, 0.0, 5.014065, 4.9587955 
3.6852565e+2, 2.1600986e+2, -822705.8, -909399.9, 515.3715, -0.010874653, -0.012712939, -822702.75, 398.18335, 0.0, 5.014314, 4.958296 
3.6852556e+2, 2.2096492e+2, -782035.6, -879758.4, 723.8356, -0.012607705, -0.009732705, -782030.25, -7490.3486, 0.0, 5.014473, 4.9514685 
3.6852548e+2, 2.2591698e+2, -732538.7, -829485.56, 796.5765, -0.016007302, -0.010431142, -732532.1, -6524.9956, 0.0, 5.014355, 4.951838 
3.685254e+2, 2.3086907e+2, -683582.94, -780315.0, 834.5424, -0.01947273, -0.0112694865, -683575.75, -6101.8086, 0.0, 5.0142183, 4.951842 
3.685253e+2, 2.3582116e+2, -635275.94, -732589.44, 874.30646, -0.022902409, -0.012183908, -635268.06, -6327.2373, 0.0, 5.0140805, 4.951344 
3.685256e+2, 2.4076949e+2, -596306.06, -705434.44, 1443.5879, -0.02485036, -0.0038124828, -596287.0, -15840.878, 0.0, 5.0138993, 4.943705 
3.685272e+2, 2.4571349e+2, -547240.2, -655494.5, 1596.5304, -0.022501534, -0.0072428966, -547216.7, -15217.384, 0.0, 5.013633, 4.9439917 
3.6852884e+2, 2.5065744e+2, -498556.94, -606451.44, 1406.6608, -0.019806646, -0.0117503805, -498538.6, -14984.922, 0.0, 5.0133634, 4.94398 
3.6853048e+2, 2.556014e+2, -450118.0, -557971.1, 1218.116, -0.017045656, -0.015716963, -450104.25, -14996.608, 0.0, 5.0130906, 4.943771 
3.685321e+2, 2.6054236e+2, -410129.94, -528743.5, 1244.9076, -0.014888296, -0.0034475322, -410116.88, -23425.742, 0.0, 5.0128407, 4.9367256 
3.685328e+2, 2.654834e+2, -358281.25, -472366.34, 2110.9893, -0.024727155, 0.007489546, -358242.22, -19968.174, 0.0, 5.012487, 4.9391427 
3.6853313e+2, 2.7042478e+2, -309438.7, -422898.16, 3125.8503, -0.036632944, 0.014493668, -309352.63, -19498.963, 0.0, 5.012096, 4.939268 
3.6853322e+2, 2.75366e+2, -260611.27, -373598.8, 4227.417, -0.048730288, 0.016952146, -260453.31, -19018.295, 0.0, 5.011695, 4.939346 
3.6853555e+2, 2.803027e+2, -233353.5, -374658.8, 4537.9673, -0.037078332, 0.06914441, -233207.9, -40146.973, 0.0, 5.0118313, 4.9216104 
3.6853492e+2, 2.852296e+2, -180629.7, -315101.1, 708.59326, -0.035983566, 0.09643697, -180625.97, -35839.402, 0.0, 5.0118537, 4.924902 
3.6853147e+2, 2.9015395e+2, -132056.95, -265841.4, -501.62503, -0.053773377, 0.08277156, -132055.08, -35517.715, 0.0, 5.011457, 4.9249005 
3.685278e+2, 2.950779e+2, -83435.67, -216616.08, -1570.2965, -0.07060167, 0.06344715, -83417.164, -35124.836, 0.0, 5.0110326, 4.924899 
3.6852378e+2, 3.0001974e+2, -15919.49, -89982.414, -2713.3743, -0.08046033, 0.06295986, -15820.216, -15820.216, 0.0, 5.0106025, 4.9617925 
3.6851507e+2, 3.0499002e+2, -7150.346, -64777.016, -836.48773, -0.103428, 0.048027698, -7138.2065, -7138.2065, 0.0, 5.0098095, 4.9707794 
3.6850458e+2, 3.0996343e+2, -8499.874, -62885.97, 1391.5178, -0.13504992, 0.029028442, -8464.294, -8464.294, 0.0, 5.0088725, 4.9717097 
3.6849332e+2, 3.1493875e+2, -9709.289, -61135.676, 3560.9836, -0.16684727, 0.018066403, -9463.883, -9463.883, 0.0, 5.0079, 4.9726415 
3.7354115e+2, 1.2152481e+2, -1712518.4, -1749338.4, -1073.6495, -0.0019315092, -0.022810517, -1712487.1, 36565.918, 0.0, 5.013887, 4.989898 
3.7354052e+2, 1.2651587e+2, -1669134.5, -1711580.9, -890.57513, -0.00086423993, 0.023216708, -1669115.9, 31024.496, 0.0, 5.0138516, 4.986232 
3.7353992e+2, 1.315003e+2, -1620299.5, -1662663.9, -836.423, -0.00011078857, 0.0044987495, -1620283.0, 31009.816, 0.0, 5.0137978, 4.9862313 
3.735393e+2, 1.3648473e+2, -1573661.6, -1618259.8, -778.24036, 0.00063267763, -0.012995552, -1573648.1, 28797.395, 0.0, 5.013744, 4.9847345 
3.7353882e+2, 1.4146692e+2, -1531852.9, -1583948.8, -510.05212, 0.0013401415, -0.0093984, -1531847.9, 21772.588, 0.0, 5.013715, 4.979804 
3.7353852e+2, 1.4644738e+2, -1482626.3, -1534598.9, -383.18134, 0.0015618633, -0.006230948, -1482623.4, 22189.943, 0.0, 5.0137258, 4.9798927 
3.7353823e+2, 1.5142782e+2, -1433529.3, -1485518.8, -318.96454, 0.0017673462, -0.003358285, -1433527.4, 22479.057, 0.0, 5.0137367, 4.9798927 
3.7353796e+2, 1.5640827e+2, -1385857.1, -1439406.3, -253.30823, 0.0019702793, -0.000041375144, -1385856.0, 21343.611, 0.0, 5.013748, 4.9789014 
3.7353778e+2, 1.6138472e+2, -1345125.3, -1407725.3, 69.14145, 0.001977517, 0.006759577, -1345125.1, 13306.011, 0.0, 5.0137386, 4.9730906 
3.7353787e+2, 1.6635773e+2, -1296111.4, -1358564.0, 190.53809, 0.0015569564, 0.00306136, -1296110.8, 13584.636, 0.0, 5.0136814, 4.973128 
3.73538e+2, 1.7133072e+2, -1247154.5, -1309517.6, 223.76677, 0.0011118974, -0.0007100629, -1247153.8, 13805.922, 0.0, 5.0136228, 4.973128 
3.735381e+2, 1.7630373e+2, -1199333.6, -1262874.9, 256.8925, 0.00065861066, -0.004085548, -1199332.6, 12891.276, 0.0, 5.013563, 4.9723206 
3.7353826e+2, 1.8127327e+2, -1159119.8, -1232457.5, 498.61484, -0.00038861512, 0.0016845661, -1159116.4, 4405.7305, 0.0, 5.0135183, 4.966021 
3.7353852e+2, 1.8623973e+2, -1109732.9, -1182833.4, 625.1182, -0.0029162534, 0.0020624897, -1109727.6, 5123.279, 0.0, 5.013513, 4.966165 
3.735388e+2, 1.9120617e+2, -1060539.5, -1133633.3, 677.982, -0.0055180322, 0.0023152102, -1060533.3, 5646.3604, 0.0, 5.0135098, 4.966166 
3.7353903e+2, 1.9617264e+2, -1012238.9, -1086350.3, 731.00903, -0.008128727, 0.0028851347, -1012231.7, 5276.629, 0.0, 5.0135064, 4.965516 
3.7353927e+2, 2.0113525e+2, -972089.8, -1056986.6, 627.56055, -0.010320508, 0.008672978, -972085.2, -3210.7773, 0.0, 5.013573, 4.958719 
3.7353942e+2, 2.0609362e+2, -921940.0, -1006994.7, 619.44037, -0.011301663, 0.0012385797, -921935.5, -1654.5112, 0.0, 5.013815, 4.95885 
3.7353957e+2, 2.1105199e+2, -871951.56, -957388.1, 663.9951, -0.012237228, -0.006702098, -871946.4, -258.5756, 0.0, 5.014065, 4.9588494 
3.7353978e+2, 2.1601033e+2, -822634.7, -909242.1, 708.73175, -0.01320084, -0.014498686, -822628.9, 465.72458, 0.0, 5.014314, 4.95835 
3.7353992e+2, 2.2096543e+2, -781970.1, -879601.94, 712.2918, -0.01409209, -0.0118314605, -781964.94, -7431.9756, 0.0, 5.0144715, 4.9515224 
3.7353998e+2, 2.2591747e+2, -732489.94, -829351.7, 698.33673, -0.014724312, -0.013000318, -732484.9, -6485.349, 0.0, 5.0143514, 4.9518847 
3.7354004e+2, 2.3086956e+2, -683538.6, -780180.94, 740.5889, -0.01534062, -0.014319365, -683533.0, -6067.282, 0.0, 5.014213, 4.9518895 
3.735401e+2, 2.3582166e+2, -635236.0, -732455.06, 784.65186, -0.01596522, -0.015694985, -635229.7, -6297.8164, 0.0, 5.014074, 4.9513927 
3.7354034e+2, 2.4077004e+2, -596556.75, -705859.2, 1265.4929, -0.016773602, -0.006772148, -596542.1, -16105.449, 0.0, 5.01388, 4.9435644 
3.7354124e+2, 2.4571404e+2, -547573.56, -656073.9, 1382.0939, -0.018736491, -0.0083561605, -547555.94, -15564.713, 0.0, 5.0136094, 4.943796 
3.7354213e+2, 2.5065795e+2, -498878.78, -607018.75, 1199.4895, -0.020867473, -0.011224551, -498865.47, -15318.117, 0.0, 5.0133424, 4.943786 
3.73543e+2, 2.556019e+2, -450428.47, -558526.44, 1018.221, -0.023011599, -0.013617706, -450418.88, -15315.764, 0.0, 5.0130725, 4.9435782 
3.7354386e+2, 2.6054272e+2, -409634.34, -527373.9, 1090.9833, -0.026044223, -0.0026446963, -409624.25, -22936.154, 0.0, 5.0128083, 4.937198 
3.7354377e+2, 2.6548374e+2, -357282.5, -469382.84, 2056.4902, -0.04258563, -0.0030263485, -357244.78, -18978.814, 0.0, 5.0123887, 4.940183 
3.7354326e+2, 2.7042526e+2, -308632.25, -419868.56, 3162.4888, -0.061920524, -0.0072338134, -308542.4, -18704.148, 0.0, 5.011933, 4.9403486 
3.7354252e+2, 2.7536672e+2, -259996.84, -370522.5, 4355.141, -0.08204568, -0.014957193, -259825.5, -18414.436, 0.0, 5.011467, 4.9404674 
3.7354445e+2, 2.8030443e+2, -234729.38, -378700.16, 4239.0215, -0.072944954, 0.04538906, -234604.67, -41581.047, 0.0, 5.011939, 4.9202046 
3.735446e+2, 2.8523147e+2, -180614.08, -317907.66, 157.65082, -0.05989787, 0.08639971, -180613.89, -35860.13, 0.0, 5.0122128, 4.923866 
3.7354195e+2, 2.9015535e+2, -132207.31, -268465.56, -917.9907, -0.06660913, 0.075755015, -132201.13, -35684.83, 0.0, 5.01175, 4.9239345 
3.7353903e+2, 2.9507893e+2, -83752.07, -219058.0, -1851.9521, -0.073212855, 0.059776276, -83726.73, -35444.527, 0.0, 5.01126, 4.9240036 
3.7353575e+2, 3.0001983e+2, -15410.306, -89841.33, -2916.5757, -0.072589874, 0.057048734, -15296.195, -15296.195, 0.0, 5.0107617, 4.9618216 
3.7352774e+2, 3.0499032e+2, -4218.896, -58670.918, -794.27515, -0.082916945, 0.020180471, -4207.313, -4207.313, 0.0, 5.00992, 4.9729004 
3.7351772e+2, 3.0996478e+2, -5875.6475, -57433.977, 1814.6982, -0.103907116, -0.019664004, -5811.8545, -5811.8545, 0.0, 5.0089517, 4.9736633 
3.7350693e+2, 3.149412e+2, -7393.295, -56337.05, 4365.85, -0.12733978, -0.04814029, -7006.9053, -7006.9053, 0.0, 5.007948, 4.9744277 
3.7855476e+2, 1.2152461e+2, -1712830.9, -1749323.1, -1071.6622, -0.0045404593, -0.019369863, -1712799.4, 36256.58, 0.0, 5.013748, 4.989971 
3.7855428e+2, 1.2651536e+2, -1669384.4, -1711549.3, -965.9349, -0.001678332, 0.02287718, -1669362.3, 30784.0, 0.0, 5.0137367, 4.986298 
3.785537e+2, 1.3149992e+2, -1620483.3, -1662600.3, -909.90485, -0.00047866476, 0.0046434114, -1620463.6, 30833.668, 0.0, 5.0137043, 4.986297 
3.7855306e+2, 1.3648444e+2, -1573795.1, -1618169.3, -848.286, 0.0007053753, -0.012366534, -1573778.9, 28669.742, 0.0, 5.0136666, 4.984802 
3.785526e+2, 1.4146672e+2, -1531942.6, -1583813.4, -540.7857, 0.0017554977, -0.008652288, -1531937.0, 21685.47, 0.0, 5.013647, 4.979882 
3.7855232e+2, 1.4644721e+2, -1482698.4, -1534446.3, -407.39893, 0.0020733261, -0.0061511104, -1482695.1, 22119.748, 0.0, 5.013662, 4.979974 
3.7855202e+2, 1.5142766e+2, -1433594.9, -1485363.4, -346.16672, 0.0023632424, -0.0039655054, -1433592.6, 22414.947, 0.0, 5.013675, 4.979974 
3.7855175e+2, 1.5640812e+2, -1385920.5, -1439249.0, -284.0903, 0.0026483922, -0.0013333902, -1385919.0, 21281.307, 0.0, 5.013687, 4.978983 
3.785516e+2, 1.6138461e+2, -1345225.6, -1407663.1, -7.967614, 0.0029498858, 0.005203523, -1345225.6, 13205.661, 0.0, 5.013682, 4.9731383 
3.7855172e+2, 1.6635771e+2, -1296181.6, -1358501.8, 100.19721, 0.0032688705, 0.0020178556, -1296181.4, 13513.382, 0.0, 5.013638, 4.9731693 
3.7855187e+2, 1.7133081e+2, -1247191.1, -1309439.1, 132.05374, 0.0035731927, -0.0012291529, -1247190.9, 13767.389, 0.0, 5.0135903, 4.9731693 
3.78552e+2, 1.7630391e+2, -1199343.9, -1262783.5, 164.0787, 0.0038658397, -0.0040831864, -1199343.4, 12878.294, 0.0, 5.0135403, 4.9723616 
3.7855214e+2, 1.8127355e+2, -1159098.1, -1232316.3, 433.41782, 0.0028874965, 0.002063301, -1159095.6, 4423.548, 0.0, 5.0134993, 4.9660773 
3.7855223e+2, 1.8624002e+2, -1109718.6, -1182674.6, 571.8808, -0.0011895873, 0.0021691942, -1109714.1, 5133.313, 0.0, 5.013487, 4.9662304 
3.7855232e+2, 1.9120651e+2, -1060559.9, -1133491.6, 624.30396, -0.0054134135, 0.0020902054, -1060554.5, 5621.2256, 0.0, 5.013472, 4.9662313 
3.785524e+2, 1.9617301e+2, -1012307.2, -1086231.8, 676.0767, -0.0096500935, 0.0023266983, -1012301.0, 5202.925, 0.0, 5.0134525, 4.9655814 
3.785526e+2, 2.0113565e+2, -972261.0, -1056956.8, 707.7588, -0.013019291, 0.007841652, -972255.06, -3385.5537, 0.0, 5.013492, 4.9587665 
3.7855297e+2, 2.0609406e+2, -922247.9, -1007017.25, 743.17267, -0.013838856, 0.00012458053, -922241.4, -1965.7377, 0.0, 5.013684, 4.9589024 
3.7855342e+2, 2.1105243e+2, -872423.6, -957486.56, 782.9384, -0.014528808, -0.008118768, -872416.4, -734.4132, 0.0, 5.013876, 4.9589024 
3.7855384e+2, 2.1601081e+2, -823289.2, -909424.1, 823.34985, -0.0152496025, -0.01621878, -823281.3, -192.95973, 0.0, 5.0140615, 4.958403 
3.7855422e+2, 2.2096592e+2, -782758.7, -879864.5, 614.2526, -0.015255968, -0.013812268, -782754.8, -8228.688, 0.0, 5.014176, 4.951567 
3.7855446e+2, 2.2591798e+2, -733182.2, -829579.1, 477.73752, -0.013203334, -0.015486523, -733179.8, -7187.735, 0.0, 5.0140915, 4.951924 
3.785547e+2, 2.3087007e+2, -684145.4, -780369.2, 476.51822, -0.011037998, -0.017355457, -684143.06, -6685.3223, 0.0, 5.013983, 4.9519277 
3.7855488e+2, 2.3582214e+2, -635792.25, -732620.1, 470.94843, -0.008892893, -0.01926379, -635789.94, -6866.582, 0.0, 5.0138617, 4.95143 
3.7855506e+2, 2.4077055e+2, -597397.3, -706636.5, 812.07947, -0.008535925, -0.009417203, -597391.3, -16963.758, 0.0, 5.013665, 4.9433913 
3.7855524e+2, 2.4571458e+2, -548516.5, -656939.6, 926.6407, -0.0146462675, -0.009046753, -548508.56, -16525.203, 0.0, 5.013368, 4.943601 
3.7855542e+2, 2.5065845e+2, -499926.4, -607920.4, 774.0082, -0.021369636, -0.010430142, -499920.84, -16379.586, 0.0, 5.0130625, 4.943594 
3.7855557e+2, 2.5560236e+2, -451618.2, -559480.0, 625.4616, -0.028123707, -0.011424613, -451614.56, -16515.742, 0.0, 5.01274, 4.9433885 
3.7855566e+2, 2.6054293e+2, -410474.53, -526906.3, 591.83716, -0.035604574, -0.0022154741, -410471.5, -23785.318, 0.0, 5.0123563, 4.93754 
3.7855476e+2, 2.6548374e+2, -358720.53, -467994.16, 780.63617, -0.05764565, -0.015017889, -358714.94, -20453.871, 0.0, 5.011499, 4.9410086 
3.7855342e+2, 2.7042514e+2, -311840.75, -419297.72, 803.01056, -0.08281095, -0.031705596, -311834.75, -22005.951, 0.0, 5.010427, 4.9411564 
3.7855175e+2, 2.7536651e+2, -265399.63, -370936.16, 640.9676, -0.10887292, -0.051087048, -265395.72, -23999.059, 0.0, 5.009192, 4.9412565 
3.7855375e+2, 2.8030524e+2, -244906.16, -388420.97, -167.14548, -0.10000156, 0.02419068, -244905.97, -51910.26, 0.0, 5.0092626, 4.9179626 
3.7855494e+2, 2.8523278e+2, -186410.17, -322522.88, -3908.4805, -0.07714926, 0.08256676, -186298.03, -41571.484, 0.0, 5.0104156, 4.9229856 
3.7855285e+2, 2.9015633e+2, -136042.14, -272168.38, -3942.8843, -0.07541193, 0.072190955, -135928.03, -39428.6, 0.0, 5.01066, 4.923067 
3.7855056e+2, 2.9507965e+2, -86187.04, -222087.83, -4096.385, -0.07383004, 0.057319112, -86063.68, -37788.688, 0.0, 5.0106835, 4.923149 
3.7854806e+2, 3.0001953e+2, -16617.963, -91606.1, -4777.4287, -0.06291817, 0.051728353, -16314.822, -16314.822, 0.0, 5.010516, 4.961267 
3.7854096e+2, 3.049896e+2, -2652.777, -54075.72, -4007.2969, -0.05587274, -0.013191995, -2342.3694, -2342.3694, 0.0, 5.0096865, 4.97448 
3.7853184e+2, 3.09964e+2, -5451.006, -53831.773, -2845.0146, -0.060066517, -0.08708962, -5284.2803, -5284.2803, 0.0, 5.0083904, 4.975039 
3.7852183e+2, 3.1493998e+2, -8997.433, -54047.418, -1594.0255, -0.067785524, -0.15043731, -8941.101, -8941.101, 0.0, 5.0067496, 4.975598 
3.8356832e+2, 1.21524245e+2, -1713034.4, -1749432.8, -1081.704, -0.005497361, -0.017027292, -1713002.3, 36058.18, 0.0, 5.0136824, 4.9899673 
3.835681e+2, 1.2651458e+2, -1669401.0, -1711395.0, -986.53723, -0.00024418166, 0.020544356, -1669377.8, 30776.787, 0.0, 5.0136957, 4.9863687 
3.8356742e+2, 1.314994e+2, -1620376.4, -1662383.6, -931.3556, 0.00013760578, 0.0041128513, -1620355.8, 30947.48, 0.0, 5.0137053, 4.986368 
3.835667e+2, 1.3648418e+2, -1573546.4, -1617878.5, -870.9115, 0.0005526255, -0.011089058, -1573529.3, 28922.746, 0.0, 5.013714, 4.9848742 
3.835662e+2, 1.4146662e+2, -1531576.3, -1583458.5, -545.01245, 0.0012386151, -0.006504271, -1531570.5, 22053.594, 0.0, 5.013733, 4.979957 
3.8356596e+2, 1.4644706e+2, -1482309.3, -1534094.0, -419.52606, 0.0018272134, -0.004966793, -1482305.9, 22510.646, 0.0, 5.013758, 4.980044 
3.8356572e+2, 1.514275e+2, -1433174.0, -1484998.4, -370.44196, 0.0024128605, -0.0037763773, -1433171.4, 22837.781, 0.0, 5.0137835, 4.9800434 
3.8356552e+2, 1.5640791e+2, -1385462.0, -1438867.4, -319.45892, 0.0030066976, -0.002126685, -1385460.0, 21741.824, 0.0, 5.0138083, 4.9790525 
3.835654e+2, 1.6138443e+2, -1344754.5, -1407339.1, -79.58807, 0.0035995576, 0.0039059739, -1344754.4, 13678.191, 0.0, 5.0138206, 4.9731803 
3.8356552e+2, 1.6635762e+2, -1295656.0, -1358177.1, 8.046833, 0.004167583, 0.00128872, -1295656.0, 14039.515, 0.0, 5.013801, 4.9732003 
3.8356566e+2, 1.7133081e+2, -1246588.1, -1309077.4, 26.679333, 0.0047488506, -0.0013479885, -1246588.1, 14370.052, 0.0, 5.0137806, 4.9732003 
3.8356578e+2, 1.76304e+2, -1198656.9, -1262381.9, 45.310066, 0.0053482573, -0.0035925275, -1198656.9, 13564.082, 0.0, 5.013759, 4.972393 
3.8356587e+2, 1.8127368e+2, -1158329.5, -1231800.1, 307.71014, 0.0045279735, 0.0026538698, -1158328.3, 5189.6235, 0.0, 5.0137305, 4.966142 
3.8356593e+2, 1.8624014e+2, -1109060.8, -1182206.1, 447.3697, 0.00018446398, 0.0018128892, -1109058.0, 5787.9053, 0.0, 5.01368, 4.966298 
3.8356596e+2, 1.912066e+2, -1060013.1, -1133079.9, 500.93173, -0.0042832023, 0.00076152914, -1060009.6, 6164.366, 0.0, 5.0136275, 4.9662986 
3.8356602e+2, 1.9617307e+2, -1011857.0, -1085869.6, 554.6599, -0.0087199, 0.000028273205, -1011852.9, 5649.1973, 0.0, 5.013575, 4.9656477 
3.8356617e+2, 2.0113572e+2, -972072.4, -1056758.9, 654.04236, -0.011995323, 0.0051001245, -972067.3, -3200.068, 0.0, 5.013532, 4.9588156 
3.835667e+2, 2.0609426e+2, -922701.5, -1007143.94, 700.04205, -0.012078376, -0.0016187653, -922695.7, -2423.5422, 0.0, 5.013506, 4.958942 
3.835673e+2, 2.1105278e+2, -873502.44, -957903.6, 726.4941, -0.011935281, -0.008778351, -873496.2, -1818.9282, 0.0, 5.0134797, 4.958943 
3.8356787e+2, 2.160113e+2, -824969.8, -910118.75, 752.9178, -0.011751583, -0.015793778, -824963.1, -1880.7977, 0.0, 5.013453, 4.958444 
3.8356835e+2, 2.2096649e+2, -784855.06, -880876.75, 487.13574, -0.011055007, -0.012950637, -784852.56, -10333.0, 0.0, 5.013446, 4.951555 
3.835686e+2, 2.259184e+2, -734923.94, -830525.0, 275.83, -0.009011439, -0.015612599, -734923.1, -8936.0625, 0.0, 5.013501, 4.9518685 
3.8356882e+2, 2.3087032e+2, -685399.8, -781098.25, 210.19464, -0.0068247826, -0.018492535, -685399.3, -7945.0703, 0.0, 5.0135617, 4.951869 
3.83569e+2, 2.3582223e+2, -636528.4, -733120.56, 146.78922, -0.0045790453, -0.021399405, -636528.1, -7606.5713, 0.0, 5.0136213, 4.9513674 
3.835691e+2, 2.4077055e+2, -597656.94, -706888.8, 334.74435, -0.0043109986, -0.011994336, -597655.94, -17229.271, 0.0, 5.013573, 4.943354 
3.8356888e+2, 2.4571465e+2, -548942.94, -657229.4, 545.7992, -0.011022408, -0.010589673, -548940.2, -16959.012, 0.0, 5.0132003, 4.943587 
3.8356864e+2, 2.506586e+2, -500596.47, -608306.56, 581.2459, -0.018188443, -0.010934852, -500593.34, -17055.664, 0.0, 5.0128007, 4.943584 
3.8356835e+2, 2.556026e+2, -452492.5, -559944.25, 615.8942, -0.025210094, -0.010978821, -452488.97, -17395.092, 0.0, 5.0123973, 4.943383 
3.8356805e+2, 2.605431e+2, -411469.06, -527575.25, 649.24396, -0.03268547, -0.0023139943, -411465.4, -24784.559, 0.0, 5.011971, 4.937491 
3.8356662e+2, 2.6548317e+2, -359703.38, -469347.53, 540.601, -0.05305327, -0.02035434, -359700.72, -21441.113, 0.0, 5.011163, 4.940729 
3.8356474e+2, 2.704236e+2, -312337.9, -420934.8, 548.92175, -0.07554497, -0.042786423, -312335.13, -22501.61, 0.0, 5.0102744, 4.94072 
3.835626e+2, 2.753638e+2, -264991.9, -372663.44, 648.75165, -0.09808466, -0.06809814, -264988.0, -23578.396, 0.0, 5.009368, 4.9406633 
3.8356417e+2, 2.8030157e+2, -244633.86, -389396.9, 2235.688, -0.090462916, 0.0057514417, -244599.34, -51584.31, 0.0, 5.009394, 4.9174275 
3.8356584e+2, 2.8522968e+2, -187352.28, -322572.56, -1697.6044, -0.0676748, 0.06913703, -187330.98, -42588.055, 0.0, 5.0099335, 4.9229174 
3.835646e+2, 2.9015377e+2, -137763.78, -273126.78, -2688.4138, -0.060749177, 0.06336534, -137710.4, -41197.38, 0.0, 5.009946, 4.922852 
3.8356307e+2, 2.9507762e+2, -88145.08, -223711.06, -3576.7034, -0.052899074, 0.0545504, -88050.78, -39764.895, 0.0, 5.009924, 4.9227867 
3.8356146e+2, 3.0001742e+2, -18043.059, -94445.31, -4774.926, -0.03550263, 0.051621836, -17745.797, -17745.797, 0.0, 5.0101185, 4.960378 
3.835556e+2, 3.049854e+2, -471.51382, -56158.016, -5886.676, -0.018625977, -0.027595026, 143.96977, 143.96977, 0.0, 5.010625, 4.973264 
3.8354778e+2, 3.099568e+2, 1375.6415, -54156.613, -6590.7876, -0.010313708, -0.1257242, 2147.1438, 2147.1438, 0.0, 5.010992, 4.9737024 
3.8353917e+2, 3.1492874e+2, 3282.6287, -52214.926, -7157.6416, -0.0040136124, -0.2239385, 4190.9004, 4190.9004, 0.0, 5.0113163, 4.9741406 
3.8858196e+2, 1.2152378e+2, -1713046.3, -1749454.1, -1110.5814, -0.0061961617, -0.01576233, -1713012.4, 36053.297, 0.0, 5.013682, 4.9899607 
3.8858202e+2, 1.2651373e+2, -1669295.3, -1711175.8, -981.187, 0.0020587777, 0.017354388, -1669272.3, 30891.39, 0.0, 5.0136952, 4.986441 
3.8858122e+2, 1.3149886e+2, -1620270.5, -1662166.1, -924.2169, 0.0011557676, 0.003336914, -1620250.1, 31059.13, 0.0, 5.013705, 4.98644 
3.885804e+2, 1.3648395e+2, -1573437.9, -1617657.8, -861.02765, 0.00026619644, -0.009455024, -1573421.1, 29033.965, 0.0, 5.0137143, 4.9849477 
3.8857985e+2, 1.4146659e+2, -1531473.0, -1583246.6, -527.88715, 0.0002147929, -0.0036457425, -1531467.6, 22157.584, 0.0, 5.013733, 4.980027 
3.8857964e+2, 1.4644699e+2, -1482215.8, -1533900.5, -400.81528, 0.0011356673, -0.003231141, -1482212.6, 22605.098, 0.0, 5.013758, 4.9801083 
3.885795e+2, 1.5142737e+2, -1433081.3, -1484805.6, -350.90012, 0.002073295, -0.0032246986, -1433078.9, 22931.717, 0.0, 5.0137835, 4.980108 
3.8857934e+2, 1.5640773e+2, -1385368.9, -1438672.8, -298.74432, 0.0030125983, -0.002759187, -1385367.3, 21836.396, 0.0, 5.0138083, 4.9791174 
3.8857925e+2, 1.6138422e+2, -1344701.3, -1407227.0, -87.857315, 0.003866608, 0.0026371693, -1344701.1, 13733.186, 0.0, 5.0138206, 4.973218 
3.8857937e+2, 1.663575e+2, -1295621.0, -1358103.4, -8.362494, 0.004536941, 0.00065690844, -1295621.0, 14075.476, 0.0, 5.013801, 4.973225 
3.885795e+2, 1.713308e+2, -1246553.5, -1309004.0, 11.209526, 0.0052053444, -0.0012916366, -1246553.5, 14404.962, 0.0, 5.01378, 4.973225 
3.885796e+2, 1.7630407e+2, -1198622.5, -1262308.5, 30.78421, 0.0058799013, -0.0028485667, -1198622.5, 13598.004, 0.0, 5.013759, 4.9724183 
3.8857967e+2, 1.812738e+2, -1158239.3, -1231606.4, 273.74905, 0.0052208784, 0.0034121666, -1158238.3, 5278.668, 0.0, 5.0137305, 4.9662075 
3.8857973e+2, 1.8624021e+2, -1108965.5, -1182000.3, 408.12463, 0.0012191788, 0.0012710663, -1108963.3, 5881.7783, 0.0, 5.013679, 4.966368 
3.8857976e+2, 1.9120659e+2, -1059919.0, -1132874.8, 463.21643, -0.002917882, -0.0011067968, -1059916.0, 6257.094, 0.0, 5.013627, 4.966368 
3.8857976e+2, 1.96173e+2, -1011764.0, -1085665.1, 518.4803, -0.007041346, -0.0031654963, -1011760.3, 5740.8154, 0.0, 5.013574, 4.965718 
3.8857993e+2, 2.0113567e+2, -972007.94, -1056613.5, 629.7837, -0.009749456, 0.0014009023, -972003.25, -3137.387, 0.0, 5.013531, 4.9588656 
3.8858056e+2, 2.060944e+2, -922655.2, -1007038.75, 679.6838, -0.008732323, -0.0036943613, -922649.7, -2380.567, 0.0, 5.013505, 4.9589787 
3.8858122e+2, 2.1105313e+2, -873455.8, -957798.44, 708.34625, -0.0074996958, -0.00912221, -873449.8, -1777.2509, 0.0, 5.013479, 4.9589796 
3.8858187e+2, 2.1601187e+2, -824922.8, -910013.6, 736.9829, -0.006250636, -0.014410216, -824916.44, -1840.404, 0.0, 5.0134525, 4.958481 
3.8858244e+2, 2.2096713e+2, -784907.7, -880978.94, 511.41632, -0.0050990167, -0.010778145, -784904.94, -10392.237, 0.0, 5.0134435, 4.9515204 
3.885826e+2, 2.2591884e+2, -735038.94, -830751.44, 331.49548, -0.0043170042, -0.01477271, -735037.8, -9055.285, 0.0, 5.0134974, 4.9517922 
3.8858274e+2, 2.3087054e+2, -685517.44, -781320.56, 270.32968, -0.0035481676, -0.019038873, -685516.7, -8064.5005, 0.0, 5.0135565, 4.951794 
3.8858286e+2, 2.3582225e+2, -636648.6, -733338.7, 211.38979, -0.002770626, -0.023321148, -636648.2, -7726.2686, 0.0, 5.0136147, 4.951294 
3.8858283e+2, 2.4077043e+2, -597642.6, -706739.56, 154.35596, -0.0035138568, -0.014982218, -597642.4, -17214.16, 0.0, 5.013556, 4.943411 
3.8858232e+2, 2.4571468e+2, -548885.1, -656959.7, 235.90323, -0.00936685, -0.012869808, -548884.6, -16904.709, 0.0, 5.0131793, 4.943687 
3.8858175e+2, 2.5065884e+2, -500536.03, -608036.75, 277.81522, -0.015546444, -0.012250495, -500535.3, -17002.246, 0.0, 5.0127807, 4.9436836 
3.8858122e+2, 2.5560302e+2, -452429.47, -559674.25, 318.9438, -0.021638107, -0.011317869, -452428.53, -17342.553, 0.0, 5.012378, 4.9434824 
3.8858053e+2, 2.6054364e+2, -411494.06, -527343.25, 342.67157, -0.028530836, -0.002923732, -411493.06, -24822.613, 0.0, 5.011928, 4.9375873 
3.885785e+2, 2.6548326e+2, -360057.5, -469378.34, 278.1564, -0.04919738, -0.025169935, -360056.78, -21805.531, 0.0, 5.0110536, 4.940757 
3.8857597e+2, 2.7042323e+2, -312832.7, -420828.2, 365.35382, -0.073037356, -0.051587664, -312831.47, -23004.621, 0.0, 5.010104, 4.9408073 
3.885731e+2, 2.7536312e+2, -265627.5, -372419.34, 544.1269, -0.097956575, -0.08032899, -265624.72, -24221.281, 0.0, 5.009137, 4.94081 
3.88574e+2, 2.8030053e+2, -244499.83, -389022.84, 2803.5757, -0.09866798, -0.012795361, -244445.45, -51434.73, 0.0, 5.009384, 4.9175973 
3.885764e+2, 2.8522828e+2, -187565.56, -324419.34, -1555.5332, -0.07004452, 0.051808376, -187547.88, -42805.316, 0.0, 5.0101123, 4.922305 
3.8857618e+2, 2.901522e+2, -138014.61, -274754.94, -2430.3635, -0.050571922, 0.051387165, -137971.44, -41456.113, 0.0, 5.0100975, 4.9223022 
3.885757e+2, 2.9507583e+2, -88434.15, -225121.44, -3202.6287, -0.031204356, 0.04754042, -88359.15, -40068.547, 0.0, 5.010049, 4.9223 
3.8857514e+2, 3.0001527e+2, -18485.34, -95559.93, -4033.0828, -0.0052944073, 0.045902174, -18274.875, -18274.875, 0.0, 5.010175, 4.9599876 
3.8857043e+2, 3.0498153e+2, -2003.9895, -58627.434, -4838.7515, 0.015029479, -0.038977362, -1593.4706, -1593.4706, 0.0, 5.0105143, 4.972476 
3.885637e+2, 3.0995148e+2, -666.9031, -56794.477, -5311.6333, 0.024368405, -0.13754685, -168.65948, -168.65948, 0.0, 5.010726, 4.9729266 
3.885561e+2, 3.149223e+2, 730.45856, -55021.234, -5647.124, 0.028889969, -0.23216729, 1296.7081, 1296.7081, 0.0, 5.010895, 4.9733777 
3.9359555e+2, 1.215232e+2, -1712941.1, -1749236.4, -1141.9973, -0.0071085948, -0.015501598, -1712905.1, 36166.984, 0.0, 5.0136814, 4.990032 
3.9359596e+2, 1.265129e+2, -1669190.0, -1710956.1, -975.17505, 0.0043583517, 0.014235694, -1669167.3, 31005.465, 0.0, 5.013695, 4.986513 
3.9359504e+2, 1.3149832e+2, -1620165.1, -1661948.4, -916.41656, 0.0021770485, 0.0026037064, -1620145.0, 31170.26, 0.0, 5.013705, 4.986512 
3.935941e+2, 1.3648371e+2, -1573329.8, -1617436.5, -850.4781, -0.000010608891, -0.007806806, -1573313.4, 29144.68, 0.0, 5.0137143, 4.9850206 
3.9359343e+2, 1.4146656e+2, -1531376.5, -1583048.3, -511.07123, -0.00080769893, -0.0007581713, -1531371.5, 22254.781, 0.0, 5.013733, 4.9800925 
3.9359334e+2, 1.4644691e+2, -1482122.5, -1533707.0, -382.16104, 0.00044347864, -0.0014730097, -1482119.6, 22699.352, 0.0, 5.013758, 4.9801726 
3.9359325e+2, 1.5142722e+2, -1432988.8, -1484612.8, -331.41486, 0.0017341978, -0.0026674788, -1432986.6, 23025.463, 0.0, 5.013783, 4.980172 
3.9359313e+2, 1.5640754e+2, -1385276.0, -1438478.0, -278.085, 0.0030200784, -0.0034030862, -1385274.5, 21930.793, 0.0, 5.0138083, 4.9791822 
3.935931e+2, 1.6138403e+2, -1344652.4, -1407124.0, -96.056335, 0.0041342657, 0.0013866547, -1344652.3, 13783.676, 0.0, 5.0138206, 4.9732523 
3.935932e+2, 1.663574e+2, -1295586.3, -1358029.4, -24.78681, 0.004907541, 0.00004239109, -1295586.3, 14111.163, 0.0, 5.013801, 4.97325 
3.935933e+2, 1.7133078e+2, -1246519.1, -1308930.4, -4.275291, 0.005664208, -0.0012325252, -1246519.1, 14439.604, 0.0, 5.01378, 4.9732504 
3.935934e+2, 1.7630415e+2, -1198588.3, -1262235.0, 16.243362, 0.0064150435, -0.002116381, -1198588.3, 13631.664, 0.0, 5.013759, 4.972443 
3.9359352e+2, 1.8127392e+2, -1158154.9, -1231424.5, 239.5642, 0.005915811, 0.004198466, -1158154.0, 5361.881, 0.0, 5.01373, 4.9662685 
3.9359352e+2, 1.8624027e+2, -1108870.6, -1181794.1, 368.82394, 0.0022569445, 0.0007515603, -1108868.8, 5975.2656, 0.0, 5.0136786, 4.966438 
3.9359352e+2, 1.9120659e+2, -1059825.3, -1132669.3, 425.44547, -0.001547737, -0.002978384, -1059822.8, 6349.4443, 0.0, 5.013626, 4.9664383 
3.9359352e+2, 1.9617292e+2, -1011671.3, -1085460.5, 482.24487, -0.0053561926, -0.0063881055, -1011668.2, 5832.0625, 0.0, 5.013573, 4.965788 
3.935937e+2, 2.0113562e+2, -971953.94, -1056489.9, 605.29395, -0.0075017507, -0.0022482562, -971949.6, -3085.2212, 0.0, 5.0135303, 4.958908 
3.935944e+2, 2.0609456e+2, -922609.44, -1006933.1, 659.28217, -0.0053876564, -0.005715274, -922604.25, -2338.191, 0.0, 5.013504, 4.959015 
3.9359516e+2, 2.1105349e+2, -873409.7, -957692.9, 690.1551, -0.0030667612, -0.009449241, -873404.06, -1736.1589, 0.0, 5.0134783, 4.959016 
3.9359587e+2, 2.1601243e+2, -824876.4, -909908.06, 721.00464, -0.00075360434, -0.013047682, -824870.25, -1800.5814, 0.0, 5.013452, 4.958517 
3.935965e+2, 2.2096778e+2, -784974.75, -881110.4, 533.051, 0.00086424785, -0.008558794, -784971.75, -10465.947, 0.0, 5.0134416, 4.951475 
3.935966e+2, 2.2591929e+2, -735155.44, -830976.75, 385.08063, 0.00037347153, -0.013903739, -735153.9, -9175.895, 0.0, 5.0134935, 4.951715 
3.9359662e+2, 2.3087077e+2, -685636.5, -781541.7, 328.38474, -0.0002929378, -0.019628933, -685635.4, -8185.273, 0.0, 5.0135508, 4.9517183 
3.9359668e+2, 2.3582226e+2, -636770.3, -733555.6, 273.91064, -0.0010010182, -0.02535942, -636769.5, -7847.2637, 0.0, 5.0136075, 4.9512196 
3.9359653e+2, 2.4077031e+2, -597658.6, -706646.25, -39.29866, -0.00271897, -0.017814951, -597658.6, -17228.951, 0.0, 5.013539, 4.943446 
3.9359573e+2, 2.4571474e+2, -548833.6, -656683.9, -74.39418, -0.0076862867, -0.014897411, -548833.56, -16855.193, 0.0, 5.0131583, 4.943786 
3.935949e+2, 2.5065908e+2, -500481.94, -607760.75, -26.017271, -0.01287557, -0.013403678, -500481.9, -16953.633, 0.0, 5.0127606, 4.9437823 
3.9359403e+2, 2.5560346e+2, -452372.78, -559398.06, 21.591232, -0.018033376, -0.011584524, -452372.75, -17294.846, 0.0, 5.012359, 4.9435806 
3.93593e+2, 2.605441e+2, -411595.9, -527230.56, -26.704716, -0.024054706, -0.0037338024, -411595.9, -24935.479, 0.0, 5.011885, 4.937631 
3.9359027e+2, 2.654832e+2, -360439.8, -469383.34, -73.77489, -0.045407087, -0.031143164, -360439.75, -22195.943, 0.0, 5.010944, 4.9407697 
3.9358693e+2, 2.7042276e+2, -313355.56, -420695.56, 92.225, -0.07120192, -0.06255721, -313355.5, -23534.135, 0.0, 5.009934, 4.94088 
3.9358324e+2, 2.7536234e+2, -266291.06, -372149.0, 349.86655, -0.099107325, -0.09573879, -266289.9, -24891.117, 0.0, 5.008907, 4.940943 
3.935838e+2, 2.8029954e+2, -244970.02, -390014.4, 3637.7668, -0.106185846, -0.03031313, -244878.83, -51872.832, 0.0, 5.0093746, 4.9172826 
3.935872e+2, 2.85227e+2, -187832.1, -326215.3, -1537.5758, -0.070623726, 0.03766115, -187815.02, -43074.188, 0.0, 5.010291, 4.921674 
3.9358798e+2, 2.901506e+2, -138318.53, -276332.06, -2296.371, -0.039471272, 0.040503748, -138280.34, -41763.15, 0.0, 5.0102496, 4.921734 
3.9358854e+2, 2.9507402e+2, -88776.12, -226480.5, -2952.565, -0.009453428, 0.039538626, -88712.836, -40416.977, 0.0, 5.0101743, 4.9217944 
3.93589e+2, 3.0001298e+2, -19375.494, -97540.93, -3371.7097, 0.025587864, 0.039815467, -19230.324, -19230.324, 0.0, 5.010232, 4.9592533 
3.9358538e+2, 3.0497754e+2, -3602.5508, -61032.64, -3825.7332, 0.051308926, -0.051718477, -3348.8188, -3348.8188, 0.0, 5.0104036, 4.9716496 
3.935796e+2, 3.099458e+2, -2775.89, -59368.258, -4067.0996, 0.06286442, -0.1553378, -2485.0955, -2485.0955, 0.0, 5.01046, 4.9721127 
3.9357278e+2, 3.1491536e+2, -1888.6027, -57763.6, -4170.9023, 0.06679705, -0.25097457, -1578.9731, -1578.9731, 0.0, 5.010473, 4.972576 
3.9860913e+2, 1.2152254e+2, -1713264.4, -1749063.6, -1090.0762, -0.008155149, -0.01610315, -1713231.3, 35848.168, 0.0, 5.0135036, 4.990176 
3.986099e+2, 1.2651207e+2, -1669479.3, -1710939.9, -900.6903, 0.0066505773, 0.011253766, -1669459.8, 30721.807, 0.0, 5.013565, 4.9865823 
3.9860883e+2, 1.314978e+2, -1620302.1, -1661856.5, -860.98676, 0.003208729, 0.00193681, -1620284.3, 31036.877, 0.0, 5.013625, 4.986581 
3.986078e+2, 1.364835e+2, -1573331.5, -1617273.8, -810.40924, -0.00024007488, -0.006161189, -1573316.5, 29144.469, 0.0, 5.013679, 4.985091 
3.9860708e+2, 1.4146653e+2, -1531324.1, -1582883.3, -480.04428, -0.001766358, 0.002119845, -1531319.6, 22307.65, 0.0, 5.013721, 4.9801526 
3.9860702e+2, 1.4644684e+2, -1482095.5, -1533547.6, -357.46442, -0.00020313675, 0.00028859032, -1482093.0, 22727.172, 0.0, 5.0137367, 4.9802356 
3.98607e+2, 1.5142709e+2, -1432998.6, -1484471.3, -313.51755, 0.0014292552, -0.0021047613, -1432996.8, 23016.842, 0.0, 5.013749, 4.980235 
3.9860696e+2, 1.5640734e+2, -1385326.0, -1438354.0, -266.30725, 0.0030554764, -0.0040420284, -1385324.6, 21882.475, 0.0, 5.01376, 4.9792466 
3.9860696e+2, 1.6138385e+2, -1344754.3, -1407100.1, -113.741615, 0.004416613, 0.00017274023, -1344754.0, 13683.551, 0.0, 5.013771, 4.973284 
3.9860705e+2, 1.663573e+2, -1295621.0, -1357988.6, -51.026886, 0.005266766, -0.0005483369, -1295620.9, 14077.398, 0.0, 5.0137777, 4.9732747 
3.9860713e+2, 1.7133076e+2, -1246483.9, -1308856.0, -31.063002, 0.006096102, -0.0011747689, -1246483.9, 14474.997, 0.0, 5.0137806, 4.9732747 
3.9860722e+2, 1.7630424e+2, -1198493.1, -1262131.9, -11.257539, 0.006918404, -0.0014101797, -1198493.1, 13726.327, 0.0, 5.01378, 4.972468 
3.986073e+2, 1.8127404e+2, -1157989.4, -1231216.1, 185.26889, 0.0065862853, 0.004994972, -1157989.0, 5525.9893, 0.0, 5.01376, 4.9663243 
3.986073e+2, 1.8624033e+2, -1108729.8, -1181571.4, 291.0535, 0.0033018594, 0.0002592734, -1108728.6, 6114.499, 0.0, 5.0136952, 4.966505 
3.9860728e+2, 1.9120659e+2, -1059738.0, -1132472.5, 329.95132, -0.0001255518, -0.0048246644, -1059736.5, 6434.837, 0.0, 5.0136247, 4.966505 
3.9860728e+2, 1.9617285e+2, -1011648.1, -1085294.1, 368.49805, -0.0035623184, -0.009588867, -1011646.3, 5853.1177, 0.0, 5.0135503, 4.9658546 
3.986075e+2, 2.0113556e+2, -972022.44, -1056443.0, 490.66794, -0.0051297406, -0.0057905638, -972019.56, -3156.5222, 0.0, 5.013491, 4.958942 
3.9860827e+2, 2.060947e+2, -922655.7, -1006874.0, 535.8279, -0.0020014269, -0.007620344, -922652.25, -2389.1138, 0.0, 5.0134726, 4.959049 
3.9860907e+2, 2.1105383e+2, -873446.56, -957629.94, 553.1545, 0.0013414158, -0.009689548, -873442.94, -1779.6285, 0.0, 5.01345, 4.9590497 
3.986099e+2, 2.1601298e+2, -824920.4, -909848.6, 569.895, 0.0046721087, -0.011627051, -824916.56, -1853.0757, 0.0, 5.0134215, 4.958551 
3.9861053e+2, 2.2096843e+2, -785145.56, -881318.06, 404.15494, 0.0067562456, -0.006213, -785143.9, -10644.769, 0.0, 5.0134096, 4.951418 
3.9861056e+2, 2.2591972e+2, -735341.44, -831244.44, 272.1824, 0.0050442065, -0.012940571, -735340.7, -9367.045, 0.0, 5.013467, 4.9516335 
3.9861053e+2, 2.3087098e+2, -685832.5, -781812.06, 198.551, 0.0030283642, -0.020228457, -685832.06, -8383.721, 0.0, 5.0135207, 4.951637 
3.9861053e+2, 2.3582223e+2, -637005.0, -733841.5, 123.062256, 0.0009574422, -0.02752962, -637004.9, -8081.7754, 0.0, 5.0135636, 4.951139 
3.9861023e+2, 2.4077018e+2, -597799.7, -706679.0, -472.15005, -0.0015578154, -0.020587314, -597797.6, -17366.047, 0.0, 5.0134892, 4.943455 
3.9860916e+2, 2.4571477e+2, -548727.4, -656415.8, -644.06085, -0.005555389, -0.016679613, -548723.56, -16746.314, 0.0, 5.0131617, 4.9438744 
3.9860803e+2, 2.506593e+2, -500238.1, -607433.75, -633.478, -0.009665179, -0.014236913, -500234.34, -16710.467, 0.0, 5.012816, 4.9438696 
3.9860687e+2, 2.5560388e+2, -452016.78, -559023.44, -627.6092, -0.013762282, -0.011415723, -452013.13, -16942.918, 0.0, 5.012458, 4.943667 
3.9860559e+2, 2.605445e+2, -411490.22, -527327.8, -973.23694, -0.01836456, -0.004135552, -411482.03, -24830.719, 0.0, 5.01198, 4.9375453 
3.9860207e+2, 2.6548287e+2, -361042.34, -469913.53, -1684.4259, -0.03965779, -0.03795585, -361016.3, -22776.715, 0.0, 5.010832, 4.940607 
3.9859793e+2, 2.7042162e+2, -314982.84, -421611.25, -2233.0537, -0.06622943, -0.07664807, -314936.1, -25113.555, 0.0, 5.0094576, 4.9407377 
3.9859343e+2, 2.753604e+2, -269357.63, -373628.13, -2795.9243, -0.095365435, -0.11750493, -269282.72, -27877.254, 0.0, 5.0079184, 4.940821 
3.9859402e+2, 2.802972e+2, -250152.66, -393759.3, 1534.9259, -0.10502544, -0.053252704, -250136.25, -57121.332, 0.0, 5.0079184, 4.9165998 
3.985986e+2, 2.8522483e+2, -190721.97, -328224.53, -3687.4453, -0.06391425, 0.021527248, -190623.16, -45875.035, 0.0, 5.0095744, 4.921232 
3.9860025e+2, 2.901485e+2, -139080.75, -277382.8, -3587.418, -0.024277695, 0.028221224, -138987.77, -42463.29, 0.0, 5.0102887, 4.9212904 
3.9860165e+2, 2.950719e+2, -88066.516, -226863.06, -3604.014, 0.0139239095, 0.030725386, -87973.0, -39669.523, 0.0, 5.010746, 4.9213486 
3.9860317e+2, 3.000107e+2, -18907.363, -99450.45, -3324.8306, 0.057942074, 0.035662536, -18770.348, -18770.348, 0.0, 5.0110216, 4.958158 
3.9860067e+2, 3.049733e+2, -4406.1763, -62875.977, -3594.824, 0.09277429, -0.06596763, -4185.9893, -4185.9893, 0.0, 5.010687, 4.9707446 
3.9859578e+2, 3.0993932e+2, -6423.4717, -62018.016, -3063.7268, 0.11176247, -0.18555988, -6255.1445, -6255.1445, 0.0, 5.0096865, 4.971346 
3.9858988e+2, 3.1490684e+2, -9791.376, -61831.496, -1522.7551, 0.12227002, -0.29657346, -9746.856, -9746.856, 0.0, 5.0081315, 4.971947 
4.0362245e+2, 1.2152256e+2, -1713694.5, -1749206.6, -835.43445, -0.008816154, -0.013610639, -1713674.9, 35405.223, 0.0, 5.013344, 4.9902096 
4.0362352e+2, 1.2651174e+2, -1669604.6, -1710985.0, -477.39, 0.008066206, 0.01024721, -1669599.1, 30586.266, 0.0, 5.0135174, 4.986593 
4.0362257e+2, 1.3149759e+2, -1619999.8, -1661684.6, -486.75323, 0.0041607507, 0.0020306117, -1619994.1, 31329.82, 0.0, 5.013719, 4.9865932 
4.036216e+2, 1.3648342e+2, -1572582.6, -1616872.3, -486.72302, 0.00030115538, -0.004966279, -1572577.3, 29885.434, 0.0, 5.013921, 4.9851074 
4.03621e+2, 1.4146653e+2, -1530287.9, -1582304.4, -292.86792, -0.0014824369, 0.0038649535, -1530286.3, 23341.867, 0.0, 5.0140524, 4.9801836 
4.0362093e+2, 1.464468e+2, -1481192.6, -1533030.6, -225.14699, 0.000060990464, 0.001461326, -1481191.6, 23629.443, 0.0, 5.0140233, 4.980268 
4.0362087e+2, 1.5142703e+2, -1432239.8, -1484025.1, -212.21184, 0.001697529, -0.0015432682, -1432238.9, 23775.729, 0.0, 5.0139885, 4.980268 
4.036208e+2, 1.5640725e+2, -1384703.9, -1437972.5, -195.84192, 0.003340876, -0.004100063, -1384703.3, 22504.934, 0.0, 5.013953, 4.9792805 
4.036208e+2, 1.6138375e+2, -1344174.0, -1406755.1, -22.72157, 0.004556772, -0.00027323386, -1344174.0, 14264.545, 0.0, 5.0139537, 4.9733114 
4.036209e+2, 1.6635723e+2, -1294857.4, -1357570.5, 44.47341, 0.0049200095, -0.0007766351, -1294857.4, 14841.395, 0.0, 5.014026, 4.973296 
4.03621e+2, 1.7133075e+2, -1245512.0, -1308339.0, 58.279167, 0.005280149, -0.0011540547, -1245512.0, 15446.837, 0.0, 5.0141006, 4.973296 
4.036211e+2, 1.7630427e+2, -1197304.5, -1261512.6, 72.128685, 0.005662212, -0.0011372785, -1197304.5, 14914.442, 0.0, 5.0141754, 4.9724894 
4.036212e+2, 1.8127409e+2, -1156709.8, -1230574.8, 163.90892, 0.0054615107, 0.00518978, -1156709.4, 6804.836, 0.0, 5.0141916, 4.9663367 
4.0362123e+2, 1.8624032e+2, -1107662.4, -1181052.9, 183.67848, 0.003667043, -0.00022314822, -1107661.9, 7180.9946, 0.0, 5.014059, 4.9665093 
4.0362126e+2, 1.912065e+2, -1058873.0, -1132052.3, 164.43927, 0.0018185282, -0.0059902803, -1058872.6, 7299.0615, 0.0, 5.0139203, 4.9665093 
4.036213e+2, 1.9617271e+2, -1010973.3, -1084965.8, 145.50803, -0.000012579976, -0.011438292, -1010973.06, 6527.3394, 0.0, 5.0137806, 4.9658585 
4.036215e+2, 2.0113541e+2, -971509.2, -1056214.1, 272.56326, -0.00062615366, -0.0077010207, -971508.3, -2644.1768, 0.0, 5.0136704, 4.958936 
4.0362218e+2, 2.060947e+2, -922211.56, -1006709.25, 285.80887, 0.0017513449, -0.007873226, -922210.56, -1947.587, 0.0, 5.0136347, 4.9590306 
4.036229e+2, 2.11054e+2, -873031.5, -957480.8, 249.965, 0.004306862, -0.008179818, -873030.75, -1368.8076, 0.0, 5.0136027, 4.9590306 
4.0362364e+2, 2.160133e+2, -824517.75, -909707.44, 214.15196, 0.0069010444, -0.008349355, -824517.2, -1456.326, 0.0, 5.0135703, 4.9585314 
4.036242e+2, 2.209688e+2, -784784.94, -881312.94, 66.64245, 0.008562966, -0.002074183, -784784.9, -10288.581, 0.0, 5.013565, 4.95135 
4.0362433e+2, 2.2591983e+2, -734997.6, -831311.94, -41.914085, 0.0072776433, -0.0104363095, -734997.6, -9023.782, 0.0, 5.0136275, 4.95154 
4.0362445e+2, 2.308708e+2, -685456.4, -781874.2, -114.60086, 0.005827563, -0.019547828, -685456.25, -8004.4243, 0.0, 5.0136924, 4.951541 
4.0362453e+2, 2.3582177e+2, -636567.75, -733885.8, -185.24072, 0.00441068, -0.028724305, -636567.4, -7637.536, 0.0, 5.013757, 4.9510403 
4.0362433e+2, 2.407695e+2, -596919.7, -706188.7, -887.9014, 0.0028629964, -0.023435317, -596912.5, -16472.076, 0.0, 5.0137615, 4.9435096 
4.0362322e+2, 2.4571434e+2, -547280.44, -655611.0, -1076.3097, 0.00046584723, -0.017977316, -547269.75, -15287.396, 0.0, 5.01362, 4.9439597 
4.0362203e+2, 2.5065917e+2, -498255.0, -606401.44, -1012.2671, -0.0019443547, -0.013278935, -498245.53, -14720.96, 0.0, 5.013469, 4.9439516 
4.036208e+2, 2.5560406e+2, -449476.38, -557756.75, -950.3133, -0.0042637833, -0.008023067, -449468.03, -14401.748, 0.0, 5.013315, 4.943745 
4.0361944e+2, 2.6054484e+2, -408789.97, -527281.6, -1436.2565, -0.0065283296, 0.0012916047, -408772.56, -22127.756, 0.0, 5.013124, 4.937096 
4.0361583e+2, 2.6548198e+2, -357180.06, -470700.44, -2435.0356, -0.022536205, -0.035030358, -357127.88, -18882.264, 0.0, 5.0125847, 4.9396467 
4.0361163e+2, 2.7041897e+2, -308902.94, -421691.63, -3087.5696, -0.04241631, -0.07985018, -308818.47, -18972.533, 0.0, 5.011984, 4.93972 
4.0360713e+2, 2.7535573e+2, -260626.4, -372855.72, -3644.27, -0.06370086, -0.1299586, -260508.19, -19059.025, 0.0, 5.0113735, 4.9397464 
4.0360746e+2, 2.8029004e+2, -239269.89, -385240.22, 2154.4294, -0.069627054, -0.09071126, -239238.11, -46155.965, 0.0, 5.011233, 4.918099 
4.0361208e+2, 2.8521857e+2, -183547.69, -322208.7, -1975.8164, -0.036419656, -0.017531708, -183519.53, -38716.93, 0.0, 5.0120783, 4.922099 
4.0361413e+2, 2.90144e+2, -131734.77, -271820.3, -2074.6582, -0.0029458336, 0.0026436346, -131704.05, -35146.96, 0.0, 5.012887, 4.9219966 
4.0361592e+2, 2.9506895e+2, -79892.31, -221491.9, -2078.4463, 0.030666864, 0.017678928, -79861.81, -31545.654, 0.0, 5.0136747, 4.921894 
4.03618e+2, 3.000096e+2, -9733.562, -95346.05, -1714.096, 0.07227383, 0.03701646, -9699.257, -9699.257, 0.0, 5.0145755, 4.958052 
4.0361702e+2, 3.0497095e+2, 7019.9824, -61699.055, -3987.0276, 0.11589562, -0.056438792, 7250.533, 7250.533, 0.0, 5.015832, 4.96898 
4.0361398e+2, 3.0993468e+2, 11768.889, -56616.117, -6607.4907, 0.1503834, -0.17719515, 12401.466, 12401.466, 0.0, 5.0170765, 4.9701214 
4.0361008e+2, 3.149001e+2, 16686.58, -51706.297, -9038.129, 0.18115231, -0.29594237, 17860.81, 17860.81, 0.0, 5.0182996, 4.971266 
4.0863568e+2, 1.21522844e+2, -1713662.3, -1749134.6, -981.6526, -0.009798331, -0.010299935, -1713635.0, 35443.07, 0.0, 5.013343, 4.990234 
4.086371e+2, 1.265117e+2, -1669624.4, -1711018.5, -325.55286, 0.008907766, 0.010187343, -1669621.8, 30564.902, 0.0, 5.013516, 4.9865823 
4.086364e+2, 1.3149758e+2, -1620018.1, -1661719.0, -333.09772, 0.005005071, 0.0025033117, -1620015.5, 31309.37, 0.0, 5.0137186, 4.9865823 
4.0863562e+2, 1.3648345e+2, -1572596.1, -1616900.5, -329.9132, 0.0011258805, -0.0039667855, -1572593.8, 29869.596, 0.0, 5.0139203, 4.9850984 
4.0863514e+2, 1.4146657e+2, -1530267.0, -1582262.3, -282.37134, -0.00074891455, 0.0050917347, -1530265.4, 23363.1, 0.0, 5.0140524, 4.9801974 
4.0863502e+2, 1.4644682e+2, -1481167.0, -1532978.3, -251.95232, 0.0006467786, 0.0023604492, -1481165.8, 23655.678, 0.0, 5.0140233, 4.9802856 
4.0863493e+2, 1.5142705e+2, -1432214.4, -1483972.9, -238.32747, 0.0021360528, -0.0009832779, -1432213.4, 23801.58, 0.0, 5.0139885, 4.9802856 
4.0863484e+2, 1.5640725e+2, -1384677.3, -1437917.0, -220.7022, 0.0036254418, -0.0038792335, -1384676.4, 22532.08, 0.0, 5.013953, 4.979299 
4.0863475e+2, 1.6138375e+2, -1344141.1, -1406686.1, 15.727582, 0.0045130434, -0.0003200701, -1344141.1, 14297.556, 0.0, 5.0139537, 4.973335 
4.0863487e+2, 1.6635725e+2, -1294830.5, -1357513.8, 101.195564, 0.0041726152, -0.00080321345, -1294830.3, 14868.276, 0.0, 5.0140257, 4.9733157 
4.08635e+2, 1.7133078e+2, -1245485.1, -1308282.1, 115.99707, 0.003802863, -0.001139784, -1245485.0, 15473.296, 0.0, 5.0141006, 4.9733157 
4.0863508e+2, 1.7630433e+2, -1197277.6, -1261455.4, 130.84734, 0.0034420819, -0.0010829371, -1197277.4, 14940.583, 0.0, 5.0141754, 4.972509 
4.0863517e+2, 1.8127415e+2, -1156722.3, -1230600.1, 99.43924, 0.0033034142, 0.005093691, -1156722.1, 6791.0176, 0.0, 5.014191, 4.9663286 
4.0863526e+2, 1.862403e+2, -1107695.6, -1181121.4, 78.675354, 0.003555779, -0.0007153752, -1107695.5, 7147.1616, 0.0, 5.014059, 4.9664865 
4.0863538e+2, 1.9120644e+2, -1058906.1, -1132119.5, 61.0084, 0.003826706, -0.006867763, -1058906.1, 7266.1323, 0.0, 5.0139194, 4.9664865 
4.0863547e+2, 1.9617258e+2, -1011006.5, -1085031.8, 43.66434, 0.0040959264, -0.012701504, -1011006.44, 6495.3, 0.0, 5.01378, 4.9658365 
4.086357e+2, 2.0113526e+2, -971547.44, -1056292.6, 225.69228, 0.0045826463, -0.008856441, -971546.8, -2681.072, 0.0, 5.01367, 4.95891 
4.086362e+2, 2.0609468e+2, -922271.3, -1006835.7, 261.14777, 0.005505579, -0.0073698447, -922270.5, -2006.8303, 0.0, 5.013634, 4.958988 
4.0863672e+2, 2.110541e+2, -873090.9, -957606.7, 227.26051, 0.0064543085, -0.005906754, -873090.25, -1428.7046, 0.0, 5.0136023, 4.958988 
4.0863726e+2, 2.1601354e+2, -824576.8, -909832.8, 193.40707, 0.0074189166, -0.004305302, -824576.4, -1516.8914, 0.0, 5.01357, 4.958489 
4.0863773e+2, 2.2096907e+2, -784885.2, -881515.56, 98.98705, 0.008136222, 0.0027979182, -784885.1, -10390.202, 0.0, 5.0135627, 4.951281 
4.0863806e+2, 2.2591983e+2, -735123.1, -831556.3, 17.417324, 0.008014345, -0.0072956006, -735123.1, -9147.6, 0.0, 5.0136228, 4.951457 
4.0863836e+2, 2.3087053e+2, -685584.5, -782114.6, -50.630165, 0.007828495, -0.018272365, -685584.44, -8127.691, 0.0, 5.0136867, 4.95146 
4.086387e+2, 2.3582123e+2, -636698.5, -734122.25, -116.634315, 0.0076327883, -0.029305136, -636698.4, -7760.3037, 0.0, 5.01375, 4.9509606 
4.0863866e+2, 2.4076879e+2, -596846.56, -705902.3, -941.04205, 0.0074518044, -0.025700634, -596838.44, -16387.97, 0.0, 5.0137453, 4.9436107 
4.0863755e+2, 2.4571392e+2, -547174.5, -655219.0, -1194.7065, 0.0067998, -0.018684454, -547161.3, -15173.032, 0.0, 5.013599, 4.944099 
4.0863636e+2, 2.5065908e+2, -498150.2, -606013.44, -1123.9152, 0.006074614, -0.011792616, -498138.5, -14612.978, 0.0, 5.013448, 4.9440894 
4.0863514e+2, 2.5560433e+2, -449372.72, -557372.8, -1055.2063, 0.0053716116, -0.004301013, -449362.4, -14300.133, 0.0, 5.013294, 4.943882 
4.0863374e+2, 2.605453e+2, -409387.63, -528310.8, -1643.3362, 0.004770867, 0.007088572, -409364.94, -22727.232, 0.0, 5.013081, 4.936754 
4.0863013e+2, 2.6548162e+2, -358473.0, -472819.03, -2597.1987, -0.008444574, -0.028872391, -358414.03, -20166.14, 0.0, 5.0124793, 4.938953 
4.0862596e+2, 2.7041775e+2, -310304.47, -423612.16, -3142.6655, -0.025885632, -0.07348666, -310217.38, -20358.973, 0.0, 5.0118203, 4.939099 
4.086214e+2, 2.7535373e+2, -262136.89, -374578.56, -3592.129, -0.04532314, -0.12312336, -262022.25, -20551.512, 0.0, 5.0111513, 4.9391975 
4.0862134e+2, 2.8028667e+2, -237394.22, -380720.22, 1718.2672, -0.05047416, -0.10140149, -237373.63, -44256.16, 0.0, 5.011206, 4.9197264 
4.0862596e+2, 2.852149e+2, -182438.0, -320739.66, -1529.2947, -0.020540077, -0.03907703, -182421.1, -37586.605, 0.0, 5.0122337, 4.9226885 
4.086283e+2, 2.9014093e+2, -130625.93, -270122.03, -1499.8146, 0.008133823, -0.015290421, -130609.805, -34033.47, 0.0, 5.013031, 4.9226503 
4.0863043e+2, 2.9506648e+2, -78785.46, -219565.5, -1375.4437, 0.03622615, 0.0026510675, -78772.02, -30449.215, 0.0, 5.0138073, 4.9226117 
4.0863287e+2, 3.0000836e+2, -9595.098, -94996.09, -1074.917, 0.072080515, 0.028956445, -9581.57, -9581.57, 0.0, 5.014631, 4.9582124 
4.0863335e+2, 3.0496925e+2, 3205.3765, -69083.68, -3014.214, 0.116405725, -0.03960815, 3330.8416, 3330.8416, 0.0, 5.015671, 4.9665627 
4.0863204e+2, 3.0993187e+2, 7339.346, -64133.816, -5222.7944, 0.15215304, -0.12919988, 7718.9775, 7718.9775, 0.0, 5.0167203, 4.9677405 
4.0862983e+2, 3.1489664e+2, 11644.274, -59357.473, -7241.5596, 0.18277632, -0.21203576, 12375.323, 12375.323, 0.0, 5.017748, 4.9689207 
4.1364893e+2, 1.21523015e+2, -1713510.6, -1748819.0, -1130.7534, -0.010987015, -0.008027444, -1713474.5, 35602.824, 0.0, 5.013342, 4.990338 
4.1365072e+2, 1.2651163e+2, -1669644.5, -1711051.6, -172.99138, 0.009744848, 0.010197221, -1669643.9, 30544.105, 0.0, 5.013515, 4.986572 
4.1365018e+2, 1.3149756e+2, -1620037.0, -1661753.0, -178.71802, 0.0058510206, 0.00301792, -1620036.3, 31289.512, 0.0, 5.0137177, 4.9865713 
4.1364962e+2, 1.3648346e+2, -1572610.3, -1616928.3, -172.37355, 0.0019583406, -0.00295322, -1572609.6, 29854.34, 0.0, 5.0139203, 4.9850893 
4.1364926e+2, 1.4146662e+2, -1530251.8, -1582231.4, -271.88135, -0.000017010168, 0.006339072, -1530250.3, 23378.592, 0.0, 5.0140524, 4.9802074 
4.136491e+2, 1.4644685e+2, -1481141.6, -1532925.8, -278.8144, 0.00122874, 0.003275027, -1481140.1, 23681.732, 0.0, 5.0140233, 4.980303 
4.1364896e+2, 1.5142706e+2, -1432189.4, -1483920.6, -264.49985, 0.002571758, -0.0004205631, -1432188.0, 23827.256, 0.0, 5.0139885, 4.980303 
4.136488e+2, 1.5640724e+2, -1384650.9, -1437861.4, -245.61641, 0.003908198, -0.0036684095, -1384649.8, 22559.057, 0.0, 5.013953, 4.9793177 
4.1364875e+2, 1.6138373e+2, -1344112.5, -1406625.5, 54.01776, 0.004472597, -0.00034754977, -1344112.5, 14326.376, 0.0, 5.013953, 4.9733553 
4.1364884e+2, 1.6635726e+2, -1294803.8, -1357456.9, 157.80574, 0.0034276617, -0.00081299676, -1294803.4, 14894.966, 0.0, 5.0140257, 4.973335 
4.1364893e+2, 1.7133081e+2, -1245458.5, -1308225.1, 173.60298, 0.002325737, -0.0011241055, -1245458.1, 15499.575, 0.0, 5.0141006, 4.9733353 
4.1364902e+2, 1.7630437e+2, -1197251.0, -1261398.0, 189.45418, 0.0012198314, -0.0010425748, -1197250.4, 14966.55, 0.0, 5.014175, 4.9725285 
4.1364914e+2, 1.8127419e+2, -1156741.0, -1230637.9, 34.573235, 0.0011454327, 0.0050248806, -1156741.0, 6771.137, 0.0, 5.014191, 4.9663157 
4.1364932e+2, 1.8624029e+2, -1107729.3, -1181189.5, -26.771355, 0.0034400786, -0.0011847117, -1107729.3, 7113.17, 0.0, 5.0140586, 4.966463 
4.136495e+2, 1.9120637e+2, -1058939.8, -1132186.4, -42.86608, 0.0058242483, -0.0077472487, -1058939.8, 7233.0464, 0.0, 5.013919, 4.9664636 
4.1364968e+2, 1.9617245e+2, -1011040.06, -1085097.5, -58.62304, 0.008187598, -0.013991612, -1011040.0, 6463.1025, 0.0, 5.013779, 4.9658136 
4.1364992e+2, 2.0113511e+2, -971595.1, -1056390.5, 178.65225, 0.009791075, -0.009968642, -971594.75, -2727.3374, 0.0, 5.0136695, 4.9588766 
4.1365024e+2, 2.0609467e+2, -922331.6, -1006961.75, 236.35286, 0.009265836, -0.00681792, -922330.94, -2066.6228, 0.0, 5.0136337, 4.9589453 
4.1365057e+2, 2.1105422e+2, -873150.8, -957732.1, 204.42227, 0.008606808, -0.0036180238, -873150.3, -1489.1388, 0.0, 5.013602, 4.9589453 
4.1365087e+2, 2.1601377e+2, -824636.4, -909957.75, 172.52843, 0.007940872, -0.00027846117, -824636.0, -1577.9817, 0.0, 5.013569, 4.958446 
4.136513e+2, 2.2096935e+2, -784998.25, -881744.1, 128.836, 0.007708076, 0.0077032014, -784998.06, -10504.555, 0.0, 5.0135603, 4.951203 
4.1365176e+2, 2.2591984e+2, -735249.9, -831799.8, 74.54666, 0.00873265, -0.004161434, -735249.8, -9272.581, 0.0, 5.0136185, 4.951374 
4.1365227e+2, 2.3087028e+2, -685713.9, -782354.06, 11.13892, 0.009795897, -0.017090125, -685713.8, -8252.069, 0.0, 5.013681, 4.951378 
4.136528e+2, 2.3582068e+2, -636830.5, -734357.75, -50.22919, 0.010806227, -0.030065868, -636830.44, -7884.1323, 0.0, 5.0137424, 4.95088 
4.136529e+2, 2.4076809e+2, -596814.06, -705697.44, -1003.54736, 0.011996655, -0.02771564, -596804.8, -16344.434, 0.0, 5.013729, 4.9436827 
4.1365182e+2, 2.4571352e+2, -547073.44, -654822.3, -1312.7522, 0.013115221, -0.018979173, -547057.44, -15063.646, 0.0, 5.0135784, 4.9442368 
4.1365066e+2, 2.5065905e+2, -498050.3, -605620.8, -1235.2126, 0.014097653, -0.010007955, -498036.13, -14509.941, 0.0, 5.0134273, 4.9442263 
4.1364944e+2, 2.5560462e+2, -449273.94, -556984.1, -1159.7493, 0.015033686, -0.0003946926, -449261.47, -14203.432, 0.0, 5.0132732, 4.944018 
4.1364798e+2, 2.6054576e+2, -410093.72, -529552.44, -1919.6844, 0.016273506, 0.012460699, -410062.88, -23431.457, 0.0, 5.0130377, 4.9363236 
4.1364428e+2, 2.654811e+2, -359783.88, -474925.75, -2867.1628, 0.005135753, -0.025268767, -359712.53, -21460.473, 0.0, 5.012374, 4.9382286 
4.1363996e+2, 2.704163e+2, -311723.78, -425520.28, -3305.584, -0.010772279, -0.071866915, -311627.84, -21754.42, 0.0, 5.0116568, 4.938447 
4.1363525e+2, 2.753514e+2, -263664.9, -376288.44, -3647.8428, -0.029268824, -0.12322107, -263546.88, -22051.37, 0.0, 5.0109296, 4.9386177 
4.136352e+2, 2.8028345e+2, -236763.53, -379058.9, 1447.1865, -0.030514728, -0.10996109, -236748.83, -43597.22, 0.0, 5.0111794, 4.9203467 
4.1364014e+2, 2.852117e+2, -181361.39, -319240.78, -1204.372, -0.0017330787, -0.05248986, -181350.86, -36488.637, 0.0, 5.0123897, 4.92325 
4.1364282e+2, 2.9013816e+2, -129549.81, -268393.94, -1046.5227, 0.021154689, -0.028052755, -129541.92, -32949.277, 0.0, 5.013175, 4.923276 
4.136452e+2, 2.9506415e+2, -77710.98, -217609.31, -793.96136, 0.042740583, -0.010165773, -77706.47, -29378.758, 0.0, 5.0139403, 4.923301 
4.13648e+2, 3.0000675e+2, -10157.907, -96190.74, -558.7424, 0.07340732, 0.01922081, -10154.279, -10154.279, 0.0, 5.0146866, 4.9577765 
4.136498e+2, 3.0496648e+2, -646.79846, -76445.336, -2108.0127, 0.120233096, -0.0342355, -588.2184, -588.2184, 0.0, 5.0155096, 4.964034 
4.1365e+2, 3.0992758e+2, 2871.4998, -71629.07, -3903.9258, 0.15820795, -0.10416468, 3075.5117, 3075.5117, 0.0, 5.0163636, 4.9652486 
4.1364917e+2, 3.1489125e+2, 6562.7, -66986.6, -5510.017, 0.18965454, -0.16259333, 6973.1978, 6973.1978, 0.0, 5.0171967, 4.966465 
4.1866216e+2, 1.2152309e+2, -1713385.9, -1748351.5, -1226.6877, -0.012151582, -0.0066659586, -1713342.9, 35734.625, 0.0, 5.0132966, 4.9905133 
4.186643e+2, 1.2651159e+2, -1669814.0, -1711164.3, 16.59142, 0.01052293, 0.010328298, -1669814.0, 30375.035, 0.0, 5.013466, 4.986558 
4.1866398e+2, 1.3149755e+2, -1620229.0, -1661877.1, -3.808065, 0.006662765, 0.003574258, -1620229.0, 31097.639, 0.0, 5.013661, 4.9865575 
4.1866362e+2, 1.3648349e+2, -1572834.4, -1617062.8, -9.626682, 0.0027960932, -0.0019696958, -1572834.4, 29630.152, 0.0, 5.0138516, 4.985078 
4.1866338e+2, 1.4146665e+2, -1530452.9, -1582316.1, -262.8737, 0.0007384877, 0.007539748, -1530451.5, 23177.719, 0.0, 5.013983, 4.980213 
4.1866317e+2, 1.4644688e+2, -1481236.3, -1532933.6, -313.33444, 0.0018193831, 0.0041579246, -1481234.3, 23587.902, 0.0, 5.0139837, 4.980319 
4.18663e+2, 1.5142706e+2, -1432195.4, -1483885.1, -305.9465, 0.0030095987, 0.00012124604, -1432193.6, 23821.996, 0.0, 5.0139785, 4.980319 
4.186628e+2, 1.5640724e+2, -1384572.5, -1437782.0, -293.5, 0.004193769, -0.0034666893, -1384570.9, 22638.262, 0.0, 5.013972, 4.979335 
4.186627e+2, 1.6138372e+2, -1344000.5, -1406529.1, 62.968754, 0.004450601, -0.00034276152, -1344000.5, 14438.579, 0.0, 5.013983, 4.9733734 
4.186628e+2, 1.6635726e+2, -1294762.0, -1357390.9, 187.35481, 0.0027288864, -0.00079897663, -1294761.4, 14936.724, 0.0, 5.014031, 4.9733543 
4.1866288e+2, 1.7133084e+2, -1245502.4, -1308200.4, 206.75706, 0.0009328054, -0.001104732, -1245501.8, 15455.333, 0.0, 5.0140767, 4.973355 
4.18663e+2, 1.7630443e+2, -1197390.0, -1261418.6, 225.73526, -0.0008689507, -0.001017826, -1197389.3, 14826.789, 0.0, 5.0141187, 4.972548 
4.1866314e+2, 1.8127425e+2, -1156974.1, -1230790.0, -48.54353, -0.0008632272, 0.004983526, -1156974.1, 6537.0317, 0.0, 5.0141206, 4.9662976 
4.1866335e+2, 1.8624027e+2, -1107871.8, -1181314.1, -163.01399, 0.0033786737, -0.0016048708, -1107871.4, 6970.891, 0.0, 5.0140224, 4.9664373 
4.1866362e+2, 1.9120628e+2, -1058989.9, -1132266.3, -193.40971, 0.0077932435, -0.008575163, -1058989.4, 7184.1035, 0.0, 5.0139146, 4.9664383 
4.186639e+2, 1.961723e+2, -1011013.06, -1085140.0, -224.10954, 0.012186915, -0.015228981, -1011012.44, 6492.1235, 0.0, 5.013801, 4.9657884 
4.186641e+2, 2.0113498e+2, -971523.56, -1056443.4, 62.047108, 0.01489965, -0.010976059, -971523.5, -2654.406, 0.0, 5.0137134, 4.958838 
4.1866425e+2, 2.0609464e+2, -922215.6, -1006999.5, 153.43835, 0.012970291, -0.0062486185, -922215.4, -1950.2688, 0.0, 5.0136943, 4.958904 
4.186644e+2, 2.1105433e+2, -873004.9, -957756.0, 134.6795, 0.010763789, -0.0014345093, -873004.7, -1343.7389, 0.0, 5.013673, 4.9589043 
4.1866454e+2, 2.16014e+2, -824478.1, -909975.7, 115.616005, 0.008548249, 0.00352359, -824478.0, -1421.164, 0.0, 5.013645, 4.958405 
4.186648e+2, 2.2096959e+2, -784910.94, -881900.2, 129.92316, 0.007424434, 0.012400627, -784910.8, -10418.463, 0.0, 5.0136333, 4.9511156 
4.186655e+2, 2.2591984e+2, -735219.9, -831979.0, 96.108444, 0.009562235, -0.001142396, -735219.75, -9240.668, 0.0, 5.0136714, 4.9512873 
4.1866618e+2, 2.3087e+2, -685777.1, -782575.2, 25.990622, 0.011877894, -0.015991531, -685777.1, -8310.241, 0.0, 5.013701, 4.9512916 
4.186669e+2, 2.3582013e+2, -637019.56, -734635.0, -44.785446, 0.0141394, -0.03090903, -637019.56, -8064.8623, 0.0, 5.013718, 4.9507937 
4.1866717e+2, 2.407674e+2, -596916.8, -705664.5, -1153.271, 0.016784107, -0.02937473, -596904.56, -16434.37, 0.0, 5.0136843, 4.9437118 
4.1866612e+2, 2.4571311e+2, -546852.8, -654434.25, -1611.096, 0.019764721, -0.0187542, -546828.7, -14829.272, 0.0, 5.0136113, 4.944353 
4.18665e+2, 2.50659e+2, -497627.13, -605142.5, -1640.0673, 0.02260503, -0.0077941115, -497602.13, -14074.909, 0.0, 5.013536, 4.944342 
4.186638e+2, 2.556049e+2, -448679.13, -556429.7, -1669.0435, 0.025394844, 0.0038498938, -448653.28, -13598.871, 0.0, 5.013448, 4.944133 
4.1866234e+2, 2.60546e+2, -410408.63, -530986.75, -2835.9175, 0.029117359, 0.017676966, -410341.94, -23714.893, 0.0, 5.0132136, 4.935736 
4.186585e+2, 2.6548016e+2, -361577.94, -477737.94, -4368.718, 0.021378411, -0.02377422, -361413.88, -23153.377, 0.0, 5.01218, 4.9373055 
4.1865402e+2, 2.7041408e+2, -315400.84, -429130.1, -5515.2925, 0.009221603, -0.07490588, -315134.0, -25238.021, 0.0, 5.010794, 4.9375315 
4.1864923e+2, 2.753479e+2, -269989.4, -381019.8, -6805.6147, -0.005156983, -0.1310878, -269573.8, -28041.475, 0.0, 5.009124, 4.9377112 
4.186496e+2, 2.8027904e+2, -244837.61, -383408.3, -2320.0505, 0.0037716397, -0.11896544, -244798.78, -51601.32, 0.0, 5.0085306, 4.9199777 
4.1865516e+2, 2.8520784e+2, -185434.53, -319266.06, -3808.5903, 0.029785652, -0.060196426, -185326.23, -40429.426, 0.0, 5.0107164, 4.9239383 
4.1865796e+2, 2.901349e+2, -130960.84, -267205.13, -2959.243, 0.042444773, -0.036922473, -130896.6, -34282.324, 0.0, 5.0124483, 4.923972 
4.186605e+2, 2.9506153e+2, -77411.07, -215625.14, -2194.1963, 0.0541518, -0.020619128, -77376.24, -29039.584, 0.0, 5.013828, 4.9240065 
4.1866362e+2, 3.0000448e+2, -11693.772, -99161.3, -1862.5631, 0.079046465, 0.009340444, -11654.128, -11654.128, 0.0, 5.0146995, 4.956641 
4.186666e+2, 3.0496222e+2, -7672.4883, -85616.56, -3266.7822, 0.13253245, -0.040100645, -7535.811, -7535.811, 0.0, 5.0142655, 4.961165 
4.1866812e+2, 3.0992082e+2, -9888.472, -83125.164, -4781.9224, 0.17909192, -0.10681375, -9577.561, -9577.561, 0.0, 5.0130196, 4.9624157 
4.186687e+2, 3.148821e+2, -13863.483, -81623.94, -5897.733, 0.22035159, -0.16086422, -13353.987, -13353.987, 0.0, 5.0110474, 4.9636674 
4.236759e+2, 1.2152364e+2, -1712380.6, -1747858.6, -1083.3562, -0.00922904, -0.0035006152, -1712347.5, 36725.047, 0.0, 5.013628, 4.990513 
4.2367777e+2, 1.265119e+2, -1669102.4, -1710971.1, 403.87933, 0.0092197005, 0.011672542, -1669098.5, 31087.838, 0.0, 5.0137343, 4.9864907 
4.2367768e+2, 1.3149771e+2, -1619697.6, -1661770.3, 334.33698, 0.0063310075, 0.0041625057, -1619695.0, 31630.275, 0.0, 5.01387, 4.986491 
4.2367762e+2, 1.364835e+2, -1572464.8, -1617026.4, 280.20822, 0.0034668227, -0.0021129458, -1572463.0, 30001.51, 0.0, 5.0140057, 4.985015 
4.2367753e+2, 1.4146659e+2, -1530031.0, -1582146.8, -69.091835, 0.0019217337, 0.0069409027, -1530030.9, 23599.162, 0.0, 5.014132, 4.9801965 
4.2367733e+2, 1.4644684e+2, -1480522.6, -1532610.8, -161.62338, 0.0024232597, 0.0038415522, -1480522.1, 24300.73, 0.0, 5.014229, 4.9803076 
4.2367715e+2, 1.5142705e+2, -1431184.4, -1483418.8, -182.37923, 0.0030188789, 0.00013085228, -1431183.8, 24832.426, 0.0, 5.0143247, 4.9803076 
4.2367694e+2, 1.5640724e+2, -1383258.3, -1437167.0, -197.40556, 0.003626435, -0.0031274625, -1383257.5, 23952.004, 0.0, 5.01442, 4.979325 
4.2367685e+2, 1.6138373e+2, -1342521.0, -1405749.8, 101.95101, 0.0036245745, 0.00012997907, -1342520.9, 15918.41, 0.0, 5.01447, 4.9734 
4.2367697e+2, 1.663573e+2, -1293588.4, -1356748.5, 222.12535, 0.0023257947, -0.00054148765, -1293587.5, 16110.438, 0.0, 5.014413, 4.9733872 
4.236771e+2, 1.7133088e+2, -1244646.5, -1307713.6, 250.45523, 0.0010022356, -0.0010638406, -1244645.5, 16311.082, 0.0, 5.0143523, 4.9733872 
4.236772e+2, 1.7630447e+2, -1196839.3, -1261080.3, 278.883, -0.00030087982, -0.0011895064, -1196838.0, 15377.122, 0.0, 5.014291, 4.9725804 
4.2367738e+2, 1.812743e+2, -1156669.6, -1230749.0, -7.4185696, 0.00006722751, 0.0047684084, -1156669.6, 6840.645, 0.0, 5.014246, 4.966252 
4.236776e+2, 1.8624029e+2, -1107368.4, -1181247.8, -172.20088, 0.004284815, -0.0014058016, -1107368.0, 7474.1094, 0.0, 5.0142307, 4.966362 
4.236778e+2, 1.9120626e+2, -1058217.3, -1132074.0, -249.18474, 0.008703134, -0.00793678, -1058216.4, 7957.744, 0.0, 5.014216, 4.9663625 
4.2367798e+2, 1.9617224e+2, -1009958.0, -1084816.6, -326.05557, 0.013148631, -0.014152967, -1009956.56, 7549.496, 0.0, 5.014201, 4.9657125 
4.236782e+2, 2.0113488e+2, -970137.2, -1055805.4, -27.020649, 0.015848855, -0.0099163605, -970137.2, -1265.826, 0.0, 5.0141954, 4.9588313 
4.236783e+2, 2.0609446e+2, -920725.0, -1006283.56, 111.24904, 0.013620352, -0.0060762744, -920724.9, -457.06412, 0.0, 5.0142083, 4.958911 
4.236784e+2, 2.1105404e+2, -871419.4, -956998.44, 129.41676, 0.01114316, -0.0021477118, -871419.2, 244.87436, 0.0, 5.0142217, 4.958911 
4.2367852e+2, 2.1601364e+2, -822780.56, -909169.25, 147.50314, 0.008704861, 0.0019393427, -822780.3, 279.96225, 0.0, 5.014235, 4.9584117 
4.2367882e+2, 2.2096922e+2, -783208.3, -881202.75, 214.10378, 0.007581697, 0.010620377, -783207.8, -8711.849, 0.0, 5.014245, 4.951078 
4.2367956e+2, 2.259196e+2, -733748.5, -831454.5, 216.24825, 0.010356758, -0.0009549378, -733748.0, -7765.5923, 0.0, 5.014214, 4.951225 
4.2368034e+2, 2.3086989e+2, -684499.56, -782149.56, 183.8422, 0.013452218, -0.013738005, -684499.25, -7029.3555, 0.0, 5.014177, 4.951227 
4.236811e+2, 2.3582016e+2, -635900.8, -734292.4, 154.0092, 0.01659252, -0.026667932, -635900.56, -6943.101, 0.0, 5.0141387, 4.9507284 
4.2368153e+2, 2.407675e+2, -595682.6, -705396.75, -865.46936, 0.020250795, -0.023850612, -595675.8, -15202.651, 0.0, 5.0141582, 4.9436016 
4.236807e+2, 2.4571307e+2, -544825.06, -653955.25, -1497.9415, 0.02457366, -0.012865399, -544804.5, -12801.175, 0.0, 5.0143933, 4.944183 
4.236798e+2, 2.506588e+2, -494688.16, -604247.56, -1740.8685, 0.028942263, -0.001442463, -494660.5, -11128.53, 0.0, 5.014645, 4.944174 
4.2367887e+2, 2.556046e+2, -444805.47, -555112.6, -1984.3198, 0.03342288, 0.010676236, -444769.78, -9709.741, 0.0, 5.0148945, 4.9439664 
4.236777e+2, 2.6054543e+2, -405594.4, -530369.4, -3271.526, 0.03973856, 0.025057625, -405508.7, -18873.31, 0.0, 5.0151873, 4.935112 
4.2367455e+2, 2.654787e+2, -353679.56, -476938.5, -4252.379, 0.040761907, -0.016240967, -353533.03, -15252.284, 0.0, 5.0154076, 4.936245 
4.2367092e+2, 2.704113e+2, -303213.4, -426932.47, -4510.1064, 0.040516183, -0.06846158, -303049.22, -13117.462, 0.0, 5.015586, 4.9363203 
4.2366698e+2, 2.7534357e+2, -252766.25, -377111.88, -4663.7837, 0.04047791, -0.12697986, -252591.58, -11005.2, 0.0, 5.0157537, 4.9363484 
4.2366776e+2, 2.8027326e+2, -223577.97, -373624.22, 828.60986, 0.06352645, -0.1195888, -223573.39, -30305.412, 0.0, 5.016057, 4.920069 
4.2367274e+2, 2.8520283e+2, -168554.47, -309093.66, -76.30896, 0.07560257, -0.061841898, -168554.42, -23594.48, 0.0, 5.0164113, 4.9248643 
4.2367515e+2, 2.9013097e+2, -118184.74, -259293.66, -395.33435, 0.07027132, -0.037184585, -118183.63, -21517.002, 0.0, 5.0166993, 4.9247913 
4.2367733e+2, 2.9505864e+2, -67774.19, -209544.61, -569.9863, 0.066569835, -0.018868698, -67771.89, -19393.328, 0.0, 5.0169606, 4.9247184 
4.236801e+2, 3.000024e+2, -4897.9263, -97590.47, -919.4649, 0.07951058, 0.014114642, -4888.8066, -4888.8066, 0.0, 5.017277, 4.956064 
4.2368275e+2, 3.0496067e+2, 48.495777, -87039.79, -1223.8553, 0.13108726, -0.017237062, 65.69128, 65.69128, 0.0, 5.0176272, 4.9592004 
4.2368424e+2, 3.099193e+2, 2232.1934, -82864.52, -1614.7262, 0.1834886, -0.06789483, 2262.822, 2262.822, 0.0, 5.017901, 4.960388 
4.2368498e+2, 3.1488e+2, 4575.34, -78849.51, -2043.1017, 0.23727907, -0.11347481, 4625.346, 4625.346, 0.0, 5.018142, 4.961577 
4.2869e+2, 1.21524386e+2, -1712437.1, -1747970.4, -1286.6188, -0.0050171865, -0.0003052625, -1712390.6, 36675.203, 0.0, 5.0136275, 4.9904766 
4.2869127e+2, 1.2651242e+2, -1669236.9, -1711241.0, 505.35718, 0.0068431636, 0.013545961, -1669230.9, 30950.53, 0.0, 5.0137334, 4.986402 
4.2869148e+2, 1.3149801e+2, -1619830.6, -1662040.0, 437.66785, 0.005434721, 0.004784889, -1619826.1, 31496.223, 0.0, 5.0138693, 4.9864025 
4.286917e+2, 1.364836e+2, -1572591.8, -1617287.1, 387.151, 0.0040289573, -0.0027450484, -1572588.5, 29875.164, 0.0, 5.014005, 4.984929 
4.286918e+2, 1.4146654e+2, -1530074.9, -1582237.0, 9.36256, 0.0032339648, 0.0055471966, -1530074.9, 23555.688, 0.0, 5.014132, 4.980167 
4.2869163e+2, 1.4644681e+2, -1480559.4, -1532686.5, -88.99322, 0.0029580027, 0.003006758, -1480559.3, 24264.043, 0.0, 5.014229, 4.980283 
4.2869145e+2, 1.5142705e+2, -1431220.8, -1483494.3, -108.97024, 0.0027172074, -0.000080752536, -1431220.5, 24795.768, 0.0, 5.0143247, 4.980283 
4.2869127e+2, 1.5640728e+2, -1383292.0, -1437237.5, -122.389915, 0.0024802624, -0.002715984, -1383291.6, 23917.758, 0.0, 5.01442, 4.979302 
4.2869115e+2, 1.6138381e+2, -1342481.5, -1405666.6, 81.07045, 0.0021970258, 0.00084002624, -1342481.4, 15957.5, 0.0, 5.0144696, 4.973428 
4.2869136e+2, 1.6635738e+2, -1293535.0, -1356636.3, 175.20596, 0.0018779638, -0.00015478478, -1293534.5, 16162.84, 0.0, 5.014413, 4.973425 
4.286915e+2, 1.7133096e+2, -1244593.4, -1307601.5, 204.65904, 0.0015645131, -0.001016032, -1244592.8, 16362.91, 0.0, 5.014352, 4.973425 
4.286917e+2, 1.7630455e+2, -1196786.1, -1260967.9, 234.2656, 0.00125544, -0.001481751, -1196785.3, 15428.586, 0.0, 5.014291, 4.9726186 
4.2869183e+2, 1.8127438e+2, -1156753.4, -1230924.3, -25.004759, 0.0020946623, 0.0044515757, -1156753.4, 6755.605, 0.0, 5.0142455, 4.966193 
4.2869192e+2, 1.8624036e+2, -1107503.9, -1181533.0, -182.42966, 0.0054988232, -0.00093912915, -1107503.4, 7338.193, 0.0, 5.01423, 4.966266 
4.2869204e+2, 1.9120634e+2, -1058352.0, -1132358.1, -257.7859, 0.00902567, -0.0066455007, -1058351.0, 7823.3057, 0.0, 5.014215, 4.9662666 
4.2869213e+2, 1.9617228e+2, -1010092.06, -1085099.9, -333.027, 0.012560925, -0.012036616, -1010090.6, 7416.4946, 0.0, 5.0142, 4.9656167 
4.2869225e+2, 2.0113486e+2, -970139.44, -1055803.4, -23.965675, 0.014656403, -0.007830131, -970139.4, -1266.13, 0.0, 5.014194, 4.9588327 
4.286924e+2, 2.0609425e+2, -920691.9, -1006205.94, 120.153175, 0.012642366, -0.005955312, -920691.75, -421.00888, 0.0, 5.014207, 4.958938 
4.2869258e+2, 2.1105368e+2, -871386.0, -956920.56, 140.70268, 0.010398081, -0.0040622703, -871385.75, 282.26733, 0.0, 5.0142207, 4.9589386 
4.2869273e+2, 2.1601309e+2, -822746.9, -909091.2, 161.17004, 0.0081667425, -0.002013778, -822746.56, 318.69897, 0.0, 5.014234, 4.9584394 
4.2869303e+2, 2.209686e+2, -783233.0, -881242.5, 205.86606, 0.0072987233, 0.0059557734, -783232.6, -8731.273, 0.0, 5.014243, 4.9510646 
4.286938e+2, 2.259193e+2, -733811.9, -831563.44, 195.44875, 0.010504109, -0.0020310024, -733811.5, -7825.7397, 0.0, 5.0142097, 4.951189 
4.2869458e+2, 2.3086995e+2, -684567.5, -782254.75, 168.54507, 0.014000371, -0.010876147, -684567.25, -7096.269, 0.0, 5.01417, 4.9511933 
4.2869538e+2, 2.3582059e+2, -635973.3, -734393.94, 144.21982, 0.017497987, -0.019847365, -635973.1, -7016.8296, 0.0, 5.01413, 4.9506955 
4.2869586e+2, 2.4076813e+2, -595951.9, -705853.4, -729.5521, 0.021549666, -0.014214009, -595947.0, -15476.165, 0.0, 5.014137, 4.9434505 
4.2869538e+2, 2.4571344e+2, -545226.06, -654686.94, -1309.7427, 0.026608396, -0.003709674, -545210.4, -13206.423, 0.0, 5.0143685, 4.9439373 
4.2869475e+2, 2.5065884e+2, -495077.94, -604971.8, -1546.1301, 0.031699788, 0.0070321043, -495056.2, -11520.322, 0.0, 5.014623, 4.943928 
4.2869413e+2, 2.5560433e+2, -445184.1, -555829.56, -1783.0497, 0.036848955, 0.018445944, -445155.38, -10088.171, 0.0, 5.014875, 4.9437203 
4.286933e+2, 2.6054484e+2, -406166.38, -531403.2, -2994.5288, 0.04391016, 0.03222345, -406094.8, -19448.191, 0.0, 5.015148, 4.93476 
4.2869094e+2, 2.654778e+2, -354540.88, -478096.53, -3835.3374, 0.047966763, -0.007936046, -354421.94, -16124.205, 0.0, 5.0152917, 4.9358706 
4.2868814e+2, 2.7041033e+2, -304271.66, -427993.75, -3989.6301, 0.05061797, -0.057708994, -304143.13, -14189.952, 0.0, 5.015395, 4.936 
4.2868504e+2, 2.753426e+2, -254020.89, -378076.03, -4039.8123, 0.05284707, -0.11273753, -253889.48, -12278.675, 0.0, 5.0154877, 4.9360814 
4.2868602e+2, 2.8027254e+2, -223428.44, -374018.22, 281.21106, 0.07813293, -0.10018664, -223427.9, -30134.465, 0.0, 5.016146, 4.9199567 
4.286904e+2, 2.8520206e+2, -166873.44, -308193.75, -77.01577, 0.08566571, -0.04442165, -166873.4, -21884.842, 0.0, 5.0167775, 4.925186 
4.2869237e+2, 2.9013014e+2, -116663.74, -258200.69, -255.34247, 0.07275859, -0.024214055, -116663.29, -19964.293, 0.0, 5.017004, 4.9251876 
4.2869413e+2, 2.950577e+2, -66413.5, -208258.88, -289.41177, 0.060666714, -0.010180323, -66412.914, -17998.963, 0.0, 5.0172048, 4.925189 
4.2869627e+2, 3.0000156e+2, -4303.148, -97400.414, -628.3173, 0.06327761, 0.020102233, -4298.9077, -4298.9077, 0.0, 5.0174465, 4.9561462 
4.28698e+2, 3.0496266e+2, -197.01472, -88393.39, -656.71533, 0.09970033, 0.01934059, -192.12506, -192.12506, 0.0, 5.017726, 4.958754 
4.2869848e+2, 3.099251e+2, 1633.5695, -84859.82, -637.5525, 0.13484268, 0.011629048, 1638.2687, 1638.2687, 0.0, 5.0179496, 4.959786 
4.2869818e+2, 3.1488964e+2, 3624.1272, -81486.08, -656.17365, 0.16929442, 0.01260678, 3629.1858, 3629.1858, 0.0, 5.0181417, 4.960819 
4.3370402e+2, 1.21525005e+2, -1712372.9, -1747835.3, -1493.0796, -0.001027354, 0.0018206467, -1712310.1, 36750.15, 0.0, 5.013627, 4.990521 
4.3370476e+2, 1.2651294e+2, -1669372.0, -1711510.4, 607.3491, 0.0044608554, 0.015487301, -1669363.3, 30813.172, 0.0, 5.013733, 4.986314 
4.3370527e+2, 1.3149832e+2, -1619964.3, -1662309.4, 541.5128, 0.0045380522, 0.0054468596, -1619957.3, 31362.145, 0.0, 5.0138693, 4.9863133 
4.3370575e+2, 1.3648368e+2, -1572719.4, -1617547.4, 494.61237, 0.0045960993, -0.0033658985, -1572714.0, 29748.803, 0.0, 5.014005, 4.984843 
4.3370605e+2, 1.414665e+2, -1530124.8, -1582339.1, 87.686195, 0.0045466973, 0.0041749724, -1530124.6, 23506.455, 0.0, 5.0141315, 4.9801335 
4.337059e+2, 1.464468e+2, -1480596.3, -1532762.1, -16.300913, 0.0034924154, 0.0021882965, -1480596.3, 24227.334, 0.0, 5.014229, 4.980258 
4.3370575e+2, 1.5142706e+2, -1431257.4, -1483569.8, -35.4991, 0.0024161637, -0.00028994845, -1431257.4, 24759.1, 0.0, 5.014324, 4.980258 
4.3370557e+2, 1.5640733e+2, -1383325.9, -1437307.9, -47.307316, 0.0013356752, -0.0023160202, -1383325.9, 23883.518, 0.0, 5.01442, 4.9792786 
4.337055e+2, 1.613839e+2, -1342446.5, -1405592.5, 60.046562, 0.0007718253, 0.0015705952, -1342446.5, 15992.077, 0.0, 5.0144696, 4.9734526 
4.3370572e+2, 1.6635747e+2, -1293482.0, -1356523.8, 128.22006, 0.0014311187, 0.0002505283, -1293481.8, 16214.966, 0.0, 5.014413, 4.9734626 
4.3370593e+2, 1.7133105e+2, -1244540.6, -1307489.1, 158.79634, 0.0021261428, -0.00096535974, -1244540.1, 16414.465, 0.0, 5.014352, 4.9734626 
4.3370613e+2, 1.7630464e+2, -1196733.4, -1260855.1, 189.58228, 0.0028094784, -0.0017868787, -1196732.8, 15479.78, 0.0, 5.014291, 4.9726563 
4.337063e+2, 1.8127447e+2, -1156842.6, -1231110.8, -43.09548, 0.004121698, 0.0041613, -1156842.6, 6664.9766, 0.0, 5.014245, 4.9661307 
4.337063e+2, 1.8624043e+2, -1107639.6, -1181817.9, -192.74495, 0.006714067, -0.0004532854, -1107639.1, 7201.836, 0.0, 5.0142293, 4.9661703 
4.337063e+2, 1.912064e+2, -1058487.1, -1132642.0, -266.47348, 0.009350024, -0.005362783, -1058486.1, 7688.4385, 0.0, 5.0142145, 4.966171 
4.337063e+2, 1.9617233e+2, -1010226.56, -1085382.9, -340.08475, 0.011975623, -0.009956562, -1010225.06, 7283.076, 0.0, 5.0141993, 4.965521 
4.3370637e+2, 2.0113485e+2, -970154.75, -1055828.9, -21.407234, 0.013472003, -0.0056790584, -970154.75, -1279.6129, 0.0, 5.014193, 4.9588246 
4.3370655e+2, 2.0609407e+2, -920659.4, -1006127.9, 128.95253, 0.011671745, -0.0057597277, -920659.2, -385.5791, 0.0, 5.014206, 4.958965 
4.3370673e+2, 2.1105331e+2, -871353.2, -956842.3, 151.88379, 0.009657346, -0.0059439787, -871352.9, 319.05374, 0.0, 5.0142198, 4.9589653 
4.337069e+2, 2.1601254e+2, -822713.75, -909012.75, 174.73207, 0.0076299487, -0.00597582, -822713.44, 356.84827, 0.0, 5.0142336, 4.958466 
4.3370727e+2, 2.2096801e+2, -783270.8, -881309.2, 195.35649, 0.00702563, 0.0013178922, -783270.44, -8763.796, 0.0, 5.014241, 4.951042 
4.3370804e+2, 2.2591904e+2, -733876.44, -831671.56, 172.26833, 0.010647012, -0.0031457006, -733876.1, -7887.072, 0.0, 5.014205, 4.951152 
4.3370885e+2, 2.3087002e+2, -684636.6, -782359.1, 150.86699, 0.014524812, -0.0081661, -684636.4, -7164.321, 0.0, 5.014164, 4.951158 
4.3370962e+2, 2.35821e+2, -636047.0, -734494.56, 132.04933, 0.018360479, -0.0132917855, -636046.8, -7091.651, 0.0, 5.0141215, 4.950662 
4.3371022e+2, 2.407688e+2, -596272.5, -706416.7, -611.7027, 0.022830404, -0.004289393, -596269.1, -15800.836, 0.0, 5.014116, 4.943261 
4.3370998e+2, 2.4571384e+2, -545631.3, -655414.7, -1122.9252, 0.02864902, 0.0059531587, -545619.8, -13615.673, 0.0, 5.0143437, 4.9436903 
4.3370968e+2, 2.5065893e+2, -495472.0, -605692.1, -1352.7719, 0.03447043, 0.015879655, -495455.38, -11915.987, 0.0, 5.0146008, 4.943681 
4.3370935e+2, 2.5560406e+2, -445567.03, -556542.5, -1583.1588, 0.040295385, 0.026454503, -445544.44, -10470.346, 0.0, 5.014856, 4.9434733 
4.3370894e+2, 2.6054412e+2, -406835.47, -532624.0, -2769.3054, 0.048507255, 0.038885284, -406774.53, -20115.803, 0.0, 5.0151095, 4.93433 
4.3370724e+2, 2.6547673e+2, -355420.47, -479241.53, -3502.4907, 0.055501197, -0.002252702, -355321.47, -17004.828, 0.0, 5.0151763, 4.935468 
4.3370515e+2, 2.7040908e+2, -305347.9, -429041.66, -3553.294, 0.060713883, -0.05165766, -305245.9, -15268.759, 0.0, 5.0152044, 4.935651 
4.3370274e+2, 2.7534136e+2, -255293.31, -379026.44, -3499.9294, 0.06487495, -0.10527581, -255194.39, -13555.972, 0.0, 5.0152216, 4.935786 
4.3370438e+2, 2.8027195e+2, -224511.84, -377245.0, 268.4279, 0.09354727, -0.078798614, -224511.38, -31193.314, 0.0, 5.016236, 4.918843 
4.337085e+2, 2.8520167e+2, -165234.8, -307254.8, -215.17792, 0.09688492, -0.01949994, -165234.47, -20220.77, 0.0, 5.0171432, 4.92548 
4.3370995e+2, 2.9012948e+2, -115184.76, -257068.56, -252.78772, 0.07560594, -0.0068352493, -115184.31, -18455.209, 0.0, 5.017309, 4.9255557 
4.337111e+2, 2.950569e+2, -65094.47, -206933.83, -146.2682, 0.054327615, -0.00017698387, -65094.32, -16646.014, 0.0, 5.0174484, 4.9256315 
4.3371272e+2, 3.0000043e+2, -4247.295, -98335.5, -301.91473, 0.047252584, 0.024569131, -4246.326, -4233.257, 0.0, 5.0176167, 4.9557843 
4.337137e+2, 3.0496392e+2, -491.5034, -89701.19, 105.00342, 0.07295803, 0.046378307, -491.3798, -491.3798, 0.0, 5.0178246, 4.958205 
4.3371344e+2, 3.0992976e+2, 985.629, -86810.12, 534.58057, 0.09527805, 0.07099659, 988.8839, 988.8839, 0.0, 5.0179987, 4.9590807 
4.3371227e+2, 3.1489775e+2, 2623.1028, -84078.51, 926.25507, 0.11482459, 0.10792067, 2632.997, 2632.997, 0.0, 5.018141, 4.959957 
4.3871805e+2, 1.21525474e+2, -1712362.8, -1747554.0, -1813.1669, 0.002912114, 0.0028678644, -1712269.6, 36786.473, 0.0, 5.013572, 4.9906397 
4.3871826e+2, 1.2651344e+2, -1669625.3, -1711830.0, 599.4292, 0.0020230808, 0.017439624, -1669616.8, 30554.914, 0.0, 5.013692, 4.9862285 
4.3871903e+2, 1.314986e+2, -1620232.5, -1662636.8, 554.1691, 0.0035847859, 0.006116361, -1620225.3, 31091.379, 0.0, 5.0138226, 4.986228 
4.3871978e+2, 1.3648376e+2, -1573015.6, -1617881.6, 530.0632, 0.0051308568, -0.0039805803, -1573009.4, 29452.568, 0.0, 5.0139475, 4.9847603 
4.3872035e+2, 1.4146642e+2, -1530400.6, -1582555.3, 111.74016, 0.0058622323, 0.0028381401, -1530400.4, 23231.17, 0.0, 5.014057, 4.9800982 
4.387202e+2, 1.4644678e+2, -1480910.5, -1532969.0, 13.605452, 0.0040696748, 0.001404198, -1480910.4, 23913.477, 0.0, 5.014135, 4.9802346 
4.3872002e+2, 1.5142708e+2, -1431631.8, -1483805.5, 5.8992176, 0.0022067146, -0.00047415853, -1431631.8, 24384.836, 0.0, 5.01421, 4.9802346 
4.3871987e+2, 1.5640739e+2, -1383762.6, -1437569.4, 6.4517403, 0.00033881076, -0.001899986, -1383762.6, 23446.707, 0.0, 5.014283, 4.979257 
4.3871984e+2, 1.6138397e+2, -1342848.3, -1405736.1, 28.331593, -0.0004883583, 0.0023407165, -1342848.3, 15589.915, 0.0, 5.0143237, 4.9734745 
4.3872005e+2, 1.6635755e+2, -1293805.6, -1356594.1, 66.93147, 0.0010756609, 0.0006664677, -1293805.5, 15890.517, 0.0, 5.0142856, 4.9734993 
4.3872035e+2, 1.7133114e+2, -1244815.4, -1307535.5, 93.01734, 0.0027177106, -0.00094569847, -1244815.3, 16138.521, 0.0, 5.0142407, 4.9734993 
4.3872058e+2, 1.7630471e+2, -1196970.0, -1260882.4, 119.079926, 0.0043479325, -0.002163973, -1196969.9, 15241.544, 0.0, 5.0141926, 4.972693 
4.3872073e+2, 1.8127455e+2, -1157164.1, -1231412.1, -83.2714, 0.0061060903, 0.0038231595, -1157164.0, 6342.386, 0.0, 5.014167, 4.966066 
4.3872064e+2, 1.8624051e+2, -1107880.5, -1182147.8, -209.9743, 0.00787556, 0.0000030656902, -1107879.9, 6960.561, 0.0, 5.014192, 4.966076 
4.3872055e+2, 1.9120646e+2, -1058618.1, -1132919.3, -268.6177, 0.009627209, -0.0041088983, -1058617.3, 7557.5864, 0.0, 5.014215, 4.9660764 
4.3872043e+2, 1.9617237e+2, -1010263.25, -1085614.8, -327.7339, 0.011368141, -0.007905844, -1010261.8, 7247.2744, 0.0, 5.014232, 4.9654264 
4.3872043e+2, 2.0113485e+2, -970036.5, -1055816.0, 3.8147976, 0.012298855, -0.0034372702, -970036.5, -1159.6329, 0.0, 5.014244, 4.958805 
4.3872067e+2, 2.060939e+2, -920519.8, -1006008.6, 135.9154, 0.010723184, -0.005420107, -920519.6, -243.21432, 0.0, 5.0142446, 4.958987 
4.3872088e+2, 2.1105295e+2, -871268.7, -956749.3, 134.49464, 0.0089664385, -0.007674637, -871268.5, 407.33063, 0.0, 5.01424, 4.9589877 
4.387211e+2, 2.1601202e+2, -822699.1, -908952.25, 132.75389, 0.007191125, -0.009780761, -822698.9, 376.34027, 0.0, 5.0142293, 4.958488 
4.387215e+2, 2.209674e+2, -783385.4, -881436.75, 112.93121, 0.0068975957, -0.003119851, -783385.2, -8873.23, 0.0, 5.014218, 4.951008 
4.3872228e+2, 2.2591873e+2, -733985.06, -831809.9, 69.55137, 0.010903675, -0.0042083696, -733985.0, -7992.452, 0.0, 5.0141873, 4.9511104 
4.387231e+2, 2.3087005e+2, -684760.6, -782503.5, 37.254406, 0.015173596, -0.005599399, -684760.56, -7287.1167, 0.0, 5.014141, 4.9511166 
4.3872386e+2, 2.3582138e+2, -636223.4, -734661.1, 0.5157539, 0.019410094, -0.0070714587, -636223.4, -7268.9146, 0.0, 5.0140815, 4.9506207 
4.3872452e+2, 2.4076945e+2, -596746.4, -707146.25, -631.7076, 0.024419896, 0.0057334583, -596742.8, -16276.827, 0.0, 5.0140576, 4.9430346 
4.387246e+2, 2.4571423e+2, -546070.4, -656169.1, -1029.7307, 0.031060552, 0.015882388, -546060.75, -14056.226, 0.0, 5.0143065, 4.9434443 
4.3872464e+2, 2.50659e+2, -495872.44, -606424.6, -1226.4575, 0.037715007, 0.024803443, -495858.84, -12315.665, 0.0, 5.014577, 4.9434357 
4.387246e+2, 2.5560376e+2, -445966.0, -557269.3, -1422.8344, 0.044384014, 0.034307357, -445947.8, -10866.451, 0.0, 5.0148325, 4.9432287 
4.387246e+2, 2.6054326e+2, -407780.47, -534336.06, -2706.2976, 0.05450637, 0.044798166, -407722.63, -21050.188, 0.0, 5.015042, 4.933744 
4.387236e+2, 2.6547527e+2, -357181.5, -481359.06, -4073.9927, 0.065741, 0.001613109, -357048.0, -18708.773, 0.0, 5.014836, 4.9348283 
4.3872216e+2, 2.7040717e+2, -308426.66, -431773.44, -5074.147, 0.07530017, -0.048655957, -308218.28, -18210.576, 0.0, 5.014412, 4.9349904 
4.3872043e+2, 2.75339e+2, -260149.13, -382553.16, -6267.4067, 0.08381374, -0.10238418, -259829.05, -18152.396, 0.0, 5.0138135, 4.935106 
4.3872324e+2, 2.8027028e+2, -231934.84, -385166.13, -3150.9426, 0.118870996, -0.054299682, -231870.08, -38517.055, 0.0, 5.014469, 4.9168224 
4.387273e+2, 2.8520072e+2, -167583.7, -307114.6, -3071.302, 0.1157047, 0.012841095, -167516.14, -22471.828, 0.0, 5.016003, 4.9259744 
4.38728e+2, 2.9012847e+2, -116397.38, -256453.63, -2041.5868, 0.08303671, 0.015110569, -116367.63, -19604.994, 0.0, 5.0165825, 4.926048 
4.3872845e+2, 2.950559e+2, -65815.57, -206111.78, -1150.5782, 0.050319746, 0.0121170655, -65806.13, -17321.861, 0.0, 5.016909, 4.9261217 
4.387294e+2, 2.9999894e+2, -6850.073, -101646.06, -827.7462, 0.03342254, 0.02982886, -6842.846, -6785.982, 0.0, 5.0170307, 4.954814 
4.387299e+2, 3.0496404e+2, -4367.115, -93471.414, -1079.4169, 0.053327274, 0.06587568, -4354.041, -4354.041, 0.0, 5.0167336, 4.957118 
4.3872914e+2, 3.0993196e+2, -5614.8276, -92209.195, -1437.397, 0.06940616, 0.10721992, -5590.9746, -5590.9746, 0.0, 5.015991, 4.9578004 
4.3872744e+2, 3.149017e+2, -7747.4287, -91488.7, -1678.2655, 0.082178816, 0.1596144, -7713.808, -7713.808, 0.0, 5.01485, 4.9584837 
4.4373232e+2, 1.21525496e+2, -1711356.9, -1747082.8, -1924.3306, 0.008384982, 0.0027319654, -1711253.5, 37802.938, 0.0, 5.0139103, 4.990628 
4.4373164e+2, 1.2651354e+2, -1668662.0, -1711385.8, 507.99933, -0.0024824059, 0.018137814, -1668656.0, 31515.043, 0.0, 5.014017, 4.9862146 
4.437327e+2, 1.3149862e+2, -1619428.3, -1662271.9, 519.7503, 0.0010180029, 0.006073561, -1619421.9, 31894.844, 0.0, 5.0140963, 4.986214 
4.4373375e+2, 1.3648367e+2, -1572346.6, -1617576.8, 553.9685, 0.004566889, -0.0047598085, -1572339.9, 30122.854, 0.0, 5.0141754, 4.98475 
4.4373453e+2, 1.414663e+2, -1529842.5, -1582243.1, 149.34857, 0.0067882612, 0.0017264606, -1529842.0, 23790.432, 0.0, 5.014235, 4.980115 
4.4373447e+2, 1.4644673e+2, -1480550.4, -1532752.6, 78.80789, 0.005240794, 0.00096723245, -1480550.3, 24273.943, 0.0, 5.014247, 4.9802527 
4.4373435e+2, 1.5142713e+2, -1431466.5, -1483684.6, 105.19652, 0.0035960851, -0.00019203352, -1431466.3, 24549.744, 0.0, 5.014257, 4.9802523 
4.4373426e+2, 1.5640754e+2, -1383783.4, -1437534.9, 140.88521, 0.0019632785, -0.000897536, -1383783.0, 23424.941, 0.0, 5.0142665, 4.9792767 
4.4373426e+2, 1.6138415e+2, -1342966.0, -1405748.0, 152.91827, 0.0011582973, 0.0035539707, -1342965.6, 15470.921, 0.0, 5.014274, 4.973494 
4.4373444e+2, 1.6635767e+2, -1293832.0, -1356567.5, 163.17398, 0.0022979358, 0.0009927195, -1293831.5, 15863.357, 0.0, 5.014268, 4.9735165 
4.4373462e+2, 1.7133118e+2, -1244730.8, -1307456.0, 168.78824, 0.0035391962, -0.0015409165, -1244730.4, 16222.781, 0.0, 5.0142612, 4.9735165 
4.437348e+2, 1.7630468e+2, -1196764.5, -1260745.1, 174.76521, 0.0048070005, -0.0036771207, -1196764.0, 15447.334, 0.0, 5.0142546, 4.97271 
4.437349e+2, 1.812745e+2, -1156817.5, -1231283.5, 49.81617, 0.006018843, 0.002026048, -1156817.5, 6689.0493, 0.0, 5.0142927, 4.96605 
4.4373482e+2, 1.8624055e+2, -1107233.1, -1181914.9, -3.4975672, 0.0067137633, -0.00053026184, -1107233.1, 7606.862, 0.0, 5.014429, 4.9660435 
4.437347e+2, 1.9120659e+2, -1057629.1, -1132526.0, -8.778764, 0.007405673, -0.0033075367, -1057629.1, 8544.554, 0.0, 5.01457, 4.966044 
4.4373462e+2, 1.9617262e+2, -1008920.0, -1085056.5, -13.841712, 0.008128636, -0.0057699643, -1008920.0, 8587.3125, 0.0, 5.014711, 4.9653935 
4.4373462e+2, 2.011351e+2, -968506.9, -1055214.6, 267.71585, 0.0086350925, -0.0006740683, -968506.06, 369.04825, 0.0, 5.0147963, 4.958753 
4.437349e+2, 2.06094e+2, -919228.25, -1005549.7, 298.75064, 0.008216589, -0.0036480715, -919227.2, 1049.1146, 0.0, 5.0147214, 4.9589233 
4.4373524e+2, 2.1105288e+2, -870208.06, -956401.06, 220.74796, 0.007754313, -0.006950134, -870207.5, 1469.9763, 0.0, 5.0146375, 4.9589233 
4.4373554e+2, 2.1601176e+2, -821852.75, -908706.3, 142.57404, 0.0073186075, -0.010101841, -821852.5, 1226.1012, 0.0, 5.014553, 4.958424 
4.4373596e+2, 2.2096707e+2, -782612.5, -881114.7, 115.62601, 0.007970558, -0.0038885123, -782612.4, -8096.009, 0.0, 5.0144925, 4.9509935 
4.437367e+2, 2.2591855e+2, -733156.25, -831452.6, 120.05791, 0.011659137, -0.0035627526, -733156.1, -7160.1353, 0.0, 5.014478, 4.951103 
4.4373745e+2, 2.3087002e+2, -683843.56, -782119.2, 137.22258, 0.015638458, -0.0033722522, -683843.3, -6367.4707, 0.0, 5.0144644, 4.951105 
4.4373822e+2, 2.3582149e+2, -635181.94, -734233.4, 156.12039, 0.019703967, -0.003229375, -635181.7, -6225.876, 0.0, 5.01445, 4.950606 
4.4373885e+2, 2.4076962e+2, -595462.44, -706686.5, -167.20406, 0.02446286, 0.01062972, -595462.2, -14995.312, 0.0, 5.014516, 4.9429975 
4.4373924e+2, 2.4571422e+2, -544352.25, -655521.44, -248.26956, 0.030336902, 0.019101534, -544351.7, -12344.34, 0.0, 5.014913, 4.9434104 
4.4373953e+2, 2.5065872e+2, -493708.88, -605572.6, -226.29118, 0.03631543, 0.025906552, -493708.44, -10160.143, 0.0, 5.0153384, 4.9434037 
4.4373977e+2, 2.5560325e+2, -443323.75, -556200.1, -205.43161, 0.042446524, 0.03315322, -443323.38, -8234.488, 0.0, 5.015759, 4.9431987 
4.4374025e+2, 2.6054254e+2, -404681.2, -533995.06, -997.99744, 0.05329285, 0.043396212, -404673.5, -17990.947, 0.0, 5.0162807, 4.933335 
4.4374028e+2, 2.654748e+2, -352107.4, -481251.0, -1614.6108, 0.07045523, 0.0097560175, -352087.22, -13735.454, 0.0, 5.016913, 4.9340096 
4.4373998e+2, 2.704068e+2, -300562.44, -430947.16, -1632.8876, 0.087368995, -0.029947514, -300542.0, -10517.507, 0.0, 5.017514, 4.9340086 
4.4373938e+2, 2.7533853e+2, -249061.06, -380819.25, -1550.2416, 0.10423149, -0.07333113, -249042.81, -7343.0195, 0.0, 5.0180984, 4.93396 
4.4374287e+2, 2.802697e+2, -218339.36, -378967.53, 3799.3345, 0.1409549, -0.015858427, -218249.53, -24869.037, 0.0, 5.0191827, 4.91682 
4.43746e+2, 2.8520057e+2, -157796.38, -299664.34, 3111.2402, 0.12757237, 0.04432749, -157728.19, -12662.5205, 0.0, 5.0188885, 4.927115 
4.437458e+2, 2.9012862e+2, -111211.09, -251656.98, 2974.7153, 0.08779824, 0.036680613, -111148.12, -14370.092, 0.0, 5.0178523, 4.927033 
4.4374534e+2, 2.9505634e+2, -64570.117, -203664.81, 2960.54, 0.049185183, 0.025132004, -64507.13, -16013.192, 0.0, 5.016782, 4.9269505 
4.4374526e+2, 2.9999942e+2, -9184.01, -103312.67, 2868.5461, 0.025396269, 0.036000673, -9096.673, -9032.537, 0.0, 5.015943, 4.9546638 
4.4374436e+2, 3.0496567e+2, -7142.281, -97235.79, 3348.5999, 0.03162813, 0.08636683, -7017.991, -7017.991, 0.0, 5.0156813, 4.956167 
4.437421e+2, 3.0993447e+2, -7127.9326, -95718.73, 4015.779, 0.035149623, 0.14007127, -6946.272, -6946.272, 0.0, 5.0153484, 4.9567084 
4.4373903e+2, 3.1490412e+2, -7041.597, -94273.9, 4780.0083, 0.037392512, 0.19474584, -6780.452, -6780.452, 0.0, 5.014973, 4.95725 
4.487468e+2, 1.2152533e+2, -1711400.5, -1747168.6, -1718.9323, 0.013901767, 0.0014168301, -1711318.1, 37740.74, 0.0, 5.01391, 4.9906 
4.4874507e+2, 1.2651353e+2, -1668639.9, -1711338.0, 566.5402, -0.008064371, 0.018346788, -1668632.4, 31539.08, 0.0, 5.0140166, 4.986231 
4.4874647e+2, 1.3149856e+2, -1619405.6, -1662225.0, 580.16455, -0.0023050865, 0.005753655, -1619397.8, 31919.6, 0.0, 5.0140963, 4.9862304 
4.4874787e+2, 1.3648358e+2, -1572318.4, -1617520.3, 618.23083, 0.0034821045, -0.005612206, -1572310.0, 30153.531, 0.0, 5.0141754, 4.984769 
4.4874883e+2, 1.4146623e+2, -1529789.5, -1582134.5, 165.69608, 0.0074412785, 0.0006938513, -1529789.0, 23844.094, 0.0, 5.014235, 4.980151 
4.4874883e+2, 1.4644676e+2, -1480499.6, -1532648.3, 86.191216, 0.006560105, 0.00066512596, -1480499.5, 24324.203, 0.0, 5.014247, 4.9802876 
4.487488e+2, 1.5142728e+2, -1431416.0, -1483580.6, 113.30256, 0.0055366233, 0.0002726304, -1431415.8, 24598.834, 0.0, 5.014257, 4.980287 
4.4874877e+2, 1.5640777e+2, -1383730.1, -1437424.6, 150.8693, 0.004517231, 0.00033141454, -1383729.6, 23475.98, 0.0, 5.0142665, 4.9793134 
4.487488e+2, 1.6138446e+2, -1342943.5, -1405699.9, 150.59746, 0.003838209, 0.004954226, -1342943.1, 15490.607, 0.0, 5.0142736, 4.9735103 
4.4874886e+2, 1.6635785e+2, -1293821.8, -1356545.0, 157.58511, 0.004069472, 0.0013038944, -1293821.4, 15871.5205, 0.0, 5.014268, 4.973524 
4.4874898e+2, 1.7133127e+2, -1244720.8, -1307433.5, 164.22098, 0.0043524485, -0.0023624378, -1244720.3, 16231.796, 0.0, 5.0142612, 4.973524 
4.4874907e+2, 1.7630467e+2, -1196754.1, -1260722.0, 171.3403, 0.00464675, -0.005632619, -1196753.6, 15457.531, 0.0, 5.014254, 4.9727182 
4.4874913e+2, 1.8127444e+2, -1156814.4, -1231273.4, 130.7623, 0.0048261257, -0.00032883842, -1156814.1, 6692.5034, 0.0, 5.014292, 4.966054 
4.4874904e+2, 1.8624064e+2, -1107241.9, -1181929.1, 104.695724, 0.004356564, -0.0014433769, -1107241.6, 7597.2, 0.0, 5.0144286, 4.966039 
4.4874895e+2, 1.9120681e+2, -1057638.0, -1132540.0, 101.05582, 0.0038578932, -0.0026918643, -1057637.9, 8533.472, 0.0, 5.0145693, 4.9660397 
4.4874883e+2, 1.96173e+2, -1008929.06, -1085070.3, 97.6198, 0.0033699642, -0.0036263426, -1008928.94, 8574.805, 0.0, 5.01471, 4.9653897 
4.487489e+2, 2.0113555e+2, -968600.5, -1055410.8, 252.92038, 0.003403734, 0.0023051887, -968599.75, 271.50516, 0.0, 5.0147953, 4.958687 
4.487493e+2, 2.0609428e+2, -919362.75, -1005836.9, 234.22214, 0.0046667517, -0.0012873375, -919362.1, 912.21814, 0.0, 5.014721, 4.9588256 
4.487497e+2, 2.1105301e+2, -870341.44, -956687.44, 158.24744, 0.005996691, -0.0052456125, -870341.1, 1336.3698, 0.0, 5.014637, 4.958826 
4.4875008e+2, 2.1601173e+2, -821984.94, -908991.9, 82.10869, 0.0073303063, -0.009054593, -821984.9, 1095.7557, 0.0, 5.0145526, 4.9583263 
4.487506e+2, 2.2096694e+2, -782621.3, -881116.4, 97.815636, 0.009147576, -0.0031945421, -782621.2, -8101.5425, 0.0, 5.01449, 4.950994 
4.4875124e+2, 2.2591849e+2, -733136.4, -831377.06, 119.73819, 0.012189249, -0.0022603562, -733136.25, -7137.733, 0.0, 5.0144734, 4.951131 
4.4875193e+2, 2.3087005e+2, -683828.0, -782042.75, 141.44905, 0.015345642, -0.001373271, -683827.8, -6350.2827, 0.0, 5.014458, 4.951134 
4.4875258e+2, 2.3582162e+2, -635170.8, -734156.06, 164.89507, 0.018538313, -0.0005170533, -635170.5, -6213.9053, 0.0, 5.014442, 4.9506354 
4.487532e+2, 2.407698e+2, -595447.3, -706506.94, 36.772667, 0.022131188, 0.013325016, -595447.3, -14980.085, 0.0, 5.0144944, 4.943067 
4.4875374e+2, 2.4571423e+2, -544326.56, -655285.9, 66.57992, 0.026137115, 0.019395096, -544326.5, -12317.489, 0.0, 5.0148864, 4.943501 
4.487543e+2, 2.5065854e+2, -493677.47, -605334.9, 96.39407, 0.03013539, 0.023600733, -493677.4, -10125.985, 0.0, 5.0153136, 4.943494 
4.487548e+2, 2.556029e+2, -443286.66, -555960.2, 125.0752, 0.03420488, 0.02822696, -443286.5, -8193.036, 0.0, 5.015736, 4.9432883 
4.4875565e+2, 2.605423e+2, -404818.78, -534004.3, -374.5544, 0.043656327, 0.03856578, -404817.7, -18130.508, 0.0, 5.016236, 4.9333463 
4.487567e+2, 2.654757e+2, -352562.6, -481459.25, -749.2052, 0.061787553, 0.016970545, -352558.25, -14207.43, 0.0, 5.016796, 4.933973 
4.4875735e+2, 2.7040902e+2, -301180.75, -431015.2, -680.47406, 0.07890071, -0.0086975265, -301177.2, -11161.029, 0.0, 5.0173283, 4.934035 
4.4875774e+2, 2.7534223e+2, -249842.3, -380747.0, -510.81924, 0.09498474, -0.03735679, -249840.3, -8157.459, 0.0, 5.017844, 4.934049 
4.4876158e+2, 2.802746e+2, -217511.03, -377167.25, 4239.9575, 0.12439779, 0.028464371, -217398.52, -24042.238, 0.0, 5.019194, 4.917491 
4.4876388e+2, 2.8520477e+2, -156452.4, -298340.4, 2404.0056, 0.11000533, 0.07728061, -156411.69, -11368.052, 0.0, 5.019119, 4.927619 
4.4876283e+2, 2.9013205e+2, -109946.09, -250105.86, 2398.6597, 0.074077755, 0.057451215, -109905.06, -13146.315, 0.0, 5.018045, 4.9276094 
4.4876152e+2, 2.9505897e+2, -63384.902, -201886.97, 2515.6145, 0.038216446, 0.03343536, -63339.227, -14862.204, 0.0, 5.016936, 4.9275994 
4.4876048e+2, 3.0000153e+2, -8096.8105, -101095.85, 2847.9177, 0.012590296, 0.033383325, -8009.68, -7961.5117, 0.0, 5.0160303, 4.955477 
4.487576e+2, 3.049701e+2, -6542.405, -95140.28, 3777.6072, -0.0008063441, 0.10089888, -6381.628, -6381.628, 0.0, 5.0156226, 4.9570155 
4.4875312e+2, 3.099422e+2, -7033.1987, -93933.94, 4703.6836, -0.021913856, 0.18351276, -6779.3438, -6779.3438, 0.0, 5.015152, 4.957525 
4.4874772e+2, 3.1491545e+2, -7452.3105, -92799.63, 5726.9766, -0.04706582, 0.27132168, -7069.734, -7069.734, 0.0, 5.0146384, 4.9580336 
4.5376122e+2, 1.21525034e+2, -1711322.0, -1747004.9, -1516.0717, 0.019202894, -0.00096732867, -1711257.8, 37804.688, 0.0, 5.013909, 4.990654 
4.5375854e+2, 1.2651353e+2, -1668618.3, -1711289.8, 625.56006, -0.013649602, 0.018634148, -1668609.1, 31562.77, 0.0, 5.0140157, 4.9862466 
4.5376024e+2, 1.3149852e+2, -1619383.5, -1662177.8, 641.0577, -0.0056258915, 0.0054818196, -1619373.9, 31944.023, 0.0, 5.014096, 4.9862456 
4.5376194e+2, 1.364835e+2, -1572290.6, -1617463.4, 682.9673, 0.0024051513, -0.0064468505, -1572280.4, 30183.88, 0.0, 5.0141754, 4.9847875 
4.5376316e+2, 1.4146616e+2, -1529742.1, -1582036.9, 181.87204, 0.00809364, -0.00031865985, -1529741.5, 23892.092, 0.0, 5.014235, 4.9801836 
4.5376322e+2, 1.464468e+2, -1480449.3, -1532543.9, 93.57601, 0.007877076, 0.00037748652, -1480449.0, 24374.244, 0.0, 5.014247, 4.980322 
4.5376328e+2, 1.5142742e+2, -1431365.8, -1483476.4, 121.41007, 0.007475865, 0.00073929946, -1431365.5, 24647.71, 0.0, 5.014257, 4.980322 
4.537633e+2, 1.5640803e+2, -1383676.9, -1437314.3, 160.86075, 0.0070709307, 0.0015499088, -1383676.4, 23526.82, 0.0, 5.0142665, 4.9793506 
4.5376334e+2, 1.6138475e+2, -1342924.9, -1405659.8, 147.78957, 0.0065216166, 0.0063719265, -1342924.6, 15506.304, 0.0, 5.0142736, 4.973524 
4.5376334e+2, 1.6635805e+2, -1293812.0, -1356522.4, 151.97742, 0.0058459477, 0.0016313618, -1293811.6, 15879.3545, 0.0, 5.0142674, 4.9735317 
4.537633e+2, 1.7133136e+2, -1244710.9, -1307410.9, 159.63487, 0.0051710773, -0.0031809888, -1244710.5, 16240.486, 0.0, 5.014261, 4.973532 
4.537633e+2, 1.7630465e+2, -1196744.0, -1260698.6, 167.89845, 0.004492313, -0.0075984695, -1196743.6, 15467.412, 0.0, 5.014254, 4.9727263 
4.5376328e+2, 1.812744e+2, -1156817.0, -1231274.8, 211.35776, 0.0036364677, -0.0026567848, -1156816.4, 6690.349, 0.0, 5.0142913, 4.966054 
4.5376322e+2, 1.8624073e+2, -1107251.0, -1181943.1, 212.72964, 0.002001771, -0.00233613, -1107250.4, 7587.3853, 0.0, 5.0144277, 4.966035 
4.5376316e+2, 1.9120707e+2, -1057647.4, -1132553.6, 210.73105, 0.00031263987, -0.0020813725, -1057646.8, 8522.255, 0.0, 5.0145683, 4.9660354 
4.537631e+2, 1.9617338e+2, -1008938.56, -1085083.5, 208.92197, -0.001386061, -0.0015134437, -1008938.0, 8562.18, 0.0, 5.014709, 4.9653854 
4.537632e+2, 2.0113601e+2, -968704.2, -1055628.1, 238.38586, -0.0018339365, 0.0053349836, -968703.56, 163.76291, 0.0, 5.0147943, 4.958613 
4.5376366e+2, 2.0609458e+2, -919497.75, -1006123.75, 169.802, 0.0011081541, 0.0011321873, -919497.44, 774.89624, 0.0, 5.0147204, 4.958728 
4.5376417e+2, 2.1105313e+2, -870475.25, -956973.44, 95.85542, 0.004230836, -0.0035174047, -870475.1, 1202.3461, 0.0, 5.0146365, 4.958728 
4.5376465e+2, 2.1601169e+2, -822117.6, -909277.1, 21.751953, 0.0073343, -0.008018763, -822117.6, 965.0009, 0.0, 5.014552, 4.9582286 
4.5376518e+2, 2.209668e+2, -782642.8, -881143.9, 77.0778, 0.010333973, -0.0024666402, -782642.75, -8119.849, 0.0, 5.0144873, 4.950985 
4.5376578e+2, 2.2591844e+2, -733118.0, -831300.2, 118.09678, 0.012732729, -0.0009529489, -733117.9, -7116.8174, 0.0, 5.014468, 4.9511585 
4.5376635e+2, 2.308701e+2, -683814.0, -781965.06, 144.35373, 0.015063854, 0.0005572953, -683813.75, -6334.551, 0.0, 5.0144515, 4.9511623 
4.5376694e+2, 2.3582177e+2, -635161.06, -734077.56, 172.34781, 0.017381344, 0.0020534275, -635160.75, -6203.3594, 0.0, 5.014434, 4.9506645 
4.537675e+2, 2.4077e+2, -595469.3, -706396.94, 222.24936, 0.019804092, 0.016224833, -595468.9, -15001.405, 0.0, 5.0144725, 4.9431105 
4.5376828e+2, 2.4571428e+2, -544308.0, -655043.4, 380.498, 0.02195566, 0.02002221, -544306.7, -12296.271, 0.0, 5.0148597, 4.9435906 
4.5376903e+2, 2.5065842e+2, -493653.22, -605090.2, 418.147, 0.023991482, 0.021529429, -493651.66, -10097.331, 0.0, 5.015289, 4.943583 
4.5376977e+2, 2.556026e+2, -443256.7, -555713.25, 454.64874, 0.026017174, 0.023436172, -443254.84, -8156.9614, 0.0, 5.015713, 4.9433775 
4.5377102e+2, 2.60542e+2, -405046.4, -534163.7, 186.39714, 0.03439078, 0.033503715, -405046.13, -18353.791, 0.0, 5.016191, 4.933293 
4.5377296e+2, 2.6547644e+2, -353044.84, -481643.56, 20.834105, 0.053116277, 0.02271939, -353044.84, -14693.82, 0.0, 5.016679, 4.9339185 
4.537745e+2, 2.704111e+2, -301825.9, -431059.13, 176.67625, 0.06982535, 0.00979748, -301825.7, -11816.277, 0.0, 5.017143, 4.9340434 
4.537757e+2, 2.7534577e+2, -250650.16, -380650.53, 433.4416, 0.08452739, -0.0054266923, -250648.72, -8980.871, 0.0, 5.01759, 4.934121 
4.5378032e+2, 2.8027955e+2, -217430.73, -377072.13, 5018.8223, 0.10861448, 0.074082725, -217273.11, -23941.605, 0.0, 5.0192065, 4.9175563 
4.537821e+2, 2.8520924e+2, -155163.61, -296964.16, 1556.2682, 0.09423121, 0.11446495, -155146.53, -10126.888, 0.0, 5.0193496, 4.928101 
4.5378014e+2, 2.9013556e+2, -108736.08, -248502.23, 1681.9354, 0.061191466, 0.08003435, -108715.836, -11977.32, 0.0, 5.018237, 4.928164 
4.537779e+2, 2.950616e+2, -62254.473, -200056.45, 1929.843, 0.02712317, 0.041132927, -62227.453, -13767.261, 0.0, 5.0170903, 4.928227 
4.5377588e+2, 3.0000353e+2, -7527.146, -99907.65, 2787.8562, 0.00014778027, 0.030396588, -7443.091, -7410.069, 0.0, 5.016117, 4.9558883 
4.5377105e+2, 3.049743e+2, -6008.3394, -92980.484, 4231.1777, -0.0302849, 0.113342725, -5802.978, -5802.978, 0.0, 5.0155644, 4.957818 
4.5376426e+2, 3.099495e+2, -7004.3623, -92084.53, 5416.1465, -0.07392223, 0.21944667, -6660.96, -6660.96, 0.0, 5.014955, 4.958295 
4.5375645e+2, 3.1492612e+2, -7929.1206, -91260.45, 6698.5566, -0.124372624, 0.33497277, -7394.0947, -7394.0947, 0.0, 5.0143037, 4.9587717 
4.5877567e+2, 1.2152463e+2, -1711376.4, -1746746.9, -1271.9421, 0.024203733, -0.004328665, -1711330.6, 37736.332, 0.0, 5.013831, 4.9907765 
4.5877203e+2, 1.2651353e+2, -1668857.0, -1711375.0, 691.0328, -0.019094063, 0.018996337, -1668845.8, 31326.43, 0.0, 5.013931, 4.9862604 
4.5877403e+2, 1.3149847e+2, -1619698.6, -1662300.8, 693.2417, -0.008830852, 0.0052922317, -1619687.4, 31631.06, 0.0, 5.0139847, 4.986259 
4.58776e+2, 1.3648342e+2, -1572694.4, -1617621.6, 725.13855, 0.0014377757, -0.0071925363, -1572682.6, 29782.258, 0.0, 5.014033, 4.9848046 
4.5877743e+2, 1.4146608e+2, -1530194.6, -1582194.6, 169.42967, 0.00882855, -0.0012337937, -1530194.0, 23440.008, 0.0, 5.0140705, 4.980211 
4.5877758e+2, 1.4644682e+2, -1480873.0, -1532673.8, 65.948296, 0.00921267, 0.00013473269, -1480872.9, 23949.99, 0.0, 5.0140886, 4.9803553 
4.587777e+2, 1.5142755e+2, -1431772.8, -1483597.5, 86.55464, 0.009378417, 0.0011924775, -1431772.6, 24239.33, 0.0, 5.014104, 4.980355 
4.5877782e+2, 1.5640827e+2, -1384070.0, -1437423.0, 119.79364, 0.009540258, 0.0026983186, -1384069.8, 23131.275, 0.0, 5.0141172, 4.979386 
4.5877787e+2, 1.6138503e+2, -1343324.4, -1405828.8, 90.17106, 0.009100186, 0.007725324, -1343324.3, 15103.929, 0.0, 5.014134, 4.973534 
4.5877773e+2, 1.6635823e+2, -1294135.4, -1356661.6, 88.19979, 0.007542285, 0.0019344405, -1294135.3, 15553.847, 0.0, 5.014155, 4.973539 
4.5877764e+2, 1.7133144e+2, -1244961.6, -1307514.6, 91.90775, 0.0059473207, -0.003992233, -1244961.5, 15988.48, 0.0, 5.0141726, 4.973539 
4.5877752e+2, 1.7630464e+2, -1196932.5, -1260771.4, 96.11329, 0.004345846, -0.0095253065, -1196932.4, 15278.543, 0.0, 5.0141864, 4.9727335 
4.5877746e+2, 1.8127435e+2, -1157006.9, -1231371.3, 220.34843, 0.0025022575, -0.0048992, -1157006.3, 6500.5938, 0.0, 5.0142283, 4.966051 
4.587774e+2, 1.862408e+2, -1107532.6, -1182083.8, 255.40987, -0.0002603185, -0.0031991242, -1107531.8, 7305.054, 0.0, 5.0143332, 4.966031 
4.5877737e+2, 1.9120729e+2, -1058036.4, -1132744.6, 261.89206, -0.0030846244, -0.0015141946, -1058035.5, 8131.316, 0.0, 5.0144367, 4.9660316 
4.5877734e+2, 1.9617377e+2, -1009447.5, -1085330.3, 268.40845, -0.005920711, 0.00048462185, -1009446.56, 8050.206, 0.0, 5.0145354, 4.9653816 
4.5877746e+2, 2.0113643e+2, -969390.8, -1056129.9, 191.76646, -0.0068246303, 0.008298065, -969390.4, -526.87885, 0.0, 5.0145946, 4.958535 
4.5877802e+2, 2.0609486e+2, -920146.75, -1006646.2, 91.94094, -0.002313521, 0.0035333827, -920146.6, 123.69531, 0.0, 5.01454, 4.9586325 
4.5877862e+2, 2.1105325e+2, -871074.56, -957471.1, 35.6207, 0.0025130108, -0.001794256, -871074.5, 602.9355, 0.0, 5.014473, 4.9586325 
4.5877922e+2, 2.1601166e+2, -822686.75, -909759.0, -20.660185, 0.007325599, -0.0069750827, -822686.75, 397.82367, 0.0, 5.0143986, 4.958133 
4.5877978e+2, 2.2096668e+2, -783082.56, -881391.8, 80.59084, 0.011486366, -0.0016563969, -783082.5, -8556.459, 0.0, 5.014344, 4.9509645 
4.5878032e+2, 2.2591838e+2, -733417.44, -831390.3, 111.77338, 0.013228231, 0.00041486294, -733417.3, -7413.7705, 0.0, 5.0143557, 4.951177 
4.587808e+2, 2.3087013e+2, -684047.25, -782027.2, 103.105545, 0.014747803, 0.0024633554, -684047.1, -6566.166, 0.0, 5.0143623, 4.95118 
4.5878127e+2, 2.3582187e+2, -635355.6, -734123.94, 90.81136, 0.016237367, 0.0044912184, -635355.56, -6397.11, 0.0, 5.014359, 4.950681 
4.5878184e+2, 2.4077018e+2, -595682.1, -706459.2, 275.59015, 0.017567748, 0.019199556, -595681.44, -15213.494, 0.0, 5.0143948, 4.943123 
4.5878276e+2, 2.4571429e+2, -544564.2, -654960.56, 559.6735, 0.01801571, 0.02081411, -544561.3, -12549.162, 0.0, 5.0147367, 4.9436717 
4.587838e+2, 2.5065824e+2, -494064.34, -605072.9, 586.1861, 0.018304542, 0.019563753, -494061.25, -10503.63, 0.0, 5.0151124, 4.9436655 
4.587848e+2, 2.5560224e+2, -443837.38, -555766.6, 616.22064, 0.018559301, 0.018716687, -443834.0, -8731.268, 0.0, 5.0154786, 4.9434614 
4.587865e+2, 2.6054156e+2, -406282.44, -535074.44, 444.41214, 0.026493205, 0.02833408, -406280.9, -19582.314, 0.0, 5.0158463, 4.9331164 
4.5878917e+2, 2.6547688e+2, -355395.4, -483135.97, -8.199011, 0.046491522, 0.027103122, -355395.4, -17041.152, 0.0, 5.0159664, 4.9336805 
4.5879152e+2, 2.7041247e+2, -305694.44, -433205.06, -426.27002, 0.06402078, 0.024639213, -305693.03, -15684.1045, 0.0, 5.0158925, 4.933809 
4.5879352e+2, 2.753481e+2, -256463.17, -383627.34, -919.9904, 0.07927389, 0.019590294, -256456.52, -14792.662, 0.0, 5.0156484, 4.9338894 
4.587994e+2, 2.8028303e+2, -225430.81, -381457.38, 3646.729, 0.101942666, 0.114519246, -225345.63, -32025.596, 0.0, 5.016597, 4.917142 
4.588008e+2, 2.8521264e+2, -160227.8, -297381.88, -921.26294, 0.08591939, 0.1499087, -160221.61, -15217.093, 0.0, 5.0173225, 4.9287677 
4.5879775e+2, 2.9013836e+2, -112031.47, -248136.1, -217.49258, 0.052473113, 0.100795254, -112031.125, -15307.05, 0.0, 5.016839, 4.928828 
4.5879447e+2, 2.950638e+2, -64418.45, -199181.31, 371.9916, 0.017770667, 0.047100946, -64417.42, -15970.87, 0.0, 5.0161023, 4.928888 
4.5879143e+2, 3.0000538e+2, -10163.515, -100720.49, 1878.1825, -0.010644283, 0.027954383, -10124.577, -10105.711, 0.0, 5.0152555, 4.9558926 
4.5878476e+2, 3.049779e+2, -9197.298, -92189.266, 3909.7944, -0.053605042, 0.12139348, -9013.513, -9013.513, 0.0, 5.0141983, 4.958547 
4.587758e+2, 3.0995548e+2, -12904.563, -92168.25, 6126.9404, -0.113338605, 0.2375844, -12433.759, -12433.759, 0.0, 5.012596, 4.959117 
4.587658e+2, 3.1493452e+2, -17796.195, -92748.36, 9248.042, -0.18056475, 0.36312953, -16671.98, -16671.98, 0.0, 5.010503, 4.9596877 
4.6378976e+2, 1.2152459e+2, -1710643.1, -1746675.3, -547.3503, 0.025487345, -0.006348374, -1710634.9, 38432.027, 0.0, 5.014136, 4.9906507 
4.6378574e+2, 1.2651369e+2, -1668193.5, -1711114.6, 890.90265, -0.022263367, 0.019595545, -1668175.0, 31995.27, 0.0, 5.0141644, 4.986232 
4.637879e+2, 1.3149862e+2, -1619372.9, -1662206.5, 855.7694, -0.009886492, 0.0060144756, -1619355.8, 31961.127, 0.0, 5.0141068, 4.986231 
4.637901e+2, 1.3648355e+2, -1572681.5, -1617672.4, 850.63226, 0.002534615, -0.006355949, -1572665.5, 29798.355, 0.0, 5.014049, 4.98478 
4.6379167e+2, 1.4146619e+2, -1530335.6, -1582253.4, 287.54788, 0.011155612, -0.00047764648, -1530334.1, 23299.217, 0.0, 5.014021, 4.980216 
4.6379176e+2, 1.4644691e+2, -1480990.9, -1532713.5, 168.77153, 0.01080032, 0.00060911156, -1480990.4, 23831.783, 0.0, 5.0140452, 4.9803634 
4.6379182e+2, 1.5142761e+2, -1431861.5, -1483623.0, 165.978, 0.010180664, 0.0013944078, -1431861.0, 24150.213, 0.0, 5.01407, 4.980363 
4.6379188e+2, 1.5640831e+2, -1384120.5, -1437424.6, 177.27385, 0.009573406, 0.0026330175, -1384119.9, 23080.4, 0.0, 5.014095, 4.979396 
4.637919e+2, 1.6138507e+2, -1343310.4, -1405820.4, 152.81874, 0.008556796, 0.0073591, -1343310.0, 15117.508, 0.0, 5.0141377, 4.9735355 
4.6379185e+2, 1.6635825e+2, -1293961.1, -1356590.3, 145.95114, 0.006851917, 0.0013133961, -1293960.9, 15727.894, 0.0, 5.0142164, 4.9735336 
4.637918e+2, 1.713314e+2, -1244605.9, -1307356.0, 137.45103, 0.0051508653, -0.0048550013, -1244605.6, 16344.312, 0.0, 5.0142956, 4.9735336 
4.637917e+2, 1.7630458e+2, -1196385.6, -1260521.1, 129.7965, 0.003468862, -0.010628979, -1196385.4, 15825.7295, 0.0, 5.014375, 4.9727287 
4.637917e+2, 1.812743e+2, -1156374.8, -1231009.4, 246.45735, 0.001546184, -0.006112611, -1156374.0, 7133.0356, 0.0, 5.014431, 4.9660773 
4.6379167e+2, 1.8624082e+2, -1107242.9, -1181884.6, 298.57474, -0.001263872, -0.0039633666, -1107241.8, 7594.5176, 0.0, 5.0144186, 4.9660587 
4.6379167e+2, 1.9120736e+2, -1058092.9, -1132710.5, 328.0084, -0.0040927166, -0.0017737693, -1058091.4, 8074.086, 0.0, 5.0144033, 4.966059 
4.6379167e+2, 1.9617392e+2, -1009834.75, -1085453.1, 357.56323, -0.0068958513, 0.0007378549, -1009833.06, 7661.6353, 0.0, 5.0143876, 4.9654093 
4.637918e+2, 2.0113665e+2, -970039.25, -1056441.8, 288.30045, -0.007848843, 0.008865357, -970038.25, -1177.1984, 0.0, 5.0143695, 4.9585342 
4.6379226e+2, 2.0609507e+2, -920772.56, -1007003.44, 230.45993, -0.0037340745, 0.004255284, -920771.94, -503.5023, 0.0, 5.014334, 4.9586067 
4.6379274e+2, 2.1105345e+2, -871609.2, -957784.5, 230.28851, 0.0007313618, -0.0008831795, -871608.6, 67.50709, 0.0, 5.0142975, 4.9586067 
4.6379328e+2, 2.1601184e+2, -823111.9, -910020.6, 229.71478, 0.005246199, -0.005872585, -823111.25, -27.484385, 0.0, 5.0142603, 4.9581075 
4.6379378e+2, 2.2096686e+2, -783338.75, -881549.94, 438.0227, 0.008964795, -0.00029097547, -783336.8, -8811.281, 0.0, 5.014259, 4.9509506 
4.637943e+2, 2.259186e+2, -733440.25, -831475.56, 482.43832, 0.009636139, 0.0024394977, -733437.9, -7435.3857, 0.0, 5.014356, 4.9511504 
4.6379474e+2, 2.308704e+2, -683793.25, -781997.25, 455.8977, 0.010085033, 0.0051455535, -683791.1, -6311.588, 0.0, 5.014459, 4.95115 
4.6379519e+2, 2.3582214e+2, -634799.0, -733969.3, 432.18042, 0.010555631, 0.007774087, -634797.1, -5840.449, 0.0, 5.0145617, 4.9506474 
4.6379578e+2, 2.4077034e+2, -594672.44, -705781.44, 765.1997, 0.011097787, 0.021222306, -594667.1, -14200.125, 0.0, 5.014677, 4.943239 
4.6379703e+2, 2.4571423e+2, -543996.5, -654467.75, 1182.4225, 0.011978244, 0.019127829, -543983.9, -11970.108, 0.0, 5.014855, 4.943802 
4.6379834e+2, 2.5065798e+2, -494049.34, -604822.8, 1286.9071, 0.012968616, 0.014539807, -494034.38, -10472.981, 0.0, 5.0150356, 4.9438 
4.6379966e+2, 2.5560176e+2, -444355.25, -555749.3, 1388.6826, 0.0140365865, 0.010484861, -444337.94, -9229.358, 0.0, 5.015213, 4.943599 
4.6380162e+2, 2.6054138e+2, -406965.8, -534915.25, 1595.7444, 0.021882316, 0.020551277, -406945.9, -20243.605, 0.0, 5.0154567, 4.93338 
4.6380448e+2, 2.6547787e+2, -355749.8, -483395.6, 2062.9907, 0.039551906, 0.031257525, -355716.47, -17369.049, 0.0, 5.0157228, 4.9337864 
4.6380702e+2, 2.7041444e+2, -305145.34, -433441.97, 2714.6147, 0.055669397, 0.039233763, -305087.94, -15093.801, 0.0, 5.0159583, 4.933822 
4.638092e+2, 2.7535066e+2, -254561.11, -383673.94, 3470.6404, 0.07065934, 0.04208147, -254467.88, -12823.8, 0.0, 5.016182, 4.9338098 
4.638148e+2, 2.802851e+2, -223744.25, -377052.8, 9399.135, 0.090069376, 0.12528706, -223170.16, -29864.836, 0.0, 5.01655, 4.918657 
4.6381536e+2, 2.852137e+2, -164211.11, -297453.16, 3648.536, 0.070462845, 0.1435074, -164111.28, -19116.49, 0.0, 5.015904, 4.9291706 
4.638118e+2, 2.9013878e+2, -117495.336, -249360.2, 2550.5483, 0.037435293, 0.087817565, -117446.02, -20731.068, 0.0, 5.014896, 4.929081 
4.63808e+2, 2.9506344e+2, -70717.37, -201288.64, 1550.1243, 0.0046544466, 0.027162513, -70698.97, -22259.494, 0.0, 5.013866, 4.928991 
4.638044e+2, 3.0000514e+2, -14667.807, -99080.79, 2199.646, -0.022298025, 0.004302914, -14610.526, -14605.541, 0.0, 5.0129933, 4.957385 
4.6379694e+2, 3.0497903e+2, -11400.606, -88665.33, 4111.3594, -0.067272104, 0.0985638, -11182.451, -11182.451, 0.0, 5.012585, 4.96052 
4.637873e+2, 3.0995756e+2, -11308.88, -85924.62, 5502.129, -0.12538198, 0.20827582, -10905.338, -10905.338, 0.0, 5.012154, 4.9615245 
4.637768e+2, 3.1493762e+2, -11067.592, -83335.19, 7068.6543, -0.18707246, 0.32030088, -10382.682, -10382.682, 0.0, 5.0116982, 4.9625297 
4.6880382e+2, 1.2152469e+2, -1710926.5, -1747241.8, 3.751152, 0.024790913, -0.0084314365, -1710926.5, 38138.24, 0.0, 5.0141344, 4.990465 
4.6879965e+2, 1.26514e+2, -1668264.4, -1711251.6, 844.60266, -0.024713477, 0.020378362, -1668247.8, 31918.924, 0.0, 5.014163, 4.986187 
4.6880198e+2, 1.3149895e+2, -1619442.0, -1662344.0, 811.3778, -0.010155811, 0.007153225, -1619426.6, 31887.234, 0.0, 5.0141063, 4.986186 
4.6880433e+2, 1.3648386e+2, -1572743.9, -1617800.3, 809.8751, 0.00442347, -0.004867383, -1572729.3, 29731.986, 0.0, 5.0140486, 4.984738 
4.6880597e+2, 1.4146647e+2, -1530346.5, -1582276.0, 292.97318, 0.014066381, 0.00096383825, -1530344.9, 23286.4, 0.0, 5.014021, 4.9802084 
4.6880597e+2, 1.464471e+2, -1480994.8, -1532721.8, 187.92192, 0.012429977, 0.0013929909, -1480994.1, 23826.402, 0.0, 5.0140452, 4.9803605 
4.688059e+2, 1.5142775e+2, -1431865.3, -1483631.1, 185.87335, 0.010449812, 0.0015113754, -1431864.6, 24145.338, 0.0, 5.01407, 4.9803605 
4.6880585e+2, 1.5640837e+2, -1384120.4, -1437425.0, 199.32114, 0.008474279, 0.0020819502, -1384119.6, 23079.74, 0.0, 5.014095, 4.979396 
4.6880585e+2, 1.6138507e+2, -1343317.8, -1405834.5, 202.68948, 0.0065720943, 0.006311712, -1343317.1, 15109.854, 0.0, 5.0141377, 4.9735312 
4.6880588e+2, 1.6635825e+2, -1293976.1, -1356620.1, 206.30286, 0.0050669224, 0.00031625858, -1293975.4, 15712.801, 0.0, 5.014216, 4.973524 
4.688059e+2, 1.713314e+2, -1244620.5, -1307385.5, 198.91995, 0.0035896208, -0.0057700686, -1244619.9, 16329.633, 0.0, 5.0142956, 4.9735246 
4.6880594e+2, 1.7630456e+2, -1196399.3, -1260549.0, 192.63123, 0.0021159651, -0.011463839, -1196398.8, 15811.989, 0.0, 5.0143747, 4.9727197 
4.68806e+2, 1.812743e+2, -1156325.0, -1230902.3, 254.56638, 0.00045035625, -0.006955301, -1156324.1, 7182.3994, 0.0, 5.0144305, 4.9661136 
4.6880603e+2, 1.8624088e+2, -1107188.3, -1181766.5, 287.3894, -0.0019078928, -0.0047003855, -1107187.1, 7648.093, 0.0, 5.0144186, 4.9660993 
4.6880603e+2, 1.9120747e+2, -1058038.8, -1132592.6, 318.5231, -0.0042913784, -0.0023714341, -1058037.4, 8126.543, 0.0, 5.014403, 4.9660997 
4.6880606e+2, 1.9617409e+2, -1009781.1, -1085335.4, 349.78006, -0.0066693136, 0.00027723997, -1009779.5, 7712.9917, 0.0, 5.014387, 4.96545 
4.6880618e+2, 2.0113686e+2, -970009.94, -1056366.4, 264.40335, -0.0075730667, 0.00851297, -970009.1, -1150.711, 0.0, 5.0143676, 4.9585605 
4.688065e+2, 2.0609532e+2, -920774.7, -1006995.0, 201.54753, -0.004571322, 0.0043332563, -920774.2, -508.46362, 0.0, 5.0143323, 4.958611 
4.6880686e+2, 2.1105376e+2, -871610.6, -957776.56, 203.83311, -0.0013278599, -0.00031867484, -871610.1, 63.317898, 0.0, 5.014296, 4.9586105 
4.6880722e+2, 2.160122e+2, -823112.5, -910013.2, 205.71971, 0.0019364374, -0.0048255967, -823112.0, -30.895107, 0.0, 5.014259, 4.958111 
4.688076e+2, 2.2096725e+2, -783358.6, -881576.1, 485.69977, 0.0043961513, 0.0012127107, -783356.25, -8833.538, 0.0, 5.014256, 4.950943 
4.6880808e+2, 2.2591905e+2, -733488.9, -831550.4, 571.7997, 0.0038212945, 0.004618819, -733485.56, -7486.402, 0.0, 5.0143514, 4.9511266 
4.6880853e+2, 2.3087084e+2, -683844.2, -782065.56, 551.1874, 0.0029714678, 0.008045999, -683841.06, -6365.5273, 0.0, 5.0144534, 4.951128 
4.6880895e+2, 2.3582266e+2, -634852.3, -734031.1, 533.3915, 0.0020873754, 0.011390129, -634849.44, -5897.3623, 0.0, 5.0145545, 4.9506283 
4.688096e+2, 2.4077077e+2, -594496.5, -705253.3, 904.6499, 0.0017271197, 0.023361638, -594489.06, -14025.978, 0.0, 5.0146594, 4.943424 
4.6881112e+2, 2.4571441e+2, -543827.9, -653917.9, 1314.8618, 0.003803778, 0.016925719, -543812.2, -11799.684, 0.0, 5.0148315, 4.9439974 
4.6881276e+2, 2.5065795e+2, -493883.94, -604280.56, 1426.265, 0.006157854, 0.00840112, -493865.5, -10302.953, 0.0, 5.015012, 4.943993 
4.6881437e+2, 2.5560156e+2, -444193.0, -555214.56, 1534.9543, 0.008529079, 0.0004938957, -444171.78, -9059.734, 0.0, 5.0151887, 4.943791 
4.6881646e+2, 2.605415e+2, -406272.13, -532984.4, 1895.8958, 0.015365845, 0.010388681, -406243.75, -19541.27, 0.0, 5.015407, 4.9340754 
4.6881896e+2, 2.654799e+2, -355044.6, -480887.5, 2567.3025, 0.024306087, 0.033621177, -354992.22, -16663.693, 0.0, 5.015604, 4.9347215 
4.6882108e+2, 2.7041855e+2, -304580.3, -430745.4, 3323.5183, 0.030376213, 0.055444743, -304492.8, -14538.672, 0.0, 5.0157757, 4.9348326 
4.6882284e+2, 2.7535704e+2, -254136.5, -380789.1, 4184.0327, 0.034630697, 0.072475664, -253998.42, -12416.623, 0.0, 5.015936, 4.9348965 
4.6882758e+2, 2.8029218e+2, -221941.73, -372651.22, 8698.946, 0.044213913, 0.14771305, -221441.3, -28206.578, 0.0, 5.016518, 4.920247 
4.6882766e+2, 2.8521818e+2, -164563.7, -299462.66, 2768.9055, 0.031073196, 0.1413893, -164506.89, -19562.26, 0.0, 5.016071, 4.9285293 
4.6882397e+2, 2.901409e+2, -117844.56, -251130.11, 1795.833, 0.007174029, 0.072158806, -117820.375, -21138.25, 0.0, 5.015049, 4.928504 
4.6882004e+2, 2.950632e+2, -71064.164, -202819.9, 920.43994, -0.017227149, -0.0026910617, -71057.734, -22633.766, 0.0, 5.014005, 4.9284787 
4.6881613e+2, 3.000039e+2, -12379.215, -93717.72, 1619.2113, -0.038612098, -0.03674016, -12346.994, -12346.994, 0.0, 5.013053, 4.9593644 
4.6880814e+2, 3.0497935e+2, -9377.822, -82411.09, 3876.238, -0.08603669, 0.05975466, -9172.667, -9172.667, 0.0, 5.012433, 4.963061 
4.6879798e+2, 3.0995953e+2, -9893.65, -79830.0, 5641.3345, -0.14852813, 0.17731644, -9441.521, -9441.521, 0.0, 5.0118146, 4.9640956 
4.6878687e+2, 3.149417e+2, -10260.804, -77399.22, 7582.1016, -0.21619606, 0.3018377, -9415.189, -9415.189, 0.0, 5.011171, 4.9651313 
4.7381788e+2, 1.2152466e+2, -1711086.0, -1747555.3, 553.1589, 0.023898873, -0.011616939, -1711077.6, 37986.297, 0.0, 5.014133, 4.9903626 
4.7381356e+2, 1.2651433e+2, -1668335.8, -1711388.1, 799.07117, -0.027170172, 0.021236679, -1668320.9, 31842.137, 0.0, 5.014162, 4.986142 
4.7381607e+2, 1.3149925e+2, -1619511.5, -1662481.1, 767.7548, -0.010426252, 0.008337725, -1619497.9, 31812.898, 0.0, 5.0141053, 4.9861407 
4.7381857e+2, 1.3648415e+2, -1572806.8, -1617927.9, 769.8599, 0.0063166493, -0.0033628263, -1572793.6, 29665.115, 0.0, 5.0140486, 4.9846954 
4.7382027e+2, 1.4146674e+2, -1530362.9, -1582309.6, 298.1694, 0.016977528, 0.0024255377, -1530361.1, 23268.047, 0.0, 5.014021, 4.9801974 
4.7382015e+2, 1.4644732e+2, -1480998.9, -1532729.9, 207.05098, 0.01405866, 0.0021911797, -1480998.0, 23820.805, 0.0, 5.0140452, 4.980358 
4.7382e+2, 1.5142787e+2, -1431869.3, -1483639.1, 205.74736, 0.010718351, 0.0016294243, -1431868.4, 24140.254, 0.0, 5.01407, 4.9803576 
4.7381985e+2, 1.5640843e+2, -1384120.6, -1437425.3, 221.35075, 0.0073749106, 0.0015187373, -1384119.8, 23078.885, 0.0, 5.014095, 4.979396 
4.738198e+2, 1.6138509e+2, -1343329.8, -1405857.6, 252.12955, 0.0045898627, 0.005285356, -1343328.8, 15097.691, 0.0, 5.0141373, 4.9735236 
4.738199e+2, 1.6635825e+2, -1293991.4, -1356649.9, 266.57004, 0.0032826096, -0.00066131365, -1293990.3, 15697.469, 0.0, 5.0142155, 4.9735146 
4.7382003e+2, 1.713314e+2, -1244635.4, -1307414.8, 260.30435, 0.0020263104, -0.006681098, -1244634.3, 16314.724, 0.0, 5.014295, 4.9735146 
4.7382018e+2, 1.7630456e+2, -1196413.3, -1260576.5, 255.38617, 0.00075825496, -0.012310188, -1196412.3, 15798.033, 0.0, 5.0143747, 4.9727106 
4.7382033e+2, 1.8127431e+2, -1156281.3, -1230807.1, 262.39508, -0.0006446354, -0.00777017, -1156280.3, 7225.722, 0.0, 5.0144305, 4.966146 
4.738204e+2, 1.8624094e+2, -1107134.0, -1181648.0, 276.11307, -0.0025477305, -0.005417055, -1107133.0, 7701.188, 0.0, 5.014418, 4.9661393 
4.7382045e+2, 1.9120759e+2, -1057985.0, -1132474.4, 308.94675, -0.0044850847, -0.002976581, -1057983.8, 8178.5313, 0.0, 5.0144024, 4.96614 
4.738205e+2, 1.9617423e+2, -1009727.9, -1085217.4, 341.9058, -0.0064370474, -0.00021868842, -1009726.4, 7763.891, 0.0, 5.0143867, 4.96549 
4.738206e+2, 2.0113705e+2, -969992.8, -1056316.3, 239.03737, -0.0072922357, 0.008222785, -969992.1, -1136.4368, 0.0, 5.014366, 4.958578 
4.7382078e+2, 2.0609558e+2, -920777.5, -1006986.06, 173.02216, -0.005400532, 0.004482891, -920777.2, -514.13574, 0.0, 5.0143304, 4.9586143 
4.7382095e+2, 2.1105406e+2, -871612.7, -957768.06, 177.76476, -0.0033758355, 0.0002766545, -871612.3, 58.431976, 0.0, 5.014294, 4.958614 
4.7382113e+2, 2.1601254e+2, -823113.8, -910005.2, 182.11174, -0.0013588693, -0.0037886212, -823113.4, -34.98833, 0.0, 5.0142574, 4.958114 
4.7382143e+2, 2.2096765e+2, -783395.2, -881636.25, 530.666, -0.00016381741, 0.002752905, -783392.3, -8872.439, 0.0, 5.0142536, 4.9509225 
4.7382188e+2, 2.2591949e+2, -733539.06, -831624.0, 657.8002, -0.0020173632, 0.006775279, -733534.6, -7538.84, 0.0, 5.014347, 4.951102 
4.738223e+2, 2.3087132e+2, -683896.6, -782132.6, 643.1167, -0.0041976073, 0.010812603, -683892.44, -6420.8184, 0.0, 5.0144477, 4.9511056 
4.738227e+2, 2.3582315e+2, -634907.1, -734091.7, 631.2425, -0.0064680846, 0.014761349, -634903.06, -5955.556, 0.0, 5.014547, 4.950608 
4.738234e+2, 2.4077122e+2, -594364.5, -704813.75, 1033.137, -0.0076886965, 0.025773449, -594354.9, -13895.922, 0.0, 5.014642, 4.9435773 
4.7382522e+2, 2.4571465e+2, -543664.25, -653363.25, 1449.2013, -0.004376861, 0.015189988, -543645.1, -11634.29, 0.0, 5.0148087, 4.9441915 
4.7382715e+2, 2.5065795e+2, -493723.56, -603733.5, 1567.5219, -0.000648552, 0.002587787, -493701.22, -10137.84, 0.0, 5.0149884, 4.9441857 
4.7382903e+2, 2.5560135e+2, -444035.78, -554675.06, 1683.1237, 0.0030364564, -0.009312758, -444010.2, -8894.905, 0.0, 5.015165, 4.9439816 
4.738313e+2, 2.6054153e+2, -405713.66, -531321.94, 2120.5, 0.009185071, -0.00022390224, -405677.88, -18974.258, 0.0, 5.015358, 4.9346633 
4.7383332e+2, 2.654817e+2, -354360.16, -478364.56, 2956.4136, 0.008760857, 0.033539176, -354289.72, -15978.029, 0.0, 5.0154853, 4.935628 
4.738349e+2, 2.7042243e+2, -304035.7, -428033.94, 3817.2156, 0.0038672856, 0.06720569, -303918.28, -14001.527, 0.0, 5.0155935, 4.935815 
4.738361e+2, 2.7536306e+2, -253731.98, -377889.22, 4782.203, -0.0035299785, 0.09641551, -253548.06, -12025.3125, 0.0, 5.01569, 4.9359546 
4.7384033e+2, 2.8029934e+2, -221247.23, -370795.38, 8200.671, -0.0008605276, 0.17191403, -220798.88, -27635.61, 0.0, 5.016486, 4.9209375 
4.7384027e+2, 2.8522298e+2, -164951.61, -301440.3, 1765.4763, -0.0055924645, 0.14633952, -164928.78, -20037.855, 0.0, 5.0162377, 4.927861 
4.7383642e+2, 2.9014325e+2, -118228.91, -252867.7, 917.29065, -0.021338971, 0.060727492, -118222.66, -21575.717, 0.0, 5.015202, 4.9279003 
4.738323e+2, 2.9506308e+2, -71445.86, -204318.36, 166.88493, -0.038336303, -0.031157669, -71445.65, -23038.35, 0.0, 5.0141444, 4.9279394 
4.738281e+2, 3.0000225e+2, -10753.4, -89797.94, 918.98816, -0.0535312, -0.07934319, -10742.718, -10742.718, 0.0, 5.013113, 4.9607882 
4.7381946e+2, 3.0497873e+2, -7394.7246, -76126.06, 3584.7146, -0.10142849, 0.011333156, -7208.268, -7208.268, 0.0, 5.0122814, 4.9655066 
4.7380853e+2, 3.0996025e+2, -8517.678, -73703.99, 5723.46, -0.16715994, 0.1265333, -8018.965, -8018.965, 0.0, 5.011475, 4.9665713 
4.7379664e+2, 3.1494412e+2, -9493.05, -71431.17, 8037.8066, -0.23966317, 0.2533356, -8466.969, -8466.969, 0.0, 5.010644, 4.9676366 
4.7883192e+2, 1.21524535e+2, -1711458.5, -1747808.5, 1017.15424, 0.02287402, -0.015553319, -1711430.0, 37634.094, 0.0, 5.0140247, 4.990332 
4.788275e+2, 1.2651466e+2, -1668726.4, -1711684.8, 670.51117, -0.02929749, 0.02218481, -1668715.9, 31443.656, 0.0, 5.0140553, 4.986097 
4.7883013e+2, 1.3149956e+2, -1619890.5, -1662770.4, 642.05615, -0.010578164, 0.009556364, -1619880.9, 31426.826, 0.0, 5.014002, 4.9860954 
4.7883278e+2, 1.3648443e+2, -1573187.4, -1618208.6, 650.83844, 0.008134169, -0.0018664105, -1573178.0, 29278.324, 0.0, 5.0139422, 4.984654 
4.7883457e+2, 1.4146698e+2, -1530713.3, -1582513.1, 230.29887, 0.019701459, 0.0038743543, -1530712.3, 22914.996, 0.0, 5.013911, 4.980183 
4.7883436e+2, 1.464475e+2, -1481318.5, -1532892.0, 153.77138, 0.015555433, 0.002956059, -1481318.0, 23499.344, 0.0, 5.0139394, 4.9803553 
4.788341e+2, 1.5142798e+2, -1432178.6, -1483795.8, 152.54402, 0.0109239295, 0.0016901885, -1432178.1, 23829.4, 0.0, 5.0139675, 4.980355 
4.7883382e+2, 1.5640846e+2, -1384421.5, -1437571.3, 169.53642, 0.0062888204, 0.0008776254, -1384421.0, 22776.875, 0.0, 5.0139937, 4.9793954 
4.788337e+2, 1.6138507e+2, -1343670.9, -1406049.1, 223.5748, 0.0026774702, 0.004224106, -1343670.0, 14755.963, 0.0, 5.014028, 4.973512 
4.7883394e+2, 1.6635823e+2, -1294413.9, -1356879.5, 239.52116, 0.0015668538, -0.0016203917, -1294413.0, 15274.363, 0.0, 5.014078, 4.973503 
4.7883418e+2, 1.7133139e+2, -1245152.6, -1307688.8, 224.8087, 0.0005435777, -0.007531117, -1245151.9, 15796.839, 0.0, 5.0141253, 4.9735036 
4.7883442e+2, 1.7630455e+2, -1197036.4, -1260899.0, 211.82942, -0.00049024797, -0.013052624, -1197035.8, 15174.284, 0.0, 5.014168, 4.9726996 
4.7883466e+2, 1.8127431e+2, -1156931.5, -1231053.9, 160.85822, -0.0016023557, -0.008425976, -1156931.1, 6574.4165, 0.0, 5.0141954, 4.966173 
4.7883472e+2, 1.8624099e+2, -1107768.3, -1181858.8, 153.03506, -0.0030702327, -0.006053062, -1107768.0, 7065.258, 0.0, 5.0141826, 4.9661784 
4.788348e+2, 1.9120768e+2, -1058630.9, -1132690.0, 182.92471, -0.0045670695, -0.0036002742, -1058630.4, 7530.4146, 0.0, 5.014162, 4.966179 
4.788349e+2, 1.9617437e+2, -1010400.3, -1085444.8, 212.25359, -0.0060791043, -0.0008305629, -1010399.7, 7088.594, 0.0, 5.014137, 4.965529 
4.78835e+2, 2.0113724e+2, -970710.9, -1056630.8, 94.81061, -0.006878292, 0.007859248, -970710.75, -1857.4921, 0.0, 5.0141144, 4.9585876 
4.7883502e+2, 2.0609583e+2, -921420.25, -1007275.1, 35.986584, -0.0061238385, 0.004592128, -921420.25, -1159.7446, 0.0, 5.0141063, 4.9586186 
4.7883505e+2, 2.1105435e+2, -872185.75, -958023.1, 51.098362, -0.005322887, 0.0008244165, -872185.7, -517.5089, 0.0, 5.0140934, 4.9586186 
4.7883508e+2, 2.1601288e+2, -823636.4, -910235.1, 67.141525, -0.0045340993, -0.002805114, -823636.3, -560.4807, 0.0, 5.0140743, 4.9581184 
4.7883523e+2, 2.2096804e+2, -783949.0, -881961.3, 494.02216, -0.004576021, 0.0042904424, -783946.5, -9429.3125, 0.0, 5.0140753, 4.9508924 
4.7883564e+2, 2.2591989e+2, -734175.44, -831975.75, 667.63354, -0.0076732016, 0.008813994, -734170.9, -8178.253, 0.0, 5.0141377, 4.951075 
4.7883606e+2, 2.3087175e+2, -684669.1, -782543.0, 660.74146, -0.011077143, 0.013285034, -684664.6, -7196.6567, 0.0, 5.0141897, 4.9510794 
4.7883645e+2, 2.358236e+2, -635856.75, -734578.6, 652.8142, -0.014556332, 0.017650973, -635852.44, -6908.9775, 0.0, 5.0142264, 4.9505825 
4.788372e+2, 2.4077164e+2, -595375.75, -705017.56, 1060.4045, -0.016388994, 0.028172623, -595365.44, -14910.49, 0.0, 5.0142403, 4.9436855 
4.788393e+2, 2.4571486e+2, -544911.06, -653524.9, 1406.2336, -0.0117888395, 0.013894406, -544892.9, -12883.638, 0.0, 5.014296, 4.944363 
4.7884148e+2, 2.5065795e+2, -495335.78, -604068.06, 1434.57, -0.006601354, -0.0026348245, -495316.84, -11752.568, 0.0, 5.0143476, 4.944355 
4.788437e+2, 2.5560114e+2, -446055.63, -555199.6, 1457.6393, -0.001433953, -0.018395403, -446036.2, -10917.501, 0.0, 5.014381, 4.9441485 
4.7884607e+2, 2.605414e+2, -408093.78, -531447.25, 1736.4254, 0.0047836923, -0.010576849, -408069.34, -21363.035, 0.0, 5.0143456, 4.9350634 
4.788476e+2, 2.6548305e+2, -358119.06, -478411.97, 2162.857, -0.003601808, 0.031077437, -358080.2, -19780.666, 0.0, 5.0138593, 4.936312 
4.7884858e+2, 2.7042535e+2, -310222.5, -429134.3, 2352.275, -0.017232675, 0.07316672, -310175.97, -20287.723, 0.0, 5.013102, 4.9365044 
4.7884917e+2, 2.7536756e+2, -262965.3, -380301.94, 2423.8865, -0.033091396, 0.11043675, -262915.25, -21437.121, 0.0, 5.012109, 4.936649 
4.7885343e+2, 2.8030488e+2, -234314.22, -376882.72, 4527.307, -0.031303365, 0.19158068, -234170.6, -41063.465, 0.0, 5.0119395, 4.9207706 
4.7885346e+2, 2.8522685e+2, -175489.36, -307053.63, -1849.0842, -0.029400857, 0.15359522, -175463.38, -30616.834, 0.0, 5.012761, 4.9273396 
4.7884932e+2, 2.90145e+2, -125605.86, -257082.42, -2105.3518, -0.041311827, 0.051834427, -125572.16, -28954.26, 0.0, 5.012851, 4.92737 
4.7884494e+2, 2.9506272e+2, -76578.37, -207540.88, -2473.0115, -0.054069884, -0.05658411, -76531.69, -28137.69, 0.0, 5.0125995, 4.9274006 
4.7884047e+2, 3.0000028e+2, -13451.326, -89125.2, -1724.5299, -0.063285425, -0.11906824, -13412.047, -13412.047, 0.0, 5.011904, 4.961497 
4.7883117e+2, 3.0497682e+2, -11214.966, -72906.805, 684.61115, -0.10649913, -0.045056485, -11207.369, -11207.369, 0.0, 5.010106, 4.967555 
4.788195e+2, 3.099584e+2, -17106.49, -72343.16, 2755.2383, -0.16794094, 0.050143667, -16969.398, -16969.398, 0.0, 5.007552, 4.9686747 
4.7880685e+2, 3.149425e+2, -24655.158, -72688.26, 5329.7065, -0.23502901, 0.15736379, -24070.885, -24070.885, 0.0, 5.0043206, 4.969796 
4.8384595e+2, 1.2152476e+2, -1710936.1, -1747962.9, 1403.167, 0.021920422, -0.014435395, -1710883.0, 38178.246, 0.0, 5.0142813, 4.990157 
4.8384202e+2, 1.2651482e+2, -1668124.6, -1711459.5, 591.2996, -0.025362628, 0.023089647, -1668116.6, 32041.219, 0.0, 5.014266, 4.9860682 
4.838444e+2, 1.314997e+2, -1619368.6, -1662578.1, 577.49084, -0.008607821, 0.010524997, -1619360.9, 31945.639, 0.0, 5.014187, 4.986069 
4.8384678e+2, 1.3648456e+2, -1572722.3, -1618031.0, 600.0429, 0.008166533, -0.00079786405, -1572714.3, 29741.133, 0.0, 5.014107, 4.9846325 
4.838484e+2, 1.4146706e+2, -1530253.9, -1582294.6, 254.06938, 0.018390376, 0.004655812, -1530252.6, 23374.186, 0.0, 5.0140653, 4.9801803 
4.838482e+2, 1.4644748e+2, -1480851.3, -1532672.0, 194.48828, 0.014147276, 0.0027760318, -1480850.5, 23966.959, 0.0, 5.0140977, 4.9803514 
4.8384798e+2, 1.5142787e+2, -1431696.6, -1483569.1, 191.36601, 0.0094708465, 0.00054513995, -1431695.9, 24312.334, 0.0, 5.014131, 4.9803514 
4.838477e+2, 1.5640825e+2, -1383915.5, -1437327.5, 207.85307, 0.004806062, -0.001222729, -1383914.6, 23284.387, 0.0, 5.014165, 4.979395 
4.8384765e+2, 1.6138482e+2, -1343286.9, -1405929.4, 226.41405, 0.0013396385, 0.0018388605, -1343286.0, 15141.248, 0.0, 5.0141716, 4.9734836 
4.838479e+2, 1.6635807e+2, -1294361.5, -1356942.1, 213.46297, 0.0007293937, -0.002760029, -1294360.8, 15327.444, 0.0, 5.014114, 4.9734654 
4.8384818e+2, 1.7133132e+2, -1245413.5, -1307901.5, 175.70805, 0.00025142802, -0.0073629664, -1245413.0, 15536.149, 0.0, 5.0140543, 4.973466 
4.8384845e+2, 1.7630458e+2, -1197595.6, -1261253.0, 139.81342, -0.00020149347, -0.011574036, -1197595.3, 14614.685, 0.0, 5.013994, 4.972663 
4.838487e+2, 1.8127435e+2, -1157640.3, -1231353.4, 71.24275, -0.000825233, -0.0064613903, -1157640.1, 5865.244, 0.0, 5.0139446, 4.9661913 
4.8384878e+2, 1.8624093e+2, -1108525.5, -1182152.1, 50.44355, -0.002096502, -0.005436005, -1108525.5, 6308.3125, 0.0, 5.0139084, 4.9662085 
4.8384884e+2, 1.912075e+2, -1059432.1, -1133004.4, 70.143585, -0.0033721947, -0.0043882807, -1059432.1, 6729.9956, 0.0, 5.013872, 4.966209 
4.8384893e+2, 1.9617409e+2, -1011230.56, -1085773.1, 89.93037, -0.004622036, -0.0030139221, -1011230.44, 6259.904, 0.0, 5.013836, 4.9655585 
4.83849e+2, 2.0113692e+2, -971506.25, -1056917.1, 5.4600368, -0.0055288076, 0.0048985216, -971506.25, -2650.6843, 0.0, 5.013819, 4.958628 
4.8384893e+2, 2.0609562e+2, -922123.7, -1007522.06, -17.560606, -0.0059860614, 0.0026138625, -922123.6, -1862.0226, 0.0, 5.0138435, 4.958657 
4.8384884e+2, 2.1105431e+2, -872773.75, -958211.94, 21.57181, -0.006413284, -0.00005361886, -872773.75, -1105.7484, 0.0, 5.01387, 4.9586573 
4.8384878e+2, 2.16013e+2, -824091.2, -910358.25, 60.38034, -0.0068040364, -0.0025759067, -824091.2, -1016.7695, 0.0, 5.013896, 4.9581585 
4.8384884e+2, 2.2096826e+2, -784341.6, -882055.2, 532.08264, -0.0077942237, 0.005176651, -784338.75, -9824.073, 0.0, 5.013916, 4.950935 
4.8384926e+2, 2.259201e+2, -734859.2, -832223.75, 764.23505, -0.011116783, 0.00915704, -734853.2, -8863.29, 0.0, 5.0138774, 4.951112 
4.8384964e+2, 2.3087193e+2, -685631.8, -782926.6, 822.73157, -0.0145371035, 0.013011954, -685624.9, -8159.7373, 0.0, 5.0138307, 4.9511147 
4.8385006e+2, 2.3582375e+2, -637054.6, -735077.4, 883.2122, -0.01787544, 0.01674503, -637046.6, -8106.2114, 0.0, 5.0137835, 4.9506154 
4.838508e+2, 2.4077177e+2, -596829.0, -705606.1, 1302.2511, -0.019547068, 0.026599696, -596813.4, -16361.315, 0.0, 5.01369, 4.9437394 
4.8385268e+2, 2.4571507e+2, -547130.06, -654544.56, 1545.9274, -0.015619684, 0.012851378, -547107.9, -15101.35, 0.0, 5.013481, 4.944388 
4.8385468e+2, 2.5065827e+2, -498302.22, -605437.06, 1512.685, -0.011077719, -0.0029171973, -498280.84, -14719.143, 0.0, 5.0132627, 4.944377 
4.8385665e+2, 2.5560153e+2, -449719.5, -556893.44, 1477.3688, -0.006384968, -0.017947974, -449699.16, -14582.832, 0.0, 5.013041, 4.9441676 
4.838587e+2, 2.60542e+2, -411542.2, -532049.7, 1866.4883, -0.001580436, -0.00978696, -411513.28, -24811.39, 0.0, 5.012849, 4.9355507 
4.8385966e+2, 2.654839e+2, -360574.44, -478289.3, 3014.8975, -0.013385263, 0.028063688, -360497.28, -22209.629, 0.0, 5.012571, 4.937005 
4.838601e+2, 2.7042615e+2, -311458.75, -428911.8, 4177.629, -0.028653713, 0.06429021, -311310.34, -21439.342, 0.0, 5.0122547, 4.9370728 
4.8386028e+2, 2.7536806e+2, -262350.6, -379711.63, 5443.127, -0.044200305, 0.094273925, -262098.69, -20640.686, 0.0, 5.011928, 4.9370933 
4.8386377e+2, 2.803048e+2, -234122.5, -375623.38, 8207.539, -0.038987275, 0.16344649, -233648.02, -40558.703, 0.0, 5.011709, 4.921259 
4.838637e+2, 2.852271e+2, -179996.52, -309860.16, 1805.4126, -0.036234893, 0.13104707, -179971.4, -35140.29, 0.0, 5.0114126, 4.9267554 
4.8385993e+2, 2.9014584e+2, -131461.75, -260925.31, 132.29158, -0.04728089, 0.04238462, -131461.61, -34858.305, 0.0, 5.011032, 4.926659 
4.8385593e+2, 2.950641e+2, -82871.266, -212028.67, -1395.2039, -0.05697011, -0.05262669, -82856.195, -34475.26, 0.0, 5.010625, 4.9265637 
4.8385182e+2, 3.0000195e+2, -17107.125, -89902.945, -1852.927, -0.060147833, -0.10743759, -17059.992, -17059.992, 0.0, 5.0102367, 4.9618907 
4.8384288e+2, 3.049775e+2, -10095.035, -69603.28, -44.580986, -0.08775046, -0.05568273, -10095.002, -10095.002, 0.0, 5.009641, 4.968978 
4.838318e+2, 3.0995753e+2, -10655.078, -66709.19, 1389.9949, -0.12679167, 0.007614422, -10620.631, -10620.631, 0.0, 5.008927, 4.9701324 
4.8381993e+2, 3.1493953e+2, -11057.673, -63973.176, 2832.021, -0.16590123, 0.07592858, -10906.536, -10906.536, 0.0, 5.0081835, 4.9712877 
4.888601e+2, 1.215251e+2, -1711212.5, -1748516.3, 1761.7677, 0.0206322, -0.012286401, -1711129.5, 37927.797, 0.0, 5.0142803, 4.989976 
4.888569e+2, 1.2651499e+2, -1668152.0, -1711507.6, 528.2355, -0.019229261, 0.023934355, -1668145.5, 32010.457, 0.0, 5.014265, 4.986053 
4.8885885e+2, 1.3149986e+2, -1619395.0, -1662627.4, 516.35223, -0.005893533, 0.011408316, -1619388.9, 31916.148, 0.0, 5.014186, 4.986053 
4.8886082e+2, 1.3648471e+2, -1572744.1, -1618073.9, 541.501, 0.007439305, 0.00012190641, -1572737.8, 29716.615, 0.0, 5.0141068, 4.9846187 
4.8886216e+2, 1.4146717e+2, -1530257.0, -1582299.0, 261.44214, 0.015422021, 0.0051873676, -1530255.6, 23370.49, 0.0, 5.0140653, 4.9801793 
4.8886204e+2, 1.4644746e+2, -1480857.8, -1532683.8, 220.16483, 0.011524568, 0.002237283, -1480856.9, 23960.504, 0.0, 5.014097, 4.980348 
4.888619e+2, 1.5142775e+2, -1431702.9, -1483581.0, 217.77406, 0.0072645056, -0.0010786505, -1431702.0, 24306.646, 0.0, 5.014131, 4.9803476 
4.8886174e+2, 1.5640803e+2, -1383917.6, -1437331.0, 236.43193, 0.003009144, -0.003933036, -1383916.5, 23283.498, 0.0, 5.0141644, 4.979394 
4.8886168e+2, 1.6138455e+2, -1343338.6, -1406036.8, 195.57683, 0.000040703464, -0.0011062868, -1343338.0, 15090.518, 0.0, 5.014171, 4.973448 
4.8886198e+2, 1.6635792e+2, -1294428.8, -1357083.0, 167.72246, 0.00011542417, -0.003999817, -1294428.3, 15260.504, 0.0, 5.014114, 4.973418 
4.8886225e+2, 1.713313e+2, -1245480.1, -1308042.3, 131.03905, 0.00031424256, -0.006825322, -1245479.9, 15469.091, 0.0, 5.0140543, 4.9734187 
4.888625e+2, 1.7630468e+2, -1197661.0, -1261391.8, 96.71888, 0.00052495394, -0.009260275, -1197660.9, 14548.303, 0.0, 5.013994, 4.972616 
4.8886278e+2, 1.8127452e+2, -1157627.6, -1231322.5, 40.76669, 0.00041277966, -0.0034638767, -1157627.5, 5876.9404, 0.0, 5.013944, 4.966202 
4.888628e+2, 1.8624093e+2, -1108491.8, -1182074.8, 23.953726, -0.00070448517, -0.004303305, -1108491.8, 6342.292, 0.0, 5.0139074, 4.966235 
4.8886287e+2, 1.9120732e+2, -1059398.9, -1132927.0, 45.337585, -0.0018605584, -0.0052274973, -1059398.9, 6764.7197, 0.0, 5.013871, 4.9662356 
4.8886293e+2, 1.9617374e+2, -1011197.8, -1085695.6, 66.81252, -0.003008564, -0.005826482, -1011197.75, 6295.3823, 0.0, 5.013835, 4.965585 
4.8886296e+2, 2.0113648e+2, -971441.5, -1056771.1, 13.49467, -0.00416125, 0.00094823324, -971441.5, -2582.6921, 0.0, 5.0138183, 4.9586782 
4.8886278e+2, 2.0609538e+2, -922054.2, -1007368.06, 1.466487, -0.0057529677, -0.00012991714, -922054.2, -1790.9807, 0.0, 5.0138426, 4.9587097 
4.8886263e+2, 2.1105425e+2, -872704.25, -958058.9, 42.736973, -0.007381931, -0.0014528453, -872704.25, -1036.4103, 0.0, 5.0138693, 4.95871 
4.8886245e+2, 2.160131e+2, -824021.6, -910206.1, 83.68163, -0.008997442, -0.0026335733, -824021.56, -949.1138, 0.0, 5.013896, 4.958211 
4.8886245e+2, 2.209685e+2, -784254.7, -881844.94, 524.07526, -0.010893481, 0.005835364, -784251.9, -9740.479, 0.0, 5.013913, 4.951008 
4.888628e+2, 2.2592032e+2, -734777.7, -832006.94, 737.80194, -0.014065213, 0.008874464, -734772.1, -8785.765, 0.0, 5.0138717, 4.9511886 
4.8886323e+2, 2.3087212e+2, -685555.94, -782709.6, 801.65894, -0.017297193, 0.011719573, -685549.3, -8087.983, 0.0, 5.0138235, 4.951192 
4.8886362e+2, 2.3582393e+2, -636984.3, -734860.1, 867.50586, -0.020488624, 0.014459419, -636976.6, -8040.205, 0.0, 5.0137744, 4.950694 
4.8886424e+2, 2.40772e+2, -596844.9, -705472.5, 1193.4081, -0.0223755, 0.023982638, -596831.8, -16384.217, 0.0, 5.0136657, 4.943793 
4.8886576e+2, 2.4571553e+2, -547201.1, -654499.06, 1377.8413, -0.020281654, 0.012330342, -547183.44, -15182.505, 0.0, 5.0134516, 4.944412 
4.888673e+2, 2.50659e+2, -498364.3, -605389.44, 1352.391, -0.017841948, -0.0011434711, -498347.22, -14792.201, 0.0, 5.0132356, 4.9444003 
4.8886883e+2, 2.5560248e+2, -449772.72, -556843.6, 1324.8755, -0.015330308, -0.0139172645, -449756.34, -14647.786, 0.0, 5.0130167, 4.94419 
4.8887032e+2, 2.6054323e+2, -410674.13, -529779.7, 1766.0272, -0.014253603, -0.005516912, -410647.94, -23956.795, 0.0, 5.0128055, 4.936355 
4.8887044e+2, 2.6548544e+2, -359227.78, -474390.53, 3048.787, -0.03419655, 0.023343356, -359147.13, -20880.37, 0.0, 5.0124545, 4.9384055 
4.8887008e+2, 2.7042818e+2, -310304.63, -424904.3, 4316.9893, -0.058403935, 0.050187632, -310142.22, -20304.135, 0.0, 5.012067, 4.9385333 
4.888694e+2, 2.753707e+2, -261388.92, -375595.0, 5687.851, -0.08346675, 0.071619, -261106.36, -19694.621, 0.0, 5.0116696, 4.938614 
4.8887184e+2, 2.8030798e+2, -233682.42, -375264.88, 7155.717, -0.08303773, 0.13438179, -233321.69, -40288.56, 0.0, 5.011787, 4.9214134 
4.8887205e+2, 2.852304e+2, -180433.42, -313653.6, 1291.1135, -0.06945889, 0.11413813, -180420.92, -35637.973, 0.0, 5.0117564, 4.9254346 
4.8886895e+2, 2.9014942e+2, -132014.19, -264474.44, -236.13663, -0.06993617, 0.041661076, -132013.77, -35449.453, 0.0, 5.0113215, 4.9254193 
4.8886564e+2, 2.950679e+2, -83539.664, -215334.13, -1617.5496, -0.06992768, -0.037215315, -83519.81, -35169.3, 0.0, 5.0108604, 4.9254045 
4.8886216e+2, 3.000058e+2, -16052.353, -88450.93, -2243.7417, -0.06389314, -0.083360724, -15982.883, -15982.883, 0.0, 5.010395, 4.9624314 
4.8885405e+2, 3.0498102e+2, -7683.6978, -64289.523, -348.43808, -0.07866381, -0.04996876, -7681.553, -7681.553, 0.0, 5.0096946, 4.9710107 
4.8884386e+2, 3.0996105e+2, -8671.208, -61950.805, 1489.1194, -0.10549558, -0.0030253753, -8629.621, -8629.621, 0.0, 5.0088964, 4.9720464 
4.8883286e+2, 3.149432e+2, -9502.075, -59769.316, 3334.463, -0.13429555, 0.053056143, -9281.85, -9281.85, 0.0, 5.008069, 4.973083 
4.9387428e+2, 1.21525325e+2, -1711363.6, -1748813.4, 2119.3757, 0.019134525, -0.011247918, -1711244.0, 37810.566, 0.0, 5.014279, 4.9898787 
4.938718e+2, 1.2651518e+2, -1668179.9, -1711555.4, 465.91916, -0.013112989, 0.024857594, -1668174.9, 31979.334, 0.0, 5.014264, 4.9860373 
4.9387333e+2, 1.3150004e+2, -1619422.1, -1662676.3, 455.96152, -0.0031891072, 0.012340171, -1619417.3, 31886.293, 0.0, 5.0141854, 4.986037 
4.9387485e+2, 1.3648486e+2, -1572766.8, -1618116.5, 483.64307, 0.0067094183, 0.0010602028, -1572761.5, 29691.633, 0.0, 5.0141068, 4.9846044 
4.9387592e+2, 1.4146727e+2, -1530265.9, -1582315.0, 268.6093, 0.012453057, 0.0057430565, -1530264.5, 23360.89, 0.0, 5.014065, 4.9801736 
4.938759e+2, 1.4644746e+2, -1480864.5, -1532695.4, 245.9247, 0.008902288, 0.0017172504, -1480863.4, 23953.855, 0.0, 5.0140967, 4.9803443 
4.938758e+2, 1.5142763e+2, -1431709.5, -1483592.6, 244.26547, 0.005060125, -0.0026968827, -1431708.4, 24300.77, 0.0, 5.0141306, 4.980344 
4.938757e+2, 1.5640777e+2, -1383920.0, -1437334.4, 265.08804, 0.0012157178, -0.0066509396, -1383918.6, 23282.43, 0.0, 5.0141644, 4.979393 
4.9387574e+2, 1.6138428e+2, -1343394.5, -1406152.3, 164.79488, -0.0012574649, -0.0040313764, -1343394.0, 15035.6875, 0.0, 5.014171, 4.973409 
4.93876e+2, 1.6635777e+2, -1294496.3, -1357223.9, 122.07624, -0.0004961304, -0.005223481, -1294496.0, 15193.316, 0.0, 5.014114, 4.973371 
4.938763e+2, 1.7133129e+2, -1245547.1, -1308182.8, 86.46434, 0.00038209016, -0.006288236, -1245547.0, 15401.79, 0.0, 5.0140543, 4.9733715 
4.9387658e+2, 1.7630479e+2, -1197726.8, -1261530.4, 53.728535, 0.0012590529, -0.0069637564, -1197726.6, 14481.69, 0.0, 5.013994, 4.9725695 
4.9387687e+2, 1.8127467e+2, -1157621.6, -1231305.1, 9.601001, 0.0016547716, -0.0004338328, -1157621.6, 5881.9575, 0.0, 5.013943, 4.966208 
4.938769e+2, 1.8624093e+2, -1108458.4, -1181997.0, -2.6840115, 0.00069036696, -0.0031428742, -1108458.4, 6375.8394, 0.0, 5.0139065, 4.9662614 
4.9387693e+2, 1.9120716e+2, -1059366.1, -1132849.3, 20.38363, -0.00034599277, -0.006068033, -1059366.1, 6799.0215, 0.0, 5.0138702, 4.966262 
4.9387696e+2, 1.9617338e+2, -1011165.44, -1085617.8, 43.54667, -0.0013920683, -0.00866941, -1011165.44, 6330.449, 0.0, 5.0138335, 4.965612 
4.9387693e+2, 2.0113608e+2, -971388.94, -1056650.5, 21.870422, -0.002797488, -0.0029464357, -971388.9, -2526.8992, 0.0, 5.0138173, 4.9587193 
4.9387667e+2, 2.0609513e+2, -921985.25, -1007213.6, 20.80563, -0.005523354, -0.0028102184, -921985.2, -1720.4644, 0.0, 5.013842, 4.958762 
4.938764e+2, 2.1105419e+2, -872635.25, -957905.5, 64.214096, -0.008351476, -0.0028269466, -872635.2, -967.57855, 0.0, 5.013869, 4.9587626 
4.9387616e+2, 2.1601322e+2, -823952.56, -910053.75, 107.29481, -0.011189165, -0.0027044676, -823952.44, -881.94507, 0.0, 5.0138955, 4.958263 
4.9387607e+2, 2.2096877e+2, -784180.75, -881661.56, 512.5571, -0.013978722, 0.0065240883, -784178.06, -9669.964, 0.0, 5.0139103, 4.9510713 
4.9387643e+2, 2.2592054e+2, -734697.44, -831789.2, 709.9497, -0.01699304, 0.008564537, -734692.25, -8709.474, 0.0, 5.0138664, 4.9512644 
4.938768e+2, 2.3087233e+2, -685481.25, -782491.75, 779.1667, -0.02003399, 0.010292984, -685475.0, -8017.426, 0.0, 5.0138164, 4.9512687 
4.9387717e+2, 2.358241e+2, -636915.2, -734641.94, 850.37946, -0.023075815, 0.011932741, -636907.8, -7975.3564, 0.0, 5.0137653, 4.9507713 
4.938777e+2, 2.4077223e+2, -596912.8, -705445.4, 1064.2603, -0.025218287, 0.021677801, -596902.4, -16459.533, 0.0, 5.013641, 4.9438086 
4.938788e+2, 2.4571604e+2, -547277.3, -654448.7, 1209.6713, -0.02494501, 0.012338906, -547263.7, -15268.768, 0.0, 5.0134215, 4.944435 
4.938799e+2, 2.5065973e+2, -498431.6, -605336.8, 1192.0132, -0.024568848, 0.0010244846, -498418.3, -14870.343, 0.0, 5.013209, 4.9444227 
4.93881e+2, 2.5560346e+2, -449831.16, -556788.8, 1172.2988, -0.024199607, -0.009627697, -449818.3, -14717.796, 0.0, 5.012993, 4.9442115 
4.9388194e+2, 2.6054436e+2, -409919.4, -527733.06, 1607.4496, -0.026519302, -0.0017528611, -409897.47, -23216.117, 0.0, 5.012762, 4.937068 
4.9388114e+2, 2.654868e+2, -357899.1, -470481.6, 2991.3215, -0.054895546, 0.015886405, -357819.66, -19571.709, 0.0, 5.012338, 4.9397764 
4.938798e+2, 2.7042997e+2, -309168.06, -420886.5, 4364.8916, -0.08855567, 0.031141663, -308997.78, -19189.844, 0.0, 5.0118794, 4.9399643 
4.9387813e+2, 2.7537298e+2, -260444.47, -371467.88, 5841.008, -0.12364848, 0.04181423, -260138.02, -18769.113, 0.0, 5.0114107, 4.9401045 
4.9388e+2, 2.803113e+2, -234530.58, -377858.22, 6578.13, -0.1261824, 0.1074835, -234229.3, -41253.313, 0.0, 5.011865, 4.9205246 
4.9388084e+2, 2.8523412e+2, -180911.9, -317410.88, 629.09875, -0.100942135, 0.105296075, -180909.0, -36178.098, 0.0, 5.0121007, 4.9240837 
4.9387836e+2, 2.901532e+2, -132607.98, -267986.78, -752.21497, -0.091828525, 0.045757614, -132603.8, -36081.06, 0.0, 5.0116115, 4.9241495 
4.938756e+2, 2.9507184e+2, -84249.19, -218602.17, -1987.4952, -0.083100475, -0.020231217, -84219.79, -35901.02, 0.0, 5.011096, 4.9242153 
4.9387273e+2, 3.0000937e+2, -15601.502, -88280.35, -2629.625, -0.06728866, -0.06067055, -15506.482, -15506.482, 0.0, 5.0105534, 4.962472 
4.9386567e+2, 3.0498376e+2, -5319.307, -58936.047, -507.93927, -0.06527509, -0.053725883, -5314.4956, -5314.4956, 0.0, 5.009748, 4.9729424 
4.9385652e+2, 3.0996338e+2, -6734.226, -57151.496, 1732.3496, -0.07613544, -0.03385899, -6674.7725, -6674.7725, 0.0, 5.008866, 4.973859 
4.938464e+2, 3.1494528e+2, -7993.4893, -55523.355, 3980.8953, -0.09086295, -0.0007352086, -7662.3735, -7662.3735, 0.0, 5.0079546, 4.9747763 
4.9888837e+2, 1.2152539e+2, -1712117.1, -1749228.0, 2268.6826, 0.017469667, -0.011182393, -1711979.0, 37074.406, 0.0, 5.01404, 4.989859 
4.9888662e+2, 1.2651531e+2, -1668815.6, -1711893.9, 240.10349, -0.006981706, 0.02573608, -1668814.3, 31338.473, 0.0, 5.01406, 4.9860253 
4.9888775e+2, 1.3150017e+2, -1619896.3, -1662935.1, 254.55893, -0.0005088212, 0.0131856045, -1619894.8, 31407.59, 0.0, 5.0140343, 4.986025 
4.9888888e+2, 1.3648498e+2, -1573094.9, -1618298.0, 307.78262, 0.0059505636, 0.0018732904, -1573092.9, 29359.477, 0.0, 5.0140023, 4.9845943 
4.9888968e+2, 1.4146735e+2, -1530526.9, -1582459.5, 171.7356, 0.009485932, 0.006197516, -1530526.4, 23098.59, 0.0, 5.013982, 4.980166 
4.988897e+2, 1.4644744e+2, -1481188.5, -1532859.4, 173.14827, 0.00633766, 0.0011727134, -1481187.9, 23629.285, 0.0, 5.01399, 4.980341 
4.988897e+2, 1.5142749e+2, -1432111.5, -1483793.9, 178.25299, 0.0029763712, -0.0042680865, -1432110.9, 23898.809, 0.0, 5.013997, 4.980341 
4.9888968e+2, 1.5640755e+2, -1384400.0, -1437566.1, 207.51738, -0.00038765074, -0.009250819, -1384399.3, 22802.934, 0.0, 5.014003, 4.979393 
4.9888977e+2, 1.61384e+2, -1343999.1, -1406538.0, 55.311035, -0.0023383577, -0.006782229, -1343999.1, 14431.785, 0.0, 5.013987, 4.9733686 
4.9889007e+2, 1.6635762e+2, -1295136.0, -1357640.9, -3.5290313, -0.0009468942, -0.0063507124, -1295136.0, 14553.984, 0.0, 5.0139203, 4.9733233 
4.9889034e+2, 1.7133126e+2, -1246219.4, -1308614.8, -40.99369, 0.00056356733, -0.005745512, -1246219.3, 14729.533, 0.0, 5.013849, 4.9733233 
4.9889067e+2, 1.763049e+2, -1198439.0, -1261979.5, -75.49659, 0.0020713238, -0.0047506397, -1198439.0, 13768.762, 0.0, 5.0137744, 4.972522 
4.988909e+2, 1.8127482e+2, -1158284.3, -1231621.8, -110.013466, 0.0029326328, 0.002520675, -1158284.0, 5218.735, 0.0, 5.0137177, 4.9662075 
4.988909e+2, 1.862409e+2, -1109027.5, -1182213.3, -131.8589, 0.0020698945, -0.0020082262, -1109027.3, 5807.4526, 0.0, 5.0137005, 4.9662848 
4.9889094e+2, 1.9120696e+2, -1059884.9, -1133040.6, -124.245094, 0.0011219971, -0.0069071883, -1059884.6, 6282.19, 0.0, 5.013681, 4.966285 
4.9889094e+2, 1.9617301e+2, -1011648.06, -1085790.9, -116.94048, 0.00016611737, -0.0114895515, -1011647.9, 5850.9873, 0.0, 5.0136566, 4.965635 
4.9889088e+2, 2.0113564e+2, -971833.0, -1056785.6, -118.25136, -0.001479078, -0.0067230333, -971832.8, -2967.446, 0.0, 5.0136495, 4.9587507 
4.9889052e+2, 2.0609486e+2, -922379.1, -1007279.75, -120.00315, -0.005261227, -0.005389753, -922378.94, -2112.4429, 0.0, 5.0136824, 4.958813 
4.988902e+2, 2.1105409e+2, -873022.56, -957968.44, -87.510956, -0.009181605, -0.0041581476, -873022.5, -1354.8008, 0.0, 5.0137115, 4.958813 
4.9888986e+2, 2.1601333e+2, -824350.06, -910120.94, -55.291027, -0.013110455, -0.0027894012, -824350.06, -1281.1489, 0.0, 5.0137343, 4.9583135 
4.988897e+2, 2.2096898e+2, -784633.94, -881744.6, 303.52805, -0.016668009, 0.007217726, -784633.0, -10127.844, 0.0, 5.0137286, 4.951125 
4.9889004e+2, 2.2592074e+2, -735284.56, -831891.9, 482.6175, -0.019484283, 0.008210626, -735282.1, -9302.512, 0.0, 5.013629, 4.9513354 
4.9889037e+2, 2.3087248e+2, -686262.5, -782686.94, 545.9329, -0.022258934, 0.008731403, -686259.4, -8805.087, 0.0, 5.013511, 4.951339 
4.9889073e+2, 2.358242e+2, -637922.5, -734942.7, 603.868, -0.025030514, 0.009178979, -637918.75, -8989.666, 0.0, 5.013381, 4.95084 
4.9889114e+2, 2.4077243e+2, -598264.1, -706129.25, 675.33765, -0.027340965, 0.019631723, -598259.9, -17821.426, 0.0, 5.0131817, 4.943779 
4.988918e+2, 2.457165e+2, -548656.94, -655039.94, 759.8071, -0.028787764, 0.012795011, -548651.56, -16662.299, 0.0, 5.012933, 4.9444475 
4.9889252e+2, 2.5066042e+2, -499906.97, -605962.3, 708.57196, -0.030276932, 0.0034523308, -499902.22, -16360.796, 0.0, 5.0126853, 4.944437 
4.9889317e+2, 2.556044e+2, -451430.72, -557460.06, 663.68787, -0.031775177, -0.0053405142, -451426.56, -16333.376, 0.0, 5.012425, 4.9442277 
4.988936e+2, 2.6054525e+2, -411236.72, -527098.75, 889.7854, -0.0365942, 0.0012719326, -411229.9, -24556.13, 0.0, 5.0120687, 4.9375815 
4.988919e+2, 2.6548764e+2, -360077.34, -468926.25, 1412.6549, -0.07132682, 0.0062186327, -360059.0, -21824.607, 0.0, 5.0110874, 4.9408345 
4.988896e+2, 2.7043074e+2, -313653.88, -420427.34, 1576.4084, -0.11154379, 0.008257721, -313630.6, -23843.543, 0.0, 5.0098267, 4.9409904 
4.9888697e+2, 2.753738e+2, -267810.56, -372331.78, 1521.7521, -0.15289874, 0.0062906407, -267788.4, -26447.738, 0.0, 5.0083494, 4.941099 
4.9888882e+2, 2.80313e+2, -247327.95, -387777.03, 1155.3541, -0.15368177, 0.08266159, -247318.45, -54384.355, 0.0, 5.008105, 4.918676 
4.9889043e+2, 2.8523684e+2, -189307.28, -323552.25, -4044.274, -0.11999502, 0.102893844, -189185.56, -44496.723, 0.0, 5.0095167, 4.9229817 
4.9888837e+2, 2.9015622e+2, -137854.86, -272727.28, -4259.5977, -0.105854295, 0.053292584, -137720.45, -41231.87, 0.0, 5.0101542, 4.9230504 
4.9888602e+2, 2.9507524e+2, -87081.6, -222259.42, -4593.69, -0.0919436, -0.0020552215, -86925.68, -38633.66, 0.0, 5.010514, 4.923119 
4.988838e+2, 3.000123e+2, -16314.246, -90022.46, -4872.1323, -0.067405395, -0.037944824, -15993.592, -15993.592, 0.0, 5.0105596, 4.9618053 
4.9887794e+2, 3.04985e+2, -3827.4917, -55217.05, -4123.192, -0.044124164, -0.065055616, -3498.7742, -3498.7742, 0.0, 5.009677, 4.974179 
4.9887e+2, 3.0996284e+2, -7029.971, -54553.48, -3294.3782, -0.032280732, -0.08794463, -6802.6885, -6802.6885, 0.0, 5.008206, 4.9749403 
4.9886116e+2, 3.1494263e+2, -11319.356, -54515.652, -2271.7715, -0.024009265, -0.09919577, -11200.208, -11200.208, 0.0, 5.006266, 4.9757023 
5.0390196e+2, 1.2152515e+2, -1712289.9, -1749491.8, 2000.7017, 0.01419403, -0.0096948575, -1712182.6, 36872.94, 0.0, 5.0140185, 4.9897842 
5.039012e+2, 1.2651487e+2, -1668681.3, -1711674.3, 77.18885, -0.0013774976, 0.024463762, -1668681.1, 31475.879, 0.0, 5.01407, 4.986093 
5.03902e+2, 1.3149974e+2, -1619470.1, -1662570.5, 152.28732, 0.001574449, 0.011675208, -1619469.6, 31836.422, 0.0, 5.014142, 4.9860926 
5.039028e+2, 1.3648461e+2, -1572357.1, -1617774.4, 264.72415, 0.004586954, 0.0001296921, -1572355.6, 30099.65, 0.0, 5.0142136, 4.984665 
5.0390345e+2, 1.4146702e+2, -1529698.4, -1581974.1, 134.45908, 0.0062617157, 0.004381852, -1529698.0, 23929.246, 0.0, 5.014241, 4.980201 
5.0390357e+2, 1.4644717e+2, -1480596.6, -1532522.4, 145.94441, 0.004497664, -0.00015675552, -1480596.3, 24222.633, 0.0, 5.014178, 4.9803624 
5.039036e+2, 1.5142731e+2, -1431742.0, -1483565.4, 169.59071, 0.0026277734, -0.0050842115, -1431741.4, 24269.248, 0.0, 5.014111, 4.980362 
5.039038e+2, 1.5640745e+2, -1384243.0, -1437434.4, 218.42093, 0.00076678727, -0.009554505, -1384242.0, 22960.42, 0.0, 5.014044, 4.979417 
5.039039e+2, 1.6138394e+2, -1344116.5, -1406674.5, 45.88777, -0.00022412463, -0.0066715055, -1344116.5, 14314.432, 0.0, 5.0139637, 4.973334 
5.039041e+2, 1.6635753e+2, -1295414.1, -1357899.1, -28.134819, 0.00094652915, -0.0059453333, -1295414.0, 14276.362, 0.0, 5.0138516, 4.9732695 
5.039042e+2, 1.7133115e+2, -1246620.4, -1308932.3, -72.85969, 0.002214413, -0.0050365184, -1246620.4, 14329.556, 0.0, 5.013738, 4.9732695 
5.039044e+2, 1.7630476e+2, -1198952.9, -1262349.5, -113.428, 0.0034996981, -0.003731371, -1198952.6, 13256.655, 0.0, 5.0136247, 4.9724684 
5.039046e+2, 1.8127462e+2, -1158805.0, -1231928.8, -94.61583, 0.0039950646, 0.0034902669, -1158804.9, 4700.055, 0.0, 5.013551, 4.966183 
5.039045e+2, 1.8624061e+2, -1109440.6, -1182455.0, -128.58067, 0.0024820347, -0.0018672505, -1109440.4, 5397.163, 0.0, 5.0135674, 4.966266 
5.0390446e+2, 1.9120656e+2, -1060180.0, -1133226.1, -155.05777, 0.0009099895, -0.0076302695, -1060179.8, 5990.635, 0.0, 5.013588, 4.9662666 
5.039044e+2, 1.9617254e+2, -1011812.56, -1085914.9, -181.36234, -0.0006362076, -0.013087386, -1011812.06, 5691.0293, 0.0, 5.013608, 4.965616 
5.0390434e+2, 2.0113507e+2, -971861.7, -1056783.5, -190.85555, -0.0025702305, -0.008891104, -971861.25, -2991.1907, 0.0, 5.0136347, 4.958759 
5.039041e+2, 2.0609435e+2, -922421.56, -1007278.0, -227.86739, -0.0057578012, -0.007016972, -922420.94, -2150.161, 0.0, 5.013662, 4.9588237 
5.0390387e+2, 2.1105367e+2, -873073.0, -957969.0, -236.13287, -0.008980828, -0.0051477365, -873072.4, -1400.9083, 0.0, 5.0136886, 4.9588237 
5.039036e+2, 2.1601297e+2, -824391.94, -910116.3, -244.55978, -0.012168388, -0.003133117, -824391.25, -1319.1613, 0.0, 5.0137143, 4.9583244 
5.039035e+2, 2.2096868e+2, -784636.6, -881491.8, -7.815529, -0.0149801, 0.0070031104, -784636.6, -10128.913, 0.0, 5.0136743, 4.9512377 
5.0390375e+2, 2.2592047e+2, -735685.06, -831774.06, 188.59785, -0.017077621, 0.006916874, -735684.7, -9703.409, 0.0, 5.013422, 4.951473 
5.03904e+2, 2.3087223e+2, -687087.2, -782778.6, 331.42078, -0.019059373, 0.006334467, -687086.06, -9630.984, 0.0, 5.013155, 4.9514723 
5.0390416e+2, 2.3582397e+2, -639135.9, -735226.44, 476.59103, -0.020959046, 0.0056947907, -639133.5, -10204.584, 0.0, 5.012887, 4.950969 
5.0390434e+2, 2.4077225e+2, -599886.06, -706933.5, 591.43427, -0.02305663, 0.015941132, -599882.8, -19445.498, 0.0, 5.012593, 4.943778 
5.039046e+2, 2.4571656e+2, -550547.8, -656105.56, 627.007, -0.026260352, 0.01191455, -550544.1, -18557.623, 0.0, 5.012267, 4.944391 
5.0390476e+2, 2.5066072e+2, -502001.56, -607091.0, 531.0509, -0.029487535, 0.005494833, -501998.88, -18461.785, 0.0, 5.0119395, 4.944388 
5.0390494e+2, 2.556049e+2, -453699.34, -558638.1, 436.38318, -0.03258436, -0.00054602633, -453697.53, -18610.186, 0.0, 5.0116076, 4.9441867 
5.0390494e+2, 2.6054582e+2, -413122.78, -527473.44, 585.9349, -0.038344227, 0.00564571, -413119.78, -26452.79, 0.0, 5.0112305, 4.937844 
5.0390285e+2, 2.6548728e+2, -361609.16, -469498.63, 1096.452, -0.068940096, -0.00091829745, -361598.03, -23367.605, 0.0, 5.0103498, 4.9410267 
5.0390023e+2, 2.7042916e+2, -314453.34, -421217.72, 1629.8231, -0.103041455, -0.011467518, -314428.47, -24640.135, 0.0, 5.0093694, 4.941015 
5.038973e+2, 2.7537078e+2, -267309.22, -373082.44, 2267.4473, -0.13696055, -0.026065532, -267260.63, -25911.365, 0.0, 5.008373, 4.9409556 
5.038988e+2, 2.803089e+2, -246944.52, -388358.4, 4130.4404, -0.13444951, 0.043370415, -246823.97, -53875.2, 0.0, 5.008219, 4.918318 
5.039008e+2, 2.8523397e+2, -190210.22, -324091.7, -772.5985, -0.1047349, 0.07713399, -190205.77, -45508.215, 0.0, 5.0091634, 4.9227133 
5.038996e+2, 2.9015487e+2, -138842.44, -273810.9, -1980.7075, -0.09151947, 0.04389499, -138813.38, -42323.273, 0.0, 5.0098143, 4.9226537 
5.038981e+2, 2.9507545e+2, -87454.09, -223576.75, -3059.452, -0.07701015, 0.0064890506, -87385.37, -39099.234, 0.0, 5.010431, 4.922594 
5.038967e+2, 3.0001327e+2, -15124.047, -91685.81, -4024.8254, -0.050403297, -0.016930524, -14913.045, -14913.045, 0.0, 5.011134, 4.960942 
5.0389206e+2, 3.0498323e+2, 1177.7487, -56052.27, -4643.366, -0.016338967, -0.06431963, 1552.0409, 1552.0409, 0.0, 5.0116467, 4.9730167 
5.038856e+2, 3.099571e+2, 3042.1272, -53511.23, -5131.3955, 0.011291891, -0.12022712, 3503.9553, 3503.9553, 0.0, 5.011979, 4.973654 
5.0387836e+2, 3.1493196e+2, 4988.9346, -51052.52, -5552.754, 0.038427122, -0.17464091, 5533.8203, 5533.8203, 0.0, 5.012271, 4.9742913 
5.0891554e+2, 1.21524826e+2, -1712368.6, -1749643.6, 1826.556, 0.009675717, -0.008440311, -1712279.3, 36779.406, 0.0, 5.014017, 4.989735 
5.089158e+2, 1.2651429e+2, -1668538.3, -1711378.1, 130.00427, 0.003775573, 0.022431713, -1668537.9, 31624.541, 0.0, 5.014069, 4.986191 
5.089163e+2, 1.3149922e+2, -1619326.8, -1662276.0, 207.03363, 0.0033458625, 0.00932503, -1619325.8, 31984.605, 0.0, 5.0141416, 4.9861903 
5.0891685e+2, 1.3648415e+2, -1572211.1, -1617476.5, 319.89862, 0.0029547508, -0.0025452876, -1572208.9, 30249.822, 0.0, 5.0142136, 4.9847636 
5.0891733e+2, 1.4146665e+2, -1529628.1, -1581828.1, 104.18207, 0.0028539451, 0.0017338031, -1529628.0, 24001.744, 0.0, 5.014241, 4.9802494 
5.0891757e+2, 1.4644694e+2, -1480553.4, -1532430.8, 94.64309, 0.0028372104, -0.001770931, -1480553.1, 24267.014, 0.0, 5.014178, 4.980393 
5.089178e+2, 1.5142721e+2, -1431698.8, -1483473.9, 118.99129, 0.0028139737, -0.0056209764, -1431698.5, 24312.307, 0.0, 5.0141106, 4.980393 
5.0891805e+2, 1.5640748e+2, -1384196.0, -1437335.0, 169.60164, 0.0027929838, -0.009015023, -1384195.5, 23006.004, 0.0, 5.014044, 4.97945 
5.0891817e+2, 1.6138405e+2, -1344166.5, -1406778.4, -33.437393, 0.0029091968, -0.0054886364, -1344166.5, 14262.868, 0.0, 5.0139637, 4.9732995 
5.0891817e+2, 1.6635758e+2, -1295494.8, -1358068.1, -114.67508, 0.0035874362, -0.004951959, -1295494.5, 14195.343, 0.0, 5.0138516, 4.973213 
5.0891817e+2, 1.7133111e+2, -1246700.4, -1309100.5, -158.43756, 0.0042915274, -0.004253664, -1246700.0, 14250.301, 0.0, 5.013738, 4.973213 
5.0891817e+2, 1.7630464e+2, -1199031.1, -1262514.8, -197.18124, 0.0049988157, -0.0031599822, -1199030.5, 13180.21, 0.0, 5.013624, 4.972413 
5.0891817e+2, 1.8127443e+2, -1158854.6, -1232029.9, -104.47866, 0.004791568, 0.0037221916, -1158854.5, 4652.631, 0.0, 5.0135503, 4.9661493 
5.089181e+2, 1.8624033e+2, -1109488.6, -1182550.8, -112.21934, 0.0023825779, -0.0020939005, -1109488.4, 5351.827, 0.0, 5.0135665, 4.966234 
5.08918e+2, 1.912062e+2, -1060228.3, -1133321.3, -137.03525, -0.00010862112, -0.008301159, -1060227.9, 5945.5947, 0.0, 5.0135865, 4.9662347 
5.0891787e+2, 1.9617209e+2, -1011860.8, -1086009.3, -161.68044, -0.0025957257, -0.014200326, -1011860.5, 5646.2686, 0.0, 5.0136065, 4.9655848 
5.0891775e+2, 2.0113458e+2, -971872.56, -1056800.4, -168.85022, -0.004910116, -0.010353329, -971872.2, -2998.1252, 0.0, 5.0136337, 4.9587536 
5.089177e+2, 2.0609389e+2, -922434.0, -1007301.06, -208.68773, -0.0068339775, -0.008206191, -922433.5, -2158.7031, 0.0, 5.0136614, 4.9588165 
5.089176e+2, 2.1105322e+2, -873085.1, -957991.9, -214.84666, -0.008719917, -0.00599018, -873084.56, -1409.0936, 0.0, 5.0136876, 4.9588165 
5.089175e+2, 2.1601254e+2, -824403.7, -910139.06, -221.16891, -0.01059785, -0.0036283256, -824403.1, -1326.9933, 0.0, 5.013714, 4.9583173 
5.0891745e+2, 2.2096829e+2, -784461.1, -881090.0, -140.33473, -0.012204823, 0.0063672527, -784460.94, -9949.551, 0.0, 5.0136714, 4.951377 
5.0891757e+2, 2.2592014e+2, -735456.44, -831238.8, -7.1976657, -0.013391227, 0.005166309, -735456.44, -9472.863, 0.0, 5.0134172, 4.9516597 
5.0891757e+2, 2.3087196e+2, -686863.5, -782241.3, 140.60432, -0.014542143, 0.0034649454, -686863.3, -9407.407, 0.0, 5.013149, 4.95166 
5.089176e+2, 2.358238e+2, -638917.06, -734686.94, 290.77588, -0.015668686, 0.0017097685, -638916.2, -9987.926, 0.0, 5.012879, 4.951159 
5.0891757e+2, 2.4077217e+2, -599903.5, -706836.6, 360.8229, -0.017771674, 0.011548298, -599902.3, -19467.166, 0.0, 5.012573, 4.9438176 
5.089172e+2, 2.4571672e+2, -550711.25, -656297.5, 369.90683, -0.023017516, 0.010652891, -550709.94, -18727.79, 0.0, 5.0122414, 4.9443326 
5.089169e+2, 2.5066116e+2, -502164.0, -607278.25, 280.32465, -0.028464377, 0.007827406, -502163.25, -18632.863, 0.0, 5.0119133, 4.9443307 
5.089165e+2, 2.5560567e+2, -453860.84, -558820.7, 192.0433, -0.033853605, 0.0054010856, -453860.5, -18782.254, 0.0, 5.0115814, 4.9441304 
5.089159e+2, 2.6054668e+2, -412718.13, -526197.8, 243.67235, -0.041382387, 0.011330758, -412717.63, -26061.55, 0.0, 5.011177, 4.9383082 
5.089134e+2, 2.6548737e+2, -361224.13, -467714.78, 732.7818, -0.06997752, -0.008837621, -361219.1, -22997.898, 0.0, 5.0102196, 4.941698 
5.0891036e+2, 2.7042854e+2, -314245.03, -419300.25, 1353.1807, -0.10245556, -0.033453107, -314227.6, -24447.488, 0.0, 5.0091686, 4.94175 
5.0890696e+2, 2.7536947e+2, -267277.72, -371031.13, 2077.8403, -0.13572873, -0.06138213, -267236.13, -25895.385, 0.0, 5.008102, 4.941755 
5.0890785e+2, 2.8030723e+2, -246879.86, -388465.84, 4444.158, -0.13764058, -0.0016313823, -246740.5, -53800.824, 0.0, 5.008249, 4.9183154 
5.0891066e+2, 2.8523293e+2, -190330.69, -326526.25, -261.95798, -0.10497383, 0.045583736, -190330.19, -45642.89, 0.0, 5.0094357, 4.9218783 
5.089106e+2, 2.9015473e+2, -139057.97, -276020.06, -1344.8987, -0.084655896, 0.02995402, -139044.75, -42567.25, 0.0, 5.0100408, 4.9218903 
5.089103e+2, 2.950762e+2, -87765.086, -225561.2, -2298.4355, -0.06410601, 0.010020268, -87726.76, -39456.02, 0.0, 5.010612, 4.9219027 
5.0891006e+2, 3.000145e+2, -15438.9375, -92956.734, -3260.409, -0.033515852, -0.0019045311, -15302.046, -15302.046, 0.0, 5.011239, 4.960495 
5.089066e+2, 3.049823e+2, 199.30437, -57962.113, -3829.9019, 0.00515007, -0.063276514, 450.4174, 450.4174, 0.0, 5.011618, 4.972405 
5.089013e+2, 3.0995393e+2, 1598.8816, -55804.434, -4045.9417, 0.036172546, -0.13221985, 1882.6478, 1882.6478, 0.0, 5.011834, 4.972981 
5.0889516e+2, 3.149267e+2, 3081.3445, -53728.977, -4195.3, 0.064077556, -0.1956986, 3389.4856, 3389.4856, 0.0, 5.0120096, 4.973557 
5.139291e+2, 1.2152438e+2, -1712320.8, -1749537.1, 1650.8412, 0.0049685533, -0.008272873, -1712247.8, 36815.45, 0.0, 5.0140157, 4.9897704 
5.139304e+2, 1.265137e+2, -1668395.6, -1711081.6, 183.40408, 0.008931824, 0.020485634, -1668394.9, 31772.809, 0.0, 5.014068, 4.9862885 
5.139307e+2, 1.3149872e+2, -1619184.0, -1661981.1, 262.36414, 0.005123431, 0.007028977, -1619182.4, 32132.418, 0.0, 5.014141, 4.9862876 
5.139309e+2, 1.364837e+2, -1572065.8, -1617178.5, 375.52725, 0.0013316263, -0.005198012, -1572062.6, 30399.49, 0.0, 5.0142136, 4.9848623 
5.139313e+2, 1.4146627e+2, -1529563.9, -1581694.0, 73.45079, -0.00055162003, -0.0008911757, -1529563.9, 24068.281, 0.0, 5.0142407, 4.9802938 
5.139316e+2, 1.464467e+2, -1480510.3, -1532339.1, 43.31897, 0.0011763232, -0.0033682378, -1480510.1, 24311.293, 0.0, 5.0141773, 4.980423 
5.1393193e+2, 1.514271e+2, -1431655.8, -1483382.4, 68.36905, 0.0029990308, -0.006153729, -1431655.6, 24355.268, 0.0, 5.0141106, 4.980423 
5.139322e+2, 1.5640752e+2, -1384149.3, -1437235.5, 120.73326, 0.004817326, -0.008484377, -1384149.0, 23051.475, 0.0, 5.0140433, 4.9794836 
5.1393247e+2, 1.6138417e+2, -1344220.5, -1406889.8, -112.7426, 0.006045462, -0.004289948, -1344220.3, 14207.63, 0.0, 5.0139637, 4.9732623 
5.139323e+2, 1.6635762e+2, -1295575.6, -1358236.9, -201.26189, 0.0062315934, -0.003944404, -1295575.0, 14114.242, 0.0, 5.0138516, 4.9731565 
5.139321e+2, 1.7133106e+2, -1246780.6, -1309268.5, -244.06197, 0.006370535, -0.00346944, -1246779.8, 14170.965, 0.0, 5.013738, 4.973157 
5.1393193e+2, 1.7630452e+2, -1199109.6, -1262679.8, -280.96402, 0.0064984686, -0.0026000363, -1199108.4, 13103.6875, 0.0, 5.013624, 4.9723573 
5.139318e+2, 1.8127424e+2, -1158909.5, -1232141.0, -115.12864, 0.0055900407, 0.0039764857, -1158909.3, 4600.069, 0.0, 5.01355, 4.966112 
5.1393163e+2, 1.8624005e+2, -1109537.1, -1182646.1, -96.112465, 0.002283555, -0.0023049077, -1109537.0, 5305.9844, 0.0, 5.0135655, 4.9662023 
5.1393145e+2, 1.9120586e+2, -1060276.9, -1133415.9, -119.26717, -0.0011293117, -0.008980399, -1060276.6, 5900.0596, 0.0, 5.0135856, 4.9662027 
5.139313e+2, 1.9617166e+2, -1011909.6, -1086103.1, -142.25294, -0.0045598377, -0.015345609, -1011909.4, 5601.0244, 0.0, 5.013605, 4.965553 
5.1393116e+2, 2.011341e+2, -971893.1, -1056837.3, -146.32913, -0.007246596, -0.011767278, -971892.9, -3014.809, 0.0, 5.013633, 4.958741 
5.139312e+2, 2.0609343e+2, -922447.1, -1007323.6, -189.4626, -0.007905593, -0.009338004, -922446.7, -2167.8923, 0.0, 5.013661, 4.958809 
5.1393133e+2, 2.1105278e+2, -873097.8, -958014.3, -193.51497, -0.008457003, -0.0068080137, -873097.4, -1417.9092, 0.0, 5.013687, 4.958809 
5.139314e+2, 2.1601214e+2, -824416.0, -910161.4, -197.73256, -0.009027868, -0.0041317185, -824415.5, -1335.4391, 0.0, 5.0137134, 4.9583097 
5.1393145e+2, 2.2096789e+2, -784301.06, -880719.5, -276.62616, -0.00941322, 0.005760425, -784300.3, -9785.213, 0.0, 5.0136685, 4.9515047 
5.1393133e+2, 2.2591981e+2, -735229.44, -830702.3, -205.31956, -0.009695763, 0.0034070346, -735229.0, -9243.09, 0.0, 5.0134125, 4.951845 
5.139312e+2, 2.308717e+2, -686641.4, -781702.7, -52.539825, -0.010032268, 0.00050940464, -686641.4, -9184.619, 0.0, 5.013142, 4.9518476 
5.139311e+2, 2.3582359e+2, -638699.8, -734146.1, 102.63164, -0.010402106, -0.0024385815, -638699.75, -9772.079, 0.0, 5.0128713, 4.951348 
5.1393074e+2, 2.407721e+2, -599948.8, -706790.6, 113.87827, -0.012494322, 0.007328471, -599948.75, -19515.92, 0.0, 5.012553, 4.9438376 
5.1392984e+2, 2.4571693e+2, -550880.9, -656483.4, 110.662094, -0.01976677, 0.009699908, -550880.8, -18903.242, 0.0, 5.0122156, 4.9442735 
5.1392895e+2, 2.5066167e+2, -502332.7, -607459.44, 27.453596, -0.027430229, 0.010383547, -502332.7, -18809.232, 0.0, 5.0118876, 4.9442725 
5.1392806e+2, 2.5560647e+2, -454028.6, -558997.2, -54.44158, -0.035108794, 0.011486664, -454028.6, -18959.617, 0.0, 5.011555, 4.944073 
5.139269e+2, 2.605475e+2, -412412.78, -525096.1, -168.79967, -0.04396465, 0.016614314, -412412.53, -25766.67, 0.0, 5.011123, 4.9386997 
5.139239e+2, 2.654873e+2, -360865.78, -465907.72, 271.26764, -0.070835024, -0.018518286, -360865.1, -22651.604, 0.0, 5.0100894, 4.942351 
5.1392025e+2, 2.7042764e+2, -314063.25, -417359.4, 978.564, -0.102270916, -0.05848009, -314053.97, -24280.154, 0.0, 5.0089684, 4.9424667 
5.1391625e+2, 2.7536795e+2, -267272.56, -368956.22, 1790.1271, -0.13547942, -0.10102009, -267241.06, -25906.543, 0.0, 5.007831, 4.942535 
5.139169e+2, 2.8030556e+2, -247571.45, -390290.06, 5161.4595, -0.140073, -0.045478527, -247385.03, -54454.746, 0.0, 5.0082793, 4.917705 
5.1392084e+2, 2.852321e+2, -190504.34, -328910.63, 110.03682, -0.10351835, 0.018273363, -190504.27, -45829.016, 0.0, 5.009708, 4.9210215 
5.1392186e+2, 2.9015464e+2, -139326.45, -278178.78, -847.5733, -0.07693045, 0.01793008, -139321.28, -42857.14, 0.0, 5.0102677, 4.921106 
5.139227e+2, 2.9507694e+2, -88128.82, -227495.0, -1675.7495, -0.051172625, 0.013145476, -88108.68, -39853.08, 0.0, 5.010793, 4.9211903 
5.139236e+2, 3.0001557e+2, -16191.287, -95073.695, -2530.3408, -0.015971199, 0.0122403335, -16110.204, -16110.204, 0.0, 5.011344, 4.95971 
5.139214e+2, 3.0498108e+2, -842.0379, -59810.7, -2952.0496, 0.03039171, -0.0660192, -694.62286, -694.62286, 0.0, 5.0115895, 4.9717407 
5.139173e+2, 3.0995014e+2, 92.35691, -58036.734, -2895.7869, 0.067502104, -0.15395159, 236.25858, 236.25858, 0.0, 5.011689, 4.972255 
5.1391226e+2, 3.1492066e+2, 1109.9796, -56344.926, -2772.7634, 0.09887298, -0.23244984, 1243.4824, 1243.4824, 0.0, 5.011749, 4.97277 
5.189427e+2, 1.2152381e+2, -1712515.5, -1749386.1, 1539.6857, 0.00016943547, -0.009179198, -1712451.3, 36617.285, 0.0, 5.0139, 4.9898767 
5.1894486e+2, 1.2651314e+2, -1668687.9, -1711008.1, 288.1964, 0.01380198, 0.018526211, -1668685.9, 31487.023, 0.0, 5.013926, 4.9863825 
5.189449e+2, 1.3149822e+2, -1619529.8, -1661934.1, 346.6191, 0.006802537, 0.0047703283, -1619526.9, 31792.076, 0.0, 5.0139804, 4.9863815 
5.189449e+2, 1.3648327e+2, -1572480.8, -1617162.0, 439.55014, -0.00017891036, -0.0077663944, -1572476.5, 29988.865, 0.0, 5.0140285, 4.9849577 
5.1894516e+2, 1.4146592e+2, -1530116.6, -1581883.3, 32.375214, -0.0037225455, -0.0033893299, -1530116.6, 23517.838, 0.0, 5.014039, 4.9803286 
5.1894563e+2, 1.4644647e+2, -1481057.6, -1532551.3, -52.162468, -0.00032965056, -0.004863616, -1481057.5, 23765.223, 0.0, 5.0139823, 4.980447 
5.1894605e+2, 1.51427e+2, -1432185.4, -1483585.3, -62.69987, 0.0032614334, -0.0066162376, -1432185.3, 23825.922, 0.0, 5.013921, 4.980447 
5.1894647e+2, 1.5640754e+2, -1384663.6, -1437424.1, -45.25135, 0.006848737, -0.007914346, -1384663.6, 22536.104, 0.0, 5.0138574, 4.97951 
5.189467e+2, 1.6138425e+2, -1344787.1, -1407252.5, -323.66907, 0.009137409, -0.0030613004, -1344785.5, 13641.237, 0.0, 5.013791, 4.973223 
5.189464e+2, 1.6635762e+2, -1296045.4, -1358583.4, -399.09427, 0.008802644, -0.0029643474, -1296042.9, 13646.087, 0.0, 5.013718, 4.973104 
5.1894605e+2, 1.7133099e+2, -1247142.1, -1309561.5, -420.3663, 0.008363679, -0.0027802775, -1247139.3, 13812.065, 0.0, 5.013641, 4.973104 
5.1894575e+2, 1.7630437e+2, -1199373.6, -1262922.9, -434.67618, 0.00791644, -0.0022022387, -1199370.8, 12842.935, 0.0, 5.0135593, 4.972306 
5.1894546e+2, 1.81274e+2, -1159092.4, -1232319.0, -182.57971, 0.006337751, 0.0040804795, -1159091.9, 4419.7935, 0.0, 5.013507, 4.966072 
5.189452e+2, 1.8623976e+2, -1109709.9, -1182802.9, -140.26016, 0.002195244, -0.0025962782, -1109709.6, 5136.1943, 0.0, 5.0135226, 4.966169 
5.189449e+2, 1.9120547e+2, -1060467.0, -1133580.1, -166.43413, -0.0020539998, -0.009681595, -1060466.6, 5713.2944, 0.0, 5.0135365, 4.96617 
5.189447e+2, 1.9617122e+2, -1012132.56, -1086281.9, -192.6972, -0.0063183326, -0.01645531, -1012132.06, 5382.0522, 0.0, 5.0135446, 4.96552 
5.1894456e+2, 2.0113361e+2, -972161.56, -1057010.3, -198.64526, -0.009286582, -0.013018859, -972161.06, -3279.0474, 0.0, 5.0135508, 4.9587207 
5.189448e+2, 2.0609295e+2, -922808.4, -1007516.1, -261.75775, -0.008718955, -0.010294884, -922807.56, -2524.7224, 0.0, 5.0135417, 4.958798 
5.189451e+2, 2.1105233e+2, -873585.7, -958264.8, -280.91055, -0.0079531, -0.0074784434, -873584.75, -1901.2115, 0.0, 5.0135236, 4.9587984 
5.189453e+2, 2.160117e+2, -825049.9, -910478.3, -299.51447, -0.0072009894, -0.004516521, -825048.9, -1964.6388, 0.0, 5.0134983, 4.9582996 
5.189454e+2, 2.209675e+2, -784845.9, -880722.6, -554.4828, -0.006348765, 0.0052984073, -784842.7, -10323.71, 0.0, 5.013429, 4.951613 
5.1894516e+2, 2.2591946e+2, -735512.6, -830436.2, -598.1078, -0.0058399094, 0.0017269225, -735508.8, -9520.165, 0.0, 5.013235, 4.952017 
5.189448e+2, 2.3087138e+2, -686767.4, -781362.0, -505.2519, -0.00543705, -0.002474477, -686764.7, -9306.394, 0.0, 5.0130205, 4.952019 
5.189445e+2, 2.3582333e+2, -638705.25, -733747.7, -413.29016, -0.0050703725, -0.006727484, -638703.44, -9775.488, 0.0, 5.0127926, 4.95152 
5.1894385e+2, 2.4077196e+2, -600072.56, -706859.0, -520.02057, -0.0070359143, 0.0032016227, -600070.06, -19638.705, 0.0, 5.0125175, 4.94383 
5.189425e+2, 2.4571708e+2, -550926.56, -656659.9, -554.0085, -0.016000716, 0.00899842, -550923.7, -18949.9, 0.0, 5.0122385, 4.944202 
5.189411e+2, 2.506621e+2, -502245.66, -607573.25, -671.0085, -0.02545421, 0.01319139, -502241.38, -18723.963, 0.0, 5.01196, 4.9442015 
5.189396e+2, 2.5560716e+2, -453841.16, -559062.9, -790.44196, -0.034901615, 0.01783524, -453835.22, -18774.598, 0.0, 5.0116673, 4.9440026 
5.189381e+2, 2.6054808e+2, -411952.84, -524426.56, -1350.5342, -0.043959804, 0.021961832, -411936.66, -25298.93, 0.0, 5.0112224, 4.9388833 
5.189345e+2, 2.6548675e+2, -360864.5, -465036.47, -1977.6357, -0.06767531, -0.028917646, -360826.97, -22615.957, 0.0, 5.0099607, 4.9426937 
5.189303e+2, 2.704259e+2, -315163.28, -416983.03, -2425.6614, -0.0961005, -0.08584046, -315105.5, -25328.172, 0.0, 5.0084615, 4.942804 
5.189257e+2, 2.753649e+2, -269866.28, -369237.5, -2962.9814, -0.12652348, -0.14554568, -269778.0, -28433.72, 0.0, 5.006807, 4.942867 
5.1892674e+2, 2.8030208e+2, -253265.98, -395073.5, 1245.574, -0.12977128, -0.09209928, -253255.05, -60314.973, 0.0, 5.006785, 4.916667 
5.1893187e+2, 2.8522992e+2, -193453.05, -331161.1, -3079.8518, -0.092091955, -0.008517562, -193384.2, -48707.84, 0.0, 5.00897, 4.9204764 
5.1893383e+2, 2.9015368e+2, -140081.58, -279525.47, -2846.586, -0.063410036, 0.006214952, -140023.5, -43564.363, 0.0, 5.0103116, 4.920537 
5.1893556e+2, 2.9507717e+2, -87355.13, -228227.4, -2746.8765, -0.035634212, 0.01644333, -87301.59, -39056.832, 0.0, 5.0113945, 4.920598 
5.189375e+2, 3.0001637e+2, -15302.516, -97148.3, -3061.0984, 0.0033509012, 0.02791209, -15188.1875, -15188.1875, 0.0, 5.012267, 4.958503 
5.189367e+2, 3.0497915e+2, 234.48184, -61075.33, -4115.243, 0.060951486, -0.07173905, 509.4722, 509.4722, 0.0, 5.012483, 4.970756 
5.189339e+2, 3.099448e+2, -73.31911, -59647.44, -4130.983, 0.10956317, -0.19091332, 211.76683, 211.76683, 0.0, 5.012144, 4.9713154 
5.1893014e+2, 3.149119e+2, -1419.5382, -58764.07, -3403.7498, 0.1518907, -0.30147544, -1218.2115, -1218.2115, 0.0, 5.011364, 4.971874 
5.2395624e+2, 1.2152367e+2, -1711669.5, -1749167.8, 1537.3048, -0.0042266278, -0.010064778, -1711606.6, 37462.508, 0.0, 5.0142226, 4.989791 
5.239588e+2, 1.265128e+2, -1667991.6, -1710571.0, 694.40375, 0.013183663, 0.015389152, -1667980.3, 32195.064, 0.0, 5.0141363, 4.986424 
5.239589e+2, 1.3149798e+2, -1619079.5, -1661617.4, 712.2985, 0.0065174643, 0.0024457541, -1619067.5, 32252.533, 0.0, 5.0141096, 4.9864235 
5.23959e+2, 1.3648315e+2, -1572256.8, -1616954.4, 759.8732, -0.000091288224, -0.009293024, -1572243.9, 30221.219, 0.0, 5.0140824, 4.9850006 
5.2395916e+2, 1.4146589e+2, -1530178.0, -1582041.9, 270.06424, -0.0032789235, -0.004216395, -1530176.6, 23456.87, 0.0, 5.0140457, 4.9802732 
5.239596e+2, 1.4644642e+2, -1481152.1, -1532794.3, 91.40853, 0.0004817066, -0.0049343524, -1481152.0, 23670.568, 0.0, 5.0139923, 4.9803615 
5.2396e+2, 1.5142696e+2, -1432261.3, -1483819.5, -5.352477, 0.0044482825, -0.00591555, -1432261.3, 23750.58, 0.0, 5.0139365, 4.9803615 
5.239605e+2, 1.5640748e+2, -1384710.8, -1437638.8, -73.32053, 0.008423251, -0.006440642, -1384710.8, 22490.383, 0.0, 5.013881, 4.979427 
5.2396065e+2, 1.6138415e+2, -1344649.8, -1407205.9, -375.81213, 0.010741964, -0.0014780746, -1344647.5, 13781.205, 0.0, 5.013841, 4.973215 
5.2396023e+2, 1.6635741e+2, -1295666.1, -1358370.9, -398.41882, 0.009634311, -0.0026625516, -1295663.6, 14027.953, 0.0, 5.01384, 4.973117 
5.2395976e+2, 1.7133066e+2, -1246535.4, -1309239.6, -371.50052, 0.008423298, -0.0038031274, -1246533.3, 14421.252, 0.0, 5.0138407, 4.9731174 
5.2395934e+2, 1.7630391e+2, -1198528.4, -1262485.0, -336.81573, 0.0072356043, -0.004548402, -1198526.6, 13690.726, 0.0, 5.013841, 4.9723196 
5.23959e+2, 1.8127349e+2, -1158129.6, -1231901.9, -26.138252, 0.0052502463, 0.0010497924, -1158129.6, 5385.99, 0.0, 5.013844, 4.9660535 
5.239588e+2, 1.862393e+2, -1108826.9, -1182463.0, 24.489882, 0.0014624095, -0.0045958287, -1108826.9, 6022.366, 0.0, 5.013841, 4.9661345 
5.239586e+2, 1.9120511e+2, -1059638.3, -1133267.5, -1.4598856, -0.002358331, -0.01055846, -1059638.3, 6544.5527, 0.0, 5.013837, 4.9661355 
5.239584e+2, 1.9617091e+2, -1011342.2, -1085989.3, -27.527704, -0.006150627, -0.016209638, -1011342.2, 6174.236, 0.0, 5.0138326, 4.9654856 
5.239584e+2, 2.0113334e+2, -971514.75, -1056803.4, -86.678406, -0.00844614, -0.012000472, -971514.7, -2630.4932, 0.0, 5.013793, 4.9586787 
5.2395856e+2, 2.0609266e+2, -922550.94, -1007522.5, -203.43622, -0.0068453182, -0.009149814, -922550.44, -2264.7915, 0.0, 5.0136557, 4.9587436 
5.239588e+2, 2.1105199e+2, -873686.06, -958437.7, -260.41357, -0.004976939, -0.0062105986, -873685.3, -1998.1816, 0.0, 5.013513, 4.9587445 
5.2395904e+2, 2.160113e+2, -825485.5, -910806.25, -318.07016, -0.0030595483, -0.0031246229, -825484.3, -2395.785, 0.0, 5.01337, 4.958246 
5.2395916e+2, 2.2096704e+2, -785316.44, -880918.7, -617.62024, -0.0015100228, 0.0063806153, -785312.44, -10788.428, 0.0, 5.013255, 4.9516263 
5.239587e+2, 2.2591889e+2, -735569.9, -830390.75, -754.65063, -0.0018596381, 0.0014237933, -735563.9, -9569.3545, 0.0, 5.013193, 4.952054 
5.239582e+2, 2.3087071e+2, -686389.0, -781119.2, -753.98334, -0.0023375405, -0.004212682, -686383.0, -8918.159, 0.0, 5.0131316, 4.952056 
5.239577e+2, 2.3582254e+2, -637858.4, -733294.7, -751.5364, -0.0027590392, -0.009906594, -637852.44, -8917.149, 0.0, 5.013069, 4.9515557 
5.239569e+2, 2.407711e+2, -598692.7, -706207.9, -926.647, -0.0047101416, -0.0010810368, -598684.75, -18245.748, 0.0, 5.0129795, 4.943856 
5.2395564e+2, 2.4571645e+2, -549236.5, -656033.25, -908.545, -0.011297635, 0.007269129, -549228.75, -17250.059, 0.0, 5.0128374, 4.944164 
5.239543e+2, 2.5066173e+2, -500190.44, -606792.4, -944.25336, -0.018035473, 0.014690873, -500182.06, -16662.863, 0.0, 5.01269, 4.9441614 
5.239529e+2, 2.556071e+2, -451391.25, -558117.0, -982.848, -0.024599945, 0.0226361, -451382.22, -16322.978, 0.0, 5.012539, 4.94396 
5.239514e+2, 2.6054806e+2, -409353.4, -524379.0, -1768.7793, -0.029691823, 0.028529027, -409326.22, -22690.746, 0.0, 5.01231, 4.9384556 
5.2394795e+2, 2.6548526e+2, -357335.16, -465853.25, -2863.5647, -0.044884358, -0.02749148, -357259.66, -19036.902, 0.0, 5.0115576, 4.9417906 
5.2394384e+2, 2.7042246e+2, -309764.03, -417323.2, -3480.3015, -0.06345544, -0.092158444, -309651.53, -19844.186, 0.0, 5.0107203, 4.9418116 
5.2393943e+2, 2.7535933e+2, -262194.0, -368954.84, -3995.766, -0.083081916, -0.16159526, -262044.67, -20649.605, 0.0, 5.009871, 4.941785 
5.2394027e+2, 2.8029424e+2, -243285.44, -387317.2, 2134.234, -0.08258485, -0.12934412, -243253.83, -50241.883, 0.0, 5.0097365, 4.9180355 
5.239456e+2, 2.852236e+2, -186991.3, -325310.3, -966.5555, -0.05598098, -0.042933572, -186984.55, -42254.223, 0.0, 5.0109863, 4.921484 
5.2394813e+2, 2.9014963e+2, -134259.88, -274505.22, -974.36774, -0.03576906, -0.012225388, -134253.1, -37766.227, 0.0, 5.0121326, 4.9213862 
5.2395034e+2, 2.9507524e+2, -81505.36, -223768.6, -871.325, -0.015098242, 0.013415725, -81500.02, -33252.08, 0.0, 5.0132537, 4.921289 
5.2395296e+2, 3.0001622e+2, -9375.091, -95180.875, -1203.3236, 0.017685046, 0.03793025, -9358.219, -9358.219, 0.0, 5.0145416, 4.958196 
5.239533e+2, 3.0497697e+2, 8075.177, -62430.2, -3747.42, 0.074142456, -0.0619039, 8273.796, 8273.796, 0.0, 5.0162287, 4.9686723 
5.239518e+2, 3.0993956e+2, 13562.035, -57709.29, -5805.6646, 0.1255816, -0.18813752, 14031.859, 14031.859, 0.0, 5.0178638, 4.9695396 
5.239495e+2, 3.1490356e+2, 19171.932, -53117.17, -7696.5176, 0.17357627, -0.3120327, 19982.285, 19982.285, 0.0, 5.019471, 4.970409 
5.2897e+2, 1.2152372e+2, -1711832.0, -1749491.5, 978.26465, -0.00896009, -0.011571854, -1711806.5, 37260.906, 0.0, 5.014221, 4.989685 
5.2897274e+2, 1.2651266e+2, -1667956.1, -1710496.8, 671.25903, 0.010426948, 0.011954545, -1667945.5, 32229.896, 0.0, 5.014136, 4.986449 
5.289729e+2, 1.3149798e+2, -1619043.6, -1661544.4, 690.99335, 0.0054515614, 0.00015445905, -1619032.4, 32286.395, 0.0, 5.014109, 4.986448 
5.2897316e+2, 1.364833e+2, -1572221.5, -1616884.9, 736.04456, 0.000509947, -0.010445007, -1572209.4, 30252.914, 0.0, 5.0140824, 4.985024 
5.289734e+2, 1.4146608e+2, -1530311.8, -1582316.3, 233.46808, -0.0016356907, -0.004451851, -1530310.6, 23319.588, 0.0, 5.0140457, 4.9801826 
5.2897376e+2, 1.4644659e+2, -1481334.0, -1533168.3, 48.47533, 0.0020307545, -0.0044901725, -1481333.9, 23486.76, 0.0, 5.013992, 4.9802375 
5.289741e+2, 1.5142705e+2, -1432441.8, -1484192.1, -47.55026, 0.0058572153, -0.004789311, -1432441.8, 23569.563, 0.0, 5.0139365, 4.9802375 
5.289745e+2, 1.5640752e+2, -1384885.9, -1438001.5, -114.730865, 0.009684887, -0.0046333256, -1384885.8, 22316.244, 0.0, 5.0138807, 4.9793057 
5.2897453e+2, 1.6138412e+2, -1344651.6, -1407206.1, -387.66434, 0.01164864, 0.00026767422, -1344649.3, 13781.442, 0.0, 5.0138407, 4.973215 
5.2897406e+2, 1.6635723e+2, -1295617.8, -1358266.5, -398.8243, 0.00973051, -0.0025834725, -1295615.3, 14078.752, 0.0, 5.0138397, 4.9731517 
5.289736e+2, 1.7133035e+2, -1246487.1, -1309135.6, -370.88312, 0.007678523, -0.0054489, -1246484.9, 14472.38, 0.0, 5.01384, 4.973152 
5.2897304e+2, 1.7630346e+2, -1198478.9, -1262379.0, -333.83188, 0.0056357877, -0.007921386, -1198477.1, 13743.451, 0.0, 5.0138407, 4.9723554 
5.289727e+2, 1.8127297e+2, -1158148.8, -1231936.3, -27.548965, 0.003283029, -0.0031390635, -1158148.8, 5370.2495, 0.0, 5.013843, 4.9660425 
5.289725e+2, 1.8623891e+2, -1108875.0, -1182558.4, 22.224901, 0.00030817854, -0.007216585, -1108875.0, 5976.6978, 0.0, 5.01384, 4.966103 
5.289724e+2, 1.9120485e+2, -1059686.0, -1133362.6, -2.0292695, -0.0026714427, -0.011492903, -1059686.0, 6498.299, 0.0, 5.013836, 4.9661036 
5.2897227e+2, 1.9617079e+2, -1011389.56, -1086084.0, -26.400717, -0.005643741, -0.0154608255, -1011389.5, 6127.3857, 0.0, 5.0138316, 4.965454 
5.2897227e+2, 2.0113331e+2, -971591.2, -1056958.3, -168.9709, -0.007023832, -0.010075528, -971590.9, -2706.6343, 0.0, 5.0137916, 4.9586267 
5.2897245e+2, 2.0609257e+2, -922649.4, -1007727.56, -313.6077, -0.0043550124, -0.007188025, -922648.25, -2361.53, 0.0, 5.013654, 4.9586744 
5.289727e+2, 2.110518e+2, -873783.0, -958642.8, -368.3146, -0.0014509944, -0.0042545213, -873781.44, -2092.2205, 0.0, 5.0135117, 4.9586754 
5.289729e+2, 2.1601106e+2, -825580.94, -911011.4, -423.68906, 0.0014740033, -0.0011778043, -825578.8, -2487.1482, 0.0, 5.013369, 4.958176 
5.289729e+2, 2.2096671e+2, -785348.25, -880969.4, -675.3818, 0.0034053042, 0.0079368595, -785343.44, -10815.193, 0.0, 5.0132523, 4.95161 
5.289722e+2, 2.2591841e+2, -735579.0, -830377.3, -792.7121, 0.0016473345, 0.001590014, -735572.4, -9572.421, 0.0, 5.0131884, 4.9520607 
5.2897155e+2, 2.308701e+2, -686400.56, -781102.56, -786.72235, -0.00040986514, -0.005490993, -686394.06, -8922.526, 0.0, 5.0131254, 4.9520636 
5.2897084e+2, 2.3582178e+2, -637872.4, -733274.9, -778.9467, -0.0024657159, -0.012633989, -637866.0, -8922.836, 0.0, 5.013062, 4.9515643 
5.2896994e+2, 2.4077025e+2, -598686.7, -706057.44, -1007.89087, -0.0048092846, -0.0050087743, -598677.25, -18229.857, 0.0, 5.0129604, 4.9439116 
5.289689e+2, 2.4571584e+2, -549292.56, -655986.06, -1024.3997, -0.0077522, 0.005441421, -549282.7, -17298.725, 0.0, 5.012813, 4.944186 
5.289678e+2, 2.506614e+2, -500245.53, -606749.75, -1051.8481, -0.010619154, 0.015573426, -500235.16, -16714.285, 0.0, 5.012666, 4.9441814 
5.289666e+2, 2.5560704e+2, -451445.4, -558078.94, -1082.1765, -0.013393959, 0.026270607, -451434.44, -16377.173, 0.0, 5.0125155, 4.943979 
5.2896535e+2, 2.605481e+2, -410024.63, -525560.1, -2064.6965, -0.014301872, 0.034104936, -409987.75, -23355.629, 0.0, 5.012263, 4.938063 
5.2896196e+2, 2.6548427e+2, -358628.03, -467930.03, -3181.8872, -0.023664363, -0.023927903, -358535.5, -20304.457, 0.0, 5.011443, 4.9411116 
5.2895796e+2, 2.704204e+2, -311176.03, -419196.94, -3696.287, -0.036955252, -0.09086827, -311049.72, -21221.805, 0.0, 5.010544, 4.941208 
5.2895355e+2, 2.7535632e+2, -263725.5, -370625.84, -4109.2314, -0.052024975, -0.16225468, -263567.78, -22141.033, 0.0, 5.0096326, 4.9412565 
5.28954e+2, 2.8029e+2, -241474.98, -383024.22, 2139.8235, -0.05153123, -0.145621, -241442.66, -48386.77, 0.0, 5.0097184, 4.9195833 
5.289595e+2, 2.8521973e+2, -185611.2, -323423.8, -187.97197, -0.030142196, -0.064428866, -185610.94, -40846.77, 0.0, 5.0111647, 4.922217 
5.2896273e+2, 2.901469e+2, -132903.2, -272367.75, -57.313236, -0.01465352, -0.026531296, -132903.17, -36400.695, 0.0, 5.012291, 4.922192 
5.2896553e+2, 2.950736e+2, -80173.25, -221381.38, 183.9746, 0.00042872826, 0.005657805, -80173.01, -31927.818, 0.0, 5.0133915, 4.9221673 
5.2896875e+2, 3.0001587e+2, -9351.979, -95128.97, -58.892536, 0.02615824, 0.036832817, -9351.9375, -9351.9375, 0.0, 5.014602, 4.958234 
5.2897e+2, 3.0497545e+2, 4817.64, -68624.61, -2312.831, 0.07425273, -0.049850453, 4890.4033, 4890.4033, 0.0, 5.0160856, 4.9666195 
5.289695e+2, 3.0993667e+2, 9706.303, -64084.08, -4032.2847, 0.11585634, -0.15635917, 9925.994, 9925.994, 0.0, 5.0175347, 4.9675064 
5.2896816e+2, 3.1489962e+2, 14719.975, -59672.4, -5584.382, 0.15218827, -0.25576484, 15136.84, 15136.84, 0.0, 5.0189567, 4.968395 
5.3398377e+2, 1.2152363e+2, -1711865.4, -1749552.4, 419.32205, -0.013946044, -0.014215437, -1711860.8, 37206.336, 0.0, 5.01422, 4.9896655 
5.3398657e+2, 1.2651251e+2, -1667921.3, -1710422.1, 648.72205, 0.00766385, 0.00859223, -1667911.4, 32264.234, 0.0, 5.0141354, 4.9864736 
5.3398687e+2, 1.3149798e+2, -1619008.3, -1661471.0, 670.2958, 0.004385487, -0.0020930162, -1618997.6, 32319.768, 0.0, 5.014109, 4.986472 
5.339872e+2, 1.3648343e+2, -1572186.9, -1616815.1, 712.65594, 0.001117153, -0.011581662, -1572175.5, 30283.967, 0.0, 5.0140824, 4.9850473 
5.339876e+2, 1.4146629e+2, -1530451.3, -1582601.9, 196.57506, 0.0000063726434, -0.004666712, -1530450.5, 23176.56, 0.0, 5.0140452, 4.980088 
5.3398794e+2, 1.4644673e+2, -1481515.9, -1533542.0, 5.5676556, 0.0035772556, -0.0040318193, -1481515.9, 23302.807, 0.0, 5.0139914, 4.9801135 
5.339882e+2, 1.5142715e+2, -1432622.5, -1484564.8, -89.72247, 0.0072649596, -0.0036626735, -1432622.4, 23388.402, 0.0, 5.013936, 4.9801135 
5.339885e+2, 1.5640755e+2, -1385061.4, -1438364.5, -156.18672, 0.010946691, -0.0028393876, -1385060.9, 22141.902, 0.0, 5.0138803, 4.9791846 
5.3398854e+2, 1.6138408e+2, -1344657.8, -1407214.9, -399.58798, 0.012556315, 0.002033995, -1344655.1, 13777.405, 0.0, 5.01384, 4.9732122 
5.3398794e+2, 1.6635706e+2, -1295569.6, -1358161.8, -399.07645, 0.009830215, -0.002484253, -1295567.1, 14129.231, 0.0, 5.0138392, 4.973187 
5.339873e+2, 1.7133003e+2, -1246439.1, -1309031.5, -370.1124, 0.0069397027, -0.007088939, -1246437.0, 14523.194, 0.0, 5.01384, 4.9731874 
5.339867e+2, 1.7630301e+2, -1198429.8, -1262272.6, -330.67252, 0.004044372, -0.011303042, -1198428.0, 13795.878, 0.0, 5.0138407, 4.9723916 
5.3398633e+2, 1.8127246e+2, -1158173.5, -1231981.6, -29.826637, 0.0013206517, -0.007304998, -1158173.5, 5348.9272, 0.0, 5.013842, 4.9660273 
5.339863e+2, 1.8623853e+2, -1108923.5, -1182653.5, 19.995007, -0.0008404823, -0.009823161, -1108923.5, 5930.5313, 0.0, 5.013839, 4.966071 
5.339862e+2, 1.9120461e+2, -1059734.3, -1133457.5, -2.5635576, -0.0029770697, -0.01243914, -1059734.3, 6451.5586, 0.0, 5.013835, 4.9660716 
5.3398615e+2, 1.9617069e+2, -1011437.4, -1086178.5, -25.23862, -0.005127456, -0.014749779, -1011437.4, 6080.0605, 0.0, 5.0138307, 4.965422 
5.339863e+2, 2.0113328e+2, -971678.4, -1057135.5, -251.61111, -0.0055974294, -0.008094218, -971677.7, -2793.379, 0.0, 5.01379, 4.958567 
5.339864e+2, 2.0609245e+2, -922748.44, -1007932.2, -423.2746, -0.0018592767, -0.005159125, -922746.3, -2458.6426, 0.0, 5.013653, 4.958605 
5.3398657e+2, 2.1105164e+2, -873880.5, -958847.44, -475.71088, 0.0020838163, -0.002268683, -873877.9, -2186.6292, 0.0, 5.0135107, 4.9586053 
5.339867e+2, 2.1601082e+2, -825676.94, -911216.06, -528.80304, 0.0060198572, 0.00076142605, -825673.6, -2578.8794, 0.0, 5.0133686, 4.958106 
5.339867e+2, 2.2096637e+2, -785394.44, -881049.3, -736.61584, 0.008328546, 0.009523772, -785388.8, -10856.294, 0.0, 5.0132494, 4.951583 
5.339858e+2, 2.2591794e+2, -735589.6, -830362.75, -832.74005, 0.0051494245, 0.0017383398, -735582.3, -9576.915, 0.0, 5.0131836, 4.952066 
5.3398484e+2, 2.3086947e+2, -686413.6, -781084.75, -821.4281, 0.0015017939, -0.0068795737, -686406.5, -8928.291, 0.0, 5.0131197, 4.95207 
5.3398395e+2, 2.3582101e+2, -637887.9, -733253.8, -808.324, -0.0021995422, -0.015564025, -637881.0, -8929.889, 0.0, 5.013055, 4.9515724 
5.33983e+2, 2.4076943e+2, -598722.44, -705989.1, -1102.5559, -0.0049345167, -0.00867282, -598711.1, -18255.57, 0.0, 5.012942, 4.9439373 
5.339821e+2, 2.4571526e+2, -549354.7, -655933.06, -1138.5123, -0.004197404, 0.0040444937, -549342.56, -17353.639, 0.0, 5.012789, 4.944207 
5.339812e+2, 2.506611e+2, -500306.75, -606701.3, -1157.7006, -0.0031570785, 0.016751757, -500294.16, -16771.92, 0.0, 5.0126424, 4.944201 
5.339803e+2, 2.5560704e+2, -451505.66, -558035.0, -1179.7626, -0.0021058097, 0.030065894, -451492.6, -16437.541, 0.0, 5.012492, 4.9439964 
5.3397924e+2, 2.6054808e+2, -410838.47, -527022.94, -2435.4417, 0.0014856189, 0.03933938, -410787.44, -24157.795, 0.0, 5.0122156, 4.937559 
5.3397584e+2, 2.654831e+2, -359942.28, -469990.8, -3612.5427, -0.0027071754, -0.022553256, -359823.8, -21582.621, 0.0, 5.011329, 4.940406 
5.3397167e+2, 2.704181e+2, -312609.25, -421054.2, -4024.6555, -0.011656908, -0.09370476, -312460.1, -22609.152, 0.0, 5.010368, 4.9405775 
5.339672e+2, 2.75353e+2, -265278.0, -372279.84, -4335.1396, -0.023108998, -0.16897826, -265102.63, -23641.18, 0.0, 5.009394, 4.940702 
5.3396773e+2, 2.802859e+2, -240746.53, -381209.9, 2350.1118, -0.019660762, -0.16002311, -240707.22, -47608.22, 0.0, 5.009701, 4.9202566 
5.339739e+2, 2.852162e+2, -184271.69, -321500.34, 451.02963, -0.001609417, -0.07915156, -184270.2, -39475.504, 0.0, 5.0113435, 4.922921 
5.3397757e+2, 2.9014438e+2, -131586.72, -270193.5, 720.2388, 0.008042251, -0.037076265, -131582.97, -35067.004, 0.0, 5.0124493, 4.9229693 
5.3398097e+2, 2.9507208e+2, -78880.94, -218957.47, 1099.8335, 0.016422296, -0.0013508816, -78872.305, -30630.775, 0.0, 5.01353, 4.9230175 
5.339848e+2, 3.0001527e+2, -9994.204, -96513.83, 980.88904, 0.035566393, 0.03487579, -9983.085, -9983.085, 0.0, 5.014663, 4.957719 
5.339869e+2, 3.0497336e+2, 1514.8849, -74784.086, -922.0978, 0.07730061, -0.04428325, 1526.0271, 1526.0271, 0.0, 5.0159426, 4.9644847 
5.3398716e+2, 3.099328e+2, 5804.743, -70424.56, -2302.0437, 0.11031273, -0.14003712, 5874.199, 5874.199, 0.0, 5.017206, 4.965391 
5.339865e+2, 3.1489438e+2, 10221.399, -66193.88, -3514.639, 0.13622595, -0.22392552, 10382.711, 10382.711, 0.0, 5.0184426, 4.9663 
5.389975e+2, 1.2152347e+2, -1712314.1, -1749649.3, -174.7281, -0.018687015, -0.017442854, -1712313.4, 36754.344, 0.0, 5.014045, 4.98972 
5.390004e+2, 1.265124e+2, -1668348.8, -1710589.4, 547.51294, 0.0048300317, 0.0055382596, -1668341.6, 31834.016, 0.0, 5.0139837, 4.9864926 
5.390009e+2, 1.3149798e+2, -1619409.1, -1661623.6, 546.33466, 0.0032827794, -0.004074297, -1619402.0, 31914.16, 0.0, 5.013966, 4.986492 
5.390014e+2, 1.3648355e+2, -1572579.8, -1616964.4, 562.79974, 0.0017397403, -0.012482634, -1572572.6, 29884.346, 0.0, 5.0139422, 4.9850664 
5.3900176e+2, 1.414665e+2, -1530995.1, -1583085.1, 30.592764, 0.0016780165, -0.0046745627, -1530995.1, 22628.875, 0.0, 5.01391, 4.9799933 
5.39002e+2, 1.4644687e+2, -1482032.3, -1534067.0, -140.14348, 0.005092217, -0.0034810985, -1482031.9, 22785.21, 0.0, 5.0138764, 4.9799943 
5.3900224e+2, 1.5142721e+2, -1433078.8, -1485059.3, -208.85533, 0.0085887015, -0.0025661183, -1433077.9, 22932.51, 0.0, 5.0138407, 4.9799943 
5.390024e+2, 1.5640756e+2, -1385459.6, -1438823.0, -248.70418, 0.012081135, -0.0011970961, -1385458.5, 21745.363, 0.0, 5.0138025, 4.9790683 
5.390024e+2, 1.6138402e+2, -1344848.1, -1407320.0, -446.61865, 0.013330528, 0.0036364181, -1344844.9, 13589.813, 0.0, 5.0137796, 4.973206 
5.3900176e+2, 1.6635688e+2, -1295656.4, -1358127.6, -447.9133, 0.009867424, -0.0024361208, -1295653.1, 14045.733, 0.0, 5.013795, 4.9732194 
5.390011e+2, 1.713297e+2, -1246488.4, -1308979.3, -432.9252, 0.0062255627, -0.00867145, -1246485.4, 14477.632, 0.0, 5.0138083, 4.9732194 
5.3900045e+2, 1.7630257e+2, -1198451.4, -1262204.8, -405.85394, 0.0025785342, -0.0145167, -1198448.8, 13778.4375, 0.0, 5.013818, 4.9724245 
5.39e+2, 1.8127196e+2, -1158288.4, -1232083.8, -126.86194, -0.00044506445, -0.011207335, -1158288.1, 5237.6055, 0.0, 5.013814, 4.966006 
5.39e+2, 1.8623814e+2, -1109162.9, -1182846.3, -91.96963, -0.0017891704, -0.012237447, -1109162.8, 5693.8604, 0.0, 5.013774, 4.966036 
5.3900003e+2, 1.9120432e+2, -1060097.0, -1133708.0, -128.25713, -0.0030586664, -0.013280937, -1060096.8, 6090.7007, 0.0, 5.013727, 4.9660363 
5.3900003e+2, 1.9617054e+2, -1011938.7, -1086493.5, -164.68578, -0.0043397727, -0.014018009, -1011938.4, 5579.914, 0.0, 5.013675, 4.965387 
5.3900015e+2, 2.0113322e+2, -972282.9, -1057564.9, -466.7952, -0.0039093127, -0.0060682907, -972280.3, -3395.6792, 0.0, 5.0136123, 4.9585032 
5.3900033e+2, 2.0609234e+2, -923204.4, -1008292.0, -637.1335, 0.00073058606, -0.0031260406, -923199.56, -2910.6306, 0.0, 5.013526, 4.9585404 
5.3900045e+2, 2.1105145e+2, -874197.8, -959141.8, -662.4504, 0.005566999, -0.000357196, -874192.6, -2499.1194, 0.0, 5.0134315, 4.9585404 
5.390006e+2, 2.1601056e+2, -825877.3, -911455.4, -687.962, 0.010397394, 0.002550255, -825871.75, -2773.7039, 0.0, 5.01333, 4.958041 
5.3900045e+2, 2.2096601e+2, -785436.7, -881165.4, -840.42004, 0.013042507, 0.010992075, -785429.3, -10892.446, 0.0, 5.0132565, 4.9515395 
5.389994e+2, 2.2591741e+2, -735387.56, -830287.4, -971.4402, 0.008606959, 0.0018388086, -735377.6, -9366.477, 0.0, 5.0132604, 4.9520555 
5.389983e+2, 2.308688e+2, -686051.0, -780936.3, -1024.6326, 0.0036129018, -0.008286613, -686039.94, -8554.575, 0.0, 5.013254, 4.9520593 
5.389971e+2, 2.3582019e+2, -637409.9, -733053.0, -1080.2294, -0.0014242943, -0.018494653, -637397.7, -8438.04, 0.0, 5.0132313, 4.951561 
5.389961e+2, 2.4076857e+2, -598134.25, -705738.1, -1504.0493, -0.0042909663, -0.011906414, -598113.2, -17649.006, 0.0, 5.01316, 4.9439244 
5.3899544e+2, 2.4571463e+2, -548536.9, -655518.8, -1568.6925, 0.0000634668, 0.0030527245, -548513.9, -16519.428, 0.0, 5.013081, 4.9442177 
5.389947e+2, 2.5066072e+2, -499299.53, -606207.75, -1603.6534, 0.004977235, 0.018008819, -499275.47, -15750.944, 0.0, 5.013006, 4.94421 
5.389941e+2, 2.556069e+2, -450323.53, -557468.44, -1641.5782, 0.009880306, 0.033585887, -450298.4, -15244.299, 0.0, 5.0129247, 4.944004 
5.3899324e+2, 2.6054782e+2, -410401.03, -528426.1, -3335.3281, 0.018533744, 0.043894462, -410306.84, -23677.115, 0.0, 5.0127153, 4.9368443 
5.389898e+2, 2.6548147e+2, -360006.72, -472180.4, -5278.939, 0.020973453, -0.022773955, -359758.84, -21502.438, 0.0, 5.0117764, 4.939428 
5.389857e+2, 2.70415e+2, -313504.78, -423602.5, -6537.3154, 0.018870817, -0.09975957, -313117.97, -23235.385, 0.0, 5.0105314, 4.9395986 
5.389812e+2, 2.753484e+2, -267647.56, -375460.3, -7911.4204, 0.014685164, -0.18124935, -267070.1, -25560.207, 0.0, 5.0090466, 4.9397225 
5.389823e+2, 2.8028032e+2, -243941.86, -382751.72, -1196.716, 0.02752132, -0.17416175, -243931.53, -50774.58, 0.0, 5.00872, 4.9201355 
5.389891e+2, 2.8521177e+2, -184821.34, -319279.13, -2007.7534, 0.039720215, -0.08949892, -184791.38, -39955.848, 0.0, 5.01087, 4.923851 
5.389931e+2, 2.9014114e+2, -130674.79, -267348.13, -988.5957, 0.03842907, -0.04548649, -130667.64, -34129.906, 0.0, 5.0124907, 4.9238935 
5.389968e+2, 2.9507005e+2, -77343.91, -215846.88, -65.13133, 0.036269557, -0.007993167, -77343.875, -29099.463, 0.0, 5.0137963, 4.923936 
5.390012e+2, 3.0001414e+2, -11268.443, -99216.9, 202.92105, 0.04784158, 0.033134572, -11267.975, -11267.975, 0.0, 5.014783, 4.956616 
5.39004e+2, 3.0497026e+2, -3956.8992, -82063.32, -1392.9799, 0.08726952, -0.04473073, -3932.0642, -3932.0642, 0.0, 5.015076, 4.962109 
5.3900504e+2, 3.0992717e+2, -4171.102, -79409.37, -2198.473, 0.11862089, -0.14401908, -4106.917, -4106.917, 0.0, 5.0146737, 4.963088 
5.390051e+2, 3.148863e+2, -5971.353, -77612.37, -2418.9126, 0.14426374, -0.23167294, -5889.773, -5889.773, 0.0, 5.0136204, 4.9640675 
5.440118e+2, 1.2152408e+2, -1711793.4, -1749594.9, -283.97266, -0.016791984, -0.013386057, -1711791.3, 37271.715, 0.0, 5.014258, 4.9896345 
5.44014e+2, 1.265126e+2, -1667719.6, -1710375.0, 666.3478, 0.00043765776, 0.0061007477, -1667709.3, 32465.643, 0.0, 5.0142107, 4.9864535 
5.440147e+2, 1.3149826e+2, -1618828.6, -1661430.1, 623.00665, 0.0014008544, -0.0025335152, -1618819.6, 32495.184, 0.0, 5.0141773, 4.9864535 
5.4401547e+2, 1.364839e+2, -1572034.0, -1616789.4, 589.1041, 0.0023920818, -0.009941347, -1572026.3, 30428.623, 0.0, 5.014143, 4.985027 
5.4401594e+2, 1.414668e+2, -1530433.1, -1582889.9, 67.33422, 0.0036362463, -0.0018640186, -1530433.0, 23188.982, 0.0, 5.0141144, 4.979959 
5.4401606e+2, 1.4644703e+2, -1481376.4, -1533834.5, -42.593807, 0.005913193, -0.001736715, -1481376.3, 23439.99, 0.0, 5.014115, 4.979956 
5.440162e+2, 1.5142724e+2, -1432315.5, -1484774.9, -51.38196, 0.008208658, -0.0019167527, -1432315.5, 23695.441, 0.0, 5.014116, 4.979956 
5.4401624e+2, 1.5640745e+2, -1384580.9, -1438478.0, -32.20203, 0.01051573, -0.0016404141, -1384580.9, 22624.818, 0.0, 5.0141163, 4.979033 
5.440161e+2, 1.613838e+2, -1343849.0, -1406871.1, -171.18333, 0.011136262, 0.0024846473, -1343848.5, 14588.743, 0.0, 5.014124, 4.9731903 
5.440156e+2, 1.6635665e+2, -1294609.6, -1357643.3, -195.68816, 0.008275693, -0.0033900314, -1294609.0, 15091.981, 0.0, 5.014154, 4.97321 
5.44015e+2, 1.7132951e+2, -1245395.1, -1308473.3, -214.55634, 0.0053049116, -0.00938399, -1245394.4, 15570.44, 0.0, 5.014184, 4.9732103 
5.440144e+2, 1.7630237e+2, -1197299.4, -1261669.5, -219.78639, 0.0023515855, -0.014982136, -1197298.6, 14929.892, 0.0, 5.0142145, 4.972417 
5.4401404e+2, 1.8127178e+2, -1157241.3, -1231701.5, -45.37299, 0.0001249962, -0.011388717, -1157241.3, 6285.692, 0.0, 5.0141954, 4.9659543 
5.4401404e+2, 1.8623795e+2, -1108453.4, -1182670.4, -62.43954, -0.00017359568, -0.01191374, -1108453.4, 6405.0938, 0.0, 5.01405, 4.9659657 
5.440141e+2, 1.9120412e+2, -1059693.8, -1133677.8, -126.39902, -0.0003482012, -0.01241778, -1059693.5, 6496.507, 0.0, 5.013899, 4.9659667 
5.440141e+2, 1.961703e+2, -1011823.75, -1086599.5, -190.39325, -0.00049380714, -0.012602088, -1011823.25, 5698.196, 0.0, 5.013747, 4.9653172 
5.4401416e+2, 2.0113297e+2, -972202.4, -1057540.8, -437.52496, 0.0003778303, -0.0044656233, -972200.1, -3311.7805, 0.0, 5.013642, 4.9584985 
5.440141e+2, 2.0609203e+2, -922841.06, -1008086.0, -533.10657, 0.003552978, -0.0021878954, -922837.75, -2545.0867, 0.0, 5.0136433, 4.9585567 
5.4401404e+2, 2.1105109e+2, -873545.7, -958799.4, -500.27014, 0.006867934, -0.00010167569, -873542.75, -1845.5331, 0.0, 5.01365, 4.958557 
5.44014e+2, 2.1601014e+2, -824917.44, -910968.9, -467.43616, 0.010225847, 0.0021344468, -824914.9, -1813.1698, 0.0, 5.0136557, 4.9580584 
5.440138e+2, 2.2096555e+2, -784264.8, -880831.0, -502.61472, 0.01206099, 0.010171908, -784262.2, -9721.2705, 0.0, 5.013705, 4.9514503 
5.44013e+2, 2.2591685e+2, -733872.7, -829932.8, -683.58997, 0.008835752, 0.0014343184, -733867.8, -7850.8315, 0.0, 5.0138555, 4.951909 
5.440121e+2, 2.3086813e+2, -684081.75, -780381.75, -825.53925, 0.0053039026, -0.008223998, -684074.7, -6581.5967, 0.0, 5.01401, 4.951911 
5.440113e+2, 2.3581941e+2, -634945.0, -732281.44, -965.5569, 0.0018417618, -0.017978135, -634935.44, -5966.142, 0.0, 5.014164, 4.951411 
5.4401046e+2, 2.4076767e+2, -594891.8, -704296.75, -1461.0883, 0.0005050344, -0.011512696, -594872.3, -14397.023, 0.0, 5.014294, 4.94392 
5.4400986e+2, 2.4571373e+2, -544797.6, -653756.75, -1500.8762, 0.005904026, 0.0029196565, -544776.94, -12772.702, 0.0, 5.0143685, 4.9442625 
5.440094e+2, 2.5065982e+2, -495170.2, -604277.6, -1467.3707, 0.011895092, 0.017484011, -495150.47, -11617.745, 0.0, 5.0144377, 4.9442544 
5.440088e+2, 2.55606e+2, -445793.66, -555367.44, -1434.4988, 0.017959233, 0.03264368, -445774.88, -10714.187, 0.0, 5.0145035, 4.944048 
5.440082e+2, 2.6054686e+2, -405881.84, -528436.7, -2915.726, 0.0286826, 0.044765618, -405812.53, -19175.742, 0.0, 5.014677, 4.936002 
5.4400563e+2, 2.654799e+2, -352602.13, -472584.94, -4575.4116, 0.03938996, -0.014454472, -352427.88, -14151.638, 0.0, 5.015032, 4.9379253 
5.440025e+2, 2.7041245e+2, -301735.06, -422457.0, -5400.194, 0.048204944, -0.084900424, -301493.97, -11575.022, 0.0, 5.0153694, 4.9379854 
5.4399914e+2, 2.7534464e+2, -250891.73, -372515.25, -6124.6855, 0.056856997, -0.16099234, -250584.1, -9019.193, 0.0, 5.0156965, 4.9379983 
5.440007e+2, 2.8027517e+2, -222742.02, -372087.0, 978.05804, 0.08069173, -0.1581167, -222735.61, -29504.707, 0.0, 5.0160985, 4.9206142 
5.440067e+2, 2.8520665e+2, -169004.08, -309042.53, 361.2326, 0.08081926, -0.0841052, -169003.14, -24098.668, 0.0, 5.0161333, 4.9250293 
5.440102e+2, 2.901365e+2, -119720.47, -259687.66, 216.00015, 0.065154314, -0.04588353, -119720.14, -23123.771, 0.0, 5.016034, 4.9249663 
5.4401344e+2, 2.9506582e+2, -70389.41, -210375.22, 201.44653, 0.05065574, -0.01355125, -70389.12, -22096.078, 0.0, 5.015911, 4.924904 
5.4401726e+2, 3.0001068e+2, -7898.374, -97719.02, 135.68155, 0.051338878, 0.027432032, -7898.1694, -7898.1694, 0.0, 5.0159435, 4.956636 
5.440199e+2, 3.0496824e+2, -778.5981, -83841.16, -686.6802, 0.08354347, -0.025755959, -772.92163, -772.92163, 0.0, 5.0166516, 4.9608126 
5.44021e+2, 3.0992612e+2, 2494.4382, -79495.11, -1234.2515, 0.113810316, -0.10251375, 2513.0142, 2513.0142, 0.0, 5.0173984, 4.961889 
5.440213e+2, 3.1488577e+2, 5911.7954, -75295.984, -1760.7504, 0.14400132, -0.17479452, 5949.954, 5949.954, 0.0, 5.0181184, 4.962966 
5.490264e+2, 1.2152498e+2, -1711926.6, -1749849.9, -502.3077, -0.013016322, -0.0077426876, -1711920.0, 37136.11, 0.0, 5.0142555, 4.989552 
5.490277e+2, 1.2651306e+2, -1667807.3, -1710543.5, 638.15955, -0.0046531027, 0.00790575, -1667797.8, 32374.61, 0.0, 5.0142093, 4.9863987 
5.490287e+2, 1.3149875e+2, -1618914.1, -1661599.1, 596.6563, -0.0008292047, 0.0002371723, -1618905.9, 32406.025, 0.0, 5.014176, 4.9863987 
5.4902965e+2, 1.3648441e+2, -1572122.0, -1616968.5, 557.16315, 0.003000153, -0.0062122066, -1572115.1, 30336.537, 0.0, 5.0141425, 4.984968 
5.4903024e+2, 1.414673e+2, -1530458.6, -1582941.3, 62.823345, 0.0056193424, 0.0019090406, -1530458.5, 23160.361, 0.0, 5.0141144, 4.9799423 
5.490302e+2, 1.4644736e+2, -1481393.0, -1533867.3, -43.002956, 0.0064145783, 0.00042248593, -1481393.0, 23421.488, 0.0, 5.014115, 4.9799457 
5.490301e+2, 1.5142739e+2, -1432332.1, -1484807.6, -51.072586, 0.0071300403, -0.0014125914, -1432332.1, 23678.246, 0.0, 5.0141153, 4.9799457 
5.4903007e+2, 1.5640742e+2, -1384594.9, -1438505.3, -32.803482, 0.007849899, -0.0027918774, -1384594.9, 22611.445, 0.0, 5.014116, 4.979024 
5.490299e+2, 1.6138366e+2, -1343878.9, -1406931.0, -154.31209, 0.007717163, 0.00042006234, -1343878.5, 14560.075, 0.0, 5.014124, 4.9731708 
5.4902947e+2, 1.6635656e+2, -1294643.8, -1357712.8, -173.38821, 0.005974716, -0.004656672, -1294643.3, 15058.382, 0.0, 5.0141535, 4.9731865 
5.4902905e+2, 1.713295e+2, -1245428.9, -1308542.4, -191.3127, 0.0041806903, -0.009785405, -1245428.3, 15536.454, 0.0, 5.014184, 4.9731874 
5.4902864e+2, 1.7630243e+2, -1197331.5, -1261735.5, -193.81183, 0.0023916718, -0.014519477, -1197330.9, 14896.821, 0.0, 5.014214, 4.9723945 
5.490284e+2, 1.8127185e+2, -1157331.0, -1231886.6, -126.79964, 0.0013224022, -0.010297367, -1157330.8, 6195.223, 0.0, 5.0141945, 4.9658923 
5.4902834e+2, 1.8623796e+2, -1108567.3, -1182907.0, -177.51253, 0.0021914714, -0.010646731, -1108566.8, 6291.8423, 0.0, 5.014049, 4.965886 
5.4902834e+2, 1.9120407e+2, -1059806.6, -1133913.4, -240.06664, 0.003166658, -0.010986974, -1059805.9, 6385.4546, 0.0, 5.013898, 4.965887 
5.4902834e+2, 1.961702e+2, -1011935.9, -1086834.1, -302.63962, 0.0041539846, -0.011008932, -1011934.7, 5589.3022, 0.0, 5.0137463, 4.965238 
5.4902834e+2, 2.0113279e+2, -972190.8, -1057506.8, -463.79364, 0.005233915, -0.0030396602, -972188.3, -3296.6182, 0.0, 5.0136404, 4.9585104 
5.4902804e+2, 2.060918e+2, -922786.25, -1007958.3, -528.74884, 0.0061943005, -0.0016187928, -922782.94, -2487.225, 0.0, 5.013642, 4.958601 
5.490278e+2, 2.1105081e+2, -873490.94, -958671.6, -493.90842, 0.0071389284, -0.0004083401, -873488.06, -1788.1559, 0.0, 5.0136485, 4.9586015 
5.4902744e+2, 2.1600983e+2, -824862.75, -910841.0, -459.07086, 0.008101444, 0.00094907236, -824860.3, -1756.2655, 0.0, 5.0136547, 4.9581027 
5.4902714e+2, 2.2096518e+2, -784407.8, -881122.75, -411.4308, 0.008620747, 0.00855332, -784406.06, -9862.688, 0.0, 5.0137014, 4.951351 
5.490267e+2, 2.2591643e+2, -734121.2, -830444.6, -556.7057, 0.007407514, 0.00083146105, -734118.0, -8096.7837, 0.0, 5.01385, 4.951735 
5.4902625e+2, 2.3086764e+2, -684331.7, -780888.5, -693.8645, 0.0060684895, -0.007692315, -684326.7, -6827.5137, 0.0, 5.0140038, 4.951738 
5.4902583e+2, 2.3581885e+2, -635196.3, -732783.3, -829.1028, 0.004751759, -0.016305514, -635189.3, -6212.089, 0.0, 5.0141563, 4.9512396 
5.490253e+2, 2.4076705e+2, -594937.7, -704264.06, -1367.6311, 0.005039604, -0.00953989, -594920.56, -14436.011, 0.0, 5.014275, 4.943936 
5.4902476e+2, 2.4571304e+2, -544757.4, -653502.25, -1448.3798, 0.010430299, 0.0035612655, -544738.1, -12725.72, 0.0, 5.014345, 4.9443564 
5.490243e+2, 2.506591e+2, -495126.94, -604021.6, -1408.8798, 0.016221473, 0.016828768, -495108.72, -11569.276, 0.0, 5.0144153, 4.944348 
5.4902375e+2, 2.5560525e+2, -445747.4, -555110.0, -1370.0149, 0.02202147, 0.030701118, -445730.25, -10664.247, 0.0, 5.014482, 4.9441414 
5.4902333e+2, 2.6054615e+2, -406845.38, -530321.94, -2612.188, 0.032701813, 0.044297446, -406790.13, -20148.0, 0.0, 5.0146346, 4.935355 
5.4902166e+2, 2.6547915e+2, -354339.94, -475720.3, -4041.5159, 0.046417363, -0.0045385268, -354205.53, -15916.019, 0.0, 5.0149174, 4.936859 
5.490195e+2, 2.704118e+2, -303634.88, -425462.4, -4767.44, 0.058221877, -0.063271455, -303448.6, -13508.521, 0.0, 5.015186, 4.936977 
5.490171e+2, 2.753442e+2, -252953.17, -375390.66, -5392.944, 0.06925161, -0.12686397, -252716.1, -11123.478, 0.0, 5.0154443, 4.937047 
5.490189e+2, 2.8027466e+2, -222458.44, -371945.66, 354.96338, 0.0952498, -0.11838888, -222457.6, -29191.7, 0.0, 5.016161, 4.92069 
5.490243e+2, 2.8520507e+2, -167298.08, -307614.7, 67.752396, 0.09273433, -0.058522936, -167298.03, -22352.06, 0.0, 5.0164495, 4.9255486 
5.4902714e+2, 2.9013395e+2, -118131.484, -258059.48, 53.56887, 0.07205696, -0.034628026, -118131.46, -21489.072, 0.0, 5.016303, 4.9255576 
5.4902977e+2, 2.9506233e+2, -68918.01, -208547.13, 169.94339, 0.051777583, -0.01671395, -68917.805, -20574.719, 0.0, 5.016133, 4.9255667 
5.49033e+2, 3.0000687e+2, -6944.4604, -96403.97, 342.10547, 0.04434785, 0.015250348, -6943.1523, -6943.1523, 0.0, 5.01609, 4.9571295 
5.49035e+2, 3.049675e+2, -1269.5941, -85208.445, 26.987246, 0.06302642, -0.003035634, -1269.5854, -1269.5854, 0.0, 5.01669, 4.960427 
5.490357e+2, 3.0992913e+2, 1601.6154, -81342.805, -153.00255, 0.07814677, -0.03272311, 1601.8976, 1601.8976, 0.0, 5.0173526, 4.961405 
5.4903555e+2, 3.1489274e+2, 4617.8623, -77623.65, -312.18903, 0.09147456, -0.054200415, 4619.0474, 4619.0474, 0.0, 5.0179887, 4.9623837 
5.54041e+2, 1.2152575e+2, -1711931.3, -1749841.9, -720.3534, -0.009460023, -0.003278017, -1711917.5, 37133.004, 0.0, 5.0142527, 4.9895554 
5.540414e+2, 1.2651353e+2, -1667895.5, -1710711.5, 610.8837, -0.009745452, 0.009788009, -1667886.8, 32283.111, 0.0, 5.0142074, 4.986344 
5.540426e+2, 1.3149925e+2, -1619000.1, -1661767.9, 571.2184, -0.0030550733, 0.003054922, -1618992.5, 32316.402, 0.0, 5.014175, 4.9863434 
5.540439e+2, 1.3648495e+2, -1572210.6, -1617147.5, 525.9528, 0.0036181244, -0.0024662055, -1572204.5, 30243.838, 0.0, 5.014142, 4.984909 
5.5404454e+2, 1.4146781e+2, -1530490.4, -1583004.8, 58.2284, 0.007603896, 0.0057014194, -1530490.3, 23125.592, 0.0, 5.014114, 4.979921 
5.5404437e+2, 1.4644769e+2, -1481409.9, -1533900.0, -43.448612, 0.0069156364, 0.0025951227, -1481409.9, 23402.76, 0.0, 5.0141144, 4.9799347 
5.540442e+2, 1.5142754e+2, -1432349.0, -1484840.1, -50.79971, 0.0060522505, -0.00090774754, -1432348.9, 23660.83, 0.0, 5.014115, 4.9799347 
5.5404395e+2, 1.5640739e+2, -1384609.3, -1438532.6, -33.54151, 0.0051860525, -0.0039554164, -1384609.1, 22597.762, 0.0, 5.0141153, 4.979015 
5.540437e+2, 1.6138351e+2, -1343912.8, -1406999.1, -137.41576, 0.004299484, -0.0016259104, -1343912.5, 14527.296, 0.0, 5.0141234, 4.973148 
5.540434e+2, 1.6635649e+2, -1294678.1, -1357782.1, -151.1204, 0.00367445, -0.005905664, -1294677.8, 15024.51, 0.0, 5.014153, 4.973163 
5.540432e+2, 1.7132948e+2, -1245462.9, -1308611.4, -168.10118, 0.0030566922, -0.010183179, -1245462.4, 15502.205, 0.0, 5.0141835, 4.973164 
5.540429e+2, 1.7630248e+2, -1197363.9, -1261801.4, -167.85196, 0.0024314912, -0.014067189, -1197363.5, 14863.497, 0.0, 5.0142136, 4.972372 
5.5404264e+2, 1.8127193e+2, -1157426.0, -1232082.4, -208.91469, 0.0025208374, -0.009183268, -1157425.4, 6099.5786, 0.0, 5.014194, 4.9658265 
5.540426e+2, 1.8623798e+2, -1108681.4, -1183143.4, -292.68732, 0.0045571593, -0.009362148, -1108680.3, 6178.5356, 0.0, 5.014048, 4.9658065 
5.540426e+2, 1.9120403e+2, -1059920.0, -1134148.6, -353.83603, 0.006680954, -0.009561018, -1059918.4, 6274.349, 0.0, 5.013897, 4.9658074 
5.540425e+2, 1.9617008e+2, -1012048.44, -1087068.4, -414.98776, 0.008800028, -0.009443048, -1012046.1, 5480.3516, 0.0, 5.0137453, 4.9651585 
5.5404246e+2, 2.0113261e+2, -972188.56, -1057492.0, -490.72263, 0.010094225, -0.0015644527, -972185.75, -3290.7607, 0.0, 5.013639, 4.9585156 
5.540419e+2, 2.0609158e+2, -922731.94, -1007830.25, -524.5351, 0.008840427, -0.0009917761, -922728.7, -2429.9802, 0.0, 5.0136404, 4.9586444 
5.5404145e+2, 2.1105056e+2, -873436.75, -958543.44, -487.69077, 0.007412438, -0.00068823074, -873433.94, -1731.3815, 0.0, 5.013647, 4.9586453 
5.540409e+2, 2.1600953e+2, -824808.7, -910712.7, -450.84973, 0.005977264, -0.00024066768, -824806.3, -1699.9496, 0.0, 5.0136533, 4.9581466 
5.5404055e+2, 2.2096483e+2, -784561.9, -881436.7, -323.28384, 0.0051919147, 0.0069496473, -784560.8, -10014.955, 0.0, 5.0136986, 4.951244 
5.540405e+2, 2.25916e+2, -734371.06, -830955.44, -431.9106, 0.0059826425, 0.00019068415, -734369.1, -8343.674, 0.0, 5.0138454, 4.95156 
5.540404e+2, 2.3086716e+2, -684582.9, -781394.3, -564.278, 0.0068214396, -0.0072841826, -684579.56, -7074.2993, 0.0, 5.013997, 4.9515643 
5.540403e+2, 2.358183e+2, -635448.94, -733284.2, -694.73615, 0.0076351175, -0.014842074, -635444.06, -6458.8384, 0.0, 5.014148, 4.951067 
5.540401e+2, 2.4076644e+2, -595023.25, -704311.7, -1289.108, 0.009541272, -0.007312249, -595008.0, -14514.426, 0.0, 5.014256, 4.943923 
5.540396e+2, 2.457124e+2, -544721.7, -653243.5, -1396.8269, 0.014932627, 0.0046450426, -544703.75, -12683.519, 0.0, 5.014322, 4.9444494 
5.540392e+2, 2.5065842e+2, -495088.22, -603761.4, -1351.3331, 0.020533234, 0.016510379, -495071.4, -11525.519, 0.0, 5.014393, 4.944441 
5.540387e+2, 2.5560454e+2, -445705.63, -554848.25, -1306.4758, 0.026078412, 0.028990086, -445690.0, -10618.944, 0.0, 5.0144606, 4.9442344 
5.540384e+2, 2.605453e+2, -407911.56, -532407.3, -2367.2673, 0.037123173, 0.043322694, -407866.56, -21218.201, 0.0, 5.0145926, 4.9346256 
5.540376e+2, 2.6547825e+2, -356096.28, -478844.1, -3597.8901, 0.05364434, 0.0028380333, -355990.9, -17686.184, 0.0, 5.014803, 4.9357657 
5.540363e+2, 2.704109e+2, -305552.97, -428455.78, -4224.8457, 0.06796991, -0.046146408, -305407.94, -15444.174, 0.0, 5.0150023, 4.935941 
5.540347e+2, 2.7534345e+2, -255032.7, -378253.63, -4751.258, 0.08090888, -0.09920376, -254849.77, -13226.291, 0.0, 5.0151916, 4.936069 
5.540373e+2, 2.8027424e+2, -223323.16, -374446.66, 173.1563, 0.11060406, -0.07679969, -223322.95, -30022.834, 0.0, 5.016224, 4.9198318 
5.540422e+2, 2.8520384e+2, -165631.3, -306151.25, -356.65225, 0.106169224, -0.025783518, -165630.39, -20646.238, 0.0, 5.0167656, 4.9260406 
5.540444e+2, 2.901316e+2, -116581.39, -256395.56, -239.8393, 0.07966775, -0.019104542, -116580.984, -19894.723, 0.0, 5.016572, 4.926121 
5.540464e+2, 2.9505894e+2, -67485.195, -206683.17, 7.398669, 0.05279588, -0.018497735, -67485.195, -19093.037, 0.0, 5.0163546, 4.926202 
5.5404884e+2, 3.0000278e+2, -6523.808, -96216.37, 532.58673, 0.037883777, 0.0015123452, -6520.6455, -6520.6455, 0.0, 5.016236, 4.95718 
5.5405056e+2, 3.04966e+2, -1802.0516, -86537.09, 860.5455, 0.04660649, 0.010491999, -1793.3131, -1793.3131, 0.0, 5.016728, 4.9599476 
5.5405086e+2, 3.09931e+2, 667.10095, -83152.43, 1048.394, 0.049893275, 0.018116957, 680.2119, 680.2119, 0.0, 5.0173063, 4.9608274 
5.540502e+2, 3.1489813e+2, 3281.8535, -79913.84, 1256.8854, 0.049669385, 0.037688654, 3300.8376, 3300.8376, 0.0, 5.0178585, 4.9617076 
5.590557e+2, 1.21526375e+2, -1712441.3, -1749914.9, -1079.8058, -0.005837944, 0.00021502793, -1712410.1, 36636.242, 0.0, 5.014046, 4.9896326 
5.590551e+2, 1.2651396e+2, -1668513.0, -1711143.1, 409.53262, -0.014623984, 0.011736548, -1668509.1, 31658.516, 0.0, 5.0140305, 4.9862885 
5.590566e+2, 1.3149971e+2, -1619598.4, -1662188.8, 371.69632, -0.005194544, 0.0058309403, -1619595.1, 31711.346, 0.0, 5.0140038, 4.9862876 
5.5905807e+2, 1.3648544e+2, -1572807.4, -1617573.9, 322.0023, 0.0042133345, 0.0011329093, -1572805.1, 29640.434, 0.0, 5.013972, 4.9848504 
5.5905885e+2, 1.4146824e+2, -1531020.8, -1583315.1, -108.24955, 0.009507316, 0.009327565, -1531020.5, 22592.813, 0.0, 5.013948, 4.979899 
5.5905855e+2, 1.4644797e+2, -1481862.8, -1534137.8, -188.60849, 0.0073855007, 0.004691818, -1481862.1, 22948.998, 0.0, 5.0139666, 4.979927 
5.590582e+2, 1.5142766e+2, -1432749.5, -1485051.5, -179.00977, 0.0050052796, -0.00038894368, -1432748.9, 23260.477, 0.0, 5.013984, 4.979927 
5.590578e+2, 1.5640733e+2, -1384960.8, -1438715.5, -146.67802, 0.002621718, -0.0050132372, -1384960.3, 22247.402, 0.0, 5.014, 4.979009 
5.590575e+2, 1.6138338e+2, -1344282.1, -1407236.5, -226.17302, 0.0010207323, -0.0034772593, -1344281.4, 14159.762, 0.0, 5.0140114, 4.9731216 
5.5905735e+2, 1.6635641e+2, -1295106.0, -1358046.0, -246.46104, 0.0014859617, -0.006983241, -1295105.0, 14597.997, 0.0, 5.014021, 4.973138 
5.590572e+2, 1.7132945e+2, -1245961.3, -1308908.4, -275.02454, 0.0020288823, -0.010445923, -1245960.1, 15004.626, 0.0, 5.0140266, 4.9731383 
5.5905706e+2, 1.7630251e+2, -1197941.1, -1262133.1, -284.78564, 0.0025660978, -0.013515742, -1197939.9, 14286.615, 0.0, 5.014029, 4.9723473 
5.59057e+2, 1.8127197e+2, -1158076.0, -1232543.5, -427.6722, 0.0037879148, -0.0079742605, -1158073.5, 5450.77, 0.0, 5.0140038, 4.9657607 
5.590569e+2, 1.8623796e+2, -1109180.5, -1183552.5, -519.4572, 0.0068827556, -0.008041314, -1109176.9, 5682.349, 0.0, 5.0139136, 4.965731 
5.590568e+2, 1.9120395e+2, -1060259.9, -1134481.6, -557.7354, 0.010059227, -0.008173153, -1060255.8, 5938.5903, 0.0, 5.0138164, 4.965732 
5.5905676e+2, 1.9616994e+2, -1012242.2, -1087332.0, -596.9575, 0.013231565, -0.007989639, -1012237.44, 5291.8223, 0.0, 5.013715, 4.9650826 
5.590566e+2, 2.0113242e+2, -972149.75, -1057470.9, -570.79486, 0.014719558, -0.00016949665, -972145.94, -3247.4717, 0.0, 5.013653, 4.9585156 
5.5905586e+2, 2.0609134e+2, -922539.0, -1007638.8, -578.1371, 0.0113512855, -0.0003956378, -922535.06, -2233.1646, 0.0, 5.013688, 4.958687 
5.590551e+2, 2.1105026e+2, -873167.2, -958316.25, -546.97876, 0.0076804236, -0.0009774024, -873163.7, -1458.3065, 0.0, 5.0137215, 4.958688 
5.590544e+2, 2.1600918e+2, -824480.56, -910458.1, -516.1823, 0.004002706, -0.0014175619, -824477.44, -1368.6482, 0.0, 5.013749, 4.9581895 
5.5905396e+2, 2.2096445e+2, -784413.6, -881625.44, -312.84976, 0.0020393122, 0.005419924, -784412.6, -9864.184, 0.0, 5.0138054, 4.95113 
5.590542e+2, 2.2591555e+2, -734349.94, -831347.5, -383.15137, 0.004796081, -0.00037990193, -734348.4, -8318.572, 0.0, 5.0139365, 4.951382 
5.590545e+2, 2.3086664e+2, -684648.0, -781826.94, -515.9411, 0.00781813, -0.0068362798, -684645.25, -7133.7056, 0.0, 5.0140586, 4.951386 
5.590548e+2, 2.3581772e+2, -635638.7, -733774.0, -652.6335, 0.010829083, -0.013368836, -635634.4, -6641.022, 0.0, 5.014167, 4.950888 
5.5905485e+2, 2.4076582e+2, -595096.7, -704451.6, -1310.4569, 0.014456786, -0.0046780533, -595080.94, -14578.335, 0.0, 5.014256, 4.943875 
5.590545e+2, 2.4571174e+2, -544384.8, -652894.3, -1460.7482, 0.019937973, 0.0061611626, -544365.1, -12336.94, 0.0, 5.0144095, 4.944531 
5.5905414e+2, 2.506577e+2, -494534.78, -603307.25, -1444.9009, 0.025532058, 0.01632413, -494515.6, -10962.689, 0.0, 5.0145593, 4.944525 
5.590537e+2, 2.556037e+2, -444985.84, -554311.8, -1424.811, 0.031108648, 0.027036915, -444967.28, -9890.126, 0.0, 5.01469, 4.94432 
5.5905366e+2, 2.6054427e+2, -408376.0, -534584.1, -2413.1436, 0.043401837, 0.04136597, -408329.88, -21672.826, 0.0, 5.0148344, 4.933747 
5.5905366e+2, 2.6547688e+2, -357768.34, -482563.7, -3961.409, 0.06428754, 0.008278078, -357642.75, -19318.443, 0.0, 5.0148144, 4.934427 
5.5905324e+2, 2.704092e+2, -308471.2, -432803.94, -5299.3667, 0.08341846, -0.03213937, -308245.72, -18251.0, 0.0, 5.014591, 4.9345665 
5.5905247e+2, 2.7534148e+2, -259691.02, -383425.28, -6826.222, 0.101421535, -0.076254554, -259315.56, -17649.494, 0.0, 5.014182, 4.9346595 
5.590563e+2, 2.802725e+2, -229643.05, -380930.03, -2659.626, 0.13869244, -0.033389695, -229596.3, -36249.633, 0.0, 5.014721, 4.9181833 
5.59061e+2, 2.852019e+2, -167301.69, -304983.44, -2683.708, 0.12929682, 0.012821683, -167249.4, -22219.926, 0.0, 5.0158257, 4.926779 
5.590623e+2, 2.9012883e+2, -117037.875, -254799.4, -1665.8721, 0.09307742, 0.00022580665, -117017.734, -20283.203, 0.0, 5.016074, 4.926835 
5.590634e+2, 2.9505536e+2, -67470.96, -204968.28, -788.0774, 0.056816034, -0.01778527, -67466.445, -19023.314, 0.0, 5.016037, 4.926892 
5.5906504e+2, 2.999984e+2, -8296.526, -98167.125, 249.52135, 0.034083787, -0.010635467, -8295.834, -8295.834, 0.0, 5.015802, 4.956626 
5.590665e+2, 3.0496338e+2, -6114.492, -90445.92, 355.58456, 0.037739944, 0.017055627, -6112.993, -6112.993, 0.0, 5.0154953, 4.95893 
5.590666e+2, 3.099304e+2, -7360.422, -88946.9, 26.352827, 0.036260802, 0.04566371, -7360.413, -7360.413, 0.0, 5.01476, 4.959677 
5.590658e+2, 3.1489927e+2, -9689.791, -88063.68, -116.81914, 0.031715993, 0.08413493, -9689.617, -9689.617, 0.0, 5.0135612, 4.960425 
5.6407034e+2, 1.21526934e+2, -1711944.9, -1749779.1, -867.3575, 0.00066265144, 0.0055664745, -1711925.0, 37117.918, 0.0, 5.0142307, 4.989588 
5.640689e+2, 1.265141e+2, -1667938.6, -1710962.1, 381.79816, -0.01686773, 0.013524574, -1667935.3, 32232.686, 0.0, 5.0142407, 4.9862456 
5.640705e+2, 1.314998e+2, -1619090.8, -1662038.0, 354.79684, -0.006345938, 0.0073351436, -1619087.9, 32219.482, 0.0, 5.014192, 4.9862456 
5.64072e+2, 1.3648546e+2, -1572358.4, -1617456.5, 305.4643, 0.004175899, 0.002354083, -1572356.3, 30090.785, 0.0, 5.014143, 4.984806 
5.6407285e+2, 1.414682e+2, -1530479.1, -1582983.3, -46.706234, 0.009980212, 0.010247403, -1530479.1, 23136.014, 0.0, 5.0141144, 4.9799275 
5.640725e+2, 1.4644796e+2, -1481224.3, -1533724.8, -76.23911, 0.0072272704, 0.0054781055, -1481224.3, 23588.066, 0.0, 5.0141587, 4.979971 
5.6407213e+2, 1.5142767e+2, -1432027.9, -1484599.0, -28.817823, 0.0041875876, 0.0002829643, -1432027.9, 23981.959, 0.0, 5.0142055, 4.979971 
5.640717e+2, 1.564074e+2, -1384149.9, -1438218.8, 38.604996, 0.0011540225, -0.004450977, -1384149.9, 23057.553, 0.0, 5.0142517, 4.979054 
5.640714e+2, 1.6138345e+2, -1343587.8, -1406978.9, -58.25838, -0.0006387635, -0.002860615, -1343587.6, 14852.863, 0.0, 5.014262, 4.973088 
5.6407136e+2, 1.6635649e+2, -1294640.0, -1357955.5, -114.62532, 0.0006344794, -0.0058440967, -1294639.9, 15062.964, 0.0, 5.0142064, 4.973079 
5.6407124e+2, 1.7132953e+2, -1245685.0, -1308909.6, -169.52597, 0.0020431888, -0.008752951, -1245684.5, 15280.426, 0.0, 5.014148, 4.97308 
5.640712e+2, 1.7630257e+2, -1197842.3, -1262218.1, -203.41377, 0.003467593, -0.011264821, -1197841.6, 14385.47, 0.0, 5.0140896, 4.97229 
5.640711e+2, 1.8127201e+2, -1157949.3, -1232517.3, -338.88498, 0.0051970268, -0.0055617825, -1157947.8, 5577.768, 0.0, 5.014054, 4.965746 
5.6407094e+2, 1.8623793e+2, -1108722.8, -1183340.6, -372.4525, 0.007877482, -0.0063837715, -1108721.0, 6140.052, 0.0, 5.014071, 4.9657288 
5.640708e+2, 1.9120383e+2, -1059464.6, -1134111.9, -355.00928, 0.01062115, -0.007304585, -1059462.9, 6733.862, 0.0, 5.01409, 4.965729 
5.640707e+2, 1.9616973e+2, -1011099.56, -1086801.3, -337.35056, 0.013384464, -0.007908473, -1011098.06, 6434.3555, 0.0, 5.0141096, 4.9650793 
5.6407046e+2, 2.0113216e+2, -970670.56, -1056720.4, -208.18553, 0.014406943, -0.00077958073, -970670.06, -1768.1481, 0.0, 5.014151, 4.9585395 
5.6406975e+2, 2.0609109e+2, -920921.9, -1006820.56, -212.12726, 0.010570366, -0.0011267584, -920921.4, -616.6823, 0.0, 5.014235, 4.958713 
5.640691e+2, 2.1105003e+2, -871409.9, -957434.8, -198.06683, 0.0064823725, -0.0017600146, -871409.44, 297.97305, 0.0, 5.01432, 4.958714 
5.640684e+2, 2.1600898e+2, -822566.25, -909506.3, -184.08762, 0.0024245826, -0.0022448713, -822565.9, 544.22253, 0.0, 5.014404, 4.9582157 
5.64068e+2, 2.2096427e+2, -782521.75, -880897.56, 56.90297, 0.00052357954, 0.004900737, -782521.75, -7972.4, 0.0, 5.014495, 4.9510655 
5.6406856e+2, 2.2591542e+2, -732676.7, -830867.25, 41.159626, 0.004701777, 0.0006381779, -732676.7, -6645.283, 0.0, 5.0145783, 4.9512577 
5.640691e+2, 2.3086654e+2, -683098.9, -781416.7, -37.92421, 0.009327558, -0.0041593337, -683098.9, -5584.9585, 0.0, 5.014659, 4.9512587 
5.640696e+2, 2.3581764e+2, -634173.8, -733415.5, -115.20767, 0.014034545, -0.009018259, -634173.7, -5177.1396, 0.0, 5.0147386, 4.950758 
5.640699e+2, 2.407657e+2, -593288.5, -703637.75, -582.8407, 0.018825706, -0.00002215198, -593285.44, -12778.388, 0.0, 5.014877, 4.943887 
5.640698e+2, 2.4571134e+2, -541884.06, -651634.1, -659.97424, 0.023521248, 0.0074225757, -541880.06, -9845.582, 0.0, 5.0152445, 4.9446077 
5.640696e+2, 2.50657e+2, -491372.53, -601736.75, -627.4425, 0.028331976, 0.013890111, -491368.97, -7807.808, 0.0, 5.015629, 4.9446054 
5.640694e+2, 2.556027e+2, -441118.25, -552414.56, -596.2184, 0.03328849, 0.020767136, -441115.06, -6027.631, 0.0, 5.0160093, 4.944405 
5.6406975e+2, 2.6054317e+2, -403951.0, -533428.2, -1059.2504, 0.045537923, 0.034585804, -403942.3, -17273.793, 0.0, 5.0165195, 4.933424 
5.640708e+2, 2.6547638e+2, -351691.34, -482006.3, -1423.8971, 0.07076992, 0.014990598, -351675.78, -13339.812, 0.0, 5.017278, 4.933598 
5.640716e+2, 2.704092e+2, -299762.5, -431543.25, -1397.4055, 0.095925175, -0.010749725, -299747.7, -9739.169, 0.0, 5.018023, 4.9335957 
5.640721e+2, 2.7534178e+2, -247878.05, -381260.94, -1275.4674, 0.12103016, -0.040518604, -247865.84, -6181.8975, 0.0, 5.0187535, 4.933546 
5.6407636e+2, 2.8027275e+2, -215168.3, -373811.8, 4502.1235, 0.16020101, 0.010092883, -215040.64, -21670.586, 0.0, 5.0196924, 4.918429 
5.640797e+2, 2.8520197e+2, -157028.02, -297684.4, 3641.9814, 0.1417905, 0.04431753, -156933.77, -11881.591, 0.0, 5.019004, 4.9277997 
5.640799e+2, 2.9012874e+2, -111135.98, -249945.03, 3380.4314, 0.098975256, 0.019732459, -111053.7, -14298.584, 0.0, 5.0177155, 4.9277263 
5.6407976e+2, 2.9505515e+2, -65183.47, -202216.73, 3247.1433, 0.05744055, -0.008993286, -65106.566, -16644.885, 0.0, 5.016393, 4.9276533 
5.6408024e+2, 2.9999813e+2, -8923.73, -98335.43, 3816.4578, 0.029203853, -0.009721367, -8761.124, -8747.458, 0.0, 5.0152755, 4.956792 
5.640808e+2, 3.0496463e+2, -7761.3584, -92991.266, 4694.166, 0.026472643, 0.034606587, -7503.5996, -7503.5996, 0.0, 5.0147953, 4.958324 
5.6408e+2, 3.0993298e+2, -8215.414, -91427.29, 5201.6235, 0.02129341, 0.07940295, -7891.518, -7891.518, 0.0, 5.0142827, 4.9589596 
5.6407857e+2, 3.149023e+2, -8585.826, -89947.164, 5774.2954, 0.015374465, 0.1258715, -8178.062, -8178.062, 0.0, 5.013731, 4.959595 
5.690853e+2, 1.2152753e+2, -1712003.0, -1749882.8, -533.37494, 0.007745988, 0.010689036, -1711995.5, 37043.445, 0.0, 5.014229, 4.9895544 
5.6908303e+2, 1.2651433e+2, -1667994.8, -1711067.9, 341.6165, -0.018410988, 0.015274224, -1667992.1, 32175.383, 0.0, 5.01424, 4.986211 
5.690846e+2, 1.3149992e+2, -1619145.3, -1662144.3, 316.465, -0.007267715, 0.008434211, -1619142.9, 32164.865, 0.0, 5.0141916, 4.986211 
5.690862e+2, 1.3648547e+2, -1572417.1, -1617575.8, 259.05356, 0.0038519928, 0.0027961282, -1572415.6, 30032.662, 0.0, 5.014143, 4.984767 
5.6908697e+2, 1.4146817e+2, -1530416.0, -1582850.8, -28.216171, 0.009895694, 0.010286417, -1530416.0, 23200.63, 0.0, 5.0141144, 4.9799714 
5.690867e+2, 1.4644803e+2, -1481136.4, -1533540.0, -42.0481, 0.0067874487, 0.0058397027, -1481136.4, 23676.209, 0.0, 5.0141582, 4.9800324 
5.6908625e+2, 1.5142784e+2, -1431940.5, -1484414.6, 6.071706, 0.0033644289, 0.0009974894, -1431940.5, 24068.371, 0.0, 5.014205, 4.9800324 
5.690859e+2, 1.5640764e+2, -1384062.6, -1438034.1, 70.57361, -0.00005896746, -0.003384621, -1384062.6, 23142.586, 0.0, 5.014251, 4.9791155 
5.690856e+2, 1.6138378e+2, -1343644.6, -1407095.1, -86.13797, -0.0018803342, -0.0014452923, -1343644.5, 14793.103, 0.0, 5.0142617, 4.9730487 
5.6908554e+2, 1.6635679e+2, -1294740.0, -1358162.3, -160.28052, 0.00013306472, -0.003969371, -1294739.5, 14961.052, 0.0, 5.014206, 4.97301 
5.6908536e+2, 1.713298e+2, -1245784.4, -1309115.5, -214.24251, 0.002296143, -0.006402729, -1245783.8, 15179.849, 0.0, 5.0141478, 4.973011 
5.690853e+2, 1.763028e+2, -1197940.5, -1262421.5, -245.28539, 0.0044619488, -0.008437976, -1197939.6, 14286.895, 0.0, 5.014089, 4.9722214 
5.6908524e+2, 1.8127224e+2, -1157952.1, -1232517.3, -340.95026, 0.006447966, -0.0027130817, -1157950.5, 5574.9707, 0.0, 5.014053, 4.9657464 
5.6908506e+2, 1.8623805e+2, -1108694.0, -1183273.0, -357.03305, 0.008254773, -0.004590381, -1108692.3, 6169.231, 0.0, 5.01407, 4.965752 
5.690848e+2, 1.9120386e+2, -1059436.0, -1134043.8, -338.12045, 0.010055898, -0.006611536, -1059434.5, 6763.2817, 0.0, 5.014089, 4.965753 
5.6908464e+2, 1.9616967e+2, -1011071.44, -1086733.4, -318.98557, 0.011857994, -0.008317378, -1011070.1, 6463.768, 0.0, 5.014108, 4.9651027 
5.690844e+2, 2.0113203e+2, -970634.6, -1056635.9, -153.11449, 0.012147587, -0.0020475823, -970634.4, -1730.7865, 0.0, 5.01415, 4.9585686 
5.690838e+2, 2.0609102e+2, -920896.8, -1006761.1, -148.06934, 0.008424658, -0.0022607537, -920896.56, -591.0325, 0.0, 5.014234, 4.958734 
5.690832e+2, 2.1105e+2, -871384.6, -957375.5, -132.08955, 0.004490405, -0.0026719838, -871384.4, 322.9645, 0.0, 5.014319, 4.958735 
5.6908256e+2, 2.1600899e+2, -822540.75, -909447.1, -116.19782, 0.0005617396, -0.0029341322, -822540.6, 568.5598, 0.0, 5.0144033, 4.958236 
5.690823e+2, 2.2096433e+2, -782597.2, -881040.7, 126.96004, -0.0009532545, 0.0047616437, -782597.0, -8049.226, 0.0, 5.0144916, 4.9510174 
5.690831e+2, 2.2591555e+2, -732818.5, -831142.3, 111.33023, 0.0044691367, 0.0022006517, -732818.4, -6788.254, 0.0, 5.014573, 4.951165 
5.6908387e+2, 2.3086676e+2, -683242.56, -781688.3, 36.970257, 0.010345615, -0.000785651, -683242.56, -5729.6333, 0.0, 5.0146523, 4.9511676 
5.690846e+2, 2.3581795e+2, -634319.4, -733683.75, -35.594933, 0.016250202, -0.0038247758, -634319.4, -5323.5723, 0.0, 5.0147305, 4.950668 
5.690852e+2, 2.4076599e+2, -593292.44, -703503.75, -359.97702, 0.02160638, 0.0053762575, -593291.25, -12784.025, 0.0, 5.0148563, 4.94394 
5.6908524e+2, 2.457113e+2, -541840.06, -651359.75, -369.53305, 0.024870781, 0.008744675, -541838.8, -9801.641, 0.0, 5.0152187, 4.9447117 
5.690853e+2, 2.5065663e+2, -491326.34, -601463.56, -329.7514, 0.028013553, 0.010955044, -491325.38, -7759.0024, 0.0, 5.015604, 4.944709 
5.6908524e+2, 2.55602e+2, -441069.88, -552142.5, -291.2898, 0.031216294, 0.013590279, -441069.13, -5973.9688, 0.0, 5.015985, 4.944508 
5.6908596e+2, 2.6054254e+2, -403969.22, -533157.3, -418.54248, 0.041609593, 0.026441984, -403967.84, -17291.313, 0.0, 5.0164733, 4.9335356 
5.690879e+2, 2.6547706e+2, -352052.88, -482020.38, -516.0195, 0.066257164, 0.020158729, -352050.8, -13714.086, 0.0, 5.0171638, 4.9336333 
5.690897e+2, 2.7041143e+2, -300274.44, -431421.22, -405.4153, 0.090349026, 0.009934041, -300273.2, -10272.838, 0.0, 5.0178447, 4.9336915 
5.690912e+2, 2.7534565e+2, -248540.19, -381002.84, -199.38226, 0.11356163, -0.0036906928, -248539.89, -6874.2485, 0.0, 5.018512, 4.933702 
5.6909573e+2, 2.8027785e+2, -214338.17, -372246.66, 4430.0146, 0.14659363, 0.05568951, -214213.98, -20869.24, 0.0, 5.019734, 4.919012 
5.690979e+2, 2.852062e+2, -155697.31, -296732.06, 2653.533, 0.12772395, 0.07809919, -155647.39, -10614.412, 0.0, 5.019273, 4.928167 
5.6909686e+2, 2.9013205e+2, -109894.53, -248762.48, 2522.1687, 0.087576464, 0.041363128, -109848.74, -13106.41, 0.0, 5.017942, 4.9281693 
5.6909555e+2, 2.9505756e+2, -64032.098, -200804.42, 2519.053, 0.047611456, 0.00022820602, -63985.72, -15530.848, 0.0, 5.016578, 4.928172 
5.6909484e+2, 3.0e+2, -7785.405, -96262.86, 3450.946, 0.017907426, -0.010829322, -7651.0093, -7640.8643, 0.0, 5.0153894, 4.9575524 
5.690941e+2, 3.0496883e+2, -7118.2607, -91185.49, 4760.175, 0.0060212086, 0.05155561, -6849.582, -6849.582, 0.0, 5.014779, 4.9590616 
5.6909215e+2, 3.0994046e+2, -8032.6777, -90000.25, 5541.6924, -0.011230625, 0.12532718, -7659.71, -7659.71, 0.0, 5.0141516, 4.9596376 
5.6908935e+2, 3.1491327e+2, -8863.783, -88898.68, 6388.598, -0.031787515, 0.20483452, -8357.037, -8357.037, 0.0, 5.0134845, 4.960214 
5.741002e+2, 1.21528e+2, -1711934.3, -1749727.1, -200.14836, 0.014674462, 0.014672611, -1711933.3, 37103.055, 0.0, 5.0142264, 4.989606 
5.740971e+2, 1.2651457e+2, -1668051.5, -1711173.1, 302.10464, -0.019962711, 0.017098142, -1668049.4, 32117.627, 0.0, 5.0142384, 4.9861765 
5.740987e+2, 1.3150005e+2, -1619200.1, -1662250.0, 278.80304, -0.008193776, 0.009578583, -1619198.4, 32109.793, 0.0, 5.0141907, 4.986176 
5.7410026e+2, 1.3648549e+2, -1572476.6, -1617694.8, 213.19115, 0.003527942, 0.0032545219, -1572475.6, 29973.98, 0.0, 5.0141425, 4.9847274 
5.741011e+2, 1.4146815e+2, -1530358.4, -1582729.0, -10.2877035, 0.009811365, 0.010345428, -1530358.4, 23259.764, 0.0, 5.014114, 4.9800115 
5.741008e+2, 1.4644809e+2, -1481048.8, -1533355.3, -7.9276342, 0.0063473093, 0.006214995, -1481048.8, 23764.182, 0.0, 5.0141582, 4.9800935 
5.741004e+2, 1.51428e+2, -1431853.3, -1484230.1, 40.890656, 0.0025405942, 0.001712517, -1431853.3, 24154.621, 0.0, 5.0142045, 4.980094 
5.741e+2, 1.564079e+2, -1383975.8, -1437849.5, 102.35366, -0.0012729863, -0.002330959, -1383975.5, 23227.332, 0.0, 5.0142508, 4.979177 
5.740997e+2, 1.6138408e+2, -1343705.9, -1407220.0, -113.93646, -0.0031206203, -0.000012569936, -1343705.6, 14729.029, 0.0, 5.0142612, 4.973007 
5.7409966e+2, 1.6635707e+2, -1294840.1, -1358368.8, -206.06403, -0.00036717585, -0.002077991, -1294839.5, 14858.897, 0.0, 5.0142055, 4.972941 
5.740996e+2, 1.7133006e+2, -1245884.1, -1309321.1, -259.0873, 0.002549481, -0.004049287, -1245883.1, 15079.031, 0.0, 5.0141473, 4.972942 
5.7409954e+2, 1.7630307e+2, -1198039.0, -1262624.8, -287.28442, 0.0054558916, -0.00562135, -1198037.8, 14188.063, 0.0, 5.0140886, 4.9721527 
5.740994e+2, 1.8127245e+2, -1157960.1, -1232527.6, -343.46536, 0.0077004535, 0.00015412207, -1157958.6, 5566.9385, 0.0, 5.014052, 4.965743 
5.740992e+2, 1.8623817e+2, -1108665.6, -1183204.9, -341.85806, 0.008632167, -0.002784822, -1108664.0, 6197.968, 0.0, 5.014069, 4.965775 
5.740989e+2, 1.912039e+2, -1059407.9, -1133975.4, -321.4761, 0.009488076, -0.005927927, -1059406.5, 6792.2705, 0.0, 5.014088, 4.965776 
5.7409865e+2, 1.9616963e+2, -1011043.8, -1086665.1, -300.86108, 0.01032628, -0.008757333, -1011042.6, 6492.7666, 0.0, 5.014107, 4.965126 
5.7409835e+2, 2.0113194e+2, -970607.06, -1056568.6, -98.16433, 0.009894157, -0.003269734, -970606.94, -1701.7472, 0.0, 5.014149, 4.9585915 
5.740978e+2, 2.0609094e+2, -920872.25, -1006701.3, -83.937225, 0.006285979, -0.0033399865, -920872.2, -565.84375, 0.0, 5.0142336, 4.9587545 
5.7409734e+2, 2.1104997e+2, -871359.8, -957315.75, -66.03814, 0.0025013373, -0.0035598604, -871359.75, 347.51437, 0.0, 5.014318, 4.9587555 
5.740968e+2, 2.1600899e+2, -822515.75, -909387.5, -48.233967, -0.0013023319, -0.0036299694, -822515.75, 592.4743, 0.0, 5.014403, 4.9582567 
5.7409674e+2, 2.2096439e+2, -782685.7, -881210.3, 193.01782, -0.002411882, 0.004644727, -782685.3, -8139.0713, 0.0, 5.014488, 4.9509597 
5.7409763e+2, 2.259157e+2, -732961.75, -831416.2, 179.79968, 0.004251806, 0.003745952, -732961.44, -6932.585, 0.0, 5.0145674, 4.951072 
5.7409865e+2, 2.3086698e+2, -683387.7, -781958.75, 110.16396, 0.011366307, 0.0024966137, -683387.56, -5875.62, 0.0, 5.0146456, 4.951075 
5.740996e+2, 2.3581825e+2, -634466.44, -733950.8, 42.31737, 0.018455816, 0.0012030452, -634466.44, -5471.269, 0.0, 5.0147223, 4.950577 
5.741004e+2, 2.407663e+2, -593327.9, -703428.75, -153.60335, 0.024377534, 0.010981876, -593327.6, -12820.389, 0.0, 5.014836, 4.9439707 
5.7410073e+2, 2.4571131e+2, -541802.3, -651079.44, -78.57014, 0.026235797, 0.01041758, -541802.25, -9762.6455, 0.0, 5.0151925, 4.944815 
5.74101e+2, 2.506563e+2, -491286.34, -601184.44, -31.5396, 0.02773478, 0.0082723545, -491286.34, -7715.016, 0.0, 5.0155787, 4.944812 
5.7410115e+2, 2.5560135e+2, -441027.66, -551864.44, 14.158464, 0.029207915, 0.006567361, -441027.66, -5925.003, 0.0, 5.015961, 4.94461 
5.7410216e+2, 2.605418e+2, -404095.5, -533087.1, 159.14151, 0.038167767, 0.017942542, -404095.3, -17410.045, 0.0, 5.016427, 4.933566 
5.7410496e+2, 2.6547757e+2, -352437.0, -482015.16, 300.63535, 0.061928358, 0.023576425, -352436.3, -14097.2705, 0.0, 5.0170493, 4.9336495 
5.741076e+2, 2.7041346e+2, -300808.75, -431279.78, 495.45584, 0.08435691, 0.027508201, -300806.88, -10812.728, 0.0, 5.017667, 4.933768 
5.741099e+2, 2.7534926e+2, -249224.47, -380725.2, 785.6852, 0.10507717, 0.02866851, -249219.77, -7570.0693, 0.0, 5.0182705, 4.933839 
5.741151e+2, 2.80283e+2, -214286.84, -372460.28, 4719.506, 0.13381341, 0.10259028, -214146.14, -20827.139, 0.0, 5.019776, 4.918963 
5.741164e+2, 2.852107e+2, -154419.8, -295729.3, 1524.0188, 0.11540553, 0.11648816, -154403.36, -9391.673, 0.0, 5.0195417, 4.928512 
5.7411414e+2, 2.9013547e+2, -108706.11, -247529.25, 1522.6407, 0.07697092, 0.06518805, -108689.41, -11960.954, 0.0, 5.0181694, 4.9285903 
5.741116e+2, 2.9505995e+2, -62933.586, -199341.17, 1649.4863, 0.03762064, 0.009231156, -62913.64, -14465.637, 0.0, 5.016763, 4.928668 
5.741096e+2, 3.000017e+2, -7140.6904, -95172.01, 3050.302, 0.007037151, -0.012574557, -7035.1235, -7027.2603, 0.0, 5.0155034, 4.957926 
5.741077e+2, 3.0497274e+2, -6536.1177, -89320.3, 4888.9946, -0.010985811, 0.06502474, -6248.388, -6248.388, 0.0, 5.014763, 4.9597454 
5.7410455e+2, 3.0994737e+2, -7911.0234, -88513.414, 5944.5693, -0.037786733, 0.16171998, -7474.96, -7474.96, 0.0, 5.0140204, 4.960263 
5.741003e+2, 3.1492344e+2, -9203.064, -87790.07, 7065.7725, -0.07045955, 0.26821703, -8572.833, -8572.833, 0.0, 5.013238, 4.96078 
5.791151e+2, 1.21528305e+2, -1712266.5, -1749611.4, 34.94091, 0.021159763, 0.017422473, -1712266.4, 36768.64, 0.0, 5.0140576, 4.989726 
5.791112e+2, 1.2651475e+2, -1668609.9, -1711525.9, 155.72194, -0.021281121, 0.018757613, -1668609.3, 31557.469, 0.0, 5.014071, 4.986142 
5.7911277e+2, 1.3150012e+2, -1619776.0, -1662610.5, 136.32497, -0.009011133, 0.01057344, -1619775.6, 31533.184, 0.0, 5.0140166, 4.986141 
5.791144e+2, 1.3648549e+2, -1573094.3, -1618084.8, 65.12104, 0.003216858, 0.0035937142, -1573094.3, 29356.854, 0.0, 5.013956, 4.9846883 
5.7911515e+2, 1.414681e+2, -1530915.6, -1582925.0, -98.95677, 0.009704209, 0.010348163, -1530915.5, 22704.488, 0.0, 5.0139117, 4.9800444 
5.7911485e+2, 1.4644812e+2, -1481612.8, -1533502.4, -107.50116, 0.0059352955, 0.0065685124, -1481612.5, 23200.896, 0.0, 5.0139422, 4.980149 
5.791145e+2, 1.5142812e+2, -1432461.8, -1484398.6, -87.45592, 0.0018061463, 0.0024356127, -1432461.6, 23545.588, 0.0, 5.013973, 4.980149 
5.7911414e+2, 1.5640812e+2, -1384633.3, -1438041.0, -59.28719, -0.0023286745, -0.0012371724, -1384633.3, 22567.787, 0.0, 5.0140023, 4.979232 
5.7911384e+2, 1.6138436e+2, -1344510.6, -1407700.8, -340.8441, -0.00418818, 0.0014938994, -1344508.8, 13923.424, 0.0, 5.0140095, 4.9729667 
5.791138e+2, 1.6635732e+2, -1295595.3, -1358875.4, -419.29648, -0.00080929475, -0.00018838518, -1295592.4, 14104.194, 0.0, 5.0139804, 4.9728785 
5.791137e+2, 1.713303e+2, -1246564.5, -1309791.1, -440.56244, 0.0027585584, -0.0017884927, -1246561.4, 14399.683, 0.0, 5.013946, 4.972879 
5.791137e+2, 1.7630327e+2, -1198654.4, -1263061.8, -436.06436, 0.006320774, -0.0029898519, -1198651.5, 13574.031, 0.0, 5.013909, 4.9720902 
5.791136e+2, 1.8127261e+2, -1158428.1, -1232764.4, -430.56027, 0.008778082, 0.0028308206, -1158425.6, 5100.1777, 0.0, 5.0138955, 4.965737 
5.791133e+2, 1.8623826e+2, -1109000.9, -1183314.5, -417.65775, 0.008852013, -0.0010680604, -1108998.5, 5864.243, 0.0, 5.013944, 4.9657965 
5.791129e+2, 1.9120392e+2, -1059661.4, -1134045.3, -405.1233, 0.008805111, -0.0052367575, -1059659.1, 6540.804, 0.0, 5.0139914, 4.965797 
5.791125e+2, 1.9616957e+2, -1011230.25, -1086703.1, -392.71674, 0.0087458035, -0.009092773, -1011228.2, 6308.7905, 0.0, 5.014034, 4.9651465 
5.7911223e+2, 2.0113182e+2, -970767.3, -1056604.1, -161.09038, 0.0076837703, -0.0042615826, -970767.0, -1860.1228, 0.0, 5.014087, 4.958608 
5.791119e+2, 2.0609087e+2, -921051.56, -1006740.7, -147.61064, 0.004258971, -0.0042561903, -921051.3, -744.0434, 0.0, 5.0141635, 4.958773 
5.7911146e+2, 2.1104991e+2, -871579.9, -957374.5, -139.45245, 0.0007150126, -0.0043942584, -871579.7, 127.87449, 0.0, 5.014234, 4.958774 
5.791111e+2, 2.1600896e+2, -822794.6, -909473.5, -131.81647, -0.0028424682, -0.004384706, -822794.4, 313.36853, 0.0, 5.014298, 4.9582753 
5.791111e+2, 2.209644e+2, -783144.25, -881561.1, 108.665306, -0.0034604592, 0.004432186, -783144.1, -8598.858, 0.0, 5.0143576, 4.9508986 
5.7911223e+2, 2.259158e+2, -733530.75, -831876.9, 140.5572, 0.0043054814, 0.005179914, -733530.56, -7502.554, 0.0, 5.01441, 4.950984 
5.791134e+2, 2.3086718e+2, -684059.4, -782466.75, 113.7733, 0.012548543, 0.005616703, -684059.25, -6547.9253, 0.0, 5.0144515, 4.950987 
5.7911456e+2, 2.3581852e+2, -635269.6, -734518.44, 84.87424, 0.020766394, 0.0060064257, -635269.56, -6274.8843, 0.0, 5.014482, 4.950488 
5.791155e+2, 2.407666e+2, -594121.25, -703794.7, 28.239601, 0.02727069, 0.016668893, -594121.2, -13613.98, 0.0, 5.0145607, 4.943968 
5.7911605e+2, 2.457113e+2, -542446.2, -651190.25, 117.30095, 0.027855152, 0.012388174, -542446.06, -10403.917, 0.0, 5.014935, 4.944892 
5.791165e+2, 2.5065595e+2, -491895.03, -601278.2, 69.88261, 0.027934996, 0.0059139095, -491895.0, -8318.227, 0.0, 5.015336, 4.9448886 
5.79117e+2, 2.5560063e+2, -441622.38, -551950.1, 21.446938, 0.027994148, -0.00011213885, -441622.34, -6511.358, 0.0, 5.015727, 4.944687 
5.7911843e+2, 2.605409e+2, -405128.7, -533793.1, 249.70108, 0.036366574, 0.009501785, -405128.2, -18432.307, 0.0, 5.016127, 4.933449 
5.7912207e+2, 2.6547763e+2, -354700.4, -483399.63, 233.45798, 0.060414594, 0.0256638, -354699.97, -16354.696, 0.0, 5.016341, 4.9334636 
5.7912546e+2, 2.7041465e+2, -304737.28, -433439.53, -53.78294, 0.08300248, 0.04152872, -304737.25, -14742.125, 0.0, 5.0163736, 4.933567 
5.791286e+2, 2.7535155e+2, -255229.63, -383828.5, -440.1104, 0.103899784, 0.054410126, -255228.13, -13582.306, 0.0, 5.016244, 4.933623 
5.791349e+2, 2.8028646e+2, -222712.58, -377229.8, 3093.7542, 0.13245568, 0.14484708, -222650.66, -29343.127, 0.0, 5.0170374, 4.9184637 
5.791354e+2, 2.85214e+2, -159565.22, -296372.03, -891.9421, 0.11186958, 0.15349852, -159559.4, -14559.73, 0.0, 5.017499, 4.9290915 
5.791318e+2, 2.9013813e+2, -111643.766, -247254.39, -293.04074, 0.07119799, 0.0874187, -111643.13, -14922.801, 0.0, 5.016916, 4.9291506 
5.791278e+2, 2.950619e+2, -64303.992, -198424.73, 194.88626, 0.02964201, 0.016710905, -64303.707, -15859.778, 0.0, 5.0160813, 4.9292097 
5.791246e+2, 3.0000317e+2, -8464.723, -95626.65, 2112.961, -0.0021309657, -0.014110492, -8413.531, -8407.063, 0.0, 5.015106, 4.9578614 
5.7912177e+2, 3.0497593e+2, -8308.502, -88593.33, 4158.606, -0.02200309, 0.07346796, -8093.6685, -8093.6685, 0.0, 5.013961, 4.9602056 
5.791174e+2, 3.0995265e+2, -12114.716, -88685.5, 5627.851, -0.05179111, 0.17931986, -11703.287, -11703.287, 0.0, 5.012338, 4.960758 
5.791122e+2, 3.1493077e+2, -17004.525, -89338.21, 7747.0737, -0.087515146, 0.2937947, -16184.105, -16184.105, 0.0, 5.0102634, 4.9613113 
5.8412933e+2, 1.21528305e+2, -1711385.9, -1749295.5, 668.2326, 0.021959273, 0.01711823, -1711374.0, 37660.457, 0.0, 5.014372, 4.9896755 
5.8412546e+2, 1.2651457e+2, -1667829.4, -1711183.9, 314.6149, -0.01999422, 0.016891694, -1667827.1, 32340.758, 0.0, 5.0143375, 4.986123 
5.841269e+2, 1.3149996e+2, -1619160.4, -1662349.0, 306.08545, -0.008510231, 0.008859136, -1619158.3, 32151.84, 0.0, 5.01423, 4.986123 
5.841283e+2, 1.3648531e+2, -1572631.4, -1617908.3, 234.77461, 0.002974605, 0.0020668674, -1572630.3, 29822.203, 0.0, 5.0141215, 4.984666 
5.8412904e+2, 1.4146793e+2, -1530575.6, -1582801.3, 131.78111, 0.009071723, 0.009263456, -1530575.3, 23046.018, 0.0, 5.0140347, 4.9800253 
5.8412874e+2, 1.4644803e+2, -1481409.1, -1533456.1, 82.98252, 0.005669059, 0.006447169, -1481409.0, 23405.477, 0.0, 5.014022, 4.9801254 
5.8412844e+2, 1.5142812e+2, -1432384.6, -1484415.5, 46.114418, 0.0019394637, 0.0033002119, -1432384.6, 23623.271, 0.0, 5.0140104, 4.980125 
5.8412814e+2, 1.5640818e+2, -1384678.4, -1438120.4, 13.188239, -0.0017849563, 0.0006181349, -1384678.4, 22522.938, 0.0, 5.013999, 4.979207 
5.841278e+2, 1.6138446e+2, -1344544.1, -1407674.8, -284.6616, -0.0035845963, 0.003805055, -1344542.9, 13889.523, 0.0, 5.013989, 4.9729853 
5.8412766e+2, 1.663574e+2, -1295496.3, -1358759.3, -301.68427, -0.00092761166, 0.0014404132, -1295494.8, 14202.241, 0.0, 5.013999, 4.9729085 
5.8412755e+2, 1.7133032e+2, -1246335.5, -1309615.1, -256.34753, 0.0019163546, -0.00087926275, -1246334.5, 14627.286, 0.0, 5.0140095, 4.972908 
5.841274e+2, 1.7630325e+2, -1198286.1, -1262821.6, -182.65897, 0.004780271, -0.002802044, -1198285.6, 13940.867, 0.0, 5.01402, 4.9721193 
5.841273e+2, 1.8127257e+2, -1157938.1, -1232506.4, -75.49832, 0.006602128, 0.002648859, -1157938.0, 5588.856, 0.0, 5.014056, 4.9657483 
5.84127e+2, 1.862383e+2, -1108361.6, -1183000.3, -50.0752, 0.0061700456, -0.0006465822, -1108361.5, 6501.5737, 0.0, 5.01416, 4.9658017 
5.841267e+2, 1.9120401e+2, -1058851.9, -1133651.3, -48.51255, 0.0056555076, -0.0041530994, -1058851.9, 7347.6675, 0.0, 5.0142665, 4.9658027 
5.841264e+2, 1.9616972e+2, -1010238.5, -1086225.5, -46.551308, 0.005165159, -0.007343924, -1010238.5, 7297.311, 0.0, 5.014373, 4.965152 
5.841262e+2, 2.01132e+2, -969679.3, -1056070.8, 159.2855, 0.004227577, -0.0024427946, -969679.0, -773.52216, 0.0, 5.0144577, 4.958617 
5.84126e+2, 2.0609093e+2, -920107.1, -1006306.06, 150.47258, 0.0023328068, -0.0036227603, -920106.9, 200.27611, 0.0, 5.014492, 4.95877 
5.841258e+2, 2.1104985e+2, -870750.2, -956996.1, 141.04004, 0.00043100695, -0.0049793776, -870750.0, 958.6852, 0.0, 5.0145235, 4.9587703 
5.8412564e+2, 2.1600877e+2, -822060.56, -909142.4, 131.50935, -0.0014410327, -0.006188723, -822060.3, 1049.8524, 0.0, 5.0145545, 4.9582715 
5.841258e+2, 2.209642e+2, -782426.56, -881090.7, 383.01157, -0.0010385063, 0.0021803705, -782425.06, -7877.146, 0.0, 5.0145764, 4.9509606 
5.8412683e+2, 2.2591585e+2, -732983.0, -831446.25, 541.72845, 0.005799308, 0.004919271, -732980.0, -6952.3315, 0.0, 5.0145597, 4.951066 
5.841279e+2, 2.3086752e+2, -683691.2, -782127.06, 658.14325, 0.0130636515, 0.0075151236, -683686.75, -6178.9033, 0.0, 5.014539, 4.951067 
5.84129e+2, 2.3581916e+2, -635050.2, -734255.44, 776.5698, 0.020375896, 0.010049671, -635044.1, -6055.9683, 0.0, 5.0145173, 4.950567 
5.841299e+2, 2.4076734e+2, -594036.4, -703822.56, 1045.7086, 0.026019467, 0.021303857, -594026.4, -13526.7, 0.0, 5.014583, 4.9439564 
5.841308e+2, 2.4571168e+2, -542438.0, -651468.94, 1158.1409, 0.025642095, 0.014209472, -542425.7, -10386.12, 0.0, 5.014968, 4.944792 
5.841316e+2, 2.5065595e+2, -491860.78, -601544.7, 1016.30194, 0.024870075, 0.0048938124, -491851.38, -8271.835, 0.0, 5.0153775, 4.944789 
5.841323e+2, 2.5560024e+2, -441541.22, -552195.94, 871.93396, 0.024209965, -0.003947139, -441534.38, -6415.2983, 0.0, 5.015784, 4.9445877 
5.841341e+2, 2.6054054e+2, -404312.2, -532635.44, 1320.5951, 0.031351656, 0.005319013, -404298.6, -17594.035, 0.0, 5.01621, 4.9338484 
5.841379e+2, 2.654785e+2, -353462.2, -481959.22, 2372.4294, 0.05330465, 0.029507624, -353418.4, -15077.033, 0.0, 5.016486, 4.9339824 
5.841416e+2, 2.7041656e+2, -302935.9, -432081.66, 3386.1194, 0.07466063, 0.05280273, -302847.2, -12867.568, 0.0, 5.016714, 4.9340024 
5.8414495e+2, 2.7535433e+2, -252435.23, -382383.28, 4497.645, 0.095257305, 0.07172332, -252279.77, -10659.07, 0.0, 5.01693, 4.9339743 
5.84151e+2, 2.8028926e+2, -220099.08, -372818.78, 9334.1045, 0.12066513, 0.15409718, -219530.7, -26249.984, 0.0, 5.0173373, 4.919836 
5.841508e+2, 2.8521627e+2, -161270.02, -295824.38, 4349.6943, 0.097460285, 0.15063149, -161129.55, -16153.762, 0.0, 5.0168166, 4.9294343 
5.841466e+2, 2.9014e+2, -114274.79, -247540.39, 3398.248, 0.058016572, 0.08040612, -114188.19, -17491.207, 0.0, 5.015914, 4.92937 
5.841422e+2, 2.9506335e+2, -67221.49, -199278.67, 2558.0847, 0.019025521, 0.005484801, -67171.95, -18749.846, 0.0, 5.014987, 4.9293056 
5.841386e+2, 3.0000466e+2, -9970.861, -94288.05, 3514.6663, -0.010632057, -0.02792994, -9824.61, -9824.61, 0.0, 5.014127, 4.9587317 
5.8413476e+2, 3.0497864e+2, -8818.164, -86618.055, 5217.4614, -0.0307073, 0.06499565, -8469.827, -8469.827, 0.0, 5.0132527, 4.9612412 
5.841297e+2, 3.099564e+2, -10458.578, -85203.66, 6081.589, -0.05764057, 0.17281346, -9966.986, -9966.986, 0.0, 5.0122776, 4.9620233 
5.8412373e+2, 3.149354e+2, -11989.816, -83899.66, 7084.663, -0.08748503, 0.28331026, -11298.472, -11298.472, 0.0, 5.0112743, 4.9628053 
5.8914363e+2, 1.215283e+2, -1711472.0, -1749457.3, 1080.9712, 0.020360708, 0.014917452, -1711441.3, 37592.023, 0.0, 5.01437, 4.989623 
5.8914e+2, 1.2651446e+2, -1667849.0, -1711215.0, 229.16205, -0.018105678, 0.013853945, -1667847.8, 32319.908, 0.0, 5.014336, 4.9861135 
5.891412e+2, 1.3149987e+2, -1619179.1, -1662381.8, 222.65579, -0.007698389, 0.0062813675, -1619178.0, 32131.654, 0.0, 5.014229, 4.9861126 
5.891424e+2, 1.3648526e+2, -1572657.0, -1617958.0, 142.70786, 0.0026835662, -0.000052249357, -1572656.5, 29795.299, 0.0, 5.014121, 4.9846497 
5.891429e+2, 1.4146793e+2, -1530632.1, -1582914.9, 107.67874, 0.008183806, 0.0078346245, -1530631.9, 22988.611, 0.0, 5.0140343, 4.9799876 
5.891427e+2, 1.464481e+2, -1481479.8, -1533598.9, 73.00178, 0.005354747, 0.006185855, -1481479.6, 23333.97, 0.0, 5.0140214, 4.980078 
5.8914244e+2, 1.5142825e+2, -1432454.8, -1484557.5, 36.803165, 0.0022312452, 0.004220147, -1432454.8, 23552.19, 0.0, 5.01401, 4.9800777 
5.891422e+2, 1.564084e+2, -1384750.5, -1438266.8, -0.9190399, -0.00089369004, 0.002718389, -1384750.5, 22449.822, 0.0, 5.0139985, 4.979158 
5.891419e+2, 1.613847e+2, -1344496.0, -1407570.9, -280.8876, -0.0026244414, 0.006386638, -1344494.8, 13936.632, 0.0, 5.0139885, 4.97302 
5.8914167e+2, 1.6635759e+2, -1295413.5, -1358582.6, -294.66248, -0.0010680995, 0.0029946144, -1295412.1, 14284.046, 0.0, 5.0139985, 4.9729676 
5.891414e+2, 1.7133048e+2, -1246253.4, -1309438.9, -248.32709, 0.00062027463, -0.0004032721, -1246252.4, 14708.645, 0.0, 5.014009, 4.9729676 
5.8914125e+2, 1.7630334e+2, -1198204.8, -1262646.3, -172.27803, 0.0023143175, -0.00340455, -1198204.4, 14021.566, 0.0, 5.0140195, 4.9721785 
5.891411e+2, 1.8127266e+2, -1157917.5, -1232456.3, -15.281766, 0.003191029, 0.0015744576, -1157917.5, 5608.548, 0.0, 5.0140553, 4.9657655 
5.8914083e+2, 1.8623851e+2, -1108362.0, -1182993.4, 31.44554, 0.0023834358, -0.00059901975, -1108362.0, 6499.248, 0.0, 5.014159, 4.965804 
5.8914053e+2, 1.9120434e+2, -1058852.5, -1133644.1, 34.42018, 0.0014984811, -0.0029006586, -1058852.5, 7343.9365, 0.0, 5.0142655, 4.9658055 
5.891403e+2, 1.9617018e+2, -1010240.06, -1086219.3, 37.854828, 0.0006199864, -0.0048868777, -1010240.0, 7291.551, 0.0, 5.0143714, 4.965154 
5.891402e+2, 2.011325e+2, -969681.1, -1056062.4, 194.76482, -0.000032322576, 0.00037038306, -969680.7, -779.76746, 0.0, 5.0144563, 4.9586205 
5.8914024e+2, 2.0609125e+2, -920126.2, -1006335.06, 173.36583, 0.00012531933, -0.0024318518, -920125.8, 178.61876, 0.0, 5.01449, 4.9587607 
5.891403e+2, 2.1104999e+2, -870769.06, -957025.2, 165.99397, 0.00033760048, -0.0054861926, -870768.7, 939.21063, 0.0, 5.0145216, 4.958761 
5.8914036e+2, 2.1600872e+2, -822079.1, -909171.5, 158.52081, 0.00055492116, -0.008392581, -822078.9, 1032.5529, 0.0, 5.014553, 4.9582624 
5.891407e+2, 2.209641e+2, -782296.25, -880786.9, 384.0021, 0.0020714581, -0.00079429575, -782294.75, -7745.162, 0.0, 5.014574, 4.951066 
5.8914155e+2, 2.2591612e+2, -732796.0, -831006.5, 534.35126, 0.0073107635, 0.0040456997, -732793.1, -6767.837, 0.0, 5.014556, 4.951219 
5.8914244e+2, 2.3086816e+2, -683508.25, -781685.6, 655.1422, 0.012771802, 0.0089472635, -683503.9, -6002.767, 0.0, 5.0145335, 4.951221 
5.8914334e+2, 2.358202e+2, -634871.25, -733812.25, 777.9474, 0.018239427, 0.013787067, -634865.1, -5888.1484, 0.0, 5.014511, 4.9507217 
5.8914423e+2, 2.4076858e+2, -594099.4, -703832.94, 1257.8333, 0.022243604, 0.025882624, -594084.94, -13598.377, 0.0, 5.014565, 4.943957 
5.891453e+2, 2.4571256e+2, -542676.1, -651838.1, 1469.9915, 0.020814935, 0.016330242, -542656.4, -10624.523, 0.0, 5.014945, 4.9446697 
5.8914644e+2, 2.5065646e+2, -492095.47, -601915.25, 1334.74, 0.01896093, 0.0045282436, -492079.25, -8501.64, 0.0, 5.015355, 4.9446654 
5.8914745e+2, 2.5560036e+2, -441772.47, -552567.9, 1196.9457, 0.01715424, -0.006762464, -441759.56, -6636.592, 0.0, 5.015762, 4.944463 
5.8914936e+2, 2.605408e+2, -403492.97, -530464.9, 1687.0978, 0.021781608, 0.0019814132, -403470.56, -16762.066, 0.0, 5.016166, 4.9346256 
5.89153e+2, 2.6548037e+2, -352217.0, -478300.47, 2846.4092, 0.036455754, 0.032107428, -352152.78, -13826.554, 0.0, 5.0163755, 4.935312 
5.891564e+2, 2.7042034e+2, -301836.44, -428262.6, 3954.013, 0.049423374, 0.06219209, -301712.88, -11770.131, 0.0, 5.016542, 4.935401 
5.891595e+2, 2.7536014e+2, -251481.67, -378403.94, 5159.302, 0.06092457, 0.088324554, -251272.28, -9711.336, 0.0, 5.016696, 4.9354424 
5.8916485e+2, 2.802961e+2, -218504.81, -369117.38, 8813.85, 0.077670604, 0.16452017, -217990.78, -24782.945, 0.0, 5.0173335, 4.9211764 
5.891644e+2, 2.8522152e+2, -161341.05, -297425.38, 3544.0706, 0.061518952, 0.14714003, -161248.81, -16333.814, 0.0, 5.0170107, 4.9289203 
5.891602e+2, 2.9014385e+2, -114384.22, -248903.2, 2715.5784, 0.031940542, 0.07029037, -114329.42, -17682.094, 0.0, 5.0160804, 4.9289255 
5.891558e+2, 2.950658e+2, -67370.13, -200404.06, 1998.4612, 0.0019897278, -0.011745352, -67340.12, -18956.715, 0.0, 5.0151258, 4.928931 
5.891519e+2, 3.0000648e+2, -8602.234, -91145.195, 2866.4585, -0.021475766, -0.05094708, -8502.812, -8502.812, 0.0, 5.014188, 4.9598985 
5.891472e+2, 3.049818e+2, -7696.7397, -82772.71, 4653.818, -0.043092884, 0.04798568, -7409.359, -7409.359, 0.0, 5.0131335, 4.9628267 
5.8914113e+2, 3.099613e+2, -9883.169, -81571.52, 5817.483, -0.07366285, 0.1682977, -9414.151, -9414.151, 0.0, 5.0119967, 4.9636126 
5.891341e+2, 3.1494242e+2, -11961.329, -80480.35, 7120.2466, -0.10891818, 0.29556367, -11229.241, -11229.241, 0.0, 5.010832, 4.9643984 
5.9415776e+2, 1.21528186e+2, -1711432.8, -1749362.6, 1493.6683, 0.018510373, 0.011725685, -1711374.0, 37659.152, 0.0, 5.014368, 4.989654 
5.9415454e+2, 1.2651436e+2, -1667869.1, -1711245.8, 144.58882, -0.016232248, 0.01089598, -1667868.6, 32298.793, 0.0, 5.014335, 4.986103 
5.941555e+2, 1.3149981e+2, -1619198.4, -1662414.1, 140.1058, -0.006891643, 0.003753198, -1619198.0, 32111.197, 0.0, 5.0142283, 4.9861016 
5.941565e+2, 1.3648523e+2, -1572683.1, -1618007.6, 51.45309, 0.0023974602, -0.0021519195, -1572683.1, 29768.053, 0.0, 5.0141206, 4.984633 
5.941569e+2, 1.4146794e+2, -1530694.3, -1583039.4, 83.33866, 0.0072964216, 0.0064261863, -1530694.1, 22925.666, 0.0, 5.014034, 4.9799466 
5.9415674e+2, 1.4644818e+2, -1481550.6, -1533741.4, 62.937214, 0.005038732, 0.005939371, -1481550.5, 23262.246, 0.0, 5.014021, 4.9800305 
5.941565e+2, 1.514284e+2, -1432525.1, -1484699.4, 27.408104, 0.002521383, 0.0051430753, -1432525.1, 23480.893, 0.0, 5.0140095, 4.9800305 
5.9415627e+2, 1.5640861e+2, -1384823.0, -1438413.4, -15.192347, -0.000003997474, 0.004809783, -1384823.0, 22376.344, 0.0, 5.013998, 4.979109 
5.94156e+2, 1.6138496e+2, -1344451.8, -1407474.6, -277.1856, -0.0016614195, 0.008985445, -1344450.6, 13979.81, 0.0, 5.013988, 4.973052 
5.9415567e+2, 1.6635779e+2, -1295331.1, -1358405.9, -287.73782, -0.0012056576, 0.004564152, -1295329.8, 14365.518, 0.0, 5.013998, 4.9730268 
5.941553e+2, 1.7133063e+2, -1246171.5, -1309262.5, -240.40381, -0.0006741289, 0.00007482812, -1246170.6, 14789.677, 0.0, 5.0140085, 4.973027 
5.9415495e+2, 1.7630345e+2, -1198123.9, -1262470.9, -162.05153, -0.00015122509, -0.0040181745, -1198123.4, 14101.869, 0.0, 5.014019, 4.9722376 
5.941547e+2, 1.8127276e+2, -1157901.6, -1232415.4, 44.48539, -0.00021932874, 0.00052194775, -1157901.6, 5623.6606, 0.0, 5.0140543, 4.9657793 
5.941546e+2, 1.8623872e+2, -1108362.8, -1182986.3, 112.74182, -0.0014034575, -0.0005342074, -1108362.6, 6496.6724, 0.0, 5.014158, 4.9658065 
5.941544e+2, 1.9120468e+2, -1058853.6, -1133636.6, 117.12846, -0.0026602095, -0.0016525652, -1058853.4, 7339.9707, 0.0, 5.014264, 4.965808 
5.9415424e+2, 1.9617064e+2, -1010241.94, -1086212.6, 122.05452, -0.0039282306, -0.0024557768, -1010241.75, 7285.5903, 0.0, 5.01437, 4.9651566 
5.9415424e+2, 2.0113301e+2, -969693.0, -1056074.6, 229.8826, -0.0042932928, 0.0032363022, -969692.44, -796.0651, 0.0, 5.0144544, 4.9586167 
5.9415454e+2, 2.0609158e+2, -920145.75, -1006363.56, 196.38312, -0.0020815649, -0.0011812381, -920145.3, 156.36838, 0.0, 5.014488, 4.958751 
5.9415483e+2, 2.1105014e+2, -870788.44, -957053.75, 191.07193, 0.00024547515, -0.0059669693, -870788.0, 919.16003, 0.0, 5.0145197, 4.9587517 
5.9415513e+2, 2.160087e+2, -822098.3, -909200.2, 185.65627, 0.002552834, -0.010604066, -822097.9, 1014.69434, 0.0, 5.014551, 4.9582524 
5.9415555e+2, 2.2096401e+2, -782179.3, -880510.5, 383.05783, 0.005189138, -0.0037469605, -782177.8, -7626.6045, 0.0, 5.014571, 4.951161 
5.9415627e+2, 2.259164e+2, -732610.25, -830565.75, 525.0191, 0.008820714, 0.0031510394, -732607.44, -6584.5464, 0.0, 5.0145516, 4.9513707 
5.94157e+2, 2.3086882e+2, -683326.5, -781243.3, 650.1857, 0.012465761, 0.010278127, -683322.2, -5827.807, 0.0, 5.0145283, 4.9513745 
5.9415764e+2, 2.3582123e+2, -634693.5, -733368.2, 777.369, 0.01607608, 0.017343001, -634687.4, -5721.476, 0.0, 5.0145044, 4.950876 
5.9415853e+2, 2.4076983e+2, -594197.75, -703912.8, 1455.5962, 0.018455548, 0.030689318, -594178.44, -13705.204, 0.0, 5.0145473, 4.9439325 
5.9415984e+2, 2.4571349e+2, -542919.5, -652202.3, 1782.954, 0.016002642, 0.018833492, -542890.44, -10866.672, 0.0, 5.0149217, 4.9445467 
5.941613e+2, 2.50657e+2, -492335.4, -602280.75, 1654.2898, 0.0130844815, 0.004436751, -492310.5, -8735.066, 0.0, 5.0153327, 4.944541 
5.941626e+2, 2.556005e+2, -442008.94, -552934.8, 1523.069, 0.010149034, -0.009412122, -441988.03, -6861.387, 0.0, 5.01574, 4.9443374 
5.9416467e+2, 2.6054096e+2, -402797.94, -528537.2, 1984.7881, 0.012607623, -0.0017214849, -402766.63, -16053.34, 0.0, 5.016122, 4.935306 
5.9416795e+2, 2.6548213e+2, -350992.66, -474627.56, 3216.327, 0.01948117, 0.032630384, -350909.03, -12596.164, 0.0, 5.0162654, 4.936617 
5.94171e+2, 2.704239e+2, -300757.44, -424429.4, 4417.821, 0.023256127, 0.067771375, -300599.8, -10691.62, 0.0, 5.01637, 4.9367747 
5.941736e+2, 2.7536562e+2, -250548.23, -374410.47, 5716.8423, 0.024857588, 0.09938262, -250284.94, -8780.885, 0.0, 5.016462, 4.9368854 
5.9417874e+2, 2.803029e+2, -217887.42, -367656.78, 8539.841, 0.03546174, 0.17635028, -217402.05, -24267.535, 0.0, 5.0173297, 4.9217224 
5.941782e+2, 2.8522706e+2, -161450.98, -298990.44, 2606.6672, 0.027979072, 0.1493019, -161401.6, -16549.838, 0.0, 5.0172048, 4.92838 
5.941741e+2, 2.9014784e+2, -114532.34, -250229.64, 1901.0765, 0.0073462506, 0.0631638, -114505.72, -17909.355, 0.0, 5.016247, 4.928456 
5.941696e+2, 2.9506826e+2, -67557.27, -201492.67, 1306.9398, -0.014484189, -0.028650288, -67544.516, -19199.998, 0.0, 5.015264, 4.928531 
5.941655e+2, 3.0000806e+2, -7751.0425, -89090.85, 2125.9963, -0.031259663, -0.075086914, -7695.5127, -7695.5127, 0.0, 5.0142493, 4.9606395 
5.9415984e+2, 3.0498448e+2, -6618.036, -78888.016, 4066.9456, -0.05229271, 0.02495483, -6389.8916, -6389.8916, 0.0, 5.013015, 4.9643416 
5.941525e+2, 3.099654e+2, -9350.386, -77899.37, 5529.729, -0.08496878, 0.14993937, -8907.178, -8907.178, 0.0, 5.0117164, 4.9651313 
5.941442e+2, 3.1494823e+2, -11975.522, -77020.305, 7131.798, -0.12410406, 0.28615096, -11202.741, -11202.741, 0.0, 5.01039, 4.965921 
5.9917194e+2, 1.2152795e+2, -1711955.4, -1749381.9, 1684.7354, 0.01638418, 0.007955486, -1711879.6, 37154.637, 0.0, 5.0141454, 4.989757 
5.991691e+2, 1.2651424e+2, -1668561.9, -1711607.8, -138.27585, -0.014120846, 0.008262731, -1668561.4, 31606.04, 0.0, 5.014111, 4.9860935 
5.991698e+2, 1.3149972e+2, -1619849.0, -1662754.5, -137.86482, -0.005964625, 0.001525056, -1619848.5, 31460.428, 0.0, 5.014017, 4.986092 
5.9917057e+2, 1.3648517e+2, -1573326.4, -1618356.0, -230.95624, 0.002145451, -0.00397651, -1573325.3, 29125.615, 0.0, 5.013914, 4.984618 
5.9917086e+2, 1.4146793e+2, -1531377.4, -1583470.6, -122.78612, 0.006381971, 0.005245626, -1531377.1, 22242.215, 0.0, 5.0138264, 4.9799037 
5.991706e+2, 1.4644822e+2, -1482231.1, -1534177.8, -119.2931, 0.004663003, 0.0057810955, -1482230.9, 22581.414, 0.0, 5.013815, 4.9799848 
5.991705e+2, 1.5142849e+2, -1433203.1, -1485133.6, -146.18285, 0.0027295297, 0.0060088118, -1433202.8, 22802.79, 0.0, 5.013804, 4.9799843 
5.991703e+2, 1.5640877e+2, -1385506.1, -1438853.5, -186.4373, 0.0007895164, 0.006699778, -1385505.5, 21693.354, 0.0, 5.013791, 4.979061 
5.9917e+2, 1.6138513e+2, -1345013.1, -1407681.5, -425.82224, -0.0007800647, 0.011336055, -1345010.3, 13419.731, 0.0, 5.0137854, 4.97308 
5.991696e+2, 1.6635792e+2, -1295802.3, -1358503.5, -445.8502, -0.0013659706, 0.0059643993, -1295799.1, 13895.817, 0.0, 5.0138116, 4.973083 
5.991692e+2, 1.7133072e+2, -1246601.3, -1309339.0, -411.78415, -0.0019172879, 0.00045722775, -1246598.5, 14361.503, 0.0, 5.013836, 4.973083 
5.991688e+2, 1.7630349e+2, -1198522.4, -1262531.8, -345.4591, -0.0024767602, -0.004655921, -1198520.5, 13704.684, 0.0, 5.0138564, 4.972294 
5.991685e+2, 1.812728e+2, -1158378.1, -1232612.4, -99.11618, -0.0034216936, -0.0004866156, -1158378.0, 5146.9126, 0.0, 5.013886, 4.9657917 
5.9916836e+2, 1.8623888e+2, -1108972.6, -1183264.6, -0.26074687, -0.0049787085, -0.00047911375, -1108972.6, 5885.205, 0.0, 5.013947, 4.9658113 
5.991683e+2, 1.9120495e+2, -1059602.5, -1133980.6, 15.094215, -0.0065858406, -0.0004858837, -1059602.5, 6588.233, 0.0, 5.0140047, 4.965812 
5.991682e+2, 1.9617105e+2, -1011142.94, -1086628.5, 30.112787, -0.008201314, -0.00017840018, -1011142.94, 6380.6797, 0.0, 5.014058, 4.96516 
5.991683e+2, 2.0113346e+2, -970716.75, -1056578.8, 104.55757, -0.008281162, 0.006003133, -970716.6, -1824.3558, 0.0, 5.0141063, 4.9586067 
5.991688e+2, 2.0609187e+2, -921126.9, -1006844.9, 60.771122, -0.00416731, 0.00008396661, -921126.8, -827.47626, 0.0, 5.0141535, 4.958741 
5.991693e+2, 2.1105026e+2, -871735.56, -957517.9, 54.350945, 0.00014270599, -0.006349684, -871735.5, -28.839014, 0.0, 5.014196, 4.9587417 
5.9916985e+2, 2.1600865e+2, -823027.5, -909654.44, 47.41408, 0.004437884, -0.012637498, -823027.5, 86.52643, 0.0, 5.0142326, 4.9582424 
5.991704e+2, 2.2096393e+2, -782953.56, -880677.1, 216.80522, 0.008146389, -0.0064700195, -782953.06, -8399.943, 0.0, 5.014263, 4.9512444 
5.99171e+2, 2.2591661e+2, -733208.94, -830510.8, 330.07404, 0.010216532, 0.0022561862, -733207.8, -7186.838, 0.0, 5.0142765, 4.9515142 
5.9917146e+2, 2.3086938e+2, -683859.1, -781159.44, 428.7666, 0.012147918, 0.011333387, -683857.25, -6368.8545, 0.0, 5.014277, 4.951517 
5.99172e+2, 2.3582214e+2, -635193.4, -733270.4, 523.60565, 0.014057225, 0.020346293, -635190.56, -6234.729, 0.0, 5.0142655, 4.951018 
5.991727e+2, 2.4077097e+2, -595040.44, -704428.56, 1344.9484, 0.015024182, 0.035186745, -595023.94, -14562.98, 0.0, 5.01428, 4.9438744 
5.991743e+2, 2.457143e+2, -544289.9, -653130.44, 1762.0153, 0.0117783835, 0.021469107, -544261.4, -12244.926, 0.0, 5.0145025, 4.9444118 
5.9917605e+2, 2.5065744e+2, -494189.38, -603428.94, 1606.5988, 0.008102418, 0.004697783, -494165.75, -10591.907, 0.0, 5.014742, 4.9444056 
5.9917766e+2, 2.5560063e+2, -444370.66, -554311.4, 1449.3335, 0.0044301604, -0.011532944, -444351.56, -9220.753, 0.0, 5.0149693, 4.944201 
5.991799e+2, 2.6054096e+2, -405075.0, -528451.7, 1696.0327, 0.005624447, -0.0051845047, -405051.7, -18332.1, 0.0, 5.0151076, 4.9357834 
5.9918284e+2, 2.654833e+2, -354184.2, -473696.06, 2288.0244, 0.006264752, 0.031365026, -354140.4, -15836.02, 0.0, 5.014685, 4.9376307 
5.991854e+2, 2.704264e+2, -306186.47, -424526.16, 2645.4265, 0.0033886272, 0.068684466, -306127.38, -16244.104, 0.0, 5.014001, 4.9377747 
5.991877e+2, 2.7536938e+2, -258763.5, -375761.84, 2883.7305, -0.0012600423, 0.10212166, -258692.47, -17229.324, 0.0, 5.013107, 4.937871 
5.991929e+2, 2.8030774e+2, -230247.84, -373358.56, 4659.082, 0.008911394, 0.18344504, -230096.33, -37016.402, 0.0, 5.0130324, 4.921567 
5.991927e+2, 2.8523117e+2, -171225.7, -303730.6, -1302.8224, 0.0071110046, 0.15205315, -171212.9, -26411.115, 0.0, 5.0139155, 4.928045 
5.991883e+2, 2.9015088e+2, -121127.82, -253638.0, -1452.0394, -0.009468782, 0.057078835, -121111.91, -24556.86, 0.0, 5.014093, 4.9280925 
5.9918374e+2, 2.9507017e+2, -71834.805, -203947.81, -1719.6561, -0.026647141, -0.043735508, -71812.42, -23500.17, 0.0, 5.013949, 4.92814 
5.9917945e+2, 3.000092e+2, -10055.0625, -89402.13, -990.01495, -0.037383135, -0.09612365, -10042.712, -10042.712, 0.0, 5.0133934, 4.9608254 
5.991728e+2, 3.0498594e+2, -8912.026, -76898.07, 621.0065, -0.053541277, -0.0032639608, -8906.354, -8906.354, 0.0, 5.0117435, 4.9655232 
5.991643e+2, 3.0996713e+2, -14545.078, -76959.25, 2196.3003, -0.08112979, 0.109779365, -14467.888, -14467.888, 0.0, 5.0093837, 4.9663653 
5.9915495e+2, 3.1495026e+2, -21665.477, -77796.48, 4291.0425, -0.11380466, 0.23312625, -21339.334, -21339.334, 0.0, 5.006423, 4.9672084 
6.041857e+2, 1.2152797e+2, -1711150.3, -1749014.9, 1833.4144, 0.012225128, 0.009136146, -1711061.8, 37972.547, 0.0, 5.014417, 4.989744 
6.041837e+2, 1.2651424e+2, -1667941.5, -1711272.8, -121.19386, -0.009564616, 0.008972948, -1667941.3, 32226.578, 0.0, 5.01431, 4.9861064 
6.041841e+2, 1.3149977e+2, -1619313.9, -1662461.3, -105.26354, -0.0037250663, 0.0026663719, -1619313.5, 31995.29, 0.0, 5.0141883, 4.9861054 
6.041845e+2, 1.3648526e+2, -1572856.1, -1618105.3, -194.12836, 0.0021134992, -0.0024125793, -1572855.3, 29594.908, 0.0, 5.014066, 4.984627 
6.041845e+2, 1.4146802e+2, -1530957.1, -1583280.9, 4.3470936, 0.0048753847, 0.0068103913, -1530957.1, 22661.55, 0.0, 5.01397, 4.979897 
6.041843e+2, 1.4644822e+2, -1481853.1, -1534032.0, 44.506695, 0.003287539, 0.0066333935, -1481853.1, 22959.379, 0.0, 5.01395, 4.979968 
6.041842e+2, 1.5142842e+2, -1432849.9, -1485001.8, 39.06374, 0.0015489969, 0.0061403657, -1432849.9, 23156.652, 0.0, 5.013931, 4.979967 
6.0418403e+2, 1.564086e+2, -1385176.8, -1438741.6, 14.840022, -0.00018456516, 0.006112157, -1385176.8, 22023.89, 0.0, 5.0139112, 4.9790406 
6.0418373e+2, 1.6138491e+2, -1344632.6, -1407465.4, -173.60722, -0.0016230685, 0.010250362, -1344632.1, 13800.056, 0.0, 5.013906, 4.973095 
6.041834e+2, 1.6635773e+2, -1295372.9, -1358244.0, -206.6016, -0.002282147, 0.0049519446, -1295372.1, 14324.737, 0.0, 5.013945, 4.9731064 
6.041829e+2, 1.7133056e+2, -1246125.1, -1309057.1, -194.82378, -0.0028942246, -0.0004535253, -1246124.5, 14837.093, 0.0, 5.0139856, 4.973107 
6.0418254e+2, 1.7630337e+2, -1197991.4, -1262225.9, -150.15726, -0.0034946331, -0.0054675303, -1197991.0, 14235.231, 0.0, 5.014026, 4.9723167 
6.0418224e+2, 1.8127272e+2, -1157855.3, -1232263.5, 69.73548, -0.004571429, -0.0011628481, -1157855.1, 5670.3716, 0.0, 5.0140433, 4.9658356 
6.041821e+2, 1.8623888e+2, -1108717.3, -1183043.1, 194.0286, -0.0063945022, -0.00074506423, -1108716.6, 6140.8525, 0.0, 5.014013, 4.9658556 
6.04182e+2, 1.9120505e+2, -1059613.1, -1133887.9, 240.28473, -0.008239923, -0.00031052617, -1059612.4, 6577.2593, 0.0, 5.0139794, 4.965856 
6.041819e+2, 1.9617122e+2, -1011405.0, -1086657.9, 287.3185, -0.010065486, 0.00044050452, -1011403.94, 6117.654, 0.0, 5.0139456, 4.9652033 
6.04182e+2, 2.0113368e+2, -971199.5, -1056791.0, 419.60147, -0.010245027, 0.0068817027, -971197.44, -2307.7322, 0.0, 5.0139337, 4.958616 
6.0418254e+2, 2.0609209e+2, -921634.56, -1007108.4, 391.30914, -0.0059536807, 0.0008973402, -921632.75, -1335.4178, 0.0, 5.01398, 4.9587326 
6.0418314e+2, 2.1105047e+2, -872222.3, -957771.3, 384.82916, -0.0014133949, -0.0055958317, -872220.56, -515.31177, 0.0, 5.014029, 4.958733 
6.041838e+2, 2.1600884e+2, -823477.9, -909890.94, 378.40707, 0.003154241, -0.01194351, -823476.25, -363.04074, 0.0, 5.014078, 4.9582334 
6.041844e+2, 2.2096409e+2, -783189.4, -880569.94, 569.1056, 0.006782491, -0.0061384398, -783186.06, -8633.72, 0.0, 5.014133, 4.951342 
6.0418487e+2, 2.259168e+2, -733235.9, -830238.9, 693.42566, 0.007757394, 0.0015851466, -733230.94, -7212.031, 0.0, 5.014204, 4.951644 
6.041853e+2, 2.3086959e+2, -683685.56, -780804.44, 800.6074, 0.0086025065, 0.009653994, -683678.94, -6194.1216, 0.0, 5.0142756, 4.951644 
6.041858e+2, 2.3582238e+2, -634787.9, -732819.06, 909.8868, 0.009496317, 0.017666208, -634779.44, -5828.5176, 0.0, 5.014346, 4.9511423 
6.0418653e+2, 2.4077122e+2, -594767.0, -704406.0, 1752.42, 0.009816397, 0.03194834, -594739.0, -14283.702, 0.0, 5.0143766, 4.943847 
6.0418814e+2, 2.457147e+2, -545028.1, -653818.5, 2180.6123, 0.0070220307, 0.02054881, -544984.44, -12973.052, 0.0, 5.014283, 4.944282 
6.0418993e+2, 2.5065795e+2, -495885.88, -604551.94, 2059.212, 0.0039978866, 0.006458541, -495846.88, -12277.378, 0.0, 5.0141783, 4.9442763 
6.0419166e+2, 2.556013e+2, -446991.22, -555851.06, 1936.7251, 0.0010928588, -0.007147793, -446956.78, -11829.584, 0.0, 5.01407, 4.9440722 
6.041938e+2, 2.6054177e+2, -407685.53, -528781.1, 2216.966, 0.0014278174, 0.0004936258, -407644.97, -20930.334, 0.0, 5.0139427, 4.936211 
6.0419595e+2, 2.6548404e+2, -356373.7, -473506.44, 3071.1658, -0.0030015386, 0.03087403, -356293.22, -17999.184, 0.0, 5.013531, 4.9382753 
6.041977e+2, 2.7042684e+2, -307786.6, -424434.75, 3958.9197, -0.0097715305, 0.05995859, -307652.4, -17782.947, 0.0, 5.013061, 4.938319 
6.0419923e+2, 2.7536932e+2, -259211.52, -375528.8, 4941.786, -0.016816292, 0.08410888, -259001.95, -17554.13, 0.0, 5.0125804, 4.938315 
6.0420346e+2, 2.8030685e+2, -231328.83, -372475.16, 7322.97, -0.007426954, 0.1513738, -230949.92, -37881.684, 0.0, 5.012326, 4.9221277 
6.042034e+2, 2.8523067e+2, -176254.14, -306740.53, 1229.4127, -0.007785557, 0.12543379, -176242.55, -31449.549, 0.0, 5.0123506, 4.927505 
6.0419977e+2, 2.9015103e+2, -126829.37, -257373.06, -350.42908, -0.02099992, 0.044248737, -126828.42, -30281.291, 0.0, 5.0123024, 4.9274306 
6.0419595e+2, 2.9507095e+2, -77360.516, -208045.92, -1797.581, -0.03289406, -0.042492237, -77335.8, -29029.883, 0.0, 5.0122304, 4.9273562 
6.041922e+2, 3.0001044e+2, -12641.053, -89691.34, -2277.8953, -0.037685085, -0.08627176, -12573.769, -12573.769, 0.0, 5.0121374, 4.9612436 
6.041851e+2, 3.0498615e+2, -7076.5303, -73689.78, -1206.2109, -0.049175534, -0.013512901, -7054.696, -7054.696, 0.0, 5.0117, 4.966754 
6.041763e+2, 3.099657e+2, -7538.057, -71350.055, -128.07256, -0.06799862, 0.0708484, -7537.8003, -7537.8003, 0.0, 5.0111346, 4.967675 
6.041667e+2, 3.1494683e+2, -7881.595, -69129.09, 986.3794, -0.08753772, 0.15947497, -7865.714, -7865.714, 0.0, 5.010542, 4.9685965 
6.0919964e+2, 1.2152822e+2, -1711158.4, -1749009.4, 1773.8313, 0.006847127, 0.011232046, -1711075.5, 37956.98, 0.0, 5.014414, 4.9897475 
6.0919845e+2, 1.2651448e+2, -1667916.0, -1711206.5, -216.78764, -0.0045041903, 0.010753688, -1667914.9, 32251.174, 0.0, 5.0143075, 4.9861293 
6.091985e+2, 1.3150007e+2, -1619286.5, -1662396.1, -198.83014, -0.0012056453, 0.004869841, -1619285.6, 32020.977, 0.0, 5.014187, 4.9861274 
6.091986e+2, 1.3648562e+2, -1572833.9, -1618055.0, -294.38614, 0.002067891, 0.00020461844, -1572832.0, 29615.387, 0.0, 5.0140653, 4.984644 
6.0919833e+2, 1.4146838e+2, -1530956.8, -1583276.4, -26.91519, 0.0030909525, 0.009243389, -1530956.6, 22659.252, 0.0, 5.0139694, 4.9798985 
6.091981e+2, 1.4644846e+2, -1481864.1, -1534051.3, 28.543518, 0.0015044101, 0.007817163, -1481864.1, 22946.508, 0.0, 5.0139494, 4.979962 
6.091979e+2, 1.514285e+2, -1432860.8, -1485020.8, 23.873531, -0.00017939844, 0.006054288, -1432860.8, 23145.025, 0.0, 5.0139303, 4.979961 
6.0919774e+2, 1.5640855e+2, -1385192.6, -1438771.4, -5.94422, -0.0018637056, 0.004754901, -1385192.6, 22008.236, 0.0, 5.013911, 4.979031 
6.091975e+2, 1.6138478e+2, -1344619.1, -1407433.3, -152.99773, -0.003170833, 0.008120589, -1344618.8, 13814.384, 0.0, 5.0139055, 4.9731054 
6.0919714e+2, 1.6635767e+2, -1295352.8, -1358198.1, -177.54442, -0.0035600867, 0.003210748, -1295352.3, 14345.004, 0.0, 5.0139446, 4.973122 
6.0919684e+2, 1.7133054e+2, -1246105.0, -1309011.0, -164.79375, -0.003909974, -0.0017565313, -1246104.6, 14856.758, 0.0, 5.013985, 4.9731226 
6.0919654e+2, 1.7630342e+2, -1197973.4, -1262183.8, -119.01825, -0.004260843, -0.0063330363, -1197973.1, 14252.3125, 0.0, 5.0140257, 4.972331 
6.0919625e+2, 1.8127283e+2, -1157785.4, -1232108.3, 54.74302, -0.005263867, -0.0017088552, -1157785.4, 5738.749, 0.0, 5.0140424, 4.965888 
6.0919607e+2, 1.8623908e+2, -1108638.1, -1182866.5, 168.38951, -0.0073044975, -0.0010831564, -1108637.8, 6217.484, 0.0, 5.0140114, 4.9659157 
6.091959e+2, 1.9120532e+2, -1059534.9, -1133711.6, 216.04013, -0.009389152, -0.00043030878, -1059534.3, 6652.252, 0.0, 5.013978, 4.9659166 
6.0919565e+2, 1.9617157e+2, -1011328.2, -1086483.4, 264.7033, -0.011469969, 0.00053906237, -1011327.25, 6190.3047, 0.0, 5.013944, 4.9652634 
6.0919577e+2, 2.011341e+2, -971187.1, -1056754.9, 437.7668, -0.0119351465, 0.0072224666, -971184.9, -2299.7612, 0.0, 5.013932, 4.958628 
6.0919636e+2, 2.0609255e+2, -921647.8, -1007128.5, 428.2034, -0.007937627, 0.0016387186, -921645.6, -1352.7616, 0.0, 5.0139785, 4.9587264 
6.0919696e+2, 2.1105094e+2, -872235.44, -957791.3, 423.54205, -0.0037124779, -0.0044264803, -872233.4, -532.37366, 0.0, 5.0140276, 4.9587264 
6.0919756e+2, 2.1600935e+2, -823490.9, -909910.8, 418.9326, 0.0005190099, -0.01034499, -823488.9, -379.83765, 0.0, 5.0140767, 4.958227 
6.0919815e+2, 2.2096463e+2, -783058.7, -880263.25, 620.45557, 0.003631666, -0.0047779796, -783054.75, -8506.604, 0.0, 5.01413, 4.9514484 
6.091987e+2, 2.2591728e+2, -733065.56, -829831.3, 756.15106, 0.0036117875, 0.0009954321, -733059.6, -7045.655, 0.0, 5.0141993, 4.951786 
6.091991e+2, 2.3087001e+2, -683519.4, -780394.94, 867.63556, 0.0033893746, 0.007036032, -683511.56, -6032.368, 0.0, 5.0142694, 4.9517875 
6.091995e+2, 2.3582272e+2, -634625.75, -732407.5, 981.2124, 0.0031720845, 0.013025034, -634615.9, -5671.3643, 0.0, 5.014339, 4.9512873 
6.092002e+2, 2.4077156e+2, -594832.3, -704428.25, 1735.1969, 0.0027317975, 0.02632149, -594804.8, -14356.585, 0.0, 5.014359, 4.943844 
6.0920185e+2, 2.4571534e+2, -545229.8, -654120.06, 2101.6636, 0.00054278225, 0.018687947, -545189.25, -13185.985, 0.0, 5.0142617, 4.944183 
6.092036e+2, 2.5065893e+2, -496083.03, -604851.25, 1986.5366, -0.0018212334, 0.008920199, -496046.78, -12486.694, 0.0, 5.0141573, 4.9441767 
6.092052e+2, 2.5560257e+2, -447183.9, -556148.1, 1870.328, -0.0041381977, -0.00035605178, -447151.8, -12035.332, 0.0, 5.01405, 4.943972 
6.0920703e+2, 2.6054338e+2, -407035.34, -527035.1, 2087.3762, -0.0056311423, 0.00892124, -406999.03, -20297.72, 0.0, 5.013904, 4.9368343 
6.0920805e+2, 2.6548553e+2, -355377.78, -470477.06, 2974.6123, -0.019577961, 0.028937247, -355300.94, -17026.098, 0.0, 5.013426, 4.9393744 
6.0920864e+2, 2.7042824e+2, -306958.94, -421292.47, 3952.5254, -0.037000377, 0.046832908, -306822.47, -16979.193, 0.0, 5.012891, 4.9394746 
6.0920894e+2, 2.753708e+2, -258552.11, -372273.34, 5025.4863, -0.05528516, 0.060485765, -258330.45, -16917.014, 0.0, 5.0123463, 4.939528 
6.092119e+2, 2.8030828e+2, -230911.2, -371992.3, 6579.8438, -0.05369844, 0.1173233, -230604.98, -37575.35, 0.0, 5.0123835, 4.9223223 
6.0921246e+2, 2.8523207e+2, -176818.16, -310362.8, 1007.33344, -0.043582607, 0.10085226, -176810.56, -32046.775, 0.0, 5.012638, 4.926247 
6.0920995e+2, 2.901526e+2, -127497.22, -260771.45, -443.41168, -0.044866502, 0.034950305, -127495.74, -30968.709, 0.0, 5.012541, 4.9262457 
6.092072e+2, 2.9507276e+2, -78132.57, -211221.03, -1761.3127, -0.045653492, -0.03657, -78109.266, -29814.87, 0.0, 5.012419, 4.926245 
6.092043e+2, 3.000123e+2, -11685.779, -88136.15, -2528.51, -0.04165505, -0.072044395, -11602.243, -11602.243, 0.0, 5.012253, 4.9618278 
6.09197e+2, 3.049871e+2, -5161.4014, -69142.98, -1509.9885, -0.051808, -0.02011482, -5125.785, -5125.785, 0.0, 5.011707, 4.968528 
6.091878e+2, 3.0996582e+2, -6026.703, -67214.96, -116.22314, -0.07166652, 0.04389554, -6026.4824, -6026.4824, 0.0, 5.0110493, 4.969372 
6.0917777e+2, 3.149463e+2, -6774.5864, -65405.152, 1314.0436, -0.09398557, 0.11580768, -6745.151, -6745.151, 0.0, 5.0103645, 4.9702163 
6.142135e+2, 1.21528365e+2, -1711042.5, -1748750.3, 1715.5192, 0.0012164006, 0.012378552, -1710964.6, 38067.027, 0.0, 5.0144105, 4.9898334 
6.142132e+2, 1.2651472e+2, -1667891.0, -1711139.8, -311.52957, 0.00055934064, 0.012612285, -1667888.8, 32275.56, 0.0, 5.0143056, 4.986151 
6.1421293e+2, 1.3150038e+2, -1619259.8, -1662330.5, -291.54486, 0.00132224, 0.0071213925, -1619257.8, 32046.447, 0.0, 5.0141854, 4.9861493 
6.142126e+2, 1.36486e+2, -1572812.4, -1618004.6, -393.75818, 0.0020362013, 0.0028401641, -1572809.0, 29635.57, 0.0, 5.014065, 4.9846606 
6.142121e+2, 1.4146873e+2, -1530962.6, -1583284.5, -58.5417, 0.0013080174, 0.011702392, -1530962.6, 22650.535, 0.0, 5.013969, 4.9798956 
6.142119e+2, 1.4644869e+2, -1481875.5, -1534070.5, 12.557907, -0.00028039864, 0.009019394, -1481875.5, 22933.432, 0.0, 5.0139484, 4.979955 
6.1421174e+2, 1.5142861e+2, -1432871.8, -1485039.8, 8.660875, -0.0019092086, 0.0059707533, -1432871.8, 23133.2, 0.0, 5.01393, 4.9799547 
6.142115e+2, 1.564085e+2, -1385209.1, -1438801.8, -26.785841, -0.0035439774, 0.0033842651, -1385209.1, 21992.105, 0.0, 5.0139103, 4.9790206 
6.1421126e+2, 1.6138466e+2, -1344608.9, -1407407.9, -132.63626, -0.004714564, 0.0060111675, -1344608.6, 13825.315, 0.0, 5.013905, 4.973114 
6.14211e+2, 1.6635759e+2, -1295332.9, -1358152.1, -148.60545, -0.004835128, 0.0014895864, -1295332.6, 14364.983, 0.0, 5.013944, 4.9731374 
6.1421067e+2, 1.7133054e+2, -1246085.3, -1308964.6, -134.8819, -0.004925669, -0.003054214, -1246085.0, 14876.144, 0.0, 5.0139847, 4.973138 
6.142104e+2, 1.7630346e+2, -1197955.8, -1262141.6, -88.1045, -0.00502986, -0.0072079324, -1197955.6, 14268.991, 0.0, 5.014025, 4.972345 
6.142102e+2, 1.8127295e+2, -1157721.6, -1231965.1, 39.318615, -0.0059527503, -0.0022314729, -1157721.6, 5801.1113, 0.0, 5.0140414, 4.965936 
6.1420995e+2, 1.8623926e+2, -1108559.5, -1182689.8, 142.56824, -0.008209973, -0.0014035098, -1108559.3, 6293.738, 0.0, 5.0140104, 4.9659758 
6.142097e+2, 1.9120558e+2, -1059457.0, -1133535.1, 191.61328, -0.01053568, -0.00055525865, -1059456.5, 6726.875, 0.0, 5.0139766, 4.9659767 
6.142095e+2, 1.9617192e+2, -1011252.06, -1086309.3, 241.98003, -0.0128735695, 0.00060954475, -1011251.25, 6262.3013, 0.0, 5.013943, 4.9653225 
6.1420953e+2, 2.0113452e+2, -971183.8, -1056737.6, 455.9433, -0.013625364, 0.0076081795, -971181.4, -2300.8274, 0.0, 5.013931, 4.9586344 
6.142101e+2, 2.06093e+2, -921661.5, -1007148.3, 465.0612, -0.00992328, 0.002433035, -921659.0, -1370.5828, 0.0, 5.0139775, 4.9587197 
6.142107e+2, 2.1105143e+2, -872249.06, -957810.94, 462.2185, -0.006015138, -0.0032346766, -872246.56, -549.89636, 0.0, 5.0140266, 4.9587197 
6.1421144e+2, 2.1600989e+2, -823504.4, -909930.25, 459.42163, -0.002121668, -0.008754504, -823501.94, -397.07904, 0.0, 5.0140753, 4.9582205 
6.1421204e+2, 2.2096516e+2, -782940.94, -879983.0, 668.9716, 0.00049348036, -0.0033947623, -782936.3, -8392.387, 0.0, 5.0141273, 4.9515452 
6.1421245e+2, 2.2591776e+2, -732896.44, -829422.75, 816.821, -0.00052816066, 0.00038988737, -732889.56, -6880.4487, 0.0, 5.0141945, 4.9519277 
6.142129e+2, 2.3087041e+2, -683354.4, -779984.44, 932.608, -0.0018341948, 0.004327691, -683345.4, -5871.744, 0.0, 5.0142636, 4.9519305 
6.142132e+2, 2.3582307e+2, -634464.8, -731994.94, 1050.482, -0.00317868, 0.008218936, -634453.5, -5515.301, 0.0, 5.014332, 4.9514313 
6.1421394e+2, 2.4077192e+2, -594930.44, -704514.75, 1704.2285, -0.0043761507, 0.020907013, -594903.94, -14462.873, 0.0, 5.014342, 4.943817 
6.142155e+2, 2.45716e+2, -545436.3, -654417.06, 2022.1979, -0.005938403, 0.017185774, -545398.75, -13403.944, 0.0, 5.01424, 4.9440827 
6.1421716e+2, 2.506599e+2, -496285.06, -605145.94, 1913.3452, -0.0076253656, 0.011645592, -496251.44, -12700.998, 0.0, 5.014137, 4.9440765 
6.1421883e+2, 2.556039e+2, -447381.44, -556440.56, 1803.4152, -0.009337341, 0.006604478, -447351.63, -12246.03, 0.0, 5.0140305, 4.9438715 
6.142203e+2, 2.6054487e+2, -406487.47, -525488.44, 1900.7286, -0.012284291, 0.016901486, -406457.13, -19768.287, 0.0, 5.013865, 4.9373755 
6.1422014e+2, 2.6548684e+2, -354399.34, -467435.9, 2789.1035, -0.03601146, 0.024753598, -354330.6, -16073.123, 0.0, 5.01332, 4.9404483 
6.1421937e+2, 2.7042946e+2, -306148.47, -418138.28, 3857.0808, -0.06460435, 0.02969662, -306015.78, -16196.372, 0.0, 5.0127206, 4.940606 
6.1421824e+2, 2.75372e+2, -257909.63, -369005.8, 5020.037, -0.0946472, 0.031088503, -257683.25, -16301.289, 0.0, 5.0121117, 4.940716 
6.142204e+2, 2.8030983e+2, -231537.31, -373900.8, 6239.337, -0.099243276, 0.08496765, -231264.39, -38273.93, 0.0, 5.0124407, 4.9216704 
6.142219e+2, 2.8523374e+2, -177421.03, -313951.06, 649.7637, -0.07785224, 0.08251743, -177417.94, -32686.154, 0.0, 5.0129256, 4.924962 
6.142204e+2, 2.9015437e+2, -128203.71, -264135.28, -671.7868, -0.068044685, 0.029091585, -128200.39, -31695.1, 0.0, 5.012779, 4.9250345 
6.142187e+2, 2.9507458e+2, -78943.05, -214361.06, -1860.3514, -0.0585638, -0.030015381, -78917.49, -30635.133, 0.0, 5.012608, 4.925107 
6.142166e+2, 3.0001396e+2, -11241.743, -87656.47, -2798.9365, -0.045277655, -0.058864985, -11139.36, -11139.36, 0.0, 5.0123687, 4.9619904 
6.1420923e+2, 3.0498752e+2, -3288.8826, -64558.758, -1724.7338, -0.050991707, -0.03311742, -3240.37, -3240.37, 0.0, 5.0117135, 4.970226 
6.141997e+2, 3.0996504e+2, -4557.852, -63041.61, -15.575772, -0.069034584, 0.0022411768, -4557.848, -4557.848, 0.0, 5.010964, 4.970993 
6.1418927e+2, 3.1494457e+2, -5710.1025, -61642.14, 1730.3501, -0.0912825, 0.04913511, -5656.6226, -5656.6226, 0.0, 5.0101876, 4.9717607 
6.192273e+2, 1.2152838e+2, -1711932.1, -1748849.6, 1519.1075, -0.0040378035, 0.012643383, -1711869.8, 37162.395, 0.0, 5.0140433, 4.989981 
6.19228e+2, 1.2651493e+2, -1668817.0, -1711555.1, -538.00256, 0.0057107485, 0.014446787, -1668810.3, 31352.621, 0.0, 5.0139894, 4.98617 
6.1922735e+2, 1.3150063e+2, -1619972.4, -1662636.8, -527.9784, 0.0038496167, 0.0092846425, -1619965.8, 31336.545, 0.0, 5.0139394, 4.9861684 
6.1922663e+2, 1.364863e+2, -1573340.8, -1618227.6, -645.6668, 0.0019447324, 0.0053379405, -1573331.4, 29110.705, 0.0, 5.0138817, 4.9846754 
6.192259e+2, 1.4146903e+2, -1531406.9, -1583516.1, -251.33633, -0.0005604518, 0.014035537, -1531405.6, 22205.12, 0.0, 5.013824, 4.9798894 
6.192256e+2, 1.4644885e+2, -1482335.9, -1534309.8, -165.00687, -0.0021169947, 0.010137477, -1482335.4, 22472.139, 0.0, 5.0137978, 4.9799485 
6.1922544e+2, 1.5142865e+2, -1433359.0, -1485290.9, -167.61673, -0.0036433556, 0.0058427495, -1433358.4, 22646.197, 0.0, 5.013769, 4.979948 
6.192252e+2, 1.5640843e+2, -1385736.5, -1439081.8, -208.10597, -0.005171068, 0.0020123806, -1385735.6, 21466.156, 0.0, 5.013738, 4.9790096 
6.1922497e+2, 1.6138451e+2, -1345151.5, -1407663.1, -275.81277, -0.0061622476, 0.0039751944, -1345150.3, 13284.928, 0.0, 5.0137205, 4.9731164 
6.192248e+2, 1.6635749e+2, -1295893.4, -1358396.9, -302.9868, -0.0060238712, -0.00013618755, -1295891.9, 13806.356, 0.0, 5.0137496, 4.973148 
6.192246e+2, 1.7133048e+2, -1246686.0, -1309228.0, -310.3304, -0.005848817, -0.0042423606, -1246684.4, 14276.909, 0.0, 5.013776, 4.9731483 
6.1922437e+2, 1.7630346e+2, -1198610.6, -1262433.6, -285.60394, -0.005680658, -0.007954166, -1198609.4, 13614.96, 0.0, 5.0137978, 4.9723535 
6.192242e+2, 1.8127301e+2, -1158361.5, -1232174.3, -219.56969, -0.006484296, -0.0026046566, -1158360.9, 5160.9775, 0.0, 5.013803, 4.965978 
6.192239e+2, 1.8623939e+2, -1109139.4, -1182834.3, -138.03758, -0.008943957, -0.0016806204, -1109139.1, 5712.29, 0.0, 5.013785, 4.9660325 
6.192236e+2, 1.9120578e+2, -1060007.5, -1133665.0, -101.612526, -0.0114808725, -0.0007597514, -1060007.3, 6173.6724, 0.0, 5.013761, 4.966033 
6.1922336e+2, 1.9617218e+2, -1011787.1, -1086432.9, -64.42014, -0.014025933, 0.00047907647, -1011787.06, 5723.4014, 0.0, 5.013733, 4.9653783 
6.1922336e+2, 2.0113485e+2, -971803.3, -1057022.5, 184.67134, -0.015041198, 0.0077995267, -971802.9, -2926.0313, 0.0, 5.013716, 4.958637 
6.1922395e+2, 2.0609337e+2, -922355.5, -1007479.75, 226.64296, -0.011709057, 0.0031214692, -922354.9, -2070.1758, 0.0, 5.0137386, 4.9587164 
6.1922455e+2, 2.1105185e+2, -873026.7, -958179.1, 241.03014, -0.008169779, -0.0020884685, -873026.0, -1333.0696, 0.0, 5.0137577, 4.958717 
6.192252e+2, 2.1601035e+2, -824380.4, -910341.5, 256.2128, -0.0046377415, -0.0071544317, -824379.6, -1278.4304, 0.0, 5.0137715, 4.958218 
6.1922586e+2, 2.2096565e+2, -783808.56, -880201.3, 474.01605, -0.0024824108, -0.0019156727, -783806.25, -9266.11, 0.0, 5.013788, 4.951625 
6.192262e+2, 2.2591816e+2, -733793.44, -829552.25, 572.2048, -0.004396257, -0.000121616475, -733790.0, -7785.147, 0.0, 5.013824, 4.952051 
6.1922663e+2, 2.3087072e+2, -684366.2, -780166.9, 619.55865, -0.006620806, 0.0016742396, -684362.2, -6893.2734, 0.0, 5.013852, 4.9520535 
6.19227e+2, 2.3582329e+2, -635618.9, -732241.94, 664.59735, -0.008868211, 0.0034205113, -635614.3, -6681.2383, 0.0, 5.0138702, 4.951554 
6.192276e+2, 2.4077217e+2, -596495.44, -705352.44, 1154.828, -0.010592745, 0.01575201, -596483.2, -16048.115, 0.0, 5.013816, 4.9437637 
6.1922914e+2, 2.4571654e+2, -547343.44, -655513.25, 1451.299, -0.011445643, 0.015831677, -547324.0, -15336.352, 0.0, 5.0136137, 4.9439826 
6.1923075e+2, 2.5066078e+2, -498501.78, -606376.8, 1370.7499, -0.012319159, 0.014172126, -498484.38, -14942.246, 0.0, 5.0134, 4.943977 
6.1923236e+2, 2.55605e+2, -449925.0, -557811.8, 1291.1273, -0.013214979, 0.012986101, -449909.53, -14813.311, 0.0, 5.0131774, 4.943773 
6.1923367e+2, 2.6054606e+2, -408909.13, -525801.0, 1115.2979, -0.016708918, 0.023776937, -408898.5, -22219.463, 0.0, 5.0128617, 4.9377046 
6.1923224e+2, 2.6548758e+2, -357363.9, -467077.06, 1064.4656, -0.047921546, 0.01899342, -357353.6, -19107.967, 0.0, 5.0119424, 4.9411654 
6.1923015e+2, 2.7042967e+2, -310733.38, -418598.06, 976.79193, -0.084536925, 0.0100956485, -310724.53, -20919.113, 0.0, 5.010786, 4.941283 
6.192278e+2, 2.7537164e+2, -264575.72, -370467.06, 724.47205, -0.12228239, -0.0022469452, -264570.78, -23204.563, 0.0, 5.009455, 4.9413533 
6.192296e+2, 2.803095e+2, -242457.73, -381760.63, 1291.6626, -0.12845376, 0.05391406, -242445.75, -49476.324, 0.0, 5.0091558, 4.9203176 
6.1923206e+2, 2.8523412e+2, -185599.67, -319531.25, -3429.2502, -0.09948682, 0.06843722, -185511.94, -40799.22, 0.0, 5.01041, 4.923997 
6.192314e+2, 2.901551e+2, -134147.55, -268815.16, -3709.9207, -0.08337461, 0.025321264, -134045.42, -37552.49, 0.0, 5.0110617, 4.9240437 
6.1923045e+2, 2.9507577e+2, -83291.28, -218412.02, -4117.628, -0.06728938, -0.022773033, -83165.92, -34889.46, 0.0, 5.0114703, 4.9240904 
6.1922926e+2, 3.00015e+2, -13771.42, -89553.414, -4858.3564, -0.04599776, -0.044673886, -13461.222, -13461.222, 0.0, 5.0116158, 4.961581 
6.192219e+2, 3.0498677e+2, -3570.189, -61977.54, -4819.43, -0.043065853, -0.04997152, -3175.1892, -3175.1892, 0.0, 5.011088, 4.971333 
6.192123e+2, 3.09962e+2, -5765.8735, -61066.92, -4003.7637, -0.05228945, -0.056613564, -5477.507, -5477.507, 0.0, 5.0100365, 4.972004 
6.1920196e+2, 3.1493884e+2, -9031.162, -60734.582, -2944.9468, -0.06479548, -0.054188263, -8863.964, -8863.964, 0.0, 5.0085363, 4.972675 
6.242414e+2, 1.215284e+2, -1712033.0, -1748993.0, 1468.427, -0.0027058732, 0.013001198, -1711974.8, 37056.684, 0.0, 5.0140243, 4.989946 
6.242425e+2, 1.2651494e+2, -1668708.8, -1711491.9, -260.99774, 0.011398216, 0.014741268, -1668707.1, 31455.121, 0.0, 5.0140195, 4.9861774 
6.2424153e+2, 1.3150068e+2, -1619587.6, -1662429.1, -252.62665, 0.0061073215, 0.00967616, -1619586.1, 31715.61, 0.0, 5.014061, 4.986178 
6.2424046e+2, 1.3648638e+2, -1572666.0, -1617879.6, -380.80847, 0.00081443845, 0.005854644, -1572662.9, 29778.535, 0.0, 5.0141015, 4.9846835 
6.2423944e+2, 1.4146909e+2, -1530529.8, -1583070.4, -7.351825, -0.0037624834, 0.014408356, -1530529.8, 23080.44, 0.0, 5.014113, 4.9798965 
6.2423927e+2, 1.4644885e+2, -1481541.8, -1533918.6, 77.79727, -0.004860585, 0.00993377, -1481541.6, 23265.508, 0.0, 5.0140624, 4.9799504 
6.242391e+2, 1.514286e+2, -1432642.6, -1484938.4, 82.728874, -0.005835404, 0.0050713583, -1432642.5, 23362.08, 0.0, 5.0140085, 4.97995 
6.242389e+2, 1.5640831e+2, -1385098.5, -1438780.6, 43.771553, -0.006796848, 0.0006816625, -1385098.5, 22103.54, 0.0, 5.0139546, 4.9790063 
6.2423867e+2, 1.6138436e+2, -1344630.4, -1407477.1, 11.963282, -0.0072685755, 0.0025068065, -1344630.4, 13805.248, 0.0, 5.0139103, 4.973088 
6.242385e+2, 1.663574e+2, -1295503.0, -1358299.5, -41.287243, -0.0067697484, -0.00082612835, -1295503.0, 14195.644, 0.0, 5.0139003, 4.9731083 
6.242384e+2, 1.713304e+2, -1246401.0, -1309183.4, -82.14179, -0.006213418, -0.004105941, -1246400.9, 14560.783, 0.0, 5.013891, 4.9731083 
6.2423813e+2, 1.7630345e+2, -1198421.9, -1262442.5, -91.38138, -0.005636868, -0.0069805384, -1198421.8, 13802.955, 0.0, 5.0138817, 4.972311 
6.2423795e+2, 1.81273e+2, -1158145.5, -1232034.0, -56.893745, -0.0060967384, -0.0014120574, -1158145.5, 5376.8745, 0.0, 5.013868, 4.9659953 
6.2423766e+2, 1.8623929e+2, -1108874.4, -1182635.6, 10.24659, -0.008404892, -0.0016364105, -1108874.4, 5978.1196, 0.0, 5.0138593, 4.9660654 
6.242374e+2, 1.9120559e+2, -1059700.4, -1133448.3, 33.239185, -0.010779038, -0.0019040193, -1059700.4, 6482.2085, 0.0, 5.01385, 4.9660654 
6.242371e+2, 1.9617191e+2, -1011426.75, -1086194.8, 58.42179, -0.013138739, -0.0018478673, -1011426.7, 6085.975, 0.0, 5.0138407, 4.9654098 
6.2423706e+2, 2.0113455e+2, -971428.3, -1056743.5, 312.52432, -0.014344735, 0.004966448, -971427.2, -2548.1902, 0.0, 5.013822, 4.9586835 
6.2423754e+2, 2.0609328e+2, -922153.4, -1007277.0, 394.05634, -0.01212254, 0.0017277034, -922151.56, -1866.5116, 0.0, 5.013784, 4.9587655 
6.242381e+2, 2.1105197e+2, -872993.7, -958054.2, 445.93005, -0.009701617, -0.0019237738, -872991.4, -1299.9794, 0.0, 5.0137444, 4.9587665 
6.242386e+2, 2.1601065e+2, -824500.25, -910286.6, 497.58282, -0.007251024, -0.0054373466, -824497.4, -1399.6757, 0.0, 5.0137043, 4.958268 
6.2423915e+2, 2.2096607e+2, -784118.6, -880308.8, 738.39307, -0.0057854457, 0.0004198816, -784113.0, -9577.384, 0.0, 5.013668, 4.951644 
6.2423956e+2, 2.2591838e+2, -734329.94, -829835.75, 768.9557, -0.0072810953, 0.0004164731, -734323.75, -8322.039, 0.0, 5.013637, 4.9520416 
6.2424e+2, 2.3087074e+2, -685071.6, -780534.94, 739.08466, -0.008943809, 0.00029867518, -685065.94, -7598.551, 0.0, 5.013605, 4.9520416 
6.242404e+2, 2.358231e+2, -636463.94, -732681.44, 711.2777, -0.010555581, 0.00012897339, -636458.6, -7525.568, 0.0, 5.0135727, 4.95154 
6.2424105e+2, 2.4077183e+2, -597453.25, -705749.8, 1019.3317, -0.011786188, 0.011013178, -597443.7, -17007.615, 0.0, 5.0134487, 4.9437985 
6.2424225e+2, 2.4571638e+2, -548889.25, -656179.7, 1325.5027, -0.012655246, 0.012532069, -548872.9, -16886.188, 0.0, 5.013032, 4.944021 
6.242435e+2, 2.5066084e+2, -500679.3, -607325.2, 1372.535, -0.013481681, 0.01268205, -500661.66, -17122.719, 0.0, 5.0125895, 4.944017 
6.242447e+2, 2.556053e+2, -452710.94, -559030.06, 1418.4199, -0.014237195, 0.013267928, -452692.0, -17601.225, 0.0, 5.012144, 4.9438143 
6.242455e+2, 2.6054645e+2, -411964.25, -527123.9, 1339.1174, -0.017869426, 0.024346992, -411948.66, -25276.992, 0.0, 5.0117016, 4.9377794 
6.242437e+2, 2.6548725e+2, -359865.03, -468780.6, 1283.7297, -0.048078403, 0.013710696, -359849.9, -21608.742, 0.0, 5.011026, 4.941036 
6.242411e+2, 2.7042836e+2, -312066.88, -420183.34, 1451.0751, -0.08251858, -0.0022226586, -312047.4, -22241.018, 0.0, 5.0102925, 4.9410353 
6.242384e+2, 2.7536914e+2, -264281.6, -371739.38, 1714.0747, -0.11717471, -0.022152463, -264254.25, -22879.84, 0.0, 5.0095463, 4.940987 
6.242394e+2, 2.8030583e+2, -241631.84, -381394.88, 3612.2761, -0.12323579, 0.025319912, -241538.55, -48552.074, 0.0, 5.009337, 4.9203033 
6.2424195e+2, 2.8523123e+2, -187595.72, -320712.3, -883.76605, -0.096238956, 0.048427697, -187589.86, -42861.945, 0.0, 5.009749, 4.9237165 
6.2424195e+2, 2.9015338e+2, -137471.22, -271014.97, -2034.5583, -0.07908584, 0.020068299, -137440.23, -40936.836, 0.0, 5.009954, 4.923647 
6.242417e+2, 2.950752e+2, -87315.74, -221355.72, -3062.4314, -0.060869627, -0.012143977, -87245.81, -38963.57, 0.0, 5.0101295, 4.9235773 
6.242412e+2, 3.0001518e+2, -16710.379, -91391.44, -4139.5244, -0.037227176, -0.023275344, -16481.629, -16481.629, 0.0, 5.010439, 4.9614253 
6.242349e+2, 3.049851e+2, -2785.589, -62522.08, -4715.7417, -0.027934095, -0.046259873, -2415.6086, -2415.6086, 0.0, 5.0112076, 4.971121 
6.2422675e+2, 3.0995753e+2, 74.22775, -59636.664, -4724.008, -0.026703386, -0.08001776, 445.65567, 445.65567, 0.0, 5.0119534, 4.9717236 
6.242178e+2, 3.1493092e+2, 3011.4324, -56830.52, -4677.035, -0.02599536, -0.11206729, 3374.767, 3374.767, 0.0, 5.012665, 4.9723268 
6.2925565e+2, 1.2152857e+2, -1712089.3, -1749085.9, 1056.3552, 0.000085466985, 0.012593686, -1712059.1, 36969.73, 0.0, 5.014021, 4.9899163 
6.292571e+2, 1.2651515e+2, -1668694.8, -1711450.8, -233.70578, 0.017043194, 0.014508575, -1668693.5, 31466.154, 0.0, 5.0140176, 4.9861913 
6.292557e+2, 1.3150088e+2, -1619572.6, -1662389.4, -223.38203, 0.008172011, 0.009512555, -1619571.5, 31727.598, 0.0, 5.0140595, 4.9861917 
6.292544e+2, 1.364866e+2, -1572655.8, -1617852.6, -353.8131, -0.000722139, 0.005757062, -1572652.9, 29785.803, 0.0, 5.014101, 4.9846926 
6.292532e+2, 1.4146931e+2, -1530515.9, -1583036.9, -33.428886, -0.00747669, 0.014178369, -1530515.9, 23091.688, 0.0, 5.014112, 4.9799075 
6.29253e+2, 1.4644904e+2, -1481534.6, -1533898.8, 35.346943, -0.007990916, 0.009325123, -1481534.6, 23270.047, 0.0, 5.0140615, 4.9799576 
6.292528e+2, 1.5142876e+2, -1432635.5, -1484918.4, 41.02076, -0.00830363, 0.0040907287, -1432635.5, 23366.605, 0.0, 5.014008, 4.979957 
6.292526e+2, 1.5640844e+2, -1385100.5, -1438779.3, -2.9886258, -0.008609685, -0.0006713885, -1385100.5, 22099.113, 0.0, 5.0139537, 4.979007 
6.2925243e+2, 1.6138448e+2, -1344687.5, -1407591.4, -2.5513937, -0.008482146, 0.0011898063, -1344687.5, 13745.713, 0.0, 5.0139093, 4.9730496 
6.292523e+2, 1.6635755e+2, -1295578.4, -1358453.3, -50.55748, -0.007547042, -0.0012301836, -1295578.4, 14118.102, 0.0, 5.0138993, 4.973057 
6.292522e+2, 1.7133063e+2, -1246475.5, -1309336.4, -90.45453, -0.006573769, -0.0035649044, -1246475.4, 14484.18, 0.0, 5.0138903, 4.9730573 
6.292521e+2, 1.7630371e+2, -1198499.8, -1262603.5, -100.78925, -0.0055945544, -0.005497111, -1198499.6, 13723.1, 0.0, 5.013881, 4.9722567 
6.292519e+2, 1.8127324e+2, -1158134.0, -1232002.5, -67.31146, -0.0056819837, 0.00026682936, -1158134.0, 5386.695, 0.0, 5.013867, 4.966006 
6.2925166e+2, 1.862394e+2, -1108837.9, -1182548.9, 2.4613414, -0.0076898625, -0.0014687089, -1108837.9, 6013.845, 0.0, 5.013858, 4.966095 
6.2925136e+2, 1.9120558e+2, -1059664.4, -1133361.0, 26.987291, -0.0097887935, -0.0033127796, -1059664.4, 6518.293, 0.0, 5.013849, 4.9660954 
6.292511e+2, 1.9617178e+2, -1011392.3, -1086109.3, 54.236553, -0.011892038, -0.00483417, -1011392.25, 6121.428, 0.0, 5.0138392, 4.965439 
6.2925106e+2, 2.0113438e+2, -971352.8, -1056570.0, 285.70804, -0.013309045, 0.001264177, -971351.9, -2471.851, 0.0, 5.01382, 4.958743 
6.2925136e+2, 2.0609334e+2, -922066.75, -1007081.06, 363.12933, -0.012385742, -0.00025590791, -922065.2, -1781.4962, 0.0, 5.013783, 4.9588327 
6.2925166e+2, 2.1105228e+2, -872907.25, -957859.1, 416.99588, -0.011338003, -0.0020430651, -872905.2, -1217.6967, 0.0, 5.0137434, 4.9588337 
6.29252e+2, 2.1601123e+2, -824414.06, -910092.44, 470.6388, -0.010283476, -0.0036929129, -824411.5, -1320.1273, 0.0, 5.0137033, 4.958335 
6.292524e+2, 2.2096677e+2, -784125.1, -880306.7, 713.70154, -0.00966568, 0.0030463256, -784119.8, -9592.003, 0.0, 5.0136657, 4.951646 
6.292529e+2, 2.2591887e+2, -734389.9, -829937.94, 751.67035, -0.010358662, 0.0012463896, -734384.0, -8388.123, 0.0, 5.013633, 4.9520082 
6.2925345e+2, 2.30871e+2, -685134.8, -780634.25, 726.3941, -0.011150858, -0.0007989041, -685129.25, -7665.7144, 0.0, 5.0135994, 4.9520097 
6.292539e+2, 2.3582312e+2, -636530.25, -732777.94, 703.1859, -0.011933035, -0.0028874055, -636525.1, -7593.8413, 0.0, 5.013565, 4.9515095 
6.2925446e+2, 2.4077173e+2, -597421.6, -705555.56, 806.60046, -0.0126962345, 0.0065118885, -597415.56, -16980.19, 0.0, 5.013431, 4.943871 
6.292552e+2, 2.4571648e+2, -548826.7, -655888.9, 986.3807, -0.0140641015, 0.008997306, -548817.56, -16834.18, 0.0, 5.01301, 4.944129 
6.292559e+2, 2.5066113e+2, -500614.53, -607035.25, 1039.0923, -0.015494676, 0.010461758, -500604.4, -17071.785, 0.0, 5.0125685, 4.9441237 
6.292566e+2, 2.5560588e+2, -452643.97, -558741.0, 1090.673, -0.016907386, 0.01238254, -452632.78, -17551.34, 0.0, 5.012124, 4.9439206 
6.292569e+2, 2.6054713e+2, -411846.56, -526570.44, 1012.69244, -0.021482656, 0.02318907, -411837.63, -25177.79, 0.0, 5.01166, 4.9379873 
6.292545e+2, 2.6548746e+2, -359992.44, -468279.25, 1020.88605, -0.052475095, 0.006382526, -359982.8, -21752.068, 0.0, 5.010916, 4.9412494 
6.292514e+2, 2.7042812e+2, -312347.6, -419545.66, 1272.5021, -0.08827753, -0.015674466, -312332.47, -22535.633, 0.0, 5.0101185, 4.9413095 
6.29248e+2, 2.7536863e+2, -264715.7, -370965.22, 1619.8173, -0.12506287, -0.04107073, -264691.0, -23326.469, 0.0, 5.0093083, 4.941322 
6.292484e+2, 2.8030503e+2, -241562.19, -381585.03, 3483.05, -0.13554965, 0.00064936874, -241475.6, -48497.99, 0.0, 5.0093784, 4.9202657 
6.2925136e+2, 2.852306e+2, -187691.28, -323046.13, -790.6108, -0.10454812, 0.03287456, -187686.66, -42965.13, 0.0, 5.010016, 4.922919 
6.292521e+2, 2.9015326e+2, -137654.81, -273130.22, -1821.1895, -0.080740705, 0.018264042, -137630.33, -41132.55, 0.0, 5.0101776, 4.9229193 
6.2925255e+2, 2.950756e+2, -87587.81, -223253.0, -2728.7832, -0.0568371, -0.00037324967, -87532.945, -39256.0, 0.0, 5.0103097, 4.9229198 
6.292527e+2, 3.0001587e+2, -16353.251, -91137.83, -3578.7034, -0.029345728, -0.0034363205, -16182.388, -16182.388, 0.0, 5.0105457, 4.9615335 
6.2924784e+2, 3.0498448e+2, -2737.7744, -62168.996, -3822.6514, -0.015617296, -0.039693777, -2492.908, -2492.908, 0.0, 5.0111938, 4.971344 
6.2924117e+2, 3.0995548e+2, -289.71686, -59637.25, -3579.4343, -0.010870548, -0.08520628, -74.60972, -74.60972, 0.0, 5.0118384, 4.9718885 
6.2923366e+2, 3.1492764e+2, 2236.1323, -57184.418, -3281.0413, -0.00888216, -0.12550494, 2416.7534, 2416.7534, 0.0, 5.012449, 4.9724326 
6.3427e+2, 1.21528625e+2, -1712024.6, -1748931.5, 647.4744, 0.0026176104, 0.01115902, -1712013.3, 37014.24, 0.0, 5.0140176, 4.9899673 
6.342717e+2, 1.2651534e+2, -1668681.4, -1711409.1, -205.6025, 0.022680273, 0.014347293, -1668680.5, 31476.58, 0.0, 5.0140157, 4.986205 
6.3427e+2, 1.315011e+2, -1619558.3, -1662349.1, -193.32623, 0.010236187, 0.009393131, -1619557.4, 31738.988, 0.0, 5.014058, 4.986205 
6.3426834e+2, 1.3648683e+2, -1572646.1, -1617825.3, -325.93195, -0.002251664, 0.005676494, -1572643.8, 29792.344, 0.0, 5.0141, 4.9847016 
6.34267e+2, 1.4146954e+2, -1530507.5, -1583013.8, -59.8959, -0.011189137, 0.013971048, -1530507.4, 23097.537, 0.0, 5.0141115, 4.9799156 
6.3426673e+2, 1.4644925e+2, -1481527.6, -1533878.8, -7.1218038, -0.011120833, 0.008733277, -1481527.6, 23274.396, 0.0, 5.014061, 4.9799643 
6.342666e+2, 1.5142892e+2, -1432628.6, -1484898.4, -0.70576775, -0.010770751, 0.003114208, -1432628.6, 23370.941, 0.0, 5.014007, 4.979964 
6.3426644e+2, 1.5640858e+2, -1385102.8, -1438778.1, -49.745975, -0.010420705, -0.0020330236, -1385102.8, 22094.393, 0.0, 5.0139527, 4.9790072 
6.3426626e+2, 1.613846e+2, -1344748.8, -1407713.6, -17.139584, -0.009691677, -0.000110512105, -1344748.8, 13682.107, 0.0, 5.0139084, 4.9730086 
6.3426614e+2, 1.6635771e+2, -1295654.0, -1358606.8, -59.84236, -0.008320121, -0.001619063, -1295654.0, 14040.228, 0.0, 5.013899, 4.9730053 
6.342661e+2, 1.7133084e+2, -1246550.3, -1309489.1, -98.7819, -0.006930532, -0.0030215005, -1246550.1, 14407.249, 0.0, 5.01389, 4.973006 
6.3426596e+2, 1.7630395e+2, -1198578.0, -1262764.8, -110.38896, -0.005549301, -0.0040241233, -1198577.9, 13642.745, 0.0, 5.0138807, 4.9722023 
6.342658e+2, 1.8127348e+2, -1158128.0, -1231981.8, -78.42454, -0.005262637, 0.0019716062, -1158127.9, 5391.086, 0.0, 5.013866, 4.966013 
6.3426554e+2, 1.8623951e+2, -1108801.8, -1182461.8, -5.669957, -0.006972085, -0.0012805548, -1108801.8, 6049.1045, 0.0, 5.0138564, 4.9661245 
6.342653e+2, 1.9120556e+2, -1059628.9, -1133273.5, 20.389336, -0.008798568, -0.004724156, -1059628.9, 6553.9204, 0.0, 5.0138474, 4.966125 
6.3426507e+2, 1.9617161e+2, -1011358.25, -1086023.4, 49.771057, -0.01064812, -0.00784616, -1011358.2, 6156.4473, 0.0, 5.013838, 4.9654684 
6.3426495e+2, 2.0113422e+2, -971286.2, -1056414.8, 258.93997, -0.012276703, -0.002390032, -971285.4, -2404.3708, 0.0, 5.0138187, 4.958796 
6.3426507e+2, 2.060934e+2, -921980.6, -1006884.75, 332.44202, -0.012652097, -0.0021861151, -921979.3, -1697.0215, 0.0, 5.0137815, 4.9588995 
6.3426524e+2, 2.110526e+2, -872821.4, -957663.7, 388.30127, -0.012977927, -0.002142958, -872819.56, -1135.9425, 0.0, 5.013742, 4.9589005 
6.342654e+2, 2.1601179e+2, -824328.4, -909897.9, 443.93427, -0.013319849, -0.001963086, -824326.06, -1241.0951, 0.0, 5.0137024, 4.9584017 
6.3426566e+2, 2.2096747e+2, -784147.44, -880337.44, 686.42993, -0.01353055, 0.005703578, -784142.56, -9622.469, 0.0, 5.0136633, 4.9516354 
6.3426626e+2, 2.2591935e+2, -734451.06, -830039.2, 732.5077, -0.013420014, 0.002067449, -734445.44, -8455.427, 0.0, 5.0136285, 4.951974 
6.3426685e+2, 2.3087126e+2, -685199.1, -780732.6, 711.8262, -0.013349898, -0.0019891353, -685193.8, -7734.0635, 0.0, 5.0135937, 4.951977 
6.342674e+2, 2.3582315e+2, -636597.9, -732873.44, 693.2166, -0.013310688, -0.0060802298, -636592.9, -7663.266, 0.0, 5.013558, 4.9514775 
6.342678e+2, 2.4077164e+2, -597424.3, -705429.56, 579.7582, -0.013609302, 0.0022155226, -597421.2, -16986.656, 0.0, 5.0134134, 4.9439187 
6.3426805e+2, 2.4571659e+2, -548768.7, -655593.7, 647.0081, -0.01547033, 0.0058201323, -548764.75, -16784.957, 0.0, 5.0129876, 4.944236 
6.342683e+2, 2.506615e+2, -500554.38, -606740.9, 705.3988, -0.017498167, 0.008503585, -500549.7, -17023.645, 0.0, 5.0125475, 4.94423 
6.342685e+2, 2.5560644e+2, -452581.63, -558447.5, 762.67505, -0.0195612, 0.0116638, -452576.16, -17504.262, 0.0, 5.012104, 4.944026 
6.342683e+2, 2.6054773e+2, -411835.53, -526220.25, 625.48883, -0.02466697, 0.021704273, -411832.13, -25183.373, 0.0, 5.0116186, 4.9381127 
6.3426524e+2, 2.6548752e+2, -360140.38, -467760.75, 664.9258, -0.0567715, -0.0027126656, -360136.25, -21914.38, 0.0, 5.0108066, 4.9414415 
6.342615e+2, 2.704277e+2, -312648.66, -418890.53, 1000.73395, -0.09455764, -0.032325, -312639.22, -22849.916, 0.0, 5.0099444, 4.9415627 
6.3425744e+2, 2.7536783e+2, -265170.0, -370173.4, 1432.2832, -0.13409364, -0.0646193, -265150.47, -23793.354, 0.0, 5.00907, 4.941636 
6.342574e+2, 2.803042e+2, -242299.55, -383615.03, 3718.2903, -0.14714053, -0.022890192, -242201.77, -49233.33, 0.0, 5.009421, 4.9195766 
6.3426113e+2, 2.852302e+2, -187833.8, -325336.03, -828.9949, -0.111033514, 0.021855736, -187828.8, -43115.566, 0.0, 5.0102825, 4.922099 
6.342625e+2, 2.901532e+2, -137885.16, -275201.2, -1739.2706, -0.08137876, 0.01865207, -137863.13, -41371.867, 0.0, 5.0104012, 4.9221697 
6.3426363e+2, 2.9507595e+2, -87906.44, -225105.73, -2526.5051, -0.052594837, 0.011247574, -87859.93, -39588.164, 0.0, 5.01049, 4.9222403 
6.3426447e+2, 3.0001643e+2, -16414.033, -91707.35, -3060.6523, -0.020709353, 0.015588889, -16289.823, -16289.823, 0.0, 5.0106525, 4.9613147 
6.3426113e+2, 3.049835e+2, -2743.115, -61763.67, -2867.7158, 0.00031548907, -0.036843758, -2604.1047, -2604.1047, 0.0, 5.0111804, 4.971517 
6.342559e+2, 3.0995286e+2, -706.86786, -59585.742, -2372.8894, 0.011071694, -0.099869564, -611.3924, -611.3924, 0.0, 5.011724, 4.9720025 
6.342498e+2, 3.1492358e+2, 1407.4814, -57486.395, -1822.8938, 0.016834108, -0.15417759, 1463.85, 1463.85, 0.0, 5.0122333, 4.9724884 
6.392842e+2, 1.21528514e+2, -1712715.0, -1749008.5, 78.08319, 0.0049202386, 0.008631063, -1712714.8, 36312.883, 0.0, 5.0137343, 4.990081 
6.392862e+2, 1.2651546e+2, -1669438.4, -1711750.5, -353.7625, 0.027799688, 0.014004886, -1669435.5, 30719.506, 0.0, 5.0137596, 4.986218 
6.3928425e+2, 1.3150126e+2, -1620247.6, -1662656.9, -344.15668, 0.01208421, 0.009044109, -1620244.9, 31049.467, 0.0, 5.0138235, 4.9862175 
6.392823e+2, 1.3648699e+2, -1573295.9, -1618122.3, -483.5052, -0.0036548933, 0.0053357463, -1573290.6, 29143.348, 0.0, 5.01388, 4.98471 
6.392807e+2, 1.414697e+2, -1531134.9, -1583312.8, -276.66547, -0.0145386085, 0.01354553, -1531133.4, 22469.563, 0.0, 5.0139003, 4.9799185 
6.392805e+2, 1.4644939e+2, -1482131.6, -1534162.6, -247.47453, -0.01391102, 0.00801838, -1482130.5, 22669.648, 0.0, 5.0138564, 4.9799685 
6.392803e+2, 1.5142903e+2, -1433216.0, -1485173.9, -249.60982, -0.012921606, 0.0021081383, -1433214.9, 22782.783, 0.0, 5.013808, 4.979968 
6.392802e+2, 1.5640867e+2, -1385687.4, -1439066.5, -313.79187, -0.011932428, -0.0033286412, -1385685.6, 21509.674, 0.0, 5.013757, 4.979005 
6.3928e+2, 1.6138467e+2, -1345375.4, -1408113.6, -252.84639, -0.010645477, -0.0012750516, -1345374.4, 13054.7, 0.0, 5.0137177, 4.972966 
6.392799e+2, 1.6635782e+2, -1296268.9, -1359018.3, -285.97134, -0.008946121, -0.0019377173, -1296267.5, 13424.937, 0.0, 5.0137153, 4.9729548 
6.3927984e+2, 1.7133097e+2, -1247151.6, -1309893.5, -320.55515, -0.0072383136, -0.0024864955, -1247150.0, 13805.883, 0.0, 5.01371, 4.9729548 
6.392798e+2, 1.7630413e+2, -1199180.1, -1263176.1, -330.78778, -0.0055395258, -0.002639253, -1199178.4, 13040.745, 0.0, 5.0137014, 4.972148 
6.3927966e+2, 1.8127365e+2, -1158641.1, -1232225.0, -300.55875, -0.004931549, 0.00359689, -1158639.9, 4877.9937, 0.0, 5.0136905, 4.9660134 
6.392795e+2, 1.8623959e+2, -1109233.8, -1182610.6, -244.16959, -0.006334967, -0.0010749615, -1109233.0, 5617.6724, 0.0, 5.013697, 4.9661484 
6.3927925e+2, 1.9120549e+2, -1060025.3, -1133404.4, -239.15237, -0.007852026, -0.0060301623, -1060024.5, 6159.038, 0.0, 5.0137, 4.9661493 
6.39279e+2, 1.9617142e+2, -1011734.1, -1086145.0, -231.05977, -0.009383303, -0.010665557, -1011733.44, 5782.8447, 0.0, 5.0136976, 4.965492 
6.392789e+2, 2.0113398e+2, -971639.25, -1056480.3, -65.03542, -0.01113115, -0.0057541886, -971639.2, -2756.5808, 0.0, 5.0136776, 4.9588385 
6.392789e+2, 2.060934e+2, -922346.94, -1006913.5, -21.048855, -0.012682854, -0.003931961, -922346.94, -2065.2947, 0.0, 5.0136266, 4.9589605 
6.392789e+2, 2.1105282e+2, -873241.8, -957718.0, 8.77055, -0.014230512, -0.0021984281, -873241.8, -1561.1222, 0.0, 5.013568, 4.9589615 
6.392789e+2, 2.1601227e+2, -824817.9, -909984.2, 37.85581, -0.015788477, -0.00032643625, -824817.8, -1738.1718, 0.0, 5.0135045, 4.958462 
6.3927907e+2, 2.2096805e+2, -784836.06, -880710.44, 257.8831, -0.016693017, 0.008248236, -784835.4, -10321.822, 0.0, 5.013435, 4.951612 
6.392796e+2, 2.2591974e+2, -735296.94, -830518.7, 306.29926, -0.015891118, 0.0028169372, -735296.0, -9310.635, 0.0, 5.013351, 4.951935 
6.392802e+2, 2.308714e+2, -686214.8, -781289.44, 280.34067, -0.015046089, -0.0032490722, -686214.0, -8756.788, 0.0, 5.0132556, 4.951937 
6.392808e+2, 2.3582307e+2, -637811.06, -733519.06, 252.83098, -0.014223231, -0.009351141, -637810.44, -8881.329, 0.0, 5.0131497, 4.951438 
6.392812e+2, 2.4077143e+2, -598675.75, -705977.6, -90.636734, -0.014031095, -0.0018197371, -598675.6, -18240.873, 0.0, 5.012969, 4.94393 
6.3928103e+2, 2.4571659e+2, -549674.3, -655807.6, -190.87868, -0.016251475, 0.003067615, -549673.94, -17696.58, 0.0, 5.012632, 4.9443216 
6.392807e+2, 2.506617e+2, -501205.6, -606832.6, -206.79755, -0.018652717, 0.0068873223, -501205.2, -17684.295, 0.0, 5.0122833, 4.9443173 
6.3928044e+2, 2.5560683e+2, -453000.03, -558426.8, -218.8267, -0.02105693, 0.011142816, -452999.56, -17935.57, 0.0, 5.0119257, 4.944115 
6.3927984e+2, 2.6054806e+2, -412349.44, -526616.94, -653.2129, -0.02574658, 0.020135911, -412345.72, -25705.193, 0.0, 5.011489, 4.938027 
6.392762e+2, 2.65487e+2, -361099.8, -468442.72, -1444.4888, -0.057084415, -0.012434398, -361080.38, -22861.504, 0.0, 5.010542, 4.9413056 
6.3927186e+2, 2.7042627e+2, -314463.16, -420012.47, -2116.8271, -0.09410704, -0.05097114, -314420.72, -24628.557, 0.0, 5.009393, 4.941403 
6.392672e+2, 2.753654e+2, -268236.97, -371897.9, -2896.8372, -0.13265462, -0.092454575, -268156.1, -26789.756, 0.0, 5.0080934, 4.9414525 
6.392674e+2, 2.8030145e+2, -248016.81, -388654.56, -348.21918, -0.14335208, -0.04831732, -248015.95, -55036.605, 0.0, 5.0079594, 4.918432 
6.3927186e+2, 2.8522837e+2, -190956.45, -327535.34, -4240.6406, -0.105561055, 0.011974809, -190824.92, -46105.723, 0.0, 5.0094543, 4.9216037 
6.392737e+2, 2.9015216e+2, -138949.52, -276575.75, -4175.005, -0.07494738, 0.019542566, -138822.98, -42328.55, 0.0, 5.010302, 4.9216475 
6.392752e+2, 2.9507568e+2, -87494.29, -225905.95, -4204.1743, -0.044997472, 0.02283622, -87366.71, -39094.25, 0.0, 5.0109253, 4.921691 
6.3927674e+2, 3.000165e+2, -15263.5205, -92468.66, -4129.309, -0.010048912, 0.03543653, -15043.293, -15043.293, 0.0, 5.011407, 4.9606566 
6.3927484e+2, 3.0498162e+2, -1275.9045, -61278.34, -4384.111, 0.021214824, -0.036771055, -957.26917, -957.26917, 0.0, 5.011853, 4.971294 
6.3927126e+2, 3.099485e+2, -523.7189, -59551.598, -4282.8994, 0.04325268, -0.12809458, -214.58255, -214.58255, 0.0, 5.0119443, 4.971794 
6.3926685e+2, 3.1491667e+2, -655.35876, -58291.05, -3681.3337, 0.060605224, -0.21201847, -421.17444, -421.17444, 0.0, 5.011661, 4.972294 
6.44298e+2, 1.21528305e+2, -1712296.6, -1748925.4, 34.472656, 0.00572633, 0.005508544, -1712296.6, 36730.8, 0.0, 5.013897, 4.9900284 
6.442998e+2, 1.2651524e+2, -1668943.5, -1711485.8, -12.682536, 0.026245993, 0.010689727, -1668943.5, 31211.443, 0.0, 5.0139184, 4.9862266 
6.4429796e+2, 1.31501e+2, -1619760.3, -1662397.3, -7.564441, 0.011170704, 0.005578874, -1619760.3, 31534.223, 0.0, 5.0139813, 4.986226 
6.442962e+2, 1.3648675e+2, -1572797.0, -1617864.8, -151.1862, -0.003858438, 0.0017560751, -1572796.5, 29637.732, 0.0, 5.014044, 4.9847155 
6.442947e+2, 1.4146948e+2, -1530605.8, -1583063.5, -9.0675535, -0.0140141975, 0.010215902, -1530605.8, 22997.299, 0.0, 5.014079, 4.979914 
6.442945e+2, 1.4644925e+2, -1481623.9, -1533940.5, -7.4173512, -0.013056607, 0.0056435997, -1481623.9, 23175.945, 0.0, 5.0140314, 4.9799576 
6.442943e+2, 1.5142898e+2, -1432717.9, -1484959.0, -16.956009, -0.011740567, 0.00072559394, -1432717.9, 23278.926, 0.0, 5.01398, 4.9799566 
6.4429414e+2, 1.5640871e+2, -1385204.0, -1438877.0, -92.4739, -0.010417148, -0.0037146378, -1385203.9, 21990.07, 0.0, 5.0139284, 4.9789863 
6.442939e+2, 1.6138476e+2, -1344895.4, -1407942.0, 6.8259745, -0.009140863, -0.001007958, -1344895.4, 13532.337, 0.0, 5.0138917, 4.9729404 
6.442938e+2, 1.6635787e+2, -1295799.0, -1358869.0, -7.7695475, -0.008249028, -0.0016135033, -1295799.0, 13892.512, 0.0, 5.0138893, 4.972922 
6.442936e+2, 1.71331e+2, -1246673.1, -1309741.8, -28.868704, -0.0073620477, -0.0021131868, -1246673.1, 14282.299, 0.0, 5.013888, 4.9729214 
6.442934e+2, 1.7630413e+2, -1198688.9, -1263029.1, -28.502668, -0.0064695077, -0.0022198493, -1198688.9, 13530.343, 0.0, 5.013886, 4.9721107 
6.4429325e+2, 1.8127361e+2, -1158095.1, -1232014.4, 26.629486, -0.006294356, 0.0039481614, -1158095.1, 5423.302, 0.0, 5.0138855, 4.9659934 
6.442931e+2, 1.862395e+2, -1108626.9, -1182366.9, 67.07264, -0.0072447937, -0.0009526191, -1108626.9, 6224.8247, 0.0, 5.0139127, 4.9661307 
6.4429295e+2, 1.9120537e+2, -1059347.4, -1133129.0, 47.891983, -0.008233609, -0.006130097, -1059347.4, 6837.5527, 0.0, 5.01394, 4.966131 
6.4429283e+2, 1.9617127e+2, -1010972.7, -1085834.0, 33.103764, -0.009198671, -0.0109889945, -1010972.7, 6545.404, 0.0, 5.0139675, 4.9654727 
6.442927e+2, 2.011338e+2, -970820.3, -1056088.5, 118.46172, -0.010409248, -0.006235615, -970820.1, -1935.4922, 0.0, 5.0139565, 4.9588428 
6.442927e+2, 2.0609327e+2, -921660.3, -1006596.2, 105.60605, -0.011384292, -0.004028623, -921660.2, -1376.9592, 0.0, 5.0138636, 4.95896 
6.4429265e+2, 2.1105273e+2, -872671.4, -957456.5, 92.117546, -0.012307371, -0.0018301369, -872671.25, -989.5278, 0.0, 5.013766, 4.9589605 
6.4429265e+2, 2.1601221e+2, -824347.5, -909771.1, 78.42972, -0.013205294, 0.0005160693, -824347.44, -1267.239, 0.0, 5.0136676, 4.9584618 
6.442927e+2, 2.2096801e+2, -784486.8, -880553.94, 255.0633, -0.013747255, 0.009143399, -784486.2, -9972.227, 0.0, 5.0135536, 4.9516134 
6.4429307e+2, 2.2591956e+2, -735219.94, -830492.5, 334.11755, -0.013648002, 0.002437201, -735218.75, -9232.034, 0.0, 5.013373, 4.9519367 
6.4429355e+2, 2.3087108e+2, -686398.8, -781389.0, 358.21796, -0.0135368295, -0.0049967794, -686397.44, -8937.818, 0.0, 5.0131855, 4.9519377 
6.442939e+2, 2.358226e+2, -638225.7, -733729.9, 384.31958, -0.013395106, -0.012474179, -638224.1, -9291.533, 0.0, 5.0129976, 4.951437 
6.442941e+2, 2.4077088e+2, -599123.2, -706249.44, 49.91695, -0.0137072075, -0.005968271, -599123.2, -18684.305, 0.0, 5.0128045, 4.9439178 
6.4429367e+2, 2.4571615e+2, -549755.25, -655995.4, -137.65306, -0.015779745, 0.0006480565, -549755.06, -17775.674, 0.0, 5.0126095, 4.944277 
6.442931e+2, 2.506614e+2, -500851.25, -606812.9, -223.93845, -0.017860679, 0.006548965, -500850.78, -17330.248, 0.0, 5.0124135, 4.9442754 
6.442926e+2, 2.556067e+2, -452193.63, -558194.4, -311.67484, -0.019840587, 0.012811793, -452192.72, -17131.428, 0.0, 5.0122147, 4.944076 
6.442919e+2, 2.6054788e+2, -411385.56, -527224.6, -871.42456, -0.023044163, 0.022500647, -411379.0, -24741.303, 0.0, 5.0119944, 4.937615 
6.4428854e+2, 2.6548553e+2, -359342.0, -469882.2, -1683.7295, -0.046907037, -0.014261665, -359316.38, -21087.746, 0.0, 5.011502, 4.9404445 
6.4428455e+2, 2.7042314e+2, -311025.1, -421030.94, -2150.076, -0.074702196, -0.05862747, -310983.1, -21165.19, 0.0, 5.010956, 4.9404535 
6.4428025e+2, 2.753605e+2, -262719.94, -372341.2, -2525.5354, -0.1029606, -0.10717462, -262661.78, -21251.814, 0.0, 5.0104, 4.9404154 
6.442805e+2, 2.8029472e+2, -240638.94, -383916.25, 1315.0729, -0.10782949, -0.07680895, -240626.88, -47586.348, 0.0, 5.0103016, 4.919032 
6.442848e+2, 2.8522265e+2, -186487.6, -324332.75, -1951.0035, -0.07766794, -0.011029751, -186459.98, -41690.734, 0.0, 5.010971, 4.9219446 
6.442868e+2, 2.9014808e+2, -135318.16, -274115.6, -2478.6233, -0.053607557, 0.011110598, -135273.9, -38746.227, 0.0, 5.011539, 4.921883 
6.4428866e+2, 2.950731e+2, -84120.25, -223948.89, -2896.7307, -0.028982943, 0.02869911, -84060.266, -35770.336, 0.0, 5.0120854, 4.9218216 
6.4429045e+2, 3.0001485e+2, -12032.879, -92160.69, -3141.464, 0.0019637865, 0.051452428, -11909.904, -11909.904, 0.0, 5.012737, 4.9601717 
6.442897e+2, 3.0497792e+2, 2378.2095, -63178.05, -4509.974, 0.03526586, -0.027473817, 2687.0205, 2687.0205, 0.0, 5.013742, 4.9698114 
6.4428747e+2, 3.0994207e+2, 5805.609, -59950.996, -5963.756, 0.06296584, -0.13026108, 6342.111, 6342.111, 0.0, 5.0147247, 4.970448 
6.442846e+2, 3.149073e+2, 9317.222, -56810.168, -7327.949, 0.088603035, -0.23019694, 10119.539, 10119.539, 0.0, 5.0156837, 4.971086 
6.493119e+2, 1.2152825e+2, -1712380.8, -1749076.0, -312.13953, 0.0054762866, 0.0014160279, -1712378.1, 36647.152, 0.0, 5.013894, 4.98998 
6.4931333e+2, 1.265152e+2, -1668935.1, -1711459.1, 32.092243, 0.022519404, 0.006512126, -1668935.1, 31217.68, 0.0, 5.013917, 4.986236 
6.493118e+2, 1.3150094e+2, -1619750.3, -1662371.6, 39.170383, 0.00932964, 0.0012281778, -1619750.3, 31542.285, 0.0, 5.0139804, 4.986235 
6.4931023e+2, 1.3648668e+2, -1572788.4, -1617846.5, -99.57916, -0.0038285465, -0.0027721878, -1572788.1, 29644.293, 0.0, 5.0140433, 4.984722 
6.493089e+2, 1.4146943e+2, -1530620.0, -1583087.4, -28.92745, -0.012515328, 0.006028456, -1530620.0, 22981.215, 0.0, 5.014078, 4.9799066 
6.493087e+2, 1.4644933e+2, -1481644.9, -1533977.9, -48.330357, -0.0112866, 0.0027838533, -1481644.8, 23152.424, 0.0, 5.0140305, 4.979945 
6.4930844e+2, 1.5142919e+2, -1432738.4, -1484995.9, -57.14357, -0.009737943, -0.0007696801, -1432738.4, 23255.207, 0.0, 5.0139794, 4.979944 
6.4930826e+2, 1.5640904e+2, -1385235.5, -1438937.3, -135.88911, -0.008186881, -0.003847961, -1385235.1, 21954.865, 0.0, 5.0139275, 4.978966 
6.4930797e+2, 1.6138515e+2, -1344926.1, -1408001.4, -3.0399864, -0.007084447, -0.00031383891, -1344926.1, 13497.442, 0.0, 5.013891, 4.9729204 
6.493077e+2, 1.6635823e+2, -1295837.9, -1358945.8, -11.582369, -0.0072966716, -0.0010884395, -1295837.9, 13850.08, 0.0, 5.013889, 4.972896 
6.493075e+2, 1.7133132e+2, -1246711.6, -1309817.8, -31.667006, -0.0075593325, -0.001778324, -1246711.6, 14240.7, 0.0, 5.0138874, 4.972896 
6.493072e+2, 1.763044e+2, -1198733.6, -1263118.0, -35.135742, -0.0078289565, -0.002075411, -1198733.6, 13483.146, 0.0, 5.0138855, 4.9720807 
6.4930695e+2, 1.8127382e+2, -1158133.6, -1232086.9, 39.08129, -0.0083201565, 0.003964438, -1158133.6, 5382.897, 0.0, 5.013884, 4.965969 
6.493069e+2, 1.8623969e+2, -1108665.6, -1182440.1, 87.732864, -0.008761968, -0.00082659774, -1108665.5, 6184.4404, 0.0, 5.0139112, 4.9661064 
6.4930683e+2, 1.9120555e+2, -1059385.5, -1133201.5, 70.0386, -0.009209363, -0.005874119, -1059385.5, 6797.954, 0.0, 5.013939, 4.966107 
6.493068e+2, 1.9617143e+2, -1011011.44, -1085908.3, 57.633434, -0.009650026, -0.0106057795, -1011011.4, 6505.42, 0.0, 5.013966, 4.9654474 
6.493067e+2, 2.0113395e+2, -970837.44, -1056116.5, 63.07101, -0.010216577, -0.0058284705, -970837.4, -1953.8129, 0.0, 5.0139556, 4.9588337 
6.493067e+2, 2.060934e+2, -921685.9, -1006644.0, 30.083023, -0.010038825, -0.0035626185, -921685.9, -1403.7362, 0.0, 5.013862, 4.9589443 
6.493067e+2, 2.1105286e+2, -872696.2, -957503.9, 18.593008, -0.009792732, -0.0012665108, -872696.2, -1015.57556, 0.0, 5.013765, 4.9589453 
6.493067e+2, 2.1601233e+2, -824371.75, -909818.3, 6.896574, -0.009543149, 0.0011756878, -824371.75, -1292.6351, 0.0, 5.0136666, 4.958446 
6.493068e+2, 2.209681e+2, -784477.3, -880515.6, 139.77377, -0.009470982, 0.009610343, -784477.1, -9964.154, 0.0, 5.013551, 4.951627 
6.4930683e+2, 2.2591956e+2, -735192.75, -830402.0, 200.77943, -0.010478809, 0.0017002838, -735192.3, -9206.015, 0.0, 5.013369, 4.951968 
6.493069e+2, 2.3087099e+2, -686374.7, -781295.6, 229.25548, -0.0116464645, -0.0070127007, -686374.1, -8914.244, 0.0, 5.0131803, 4.9519706 
6.4930695e+2, 2.3582242e+2, -638204.6, -733633.56, 259.74924, -0.012829855, -0.01576125, -638203.94, -9270.416, 0.0, 5.012991, 4.9514713 
6.493069e+2, 2.4077062e+2, -599183.8, -706277.56, -83.20831, -0.01417845, -0.010128599, -599183.75, -18743.82, 0.0, 5.0127897, 4.9439116 
6.4930624e+2, 2.4571605e+2, -549895.44, -656180.25, -284.82794, -0.01611527, -0.0015422434, -549894.7, -17916.516, 0.0, 5.012591, 4.9442186 
6.493056e+2, 2.506615e+2, -500989.9, -606999.06, -365.14825, -0.018013895, 0.0067860982, -500988.66, -17471.97, 0.0, 5.0123954, 4.9442163 
6.4930487e+2, 2.5560695e+2, -452330.75, -558381.94, -446.9119, -0.019876473, 0.015513577, -452328.88, -17274.072, 0.0, 5.012197, 4.944016 
6.4930403e+2, 2.6054806e+2, -411949.03, -528260.6, -1078.5979, -0.02204382, 0.026025362, -411939.03, -25307.824, 0.0, 5.01196, 4.9372673 
6.49301e+2, 2.654846e+2, -360392.63, -471575.7, -1844.5901, -0.040022027, -0.015788168, -360362.03, -22127.906, 0.0, 5.011407, 4.939889 
6.492973e+2, 2.7042106e+2, -312205.6, -422577.28, -2224.5723, -0.0618816, -0.06530242, -312160.78, -22324.994, 0.0, 5.010802, 4.939958 
6.492934e+2, 2.7535734e+2, -264030.4, -373740.44, -2513.5466, -0.08478536, -0.11850072, -263972.88, -22533.686, 0.0, 5.0101867, 4.9399796 
6.4929354e+2, 2.802905e+2, -239968.81, -382480.47, 1118.3485, -0.08733023, -0.09795068, -239960.05, -46880.176, 0.0, 5.010313, 4.919568 
6.492979e+2, 2.8521886e+2, -185950.2, -324604.03, -1645.8622, -0.059249394, -0.028884893, -185930.67, -41128.363, 0.0, 5.011169, 4.9218884 
6.493002e+2, 2.901451e+2, -134845.84, -274176.5, -2057.392, -0.037383292, 0.0039278655, -134815.47, -38265.766, 0.0, 5.011703, 4.9218926 
6.493023e+2, 2.9507098e+2, -83713.625, -223800.17, -2359.4717, -0.015657358, 0.03187074, -83673.89, -35373.26, 0.0, 5.012215, 4.921897 
6.493045e+2, 3.0001336e+2, -12480.198, -93392.83, -2495.6428, 0.011879106, 0.06201955, -12403.297, -12403.297, 0.0, 5.012801, 4.959739 
6.4930475e+2, 3.0497462e+2, 198.92834, -67535.0, -3611.4722, 0.044261314, -0.017930599, 390.94235, 390.94235, 0.0, 5.013674, 4.968345 
6.493036e+2, 3.0993676e+2, 3201.7183, -64541.223, -4820.372, 0.070220925, -0.11815376, 3543.0012, 3543.0012, 0.0, 5.0145364, 4.9689627 
6.493017e+2, 3.149003e+2, 6289.6177, -61633.66, -5939.762, 0.092548944, -0.21211031, 6805.1265, 6805.1265, 0.0, 5.0153747, 4.969581 
6.543258e+2, 1.215281e+2, -1712349.1, -1748990.3, -655.37006, 0.004997415, -0.0036069863, -1712337.4, 36686.668, 0.0, 5.0138907, 4.9900093 
6.543269e+2, 1.2651514e+2, -1668927.4, -1711431.9, 77.79459, 0.018796582, 0.0024157623, -1668927.3, 31223.436, 0.0, 5.0139155, 4.9862456 
6.5432554e+2, 1.3150088e+2, -1619740.8, -1662345.8, 86.83258, 0.007497706, -0.0030719305, -1619740.6, 31549.883, 0.0, 5.0139794, 4.9862437 
6.543243e+2, 1.364866e+2, -1572780.6, -1617828.5, -46.930107, -0.003783905, -0.0072804447, -1572780.5, 29650.092, 0.0, 5.014043, 4.984728 
6.543231e+2, 1.4146939e+2, -1530640.6, -1583123.9, -49.817818, -0.011013908, 0.0018650037, -1530640.6, 22958.678, 0.0, 5.014077, 4.9798946 
6.5432286e+2, 1.464494e+2, -1481666.0, -1534015.1, -89.30458, -0.009517293, -0.000059322534, -1481665.9, 23128.748, 0.0, 5.0140295, 4.9799333 
6.543227e+2, 1.5142938e+2, -1432759.1, -1485032.8, -97.392334, -0.007736597, -0.002263034, -1432759.0, 23231.338, 0.0, 5.0139785, 4.9799323 
6.5432245e+2, 1.5640937e+2, -1385267.8, -1438998.6, -179.34555, -0.00595845, -0.0039939974, -1385267.1, 21918.898, 0.0, 5.013927, 4.9789457 
6.543221e+2, 1.6138552e+2, -1344961.8, -1408070.5, -13.119255, -0.0050240625, 0.0004037451, -1344961.8, 13457.682, 0.0, 5.0138903, 4.9728975 
6.5432173e+2, 1.6635856e+2, -1295877.0, -1359022.1, -15.557613, -0.0063411463, -0.0005411947, -1295877.0, 13807.338, 0.0, 5.0138884, 4.9728703 
6.543214e+2, 1.713316e+2, -1246750.5, -1309893.5, -34.627716, -0.0077561573, -0.001437225, -1246750.5, 14198.798, 0.0, 5.0138865, 4.9728703 
6.5432096e+2, 1.7630464e+2, -1198778.6, -1263206.8, -42.270252, -0.009190672, -0.0019406766, -1198778.6, 13435.626, 0.0, 5.0138845, 4.9720507 
6.5432066e+2, 1.8127401e+2, -1158177.5, -1232170.1, 50.894302, -0.01033965, 0.0040061986, -1158177.5, 5337.102, 0.0, 5.0138826, 4.965941 
6.5432066e+2, 1.8623988e+2, -1108704.8, -1182513.0, 108.32715, -0.01027242, -0.0006806525, -1108704.6, 6143.634, 0.0, 5.01391, 4.9660816 
6.5432066e+2, 1.9120574e+2, -1059424.1, -1133273.6, 92.11931, -0.010181613, -0.0056223283, -1059424.0, 6757.9463, 0.0, 5.0139375, 4.9660826 
6.5432066e+2, 1.961716e+2, -1011050.7, -1085982.6, 82.20328, -0.010101099, -0.0102508655, -1011050.6, 6464.9204, 0.0, 5.0139647, 4.965422 
6.5432066e+2, 2.0113412e+2, -970865.25, -1056166.8, 7.202969, -0.010017464, -0.005368732, -970865.25, -1982.783, 0.0, 5.013954, 4.958817 
6.543207e+2, 2.0609355e+2, -921711.94, -1006691.4, -45.4053, -0.008686804, -0.0030365763, -921711.94, -1430.9084, 0.0, 5.013861, 4.9589286 
6.543207e+2, 2.1105301e+2, -872721.56, -957550.9, -54.896797, -0.0072753234, -0.0006776487, -872721.5, -1042.0106, 0.0, 5.013764, 4.958929 
6.543207e+2, 2.1601246e+2, -824396.44, -909865.06, -64.601845, -0.0058820187, 0.0018257411, -824396.4, -1318.4113, 0.0, 5.013666, 4.95843 
6.543207e+2, 2.209682e+2, -784480.7, -880503.56, 21.80497, -0.005185153, 0.0101143895, -784480.6, -9968.719, 0.0, 5.013549, 4.951631 
6.543205e+2, 2.2591957e+2, -735166.9, -830310.5, 65.43409, -0.007312029, 0.0009715157, -735166.8, -9180.888, 0.0, 5.013365, 4.9519997 
6.543203e+2, 2.308709e+2, -686351.8, -781201.2, 98.28525, -0.00977672, -0.009094017, -686351.75, -8891.557, 0.0, 5.013175, 4.952003 
6.5432006e+2, 2.3582223e+2, -638184.8, -733536.2, 133.17061, -0.012303428, -0.019187259, -638184.6, -9250.182, 0.0, 5.0129843, 4.951505 
6.5431964e+2, 2.407704e+2, -599274.44, -706364.3, -226.71739, -0.014680034, -0.014089805, -599274.0, -18833.188, 0.0, 5.012775, 4.9438844 
6.5431887e+2, 2.4571599e+2, -550040.25, -656360.75, -431.4214, -0.016456323, -0.00341049, -550038.5, -18061.795, 0.0, 5.0125723, 4.944159 
6.54318e+2, 2.5066158e+2, -501133.13, -607180.94, -505.77625, -0.018154422, 0.007245675, -501130.7, -17618.107, 0.0, 5.0123773, 4.944156 
6.5431714e+2, 2.5560725e+2, -452472.4, -558565.2, -581.56665, -0.019881453, 0.018338196, -452469.22, -17421.107, 0.0, 5.012179, 4.943955 
6.543162e+2, 2.6054817e+2, -412644.84, -529564.25, -1340.8453, -0.020628354, 0.029237146, -412629.47, -26003.982, 0.0, 5.0119257, 4.9368153 
6.5431327e+2, 2.6548347e+2, -361460.47, -473256.47, -2097.355, -0.033066895, -0.019218499, -361421.13, -23179.785, 0.0, 5.0113125, 4.93931 
6.5430987e+2, 2.704187e+2, -313403.2, -424110.56, -2390.9988, -0.049614836, -0.0755318, -313351.6, -23495.652, 0.0, 5.010648, 4.939439 
6.543062e+2, 2.7535388e+2, -265357.8, -375126.22, -2593.5198, -0.06778791, -0.13503173, -265296.56, -23825.447, 0.0, 5.0099735, 4.9395204 
6.543066e+2, 2.802864e+2, -240215.03, -383143.38, 1189.3209, -0.06614482, -0.11772384, -240205.13, -47086.316, 0.0, 5.010325, 4.9193625 
6.543113e+2, 2.8521532e+2, -185447.45, -324843.13, -1466.3124, -0.039052278, -0.04136298, -185432.03, -40599.04, 0.0, 5.0113664, 4.921808 
6.5431386e+2, 2.9014227e+2, -134407.89, -274205.13, -1761.6693, -0.020196032, -0.0004182698, -134385.7, -37815.29, 0.0, 5.0118666, 4.921878 
6.5431625e+2, 2.9506892e+2, -83341.07, -223619.02, -1947.6508, -0.002184313, 0.03533844, -83314.03, -35002.98, 0.0, 5.0123453, 4.9219475 
6.543188e+2, 3.000117e+2, -13380.347, -95576.21, -1906.992, 0.022198852, 0.07200091, -13336.127, -13336.127, 0.0, 5.012866, 4.958936 
6.5431994e+2, 3.0497092e+2, -2019.148, -71858.34, -2701.8223, 0.055649985, -0.012305174, -1914.7804, -1914.7804, 0.0, 5.0136056, 4.9668236 
6.543197e+2, 3.0993086e+2, 558.6535, -69098.336, -3665.4778, 0.08157793, -0.11630847, 751.0065, 751.0065, 0.0, 5.014348, 4.9674225 
6.5431875e+2, 3.1489238e+2, 3222.3633, -66424.53, -4539.6675, 0.10230577, -0.21063136, 3517.0176, 3517.0176, 0.0, 5.015066, 4.968022 
6.593396e+2, 1.2152781e+2, -1712731.3, -1748983.3, -1163.8015, 0.004433637, -0.009179396, -1712693.9, 36330.4, 0.0, 5.0137234, 4.990094 
6.593404e+2, 1.2651506e+2, -1669449.0, -1711673.8, -91.44277, 0.015014016, -0.0012990825, -1669448.8, 30700.2, 0.0, 5.01374, 4.9862523 
6.5933937e+2, 1.315008e+2, -1620349.8, -1662630.3, -92.52053, 0.005678838, -0.0069893664, -1620349.5, 30939.436, 0.0, 5.013774, 4.9862504 
6.593383e+2, 1.364865e+2, -1573500.3, -1618173.3, -231.27032, -0.0036366752, -0.011408684, -1573499.0, 28930.205, 0.0, 5.013801, 4.9847317 
6.5933734e+2, 1.4146931e+2, -1531446.3, -1583557.0, -307.45123, -0.009383694, -0.0019452777, -1531444.4, 22153.426, 0.0, 5.0138164, 4.9798775 
6.5933704e+2, 1.4644943e+2, -1482397.6, -1534405.0, -369.6408, -0.0077036265, -0.0026842242, -1482395.0, 22397.645, 0.0, 5.0137916, 4.979919 
6.593368e+2, 1.5142952e+2, -1433422.1, -1485387.9, -383.25665, -0.0057684416, -0.0036817803, -1433419.4, 22568.38, 0.0, 5.0137625, 4.979918 
6.5933657e+2, 1.564096e+2, -1385880.1, -1439346.9, -474.98422, -0.00383233, -0.0042091887, -1385875.9, 21307.04, 0.0, 5.0137315, 4.9789233 
6.593362e+2, 1.6138583e+2, -1345505.1, -1408388.0, -272.65128, -0.0030741992, 0.0009888158, -1345504.0, 12912.187, 0.0, 5.0137186, 4.9728737 
6.593357e+2, 1.6635883e+2, -1296330.1, -1359292.5, -255.38638, -0.0053887824, -0.00013753209, -1296329.0, 13352.494, 0.0, 5.013746, 4.9728475 
6.593352e+2, 1.7133182e+2, -1247125.8, -1310125.4, -260.9822, -0.007825876, -0.001256416, -1247124.6, 13822.386, 0.0, 5.01377, 4.9728475 
6.593347e+2, 1.763048e+2, -1199094.4, -1263419.8, -261.31863, -0.010274706, -0.0019792782, -1199093.4, 13119.182, 0.0, 5.0137906, 4.972023 
6.5933436e+2, 1.8127416e+2, -1158480.4, -1232392.0, -149.20584, -0.011974972, 0.0039383634, -1158480.0, 5033.241, 0.0, 5.0137963, 4.9659066 
6.593345e+2, 1.8624e+2, -1109081.0, -1182760.0, -103.8844, -0.011447769, -0.0005292195, -1109080.9, 5766.3066, 0.0, 5.0137954, 4.9660516 
6.5933454e+2, 1.9120586e+2, -1059899.0, -1133567.0, -140.68591, -0.010850976, -0.0052573737, -1059898.8, 6282.3037, 0.0, 5.0137887, 4.966052 
6.5933466e+2, 1.961717e+2, -1011640.5, -1086331.5, -170.95616, -0.010254807, -0.009671315, -1011640.1, 5874.7803, 0.0, 5.013777, 4.9653907 
6.593347e+2, 2.0113422e+2, -971509.75, -1056529.4, -334.12817, -0.009544235, -0.0045613786, -971508.44, -2626.442, 0.0, 5.013745, 4.958791 
6.593347e+2, 2.0609362e+2, -922246.2, -1006982.2, -413.83078, -0.007207735, -0.002276856, -922244.2, -1963.5054, 0.0, 5.013685, 4.9589105 
6.593347e+2, 2.1105307e+2, -873169.06, -957799.8, -433.64966, -0.004751944, -0.000010370868, -873166.8, -1487.5685, 0.0, 5.0136175, 4.958911 
6.593348e+2, 2.160125e+2, -824778.9, -910082.4, -453.69473, -0.0022980953, 0.0023983435, -824776.5, -1698.6523, 0.0, 5.013542, 4.9584117 
6.593347e+2, 2.209682e+2, -784768.75, -880658.4, -422.71555, -0.0010010691, 0.010517625, -784766.94, -10254.877, 0.0, 5.0134544, 4.95162 
6.5933424e+2, 2.2591949e+2, -735239.25, -830298.44, -434.25696, -0.0041628573, 0.00026500836, -735237.25, -9250.584, 0.0, 5.013333, 4.952017 
6.593337e+2, 2.308707e+2, -686281.25, -781124.5, -446.36957, -0.007756105, -0.011078115, -686279.2, -8817.516, 0.0, 5.0131936, 4.9520197 
6.5933317e+2, 2.3582193e+2, -638013.44, -733414.2, -460.5443, -0.011377807, -0.022470566, -638011.2, -9074.559, 0.0, 5.01304, 4.9515214 
6.593325e+2, 2.4077007e+2, -599085.1, -706403.4, -877.27924, -0.014473968, -0.017647622, -599078.0, -18635.01, 0.0, 5.0128713, 4.943828 
6.5933156e+2, 2.4571577e+2, -549663.0, -656343.94, -1098.0372, -0.015852008, -0.0049724667, -549651.7, -17675.002, 0.0, 5.0127435, 4.94409 
6.5933055e+2, 2.5066152e+2, -500570.13, -607079.9, -1193.2583, -0.017055077, 0.0077167354, -500556.75, -17046.389, 0.0, 5.0126176, 4.944087 
6.593296e+2, 2.556073e+2, -451747.56, -558390.56, -1288.6816, -0.018275099, 0.020857694, -451731.97, -16688.332, 0.0, 5.0124817, 4.943886 
6.593286e+2, 2.60548e+2, -412501.44, -530952.44, -2295.2615, -0.016753687, 0.03194288, -412456.97, -25833.883, 0.0, 5.0122824, 4.9361725 
6.5932596e+2, 2.654819e+2, -361738.75, -475260.94, -3621.2375, -0.02229073, -0.023155933, -361623.34, -23369.836, 0.0, 5.0116096, 4.938469 
6.5932274e+2, 2.7041566e+2, -314367.88, -426462.53, -4622.827, -0.03133396, -0.08685644, -314177.53, -24293.678, 0.0, 5.01072, 4.938577 
6.5931934e+2, 2.7534926e+2, -267458.3, -378010.22, -5733.0415, -0.041602172, -0.1539108, -267161.78, -25646.555, 0.0, 5.009662, 4.938638 
6.593204e+2, 2.8028098e+2, -243564.92, -386179.0, -1846.8737, -0.03139093, -0.13552076, -243541.02, -50369.52, 0.0, 5.009543, 4.9186134 
6.5932554e+2, 2.8521088e+2, -185949.08, -324179.44, -3446.959, -0.008529641, -0.050022185, -185863.17, -40989.98, 0.0, 5.011163, 4.922047 
6.5932816e+2, 2.9013875e+2, -133151.4, -272899.4, -2824.5608, 0.0028513756, -0.003670505, -133094.34, -36496.17, 0.0, 5.0122957, 4.922081 
6.5933055e+2, 2.9506636e+2, -81000.086, -221957.47, -2330.482, 0.013938894, 0.03776198, -80961.56, -32635.063, 0.0, 5.0131764, 4.9221153 
6.593334e+2, 3.0000964e+2, -12347.951, -97622.82, -1806.5818, 0.034070875, 0.08099255, -12309.695, -12309.695, 0.0, 5.013822, 4.9577384 
6.5933543e+2, 3.0496672e+2, -2900.8977, -75947.85, -2624.3542, 0.071235195, -0.009828809, -2806.734, -2806.734, 0.0, 5.014108, 4.9650397 
6.5933627e+2, 3.0992386e+2, -2922.039, -74192.16, -3512.6235, 0.10265655, -0.12694061, -2749.3342, -2749.3342, 0.0, 5.013898, 4.965663 
6.593363e+2, 3.1488252e+2, -4132.6157, -73052.93, -3993.6777, 0.13030717, -0.23600356, -3901.9688, -3901.9688, 0.0, 5.0132036, 4.966286 
6.643535e+2, 1.2152789e+2, -1711714.5, -1748666.4, -959.64374, 0.0046704314, -0.01038063, -1711689.6, 37333.03, 0.0, 5.0140967, 4.990016 
6.643538e+2, 1.2651521e+2, -1668511.5, -1711219.1, 148.97809, 0.010154693, -0.0014503322, -1668511.0, 31635.525, 0.0, 5.0140505, 4.9862504 
6.6435295e+2, 1.3150094e+2, -1619694.4, -1662314.4, 147.71214, 0.0037377393, -0.0071786186, -1619693.9, 31592.758, 0.0, 5.013992, 4.986249 
6.643522e+2, 1.3648663e+2, -1573108.3, -1617992.4, 15.041439, -0.0026393123, -0.011647901, -1573108.3, 29318.916, 0.0, 5.013933, 4.9847283 
6.643514e+2, 1.4146943e+2, -1531176.8, -1583466.0, -48.653957, -0.006529153, -0.0022597886, -1531176.8, 22419.219, 0.0, 5.0139136, 4.9798613 
6.6435105e+2, 1.4644952e+2, -1482057.5, -1534285.6, -109.55631, -0.0055786977, -0.0031429166, -1482057.3, 22733.926, 0.0, 5.0139136, 4.9799 
6.643507e+2, 1.5142958e+2, -1432998.1, -1485228.4, -122.03864, -0.004436457, -0.004276626, -1432997.9, 22988.854, 0.0, 5.013913, 4.979899 
6.6435033e+2, 1.5640962e+2, -1385378.9, -1439169.4, -214.83171, -0.003283307, -0.004939355, -1385378.0, 21804.44, 0.0, 5.013912, 4.978896 
6.6435e+2, 1.6138582e+2, -1344835.1, -1408036.1, 46.259754, -0.0029657753, 0.000051571253, -1344835.1, 13580.847, 0.0, 5.013937, 4.9728866 
6.6434956e+2, 1.663588e+2, -1295539.5, -1358869.9, 101.35476, -0.0050075036, -0.0014070285, -1295539.4, 14141.957, 0.0, 5.0140033, 4.9728665 
6.643492e+2, 1.7133178e+2, -1246213.9, -1309646.5, 127.92694, -0.0071206754, -0.0028478403, -1246213.5, 14733.165, 0.0, 5.01407, 4.9728665 
6.643488e+2, 1.7630476e+2, -1198058.0, -1262895.4, 153.73622, -0.009220929, -0.0038815322, -1198057.6, 14154.457, 0.0, 5.0141363, 4.972037 
6.643484e+2, 1.8127413e+2, -1157468.4, -1232010.1, 246.24327, -0.010617489, 0.0022698278, -1157467.6, 6045.212, 0.0, 5.0141606, 4.965864 
6.643485e+2, 1.8624006e+2, -1108263.1, -1182526.1, 256.7619, -0.009895642, -0.0005892599, -1108262.3, 6584.1245, 0.0, 5.0141053, 4.965986 
6.6434854e+2, 1.9120602e+2, -1059239.0, -1133410.1, 202.78398, -0.009078096, -0.0036336994, -1059238.4, 6941.6084, 0.0, 5.0140457, 4.9659863 
6.6434866e+2, 1.9617198e+2, -1011123.2, -1086246.8, 157.39772, -0.0082308985, -0.0063567404, -1011122.9, 6390.699, 0.0, 5.013985, 4.9653234 
6.643487e+2, 2.011345e+2, -971027.3, -1056399.1, -14.695549, -0.0073869564, -0.0005216424, -971027.3, -2146.3877, 0.0, 5.0139284, 4.9587507 
6.6434866e+2, 2.0609373e+2, -921646.75, -1006790.6, -95.46593, -0.005360139, 0.0003328095, -921646.6, -1365.5652, 0.0, 5.013909, 4.9588733 
6.6434854e+2, 2.1105298e+2, -872427.06, -957541.94, -128.43427, -0.003206988, 0.0011120619, -872426.9, -745.66003, 0.0, 5.013891, 4.958874 
6.6434854e+2, 2.1601222e+2, -823874.4, -909749.8, -161.51152, -0.001013998, 0.0020374088, -823874.06, -792.77014, 0.0, 5.013873, 4.958375 
6.643484e+2, 2.2096778e+2, -783649.56, -880202.4, -141.03528, 0.000010342351, 0.00913949, -783649.4, -9132.79, 0.0, 5.013855, 4.951595 
6.643479e+2, 2.2591907e+2, -733870.56, -829757.5, -172.27261, -0.003217416, -0.00071352354, -733870.25, -7878.9365, 0.0, 5.0138264, 4.9519806 
6.6434735e+2, 2.308703e+2, -684610.75, -780453.4, -201.82883, -0.006737083, -0.011594755, -684610.3, -7143.988, 0.0, 5.013795, 4.951982 
6.6434675e+2, 2.3582152e+2, -636001.56, -732596.5, -229.43571, -0.0101901945, -0.022561816, -636001.0, -7059.5083, 0.0, 5.013763, 4.9514813 
6.6434616e+2, 2.4076962e+2, -596655.2, -705365.06, -618.5428, -0.012601066, -0.017938651, -596651.6, -16203.507, 0.0, 5.013729, 4.943807 
6.6434526e+2, 2.4571528e+2, -546999.25, -655288.56, -810.3828, -0.011924095, -0.005421406, -546993.2, -15011.631, 0.0, 5.013701, 4.9440355 
6.643445e+2, 2.5066096e+2, -497638.88, -605908.8, -867.3203, -0.010916725, 0.007384509, -497631.9, -14117.146, 0.0, 5.013673, 4.9440327 
6.643436e+2, 2.556067e+2, -448527.66, -557096.4, -927.09106, -0.009853589, 0.020644553, -448519.75, -13472.2, 0.0, 5.0136423, 4.943832 
6.643428e+2, 2.605473e+2, -409259.0, -530800.75, -1765.2738, -0.005540621, 0.03283654, -409233.38, -22605.695, 0.0, 5.0136566, 4.9356403 
6.6434073e+2, 2.654806e+2, -357131.75, -475526.7, -2650.737, -0.0042672483, -0.018778875, -357072.4, -18805.975, 0.0, 5.013623, 4.9375463 
6.6433823e+2, 2.704136e+2, -307506.3, -426010.97, -3027.2253, -0.0049830587, -0.07953341, -307429.03, -17521.523, 0.0, 5.0135527, 4.9375725 
6.643355e+2, 2.7534634e+2, -257905.89, -376662.63, -3318.123, -0.0059071803, -0.14430445, -257813.25, -16262.132, 0.0, 5.0134726, 4.9375515 
6.643368e+2, 2.8027692e+2, -231065.9, -378966.75, 1715.9453, 0.0094559565, -0.13189796, -231046.0, -37825.934, 0.0, 5.0136924, 4.9192815 
6.6434157e+2, 2.8520685e+2, -176059.75, -317211.84, 653.4697, 0.022611197, -0.05631365, -176056.72, -31140.086, 0.0, 5.014314, 4.923025 
6.643442e+2, 2.9013512e+2, -125072.984, -267156.84, 657.0341, 0.024806056, -0.014927838, -125069.945, -28437.617, 0.0, 5.0148363, 4.92295 
6.6434664e+2, 2.95063e+2, -74061.16, -217146.4, 769.68335, 0.028041333, 0.022204824, -74057.016, -25705.248, 0.0, 5.015337, 4.9228745 
6.6434944e+2, 3.0000675e+2, -6813.049, -95835.28, 1015.3318, 0.040847052, 0.06450938, -6801.47, -6801.47, 0.0, 5.0158715, 4.9575276 
6.643514e+2, 3.049645e+2, 2283.6357, -77419.95, 154.62553, 0.07184243, -0.006097584, 2283.9358, 2283.9358, 0.0, 5.0165577, 4.963513 
6.643523e+2, 3.0992207e+2, 4836.913, -74437.375, -1028.1495, 0.100786984, -0.1027535, 4850.245, 4850.245, 0.0, 5.0172157, 4.9641857 
6.6435266e+2, 3.1488076e+2, 7474.5796, -71540.46, -2181.333, 0.1294277, -0.196581, 7534.753, 7534.753, 0.0, 5.01785, 4.9648595 
6.693676e+2, 1.2152825e+2, -1711828.8, -1748879.8, -967.8702, 0.004644224, -0.010903625, -1711803.5, 37214.992, 0.0, 5.014094, 4.989947 
6.6936725e+2, 1.2651572e+2, -1668513.5, -1711213.4, 100.72477, 0.004796248, -0.00058467773, -1668513.3, 31627.973, 0.0, 5.014049, 4.986253 
6.693668e+2, 1.3150144e+2, -1619695.0, -1662309.8, 101.366196, 0.0016238102, -0.0063462034, -1619694.8, 31586.676, 0.0, 5.013991, 4.986251 
6.6936624e+2, 1.3648714e+2, -1573114.9, -1618004.4, -18.40332, -0.0015247932, -0.010852914, -1573114.9, 29307.082, 0.0, 5.0139327, 4.9847245 
6.693656e+2, 1.414699e+2, -1531196.1, -1583501.3, -55.283928, -0.003458927, -0.0016474165, -1531196.0, 22395.105, 0.0, 5.0139127, 4.97985 
6.6936517e+2, 1.4644992e+2, -1482083.0, -1534333.3, -111.67855, -0.0034887423, -0.003025444, -1482082.8, 22704.21, 0.0, 5.0139127, 4.979884 
6.6936475e+2, 1.5142992e+2, -1433023.8, -1485275.6, -123.46778, -0.0034157515, -0.0046520773, -1433023.5, 22959.748, 0.0, 5.013912, 4.979883 
6.693643e+2, 1.5640989e+2, -1385416.0, -1439240.8, -217.23317, -0.0033384552, -0.005806029, -1385415.1, 21764.373, 0.0, 5.0139112, 4.978873 
6.6936386e+2, 1.6138604e+2, -1344801.9, -1407960.0, 86.98355, -0.0035483649, -0.00125907, -1344801.8, 13611.802, 0.0, 5.013936, 4.972912 
6.6936356e+2, 1.6635902e+2, -1295492.8, -1358766.1, 148.21867, -0.004944877, -0.0030930655, -1295492.4, 14186.226, 0.0, 5.0140023, 4.9729013 
6.6936326e+2, 1.71332e+2, -1246167.1, -1309542.9, 175.80264, -0.006384777, -0.0049079005, -1246166.6, 14777.109, 0.0, 5.014069, 4.9729013 
6.69363e+2, 1.7630498e+2, -1198019.3, -1262808.4, 194.72632, -0.007827242, -0.006316514, -1198018.8, 14190.175, 0.0, 5.0141354, 4.972066 
6.693628e+2, 1.8127437e+2, -1157530.3, -1232132.5, 225.0344, -0.008732025, 0.00014591494, -1157529.6, 5979.6284, 0.0, 5.014159, 4.965823 
6.6936284e+2, 1.8624046e+2, -1108362.6, -1182728.9, 209.28448, -0.007830301, -0.00069580093, -1108362.1, 6480.276, 0.0, 5.0141044, 4.9659176 
6.6936284e+2, 1.9120654e+2, -1059337.3, -1133611.6, 156.94923, -0.0068650786, -0.0016474338, -1059337.0, 6838.4873, 0.0, 5.0140443, 4.965918 
6.693629e+2, 1.9617264e+2, -1011221.9, -1086450.1, 114.347275, -0.0058940304, -0.0022826497, -1011221.7, 6286.8174, 0.0, 5.013984, 4.965255 
6.6936284e+2, 2.0113519e+2, -971093.6, -1056532.5, -47.57227, -0.005079928, 0.00447022, -971093.6, -2217.523, 0.0, 5.013927, 4.958706 
6.693627e+2, 2.060942e+2, -921705.6, -1006908.9, -110.329414, -0.003654397, 0.0035116265, -921705.5, -1427.3958, 0.0, 5.0139074, 4.9588337 
6.693626e+2, 2.1105322e+2, -872485.44, -957659.5, -140.98454, -0.0021803584, 0.0023819902, -872485.2, -805.09814, 0.0, 5.01389, 4.9588346 
6.693625e+2, 2.1601222e+2, -823932.44, -909867.2, -171.78194, -0.00069699413, 0.0013987574, -823932.06, -850.00995, 0.0, 5.0138717, 4.9583354 
6.6936225e+2, 2.2096764e+2, -783692.7, -880280.2, -158.69254, -0.00027054347, 0.007253052, -783692.44, -9173.783, 0.0, 5.013852, 4.9515686 
6.6936177e+2, 2.2591896e+2, -733926.9, -829854.3, -187.46063, -0.0033045805, -0.001828069, -733926.56, -7933.3564, 0.0, 5.013822, 4.951949 
6.693612e+2, 2.3087026e+2, -684670.0, -780547.3, -211.982, -0.0065803, -0.011793803, -684669.5, -7201.5913, 0.0, 5.0137897, 4.9519515 
6.693606e+2, 2.3582153e+2, -636063.6, -732687.56, -234.54951, -0.00983834, -0.021836916, -636063.06, -7120.3286, 0.0, 5.0137563, 4.9514523 
6.6936e+2, 2.4076964e+2, -596717.2, -705389.1, -624.79584, -0.011539307, -0.016952243, -596713.56, -16264.294, 0.0, 5.013713, 4.9438033 
6.693594e+2, 2.457152e+2, -547095.8, -655370.6, -829.7154, -0.008455943, -0.0050425557, -547089.44, -15106.897, 0.0, 5.013682, 4.9440126 
6.693588e+2, 2.5066084e+2, -497730.38, -605993.2, -879.84796, -0.0049981186, 0.0073052496, -497723.22, -14207.747, 0.0, 5.0136557, 4.9440084 
6.693581e+2, 2.556065e+2, -448614.13, -557183.1, -932.8117, -0.0015556536, 0.020136105, -448606.13, -13558.169, 0.0, 5.0136266, 4.943805 
6.6935754e+2, 2.6054704e+2, -409803.72, -531830.25, -1690.2382, 0.0050555277, 0.033174977, -409780.3, -23151.87, 0.0, 5.0136275, 4.935291 
6.693559e+2, 2.6548028e+2, -358051.28, -476985.34, -2462.6611, 0.009669388, -0.014142717, -358000.3, -19728.715, 0.0, 5.013536, 4.937063 
6.69354e+2, 2.7041325e+2, -308561.25, -427351.34, -2758.3145, 0.0119584715, -0.06986645, -308497.22, -18580.639, 0.0, 5.0134077, 4.937141 
6.6935176e+2, 2.7534607e+2, -259096.05, -377884.72, -2968.3037, 0.013450764, -0.12898621, -259021.92, -17458.896, 0.0, 5.01327, 4.937171 
6.6935295e+2, 2.802765e+2, -230253.22, -377435.78, 1623.2278, 0.02834614, -0.11763753, -230235.33, -36999.742, 0.0, 5.013734, 4.919841 
6.6935766e+2, 2.8520572e+2, -174533.28, -315577.88, 942.5732, 0.038037743, -0.054927677, -174526.98, -29593.06, 0.0, 5.0145516, 4.9236226 
6.693604e+2, 2.9013336e+2, -123640.71, -265346.38, 1054.6542, 0.03687398, -0.02464337, -123632.87, -26983.621, 0.0, 5.015035, 4.9236093 
6.6936296e+2, 2.9506063e+2, -72723.58, -215159.92, 1275.6802, 0.036007755, 0.0012681788, -72712.16, -24344.252, 0.0, 5.0154967, 4.923596 
6.6936576e+2, 3.000042e+2, -6493.6616, -95732.26, 1436.2769, 0.04289551, 0.036810275, -6470.551, -6470.551, 0.0, 5.0159793, 4.957576 
6.693675e+2, 3.0496368e+2, 950.0133, -80653.56, 711.69385, 0.06357844, -0.0054925913, 956.2198, 956.2198, 0.0, 5.016583, 4.962428 
6.693681e+2, 3.0992344e+2, 3180.0151, -77999.56, -230.02965, 0.08048363, -0.06401489, 3180.667, 3180.667, 0.0, 5.017166, 4.9630394 
6.69368e+2, 3.1488445e+2, 5494.977, -75431.18, -1142.334, 0.09556397, -0.11688675, 5511.0986, 5511.0986, 0.0, 5.017726, 4.9636517 
6.743817e+2, 1.21528536e+2, -1711834.6, -1748871.3, -974.4961, 0.004320534, -0.012191997, -1711809.0, 37206.15, 0.0, 5.0140915, 4.9899497 
6.743808e+2, 1.2651622e+2, -1668516.0, -1711207.0, 53.26224, -0.0005690889, 0.0003489047, -1668516.0, 31619.922, 0.0, 5.0140476, 4.986255 
6.7438054e+2, 1.3150194e+2, -1619696.1, -1662304.6, 55.810978, -0.0004900131, -0.0054725553, -1619696.1, 31580.094, 0.0, 5.01399, 4.986253 
6.743803e+2, 1.3648762e+2, -1573123.8, -1618019.3, -51.219402, -0.00040287594, -0.010043307, -1573123.8, 29293.092, 0.0, 5.013932, 4.9847193 
6.743799e+2, 1.4147037e+2, -1531216.4, -1583538.1, -62.40671, -0.00038944438, -0.0010185404, -1531216.4, 22369.902, 0.0, 5.013912, 4.9798374 
6.743793e+2, 1.4645033e+2, -1482108.9, -1534380.6, -113.848, -0.0014009415, -0.0028984528, -1482108.6, 22674.246, 0.0, 5.013912, 4.9798684 
6.7437875e+2, 1.5143025e+2, -1433049.6, -1485322.9, -124.94412, -0.0023964266, -0.0050298977, -1433049.3, 22930.404, 0.0, 5.0139117, 4.979868 
6.7437816e+2, 1.5641017e+2, -1385453.9, -1439312.5, -219.7508, -0.0033942044, -0.006686931, -1385452.9, 21723.766, 0.0, 5.013911, 4.978849 
6.7437774e+2, 1.6138627e+2, -1344772.5, -1407891.5, 127.777916, -0.0041256906, -0.002551701, -1344772.1, 13638.891, 0.0, 5.013935, 4.9729347 
6.7437756e+2, 1.6635923e+2, -1295446.3, -1358662.1, 195.06734, -0.004876442, -0.004761323, -1295445.8, 14230.211, 0.0, 5.0140014, 4.972936 
6.7437744e+2, 1.7133221e+2, -1246120.8, -1309439.1, 223.66302, -0.0056444816, -0.0069628605, -1246120.0, 14820.778, 0.0, 5.0140686, 4.972936 
6.743773e+2, 1.7630519e+2, -1197981.0, -1262721.4, 235.41016, -0.006430574, -0.008759066, -1197980.1, 14225.534, 0.0, 5.014135, 4.972095 
6.7437714e+2, 1.8127461e+2, -1157597.5, -1232265.1, 203.20035, -0.006845761, -0.001956519, -1157596.9, 5908.7915, 0.0, 5.014158, 4.9657784 
6.7437714e+2, 1.8624085e+2, -1108462.8, -1182931.4, 161.64825, -0.005767716, -0.00078796345, -1108462.4, 6375.955, 0.0, 5.014103, 4.965849 
6.7437714e+2, 1.9120707e+2, -1059436.3, -1133812.8, 110.955696, -0.004658342, 0.0003313319, -1059436.0, 6734.899, 0.0, 5.014043, 4.9658494 
6.7437714e+2, 1.9617331e+2, -1011321.06, -1086653.0, 71.18165, -0.003566972, 0.001762064, -1011321.0, 6182.4863, 0.0, 5.013983, 4.965185 
6.74377e+2, 2.0113589e+2, -971169.06, -1056684.5, -81.15094, -0.0027705915, 0.009513256, -971168.94, -2297.723, 0.0, 5.0139256, 4.9586544 
6.7437685e+2, 2.0609468e+2, -921765.1, -1007026.56, -125.24518, -0.0019428446, 0.006746575, -921764.94, -1489.8875, 0.0, 5.013906, 4.9587936 
6.743766e+2, 2.1105345e+2, -872544.44, -957776.6, -153.58707, -0.0011497434, 0.0036718647, -872544.2, -865.1833, 0.0, 5.0138884, 4.9587946 
6.743764e+2, 2.1601224e+2, -823991.1, -909984.06, -182.10472, -0.00037782956, 0.0007438675, -823990.75, -907.8824, 0.0, 5.0138702, 4.9582953 
6.743761e+2, 2.2096749e+2, -783751.44, -880390.25, -178.45378, -0.0005378852, 0.00539605, -783751.1, -9230.365, 0.0, 5.0138497, 4.9515314 
6.7437553e+2, 2.2591886e+2, -733984.56, -829950.1, -204.56578, -0.003382654, -0.0029599667, -733984.1, -7989.056, 0.0, 5.0138183, 4.951916 
6.74375e+2, 2.3087019e+2, -684730.5, -780640.25, -224.05228, -0.006425699, -0.012100865, -684730.0, -7260.439, 0.0, 5.0137844, 4.95192 
6.743744e+2, 2.3582153e+2, -636127.0, -732777.6, -241.58057, -0.00949994, -0.021310685, -636126.44, -7182.3555, 0.0, 5.0137496, 4.9514217 
6.743739e+2, 2.4076967e+2, -596817.3, -705490.5, -642.82, -0.010495143, -0.015738722, -596813.56, -16363.316, 0.0, 5.013697, 4.9437714 
6.7437345e+2, 2.4571517e+2, -547196.6, -655448.6, -847.6059, -0.0049943607, -0.0042860373, -547190.0, -15206.767, 0.0, 5.013663, 4.943989 
6.7437303e+2, 2.5066072e+2, -497826.16, -606073.5, -890.9334, 0.00092661136, 0.0074778944, -497818.8, -14302.893, 0.0, 5.013638, 4.9439826 
6.7437255e+2, 2.556063e+2, -448704.88, -557265.75, -937.08997, 0.0067611067, 0.019753797, -448696.78, -13648.621, 0.0, 5.013611, 4.943778 
6.743723e+2, 2.605467e+2, -410465.53, -533094.56, -1660.7052, 0.016042534, 0.0332732, -410443.06, -23813.154, 0.0, 5.0135984, 4.9348493 
6.743712e+2, 2.654798e+2, -358987.53, -478431.34, -2355.718, 0.023757534, -0.01116552, -358941.1, -20662.88, 0.0, 5.0134487, 4.9365587 
6.743695e+2, 2.7041268e+2, -309632.7, -428678.8, -2570.513, 0.028557228, -0.06337233, -309577.22, -19649.63, 0.0, 5.0132627, 4.936688 
6.7436767e+2, 2.7534556e+2, -260302.58, -379093.63, -2699.574, 0.031971645, -0.11835457, -260241.27, -18663.941, 0.0, 5.0130672, 4.93677 
6.743693e+2, 2.8027615e+2, -230259.38, -377783.66, 1863.7222, 0.04782704, -0.1020885, -230235.83, -36985.28, 0.0, 5.0137753, 4.919736 
6.743741e+2, 2.852048e+2, -173042.14, -313911.56, 1117.4181, 0.054803383, -0.04855596, -173033.28, -28084.473, 0.0, 5.014789, 4.9241986 
6.7437696e+2, 2.9013175e+2, -122243.484, -263503.56, 1338.0331, 0.049558032, -0.031654336, -122230.81, -25566.107, 0.0, 5.015234, 4.9242473 
6.743795e+2, 2.9505834e+2, -71420.75, -213141.05, 1667.4443, 0.043867353, -0.019244947, -71401.13, -23017.613, 0.0, 5.015657, 4.924296 
6.7438227e+2, 3.0000156e+2, -6635.455, -96600.89, 1844.6696, 0.04521869, 0.0085043525, -6597.6475, -6597.6475, 0.0, 5.016087, 4.9572477 
6.7438376e+2, 3.049625e+2, -420.90845, -83853.266, 1340.5024, 0.05814625, -0.009099343, -399.37625, -399.37625, 0.0, 5.016608, 4.9612885 
6.743842e+2, 3.099242e+2, 1485.5822, -81528.38, 640.0677, 0.06534519, -0.035644848, 1490.517, 1490.517, 0.0, 5.017117, 4.9618382 
6.7438376e+2, 3.1488726e+2, 3477.5276, -79289.06, -31.07219, 0.069197744, -0.053716388, 3477.5393, 3477.5393, 0.0, 5.0176015, 4.9623885 
6.793957e+2, 1.215287e+2, -1712645.8, -1749165.9, -1138.7285, 0.004016888, -0.013934647, -1712610.3, 36402.78, 0.0, 5.0137997, 4.989997 
6.793943e+2, 1.2651667e+2, -1669251.0, -1711581.0, -191.87996, -0.005541702, 0.0012894016, -1669250.1, 30881.117, 0.0, 5.013806, 4.986251 
6.793943e+2, 1.3150238e+2, -1620316.8, -1662618.3, -205.20724, -0.002475269, -0.0046048034, -1620315.8, 30955.9, 0.0, 5.013785, 4.9862494 
6.793943e+2, 1.3648805e+2, -1573666.1, -1618307.1, -314.41754, 0.0006241942, -0.009235004, -1573663.9, 28748.502, 0.0, 5.0137563, 4.9847097 
6.7939407e+2, 1.4147076e+2, -1531683.0, -1583795.1, -303.08685, 0.0024748568, -0.00036198267, -1531681.1, 21900.96, 0.0, 5.0137625, 4.9798255 
6.793934e+2, 1.4645067e+2, -1482489.6, -1534599.1, -339.85013, 0.0005601654, -0.0027401573, -1482487.4, 22291.947, 0.0, 5.013791, 4.9798546 
6.7939276e+2, 1.5143053e+2, -1433348.4, -1485500.9, -342.08878, -0.0014098939, -0.005371765, -1433346.1, 22630.64, 0.0, 5.013818, 4.9798536 
6.793921e+2, 1.5641038e+2, -1385690.6, -1439480.5, -430.38647, -0.0033792055, -0.007521749, -1385687.3, 21487.256, 0.0, 5.013842, 4.9788256 
6.793916e+2, 1.6138643e+2, -1344943.0, -1407932.8, -46.040684, -0.0045449054, -0.00373359, -1344942.9, 13466.265, 0.0, 5.0138693, 4.9729524 
6.793916e+2, 1.6635941e+2, -1295731.9, -1358731.3, 5.885894, -0.0046145697, -0.0062381937, -1295731.9, 13941.928, 0.0, 5.0138907, 4.9729657 
6.793916e+2, 1.7133239e+2, -1246555.3, -1309579.4, 14.9096155, -0.004657956, -0.008755911, -1246555.3, 14383.15, 0.0, 5.0139065, 4.9729657 
6.793916e+2, 1.7630535e+2, -1198585.1, -1262955.1, -1.5658776, -0.004713789, -0.010871988, -1198585.1, 13617.877, 0.0, 5.0139174, 4.972119 
6.7939156e+2, 1.8127482e+2, -1158403.8, -1232756.0, -96.40967, -0.0046159187, -0.0037288123, -1158403.6, 5099.197, 0.0, 5.013905, 4.965732 
6.793915e+2, 1.8624115e+2, -1109243.3, -1183452.9, -149.56949, -0.0034800123, -0.000804222, -1109242.9, 5592.159, 0.0, 5.013867, 4.965783 
6.793914e+2, 1.9120748e+2, -1060174.3, -1134312.1, -187.96788, -0.0023189746, 0.002116185, -1060173.8, 5993.5635, 0.0, 5.0138206, 4.9657836 
6.793913e+2, 1.9617385e+2, -1012036.2, -1087141.9, -214.49698, -0.0011671907, 0.005348085, -1012035.6, 5463.9604, 0.0, 5.0137687, 4.9651184 
6.7939115e+2, 2.0113647e+2, -971799.44, -1057101.6, -333.45953, -0.0004225272, 0.014045068, -971798.1, -2930.605, 0.0, 5.013734, 4.9586015 
6.7939085e+2, 2.0609507e+2, -922177.9, -1007300.7, -334.1767, -0.00024365401, 0.009678326, -922176.56, -1903.6152, 0.0, 5.0137806, 4.958758 
6.793906e+2, 2.1105362e+2, -872776.5, -957965.56, -339.97623, -0.00014971702, 0.0048511573, -872775.2, -1096.6987, 0.0, 5.0138254, 4.9587584 
6.793903e+2, 2.160122e+2, -824062.3, -910097.6, -346.66492, -0.000069150316, 0.00017268723, -824060.94, -976.9476, 0.0, 5.0138636, 4.958259 
6.7938995e+2, 2.2096731e+2, -783742.5, -880521.6, -357.62335, -0.0007255238, 0.003843928, -783741.2, -9218.104, 0.0, 5.0138826, 4.951471 
6.793894e+2, 2.259187e+2, -733976.8, -830073.56, -465.46924, -0.003218811, -0.0036997928, -733974.56, -7977.119, 0.0, 5.013849, 4.951859 
6.793889e+2, 2.3087007e+2, -684768.1, -780785.75, -574.45605, -0.0058130464, -0.011950986, -684764.7, -7292.8203, 0.0, 5.0137997, 4.951862 
6.793883e+2, 2.3582146e+2, -636242.7, -732959.3, -685.99506, -0.008428245, -0.020252189, -636237.8, -7291.494, 0.0, 5.0137386, 4.951363 
6.793878e+2, 2.4076962e+2, -596933.44, -705691.2, -1159.3936, -0.008535687, -0.013643069, -596921.06, -16468.865, 0.0, 5.013689, 4.943706 
6.793876e+2, 2.4571502e+2, -546934.4, -655378.0, -1338.8041, -0.00085358956, -0.0030179822, -546917.9, -14932.518, 0.0, 5.0137706, 4.9439654 
6.793874e+2, 2.5066042e+2, -497249.7, -605857.1, -1361.1609, 0.007363779, 0.0074549653, -497232.63, -13714.276, 0.0, 5.01386, 4.94396 
6.7938715e+2, 2.5560588e+2, -447846.7, -556918.5, -1380.876, 0.015528631, 0.018384969, -447829.2, -12778.199, 0.0, 5.013937, 4.943756 
6.793872e+2, 2.6054603e+2, -410108.47, -534282.94, -2108.6643, 0.027974375, 0.031847645, -410072.66, -23437.645, 0.0, 5.0140085, 4.9342484 
6.793865e+2, 2.6547882e+2, -358905.2, -480115.8, -3251.5234, 0.04016231, -0.009313806, -358818.03, -20528.354, 0.0, 5.0138345, 4.9357853 
6.793853e+2, 2.704114e+2, -310049.13, -430686.84, -4164.998, 0.049634084, -0.05810435, -309905.5, -19959.566, 0.0, 5.013495, 4.935876 
6.7938393e+2, 2.7534392e+2, -261573.25, -381565.8, -5214.272, 0.058009777, -0.10968003, -261347.08, -19744.018, 0.0, 5.013023, 4.9359193 
6.793863e+2, 2.802745e+2, -232468.56, -380040.16, -776.64355, 0.07860896, -0.08448994, -232464.47, -39185.582, 0.0, 5.0133195, 4.919116 
6.7939126e+2, 2.85203e+2, -173004.8, -311707.2, -1049.142, 0.079842076, -0.03771078, -172996.86, -28023.168, 0.0, 5.0144897, 4.92502 
6.7939395e+2, 2.901295e+2, -121683.25, -261186.02, -257.14844, 0.066569164, -0.035429474, -121682.77, -24994.59, 0.0, 5.01512, 4.9250417 
6.793964e+2, 2.9505572e+2, -70824.94, -210908.83, 434.47183, 0.053139, -0.03710458, -70823.59, -22418.148, 0.0, 5.01556, 4.925063 
6.7939895e+2, 2.9999867e+2, -8131.0894, -98689.89, 836.6281, 0.04799385, -0.016389202, -8123.3604, -8123.3604, 0.0, 5.015854, 4.9565415 
6.794003e+2, 3.0496073e+2, -3633.6719, -88092.82, 554.2346, 0.056369808, -0.013916004, -3630.0352, -3630.0352, 0.0, 5.015985, 4.95993 
6.794005e+2, 3.099236e+2, -3740.9385, -86741.34, 216.09555, 0.05933114, -0.020159416, -3740.376, -3740.376, 0.0, 5.015771, 4.9604263 
6.794001e+2, 3.1488758e+2, -4632.085, -85815.58, 126.57477, 0.059635766, -0.01996829, -4631.8877, -4631.8877, 0.0, 5.0152254, 4.9609227 
6.844096e+2, 1.2152911e+2, -1712383.1, -1749399.9, -595.0977, 0.0053775148, -0.013195111, -1712373.6, 36635.023, 0.0, 5.013959, 4.989844 
6.8440795e+2, 1.2651695e+2, -1668712.8, -1711381.3, 134.84087, -0.006987264, 0.0013668227, -1668712.4, 31415.857, 0.0, 5.013994, 4.986225 
6.84408e+2, 1.3150269e+2, -1619724.5, -1662386.1, 114.58736, -0.0033073502, -0.0042183856, -1619724.1, 31544.621, 0.0, 5.0139923, 4.9862256 
6.8440807e+2, 1.3648838e+2, -1573004.9, -1618053.6, 10.996406, 0.00047394613, -0.008503258, -1573004.9, 29404.799, 0.0, 5.0139904, 4.9846797 
6.8440795e+2, 1.4147109e+2, -1530804.6, -1583316.9, 62.030632, 0.0029594877, 0.00047351664, -1530804.5, 22774.922, 0.0, 5.014044, 4.979848 
6.8440735e+2, 1.4645095e+2, -1481514.5, -1534081.4, 55.746147, 0.00095249526, -0.0022909807, -1481514.4, 23262.291, 0.0, 5.014107, 4.9798746 
6.8440676e+2, 1.514308e+2, -1432268.0, -1484934.8, 80.987274, -0.001127215, -0.005300557, -1432267.9, 23706.316, 0.0, 5.0141706, 4.979873 
6.844061e+2, 1.5641065e+2, -1384510.1, -1438887.1, 20.069197, -0.0031940802, -0.007815727, -1384510.1, 22661.754, 0.0, 5.0142336, 4.978837 
6.844057e+2, 1.6138668e+2, -1343771.5, -1407368.5, 371.58044, -0.004018094, -0.004108274, -1343769.3, 14637.291, 0.0, 5.0142636, 4.9729533 
6.8440574e+2, 1.6635971e+2, -1294830.6, -1358318.6, 385.4924, -0.002817957, -0.0060746237, -1294828.3, 14842.629, 0.0, 5.0141983, 4.972958 
6.8440586e+2, 1.7133273e+2, -1245905.6, -1309289.9, 375.32645, -0.0015336558, -0.008029649, -1245903.5, 15031.691, 0.0, 5.0141296, 4.9729576 
6.844059e+2, 1.7630576e+2, -1198181.5, -1262800.5, 330.6076, -0.00023776099, -0.0095898695, -1198179.8, 14019.652, 0.0, 5.0140605, 4.9721045 
6.8440586e+2, 1.812752e+2, -1158147.4, -1232678.1, 263.70767, 0.00049798365, -0.0023016306, -1158146.4, 5353.009, 0.0, 5.013999, 4.965715 
6.844057e+2, 1.8624143e+2, -1108933.3, -1183369.5, 240.16551, 0.0005794481, -0.00014292596, -1108932.5, 5900.212, 0.0, 5.0139837, 4.9657574 
6.844055e+2, 1.9120769e+2, -1059774.1, -1134186.5, 231.48822, 0.00065538555, 0.0019919584, -1059773.4, 6392.7666, 0.0, 5.013969, 4.9657583 
6.844053e+2, 1.9617394e+2, -1011530.06, -1086969.6, 236.10591, 0.00076048175, 0.0044455873, -1011529.3, 5970.1646, 0.0, 5.0139537, 4.9650917 
6.844051e+2, 2.0113648e+2, -971072.8, -1056724.5, 231.90681, 0.00055336376, 0.012690008, -971072.2, -2204.2583, 0.0, 5.013975, 4.958618 
6.844048e+2, 2.0609517e+2, -921158.75, -1006742.94, 322.08838, -0.00012731107, 0.008848045, -921157.5, -885.4271, 0.0, 5.0141153, 4.958794 
6.8440455e+2, 2.1105383e+2, -871472.5, -957276.8, 371.2771, -0.00085467217, 0.0046196757, -871470.94, 205.37312, 0.0, 5.014261, 4.9587946 
6.844043e+2, 2.160125e+2, -822457.06, -909272.25, 420.2718, -0.0015502346, 0.0005475032, -822455.06, 625.4181, 0.0, 5.0144057, 4.958295 
6.84404e+2, 2.2096767e+2, -782138.7, -880082.9, 359.1461, -0.0022553257, 0.005007594, -782137.4, -7618.3286, 0.0, 5.0145025, 4.9513392 
6.844036e+2, 2.2591902e+2, -732545.1, -829936.8, 126.60064, -0.0027067773, -0.00080148445, -732545.0, -6549.8735, 0.0, 5.014453, 4.951633 
6.8440324e+2, 2.3087037e+2, -683370.44, -780673.0, -78.867935, -0.0030617295, -0.0071694995, -683370.4, -5898.93, 0.0, 5.014393, 4.9516344 
6.844029e+2, 2.3582168e+2, -634845.7, -732855.75, -282.7811, -0.0033803626, -0.013561378, -634844.9, -5897.0747, 0.0, 5.0143323, 4.9511337 
6.844026e+2, 2.4076973e+2, -595114.56, -704959.7, -655.3809, -0.0019955405, -0.0067091463, -595110.6, -14654.796, 0.0, 5.014336, 4.943675 
6.844024e+2, 2.4571472e+2, -544524.0, -654161.4, -704.0337, 0.0043729986, -0.0006102206, -544519.5, -12527.877, 0.0, 5.0145826, 4.944032 
6.844023e+2, 2.506597e+2, -494344.9, -604408.8, -651.5533, 0.011172261, 0.004985423, -494341.03, -10813.727, 0.0, 5.014849, 4.94403 
6.844021e+2, 2.556047e+2, -444420.75, -555229.06, -599.9408, 0.018043015, 0.0109406095, -444417.5, -9354.828, 0.0, 5.015113, 4.943829 
6.844023e+2, 2.6054478e+2, -406324.4, -533164.25, -974.6491, 0.030033974, 0.02320904, -406316.9, -19669.553, 0.0, 5.0154405, 4.9340234 
6.8440247e+2, 2.654782e+2, -354047.06, -479692.03, -1503.6532, 0.047635365, -0.005375853, -354029.06, -15728.963, 0.0, 5.0158277, 4.9351134 
6.844023e+2, 2.7041125e+2, -303260.0, -429744.13, -1670.3601, 0.064157754, -0.041001588, -303237.97, -13281.695, 0.0, 5.0161934, 4.935109 
6.84402e+2, 2.7534407e+2, -252509.34, -379968.47, -1762.7451, 0.08041299, -0.08007967, -252484.97, -10870.066, 0.0, 5.01655, 4.935057 
6.844047e+2, 2.8027442e+2, -221366.23, -373770.88, 3521.4326, 0.10414543, -0.053216822, -221284.92, -27987.635, 0.0, 5.017007, 4.9196796 
6.844086e+2, 2.8520262e+2, -165631.47, -306687.7, 2752.8271, 0.09531217, -0.016752854, -165577.77, -20579.645, 0.0, 5.016876, 4.925662 
6.844104e+2, 2.9012904e+2, -117136.695, -257748.94, 2341.8228, 0.072905146, -0.020317724, -117097.7, -20381.668, 0.0, 5.0165095, 4.9255977 
6.8441206e+2, 2.9505518e+2, -68602.84, -208833.66, 2024.1526, 0.051218107, -0.02715663, -68573.625, -20136.771, 0.0, 5.016121, 4.925534 
6.844138e+2, 2.9999828e+2, -7463.0713, -97650.02, 1923.677, 0.037682943, -0.009174885, -7422.058, -7422.058, 0.0, 5.015834, 4.9569283 
6.8441486e+2, 3.0496195e+2, -3299.295, -88479.69, 2316.803, 0.04013388, 0.00885098, -3236.3274, -3236.3274, 0.0, 5.0159955, 4.9598165 
6.84415e+2, 3.0992627e+2, -2240.756, -86669.055, 2607.3826, 0.040137127, 0.018817699, -2160.3096, -2160.3096, 0.0, 5.0161495, 4.9603043 
6.844145e+2, 3.148914e+2, -1119.5941, -84921.766, 2941.6604, 0.039358035, 0.030540517, -1016.4616, -1016.4616, 0.0, 5.0162783, 4.9607916 
6.894237e+2, 1.2152981e+2, -1712620.8, -1749860.8, -362.51126, 0.006478761, -0.012332624, -1712617.3, 36384.18, 0.0, 5.0139556, 4.9896936 
6.894219e+2, 1.265175e+2, -1668751.5, -1711447.1, 128.99893, -0.0077638533, 0.0011371966, -1668751.1, 31371.764, 0.0, 5.0139923, 4.9862046 
6.89422e+2, 1.3150325e+2, -1619761.8, -1662453.4, 110.66264, -0.0039827363, -0.0039820033, -1619761.4, 31502.02, 0.0, 5.0139904, 4.986204 
6.894221e+2, 1.3648897e+2, -1573053.1, -1618148.1, 26.91514, -0.00011329582, -0.007801626, -1573053.1, 29351.234, 0.0, 5.0139894, 4.984649 
6.8942195e+2, 1.414717e+2, -1530756.6, -1583211.9, 107.37765, 0.0026554754, 0.0013599243, -1530756.4, 22817.654, 0.0, 5.014043, 4.979883 
6.894215e+2, 1.4645156e+2, -1481467.9, -1533979.5, 101.82831, 0.00077533216, -0.0017522557, -1481467.6, 23303.453, 0.0, 5.0141068, 4.979909 
6.894209e+2, 1.5143141e+2, -1432221.5, -1484833.1, 127.7664, -0.0011968407, -0.0051177675, -1432221.1, 23747.314, 0.0, 5.0141697, 4.9799075 
6.8942034e+2, 1.5641125e+2, -1384474.5, -1438808.6, 67.82156, -0.003162198, -0.007989204, -1384474.4, 22691.53, 0.0, 5.014233, 4.9788637 
6.8942004e+2, 1.613873e+2, -1343773.6, -1407367.5, 342.00626, -0.0034453005, -0.0042892895, -1343771.8, 14628.679, 0.0, 5.0142627, 4.972954 
6.894202e+2, 1.663604e+2, -1294849.8, -1358353.0, 329.58353, -0.0007698294, -0.00549647, -1294848.0, 14816.337, 0.0, 5.014198, 4.9729466 
6.8942034e+2, 1.7133348e+2, -1245924.6, -1309323.9, 320.4515, 0.002009533, -0.0066553187, -1245923.0, 15005.147, 0.0, 5.0141287, 4.9729466 
6.894205e+2, 1.7630656e+2, -1198210.3, -1262854.8, 266.31403, 0.0047848574, -0.007420033, -1198209.1, 13982.9795, 0.0, 5.0140595, 4.9720864 
6.8942046e+2, 1.8127604e+2, -1158162.5, -1232702.0, 244.21667, 0.0061660595, 0.000009697886, -1158161.8, 5330.5244, 0.0, 5.0139976, 4.9657073 
6.894201e+2, 1.8624212e+2, -1108952.0, -1183401.0, 227.25375, 0.0049276296, 0.00074093597, -1108951.3, 5875.714, 0.0, 5.0139823, 4.9657474 
6.894198e+2, 1.9120818e+2, -1059792.8, -1134218.1, 219.99164, 0.0035862322, 0.0013887277, -1059792.1, 6369.6865, 0.0, 5.0139675, 4.965748 
6.8941945e+2, 1.9617426e+2, -1011550.1, -1087004.0, 226.8913, 0.002257102, 0.0023540019, -1011549.44, 5947.1934, 0.0, 5.0139527, 4.9650807 
6.894191e+2, 2.0113677e+2, -971029.44, -1056620.6, 300.89493, 0.000770053, 0.009816669, -971028.4, -2162.6836, 0.0, 5.0139737, 4.958654 
6.894189e+2, 2.060956e+2, -921079.1, -1006561.0, 431.04727, -0.0007560919, 0.007079933, -921077.0, -809.2087, 0.0, 5.014114, 4.958856 
6.894187e+2, 2.1105446e+2, -871393.25, -957095.4, 482.40182, -0.0023297279, 0.004049821, -871390.5, 279.22693, 0.0, 5.0142593, 4.958857 
6.8941844e+2, 2.1601331e+2, -822378.44, -909092.1, 533.4762, -0.0038945342, 0.0011737234, -822375.2, 696.5069, 0.0, 5.0144043, 4.958357 
6.8941826e+2, 2.209686e+2, -782342.75, -880510.4, 364.44455, -0.004597519, 0.0069271536, -782341.4, -7832.237, 0.0, 5.0144997, 4.951194 
6.8941814e+2, 2.2591989e+2, -732896.25, -830678.9, 89.99123, -0.0025519729, 0.003021591, -732896.2, -6908.8145, 0.0, 5.0144486, 4.9513793 
6.8941796e+2, 2.3087119e+2, -683720.75, -781409.5, -111.037926, -0.00029600924, -0.0013439727, -683720.6, -6254.6416, 0.0, 5.014388, 4.9513817 
6.894178e+2, 2.3582245e+2, -635195.3, -733586.8, -310.5047, 0.001952046, -0.005732119, -635194.3, -6249.683, 0.0, 5.0143266, 4.9508824 
6.894176e+2, 2.4077033e+2, -595184.4, -705012.56, -526.4384, 0.004753078, 0.0013194856, -595181.8, -14726.512, 0.0, 5.014322, 4.9436603 
6.894175e+2, 2.457149e+2, -544448.1, -653864.25, -499.11545, 0.008731629, 0.0022812842, -544445.9, -12451.971, 0.0, 5.014564, 4.9441404 
6.894173e+2, 2.5065947e+2, -494269.4, -604113.2, -441.139, 0.012782819, 0.0024193823, -494267.63, -10735.347, 0.0, 5.0148306, 4.9441376 
6.894171e+2, 2.5560403e+2, -444345.63, -554934.9, -384.03833, 0.016849363, 0.0029456415, -444344.28, -9273.978, 0.0, 5.0150948, 4.943937 
6.894174e+2, 2.6054403e+2, -406424.06, -533148.94, -616.40344, 0.0267291, 0.01354708, -406421.06, -19765.943, 0.0, 5.0154057, 4.934046 
6.8941844e+2, 2.654785e+2, -354574.22, -480266.22, -997.46515, 0.047085274, -0.0023569108, -354566.28, -16264.337, 0.0, 5.0157413, 4.9349513 
6.894192e+2, 2.7041274e+2, -303893.9, -430197.22, -1092.9098, 0.06659669, -0.023555122, -303884.47, -13933.216, 0.0, 5.016059, 4.9349966 
6.8941975e+2, 2.7534685e+2, -253249.97, -380300.56, -1114.0181, 0.08532613, -0.047800817, -253240.2, -11638.104, 0.0, 5.0163674, 4.934994 
6.8942267e+2, 2.802779e+2, -220681.56, -372443.7, 3312.7031, 0.108237155, -0.015548659, -220609.28, -27326.928, 0.0, 5.017037, 4.920173 
6.894257e+2, 2.8520536e+2, -164948.52, -306700.22, 2403.1514, 0.09484431, 0.012489405, -164907.78, -19912.334, 0.0, 5.017079, 4.9256907 
6.894267e+2, 2.901311e+2, -116513.664, -257587.83, 2091.8804, 0.06821588, 0.0033952005, -116482.65, -19757.875, 0.0, 5.0166826, 4.9256825 
6.8942744e+2, 2.950566e+2, -68040.3, -208499.34, 1873.9363, 0.04159343, -0.0092325555, -68015.3, -19558.543, 0.0, 5.016264, 4.925674 
6.8942827e+2, 2.9999948e+2, -6480.5264, -95811.95, 1940.655, 0.021480408, 0.0044996203, -6438.387, -6417.3066, 0.0, 5.0159225, 4.9576087 
6.894289e+2, 3.0496502e+2, -2701.976, -86887.375, 2592.788, 0.017463623, 0.036986537, -2622.1975, -2622.1975, 0.0, 5.015988, 4.96048 
6.894287e+2, 3.0993173e+2, -1963.2074, -85340.57, 3081.7385, 0.010429244, 0.06860547, -1849.4574, -1849.4574, 0.0, 5.016062, 4.9609265 
6.894279e+2, 3.1489938e+2, -1161.8323, -83856.89, 3614.4045, 0.000986204, 0.104720086, -1004.15594, -1004.15594, 0.0, 5.01611, 4.961373 
6.9443774e+2, 1.2153045e+2, -1712757.0, -1750114.0, -128.81404, 0.0072582923, -0.011891852, -1712756.5, 36238.18, 0.0, 5.0139523, 4.9896116 
6.9443583e+2, 1.2651807e+2, -1668790.8, -1711512.5, 124.13715, -0.008541881, 0.0009755552, -1668790.4, 31327.072, 0.0, 5.01399, 4.986184 
6.944359e+2, 1.3150384e+2, -1619799.5, -1662520.1, 107.71794, -0.0046517057, -0.0037056135, -1619799.3, 31458.822, 0.0, 5.013989, 4.9861827 
6.9443595e+2, 1.3648957e+2, -1573104.4, -1618247.1, 42.92539, -0.0006860037, -0.007087809, -1573104.4, 29294.596, 0.0, 5.0139885, 4.984617 
6.9443595e+2, 1.4147232e+2, -1530711.8, -1583112.8, 153.49446, 0.0023522428, 0.0022690806, -1530711.4, 22857.305, 0.0, 5.014042, 4.979916 
6.9443554e+2, 1.4645217e+2, -1481421.5, -1533877.5, 147.91634, 0.00059639226, -0.0011956157, -1481421.1, 23344.443, 0.0, 5.014106, 4.979943 
6.9443506e+2, 1.5143202e+2, -1432175.1, -1484731.5, 174.55139, -0.001267301, -0.0049292007, -1432174.5, 23788.148, 0.0, 5.014169, 4.979942 
6.9443464e+2, 1.5641186e+2, -1384439.0, -1438729.9, 115.45719, -0.0031302115, -0.008168987, -1384438.8, 22721.201, 0.0, 5.0142326, 4.97889 
6.944344e+2, 1.6138792e+2, -1343779.3, -1407373.0, 312.04422, -0.0028689008, -0.004452074, -1343777.8, 14616.574, 0.0, 5.014262, 4.9729514 
6.9443464e+2, 1.6636108e+2, -1294869.3, -1358387.3, 273.55908, 0.001281645, -0.004903434, -1294868.0, 14789.765, 0.0, 5.014197, 4.972935 
6.944349e+2, 1.7133422e+2, -1245944.0, -1309357.6, 265.461, 0.00555502, -0.0052791745, -1245942.9, 14978.327, 0.0, 5.014128, 4.9729347 
6.944351e+2, 1.763074e+2, -1198239.4, -1262908.9, 201.74214, 0.009808754, -0.0052614287, -1198238.8, 13946.02, 0.0, 5.0140586, 4.972068 
6.9443506e+2, 1.8127686e+2, -1158181.1, -1232732.5, 224.43848, 0.011839045, 0.0023439168, -1158180.5, 5304.5166, 0.0, 5.0139966, 4.965697 
6.944346e+2, 1.8624279e+2, -1108971.0, -1183432.3, 214.34872, 0.00928459, 0.0016416619, -1108970.4, 5850.8115, 0.0, 5.013981, 4.965737 
6.9443405e+2, 1.9120869e+2, -1059811.9, -1134249.4, 208.50177, 0.0065289023, 0.0007798688, -1059811.3, 6346.211, 0.0, 5.013966, 4.9657373 
6.944335e+2, 1.9617462e+2, -1011570.75, -1087038.6, 217.62558, 0.0037685803, 0.00023430787, -1011570.1, 5923.6533, 0.0, 5.0139513, 4.965069 
6.944331e+2, 2.0113704e+2, -970996.9, -1056539.3, 369.78085, 0.0009923963, 0.006999418, -970995.25, -2131.8906, 0.0, 5.0139723, 4.9586816 
6.944329e+2, 2.0609605e+2, -921000.06, -1006378.75, 540.0082, -0.0013839299, 0.0053733783, -920996.6, -733.2759, 0.0, 5.0141125, 4.958918 
6.944328e+2, 2.1105509e+2, -871314.44, -956913.6, 593.5285, -0.0038046914, 0.0035041075, -871310.3, 352.822, 0.0, 5.014258, 4.9589186 
6.944327e+2, 2.1601412e+2, -822300.4, -908911.7, 646.6818, -0.006239592, 0.0017866704, -822295.5, 767.36005, 0.0, 5.014403, 4.9584184 
6.9443256e+2, 2.2096951e+2, -782560.56, -880966.2, 367.34842, -0.006924437, 0.008892876, -782559.2, -8059.954, 0.0, 5.014497, 4.951038 
6.944326e+2, 2.2592078e+2, -733248.6, -831420.1, 51.724697, -0.0023895912, 0.0068643135, -733248.6, -7268.9966, 0.0, 5.014445, 4.9511247 
6.944326e+2, 2.3087199e+2, -684072.4, -782145.1, -144.86456, 0.0024616448, 0.0044227513, -684072.1, -6611.562, 0.0, 5.014383, 4.951128 
6.944327e+2, 2.3582321e+2, -635546.2, -734317.0, -339.88455, 0.007260744, 0.0019598894, -635545.06, -6603.468, 0.0, 5.0143204, 4.95063 
6.944327e+2, 2.4077095e+2, -595285.25, -705127.56, -408.95953, 0.011483454, 0.009551161, -595283.75, -14829.149, 0.0, 5.0143075, 4.943623 
6.944325e+2, 2.457151e+2, -544376.2, -653563.4, -294.08832, 0.013088871, 0.0055046263, -544375.4, -12379.525, 0.0, 5.014546, 4.9442477 
6.944324e+2, 2.506592e+2, -494197.8, -603813.8, -230.61655, 0.014400762, 0.00008751231, -494197.3, -10660.332, 0.0, 5.0148125, 4.944245 
6.9443214e+2, 2.5560337e+2, -444274.4, -554636.94, -168.02829, 0.015671862, -0.004912832, -444274.16, -9196.399, 0.0, 5.0150766, 4.9440436 
6.9443256e+2, 2.6054323e+2, -406641.06, -533371.7, -309.273, 0.023808016, 0.003592081, -406640.3, -19976.676, 0.0, 5.015371, 4.9339757 
6.9443434e+2, 2.654786e+2, -355116.2, -480828.94, -567.121, 0.046654202, -0.00094582647, -355113.63, -16808.287, 0.0, 5.015655, 4.93477 
6.944359e+2, 2.7041402e+2, -304542.47, -430638.66, -591.2562, 0.06862181, -0.009037684, -304539.7, -14591.514, 0.0, 5.0159245, 4.934865 
6.9443727e+2, 2.7534938e+2, -254005.05, -380620.8, -541.04443, 0.08929264, -0.019772125, -254002.73, -12411.082, 0.0, 5.016185, 4.934912 
6.944408e+2, 2.802814e+2, -220697.75, -372721.47, 3359.0085, 0.11296268, 0.023023866, -220623.58, -27356.338, 0.0, 5.0170674, 4.9200974 
6.944431e+2, 2.8520826e+2, -164300.86, -306679.44, 1949.5155, 0.095970884, 0.045712266, -164274.17, -19283.162, 0.0, 5.0172815, 4.9257 
6.9444317e+2, 2.9013327e+2, -115925.766, -257393.17, 1737.9341, 0.064460956, 0.029013792, -115904.42, -19171.766, 0.0, 5.0168552, 4.925748 
6.94443e+2, 2.95058e+2, -67512.7, -208131.31, 1619.6648, 0.032243036, 0.008522314, -67494.055, -19017.363, 0.0, 5.016407, 4.925795 
6.944429e+2, 3.0000058e+2, -5877.579, -94749.055, 1918.62, 0.0059467256, 0.01750675, -5836.178, -5787.984, 0.0, 5.0160108, 4.957987 
6.944432e+2, 3.0496782e+2, -2144.0444, -85256.89, 2913.4407, -0.0024110803, 0.062213447, -2042.0416, -2042.0416, 0.0, 5.0159807, 4.9611034 
6.9444275e+2, 3.099367e+2, -1725.0188, -83973.76, 3600.7388, -0.014681009, 0.110758774, -1567.6842, -1567.6842, 0.0, 5.015974, 4.9615088 
6.9444156e+2, 3.1490672e+2, -1243.461, -82753.57, 4331.8027, -0.030986225, 0.16653991, -1013.8967, -1013.8967, 0.0, 5.0159416, 4.9619145 
6.994518e+2, 1.2153096e+2, -1713243.5, -1750401.9, -214.29282, 0.0076053757, -0.011747443, -1713242.4, 35747.13, 0.0, 5.013801, 4.9895916 
6.994497e+2, 1.2651853e+2, -1669302.1, -1711804.5, -173.05554, -0.009242759, 0.0008320973, -1669301.4, 30811.576, 0.0, 5.0138288, 4.9861674 
6.9944984e+2, 1.3150431e+2, -1620329.5, -1662820.8, -167.64578, -0.0052438932, -0.0034844996, -1620328.8, 30924.73, 0.0, 5.0138206, 4.9861665 
6.994499e+2, 1.3649008e+2, -1573690.4, -1618600.4, -193.52933, -0.0011561862, -0.0064845597, -1573689.5, 28704.816, 0.0, 5.013807, 4.9845896 
6.9944996e+2, 1.4147285e+2, -1531279.4, -1583328.1, -40.966835, 0.0021734373, 0.003090678, -1531279.3, 22284.691, 0.0, 5.013839, 4.979944 
6.994496e+2, 1.4645271e+2, -1482066.9, -1534123.9, -59.55889, 0.00058455335, -0.00065517105, -1482066.8, 22693.902, 0.0, 5.0138745, 4.9799733 
6.9944924e+2, 1.5143256e+2, -1432908.8, -1485019.1, -44.72958, -0.0011158996, -0.004691532, -1432908.6, 23049.057, 0.0, 5.0139074, 4.9799724 
6.994488e+2, 1.5641238e+2, -1385278.8, -1439084.8, -115.32887, -0.0028136424, -0.008236389, -1385278.5, 21876.297, 0.0, 5.013938, 4.9789133 
6.9944865e+2, 1.6138847e+2, -1344684.6, -1407816.3, 10.104344, -0.0020489634, -0.0044640223, -1344684.6, 13704.375, 0.0, 5.013957, 4.9729495 
6.99449e+2, 1.6636167e+2, -1295673.1, -1358795.0, -39.112614, 0.0032982128, -0.0042516966, -1295673.1, 13979.001, 0.0, 5.0139284, 4.972926 
6.994493e+2, 1.7133489e+2, -1246644.3, -1309713.4, -33.247482, 0.008794595, -0.0039445166, -1246644.1, 14270.977, 0.0, 5.013894, 4.972926 
6.994496e+2, 1.7630813e+2, -1198857.9, -1263239.6, -93.83582, 0.014272287, -0.0032415325, -1198857.8, 13320.534, 0.0, 5.0138555, 4.9720526 
6.9944954e+2, 1.8127759e+2, -1158686.1, -1233000.3, -10.337018, 0.016847583, 0.0045407973, -1158686.1, 4792.5337, 0.0, 5.01383, 4.965685 
6.9944894e+2, 1.8624339e+2, -1109300.5, -1183611.9, -6.3501663, 0.013193665, 0.0025385292, -1109300.5, 5515.579, 0.0, 5.013873, 4.9657264 
6.994483e+2, 1.9120915e+2, -1059978.8, -1134351.8, -6.698607, 0.009271798, 0.00029991395, -1059978.8, 6175.028, 0.0, 5.013914, 4.965727 
6.994477e+2, 1.9617492e+2, -1011590.4, -1087073.9, 7.9534597, 0.0053479434, -0.0016204229, -1011590.4, 5900.914, 0.0, 5.0139503, 4.9650574 
6.9944715e+2, 2.0113727e+2, -970947.06, -1056475.4, 222.09743, 0.001510761, 0.004566378, -970946.44, -2085.086, 0.0, 5.0139823, 4.958698 
6.9944704e+2, 2.0609644e+2, -921175.9, -1006337.6, 385.12936, -0.0015599389, 0.003880131, -921174.1, -914.5234, 0.0, 5.014027, 4.9589705 
6.99447e+2, 2.1105562e+2, -871796.8, -957015.9, 394.95044, -0.0046414435, 0.0029466504, -871795.0, -137.47983, 0.0, 5.0140657, 4.9589715 
6.994469e+2, 2.1601479e+2, -823104.75, -909163.56, 404.48386, -0.0077304975, 0.0021487928, -823102.8, -47.39632, 0.0, 5.014098, 4.9584703 
6.994469e+2, 2.209703e+2, -783828.56, -881908.4, 22.169512, -0.008337041, 0.010493856, -783828.56, -9337.708, 0.0, 5.0141273, 4.950883 
6.994471e+2, 2.2592153e+2, -734379.25, -832495.5, -261.37347, -0.0017884931, 0.01036535, -734378.56, -8405.482, 0.0, 5.0141616, 4.9508824 
6.994473e+2, 2.3087269e+2, -684956.94, -783109.8, -393.9343, 0.0052203555, 0.009827616, -684955.3, -7499.2065, 0.0, 5.014186, 4.950884 
6.994475e+2, 2.3582387e+2, -636221.25, -735188.06, -531.3264, 0.01221247, 0.009249307, -636218.4, -7279.158, 0.0, 5.0141973, 4.950384 
6.9944763e+2, 2.407715e+2, -595530.25, -705397.0, -426.82568, 0.017705517, 0.01765643, -595528.56, -15074.259, 0.0, 5.0142546, 4.9435554 
6.994476e+2, 2.4571523e+2, -544229.7, -653306.94, -297.0492, 0.017263174, 0.008900569, -544228.9, -12230.422, 0.0, 5.0145636, 4.9443307 
6.994474e+2, 2.506589e+2, -493884.38, -603476.3, -323.16394, 0.016274847, -0.001964919, -493883.44, -10340.729, 0.0, 5.014892, 4.9443293 
6.994473e+2, 2.5560257e+2, -443821.6, -554230.6, -347.5874, 0.015276502, -0.012442829, -443820.5, -8733.916, 0.0, 5.015209, 4.9441295 
6.994479e+2, 2.605422e+2, -406555.66, -533796.4, -525.51086, 0.02251922, -0.006214012, -406553.47, -19878.957, 0.0, 5.015509, 4.9337673 
6.994504e+2, 2.6547837e+2, -355766.1, -481947.84, -970.7935, 0.048603974, -0.0001046691, -355758.63, -17446.059, 0.0, 5.015603, 4.934401 
6.994527e+2, 2.7041465e+2, -306120.63, -432243.2, -1409.5898, 0.074396886, 0.0036575699, -306104.88, -16153.448, 0.0, 5.0155563, 4.9344683 
6.9945484e+2, 2.753508e+2, -256830.67, -382839.66, -1951.8451, 0.09920209, 0.0045995945, -256800.45, -15209.003, 0.0, 5.0153875, 4.934489 
6.9945925e+2, 2.802836e+2, -225150.53, -375648.47, 1547.2813, 0.12700371, 0.060314186, -225134.63, -31870.719, 0.0, 5.015731, 4.919633 
6.994609e+2, 2.852102e+2, -167330.56, -307165.3, 304.0407, 0.10421732, 0.07924276, -167329.9, -22336.027, 0.0, 5.0161304, 4.9259567 
6.994599e+2, 2.901347e+2, -118244.12, -257659.22, 711.7, 0.064729385, 0.053288355, -118240.484, -21495.967, 0.0, 5.0159526, 4.9259768 
6.9945866e+2, 2.950589e+2, -69609.82, -208382.14, 1033.6118, 0.024900412, 0.023643633, -69602.125, -21104.387, 0.0, 5.015585, 4.925997 
6.994577e+2, 3.0000126e+2, -8388.253, -95472.16, 1777.41, -0.00770351, 0.028024767, -8351.99, -8277.455, 0.0, 5.01508, 4.9580717 
6.994577e+2, 3.0496994e+2, -5358.9463, -85355.055, 3054.1482, -0.017527023, 0.08137591, -5242.5127, -5242.5127, 0.0, 5.0146165, 4.9615655 
6.99457e+2, 3.0994037e+2, -6999.506, -84905.7, 4052.5046, -0.030021919, 0.13706918, -6789.271, -6789.271, 0.0, 5.0138617, 4.9619765 
6.994556e+2, 3.149118e+2, -9426.863, -84863.414, 5392.371, -0.045791853, 0.19849738, -9043.3545, -9043.3545, 0.0, 5.0127816, 4.962387 
7.0446545e+2, 1.2153126e+2, -1712123.3, -1749865.0, 85.10793, 0.005432445, -0.010675448, -1712123.0, 36864.375, 0.0, 5.014171, 4.989587 
7.044636e+2, 1.2651868e+2, -1668285.4, -1711183.6, 35.72304, -0.009692526, -0.00004769203, -1668285.4, 31826.656, 0.0, 5.0141373, 4.9862213 
7.0446366e+2, 1.3150455e+2, -1619465.4, -1662276.9, 92.138504, -0.0053606406, -0.004205104, -1619465.1, 31786.438, 0.0, 5.01408, 4.9862204 
7.044637e+2, 1.3649037e+2, -1572970.4, -1618152.9, 135.25943, -0.0009116808, -0.007021875, -1572969.9, 29421.56, 0.0, 5.0140243, 4.984633 
7.044639e+2, 1.414732e+2, -1530685.6, -1582971.4, 341.45865, 0.0029669201, 0.0028958167, -1530683.5, 22876.8, 0.0, 5.01402, 4.9799757 
7.044636e+2, 1.4645314e+2, -1481673.4, -1533906.9, 314.13367, 0.0020057003, -0.00039223238, -1481671.5, 23085.207, 0.0, 5.013998, 4.979987 
7.044633e+2, 1.5143305e+2, -1432681.0, -1484882.5, 324.3428, 0.00095031835, -0.0039637447, -1432679.0, 23274.486, 0.0, 5.013976, 4.9799867 
7.0446295e+2, 1.5641291e+2, -1385216.6, -1439041.8, 250.15936, -0.00009476624, -0.007046486, -1385215.5, 21934.848, 0.0, 5.0139537, 4.9789214 
7.0446277e+2, 1.6138905e+2, -1344627.0, -1407714.6, 398.5585, 0.0006771411, -0.0030432653, -1344624.5, 13759.795, 0.0, 5.0139575, 4.972985 
7.0446295e+2, 1.6636227e+2, -1295470.0, -1358616.4, 377.87653, 0.0046230485, -0.0030671519, -1295467.8, 14179.457, 0.0, 5.0139775, 4.9729643 
7.044631e+2, 1.713355e+2, -1246284.5, -1309459.1, 418.9456, 0.008687909, -0.0029927334, -1246281.8, 14628.406, 0.0, 5.0139966, 4.972965 
7.044633e+2, 1.7630875e+2, -1198340.4, -1262924.6, 382.6121, 0.012751572, -0.0025122855, -1198338.1, 13834.907, 0.0, 5.014015, 4.9720845 
7.044632e+2, 1.8127821e+2, -1157968.0, -1232594.1, 583.47156, 0.014663666, 0.005057074, -1157963.5, 5509.748, 0.0, 5.0140595, 4.965715 
7.044628e+2, 1.8624403e+2, -1108302.5, -1183088.8, 638.56256, 0.012027549, 0.0030393708, -1108297.0, 6512.9985, 0.0, 5.0142026, 4.96575 
7.044624e+2, 1.9120982e+2, -1058676.3, -1133686.5, 670.55286, 0.009208428, 0.0008238599, -1058670.3, 7476.8003, 0.0, 5.014349, 4.96575 
7.04462e+2, 1.9617563e+2, -1009973.94, -1086265.6, 718.73474, 0.006404546, -0.001066906, -1009967.2, 7516.9067, 0.0, 5.0144954, 4.9650793 
7.0446163e+2, 2.0113796e+2, -969286.1, -1055759.3, 849.8689, 0.003629909, 0.0048921593, -969277.75, -423.68427, 0.0, 5.014567, 4.95867 
7.044616e+2, 2.0609702e+2, -920008.0, -1005928.25, 905.8331, 0.0016961922, 0.0037037507, -919998.44, 255.16327, 0.0, 5.0144577, 4.958912 
7.044616e+2, 2.1105608e+2, -871090.56, -956824.44, 834.8554, -0.00019059224, 0.0022779526, -871082.44, 570.4221, 0.0, 5.0143366, 4.9589124 
7.044615e+2, 2.1601513e+2, -822840.6, -909180.8, 763.3874, -0.002056586, 0.00097460055, -822833.9, 218.26645, 0.0, 5.0142155, 4.9584117 
7.044615e+2, 2.209706e+2, -783766.8, -881935.4, 462.5066, -0.002351346, 0.009115737, -783764.6, -9276.199, 0.0, 5.014157, 4.950861 
7.0446163e+2, 2.2592191e+2, -734012.25, -832393.3, 377.92218, 0.0017598595, 0.010258391, -734010.8, -8041.0103, 0.0, 5.0142994, 4.9508576 
7.044617e+2, 2.308732e+2, -684215.6, -782846.44, 406.716, 0.00623568, 0.011149144, -684213.94, -6762.0864, 0.0, 5.0144563, 4.950856 
7.0446175e+2, 2.3582447e+2, -635073.06, -734751.0, 438.00568, 0.010784684, 0.011979449, -635071.1, -6137.096, 0.0, 5.014612, 4.9503527 
7.0446193e+2, 2.4077208e+2, -593966.7, -704794.1, 822.4079, 0.014374529, 0.02060215, -593960.56, -13511.081, 0.0, 5.0148125, 4.9435205 
7.044622e+2, 2.4571557e+2, -542510.1, -652730.8, 954.3715, 0.013807286, 0.010113597, -542501.9, -10505.079, 0.0, 5.0151944, 4.9442577 
7.044624e+2, 2.50659e+2, -491969.3, -602807.7, 843.9882, 0.012925155, -0.002430279, -491962.88, -8418.589, 0.0, 5.0155935, 4.944258 
7.044626e+2, 2.5560242e+2, -441686.03, -553459.94, 732.03107, 0.0121101, -0.014624766, -441681.22, -6589.77, 0.0, 5.01599, 4.944061 
7.0446354e+2, 2.605421e+2, -403837.6, -532267.06, 652.5842, 0.019046478, -0.008143935, -403834.28, -17154.506, 0.0, 5.0163846, 4.9339347 
7.0446634e+2, 2.6547915e+2, -352590.7, -480572.0, 884.7361, 0.045036517, 0.006568967, -352584.6, -14273.772, 0.0, 5.016668, 4.9344707 
7.0446914e+2, 2.7041623e+2, -302117.0, -430757.6, 1301.2366, 0.07166995, 0.01929185, -302103.84, -12160.414, 0.0, 5.0169234, 4.934469 
7.044717e+2, 2.7535304e+2, -251675.86, -381114.94, 1789.7249, 0.09805927, 0.028588261, -251651.13, -10072.651, 0.0, 5.0171714, 4.93442 
7.0447594e+2, 2.8028587e+2, -219307.72, -371049.22, 5782.607, 0.12554319, 0.081857644, -219087.69, -25836.707, 0.0, 5.017404, 4.920496 
7.044766e+2, 2.8521177e+2, -165171.78, -304952.7, 4200.637, 0.09865823, 0.08758039, -165045.66, -20063.637, 0.0, 5.0167217, 4.9264045 
7.044748e+2, 2.9013568e+2, -118199.06, -256654.1, 3823.3357, 0.056584436, 0.052920967, -118093.56, -21362.03, 0.0, 5.0157957, 4.926349 
7.044727e+2, 2.950593e+2, -71176.59, -208368.7, 3534.5862, 0.015114162, 0.014805275, -71085.59, -22601.574, 0.0, 5.0148516, 4.926294 
7.0447093e+2, 3.000014e+2, -10111.388, -94063.95, 3915.6873, -0.019045454, 0.011940617, -9929.148, -9872.071, 0.0, 5.0139437, 4.9590693 
7.0447034e+2, 3.049716e+2, -7322.145, -83994.125, 5351.724, -0.029649347, 0.07090824, -6950.3955, -6950.3955, 0.0, 5.0133324, 4.962642 
7.0446926e+2, 3.0994368e+2, -8371.376, -83124.87, 6231.84, -0.04038402, 0.13293402, -7855.419, -7855.419, 0.0, 5.0127273, 4.963121 
7.0446765e+2, 3.149165e+2, -9358.706, -82318.39, 7163.42, -0.05221082, 0.19707176, -8662.03, -8662.03, 0.0, 5.012102, 4.9635997 
7.0947933e+2, 1.2153182e+2, -1712060.8, -1749714.0, 154.82838, 0.0019787317, -0.009355833, -1712060.1, 36923.08, 0.0, 5.014168, 4.989638 
7.094777e+2, 1.2651907e+2, -1668175.0, -1710946.6, -11.92322, -0.010358251, -0.0011795547, -1668175.0, 31933.883, 0.0, 5.0141354, 4.9863 
7.094778e+2, 1.3150503e+2, -1619353.5, -1662042.4, 46.78421, -0.0055482415, -0.0051862504, -1619353.5, 31893.727, 0.0, 5.014079, 4.986298 
7.0947784e+2, 1.3649094e+2, -1572871.6, -1617951.5, 113.61046, -0.00064445956, -0.007857475, -1572871.4, 29514.365, 0.0, 5.0140243, 4.9846997 
7.09478e+2, 1.4147386e+2, -1530635.0, -1582864.3, 329.3324, 0.0038366728, 0.0024605358, -1530632.9, 22920.521, 0.0, 5.0140195, 4.9800115 
7.094778e+2, 1.4645387e+2, -1481652.0, -1533859.3, 295.08688, 0.003632141, -0.00018724299, -1481650.3, 23099.229, 0.0, 5.013998, 4.9800034 
7.0947754e+2, 1.5143386e+2, -1432659.8, -1484835.0, 305.99573, 0.0033430438, -0.0031044947, -1432658.0, 23287.889, 0.0, 5.0139756, 4.9800024 
7.0947725e+2, 1.5641382e+2, -1385203.0, -1439009.6, 234.44566, 0.0030574687, -0.005531263, -1385202.0, 21940.404, 0.0, 5.013953, 4.978933 
7.0947707e+2, 1.6139002e+2, -1344559.3, -1407570.4, 412.0597, 0.003706436, -0.0012206867, -1344556.5, 13819.609, 0.0, 5.0139575, 4.973033 
7.0947707e+2, 1.6636325e+2, -1295391.3, -1358449.0, 389.2017, 0.0056229793, -0.0017096289, -1295388.9, 14250.086, 0.0, 5.013977, 4.973021 
7.0947707e+2, 1.7133649e+2, -1246206.3, -1309292.0, 431.23953, 0.007580755, -0.0021219554, -1246203.3, 14698.357, 0.0, 5.0139966, 4.973021 
7.09477e+2, 1.7630972e+2, -1198272.4, -1262777.9, 384.13467, 0.009525123, -0.0021273359, -1198270.0, 13894.38, 0.0, 5.014015, 4.972134 
7.094769e+2, 1.8127921e+2, -1157909.4, -1232462.1, 669.9935, 0.010439902, 0.005135504, -1157903.4, 5560.852, 0.0, 5.0140586, 4.9657598 
7.0947677e+2, 1.8624508e+2, -1108250.8, -1182970.0, 747.8812, 0.009372214, 0.0034243208, -1108243.3, 6556.732, 0.0, 5.0142016, 4.9657903 
7.094767e+2, 1.9121096e+2, -1058624.4, -1133566.8, 781.51636, 0.008204291, 0.0015577106, -1058616.3, 7519.5815, 0.0, 5.014348, 4.9657907 
7.094766e+2, 1.9617683e+2, -1009923.44, -1086148.3, 830.9486, 0.007029889, 0.000010159039, -1009914.4, 7557.247, 0.0, 5.0144944, 4.965119 
7.094764e+2, 2.0113918e+2, -969349.0, -1055885.8, 808.9566, 0.0058333143, 0.0058848783, -969341.44, -500.0911, 0.0, 5.014566, 4.958627 
7.094764e+2, 2.0609806e+2, -920134.94, -1006194.8, 813.0984, 0.0055616847, 0.0038907167, -920127.25, 115.61303, 0.0, 5.0144567, 4.958821 
7.094764e+2, 2.1105696e+2, -871216.5, -957089.8, 744.2665, 0.005343321, 0.0016622936, -871210.06, 434.2321, 0.0, 5.0143356, 4.958822 
7.094764e+2, 2.1601586e+2, -822966.4, -909447.0, 674.80554, 0.005123846, -0.00043913673, -822961.1, 84.56011, 0.0, 5.014214, 4.95832 
7.094764e+2, 2.209712e+2, -783763.94, -881920.8, 510.14063, 0.005189049, 0.0072188484, -783761.25, -9278.018, 0.0, 5.0141554, 4.9508667 
7.094763e+2, 2.2592264e+2, -733960.7, -832263.5, 502.52393, 0.0057790303, 0.009263699, -733958.06, -7994.9673, 0.0, 5.014297, 4.9509044 
7.094761e+2, 2.3087408e+2, -684167.7, -782714.06, 536.33374, 0.006424088, 0.011222834, -684164.75, -6721.284, 0.0, 5.014452, 4.950904 
7.09476e+2, 2.3582546e+2, -635028.75, -734615.94, 572.6279, 0.007098449, 0.013129566, -635025.44, -6101.541, 0.0, 5.014607, 4.9504023 
7.0947605e+2, 2.4077316e+2, -594030.44, -704846.6, 1072.9227, 0.0076497216, 0.022049513, -594020.06, -13581.263, 0.0, 5.0148, 4.943506 
7.094767e+2, 2.4571651e+2, -542685.8, -653012.9, 1261.1936, 0.007267144, 0.010901331, -542671.4, -10682.5625, 0.0, 5.015179, 4.9441643 
7.094774e+2, 2.5065976e+2, -492143.84, -603091.2, 1157.2493, 0.006789648, -0.0021309783, -492131.78, -8592.642, 0.0, 5.015578, 4.9441643 
7.09478e+2, 2.5560305e+2, -441859.44, -553744.9, 1051.718, 0.0063040163, -0.014771674, -441849.56, -6760.468, 0.0, 5.015974, 4.943966 
7.094794e+2, 2.6054287e+2, -403500.63, -531305.4, 957.70795, 0.012535149, -0.0075831925, -403493.44, -16816.06, 0.0, 5.016356, 4.934284 
7.0948225e+2, 2.6548097e+2, -352184.3, -479094.0, 1272.26, 0.035148427, 0.013094602, -352171.56, -13872.251, 0.0, 5.0165915, 4.9350224 
7.094851e+2, 2.7041918e+2, -301820.88, -429170.1, 1761.2572, 0.05782976, 0.03278741, -301796.53, -11875.274, 0.0, 5.016801, 4.935069 
7.0948774e+2, 2.7535728e+2, -251490.05, -379417.9, 2322.194, 0.07979654, 0.049439006, -251447.9, -9903.143, 0.0, 5.017002, 4.935068 
7.094916e+2, 2.8029078e+2, -218310.97, -368974.13, 5195.1763, 0.102900475, 0.10201028, -218132.03, -24922.209, 0.0, 5.0174313, 4.9212475 
7.094915e+2, 2.8521553e+2, -164546.66, -304960.47, 3379.5647, 0.07847945, 0.094504304, -164465.36, -19521.34, 0.0, 5.016908, 4.926427 
7.0948905e+2, 2.9013824e+2, -117636.56, -256501.14, 3097.6409, 0.039839465, 0.048981678, -117567.49, -20871.666, 0.0, 5.0159516, 4.9264245 
7.0948637e+2, 2.950607e+2, -70677.23, -208055.38, 2904.2913, 0.0011605327, -0.00016251246, -70615.86, -22165.564, 0.0, 5.0149775, 4.926422 
7.0948386e+2, 3.000022e+2, -8618.095, -90946.18, 3300.342, -0.031483665, -0.012768924, -8486.003, -8464.543, 0.0, 5.014019, 4.960217 
7.0948267e+2, 3.0497402e+2, -5818.8066, -80229.65, 4947.7134, -0.04277668, 0.051598564, -5491.2656, -5491.2656, 0.0, 5.0133185, 4.9641056 
7.094809e+2, 3.0994815e+2, -7163.0146, -79560.05, 6014.2114, -0.05549166, 0.12513675, -6666.7993, -6666.7993, 0.0, 5.0126348, 4.9645596 
7.094786e+2, 3.1492326e+2, -8445.722, -78953.03, 7132.259, -0.070610076, 0.20322533, -7731.484, -7731.484, 0.0, 5.0119305, 4.9650145 
7.1449316e+2, 1.2153238e+2, -1711902.3, -1749365.5, 228.68266, -0.0017929107, -0.007902301, -1711900.9, 37078.184, 0.0, 5.0141644, 4.989753 
7.144918e+2, 1.2651946e+2, -1668065.4, -1710708.9, -58.29593, -0.011037283, -0.0022433882, -1668065.4, 32040.434, 0.0, 5.0141335, 4.986378 
7.1449184e+2, 1.3150549e+2, -1619242.4, -1661807.3, 2.7032616, -0.005738738, -0.006130457, -1619242.4, 32000.338, 0.0, 5.014078, 4.9863753 
7.144919e+2, 1.364915e+2, -1572770.5, -1617742.6, 92.97162, -0.00036933913, -0.008686814, -1572770.3, 29609.697, 0.0, 5.0140243, 4.9847684 
7.1449214e+2, 1.4147453e+2, -1530592.4, -1582773.0, 316.5067, 0.0047073564, 0.0020430873, -1530590.5, 22956.156, 0.0, 5.014019, 4.9800415 
7.1449196e+2, 1.4645462e+2, -1481630.8, -1533811.6, 275.98898, 0.005258636, 0.000030012596, -1481629.4, 23112.998, 0.0, 5.0139976, 4.980019 
7.144918e+2, 1.5143467e+2, -1432638.9, -1484787.4, 287.59756, 0.0057365904, -0.00224537, -1432637.4, 23301.043, 0.0, 5.013975, 4.9800186 
7.144915e+2, 1.5641473e+2, -1385189.3, -1438976.3, 218.58731, 0.00621129, -0.004028471, -1385188.4, 21946.188, 0.0, 5.0139527, 4.978944 
7.144913e+2, 1.6139096e+2, -1344495.8, -1407434.4, 425.8517, 0.006739328, 0.00062248297, -1344492.9, 13875.122, 0.0, 5.013957, 4.9730787 
7.144911e+2, 1.6636421e+2, -1295312.8, -1358281.3, 400.42654, 0.006625959, -0.00033289444, -1295310.3, 14320.369, 0.0, 5.013977, 4.973077 
7.144909e+2, 1.7133746e+2, -1246128.4, -1309124.6, 443.43317, 0.0064750616, -0.0012454379, -1246125.3, 14767.971, 0.0, 5.013996, 4.9730773 
7.144907e+2, 1.763107e+2, -1198205.3, -1262632.4, 385.4993, 0.006298622, -0.0017500784, -1198202.9, 13952.886, 0.0, 5.0140147, 4.972183 
7.144905e+2, 1.812802e+2, -1157856.6, -1232341.6, 755.5662, 0.006219302, 0.005241407, -1157848.9, 5606.3403, 0.0, 5.0140576, 4.9658 
7.144907e+2, 1.8624616e+2, -1108199.4, -1182850.8, 856.84174, 0.006715366, 0.0038297516, -1108189.5, 6600.269, 0.0, 5.0142, 4.9658303 
7.144909e+2, 1.912121e+2, -1058573.0, -1133446.8, 892.1216, 0.007192091, 0.0022879108, -1058562.4, 7562.1855, 0.0, 5.014347, 4.9658313 
7.144911e+2, 1.9617803e+2, -1009873.0, -1086029.8, 942.4885, 0.0076406007, 0.0010594614, -1009861.3, 7597.7983, 0.0, 5.0144935, 4.965159 
7.144912e+2, 2.0114039e+2, -969419.7, -1056028.4, 767.6472, 0.008039891, 0.006930059, -969412.94, -584.3509, 0.0, 5.0145645, 4.958578 
7.1449125e+2, 2.0609912e+2, -920262.4, -1006461.06, 720.3831, 0.009431875, 0.004128473, -920256.4, -24.264572, 0.0, 5.0144553, 4.9587297 
7.144913e+2, 2.1105783e+2, -871342.9, -957354.94, 653.6971, 0.010875026, 0.0010555272, -871337.9, 297.72397, 0.0, 5.014334, 4.9587307 
7.1449137e+2, 2.1601656e+2, -823092.56, -909712.9, 586.2412, 0.012295164, -0.0018858776, -823088.6, -49.458775, 0.0, 5.014213, 4.9582286 
7.144913e+2, 2.209718e+2, -783782.1, -881950.7, 556.13043, 0.012754398, 0.005361118, -783779.0, -9300.916, 0.0, 5.014154, 4.9508567 
7.14491e+2, 2.2592336e+2, -733910.3, -832132.75, 624.86487, 0.00982811, 0.008271609, -733906.3, -7949.8687, 0.0, 5.014294, 4.9509497 
7.1449065e+2, 2.3087493e+2, -684121.0, -782580.75, 663.6909, 0.006628882, 0.01120635, -684116.5, -6681.363, 0.0, 5.014448, 4.950951 
7.144903e+2, 2.3582648e+2, -634985.7, -734479.94, 704.98956, 0.0034150789, 0.014096732, -634980.7, -6066.8057, 0.0, 5.0146017, 4.9504504 
7.1449023e+2, 2.4077424e+2, -594123.44, -704957.06, 1316.0323, 0.000905914, 0.023685195, -594107.8, -13679.879, 0.0, 5.014788, 4.9434695 
7.1449125e+2, 2.4571747e+2, -542865.44, -653291.2, 1569.2664, 0.00071625604, 0.0120033575, -542843.1, -10862.575, 0.0, 5.0151634, 4.94407 
7.144924e+2, 2.5066057e+2, -492322.34, -603371.0, 1471.7609, 0.0006614276, -0.0016358899, -492302.84, -8769.097, 0.0, 5.015562, 4.944069 
7.1449345e+2, 2.556037e+2, -442036.8, -554026.1, 1372.6554, 0.00052325515, -0.014841302, -442019.97, -6933.446, 0.0, 5.0159583, 4.94387 
7.144951e+2, 2.6054356e+2, -403297.28, -530621.0, 1217.9752, 0.0064053833, -0.0072794394, -403285.63, -16609.895, 0.0, 5.016327, 4.9345274 
7.1449804e+2, 2.6548257e+2, -351791.53, -477606.2, 1586.9116, 0.025392195, 0.018034877, -351771.5, -13482.164, 0.0, 5.0165153, 4.9355545 
7.145009e+2, 2.7042195e+2, -301538.13, -427572.63, 2148.4114, 0.043606862, 0.043291382, -301501.53, -11600.461, 0.0, 5.0166783, 4.935649 
7.145035e+2, 2.7536127e+2, -251317.36, -377710.8, 2781.799, 0.06063659, 0.06589199, -251256.16, -9742.704, 0.0, 5.0168333, 4.935696 
7.145074e+2, 2.8029573e+2, -218041.95, -368568.97, 4852.1636, 0.080830105, 0.123071186, -217885.7, -24717.248, 0.0, 5.017459, 4.9214067 
7.145067e+2, 2.8521943e+2, -163950.39, -304941.5, 2461.4866, 0.059758056, 0.10556222, -163907.44, -19003.24, 0.0, 5.017094, 4.9264293 
7.145035e+2, 2.9014087e+2, -117102.75, -256321.16, 2274.8525, 0.023920244, 0.047085796, -117065.59, -20406.406, 0.0, 5.016108, 4.92648 
7.145002e+2, 2.950621e+2, -70206.39, -207714.75, 2176.8076, -0.012599037, -0.015177341, -70171.945, -21755.426, 0.0, 5.0151033, 4.92653 
7.1449697e+2, 3.0000284e+2, -7512.7817, -88646.97, 2644.9453, -0.04339508, -0.03805909, -7426.649, -7426.649, 0.0, 5.014095, 4.9610486 
7.144951e+2, 3.0497617e+2, -4347.0674, -76436.95, 4566.7466, -0.053629313, 0.029444454, -4058.9248, -4058.9248, 0.0, 5.0133047, 4.9655285 
7.1449274e+2, 3.0995217e+2, -5986.1475, -75966.59, 5819.454, -0.06691265, 0.109714724, -5505.5127, -5505.5127, 0.0, 5.012542, 4.9659586 
7.144898e+2, 3.149293e+2, -7564.1777, -75558.625, 7123.8203, -0.08391062, 0.1969736, -6825.828, -6825.828, 0.0, 5.011759, 4.966389 
7.19507e+2, 1.2153287e+2, -1712556.8, -1749339.8, 110.20563, -0.0053226617, -0.0063529294, -1712556.5, 36419.004, 0.0, 5.0138736, 4.9899044 
7.1950585e+2, 1.2651981e+2, -1668768.6, -1710891.6, -326.85593, -0.011466099, -0.0028655406, -1668766.1, 31336.893, 0.0, 5.013866, 4.9864497 
7.1950585e+2, 1.3150592e+2, -1619875.5, -1661954.3, -288.79202, -0.0058548455, -0.006775938, -1619873.6, 31365.295, 0.0, 5.013833, 4.986447 
7.195059e+2, 1.36492e+2, -1573368.9, -1617886.6, -196.42444, -0.00014528287, -0.009360866, -1573368.0, 29007.053, 0.0, 5.0137935, 4.9848332 
7.195062e+2, 1.4147511e+2, -1531217.4, -1583015.8, 24.81742, 0.00544562, 0.001693727, -1531217.4, 22323.283, 0.0, 5.013797, 4.9800696 
7.19506e+2, 1.4645527e+2, -1482241.3, -1534067.8, -6.811898, 0.0067156684, 0.00027203775, -1482241.3, 22494.77, 0.0, 5.013784, 4.9800377 
7.195059e+2, 1.5143542e+2, -1433230.3, -1485034.0, 18.196278, 0.0079343105, -0.0014033775, -1433230.3, 22701.447, 0.0, 5.0137672, 4.9800367 
7.195057e+2, 1.5641554e+2, -1385776.9, -1439230.9, -36.284912, 0.009152663, -0.0025797298, -1385776.9, 21350.57, 0.0, 5.013748, 4.9789577 
7.1950555e+2, 1.6139184e+2, -1345028.8, -1407597.0, 210.23282, 0.009601023, 0.0024245481, -1345028.1, 13332.453, 0.0, 5.013757, 4.97312 
7.195052e+2, 1.663651e+2, -1295786.0, -1358385.3, 175.33926, 0.007615265, 0.0010096938, -1295785.5, 13837.545, 0.0, 5.0137906, 4.973131 
7.1950483e+2, 1.7133833e+2, -1246574.8, -1309215.5, 210.15451, 0.005539085, -0.00040959724, -1246574.1, 14311.389, 0.0, 5.0138187, 4.9731317 
7.195044e+2, 1.7631158e+2, -1198652.5, -1262739.9, 131.56624, 0.003448606, -0.0014252318, -1198652.3, 13495.727, 0.0, 5.0138397, 4.97223 
7.195042e+2, 1.812811e+2, -1158371.8, -1232505.6, 571.30835, 0.002483017, 0.005322202, -1158367.4, 5079.7173, 0.0, 5.0138645, 4.9658356 
7.1950465e+2, 1.8624711e+2, -1108919.8, -1183108.0, 684.54034, 0.0043986454, 0.004215245, -1108913.5, 5867.085, 0.0, 5.0139356, 4.9658675 
7.1950513e+2, 1.9121313e+2, -1059529.6, -1133814.3, 711.00073, 0.006405238, 0.0029910742, -1059522.9, 6591.2383, 0.0, 5.014, 4.9658685 
7.195056e+2, 1.9617917e+2, -1011087.06, -1086516.0, 750.8226, 0.008402754, 0.0020753732, -1011079.6, 6368.001, 0.0, 5.0140567, 4.9651966 
7.195059e+2, 2.0114152e+2, -970904.75, -1056856.5, 438.77542, 0.010315889, 0.008013302, -970902.5, -2085.8022, 0.0, 5.0140786, 4.9585223 
7.19506e+2, 2.0610008e+2, -921561.94, -1007280.2, 348.33423, 0.0130918445, 0.004381801, -921560.5, -1338.2595, 0.0, 5.0140486, 4.958638 
7.1950614e+2, 2.1105863e+2, -872405.25, -958060.4, 282.15533, 0.015934411, 0.00041253454, -872404.3, -776.40643, 0.0, 5.0140085, 4.958639 
7.195062e+2, 2.1601717e+2, -823938.5, -910316.44, 214.20248, 0.018771479, -0.003416124, -823938.0, -904.3708, 0.0, 5.0139623, 4.958136 
7.1950614e+2, 2.2097227e+2, -784343.5, -882266.1, 320.22598, 0.019581137, 0.0034660099, -784342.5, -9868.615, 0.0, 5.0139694, 4.950833 
7.1950567e+2, 2.2592397e+2, -734266.9, -832197.4, 467.65674, 0.0134565085, 0.0071847793, -734264.6, -8313.844, 0.0, 5.014149, 4.9509935 
7.1950513e+2, 2.3087567e+2, -684396.7, -782606.0, 511.31635, 0.006802017, 0.011001497, -684394.0, -6966.249, 0.0, 5.014332, 4.9509945 
7.195046e+2, 2.3582736e+2, -635206.75, -734477.5, 553.9699, 0.00014968845, 0.014794404, -635203.6, -6298.8677, 0.0, 5.014505, 4.9504943 
7.1950454e+2, 2.4077524e+2, -594554.94, -705301.75, 1246.0393, -0.0050446624, 0.025357569, -594540.94, -14123.132, 0.0, 5.014667, 4.943405 
7.1950585e+2, 2.4571833e+2, -543893.25, -654014.5, 1515.801, -0.005003262, 0.013279729, -543872.4, -11899.273, 0.0, 5.0148525, 4.9439588 
7.195074e+2, 2.5066125e+2, -493962.97, -604373.25, 1375.6256, -0.004490816, -0.0010798941, -493945.8, -10416.348, 0.0, 5.0150332, 4.943958 
7.195088e+2, 2.556042e+2, -444317.0, -555316.4, 1233.5349, -0.0040008016, -0.015030754, -444303.3, -9217.836, 0.0, 5.0152016, 4.943758 
7.1951085e+2, 2.6054397e+2, -405921.5, -531615.56, 941.6004, 0.0021832213, -0.007414025, -405914.44, -19237.836, 0.0, 5.0153594, 4.9346104 
7.195138e+2, 2.654837e+2, -354681.44, -478145.8, 983.1127, 0.018236004, 0.021517353, -354673.63, -16389.982, 0.0, 5.01534, 4.935882 
7.195166e+2, 2.704239e+2, -305389.5, -428606.25, 1031.9966, 0.033335917, 0.050900176, -305380.88, -15493.097, 0.0, 5.0151772, 4.935948 
7.1951914e+2, 2.7536398e+2, -256466.69, -379370.88, 968.9827, 0.04763293, 0.07764416, -256459.06, -14966.117, 0.0, 5.0148883, 4.9359665 
7.1952325e+2, 2.802992e+2, -225367.02, -372433.1, 2215.1838, 0.06812762, 0.14243403, -225333.66, -32194.117, 0.0, 5.01502, 4.921082 
7.1952224e+2, 2.852223e+2, -169337.89, -306715.94, -423.20993, 0.04833555, 0.11764462, -169336.6, -24462.488, 0.0, 5.015127, 4.926571 
7.195183e+2, 2.9014271e+2, -120945.93, -257507.64, -371.8054, 0.012618579, 0.04561677, -120944.92, -24313.889, 0.0, 5.0146923, 4.9265943 
7.1951425e+2, 2.9506287e+2, -73011.92, -208527.11, -407.46466, -0.02326672, -0.029917127, -73010.7, -24620.357, 0.0, 5.014067, 4.9266176 
7.195103e+2, 3.0000296e+2, -9391.546, -88350.18, -7.5036235, -0.052011352, -0.062010415, -9391.545, -9391.545, 0.0, 5.0132437, 4.9614744 
7.195079e+2, 3.049774e+2, -5985.1343, -74340.97, 1782.6843, -0.058784965, 0.0048638894, -5938.6743, -5938.6743, 0.0, 5.0122094, 4.9666967 
7.1950495e+2, 3.0995455e+2, -9327.613, -74583.67, 2945.5115, -0.068002254, 0.08194424, -9194.929, -9194.929, 0.0, 5.0108304, 4.9671216 
7.1950144e+2, 3.1493273e+2, -13539.722, -75268.01, 4355.663, -0.07969453, 0.16443293, -13233.893, -13233.893, 0.0, 5.009099, 4.9675465 
7.2452074e+2, 1.21533416e+2, -1712056.6, -1749123.3, 574.4533, -0.005555595, -0.004457979, -1712047.8, 36924.355, 0.0, 5.0140424, 4.9898944 
7.245198e+2, 1.265205e+2, -1668286.6, -1710578.5, 50.582832, -0.010217769, 0.000077156044, -1668286.5, 31811.48, 0.0, 5.0140076, 4.986484 
7.245197e+2, 1.3150653e+2, -1619444.8, -1661662.8, 70.85949, -0.005473424, -0.004895256, -1619444.6, 31789.691, 0.0, 5.0139575, 4.9864826 
7.2451967e+2, 1.3649254e+2, -1572966.1, -1617610.1, 169.2972, -0.00055676466, -0.008534568, -1572965.5, 29405.477, 0.0, 5.01391, 4.984868 
7.245199e+2, 1.4147563e+2, -1530753.8, -1582645.6, 398.00354, 0.004690683, 0.001937561, -1530750.6, 22785.912, 0.0, 5.0139194, 4.980134 
7.245198e+2, 1.4645588e+2, -1481770.8, -1533691.3, 397.74423, 0.0063126637, 0.0007685001, -1481767.6, 22963.295, 0.0, 5.0139084, 4.980104 
7.2451967e+2, 1.5143612e+2, -1432747.8, -1484654.4, 458.07162, 0.007914708, -0.0006124983, -1432743.6, 23182.014, 0.0, 5.013897, 4.9801025 
7.2451955e+2, 1.5641636e+2, -1385283.0, -1438864.5, 444.13702, 0.009527238, -0.0014811396, -1385279.3, 21841.258, 0.0, 5.0138855, 4.979016 
7.245194e+2, 1.613927e+2, -1344497.9, -1407220.5, 758.78253, 0.010201379, 0.0036136415, -1344488.8, 13864.189, 0.0, 5.0139093, 4.973175 
7.24519e+2, 1.6636595e+2, -1295206.8, -1358006.1, 725.3988, 0.0080639385, 0.0017802863, -1295198.4, 14416.826, 0.0, 5.013964, 4.9731774 
7.2451866e+2, 1.713392e+2, -1245917.5, -1308802.1, 757.5724, 0.005844482, -0.000077123856, -1245908.4, 14969.025, 0.0, 5.014019, 4.9731774 
7.245183e+2, 1.7631243e+2, -1197909.3, -1262302.9, 666.3083, 0.0036365932, -0.0015385306, -1197902.4, 14237.336, 0.0, 5.0140734, 4.972269 
7.2451806e+2, 1.8128197e+2, -1157648.5, -1232092.6, 1097.7657, 0.0026785808, 0.0049693407, -1157632.3, 5806.324, 0.0, 5.014094, 4.9658675 
7.245186e+2, 1.8624806e+2, -1108529.5, -1182869.1, 1190.8398, 0.0049512237, 0.004275263, -1108510.4, 6260.82, 0.0, 5.014055, 4.9658937 
7.2451913e+2, 1.9121414e+2, -1059457.4, -1133727.8, 1212.206, 0.0073803444, 0.0035075778, -1059437.6, 6666.2915, 0.0, 5.0140104, 4.9658947 
7.2451967e+2, 1.9618025e+2, -1011308.44, -1086570.0, 1245.4354, 0.009844504, 0.0030496318, -1011287.9, 6148.616, 0.0, 5.0139666, 4.9652224 
7.2451997e+2, 2.0114261e+2, -971348.75, -1057168.9, 974.42303, 0.011910899, 0.009080665, -971337.7, -2532.2603, 0.0, 5.013944, 4.9584794 
7.2452e+2, 2.06101e+2, -921691.94, -1007514.6, 925.8249, 0.013621173, 0.004411359, -921681.94, -1469.1489, 0.0, 5.014037, 4.9585643 
7.245201e+2, 2.1105936e+2, -872134.3, -958107.4, 876.64233, 0.015349917, -0.0006399759, -872125.4, -504.87234, 0.0, 5.0141363, 4.9585648 
7.245201e+2, 2.1601771e+2, -823252.44, -910173.1, 826.01605, 0.017109985, -0.0055432073, -823244.6, -216.42339, 0.0, 5.014235, 4.9580607 
7.245201e+2, 2.209727e+2, -783170.56, -881674.06, 1058.8506, 0.017188715, 0.0005040444, -783159.2, -8689.574, 0.0, 5.0143657, 4.9508553 
7.245198e+2, 2.2592448e+2, -732904.06, -831401.94, 1275.188, 0.011327236, 0.0045286734, -732887.56, -6942.821, 0.0, 5.014589, 4.951069 
7.2451955e+2, 2.3087631e+2, -682911.8, -781759.5, 1347.5283, 0.0050546876, 0.008764356, -682893.44, -5473.848, 0.0, 5.0148163, 4.9510694 
7.2451925e+2, 2.3582813e+2, -633575.2, -733569.3, 1421.2869, -0.0011628448, 0.012998984, -633555.0, -4660.4976, 0.0, 5.0150433, 4.950568 
7.245194e+2, 2.4077608e+2, -593138.4, -704797.3, 2024.4661, -0.005981056, 0.024018763, -593101.7, -12695.334, 0.0, 5.0151854, 4.9433527 
7.245207e+2, 2.4571912e+2, -543528.8, -654226.56, 2202.305, -0.0058620283, 0.012883351, -543485.0, -11521.215, 0.0, 5.015041, 4.9438095 
7.245222e+2, 2.50662e+2, -494584.38, -605038.6, 2058.3232, -0.0051410818, -0.00046258836, -494546.03, -11023.417, 0.0, 5.01487, 4.9438076 
7.2452354e+2, 2.556049e+2, -445886.38, -556414.9, 1912.0239, -0.004289192, -0.013479664, -445853.3, -10772.176, 0.0, 5.014697, 4.9436073 
7.2452545e+2, 2.6054475e+2, -407555.8, -531766.1, 1899.7528, 0.00051047985, -0.005224247, -407526.75, -20854.242, 0.0, 5.014618, 4.934908 
7.2452784e+2, 2.6548478e+2, -355669.56, -477747.13, 2449.9114, 0.009429395, 0.023082977, -355620.4, -17347.43, 0.0, 5.014735, 4.9363413 
7.245301e+2, 2.704252e+2, -305628.8, -428109.4, 3083.3013, 0.017588291, 0.051476117, -305551.25, -15680.3125, 0.0, 5.014848, 4.93634 
7.2453225e+2, 2.753654e+2, -255623.77, -378634.6, 3781.2854, 0.025658771, 0.07699685, -255507.64, -14036.722, 0.0, 5.0149536, 4.9362907 
7.245355e+2, 2.8030032e+2, -224591.02, -371299.47, 5336.781, 0.040790066, 0.1353873, -224397.14, -31279.953, 0.0, 5.015098, 4.9214153 
7.245346e+2, 2.852227e+2, -171287.98, -308428.66, 1932.1493, 0.026868975, 0.105528854, -171260.77, -26400.918, 0.0, 5.01461, 4.926106 
7.2453105e+2, 2.9014248e+2, -123664.31, -259821.94, 751.27234, 0.0008092318, 0.03269658, -123660.17, -27035.63, 0.0, 5.013913, 4.926059 
7.245275e+2, 2.95062e+2, -75999.164, -211228.83, -348.14612, -0.024406945, -0.043172974, -75998.266, -27606.46, 0.0, 5.0131984, 4.926011 
7.245238e+2, 3.0000162e+2, -10824.151, -88285.02, -901.7146, -0.04399265, -0.07699287, -10813.656, -10813.656, 0.0, 5.0124755, 4.9618354 
7.2452056e+2, 3.0497634e+2, -5711.609, -72404.086, 382.61118, -0.051111177, -0.014769469, -5709.4136, -5709.4136, 0.0, 5.0117874, 4.9676275 
7.2451687e+2, 3.0995378e+2, -7153.4116, -71824.54, 984.5027, -0.05966239, 0.05585985, -7138.4277, -7138.4277, 0.0, 5.0110583, 4.9680614 
7.2451264e+2, 3.1493193e+2, -8540.747, -71300.29, 1607.6652, -0.068324104, 0.12841891, -8499.592, -8499.592, 0.0, 5.0103087, 4.968495 
7.295348e+2, 1.215344e+2, -1712056.4, -1749115.0, 588.13574, -0.0057974625, -0.0015558586, -1712047.1, 36917.492, 0.0, 5.014041, 4.9898977 
7.295339e+2, 1.2652159e+2, -1668235.4, -1710476.9, 7.816058, -0.008906176, 0.0038913696, -1668235.4, 31853.71, 0.0, 5.0140076, 4.986518 
7.295337e+2, 1.3150752e+2, -1619393.1, -1661562.5, 29.961859, -0.0051757656, -0.0023898513, -1619393.1, 31833.047, 0.0, 5.0139585, 4.986516 
7.295335e+2, 1.3649344e+2, -1572913.8, -1617511.3, 160.29254, -0.0012900453, -0.0073321364, -1572913.1, 29450.418, 0.0, 5.013911, 4.984901 
7.295337e+2, 1.414765e+2, -1530642.0, -1582415.5, 387.9141, 0.0033642468, 0.0023603402, -1530639.1, 22890.14, 0.0, 5.0139194, 4.9802103 
7.2953355e+2, 1.4645687e+2, -1481648.6, -1533438.9, 387.07254, 0.005261284, 0.0013692941, -1481645.8, 23076.783, 0.0, 5.0139084, 4.9801884 
7.295335e+2, 1.514372e+2, -1432626.4, -1484403.0, 448.0852, 0.007155094, 0.00020009119, -1432622.5, 23293.592, 0.0, 5.013897, 4.9801865 
7.295334e+2, 1.5641752e+2, -1385175.8, -1438641.9, 441.42188, 0.009052072, -0.0004534588, -1385172.0, 21937.791, 0.0, 5.0138855, 4.9790907 
7.2953326e+2, 1.6139396e+2, -1344408.1, -1407033.8, 792.12573, 0.010022347, 0.0046537677, -1344398.0, 13943.347, 0.0, 5.01391, 4.9732375 
7.29533e+2, 1.6636722e+2, -1295138.9, -1357865.3, 764.55493, 0.008204232, 0.0023969915, -1295129.6, 14473.766, 0.0, 5.013964, 4.973225 
7.295328e+2, 1.7134045e+2, -1245850.5, -1308661.5, 797.8327, 0.006285331, 0.00011044606, -1245840.4, 15025.041, 0.0, 5.014019, 4.9732246 
7.295325e+2, 1.763137e+2, -1197850.8, -1262178.8, 696.76996, 0.0043617, -0.0017772771, -1197843.3, 14284.201, 0.0, 5.0140734, 4.972311 
7.295323e+2, 1.8128325e+2, -1157606.3, -1231996.8, 1086.1749, 0.0036152888, 0.004531026, -1157590.4, 5835.603, 0.0, 5.014093, 4.9659 
7.295328e+2, 1.862494e+2, -1108495.5, -1182789.3, 1154.9949, 0.0060453964, 0.004276897, -1108477.5, 6280.1855, 0.0, 5.0140533, 4.9659204 
7.2953326e+2, 1.9121557e+2, -1059424.5, -1133648.4, 1177.857, 0.008619362, 0.0039885477, -1059405.9, 6683.6694, 0.0, 5.0140095, 4.9659214 
7.2953373e+2, 1.9618174e+2, -1011277.1, -1086491.8, 1209.2257, 0.011206492, 0.00401116, -1011257.7, 6163.5557, 0.0, 5.0139647, 4.965249 
7.29534e+2, 2.0114413e+2, -971411.56, -1057292.0, 1005.656, 0.012990086, 0.010211869, -971399.8, -2609.8203, 0.0, 5.0139427, 4.9584374 
7.29534e+2, 2.0610236e+2, -921784.25, -1007704.75, 998.2298, 0.0130732935, 0.004462525, -921772.7, -1573.5035, 0.0, 5.0140357, 4.9584994 
7.29534e+2, 2.1106054e+2, -872225.7, -958297.7, 951.1433, 0.013061864, -0.0017436432, -872215.2, -606.38513, 0.0, 5.014135, 4.9585 
7.295339e+2, 2.160187e+2, -823344.5, -910367.25, 902.32513, 0.013053775, -0.0078032883, -823335.1, -316.74664, 0.0, 5.014234, 4.957994 
7.295339e+2, 2.2097357e+2, -783126.1, -881565.0, 1204.4318, 0.012075614, -0.002737903, -783111.4, -8650.443, 0.0, 5.0143642, 4.950893 
7.29534e+2, 2.2592545e+2, -732793.75, -831141.7, 1454.6564, 0.0074292906, 0.0014177569, -732772.25, -6838.1406, 0.0, 5.0145864, 4.9511585 
7.295341e+2, 2.3087738e+2, -682803.2, -781497.4, 1531.2529, 0.0024874508, 0.005852103, -682779.44, -5372.645, 0.0, 5.0148134, 4.95116 
7.295342e+2, 2.358293e+2, -633468.25, -733305.1, 1609.2502, -0.0024465236, 0.010275343, -633442.3, -4562.7935, 0.0, 5.0150394, 4.9506598 
7.2953457e+2, 2.4077736e+2, -593248.75, -704954.7, 2015.1589, -0.006251511, 0.021828549, -593212.44, -12822.449, 0.0, 5.015173, 4.9433017 
7.295357e+2, 2.4572043e+2, -543762.9, -654644.5, 2074.4817, -0.0061338055, 0.012247766, -543724.06, -11775.113, 0.0, 5.015025, 4.94367 
7.29537e+2, 2.5066334e+2, -494812.13, -605456.44, 1936.515, -0.0055694906, 0.00057856855, -494778.25, -11268.688, 0.0, 5.014856, 4.9436665 
7.2953826e+2, 2.5560623e+2, -446107.88, -556832.6, 1796.2377, -0.004939109, -0.010762912, -446078.72, -11008.85, 0.0, 5.014684, 4.943465 
7.2953975e+2, 2.605462e+2, -407085.2, -530538.9, 1994.1752, -0.002568953, -0.0018247041, -407053.0, -20392.018, 0.0, 5.014594, 4.9353476 
7.2954136e+2, 2.6548657e+2, -354892.66, -475492.97, 2726.808, -0.0041286713, 0.023039555, -354831.03, -16577.297, 0.0, 5.0146675, 4.9371586 
7.295428e+2, 2.7042744e+2, -304957.97, -425765.9, 3423.9243, -0.007696129, 0.047909603, -304861.0, -15018.385, 0.0, 5.0147386, 4.9371986 
7.29544e+2, 2.7536812e+2, -255058.95, -376201.7, 4185.5757, -0.011858085, 0.07030558, -254914.52, -13481.804, 0.0, 5.0148015, 4.937191 
7.295464e+2, 2.803032e+2, -224327.17, -370972.25, 4890.534, -0.0065434175, 0.12289811, -224164.25, -31090.418, 0.0, 5.015132, 4.921546 
7.295459e+2, 2.852246e+2, -171922.5, -311367.34, 1297.9282, -0.0076561957, 0.090664074, -171910.42, -27080.682, 0.0, 5.014792, 4.925084 
7.295433e+2, 2.901433e+2, -124358.33, -262617.94, 204.21477, -0.017209964, 0.018495064, -124358.02, -27749.473, 0.0, 5.014065, 4.925082 
7.2954065e+2, 2.9506186e+2, -76752.97, -213882.48, -807.9328, -0.026541362, -0.05675962, -76748.21, -28358.596, 0.0, 5.01332, 4.9250803 
7.2953755e+2, 3.0000067e+2, -10285.903, -87508.97, -1456.1732, -0.033719424, -0.09174178, -10258.454, -10258.454, 0.0, 5.0125546, 4.9621296 
7.2953343e+2, 3.0497566e+2, -4483.147, -69573.6, -122.0058, -0.042650376, -0.03413256, -4482.9185, -4482.9185, 0.0, 5.0118012, 4.968734 
7.2952867e+2, 3.0995357e+2, -6160.875, -69229.57, 649.7918, -0.056022532, 0.034439575, -6154.181, -6154.181, 0.0, 5.0110173, 4.969124 
7.2952336e+2, 3.1493235e+2, -7784.466, -68940.74, 1442.9753, -0.07082145, 0.10696404, -7750.438, -7750.438, 0.0, 5.010213, 4.969514 
7.345488e+2, 1.2153547e+2, -1711967.3, -1748924.3, 607.6143, -0.006351379, 0.0023506826, -1711957.3, 36998.92, 0.0, 5.01404, 4.9899607 
7.345481e+2, 1.2652269e+2, -1668184.8, -1710374.6, -34.296173, -0.007589688, 0.007762718, -1668184.6, 31895.422, 0.0, 5.014008, 4.986552 
7.3454773e+2, 1.3150853e+2, -1619342.1, -1661461.8, -10.281411, -0.004869091, 0.00014495109, -1619342.1, 31875.879, 0.0, 5.013959, 4.9865494 
7.345473e+2, 1.3649434e+2, -1572863.1, -1617414.4, 153.53967, -0.0020097762, -0.006128042, -1572862.6, 29493.578, 0.0, 5.013912, 4.984933 
7.345475e+2, 1.4147738e+2, -1530534.3, -1582192.4, 375.5221, 0.0020352318, 0.0028068349, -1530531.5, 22990.488, 0.0, 5.0139194, 4.980284 
7.3454744e+2, 1.4645784e+2, -1481526.9, -1533186.3, 376.4366, 0.004206532, 0.0019894398, -1481524.1, 23189.975, 0.0, 5.013909, 4.980272 
7.345473e+2, 1.5143828e+2, -1432505.4, -1484151.5, 438.13452, 0.006393111, 0.0010216307, -1432501.8, 23404.879, 0.0, 5.0138974, 4.9802704 
7.3454726e+2, 1.564187e+2, -1385068.6, -1438418.9, 439.5078, 0.008575549, 0.0005729578, -1385065.0, 22034.14, 0.0, 5.013886, 4.979165 
7.345472e+2, 1.613952e+2, -1344321.1, -1406852.4, 824.6585, 0.009841655, 0.005707941, -1344310.3, 14019.576, 0.0, 5.0139103, 4.973298 
7.34547e+2, 1.6636847e+2, -1295071.5, -1357723.9, 803.5366, 0.008341617, 0.0030225222, -1295061.3, 14530.322, 0.0, 5.0139647, 4.9732723 
7.3454684e+2, 1.7134172e+2, -1245783.9, -1308520.5, 837.9186, 0.0067227683, 0.00029493123, -1245772.6, 15080.681, 0.0, 5.0140195, 4.9732723 
7.345466e+2, 1.7631496e+2, -1197792.4, -1262053.6, 727.0717, 0.005083019, -0.002030957, -1197784.1, 14331.019, 0.0, 5.0140734, 4.972353 
7.345464e+2, 1.8128452e+2, -1157568.6, -1231910.0, 1073.7148, 0.004553577, 0.004113562, -1157553.1, 5860.159, 0.0, 5.014092, 4.9659286 
7.3454696e+2, 1.8625076e+2, -1108462.0, -1182709.0, 1118.9796, 0.0071468223, 0.0042932266, -1108445.1, 6299.073, 0.0, 5.0140524, 4.965947 
7.3454744e+2, 1.9121699e+2, -1059392.3, -1133568.5, 1143.3376, 0.009871489, 0.0044643776, -1059374.6, 6700.574, 0.0, 5.014008, 4.965948 
7.345479e+2, 1.9618325e+2, -1011245.3, -1086411.0, 1172.0826, 0.01258742, 0.0049477634, -1011227.06, 6178.951, 0.0, 5.013963, 4.9652762 
7.345481e+2, 2.0114566e+2, -971485.94, -1057439.1, 1038.3372, 0.0140610915, 0.01138998, -971473.4, -2698.9033, 0.0, 5.013941, 4.9583874 
7.34548e+2, 2.061037e+2, -921877.2, -1007894.3, 1071.068, 0.012512427, 0.0045655617, -921863.9, -1678.3702, 0.0, 5.0140343, 4.9584346 
7.345479e+2, 2.110617e+2, -872317.6, -958487.56, 1026.0778, 0.010768161, -0.0028262015, -872305.44, -708.39026, 0.0, 5.014134, 4.9584346 
7.345478e+2, 2.160197e+2, -823437.1, -910561.0, 979.0619, 0.008999251, -0.01007302, -823426.1, -417.55203, 0.0, 5.0142326, 4.957927 
7.345478e+2, 2.2097443e+2, -783091.1, -881474.8, 1348.5684, 0.0069785705, -0.005946462, -783072.6, -8620.404, 0.0, 5.0143623, 4.9509234 
7.345482e+2, 2.2592638e+2, -732684.6, -830880.56, 1632.838, 0.0035422917, -0.0016920987, -732657.5, -6734.045, 0.0, 5.0145836, 4.951247 
7.345486e+2, 2.3087843e+2, -682695.75, -781234.2, 1713.6909, -0.000078971396, 0.0028707685, -682665.94, -5271.9683, 0.0, 5.01481, 4.95125 
7.345491e+2, 2.3583047e+2, -633362.44, -733039.94, 1795.9268, -0.003739519, 0.0074124816, -633330.1, -4465.5625, 0.0, 5.0150356, 4.950751 
7.3454976e+2, 2.4077865e+2, -593389.5, -705173.1, 1993.0835, -0.006525136, 0.01981447, -593354.0, -12980.598, 0.0, 5.01516, 4.9432287 
7.345508e+2, 2.4572177e+2, -544000.8, -655058.8, 1948.1504, -0.0063849655, 0.0118975565, -543966.6, -12032.761, 0.0, 5.015009, 4.943529 
7.3455185e+2, 2.5066468e+2, -495043.75, -605870.6, 1816.1996, -0.005964103, 0.001807458, -495014.0, -11517.688, 0.0, 5.0148416, 4.943525 
7.345529e+2, 2.5560763e+2, -446333.22, -557246.7, 1681.9452, -0.00554205, -0.007956068, -446307.72, -11249.233, 0.0, 5.014672, 4.9433227 
7.345541e+2, 2.605476e+2, -406718.0, -529519.75, 2047.7737, -0.005281824, 0.0013857664, -406683.84, -20033.885, 0.0, 5.01457, 4.935706 
7.345549e+2, 2.6548824e+2, -354129.9, -473228.4, 2939.3455, -0.017532682, 0.021723997, -354057.4, -15821.689, 0.0, 5.0146, 4.937959 
7.3455536e+2, 2.7042946e+2, -304301.03, -423411.94, 3700.173, -0.033267364, 0.041918702, -304186.2, -14370.344, 0.0, 5.014629, 4.938041 
7.345556e+2, 2.7537066e+2, -254507.84, -373758.25, 4525.4746, -0.05010259, 0.060037725, -254336.36, -12939.963, 0.0, 5.0146494, 4.938075 
7.345574e+2, 2.8030613e+2, -224683.02, -372064.56, 4690.0215, -0.05346517, 0.11117327, -224533.9, -31503.547, 0.0, 5.0151663, 4.921173 
7.3455757e+2, 2.8522655e+2, -172585.48, -314280.8, 579.14703, -0.04110244, 0.079086, -172583.13, -27784.805, 0.0, 5.0149736, 4.924044 
7.3455584e+2, 2.901442e+2, -125080.69, -265388.38, -427.4061, -0.034689166, 0.0057425457, -125079.38, -28487.361, 0.0, 5.014217, 4.924088 
7.3455393e+2, 2.9506165e+2, -77535.0, -216510.2, -1352.2909, -0.028674874, -0.07073496, -77521.84, -29134.197, 0.0, 5.013442, 4.924132 
7.3455137e+2, 2.9999962e+2, -10076.76, -87413.21, -2027.3785, -0.023194881, -0.10702268, -10023.648, -10023.648, 0.0, 5.012634, 4.962158 
7.3454654e+2, 3.0497473e+2, -3286.1443, -66713.766, -576.6838, -0.03210777, -0.05568364, -3280.9016, -3280.9016, 0.0, 5.0118155, 4.969805 
7.345407e+2, 3.09953e+2, -5199.7607, -66604.836, 364.91806, -0.048605997, 0.0066556293, -5197.592, -5197.592, 0.0, 5.0109763, 4.9701514 
7.3453444e+2, 3.1493223e+2, -7059.607, -66551.04, 1328.045, -0.06784723, 0.074968964, -7029.975, -7029.975, 0.0, 5.010117, 4.970498 
7.395628e+2, 1.2153651e+2, -1712426.8, -1748947.6, 508.00058, -0.0069725113, 0.0064084427, -1712419.8, 36528.21, 0.0, 5.0138435, 4.9900503 
7.395623e+2, 1.2652372e+2, -1668744.0, -1710592.0, -217.78583, -0.006073865, 0.011333654, -1668742.9, 31328.963, 0.0, 5.0138097, 4.986578 
7.395617e+2, 1.3150945e+2, -1619896.6, -1661674.5, -214.78247, -0.004414935, 0.002486925, -1619895.5, 31314.916, 0.0, 5.0137615, 4.9865766 
7.3956114e+2, 1.3649516e+2, -1573441.8, -1617641.6, -38.266834, -0.0026178998, -0.0049941754, -1573441.8, 28907.656, 0.0, 5.0137067, 4.984958 
7.3956126e+2, 1.4147818e+2, -1531074.8, -1582300.3, 161.97476, 0.00076714373, 0.0033123628, -1531074.1, 22441.064, 0.0, 5.0137057, 4.980353 
7.395612e+2, 1.4645875e+2, -1482031.3, -1533250.1, 154.1805, 0.0031580948, 0.0026693747, -1482030.9, 22675.53, 0.0, 5.013701, 4.980352 
7.395611e+2, 1.5143928e+2, -1432999.0, -1484209.8, 203.7001, 0.0055947416, 0.0018877918, -1432998.1, 22899.53, 0.0, 5.0136924, 4.98035 
7.39561e+2, 1.5641981e+2, -1385571.3, -1438497.1, 200.13348, 0.008031315, 0.0016212405, -1385570.5, 21518.732, 0.0, 5.013681, 4.979238 
7.39561e+2, 1.6139638e+2, -1344872.4, -1406999.6, 606.3311, 0.009579321, 0.0067824875, -1344866.4, 13452.65, 0.0, 5.0136986, 4.9733505 
7.3956096e+2, 1.6636965e+2, -1295681.1, -1357920.0, 577.2232, 0.008417782, 0.003674079, -1295675.8, 13904.861, 0.0, 5.0137377, 4.9733152 
7.3956084e+2, 1.7134288e+2, -1246451.8, -1308743.1, 597.9739, 0.00713991, 0.00050775096, -1246446.0, 14396.145, 0.0, 5.013772, 4.9733152 
7.395608e+2, 1.7631613e+2, -1198539.6, -1262323.9, 462.6316, 0.0058438065, -0.002253954, -1198536.3, 13567.489, 0.0, 5.0138006, 4.9723916 
7.395606e+2, 1.8128571e+2, -1158397.6, -1232252.1, 757.3422, 0.005558076, 0.0037392476, -1158389.9, 5011.6885, 0.0, 5.0137987, 4.9659514 
7.39561e+2, 1.8625201e+2, -1109294.8, -1183051.8, 769.73, 0.008203449, 0.0042677494, -1109286.8, 5445.0386, 0.0, 5.0137563, 4.96597 
7.395615e+2, 1.912183e+2, -1060237.5, -1133916.3, 782.9175, 0.010980562, 0.0048007555, -1060229.3, 5832.704, 0.0, 5.0137067, 4.965971 
7.39562e+2, 1.9618462e+2, -1012111.94, -1086761.8, 794.49255, 0.013747576, 0.005647387, -1012103.5, 5288.5557, 0.0, 5.013653, 4.965301 
7.395621e+2, 2.0114703e+2, -972459.2, -1058030.4, 735.20013, 0.014880004, 0.01233549, -972452.9, -3692.5313, 0.0, 5.013632, 4.95833 
7.39562e+2, 2.0610493e+2, -922789.5, -1008466.4, 815.3857, 0.011874543, 0.0045804456, -922781.75, -2608.7827, 0.0, 5.013747, 4.958372 
7.395618e+2, 2.1106277e+2, -873180.3, -959033.06, 781.37, 0.008630531, -0.0038676313, -873173.25, -1586.993, 0.0, 5.0138626, 4.9583726 
7.395616e+2, 2.160206e+2, -824271.44, -911092.44, 746.7955, 0.0053717475, -0.0121801905, -824265.0, -1265.4724, 0.0, 5.0139713, 4.9578643 
7.395617e+2, 2.2097522e+2, -783893.5, -881804.44, 1175.1821, 0.0025067285, -0.008876468, -783879.4, -9435.176, 0.0, 5.0140753, 4.950941 
7.3956245e+2, 2.2592726e+2, -733789.0, -831236.06, 1423.2261, 0.00020154873, -0.004585694, -733768.2, -7854.457, 0.0, 5.0141664, 4.9513135 
7.3956317e+2, 2.3087938e+2, -684221.8, -781788.8, 1429.4131, -0.002124088, 0.000020113841, -684200.9, -6818.3975, 0.0, 5.014244, 4.9513144 
7.3956394e+2, 2.358315e+2, -635342.2, -733805.9, 1430.8098, -0.0044600926, 0.0046019657, -635321.4, -6470.15, 0.0, 5.0143094, 4.9508133 
7.3956484e+2, 2.4077979e+2, -595929.56, -706572.56, 1370.4291, -0.006157962, 0.01799916, -595912.6, -15553.912, 0.0, 5.014311, 4.9431286 
7.395657e+2, 2.4572292e+2, -546513.0, -656533.2, 1248.5404, -0.0060620047, 0.011677297, -546498.8, -14578.266, 0.0, 5.014186, 4.943388 
7.3956656e+2, 2.5066584e+2, -497460.13, -607295.25, 1131.0272, -0.0058120484, 0.0028872662, -497448.47, -13963.553, 0.0, 5.0140505, 4.943384 
7.3956746e+2, 2.5560877e+2, -448673.5, -558630.2, 1014.4235, -0.0055632927, -0.0056568044, -448664.16, -13615.1045, 0.0, 5.013907, 4.943182 
7.395684e+2, 2.6054868e+2, -408739.0, -529958.1, 1464.1537, -0.006839868, 0.0036828516, -408721.3, -22079.574, 0.0, 5.013764, 4.9359097 
7.3956835e+2, 2.6548937e+2, -356669.1, -473096.72, 1957.9209, -0.028010622, 0.018887747, -356636.16, -18413.543, 0.0, 5.013449, 4.938509 
7.3956794e+2, 2.7043065e+2, -308197.7, -423963.5, 2032.8547, -0.053360444, 0.033370893, -308162.0, -18364.672, 0.0, 5.013009, 4.938561 
7.395674e+2, 2.7537185e+2, -260032.73, -375096.6, 2007.8219, -0.07950713, 0.045747638, -259997.7, -18624.848, 0.0, 5.012465, 4.9385653 
7.3956877e+2, 2.8030744e+2, -233266.55, -377419.47, 1568.5996, -0.08780299, 0.09749899, -233249.48, -40247.348, 0.0, 5.012441, 4.9204607 
7.395697e+2, 2.8522745e+2, -179385.08, -318852.56, -2331.2856, -0.065176874, 0.06818432, -179346.13, -34568.52, 0.0, 5.012898, 4.9232626 
7.395686e+2, 2.9014438e+2, -129635.9, -269051.3, -2655.4495, -0.046914384, -0.0059683444, -129585.336, -33003.11, 0.0, 5.012942, 4.92328 
7.3956746e+2, 2.9506114e+2, -80208.38, -219419.42, -3054.3677, -0.028782241, -0.08291559, -80141.4, -31752.637, 0.0, 5.012849, 4.9232965 
7.395654e+2, 2.9999852e+2, -10562.864, -88214.56, -3540.6692, -0.012199564, -0.11856249, -10401.755, -10401.755, 0.0, 5.012604, 4.9618416 
7.3955995e+2, 3.0497333e+2, -1655.2231, -64307.793, -2756.466, -0.0187409, -0.07671521, -1534.1833, -1534.1833, 0.0, 5.012115, 4.9704986 
7.395534e+2, 3.0995107e+2, -3418.7136, -64162.68, -2432.2505, -0.033811517, -0.029702164, -3321.4795, -3321.4795, 0.0, 5.0113463, 4.9708204 
7.3954636e+2, 3.1492963e+2, -5803.9985, -64338.973, -1901.3916, -0.050880916, 0.021684676, -5742.301, -5742.301, 0.0, 5.0103197, 4.971143 
7.445768e+2, 1.2153728e+2, -1711755.5, -1748867.1, 1012.32294, -0.0063356394, 0.0054559777, -1711727.9, 37212.945, 0.0, 5.0141172, 4.9899426 
7.4457633e+2, 1.2652464e+2, -1668107.1, -1710282.4, 315.24127, -0.0032180308, 0.011892901, -1668104.8, 31958.857, 0.0, 5.0140204, 4.986577 
7.445756e+2, 1.3151038e+2, -1619408.5, -1661438.0, 305.7561, -0.002970124, 0.0031282036, -1619406.3, 31796.225, 0.0, 5.013924, 4.986575 
7.4457484e+2, 1.364961e+2, -1573071.5, -1617456.5, 501.422, -0.0025811575, -0.0042466205, -1573065.9, 29275.74, 0.0, 5.0138297, 4.98496 
7.4457484e+2, 1.4147915e+2, -1530702.4, -1582002.0, 712.2357, -0.00019697753, 0.004254347, -1530692.5, 22814.68, 0.0, 5.0138054, 4.980404 
7.445748e+2, 1.4645979e+2, -1481641.9, -1532917.1, 706.1693, 0.001982902, 0.0038067584, -1481632.1, 23065.123, 0.0, 5.0138006, 4.9804153 
7.4457467e+2, 1.5144041e+2, -1432600.3, -1483873.9, 748.1365, 0.004239192, 0.0032114778, -1432589.4, 23298.164, 0.0, 5.013796, 4.9804134 
7.4457455e+2, 1.56421e+2, -1385155.8, -1438158.6, 745.36835, 0.0065078475, 0.0031238091, -1385145.4, 21932.709, 0.0, 5.0137916, 4.979299 
7.445746e+2, 1.6139764e+2, -1344496.4, -1406750.0, 1160.7145, 0.008132559, 0.008296324, -1344474.8, 13832.501, 0.0, 5.0138106, 4.9733815 
7.445746e+2, 1.6637087e+2, -1295370.5, -1357733.1, 1117.0175, 0.0075745345, 0.0048267804, -1295350.5, 14218.4375, 0.0, 5.0138345, 4.9733334 
7.445746e+2, 1.713441e+2, -1246175.0, -1308573.4, 1120.6749, 0.006940662, 0.0013050456, -1246154.9, 14675.762, 0.0, 5.013858, 4.973333 
7.445746e+2, 1.7631733e+2, -1198287.1, -1262174.8, 959.9764, 0.0063117105, -0.001803168, -1198272.8, 13819.669, 0.0, 5.0138803, 4.9724054 
7.445745e+2, 1.8128687e+2, -1158126.5, -1232084.4, 1227.0393, 0.006346014, 0.003763854, -1158106.3, 5284.126, 0.0, 5.0138826, 4.9659696 
7.445748e+2, 1.8625312e+2, -1108963.8, -1182861.9, 1227.8131, 0.008264885, 0.003597836, -1108943.4, 5777.3203, 0.0, 5.013862, 4.965986 
7.445751e+2, 1.9121936e+2, -1059829.5, -1133693.5, 1241.932, 0.010283275, 0.0034339598, -1059808.6, 6242.4854, 0.0, 5.0138392, 4.965986 
7.4457544e+2, 1.961856e+2, -1011611.56, -1086493.5, 1247.8456, 0.0123110395, 0.0035839984, -1011590.75, 5790.6665, 0.0, 5.013816, 4.965318 
7.445755e+2, 2.0114797e+2, -971907.8, -1057831.6, 1315.8596, 0.012942495, 0.009742635, -971887.7, -3137.693, 0.0, 5.0138307, 4.9583063 
7.4457556e+2, 2.0610593e+2, -922138.6, -1008247.94, 1452.9784, 0.010130216, 0.0028937268, -922114.1, -1952.109, 0.0, 5.0139866, 4.9583373 
7.4457556e+2, 2.1106383e+2, -872396.9, -958750.44, 1434.1271, 0.007157659, -0.0045009432, -872373.06, -798.4184, 0.0, 5.0141487, 4.9583387 
7.4457556e+2, 2.1602173e+2, -823339.1, -910742.9, 1413.004, 0.0042076134, -0.011759685, -823316.25, -329.0008, 0.0, 5.014311, 4.95783 
7.4457574e+2, 2.2097638e+2, -782959.5, -881400.0, 1755.7579, 0.0016545171, -0.008062755, -782928.2, -8496.565, 0.0, 5.014406, 4.9509287 
7.4457645e+2, 2.2592823e+2, -733456.94, -831209.5, 1896.5343, -0.00013666738, -0.0050431057, -733420.2, -7517.678, 0.0, 5.014306, 4.951261 
7.445773e+2, 2.3088016e+2, -684439.06, -782027.5, 1836.7909, -0.0018330202, -0.0017619035, -684404.5, -7031.7705, 0.0, 5.014191, 4.9512587 
7.4457806e+2, 2.3583208e+2, -636070.3, -734291.06, 1778.0652, -0.0034557767, 0.001500236, -636038.1, -7195.0894, 0.0, 5.0140758, 4.9507546 
7.4457884e+2, 2.407802e+2, -597013.0, -707226.8, 1660.0568, -0.004761166, 0.013774541, -596988.0, -16636.117, 0.0, 5.0139465, 4.9430723 
7.4457955e+2, 2.457234e+2, -547644.75, -657247.1, 1572.588, -0.005755563, 0.008945296, -547622.2, -15708.955, 0.0, 5.013809, 4.943317 
7.4458015e+2, 2.5066644e+2, -498586.56, -607998.1, 1509.3179, -0.0066847377, 0.002051201, -498565.75, -15089.084, 0.0, 5.0136733, 4.9433146 
7.4458075e+2, 2.5560945e+2, -449775.63, -559314.4, 1445.8582, -0.0075722304, -0.0046563786, -449756.53, -14716.538, 0.0, 5.0135355, 4.9431143 
7.4458134e+2, 2.6054943e+2, -409559.88, -529875.4, 1937.9579, -0.010458674, 0.004633475, -409528.66, -22897.129, 0.0, 5.013355, 4.9361353 
7.445808e+2, 2.654895e+2, -358032.84, -473437.34, 2459.1265, -0.0331566, 0.0119267395, -357980.47, -19766.121, 0.0, 5.01284, 4.9387045 
7.4458e+2, 2.704299e+2, -309930.88, -424695.2, 2732.0693, -0.059187885, 0.017216368, -309865.88, -20073.148, 0.0, 5.01227, 4.9386945 
7.445789e+2, 2.7537015e+2, -261853.53, -376099.84, 3056.4807, -0.085334994, 0.020007031, -261771.81, -20398.88, 0.0, 5.0116935, 4.9386373 
7.4457985e+2, 2.8030476e+2, -235446.55, -377467.78, 3392.2307, -0.094574004, 0.059494782, -235365.56, -42356.82, 0.0, 5.0114355, 4.9208674 
7.4458104e+2, 2.8522557e+2, -182517.67, -320785.13, -172.88826, -0.07084331, 0.039395146, -182517.45, -37737.004, 0.0, 5.011908, 4.9229503 
7.445807e+2, 2.9014376e+2, -131687.97, -270716.72, -940.1127, -0.049283773, -0.017702056, -131681.63, -35103.727, 0.0, 5.012354, 4.922906 
7.4458027e+2, 2.9506177e+2, -80840.33, -220683.33, -1643.071, -0.027208846, -0.07733733, -80821.02, -32443.51, 0.0, 5.012783, 4.9228616 
7.4457884e+2, 2.9999995e+2, -9163.589, -88430.72, -2561.2976, -0.0068880944, -0.10120581, -9080.914, -9080.914, 0.0, 5.013201, 4.9615097 
7.4457395e+2, 3.0497235e+2, 1814.4722, -64294.94, -2726.9238, -0.009887851, -0.07740105, 1926.7633, 1926.7633, 0.0, 5.0135546, 4.9699187 
7.4456805e+2, 3.09947e+2, 3045.4968, -62828.953, -3446.4526, -0.019566935, -0.054651238, 3225.3193, 3225.3193, 0.0, 5.0138497, 4.970256 
7.445618e+2, 3.1492227e+2, 4320.6855, -61407.477, -4132.415, -0.029673595, -0.030416235, 4579.477, 4579.477, 0.0, 5.014126, 4.9705935 
7.4959093e+2, 1.2153856e+2, -1711922.4, -1749196.3, 864.3826, -0.0061533833, 0.005291532, -1711902.4, 37026.105, 0.0, 5.0141163, 4.9898353 
7.495907e+2, 1.2652591e+2, -1668107.9, -1710287.4, 236.66814, -0.0003769794, 0.011767755, -1668106.5, 31945.299, 0.0, 5.0140214, 4.986575 
7.495897e+2, 1.3151169e+2, -1619407.5, -1661444.6, 229.69548, -0.0015538849, 0.0034348313, -1619406.3, 31784.326, 0.0, 5.0139256, 4.9865727 
7.4958867e+2, 1.3649744e+2, -1573062.3, -1617452.0, 460.58365, -0.0026222789, -0.0035066605, -1573057.5, 29272.111, 0.0, 5.013832, 4.984961 
7.4958855e+2, 1.4148057e+2, -1530629.4, -1581859.6, 695.11816, -0.0013162751, 0.0053789923, -1530620.0, 22874.758, 0.0, 5.013807, 4.980451 
7.495884e+2, 1.4646128e+2, -1481546.9, -1532728.6, 700.55676, 0.0005732769, 0.005103812, -1481537.4, 23146.475, 0.0, 5.013802, 4.980478 
7.4958825e+2, 1.5144198e+2, -1432506.5, -1483685.9, 743.26215, 0.002550195, 0.0046778996, -1432495.6, 23377.398, 0.0, 5.0137973, 4.980476 
7.4958813e+2, 1.5642266e+2, -1385066.4, -1437978.1, 749.6571, 0.004532461, 0.004765315, -1385055.8, 22006.78, 0.0, 5.0137925, 4.979359 
7.495882e+2, 1.6139932e+2, -1344455.6, -1406670.9, 1175.2975, 0.0061818347, 0.009987514, -1344433.5, 13857.608, 0.0, 5.013812, 4.9734077 
7.495883e+2, 1.6637254e+2, -1295350.5, -1357697.3, 1132.7087, 0.0063218577, 0.006163077, -1295330.0, 14222.945, 0.0, 5.0138354, 4.973345 
7.495884e+2, 1.7134576e+2, -1246155.9, -1308538.0, 1137.2073, 0.006400412, 0.0022825922, -1246135.1, 14679.661, 0.0, 5.013859, 4.973345 
7.4958843e+2, 1.7631896e+2, -1198272.4, -1262146.9, 969.7387, 0.006473719, -0.0011785838, -1198257.6, 13819.108, 0.0, 5.013881, 4.972415 
7.495884e+2, 1.8128845e+2, -1158104.6, -1232033.0, 1215.8679, 0.0068141967, 0.003893562, -1158084.8, 5290.3174, 0.0, 5.013882, 4.9659867 
7.495886e+2, 1.8625462e+2, -1108939.9, -1182805.3, 1207.473, 0.007874384, 0.002723104, -1108920.1, 5785.6616, 0.0, 5.0138617, 4.9660053 
7.495888e+2, 1.9122078e+2, -1059805.5, -1133636.9, 1223.1145, 0.008960037, 0.0015319977, -1059785.3, 6251.467, 0.0, 5.0138383, 4.9660053 
7.49589e+2, 1.9618693e+2, -1011582.4, -1086426.0, 1221.2737, 0.010038581, 0.0006494404, -1011562.44, 5804.972, 0.0, 5.0138154, 4.965341 
7.49589e+2, 2.0114924e+2, -971934.2, -1057878.3, 1400.5836, 0.0100972075, 0.0061170813, -971911.4, -3175.0894, 0.0, 5.013829, 4.9582906 
7.495893e+2, 2.0610732e+2, -922181.6, -1008329.94, 1575.9193, 0.007886467, 0.00074442674, -922152.8, -2005.6774, 0.0, 5.013985, 4.9583097 
7.4958956e+2, 2.1106535e+2, -872439.75, -958832.3, 1559.209, 0.005561551, -0.004989561, -872411.56, -853.2, 0.0, 5.0141473, 4.9583106 
7.495898e+2, 2.1602339e+2, -823384.56, -910830.7, 1539.7198, 0.0032380584, -0.010587146, -823357.5, -387.84964, 0.0, 5.014309, 4.9578 
7.4959016e+2, 2.2097811e+2, -783007.2, -881485.06, 1731.7528, 0.0012073923, -0.006035258, -782976.75, -8563.509, 0.0, 5.0144033, 4.9509006 
7.495908e+2, 2.2592972e+2, -733562.5, -831416.75, 1811.857, -0.00018077971, -0.004763045, -733529.0, -7642.7017, 0.0, 5.0143023, 4.951192 
7.4959147e+2, 2.3088138e+2, -684543.9, -782231.9, 1755.9294, -0.001504138, -0.003365425, -684512.3, -7153.4937, 0.0, 5.0141873, 4.95119 
7.4959224e+2, 2.3583303e+2, -636174.44, -734492.6, 1701.0297, -0.0027899416, -0.001991871, -636145.0, -7313.5283, 0.0, 5.0140715, 4.950687 
7.495929e+2, 2.4078093e+2, -597091.8, -707341.9, 1560.3888, -0.0041060224, 0.00868347, -597069.7, -16727.473, 0.0, 5.013939, 4.943034 
7.4959326e+2, 2.4572428e+2, -547743.2, -657385.9, 1470.0548, -0.006448511, 0.0056200465, -547723.44, -15821.32, 0.0, 5.0137978, 4.9432716 
7.495936e+2, 2.5066748e+2, -498688.06, -608138.44, 1412.1641, -0.008891703, 0.0010721558, -498669.84, -15206.182, 0.0, 5.013661, 4.9432693 
7.495939e+2, 2.556107e+2, -449880.13, -559456.25, 1354.0897, -0.01135206, -0.0032413525, -449863.38, -14838.4, 0.0, 5.013522, 4.943069 
7.4959415e+2, 2.6055074e+2, -409276.94, -529054.56, 1710.196, -0.016143799, 0.0060023475, -409252.53, -22637.805, 0.0, 5.013329, 4.9364343 
7.495931e+2, 2.6549008e+2, -357757.25, -472366.16, 2181.4797, -0.040473945, 0.0030026454, -357715.75, -19515.473, 0.0, 5.0127783, 4.939109 
7.495916e+2, 2.7042973e+2, -309731.28, -423541.22, 2509.678, -0.068310775, -0.0029309017, -309675.97, -19894.271, 0.0, 5.0121756, 4.939134 
7.4959004e+2, 2.7536923e+2, -261730.06, -374863.13, 2889.348, -0.0966644, -0.011119221, -261656.31, -20291.951, 0.0, 5.011566, 4.9391117 
7.495903e+2, 2.8030318e+2, -235010.06, -376619.25, 3222.915, -0.108481735, 0.017076155, -234936.75, -41933.535, 0.0, 5.011454, 4.921183 
7.4959207e+2, 2.8522488e+2, -182803.1, -322520.7, 84.804924, -0.08110648, 0.009645918, -182803.05, -38031.984, 0.0, 5.0120454, 4.922362 
7.4959266e+2, 2.9014435e+2, -132003.17, -272320.34, -600.8617, -0.0546497, -0.027895873, -132000.6, -35438.92, 0.0, 5.0124717, 4.9223566 
7.495931e+2, 2.9506359e+2, -81185.66, -222155.55, -1222.2487, -0.028230697, -0.06819671, -81175.06, -32820.742, 0.0, 5.0128818, 4.9223514 
7.4959254e+2, 3.0000257e+2, -9492.131, -89545.65, -2254.4177, -0.004252313, -0.078940675, -9428.693, -9428.693, 0.0, 5.0132666, 4.96111 
7.4958843e+2, 3.049722e+2, 956.34393, -66210.51, -2424.5974, -0.003117688, -0.07480376, 1043.7537, 1043.7537, 0.0, 5.013555, 4.9692783 
7.495833e+2, 3.0994362e+2, 1967.5078, -64909.707, -2997.0298, -0.009443161, -0.074749336, 2101.5479, 2101.5479, 0.0, 5.0137925, 4.969592 
7.495778e+2, 3.149157e+2, 3023.017, -63653.41, -3535.925, -0.017453937, -0.071374655, 3210.0068, 3210.0068, 0.0, 5.0140114, 4.969906 
7.5460505e+2, 1.2154002e+2, -1712005.4, -1749352.8, 721.42145, -0.006354603, 0.007005565, -1711991.5, 36922.88, 0.0, 5.014115, 4.989784 
7.54605e+2, 1.2652719e+2, -1668109.3, -1710291.6, 159.13762, 0.0024632257, 0.011715285, -1668108.8, 31931.191, 0.0, 5.014022, 4.986573 
7.5460374e+2, 1.31513e+2, -1619407.3, -1661450.6, 154.67741, -0.00013101847, 0.003779382, -1619406.8, 31771.875, 0.0, 5.013927, 4.98657 
7.5460255e+2, 1.364988e+2, -1573055.0, -1617449.1, 420.15112, -0.0026490372, -0.0027633929, -1573051.0, 29266.596, 0.0, 5.013834, 4.984961 
7.5460225e+2, 1.4148197e+2, -1530562.3, -1581728.4, 677.7162, -0.002433123, 0.0065205554, -1530553.3, 22928.967, 0.0, 5.013808, 4.980494 
7.546021e+2, 1.4646275e+2, -1481452.3, -1532539.9, 694.7283, -0.0008346691, 0.006409429, -1481442.9, 23227.52, 0.0, 5.013803, 4.98054 
7.5460196e+2, 1.5144354e+2, -1432412.9, -1483497.6, 738.172, 0.000863751, 0.006140013, -1432402.3, 23456.332, 0.0, 5.013798, 4.980538 
7.546017e+2, 1.564243e+2, -1384979.6, -1437802.6, 753.85693, 0.0025604747, 0.0063900743, -1384968.9, 22078.098, 0.0, 5.0137935, 4.979418 
7.5460184e+2, 1.6140102e+2, -1344418.4, -1406598.3, 1190.0957, 0.0042296075, 0.011695683, -1344395.5, 13879.283, 0.0, 5.013813, 4.9734316 
7.54602e+2, 1.6637422e+2, -1295330.9, -1357661.1, 1148.2756, 0.005068692, 0.007517579, -1295309.8, 14227.099, 0.0, 5.0138364, 4.9733567 
7.546022e+2, 1.713474e+2, -1246137.1, -1308502.3, 1153.6151, 0.0058623143, 0.0032688095, -1246115.9, 14683.212, 0.0, 5.0138597, 4.9733562 
7.546024e+2, 1.7632057e+2, -1198257.9, -1262118.5, 979.2345, 0.006640682, -0.00055478816, -1198242.9, 13818.322, 0.0, 5.0138817, 4.972424 
7.546023e+2, 1.8129005e+2, -1158087.8, -1231991.3, 1203.9248, 0.007277432, 0.0040437323, -1158068.1, 5291.5356, 0.0, 5.0138817, 4.966001 
7.5460243e+2, 1.8625613e+2, -1108916.4, -1182748.4, 1187.1158, 0.007478271, 0.0018560578, -1108897.4, 5793.5933, 0.0, 5.0138607, 4.9660244 
7.5460255e+2, 1.9122218e+2, -1059781.9, -1133580.0, 1204.28, 0.007633764, -0.00038698222, -1059762.1, 6260.0474, 0.0, 5.013838, 4.9660244 
7.546026e+2, 1.9618826e+2, -1011559.25, -1086370.4, 1192.3492, 0.0077656223, -0.0023267954, -1011540.25, 5813.173, 0.0, 5.0138144, 4.96536 
7.546026e+2, 2.011505e+2, -971957.25, -1057917.0, 1487.9321, 0.007252853, 0.0025452108, -971931.5, -3208.9436, 0.0, 5.013828, 4.9582767 
7.546031e+2, 2.061087e+2, -922225.06, -1008411.6, 1698.9735, 0.005642561, -0.0013498811, -922191.6, -2059.4421, 0.0, 5.0139837, 4.958281 
7.5460356e+2, 2.1106687e+2, -872483.06, -958913.9, 1684.4042, 0.0039652074, -0.0054640966, -872450.25, -908.1484, 0.0, 5.014146, 4.9582825 
7.5460404e+2, 2.1602505e+2, -823430.56, -910918.2, 1666.5359, 0.0022681877, -0.009441428, -823398.8, -446.85657, 0.0, 5.0143075, 4.9577694 
7.546045e+2, 2.2097982e+2, -783076.06, -881614.94, 1704.9373, 0.0007858506, -0.003972983, -783046.56, -8651.696, 0.0, 5.0144005, 4.9508567 
7.546051e+2, 2.259312e+2, -733669.06, -831623.2, 1726.0695, -0.00019694968, -0.0044684536, -733638.7, -7768.614, 0.0, 5.0142984, 4.951122 
7.5460577e+2, 2.308826e+2, -684649.75, -782435.5, 1673.9575, -0.0011598743, -0.00502108, -684621.06, -7276.0894, 0.0, 5.0141835, 4.951121 
7.5460637e+2, 2.3583397e+2, -636279.56, -734693.44, 1622.8838, -0.002121285, -0.005602775, -636252.8, -7432.823, 0.0, 5.0140676, 4.950618 
7.5460696e+2, 2.4078168e+2, -597189.6, -707493.5, 1456.8861, -0.0034592187, 0.0037232712, -597170.4, -16837.908, 0.0, 5.013931, 4.9429827 
7.546071e+2, 2.4572514e+2, -547844.75, -657521.75, 1367.8726, -0.007145673, 0.00249672, -547827.7, -15936.834, 0.0, 5.013787, 4.9432254 
7.546071e+2, 2.5066853e+2, -498792.7, -608275.8, 1315.361, -0.011094249, 0.00020067161, -498776.88, -15326.398, 0.0, 5.0136485, 4.943223 
7.5460714e+2, 2.5561196e+2, -449987.75, -559595.2, 1262.6718, -0.01511884, -0.0018131253, -449973.22, -14963.351, 0.0, 5.0135083, 4.9430227 
7.54607e+2, 2.60552e+2, -409095.7, -528443.1, 1446.2251, -0.021563647, 0.0071564894, -409078.16, -22479.676, 0.0, 5.013303, 4.936652 
7.546053e+2, 2.6549053e+2, -357492.88, -471286.34, 1849.7933, -0.04771468, -0.0071059726, -357462.8, -19275.467, 0.0, 5.012717, 4.9394984 
7.5460315e+2, 2.7042937e+2, -309542.78, -422378.53, 2233.2024, -0.07774002, -0.02529765, -309498.6, -19726.445, 0.0, 5.012081, 4.9395585 
7.546009e+2, 2.753681e+2, -261617.53, -373617.53, 2668.084, -0.10868312, -0.045499828, -261554.0, -20196.416, 0.0, 5.0114393, 4.9395714 
7.5460076e+2, 2.8030166e+2, -235140.4, -377066.22, 3223.2124, -0.12195518, -0.02452802, -235067.25, -42069.715, 0.0, 5.0114727, 4.921039 
7.5460327e+2, 2.8522432e+2, -183114.06, -324232.8, 269.16403, -0.09025382, -0.016967574, -183113.56, -38353.195, 0.0, 5.012182, 4.9217563 
7.5460476e+2, 2.9014495e+2, -132343.73, -273900.4, -334.88638, -0.059376728, -0.03669549, -132342.95, -35798.07, 0.0, 5.0125895, 4.92179 
7.54606e+2, 2.9506543e+2, -81556.18, -223604.0, -874.64813, -0.0290906, -0.059403587, -81550.8, -33219.527, 0.0, 5.0129805, 4.9218245 
7.546063e+2, 3.000051e+2, -10132.17, -91308.18, -1976.8251, -0.0011460498, -0.057059795, -10084.058, -10084.058, 0.0, 5.013332, 4.9604588 
7.546031e+2, 3.0497193e+2, 68.90077, -68098.0, -2097.8743, 0.0055609825, -0.07375499, 133.40298, 133.40298, 0.0, 5.0135555, 4.9686093 
7.5459874e+2, 3.099399e+2, 860.1153, -66962.51, -2523.1235, 0.0037317616, -0.099904634, 953.85046, 953.85046, 0.0, 5.013736, 4.9688997 
7.5459397e+2, 3.1490862e+2, 1695.8291, -65871.52, -2914.8503, -0.0010401219, -0.12090041, 1821.3423, 1821.3423, 0.0, 5.013897, 4.9691896 
7.596191e+2, 1.2154145e+2, -1712628.3, -1749678.8, 422.11145, -0.006651183, 0.009088208, -1712623.4, 36277.023, 0.0, 5.0139146, 4.989774 
7.5961924e+2, 1.2652838e+2, -1668672.1, -1710580.4, -76.21544, 0.0050602434, 0.011559336, -1668672.0, 31356.564, 0.0, 5.0138392, 4.9865675 
7.596178e+2, 1.3151425e+2, -1619909.1, -1661709.3, -91.18964, 0.0011746632, 0.004096415, -1619908.9, 31258.234, 0.0, 5.0137634, 4.986564 
7.596163e+2, 1.3650009e+2, -1573524.9, -1617688.3, 195.96513, -0.0026174248, -0.001974749, -1573524.0, 28782.002, 0.0, 5.01368, 4.9849567 
7.5961596e+2, 1.4148332e+2, -1530988.8, -1581855.8, 465.30087, -0.0033661562, 0.0077340375, -1530984.5, 22485.865, 0.0, 5.0136485, 4.9805293 
7.596157e+2, 1.4646417e+2, -1481889.3, -1532625.3, 470.4567, -0.0020655403, 0.0076682135, -1481884.9, 22772.662, 0.0, 5.01363, 4.9805956 
7.5961554e+2, 1.51445e+2, -1432901.8, -1483607.6, 490.65195, -0.0006494293, 0.007438656, -1432897.0, 22948.004, 0.0, 5.0136075, 4.9805937 
7.5961536e+2, 1.5642583e+2, -1385535.0, -1437951.4, 491.03082, 0.0007642246, 0.007742731, -1385530.4, 21502.105, 0.0, 5.0135813, 4.9794703 
7.596154e+2, 1.614026e+2, -1345074.4, -1406869.9, 926.15375, 0.002418427, 0.0131274015, -1345060.5, 13199.174, 0.0, 5.0135827, 4.973451 
7.596157e+2, 1.6637577e+2, -1296024.1, -1357966.9, 888.673, 0.0038510917, 0.008696185, -1296011.4, 13510.441, 0.0, 5.013596, 4.973369 
7.5961596e+2, 1.7134896e+2, -1246875.3, -1308829.0, 897.99347, 0.0052708453, 0.0041645714, -1246862.3, 13921.944, 0.0, 5.013603, 4.9733686 
7.596162e+2, 1.7632212e+2, -1199062.9, -1262481.4, 718.7399, 0.006684363, 0.000052404073, -1199054.8, 12991.73, 0.0, 5.0136027, 4.972434 
7.596162e+2, 1.8129154e+2, -1158917.5, -1232374.0, 926.388, 0.007578616, 0.004246434, -1158905.8, 4439.374, 0.0, 5.0135956, 4.9660068 
7.596162e+2, 1.8625753e+2, -1109628.6, -1183061.3, 879.6322, 0.006994009, 0.001062511, -1109618.0, 5058.8496, 0.0, 5.013612, 4.966036 
7.596162e+2, 1.9122352e+2, -1060393.3, -1133844.3, 871.0487, 0.006329293, -0.0022204206, -1060382.9, 5625.845, 0.0, 5.0136228, 4.966036 
7.596162e+2, 1.9618948e+2, -1012093.5, -1086611.0, 818.17804, 0.0056524137, -0.0052057565, -1012084.56, 5255.9326, 0.0, 5.0136285, 4.965365 
7.596162e+2, 2.0115168e+2, -972529.6, -1058242.5, 1196.0162, 0.0046863705, -0.0008243383, -972512.94, -3803.133, 0.0, 5.0136423, 4.958252 
7.596168e+2, 2.0610999e+2, -923016.7, -1008868.6, 1406.7227, 0.0036816269, -0.0032609287, -922993.6, -2875.29, 0.0, 5.0137277, 4.9582434 
7.5961757e+2, 2.1106829e+2, -873503.6, -959477.9, 1359.7563, 0.0026871455, -0.0058093667, -873482.1, -1955.0594, 0.0, 5.013809, 4.9582443 
7.596182e+2, 2.1602657e+2, -824699.1, -911601.7, 1307.5962, 0.0016897892, -0.008217547, -824679.44, -1743.6818, 0.0, 5.0138845, 4.957729 
7.596188e+2, 2.209814e+2, -784563.9, -882461.6, 1169.4473, 0.0008153318, -0.0018184651, -784549.94, -10171.762, 0.0, 5.0139127, 4.95079 
7.5961936e+2, 2.2593251e+2, -735149.25, -832492.4, 1112.6564, 0.000088548455, -0.004182339, -735136.56, -9280.868, 0.0, 5.013817, 4.9510427 
7.5961995e+2, 2.3088361e+2, -686113.5, -783295.4, 1037.1489, -0.00065259024, -0.006826477, -686102.4, -8769.267, 0.0, 5.0137053, 4.951041 
7.596205e+2, 2.358347e+2, -637748.75, -735553.8, 961.0315, -0.0013903663, -0.009505591, -637739.3, -8928.586, 0.0, 5.013586, 4.9505377 
7.596209e+2, 2.4078222e+2, -598594.06, -708276.6, 769.8856, -0.002772444, -0.0014357781, -598588.7, -18263.816, 0.0, 5.0134625, 4.942922 
7.596207e+2, 2.4572581e+2, -549071.56, -658172.75, 712.5241, -0.0075818147, -0.0008446393, -549066.9, -17185.244, 0.0, 5.013373, 4.9431844 
7.5962055e+2, 2.5066936e+2, -499884.4, -608858.6, 689.8021, -0.01269114, -0.0010463705, -499880.06, -16440.71, 0.0, 5.0132833, 4.9431834 
7.596203e+2, 2.5561297e+2, -450962.63, -560117.6, 668.21576, -0.017832773, -0.00094306463, -450958.53, -15961.763, 0.0, 5.013187, 4.9429836 
7.5961995e+2, 2.6055297e+2, -409929.25, -528747.7, 559.63556, -0.025056789, 0.007872957, -409926.63, -23341.748, 0.0, 5.0130067, 4.9366765 
7.596177e+2, 2.6549062e+2, -358474.84, -471490.63, 148.1826, -0.051345438, -0.016553847, -358474.66, -20295.865, 0.0, 5.0123353, 4.939596 
7.5961506e+2, 2.7042845e+2, -311100.5, -422908.4, -338.22345, -0.08119528, -0.046200655, -311099.5, -21329.834, 0.0, 5.011509, 4.9396305 
7.596123e+2, 2.7536613e+2, -264027.1, -374585.88, -900.9768, -0.11162384, -0.078053676, -264019.75, -22658.135, 0.0, 5.010579, 4.939617 
7.59612e+2, 2.8029907e+2, -239324.13, -379895.2, -464.68094, -0.12295992, -0.061294243, -239322.58, -46317.848, 0.0, 5.010228, 4.920572 
7.5961524e+2, 2.852229e+2, -186168.48, -326146.94, -2538.8723, -0.09025718, -0.038836814, -186122.45, -41362.27, 0.0, 5.0112834, 4.9214096 
7.596173e+2, 2.9014483e+2, -134128.92, -275329.6, -2488.4841, -0.059022147, -0.043421116, -134085.08, -37548.063, 0.0, 5.012141, 4.9214206 
7.5961924e+2, 2.950666e+2, -82448.055, -224705.33, -2508.4873, -0.027950058, -0.05073725, -82403.836, -34088.066, 0.0, 5.0128593, 4.9214315 
7.596203e+2, 3.0000708e+2, -10915.221, -93368.4, -3291.4993, 0.0024811586, -0.03542843, -10784.034, -10784.034, 0.0, 5.013441, 4.959621 
7.59618e+2, 3.049712e+2, -47.58933, -69698.65, -3398.8672, 0.016130047, -0.07207453, 117.8772, 117.8772, 0.0, 5.013883, 4.967823 
7.5961465e+2, 3.0993566e+2, 715.87, -68538.24, -3700.233, 0.02227536, -0.12771869, 913.0115, 913.0115, 0.0, 5.0140653, 4.968115 
7.5961083e+2, 3.1490082e+2, 832.04095, -67703.54, -3799.5627, 0.02642795, -0.17949688, 1042.0425, 1042.0425, 0.0, 5.0139832, 4.9684067 
7.6463306e+2, 1.215428e+2, -1711990.9, -1749488.0, 846.2088, -0.0072818147, 0.0076451083, -1711971.8, 36915.2, 0.0, 5.014153, 4.9897184 
7.646331e+2, 1.2652972e+2, -1668129.6, -1710353.0, 545.43463, 0.0047512716, 0.010191548, -1668122.6, 31892.945, 0.0, 5.0140295, 4.9865475 
7.6463157e+2, 1.3151568e+2, -1619458.6, -1661527.0, 518.8558, 0.0011217425, 0.0040415213, -1619452.3, 31701.164, 0.0, 5.0139246, 4.986544 
7.646301e+2, 1.3650165e+2, -1573130.5, -1617524.0, 815.87335, -0.0023578978, -0.0007050447, -1573115.5, 29175.877, 0.0, 5.0138206, 4.984941 
7.6462966e+2, 1.4148492e+2, -1530626.6, -1581663.0, 1098.3595, -0.0029670035, 0.009560166, -1530603.0, 22852.305, 0.0, 5.0137696, 4.9805336 
7.646293e+2, 1.4646569e+2, -1481589.4, -1532458.0, 1070.1986, -0.0019426945, 0.008617755, -1481566.9, 23076.426, 0.0, 5.0137296, 4.9806027 
7.6462907e+2, 1.5144643e+2, -1432658.5, -1483469.9, 1054.0664, -0.0008170666, 0.0074953632, -1432636.6, 23194.688, 0.0, 5.0136886, 4.9806004 
7.6462877e+2, 1.5642717e+2, -1385333.3, -1437829.4, 1027.9407, 0.0003112031, 0.0069228164, -1385313.1, 21706.479, 0.0, 5.0136476, 4.9794793 
7.646288e+2, 1.614039e+2, -1344865.5, -1406708.4, 1474.1178, 0.0016548724, 0.011891215, -1344830.4, 13416.606, 0.0, 5.013644, 4.9734755 
7.646291e+2, 1.6637719e+2, -1295779.5, -1357777.9, 1443.052, 0.0027534193, 0.008039481, -1295745.9, 13762.206, 0.0, 5.0136676, 4.973398 
7.646294e+2, 1.7135043e+2, -1246584.0, -1308622.5, 1456.3629, 0.0038490563, 0.004113098, -1246549.9, 14219.645, 0.0, 5.0136905, 4.973397 
7.646296e+2, 1.7632368e+2, -1198705.9, -1262248.6, 1277.9478, 0.004956233, 0.00059554545, -1198680.1, 13350.762, 0.0, 5.0137124, 4.972461 
7.646296e+2, 1.8129312e+2, -1158506.4, -1232238.4, 1518.1543, 0.00564655, 0.0049335253, -1158475.1, 4854.113, 0.0, 5.0137486, 4.9659805 
7.646297e+2, 1.8625899e+2, -1109032.4, -1182875.6, 1449.5419, 0.0051597944, 0.0009858304, -1109004.0, 5658.0225, 0.0, 5.013836, 4.965994 
7.646298e+2, 1.9122484e+2, -1059574.4, -1133557.6, 1407.7834, 0.0046383142, -0.003090128, -1059547.5, 6447.2266, 0.0, 5.0139246, 4.9659925 
7.6462984e+2, 1.961907e+2, -1011048.25, -1086238.1, 1307.8625, 0.004131196, -0.006870054, -1011025.56, 6302.02, 0.0, 5.014013, 4.9653134 
7.646299e+2, 2.0115282e+2, -971385.44, -1057857.6, 1670.6993, 0.0035271638, -0.0028047643, -971353.1, -2655.5017, 0.0, 5.0140676, 4.9581857 
7.646306e+2, 2.0611115e+2, -922124.8, -1008664.7, 1842.5178, 0.0032292958, -0.0040703816, -922085.6, -1979.5266, 0.0, 5.0140786, 4.9581513 
7.646314e+2, 2.1106948e+2, -872828.7, -959380.44, 1768.9249, 0.002987725, -0.0053482708, -872792.56, -1277.8412, 0.0, 5.014086, 4.9581513 
7.646322e+2, 2.160278e+2, -824225.75, -911609.1, 1690.6292, 0.0027795427, -0.006487572, -824193.0, -1269.7367, 0.0, 5.0140924, 4.957632 
7.646328e+2, 2.2098254e+2, -784253.0, -882569.06, 1469.5776, 0.0023841166, 0.00017812103, -784231.06, -9864.572, 0.0, 5.0140686, 4.9506826 
7.6463324e+2, 2.2593327e+2, -734821.56, -832601.5, 1380.9497, 0.0009244087, -0.004894307, -734802.06, -8954.732, 0.0, 5.01398, 4.9509325 
7.646336e+2, 2.3088397e+2, -685733.1, -783381.4, 1297.4894, -0.0006216544, -0.0104207555, -685715.9, -8387.576, 0.0, 5.013887, 4.950931 
7.6463395e+2, 2.3583467e+2, -637294.4, -735607.7, 1215.1326, -0.0021456932, -0.015978796, -637279.3, -8469.967, 0.0, 5.013793, 4.950428 
7.646342e+2, 2.407819e+2, -597874.94, -707909.94, 1068.18, -0.0040807263, -0.009990283, -597864.56, -17539.006, 0.0, 5.0137024, 4.9429436 
7.64634e+2, 2.4572578e+2, -548288.75, -657739.94, 1051.7018, -0.00845008, -0.007041187, -548278.7, -16399.799, 0.0, 5.0136275, 4.9432244 
7.6463383e+2, 2.5066966e+2, -499061.9, -608406.06, 1072.401, -0.0129076, -0.0042959778, -499051.38, -15618.907, 0.0, 5.013553, 4.9432244 
7.646336e+2, 2.556136e+2, -450083.34, -559638.9, 1090.0428, -0.017287653, -0.0012376322, -450072.5, -15086.713, 0.0, 5.0134773, 4.943026 
7.646332e+2, 2.6055372e+2, -409527.34, -529592.56, 766.6267, -0.023060912, 0.009727929, -409522.44, -22950.137, 0.0, 5.0133367, 4.93625 
7.6463103e+2, 2.6549044e+2, -358222.84, -473473.22, -72.804565, -0.04371437, -0.015609631, -358222.78, -20045.588, 0.0, 5.012791, 4.938739 
7.646285e+2, 2.704271e+2, -310226.47, -424773.13, -780.88184, -0.0668223, -0.046726324, -310221.16, -20439.973, 0.0, 5.012187, 4.93873 
7.646259e+2, 2.7536356e+2, -262252.25, -376220.94, -1434.4471, -0.089947276, -0.08037078, -262234.22, -20847.191, 0.0, 5.011576, 4.9386735 
7.6462543e+2, 2.8029537e+2, -236077.03, -377868.66, -536.0799, -0.09734465, -0.069715224, -236075.02, -43031.95, 0.0, 5.011251, 4.92082 
7.6462847e+2, 2.852198e+2, -184112.88, -324631.16, -1942.4563, -0.07216482, -0.044040944, -184086.03, -39293.07, 0.0, 5.0119376, 4.9216137 
7.646307e+2, 2.9014274e+2, -132379.22, -274132.03, -2227.9058, -0.048210446, -0.03947417, -132344.22, -35784.152, 0.0, 5.0127044, 4.921576 
7.646328e+2, 2.9506546e+2, -80636.48, -223672.55, -2457.0278, -0.023610692, -0.037152298, -80594.28, -32265.201, 0.0, 5.013459, 4.9215384 
7.646341e+2, 3.0000672e+2, -8658.388, -92587.3, -3257.1306, 0.0016946003, -0.01478987, -8532.174, -8532.174, 0.0, 5.0142646, 4.95956 
7.64633e+2, 3.0497006e+2, 3409.9937, -69797.84, -3454.741, 0.017847665, -0.053611293, 3572.6646, 3572.6646, 0.0, 5.0153947, 4.967167 
7.6463115e+2, 3.099334e+2, 6900.881, -67408.07, -4098.241, 0.02986414, -0.11328264, 7126.221, 7126.221, 0.0, 5.016552, 4.967482 
7.6462895e+2, 3.148972e+2, 10429.95, -65059.3, -4725.2046, 0.041752256, -0.1715202, 10724.571, 10724.571, 0.0, 5.0176945, 4.9677973 
7.6964706e+2, 1.21544756e+2, -1712028.8, -1749572.0, 535.65594, -0.009233706, 0.0075198817, -1712021.1, 36846.25, 0.0, 5.0141544, 4.989691 
7.6964706e+2, 1.2653151e+2, -1668147.4, -1710412.3, 458.87732, 0.0032800925, 0.008676936, -1668142.4, 31855.408, 0.0, 5.014033, 4.986527 
7.6964545e+2, 1.3151762e+2, -1619475.1, -1661587.1, 434.54547, 0.0004245827, 0.003987246, -1619470.6, 31663.979, 0.0, 5.0139284, 4.986523 
7.696439e+2, 1.365037e+2, -1573138.1, -1617569.6, 750.2725, -0.002311467, 0.0007083402, -1573125.5, 29146.178, 0.0, 5.0138254, 4.984925 
7.696434e+2, 1.4148702e+2, -1530631.4, -1581689.1, 1066.1832, -0.0025135186, 0.011572792, -1530609.0, 22826.236, 0.0, 5.013772, 4.9805245 
7.696431e+2, 1.4646767e+2, -1481593.3, -1532482.4, 1037.6029, -0.0017143345, 0.009550139, -1481572.1, 23052.125, 0.0, 5.013732, 4.980594 
7.696428e+2, 1.514483e+2, -1432662.4, -1483494.4, 1022.2645, -0.0008479645, 0.0073103975, -1432641.9, 23171.516, 0.0, 5.013691, 4.980592 
7.696425e+2, 1.564289e+2, -1385327.0, -1437833.0, 1005.69574, 0.000011927407, 0.0056235017, -1385307.8, 21694.93, 0.0, 5.0136504, 4.9794774 
7.696425e+2, 1.614056e+2, -1344837.3, -1406660.8, 1487.7468, 0.0009718773, 0.010015769, -1344801.5, 13428.893, 0.0, 5.013646, 4.973491 
7.696427e+2, 1.6637896e+2, -1295734.5, -1357692.6, 1461.5869, 0.0015159912, 0.006907383, -1295700.1, 13790.4375, 0.0, 5.013669, 4.973427 
7.696429e+2, 1.7135233e+2, -1246540.3, -1308537.1, 1476.0809, 0.0020271132, 0.0037777808, -1246505.1, 14245.575, 0.0, 5.0136914, 4.9734254 
7.6964307e+2, 1.7632568e+2, -1198673.5, -1262184.1, 1292.8386, 0.0025329338, 0.0010645235, -1198647.1, 13363.811, 0.0, 5.0137134, 4.9724827 
7.6964307e+2, 1.8129516e+2, -1158550.5, -1232333.0, 1571.3457, 0.0028727462, 0.005713306, -1158517.0, 4791.8213, 0.0, 5.013749, 4.9659486 
7.6964325e+2, 1.862609e+2, -1109108.4, -1183039.9, 1513.7001, 0.0027400295, 0.0010473669, -1109077.4, 5565.1914, 0.0, 5.0138364, 4.965938 
7.696435e+2, 1.9122662e+2, -1059650.4, -1133721.6, 1473.3217, 0.002594338, -0.003781657, -1059621.1, 6355.4146, 0.0, 5.013925, 4.965937 
7.6964366e+2, 1.9619235e+2, -1011135.4, -1086425.1, 1359.1036, 0.0024461886, -0.00831515, -1011110.9, 6199.555, 0.0, 5.014013, 4.9652505 
7.696438e+2, 2.0115437e+2, -971491.7, -1058074.8, 1694.8505, 0.0023367116, -0.004446197, -971458.56, -2777.2876, 0.0, 5.014066, 4.9581122 
7.696447e+2, 2.0611271e+2, -922264.94, -1008954.4, 1845.3794, 0.002783849, -0.004614981, -922225.7, -2135.8687, 0.0, 5.0140767, 4.958053 
7.696455e+2, 2.1107106e+2, -872967.75, -959669.7, 1773.5532, 0.0032760182, -0.004723681, -872931.5, -1433.0139, 0.0, 5.014084, 4.9580526 
7.696464e+2, 2.1602942e+2, -824368.2, -911907.5, 1696.208, 0.0037803503, -0.00469443, -824335.3, -1428.1716, 0.0, 5.014091, 4.9575305 
7.6964706e+2, 2.2098406e+2, -784415.5, -882908.3, 1415.2075, 0.0037706036, 0.0020667166, -784395.2, -10043.728, 0.0, 5.014066, 4.9505672 
7.696473e+2, 2.2593437e+2, -734976.75, -832921.75, 1313.6531, 0.0014158324, -0.0059464523, -734959.1, -9123.305, 0.0, 5.013977, 4.950823 
7.696475e+2, 2.3088464e+2, -685887.4, -783697.75, 1234.4297, -0.0011601573, -0.014607021, -685871.8, -8551.337, 0.0, 5.0138836, 4.9508224 
7.6964766e+2, 2.3583491e+2, -637447.75, -735920.3, 1156.3188, -0.0037556265, -0.023308493, -637434.2, -8628.96, 0.0, 5.0137897, 4.9503202 
7.696478e+2, 2.407819e+2, -597874.6, -707847.6, 1016.5636, -0.0064211106, -0.019249145, -597865.25, -17541.98, 0.0, 5.0136933, 4.9429684 
7.696476e+2, 2.4572612e+2, -548251.9, -657592.4, 997.56244, -0.010004364, -0.013491549, -548242.75, -16370.429, 0.0, 5.0136175, 4.94328 
7.6964736e+2, 2.506704e+2, -499020.2, -608262.3, 1024.453, -0.013589081, -0.0074419403, -499010.6, -15589.423, 0.0, 5.0135455, 4.943279 
7.696471e+2, 2.556147e+2, -450036.84, -559498.9, 1048.2906, -0.017149102, -0.0010589142, -450026.8, -15057.111, 0.0, 5.0134716, 4.943079 
7.696467e+2, 2.6055497e+2, -410218.53, -531087.5, 509.26395, -0.02127728, 0.012382685, -410216.38, -23661.645, 0.0, 5.013325, 4.9357367 
7.696447e+2, 2.654907e+2, -359461.53, -475959.47, -409.1692, -0.036738284, -0.013764352, -359460.1, -21288.287, 0.0, 5.012745, 4.9378877 
7.6964223e+2, 2.7042642e+2, -311538.9, -427168.1, -1057.9524, -0.054660354, -0.04567641, -311529.22, -21740.557, 0.0, 5.0121055, 4.937914 
7.696397e+2, 2.7536196e+2, -263638.47, -378524.72, -1652.1383, -0.073009446, -0.079771884, -263614.72, -22208.0, 0.0, 5.0114594, 4.937893 
7.696389e+2, 2.8029302e+2, -235988.05, -377822.03, -684.1351, -0.07842355, -0.07193933, -235984.75, -42911.934, 0.0, 5.0112696, 4.92085 
7.6964194e+2, 2.8521773e+2, -183701.58, -324740.1, -1456.6298, -0.058138914, -0.043000955, -183686.53, -38867.438, 0.0, 5.0120683, 4.9215927 
7.696443e+2, 2.9014125e+2, -132009.97, -274142.63, -1671.3956, -0.03966255, -0.031543095, -131990.31, -35410.832, 0.0, 5.0128164, 4.9215875 
7.6964664e+2, 2.950646e+2, -80309.5, -223585.08, -1829.8749, -0.02099736, -0.022388065, -80286.13, -31944.57, 0.0, 5.0135517, 4.9215817 
7.6964825e+2, 3.0000633e+2, -8515.321, -92651.625, -2538.8752, -0.0012201772, 0.004638369, -8438.779, -8438.779, 0.0, 5.014329, 4.959543 
7.696485e+2, 3.0496922e+2, 2747.0034, -71433.01, -2567.0112, 0.016540386, -0.03290398, 2835.729, 2835.729, 0.0, 5.0154123, 4.9666195 
7.6964813e+2, 3.09932e+2, 6077.9717, -69192.98, -3083.957, 0.030881736, -0.088977516, 6204.1143, 6204.1143, 0.0, 5.0165305, 4.966908 
7.696475e+2, 3.1489542e+2, 9447.409, -66993.86, -3584.4585, 0.04409249, -0.1422811, 9615.122, 9615.122, 0.0, 5.0176344, 4.9671965 
7.7466094e+2, 1.215468e+2, -1711988.3, -1749495.1, 245.21805, -0.011710431, 0.008385866, -1711986.6, 36860.355, 0.0, 5.014156, 4.989715 
7.746609e+2, 1.2653333e+2, -1668165.9, -1710470.9, 372.94128, 0.0018113898, 0.0072266664, -1668162.6, 31817.45, 0.0, 5.0140367, 4.9865065 
7.746593e+2, 1.3151954e+2, -1619492.4, -1661646.8, 350.8563, -0.00026795443, 0.003966466, -1619489.5, 31626.361, 0.0, 5.013932, 4.986502 
7.746577e+2, 1.3650574e+2, -1573145.5, -1617612.4, 681.9988, -0.0022583185, 0.002124853, -1573135.0, 29116.94, 0.0, 5.0138297, 4.984909 
7.746573e+2, 1.4148912e+2, -1530643.5, -1581730.0, 1035.6763, -0.002066428, 0.013616177, -1530622.5, 22792.713, 0.0, 5.013775, 4.98051 
7.7465683e+2, 1.4646965e+2, -1481597.5, -1532506.5, 1004.98254, -0.0014900792, 0.010506499, -1481577.6, 23027.535, 0.0, 5.013735, 4.980585 
7.746565e+2, 1.5145014e+2, -1432666.6, -1483518.6, 990.4379, -0.00088031555, 0.007136483, -1432647.4, 23148.059, 0.0, 5.0136933, 4.9805827 
7.7465606e+2, 1.5643065e+2, -1385320.9, -1437836.4, 982.0684, -0.00028674115, 0.004322199, -1385302.6, 21683.12, 0.0, 5.013653, 4.9794755 
7.74656e+2, 1.6140728e+2, -1344812.6, -1406619.1, 1502.1614, 0.0002856912, 0.00815163, -1344776.1, 13437.7, 0.0, 5.013648, 4.9735045 
7.746562e+2, 1.6638075e+2, -1295690.1, -1357607.0, 1479.667, 0.00027343846, 0.0057813544, -1295654.8, 13818.132, 0.0, 5.0136704, 4.973455 
7.7465636e+2, 1.7135422e+2, -1246497.0, -1308451.1, 1495.3441, 0.00019992549, 0.0034373212, -1246461.0, 14270.976, 0.0, 5.013693, 4.9734535 
7.7465653e+2, 1.7632768e+2, -1198653.6, -1262144.4, 1301.6659, 0.0001045887, 0.0015175601, -1198626.9, 13364.058, 0.0, 5.013714, 4.9724956 
7.7465653e+2, 1.812972e+2, -1158587.8, -1232412.4, 1629.9387, 0.00010468215, 0.0065149846, -1158551.8, 4736.729, 0.0, 5.013749, 4.965922 
7.7465683e+2, 1.862628e+2, -1109184.8, -1183203.9, 1577.7362, 0.00033223137, 0.0011192262, -1109151.1, 5472.069, 0.0, 5.013837, 4.9658823 
7.7465725e+2, 1.9122839e+2, -1059726.9, -1133885.4, 1538.7379, 0.0005689914, -0.004484554, -1059695.0, 6263.325, 0.0, 5.013925, 4.9658813 
7.7465755e+2, 1.9619398e+2, -1011222.7, -1086611.4, 1410.1177, 0.00078647904, -0.009793286, -1011196.3, 6096.9707, 0.0, 5.014013, 4.9651866 
7.746578e+2, 2.0115593e+2, -971606.94, -1058310.3, 1717.8291, 0.0011443998, -0.006042782, -971572.94, -2908.09, 0.0, 5.0140643, 4.958032 
7.746587e+2, 2.061143e+2, -922405.56, -1009243.6, 1848.4885, 0.0023332126, -0.0051078666, -922366.25, -2292.7698, 0.0, 5.014075, 4.957955 
7.746597e+2, 2.1107267e+2, -873107.4, -959958.5, 1778.4293, 0.0035641326, -0.004075194, -873071.0, -1588.734, 0.0, 5.014082, 4.957954 
7.746606e+2, 2.1603101e+2, -824510.94, -912204.94, 1702.0046, 0.0047859917, -0.002905195, -824477.94, -1586.9089, 0.0, 5.014089, 4.9574285 
7.7466124e+2, 2.2098556e+2, -784589.8, -883271.75, 1359.9003, 0.005173542, 0.003985642, -784571.06, -10234.666, 0.0, 5.014064, 4.9504423 
7.746613e+2, 2.2593547e+2, -735133.0, -833241.2, 1245.2212, 0.0019130001, -0.007016168, -735117.2, -9292.837, 0.0, 5.0139747, 4.950712 
7.746613e+2, 2.3088533e+2, -686042.7, -784013.4, 1170.2347, -0.0017064242, -0.018887915, -686028.75, -8716.035, 0.0, 5.0138807, 4.9507127 
7.7466124e+2, 2.3583518e+2, -637602.2, -736232.1, 1096.3698, -0.0053868294, -0.030809877, -637590.0, -8788.869, 0.0, 5.013786, 4.9502115 
7.7466124e+2, 2.4078193e+2, -597906.3, -707852.0, 956.74164, -0.008771802, -0.028314095, -597898.0, -17577.21, 0.0, 5.0136847, 4.9429693 
7.7466106e+2, 2.4572648e+2, -548217.6, -657442.3, 945.8631, -0.011552839, -0.019641107, -548209.44, -16343.963, 0.0, 5.0136075, 4.9433355 
7.746608e+2, 2.5067112e+2, -498981.2, -608116.06, 978.9448, -0.014267275, -0.010413896, -498972.4, -15562.793, 0.0, 5.0135374, 4.9433317 
7.746606e+2, 2.556158e+2, -449993.06, -559356.4, 1008.97815, -0.017009784, -0.00083298323, -449983.75, -15030.313, 0.0, 5.0134654, 4.9431305 
7.746602e+2, 2.6055613e+2, -411036.28, -532849.94, 222.96446, -0.019125506, 0.014960975, -411035.88, -24498.201, 0.0, 5.013314, 4.935123 
7.746582e+2, 2.6549092e+2, -360711.66, -478438.25, -800.50397, -0.029523252, -0.012965378, -360706.22, -22538.695, 0.0, 5.012699, 4.937021 
7.7465576e+2, 2.7042556e+2, -312862.7, -429555.34, -1390.0055, -0.042652603, -0.046815947, -312846.13, -23048.486, 0.0, 5.012024, 4.9370823 
7.746532e+2, 2.753602e+2, -265035.9, -380820.44, -1924.8267, -0.05661892, -0.08250557, -265003.94, -23575.682, 0.0, 5.0113425, 4.9370966 
7.746524e+2, 2.8029066e+2, -236455.56, -379051.88, -653.0932, -0.059223857, -0.0736769, -236452.56, -43349.98, 0.0, 5.011289, 4.920427 
7.746556e+2, 2.852158e+2, -183309.89, -324831.0, -1032.165, -0.04332126, -0.039154623, -183302.36, -38458.184, 0.0, 5.0121994, 4.9215565 
7.7465814e+2, 2.9013982e+2, -131660.14, -274135.06, -1176.2035, -0.030740172, -0.022373179, -131650.42, -35051.918, 0.0, 5.012928, 4.921583 
7.746606e+2, 2.950637e+2, -80001.77, -223479.38, -1263.9995, -0.018426782, -0.007952528, -79990.64, -31636.326, 0.0, 5.013644, 4.92161 
7.7466244e+2, 3.0000582e+2, -8638.044, -93277.375, -1839.5117, -0.003983933, 0.023588229, -8598.083, -8598.083, 0.0, 5.014393, 4.959309 
7.7466404e+2, 3.049682e+2, 2061.7917, -73047.02, -1649.6563, 0.016656484, -0.01383866, 2098.0066, 2098.0066, 0.0, 5.01543, 4.9660463 
7.7466524e+2, 3.0993035e+2, 5232.823, -70956.95, -2039.969, 0.03442448, -0.069460414, 5287.4043, 5287.4043, 0.0, 5.016509, 4.9663076 
7.746661e+2, 3.1489322e+2, 8442.592, -68907.73, -2413.9177, 0.05005982, -0.12097629, 8517.852, 8517.852, 0.0, 5.017574, 4.9665694 
7.796749e+2, 1.2154875e+2, -1712976.9, -1749825.9, -401.03928, -0.01370068, 0.009359157, -1712972.5, 35855.2, 0.0, 5.0137978, 4.9897823 
7.796748e+2, 1.2653506e+2, -1669074.8, -1710943.3, -63.509995, 0.00064687326, 0.006102631, -1669074.6, 30888.438, 0.0, 5.0137424, 4.986495 
7.7967316e+2, 1.3152139e+2, -1620265.5, -1662050.9, -53.7274, -0.00086360436, 0.0040314444, -1620265.5, 30832.516, 0.0, 5.0136824, 4.986491 
7.7967155e+2, 1.3650769e+2, -1573823.6, -1617953.6, 320.4266, -0.0022680266, 0.0033834516, -1573821.3, 28411.924, 0.0, 5.013607, 4.984905 
7.796711e+2, 1.4149112e+2, -1531295.4, -1582083.0, 743.87396, -0.0017656265, 0.015414297, -1531284.5, 22111.588, 0.0, 5.013566, 4.980495 
7.796706e+2, 1.4647155e+2, -1482179.1, -1532807.9, 714.7098, -0.001375444, 0.011319786, -1482169.1, 22417.904, 0.0, 5.013545, 4.980577 
7.796702e+2, 1.5145193e+2, -1433201.3, -1483796.6, 704.2766, -0.0009717176, 0.0069178883, -1433191.5, 22586.63, 0.0, 5.013519, 4.9805746 
7.796697e+2, 1.5643232e+2, -1385811.1, -1438074.4, 705.35535, -0.00058399985, 0.0030683717, -1385801.6, 21167.768, 0.0, 5.013489, 4.979475 
7.7966964e+2, 1.6140889e+2, -1345279.0, -1406830.0, 1262.7782, -0.00035008116, 0.0063997144, -1345253.0, 12944.865, 0.0, 5.0134892, 4.9735093 
7.7966976e+2, 1.6638245e+2, -1296138.6, -1357775.5, 1215.7399, -0.0008673145, 0.0047259284, -1296114.8, 13341.292, 0.0, 5.01351, 4.973474 
7.7966994e+2, 1.7135601e+2, -1246964.4, -1308628.5, 1203.3927, -0.0014439473, 0.003110101, -1246940.9, 13773.191, 0.0, 5.0135255, 4.973473 
7.7967006e+2, 1.7632957e+2, -1199163.8, -1262355.1, 966.06586, -0.0020300678, 0.0019182957, -1199149.0, 12823.184, 0.0, 5.013535, 4.972509 
7.7967006e+2, 1.812991e+2, -1159213.9, -1232798.8, 1331.9996, -0.002282891, 0.0072527817, -1159189.8, 4079.4858, 0.0, 5.0135546, 4.9658833 
7.796705e+2, 1.862646e+2, -1109894.9, -1183661.0, 1296.7693, -0.0017447738, 0.0011410897, -1109872.0, 4733.0527, 0.0, 5.013619, 4.9658303 
7.7967095e+2, 1.9123006e+2, -1060519.8, -1134380.3, 1272.7899, -0.0011580632, -0.0052191336, -1060497.9, 5443.282, 0.0, 5.0136776, 4.965829 
7.796714e+2, 1.9619553e+2, -1012125.25, -1087172.5, 1142.349, -0.0005835382, -0.011276408, -1012107.9, 5169.2827, 0.0, 5.0137305, 4.9651275 
7.7967167e+2, 2.0115739e+2, -972622.06, -1058990.4, 1432.8043, 0.00016397593, -0.0075725336, -972598.3, -3948.9036, 0.0, 5.0137553, 4.957945 
7.796727e+2, 2.0611577e+2, -923431.0, -1009962.06, 1535.3942, 0.0019014461, -0.005593626, -923403.75, -3345.537, 0.0, 5.0137677, 4.9578514 
7.796737e+2, 2.1107414e+2, -874133.75, -960676.3, 1453.9548, 0.0036994268, -0.0035203064, -874109.3, -2642.1492, 0.0, 5.013773, 4.957851 
7.7967477e+2, 2.160325e+2, -825557.5, -912936.7, 1365.0397, 0.0054894956, -0.0013233531, -825536.2, -2660.0212, 0.0, 5.013773, 4.957322 
7.796754e+2, 2.2098693e+2, -785640.9, -884065.25, 970.66895, 0.006216352, 0.0057120402, -785631.3, -11308.645, 0.0, 5.013758, 4.9503098 
7.796753e+2, 2.2593646e+2, -735990.4, -833904.6, 827.54846, 0.0022872775, -0.007976086, -735983.4, -10169.355, 0.0, 5.013728, 4.9505954 
7.796752e+2, 2.3088592e+2, -686763.6, -784612.4, 729.5424, -0.002022822, -0.022721866, -686758.2, -9452.314, 0.0, 5.013682, 4.950595 
7.79675e+2, 2.3583537e+2, -638228.7, -736785.7, 629.5266, -0.00633975, -0.037499554, -638224.7, -9426.88, 0.0, 5.0136213, 4.9500933 
7.796749e+2, 2.4078195e+2, -598357.9, -708146.44, 446.2726, -0.010045952, -0.036030274, -598356.06, -18037.229, 0.0, 5.0135465, 4.942931 
7.7967465e+2, 2.4572678e+2, -548538.0, -657521.25, 372.33884, -0.012074697, -0.02478103, -548536.7, -16676.88, 0.0, 5.0134835, 4.9433656 
7.796744e+2, 2.506717e+2, -499297.75, -608197.25, 329.21613, -0.013944749, -0.013079272, -499296.75, -15896.638, 0.0, 5.0134144, 4.943361 
7.796742e+2, 2.5561666e+2, -450339.66, -559454.25, 286.05283, -0.015814617, -0.0011440327, -450338.9, -15398.694, 0.0, 5.0133324, 4.943158 
7.796739e+2, 2.605569e+2, -412162.97, -535009.7, -741.4426, -0.015598683, 0.01649317, -412158.5, -25633.666, 0.0, 5.0132394, 4.9344006 
7.796719e+2, 2.6549068e+2, -361234.6, -480899.16, -2014.508, -0.020690836, -0.0126768695, -361200.7, -23033.268, 0.0, 5.012958, 4.936036 
7.796696e+2, 2.704243e+2, -312646.44, -431726.34, -2872.03, -0.028221048, -0.04803769, -312577.22, -22765.941, 0.0, 5.012568, 4.936076 
7.7966714e+2, 2.7535784e+2, -264317.56, -382795.75, -3811.1116, -0.036257084, -0.08503851, -264195.1, -22739.36, 0.0, 5.012094, 4.936069 
7.796666e+2, 2.802877e+2, -235363.73, -380107.8, -2207.5256, -0.033820502, -0.07203353, -235330.08, -42191.67, 0.0, 5.0120525, 4.919699 
7.796698e+2, 2.8521344e+2, -181424.36, -323484.7, -1729.9915, -0.0237923, -0.031658098, -181403.3, -36529.746, 0.0, 5.0128436, 4.9216933 
7.796724e+2, 2.9013807e+2, -130195.805, -273067.66, -1374.6863, -0.018963095, -0.011819498, -130182.58, -33561.516, 0.0, 5.013418, 4.921699 
7.796748e+2, 2.9506254e+2, -79245.45, -222802.61, -1077.519, -0.014069161, 0.0060435436, -79237.36, -30867.422, 0.0, 5.013881, 4.921705 
7.7967685e+2, 3.000051e+2, -9475.836, -94591.984, -1326.3876, -0.0050032497, 0.041909173, -9455.171, -9455.171, 0.0, 5.0142817, 4.9588537 
7.796798e+2, 3.0496687e+2, -457.40466, -75675.81, -1087.8984, 0.019294942, 0.0037543536, -441.6735, -441.6735, 0.0, 5.014803, 4.9653177 
7.796824e+2, 3.099281e+2, 662.1255, -74508.09, -1496.9076, 0.04287545, -0.055994797, 691.9224, 691.9224, 0.0, 5.015137, 4.965555 
7.796848e+2, 3.1488988e+2, 1207.8054, -73627.445, -1794.0133, 0.065270424, -0.11278623, 1250.7883, 1250.7883, 0.0, 5.015239, 4.9657927 
7.846889e+2, 1.2155017e+2, -1712935.3, -1749552.3, -75.93976, -0.010215124, 0.007540476, -1712935.1, 35879.82, 0.0, 5.0137625, 4.9898863 
7.846885e+2, 1.2653686e+2, -1669101.4, -1710759.6, 401.3176, 0.001101376, 0.007315963, -1669097.5, 30848.607, 0.0, 5.013698, 4.986575 
7.846867e+2, 1.3152322e+2, -1620319.1, -1661882.0, 458.2933, -0.0010635717, 0.0048039397, -1620314.1, 30766.297, 0.0, 5.0136294, 4.9865704 
7.8468496e+2, 1.3650955e+2, -1573832.6, -1617724.4, 879.77106, -0.003099578, 0.003716072, -1573815.0, 28399.979, 0.0, 5.0135612, 4.9850006 
7.8468436e+2, 1.41493e+2, -1531373.0, -1582086.8, 1403.0333, -0.002962876, 0.015380671, -1531334.3, 22043.1, 0.0, 5.013541, 4.980503 
7.8468394e+2, 1.464734e+2, -1482148.6, -1532777.0, 1360.7595, -0.0024939608, 0.011102168, -1482112.1, 22456.307, 0.0, 5.0135603, 4.980577 
7.846835e+2, 1.5145376e+2, -1433039.1, -1483702.9, 1342.2308, -0.0019859842, 0.0065273163, -1433003.6, 22756.12, 0.0, 5.0135784, 4.980574 
7.8468305e+2, 1.5643413e+2, -1385487.0, -1437875.8, 1342.642, -0.0014802418, 0.0024977387, -1385452.6, 21498.596, 0.0, 5.0135975, 4.9794865 
7.8468305e+2, 1.6141069e+2, -1344887.9, -1406713.8, 1911.0026, -0.001135968, 0.005702441, -1344828.8, 13351.147, 0.0, 5.0136456, 4.97347 
7.846832e+2, 1.6638422e+2, -1295683.5, -1357649.1, 1804.8513, -0.0014326982, 0.004275732, -1295630.9, 13807.504, 0.0, 5.0136924, 4.973427 
7.846834e+2, 1.7135775e+2, -1246421.8, -1308465.8, 1737.3623, -0.0017433346, 0.0029142855, -1246373.1, 14323.801, 0.0, 5.013738, 4.973424 
7.8468364e+2, 1.7633128e+2, -1198526.5, -1262167.6, 1434.8868, -0.0020161544, 0.0019742474, -1198494.3, 13461.197, 0.0, 5.0137835, 4.9724517 
7.846837e+2, 1.8130076e+2, -1158422.9, -1232461.8, 1813.4995, -0.0019650878, 0.007268418, -1158378.5, 4874.469, 0.0, 5.0138373, 4.9658623 
7.846842e+2, 1.8626618e+2, -1109069.5, -1183295.8, 1787.8358, -0.0015575519, 0.0006027614, -1109026.5, 5562.658, 0.0, 5.013911, 4.9658155 
7.846847e+2, 1.9123158e+2, -1059656.5, -1134003.1, 1778.9443, -0.0010939774, -0.006297105, -1059614.0, 6311.588, 0.0, 5.0139837, 4.9658127 
7.846852e+2, 1.9619699e+2, -1011219.75, -1086802.8, 1650.6617, -0.0006142958, -0.012871379, -1011183.75, 6078.185, 0.0, 5.014056, 4.965101 
7.846855e+2, 2.0115879e+2, -971711.4, -1058745.4, 1960.2045, -0.000097536846, -0.009278244, -971667.25, -3032.7375, 0.0, 5.0141053, 4.9578667 
7.8468645e+2, 2.0611712e+2, -922473.2, -1009759.25, 2062.99, 0.0009343758, -0.006605921, -922424.44, -2380.5974, 0.0, 5.014147, 4.957747 
7.8468746e+2, 2.1107547e+2, -873078.44, -960432.0, 1991.5397, 0.0020159946, -0.003791335, -873033.06, -1579.7145, 0.0, 5.0141873, 4.9577456 
7.846884e+2, 2.160338e+2, -824393.75, -912653.75, 1911.9517, 0.0031038933, -0.0008553556, -824352.4, -1489.4608, 0.0, 5.014227, 4.957213 
7.84689e+2, 2.2098814e+2, -784366.0, -883739.5, 1536.5059, 0.0035618937, 0.006344201, -784342.25, -10031.778, 0.0, 5.014255, 4.950195 
7.8468907e+2, 2.2593747e+2, -734579.1, -833594.8, 1379.7125, 0.0010338692, -0.007819535, -734559.9, -8755.827, 0.0, 5.01429, 4.9504476 
7.846891e+2, 2.3088673e+2, -685131.56, -784204.75, 1257.5018, -0.001644885, -0.022992471, -685115.6, -7817.447, 0.0, 5.0143237, 4.9504466 
7.846891e+2, 2.35836e+2, -636336.56, -736263.3, 1135.8387, -0.004226703, -0.038164284, -636323.6, -7531.327, 0.0, 5.0143566, 4.949944 
7.846891e+2, 2.4078241e+2, -596200.25, -707409.4, 883.02966, -0.006481016, -0.0369515, -596193.25, -15878.23, 0.0, 5.014357, 4.9428244 
7.8468883e+2, 2.4572715e+2, -546433.5, -656782.5, 726.13, -0.00856172, -0.025538795, -546428.7, -14572.846, 0.0, 5.0142703, 4.943273 
7.8468853e+2, 2.5067198e+2, -497260.6, -607487.5, 613.3309, -0.010562484, -0.013747001, -497257.2, -13861.212, 0.0, 5.014178, 4.94327 
7.8468823e+2, 2.5561684e+2, -448335.63, -558758.44, 499.89166, -0.012507195, -0.0018689738, -448333.38, -13397.34, 0.0, 5.0140834, 4.9430685 
7.8468794e+2, 2.6055694e+2, -410371.7, -535283.44, -319.57553, -0.0119732935, 0.016328167, -410370.88, -23849.12, 0.0, 5.014081, 4.9339366 
7.846865e+2, 2.6549026e+2, -358415.75, -481606.22, -1287.5889, -0.013238326, -0.009878281, -358402.28, -20230.11, 0.0, 5.0143223, 4.9352107 
7.8468484e+2, 2.704233e+2, -308082.28, -431808.25, -1841.162, -0.015806973, -0.042131305, -308054.9, -18229.564, 0.0, 5.0145726, 4.9352055 
7.8468305e+2, 2.7535617e+2, -257796.28, -382166.3, -2359.1858, -0.018267589, -0.076022126, -257751.55, -16271.892, 0.0, 5.0148177, 4.935153 
7.846829e+2, 2.802854e+2, -226568.19, -375711.56, -331.42062, -0.012635648, -0.06386015, -226567.45, -33396.023, 0.0, 5.015117, 4.9198875 
7.8468573e+2, 2.8521138e+2, -174404.23, -319151.06, 223.71259, -0.0070922566, -0.025264999, -174403.89, -29501.455, 0.0, 5.015162, 4.9221716 
7.84688e+2, 2.9013655e+2, -125000.484, -269712.28, 274.56534, -0.0063530924, -0.004348455, -124999.96, -28357.041, 0.0, 5.0150948, 4.922138 
7.8469026e+2, 2.9506156e+2, -75574.62, -220292.34, 372.4324, -0.0049677817, 0.01502429, -75573.66, -27188.904, 0.0, 5.015015, 4.9221053 
7.8469205e+2, 3.000046e+2, -7440.451, -93861.234, 40.486076, 0.0006971104, 0.052492272, -7440.432, -7440.432, 0.0, 5.0149856, 4.958833 
7.8469497e+2, 3.049664e+2, 48.44654, -77047.63, 226.60548, 0.02166707, 0.019785857, 49.112587, 49.112587, 0.0, 5.015174, 4.9646993 
7.846977e+2, 3.099275e+2, 858.40247, -76057.555, -320.93738, 0.043596216, -0.034390338, 859.7416, 859.7416, 0.0, 5.0153666, 4.9649267 
7.847002e+2, 3.14889e+2, 1698.3844, -75097.82, -858.93494, 0.06595595, -0.087542884, 1707.9901, 1707.9901, 0.0, 5.015546, 4.965154 
7.8970295e+2, 1.2155238e+2, -1712730.8, -1749156.0, -204.86185, -0.007322886, 0.009169705, -1712729.6, 36065.246, 0.0, 5.013766, 4.990016 
7.8970224e+2, 1.2653916e+2, -1668934.0, -1710456.8, 339.71082, 0.0013494607, 0.009048048, -1668931.3, 30993.125, 0.0, 5.013704, 4.9866734 
7.8970027e+2, 1.3152555e+2, -1620151.6, -1661581.1, 400.13873, -0.0015643658, 0.005782732, -1620147.8, 30910.242, 0.0, 5.0136356, 4.9866686 
7.8969836e+2, 1.365119e+2, -1573653.3, -1617401.6, 820.2442, -0.0044037113, 0.0039437, -1573637.9, 28553.96, 0.0, 5.013568, 4.985106 
7.8969777e+2, 1.4149535e+2, -1531340.8, -1582051.5, 1422.4116, -0.0047733933, 0.015084665, -1531300.9, 22052.838, 0.0, 5.013546, 4.9805136 
7.896974e+2, 1.4647573e+2, -1482145.8, -1532800.5, 1373.6785, -0.0041629067, 0.010747752, -1482108.5, 22436.469, 0.0, 5.0135646, 4.980568 
7.8969693e+2, 1.514561e+2, -1433036.9, -1483726.4, 1356.0297, -0.0034964352, 0.006142497, -1433000.6, 22735.805, 0.0, 5.0135827, 4.980565 
7.896965e+2, 1.5643646e+2, -1385463.4, -1437853.6, 1364.1974, -0.0028393345, 0.0020853211, -1385427.9, 21500.043, 0.0, 5.0136013, 4.979493 
7.896965e+2, 1.61413e+2, -1344972.4, -1406909.9, 1952.7041, -0.0022611492, 0.0052306093, -1344910.9, 13246.126, 0.0, 5.0136485, 4.973404 
7.896968e+2, 1.6638646e+2, -1295780.8, -1357871.3, 1840.0962, -0.0020845751, 0.0039138957, -1295726.3, 13689.996, 0.0, 5.0136952, 4.973352 
7.896972e+2, 1.7135993e+2, -1246519.5, -1308687.1, 1773.4989, -0.0019263843, 0.0026696448, -1246469.0, 14206.653, 0.0, 5.0137405, 4.973349 
7.8969747e+2, 1.7633338e+2, -1198635.4, -1262409.9, 1462.6749, -0.0017391853, 0.0018579144, -1198601.9, 13333.04, 0.0, 5.0137854, 4.97237 
7.896976e+2, 1.8130282e+2, -1158456.1, -1232531.9, 1871.0657, -0.0012923733, 0.0070436858, -1158408.9, 4824.395, 0.0, 5.0138373, 4.965839 
7.896981e+2, 1.8626818e+2, -1109086.6, -1183330.1, 1842.4629, -0.001110193, -0.00015015872, -1109040.9, 5528.785, 0.0, 5.0139103, 4.9658046 
7.8969866e+2, 1.9123349e+2, -1059674.0, -1134037.0, 1834.792, -0.00091748807, -0.0075844144, -1059628.8, 6277.571, 0.0, 5.0139832, 4.9658017 
7.896992e+2, 1.9619884e+2, -1011252.5, -1086868.0, 1694.136, -0.0007260008, -0.014690963, -1011214.56, 6028.377, 0.0, 5.0140557, 4.9650793 
7.896996e+2, 2.0116058e+2, -971815.2, -1058956.3, 1999.9429, -0.0006304865, -0.011182261, -971769.3, -3153.5432, 0.0, 5.014104, 4.9577956 
7.8970045e+2, 2.061189e+2, -922609.44, -1010042.0, 2093.6438, -0.0005257541, -0.00781937, -922559.3, -2533.7708, 0.0, 5.0141454, 4.9576516 
7.8970134e+2, 2.1107721e+2, -873213.94, -960714.2, 2023.8955, -0.00041799256, -0.0042604255, -873167.2, -1731.7003, 0.0, 5.0141854, 4.95765 
7.897023e+2, 2.160355e+2, -824533.56, -912946.44, 1944.7677, -0.00032602332, -0.0005793607, -824490.8, -1645.3976, 0.0, 5.0142255, 4.9571137 
7.8970295e+2, 2.2098978e+2, -784522.2, -884068.75, 1555.4119, -0.00026509876, 0.0068384223, -784497.9, -10203.87, 0.0, 5.014253, 4.9500837 
7.897032e+2, 2.2593896e+2, -734789.2, -834041.5, 1409.4156, -0.0008798448, -0.0073880437, -734769.2, -8979.546, 0.0, 5.014287, 4.9502964 
7.897035e+2, 2.3088807e+2, -685340.6, -784650.0, 1290.509, -0.0015228946, -0.022593878, -685323.9, -8038.076, 0.0, 5.014321, 4.9502954 
7.897037e+2, 2.3583716e+2, -636544.7, -736707.1, 1172.1477, -0.0021130645, -0.037796788, -636530.94, -7748.9263, 0.0, 5.0143538, 4.949793 
7.8970385e+2, 2.4078342e+2, -596383.8, -707779.0, 836.50543, -0.002794211, -0.036682382, -596377.5, -16071.096, 0.0, 5.014352, 4.942699 
7.897035e+2, 2.4572803e+2, -546611.94, -657130.25, 654.2516, -0.005097114, -0.025427647, -546608.06, -14760.422, 0.0, 5.0142627, 4.9431553 
7.89703e+2, 2.5067273e+2, -497439.94, -607836.2, 546.84393, -0.00752813, -0.013722363, -497437.22, -14049.281, 0.0, 5.0141697, 4.9431515 
7.897026e+2, 2.5561744e+2, -448515.84, -559108.06, 438.80026, -0.0099771945, -0.0019050954, -448514.1, -13585.933, 0.0, 5.0140743, 4.94295 
7.897023e+2, 2.6055744e+2, -410921.44, -536438.0, -169.60928, -0.009769352, 0.016789936, -410921.22, -24406.23, 0.0, 5.014067, 4.933542 
7.8970146e+2, 2.6549032e+2, -359368.7, -483511.16, -976.26526, -0.00827629, -0.0072328364, -359361.0, -21188.309, 0.0, 5.014285, 4.9345613 
7.8970045e+2, 2.7042288e+2, -309084.47, -433655.7, -1490.3307, -0.007809457, -0.03704492, -309066.66, -19232.977, 0.0, 5.014511, 4.934578 
7.8969926e+2, 2.7535537e+2, -258847.67, -383956.34, -1968.8276, -0.0075293914, -0.06829482, -258816.7, -17321.281, 0.0, 5.014733, 4.9345474 
7.8969944e+2, 2.802842e+2, -226358.03, -375376.56, -380.68097, -0.000979745, -0.056384057, -226357.05, -33163.426, 0.0, 5.015135, 4.920017 
7.8970206e+2, 2.8521034e+2, -173701.64, -318327.4, 109.321396, 0.0034180905, -0.019182298, -173701.56, -28779.416, 0.0, 5.0152597, 4.922477 
7.8970414e+2, 2.9013577e+2, -124337.13, -268810.47, 221.22343, 0.0031504089, 0.0020227414, -124336.8, -27678.838, 0.0, 5.015176, 4.9224706 
7.897061e+2, 2.9506105e+2, -74950.76, -219312.58, 380.11392, 0.0031043426, 0.021606557, -74949.76, -26554.799, 0.0, 5.01508, 4.922465 
7.897078e+2, 3.0000445e+2, -7322.3833, -93879.02, 124.32253, 0.006378842, 0.059995312, -7322.2046, -7322.2046, 0.0, 5.015032, 4.9588356 
7.897104e+2, 3.0496648e+2, -488.79602, -78406.43, 400.95538, 0.022561325, 0.03451855, -486.73282, -486.73282, 0.0, 5.015189, 4.9642453 
7.8971285e+2, 3.0992785e+2, 200.56552, -77539.39, -44.145233, 0.038685508, -0.010057629, 200.59058, 200.59058, 0.0, 5.0153537, 4.9644504 
7.897151e+2, 3.1488967e+2, 920.03046, -76702.71, -479.722, 0.054341447, -0.052595664, 922.9951, 922.9951, 0.0, 5.015505, 4.964655 
7.9471695e+2, 1.21554896e+2, -1712477.6, -1748657.9, -320.22687, -0.00532363, 0.014068263, -1712474.8, 36296.965, 0.0, 5.013769, 4.9901786 
7.9471594e+2, 1.2654148e+2, -1668768.0, -1710152.8, 278.75473, 0.0016333935, 0.010848495, -1668766.1, 31136.502, 0.0, 5.01371, 4.9867716 
7.9471385e+2, 1.3152787e+2, -1619985.4, -1661279.0, 342.63455, -0.0020270043, 0.006789424, -1619982.5, 31053.043, 0.0, 5.0136423, 4.9867663 
7.947118e+2, 1.3651425e+2, -1573488.6, -1617105.6, 765.48224, -0.0056673433, 0.004159312, -1573475.3, 28693.527, 0.0, 5.013575, 4.985202 
7.947111e+2, 1.4149772e+2, -1531304.3, -1582006.0, 1436.362, -0.0065854457, 0.014816572, -1531263.6, 22066.58, 0.0, 5.0135503, 4.980527 
7.9471076e+2, 1.4647809e+2, -1482143.1, -1532823.8, 1386.387, -0.0058355434, 0.010413588, -1482105.3, 22416.248, 0.0, 5.013569, 4.980559 
7.947104e+2, 1.5145846e+2, -1433034.9, -1483749.6, 1369.6179, -0.0050075254, 0.00576266, -1432997.9, 22715.117, 0.0, 5.013587, 4.980556 
7.9471e+2, 1.5643878e+2, -1385440.0, -1437831.1, 1384.4019, -0.0041960236, 0.0016633365, -1385403.5, 21501.205, 0.0, 5.0136056, 4.9794993 
7.947101e+2, 1.614153e+2, -1345061.4, -1407114.4, 1994.822, -0.003386173, 0.004777542, -1344997.3, 13136.727, 0.0, 5.013652, 4.973335 
7.947105e+2, 1.663887e+2, -1295878.5, -1358093.0, 1874.9224, -0.0027360364, 0.0035690942, -1295822.1, 13572.073, 0.0, 5.0136976, 4.9732766 
7.947109e+2, 1.713621e+2, -1246617.8, -1308908.1, 1809.2166, -0.002106785, 0.0024319796, -1246565.1, 14089.099, 0.0, 5.013743, 4.973274 
7.9471123e+2, 1.7633551e+2, -1198743.8, -1262649.9, 1488.8022, -0.0014571482, 0.0017386911, -1198709.1, 13205.353, 0.0, 5.0137873, 4.9722886 
7.947115e+2, 1.8130486e+2, -1158494.5, -1232612.4, 1928.3859, -0.0006270081, 0.0068399385, -1158444.4, 4769.085, 0.0, 5.0138373, 4.9658117 
7.947121e+2, 1.8627015e+2, -1109104.1, -1183364.0, 1896.8712, -0.0006704718, -0.0008871218, -1109055.6, 5494.5415, 0.0, 5.0139103, 4.965793 
7.947127e+2, 1.912354e+2, -1059691.9, -1134070.8, 1890.4209, -0.00074532843, -0.008871077, -1059643.9, 6243.1943, 0.0, 5.013983, 4.9657907 
7.9471326e+2, 1.9620067e+2, -1011282.3, -1086925.8, 1738.7914, -0.00083864946, -0.016525058, -1011242.4, 5981.543, 0.0, 5.014055, 4.9650598 
7.947136e+2, 2.0116238e+2, -971926.75, -1059182.8, 2038.3359, -0.001170195, -0.013055916, -971879.1, -3282.1326, 0.0, 5.014102, 4.9577193 
7.9471445e+2, 2.0612067e+2, -922746.1, -1010324.4, 2124.4338, -0.00199573, -0.009016405, -922694.6, -2687.436, 0.0, 5.014144, 4.9575562 
7.9471534e+2, 2.1107894e+2, -873349.94, -960996.0, 2056.3875, -0.0028591745, -0.0047386903, -873301.75, -1884.1643, 0.0, 5.014184, 4.9575543 
7.947162e+2, 2.1603723e+2, -824673.9, -913238.75, 1977.6979, -0.003760477, -0.00033809745, -824629.75, -1801.8024, 0.0, 5.0142236, 4.957014 
7.947168e+2, 2.2099142e+2, -784691.6, -884425.44, 1572.9398, -0.0040719556, 0.0073521445, -784666.8, -10389.307, 0.0, 5.0142508, 4.9499626 
7.947174e+2, 2.2594045e+2, -735000.4, -834487.3, 1438.8127, -0.0027589945, -0.0069432636, -734979.56, -9204.387, 0.0, 5.0142846, 4.950145 
7.9471785e+2, 2.308894e+2, -685550.8, -785094.3, 1323.2103, -0.0013651458, -0.022224216, -685533.25, -8259.805, 0.0, 5.014318, 4.950144 
7.947183e+2, 2.3583832e+2, -636753.94, -737150.0, 1208.1506, 0.00003752939, -0.037500437, -636739.4, -7967.6006, 0.0, 5.014351, 4.949641 
7.947186e+2, 2.4078442e+2, -596583.8, -708179.75, 788.0107, 0.0008774061, -0.036318723, -596578.25, -16280.4795, 0.0, 5.0143466, 4.942561 
7.947181e+2, 2.457289e+2, -546793.3, -657475.3, 582.7478, -0.0016579037, -0.02519685, -546790.25, -14950.953, 0.0, 5.0142555, 4.9430366 
7.9471755e+2, 2.5067347e+2, -497622.2, -608182.1, 480.73154, -0.004503486, -0.013649871, -497620.1, -14240.283, 0.0, 5.0141616, 4.9430327 
7.947169e+2, 2.5561807e+2, -448698.97, -559455.0, 378.08325, -0.0074412148, -0.0019651596, -448697.7, -13777.4375, 0.0, 5.0140657, 4.9428306 
7.947166e+2, 2.605579e+2, -411539.25, -537730.7, -39.52991, -0.0073819817, 0.017132374, -411539.25, -25030.693, 0.0, 5.0140533, 4.933093 
7.9471636e+2, 2.6549032e+2, -360330.38, -485409.9, -700.5633, -0.0032023583, -0.005351445, -360326.47, -22152.545, 0.0, 5.0142474, 4.9339013 
7.9471594e+2, 2.7042243e+2, -310095.34, -435496.84, -1175.0955, 0.00010501761, -0.033450443, -310084.3, -20241.377, 0.0, 5.01445, 4.93394 
7.9471546e+2, 2.7535447e+2, -259907.63, -385739.94, -1614.0404, 0.002930856, -0.06278727, -259886.94, -18374.598, 0.0, 5.014648, 4.9339314 
7.947161e+2, 2.8028306e+2, -226549.08, -375960.06, -300.52872, 0.010989222, -0.048380207, -226548.48, -33332.73, 0.0, 5.0151525, 4.919819 
7.9471856e+2, 2.8520936e+2, -173017.86, -317486.38, -55.056423, 0.014529691, -0.011118808, -173017.83, -28076.723, 0.0, 5.0153575, 4.922769 
7.947204e+2, 2.90135e+2, -123692.46, -267891.25, 117.87627, 0.0129424045, 0.009063509, -123692.36, -27019.547, 0.0, 5.015257, 4.92279 
7.947221e+2, 2.9506058e+2, -74345.44, -218315.31, 337.7694, 0.011152225, 0.027547235, -74344.65, -25939.104, 0.0, 5.015145, 4.9228115 
7.947235e+2, 3.0000427e+2, -7440.725, -94391.92, 202.12173, 0.012138928, 0.06723049, -7440.2554, -7440.2554, 0.0, 5.015078, 4.9586463 
7.947259e+2, 3.0496648e+2, -1046.7488, -79745.17, 602.90594, 0.024481561, 0.04857436, -1042.1302, -1042.1302, 0.0, 5.015205, 4.9637723 
7.9472816e+2, 3.0992803e+2, -478.0173, -79001.25, 260.28915, 0.035704233, 0.011121644, -477.1545, -477.1545, 0.0, 5.0153413, 4.963954 
7.947301e+2, 3.148901e+2, 120.884445, -78287.7, -72.81751, 0.045559794, -0.023278419, 120.95207, 120.95207, 0.0, 5.0154643, 4.964136 
7.997309e+2, 1.2155731e+2, -1713509.9, -1748757.3, -726.7387, -0.0032640453, 0.018889774, -1713494.9, 35254.414, 0.0, 5.013344, 4.990354 
7.997297e+2, 1.2654367e+2, -1669681.6, -1710383.6, -88.729576, 0.0021892926, 0.01238271, -1669681.4, 30200.488, 0.0, 5.013363, 4.986865 
7.997275e+2, 1.3153009e+2, -1620692.1, -1661408.8, -39.50591, -0.0022617923, 0.007565773, -1620692.1, 30322.08, 0.0, 5.0133634, 4.986859 
7.997253e+2, 1.3651648e+2, -1574063.1, -1617179.0, 364.80917, -0.00669475, 0.004203927, -1574060.1, 28086.57, 0.0, 5.013341, 4.9852905 
7.9972446e+2, 1.4149997e+2, -1531937.8, -1582271.0, 1104.9807, -0.008177679, 0.0144725125, -1531913.5, 21394.105, 0.0, 5.0133314, 4.980544 
7.9972416e+2, 1.4648035e+2, -1482820.0, -1533152.6, 1081.8422, -0.0073326887, 0.010037658, -1482796.8, 21702.121, 0.0, 5.0133443, 4.980557 
7.997238e+2, 1.5146069e+2, -1433741.4, -1484091.6, 1094.3671, -0.006377523, 0.005374561, -1433717.6, 21972.846, 0.0, 5.0133514, 4.9805546 
7.9972345e+2, 1.5644103e+2, -1386166.8, -1438145.9, 1143.2017, -0.0054372326, 0.0012712356, -1386141.6, 20740.463, 0.0, 5.013355, 4.979513 
7.997236e+2, 1.6141753e+2, -1345902.0, -1407670.8, 1810.9766, -0.0044407225, 0.004405377, -1345848.9, 12262.749, 0.0, 5.0134015, 4.9732685 
7.997241e+2, 1.6639087e+2, -1296637.6, -1358620.4, 1703.3242, -0.0034157187, 0.0032825747, -1296590.9, 12781.692, 0.0, 5.0134764, 4.9732056 
7.9972464e+2, 1.7136422e+2, -1247310.6, -1309403.5, 1653.7935, -0.0024021033, 0.002217979, -1247266.5, 13366.945, 0.0, 5.013543, 4.9732027 
7.9972506e+2, 1.7633756e+2, -1199400.6, -1263138.4, 1336.2738, -0.0013634247, 0.0016036427, -1199372.6, 12521.799, 0.0, 5.0136013, 4.9722123 
7.997254e+2, 1.8130682e+2, -1159060.4, -1232971.6, 1808.2102, -0.0001775837, 0.0066375057, -1159016.1, 4178.095, 0.0, 5.0136642, 4.9657717 
7.99726e+2, 1.8627205e+2, -1109607.5, -1183658.5, 1734.6935, -0.00032013372, -0.0015193516, -1109566.9, 4964.504, 0.0, 5.0137506, 4.9657683 
7.9972667e+2, 1.9123724e+2, -1060166.5, -1134352.9, 1684.1117, -0.0005086005, -0.009954729, -1060128.3, 5740.389, 0.0, 5.0138326, 4.965765 
7.997274e+2, 1.9620244e+2, -1011751.1, -1087224.8, 1473.0543, -0.00071480335, -0.018060857, -1011722.4, 5483.4536, 0.0, 5.0139103, 4.9650254 
7.9972774e+2, 2.011641e+2, -972464.7, -1059606.8, 1736.6743, -0.0013238161, -0.014602592, -972430.06, -3850.8093, 0.0, 5.013952, 4.957646 
7.997285e+2, 2.0612232e+2, -923382.7, -1010816.94, 1853.9121, -0.002989593, -0.010166078, -923343.4, -3353.4316, 0.0, 5.013963, 4.9574723 
7.997293e+2, 2.1108057e+2, -874093.8, -961537.0, 1828.5768, -0.0046918574, -0.005475741, -874055.6, -2654.8247, 0.0, 5.013965, 4.957471 
7.997301e+2, 2.1603881e+2, -825549.8, -913847.6, 1791.1669, -0.0064104297, -0.00067011366, -825513.5, -2701.8596, 0.0, 5.01396, 4.956927 
7.997308e+2, 2.2099292e+2, -785708.56, -885212.1, 1403.2775, -0.0070039034, 0.0072759236, -785688.75, -11426.604, 0.0, 5.01396, 4.949827 
7.9973143e+2, 2.2594184e+2, -735974.94, -835323.3, 1247.9977, -0.004083771, -0.0064954385, -735959.25, -10197.732, 0.0, 5.014021, 4.9499784 
7.9973215e+2, 2.3089068e+2, -686453.7, -785895.3, 1094.4617, -0.00096743857, -0.021253133, -686441.6, -9180.08, 0.0, 5.0140777, 4.9499774 
7.997329e+2, 2.3583949e+2, -637608.56, -737927.0, 943.2135, 0.0021602905, -0.03601105, -637599.7, -8838.0625, 0.0, 5.0141263, 4.949475 
7.9973334e+2, 2.4078546e+2, -597320.3, -708874.94, 428.0961, 0.0043284264, -0.034419093, -597318.7, -17029.615, 0.0, 5.0141582, 4.942405 
7.9973274e+2, 2.4572971e+2, -547183.8, -657944.94, 172.99516, 0.0016979605, -0.024224749, -547183.56, -15351.652, 0.0, 5.0141783, 4.942907 
7.99732e+2, 2.5067407e+2, -497719.84, -608505.06, 45.188908, -0.0012673752, -0.013761597, -497719.84, -14346.196, 0.0, 5.0141897, 4.942907 
7.997314e+2, 2.5561842e+2, -448535.34, -559645.75, -73.56844, -0.0042764693, -0.003155742, -448535.3, -13620.064, 0.0, 5.0141892, 4.942708 
7.9973114e+2, 2.60558e+2, -411608.97, -538806.75, -264.7092, -0.0038106414, 0.01578924, -411608.4, -25102.785, 0.0, 5.0142517, 4.9326296 
7.9973143e+2, 2.6549006e+2, -360760.8, -487196.66, -737.42456, 0.0034687752, -0.0043500154, -360756.53, -22579.043, 0.0, 5.0144215, 4.9332023 
7.997317e+2, 2.704217e+2, -310844.28, -437502.28, -1227.6199, 0.010409658, -0.030089837, -310832.38, -20978.408, 0.0, 5.0145235, 4.9332128 
7.997318e+2, 2.7535328e+2, -261166.17, -388040.9, -1783.9691, 0.017058559, -0.057199385, -261141.1, -19609.8, 0.0, 5.014554, 4.933176 
7.9973304e+2, 2.8028154e+2, -228129.56, -377423.6, -466.5489, 0.02805378, -0.03869133, -228128.1, -34887.95, 0.0, 5.0147843, 4.919452 
7.997353e+2, 2.8520817e+2, -173427.53, -316567.28, -154.9115, 0.028875059, -0.0015224135, -173427.38, -28465.098, 0.0, 5.01506, 4.923174 
7.9973674e+2, 2.9013407e+2, -123733.25, -266886.94, 188.08173, 0.024004756, 0.016264878, -123733.0, -27042.617, 0.0, 5.0150914, 4.9231753 
7.9973817e+2, 2.9505992e+2, -74256.97, -217319.44, 475.74512, 0.019182878, 0.032657884, -74255.38, -25835.896, 0.0, 5.0150323, 4.9231763 
7.9973924e+2, 3.00004e+2, -8279.584, -95369.84, 490.1928, 0.017500535, 0.07415279, -8276.825, -8276.825, 0.0, 5.014921, 4.958336 
7.997414e+2, 3.0496648e+2, -2845.2168, -81585.76, 1083.4774, 0.027239809, 0.062200785, -2830.3108, -2830.3108, 0.0, 5.0147724, 4.963257 
7.997435e+2, 3.0992803e+2, -3532.368, -81406.88, 937.68365, 0.036281113, 0.028407998, -3521.0789, -3521.0789, 0.0, 5.0144515, 4.963426 
7.997453e+2, 3.1488997e+2, -4643.808, -81439.99, 901.3252, 0.04449625, -0.0035484391, -4633.231, -4633.231, 0.0, 5.013957, 4.963596 
8.0474436e+2, 1.21558696e+2, -1714231.6, -1748967.4, -148.9242, 0.0010290736, 0.012866071, -1714231.0, 34504.1, 0.0, 5.013084, 4.9904065 
8.0474293e+2, 1.2654561e+2, -1670391.1, -1710560.6, 624.9621, 0.0034932587, 0.011379357, -1670381.5, 29480.783, 0.0, 5.0131016, 4.9869294 
8.0474067e+2, 1.3153206e+2, -1621331.9, -1661554.4, 636.6139, -0.0015484594, 0.0063564773, -1621321.8, 29672.402, 0.0, 5.0131254, 4.9869223 
8.0473846e+2, 1.3651851e+2, -1574548.6, -1617221.3, 1007.00604, -0.0065213903, 0.0028301303, -1574524.9, 27601.367, 0.0, 5.013149, 4.985366 
8.047377e+2, 1.4150205e+2, -1532308.5, -1582303.9, 1763.421, -0.008320699, 0.013056721, -1532246.4, 21040.236, 0.0, 5.013191, 4.9805946 
8.047373e+2, 1.4648253e+2, -1483101.9, -1533154.0, 1731.4486, -0.007609427, 0.009109928, -1483042.1, 21434.926, 0.0, 5.013236, 4.980602 
8.04737e+2, 1.5146297e+2, -1433917.5, -1484042.6, 1743.6075, -0.0067787496, 0.004978577, -1433856.9, 21810.758, 0.0, 5.0132785, 4.980599 
8.047366e+2, 1.564434e+2, -1386201.4, -1437993.1, 1803.7196, -0.005958904, 0.0014214459, -1386138.6, 20719.69, 0.0, 5.0133224, 4.979573 
8.0473685e+2, 1.6141996e+2, -1345890.6, -1407701.9, 2540.9546, -0.005122282, 0.0047866004, -1345786.4, 12301.046, 0.0, 5.0134263, 4.973241 
8.0473745e+2, 1.6639324e+2, -1296410.1, -1358577.6, 2433.8088, -0.0044709006, 0.003437632, -1296315.0, 13033.919, 0.0, 5.01358, 4.973166 
8.04738e+2, 1.713665e+2, -1246828.9, -1309247.3, 2380.0422, -0.0038383377, 0.002141571, -1246738.3, 13872.271, 0.0, 5.013734, 4.9731603 
8.047385e+2, 1.7633976e+2, -1198635.9, -1262847.4, 2061.7131, -0.0031728852, 0.0013141438, -1198569.8, 13302.386, 0.0, 5.0138874, 4.9721713 
8.04739e+2, 1.8130897e+2, -1158105.9, -1232733.5, 2531.8271, -0.0018650391, 0.0062960843, -1158020.1, 5152.6455, 0.0, 5.014042, 4.9656715 
8.047399e+2, 1.8627413e+2, -1108511.9, -1183389.1, 2394.866, -0.0009954912, -0.001420467, -1108435.4, 6075.65, 0.0, 5.0141835, 4.965654 
8.047407e+2, 1.9123924e+2, -1058906.5, -1134018.4, 2285.5212, -0.00012521486, -0.009391712, -1058837.0, 7012.4663, 0.0, 5.014324, 4.965647 
8.047416e+2, 1.9620438e+2, -1010326.94, -1086844.8, 2010.1996, 0.0007304056, -0.01703433, -1010274.1, 6913.7583, 0.0, 5.0144644, 4.964896 
8.047421e+2, 2.0116591e+2, -970740.4, -1058830.5, 2192.7407, 0.0008180941, -0.013854179, -970685.9, -2123.2708, 0.0, 5.0145535, 4.9576316 
8.0474293e+2, 2.06124e+2, -921624.44, -1009947.9, 2352.7456, -0.0009975042, -0.011105095, -921561.8, -1587.8107, 0.0, 5.0145617, 4.957494 
8.047437e+2, 2.1108207e+2, -872336.8, -960675.25, 2394.1218, -0.0028621187, -0.008154743, -872272.0, -886.52014, 0.0, 5.0145655, 4.9574914 
8.047445e+2, 2.1604015e+2, -823778.5, -912994.75, 2422.4863, -0.0046987697, -0.005106007, -823712.8, -915.7724, 0.0, 5.014569, 4.9569426 
8.0474514e+2, 2.2099422e+2, -784082.8, -884775.3, 2131.2852, -0.005400189, 0.002720934, -784037.7, -9789.984, 0.0, 5.0145884, 4.949692 
8.0474585e+2, 2.2594337e+2, -734333.5, -835062.3, 2001.1954, -0.002812117, -0.0064471727, -734293.75, -8547.678, 0.0, 5.0146933, 4.9497647 
8.047466e+2, 2.3089246e+2, -684663.2, -785564.25, 1833.1952, -0.000032208827, -0.016300922, -684629.9, -7384.919, 0.0, 5.014804, 4.9497647 
8.047474e+2, 2.3584157e+2, -635646.2, -737517.06, 1665.5732, 0.002781928, -0.02615665, -635618.94, -6875.05, 0.0, 5.0149136, 4.949264 
8.0474794e+2, 2.4078754e+2, -595157.94, -708280.7, 1126.2621, 0.0050286218, -0.022703595, -595146.75, -14874.291, 0.0, 5.015002, 4.9422307 
8.047475e+2, 2.4573101e+2, -544818.75, -657307.2, 823.9167, 0.0034923689, -0.018256795, -544812.75, -12990.485, 0.0, 5.015108, 4.942711 
8.0474705e+2, 2.5067455e+2, -495088.88, -607728.8, 630.3832, 0.001806165, -0.013786115, -495085.34, -11714.235, 0.0, 5.015217, 4.942717 
8.047466e+2, 2.5561813e+2, -445610.78, -558720.5, 434.64542, 0.00019107536, -0.00912971, -445609.1, -10689.355, 0.0, 5.015324, 4.9425254 
8.0474657e+2, 2.6055732e+2, -408119.28, -537018.2, 408.1739, 0.001852241, 0.0061275517, -408118.0, -21604.307, 0.0, 5.015469, 4.93272 
8.047474e+2, 2.6548994e+2, -357305.78, -485765.78, 484.05124, 0.011281841, -0.007408695, -357303.97, -19123.975, 0.0, 5.0156765, 4.9331803 
8.047481e+2, 2.704222e+2, -307130.63, -436084.78, 592.8943, 0.020907994, -0.025554948, -307127.9, -17277.033, 0.0, 5.015875, 4.933161 
8.047488e+2, 2.7535427e+2, -256997.48, -386562.75, 738.4402, 0.030492196, -0.045351762, -256993.28, -15470.14, 0.0, 5.0160685, 4.933093 
8.0475014e+2, 2.8028262e+2, -223320.5, -373972.38, 2540.9102, 0.041744623, -0.027694132, -223277.66, -30045.25, 0.0, 5.0162506, 4.920023 
8.047517e+2, 2.8520897e+2, -170271.52, -314766.56, 2537.3965, 0.037682544, 0.0044392436, -170226.97, -25264.227, 0.0, 5.0161495, 4.923322 
8.047527e+2, 2.9013488e+2, -121171.555, -265474.4, 2215.8535, 0.028926617, 0.021853141, -121137.53, -24439.924, 0.0, 5.015979, 4.9232903 
8.0475366e+2, 2.950607e+2, -72050.03, -216196.34, 1924.3605, 0.020643778, 0.038210664, -72024.34, -23590.877, 0.0, 5.0157995, 4.9232583 
8.0475426e+2, 3.000049e+2, -5886.295, -93604.04, 1494.7572, 0.015362769, 0.07944895, -5860.8306, -5860.8306, 0.0, 5.015628, 4.9586916 
8.04756e+2, 3.049681e+2, -1305.6791, -81124.29, 2078.6262, 0.023001587, 0.07416031, -1251.5844, -1251.5844, 0.0, 5.015323, 4.9632273 
8.047577e+2, 3.0993026e+2, -2025.876, -80950.2, 1986.691, 0.031614114, 0.04891308, -1975.8984, -1975.8984, 0.0, 5.014969, 4.9634037 
8.047592e+2, 3.1489274e+2, -2720.3574, -80802.09, 1916.5042, 0.04033222, 0.024136988, -2673.3455, -2673.3455, 0.0, 5.0146036, 4.9635806 
8.097577e+2, 1.2156107e+2, -1714165.3, -1748862.9, -321.3014, 0.0027572296, 0.011152891, -1714162.4, 34548.375, 0.0, 5.0130887, 4.9904404 
8.097561e+2, 1.2654805e+2, -1670281.1, -1710393.3, 635.70245, 0.0041359933, 0.009847203, -1670271.1, 29566.31, 0.0, 5.01311, 4.9869823 
8.0975384e+2, 1.3153455e+2, -1621218.9, -1661388.3, 650.664, -0.0011819875, 0.004687323, -1621208.4, 29760.82, 0.0, 5.0131354, 4.9869747 
8.097516e+2, 1.3652103e+2, -1574406.1, -1617001.9, 1025.501, -0.006475328, 0.0010087598, -1574381.5, 27719.55, 0.0, 5.01316, 4.9854355 
8.0975085e+2, 1.4150465e+2, -1532241.8, -1582204.6, 1802.655, -0.008484572, 0.011271621, -1532176.8, 21084.121, 0.0, 5.013197, 4.980625 
8.0975056e+2, 1.464852e+2, -1483032.9, -1533049.6, 1763.4607, -0.007892081, 0.00796328, -1482970.9, 21479.469, 0.0, 5.013242, 4.9806347 
8.097502e+2, 1.5146574e+2, -1433849.4, -1483940.0, 1776.9541, -0.007194262, 0.0045038834, -1433786.4, 21853.502, 0.0, 5.013284, 4.980631 
8.097499e+2, 1.564463e+2, -1386119.8, -1437862.8, 1865.4797, -0.0065239966, 0.0016233765, -1386052.6, 20776.99, 0.0, 5.013328, 4.9796147 
8.097502e+2, 1.6142288e+2, -1345930.6, -1407814.3, 2637.4814, -0.0059195277, 0.0052879355, -1345818.4, 12239.813, 0.0, 5.0134306, 4.973202 
8.0975085e+2, 1.6639607e+2, -1296472.0, -1358734.0, 2554.5305, -0.0057938043, 0.0036112983, -1296367.3, 12953.208, 0.0, 5.0135837, 4.973112 
8.097515e+2, 1.7136927e+2, -1246891.4, -1309402.5, 2502.59, -0.0057316506, 0.00196538, -1246791.4, 13791.519, 0.0, 5.013737, 4.9731073 
8.097521e+2, 1.7634244e+2, -1198684.6, -1262970.0, 2192.9358, -0.005662068, 0.0007980437, -1198609.9, 13235.422, 0.0, 5.0138903, 4.9721293 
8.097528e+2, 1.8131155e+2, -1158287.1, -1233117.6, 2641.4155, -0.004313552, 0.0057880273, -1158194.0, 4952.89, 0.0, 5.014042, 4.9655433 
8.0975395e+2, 1.8627664e+2, -1108703.3, -1183797.9, 2502.6707, -0.0021861598, -0.0012586972, -1108620.0, 5866.4873, 0.0, 5.0141835, 4.9655175 
8.097551e+2, 1.9124168e+2, -1059096.6, -1134426.1, 2394.695, -0.000018236995, -0.008535392, -1059020.6, 6805.6035, 0.0, 5.0143247, 4.9655104 
8.097562e+2, 1.9620675e+2, -1010526.6, -1087274.5, 2114.4788, 0.0021171526, -0.015481185, -1010468.4, 6697.609, 0.0, 5.0144644, 4.9647517 
8.097569e+2, 2.0116813e+2, -970745.4, -1058835.5, 2217.3103, 0.0030086446, -0.012672243, -970689.6, -2147.4438, 0.0, 5.0145526, 4.957631 
8.097577e+2, 2.0612603e+2, -921562.2, -1009806.8, 2356.1226, 0.0012038756, -0.012077533, -921499.4, -1545.0735, 0.0, 5.0145607, 4.9575434 
8.097585e+2, 2.1108395e+2, -872275.8, -960535.9, 2399.376, -0.00072744704, -0.011340756, -872210.6, -844.1978, 0.0, 5.0145645, 4.9575405 
8.0975926e+2, 2.1604185e+2, -823721.3, -912862.9, 2428.8875, -0.002653349, -0.0105023375, -823655.2, -876.5751, 0.0, 5.014568, 4.95699 
8.097599e+2, 2.2099589e+2, -784270.7, -885173.7, 2176.9353, -0.0034789303, -0.0026981635, -784223.75, -9994.573, 0.0, 5.014587, 4.949557 
8.097607e+2, 2.2594538e+2, -734619.94, -835680.06, 2085.199, -0.0014984502, -0.0065118102, -734576.9, -8851.07, 0.0, 5.014692, 4.9495535 
8.097615e+2, 2.3089483e+2, -684947.44, -786180.0, 1921.7793, 0.0005988649, -0.01069815, -684911.0, -7687.977, 0.0, 5.014802, 4.949554 
8.0976236e+2, 2.3584428e+2, -635928.4, -738130.94, 1758.7294, 0.0026911253, -0.014893843, -635898.1, -7177.871, 0.0, 5.0149117, 4.949053 
8.0976295e+2, 2.4079028e+2, -595431.6, -708856.9, 1193.2467, 0.0047276793, -0.009085661, -595419.06, -15169.443, 0.0, 5.014997, 4.9420333 
8.097628e+2, 2.457329e+2, -545127.56, -657955.25, 902.25946, 0.004567572, -0.011058637, -545120.3, -13312.95, 0.0, 5.015102, 4.9424896 
8.097626e+2, 2.5067553e+2, -495396.16, -608380.8, 714.68494, 0.004315971, -0.013418728, -495391.66, -12027.102, 0.0, 5.0152106, 4.942494 
8.0976236e+2, 2.5561818e+2, -445916.56, -559376.6, 524.9027, 0.0040775207, -0.015541205, -445914.13, -10992.69, 0.0, 5.015318, 4.9423003 
8.097626e+2, 2.6055685e+2, -407965.88, -536601.7, 542.874, 0.0069102854, -0.0046969657, -407963.6, -21443.74, 0.0, 5.015458, 4.932876 
8.0976367e+2, 2.654902e+2, -357148.72, -485160.84, 710.62683, 0.017441602, -0.012282156, -357144.78, -18966.254, 0.0, 5.015642, 4.9334164 
8.097648e+2, 2.7042332e+2, -307017.16, -435404.8, 868.0382, 0.02791244, -0.023134142, -307011.28, -17170.898, 0.0, 5.015819, 4.933425 
8.097659e+2, 2.7535635e+2, -256927.72, -385807.88, 1062.1301, 0.03799685, -0.035507973, -256918.97, -15415.797, 0.0, 5.0159907, 4.9333854 
8.097672e+2, 2.802852e+2, -222721.45, -372634.56, 2389.7856, 0.04810315, -0.017092053, -222683.36, -29474.943, 0.0, 5.0162554, 4.9205055 
8.097684e+2, 2.8521112e+2, -170237.81, -315304.2, 2360.7534, 0.041469455, 0.011103161, -170199.4, -25249.145, 0.0, 5.0162263, 4.9231577 
8.0976886e+2, 2.901367e+2, -121144.164, -265943.4, 2093.116, 0.030392492, 0.027914632, -121113.914, -24417.373, 0.0, 5.016049, 4.923145 
8.0976933e+2, 2.9506215e+2, -72029.23, -216596.95, 1855.5315, 0.019414699, 0.043560598, -72005.414, -23561.678, 0.0, 5.015863, 4.9231324 
8.097695e+2, 3.000062e+2, -5383.7275, -92744.586, 1317.1183, 0.010895058, 0.08351584, -5363.8745, -5357.409, 0.0, 5.0156803, 4.959008 
8.0977076e+2, 3.0497003e+2, -1179.0614, -80899.57, 1780.5946, 0.016717324, 0.08431923, -1139.3108, -1139.3108, 0.0, 5.0153394, 4.9633484 
8.09772e+2, 3.0993307e+2, -2027.9229, -80813.016, 1780.3629, 0.023381747, 0.069097325, -1987.7113, -1987.7113, 0.0, 5.0149508, 4.9635134 
8.097731e+2, 3.148965e+2, -2851.1252, -80752.45, 1801.8937, 0.029314611, 0.055384062, -2809.469, -2809.469, 0.0, 5.0145507, 4.9636784 
8.147708e+2, 1.2156381e+2, -1714058.1, -1748673.3, -462.7075, 0.0030424676, 0.013053851, -1714051.9, 34630.926, 0.0, 5.013094, 4.990501 
8.1476927e+2, 1.2655051e+2, -1670172.5, -1710224.9, 647.5136, 0.004819066, 0.008363183, -1670162.0, 29650.516, 0.0, 5.013119, 4.9870353 
8.14767e+2, 1.3153704e+2, -1621107.1, -1661221.0, 665.78455, -0.00077321305, 0.003029607, -1621096.1, 29847.934, 0.0, 5.0131454, 4.9870267 
8.147648e+2, 1.3652354e+2, -1574272.5, -1616796.8, 1041.2909, -0.006385527, -0.0008366071, -1574247.0, 27828.727, 0.0, 5.013171, 4.9855 
8.14764e+2, 1.4150722e+2, -1532179.4, -1582113.3, 1841.5842, -0.008674098, 0.009535964, -1532111.6, 21123.473, 0.0, 5.0132027, 4.9806533 
8.147637e+2, 1.4648789e+2, -1482964.5, -1532945.0, 1795.787, -0.008190162, 0.0068504307, -1482900.0, 21523.545, 0.0, 5.0132475, 4.980667 
8.147634e+2, 1.5146853e+2, -1433781.8, -1483836.9, 1810.6149, -0.0076135257, 0.004042198, -1433716.4, 21895.793, 0.0, 5.01329, 4.9806633 
8.147632e+2, 1.5644917e+2, -1386039.6, -1437733.8, 1920.5344, -0.007082483, 0.0018182021, -1385968.4, 20832.434, 0.0, 5.013334, 4.9796557 
8.1476355e+2, 1.614258e+2, -1345975.9, -1407935.8, 2739.674, -0.006722143, 0.0058083837, -1345855.0, 12174.084, 0.0, 5.013435, 4.97316 
8.147643e+2, 1.6639891e+2, -1296534.5, -1358889.6, 2674.7214, -0.0071216454, 0.0037958445, -1296420.0, 12872.1045, 0.0, 5.0135875, 4.9730587 
8.147651e+2, 1.7137201e+2, -1246954.8, -1309557.3, 2624.6074, -0.0076283915, 0.0017837688, -1246844.9, 13710.395, 0.0, 5.0137405, 4.973054 
8.147658e+2, 1.7634511e+2, -1198733.8, -1263091.1, 2323.082, -0.008151916, 0.0002610961, -1198650.0, 13168.49, 0.0, 5.013893, 4.9720874 
8.147666e+2, 1.8131414e+2, -1158474.0, -1233513.0, 2749.409, -0.0067442493, 0.005317421, -1158373.4, 4747.547, 0.0, 5.014042, 4.9654117 
8.14768e+2, 1.8627916e+2, -1108895.0, -1184206.4, 2610.506, -0.0033523478, -0.0010673371, -1108804.6, 5657.147, 0.0, 5.014184, 4.9653807 
8.147694e+2, 1.9124413e+2, -1059287.3, -1134833.8, 2503.8994, 0.00012008435, -0.00766873, -1059204.4, 6598.58, 0.0, 5.0143247, 4.9653735 
8.147708e+2, 1.962091e+2, -1010720.75, -1087691.0, 2219.7266, 0.0035421457, -0.013936748, -1010656.75, 6487.31, 0.0, 5.014465, 4.964611 
8.1477165e+2, 2.0117037e+2, -970762.94, -1058866.5, 2240.7568, 0.0051813624, -0.011465425, -970706.0, -2184.2515, 0.0, 5.014552, 4.9576216 
8.1477255e+2, 2.0612809e+2, -921500.56, -1009665.4, 2359.7876, 0.0033896652, -0.013037116, -921437.44, -1502.8784, 0.0, 5.0145597, 4.9575925 
8.1477326e+2, 2.1108583e+2, -872215.3, -960396.1, 2404.9187, 0.0014012066, -0.014543814, -872149.75, -802.40314, 0.0, 5.0145636, 4.957589 
8.1477404e+2, 2.1604356e+2, -823663.0, -912726.94, 2436.1484, -0.00060436386, -0.015945554, -823596.4, -836.1798, 0.0, 5.0145664, 4.9570374 
8.1477463e+2, 2.2099759e+2, -784475.44, -885607.44, 2222.3606, -0.001562814, -0.008048733, -784426.6, -10216.064, 0.0, 5.014585, 4.9494085 
8.147755e+2, 2.2594741e+2, -734907.3, -836297.3, 2169.0725, -0.00019085154, -0.006549881, -734860.94, -9155.329, 0.0, 5.01469, 4.949342 
8.1477636e+2, 2.308972e+2, -685232.7, -786795.2, 2010.2335, 0.0012302113, -0.005156733, -685192.94, -7991.849, 0.0, 5.0148005, 4.949342 
8.1477726e+2, 2.35847e+2, -636211.5, -738744.2, 1851.7557, 0.0026069398, -0.003780316, -636178.06, -7481.4536, 0.0, 5.01491, 4.9488406 
8.14778e+2, 2.4079305e+2, -595733.75, -709493.2, 1256.8129, 0.0044228914, 0.0046664514, -595719.9, -15493.196, 0.0, 5.0149927, 4.9418144 
8.1477803e+2, 2.457348e+2, -545438.44, -658601.44, 983.199, 0.0056400793, -0.0036511016, -545429.9, -13637.595, 0.0, 5.015095, 4.9422674 
8.1477803e+2, 2.5067654e+2, -495705.56, -609031.06, 801.5836, 0.006830361, -0.012962656, -495699.9, -12342.08, 0.0, 5.0152044, 4.9422703 
8.147781e+2, 2.5561827e+2, -446224.44, -560030.94, 617.757, 0.007975838, -0.021984719, -446221.1, -11298.068, 0.0, 5.015312, 4.942075 
8.147785e+2, 2.6055634e+2, -407934.2, -536446.7, 653.43567, 0.012253088, -0.015519234, -407930.84, -21404.457, 0.0, 5.0154467, 4.932935 
8.1478006e+2, 2.6549038e+2, -357000.6, -484549.25, 893.96655, 0.023693856, -0.017868727, -356994.34, -18816.39, 0.0, 5.015608, 4.933639 
8.147815e+2, 2.7042434e+2, -306912.47, -434718.13, 1099.9508, 0.03460206, -0.022344874, -306903.0, -17071.941, 0.0, 5.015763, 4.933676 
8.1478286e+2, 2.753583e+2, -256866.58, -385046.22, 1342.5917, 0.04477942, -0.02821414, -256852.52, -15367.8955, 0.0, 5.015913, 4.933665 
8.1478435e+2, 2.8028777e+2, -222505.9, -372177.2, 2322.4304, 0.05460129, -0.006186997, -222469.88, -29285.512, 0.0, 5.01626, 4.920675 
8.147851e+2, 2.8521338e+2, -170218.4, -315828.63, 2146.6912, 0.046005603, 0.019756151, -170186.77, -25249.959, 0.0, 5.0163026, 4.9229817 
8.147852e+2, 2.901385e+2, -121130.98, -266399.06, 1932.9565, 0.03227656, 0.034721535, -121105.26, -24410.2, 0.0, 5.016119, 4.9229884 
8.147852e+2, 2.9506359e+2, -72022.5, -216984.14, 1749.2764, 0.018272795, 0.04841238, -72001.4, -23547.26, 0.0, 5.015927, 4.922995 
8.147848e+2, 3.0000743e+2, -5153.902, -92480.18, 1125.3762, 0.0067984983, 0.08720145, -5139.402, -5114.1357, 0.0, 5.015733, 4.9591 
8.147857e+2, 3.0497187e+2, -1069.9318, -80657.555, 1490.3387, 0.011742143, 0.09357655, -1042.0338, -1042.0338, 0.0, 5.0153556, 4.9634533 
8.147865e+2, 3.0993566e+2, -2047.4673, -80658.5, 1581.7975, 0.017067522, 0.08618089, -2015.6515, -2015.6515, 0.0, 5.014932, 4.963607 
8.1478703e+2, 3.148999e+2, -2999.4092, -80685.44, 1695.0382, 0.02082425, 0.08133143, -2962.4426, -2962.4426, 0.0, 5.0144973, 4.96376 
8.197839e+2, 1.2156636e+2, -1714835.4, -1748866.1, -772.23267, 0.0029960785, 0.013539716, -1714817.9, 33838.805, 0.0, 5.0128, 4.9905806 
8.1978244e+2, 1.2655288e+2, -1670836.0, -1710438.3, 448.6334, 0.0051932065, 0.006739752, -1670830.9, 28957.254, 0.0, 5.012879, 4.9870815 
8.1978023e+2, 1.3153946e+2, -1621670.9, -1661382.3, 452.40692, -0.00048636473, 0.001375076, -1621665.8, 29253.71, 0.0, 5.012937, 4.987074 
8.1977797e+2, 1.3652602e+2, -1574788.5, -1616910.4, 808.3881, -0.0061769565, -0.0025393767, -1574773.0, 27277.822, 0.0, 5.0129733, 4.985557 
8.1977725e+2, 1.4150977e+2, -1532745.4, -1582341.0, 1636.4058, -0.008608308, 0.0080963345, -1532691.4, 20518.184, 0.0, 5.013006, 4.980672 
8.1977695e+2, 1.4649051e+2, -1483463.4, -1533125.1, 1560.5935, -0.0082167545, 0.005954754, -1483414.4, 20982.934, 0.0, 5.013069, 4.980692 
8.197767e+2, 1.5147124e+2, -1434237.9, -1483995.4, 1554.8875, -0.0077260025, 0.003700321, -1434189.4, 21395.854, 0.0, 5.013126, 4.980688 
8.197765e+2, 1.5645197e+2, -1386452.8, -1437843.3, 1658.1257, -0.0072765355, 0.0020268233, -1386399.4, 20373.723, 0.0, 5.013178, 4.979693 
8.197769e+2, 1.6142863e+2, -1346508.3, -1408272.0, 2542.8638, -0.0071611726, 0.006278778, -1346403.8, 11597.196, 0.0, 5.013275, 4.973122 
8.1977785e+2, 1.6640165e+2, -1297171.9, -1359283.6, 2540.9263, -0.008091536, 0.0038710437, -1297068.1, 12196.549, 0.0, 5.0133924, 4.9730177 
8.197786e+2, 1.7137468e+2, -1247708.4, -1310008.6, 2543.763, -0.009129534, 0.00142132, -1247604.8, 12923.825, 0.0, 5.0135055, 4.9730124 
8.1977946e+2, 1.763477e+2, -1199602.4, -1263577.5, 2296.2197, -0.01016687, -0.0005365722, -1199520.1, 12272.303, 0.0, 5.0136137, 4.9720545 
8.197804e+2, 1.8131667e+2, -1159555.3, -1234324.1, 2744.2842, -0.008707526, 0.00463999, -1159454.6, 3640.906, 0.0, 5.0137367, 4.9652824 
8.197821e+2, 1.8628164e+2, -1109933.3, -1185010.4, 2620.9717, -0.004329064, -0.00090789224, -1109841.9, 4595.7417, 0.0, 5.0138946, 4.9652452 
8.1978375e+2, 1.9124655e+2, -1060283.8, -1135617.0, 2525.943, 0.00019179062, -0.006666338, -1060199.1, 5580.717, 0.0, 5.0140486, 4.965238 
8.197854e+2, 1.9621147e+2, -1011694.25, -1088469.1, 2247.2244, 0.0046772724, -0.012095593, -1011628.56, 5493.67, 0.0, 5.0141964, 4.9644723 
8.1978637e+2, 2.011726e+2, -971514.2, -1059297.5, 2177.7485, 0.006902046, -0.009810405, -971460.2, -2958.8723, 0.0, 5.0143075, 4.95759 
8.197872e+2, 2.0613015e+2, -922006.8, -1009846.75, 2202.1975, 0.005273791, -0.01353454, -921951.6, -2036.5121, 0.0, 5.0143723, 4.9576187 
8.1978804e+2, 2.1108767e+2, -872572.8, -960507.1, 2169.3188, 0.003424975, -0.017293122, -872519.3, -1190.4036, 0.0, 5.014427, 4.9576154 
8.197889e+2, 2.1604522e+2, -823895.6, -912780.4, 2123.368, 0.0015637997, -0.02094773, -823844.94, -1102.1582, 0.0, 5.014474, 4.9570627 
8.1978947e+2, 2.209992e+2, -784893.0, -886140.75, 1904.1359, 0.0006097969, -0.013007694, -784857.2, -10664.084, 0.0, 5.0145097, 4.94926 
8.197904e+2, 2.2594932e+2, -735488.75, -836999.9, 1950.952, 0.0013492545, -0.0067406986, -735451.25, -9764.634, 0.0, 5.014576, 4.949151 
8.197913e+2, 2.3089941e+2, -685965.2, -787565.25, 1866.4237, 0.0021338349, -0.00035459432, -685930.94, -8750.474, 0.0, 5.0146327, 4.9491515 
8.1979215e+2, 2.3584953e+2, -637126.8, -739595.0, 1783.841, 0.0029012542, 0.006016587, -637095.8, -8421.444, 0.0, 5.0146775, 4.9486504 
8.197929e+2, 2.4079564e+2, -596783.3, -710511.44, 1241.2644, 0.004541805, 0.017146371, -596769.75, -16564.83, 0.0, 5.014734, 4.94158 
8.197932e+2, 2.4573661e+2, -546220.94, -659489.75, 987.41736, 0.006954402, 0.0033044291, -546212.3, -14434.412, 0.0, 5.0149274, 4.9420357 
8.197935e+2, 2.5067747e+2, -496227.66, -609802.7, 794.42633, 0.0094812205, -0.012360912, -496222.1, -12870.611, 0.0, 5.015128, 4.942037 
8.197938e+2, 2.5561833e+2, -446511.88, -560697.44, 602.62714, 0.011999443, -0.027825804, -446508.7, -11583.822, 0.0, 5.01532, 4.94184 
8.1979454e+2, 2.6055583e+2, -407858.78, -536495.25, 643.4403, 0.017907767, -0.025244309, -407855.56, -21322.076, 0.0, 5.015497, 4.9328947 
8.197963e+2, 2.654905e+2, -356910.5, -484173.97, 847.47723, 0.030253934, -0.022442827, -356904.88, -18726.496, 0.0, 5.015584, 4.933779 
8.197982e+2, 2.7042526e+2, -307233.53, -434559.94, 901.51416, 0.042109426, -0.020925554, -307227.13, -17403.516, 0.0, 5.015604, 4.933803 
8.197998e+2, 2.7535996e+2, -257761.58, -385167.63, 905.408, 0.05357219, -0.02081485, -257755.16, -16285.648, 0.0, 5.0155635, 4.9337792 
8.198017e+2, 2.8029007e+2, -224467.73, -373165.75, 1522.3969, 0.06532321, 0.006828356, -224452.16, -31288.352, 0.0, 5.015628, 4.9205937 
8.19802e+2, 2.8521535e+2, -172211.16, -316813.72, 1429.3514, 0.053940397, 0.030548304, -172197.03, -27272.21, 0.0, 5.0156584, 4.9228806 
8.198015e+2, 2.9014003e+2, -122972.55, -267338.06, 1433.2949, 0.03610938, 0.041413773, -122958.32, -26264.38, 0.0, 5.015519, 4.9228797 
8.19801e+2, 2.9506466e+2, -73890.516, -217948.53, 1416.8218, 0.018209457, 0.050999667, -73876.586, -25412.639, 0.0, 5.015312, 4.922879 
8.1980026e+2, 3.000082e+2, -7088.6807, -93396.23, 866.7246, 0.0037342713, 0.08769847, -7079.9775, -7037.0923, 0.0, 5.0150695, 4.959014 
8.198006e+2, 3.049733e+2, -2647.2603, -80998.516, 1365.5734, 0.0079264445, 0.099305175, -2623.467, -2623.467, 0.0, 5.014743, 4.963549 
8.19801e+2, 3.099378e+2, -3766.9421, -81070.12, 1793.0845, 0.013053656, 0.09700845, -3725.373, -3725.373, 0.0, 5.0142784, 4.9636936 
8.198011e+2, 3.149027e+2, -5222.7393, -81313.445, 2295.733, 0.017246865, 0.096690625, -5153.5376, -5153.5376, 0.0, 5.013677, 4.963838 
8.2479644e+2, 1.21567935e+2, -1716019.5, -1749274.0, -1.8748877, 0.0034340827, 0.002057301, -1716019.5, 32619.652, 0.0, 5.012385, 4.9906416 
8.2479465e+2, 1.2655537e+2, -1672072.9, -1710967.9, 1293.6401, 0.0021006728, 0.0041911704, -1672029.9, 27732.361, 0.0, 5.012468, 4.9870996 
8.247927e+2, 1.3154207e+2, -1622854.5, -1661877.3, 1260.2635, -0.0018692289, -0.0000025016368, -1622813.8, 28078.727, 0.0, 5.012543, 4.987094 
8.247907e+2, 1.3652876e+2, -1575805.9, -1617241.0, 1569.5349, -0.0057967687, -0.002734789, -1575746.5, 26276.426, 0.0, 5.012618, 4.985611 
8.247902e+2, 1.4151259e+2, -1533609.9, -1582775.3, 2448.0645, -0.006758846, 0.008476097, -1533488.4, 19692.908, 0.0, 5.0127373, 4.980651 
8.2479006e+2, 1.4649332e+2, -1484052.9, -1533430.5, 2314.5474, -0.006380753, 0.006326801, -1483944.6, 20424.97, 0.0, 5.012893, 4.980668 
8.2478994e+2, 1.5147401e+2, -1434530.0, -1484154.6, 2255.4194, -0.0059137205, 0.0040272423, -1434427.8, 21130.293, 0.0, 5.0130486, 4.9806643 
8.247898e+2, 1.5645471e+2, -1386411.3, -1437808.6, 2318.674, -0.0054537538, 0.0022853182, -1386306.9, 20439.709, 0.0, 5.013206, 4.979683 
8.2479036e+2, 1.6143134e+2, -1346130.3, -1407971.0, 3194.309, -0.005555096, 0.006167148, -1345965.6, 12009.174, 0.0, 5.0133944, 4.9731565 
8.247913e+2, 1.6640435e+2, -1296687.3, -1358887.1, 3198.473, -0.0067791375, 0.0030543911, -1296523.3, 12714.8955, 0.0, 5.013538, 4.9730725 
8.2479227e+2, 1.7137735e+2, -1247144.6, -1309586.6, 3228.7803, -0.008039015, -0.00012697377, -1246978.0, 13523.672, 0.0, 5.0136795, 4.9730635 
8.2479316e+2, 1.7635034e+2, -1198942.8, -1263119.9, 3022.6724, -0.009218609, -0.002831415, -1198800.6, 12964.67, 0.0, 5.0138216, 4.9721036 
8.2479423e+2, 1.8131933e+2, -1158918.4, -1234201.5, 3529.784, -0.008044133, 0.0023924909, -1158753.3, 4315.121, 0.0, 5.014, 4.965196 
8.24796e+2, 1.8628435e+2, -1109139.5, -1184884.0, 3423.865, -0.0045306184, -0.001191084, -1108985.0, 5425.4585, 0.0, 5.014226, 4.9651294 
8.247978e+2, 1.9124936e+2, -1059276.4, -1135397.1, 3328.708, -0.0008534043, -0.0049055475, -1059131.1, 6621.624, 0.0, 5.014454, 4.9651203 
8.2479954e+2, 1.9621435e+2, -1010465.0, -1088162.0, 3047.5688, 0.0028391294, -0.00828348, -1010345.7, 6749.4126, 0.0, 5.0146813, 4.9643493 
8.248007e+2, 2.0117547e+2, -969975.1, -1058840.9, 2943.5647, 0.0049102013, -0.0051918416, -969877.75, -1402.6089, 0.0, 5.0148897, 4.957478 
8.248018e+2, 2.061327e+2, -920158.44, -1009227.0, 2902.2092, 0.0046257507, -0.01076394, -920064.0, -172.4103, 0.0, 5.01506, 4.9575152 
8.2480294e+2, 2.1108994e+2, -870402.0, -959737.6, 2810.0366, 0.004216704, -0.016458293, -870313.7, 994.3037, 0.0, 5.015229, 4.9575124 
8.24804e+2, 2.1604717e+2, -821379.56, -911847.5, 2703.4375, 0.003816976, -0.022018975, -821298.9, 1425.5616, 0.0, 5.015398, 4.9569626 
8.248048e+2, 2.2100092e+2, -782138.75, -885026.7, 2385.297, 0.0037251434, -0.015170665, -782083.5, -7906.909, 0.0, 5.0155053, 4.9491878 
8.248057e+2, 2.2595109e+2, -732759.25, -835819.75, 2512.0205, 0.0038255227, -0.008045321, -732698.06, -7028.531, 0.0, 5.0155497, 4.949115 
8.248065e+2, 2.3090126e+2, -683293.4, -786413.6, 2508.7864, 0.0039675185, -0.00065360364, -683232.4, -6069.7925, 0.0, 5.015589, 4.949116 
8.2480735e+2, 2.3585144e+2, -634479.9, -738456.5, 2506.656, 0.004167058, 0.0067367204, -634419.5, -5763.8315, 0.0, 5.0156283, 4.948616 
8.248082e+2, 2.4079755e+2, -594237.5, -709673.3, 2147.388, 0.0053034415, 0.018461782, -594197.56, -14011.072, 0.0, 5.015703, 4.941434 
8.2480866e+2, 2.4573831e+2, -543585.5, -658795.1, 1975.8597, 0.0075494205, 0.004821114, -543551.6, -11788.848, 0.0, 5.0159664, 4.9418125 
8.248092e+2, 2.5067893e+2, -493370.25, -609005.1, 1781.52, 0.009999586, -0.010792468, -493342.8, -10002.829, 0.0, 5.016248, 4.941815 
8.248098e+2, 2.5561956e+2, -443410.1, -559788.6, 1586.4846, 0.012525813, -0.026342247, -443388.47, -8471.336, 0.0, 5.016529, 4.9416194 
8.2481074e+2, 2.6055703e+2, -404333.5, -534717.94, 1530.6975, 0.018380044, -0.022858905, -404315.53, -17788.254, 0.0, 5.0167255, 4.932969 
8.2481265e+2, 2.6549235e+2, -353599.13, -482308.28, 1782.5435, 0.031251427, -0.01536433, -353574.44, -15407.994, 0.0, 5.0166864, 4.9339585 
8.2481456e+2, 2.7042773e+2, -304179.28, -432919.2, 1972.0425, 0.044339817, -0.008802023, -304149.1, -14343.394, 0.0, 5.0166235, 4.9339547 
8.2481647e+2, 2.75363e+2, -254800.48, -383679.88, 2185.4172, 0.05764011, -0.0037033733, -254763.44, -13317.485, 0.0, 5.0165577, 4.9339037 
8.248183e+2, 2.802934e+2, -221867.69, -371400.44, 2681.7776, 0.07131098, 0.024638792, -221819.61, -28682.686, 0.0, 5.0164475, 4.9208474 
8.2481813e+2, 2.8521773e+2, -170958.14, -316308.72, 2545.8477, 0.058060564, 0.038913794, -170913.56, -26011.879, 0.0, 5.016144, 4.9228187 
8.248171e+2, 2.901414e+2, -122248.016, -267145.03, 2273.6519, 0.037980147, 0.04049488, -122212.35, -25537.209, 0.0, 5.0158153, 4.9228 
8.248162e+2, 2.95065e+2, -73512.57, -217993.39, 2026.8573, 0.018295802, 0.040924348, -73484.14, -25034.611, 0.0, 5.0154815, 4.922781 
8.24815e+2, 3.0000773e+2, -6296.222, -92255.36, 1382.3983, 0.0014540368, 0.06904699, -6273.996, -6242.2227, 0.0, 5.0151744, 4.95938 
8.248145e+2, 3.0497408e+2, -1080.848, -79065.23, 1961.5206, -0.0006467653, 0.08848074, -1031.5416, -1031.5416, 0.0, 5.0150204, 4.9641433 
8.248141e+2, 3.0994037e+2, -1264.0294, -78768.516, 2408.6672, -0.0011929902, 0.097633034, -1189.2456, -1189.2456, 0.0, 5.0148883, 4.9642816 
8.248136e+2, 3.1490687e+2, -1425.679, -78493.49, 2853.477, -0.0013948226, 0.10743452, -1320.1719, -1320.1719, 0.0, 5.01475, 4.9644194 
8.2980853e+2, 1.2157087e+2, -1715902.8, -1749101.4, -37.038246, -0.00020040211, -0.00173072, -1715902.8, 32705.328, 0.0, 5.0123954, 4.990696 
8.298067e+2, 1.265584e+2, -1672014.1, -1710934.0, 1337.2755, -0.0025517903, 0.0011849455, -1671968.3, 27762.477, 0.0, 5.0124817, 4.9871073 
8.29805e+2, 1.3154525e+2, -1622795.5, -1661843.8, 1308.4248, -0.0041849557, -0.0015225994, -1622751.8, 28108.191, 0.0, 5.012557, 4.9871016 
8.298033e+2, 1.365321e+2, -1575695.9, -1617102.4, 1615.142, -0.005821067, -0.0027676325, -1575633.0, 26356.256, 0.0, 5.012632, 4.9856534 
8.298031e+2, 1.41516e+2, -1533645.5, -1582912.6, 2569.8945, -0.0048918584, 0.0090753455, -1533511.8, 19635.4, 0.0, 5.0127463, 4.980603 
8.298031e+2, 1.4649665e+2, -1484100.1, -1533589.5, 2431.8467, -0.004501308, 0.0067676287, -1483980.9, 20355.707, 0.0, 5.012902, 4.980613 
8.2980317e+2, 1.5147728e+2, -1434577.6, -1484313.1, 2373.9656, -0.0040870924, 0.0042831465, -1434464.6, 21061.584, 0.0, 5.013057, 4.9806094 
8.2980317e+2, 1.564579e+2, -1386441.0, -1437927.6, 2453.367, -0.003694439, 0.0023514773, -1386324.4, 20391.482, 0.0, 5.013214, 4.9796414 
8.2980394e+2, 1.6143446e+2, -1346085.4, -1407909.1, 3326.8652, -0.0039671827, 0.005745849, -1345906.9, 12037.87, 0.0, 5.013399, 4.9731765 
8.29805e+2, 1.6640745e+2, -1296598.3, -1358730.6, 3309.089, -0.005293958, 0.0018708677, -1296422.5, 12785.363, 0.0, 5.0135427, 4.973125 
8.298061e+2, 1.7138042e+2, -1247056.5, -1309429.9, 3340.4814, -0.0066721607, -0.002076292, -1246878.1, 13592.893, 0.0, 5.013684, 4.973116 
8.298071e+2, 1.763534e+2, -1198859.8, -1262970.3, 3142.8308, -0.007982312, -0.005534244, -1198706.0, 13028.285, 0.0, 5.0138254, 4.9721537 
8.2980835e+2, 1.8132235e+2, -1159040.3, -1234466.8, 3690.383, -0.0072269454, -0.00026425862, -1158860.1, 4177.1523, 0.0, 5.014001, 4.9651084 
8.298102e+2, 1.8628749e+2, -1109303.1, -1185239.3, 3601.0857, -0.004891562, -0.0017109073, -1109132.8, 5246.4995, 0.0, 5.014227, 4.965011 
8.2981205e+2, 1.9125259e+2, -1059439.4, -1135751.3, 3507.4563, -0.0024536408, -0.003205515, -1059278.5, 6442.884, 0.0, 5.014455, 4.965002 
8.2981396e+2, 1.962177e+2, -1010626.6, -1088513.3, 3223.0417, -0.000018388933, -0.0043567475, -1010493.44, 6570.16, 0.0, 5.014682, 4.9642315 
8.298153e+2, 2.0117879e+2, -970145.25, -1059191.6, 3087.4211, 0.0017504388, -0.0001219136, -970038.3, -1593.9958, 0.0, 5.014888, 4.957361 
8.298167e+2, 2.0613572e+2, -920323.4, -1009567.1, 3033.7366, 0.0030715473, -0.0074087013, -920220.4, -356.92624, 0.0, 5.015058, 4.9574018 
8.298182e+2, 2.1109267e+2, -870566.6, -960077.6, 2943.7031, 0.004339122, -0.014938212, -870469.94, 812.65686, 0.0, 5.015227, 4.9573984 
8.2981956e+2, 2.160496e+2, -821541.2, -912181.1, 2838.5615, 0.005584897, -0.022322847, -821452.4, 1249.4329, 0.0, 5.015395, 4.9568505 
8.2982063e+2, 2.2100312e+2, -782223.06, -885215.8, 2419.596, 0.0065052356, -0.01684292, -782166.25, -8010.0806, 0.0, 5.015506, 4.9491243 
8.298214e+2, 2.2595327e+2, -732762.1, -835833.25, 2541.615, 0.0060433047, -0.0096790455, -732699.5, -7050.842, 0.0, 5.0155506, 4.949112 
8.2982224e+2, 2.3090345e+2, -683298.1, -786428.2, 2541.4146, 0.0054977722, -0.002143444, -683235.56, -6094.3813, 0.0, 5.015589, 4.9491134 
8.2982314e+2, 2.3585363e+2, -634486.5, -738472.1, 2542.3135, 0.004973091, 0.0054031773, -634424.4, -5790.704, 0.0, 5.015628, 4.9486127 
8.2982385e+2, 2.4079971e+2, -594423.7, -710078.44, 2273.8022, 0.005348418, 0.017363463, -594379.0, -14214.249, 0.0, 5.0157013, 4.9412966 
8.298246e+2, 2.4574041e+2, -543887.2, -659459.6, 2185.9595, 0.0072554615, 0.005157893, -543845.9, -12102.452, 0.0, 5.0159645, 4.941585 
8.2982546e+2, 2.5068095e+2, -493670.4, -609669.75, 1996.4418, 0.00933623, -0.008916923, -493636.06, -10312.865, 0.0, 5.016246, 4.941587 
8.2982624e+2, 2.556215e+2, -443708.72, -560453.4, 1806.2188, 0.011434747, -0.022909824, -443680.78, -8777.871, 0.0, 5.016526, 4.941391 
8.2982725e+2, 2.6055905e+2, -404259.97, -534557.1, 1557.9924, 0.016822122, -0.017320272, -404241.34, -17727.443, 0.0, 5.016725, 4.9330287 
8.298292e+2, 2.6549488e+2, -353348.8, -481642.9, 1783.7585, 0.029920017, -0.006474091, -353324.03, -15175.698, 0.0, 5.016671, 4.9342003 
8.298312e+2, 2.7043083e+2, -303975.03, -432231.9, 2006.8625, 0.043250967, 0.0037255585, -303943.63, -14161.602, 0.0, 5.0165915, 4.934209 
8.2983315e+2, 2.7536675e+2, -254642.17, -382970.6, 2253.8323, 0.05663577, 0.012638556, -254602.6, -13186.135, 0.0, 5.0165095, 4.9341702 
8.298348e+2, 2.8029755e+2, -221744.22, -371259.63, 2290.1506, 0.07050958, 0.04249483, -221709.16, -28606.328, 0.0, 5.0164647, 4.9209046 
8.2983416e+2, 2.852208e+2, -170972.53, -316915.84, 2206.5728, 0.057381634, 0.047403533, -170939.19, -26068.17, 0.0, 5.0162125, 4.9226103 
8.298329e+2, 2.9014313e+2, -122290.805, -267719.4, 1981.5126, 0.03698925, 0.038227614, -122263.805, -25614.816, 0.0, 5.0158725, 4.9226036 
8.298316e+2, 2.950654e+2, -73583.77, -218535.05, 1781.8575, 0.016778817, 0.027975507, -73561.875, -25134.12, 0.0, 5.0155277, 4.9225974 
8.298299e+2, 3.0000716e+2, -5773.0625, -91324.414, 1195.9012, -0.0019319039, 0.046789687, -5756.3486, -5743.4136, 0.0, 5.0152135, 4.9597273 
8.298286e+2, 3.0497497e+2, -175.1707, -77168.22, 1858.7733, -0.011259884, 0.074825235, -130.32214, -130.32214, 0.0, 5.0150495, 4.964856 
8.2982725e+2, 3.0994314e+2, -398.93625, -76931.66, 2373.052, -0.020113928, 0.097166836, -325.42557, -325.42557, 0.0, 5.0149093, 4.9649806 
8.298259e+2, 3.149116e+2, -601.21405, -76716.75, 2885.0063, -0.029056026, 0.12053083, -492.02036, -492.02036, 0.0, 5.014764, 4.9651055 
8.348204e+2, 1.2157451e+2, -1715774.1, -1748901.1, -38.582485, -0.0061416924, 0.0015436313, -1715774.1, 32795.89, 0.0, 5.012406, 4.9907584 
8.348188e+2, 1.2656142e+2, -1671957.4, -1710898.5, 1381.026, -0.0071454844, -0.0017652716, -1671908.5, 27790.709, 0.0, 5.0124955, 4.987115 
8.348174e+2, 1.3154843e+2, -1622738.6, -1661808.5, 1356.7018, -0.0064455783, -0.0030300762, -1622691.5, 28135.807, 0.0, 5.012571, 4.9871087 
8.34816e+2, 1.3653544e+2, -1575593.8, -1616973.9, 1653.7441, -0.005794182, -0.002829496, -1575527.8, 26427.783, 0.0, 5.0126457, 4.9856915 
8.3481604e+2, 1.4151941e+2, -1533687.4, -1583061.9, 2695.1143, -0.0030388483, 0.009737335, -1533540.6, 19572.412, 0.0, 5.0127554, 4.9805512 
8.348162e+2, 1.465e+2, -1484147.9, -1533748.1, 2548.82, -0.0026341963, 0.007256643, -1484017.3, 20286.346, 0.0, 5.0129104, 4.980558 
8.3481634e+2, 1.5148054e+2, -1434625.8, -1484471.3, 2492.1858, -0.0022689777, 0.0045670928, -1434501.5, 20992.799, 0.0, 5.0130653, 4.980554 
8.348165e+2, 1.5646109e+2, -1386471.3, -1438046.5, 2586.9583, -0.0019396845, 0.002425281, -1386341.9, 20343.14, 0.0, 5.013222, 4.9795995 
8.348175e+2, 1.6143759e+2, -1346046.4, -1407857.9, 3457.1296, -0.0023709526, 0.0053521786, -1345853.6, 12061.115, 0.0, 5.013404, 4.973193 
8.348187e+2, 1.6641055e+2, -1296509.6, -1358573.8, 3419.21, -0.0038000892, 0.00071095984, -1296321.8, 12855.702, 0.0, 5.013547, 4.9731765 
8.348199e+2, 1.713835e+2, -1246969.0, -1309272.9, 3451.6868, -0.005297533, -0.004017631, -1246778.4, 13661.999, 0.0, 5.013688, 4.9731684 
8.348211e+2, 1.7635643e+2, -1198777.3, -1262819.6, 3241.746, -0.0067400173, -0.008244709, -1198613.5, 13089.72, 0.0, 5.0138288, 4.972204 
8.348224e+2, 1.8132539e+2, -1159167.6, -1234743.8, 3868.3352, -0.0064124907, -0.002894284, -1158970.1, 4035.9722, 0.0, 5.014002, 4.9650164 
8.348244e+2, 1.8629062e+2, -1109467.3, -1185594.3, 3778.1218, -0.005252189, -0.0022176893, -1109280.1, 5067.81, 0.0, 5.014228, 4.9648924 
8.348264e+2, 1.9125582e+2, -1059602.9, -1136105.0, 3686.0203, -0.0040513566, -0.0015155972, -1059425.6, 6264.437, 0.0, 5.0144553, 4.9648833 
8.348284e+2, 1.9622102e+2, -1010780.56, -1088847.0, 3398.182, -0.0028710826, -0.00046305213, -1010632.9, 6399.2793, 0.0, 5.0146823, 4.9641194 
8.3482987e+2, 2.0118211e+2, -970328.6, -1059569.4, 3231.6047, -0.0014321759, 0.0050105625, -970211.75, -1798.2931, 0.0, 5.014886, 4.9572344 
8.3483166e+2, 2.0613877e+2, -920489.0, -1009906.75, 3165.492, 0.0014897691, -0.0040066615, -920377.06, -541.80414, 0.0, 5.0150557, 4.9572873 
8.3483344e+2, 2.110954e+2, -870732.0, -960417.06, 3077.598, 0.0044356394, -0.013399432, -870626.5, 630.6729, 0.0, 5.0152245, 4.9572845 
8.348352e+2, 2.1605203e+2, -821707.25, -912522.75, 2972.8147, 0.007328565, -0.022636026, -821610.06, 1069.0476, 0.0, 5.015393, 4.956735 
8.348364e+2, 2.2100529e+2, -782317.8, -885426.75, 2457.1052, 0.009293103, -0.018521206, -782259.3, -8123.6055, 0.0, 5.015506, 4.9490533 
8.348372e+2, 2.2595543e+2, -732765.94, -835846.06, 2570.9465, 0.008284757, -0.0113340225, -732701.8, -7073.969, 0.0, 5.015551, 4.9491086 
8.348381e+2, 2.3090562e+2, -683303.75, -786442.06, 2573.78, 0.0070612123, -0.0036978293, -683239.56, -6119.7646, 0.0, 5.0155897, 4.9491096 
8.3483887e+2, 2.358558e+2, -634494.0, -738487.1, 2577.7075, 0.005821831, 0.0039617936, -634430.1, -5818.347, 0.0, 5.015628, 4.948609 
8.348396e+2, 2.4080189e+2, -594627.3, -710519.4, 2399.992, 0.005374785, 0.016362535, -594577.6, -14434.721, 0.0, 5.0157, 4.941146 
8.348406e+2, 2.4574251e+2, -544190.7, -660122.7, 2396.9297, 0.0069302856, 0.005596946, -544141.1, -12417.176, 0.0, 5.015962, 4.9413567 
8.348416e+2, 2.5068298e+2, -493972.34, -610332.94, 2212.2341, 0.008660341, -0.0070150206, -493930.3, -10623.948, 0.0, 5.0162435, 4.941358 
8.348426e+2, 2.5562343e+2, -444009.1, -561116.7, 2026.8235, 0.010349837, -0.019526962, -443974.03, -9085.382, 0.0, 5.016524, 4.9411616 
8.348439e+2, 2.6056102e+2, -404258.7, -534552.1, 1578.9761, 0.015425611, -0.011842028, -404239.56, -17738.71, 0.0, 5.016724, 4.9330287 
8.3484584e+2, 2.6549736e+2, -353103.34, -480974.56, 1763.2998, 0.028765678, 0.0017728428, -353079.03, -14948.189, 0.0, 5.0166564, 4.9344316 
8.3484787e+2, 2.704339e+2, -303775.47, -431541.6, 2020.0039, 0.042282764, 0.014896036, -303743.53, -13984.313, 0.0, 5.01656, 4.9344525 
8.348497e+2, 2.7537042e+2, -254488.45, -382258.2, 2300.563, 0.055695683, 0.02690962, -254447.05, -13058.976, 0.0, 5.016461, 4.9344263 
8.348513e+2, 2.8030166e+2, -221997.4, -371984.78, 1998.8256, 0.0699223, 0.06071026, -221970.78, -28901.963, 0.0, 5.016482, 4.920654 
8.3485043e+2, 2.8522384e+2, -170994.9, -317516.16, 1844.1833, 0.056936484, 0.057540443, -170971.7, -26131.848, 0.0, 5.0162816, 4.92239 
8.348487e+2, 2.9014486e+2, -122341.445, -268286.84, 1666.2568, 0.03610636, 0.0364254, -122322.43, -25699.59, 0.0, 5.01593, 4.922396 
8.3484703e+2, 2.950658e+2, -73662.72, -219069.64, 1513.7383, 0.015244089, 0.014309705, -73646.97, -25240.518, 0.0, 5.015574, 4.922402 
8.348449e+2, 3.000066e+2, -5434.2993, -90802.54, 1012.41797, -0.005231574, 0.024327967, -5422.2944, -5422.2944, 0.0, 5.0152526, 4.959919 
8.348428e+2, 3.0497584e+2, 721.08514, -75262.74, 1773.5879, -0.02134701, 0.06097495, 762.4611, 762.4611, 0.0, 5.015078, 4.965555 
8.348406e+2, 3.0994582e+2, 456.7477, -75086.28, 2354.9731, -0.038086053, 0.09465242, 530.0903, 530.0903, 0.0, 5.0149307, 4.9656663 
8.348382e+2, 3.1491613e+2, 213.85063, -74931.43, 2934.0488, -0.055345666, 0.12972564, 328.2365, 328.2365, 0.0, 5.014777, 4.965778 
8.3983225e+2, 1.21577926e+2, -1716376.5, -1748990.0, -617.6917, -0.010926162, 0.004148752, -1716364.9, 32169.951, 0.0, 5.0121694, 4.990843 
8.3983094e+2, 1.2656437e+2, -1672495.8, -1711094.9, 895.64764, -0.010660395, -0.0039966186, -1672475.0, 27193.723, 0.0, 5.0123076, 4.98714 
8.398298e+2, 1.3155153e+2, -1623240.9, -1661995.3, 927.5278, -0.0081597315, -0.004105869, -1623218.8, 27577.066, 0.0, 5.0123954, 4.987131 
8.398286e+2, 1.3653868e+2, -1576153.0, -1617135.1, 1260.2992, -0.0056337835, -0.002690188, -1576114.3, 25808.559, 0.0, 5.0124383, 4.9857383 
8.398289e+2, 1.4152274e+2, -1534486.0, -1583529.3, 2448.959, -0.0013714356, 0.010507241, -1534364.0, 18715.932, 0.0, 5.012507, 4.9805145 
8.398292e+2, 1.4650327e+2, -1484974.9, -1534232.8, 2372.4731, -0.001045922, 0.0077558085, -1484860.9, 19410.46, 0.0, 5.0126524, 4.98052 
8.398295e+2, 1.5148374e+2, -1435493.1, -1484974.0, 2386.3687, -0.0008081601, 0.0047857473, -1435378.3, 20084.666, 0.0, 5.012793, 4.980516 
8.3982986e+2, 1.5646425e+2, -1387376.9, -1438535.8, 2572.3423, -0.0006129733, 0.0023788405, -1387247.9, 19406.701, 0.0, 5.0129294, 4.9795747 
8.39831e+2, 1.6144069e+2, -1346887.9, -1408237.3, 3478.597, -0.0011841842, 0.0048979535, -1346691.3, 11193.669, 0.0, 5.0131173, 4.973203 
8.3983237e+2, 1.6641362e+2, -1297178.1, -1358789.9, 3404.227, -0.0025681562, -0.0003006771, -1296990.5, 12156.852, 0.0, 5.013302, 4.973221 
8.3983374e+2, 1.7138655e+2, -1247551.9, -1309444.9, 3409.5164, -0.004010846, -0.0056026066, -1247364.6, 13045.302, 0.0, 5.013471, 4.9732127 
8.3983505e+2, 1.7635946e+2, -1199319.3, -1262973.9, 3162.0522, -0.0053904117, -0.01038836, -1199162.6, 12509.951, 0.0, 5.013626, 4.972247 
8.3983654e+2, 1.8132843e+2, -1159851.6, -1235270.4, 3865.9739, -0.0053133005, -0.004950512, -1159654.0, 3321.3486, 0.0, 5.0138106, 4.9649296 
8.398386e+2, 1.8629372e+2, -1110219.1, -1186193.3, 3826.964, -0.0051760473, -0.0026045865, -1110026.8, 4290.4097, 0.0, 5.014021, 4.9647875 
8.3984077e+2, 1.91259e+2, -1060416.4, -1136732.3, 3786.2554, -0.005047042, -0.00017169253, -1060228.9, 5430.3843, 0.0, 5.0142264, 4.9647784 
8.3984286e+2, 1.9622427e+2, -1011660.4, -1089487.9, 3541.9246, -0.0049441475, 0.0026255916, -1011499.5, 5501.9526, 0.0, 5.0144267, 4.964021 
8.398445e+2, 2.0118536e+2, -971296.7, -1060325.8, 3373.417, -0.0038394597, 0.009255922, -971169.06, -2785.8254, 0.0, 5.0146155, 4.957104 
8.3984655e+2, 2.0614177e+2, -921374.06, -1010599.6, 3278.1155, 0.00034174236, -0.0010349286, -921253.75, -1446.3535, 0.0, 5.014807, 4.9571676 
8.3984864e+2, 2.1109813e+2, -871572.2, -961090.94, 3166.1533, 0.0046659894, -0.011837147, -871460.3, -228.46985, 0.0, 5.0149903, 4.9571633 
8.398507e+2, 2.1605448e+2, -822536.44, -913203.94, 3030.515, 0.0089623295, -0.022498246, -822435.25, 221.07806, 0.0, 5.015164, 4.9566083 
8.3985215e+2, 2.2100751e+2, -783064.7, -885983.4, 2405.8884, 0.0118348645, -0.01950545, -783008.44, -8893.304, 0.0, 5.015285, 4.9489665 
8.39853e+2, 2.259576e+2, -733342.94, -836169.0, 2454.6897, 0.010281581, -0.012442085, -733284.4, -7677.1377, 0.0, 5.0153575, 4.949088 
8.3985376e+2, 2.3090777e+2, -683814.9, -786730.5, 2404.2998, 0.00842755, -0.004902879, -683758.75, -6659.7964, 0.0, 5.0154185, 4.94909 
8.3985454e+2, 2.358579e+2, -634964.06, -738752.2, 2359.3064, 0.006565519, 0.0026568526, -634910.44, -6319.782, 0.0, 5.015471, 4.9485903 
8.398553e+2, 2.4080397e+2, -595338.2, -711195.25, 2239.8843, 0.005353786, 0.015447485, -595294.9, -15172.905, 0.0, 5.0155187, 4.9409943 
8.3985645e+2, 2.4574454e+2, -545304.06, -661107.6, 2378.267, 0.00658613, 0.0060079386, -545255.25, -13549.985, 0.0, 5.015663, 4.9411488 
8.398577e+2, 2.5068492e+2, -495450.6, -611470.9, 2275.2598, 0.008075335, -0.005361775, -495406.0, -12115.903, 0.0, 5.0158124, 4.9411535 
8.39859e+2, 2.556253e+2, -445865.75, -562411.56, 2182.9595, 0.009534459, -0.01670517, -445824.88, -10950.005, 0.0, 5.0159554, 4.9409604 
8.3986044e+2, 2.605629e+2, -406173.8, -535428.6, 1677.702, 0.014483204, -0.0072249663, -406152.03, -19663.71, 0.0, 5.01605, 4.933016 
8.398623e+2, 2.6549968e+2, -354838.53, -481254.7, 1784.2496, 0.027896626, 0.008942268, -354813.38, -16699.496, 0.0, 5.0159473, 4.934637 
8.3986425e+2, 2.704368e+2, -305762.53, -431970.3, 1933.6698, 0.041701358, 0.024878677, -305732.9, -15995.76, 0.0, 5.015776, 4.934639 
8.398662e+2, 2.7537385e+2, -256861.63, -382882.66, 2030.3348, 0.055595525, 0.039999362, -256828.92, -15467.947, 0.0, 5.015556, 4.9345937 
8.398677e+2, 2.8030553e+2, -225442.11, -374418.06, 1575.522, 0.07046961, 0.079403736, -225425.45, -32389.281, 0.0, 5.015442, 4.9202332 
8.3986646e+2, 2.852268e+2, -173682.64, -318943.94, 1665.2039, 0.056886014, 0.06852903, -173663.55, -28854.078, 0.0, 5.0153556, 4.922251 
8.398644e+2, 2.9014656e+2, -124684.016, -269588.9, 1754.2412, 0.035319235, 0.034753107, -124662.78, -28065.594, 0.0, 5.0151286, 4.922252 
8.3986235e+2, 2.9506627e+2, -75805.914, -220295.13, 1821.227, 0.013932214, 0.00038189057, -75782.96, -27397.658, 0.0, 5.0148506, 4.922253 
8.398598e+2, 3.000062e+2, -7169.2827, -91299.21, 1560.2179, -0.0076442794, 0.0023419473, -7140.358, -7140.358, 0.0, 5.0145726, 4.960023 
8.39857e+2, 3.049767e+2, -325.41656, -74316.07, 2298.7988, -0.02917564, 0.04609266, -254.0645, -254.0645, 0.0, 5.0144258, 4.9661713 
8.398541e+2, 3.0994818e+2, -845.38727, -74335.27, 2708.717, -0.051388104, 0.08704791, -745.68365, -745.68365, 0.0, 5.0141997, 4.966247 
8.3985114e+2, 3.149198e+2, -1665.2279, -74499.2, 3093.7683, -0.07349563, 0.12859368, -1534.0502, -1534.0502, 0.0, 5.0138535, 4.966323 
8.4484464e+2, 1.2157951e+2, -1717938.0, -1749309.4, -336.41708, -0.0051791333, -0.004930838, -1717934.4, 30586.059, 0.0, 5.0115743, 4.991018 
8.4484303e+2, 1.2656723e+2, -1674282.0, -1711601.3, 1290.0648, -0.00878648, -0.0017935212, -1674237.5, 25404.098, 0.0, 5.011654, 4.9872837 
8.4484184e+2, 1.3155444e+2, -1625074.4, -1662542.3, 1343.8097, -0.007057624, -0.0025772022, -1625026.3, 25741.455, 0.0, 5.011728, 4.9872684 
8.4484065e+2, 1.3654166e+2, -1577848.6, -1617558.8, 1731.0449, -0.0051460094, -0.0016952571, -1577773.3, 24120.496, 0.0, 5.0118027, 4.985901 
8.4484106e+2, 1.4152582e+2, -1535964.5, -1583997.0, 3069.1797, -0.0012269866, 0.010868736, -1535769.1, 17280.697, 0.0, 5.0119767, 4.980606 
8.4484154e+2, 1.465064e+2, -1486129.8, -1534571.3, 3033.7434, -0.001623449, 0.007754976, -1485940.5, 18300.193, 0.0, 5.0122366, 4.980597 
8.4484196e+2, 1.5148693e+2, -1436288.9, -1485135.3, 3075.1218, -0.0021046572, 0.0044724904, -1436096.0, 19335.598, 0.0, 5.0124965, 4.980593 
8.4484243e+2, 1.5646748e+2, -1387776.5, -1438470.5, 3305.7876, -0.0026307504, 0.0017819004, -1387561.9, 19060.793, 0.0, 5.0127583, 4.9796667 
8.4484375e+2, 1.6144395e+2, -1347041.3, -1408279.8, 4276.119, -0.0031769827, 0.0041143554, -1346744.1, 11108.472, 0.0, 5.0130725, 4.973204 
8.4484553e+2, 1.6641694e+2, -1296999.9, -1358693.0, 4140.916, -0.0033779282, -0.00031095624, -1296723.3, 12391.652, 0.0, 5.0133753, 4.973212 
8.448472e+2, 1.7138994e+2, -1246985.3, -1309157.8, 4088.3408, -0.0035902217, -0.004774344, -1246717.6, 13659.527, 0.0, 5.0136766, 4.9732046 
8.4484893e+2, 1.7636295e+2, -1198308.5, -1262452.5, 3804.0928, -0.0037282945, -0.00867765, -1198083.8, 13555.612, 0.0, 5.013979, 4.972249 
8.448508e+2, 1.8133187e+2, -1158443.3, -1234598.9, 4496.72, -0.0026290622, -0.0033062773, -1158178.8, 4763.68, 0.0, 5.014294, 4.9649243 
8.448531e+2, 1.8629706e+2, -1108702.3, -1185438.4, 4505.771, -0.0025013103, -0.0021117087, -1108438.5, 5846.3994, 0.0, 5.0145364, 4.9647975 
8.448554e+2, 1.9126223e+2, -1058808.1, -1135944.5, 4529.5093, -0.0024162096, -0.00080509327, -1058543.1, 7084.594, 0.0, 5.0147767, 4.964786 
8.4485775e+2, 1.962274e+2, -1009959.2, -1088689.1, 4346.1763, -0.002370266, 0.0009164899, -1009720.0, 7250.46, 0.0, 5.0150166, 4.964017 
8.448596e+2, 2.0118843e+2, -969580.94, -1059796.3, 4216.7217, -0.0016183459, 0.00753142, -969384.25, -1031.5116, 0.0, 5.015263, 4.956988 
8.448618e+2, 2.0614487e+2, -919455.9, -1010029.75, 4127.794, 0.0017045223, -0.0010193883, -919268.1, 509.15338, 0.0, 5.015536, 4.957031 
8.44864e+2, 2.1110126e+2, -869398.56, -960416.56, 4018.1885, 0.005190905, -0.010012312, -869221.5, 1980.5928, 0.0, 5.0158105, 4.957023 
8.448662e+2, 2.1605764e+2, -820095.94, -912445.9, 3880.473, 0.008706414, -0.018888671, -819933.2, 2693.8408, 0.0, 5.016084, 4.9564543 
8.448678e+2, 2.2101058e+2, -780290.3, -884945.9, 3199.4866, 0.0109180305, -0.0154757025, -780192.56, -6105.4746, 0.0, 5.0162954, 4.948868 
8.448687e+2, 2.2596039e+2, -730405.94, -835089.94, 3194.273, 0.009255522, -0.009856839, -730308.56, -4727.339, 0.0, 5.016436, 4.948975 
8.448696e+2, 2.3091027e+2, -680663.9, -785545.3, 3087.8704, 0.007338386, -0.003840197, -680573.06, -3498.0679, 0.0, 5.0165753, 4.9489803 
8.448705e+2, 2.3586017e+2, -631575.5, -737451.7, 2982.2036, 0.0054400438, 0.0022006833, -631491.6, -2922.8672, 0.0, 5.016714, 4.948484 
8.448713e+2, 2.40806e+2, -591871.6, -709750.25, 2761.8398, 0.0044285264, 0.013790146, -591806.94, -11705.116, 0.0, 5.0167727, 4.940929 
8.448725e+2, 2.457466e+2, -542240.0, -659823.0, 2986.7585, 0.0058829086, 0.005256906, -542164.2, -10478.567, 0.0, 5.0167747, 4.9410954 
8.4487385e+2, 2.5068703e+2, -492813.1, -610363.4, 2952.03, 0.0076334686, -0.004879806, -492739.0, -9468.307, 0.0, 5.016774, 4.9411073 
8.4487516e+2, 2.556275e+2, -443635.88, -561471.8, 2916.346, 0.009393856, -0.015040673, -443563.75, -8708.069, 0.0, 5.0167727, 4.940921 
8.4487647e+2, 2.605652e+2, -404047.72, -533891.94, 2390.9949, 0.013656358, -0.0050422014, -404003.72, -17535.23, 0.0, 5.016707, 4.933257 
8.44878e+2, 2.6550227e+2, -352994.13, -479752.88, 2493.419, 0.024233468, 0.011510164, -352945.13, -14854.905, 0.0, 5.016482, 4.934937 
8.4487945e+2, 2.7043968e+2, -304152.28, -430634.13, 2702.6443, 0.035257574, 0.02829391, -304094.53, -14385.179, 0.0, 5.0162344, 4.934922 
8.44881e+2, 2.75377e+2, -255353.56, -381655.53, 2934.589, 0.046545126, 0.044553667, -255285.4, -13956.355, 0.0, 5.015982, 4.9348593 
8.4488195e+2, 2.803088e+2, -223909.67, -372773.3, 2798.0442, 0.05755895, 0.08155893, -223857.1, -30855.055, 0.0, 5.0157905, 4.9206476 
8.448806e+2, 2.8522974e+2, -172967.58, -318456.63, 2865.4167, 0.045434203, 0.06554786, -172911.16, -28135.104, 0.0, 5.0155563, 4.9223247 
8.448787e+2, 2.901492e+2, -124182.65, -269219.53, 2768.6187, 0.02795115, 0.028866889, -124129.81, -27566.275, 0.0, 5.015262, 4.9223228 
8.448767e+2, 2.9506868e+2, -75383.664, -219985.25, 2684.0637, 0.010857151, -0.008037772, -75333.87, -26982.691, 0.0, 5.0149617, 4.9223204 
8.4487426e+2, 3.0000842e+2, -6095.4707, -89493.75, 2350.5264, -0.00731689, -0.011092589, -6029.275, -6029.275, 0.0, 5.014687, 4.96064 
8.4487146e+2, 3.0497876e+2, 679.48895, -72676.02, 3043.9863, -0.027660256, 0.025628433, 805.5865, 805.5865, 0.0, 5.0145235, 4.9667597 
8.4486866e+2, 3.099501e+2, 340.19113, -72721.586, 3390.7026, -0.04801226, 0.06073086, 497.2118, 497.2118, 0.0, 5.014368, 4.9667983 
8.4486574e+2, 3.1492147e+2, 10.002465, -72776.44, 3735.0894, -0.06748165, 0.095619604, 201.16924, 201.16924, 0.0, 5.0142045, 4.966837 
8.4985644e+2, 1.21582575e+2, -1717613.8, -1748746.0, -379.94855, -0.0038406374, -0.0033157733, -1717609.1, 30883.158, 0.0, 5.011588, 4.9912004 
8.498549e+2, 1.2657054e+2, -1673988.4, -1711129.9, 1337.5619, -0.0072951317, 0.00086374313, -1673940.3, 25670.268, 0.0, 5.0116725, 4.9874344 
8.4985363e+2, 1.315578e+2, -1624776.6, -1662074.3, 1396.6364, -0.0062169963, -0.0009806058, -1624724.4, 26011.557, 0.0, 5.011749, 4.987418 
8.498525e+2, 1.3654506e+2, -1577495.1, -1616985.4, 1819.1135, -0.0050258837, -0.0011864186, -1577411.5, 24449.658, 0.0, 5.011825, 4.986085 
8.4985304e+2, 1.4152926e+2, -1535805.8, -1583740.9, 3254.5137, -0.0017712365, 0.010522461, -1535585.8, 17430.477, 0.0, 5.011987, 4.9806876 
8.4985363e+2, 1.4650989e+2, -1485984.9, -1534340.0, 3232.8655, -0.002952048, 0.0071883393, -1485769.6, 18436.656, 0.0, 5.012246, 4.980671 
8.4985423e+2, 1.514905e+2, -1436147.0, -1484907.1, 3276.922, -0.004234243, 0.003706452, -1435927.8, 19468.846, 0.0, 5.012506, 4.980667 
8.498549e+2, 1.564711e+2, -1387612.1, -1438193.4, 3542.0457, -0.0055940384, 0.00081121735, -1387365.4, 19221.441, 0.0, 5.0127673, 4.9797573 
8.4985656e+2, 1.614476e+2, -1347046.9, -1408355.9, 4495.133, -0.0060754255, 0.0030810128, -1346719.1, 11097.355, 0.0, 5.013082, 4.973178 
8.4985876e+2, 1.6642067e+2, -1297026.4, -1358808.8, 4369.972, -0.0048303073, -0.0003408811, -1296718.8, 12359.808, 0.0, 5.013384, 4.9731727 
8.498609e+2, 1.7139372e+2, -1247013.9, -1309273.4, 4320.3804, -0.0036031483, -0.0037589257, -1246715.5, 13625.223, 0.0, 5.0136843, 4.973166 
8.4986305e+2, 1.7636678e+2, -1198325.0, -1262536.1, 4078.6277, -0.0023453347, -0.006597778, -1198067.0, 13535.92, 0.0, 5.0139856, 4.972222 
8.498654e+2, 1.813357e+2, -1158433.9, -1234563.1, 4689.414, -0.00000072772025, -0.0012207224, -1158146.1, 4760.13, 0.0, 5.0142922, 4.964939 
8.4986794e+2, 1.8630077e+2, -1108658.1, -1185330.5, 4693.525, 0.00029543214, -0.0015466718, -1108371.9, 5877.55, 0.0, 5.0145345, 4.9648366 
8.498705e+2, 1.912658e+2, -1058764.4, -1135837.9, 4718.954, 0.0005091659, -0.0018003867, -1058476.5, 7116.234, 0.0, 5.014775, 4.9648247 
8.4987307e+2, 1.9623084e+2, -1009950.5, -1088658.6, 4529.668, 0.0006606355, -0.0016298019, -1009690.7, 7245.3403, 0.0, 5.0150146, 4.96403 
8.498751e+2, 2.011918e+2, -969721.3, -1060111.4, 4426.151, 0.0010055484, 0.004704375, -969505.1, -1186.1642, 0.0, 5.015265, 4.9568825 
8.498775e+2, 2.0614833e+2, -919627.0, -1010416.25, 4341.1797, 0.0031509462, -0.0016225338, -919419.94, 323.47836, 0.0, 5.015538, 4.9569006 
8.4987986e+2, 2.1110481e+2, -869568.3, -960803.2, 4234.229, 0.005370248, -0.008270464, -869372.25, 1795.8585, 0.0, 5.015813, 4.9568925 
8.498822e+2, 2.160613e+2, -820292.4, -912893.56, 4089.1365, 0.0075856736, -0.014800648, -820112.1, 2480.7651, 0.0, 5.016087, 4.956302 
8.4988385e+2, 2.2101419e+2, -780407.4, -885209.94, 3313.7478, 0.008732911, -0.010571044, -780302.7, -6248.8735, 0.0, 5.0162964, 4.948779 
8.498849e+2, 2.259637e+2, -730573.56, -835467.25, 3297.4868, 0.0071699307, -0.006725466, -730470.0, -4919.6636, 0.0, 5.016437, 4.9488473 
8.49886e+2, 2.3091325e+2, -680831.56, -785922.7, 3194.8035, 0.00537987, -0.0026195892, -680734.5, -3687.8608, 0.0, 5.0165763, 4.9488525 
8.49887e+2, 2.3586282e+2, -631743.25, -737829.2, 3092.8438, 0.003574015, 0.0015233692, -631653.1, -3110.2104, 0.0, 5.016715, 4.9483557 
8.4988797e+2, 2.4080841e+2, -591953.6, -709935.06, 2755.686, 0.003020886, 0.011732352, -591889.25, -11811.115, 0.0, 5.0167727, 4.9408665 
8.498892e+2, 2.4574904e+2, -542279.8, -659918.25, 2985.8618, 0.004796242, 0.0041031744, -542204.06, -10541.965, 0.0, 5.0167747, 4.941065 
8.498906e+2, 2.506896e+2, -492853.38, -610463.0, 2956.054, 0.0068128863, -0.0047050584, -492779.13, -9532.139, 0.0, 5.0167747, 4.941076 
8.498919e+2, 2.5563014e+2, -443676.63, -561575.8, 2925.291, 0.008793415, -0.013486646, -443604.1, -8772.357, 0.0, 5.016773, 4.940888 
8.498931e+2, 2.6056793e+2, -403768.28, -533314.44, 2264.3875, 0.012243524, -0.002915755, -403728.72, -17284.879, 0.0, 5.016712, 4.9334655 
8.49894e+2, 2.6550522e+2, -352629.63, -478903.8, 2366.2776, 0.019207183, 0.012913721, -352585.3, -14522.664, 0.0, 5.0164766, 4.935249 
8.498949e+2, 2.7044278e+2, -303817.5, -429744.53, 2604.5803, 0.026067933, 0.029022172, -303763.66, -14085.203, 0.0, 5.016216, 4.9352503 
8.498958e+2, 2.7538034e+2, -255048.6, -380725.47, 2865.5916, 0.032909717, 0.044712774, -254983.3, -13688.796, 0.0, 5.0159507, 4.935204 
8.498961e+2, 2.8031218e+2, -223307.97, -371480.9, 2664.8745, 0.038608193, 0.07798667, -223260.06, -30294.72, 0.0, 5.015802, 4.921107 
8.4989464e+2, 2.852329e+2, -172801.02, -318501.0, 2649.1226, 0.029725172, 0.05904127, -172752.86, -28013.275, 0.0, 5.0156064, 4.922324 
8.4989303e+2, 2.9015225e+2, -124019.62, -269239.22, 2582.1846, 0.018083617, 0.022041997, -123973.72, -27447.324, 0.0, 5.01531, 4.9223294 
8.498913e+2, 2.9507163e+2, -75224.28, -219980.34, 2527.4866, 0.006562742, -0.015171121, -75180.164, -26866.88, 0.0, 5.0150075, 4.922334 
8.4988904e+2, 3.0001113e+2, -5226.9004, -87862.61, 2197.3794, -0.007299202, -0.022071814, -5168.5107, -5168.5107, 0.0, 5.0147405, 4.9612336 
8.498863e+2, 3.0498105e+2, 1556.5311, -71036.59, 2905.1284, -0.02514365, 0.004586679, 1672.6068, 1672.6068, 0.0, 5.0145755, 4.967374 
8.4988356e+2, 3.09952e+2, 1183.1984, -71133.57, 3297.1616, -0.043553904, 0.030975774, 1333.2157, 1333.2157, 0.0, 5.014414, 4.9674006 
8.498808e+2, 3.1492302e+2, 818.94446, -71239.81, 3686.875, -0.061695978, 0.057467833, 1007.09155, 1007.09155, 0.0, 5.014244, 4.9674273 
8.5486794e+2, 1.2158649e+2, -1717265.4, -1748128.0, -390.5395, -0.0055378843, 0.006903141, -1717260.4, 31195.238, 0.0, 5.0116024, 4.9914 
8.548667e+2, 1.2657385e+2, -1673697.1, -1710656.5, 1387.2295, -0.005731946, 0.0035689545, -1673645.1, 25934.334, 0.0, 5.0116916, 4.987585 
8.548655e+2, 1.3156115e+2, -1624481.1, -1661604.3, 1451.6339, -0.0052922308, 0.00062209804, -1624424.5, 26279.607, 0.0, 5.01177, 4.9875674 
8.548643e+2, 1.3654844e+2, -1577166.9, -1616456.5, 1899.1135, -0.004815991, -0.00070674537, -1577075.4, 24753.195, 0.0, 5.011847, 4.9862537 
8.5486495e+2, 1.4153273e+2, -1535643.1, -1583474.1, 3440.3423, -0.0023614222, 0.010260241, -1535396.9, 17585.73, 0.0, 5.0119977, 4.9807725 
8.548658e+2, 1.4651342e+2, -1485840.9, -1534108.1, 3432.259, -0.0043021515, 0.0066690743, -1485598.1, 18573.873, 0.0, 5.012256, 4.980745 
8.5486656e+2, 1.5149407e+2, -1436006.0, -1484678.5, 3478.9941, -0.0063615805, 0.002947236, -1435758.5, 19602.893, 0.0, 5.0125155, 4.98074 
8.548674e+2, 1.5647471e+2, -1387458.5, -1437935.5, 3768.3108, -0.008533616, -0.00018982081, -1387178.8, 19372.154, 0.0, 5.0127764, 4.979841 
8.5486937e+2, 1.6145127e+2, -1347054.4, -1408433.1, 4725.0127, -0.008980233, 0.0020974993, -1346692.8, 11087.497, 0.0, 5.013091, 4.9731507 
8.54872e+2, 1.6642438e+2, -1297054.0, -1358923.5, 4598.5293, -0.006281192, -0.0003334755, -1296714.1, 12328.182, 0.0, 5.013392, 4.9731336 
8.5487455e+2, 1.7139749e+2, -1247043.8, -1309388.0, 4551.9214, -0.0036094994, -0.0027288157, -1246713.3, 13591.185, 0.0, 5.013692, 4.973127 
8.548772e+2, 1.763706e+2, -1198346.9, -1262627.9, 4353.6694, -0.00094928354, -0.004524931, -1198053.4, 13513.036, 0.0, 5.013992, 4.972191 
8.548799e+2, 1.8133952e+2, -1158426.8, -1234530.6, 4875.996, 0.002622036, 0.0009262548, -1158115.5, 4754.4575, 0.0, 5.0142903, 4.964952 
8.548828e+2, 1.8630446e+2, -1108614.4, -1185222.3, 4881.7466, 0.0030951141, -0.00093333825, -1108304.6, 5909.1636, 0.0, 5.0145326, 4.964875 
8.548856e+2, 1.912694e+2, -1058721.0, -1135731.0, 4908.8667, 0.003444996, -0.0027702358, -1058409.3, 7148.36, 0.0, 5.0147734, 4.964863 
8.548884e+2, 1.9623432e+2, -1009936.5, -1088615.3, 4712.4326, 0.0037090036, -0.004172997, -1009655.25, 7246.364, 0.0, 5.015013, 4.964047 
8.548907e+2, 2.0119518e+2, -969875.75, -1060455.4, 4639.788, 0.0036133816, 0.0018706076, -969638.7, -1353.5635, 0.0, 5.015267, 4.9567666 
8.548932e+2, 2.0615178e+2, -919798.94, -1010802.2, 4554.995, 0.004589108, -0.0022595045, -919571.5, 138.0201, 0.0, 5.01554, 4.95677 
8.548957e+2, 2.1110837e+2, -869738.8, -961189.25, 4450.6987, 0.005551411, -0.0066034766, -869522.75, 1611.3809, 0.0, 5.0158153, 4.9567614 
8.548982e+2, 2.1606496e+2, -820488.4, -913338.06, 4295.2935, 0.0064766603, -0.010828238, -820290.06, 2268.768, 0.0, 5.0160894, 4.9561505 
8.5489994e+2, 2.2101782e+2, -780542.8, -885512.8, 3431.164, 0.0065488718, -0.005559456, -780430.75, -6410.3325, 0.0, 5.0162973, 4.948676 
8.549012e+2, 2.2596702e+2, -730742.0, -835844.06, 3400.8333, 0.0050792615, -0.0035072512, -730632.06, -5112.67, 0.0, 5.0164385, 4.948719 
8.549024e+2, 2.3091625e+2, -681000.0, -786299.56, 3301.8691, 0.0034208754, -0.0013806586, -680896.56, -3878.2915, 0.0, 5.0165772, 4.948724 
8.549036e+2, 2.3586547e+2, -631911.7, -738206.2, 3203.6167, 0.0017121115, 0.0007958522, -631815.25, -3298.1492, 0.0, 5.0167155, 4.9482265 
8.549046e+2, 2.4081081e+2, -592054.06, -710158.7, 2750.285, 0.0016121973, 0.009719157, -591990.0, -11935.596, 0.0, 5.016773, 4.94079 
8.549059e+2, 2.457515e+2, -542321.0, -660012.3, 2986.9502, 0.0036989031, 0.00298751, -542245.2, -10606.713, 0.0, 5.016775, 4.941034 
8.549073e+2, 2.5069213e+2, -492895.03, -610561.44, 2962.062, 0.005977757, -0.004592212, -492820.53, -9597.276, 0.0, 5.0167747, 4.9410434 
8.549087e+2, 2.556328e+2, -443718.75, -561678.6, 2936.22, 0.008174555, -0.012094496, -443645.72, -8837.905, 0.0, 5.0167737, 4.9408545 
8.5490966e+2, 2.6057068e+2, -403568.06, -532905.75, 2132.903, 0.011041174, -0.0006776105, -403532.9, -17113.629, 0.0, 5.016717, 4.9336114 
8.5490996e+2, 2.655081e+2, -352272.06, -478049.06, 2213.6743, 0.014313499, 0.014197524, -352233.1, -14197.805, 0.0, 5.0164714, 4.9355545 
8.549102e+2, 2.7044585e+2, -303489.6, -428849.22, 2481.045, 0.016772335, 0.029160034, -303440.5, -13792.611, 0.0, 5.016197, 4.9355717 
8.549104e+2, 2.753836e+2, -254750.44, -379789.6, 2771.113, 0.018929884, 0.04381087, -254689.05, -13428.6, 0.0, 5.015919, 4.935542 
8.549101e+2, 2.8031558e+2, -222866.38, -370555.3, 2585.1606, 0.019683644, 0.07446972, -222821.14, -29892.574, 0.0, 5.0158134, 4.921435 
8.549088e+2, 2.8523612e+2, -172643.28, -318537.03, 2418.7773, 0.014270412, 0.053127676, -172603.19, -27900.428, 0.0, 5.0156565, 4.9223185 
8.549074e+2, 2.9015532e+2, -123865.375, -269250.5, 2381.6958, 0.008286792, 0.015146886, -123826.37, -27337.146, 0.0, 5.0153575, 4.9223304 
8.5490596e+2, 2.9507452e+2, -75073.625, -219966.98, 2356.85, 0.0021555314, -0.023037758, -75035.3, -26759.617, 0.0, 5.015053, 4.922343 
8.549038e+2, 3.0001384e+2, -4519.942, -86581.555, 2057.2888, -0.007281373, -0.033253938, -4468.398, -4468.398, 0.0, 5.014794, 4.9616957 
8.5490125e+2, 3.0498335e+2, 2421.4768, -69385.73, 2779.7695, -0.022156816, -0.016324775, 2528.9253, 2528.9253, 0.0, 5.0146275, 4.9679823 
8.5489863e+2, 3.0995384e+2, 2014.119, -69534.08, 3217.1003, -0.038255315, 0.00044053973, 2158.4817, 2158.4817, 0.0, 5.0144596, 4.9679966 
8.5489595e+2, 3.149244e+2, 1615.8087, -69691.68, 3652.1218, -0.05470005, 0.01762549, 1802.3696, 1802.3696, 0.0, 5.0142837, 4.9680114 
8.598793e+2, 1.2159017e+2, -1718336.6, -1748176.5, -664.5255, -0.0069074943, 0.015374329, -1718321.9, 30099.535, 0.0, 5.0111523, 4.991603 
8.598785e+2, 1.265771e+2, -1674527.6, -1710691.9, 1197.2477, -0.0042066965, 0.006229178, -1674488.0, 25060.898, 0.0, 5.011342, 4.987742 
8.5987735e+2, 1.3156445e+2, -1625049.4, -1661511.3, 1305.0874, -0.004313849, 0.002195193, -1625002.8, 25669.918, 0.0, 5.0115056, 4.9877243 
8.5987616e+2, 1.365518e+2, -1577535.8, -1616234.0, 1806.8582, -0.0043677045, -0.00031931937, -1577451.5, 24344.668, 0.0, 5.011641, 4.986425 
8.598769e+2, 1.4153615e+2, -1536074.5, -1583493.1, 3489.0044, -0.0026488092, 0.010012302, -1535819.3, 17130.11, 0.0, 5.0118136, 4.980855 
8.5987794e+2, 1.4651689e+2, -1486369.9, -1534187.8, 3499.462, -0.0051937276, 0.0062435423, -1486115.1, 18022.69, 0.0, 5.0120416, 4.9808216 
8.598789e+2, 1.5149762e+2, -1436647.5, -1484812.1, 3565.3875, -0.0078078685, 0.0023351007, -1436385.0, 18941.412, 0.0, 5.0122623, 4.9808173 
8.598799e+2, 1.5647833e+2, -1388212.3, -1438092.3, 3890.5964, -0.010506561, -0.0010100647, -1387910.5, 18604.537, 0.0, 5.012479, 4.979932 
8.598822e+2, 1.6145493e+2, -1348087.5, -1409011.3, 4896.3096, -0.01093655, 0.0013632558, -1347696.5, 10047.47, 0.0, 5.0127597, 4.9731164 
8.598853e+2, 1.664281e+2, -1298153.9, -1359546.3, 4769.96, -0.0071782623, -0.00015821133, -1297785.5, 11220.514, 0.0, 5.0130396, 4.973093 
8.5988826e+2, 1.7140126e+2, -1248202.4, -1310039.1, 4733.0776, -0.0034024857, -0.0016147543, -1247842.1, 12425.917, 0.0, 5.013318, 4.973086 
8.5989124e+2, 1.7637444e+2, -1199555.5, -1263287.3, 4563.5464, 0.00038658042, -0.002445482, -1199230.4, 12299.702, 0.0, 5.013597, 4.972156 
8.598944e+2, 1.8134333e+2, -1159583.5, -1235067.0, 5031.3315, 0.004940562, 0.0031504077, -1159249.6, 3584.3545, 0.0, 5.0138936, 4.964959 
8.598975e+2, 1.8630816e+2, -1109618.9, -1185621.8, 5019.98, 0.0055055767, -0.0001684722, -1109288.8, 4889.513, 0.0, 5.0141735, 4.9649096 
8.599006e+2, 1.9127296e+2, -1059629.1, -1136084.8, 5039.115, 0.0059557804, -0.0035329063, -1059298.5, 6224.237, 0.0, 5.0144463, 4.964897 
8.5990363e+2, 1.9623776e+2, -1010803.25, -1089007.0, 4838.075, 0.006342136, -0.006466132, -1010505.1, 6362.1143, 0.0, 5.0147114, 4.9640555 
8.5990614e+2, 2.0119853e+2, -970825.75, -1061176.9, 4770.9663, 0.0058417004, -0.00077799306, -970574.5, -2323.0393, 0.0, 5.0149937, 4.9566507 
8.599088e+2, 2.0615521e+2, -920708.6, -1011532.56, 4691.8057, 0.005817841, -0.0029258837, -920466.9, -790.95764, 0.0, 5.0152864, 4.9566407 
8.5991156e+2, 2.1111187e+2, -870624.9, -961903.3, 4591.4316, 0.0057441583, -0.00520614, -870394.5, 706.096, 0.0, 5.0155683, 4.9566326 
8.5991424e+2, 2.1606852e+2, -821403.3, -914086.4, 4430.0874, 0.005645092, -0.0073793293, -821192.0, 1333.3552, 0.0, 5.0158367, 4.9560113 
8.599161e+2, 2.2102138e+2, -781464.75, -886205.75, 3503.7844, 0.0048081484, -0.0009868696, -781347.6, -7360.096, 0.0, 5.016032, 4.9485598 
8.5991746e+2, 2.259703e+2, -731661.25, -836550.0, 3473.272, 0.0034159205, -0.0005876389, -731546.4, -6057.618, 0.0, 5.0161753, 4.948596 
8.5991883e+2, 2.3091921e+2, -681942.75, -787017.9, 3389.8162, 0.0019386294, -0.00033723607, -681833.5, -4843.496, 0.0, 5.0163045, 4.9485993 
8.5992014e+2, 2.3586811e+2, -632912.3, -738951.9, 3305.8003, 0.0004393261, -0.00004667106, -632809.4, -4318.1494, 0.0, 5.0164213, 4.948102 
8.599213e+2, 2.4081321e+2, -593119.56, -710894.2, 2732.0984, 0.00081329315, 0.007760958, -593056.2, -13025.641, 0.0, 5.016445, 4.940685 
8.599225e+2, 2.4575394e+2, -543525.6, -660712.3, 2883.2004, 0.0029703253, 0.0020218794, -543454.7, -11839.775, 0.0, 5.016376, 4.9409714 
8.5992396e+2, 2.5069463e+2, -494329.6, -611364.3, 2766.2903, 0.0053420025, -0.0043829638, -494264.25, -11064.455, 0.0, 5.0162926, 4.9409804 
8.5992527e+2, 2.5563532e+2, -445409.72, -562594.7, 2651.7004, 0.007676391, -0.010741349, -445349.75, -10565.218, 0.0, 5.0161986, 4.9407916 
8.599262e+2, 2.6057327e+2, -405348.72, -533616.4, 1630.9844, 0.010092647, 0.0016465809, -405328.0, -18932.223, 0.0, 5.016062, 4.9336557 
8.59926e+2, 2.655107e+2, -353844.34, -478321.75, 1382.2015, 0.009808786, 0.0152541865, -353829.0, -15818.819, 0.0, 5.015823, 4.9357476 
8.599255e+2, 2.7044848e+2, -305110.13, -429146.66, 1296.2715, 0.008268872, 0.02832, -305096.56, -15475.337, 0.0, 5.0155363, 4.935762 
8.599251e+2, 2.7538624e+2, -256515.17, -380149.47, 1198.66, 0.006505075, 0.04092, -256503.55, -15271.162, 0.0, 5.0152135, 4.935729 
8.599243e+2, 2.8031817e+2, -224987.08, -371082.25, 831.8161, 0.0037061966, 0.06893147, -224982.34, -32082.97, 0.0, 5.0149937, 4.9216123 
8.599231e+2, 2.8523862e+2, -174774.36, -319592.56, 413.7159, 0.0011562778, 0.046735972, -174773.19, -30100.096, 0.0, 5.0149326, 4.9222627 
8.599218e+2, 2.9015777e+2, -125557.83, -270097.47, 197.1389, -0.00023386505, 0.008900361, -125557.56, -29098.645, 0.0, 5.0147843, 4.922276 
8.5992056e+2, 2.950769e+2, -76440.46, -220652.97, -20.929302, -0.0017166474, -0.029196065, -76440.46, -28195.688, 0.0, 5.0145936, 4.9222894 
8.599186e+2, 3.000161e+2, -5267.361, -86301.36, -464.9225, -0.006862684, -0.041013606, -5264.6934, -5264.6934, 0.0, 5.014423, 4.961945 
8.5991627e+2, 3.049851e+2, 2116.04, -68399.48, -119.881454, -0.018021407, -0.032955732, 2116.2437, 2116.2437, 0.0, 5.0143223, 4.968466 
8.599138e+2, 3.0995512e+2, 1661.8252, -68544.375, 2.9918616, -0.030452127, -0.02597984, 1661.8253, 1661.8253, 0.0, 5.0141444, 4.968485 
8.599114e+2, 3.149252e+2, 995.7602, -68789.836, 172.96393, -0.043170746, -0.018352065, 996.18884, 996.18884, 0.0, 5.013882, 4.968504 
8.648903e+2, 1.2159156e+2, -1722490.9, -1749677.3, -404.45193, -0.0007783306, 0.004223502, -1722484.9, 25924.617, 0.0, 5.0096874, 4.991814 
8.64889e+2, 1.2658006e+2, -1678285.9, -1711985.5, 1628.9443, -0.004049969, 0.008580684, -1678207.3, 21314.018, 0.0, 5.010006, 4.987955 
8.648882e+2, 1.3156754e+2, -1628298.3, -1662542.1, 1725.86, -0.003994435, 0.003664708, -1628211.5, 22431.816, 0.0, 5.0103345, 4.987939 
8.6488736e+2, 1.3655502e+2, -1580149.6, -1616896.8, 2236.7148, -0.0036931003, 0.00009318296, -1580014.0, 21751.395, 0.0, 5.0106673, 4.9866624 
8.6488837e+2, 1.4153947e+2, -1538056.5, -1584099.1, 3967.4573, -0.001381143, 0.009519994, -1537717.1, 15199.932, 0.0, 5.0110874, 4.9810014 
8.648897e+2, 1.4652039e+2, -1487961.0, -1534612.4, 3998.2297, -0.0033524195, 0.006022145, -1487620.8, 16482.875, 0.0, 5.0114465, 4.9809628 
8.6489105e+2, 1.5150127e+2, -1437828.3, -1485032.1, 4094.6052, -0.005274282, 0.0023532715, -1437475.8, 17814.762, 0.0, 5.0118027, 4.9809594 
8.648925e+2, 1.5648215e+2, -1388954.0, -1438081.4, 4488.562, -0.007176882, -0.0008031226, -1388547.3, 17930.158, 0.0, 5.0121617, 4.9800816 
8.648951e+2, 1.6145885e+2, -1348642.9, -1409256.9, 5508.9976, -0.0075509297, 0.0017588551, -1348146.3, 9558.946, 0.0, 5.0125756, 4.9731135 
8.648984e+2, 1.6643205e+2, -1298428.4, -1359718.9, 5388.6304, -0.004879015, 0.0008617859, -1297958.1, 11009.276, 0.0, 5.0129623, 4.9730635 
8.649016e+2, 1.7140526e+2, -1248164.1, -1310070.6, 5361.1157, -0.0021122359, 0.000047356683, -1247703.3, 12526.494, 0.0, 5.013348, 4.9730535 
8.649048e+2, 1.7637844e+2, -1199204.0, -1263184.9, 5234.8823, 0.00078018644, -0.00013787595, -1198778.5, 12713.406, 0.0, 5.0137353, 4.9721193 
8.649083e+2, 1.8134737e+2, -1158783.0, -1234650.4, 5703.17, 0.004524205, 0.0056574694, -1158356.6, 4439.4063, 0.0, 5.014156, 4.9649773 
8.649117e+2, 1.8631212e+2, -1108432.4, -1184978.4, 5713.4966, 0.0048671872, 0.0014023753, -1108008.3, 6132.172, 0.0, 5.0145593, 4.964948 
8.649151e+2, 1.9127688e+2, -1058064.4, -1135267.4, 5748.4175, 0.005185565, -0.0029645718, -1057638.6, 7846.267, 0.0, 5.0149636, 4.964935 
8.6491853e+2, 1.9624159e+2, -1008850.0, -1088027.1, 5580.3525, 0.005518962, -0.006916206, -1008458.6, 8370.9375, 0.0, 5.0153675, 4.9640865 
8.649214e+2, 2.0120224e+2, -968678.75, -1060364.6, 5523.1064, 0.005250501, -0.0021676896, -968347.25, -132.59236, 0.0, 5.01577, 4.956571 
8.6492443e+2, 2.0615889e+2, -918330.8, -1010630.2, 5503.735, 0.0054149157, -0.0036516464, -918003.75, 1636.0623, 0.0, 5.016152, 4.9565516 
8.649275e+2, 2.1111554e+2, -867962.3, -960852.9, 5441.3247, 0.0055762515, -0.005167884, -867644.6, 3420.4233, 0.0, 5.016535, 4.956549 
8.6493057e+2, 2.1607217e+2, -818431.2, -912894.9, 5297.348, 0.0057706106, -0.006559314, -818135.06, 4355.3354, 0.0, 5.016917, 4.9559255 
8.649326e+2, 2.2102499e+2, -778234.7, -884890.1, 4296.0576, 0.0049941405, 0.00040589433, -778061.94, -4108.828, 0.0, 5.017204, 4.9484744 
8.649342e+2, 2.2597374e+2, -728209.8, -835122.56, 4277.6855, 0.003882357, 0.00004480704, -728038.94, -2583.5544, 0.0, 5.017424, 4.9485188 
8.649358e+2, 2.3092249e+2, -678252.9, -785495.0, 4216.5596, 0.0028122049, -0.0005223667, -678087.4, -1129.7057, 0.0, 5.017641, 4.94852 
8.6493737e+2, 2.3587123e+2, -628950.94, -737319.6, 4156.1978, 0.0017987946, -0.0010531385, -628791.75, -331.79083, 0.0, 5.017858, 4.9480205 
8.649385e+2, 2.4081615e+2, -589187.6, -709500.6, 3381.9275, 0.0022696625, 0.0060914303, -589092.6, -9091.927, 0.0, 5.017912, 4.9405074 
8.649396e+2, 2.4575679e+2, -539955.44, -659639.1, 3405.213, 0.003539389, 0.0018589866, -539858.6, -8272.328, 0.0, 5.017749, 4.9407296 
8.649407e+2, 2.506974e+2, -491024.7, -610415.06, 3177.2695, 0.005013485, -0.002801736, -490940.2, -7767.917, 0.0, 5.017575, 4.9407396 
8.6494184e+2, 2.5563803e+2, -442340.1, -561755.6, 2947.8948, 0.006555624, -0.0074476716, -442267.38, -7509.2295, 0.0, 5.0174003, 4.9405513 
8.649424e+2, 2.6057586e+2, -402567.3, -532881.4, 1727.5122, 0.00777673, 0.0055843224, -402544.4, -16173.462, 0.0, 5.017162, 4.9334273 
8.6494166e+2, 2.6551256e+2, -351449.34, -478058.53, 1200.2589, 0.0054776845, 0.015576479, -351437.97, -13446.65, 0.0, 5.016839, 4.935406 
8.649408e+2, 2.7044946e+2, -302839.16, -428979.2, 800.85913, 0.0021262995, 0.024222588, -302834.06, -13224.694, 0.0, 5.016509, 4.935414 
8.649399e+2, 2.7538633e+2, -254270.16, -380039.28, 413.48773, -0.0012232114, 0.032140058, -254268.8, -13040.966, 0.0, 5.0161777, 4.935374 
8.649387e+2, 2.8031737e+2, -222722.84, -370065.44, -241.97856, -0.0049923216, 0.052739233, -222722.44, -29819.549, 0.0, 5.015809, 4.921623 
8.6493737e+2, 2.852379e+2, -173795.88, -320302.8, -816.67267, -0.005964076, 0.035289872, -173791.33, -29113.633, 0.0, 5.0155253, 4.9217634 
8.649362e+2, 2.901574e+2, -124863.17, -270951.2, -1400.6736, -0.005313921, 0.0071006077, -124849.74, -28387.31, 0.0, 5.015272, 4.9217706 
8.649349e+2, 2.950769e+2, -75915.61, -221604.92, -1980.017, -0.0044927034, -0.02133376, -75888.7, -27641.486, 0.0, 5.015017, 4.921778 
8.649332e+2, 3.0001622e+2, -4632.6963, -86660.84, -2698.225, -0.0065102195, -0.026856761, -4544.037, -4544.037, 0.0, 5.0147824, 4.96166 
8.6493134e+2, 3.0498436e+2, 2657.3843, -68675.625, -2852.808, -0.01124692, -0.024074981, 2771.2942, 2771.2942, 0.0, 5.014619, 4.968253 
8.649295e+2, 3.0995348e+2, 2265.8423, -68757.48, -3289.3572, -0.016286189, -0.02252441, 2417.8596, 2417.8596, 0.0, 5.0144544, 4.968291 
8.649276e+2, 3.149227e+2, 1885.6993, -68850.805, -3724.6787, -0.021132924, -0.020269701, 2081.284, 2081.284, 0.0, 5.014286, 4.968328 
8.699001e+2, 1.215943e+2, -1722082.3, -1748976.0, -351.99, 0.0002643472, 0.0039262804, -1722077.6, 26306.727, 0.0, 5.0097065, 4.992041 
8.69899e+2, 1.2658317e+2, -1677887.0, -1711323.0, 1867.216, -0.005202972, 0.009929259, -1677783.1, 21709.12, 0.0, 5.0100284, 4.9881682 
8.698985e+2, 1.3157079e+2, -1627898.3, -1661881.8, 1969.251, -0.0045493054, 0.0042710826, -1627784.6, 22827.986, 0.0, 5.0103583, 4.9881516 
8.69898e+2, 1.365584e+2, -1579716.9, -1616169.3, 2518.613, -0.003704085, -0.000081469414, -1579543.6, 22189.268, 0.0, 5.010691, 4.9868975 
8.698995e+2, 1.4154297e+2, -1537773.5, -1583620.9, 4253.582, -0.00056077004, 0.008483203, -1537382.3, 15500.973, 0.0, 5.0111017, 4.9811573 
8.6990136e+2, 1.4652404e+2, -1487685.4, -1534145.0, 4267.661, -0.0016107988, 0.005225864, -1487296.6, 16771.219, 0.0, 5.011461, 4.9811163 
8.6990315e+2, 1.515051e+2, -1437555.4, -1484566.5, 4365.95, -0.002620787, 0.0018184922, -1437153.4, 18099.354, 0.0, 5.0118165, 4.981113 
8.69905e+2, 1.5648615e+2, -1388680.3, -1437608.5, 4800.937, -0.0036341844, -0.001073431, -1388213.6, 18224.03, 0.0, 5.0121746, 4.980238 
8.699081e+2, 1.6146298e+2, -1348625.6, -1409260.1, 5811.0747, -0.0038544424, 0.0018146965, -1348073.8, 9590.663, 0.0, 5.0125813, 4.9731126 
8.6991155e+2, 1.6643624e+2, -1298448.1, -1359798.0, 5685.9727, -0.002409591, 0.0016052424, -1297925.5, 11001.174, 0.0, 5.0129676, 4.9730372 
8.6991507e+2, 1.7140947e+2, -1248183.5, -1310147.9, 5660.0366, -0.0009379952, 0.0014879307, -1247670.8, 12518.441, 0.0, 5.0133533, 4.9730277 
8.699186e+2, 1.7638272e+2, -1199226.6, -1263266.4, 5551.389, 0.0006313673, 0.0020052583, -1198749.0, 12702.588, 0.0, 5.01374, 4.972092 
8.699223e+2, 1.8135163e+2, -1158738.8, -1234566.6, 6025.245, 0.0031849835, 0.008095905, -1158263.0, 4492.823, 0.0, 5.0141573, 4.9650073 
8.699261e+2, 1.8631636e+2, -1108350.1, -1184817.0, 6030.2715, 0.0033603522, 0.0029811196, -1107877.4, 6222.4873, 0.0, 5.0145617, 4.9650044 
8.699299e+2, 1.9128105e+2, -1057981.5, -1135108.1, 6067.842, 0.0034996627, -0.0023091491, -1057507.0, 7937.341, 0.0, 5.0149665, 4.9649906 
8.699337e+2, 1.9624574e+2, -1008760.9, -1087858.6, 5920.965, 0.0036249806, -0.0071820715, -1008320.1, 8468.672, 0.0, 5.015371, 4.964145 
8.69937e+2, 2.012063e+2, -968757.56, -1060532.5, 5798.531, 0.0036925538, -0.0033969104, -968392.6, -218.1785, 0.0, 5.01577, 4.9565153 
8.699405e+2, 2.0616291e+2, -918419.56, -1010819.7, 5797.9556, 0.0043552313, -0.0044715567, -918057.2, 1543.0146, 0.0, 5.016152, 4.9564877 
8.69944e+2, 2.1111955e+2, -868052.5, -961042.75, 5738.7974, 0.004962025, -0.005498761, -867699.7, 3326.2542, 0.0, 5.0165343, 4.9564853 
8.6994743e+2, 2.1607618e+2, -818534.7, -913110.56, 5584.0586, 0.0055523217, -0.006375633, -818206.1, 4245.6294, 0.0, 5.016916, 4.955853 
8.699499e+2, 2.2102895e+2, -778333.06, -885130.56, 4472.5513, 0.00501053, 0.0010555435, -778146.1, -4231.0737, 0.0, 5.0172067, 4.948394 
8.699517e+2, 2.2597757e+2, -728280.25, -835307.75, 4446.937, 0.0042711785, 0.0000040118093, -728095.8, -2677.677, 0.0, 5.017428, 4.9484572 
8.699536e+2, 2.3092616e+2, -678322.44, -785680.1, 4389.561, 0.0035690998, -0.0012975546, -678143.3, -1221.9858, 0.0, 5.0176454, 4.948458 
8.699553e+2, 2.3587477e+2, -629019.6, -737504.6, 4332.9326, 0.002879333, -0.0025582334, -628846.8, -422.34915, 0.0, 5.0178623, 4.947958 
8.6995655e+2, 2.4081953e+2, -589454.3, -710093.6, 3279.083, 0.0032103807, 0.0042171967, -589365.25, -9398.918, 0.0, 5.017912, 4.9403033 
8.699573e+2, 2.4576008e+2, -540314.94, -660448.7, 3271.6665, 0.0036989502, 0.0017611816, -540225.9, -8672.747, 0.0, 5.017749, 4.94045 
8.6995816e+2, 2.5070065e+2, -491381.4, -611226.1, 3049.006, 0.004236418, -0.000878191, -491303.88, -8163.5625, 0.0, 5.0175753, 4.9404583 
8.699591e+2, 2.556412e+2, -442694.03, -562568.3, 2824.921, 0.0047836513, -0.0034657228, -442627.5, -7900.1484, 0.0, 5.0174007, 4.940269 
8.6995924e+2, 2.605788e+2, -402958.28, -533809.0, 1477.2059, 0.0047240434, 0.0103666475, -402941.6, -16599.484, 0.0, 5.0171666, 4.93311 
8.69958e+2, 2.6551455e+2, -352012.1, -479338.8, 978.54846, 0.00062980375, 0.015699184, -352004.6, -14034.234, 0.0, 5.016838, 4.934971 
8.699567e+2, 2.7045044e+2, -303416.5, -430238.53, 603.31604, -0.004553747, 0.019011112, -303413.66, -13816.528, 0.0, 5.0165005, 4.934985 
8.699553e+2, 2.753863e+2, -254862.11, -381277.75, 240.11748, -0.009843496, 0.021695267, -254861.66, -13637.53, 0.0, 5.016161, 4.9349523 
8.699536e+2, 2.8031632e+2, -223000.06, -370713.03, -619.4441, -0.014757304, 0.035589293, -222997.47, -30089.314, 0.0, 5.015809, 4.9214025 
8.6995214e+2, 2.8523695e+2, -174546.0, -322167.94, -1082.506, -0.013622908, 0.024350617, -174538.06, -29853.19, 0.0, 5.0155396, 4.9211206 
8.699509e+2, 2.901568e+2, -125609.87, -272803.06, -1640.3452, -0.010945292, 0.006661606, -125591.586, -29122.154, 0.0, 5.0152855, 4.9211297 
8.699496e+2, 2.9507664e+2, -76658.875, -223443.56, -2193.5327, -0.008216187, -0.011237657, -76626.11, -28372.104, 0.0, 5.0150294, 4.921139 
8.6994785e+2, 3.0001613e+2, -5087.676, -87899.055, -2849.6692, -0.0074297297, -0.0087149665, -4989.73, -4989.73, 0.0, 5.0148053, 4.9612126 
8.699466e+2, 3.0498335e+2, 2270.495, -69751.055, -2963.872, -0.0052610002, -0.010435887, 2392.2603, 2392.2603, 0.0, 5.0146403, 4.9678774 
8.699453e+2, 3.099514e+2, 1867.3367, -69842.62, -3362.584, -0.0029125782, -0.014267912, 2024.6678, 2024.6678, 0.0, 5.0144725, 4.967913 
8.6994404e+2, 3.1491953e+2, 1475.5902, -69945.67, -3760.0774, -0.0006498319, -0.017370969, 1672.9994, 1672.9994, 0.0, 5.0143013, 4.9679494 
8.749096e+2, 1.2159804e+2, -1721631.8, -1748183.4, -276.07764, -0.0021020626, 0.013743498, -1721628.9, 26720.492, 0.0, 5.009725, 4.9922967 
8.749089e+2, 1.2658629e+2, -1677490.6, -1710658.6, 2106.0972, -0.0062782895, 0.011312656, -1677357.4, 22105.682, 0.0, 5.010051, 4.9883804 
8.749088e+2, 1.3157402e+2, -1627500.8, -1661219.5, 2213.2534, -0.005033972, 0.004861298, -1627356.0, 23225.732, 0.0, 5.0103817, 4.9883637 
8.749087e+2, 1.3656177e+2, -1579303.0, -1615474.0, 2795.2717, -0.0036560118, -0.00031085135, -1579088.3, 22612.29, 0.0, 5.010715, 4.987121 
8.749108e+2, 1.4154646e+2, -1537492.0, -1583143.4, 4537.808, 0.00021697403, 0.0075607384, -1537045.3, 15803.942, 0.0, 5.0111165, 4.9813128 
8.7491304e+2, 1.4652771e+2, -1487410.6, -1533677.0, 4536.832, 0.00009771499, 0.004519266, -1486970.0, 17061.992, 0.0, 5.0114746, 4.981269 
8.7491524e+2, 1.5150894e+2, -1437283.4, -1484100.4, 4637.0347, 0.000008913299, 0.0013452736, -1436828.5, 18386.398, 0.0, 5.0118303, 4.981266 
8.749175e+2, 1.5649019e+2, -1388407.5, -1437135.8, 5116.2227, -0.000105530016, -0.0013124523, -1387876.0, 18521.764, 0.0, 5.012188, 4.9803944 
8.749211e+2, 1.6146712e+2, -1348615.4, -1409276.8, 6103.036, -0.00014758832, 0.0019216735, -1348007.5, 9615.951, 0.0, 5.012587, 4.973107 
8.749248e+2, 1.6644041e+2, -1298468.4, -1359876.8, 5982.7983, 0.0000731492, 0.0023872978, -1297890.9, 10995.081, 0.0, 5.012973, 4.9730105 
8.749286e+2, 1.7141369e+2, -1248203.4, -1310224.8, 5958.4404, 0.00024928708, 0.0029401437, -1247636.1, 12512.422, 0.0, 5.0133586, 4.9730015 
8.749323e+2, 1.7638698e+2, -1199250.4, -1263349.8, 5879.993, 0.00049450825, 0.0041342345, -1198715.4, 12695.724, 0.0, 5.013745, 4.972064 
8.7493634e+2, 1.8135592e+2, -1158702.6, -1234497.6, 6331.556, 0.0018687199, 0.010563761, -1158177.4, 4538.096, 0.0, 5.0141587, 4.965032 
8.749406e+2, 1.863206e+2, -1108268.5, -1184655.3, 6347.75, 0.0018843671, 0.004566852, -1107744.5, 6314.863, 0.0, 5.014564, 4.9650607 
8.749447e+2, 1.9128525e+2, -1057899.3, -1134948.5, 6387.9697, 0.001850727, -0.0016899902, -1057373.1, 8030.511, 0.0, 5.0149693, 4.965046 
8.749489e+2, 1.9624989e+2, -1008674.6, -1087693.9, 6250.5024, 0.001773883, -0.0075261025, -1008183.25, 8564.761, 0.0, 5.015374, 4.9642024 
8.749526e+2, 2.0121036e+2, -968847.8, -1060723.3, 6085.6445, 0.0020726195, -0.0045195566, -968446.5, -312.32974, 0.0, 5.0157704, 4.9564505 
8.7495655e+2, 2.0616697e+2, -918509.3, -1011008.4, 6092.176, 0.0032303135, -0.00519954, -918109.8, 1450.6406, 0.0, 5.016152, 4.9564238 
8.749604e+2, 2.1112359e+2, -868143.7, -961231.8, 6036.2705, 0.0042779236, -0.005779774, -867753.94, 3232.81, 0.0, 5.0165334, 4.9564214 
8.7496436e+2, 2.160802e+2, -818633.06, -913312.25, 5871.092, 0.005259481, -0.006184081, -818270.4, 4142.6353, 0.0, 5.0169144, 4.955785 
8.749671e+2, 2.2103292e+2, -778447.6, -885404.94, 4651.463, 0.0050266194, 0.0016934762, -778245.75, -4368.746, 0.0, 5.01721, 4.9483013 
8.749692e+2, 2.2598138e+2, -728351.6, -835492.3, 4616.1953, 0.0046677883, -0.00007828441, -728153.1, -2772.1775, 0.0, 5.0174313, 4.948395 
8.749713e+2, 2.3092984e+2, -678392.94, -785864.5, 4562.57, 0.004333713, -0.0021709043, -678199.56, -1314.5963, 0.0, 5.017649, 4.9483957 
8.7497336e+2, 2.3587829e+2, -629089.1, -737689.0, 4509.6743, 0.003967527, -0.0042181592, -628902.2, -513.19415, 0.0, 5.0178666, 4.947895 
8.7497455e+2, 2.4082293e+2, -589744.0, -710735.44, 3174.297, 0.004151752, 0.0024776978, -589660.8, -9728.945, 0.0, 5.0179114, 4.940082 
8.7497514e+2, 2.4576339e+2, -540675.75, -661257.25, 3140.184, 0.0038358418, 0.00178673, -540594.0, -9074.1045, 0.0, 5.0177493, 4.9401693 
8.749757e+2, 2.5070387e+2, -491739.4, -612036.25, 2922.8076, 0.0034336867, 0.0010745827, -491668.4, -8560.14, 0.0, 5.0175757, 4.9401765 
8.7497634e+2, 2.5564435e+2, -443049.22, -563380.06, 2704.013, 0.002983029, 0.00045132477, -442988.5, -8291.994, 0.0, 5.0174017, 4.9399858 
8.7497616e+2, 2.6058176e+2, -403404.22, -534857.6, 1228.5602, 0.001755433, 0.015226543, -403392.75, -17079.412, 0.0, 5.0171714, 4.932748 
8.749744e+2, 2.6551658e+2, -352577.78, -480617.7, 743.86646, -0.0041906377, 0.015573692, -352573.44, -14623.869, 0.0, 5.016837, 4.9345284 
8.749726e+2, 2.704514e+2, -303996.72, -431496.44, 392.80444, -0.01129554, 0.013011496, -303995.5, -14410.276, 0.0, 5.0164914, 4.93455 
8.749707e+2, 2.753862e+2, -255456.83, -382514.66, 53.781593, -0.018614678, 0.009922478, -255456.8, -14235.852, 0.0, 5.0161443, 4.9345236 
8.7496847e+2, 2.8031528e+2, -223542.5, -371970.9, -977.3852, -0.024486857, 0.01855169, -223536.06, -30622.574, 0.0, 5.0158086, 4.920966 
8.749669e+2, 2.8523603e+2, -175299.45, -324031.0, -1353.9897, -0.021145184, 0.014320345, -175287.13, -30595.213, 0.0, 5.015554, 4.920471 
8.7496555e+2, 2.901562e+2, -126359.82, -274652.8, -1885.658, -0.01650315, 0.0064615374, -126335.84, -29859.291, 0.0, 5.015299, 4.920482 
8.7496424e+2, 2.950763e+2, -77405.34, -225280.05, -2412.6802, -0.011929161, -0.0015724865, -77365.984, -29104.82, 0.0, 5.015042, 4.920493 
8.749626e+2, 3.0001605e+2, -5611.05, -89288.99, -2990.853, -0.00838641, 0.0093423985, -5504.2856, -5504.2856, 0.0, 5.0148277, 4.960707 
8.7496185e+2, 3.049823e+2, 1878.6349, -70821.79, -3073.2273, 0.0007171035, 0.0031613265, 2008.3165, 2008.3165, 0.0, 5.0146623, 4.967494 
8.749612e+2, 3.0994925e+2, 1463.8593, -70923.07, -3434.0942, 0.01058372, -0.0070291483, 1626.4104, 1626.4104, 0.0, 5.014491, 4.967529 
8.749605e+2, 3.149163e+2, 1060.5084, -71035.87, -3793.7515, 0.020086434, -0.016465565, 1259.588, 1259.588, 0.0, 5.014317, 4.967563 
8.799192e+2, 1.2160183e+2, -1721711.9, -1747682.4, 5.64013, -0.0037936731, 0.023202645, -1721711.9, 26601.771, 0.0, 5.009577, 4.99254 
8.79919e+2, 1.2658942e+2, -1677479.8, -1710216.4, 2468.6992, -0.0066906884, 0.012462034, -1677294.6, 22138.691, 0.0, 5.009956, 4.988577 
8.799192e+2, 1.315773e+2, -1627507.6, -1660776.8, 2531.4731, -0.005161422, 0.005379718, -1627316.1, 23234.354, 0.0, 5.010281, 4.988563 
8.799194e+2, 1.365652e+2, -1579494.3, -1615107.1, 3089.924, -0.0034076178, -0.00026713428, -1579228.1, 22439.357, 0.0, 5.0105515, 4.9873257 
8.799219e+2, 1.4155003e+2, -1538001.9, -1583084.4, 4829.1396, 0.0010250396, 0.0072428375, -1537490.4, 15324.213, 0.0, 5.010875, 4.9814515 
8.799246e+2, 1.4653143e+2, -1488072.8, -1533695.6, 4783.006, 0.0017137573, 0.0043297415, -1487576.6, 16418.97, 0.0, 5.011183, 4.981406 
8.799272e+2, 1.5151283e+2, -1438115.8, -1484200.4, 4858.337, 0.0024542965, 0.0013194018, -1437609.1, 17567.742, 0.0, 5.0114803, 4.9814034 
8.7992996e+2, 1.5649422e+2, -1389431.9, -1437319.9, 5339.6064, 0.0031817844, -0.0011525583, -1388843.8, 17514.367, 0.0, 5.0117717, 4.9805355 
8.7993395e+2, 1.6147126e+2, -1349965.8, -1409920.0, 6341.829, 0.0033213194, 0.002372165, -1349302.3, 8280.442, 0.0, 5.012133, 4.9731097 
8.79938e+2, 1.6644458e+2, -1299761.9, -1360512.1, 6264.22, 0.002410377, 0.003181465, -1299122.6, 9722.699, 0.0, 5.0125413, 4.973003 
8.79942e+2, 1.7141789e+2, -1249472.8, -1310839.9, 6294.7485, 0.0014475193, 0.0040215272, -1248833.8, 11274.441, 0.0, 5.012933, 4.9729958 
8.7994605e+2, 1.763912e+2, -1200549.1, -1263975.6, 6305.1846, 0.0005848638, 0.0054780818, -1199928.4, 11442.487, 0.0, 5.0133076, 4.972059 
8.799504e+2, 1.8136016e+2, -1159904.3, -1235064.1, 6778.085, 0.00094096106, 0.012068617, -1159297.9, 3377.44, 0.0, 5.013744, 4.96504 
8.7995493e+2, 1.8632482e+2, -1109336.8, -1185081.1, 6742.5083, 0.0007791808, 0.005530072, -1108741.3, 5277.8237, 0.0, 5.014178, 4.965101 
8.799595e+2, 1.9128942e+2, -1058916.3, -1135347.4, 6726.1655, 0.0005814359, -0.0013278839, -1058328.9, 7034.2847, 0.0, 5.0146, 4.9650865 
8.799641e+2, 1.9625404e+2, -1009679.9, -1088090.0, 6532.1963, 0.0003402954, -0.007746355, -1009139.4, 7567.8164, 0.0, 5.01501, 4.96424 
8.799683e+2, 2.0121446e+2, -970044.06, -1061434.4, 6314.921, 0.0007117963, -0.005090245, -969609.8, -1516.1725, 0.0, 5.015392, 4.956384 
8.799726e+2, 2.0617104e+2, -919781.56, -1011756.44, 6306.0957, 0.0022232605, -0.0054645254, -919351.2, 169.3794, 0.0, 5.0157456, 4.956356 
8.7997687e+2, 2.1112762e+2, -869533.56, -962037.3, 6234.2783, 0.0036561342, -0.005731743, -869115.3, 1832.1943, 0.0, 5.016085, 4.9563527 
8.799812e+2, 2.160842e+2, -820183.9, -914196.7, 6037.676, 0.0050570364, -0.005816754, -819797.7, 2576.7703, 0.0, 5.0164094, 4.955714 
8.799843e+2, 2.2103684e+2, -780172.75, -886466.0, 4712.599, 0.0052374164, 0.0023288396, -779964.2, -6124.8584, 0.0, 5.0166593, 4.948193 
8.7998664e+2, 2.2598515e+2, -729988.6, -836405.56, 4662.859, 0.0051674657, -0.00016590387, -729784.7, -4440.5, 0.0, 5.016888, 4.948331 
8.7998897e+2, 2.3093347e+2, -680009.7, -786762.44, 4608.03, 0.005145161, -0.0030907597, -679811.2, -2961.987, 0.0, 5.017111, 4.9483323 
8.799913e+2, 2.3588178e+2, -630709.0, -738582.0, 4559.1807, 0.005102995, -0.0060066055, -630516.6, -2162.4963, 0.0, 5.017325, 4.9478326 
8.7999254e+2, 2.4082628e+2, -591525.25, -712104.8, 2949.7805, 0.0051587317, 0.00080040615, -591453.1, -11555.271, 0.0, 5.017388, 4.9398456 
8.7999284e+2, 2.4576665e+2, -542277.7, -662628.4, 2902.1228, 0.0039532417, 0.0017887442, -542207.75, -10720.634, 0.0, 5.017304, 4.9398937 
8.799932e+2, 2.5070703e+2, -493129.94, -613301.56, 2702.2563, 0.0025978892, 0.0027774468, -493069.2, -9992.519, 0.0, 5.0172033, 4.939903 
8.799936e+2, 2.5564742e+2, -444261.88, -564554.7, 2509.4836, 0.0012018143, 0.0038057738, -444209.53, -9543.425, 0.0, 5.017091, 4.939714 
8.79993e+2, 2.605846e+2, -404569.53, -536257.56, 979.1563, -0.001035652, 0.019339867, -404562.25, -18277.146, 0.0, 5.0169296, 4.9323673 
8.799908e+2, 2.6551852e+2, -353455.94, -482079.0, 478.28424, -0.008462204, 0.015088873, -353454.2, -15525.045, 0.0, 5.016737, 4.9340615 
8.799886e+2, 2.704523e+2, -304554.56, -432836.22, 55.4723, -0.01679404, 0.0070399297, -304554.53, -14980.948, 0.0, 5.0165143, 4.9340715 
8.7998635e+2, 2.7538607e+2, -255789.52, -383768.4, -399.4135, -0.025144711, -0.0014741396, -255788.27, -14570.003, 0.0, 5.016259, 4.934034 
8.799837e+2, 2.8031427e+2, -223894.22, -373381.8, -1589.4962, -0.030963736, 0.0035193888, -223877.33, -30958.26, 0.0, 5.015951, 4.9204016 
8.79982e+2, 2.8523517e+2, -175794.98, -325422.06, -1513.1857, -0.026037268, 0.0059098676, -175779.69, -31081.482, 0.0, 5.0156155, 4.9199433 
8.799805e+2, 2.9015562e+2, -127135.59, -276206.5, -1646.1304, -0.020088587, 0.006029318, -127117.42, -30634.998, 0.0, 5.015255, 4.9199452 
8.799791e+2, 2.9507604e+2, -78543.67, -227023.17, -1789.431, -0.014093906, 0.005906021, -78522.11, -30255.342, 0.0, 5.014865, 4.9199467 
8.799774e+2, 3.0001602e+2, -7051.8296, -91018.055, -1957.4028, -0.008161121, 0.024325974, -7006.2236, -7006.2236, 0.0, 5.014514, 4.9602103 
8.7997705e+2, 3.0498144e+2, 541.0375, -72310.89, -1969.4668, 0.006407923, 0.0145356795, 594.24084, 594.24084, 0.0, 5.0143547, 4.9670806 
8.7997687e+2, 3.099473e+2, 59.48222, -72435.73, -2352.806, 0.02262857, -0.0018207845, 135.76143, 135.76143, 0.0, 5.0141635, 4.9671125 
8.7997663e+2, 3.149133e+2, -596.50836, -72646.71, -2743.7031, 0.03873857, -0.017629765, -492.178, -492.178, 0.0, 5.0139036, 4.967144 
8.8492864e+2, 1.2160354e+2, -1725947.8, -1749493.6, 169.10413, 0.0029111826, 0.0110844, -1725946.6, 22349.291, 0.0, 5.0081186, 4.992658 
8.8492835e+2, 1.2659237e+2, -1681643.0, -1711889.5, 2641.2632, -0.005102638, 0.011218713, -1681414.1, 17989.691, 0.0, 5.008507, 4.9887342 
8.849288e+2, 1.3158049e+2, -1631487.8, -1662334.5, 2650.8345, -0.0040059905, 0.005158007, -1631261.6, 19257.191, 0.0, 5.008891, 4.9887247 
8.8492936e+2, 1.3656867e+2, -1583080.6, -1616416.1, 3229.3867, -0.0024954441, 0.0009051336, -1582770.8, 18862.598, 0.0, 5.009281, 4.9875083 
8.849323e+2, 1.4155367e+2, -1541122.3, -1584420.8, 4932.585, 0.0019126731, 0.0088019995, -1540567.4, 12211.677, 0.0, 5.0097885, 4.9815373 
8.849353e+2, 1.4653522e+2, -1490714.9, -1534795.4, 4850.467, 0.0025801468, 0.006394075, -1490187.5, 13771.632, 0.0, 5.010254, 4.9814906 
8.8493836e+2, 1.5151675e+2, -1440254.4, -1485047.6, 4894.464, 0.0033307397, 0.0039114817, -1439725.9, 15413.499, 0.0, 5.0107174, 4.981488 
8.849414e+2, 1.564983e+2, -1391038.6, -1437891.1, 5345.692, 0.0041159703, 0.0019898168, -1390436.4, 15883.084, 0.0, 5.011182, 4.9806266 
8.849458e+2, 1.614754e+2, -1351090.3, -1410216.9, 6477.2285, 0.0043275626, 0.0052343775, -1350389.0, 7154.5347, 0.0, 5.0116973, 4.9732194 
8.8495034e+2, 1.6644864e+2, -1300353.0, -1360486.0, 6505.945, 0.0032148878, 0.004078705, -1299657.1, 9148.951, 0.0, 5.0122733, 4.9731383 
8.849548e+2, 1.7142187e+2, -1249508.1, -1310529.9, 6630.663, 0.0021213633, 0.002815527, -1248796.0, 11272.984, 0.0, 5.0128508, 4.973136 
8.849593e+2, 1.7639512e+2, -1199962.8, -1263342.0, 6783.02, 0.0012071908, 0.0020787127, -1199244.9, 12086.784, 0.0, 5.0134306, 4.97221 
8.849642e+2, 1.8136403e+2, -1158950.1, -1234638.8, 7334.481, 0.0015684998, 0.0074471803, -1158246.0, 4390.099, 0.0, 5.0140533, 4.9650455 
8.849693e+2, 1.8632887e+2, -1108140.1, -1184552.0, 7348.609, 0.0012616164, 0.002907017, -1107439.9, 6538.5005, 0.0, 5.014578, 4.965099 
8.849743e+2, 1.9129372e+2, -1057429.0, -1134663.5, 7374.858, 0.0009338271, -0.0017446465, -1056731.1, 8589.665, 0.0, 5.0151014, 4.96509 
8.849793e+2, 1.9625856e+2, -1007869.4, -1087238.5, 7220.4956, 0.0005636261, -0.0058670556, -1007217.9, 9445.219, 0.0, 5.0156245, 4.9642487 
8.8498384e+2, 2.012191e+2, -967990.75, -1060544.4, 6969.1304, 0.0005240414, -0.0018828786, -967468.94, 579.7252, 0.0, 5.016118, 4.956353 
8.8498855e+2, 2.0617557e+2, -917503.25, -1010817.0, 6989.808, 0.0019486394, -0.00272934, -916982.56, 2494.2014, 0.0, 5.0165625, 4.9563046 
8.849932e+2, 2.1113203e+2, -866964.44, -960974.0, 6946.6904, 0.0034000573, -0.0034652862, -866453.94, 4451.023, 0.0, 5.0170064, 4.956299 
8.849979e+2, 2.160885e+2, -817288.8, -913004.4, 6771.896, 0.004890924, -0.003970589, -816812.06, 5521.006, 0.0, 5.017449, 4.9556546 
8.8500136e+2, 2.2104098e+2, -777023.9, -885144.94, 5402.9453, 0.0053734668, 0.0033883732, -776754.56, -2955.0696, 0.0, 5.017783, 4.94814 
8.85004e+2, 2.2598915e+2, -726573.94, -834936.6, 5406.1035, 0.005462049, -0.000107827414, -726304.94, -999.3505, 0.0, 5.0181065, 4.948289 
8.850066e+2, 2.309373e+2, -676310.44, -785155.44, 5373.6714, 0.005619778, -0.0040194835, -676045.8, 765.8392, 0.0, 5.0184326, 4.948293 
8.850092e+2, 2.3588546e+2, -626703.7, -736828.44, 5341.2593, 0.005808623, -0.007961323, -626445.25, 1872.4777, 0.0, 5.018759, 4.947797 
8.850106e+2, 2.4082981e+2, -587270.06, -710604.2, 3561.5972, 0.0056760814, -0.0016355773, -587167.3, -7304.7075, 0.0, 5.0189643, 4.9396644 
8.850108e+2, 2.4577011e+2, -537745.8, -661046.7, 3569.379, 0.0033598018, 0.00077016064, -537642.6, -6190.6772, 0.0, 5.0189924, 4.9396944 
8.850111e+2, 2.5071043e+2, -488259.5, -611559.4, 3441.4275, 0.00081131904, 0.0032504494, -488163.53, -5121.9746, 0.0, 5.019016, 4.9397073 
8.8501126e+2, 2.5565076e+2, -439022.84, -562640.8, 3314.0383, -0.0017524697, 0.005697525, -438934.06, -4303.001, 0.0, 5.019039, 4.939522 
8.850104e+2, 2.6058775e+2, -399365.34, -534572.3, 1696.3248, -0.005096873, 0.02071618, -399344.06, -13092.115, 0.0, 5.01891, 4.9320793 
8.850082e+2, 2.6552087e+2, -348610.56, -481088.25, 1217.4489, -0.011245265, 0.013426048, -348599.38, -10695.699, 0.0, 5.018697, 4.933554 
8.8500607e+2, 2.7045384e+2, -299695.03, -431889.53, 793.27795, -0.017576726, 0.0025865461, -299690.25, -10133.842, 0.0, 5.018491, 4.93355 
8.8500386e+2, 2.7538678e+2, -250827.77, -382827.47, 377.77997, -0.023616435, -0.008524825, -250826.69, -9617.296, 0.0, 5.018283, 4.933498 
8.8500106e+2, 2.8031427e+2, -218545.5, -371227.75, -953.9444, -0.02742395, -0.0061608213, -218539.55, -25622.746, 0.0, 5.0179214, 4.9202986 
8.8499886e+2, 2.8523532e+2, -171411.06, -323318.38, -704.934, -0.02203567, -0.00267878, -171407.8, -26714.256, 0.0, 5.0171666, 4.9200053 
8.849968e+2, 2.9015607e+2, -123920.26, -274643.78, -648.5863, -0.01567871, -0.00023338434, -123917.46, -27443.621, 0.0, 5.016389, 4.920005 
8.8499475e+2, 2.950768e+2, -76409.33, -225959.48, -585.2333, -0.009147477, 0.0018911996, -76407.04, -28152.633, 0.0, 5.0156097, 4.920004 
8.8499254e+2, 3.000169e+2, -6282.8354, -90764.125, -496.40762, -0.0026930235, 0.021575801, -6279.919, -6279.919, 0.0, 5.0148354, 4.96015 
8.849916e+2, 3.049821e+2, 158.81201, -73290.42, -305.84723, 0.009096987, 0.012461535, 160.08556, 160.08556, 0.0, 5.0143967, 4.9666915 
8.849909e+2, 3.099476e+2, -818.5174, -73669.12, -694.0462, 0.022321178, -0.00333896, -811.9058, -811.9058, 0.0, 5.0140243, 4.966707 
8.849901e+2, 3.1491315e+2, -1789.1356, -74054.77, -1093.5538, 0.036042225, -0.019042343, -1772.5913, -1772.5913, 0.0, 5.0136495, 4.9667234 
8.89937e+2, 1.216059e+2, -1725605.0, -1749003.9, 403.06934, 0.004055803, 0.0064704437, -1725598.0, 22673.33, 0.0, 5.008148, 4.992813 
8.8993686e+2, 1.2659508e+2, -1681296.8, -1711422.1, 2916.3357, -0.005006018, 0.008700255, -1681017.0, 18359.193, 0.0, 5.0085406, 4.98888 
8.8993776e+2, 1.3158348e+2, -1631135.8, -1661876.0, 2933.757, -0.0036140913, 0.0039704377, -1630858.3, 19630.656, 0.0, 5.0089283, 4.9888678 
8.8993865e+2, 1.3657191e+2, -1582704.5, -1615918.3, 3610.4204, -0.001965668, 0.0009575116, -1582316.6, 19284.533, 0.0, 5.00932, 4.9876647 
8.8994205e+2, 1.4155708e+2, -1540931.6, -1584152.6, 5289.917, 0.0023441883, 0.009236832, -1540293.5, 12452.195, 0.0, 5.0098057, 4.9816246 
8.899456e+2, 1.4653881e+2, -1490530.4, -1534535.1, 5205.1816, 0.002933894, 0.0077381805, -1489923.0, 14001.641, 0.0, 5.0102706, 4.9815755 
8.899491e+2, 1.515205e+2, -1440073.5, -1484790.1, 5252.574, 0.003548766, 0.0061566886, -1439464.9, 15638.882, 0.0, 5.010733, 4.981573 
8.8995266e+2, 1.5650222e+2, -1390860.6, -1437632.5, 5708.235, 0.0041638482, 0.0051358095, -1390174.0, 16108.681, 0.0, 5.0111966, 4.9807124 
8.8995755e+2, 1.6147938e+2, -1350819.9, -1409743.3, 6894.3154, 0.0044272323, 0.008101391, -1350024.0, 7481.939, 0.0, 5.0117097, 4.9733777 
8.899627e+2, 1.6645257e+2, -1300047.0, -1359926.5, 6943.799, 0.003330597, 0.0044728005, -1299252.4, 9515.987, 0.0, 5.0122843, 4.973326 
8.8996774e+2, 1.7142573e+2, -1249207.6, -1309970.9, 7072.583, 0.0022006338, 0.0006858053, -1248395.3, 11635.673, 0.0, 5.01286, 4.9733253 
8.899728e+2, 1.7639889e+2, -1199650.4, -1262746.5, 7274.522, 0.0011959268, -0.0025678547, -1198822.6, 12470.84, 0.0, 5.013439, 4.972412 
8.8997835e+2, 1.8136784e+2, -1158852.9, -1234445.9, 7750.331, 0.0016555021, 0.001612638, -1158066.5, 4530.539, 0.0, 5.014056, 4.96511 
8.899839e+2, 1.86333e+2, -1108063.8, -1184406.9, 7750.686, 0.001400708, -0.00030444388, -1107284.9, 6651.9404, 0.0, 5.014581, 4.9651475 
8.8998944e+2, 1.9129817e+2, -1057351.8, -1134520.8, 7780.02, 0.0010842668, -0.0021886204, -1056575.3, 8701.359, 0.0, 5.015105, 4.965138 
8.89995e+2, 1.9626334e+2, -1007786.8, -1087088.5, 7637.7026, 0.0006726427, -0.0035334823, -1007057.94, 9558.421, 0.0, 5.0156283, 4.9642997 
8.899999e+2, 2.0122406e+2, -967994.5, -1060576.0, 7306.0522, 0.00029559195, 0.0019895337, -967421.5, 579.12897, 0.0, 5.0161214, 4.956344 
8.900051e+2, 2.0618042e+2, -917531.4, -1010908.3, 7336.5674, 0.0016649037, 0.00044071916, -916958.44, 2471.438, 0.0, 5.0165668, 4.956275 
8.9001024e+2, 2.1113676e+2, -866991.56, -961067.06, 7297.222, 0.003044115, -0.0010534134, -866428.94, 4430.354, 0.0, 5.017011, 4.9562683 
8.900153e+2, 2.1609312e+2, -817332.7, -913137.0, 7111.396, 0.0044099665, -0.0022963975, -816807.7, 5480.969, 0.0, 5.017454, 4.9556108 
8.900191e+2, 2.2104545e+2, -777073.7, -885263.25, 5618.901, 0.00509722, 0.0042339135, -776782.6, -3026.229, 0.0, 5.0177846, 4.9481 
8.900221e+2, 2.2599348e+2, -726607.7, -835029.1, 5648.8057, 0.0054921354, -0.00039800265, -726314.2, -1050.538, 0.0, 5.018109, 4.9482574 
8.900251e+2, 2.3094149e+2, -676343.9, -785250.7, 5620.0313, 0.005898367, -0.0053925463, -676054.6, 716.1165, 0.0, 5.0184355, 4.9482613 
8.9002806e+2, 2.358895e+2, -626736.75, -736926.25, 5591.397, 0.006295211, -0.0104057165, -626453.75, 1824.1516, 0.0, 5.018762, 4.947764 
8.900296e+2, 2.408337e+2, -587450.75, -711022.0, 3617.4016, 0.0057161013, -0.004721906, -587344.94, -7521.115, 0.0, 5.018966, 4.9395204 
8.900297e+2, 2.4577399e+2, -537938.94, -661495.44, 3596.0679, 0.0020306343, -0.0009828211, -537834.4, -6421.5513, 0.0, 5.0189943, 4.939539 
8.900298e+2, 2.507143e+2, -488450.6, -612006.9, 3473.9424, -0.002043442, 0.0029469195, -488353.0, -5351.055, 0.0, 5.019018, 4.939552 
8.900299e+2, 2.556546e+2, -439211.97, -563087.25, 3352.3762, -0.0061954707, 0.006867738, -439121.3, -4530.3574, 0.0, 5.0190415, 4.9393663 
8.900289e+2, 2.6059136e+2, -399739.06, -535495.75, 1498.277, -0.010552912, 0.02175924, -399722.53, -13509.18, 0.0, 5.0189185, 4.931758 
8.900267e+2, 2.6552373e+2, -349221.0, -482550.8, 1071.9989, -0.014607149, 0.01161104, -349212.38, -11339.457, 0.0, 5.018704, 4.9330463 
8.900245e+2, 2.704559e+2, -300316.34, -433339.0, 664.9122, -0.018548349, -0.001990867, -300313.0, -10779.086, 0.0, 5.0184917, 4.9330463 
8.900223e+2, 2.7538803e+2, -251459.94, -384263.84, 266.5006, -0.022325302, -0.015725993, -251459.39, -10264.404, 0.0, 5.018278, 4.932999 
8.9001936e+2, 2.8031498e+2, -218613.83, -371481.44, -1453.4467, -0.024352321, -0.01535573, -218600.02, -25691.914, 0.0, 5.017934, 4.92021 
8.9001644e+2, 2.8523615e+2, -171195.03, -322996.38, -1313.8734, -0.018073028, -0.011150215, -171183.67, -26501.615, 0.0, 5.0171876, 4.9201207 
8.900137e+2, 2.9015717e+2, -123728.53, -274327.63, -1240.1812, -0.010934661, -0.0070338324, -123718.32, -27260.229, 0.0, 5.0164027, 4.920121 
8.9001095e+2, 2.9507816e+2, -76241.805, -225649.1, -1159.4875, -0.0037346617, -0.0030504216, -76232.805, -27998.586, 0.0, 5.015616, 4.9201217 
8.90008e+2, 3.000184e+2, -6320.5464, -91044.1, -990.22504, 0.002845079, 0.01713633, -6308.9746, -6308.9746, 0.0, 5.0148554, 4.960052 
8.900062e+2, 3.0498338e+2, -175.0656, -74372.41, -591.69836, 0.010242038, 0.009054848, -170.3473, -170.3473, 0.0, 5.0144315, 4.9662967 
8.900045e+2, 3.0994856e+2, -1128.453, -74762.73, -953.361, 0.018058447, -0.005651806, -1116.1117, -1116.1117, 0.0, 5.0140686, 4.966306 
8.9000285e+2, 3.1491375e+2, -2075.1274, -75160.016, -1326.3477, 0.026140079, -0.020505883, -2051.0647, -2051.0647, 0.0, 5.013703, 4.9663153 
8.949451e+2, 1.2160894e+2, -1725189.6, -1748355.9, 646.33575, 0.0025919094, 0.008650291, -1725171.6, 23068.598, 0.0, 5.0081773, 4.993018 
8.9494544e+2, 1.265978e+2, -1680954.0, -1710951.8, 3196.1794, -0.00488013, 0.006219248, -1680617.3, 18731.348, 0.0, 5.008575, 4.989026 
8.949467e+2, 1.3158648e+2, -1630787.3, -1661414.5, 3221.4531, -0.0031504664, 0.0027607891, -1630452.1, 20006.912, 0.0, 5.0089655, 4.9890103 
8.9494807e+2, 1.3657518e+2, -1582348.4, -1615451.0, 3975.971, -0.0013378349, 0.00094104535, -1581877.5, 19691.457, 0.0, 5.009358, 4.9878097 
8.9495194e+2, 1.4156051e+2, -1540747.8, -1583895.1, 5648.51, 0.0027237076, 0.009782583, -1540020.5, 12691.813, 0.0, 5.0098233, 4.981707 
8.9495593e+2, 1.4654239e+2, -1490347.0, -1534273.9, 5559.7466, 0.00326561, 0.009143238, -1489654.3, 14235.834, 0.0, 5.0102873, 4.98166 
8.949599e+2, 1.5152426e+2, -1439893.9, -1484531.8, 5610.5356, 0.0037721684, 0.008409627, -1439199.5, 15868.493, 0.0, 5.0107493, 4.981657 
8.9496386e+2, 1.5650614e+2, -1390699.4, -1437405.3, 6064.0435, 0.0042463085, 0.008245714, -1389924.9, 16320.98, 0.0, 5.011212, 4.980787 
8.949692e+2, 1.6148338e+2, -1350554.1, -1409276.3, 7313.8857, 0.0045819874, 0.0110260565, -1349656.9, 7811.5225, 0.0, 5.0117216, 4.9735327 
8.949749e+2, 1.6645649e+2, -1299742.4, -1359366.0, 7380.1646, 0.003504808, 0.0048871655, -1298842.5, 9888.122, 0.0, 5.012295, 4.9735136 
8.949806e+2, 1.7142957e+2, -1248908.4, -1309411.0, 7513.015, 0.0023402467, -0.0014704979, -1247989.4, 12003.515, 0.0, 5.0128694, 4.973513 
8.949863e+2, 1.7640267e+2, -1199346.9, -1262167.8, 7781.063, 0.0012386168, -0.007282252, -1198397.5, 12857.624, 0.0, 5.0134473, 4.972608 
8.949924e+2, 1.8137166e+2, -1158763.0, -1234264.9, 8149.716, 0.0016465951, -0.0041378774, -1157893.3, 4664.625, 0.0, 5.0140586, 4.9651694 
8.9499855e+2, 1.8633713e+2, -1107988.4, -1184261.1, 8154.1895, 0.0014444982, -0.003446303, -1107126.4, 6768.9087, 0.0, 5.014584, 4.9651957 
8.950046e+2, 1.9130263e+2, -1057275.5, -1134377.4, 8186.6084, 0.0011344106, -0.0026020969, -1056415.9, 8816.613, 0.0, 5.0151086, 4.965185 
8.950107e+2, 1.9626811e+2, -1007700.3, -1086927.3, 8052.0024, 0.00067954336, -0.0012080122, -1006890.25, 9679.351, 0.0, 5.0156326, 4.9643536 
8.9501613e+2, 2.0122902e+2, -968008.3, -1060627.3, 7646.245, 0.00012525068, 0.005853249, -967381.3, 571.2566, 0.0, 5.016125, 4.9563274 
8.950217e+2, 2.0618525e+2, -917560.44, -1010998.94, 7684.112, 0.0014511625, 0.0035697315, -916932.75, 2450.2356, 0.0, 5.0165715, 4.9562445 
8.950272e+2, 2.111415e+2, -867019.7, -961159.4, 7648.539, 0.0027616979, 0.0012650957, -866402.3, 4411.3047, 0.0, 5.0170164, 4.9562373 
8.9503276e+2, 2.1609773e+2, -817401.3, -913320.2, 7439.874, 0.004005663, -0.0007659328, -816827.6, 5416.598, 0.0, 5.0174594, 4.9555483 
8.950369e+2, 2.2104993e+2, -777132.2, -885399.75, 5845.7515, 0.0048362296, 0.005177308, -776817.5, -3104.1584, 0.0, 5.017786, 4.948053 
8.950402e+2, 2.259978e+2, -726642.1, -835121.2, 5892.8213, 0.0055350084, -0.00062225177, -726322.94, -1101.2509, 0.0, 5.018111, 4.9482255 
8.9504355e+2, 2.3094566e+2, -676378.06, -785345.5, 5867.705, 0.0061982865, -0.006764311, -676063.0, 666.92334, 0.0, 5.0184383, 4.9482284 
8.950469e+2, 2.3589353e+2, -626770.56, -737023.56, 5842.849, 0.0068116793, -0.012913458, -626461.75, 1776.3981, 0.0, 5.018765, 4.94773 
8.950486e+2, 2.408376e+2, -587641.5, -711459.9, 3673.507, 0.00569248, -0.0077248393, -587532.6, -7747.613, 0.0, 5.0189676, 4.9393687 
8.9504856e+2, 2.4577786e+2, -538133.1, -661943.4, 3622.7832, 0.00059988204, -0.0026753594, -538027.2, -6653.589, 0.0, 5.0189962, 4.9393826 
8.9504856e+2, 2.5071815e+2, -488642.75, -612453.6, 3506.4841, -0.0050234976, 0.0025985395, -488543.53, -5581.2485, 0.0, 5.0190206, 4.939395 
8.950485e+2, 2.5565845e+2, -439402.16, -563532.8, 3390.7412, -0.010787468, 0.0078878, -439309.6, -4758.777, 0.0, 5.0190444, 4.9392095 
8.950473e+2, 2.60595e+2, -400178.16, -536563.94, 1305.3328, -0.015908055, 0.02304507, -400165.66, -13990.994, 0.0, 5.018927, 4.9313846 
8.950451e+2, 2.6552662e+2, -349834.25, -484011.6, 918.7554, -0.01786876, 0.009952664, -349827.97, -11985.863, 0.0, 5.018711, 4.932535 
8.950429e+2, 2.7045795e+2, -300940.44, -434786.66, 528.75616, -0.019503262, -0.0067514204, -300938.34, -11426.873, 0.0, 5.018493, 4.9325395 
8.9504075e+2, 2.753893e+2, -252094.84, -385698.4, 147.43442, -0.021100981, -0.023450024, -252094.69, -10913.941, 0.0, 5.018274, 4.932496 
8.9503765e+2, 2.803157e+2, -218797.8, -372000.78, -1918.353, -0.021332894, -0.02443037, -218773.78, -25874.438, 0.0, 5.0179467, 4.9200273 
8.950341e+2, 2.85237e+2, -170981.64, -322672.16, -1926.4246, -0.014162516, -0.0191722, -170957.19, -26286.863, 0.0, 5.0172086, 4.9202323 
8.9503056e+2, 2.9015827e+2, -123539.4, -274009.22, -1835.3931, -0.006253216, -0.013783917, -123517.016, -27074.79, 0.0, 5.0164165, 4.920234 
8.950271e+2, 2.9507953e+2, -76076.83, -225336.4, -1737.3644, 0.0016050858, -0.008340597, -76056.61, -27842.555, 0.0, 5.0156226, 4.9202356 
8.950234e+2, 3.0001986e+2, -6479.354, -91600.25, -1460.666, 0.008252417, 0.012730272, -6454.2964, -6454.2964, 0.0, 5.014876, 4.959852 
8.9502066e+2, 3.0498463e+2, -513.04285, -75450.55, -867.8459, 0.01122505, 0.005751667, -502.99374, -502.99374, 0.0, 5.0144663, 4.9658976 
8.9501816e+2, 3.099495e+2, -1442.4791, -75852.516, -1202.9688, 0.013822693, -0.008439373, -1423.0361, -1423.0361, 0.0, 5.014113, 4.9659 
8.9501566e+2, 3.1491435e+2, -2365.2012, -76261.46, -1549.4309, 0.016453832, -0.023022093, -2332.7275, -2332.7275, 0.0, 5.0137568, 4.965903 
8.999532e+2, 1.2161198e+2, -1724678.0, -1747545.9, 821.7327, 0.0010956998, 0.011130519, -1724648.5, 23560.773, 0.0, 5.008232, 4.9932537 
8.999541e+2, 1.2660061e+2, -1680647.4, -1710434.3, 3484.5469, -0.004643837, 0.004503301, -1680245.3, 19075.223, 0.0, 5.0085993, 4.9891825 
8.999558e+2, 1.3158952e+2, -1630633.4, -1660996.0, 3578.3801, -0.002459875, 0.0020122752, -1630217.4, 20211.252, 0.0, 5.0089407, 4.989161 
8.9995754e+2, 1.3657847e+2, -1582446.3, -1615199.0, 4440.4937, -0.00028007064, 0.0010233481, -1581854.9, 19681.682, 0.0, 5.0092554, 4.987945 
8.999618e+2, 1.4156397e+2, -1541229.5, -1583947.3, 6157.3105, 0.0033919874, 0.010386384, -1540359.8, 12318.992, 0.0, 5.0096188, 4.981794 
8.9996624e+2, 1.46546e+2, -1490914.5, -1534353.3, 6086.35, 0.0036965692, 0.010447796, -1490077.8, 13777.477, 0.0, 5.010051, 4.9817524 
8.9997065e+2, 1.5152803e+2, -1440555.1, -1484653.3, 6166.21, 0.0039715082, 0.010387989, -1439709.1, 15322.808, 0.0, 5.010481, 4.9817505 
8.9997506e+2, 1.5651006e+2, -1391485.1, -1437625.3, 6651.636, 0.004251141, 0.010900294, -1390545.4, 15663.334, 0.0, 5.0109096, 4.9808636 
8.9998096e+2, 1.614874e+2, -1351333.5, -1409358.3, 7958.929, 0.004628389, 0.0135287745, -1350261.6, 7168.885, 0.0, 5.011387, 4.9736705 
8.999872e+2, 1.6646047e+2, -1300610.8, -1359422.3, 7996.5244, 0.0036336193, 0.005228812, -1299542.9, 9149.412, 0.0, 5.0119143, 4.973681 
8.999935e+2, 1.7143351e+2, -1249903.4, -1309528.5, 8075.8096, 0.0025647688, -0.0032838397, -1248828.9, 11125.276, 0.0, 5.0124454, 4.9736805 
8.999997e+2, 1.7640658e+2, -1200459.0, -1262335.8, 8334.825, 0.0015525736, -0.011173734, -1199356.0, 11860.039, 0.0, 5.0129824, 4.972777 
9.000065e+2, 1.813756e+2, -1160199.5, -1234837.3, 8558.732, 0.0019168537, -0.008736874, -1159230.8, 3287.2217, 0.0, 5.0135493, 4.9652166 
9.0001315e+2, 1.8634132e+2, -1109543.3, -1184907.3, 8504.579, 0.0018347928, -0.005954204, -1108595.5, 5257.8496, 0.0, 5.0140367, 4.965234 
9.000197e+2, 1.9130705e+2, -1058967.1, -1135081.9, 8491.975, 0.0016903126, -0.0029341066, -1058031.3, 7157.347, 0.0, 5.0145125, 4.9652247 
9.000263e+2, 1.962728e+2, -1009546.1, -1087673.5, 8311.4, 0.0014519688, 0.0006467716, -1008671.7, 7852.0527, 0.0, 5.0149765, 4.964404 
9.000322e+2, 2.0123385e+2, -970012.7, -1061595.5, 7861.7124, 0.0009042582, 0.008933371, -969342.7, -1436.9796, 0.0, 5.015441, 4.9563155 
9.000381e+2, 2.0619003e+2, -919463.25, -1011910.5, 7964.3613, 0.0017698442, 0.006001819, -918782.1, 554.69116, 0.0, 5.015919, 4.956234 
9.0004414e+2, 2.1114616e+2, -868857.4, -962032.75, 8010.16, 0.002653012, 0.0029116755, -868173.75, 2594.5325, 0.0, 5.016384, 4.956228 
9.000501e+2, 2.1610232e+2, -819259.5, -914271.2, 7858.4614, 0.003501157, 0.000055131266, -818613.94, 3585.8086, 0.0, 5.016834, 4.9555063 
9.000545e+2, 2.210544e+2, -778985.6, -886418.56, 6246.1924, 0.0042007053, 0.005660314, -778623.7, -4953.7896, 0.0, 5.0171757, 4.9479775 
9.000582e+2, 2.2600214e+2, -728329.44, -836023.8, 6237.4126, 0.005163636, -0.0010216554, -727969.4, -2789.904, 0.0, 5.017548, 4.9481673 
9.0006196e+2, 2.3094986e+2, -677967.25, -786208.1, 6133.3325, 0.006151307, -0.008015901, -677620.8, -931.851, 0.0, 5.017908, 4.948168 
9.0006566e+2, 2.3589759e+2, -628310.7, -737868.44, 6025.523, 0.0071354057, -0.014997471, -627980.25, 218.16525, 0.0, 5.018251, 4.947667 
9.0006757e+2, 2.4084152e+2, -589249.44, -712554.25, 3597.494, 0.0055602146, -0.010074067, -589144.56, -9398.213, 0.0, 5.0184703, 4.9392157 
9.0006745e+2, 2.4578172e+2, -539703.0, -663008.5, 3524.8938, -0.00057881733, -0.0040990943, -539602.3, -8267.52, 0.0, 5.0185065, 4.9392343 
9.000673e+2, 2.5072193e+2, -490250.16, -613542.4, 3420.4082, -0.007204849, 0.0019548929, -490155.3, -7231.935, 0.0, 5.018515, 4.939244 
9.000672e+2, 2.5566217e+2, -441109.84, -564672.7, 3313.7043, -0.01388975, 0.007929884, -441021.03, -6509.0728, 0.0, 5.0185013, 4.9390554 
9.0006584e+2, 2.605985e+2, -402296.84, -538417.4, 1043.29, -0.01905408, 0.023261668, -402288.84, -16151.439, 0.0, 5.0183377, 4.9310026 
9.000635e+2, 2.6552948e+2, -352138.88, -486161.22, 755.5343, -0.01956588, 0.0082381535, -352134.63, -14323.061, 0.0, 5.018095, 4.932057 
9.0006137e+2, 2.7046016e+2, -303330.63, -436964.8, 427.84756, -0.019603569, -0.010655883, -303329.25, -13841.101, 0.0, 5.017844, 4.932061 
9.000591e+2, 2.7539083e+2, -254610.5, -387917.9, 101.29337, -0.01960975, -0.02953519, -254610.42, -13445.8, 0.0, 5.0175796, 4.9320183 
9.000558e+2, 2.8031674e+2, -221066.45, -373611.25, -2161.9229, -0.018460054, -0.030808166, -221035.83, -28147.842, 0.0, 5.0172434, 4.919772 
9.000516e+2, 2.8523812e+2, -172279.39, -323111.75, -2391.1826, -0.010735513, -0.024797462, -172241.5, -27584.69, 0.0, 5.016704, 4.9202986 
9.0004736e+2, 2.9015952e+2, -124269.11, -274172.72, -2407.7817, -0.0022577457, -0.019121176, -124230.445, -27804.623, 0.0, 5.016114, 4.920308 
9.000432e+2, 2.9508093e+2, -76310.83, -225253.33, -2413.58, 0.0061962786, -0.013307844, -76271.73, -28077.105, 0.0, 5.0154996, 4.9203176 
9.000388e+2, 3.000213e+2, -6660.642, -92224.49, -2036.3531, 0.013034388, 0.008047886, -6612.206, -6612.206, 0.0, 5.014913, 4.9596124 
9.0003526e+2, 3.0498588e+2, -1065.8164, -76480.05, -1137.3933, 0.012029213, 0.0023559344, -1048.6661, -1048.6661, 0.0, 5.014409, 4.9655485 
9.000319e+2, 3.0995053e+2, -2569.5137, -77138.3, -1296.4918, 0.010202386, -0.010896207, -2546.979, -2546.979, 0.0, 5.0138474, 4.9655466 
9.000286e+2, 3.1491518e+2, -4244.337, -77874.31, -1455.4531, 0.008372167, -0.024379725, -4215.578, -4215.578, 0.0, 5.0132203, 4.965545 
9.0496093e+2, 1.21613435e+2, -1730175.4, -1749660.0, -72.12759, 0.005318164, 0.005408063, -1730175.1, 18020.063, 0.0, 5.0063257, 4.993473 
9.049618e+2, 1.2660313e+2, -1685890.3, -1712459.3, 2648.4297, -0.0039681913, 0.007268146, -1685628.9, 13667.292, 0.0, 5.0067835, 4.989383 
9.0496397e+2, 1.3159221e+2, -1635485.4, -1662837.4, 2673.6516, -0.00093719334, 0.004304941, -1635226.4, 15176.464, 0.0, 5.0072527, 4.9893556 
9.049661e+2, 1.3658132e+2, -1586829.6, -1616855.4, 3498.7356, 0.002153283, 0.0027625128, -1586427.3, 15082.325, 0.0, 5.007723, 4.9881253 
9.049709e+2, 1.4156689e+2, -1545027.8, -1585419.5, 5331.2866, 0.005114226, 0.011498674, -1544335.9, 8314.929, 0.0, 5.0082617, 4.9819703 
9.049757e+2, 1.4654909e+2, -1494050.6, -1535453.1, 5366.4287, 0.004158432, 0.0110928165, -1493366.4, 10459.345, 0.0, 5.0089035, 4.9819465 
9.049805e+2, 1.5153125e+2, -1443044.0, -1485426.4, 5534.6094, 0.0032667618, 0.010537138, -1442333.1, 12667.563, 0.0, 5.0095468, 4.9819465 
9.0498537e+2, 1.5651341e+2, -1393307.1, -1438061.1, 6133.3184, 0.0025084384, 0.010505177, -1392481.8, 13693.933, 0.0, 5.010193, 4.9810658 
9.0499175e+2, 1.6149087e+2, -1352602.5, -1409715.0, 7562.907, 0.002536515, 0.012656118, -1351618.0, 5778.062, 0.0, 5.0108657, 4.973813 
9.049987e+2, 1.6646418e+2, -1301520.0, -1359617.0, 7700.467, 0.002403833, 0.005220267, -1300516.6, 8138.8477, 0.0, 5.0115147, 4.9738207 
9.0500563e+2, 1.7143747e+2, -1250470.8, -1309573.6, 7882.981, 0.0023047044, -0.0022639977, -1249437.4, 10477.619, 0.0, 5.012163, 4.9738154 
9.0501255e+2, 1.7641078e+2, -1200692.0, -1262215.6, 8270.858, 0.0023187788, -0.009010175, -1199599.5, 11574.751, 0.0, 5.0128126, 4.9729156 
9.0502e+2, 1.8137993e+2, -1160341.3, -1234779.6, 8557.556, 0.0035500922, -0.006470077, -1159370.1, 3104.9314, 0.0, 5.013465, 4.9652834 
9.050272e+2, 1.8634556e+2, -1109371.9, -1184732.8, 8597.352, 0.0042012366, -0.0049083726, -1108403.5, 5408.0903, 0.0, 5.014071, 4.9652824 
9.050344e+2, 1.9131123e+2, -1058419.0, -1134702.1, 8684.831, 0.0049247346, -0.003099675, -1057442.6, 7705.2607, 0.0, 5.0146747, 4.9652815 
9.0504164e+2, 1.962769e+2, -1008588.56, -1087061.0, 8587.681, 0.0056978343, -0.00069190544, -1007659.8, 8824.286, 0.0, 5.015276, 4.964475 
9.050481e+2, 2.0123798e+2, -968571.75, -1060570.0, 8260.727, 0.0051462185, 0.0070312615, -967835.94, 29.7394, 0.0, 5.015869, 4.9564614 
9.050544e+2, 2.0619436e+2, -917452.5, -1010506.06, 8542.062, 0.0037245525, 0.0042117946, -916674.9, 2619.1587, 0.0, 5.016527, 4.956426 
9.0506065e+2, 2.1115069e+2, -866289.6, -960345.2, 8743.684, 0.002373375, 0.0011592297, -865483.7, 5238.997, 0.0, 5.0171866, 4.9564276 
9.05067e+2, 2.1610704e+2, -816115.8, -912328.9, 8722.96, 0.0011248239, -0.0017573866, -815331.4, 6819.9487, 0.0, 5.017845, 4.9556994 
9.050718e+2, 2.2105922e+2, -775521.56, -884940.0, 7179.3677, 0.000327295, 0.0037936943, -775052.56, -1432.3125, 0.0, 5.01841, 4.947916 
9.0507597e+2, 2.2600693e+2, -724470.44, -834556.8, 7209.9507, 0.0017404129, -0.0018434532, -724000.2, 1130.9612, 0.0, 5.018964, 4.9480247 
9.050802e+2, 2.3095465e+2, -673562.56, -784505.5, 7120.867, 0.003365681, -0.007589435, -673107.4, 3534.6272, 0.0, 5.019522, 4.948022 
9.0508443e+2, 2.3590235e+2, -623314.8, -735912.1, 7034.562, 0.0050930874, -0.013239193, -622877.0, 5275.8257, 0.0, 5.0200796, 4.947518 
9.0508676e+2, 2.4084617e+2, -583738.5, -710190.9, 4390.362, 0.0044023097, -0.008283051, -583586.25, -3883.6245, 0.0, 5.0204387, 4.9391584 
9.050869e+2, 2.4578616e+2, -534055.75, -660488.75, 4425.17, -0.0003155798, -0.0040777186, -533901.0, -2609.0212, 0.0, 5.0205092, 4.939225 
9.0508693e+2, 2.5072616e+2, -484480.97, -610987.6, 4481.6675, -0.00521539, 0.00017259772, -484322.4, -1440.9275, 0.0, 5.0205693, 4.9392314 
9.0508705e+2, 2.5566617e+2, -435155.97, -562056.44, 4539.1636, -0.00999101, 0.004370202, -434993.8, -522.8871, 0.0, 5.0206285, 4.9390397 
9.050856e+2, 2.6060227e+2, -396466.03, -536225.8, 2143.9265, -0.013878109, 0.017923927, -396433.16, -10335.154, 0.0, 5.020489, 4.930829 
9.0508294e+2, 2.6553324e+2, -346951.16, -484632.03, 1965.5326, -0.01486679, 0.0061918735, -346923.1, -9149.533, 0.0, 5.020094, 4.931728 
9.050803e+2, 2.7046397e+2, -298552.3, -435623.1, 1722.0216, -0.01557689, -0.008659592, -298530.66, -9079.261, 0.0, 5.0197005, 4.931734 
9.050777e+2, 2.7539465e+2, -250199.69, -386746.1, 1484.6019, -0.016283454, -0.023653561, -250183.56, -9054.263, 0.0, 5.019306, 4.9316926 
9.050739e+2, 2.8032053e+2, -217093.53, -372166.56, -902.2988, -0.01630371, -0.022838151, -217088.28, -24233.732, 0.0, 5.0187254, 4.9196424 
9.050689e+2, 2.852415e+2, -168953.63, -321864.75, -1174.986, -0.009596448, -0.01967283, -168944.6, -24318.367, 0.0, 5.0179353, 4.9202147 
9.05064e+2, 2.901625e+2, -121512.03, -273180.4, -1261.1476, -0.0018919016, -0.016933013, -121501.55, -25103.557, 0.0, 5.017142, 4.9202247 
9.050591e+2, 2.9508352e+2, -74051.836, -224484.7, -1348.4625, 0.005918803, -0.013971802, -74039.75, -25870.314, 0.0, 5.016347, 4.9202347 
9.05054e+2, 3.000236e+2, -4758.706, -91017.07, -1035.9161, 0.012801403, 0.0038773564, -4746.267, -4746.267, 0.0, 5.0155473, 4.959776 
9.0504956e+2, 3.0498838e+2, -799.0719, -76254.195, -101.14166, 0.01092303, -0.00011512446, -798.9363, -798.9363, 0.0, 5.014496, 4.9655905 
9.050452e+2, 3.099534e+2, -3756.921, -77523.85, -140.02861, 0.007816644, -0.009709094, -3756.655, -3756.655, 0.0, 5.013394, 4.9655952 
9.050409e+2, 3.1491846e+2, -6712.202, -78797.99, -180.3099, 0.0047083898, -0.019168219, -6711.751, -6711.751, 0.0, 5.012289, 4.9656 
9.099674e+2, 1.2161481e+2, -1729719.1, -1749003.3, 104.15124, 0.0059435098, 0.005886406, -1729718.6, 18463.47, 0.0, 5.006366, 4.993679 
9.099687e+2, 1.266048e+2, -1685491.4, -1711936.8, 2991.2966, -0.004345216, 0.009092238, -1685157.3, 14123.184, 0.0, 5.006827, 4.9895444 
9.0997136e+2, 1.3159399e+2, -1635085.0, -1662323.0, 3024.5095, -0.00013134687, 0.005635079, -1634753.3, 15633.033, 0.0, 5.007298, 4.9895144 
9.0997404e+2, 1.365832e+2, -1586441.4, -1616364.0, 3861.7727, 0.003930157, 0.0035969585, -1585951.0, 15541.187, 0.0, 5.0077677, 4.9882774 
9.099792e+2, 1.415689e+2, -1544612.0, -1584734.8, 5803.46, 0.0059890593, 0.011753333, -1543789.4, 8842.826, 0.0, 5.0082855, 4.9821935 
9.099845e+2, 1.4655124e+2, -1493611.3, -1534710.1, 5856.5513, 0.0037626892, 0.010572677, -1492793.0, 11012.035, 0.0, 5.0089264, 4.98219 
9.099899e+2, 1.5153357e+2, -1442610.6, -1484686.8, 6027.56, 0.0015482163, 0.009253633, -1441764.3, 13213.865, 0.0, 5.0095687, 4.9821906 
9.0999526e+2, 1.565159e+2, -1392852.0, -1437262.3, 6661.6064, -0.0005485676, 0.008436505, -1391874.3, 14276.77, 0.0, 5.010213, 4.981331 
9.100023e+2, 1.6149358e+2, -1352232.0, -1409002.9, 8059.815, -0.0009227472, 0.010268054, -1351109.9, 6258.959, 0.0, 5.0108743, 4.974052 
9.1001e+2, 1.6646728e+2, -1301153.0, -1358908.3, 8196.035, 0.0001661227, 0.0045422893, -1300012.4, 8612.182, 0.0, 5.0115232, 4.9740596 
9.100177e+2, 1.7144097e+2, -1250106.4, -1308867.5, 8381.18, 0.0013109525, -0.0011838338, -1248934.3, 10945.929, 0.0, 5.0121717, 4.974055 
9.100254e+2, 1.7641468e+2, -1200318.4, -1261484.4, 8787.04, 0.0025359741, -0.006190634, -1199081.1, 12054.606, 0.0, 5.0128207, 4.9731646 
9.1003364e+2, 1.8138406e+2, -1160141.5, -1234359.5, 9024.589, 0.004938034, -0.0034116614, -1159059.9, 3374.5762, 0.0, 5.0134664, 4.9654255 
9.100416e+2, 1.8634965e+2, -1109202.1, -1184379.6, 9061.831, 0.0064939545, -0.003670426, -1108125.3, 5646.5215, 0.0, 5.014073, 4.965402 
9.1004944e+2, 1.9131523e+2, -1058248.1, -1134352.4, 9153.199, 0.008065816, -0.0037448097, -1057162.8, 7946.21, 0.0, 5.0146775, 4.9654 
9.1005737e+2, 1.9628085e+2, -1008419.4, -1086719.4, 9040.568, 0.009632732, -0.00319461, -1007389.1, 9056.798, 0.0, 5.01528, 4.9645915 
9.1006434e+2, 2.01242e+2, -968252.56, -1059903.8, 8744.88, 0.00899177, 0.003817129, -967425.6, 400.9725, 0.0, 5.015872, 4.9566884 
9.1007113e+2, 2.0619866e+2, -917068.25, -1009698.2, 9043.861, 0.005377005, 0.0012665855, -916193.5, 3057.5752, 0.0, 5.0165305, 4.956702 
9.100778e+2, 2.1115534e+2, -865908.4, -959540.7, 9250.314, 0.001657407, -0.0014848534, -865003.25, 5672.5195, 0.0, 5.01719, 4.956704 
9.1008455e+2, 2.1611199e+2, -815742.3, -911538.6, 9234.56, -0.0020338097, -0.004083126, -814860.25, 7240.119, 0.0, 5.017848, 4.9559717 
9.1008973e+2, 2.2106433e+2, -775514.9, -884979.7, 7581.0, -0.0046152514, 0.0016360825, -774992.4, -1425.1448, 0.0, 5.018418, 4.9479027 
9.1009456e+2, 2.260121e+2, -724566.94, -834831.44, 7643.4395, -0.0027725704, -0.0025651264, -724039.6, 1039.382, 0.0, 5.0189724, 4.9479303 
9.100994e+2, 2.3095986e+2, -673657.94, -784777.4, 7560.479, -0.0007236209, -0.006789473, -673145.94, 3444.8076, 0.0, 5.019531, 4.947928 
9.101042e+2, 2.3590764e+2, -623413.44, -736190.8, 7481.0327, 0.0013491974, -0.010898229, -622919.3, 5183.1055, 0.0, 5.0200887, 4.947421 
9.10107e+2, 2.4085142e+2, -583741.56, -710185.4, 4480.7437, 0.0021095935, -0.0056099077, -583583.0, -3929.5298, 0.0, 5.020437, 4.939163 
9.101074e+2, 2.4579124e+2, -533964.6, -660274.2, 4476.116, -0.00037445428, -0.0034250817, -533806.2, -2563.1145, 0.0, 5.0205073, 4.939303 
9.101078e+2, 2.5073108e+2, -484393.03, -610774.94, 4540.22, -0.0030030278, -0.0012675179, -484230.16, -1397.4979, 0.0, 5.020567, 4.9393096 
9.1010815e+2, 2.5567093e+2, -435071.28, -561845.9, 4605.3604, -0.0055998447, 0.0009035806, -434904.2, -482.08902, 0.0, 5.0206256, 4.9391174 
9.101067e+2, 2.6060688e+2, -396609.97, -536603.25, 1864.9481, -0.00850853, 0.012429299, -396585.13, -10534.8, 0.0, 5.0204954, 4.9306984 
9.101035e+2, 2.6553795e+2, -347280.1, -485442.63, 1682.7899, -0.0101865055, 0.004516878, -347259.63, -9533.125, 0.0, 5.0201015, 4.9314466 
9.1010046e+2, 2.704688e+2, -298889.66, -436427.16, 1452.8071, -0.01184132, -0.0055876304, -298874.3, -9469.727, 0.0, 5.019705, 4.931455 
9.1009736e+2, 2.753997e+2, -250545.4, -387543.63, 1228.9193, -0.013595671, -0.015742868, -250534.39, -9451.779, 0.0, 5.0193067, 4.9314156 
9.100928e+2, 2.803256e+2, -217242.89, -372612.16, -1489.3258, -0.015146845, -0.011909327, -217228.61, -24419.666, 0.0, 5.018738, 4.919485 
9.1008687e+2, 2.852462e+2, -168993.27, -322108.78, -1784.0752, -0.009610027, -0.0120499395, -168972.48, -24388.424, 0.0, 5.0179543, 4.920127 
9.10081e+2, 2.9016668e+2, -121551.09, -273428.6, -1857.605, -0.003001571, -0.013071757, -121528.375, -25168.941, 0.0, 5.0171614, 4.9201355 
9.100752e+2, 2.9508725e+2, -74090.28, -224737.0, -1932.294, 0.0036272097, -0.01383566, -74065.51, -25931.031, 0.0, 5.0163674, 4.9201446 
9.100693e+2, 3.0002695e+2, -4425.5264, -90521.7, -1743.3104, 0.010129489, 0.00028933614, -4390.241, -4390.241, 0.0, 5.015584, 4.959951 
9.100638e+2, 3.0499202e+2, -598.54083, -76079.67, -956.7427, 0.007918047, -0.001646532, -586.41583, -586.41583, 0.0, 5.0145335, 4.965652 
9.1005826e+2, 3.0995744e+2, -3553.9534, -77348.695, -976.6212, 0.003992991, -0.0076862974, -3541.0308, -3541.0308, 0.0, 5.0134315, 4.9656568 
9.100528e+2, 3.1492287e+2, -6506.796, -78622.195, -997.8966, -0.00017759149, -0.01365383, -6492.99, -6492.99, 0.0, 5.0123277, 4.9656615 
9.1497374e+2, 1.2161683e+2, -1729227.9, -1748264.0, 282.62018, 0.0042704926, 0.013005547, -1729223.6, 18938.982, 0.0, 5.006406, 4.9939103 
9.149755e+2, 1.2660646e+2, -1685096.0, -1711411.6, 3336.602, -0.004656367, 0.010987812, -1684679.6, 14585.091, 0.0, 5.0068703, 4.9897046 
9.149788e+2, 1.3159576e+2, -1634688.4, -1661805.9, 3377.8118, 0.0007626114, 0.006938115, -1634274.0, 16095.736, 0.0, 5.0073433, 4.9896717 
9.149821e+2, 1.3658507e+2, -1586076.1, -1615910.9, 4213.354, 0.005798907, 0.004333747, -1585492.5, 15982.1875, 0.0, 5.0078125, 4.988415 
9.149876e+2, 1.415709e+2, -1544199.4, -1584053.0, 6271.2964, 0.006821138, 0.01212789, -1543235.8, 9377.776, 0.0, 5.00831, 4.9824147 
9.1499346e+2, 1.4655341e+2, -1493173.1, -1533966.6, 6346.114, 0.003337633, 0.010131807, -1492208.8, 11575.684, 0.0, 5.0089493, 4.9824333 
9.1499925e+2, 1.5153588e+2, -1442178.5, -1483946.4, 6519.95, -0.00018729531, 0.008005637, -1441184.4, 13770.999, 0.0, 5.0095906, 4.9824343 
9.150052e+2, 1.5651838e+2, -1392406.1, -1436479.3, 7178.2583, -0.0036102703, 0.0063635176, -1391266.4, 14859.876, 0.0, 5.0102334, 4.9815903 
9.1501296e+2, 1.6149631e+2, -1351864.5, -1408295.9, 8558.407, -0.0043876674, 0.007958241, -1350595.0, 6746.641, 0.0, 5.010883, 4.974289 
9.1502136e+2, 1.664704e+2, -1300786.6, -1358199.5, 8691.656, -0.0020701096, 0.003913537, -1299499.6, 9093.956, 0.0, 5.011532, 4.9742985 
9.150298e+2, 1.7144449e+2, -1249742.6, -1308161.1, 8879.431, 0.00032954832, -0.00009497254, -1248422.8, 11422.629, 0.0, 5.01218, 4.974293 
9.1503835e+2, 1.764186e+2, -1199946.4, -1260754.3, 9292.147, 0.0027813881, -0.0034015134, -1198558.1, 12538.97, 0.0, 5.0128284, 4.9734116 
9.150473e+2, 1.813882e+2, -1159955.1, -1233966.1, 9497.52, 0.006406635, -0.0002791916, -1158755.8, 3637.9207, 0.0, 5.0134673, 4.965558 
9.1505593e+2, 1.8635373e+2, -1109033.3, -1184025.9, 9527.644, 0.008874815, -0.0023779527, -1107841.8, 5890.0615, 0.0, 5.014075, 4.9655213 
9.1506445e+2, 1.9131924e+2, -1058078.3, -1134001.9, 9622.9, 0.011302593, -0.0043916954, -1056877.5, 8192.306, 0.0, 5.0146804, 4.9655185 
9.1507304e+2, 1.9628479e+2, -1008260.1, -1086396.6, 9496.718, 0.013659899, -0.005750068, -1007122.44, 9285.306, 0.0, 5.015283, 4.9647 
9.150806e+2, 2.0124604e+2, -967945.5, -1059260.9, 9227.446, 0.0127655445, 0.00066955166, -967022.4, 765.1033, 0.0, 5.015875, 4.956907 
9.150878e+2, 2.06203e+2, -916685.25, -1008889.5, 9545.953, 0.006953615, -0.0016475375, -915707.3, 3500.8289, 0.0, 5.0165334, 4.956978 
9.15095e+2, 2.1115996e+2, -865528.3, -958735.44, 9757.236, 0.0008509968, -0.0041698785, -864517.9, 6110.9575, 0.0, 5.0171933, 4.9569793 
9.151021e+2, 2.1611694e+2, -815364.94, -910736.2, 9744.832, -0.005296384, -0.0065214178, -814379.44, 7670.061, 0.0, 5.0178514, 4.9562473 
9.1510767e+2, 2.2106946e+2, -775540.44, -885087.6, 7988.437, -0.009554994, -0.00040465908, -774960.94, -1446.8167, 0.0, 5.0184255, 4.9478645 
9.151131e+2, 2.2601727e+2, -724664.7, -835105.1, 8075.998, -0.0072853775, -0.0031885935, -724077.25, 949.4565, 0.0, 5.0189815, 4.9478345 
9.151185e+2, 2.309651e+2, -673754.6, -785048.3, 7999.1616, -0.004841843, -0.0059837988, -673182.6, 3356.758, 0.0, 5.0195394, 4.9478326 
9.1512394e+2, 2.3591292e+2, -623525.4, -736495.3, 7924.324, -0.002452652, -0.008643453, -622972.25, 5079.8096, 0.0, 5.0200973, 4.947314 
9.151273e+2, 2.4085665e+2, -583763.9, -710219.44, 4566.3867, -0.00010304891, -0.0027753462, -583599.2, -3995.0432, 0.0, 5.020435, 4.9391527 
9.1512793e+2, 2.4579632e+2, -533875.06, -660058.4, 4527.141, -0.00037687452, -0.002663539, -533712.8, -2518.725, 0.0, 5.020506, 4.9393797 
9.151286e+2, 2.5073603e+2, -484306.56, -610561.06, 4598.852, -0.00077527674, -0.0027325358, -484139.28, -1355.5116, 0.0, 5.0205646, 4.939386 
9.1512924e+2, 2.5567573e+2, -434988.03, -561634.1, 4671.6367, -0.0012343597, -0.0027217723, -434815.94, -442.65872, 0.0, 5.0206223, 4.939194 
9.151278e+2, 2.6061147e+2, -396802.13, -537088.06, 1599.2992, -0.0031554431, 0.0070415144, -396783.88, -10781.304, 0.0, 5.020502, 4.9305286 
9.151241e+2, 2.6554266e+2, -347611.03, -486251.88, 1394.9678, -0.0055626347, 0.0029519855, -347596.97, -9917.669, 0.0, 5.0201097, 4.9311624 
9.1512054e+2, 2.704737e+2, -299228.9, -437229.88, 1178.5144, -0.008202658, -0.0026753985, -299218.84, -9861.129, 0.0, 5.0197086, 4.931173 
9.1511697e+2, 2.7540475e+2, -250893.03, -388339.78, 968.15936, -0.011045267, -0.008261666, -250886.2, -9850.214, 0.0, 5.0193067, 4.931136 
9.1511166e+2, 2.8033072e+2, -217483.89, -373267.78, -2058.1272, -0.014002802, -0.00072772935, -217456.7, -24693.62, 0.0, 5.0187507, 4.919253 
9.1510487e+2, 2.8525087e+2, -169034.52, -322351.47, -2391.456, -0.0096251955, -0.003972346, -168997.22, -24455.68, 0.0, 5.017974, 4.9200373 
9.1509813e+2, 2.901709e+2, -121591.72, -273675.4, -2452.3547, -0.004109129, -0.009042103, -121552.18, -25231.57, 0.0, 5.0171814, 4.9200444 
9.150914e+2, 2.9509094e+2, -74130.27, -224987.9, -2514.4185, 0.0013414321, -0.013817213, -74088.375, -25989.033, 0.0, 5.016388, 4.9200516 
9.150846e+2, 3.0003032e+2, -4185.5146, -90238.41, -2436.5925, 0.007452322, -0.0032452417, -4116.5776, -4116.5776, 0.0, 5.015621, 4.960047 
9.1507804e+2, 3.049957e+2, -401.7436, -75901.445, -1811.3751, 0.004818214, -0.0030733615, -358.3104, -358.3104, 0.0, 5.014571, 4.9657106 
9.150714e+2, 3.099615e+2, -3354.722, -77169.83, -1812.2443, 0.00010453643, -0.0058838795, -3310.256, -3310.256, 0.0, 5.0134697, 4.9657154 
9.150647e+2, 3.1492728e+2, -6305.1274, -78442.695, -1814.5128, -0.0050983564, -0.008684529, -6259.515, -6259.515, 0.0, 5.0123663, 4.9657207 
9.1998005e+2, 1.2161886e+2, -1730027.1, -1748124.5, 654.86414, 0.002806392, 0.019851513, -1730003.5, 18139.707, 0.0, 5.0060315, 4.994144 
9.1998243e+2, 1.2660812e+2, -1685366.4, -1711135.4, 3886.1965, -0.0048193973, 0.012469957, -1684793.0, 14455.959, 0.0, 5.0066986, 4.9898825 
9.1998625e+2, 1.3159756e+2, -1634650.4, -1661357.5, 4000.2673, 0.001554289, 0.008027587, -1634064.0, 16288.761, 0.0, 5.007271, 4.9898562 
9.1999006e+2, 1.3658702e+2, -1586066.9, -1615531.3, 4908.0713, 0.0074478313, 0.0050698933, -1585270.9, 16185.649, 0.0, 5.0077424, 4.988575 
9.19996e+2, 1.41573e+2, -1544274.9, -1583610.6, 7148.098, 0.007430305, 0.012776511, -1543016.1, 9577.575, 0.0, 5.0081744, 4.982634 
9.200024e+2, 1.4655566e+2, -1493483.9, -1533590.4, 7230.2495, 0.0031038255, 0.00990334, -1492220.3, 11542.354, 0.0, 5.0087247, 4.982675 
9.200087e+2, 1.5153831e+2, -1442768.1, -1483707.8, 7391.948, -0.0012744238, 0.0069033694, -1441474.3, 13457.348, 0.0, 5.0092726, 4.982675 
9.200152e+2, 1.5652096e+2, -1393269.5, -1436349.3, 8050.9946, -0.0055323555, 0.004374327, -1391814.0, 14286.615, 0.0, 5.0098176, 4.9818416 
9.2002356e+2, 1.614991e+2, -1353027.4, -1408364.9, 9390.679, -0.006536469, 0.005799483, -1351477.1, 5836.4614, 0.0, 5.010383, 4.9745107 
9.2003274e+2, 1.6647357e+2, -1302071.6, -1358332.9, 9450.948, -0.0034046662, 0.0033892484, -1300526.4, 8035.547, 0.0, 5.0109897, 4.974518 
9.2004186e+2, 1.7144804e+2, -1251188.1, -1308375.0, 9563.678, -0.00011326172, 0.0010003647, -1249631.1, 10179.158, 0.0, 5.011582, 4.974512 
9.200511e+2, 1.7642254e+2, -1201588.1, -1261048.3, 9906.427, 0.003277873, -0.00074665935, -1199981.1, 11077.453, 0.0, 5.0121593, 4.9736357 
9.200608e+2, 1.8139234e+2, -1161786.4, -1234546.5, 10049.766, 0.007774337, 0.0027887337, -1160423.8, 1929.3572, 0.0, 5.0127826, 4.965687 
9.2007005e+2, 1.8635783e+2, -1110574.5, -1184469.6, 10070.679, 0.010740777, -0.0011078167, -1109226.6, 4465.1836, 0.0, 5.013489, 4.965647 
9.2007935e+2, 1.913233e+2, -1059382.1, -1134321.6, 10174.102, 0.013695841, -0.0050599817, -1058025.4, 7005.1504, 0.0, 5.014174, 4.9656467 
9.2008865e+2, 1.9628878e+2, -1009416.56, -1086670.9, 10059.203, 0.016590089, -0.008340035, -1008128.25, 8240.859, 0.0, 5.0148335, 4.964816 
9.2009676e+2, 2.0125009e+2, -968884.06, -1059213.5, 9836.642, 0.0152842, -0.0025190962, -967825.25, -77.44024, 0.0, 5.015454, 4.957117 
9.2010444e+2, 2.0620735e+2, -917688.06, -1008746.44, 10137.241, 0.007911342, -0.0046374383, -916573.1, 2591.6987, 0.0, 5.016063, 4.957242 
9.201121e+2, 2.1116461e+2, -866731.6, -958686.75, 10319.464, 0.00021966205, -0.0069471514, -865587.75, 4994.0107, 0.0, 5.016653, 4.957243 
9.201197e+2, 2.1612187e+2, -816826.2, -910813.06, 10278.716, -0.007456402, -0.009044182, -815715.2, 6283.496, 0.0, 5.017222, 4.956508 
9.201257e+2, 2.210746e+2, -777654.56, -886159.7, 8418.6, -0.012705645, -0.0022526588, -777005.3, -3544.1692, 0.0, 5.017707, 4.9478264 
9.2013174e+2, 2.260225e+2, -727092.7, -836411.3, 8554.838, -0.010301199, -0.0036027469, -726427.25, -1453.0286, 0.0, 5.0181675, 4.947756 
9.201377e+2, 2.3097037e+2, -676499.3, -786497.0, 8511.849, -0.0076900106, -0.005091737, -675844.56, 643.1032, 0.0, 5.0186105, 4.947754 
9.2014366e+2, 2.3591824e+2, -626657.75, -738154.25, 8465.871, -0.005095902, -0.006514336, -626018.56, 1982.5336, 0.0, 5.0190353, 4.947219 
9.201474e+2, 2.4086194e+2, -586998.94, -711808.7, 4794.3843, -0.0012094921, 0.00002965042, -586815.06, -7260.787, 0.0, 5.0193076, 4.939114 
9.201484e+2, 2.4580146e+2, -536667.7, -661245.06, 4645.4043, 0.000111354086, -0.0017093701, -536494.75, -5350.048, 0.0, 5.019491, 4.9394264 
9.2014927e+2, 2.5074098e+2, -486807.7, -611614.8, 4618.652, 0.0014079585, -0.00391847, -486637.0, -3902.1685, 0.0, 5.01965, 4.939431 
9.201502e+2, 2.5568053e+2, -437277.5, -562591.5, 4590.5605, 0.0026936487, -0.00610412, -437109.56, -2784.6802, 0.0, 5.019781, 4.9392376 
9.201487e+2, 2.6061603e+2, -399149.7, -538609.5, 1137.7683, 0.001530487, 0.0019555928, -399140.4, -13184.789, 0.0, 5.019742, 4.930341 
9.201446e+2, 2.6554734e+2, -349837.94, -487867.72, 956.25037, -0.0015915903, 0.0013672468, -349831.3, -12198.649, 0.0, 5.0194197, 4.9309053 
9.2014056e+2, 2.7047852e+2, -301330.47, -438775.88, 813.2863, -0.0049939784, -0.00039082734, -301325.66, -12014.374, 0.0, 5.0190606, 4.930918 
9.2013645e+2, 2.7540973e+2, -252943.61, -389846.9, 671.6752, -0.00850624, -0.0021245794, -252940.31, -11950.583, 0.0, 5.0186753, 4.9308834 
9.2013055e+2, 2.8033575e+2, -219480.9, -374775.25, -2520.4966, -0.012317841, 0.009157828, -219440.02, -26722.764, 0.0, 5.0181513, 4.918987 
9.201228e+2, 2.8525555e+2, -170598.48, -323321.88, -2950.6646, -0.009281922, 0.0036729136, -170541.5, -26042.684, 0.0, 5.017462, 4.9199185 
9.201152e+2, 2.901751e+2, -122955.99, -274565.06, -3116.223, -0.00500716, -0.004923551, -122891.97, -26610.264, 0.0, 5.016738, 4.919923 
9.2010754e+2, 2.950947e+2, -75379.37, -225832.4, -3278.7288, -0.00074073696, -0.013454171, -75307.95, -27243.488, 0.0, 5.0159836, 4.919927 
9.201e+2, 3.0003372e+2, -5083.7866, -90493.23, -3296.297, 0.0050914367, -0.006099067, -4956.7583, -4956.7583, 0.0, 5.0152626, 4.9601035 
9.2009234e+2, 3.0499938e+2, -1060.5377, -75981.42, -2675.9946, 0.0023671356, -0.0039581265, -965.07916, -965.07916, 0.0, 5.0142846, 4.965803 
9.200846e+2, 3.0996558e+2, -4026.5051, -77289.28, -2534.4382, -0.0023444197, -0.0038676995, -3938.9338, -3938.9338, 0.0, 5.0131817, 4.9657984 
9.200768e+2, 3.1493178e+2, -7195.97, -78690.125, -2423.128, -0.007455445, -0.0037185138, -7113.938, -7113.938, 0.0, 5.0120006, 4.965794 
9.249853e+2, 1.2161828e+2, -1735930.5, -1750271.3, -1051.1295, 0.0063194963, 0.013832376, -1735853.9, 12295.55, 0.0, 5.0039787, 4.9944277 
9.249879e+2, 1.2660846e+2, -1691096.8, -1713055.9, 2144.7444, -0.0061082635, 0.012790567, -1690889.3, 8357.02, 0.0, 5.0046806, 4.9902153 
9.249924e+2, 1.3159828e+2, -1639972.8, -1663019.8, 2183.9375, 0.0005082364, 0.0090732975, -1639767.6, 10578.682, 0.0, 5.0053806, 4.9902034 
9.2499685e+2, 1.3658813e+2, -1590698.8, -1616885.5, 3010.7932, 0.0067639635, 0.0067755417, -1590357.1, 11089.111, 0.0, 5.00608, 4.9889097 
9.2500335e+2, 1.4157432e+2, -1548129.9, -1584905.1, 5252.7896, 0.0067338194, 0.014041807, -1547394.3, 5186.7573, 0.0, 5.0067487, 4.9829125 
9.2501044e+2, 1.4655718e+2, -1497052.4, -1534739.3, 5396.115, 0.004065007, 0.010367697, -1496295.0, 7452.8247, 0.0, 5.0073895, 4.982954 
9.250176e+2, 1.5154e+2, -1446053.9, -1484727.1, 5618.893, 0.001391082, 0.0065142023, -1445254.0, 9660.595, 0.0, 5.008029, 4.9829497 
9.2502475e+2, 1.5652281e+2, -1396240.3, -1437196.6, 6352.888, -0.0011556111, 0.0030902897, -1395277.5, 10804.047, 0.0, 5.008669, 4.9821258 
9.2503375e+2, 1.6150117e+2, -1355810.3, -1409343.5, 7845.3726, -0.0015989373, 0.004331552, -1354684.3, 2607.9675, 0.0, 5.0093255, 4.974712 
9.250434e+2, 1.6647598e+2, -1304560.4, -1359206.3, 8021.201, -0.000043300268, 0.0034299463, -1303407.4, 5130.4766, 0.0, 5.010037, 4.974701 
9.250531e+2, 1.7145078e+2, -1253311.9, -1309066.3, 8244.671, 0.0016776518, 0.002421009, -1252118.3, 7665.32, 0.0, 5.0107493, 4.974696 
9.250627e+2, 1.7642555e+2, -1203283.0, -1261473.0, 8654.626, 0.0035910597, 0.0018648313, -1202023.1, 9006.275, 0.0, 5.011458, 4.9738455 
9.250729e+2, 1.8139564e+2, -1163057.6, -1234634.3, 9143.63, 0.0064965407, 0.0057396903, -1161908.1, 413.53702, 0.0, 5.0122123, 4.9659424 
9.250829e+2, 1.8636122e+2, -1111132.8, -1184144.0, 9412.245, 0.008086258, 0.00036111317, -1109938.9, 3719.7617, 0.0, 5.0131545, 4.9659257 
9.2509294e+2, 1.913268e+2, -1059164.9, -1133565.5, 9715.106, 0.00982758, -0.005174119, -1057917.1, 7078.5957, 0.0, 5.0141006, 4.9659443 
9.251029e+2, 1.962924e+2, -1008356.7, -1085452.0, 9775.741, 0.011638429, -0.010114623, -1007136.44, 9196.087, 0.0, 5.0150437, 4.9651346 
9.251118e+2, 2.0125388e+2, -967185.6, -1057693.0, 9675.224, 0.010196479, -0.0060972665, -966162.94, 1546.5465, 0.0, 5.015879, 4.9574385 
9.251203e+2, 2.062115e+2, -915761.4, -1007117.8, 10098.69, 0.0054822783, -0.0077466234, -914658.4, 4464.4277, 0.0, 5.0165725, 4.957565 
9.251289e+2, 2.1116915e+2, -864529.3, -956921.44, 10425.103, 0.00070618524, -0.0093766935, -863367.56, 7168.2383, 0.0, 5.01726, 4.9575706 
9.2513746e+2, 2.1612681e+2, -814277.06, -908849.8, 10513.952, -0.00392167, -0.0106885675, -813122.25, 8826.404, 0.0, 5.017946, 4.9568534 
9.2514426e+2, 2.2107993e+2, -774990.25, -884499.94, 8827.659, -0.00717467, -0.003028014, -774283.25, -875.5831, 0.0, 5.0185432, 4.94802 
9.251505e+2, 2.2602808e+2, -724218.44, -834720.94, 9280.545, -0.005857631, -0.003028631, -723444.44, 1474.0089, 0.0, 5.0190954, 4.9479218 
9.2515683e+2, 2.3097625e+2, -673333.0, -784672.3, 9548.634, -0.004338389, -0.0032209025, -672520.06, 3909.6582, 0.0, 5.0196457, 4.9479213 
9.251632e+2, 2.359244e+2, -623170.1, -736219.56, 9809.101, -0.0027471385, -0.003423174, -622325.3, 5615.6704, 0.0, 5.0201945, 4.947372 
9.2516726e+2, 2.4086818e+2, -582920.75, -709862.6, 6315.2993, -0.00008094352, 0.002830745, -582607.3, -3113.4985, 0.0, 5.0207024, 4.939181 
9.2516845e+2, 2.458076e+2, -531922.94, -659007.94, 6376.317, 0.0009170531, -0.00040680458, -531603.8, -518.65796, 0.0, 5.02113, 4.9394903 
9.251697e+2, 2.50747e+2, -481299.9, -609043.06, 6537.1636, 0.0019347061, -0.0043306663, -480966.25, 1710.1583, 0.0, 5.021569, 4.9394927 
9.251709e+2, 2.556864e+2, -430934.4, -559657.3, 6701.7764, 0.0030071961, -0.008391978, -430586.4, 3681.3345, 0.0, 5.0220065, 4.9392962 
9.251694e+2, 2.6062173e+2, -392381.8, -535634.7, 3021.5205, 0.0017314154, -0.0021797537, -392318.1, -6417.9937, 0.0, 5.022145, 4.930336 
9.2516506e+2, 2.6555327e+2, -343160.03, -484888.75, 3049.9656, -0.0011444925, -0.0005851308, -343094.4, -5519.523, 0.0, 5.02179, 4.930928 
9.251607e+2, 2.7048472e+2, -294709.88, -435843.25, 3201.4153, -0.004002693, 0.0005982428, -294637.3, -5386.8105, 0.0, 5.021421, 4.9309382 
9.2515635e+2, 2.7541623e+2, -246307.06, -386929.72, 3350.0906, -0.006619323, 0.0019605558, -246227.3, -5301.48, 0.0, 5.021051, 4.930901 
9.251498e+2, 2.8034243e+2, -213404.7, -372063.44, 70.49989, -0.010288356, 0.014494149, -213404.67, -20752.863, 0.0, 5.0203447, 4.9189925 
9.2514104e+2, 2.8526193e+2, -166101.86, -321867.28, -380.37466, -0.008547463, 0.008286044, -166100.94, -21663.436, 0.0, 5.019199, 4.9196873 
9.251324e+2, 2.9018116e+2, -119627.55, -273644.8, -613.2859, -0.005676662, -0.0010923835, -119625.1, -23399.643, 0.0, 5.018052, 4.9196887 
9.2512363e+2, 2.9510033e+2, -73127.12, -225405.31, -847.6663, -0.0026583367, -0.010812404, -73122.4, -25108.73, 0.0, 5.016904, 4.91969 
9.251151e+2, 3.0003917e+2, -3937.102, -89448.63, -1213.4924, 0.0032424205, -0.004049404, -3919.8848, -3919.8848, 0.0, 5.0156145, 4.960302 
9.251064e+2, 3.050054e+2, -1651.816, -75275.086, -687.0235, 0.002607406, -0.00012602036, -1645.4055, -1645.4055, 0.0, 5.0139112, 4.9661903 
9.2509747e+2, 3.099722e+2, -6367.056, -77408.71, -438.28082, 0.00065384415, 0.0024673685, -6364.352, -6364.352, 0.0, 5.0121613, 4.9661665 
9.250886e+2, 3.1493896e+2, -11078.792, -79550.75, -187.04378, -0.0012352862, 0.00490291, -11078.281, -11078.281, 0.0, 5.010409, 4.966142 
9.2998934e+2, 1.2161664e+2, -1735344.1, -1749436.5, -572.8314, 0.005735838, 0.012598667, -1735320.9, 12845.124, 0.0, 5.00403, 4.994691 
9.299923e+2, 1.2660725e+2, -1690481.3, -1712189.4, 2644.0916, -0.009636217, 0.01323847, -1690163.9, 9094.815, 0.0, 5.004737, 4.9904885 
9.2999756e+2, 1.3159736e+2, -1639351.9, -1662168.3, 2696.3765, -0.0018143038, 0.009693318, -1639037.5, 11318.439, 0.0, 5.0054407, 4.990472 
9.3000275e+2, 1.3658744e+2, -1590104.6, -1616091.8, 3558.5164, 0.0052995486, 0.007426455, -1589626.1, 11827.071, 0.0, 5.006141, 4.98916 
9.3000996e+2, 1.4157382e+2, -1547570.5, -1583942.1, 5743.4775, 0.005470523, 0.013834645, -1546685.1, 5901.0547, 0.0, 5.0067754, 4.9832315 
9.3001795e+2, 1.465569e+2, -1496490.5, -1533761.3, 5889.572, 0.004865187, 0.009479033, -1495582.0, 8168.156, 0.0, 5.007416, 4.983279 
9.300259e+2, 1.5153997e+2, -1445496.9, -1483749.1, 6115.93, 0.0042533367, 0.004901114, -1444542.9, 10371.429, 0.0, 5.0080547, 4.983276 
9.3003386e+2, 1.56523e+2, -1395675.9, -1436187.1, 6854.9775, 0.0037194008, 0.0007369154, -1394547.4, 11531.005, 0.0, 5.0086927, 4.9824634 
9.300437e+2, 1.6150169e+2, -1355327.9, -1408416.3, 8374.869, 0.00383961, 0.0018794189, -1354038.1, 3247.731, 0.0, 5.0093365, 4.9750223 
9.3005383e+2, 1.6647695e+2, -1304114.5, -1358340.8, 8562.957, 0.0032529365, 0.0024683923, -1302794.4, 5733.3257, 0.0, 5.0100465, 4.9749923 
9.3006396e+2, 1.7145218e+2, -1252872.5, -1308200.1, 8791.033, 0.0026946939, 0.00301973, -1251509.3, 8260.504, 0.0, 5.010757, 4.974989 
9.3007416e+2, 1.7642741e+2, -1202816.8, -1260533.4, 9145.092, 0.0022872046, 0.004050149, -1201402.5, 9609.321, 0.0, 5.011464, 4.9741635 
9.300848e+2, 1.8139793e+2, -1162445.5, -1233414.9, 9819.932, 0.003279053, 0.008575958, -1161111.8, 1188.1719, 0.0, 5.0122232, 4.9663534 
9.3009573e+2, 1.8636376e+2, -1110509.1, -1182902.5, 10126.004, 0.0037642466, 0.0015253944, -1109119.4, 4514.6533, 0.0, 5.0131664, 4.966346 
9.301065e+2, 1.9132957e+2, -1058542.9, -1132330.6, 10433.049, 0.0043589533, -0.005740433, -1057096.1, 7872.0137, 0.0, 5.0141134, 4.966364 
9.301173e+2, 1.9629543e+2, -1007705.25, -1084152.9, 10487.027, 0.0049463846, -0.012482426, -1006292.75, 10009.246, 0.0, 5.0150576, 4.965577 
9.30127e+2, 2.0125712e+2, -966552.4, -1056375.3, 10253.429, 0.0037099167, -0.010647476, -965396.8, 2279.3176, 0.0, 5.015886, 4.9578886 
9.301367e+2, 2.0621526e+2, -915141.06, -1005832.7, 10643.283, 0.0024251193, -0.011560135, -913908.75, 5175.8447, 0.0, 5.01658, 4.958006 
9.301462e+2, 2.1117342e+2, -863909.9, -955641.6, 10974.638, 0.0011473679, -0.012356057, -862615.1, 7877.558, 0.0, 5.017269, 4.9580107 
9.301558e+2, 2.161316e+2, -813652.1, -907556.8, 11044.457, -0.000056331122, -0.012823812, -812370.6, 9530.017, 0.0, 5.017956, 4.957299 
9.301634e+2, 2.210852e+2, -774513.1, -883418.4, 9255.666, -0.0010309551, -0.0041218987, -773732.1, -377.42273, 0.0, 5.018539, 4.9483914 
9.301702e+2, 2.2603388e+2, -723777.1, -833717.5, 9705.5, -0.00070780393, -0.0026850428, -722926.9, 1934.2019, 0.0, 5.0190916, 4.9482675 
9.301769e+2, 2.3098253e+2, -672893.3, -783674.4, 9978.577, -0.00036289616, -0.0014028562, -672001.7, 4366.2734, 0.0, 5.019643, 4.9482665 
9.301837e+2, 2.3593117e+2, -622748.6, -735264.2, 10250.915, -0.000027938775, -0.00011957079, -621822.3, 6052.542, 0.0, 5.0201926, 4.9477034 
9.3018806e+2, 2.4087517e+2, -582570.8, -709204.2, 6663.385, 0.0003062629, 0.0056370934, -582221.2, -2795.3948, 0.0, 5.0207195, 4.9394054 
9.3018955e+2, 2.458146e+2, -531591.06, -658378.75, 6731.8286, 0.00052766607, 0.00038767912, -531234.6, -217.5478, 0.0, 5.0211463, 4.939707 
9.3019116e+2, 2.50754e+2, -480975.34, -608414.5, 6901.1577, 0.0006861832, -0.005607365, -480602.72, 2005.6425, 0.0, 5.021583, 4.93971 
9.3019277e+2, 2.556934e+2, -430617.84, -559031.06, 7074.34, 0.00079643173, -0.011702394, -430229.28, 3970.4023, 0.0, 5.0220194, 4.939514 
9.3019146e+2, 2.606288e+2, -392257.47, -535355.75, 2819.317, -0.00027867893, -0.0064010206, -392201.94, -6370.28, 0.0, 5.022145, 4.9304347 
9.3018675e+2, 2.6556072e+2, -342922.94, -484371.9, 2771.054, -0.0021735702, -0.0021915373, -342868.7, -5366.723, 0.0, 5.021793, 4.9311104 
9.301821e+2, 2.7049267e+2, -294466.6, -435328.84, 2936.1858, -0.004170473, 0.0020075073, -294405.44, -5232.9336, 0.0, 5.0214267, 4.93112 
9.301775e+2, 2.7542466e+2, -246057.61, -386417.75, 3098.5413, -0.0060382537, 0.0063794903, -245989.23, -5146.48, 0.0, 5.021059, 4.9310813 
9.301702e+2, 2.803511e+2, -213335.66, -371994.25, -794.633, -0.00997479, 0.019716406, -213331.67, -20765.424, 0.0, 5.0203567, 4.919017 
9.301602e+2, 2.8527036e+2, -166354.73, -322562.56, -1266.0957, -0.009146937, 0.01287296, -166344.47, -21988.297, 0.0, 5.0192127, 4.919444 
9.301503e+2, 2.9018924e+2, -119878.69, -274343.03, -1482.92, -0.0075063305, 0.0030331633, -119864.45, -23715.377, 0.0, 5.0180664, 4.9194446 
9.301403e+2, 2.951081e+2, -73376.52, -226106.4, -1701.2229, -0.0058301063, -0.0070961015, -73357.58, -25415.375, 0.0, 5.016918, 4.919445 
9.301305e+2, 3.0004686e+2, -3710.8765, -89214.87, -2400.4563, 0.00009207362, 0.0008338491, -3643.5386, -3643.5386, 0.0, 5.015651, 4.9603868 
9.301202e+2, 3.0501357e+2, -1011.9799, -74083.88, -2021.7285, 0.0014642318, 0.0062565957, -956.0862, -956.0862, 0.0, 5.0139494, 4.966626 
9.301098e+2, 3.0998102e+2, -5726.182, -76207.13, -1746.8224, 0.0015877642, 0.010787622, -5682.915, -5682.915, 0.0, 5.012198, 4.966605 
9.3009937e+2, 3.1494838e+2, -10436.878, -78338.79, -1469.4355, 0.0015197633, 0.015111272, -10405.093, -10405.093, 0.0, 5.0104446, 4.9665837 
9.349932e+2, 1.2161547e+2, -1734741.4, -1748549.4, -92.66155, 0.0037575327, 0.016246328, -1734740.8, 13437.23, 0.0, 5.0040817, 4.994969 
9.349967e+2, 1.2660605e+2, -1689872.3, -1711317.5, 3149.9124, -0.013091889, 0.013791026, -1689419.1, 9851.886, 0.0, 5.004793, 4.990761 
9.3500274e+2, 1.3159642e+2, -1638737.3, -1661311.1, 3215.2893, -0.003994368, 0.010319554, -1638288.3, 12077.255, 0.0, 5.0055013, 4.9907393 
9.350087e+2, 1.3658677e+2, -1589540.4, -1615342.4, 4081.9036, 0.004021994, 0.008006, -1588910.0, 12550.136, 0.0, 5.006202, 4.9893937 
9.350166e+2, 1.4157334e+2, -1547014.6, -1582980.9, 6231.169, 0.004189352, 0.013743156, -1545965.6, 6625.5317, 0.0, 5.0068026, 4.9835486 
9.3502545e+2, 1.4655665e+2, -1495930.5, -1532781.9, 6380.942, 0.0056540323, 0.008662042, -1494856.9, 8895.476, 0.0, 5.007442, 4.9836035 
9.350342e+2, 1.5153994e+2, -1444941.8, -1482770.0, 6610.88, 0.0071101487, 0.0033123435, -1443819.8, 11094.113, 0.0, 5.00808, 4.983601 
9.350431e+2, 1.5652323e+2, -1395129.4, -1435210.1, 7342.0684, 0.008599768, -0.001631876, -1393826.8, 12248.545, 0.0, 5.0087166, 4.982789 
9.350536e+2, 1.6150223e+2, -1354851.3, -1407499.0, 8903.541, 0.00932138, -0.00053024176, -1353386.4, 3893.1624, 0.0, 5.0093474, 4.975328 
9.3506426e+2, 1.664779e+2, -1303669.6, -1357475.0, 9102.122, 0.006573856, 0.0014774561, -1302171.5, 6346.1855, 0.0, 5.010056, 4.975282 
9.3507487e+2, 1.7145358e+2, -1252434.1, -1307333.6, 9334.806, 0.0037233538, 0.0035069413, -1250890.3, 8865.715, 0.0, 5.010765, 4.9752803 
9.350856e+2, 1.7642926e+2, -1202367.1, -1259626.6, 9638.442, 0.00097545667, 0.006058347, -1200788.3, 10205.997, 0.0, 5.011471, 4.974469 
9.350968e+2, 1.8140022e+2, -1161840.6, -1232208.8, 10498.211, -0.000029336257, 0.011429966, -1160307.9, 1970.5299, 0.0, 5.012234, 4.966759 
9.351085e+2, 1.8636629e+2, -1109886.5, -1181660.9, 10841.731, -0.0006538314, 0.0026773757, -1108284.5, 5324.899, 0.0, 5.013179, 4.966765 
9.351201e+2, 1.9133236e+2, -1057922.1, -1131095.5, 11152.961, -0.001206664, -0.006371351, -1056259.9, 8680.654, 0.0, 5.014127, 4.966782 
9.351317e+2, 1.9629844e+2, -1007046.7, -1082835.3, 11193.304, -0.0018308362, -0.014967076, -1005428.1, 10843.402, 0.0, 5.0150714, 4.966025 
9.3514234e+2, 2.0126037e+2, -965929.7, -1055077.3, 10829.669, -0.0026200437, -0.015200161, -964632.94, 3009.8123, 0.0, 5.0158925, 4.9583316 
9.3515295e+2, 2.06219e+2, -914522.2, -1004546.8, 11189.037, -0.00046371523, -0.0154024735, -913152.4, 5893.986, 0.0, 5.016588, 4.9584455 
9.3516356e+2, 2.1117768e+2, -863291.9, -954361.0, 11525.336, 0.0017492232, -0.015425994, -861855.9, 8593.675, 0.0, 5.0172787, 4.9584503 
9.3517417e+2, 2.1613635e+2, -813064.9, -906341.7, 11569.14, 0.003954941, -0.01510618, -811651.4, 10201.202, 0.0, 5.017966, 4.9577174 
9.351826e+2, 2.2109048e+2, -774043.0, -882349.0, 9681.986, 0.0049816426, -0.0051819114, -773184.3, 117.48055, 0.0, 5.0185347, 4.948757 
9.351898e+2, 2.2603965e+2, -723337.2, -832713.06, 10131.667, 0.004301571, -0.0023539441, -722406.56, 2397.2554, 0.0, 5.0190883, 4.948612 
9.35197e+2, 2.3098879e+2, -672455.0, -782675.5, 10409.735, 0.0034610536, 0.00033979432, -671480.5, 4825.8423, 0.0, 5.01964, 4.9486103 
9.352042e+2, 2.3593791e+2, -622326.56, -734304.0, 10701.939, 0.0025272216, 0.0030448253, -621312.94, 6495.9775, 0.0, 5.020191, 4.948035 
9.3520886e+2, 2.4088219e+2, -582232.44, -708568.2, 7016.489, 0.00062912743, 0.0086601125, -581843.94, -2486.4324, 0.0, 5.0207367, 4.9396205 
9.3521076e+2, 2.4582162e+2, -531260.9, -657748.44, 7085.2627, 0.000044772016, 0.0013256978, -530865.25, 83.63192, 0.0, 5.0211625, 4.9399214 
9.3521273e+2, 2.5076103e+2, -480652.47, -607784.75, 7263.0737, -0.0006633104, -0.006871081, -480238.88, 2301.3408, 0.0, 5.021598, 4.9399257 
9.352146e+2, 2.5570044e+2, -430302.97, -558403.56, 7444.8267, -0.0015228029, -0.015130427, -429871.75, 4259.8228, 0.0, 5.0220323, 4.93973 
9.352135e+2, 2.6063585e+2, -392186.88, -535194.56, 2608.207, -0.0021434345, -0.0102178715, -392139.3, -6376.4067, 0.0, 5.0221443, 4.930491 
9.3520856e+2, 2.6556823e+2, -342687.63, -483853.78, 2494.862, -0.0031266357, -0.0034205075, -342643.53, -5214.886, 0.0, 5.0217953, 4.93129 
9.352036e+2, 2.7050063e+2, -294225.03, -434813.1, 2673.6746, -0.004306494, 0.0035069317, -294174.22, -5079.9907, 0.0, 5.021432, 4.9312983 
9.3519866e+2, 2.7543306e+2, -245809.84, -385904.4, 2849.7097, -0.0054696705, 0.010601393, -245751.9, -4992.382, 0.0, 5.021067, 4.931259 
9.351906e+2, 2.8035977e+2, -213376.39, -372174.16, -1657.8983, -0.009639225, 0.025080314, -213359.08, -20878.416, 0.0, 5.0203686, 4.9189525 
9.3517935e+2, 2.8527877e+2, -166609.69, -323256.13, -2149.1958, -0.009761426, 0.017676994, -166580.2, -22305.375, 0.0, 5.019227, 4.9191985 
9.3516815e+2, 2.901973e+2, -120131.89, -275039.47, -2349.932, -0.009355679, 0.007007993, -120096.25, -24023.445, 0.0, 5.0180807, 4.9191976 
9.35157e+2, 2.951159e+2, -73627.95, -226805.73, -2552.1555, -0.009026212, -0.003897998, -73585.44, -25714.47, 0.0, 5.016933, 4.9191966 
9.3514585e+2, 3.0005452e+2, -3609.9243, -89268.94, -3572.8513, -0.002878154, 0.0056923344, -3461.1584, -3461.1584, 0.0, 5.0156884, 4.960364 
9.351342e+2, 3.0502176e+2, -375.9025, -72889.31, -3360.3022, 0.00042469706, 0.012570099, -220.51762, -220.51762, 0.0, 5.0139875, 4.967057 
9.351222e+2, 3.0998978e+2, -5089.066, -75002.2, -3059.2334, 0.0025831216, 0.018540803, -4955.4565, -4955.4565, 0.0, 5.0122356, 4.967039 
9.3511015e+2, 3.1495774e+2, -9798.721, -77123.49, -2755.6978, 0.00429409, 0.024255246, -9686.114, -9686.114, 0.0, 5.0104814, 4.967021 
9.399972e+2, 1.21614404e+2, -1735602.4, -1748319.3, 502.61484, 0.0019883711, 0.021104677, -1735582.5, 12606.306, 0.0, 5.003657, 4.9952564 
9.4000125e+2, 1.2660484e+2, -1690350.6, -1710881.6, 3855.866, -0.015432621, 0.014252342, -1689650.4, 9632.876, 0.0, 5.004492, 4.9910536 
9.4000804e+2, 1.315955e+2, -1639081.1, -1660798.4, 4077.1199, -0.005353036, 0.010796222, -1638340.9, 12033.798, 0.0, 5.005243, 4.991036 
9.400148e+2, 1.3658616e+2, -1590044.3, -1615002.0, 5098.1436, 0.0033292319, 0.008524292, -1589043.0, 12423.213, 0.0, 5.005912, 4.989649 
9.4002324e+2, 1.4157295e+2, -1547518.0, -1582525.0, 7354.3047, 0.0030410665, 0.013872962, -1546035.8, 6559.273, 0.0, 5.0064836, 4.9838624 
9.400329e+2, 1.465565e+2, -1496308.9, -1532246.4, 7479.3335, 0.00618119, 0.0080835465, -1494814.4, 8939.144, 0.0, 5.007161, 4.9839244 
9.4004256e+2, 1.5154003e+2, -1445237.6, -1482187.9, 7684.7026, 0.009315634, 0.0020075561, -1443703.1, 11209.267, 0.0, 5.007827, 4.983924 
9.400523e+2, 1.5652354e+2, -1395392.8, -1434638.3, 8371.772, 0.012457517, -0.0036347068, -1393681.5, 12389.654, 0.0, 5.00848, 4.9831004 
9.400634e+2, 1.6150285e+2, -1355104.6, -1406960.9, 9931.217, 0.01372722, -0.0026068809, -1353267.8, 4004.6782, 0.0, 5.009117, 4.9756274 
9.4007456e+2, 1.6647892e+2, -1303981.8, -1356980.3, 10075.194, 0.009273841, 0.00033429163, -1302131.1, 6376.2026, 0.0, 5.0098124, 4.9755726 
9.400858e+2, 1.7145498e+2, -1252810.9, -1306851.4, 10254.437, 0.0046199774, 0.003399415, -1250930.5, 8811.602, 0.0, 5.0104995, 4.975576 
9.40097e+2, 1.7643107e+2, -1202827.8, -1259152.0, 10465.299, 0.000026328189, 0.007105613, -1200946.1, 10030.643, 0.0, 5.0111747, 4.9747744 
9.401088e+2, 1.8140247e+2, -1162401.3, -1231559.5, 11467.969, -0.0025872278, 0.013361685, -1160549.3, 1707.627, 0.0, 5.0118537, 4.967157 
9.4012123e+2, 1.8636885e+2, -1110938.8, -1181202.5, 11845.683, -0.004102707, 0.003479424, -1108995.5, 4588.9, 0.0, 5.0126204, 4.967181 
9.4013375e+2, 1.9133522e+2, -1059518.4, -1130888.6, 12175.067, -0.0055540153, -0.006729272, -1057498.6, 7413.314, 0.0, 5.0133805, 4.9672003 
9.401462e+2, 1.9630161e+2, -1009158.0, -1082777.4, 12221.164, -0.007088221, -0.016516687, -1007182.25, 9057.06, 0.0, 5.014128, 4.9664817 
9.401576e+2, 2.0126387e+2, -968484.44, -1055321.9, 11775.393, -0.007262682, -0.018300781, -966916.0, 691.29236, 0.0, 5.0148196, 4.9587445 
9.401692e+2, 2.0622294e+2, -917084.7, -1004805.44, 12011.84, -0.0023317172, -0.01812007, -915469.6, 3537.1042, 0.0, 5.0155134, 4.9588513 
9.401808e+2, 2.1118206e+2, -865881.75, -954624.4, 12256.786, 0.0027431087, -0.017723097, -864220.0, 6185.7534, 0.0, 5.016192, 4.958856 
9.401924e+2, 2.161412e+2, -815774.2, -906743.56, 12185.143, 0.007801672, -0.016946033, -814170.25, 7634.2876, 0.0, 5.016854, 4.9580836 
9.402015e+2, 2.2109576e+2, -776519.0, -882667.5, 10206.8955, 0.010213107, -0.006143259, -775546.44, -2296.8062, 0.0, 5.0174956, 4.949126 
9.4020915e+2, 2.2604537e+2, -725480.44, -832877.44, 10699.808, 0.00854348, -0.0025810127, -724424.8, 322.5812, 0.0, 5.0181637, 4.94898 
9.4021684e+2, 2.3099494e+2, -674328.1, -782710.8, 11030.114, 0.006662919, 0.00088423735, -673217.0, 3028.5557, 0.0, 5.0188084, 4.9489784 
9.402245e+2, 2.3594452e+2, -624005.56, -734266.4, 11405.022, 0.004725823, 0.0043875375, -622838.2, 4905.55, 0.0, 5.0194306, 4.948395 
9.4022954e+2, 2.4088907e+2, -584084.4, -708911.8, 7604.801, 0.00092848745, 0.009918108, -583622.8, -4333.0454, 0.0, 5.019993, 4.9398303 
9.402318e+2, 2.4582858e+2, -533279.1, -658216.94, 7529.944, -0.00043276537, 0.0013059544, -532826.94, -1946.1718, 0.0, 5.0203667, 4.9401093 
9.402341e+2, 2.5076807e+2, -482881.1, -608351.8, 7560.994, -0.001835088, -0.008229383, -482427.1, 44.824856, 0.0, 5.0207253, 4.9401126 
9.402364e+2, 2.557075e+2, -432799.06, -559094.5, 7594.273, -0.0033636696, -0.017811693, -432344.06, 1719.01, 0.0, 5.0210624, 4.9399157 
9.402355e+2, 2.6064306e+2, -395006.22, -536381.94, 2118.2146, -0.0032040093, -0.012400219, -394974.5, -9280.93, 0.0, 5.0211325, 4.930518 
9.4023025e+2, 2.6557574e+2, -345063.25, -484520.72, 1903.5531, -0.0034323316, -0.003761525, -345037.28, -7681.832, 0.0, 5.0208726, 4.9314575 
9.40225e+2, 2.7050853e+2, -296451.8, -435441.7, 2006.2379, -0.0037581776, 0.004817235, -296422.84, -7405.758, 0.0, 5.020561, 4.9314556 
9.4021976e+2, 2.754413e+2, -248016.23, -386548.97, 2087.4614, -0.004031621, 0.013444495, -247984.78, -7306.0933, 0.0, 5.0202036, 4.931407 
9.40211e+2, 2.8036806e+2, -215957.94, -373632.3, -3103.8362, -0.00816983, 0.028498802, -215896.86, -23498.295, 0.0, 5.019493, 4.9188213 
9.401985e+2, 2.8528687e+2, -169285.19, -324970.0, -3603.1558, -0.00937073, 0.020945868, -169201.83, -25005.564, 0.0, 5.0183563, 4.9189706 
9.40186e+2, 2.902052e+2, -122856.23, -276781.97, -3798.0488, -0.010167601, 0.009808627, -122762.57, -26764.135, 0.0, 5.01719, 4.918967 
9.4017357e+2, 2.9512352e+2, -76491.2, -228611.78, -4002.652, -0.011005125, -0.0014412015, -76385.95, -28585.236, 0.0, 5.0159907, 4.9189634 
9.401612e+2, 3.0006212e+2, -6255.1343, -90603.29, -5186.8623, -0.004518231, 0.010747464, -5937.3735, -5937.3735, 0.0, 5.0147495, 4.960282 
9.4014794e+2, 3.0502975e+2, -1754.6104, -72532.414, -5058.385, -0.00015816947, 0.018522564, -1394.923, -1394.923, 0.0, 5.0133, 4.9674797 
9.4013447e+2, 3.099983e+2, -5950.35, -74401.01, -4711.3525, 0.0035398677, 0.024954662, -5627.5967, -5627.5967, 0.0, 5.011741, 4.9674664 
9.40121e+2, 3.1496677e+2, -10395.351, -76383.26, -4343.6523, 0.006998196, 0.031176316, -10110.658, -10110.658, 0.0, 5.0100875, 4.9674525 
9.4500005e+2, 1.2161074e+2, -1742260.5, -1750782.3, -1877.9808, 0.0068370923, 0.018291367, -1741865.0, 6358.9546, 0.0, 5.001329, 4.995562 
9.450048e+2, 1.2660173e+2, -1696612.8, -1712917.5, 1177.2214, -0.012523868, 0.012959061, -1696528.3, 2784.761, 0.0, 5.0022664, 4.991432 
9.4501233e+2, 1.3159293e+2, -1644766.0, -1662410.5, 1212.2094, -0.0037170295, 0.010682273, -1644683.1, 5716.097, 0.0, 5.0031953, 4.991451 
9.450197e+2, 1.365842e+2, -1594894.4, -1616092.5, 2022.4146, 0.003801498, 0.010052387, -1594703.1, 6781.6914, 0.0, 5.0041223, 4.9901032 
9.450288e+2, 1.4157137e+2, -1551733.4, -1583874.8, 4244.9194, 0.002499045, 0.01543082, -1551182.3, 1427.6886, 0.0, 5.0049267, 4.9841776 
9.4503903e+2, 1.4655517e+2, -1500289.0, -1533492.8, 4377.6484, 0.004995727, 0.009511301, -1499721.6, 4044.6438, 0.0, 5.0056844, 4.9842305 
9.450494e+2, 1.5153897e+2, -1448936.6, -1483290.3, 4588.911, 0.007471717, 0.00341806, -1448334.3, 6588.474, 0.0, 5.006441, 4.98423 
9.450597e+2, 1.5652277e+2, -1398742.0, -1435553.5, 5287.141, 0.00993723, -0.0021180944, -1397997.8, 8081.305, 0.0, 5.0072007, 4.9834175 
9.450716e+2, 1.6150229e+2, -1357897.6, -1407692.4, 6917.512, 0.011127791, -0.0017713117, -1356954.5, 323.5412, 0.0, 5.0079956, 4.9759593 
9.450837e+2, 1.664785e+2, -1306486.8, -1357505.5, 7221.169, 0.007872209, -0.0003581739, -1305484.4, 3026.9155, 0.0, 5.0087843, 4.975923 
9.450957e+2, 1.7145474e+2, -1255007.4, -1307171.0, 7548.0317, 0.004458179, 0.0013969422, -1253937.1, 5806.9536, 0.0, 5.0095725, 4.975943 
9.451077e+2, 1.7643104e+2, -1204649.1, -1259165.5, 7879.068, 0.0010760247, 0.0039719567, -1203533.3, 7443.115, 0.0, 5.0103545, 4.9751887 
9.451203e+2, 1.8140282e+2, -1163923.3, -1231171.6, 9063.58, -0.000753051, 0.00941821, -1162723.0, -470.46854, 0.0, 5.011075, 4.9676614 
9.451335e+2, 1.8636997e+2, -1112489.0, -1180789.4, 9601.81, -0.0020452777, 0.0022155738, -1111164.9, 2407.6897, 0.0, 5.0118256, 4.967698 
9.451467e+2, 1.9133714e+2, -1061083.3, -1130447.5, 10081.435, -0.0033048545, -0.005131275, -1059647.8, 5244.471, 0.0, 5.0125737, 4.9677286 
9.4515985e+2, 1.9630437e+2, -1010587.56, -1082043.0, 10240.955, -0.00464812, -0.012034484, -1009148.8, 7062.693, 0.0, 5.013319, 4.9671087 
9.4517195e+2, 2.0126733e+2, -970008.06, -1055072.1, 10102.814, -0.0052091093, -0.012751148, -968824.7, -1251.8834, 0.0, 5.0140524, 4.9591966 
9.4518423e+2, 2.062267e+2, -918433.7, -1004594.44, 10537.155, -0.0009487083, -0.013723288, -917163.75, 1806.622, 0.0, 5.014831, 4.9592485 
9.4519645e+2, 2.1118608e+2, -866927.8, -954254.94, 10967.239, 0.0035078586, -0.0145248, -865571.5, 4796.1343, 0.0, 5.0156107, 4.9592595 
9.452087e+2, 2.161455e+2, -816360.56, -905971.75, 11112.461, 0.008022057, -0.014978614, -815003.1, 6761.5444, 0.0, 5.016391, 4.9585714 
9.452186e+2, 2.211004e+2, -775887.6, -880855.1, 9662.152, 0.010192385, -0.0070681977, -775005.6, -1798.9899, 0.0, 5.017311, 4.9498844 
9.45227e+2, 2.2605065e+2, -724149.06, -830528.3, 10790.836, 0.008234976, -0.0053622825, -723065.5, 1630.9038, 0.0, 5.018191, 4.9498277 
9.4523555e+2, 2.3100089e+2, -672351.2, -780044.44, 11762.221, 0.0062086033, -0.0035971713, -671081.5, 5104.745, 0.0, 5.019068, 4.9498324 
9.4524395e+2, 2.3595114e+2, -621315.4, -731244.25, 12819.765, 0.0042712404, -0.0016986988, -619840.1, 7835.8223, 0.0, 5.019945, 4.94926 
9.4524974e+2, 2.4089627e+2, -581269.9, -706601.44, 9428.482, 0.000901699, 0.0027479902, -580564.56, -1349.2961, 0.0, 5.020774, 4.940295 
9.452525e+2, 2.4583639e+2, -529715.9, -655870.75, 9852.112, -0.00029779688, -0.0027450013, -528951.06, 1850.8188, 0.0, 5.0214887, 4.940438 
9.452554e+2, 2.5077653e+2, -478354.34, -605559.3, 10369.757, -0.0012372975, -0.008512107, -477514.53, 4873.929, 0.0, 5.022201, 4.9404435 
9.4525826e+2, 2.5571665e+2, -427258.8, -555845.5, 10891.611, -0.0020153644, -0.014120198, -426342.78, 7632.0557, 0.0, 5.0229115, 4.940246 
9.452574e+2, 2.606526e+2, -388745.2, -532761.25, 5424.747, -0.0021239223, -0.00758605, -388541.13, -2938.4421, 0.0, 5.0232277, 4.9308686 
9.452521e+2, 2.6558533e+2, -338520.75, -480709.34, 5528.676, -0.0013344365, -0.0021606265, -338306.13, -1042.6874, 0.0, 5.023062, 4.931843 
9.452468e+2, 2.7051803e+2, -289553.0, -431510.22, 5986.276, -0.00035741169, 0.0028110093, -289301.0, -376.756, 0.0, 5.0228896, 4.931831 
9.4524145e+2, 2.754507e+2, -240633.5, -382448.97, 6451.086, 0.0007217835, 0.0075846515, -240340.66, 244.75728, 0.0, 5.022715, 4.9317718 
9.4523203e+2, 2.8037748e+2, -209327.39, -370483.25, 756.54034, -0.0018120896, 0.020290436, -209323.84, -17018.936, 0.0, 5.0218415, 4.9189115 
9.45218e+2, 2.852965e+2, -164195.38, -322684.97, 605.8312, -0.0039492496, 0.014878182, -164193.06, -20091.904, 0.0, 5.0201883, 4.9189873 
9.452041e+2, 2.902151e+2, -119100.58, -275094.06, 775.49146, -0.005805639, 0.007104125, -119096.73, -23195.527, 0.0, 5.0185437, 4.918985 
9.4519013e+2, 2.951338e+2, -73972.414, -227475.84, 942.8185, -0.0075337486, -0.00035876065, -73966.625, -26265.613, 0.0, 5.0168977, 4.9189825 
9.451759e+2, 3.0007267e+2, -5342.8413, -89255.38, -260.20303, -0.0039123427, 0.0125810625, -5342.0347, -5342.0347, 0.0, 5.0149336, 4.960676 
9.4516057e+2, 3.0504057e+2, -3254.3855, -72150.94, -284.63785, -0.0014837703, 0.019609634, -3253.2095, -3253.2095, 0.0, 5.0125837, 4.9679 
9.451451e+2, 3.1000933e+2, -9549.529, -74889.61, -181.16888, 0.0008049803, 0.024893165, -9549.027, -9549.027, 0.0, 5.0102386, 4.967902 
9.451295e+2, 3.149781e+2, -15842.25, -77639.37, -67.58603, 0.003115139, 0.029547563, -15842.176, -15842.176, 0.0, 5.00789, 4.9679046 
9.500019e+2, 1.2160463e+2, -1741572.3, -1749822.3, -1106.1367, 0.0108793685, 0.012351319, -1741426.5, 6856.2813, 0.0, 5.0013943, 4.995863 
9.500073e+2, 1.2659606e+2, -1695966.8, -1712021.8, 1838.8978, -0.010717793, 0.008843174, -1695758.9, 3608.561, 0.0, 5.002329, 4.9917135 
9.500156e+2, 1.3158776e+2, -1644135.4, -1661530.0, 1889.8011, -0.002943962, 0.008730626, -1643932.5, 6516.5566, 0.0, 5.003256, 4.99173 
9.500238e+2, 1.3657951e+2, -1594238.1, -1615126.0, 2718.0354, 0.003341306, 0.010223673, -1593890.3, 7639.659, 0.0, 5.0041776, 4.9904137 
9.500336e+2, 1.4156704e+2, -1551154.1, -1582891.8, 4801.3027, 0.0011577653, 0.01590274, -1550443.8, 2208.059, 0.0, 5.0049567, 4.9845037 
9.500446e+2, 1.4655116e+2, -1499735.0, -1532545.0, 4939.3076, 0.002543449, 0.010299422, -1499007.5, 4797.7314, 0.0, 5.005712, 4.984547 
9.500555e+2, 1.5153526e+2, -1448394.6, -1482351.0, 5156.365, 0.0038595889, 0.004514319, -1447628.9, 7329.9683, 0.0, 5.006467, 4.984546 
9.500664e+2, 1.565194e+2, -1398199.9, -1434587.8, 5881.133, 0.005089516, -0.0006872202, -1397272.9, 8839.484, 0.0, 5.007223, 4.9837446 
9.500791e+2, 1.6149922e+2, -1357207.3, -1406344.4, 7486.914, 0.005991222, -0.0009273126, -1356091.8, 1216.7383, 0.0, 5.0080094, 4.976413 
9.5009214e+2, 1.6647567e+2, -1305790.4, -1356142.4, 7796.122, 0.0047426177, -0.0016212503, -1304610.9, 3928.1396, 0.0, 5.008798, 4.9763837 
9.501052e+2, 1.7145213e+2, -1254317.1, -1305817.3, 8129.4126, 0.0033663707, -0.0020161625, -1253064.4, 6704.821, 0.0, 5.0095863, 4.9764023 
9.501182e+2, 1.7642865e+2, -1203893.0, -1257659.0, 8454.086, 0.0019415186, -0.0016937193, -1202595.0, 8403.913, 0.0, 5.010367, 4.9757004 
9.501316e+2, 1.8140087e+2, -1163056.6, -1229320.1, 9638.204, 0.0010931928, 0.0024004928, -1161683.1, 587.29553, 0.0, 5.0110745, 4.9682875 
9.5014554e+2, 1.86369e+2, -1111623.0, -1178932.1, 10172.361, -0.00002515991, -0.0011798058, -1110119.3, 3461.6106, 0.0, 5.0118246, 4.968329 
9.501595e+2, 1.9133718e+2, -1060224.3, -1128598.1, 10657.208, -0.0012295444, -0.004783044, -1058601.6, 6289.3096, 0.0, 5.012573, 4.968359 
9.501734e+2, 1.9630541e+2, -1009591.7, -1079896.5, 10803.658, -0.002598591, -0.00797586, -1007968.94, 8231.625, 0.0, 5.0133185, 4.967842 
9.501862e+2, 2.0126931e+2, -969125.1, -1053242.8, 10673.082, -0.003666845, -0.006696285, -967792.0, -238.87852, 0.0, 5.0140624, 4.9598203 
9.501992e+2, 2.0622912e+2, -917633.9, -1002943.06, 11122.214, -0.00027715348, -0.008574284, -916207.6, 2739.5396, 0.0, 5.014842, 4.9598136 
9.502121e+2, 2.1118897e+2, -866131.5, -952611.5, 11559.181, 0.0032024959, -0.010408159, -864613.1, 5728.014, 0.0, 5.0156226, 4.959824 
9.5022506e+2, 2.1614884e+2, -815413.06, -904003.9, 11775.06, 0.0066733393, -0.011954557, -813874.7, 7860.1885, 0.0, 5.0164046, 4.9592485 
9.502358e+2, 2.2110434e+2, -774344.2, -877580.0, 10314.192, 0.008405236, -0.0070566875, -773323.8, -152.5739, 0.0, 5.017326, 4.9510093 
9.5024514e+2, 2.2605559e+2, -722463.44, -826921.94, 11450.629, 0.0061129113, -0.0074262307, -721222.94, 3426.0896, 0.0, 5.0182056, 4.951071 
9.502544e+2, 2.3100685e+2, -670677.75, -776445.7, 12431.679, 0.0036522613, -0.0077472064, -669236.25, 6890.4473, 0.0, 5.019083, 4.9510775 
9.502637e+2, 2.3595813e+2, -619621.0, -727581.25, 13564.23, 0.0011878604, -0.007910823, -617942.9, 9661.272, 0.0, 5.01996, 4.9505315 
9.502704e+2, 2.4090429e+2, -580259.7, -704335.9, 9939.313, -0.0009332976, -0.004017725, -579468.56, -336.1562, 0.0, 5.020774, 4.941081 
9.50274e+2, 2.458455e+2, -528868.44, -653964.9, 10394.953, -0.000978036, -0.005369984, -528010.5, 2699.6638, 0.0, 5.021489, 4.941102 
9.502776e+2, 2.5078672e+2, -477519.06, -603660.44, 10926.223, -0.00095054164, -0.006580342, -476579.63, 5708.2754, 0.0, 5.0222, 4.9411077 
9.502813e+2, 2.5572798e+2, -426440.25, -553964.06, 11462.03, -0.000911602, -0.0075256457, -425418.22, 8447.114, 0.0, 5.0229096, 4.9409075 
9.502807e+2, 2.6066455e+2, -387969.9, -531106.3, 5340.401, -0.0020206247, -0.00063651195, -387770.94, -2282.6592, 0.0, 5.023243, 4.9314475 
9.502753e+2, 2.6559737e+2, -337702.6, -478950.9, 5418.6416, -0.00013820981, 0.00014515364, -337495.03, -348.1995, 0.0, 5.0230784, 4.9324617 
9.5026994e+2, 2.7053025e+2, -288749.06, -429745.13, 5895.689, 0.0019533073, 0.0002444921, -288502.97, 302.34656, 0.0, 5.022902, 4.932455 
9.502646e+2, 2.7546304e+2, -239843.95, -380677.47, 6379.9487, 0.003944699, 0.00026144882, -239555.53, 908.45984, 0.0, 5.0227237, 4.9324007 
9.502545e+2, 2.803901e+2, -208968.33, -369798.06, -490.6463, 0.0037124811, 0.0120949345, -208966.83, -16787.22, 0.0, 5.0218606, 4.919153 
9.5023876e+2, 2.8530967e+2, -163801.31, -321969.25, -644.66095, 0.0006832713, 0.009577674, -163798.67, -19827.371, 0.0, 5.0202146, 4.91924 
9.50223e+2, 2.9022887e+2, -118705.555, -274382.94, -459.48083, -0.002628809, 0.005510323, -118704.195, -22937.87, 0.0, 5.0185714, 4.9192367 
9.5020723e+2, 2.9514813e+2, -73576.44, -226769.38, -276.63885, -0.0060145864, 0.0018148154, -73575.945, -26014.88, 0.0, 5.0169263, 4.9192333 
9.501906e+2, 3.0008718e+2, -4618.7646, -88001.586, -2053.012, -0.006879262, 0.01253875, -4568.247, -4568.247, 0.0, 5.014991, 4.9611325 
9.501728e+2, 3.0505526e+2, -2789.8806, -71498.21, -2065.6917, -0.006024574, 0.01883916, -2727.8323, -2727.8323, 0.0, 5.01264, 4.9681387 
9.501548e+2, 3.1002426e+2, -9092.859, -74214.914, -1924.758, -0.0053893873, 0.023896294, -9036.0205, -9036.0205, 0.0, 5.01029, 4.9681487 
9.501368e+2, 3.149932e+2, -15393.402, -76942.71, -1773.7427, -0.0052513075, 0.028408611, -15342.328, -15342.328, 0.0, 5.007937, 4.9681582 
9.5500386e+2, 1.2159883e+2, -1740873.5, -1748823.8, -344.65277, 0.01518716, 0.009894281, -1740858.5, 7480.0933, 0.0, 5.0014596, 4.9961724 
9.550099e+2, 1.2659042e+2, -1695326.9, -1711121.5, 2501.3694, -0.008685628, 0.005009073, -1694940.3, 4481.591, 0.0, 5.0023913, 4.991993 
9.55019e+2, 1.315826e+2, -1643510.8, -1660645.1, 2568.1873, -0.001915253, 0.006866951, -1643134.1, 7364.6157, 0.0, 5.003316, 4.9920073 
9.550279e+2, 1.3657483e+2, -1593625.3, -1614234.3, 3398.6165, 0.0031316807, 0.010322927, -1593079.3, 8495.935, 0.0, 5.004233, 4.990697 
9.550384e+2, 1.4156269e+2, -1550580.1, -1581915.4, 5357.623, -0.000187122, 0.016509596, -1549689.4, 3004.3337, 0.0, 5.004987, 4.9848256 
9.5505005e+2, 1.4654714e+2, -1499182.6, -1531596.9, 5500.5117, 0.00013621304, 0.011125584, -1498274.6, 5569.733, 0.0, 5.00574, 4.984862 
9.5506155e+2, 1.5153156e+2, -1447854.4, -1481411.3, 5723.363, 0.0003410166, 0.005545231, -1446905.1, 8090.1304, 0.0, 5.0064926, 4.984861 
9.550732e+2, 1.56516e+2, -1397697.9, -1433702.8, 6472.805, 0.00035807447, 0.0006129679, -1396569.6, 9576.32, 0.0, 5.0072455, 4.9840426 
9.550866e+2, 1.6149613e+2, -1356522.6, -1405006.9, 8057.1943, 0.00078793283, 0.000005707498, -1355218.6, 2120.3918, 0.0, 5.0080233, 4.9768605 
9.5510066e+2, 1.6647281e+2, -1305095.1, -1354779.9, 8372.714, 0.001561583, -0.0029019434, -1303722.1, 4844.85, 0.0, 5.008812, 4.9768414 
9.551146e+2, 1.7144951e+2, -1253628.0, -1304464.1, 8712.432, 0.002243677, -0.0055665933, -1252176.4, 7618.168, 0.0, 5.0096006, 4.976859 
9.551286e+2, 1.7642623e+2, -1203139.3, -1256155.8, 9022.175, 0.0027902776, -0.0075909416, -1201646.0, 9375.714, 0.0, 5.01038, 4.976209 
9.5514286e+2, 1.8139893e+2, -1162199.5, -1227486.0, 10212.568, 0.0028425527, -0.004543121, -1160639.3, 1648.9976, 0.0, 5.0110736, 4.9689064 
9.551576e+2, 1.8636806e+2, -1110758.5, -1177074.8, 10743.452, 0.0019099184, -0.0045496933, -1109061.5, 4527.7646, 0.0, 5.011824, 4.968958 
9.551723e+2, 1.9133721e+2, -1059366.6, -1126748.5, 11233.522, 0.0007770126, -0.0044855117, -1057543.3, 7346.4766, 0.0, 5.0125723, 4.968988 
9.55187e+2, 1.9630644e+2, -1008625.7, -1077812.0, 11371.113, -0.0005928564, -0.004043957, -1006804.75, 9384.932, 0.0, 5.0133185, 4.968553 
9.552005e+2, 2.0127127e+2, -968260.06, -1051448.9, 11245.152, -0.0019842396, -0.0006738994, -966766.8, 766.8118, 0.0, 5.014073, 4.96043 
9.552141e+2, 2.0623155e+2, -916835.56, -1001291.4, 11708.738, 0.0005444998, -0.003507156, -915242.4, 3681.7913, 0.0, 5.014853, 4.960377 
9.552278e+2, 2.1119183e+2, -865336.75, -950967.7, 12152.589, 0.0030542882, -0.006495197, -863645.5, 6669.372, 0.0, 5.0156345, 4.9603863 
9.552414e+2, 2.1615213e+2, -814504.8, -902118.0, 12444.166, 0.0054880967, -0.00924382, -812771.56, 8933.812, 0.0, 5.0164185, 4.959896 
9.55253e+2, 2.2110827e+2, -772829.06, -874362.0, 10960.479, 0.0067335307, -0.006708657, -771659.4, 1476.3943, 0.0, 5.017341, 4.9521136 
9.5526314e+2, 2.2606052e+2, -720780.4, -823316.25, 12108.5625, 0.004062226, -0.009229269, -719369.9, 5231.7793, 0.0, 5.0182204, 4.9523125 
9.552733e+2, 2.3101282e+2, -669006.94, -772847.56, 13099.274, 0.0011013373, -0.011827248, -667379.94, 8687.189, 0.0, 5.019098, 4.9523206 
9.552834e+2, 2.3596512e+2, -617922.25, -723903.1, 14305.176, -0.0019549725, -0.014242483, -616025.3, 11507.137, 0.0, 5.019975, 4.9518065 
9.552911e+2, 2.409123e+2, -579315.56, -702211.1, 10447.238, -0.002927594, -0.010318102, -578433.75, 615.505, 0.0, 5.020774, 4.941816 
9.5529544e+2, 2.458546e+2, -528024.06, -652057.4, 10936.018, -0.0018515189, -0.0075391647, -527067.2, 3551.0017, 0.0, 5.02149, 4.941763 
9.5529985e+2, 2.5079694e+2, -476686.8, -601759.94, 11480.914, -0.0009428483, -0.0044215815, -475641.66, 6545.4824, 0.0, 5.0221996, 4.941769 
9.553043e+2, 2.557393e+2, -425624.88, -552081.3, 12030.688, -0.00017287515, -0.00093296205, -424490.47, 9265.23, 0.0, 5.0229073, 4.941565 
9.55304e+2, 2.6067653e+2, -387255.63, -529583.75, 5269.01, -0.0019555192, 0.006555294, -387060.84, -1687.1344, 0.0, 5.0232587, 4.9319763 
9.552986e+2, 2.656095e+2, -336888.03, -477190.13, 5301.9375, 0.00097044185, 0.0025971036, -336687.97, 342.12405, 0.0, 5.023094, 4.9330764 
9.552932e+2, 2.705424e+2, -287948.72, -427977.63, 5798.431, 0.004046992, -0.0024941813, -287709.03, 977.3263, 0.0, 5.022914, 4.9330745 
9.552877e+2, 2.7547538e+2, -239057.95, -378903.53, 6302.1387, 0.0068210536, -0.0075522317, -238774.53, 1568.096, 0.0, 5.022732, 4.9330254 
9.55277e+2, 2.8040278e+2, -208703.9, -369326.8, -1723.473, 0.009295213, 0.004246452, -208685.4, -16631.387, 0.0, 5.0218806, 4.919317 
9.552595e+2, 2.8532282e+2, -163409.9, -321251.1, -1892.4496, 0.005313794, 0.0046040993, -163387.22, -19546.041, 0.0, 5.0202413, 4.91949 
9.552419e+2, 2.9024264e+2, -118313.18, -273669.44, -1691.7518, 0.0004662861, 0.003995695, -118294.76, -22663.502, 0.0, 5.018599, 4.919486 
9.552244e+2, 2.951625e+2, -73183.1, -226060.47, -1493.3971, -0.004656838, 0.0038201525, -73168.516, -25747.525, 0.0, 5.0169554, 4.919482 
9.552054e+2, 3.0010173e+2, -3976.4912, -86932.21, -3836.9695, -0.009534836, 0.012811648, -3799.397, -3799.397, 0.0, 5.015049, 4.961517 
9.5518506e+2, 3.0506998e+2, -2330.7554, -70840.19, -3858.009, -0.010269793, 0.018068057, -2114.182, -2114.182, 0.0, 5.0126967, 4.968372 
9.551646e+2, 3.1003916e+2, -8641.562, -73534.96, -3679.594, -0.011481986, 0.02230588, -8433.587, -8433.587, 0.0, 5.010342, 4.9683895 
9.5514405e+2, 3.1500828e+2, -14949.918, -76240.836, -3491.1292, -0.013709361, 0.026084594, -14751.705, -14751.705, 0.0, 5.0079846, 4.9684067 
9.600057e+2, 1.2159312e+2, -1742347.0, -1748767.1, 718.69916, 0.019139033, 0.008203229, -1742267.5, 6125.985, 0.0, 5.0008297, 4.996494 
9.600124e+2, 1.2658477e+2, -1696105.3, -1710793.6, 3604.757, -0.007055426, 0.00067668426, -1695268.4, 4207.839, 0.0, 5.0019975, 4.99229 
9.600223e+2, 1.3157743e+2, -1643911.4, -1660174.9, 3801.8972, -0.001251184, 0.00448731, -1643066.5, 7481.7036, 0.0, 5.003049, 4.992292 
9.6003205e+2, 1.3657014e+2, -1593985.6, -1613825.8, 4694.745, 0.0030375607, 0.009705201, -1592930.9, 8689.255, 0.0, 5.0039907, 4.9909525 
9.6004325e+2, 1.4155835e+2, -1550916.9, -1581343.5, 6565.241, -0.0011992265, 0.016607288, -1549560.8, 3174.6755, 0.0, 5.0047207, 4.985151 
9.6005553e+2, 1.4654316e+2, -1499543.5, -1531051.6, 6701.0874, -0.0017053679, 0.0117153935, -1498177.5, 5705.3325, 0.0, 5.005469, 4.9851813 
9.6006775e+2, 1.5152796e+2, -1448307.5, -1480912.6, 6926.2075, -0.0023191364, 0.006598859, -1446897.3, 8133.289, 0.0, 5.006191, 4.9851794 
9.6008e+2, 1.5651275e+2, -1398378.9, -1433408.9, 7706.2485, -0.0031795278, 0.002208487, -1396758.5, 9419.633, 0.0, 5.0068874, 4.98432 
9.6009415e+2, 1.6149324e+2, -1357070.5, -1404264.3, 9300.166, -0.0033801843, 0.0017298247, -1355304.0, 2064.0352, 0.0, 5.0076294, 4.9773016 
9.601091e+2, 1.6647016e+2, -1305633.0, -1354007.9, 9598.711, -0.0010972454, -0.0032073813, -1303798.0, 4795.058, 0.0, 5.0084147, 4.977294 
9.601241e+2, 1.7144708e+2, -1254242.1, -1303730.6, 9934.183, 0.0011860778, -0.0080377, -1252322.5, 7495.483, 0.0, 5.0091767, 4.977311 
9.60139e+2, 1.7642406e+2, -1203831.0, -1255336.4, 10221.93, 0.0033083227, -0.012356321, -1201876.5, 9165.899, 0.0, 5.0099034, 4.976714 
9.6015406e+2, 1.8139721e+2, -1162994.1, -1226469.9, 11396.487, 0.0038352106, -0.010167388, -1161010.0, 1294.0946, 0.0, 5.010519, 4.969512 
9.601695e+2, 1.8636724e+2, -1111815.9, -1176156.6, 11855.6, 0.003110675, -0.0072971955, -1109700.8, 3895.4714, 0.0, 5.0111737, 4.9695754 
9.60185e+2, 1.9133733e+2, -1060739.1, -1125985.0, 12282.83, 0.0022102785, -0.00432998, -1058503.4, 6384.6577, 0.0, 5.0118146, 4.9696026 
9.602004e+2, 1.9630745e+2, -1010254.56, -1077029.9, 12352.01, 0.0011322114, -0.0010525378, -1008043.0, 8136.3945, 0.0, 5.0124435, 4.9692283 
9.602147e+2, 2.0127313e+2, -969967.2, -1050795.1, 12262.761, -0.00028467755, 0.003986581, -968147.75, -632.47107, 0.0, 5.0131884, 4.9610634 
9.60229e+2, 2.0623396e+2, -918343.8, -1000618.06, 12851.36, 0.0013132181, 0.0005185558, -916383.1, 2518.1313, 0.0, 5.014052, 4.9609776 
9.6024334e+2, 2.1119477e+2, -866657.5, -950212.25, 13410.016, 0.0028818173, -0.0033179657, -864558.0, 5729.661, 0.0, 5.0148993, 4.960984 
9.602577e+2, 2.1615557e+2, -815611.3, -901128.8, 13888.184, 0.004406402, -0.0069584004, -813412.44, 8261.55, 0.0, 5.015732, 4.960552 
9.6027017e+2, 2.2111243e+2, -773468.9, -872215.94, 12386.078, 0.0051853014, -0.005860574, -771939.0, 1158.6108, 0.0, 5.0166416, 4.953164 
9.6028113e+2, 2.2606567e+2, -721550.7, -820971.6, 13293.54, 0.0023079808, -0.010258063, -719803.9, 4748.4297, 0.0, 5.0174203, 4.953479 
9.6029204e+2, 2.310189e+2, -670168.2, -770703.9, 14022.616, -0.00082335825, -0.015001168, -668248.94, 7757.682, 0.0, 5.0181613, 4.953482 
9.6030307e+2, 2.3597215e+2, -619535.06, -721919.44, 15039.497, -0.0039840224, -0.019630112, -617371.6, 10089.275, 0.0, 5.018868, 4.952992 
9.6031165e+2, 2.4092038e+2, -581696.4, -701583.8, 10829.877, -0.0038774034, -0.01520594, -580725.9, -1759.2021, 0.0, 5.0196075, 4.9425507 
9.6031684e+2, 2.4586377e+2, -529970.06, -651287.06, 11447.795, -0.002082971, -0.008753134, -528899.3, 1627.1476, 0.0, 5.0204816, 4.9424753 
9.603221e+2, 2.5080717e+2, -478355.06, -600884.25, 12071.619, -0.00039287726, -0.0022072596, -477177.1, 4909.489, 0.0, 5.0212874, 4.9424763 
9.6032727e+2, 2.5575057e+2, -427225.5, -551205.0, 12699.597, 0.0013248444, 0.004519321, -425938.03, 7708.51, 0.0, 5.0220213, 4.942262 
9.603273e+2, 2.606884e+2, -389165.28, -529439.1, 5297.4727, -0.0005599814, 0.0122271115, -388965.53, -3705.6904, 0.0, 5.0223727, 4.9324193 
9.603217e+2, 2.656215e+2, -338536.22, -476737.06, 4949.409, 0.0025675832, 0.0049141706, -338359.2, -1445.5225, 0.0, 5.0222664, 4.9335995 
9.6031624e+2, 2.705546e+2, -289538.94, -427479.2, 5095.099, 0.0059467894, -0.004067208, -289350.97, -783.56506, 0.0, 5.022105, 4.933604 
9.603106e+2, 2.754877e+2, -240753.39, -378429.56, 5245.438, 0.009163664, -0.013044496, -240553.83, -332.72946, 0.0, 5.021885, 4.9335604 
9.602994e+2, 2.804155e+2, -210784.2, -369914.88, -4006.1257, 0.014336663, -0.000010909288, -210683.42, -18755.486, 0.0, 5.0210805, 4.9194546 
9.602802e+2, 2.8533602e+2, -164747.45, -321098.9, -3971.2922, 0.009350969, 0.0019050003, -164646.64, -20935.781, 0.0, 5.0196276, 4.919808 
9.602608e+2, 2.9025635e+2, -119469.08, -273452.78, -3550.9646, 0.0034259686, 0.0030525187, -119387.234, -23890.701, 0.0, 5.0180526, 4.919798 
9.602415e+2, 2.9517668e+2, -74498.89, -225928.39, -3153.6406, -0.00252291, 0.0046282066, -74433.24, -27151.303, 0.0, 5.016353, 4.9197884 
9.6022034e+2, 3.0011606e+2, -5234.1694, -86750.88, -5867.1177, -0.0100636855, 0.0113137085, -4814.0522, -4814.0522, 0.0, 5.0144467, 4.961844 
9.601975e+2, 3.050845e+2, -3365.6125, -70938.49, -6072.684, -0.012510151, 0.01583311, -2824.2063, -2824.2063, 0.0, 5.0122476, 4.96853 
9.601746e+2, 3.100538e+2, -9722.262, -73659.42, -6118.4063, -0.015096707, 0.019339235, -9142.032, -9142.032, 0.0, 5.0098767, 4.9685473 
9.601517e+2, 3.150231e+2, -16539.81, -76588.92, -6183.64, -0.018428618, 0.022262067, -15909.654, -15909.654, 0.0, 5.0073347, 4.968565 
9.650053e+2, 1.21585146e+2, -1745863.3, -1749552.1, -2121.1929, 0.01351872, 0.0039828555, -1744896.8, 3573.1272, 0.0, 4.999584, 4.996779 
9.650131e+2, 1.2657703e+2, -1700019.6, -1711662.4, 212.36775, -0.012235349, -0.00457832, -1700015.8, -465.64386, 0.0, 5.0005836, 4.992636 
9.650241e+2, 1.3157016e+2, -1648058.6, -1661284.1, 122.51691, -0.005049799, 0.00031776528, -1648057.5, 2560.576, 0.0, 5.001567, 4.992599 
9.65035e+2, 1.3656321e+2, -1598067.9, -1615072.5, 748.00006, 0.0019246001, 0.0061547356, -1598035.0, 3651.557, 0.0, 5.0025434, 4.991207 
9.6504724e+2, 1.4155173e+2, -1554695.8, -1582546.1, 2328.267, -0.0008816114, 0.013700008, -1554502.4, -1703.1927, 0.0, 5.0033517, 4.985415 
9.650603e+2, 1.46537e+2, -1503274.1, -1532214.4, 2362.5344, -0.00093345746, 0.011113705, -1503082.5, 860.132, 0.0, 5.0041094, 4.98545 
9.650733e+2, 1.5152226e+2, -1451910.0, -1481992.1, 2479.2603, -0.001109194, 0.008346952, -1451707.0, 3379.24, 0.0, 5.004866, 4.985454 
9.650863e+2, 1.5650755e+2, -1401771.3, -1434347.4, 3155.6023, -0.0015315016, 0.006307099, -1401468.4, 4761.2236, 0.0, 5.0056195, 4.98461 
9.651012e+2, 1.6148849e+2, -1360210.0, -1404848.6, 4718.8096, -0.0021002993, 0.0071794163, -1359716.6, -2301.276, 0.0, 5.0063806, 4.977705 
9.651168e+2, 1.664657e+2, -1308668.6, -1354516.8, 4971.6167, -0.0008780286, 0.00155296, -1308135.8, 501.67673, 0.0, 5.007194, 4.9777036 
9.6513236e+2, 1.7144293e+2, -1257096.1, -1304123.3, 5235.1436, 0.0003963419, -0.004216066, -1256520.4, 3338.925, 0.0, 5.008009, 4.977728 
9.65148e+2, 1.7642018e+2, -1206329.3, -1255389.4, 5399.788, 0.0015289872, -0.009718263, -1205741.9, 5338.962, 0.0, 5.0088162, 4.9772024 
9.651635e+2, 1.8139379e+2, -1165073.5, -1226091.8, 6507.68, 0.00068207504, -0.008801329, -1164387.3, -2048.952, 0.0, 5.0094967, 4.9701333 
9.651797e+2, 1.8636434e+2, -1113961.5, -1175796.5, 7064.57, 0.00059349433, -0.006701434, -1113164.6, 460.9593, 0.0, 5.010127, 4.9701996 
9.6519583e+2, 1.9133492e+2, -1062924.1, -1125636.3, 7611.277, 0.0006011371, -0.004597563, -1062013.6, 2898.997, 0.0, 5.0107536, 4.9702277 
9.65212e+2, 1.9630553e+2, -1012373.1, -1076531.0, 7812.983, 0.0006645562, -0.0023275595, -1011435.4, 4763.8384, 0.0, 5.0113797, 4.9699035 
9.65227e+2, 2.0127194e+2, -971860.25, -1049531.9, 8107.66, -0.00012279287, 0.0017718596, -971022.94, -3495.0925, 0.0, 5.012063, 4.9620247 
9.652421e+2, 2.0623386e+2, -920490.94, -999459.75, 9085.956, 0.00033810892, -0.0005074538, -919459.0, -556.13293, 0.0, 5.012841, 4.961941 
9.6525717e+2, 2.1119575e+2, -868994.56, -949114.5, 10008.27, 0.00086649746, -0.0030432604, -867763.3, 2514.8508, 0.0, 5.0136213, 4.961955 
9.652722e+2, 2.1615769e+2, -818016.2, -899910.2, 10906.292, 0.001465358, -0.005405084, -816588.6, 5064.556, 0.0, 5.014404, 4.9615846 
9.6528554e+2, 2.211157e+2, -776035.56, -870770.75, 9707.18, 0.0018023255, -0.003952708, -775051.1, -1985.919, 0.0, 5.0152206, 4.9543085 
9.6529734e+2, 2.2606997e+2, -724598.6, -819907.25, 10928.072, 0.0006570835, -0.008346909, -723361.6, 1148.295, 0.0, 5.0158634, 4.954552 
9.6530914e+2, 2.3102428e+2, -673503.75, -769761.44, 11990.962, -0.0003981656, -0.013100448, -672032.5, 3921.8967, 0.0, 5.0164995, 4.954559 
9.65321e+2, 2.3597857e+2, -623008.6, -720948.8, 13391.606, -0.001296058, -0.017813906, -621210.56, 6188.337, 0.0, 5.017136, 4.954108 
9.6533036e+2, 2.409281e+2, -584314.8, -699113.2, 10165.464, -0.00081841944, -0.01382272, -583421.6, -4529.5156, 0.0, 5.01794, 4.944166 
9.653366e+2, 2.4587311e+2, -532058.25, -648540.0, 12115.751, 0.0011229884, -0.0072870175, -530811.4, -375.6306, 0.0, 5.01899, 4.9441104 
9.653428e+2, 2.5081807e+2, -479729.03, -597817.3, 13989.756, 0.0032586625, -0.0011046693, -478094.3, 3885.8787, 0.0, 5.020046, 4.9441147 
9.6534914e+2, 2.5576302e+2, -427701.28, -547748.8, 15874.272, 0.0056156944, 0.004760277, -425637.66, 7887.2173, 0.0, 5.0211, 4.9438977 
9.653498e+2, 2.6070228e+2, -388814.63, -526747.44, 9441.2, 0.0044930456, 0.01257697, -388171.4, -3047.3796, 0.0, 5.0219846, 4.9335384 
9.653443e+2, 2.656366e+2, -336146.56, -473459.94, 10497.129, 0.0053932862, 0.007997366, -335348.75, 1417.3597, 0.0, 5.022699, 4.934566 
9.653388e+2, 2.7057093e+2, -284718.0, -423064.94, 12016.885, 0.0067162714, 0.002363996, -283681.97, 4725.784, 0.0, 5.023427, 4.9345856 
9.653334e+2, 2.755053e+2, -233359.94, -372827.06, 13540.632, 0.00841386, -0.0030193175, -232057.47, 7991.619, 0.0, 5.0241523, 4.9345574 
9.653211e+2, 2.8043374e+2, -202693.58, -363995.03, 4135.4, 0.01023491, 0.007972591, -202587.64, -10838.201, 0.0, 5.0236406, 4.9203877 
9.653004e+2, 2.8535497e+2, -157870.66, -315422.1, 4646.029, 0.0070633627, 0.00718685, -157733.77, -14209.367, 0.0, 5.0216956, 4.920881 
9.652796e+2, 2.902759e+2, -113650.26, -268303.06, 5582.175, 0.003967429, 0.004872569, -113449.03, -18146.371, 0.0, 5.0197453, 4.920856 
9.652588e+2, 2.9519674e+2, -69389.9, -221152.88, 6512.9365, 0.0013556861, 0.0019478293, -69110.91, -22029.031, 0.0, 5.01779, 4.9208317 
9.652357e+2, 3.0013692e+2, -2379.5857, -84056.555, 3229.7185, -0.0029532644, 0.009066212, -2252.0732, -2252.0732, 0.0, 5.015289, 4.9623857 
9.652102e+2, 3.051056e+2, -2910.4211, -69946.56, 3385.211, -0.0058894376, 0.013104193, -2739.9075, -2739.9075, 0.0, 5.0123277, 4.968781 
9.6518475e+2, 3.1007504e+2, -10799.47, -73383.984, 3729.6946, -0.00803145, 0.016750304, -10577.984, -10577.984, 0.0, 5.009386, 4.968788 
9.6515924e+2, 3.1504455e+2, -18682.297, -76841.38, 4059.5173, -0.009295712, 0.020862246, -18400.309, -18400.309, 0.0, 5.006441, 4.9687953 
9.700038e+2, 1.21574685e+2, -1745553.4, -1749378.1, -1204.261, 0.0011927892, 0.0011780151, -1745205.8, 3364.7085, 0.0, 4.999641, 4.9968357 
9.7001284e+2, 1.2656653e+2, -1699591.4, -1711249.9, 927.0182, -0.021049274, -0.008797483, -1699518.1, 133.23033, 0.0, 5.000642, 4.992771 
9.700252e+2, 1.3155976e+2, -1647624.6, -1660866.6, 854.27, -0.009878395, -0.003950178, -1647569.8, 3148.6362, 0.0, 5.001627, 4.9927344 
9.700374e+2, 1.365529e+2, -1597669.3, -1614700.1, 1481.2598, 0.00059140014, 0.0017547017, -1597541.5, 4244.7793, 0.0, 5.0026016, 4.991326 
9.700506e+2, 1.415416e+2, -1554315.0, -1581941.5, 2892.065, -0.0011905767, 0.009835799, -1554015.5, -1118.179, 0.0, 5.0033774, 4.9856114 
9.7006446e+2, 1.4652728e+2, -1502902.0, -1531604.9, 2931.0115, -0.00043002015, 0.009566081, -1502605.8, 1431.4149, 0.0, 5.0041327, 4.9856496 
9.7007823e+2, 1.5151298e+2, -1451548.6, -1481382.3, 3053.4583, 0.00008490016, 0.009174893, -1451239.4, 3937.7522, 0.0, 5.0048866, 4.9856553 
9.700921e+2, 1.5649869e+2, -1401372.3, -1433629.6, 3731.5242, 0.00028495185, 0.009480142, -1400946.3, 5370.639, 0.0, 5.005636, 4.9848485 
9.7010773e+2, 1.6148007e+2, -1359667.6, -1403807.6, 5301.224, -0.00046039367, 0.01168564, -1359039.9, -1541.236, 0.0, 5.006393, 4.978049 
9.70124e+2, 1.6645756e+2, -1308138.0, -1353475.6, 5575.946, -0.0007896768, 0.0055500623, -1307462.4, 1255.5477, 0.0, 5.007203, 4.978049 
9.701403e+2, 1.7143509e+2, -1256576.6, -1303080.0, 5845.0356, -0.0011648304, -0.00075776514, -1255853.1, 4083.7625, 0.0, 5.008015, 4.9780765 
9.7015643e+2, 1.7641264e+2, -1205721.4, -1254137.9, 5986.2813, -0.0017961208, -0.006791418, -1204992.3, 6163.3315, 0.0, 5.0088205, 4.977622 
9.701726e+2, 1.8138672e+2, -1164063.8, -1224057.0, 6986.2896, -0.0041866475, -0.0069439276, -1163260.9, -852.6154, 0.0, 5.0095115, 4.9708123 
9.701895e+2, 1.8635778e+2, -1112957.0, -1173764.9, 7525.889, -0.0032402102, -0.0063844756, -1112039.4, 1651.09, 0.0, 5.010142, 4.97088 
9.7020644e+2, 1.913289e+2, -1061927.0, -1123610.4, 8077.09, -0.0021864797, -0.0058154664, -1060886.9, 4085.598, 0.0, 5.0107684, 4.970908 
9.7022325e+2, 1.9630004e+2, -1011311.8, -1074360.8, 8300.409, -0.0011166956, -0.005106889, -1010237.4, 6016.6235, 0.0, 5.0113945, 4.9706354 
9.7023904e+2, 2.0126732e+2, -970185.56, -1046075.94, 8668.18, -0.001271209, -0.002261536, -969208.06, -1633.7528, 0.0, 5.0120854, 4.9631968 
9.702548e+2, 2.0623052e+2, -918824.4, -996004.7, 9678.765, -0.002049842, -0.003344287, -917629.1, 1307.0284, 0.0, 5.012863, 4.963117 
9.7027045e+2, 2.1119373e+2, -867339.1, -945669.7, 10606.047, -0.0028821242, -0.0045394166, -865928.44, 4369.7095, 0.0, 5.0136437, 4.963132 
9.702862e+2, 2.1615694e+2, -816297.56, -896308.8, 11550.268, -0.0037303579, -0.005566146, -814663.56, 6996.313, 0.0, 5.0144253, 4.9628196 
9.7030026e+2, 2.2111645e+2, -774072.56, -866498.9, 10234.47, -0.003647854, -0.0032286854, -772952.9, 104.19609, 0.0, 5.0152245, 4.95578 
9.7031295e+2, 2.2607218e+2, -722779.1, -815932.94, 11424.955, -0.0023836785, -0.0069499034, -721398.4, 3089.9841, 0.0, 5.015867, 4.955927 
9.703257e+2, 2.3102789e+2, -671698.56, -765792.8, 12495.8545, -0.0010085665, -0.010923396, -670067.4, 5852.152, 0.0, 5.016503, 4.9559364 
9.703384e+2, 2.3598364e+2, -621130.1, -716794.7, 13947.914, 0.0003841665, -0.014818087, -619138.0, 8212.501, 0.0, 5.0171385, 4.9555545 
9.703486e+2, 2.4093498e+2, -581071.2, -692130.0, 10921.155, 0.00050598744, -0.012144612, -580007.44, -1181.0159, 0.0, 5.0179768, 4.94658 
9.7035587e+2, 2.4588221e+2, -528823.25, -641535.06, 12938.456, 0.0025716913, -0.0076042837, -527357.06, 2990.7156, 0.0, 5.0190263, 4.9465423 
9.7036314e+2, 2.5082943e+2, -476526.47, -590838.3, 14821.465, 0.004714596, -0.0033286246, -474636.0, 7233.8076, 0.0, 5.020081, 4.9465475 
9.703705e+2, 2.557766e+2, -424539.75, -540815.2, 16722.238, 0.0068621538, 0.0006773128, -422182.63, 11209.463, 0.0, 5.0211334, 4.946324 
9.703722e+2, 2.6071832e+2, -386248.25, -520809.8, 9908.431, 0.0071529197, 0.0103087835, -385522.56, -555.81604, 0.0, 5.021972, 4.935624 
9.703672e+2, 2.65655e+2, -333794.47, -467967.53, 11034.788, 0.0063372944, 0.01017083, -332893.0, 3692.7744, 0.0, 5.022685, 4.936505 
9.7036225e+2, 2.7059174e+2, -282388.6, -417584.6, 12573.185, 0.005397947, 0.009377762, -281229.22, 6975.056, 0.0, 5.0234113, 4.936528 
9.7035724e+2, 2.7552846e+2, -231054.92, -367362.7, 14115.571, 0.004583271, 0.008872838, -229608.5, 10213.888, 0.0, 5.024135, 4.9365015 
9.703438e+2, 2.8045794e+2, -201109.19, -360403.53, 2735.4854, 0.000105411345, 0.01406043, -201062.23, -9549.705, 0.0, 5.02365, 4.921655 
9.7032136e+2, 2.8538e+2, -156249.58, -311788.75, 3206.3145, -0.00067864417, 0.008871376, -156183.52, -12905.403, 0.0, 5.021714, 4.9221654 
9.7029895e+2, 2.9030183e+2, -112013.31, -264673.75, 4174.156, -0.0010444939, 0.0023976034, -111899.266, -16852.914, 0.0, 5.0197725, 4.9221396 
9.702765e+2, 2.9522353e+2, -67737.234, -217527.73, 5136.6216, -0.0014094431, -0.004740227, -67561.3, -20745.723, 0.0, 5.0178266, 4.922115 
9.7025126e+2, 3.0016533e+2, -1653.2708, -82607.87, 861.5232, -0.001492136, 0.010357323, -1644.1034, -1644.1034, 0.0, 5.01532, 4.9629097 
9.702228e+2, 3.0513448e+2, -2084.6108, -68307.56, 1133.915, -0.00499228, 0.0129270675, -2065.201, -2065.201, 0.0, 5.0123606, 4.9693794 
9.701941e+2, 3.1010416e+2, -9948.281, -71761.83, 1555.0226, -0.009372843, 0.0135973655, -9909.1875, -9909.1875, 0.0, 5.009429, 4.969377 
9.7016543e+2, 3.150739e+2, -17805.725, -75236.055, 1961.32, -0.013666941, 0.0147365425, -17738.82, -17738.82, 0.0, 5.006493, 4.9693747 
9.750025e+2, 1.2156435e+2, -1745249.1, -1749195.5, -294.69702, -0.0096935155, -0.000091886766, -1745227.3, 3442.5935, 0.0, 4.9996977, 4.996892 
9.750128e+2, 1.2655605e+2, -1699170.5, -1710831.1, 1640.4836, -0.02919427, -0.012668527, -1698944.0, 808.3584, 0.0, 5.0007, 4.992904 
9.7502637e+2, 1.3154936e+2, -1647198.0, -1660443.0, 1584.8259, -0.014076201, -0.008011915, -1647011.0, 3807.6013, 0.0, 5.0016866, 4.992869 
9.750399e+2, 1.3654259e+2, -1597317.0, -1614405.1, 2193.3784, -0.00021427141, -0.0025726066, -1597039.9, 4845.851, 0.0, 5.0026608, 4.991416 
9.750539e+2, 1.4153147e+2, -1553939.6, -1581342.0, 3452.4993, -0.0016133654, 0.0061409688, -1553511.4, -516.03577, 0.0, 5.0034037, 4.985804 
9.750686e+2, 1.4651757e+2, -1502532.3, -1530994.4, 3495.8093, -0.000019433473, 0.00811561, -1502109.1, 2022.5734, 0.0, 5.0041556, 4.985847 
9.7508323e+2, 1.515037e+2, -1451189.8, -1480771.3, 3623.9756, 0.001214408, 0.010023554, -1450752.3, 4515.836, 0.0, 5.004907, 4.9858546 
9.7509795e+2, 1.5648982e+2, -1400990.1, -1432942.8, 4302.272, 0.0020665105, 0.012608377, -1400421.0, 5983.2085, 0.0, 5.0056534, 4.985074 
9.7511435e+2, 1.6147165e+2, -1359132.1, -1402777.9, 5879.204, 0.0011850174, 0.016295329, -1358354.0, -771.93365, 0.0, 5.0064054, 4.9783864 
9.751312e+2, 1.6644943e+2, -1307608.9, -1352434.4, 6175.8228, -0.0007015957, 0.009559968, -1306773.5, 2024.935, 0.0, 5.0072126, 4.9783926 
9.7514814e+2, 1.7142724e+2, -1256058.4, -1302036.5, 6450.476, -0.0027350532, 0.0026089093, -1255170.6, 4844.091, 0.0, 5.008022, 4.9784226 
9.7516495e+2, 1.7640507e+2, -1205140.4, -1252940.9, 6578.5376, -0.005142423, -0.0040328526, -1204251.5, 6978.8115, 0.0, 5.008825, 4.978021 
9.751817e+2, 1.8137965e+2, -1163058.3, -1222028.5, 7465.7085, -0.009105893, -0.0050592246, -1162127.8, 350.63922, 0.0, 5.0095267, 4.971488 
9.751993e+2, 1.8635124e+2, -1111954.1, -1171733.0, 7986.474, -0.007137044, -0.006090625, -1110905.6, 2850.0498, 0.0, 5.010157, 4.971559 
9.752169e+2, 1.9132288e+2, -1060931.4, -1121584.3, 8542.17, -0.0050445525, -0.0071174717, -1059751.3, 5281.2295, 0.0, 5.010783, 4.971588 
9.7523457e+2, 1.9629456e+2, -1010261.06, -1072209.6, 8795.069, -0.0029746057, -0.008018591, -1009036.56, 7272.3804, 0.0, 5.0114098, 4.97136 
9.752511e+2, 2.0126268e+2, -968523.25, -1042643.25, 9225.163, -0.0024385895, -0.0062688515, -967392.3, 228.54443, 0.0, 5.0121074, 4.96436 
9.7526747e+2, 2.0622717e+2, -917160.06, -992550.4, 10271.153, -0.0044598198, -0.00619667, -915785.75, 3183.8533, 0.0, 5.012885, 4.964292 
9.752838e+2, 2.1119167e+2, -865685.8, -942225.56, 11203.406, -0.006670322, -0.006117033, -864079.6, 6238.6836, 0.0, 5.013666, 4.964308 
9.753002e+2, 2.161562e+2, -814591.56, -892731.1, 12174.343, -0.008975185, -0.0058620907, -812738.75, 8928.004, 0.0, 5.014447, 4.9640455 
9.75315e+2, 2.211172e+2, -772118.44, -862240.94, 10761.52, -0.008895766, -0.0023613991, -770851.25, 2197.6343, 0.0, 5.0152287, 4.957246 
9.7532856e+2, 2.2607435e+2, -720963.25, -811958.9, 11918.525, -0.0052861734, -0.0054728533, -719428.06, 5038.7314, 0.0, 5.0158715, 4.9572997 
9.7534215e+2, 2.3103152e+2, -669896.9, -761824.4, 12997.438, -0.001574208, -0.008764967, -668094.56, 7790.077, 0.0, 5.0165057, 4.957312 
9.753557e+2, 2.3598869e+2, -619264.75, -712663.25, 14520.165, 0.0020098507, -0.011938184, -617059.44, 10242.807, 0.0, 5.0171413, 4.9569917 
9.7536683e+2, 2.4094185e+2, -577844.25, -685175.94, 11688.975, 0.0016410752, -0.010474688, -576586.0, 2174.7432, 0.0, 5.018014, 4.948985 
9.753751e+2, 2.4589132e+2, -525594.56, -634534.2, 13758.25, 0.0038799674, -0.008005721, -523883.88, 6376.007, 0.0, 5.0190625, 4.948974 
9.753835e+2, 2.5084075e+2, -473330.22, -583863.25, 15650.277, 0.006026566, -0.0057372795, -471157.03, 10602.523, 0.0, 5.020116, 4.94898 
9.753919e+2, 2.5579017e+2, -421386.78, -533890.7, 17568.605, 0.007960591, -0.0036908542, -418707.1, 14552.324, 0.0, 5.0211673, 4.948748 
9.753946e+2, 2.6073435e+2, -383762.1, -515042.28, 10333.09, 0.009943581, 0.008389335, -382953.75, 1855.788, 0.0, 5.02196, 4.937649 
9.753901e+2, 2.656734e+2, -331448.2, -462475.8, 11569.098, 0.0072664567, 0.01248252, -330434.53, 5971.0566, 0.0, 5.0226707, 4.9384413 
9.753856e+2, 2.7061248e+2, -280064.94, -412104.84, 13126.144, 0.003996064, 0.016231902, -278772.72, 9228.33, 0.0, 5.023396, 4.9384675 
9.753811e+2, 2.7555165e+2, -228755.63, -361898.9, 14687.18, 0.0005998751, 0.02030755, -227154.72, 12441.292, 0.0, 5.0241184, 4.9384427 
9.7536653e+2, 2.8048223e+2, -199568.81, -356897.5, 1341.7076, -0.009839944, 0.020822097, -199557.38, -8282.376, 0.0, 5.0236607, 4.9228883 
9.7534233e+2, 2.8540513e+2, -154636.84, -308149.7, 1771.2677, -0.008332992, 0.011135562, -154616.4, -11585.324, 0.0, 5.0217333, 4.923446 
9.753183e+2, 2.9032782e+2, -110384.68, -261038.66, 2770.8079, -0.0061417725, 0.000065953536, -110333.734, -15544.318, 0.0, 5.0198007, 4.92342 
9.752942e+2, 2.9525036e+2, -66092.875, -213896.78, 3764.9807, -0.004432933, -0.011720726, -65997.04, -19448.256, 0.0, 5.0178633, 4.923394 
9.7526705e+2, 3.0019358e+2, -1196.2218, -81774.945, -1526.0754, 0.00086914416, 0.011355898, -1167.33, -1167.33, 0.0, 5.0153513, 4.963201 
9.752354e+2, 3.051631e+2, -1264.7604, -66663.05, -1106.2725, -0.0031396062, 0.010963351, -1246.0521, -1246.0521, 0.0, 5.0123954, 4.9699664 
9.752036e+2, 3.1013304e+2, -9102.98, -70134.32, -608.563, -0.009798603, 0.007151645, -9096.913, -9096.913, 0.0, 5.0094733, 4.969955 
9.751717e+2, 3.15103e+2, -16934.969, -73625.54, -125.813255, -0.017162584, 0.0038163979, -16934.69, -16934.69, 0.0, 5.006547, 4.969943 
9.800016e+2, 1.2155428e+2, -1746562.8, -1749857.3, 772.3398, -0.01595655, 0.0019428567, -1746390.6, 2376.5964, 0.0, 4.999238, 4.996929 
9.8001295e+2, 1.2654574e+2, -1700225.9, -1711157.0, 2477.6414, -0.033889413, -0.013928531, -1699690.5, 161.71545, 0.0, 5.000281, 4.993025 
9.8002785e+2, 1.3153914e+2, -1648139.4, -1660654.5, 2507.632, -0.015587927, -0.009854821, -1647655.6, 3262.2559, 0.0, 5.001294, 4.9930077 
9.800426e+2, 1.3653243e+2, -1598295.0, -1614732.6, 3249.9214, 0.0010824453, -0.0052038403, -1597675.8, 4308.626, 0.0, 5.002283, 4.9915013 
9.800573e+2, 1.4152145e+2, -1554739.0, -1581242.0, 4515.282, -0.001103873, 0.0037331989, -1553990.9, -898.13617, 0.0, 5.003035, 4.9860187 
9.8007274e+2, 1.4650789e+2, -1503439.3, -1530925.9, 4633.8643, 0.00048799996, 0.0068395142, -1502679.0, 1547.2778, 0.0, 5.003748, 4.986069 
9.800882e+2, 1.5149432e+2, -1452389.1, -1480831.3, 4856.91, 0.0016995542, 0.009825215, -1451582.6, 3777.338, 0.0, 5.0044, 4.9860806 
9.8010355e+2, 1.5648077e+2, -1402643.9, -1433172.4, 5644.118, 0.0025650586, 0.013392161, -1401633.8, 4859.5796, 0.0, 5.004985, 4.985318 
9.8012066e+2, 1.61463e+2, -1360994.6, -1402713.9, 7414.6333, 0.0014428662, 0.017926214, -1359716.0, -2048.6028, 0.0, 5.0055914, 4.9787893 
9.801383e+2, 1.664412e+2, -1309789.6, -1352485.1, 7984.781, -0.0009370389, 0.011055917, -1308345.1, 534.6185, 0.0, 5.006284, 4.9788084 
9.8015594e+2, 1.7141943e+2, -1258625.6, -1302252.5, 8530.046, -0.003403039, 0.0039545903, -1257017.1, 3074.7532, 0.0, 5.0069585, 4.978843 
9.801735e+2, 1.7639773e+2, -1208086.3, -1253248.9, 8934.534, -0.0062304516, -0.0027931118, -1206382.9, 4920.426, 0.0, 5.007612, 4.9784784 
9.8019093e+2, 1.8137285e+2, -1165629.5, -1221791.5, 9833.604, -0.010916811, -0.0039467462, -1163957.5, -1411.5856, 0.0, 5.0083365, 4.9721384 
9.802093e+2, 1.8634498e+2, -1114267.5, -1171410.6, 10152.164, -0.008377608, -0.0059754425, -1112517.5, 1300.5355, 0.0, 5.009059, 4.972195 
9.802276e+2, 1.9131716e+2, -1063113.6, -1121215.8, 10504.613, -0.0056531383, -0.008005134, -1061272.8, 3817.0886, 0.0, 5.0097294, 4.9722185 
9.802459e+2, 1.9628936e+2, -1012407.7, -1071750.8, 10568.926, -0.0028965718, -0.00990829, -1010581.6, 5779.7476, 0.0, 5.01035, 4.9720244 
9.802632e+2, 2.012583e+2, -970146.56, -1040849.75, 10862.683, -0.0019121263, -0.0088517815, -968515.3, -850.175, 0.0, 5.0110216, 4.9654865 
9.8028016e+2, 2.0622396e+2, -918941.0, -990783.1, 11785.038, -0.0051860716, -0.008432885, -917057.2, 1944.5612, 0.0, 5.0117345, 4.9654393 
9.8029715e+2, 2.1118964e+2, -867812.75, -940616.44, 12581.221, -0.008676598, -0.007998455, -865699.94, 4638.3677, 0.0, 5.0123935, 4.9654565 
9.8031414e+2, 2.1615535e+2, -817168.2, -891223.6, 13436.185, -0.012217719, -0.007419319, -814805.75, 6868.766, 0.0, 5.0129952, 4.965241 
9.8032975e+2, 2.2111781e+2, -774460.94, -859934.7, 11999.595, -0.011902487, -0.0031442535, -772808.3, 233.83853, 0.0, 5.0137424, 4.958712 
9.8034424e+2, 2.2607642e+2, -722537.2, -809487.25, 13149.787, -0.00640022, -0.005339956, -720592.0, 3854.4106, 0.0, 5.0146966, 4.95868 
9.803588e+2, 2.3103507e+2, -670749.06, -758992.6, 14278.616, -0.0005672558, -0.007599816, -668496.2, 7354.4087, 0.0, 5.015585, 4.958701 
9.8037326e+2, 2.3599374e+2, -619515.3, -709402.1, 15952.969, 0.005295388, -0.009679811, -616768.0, 10486.351, 0.0, 5.016409, 4.958446 
9.803852e+2, 2.4094875e+2, -576616.8, -679294.0, 13183.592, 0.0045860396, -0.008837578, -574951.1, 3744.1255, 0.0, 5.0173893, 4.951325 
9.8039454e+2, 2.4590036e+2, -525019.4, -628896.94, 14971.326, 0.0063791485, -0.008239586, -522904.72, 7267.907, 0.0, 5.018203, 4.9513383 
9.804038e+2, 2.5085196e+2, -473676.47, -578626.2, 16616.324, 0.008018712, -0.0078057153, -471108.5, 10541.842, 0.0, 5.0189314, 4.9513526 
9.804131e+2, 2.5580356e+2, -422932.03, -529315.8, 18339.725, 0.00947991, -0.007545499, -419859.2, 13268.975, 0.0, 5.019583, 4.951068 
9.8041666e+2, 2.6075011e+2, -385486.6, -510838.75, 10922.044, 0.012880909, 0.006687434, -384542.06, 112.14485, 0.0, 5.020401, 4.9398 
9.804129e+2, 2.656914e+2, -330986.6, -457459.03, 12675.11, 0.008430008, 0.01207939, -329728.78, 6500.058, 0.0, 5.021935, 4.9405212 
9.8040915e+2, 2.706327e+2, -277715.0, -406260.78, 14583.261, 0.0034900007, 0.017280526, -276081.3, 11721.737, 0.0, 5.0233526, 4.9405427 
9.804053e+2, 2.7557406e+2, -224956.16, -355431.56, 16504.867, -0.0014095649, 0.022860803, -222900.7, 16476.092, 0.0, 5.024615, 4.9405127 
9.8038983e+2, 2.8050584e+2, -196380.63, -353012.13, 1006.67615, -0.016051104, 0.019018827, -196374.16, -5329.5503, 0.0, 5.0243683, 4.9239435 
9.803638e+2, 2.8542972e+2, -153111.28, -305077.84, 354.17657, -0.012731853, 0.008668781, -153110.45, -10320.56, 0.0, 5.0218534, 4.92447 
9.803379e+2, 2.9035345e+2, -110785.78, -258790.23, 425.12073, -0.008105294, -0.0026558172, -110784.56, -16247.997, 0.0, 5.0192165, 4.9244566 
9.8031193e+2, 2.9527712e+2, -68569.18, -212527.69, 557.0227, -0.0038555132, -0.014436464, -68567.02, -22283.154, 0.0, 5.01652, 4.924443 
9.8028266e+2, 3.0022177e+2, -5963.569, -83183.914, -5656.355, 0.00679378, 0.018943207, -5551.443, -5551.443, 0.0, 5.0134826, 4.9634686 
9.8024786e+2, 3.0519152e+2, -4748.394, -66210.836, -4330.523, 0.000586304, 0.01091957, -4444.774, -4444.774, 0.0, 5.0107384, 4.9708204 
9.802128e+2, 3.101616e+2, -13128.456, -69937.81, -2963.8906, -0.008395414, -0.002201524, -12974.241, -12974.241, 0.0, 5.007619, 4.9707994 
9.801777e+2, 3.1513172e+2, -22794.916, -74239.5, -1511.7557, -0.017407559, -0.014515232, -22750.53, -22750.53, 0.0, 5.0040216, 4.9707785 
9.850015e+2, 1.2154272e+2, -1747862.6, -1750612.9, -2522.6948, -0.0058130883, 0.011637069, -1746364.6, 2518.3142, 0.0, 4.9987564, 4.9969597 
9.850136e+2, 1.2653427e+2, -1701840.3, -1711860.9, -1158.7515, -0.025484897, -0.0041888417, -1701708.0, -1740.9104, 0.0, 4.9996767, 4.993107 
9.8502934e+2, 1.315277e+2, -1650015.3, -1661253.0, -1245.7491, -0.008008691, -0.0010052046, -1649878.8, 1153.099, 0.0, 5.000575, 4.993157 
9.85045e+2, 1.3652113e+2, -1600490.3, -1615481.0, -770.83185, 0.008261669, 0.0027460074, -1600450.8, 1646.1968, 0.0, 5.0014787, 4.9916234 
9.850603e+2, 1.4151017e+2, -1556446.6, -1581608.9, -1.0668926, 0.0037693453, 0.010655152, -1556446.6, -3241.9111, 0.0, 5.0023685, 4.9862347 
9.8507607e+2, 1.464963e+2, -1504946.1, -1531116.3, -174.856, 0.0008740686, 0.008861424, -1504945.0, -603.67206, 0.0, 5.0031366, 4.9863095 
9.850917e+2, 1.5148239e+2, -1453526.5, -1480777.6, -269.8244, -0.002581154, 0.0067709596, -1453523.9, 1954.0361, 0.0, 5.0039024, 4.9863396 
9.8510724e+2, 1.5646854e+2, -1403259.4, -1432755.1, 112.57448, -0.0063897143, 0.005210554, -1403258.9, 3355.12, 0.0, 5.004642, 4.985615 
9.8512477e+2, 1.6145094e+2, -1361374.5, -1401505.4, 1533.5533, -0.008735757, 0.0075545795, -1361316.0, -3529.6262, 0.0, 5.0052094, 4.9793468 
9.8514354e+2, 1.6643013e+2, -1310242.8, -1351264.6, 1803.4445, -0.005925654, 0.0050263125, -1310163.6, -1174.2333, 0.0, 5.0058627, 4.9793887 
9.8516244e+2, 1.7140934e+2, -1259123.1, -1301091.6, 2004.9932, -0.0029465712, 0.0023603837, -1259027.6, 1164.5056, 0.0, 5.006514, 4.9794183 
9.8518115e+2, 1.7638859e+2, -1208423.8, -1251908.6, 2064.3503, -0.00022823697, -0.00016728685, -1208326.0, 3068.3506, 0.0, 5.0071673, 4.979126 
9.8519963e+2, 1.8136454e+2, -1166274.1, -1221320.1, 2764.3152, -0.0006994714, 0.0009923198, -1166135.6, -3506.44, 0.0, 5.007833, 4.9725842 
9.852185e+2, 1.863372e+2, -1115474.4, -1171479.4, 2919.8943, 0.00034217874, 0.0008902792, -1115322.5, -1425.8564, 0.0, 5.008404, 4.972541 
9.852373e+2, 1.9130985e+2, -1064619.4, -1121521.9, 3125.3965, 0.0013595159, 0.0008418586, -1064448.3, 715.78424, 0.0, 5.00897, 4.972544 
9.85256e+2, 1.9628257e+2, -1014009.94, -1072070.9, 2997.119, 0.0024081804, 0.0010143036, -1013855.6, 2575.4695, 0.0, 5.009526, 4.972387 
9.8527366e+2, 2.0125215e+2, -971904.5, -1039719.0, 3251.4993, 0.002389812, 0.002471654, -971748.94, -4020.484, 0.0, 5.009892, 4.9664817 
9.852911e+2, 2.0621832e+2, -921670.0, -989952.25, 4245.27, -0.0010845072, -0.0012666688, -921407.06, -2348.2434, 0.0, 5.010247, 4.9664946 
9.853086e+2, 2.1118453e+2, -871418.4, -940155.0, 5084.9946, -0.004659075, -0.0050091394, -871044.25, -655.4175, 0.0, 5.0105963, 4.9665246 
9.85326e+2, 2.1615079e+2, -821467.3, -891036.4, 5964.8296, -0.008242288, -0.008428265, -820959.6, 758.6016, 0.0, 5.010942, 4.966327 
9.853422e+2, 2.2111435e+2, -778877.56, -858624.5, 4767.299, -0.008698507, -0.0059696794, -778593.56, -5519.2314, 0.0, 5.011408, 4.9602885 
9.853576e+2, 2.2607474e+2, -727863.7, -808652.94, 6050.916, -0.0025047883, -0.0056645987, -727413.0, -2950.2605, 0.0, 5.0120654, 4.960216 
9.85373e+2, 2.3103519e+2, -676688.4, -758359.9, 7225.953, 0.004112654, -0.005038432, -676053.94, -203.44414, 0.0, 5.012726, 4.960258 
9.853884e+2, 2.3599571e+2, -625848.94, -708842.0, 8951.354, 0.010881772, -0.004107748, -624894.44, 2343.1426, 0.0, 5.013386, 4.960039 
9.8540133e+2, 2.4095298e+2, -582900.75, -676530.06, 6166.9653, 0.011759758, -0.0012479065, -582496.3, -3839.5972, 0.0, 5.013869, 4.953972 
9.854106e+2, 2.4590695e+2, -534006.6, -627313.1, 8677.297, 0.010573293, -0.00210718, -533206.5, -3097.0876, 0.0, 5.013752, 4.953974 
9.8541987e+2, 2.50861e+2, -485098.13, -577968.44, 11143.259, 0.009336909, -0.0026110148, -483779.8, -2218.385, 0.0, 5.013606, 4.954034 
9.8542905e+2, 2.5581512e+2, -436600.63, -529582.5, 13670.227, 0.008333033, -0.002772766, -434632.5, -1619.9834, 0.0, 5.013456, 4.9537606 
9.8543304e+2, 2.607651e+2, -396399.84, -504036.78, 9859.727, 0.00764281, 0.0061068954, -395504.13, -11000.043, 0.0, 5.0140796, 4.9450417 
9.854315e+2, 2.657105e+2, -341075.72, -450568.16, 15825.952, 0.0067716874, 0.0023478176, -338834.13, -2794.468, 0.0, 5.0159907, 4.9456143 
9.8542994e+2, 2.7065584e+2, -286339.25, -398560.53, 21655.848, 0.0056865183, -0.0025163046, -282305.25, 5270.5796, 0.0, 5.017934, 4.9456763 
9.8542833e+2, 2.7560124e+2, -231717.5, -346745.16, 27485.725, 0.0043534534, -0.007741872, -225487.27, 13624.729, 0.0, 5.019863, 4.9456925 
9.854142e+2, 2.8053752e+2, -201735.1, -347025.3, 14182.117, -0.0010210077, -0.01046305, -200363.69, -9627.1455, 0.0, 5.020818, 4.927566 
9.8538613e+2, 2.85465e+2, -155500.14, -298337.0, 18520.824, 0.0029055458, -0.0154084135, -153137.73, -10691.247, 0.0, 5.019599, 4.927766 
9.8535806e+2, 2.9039276e+2, -109702.59, -249999.25, 24058.14, 0.006949002, -0.016710358, -105691.75, -11538.635, 0.0, 5.0182424, 4.927902 
9.8532987e+2, 2.9532096e+2, -63881.49, -201638.44, 29619.412, 0.010128057, -0.014565902, -57782.94, -11926.968, 0.0, 5.016878, 4.9280453 
9.8529625e+2, 3.0026597e+2, -4471.563, -85506.96, 23078.92, 0.003813744, 0.010981706, 1640.3474, 1640.3474, 0.0, 5.01486, 4.9619226 
9.852594e+2, 3.0523267e+2, -696.0279, -70486.77, 16957.947, -0.0025154217, 0.0037537725, 3206.2666, 3206.2666, 0.0, 5.013569, 4.967969 
9.852226e+2, 3.101993e+2, -3789.0574, -72341.45, 10154.333, -0.009566019, -0.011189787, -2316.574, -2316.574, 0.0, 5.012386, 4.9678326 
9.851857e+2, 3.151655e+2, -6844.551, -74222.38, 3406.1885, -0.017015178, -0.02976876, -6672.794, -6672.794, 0.0, 5.0111833, 4.967708 
9.9000126e+2, 1.2152772e+2, -1747522.3, -1750169.0, -1586.1343, 0.0033207228, 0.015515301, -1746779.9, 2253.0464, 0.0, 4.9987926, 4.9970946 
9.90014e+2, 1.265197e+2, -1701675.6, -1711728.8, -538.0782, -0.018176947, 0.0035469888, -1701647.0, -1534.159, 0.0, 4.999706, 4.9931436 
9.9003065e+2, 1.3151315e+2, -1649893.6, -1661161.8, -599.5774, -0.0012306599, 0.0064916667, -1649861.9, 1315.3624, 0.0, 5.000595, 4.993186 
9.900471e+2, 1.3650659e+2, -1600650.1, -1615959.0, -88.51143, 0.014049404, 0.0105463965, -1600649.6, 1592.2083, 0.0, 5.0014977, 4.9914656 
9.900631e+2, 1.414954e+2, -1556288.9, -1581745.1, 484.594, 0.007822264, 0.01782658, -1556279.6, -2928.172, 0.0, 5.0024366, 4.9861636 
9.900791e+2, 1.464808e+2, -1504786.1, -1531218.6, 335.69858, 0.00023175092, 0.009286299, -1504781.9, -287.34262, 0.0, 5.0032005, 4.9862523 
9.9009496e+2, 1.514662e+2, -1453388.3, -1480891.5, 258.3489, -0.008390594, 0.00037016923, -1453385.9, 2251.9063, 0.0, 5.0039606, 4.9862814 
9.901108e+2, 1.5645163e+2, -1403202.8, -1432994.1, 538.1624, -0.017735923, -0.007828561, -1403193.0, 3587.4827, 0.0, 5.0046935, 4.985516 
9.9012864e+2, 1.6143385e+2, -1360980.0, -1400932.9, 1906.817, -0.022527846, -0.00783283, -1360889.1, -2934.709, 0.0, 5.0052466, 4.979507 
9.9014866e+2, 1.6641381e+2, -1309757.3, -1350583.3, 2223.3296, -0.014137046, -0.0052551567, -1309636.5, -486.36218, 0.0, 5.005911, 4.9795856 
9.9016875e+2, 1.7139381e+2, -1258625.0, -1300473.4, 2461.8555, -0.0055835075, -0.002657911, -1258480.6, 1864.9436, 0.0, 5.0065746, 4.979594 
9.901887e+2, 1.7637382e+2, -1207810.9, -1251097.0, 2574.47, 0.0024410258, -0.00000868503, -1207658.4, 3882.4849, 0.0, 5.0072346, 4.979368 
9.9020827e+2, 1.8135057e+2, -1165757.6, -1220385.1, 3146.6987, 0.005366544, 0.0052979696, -1165577.0, -2808.902, 0.0, 5.00786, 4.9728637 
9.902274e+2, 1.8632378e+2, -1115062.3, -1170791.0, 3304.0366, 0.0046667997, 0.0075532445, -1114867.1, -836.46967, 0.0, 5.0084343, 4.9727364 
9.902466e+2, 1.9129696e+2, -1064208.4, -1120854.0, 3532.3032, 0.003385987, 0.009796729, -1063989.0, 1304.3204, 0.0, 5.009002, 4.9727335 
9.902656e+2, 1.9627018e+2, -1013610.44, -1071404.5, 3265.0105, 0.0018164027, 0.012394598, -1013426.56, 3129.167, 0.0, 5.009555, 4.972579 
9.902835e+2, 2.0124057e+2, -970756.1, -1036943.1, 3442.0222, 0.0012331835, 0.015895164, -970577.6, -2732.456, 0.0, 5.0098543, 4.9674172 
9.903014e+2, 2.0620733e+2, -920409.4, -986982.6, 4445.9087, -0.00096659525, 0.007768772, -920113.75, -945.4913, 0.0, 5.010217, 4.967499 
9.9031925e+2, 2.111741e+2, -870157.0, -937225.06, 5310.74, -0.003592613, -0.00063682103, -869739.06, 752.1282, 0.0, 5.010573, 4.967519 
9.903371e+2, 2.1614093e+2, -820341.4, -888474.2, 6317.6304, -0.006668448, -0.008668447, -819760.5, 2053.199, 0.0, 5.01093, 4.9671965 
9.9035376e+2, 2.2110558e+2, -776501.94, -854005.25, 5120.458, -0.008684728, -0.0077074403, -776165.1, -3006.5068, 0.0, 5.01149, 4.9618425 
9.9036986e+2, 2.2606774e+2, -725550.25, -804188.5, 6477.136, -0.001818876, -0.0055871983, -725020.3, -489.21295, 0.0, 5.012152, 4.9617233 
9.9038607e+2, 2.3102994e+2, -674392.2, -753964.3, 7678.233, 0.0051630572, -0.0029698485, -673658.06, 2245.0916, 0.0, 5.0128193, 4.961749 
9.9040216e+2, 2.3599221e+2, -623626.9, -704637.1, 9447.464, 0.011950997, 0.00004406271, -622539.7, 4734.927, 0.0, 5.0134845, 4.9614716 
9.9041575e+2, 2.4095228e+2, -578923.3, -667643.6, 5995.836, 0.016002944, 0.008032377, -578519.94, 147.10292, 0.0, 5.013867, 4.957056 
9.9042475e+2, 2.4590947e+2, -530060.1, -618449.44, 8416.175, 0.013672741, 0.008306247, -529265.9, 820.35315, 0.0, 5.0137486, 4.957059 
9.9043363e+2, 2.5086674e+2, -481168.13, -569114.3, 10915.681, 0.010616756, 0.008708164, -479833.53, 1671.0962, 0.0, 5.013605, 4.957124 
9.904425e+2, 2.558241e+2, -432671.88, -520703.72, 13514.257, 0.0073832287, 0.009338901, -430643.94, 2278.219, 0.0, 5.013457, 4.9568677 
9.904464e+2, 2.60779e+2, -386627.2, -482183.0, 11069.318, -0.00050151575, 0.012145159, -385361.7, -997.34674, 0.0, 5.014133, 4.9527035 
9.9044716e+2, 2.6573077e+2, -331618.8, -429349.34, 17260.006, 0.0022657674, -0.0031053456, -328660.13, 7178.7407, 0.0, 5.01605, 4.953083 
9.90448e+2, 2.7068245e+2, -276956.2, -377420.8, 23135.666, 0.004519482, -0.019947443, -271884.38, 15430.234, 0.0, 5.0179973, 4.9531474 
9.9044865e+2, 2.7563417e+2, -222416.48, -325703.47, 29010.904, 0.005559339, -0.037163846, -214825.84, 23964.55, 0.0, 5.0199313, 4.9531584 
9.9043685e+2, 2.8057918e+2, -193392.66, -327362.1, 13365.949, 0.014647109, -0.025317745, -192072.17, -1741.3215, 0.0, 5.0207767, 4.9345303 
9.904074e+2, 2.855148e+2, -147528.72, -279207.63, 17336.186, 0.018956764, -0.016856294, -145284.58, -3323.8262, 0.0, 5.0195203, 4.9345746 
9.903777e+2, 2.9045087e+2, -101869.945, -230928.33, 22981.76, 0.021036431, -0.003382685, -97899.664, -4313.5483, 0.0, 5.0181355, 4.9347196 
9.90348e+2, 2.9538745e+2, -56187.496, -182625.63, 28651.473, 0.02081233, 0.014672178, -49997.938, -4791.339, 0.0, 5.016743, 4.934872 
9.903105e+2, 3.003311e+2, -11594.368, -103364.09, 21366.012, -0.006398519, 0.016051132, -6863.7485, -6863.7485, 0.0, 5.015015, 4.955357 
9.902733e+2, 3.0528903e+2, -10326.56, -93839.734, 16152.54, -0.002178867, 0.0018249082, -7311.313, -7311.313, 0.0, 5.013659, 4.9594107 
9.902364e+2, 3.1024718e+2, -13826.216, -95975.93, 9807.392, -0.0010766474, -0.014694266, -12671.595, -12671.595, 0.0, 5.0123672, 4.9592195 
9.9019927e+2, 3.1520513e+2, -17288.18, -98139.195, 3517.0427, -0.0056594303, -0.03126485, -17135.477, -17135.477, 0.0, 5.011056, 4.9590397 
9.950011e+2, 1.21512786e+2, -1747187.5, -1749722.5, -623.31604, 0.012754151, 0.020814065, -1747042.5, 2139.8196, 0.0, 4.9988284, 4.997226 
9.950145e+2, 1.2650518e+2, -1701516.6, -1711593.1, 85.13718, -0.011184833, 0.012189071, -1701515.9, -1257.9094, 0.0, 4.999735, 4.9931774 
9.950319e+2, 1.3149862e+2, -1649777.6, -1661067.0, 49.142597, 0.005497128, 0.014509074, -1649777.4, 1544.7689, 0.0, 5.0006156, 4.993212 
9.9504924e+2, 1.3649204e+2, -1600949.0, -1616710.6, 657.7267, 0.020029007, 0.018471213, -1600921.6, 1464.8948, 0.0, 5.001517, 4.991214 
9.950659e+2, 1.4148057e+2, -1556148.8, -1581904.1, 964.3642, 0.0120432805, 0.02510203, -1556112.6, -2613.6997, 0.0, 5.0025053, 4.986081 
9.9508226e+2, 1.4646526e+2, -1504631.1, -1531317.6, 844.3127, -0.000068486544, 0.009660402, -1504604.5, 44.103355, 0.0, 5.0032644, 4.986192 
9.950985e+2, 1.5144992e+2, -1453255.0, -1481001.8, 784.5832, -0.013706106, -0.006256954, -1453232.9, 2565.6348, 0.0, 5.0040197, 4.9862204 
9.9511445e+2, 1.5643464e+2, -1403290.9, -1433525.5, 965.54913, -0.028574973, -0.021197788, -1403260.0, 3687.6873, 0.0, 5.004746, 4.985316 
9.9513257e+2, 1.6141662e+2, -1360633.4, -1400444.9, 2302.4856, -0.036698993, -0.023302564, -1360500.8, -2376.7656, 0.0, 5.0052843, 4.9796286 
9.9515384e+2, 1.6639735e+2, -1309278.6, -1349900.0, 2671.5168, -0.022405997, -0.01623626, -1309103.8, 208.75252, 0.0, 5.0059595, 4.979773 
9.951752e+2, 1.7137809e+2, -1258133.6, -1299853.3, 2947.0295, -0.007933974, -0.009031849, -1257926.5, 2574.3262, 0.0, 5.0066357, 4.9797606 
9.9519646e+2, 1.7635885e+2, -1207286.1, -1250459.3, 3091.8628, 0.005589529, -0.0017206079, -1207065.8, 4623.3843, 0.0, 5.0073028, 4.9795423 
9.952168e+2, 1.8133654e+2, -1165265.3, -1219483.3, 3547.4338, 0.010198872, 0.009330125, -1165034.1, -2126.3413, 0.0, 5.0078874, 4.9731255 
9.9523634e+2, 1.8631028e+2, -1114657.0, -1170098.0, 3695.6284, 0.0077834767, 0.013798547, -1114411.8, -246.3921, 0.0, 5.0084653, 4.972927 
9.952558e+2, 1.9128399e+2, -1063804.1, -1120181.5, 3946.665, 0.0042523174, 0.018086594, -1063529.3, 1894.2605, 0.0, 5.009035, 4.9729185 
9.952752e+2, 1.9625771e+2, -1013310.5, -1070935.5, 3472.1487, 0.0001278586, 0.022917008, -1013102.0, 3579.206, 0.0, 5.009584, 4.972698 
9.952932e+2, 2.0122893e+2, -969656.6, -1034249.8, 3652.7676, -0.00088552857, 0.029508084, -969450.75, -1488.256, 0.0, 5.0098166, 4.9683194 
9.9531156e+2, 2.0619628e+2, -919157.06, -984007.9, 4661.867, -0.0016744349, 0.016770124, -918823.6, 454.7864, 0.0, 5.010187, 4.968499 
9.953299e+2, 2.1116363e+2, -868903.94, -934290.0, 5551.8096, -0.0032191537, 0.0033985726, -868435.9, 2158.5513, 0.0, 5.0105495, 4.9685082 
9.953482e+2, 2.1613099e+2, -819353.94, -886193.7, 6768.43, -0.005659363, -0.009534669, -818675.44, 3234.6943, 0.0, 5.010918, 4.9679627 
9.953654e+2, 2.2109671e+2, -774170.56, -849463.06, 5494.4106, -0.009404224, -0.009116043, -773771.75, -527.8929, 0.0, 5.011572, 4.9633646 
9.953822e+2, 2.2606063e+2, -723245.5, -799721.25, 6924.1665, -0.0016607988, -0.0053074877, -722623.6, 1976.7262, 0.0, 5.0122395, 4.963226 
9.953991e+2, 2.3102458e+2, -672104.6, -749565.9, 8151.3247, 0.005978479, -0.0010309692, -671256.1, 4700.6235, 0.0, 5.0129128, 4.9632354 
9.954159e+2, 2.3598859e+2, -621441.8, -700490.1, 9936.279, 0.013077736, 0.003757014, -620212.0, 7100.7393, 0.0, 5.013583, 4.9628773 
9.954302e+2, 2.409515e+2, -575073.7, -659021.7, 5765.52, 0.019776676, 0.017868577, -574679.56, 3998.587, 0.0, 5.013865, 4.960045 
9.954388e+2, 2.459119e+2, -526126.06, -609590.3, 8150.852, 0.016129877, 0.018855097, -525337.56, 4726.434, 0.0, 5.0137453, 4.960139 
9.9544734e+2, 2.5087237e+2, -477250.47, -560264.75, 10683.91, 0.011139394, 0.019617114, -475897.53, 5551.4053, 0.0, 5.0136037, 4.960209 
9.954558e+2, 2.558329e+2, -428740.38, -511796.44, 13376.408, 0.0055572963, 0.020494377, -426639.22, 6193.796, 0.0, 5.013458, 4.9599805 
9.9545985e+2, 2.6079294e+2, -377050.28, -460724.4, 12298.611, -0.009680795, 0.019838417, -375280.06, 8943.705, 0.0, 5.014187, 4.960248 
9.9546283e+2, 2.6575112e+2, -322206.47, -408178.63, 18694.691, -0.0032970891, -0.007237535, -318317.25, 17319.922, 0.0, 5.0161095, 4.9605536 
9.95466e+2, 2.7070916e+2, -267617.4, -356329.13, 24616.191, 0.0021861738, -0.03674332, -261244.58, 25808.045, 0.0, 5.0180616, 4.96062 
9.95469e+2, 2.7566716e+2, -213166.6, -304726.06, 30536.34, 0.005483704, -0.066636674, -203916.77, 34551.332, 0.0, 5.02, 4.96062 
9.954594e+2, 2.806206e+2, -185402.48, -308471.7, 12413.559, 0.03016475, -0.041659456, -184162.86, 5764.7124, 0.0, 5.0207334, 4.941238 
9.954285e+2, 2.8556433e+2, -139589.36, -260121.52, 16131.772, 0.03403803, -0.021956654, -137467.67, 4010.4353, 0.0, 5.019441, 4.9413834 
9.9999523e+2, 1.2149756e+2, -1751215.9, -1752796.3, -1970.3304, -0.030233216, 0.030195693, -1749883.3, -544.6783, 0.0, 4.9977074, 4.9967766 
1.0000116e+3, 1.2648815e+2, -1702977.1, -1712037.6, -1933.7426, -0.035297625, 0.0016859367, -1702581.6, -2150.313, 0.0, 4.999171, 4.993315 
1.0000305e+3, 1.3148114e+2, -1649989.1, -1660892.0, -1808.7893, -0.013475275, -0.001983974, -1649696.9, 1802.0245, 0.0, 5.0004644, 4.9933515 
1.0000489e+3, 1.3647418e+2, -1600078.6, -1616845.0, -891.3351, 0.0012518471, -0.003050013, -1600031.4, 2534.7295, 0.0, 5.0019035, 4.9909897 
1.0000673e+3, 1.4146285e+2, -1553866.4, -1580468.0, -696.89166, -0.0005632835, 0.0068155117, -1553848.1, -172.20068, 0.0, 5.0031714, 4.986228 
1.000086e+3, 1.4644942e+2, -1504083.1, -1530600.3, -310.34833, 0.0054555694, 0.007731297, -1504079.5, 726.23975, 0.0, 5.003329, 4.9863954 
1.00010455e+3, 1.514361e+2, -1454501.5, -1481163.5, 249.78838, 0.009424057, 0.009696136, -1454499.1, 1435.16, 0.0, 5.003487, 4.9864206 
1.0001229e+3, 1.56423e+2, -1406530.6, -1435180.6, 929.16034, 0.010930036, 0.014123047, -1406500.5, 560.4645, 0.0, 5.0036545, 4.985286 
1.0001421e+3, 1.6140646e+2, -1364934.5, -1402655.1, 2379.9973, 0.007920648, 0.026837949, -1364784.9, -6562.8745, 0.0, 5.0038514, 4.9795475 
1.000162e+3, 1.6638687e+2, -1313253.1, -1352164.4, 1570.2942, 0.0017084046, 0.030550094, -1313189.8, -3774.9336, 0.0, 5.004671, 4.979604 
1.0001815e+3, 1.7136699e+2, -1261397.4, -1301834.9, 592.08594, -0.00986105, 0.031687945, -1261388.6, -778.0623, 0.0, 5.005591, 4.9795704 
1.0002005e+3, 1.7634688e+2, -1209666.5, -1252218.4, -524.5412, -0.027584055, 0.031045847, -1209660.0, 2148.5735, 0.0, 5.0065928, 4.979268 
1.0002196e+3, 1.8132387e+2, -1165726.3, -1218662.4, -972.5688, -0.043287568, 0.03393637, -1165708.4, -2673.6318, 0.0, 5.007518, 4.973546 
1.0002417e+3, 1.8629608e+2, -1114348.9, -1168777.3, -199.27713, -0.026346043, 0.01729247, -1114348.1, -41.559746, 0.0, 5.008331, 4.9734063 
1.0002638e+3, 1.9126819e+2, -1062695.3, -1118507.4, 743.6109, -0.010674383, -0.00009085351, -1062685.4, 2893.9216, 0.0, 5.00918, 4.973389 
1.0002856e+3, 1.9624037e+2, -1011425.9, -1069263.8, 616.8381, 0.0024664411, -0.016457621, -1011419.25, 5431.928, 0.0, 5.0100727, 4.973012 
1.0003053e+3, 2.0121132e+2, -966619.3, -1030319.06, 1126.506, 0.017440114, -0.019125205, -966599.4, 1534.3763, 0.0, 5.010372, 4.96937 
1.0003244e+3, 2.0618108e+2, -917725.44, -980660.6, 2177.7727, 0.021843055, -0.019789584, -917650.1, 1773.5956, 0.0, 5.010149, 4.969633 
1.0003431e+3, 2.111511e+2, -869181.7, -931783.44, 3206.1357, 0.021649884, -0.018465342, -869017.9, 1693.1306, 0.0, 5.0099216, 4.969632 
1.0003614e+3, 2.1612129e+2, -821706.44, -885576.2, 4818.8706, 0.016761469, -0.014878975, -821344.94, 651.4905, 0.0, 5.009747, 4.9686904 
1.0003785e+3, 2.2108966e+2, -777039.4, -847910.9, 3076.0298, 0.0055142017, 0.002245381, -776906.06, -3603.0994, 0.0, 5.009955, 4.964628 
1.0003943e+3, 2.26054e+2, -727641.6, -799341.7, 3226.659, -0.00296046, -0.0016770745, -727496.75, -2838.889, 0.0, 5.010174, 4.964289 
1.0004098e+3, 2.3101825e+2, -677698.4, -749806.1, 3051.054, -0.015319278, -0.0061684195, -677569.5, -1555.2528, 0.0, 5.010428, 4.964275 
1.0004249e+3, 2.3598257e+2, -628178.1, -701404.8, 3301.0781, -0.032079503, -0.009452253, -628029.6, -659.7311, 0.0, 5.0107126, 4.9638553 
1.0004384e+3, 2.4094653e+2, -580406.06, -654125.5, -2075.2563, -0.034757264, -0.004727168, -580347.7, -1620.974, 0.0, 5.0105033, 4.963241 
1.0004491e+3, 2.4590936e+2, -530890.2, -603555.75, 1021.0969, -0.017232962, -0.016019935, -530875.8, -788.3885, 0.0, 5.010401, 4.963728 
1.0004595e+3, 2.5087243e+2, -481560.1, -554046.0, 4410.2554, -0.0044841217, -0.026226286, -481292.75, 152.52678, 0.0, 5.010419, 4.9637947 
1.0004692e+3, 2.5583577e+2, -432317.7, -505266.28, 7959.96, 0.0014114821, -0.03478736, -431459.22, 1341.4224, 0.0, 5.010532, 4.9635644 
1.0004751e+3, 2.608024e+2, -379178.4, -449971.13, 4423.6377, -0.0056045335, -0.016212966, -378903.06, 5223.243, 0.0, 5.011096, 4.9653945 
1.00048035e+3, 2.6577017e+2, -330342.56, -401284.0, 835.0687, 0.008871025, 0.004226913, -330332.75, 5115.857, 0.0, 5.0110803, 4.9651656 
1.0004849e+3, 2.7073824e+2, -281256.22, -351875.44, -3172.451, 0.012426066, 0.027386816, -281114.0, 5654.765, 0.0, 5.0110188, 4.965225 
1.0004885e+3, 2.7570656e+2, -232059.95, -302625.84, -7142.2915, 0.004848109, 0.05288513, -231344.3, 6741.9785, 0.0, 5.0110183, 4.9652047 
1.00047864e+3, 2.8067338e+2, -192199.89, -267492.44, -14174.46, 0.027799444, 0.10260768, -189619.84, -204.16888, 0.0, 5.009654, 4.9606934 
1.0004437e+3, 2.8563547e+2, -152174.28, -214827.45, 46070.11, 0.0197235, 0.07488813, -127789.016, 12991.079, 0.0, 5.005057, 4.963928 
