coord_x,coord_y,stress_xx,stress_yy,tau_xy,velocity_x,velocity_y,stress_1,eps,damage,lx,ly
1.2706468e+0, 1.25e+0, 1726851.4, 831447.0, 0.0, -0.03616588, 0.0, 1726851.4, 1726851.4, 0.054560795, 2.531976, 2.5 
1.2706468e+0, 3.75e+0, 1726851.4, 831447.0, 0.0, -0.03616588, 0.0, 1726851.4, 1726851.4, 0.054560795, 2.531976, 2.5 
3.812589e+0, 1.25e+0, 99763.74, 48034.395, 0.0, 0.012065436, 0.0, 99763.74, 99763.74, 0.053764656, 2.501813, 2.5 
3.812589e+0, 3.75e+0, 99763.74, 48034.395, 0.0, 0.012065436, 0.0, 99763.74, 99763.74, 0.053764656, 2.501813, 2.5 
6.326679e+0, 1.25e+0, 950940.5, 457860.22, 0.0, -0.0000073153024, 0.0, 950940.5, 950940.5, 0.05299303, 2.517428, 2.5 
6.326679e+0, 3.75e+0, 950940.5, 457860.22, 0.0, -0.0000073153, 0.0, 950940.5, 950940.5, 0.05299303, 2.517428, 2.5 
8.876424e+0, 1.25e+0, 930000.0, 447777.78, 0.000000055666447, 0.000000061672374, 0.0, 930000.0, 930000.0, 0.052226216, 2.5170264, 2.5 
8.876424e+0, 3.75e+0, 930000.0, 447777.78, 0.000000055666447, 0.00000006167078, 0.0, 930000.0, 930000.0, 0.052226216, 2.5170264, 2.5 
