coord_x,coord_y,stress_xx,stress_yy,tau_xy,velocity_x,velocity_y,stress_1,eps,damage,lx,ly
1.2706356e+0, 1.25e+0, 1727910.0, 831956.6, 0.0, -0.036165886, 0.0, 1727910.0, 1727910.0, 0.053333968, 2.5319536, 2.5 
1.2706356e+0, 3.75e+0, 1727910.0, 831956.6, 0.0, -0.036165886, 0.0, 1727910.0, 1727910.0, 0.053333968, 2.5319536, 2.5 
3.8125554e+0, 1.25e+0, 98679.64, 47512.42, -0.000000064144196, 0.012065421, 0.0, 98679.64, 98679.64, 0.05255381, 2.5017908, 2.5 
3.8125554e+0, 3.75e+0, 98679.64, 47512.42, -0.000000064144196, 0.012065421, 0.0, 98679.64, 98679.64, 0.05255381, 2.5017908, 2.5 
6.326624e+0, 1.25e+0, 950953.3, 457866.4, -0.000000098053675, -0.0000073055508, 0.0, 950953.3, 950953.3, 0.051797688, 2.517406, 2.5 
6.326624e+0, 3.75e+0, 950953.3, 457866.4, -0.000000098053675, -0.0000073055576, 0.0, 950953.3, 950953.3, 0.051797688, 2.517406, 2.5 
8.876346e+0, 1.25e+0, 930000.0, 447777.78, -0.000000038802533, 0.00000006056451, 0.0, 930000.0, 930000.0, 0.0510463, 2.517005, 2.5 
8.876346e+0, 3.75e+0, 930000.0, 447777.78, -0.000000038802533, 0.00000006056674, 0.0, 930000.0, 930000.0, 0.0510463, 2.517005, 2.5 
