coord_x,coord_y,stress_xx,stress_yy,tau_xy,velocity_x,velocity_y,stress_1,eps,damage,lx,ly
1.2707183e+0, 1.25e+0, 1720140.1, 828215.6, 0.0, -0.036165845, 0.0, 1720140.1, 1720140.1, 0.06233846, 2.5321186, 2.5 
1.2707183e+0, 3.75e+0, 1720140.1, 828215.6, 0.0, -0.036165845, 0.0, 1720140.1, 1720140.1, 0.06233846, 2.5321186, 2.5 
3.8128036e+0, 1.25e+0, 106637.03, 51343.754, 0.0, 0.0120655345, 0.0, 106637.03, 106637.03, 0.061442833, 2.5019538, 2.5 
3.8128036e+0, 3.75e+0, 106637.03, 51343.754, 0.0, 0.0120655345, 0.0, 106637.03, 106637.03, 0.061442833, 2.5019538, 2.5 
6.327035e+0, 1.25e+0, 950859.25, 457821.13, 0.0, -0.0000073779124, 0.0, 950859.25, 950859.25, 0.060574654, 2.5175686, 2.5 
6.327035e+0, 3.75e+0, 950859.25, 457821.13, 0.0, -0.00000737791, 0.0, 950859.25, 950859.25, 0.060574654, 2.5175686, 2.5 
8.8769215e+0, 1.25e+0, 930000.0, 447777.78, 0.0, 0.000000069152556, 0.0, 930000.0, 930000.0, 0.059711773, 2.5171633, 2.5 
8.8769215e+0, 3.75e+0, 930000.0, 447777.78, 0.0, 0.000000069151625, 0.0, 930000.0, 930000.0, 0.059711773, 2.5171633, 2.5 
