coord_x,coord_y,stress_xx,stress_yy,tau_xy,velocity_x,velocity_y,stress_1,eps,damage,lx,ly
1.2703851e+0, 1.25e+0, 1752361.3, 843729.5, 0.0, -0.036165997, 0.0, 1752361.3, 1752361.3, 0.02498975, 2.5314546, 2.5 
1.2703851e+0, 3.75e+0, 1752361.3, 843729.5, 0.0, -0.036165997, 0.0, 1752361.3, 1752361.3, 0.02498975, 2.5314546, 2.5 
3.8118035e+0, 1.25e+0, 73638.25, 35455.453, 0.0, 0.01206508, 0.0, 73638.25, 73638.25, 0.024602197, 2.5012977, 2.5 
3.8118035e+0, 3.75e+0, 73638.25, 35455.453, 0.0, 0.01206508, 0.0, 73638.25, 73638.25, 0.024602197, 2.5012977, 2.5 
6.325379e+0, 1.25e+0, 951249.0, 458008.78, 0.0, -0.000007088189, 0.0, 951249.0, 951249.0, 0.024226801, 2.5169146, 2.5 
6.325379e+0, 3.75e+0, 951249.0, 458008.78, 0.0, -0.0000070881915, 0.0, 951249.0, 951249.0, 0.024226801, 2.5169146, 2.5 
8.8746035e+0, 1.25e+0, 930000.0, 447777.78, 0.000000016667522, 0.000000039355367, 0.0, 930000.0, 930000.0, 0.023853973, 2.5165265, 2.5 
8.8746035e+0, 3.75e+0, 930000.0, 447777.78, 0.000000016667522, 0.000000039357047, 0.0, 930000.0, 930000.0, 0.023853973, 2.5165265, 2.5 
