coord_x,coord_y,stress_xx,stress_yy,tau_xy,velocity_x,velocity_y,stress_1,eps,damage,lx,ly
1.2704971e+0, 1.25e+0, 1741238.5, 838374.06, 0.0, -0.03616595, 0.0, 1741238.5, 1741238.5, 0.0378848, 2.531678, 2.5 
1.2704971e+0, 3.75e+0, 1741238.5, 838374.06, 0.0, -0.03616595, 0.0, 1741238.5, 1741238.5, 0.0378848, 2.531678, 2.5 
3.8121402e+0, 1.25e+0, 85029.4, 40940.082, -0.000000104316406, 0.012065232, 0.0, 85029.4, 85029.4, 0.037312873, 2.5015185, 2.5 
3.8121402e+0, 3.75e+0, 85029.4, 40940.082, -0.000000104316406, 0.012065232, 0.0, 85029.4, 85029.4, 0.037312873, 2.5015185, 2.5 
6.325936e+0, 1.25e+0, 951114.56, 457944.03, -0.00000004127623, -0.00000718518, 0.0, 951114.56, 951114.56, 0.036758732, 2.5171344, 2.5 
6.325936e+0, 3.75e+0, 951114.56, 457944.03, -0.00000004127623, -0.0000071851778, 0.0, 951114.56, 951114.56, 0.036758732, 2.5171344, 2.5 
8.875383e+0, 1.25e+0, 930000.0, 447777.78, 0.0000005920301, 0.000000048018244, 0.0, 930000.0, 930000.0, 0.036208227, 2.5167406, 2.5 
8.875383e+0, 3.75e+0, 930000.0, 447777.78, 0.0000005920301, 0.00000004801534, 0.0, 930000.0, 930000.0, 0.036208227, 2.5167406, 2.5 
