coord_x,coord_y,stress_xx,stress_yy,tau_xy,velocity_x,velocity_y,stress_1,eps,damage,lx,ly
1.2705337e+0, 1.25e+0, 1737688.4, 836664.75, 0.0, -0.03616593, 0.0, 1737688.4, 1737688.4, 0.04200009, 2.5317504, 2.5 
1.2705337e+0, 3.75e+0, 1737688.4, 836664.75, 0.0, -0.03616593, 0.0, 1737688.4, 1737688.4, 0.04200009, 2.5317504, 2.5 
3.8122493e+0, 1.25e+0, 88665.195, 42690.65, 0.0, 0.012065281, 0.0, 88665.195, 88665.195, 0.04137139, 2.5015903, 2.5 
3.8122493e+0, 3.75e+0, 88665.195, 42690.65, 0.0, 0.012065281, 0.0, 88665.195, 88665.195, 0.04137139, 2.5015903, 2.5 
6.326117e+0, 1.25e+0, 951071.6, 457923.38, 0.00000065475285, -0.0000072167913, 0.0, 951071.6, 951071.6, 0.040762194, 2.517206, 2.5 
6.326117e+0, 3.75e+0, 951071.6, 457923.38, 0.00000065475285, -0.0000072167923, 0.0, 951071.6, 951071.6, 0.040762194, 2.517206, 2.5 
8.875636e+0, 1.25e+0, 930000.0, 447777.78, 0.0000000926223, 0.00000005111184, 0.0, 930000.0, 930000.0, 0.04015695, 2.5168102, 2.5 
8.875636e+0, 3.75e+0, 930000.0, 447777.78, 0.0000000926223, 0.000000051112465, 0.0, 930000.0, 930000.0, 0.04015695, 2.5168102, 2.5 
