coord_x,coord_y,stress_xx,stress_yy,tau_xy,velocity_x,velocity_y,stress_1,eps,damage,lx,ly
1.2707058e+0, 1.25e+0, 1721304.1, 828776.06, 0.0, -0.036165852, 0.0, 1721304.1, 1721304.1, 0.06098962, 2.5320938, 2.5 
1.2707058e+0, 3.75e+0, 1721304.1, 828776.06, 0.0, -0.036165852, 0.0, 1721304.1, 1721304.1, 0.06098962, 2.5320938, 2.5 
3.8127664e+0, 1.25e+0, 105444.98, 50769.8, 0.0, 0.012065518, 0.0, 105444.98, 105444.98, 0.060111023, 2.5019293, 2.5 
3.8127664e+0, 3.75e+0, 105444.98, 50769.8, 0.0, 0.012065518, 0.0, 105444.98, 105444.98, 0.060111023, 2.5019293, 2.5 
6.326973e+0, 1.25e+0, 950873.3, 457827.9, 0.0, -0.0000073669503, 0.0, 950873.3, 950873.3, 0.059259374, 2.517544, 2.5 
6.326973e+0, 3.75e+0, 950873.3, 457827.9, 0.0, -0.000007366952, 0.0, 950873.3, 950873.3, 0.059259374, 2.517544, 2.5 
8.876835e+0, 1.25e+0, 930000.0, 447777.78, 0.0, 0.000000067794986, 0.0, 930000.0, 930000.0, 0.058412943, 2.5171394, 2.5 
8.876835e+0, 3.75e+0, 930000.0, 447777.78, 0.0, 0.00000006779521, 0.0, 930000.0, 930000.0, 0.058412943, 2.5171394, 2.5 
