coord_x,coord_y,stress_xx,stress_yy,tau_xy,velocity_x,velocity_y,stress_1,eps,damage,lx,ly
1.2703499e+0, 1.25e+0, 1755918.3, 845442.1, 0.0, -0.036166012, 0.0, 1755918.3, 1755918.3, 0.020865442, 2.5313842, 2.5 
1.2703499e+0, 3.75e+0, 1755918.3, 845442.1, 0.0, -0.036166012, 0.0, 1755918.3, 1755918.3, 0.020865442, 2.5313842, 2.5 
3.811698e+0, 1.25e+0, 69995.414, 33701.492, 0.0, 0.0120650325, 0.0, 69995.414, 69995.414, 0.020539034, 2.5012283, 2.5 
3.811698e+0, 3.75e+0, 69995.414, 33701.492, 0.0, 0.0120650325, 0.0, 69995.414, 69995.414, 0.020539034, 2.5012283, 2.5 
6.325204e+0, 1.25e+0, 951292.0, 458029.5, 0.0, -0.0000070578185, 0.0, 951292.0, 951292.0, 0.020222897, 2.5168455, 2.5 
6.325204e+0, 3.75e+0, 951292.0, 458029.5, 0.0, -0.000007057819, 0.0, 951292.0, 951292.0, 0.020222897, 2.5168455, 2.5 
8.874358e+0, 1.25e+0, 930000.0, 447777.78, 0.0, 0.00000003689217, 0.0, 930000.0, 930000.0, 0.019908948, 2.5164592, 2.5 
8.874358e+0, 3.75e+0, 930000.0, 447777.78, 0.0, 0.000000036892573, 0.0, 930000.0, 930000.0, 0.019908948, 2.5164592, 2.5 
