coord_x,coord_y,stress_xx,stress_yy,tau_xy,velocity_x,velocity_y,stress_1,eps,damage,lx,ly
1.2702978e+0, 1.25e+0, 1761231.3, 848000.25, 0.0, -0.03616604, 0.0, 1761231.3, 1761231.3, 0.01470451, 2.5312805, 2.5 
1.2702978e+0, 3.75e+0, 1761231.3, 848000.25, 0.0, -0.03616604, 0.0, 1761231.3, 1761231.3, 0.01470451, 2.5312805, 2.5 
3.8115415e+0, 1.25e+0, 64554.14, 31081.623, 0.0, 0.012064964, 0.0, 64554.14, 64554.14, 0.01447151, 2.5011258, 2.5 
3.8115415e+0, 3.75e+0, 64554.14, 31081.623, 0.0, 0.012064964, 0.0, 64554.14, 64554.14, 0.01447151, 2.5011258, 2.5 
6.324945e+0, 1.25e+0, 951356.25, 458060.4, 0.0, -0.0000070130027, 0.0, 951356.25, 951356.25, 0.014245874, 2.5167434, 2.5 
6.324945e+0, 3.75e+0, 951356.25, 458060.4, 0.0, -0.000007013004, 0.0, 951356.25, 951356.25, 0.014245874, 2.5167434, 2.5 
8.873997e+0, 1.25e+0, 930000.0, 447777.78, 0.0, 0.00000003345786, 0.0, 930000.0, 930000.0, 0.014021831, 2.51636, 2.5 
8.873997e+0, 3.75e+0, 930000.0, 447777.78, 0.0, 0.000000033459116, 0.0, 930000.0, 930000.0, 0.014021831, 2.51636, 2.5 
