coord_x,coord_y,stress_xx,stress_yy,tau_xy,velocity_x,velocity_y,stress_1,eps,damage,lx,ly
1.2706032e+0, 1.25e+0, 1730992.1, 833440.6, 0.0, -0.0361659, 0.0, 1730992.1, 1730992.1, 0.04976178, 2.5318892, 2.5 
1.2706032e+0, 3.75e+0, 1730992.1, 833440.6, 0.0, -0.0361659, 0.0, 1730992.1, 1730992.1, 0.04976178, 2.5318892, 2.5 
3.8124582e+0, 1.25e+0, 95523.13, 45992.62, 0.0, 0.012065376, 0.0, 95523.13, 95523.13, 0.049028605, 2.501727, 2.5 
3.8124582e+0, 3.75e+0, 95523.13, 45992.62, 0.0, 0.012065376, 0.0, 95523.13, 95523.13, 0.049028605, 2.501727, 2.5 
6.3264626e+0, 1.25e+0, 950990.56, 457884.34, 0.0, -0.000007277298, 0.0, 950990.56, 950990.56, 0.048318066, 2.5173423, 2.5 
6.3264626e+0, 3.75e+0, 950990.56, 457884.34, 0.0, -0.0000072772987, 0.0, 950990.56, 950990.56, 0.048318066, 2.5173423, 2.5 
8.8761204e+0, 1.25e+0, 930000.0, 447777.78, -0.00000023021416, 0.00000005743041, 0.0, 930000.0, 930000.0, 0.047612023, 2.516943, 2.5 
8.8761204e+0, 3.75e+0, 930000.0, 447777.78, -0.00000023021416, 0.000000057429542, 0.0, 930000.0, 930000.0, 0.047612023, 2.516943, 2.5 
