coord_x,coord_y,stress_xx,stress_yy,tau_xy,velocity_x,velocity_y,stress_1,eps,damage,lx,ly
1.2703364e+0, 1.25e+0, 1757288.1, 846101.7, 0.0, -0.03616602, 0.0, 1757288.1, 1757288.1, 0.019276934, 2.5313573, 2.5 
1.2703364e+0, 3.75e+0, 1757288.1, 846101.7, 0.0, -0.03616602, 0.0, 1757288.1, 1757288.1, 0.019276934, 2.5313573, 2.5 
3.8116574e+0, 1.25e+0, 68592.41, 33025.973, 0.0, 0.012065015, 0.0, 68592.41, 68592.41, 0.018974371, 2.5012019, 2.5 
3.8116574e+0, 3.75e+0, 68592.41, 33025.973, 0.0, 0.012065015, 0.0, 68592.41, 68592.41, 0.018974371, 2.5012019, 2.5 
6.3251364e+0, 1.25e+0, 951308.56, 458037.47, 0.000000074288984, -0.0000070461906, 0.0, 951308.56, 951308.56, 0.018681336, 2.516819, 2.5 
6.3251364e+0, 3.75e+0, 951308.56, 458037.47, 0.000000074288984, -0.0000070461933, 0.0, 951308.56, 951308.56, 0.018681336, 2.516819, 2.5 
8.874265e+0, 1.25e+0, 930000.0, 447777.78, 0.0, 0.000000035977077, 0.0, 930000.0, 930000.0, 0.018390343, 2.5164337, 2.5 
8.874265e+0, 3.75e+0, 930000.0, 447777.78, 0.0, 0.000000035977358, 0.0, 930000.0, 930000.0, 0.018390343, 2.5164337, 2.5 
