coord_x,coord_y,stress_xx,stress_yy,tau_xy,velocity_x,velocity_y,stress_1,eps,damage,lx,ly
1.3770488e+0, 1.25e+0, 1170358.5, 0.0, 0.0, 1.0392249, 0.0, 1170358.5, 1170358.5, 0.0023501993, 2.529855, 2.5 
1.3770488e+0, 3.75e+0, 1170358.5, 0.0, 0.0, 1.0392249, 0.0, 1170358.5, 1170358.5, 0.0023501993, 2.529855, 2.5 
3.83668e+0, 1.25e+0, 680938.5, 0.0, 0.0, -0.36378798, 0.0, 680938.5, 680938.5, 0.0023524477, 2.5172405, 2.5 
3.83668e+0, 3.75e+0, 680938.5, 0.0, 0.0, -0.36378798, 0.0, 680938.5, 680938.5, 0.0023524477, 2.5172405, 2.5 
