coord_x,coord_y,stress_xx,stress_yy,tau_xy,velocity_x,velocity_y,stress_1,eps,damage,lx,ly
1.2704714e+0, 1.25e+0, 1743783.5, 839599.44, 0.0, -0.03616596, 0.0, 1743783.5, 1743783.5, 0.03493453, 2.5316262, 2.5 
1.2704714e+0, 3.75e+0, 1743783.5, 839599.44, 0.0, -0.03616596, 0.0, 1743783.5, 1743783.5, 0.03493453, 2.5316262, 2.5 
3.812062e+0, 1.25e+0, 82423.01, 39685.152, 0.0, 0.012065196, 0.0, 82423.01, 82423.01, 0.0344039, 2.5014675, 2.5 
3.812062e+0, 3.75e+0, 82423.01, 39685.152, 0.0, 0.012065196, 0.0, 82423.01, 82423.01, 0.0344039, 2.5014675, 2.5 
6.325807e+0, 1.25e+0, 951145.3, 457958.84, 0.000000017338, -0.0000071627196, 0.0, 951145.3, 951145.3, 0.033889808, 2.5170836, 2.5 
6.325807e+0, 3.75e+0, 951145.3, 457958.84, 0.000000017338, -0.0000071627223, 0.0, 951145.3, 951145.3, 0.033889808, 2.5170836, 2.5 
8.875203e+0, 1.25e+0, 930000.0, 447777.78, -0.000000078984854, 0.000000045901523, 0.0, 930000.0, 930000.0, 0.033379123, 2.516691, 2.5 
8.875203e+0, 3.75e+0, 930000.0, 447777.78, -0.000000078984854, 0.000000045903672, 0.0, 930000.0, 930000.0, 0.033379123, 2.516691, 2.5 
