coord_x,coord_y,stress_xx,stress_yy,tau_xy,velocity_x,velocity_y,stress_1,eps,damage,lx,ly
1.2703924e+0, 1.25e+0, 1751625.9, 843375.44, 0.0, -0.036165994, 0.0, 1751625.9, 1751625.9, 0.025842274, 2.531469, 2.5 
1.2703924e+0, 3.75e+0, 1751625.9, 843375.44, 0.0, -0.036165994, 0.0, 1751625.9, 1751625.9, 0.025842274, 2.531469, 2.5 
3.8118258e+0, 1.25e+0, 74391.27, 35818.02, 0.0, 0.01206509, 0.0, 74391.27, 74391.27, 0.025442217, 2.501312, 2.5 
3.8118258e+0, 3.75e+0, 74391.27, 35818.02, 0.0, 0.01206509, 0.0, 74391.27, 74391.27, 0.025442217, 2.501312, 2.5 
6.3254154e+0, 1.25e+0, 951240.1, 458004.5, 0.00000003764503, -0.0000070945107, 0.0, 951240.1, 951240.1, 0.0250547, 2.516929, 2.5 
6.3254154e+0, 3.75e+0, 951240.1, 458004.5, 0.00000003764503, -0.000007094512, 0.0, 951240.1, 951240.1, 0.0250547, 2.516929, 2.5 
8.874655e+0, 1.25e+0, 930000.0, 447777.78, 0.00000009010084, 0.000000039885116, 0.0, 930000.0, 930000.0, 0.024669826, 2.5165405, 2.5 
8.874655e+0, 3.75e+0, 930000.0, 447777.78, 0.00000009010084, 0.00000003988454, 0.0, 930000.0, 930000.0, 0.024669826, 2.5165405, 2.5 
