coord_x,coord_y,stress_xx,stress_yy,tau_xy,velocity_x,velocity_y,stress_1,eps,damage,lx,ly
1.2704465e+0, 1.25e+0, 1746235.1, 840779.9, 0.0, -0.03616597, 0.0, 1746235.1, 1746235.1, 0.032092288, 2.5315769, 2.5 
1.2704465e+0, 3.75e+0, 1746235.1, 840779.9, 0.0, -0.03616597, 0.0, 1746235.1, 1746235.1, 0.032092288, 2.5315769, 2.5 
3.811988e+0, 1.25e+0, 79912.17, 38476.23, 0.0, 0.012065163, 0.0, 79912.17, 79912.17, 0.031601936, 2.5014186, 2.5 
3.811988e+0, 3.75e+0, 79912.17, 38476.23, 0.0, 0.012065163, 0.0, 79912.17, 79912.17, 0.031601936, 2.5014186, 2.5 
6.325684e+0, 1.25e+0, 951174.94, 457973.13, 0.0, -0.0000071412323, 0.0, 951174.94, 951174.94, 0.031126894, 2.5170348, 2.5 
6.325684e+0, 3.75e+0, 951174.94, 457973.13, 0.0, -0.0000071412323, 0.0, 951174.94, 951174.94, 0.031126894, 2.5170348, 2.5 
8.87503e+0, 1.25e+0, 930000.0, 447777.78, 0.0, 0.000000043941345, 0.0, 930000.0, 930000.0, 0.030655026, 2.5166435, 2.5 
8.87503e+0, 3.75e+0, 930000.0, 447777.78, 0.0, 0.000000043941256, 0.0, 930000.0, 930000.0, 0.030655026, 2.5166435, 2.5 
