coord_x,coord_y,stress_xx,stress_yy,tau_xy,velocity_x,velocity_y,stress_1,eps,damage,lx,ly
1.2704799e+0, 1.25e+0, 1742945.9, 839196.1, 0.0, -0.036165956, 0.0, 1742945.9, 1742945.9, 0.035905585, 2.5316432, 2.5 
1.2704799e+0, 3.75e+0, 1742945.9, 839196.1, 0.0, -0.036165956, 0.0, 1742945.9, 1742945.9, 0.035905585, 2.5316432, 2.5 
3.812088e+0, 1.25e+0, 83280.87, 40098.195, 0.0, 0.012065208, 0.0, 83280.87, 83280.87, 0.035361305, 2.5014842, 2.5 
3.812088e+0, 3.75e+0, 83280.87, 40098.195, 0.0, 0.012065208, 0.0, 83280.87, 83280.87, 0.035361305, 2.5014842, 2.5 
6.325849e+0, 1.25e+0, 951135.2, 457953.97, -0.00000006765678, -0.0000071700906, 0.0, 951135.2, 951135.2, 0.034833975, 2.5171003, 2.5 
6.325849e+0, 3.75e+0, 951135.2, 457953.97, -0.00000006765678, -0.0000071700806, 0.0, 951135.2, 951135.2, 0.034833975, 2.5171003, 2.5 
8.875262e+0, 1.25e+0, 930000.0, 447777.78, -0.0000007885175, 0.000000046587814, 0.0, 930000.0, 930000.0, 0.03431013, 2.5167072, 2.5 
8.875262e+0, 3.75e+0, 930000.0, 447777.78, -0.0000007885175, 0.00000004658469, 0.0, 930000.0, 930000.0, 0.03431013, 2.5167072, 2.5 
