coord_x,coord_y,stress_xx,stress_yy,tau_xy,velocity_x,velocity_y,stress_1,eps,damage,lx,ly
1.2702617e+0, 1.25e+0, 1764944.9, 849788.3, 0.0, -0.036166053, 0.0, 1764944.9, 1764944.9, 0.010397936, 2.5312088, 2.5 
1.2702617e+0, 3.75e+0, 1764944.9, 849788.3, 0.0, -0.036166053, 0.0, 1764944.9, 1764944.9, 0.010397936, 2.5312088, 2.5 
3.8114336e+0, 1.25e+0, 60750.938, 29250.451, 0.0, 0.012064915, 0.0, 60750.938, 60750.938, 0.010231749, 2.501055, 2.5 
3.8114336e+0, 3.75e+0, 60750.938, 29250.451, 0.0, 0.012064915, 0.0, 60750.938, 60750.938, 0.010231749, 2.501055, 2.5 
6.324766e+0, 1.25e+0, 951401.1, 458082.0, 0.0, -0.000006982071, 0.0, 951401.1, 951401.1, 0.010070831, 2.5166728, 2.5 
6.324766e+0, 3.75e+0, 951401.1, 458082.0, 0.0, -0.00000698207, 0.0, 951401.1, 951401.1, 0.010070831, 2.5166728, 2.5 
8.873746e+0, 1.25e+0, 930000.0, 447777.78, 0.0, 0.000000031224708, 0.0, 930000.0, 930000.0, 0.009911064, 2.5162916, 2.5 
8.873746e+0, 3.75e+0, 930000.0, 447777.78, 0.0, 0.000000031223777, 0.0, 930000.0, 930000.0, 0.009911064, 2.5162916, 2.5 
