coord_x,coord_y,stress_xx,stress_yy,tau_xy,velocity_x,velocity_y,stress_1,eps,damage,lx,ly
1.2705724e+0, 1.25e+0, 1733942.4, 834861.2, 0.0, -0.03616591, 0.0, 1733942.4, 1733942.4, 0.04634213, 2.5318277, 2.5 
1.2705724e+0, 3.75e+0, 1733942.4, 834861.2, 0.0, -0.03616591, 0.0, 1733942.4, 1733942.4, 0.04634213, 2.5318277, 2.5 
3.8123658e+0, 1.25e+0, 92501.56, 44537.79, 0.0, 0.012065334, 0.0, 92501.56, 92501.56, 0.045654573, 2.5016665, 2.5 
3.8123658e+0, 3.75e+0, 92501.56, 44537.79, 0.0, 0.012065334, 0.0, 92501.56, 92501.56, 0.045654573, 2.5016665, 2.5 
6.3263094e+0, 1.25e+0, 951026.3, 457901.53, 0.0, -0.0000072505013, 0.0, 951026.3, 951026.3, 0.04498829, 2.517282, 2.5 
6.3263094e+0, 3.75e+0, 951026.3, 457901.53, 0.0, -0.0000072505013, 0.0, 951026.3, 951026.3, 0.04498829, 2.517282, 2.5 
8.875906e+0, 1.25e+0, 930000.0, 447777.78, -0.00000015263608, 0.000000054567625, 0.0, 930000.0, 930000.0, 0.044326268, 2.516884, 2.5 
8.875906e+0, 3.75e+0, 930000.0, 447777.78, -0.00000015263608, 0.000000054568762, 0.0, 930000.0, 930000.0, 0.044326268, 2.516884, 2.5 
