coord_x,coord_y,stress_xx,stress_yy,tau_xy,velocity_x,velocity_y,stress_1,eps,damage,lx,ly
1.2705928e+0, 1.25e+0, 1731989.6, 833920.94, 0.0, -0.036165904, 0.0, 1731989.6, 1731989.6, 0.048605546, 2.5318682, 2.5 
1.2705928e+0, 3.75e+0, 1731989.6, 833920.94, 0.0, -0.036165904, 0.0, 1731989.6, 1731989.6, 0.048605546, 2.5318682, 2.5 
3.812427e+0, 1.25e+0, 94501.48, 45500.71, 0.0, 0.012065362, 0.0, 94501.48, 94501.48, 0.047887724, 2.5017066, 2.5 
3.812427e+0, 3.75e+0, 94501.484, 45500.71, 0.0, 0.012065362, 0.0, 94501.484, 94501.484, 0.047887724, 2.5017066, 2.5 
6.326411e+0, 1.25e+0, 951002.7, 457890.16, 0.000000085467406, -0.000007268213, 0.0, 951002.7, 951002.7, 0.047192078, 2.5173218, 2.5 
6.326411e+0, 3.75e+0, 951002.7, 457890.16, 0.000000085467406, -0.0000072682133, 0.0, 951002.7, 951002.7, 0.047192078, 2.5173218, 2.5 
8.8760483e+0, 1.25e+0, 930000.0, 447777.78, 0.00000011088666, 0.00000005644829, 0.0, 930000.0, 930000.0, 0.046500854, 2.516923, 2.5 
8.8760483e+0, 3.75e+0, 930000.0, 447777.78, 0.00000011088666, 0.00000005644834, 0.0, 930000.0, 930000.0, 0.046500854, 2.516923, 2.5 
