coord_x,coord_y,stress_xx,stress_yy,tau_xy,velocity_x,velocity_y,stress_1,eps,damage,lx,ly
1.9685559e-2, 1.953125e-2, 613421.94, -0.0000000000000000000000000006286913, -0.00000000003714482, -0.0033214458, 0.0, 613421.94, 613421.94, 0.21869001, 0.039372746, 0.0390625 
1.9685559e-2, 5.859375e-2, 613421.94, -0.00000000000000000000000000063128185, -0.000000000037221268, -0.0033214458, 0.0, 613421.94, 613421.94, 0.21869001, 0.039372746, 0.0390625 
5.9056675e-2, 1.953125e-2, 613415.56, -0.0000000000000000000000000058041728, -0.0000000001128638, -0.009964337, 0.0, 613415.56, 613415.56, 0.2186843, 0.03937274, 0.0390625 
5.9056675e-2, 5.859375e-2, 613415.56, -0.0000000000000000000000000057775564, -0.000000000112604724, -0.009964337, 0.0, 613415.56, 613415.56, 0.2186843, 0.03937274, 0.0390625 
9.842775e-2, 1.953125e-2, 613283.56, -0.0000000000000000000000000023064744, -0.000000000071142175, -0.01660606, 0.0, 613283.56, 613283.56, 0.21867226, 0.039372668, 0.0390625 
9.842775e-2, 5.859375e-2, 613283.56, -0.0000000000000000000000000021603395, -0.00000000006885156, -0.01660606, 0.0, 613283.56, 613283.56, 0.21867226, 0.039372668, 0.0390625 
1.3779879e-1, 1.953125e-2, 613270.7, -0.000000000000000000000000003409005, 0.00000000008649155, -0.023246687, 0.0, 613270.7, 613270.7, 0.21866311, 0.039372656, 0.0390625 
1.3779879e-1, 5.859375e-2, 613270.7, -0.0000000000000000000000000033550628, 0.00000000008580453, -0.023246687, 0.0, 613270.7, 613270.7, 0.21866311, 0.039372656, 0.0390625 
1.7716974e-1, 1.953125e-2, 613029.9, -0.0000000000000000000000000052461792, 0.00000000010728111, -0.029883845, 0.0, 613029.9, 613029.9, 0.21864146, 0.039372526, 0.0390625 
1.7716974e-1, 5.859375e-2, 613029.9, -0.0000000000000000000000000052461792, 0.00000000010728111, -0.029883845, 0.0, 613029.9, 613029.9, 0.21864146, 0.039372526, 0.0390625 
2.1654063e-1, 1.953125e-2, 613002.1, -0.0000000000000000000000000000138591, 0.000000000005514193, -0.03651793, 0.0, 613002.1, 613002.1, 0.21862367, 0.039372507, 0.0390625 
2.1654063e-1, 5.859375e-2, 613002.1, -0.00000000000000000000000000001370613, 0.000000000005483677, -0.03651793, 0.0, 613002.1, 613002.1, 0.21862367, 0.039372507, 0.0390625 
2.559114e-1, 1.953125e-2, 612643.0, -0.0000000000000000000000000005011994, -0.00000000003315291, -0.04314842, 0.0, 612643.0, 612643.0, 0.21860017, 0.039372314, 0.0390625 
2.559114e-1, 5.859375e-2, 612643.0, -0.0000000000000000000000000004346779, -0.000000000030874518, -0.04314842, 0.0, 612643.0, 612643.0, 0.21860017, 0.039372314, 0.0390625 
2.952821e-1, 1.953125e-2, 612596.8, -0.00000000000000000000000000030910574, -0.000000000026036633, -0.049775906, 0.0, 612596.8, 612596.8, 0.21857552, 0.03937228, 0.0390625 
2.952821e-1, 5.859375e-2, 612596.8, -0.00000000000000000000000000034006482, -0.000000000027309398, -0.049775906, 0.0, 612596.8, 612596.8, 0.21857552, 0.03937228, 0.0390625 
3.346526e-1, 1.953125e-2, 612118.1, -0.000000000000000000000000000021827632, 0.000000000006916608, -0.056400858, 0.0, 612118.1, 612118.1, 0.2185526, 0.039372027, 0.0390625 
3.346526e-1, 5.859375e-2, 612118.1, -0.000000000000000000000000000021827632, 0.000000000006916608, -0.056400858, 0.0, 612118.1, 612118.1, 0.2185526, 0.039372027, 0.0390625 
3.74023e-1, 1.953125e-2, 612050.2, -0.000000000000000000000000001678459, 0.00000000006065366, -0.06302382, 0.0, 612050.2, 612050.2, 0.21852423, 0.039371982, 0.0390625 
3.74023e-1, 5.859375e-2, 612050.2, -0.000000000000000000000000001678459, 0.00000000006065366, -0.06302382, 0.0, 612050.2, 612050.2, 0.21852423, 0.039371982, 0.0390625 
4.1339317e-1, 1.953125e-2, 611449.3, -0.00000000000000000000000000033067201, 0.000000000026910089, -0.06964774, 0.0, 611449.3, 611449.3, 0.2185014, 0.039371666, 0.0390625 
4.1339317e-1, 5.859375e-2, 611449.3, -0.00000000000000000000000000027648886, 0.000000000024606804, -0.06964774, 0.0, 611449.3, 611449.3, 0.2185014, 0.039371666, 0.0390625 
4.527632e-1, 1.953125e-2, 611355.44, -0.0000000000000000000000000027923775, -0.0000000000782002, -0.07627241, 0.0, 611355.44, 611355.44, 0.21847156, 0.039371606, 0.0390625 
4.527632e-1, 5.859375e-2, 611355.44, -0.0000000000000000000000000028598993, -0.00000000007914003, -0.07627241, 0.0, 611355.44, 611355.44, 0.21847156, 0.039371606, 0.0390625 
4.9213296e-1, 1.953125e-2, 610629.25, -0.0000000000000000000000000012399508, -0.000000000052082845, -0.08290445, 0.0, 610629.25, 610629.25, 0.21844718, 0.039371226, 0.0390625 
4.9213296e-1, 5.859375e-2, 610629.25, -0.0000000000000000000000000012399508, -0.000000000052082845, -0.08290445, 0.0, 610629.25, 610629.25, 0.21844718, 0.039371226, 0.0390625 
5.3150254e-1, 1.953125e-2, 610503.75, -0.000000000000000000000000002289841, 0.00000000007077654, -0.08954182, 0.0, 610503.75, 610503.75, 0.2184165, 0.039371148, 0.0390625 
5.3150254e-1, 5.859375e-2, 610503.75, -0.000000000000000000000000002289841, 0.00000000007077654, -0.08954182, 0.0, 610503.75, 610503.75, 0.2184165, 0.039371148, 0.0390625 
5.708718e-1, 1.953125e-2, 609648.75, -0.0000000000000000000000000014044901, 0.000000000055395535, -0.096196756, 0.0, 609648.75, 609648.75, 0.21838933, 0.0393707, 0.0390625 
5.708718e-1, 5.859375e-2, 609648.75, -0.0000000000000000000000000014044901, 0.000000000055395535, -0.096196756, 0.0, 609648.75, 609648.75, 0.21838933, 0.0393707, 0.0390625 
6.102408e-1, 1.953125e-2, 609484.8, -0.0000000000000000000000000009750865, -0.00000000004615503, -0.10286372, 0.0, 609484.8, 609484.8, 0.21835731, 0.039370604, 0.0390625 
6.102408e-1, 5.859375e-2, 609484.8, -0.000000000000000000000000000903679, -0.000000000044432888, -0.10286372, 0.0, 609484.8, 609484.8, 0.21835731, 0.039370604, 0.0390625 
6.496095e-1, 1.953125e-2, 608496.7, -0.0000000000000000000000000010496304, -0.000000000047852028, -0.10956302, 0.0, 608496.7, 608496.7, 0.21832688, 0.039370086, 0.0390625 
6.496095e-1, 5.859375e-2, 608496.7, -0.0000000000000000000000000011789363, -0.000000000050713937, -0.10956302, 0.0, 608496.7, 608496.7, 0.21832688, 0.039370086, 0.0390625 
6.8897796e-1, 1.953125e-2, 608286.5, -0.00000000000000000000000000033383477, 0.000000000026984595, -0.116283424, 0.0, 608286.5, 608286.5, 0.2182928, 0.039369967, 0.0390625 
6.8897796e-1, 5.859375e-2, 608286.5, -0.00000000000000000000000000033383477, 0.000000000026984595, -0.116283424, 0.0, 608286.5, 608286.5, 0.2182928, 0.039369967, 0.0390625 
7.283459e-1, 1.953125e-2, 607159.7, -0.00000000000000000000000000072939584, -0.00000000003985383, -0.12305651, 0.0, 607159.7, 607159.7, 0.21825916, 0.03936938, 0.0390625 
7.283459e-1, 5.859375e-2, 607159.7, -0.00000000000000000000000000072939584, -0.00000000003985383, -0.12305651, 0.0, 607159.7, 607159.7, 0.21825916, 0.03936938, 0.0390625 
7.677136e-1, 1.953125e-2, 606894.6, -0.0000000000000000000000000119534776, -0.00000000016131951, -0.12986238, 0.0, 606894.6, 606894.6, 0.21822251, 0.039369226, 0.0390625 
7.677136e-1, 5.859375e-2, 606894.6, -0.0000000000000000000000000119534776, -0.00000000016131951, -0.12986238, 0.0, 606894.6, 606894.6, 0.21822251, 0.039369226, 0.0390625 
8.0708075e-1, 1.953125e-2, 605622.06, -0.0000000000000000000000000015936329, -0.00000000005884677, -0.13674796, 0.0, 605622.06, 605622.06, 0.21818583, 0.039368562, 0.0390625 
8.0708075e-1, 5.859375e-2, 605622.06, -0.0000000000000000000000000015936329, -0.00000000005884677, -0.13674796, 0.0, 605622.06, 605622.06, 0.21818583, 0.039368562, 0.0390625 
8.464476e-1, 1.953125e-2, 605292.25, -0.000000000000000000000000016044238, 0.00000000018668932, -0.14368095, 0.0, 605292.25, 605292.25, 0.21814632, 0.039368376, 0.0390625 
8.464476e-1, 5.859375e-2, 605292.25, -0.000000000000000000000000015501913, 0.00000000018350697, -0.14368095, 0.0, 605292.25, 605292.25, 0.21814632, 0.039368376, 0.0390625 
8.858138e-1, 1.953125e-2, 603865.0, -0.000000000000000000000000008795795, 0.00000000013808066, -0.15072867, 0.0, 603865.0, 603865.0, 0.21810672, 0.039367635, 0.0390625 
8.858138e-1, 5.859375e-2, 603865.0, -0.000000000000000000000000008795795, 0.00000000013808066, -0.15072867, 0.0, 603865.0, 603865.0, 0.21810672, 0.039367635, 0.0390625 
9.2517966e-1, 1.953125e-2, 603459.1, -0.00000000000000000000000000023447509, -0.000000000022539855, -0.15784182, 0.0, 603459.1, 603459.1, 0.21806417, 0.039367408, 0.0390625 
9.2517966e-1, 5.859375e-2, 603459.1, -0.0000000000000000000000000002346283, -0.000000000022547218, -0.15784182, 0.0, 603459.1, 603459.1, 0.21806417, 0.039367408, 0.0390625 
9.645448e-1, 1.953125e-2, 601866.06, -0.0000000000000000000000000015319596, -0.000000000057544493, -0.16511436, 0.0, 601866.06, 601866.06, 0.21802174, 0.03936658, 0.0390625 
9.645448e-1, 5.859375e-2, 601866.06, -0.0000000000000000000000000015319596, -0.000000000057544493, -0.16511436, 0.0, 601866.06, 601866.06, 0.21802174, 0.03936658, 0.0390625 
1.0039095e+0, 1.953125e-2, 601370.75, -0.00000000000000000000000000075812133, -0.000000000040469534, -0.17247416, 0.0, 601370.75, 601370.75, 0.21797596, 0.03936631, 0.0390625 
1.0039095e+0, 5.859375e-2, 601370.75, -0.00000000000000000000000000075812133, -0.000000000040469534, -0.17247416, 0.0, 601370.75, 601370.75, 0.21797596, 0.03936631, 0.0390625 
1.0432734e+0, 1.953125e-2, 599597.8, -0.0000000000000000000000000011761764, -0.00000000005033946, -0.18005008, 0.0, 599597.8, 599597.8, 0.21793076, 0.039365385, 0.0390625 
1.0432734e+0, 5.859375e-2, 599597.8, -0.0000000000000000000000000011761764, -0.00000000005033946, -0.18005008, 0.0, 599597.8, 599597.8, 0.21793076, 0.039365385, 0.0390625 
1.0826369e+0, 1.953125e-2, 598996.94, -0.0000000000000000000000000019486738, -0.00000000006477179, -0.18773979, 0.0, 598996.94, 598996.94, 0.2178815, 0.03936506, 0.0390625 
1.0826369e+0, 5.859375e-2, 598996.94, -0.0000000000000000000000000018378897, -0.00000000006290368, -0.18773979, 0.0, 598996.94, 598996.94, 0.2178815, 0.03936506, 0.0390625 
1.1219994e+0, 1.953125e-2, 597026.3, -0.0000000000000000000000000008380998, -0.000000000042413725, -0.19571643, 0.0, 597026.3, 597026.3, 0.2178336, 0.039364032, 0.0390625 
1.1219994e+0, 5.859375e-2, 597026.3, -0.0000000000000000000000000008380998, -0.000000000042413725, -0.19571643, 0.0, 597026.3, 597026.3, 0.2178336, 0.039364032, 0.0390625 
1.1613613e+0, 1.953125e-2, 596300.3, -0.00000000000000000000000000044070506, 0.00000000003074218, -0.20383878, 0.0, 596300.3, 596300.3, 0.21778059, 0.03936364, 0.0390625 
1.1613613e+0, 5.859375e-2, 596300.3, -0.00000000000000000000000000044070506, 0.00000000003074218, -0.20383878, 0.0, 596300.3, 596300.3, 0.21778059, 0.03936364, 0.0390625 
1.2007222e+0, 1.953125e-2, 594109.5, -0.0000000000000000000000000004061872, 0.00000000002946357, -0.21233961, 0.0, 594109.5, 594109.5, 0.21773, 0.039362505, 0.0390625 
1.2007222e+0, 5.859375e-2, 594109.5, -0.0000000000000000000000000004061872, 0.00000000002946357, -0.21233961, 0.0, 594109.5, 594109.5, 0.21773, 0.039362505, 0.0390625 
1.2400825e+0, 1.953125e-2, 593233.5, -0.00000000000000000000000000028560448, 0.000000000024691962, -0.22102584, 0.0, 593233.5, 593233.5, 0.21767299, 0.039362036, 0.0390625 
1.2400825e+0, 5.859375e-2, 593233.5, -0.00000000000000000000000000032651427, 0.00000000002640123, -0.22102584, 0.0, 593233.5, 593233.5, 0.21767299, 0.039362036, 0.0390625 
1.2794414e+0, 1.953125e-2, 590792.5, -0.0000000000000000000000000058188252, 0.00000000011123958, -0.23019841, 0.0, 590792.5, 590792.5, 0.2176197, 0.03936077, 0.0390625 
1.2794414e+0, 5.859375e-2, 590792.5, -0.0000000000000000000000000058188252, 0.00000000011123958, -0.23019841, 0.0, 590792.5, 590792.5, 0.2176197, 0.03936077, 0.0390625 
1.3188e+0, 1.953125e-2, 589736.56, -0.000000000000000000000000018788898, 0.0000000001997471, -0.23960316, 0.0, 589736.56, 589736.56, 0.21755831, 0.039360207, 0.0390625 
1.3188e+0, 5.859375e-2, 589736.56, -0.000000000000000000000000019950688, 0.00000000020583003, -0.23960316, 0.0, 589736.56, 589736.56, 0.21755831, 0.039360207, 0.0390625 
1.3581567e+0, 1.953125e-2, 587010.4, -0.000000000000000000000000000904402, -0.000000000043729208, -0.24965939, 0.0, 587010.4, 587010.4, 0.21750216, 0.039358795, 0.0390625 
1.3581567e+0, 5.859375e-2, 587010.4, -0.000000000000000000000000001143622, -0.000000000049173613, -0.24965939, 0.0, 587010.4, 587010.4, 0.21750216, 0.039358795, 0.0390625 
1.3975129e+0, 1.953125e-2, 585730.1, -0.000000000000000000000000075164146, -0.00000000039829445, -0.26001197, 0.0, 585730.1, 585730.1, 0.21743615, 0.039358117, 0.0390625 
1.3975129e+0, 5.859375e-2, 585730.1, -0.00000000000000000000000007437779, -0.0000000003962055, -0.26001197, 0.0, 585730.1, 585730.1, 0.21743615, 0.039358117, 0.0390625 
1.4368674e+0, 1.953125e-2, 582657.5, -0.000000000000000000000000013542868, -0.00000000016864847, -0.27113113, 0.0, 582657.5, 582657.5, 0.21737723, 0.039356526, 0.0390625 
1.4368674e+0, 5.859375e-2, 582657.5, -0.000000000000000000000000013542868, -0.00000000016864847, -0.27113113, 0.0, 582657.5, 582657.5, 0.21737723, 0.039356526, 0.0390625 
1.4762212e+0, 1.953125e-2, 581118.2, -0.00000000000000000000000002223608, 0.00000000021585926, -0.28261128, 0.0, 581118.2, 581118.2, 0.21730565, 0.039355718, 0.0390625 
1.4762212e+0, 5.859375e-2, 581118.2, -0.000000000000000000000000023625168, 0.00000000022249949, -0.28261128, 0.0, 581118.2, 581118.2, 0.21730565, 0.039355718, 0.0390625 
1.5155719e+0, 1.953125e-2, 577676.94, -0.000000000000000000000000000006815179, -0.0000000000037684708, -0.2953551, 0.0, 577676.94, 577676.94, 0.21724291, 0.039353937, 0.0390625 
1.5155719e+0, 5.859375e-2, 577676.94, -0.000000000000000000000000000006815179, -0.0000000000037684708, -0.2953551, 0.0, 577676.94, 577676.94, 0.21724291, 0.039353937, 0.0390625 
1.5549219e+0, 1.953125e-2, 575742.06, -0.00000000000000000000000006314851, -0.0000000003622208, -0.3085873, 0.0, 575742.06, 575742.06, 0.21716702, 0.039352924, 0.0390625 
1.5549219e+0, 5.859375e-2, 575742.06, -0.00000000000000000000000006314851, -0.0000000003622208, -0.3085873, 0.0, 575742.06, 575742.06, 0.21716702, 0.039352924, 0.0390625 
1.5942724e+0, 1.953125e-2, 571693.9, -0.0000000000000000000000000008829945, 0.000000000042688828, -0.32247847, 0.0, 571693.9, 571693.9, 0.2171029, 0.039350837, 0.0390625 
1.5942724e+0, 5.859375e-2, 571693.9, -0.0000000000000000000000000008829945, 0.000000000042688828, -0.32247847, 0.0, 571693.9, 571693.9, 0.2171029, 0.039350837, 0.0390625 
1.6336218e+0, 1.953125e-2, 569497.0, -0.0000000000000000000000002097892, 0.0000000006569015, -0.3369175, 0.0, 569497.0, 569497.0, 0.21701457, 0.039349683, 0.0390625 
1.6336218e+0, 5.859375e-2, 569497.0, -0.00000000000000000000000021578888, 0.00000000066622846, -0.3369175, 0.0, 569497.0, 569497.0, 0.21701457, 0.039349683, 0.0390625 
1.6729574e+0, 1.953125e-2, 565217.3, -0.00000000000000000000000003158316, 0.00000000025397348, -0.35583898, 0.0, 565217.3, 565217.3, 0.21693909, 0.039347477, 0.0390625 
1.6729574e+0, 5.859375e-2, 565217.3, -0.00000000000000000000000003158316, 0.00000000025397348, -0.35583898, 0.0, 565217.3, 565217.3, 0.21693909, 0.039347477, 0.0390625 
1.712292e+0, 1.953125e-2, 562045.44, -0.000000000000000000000000094122495, -0.00000000043729165, -0.37559098, 0.0, 562045.44, 562045.44, 0.21686816, 0.039345834, 0.0390625 
1.712292e+0, 5.859375e-2, 562045.44, -0.000000000000000000000000094122495, -0.00000000043729165, -0.37559098, 0.0, 562045.44, 562045.44, 0.21686816, 0.039345834, 0.0390625 
1.7516604e+0, 1.953125e-2, 556140.75, -0.000000000000000000000000045304898, -0.00000000030183106, -0.38783002, 0.0, 556140.75, 556140.75, 0.21681418, 0.03934281, 0.0390625 
1.7516604e+0, 5.859375e-2, 556140.75, -0.000000000000000000000000045304898, -0.00000000030183106, -0.38783002, 0.0, 556140.75, 556140.75, 0.21681418, 0.03934281, 0.0390625 
1.7910254e+0, 1.953125e-2, 551832.9, -0.0000000000000000000000000035018576, 0.000000000083633045, -0.401202, 0.0, 551832.9, 551832.9, 0.21663263, 0.039340552, 0.0390625 
1.7910254e+0, 5.859375e-2, 551832.9, -0.0000000000000000000000000035018576, 0.000000000083633045, -0.401202, 0.0, 551832.9, 551832.9, 0.21663263, 0.039340552, 0.0390625 
1.830258e+0, 1.953125e-2, 544746.6, -0.000000000000000000000000002471669, 0.00000000006982886, -0.45408306, 0.0, 544746.6, 544746.6, 0.21653274, 0.03933691, 0.0390625 
1.830258e+0, 5.859375e-2, 544746.6, -0.000000000000000000000000002471669, 0.00000000006982886, -0.45408306, 0.0, 544746.6, 544746.6, 0.21653274, 0.03933691, 0.0390625 
1.8694992e+0, 1.953125e-2, 554101.4, -0.0000000000000000000000000016227618, -0.00000000005704637, -0.50695395, 0.0, 554101.4, 554101.4, 0.21664996, 0.03934171, 0.0390625 
1.8694992e+0, 5.859375e-2, 554101.4, -0.0000000000000000000000000016227618, -0.00000000005704637, -0.50695395, 0.0, 554101.4, 554101.4, 0.21664996, 0.03934171, 0.0390625 
1.9091621e+0, 1.953125e-2, 567572.06, -0.000000000000000000000000000061790483, -0.000000000011294896, -0.43301156, 0.0, 567572.06, 567572.06, 0.21580309, 0.039348256, 0.0390625 
1.9091621e+0, 5.859375e-2, 567572.06, -0.000000000000000000000000000061790483, -0.000000000011294896, -0.43301156, 0.0, 567572.06, 567572.06, 0.21580309, 0.039348256, 0.0390625 
1.9487768e+0, 1.953125e-2, 435958.88, -0.0000000000000000000000000028597444, 0.00000000006703728, -0.36968854, 0.0, 435958.88, 435958.88, 0.21722631, 0.039281864, 0.0390625 
1.9487768e+0, 5.859375e-2, 435958.88, -0.0000000000000000000000000028597444, 0.00000000006703728, -0.36968854, 0.0, 435958.88, 435958.88, 0.21722631, 0.039281864, 0.0390625 
1.9870651e+0, 1.953125e-2, 256326.36, -0.000000000000000000000000059396684, 0.00000000021941972, -0.73328966, 0.0, 256326.36, 256326.36, 0.24025482, 0.039194938, 0.0390625 
1.9870651e+0, 5.859375e-2, 256326.36, -0.000000000000000000000000059396684, 0.00000000021941972, -0.73328966, 0.0, 256326.36, 256326.36, 0.24025482, 0.039194938, 0.0390625 
2.0254454e+0, 1.953125e-2, 1071500.3, -0.000000000000000000000000041798898, 0.00000000020078647, -1.0988475, 0.0, 1071500.3, 1071500.3, 0.530072, 0.039977197, 0.0390625 
2.0254454e+0, 5.859375e-2, 1071500.3, -0.000000000000000000000000041798898, 0.00000000020078647, -1.0988475, 0.0, 1071500.3, 1071500.3, 0.530072, 0.039977197, 0.0390625 
2.0675771e+0, 1.953125e-2, 72278.14, -0.0000000000000000000000000003092992, 0.0000000000005745053, -0.20851584, 0.0, 72278.14, 72278.14, 1.0, 0.041160885, 0.0390625 
2.0675771e+0, 5.859375e-2, 72278.14, -0.0000000000000000000000000003092992, 0.0000000000005745053, -0.20851584, 0.0, 72278.14, 72278.14, 1.0, 0.041160885, 0.0390625 
2.1101007e+0, 1.953125e-2, 582791.06, -0.00000000000000000000000006160445, -0.00000000008687041, 0.81994975, 0.0, 582791.06, 582791.06, 0.83497614, 0.040443182, 0.0390625 
2.1101007e+0, 5.859375e-2, 582791.06, -0.000000000000000000000000062347394, -0.000000000087392656, 0.81994975, 0.0, 582791.06, 582791.06, 0.83497614, 0.040443182, 0.0390625 
2.1493638e+0, 1.953125e-2, 536271.94, -0.00000000000000000000000033399493, -0.00000000029289957, 0.5984383, 0.0, 536271.94, 536271.94, 0.6780291, 0.039725874, 0.0390625 
2.1493638e+0, 5.859375e-2, 536271.94, -0.00000000000000000000000033399493, -0.00000000029289957, 0.5984383, 0.0, 536271.94, 536271.94, 0.6780291, 0.039725874, 0.0390625 
2.188267e+0, 1.953125e-2, 538948.9, -0.0000000000000000000000005040625, -0.0000000003489553, 0.25153682, 0.0, 538948.9, 538948.9, 0.6926132, 0.039761025, 0.0390625 
2.188267e+0, 5.859375e-2, 538948.9, -0.0000000000000000000000005040625, -0.0000000003489553, 0.25153682, 0.0, 538948.9, 538948.9, 0.6926132, 0.039761025, 0.0390625 
2.228196e+0, 1.953125e-2, 534104.3, -0.000000000000000000000000028382433, -0.0000000000792307, 0.2433835, 0.0, 534104.3, 534104.3, 0.70951617, 0.039795082, 0.0390625 
2.228196e+0, 5.859375e-2, 534104.3, -0.000000000000000000000000028382433, -0.0000000000792307, 0.2433835, 0.0, 534104.3, 534104.3, 0.70951617, 0.039795082, 0.0390625 
2.268234e+0, 1.953125e-2, 547468.8, -0.00000000000000000000000013257869, 0.0000000001746494, 0.2755362, 0.0, 547468.8, 547468.8, 0.70653796, 0.039805964, 0.0390625 
2.268234e+0, 5.859375e-2, 547468.8, -0.00000000000000000000000013012147, 0.00000000017302336, 0.2755362, 0.0, 547468.8, 547468.8, 0.70653796, 0.039805964, 0.0390625 
2.3079932e+0, 1.953125e-2, 558900.94, -0.00000000000000000000000007798566, 0.0000000001363093, 0.2436509, 0.0, 558900.94, 558900.94, 0.70361423, 0.039814148, 0.0390625 
2.3079932e+0, 5.859375e-2, 558900.94, -0.00000000000000000000000007798566, 0.0000000001363093, 0.2436509, 0.0, 558900.94, 558900.94, 0.70361423, 0.039814148, 0.0390625 
2.3477367e+0, 1.953125e-2, 561819.9, -0.000000000000000000000000021214989, 0.00000000007111739, 0.20974362, 0.0, 561819.9, 561819.9, 0.70462126, 0.039820693, 0.0390625 
2.3477367e+0, 5.859375e-2, 561819.9, -0.000000000000000000000000021214989, 0.00000000007111739, 0.20974362, 0.0, 561819.9, 561819.9, 0.70462126, 0.039820693, 0.0390625 
2.3875742e+0, 1.953125e-2, 563286.9, -0.00000000000000000000000003376171, 0.000000000089623434, 0.20096461, 0.0, 563286.9, 563286.9, 0.70562834, 0.039825294, 0.0390625 
2.3875742e+0, 5.859375e-2, 563286.9, -0.00000000000000000000000003376171, 0.000000000089623434, 0.20096461, 0.0, 563286.9, 563286.9, 0.70562834, 0.039825294, 0.0390625 
2.427419e+0, 1.953125e-2, 567999.25, -0.00000000000000000000000003497891, 0.00000000009163368, 0.19540626, 0.0, 567999.25, 567999.25, 0.7055461, 0.039831527, 0.0390625 
2.427419e+0, 5.859375e-2, 567999.25, -0.00000000000000000000000003497891, 0.00000000009163368, 0.19540626, 0.0, 567999.25, 567999.25, 0.7055461, 0.039831527, 0.0390625 
2.467248e+0, 1.953125e-2, 570575.8, -0.000000000000000000000000016530559, -0.00000000006313603, 0.19157934, 0.0, 570575.8, 570575.8, 0.70557415, 0.03983512, 0.0390625 
2.467248e+0, 5.859375e-2, 570575.8, -0.000000000000000000000000016530559, -0.00000000006313603, 0.19157934, 0.0, 570575.8, 570575.8, 0.70557415, 0.03983512, 0.0390625 
2.5070792e+0, 1.953125e-2, 573901.6, -0.00000000000000000000000013628907, -0.00000000018170004, 0.18941075, 0.0, 573901.6, 573901.6, 0.70587474, 0.039840464, 0.0390625 
2.5070792e+0, 5.859375e-2, 573901.6, -0.00000000000000000000000013011759, -0.00000000017753848, 0.18941075, 0.0, 573901.6, 573901.6, 0.70587474, 0.039840464, 0.0390625 
2.546924e+0, 1.953125e-2, 575269.5, -0.000000000000000000000000044413932, -0.0000000001037789, 0.19196476, 0.0, 575269.5, 575269.5, 0.70617545, 0.039843135, 0.0390625 
2.546924e+0, 5.859375e-2, 575269.5, -0.000000000000000000000000044413932, -0.0000000001037789, 0.19196476, 0.0, 575269.5, 575269.5, 0.70617545, 0.039843135, 0.0390625 
2.5867718e+0, 1.953125e-2, 578249.56, -0.0000000000000000000000000010311786, 0.000000000015846682, 0.19584121, 0.0, 578249.56, 578249.56, 0.7064031, 0.039847825, 0.0390625 
2.5867718e+0, 5.859375e-2, 578249.56, -0.0000000000000000000000000010481435, 0.000000000015976505, 0.19584121, 0.0, 578249.56, 578249.56, 0.7064031, 0.039847825, 0.0390625 
2.626624e+0, 1.953125e-2, 579234.1, -0.0000000000000000000000002808495, 0.0000000002616094, 0.20240533, 0.0, 579234.1, 579234.1, 0.7066333, 0.03984979, 0.0390625 
2.626624e+0, 5.859375e-2, 579234.1, -0.0000000000000000000000002808495, 0.0000000002616094, 0.20240533, 0.0, 579234.1, 579234.1, 0.7066333, 0.03984979, 0.0390625 
2.666477e+0, 1.953125e-2, 581949.8, -0.0000000000000000000000004147941, 0.0000000003184739, 0.20967276, 0.0, 581949.8, 581949.8, 0.7069315, 0.03985432, 0.0390625 
2.666477e+0, 5.859375e-2, 581949.8, -0.00000000000000000000000041333762, 0.00000000031791425, 0.20967276, 0.0, 581949.8, 581949.8, 0.7069315, 0.03985432, 0.0390625 
2.706329e+0, 1.953125e-2, 582628.5, -0.00000000000000000000000004560752, -0.000000000105606135, 0.21825802, 0.0, 582628.5, 582628.5, 0.7071735, 0.03985591, 0.0390625 
2.706329e+0, 5.859375e-2, 582628.5, -0.00000000000000000000000004560752, -0.000000000105606135, 0.21825802, 0.0, 582628.5, 582628.5, 0.7071735, 0.03985591, 0.0390625 
2.7461907e+0, 1.953125e-2, 584881.75, -0.0000000000000000000000004479243, -0.0000000003311186, 0.2288102, 0.0, 584881.75, 584881.75, 0.7078123, 0.039860748, 0.0390625 
2.7461907e+0, 5.859375e-2, 584881.75, -0.00000000000000000000000044480415, -0.00000000032996333, 0.2288102, 0.0, 584881.75, 584881.75, 0.7078123, 0.039860748, 0.0390625 
2.7860755e+0, 1.953125e-2, 585146.44, -0.0000000000000000000000000005699653, -0.000000000011803317, 0.24337177, 0.0, 585146.44, 585146.44, 0.70820606, 0.03986219, 0.0390625 
2.7860755e+0, 5.859375e-2, 585146.44, -0.0000000000000000000000000005699653, -0.000000000011803317, 0.24337177, 0.0, 585146.44, 585146.44, 0.70820606, 0.03986219, 0.0390625 
2.8259364e+0, 1.953125e-2, 587617.25, -0.000000000000000000000000034060897, 0.00000000009173952, 0.2546086, 0.0, 587617.25, 587617.25, 0.70682937, 0.039861828, 0.0390625 
2.8259364e+0, 5.859375e-2, 587617.25, -0.000000000000000000000000034060897, 0.00000000009173952, 0.2546086, 0.0, 587617.25, 587617.25, 0.70682937, 0.039861828, 0.0390625 
2.8657457e+0, 1.953125e-2, 588530.94, -0.00000000000000000000000030956808, -0.00000000027716768, 0.25955164, 0.0, 588530.94, 588530.94, 0.70625204, 0.039861508, 0.0390625 
2.8657457e+0, 5.859375e-2, 588530.94, -0.00000000000000000000000030956808, -0.00000000027716768, 0.25955164, 0.0, 588530.94, 588530.94, 0.70625204, 0.039861508, 0.0390625 
2.9056352e+0, 1.953125e-2, 593176.1, -0.00000000000000000000000060328, -0.00000000037443978, 0.27765605, 0.0, 593176.1, 593176.1, 0.721748, 0.03991262, 0.0390625 
2.9056352e+0, 5.859375e-2, 593176.1, -0.00000000000000000000000060328, -0.00000000037443978, 0.27765605, 0.0, 593176.1, 593176.1, 0.721748, 0.03991262, 0.0390625 
2.945669e+0, 1.953125e-2, 586597.5, -0.000000000000000000000000007452947, -0.00000000004071626, 0.31707352, 0.0, 586597.5, 586597.5, 0.7284008, 0.039923612, 0.0390625 
2.945669e+0, 5.859375e-2, 586597.5, -0.000000000000000000000000007452947, -0.00000000004071626, 0.31707352, 0.0, 586597.5, 586597.5, 0.7284008, 0.039923612, 0.0390625 
2.9855666e+0, 1.953125e-2, 578054.5, -0.00000000000000000000000011493689, 0.00000000019224486, 0.33368903, 0.0, 578054.5, 578054.5, 0.6443477, 0.039709993, 0.0390625 
2.9855666e+0, 5.859375e-2, 578054.5, -0.00000000000000000000000011493689, 0.00000000019224486, 0.33368903, 0.0, 578054.5, 578054.5, 0.6443477, 0.039709993, 0.0390625 
3.0252618e+0, 1.953125e-2, 611161.75, -0.00000000000000000000000009470581, 0.00000000019822334, 0.3191815, 0.0, 611161.75, 611161.75, 0.5971623, 0.03966665, 0.0390625 
3.0252618e+0, 5.859375e-2, 611161.75, -0.00000000000000000000000009470581, 0.00000000019822334, 0.3191815, 0.0, 611161.75, 611161.75, 0.5971623, 0.03966665, 0.0390625 
3.0648226e+0, 1.953125e-2, 630874.4, -0.000000000000000000000000034731305, 0.00000000023122154, 0.30970597, 0.0, 630874.4, 630874.4, 0.29105663, 0.039414633, 0.0390625 
3.0648226e+0, 5.859375e-2, 630874.4, -0.000000000000000000000000034731305, 0.00000000023122154, 0.30970597, 0.0, 630874.4, 630874.4, 0.29105663, 0.039414633, 0.0390625 
3.104049e+0, 1.953125e-2, 560933.8, -0.0000000000000000000000000029512823, 0.000000000086175324, 0.306469, 0.0, 560933.8, 560933.8, 0.18243116, 0.039333243, 0.0390625 
3.104049e+0, 5.859375e-2, 560933.8, -0.0000000000000000000000000022235408, 0.00000000007479974, 0.306469, 0.0, 560933.8, 560933.8, 0.18243116, 0.039333243, 0.0390625 
3.1433094e+0, 1.953125e-2, 595846.25, -0.0000000000000000000000000011549039, -0.000000000051674758, 0.3019119, 0.0, 595846.25, 595846.25, 0.20510283, 0.03935856, 0.0390625 
3.1433094e+0, 5.859375e-2, 595846.25, -0.0000000000000000000000000009662627, -0.000000000047266465, 0.3019119, 0.0, 595846.25, 595846.25, 0.20510283, 0.03935856, 0.0390625 
3.182722e+0, 1.953125e-2, 603658.4, -0.000000000000000000000000000011263793, -0.0000000000048429533, 0.29580393, 0.0, 603658.4, 603658.4, 0.22498044, 0.039370257, 0.0390625 
3.182722e+0, 5.859375e-2, 603658.4, -0.000000000000000000000000000011263793, -0.0000000000048429533, 0.29580393, 0.0, 603658.4, 603658.4, 0.22498044, 0.039370257, 0.0390625 
3.2221252e+0, 1.953125e-2, 601203.06, -0.0000000000000000000000000006309597, 0.000000000036728627, 0.29025206, 0.0, 601203.06, 601203.06, 0.21970375, 0.039366897, 0.0390625 
3.2221252e+0, 5.859375e-2, 601203.06, -0.0000000000000000000000000006309597, 0.000000000036728627, 0.29025206, 0.0, 601203.06, 601203.06, 0.21970375, 0.039366897, 0.0390625 
3.2614726e+0, 1.953125e-2, 600140.06, -0.0000000000000000000000000006995916, 0.000000000039122223, 0.28530848, 0.0, 600140.06, 600140.06, 0.21548203, 0.0393647, 0.0390625 
3.2614726e+0, 5.859375e-2, 600140.06, -0.0000000000000000000000000006995916, 0.000000000039122223, 0.28530848, 0.0, 600140.06, 600140.06, 0.21548203, 0.0393647, 0.0390625 
3.300824e+0, 1.953125e-2, 602487.44, -0.000000000000000000000000000021133455, -0.0000000000067879587, 0.28031805, 0.0, 602487.44, 602487.44, 0.21672973, 0.039366383, 0.0390625 
3.300824e+0, 5.859375e-2, 602487.44, -0.000000000000000000000000000021133455, -0.0000000000067879587, 0.28031805, 0.0, 602487.44, 602487.44, 0.21672973, 0.039366383, 0.0390625 
3.3401954e+0, 1.953125e-2, 602803.0, -0.00000000000000000000000000009395944, -0.000000000014273525, 0.27527776, 0.0, 602803.0, 602803.0, 0.21775363, 0.039366946, 0.0390625 
3.3401954e+0, 5.859375e-2, 602803.0, -0.00000000000000000000000000009395856, -0.000000000014273458, 0.27527776, 0.0, 602803.0, 602803.0, 0.21775363, 0.039366946, 0.0390625 
3.3795658e+0, 1.953125e-2, 604108.6, -0.00000000000000000000000000028573605, -0.000000000024938399, 0.27038503, 0.0, 604108.6, 604108.6, 0.21747676, 0.039367504, 0.0390625 
3.3795658e+0, 5.859375e-2, 604108.6, -0.0000000000000000000000000004802747, -0.000000000032331877, 0.27038503, 0.0, 604108.6, 604108.6, 0.21747676, 0.039367504, 0.0390625 
3.4189302e+0, 1.953125e-2, 604128.8, -0.00000000000000000000000000015283839, -0.00000000001824682, 0.26563415, 0.0, 604128.8, 604128.8, 0.21733755, 0.03936746, 0.0390625 
3.4189302e+0, 5.859375e-2, 604128.8, -0.00000000000000000000000000021181536, -0.000000000021480762, 0.26563415, 0.0, 604128.8, 604128.8, 0.21733755, 0.03936746, 0.0390625 
3.4582955e+0, 1.953125e-2, 605444.75, -0.00000000000000000000000000000865888, -0.0000000000043466042, 0.26095653, 0.0, 605444.75, 605444.75, 0.21743664, 0.039368168, 0.0390625 
3.4582955e+0, 5.859375e-2, 605444.75, -0.00000000000000000000000000000865888, -0.0000000000043466042, 0.26095653, 0.0, 605444.75, 605444.75, 0.21743664, 0.039368168, 0.0390625 
3.497663e+0, 1.953125e-2, 605519.44, -0.00000000000000000000000000067123194, 0.000000000038257474, 0.25634483, 0.0, 605519.44, 605519.44, 0.2175669, 0.039368257, 0.0390625 
3.497663e+0, 5.859375e-2, 605519.44, -0.000000000000000000000000000789487, 0.000000000041490863, 0.25634483, 0.0, 605519.44, 605519.44, 0.2175669, 0.039368257, 0.0390625 
3.5370308e+0, 1.953125e-2, 606708.4, -0.0000000000000000000000000018310026, 0.00000000006324986, 0.25181454, 0.0, 606708.4, 606708.4, 0.21756132, 0.039368864, 0.0390625 
3.5370308e+0, 5.859375e-2, 606708.4, -0.0000000000000000000000000015672886, 0.00000000005851801, 0.25181454, 0.0, 606708.4, 606708.4, 0.21756132, 0.039368864, 0.0390625 
3.5763985e+0, 1.953125e-2, 606772.75, -0.00000000000000000000000000015683024, 0.000000000018508233, 0.24735366, 0.0, 606772.75, 606772.75, 0.21763048, 0.03936892, 0.0390625 
3.5763985e+0, 5.859375e-2, 606772.75, -0.00000000000000000000000000015682607, 0.000000000018507985, 0.24735366, 0.0, 606772.75, 606772.75, 0.21763048, 0.03936892, 0.0390625 
3.6157665e+0, 1.953125e-2, 607822.06, -0.00000000000000000000000000003029994, -0.0000000000081419775, 0.24296331, 0.0, 607822.06, 607822.06, 0.21764459, 0.039369464, 0.0390625 
3.6157665e+0, 5.859375e-2, 607822.06, -0.00000000000000000000000000003029994, -0.0000000000081419775, 0.24296331, 0.0, 607822.06, 607822.06, 0.21764459, 0.039369464, 0.0390625 
3.655135e+0, 1.953125e-2, 607908.94, -0.0000000000000000000000000000018361888, -0.000000000002003946, 0.23862974, 0.0, 607908.94, 607908.94, 0.21773313, 0.039369542, 0.0390625 
3.655135e+0, 5.859375e-2, 607908.94, -0.0000000000000000000000000000018361888, -0.000000000002003946, 0.23862974, 0.0, 607908.94, 607908.94, 0.21773313, 0.039369542, 0.0390625 
3.694504e+0, 1.953125e-2, 608826.4, -0.0000000000000000000000000014783608, 0.00000000005690448, 0.2343636, 0.0, 608826.4, 608826.4, 0.21773322, 0.03937001, 0.0390625 
3.694504e+0, 5.859375e-2, 608826.4, -0.0000000000000000000000000014783608, 0.00000000005690448, 0.2343636, 0.0, 608826.4, 608826.4, 0.21773322, 0.03937001, 0.0390625 
3.7338728e+0, 1.953125e-2, 608915.06, -0.000000000000000000000000000659308, -0.000000000037994538, 0.23014879, 0.0, 608915.06, 608915.06, 0.21782035, 0.03937009, 0.0390625 
3.7338728e+0, 5.859375e-2, 608915.06, -0.000000000000000000000000000659308, -0.000000000037994538, 0.23014879, 0.0, 608915.06, 608915.06, 0.21782035, 0.03937009, 0.0390625 
3.7732422e+0, 1.953125e-2, 609721.9, -0.000000000000000000000000006917691, -0.00000000012315492, 0.22598928, 0.0, 609721.9, 609721.9, 0.21781622, 0.0393705, 0.0390625 
3.7732422e+0, 5.859375e-2, 609721.9, -0.000000000000000000000000006917691, -0.00000000012315492, 0.22598928, 0.0, 609721.9, 609721.9, 0.21781622, 0.0393705, 0.0390625 
3.8126117e+0, 1.953125e-2, 609801.7, -0.0000000000000000000000000013151844, -0.000000000053688092, 0.22186965, 0.0, 609801.7, 609801.7, 0.21790655, 0.039370574, 0.0390625 
3.8126117e+0, 5.859375e-2, 609801.7, -0.0000000000000000000000000013151844, -0.000000000053688092, 0.22186965, 0.0, 609801.7, 609801.7, 0.21790655, 0.039370574, 0.0390625 
3.8519818e+0, 1.953125e-2, 610507.8, -0.0000000000000000000000000001950337, 0.000000000020687473, 0.21779138, 0.0, 610507.8, 610507.8, 0.21789443, 0.03937093, 0.0390625 
3.8519818e+0, 5.859375e-2, 610507.8, -0.0000000000000000000000000001950337, 0.000000000020687473, 0.21779138, 0.0, 610507.8, 610507.8, 0.21789443, 0.03937093, 0.0390625 
3.8913515e+0, 1.953125e-2, 610594.5, -0.0000000000000000000000000019904324, 0.00000000006607455, 0.2137414, 0.0, 610594.5, 610594.5, 0.21799105, 0.039371014, 0.0390625 
3.8913515e+0, 5.859375e-2, 610594.5, -0.000000000000000000000000001679066, 0.00000000006068682, 0.2137414, 0.0, 610594.5, 610594.5, 0.21799105, 0.039371014, 0.0390625 
3.930722e+0, 1.953125e-2, 611199.4, -0.0000000000000000000000000023238644, 0.00000000007143471, 0.20972283, 0.0, 611199.4, 611199.4, 0.21796957, 0.03937131, 0.0390625 
3.930722e+0, 5.859375e-2, 611199.4, -0.0000000000000000000000000023238644, 0.00000000007143471, 0.20972283, 0.0, 611199.4, 611199.4, 0.21796957, 0.03937131, 0.0390625 
3.970092e+0, 1.953125e-2, 611290.06, -0.00000000000000000000000000034072036, -0.000000000027346684, 0.20572467, 0.0, 611290.06, 611290.06, 0.21807218, 0.039371397, 0.0390625 
3.970092e+0, 5.859375e-2, 611290.06, -0.00000000000000000000000000035423962, -0.000000000027883943, 0.20572467, 0.0, 611290.06, 611290.06, 0.21807218, 0.039371397, 0.0390625 
4.009463e+0, 1.953125e-2, 611801.9, -0.0000000000000000000000000009536151, -0.00000000004577362, 0.2017496, 0.0, 611801.9, 611801.9, 0.21804038, 0.039371647, 0.0390625 
4.009463e+0, 5.859375e-2, 611801.9, -0.00000000000000000000000000074739823, -0.000000000040523297, 0.2017496, 0.0, 611801.9, 611801.9, 0.21804038, 0.039371647, 0.0390625 
4.0488333e+0, 1.953125e-2, 611895.5, -0.00000000000000000000000000040658615, -0.000000000029881188, 0.19778872, 0.0, 611895.5, 611895.5, 0.21815081, 0.039371736, 0.0390625 
4.0488333e+0, 5.859375e-2, 611895.5, -0.00000000000000000000000000043711753, -0.0000000000309828, 0.19778872, 0.0, 611895.5, 611895.5, 0.21815081, 0.039371736, 0.0390625 
4.0882045e+0, 1.953125e-2, 612321.9, -0.0000000000000000000000000011522455, -0.000000000050326958, 0.19384204, 0.0, 612321.9, 612321.9, 0.21810788, 0.039371938, 0.0390625 
4.0882045e+0, 5.859375e-2, 612321.9, -0.0000000000000000000000000014302005, -0.000000000056069496, 0.19384204, 0.0, 612321.9, 612321.9, 0.21810788, 0.039371938, 0.0390625 
4.1275755e+0, 1.953125e-2, 612419.06, -0.00000000000000000000000000034466794, 0.000000000027517693, 0.18990359, 0.0, 612419.06, 612419.06, 0.21822669, 0.039372034, 0.0390625 
4.1275755e+0, 5.859375e-2, 612419.06, -0.00000000000000000000000000034466794, 0.000000000027517693, 0.18990359, 0.0, 612419.06, 612419.06, 0.21822669, 0.039372034, 0.0390625 
4.1669464e+0, 1.953125e-2, 612770.6, -0.0000000000000000000000000008796861, 0.000000000043981468, 0.18597053, 0.0, 612770.6, 612770.6, 0.21817245, 0.03937219, 0.0390625 
4.1669464e+0, 5.859375e-2, 612770.6, -0.0000000000000000000000000008796861, 0.000000000043981468, 0.18597053, 0.0, 612770.6, 612770.6, 0.21817245, 0.03937219, 0.0390625 
4.206318e+0, 1.953125e-2, 612862.5, -0.00000000000000000000000000020620325, -0.00000000002128759, 0.18204035, 0.0, 612862.5, 612862.5, 0.21829805, 0.039372284, 0.0390625 
4.206318e+0, 5.859375e-2, 612862.5, -0.00000000000000000000000000020620325, -0.00000000002128759, 0.18204035, 0.0, 612862.5, 612862.5, 0.21829805, 0.039372284, 0.0390625 
4.2456895e+0, 1.953125e-2, 613147.9, -0.0000000000000000000000000008155731, -0.00000000004235408, 0.1781081, 0.0, 613147.9, 613147.9, 0.21823241, 0.039372403, 0.0390625 
4.2456895e+0, 5.859375e-2, 613147.9, -0.0000000000000000000000000006780786, -0.00000000003861925, 0.1781081, 0.0, 613147.9, 613147.9, 0.21823241, 0.039372403, 0.0390625 
4.2850608e+0, 1.953125e-2, 613242.7, -0.0000000000000000000000000002791607, -0.000000000024771312, 0.17417452, 0.0, 613242.7, 613242.7, 0.21837054, 0.039372504, 0.0390625 
4.2850608e+0, 5.859375e-2, 613242.7, -0.0000000000000000000000000002791607, -0.000000000024771312, 0.17417452, 0.0, 613242.7, 613242.7, 0.21837054, 0.039372504, 0.0390625 
4.3244323e+0, 1.953125e-2, 613464.3, -0.00000000000000000000000000007264203, 0.000000000012641514, 0.17023271, 0.0, 613464.3, 613464.3, 0.21828847, 0.039372586, 0.0390625 
4.3244323e+0, 5.859375e-2, 613464.3, -0.000000000000000000000000000075768275, 0.00000000001291067, 0.17023271, 0.0, 613464.3, 613464.3, 0.21828847, 0.039372586, 0.0390625 
4.3638045e+0, 1.953125e-2, 613562.06, -0.0000000000000000000000000005961486, 0.00000000003620121, 0.16628647, 0.0, 613562.06, 613562.06, 0.21844104, 0.039372694, 0.0390625 
4.3638045e+0, 5.859375e-2, 613562.06, -0.00000000000000000000000000058570707, 0.000000000035882776, 0.16628647, 0.0, 613562.06, 613562.06, 0.21844104, 0.039372694, 0.0390625 
4.4031757e+0, 1.953125e-2, 613722.56, -0.0000000000000000000000000018359, 0.000000000063556126, 0.16232729, 0.0, 613722.56, 613722.56, 0.21833879, 0.03937273, 0.0390625 
4.4031757e+0, 5.859375e-2, 613722.56, -0.0000000000000000000000000018359, 0.000000000063556126, 0.16232729, 0.0, 613722.56, 613722.56, 0.21833879, 0.03937273, 0.0390625 
4.442548e+0, 1.953125e-2, 613826.25, -0.00000000000000000000000000032175915, 0.000000000026595956, 0.15836148, 0.0, 613826.25, 613826.25, 0.21851149, 0.03937285, 0.0390625 
4.442548e+0, 5.859375e-2, 613826.25, -0.00000000000000000000000000032175915, 0.000000000026595956, 0.15836148, 0.0, 613826.25, 613826.25, 0.21851149, 0.03937285, 0.0390625 
4.4819197e+0, 1.953125e-2, 613940.56, -0.0000000000000000000000000000008212147, 0.000000000001344225, 0.15437835, 0.0, 613940.56, 613940.56, 0.21839131, 0.039372858, 0.0390625 
4.4819197e+0, 5.859375e-2, 613940.56, -0.0000000000000000000000000000008212147, 0.000000000001344225, 0.15437835, 0.0, 613940.56, 613940.56, 0.21839131, 0.039372858, 0.0390625 
4.5212922e+0, 1.953125e-2, 614049.9, -0.0000000000000000000000000027325699, 0.00000000007750333, 0.15038687, 0.0, 614049.9, 614049.9, 0.21858616, 0.039372988, 0.0390625 
4.5212922e+0, 5.859375e-2, 614049.9, -0.0000000000000000000000000022370506, 0.00000000007012496, 0.15038687, 0.0, 614049.9, 614049.9, 0.21858616, 0.039372988, 0.0390625 
4.5606643e+0, 1.953125e-2, 614087.94, -0.0000000000000000000000000020753135, 0.00000000006757827, 0.14637826, 0.0, 614087.94, 614087.94, 0.21841553, 0.039372932, 0.0390625 
4.5606643e+0, 5.859375e-2, 614087.94, -0.0000000000000000000000000020753135, 0.00000000006757827, 0.14637826, 0.0, 614087.94, 614087.94, 0.21841553, 0.039372932, 0.0390625 
4.6000347e+0, 1.953125e-2, 614217.0, -0.0000000000000000000000000019866345, 0.000000000066079454, 0.14236145, 0.0, 614217.0, 614217.0, 0.21865433, 0.039373092, 0.0390625 
4.6000347e+0, 5.859375e-2, 614217.0, -0.0000000000000000000000000019866345, 0.000000000066079454, 0.14236145, 0.0, 614217.0, 614217.0, 0.21865433, 0.039373092, 0.0390625 
4.639408e+0, 1.953125e-2, 614271.5, -0.00000000000000000000000000047097726, -0.00000000003218929, 0.13832061, 0.0, 614271.5, 614271.5, 0.21850912, 0.03937305, 0.0390625 
4.639408e+0, 5.859375e-2, 614271.5, -0.00000000000000000000000000047097726, -0.00000000003218929, 0.13832061, 0.0, 614271.5, 614271.5, 0.21850912, 0.03937305, 0.0390625 
4.6787834e+0, 1.953125e-2, 614409.7, -0.000000000000000000000000007347758, -0.00000000012706437, 0.13427007, 0.0, 614409.7, 614409.7, 0.21875632, 0.03937322, 0.0390625 
4.6787834e+0, 5.859375e-2, 614409.7, -0.000000000000000000000000007347758, -0.00000000012706437, 0.13427007, 0.0, 614409.7, 614409.7, 0.21875632, 0.03937322, 0.0390625 
4.7181535e+0, 1.953125e-2, 614260.8, -0.000000000000000000000000001397359, -0.000000000055470035, 0.13021861, 0.0, 614260.8, 614260.8, 0.2183543, 0.03937296, 0.0390625 
4.7181535e+0, 5.859375e-2, 614260.8, -0.0000000000000000000000000012218848, -0.0000000000518704, 0.13021861, 0.0, 614260.8, 614260.8, 0.2183543, 0.03937296, 0.0390625 
4.7575158e+0, 1.953125e-2, 614299.2, -0.0000000000000000000000000000000020513958, -0.00000000000006710982, 0.1261634, 0.0, 614299.2, 614299.2, 0.2188711, 0.03937318, 0.0390625 
4.7575158e+0, 5.859375e-2, 614299.2, -0.0000000000000000000000000000000020513958, -0.00000000000006710982, 0.1261634, 0.0, 614299.2, 614299.2, 0.2188711, 0.03937318, 0.0390625 
4.796896e+0, 1.953125e-2, 614163.25, -0.0000000000000000000000000001818472, 0.000000000019980687, 0.12204113, 0.0, 614163.25, 614163.25, 0.21883638, 0.039373085, 0.0390625 
4.796896e+0, 5.859375e-2, 614163.25, -0.0000000000000000000000000001818472, 0.000000000019980687, 0.12204113, 0.0, 614163.25, 614163.25, 0.21883638, 0.039373085, 0.0390625 
4.836296e+0, 1.953125e-2, 615809.3, -0.000000000000000000000000001753166, 0.00000000006239781, 0.11790479, 0.0, 615809.3, 615809.3, 0.21733086, 0.039373316, 0.0390625 
4.836296e+0, 5.859375e-2, 615809.3, -0.0000000000000000000000000021364788, 0.00000000006888222, 0.11790479, 0.0, 615809.3, 615809.3, 0.21733086, 0.039373316, 0.0390625 
4.8756447e+0, 1.953125e-2, 616467.5, -0.00000000000000000000000000007493147, 0.000000000012716252, 0.11393787, 0.0, 616467.5, 616467.5, 0.22243834, 0.039375596, 0.0390625 
4.8756447e+0, 5.859375e-2, 616467.5, -0.00000000000000000000000000007493147, 0.000000000012716252, 0.11393787, 0.0, 616467.5, 616467.5, 0.22243834, 0.039375596, 0.0390625 
4.9149346e+0, 1.953125e-2, 608376.4, -0.000000000000000000000000007045983, -0.000000000112677964, 0.109990105, 0.0, 608376.4, 608376.4, 0.2526765, 0.03938408, 0.0390625 
4.9149346e+0, 5.859375e-2, 608376.4, -0.000000000000000000000000007045983, -0.000000000112677964, 0.109990105, 0.0, 608376.4, 608376.4, 0.2526765, 0.03938408, 0.0390625 
4.95434e+0, 1.953125e-2, 680330.7, -0.000000000000000000000000009193877, -0.00000000013420845, 0.10546114, 0.0, 680330.7, 680330.7, 0.2581503, 0.03942518, 0.0390625 
4.95434e+0, 5.859375e-2, 680330.7, -0.000000000000000000000000009193877, -0.00000000013420845, 0.10546114, 0.0, 680330.7, 680330.7, 0.2581503, 0.03942518, 0.0390625 
4.9937162e+0, 1.953125e-2, 518498.7, -0.00000000000000000000000000013534612, -0.000000000044669813, 0.10102448, 0.0, 518498.7, 518498.7, 0.03401736, 0.039273493, 0.0390625 
4.9937162e+0, 5.859375e-2, 518498.7, -0.00000000000000000000000000013941646, -0.000000000045336526, 0.10102448, 0.0, 518498.7, 518498.7, 0.03401736, 0.039273493, 0.0390625 
5.032919e+0, 1.953125e-2, 0.000000000048158227, 0.0, 0.0, 0.1, 0.0, 0.000000000048158227, 0.000000000048158227, 0.0, 0.0390625, 0.0390625 
5.032919e+0, 5.859375e-2, -0.000000000013576922, 0.0, 0.0, 0.1, 0.0, 0.0, 0.0, 0.0, 0.0390625, 0.0390625 
