coord_x,coord_y,stress_xx,stress_yy,tau_xy,velocity_x,velocity_y,stress_1,eps,damage,lx,ly
4.9963126e+0, 1.23663634e+2, -1805076.8, -1730057.6, -3155.4006, -0.0006147837, -0.02652071, -1729925.3, -1831.7188, 0.0, 9.992637, 10.002568 
4.9968988e+0, 1.3366437e+2, -1703002.0, -1650572.3, -2039.028, -0.00015743173, -0.0351827, -1650493.0, -20406.62, 0.0, 9.9938, 10.000741 
4.9974728e+0, 1.4366454e+2, -1598142.6, -1564723.8, -1779.4941, 0.0005320934, -0.023483478, -1564629.3, -32544.43, 0.0, 9.994935, 9.999358 
4.9980125e+0, 1.5366387e+2, -1484042.8, -1458970.1, -2531.6555, -0.0002685954, -0.02527691, -1458717.1, -24625.877, 0.0, 9.99603, 9.999348 
4.9985677e+0, 1.6366199e+2, -1387611.9, -1390012.0, -2716.5813, -0.0005616016, -0.028250247, -1385842.1, -49732.406, 0.0, 9.997146, 9.996827 
4.9991545e+0, 1.7365865e+2, -1273357.9, -1285498.5, -2253.6477, -0.00005175712, -0.032869503, -1272953.0, -34810.73, 0.0, 9.998309, 9.9967 
4.9997243e+0, 1.836543e+2, -1174436.0, -1211810.5, -2324.9548, 0.0003523293, -0.032032244, -1174291.9, -34106.887, 0.0, 9.999442, 9.994493 
5.0002694e+0, 1.9364879e+2, -1061067.8, -1107245.5, -2952.3142, 0.0006773703, -0.025526447, -1060879.8, -18640.75, 0.0, 10.000525, 9.99441 
5.000814e+0, 2.0364198e+2, -965359.7, -1039344.25, -2706.6216, 0.00042347668, -0.024776205, -965260.8, -20955.078, 0.0, 10.001619, 9.991825 
5.0013614e+0, 2.1363357e+2, -851957.2, -935469.1, -1202.2906, -0.0007537855, -0.036097877, -851939.9, -5551.6206, 0.0, 10.002737, 9.99168 
5.001917e+0, 2.2362429e+2, -751393.9, -858090.75, -879.52454, -0.0010747625, -0.036968593, -751386.6, -2907.4138, 0.0, 10.003854, 9.989729 
5.002484e+0, 2.336141e+2, -637378.94, -752792.44, -2575.824, 0.00004334331, -0.023639025, -637321.44, 13257.454, 0.0, 10.004967, 9.989685 
5.0030506e+0, 2.4360259e+2, -541756.8, -685695.3, -3256.4495, 0.00074365974, -0.019275347, -541683.2, 11008.712, 0.0, 10.006085, 9.987032 
5.003614e+0, 2.5358933e+2, -428366.53, -581963.75, -2290.4097, 0.0008405682, -0.033415157, -428332.38, 26489.283, 0.0, 10.007211, 9.986876 
5.004166e+0, 2.6357514e+2, -329090.2, -507324.8, -1871.4098, 0.00007800753, -0.03592982, -329070.53, 27890.166, 0.0, 10.008329, 9.9847355 
5.004694e+0, 2.7355996e+2, -215397.33, -402378.13, -2436.4878, -0.0021229272, -0.023076992, -215365.58, 43743.99, 0.0, 10.00943, 9.984674 
5.005259e+0, 2.8354332e+2, -121579.36, -339184.2, -2466.9343, -0.0017226631, -0.018065846, -121551.39, 39721.5, 0.0, 10.010551, 9.981751 
5.0058794e+0, 2.9352477e+2, -7942.5728, -235317.28, -1844.7183, 0.0031438791, -0.03120637, -7927.6074, 55526.67, 0.0, 10.011696, 9.981597 
5.006448e+0, 3.0350947e+2, 102186.25, -85329.14, -1625.0874, 0.0036264362, -0.03682427, 102200.33, 102200.33, 0.0, 10.012823, 9.987973 
5.006918e+0, 3.134976e+2, 118614.19, -76303.164, -1995.5648, -0.0036280314, -0.032697536, 118634.62, 118634.62, 0.0, 10.0139065, 9.9880705 
1.4988936e+1, 1.2366221e+2, -1803237.6, -1726287.1, 1110.8074, -0.0020841884, -0.02949383, -1726271.1, 1836.3799, 0.0, 9.992637, 10.002824 
1.4990696e+1, 1.3366325e+2, -1700975.1, -1646421.5, 2374.504, -0.00055815745, -0.0344254, -1646318.4, -16221.095, 0.0, 9.9938, 10.001022 
1.4992419e+1, 1.4366351e+2, -1599103.3, -1566686.1, 2364.8862, 0.0015590814, -0.023011845, -1566514.5, -34419.9, 0.0, 9.994934, 9.999225 
1.4994037e+1, 1.536626e+2, -1485477.1, -1461909.3, 1610.7045, -0.00080704526, -0.030728087, -1461799.8, -27696.082, 0.0, 9.996029, 9.999148 
1.4995703e+1, 1.6366065e+2, -1387036.9, -1388830.1, 1630.5161, -0.0017332678, -0.033094235, -1386072.8, -49949.883, 0.0, 9.997146, 9.996907 
1.4997463e+1, 1.7365757e+2, -1272500.6, -1283732.8, 2158.4998, -0.00019092287, -0.025771629, -1272100.1, -33946.973, 0.0, 9.998309, 9.99682 
1.4999174e+1, 1.8365324e+2, -1175314.0, -1213598.1, 1793.3835, 0.0010570459, -0.02364332, -1175230.1, -35034.508, 0.0, 9.999441, 9.994371 
1.5000808e+1, 1.936474e+2, -1062234.4, -1109626.3, 1147.6366, 0.0019993538, -0.03242905, -1062206.5, -19953.863, 0.0, 10.000524, 9.994248 
1.5002443e+1, 2.0364062e+2, -963043.7, -1034538.2, 1485.6335, 0.0012424395, -0.03349852, -963012.9, -18693.752, 0.0, 10.001618, 9.992153 
1.5004085e+1, 2.136328e+2, -849103.44, -929570.25, 3028.0432, -0.0022643472, -0.023014413, -848989.6, -2594.045, 0.0, 10.002737, 9.992082 
1.500575e+1, 2.2362366e+2, -753762.4, -862963.9, 3319.2158, -0.003264564, -0.020476598, -753661.56, -5176.24, 0.0, 10.003853, 9.989398 
1.5007453e+1, 2.3361278e+2, -640609.9, -759453.25, 1635.6753, 0.00007437692, -0.03320826, -640587.4, 10004.54, 0.0, 10.004965, 9.989231 
1.5009151e+1, 2.4360098e+2, -540598.25, -683258.0, 984.75574, 0.0022323504, -0.036666375, -540591.44, 12116.045, 0.0, 10.0060835, 9.987199 
1.5010841e+1, 2.5358823e+2, -426505.1, -578074.0, 1973.9346, 0.0025166248, -0.026007196, -426479.4, 28353.002, 0.0, 10.007209, 9.987143 
1.5012497e+1, 2.635742e+2, -329686.03, -508531.06, 2302.4116, 0.00018417563, -0.022696916, -329656.4, 27313.29, 0.0, 10.0083275, 9.984653 
1.5014082e+1, 2.7355865e+2, -216445.25, -404539.34, 1731.9312, -0.0063962457, -0.03448425, -216429.31, 42692.973, 0.0, 10.00943, 9.984528 
1.5015776e+1, 2.8354186e+2, -120706.266, -337326.94, 1832.6666, -0.0051809894, -0.037508365, -120690.76, 40595.883, 0.0, 10.01055, 9.981879 
1.5017638e+1, 2.9352376e+2, -6770.2036, -232839.23, 2486.694, 0.00943853, -0.027495557, -6742.854, 56721.438, 0.0, 10.011694, 9.981768 
1.5019344e+1, 3.0350864e+2, 101851.32, -85976.945, 2503.2307, 0.010883367, -0.021982482, 101884.68, 101884.68, 0.0, 10.012821, 9.987929 
1.5020753e+1, 3.134966e+2, 117960.84, -77583.0, 2105.583, -0.010883176, -0.027533134, 117983.516, 117983.516, 0.0, 10.013904, 9.987985 
2.4981551e+1, 1.23659864e+2, -1803765.1, -1726284.5, -1814.0635, -0.0019211421, -0.028305711, -1726242.0, 1888.4904, 0.0, 9.992588, 10.002848 
2.4984469e+1, 1.3366091e+2, -1701423.4, -1646317.5, -2330.123, -0.0010870864, -0.035389364, -1646219.1, -16099.008, 0.0, 9.993755, 10.001051 
2.4987352e+1, 1.436612e+2, -1599313.6, -1566867.1, -3115.2131, 0.002171, -0.024367264, -1566570.8, -34453.3, 0.0, 9.994924, 9.999217 
2.4990104e+1, 1.536603e+2, -1484532.4, -1461574.9, -2496.4773, -0.00033862353, -0.030684829, -1461306.6, -27180.223, 0.0, 9.9960985, 9.999136 
2.4992888e+1, 1.6365832e+2, -1385913.1, -1388220.9, -2032.4635, -0.0014748897, -0.03236351, -1384729.9, -48584.254, 0.0, 9.997219, 9.996912 
2.4995749e+1, 1.7365524e+2, -1273181.5, -1283969.5, -2347.0608, -0.00007087556, -0.025828898, -1272693.0, -34517.105, 0.0, 9.998259, 9.996828 
2.4998565e+1, 1.8365091e+2, -1176722.5, -1214294.3, -2691.3328, 0.0010451014, -0.023949333, -1176530.8, -36312.402, 0.0, 9.999345, 9.9943695 
2.5001323e+1, 1.9364507e+2, -1062331.1, -1109694.0, -2130.8806, 0.0015242004, -0.032330833, -1062235.5, -19960.05, 0.0, 10.000518, 9.9942465 
2.5004083e+1, 2.0363832e+2, -962308.4, -1034053.56, -2191.6973, 0.0010058905, -0.032892104, -962241.5, -17899.74, 0.0, 10.001663, 9.992164 
2.5006843e+1, 2.1363053e+2, -848665.94, -929194.56, -3560.3643, -0.00127849, -0.022130236, -848508.8, -2090.8125, 0.0, 10.00276, 9.992096 
2.500962e+1, 2.2362137e+2, -753695.6, -863017.25, -3847.8572, -0.0018288037, -0.019991063, -753560.4, -5052.5884, 0.0, 10.003861, 9.989389 
2.5012425e+1, 2.3361045e+2, -640568.9, -759567.4, -2268.4978, 0.0004471553, -0.03431651, -640525.6, 10088.988, 0.0, 10.004974, 9.989219 
2.5015226e+1, 2.4359867e+2, -540645.06, -683219.44, -1537.6516, 0.0018280855, -0.03793488, -540628.5, 12101.773, 0.0, 10.006077, 9.987204 
2.5018016e+1, 2.5358596e+2, -427134.66, -578286.06, -2472.0354, 0.001456939, -0.025385747, -427094.22, 27760.68, 0.0, 10.007162, 9.987149 
2.5020796e+1, 2.6357192e+2, -330505.97, -509009.53, -2892.2908, 0.00010671936, -0.021411838, -330459.13, 26533.012, 0.0, 10.008274, 9.984647 
2.5023547e+1, 2.7355632e+2, -216470.02, -404655.56, -2452.4485, -0.0030212745, -0.035063524, -216438.06, 42706.918, 0.0, 10.009432, 9.984518 
2.5026363e+1, 2.8353956e+2, -120308.84, -336820.97, -2100.524, -0.0021263133, -0.038893294, -120288.47, 41020.887, 0.0, 10.010564, 9.981906 
2.5029266e+1, 2.935215e+2, -7325.815, -232713.7, -2506.193, 0.005449515, -0.02795476, -7297.951, 56188.64, 0.0, 10.011639, 9.981802 
2.5032097e+1, 3.0350637e+2, 101123.03, -86731.22, -2781.184, 0.00582981, -0.021158097, 101164.2, 101164.2, 0.0, 10.012787, 9.987893 
2.5034776e+1, 3.134943e+2, 119741.61, -77253.68, -2878.4907, -0.006147959, -0.025288347, 119783.66, 119783.66, 0.0, 10.014048, 9.987938 
3.497415e+1, 1.2365661e+2, -1805262.4, -1729365.3, 2437.1895, -0.0016863666, -0.023214154, -1729287.1, -1124.7003, 0.0, 9.992589, 10.002638 
3.4978217e+1, 1.3365737e+2, -1703041.0, -1649653.5, 2084.4001, -0.0020737352, -0.037745338, -1649572.3, -19417.258, 0.0, 9.993756, 10.000823 
3.4982273e+1, 1.4365757e+2, -1598412.1, -1565022.5, 1304.2032, 0.0017653465, -0.027871052, -1564971.8, -32818.56, 0.0, 9.994923, 9.999342 
3.4986213e+1, 1.536569e+2, -1483268.1, -1458976.5, 1961.2045, 0.00024054768, -0.025100922, -1458819.1, -24659.68, 0.0, 9.9960985, 9.999313 
3.499012e+1, 1.6365503e+2, -1386387.0, -1389211.4, 1949.4137, -0.0007120787, -0.02610223, -1385392.0, -49214.086, 0.0, 9.99722, 9.996844 
3.4994006e+1, 1.7365171e+2, -1273912.5, -1285505.5, 1586.3131, -0.00026184152, -0.032898664, -1273699.4, -35488.918, 0.0, 9.99826, 9.996723 
3.4997898e+1, 1.8364733e+2, -1175826.6, -1212475.1, 1658.2819, -0.0004136586, -0.03312929, -1175751.8, -35498.637, 0.0, 9.999346, 9.994493 
3.5001814e+1, 1.9364184e+2, -1061207.8, -1107375.4, 2317.7336, -0.0015027587, -0.025134593, -1061091.8, -18784.6, 0.0, 10.000518, 9.994404 
3.5005724e+1, 2.0363505e+2, -964461.3, -1038482.1, 1979.9946, -0.0012495114, -0.023169957, -964408.4, -20034.715, 0.0, 10.001661, 9.991862 
3.5009632e+1, 2.136267e+2, -851337.1, -934696.25, 587.45746, 0.001536023, -0.03325696, -851332.94, -4877.352, 0.0, 10.002759, 9.991721 
3.5013527e+1, 2.2361742e+2, -751454.1, -858364.9, 330.24118, 0.0024729387, -0.03554646, -751453.1, -2906.5557, 0.0, 10.00386, 9.989706 
3.5017404e+1, 2.3360716e+2, -637525.8, -753275.75, 1941.3063, 0.00041524807, -0.02690497, -637493.25, 13153.781, 0.0, 10.004974, 9.989647 
3.5021275e+1, 2.4359562e+2, -541749.0, -685489.4, 2548.424, -0.0015010625, -0.023384627, -541703.8, 11056.372, 0.0, 10.006076, 9.987049 
3.5025135e+1, 2.5358245e+2, -428906.2, -581949.94, 1611.2507, -0.002827156, -0.031128338, -428889.22, 26000.006, 0.0, 10.007161, 9.986899 
3.5029066e+1, 2.6356828e+2, -329994.84, -507937.97, 1432.6886, -0.0007108798, -0.03219907, -329983.28, 27044.768, 0.0, 10.008274, 9.984719 
3.5033086e+1, 2.73553e+2, -215581.8, -402778.38, 1923.4889, 0.007309201, -0.024909526, -215562.03, 43615.684, 0.0, 10.009431, 9.984647 
3.5037017e+1, 2.8353634e+2, -120829.97, -337841.6, 1990.4664, 0.0066104564, -0.022650994, -120811.71, 40529.348, 0.0, 10.010561, 9.981837 
3.5040757e+1, 2.9351795e+2, -8062.2666, -234226.69, 1534.3185, -0.009287602, -0.032453526, -8051.858, 55469.33, 0.0, 10.011638, 9.981699 
3.504471e+1, 3.0350268e+2, 100978.51, -86991.61, 1864.2638, -0.011944693, -0.034607153, 100997.0, 100997.0, 0.0, 10.012785, 9.987877 
3.504898e+1, 3.1349072e+2, 119671.984, -77315.0, 1873.1879, 0.00908697, -0.025839657, 119689.8, 119689.8, 0.0, 10.014044, 9.987934 
4.4966823e+1, 1.2365208e+2, -1803719.8, -1728986.1, -2749.613, 0.0013605843, -0.023091475, -1728885.1, -678.22406, 0.0, 9.992709, 10.002604 
4.4971985e+1, 1.3365282e+2, -1702508.3, -1649726.8, -1533.8002, -0.003101282, -0.036760546, -1649682.1, -19482.504, 0.0, 9.993806, 10.000793 
4.4977176e+1, 1.4365299e+2, -1598575.8, -1565059.5, -1825.1461, 0.00036107274, -0.02695818, -1564960.4, -32762.395, 0.0, 9.99491, 9.999345 
4.4982284e+1, 1.5365233e+2, -1484119.3, -1459305.0, -2412.9265, 0.0009430997, -0.025322538, -1459072.6, -24868.23, 0.0, 9.996037, 9.999319 
4.4987327e+1, 1.6365044e+2, -1387176.4, -1389721.9, -3124.659, 0.00083760277, -0.026953012, -1385075.3, -48852.375, 0.0, 9.99717, 9.996832 
4.4992307e+1, 1.736471e+2, -1272954.6, -1285211.6, -2855.353, -0.000094570096, -0.03333987, -1272322.1, -34066.54, 0.0, 9.998332, 9.996707 
4.4997296e+1, 1.8364275e+2, -1174250.3, -1211704.9, -2744.952, -0.0008167247, -0.03325078, -1174050.1, -33751.85, 0.0, 9.999453, 9.994492 
4.500233e+1, 1.9363724e+2, -1061227.3, -1107363.1, -3258.279, -0.0015117873, -0.025122628, -1060998.3, -18645.979, 0.0, 10.000515, 9.994404 
4.500736e+1, 2.0363045e+2, -965505.0, -1039196.7, -3347.9724, -0.0007924931, -0.023490146, -965353.2, -20934.336, 0.0, 10.001599, 9.991842 
4.5012382e+1, 2.1362203e+2, -851912.0, -935212.94, -2131.4565, 0.0022860114, -0.034599073, -851857.5, -5356.368, 0.0, 10.002729, 9.991699 
4.5017388e+1, 2.2361276e+2, -751538.2, -858211.44, -1855.5828, 0.0031652017, -0.036638774, -751505.9, -2913.7695, 0.0, 10.003845, 9.989723 
4.5022357e+1, 2.3360255e+2, -637896.44, -753200.3, -3273.8677, 0.000358172, -0.025676716, -637803.56, 12888.599, 0.0, 10.004937, 9.989669 
4.502734e+1, 2.4359103e+2, -542175.1, -685857.25, -3874.882, -0.0014912768, -0.02153201, -542070.75, 10734.5205, 0.0, 10.006054, 9.987034 
4.5032325e+1, 2.535778e+2, -428354.47, -581918.1, -3138.7234, -0.0020680714, -0.03151371, -428290.34, 26644.33, 0.0, 10.007209, 9.986877 
4.5037374e+1, 2.6356363e+2, -329037.22, -507222.03, -2521.6333, 0.00011700017, -0.033502616, -329001.56, 28072.064, 0.0, 10.0083275, 9.984741 
4.5042485e+1, 2.735484e+2, -216133.53, -402739.66, -2824.8755, 0.006807461, -0.024701845, -216090.78, 43132.1, 0.0, 10.009379, 9.984673 
4.5047534e+1, 2.8353173e+2, -121959.016, -338696.66, -2870.6846, 0.005718905, -0.02132564, -121921.0, 39465.098, 0.0, 10.010495, 9.98181 
4.5052433e+1, 2.9351333e+2, -7186.4863, -234231.78, -2830.8977, -0.009040267, -0.030892888, -7151.195, 56415.363, 0.0, 10.011715, 9.981661 
4.5057538e+1, 3.0349806e+2, 102101.86, -86255.85, -2148.4219, -0.010736154, -0.03451518, 102126.36, 102126.36, 0.0, 10.012855, 9.987892 
4.5062932e+1, 3.1348604e+2, 116798.445, -78421.07, -1996.744, 0.010442142, -0.030092025, 116818.87, 116818.87, 0.0, 10.013834, 9.987958 
5.495958e+1, 1.23646244e+2, -1802617.4, -1726851.9, 1223.6586, 0.004768656, -0.027682023, -1726832.1, 1431.8309, 0.0, 9.992714, 10.002746 
5.4965776e+1, 1.3364723e+2, -1701346.8, -1647318.9, 2599.8047, -0.0047086743, -0.032510918, -1647194.1, -16939.719, 0.0, 9.993804, 10.0009575 
5.497206e+1, 1.4364746e+2, -1599407.6, -1566766.0, 2408.5698, -0.0027303398, -0.021367129, -1566589.3, -34337.11, 0.0, 9.994909, 9.9992285 
5.4978323e+1, 1.5364653e+2, -1485223.9, -1461641.4, 1874.6805, 0.000344382, -0.031322133, -1461493.3, -27232.197, 0.0, 9.996039, 9.999159 
5.498451e+1, 1.6364457e+2, -1386798.0, -1389057.0, 1217.2318, 0.0013592867, -0.034962635, -1386266.9, -49986.434, 0.0, 9.997176, 9.996874 
5.499064e+1, 1.7364143e+2, -1272417.8, -1284120.4, 1534.7546, -0.00059439865, -0.027168654, -1272219.9, -33908.62, 0.0, 9.998332, 9.99678 
5.4996747e+1, 1.8363708e+2, -1175140.9, -1213539.1, 1304.9464, -0.0013420121, -0.02419886, -1175096.5, -34742.723, 0.0, 9.999453, 9.994367 
5.500287e+1, 1.9363126e+2, -1062335.3, -1109669.9, 759.9848, 0.0002089476, -0.032232918, -1062323.0, -19912.215, 0.0, 10.000516, 9.9942465 
5.500898e+1, 2.0362447e+2, -963588.2, -1035292.4, 867.8007, 0.000794174, -0.033862002, -963577.7, -19100.264, 0.0, 10.001602, 9.992106 
5.5015093e+1, 2.1361658e+2, -849550.8, -930353.7, 2132.4294, -0.00019112982, -0.02632656, -849494.6, -2939.8696, 0.0, 10.00273, 9.992029 
5.5021197e+1, 2.236074e+2, -753533.4, -862331.4, 2262.117, -0.0008661108, -0.023368584, -753486.4, -4841.7593, 0.0, 10.003845, 9.989442 
5.502729e+1, 2.3359664e+2, -640595.44, -758781.6, 846.7022, -0.00081562053, -0.030548925, -640589.4, 10160.748, 0.0, 10.004937, 9.989287 
5.5033416e+1, 2.4358489e+2, -541272.8, -683992.1, 445.79535, 0.00015296438, -0.03235373, -541271.44, 11593.919, 0.0, 10.006054, 9.98716 
5.503959e+1, 2.5357205e+2, -426880.22, -578868.8, 1219.3123, 0.0027675799, -0.02693266, -426870.44, 28120.836, 0.0, 10.00721, 9.987084 
5.504572e+1, 2.6355797e+2, -329303.22, -507717.63, 1471.6943, 0.0016727162, -0.025547555, -329291.06, 27837.775, 0.0, 10.008325, 9.984708 
5.5051744e+1, 2.7354252e+2, -216652.88, -403815.1, 1133.6748, -0.00564168, -0.03441475, -216646.02, 42634.473, 0.0, 10.009378, 9.984598 
5.5057913e+1, 2.835258e+2, -121839.875, -338456.9, 1638.5302, -0.006180233, -0.034838602, -121827.484, 39616.94, 0.0, 10.010495, 9.981826 
5.5064297e+1, 2.935076e+2, -6980.8154, -233785.44, 1768.8905, 0.00519854, -0.023375323, -6967.02, 56655.625, 0.0, 10.011714, 9.98169 
5.5070585e+1, 3.034924e+2, 102412.63, -85544.914, 1665.4093, 0.00800385, -0.02117348, 102427.39, 102427.39, 0.0, 10.012851, 9.987942 
5.507662e+1, 3.1348026e+2, 117150.33, -77673.305, 1680.5392, -0.0044257673, -0.038438406, 117164.83, 117164.83, 0.0, 10.013834, 9.9880085 
6.4952224e+1, 1.23639405e+2, -1803951.8, -1727610.8, -2543.4211, 0.0029218907, -0.029129302, -1727526.1, 804.95496, 0.0, 9.992627, 10.002735 
6.495963e+1, 1.336404e+2, -1700487.6, -1646907.4, -2265.295, -0.0033851496, -0.03229593, -1646811.8, -16490.455, 0.0, 9.993862, 10.000955 
6.4967054e+1, 1.4364062e+2, -1597750.1, -1566239.6, -3070.1506, 0.00022036718, -0.020655915, -1565943.3, -33624.188, 0.0, 9.995033, 9.999202 
6.49744e+1, 1.5363964e+2, -1484353.3, -1461563.3, -2680.729, 0.00033358487, -0.032227363, -1461252.1, -26923.596, 0.0, 9.996113, 9.999126 
6.498168e+1, 1.6363765e+2, -1386540.6, -1388964.9, -2852.374, 0.000054536384, -0.035872705, -1384653.5, -48305.332, 0.0, 9.997194, 9.99687 
6.498895e+1, 1.7363456e+2, -1272916.0, -1284354.6, -3064.7788, -0.0003845388, -0.02571241, -1272146.6, -33767.977, 0.0, 9.998298, 9.996779 
6.4996195e+1, 1.8363018e+2, -1175841.3, -1214077.3, -3326.9915, -0.0001482069, -0.022359379, -1175553.9, -35132.59, 0.0, 9.999413, 9.994348 
6.500341e+1, 1.9362433e+2, -1061825.5, -1109652.6, -2864.6797, 0.0009800363, -0.03314219, -1061654.5, -19175.715, 0.0, 10.00056, 9.994225 
6.501062e+1, 2.0361751e+2, -962470.06, -1034635.06, -3018.6404, 0.0010281228, -0.035568114, -962344.0, -17798.434, 0.0, 10.001672, 9.992116 
6.5017813e+1, 2.1360967e+2, -849443.7, -930160.06, -4103.2627, -0.0007197656, -0.025490291, -849235.6, -2613.1196, 0.0, 10.00273, 9.99204 
6.5025026e+1, 2.2360049e+2, -753983.9, -862762.1, -4381.854, -0.001316442, -0.021628609, -753807.7, -5095.378, 0.0, 10.003822, 9.989421 
6.503225e+1, 2.335897e+2, -640194.7, -758865.44, -3174.893, -0.00017324356, -0.030743625, -640109.8, 10708.457, 0.0, 10.004975, 9.989262 
6.503949e+1, 2.4357791e+2, -540694.1, -683417.4, -2466.0818, 0.0012712148, -0.033714723, -540651.5, 12282.126, 0.0, 10.00608, 9.987185 
6.5046746e+1, 2.535651e+2, -428220.2, -579137.5, -2992.9463, 0.0031081361, -0.02802462, -428160.84, 26898.363, 0.0, 10.0071, 9.987117 
6.5053976e+1, 2.635511e+2, -331288.5, -508867.84, -3236.287, 0.0014029811, -0.02592868, -331229.56, 25967.033, 0.0, 10.008197, 9.984689 
6.5061134e+1, 2.7353558e+2, -216274.53, -403919.84, -3231.7656, -0.0063538635, -0.03329815, -216218.88, 43129.49, 0.0, 10.009416, 9.984572 
6.5068436e+1, 2.8351882e+2, -120958.125, -337908.88, -2655.8313, -0.0060963775, -0.034112472, -120925.62, 40586.832, 0.0, 10.0105505, 9.981834 
6.5075934e+1, 2.9350063e+2, -9639.286, -234901.84, -2689.6702, 0.007778669, -0.026225058, -9607.176, 54083.7, 0.0, 10.011524, 9.981704 
6.508335e+1, 3.0348548e+2, 99680.42, -86464.47, -2587.8403, 0.010476972, -0.023856726, 99716.39, 99716.39, 0.0, 10.012644, 9.987977 
6.509053e+1, 3.1347343e+2, 120058.125, -75861.08, -2668.7266, -0.0063156816, -0.034082517, 120094.47, 120094.47, 0.0, 10.014014, 9.988046 
7.4944776e+1, 1.2363152e+2, -1805090.9, -1729994.4, 1898.0868, -0.006110713, -0.02696796, -1729946.5, -1538.2728, 0.0, 9.99263, 10.00257 
7.495352e+1, 1.3363229e+2, -1701676.1, -1649354.4, 2410.0332, 0.00008155783, -0.036252525, -1649243.6, -18842.959, 0.0, 9.993862, 10.000788 
7.4962175e+1, 1.4363244e+2, -1597261.8, -1565296.1, 1058.3999, 0.008225222, -0.02492375, -1565261.1, -32861.89, 0.0, 9.995036, 9.999264 
7.497051e+1, 1.5363166e+2, -1483639.4, -1460120.3, 1395.3505, -0.00037130716, -0.027805937, -1460037.8, -25630.797, 0.0, 9.996113, 9.999224 
7.4978834e+1, 1.6362971e+2, -1386871.5, -1389669.1, 1283.4006, -0.0044854907, -0.029487329, -1386371.9, -49945.875, 0.0, 9.997195, 9.99682 
7.498725e+1, 1.7362644e+2, -1273424.4, -1285419.1, 1112.7308, -0.00032902573, -0.028996738, -1273322.0, -34863.902, 0.0, 9.998298, 9.996706 
7.499563e+1, 1.8362206e+2, -1175152.1, -1212705.5, 970.01306, 0.001691, -0.02774819, -1175127.1, -34626.098, 0.0, 9.999414, 9.994439 
7.500397e+1, 1.936164e+2, -1060977.4, -1107915.0, 1478.8115, -0.00015657487, -0.027960466, -1060930.9, -18374.559, 0.0, 10.00056, 9.994342 
7.501228e+1, 2.0360957e+2, -964191.3, -1038187.5, 1008.1543, -0.0010731928, -0.028612865, -964177.6, -19554.29, 0.0, 10.001672, 9.991873 
7.502055e+1, 2.1360129e+2, -851568.25, -934565.44, -108.44162, -0.00031757535, -0.032039963, -851568.1, -4863.637, 0.0, 10.002731, 9.991738 
7.502887e+1, 2.2359203e+2, -752286.2, -859275.7, -89.66825, 0.0005265167, -0.031454198, -752286.06, -3490.8264, 0.0, 10.003824, 9.989657 
7.503724e+1, 2.3358168e+2, -637903.56, -754098.44, 1165.2767, 0.0013948461, -0.026527824, -637891.9, 13004.85, 0.0, 10.004974, 9.989587 
7.504557e+1, 2.435701e+2, -541207.3, -684452.5, 1425.2145, 0.00084811676, -0.025862705, -541193.2, 11817.015, 0.0, 10.006079, 9.987114 
7.5053793e+1, 2.53557e+2, -429175.66, -581123.56, 842.5645, -0.0019838323, -0.034825336, -429170.97, 25967.488, 0.0, 10.0071, 9.98698 
7.5062144e+1, 2.635429e+2, -331298.7, -508893.75, 1251.0986, -0.001842675, -0.03467744, -331289.88, 25986.97, 0.0, 10.008197, 9.984687 
7.507065e+1, 2.7352762e+2, -216154.77, -403646.06, 1362.4779, 0.0035468321, -0.021631684, -216144.88, 43281.68, 0.0, 10.009415, 9.984591 
7.50791e+1, 2.8351092e+2, -120967.71, -337866.4, 1115.9343, 0.004596905, -0.019462863, -120961.97, 40628.258, 0.0, 10.010548, 9.981838 
7.508736e+1, 2.9349244e+2, -9631.778, -234885.08, 954.3027, -0.0020561623, -0.039338022, -9627.735, 54143.47, 0.0, 10.011523, 9.981705 
7.5095856e+1, 3.0347723e+2, 99832.88, -86182.99, 2353.5146, -0.004095983, -0.04215254, 99862.66, 99862.66, 0.0, 10.012646, 9.987994 
7.5104636e+1, 3.1346554e+2, 120149.34, -75555.82, 2487.8406, 0.002087373, -0.017591711, 120180.96, 120180.96, 0.0, 10.014008, 9.988069 
8.4937495e+1, 1.2362241e+2, -1803239.3, -1729469.5, -3167.6375, -0.004060789, -0.026098859, -1729333.8, -836.31714, 0.0, 9.992769, 10.002537 
8.4947395e+1, 1.3362312e+2, -1701455.4, -1649519.9, -1425.0431, -0.0004237431, -0.038314793, -1649480.9, -18990.324, 0.0, 9.993887, 10.000762 
8.4957176e+1, 1.4362326e+2, -1597821.8, -1565621.4, -2660.827, 0.006779877, -0.02713341, -1565403.0, -32913.74, 0.0, 9.994999, 9.999258 
8.496661e+1, 1.5362251e+2, -1483666.5, -1460178.1, -3115.9348, -0.00058698765, -0.025783751, -1459771.8, -25275.15, 0.0, 9.996113, 9.999218 
8.497606e+1, 1.6362056e+2, -1386418.3, -1389609.4, -3479.1921, -0.003951776, -0.026789194, -1384186.3, -47670.44, 0.0, 9.9972315, 9.996804 
8.498559e+1, 1.7361721e+2, -1272515.3, -1285186.5, -3244.0813, 0.000070371876, -0.031368036, -1271733.0, -33184.55, 0.0, 9.998367, 9.996685 
8.499506e+1, 1.8361281e+2, -1174365.1, -1212317.9, -3527.445, 0.0019338768, -0.03139642, -1174040.0, -33448.473, 0.0, 9.999467, 9.994437 
8.50045e+1, 1.9360723e+2, -1061677.1, -1108247.1, -3898.625, -0.000090590445, -0.02621592, -1061353.0, -18706.633, 0.0, 10.000511, 9.99434 
8.501391e+1, 2.0360039e+2, -965356.3, -1038871.7, -4071.0396, -0.00096097717, -0.025139073, -965131.56, -20418.236, 0.0, 10.001596, 9.99186 
8.50233e+1, 2.1359205e+2, -851312.75, -934605.1, -3061.5652, 0.000046614245, -0.032863572, -851200.4, -4405.345, 0.0, 10.002754, 9.991722 
8.5032713e+1, 2.2358276e+2, -751696.4, -858833.6, -2614.8818, 0.0009778936, -0.03430763, -751632.56, -2746.5566, 0.0, 10.003857, 9.98967 
8.504216e+1, 2.3357245e+2, -639395.75, -754646.44, -3655.697, 0.0014824886, -0.027317427, -639279.9, 11707.256, 0.0, 10.004864, 9.9896 
8.5051584e+1, 2.4356088e+2, -543217.0, -685654.56, -4396.586, 0.0006883533, -0.025019389, -543081.4, 10019.103, 0.0, 10.00595, 9.987092 
8.506093e+1, 2.5354776e+2, -428323.22, -581039.9, -4209.627, -0.0023434325, -0.033057325, -428207.25, 27021.766, 0.0, 10.007172, 9.986949 
8.5070395e+1, 2.6353362e+2, -329546.53, -507810.28, -3323.8623, -0.0015907567, -0.033518564, -329484.6, 27882.96, 0.0, 10.008305, 9.984706 
8.5080016e+1, 2.7351835e+2, -217884.1, -404179.03, -3174.9873, 0.005301688, -0.023916995, -217830.0, 41687.293, 0.0, 10.009282, 9.984615 
8.5089576e+1, 2.8350168e+2, -123351.63, -338877.03, -3201.1875, 0.006118329, -0.02207311, -123304.09, 38376.71, 0.0, 10.010377, 9.981849 
8.5098946e+1, 2.9348326e+2, -7460.4546, -233737.78, -3341.368, -0.0038051207, -0.03669354, -7411.1245, 56450.137, 0.0, 10.011667, 9.981711 
8.510855e+1, 3.0346805e+2, 102035.44, -85105.484, -2047.5679, -0.00641573, -0.038370326, 102057.84, 102057.84, 0.0, 10.0127945, 9.987994 
8.5118467e+1, 3.134563e+2, 114539.66, -78317.94, -2106.2175, 0.0039350274, -0.02025422, 114562.66, 114562.66, 0.0, 10.013623, 9.988061 
9.493038e+1, 1.2361203e+2, -1802512.5, -1728021.8, 857.6203, 0.0072476836, -0.026507162, -1728011.9, 587.31396, 0.0, 9.992771, 10.002632 
9.494123e+1, 1.3361287e+2, -1700609.4, -1647738.1, 2778.1199, -0.005331435, -0.038438898, -1647592.5, -17001.486, 0.0, 9.993885, 10.000883 
9.4952065e+1, 1.4361304e+2, -1598359.4, -1566680.6, 1527.0553, -0.004764386, -0.026983207, -1566607.3, -34017.89, 0.0, 9.994996, 9.9991865 
9.496273e+1, 1.5361218e+2, -1484409.8, -1461706.0, 1112.5886, -0.0010703426, -0.026370399, -1461651.6, -27053.729, 0.0, 9.996112, 9.999113 
9.497334e+1, 1.6361018e+2, -1386289.0, -1389381.4, 796.2641, 0.00075464207, -0.027896991, -1386096.0, -49478.51, 0.0, 9.997232, 9.996819 
9.4983965e+1, 1.7360686e+2, -1272262.1, -1284684.3, 1062.2167, 0.0000069454227, -0.032865003, -1272171.9, -33521.945, 0.0, 9.998368, 9.996718 
9.4994515e+1, 1.8360244e+2, -1175021.3, -1213687.4, 449.66803, -0.00022373373, -0.033122182, -1175016.0, -34322.715, 0.0, 9.999468, 9.994343 
9.500502e+1, 1.9359672e+2, -1062501.8, -1109940.8, 53.003273, 0.00034476395, -0.028008478, -1062501.8, -19752.41, 0.0, 10.00051, 9.994225 
9.501552e+1, 2.0358993e+2, -963835.06, -1035708.4, 231.68585, 0.0003876134, -0.025194932, -963834.3, -19018.492, 0.0, 10.0015955, 9.992075 
9.502605e+1, 2.135819e+2, -849403.9, -930650.75, 1310.8981, -0.00048686334, -0.02810257, -849382.7, -2488.3254, 0.0, 10.002753, 9.991992 
9.5036554e+1, 2.2357267e+2, -753168.56, -861892.3, 1232.8435, -0.0010187707, -0.030153656, -753154.6, -4169.8423, 0.0, 10.003858, 9.98946 
9.5047003e+1, 2.3356198e+2, -641438.3, -758873.94, 130.31429, -0.00091256876, -0.033015188, -641438.2, 9651.516, 0.0, 10.004864, 9.989311 
9.5057523e+1, 2.4355026e+2, -543052.0, -685313.94, 76.97168, -0.00026559463, -0.03099672, -543052.0, 10152.649, 0.0, 10.005949, 9.987114 
9.506814e+1, 2.5353736e+2, -427811.88, -579950.0, 387.66028, 0.001379851, -0.022890905, -427810.9, 27520.045, 0.0, 10.00717, 9.987023 
9.5078737e+1, 2.635233e+2, -329244.63, -507163.78, 457.68808, 0.0011057515, -0.022805866, -329243.44, 28225.314, 0.0, 10.008305, 9.98475 
9.5089227e+1, 2.735078e+2, -217637.72, -403645.28, 477.2892, -0.002300078, -0.039721567, -217636.5, 41984.086, 0.0, 10.009281, 9.984652 
9.5099866e+1, 2.834911e+2, -123266.266, -338639.56, 1460.8424, -0.0027378167, -0.041462615, -123256.36, 38527.785, 0.0, 10.010373, 9.981865 
9.511067e+1, 2.934731e+2, -7429.2036, -233584.34, 1488.3947, 0.0019752188, -0.01907424, -7419.4087, 56541.71, 0.0, 10.0116625, 9.981723 
9.5121443e+1, 3.0345795e+2, 101945.555, -85259.2, 1280.2227, 0.0027592944, -0.013382113, 101954.31, 101954.31, 0.0, 10.012794, 9.987983 
9.513203e+1, 3.1344575e+2, 114497.42, -78521.44, 992.6696, -0.0033301015, -0.04108013, 114502.53, 114502.53, 0.0, 10.013629, 9.988043 
1.0492319e+2, 1.2360062e+2, -1801854.3, -1727940.6, -2969.4204, 0.007787367, -0.027713254, -1727821.5, 889.5676, 0.0, 9.992824, 10.00261 
1.0493512e+2, 1.3360147e+2, -1700253.1, -1647602.5, -1894.0637, -0.005869573, -0.03632603, -1647534.5, -16831.777, 0.0, 9.993908, 10.000878 
1.0494706e+2, 1.4360166e+2, -1597978.1, -1566555.3, -3356.1272, -0.00586015, -0.024095977, -1566200.8, -33499.863, 0.0, 9.995024, 9.999178 
1.04958884e+2, 1.5360074e+2, -1483253.1, -1461236.4, -3054.4067, -0.0000085270085, -0.028164864, -1460820.4, -26110.457, 0.0, 9.996193, 9.999103 
1.0497063e+2, 1.6359869e+2, -1385370.9, -1389175.8, -3283.347, 0.0024902124, -0.030897506, -1383478.6, -46748.715, 0.0, 9.997304, 9.996795 
1.049823e+2, 1.735954e+2, -1273007.3, -1285332.3, -3482.708, -0.00039146995, -0.031190367, -1272091.1, -33328.98, 0.0, 9.998328, 9.996691 
1.0499393e+2, 1.8359098e+2, -1176048.9, -1214225.1, -3988.128, -0.0014769412, -0.030175144, -1175636.6, -34831.13, 0.0, 9.999397, 9.994337 
1.0500555e+2, 1.9358522e+2, -1061899.9, -1109676.6, -3543.9556, 0.00023688364, -0.029727189, -1061638.4, -18776.375, 0.0, 10.000552, 9.994219 
1.05017155e+2, 2.0357841e+2, -962866.0, -1035318.7, -3573.4487, 0.0010843384, -0.02835875, -962690.2, -17761.443, 0.0, 10.001664, 9.992065 
1.0502879e+2, 2.1357042e+2, -850145.25, -931125.9, -4565.473, 0.00024449636, -0.027210793, -849888.7, -2881.58, 0.0, 10.0027075, 9.991978 
1.0504039e+2, 2.2356118e+2, -754182.56, -862603.75, -5258.4717, -0.00044628693, -0.027483488, -753928.1, -4830.6157, 0.0, 10.003796, 9.989437 
1.0505192e+2, 2.3355043e+2, -640043.44, -758460.06, -4437.626, -0.0010537943, -0.032803386, -639877.4, 11325.465, 0.0, 10.00497, 9.9892845 
1.05063535e+2, 2.4353868e+2, -541089.56, -684191.56, -3309.1665, -0.00041418866, -0.032275748, -541013.06, 12304.946, 0.0, 10.006075, 9.987127 
1.0507526e+2, 2.5352582e+2, -429162.22, -580379.94, -3380.137, 0.0022505776, -0.02404467, -429086.7, 26357.453, 0.0, 10.007067, 9.9870405 
1.0508695e+2, 2.6351178e+2, -332033.2, -508578.0, -3820.478, 0.0019825865, -0.02330499, -331950.56, 25631.29, 0.0, 10.008114, 9.984742 
1.0509848e+2, 2.7349627e+2, -218007.42, -403956.84, -4221.161, -0.0034271963, -0.038319387, -217911.66, 41821.98, 0.0, 10.009259, 9.984637 
1.0511022e+2, 2.8347957e+2, -123220.016, -338473.56, -3077.752, -0.0042700483, -0.039761014, -123176.016, 38721.168, 0.0, 10.010368, 9.981876 
1.0512221e+2, 2.9346153e+2, -11023.57, -235152.45, -2948.155, 0.0027095529, -0.02022424, -10984.797, 53089.48, 0.0, 10.011407, 9.981736 
1.0513414e+2, 3.034464e+2, 98755.81, -86563.46, -3222.9805, 0.00468485, -0.015359851, 98811.84, 98811.84, 0.0, 10.012561, 9.988003 
1.05145805e+2, 3.1343424e+2, 118810.35, -76206.47, -3380.771, -0.0024352435, -0.039904974, 118868.945, 118868.945, 0.0, 10.013912, 9.988064 
1.1491589e+2, 1.23588145e+2, -1802941.4, -1730131.5, 966.5703, -0.0041775918, -0.029704439, -1730118.6, -1285.3176, 0.0, 9.992822, 10.0024605 
1.1492907e+2, 1.3358893e+2, -1701266.8, -1649638.3, 2200.7466, -0.0024822617, -0.032056496, -1649544.6, -18718.857, 0.0, 9.993906, 10.000739 
1.1494218e+2, 1.4358906e+2, -1597597.1, -1565730.6, 990.77716, 0.0029228057, -0.018527506, -1565699.9, -32875.47, 0.0, 9.995021, 9.999235 
1.1495511e+2, 1.5358813e+2, -1482649.6, -1459977.3, 1374.4911, 0.0020771718, -0.031049488, -1459894.3, -25060.91, 0.0, 9.996192, 9.999187 
1.1496791e+2, 1.6358611e+2, -1385756.4, -1389988.0, 640.7289, 0.00043135392, -0.035636153, -1385661.5, -48808.33, 0.0, 9.997305, 9.996738 
1.1498062e+2, 1.7358282e+2, -1273587.3, -1286534.8, 397.4662, -0.0017498399, -0.026366362, -1273575.0, -34689.527, 0.0, 9.998328, 9.996608 
1.1499333e+2, 1.8357842e+2, -1175452.9, -1212993.6, 304.22272, -0.0026545224, -0.022669302, -1175450.4, -34521.727, 0.0, 9.999397, 9.99442 
1.1500609e+2, 1.9357267e+2, -1061121.1, -1108065.8, 834.94934, -0.0012268402, -0.03140293, -1061106.3, -18121.35, 0.0, 10.000551, 9.9943285 
1.15018815e+2, 2.0356578e+2, -964501.25, -1038695.75, 408.81213, 0.00014191435, -0.034633815, -964499.0, -19446.672, 0.0, 10.001664, 9.991835 
1.1503151e+2, 2.1355754e+2, -852195.94, -935346.1, -634.0156, 0.0015850967, -0.030138418, -852191.1, -5057.8213, 0.0, 10.002706, 9.99169 
1.1504421e+2, 2.2354825e+2, -753026.1, -860208.44, -921.3543, 0.0017895863, -0.02636855, -753018.2, -3793.866, 0.0, 10.003796, 9.989599 
1.150569e+2, 2.3353778e+2, -638382.9, -754982.9, -24.66516, -0.0000102830145, -0.026747791, -638382.9, 12943.972, 0.0, 10.004967, 9.989522 
1.1506961e+2, 2.4352616e+2, -541050.25, -684078.75, 477.0959, -0.00091909524, -0.028806519, -541048.7, 12392.134, 0.0, 10.006074, 9.987134 
1.1508231e+2, 2.535131e+2, -429422.5, -580864.1, 315.5826, -0.00021701459, -0.036126573, -429421.84, 26146.855, 0.0, 10.007064, 9.987008 
1.1509505e+2, 2.6349902e+2, -332461.9, -509439.6, 376.70145, 0.00026159015, -0.03457714, -332461.1, 25245.69, 0.0, 10.008113, 9.984682 
1.1510779e+2, 2.7348372e+2, -218444.06, -404864.28, 63.917557, 0.0005124428, -0.020622957, -218444.03, 41412.543, 0.0, 10.009259, 9.984574 
1.15120634e+2, 2.8346708e+2, -123086.586, -338217.88, 826.172, -0.00010074615, -0.017923065, -123083.41, 38936.62, 0.0, 10.010369, 9.981892 
1.15133576e+2, 2.9344863e+2, -10845.46, -234758.69, 902.6858, -0.0020441518, -0.03868395, -10841.821, 53358.688, 0.0, 10.011406, 9.981762 
1.15146644e+2, 3.0343348e+2, 99021.984, -85934.82, 1649.2606, -0.0014549048, -0.042787626, 99036.69, 99036.69, 0.0, 10.012557, 9.988047 
1.15159795e+2, 3.1342182e+2, 119056.6, -75582.62, 1678.8652, 0.0039118007, -0.018958667, 119071.086, 119071.086, 0.0, 10.013907, 9.988108 
1.2490869e+2, 1.2357454e+2, -1803352.3, -1730675.4, -3768.41, -0.0060277954, -0.027362926, -1730480.5, -1513.8331, 0.0, 9.992807, 10.002427 
1.2492306e+2, 1.3357529e+2, -1699318.6, -1648746.5, -1449.5977, -0.00024653654, -0.033351358, -1648705.0, -17745.473, 0.0, 9.994039, 10.000732 
1.2493729e+2, 1.435754e+2, -1595659.3, -1565250.8, -2701.7288, 0.00504929, -0.020355774, -1565012.5, -32054.143, 0.0, 9.995171, 9.99919 
1.2495126e+2, 1.5357445e+2, -1483774.0, -1461074.5, -3388.6042, 0.0013117277, -0.030450594, -1460579.5, -25611.852, 0.0, 9.996137, 9.999136 
1.2496514e+2, 1.635724e+2, -1387349.8, -1390698.8, -4342.4937, -0.0012703954, -0.034080528, -1384370.1, -47382.402, 0.0, 9.997192, 9.99674 
1.24979e+2, 1.7356911e+2, -1272273.5, -1285750.3, -3872.609, -0.0011900093, -0.026610464, -1271239.9, -32219.924, 0.0, 9.99841, 9.996617 
1.2499282e+2, 1.8356468e+2, -1173271.6, -1212200.6, -4003.957, -0.00089242525, -0.023558887, -1172864.1, -31800.773, 0.0, 9.999556, 9.994393 
1.2500666e+2, 1.9355892e+2, -1060936.1, -1108325.9, -4535.282, -0.0005223482, -0.030806005, -1060506.0, -17386.332, 0.0, 10.000577, 9.994293 
1.2502046e+2, 2.0355201e+2, -965191.3, -1039232.0, -4927.3833, 0.000002878933, -0.033595204, -964864.9, -19677.453, 0.0, 10.001624, 9.991814 
1.2503421e+2, 2.1354371e+2, -852113.3, -935503.44, -3985.548, 0.0008738864, -0.030471228, -851923.3, -4654.5977, 0.0, 10.002719, 9.99167 
1.25048e+2, 2.2353442e+2, -752946.9, -860039.5, -3442.5227, 0.0013782178, -0.027301608, -752836.4, -3476.5337, 0.0, 10.003794, 9.989609 
1.2506181e+2, 2.3352396e+2, -640197.6, -755713.6, -4162.652, 0.0010535514, -0.026839677, -640047.8, 11414.352, 0.0, 10.004835, 9.9895315 
1.2507561e+2, 2.4351235e+2, -543602.25, -685348.06, -4808.25, 0.00031144114, -0.028460339, -543439.3, 10136.722, 0.0, 10.005898, 9.987128 
1.2508933e+2, 2.5349927e+2, -430311.88, -581390.75, -4865.705, -0.0014163157, -0.03592824, -430155.34, 25548.713, 0.0, 10.007007, 9.986996 
1.2510316e+2, 2.634852e+2, -331982.06, -509143.84, -4084.0127, -0.0010678069, -0.034494903, -331887.97, 25954.219, 0.0, 10.0081415, 9.984685 
1.2511711e+2, 2.734699e+2, -217341.75, -404276.66, -3841.3784, 0.0026658403, -0.020507082, -217262.84, 42729.11, 0.0, 10.009331, 9.984576 
1.2513107e+2, 2.8345323e+2, -122238.37, -338227.78, -3474.3867, 0.0028863098, -0.018269224, -122182.49, 39973.105, 0.0, 10.010445, 9.981852 
1.2514497e+2, 2.934347e+2, -11034.948, -235371.11, -4070.6733, -0.003246459, -0.039643466, -10961.108, 53375.496, 0.0, 10.011414, 9.981712 
1.2515911e+2, 3.0341956e+2, 97825.45, -86071.77, -2778.2246, -0.0038966585, -0.043979127, 97867.42, 97867.42, 0.0, 10.012454, 9.988083 
1.2517357e+2, 3.1340796e+2, 115292.1, -76810.445, -2564.4268, 0.0055899387, -0.019817606, 115326.33, 115326.33, 0.0, 10.01362, 9.988158 
1.3490157e+2, 1.23559766e+2, -1802766.0, -1729383.5, 739.4616, 0.00055833353, -0.020346852, -1729376.0, -264.48245, 0.0, 9.992804, 10.002515 
1.3491711e+2, 1.3356048e+2, -1698418.5, -1646857.1, 3195.3494, 0.0002693646, -0.040212788, -1646659.9, -15555.5, 0.0, 9.994037, 10.00086 
1.349324e+2, 1.4356059e+2, -1596652.9, -1567282.4, 1060.4058, -0.0003843324, -0.029992376, -1567244.1, -34140.85, 0.0, 9.99517, 9.999052 
1.3494736e+2, 1.5355958e+2, -1485128.1, -1463839.9, 255.20508, -0.003229147, -0.0263752, -1463836.9, -28723.639, 0.0, 9.996136, 9.998947 
1.349623e+2, 1.6355751e+2, -1386885.5, -1389735.6, 116.248375, -0.0036325557, -0.02611638, -1386880.8, -49747.03, 0.0, 9.99719, 9.996805 
1.3497743e+2, 1.7355418e+2, -1271511.8, -1284196.1, 750.6466, 0.0007045466, -0.03190566, -1271467.5, -32301.332, 0.0, 9.99841, 9.996721 
1.3499242e+2, 1.8354973e+2, -1174176.8, -1214085.9, -53.243183, 0.0028700829, -0.032875083, -1174176.6, -32966.86, 0.0, 9.999556, 9.994264 
1.3500726e+2, 1.9354391e+2, -1062163.1, -1110847.9, -677.0786, 0.0012375491, -0.02791528, -1062153.8, -18886.926, 0.0, 10.000577, 9.994121 
1.3502207e+2, 2.0353705e+2, -963822.2, -1036406.2, -853.1918, -0.00064060546, -0.025182864, -963812.2, -18477.984, 0.0, 10.001623, 9.992004 
1.3503692e+2, 2.1352895e+2, -850316.3, -931806.94, 143.35326, -0.00271398, -0.028229592, -850316.06, -2902.613, 0.0, 10.002719, 9.9919195 
1.3505176e+2, 2.2351968e+2, -753898.56, -862019.6, 475.64294, -0.0026853099, -0.030256972, -753896.44, -4392.2764, 0.0, 10.003794, 9.989472 
1.3506664e+2, 2.33509e+2, -641666.5, -758715.9, -261.94016, 0.0012026079, -0.032759238, -641665.9, 9942.988, 0.0, 10.004833, 9.9893265 
1.3508153e+2, 2.4349728e+2, -543735.5, -685598.44, -712.05133, 0.002127131, -0.03104683, -543731.94, 9991.807, 0.0, 10.0058975, 9.987109 
1.3509633e+2, 2.5348437e+2, -430226.2, -581186.1, -723.60547, -0.0021407974, -0.024044879, -430222.72, 25627.564, 0.0, 10.007004, 9.987009 
1.3511129e+2, 2.634703e+2, -331537.88, -508216.94, 294.51166, -0.0031661154, -0.023253005, -331537.4, 26450.715, 0.0, 10.008141, 9.984747 
1.3512644e+2, 2.7345484e+2, -216939.0, -403297.72, 587.80896, 0.0019730048, -0.03682492, -216937.16, 43202.53, 0.0, 10.009324, 9.984645 
1.3514152e+2, 2.834381e+2, -122972.8, -339593.78, 229.6652, 0.0034794381, -0.039422303, -122972.555, 39331.18, 0.0, 10.010437, 9.981761 
1.3515641e+2, 2.9341984e+2, -11860.221, -237138.02, -480.28287, -0.0015659229, -0.024663592, -11859.196, 52623.457, 0.0, 10.0114155, 9.981589 
1.3517159e+2, 3.034047e+2, 98134.73, -85529.48, 1455.6362, -0.0035306546, -0.020730793, 98146.26, 98146.26, 0.0, 10.012458, 9.988116 
1.3518715e+2, 3.1339273e+2, 115645.57, -75949.945, 1794.1096, 0.0005841053, -0.04023763, 115662.37, 115662.37, 0.0, 10.013615, 9.988217 
1.4489448e+2, 1.235439e+2, -1799998.6, -1728560.4, -2968.6938, 0.0025599094, -0.02143387, -1728437.3, 829.8745, 0.0, 9.99301, 10.002467 
1.4491111e+2, 1.3354462e+2, -1699378.9, -1647426.3, -1586.0336, 0.00078414334, -0.04069405, -1647377.9, -16117.96, 0.0, 9.993973, 10.000849 
1.4492749e+2, 1.435447e+2, -1598452.5, -1568242.3, -3839.5383, -0.0023361938, -0.029574852, -1567761.9, -34502.95, 0.0, 9.9950485, 9.999042 
1.449436e+2, 1.535437e+2, -1482271.3, -1462569.0, -3332.5535, -0.0029633618, -0.025860993, -1462020.5, -26751.582, 0.0, 9.996333, 9.998934 
1.4495966e+2, 1.6354159e+2, -1383057.8, -1388364.8, -3289.9368, -0.0022615541, -0.025852263, -1381484.6, -44194.91, 0.0, 9.997471, 9.996758 
1.4497581e+2, 1.735382e+2, -1272599.4, -1285292.4, -3864.4072, 0.001017807, -0.032333918, -1271515.5, -32192.695, 0.0, 9.998358, 9.996669 
1.4499186e+2, 1.8353371e+2, -1177278.8, -1215758.0, -4812.745, 0.002643544, -0.03340323, -1176685.9, -35319.137, 0.0, 9.999351, 9.994245 
1.4500782e+2, 1.9352789e+2, -1062823.4, -1111271.1, -4217.7974, 0.0011696279, -0.027761204, -1062458.9, -19034.979, 0.0, 10.000534, 9.994108 
1.4502373e+2, 2.0352101e+2, -963048.44, -1035899.94, -4348.904, -0.0003759245, -0.024940351, -962789.75, -17298.457, 0.0, 10.001669, 9.992013 
1.4503963e+2, 2.1351291e+2, -850267.4, -931644.25, -5139.665, -0.0018258838, -0.02890707, -849944.0, -2373.46, 0.0, 10.002715, 9.991928 
1.4505555e+2, 2.2350365e+2, -754298.8, -862430.06, -5469.9585, -0.0018738806, -0.031046648, -754022.8, -4361.499, 0.0, 10.003775, 9.989449 
1.4507149e+2, 2.3349296e+2, -641408.4, -758879.94, -4923.8857, 0.0003262223, -0.03230271, -641202.3, 10563.89, 0.0, 10.004862, 9.989297 
1.4508745e+2, 2.4348122e+2, -542935.3, -685427.4, -4427.454, 0.0013038671, -0.030150002, -542797.9, 11083.413, 0.0, 10.0059595, 9.987087 
1.451034e+2, 2.5346828e+2, -429264.75, -580959.1, -4663.9907, -0.00006144785, -0.024192994, -429121.47, 26886.676, 0.0, 10.007079, 9.986984 
1.4511943e+2, 2.634542e+2, -331779.03, -508198.47, -4154.8164, -0.000781295, -0.024100648, -331681.25, 26464.904, 0.0, 10.008117, 9.9847555 
1.4513558e+2, 2.7343872e+2, -221353.33, -405236.66, -4319.6865, -0.00039076686, -0.037778795, -221251.9, 39045.695, 0.0, 10.009011, 9.984659 
1.4515175e+2, 2.83422e+2, -127860.52, -341623.75, -3995.811, 0.00043338287, -0.039717235, -127785.86, 34675.535, 0.0, 10.010084, 9.981788 
1.4516789e+2, 2.934038e+2, -10637.255, -236203.23, -3556.1602, 0.0019775932, -0.02308064, -10581.204, 54058.67, 0.0, 10.011481, 9.981618 
1.451842e+2, 3.0338866e+2, 100999.68, -84591.664, -1898.0095, 0.0013506401, -0.018715166, 101019.086, 101019.086, 0.0, 10.012671, 9.988075 
1.4520065e+2, 3.133766e+2, 113078.14, -77790.266, -2552.4333, -0.0030109547, -0.04005975, 113112.27, 113112.27, 0.0, 10.013461, 9.988162 
1.5488747e+2, 1.2352688e+2, -1801407.1, -1731422.8, 673.47736, -0.002108583, -0.031142678, -1731416.3, -1982.5768, 0.0, 9.99301, 10.002272 
1.549051e+2, 1.3352759e+2, -1700569.9, -1649757.6, 2001.1982, 0.00062059885, -0.034711044, -1649679.0, -18252.1, 0.0, 9.993968, 10.00069 
1.5492256e+2, 1.435277e+2, -1597634.4, -1566472.8, 809.71674, -0.0016435811, -0.01863196, -1566451.6, -33025.84, 0.0, 9.995045, 9.999162 
1.5493998e+2, 1.5352671e+2, -1481068.8, -1460087.8, 1541.3856, 0.00117765, -0.028977321, -1459975.1, -24539.686, 0.0, 9.996331, 9.999102 
1.5495718e+2, 1.6352458e+2, -1384127.5, -1390616.1, 259.06644, 0.0017466259, -0.03347442, -1384117.1, -46660.863, 0.0, 9.997473, 9.996603 
1.5497415e+2, 1.735211e+2, -1274095.8, -1288394.9, -526.6732, -0.001054516, -0.027859868, -1274076.4, -34586.03, 0.0, 9.99836, 9.996455 
1.5499116e+2, 1.8351658e+2, -1176563.6, -1214291.5, -514.4219, -0.0025885731, -0.025028013, -1176556.6, -35021.832, 0.0, 9.99935, 9.994344 
1.5500832e+2, 1.9351079e+2, -1061717.5, -1109031.3, 268.01425, -0.0018975083, -0.030245306, -1061715.9, -18124.566, 0.0, 10.000535, 9.994259 
1.5502541e+2, 2.0350388e+2, -964224.8, -1038343.06, -358.21442, -0.00042532774, -0.032733228, -964223.1, -18564.064, 0.0, 10.001669, 9.991845 
1.550424e+2, 2.1349561e+2, -851874.06, -934935.3, -1215.384, 0.0026679249, -0.032354694, -851856.3, -4116.14, 0.0, 10.002713, 9.991703 
1.5505937e+2, 2.234863e+2, -753642.75, -861067.0, -1414.6819, 0.0026408262, -0.029718902, -753624.1, -3792.7188, 0.0, 10.003774, 9.98954 
1.5507632e+2, 2.334758e+2, -640392.56, -756733.75, -845.38495, -0.002613767, -0.025708195, -640386.4, 11547.966, 0.0, 10.004859, 9.989443 
1.5509337e+2, 2.4346411e+2, -543126.44, -685764.1, -289.10834, -0.0033753566, -0.025738148, -543125.9, 10923.004, 0.0, 10.005957, 9.987064 
1.5511052e+2, 2.5345096e+2, -429690.75, -581767.06, -481.4634, 0.0039704936, -0.035563745, -429689.22, 26488.496, 0.0, 10.007075, 9.986929 
1.5512763e+2, 2.6343682e+2, -332063.53, -508734.63, -719.47046, 0.0049806875, -0.03649773, -332060.6, 26255.664, 0.0, 10.008114, 9.984718 
1.5514453e+2, 2.7342156e+2, -221573.44, -405735.0, -1018.4378, -0.005461396, -0.024402741, -221567.81, 38897.96, 0.0, 10.009013, 9.984622 
1.5516175e+2, 2.8340495e+2, -126844.17, -339531.34, 896.90155, -0.0072965547, -0.020284928, -126840.39, 35788.254, 0.0, 10.010084, 9.981929 
1.5517941e+2, 2.9338664e+2, -9546.394, -233736.7, 1650.6627, 0.0067148143, -0.03379635, -9534.24, 55273.965, 0.0, 10.011473, 9.981789 
1.5519696e+2, 3.0337146e+2, 100079.14, -86232.19, 1340.4905, 0.0099143, -0.036480032, 100088.78, 100088.78, 0.0, 10.01266, 9.987967 
1.5521409e+2, 3.1335962e+2, 111950.125, -80194.58, 366.2641, -0.007027421, -0.021383675, 111950.82, 111950.82, 0.0, 10.013465, 9.987992 
1.6488045e+2, 1.2350882e+2, -1802469.8, -1733097.1, -3736.3315, -0.0027035961, -0.031628855, -1732896.5, -3285.8545, 0.0, 9.992984, 10.002166 
1.6489919e+2, 1.3350949e+2, -1696988.1, -1648592.5, -1757.9602, 0.0015505871, -0.033782758, -1648528.8, -16924.541, 0.0, 9.994232, 10.000637 
1.6491772e+2, 1.4350957e+2, -1593490.1, -1564647.6, -3029.2207, -0.0022521059, -0.017479774, -1564332.9, -30729.336, 0.0, 9.995331, 9.999142 
1.6493623e+2, 1.5350853e+2, -1483345.1, -1461377.3, -3718.4656, 0.0019300111, -0.029860362, -1460765.0, -25151.451, 0.0, 9.9961815, 9.999083 
1.6495451e+2, 1.6350637e+2, -1388179.6, -1392656.9, -5228.5317, 0.0030262398, -0.035034303, -1384730.6, -47096.1, 0.0, 9.997197, 9.996593 
1.6497259e+2, 1.735029e+2, -1271792.5, -1287349.5, -4482.6924, -0.0011125554, -0.027857937, -1270593.3, -30924.762, 0.0, 9.998517, 9.996446 
1.6499068e+2, 1.8349838e+2, -1171774.6, -1212203.0, -4158.862, -0.0031027235, -0.024410782, -1171351.3, -29638.127, 0.0, 9.999684, 9.994319 
1.6500889e+2, 1.9349255e+2, -1061298.0, -1109129.1, -4750.777, -0.0015178089, -0.030530628, -1060830.8, -17060.67, 0.0, 10.000575, 9.994227 
1.6502702e+2, 2.0348561e+2, -966126.3, -1039698.7, -5533.2134, 0.00029290156, -0.03324435, -965712.5, -19874.412, 0.0, 10.001556, 9.991802 
1.6504508e+2, 2.134773e+2, -852332.2, -935628.4, -5037.4746, 0.0024890194, -0.031977758, -852028.6, -4108.99, 0.0, 10.002701, 9.991657 
1.6506316e+2, 2.2346796e+2, -753236.6, -860812.7, -4871.274, 0.0025273382, -0.029193327, -753016.5, -3005.3718, 0.0, 10.003798, 9.989542 
1.6508117e+2, 2.3345746e+2, -640991.3, -756906.2, -5325.033, -0.001377877, -0.026175335, -640747.2, 11366.848, 0.0, 10.004811, 9.9894495 
1.6509928e+2, 2.4344577e+2, -544758.8, -686354.44, -5099.9443, -0.0021886125, -0.026591826, -544575.3, 9653.15, 0.0, 10.005835, 9.987078 
1.6511747e+2, 2.5343266e+2, -432418.3, -582891.4, -4800.9604, 0.0024999955, -0.035495088, -432265.28, 24091.854, 0.0, 10.006877, 9.986943 
1.6513565e+2, 2.6341853e+2, -334091.22, -509822.7, -4719.2183, 0.0035487374, -0.035866387, -333964.56, 24531.037, 0.0, 10.0079775, 9.984705 
1.6515365e+2, 2.7340326e+2, -219192.45, -404779.44, -4891.892, -0.0023332154, -0.023725275, -219063.6, 41581.703, 0.0, 10.009182, 9.984602 
1.6517197e+2, 2.8338662e+2, -124091.95, -338123.63, -3059.0198, -0.003703828, -0.020055644, -124048.24, 38760.07, 0.0, 10.010268, 9.981932 
1.6519067e+2, 2.9336828e+2, -14476.747, -235995.44, -3466.1206, 0.002992685, -0.034795634, -14422.525, 50565.406, 0.0, 10.011126, 9.981796 
1.6520931e+2, 3.033532e+2, 93664.27, -87913.414, -3844.3264, 0.005092019, -0.03740425, 93745.63, 93745.63, 0.0, 10.012154, 9.9880905 
1.6522762e+2, 3.133415e+2, 113649.63, -77716.86, -2695.4895, -0.0011877709, -0.0201505, 113687.59, 113687.59, 0.0, 10.013504, 9.988142 
1.7487346e+2, 1.2348969e+2, -1802622.4, -1733262.1, 1070.3762, -0.0009461357, -0.022442304, -1733245.6, -3447.4714, 0.0, 9.992977, 10.002155 
1.7489345e+2, 1.3349026e+2, -1696611.8, -1647767.5, 2946.131, 0.0030624403, -0.038071934, -1647590.5, -15797.984, 0.0, 9.99423, 10.000692 
1.7491303e+2, 1.4349027e+2, -1594662.3, -1567057.4, 353.24265, -0.0049709673, -0.026486032, -1567052.9, -33260.242, 0.0, 9.995332, 9.998977 
1.7493238e+2, 1.5348914e+2, -1484862.0, -1464426.8, -539.5013, -0.0017275374, -0.028431471, -1464412.6, -28608.906, 0.0, 9.996179, 9.998875 
1.7495169e+2, 1.6348696e+2, -1387175.6, -1390560.6, -507.10736, 0.00015571674, -0.030278236, -1387101.3, -49276.31, 0.0, 9.997195, 9.996735 
1.7497113e+2, 1.734836e+2, -1270341.4, -1284374.8, 541.91046, 0.00008333531, -0.03234419, -1270320.4, -30462.586, 0.0, 9.998517, 9.996645 
1.749904e+2, 1.8347909e+2, -1172793.9, -1214320.4, -565.89856, 0.0003475362, -0.031525098, -1172786.3, -30884.148, 0.0, 9.999684, 9.994173 
1.7500949e+2, 1.9347315e+2, -1062762.6, -1112181.4, -1395.7278, 0.0012888507, -0.028695561, -1062723.3, -18762.904, 0.0, 10.000576, 9.994018 
1.7502858e+2, 2.0346616e+2, -965492.94, -1038435.75, -1379.743, 0.0005473879, -0.026509909, -965466.9, -19438.055, 0.0, 10.001557, 9.991885 
1.7504774e+2, 2.1345794e+2, -851386.4, -933646.94, -725.25757, -0.0031337298, -0.027766345, -851380.0, -3270.7622, 0.0, 10.002698, 9.991792 
1.7506689e+2, 2.2344862e+2, -753835.1, -862008.6, -1011.8354, -0.003400298, -0.02927818, -753825.7, -3625.0486, 0.0, 10.003795, 9.98946 
1.7508604e+2, 2.3343793e+2, -641878.7, -758726.4, -1533.554, 0.002734186, -0.03342709, -641858.6, 10446.858, 0.0, 10.00481, 9.989325 
1.7510517e+2, 2.434262e+2, -544401.1, -685599.9, -1240.3009, 0.00365092, -0.032449048, -544390.25, 10030.037, 0.0, 10.005834, 9.987127 
1.7512429e+2, 2.5341332e+2, -431858.9, -581677.94, -920.0455, -0.0048948983, -0.024687279, -431853.25, 24693.37, 0.0, 10.006874, 9.987026 
1.7514354e+2, 2.6339927e+2, -334022.94, -509626.88, -346.0155, -0.005826994, -0.022726204, -334022.25, 24662.1, 0.0, 10.007976, 9.984717 
1.7516294e+2, 2.7338377e+2, -219253.73, -404803.63, -418.79285, 0.0072947824, -0.03493232, -219252.78, 41583.434, 0.0, 10.009177, 9.9846 
1.7518237e+2, 2.83367e+2, -125019.29, -339915.2, 284.35776, 0.0093576405, -0.03798886, -125018.914, 37981.418, 0.0, 10.010262, 9.981811 
1.7520167e+2, 2.933488e+2, -15517.658, -238135.03, -330.41714, -0.009351397, -0.02698754, -15517.168, 49661.895, 0.0, 10.011125, 9.981648 
1.7522128e+2, 3.033338e+2, 96024.35, -83003.15, 849.3344, -0.013216195, -0.022767095, 96028.375, 96028.375, 0.0, 10.012154, 9.988424 
1.7524126e+2, 3.1332228e+2, 116609.1, -71472.055, 2265.9307, 0.011255563, -0.03447856, 116636.4, 116636.4, 0.0, 10.013501, 9.988569 
1.8486655e+2, 1.2346932e+2, -1799262.4, -1731771.4, -3379.1472, -0.0007035806, -0.022357821, -1731602.6, -1604.7753, 0.0, 9.993207, 10.00214 
1.8488763e+2, 1.3346994e+2, -1697720.6, -1647582.3, -1801.9641, 0.004606677, -0.039041568, -1647517.5, -15525.879, 0.0, 9.994119, 10.000753 
1.8490829e+2, 1.4346994e+2, -1597605.4, -1568991.1, -4042.6248, -0.005629989, -0.02827193, -1568431.0, -34439.28, 0.0, 9.99515, 9.998929 
1.8492867e+2, 1.5346876e+2, -1481817.8, -1463693.6, -3923.149, -0.0021398724, -0.028038625, -1462880.9, -26877.635, 0.0, 9.996415, 9.998805 
1.8494906e+2, 1.6346656e+2, -1382432.4, -1388574.6, -3731.382, 0.0001128287, -0.029114233, -1380670.8, -42645.8, 0.0, 9.997528, 9.996703 
1.8496957e+2, 1.7346315e+2, -1272531.9, -1285728.6, -4382.2036, 0.00007427471, -0.032682568, -1271209.3, -31150.93, 0.0, 9.998377, 9.996616 
1.8498991e+2, 1.834586e+2, -1177591.6, -1216743.9, -6111.6704, 0.0005434345, -0.032591626, -1176659.8, -34557.0, 0.0, 9.99936, 9.99416 
1.8501008e+2, 1.9345266e+2, -1062462.5, -1112090.8, -5458.9165, 0.0017441594, -0.02911948, -1061869.1, -17708.115, 0.0, 10.000596, 9.99401 
1.8503022e+2, 2.0344567e+2, -962958.06, -1037096.7, -4875.052, 0.0010908251, -0.026314767, -962638.9, -16409.402, 0.0, 10.001723, 9.991892 
1.8505041e+2, 2.1343748e+2, -851891.4, -933791.25, -5177.678, -0.0030972718, -0.026859524, -851565.3, -3255.5325, 0.0, 10.002658, 9.9917965 
1.8507062e+2, 2.2342815e+2, -755920.94, -863299.25, -5667.7407, -0.0034964937, -0.02845383, -755622.6, -5221.308, 0.0, 10.003662, 9.98943 
1.8509084e+2, 2.3341739e+2, -642245.44, -759265.3, -5521.1685, 0.0028725073, -0.03410818, -641985.56, 10521.098, 0.0, 10.004799, 9.989288 
1.8511103e+2, 2.4340564e+2, -543616.56, -685314.06, -5161.9727, 0.0040371097, -0.033584084, -543428.75, 11193.003, 0.0, 10.005889, 9.987116 
1.8513116e+2, 2.5339276e+2, -431633.8, -581674.0, -5541.9365, -0.0044587823, -0.024516894, -431429.4, 25318.68, 0.0, 10.006893, 9.987011 
1.8515149e+2, 2.633787e+2, -334552.34, -509612.53, -4890.3193, -0.005656438, -0.021990446, -334415.8, 24469.918, 0.0, 10.007923, 9.984738 
1.8517202e+2, 2.7336323e+2, -221396.8, -405544.66, -4730.2393, 0.0063984976, -0.034759346, -221275.38, 39762.082, 0.0, 10.009014, 9.984623 
1.8519254e+2, 2.833465e+2, -127859.8, -341422.7, -4274.488, 0.008692174, -0.03804921, -127774.28, 35427.215, 0.0, 10.010068, 9.981796 
1.8521279e+2, 2.9332826e+2, -16597.967, -238926.89, -4150.5425, -0.0075494, -0.02655894, -16520.51, 48859.895, 0.0, 10.011058, 9.981623 
1.8523344e+2, 3.0331323e+2, 95797.93, -83125.65, -2265.2854, -0.010848628, -0.022954138, 95826.6, 95826.6, 0.0, 10.012135, 9.9884205 
1.8525466e+2, 3.1330165e+2, 114609.766, -72433.65, -3649.4294, 0.010151149, -0.037248053, 114680.94, 114680.94, 0.0, 10.013359, 9.9885645 
1.9485973e+2, 1.2344765e+2, -1799487.5, -1732137.6, 374.88672, -0.004400495, -0.032512013, -1732135.5, -1925.4612, 0.0, 9.993203, 10.002114 
1.9488177e+2, 1.3344845e+2, -1697351.4, -1646641.4, 1551.6265, 0.0054411637, -0.036515992, -1646593.9, -14391.704, 0.0, 9.994112, 10.000819 
1.9490343e+2, 1.4344856e+2, -1597128.6, -1567862.8, 506.35355, -0.0050310437, -0.022502296, -1567853.9, -33652.727, 0.0, 9.995142, 9.999007 
1.9492511e+2, 1.534474e+2, -1481288.4, -1462568.6, 891.85956, -0.000037788, -0.028676298, -1462526.3, -26313.63, 0.0, 9.996412, 9.99888 
1.9494662e+2, 1.6344512e+2, -1383860.8, -1391577.6, -315.9234, 0.0016161748, -0.03159727, -1383847.8, -45612.832, 0.0, 9.997532, 9.996495 
1.9496793e+2, 1.7344151e+2, -1274367.9, -1289524.9, -1202.1443, -0.0021282681, -0.028827474, -1274273.1, -34002.84, 0.0, 9.998379, 9.996354 
1.9498925e+2, 1.8343689e+2, -1176667.1, -1214844.9, -1673.8121, -0.0036990643, -0.027435863, -1176593.9, -34278.25, 0.0, 9.999359, 9.9942875 
1.9501065e+2, 1.9343106e+2, -1061069.3, -1109205.4, -772.7712, -0.0012532737, -0.031764694, -1061056.8, -16684.125, 0.0, 10.000594, 9.9942045 
1.9503196e+2, 2.0342413e+2, -963451.56, -1038101.25, -1218.9414, 0.0006827224, -0.032596014, -963431.7, -16991.11, 0.0, 10.001722, 9.991821 
1.9505313e+2, 2.1341586e+2, -852728.9, -935521.4, -1689.4292, 0.0015184185, -0.029238999, -852694.4, -4172.729, 0.0, 10.002657, 9.991676 
1.9507432e+2, 2.2340651e+2, -755691.0, -862835.2, -1528.3663, 0.0010415346, -0.02671254, -755669.25, -5055.864, 0.0, 10.003661, 9.98946 
1.9509558e+2, 2.3339584e+2, -641877.25, -758449.8, -1259.3474, -0.0018352742, -0.028360616, -641863.6, 10854.186, 0.0, 10.004795, 9.989343 
1.9511686e+2, 2.4338408e+2, -544147.94, -686323.5, -1370.2202, -0.0022037984, -0.030183582, -544134.7, 10698.381, 0.0, 10.005884, 9.987047 
1.9513813e+2, 2.5337097e+2, -432344.8, -583064.5, -1806.5681, 0.0024320553, -0.03434341, -432323.16, 24638.389, 0.0, 10.006888, 9.9869175 
1.951595e+2, 2.6335686e+2, -334397.28, -509235.97, -895.8267, 0.0026104823, -0.032855175, -334392.7, 24707.045, 0.0, 10.00792, 9.984764 
1.9518092e+2, 2.7334166e+2, -221141.75, -404891.63, -688.68994, -0.0054154075, -0.024220277, -221139.16, 40109.953, 0.0, 10.009008, 9.984669 
1.9520245e+2, 2.8332502e+2, -127300.336, -340150.2, -614.5136, -0.0063517247, -0.02144627, -127298.56, 36113.414, 0.0, 10.010063, 9.981883 
1.9522399e+2, 2.9330665e+2, -15871.326, -237511.95, -542.77856, 0.006589483, -0.032717872, -15869.997, 49721.984, 0.0, 10.011063, 9.981715 
1.952458e+2, 3.0329147e+2, 93667.26, -87668.09, 2112.9414, 0.009933002, -0.03688037, 93691.875, 93691.875, 0.0, 10.012138, 9.988105 
1.9526789e+2, 3.1327972e+2, 111600.445, -78348.195, 958.80695, -0.005601299, -0.030022644, 111605.29, 111605.29, 0.0, 10.013343, 9.988164 
2.0485295e+2, 1.2342519e+2, -1799587.6, -1733647.0, -2234.767, -0.0051668803, -0.032954533, -1733571.4, -3141.1392, 0.0, 9.993254, 10.001984 
2.0487599e+2, 1.3342595e+2, -1694584.6, -1645915.0, -2534.8452, 0.0067401654, -0.035072345, -1645783.3, -13360.542, 0.0, 9.994321, 10.000763 
2.0489869e+2, 1.43426e+2, -1593917.5, -1566318.1, -3882.9294, -0.00508762, -0.023456603, -1565782.3, -31359.965, 0.0, 9.9953575, 9.9990015 
2.049215e+2, 1.5342483e+2, -1481995.8, -1462870.0, -4001.6128, -0.00019050573, -0.0294573, -1462066.5, -25632.883, 0.0, 9.996358, 9.998881 
2.0494407e+2, 1.6342254e+2, -1385882.5, -1392940.9, -5438.8857, 0.001843013, -0.0318379, -1382928.1, -44472.0, 0.0, 9.997407, 9.996458 
2.049664e+2, 1.7341891e+2, -1272017.1, -1288841.3, -4798.5024, -0.001115211, -0.02820843, -1270744.8, -30252.996, 0.0, 9.998554, 9.996311 
2.0498873e+2, 1.8341427e+2, -1172921.1, -1213202.0, -4496.6484, -0.0026457033, -0.026369458, -1172425.3, -29887.805, 0.0, 9.999619, 9.994268 
2.050112e+2, 1.9340841e+2, -1062130.1, -1109886.6, -5124.8604, -0.0019133008, -0.030990561, -1061586.4, -16991.688, 0.0, 10.000526, 9.994185 
2.0503356e+2, 2.0340145e+2, -966483.5, -1039868.7, -6385.075, -0.0003445346, -0.032885965, -965932.06, -19269.215, 0.0, 10.001525, 9.991791 
2.0505582e+2, 2.133931e+2, -852376.5, -935710.56, -6266.392, 0.0025871322, -0.031920455, -851907.94, -3163.3926, 0.0, 10.002694, 9.99164 
2.0507807e+2, 2.2338374e+2, -753903.25, -861859.7, -5865.8027, 0.0026669442, -0.029244514, -753585.44, -2749.0486, 0.0, 10.003777, 9.989466 
2.0510033e+2, 2.3337314e+2, -643075.3, -758859.06, -5894.463, -0.0027280003, -0.026306255, -642776.0, 10164.379, 0.0, 10.0047035, 9.989354 
2.0512265e+2, 2.433614e+2, -546642.2, -687479.6, -5775.659, -0.0035035904, -0.026698297, -546405.75, 8649.704, 0.0, 10.005708, 9.987048 
2.0514502e+2, 2.5334823e+2, -432600.44, -583193.75, -5532.6123, 0.004131865, -0.03525114, -432397.47, 24786.844, 0.0, 10.006867, 9.986913 
2.0516743e+2, 2.633341e+2, -334445.47, -509427.03, -4663.17, 0.005194185, -0.035661664, -334321.28, 25001.453, 0.0, 10.007922, 9.984745 
2.0518982e+2, 2.733189e+2, -224530.52, -406727.7, -4975.1787, -0.0060871034, -0.024494553, -224394.77, 37077.34, 0.0, 10.008781, 9.984647 
2.0521238e+2, 2.8330228e+2, -130464.48, -341524.94, -4591.9834, -0.0077458527, -0.020530324, -130364.62, 33270.32, 0.0, 10.009837, 9.981893 
2.0523517e+2, 2.9328388e+2, -12916.298, -235878.84, -4942.5415, 0.008816168, -0.03311918, -12806.788, 53008.16, 0.0, 10.011253, 9.981729 
2.0525809e+2, 3.0326873e+2, 97078.195, -86314.35, -2799.1733, 0.012871019, -0.037027176, 97120.91, 97120.91, 0.0, 10.012381, 9.988077 
2.05281e+2, 3.1325695e+2, 105795.73, -81572.11, -1740.1287, -0.007494329, -0.02710454, 105811.89, 105811.89, 0.0, 10.012958, 9.988125 
2.1484621e+2, 1.2340192e+2, -1801505.5, -1737336.0, 2284.8677, -0.004779211, -0.02309668, -1737254.8, -6596.4644, 0.0, 9.993242, 10.001737 
2.1487033e+2, 1.3340239e+2, -1696044.4, -1648778.1, 1433.5155, 0.007549412, -0.034802716, -1648734.8, -16080.967, 0.0, 9.994315, 10.000568 
2.1489401e+2, 1.434022e+2, -1594595.5, -1567629.5, -124.41482, -0.00701617, -0.03144964, -1567628.9, -32973.41, 0.0, 9.995354, 9.998912 
2.1491781e+2, 1.5340103e+2, -1482567.9, -1463945.0, -239.12277, -0.0038053778, -0.030343914, -1463942.0, -27275.037, 0.0, 9.996353, 9.998807 
2.1494147e+2, 1.6339879e+2, -1384881.9, -1390851.4, -1194.3693, -0.0006998297, -0.029700063, -1384651.8, -45962.88, 0.0, 9.997406, 9.996597 
2.14965e+2, 1.7339528e+2, -1270741.9, -1286220.4, -435.28162, 0.0022923998, -0.030788217, -1270729.6, -30006.305, 0.0, 9.998555, 9.996487 
2.1498843e+2, 1.8339066e+2, -1174058.1, -1215544.8, -941.7158, 0.002686406, -0.02946133, -1174036.8, -31268.193, 0.0, 9.999619, 9.994107 
2.1501173e+2, 1.9338466e+2, -1063688.9, -1113161.3, -1701.0751, -0.0014615237, -0.026951384, -1063630.5, -18803.094, 0.0, 10.000528, 9.993959 
2.1503507e+2, 2.0337759e+2, -966353.6, -1039694.4, -2156.037, -0.0033576, -0.02710657, -966290.3, -19393.564, 0.0, 10.00153, 9.991797 
2.1505848e+2, 2.1336922e+2, -852006.75, -934939.1, -1866.659, -0.0009677903, -0.03464474, -851964.8, -2986.0745, 0.0, 10.002692, 9.991692 
2.1508181e+2, 2.2335984e+2, -754029.6, -862052.75, -2261.5007, 0.00022496212, -0.03578736, -753982.3, -2911.6487, 0.0, 10.003773, 9.989452 
2.1510504e+2, 2.3334926e+2, -643303.44, -759252.6, -2444.25, -0.0008325814, -0.027598022, -643251.94, 9922.51, 0.0, 10.0047, 9.9893265 
2.1512838e+2, 2.4333759e+2, -546186.6, -686483.44, -1602.8977, -0.0010949869, -0.022957163, -546168.3, 9120.616, 0.0, 10.005705, 9.987115 
2.1515186e+2, 2.5332454e+2, -432081.63, -581984.9, -1210.4156, 0.0001068774, -0.027569061, -432071.88, 25344.729, 0.0, 10.006861, 9.986997 
2.1517533e+2, 2.6331043e+2, -334863.7, -510172.47, -1336.9126, 0.0012833863, -0.030738816, -334853.5, 24701.465, 0.0, 10.007916, 9.9846945 
2.1519868e+2, 2.7329496e+2, -225072.81, -407882.38, -1824.0409, 0.0024242776, -0.034489214, -225054.63, 36651.82, 0.0, 10.008783, 9.984565 
2.1522231e+2, 2.8327823e+2, -130860.67, -342350.47, 323.24374, 0.0020801616, -0.034127217, -130860.18, 33010.137, 0.0, 10.009835, 9.981834 
2.1524633e+2, 2.9325998e+2, -13527.937, -236797.9, 354.0278, -0.0005138542, -0.028592333, -13527.375, 52521.94, 0.0, 10.011237, 9.98167 
2.1527033e+2, 3.0324498e+2, 98424.78, -83112.086, -224.93686, -0.0015538819, -0.024648804, 98425.06, 98425.06, 0.0, 10.012364, 9.988302 
2.1529406e+2, 3.1323335e+2, 107881.86, -77400.46, 265.5188, 0.000583943, -0.027463734, 107882.24, 107882.24, 0.0, 10.012966, 9.988405 
2.2483952e+2, 1.23377286e+2, -1799660.4, -1737186.1, -2816.9626, -0.0045721335, -0.024150614, -1737059.4, -6159.633, 0.0, 9.993397, 10.001664 
2.248647e+2, 1.3337778e+2, -1694363.5, -1648034.0, -2946.012, 0.008376166, -0.03168486, -1647847.4, -14952.465, 0.0, 9.994428, 10.000558 
2.248894e+2, 1.4337753e+2, -1593773.1, -1567808.8, -3678.907, -0.0067012566, -0.031889133, -1567297.5, -32400.238, 0.0, 9.995431, 9.9988575 
2.249142e+2, 1.533763e+2, -1482055.4, -1464424.3, -3798.5142, -0.00347706, -0.030559085, -1463640.6, -26731.324, 0.0, 9.996417, 9.998739 
2.2493887e+2, 1.6337402e+2, -1384565.8, -1390723.4, -4833.95, -0.0005376074, -0.029972417, -1381913.4, -42981.72, 0.0, 9.997423, 9.9965925 
2.249635e+2, 1.733705e+2, -1271714.9, -1286628.4, -5322.0474, 0.0018281881, -0.031525306, -1270010.5, -29044.365, 0.0, 9.99848, 9.99649 
2.2498801e+2, 1.8336587e+2, -1175236.9, -1216642.5, -6498.404, 0.00249603, -0.030533914, -1174240.9, -31229.24, 0.0, 9.9995575, 9.994056 
2.2501235e+2, 1.933598e+2, -1061967.9, -1112981.6, -6094.0728, -0.00018393011, -0.028110957, -1061250.0, -16178.905, 0.0, 10.000671, 9.9938965 
2.250367e+2, 2.0335269e+2, -963705.7, -1038372.25, -5767.4063, -0.0019017867, -0.02726201, -963262.8, -16122.153, 0.0, 10.001703, 9.991798 
2.2506112e+2, 2.1334437e+2, -853267.75, -935430.1, -5760.536, -0.0020802815, -0.031941123, -852865.9, -3643.5437, 0.0, 10.002598, 9.991697 
2.2508548e+2, 2.2333498e+2, -757016.3, -863665.6, -6318.7314, -0.0012912477, -0.033132426, -756643.25, -5328.9746, 0.0, 10.003572, 9.989433 
2.2510977e+2, 2.3332432e+2, -643322.56, -759519.4, -6498.571, 0.00095273275, -0.030208062, -642960.25, 10458.51, 0.0, 10.004705, 9.9893 
2.2513413e+2, 2.4331261e+2, -545262.06, -685959.25, -5804.6675, 0.001478375, -0.02710347, -545023.0, 10510.529, 0.0, 10.005761, 9.987118 
2.251586e+2, 2.5329962e+2, -434721.22, -583158.4, -5970.325, -0.0015256958, -0.026069587, -434481.47, 23179.213, 0.0, 10.006672, 9.987001 
2.251831e+2, 2.6328555e+2, -337917.66, -511482.4, -6120.1323, -0.0014336336, -0.027235862, -337702.13, 22096.67, 0.0, 10.007696, 9.984705 
2.2520757e+2, 2.7327004e+2, -222712.38, -406594.34, -5964.5635, 0.004580191, -0.03562986, -222519.11, 39431.473, 0.0, 10.008935, 9.984574 
2.2523227e+2, 2.8325328e+2, -128450.766, -341199.25, -3232.8933, 0.005451237, -0.03714966, -128401.65, 35712.926, 0.0, 10.009996, 9.981831 
2.2525728e+2, 2.9323506e+2, -20997.945, -240453.81, -2849.801, -0.003433137, -0.028076079, -20960.945, 45332.4, 0.0, 10.010719, 9.981666 
2.252823e+2, 3.0322012e+2, 89593.24, -85968.25, -3520.552, -0.00585218, -0.022770895, 89663.81, 89663.81, 0.0, 10.011692, 9.988424 
2.2530714e+2, 3.132086e+2, 111511.65, -73961.555, -3957.871, 0.0043135984, -0.02828085, 111596.06, 111596.06, 0.0, 10.013138, 9.988553 
2.348329e+2, 1.2335121e+2, -1798874.5, -1735359.9, 1596.4983, -0.007447875, -0.03679908, -1735319.8, -4164.591, 0.0, 9.993387, 10.001789 
2.3485912e+2, 1.3335209e+2, -1693131.1, -1645323.8, 836.2752, 0.008565583, -0.025332537, -1645309.1, -12162.272, 0.0, 9.994421, 10.000743 
2.3488487e+2, 1.4335194e+2, -1593956.9, -1568055.9, 20.418972, -0.0046379655, -0.024430053, -1568055.9, -32907.73, 0.0, 9.995424, 9.99884 
2.3491064e+2, 1.5335059e+2, -1482529.3, -1465310.5, -75.05896, -0.00075950305, -0.030138101, -1465310.1, -28148.795, 0.0, 9.996412, 9.998678 
2.3493631e+2, 1.6334817e+2, -1385643.1, -1392945.8, -893.82367, 0.00022930323, -0.032832213, -1385535.4, -46350.363, 0.0, 9.997424, 9.996438 
2.3496194e+2, 1.7334452e+2, -1272931.5, -1289124.8, -1310.368, -0.0036686955, -0.030505374, -1272826.1, -31605.482, 0.0, 9.998481, 9.996316 
2.3498748e+2, 1.8333982e+2, -1174773.6, -1215673.6, -2322.09, -0.0044379747, -0.029477986, -1174642.3, -31375.29, 0.0, 9.999556, 9.99412 
2.3501304e+2, 1.9333377e+2, -1061195.5, -1111385.0, -1869.3104, 0.00069225504, -0.034316264, -1061126.0, -15799.92, 0.0, 10.0006695, 9.994003 
2.3503846e+2, 2.0332673e+2, -963713.3, -1038435.06, -2297.3054, 0.002607522, -0.033417236, -963642.75, -16247.6875, 0.0, 10.001706, 9.99179 
2.350637e+2, 2.1331851e+2, -853465.3, -935848.44, -2415.7183, -0.0016541458, -0.024124492, -853394.56, -3918.81, 0.0, 10.002598, 9.991667 
2.3508903e+2, 2.2330914e+2, -757169.0, -863977.9, -2214.6428, -0.0029047206, -0.02142073, -757123.06, -5555.4795, 0.0, 10.0035715, 9.989409 
2.3511449e+2, 2.3329832e+2, -643516.75, -759870.44, -2231.2817, 0.0015207002, -0.03401204, -643473.94, 10199.703, 0.0, 10.004703, 9.989275 
2.351399e+2, 2.4328649e+2, -545707.5, -686822.1, -2295.8833, 0.0028109099, -0.038695816, -545670.2, 10119.318, 0.0, 10.005759, 9.987057 
2.3516527e+2, 2.5327352e+2, -435206.72, -584109.56, -2593.4087, -0.0018245409, -0.030370912, -435161.56, 22755.13, 0.0, 10.00667, 9.986935 
2.3519078e+2, 2.6325947e+2, -337478.75, -510484.03, -1714.2472, -0.0036774052, -0.02490748, -337461.78, 22592.58, 0.0, 10.007691, 9.984773 
2.3521647e+2, 2.732441e+2, -222170.77, -405281.03, -1357.9496, 0.00009118139, -0.028735094, -222160.7, 40044.117, 0.0, 10.008925, 9.984665 
2.3524223e+2, 2.8322744e+2, -128187.77, -340461.06, -327.96368, 0.0014917341, -0.03046804, -128187.266, 36180.793, 0.0, 10.009988, 9.981883 
2.3526803e+2, 2.9320917e+2, -20715.537, -239840.39, -287.44254, -0.0012499619, -0.030893162, -20715.16, 45832.09, 0.0, 10.010719, 9.981705 
2.3529404e+2, 3.0319422e+2, 89875.586, -85392.7, 1341.6096, -0.0015759999, -0.03021678, 89885.86, 89885.86, 0.0, 10.011692, 9.988461 
2.3532028e+2, 3.1318277e+2, 111671.164, -73523.945, 1404.2944, 0.0024669203, -0.030312812, 111681.81, 111681.81, 0.0, 10.013134, 9.988582 
2.4482642e+2, 1.23324424e+2, -1795773.1, -1734100.8, -537.0814, -0.0046296404, -0.038133614, -1734096.0, -2678.3572, 0.0, 9.993601, 10.001767 
2.4485351e+2, 1.3332531e+2, -1693503.6, -1645755.8, -3701.8315, 0.0068801125, -0.023504425, -1645470.4, -12061.2, 0.0, 9.9944, 10.000718 
2.4488021e+2, 1.4332509e+2, -1595336.1, -1568858.6, -4849.245, -0.0066853296, -0.028100079, -1567998.5, -32587.19, 0.0, 9.995333, 9.998825 
2.4490714e+2, 1.5332374e+2, -1480535.8, -1464490.3, -4521.9873, 0.00041051712, -0.029965373, -1463303.6, -25879.271, 0.0, 9.99655, 9.998661 
2.4493389e+2, 1.6332132e+2, -1382365.5, -1392116.8, -5205.838, 0.0027877772, -0.030616164, -1380108.6, -40660.41, 0.0, 9.997675, 9.9963665 
2.449605e+2, 1.7331757e+2, -1271324.3, -1289258.4, -5074.4624, -0.0035734877, -0.030147249, -1269988.0, -28503.094, 0.0, 9.998625, 9.996232 
2.4498704e+2, 1.8331279e+2, -1174424.0, -1215354.9, -5758.9736, -0.0054823984, -0.02998286, -1173629.1, -30097.53, 0.0, 9.99957, 9.994128 
2.4501361e+2, 1.933068e+2, -1063207.6, -1112027.3, -5865.4844, 0.0005202415, -0.03370221, -1062512.9, -16922.48, 0.0, 10.000514, 9.994029 
2.4504007e+2, 2.0329976e+2, -966618.56, -1040196.94, -6764.427, 0.0032673506, -0.032703485, -966001.9, -18342.516, 0.0, 10.001519, 9.9917555 
2.4506634e+2, 2.1329147e+2, -853100.2, -936193.0, -7063.8086, -0.0004301064, -0.02554418, -852504.0, -2763.275, 0.0, 10.002642, 9.991616 
2.4509268e+2, 2.2328205e+2, -755176.9, -863023.1, -6735.9575, -0.0018490152, -0.023404397, -754757.8, -2924.8633, 0.0, 10.003704, 9.989405 
2.4511915e+2, 2.3327126e+2, -644094.6, -760087.6, -6519.4136, 0.0007194727, -0.033308454, -643729.3, 10209.386, 0.0, 10.004656, 9.989276 
2.451456e+2, 2.4325943e+2, -547595.6, -687872.25, -6518.668, 0.0016197645, -0.03714393, -547293.3, 8761.198, 0.0, 10.005631, 9.987041 
2.4517193e+2, 2.5324643e+2, -435437.97, -584432.4, -6553.2466, -0.00096124556, -0.031981483, -435150.28, 23031.945, 0.0, 10.006659, 9.986912 
2.4519847e+2, 2.6323235e+2, -337554.78, -510409.13, -5152.826, -0.00203378, -0.027225992, -337401.3, 22918.738, 0.0, 10.007676, 9.984779 
2.4522525e+2, 2.7321705e+2, -225602.47, -406773.5, -5257.612, -0.00033017076, -0.02708021, -225450.02, 37020.063, 0.0, 10.0086775, 9.984677 
2.4525204e+2, 2.832004e+2, -132472.06, -342259.9, -5409.551, 0.00051341427, -0.027443394, -132332.67, 32300.37, 0.0, 10.009679, 9.981902 
2.4527873e+2, 2.931821e+2, -21136.41, -239763.23, -5679.9976, 0.00003531833, -0.03138416, -20988.941, 45823.375, 0.0, 10.010674, 9.981726 
2.4530578e+2, 3.0316713e+2, 90620.53, -84869.89, -2782.2202, 0.00045723325, -0.033000827, 90664.625, 90664.625, 0.0, 10.011729, 9.988473 
2.4533328e+2, 3.1315574e+2, 108526.9, -74919.54, -2583.695, 0.0020886187, -0.032900814, 108563.28, 108563.28, 0.0, 10.012904, 9.98859 
2.548201e+2, 1.2329692e+2, -1797287.3, -1736996.3, 3121.2722, 0.0016727302, -0.027233792, -1736835.1, -5147.684, 0.0, 9.993592, 10.001571 
2.5484788e+2, 1.332974e+2, -1695527.6, -1649612.0, -835.0733, 0.0021697702, -0.026610358, -1649596.8, -15914.114, 0.0, 9.99439, 10.000459 
2.5487548e+2, 1.4329691e+2, -1595566.5, -1569071.6, -572.3126, -0.014144676, -0.043625876, -1569059.4, -33371.91, 0.0, 9.99532, 9.998813 
2.5490367e+2, 1.5329574e+2, -1480330.6, -1463947.6, 102.49544, -0.0013851566, -0.029964726, -1463947.0, -26248.324, 0.0, 9.996543, 9.998698 
2.549316e+2, 1.6329342e+2, -1382286.3, -1391964.1, -1468.1008, 0.005419664, -0.023066813, -1382068.5, -42346.914, 0.0, 9.997676, 9.996374 
2.5495917e+2, 1.732896e+2, -1271325.9, -1289245.9, -1484.0051, 0.0012678836, -0.03052646, -1271203.8, -29444.727, 0.0, 9.998625, 9.996229 
2.5498667e+2, 1.8328479e+2, -1174688.6, -1215915.8, -2182.7466, -0.0016998574, -0.032253314, -1174573.4, -30767.15, 0.0, 9.99957, 9.994087 
2.5501412e+2, 1.9327883e+2, -1063532.1, -1112712.9, -2279.1492, -0.0020350316, -0.026441406, -1063426.8, -17562.256, 0.0, 10.000514, 9.99398 
2.5504154e+2, 2.0327175e+2, -967041.3, -1041098.4, -2646.6, -0.0015636763, -0.025273664, -966946.9, -19012.918, 0.0, 10.00152, 9.99169 
2.55069e+2, 2.132632e+2, -853568.6, -937160.5, -2819.7642, 0.0002544576, -0.03591214, -853473.6, -3456.0261, 0.0, 10.002641, 9.991548 
2.550964e+2, 2.2325371e+2, -755069.75, -862741.06, -3063.6545, 0.0005169063, -0.038717333, -754982.6, -2872.016, 0.0, 10.003701, 9.989422 
2.551238e+2, 2.3324314e+2, -643895.5, -759594.3, -2963.2454, -0.0022509012, -0.028527128, -643819.6, 10394.682, 0.0, 10.004653, 9.989308 
2.5515118e+2, 2.4323143e+2, -547459.9, -687491.4, -2751.2893, -0.003143342, -0.023367602, -547405.8, 8923.192, 0.0, 10.005627, 9.987067 
2.5517863e+2, 2.532183e+2, -435304.1, -584103.2, -2730.7788, 0.00006746252, -0.03096671, -435254.0, 23203.596, 0.0, 10.006657, 9.986934 
2.552062e+2, 2.6320416e+2, -337891.9, -511065.25, -1455.0616, 0.0021922097, -0.033714917, -337879.7, 22716.457, 0.0, 10.007674, 9.984733 
2.5523397e+2, 2.7318883e+2, -226164.8, -407745.25, -1564.3988, 0.002141496, -0.030140162, -226151.33, 36595.22, 0.0, 10.00867, 9.9846115 
2.5526175e+2, 2.831722e+2, -132618.84, -342359.84, -1742.7524, 0.0013193492, -0.027466128, -132604.36, 32305.287, 0.0, 10.00967, 9.981896 
2.552894e+2, 2.931539e+2, -21022.975, -239619.34, -2034.2682, -0.0002380403, -0.029869162, -21004.047, 46084.64, 0.0, 10.010679, 9.98173 
2.5531748e+2, 3.0313894e+2, 90653.49, -84955.6, 1383.7877, -0.00056048465, -0.031715117, 90664.4, 90664.4, 0.0, 10.011736, 9.988461 
2.5534618e+2, 3.1312746e+2, 108181.37, -75237.97, 1747.0679, 0.0011925992, -0.03566009, 108198.01, 108198.01, 0.0, 10.012888, 9.988572 
2.6481366e+2, 1.232682e+2, -1797811.1, -1737580.8, -1033.0729, 0.0013427612, -0.027328638, -1737563.0, -5594.2476, 0.0, 9.993566, 10.001538 
2.6484242e+2, 1.3326858e+2, -1692072.4, -1649376.3, -4700.53, 0.0022460273, -0.022642286, -1648864.9, -14899.944, 0.0, 9.99468, 10.000328 
2.64871e+2, 1.4326794e+2, -1590346.9, -1567272.4, -3677.2166, -0.010744768, -0.045279056, -1566700.6, -30729.38, 0.0, 9.995702, 9.998744 
2.649002e+2, 1.5326674e+2, -1480294.8, -1464585.1, -3687.9436, -0.002147063, -0.031158345, -1463762.5, -25779.44, 0.0, 9.99657, 9.998635 
2.6492918e+2, 1.6326438e+2, -1384741.3, -1393117.1, -5843.069, 0.0030198789, -0.023718286, -1381740.3, -41734.02, 0.0, 9.997501, 9.996374 
2.649578e+2, 1.7326057e+2, -1271828.1, -1289322.8, -5849.4985, 0.0024204245, -0.03025724, -1270052.6, -28009.035, 0.0, 9.998577, 9.996242 
2.649863e+2, 1.8325575e+2, -1173940.9, -1216126.1, -6569.109, 0.001089859, -0.031617947, -1172941.5, -28850.771, 0.0, 9.99964, 9.994033 
2.650147e+2, 1.9324973e+2, -1061509.3, -1112501.8, -6835.269, -0.0021357604, -0.026630227, -1060608.9, -14459.088, 0.0, 10.000682, 9.993906 
2.650431e+2, 2.0324259e+2, -964647.56, -1040012.94, -6999.9507, -0.0029861024, -0.025996998, -964002.9, -15783.112, 0.0, 10.00168, 9.99168 
2.6507163e+2, 2.1323404e+2, -853924.25, -937308.75, -6655.7217, 0.00046759972, -0.036133718, -853396.3, -3092.927, 0.0, 10.00261, 9.991547 
2.6510003e+2, 2.2322455e+2, -757287.9, -863905.75, -6887.168, 0.0016853067, -0.038243167, -756844.8, -4448.436, 0.0, 10.003549, 9.989411 
2.6512834e+2, 2.3321396e+2, -646081.1, -760791.6, -7164.7324, -0.0019036431, -0.027567321, -645635.3, 8864.89, 0.0, 10.004504, 9.989293 
2.6515678e+2, 2.4320225e+2, -548944.0, -688267.94, -6805.051, -0.0027655822, -0.022650648, -548612.44, 8002.631, 0.0, 10.005522, 9.987059 
2.6518527e+2, 2.5318912e+2, -435181.22, -584104.2, -6898.32, 0.0014585856, -0.031460885, -434862.34, 23881.463, 0.0, 10.006661, 9.986924 
2.6521388e+2, 2.6317495e+2, -337604.53, -510577.9, -6156.782, 0.0033584298, -0.034841403, -337385.66, 23496.664, 0.0, 10.007674, 9.984759 
2.652425e+2, 2.7315968e+2, -229296.92, -408826.88, -5723.0713, 0.0005405334, -0.030937469, -229114.67, 33917.68, 0.0, 10.0084305, 9.984647 
2.6527125e+2, 2.8314304e+2, -136696.81, -344739.78, -4452.348, -0.0005508108, -0.028262647, -136601.56, 28593.824, 0.0, 10.0094, 9.981858 
2.6530018e+2, 2.931247e+2, -19440.611, -239483.16, -4916.7417, 0.001991196, -0.031160671, -19330.803, 48044.266, 0.0, 10.010808, 9.981672 
2.6532933e+2, 3.031097e+2, 93310.42, -83364.05, -2963.7986, 0.0026183375, -0.03179894, 93360.125, 93360.125, 0.0, 10.011899, 9.988485 
2.6535878e+2, 3.1309834e+2, 100607.164, -78356.65, -2557.2644, -0.0011924144, -0.030886758, 100643.695, 100643.695, 0.0, 10.012337, 9.988619 
2.7480713e+2, 1.2323825e+2, -1796993.9, -1735572.4, 3488.8354, -0.0084926225, -0.03864115, -1735374.8, -3112.5046, 0.0, 9.993552, 10.001677 
2.7483714e+2, 1.3323888e+2, -1692223.9, -1649458.4, -583.78827, 0.0064789304, -0.011161739, -1649450.4, -15194.208, 0.0, 9.994672, 10.000322 
2.7486685e+2, 1.4323817e+2, -1591359.8, -1569215.6, -314.77097, 0.0030376236, -0.03238886, -1569211.3, -32948.258, 0.0, 9.995696, 9.998612 
2.748968e+2, 1.5323666e+2, -1481536.9, -1466990.0, -453.00702, -0.003391378, -0.033632375, -1466975.9, -28698.178, 0.0, 9.996562, 9.998473 
2.7492657e+2, 1.6323413e+2, -1384835.1, -1393228.8, -1941.4805, -0.006517692, -0.03289311, -1384407.9, -44105.35, 0.0, 9.997498, 9.996365 
2.7495632e+2, 1.7323045e+2, -1271718.6, -1288986.6, -1754.5402, -0.0011461, -0.02938184, -1271542.3, -29203.563, 0.0, 9.998572, 9.9962635 
2.7498594e+2, 1.8322565e+2, -1174434.5, -1217089.6, -2599.965, 0.0016629725, -0.027854996, -1174276.6, -29890.828, 0.0, 9.999639, 9.993965 
2.750154e+2, 1.9321942e+2, -1062133.9, -1113770.0, -2879.8667, -0.0010568629, -0.034298733, -1061973.8, -15527.026, 0.0, 10.000679, 9.993818 
2.7504483e+2, 2.0321222e+2, -964325.5, -1039373.44, -3422.6025, -0.002363814, -0.03505968, -964169.75, -15652.536, 0.0, 10.001682, 9.991719 
2.750742e+2, 2.1320394e+2, -853397.6, -936274.0, -3152.7874, -0.0007956649, -0.026827151, -853277.8, -2679.2925, 0.0, 10.002613, 9.991612 
2.7510357e+2, 2.2319454e+2, -757521.44, -864413.2, -3324.5332, 0.00026390783, -0.022651957, -757418.2, -4727.4673, 0.0, 10.00355, 9.989373 
2.751329e+2, 2.331837e+2, -646502.0, -761662.3, -3585.9795, 0.0003804289, -0.02999194, -646390.44, 8406.301, 0.0, 10.004504, 9.989231 
2.751623e+2, 2.4317184e+2, -549199.3, -688776.44, -2671.0498, 0.00088278635, -0.034039292, -549148.2, 7764.6694, 0.0, 10.005522, 9.9870205 
2.7519196e+2, 2.5315875e+2, -435538.66, -584644.56, -2622.344, 0.0022660326, -0.033619933, -435492.53, 23548.635, 0.0, 10.006654, 9.986888 
2.7522153e+2, 2.6314467e+2, -337065.72, -509193.25, -3127.6313, 0.00088321377, -0.03140332, -337008.9, 24170.072, 0.0, 10.007664, 9.984857 
2.7525085e+2, 2.731295e+2, -228352.9, -406919.63, -3009.0398, -0.0057983296, -0.029761482, -228302.2, 35025.71, 0.0, 10.008434, 9.984773 
2.752806e+2, 2.8311288e+2, -137054.16, -345604.22, 247.80582, -0.00628687, -0.029379442, -137053.88, 28436.803, 0.0, 10.009405, 9.981793 
2.75311e+2, 2.9309443e+2, -20467.434, -241215.27, 305.09494, 0.005885415, -0.034821715, -20467.012, 47204.754, 0.0, 10.01079, 9.981558 
2.753413e+2, 3.030794e+2, 93379.07, -82691.195, -780.7471, 0.009170622, -0.03320653, 93382.53, 93382.53, 0.0, 10.011878, 9.988539 
2.7537107e+2, 3.1306824e+2, 101509.14, -76879.56, -1100.0846, -0.0064662416, -0.01978976, 101515.92, 101515.92, 0.0, 10.012357, 9.988708 
2.8480077e+2, 1.23207375e+2, -1793472.1, -1732595.0, 71.19207, -0.007891825, -0.041037645, -1732595.0, -30.192478, 0.0, 9.993726, 10.001789 
2.8483176e+2, 1.3320798e+2, -1693155.6, -1650785.6, -4962.1772, 0.0043550883, -0.009909245, -1650212.1, -15653.258, 0.0, 9.994638, 10.000243 
2.8486255e+2, 1.4320719e+2, -1592880.6, -1570548.4, -4899.9937, 0.0059381216, -0.032787636, -1569520.5, -32953.973, 0.0, 9.995612, 9.998556 
2.8489342e+2, 1.5320565e+2, -1479411.5, -1466522.0, -4275.999, -0.0019491268, -0.033501793, -1465232.5, -26650.658, 0.0, 9.996726, 9.998419 
2.849242e+2, 1.6320306e+2, -1381009.3, -1391934.6, -5380.088, -0.0065137586, -0.03237474, -1378804.8, -38197.633, 0.0, 9.997777, 9.996311 
2.8495497e+2, 1.7319931e+2, -1270112.3, -1288793.9, -5807.945, -0.0025760422, -0.029453728, -1268453.8, -25809.994, 0.0, 9.998701, 9.996207 
2.8498557e+2, 1.8319446e+2, -1174586.5, -1217436.3, -6874.8135, 0.00039441328, -0.02842606, -1173510.5, -28819.152, 0.0, 9.999634, 9.9939375 
2.8501606e+2, 1.931882e+2, -1063480.0, -1114674.4, -6685.9575, 0.00046675833, -0.034724355, -1062621.3, -15868.66, 0.0, 10.000594, 9.993792 
2.850465e+2, 2.03181e+2, -966187.5, -1040328.25, -7221.683, 0.00014180086, -0.035051852, -965490.6, -16667.404, 0.0, 10.001552, 9.991713 
2.850768e+2, 2.1317272e+2, -854740.75, -936974.7, -7511.474, -0.0012583152, -0.026034486, -854060.25, -3155.762, 0.0, 10.002518, 9.991605 
2.851071e+2, 2.2316328e+2, -757898.0, -864885.6, -7690.1597, -0.0013297796, -0.022254322, -757348.06, -4351.1694, 0.0, 10.0035305, 9.989344 
2.8513744e+2, 2.331524e+2, -644705.8, -761164.8, -7721.22, 0.0009488195, -0.031853404, -644196.1, 10907.314, 0.0, 10.004637, 9.989194 
2.851679e+2, 2.4314053e+2, -547640.2, -687813.2, -6848.1655, 0.002128672, -0.035919815, -547306.4, 9913.334, 0.0, 10.005612, 9.987037 
2.8519842e+2, 2.5312752e+2, -439931.72, -586460.25, -6460.4946, 0.0010982129, -0.031463504, -439647.44, 19700.023, 0.0, 10.006332, 9.986913 
2.8522897e+2, 2.6311347e+2, -343057.97, -512332.4, -6555.0073, -0.00041362442, -0.028268112, -342804.53, 18680.6, 0.0, 10.0072565, 9.984833 
2.852594e+2, 2.7309817e+2, -226162.86, -406276.3, -7452.9272, -0.0030315104, -0.031377453, -225855.0, 37779.836, 0.0, 10.008595, 9.984733 
2.8529015e+2, 2.8308153e+2, -132892.38, -343212.78, -4962.036, -0.0028379909, -0.032427717, -132775.38, 33022.457, 0.0, 10.009669, 9.981822 
2.8532147e+2, 2.9306316e+2, -28747.89, -244647.55, -3958.6023, 0.0031137855, -0.03224464, -28675.332, 39302.65, 0.0, 10.01019, 9.981606 
2.8535274e+2, 3.0304825e+2, 82428.27, -87012.72, -3816.534, 0.005012049, -0.029691987, 82514.195, 82514.195, 0.0, 10.011077, 9.988622 
2.8538364e+2, 3.1303707e+2, 107672.9, -72865.08, -4010.634, -0.002331407, -0.025378827, 107761.945, 107761.945, 0.0, 10.01273, 9.988798 
2.9479462e+2, 1.2317559e+2, -1793237.3, -1731668.4, 3498.1985, 0.0010363292, -0.03299394, -1731470.3, 1406.0453, 0.0, 9.993709, 10.001856 
2.948263e+2, 1.3317588e+2, -1694615.3, -1653322.4, -1652.2098, -0.005088441, -0.019695811, -1653256.4, -18382.902, 0.0, 9.994619, 10.000076 
2.9485807e+2, 1.4317496e+2, -1592958.9, -1570327.8, -896.6604, -0.0034783366, -0.047542907, -1570292.4, -33409.9, 0.0, 9.995595, 9.998575 
2.948902e+2, 1.5317361e+2, -1479113.1, -1465684.0, -65.806816, 0.0007596832, -0.030693488, -1465683.8, -26788.117, 0.0, 9.996716, 9.998478 
2.9492205e+2, 1.6317111e+2, -1381748.8, -1393370.1, -1789.9688, 0.0015278034, -0.02170927, -1381479.4, -40559.168, 0.0, 9.997773, 9.996213 
2.9495364e+2, 1.7316711e+2, -1271149.0, -1290798.3, -2312.931, -0.002640099, -0.030464604, -1270880.4, -27921.041, 0.0, 9.998695, 9.996071 
2.9498518e+2, 1.8316214e+2, -1174531.9, -1217254.5, -3258.931, -0.0037787457, -0.03344198, -1174284.8, -29276.715, 0.0, 9.999631, 9.993948 
2.9501668e+2, 1.9315605e+2, -1063145.4, -1113996.3, -3021.7947, 0.0010418113, -0.028152348, -1062966.5, -15898.672, 0.0, 10.000593, 9.993835 
2.9504806e+2, 2.0314887e+2, -966485.06, -1041060.94, -3567.1138, 0.0027264452, -0.026092632, -966314.8, -17176.734, 0.0, 10.001557, 9.991656 
2.950793e+2, 2.1314034e+2, -855245.3, -938092.4, -3856.3616, -0.0020539195, -0.033360936, -855066.2, -3844.5295, 0.0, 10.0025215, 9.991523 
2.951106e+2, 2.2313078e+2, -758069.6, -865197.25, -3623.4512, -0.004366343, -0.036452755, -757947.2, -4631.9966, 0.0, 10.003529, 9.98932 
2.9514208e+2, 2.3312002e+2, -644880.5, -761347.6, -3542.9827, -0.0012787627, -0.033443622, -644772.8, 10647.944, 0.0, 10.004628, 9.989182 
2.951735e+2, 2.4310826e+2, -547253.4, -686866.2, -3919.0815, -0.00011192915, -0.028906677, -547143.44, 10392.652, 0.0, 10.005608, 9.9871 
2.9520473e+2, 2.530953e+2, -439310.75, -585203.3, -3831.2458, -0.0028725637, -0.025229216, -439210.2, 20452.924, 0.0, 10.006335, 9.986995 
2.952362e+2, 2.630812e+2, -343947.88, -514214.28, -2033.3367, -0.0019513028, -0.025120277, -343923.6, 17877.53, 0.0, 10.007257, 9.9847 
2.952681e+2, 2.730657e+2, -227627.3, -409058.84, -2427.3125, 0.006633612, -0.03560466, -227594.83, 36358.52, 0.0, 10.008584, 9.984544 
2.9529995e+2, 2.8304896e+2, -132304.61, -341638.16, -2532.1108, 0.0077629588, -0.037470743, -132273.98, 33843.094, 0.0, 10.009656, 9.981933 
2.9533157e+2, 2.930309e+2, -27378.9, -241899.3, -2182.9512, -0.006274718, -0.024261804, -27356.69, 40937.527, 0.0, 10.010197, 9.981787 
2.9536366e+2, 3.0301613e+2, 83342.305, -85320.25, 1442.7169, -0.009986174, -0.021619076, 83354.64, 83354.64, 0.0, 10.0110855, 9.9887295 
2.9539648e+2, 3.1300476e+2, 107977.19, -71718.85, 2108.0662, 0.0074652834, -0.045088086, 108001.914, 108001.914, 0.0, 10.012707, 9.988882 
3.0478835e+2, 1.231428e+2, -1792016.0, -1730467.1, 259.2523, 0.0047938903, -0.032559384, -1730466.0, 2731.504, 0.0, 9.993756, 10.00191 
3.0482098e+2, 1.3314289e+2, -1692311.4, -1654185.9, -4960.1694, -0.009558645, -0.02272588, -1653551.1, -18354.475, 0.0, 9.994853, 9.999899 
3.048538e+2, 1.4314188e+2, -1588878.0, -1568840.6, -4478.9746, -0.0040893, -0.047420397, -1567885.0, -30678.45, 0.0, 9.995888, 9.998528 
3.0488694e+2, 1.5314053e+2, -1478093.3, -1465380.0, -4277.698, 0.0016230457, -0.030016575, -1464074.6, -24854.787, 0.0, 9.996788, 9.998456 
3.0491984e+2, 1.6313799e+2, -1382850.0, -1394407.9, -6371.832, 0.0032618965, -0.021357602, -1380026.8, -38782.01, 0.0, 9.997714, 9.996164 
3.0495235e+2, 1.7313392e+2, -1271167.5, -1291400.4, -6408.737, -0.0011764901, -0.031389162, -1269308.4, -26023.822, 0.0, 9.998714, 9.996014 
3.0498484e+2, 1.8312891e+2, -1173526.6, -1216884.9, -7061.6514, -0.0030013802, -0.03462891, -1172405.5, -27071.857, 0.0, 9.999699, 9.993935 
3.0501726e+2, 1.9312282e+2, -1062158.8, -1113546.4, -7181.633, -0.00025490095, -0.027677784, -1061173.9, -13780.525, 0.0, 10.000656, 9.993829 
3.0504963e+2, 2.0311563e+2, -965733.0, -1041235.2, -7866.953, 0.0011217112, -0.025084725, -964922.06, -15458.175, 0.0, 10.001624, 9.991606 
3.0508187e+2, 2.13107e+2, -854122.8, -938234.44, -8030.5576, -0.00062245794, -0.03406222, -853362.94, -1814.7604, 0.0, 10.00262, 9.99146 
3.051142e+2, 2.2309744e+2, -757466.56, -864595.25, -7639.345, -0.0015479412, -0.037552632, -756924.56, -3282.5417, 0.0, 10.00355, 9.989345 
3.0514657e+2, 2.3308674e+2, -648624.25, -762651.3, -7187.2114, -0.0010711692, -0.032703433, -648173.0, 7573.9995, 0.0, 10.004345, 9.989224 
3.051789e+2, 2.4307498e+2, -552273.94, -689562.0, -7479.368, -0.0011477518, -0.02804562, -551867.7, 5994.4775, 0.0, 10.005267, 9.987075 
3.0521113e+2, 2.5306195e+2, -437690.13, -584922.56, -8278.923, -0.0023716488, -0.027490959, -437226.06, 22763.84, 0.0, 10.006461, 9.986946 
3.052436e+2, 2.630478e+2, -340125.03, -512208.28, -6394.7197, -0.0006883507, -0.027984042, -339887.75, 22240.475, 0.0, 10.007506, 9.98471 
3.0527648e+2, 2.7303234e+2, -232375.97, -411023.1, -5307.5166, 0.006560984, -0.033836022, -232218.42, 32061.38, 0.0, 10.008236, 9.984572 
3.0530933e+2, 2.830157e+2, -139935.0, -345224.34, -5193.764, 0.007262242, -0.034440435, -139803.67, 26639.531, 0.0, 10.009121, 9.98194 
3.0534184e+2, 2.9299757e+2, -25365.885, -240907.22, -6163.572, -0.005231395, -0.02721205, -25189.777, 43431.08, 0.0, 10.010327, 9.981787 
3.0537492e+2, 3.0298278e+2, 87597.21, -82993.43, -2718.9048, -0.008084052, -0.026224652, 87640.54, 87640.54, 0.0, 10.011358, 9.988751 
3.0540884e+2, 3.1297153e+2, 98141.875, -76137.93, -2330.8867, 0.008006606, -0.042171378, 98173.05, 98173.05, 0.0, 10.012009, 9.988907 
3.1478208e+2, 1.2310904e+2, -1792183.8, -1730415.3, 3785.0493, -0.00043803133, -0.038754847, -1730184.3, 3344.13, 0.0000000000000806617, 9.993743, 10.001914 
3.1481585e+2, 1.3310902e+2, -1694081.8, -1657440.3, -859.1119, -0.009711008, -0.018598039, -1657420.1, -21891.633, 0.00000000000005243424, 9.994839, 9.9996805 
3.1484976e+2, 1.4310795e+2, -1589882.8, -1570659.9, -1043.0558, 0.0033749554, -0.031646296, -1570603.4, -33064.36, 0.000000000000028332263, 9.995878, 9.998405 
3.148837e+2, 1.5310633e+2, -1478942.9, -1466874.5, -944.4771, -0.00074396865, -0.03145248, -1466801.0, -27246.088, 0.000000000000012064798, 9.996777, 9.998357 
3.1491747e+2, 1.6310365e+2, -1382934.6, -1394435.8, -2707.263, -0.0034426947, -0.031695392, -1382329.3, -40748.016, 0.000000000000003878589, 9.997707, 9.996162 
3.1495112e+2, 1.7309968e+2, -1271094.6, -1291118.4, -2614.7612, 0.0004281395, -0.03235939, -1270758.8, -27138.805, 0.0000000000000009180906, 9.998709, 9.996033 
3.1498456e+2, 1.8309471e+2, -1173812.1, -1217397.4, -3401.4539, 0.0014716672, -0.0318126, -1173548.3, -27879.576, 0.00000000000000015841597, 9.999695, 9.993898 
3.1501788e+2, 1.930885e+2, -1062558.8, -1114290.5, -3518.6006, -0.004305448, -0.033205815, -1062320.5, -14590.822, 0.000000000000000019869674, 10.000652, 9.993777 
3.1505117e+2, 2.0308124e+2, -966104.3, -1041939.44, -4091.4678, -0.005879732, -0.03219792, -965884.25, -16083.359, 0.0000000000000000018107616, 10.001622, 9.991555 
3.1508455e+2, 2.1307269e+2, -854457.56, -938925.94, -4231.216, 0.0018748078, -0.02859007, -854246.1, -2361.5364, 0.0000000000000000001198895, 10.002621, 9.991408 
3.151178e+2, 2.2306317e+2, -756922.44, -863462.6, -4513.4087, 0.005430941, -0.02625718, -756731.56, -2753.6846, 0.0000000000000000000057675156, 10.00355, 9.989419 
3.1515095e+2, 2.3305248e+2, -647890.44, -761140.4, -4209.1665, 0.0000015148206, -0.029787147, -647734.2, 8348.455, 0.0, 10.004346, 9.989324 
3.1518418e+2, 2.4304067e+2, -553063.25, -691197.25, -3306.6365, -0.002643202, -0.03284385, -552984.2, 5214.134, 0.0, 10.005268, 9.9869585 
3.152176e+2, 2.530274e+2, -438987.25, -587425.94, -3794.3564, 0.0012109319, -0.037665185, -438890.3, 21437.855, 0.0, 10.0064535, 9.986775 
3.1525117e+2, 2.6301327e+2, -339277.06, -510183.5, -3391.2883, 0.0021041888, -0.036595553, -339209.8, 23256.994, 0.0, 10.007496, 9.98485 
3.1528464e+2, 2.7299815e+2, -230873.47, -407829.47, -2690.0562, -0.0035763867, -0.02695772, -230832.58, 33782.348, 0.0, 10.008235, 9.984787 
3.1531832e+2, 2.8298163e+2, -140518.13, -346407.8, -1152.6708, -0.004971203, -0.024076298, -140511.67, 26265.402, 0.0, 10.00912, 9.981855 
3.1535226e+2, 2.9296312e+2, -26537.197, -243254.88, -1731.5522, 0.0038890664, -0.0395017, -26523.363, 42434.977, 0.0, 10.0103245, 9.981623 
3.1538644e+2, 3.0294818e+2, 87180.22, -83784.77, -23.668337, 0.007418167, -0.04213573, 87180.22, 87180.22, 0.0, 10.011356, 9.988694 
3.1542078e+2, 3.1293726e+2, 97956.76, -76509.52, -19.41093, -0.0024282606, -0.01998011, 97956.76, 97956.76, 0.0, 10.01201, 9.988877 
3.2477582e+2, 1.2307421e+2, -1791625.1, -1729644.3, -1227.4045, -0.0014055255, -0.037111133, -1729620.0, 4249.7476, 0.0000000000023454196, 9.993752, 10.001955 
3.2481074e+2, 1.3307406e+2, -1692860.4, -1657813.8, -4237.3125, -0.010487306, -0.02285105, -1657308.8, -21437.547, 0.0000000000015241749, 9.994957, 9.99959 
3.2484576e+2, 1.4307298e+2, -1587632.8, -1570718.3, -4642.334, 0.008013764, -0.026890464, -1569527.9, -31646.139, 0.0000000000008233425, 9.996072, 9.9983015 
3.2488057e+2, 1.530712e+2, -1476568.4, -1466922.3, -4810.4087, -0.00097433664, -0.03220071, -1464933.4, -25034.18, 0.00000000000035051592, 9.996983, 9.998247 
3.2491526e+2, 1.6306841e+2, -1380300.6, -1393284.0, -6490.9243, -0.006183503, -0.03506546, -1377612.3, -35685.79, 0.00000000000011265747, 9.997885, 9.996148 
3.2494986e+2, 1.730645e+2, -1269580.4, -1290275.8, -6514.624, 0.00017734109, -0.031820834, -1267700.5, -23735.637, 0.000000000000026661206, 9.998799, 9.99604 
3.2498428e+2, 1.8305953e+2, -1173732.9, -1217885.9, -7485.181, 0.0030114334, -0.029575508, -1172498.5, -26484.902, 0.000000000000004599458, 9.999716, 9.993848 
3.2501855e+2, 1.930532e+2, -1063094.3, -1115271.4, -7751.192, -0.0029652538, -0.033901896, -1061967.0, -13891.605, 0.0000000000000005767878, 10.000641, 9.993709 
3.2505277e+2, 2.0304592e+2, -966900.4, -1042081.6, -8159.2466, -0.0051122187, -0.034312263, -966025.06, -15878.032, 0.000000000000000052554126, 10.001549, 9.991575 
3.2508704e+2, 2.1303743e+2, -856826.6, -939626.06, -7672.155, 0.0008832733, -0.02882652, -856121.75, -3891.4966, 0.0000000000000000034789587, 10.002431, 9.991447 
3.2512125e+2, 2.2302793e+2, -759669.56, -865369.6, -7925.1343, 0.0039906637, -0.025484363, -759078.7, -4755.2466, 0.00000000000000000016733108, 10.00338, 9.989365 
3.2515535e+2, 2.3301713e+2, -646667.56, -761407.94, -8886.436, 0.0008333728, -0.02992448, -645983.44, 10445.619, 0.0, 10.004459, 9.989244 
3.2518953e+2, 2.4300528e+2, -550199.5, -689608.0, -8190.3843, -0.0004139757, -0.033297677, -549719.94, 8825.219, 0.0, 10.005448, 9.986974 
3.25224e+2, 2.5299206e+2, -441542.1, -588195.3, -7188.897, 0.002311937, -0.037274953, -441190.53, 19484.035, 0.0, 10.00625, 9.9868145 
3.2525846e+2, 2.6297796e+2, -344621.44, -512518.3, -6540.111, 0.002133854, -0.036036976, -344367.06, 18445.742, 0.0, 10.007112, 9.984871 
3.252928e+2, 2.7296287e+2, -232695.55, -408557.1, -7341.641, -0.0046318476, -0.027488142, -232389.58, 32571.357, 0.0, 10.008095, 9.984798 
3.2532743e+2, 2.8294632e+2, -140945.42, -346642.25, -5684.592, -0.0057638492, -0.024894245, -140788.45, 26334.637, 0.0, 10.009084, 9.981851 
3.2536247e+2, 2.9292783e+2, -30200.766, -245091.33, -5077.1704, 0.0057061873, -0.038385455, -30080.877, 39223.387, 0.0, 10.010066, 9.981616 
3.2539764e+2, 3.029129e+2, 82974.66, -85362.1, -3357.318, 0.00974011, -0.040224776, 83041.586, 83041.586, 0.0, 10.011039, 9.988734 
3.2543275e+2, 3.12902e+2, 98056.43, -75857.695, -3123.8284, -0.004153087, -0.020249888, 98112.52, 98112.52, 0.0, 10.01198, 9.988934 
3.347696e+2, 1.23038284e+2, -1791539.6, -1728812.6, 2067.1528, -0.00077962497, -0.026287561, -1728744.6, 5477.1743, 0.00000000005167391, 9.993726, 10.002019 
3.3480567e+2, 1.3303795e+2, -1692839.9, -1657197.4, 268.82043, -0.012705168, -0.035924718, -1657195.4, -20970.363, 0.00000000003357157, 9.994932, 9.9996395 
3.3484185e+2, 1.4303693e+2, -1588465.8, -1572076.5, -1091.4813, 0.008481289, -0.03393562, -1572004.1, -33769.156, 0.000000000018130754, 9.9960575, 9.998212 
3.3487755e+2, 1.5303509e+2, -1477581.6, -1468728.5, -1441.624, -0.00013774593, -0.032243587, -1468499.6, -28246.623, 0.000000000007717037, 9.996971, 9.998126 
3.3491313e+2, 1.6303228e+2, -1380597.8, -1393757.6, -3104.4526, -0.0062076943, -0.030955581, -1379902.3, -37621.453, 0.0000000000024798213, 9.997879, 9.996115 
3.349486e+2, 1.7302832e+2, -1269746.4, -1290454.9, -3064.9138, -0.0027864855, -0.029660419, -1269302.4, -24982.873, 0.00000000000058676854, 9.998793, 9.996028 
3.3498397e+2, 1.8302332e+2, -1174243.6, -1218817.9, -3987.8525, 0.0005643222, -0.028007135, -1173889.6, -27521.088, 0.00000000000010121049, 9.99971, 9.993784 
3.3501923e+2, 1.9301693e+2, -1063673.0, -1116409.5, -4193.1455, 0.00243825, -0.029902989, -1063341.8, -14910.749, 0.000000000000012690283, 10.000638, 9.99363 
3.3505443e+2, 2.0300962e+2, -966289.8, -1040850.1, -4756.2036, 0.0015971047, -0.031474397, -965987.6, -15484.83, 0.0000000000000011561161, 10.001552, 9.991653 
3.3508942e+2, 2.1300116e+2, -855936.8, -937831.4, -4321.577, -0.004624934, -0.03451957, -855709.4, -3123.841, 0.000000000000000076521916, 10.002434, 9.991565 
3.3512455e+2, 2.229916e+2, -760906.44, -867903.56, -4002.9878, -0.006857781, -0.03470782, -760756.9, -6077.866, 0.0000000000000000036800285, 10.003379, 9.989188 
3.3515978e+2, 2.3298065e+2, -648490.5, -765077.2, -4789.0854, 0.00008592766, -0.032730006, -648294.1, 8492.486, 0.0, 10.004455, 9.988992 
3.3519506e+2, 2.4296877e+2, -549324.06, -687623.06, -4989.021, 0.003761751, -0.029606499, -549144.3, 9758.835, 0.0, 10.005442, 9.987108 
3.3523023e+2, 2.5295585e+2, -439939.9, -584770.3, -4238.7573, -0.00006356995, -0.027439255, -439815.94, 21213.816, 0.0, 10.0062475, 9.987046 
3.3526555e+2, 2.6294184e+2, -345279.94, -513819.66, -3065.9827, -0.0020669703, -0.027068105, -345224.2, 17942.84, 0.0, 10.007109, 9.984779 
3.3530092e+2, 2.729264e+2, -233942.27, -411102.53, -3698.7883, 0.00061856175, -0.034584314, -233865.08, 31453.236, 0.0, 10.008095, 9.98462 
3.353366e+2, 2.8290972e+2, -140500.2, -345624.03, -2095.1133, 0.0019350087, -0.035761572, -140478.81, 27002.79, 0.0, 10.00908, 9.981917 
3.353725e+2, 2.9289156e+2, -29419.084, -243249.47, -1510.7314, 0.0006234928, -0.026072057, -29408.412, 40251.055, 0.0, 10.010059, 9.98174 
3.354086e+2, 3.0287683e+2, 83609.94, -83791.36, 41.11506, -0.0006447932, -0.023012785, 83609.945, 83609.945, 0.0, 10.011031, 9.98884 
3.3544475e+2, 3.128657e+2, 98855.61, -74261.02, 246.01605, -0.0025113183, -0.039147623, 98855.96, 98855.96, 0.0, 10.011985, 9.989036 
3.447635e+2, 1.2300132e+2, -1786860.5, -1727705.9, -1867.3822, 0.0016420501, -0.023047436, -1727647.0, 6937.0894, 0.00000000081250584, 9.9940815, 10.001918 
3.4480065e+2, 1.3300085e+2, -1690019.8, -1655874.5, -3121.0007, -0.013631028, -0.04399204, -1655591.6, -19003.13, 0.00000000052773436, 9.995114, 9.999634 
3.4483793e+2, 1.4299993e+2, -1587560.5, -1571692.1, -5365.069, 0.007778123, -0.031480018, -1570048.5, -31450.992, 0.00000000028494548, 9.996114, 9.998204 
3.4487456e+2, 1.5299807e+2, -1477203.5, -1468588.9, -5130.602, 0.0010150701, -0.031067193, -1466197.3, -25581.443, 0.0000000001212577, 9.996992, 9.998119 
3.4491104e+2, 1.6299519e+2, -1380897.9, -1394724.5, -6286.475, -0.004536218, -0.03129944, -1378467.0, -35822.992, 0.00000000003895854, 9.997887, 9.996039 
3.4494743e+2, 1.7299117e+2, -1269568.0, -1291400.1, -6866.218, -0.0034719466, -0.030497355, -1267588.1, -22904.543, 0.000000000009216846, 9.998841, 9.995934 
3.449837e+2, 1.8298608e+2, -1173280.8, -1218444.9, -8108.8286, -0.0009236657, -0.02875879, -1171869.0, -25135.715, 0.0000000000015895714, 9.999773, 9.9937725 
3.450199e+2, 1.9297974e+2, -1063181.6, -1116062.0, -7755.642, 0.0031110533, -0.02949061, -1062067.6, -13272.076, 0.00000000000019928297, 10.000659, 9.993637 
3.4505597e+2, 2.029724e+2, -966192.5, -1041333.8, -8229.696, 0.0036085572, -0.030681547, -965301.7, -14434.208, 0.0000000000000181529, 10.001573, 9.991605 
3.4509194e+2, 2.1296385e+2, -854459.94, -937867.25, -9097.292, -0.003526812, -0.03516763, -853479.2, -528.13074, 0.0000000000000012013685, 10.00256, 9.991494 
3.4512797e+2, 2.2295427e+2, -759210.2, -866971.44, -9056.6875, -0.006442629, -0.035762157, -758454.3, -3409.338, 0.00000000000000005776772, 10.003481, 9.989196 
3.4516415e+2, 2.3294334e+2, -651023.9, -765986.56, -7940.881, -0.00034293564, -0.0322206, -650477.94, 6674.21, 0.0, 10.004259, 9.989018 
3.4520033e+2, 2.4293149e+2, -554027.0, -689824.25, -7311.0513, 0.002793668, -0.02838641, -553634.5, 5633.9365, 0.0, 10.005108, 9.987115 
3.452364e+2, 2.5291854e+2, -441866.97, -585729.8, -8203.355, -0.0006397706, -0.027188428, -441400.7, 19994.453, 0.0, 10.006107, 9.987043 
3.452726e+2, 2.6290455e+2, -345344.3, -513764.28, -7537.229, -0.001615751, -0.027587652, -345007.7, 18524.824, 0.0, 10.007091, 9.984785 
3.4530902e+2, 2.728891e+2, -234627.83, -411330.94, -6892.1133, 0.0024784373, -0.035302028, -234359.42, 31324.273, 0.0, 10.008034, 9.984629 
3.4534562e+2, 2.8287244e+2, -142418.33, -346540.78, -4856.587, 0.003785076, -0.03621533, -142302.84, 25544.068, 0.0, 10.00894, 9.981917 
3.453824e+2, 2.928543e+2, -33711.668, -245340.6, -5224.321, -0.00051580387, -0.025441505, -33582.777, 36441.945, 0.0, 10.009754, 9.981739 
3.454194e+2, 3.028396e+2, 79014.21, -84504.016, -3749.704, -0.002234897, -0.022261439, 79100.15, 79100.15, 0.0, 10.01064, 9.988973 
3.454566e+2, 3.128286e+2, 95635.734, -73890.19, -3054.5874, 0.0003892857, -0.039931707, 95690.75, 95690.75, 0.0, 10.011672, 9.989205 
3.547576e+2, 1.22963324e+2, -1789504.6, -1732691.4, 557.02203, 0.0026239757, -0.028251003, -1732685.9, 2270.3408, 0.000000009469599, 9.994067, 10.00158 
3.5479578e+2, 1.3296278e+2, -1691005.3, -1657323.3, 752.2609, -0.013950779, -0.04664223, -1657306.4, -20344.734, 0.0000000061492664, 9.9950905, 9.999542 
3.5483402e+2, 1.4296198e+2, -1587350.5, -1570819.8, -2046.6659, 0.004505872, -0.018958762, -1570570.1, -31600.598, 0.0000000033196064, 9.996096, 9.998267 
3.5487154e+2, 1.529601e+2, -1476643.3, -1467092.8, -1899.6353, 0.001270767, -0.028745659, -1466728.8, -25741.072, 0.0000000014124153, 9.996978, 9.998224 
3.5490894e+2, 1.6295718e+2, -1381862.6, -1396486.4, -2815.9734, -0.0026597455, -0.036177803, -1381339.1, -38322.734, 0.0000000004537274, 9.997877, 9.99592 
3.5494626e+2, 1.72953e+2, -1270943.6, -1294041.0, -3258.3508, -0.0032046963, -0.034472145, -1270492.8, -25435.078, 0.00000000010733056, 9.998834, 9.995753 
3.5498345e+2, 1.8294783e+2, -1173087.4, -1217907.5, -4698.738, -0.0029563163, -0.031829674, -1172600.1, -25491.883, 0.00000000001850869, 9.999767, 9.993809 
3.550205e+2, 1.9294156e+2, -1062567.3, -1114709.9, -4350.689, -0.002130956, -0.032602776, -1062206.8, -13037.094, 0.0000000000023202033, 10.000655, 9.993728 
3.5505754e+2, 2.0293422e+2, -967435.5, -1043920.4, -4537.889, -0.00067055144, -0.031891722, -967167.2, -15925.634, 0.00000000000021133044, 10.0015745, 9.991424 
3.5509458e+2, 2.129255e+2, -856199.4, -941489.8, -5307.014, 0.0025413444, -0.03087558, -855870.44, -2543.2524, 0.000000000000013984623, 10.002562, 9.991242 
3.5513157e+2, 2.2291584e+2, -757953.44, -864325.9, -5943.836, 0.0031435294, -0.028970806, -757622.3, -2200.6611, 0.0000000000000006723836, 10.003479, 9.989374 
3.551684e+2, 2.3290516e+2, -648979.5, -761737.9, -5007.4517, -0.0019211703, -0.028699266, -648757.56, 8768.692, 0.0, 10.004259, 9.9893055 
3.5520536e+2, 2.428934e+2, -554830.5, -691471.94, -3747.9304, -0.0044606924, -0.029353563, -554727.75, 4913.857, 0.0, 10.005108, 9.986999 
3.552425e+2, 2.528802e+2, -443537.34, -589054.6, -4462.502, -0.0006944483, -0.035447784, -443400.63, 18370.564, 0.0, 10.006103, 9.986814 
3.5527974e+2, 2.6286602e+2, -344806.13, -512429.44, -4036.172, 0.0014703344, -0.036702912, -344708.97, 19200.68, 0.0, 10.007082, 9.984877 
3.5531706e+2, 2.7285093e+2, -233500.28, -408795.44, -3451.4863, -0.00025801617, -0.030668175, -233432.34, 32625.59, 0.0, 10.008027, 9.984801 
3.5535452e+2, 2.8283438e+2, -142916.25, -347420.4, -1855.4714, -0.0013963592, -0.027418619, -142899.4, 25320.553, 0.0, 10.008935, 9.981855 
3.5539216e+2, 2.9281595e+2, -34534.855, -247103.67, -2317.1667, 0.00033846067, -0.03467111, -34509.6, 35891.07, 0.0, 10.00976, 9.98161 
3.5543013e+2, 3.028012e+2, 80207.14, -82154.516, -192.27254, 0.0019913432, -0.035875387, 80207.37, 80207.37, 0.0, 10.010648, 9.989125 
3.554683e+2, 3.127907e+2, 97220.805, -70523.81, 618.7665, 0.0013116312, -0.025828836, 97223.086, 97223.086, 0.0, 10.011671, 9.989432 
3.6475173e+2, 1.2292438e+2, -1789319.0, -1736014.6, -4163.614, 0.0030235094, -0.028232833, -1735691.4, -353.39877, 0.00000008268434, 9.994221, 10.001272 
3.6479098e+2, 1.329238e+2, -1687225.1, -1655001.5, -1811.5225, -0.011600476, -0.049734097, -1654900.0, -17556.271, 0.00000005368276, 9.995318, 9.999581 
3.648302e+2, 1.4292309e+2, -1583830.0, -1569461.5, -5049.5024, 0.0027951093, -0.015240773, -1567864.5, -28513.7, 0.000000028975498, 9.996341, 9.998235 
3.648686e+2, 1.5292114e+2, -1474012.4, -1466396.1, -6288.4033, 0.0006748771, -0.027632179, -1462852.6, -21482.924, 0.000000012326782, 9.997172, 9.998171 
3.6490688e+2, 1.6291815e+2, -1379991.6, -1395764.0, -7495.0537, -0.0019745424, -0.03703268, -1376998.1, -33599.086, 0.000000003959453, 9.998004, 9.9959 
3.6494514e+2, 1.7291392e+2, -1270434.0, -1293900.3, -6755.8926, -0.0014869351, -0.035371017, -1268628.0, -23187.676, 0.0000000009365381, 9.998864, 9.995742 
3.6498326e+2, 1.8290876e+2, -1173508.5, -1218631.6, -7686.6685, -0.0013273339, -0.032580476, -1172235.0, -24743.941, 0.0000000001614897, 9.999753, 9.99376 
3.6502117e+2, 1.9290243e+2, -1062122.3, -1115144.3, -8456.939, -0.0033687023, -0.033130918, -1060806.0, -11252.921, 0.000000000020242613, 10.000707, 9.993666 
3.6505908e+2, 2.0289505e+2, -967022.6, -1043933.1, -8970.935, -0.002970852, -0.03178732, -965990.1, -14364.685, 0.0000000000018436379, 10.001602, 9.991404 
3.6509705e+2, 2.1288632e+2, -858831.2, -942892.56, -8129.384, 0.002854486, -0.029375363, -858052.25, -4341.233, 0.00000000000012199398, 10.0023775, 9.991231 
3.6513492e+2, 2.2287668e+2, -761378.75, -865885.2, -8094.8286, 0.0050217677, -0.027536297, -760755.44, -4949.913, 0.0000000000000058651187, 10.003233, 9.989382 
3.6517265e+2, 2.3286599e+2, -648707.8, -761484.56, -9069.132, -0.0009457834, -0.030313976, -647983.1, 9927.159, 0.0, 10.004264, 9.989313 
3.6521053e+2, 2.428542e+2, -553192.44, -690955.3, -8788.536, -0.0038509453, -0.03227804, -552634.0, 7391.7983, 0.0, 10.005223, 9.986971 
3.6524856e+2, 2.5284094e+2, -444975.84, -590161.0, -8241.5625, 0.00013579385, -0.03587912, -444509.5, 17646.06, 0.0, 10.006012, 9.986775 
3.652867e+2, 2.628268e+2, -348039.72, -513649.78, -6988.5884, 0.0024880534, -0.035450477, -347745.34, 16548.69, 0.0, 10.006839, 9.984904 
3.653249e+2, 2.7281174e+2, -237090.06, -409976.25, -7260.5254, 0.0005385187, -0.02971517, -236785.67, 29656.205, 0.0, 10.007748, 9.984848 
3.653633e+2, 2.8279522e+2, -146404.67, -348855.0, -6029.6445, -0.001099339, -0.027305666, -146225.25, 22378.361, 0.0, 10.008675, 9.981876 
3.6540183e+2, 2.927768e+2, -36299.28, -247775.05, -5608.7954, -0.0011731688, -0.036069576, -36150.63, 34633.637, 0.0, 10.009621, 9.9816265 
3.6544067e+2, 3.0276206e+2, 78954.984, -82700.75, -3047.6814, 0.00087197364, -0.037446402, 79012.42, 79012.42, 0.0, 10.010549, 9.989131 
3.654799e+2, 3.127516e+2, 93904.664, -72137.23, -3710.9114, 0.0052242843, -0.025540892, 93987.56, 93987.56, 0.0, 10.011434, 9.989429 
3.7474594e+2, 1.2288444e+2, -1791906.1, -1740485.1, -1280.4333, -0.00006533434, -0.023764577, -1740453.3, -4723.961, 0.0000005532481, 9.994188, 10.000979 
3.7478638e+2, 1.328839e+2, -1686302.3, -1652480.0, 2277.4985, -0.007000877, -0.053194784, -1652327.4, -14592.859, 0.00000035914545, 9.995293, 9.99976 
3.7482655e+2, 1.4288323e+2, -1585036.8, -1571533.6, -1838.7255, 0.0013125115, -0.021086955, -1571287.8, -31546.414, 0.00000019382824, 9.996325, 9.998098 
3.7486577e+2, 1.5288113e+2, -1475804.5, -1469702.5, -3263.6255, -0.001935691, -0.027988547, -1468285.9, -26523.986, 0.00000008245099, 9.997158, 9.997949 
3.7490487e+2, 1.6287807e+2, -1379599.0, -1394719.0, -4379.038, -0.0039160764, -0.0338609, -1378422.4, -34630.484, 0.000000026481976, 9.997995, 9.995972 
3.7494403e+2, 1.7287397e+2, -1269462.1, -1291710.3, -3534.59, 0.0006305397, -0.033278108, -1268914.1, -23082.164, 0.0000000062635124, 9.9988575, 9.99589 
3.7498304e+2, 1.8286884e+2, -1174492.6, -1220523.0, -4185.2134, 0.0027478365, -0.031036615, -1174115.3, -26232.945, 0.0000000010799891, 9.999746, 9.993631 
3.7502187e+2, 1.9286232e+2, -1063616.3, -1118164.4, -4778.0835, -0.0018818139, -0.031033253, -1063200.9, -13254.66, 0.00000000013537126, 10.000704, 9.993458 
3.7506068e+2, 2.0285486e+2, -966128.1, -1042109.0, -5859.789, -0.005009658, -0.030281566, -965678.8, -13659.464, 0.000000000012328863, 10.001604, 9.991523 
3.7509936e+2, 2.128463e+2, -857312.7, -939802.0, -5182.091, -0.0037274235, -0.030467294, -856988.44, -2885.2605, 0.0000000000008157841, 10.00238, 9.991437 
3.751381e+2, 2.228367e+2, -762411.1, -868054.6, -4403.0483, -0.0020877821, -0.031113246, -762227.94, -6030.7124, 0.00000000000003921943, 10.003235, 9.989228 
3.7517694e+2, 2.3282573e+2, -650552.25, -765180.25, -5137.8584, 0.00050528743, -0.03640557, -650322.44, 7982.2275, 0.000000000000000000006929764, 10.004258, 9.98906 
3.7521583e+2, 2.4281381e+2, -552984.1, -690269.7, -5631.1294, 0.0018021434, -0.036695257, -552753.5, 7667.893, 0.0000000000000000000002423796, 10.005213, 9.987019 
3.7525457e+2, 2.5280082e+2, -444112.97, -588256.0, -5323.616, 0.00022542746, -0.029317986, -443916.63, 18632.363, 0.0, 10.006009, 9.986903 
3.7529355e+2, 2.627868e+2, -348224.94, -514029.75, -3742.1694, -0.00025676322, -0.024668956, -348140.5, 16545.9, 0.0, 10.00684, 9.984874 
3.753327e+2, 2.727715e+2, -237663.11, -411045.78, -3916.3228, 0.0023646175, -0.031826407, -237574.7, 29261.451, 0.0, 10.007745, 9.984772 
3.7537205e+2, 2.8275496e+2, -145823.86, -347449.78, -2636.7898, 0.0017666065, -0.034912765, -145789.39, 23209.049, 0.0, 10.008668, 9.981971 
3.7541142e+2, 2.9273677e+2, -35370.582, -245732.7, -2234.6973, -0.0055859312, -0.030828657, -35346.844, 35829.676, 0.0, 10.009619, 9.981762 
3.7545118e+2, 3.0272207e+2, 78093.39, -84510.41, 108.33628, -0.0061691576, -0.028828744, 78093.46, 78093.46, 0.0, 10.010553, 9.988999 
3.7549135e+2, 3.127112e+2, 92593.14, -75002.664, -551.8751, 0.008011131, -0.036503825, 92594.95, 92594.95, 0.0, 10.011442, 9.9892235 
3.847404e+2, 1.22843616e+2, -1784220.8, -1739819.1, -4493.926, -0.00013032988, -0.022894008, -1739368.9, -3239.3367, 0.0000029192024, 9.994831, 10.000708 
3.8478178e+2, 1.3284321e+2, -1682802.4, -1649090.9, -839.04974, -0.0018184278, -0.050740894, -1649070.1, -10936.644, 0.0000018948215, 9.995444, 9.999912 
3.8482276e+2, 1.4284255e+2, -1587623.8, -1573362.4, -4862.35, -0.0013468267, -0.023462864, -1571862.4, -31722.455, 0.0000010225369, 9.996165, 9.998046 
3.8486293e+2, 1.5284036e+2, -1476431.1, -1471184.5, -5446.0454, -0.0022677004, -0.029474085, -1467762.9, -25601.43, 0.0000004349407, 9.997159, 9.997842 
3.8490292e+2, 1.6283722e+2, -1378123.9, -1394822.9, -6562.334, -0.0029159547, -0.03440331, -1375853.8, -31661.434, 0.00000013969013, 9.998122, 9.995898 
3.8494295e+2, 1.7283307e+2, -1267201.8, -1291364.6, -7402.4653, 0.00025071413, -0.03180457, -1265114.3, -18881.46, 0.000000033038678, 9.999033, 9.995823 
3.8498285e+2, 1.8282788e+2, -1172402.3, -1219919.0, -8897.071, 0.0021624882, -0.02871262, -1170791.0, -22507.344, 0.0000000056966374, 9.999898, 9.99359 
3.8502258e+2, 1.9282131e+2, -1064237.1, -1118780.1, -8336.201, -0.00038621345, -0.030789413, -1062991.5, -12643.455, 0.0000000007140435, 10.000665, 9.993429 
3.8506225e+2, 2.0281382e+2, -967674.4, -1042912.94, -8943.698, -0.0024806454, -0.03164168, -966625.8, -14204.28, 0.00000000006503118, 10.0014925, 9.991516 
3.8510177e+2, 2.1280526e+2, -855934.75, -939170.44, -9732.098, -0.0034582645, -0.032625005, -854812.0, -306.59305, 0.000000000004303039, 10.002468, 9.991429 
3.851414e+2, 2.2279562e+2, -760660.1, -867654.1, -9565.51, -0.0028515495, -0.032902695, -759811.7, -3212.0466, 0.00000000000020687176, 10.003365, 9.989186 
3.8518113e+2, 2.3278464e+2, -653339.1, -767134.3, -8995.092, 0.00090720603, -0.0355044, -652632.5, 6074.964, 0.00000000000000000020104626, 10.004086, 9.989004 
3.8522086e+2, 2.427727e+2, -557330.4, -692039.3, -8534.115, 0.002731039, -0.034582842, -556791.9, 4032.4363, 0.000000000000000000007029948, 10.00489, 9.987048 
3.8526052e+2, 2.5275972e+2, -445204.56, -588216.06, -8757.028, 0.00006704951, -0.02893237, -444670.34, 18281.207, 0.0, 10.005898, 9.986954 
3.8530037e+2, 2.6274574e+2, -347979.28, -513894.0, -7553.9063, -0.00083149516, -0.025528567, -347636.06, 17452.688, 0.0, 10.0068445, 9.984876 
3.853404e+2, 2.7273044e+2, -239347.58, -412006.38, -7382.7803, 0.002229991, -0.03221249, -239032.47, 28206.086, 0.0, 10.007624, 9.98476 
3.853806e+2, 2.8271386e+2, -148777.02, -348673.0, -5700.909, 0.0025513624, -0.034931455, -148614.56, 20786.252, 0.0, 10.008447, 9.981988 
3.8542092e+2, 2.9269573e+2, -38801.113, -247098.72, -6013.7354, -0.002540611, -0.030977221, -38627.637, 32951.035, 0.0, 10.009359, 9.981788 
3.854616e+2, 3.0268106e+2, 74706.9, -85898.2, -3683.9458, -0.003007406, -0.0290794, 74791.35, 74791.35, 0.0, 10.0103, 9.989019 
3.855027e+2, 3.1267023e+2, 90427.805, -75751.164, -2909.3677, 0.004891406, -0.03698314, 90478.73, 90478.73, 0.0, 10.011269, 9.989251 
3.9473525e+2, 1.22801945e+2, -1786534.4, -1744064.5, -2388.06, -0.0011310452, -0.026696134, -1743930.6, -7392.6978, 0.000012531762, 9.994815, 10.000423 
3.9477724e+2, 1.3280171e+2, -1682603.9, -1647964.4, 1227.8623, 0.0029290244, -0.04142117, -1647920.9, -9380.753, 0.0000081336, 9.995419, 9.999996 
3.9481884e+2, 1.4280103e+2, -1587811.5, -1573085.1, -1592.1923, -0.007043606, -0.021924773, -1572915.0, -32368.178, 0.0000043890395, 9.996138, 9.998074 
3.948601e+2, 1.5279882e+2, -1476585.1, -1471063.0, -1743.4653, -0.0017876178, -0.032034654, -1470558.6, -27990.203, 0.0000018668253, 9.99714, 9.997854 
3.949011e+2, 1.6279557e+2, -1379864.1, -1398194.1, -3170.262, -0.00030002603, -0.038352326, -1379331.3, -34731.1, 0.0000005995586, 9.998115, 9.995668 
3.9494196e+2, 1.727912e+2, -1269422.4, -1295752.9, -4003.7634, -0.0040949564, -0.031120896, -1268827.0, -22183.795, 0.00000014180438, 9.999027, 9.9955225 
3.9498267e+2, 1.8278585e+2, -1172145.9, -1219238.4, -5924.228, -0.0051312787, -0.02591028, -1171412.0, -22716.436, 0.000000024450705, 9.999892, 9.993636 
3.9502326e+2, 1.9277938e+2, -1063263.8, -1116688.0, -5402.4736, -0.0004234575, -0.032311093, -1062723.0, -11963.934, 0.0000000030648393, 10.000662, 9.993568 
3.950638e+2, 2.027719e+2, -968568.6, -1044740.6, -5389.0815, 0.0026075311, -0.03568442, -968189.25, -15356.93, 0.00000000027913746, 10.0014925, 9.991387 
3.9510432e+2, 2.1276313e+2, -857355.7, -942117.44, -5952.6655, 0.001814161, -0.035400223, -856939.7, -2021.6125, 0.00000000001847093, 10.002468, 9.991224 
3.9514476e+2, 2.2275345e+2, -760274.3, -866864.75, -6603.577, 0.00064916635, -0.03263741, -759866.75, -2853.6897, 0.0000000000008880364, 10.0033655, 9.989236 
3.9518517e+2, 2.3274264e+2, -652440.3, -765303.9, -6263.211, -0.0013995717, -0.02808941, -652093.8, 7025.3228, 0.000000000000000004402075, 10.0040865, 9.989126 
3.952257e+2, 2.4273081e+2, -557297.0, -691962.2, -4985.6226, -0.0027067924, -0.026048627, -557112.7, 4122.4336, 0.00000000000000000015389045, 10.004891, 9.987049 
3.952664e+2, 2.5271764e+2, -445539.47, -588733.2, -4969.1777, -0.0015312916, -0.03393695, -445367.25, 17996.586, 0.0, 10.005893, 9.986917 
3.953072e+2, 2.627036e+2, -347937.4, -513501.1, -4530.323, -0.00091716304, -0.036586106, -347813.53, 17688.113, 0.0, 10.006832, 9.984904 
3.9534798e+2, 2.7268845e+2, -239164.23, -411416.78, -4582.93, -0.0016188817, -0.031245394, -239042.39, 28607.563, 0.0, 10.007617, 9.984799 
3.9538902e+2, 2.8267193e+2, -149228.55, -349494.7, -2522.9634, -0.00058550946, -0.028408451, -149196.77, 20614.95, 0.0, 10.008443, 9.981929 
3.954304e+2, 2.926536e+2, -39383.426, -248299.5, -2755.6494, 0.005738925, -0.035497803, -39347.086, 32644.41, 0.0, 10.009362, 9.981698 
3.9547205e+2, 3.0263892e+2, 75737.766, -83696.4, -271.84366, 0.006844342, -0.036800414, 75738.23, 75738.23, 0.0, 10.0103, 9.989164 
3.9551386e+2, 3.1262842e+2, 91725.445, -72685.66, 541.33984, -0.007397217, -0.028769337, 91727.23, 91727.23, 0.0, 10.011255, 9.989461 
4.0473014e+2, 1.2275961e+2, -1784997.3, -1745649.3, -3855.2102, -0.004186458, -0.030576253, -1745275.1, -8322.384, 0.00004485904, 9.99501, 10.0002165 
4.0477288e+2, 1.3275935e+2, -1678798.5, -1647565.4, -2419.1448, 0.00902694, -0.03471372, -1647379.1, -8423.923, 0.00002911354, 9.995731, 9.999866 
4.0481514e+2, 1.4275846e+2, -1583110.5, -1571595.1, -5632.1934, -0.009288375, -0.02550625, -1569298.5, -28334.494, 0.000015709626, 9.996482, 9.997999 
4.0485737e+2, 1.5275623e+2, -1472852.6, -1469838.0, -6116.7266, -0.0018086738, -0.03182082, -1465045.6, -22059.805, 0.000006681798, 9.997408, 9.9978 
4.048993e+2, 1.6275296e+2, -1377694.0, -1397729.4, -7826.7485, 0.0012654561, -0.036012247, -1374999.0, -29981.145, 0.0000021459712, 9.998278, 9.995613 
4.04941e+2, 1.7274849e+2, -1269784.9, -1296560.3, -7094.9263, -0.003301652, -0.032123193, -1268021.1, -20959.314, 0.00000050756734, 9.999022, 9.995464 
4.0498254e+2, 1.8274307e+2, -1173442.6, -1220444.4, -8114.438, -0.00480509, -0.028749848, -1172081.1, -22966.31, 0.00000008752133, 9.999821, 9.993584 
4.05024e+2, 1.9273655e+2, -1062105.5, -1116753.0, -9058.573, -0.00027395997, -0.032914005, -1060643.0, -9464.406, 0.000000010971236, 10.000761, 9.993509 
4.0506536e+2, 2.0272903e+2, -966623.75, -1044366.3, -9782.923, 0.0027539185, -0.03456449, -965411.56, -12159.251, 0.0000000009993062, 10.00164, 9.991335 
4.0510672e+2, 2.1272023e+2, -859003.4, -943501.5, -9379.854, 0.0021941774, -0.03436072, -857974.7, -2636.0374, 0.00000000006613187, 10.002372, 9.991172 
4.0514803e+2, 2.227105e+2, -763051.5, -868039.56, -9528.782, 0.0013432594, -0.031935185, -762193.6, -4759.7095, 0.0000000000031798247, 10.003159, 9.98925 
4.0518928e+2, 2.326997e+2, -652144.44, -764812.44, -9825.84, -0.0005727926, -0.028328663, -651293.94, 8245.842, 0.0000000000000000688154, 10.004083, 9.989155 
4.0523064e+2, 2.4268788e+2, -556239.6, -691455.1, -8773.821, -0.0015742746, -0.026992897, -555672.7, 5982.9097, 0.0000000000000000024051838, 10.004953, 9.987048 
4.0527222e+2, 2.5267473e+2, -448497.0, -590296.0, -8615.322, -0.000635002, -0.034571942, -447975.47, 15808.956, 0.0, 10.005684, 9.986905 
4.0531388e+2, 2.6266068e+2, -352847.47, -515549.88, -8042.906, -0.00021590455, -0.03725795, -352450.84, 13471.35, 0.0, 10.006474, 9.984931 
4.0535548e+2, 2.7264556e+2, -242027.36, -412360.6, -8183.598, -0.0015904761, -0.033123527, -241635.1, 26435.186, 0.0, 10.007392, 9.984838 
4.0539736e+2, 2.8262907e+2, -151242.55, -350751.75, -5843.4272, -0.0007318322, -0.030252926, -151071.55, 19160.375, 0.0, 10.008306, 9.981905 
4.0543967e+2, 2.926107e+2, -42017.773, -250070.89, -5758.571, 0.006584085, -0.033942856, -41858.508, 30553.307, 0.0, 10.00919, 9.981656 
4.054822e+2, 3.0259606e+2, 73010.125, -83238.516, -3247.94, 0.0083147995, -0.033784784, 73077.61, 73077.61, 0.0, 10.010022, 9.989326 
4.0552482e+2, 3.1258574e+2, 85402.32, -73290.73, -2572.95, -0.0065125744, -0.029324725, 85444.03, 85444.03, 0.0, 10.010704, 9.989681 
4.1472507e+2, 1.22716695e+2, -1786455.5, -1747609.8, -117.60835, -0.012203672, -0.03337015, -1747609.5, -10236.24, 0.0001357749, 9.994967, 10.000098 
4.147687e+2, 1.3271615e+2, -1681839.4, -1653193.9, -45.212723, 0.015391282, -0.030692244, -1653193.8, -13815.264, 0.00008811505, 9.99571, 9.999488 
4.148116e+2, 1.4271483e+2, -1584691.6, -1574390.0, -2565.4973, -0.009178976, -0.034812637, -1573786.5, -32394.873, 0.000047546542, 9.996464, 9.997813 
4.1485474e+2, 1.5271258e+2, -1474045.8, -1471822.0, -2752.331, -0.003709633, -0.029033035, -1469965.4, -26551.744, 0.000020223571, 9.997389, 9.99767 
4.148976e+2, 1.6270933e+2, -1377069.3, -1396116.9, -5038.734, -0.000007194895, -0.027425975, -1375818.4, -30372.893, 0.0000064954993, 9.998266, 9.995724 
4.1494006e+2, 1.727049e+2, -1268573.6, -1293867.4, -4366.822, 0.0014479533, -0.03485247, -1267841.0, -20352.314, 0.0000015364569, 9.999015, 9.9956455 
4.149824e+2, 1.826995e+2, -1174575.0, -1222660.5, -4778.6543, 0.0017374393, -0.037088312, -1174104.6, -24563.031, 0.00000026496838, 9.999815, 9.993431 
4.1502473e+2, 1.9269283e+2, -1063941.3, -1120484.1, -5428.9844, -0.0015074955, -0.03267446, -1063424.8, -11817.625, 0.000000033220672, 10.000759, 9.993252 
4.1506696e+2, 2.026852e+2, -966594.7, -1044307.2, -6806.805, -0.0039681476, -0.02837427, -966003.0, -12321.066, 0.0000000030265355, 10.001641, 9.991334 
4.1510904e+2, 2.1267645e+2, -858377.75, -942302.75, -6577.232, -0.003918103, -0.029365635, -857865.4, -2097.7556, 0.00000000020034616, 10.002376, 9.991247 
4.1515118e+2, 2.2266673e+2, -763136.9, -868270.94, -6194.122, -0.0027233928, -0.030500293, -762773.2, -4910.362, 0.000000000009636878, 10.003162, 9.989228 
4.1519338e+2, 2.3265581e+2, -652500.3, -765515.8, -6294.34, 0.0011885387, -0.035467584, -652150.9, 7819.0005, 0.0000000000000007946489, 10.004081, 9.989104 
4.1523567e+2, 2.4264394e+2, -556361.9, -691569.9, -5868.735, 0.0033064731, -0.036342766, -556107.6, 5978.615, 0.000000000000000027769294, 10.004949, 9.987038 
4.1527793e+2, 2.5263092e+2, -448567.9, -590293.8, -5907.784, 0.0010826337, -0.031116558, -448322.06, 15891.863, 0.0, 10.005679, 9.986904 
4.1532034e+2, 2.626169e+2, -352760.34, -515249.56, -4807.3657, -0.0005599398, -0.028191408, -352618.25, 13732.893, 0.0, 10.00647, 9.984948 
4.153629e+2, 2.726017e+2, -241949.58, -412043.56, -4840.997, -0.0005836662, -0.03705101, -241811.92, 26688.332, 0.0, 10.007386, 9.984857 
4.154057e+2, 2.8258517e+2, -151314.02, -350729.2, -2698.1965, -0.0006777113, -0.03889069, -151277.5, 19384.701, 0.0, 10.0083, 9.981904 
4.1544878e+2, 2.9256696e+2, -42219.77, -250217.27, -2628.4995, -0.000045650788, -0.027027419, -42186.56, 30654.191, 0.0, 10.009181, 9.981645 
4.1549215e+2, 3.025524e+2, 73963.76, -81050.92, -691.1788, 0.0012051425, -0.021735642, 73966.836, 73966.836, 0.0, 10.010018, 9.989471 
4.1553566e+2, 3.1254208e+2, 87064.1, -70163.36, -346.8132, 0.0016292493, -0.037575353, 87064.87, 87064.87, 0.0, 10.010725, 9.989879 
4.247202e+2, 1.22672796e+2, -1780676.6, -1743117.3, -2685.8958, -0.011874864, -0.035904825, -1742926.1, -5122.8184, 0.00035082738, 9.9952755, 10.000245 
4.2476454e+2, 1.326721e+2, -1680205.6, -1655774.0, -3975.078, 0.019445509, -0.024580052, -1655143.5, -15333.307, 0.00022768496, 9.9959545, 9.999189 
4.248081e+2, 1.4267042e+2, -1583059.9, -1574862.1, -5357.2734, -0.013050432, -0.040742602, -1572215.5, -30388.75, 0.0001228659, 9.99662, 9.997701 
4.2485213e+2, 1.5266815e+2, -1473390.6, -1472137.5, -4792.5703, -0.0036386368, -0.030746497, -1467930.6, -24081.678, 0.000052266085, 9.997453, 9.997611 
4.2489588e+2, 1.6266488e+2, -1376775.5, -1396711.8, -7407.195, 0.0027533725, -0.02617329, -1374324.6, -28443.455, 0.00001678997, 9.998307, 9.995658 
4.249392e+2, 1.7266037e+2, -1265675.9, -1293254.3, -8742.007, 0.0022979854, -0.034798957, -1263138.3, -15213.185, 0.000003972505, 9.999235, 9.995573 
4.2498237e+2, 1.8265489e+2, -1170804.8, -1221432.0, -10216.601, 0.0015406888, -0.03763209, -1168820.8, -18841.986, 0.00000068530704, 10.000088, 9.993375 
4.250255e+2, 1.9264817e+2, -1063964.1, -1121034.1, -9508.185, -0.000828704, -0.03244575, -1062421.8, -10376.963, 0.00000008596078, 10.000769, 9.993203 
4.250685e+2, 2.0264053e+2, -968632.7, -1045246.3, -9984.615, -0.0025571052, -0.027977109, -967352.9, -13233.09, 0.000000007836224, 10.001489, 9.991339 
4.251114e+2, 2.1263178e+2, -858670.25, -942278.06, -10190.229, -0.0030994953, -0.030045178, -857446.2, -1240.7749, 0.0000000005191636, 10.002339, 9.991261 
4.2515436e+2, 2.2262205e+2, -763036.3, -868536.8, -9895.545, -0.0023866913, -0.03193009, -762116.2, -3815.5056, 0.000000000025000514, 10.003172, 9.9892 
4.251974e+2, 2.3261109e+2, -654556.94, -767078.56, -9988.923, 0.00076010777, -0.036619537, -653677.06, 6731.09, 0.0000000000000068380394, 10.003956, 9.989051 
4.252405e+2, 2.4259919e+2, -559096.7, -692801.75, -9688.093, 0.0028475109, -0.037154086, -558398.4, 4126.406, 0.00000000000000023892724, 10.0047455, 9.987047 
4.2528355e+2, 2.5258616e+2, -449890.94, -590729.56, -9717.86, 0.001801146, -0.031993266, -449223.56, 15428.734, 0.0, 10.0055685, 9.986922 
4.2532682e+2, 2.625722e+2, -353441.13, -515394.6, -8141.7456, 0.0014694623, -0.028392902, -353032.84, 13756.435, 0.0, 10.006402, 9.984966 
4.2537025e+2, 2.7255705e+2, -243711.38, -412777.3, -8106.621, 0.0018263584, -0.03410599, -243323.55, 25614.434, 0.0, 10.007247, 9.984869 
4.2541388e+2, 2.8254053e+2, -153974.39, -351176.63, -5976.6196, 0.00055980444, -0.035608597, -153793.42, 17306.14, 0.0, 10.008071, 9.9819765 
4.2545775e+2, 2.9252234e+2, -47108.83, -251526.72, -5455.4453, -0.0031992428, -0.030442683, -46963.34, 26314.43, 0.0, 10.008788, 9.981739 
4.255019e+2, 3.0250785e+2, 68129.15, -83821.195, -3111.4177, -0.002081262, -0.027696148, 68192.83, 68192.83, 0.0, 10.009606, 9.989474 
4.2554638e+2, 3.124976e+2, 85946.41, -70972.97, -4141.65, 0.0073262453, -0.03536569, 86055.64, 86055.64, 0.0, 10.010651, 9.989851 
4.347155e+2, 1.2262795e+2, -1778154.3, -1736942.8, 1597.9474, -0.006184657, -0.03898377, -1736881.0, 1362.022, 0.00078514614, 9.995234, 10.000679 
4.347605e+2, 1.3262722e+2, -1682449.4, -1659541.3, -1971.1805, 0.019526888, -0.015859144, -1659372.9, -19122.666, 0.00050963036, 9.995923, 9.998943 
4.3480462e+2, 1.4262526e+2, -1583692.5, -1575536.3, -2666.6208, -0.02307043, -0.042374358, -1574741.8, -32472.436, 0.00027507497, 9.996595, 9.997662 
4.3484962e+2, 1.5262295e+2, -1473466.0, -1471839.6, -1770.3401, -0.003906619, -0.036795966, -1470704.6, -26412.855, 0.00011705333, 9.997436, 9.997635 
4.3489423e+2, 1.6261958e+2, -1378746.8, -1400471.9, -4162.5063, 0.0069855284, -0.032401957, -1377976.5, -31651.709, 0.000037619757, 9.998296, 9.995403 
4.3493837e+2, 1.7261486e+2, -1268191.0, -1298245.0, -5308.427, -0.0022599206, -0.031763643, -1267281.0, -18909.723, 0.000008906541, 9.9992285, 9.995232 
4.349824e+2, 1.8260922e+2, -1170602.3, -1220906.8, -7528.6997, -0.0069949003, -0.03001942, -1169499.6, -19073.033, 0.0000015378395, 10.000086, 9.993407 
4.350263e+2, 1.9260257e+2, -1062848.6, -1118734.9, -6943.14, -0.00023102509, -0.031948756, -1061999.0, -9507.27, 0.00000019312868, 10.0007715, 9.993355 
4.350701e+2, 2.0259495e+2, -968502.94, -1045030.1, -6925.2153, 0.004199304, -0.033046745, -967881.3, -13315.101, 0.000000017634331, 10.0014925, 9.991347 
4.351138e+2, 2.1258616e+2, -858849.2, -942743.5, -6869.5537, 0.0025557752, -0.036195695, -858290.44, -1638.1648, 0.0000000011708853, 10.002344, 9.991222 
4.3515757e+2, 2.2257642e+2, -763278.2, -869158.1, -6820.685, 0.00021235082, -0.035986535, -762840.6, -4092.9006, 0.000000000056553692, 10.003178, 9.98915 
4.3520132e+2, 2.3256549e+2, -654940.9, -767866.44, -6981.924, -0.0033166655, -0.0319188, -654510.8, 6344.196, 0.000000000000044721503, 10.003955, 9.988994 
4.352452e+2, 2.4255358e+2, -559099.2, -692712.8, -6640.597, -0.0045050057, -0.029604131, -558769.94, 4201.7983, 0.000000000000001562477, 10.004743, 9.98705 
4.3528908e+2, 2.5254047e+2, -449817.72, -590404.7, -6652.475, 0.00032857736, -0.03641447, -449503.63, 15596.535, 0.0, 10.005562, 9.986943 
4.3533322e+2, 2.6252648e+2, -353476.03, -515228.56, -5068.4175, 0.0038635368, -0.036448944, -353317.38, 13919.911, 0.0, 10.006393, 9.984977 
4.353775e+2, 2.7251148e+2, -243882.31, -412772.34, -5044.375, 0.0032063243, -0.025274087, -243731.78, 25652.613, 0.0, 10.007234, 9.984871 
4.3542197e+2, 2.8249508e+2, -153359.56, -349479.5, -3335.841, 0.00061723037, -0.021876192, -153302.83, 18242.2, 0.0, 10.008055, 9.982097 
4.3546653e+2, 2.924768e+2, -46022.625, -249229.4, -3104.0203, -0.0045134346, -0.042204373, -45975.223, 27748.813, 0.0, 10.00879, 9.981891 
4.3551153e+2, 3.0246225e+2, 67484.41, -85296.24, 176.26393, -0.004326638, -0.048874546, 67484.61, 67484.61, 0.0, 10.009615, 9.989362 
4.3555704e+2, 3.124521e+2, 84331.94, -73944.06, -387.19067, 0.0061267926, -0.024130695, 84332.88, 84332.88, 0.0, 10.010634, 9.98965 
4.4471076e+2, 1.22582205e+2, -1776156.8, -1732953.9, 71.0533, -0.0063119973, -0.040621597, -1732953.8, 5737.4473, 0.0015538043, 9.995224, 10.000947 
4.4475657e+2, 1.3258132e+2, -1680675.1, -1661411.1, -5772.737, 0.021207297, -0.013391513, -1659813.8, -19113.963, 0.0010089569, 9.996153, 9.998698 
4.4480142e+2, 1.4257915e+2, -1578682.3, -1574506.5, -6632.558, -0.02197539, -0.043058105, -1569641.0, -26919.834, 0.0005448942, 9.996988, 9.997533 
4.448472e+2, 1.5257674e+2, -1469141.4, -1470735.9, -6563.901, -0.0040702205, -0.037719797, -1463326.5, -18581.959, 0.00023205215, 9.997762, 9.997543 
4.4489264e+2, 1.6257331e+2, -1375849.8, -1399696.4, -8961.549, 0.00614705, -0.03304512, -1372857.5, -26079.139, 0.00007466019, 9.998512, 9.995342 
4.449376e+2, 1.7256854e+2, -1268592.9, -1298962.1, -8049.267, -0.0017815324, -0.03090603, -1266591.3, -17766.133, 0.000017702305, 9.999214, 9.995185 
4.449824e+2, 1.8256287e+2, -1172607.0, -1222070.9, -9246.15, -0.0056174262, -0.028756002, -1170935.1, -20054.314, 0.000003062777, 9.9999485, 9.99339 
4.4502705e+2, 1.9255619e+2, -1062713.1, -1118780.6, -9942.53, -0.00006530401, -0.032937147, -1061002.3, -8056.0522, 0.0000003857046, 10.000776, 9.993344 
4.4507164e+2, 2.0254853e+2, -967287.6, -1044953.25, -10743.108, 0.0037997002, -0.03520246, -965828.94, -10807.933, 0.00000003535121, 10.001588, 9.9913 
4.451162e+2, 2.1253972e+2, -859027.3, -943522.7, -10952.709, 0.0032825633, -0.036349114, -857630.7, -523.12994, 0.000000002359298, 10.002352, 9.991159 
4.4516072e+2, 2.2252995e+2, -764283.9, -869537.7, -11038.939, 0.0021439726, -0.034470566, -763138.56, -3935.319, 0.000000000114745775, 10.003094, 9.98916 
4.4520524e+2, 2.3251903e+2, -656543.9, -768297.7, -10620.715, -0.0015931939, -0.030974077, -655543.44, 5766.8525, 0.00000000000022836846, 10.003819, 9.989025 
4.4524986e+2, 2.4250714e+2, -561265.44, -693669.8, -9571.822, -0.0034327565, -0.029477784, -560577.06, 2849.7683, 0.0000000000000079783024, 10.0045805, 9.987057 
4.452946e+2, 2.5249404e+2, -451688.25, -591364.1, -9676.72, -0.00072394125, -0.03618964, -451021.03, 14534.253, 0.0, 10.0054245, 9.986938 
4.453395e+2, 2.6248005e+2, -355447.25, -515777.88, -8269.5625, 0.0018839772, -0.03678465, -355021.88, 12670.443, 0.0, 10.006228, 9.985014 
4.4538456e+2, 2.7246505e+2, -248194.89, -414399.38, -8133.292, 0.002971557, -0.028595777, -247797.84, 22041.416, 0.0, 10.006906, 9.984913 
4.4542983e+2, 2.824487e+2, -159003.45, -352365.78, -6249.6597, 0.0021762326, -0.02556749, -158801.67, 13198.024, 0.0, 10.007662, 9.982084 
4.4547522e+2, 2.9243043e+2, -49113.5, -251141.38, -7177.85, -0.0015852143, -0.039416388, -48858.797, 25319.682, 0.0, 10.008582, 9.981854 
4.455211e+2, 3.0241594e+2, 66517.664, -84277.125, -3934.6987, -0.0016724513, -0.04389635, 66620.266, 66620.266, 0.0, 10.009467, 9.989499 
4.455674e+2, 3.1240588e+2, 79098.44, -74320.14, -2241.0313, 0.004044843, -0.029035235, 79131.164, 79131.164, 0.0, 10.010163, 9.989849 
4.5470586e+2, 1.22535646e+2, -1776596.3, -1732407.6, 4603.7114, -0.016336342, -0.037137304, -1731933.1, 7214.4067, 0.0027803245, 9.995161, 10.00101 
4.547527e+2, 1.3253449e+2, -1683040.1, -1665400.4, -2759.71, 0.022579143, -0.017732583, -1664978.6, -23819.762, 0.0018069525, 9.996119, 9.998438 
4.5479852e+2, 1.425321e+2, -1580553.3, -1577873.1, -3980.1846, -0.010378404, -0.04315424, -1575013.5, -31831.059, 0.0009770269, 9.99697, 9.997307 
4.5484495e+2, 1.5252952e+2, -1470889.9, -1473940.1, -3873.8813, -0.005771339, -0.033645984, -1468251.8, -23044.18, 0.00041677037, 9.997748, 9.997326 
4.5489106e+2, 1.62526e+2, -1374995.9, -1397661.0, -6496.621, -0.0021958335, -0.028016994, -1373265.8, -26023.734, 0.00013439546, 9.998503, 9.995481 
4.5493686e+2, 1.725214e+2, -1266954.3, -1295378.9, -5533.12, 0.0020103771, -0.03222625, -1265915.1, -16628.035, 0.000031964762, 9.999208, 9.995426 
4.5498246e+2, 1.8251583e+2, -1173151.5, -1223022.3, -6370.3115, 0.0037533653, -0.034045655, -1172350.6, -21008.85, 0.000005553748, 9.999943, 9.993322 
4.550278e+2, 1.9250898e+2, -1063932.0, -1121308.6, -6795.197, -0.0023045402, -0.03585397, -1063138.1, -9729.554, 0.00000070340104, 10.000779, 9.993165 
4.5507312e+2, 2.0250124e+2, -968034.8, -1046507.1, -7806.095, -0.006127158, -0.03454878, -967265.8, -11781.17, 0.000000064967765, 10.00159, 9.991189 
4.5511848e+2, 2.1249236e+2, -859690.2, -944897.1, -7995.701, -0.0022314454, -0.030073997, -858946.4, -1374.7181, 0.0000000043809485, 10.002353, 9.991061 
4.551638e+2, 2.2248258e+2, -763834.9, -868641.5, -8250.476, 0.001594487, -0.026960833, -763189.4, -3521.642, 0.00000000021602262, 10.003097, 9.989214 
4.552091e+2, 2.3247164e+2, -655709.0, -766623.1, -7862.49, 0.0034916701, -0.033248983, -655154.44, 6620.1865, 0.0000000000009414817, 10.003822, 9.989134 
4.552545e+2, 2.424598e+2, -561140.1, -693373.6, -6510.0674, 0.0030412541, -0.035824023, -560820.44, 3070.2612, 0.000000000000032891313, 10.00458, 9.987073 
4.5529997e+2, 2.5244677e+2, -452000.56, -591769.8, -6501.355, -0.0027156568, -0.031530816, -451698.8, 14319.507, 0.0, 10.005414, 9.986913 
4.5534566e+2, 2.6243284e+2, -355298.8, -515186.66, -5641.9727, -0.005490085, -0.029756425, -355099.97, 13055.111, 0.0, 10.006218, 9.985055 
4.5539144e+2, 2.724177e+2, -247820.98, -413562.34, -5768.966, -0.00092638074, -0.041704886, -247620.44, 22682.898, 0.0, 10.0069065, 9.984964 
4.554375e+2, 2.8240123e+2, -159881.19, -354149.8, -3251.5781, 0.0023050297, -0.043629188, -159826.78, 12637.585, 0.0, 10.00766, 9.981958 
4.5548388e+2, 2.9238313e+2, -50599.867, -253983.34, -3884.3984, 0.003528808, -0.024436902, -50525.707, 24116.361, 0.0, 10.008573, 9.981659 
4.5553064e+2, 3.0236873e+2, 68406.445, -79993.164, -1242.8296, 0.0036252628, -0.016771788, 68416.86, 68416.86, 0.0, 10.009454, 9.989794 
4.5557752e+2, 3.1235874e+2, 82365.266, -67468.14, -126.05639, -0.001872898, -0.045393854, 82365.37, 82365.37, 0.0, 10.010163, 9.990315 
4.647012e+2, 1.2248802e+2, -1771863.8, -1731440.3, 1350.0043, -0.014672662, -0.034078944, -1731395.3, 8218.962, 0.004589857, 9.995526, 10.00089 
4.647489e+2, 1.3248661e+2, -1680072.8, -1665233.0, -6356.004, 0.017855354, -0.027058473, -1662882.9, -21254.959, 0.0029879087, 9.996362, 9.998325 
4.6479565e+2, 1.4248426e+2, -1578018.8, -1577310.9, -6807.656, -0.0042810906, -0.038454827, -1570848.0, -27196.984, 0.0016192476, 9.997159, 9.997249 
4.6484277e+2, 1.5248163e+2, -1468836.1, -1473428.1, -5536.512, -0.0039918106, -0.03217691, -1465138.5, -19461.643, 0.00069287396, 9.997897, 9.997285 
4.6488962e+2, 1.6247804e+2, -1373403.5, -1397438.6, -7998.599, -0.0031806424, -0.029408151, -1370985.0, -23272.963, 0.00022437889, 9.998623, 9.995434 
4.6493617e+2, 1.7247339e+2, -1265039.3, -1295145.9, -9301.932, 0.0028353876, -0.033856574, -1262397.1, -12639.499, 0.000053673917, 9.999358, 9.995363 
4.6498248e+2, 1.8246774e+2, -1171157.0, -1222596.0, -11372.514, 0.0056867544, -0.035286147, -1168754.9, -16942.082, 0.000009398119, 10.000088, 9.993275 
4.650286e+2, 1.924609e+2, -1063296.8, -1121577.8, -10961.683, -0.0016545362, -0.03533568, -1061303.1, -7423.219, 0.0000012027082, 10.000833, 9.993115 
4.650747e+2, 2.024531e+2, -968643.4, -1046929.94, -11415.509, -0.005938884, -0.032932196, -967012.75, -11056.532, 0.00000011262272, 10.001541, 9.9911785 
4.6512076e+2, 2.1244423e+2, -861921.25, -946036.75, -11040.39, -0.0021359283, -0.030171666, -860496.3, -2452.873, 0.000000007732489, 10.002192, 9.991057 
4.651668e+2, 2.2243442e+2, -766681.56, -869935.1, -10722.956, 0.001530235, -0.028919134, -765579.7, -5440.1626, 0.00000000039024706, 10.002887, 9.9892235 
4.6521285e+2, 2.3242351e+2, -657018.5, -767330.1, -11023.247, 0.002984915, -0.03483288, -655927.75, 6318.653, 0.0000000000032348013, 10.003725, 9.989127 
4.6525905e+2, 2.4241169e+2, -561620.2, -693347.06, -10200.312, 0.003060822, -0.036107138, -560835.0, 3527.3225, 0.00000000000011301746, 10.004522, 9.987099 
4.6530533e+2, 2.5239867e+2, -454757.8, -593015.94, -10029.455, -0.00048220917, -0.030461019, -454034.03, 12455.649, 0.0, 10.00521, 9.98692 
4.653518e+2, 2.6238474e+2, -358875.3, -516509.13, -8891.257, -0.0022876684, -0.028259566, -358375.38, 10250.837, 0.0, 10.005942, 9.985093 
4.6539828e+2, 2.7236962e+2, -249142.84, -413780.88, -9099.618, -0.0012136069, -0.041384626, -248641.42, 22132.723, 0.0, 10.006782, 9.985006 
4.654451e+2, 2.8235325e+2, -160415.95, -354132.88, -6084.7017, 0.00027443343, -0.04415499, -160225.02, 12709.857, 0.0, 10.007602, 9.981981 
4.6549228e+2, 2.9233515e+2, -54798.586, -255847.56, -5543.0273, 0.004765746, -0.025368301, -54645.88, 20466.621, 0.0, 10.008265, 9.981677 
4.6553987e+2, 3.0232078e+2, 62476.777, -82274.7, -2467.2083, 0.006655407, -0.017736433, 62518.816, 62518.816, 0.0, 10.009017, 9.989841 
4.6558753e+2, 3.123108e+2, 78464.2, -68669.25, -3891.4905, -0.0030021772, -0.044062782, 78567.055, 78567.055, 0.0, 10.009866, 9.990363 
4.7469684e+2, 1.2243936e+2, -1775130.9, -1736899.5, 4041.7356, -0.0049040643, -0.030051112, -1736476.9, 3614.182, 0.007113215, 9.995478, 10.000536 
4.7474515e+2, 1.3243777e+2, -1680413.8, -1664986.4, -3592.503, 0.004711593, -0.041873567, -1664190.9, -22084.107, 0.004643645, 9.996326, 9.998352 
4.7479278e+2, 1.4243571e+2, -1577596.9, -1575749.0, -4316.631, -0.006014521, -0.027827317, -1572258.5, -28131.777, 0.0025262511, 9.997132, 9.997362 
4.748407e+2, 1.5243311e+2, -1468138.1, -1471555.8, -2964.1287, -0.0017388167, -0.03288457, -1466425.5, -20273.21, 0.0010866441, 9.997882, 9.997414 
4.7488827e+2, 1.6242942e+2, -1375212.6, -1400862.9, -5512.402, -0.00047518135, -0.0374118, -1374078.1, -25889.842, 0.00035438547, 9.998612, 9.995201 
4.7493547e+2, 1.7242448e+2, -1267678.0, -1300452.8, -6654.1157, -0.0019778924, -0.035869382, -1266378.5, -16141.801, 0.000085576154, 9.999356, 9.994998 
4.749825e+2, 1.8241866e+2, -1171393.1, -1223064.0, -8721.996, -0.0024291773, -0.032344535, -1169960.6, -17666.693, 0.000015172572, 10.00009, 9.9932375 
4.7502947e+2, 1.9241188e+2, -1062741.4, -1120559.3, -8170.336, -0.00022219274, -0.030563436, -1061609.0, -7248.6143, 0.0000019737136, 10.000842, 9.993175 
4.7507632e+2, 2.0240414e+2, -967913.1, -1045497.2, -8972.665, 0.0014694642, -0.02979305, -966888.94, -10452.8125, 0.00000018875323, 10.001546, 9.99127 
4.75123e+2, 2.1239527e+2, -861181.25, -944597.7, -8531.309, 0.001134922, -0.0365711, -860317.7, -1794.4972, 0.000000013307983, 10.002196, 9.991149 
4.751697e+2, 2.2238545e+2, -766876.56, -870447.1, -7685.1597, -0.00040138597, -0.03968554, -766309.44, -5690.2505, 0.00000000069387657, 10.0028925, 9.989181 
4.752165e+2, 2.3237455e+2, -657732.44, -768861.4, -7751.3438, -0.0043031443, -0.03545426, -657194.4, 5531.7773, 0.000000000009472845, 10.003727, 9.9890175 
4.7526348e+2, 2.4236272e+2, -561716.5, -693412.1, -7481.038, -0.0048859813, -0.030576799, -561292.94, 3549.2725, 0.00000000000033105902, 10.004518, 9.987091 
4.7531056e+2, 2.5234964e+2, -454734.0, -592701.3, -7505.655, 0.0034944671, -0.032438457, -454326.9, 12643.212, 0.000000000000000004361499, 10.005199, 9.986942 
4.7535786e+2, 2.6233575e+2, -358792.66, -516004.66, -5939.046, 0.007997561, -0.031805366, -358568.63, 10537.835, 0.000000000000000025260425, 10.005929, 9.985128 
4.7540507e+2, 2.723208e+2, -249206.44, -413585.34, -6058.309, -0.00039304615, -0.03019832, -248983.47, 22269.357, 0.00000000000000010669206, 10.006769, 9.985021 
4.7545266e+2, 2.823045e+2, -159621.47, -352145.0, -3606.4275, -0.0058027026, -0.02947265, -159553.94, 13858.575, 0.00000000000000033199385, 10.007588, 9.98212 
4.7550055e+2, 2.9228628e+2, -53831.875, -253626.06, -3460.1465, 0.0012975569, -0.0381208, -53771.97, 21819.1, 0.00000000000000078039946, 10.008259, 9.981826 
4.755489e+2, 3.0227184e+2, 61529.1, -84187.375, 226.21304, 0.005888092, -0.041933045, 61529.453, 61529.453, 0.0000000000000014474501, 10.009019, 9.989702 
4.755974e+2, 3.1226215e+2, 76860.945, -72108.984, -968.75214, -0.0031772999, -0.021824492, 76867.24, 76867.24, 0.0000000000000022339833, 10.009876, 9.990115 
4.8469257e+2, 1.2238985e+2, -1772048.8, -1739140.9, 1423.4392, 0.0037168777, -0.026821932, -1739079.4, 1496.6974, 0.01049777, 9.995836, 10.000202 
4.8474148e+2, 1.3238822e+2, -1674098.5, -1660083.4, -5332.1094, -0.008606258, -0.05407821, -1658285.4, -15693.196, 0.0068823104, 9.996661, 9.998518 
4.847901e+2, 1.4238645e+2, -1573475.6, -1574410.9, -6438.0415, -0.0012612848, -0.020938653, -1567488.3, -22878.64, 0.0037656925, 9.997435, 9.9973 
4.8483872e+2, 1.5238364e+2, -1466754.4, -1472508.0, -7398.621, 0.0021090447, -0.03091468, -1461693.0, -15055.964, 0.0016323061, 9.998037, 9.997266 
4.8488694e+2, 1.623798e+2, -1374462.6, -1401221.1, -10612.929, 0.0010340412, -0.039292965, -1370764.5, -22089.902, 0.00053782034, 9.998686, 9.995132 
4.8493487e+2, 1.7237484e+2, -1266075.5, -1300118.6, -9431.373, -0.0035541926, -0.036237545, -1263637.3, -12913.986, 0.00013162919, 9.999472, 9.994961 
4.8498264e+2, 1.82369e+2, -1170056.3, -1222845.1, -10406.549, -0.0046103434, -0.031544317, -1168078.8, -15298.067, 0.000023746588, 10.000192, 9.993198 
4.850303e+2, 1.9236216e+2, -1064392.8, -1121851.4, -10734.613, 0.00128708, -0.03064833, -1062452.9, -7605.1416, 0.0000031577385, 10.000739, 9.993133 
4.8507783e+2, 2.023544e+2, -970365.1, -1046572.94, -12005.023, 0.0049044946, -0.030690052, -968518.7, -11595.025, 0.00000031029586, 10.001365, 9.991279 
4.851252e+2, 2.1234554e+2, -860295.8, -943973.0, -12066.621, 0.0018348038, -0.036782183, -858590.5, 419.98242, 0.000000022599854, 10.002236, 9.991166 
4.8517263e+2, 2.2233576e+2, -764866.06, -869557.1, -11705.593, -0.0010995116, -0.03916386, -763573.2, -2466.9355, 0.000000001223376, 10.003021, 9.989175 
4.852202e+2, 2.323248e+2, -659771.25, -770321.7, -11373.248, -0.0036876714, -0.0354085, -658613.3, 4600.33, 0.000000000023981296, 10.003597, 9.988976 
4.8526788e+2, 2.4231294e+2, -566056.25, -695253.3, -10645.686, -0.003372931, -0.030874249, -565184.94, 144.93384, 0.0000000000008389532, 10.004199, 9.987115 
4.8531565e+2, 2.5229993e+2, -458158.38, -594030.25, -10565.814, 0.0027478635, -0.032686222, -457341.66, 10115.791, 0.0000000000000001261701, 10.004939, 9.986973 
4.853636e+2, 2.6228607e+2, -361572.84, -516741.28, -8517.8955, 0.006385451, -0.033301566, -361106.66, 8486.743, 0.00000000000000073087254, 10.005697, 9.985187 
4.854117e+2, 2.7227116e+2, -253050.3, -415137.03, -8491.34, 0.0012872925, -0.032886475, -252606.67, 19132.898, 0.0000000000000030875687, 10.006477, 9.985052 
4.854601e+2, 2.822549e+2, -164029.28, -354018.47, -6503.6436, -0.0025653078, -0.028617296, -163806.92, 10091.672, 0.000000000000009609587, 10.007263, 9.982142 
4.8550865e+2, 2.9223675e+2, -58011.145, -255762.45, -7511.366, -0.00010296938, -0.031063912, -57726.246, 18350.234, 0.000000000000022592925, 10.007965, 9.981815 
4.8555773e+2, 3.0222216e+2, 58524.9, -85077.836, -3325.8577, 0.0022968964, -0.050821166, 58601.883, 58601.883, 0.00000000000004190963, 10.008768, 9.989758 
4.8560718e+2, 3.1221262e+2, 74031.984, -72400.88, -2865.4622, 0.0008633707, -0.022568388, 74088.04, 74088.04, 0.000000000000064683685, 10.00961, 9.990224 
4.9468842e+2, 1.22339524e+2, -1775338.6, -1744529.4, 3782.0625, 0.005439654, -0.026743058, -1744071.9, -3002.5957, 0.014911252, 9.995782, 9.999856 
4.9473798e+2, 1.32338e+2, -1672550.8, -1656011.6, -2618.4692, -0.024385339, -0.063200645, -1655606.9, -12522.709, 0.009830928, 9.99663, 9.998802 
4.9478766e+2, 1.4233643e+2, -1575570.3, -1578087.0, -4326.3823, 0.008406841, -0.019108202, -1572322.9, -27223.244, 0.0054196375, 9.997411, 9.997056 
4.9483678e+2, 1.5233323e+2, -1470177.9, -1479133.3, -5425.7705, 0.004876412, -0.02704193, -1467620.6, -20489.588, 0.0023727028, 9.998025, 9.996817 
4.948856e+2, 1.6232915e+2, -1373854.0, -1399765.5, -8107.917, -0.0020381785, -0.035022046, -1371526.1, -22354.947, 0.00079196517, 9.998681, 9.995227 
4.9493435e+2, 1.7232442e+2, -1264094.0, -1295961.5, -6674.972, -0.004198584, -0.034564562, -1262752.4, -11534.874, 0.00019707251, 9.999473, 9.995235 
4.949828e+2, 1.8231867e+2, -1170322.4, -1223253.9, -8309.459, -0.0039851163, -0.033157878, -1169048.5, -15775.007, 0.000036298647, 10.000189, 9.993168 
4.9503103e+2, 1.9231167e+2, -1065374.6, -1123943.4, -8769.174, -0.00035738267, -0.036426824, -1064089.9, -8747.714, 0.0000049503406, 10.000747, 9.992982 
4.9507913e+2, 2.023038e+2, -970747.06, -1047501.9, -9131.497, 0.0010258282, -0.036277995, -969675.7, -12256.274, 0.00000050112493, 10.001373, 9.991206 
4.951274e+2, 2.12295e+2, -860546.4, -944667.6, -8686.963, -0.002483975, -0.030684626, -859658.7, -152.9476, 0.000000037748414, 10.002246, 9.991109 
4.9517563e+2, 2.2228524e+2, -764795.44, -869426.75, -9278.492, -0.0033383379, -0.027295832, -763979.0, -2377.6519, 0.0000000021194788, 10.003023, 9.989179 
4.9522385e+2, 2.322742e+2, -659628.25, -770047.75, -9213.891, 0.00246634, -0.03464557, -658864.7, 4844.883, 0.00000000005330912, 10.003598, 9.988991 
4.9527216e+2, 2.4226233e+2, -565636.6, -694390.56, -8038.5703, 0.0049652345, -0.03640376, -565136.7, 689.25806, 0.000000000001871645, 10.004201, 9.987168 
4.9532053e+2, 2.5224942e+2, -457922.97, -593400.9, -7768.5747, -0.0031445888, -0.03108459, -457478.94, 10473.371, 0.000000000000009575241, 10.004931, 9.987017 
4.953692e+2, 2.6223558e+2, -361343.53, -516068.13, -5696.4053, -0.0069665103, -0.03235235, -361134.1, 8953.669, 0.000000000000055453838, 10.005689, 9.985232 
4.954182e+2, 2.7222055e+2, -253129.83, -415007.0, -5748.0757, 0.0017559166, -0.047443524, -252925.97, 19309.318, 0.0000000000002341752, 10.006466, 9.985062 
4.9546745e+2, 2.8220436e+2, -164682.58, -355042.63, -4013.6309, 0.005887777, -0.03934264, -164597.98, 9796.102, 0.0000000000007286158, 10.007249, 9.982075 
4.955166e+2, 2.9218644e+2, -58978.773, -257649.84, -5095.335, -0.0014700826, -0.0063397926, -58848.18, 17721.584, 0.0000000000017125554, 10.007962, 9.981682 
4.9556643e+2, 3.0217156e+2, 59692.008, -82585.52, -342.40457, -0.005478073, -0.048800234, 59692.832, 59692.832, 0.0000000000031753393, 10.00877, 9.989921 
4.9561685e+2, 3.121621e+2, 76156.28, -67180.94, -254.74884, 0.0047552283, -0.037299268, 76156.734, 76156.734, 0.000000000004897224, 10.00958, 9.99059 
5.046845e+2, 1.22288465e+2, -1770027.6, -1746464.1, 1681.8126, 0.0114595415, -0.025112081, -1746344.6, -4775.057, 0.020533854, 9.996327, 9.999454 
5.0473464e+2, 1.3228698e+2, -1667610.5, -1652386.8, -6167.2793, -0.033733707, -0.06238967, -1650201.9, -6617.7383, 0.013628187, 9.996896, 9.998914 
5.047852e+2, 1.4228547e+2, -1574153.6, -1577885.6, -8317.793, 0.016906666, -0.019756462, -1567495.1, -21895.889, 0.0075791995, 9.997514, 9.997015 
5.0483495e+2, 1.5228216e+2, -1466856.9, -1478790.6, -7085.707, 0.005589095, -0.027758444, -1463560.3, -15928.815, 0.0033562193, 9.998293, 9.996707 
5.048844e+2, 1.62278e+2, -1369414.6, -1398190.6, -8729.038, -0.0060959877, -0.03557613, -1366973.8, -17301.316, 0.0011366707, 9.998996, 9.99518 
5.0493383e+2, 1.7227323e+2, -1263711.8, -1296218.9, -9581.996, -0.002231248, -0.034028478, -1261097.5, -9378.623, 0.00028802847, 9.999507, 9.995196 
5.04983e+2, 1.8226747e+2, -1172037.4, -1224435.3, -12705.752, 0.0015435846, -0.03243373, -1169118.9, -15343.556, 0.000054231128, 10.000073, 9.993137 
5.050318e+2, 1.9226041e+2, -1063493.1, -1123448.8, -12413.964, -0.0006568088, -0.037794083, -1061024.4, -5179.9824, 0.0000075890043, 10.000878, 9.992948 
5.050806e+2, 2.022525e+2, -967800.4, -1046711.1, -12285.145, -0.0025397798, -0.03813583, -965932.0, -8009.9087, 0.00000079091893, 10.001587, 9.991153 
5.051296e+2, 2.1224365e+2, -863652.94, -947102.6, -12066.714, -0.0018392258, -0.029529393, -861943.1, -1934.224, 0.00000006148999, 10.00206, 9.99103 
5.0517845e+2, 2.2223388e+2, -770905.9, -872054.7, -12858.151, 0.00026764465, -0.02531011, -769296.94, -7192.076, 0.0000000035684378, 10.00258, 9.989208 
5.052273e+2, 2.3222286e+2, -662885.0, -770993.1, -12443.796, 0.0033000708, -0.036221325, -661471.1, 2741.6555, 0.000000000106601436, 10.003336, 9.989048 
5.052763e+2, 2.4221104e+2, -566630.4, -694337.94, -10792.782, 0.004138131, -0.038234826, -565724.7, 603.8009, 0.0000000000037957758, 10.004094, 9.987221 
5.0532544e+2, 2.521982e+2, -458539.78, -593765.06, -10679.901, -0.002398868, -0.027936969, -457701.5, 10752.775, 0.0000000000002126687, 10.004878, 9.987013 
5.0537485e+2, 2.6218438e+2, -362248.06, -516287.2, -9047.439, -0.005326841, -0.030559829, -361718.5, 8871.268, 0.0000000000012317329, 10.005607, 9.98525 
5.054245e+2, 2.7216923e+2, -257142.89, -416927.34, -9255.192, 0.0011573622, -0.0564267, -256608.6, 16129.72, 0.0000000000052015844, 10.006179, 9.985062 
5.054745e+2, 2.8215313e+2, -169791.16, -356304.66, -6607.453, 0.0048656412, -0.043055434, -169557.38, 5338.6606, 0.000000000016184465, 10.00683, 9.982187 
5.0552446e+2, 2.9213557e+2, -62167.754, -258114.48, -6195.173, 0.0014623284, 0.014370984, -61972.08, 15096.175, 0.000000000038037778, 10.007678, 9.981788 
5.055751e+2, 3.0212042e+2, 56939.03, -84170.63, -992.486, -0.0027129697, -0.062092304, 56946.01, 56946.01, 0.000000000070511263, 10.008573, 9.989908 
5.0562614e+2, 3.1211108e+2, 70631.08, -68338.53, -3613.1003, 0.0027005917, -0.03706385, 70724.95, 70724.95, 0.0000000001086931, 10.009112, 9.990738 
5.1468086e+2, 1.2223674e+2, -1774153.6, -1753708.4, 3472.0908, 0.01083433, -0.02571666, -1753134.9, -11058.255, 0.027554031, 9.996283, 9.998976 
5.147315e+2, 1.3223524e+2, -1669059.5, -1654288.5, -4590.012, -0.037981354, -0.049598325, -1652978.4, -8886.925, 0.018419899, 9.9968605, 9.998794 
5.147828e+2, 1.4223354e+2, -1573507.9, -1575678.5, -6041.7915, 0.02210876, -0.022265501, -1568454.8, -22346.563, 0.010340942, 9.99748, 9.997174 
5.148332e+2, 1.5223046e+2, -1465358.5, -1475273.6, -4400.288, 0.00092437747, -0.03288851, -1463687.3, -15549.152, 0.0046347342, 9.998277, 9.996947 
5.148833e+2, 1.6222635e+2, -1370863.6, -1401029.6, -6866.2695, -0.015860597, -0.041267235, -1369374.3, -19195.953, 0.0015935765, 9.998996, 9.994982 
5.149334e+2, 1.7222132e+2, -1266206.9, -1301429.5, -7961.2476, -0.0010298485, -0.03514717, -1264491.0, -12263.15, 0.00041132476, 9.9995165, 9.994832 
5.149832e+2, 1.8221533e+2, -1172113.3, -1224729.6, -10207.725, 0.008496587, -0.029548671, -1170202.4, -15915.883, 0.00007915646, 10.000081, 9.993109 
5.150327e+2, 1.9220838e+2, -1062638.3, -1121966.9, -9430.5, -0.0024722868, -0.033939026, -1061175.4, -4820.6943, 0.0000113579035, 10.000893, 9.993035 
5.150822e+2, 2.0220047e+2, -968019.94, -1047350.1, -10323.097, -0.00864759, -0.035633717, -966698.6, -8266.608, 0.0000012170423, 10.001597, 9.9911 
5.1513165e+2, 2.1219146e+2, -864294.1, -948683.1, -10309.89, 0.0014003665, -0.033200696, -863052.8, -2532.4646, 0.000000097492624, 10.002074, 9.990911 
5.151811e+2, 2.2218157e+2, -770294.56, -871015.75, -10282.358, 0.0069902516, -0.03299454, -769255.56, -6638.3994, 0.0000000058393734, 10.002591, 9.98927 
5.152306e+2, 2.321707e+2, -661901.6, -769180.5, -9395.999, -0.0024024874, -0.04019696, -661084.9, 3638.8413, 0.00000000019841896, 10.0033455, 9.989163 
5.1528025e+2, 2.4215902e+2, -566600.6, -694233.06, -7909.129, -0.0075708968, -0.036852837, -566112.44, 725.6853, 0.000000000007634904, 10.004092, 9.987225 
5.153303e+2, 2.5214618e+2, -459203.1, -594735.44, -7742.308, 0.001784701, -0.023203831, -458762.25, 10201.831, 0.0000000000039886605, 10.00486, 9.986952 
5.153806e+2, 2.621323e+2, -362562.84, -516371.9, -6787.5205, 0.006901303, -0.028984329, -362263.88, 8836.281, 0.000000000023101169, 10.005584, 9.985251 
5.154307e+2, 2.7211708e+2, -257378.56, -417050.53, -7246.1377, -0.0024021878, -0.061239928, -257050.39, 16199.039, 0.00000000009755803, 10.006163, 9.985059 
5.154812e+2, 2.8210115e+2, -168236.78, -352856.38, -3908.704, -0.0062824367, -0.03909871, -168154.06, 7251.1665, 0.000000000303523, 10.006821, 9.982423 
5.1553214e+2, 2.92084e+2, -60817.633, -254577.77, -3275.7634, 0.0061361566, 0.034262847, -60762.27, 16810.959, 0.00000000071315065, 10.007648, 9.982038 
5.155838e+2, 3.0206847e+2, 54997.086, -87418.1, 1255.5231, 0.0066522816, -0.08889933, 55008.152, 55008.152, 0.0000000013213384, 10.008549, 9.989688 
5.156352e+2, 3.1205928e+2, 70852.91, -68563.56, -2162.1611, -0.0063980464, -0.014122225, 70886.43, 70886.43, 0.0000000020352628, 10.009159, 9.990688 
5.2467734e+2, 1.2218441e+2, -1769635.9, -1753429.1, 1267.18, 0.012648136, -0.030794514, -1753330.6, -10741.182, 0.036176804, 9.996657, 9.998814 
5.2472854e+2, 1.32183e+2, -1663805.9, -1652542.8, -5229.8267, -0.038095407, -0.038263712, -1650489.0, -5885.528, 0.024365017, 9.997237, 9.99873 
5.2478045e+2, 1.4218105e+2, -1567745.1, -1573241.1, -6859.131, 0.023871476, -0.02719931, -1563104.0, -16481.725, 0.013811107, 9.997881, 9.99714 
5.2483153e+2, 1.5217799e+2, -1463256.8, -1474507.8, -7267.7363, 0.0026384466, -0.035528496, -1459691.8, -11039.48, 0.0062664114, 9.998425, 9.99692 
5.248823e+2, 1.6217385e+2, -1371505.3, -1402433.6, -11032.762, -0.014603504, -0.041371215, -1367973.0, -17280.373, 0.002187711, 9.998988, 9.994884 
5.24933e+2, 1.721687e+2, -1264760.6, -1302265.8, -10755.465, -0.0018814538, -0.03534671, -1261895.1, -9151.711, 0.0005752219, 9.999668, 9.994699 
5.2498335e+2, 1.8216261e+2, -1169203.0, -1223937.0, -11871.484, 0.0071314904, -0.029708879, -1166739.1, -11935.908, 0.00011314291, 10.000299, 9.993052 
5.250336e+2, 1.9215563e+2, -1063600.3, -1122709.9, -11782.999, -0.00089220016, -0.032822404, -1061338.0, -4466.498, 0.000016648359, 10.000832, 9.99301 
5.250836e+2, 2.021477e+2, -971337.1, -1049110.9, -13500.092, -0.0052579436, -0.03392651, -969060.4, -10111.315, 0.0000018353236, 10.001367, 9.991088 
5.251337e+2, 2.1213867e+2, -864640.94, -949058.56, -13010.7, 0.0026060783, -0.03371704, -862681.2, -1643.5216, 0.00000015174481, 10.002046, 9.990897 
5.251838e+2, 2.2212875e+2, -768750.8, -870600.8, -12538.717, 0.006462217, -0.035884183, -767229.94, -4095.079, 0.000000009413526, 10.002694, 9.989247 
5.252339e+2, 2.3211783e+2, -662011.4, -769840.56, -12617.745, -0.002154003, -0.04292774, -660554.6, 4687.2334, 0.00000000035784709, 10.003348, 9.989114 
5.252843e+2, 2.4210617e+2, -568690.8, -695167.94, -12058.8125, -0.006064138, -0.036093324, -567551.4, -195.22714, 0.00000000002014928, 10.003932, 9.987234 
5.25335e+2, 2.5209337e+2, -465152.94, -597518.0, -11537.342, 0.0026105575, -0.017335577, -464154.84, 5326.6836, 0.000000000054994186, 10.004436, 9.986962 
5.2538586e+2, 2.6207954e+2, -369765.3, -518664.25, -9555.881, 0.0070355115, -0.027414478, -369154.53, 2462.7742, 0.00000000031851738, 10.005019, 9.985367 
5.2543664e+2, 2.7206427e+2, -260314.95, -417440.2, -9232.643, -0.0029713202, -0.07388191, -259774.3, 13992.65, 0.000000001345189, 10.005895, 9.985164 
5.2548796e+2, 2.8204858e+2, -169377.52, -352188.75, -6064.3003, -0.0063948305, -0.043910243, -169176.58, 6744.1235, 0.0000000041848507, 10.006676, 9.982536 
5.255395e+2, 2.920318e+2, -69001.93, -257993.97, -6785.066, 0.006600294, 0.059834402, -68758.66, 9326.446, 0.000000009829297, 10.00705, 9.982087 
5.2559197e+2, 3.0201572e+2, 43799.87, -94727.46, -1396.1954, 0.004072598, -0.1102237, 43813.94, 43813.94, 0.000000018203474, 10.007845, 9.989517 
5.256445e+2, 3.1200656e+2, 74257.64, -63496.426, -4260.0024, -0.0020698977, -0.017003626, 74389.25, 74389.25, 0.00000002802278, 10.009231, 9.9909935 
5.346739e+2, 1.221316e+2, -1769504.4, -1751555.8, 318.73755, 0.0070942794, -0.038017556, -1751550.1, -8443.176, 0.046640746, 9.996599, 9.998963 
5.3472584e+2, 1.3213032e+2, -1664951.1, -1653694.4, -3198.1128, -0.03559712, -0.028580135, -1652849.1, -7729.7285, 0.031651113, 9.997194, 9.998664 
5.347783e+2, 1.4212807e+2, -1569793.4, -1576767.8, -5169.763, 0.019807568, -0.036037657, -1567044.6, -19903.135, 0.018118156, 9.997861, 9.996902 
5.3483003e+2, 1.521248e+2, -1465701.0, -1479047.0, -5664.8823, 0.0077116904, -0.0359129, -1463620.6, -14447.126, 0.008324205, 9.998409, 9.996613 
5.348814e+2, 1.6212054e+2, -1371696.4, -1402728.3, -8964.111, -0.0061146473, -0.03486466, -1369293.1, -18077.563, 0.002952043, 9.998991, 9.994855 
5.349326e+2, 1.7211537e+2, -1264187.3, -1301096.8, -8480.955, -0.006734076, -0.034052324, -1262331.9, -9065.846, 0.0007912693, 9.999674, 9.994768 
5.349835e+2, 1.8210924e+2, -1169557.9, -1224879.4, -10054.085, -0.005124463, -0.03343259, -1167787.4, -12461.249, 0.00015928308, 10.000314, 9.992975 
5.350344e+2, 1.9210216e+2, -1064333.9, -1124557.9, -10014.322, -0.00006465298, -0.035846088, -1062712.4, -5316.748, 0.000024088198, 10.000853, 9.992867 
5.350851e+2, 2.0209417e+2, -970954.44, -1048602.0, -11284.121, 0.0025778038, -0.03442873, -969347.8, -9874.042, 0.0000027417923, 10.001381, 9.991111 
5.3513575e+2, 2.1208522e+2, -863671.9, -947579.8, -10438.1455, -0.0016606902, -0.03206619, -862392.9, -831.51013, 0.00000023528659, 10.002072, 9.990979 
5.3518635e+2, 2.2207531e+2, -769482.4, -872292.6, -10106.934, -0.0042676977, -0.034628224, -768498.25, -4839.7856, 0.000000015275884, 10.002702, 9.989125 
5.352374e+2, 2.3206417e+2, -663445.75, -772875.0, -10053.801, 0.0010939268, -0.044102505, -662529.75, 3238.0107, 0.0000000006877151, 10.003351, 9.988902 
5.3528833e+2, 2.420524e+2, -568677.5, -695000.25, -10026.052, 0.0048213303, -0.03603624, -567886.7, -3.5532496, 0.00000000013052304, 10.003924, 9.9872465 
5.353394e+2, 2.5203973e+2, -464750.47, -596428.8, -9595.11, -0.0006087109, -0.010471028, -464054.97, 5952.2295, 0.000000000612615, 10.004422, 9.987041 
5.353908e+2, 2.6202598e+2, -368682.1, -516265.25, -6760.1396, -0.0055504963, -0.02502219, -368373.1, 3768.9956, 0.0000000034131882, 10.005012, 9.985531 
5.354426e+2, 2.7201065e+2, -259463.48, -415300.47, -6111.0737, -0.0031267286, -0.09308811, -259224.2, 15068.036, 0.000000014339296, 10.005876, 9.985314 
5.354947e+2, 2.8199515e+2, -169475.45, -351925.7, -4560.042, 0.0011979035, -0.057550725, -169361.55, 7082.5513, 0.00000004456666, 10.006655, 9.982561 
5.355465e+2, 2.9197872e+2, -69809.41, -259504.03, -5745.161, 0.0016219193, 0.089398764, -69635.56, 8969.587, 0.00000010462058, 10.007045, 9.981982 
5.3559965e+2, 3.0196202e+2, 42610.125, -97072.09, 2929.2375, -0.010921418, -0.12648165, 42671.523, 42671.523, 0.00000019365781, 10.007849, 9.989343 
5.356538e+2, 3.11953e+2, 77908.98, -54627.613, 471.81882, 0.008225223, -0.00978356, 77910.66, 77910.66, 0.0000002979929, 10.009183, 9.991613 
5.4467064e+2, 1.2207836e+2, -1764472.1, -1748824.4, -1940.9916, 0.008746262, -0.038237445, -1748587.3, -4958.5596, 0.05923043, 9.996921, 9.998992 
5.447232e+2, 1.3207692e+2, -1660573.6, -1653739.6, -4268.3765, -0.032858193, -0.03165079, -1651689.0, -6046.0933, 0.04050611, 9.997574, 9.998473 
5.447763e+2, 1.4207448e+2, -1565112.9, -1576627.9, -7356.2056, 0.016370963, -0.03827761, -1561528.9, -13862.126, 0.023422668, 9.998256, 9.996717 
5.448286e+2, 1.5207106e+2, -1461331.0, -1479182.9, -7407.5605, 0.008270426, -0.03406696, -1458657.6, -8957.333, 0.010902844, 9.998792, 9.996415 
5.4488057e+2, 1.6206664e+2, -1367385.1, -1401491.3, -10226.049, -0.0026868149, -0.031274755, -1364554.0, -12810.281, 0.003931351, 9.999309, 9.994782 
5.4493237e+2, 1.7206143e+2, -1261714.0, -1300216.4, -10431.848, -0.0059339423, -0.033930942, -1259069.3, -5274.6313, 0.0010759312, 9.999848, 9.99474 
5.4498386e+2, 1.820552e+2, -1169509.1, -1225818.3, -12782.481, -0.005587559, -0.03606307, -1166743.3, -10887.75, 0.0002222064, 10.000347, 9.99289 
5.4503536e+2, 1.9204803e+2, -1064557.5, -1125985.6, -12847.733, 0.0005919315, -0.03791046, -1061978.6, -4052.699, 0.00003466305, 10.000879, 9.992754 
5.450865e+2, 2.0203996e+2, -971028.4, -1049431.9, -14047.468, 0.0039054304, -0.034606803, -968587.44, -8582.416, 0.0000040952546, 10.001399, 9.991041 
5.451378e+2, 2.1203099e+2, -864584.2, -948580.6, -14032.779, -0.0015530862, -0.029819138, -862301.8, -208.96037, 0.00000036843403, 10.002022, 9.990929 
5.45189e+2, 2.2202104e+2, -771505.3, -873562.4, -14466.825, -0.004178054, -0.03268297, -769494.25, -5303.851, 0.000000026361263, 10.002564, 9.989099 
5.452406e+2, 2.3200983e+2, -667285.56, -774970.6, -13285.953, 0.0017554617, -0.04644142, -665670.56, 629.69666, 0.0000000023307902, 10.003085, 9.988885 
5.4529214e+2, 2.4199808e+2, -573103.94, -696770.94, -12336.123, 0.0059627527, -0.03809834, -571885.4, -3469.9312, 0.0000000015642249, 10.003586, 9.98729 
5.4534376e+2, 2.5198552e+2, -466318.72, -596843.75, -11970.685, 0.0006726186, -0.0056698276, -465229.94, 5308.515, 0.000000005562811, 10.004279, 9.987083 
5.4539573e+2, 2.6197177e+2, -369646.34, -516870.2, -9110.156, -0.0045710937, -0.02243879, -369084.75, 3588.4336, 0.000000028366085, 10.004937, 9.985521 
5.454483e+2, 2.7195624e+2, -263810.75, -418132.03, -9660.535, -0.00291512, -0.10564553, -263208.38, 11617.141, 0.00000011761462, 10.005603, 9.985242 
5.455012e+2, 2.8194085e+2, -174275.17, -352508.66, -9338.0205, 0.0024873426, -0.06269384, -173787.27, 3188.8928, 0.0000003647328, 10.006235, 9.9827175 
5.4555345e+2, 2.9192492e+2, -72028.234, -259032.75, -9267.05, 0.004305071, 0.11910528, -71570.125, 7562.139, 0.00000085578625, 10.006796, 9.982139 
5.4560745e+2, 3.0190763e+2, 37870.03, -103522.04, 1880.3984, -0.0136097465, -0.14742169, 37895.035, 37895.035, 0.0000015835924, 10.007652, 9.989008 
5.4566264e+2, 3.118984e+2, 72079.414, -51339.914, -2879.8462, 0.009844941, -0.016050272, 72146.58, 72146.58, 0.0000024360013, 10.008462, 9.992201 
5.5466765e+2, 1.2202491e+2, -1766696.5, -1751433.5, -2022.1267, 0.010450912, -0.027011482, -1751170.1, -7017.6475, 0.07429232, 9.996843, 9.998848 
5.5472076e+2, 1.3202286e+2, -1664126.6, -1659483.3, -2207.4822, -0.03204972, -0.04811844, -1658601.3, -12428.717, 0.051209517, 9.997515, 9.998103 
5.547745e+2, 1.4202033e+2, -1567035.5, -1579425.4, -5671.4634, 0.011569013, -0.03213123, -1564831.5, -16634.121, 0.02992419, 9.998214, 9.996541 
5.5482733e+2, 1.520168e+2, -1462410.0, -1480760.9, -5896.9717, 0.00048654294, -0.029759593, -1460678.4, -10446.383, 0.014122313, 9.998771, 9.996312 
5.5487984e+2, 1.620122e+2, -1368233.6, -1403164.1, -8704.795, -0.009962474, -0.031246511, -1366184.6, -13907.464, 0.005183735, 9.999313, 9.994659 
5.5493224e+2, 1.7200686e+2, -1262487.0, -1301936.5, -8800.676, -0.0027790838, -0.03581949, -1260612.8, -6283.3286, 0.0014511821, 9.999861, 9.994609 
5.5498433e+2, 1.820005e+2, -1170055.4, -1227221.4, -11140.972, 0.0025538637, -0.037844356, -1167960.9, -11569.355, 0.0003083134, 10.000365, 9.992781 
5.550362e+2, 1.9199325e+2, -1064988.3, -1127312.5, -11084.535, -0.0016280327, -0.03787006, -1063075.5, -4612.7813, 0.000049822887, 10.000904, 9.992646 
5.550878e+2, 2.0198506e+2, -971841.44, -1051544.9, -12037.31, -0.0040589524, -0.03316104, -970063.1, -9520.096, 0.000006177535, 10.00142, 9.990883 
5.551399e+2, 2.1197593e+2, -865584.0, -951033.5, -11756.826, 0.0003055496, -0.026851349, -863995.94, -1363.4604, 0.00000062156136, 10.002042, 9.990747 
5.5519164e+2, 2.2196588e+2, -771002.5, -872675.5, -12490.395, 0.0026130204, -0.0304265, -769490.56, -4759.468, 0.0000000784953, 10.00257, 9.989154 
5.552437e+2, 2.3195474e+2, -666078.1, -772697.5, -11200.853, -0.0027909614, -0.05045126, -664914.1, 1925.9238, 0.000000033049396, 10.003097, 9.989031 
5.552956e+2, 2.4194312e+2, -572651.3, -695927.5, -9950.185, -0.0053144502, -0.04292314, -571853.3, -2899.292, 0.00000003053741, 10.00359, 9.987344 
5.553481e+2, 2.5193062e+2, -466438.0, -596982.06, -9348.811, 0.0025068526, -0.002412015, -465771.9, 5304.5054, 0.00000005386784, 10.004275, 9.987072 
5.554008e+2, 2.6191682e+2, -370983.28, -519201.75, -6837.7026, 0.004878473, -0.02115703, -370668.5, 2543.2288, 0.00000019406193, 10.004912, 9.9853735 
5.5545384e+2, 2.7190095e+2, -265850.94, -421700.1, -7230.741, -0.0055390513, -0.113708615, -265516.2, 9851.231, 0.00000074942295, 10.005564, 9.985018 
5.555073e+2, 2.8188568e+2, -173003.7, -349163.75, -7277.2095, -0.0054920833, -0.05869104, -172703.6, 4813.3247, 0.0000022942224, 10.0062065, 9.982956 
5.5556035e+2, 2.9187033e+2, -70399.62, -255005.36, -7215.952, 0.009924407, 0.14978349, -70117.984, 9549.375, 0.0000053700915, 10.006771, 9.982421 
5.556151e+2, 3.0185232e+2, 33059.684, -112804.84, 4792.238, -0.0086367205, -0.17365545, 33216.957, 33216.957, 0.000009930988, 10.00763, 9.988372 
5.5567104e+2, 3.118427e+2, 74915.66, -44474.746, -694.93994, 0.0013012788, -0.0085779475, 74919.7, 74919.7, 0.000015272311, 10.008437, 9.99267 
5.646647e+2, 1.2197061e+2, -1757979.8, -1747808.3, -4538.8726, 0.010220937, -0.019695442, -1746077.4, -1392.7632, 0.092263974, 9.997455, 9.99879 
5.647186e+2, 1.3196807e+2, -1658417.3, -1659934.8, -4147.3804, -0.022531968, -0.06624508, -1654959.8, -8250.211, 0.06411256, 9.998032, 9.997817 
5.6477284e+2, 1.4196561e+2, -1563151.8, -1578823.4, -7428.5425, 0.008578736, -0.019442378, -1560190.3, -11456.606, 0.037873123, 9.998522, 9.996429 
5.648262e+2, 1.5196191e+2, -1459849.5, -1480245.3, -7630.894, -0.000866643, -0.027788315, -1457310.5, -6540.6675, 0.018134005, 9.99897, 9.996245 
5.6487924e+2, 1.6195714e+2, -1367034.9, -1403849.3, -10296.647, -0.009228353, -0.03756047, -1364350.6, -11533.957, 0.0067838547, 9.999443, 9.994545 
5.6493217e+2, 1.7195174e+2, -1261910.6, -1303231.6, -10646.019, -0.001421647, -0.036903128, -1259329.1, -4459.463, 0.0019465192, 9.999961, 9.994468 
5.6498474e+2, 1.8194528e+2, -1169130.1, -1228017.0, -13017.186, 0.0044564162, -0.035028663, -1166381.0, -9448.151, 0.0004271751, 10.000477, 9.992666 
5.6503725e+2, 1.919379e+2, -1062708.8, -1127354.3, -12959.952, -0.0012589024, -0.037605837, -1060207.4, -1202.2115, 0.00007248392, 10.001106, 9.992538 
5.6508934e+2, 2.0192957e+2, -969414.75, -1051651.1, -14231.041, -0.0042019747, -0.03481882, -967021.7, -5934.7397, 0.000010126858, 10.001636, 9.990765 
5.65142e+2, 2.1192037e+2, -865722.6, -952411.7, -13660.212, 0.0023989915, -0.026122341, -863621.0, -443.887, 0.0000016724213, 10.002079, 9.990632 
5.651942e+2, 2.2191021e+2, -772916.94, -874285.5, -14603.066, 0.0057203122, -0.029179182, -770855.2, -5578.4463, 0.00000068287227, 10.002452, 9.989101 
5.652467e+2, 2.3189901e+2, -667947.75, -774105.75, -14694.328, -0.0025318554, -0.053912126, -665951.3, 1435.0565, 0.00000051860127, 10.002971, 9.988995 
5.6529915e+2, 2.4188733e+2, -575370.06, -697703.0, -14344.057, -0.005737256, -0.045568008, -573710.7, -4210.018, 0.00000047300682, 10.0034075, 9.987308 
5.6535226e+2, 2.518749e+2, -469790.16, -599109.4, -13699.817, 0.0044090515, 0.0044612586, -468354.75, 3267.9026, 0.00000055618574, 10.00405, 9.987032 
5.654056e+2, 2.618611e+2, -374931.13, -520864.53, -11007.991, 0.0073605077, -0.016459798, -374105.47, -347.40353, 0.0000011869142, 10.004603, 9.985412 
5.6545925e+2, 2.7184504e+2, -270462.94, -423730.94, -9629.333, -0.0068253498, -0.1271311, -269860.34, 6054.996, 0.0000037901987, 10.005211, 9.985055 
5.655133e+2, 2.8183e+2, -176942.27, -348701.75, -8457.648, -0.006206101, -0.065284744, -176526.81, 1535.5499, 0.000011143965, 10.005788, 9.983205 
5.65567e+2, 2.9181516e+2, -74013.92, -255532.4, -8973.11, 0.018428508, 0.17666338, -73571.42, 6636.4434, 0.00002588088, 10.006441, 9.982549 
5.656227e+2, 3.0179635e+2, 24610.65, -126752.664, 2859.1047, -0.006086795, -0.19426423, 24664.637, 24664.637, 0.000047783215, 10.007474, 9.987476 
5.656793e+2, 3.1178594e+2, 75476.05, -38204.535, -5359.106, -0.0024740766, -0.012445649, 75728.125, 75728.125, 0.00007346192, 10.0082035, 9.993201 
5.746621e+2, 1.2191567e+2, -1759707.5, -1748446.4, -1888.4562, 0.0004319602, -0.01448797, -1748138.1, -2915.1243, 0.11375035, 9.997332, 9.998799 
5.7471687e+2, 1.3191266e+2, -1661454.1, -1663862.0, -3107.103, -0.0046188794, -0.08749952, -1659325.9, -12073.373, 0.07970576, 9.997938, 9.997589 
5.747713e+2, 1.4191043e+2, -1564619.0, -1580350.0, -6464.175, 0.0048889206, -0.00072711386, -1562303.5, -13029.054, 0.04762608, 9.998465, 9.996346 
5.7482517e+2, 1.519065e+2, -1460623.3, -1481096.6, -6595.2095, 0.00081684964, -0.028022034, -1458682.6, -7369.8325, 0.023162274, 9.998945, 9.996192 
5.7487875e+2, 1.619015e+2, -1368051.5, -1405796.9, -9015.072, -0.004611935, -0.049752943, -1366008.9, -12647.097, 0.008851887, 9.999447, 9.994402 
5.7493216e+2, 1.7189607e+2, -1263108.1, -1305682.8, -9217.714, -0.0038059521, -0.036467463, -1261198.1, -5782.9863, 0.0026185028, 9.99997, 9.9942875 
5.7498515e+2, 1.818895e+2, -1169854.0, -1229757.0, -11319.054, -0.0026580861, -0.027262624, -1167786.5, -10307.007, 0.0006049601, 10.000494, 9.992532 
5.750383e+2, 1.9188194e+2, -1063227.5, -1128987.6, -10938.22, -0.0029630342, -0.038605556, -1061455.8, -1902.2214, 0.00011675058, 10.001138, 9.992404 
5.7509106e+2, 2.018734e+2, -969567.2, -1052459.6, -12746.568, -0.0023300909, -0.041442376, -967651.4, -6014.2954, 0.000025390495, 10.001662, 9.990691 
5.7514405e+2, 2.118642e+2, -865658.0, -952979.44, -12171.438, 0.00023121995, -0.028724, -863993.2, -265.85385, 0.000010757624, 10.002116, 9.990569 
5.751966e+2, 2.2185394e+2, -773867.94, -876665.06, -12960.428, 0.00045640446, -0.029229624, -772259.1, -6431.198, 0.0000077366185, 10.00247, 9.988928 
5.752496e+2, 2.3184253e+2, -669455.75, -777158.8, -12669.771, -0.0016763844, -0.05644407, -667985.44, -45.61376, 0.000006522971, 10.00297, 9.988783 
5.7530254e+2, 2.4183069e+2, -576633.4, -699892.6, -12084.197, -0.00023278683, -0.0464408, -575459.9, -5404.024, 0.000005941919, 10.003383, 9.987169 
5.753563e+2, 2.5181824e+2, -470652.6, -600607.5, -11078.226, 0.003164716, 0.013980841, -469715.0, 2462.8484, 0.000005930573, 10.00403, 9.986938 
5.7541007e+2, 2.6180443e+2, -374075.2, -518826.7, -8873.5625, -0.001157493, -0.008072073, -373533.25, 779.9514, 0.000007746674, 10.00459, 9.985554 
5.754644e+2, 2.717883e+2, -268945.44, -420496.3, -7587.0625, -0.011657845, -0.14464583, -268566.53, 7904.4365, 0.000016548, 10.00521, 9.9852705 
5.755191e+2, 2.817736e+2, -175753.52, -345790.84, -6798.7583, -0.0048839278, -0.08354616, -175482.11, 3132.9202, 0.000042830554, 10.005762, 9.983416 
5.7557356e+2, 2.917592e+2, -74445.12, -255590.31, -6557.927, 0.024371725, 0.19752115, -74208.016, 6548.2837, 0.000096663134, 10.006399, 9.982562 
5.7563007e+2, 3.0173954e+2, 16029.223, -143079.77, 6112.8584, -0.010778421, -0.20778038, 16263.7295, 16263.7295, 0.00017732779, 10.007419, 9.986373 
5.7568747e+2, 3.117282e+2, 78706.13, -29522.084, -2775.9778, -0.007509004, 0.00043829757, 78777.29, 78777.29, 0.00027223537, 10.008137, 9.993816 
5.8465964e+2, 1.21860124e+2, -1751532.8, -1745504.6, -1744.1299, -0.008271474, -0.009119593, -1745036.4, 730.828, 0.13972634, 9.997913, 9.998722 
5.8471495e+2, 1.3185683e+2, -1657653.3, -1663476.9, -3310.6787, 0.0065459907, -0.10206144, -1656156.1, -8356.479, 0.09881995, 9.998255, 9.997458 
5.8476985e+2, 1.4185466e+2, -1561692.3, -1580316.4, -6418.9287, 0.00013073668, 0.0071087843, -1559694.4, -9873.309, 0.05983596, 9.998724, 9.996217 
5.8482426e+2, 1.518506e+2, -1456653.3, -1480237.1, -7244.9946, -0.00073551404, -0.025081541, -1454605.4, -2744.7102, 0.029672418, 9.999257, 9.996095 
5.848784e+2, 1.6184543e+2, -1364306.3, -1405483.0, -9791.246, -0.0017752978, -0.052254356, -1362096.6, -8185.316, 0.011691614, 9.99976, 9.994268 
5.849323e+2, 1.7183988e+2, -1258505.5, -1305389.5, -10101.541, -0.001317904, -0.03602805, -1256421.6, -455.77032, 0.0036588176, 10.000362, 9.994113 
5.8498585e+2, 1.8183315e+2, -1165208.8, -1229119.6, -12708.237, -0.00096758833, -0.025035543, -1162774.5, -4742.748, 0.0009683537, 10.000874, 9.992388 
5.850395e+2, 1.918254e+2, -1062875.9, -1130558.3, -12872.377, -0.002357991, -0.03934089, -1060510.4, -402.9078, 0.00027478443, 10.00123, 9.992248 
5.8509266e+2, 2.0181671e+2, -971590.7, -1054600.0, -15128.59, -0.0018908922, -0.043472365, -968919.44, -6726.817, 0.00012467508, 10.001559, 9.990595 
5.851461e+2, 2.1180747e+2, -866972.94, -954514.25, -14941.599, 0.00087111915, -0.02811497, -864492.94, -209.76158, 0.0000877705, 10.002053, 9.990493 
5.851991e+2, 2.217971e+2, -774897.44, -879029.94, -15937.165, 0.0015851122, -0.027808733, -772512.94, -6127.8765, 0.00007200422, 10.002481, 9.988751 
5.8525276e+2, 2.3178548e+2, -667968.25, -778231.44, -15411.065, 0.00016907389, -0.05783295, -665854.8, 2644.0496, 0.00006284414, 10.003145, 9.988618 
5.8530605e+2, 2.4177349e+2, -574841.75, -700362.44, -15225.042, 0.002301438, -0.04760142, -573021.4, -2404.9514, 0.00005789635, 10.00354, 9.987064 
5.853602e+2, 2.5176102e+2, -473853.16, -602921.4, -14032.681, 0.004730338, 0.018027762, -472345.1, 393.42776, 0.000055242694, 10.003821, 9.986884 
5.854144e+2, 2.6174715e+2, -382758.72, -523952.03, -11437.465, -0.0010161526, -0.0051075267, -381838.22, -6963.778, 0.000055795954, 10.003999, 9.985497 
5.854694e+2, 2.7173087e+2, -273487.3, -423432.63, -11164.433, -0.0126691675, -0.15276247, -272660.63, 4373.46, 0.00007332081, 10.004892, 9.985228 
5.855248e+2, 2.8171635e+2, -176080.39, -342919.1, -12224.492, -0.0033477095, -0.08693142, -175189.44, 3986.738, 0.0001400374, 10.005592, 9.983689 
5.8557975e+2, 2.917024e+2, -78238.23, -255230.88, -10561.258, 0.02742448, 0.21630594, -77610.26, 3702.7937, 0.00028783004, 10.006006, 9.982784 
5.856372e+2, 3.016821e+2, 2322.2424, -160972.81, 4649.9355, -0.018004106, -0.21983625, 2454.5452, 2454.5452, 0.00051568105, 10.006906, 9.985404 
5.856957e+2, 3.1166983e+2, 83205.336, -16132.357, -4515.4814, 0.0068687177, -0.0017740739, 83410.164, 83410.164, 0.00078684813, 10.007905, 9.994861 
5.946575e+2, 1.2180429e+2, -1755915.5, -1750440.1, -2897.4102, -0.017148953, -0.010749331, -1749191.6, -2877.3718, 0.17203067, 9.997748, 9.998455 
5.947133e+2, 1.3180089e+2, -1659890.8, -1665805.0, -3162.5417, 0.007100619, -0.10661598, -1658518.1, -10170.404, 0.12317733, 9.998163, 9.997337 
5.9476846e+2, 1.4179854e+2, -1563850.8, -1583450.8, -5553.005, -0.008981151, 0.004992798, -1562386.9, -12015.985, 0.0760359, 9.998678, 9.996016 
5.948235e+2, 1.5179439e+2, -1458505.0, -1482858.1, -6296.378, -0.008552575, -0.020147968, -1456973.4, -4561.755, 0.038946632, 9.999216, 9.995927 
5.9487814e+2, 1.6178906e+2, -1365682.1, -1407830.5, -8559.5625, -0.005911882, -0.04556135, -1364010.1, -9546.457, 0.016318014, 9.999746, 9.994107 
5.9493273e+2, 1.7178327e+2, -1260008.1, -1308277.1, -8527.169, 0.0018619794, -0.03636977, -1258546.0, -2025.3982, 0.0058532357, 10.000362, 9.993908 
5.949868e+2, 1.8177627e+2, -1166536.6, -1231991.3, -11702.726, 0.0057874713, -0.029180398, -1164507.3, -5918.141, 0.002137039, 10.000891, 9.992175 
5.950408e+2, 1.9176838e+2, -1064076.5, -1133474.5, -12020.219, -0.0025036312, -0.03958872, -1062053.5, -1386.9633, 0.001055166, 10.001263, 9.992024 
5.950942e+2, 2.0175949e+2, -972375.25, -1056715.8, -13920.3, -0.0076178955, -0.04004542, -970137.06, -7383.536, 0.00073918933, 10.001586, 9.990433 
5.951482e+2, 2.1175015e+2, -867513.44, -956299.9, -13455.616, 0.00007745377, -0.024372343, -865519.0, -674.00867, 0.00060496945, 10.002089, 9.990348 
5.952016e+2, 2.2173956e+2, -775768.6, -881230.5, -13882.012, 0.0045010354, -0.02541192, -773971.94, -7023.1367, 0.0005205493, 10.002499, 9.98859 
5.9525585e+2, 2.3172778e+2, -668821.4, -780086.94, -12889.565, -0.0026611816, -0.0588642, -667347.7, 1716.508, 0.0004661713, 10.003149, 9.988485 
5.953095e+2, 2.4171562e+2, -576059.25, -702262.9, -13933.095, -0.004316389, -0.04966977, -574539.3, -3355.8547, 0.0004356508, 10.003515, 9.986944 
5.953641e+2, 2.517031e+2, -474286.5, -603634.5, -13128.759, 0.0052410504, 0.016136834, -472967.38, 338.57407, 0.0004130641, 10.003818, 9.986834 
5.9541845e+2, 2.6168913e+2, -384879.75, -528057.25, -9307.732, 0.0030759224, -0.009344143, -384277.2, -8833.973, 0.00038235346, 10.00397, 9.985236 
5.9547436e+2, 2.716725e+2, -275809.9, -428213.56, -7776.11, -0.014557562, -0.15340097, -275414.16, 2191.9373, 0.00036756825, 10.004878, 9.984908 
5.9553033e+2, 2.816581e+2, -174407.19, -338571.97, -10789.1045, -0.0071153445, -0.07661817, -173701.16, 6045.895, 0.00045654777, 10.005536, 9.984019 
5.9558576e+2, 2.9164454e+2, -77267.49, -251151.77, -9051.66, 0.025198953, 0.23071969, -76797.57, 5082.426, 0.0007430319, 10.005908, 9.98311 
5.9564394e+2, 3.0162376e+2, -6643.1646, -176483.83, 8039.6978, -0.032823797, -0.23289268, -6263.441, -6263.441, 0.0012328605, 10.006769, 9.984402 
5.9570366e+2, 3.1161058e+2, 90458.08, 1996.3499, -1517.244, 0.018538268, 0.0054133213, 90484.09, 90484.09, 0.0018376576, 10.00779, 9.99615 
6.0465544e+2, 1.2174788e+2, -1749027.1, -1747056.5, -1030.7893, -0.0054159905, -0.017959492, -1746615.9, 251.27365, 0.214152, 9.998214, 9.998455 
6.047118e+2, 1.3174444e+2, -1654111.3, -1666625.0, -4171.6504, 0.021458415, -0.085727125, -1652848.1, -3947.2278, 0.15643857, 9.998705, 9.997016 
6.0476714e+2, 1.4174154e+2, -1560384.6, -1583239.9, -6419.5576, -0.020172324, -0.008574969, -1558704.9, -7775.5625, 0.09991464, 9.998963, 9.995892 
6.0482275e+2, 1.5173732e+2, -1456097.3, -1483792.3, -7282.0757, -0.008303945, -0.025348345, -1454299.3, -1328.3636, 0.054502863, 9.999463, 9.995741 
6.04878e+2, 1.6173194e+2, -1362042.5, -1406458.6, -9834.161, 0.0021337573, -0.042700075, -1359962.5, -4938.9697, 0.025911747, 10.000005, 9.994071 
6.049331e+2, 1.717261e+2, -1259028.9, -1308104.5, -9241.512, -0.00038857813, -0.03809001, -1257346.3, -265.368, 0.011987488, 10.000435, 9.993881 
6.049876e+2, 1.81719e+2, -1166933.6, -1233282.9, -11500.107, -0.002281612, -0.033708587, -1164996.9, -5846.542, 0.0065416535, 10.000901, 9.992082 
6.050422e+2, 1.9171108e+2, -1060131.8, -1132957.6, -11435.692, 0.00016652684, -0.036467604, -1058378.3, 2849.682, 0.0046063922, 10.001583, 9.991903 
6.050961e+2, 2.0170204e+2, -965976.1, -1056356.5, -13653.235, 0.0018918597, -0.033013955, -963958.7, -642.1545, 0.0037910414, 10.00215, 9.990174 
6.051505e+2, 2.1169232e+2, -863301.6, -957699.9, -14988.149, 0.0009949867, -0.027415054, -860979.06, 4432.7324, 0.003294016, 10.002529, 9.99003 
6.052042e+2, 2.2168136e+2, -772784.1, -882084.0, -16572.719, -0.0007226767, -0.03489167, -770326.56, -2807.2703, 0.0029299043, 10.002789, 9.98839 
6.052589e+2, 2.3166957e+2, -672278.5, -783327.44, -16027.583, -0.0051030116, -0.058108717, -670011.56, -376.7942, 0.0026845648, 10.002972, 9.988347 
6.053128e+2, 2.4165729e+2, -583996.8, -707599.6, -17282.941, -0.0029030896, -0.040949374, -581625.7, -9870.472, 0.0025410713, 10.003034, 9.986804 
6.053679e+2, 2.5164464e+2, -474614.6, -603748.6, -16188.238, 0.009965914, 0.015021731, -472616.16, 1262.6313, 0.0024159902, 10.0037775, 9.986842 
6.0542256e+2, 2.6163045e+2, -384408.8, -532171.7, -12026.08, 0.008990363, -0.018854568, -383436.44, -7418.2813, 0.0021913543, 10.004154, 9.984876 
6.054793e+2, 2.7161342e+2, -276554.8, -433376.88, -10425.042, -0.01158362, -0.15539876, -275864.8, 2319.9636, 0.0018755151, 10.004973, 9.984529 
6.0553575e+2, 2.815991e+2, -176125.2, -337550.06, -16158.696, -0.002121018, -0.06965119, -174523.6, 5802.113, 0.0017067166, 10.005281, 9.984232 
6.0559165e+2, 2.915857e+2, -77897.875, -249104.55, -14426.851, 0.037656967, 0.23629645, -76690.695, 5765.703, 0.0019738742, 10.005723, 9.983349 
6.0565054e+2, 3.015644e+2, -19049.71, -199131.05, 3805.3262, -0.036118615, -0.23467897, -18969.336, -18969.336, 0.00273566, 10.006627, 9.982905 
6.057113e+2, 3.1154934e+2, 91715.41, 10163.371, -10441.516, 0.009762102, 0.00018114487, 93031.06, 93031.06, 0.0038015225, 10.007561, 9.9967985 
6.1465394e+2, 1.2169132e+2, -1746996.8, -1742643.4, 1217.4425, 0.01521574, -0.032399632, -1742326.0, 5095.7017, 0.27198067, 9.998152, 9.998885 
6.147108e+2, 1.3168803e+2, -1658023.9, -1673724.0, -5053.5566, 0.052535616, -0.03801811, -1656537.9, -7084.0405, 0.20546661, 9.998681, 9.996534 
6.14766e+2, 1.4168416e+2, -1561814.6, -1585219.1, -6421.7515, -0.034850575, -0.03517336, -1560168.4, -8676.521, 0.13911296, 9.998932, 9.995763 
6.148223e+2, 1.5167986e+2, -1458976.3, -1488378.0, -6450.5796, -0.0032246187, -0.03873003, -1457623.3, -4089.1545, 0.08438501, 9.999415, 9.995441 
6.1487824e+2, 1.6167444e+2, -1362900.6, -1406860.4, -9293.805, 0.019706056, -0.040025763, -1361016.5, -5429.32, 0.048496593, 9.999954, 9.994059 
6.149335e+2, 1.7166857e+2, -1259144.3, -1307382.6, -8726.024, -0.008519175, -0.04018565, -1257614.3, 30.177578, 0.02976512, 10.000403, 9.993937 
6.149883e+2, 1.816615e+2, -1167345.6, -1233685.3, -9945.133, -0.02694724, -0.03745713, -1165886.9, -6173.022, 0.021445168, 10.000891, 9.992049 
6.150439e+2, 1.9165362e+2, -1060526.4, -1133758.6, -9456.804, 0.0024298306, -0.030612085, -1059324.9, 2466.0083, 0.017750558, 10.001598, 9.99183 
6.150986e+2, 2.0164442e+2, -968765.5, -1061929.3, -12522.405, 0.022260722, -0.023657227, -967111.7, -3230.5916, 0.015685128, 10.002147, 9.989791 
6.151531e+2, 2.1163404e+2, -866801.7, -965143.75, -13838.5205, -0.0009839816, -0.037318137, -864891.44, 1091.6616, 0.014165093, 10.002545, 9.989509 
6.1520684e+2, 2.2162248e+2, -774573.06, -885936.06, -15823.527, -0.019211413, -0.05539984, -772368.4, -4272.0405, 0.012958546, 10.002801, 9.988116 
6.1526185e+2, 2.316108e+2, -673390.0, -785703.44, -15650.183, -0.009128454, -0.056100316, -671250.06, -1039.3901, 0.012107187, 10.002981, 9.988177 
6.153159e+2, 2.415984e+2, -585718.44, -710513.56, -15100.643, 0.003908472, -0.023334118, -583917.2, -11584.976, 0.0115695195, 10.003015, 9.986606 
6.1537176e+2, 2.515855e+2, -474702.34, -604117.0, -13706.807, 0.00992418, 0.01249364, -473266.56, 1191.7358, 0.011032614, 10.003798, 9.986795 
6.154267e+2, 2.6157093e+2, -388817.47, -540609.8, -10249.159, 0.002635749, -0.033520795, -388128.56, -11527.233, 0.010000831, 10.004097, 9.984334 
6.154843e+2, 2.715534e+2, -280949.7, -442249.44, -7765.7344, -0.016197681, -0.16136079, -280576.66, -1803.5702, 0.00835712, 10.004951, 9.983931 
6.1554116e+2, 2.815388e+2, -176858.03, -337666.88, -15750.435, 0.0009263459, -0.072087355, -175329.88, 5586.3506, 0.0067573697, 10.005187, 9.984288 
6.1559755e+2, 2.915255e+2, -77693.48, -247937.64, -12677.002, 0.05285057, 0.22763424, -76754.68, 6291.685, 0.006111138, 10.005655, 9.983477 
6.156571e+2, 3.0150384e+2, -33221.6, -226281.56, 7111.4453, -0.03685597, -0.22280057, -32960.004, -32960.004, 0.0067206244, 10.006506, 9.9811125 
6.1571836e+2, 3.1148633e+2, 86874.56, 9630.648, -5533.521, -0.02479287, 0.0031131543, 87268.95, 87268.95, 0.008187074, 10.0071745, 9.99695 
6.246517e+2, 1.2163296e+2, -1749565.3, -1753298.3, 5269.293, -0.03620371, -0.04594521, -1745841.6, 2151.8032, 0.3541072, 9.99846, 9.997906 
6.2470967e+2, 1.3163058e+2, -1640754.9, -1656553.6, -2492.2305, 0.019534737, -0.0107505405, -1640371.0, 9645.804, 0.28109142, 9.99978, 9.997171 
6.247657e+2, 1.4162672e+2, -1540449.9, -1573189.6, -3610.9949, -0.0364478, -0.04104842, -1540056.3, 11998.669, 0.20657134, 10.000585, 9.995781 
6.24822e+2, 1.5162247e+2, -1447066.4, -1481749.4, -2755.517, -0.011152469, -0.036624894, -1446848.8, 7247.6025, 0.1432552, 10.000281, 9.9954815 
6.248782e+2, 1.6161709e+2, -1358826.0, -1408625.8, -3531.9539, 0.007944718, -0.030911036, -1358576.8, -2427.535, 0.09987318, 10.000378, 9.993741 
6.2493426e+2, 1.7161068e+2, -1254429.0, -1311122.9, -7591.0327, 0.0019668601, -0.033480983, -1253430.3, 4781.5625, 0.075513154, 10.001011, 9.993384 
6.249897e+2, 1.816032e+2, -1159233.4, -1230429.1, -12754.827, -0.0035520885, -0.036432315, -1157017.3, 3267.8845, 0.06323491, 10.001473, 9.99199 
6.2504536e+2, 1.9159523e+2, -1063220.4, -1134812.5, -12722.154, 0.000009298434, -0.041938238, -1061026.8, 1336.4307, 0.056682963, 10.00139, 9.991861 
6.251002e+2, 2.0158602e+2, -975682.06, -1063096.8, -13239.635, 0.003949341, -0.039642956, -973720.8, -9267.476, 0.052283235, 10.001564, 9.989993 
6.2515557e+2, 2.1157622e+2, -866622.9, -961743.2, -9072.184, 0.0024959738, -0.025372086, -865765.3, 784.2614, 0.048651624, 10.002412, 9.989806 
6.2521e+2, 2.2156486e+2, -773083.25, -889422.3, -8331.741, -0.0010449806, -0.02610866, -772489.56, -3828.6506, 0.04555987, 10.00309, 9.9877405 
6.2526536e+2, 2.315523e+2, -665546.75, -789386.5, -12432.236, -0.0014502368, -0.056835, -664311.0, 6472.9634, 0.043225635, 10.003865, 9.987497 
6.2531966e+2, 2.4153885e+2, -570869.75, -712955.2, -16085.819, 0.003719225, -0.048809163, -569071.4, 3844.3687, 0.04156095, 10.004408, 9.98579 
6.253758e+2, 2.515254e+2, -474090.97, -613506.7, -21226.705, 0.011291337, 0.009280404, -470930.72, 4116.85, 0.039684203, 10.004217, 9.985971 
6.2543046e+2, 2.6151022e+2, -398470.9, -548667.75, -19725.125, 0.0032580588, -0.009795196, -395923.63, -18727.352, 0.036110234, 10.003578, 9.984015 
6.254889e+2, 2.7149293e+2, -282241.06, -437715.0, -10449.401, -0.028025119, -0.14163876, -281541.9, -2176.0518, 0.030348934, 10.004622, 9.984396 
6.25546e+2, 2.814784e+2, -183455.1, -344294.06, -15687.853, -0.014916452, -0.07757547, -181939.22, -431.0435, 0.024075592, 10.004844, 9.98401 
6.256039e+2, 2.9146415e+2, -64010.95, -250560.55, -15295.885, 0.059356235, 0.19731899, -62765.105, 20882.834, 0.019858941, 10.00699, 9.982653 
6.256644e+2, 3.0144227e+2, -23104.701, -231322.58, -4417.905, -0.01747094, -0.19917944, -23011.004, -23011.004, 0.018799579, 10.007532, 9.9803095 
6.257248e+2, 3.1142366e+2, 64803.14, 17264.031, -9138.624, 0.002578633, -0.0071929125, 66499.37, 66499.37, 0.020104516, 10.004747, 9.998747 
6.3470906e+2, 1.3157253e+2, -1668106.3, -1654951.6, -1175.7671, -0.013628661, -0.0452938, -1654847.4, -4261.7056, 0.3986437, 9.996977, 9.998612 
6.3476694e+2, 1.4156973e+2, -1573933.8, -1589906.4, -9324.899, 0.02976493, -0.033091754, -1569642.6, -17029.412, 0.32109898, 9.998057, 9.995864 
6.3482225e+2, 1.5156569e+2, -1455612.8, -1483330.0, -6872.2954, -0.017196542, -0.029375374, -1454002.4, 650.3937, 0.25318962, 9.999499, 9.99575 
6.348782e+2, 1.6156033e+2, -1364257.4, -1418828.1, -3493.9685, -0.03800319, -0.020334063, -1364034.6, -7329.476, 0.20482565, 10.000346, 9.99305 
6.3493556e+2, 1.7155284e+2, -1263180.5, -1329100.0, -6298.305, 0.024554834, -0.022756921, -1262584.1, -3805.5176, 0.1758956, 10.000991, 9.992156 
6.349919e+2, 1.8154445e+2, -1161929.5, -1234531.1, -13395.131, 0.058972273, -0.031097725, -1159536.9, 1324.0322, 0.15969306, 10.001425, 9.991725 
6.350466e+2, 1.9153611e+2, -1063394.0, -1134621.1, -13634.189, -0.014113965, -0.07296476, -1060873.4, 2069.2034, 0.14982603, 10.0014105, 9.991852 
6.3510114e+2, 2.0152701e+2, -970620.8, -1052910.1, -11015.532, -0.06433628, -0.08204731, -969171.75, -4139.9043, 0.14231765, 10.001589, 9.990662 
6.35158e+2, 2.1151894e+2, -859411.25, -945719.6, -5901.642, 0.00005003074, 0.0024255095, -859009.56, 8101.4546, 0.13550727, 10.0024805, 9.990853 
6.3521355e+2, 2.2150849e+2, -776282.2, -897456.0, -5756.817, 0.042826314, 0.04900623, -776009.3, -6795.868, 0.12921391, 10.003162, 9.987146 
6.3526934e+2, 2.3149402e+2, -672832.06, -806722.4, -9752.626, 0.0065254723, -0.062312853, -672125.4, -770.32623, 0.12399558, 10.003947, 9.986262 
6.3532394e+2, 2.414786e+2, -581682.4, -735465.06, -15504.806, -0.015974531, -0.11383149, -580134.75, -6628.5767, 0.1196944, 10.004407, 9.984248 
6.3538e+2, 2.514642e+2, -485933.75, -637273.0, -23102.172, 0.0049132234, 0.0011317742, -482485.72, -6838.077, 0.11434348, 10.004173, 9.984371 
6.3543415e+2, 2.614483e+2, -401941.72, -552714.56, -17906.52, 0.003017742, 0.048205845, -399844.22, -22040.633, 0.10449241, 10.003412, 9.983831 
6.354934e+2, 2.7143186e+2, -273388.7, -419042.28, -7775.451, -0.0538455, -0.0956279, -272974.78, 6989.6577, 0.088948555, 10.0046425, 9.985667 
6.3555044e+2, 2.8141755e+2, -186895.25, -353769.44, -14400.452, -0.05685285, -0.08301201, -185661.67, -3557.4011, 0.07142324, 10.004881, 9.983366 
6.3561076e+2, 2.914013e+2, -78047.46, -276233.66, -8636.202, 0.049315136, 0.14120412, -77671.836, 6591.8667, 0.057965606, 10.006784, 9.981005 
6.356719e+2, 3.0137935e+2, -30998.367, -234987.08, -13766.848, -0.0025104475, -0.17206155, -30073.459, -30073.459, 0.051588424, 10.006939, 9.980376 
6.3572943e+2, 3.1136093e+2, 69675.0, 47712.496, -20491.412, 0.030784411, -0.015092038, 81942.1, 81942.1, 0.050905753, 10.003971, 10.001391 
6.448772e+2, 1.6149588e+2, -1374499.5, -1349931.1, -3757.6384, 0.038118325, -0.021777293, -1349369.3, 7967.3867, 0.39385006, 9.996198, 9.999945 
6.449355e+2, 1.7149149e+2, -1247259.5, -1275345.6, -13652.164, -0.06631887, -0.121792704, -1241717.1, 17662.56, 0.3631605, 10.000789, 9.995982 
6.449929e+2, 1.8148722e+2, -1154148.6, -1214954.1, -287.86526, 0.006668197, -0.0016131129, -1154147.3, 7274.456, 0.34433386, 10.001578, 9.992998 
6.450486e+2, 1.9147986e+2, -1055929.0, -1125204.0, 1626.8336, 0.020701593, 0.0026678164, -1055890.9, 7603.005, 0.33186242, 10.001974, 9.992236 
6.451037e+2, 2.0147063e+2, -968805.4, -1061971.5, 2478.884, 0.0044868793, -0.015905797, -968739.44, -3155.036, 0.32141975, 10.002155, 9.989773 
6.451602e+2, 2.1145982e+2, -876549.7, -972824.9, -10885.107, -0.010359206, -0.05948441, -875334.3, -7643.9272, 0.31100234, 10.002005, 9.9892235 
6.4521587e+2, 2.2144766e+2, -783947.1, -897428.56, -18825.121, -0.01810251, -0.08472369, -780905.75, -11096.29, 0.30041274, 10.002474, 9.987451 
6.452736e+2, 2.3143585e+2, -660226.3, -784907.9, -4159.366, -0.00072127715, -0.037910447, -660087.7, 11837.626, 0.29071093, 10.00455, 9.98746 
6.4532954e+2, 2.4142167e+2, -564832.56, -733903.6, -3579.3984, 0.013088234, 0.01347809, -564756.8, 9307.575, 0.2817397, 10.006184, 9.983511 
6.45385e+2, 2.5140512e+2, -468159.72, -633056.1, -12653.305, 0.0069291685, -0.0038546934, -467194.44, 9032.119, 0.26974383, 10.005856, 9.983902 
6.454383e+2, 2.613865e+2, -407751.0, -606369.5, -5172.5303, -0.002673681, -0.05770076, -407616.4, -29207.854, 0.24780308, 10.005209, 9.979315 
6.454999e+2, 2.713647e+2, -284647.97, -495913.16, -41401.81, 0.021965798, -0.1296518, -276824.16, 3798.209, 0.2136612, 10.006946, 9.97925 
6.4555734e+2, 2.8134668e+2, -165457.2, -338402.56, -81147.11, 0.057056833, -0.07588418, -133344.98, 49453.758, 0.17465666, 10.006886, 9.983436 
6.4561766e+2, 2.9133224e+2, -57202.07, -234278.22, -45819.586, 0.04342625, 0.103380054, -46048.496, 38892.19, 0.14277902, 10.007337, 9.983559 
6.456763e+2, 3.013136e+2, -73824.26, -244796.4, -50213.598, -0.08679162, -0.09721553, -60167.637, -60167.637, 0.12436321, 10.003594, 9.98127 
6.457302e+2, 3.1129438e+2, -9325.992, 20490.49, -55254.715, -0.022914894, -0.0069425125, 62812.83, 62812.83, 0.117293075, 9.998043, 10.002463 
6.5556353e+2, 2.8126773e+2, -199603.5, -345054.1, 10225.393, -0.03067925, -0.04554227, -198888.16, -15315.234, 0.35786855, 10.003356, 9.984737 
6.556246e+2, 2.912585e+2, -24829.236, -136305.16, 38531.89, -0.007809741, 0.035049606, -12807.128, 72855.95, 0.2964858, 10.007876, 9.9903145 
6.556808e+2, 3.01246e+2, -2696.5461, -186424.33, 13855.927, 0.0047649248, -0.09495726, -1657.4706, -1657.4706, 0.2564419, 10.00734, 9.983676 
6.5572804e+2, 3.1122681e+2, 20555.766, 31689.984, 25090.063, 0.026309712, -0.04022504, 51823.15, 51823.15, 0.23493291, 10.000204, 10.002744 
7.143657e+2, 1.6876683e+2, -1304738.0, -1299659.0, 4908.6226, 0.12647782, -0.15882526, -1296671.9, -10604.91, 0.39580005, 9.936681, 9.9373455 
7.132774e+2, 1.7870283e+2, -1179385.6, -1213037.5, -2440.2566, 0.027299592, -0.19633326, -1179209.6, 9484.145, 0.36749697, 9.94014, 9.935175 
7.1219045e+2, 1.8863691e+2, -1083274.9, -1130935.9, 3827.568, 0.045272425, -0.22608218, -1082969.5, 8369.976, 0.33911413, 9.940653, 9.93368 
7.1110404e+2, 1.985697e+2, -989877.0, -1043092.06, 9000.813, 0.07361953, -0.25289544, -988395.8, 5601.906, 0.30851847, 9.940507, 9.9328375 
7.1001625e+2, 2.0850328e+2, -886082.6, -931029.3, 3962.0842, 0.033689454, -0.2394947, -885736.0, 10912.552, 0.27875233, 9.940657, 9.9338665 
7.0892954e+2, 2.18438e+2, -789073.25, -833838.8, -5408.485, 0.000109044, -0.18303932, -788429.1, 10859.089, 0.25782213, 9.940521, 9.934204 
7.078426e+2, 2.2837138e+2, -703818.2, -758085.0, -4015.6108, -0.0021762273, -0.20385493, -703522.6, -1581.8467, 0.25607178, 9.940187, 9.9328985 
7.067569e+2, 2.383039e+2, -599495.7, -647851.06, -10661.7295, -0.0491706, -0.26709983, -597249.25, 7352.555, 0.28158212, 9.940378, 9.93364 
7.056685e+2, 2.4823853e+2, -478894.0, -531171.1, -15624.779, -0.03386899, -0.1995543, -474580.0, 32662.252, 0.33779845, 9.942799, 9.93417 
7.2864336e+2, 1.3011123e+2, -1649651.3, -1684353.3, 1697.6085, 0.13387203, -0.17098089, -1649568.4, 15325.166, 0.38657025, 9.941764, 9.93599 
7.2756016e+2, 1.4004636e+2, -1575194.3, -1595816.8, 929.0111, 0.22888052, -0.20553447, -1575152.5, -7623.065, 0.32062596, 9.939432, 9.93656 
7.2647524e+2, 1.4998424e+2, -1502137.5, -1496894.9, -7154.9683, 0.14075229, -0.20847122, -1491896.1, -21758.334, 0.26370573, 9.936954, 9.937904 
7.253886e+2, 1.5992086e+2, -1374216.6, -1405304.9, 7818.4917, 0.04687105, -0.22043332, -1372361.1, 397.48538, 0.2228128, 9.939649, 9.935556 
7.2430336e+2, 1.6985616e+2, -1285117.6, -1320083.5, 9770.131, 0.10084184, -0.19569226, -1282572.9, -7180.2744, 0.1965221, 9.939604, 9.934733 
7.232184e+2, 1.797907e+2, -1182984.8, -1220374.0, 3968.507, 0.13169469, -0.1959116, -1182568.3, -4534.268, 0.17812835, 9.939814, 9.934805 
7.221314e+2, 1.8972614e+2, -1077591.8, -1116339.8, 56.146893, 0.09633805, -0.16384259, -1077591.6, 3074.8696, 0.16184242, 9.940256, 9.93496 
7.2104406e+2, 1.9966081e+2, -987818.6, -1042282.7, -1473.6898, 0.03040587, -0.12061987, -987778.75, -4471.9473, 0.14482777, 9.940482, 9.933168 
7.1995634e+2, 2.0959269e+2, -897915.75, -964379.8, -391.22964, -0.012288877, -0.15720789, -897913.44, -11939.312, 0.12795308, 9.940726, 9.931696 
7.1886986e+2, 2.1952403e+2, -795997.25, -857530.25, -7858.0894, -0.01508789, -0.19792621, -795009.56, -6362.9956, 0.11534935, 9.940602, 9.932491 
7.177833e+2, 2.294571e+2, -698703.44, -754800.4, -6124.1885, 0.042203587, -0.20716015, -698042.6, -6740.3823, 0.1128621, 9.940545, 9.932945 
7.1669805e+2, 2.3938951e+2, -607521.25, -676371.06, -10179.409, 0.018184023, -0.1956673, -606047.75, -12083.498, 0.12563443, 9.94078, 9.931633 
7.1561056e+2, 2.493209e+2, -492672.47, -583391.5, -12566.475, -0.13257104, -0.15921582, -490963.9, 5672.596, 0.15757087, 9.942852, 9.930667 
7.145279e+2, 2.5925076e+2, -393605.88, -506810.22, -23311.156, -0.10806348, -0.14988555, -388993.53, 10329.934, 0.21079886, 9.9438505, 9.928871 
7.1344537e+2, 2.6917824e+2, -338844.6, -433287.34, 4389.202, 0.13089773, -0.24720849, -338641.03, -36607.24, 0.28437525, 9.941009, 9.92838 
7.123592e+2, 2.7910942e+2, -196669.11, -235453.5, -53092.01, -0.21289407, -0.2691692, -159538.58, 45169.508, 0.369697, 9.94099, 9.935712 
7.396668e+2, 1.21257514e+2, -1760872.4, -1775515.8, -8013.988, 0.26394442, -0.18241772, -1757339.1, -5677.275, 0.32493475, 9.939746, 9.938074 
7.385813e+2, 1.3119671e+2, -1650452.3, -1649741.5, 5998.812, 0.020220114, -0.1665342, -1644087.6, 10170.318, 0.25898266, 9.939622, 9.939529 
7.374993e+2, 1.4113627e+2, -1550311.3, -1567939.9, 13012.006, 0.12746412, -0.08224129, -1543409.1, 13440.672, 0.19368057, 9.940587, 9.9376745 
7.364154e+2, 1.5107283e+2, -1450058.8, -1482561.3, 4481.887, 0.10719916, -0.12058876, -1449452.0, 10019.532, 0.13986363, 9.94128, 9.936518 
7.353302e+2, 1.6100842e+2, -1349987.1, -1398020.5, -6910.4507, 0.09403948, -0.13350722, -1349012.6, 13089.856, 0.103883736, 9.941988, 9.935232 
7.342444e+2, 1.7094351e+2, -1252533.0, -1303369.1, -3912.404, 0.087630294, -0.14283118, -1252233.6, 12504.802, 0.083562806, 9.942088, 9.934908 
7.331588e+2, 1.808779e+2, -1160355.5, -1215753.3, -5995.169, 0.08486674, -0.15007004, -1159714.1, 7667.057, 0.072091475, 9.941873, 9.9342785 
7.320723e+2, 1.9081222e+2, -1059362.4, -1119272.8, -9635.957, 0.06538548, -0.14893338, -1057850.8, 12174.121, 0.06384599, 9.942246, 9.934063 
7.3098564e+2, 2.0074588e+2, -961752.4, -1033000.9, -15157.793, 0.031045273, -0.13669488, -958661.7, 14012.984, 0.05605498, 9.942638, 9.93311 
7.298985e+2, 2.1067849e+2, -863571.06, -944336.4, -10418.227, 0.005683694, -0.14625527, -862248.8, 13086.136, 0.048505012, 9.943111, 9.932192 
7.288123e+2, 2.2060993e+2, -761126.44, -848832.75, -11824.418, 0.005671624, -0.16905741, -759560.25, 18446.203, 0.04279683, 9.943581, 9.931699 
7.277257e+2, 2.3054186e+2, -658420.44, -749575.6, -11746.528, 0.04022229, -0.18018405, -656931.06, 23742.273, 0.041521482, 9.94406, 9.931771 
7.2664046e+2, 2.4047308e+2, -571798.2, -675159.6, -15535.686, 0.008714122, -0.15991965, -569513.6, 13833.496, 0.04735266, 9.943919, 9.930397 
7.255534e+2, 2.5040308e+2, -488296.84, -596629.9, -4959.395, -0.15026322, -0.14804803, -488070.28, -2037.5902, 0.06318574, 9.943521, 9.929402 
7.244707e+2, 2.603314e+2, -399397.8, -512052.13, -11262.769, -0.15583661, -0.19960974, -398282.8, -9547.838, 0.09222443, 9.942873, 9.928769 
7.233881e+2, 2.7025977e+2, -281019.4, -392603.03, -8702.909, 0.13175346, -0.29639468, -280344.72, 11092.326, 0.13662772, 9.94403, 9.929938 
7.223045e+2, 2.8018862e+2, -213554.36, -358818.53, -20260.422, 0.058216467, -0.19666705, -210781.5, -16647.342, 0.1940425, 9.943212, 9.925942 
7.2120905e+2, 2.901177e+2, -57235.348, -201361.98, -18151.043, -0.5475287, 0.08976872, -54984.586, 41843.93, 0.25632784, 9.946948, 9.927759 
7.2013587e+2, 3.0003634e+2, -92938.82, -348860.75, 77006.266, 0.030462561, -0.43525705, -71554.64, -71554.64, 0.31382793, 9.947169, 9.915299 
7.190602e+2, 3.0995172e+2, 62.136585, -19806.742, 11041.505, -0.098080516, -0.08200312, 4980.573, 4980.573, 0.36191288, 9.939913, 9.936685 
7.496058e+2, 1.22343965e+2, -1738040.1, -1723243.3, 5057.373, 0.2600812, -0.05984097, -1721679.9, 19336.691, 0.23778631, 9.939131, 9.941733 
7.485221e+2, 1.322826e+2, -1639891.3, -1641969.5, 6012.806, 0.10741246, -0.18880568, -1634828.4, 8789.418, 0.17853287, 9.940458, 9.939784 
7.474411e+2, 1.422216e+2, -1547948.1, -1577769.3, -1769.4884, 0.22458568, -0.14269143, -1547843.5, -1628.1483, 0.120985776, 9.9411955, 9.937141 
7.4635726e+2, 1.5215813e+2, -1455038.1, -1493543.9, -1824.5913, 0.16515692, -0.13642314, -1454951.9, -6114.5903, 0.0749508, 9.9412985, 9.936004 
7.452722e+2, 1.6209362e+2, -1352744.9, -1398055.4, -6532.795, 0.11852407, -0.13383237, -1351821.8, -352.4401, 0.045711238, 9.941681, 9.935422 
7.4418646e+2, 1.7202914e+2, -1246169.9, -1298006.0, -6284.628, 0.08102131, -0.13314901, -1245418.9, 8682.102, 0.030768666, 9.942393, 9.935205 
7.431006e+2, 1.8196355e+2, -1153297.6, -1217876.3, -9756.178, 0.049277913, -0.13633269, -1151856.0, 4887.6587, 0.023860537, 9.94262, 9.933855 
7.420145e+2, 1.9189695e+2, -1056941.4, -1126865.8, -9645.524, 0.044631924, -0.16108327, -1055635.3, 3760.78, 0.020094706, 9.942822, 9.93329 
7.409285e+2, 2.018298e+2, -956502.9, -1030732.1, -14368.9795, 0.035753474, -0.17008723, -953818.5, 8235.3545, 0.01716262, 9.943047, 9.933061 
7.398419e+2, 2.1176316e+2, -856154.2, -935008.2, -12749.48, 0.022522606, -0.15030538, -854144.0, 10562.773, 0.014534381, 9.9434395, 9.93276 
7.38756e+2, 2.2169514e+2, -763923.5, -858152.1, -16561.45, 0.017455813, -0.13879274, -761097.44, 6275.5947, 0.012619455, 9.9437475, 9.9311495 
7.376694e+2, 2.3162584e+2, -666880.7, -769880.5, -15288.895, 0.0073089497, -0.15600333, -664659.2, 5392.9585, 0.012302083, 9.944179, 9.930442 
7.3658395e+2, 2.41556e+2, -569030.8, -675297.4, -21581.61, -0.035585158, -0.15149742, -564815.06, 7921.4287, 0.014720773, 9.944171, 9.9303 
7.354974e+2, 2.5148654e+2, -476088.4, -582583.75, -13328.8125, -0.10037865, -0.13216516, -474445.56, 971.2848, 0.021534432, 9.944068, 9.930133 
7.344145e+2, 2.6141554e+2, -393723.13, -514529.6, -14794.601, -0.07738587, -0.14492574, -391937.7, -13825.191, 0.035159837, 9.943697, 9.928291 
7.333312e+2, 2.713434e+2, -279658.1, -401785.06, -10034.319, 0.045086402, -0.20400192, -278839.16, 1979.8676, 0.05817618, 9.944589, 9.929054 
7.322467e+2, 2.812715e+2, -203782.78, -347324.0, -21951.768, -0.057932604, -0.17073204, -200500.75, -16976.846, 0.09157931, 9.943835, 9.926327 
7.311551e+2, 2.9119983e+2, -84999.55, -223380.1, -25983.63, -0.38381967, -0.0036208036, -80281.48, 5944.401, 0.13333857, 9.944402, 9.927832 
7.300801e+2, 3.0112496e+2, -88618.914, -255080.53, 46702.543, 0.112396404, -0.1865296, -76411.29, -76411.29, 0.17864567, 9.943688, 9.923739 
7.289997e+2, 3.1104678e+2, 109207.39, 132347.56, -50962.348, -0.34653518, -0.29106104, 173036.72, 173036.72, 0.22258653, 9.944319, 9.947921 
7.5954443e+2, 1.2342837e+2, -1734139.3, -1750220.5, -21263.2, 0.13992608, -0.11635263, -1719447.1, 10944.126, 0.17498739, 9.940596, 9.938929 
7.5846404e+2, 1.333667e+2, -1625399.0, -1656947.9, 4076.2075, 0.14438705, -0.12341579, -1624880.9, 8114.437, 0.1261487, 9.942613, 9.937982 
7.5738263e+2, 1.4330415e+2, -1522967.3, -1561379.1, -7268.1875, 0.15742393, -0.12677369, -1521638.0, 13969.932, 0.079539225, 9.942889, 9.937527 
7.562991e+2, 1.5324168e+2, -1425056.9, -1466656.0, -5523.7817, 0.13168965, -0.12799732, -1424335.9, 13884.009, 0.04321595, 9.942896, 9.937126 
7.552145e+2, 1.631779e+2, -1332092.1, -1387100.6, -7305.0063, 0.10421239, -0.12785959, -1331138.6, 9706.353, 0.02111174, 9.94312, 9.935601 
7.541296e+2, 1.7311338e+2, -1229330.1, -1292017.8, -8058.125, 0.08040628, -0.12642808, -1228310.9, 15166.246, 0.0106813945, 9.943683, 9.935115 
7.530441e+2, 1.8304776e+2, -1132649.6, -1207539.9, -11505.411, 0.062151868, -0.12592864, -1130921.9, 15198.19, 0.006606641, 9.944027, 9.933975 
7.519584e+2, 1.9298156e+2, -1032159.25, -1113160.6, -9524.705, 0.0576228, -0.13292076, -1031054.3, 17714.285, 0.0049766204, 9.944415, 9.9335 
7.508725e+2, 2.0291433e+2, -936860.1, -1028108.0, -12303.888, 0.04370931, -0.13682483, -935230.2, 16197.027, 0.004049235, 9.944618, 9.932498 
7.497861e+2, 2.1284688e+2, -838992.7, -934840.3, -13080.232, 0.017428044, -0.13115837, -837239.7, 16848.4, 0.0033389644, 9.944833, 9.9321785 
7.487002e+2, 2.227784e+2, -748485.3, -855030.6, -16668.045, 0.0038158132, -0.12576728, -745938.6, 10820.501, 0.002866707, 9.944825, 9.930964 
7.476139e+2, 2.3270905e+2, -653056.7, -765302.6, -11262.063, -0.0061822245, -0.136603, -651937.9, 7500.593, 0.0028619335, 9.944992, 9.930346 
7.465285e+2, 2.4263884e+2, -558690.8, -677006.6, -12221.317, -0.03731862, -0.13825643, -557441.56, 4684.774, 0.003723972, 9.94491, 9.929741 
7.454427e+2, 2.5256884e+2, -458359.28, -578669.0, -9243.979, -0.06415543, -0.12492364, -457653.16, 7158.9756, 0.00620369, 9.945138, 9.929856 
7.443592e+2, 2.6249808e+2, -377276.88, -508169.4, -9457.728, -0.046961244, -0.11304158, -376597.03, -9091.437, 0.011629093, 9.944535, 9.928412 
7.43275e+2, 2.7242634e+2, -284218.4, -408185.34, -3520.805, -0.02750427, -0.13781597, -284118.5, -13910.092, 0.02189187, 9.944, 9.928846 
7.421898e+2, 2.8235397e+2, -202094.36, -344322.25, -13027.811, -0.12170328, -0.16108015, -200910.88, -27993.611, 0.038873084, 9.943582, 9.926584 
7.411007e+2, 2.922804e+2, -83831.89, -234908.13, -15280.875, -0.24760841, -0.16292897, -82301.77, -6663.618, 0.06316909, 9.944774, 9.926793 
7.400228e+2, 3.022086e+2, -42789.11, -173336.03, 42599.85, 0.01003595, -0.15679891, -30117.898, -30117.898, 0.092829004, 9.944473, 9.9289 
7.389451e+2, 3.121377e+2, 13765.669, -37938.453, -64865.69, -0.29195258, -0.15806794, 57741.16, 57741.16, 0.12412565, 9.943285, 9.935611 
7.6948667e+2, 1.2450971e+2, -1706192.0, -1723216.6, -798.90314, 0.18651915, -0.09492012, -1706154.6, 13640.948, 0.12768447, 9.942885, 9.940337 
7.684066e+2, 1.3444903e+2, -1620774.3, -1650836.4, 649.6272, 0.14249799, -0.065731876, -1620760.1, 1629.779, 0.0897246, 9.942697, 9.938486 
7.673248e+2, 1.4438702e+2, -1521562.1, -1553870.3, -7603.601, 0.11570094, -0.07013267, -1519862.0, 5135.3984, 0.054136056, 9.942666, 9.938154 
7.6624185e+2, 1.5432496e+2, -1414429.5, -1455477.0, -9746.766, 0.10305798, -0.09310021, -1412232.6, 15372.822, 0.02707615, 9.94344, 9.9377575 
7.651577e+2, 1.6426149e+2, -1321566.3, -1381614.5, -13268.747, 0.08966993, -0.10222911, -1318765.0, 11462.371, 0.011202649, 9.943919, 9.935807 
7.640734e+2, 1.7419712e+2, -1222501.3, -1288398.8, -12835.834, 0.08008444, -0.10458799, -1220089.3, 12768.636, 0.0041621407, 9.944217, 9.935266 
7.629883e+2, 1.8413173e+2, -1125599.8, -1202113.5, -15822.541, 0.0710307, -0.101465136, -1122456.9, 13041.896, 0.0017368137, 9.944518, 9.934258 
7.619029e+2, 1.9406599e+2, -1024687.2, -1107458.5, -15646.0205, 0.06388575, -0.096152954, -1021828.44, 16314.439, 0.0010035203, 9.944927, 9.933823 
7.6081717e+2, 2.0399882e+2, -934032.75, -1032245.8, -18497.246, 0.04495364, -0.096638374, -930664.5, 10136.398, 0.0007333931, 9.945128, 9.932149 
7.597309e+2, 2.1393071e+2, -836183.44, -939815.9, -17681.832, 0.00719913, -0.10971015, -833249.6, 10218.693, 0.00057991396, 9.945382, 9.931675 
7.5864494e+2, 2.2386198e+2, -738613.44, -847668.0, -20713.637, -0.01353624, -0.11094814, -734811.6, 11330.098, 0.000493846, 9.945492, 9.931232 
7.5755894e+2, 2.3379318e+2, -640623.6, -754113.6, -17389.828, -0.011226715, -0.11085899, -638018.8, 10796.77, 0.0005179474, 9.945716, 9.9308605 
7.564737e+2, 2.4372305e+2, -552579.8, -679408.06, -16901.748, -0.023746077, -0.11967043, -550366.06, 1136.5574, 0.00076677866, 9.945691, 9.929315 
7.553881e+2, 2.536522e+2, -453883.8, -583344.5, -14255.36, -0.05350261, -0.13435513, -452332.7, 1864.4655, 0.0015079639, 9.945851, 9.929227 
7.543036e+2, 2.6358128e+2, -367197.0, -498089.63, -14944.222, -0.06830639, -0.11854112, -365512.47, -8620.465, 0.0033113414, 9.945144, 9.928766 
7.5321853e+2, 2.7351028e+2, -278708.34, -402111.03, -9367.102, -0.077098764, -0.10010607, -278001.38, -18413.963, 0.0072144237, 9.94435, 9.929014 
7.52134e+2, 2.834381e+2, -190835.45, -332883.1, -7814.7466, -0.10512458, -0.12891693, -190406.81, -28111.867, 0.014637885, 9.944489, 9.926947 
7.5104815e+2, 2.9336455e+2, -56893.0, -217122.3, -3256.3044, -0.13573174, -0.1656582, -56826.85, 8188.161, 0.026564173, 9.946871, 9.926953 
7.4996704e+2, 3.03293e+2, -23724.576, -164639.66, 30260.727, -0.119780995, -0.087098986, -17501.111, -17501.111, 0.042354185, 9.945818, 9.928296 
7.4888957e+2, 3.132225e+2, 21185.19, 46240.84, -982.44104, 0.008437839, -0.020409316, 46279.305, 46279.305, 0.059846237, 9.941175, 9.944151 
7.7943057e+2, 1.255899e+2, -1685447.5, -1711610.8, -380.69373, 0.19107698, -0.09302371, -1685442.0, 23769.012, 0.09095766, 9.944106, 9.94044 
7.783501e+2, 1.3553028e+2, -1594094.5, -1624151.8, 533.0278, 0.15217964, -0.08141656, -1594085.0, 17710.457, 0.06282223, 9.943843, 9.939688 
7.7726823e+2, 1.4546897e+2, -1504064.3, -1546159.1, -3377.5667, 0.12762538, -0.07703475, -1503795.0, 10601.094, 0.036900293, 9.943854, 9.938155 
7.761859e+2, 1.5540701e+2, -1399908.1, -1450176.8, -6024.069, 0.110378556, -0.081490204, -1399196.3, 17806.87, 0.017632606, 9.944453, 9.937672 
7.751023e+2, 1.6534373e+2, -1304662.1, -1370249.4, -10074.535, 0.09555693, -0.08292561, -1303149.5, 16473.627, 0.0066743675, 9.944836, 9.936171 
7.740182e+2, 1.7527978e+2, -1204340.9, -1276259.0, -9885.921, 0.08410711, -0.083673894, -1203006.8, 19242.98, 0.0020335538, 9.945184, 9.93565 
7.729334e+2, 1.8521449e+2, -1111485.1, -1197502.0, -12227.151, 0.06798145, -0.083908826, -1109780.9, 15108.483, 0.00056177605, 9.945456, 9.934166 
7.718483e+2, 1.9514859e+2, -1010898.8, -1102982.9, -13220.404, 0.049467683, -0.08453042, -1009038.3, 18496.738, 0.00019363461, 9.945811, 9.933756 
7.7076274e+2, 2.050815e+2, -918282.56, -1023193.1, -15177.854, 0.032432884, -0.087018445, -916130.9, 14061.59, 0.00010600476, 9.945983, 9.932404 
7.696769e+2, 2.1501368e+2, -819643.8, -930143.9, -12881.927, 0.012191624, -0.09533625, -818161.94, 14694.881, 0.00007636227, 9.946252, 9.931902 
7.685911e+2, 2.2494489e+2, -727137.56, -847810.8, -14931.017, -0.0055810884, -0.09312966, -725317.56, 10213.274, 0.00006435175, 9.946312, 9.930826 
7.675052e+2, 2.348758e+2, -629284.25, -753308.3, -15384.65, -0.012538392, -0.08656237, -627404.3, 10803.511, 0.00007330035, 9.946428, 9.930649 
7.664199e+2, 2.4480563e+2, -542754.7, -675457.3, -15984.994, -0.025382083, -0.0988424, -540856.3, 38.785526, 0.00012953299, 9.946138, 9.929473 
7.653341e+2, 2.5473475e+2, -451506.28, -583430.44, -11746.38, -0.051236253, -0.12569962, -450468.56, -6879.009, 0.0003083801, 9.945795, 9.929246 
7.642489e+2, 2.6466396e+2, -360373.03, -492670.06, -13281.613, -0.075707756, -0.10724349, -359052.84, -12769.715, 0.0008046026, 9.945321, 9.9289875 
7.6316315e+2, 2.745934e+2, -265691.1, -396186.78, -11767.852, -0.08920238, -0.06775272, -264638.38, -15663.869, 0.0020509372, 9.945096, 9.929072 
7.6207894e+2, 2.8452137e+2, -179859.94, -322586.78, -4756.832, -0.09570106, -0.1002835, -179701.58, -28021.2, 0.0047424664, 9.945132, 9.9274645 
7.609948e+2, 2.9444832e+2, -75660.01, -224455.14, 36.387478, -0.10850965, -0.15190719, -75660.0, -21263.787, 0.009455561, 9.945725, 9.927159 
7.599118e+2, 3.0437636e+2, -44363.9, -182616.6, 7621.7964, -0.17044644, -0.055475473, -43944.98, -43944.98, 0.016022198, 9.944659, 9.927276 
7.5882787e+2, 3.1430188e+2, -22998.604, -55820.97, -8401.491, -0.30570108, -0.24388263, -20973.084, -20973.084, 0.023500623, 9.941324, 9.937176 
7.8937393e+2, 1.2667097e+2, -1689317.9, -1709272.0, -2871.9275, 0.18169822, -0.0630697, -1688912.8, 9705.824, 0.06232195, 9.943667, 9.940928 
7.882942e+2, 1.3661155e+2, -1582232.5, -1614101.6, -5518.554, 0.15605442, -0.08236524, -1581304.0, 19896.725, 0.042461146, 9.944582, 9.940172 
7.8721267e+2, 1.4655058e+2, -1488632.9, -1537044.5, -9321.199, 0.1345511, -0.081368536, -1486900.3, 16897.834, 0.024464397, 9.94496, 9.938437 
7.8613067e+2, 1.56489e+2, -1389311.3, -1443443.3, -10828.774, 0.118066445, -0.07325478, -1387225.5, 19175.89, 0.011363006, 9.9452095, 9.937905 
7.8504735e+2, 1.664261e+2, -1294331.0, -1361549.4, -13666.771, 0.101209715, -0.06945442, -1291658.5, 17359.094, 0.004107627, 9.9454975, 9.936582 
7.839637e+2, 1.7636257e+2, -1192286.9, -1267330.0, -14551.073, 0.08427982, -0.06953958, -1189564.3, 22075.807, 0.0011430016, 9.945977, 9.93602 
7.8287905e+2, 1.8629749e+2, -1101026.5, -1192653.9, -16141.792, 0.06272592, -0.0714113, -1098266.0, 16011.777, 0.00025201778, 9.946279, 9.9342375 
7.817942e+2, 1.9623157e+2, -1000900.5, -1097984.8, -16661.225, 0.036561493, -0.077948876, -998120.75, 18802.854, 0.000051052644, 9.946576, 9.933822 
7.8070885e+2, 2.061647e+2, -905689.44, -1013872.9, -18852.84, 0.023248186, -0.07932101, -902498.2, 17080.564, 0.00001464393, 9.946811, 9.932751 
7.796234e+2, 2.1609734e+2, -807039.8, -921269.25, -18360.953, 0.017633183, -0.081203416, -804161.06, 18077.498, 0.000007893293, 9.947079, 9.932243 
7.7853763e+2, 2.2602853e+2, -720623.7, -850414.8, -19445.1, 0.0011677078, -0.0748809, -717773.06, 7139.8467, 0.000006397142, 9.947102, 9.930378 
7.774517e+2, 2.3595895e+2, -623594.6, -755611.44, -18910.184, -0.020618346, -0.066959545, -620939.3, 6655.3794, 0.0000082325105, 9.947124, 9.930196 
7.76366e+2, 2.4588883e+2, -531427.25, -664988.3, -20012.377, -0.036845144, -0.076063745, -528493.1, 1788.7034, 0.000018101848, 9.946793, 9.929862 
7.7527994e+2, 2.5581837e+2, -442185.06, -574692.56, -16093.025, -0.053347252, -0.09919743, -440258.56, -7286.6045, 0.0000529717, 9.94633, 9.929555 
7.741944e+2, 2.6574758e+2, -356697.3, -493269.72, -15621.308, -0.07206585, -0.077941805, -354933.3, -19267.813, 0.00016578924, 9.945834, 9.928649 
7.731085e+2, 2.7567667e+2, -263368.72, -398530.2, -12921.609, -0.08870268, -0.038527492, -262144.5, -23784.04, 0.0004922456, 9.945564, 9.928634 
7.7202415e+2, 2.8560457e+2, -169036.67, -305233.9, -3670.2031, -0.11008525, -0.0955904, -168937.83, -27870.828, 0.00126956, 9.945558, 9.928339 
7.709401e+2, 2.9553184e+2, -75763.195, -218182.42, 2997.3787, -0.13879694, -0.18553497, -75700.14, -31920.738, 0.0027093673, 9.945635, 9.927481 
7.6985663e+2, 3.0546102e+2, -44668.02, -173635.88, 2715.4153, -0.12351632, -0.0037717556, -44610.87, -44610.87, 0.0047746627, 9.944229, 9.92764 
7.6877147e+2, 3.1538853e+2, 50241.73, 74648.695, -7352.7896, -0.12216665, -0.05490741, 76692.61, 76692.61, 0.007164373, 9.942168, 9.945085 
7.9931843e+2, 1.277517e+2, -1665531.8, -1695627.6, 4857.769, 0.17791164, -0.03577591, -1664767.1, 23262.328, 0.04048696, 9.94512, 9.941141 
7.982393e+2, 1.3769265e+2, -1564041.5, -1603238.0, 996.4903, 0.14468095, -0.037085053, -1564016.1, 26591.666, 0.027255554, 9.945596, 9.940382 
7.9715794e+2, 1.4763194e+2, -1472333.1, -1524635.8, -2947.9182, 0.123261094, -0.042816106, -1472167.5, 21034.908, 0.015450949, 9.94569, 9.938887 
7.960763e+2, 1.5757066e+2, -1374150.9, -1431967.9, -4600.723, 0.11157405, -0.049522165, -1373787.1, 22015.736, 0.0070204227, 9.945865, 9.938316 
7.949932e+2, 1.6750804e+2, -1280950.5, -1352403.3, -6050.143, 0.09616932, -0.05165853, -1280441.9, 17974.443, 0.0024614362, 9.946117, 9.936884 
7.9390997e+2, 1.774448e+2, -1179857.1, -1258817.4, -7576.4272, 0.077479, -0.053613402, -1179136.8, 21899.24, 0.00065384543, 9.946523, 9.936305 
7.9282576e+2, 1.8737999e+2, -1088874.3, -1184299.4, -8682.685, 0.060977258, -0.05433642, -1088090.6, 15580.253, 0.00013178977, 9.946786, 9.934543 
7.9174125e+2, 1.9731441e+2, -988485.2, -1090294.5, -9282.359, 0.04474416, -0.05687058, -987645.8, 18667.586, 0.000020838195, 9.947119, 9.93405 
7.906562e+2, 2.0724751e+2, -896091.25, -1012383.3, -11490.376, 0.028187195, -0.05805656, -894966.75, 14002.016, 0.0000030700608, 9.947379, 9.932563 
7.895709e+2, 2.1718004e+2, -795944.94, -917575.5, -13122.236, 0.014163243, -0.059065364, -794545.3, 17084.635, 0.0000007641596, 9.947648, 9.932239 
7.884852e+2, 2.271114e+2, -707326.5, -840712.2, -13975.825, -0.0028310863, -0.05880605, -705877.9, 8424.505, 0.0000004991851, 9.94761, 9.930773 
7.8739923e+2, 2.3704207e+2, -612867.5, -748706.0, -11603.539, -0.022549272, -0.058395095, -611883.44, 5098.3584, 0.00000074798805, 9.947523, 9.930371 
7.8631324e+2, 2.4697189e+2, -521690.8, -663409.5, -14476.693, -0.040041566, -0.061455473, -520227.13, -557.6648, 0.000002108535, 9.947372, 9.929604 
7.8522694e+2, 2.5690144e+2, -426777.34, -569592.56, -15738.949, -0.05363463, -0.071643844, -425063.4, -2703.599, 0.000007667306, 9.947246, 9.9295 
7.841408e+2, 2.668306e+2, -340820.6, -487294.44, -17631.938, -0.07232992, -0.052979097, -338728.03, -13674.253, 0.000028726923, 9.946812, 9.928645 
7.830544e+2, 2.7675954e+2, -251450.94, -394568.1, -13896.718, -0.09356646, -0.024350898, -250114.05, -22363.992, 0.000097045544, 9.9463215, 9.928598 
7.819699e+2, 2.866875e+2, -160385.73, -295696.94, -10526.299, -0.11009934, -0.10101396, -159571.75, -29115.95, 0.00027070194, 9.9458475, 9.928981 
7.808855e+2, 2.9661533e+2, -79422.01, -213269.6, -9656.156, -0.12573743, -0.21342756, -78728.97, -45565.867, 0.0006032906, 9.944979, 9.928375 
7.798004e+2, 3.0654758e+2, -31735.38, -147422.05, -9799.673, -0.12851319, 0.118814915, -30911.137, -30911.137, 0.0010882217, 9.943888, 9.929697 
7.787135e+2, 3.1647533e+2, 11402.902, -42083.43, 20084.314, -0.19444315, -0.052930553, 18104.865, 18104.865, 0.0016542588, 9.944132, 9.93668 
8.09264e+2, 1.2883225e+2, -1650831.6, -1685625.8, -1366.6523, 0.18334386, -0.016799493, -1650778.0, 26663.578, 0.024554512, 9.946133, 9.941501 
8.081849e+2, 1.3877358e+2, -1554242.8, -1595096.3, -6121.2495, 0.13331623, -0.016090753, -1553345.3, 26670.977, 0.016354568, 9.946231, 9.940772 
8.0710375e+2, 1.4871344e+2, -1459830.3, -1512522.4, -8352.981, 0.11456619, -0.019581383, -1458537.8, 24067.578, 0.009139995, 9.946408, 9.9395275 
8.0602247e+2, 1.5865272e+2, -1359558.4, -1420793.4, -10042.073, 0.10998765, -0.0293182, -1357953.6, 27246.512, 0.0040751924, 9.946799, 9.938765 
8.049396e+2, 1.6859043e+2, -1266845.5, -1343811.6, -10962.186, 0.09330781, -0.031542346, -1265314.6, 22496.0, 0.0013936987, 9.947119, 9.937164 
8.0385673e+2, 1.7852747e+2, -1165955.3, -1249671.1, -13662.804, 0.07193897, -0.033529125, -1163781.9, 26645.443, 0.0003581768, 9.947464, 9.936652 
8.027727e+2, 1.884631e+2, -1074928.8, -1173860.6, -13931.254, 0.05881858, -0.03436109, -1073004.5, 20053.563, 0.00006886962, 9.947676, 9.935001 
8.016887e+2, 1.9839796e+2, -976650.2, -1082598.0, -14170.405, 0.048537206, -0.03525076, -974787.6, 20908.596, 0.000009974997, 9.947929, 9.934336 
8.0060375e+2, 2.0833118e+2, -886945.0, -1009073.2, -14407.271, 0.029603373, -0.03527362, -885268.4, 13082.288, 0.00000112396, 9.948146, 9.932523 
7.995187e+2, 2.1826363e+2, -786506.7, -912271.6, -15215.607, 0.0073915264, -0.037680164, -784692.0, 16320.504, 0.00000012115316, 9.948341, 9.932309 
7.9843295e+2, 2.2819528e+2, -694851.94, -828835.94, -17209.586, -0.008044233, -0.044679876, -692676.75, 11005.243, 0.000000034244362, 9.948289, 9.9312935 
7.973469e+2, 2.3812632e+2, -603430.94, -742342.2, -15379.606, -0.023260085, -0.054329194, -601748.56, 4608.9487, 0.000000055878484, 9.948163, 9.930543 
7.9626065e+2, 2.4805586e+2, -519133.78, -669661.25, -17181.613, -0.043444563, -0.04682404, -517197.53, -8149.5244, 0.00000020759687, 9.947966, 9.928898 
7.951741e+2, 2.5798488e+2, -425804.97, -575671.0, -17996.996, -0.06365651, -0.038859103, -423674.06, -11930.057, 0.00000094466003, 9.94769, 9.928842 
7.940877e+2, 2.6791337e+2, -338873.88, -487651.44, -20842.623, -0.074404724, -0.043745037, -336009.13, -21564.854, 0.0000041534922, 9.947103, 9.928398 
7.9300094e+2, 2.7784163e+2, -254716.58, -402640.75, -16458.662, -0.08466144, -0.05211415, -252907.44, -35760.113, 0.000015437032, 9.946493, 9.927908 
7.919158e+2, 2.8776893e+2, -171289.19, -317161.75, -17853.395, -0.11216662, -0.06745825, -169135.89, -49276.3, 0.000045289304, 9.945903, 9.927457 
7.908303e+2, 2.9769644e+2, -83202.04, -221078.42, -21363.201, -0.14957915, -0.07878415, -79967.8, -57397.66, 0.000103561644, 9.945108, 9.927879 
7.8974515e+2, 3.0762762e+2, -5100.3823, -116087.98, -23555.914, -0.124297634, 0.054175943, -307.84045, -307.84045, 0.00018932333, 9.945209, 9.931471 
7.886587e+2, 3.175549e+2, 3394.1543, -95444.555, 16326.061, -0.2396547, -0.2513907, 6021.0566, 6021.0566, 0.00028985128, 9.946234, 9.932571 
8.192107e+2, 1.2991263e+2, -1631406.3, -1671850.0, 6910.4624, 0.18398178, -0.002863918, -1630258.0, 36597.363, 0.013656359, 9.947039, 9.941853 
8.1813145e+2, 1.3985406e+2, -1540006.6, -1583422.0, 1932.0481, 0.12909454, -0.027066411, -1539920.8, 29508.254, 0.00901513, 9.946753, 9.941156 
8.1705046e+2, 1.4979453e+2, -1446178.6, -1499072.4, 1604.4896, 0.115879744, -0.022488955, -1446130.0, 25882.068, 0.0049783196, 9.946819, 9.9401655 
8.159696e+2, 1.5973455e+2, -1348985.8, -1411807.9, -1082.8971, 0.11723781, -0.017605564, -1348967.1, 25632.832, 0.0021846793, 9.947114, 9.939142 
8.148871e+2, 1.6967249e+2, -1259027.9, -1339118.5, -1017.449, 0.09705433, -0.013444639, -1259015.0, 18193.18, 0.0007317571, 9.947371, 9.937306 
8.138045e+2, 1.7960976e+2, -1156659.1, -1242649.8, -4672.226, 0.070098154, -0.011596866, -1156406.0, 23416.883, 0.0001830531, 9.947723, 9.936939 
8.1272066e+2, 1.8954575e+2, -1064287.8, -1164214.9, -4708.2744, 0.051556814, -0.017975112, -1064066.4, 18383.566, 0.000033989887, 9.947942, 9.935476 
8.116368e+2, 1.9948103e+2, -965357.8, -1072166.3, -5367.9473, 0.037176996, -0.024383098, -965088.7, 19995.246, 0.000004694803, 9.948208, 9.934854 
8.105522e+2, 2.094148e+2, -874910.5, -997664.94, -4521.6426, 0.025140973, -0.023250032, -874744.2, 12988.655, 0.0000004859859, 9.948458, 9.933076 
8.0946743e+2, 2.1934773e+2, -775939.7, -905216.9, -5015.431, 0.010653422, -0.022772431, -775745.4, 14644.567, 0.000000038929947, 9.948695, 9.932504 
8.083816e+2, 2.2927931e+2, -685724.56, -827424.0, -9444.86, -0.008002316, -0.02513163, -685097.8, 7962.445, 0.000000003568861, 9.948758, 9.931097 
8.0729544e+2, 2.392103e+2, -590577.5, -737412.1, -10882.971, -0.025951331, -0.030284522, -589775.25, 5961.183, 0.0000000037001622, 9.948813, 9.930585 
8.0620915e+2, 2.4913992e+2, -502276.63, -660655.9, -11709.097, -0.044722624, -0.028269747, -501415.63, -2989.639, 0.000000018601064, 9.948836, 9.929036 
8.0512244e+2, 2.5906888e+2, -407878.1, -569020.9, -9863.205, -0.06483716, -0.0220931, -407276.63, -6154.404, 0.00000010586037, 9.948756, 9.9286175 
8.040354e+2, 2.6899698e+2, -319308.4, -481628.06, -15650.554, -0.07347547, -0.03401689, -317813.2, -13986.558, 0.0000005305501, 9.948338, 9.928044 
8.02948e+2, 2.7892467e+2, -237163.9, -400269.9, -12417.919, -0.076482035, -0.056897093, -236223.89, -29689.072, 0.0000021070246, 9.947709, 9.927362 
8.018617e+2, 2.888517e+2, -165895.23, -324594.47, -10826.047, -0.1217247, -0.016739525, -165160.11, -55910.035, 0.00000638165, 9.94641, 9.926374 
8.00775e+2, 2.987789e+2, -83900.23, -224184.81, -7498.916, -0.18075494, 0.045387913, -83500.516, -71536.58, 0.000014819828, 9.944972, 9.927316 
7.996907e+2, 3.0870718e+2, -2544.757, -106324.15, -11675.579, -0.07520048, -0.12941317, -1247.4275, -1247.4275, 0.000027303191, 9.944996, 9.931974 
7.986049e+2, 3.1863794e+2, -2423.6448, -84013.36, 16667.137, -0.18171082, -0.112377964, 849.7842, 849.7842, 0.0000419671, 9.944932, 9.933772 
8.29158e+2, 1.3099389e+2, -1615228.3, -1658777.6, 1648.6893, 0.17601573, 0.008393915, -1615165.9, 41094.844, 0.006829297, 9.948021, 9.942312 
8.280787e+2, 1.409358e+2, -1525359.0, -1573697.4, -3826.7222, 0.13608569, -0.0063958913, -1525057.9, 33771.996, 0.0044781193, 9.94775, 9.941383 
8.2699776e+2, 1.5087648e+2, -1430839.6, -1488997.0, -2621.0662, 0.1171882, -0.0039903983, -1430721.8, 30689.174, 0.0024504783, 9.947879, 9.940495 
8.259171e+2, 1.6081686e+2, -1331908.3, -1399369.6, -7718.0225, 0.11508917, 0.0004685361, -1331036.6, 32958.36, 0.0010623109, 9.948203, 9.939629 
8.248347e+2, 1.7075537e+2, -1243686.4, -1326078.8, -4603.678, 0.09575538, 0.0027932462, -1243430.0, 23167.643, 0.00035011073, 9.9482765, 9.93788 
8.237524e+2, 1.8069313e+2, -1144727.8, -1232219.5, -6528.9683, 0.06889107, 0.0043532364, -1144243.3, 24964.2, 0.00008574844, 9.948423, 9.937366 
8.226688e+2, 1.9062954e+2, -1051273.6, -1153361.0, -6173.737, 0.04681308, -0.0024192948, -1050901.6, 20928.777, 0.00001549313, 9.948721, 9.935915 
8.215851e+2, 2.0056526e+2, -951508.8, -1060366.3, -7719.8926, 0.028865527, -0.011189992, -950964.06, 23495.896, 0.0000020664204, 9.949006, 9.935354 
8.205008e+2, 2.104996e+2, -862018.25, -985376.56, -7339.4155, 0.02207674, -0.010566453, -861583.1, 15520.166, 0.00000020419303, 9.949153, 9.93368 
8.194163e+2, 2.2043304e+2, -768130.7, -901014.44, -8330.641, 0.013092747, -0.008251525, -767610.44, 12145.055, 0.00000001503395, 9.949271, 9.93261 
8.1833047e+2, 2.3036447e+2, -680509.8, -829367.44, -11083.571, -0.009944668, -0.0015414817, -679689.1, 2738.4534, 0.0000000008679418, 9.949374, 9.930698 
8.1724435e+2, 2.4029519e+2, -583142.25, -733656.56, -10886.411, -0.032569785, 0.00044613064, -582358.94, 2747.6091, 0.00000000036080108, 9.94939, 9.930552 
8.161581e+2, 2.5022498e+2, -493523.7, -650709.1, -12433.903, -0.044416074, -0.0139203435, -492546.2, -4751.8696, 0.0000000031335838, 9.949275, 9.929463 
8.1507134e+2, 2.60154e+2, -405529.22, -569402.7, -10848.807, -0.059788506, -0.02257424, -404814.13, -14324.89, 0.000000023315904, 9.949058, 9.928394 
8.1398374e+2, 2.7008176e+2, -322362.72, -490944.84, -18167.031, -0.07901256, -0.004575703, -320427.2, -27229.617, 0.00000013162074, 9.9485445, 9.927219 
8.128957e+2, 2.8000906e+2, -236185.1, -399962.5, -15742.436, -0.09366511, -0.0013724407, -234685.66, -38775.445, 0.00000055062003, 9.947847, 9.927216 
8.118082e+2, 2.8993598e+2, -158342.27, -311378.84, -15892.85, -0.12629129, -0.016071394, -156709.22, -58083.0, 0.0000017072252, 9.946542, 9.926986 
8.1072026e+2, 2.9986307e+2, -79947.12, -222196.92, -4892.058, -0.17267893, -0.00011540876, -79779.08, -78438.66, 0.000004008279, 9.945363, 9.927019 
8.0963606e+2, 3.0979115e+2, -7605.142, -123670.016, -9008.894, -0.07110658, -0.07422016, -6910.0396, -6910.0396, 0.0000074253876, 9.945518, 9.930358 
8.0854875e+2, 3.1972358e+2, -2083.7974, -61998.145, -7915.123, -0.22469498, 0.22176193, -1055.7902, -1055.7902, 0.000011439198, 9.943492, 9.9355955 
8.3910626e+2, 1.320756e+2, -1605346.8, -1649146.3, 8613.611, 0.172971, 0.025625098, -1603713.8, 41948.105, 0.0030089617, 9.948233, 9.942733 
8.3802664e+2, 1.4201806e+2, -1517490.8, -1568408.0, 3416.3877, 0.14142224, 0.037457373, -1517262.6, 30963.031, 0.0019641386, 9.947968, 9.941495 
8.3694565e+2, 1.5195875e+2, -1425696.5, -1485517.8, 8653.467, 0.11147486, 0.030871741, -1424469.9, 26336.805, 0.0010681495, 9.947947, 9.940606 
8.358653e+2, 1.6189928e+2, -1324390.9, -1389118.1, 2325.567, 0.10201078, 0.023838365, -1324307.4, 29081.95, 0.00045917454, 9.948156, 9.940217 
8.34783e+2, 1.7183854e+2, -1233576.6, -1310773.1, 6020.2627, 0.08970155, 0.016664919, -1233110.0, 22874.262, 0.00014963388, 9.948239, 9.9388275 
8.3370095e+2, 1.8177707e+2, -1137027.6, -1222557.6, 4160.624, 0.069106095, 0.013653325, -1136825.6, 21760.78, 0.00003610315, 9.948411, 9.937915 
8.326177e+2, 1.9171397e+2, -1044107.8, -1146281.9, 5674.134, 0.051506754, 0.018311368, -1043793.7, 17410.986, 0.0000063962675, 9.948779, 9.936282 
8.3153445e+2, 2.0165011e+2, -943256.56, -1053521.6, 2967.0063, 0.03655137, 0.017915998, -943176.8, 20653.451, 0.00000083170164, 9.949142, 9.935659 
8.304502e+2, 2.1158467e+2, -853547.1, -978770.75, 2379.9077, 0.02274503, 0.011415751, -853501.9, 12969.594, 0.00000007956064, 9.949311, 9.93398 
8.2936573e+2, 2.215184e+2, -756637.3, -890453.0, 1302.8005, 0.007357671, 0.007883366, -756624.7, 12495.993, 0.0000000056202927, 9.949537, 9.933146 
8.282802e+2, 2.3145044e+2, -663124.3, -814238.44, 1225.1278, -0.016082115, 0.012384178, -663114.4, 8672.289, 0.00000000032897485, 9.949987, 9.931297 
8.2719433e+2, 2.4138157e+2, -563844.7, -722231.25, 2949.7026, -0.03597728, 0.014735876, -563789.75, 10671.784, 0.0000000005233786, 9.950309, 9.930668 
8.261079e+2, 2.5131133e+2, -477510.97, -643305.7, -2793.5896, -0.044774435, 0.0027349887, -477463.9, -314.17197, 0.0000000056856466, 9.950058, 9.929416 
8.250208e+2, 2.612404e+2, -391455.44, -562514.94, -3621.758, -0.057302106, -0.00582411, -391378.8, -11534.237, 0.000000045350376, 9.949691, 9.928455 
8.239327e+2, 2.7116817e+2, -307094.34, -484435.44, -7581.91, -0.08547085, 0.021149889, -306770.78, -24218.234, 0.000000263196, 9.9493065, 9.927017 
8.2284373e+2, 2.810953e+2, -218231.88, -390239.56, -3676.576, -0.10582561, 0.0338746, -218153.31, -32886.6, 0.0000011138778, 9.948677, 9.927104 
8.2175505e+2, 2.9102185e+2, -140400.86, -298665.97, -11877.311, -0.11950858, -0.028627614, -139514.47, -51528.41, 0.0000034710774, 9.947206, 9.927234 
8.2066596e+2, 3.0094883e+2, -73586.68, -222657.81, 668.5129, -0.15007529, -0.042095855, -73583.68, -73583.68, 0.0000081673015, 9.945685, 9.926702 
8.1958103e+2, 3.1087783e+2, -28590.45, -147580.61, 3122.1858, -0.09596294, 0.07838617, -28508.582, -28508.582, 0.000015151866, 9.94446, 9.928912 
8.184911e+2, 3.2080573e+2, 1066.2584, -29079.201, -32381.396, -0.21508665, -0.02077591, 21711.06, 21711.06, 0.000023353878, 9.941053, 9.93809 
8.490551e+2, 1.3315718e+2, -1586867.3, -1638221.3, 1280.0549, 0.18718942, 0.041061845, -1586835.4, 48228.73, 0.0011421927, 9.949549, 9.942983 
8.4797496e+2, 1.4310011e+2, -1496469.5, -1551547.0, -5932.3228, 0.12248173, 0.059532195, -1495837.8, 41785.523, 0.0007435361, 9.949205, 9.942166 
8.4689397e+2, 1.530416e+2, -1406680.1, -1467602.0, 4474.6553, 0.10852148, 0.047599483, -1406353.3, 33843.266, 0.00040280866, 9.948966, 9.941447 
8.458137e+2, 1.629828e+2, -1310198.3, -1375965.3, -701.3941, 0.10577535, 0.03800419, -1310190.8, 32581.723, 0.00017225166, 9.948936, 9.9407835 
8.4473157e+2, 1.7292272e+2, -1217808.8, -1296277.1, 2017.9988, 0.08642011, 0.03399403, -1217756.9, 27604.137, 0.00005573453, 9.9491, 9.939538 
8.436496e+2, 1.8286194e+2, -1122226.5, -1209908.3, -1186.8323, 0.0650526, 0.031399287, -1122210.5, 25745.967, 0.000013319515, 9.949254, 9.93853 
8.4256667e+2, 1.9279946e+2, -1032448.5, -1135144.0, 2935.4395, 0.053608026, 0.038704887, -1032364.7, 18203.898, 0.00000232996, 9.949419, 9.936864 
8.414838e+2, 2.0273615e+2, -934520.3, -1045298.6, 1046.6345, 0.0416215, 0.042517003, -934510.44, 18678.436, 0.00000029792903, 9.949625, 9.936068 
8.403996e+2, 2.1267104e+2, -843468.7, -970266.5, 1938.9034, 0.021137362, 0.032211732, -843439.06, 12387.786, 0.000000027884646, 9.949896, 9.934313 
8.393153e+2, 2.2260517e+2, -744468.25, -876975.75, 2316.2434, -0.0012628472, 0.023527205, -744427.8, 14044.331, 0.0000000019195514, 9.95011, 9.933813 
8.3823025e+2, 2.3253798e+2, -652745.44, -799328.25, 1664.9595, -0.02271125, 0.022529956, -652726.56, 8403.772, 0.00000000019847783, 9.950356, 9.932172 
8.371447e+2, 2.4246967e+2, -561928.4, -721767.7, 1944.0017, -0.04055904, 0.023946306, -561904.7, 1895.0309, 0.000000001540536, 9.950504, 9.93062 
8.360579e+2, 2.5239918e+2, -478253.5, -648451.2, -4267.4897, -0.0486163, 0.026919873, -478146.56, -11655.951, 0.000000016924494, 9.950237, 9.928922 
8.349705e+2, 2.623281e+2, -386972.44, -555549.9, -3967.9097, -0.06324833, 0.024328485, -386879.1, -17691.912, 0.00000013515553, 9.9498415, 9.928782 
8.33882e+2, 2.722562e+2, -300814.34, -472568.2, -8742.071, -0.09120106, 0.024229167, -300370.53, -28479.309, 0.00000078460795, 9.949418, 9.927656 
8.3279246e+2, 2.8218335e+2, -222208.42, -398754.5, -6413.1914, -0.107655026, 0.023923937, -221975.77, -47370.758, 0.0000033204878, 9.948729, 9.926354 
8.3170253e+2, 2.92109e+2, -147485.53, -316245.66, -19653.656, -0.10419929, 0.0007049977, -145226.92, -67893.23, 0.000010346408, 9.947351, 9.925828 
8.306119e+2, 3.020355e+2, -65729.414, -208700.95, -9107.164, -0.139521, 0.004392288, -65151.63, -65151.63, 0.000024338526, 9.945787, 9.927501 
8.29524e+2, 3.1196547e+2, -35078.977, -132243.19, -3860.464, -0.15151, 0.07465431, -34925.836, -34925.836, 0.00004513807, 9.943169, 9.930215 
8.284328e+2, 3.218922e+2, 7324.2344, -45444.63, -28081.324, -0.20089956, -0.13852763, 19471.594, 19471.594, 0.00006958379, 9.942547, 9.936008 
8.5900474e+2, 1.342391e+2, -1582799.3, -1633711.8, 11135.406, 0.188893, 0.058002684, -1580470.3, 43992.754, 0.00036341642, 9.949511, 9.943086 
8.579238e+2, 1.4418232e+2, -1493067.0, -1539412.5, 2654.9666, 0.101304375, 0.06606587, -1492915.4, 34104.027, 0.00023620963, 9.948717, 9.942989 
8.568429e+2, 1.5412481e+2, -1399594.5, -1451563.6, 14725.484, 0.114585064, 0.051233064, -1395712.1, 33870.48, 0.00012768328, 9.948646, 9.94256 
8.557628e+2, 1.6406684e+2, -1307991.5, -1371107.4, 8732.776, 0.12115689, 0.04708513, -1306805.5, 25345.033, 0.000054433065, 9.94866, 9.941121 
8.546806e+2, 1.7400718e+2, -1215440.3, -1291850.6, 12892.728, 0.082946144, 0.058015246, -1213323.5, 21411.578, 0.00001753889, 9.948865, 9.939862 
8.535988e+2, 1.8394691e+2, -1115885.3, -1198639.9, 8564.319, 0.053184908, 0.057838768, -1115008.1, 22317.275, 0.000004167791, 9.949045, 9.939293 
8.5251606e+2, 1.9388516e+2, -1024870.6, -1121677.8, 13642.517, 0.049872305, 0.048518334, -1022984.8, 16945.54, 0.00000072355056, 9.949227, 9.9377775 
8.514334e+2, 2.0382266e+2, -926195.2, -1032061.25, 12760.914, 0.04123159, 0.046075024, -924678.75, 17863.912, 0.00000009158835, 9.949512, 9.936916 
8.503496e+2, 2.1375853e+2, -831926.44, -954991.0, 15203.476, 0.017870305, 0.047687855, -830076.06, 15095.03, 0.000000008458324, 9.949974, 9.935188 
8.4926564e+2, 2.2369343e+2, -733187.2, -865684.06, 15439.774, -0.0039050458, 0.04582856, -731411.8, 16396.95, 0.00000000058265287, 9.950302, 9.934338 
8.481807e+2, 2.336267e+2, -643788.2, -789883.4, 13045.801, -0.021036055, 0.042655636, -642632.4, 7830.2544, 0.0000000002773134, 9.950407, 9.932669 
8.470952e+2, 2.4355893e+2, -551101.8, -709244.2, 13701.681, -0.036916878, 0.041524887, -549923.5, 3203.078, 0.0000000037693595, 9.950577, 9.931322 
8.460085e+2, 2.5348908e+2, -458970.94, -632221.7, 11337.425, -0.050033614, 0.044428587, -458232.16, -2421.1821, 0.000000041425366, 9.950883, 9.929442 
8.449208e+2, 2.6341838e+2, -362072.94, -539537.1, 13779.254, -0.067578614, 0.043055404, -361009.44, -2505.5608, 0.0000003307569, 9.95098, 9.928974 
8.438318e+2, 2.7334654e+2, -277696.97, -458000.44, 2872.9905, -0.0955314, 0.0322014, -277651.2, -16443.865, 0.0000019196316, 9.950441, 9.927904 
8.427416e+2, 2.8327364e+2, -205620.27, -394901.97, 3149.2974, -0.10387042, 0.0279196, -205567.89, -41646.383, 0.000008122093, 9.949562, 9.925937 
8.416502e+2, 2.931989e+2, -136500.23, -319150.3, -5102.7554, -0.0910251, 0.03743171, -136357.78, -69703.49, 0.000025306756, 9.947932, 9.924824 
8.4055763e+2, 3.0312523e+2, -45087.49, -184024.17, 5123.4243, -0.14237912, 0.048162427, -44898.813, -44898.813, 0.00005952913, 9.945975, 9.928491 
8.3946633e+2, 3.1305572e+2, -16186.131, -102870.54, -1603.4261, -0.20925568, 0.018162694, -16156.482, -16156.482, 0.000110368244, 9.942907, 9.931911 
8.383761e+2, 3.2298446e+2, -25989.402, -102437.16, 8151.565, -0.15207855, 0.044757187, -25129.871, -25129.871, 0.00017012702, 9.942228, 9.932247 
8.689546e+2, 1.3532275e+2, -1558716.4, -1611778.8, 3679.4207, 0.16831692, 0.098283045, -1558462.5, 55382.58, 0.00009383463, 9.950676, 9.943888 
8.67873e+2, 1.4526607e+2, -1479485.8, -1528836.9, 263.12393, 0.11553383, 0.06841882, -1479484.4, 36915.973, 0.00006094004, 9.949572, 9.943248 
8.6679196e+2, 1.5520915e+2, -1381121.4, -1437401.8, 12527.792, 0.11355031, 0.0727359, -1378458.8, 40499.1, 0.00003290037, 9.949788, 9.943069 
8.6571187e+2, 1.6515179e+2, -1288261.4, -1354799.6, 3822.3804, 0.117089346, 0.07275615, -1288042.5, 33477.246, 0.000014001087, 9.949769, 9.941778 
8.646297e+2, 1.7509279e+2, -1200506.3, -1277094.6, 12102.345, 0.08082698, 0.07700169, -1198639.4, 25458.422, 0.0000045003767, 9.949621, 9.940544 
8.63548e+2, 1.8503317e+2, -1102258.4, -1183627.6, 8228.103, 0.05055892, 0.0747748, -1101434.8, 25247.025, 0.0000010659371, 9.94967, 9.940026 
8.6246544e+2, 1.949722e+2, -1008992.75, -1104408.9, 13061.949, 0.04780396, 0.059235245, -1007236.94, 22042.127, 0.00000018424288, 9.949958, 9.93866 
8.6138314e+2, 2.0491053e+2, -912246.3, -1016042.06, 11678.825, 0.038436834, 0.055367116, -910948.44, 20934.582, 0.000000023185766, 9.950127, 9.937791 
8.6029965e+2, 2.1484745e+2, -820931.6, -939048.94, 14130.549, 0.013703398, 0.06480229, -819264.7, 15236.547, 0.0000000021246724, 9.950338, 9.936195 
8.592159e+2, 2.2478318e+2, -727716.06, -857904.06, 13919.38, -0.006050112, 0.068722956, -726244.5, 10886.418, 0.00000000016612903, 9.95049, 9.934846 
8.581312e+2, 2.3471692e+2, -638561.6, -782654.75, 12744.243, -0.017283443, 0.06534807, -637443.1, 2337.1448, 0.00000000051179117, 9.950591, 9.933087 
8.570459e+2, 2.4464987e+2, -541247.06, -691201.06, 15409.625, -0.03342693, 0.06052153, -539679.9, 2757.2317, 0.000000007637945, 9.950743, 9.932484 
8.559594e+2, 2.5458115e+2, -450065.22, -613939.06, 12373.584, -0.053002723, 0.05414618, -449136.22, -4025.9744, 0.000000083945466, 9.950957, 9.930637 
8.5487175e+2, 2.6451093e+2, -365510.7, -545259.8, 13344.054, -0.07560831, 0.053409427, -364525.44, -16727.143, 0.0000006702643, 9.950957, 9.928546 
8.5378224e+2, 2.7443856e+2, -282584.7, -467560.25, 168.59348, -0.10188457, 0.058190882, -282584.53, -32077.117, 0.000003889783, 9.950444, 9.92717 
8.526912e+2, 2.843656e+2, -199210.5, -381352.72, -2056.2478, -0.10758078, 0.05605657, -199187.28, -45964.78, 0.000016460805, 9.949563, 9.92673 
8.515982e+2, 2.9429165e+2, -128911.82, -303692.78, -10172.936, -0.096295685, 0.050518464, -128321.71, -72374.93, 0.000051319832, 9.947947, 9.925636 
8.505037e+2, 3.0421776e+2, -52534.08, -203864.69, -4102.7285, -0.15475233, 0.059287228, -52422.93, -52422.93, 0.000120814846, 9.946108, 9.926858 
8.494095e+2, 3.141462e+2, -23155.28, -128154.92, -23991.775, -0.20243585, 0.031319737, -17933.037, -17933.037, 0.00022411745, 9.943257, 9.930034 
8.48317e+2, 3.2407588e+2, -36618.383, -66685.484, -9858.865, -0.1351049, 0.11169013, -33674.035, -33674.035, 0.00034556063, 9.939827, 9.935671 
8.789047e+2, 1.3640693e+2, -1564124.1, -1604380.5, 5359.891, 0.16168737, 0.11668397, -1563422.8, 39799.055, 0.000019043677, 9.949572, 9.944717 
8.778225e+2, 1.4635056e+2, -1481908.0, -1528307.5, 7457.6753, 0.13402313, 0.07859692, -1480738.9, 25035.133, 0.000012362725, 9.949157, 9.943356 
8.767415e+2, 1.5629405e+2, -1384413.8, -1436673.9, 22710.613, 0.100255065, 0.109232634, -1375923.6, 32404.113, 0.0000066696857, 9.949289, 9.94327 
8.756613e+2, 1.6623722e+2, -1285715.9, -1342532.4, 11167.582, 0.1036597, 0.105067015, -1283599.6, 27284.746, 0.000002835376, 9.949224, 9.942732 
8.7457925e+2, 1.76179e+2, -1196383.6, -1263177.4, 20803.412, 0.08775481, 0.08348017, -1190434.3, 23020.271, 0.0000009100635, 9.949153, 9.941605 
8.734976e+2, 1.8612018e+2, -1100385.6, -1176215.5, 18032.584, 0.059729528, 0.08123966, -1096315.9, 19714.842, 0.00000021513608, 9.949297, 9.940614 
8.7241536e+2, 1.9606006e+2, -1004756.3, -1094399.6, 23575.797, 0.04545163, 0.08513943, -998934.1, 19685.537, 0.000000037089958, 9.9496765, 9.939393 
8.713331e+2, 2.0599917e+2, -907458.75, -1005792.3, 21021.266, 0.032982767, 0.08384902, -903153.44, 18062.99, 0.0000000046516857, 9.949838, 9.938535 
8.702498e+2, 2.1593678e+2, -816470.5, -927665.44, 23610.646, 0.010826444, 0.083115384, -811664.8, 12162.781, 0.0000000004243601, 9.949957, 9.937077 
8.6916625e+2, 2.2587353e+2, -719105.75, -839627.8, 25195.668, -0.0073761665, 0.08168034, -714050.56, 12396.621, 0.000000000071721434, 9.950171, 9.936149 
8.6808175e+2, 2.3580858e+2, -625708.25, -761823.2, 26895.098, -0.019395439, 0.07778043, -620586.75, 8496.805, 0.0000000009082265, 9.950509, 9.934373 
8.6699665e+2, 2.4574265e+2, -528138.5, -673679.44, 30940.506, -0.03478462, 0.074951254, -521833.94, 9895.5205, 0.000000013717135, 9.950788, 9.933481 
8.659103e+2, 2.5567502e+2, -436639.78, -596033.6, 25591.521, -0.054591373, 0.070586056, -432631.72, 1760.3612, 0.00000015076724, 9.950956, 9.931724 
8.648226e+2, 2.6560593e+2, -350503.6, -526540.9, 30269.059, -0.076720364, 0.0703035, -345444.34, -8375.301, 0.0000012040975, 9.950992, 9.9295635 
8.637328e+2, 2.7553427e+2, -263147.0, -450001.22, 25984.861, -0.1026683, 0.07775137, -259600.72, -19829.48, 0.000006992764, 9.950862, 9.927612 
8.626411e+2, 2.8546178e+2, -169446.06, -356106.16, 24104.371, -0.108564086, 0.075761996, -166383.58, -23902.365, 0.000029645516, 9.950515, 9.927304 
8.615465e+2, 2.953883e+2, -97145.414, -279900.84, 9435.095, -0.10090788, 0.06156295, -96659.59, -51458.586, 0.00009271142, 9.949125, 9.926102 
8.6044985e+2, 3.053135e+2, -48984.258, -221169.84, 11536.292, -0.15205725, 0.06885158, -48214.777, -48214.777, 0.00021904535, 9.946403, 9.924799 
8.593526e+2, 3.1523964e+2, -43685.434, -162718.81, -1660.3933, -0.1714202, 0.04883946, -43662.277, -43662.277, 0.0004076256, 9.942085, 9.927264 
8.5825586e+2, 3.2517022e+2, 1187.8235, 28344.387, 3646.847, -0.1868456, 0.049200486, 28825.594, 28825.594, 0.00062983576, 9.938261, 9.941997 
8.888548e+2, 1.3749078e+2, -1545378.3, -1596320.3, 3062.6162, 0.14698182, 0.09281695, -1545194.9, 47406.625, 0.000002958578, 9.951078, 9.944647 
8.877726e+2, 1.4743556e+2, -1452506.6, -1503869.0, 1039.4429, 0.15396436, 0.116475634, -1452485.6, 42656.984, 0.0000019202917, 9.950751, 9.944294 
8.8669115e+2, 1.573797e+2, -1363957.8, -1417935.8, 21495.525, 0.09479688, 0.12036707, -1356443.6, 41246.332, 0.0000010355539, 9.950344, 9.944052 
8.8561076e+2, 1.6732344e+2, -1269387.1, -1328533.3, 9161.063, 0.097819775, 0.115952834, -1268000.8, 32240.271, 0.0000004399312, 9.950119, 9.943271 
8.845288e+2, 1.7726599e+2, -1177082.3, -1245537.6, 17005.484, 0.09035293, 0.09783916, -1173090.6, 29712.99, 0.00000014107277, 9.95016, 9.942436 
8.8344723e+2, 1.8720803e+2, -1084324.6, -1159770.9, 14841.617, 0.06173059, 0.09764622, -1081510.0, 23861.484, 0.00000003330806, 9.950074, 9.941467 
8.8236517e+2, 1.971489e+2, -992768.7, -1078908.1, 22326.316, 0.041762028, 0.108714186, -987325.94, 20624.8, 0.0000000057331504, 9.95013, 9.940307 
8.8128304e+2, 2.0708886e+2, -896559.25, -991236.25, 20317.797, 0.028066583, 0.1083001, -892383.2, 18155.955, 0.00000000071752804, 9.950223, 9.939382 
8.8019985e+2, 2.1702734e+2, -803524.44, -909843.7, 23764.145, 0.008365656, 0.09946847, -798454.5, 14687.379, 0.00000000006547386, 9.950384, 9.938106 
8.7911654e+2, 2.2696531e+2, -705406.1, -816453.5, 25518.69, -0.010898074, 0.0930604, -699822.7, 15926.833, 0.0000000000751049, 9.950453, 9.93764 
8.780322e+2, 2.3690191e+2, -615249.8, -740275.0, 26172.717, -0.025248403, 0.08724245, -609991.94, 8378.338, 0.0000000014740116, 9.950573, 9.935879 
8.769474e+2, 2.4683718e+2, -523705.13, -661192.8, 30690.6, -0.040027954, 0.08982888, -517165.3, 3839.2231, 0.000000022289091, 9.950693, 9.9344425 
8.758612e+2, 2.567706e+2, -432213.06, -581552.6, 25099.125, -0.056222003, 0.09387085, -428107.56, -4450.455, 0.00000024496487, 9.950769, 9.932816 
8.747737e+2, 2.6670337e+2, -337043.97, -492241.78, 30741.309, -0.074318424, 0.08811332, -331176.63, -4860.776, 0.0000019576619, 9.950759, 9.932007 
8.736837e+2, 2.7663383e+2, -250851.84, -421001.9, 26965.71, -0.09591194, 0.08127032, -246680.53, -17683.54, 0.000011400731, 9.95077, 9.929557 
8.7259173e+2, 2.8656214e+2, -171633.34, -361264.25, 21454.213, -0.10983828, 0.082401045, -169236.39, -37536.914, 0.000048632028, 9.950602, 9.926747 
8.714957e+2, 2.9648793e+2, -98382.12, -287492.7, 3444.3928, -0.11480717, 0.08207107, -98319.4, -63892.797, 0.00015357247, 9.949374, 9.925351 
8.703964e+2, 3.064131e+2, -35627.09, -195609.63, -5107.666, -0.14515938, 0.08267156, -35464.188, -35464.188, 0.00036699965, 9.946259, 9.926186 
8.6929464e+2, 3.163404e+2, -42296.66, -148514.61, -8249.368, -0.1297424, 0.04961665, -41659.797, -41659.797, 0.00068988913, 9.941322, 9.927877 
8.6819285e+2, 3.262699e+2, -36576.844, -22050.5, -7237.2383, -0.21196611, 0.040798843, -19060.318, -19060.318, 0.001073521, 9.936751, 9.939121 
8.988056e+2, 1.3857515e+2, -1558983.8, -1600977.8, 11084.6455, 0.16277482, 0.11395555, -1556237.5, 25738.95, 0.00000034527207, 9.950053, 9.944752 
8.9772314e+2, 1.4852081e+2, -1457119.4, -1492730.6, 4920.793, 0.16645944, 0.15109167, -1456452.0, 28056.852, 0.00000022408217, 9.949693, 9.945421 
8.966412e+2, 1.5846564e+2, -1366172.0, -1409667.8, 26240.865, 0.09224933, 0.111135244, -1353838.3, 33210.824, 0.00000012080618, 9.949631, 9.944884 
8.955607e+2, 1.6840987e+2, -1274652.3, -1328558.4, 14500.388, 0.09574876, 0.118139975, -1270999.3, 18596.264, 0.000000051297388, 9.949516, 9.943491 
8.944787e+2, 1.7835306e+2, -1178672.3, -1239945.4, 22836.61, 0.083827935, 0.12917402, -1171097.5, 21054.648, 0.00000001643881, 9.949632, 9.943013 
8.9339703e+2, 1.8829592e+2, -1081632.8, -1146018.1, 20242.549, 0.05604949, 0.12195333, -1075797.4, 18914.55, 0.000000003877973, 9.9495535, 9.942584 
8.923151e+2, 1.9823782e+2, -990166.2, -1064235.0, 28772.2, 0.04224055, 0.11549109, -980302.94, 16978.014, 0.00000000066676814, 9.949565, 9.941511 
8.91233e+2, 2.0817894e+2, -893571.3, -976611.9, 28185.934, 0.028694334, 0.11843332, -884908.1, 14949.743, 0.00000000008333369, 9.9496975, 9.940557 
8.9015007e+2, 2.1811879e+2, -798820.4, -893633.9, 32601.313, 0.0058570607, 0.11983602, -788692.4, 13754.874, 0.000000000010516922, 9.949915, 9.939333 
8.8906664e+2, 2.280578e+2, -703882.0, -804186.56, 33549.266, -0.011699114, 0.112679556, -693695.2, 11349.485, 0.000000000098867345, 9.94982, 9.93869 
8.879823e+2, 2.3799561e+2, -614827.06, -724833.5, 33654.703, -0.024048286, 0.10441785, -605347.75, 2306.0867, 0.0000000020481026, 9.949664, 9.93731 
8.868974e+2, 2.4793261e+2, -521906.63, -638064.5, 41865.938, -0.040048413, 0.107316226, -508390.03, 1880.9486, 0.0000000309748, 9.949523, 9.936456 
8.858111e+2, 2.5786808e+2, -432987.13, -558646.25, 41829.168, -0.05783028, 0.11233407, -420336.7, -7433.0786, 0.0000003404844, 9.949285, 9.934816 
8.8472337e+2, 2.67803e+2, -337279.72, -463788.8, 48370.574, -0.07528603, 0.10555213, -320904.8, -5364.0845, 0.0000027257568, 9.9489565, 9.934618 
8.836333e+2, 2.7773622e+2, -254393.11, -394577.78, 44724.45, -0.093658544, 0.095313966, -241339.72, -23144.686, 0.000015971164, 9.948605, 9.932232 
8.8254106e+2, 2.8766716e+2, -172502.13, -331254.22, 51915.11, -0.11089734, 0.096898176, -157032.31, -36160.46, 0.000069086105, 9.948305, 9.929284 
8.814441e+2, 2.9759476e+2, -91443.51, -264587.4, 59067.074, -0.13065, 0.0989302, -73212.69, -49631.445, 0.00022324533, 9.947736, 9.92665 
8.803424e+2, 3.0752128e+2, -7702.904, -165300.27, 44131.832, -0.14752267, 0.10363413, 3813.6997, 3813.6997, 0.0005485991, 9.94578, 9.926998 
8.792371e+2, 3.1744808e+2, -14841.901, -154134.86, 19070.828, -0.093056545, 0.077416845, -12278.072, -12278.072, 0.0010574318, 9.942825, 9.925549 
8.781305e+2, 3.2737312e+2, -24459.143, -72397.086, 11051.384, -0.23982622, 0.10550015, -22034.088, -22034.088, 0.001674894, 9.939248, 9.933295 
9.0875596e+2, 1.3966063e+2, -1534592.6, -1573980.8, 7270.1357, 0.15080586, 0.18203658, -1533293.6, 38046.67, 0.000000029867618, 9.95103, 9.946044 
9.076727e+2, 1.496063e+2, -1439561.9, -1478545.6, 4111.9604, 0.12004318, 0.1489752, -1439132.9, 34739.62, 0.000000019382966, 9.950706, 9.945915 
9.065914e+2, 1.595519e+2, -1342864.0, -1392193.3, 22656.145, 0.09817132, 0.13066532, -1334037.8, 42367.484, 0.000000010447276, 9.950995, 9.945509 
9.0551066e+2, 1.6949686e+2, -1254136.9, -1309622.6, 11969.453, 0.10488803, 0.13648827, -1251665.0, 27279.64, 0.000000004434464, 9.950542, 9.944308 
9.044285e+2, 1.7944092e+2, -1164241.8, -1222882.3, 24175.521, 0.079605706, 0.14851096, -1155560.3, 25932.596, 0.0000000014203173, 9.950211, 9.943849 
9.033467e+2, 1.8938461e+2, -1065354.3, -1127177.6, 20815.35, 0.049840637, 0.14056489, -1058999.3, 25045.129, 0.00000000033482794, 9.950232, 9.943524 
9.022649e+2, 1.9932754e+2, -971208.8, -1042386.9, 27960.633, 0.041085567, 0.12686165, -961538.9, 25064.508, 0.000000000057520166, 9.950351, 9.942655 
9.0118295e+2, 2.0926982e+2, -877938.8, -955553.7, 26819.777, 0.028495735, 0.13157132, -869572.94, 19595.803, 0.0000000000071813653, 9.950237, 9.94179 
9.0010005e+2, 2.1921109e+2, -786549.8, -873656.7, 30455.309, 0.0039438102, 0.13854966, -776957.9, 14786.284, 0.00000000000428494, 9.9501915, 9.940628 
8.9901656e+2, 2.2915122e+2, -692565.8, -786844.0, 31586.246, -0.012082092, 0.13340947, -682961.75, 11369.049, 0.00000000010849106, 9.950112, 9.93977 
8.9793205e+2, 2.3909035e+2, -598463.56, -697651.2, 32041.174, -0.02089074, 0.12369794, -589013.5, 7913.6816, 0.000000002258234, 9.9499855, 9.939028 
8.96847e+2, 2.4902959e+2, -501349.78, -598924.44, 39344.473, -0.03991144, 0.12440737, -487461.84, 12060.482, 0.000000034158017, 9.949716, 9.93908 
8.957603e+2, 2.5896776e+2, -416110.44, -523320.4, 38051.902, -0.062826514, 0.12604387, -403977.75, -1849.582, 0.00000037566133, 9.949305, 9.937275 
8.9467216e+2, 2.6890492e+2, -323291.94, -431093.94, 45569.156, -0.08533085, 0.12717815, -306610.63, -1866.9736, 0.00000301649, 9.94883, 9.9370165 
8.935819e+2, 2.7884084e+2, -233573.72, -346874.06, 41226.67, -0.10363867, 0.12762137, -220160.5, -12789.114, 0.000017853601, 9.948505, 9.935587 
8.924895e+2, 2.8877687e+2, -123040.87, -229492.28, 46693.414, -0.106056854, 0.11632508, -105462.26, 4535.8213, 0.000079075995, 9.948444, 9.936 
8.913918e+2, 2.9871038e+2, -58748.02, -197939.63, 63120.863, -0.1267484, 0.10077386, -34387.348, -21737.865, 0.00026623905, 9.947741, 9.931134 
8.9028704e+2, 3.0863973e+2, -19605.365, -177015.42, 34238.023, -0.19955419, 0.14278567, -12480.772, -12480.772, 0.00069019, 9.944788, 9.9263935 
8.8917863e+2, 3.1856364e+2, -47097.63, -209745.45, 8604.452, -0.16432823, 0.15344709, -46643.7, -46643.7, 0.0014013384, 9.942034, 9.921888 
8.8807076e+2, 3.284867e+2, 24202.56, -1235.2225, 13461.356, -0.18850155, 0.12204933, 30003.344, 30003.344, 0.0023083058, 9.940281, 9.936434 
9.1870624e+2, 1.4074576e+2, -1540751.5, -1564722.3, 6558.486, 0.13717876, 0.18227333, -1539074.4, 21633.13, 0.000000001903787, 9.949981, 9.947083 
9.176225e+2, 1.5069184e+2, -1448916.9, -1480582.5, 7980.52, 0.06636616, 0.14657968, -1447019.4, 16216.585, 0.0000000012354053, 9.949977, 9.946125 
9.1654235e+2, 1.6063817e+2, -1349928.5, -1388881.1, 25208.959, 0.115584485, 0.17126122, -1337548.6, 28213.092, 0.00000000066574474, 9.950188, 9.946084 
9.154611e+2, 1.7058392e+2, -1254352.9, -1295741.5, 12511.362, 0.12016975, 0.16008936, -1250864.9, 17428.19, 0.0000000002824927, 9.949852, 9.945519 
9.1437846e+2, 1.80529e+2, -1164642.0, -1211770.1, 26182.346, 0.076558344, 0.15017986, -1152981.4, 17849.975, 0.00000000009044054, 9.949661, 9.944831 
9.132968e+2, 1.904735e+2, -1067387.1, -1121465.1, 23845.129, 0.04187423, 0.15727462, -1058374.8, 15000.22, 0.000000000021308946, 9.949789, 9.944114 
9.122151e+2, 2.004173e+2, -970857.5, -1033021.94, 29785.766, 0.0351521, 0.15941598, -958889.8, 17035.686, 0.000000000003658245, 9.949938, 9.943478 
9.11133e+2, 2.1036029e+2, -878385.6, -944928.7, 27592.44, 0.03125395, 0.14671877, -868432.9, 10050.894, 0.00000000000045636807, 9.949687, 9.942768 
9.100499e+2, 2.2030255e+2, -787433.56, -859493.25, 31243.604, 0.011403887, 0.13851751, -775773.7, 5275.6743, 0.0000000000030655227, 9.949456, 9.941955 
9.089664e+2, 2.3024419e+2, -690857.06, -769669.9, 34189.813, -0.011553451, 0.14635521, -678092.56, 5528.6934, 0.0000000000903565, 9.949506, 9.941223 
9.078818e+2, 2.4018502e+2, -594829.3, -678617.25, 34745.406, -0.027325178, 0.14968188, -582295.8, 3905.2368, 0.0000000018811002, 9.949434, 9.940536 
9.067963e+2, 2.5012553e+2, -502339.66, -584493.5, 37438.79, -0.046044037, 0.14272445, -487838.0, 945.9081, 0.000000028451819, 9.948912, 9.940508 
9.05709e+2, 2.6006544e+2, -416383.78, -501916.88, 31361.242, -0.06637689, 0.13655612, -406117.28, -14744.962, 0.00000031314025, 9.948234, 9.93943 
9.046204e+2, 2.7000475e+2, -324206.4, -409148.4, 40578.69, -0.08236103, 0.14124234, -307937.16, -13970.181, 0.0000025239594, 9.947662, 9.939256 
9.035293e+2, 2.7994362e+2, -236924.64, -313212.2, 36315.277, -0.100882165, 0.14749408, -222402.05, -25835.756, 0.000015124688, 9.946536, 9.939053 
9.0243703e+2, 2.8988373e+2, -116711.91, -181124.38, 28918.107, -0.10240862, 0.12695546, -105634.21, -6481.49, 0.00006901787, 9.946665, 9.941088 
9.01338e+2, 2.9982382e+2, -52798.227, -123228.64, 25459.07, -0.11155705, 0.11583288, -44559.15, -42819.793, 0.00024569064, 9.944325, 9.938757 
9.2865914e+2, 1.4183016e+2, -1516605.4, -1563277.8, 7335.682, 0.30994594, 0.13870597, -1515479.6, 34602.777, 0.00000000008526822, 9.952178, 9.946229 
9.2757267e+2, 1.5177757e+2, -1421240.6, -1455439.5, 5400.102, 0.023683537, 0.1628406, -1420408.1, 32189.238, 0.00000000005532455, 9.951303, 9.94718 
9.2649287e+2, 1.6172484e+2, -1339731.9, -1375705.1, 26208.62, 0.14559318, 0.1907732, -1325931.5, 29182.582, 0.000000000029806633, 9.950518, 9.946743 
9.254113e+2, 1.7167129e+2, -1238168.0, -1278252.5, 12890.047, 0.12688729, 0.17925413, -1234380.8, 23258.025, 0.000000000012643394, 9.950563, 9.946361 
9.2432845e+2, 1.8161722e+2, -1142725.0, -1191264.0, 24743.154, 0.06306007, 0.16352893, -1132335.6, 27832.627, 0.0000000000040459667, 9.950751, 9.945741 
9.2324674e+2, 1.9156256e+2, -1051695.4, -1105124.6, 24209.076, 0.036547337, 0.17509967, -1042358.0, 20345.877, 0.000000000000952743, 9.950518, 9.9448805 
9.2216516e+2, 2.0150727e+2, -957853.56, -1016424.2, 30499.006, 0.037137873, 0.18302575, -944856.25, 20389.285, 0.00000000000016345195, 9.950408, 9.9443445 
9.210829e+2, 2.1145102e+2, -861735.9, -925969.56, 28010.166, 0.034282263, 0.15989982, -851237.44, 16558.924, 0.000000000000020373985, 9.950373, 9.943688 
9.1999966e+2, 2.213943e+2, -766408.1, -833993.1, 31796.941, 0.01542598, 0.14100263, -753800.4, 16551.375, 0.0000000000018606304, 9.950282, 9.943262 
9.18916e+2, 2.3133747e+2, -672076.1, -742951.56, 34060.6, -0.014787936, 0.16177762, -658361.5, 14547.167, 0.000000000055557395, 9.950095, 9.942762 
9.178312e+2, 2.4128002e+2, -580812.0, -657346.0, 32531.945, -0.037993982, 0.17651127, -568852.6, 6619.1807, 0.0000000011563022, 9.94981, 9.9418 
9.167451e+2, 2.5122127e+2, -491016.22, -569243.6, 34796.734, -0.05535516, 0.16022371, -477778.28, 268.9178, 0.000000017486771, 9.94929, 9.941347 
9.156573e+2, 2.6116255e+2, -396370.97, -467899.56, 28161.715, -0.067050025, 0.143049, -386614.2, -5991.606, 0.00000019261098, 9.948604, 9.941549 
9.145683e+2, 2.7110407e+2, -302904.28, -371021.13, 36075.887, -0.0632676, 0.1438713, -287349.75, -4154.5347, 0.000001557747, 9.947997, 9.94167 
9.1347605e+2, 2.8104576e+2, -219016.63, -282184.94, 31356.11, -0.08298745, 0.15078756, -206095.0, -20328.615, 0.000009437413, 9.946846, 9.940994 
9.1238356e+2, 2.909861e+2, -120504.734, -194052.48, 33672.887, -0.13805991, 0.14389694, -107416.99, -19065.424, 0.00004425717, 9.947065, 9.940405 
9.112824e+2, 3.0092964e+2, -4110.293, -28645.125, 11822.158, -0.14059165, 0.20321588, 659.10144, 659.10144, 0.00016661992, 9.94544, 9.944637 
9.3860954e+2, 1.4291506e+2, -1535630.4, -1566437.0, 9523.269, 0.18979746, 0.20644276, -1532924.1, 6528.291, 0.0000000000029415736, 9.95072, 9.946739 
9.375233e+2, 1.5286314e+2, -1427191.8, -1443828.1, 1548.46, -0.0002691995, 0.1776204, -1427048.9, 14911.809, 0.0000000000019083366, 9.950223, 9.948448 
9.364435e+2, 1.6281132e+2, -1343537.1, -1371371.1, 23639.313, 0.17951821, 0.19783984, -1330022.5, 14445.756, 0.0000000000010279229, 9.950064, 9.947287 
9.353617e+2, 1.727583e+2, -1241885.8, -1274525.5, 11952.033, 0.1228993, 0.2002539, -1237977.3, 9010.427, 0.0000000000004359048, 9.950194, 9.94684 
9.3427885e+2, 1.8270501e+2, -1142211.9, -1180218.5, 22365.287, 0.039038748, 0.19078636, -1131866.8, 17643.057, 0.0000000000001394446, 9.950412, 9.946683 
9.3319726e+2, 1.9265117e+2, -1050428.8, -1092867.9, 21169.498, 0.042180937, 0.18381563, -1041674.7, 10362.519, 0.00000000000003282296, 9.95018, 9.945895 
9.3211573e+2, 2.0259681e+2, -956955.1, -1005299.75, 28615.154, 0.057972908, 0.18488333, -943669.1, 10900.557, 0.0000000000000056283993, 9.950131, 9.945261 
9.310333e+2, 2.1254164e+2, -858172.75, -914102.75, 26436.29, 0.02882574, 0.18682969, -847655.06, 9455.094, 0.00000000000000070118843, 9.950332, 9.944547 
9.2994994e+2, 2.22486e+2, -760123.7, -819609.3, 28226.797, -0.005570877, 0.18183737, -748861.75, 10793.282, 0.00000000000083497646, 9.950359, 9.944223 
9.2886615e+2, 2.3242986e+2, -669589.06, -731329.6, 28187.057, -0.0173059, 0.18137664, -658656.44, 3548.7915, 0.0000000000249549, 9.949974, 9.943664 
9.27781e+2, 2.4237338e+2, -578397.6, -641682.1, 24799.75, -0.029411914, 0.18340683, -569837.1, -5078.5938, 0.00000000051935445, 9.949567, 9.943059 
9.266946e+2, 2.5231582e+2, -484601.03, -553380.6, 28868.383, -0.05507263, 0.17542596, -474090.47, -6768.151, 0.0000000078541085, 9.949476, 9.942344 
9.2560625e+2, 2.6225832e+2, -384517.1, -446213.47, 20517.092, -0.07071576, 0.16597839, -378317.2, -8431.59, 0.00000008654337, 9.949102, 9.942745 
9.245168e+2, 2.7220082e+2, -291243.9, -353661.13, 21982.762, -0.06349713, 0.1687354, -284278.97, -11830.271, 0.0000007013428, 9.948835, 9.942567 
9.2342395e+2, 2.821435e+2, -196801.66, -263899.5, 6076.734, -0.08931761, 0.17069143, -196255.77, -21245.127, 0.0000042783217, 9.9488735, 9.941497 
9.2233115e+2, 2.9208332e+2, -116633.5, -202454.7, 16748.941, -0.1644904, 0.18134913, -113480.59, -35880.215, 0.00002042177, 9.94906, 9.939042 
9.212314e+2, 3.0202544e+2, 56350.44, 8641.436, -12693.988, -0.13875723, 0.15090889, 59517.68, 59517.68, 0.00007993033, 9.951948, 9.944852 
9.485594e+2, 1.4400199e+2, -1500088.4, -1494757.5, 6997.1206, 0.12873529, 0.3110381, -1489935.3, 38866.824, 0.0, 9.950454, 9.951333 
9.4747424e+2, 1.5394923e+2, -1415690.0, -1440905.5, 7937.8, 0.038632873, 0.19418068, -1413399.3, 17919.451, 0.0, 9.95115, 9.9481535 
9.463942e+2, 1.6389756e+2, -1316866.4, -1352255.0, 23519.729, 0.17155209, 0.22201169, -1305128.3, 28696.625, 0.0, 9.951591, 9.947826 
9.4531214e+2, 1.7384523e+2, -1223950.9, -1256301.1, 14786.998, 0.1153514, 0.21928698, -1218210.5, 18127.098, 0.0, 9.9509945, 9.947635 
9.4422925e+2, 1.8379276e+2, -1130313.9, -1164613.4, 25294.322, 0.03232501, 0.20896176, -1116903.6, 21948.057, 0.0, 9.95079, 9.947468 
9.431477e+2, 1.9373964e+2, -1034022.3, -1075158.5, 22763.13, 0.046542443, 0.19848467, -1023911.3, 17460.629, 0.0, 9.95088, 9.946725 
9.4206613e+2, 2.0368616e+2, -939825.4, -987005.8, 29790.87, 0.066980295, 0.1983045, -925415.6, 18480.195, 0.0, 9.950893, 9.946118 
9.4098365e+2, 2.1363199e+2, -845452.44, -897630.25, 28812.832, 0.018328985, 0.21767582, -832672.2, 13754.443, 0.0, 9.950799, 9.945414 
9.3990016e+2, 2.2357732e+2, -749917.25, -805191.94, 29127.092, -0.024386011, 0.22035946, -737402.25, 11560.027, 0.00000000000028468902, 9.950655, 9.944984 
9.3881625e+2, 2.3352161e+2, -657881.3, -717126.25, 29300.646, -0.0155048445, 0.19725633, -645838.25, 5669.754, 0.000000000008157955, 9.950415, 9.94433 
9.3773085e+2, 2.4346593e+2, -561782.3, -618963.2, 26239.38, -0.016313946, 0.18591774, -551566.6, 2486.6826, 0.00000000016979894, 9.950116, 9.944256 
9.3664414e+2, 2.5340974e+2, -468904.4, -531148.9, 30057.635, -0.054122142, 0.19508691, -456759.38, -155.62106, 0.0000000025679472, 9.949981, 9.943552 
9.355553e+2, 2.633534e+2, -375648.84, -436087.63, 19409.88, -0.08273505, 0.20399737, -369952.28, -10796.519, 0.000000028296595, 9.949493, 9.943167 
9.3446535e+2, 2.7329597e+2, -289728.6, -355492.6, 22220.666, -0.09531966, 0.21774696, -282924.5, -21206.133, 0.00000022950282, 9.949117, 9.942298 
9.333726e+2, 2.8323877e+2, -185400.78, -241129.6, 8535.87, -0.11901107, 0.20297378, -184122.67, -19844.123, 0.0000014045202, 9.949046, 9.942919 
9.3228126e+2, 2.931804e+2, -95821.53, -169054.98, 29026.238, -0.10940697, 0.20103349, -85712.38, -18862.344, 0.000006759484, 9.949601, 9.940845 
9.311826e+2, 3.0312034e+2, 14353.708, -52840.2, 2680.8735, -0.12728666, 0.12641121, 14460.499, 14460.499, 0.000026932837, 9.95005, 9.941458 
9.5851004e+2, 1.4508706e+2, -1520103.9, -1515433.3, -3854.5933, 0.20783594, 0.1911579, -1513261.8, 4907.956, 0.0, 9.94963, 9.950512 
9.5742565e+2, 1.550349e+2, -1429166.3, -1457452.1, 6297.25, 0.07323605, 0.21836035, -1427827.6, -7146.673, 0.0, 9.950935, 9.947339 
9.563453e+2, 1.6498329e+2, -1318024.9, -1342378.6, 16337.78, 0.13823472, 0.2551511, -1309825.3, 13361.263, 0.0, 9.951201, 9.948713 
9.552631e+2, 1.7493181e+2, -1221836.8, -1242518.4, 8020.9424, 0.11521722, 0.23313795, -1219090.6, 6600.144, 0.0, 9.950733, 9.948758 
9.5418024e+2, 1.8488017e+2, -1130518.6, -1158611.9, 20023.396, 0.04441679, 0.22171378, -1120106.3, 8090.394, 0.0, 9.950736, 9.947985 
9.5309865e+2, 1.948277e+2, -1032377.7, -1068952.3, 17552.457, 0.036255736, 0.23240165, -1025317.1, 5393.5273, 0.0, 9.951007, 9.947186 
9.5201707e+2, 2.0477493e+2, -933164.44, -972745.7, 22409.27, 0.049585063, 0.23273562, -923057.8, 10169.882, 0.0, 9.951103, 9.947064 
9.5093465e+2, 2.1472149e+2, -839284.7, -882638.4, 21560.469, 0.01958775, 0.22385994, -830388.0, 5363.277, 0.0, 9.950953, 9.946438 
9.498511e+2, 2.2466773e+2, -743722.4, -791159.06, 21835.168, -0.015192456, 0.22088572, -735202.0, 3075.8386, 0.000000000000067652664, 9.950895, 9.9458885 
9.4876707e+2, 2.3461303e+2, -647228.3, -702150.4, 22516.889, -0.01592884, 0.21912171, -639177.1, 1636.5946, 0.0000000000019384904, 9.951061, 9.945089 
9.4768155e+2, 2.4455819e+2, -546139.2, -601341.2, 18057.676, -0.02195282, 0.21400318, -540756.94, 2594.0232, 0.000000000040347756, 9.951141, 9.94501 
9.465949e+2, 2.545026e+2, -451524.53, -513742.63, 19401.898, -0.055071518, 0.21376866, -445970.16, -74.53813, 0.0000000006101943, 9.951242, 9.944221 
9.4550574e+2, 2.644468e+2, -354699.06, -419041.1, 5731.971, -0.077222206, 0.21802115, -354192.44, -5750.2915, 0.000000006724211, 9.951145, 9.943586 
9.444155e+2, 2.7438954e+2, -268542.4, -339999.0, 13493.228, -0.09106234, 0.22317414, -266079.34, -15076.24, 0.000000054552586, 9.950961, 9.94237 
9.433228e+2, 2.843326e+2, -156173.3, -210365.5, 649.08777, -0.11621578, 0.19747467, -156165.53, -2604.7842, 0.0000003341785, 9.951064, 9.943943 
9.4223213e+2, 2.9427534e+2, -81566.61, -146128.98, 13817.703, -0.06407924, 0.18350266, -78733.64, -22612.203, 0.0000016125001, 9.950762, 9.941953 
9.4113225e+2, 3.0421537e+2, 26387.162, -69529.87, -22039.756, -0.20478733, 0.2609925, 31209.043, 31209.043, 0.0000064614287, 9.951746, 9.939508 
9.684606e+2, 1.4617068e+2, -1493242.4, -1512823.5, 16424.21, 0.14242767, 0.2687351, -1483912.0, 23640.432, 0.0, 9.95258, 9.949928 
9.6737725e+2, 1.561193e+2, -1407296.4, -1431578.3, 7618.7227, 0.1018505, 0.2202947, -1405103.9, 4951.5615, 0.0, 9.951695, 9.948734 
9.6629626e+2, 1.6606882e+2, -1310584.9, -1331840.3, 19779.072, 0.115660146, 0.27811855, -1298759.0, 13791.05, 0.0, 9.951369, 9.949219 
9.652141e+2, 1.7601778e+2, -1203772.1, -1226177.9, 10582.224, 0.1069249, 0.24486913, -1199564.4, 15485.648, 0.0, 9.951622, 9.949405 
9.6413136e+2, 1.8596677e+2, -1112050.0, -1142531.0, 22065.307, 0.048132367, 0.22976066, -1100473.5, 17076.148, 0.0, 9.951679, 9.948586 
9.6304977e+2, 1.95915e+2, -1021502.25, -1056508.8, 21906.182, 0.032931678, 0.25217104, -1010965.44, 9091.687, 0.0, 9.951432, 9.947758 
9.619682e+2, 2.0586288e+2, -922047.94, -957753.4, 25691.455, 0.044087328, 0.25144923, -908615.4, 13952.157, 0.0, 9.951421, 9.947838 
9.6088576e+2, 2.1581005e+2, -824958.3, -865657.75, 23971.791, 0.025578331, 0.22315516, -813863.56, 11221.402, 0.0, 9.95148, 9.947287 
9.598022e+2, 2.2575717e+2, -729657.56, -774517.5, 24251.43, -0.007008408, 0.22019318, -719053.7, 8549.292, 0.0000000000000117120025, 9.951437, 9.946719 
9.587182e+2, 2.357035e+2, -636177.5, -687948.3, 25528.596, -0.021885345, 0.24321696, -625706.8, 4422.16, 0.0000000000003355644, 9.951444, 9.945827 
9.576326e+2, 2.456493e+2, -539539.3, -592504.5, 21000.432, -0.032856878, 0.241894, -532223.3, 436.62576, 0.0000000000069838328, 9.951355, 9.945435 
9.565462e+2, 2.555939e+2, -446814.56, -506475.66, 23053.096, -0.05422582, 0.2221931, -438944.88, -3742.104, 0.00000000010561558, 9.951363, 9.944579 
9.5545715e+2, 2.6553845e+2, -346748.63, -405260.9, 8033.52, -0.054592688, 0.20776494, -345665.7, -7920.1367, 0.0000000011640542, 9.95124, 9.944376 
9.54367e+2, 2.754818e+2, -259853.58, -324304.34, 15643.955, -0.04400689, 0.18515243, -256257.06, -15956.422, 0.000000009444971, 9.951058, 9.943304 
9.5327365e+2, 2.8542548e+2, -159592.75, -211006.48, -489.6734, -0.10217366, 0.17019796, -159588.08, -16735.783, 0.000000057857413, 9.950637, 9.944074 
9.5218146e+2, 2.9536888e+2, -96184.08, -152952.2, 10457.966, -0.12576038, 0.20052205, -94318.78, -48911.703, 0.00000027926637, 9.949527, 9.942097 
9.510855e+2, 3.0530918e+2, 53523.758, -40498.68, -1110.8987, -0.14649631, 0.21309026, 53536.883, 53536.883, 0.0000011202083, 9.953121, 9.940979 
9.784135e+2, 1.4725238e+2, -1487274.9, -1490413.9, -972.5088, 0.17995866, 0.26618955, -1486998.0, 9955.715, 0.0, 9.951956, 9.951536 
9.7732913e+2, 1.5720311e+2, -1397391.1, -1404794.3, -1100.5781, 0.1311085, 0.21444087, -1397230.9, 2204.8938, 0.0, 9.951538, 9.950731 
9.762475e+2, 1.6715397e+2, -1310626.6, -1328807.4, 12649.3, 0.08800789, 0.3046337, -1304140.1, -2222.8223, 0.0, 9.951502, 9.949485 
9.7516567e+2, 1.7710313e+2, -1201719.6, -1220521.0, 4387.2676, 0.08641978, 0.26167506, -1200746.3, 3669.3103, 0.0, 9.951858, 9.949813 
9.7408324e+2, 1.8705268e+2, -1105399.9, -1129265.9, 12763.295, 0.046966188, 0.23464327, -1099860.1, 7049.5757, 0.0, 9.951958, 9.949442 
9.730016e+2, 1.9700171e+2, -1014358.5, -1043117.44, 13051.488, 0.05145592, 0.2507407, -1009318.6, 90.19809, 0.0, 9.951778, 9.948603 
9.719202e+2, 2.0695041e+2, -915383.56, -948625.7, 17393.94, 0.06456325, 0.26564083, -907946.2, 3965.286, 0.0, 9.951969, 9.948313 
9.7083783e+2, 2.1689826e+2, -814183.5, -854280.4, 14866.987, 0.03011187, 0.26319176, -809272.6, 5149.527, 0.0, 9.952319, 9.9478 
9.6975416e+2, 2.2684602e+2, -713802.7, -756711.9, 13471.487, -0.017915279, 0.25297633, -709923.94, 7010.115, 0.0000000000000014914695, 9.952445, 9.947586 
9.686701e+2, 2.3679297e+2, -619279.8, -669327.6, 14364.64, -0.03387899, 0.25100917, -615449.94, 4003.9385, 0.000000000000042732568, 9.952523, 9.9467125 
9.675845e+2, 2.4673977e+2, -522362.1, -572335.7, 10005.896, -0.03776941, 0.25613934, -520433.16, 1541.7891, 0.00000000000088938075, 9.952391, 9.946402 
9.664979e+2, 2.566854e+2, -432662.16, -489419.66, 14612.734, -0.06149113, 0.25429076, -429120.9, -4613.1016, 0.000000000013450299, 9.952287, 9.945331 
9.654089e+2, 2.666307e+2, -325470.7, -385406.9, 1397.3644, -0.07227972, 0.2447847, -325438.13, 1605.3632, 0.0000000001482496, 9.952715, 9.9450655 
9.6431905e+2, 2.7657485e+2, -225576.16, -299307.22, 7354.4575, -0.060355254, 0.23763008, -224849.72, 4740.696, 0.0000000012029147, 9.953456, 9.943908 
9.6322525e+2, 2.8651896e+2, -128199.55, -196661.66, -12282.702, -0.122397095, 0.24499789, -126062.625, 6075.355, 0.0000000073681794, 9.953021, 9.943913 
9.621313e+2, 2.9646242e+2, -61392.96, -129872.08, 1865.3562, -0.18165433, 0.2708414, -61342.188, -26649.943, 0.000000035559857, 9.951814, 9.94257 
9.610395e+2, 3.064032e+2, 60823.95, -19821.184, 4804.8994, -0.09563225, 0.21530063, 61109.22, 61109.22, 0.00000014260962, 9.953492, 9.942574 
9.883649e+2, 1.4833577e+2, -1486917.9, -1492170.8, 14698.526, 0.14681192, 0.35513112, -1474613.0, 11725.198, 0.0, 9.952214, 9.951381 
9.8728096e+2, 1.5828623e+2, -1385922.8, -1393506.5, -3580.524, 0.13728756, 0.25293475, -1384499.4, 4323.8955, 0.0, 9.95201, 9.951339 
9.861988e+2, 1.6823809e+2, -1293754.0, -1311123.4, 12046.647, 0.045184184, 0.35664552, -1287587.9, 3707.0085, 0.0, 9.95225, 9.950356 
9.851177e+2, 1.78188e+2, -1192075.4, -1207324.8, 7833.327, 0.10043182, 0.30773404, -1188768.5, 5017.17, 0.0, 9.952167, 9.95052 
9.840354e+2, 1.8813811e+2, -1096504.5, -1117274.0, 14894.663, 0.06573927, 0.27379844, -1088731.8, 7542.4893, 0.0, 9.952225, 9.950064 
9.829535e+2, 1.9808777e+2, -1001123.44, -1028664.9, 14824.285, 0.0506497, 0.28945768, -994660.7, 4106.417, 0.0, 9.952343, 9.949284 
9.8187214e+2, 2.0803715e+2, -905402.75, -936455.1, 21713.77, 0.058043357, 0.3090751, -894235.3, 7027.638, 0.0, 9.952371, 9.948864 
9.8078996e+2, 2.1798562e+2, -809643.94, -845205.7, 21052.996, 0.020172412, 0.31799564, -799867.8, 3900.3374, 0.0, 9.952366, 9.94825 
9.7970635e+2, 2.2793384e+2, -708648.06, -744573.06, 19071.645, -0.031112712, 0.29737023, -700411.75, 5863.61, 0.00000000000000014322901, 9.952404, 9.948282 
9.7862244e+2, 2.3788123e+2, -613322.56, -656433.94, 19091.67, -0.046426777, 0.27094546, -606083.44, 2707.2231, 0.0000000000000041040377, 9.952518, 9.94747 
9.7753674e+2, 2.4782911e+2, -513361.4, -554629.6, 12733.44, -0.045646884, 0.28772965, -509748.72, 1552.3, 0.000000000000085429954, 9.952419, 9.94749 
9.7645e+2, 2.57776e+2, -424449.8, -475091.22, 17112.887, -0.080351464, 0.3174955, -419209.3, -5387.9336, 0.000000000001292103, 9.952402, 9.946192 
9.7536117e+2, 2.6772216e+2, -319586.56, -376962.4, 6273.9844, -0.12989569, 0.32368803, -318908.53, -2559.667, 0.0000000000142405965, 9.952948, 9.945543 
9.7427154e+2, 2.7766725e+2, -222044.42, -291943.84, 9532.841, -0.15056439, 0.3606326, -220767.66, -1881.1265, 0.00000000011554544, 9.953452, 9.944406 
9.731779e+2, 2.8761148e+2, -131640.6, -201027.45, -15404.996, -0.14384869, 0.3679284, -128374.21, -6941.343, 0.0000000007077114, 9.952714, 9.94374 
9.720839e+2, 2.9755417e+2, -61803.61, -130288.28, -1774.2856, -0.11318, 0.30576444, -61757.67, -37763.375, 0.000000003414842, 9.951697, 9.942647 
9.709914e+2, 3.0749437e+2, 45767.75, -31043.055, 594.1242, -0.20255247, 0.23674801, 45772.344, 45772.344, 0.000000013690085, 9.952679, 9.942454 
9.983181e+2, 1.4941739e+2, -1481564.5, -1485987.6, 1535.425, 0.18764725, 0.3212068, -1481083.8, -5343.4736, 0.0, 9.952421, 9.951741 
9.972333e+2, 1.5936777e+2, -1378248.3, -1386543.9, -4654.2246, 0.14675973, 0.22053891, -1376161.8, 2064.3728, 0.0, 9.952513, 9.951648 
9.9615085e+2, 1.6932072e+2, -1281183.1, -1292037.0, 7181.675, -0.009576464, 0.33857268, -1277608.5, 3078.5486, 0.0, 9.9527, 9.951506 
9.9507064e+2, 1.792716e+2, -1182375.5, -1193455.0, 2192.3013, 0.14508599, 0.28228614, -1181957.5, 1210.7361, 0.0, 9.952603, 9.951354 
9.939885e+2, 1.8922217e+2, -1089915.5, -1108935.0, 8564.582, 0.11656731, 0.2421734, -1086627.4, -975.0926, 0.0, 9.952651, 9.950527 
9.9290586e+2, 1.9917245e+2, -990926.94, -1014166.1, 8899.345, 0.017027434, 0.26799607, -987910.5, 228.49379, 0.0, 9.95284, 9.950147 
9.918241e+2, 2.0912287e+2, -890413.7, -912141.7, 16101.759, -0.019708708, 0.25497234, -881853.7, 8771.013, 0.0, 9.95285, 9.950347 
9.9074227e+2, 2.1907221e+2, -798403.06, -825927.9, 17332.873, -0.019491471, 0.21721163, -790033.3, 3087.6377, 0.0, 9.95274, 9.949367 
9.896594e+2, 2.2902188e+2, -699330.56, -729711.8, 17491.068, 0.0076588746, 0.24971402, -691354.56, 4259.463, 0.000000000000000010837507, 9.952816, 9.949039 
9.885759e+2, 2.3897062e+2, -602849.56, -640168.06, 19571.193, 0.016377531, 0.28254703, -594468.1, 3647.9612, 0.00000000000000031058006, 9.9529705, 9.948278 
9.8748994e+2, 2.4891874e+2, -502144.4, -538087.5, 12910.282, -0.000104448874, 0.24102703, -497987.88, 2636.528, 0.0000000000000064639003, 9.952889, 9.948293 
9.864036e+2, 2.5886595e+2, -409332.72, -454839.97, 18864.979, -0.0058617545, 0.21149392, -402529.38, 612.0007, 0.000000000000097753626, 9.9530325, 9.947156 
9.8531544e+2, 2.68813e+2, -306937.1, -359606.72, 12515.989, -0.031602383, 0.22558057, -304114.2, 1546.1185, 0.0000000000010773522, 9.953525, 9.946318 
9.842258e+2, 2.7875826e+2, -216515.66, -277469.56, 15311.011, -0.07424714, 0.19285306, -212885.83, -4689.145, 0.000000000008741193, 9.953401, 9.945172 
9.831314e+2, 2.8870252e+2, -118142.19, -183242.63, -8754.148, -0.07119568, 0.13932773, -116985.555, -6242.8906, 0.00000000005353408, 9.952991, 9.9444895 
9.820369e+2, 2.986467e+2, -57372.344, -126531.086, 9562.351, 0.04257274, 0.1903837, -56074.543, -42785.57, 0.00000000025827646, 9.951704, 9.942399 
9.8094106e+2, 3.0858767e+2, -34899.28, -75769.195, 17863.594, -0.27071056, 0.29340196, -28192.104, -28192.104, 0.0000000010352618, 9.947205, 9.941349 
1.00826845e+3, 1.5050091e+2, -1476923.5, -1459681.9, -209.16139, 0.11920517, 0.30732402, -1459679.4, 5443.3647, 0.0, 9.951091, 9.953281 
1.00718684e+3, 1.6045344e+2, -1344716.9, -1373447.3, 12395.564, 0.15739283, 0.3952747, -1340108.3, 27480.146, 0.0, 9.955067, 9.951042 
1.00610465e+3, 1.7040393e+2, -1264481.8, -1286894.6, 954.7678, 0.06469013, 0.35889935, -1264441.1, 5632.1816, 0.0, 9.953969, 9.951141 
1.0050219e+3, 1.803555e+2, -1185533.6, -1185335.4, -5085.5586, 0.075593635, 0.33922908, -1180348.0, -7800.2817, 0.0, 9.952103, 9.9522295 
1.0039402e+3, 1.9030738e+2, -1086262.9, -1097318.8, 7220.512, 0.06093873, 0.32845953, -1082697.3, -7678.0815, 0.0, 9.95278, 9.951251 
1.0028591e+3, 2.002582e+2, -977351.94, -1002726.56, 4788.4087, 0.057356536, 0.34417063, -976478.4, 1022.4181, 0.0, 9.953902, 9.950422 
1.0017777e+3, 2.1020964e+2, -877201.8, -902547.6, -6722.6675, 0.060637474, 0.41084892, -875529.06, 4447.2466, 0.0, 9.953982, 9.950888 
1.00069515e+3, 2.2015993e+2, -782355.9, -806429.56, -13216.641, 0.0081541715, 0.3666318, -776516.3, 5946.751, 0.0, 9.953707, 9.950925 
9.9961174e+2, 2.3010969e+2, -677001.06, -706314.0, -6537.6763, -0.046083752, 0.24746607, -675609.06, 9345.992, 0.0000000000000000006820092, 9.954201, 9.950524 
9.985284e+2, 2.4006052e+2, -581310.75, -621685.1, -691.77435, -0.026706645, 0.3542308, -581298.9, 6138.0605, 0.00000000000000001954189, 9.95445, 9.94923 
9.97442e+2, 2.500101e+2, -483228.72, -521293.4, -10918.147, -0.07158918, 0.3880431, -480319.4, 9611.364, 0.00000000000000040645458, 9.95422, 9.949349 
9.9635553e+2, 2.599587e+2, -388314.9, -435242.16, -1444.9572, -0.0928104, 0.34868523, -388270.44, 4164.0815, 0.0000000000000061445223, 9.954396, 9.948375 
9.952687e+2, 2.6990613e+2, -269397.53, -327271.03, -21062.875, -0.037638143, 0.27912244, -262543.5, 32405.771, 0.00000000000006771698, 9.955691, 9.948381 
9.941785e+2, 2.798543e+2, -220129.67, -266154.44, 31138.57, -0.13197516, 0.35834348, -204422.81, -6965.86, 0.0000000000005493915, 9.952496, 9.946005 
9.930841e+2, 2.898e+2, -74535.8, -149093.19, 1441.4637, -0.118517496, 0.3933977, -74507.94, 25481.77, 0.0000000000033642223, 9.955475, 9.945316 
9.919869e+2, 2.997441e+2, 44890.72, -59888.273, -19356.92, -0.17976591, 0.34061554, 48352.36, 50889.637, 0.000000000016230134, 9.957934, 9.944021 
9.9088764e+2, 3.096859e+2, 3008.8364, -38515.348, -7886.625, -0.14471957, 0.3095247, 4456.2764, 4456.2764, 0.00000000006506301, 9.94832, 9.942881 
