coord_x,coord_y,stress_xx,stress_yy,tau_xy,velocity_x,velocity_y,stress_1,eps,damage,lx,ly
4.9980825e+0, 1.24177426e+2, -1758769.4, -1717850.6, -185.54745, -0.0031112644, -0.01729542, -1717849.9, 5209.5786, 0.0, 9.996226, 10.001646 
4.998683e+0, 1.3417771e+2, -1654786.3, -1633209.5, -1935.5333, 0.0014037818, -0.014048224, -1633037.3, -7981.046, 0.0, 9.997338, 10.0001955 
4.999183e+0, 1.4417644e+2, -1561945.6, -1568765.0, -2456.14, 0.0016536243, -0.02961493, -1561153.1, -34084.496, 0.0, 9.998333, 9.997428 
4.999569e+0, 1.5417376e+2, -1452531.1, -1466798.4, -33.597164, -0.00190761, -0.027244534, -1452531.0, -23436.074, 0.0, 9.999176, 9.997285 
4.999947e+0, 1.6417071e+2, -1347947.1, -1372974.3, -50.443504, -0.0023942017, -0.025163308, -1347947.0, -16822.13, 0.0, 9.999942, 9.996626 
5.00032e+0, 1.7416742e+2, -1239655.5, -1269330.8, -2795.6782, 0.0012923264, -0.023576675, -1239394.4, -6237.608, 0.0, 10.000613, 9.996681 
5.0007254e+0, 1.8416236e+2, -1156123.3, -1219294.6, -2756.7292, 0.0025872425, -0.023162829, -1156003.1, -20797.01, 0.0, 10.001398, 9.993033 
5.001178e+0, 1.9415517e+2, -1045778.06, -1117723.9, 8.462831, 0.00066846015, -0.026767869, -1045778.06, -8500.832, 0.0, 10.002342, 9.992815 
5.001554e+0, 2.041478e+2, -938231.7, -1018543.1, -520.5918, -0.0016487084, -0.025635995, -938228.3, 1121.2686, 0.0, 10.00314, 9.992505 
5.001825e+0, 2.1414046e+2, -830805.56, -914977.94, -4203.8755, -0.00447349, -0.019722568, -830596.1, 10825.108, 0.0, 10.00374, 9.992592 
5.002209e+0, 2.2413121e+2, -750126.06, -869906.2, -3855.4246, -0.0030570629, -0.016639363, -750002.06, -6490.1626, 0.0, 10.0044775, 9.988622 
5.0027466e+0, 2.3411956e+2, -640273.94, -769008.5, 691.40967, 0.004206192, -0.019811207, -640270.2, 5356.492, 0.0, 10.005408, 9.988365 
5.00314e+0, 2.4410778e+2, -532939.75, -669405.44, 1325.3699, 0.005456263, -0.017286789, -532926.9, 14815.731, 0.0, 10.00617, 9.988103 
5.0033295e+0, 2.5409606e+2, -426565.3, -566204.2, -1872.6116, -0.0016572326, -0.008785435, -426540.2, 23317.2, 0.0, 10.006692, 9.988202 
5.0036657e+0, 2.6408276e+2, -341167.53, -510730.94, -1833.4364, -0.0032296549, -0.0061432114, -341147.72, 10840.231, 0.0, 10.007396, 9.984953 
5.004209e+0, 2.7406743e+2, -230366.38, -408539.53, 884.2374, 0.00311151, -0.015283165, -230361.98, 23776.127, 0.0, 10.008357, 9.984771 
5.0046134e+0, 2.840517e+2, -129095.26, -321426.53, 143.01292, 0.005592318, -0.009918037, -129095.15, 27197.504, 0.0, 10.009115, 9.983657 
5.004811e+0, 2.9403564e+2, -23974.8, -219356.52, -3499.6926, 0.0024468678, 0.013412616, -23912.135, 34538.008, 0.0, 10.009574, 9.98371 
5.0051135e+0, 3.0402204e+2, 72560.04, -85949.34, -4200.5215, 0.0015641344, 0.0032013834, 72671.27, 72671.27, 0.0, 10.010196, 9.989194 
5.005563e+0, 3.140106e+2, 84703.1, -80394.945, -2410.9028, 0.0040322207, -0.05843627, 84738.305, 84738.305, 0.0, 10.011044, 9.989166 
1.4994246e+1, 1.24176666e+2, -1762204.3, -1724889.1, 3761.6262, -0.009532438, -0.03685468, -1724513.8, -1447.2275, 0.0, 9.996227, 10.001167 
1.4996049e+1, 1.3417672e+2, -1658351.4, -1640525.1, 2276.4272, 0.0041400194, -0.00868104, -1640239.0, -15172.821, 0.0, 9.997338, 9.999699 
1.499755e+1, 1.4417547e+2, -1557920.1, -1560490.4, 784.3609, 0.004947308, -0.01770572, -1557699.8, -30621.47, 0.0, 9.998332, 9.997991 
1.4998707e+1, 1.5417328e+2, -1447845.5, -1457161.0, 3152.397, -0.0057042777, -0.032073624, -1446879.0, -17779.5, 0.0, 9.999175, 9.99794 
1.4999841e+1, 1.6417028e+2, -1352303.1, -1381936.8, 2523.9697, -0.007221471, -0.034085933, -1352089.6, -20960.66, 0.0, 9.999942, 9.9960165 
1.5000959e+1, 1.7416638e+2, -1244837.6, -1279999.6, -250.71338, 0.0038410053, -0.018804913, -1244835.9, -11668.704, 0.0, 10.000613, 9.995955 
1.5002175e+1, 1.8416126e+2, -1151800.4, -1210378.9, 713.8599, 0.007786329, -0.01593872, -1151791.6, -16574.24, 0.0, 10.001398, 9.99364 
1.5003534e+1, 1.9415465e+2, -1040603.0, -1107048.9, 3585.2017, 0.001992447, -0.03206241, -1040410.1, -3128.024, 0.0, 10.002342, 9.993542 
1.5004663e+1, 2.0414728e+2, -944078.44, -1030597.75, 1836.7839, -0.0049687596, -0.032484673, -944039.5, -4685.0864, 0.0, 10.00314, 9.991684 
1.5005477e+1, 2.1413913e+2, -837667.1, -929157.6, -1941.1028, -0.013414937, -0.012244449, -837625.94, 3808.7725, 0.0, 10.00374, 9.991625 
1.5006626e+1, 2.2412981e+2, -742920.2, -855011.56, -445.79657, -0.00919266, -0.009453125, -742918.44, 607.6979, 0.0, 10.0044775, 9.989637 
1.500824e+1, 2.3411916e+2, -631782.4, -751423.25, 4212.0415, 0.012578226, -0.03254286, -631634.3, 13996.177, 0.0, 10.005407, 9.989566 
1.500942e+1, 2.4410772e+2, -537579.8, -678991.44, 3419.7847, 0.016378654, -0.030752467, -537497.2, 10245.591, 0.0, 10.006169, 9.987449 
1.5009987e+1, 2.5409546e+2, -432460.7, -578413.0, 99.32973, -0.0049651116, 0.00470826, -432460.63, 17402.979, 0.0, 10.006691, 9.98737 
1.5010998e+1, 2.64082e+2, -337114.44, -502330.0, 1656.5216, -0.009715593, 0.011674622, -337097.84, 14897.8955, 0.0, 10.007397, 9.985526 
1.5012628e+1, 2.7406713e+2, -225374.9, -398161.66, 4519.4736, 0.009325285, -0.023741458, -225256.77, 28884.361, 0.0, 10.008356, 9.985481 
1.501384e+1, 2.840513e+2, -134662.1, -332963.13, 2045.0438, 0.016757468, -0.029876798, -134641.0, 21655.41, 0.0, 10.009113, 9.982869 
1.5014434e+1, 2.9403442e+2, -30621.127, -233184.11, -1763.8693, 0.0073513244, 0.004293592, -30605.77, 27856.746, 0.0, 10.009574, 9.982764 
1.5015341e+1, 3.040206e+2, 74912.62, -81080.42, -1109.0092, 0.004698899, 0.012185174, 74920.5, 74920.5, 0.0, 10.010197, 9.989527 
1.5016688e+1, 3.1400988e+2, 87972.49, -73562.29, 802.09766, 0.01206233, -0.020653848, 87976.48, 87976.48, 0.0, 10.011043, 9.989636 
2.499092e+1, 1.24175295e+2, -1753971.8, -1725957.1, 584.36346, -0.003623894, -0.03579288, -1725944.9, -2864.9268, 0.0, 9.997005, 10.000715 
2.4993475e+1, 1.3417484e+2, -1658124.9, -1645672.1, -503.20383, 0.0007092059, -0.010257524, -1645651.8, -20567.063, 0.0, 9.9975815, 9.99923 
2.4995774e+1, 1.441735e+2, -1556871.6, -1556480.1, -2813.3098, -0.0018107769, -0.01775909, -1553855.8, -26758.01, 0.0, 9.998252, 9.9983015 
2.4997841e+1, 1.5417175e+2, -1446784.3, -1452350.0, -2497.4463, -0.0040197545, -0.026342915, -1445828.0, -16713.322, 0.0, 9.999062, 9.9983225 
2.49998e+1, 1.6416876e+2, -1356025.0, -1388636.5, -3817.242, -0.0034437566, -0.027061526, -1355584.1, -24440.178, 0.0, 9.9999, 9.995581 
2.500163e+1, 1.7416432e+2, -1245955.9, -1286260.4, -4981.9634, 0.0010496073, -0.016742896, -1245349.3, -12161.51, 0.0, 10.000785, 9.995445 
2.5003573e+1, 1.8415916e+2, -1146048.1, -1201026.8, -3385.4314, 0.0025798718, -0.015589491, -1145840.5, -10602.207, 0.0, 10.001506, 9.994224 
2.5005686e+1, 1.9415328e+2, -1040633.3, -1099381.0, -841.8349, -0.000071722374, -0.02915704, -1040621.25, -3325.5674, 0.0, 10.0020075, 9.994226 
2.5007656e+1, 2.0414604e+2, -952173.44, -1040265.9, -927.2366, -0.0042839814, -0.029861206, -952163.7, -12797.115, 0.0, 10.002836, 9.991173 
2.5009432e+1, 2.1413721e+2, -836547.94, -935586.6, -2049.3748, -0.010717984, -0.014128888, -836505.56, 4948.162, 0.0, 10.004118, 9.991003 
2.501134e+1, 2.241278e+2, -733316.7, -845155.9, -2496.0159, -0.007003214, -0.009997989, -733261.06, 10285.26, 0.0, 10.0049095, 9.990101 
2.5013432e+1, 2.3411779e+2, -633469.75, -745901.6, -2734.699, 0.010728658, -0.023646379, -633403.3, 12240.746, 0.0, 10.005018, 9.990129 
2.5015318e+1, 2.4410652e+2, -546978.94, -686915.5, -3325.755, 0.014460426, -0.022652673, -546899.94, 854.68414, 0.0, 10.0056715, 9.987148 
2.5016913e+1, 2.540937e+2, -429349.34, -581227.25, -3174.1633, -0.0015887229, -0.0026854188, -429283.03, 20597.617, 0.0, 10.007091, 9.986983 
2.5018722e+1, 2.6408014e+2, -326849.75, -494495.06, -2330.4973, -0.0058637015, 0.002920114, -326817.38, 25196.525, 0.0, 10.007976, 9.985782 
2.5020826e+1, 2.7406576e+2, -226881.78, -395297.6, -2521.824, 0.0065187155, -0.013945843, -226844.03, 27310.479, 0.0, 10.008098, 9.985801 
2.5022742e+1, 2.8405005e+2, -141410.27, -338374.13, -3195.9426, 0.014211185, -0.017612817, -141358.42, 14950.291, 0.0, 10.008743, 9.9826765 
2.5024363e+1, 2.9403272e+2, -24159.867, -232796.55, -1686.2401, 0.014915657, -0.004207839, -24146.24, 34332.836, 0.0, 10.010136, 9.98252 
2.5026053e+1, 3.0401868e+2, 85212.18, -78929.016, -1571.6208, 0.014969813, 0.005630553, 85227.23, 85227.23, 0.0, 10.011025, 9.989276 
2.5027817e+1, 3.140081e+2, 88063.39, -76348.68, -5164.868, 0.014425542, 0.007509134, 88225.48, 88225.48, 0.0, 10.01117, 9.989383 
3.4988105e+1, 1.241733e+2, -1757026.5, -1732232.3, 2619.5193, 0.013709801, -0.014129147, -1731958.6, -8858.724, 0.0, 9.997005, 10.000289 
3.499096e+1, 1.341721e+2, -1661277.0, -1652151.3, 1674.2162, -0.009073433, -0.018516378, -1651853.9, -26742.072, 0.0, 9.9975815, 9.998789 
3.4993854e+1, 1.4417054e+2, -1556400.9, -1555515.5, 158.17468, -0.019039411, -0.030044287, -1555488.1, -28360.89, 0.0, 9.998252, 9.998367 
3.499697e+1, 1.5416917e+2, -1446008.6, -1450749.5, 577.2571, 0.002554557, -0.010091543, -1445939.4, -16798.973, 0.0, 9.999061, 9.998431 
3.499982e+1, 1.6416618e+2, -1357884.6, -1392463.9, -502.53595, 0.008357604, -0.004110564, -1357877.4, -26707.594, 0.0, 9.999901, 9.99532 
3.5002336e+1, 1.7416123e+2, -1248035.6, -1290569.6, -1627.7986, -0.0074841306, -0.017295007, -1247973.4, -14754.724, 0.0, 10.000786, 9.9951515 
3.500492e+1, 1.8415609e+2, -1142003.4, -1192725.1, -1384.046, -0.013583584, -0.022296894, -1141965.6, -6696.871, 0.0, 10.001508, 9.994788 
3.5007638e+1, 1.9415101e+2, -1036042.8, -1089942.5, 1054.2074, -0.006044717, -0.017980332, -1036022.2, 1295.7838, 0.0, 10.002008, 9.994868 
3.5010538e+1, 2.0414406e+2, -953577.7, -1043177.9, 3661.6233, -0.000290705, -0.017991606, -953428.3, -14042.137, 0.0, 10.002836, 9.990974 
3.501369e+1, 2.1413472e+2, -838530.1, -939672.4, 2807.6548, 0.0030788775, -0.025273193, -838452.25, 3025.995, 0.0, 10.004117, 9.990725 
3.5016355e+1, 2.2412513e+2, -733930.9, -846420.1, -1725.138, 0.002998705, -0.018303465, -733904.44, 9668.1, 0.0, 10.0049095, 9.990014 
3.501833e+1, 2.3411547e+2, -633912.4, -746862.6, -2335.2954, -0.0017980835, 0.006900008, -633864.1, 11803.311, 0.0, 10.00502, 9.990064 
3.502084e+1, 2.4410416e+2, -546593.0, -686170.06, 1604.5546, -0.0009283762, 0.0068194484, -546574.56, 1203.6111, 0.0, 10.005673, 9.987198 
3.50241e+1, 2.5409085e+2, -428960.97, -580370.25, 2207.0515, 0.008080898, -0.030495463, -428928.78, 20979.81, 0.0, 10.007088, 9.987042 
3.5026836e+1, 2.6407722e+2, -327276.94, -495323.28, -1440.2819, 0.007829601, -0.032367527, -327264.6, 24777.865, 0.0, 10.007974, 9.985726 
3.5028803e+1, 2.740634e+2, -227314.97, -396249.9, -2079.6921, -0.005607826, 0.0139327105, -227289.38, 26888.914, 0.0, 10.0081005, 9.985734 
3.5031322e+1, 2.84048e+2, -138561.42, -332496.63, 1628.1306, -0.00236244, 0.026471995, -138547.77, 17781.844, 0.0, 10.008744, 9.983078 
3.50346e+1, 2.9403058e+2, -21043.645, -226262.1, 3576.5664, 0.024804669, -0.012019669, -20981.332, 37518.57, 0.0, 10.010133, 9.982968 
3.5037255e+1, 3.0401626e+2, 79423.51, -90926.56, -589.8189, 0.0320164, -0.016648354, 79425.55, 79425.55, 0.0, 10.011024, 9.988454 
3.503895e+1, 3.1400514e+2, 81410.7, -90318.09, -4628.5464, 0.010384548, 0.026121132, 81535.37, 81535.37, 0.0, 10.011176, 9.988421 
4.4984874e+1, 1.24169864e+2, -1764621.8, -1735046.0, -4664.29, 0.01826013, -0.000380003, -1734327.8, -11193.648, 0.0, 9.99645, 10.000368 
4.4988593e+1, 1.3416861e+2, -1659688.9, -1650342.5, -1449.0873, -0.006761358, -0.018597981, -1650122.9, -24976.664, 0.0, 9.997643, 9.998881 
4.499226e+1, 1.4416702e+2, -1552110.6, -1554648.0, -1985.3523, -0.02054434, -0.032611653, -1551023.3, -23861.297, 0.0, 9.998596, 9.998258 
4.499607e+1, 1.5416564e+2, -1444513.0, -1451456.3, -3381.6238, -0.0014380172, -0.0016766016, -1443138.3, -13962.702, 0.0, 9.999225, 9.998302 
4.4999644e+1, 1.6416268e+2, -1357639.0, -1390165.6, -3829.259, 0.004860924, 0.0051724734, -1357194.3, -25989.736, 0.0, 9.999823, 9.995514 
4.5002928e+1, 1.7415781e+2, -1252250.6, -1290117.9, -1073.1123, -0.006423127, -0.02103939, -1252220.3, -18967.893, 0.0, 10.000391, 9.995374 
4.5006266e+1, 1.8415272e+2, -1148427.1, -1197738.8, -1112.657, -0.011970893, -0.02701118, -1148402.0, -13099.959, 0.0, 10.001151, 9.994619 
4.5009696e+1, 1.9414759e+2, -1034935.06, -1091707.5, -5010.8755, -0.009705019, -0.006891461, -1034496.2, 2855.9194, 0.0, 10.002184, 9.994662 
4.501342e+1, 2.0414065e+2, -949135.0, -1037934.8, -3744.6982, -0.0039857463, -0.0041659717, -948977.3, -9557.39, 0.0, 10.003006, 9.991247 
4.5017552e+1, 2.141315e+2, -844683.94, -939063.6, -104.76353, 0.006432192, -0.026937626, -844683.8, -3173.8157, 0.0, 10.003541, 9.991044 
4.5021033e+1, 2.2412197e+2, -742609.2, -852087.0, -3095.7073, 0.0067700455, -0.024331272, -742521.75, 1081.7405, 0.0, 10.004379, 9.989883 
4.5023608e+1, 2.3411225e+2, -626091.1, -745014.75, -4569.658, -0.006911023, 0.012019416, -625915.75, 19783.389, 0.0, 10.005639, 9.98989 
4.5026815e+1, 2.4410093e+2, -535227.6, -679249.5, -663.78406, -0.0068304637, 0.013785484, -535224.56, 12585.531, 0.0, 10.00639, 9.987324 
4.5030898e+1, 2.5408766e+2, -437564.0, -582797.06, 648.66754, 0.012344888, -0.034865696, -437561.1, 12378.829, 0.0, 10.006424, 9.987197 
4.503445e+1, 2.64074e+2, -341413.34, -504250.38, -2590.88, 0.015862674, -0.038801547, -341372.13, 10701.799, 0.0, 10.007094, 9.985539 
4.5037216e+1, 2.740601e+2, -220615.53, -395500.63, -4389.0474, -0.0028873843, 0.018967856, -220505.45, 33705.56, 0.0, 10.008667, 9.985512 
4.5040473e+1, 2.8404465e+2, -124325.93, -323679.84, -2459.572, -0.0062433714, 0.033825852, -124295.586, 32066.96, 0.0, 10.009638, 9.983251 
4.5044404e+1, 2.9402736e+2, -25430.367, -225992.5, -2293.3423, 0.012384438, -0.015716115, -25404.146, 33127.46, 0.0, 10.0097275, 9.983181 
4.504794e+1, 3.04013e+2, 70744.46, -97716.14, -4485.604, 0.022790836, -0.022757977, 70863.81, 70863.81, 0.0, 10.010539, 9.98822 
4.5050848e+1, 3.140017e+2, 97102.64, -85895.305, -3462.0085, 0.021224167, 0.030294882, 97168.11, 97168.11, 0.0, 10.012391, 9.988141 
5.498123e+1, 1.2416494e+2, -1760412.3, -1726454.9, -417.4653, 0.008247057, 0.0056809457, -1726449.8, -3266.7068, 0.0, 9.996452, 10.00095 
5.498638e+1, 1.3416433e+2, -1655249.3, -1641199.1, 3054.994, 0.007273321, -0.01055267, -1640563.6, -15375.209, 0.0, 9.997642, 9.999503 
5.4990995e+1, 1.4416295e+2, -1554125.9, -1558777.9, 553.41046, -0.0066570733, -0.025230167, -1554060.9, -26858.94, 0.0, 9.998596, 9.997977 
5.499515e+1, 1.5416113e+2, -1447089.8, -1456788.8, -989.66754, -0.016871184, -0.0010434112, -1446989.9, -17769.871, 0.0, 9.999227, 9.997939 
5.4999274e+1, 1.6415824e+2, -1352971.0, -1380644.5, -1683.3339, -0.015101911, 0.0008399492, -1352869.0, -21620.54, 0.0, 9.999826, 9.996159 
5.500342e+1, 1.7415407e+2, -1246972.9, -1279272.8, 1076.7723, 0.0034509648, -0.027945066, -1246937.0, -13648.215, 0.0, 10.000391, 9.996112 
5.5007607e+1, 1.84149e+2, -1154826.5, -1210948.1, 2637.426, 0.0065179802, -0.029644405, -1154702.8, -19364.459, 0.0, 10.001152, 9.993719 
5.501186e+1, 1.9414297e+2, -1042396.8, -1107131.4, -1093.8687, -0.011836985, 0.0041365423, -1042378.4, -4980.2305, 0.0, 10.002186, 9.99361 
5.501631e+1, 2.0413586e+2, -943789.2, -1026963.5, -1572.4578, -0.016360706, 0.011565105, -943759.5, -4291.557, 0.0, 10.003009, 9.991993 
5.502102e+1, 2.1412751e+2, -838164.9, -925643.06, 1909.7892, -0.0013821555, -0.019240484, -838123.2, 3425.933, 0.0, 10.003544, 9.991958 
5.5025387e+1, 2.241183e+2, -743826.44, -854617.6, 1420.1582, 0.0036362289, -0.028151171, -743808.2, -168.97209, 0.0, 10.00438, 9.989711 
5.502926e+1, 2.3410814e+2, -628076.75, -749096.1, 193.42006, -0.0053429273, -0.007980987, -628076.44, 17662.904, 0.0, 10.005638, 9.989612 
5.503323e+1, 2.440968e+2, -533777.75, -676266.44, -152.29802, -0.004411487, -0.0015744589, -533777.56, 14072.956, 0.0, 10.006391, 9.987526 
5.503731e+1, 2.540841e+2, -435731.6, -579109.8, 750.2165, 0.010621625, -0.016392652, -435727.66, 14247.058, 0.0, 10.00643, 9.987446 
5.5041564e+1, 2.6407045e+2, -343643.13, -508929.84, 2827.7703, 0.017754454, -0.016669894, -343594.75, 8513.651, 0.0, 10.007096, 9.985219 
5.504605e+1, 2.740558e+2, -223321.75, -401050.6, 1591.1364, 0.01365331, 0.0013833783, -223307.52, 30945.219, 0.0, 10.008664, 9.985134 
5.5050194e+1, 2.8404003e+2, -124708.195, -324411.44, -1583.1855, 0.0014215806, 0.0047441158, -124695.65, 31711.908, 0.0, 10.009635, 9.983201 
5.505379e+1, 2.94023e+2, -25445.393, -226166.92, -1975.051, -0.022244954, -0.015301753, -25425.96, 33148.17, 0.0, 10.009735, 9.983165 
5.505812e+1, 3.040089e+2, 73218.164, -92695.805, 1889.6107, -0.0128179, -0.012884181, 73239.69, 73239.69, 0.0, 10.010544, 9.988562 
5.506348e+1, 3.1399778e+2, 99624.2, -80431.18, 3558.588, 0.044948537, 0.020027831, 99694.51, 99694.51, 0.0, 10.012382, 9.98852 
6.4977705e+1, 1.2415918e+2, -1754638.6, -1719145.8, -3150.9255, 0.00076910213, 0.0020899887, -1718868.3, 4371.533, 0.0, 9.996648, 10.001349 
6.4983827e+1, 1.3415912e+2, -1659343.1, -1638295.9, -948.6314, 0.012360459, -0.002958028, -1638253.3, -13013.3955, 0.0, 9.997151, 9.999938 
6.498926e+1, 1.4415796e+2, -1566206.5, -1565261.8, -3771.3042, 0.000077999655, -0.015892476, -1561933.4, -34682.258, 0.0, 9.997801, 9.997923 
6.4994067e+1, 1.5415592e+2, -1456032.0, -1462264.1, -3368.331, -0.020072302, -0.004378139, -1454559.4, -25288.15, 0.0, 9.998667, 9.997838 
6.4998925e+1, 1.6415308e+2, -1353820.8, -1377349.3, -3864.4424, -0.021797026, -0.004509828, -1353202.3, -21903.229, 0.0, 9.999608, 9.996489 
6.500394e+1, 1.7414941e+2, -1240378.0, -1271920.1, -3844.3828, 0.0022176488, -0.020776346, -1239916.3, -6581.726, 0.0, 10.000661, 9.996479 
6.5008956e+1, 1.8414441e+2, -1152384.1, -1213995.9, -2032.407, 0.009017128, -0.019955292, -1152317.1, -16933.604, 0.0, 10.001502, 9.993341 
6.501402e+1, 1.9413781e+2, -1047412.56, -1114578.9, -1245.3129, -0.008303714, 0.0025499763, -1047389.5, -9940.524, 0.0, 10.00206, 9.993163 
6.501919e+1, 2.0413063e+2, -945038.7, -1023192.2, -834.3265, -0.015382157, 0.007991026, -945029.75, -5510.1763, 0.0, 10.002734, 9.992383 
6.5024513e+1, 2.1412286e+2, -834362.8, -918552.2, -694.3485, -0.008027323, -0.011689455, -834357.06, 7237.8735, 0.0, 10.003576, 9.992425 
6.502969e+1, 2.241138e+2, -745188.9, -857510.5, -1989.2511, -0.0039617415, -0.020991584, -745153.7, -1470.299, 0.0, 10.004383, 9.989511 
6.503466e+1, 2.3410322e+2, -637235.5, -756493.7, -3021.6733, -0.004761217, -0.017395996, -637159.0, 8628.658, 0.0, 10.005138, 9.9893465 
6.5039474e+1, 2.4409184e+2, -537327.7, -675385.56, -4712.498, -0.0015796331, -0.010294368, -537167.06, 10732.178, 0.0, 10.006036, 9.987757 
6.504405e+1, 2.5407967e+2, -423499.3, -570040.5, -3749.9172, 0.0072678686, 0.00010051534, -423403.44, 26614.943, 0.0, 10.007131, 9.987726 
6.5049005e+1, 2.6406616e+2, -333040.53, -504791.16, 361.535, 0.013196084, 0.0010428109, -333039.78, 19110.957, 0.0, 10.007866, 9.985129 
6.5054435e+1, 2.7405107e+2, -232750.17, -407020.88, 1087.1792, 0.014928621, -0.0140419435, -232743.39, 21555.715, 0.0, 10.008077, 9.985007 
6.505948e+1, 2.8403506e+2, -136910.83, -331982.22, -1457.2466, 0.005394303, -0.017991448, -136899.95, 19555.904, 0.0, 10.00887, 9.983051 
6.506393e+1, 2.9401815e+2, -15460.397, -223061.47, -2895.7578, -0.020342706, -0.007823269, -15420.014, 43201.31, 0.0, 10.010495, 9.983011 
6.506909e+1, 3.0400413e+2, 87522.234, -83716.516, -44.71371, -0.015388134, -0.0001190818, 87522.24, 87522.24, 0.0, 10.011437, 9.988748 
6.507525e+1, 3.139929e+2, 86494.39, -84289.35, 426.4689, 0.034571316, 0.0014625099, 86495.45, 86495.45, 0.0, 10.01137, 9.988741 
7.4974304e+1, 1.2415254e+2, -1753048.3, -1715926.9, -1326.1227, -0.005444609, -0.011086452, -1715879.6, 7424.9727, 0.0, 9.996652, 10.001566 
7.498093e+1, 1.3415293e+2, -1657542.4, -1634602.4, 951.6198, 0.007819442, 0.004099467, -1634562.9, -9262.394, 0.0, 9.997151, 10.000188 
7.4987054e+1, 1.4415203e+2, -1564965.5, -1562738.6, -627.01514, -0.0011928318, -0.0047022835, -1562574.3, -35264.824, 0.0, 9.997802, 9.998093 
7.499281e+1, 1.5414998e+2, -1454870.9, -1459880.9, -82.3409, -0.011934963, -0.011537466, -1454869.5, -25539.871, 0.0, 9.998667, 9.998 
7.4998593e+1, 1.6414724e+2, -1353699.8, -1377111.4, 45.4273, -0.016027832, -0.010777442, -1353699.8, -22343.324, 0.0, 9.999608, 9.996504 
7.500447e+1, 1.7414385e+2, -1240356.9, -1271885.4, 144.78972, -0.010719495, 0.0003847536, -1240356.3, -6966.6846, 0.0, 10.000661, 9.996481 
7.5010324e+1, 1.8413891e+2, -1151325.5, -1211864.0, 215.91295, -0.0052526025, 0.0020555877, -1151324.8, -15886.931, 0.0, 10.001504, 9.9934845 
7.5016165e+1, 1.941321e+2, -1046284.9, -1112278.1, 864.525, 0.00025376654, -0.011609994, -1046273.5, -8768.804, 0.0, 10.002061, 9.9933195 
7.5022066e+1, 2.0412494e+2, -944746.56, -1022624.0, 2250.3862, -0.0017155294, -0.014694351, -944681.56, -5106.5317, 0.0, 10.002736, 9.99242 
7.502803e+1, 2.1411751e+2, -834144.56, -918146.25, 2486.7727, -0.014166887, -0.0043437406, -834071.0, 7576.5815, 0.0, 10.003578, 9.992451 
7.503395e+1, 2.2410846e+2, -746780.2, -860821.7, 879.6993, -0.01674922, -0.003091145, -746773.44, -3037.3723, 0.0, 10.004384, 9.989284 
7.5039786e+1, 2.3409744e+2, -639017.06, -760174.7, -166.39659, -0.0055248947, -0.016521646, -639016.9, 6827.4175, 0.0, 10.005138, 9.989095 
7.504554e+1, 2.4408603e+2, -535497.25, -671576.9, -681.03595, 0.0012540236, -0.012551393, -535493.8, 12462.465, 0.0, 10.006036, 9.988016 
7.5051135e+1, 2.5407434e+2, -421317.63, -565491.06, 386.6626, 0.0016277483, 0.014538425, -421316.56, 28754.379, 0.0, 10.00713, 9.988037 
7.5056756e+1, 2.6406106e+2, -332048.5, -502735.75, 1438.212, 0.0015124977, 0.014226509, -332036.38, 20164.625, 0.0, 10.007866, 9.98527 
7.506237e+1, 2.7404577e+2, -231829.4, -405234.3, 1844.1283, 0.00088795036, -0.027326412, -231809.8, 22540.44, 0.0, 10.008082, 9.9851265 
7.5068355e+1, 2.8402972e+2, -138609.27, -335591.8, 4171.0444, 0.00512928, -0.03441048, -138520.98, 17986.621, 0.0, 10.008873, 9.982802 
7.507479e+1, 2.9401284e+2, -17611.887, -227329.9, 3272.5093, 0.016430141, 0.0064471737, -17560.834, 41112.477, 0.0, 10.010486, 9.982723 
7.5080824e+1, 3.0399868e+2, 87623.016, -83320.32, 336.89142, 0.0135577135, 0.015390936, 87623.68, 87623.68, 0.0, 10.011431, 9.988777 
7.5086176e+1, 3.1398708e+2, 87046.625, -83291.98, 137.60988, -0.010055907, -0.025162792, 87046.74, 87046.74, 0.0, 10.011376, 9.988806 
8.4970987e+1, 1.24145955e+2, -1753660.1, -1718188.0, 916.2469, -0.0042054346, -0.023858266, -1718164.4, 5204.2466, 0.0, 9.996694, 10.001392 
8.4978086e+1, 1.3414633e+2, -1656661.9, -1635991.6, 130.4232, 0.00080252794, 0.0060164114, -1635990.9, -10625.683, 0.0, 9.99729, 10.000027 
8.498489e+1, 1.4414546e+2, -1560560.9, -1558643.6, -1951.953, -0.008182142, 0.0018168062, -1557427.6, -30053.803, 0.0, 9.998015, 9.998266 
8.4991693e+1, 1.5414351e+2, -1449495.0, -1454993.3, -996.206, -0.003895463, -0.015483366, -1449320.0, -19927.111, 0.0, 9.998934, 9.998201 
8.499836e+1, 1.6414079e+2, -1353510.6, -1379017.0, -1643.9082, -0.005281927, -0.015335928, -1353405.1, -21985.648, 0.0, 9.999706, 9.9963255 
8.500491e+1, 1.7413731e+2, -1247418.8, -1277740.9, -3205.1206, -0.0144236935, 0.009154008, -1247083.6, -13629.77, 0.0, 10.000284, 9.996264 
8.501149e+1, 1.8413243e+2, -1155803.0, -1210435.4, -3514.2148, -0.015423479, 0.01169775, -1155577.9, -20076.09, 0.0, 10.001043, 9.993804 
8.5018176e+1, 1.9412583e+2, -1043680.4, -1106871.8, -1276.8744, -0.005176, -0.018307911, -1043654.56, -6088.3193, 0.0, 10.00206, 9.993687 
8.502487e+1, 2.0411871e+2, -943646.94, -1024777.94, -92.50386, -0.003570844, -0.024175255, -943646.8, -4010.992, 0.0, 10.002927, 9.99218 
8.503161e+1, 2.1411115e+2, -836155.94, -922482.2, -2294.3804, -0.014191932, 0.0025976552, -836095.0, 5615.1455, 0.0, 10.003586, 9.99215 
8.50383e+1, 2.2410208e+2, -746909.6, -858554.2, -3771.0007, -0.014726526, 0.008640612, -746782.4, -2983.5054, 0.0, 10.004274, 9.98949 
8.504491e+1, 2.340912e+2, -639162.3, -757380.2, -1072.6967, -0.0012273773, -0.016429564, -639152.6, 6752.8057, 0.0, 10.005005, 9.989349 
8.505149e+1, 2.4407975e+2, -539791.94, -675964.44, -74.60765, 0.0029052733, -0.019403173, -539791.94, 8225.578, 0.0, 10.00584, 9.98781 
8.505803e+1, 2.540678e+2, -427616.97, -571387.75, -3079.5796, -0.0064057456, 0.007449297, -427551.03, 22583.78, 0.0, 10.006821, 9.987782 
8.5064447e+1, 2.6405454e+2, -332010.53, -500419.06, -5727.522, -0.01123388, 0.01101315, -331815.97, 20449.023, 0.0, 10.00777, 9.985473 
8.5070646e+1, 2.7403957e+2, -221513.53, -397433.53, -4547.437, -0.009609736, -0.021093236, -221396.06, 33014.72, 0.0, 10.00867, 9.985375 
8.5077405e+1, 2.8402364e+2, -132330.63, -332746.4, 382.71365, 0.0014076439, -0.027518133, -132329.9, 24236.828, 0.0, 10.009312, 9.982784 
8.508491e+1, 2.9400662e+2, -31202.992, -234405.55, 1352.7482, 0.025858337, 0.0011323829, -31193.986, 27539.992, 0.0, 10.009573, 9.9826765 
8.5091805e+1, 3.0399242e+2, 72669.2, -89105.85, -934.1036, 0.023547746, 0.004538875, 72674.6, 72674.6, 0.0, 10.010339, 9.988905 
8.509771e+1, 3.1398103e+2, 94811.47, -77932.28, -586.37805, -0.017671311, -0.03157985, 94813.46, 94813.46, 0.0, 10.011842, 9.988948 
9.496776e+1, 1.241394e+2, -1757770.9, -1726621.6, 3106.426, 0.0031181115, -0.036144696, -1726314.9, -2882.8237, 0.0, 9.996695, 10.000818 
9.497528e+1, 1.3413928e+2, -1660819.4, -1644485.0, 2374.2288, -0.00890173, 0.0027640979, -1644146.9, -18712.926, 0.0, 9.997289, 9.999449 
9.498278e+1, 1.4413823e+2, -1559323.1, -1556055.4, 1402.9545, -0.021157758, 0.0038155448, -1555535.6, -28091.074, 0.0, 9.9980135, 9.998443 
9.49907e+1, 1.541365e+2, -1447740.1, -1451377.6, 2500.1895, 0.0035177928, -0.01640567, -1446467.1, -17005.76, 0.0, 9.998933, 9.998447 
9.499822e+1, 1.6413373e+2, -1356188.0, -1384552.8, 648.6076, 0.0097752595, -0.018250465, -1356173.1, -24684.535, 0.0, 9.999708, 9.995948 
9.5005244e+1, 1.7412981e+2, -1250511.4, -1284131.6, -1012.6009, -0.009518407, 0.0055004074, -1250481.0, -16953.36, 0.0, 10.000286, 9.995829 
9.5012474e+1, 1.841249e+2, -1152256.3, -1203170.3, 178.92384, -0.02202283, 0.009089115, -1152255.6, -16680.012, 0.0, 10.001045, 9.994297 
9.502003e+1, 1.9411893e+2, -1039529.3, -1098320.3, 2573.3772, -0.025008077, -0.017753603, -1039416.9, -1783.1654, 0.0, 10.002059, 9.994269 
9.5027626e+1, 2.0411192e+2, -947322.44, -1032349.9, 2502.9375, -0.021425346, -0.020608407, -947248.8, -7546.5957, 0.0, 10.002926, 9.991664 
9.5035255e+1, 2.1410376e+2, -840568.56, -931596.8, 204.26355, -0.008810405, 0.009053698, -840568.1, 1214.644, 0.0, 10.003586, 9.9915285 
9.504273e+1, 2.2409464e+2, -742423.4, -849303.6, -1037.4889, 0.0012191024, 0.014281106, -742413.3, 1458.813, 0.0, 10.004275, 9.990119 
9.505e+1, 2.3408444e+2, -633802.75, -746320.2, 1672.4346, 0.0074232765, -0.017111449, -633777.94, 12193.392, 0.0, 10.005006, 9.990103 
9.505733e+1, 2.4407302e+2, -544475.0, -685677.2, 3516.7534, 0.0028267608, -0.030755132, -544387.44, 3695.5864, 0.0, 10.00584, 9.987146 
9.506474e+1, 2.540601e+2, -433332.06, -583211.06, 631.9488, -0.017006438, -0.020573415, -433329.38, 16880.602, 0.0, 10.00682, 9.986974 
9.507207e+1, 2.6404658e+2, -330130.56, -496500.78, -2283.8945, -0.025545832, -0.0083881505, -330099.2, 22243.508, 0.0, 10.007769, 9.985741 
9.507924e+1, 2.7403247e+2, -218869.11, -391898.63, -1151.3849, -0.017618168, 0.004114084, -218861.45, 35619.367, 0.0, 10.008668, 9.985754 
9.508664e+1, 2.8401688e+2, -130893.94, -329751.13, 1568.0728, -0.006487756, 0.0021350593, -130881.57, 25751.766, 0.0, 10.009312, 9.982988 
9.509432e+1, 2.939995e+2, -29822.285, -231670.77, 2285.5903, 0.0089532025, -0.023145666, -29796.408, 29007.018, 0.0, 10.009579, 9.982861 
9.510206e+1, 3.039854e+2, 74357.87, -85739.39, 4254.1465, 0.01521342, -0.031867057, 74470.836, 74470.836, 0.0, 10.010345, 9.989132 
9.510982e+1, 3.139747e+2, 96340.55, -74595.09, 5082.035, 0.008299604, -0.018390914, 96491.5, 96491.5, 0.0, 10.011834, 9.989181 
1.0496439e+2, 1.2413208e+2, -1759907.4, -1730771.1, -1023.1859, -0.002109261, -0.036851868, -1730735.3, -7231.906, 0.0, 9.996682, 10.000542 
1.04972646e+2, 1.3413161e+2, -1660081.9, -1647116.8, 595.5451, -0.009177595, -0.0075087864, -1647089.4, -21580.662, 0.0, 9.997466, 9.999184 
1.0498082e+2, 1.4413042e+2, -1558165.4, -1555445.3, 202.59578, -0.021769179, -0.0059088683, -1555430.3, -27909.418, 0.0, 9.99809, 9.9984455 
1.0498937e+2, 1.5412882e+2, -1453962.6, -1454103.9, -348.58878, -0.0008543567, -0.014778345, -1453677.6, -24141.209, 0.0, 9.998496, 9.998472 
1.0499767e+2, 1.6412602e+2, -1363535.8, -1389441.0, -1280.3342, 0.006941832, -0.0150318, -1363472.6, -31908.67, 0.0, 9.999265, 9.99583 
1.0500572e+2, 1.7412184e+2, -1247566.3, -1284179.8, -569.5194, -0.0034599241, -0.0035450023, -1247557.4, -13952.009, 0.0, 10.00055, 9.995696 
1.0501384e+2, 1.8411693e+2, -1144583.6, -1198240.1, -29.782948, -0.01282783, -0.0003675361, -1144583.5, -8929.902, 0.0, 10.001514, 9.994404 
1.05022125e+2, 1.9411124e+2, -1038986.25, -1096622.5, -1082.9934, -0.020916501, -0.010996811, -1038965.94, -1256.8759, 0.0, 10.002034, 9.994394 
1.0503041e+2, 2.0410423e+2, -952504.44, -1036783.6, -1998.7804, -0.021533782, -0.011897002, -952457.06, -12679.558, 0.0, 10.002655, 9.99149 
1.05038725e+2, 2.1409568e+2, -844337.9, -935691.3, -1208.7223, -0.011874066, -0.0004487062, -844321.9, -2460.2102, 0.0, 10.003427, 9.991324 
1.0504693e+2, 2.2408652e+2, -741655.3, -846786.8, -1936.8657, -0.0050304946, 0.0018477986, -741619.6, 2331.9075, 0.0, 10.004235, 9.99031 
1.0505495e+2, 2.3407674e+2, -630835.56, -742320.8, -3078.436, -0.0024121783, -0.01087289, -630750.6, 15296.132, 0.0, 10.005098, 9.990329 
1.0506313e+2, 2.440654e+2, -544141.2, -686819.2, -1268.9717, -0.004979826, -0.021234913, -544129.9, 4027.5571, 0.0, 10.005919, 9.987028 
1.0507151e+2, 2.5405216e+2, -436433.78, -586429.6, 671.3849, -0.014908382, -0.029914415, -436430.78, 13856.647, 0.0, 10.006681, 9.986819 
1.05079785e+2, 2.6403844e+2, -334434.16, -499524.5, -599.4328, -0.017829059, -0.02388551, -334431.97, 17989.889, 0.0, 10.007513, 9.985656 
1.0508786e+2, 2.740244e+2, -222651.11, -394597.34, -2818.7275, -0.010683879, 0.0010569413, -222604.92, 31954.852, 0.0, 10.008445, 9.985676 
1.05095945e+2, 2.840089e+2, -129171.99, -326608.4, -3185.3906, -0.007875124, 0.00240627, -129120.62, 27590.918, 0.0, 10.009329, 9.983193 
1.0510396e+2, 2.939916e+2, -19971.613, -224281.6, -2222.295, -0.011605422, -0.032947116, -19947.445, 38932.7, 0.0, 10.010142, 9.983094 
1.05112426e+2, 3.0397767e+2, 80908.32, -82370.38, 629.8989, -0.004653538, -0.04056823, 80910.75, 80910.75, 0.0, 10.010785, 9.98915 
1.0512141e+2, 3.1396717e+2, 86711.94, -79306.914, -204.9317, 0.018185882, -0.009529999, 86712.195, 86712.195, 0.0, 10.011173, 9.989174 
1.14960894e+2, 1.2412399e+2, -1759837.5, -1730560.6, 1909.7574, -0.020809317, -0.0256132, -1730436.6, -6854.0293, 0.0, 9.99668, 10.000556 
1.1497021e+2, 1.3412328e+2, -1659805.6, -1646515.5, 3564.265, -0.0002810425, -0.024987599, -1645620.0, -20029.994, 0.0, 9.997465, 9.999224 
1.1497903e+2, 1.4412197e+2, -1559426.5, -1558002.4, 1842.5504, -0.010427746, -0.0275974, -1556739.1, -29136.156, 0.0, 9.998088, 9.998273 
1.149877e+2, 1.5412043e+2, -1455375.4, -1456974.6, 1189.2166, -0.017281376, -0.01047393, -1454742.0, -25123.695, 0.0, 9.998495, 9.998278 
1.1499673e+2, 1.6411766e+2, -1362514.1, -1387329.3, 3285.4287, -0.014177006, -0.005502847, -1362086.5, -30440.805, 0.0, 9.999264, 9.995973 
1.1500634e+2, 1.7411342e+2, -1246333.8, -1281630.6, 4313.223, 0.0033010275, -0.017988464, -1245814.4, -12126.984, 0.0, 10.000548, 9.99587 
1.150156e+2, 1.8410845e+2, -1146575.1, -1202329.1, 2178.1445, 0.011464188, -0.016818216, -1146490.1, -10753.923, 0.0, 10.001514, 9.994124 
1.1502444e+2, 1.9410272e+2, -1041279.2, -1101354.0, 878.64404, 0.006371864, 0.0017861687, -1041266.3, -3473.862, 0.0, 10.002034, 9.994072 
1.1503324e+2, 2.0409565e+2, -951324.4, -1034360.4, 821.4441, -0.0045678103, 0.0018713824, -951316.25, -11454.379, 0.0, 10.002656, 9.991655 
1.1504204e+2, 2.1408692e+2, -842831.0, -932585.06, 1705.8882, -0.023573114, -0.025707161, -842798.6, -851.4381, 0.0, 10.003427, 9.991536 
1.1505088e+2, 2.240777e+2, -743327.44, -850288.5, 1278.8652, -0.0336792, -0.02851242, -743312.1, 725.2428, 0.0, 10.004237, 9.990069 
1.1505977e+2, 2.3406805e+2, -632816.5, -746478.56, 164.79886, -0.031015191, 0.0020918588, -632816.25, 13315.761, 0.0, 10.005101, 9.990044 
1.1506889e+2, 2.4405693e+2, -541159.44, -680721.1, 1598.4905, -0.021076493, 0.008701885, -541141.1, 7099.759, 0.0, 10.005923, 9.987442 
1.1507834e+2, 2.5404394e+2, -433019.3, -579331.6, 3509.347, -0.0008575732, -0.021094207, -432935.2, 17432.295, 0.0, 10.00668, 9.987305 
1.1508759e+2, 2.640301e+2, -337494.1, -505798.38, 2830.4795, 0.010775944, -0.035393912, -337446.5, 15056.297, 0.0, 10.00751, 9.985228 
1.1509652e+2, 2.740153e+2, -226416.9, -402290.63, 683.4848, 0.010071053, -0.029427424, -226414.25, 28233.518, 0.0, 10.008439, 9.985151 
1.1510532e+2, 2.8399965e+2, -127739.48, -323519.06, -107.14803, -0.0036871189, -0.025880614, -127739.42, 29061.95, 0.0, 10.009324, 9.983406 
1.1511387e+2, 2.9398304e+2, -17940.025, -220020.17, 790.3042, -0.03615435, -0.028390482, -17936.934, 41027.26, 0.0, 10.01014, 9.983385 
1.151229e+2, 3.0396926e+2, 79650.086, -85089.625, 2188.6292, -0.03628055, -0.022221524, 79679.16, 79679.16, 0.0, 10.01079, 9.988961 
1.1513253e+2, 3.1395838e+2, 85170.71, -82812.27, 1175.71, 0.011613619, -0.0052636648, 85178.94, 85178.94, 0.0, 10.011186, 9.988926 
1.24957286e+2, 1.24114655e+2, -1764108.5, -1730578.3, -4428.0127, -0.030498879, -0.015078291, -1730003.4, -6328.975, 0.0, 9.9963, 10.000737 
1.24967575e+2, 1.3411398e+2, -1661714.6, -1644934.5, -1393.272, 0.0020760172, -0.03069316, -1644819.6, -19138.736, 0.0, 9.997226, 9.999446 
1.24977216e+2, 1.4411274e+2, -1558427.6, -1559040.5, -2597.1028, -0.006240407, -0.036310457, -1556119.0, -28425.635, 0.0, 9.998222, 9.998135 
1.2498657e+2, 1.5411115e+2, -1444443.4, -1453584.9, -3115.5544, -0.021725347, -0.0072075403, -1443482.5, -13773.13, 0.0, 9.999321, 9.998104 
1.2499631e+2, 1.6410835e+2, -1350022.4, -1379696.9, -979.2937, -0.021490417, 0.000022216147, -1349990.1, -18253.209, 0.0, 10.000046, 9.996109 
1.2500672e+2, 1.7410415e+2, -1249538.3, -1281315.6, -12.572312, 0.0011109121, -0.024032887, -1249538.3, -15760.476, 0.0, 10.000249, 9.996034 
1.2501672e+2, 1.8409915e+2, -1160348.1, -1211418.3, -2305.681, 0.013695355, -0.025542017, -1160244.3, -24417.314, 0.0, 10.00068, 9.993909 
1.2502623e+2, 1.9409326e+2, -1051833.4, -1109301.3, -3103.0393, 0.011870677, 0.0030042797, -1051666.3, -13781.253, 0.0, 10.001437, 9.993818 
1.2503581e+2, 2.0408618e+2, -954138.7, -1032651.75, -1490.0702, 0.0033899127, 0.0046504247, -954110.44, -14155.993, 0.0, 10.002331, 9.991927 
1.2504555e+2, 2.1407767e+2, -840688.0, -927899.5, 346.2778, -0.014305071, -0.033358242, -840686.6, 1350.6342, 0.0, 10.003415, 9.9918585 
1.2505528e+2, 2.240684e+2, -743087.0, -855259.8, -272.13388, -0.028442416, -0.038685795, -743086.3, 1041.6179, 0.0, 10.004473, 9.9896145 
1.25065e+2, 2.3405832e+2, -630881.4, -751542.25, -3224.8005, -0.03767964, 0.00064577715, -630795.25, 15432.073, 0.0, 10.005492, 9.989507 
1.250749e+2, 2.4404712e+2, -533227.4, -672456.25, -4023.7874, -0.031774092, 0.012314863, -533111.2, 15225.796, 0.0, 10.006274, 9.987834 
1.25085e+2, 2.540346e+2, -428952.6, -571879.0, -2231.09, -0.0044257557, -0.017754536, -428917.78, 21540.889, 0.0, 10.006722, 9.98779 
1.2509497e+2, 2.6402098e+2, -342592.72, -509857.16, -1360.2775, 0.011710944, -0.035541188, -342581.66, 10010.523, 0.0, 10.007229, 9.985085 
1.2510467e+2, 2.740059e+2, -236781.08, -409671.63, -1164.69, 0.011374103, -0.03743424, -236773.22, 17966.7, 0.0, 10.00783, 9.984939 
1.2511437e+2, 2.8399003e+2, -137186.89, -329493.9, -702.90106, -0.0015166715, -0.034407735, -137184.33, 19710.994, 0.0, 10.008736, 9.983279 
1.2512402e+2, 2.939734e+2, -19613.809, -222142.13, -2682.2175, -0.03255222, -0.02642087, -19578.293, 39480.18, 0.0, 10.010081, 9.983267 
1.2513387e+2, 3.0395955e+2, 84089.39, -84836.63, -4634.401, -0.038547046, -0.015854761, 84216.44, 84216.44, 0.0, 10.011176, 9.98879 
1.2514389e+2, 3.1394842e+2, 94121.34, -80478.34, -5359.1694, -0.0071957195, -0.0034716474, 94285.69, 94285.69, 0.0, 10.011887, 9.988747 
1.3495357e+2, 1.2410401e+2, -1761661.3, -1725411.9, -1003.72705, -0.03206459, -0.0052542775, -1725384.1, -1604.8267, 0.0, 9.996294, 10.00109 
1.3496476e+2, 1.3410372e+2, -1658838.5, -1638955.4, 2092.8586, -0.0024908728, -0.024432238, -1638737.5, -12955.73, 0.0, 9.997223, 9.999852 
1.3497542e+2, 1.4410262e+2, -1559137.3, -1560456.6, 1484.7074, -0.009729014, -0.0321325, -1558172.3, -30379.83, 0.0, 9.9982195, 9.998038 
1.3498597e+2, 1.5410087e+2, -1445521.0, -1455790.9, 1052.7563, -0.014609494, -0.0049806, -1445414.1, -15604.036, 0.0, 9.99932, 9.997953 
1.3499643e+2, 1.6409804e+2, -1349076.4, -1377761.9, 74.72918, -0.015467204, 0.0015221534, -1349076.1, -17238.285, 0.0, 10.000047, 9.99624 
1.3500684e+2, 1.74094e+2, -1248391.4, -1278987.0, 752.26056, -0.010340399, -0.021731868, -1248372.9, -14495.847, 0.0, 10.000251, 9.99619 
1.350172e+2, 1.8408899e+2, -1161349.5, -1213565.4, 366.60028, -0.0065780333, -0.026558496, -1161347.0, -25420.768, 0.0, 10.000683, 9.993761 
1.350275e+2, 1.9408284e+2, -1053051.1, -1111917.4, -226.75516, -0.004832502, -0.007111161, -1053050.3, -15063.262, 0.0, 10.001441, 9.993637 
1.3503814e+2, 2.0407586e+2, -951357.7, -1027013.0, 2481.208, 0.001638281, -0.0035010497, -951276.4, -11220.885, 0.0, 10.002335, 9.992309 
1.3504927e+2, 2.1406795e+2, -837576.5, -921471.6, 4429.2114, 0.014943044, -0.023828309, -837343.25, 4788.9697, 0.0, 10.003414, 9.992296 
1.3506013e+2, 2.2405863e+2, -747841.7, -864978.4, 3567.6711, 0.009283576, -0.029098572, -747733.1, -3509.6443, 0.0, 10.004468, 9.988953 
1.3507064e+2, 2.3404752e+2, -636493.5, -762977.6, 645.659, -0.023440553, -0.014612234, -636490.2, 9842.687, 0.0, 10.005485, 9.988729 
1.350811e+2, 2.4403599e+2, -530675.94, -667057.5, -2116.8909, -0.037864417, -0.00957384, -530643.06, 17802.74, 0.0, 10.00627, 9.988203 
1.3509151e+2, 2.5402418e+2, -425459.4, -564665.06, -580.1083, -0.025545344, -0.019835168, -425456.97, 25104.102, 0.0, 10.006723, 9.988282 
1.3510193e+2, 2.6401097e+2, -341512.84, -507860.8, 778.41724, -0.014847974, -0.024579566, -341509.22, 11180.943, 0.0, 10.00724, 9.985214 
1.3511232e+2, 2.7399603e+2, -235923.53, -408249.72, 1043.4625, -0.006630512, -0.0236189, -235917.2, 18919.283, 0.0, 10.007846, 9.985028 
1.351231e+2, 2.8397998e+2, -140187.38, -336004.78, 4057.7405, -0.0019519287, -0.02365356, -140103.33, 16890.273, 0.0, 10.008747, 9.982828 
1.351344e+2, 2.9396272e+2, -23302.748, -229680.73, 2383.0044, -0.0024149902, -0.027258739, -23275.234, 35887.78, 0.0, 10.010075, 9.982752 
1.3514529e+2, 3.0394846e+2, 82839.57, -87091.72, -1710.8983, -0.013151837, -0.021299472, 82856.79, 82856.79, 0.0, 10.011161, 9.988642 
1.3515545e+2, 3.1393728e+2, 93262.99, -82090.61, -2663.875, -0.03888446, -0.003578402, 93303.45, 93303.45, 0.0, 10.011879, 9.98864 
1.4495e+2, 1.2409273e+2, -1757441.1, -1721687.1, -2911.5647, -0.029255483, -0.0056925206, -1721451.5, 2438.5845, 0.0, 9.996505, 10.001239 
1.4496177e+2, 1.3409275e+2, -1664122.1, -1639355.8, -1542.2411, 0.00043100864, -0.0129342545, -1639260.0, -13370.566, 0.0, 9.996767, 10.000046 
1.449732e+2, 1.4409176e+2, -1573420.0, -1567016.3, -1451.3684, -0.0035374037, -0.02231253, -1566702.8, -38803.734, 0.0, 9.997231, 9.998073 
1.4498478e+2, 1.5408978e+2, -1464969.0, -1465071.4, -541.96265, 0.0022589052, -0.01741911, -1464475.8, -34557.453, 0.0, 9.997989, 9.997969 
1.4499612e+2, 1.6408695e+2, -1363130.8, -1383663.3, -1291.8259, 0.00009311988, -0.015841307, -1363049.8, -31103.73, 0.0, 9.999049, 9.996322 
1.4500722e+2, 1.7408322e+2, -1243476.3, -1275586.0, -1149.4222, -0.013107361, -0.019320462, -1243435.1, -9452.595, 0.0, 10.000541, 9.99628 
1.4501832e+2, 1.8407823e+2, -1145856.0, -1207443.3, -1751.8513, -0.018774154, -0.020053852, -1145806.3, -9774.75, 0.0, 10.0018, 9.993633 
1.450295e+2, 1.9407174e+2, -1035268.5, -1104948.3, -2115.4377, -0.013803371, -0.019034993, -1035204.3, 2891.1052, 0.0, 10.002726, 9.993487 
1.4504085e+2, 2.0406467e+2, -938394.5, -1020832.5, -1813.3374, -0.004650198, -0.015417844, -938354.6, 1810.1741, 0.0, 10.003223, 9.992296 
1.450525e+2, 2.1405704e+2, -841879.75, -923533.06, -3234.1543, 0.010345914, -0.009229345, -841751.8, 487.52115, 0.0, 10.003119, 9.992295 
1.4506415e+2, 2.2404781e+2, -761067.8, -869338.4, -1186.033, 0.013065149, -0.012773229, -761054.8, -16725.225, 0.0, 10.003475, 9.989133 
1.4507584e+2, 2.3403656e+2, -649507.56, -767016.7, 3267.442, -0.0017729943, -0.032318283, -649416.8, -2977.025, 0.0, 10.004496, 9.988931 
1.4508727e+2, 2.4402492e+2, -542233.5, -676159.2, 1710.7129, -0.016047327, -0.035785463, -542211.6, 6342.1123, 0.0, 10.00563, 9.987891 
1.450983e+2, 2.54013e+2, -425229.7, -568694.06, -3070.3027, -0.029576557, -0.017392589, -425164.0, 25506.44, 0.0, 10.006917, 9.98791 
1.4510943e+2, 2.639998e+2, -327628.9, -499441.13, -5193.4487, -0.033301063, -0.009752805, -327472.06, 25327.834, 0.0, 10.008118, 9.985364 
1.4512068e+2, 2.7398494e+2, -214853.17, -395727.06, -4140.5024, -0.022636544, -0.02074632, -214758.44, 40186.668, 0.0, 10.00919, 9.985233 
1.4513227e+2, 2.8396884e+2, -127065.45, -332322.1, -852.32336, -0.009855954, -0.027140748, -127061.914, 30040.682, 0.0, 10.009762, 9.982589 
1.4514431e+2, 2.939513e+2, -32227.922, -237224.64, -1015.6025, 0.005746839, -0.028453538, -32222.89, 27051.742, 0.0, 10.0096, 9.982463 
1.45156e+2, 3.039369e+2, 67367.22, -93907.88, -1846.0997, -0.0033593567, -0.025992213, 67388.35, 67388.35, 0.0, 10.010067, 9.988699 
1.4516702e+2, 3.1392568e+2, 87980.91, -83538.4, -1161.2444, -0.048887163, -0.020590276, 87988.766, 87988.766, 0.0, 10.011467, 9.988737 
1.5494657e+2, 1.2408076e+2, -1757949.0, -1722677.4, -1759.5844, -0.023209134, -0.016662417, -1722589.9, 1417.3943, 0.0, 9.996505, 10.001171 
1.5495865e+2, 1.3408102e+2, -1664395.4, -1639793.9, -586.4881, 0.010462045, 0.0037948037, -1639779.9, -13775.392, 0.0, 9.996763, 10.000017 
1.5497059e+2, 1.4408007e+2, -1572332.9, -1564655.6, 1230.731, 0.011818484, -0.0067310976, -1564463.1, -36449.8, 0.0, 9.997226, 9.998234 
1.5498303e+2, 1.5407787e+2, -1463723.9, -1462436.4, 2338.827, 0.028329555, -0.04462118, -1460654.3, -30619.848, 0.0, 9.997986, 9.998148 
1.5499543e+2, 1.6407506e+2, -1362889.6, -1383144.5, 4094.027, 0.024557913, -0.05213954, -1362093.4, -30031.645, 0.0, 9.999048, 9.996356 
1.5500781e+2, 1.7407173e+2, -1243335.9, -1275288.5, 4503.7354, -0.00778085, -0.016847653, -1242713.3, -8618.283, 0.0, 10.00054, 9.996299 
1.5502009e+2, 1.8406682e+2, -1146606.5, -1208961.5, 1921.8793, -0.023647634, -0.0060206437, -1146547.4, -10404.092, 0.0, 10.001798, 9.99353 
1.550322e+2, 1.9405994e+2, -1036125.5, -1106681.1, 1380.2621, -0.01588314, -0.032733615, -1036098.5, 2112.1165, 0.0, 10.002724, 9.993369 
1.5504396e+2, 2.040526e+2, -941213.2, -1026656.75, -1871.9855, -0.016129036, -0.030988958, -941172.2, -889.4969, 0.0, 10.003224, 9.991899 
1.5505522e+2, 2.140449e+2, -844799.1, -929723.75, -3651.2854, -0.027820522, 0.010371485, -844642.44, -2283.6433, 0.0, 10.003127, 9.991869 
1.5506732e+2, 2.2403592e+2, -753786.1, -854551.94, 2250.181, -0.017062608, 0.010144126, -753735.9, -9289.373, 0.0, 10.003486, 9.990134 
1.5508062e+2, 2.3402537e+2, -641271.7, -750104.7, 7069.9575, 0.026405195, -0.05235924, -640814.4, 5734.1665, 0.0, 10.004501, 9.990081 
1.5509339e+2, 2.4401385e+2, -549082.2, -690317.5, 6385.718, 0.032068323, -0.06615198, -548794.06, -132.71942, 0.0, 10.005628, 9.986925 
1.5510534e+2, 2.5400114e+2, -433774.5, -586247.44, 1778.4252, -0.017558029, -0.010411665, -433753.78, 17033.19, 0.0, 10.00691, 9.986714 
1.5511745e+2, 2.6398742e+2, -326613.03, -497052.6, -1061.788, -0.044469923, 0.008875479, -326606.44, 26314.994, 0.0, 10.008105, 9.985532 
1.5512973e+2, 2.7397263e+2, -212877.53, -391210.13, -115.98844, -0.037396748, -0.028377417, -212877.45, 42188.33, 0.0, 10.0091715, 9.98555 
1.5514189e+2, 2.8395662e+2, -127460.46, -332876.75, -1051.8201, -0.025567794, -0.044290073, -127455.07, 29767.285, 0.0, 10.009751, 9.982555 
1.551538e+2, 2.9393914e+2, -32543.492, -238219.63, -1648.3221, -0.0070685344, -0.029866785, -32530.283, 26863.219, 0.0, 10.009616, 9.982387 
1.5516602e+2, 3.0392477e+2, 69450.66, -90087.37, 2864.2253, -0.008477304, -0.029759066, 69502.06, 69502.06, 0.0, 10.010088, 9.98895 
1.551786e+2, 3.1391358e+2, 89987.47, -79360.25, 4151.6655, -0.03962545, -0.05363935, 90089.195, 90089.195, 0.0, 10.011467, 9.989021 
1.6494264e+2, 1.2406795e+2, -1776439.6, -1731974.4, -5390.6396, -0.003692855, -0.021338543, -1731330.3, -7197.7295, 0.0, 9.99526, 10.001144 
1.649554e+2, 1.3406822e+2, -1663742.0, -1639266.1, -3966.4128, 0.008433773, -0.00044833237, -1638639.5, -12509.74, 0.0, 9.996797, 10.000033 
1.6496803e+2, 1.4406739e+2, -1559422.4, -1555623.9, -2265.3228, -0.0026091274, -0.010396296, -1554567.0, -26429.594, 0.0, 9.997982, 9.998477 
1.6498125e+2, 1.5406545e+2, -1451707.8, -1453632.6, -602.63995, 0.01740329, -0.049455117, -1451534.6, -21378.65, 0.0, 9.9986725, 9.998411 
1.6499457e+2, 1.6406271e+2, -1360140.4, -1383832.9, 1859.4685, 0.021092178, -0.05508437, -1359995.4, -27812.908, 0.0, 9.99932, 9.996175 
1.6500813e+2, 1.7405921e+2, -1254071.1, -1283070.6, 520.2573, 0.0014767824, -0.013771952, -1254061.9, -19844.281, 0.0, 9.999918, 9.996068 
1.6502143e+2, 1.8405427e+2, -1162527.9, -1214515.3, -2615.803, -0.007834224, -0.0029951653, -1162396.6, -26130.316, 0.0, 10.000617, 9.993722 
1.6503443e+2, 1.9404753e+2, -1053007.0, -1112220.5, -610.0019, -0.0025097257, -0.038414177, -1053000.8, -14668.8955, 0.0, 10.001456, 9.993604 
1.6504693e+2, 2.0404011e+2, -953296.06, -1036899.7, -2903.8318, -0.008373576, -0.040527605, -953195.3, -12790.614, 0.0, 10.002589, 9.991507 
1.6505884e+2, 2.1403198e+2, -833260.8, -929247.5, -4953.7153, -0.030246243, 0.0039130105, -833005.8, 9479.451, 0.0, 10.004137, 9.991411 
1.6507152e+2, 2.2402295e+2, -728302.06, -839126.7, -2192.767, -0.026029946, 0.010565009, -728258.7, 16315.162, 0.0, 10.005095, 9.990405 
1.6508538e+2, 2.3401287e+2, -628477.9, -739989.3, -3326.7473, 0.01566907, -0.039512683, -628378.7, 18292.604, 0.0, 10.005206, 9.990426 
1.6509894e+2, 2.4400145e+2, -550846.6, -692939.25, -2967.0852, 0.027442055, -0.053231742, -550784.7, -2001.823, 0.0, 10.005583, 9.986762 
1.651121e+2, 2.5398836e+2, -443360.75, -593280.1, -291.19437, -0.004373675, -0.0155496085, -443360.16, 7552.0063, 0.0, 10.006355, 9.986499 
1.6512525e+2, 2.639745e+2, -340893.66, -503618.1, -62.113716, -0.023712093, -0.003616036, -340893.63, 12154.72, 0.0, 10.007111, 9.985561 
1.6513833e+2, 2.7395982e+2, -231934.25, -399777.9, -1009.10925, -0.02462373, -0.03192903, -231928.19, 23263.326, 0.0, 10.007834, 9.985606 
1.6515124e+2, 2.8394395e+2, -138461.8, -336355.63, -2832.7043, -0.023326183, -0.041673426, -138421.27, 18925.27, 0.0, 10.008916, 9.9827175 
1.6516374e+2, 2.9392666e+2, -18206.96, -229311.6, -1737.4916, -0.01896587, -0.025574422, -18192.662, 41322.984, 0.0, 10.010513, 9.982563 
1.6517669e+2, 3.0391237e+2, 89592.41, -79847.15, 2802.6946, -0.018495675, -0.030318936, 89638.75, 89638.75, 0.0, 10.01145, 9.9889965 
1.6519019e+2, 3.1390107e+2, 89174.82, -79398.3, 2228.4714, -0.02358695, -0.068824194, 89204.28, 89204.28, 0.0, 10.011392, 9.989056 
1.7493822e+2, 1.2405423e+2, -1776541.4, -1731868.1, 367.07803, 0.028332382, -0.019520855, -1731865.1, -7598.9756, 0.0, 9.995247, 10.001157 
1.7495206e+2, 1.3405429e+2, -1663343.6, -1638325.3, 1856.165, -0.006145292, -0.02595979, -1638188.3, -11922.582, 0.0, 9.996791, 10.000099 
1.7496558e+2, 1.4405368e+2, -1557118.0, -1550889.8, 609.48474, -0.047663365, -0.03370344, -1550830.8, -22559.111, 0.0, 9.997982, 9.998797 
1.7497945e+2, 1.5405248e+2, -1449243.5, -1448545.6, 1993.5328, -0.03148383, -0.03187527, -1446870.8, -16587.496, 0.0, 9.998672, 9.998755 
1.7499357e+2, 1.640499e+2, -1362963.6, -1389637.5, 4147.419, -0.011460404, -0.024491986, -1362333.6, -30025.006, 0.0, 9.999321, 9.995778 
1.7500818e+2, 1.7404564e+2, -1257438.3, -1290032.8, 2794.613, 0.014018765, -0.010033367, -1257200.4, -22849.506, 0.0, 9.99992, 9.995592 
1.7502241e+2, 1.8404055e+2, -1159054.8, -1207402.5, 469.44705, 0.028035624, -0.010888141, -1159050.3, -22649.375, 0.0, 10.000619, 9.994204 
1.7503616e+2, 1.9403449e+2, -1048817.4, -1103644.6, 2558.9417, 0.025443615, -0.0362514, -1048698.3, -10238.787, 0.0, 10.00146, 9.994185 
1.750498e+2, 2.0402715e+2, -955996.25, -1042494.9, 2663.266, 0.01736177, -0.04401557, -955914.3, -15383.161, 0.0, 10.002589, 9.991124 
1.750633e+2, 2.1401826e+2, -836801.06, -936427.44, 897.8881, 0.0016049307, -0.027881132, -836793.0, 5826.215, 0.0, 10.004129, 9.990923 
1.7507674e+2, 2.2400884e+2, -731444.75, -845523.56, -1262.2126, -0.01515827, -0.011018351, -731430.75, 13281.027, 0.0, 10.005091, 9.98997 
1.7509009e+2, 2.3399903e+2, -631438.25, -746239.44, -2917.2556, -0.033294696, 0.0049579297, -631364.1, 15443.976, 0.0, 10.005213, 9.989995 
1.7510398e+2, 2.4398774e+2, -546368.06, -683882.3, -310.80548, -0.0287686, 0.0016233367, -546367.3, 2551.0784, 0.0, 10.005592, 9.987374 
1.751186e+2, 2.5397465e+2, -438172.47, -582610.75, 2597.674, 0.009245297, -0.03214288, -438125.78, 12920.559, 0.0, 10.006358, 9.987226 
1.7513287e+2, 2.6396087e+2, -341529.4, -505014.03, 2635.6296, 0.026872778, -0.045844566, -341486.94, 11694.108, 0.0, 10.007114, 9.985462 
1.7514656e+2, 2.7394643e+2, -233172.36, -402504.16, 1672.8092, 0.013714688, -0.0317746, -233155.83, 22166.836, 0.0, 10.007843, 9.9854145 
1.7516033e+2, 2.8393084e+2, -136034.66, -331279.72, 2799.0857, -0.004680566, -0.020392042, -135994.53, 21480.973, 0.0, 10.008913, 9.983065 
1.7517413e+2, 2.9391384e+2, -15690.021, -223524.98, 4177.4673, -0.030518806, -0.015932536, -15606.088, 44035.49, 0.0, 10.010489, 9.982969 
1.75188e+2, 3.0389965e+2, 88183.6, -82115.445, 3064.723, -0.03387751, -0.028013952, 88238.734, 88238.734, 0.0, 10.011422, 9.988853 
1.752018e+2, 3.1388813e+2, 87629.1, -82509.26, 1874.8884, -0.0029433875, -0.0671298, 87649.76, 87649.76, 0.0, 10.01139, 9.988842 
1.8493368e+2, 1.2404009e+2, -1770272.9, -1729425.4, 2810.621, 0.026842408, -0.030908598, -1729232.9, -4828.673, 0.0, 9.995694, 10.001103 
1.8494882e+2, 1.340401e+2, -1665207.4, -1639374.8, 3628.191, -0.0023673968, -0.041016165, -1638874.9, -12470.554, 0.0, 9.996667, 10.000087 
1.849635e+2, 1.4403951e+2, -1559938.4, -1553618.5, -35.332603, -0.045557756, -0.04016894, -1553618.3, -25207.998, 0.0, 9.997847, 9.998676 
1.8497838e+2, 1.540384e+2, -1440431.3, -1445787.0, -2354.1267, -0.03805571, -0.0145080965, -1439543.6, -9122.173, 0.0, 9.999335, 9.998617 
1.8499327e+2, 1.640357e+2, -1350359.5, -1386033.5, -4036.9893, -0.021895645, -0.0029437721, -1349908.3, -17459.967, 0.0, 10.000287, 9.99555 
1.850083e+2, 1.7403096e+2, -1251114.3, -1289626.9, -3900.2468, 0.0062672356, -0.012504264, -1250723.3, -16228.293, 0.0, 10.000465, 9.995352 
1.8502311e+2, 1.8402581e+2, -1153195.6, -1201103.1, -4428.6685, 0.023315066, -0.01930119, -1152789.6, -16244.273, 0.0, 10.000868, 9.994508 
1.8503769e+2, 1.9402032e+2, -1043990.8, -1097185.3, -3789.777, 0.024196222, -0.024239842, -1043722.2, -5123.688, 0.0, 10.001609, 9.99455 
1.8505234e+2, 2.040132e+2, -958145.6, -1043028.9, -1653.4414, 0.021972328, -0.03248508, -958113.4, -17445.41, 0.0, 10.0024185, 9.991166 
1.8506715e+2, 2.14004e+2, -848395.75, -941971.0, 359.8599, 0.01523375, -0.047218047, -848394.4, -5635.8433, 0.0, 10.003333, 9.990928 
1.8508159e+2, 2.2399439e+2, -744493.1, -855971.7, -1404.6984, -0.0024850655, -0.034755405, -744475.44, 377.6756, 0.0, 10.004376, 9.989601 
1.8509547e+2, 2.3398449e+2, -628539.2, -749404.4, -3107.019, -0.036146738, 0.015692484, -628459.3, 18491.518, 0.0, 10.005608, 9.989587 
1.851099e+2, 2.4397323e+2, -531457.44, -673373.5, -1917.9476, -0.039767455, 0.02296425, -531431.56, 17629.734, 0.0, 10.00647, 9.987666 
1.8512508e+2, 2.5396022e+2, -429310.03, -574208.25, -1671.5643, 0.00055766635, -0.03564071, -429290.75, 21896.82, 0.0, 10.006789, 9.987588 
1.8514006e+2, 2.639466e+2, -338469.63, -503946.0, -1899.289, 0.022718096, -0.05520991, -338447.84, 14873.098, 0.0, 10.0073395, 9.985424 
1.8515465e+2, 2.7393228e+2, -227821.67, -400881.56, -2035.2441, 0.017664801, -0.018536543, -227797.73, 27663.926, 0.0, 10.008249, 9.985327 
1.8516937e+2, 2.839167e+2, -135942.05, -331076.44, -1202.652, 0.0066613774, -0.00089869235, -135934.63, 21679.91, 0.0, 10.00891, 9.983077 
1.8518414e+2, 2.9389957e+2, -34292.875, -232263.9, -2503.6672, -0.013191515, -0.014835961, -34261.22, 25520.883, 0.0, 10.009198, 9.982988 
1.851988e+2, 3.0388543e+2, 66645.42, -90272.29, -5168.9956, -0.015176887, -0.02889568, 66815.51, 66815.51, 0.0, 10.009843, 9.989049 
1.8521312e+2, 3.1387436e+2, 83795.4, -81869.99, -3499.9497, 0.010021622, -0.044861797, 83869.305, 83869.305, 0.0, 10.011017, 9.989061 
1.94929e+2, 1.2402549e+2, -1771293.8, -1731402.9, 6565.365, -0.011014166, -0.056403857, -1730350.1, -5803.21, 0.0, 9.995689, 10.00097 
1.9494571e+2, 1.340256e+2, -1666019.3, -1640855.3, 7277.867, 0.019326936, -0.04543493, -1638902.0, -12355.993, 0.0, 9.996659, 9.999989 
1.9496185e+2, 1.4402486e+2, -1564088.3, -1562007.8, 5401.657, 0.0037251273, -0.029455725, -1557547.1, -28993.252, 0.0, 9.99784, 9.998108 
1.9497807e+2, 1.540232e+2, -1444909.1, -1454939.5, 3292.229, -0.0025335874, 0.002698994, -1443925.1, -13353.962, 0.0, 9.999332, 9.997994 
1.9499367e+2, 1.6402006e+2, -1350770.8, -1386924.0, -2908.6936, -0.011080939, 0.009528254, -1350538.3, -17936.066, 0.0, 10.00029, 9.995486 
1.9500849e+2, 1.7401512e+2, -1251112.9, -1289666.0, -3241.8752, -0.022264207, -0.021157425, -1250842.1, -16191.906, 0.0, 10.000469, 9.995346 
1.9502352e+2, 1.8401003e+2, -1152128.9, -1199038.9, -1839.0594, -0.02250309, -0.028147586, -1152056.9, -15356.897, 0.0, 10.0008745, 9.994644 
1.9503899e+2, 1.9400497e+2, -1042784.44, -1094882.5, -986.605, -0.0066992496, -0.0026093756, -1042765.75, -4016.341, 0.0, 10.001617, 9.9947 
1.9505459e+2, 2.039982e+2, -954788.6, -1036276.5, 1681.7683, 0.005016207, -0.00620871, -954753.94, -13938.302, 0.0, 10.002426, 9.991621 
1.9507045e+2, 2.1398915e+2, -844929.25, -934816.75, 3765.1023, 0.0104854, -0.054450754, -844771.8, -1868.1398, 0.0, 10.003333, 9.991415 
1.950861e+2, 2.2397949e+2, -746685.5, -860371.7, 3089.576, 0.011045096, -0.0604568, -746601.6, -1603.2513, 0.0, 10.004371, 9.989303 
1.9510148e+2, 2.3396926e+2, -631404.8, -755133.5, 1521.5149, 0.0044931876, -0.0058988975, -631386.1, 15713.757, 0.0, 10.005599, 9.989198 
1.9511668e+2, 2.4395788e+2, -531660.44, -673625.4, -422.53064, -0.008147124, 0.011895826, -531659.2, 17552.572, 0.0, 10.006463, 9.987652 
1.9513156e+2, 2.539451e+2, -429121.3, -573800.75, -514.8864, -0.029754365, -0.026869986, -429119.5, 22216.68, 0.0, 10.006788, 9.987616 
1.9514683e+2, 2.639316e+2, -338307.84, -503722.78, 1262.431, -0.033957507, -0.03320869, -338298.2, 15170.072, 0.0, 10.007344, 9.9854355 
1.9516261e+2, 2.7391735e+2, -227705.88, -400730.28, 1337.6747, -0.011605956, 0.006955866, -227695.53, 27913.229, 0.0, 10.008253, 9.985334 
1.9517832e+2, 2.8390157e+2, -137898.81, -335304.13, 32.924046, 0.010098778, 0.016845355, -137898.81, 19864.943, 0.0, 10.008918, 9.982783 
1.9519378e+2, 2.9388386e+2, -36376.81, -236983.23, -1425.67, 0.030614989, -0.021645432, -36366.676, 23570.275, 0.0, 10.009215, 9.9826565 
1.9520915e+2, 3.038698e+2, 70477.15, -82731.02, -1056.9742, 0.0349928, -0.032815877, 70484.44, 70484.44, 0.0, 10.009861, 9.989556 
1.9522418e+2, 3.1385976e+2, 88217.65, -72864.29, 854.5285, 0.014403995, -0.0037830814, 88222.18, 88222.18, 0.0, 10.011024, 9.989675 
2.0492487e+2, 1.2401006e+2, -1758430.6, -1726912.0, 490.01056, -0.039561875, -0.041776646, -1726904.4, -2205.6333, 0.0, 9.996635, 10.00081 
2.0494264e+2, 1.3400999e+2, -1657563.4, -1638168.3, 701.63934, 0.015716985, -0.036931895, -1638142.9, -11443.443, 0.0, 9.997292, 9.999859 
2.0495975e+2, 1.4400896e+2, -1569492.4, -1569095.9, -1014.9191, 0.018190235, -0.024958754, -1568260.0, -39549.973, 0.0, 9.9976635, 9.997708 
2.0497681e+2, 1.5400685e+2, -1473022.0, -1473450.4, -1753.5609, 0.02330175, 0.0060454537, -1471469.6, -40737.957, 0.0, 9.997627, 9.997562 
2.0499328e+2, 1.6400357e+2, -1375164.9, -1394851.9, -4329.9336, 0.0113515835, 0.0059659597, -1374254.6, -41490.62, 0.0, 9.998457, 9.995836 
2.0500897e+2, 1.739989e+2, -1246562.6, -1282541.1, -1192.1676, -0.025124008, -0.040271755, -1246523.3, -11714.446, 0.0, 10.000563, 9.995784 
2.0502487e+2, 1.8399386e+2, -1136149.1, -1195952.4, -1014.8158, -0.039608493, -0.04547636, -1136132.0, 725.8935, 0.0, 10.002164, 9.994227 
2.0504116e+2, 1.9398859e+2, -1026010.3, -1092498.6, -5249.408, -0.021978864, 0.0073329112, -1025598.44, 13312.06, 0.0, 10.003009, 9.9941845 
2.0505741e+2, 2.0398186e+2, -936947.25, -1023102.75, -6877.014, -0.0066761263, 0.018524421, -936401.75, 4574.905, 0.0, 10.0034485, 9.992019 
2.050737e+2, 2.1397325e+2, -841815.56, -927680.75, -4878.088, 0.004839746, -0.033680774, -841539.3, 1520.5431, 0.0, 10.003302, 9.991912 
2.0509015e+2, 2.2396371e+2, -757734.25, -866699.44, -2094.9138, 0.014937728, -0.052083664, -757694.0, -12540.937, 0.0, 10.0036545, 9.989213 
2.0510684e+2, 2.3395306e+2, -644736.56, -763336.6, -1653.922, 0.022783121, -0.02220967, -644713.5, 2544.7483, 0.0, 10.00476, 9.98904 
2.0512304e+2, 2.439416e+2, -540278.6, -676877.06, -4021.449, 0.011779531, -0.00820244, -540160.4, 9210.68, 0.0, 10.005833, 9.987731 
2.051384e+2, 2.5392923e+2, -427442.9, -571751.8, -3716.878, -0.027149025, -0.01963089, -427347.22, 24144.85, 0.0, 10.006848, 9.987724 
2.0515428e+2, 2.639158e+2, -333663.97, -503306.25, -1684.8706, -0.04266558, -0.01592077, -333647.22, 19976.3, 0.0, 10.00774, 9.9852705 
2.0517085e+2, 2.739012e+2, -226172.75, -402188.72, -3007.2908, -0.022810565, 0.007823293, -226121.38, 29646.14, 0.0, 10.008451, 9.985136 
2.0518728e+2, 2.838853e+2, -132591.03, -330682.94, -4492.4697, 0.00011879639, 0.0115846945, -132489.2, 25434.219, 0.0, 10.009193, 9.982964 
2.0520335e+2, 2.9386792e+2, -23677.336, -228257.55, -2121.9346, 0.027277118, -0.01699286, -23655.33, 36438.242, 0.0, 10.009976, 9.982885 
2.0521943e+2, 3.0385405e+2, 82256.84, -78198.67, -164.20233, 0.03470116, -0.020303369, 82257.01, 82257.01, 0.0, 10.010717, 9.989455 
2.0523536e+2, 3.138439e+2, 92715.21, -72366.18, -3435.121, 0.011815216, 0.012897365, 92786.66, 92786.66, 0.0, 10.011402, 9.989524 
2.1492131e+2, 1.2399379e+2, -1759857.3, -1729732.8, 3218.1062, -0.059820063, 0.014479543, -1729392.9, -4532.796, 0.0, 9.996631, 10.00062 
2.1493964e+2, 1.3399321e+2, -1658810.6, -1640622.3, 3121.7483, -0.014362033, -0.015171663, -1640101.4, -13236.054, 0.0, 9.997288, 9.999693 
2.1495719e+2, 1.4399174e+2, -1571196.9, -1572483.4, -941.8109, -0.0037089267, -0.026711695, -1570699.6, -41820.17, 0.0, 9.997661, 9.9974785 
2.1497458e+2, 1.539893e+2, -1474818.5, -1476999.3, -1907.8271, 0.03838153, -0.0044974335, -1473711.5, -42807.91, 0.0, 9.997623, 9.997322 
2.1499205e+2, 1.6398615e+2, -1369734.5, -1383598.6, 2848.1958, 0.04423264, -0.013608099, -1369172.1, -36238.06, 0.0, 9.998452, 9.996601 
2.1500975e+2, 1.7398225e+2, -1240350.4, -1269673.1, 6814.16, -0.0030457736, -0.06973522, -1238844.3, -3873.3962, 0.0, 10.000558, 9.996659 
2.1502714e+2, 1.839773e+2, -1143074.0, -1210087.0, 2635.7498, -0.028959373, -0.071159355, -1142970.5, -5951.224, 0.0, 10.002157, 9.993267 
2.1504416e+2, 1.9397111e+2, -1034389.9, -1109667.5, -2049.6387, -0.022649987, 0.005678198, -1034334.1, 4747.9727, 0.0, 10.003004, 9.993015 
2.150608e+2, 2.0396414e+2, -934495.7, -1018050.44, -7061.3584, -0.014062185, 0.041611433, -933903.1, 7248.2686, 0.0, 10.00345, 9.992361 
2.1507694e+2, 2.139563e+2, -838001.5, -920033.8, -5473.5615, -0.0024591458, 0.014308809, -837637.9, 5589.415, 0.0, 10.003313, 9.992427 
2.1509375e+2, 2.2394702e+2, -756714.94, -864916.06, 1559.1306, 0.008692594, -0.01053528, -756692.5, -11374.949, 0.0, 10.003669, 9.9893265 
2.1511157e+2, 2.3393591e+2, -644258.56, -762360.0, 2514.155, 0.019136073, -0.033145394, -644205.06, 3221.242, 0.0, 10.00476, 9.989105 
2.1512894e+2, 2.439244e+2, -539187.5, -674402.7, -184.77855, 0.019761803, -0.036819875, -539187.25, 10352.114, 0.0, 10.005822, 9.987904 
2.1514559e+2, 2.5391254e+2, -426309.25, -569117.06, 68.51882, 0.0057961573, -0.013737128, -426309.22, 25346.434, 0.0, 10.006835, 9.987908 
2.1516238e+2, 2.6389918e+2, -336122.34, -508115.56, 1066.5712, -0.006876942, -0.0030444735, -336115.75, 17671.264, 0.0, 10.007729, 9.984946 
2.1517937e+2, 2.7388382e+2, -229083.86, -407962.0, -329.22614, -0.017555157, -0.014173435, -229083.25, 26854.713, 0.0, 10.00844, 9.984744 
2.1519624e+2, 2.8386796e+2, -128340.28, -321657.84, -1590.1462, -0.023032153, -0.015120057, -128327.2, 29766.506, 0.0, 10.009185, 9.983583 
2.1521287e+2, 2.938517e+2, -18425.576, -217333.17, 710.2757, -0.020120569, -0.0020381734, -18423.041, 41829.723, 0.0, 10.009976, 9.983632 
2.1522969e+2, 3.0383807e+2, 77733.2, -87799.22, 2271.597, -0.012764003, 0.0073005464, 77764.37, 77764.37, 0.0, 10.010727, 9.9887905 
2.1524669e+2, 3.1382674e+2, 86944.61, -84663.984, -986.5213, 0.0013530012, 0.0078018154, 86950.28, 86950.28, 0.0, 10.011416, 9.988672 
2.2491823e+2, 1.2397546e+2, -1757431.1, -1728124.1, -6849.987, -0.037885286, 0.027115503, -1726602.1, -1561.6006, 0.0, 9.996776, 10.000651 
2.2493683e+2, 1.3397506e+2, -1659789.1, -1640051.4, -5411.5073, -0.01787086, 0.0066056284, -1638665.0, -11620.954, 0.0, 9.997173, 9.999783 
2.2495481e+2, 1.4397368e+2, -1564372.3, -1566837.3, -6156.7246, -0.025122577, -0.010369946, -1559325.9, -30268.705, 0.0, 9.998021, 9.997683 
2.2497289e+2, 1.539712e+2, -1444968.3, -1460041.3, -3634.8694, 0.011060801, -0.014478498, -1444137.5, -13056.36, 0.0, 9.999546, 9.997537 
2.2499122e+2, 1.6396825e+2, -1341111.5, -1366364.5, 1630.4069, 0.025002329, -0.027418211, -1341006.8, -7897.39, 0.0, 10.000253, 9.996896 
2.2501e+2, 1.7396495e+2, -1249976.6, -1270955.6, 1308.9877, 0.0063444297, -0.053840324, -1249895.3, -14754.76, 0.0, 9.999752, 9.99696 
2.2502843e+2, 1.8396007e+2, -1177910.1, -1230518.1, -2267.376, -0.0047406093, -0.05214542, -1177812.5, -40624.09, 0.0, 9.999933, 9.992951 
2.250464e+2, 1.9395313e+2, -1064452.5, -1128576.4, -1082.0735, -0.00462165, -0.011816503, -1064434.1, -25176.02, 0.0, 10.001138, 9.992631 
2.2506388e+2, 2.0394577e+2, -949258.75, -1027005.94, -5471.944, -0.0051354854, 0.014491922, -948875.56, -7544.413, 0.0, 10.002518, 9.992202 
2.2508062e+2, 2.139381e+2, -826740.6, -916087.0, -8736.382, -0.007002227, 0.01784353, -825894.44, 17511.441, 0.0, 10.004147, 9.99229 
2.25098e+2, 2.2392897e+2, -734375.6, -851636.75, -4875.153, -0.005461792, 0.006041197, -734173.3, 11321.486, 0.0, 10.005089, 9.989541 
2.2511627e+2, 2.3391798e+2, -638717.94, -756789.75, -2670.0508, 0.0011144257, -0.030041996, -638657.6, 8944.493, 0.0, 10.0050125, 9.98936 
2.2513439e+2, 2.439066e+2, -546030.7, -676379.0, -3307.3694, 0.008287551, -0.038179465, -545946.8, 3766.8005, 0.0, 10.005295, 9.98802 
2.2515216e+2, 2.5389495e+2, -435903.6, -572615.44, -3486.9219, 0.01617602, -0.005907245, -435814.72, 16013.646, 0.0, 10.006127, 9.988008 
2.2516994e+2, 2.6388162e+2, -346930.3, -513215.63, -2178.294, 0.012973666, 0.004059845, -346901.78, 7057.4204, 0.0, 10.00698, 9.984956 
2.251876e+2, 2.7386612e+2, -237583.6, -412100.4, -890.10614, -0.0069795772, -0.022532856, -237579.05, 18532.242, 0.0, 10.007856, 9.984741 
2.2520524e+2, 2.8385025e+2, -132873.38, -323056.7, -1725.4542, -0.022786152, -0.026989408, -132857.72, 25409.24, 0.0, 10.008836, 9.983654 
2.2522272e+2, 2.9383424e+2, -17810.246, -216136.02, -4039.2488, -0.031955894, 0.0008917847, -17728.014, 42696.09, 0.0, 10.009975, 9.983711 
2.2524042e+2, 3.0382052e+2, 78284.664, -92666.43, -5216.2236, -0.024464615, 0.018542623, 78443.68, 78443.68, 0.0, 10.0109825, 9.988329 
2.2525835e+2, 3.1380865e+2, 88485.68, -89877.74, -6378.3813, 0.008706525, 0.017469361, 88713.484, 88713.484, 0.0, 10.011776, 9.988139 
2.3491564e+2, 1.23955004e+2, -1755626.6, -1724165.3, -5103.958, 0.025499761, -0.0055544106, -1723358.0, 1883.0907, 0.0, 9.996766, 10.000923 
2.3493426e+2, 1.339555e+2, -1657362.6, -1634858.6, -3988.774, 0.0054617547, 0.02843793, -1634172.5, -6935.992, 0.0, 9.997167, 10.000136 
2.3495264e+2, 1.4395472e+2, -1559821.6, -1557354.1, -855.4088, -0.0462052, 0.024495907, -1557086.5, -27842.918, 0.0, 9.998014, 9.998328 
2.3497175e+2, 1.5395246e+2, -1440144.9, -1450107.6, 2156.8772, -0.060178246, -0.023926632, -1439698.0, -8433.273, 0.0, 9.999543, 9.998212 
2.3499073e+2, 1.6394983e+2, -1342307.0, -1368900.8, 493.1889, -0.0484504, -0.03575006, -1342297.9, -9007.9, 0.0, 10.000259, 9.996719 
2.3500971e+2, 1.7394696e+2, -1251856.8, -1274902.0, -609.55084, 0.0019642694, 0.006919429, -1251840.6, -16522.291, 0.0, 9.999759, 9.996687 
2.3502873e+2, 1.839421e+2, -1175516.5, -1225712.4, 1624.1382, 0.03205376, 0.01146751, -1175464.0, -38098.15, 0.0, 9.999938, 9.993275 
2.3504789e+2, 1.9393457e+2, -1061613.9, -1122849.6, 3499.586, 0.030990591, -0.044506907, -1061414.6, -21975.408, 0.0, 10.0011425, 9.993017 
2.3506664e+2, 2.0392671e+2, -953806.5, -1036449.44, 507.1762, 0.018861998, -0.06175225, -953803.4, -12287.114, 0.0, 10.00252, 9.991555 
2.3508474e+2, 2.1391864e+2, -832282.44, -927354.0, -2545.7332, -0.009431845, -0.021777222, -832214.3, 11381.447, 0.0, 10.004137, 9.991523 
2.3510286e+2, 2.2390954e+2, -732272.44, -847136.6, -4456.016, -0.027881477, -0.0015243235, -732099.8, 13585.213, 0.0, 10.005083, 9.989849 
2.3512097e+2, 2.3389924e+2, -635531.7, -750340.8, -2966.7957, -0.031337086, -0.013804628, -635455.06, 12331.031, 0.0, 10.00502, 9.989795 
2.3513937e+2, 2.438882e+2, -545384.7, -675334.6, -566.3016, -0.022577384, -0.0135993445, -545382.25, 4512.129, 0.0, 10.005308, 9.988083 
2.3515818e+2, 2.5387642e+2, -435690.16, -572273.44, -419.3107, 0.0046338206, 0.0039446577, -435688.84, 16321.603, 0.0, 10.006131, 9.988028 
2.3517695e+2, 2.6386315e+2, -344664.38, -508529.38, 971.5122, 0.017413378, 0.006004743, -344658.63, 9481.79, 0.0, 10.00698, 9.985273 
2.3519562e+2, 2.7384803e+2, -235028.78, -406896.84, 2306.449, 0.007936165, -0.018332725, -234997.84, 21290.43, 0.0, 10.007861, 9.985093 
2.352143e+2, 2.8383216e+2, -135884.16, -329337.56, 2356.3267, -0.0018573697, -0.025222968, -135855.47, 22588.467, 0.0, 10.008837, 9.983222 
2.3523289e+2, 2.9381552e+2, -21759.912, -224018.63, 163.97998, -0.011554947, -0.0069909785, -21759.78, 38847.82, 0.0, 10.009961, 9.983176 
2.3525162e+2, 3.0380142e+2, 76087.17, -96745.89, -2111.8918, -0.0037095689, 0.014857267, 76112.98, 76112.98, 0.0, 10.0109625, 9.988056 
2.3527037e+2, 3.1378958e+2, 86634.66, -93469.88, -3255.3105, 0.03118753, 0.039769303, 86693.48, 86693.48, 0.0, 10.011766, 9.987894 
2.4491194e+2, 1.23935215e+2, -1771917.1, -1734600.6, 2749.5266, 0.029792948, -0.028591944, -1734399.1, -8964.914, 0.0, 9.995764, 10.000707 
2.4493147e+2, 1.3393569e+2, -1660656.5, -1638516.8, -589.1654, 0.018812245, 0.021265084, -1638501.1, -11070.895, 0.0, 9.997027, 9.999957 
2.4495079e+2, 1.4393497e+2, -1558014.6, -1554241.8, -383.8449, -0.031756043, 0.02270601, -1554203.1, -24766.012, 0.0, 9.998037, 9.998527 
2.4497089e+2, 1.5393287e+2, -1451174.0, -1452794.0, -591.3242, -0.0559504, -0.032116424, -1450981.1, -19524.643, 0.0, 9.998673, 9.998448 
2.4499059e+2, 1.6393025e+2, -1356165.1, -1380467.3, -7495.3306, -0.05276031, -0.0356224, -1354039.4, -20557.338, 0.0, 9.999523, 9.996286 
2.4500984e+2, 1.7392719e+2, -1241616.6, -1275647.5, -10748.871, -0.008942297, 0.03732896, -1238505.9, -2992.6223, 0.0, 10.000702, 9.996173 
2.4502936e+2, 1.839223e+2, -1147889.6, -1206474.8, -7282.6353, 0.018249258, 0.046294052, -1146998.0, -9436.976, 0.0, 10.001568, 9.993786 
2.4504934e+2, 1.9391507e+2, -1045003.3, -1107621.5, -3362.2974, 0.01998908, -0.044206373, -1044823.3, -5192.9453, 0.0, 10.001964, 9.99365 
2.4506907e+2, 2.0390736e+2, -953848.5, -1036824.7, -1842.8956, 0.01128182, -0.08035652, -953807.6, -12102.26, 0.0, 10.002528, 9.991522 
2.4508846e+2, 2.1389921e+2, -844415.9, -934491.75, 36.35436, -0.012823468, -0.035589118, -844415.9, -630.13293, 0.0, 10.003359, 9.991411 
2.4510756e+2, 2.2389013e+2, -743731.4, -852655.94, -2546.7705, -0.027059812, -0.009554835, -743671.9, 2203.3674, 0.0, 10.004296, 9.989854 
2.4512622e+2, 2.338799e+2, -629957.06, -747474.8, -4377.941, -0.026531413, -0.014934652, -629794.2, 18181.354, 0.0, 10.005393, 9.989809 
2.4514514e+2, 2.4386874e+2, -535397.94, -674962.4, -4989.275, -0.020562645, -0.009421281, -535219.8, 14865.292, 0.0, 10.006182, 9.987683 
2.4516438e+2, 2.5385654e+2, -433393.0, -576243.9, -8236.907, -0.0068548876, 0.01120281, -432919.63, 19285.953, 0.0, 10.006506, 9.98757 
2.4518384e+2, 2.6384327e+2, -339198.56, -499781.2, -6753.251, 0.0016930341, 0.012868901, -338915.06, 15420.638, 0.0, 10.007088, 9.985814 
2.4520354e+2, 2.7382874e+2, -227014.67, -395475.78, -3020.4485, 0.0023476603, -0.017712332, -226960.53, 29516.703, 0.0, 10.008081, 9.985764 
2.4522318e+2, 2.8381306e+2, -137796.9, -334555.5, -1982.8125, 0.00067428796, -0.025963219, -137776.94, 20853.93, 0.0, 10.008888, 9.982837 
2.4524263e+2, 2.9379597e+2, -33657.16, -235629.55, -4163.4487, -0.0042189853, -0.0008462726, -33571.37, 27227.854, 0.0, 10.009394, 9.982651 
2.4526218e+2, 3.0378172e+2, 67268.19, -95433.14, -3596.5737, 0.00029300366, 0.013617621, 67347.65, 67347.65, 0.0, 10.010111, 9.988554 
2.452817e+2, 3.137702e+2, 82511.86, -88317.63, 1360.5409, 0.019111654, 0.007971661, 82522.695, 82522.695, 0.0, 10.011169, 9.988537 
2.5490713e+2, 1.23916134e+2, -1777599.9, -1745730.6, 7822.0835, -0.029771179, -0.041572586, -1743914.3, -18294.568, 0.0, 9.995741, 9.99996 
2.549285e+2, 1.339156e+2, -1666233.3, -1649626.5, 4193.777, 0.020682167, -0.015731525, -1648627.5, -21002.053, 0.0, 9.997014, 9.999207 
2.5494933e+2, 1.4391434e+2, -1559991.5, -1558084.1, 2231.5342, 0.01788341, -0.016811742, -1556611.0, -26972.965, 0.0, 9.998029, 9.998267 
2.5497034e+2, 1.5391237e+2, -1452708.5, -1455759.1, 1796.412, 0.023426443, -0.03910814, -1451877.3, -20220.27, 0.0, 9.998666, 9.998249 
2.5499076e+2, 1.639095e+2, -1361158.6, -1390673.0, -3240.4224, 0.011395998, -0.026701156, -1360807.0, -27121.37, 0.0, 9.99952, 9.995591 
2.5501037e+2, 1.7390558e+2, -1247045.3, -1286764.1, -6247.42, -0.026624199, 0.037665624, -1246085.9, -10360.08, 0.0, 10.0007, 9.995415 
2.5503027e+2, 1.8390065e+2, -1142843.6, -1196090.5, -5463.068, -0.04635216, 0.052273463, -1142288.9, -4514.7134, 0.0, 10.001569, 9.994491 
2.5505075e+2, 1.9389455e+2, -1038657.6, -1094594.6, -1867.7435, -0.037774812, -0.011964135, -1038595.4, 1236.7335, 0.0, 10.001966, 9.994535 
2.5507122e+2, 2.0388761e+2, -949825.4, -1028592.2, 1080.5465, -0.02839934, -0.042866822, -949810.56, -7911.572, 0.0, 10.002533, 9.992078 
2.5509176e+2, 2.1387975e+2, -840769.7, -926902.06, 3104.126, -0.018315801, -0.024307273, -840658.0, 3318.4976, 0.0, 10.003357, 9.991928 
2.5511208e+2, 2.2387062e+2, -745874.06, -856869.7, 1381.374, -0.005029089, -0.017874075, -745856.9, 209.17628, 0.0, 10.004287, 9.989569 
2.5513202e+2, 2.3385991e+2, -632904.2, -753222.8, -311.79956, 0.01300919, -0.032569967, -632903.4, 15267.575, 0.0, 10.005378, 9.989422 
2.5515163e+2, 2.438482e+2, -541521.9, -687314.8, -3487.8403, 0.01184903, -0.02481537, -541438.44, 8847.674, 0.0, 10.006168, 9.986845 
2.5517076e+2, 2.538353e+2, -439755.5, -589377.44, -6953.321, -0.018800491, 0.01598037, -439433.06, 12980.712, 0.0, 10.006505, 9.986672 
2.5519058e+2, 2.6382193e+2, -333890.44, -488832.4, -3218.5408, -0.033458717, 0.024493087, -333823.63, 20721.39, 0.0, 10.0070915, 9.986558 
2.5521135e+2, 2.738082e+2, -220370.95, -381464.53, 673.764, -0.022602169, -0.020343184, -220368.14, 36310.195, 0.0, 10.008073, 9.986723 
2.5523195e+2, 2.8379288e+2, -140333.64, -339538.16, 3.7757342, -0.0140866935, -0.02899501, -140333.64, 18494.404, 0.0, 10.008877, 9.9825 
2.5525197e+2, 2.937755e+2, -37258.35, -243142.5, -2286.1519, -0.009324182, 0.017966403, -37232.97, 23766.445, 0.0, 10.009396, 9.982134 
2.5527218e+2, 3.0376133e+2, 75765.5, -78106.77, 116.95507, -0.011491951, 0.014735206, 75765.586, 75765.586, 0.0, 10.010127, 9.989732 
2.5529245e+2, 3.137504e+2, 92897.29, -67420.97, 5106.5293, -0.02507517, -0.071886286, 93059.78, 93059.78, 0.0, 10.011202, 9.989951 
2.6490363e+2, 1.2389585e+2, -1753403.4, -1736705.6, 153.15776, -0.04043538, -0.029474437, -1736704.3, -10885.871, 0.0, 9.9974985, 9.999709 
2.649258e+2, 1.3389479e+2, -1655053.4, -1646607.5, 70.50306, 0.0070799286, -0.033385396, -1646606.9, -18777.998, 0.0, 9.997873, 9.998989 
2.6494735e+2, 1.4389329e+2, -1558415.0, -1559122.6, -479.5429, 0.009190687, -0.04020799, -1558172.9, -28328.934, 0.0, 9.998211, 9.998106 
2.6496902e+2, 1.5389149e+2, -1456093.9, -1459155.8, -752.3112, 0.032348648, -0.02886775, -1455919.0, -24057.502, 0.0, 9.998509, 9.998091 
2.649902e+2, 1.638884e+2, -1369734.1, -1398724.0, -2265.647, 0.025990492, -0.013161853, -1369558.1, -35665.902, 0.0, 9.999101, 9.995246 
2.650108e+2, 1.7388368e+2, -1257711.8, -1296101.6, -2167.8997, -0.024290763, 0.008390409, -1257589.8, -21650.05, 0.0, 10.000149, 9.995048 
2.6503155e+2, 1.8387853e+2, -1148585.9, -1197801.3, -3408.007, -0.052501623, 0.014507497, -1148351.0, -10360.525, 0.0, 10.001127, 9.994589 
2.6505262e+2, 1.9387302e+2, -1037052.1, -1092106.8, -5426.7627, -0.04731681, -0.0055209068, -1036522.25, 3520.856, 0.0, 10.002, 9.994685 
2.6507372e+2, 2.0386639e+2, -947875.2, -1027128.5, -7439.4697, -0.034975246, -0.014604663, -947182.94, -5075.6606, 0.0, 10.00264, 9.992121 
2.6509497e+2, 2.1385843e+2, -846774.06, -929512.9, -9060.167, -0.012400219, -0.00878682, -845793.56, -1607.7928, 0.0, 10.002931, 9.991949 
2.6511604e+2, 2.2384927e+2, -757493.94, -861301.2, -10117.318, 0.005988154, -0.0106404675, -756517.06, -10241.519, 0.0, 10.003437, 9.98967 
2.6513687e+2, 2.3383866e+2, -648093.4, -759263.75, -8011.6675, 0.01753263, -0.026621023, -647519.0, 860.2732, 0.0, 10.004278, 9.989535 
2.6515734e+2, 2.4382693e+2, -555040.4, -693961.44, -7215.904, 0.011932449, -0.027667576, -554666.56, -4172.1753, 0.0, 10.005244, 9.986835 
2.6517722e+2, 2.538138e+2, -441448.06, -590472.8, -4529.98, -0.02003534, -0.0072855125, -441310.5, 11313.265, 0.0, 10.006397, 9.9866495 
2.6519775e+2, 2.6380038e+2, -331464.88, -488016.4, 117.08945, -0.034253124, -0.0011642374, -331464.78, 23290.607, 0.0, 10.00727, 9.986527 
2.6521927e+2, 2.7378687e+2, -225909.48, -384494.03, -2975.0776, -0.020468935, -0.020069424, -225853.69, 31033.307, 0.0, 10.007704, 9.9866905 
2.6524058e+2, 2.837717e+2, -146545.67, -340746.44, -5760.188, -0.010566332, -0.020600414, -146374.97, 12660.634, 0.0, 10.0083685, 9.982657 
2.6526138e+2, 2.937543e+2, -35790.848, -240379.52, -3194.3933, -0.0074038426, 0.005799032, -35740.984, 25465.93, 0.0, 10.009404, 9.982317 
2.652825e+2, 3.0374032e+2, 84810.53, -70177.12, 941.9834, -0.015421467, -0.0014115245, 84816.26, 84816.26, 0.0, 10.010591, 9.990052 
2.6530388e+2, 3.1372994e+2, 107130.26, -56774.3, -1226.0084, -0.04124134, -0.064596504, 107139.43, 107139.43, 0.0, 10.0120125, 9.990287 
2.749015e+2, 1.23874314e+2, -1751445.3, -1732785.1, 1944.293, -0.0016470269, 0.009329297, -1732584.8, -6554.164, 0.0, 9.997506, 9.999969 
2.749234e+2, 1.3387321e+2, -1652817.5, -1641875.9, 1345.2823, -0.022653356, -0.030883316, -1641712.9, -13672.023, 0.0, 9.99787, 9.99931 
2.7494487e+2, 1.4387175e+2, -1558995.5, -1560121.3, 639.79877, -0.059741646, -0.04720888, -1558706.3, -28651.236, 0.0, 9.998204, 9.99804 
2.749669e+2, 1.538702e+2, -1457012.0, -1460888.5, 368.04318, -0.03125896, -0.0013615005, -1456977.4, -24907.031, 0.0, 9.998504, 9.997975 
2.7498895e+2, 1.6386695e+2, -1369786.9, -1398757.6, 1375.558, -0.011092114, 0.005177367, -1369721.8, -35619.62, 0.0, 9.999098, 9.995242 
2.7501118e+2, 1.7386147e+2, -1257699.1, -1295971.4, 1830.4017, -0.003242617, -0.050124593, -1257611.8, -21456.305, 0.0, 10.000144, 9.995056 
2.750332e+2, 1.8385586e+2, -1152211.8, -1205179.6, -12.26689, -0.0017653937, -0.06642708, -1152211.8, -14001.454, 0.0, 10.001123, 9.994085 
2.75055e+2, 1.9385041e+2, -1041094.4, -1100381.0, -2080.8088, -0.010429072, -0.024630368, -1041021.44, -757.5682, 0.0, 10.001997, 9.994122 
2.7507663e+2, 2.0384367e+2, -951088.1, -1033820.6, -6042.329, -0.010217203, 0.004418266, -950649.1, -8318.755, 0.0, 10.002645, 9.991661 
2.7509806e+2, 2.1383525e+2, -849776.7, -935968.7, -7893.563, 0.0038102614, 0.010618406, -849059.75, -4646.0073, 0.0, 10.002944, 9.991502 
2.7511948e+2, 2.2382608e+2, -753934.7, -854271.56, -7115.856, 0.005592557, 0.0113704745, -753432.5, -6928.751, 0.0, 10.003452, 9.990139 
2.7514088e+2, 2.3381612e+2, -643771.3, -750511.9, -4818.081, -0.011821633, 0.00172299, -643554.25, 5046.5034, 0.0, 10.004287, 9.990126 
2.7516228e+2, 2.4380486e+2, -549558.06, -682666.4, -3054.7, -0.01977275, -0.018294284, -549488.0, 1222.4601, 0.0, 10.005247, 9.987601 
2.7518368e+2, 2.5379193e+2, -435930.66, -578944.7, -277.86975, -0.012259404, -0.056610215, -435930.13, 16906.387, 0.0, 10.006394, 9.987435 
2.752053e+2, 2.637785e+2, -336789.5, -498898.88, 1928.6978, -0.0037485694, -0.061949965, -336766.56, 18201.287, 0.0, 10.007264, 9.985785 
2.7522725e+2, 2.737647e+2, -232618.47, -398346.16, -1434.6809, 0.0058062994, -0.017510308, -232606.05, 24497.725, 0.0, 10.007703, 9.985743 
2.7524915e+2, 2.8374943e+2, -142359.72, -331942.63, -2239.296, 0.008584504, -0.001373911, -142333.27, 16920.615, 0.0, 10.008365, 9.983259 
2.7527088e+2, 2.9373223e+2, -30230.473, -228527.98, 469.79364, 0.0006021112, -0.034020547, -30229.36, 31192.979, 0.0, 10.009392, 9.983131 
2.752931e+2, 3.037186e+2, 81313.99, -76835.15, 5801.2144, -0.012460119, -0.033687335, 81526.51, 81526.51, 0.0, 10.010564, 9.989604 
2.7531597e+2, 3.1370878e+2, 102037.37, -66242.945, 3877.165, -0.03380465, 0.0193844, 102126.65, 102126.65, 0.0, 10.011964, 9.989656 
2.8489852e+2, 1.2385096e+2, -1767045.4, -1736160.3, -6928.142, 0.009653852, 0.02061795, -1734677.4, -8417.314, 0.0, 9.996256, 10.000344 
2.849209e+2, 1.3385034e+2, -1660510.1, -1640661.3, -7201.1606, -0.021211708, -0.014920032, -1638323.9, -10058.524, 0.0, 9.997127, 9.999749 
2.84943e+2, 1.4384909e+2, -1558692.8, -1560290.5, -6379.6523, -0.06667838, -0.033170573, -1553062.1, -22784.834, 0.0, 9.998234, 9.998009 
2.8496584e+2, 1.538474e+2, -1439679.5, -1453479.5, -6382.692, -0.046819985, 0.006621293, -1437180.1, -4885.958, 0.0, 9.999723, 9.99788 
2.8498858e+2, 1.6384417e+2, -1347077.3, -1384314.6, -6120.043, -0.025274111, 0.0063179764, -1346097.1, -11771.61, 0.0, 10.000493, 9.995542 
2.8501135e+2, 1.7383894e+2, -1255175.1, -1290787.1, -3406.3674, -0.000905228, -0.056714524, -1254852.3, -18476.574, 0.0, 10.000142, 9.995406 
2.8503403e+2, 1.8383339e+2, -1165228.4, -1213958.0, -762.9794, 0.008777435, -0.07756908, -1165216.5, -26786.762, 0.0, 10.0003395, 9.993867 
2.8505677e+2, 1.9382766e+2, -1051701.1, -1108814.1, -542.92914, -0.0046267123, -0.035762396, -1051696.0, -11209.524, 0.0, 10.001412, 9.993829 
2.8507918e+2, 2.0382059e+2, -955656.1, -1039585.1, -3907.9858, -0.009493764, -0.007696418, -955474.56, -12918.342, 0.0, 10.002481, 9.991347 
2.8510126e+2, 2.1381183e+2, -843295.3, -936437.6, -4982.787, -0.0010492731, -0.0036079562, -843029.5, 1613.279, 0.0, 10.003539, 9.991182 
2.851233e+2, 2.2380252e+2, -740456.2, -848044.7, -5319.7476, -0.004136207, 0.0017342285, -740193.8, 6540.531, 0.0, 10.004383, 9.990114 
2.851453e+2, 2.3379272e+2, -634704.2, -745999.25, -7223.075, -0.02557485, 0.007217382, -634237.4, 14592.61, 0.0, 10.004898, 9.990136 
2.8516755e+2, 2.4378169e+2, -542721.56, -674434.25, -7929.044, -0.030079333, -0.0092276195, -542245.94, 8691.411, 0.0, 10.005498, 9.988038 
2.8519005e+2, 2.537691e+2, -434619.8, -572770.94, -7157.538, -0.007692672, -0.06253176, -434249.97, 18809.686, 0.0, 10.00624, 9.987926 
2.8521255e+2, 2.6375577e+2, -344003.25, -506456.0, -6271.5845, 0.007778997, -0.070805036, -343761.5, 11428.621, 0.0, 10.006941, 9.985419 
2.8523493e+2, 2.7374163e+2, -237824.58, -406280.9, -6560.999, 0.011570596, -0.0097535895, -237569.42, 19760.256, 0.0, 10.007575, 9.985257 
2.8525746e+2, 2.8372613e+2, -144386.63, -332440.3, -6257.824, 0.010612974, 0.0077687674, -144178.61, 15303.669, 0.0, 10.008202, 9.983299 
2.8528e+2, 2.9370883e+2, -37726.28, -230846.7, -8240.384, 0.0026262277, -0.048126183, -37375.305, 24275.996, 0.0, 10.008817, 9.983243 
2.8530326e+2, 3.0369514e+2, 65191.742, -86803.85, -3808.3452, -0.00453046, -0.049165204, 65287.105, 65287.105, 0.0, 10.009543, 9.989403 
2.853274e+2, 3.1368542e+2, 78528.664, -80276.59, -2946.51, -0.011066154, 0.03812587, 78583.31, 78583.31, 0.0, 10.010456, 9.989411 
2.9489458e+2, 1.2382574e+2, -1764082.1, -1729265.4, -3399.9875, -0.010494135, 0.002946636, -1728936.4, -2429.314, 0.0, 9.9962225, 10.000824 
2.9491836e+2, 1.3382614e+2, -1656845.4, -1632573.8, -4034.75, 0.011450739, 0.014475156, -1631920.6, -3417.7722, 0.0, 9.997104, 10.000307 
2.9494184e+2, 1.4382528e+2, -1558872.6, -1560309.3, -1077.9137, -0.010710359, 0.0025303902, -1558295.6, -27784.408, 0.0, 9.998219, 9.998012 
2.9496592e+2, 1.5382303e+2, -1440293.5, -1454561.8, -756.9128, -0.014690656, -0.0047272476, -1440253.4, -7720.198, 0.0, 9.999714, 9.9978075 
2.9498917e+2, 1.6381997e+2, -1342786.0, -1375451.8, -6696.6616, -0.01761609, -0.01000896, -1341466.4, -6903.5005, 0.0, 10.000494, 9.996143 
2.950113e+2, 1.7381606e+2, -1250277.8, -1280649.9, -4771.887, -0.01763815, -0.012165605, -1249545.8, -12945.102, 0.0, 10.000142, 9.996096 
2.9503408e+2, 1.8381105e+2, -1164749.4, -1213064.5, 2681.2974, -0.021146543, -0.019493304, -1164601.1, -25951.893, 0.0, 10.000343, 9.993923 
2.9505792e+2, 1.9380467e+2, -1051796.8, -1109133.0, 3559.3484, -0.030319504, -0.03873551, -1051576.6, -10865.198, 0.0, 10.001416, 9.993803 
2.9508144e+2, 2.0379712e+2, -956856.8, -1042181.94, 92.699425, -0.033444915, -0.050014008, -956856.75, -14071.458, 0.0, 10.002488, 9.991164 
2.9510456e+2, 2.1378812e+2, -844753.06, -939440.25, -973.4061, -0.02707929, -0.050162382, -844743.06, 130.67793, 0.0, 10.003539, 9.990974 
2.951275e+2, 2.2377853e+2, -744074.1, -855422.3, -3100.581, -0.023875337, -0.038091727, -743987.8, 2980.107, 0.0, 10.004379, 9.98961 
2.9515025e+2, 2.3376843e+2, -638537.2, -753905.2, -5212.3525, -0.025633762, -0.009097224, -638302.2, 10765.258, 0.0, 10.004898, 9.989594 
2.9517317e+2, 2.437574e+2, -541808.44, -672572.75, -5170.058, -0.021173531, -0.00080533366, -541604.4, 9571.154, 0.0, 10.005501, 9.988161 
2.951963e+2, 2.5374526e+2, -433172.97, -569597.5, -4348.658, -0.006717589, -0.02838197, -433034.47, 20259.096, 0.0, 10.006234, 9.988143 
2.9521942e+2, 2.637321e+2, -344259.38, -506776.53, -3911.085, 0.0009987719, -0.03137819, -344165.3, 11257.233, 0.0, 10.006933, 9.985399 
2.9524237e+2, 2.7371764e+2, -238102.73, -407061.22, -4261.688, -0.0022541122, 0.0029229922, -237995.31, 19569.906, 0.0, 10.0075865, 9.985196 
2.952655e+2, 2.8370178e+2, -147261.17, -338971.44, -3996.241, -0.0036454638, 0.0073005958, -147177.89, 12543.267, 0.0, 10.008227, 9.982838 
2.952888e+2, 2.9368407e+2, -40857.42, -238150.17, -5842.021, -0.0013691052, -0.039408125, -40684.586, 21209.25, 0.0, 10.008853, 9.982723 
2.9531294e+2, 3.0367e+2, 65817.516, -86306.24, -370.91724, 0.0068163993, -0.049250282, 65818.414, 65818.414, 0.0, 10.009581, 9.989416 
2.953382e+2, 3.1365997e+2, 79416.56, -78753.35, 576.75006, 0.023486206, -0.00021015554, 79418.67, 79418.67, 0.0, 10.010472, 9.989505 
3.0489114e+2, 1.23800956e+2, -1747119.5, -1722123.8, 4102.003, -0.03418701, -0.032792326, -1721467.8, 5280.736, 0.0, 9.9974165, 10.000732 
3.049157e+2, 1.3380155e+2, -1650205.8, -1630213.0, -2056.2002, 0.014222686, 0.004975796, -1630003.6, -1260.8043, 0.0, 9.997586, 10.000234 
3.0493993e+2, 1.4380069e+2, -1568368.9, -1565363.4, -1573.9254, 0.0088091465, 0.00020113365, -1564690.0, -33938.543, 0.0, 9.997588, 9.997974 
3.049646e+2, 1.5379831e+2, -1475198.1, -1471964.0, -1019.4268, 0.0034233655, -0.01731168, -1471669.5, -38894.53, 0.0, 9.997355, 9.99777 
3.0498862e+2, 1.6379529e+2, -1375979.5, -1390330.5, -6983.6924, -0.007244989, -0.021649318, -1373142.0, -38337.51, 0.0, 9.998176, 9.996256 
3.0501166e+2, 1.7379169e+2, -1241504.9, -1274906.9, -9088.2, -0.02498998, -0.005300415, -1239192.3, -2352.8865, 0.0, 10.000671, 9.996224 
3.050352e+2, 1.8378684e+2, -1137701.5, -1200441.1, -6167.721, -0.035878677, -0.0016567812, -1137100.9, 1785.7678, 0.0, 10.002205, 9.993873 
3.0505967e+2, 1.9378038e+2, -1040632.25, -1104520.8, -5910.698, -0.036342442, -0.021262195, -1040090.0, 859.7766, 0.0, 10.00221, 9.993726 
3.0508393e+2, 2.0377284e+2, -954777.5, -1038084.2, -6857.948, -0.034168627, -0.039466236, -954216.75, -11193.36, 0.0, 10.00249, 9.991437 
3.0510792e+2, 2.1376398e+2, -846793.75, -936804.94, -3924.8083, -0.028285794, -0.057480913, -846622.94, -1513.1383, 0.0, 10.003237, 9.991298 
3.051317e+2, 2.2375438e+2, -750757.9, -861219.75, -3691.0588, -0.023118978, -0.056287464, -750634.7, -3430.762, 0.0, 10.004029, 9.989383 
3.051552e+2, 2.3374397e+2, -640927.7, -758481.06, -4194.397, -0.019336216, -0.026872242, -640778.2, 8528.288, 0.0, 10.004879, 9.98929 
3.0517873e+2, 2.4373274e+2, -542618.2, -675423.0, -4681.95, -0.013207345, -0.011997808, -542453.3, 8963.425, 0.0, 10.005546, 9.987945 
3.0520242e+2, 2.5372055e+2, -439040.75, -574780.94, -6952.891, -0.0033020223, -0.02340228, -438685.53, 14850.102, 0.0, 10.005928, 9.987934 
3.0522618e+2, 2.6370728e+2, -349402.7, -510603.4, -7190.63, -0.00061442686, -0.021500332, -349082.6, 6583.3604, 0.0, 10.006634, 9.985278 
3.0525002e+2, 2.736926e+2, -234684.27, -406601.78, -7710.546, -0.009720834, -0.00035237553, -234339.14, 23471.584, 0.0, 10.007865, 9.985089 
3.05274e+2, 2.8367665e+2, -134652.48, -331215.34, -6238.5107, -0.01452243, -0.0005102194, -134454.69, 25512.164, 0.0, 10.009016, 9.9829855 
3.0529812e+2, 2.936592e+2, -22565.346, -227189.27, -3298.867, -0.011864501, -0.037842307, -22512.178, 39624.387, 0.0, 10.010013, 9.982915 
3.0532295e+2, 3.0364513e+2, 79315.96, -82103.75, 2943.0945, -0.001987806, -0.05230211, 79369.6, 79369.6, 0.0, 10.010603, 9.989216 
3.0534866e+2, 3.1363457e+2, 78484.63, -82216.63, 1227.7804, 0.018467493, -0.031189919, 78494.016, 78494.016, 0.0, 10.010533, 9.989239 
3.1488827e+2, 1.23776704e+2, -1752395.9, -1732856.6, 5452.2993, -0.06400931, -0.08621163, -1731438.3, -4454.9785, 0.0000000000000806617, 9.997418, 9.999999 
3.1491303e+2, 1.3377658e+2, -1655834.6, -1641457.5, -1530.5013, -0.014493005, -0.04441903, -1641296.4, -12311.015, 0.00000000000005243424, 9.997578, 9.999471 
3.1493732e+2, 1.4377533e+2, -1569244.9, -1566803.1, -2361.2146, -0.0101880655, -0.041413117, -1565365.8, -34367.4, 0.000000000000028332263, 9.997576, 9.997881 
3.14962e+2, 1.537732e+2, -1475448.3, -1472083.3, -1936.5331, 0.0060903043, -0.031509053, -1471200.4, -38180.754, 0.000000000000012064798, 9.997341, 9.997768 
3.149869e+2, 1.637701e+2, -1378873.3, -1396010.8, 1236.0624, 0.0044036517, -0.028299259, -1378784.6, -43734.063, 0.000000000000003878589, 9.998161, 9.9958725 
3.1501234e+2, 1.7376584e+2, -1244737.3, -1281336.1, 438.59085, -0.024150513, -0.03566982, -1244732.0, -7639.7134, 0.0000000000000009180906, 10.000658, 9.995789 
3.1503743e+2, 1.8376076e+2, -1138931.9, -1202758.3, -5012.4487, -0.036736708, -0.023825588, -1138540.6, 601.7398, 0.00000000000000015841597, 10.002197, 9.993717 
3.1506202e+2, 1.9375478e+2, -1041563.9, -1106276.3, -5881.7007, -0.023941282, 0.015652435, -1041033.6, 168.20296, 0.000000000000000019869674, 10.002204, 9.9936075 
3.1508663e+2, 2.0374772e+2, -949797.75, -1027698.6, -4300.148, -0.013325127, 0.022046495, -949561.1, -6290.149, 0.0000000000000000018107616, 10.002487, 9.992144 
3.151114e+2, 2.1373935e+2, -841001.4, -924714.7, -1065.8546, -0.006532981, -0.027192632, -840987.8, 4363.782, 0.0000000000000000001198895, 10.003233, 9.992121 
3.1513593e+2, 2.2372995e+2, -750619.5, -860719.6, -576.3655, -0.003980108, -0.054023758, -750616.44, -3173.4302, 0.0000000000000000000057675156, 10.00402, 9.989419 
3.1516019e+2, 2.3371927e+2, -641616.7, -759698.0, -1012.4993, -0.008086701, -0.04599603, -641608.0, 7939.9355, 0.0, 10.00487, 9.989209 
3.1518435e+2, 2.4370764e+2, -546449.0, -683337.56, -3047.7695, -0.0073650875, -0.04138734, -546381.2, 5280.6978, 0.0, 10.0055485, 9.987401 
3.152084e+2, 2.5369495e+2, -443110.66, -583573.6, -5475.988, 0.0014928294, -0.045377556, -442897.5, 10888.87, 0.0, 10.005947, 9.987323 
3.1523284e+2, 2.6368126e+2, -350640.84, -513574.72, -2849.8926, 0.0016907158, -0.039015412, -350591.0, 5329.664, 0.0, 10.006652, 9.985064 
3.1525788e+2, 2.736664e+2, -235869.08, -408891.9, -2931.527, -0.012517051, -0.018392548, -235819.42, 22247.297, 0.0, 10.007858, 9.984933 
3.1528297e+2, 2.8365073e+2, -130217.39, -321339.0, -2355.413, -0.023594992, -0.014970091, -130188.37, 30031.887, 0.0, 10.008988, 9.983671 
3.1530797e+2, 2.9363418e+2, -17255.703, -215434.05, 278.92484, -0.028689781, -0.04257057, -17255.31, 45125.82, 0.0, 10.009984, 9.98373 
3.1533328e+2, 3.0362037e+2, 76279.51, -87989.61, 2935.8784, -0.029214589, -0.058130357, 76331.96, 76331.96, 0.0, 10.010589, 9.988816 
3.153588e+2, 3.1360906e+2, 74491.46, -90730.29, 808.1621, -0.023472637, -0.055471998, 74495.414, 74495.414, 0.0, 10.010547, 9.9886465 
3.248853e+2, 1.2375226e+2, -1768812.0, -1745560.5, 4029.9229, -0.054834884, -0.097961836, -1744881.9, -17660.059, 0.0000000000023454196, 9.996502, 9.999581 
3.2491055e+2, 1.3375162e+2, -1656906.1, -1646960.9, -1187.4048, -0.024570474, -0.06328672, -1646821.1, -17591.998, 0.0000000000015241749, 9.997717, 9.999029 
3.2493538e+2, 1.4374997e+2, -1550656.0, -1561003.5, -1745.4435, -0.03150229, -0.06230418, -1550369.5, -19123.443, 0.0000000000008233425, 9.998974, 9.997595 
3.249606e+2, 1.5374777e+2, -1433320.0, -1454603.4, -3363.6936, -0.016517434, -0.035275456, -1432801.0, 467.38, 0.00000000000035051592, 10.000332, 9.9975 
3.2498628e+2, 1.6374448e+2, -1339855.8, -1378885.5, 467.78018, -0.011551589, -0.027511977, -1339850.1, -4549.1123, 0.00000000000011265747, 10.000892, 9.9957075 
3.2501277e+2, 1.737399e+2, -1252770.4, -1286905.8, 1860.82, -0.020819373, -0.050479088, -1252669.1, -15323.371, 0.000000000000026661206, 10.000176, 9.995643 
3.250387e+2, 1.8373463e+2, -1170429.1, -1219872.1, -3663.1736, -0.022707077, -0.043793414, -1170159.1, -30761.197, 0.000000000000004599458, 10.000125, 9.993558 
3.250638e+2, 1.937286e+2, -1058089.8, -1116158.1, -5087.397, -0.013692394, 0.007493688, -1057647.4, -16189.182, 0.0000000000000005767878, 10.001155, 9.9934435 
3.2508895e+2, 2.0372163e+2, -956060.6, -1029109.75, -5182.118, -0.0039422624, 0.025257433, -955694.9, -12168.1, 0.000000000000000052554126, 10.001984, 9.9922905 
3.2511434e+2, 2.1371356e+2, -850620.94, -927270.3, -6542.7515, 0.006884844, -0.013236192, -850066.44, -4461.7773, 0.0000000000000000034789587, 10.00248, 9.992308 
3.2513967e+2, 2.237043e+2, -761421.56, -864851.9, -7188.843, 0.0079337265, -0.039301027, -760924.3, -13229.725, 0.00000000000000000016733108, 10.003229, 9.989513 
3.251648e+2, 2.3369354e+2, -647972.4, -761843.1, -6311.252, -0.0068520955, -0.046961155, -647623.7, 2176.3108, 0.0, 10.004389, 9.98929 
3.2518986e+2, 2.4368194e+2, -546557.9, -683507.8, -6810.252, -0.012569054, -0.04653702, -546220.06, 5693.768, 0.0, 10.00554, 9.98739 
3.2521465e+2, 2.5366935e+2, -432646.1, -578737.4, -5184.376, -0.0031464745, -0.03579038, -432462.34, 21574.914, 0.0, 10.006667, 9.987305 
3.2523987e+2, 2.6365554e+2, -340366.2, -510453.66, -321.46265, -0.0010480857, -0.03213073, -340365.6, 15806.838, 0.0, 10.007431, 9.984901 
3.252656e+2, 2.736402e+2, -241025.77, -413515.25, -707.999, -0.01158033, -0.04316955, -241022.86, 17299.857, 0.0, 10.007591, 9.984747 
3.252915e+2, 2.8362435e+2, -144296.88, -327846.03, -1396.9238, -0.017031256, -0.045966983, -144286.23, 16191.363, 0.0, 10.008002, 9.9837 
3.2531753e+2, 2.9360825e+2, -33375.895, -222523.28, -3786.8777, -0.013333101, -0.036734045, -33300.11, 29334.805, 0.0, 10.00884, 9.983792 
3.2534358e+2, 3.0359456e+2, 63477.25, -94879.04, -4555.936, -0.013520802, -0.039731704, 63608.22, 63608.22, 0.0, 10.009731, 9.988752 
3.2536942e+2, 3.135829e+2, 76216.234, -90847.43, -3623.9167, -0.021953959, -0.06664128, 76294.81, 76294.81, 0.0, 10.010697, 9.9885645 
3.3488232e+2, 1.2372765e+2, -1770111.0, -1747316.9, 8813.899, -0.006987277, -0.065709464, -1744306.4, -16842.49, 0.00000000005167391, 9.996465, 9.999476 
3.349084e+2, 1.3372669e+2, -1658103.8, -1648857.8, 3323.43, -0.015797429, -0.050385717, -1647787.1, -18313.324, 0.00000000003357157, 9.997693, 9.998908 
3.3493412e+2, 1.4372464e+2, -1554308.0, -1568273.9, 3264.2566, -0.05585865, -0.061883885, -1553582.6, -22088.295, 0.000000000018130754, 9.998963, 9.997102 
3.3496046e+2, 1.5372196e+2, -1437255.6, -1462591.9, 1750.613, -0.065466605, -0.028254215, -1437135.3, -3614.024, 0.000000000007717037, 10.000326, 9.996957 
3.3498672e+2, 1.6371839e+2, -1339556.5, -1378256.1, -1347.6669, -0.056510366, -0.01908144, -1339509.6, -3953.2498, 0.0000000000024798213, 10.0008955, 9.995748 
3.35013e+2, 1.7371385e+2, -1251888.8, -1285029.9, -908.29517, -0.015951272, -0.049883846, -1251863.9, -14263.479, 0.00000000000058676854, 10.000179, 9.995769 
3.350391e+2, 1.8370838e+2, -1171628.1, -1222317.0, -548.9988, 0.005350585, -0.06138923, -1171622.3, -31968.156, 0.00000000000010121049, 10.000124, 9.99339 
3.35065e+2, 1.9370182e+2, -1059567.0, -1119243.5, -1066.6908, -0.0063479827, -0.044353597, -1059548.0, -17828.605, 0.000000000000012690283, 10.001155, 9.993231 
3.350909e+2, 2.0369454e+2, -958782.06, -1034934.1, -2978.656, -0.0070173885, -0.028129071, -958665.7, -14874.588, 0.0000000000000011561161, 10.001995, 9.991886 
3.351169e+2, 2.1368656e+2, -853373.5, -933391.8, -4593.375, 0.011274423, -0.015279734, -853110.7, -7241.3115, 0.000000000000000076521916, 10.002501, 9.991878 
3.3514294e+2, 2.236774e+2, -760085.3, -862525.3, -3042.8762, 0.012048872, -0.01280925, -759995.0, -12036.112, 0.0000000000000000036800285, 10.003248, 9.98966 
3.351691e+2, 2.3366676e+2, -646255.56, -758403.1, -1838.3865, -0.016002685, -0.030660624, -646225.44, 3837.5398, 0.0, 10.004394, 9.989519 
3.351952e+2, 2.436555e+2, -543290.2, -676510.06, -2539.2783, -0.02929435, -0.029066978, -543241.8, 8931.558, 0.0, 10.00553, 9.987868 
3.352212e+2, 2.5364363e+2, -429221.22, -571219.2, -1073.8792, -0.017561125, 0.0025747817, -429213.1, 25076.54, 0.0, 10.00665, 9.9878235 
3.3524722e+2, 2.6363e+2, -341434.94, -512310.84, 527.233, -0.009698017, -0.0028954078, -341433.3, 14989.609, 0.0, 10.007418, 9.984779 
3.3527324e+2, 2.7361384e+2, -242489.44, -416737.47, -240.44127, -0.008756108, -0.07382576, -242489.11, 16091.162, 0.0, 10.007603, 9.984518 
3.352997e+2, 2.8359747e+2, -147914.44, -335791.63, 1383.097, 0.0019784025, -0.09198733, -147904.25, 12835.865, 0.0, 10.008022, 9.983144 
3.3532682e+2, 2.9358137e+2, -37512.96, -231281.75, -613.24146, 0.029823007, -0.022015925, -37511.02, 25387.533, 0.0, 10.008848, 9.983185 
3.3535385e+2, 3.0356765e+2, 64860.664, -91877.336, -957.1419, 0.03869618, -0.00041482685, 64866.508, 64866.508, 0.0, 10.009729, 9.988954 
3.3538052e+2, 3.1355593e+2, 78377.19, -85979.87, 52.28021, 0.01394731, -0.066353224, 78377.2, 78377.2, 0.0, 10.010684, 9.988901 
3.4487903e+2, 1.237004e+2, -1756607.1, -1736804.9, -8339.959, -0.017832477, -0.028311396, -1733760.5, -6028.0215, 0.00000000081250584, 9.9972, 9.99982 
3.4490588e+2, 1.3369974e+2, -1661816.8, -1646427.4, -10841.004, -0.011723744, -0.021184087, -1640827.9, -11088.96, 0.00000000052773436, 9.99725, 9.99928 
3.449325e+2, 1.4369774e+2, -1574013.4, -1576958.8, -5414.1147, -0.0422308, -0.050472196, -1569875.3, -38116.98, 0.00000000028494548, 9.99758, 9.997178 
3.449599e+2, 1.5369487e+2, -1465063.6, -1475687.4, -2360.8254, -0.058027215, -0.039555892, -1464562.6, -30776.242, 0.0000000001212577, 9.998411, 9.996992 
3.4498686e+2, 1.6369133e+2, -1362803.0, -1388586.6, -6192.569, -0.05205916, -0.03390904, -1361392.9, -25571.658, 0.00000000003895854, 9.999266, 9.995835 
3.4501323e+2, 1.7368717e+2, -1251351.1, -1283684.4, -6487.763, -0.00910104, -0.03617724, -1250097.9, -12236.124, 0.000000000009216846, 10.000164, 9.995866 
3.4503973e+2, 1.8368183e+2, -1158483.3, -1215866.0, -3034.4287, 0.010948911, -0.042872265, -1158323.3, -18408.844, 0.0000000000015895714, 10.001012, 9.993395 
3.4506646e+2, 1.9367488e+2, -1050364.4, -1114889.0, -1712.5726, -0.007916679, -0.0606025, -1050319.0, -8336.35, 0.00000000000019928297, 10.001782, 9.99322 
3.4509316e+2, 2.0366733e+2, -950572.94, -1034198.94, -2710.3977, -0.015548242, -0.058038574, -950485.2, -6428.4077, 0.0000000000000181529, 10.002688, 9.991599 
3.451199e+2, 2.1365924e+2, -836221.0, -928796.75, -3655.6384, -0.0040521366, -0.02382358, -836076.9, 10059.72, 0.0000000000000012013685, 10.003826, 9.991549 
3.4514672e+2, 2.2365007e+2, -739922.7, -851842.94, -2560.3503, -0.0018261994, -0.008881072, -739864.1, 8362.474, 0.00000000000000005776772, 10.00458, 9.989744 
3.451737e+2, 2.3363954e+2, -640749.2, -754129.8, -2115.0198, -0.015076038, -0.029619444, -640709.75, 9619.848, 0.0, 10.004695, 9.989665 
3.4520063e+2, 2.4362823e+2, -551407.5, -683052.6, -4137.324, -0.018083429, -0.029858833, -551277.6, 1162.7086, 0.0, 10.00508, 9.987637 
3.452276e+2, 2.536161e+2, -441843.9, -580655.3, -8244.517, -0.0038997806, 0.0022943267, -441355.97, 13203.618, 0.0, 10.005921, 9.987524 
3.4525442e+2, 2.6360247e+2, -347210.4, -510471.84, -9560.435, 0.001449051, -0.0011131413, -346652.47, 10040.174, 0.0, 10.006814, 9.985189 
3.4528092e+2, 2.7358687e+2, -236052.39, -407713.97, -5355.5474, -0.0088268975, -0.067669906, -235885.47, 22958.81, 0.0, 10.007783, 9.9850445 
3.4530795e+2, 2.8357065e+2, -142755.1, -337543.47, -64.449234, -0.0039025412, -0.08708383, -142755.08, 18247.799, 0.0, 10.0085535, 9.982767 
3.453357e+2, 2.935539e+2, -39150.867, -237945.16, -1489.37, 0.027760271, -0.028148606, -39139.707, 24028.0, 0.0, 10.008981, 9.982665 
3.453634e+2, 3.0354008e+2, 62663.3, -89228.43, -860.37103, 0.04101218, -0.0069524846, 62668.17, 62668.17, 0.0, 10.009411, 9.989288 
3.4539083e+2, 3.1352895e+2, 69673.28, -84856.43, 1111.0726, 0.020990377, -0.05443555, 69681.266, 69681.266, 0.0, 10.00985, 9.989379 
3.5487548e+2, 1.2367049e+2, -1751152.3, -1725212.4, -7812.807, -0.09257294, 0.01486892, -1723041.0, 4986.8745, 0.000000009469599, 9.997189, 10.000608 
3.549031e+2, 1.336707e+2, -1655979.9, -1633785.9, -10981.189, -0.013738576, 0.02504302, -1629271.0, 753.78754, 0.0000000061492664, 9.997226, 10.000148 
3.549306e+2, 1.4366926e+2, -1569696.6, -1567455.6, -2810.737, 0.009186979, -0.027589116, -1565550.4, -33512.363, 0.0000000033196064, 9.997554, 9.997832 
3.5495892e+2, 1.5366648e+2, -1460933.5, -1466667.9, 734.11426, 0.0057034953, -0.069407314, -1460841.1, -26776.709, 0.0000000014124153, 9.998389, 9.997614 
3.5498664e+2, 1.6366327e+2, -1361987.1, -1386641.4, -2877.0405, 0.0013359702, -0.0722308, -1361655.9, -25560.088, 0.0000000004537274, 9.999256, 9.995969 
3.550135e+2, 1.7365983e+2, -1250991.6, -1282769.1, -3096.5876, -0.0010030468, -0.009817905, -1250692.8, -12562.371, 0.00000000010733056, 10.000157, 9.995928 
3.5504055e+2, 1.8365486e+2, -1157314.5, -1213382.8, -71.943954, -0.00686825, 0.011091884, -1157314.4, -17134.94, 0.00000000001850869, 10.001009, 9.993563 
3.5506815e+2, 1.9364774e+2, -1049098.8, -1112199.6, 1234.2036, -0.019294186, -0.042187713, -1049074.6, -6826.074, 0.0000000000023202033, 10.001779, 9.993403 
3.5509574e+2, 2.0363997e+2, -951947.25, -1036937.1, 1437.3534, -0.030442057, -0.065098345, -951922.94, -7598.557, 0.00000000000021133044, 10.002686, 9.991411 
3.5512337e+2, 2.1363156e+2, -838068.6, -932396.3, 702.26685, -0.039104912, -0.038236532, -838063.4, 8343.705, 0.000000000000013984623, 10.003818, 9.991303 
3.5515097e+2, 2.2362222e+2, -739956.6, -851623.0, -1595.4624, -0.03418776, -0.026312865, -739933.8, 8564.772, 0.0000000000000006723836, 10.004569, 9.989763 
3.5517848e+2, 2.336118e+2, -640356.25, -753237.8, -1682.9521, -0.006317003, -0.043074682, -640331.2, 10269.418, 0.0, 10.004694, 9.989725 
3.5520607e+2, 2.436001e+2, -557673.2, -696077.7, -1273.6987, 0.017684406, -0.047390915, -557661.5, -4946.212, 0.0, 10.005085, 9.986743 
3.552339e+2, 2.5358674e+2, -449234.38, -596001.8, -4842.703, 0.034504894, -0.033063676, -449074.75, 5772.0654, 0.0, 10.005924, 9.986471 
3.5526153e+2, 2.6357302e+2, -340977.47, -497500.06, -5773.675, 0.029353997, -0.02462233, -340764.78, 16216.5205, 0.0, 10.006813, 9.986073 
3.5528865e+2, 2.7355924e+2, -227677.8, -390139.72, -1724.0841, -0.01275684, -0.02912739, -227659.52, 31456.291, 0.0, 10.007776, 9.986246 
3.5531622e+2, 2.835437e+2, -144369.56, -340770.9, 1636.3751, -0.033293612, -0.036582015, -144355.94, 16911.621, 0.0, 10.008552, 9.982545 
3.5534427e+2, 2.935258e+2, -42127.69, -244529.89, 10.934498, -0.014938459, -0.05201899, -42127.688, 21315.873, 0.0, 10.009002, 9.982201 
3.553724e+2, 3.0351162e+2, 66355.984, -82473.65, 698.17505, -0.0016262969, -0.0536608, 66359.26, 66359.26, 0.0, 10.009455, 9.989727 
3.5540047e+2, 3.135018e+2, 74617.836, -75753.91, 2465.048, 0.00039756467, -0.03284762, 74658.234, 74658.234, 0.0, 10.009904, 9.989974 
3.6487234e+2, 1.2364061e+2, -1766713.0, -1731809.6, -140.86874, -0.071305454, 0.0007881093, -1731809.0, -3488.6672, 0.00000008268434, 9.996084, 10.000703 
3.649003e+2, 1.3364099e+2, -1655971.5, -1632866.5, -9928.017, -0.0143225435, 0.017905107, -1629186.6, 1129.134, 0.00000005368276, 9.997183, 10.000231 
3.6492828e+2, 1.4363986e+2, -1560222.3, -1556482.1, -5655.036, 0.0043878923, -0.033120625, -1552396.0, -20070.023, 0.000000028975498, 9.997914, 9.998401 
3.6495727e+2, 1.5363778e+2, -1460572.8, -1459306.6, -2046.966, 0.016590228, -0.0683722, -1457797.1, -23451.688, 0.000000012326782, 9.9980955, 9.998255 
3.6498582e+2, 1.6363487e+2, -1369847.5, -1392321.0, -4165.208, 0.015092192, -0.0701187, -1369100.4, -32726.59, 0.000000003959453, 9.998794, 9.995804 
3.650137e+2, 1.7363106e+2, -1249793.0, -1285495.6, -6754.005, -0.0060847867, -0.016368125, -1248558.0, -10145.826, 0.0000000009365381, 10.000375, 9.995631 
3.6504167e+2, 1.8362598e+2, -1149690.9, -1208055.4, -7880.344, -0.01955645, 0.0054227607, -1148645.6, -8183.2627, 0.0000000001614897, 10.001452, 9.993704 
3.6506987e+2, 1.9361925e+2, -1049031.6, -1109778.5, -6809.2104, -0.02086661, -0.030288054, -1048277.7, -5750.109, 0.000000000020242613, 10.001676, 9.993611 
3.6509818e+2, 2.0361164e+2, -960050.94, -1039735.1, -4108.4995, -0.023346221, -0.051632393, -959839.6, -15238.034, 0.0000000000018436379, 10.002075, 9.99151 
3.651268e+2, 2.1360306e+2, -852229.25, -938331.1, -2302.8674, -0.027976135, -0.050735205, -852167.7, -5482.0005, 0.00000000000012199398, 10.002802, 9.991387 
3.6515516e+2, 2.2359367e+2, -754634.2, -859266.56, -4875.5337, -0.023082165, -0.04765039, -754407.5, -5629.786, 0.0000000000000058651187, 10.003584, 9.989716 
3.6518306e+2, 2.3358339e+2, -644529.56, -756027.06, -6100.565, -0.0023322506, -0.04366776, -644196.75, 6681.914, 0.0, 10.0044365, 9.9896555 
3.6521125e+2, 2.4357167e+2, -555114.5, -695225.6, -2513.3704, 0.015523369, -0.044219807, -555069.44, -2075.9514, 0.0, 10.005269, 9.986711 
3.6523983e+2, 2.5355804e+2, -447197.7, -595338.4, 1217.502, 0.028206674, -0.055746328, -447187.7, 7939.7446, 0.0, 10.00607, 9.98645 
3.652683e+2, 2.6354426e+2, -341039.47, -497905.97, 1636.6194, 0.024286602, -0.05173545, -341022.4, 16240.196, 0.0, 10.006821, 9.986044 
3.6529636e+2, 2.7353072e+2, -232248.39, -392708.63, -2826.1218, -0.007800192, -0.023256453, -232198.63, 27196.219, 0.0, 10.007472, 9.986216 
3.6532468e+2, 2.835154e+2, -148163.2, -341943.75, -3731.0522, -0.026933819, -0.0152160525, -148091.39, 13454.031, 0.0, 10.008255, 9.982603 
3.6535332e+2, 2.9349738e+2, -37767.805, -241594.0, -1835.2899, -0.022908999, -0.045942318, -37751.28, 25970.762, 0.0, 10.009258, 9.982276 
3.653821e+2, 3.0348313e+2, 75742.78, -79373.6, -1142.6748, -0.013281928, -0.05525008, 75751.2, 75751.2, 0.0, 10.010154, 9.989604 
3.6541092e+2, 3.134732e+2, 87390.914, -71447.945, -4541.452, 0.0036067315, -0.029373737, 87520.65, 87520.65, 0.0, 10.010857, 9.989806 
3.748696e+2, 1.2361085e+2, -1772208.5, -1741842.4, 4406.5005, 0.04977968, -0.07338761, -1741215.9, -12606.721, 0.0000005532481, 9.996033, 10.000042 
3.7489748e+2, 1.3361059e+2, -1661752.0, -1643996.6, -5881.324, -0.013175223, -0.044762686, -1642225.3, -11613.602, 0.00000035914545, 9.997152, 9.999485 
3.7492555e+2, 1.4360951e+2, -1557118.4, -1549709.8, -4694.1226, -0.059364174, -0.06833783, -1547434.4, -14812.113, 0.00000019382824, 9.9979, 9.998865 
3.7495494e+2, 1.5360875e+2, -1456092.5, -1449672.3, -1480.7892, -0.027123053, -0.03657477, -1449347.1, -14717.642, 0.00000008245099, 9.99808, 9.998916 
3.7498432e+2, 1.6360612e+2, -1373447.0, -1399410.9, 1050.5645, -0.012077843, -0.026853956, -1373404.6, -36749.195, 0.000000026481976, 9.99878, 9.995324 
3.750139e+2, 1.7360085e+2, -1254678.3, -1295299.6, -741.2735, -0.025354886, -0.055137906, -1254664.6, -15957.166, 0.0000000062635124, 10.000363, 9.994965 
3.7504303e+2, 1.8359518e+2, -1148980.4, -1206389.8, -6362.877, -0.028276064, -0.059215087, -1148283.6, -7520.35, 0.0000000010799891, 10.001445, 9.993819 
3.750716e+2, 1.9358939e+2, -1047284.8, -1106178.8, -5917.5186, -0.013950711, -0.025146946, -1046696.1, -3875.9856, 0.00000000013537126, 10.001678, 9.993854 
3.7510052e+2, 2.0358235e+2, -957317.56, -1034291.1, -1548.8993, 0.0033489612, -0.018278321, -957286.4, -12397.619, 0.000000000012328863, 10.002086, 9.991874 
3.7513015e+2, 2.1357371e+2, -849431.2, -932660.2, 517.07806, 0.02566966, -0.061140195, -849427.94, -2454.9766, 0.0000000000008157841, 10.002808, 9.991768 
3.7515926e+2, 2.2356434e+2, -755350.5, -860806.7, -1703.1305, 0.027938094, -0.07265961, -755323.0, -6258.354, 0.00000000000003921943, 10.003588, 9.989606 
3.7518746e+2, 2.3355423e+2, -645796.3, -758753.56, -2887.3633, -0.004019975, -0.032135423, -645722.56, 5441.8247, 0.000000000000000000006929764, 10.004441, 9.989465 
3.7521613e+2, 2.4354285e+2, -549771.56, -684287.4, 439.96103, -0.023458457, -0.021534838, -549770.06, 3505.9495, 0.0000000000000000000002423796, 10.005276, 9.987451 
3.7524542e+2, 2.5352976e+2, -440791.8, -582170.9, 4032.833, -0.020159075, -0.066863604, -440676.88, 14726.614, 0.0, 10.006076, 9.987343 
3.7527475e+2, 2.6351592e+2, -346954.97, -510263.22, 3926.2505, -0.012405137, -0.081867486, -346860.63, 10678.055, 0.0, 10.006826, 9.985194 
3.7530392e+2, 2.7350137e+2, -240297.98, -409411.3, -512.26874, 0.0028698267, -0.0462803, -240296.44, 19385.764, 0.0, 10.007474, 9.985068 
3.7533328e+2, 2.8348565e+2, -146134.42, -337592.28, -263.02036, 0.0088996105, -0.020074053, -146134.06, 15702.791, 0.0, 10.00825, 9.982899 
3.7536278e+2, 2.9346853e+2, -34065.64, -233659.22, 1702.0972, -0.001322579, -0.01407561, -34051.13, 29953.709, 0.0, 10.009251, 9.982819 
3.7539244e+2, 3.034544e+2, 71245.65, -88428.02, 1405.8914, 0.0008296636, -0.017582366, 71258.03, 71258.03, 0.0, 10.010145, 9.988982 
3.75422e+2, 3.1344318e+2, 81311.86, -83561.22, -1939.7583, 0.024310067, -0.04065031, 81334.68, 81334.68, 0.0, 10.010837, 9.988981 
3.8486555e+2, 1.2358124e+2, -1778541.3, -1745126.6, 6802.067, 0.061338626, -0.092399135, -1743795.0, -14897.128, 0.0000029192024, 9.9956, 10.000031 
3.8489452e+2, 1.3358086e+2, -1666417.5, -1647129.9, 977.5594, -0.008432968, -0.070992365, -1647080.5, -16178.496, 0.0000018948215, 9.996861, 9.999418 
3.8492352e+2, 1.4357959e+2, -1557710.5, -1554467.9, 396.09097, -0.058801398, -0.09175896, -1554420.1, -21505.54, 0.0000010225369, 9.998048, 9.998473 
3.8495344e+2, 1.5357868e+2, -1443557.9, -1448666.6, -4988.239, -0.03782985, -0.030087594, -1440508.1, -5583.9966, 0.0000004349407, 9.999148, 9.99846 
3.849835e+2, 1.6357589e+2, -1357370.1, -1391210.5, -5082.674, -0.02355577, -0.012511707, -1356623.1, -19671.416, 0.00000013969013, 9.999849, 9.995357 
3.8501406e+2, 1.7357042e+2, -1260501.4, -1296862.4, -1142.474, -0.019081013, -0.06940805, -1260465.6, -21460.531, 0.000000033038678, 9.999903, 9.995082 
3.850441e+2, 1.8356474e+2, -1163606.6, -1212475.8, -3762.9453, -0.014110463, -0.08613606, -1163318.5, -22257.836, 0.0000000056966374, 10.000398, 9.993914 
3.850733e+2, 1.9355917e+2, -1046958.0, -1105006.1, -4521.2617, -0.00975632, -0.037687298, -1046607.94, -3492.3567, 0.0000000007140435, 10.001649, 9.993949 
3.8510284e+2, 2.0355234e+2, -949753.44, -1030338.1, -2537.8396, 0.002197871, -0.020577803, -949673.56, -4490.7827, 0.00000000006503118, 10.0025835, 9.991901 
3.8513306e+2, 2.1354373e+2, -846876.8, -931309.9, -3264.9792, 0.027368542, -0.060706127, -846750.75, 515.9079, 0.000000000004303039, 10.002972, 9.991777 
3.851629e+2, 2.235343e+2, -756331.5, -863630.6, -5915.8545, 0.031102756, -0.06984632, -756006.3, -6647.277, 0.00000000000020687176, 10.003613, 9.989396 
3.8519207e+2, 2.3352395e+2, -643507.8, -760442.94, -7338.338, -0.0019949232, -0.027838828, -643049.06, 8412.121, 0.00000000000000000020104626, 10.004712, 9.989213 
3.852216e+2, 2.4351257e+2, -541743.25, -676694.44, -6260.0825, -0.024457557, -0.01665557, -541453.5, 12119.305, 0.000000000000000000007029948, 10.005657, 9.98778 
3.8525155e+2, 2.5349987e+2, -433960.38, -574073.25, -6085.9067, -0.02789263, -0.062344037, -433696.53, 21999.285, 0.0, 10.00633, 9.987765 
3.8528156e+2, 2.6348615e+2, -347099.47, -513631.88, -6833.343, -0.022140065, -0.08155152, -346819.56, 11010.546, 0.0, 10.006949, 9.984898 
3.8531137e+2, 2.7347106e+2, -243120.16, -415478.4, -6409.28, -0.0011642941, -0.05693558, -242882.16, 17096.707, 0.0, 10.007474, 9.984651 
3.8534147e+2, 2.8345507e+2, -148309.63, -338421.22, -3061.8171, 0.0094107175, -0.03515328, -148260.33, 13875.98, 0.0, 10.008084, 9.982919 
3.8537186e+2, 2.934381e+2, -39260.88, -235054.13, -3916.2666, 0.0022113165, -0.021916887, -39182.58, 25120.063, 0.0, 10.008837, 9.982918 
3.854023e+2, 3.0342412e+2, 62597.598, -91473.86, -4826.971, 0.005410789, -0.019502144, 62748.676, 62748.676, 0.0, 10.009494, 9.989081 
3.854324e+2, 3.1341305e+2, 69360.08, -88108.555, -2228.001, 0.025744075, -0.039378103, 69391.59, 69391.59, 0.0, 10.0099535, 9.989095 
3.9486006e+2, 1.2355191e+2, -1774686.0, -1736155.1, 11592.833, -0.047091458, -0.052043647, -1732936.1, -3750.5034, 0.000012531762, 9.995556, 10.000657 
3.9489144e+2, 1.3355184e+2, -1662713.4, -1638644.8, 5628.7827, -0.002032847, -0.05874118, -1637393.4, -6207.505, 0.0000081336, 9.996825, 10.000008 
3.9492223e+2, 1.4355013e+2, -1567209.0, -1573427.1, 4533.9165, 0.006542215, -0.1025294, -1564820.6, -31617.797, 0.0000043890395, 9.998025, 9.997192 
3.9495283e+2, 1.5354757e+2, -1455132.4, -1472115.4, -916.96747, -0.015890053, -0.048912603, -1455083.0, -19854.04, 0.0000018668253, 9.999134, 9.996869 
3.949834e+2, 1.6354413e+2, -1353702.8, -1383504.0, -4489.8394, -0.020344924, -0.027036803, -1353041.1, -15777.95, 0.0000005995586, 9.999846, 9.995879 
3.950143e+2, 1.7353976e+2, -1254271.5, -1283929.8, -1028.8207, 0.011288283, -0.05992221, -1254235.9, -14930.702, 0.00000014180438, 9.999903, 9.995959 
3.9504486e+2, 1.8353462e+2, -1163128.1, -1211406.3, 307.8189, 0.021019576, -0.07599134, -1163126.1, -21770.979, 0.000000024450705, 10.000394, 9.993985 
3.9507496e+2, 1.9352861e+2, -1047501.8, -1105962.9, 250.66444, -0.00922304, -0.06690134, -1047500.75, -4086.4165, 0.0000000030648393, 10.001641, 9.993883 
3.9510515e+2, 2.0352152e+2, -951942.06, -1034740.9, -648.4477, -0.02696691, -0.057270896, -951936.94, -6452.892, 0.00000000027913746, 10.002581, 9.991599 
3.9513555e+2, 2.1351305e+2, -849137.3, -936204.25, -1788.0082, -0.021310648, -0.049994066, -849100.6, -1533.4229, 0.00000000001847093, 10.002984, 9.991436 
3.9516607e+2, 2.2350349e+2, -758352.2, -868096.2, -2090.13, -0.012427125, -0.040370528, -758312.4, -8651.154, 0.0000000000008880364, 10.003626, 9.989082 
3.9519683e+2, 2.3349251e+2, -645846.8, -765044.8, -3069.5942, 0.0013588562, -0.029869525, -645767.8, 6001.5225, 0.000000000000000004402075, 10.0047, 9.988902 
3.9522758e+2, 2.4348083e+2, -542503.56, -677657.2, -3413.9158, 0.007481681, -0.02801075, -542417.4, 11466.449, 0.00000000000000000015389045, 10.005632, 9.987722 
3.952582e+2, 2.5346842e+2, -434330.53, -574319.3, -3486.702, 0.00015676554, -0.043845646, -434243.75, 21760.635, 0.0, 10.0063095, 9.987755 
3.9528865e+2, 2.6345485e+2, -345900.22, -510792.3, -4728.707, -0.008664467, -0.05365806, -345764.72, 12372.215, 0.0, 10.006936, 9.985096 
3.9531866e+2, 2.7343974e+2, -241562.84, -412153.63, -4427.9766, -0.01969076, -0.056397285, -241447.98, 18837.564, 0.0, 10.007472, 9.984876 
3.9534923e+2, 2.834235e+2, -149824.55, -341621.63, -354.03983, -0.022827666, -0.05901793, -149823.89, 12620.743, 0.0, 10.008089, 9.982695 
3.953806e+2, 2.934061e+2, -41445.176, -239447.2, -1031.5698, -0.010828927, -0.06377997, -41439.805, 23175.723, 0.0, 10.008834, 9.9826145 
3.9541173e+2, 3.033923e+2, 67663.086, -81032.05, -2886.7256, 0.00024078734, -0.05550397, 67719.11, 67719.11, 0.0, 10.009503, 9.989788 
3.954422e+2, 3.1338257e+2, 76401.625, -74598.695, -712.9393, 0.0070101367, -0.02753157, 76404.99, 76404.99, 0.0, 10.010008, 9.989991 
4.0485626e+2, 1.235209e+2, -1747838.4, -1721771.1, 4735.6323, -0.06826801, -0.047991123, -1720937.5, 8552.365, 0.00004485904, 9.997313, 10.000769 
4.0488848e+2, 1.3352104e+2, -1655581.1, -1634851.8, -6035.169, -0.0034193958, -0.037139587, -1633222.8, -1734.4758, 0.00002911354, 9.99729, 10.000029 
4.049202e+2, 1.435192e+2, -1574202.8, -1580099.0, -4770.3896, 0.017482698, -0.08272417, -1571543.0, -38036.625, 0.000015709626, 9.997684, 9.996895 
4.049518e+2, 1.5351605e+2, -1461394.9, -1478979.4, -652.44507, -0.013075223, -0.053809904, -1461370.6, -25832.604, 0.000006681798, 9.998864, 9.9965315 
4.0498325e+2, 1.6351241e+2, -1352560.3, -1381596.5, -2667.0632, -0.022781067, -0.039574005, -1352317.4, -14743.157, 0.0000021459712, 9.999859, 9.996005 
4.0501446e+2, 1.7350844e+2, -1243845.0, -1276646.3, -4689.473, 0.008917002, -0.050655883, -1243187.6, -3575.5388, 0.00000050756734, 10.000511, 9.996157 
4.0504557e+2, 1.8350334e+2, -1155936.1, -1211648.8, -6201.604, 0.020681888, -0.058997635, -1155254.1, -13592.4795, 0.00000008752133, 10.0010395, 9.993649 
4.050765e+2, 1.9349675e+2, -1054466.8, -1114174.6, -8819.614, -0.0042313095, -0.06675693, -1053191.3, -9464.539, 0.000000010971236, 10.001369, 9.993446 
4.0510753e+2, 2.0348938e+2, -958944.75, -1037071.5, -9850.0205, -0.022518756, -0.06307722, -957722.0, -11922.958, 0.0000000009993062, 10.0020485, 9.99169 
4.0513864e+2, 2.1348122e+2, -842387.3, -930795.5, -7223.379, -0.02818206, -0.042975392, -841801.0, 6078.1904, 0.00000000006613187, 10.003345, 9.991625 
4.0516987e+2, 2.2347176e+2, -750402.75, -864501.9, -5515.17, -0.023795621, -0.03336312, -750136.8, -164.67609, 0.0000000000031798247, 10.004174, 9.989059 
4.052012e+2, 2.334605e+2, -654059.5, -769749.6, -4924.8325, -0.002723816, -0.045368835, -653850.25, -1767.6118, 0.0000000000000000688154, 10.004164, 9.988839 
4.0523264e+2, 2.4344872e+2, -558748.75, -685245.25, -2952.958, 0.009396101, -0.0513956, -558679.8, -4481.7803, 0.0000000000000000024051838, 10.0045, 9.987751 
4.052641e+2, 2.5343654e+2, -446079.9, -579495.8, -2479.6953, 0.0054202303, -0.04898382, -446033.84, 10282.965, 0.0, 10.005473, 9.987806 
4.0529537e+2, 2.6342314e+2, -352156.0, -512395.66, -3996.0244, -0.003118706, -0.04767432, -352056.4, 6391.282, 0.0, 10.00644, 9.985225 
4.0532607e+2, 2.7340814e+2, -242180.4, -410902.72, -4416.44, -0.019551862, -0.05239819, -242064.89, 18530.086, 0.0, 10.007357, 9.985017 
4.053573e+2, 2.83392e+2, -149543.25, -341320.88, -474.16824, -0.025909908, -0.05952739, -149542.08, 13211.3545, 0.0, 10.008091, 9.982716 
4.0538922e+2, 2.9337448e+2, -46158.883, -241795.81, 723.04755, -0.0133193275, -0.07343468, -46156.21, 18768.842, 0.0, 10.008504, 9.982615 
4.0542105e+2, 3.0336073e+2, 65595.336, -80441.42, -157.32327, -0.0055953255, -0.068568565, 65595.5, 65595.5, 0.0, 10.009279, 9.989941 
4.054524e+2, 3.133512e+2, 87909.35, -67174.89, -2585.917, -0.009515912, -0.033270597, 87952.46, 87952.46, 0.0, 10.010708, 9.990162 
4.148543e+2, 1.2348821e+2, -1751184.4, -1728172.8, 4857.1035, 0.001273854, -0.081692554, -1727189.5, 2621.2764, 0.0001357749, 9.997297, 10.000339 
4.1488567e+2, 1.3348843e+2, -1659973.5, -1643278.1, -6550.5283, -0.012941957, -0.0060310005, -1641014.8, -9205.589, 0.00008811505, 9.997272, 9.999462 
4.149174e+2, 1.4348677e+2, -1569523.6, -1569828.3, -1251.1823, -0.028952055, -0.031365328, -1568415.5, -34589.742, 0.000047546542, 9.997656, 9.997602 
4.149505e+2, 1.5348414e+2, -1455085.3, -1465431.8, 3742.3557, -0.031281054, -0.044590946, -1453873.5, -18021.994, 0.000020223571, 9.998839, 9.99746 
4.14983e+2, 1.6348068e+2, -1354757.1, -1385771.5, -23.937304, -0.03204026, -0.05037895, -1354757.1, -16872.182, 0.0000064954993, 9.999847, 9.995723 
4.1501465e+2, 1.7347646e+2, -1247432.6, -1283837.3, -2305.7505, -0.026806239, -0.041693192, -1247287.1, -7360.979, 0.0000015364569, 10.000506, 9.995666 
4.1504624e+2, 1.8347092e+2, -1161177.5, -1222441.1, -4835.7114, -0.016098939, -0.03522334, -1160798.1, -18817.732, 0.00000026496838, 10.001041, 9.992911 
4.1507798e+2, 1.9346356e+2, -1059941.3, -1125649.9, -7462.961, 0.0033307006, -0.03822699, -1059104.3, -15051.703, 0.000000033220672, 10.00138, 9.992658 
4.1510993e+2, 2.0345588e+2, -955594.7, -1030363.44, -5329.898, 0.012398551, -0.03895399, -955216.6, -9088.848, 0.0000000030265355, 10.002057, 9.992139 
4.151423e+2, 2.134482e+2, -837659.3, -920888.06, -2178.7334, 0.0028472529, -0.038819943, -837602.3, 10600.709, 0.00000000020034616, 10.003337, 9.9923 
4.1517422e+2, 2.2343904e+2, -748790.06, -860901.6, -4819.7256, -0.006576588, -0.047153883, -748583.25, 1709.083, 0.000000000009636878, 10.004166, 9.989306 
4.1520527e+2, 2.3342781e+2, -652592.25, -767143.2, -4981.572, -0.014947095, -0.073242135, -652376.06, 25.84645, 0.0000000000000007946489, 10.004186, 9.989005 
4.152369e+2, 2.434161e+2, -557567.5, -683550.5, 170.51883, -0.018001923, -0.0853707, -557567.25, -3050.8403, 0.000000000000000027769294, 10.004534, 9.987847 
4.152694e+2, 2.534041e+2, -445313.2, -578142.0, 1152.3293, -0.0112698, -0.07494127, -445303.2, 11330.977, 0.0, 10.005484, 9.98789 
4.153018e+2, 2.6339093e+2, -351807.06, -511552.28, -668.4515, -0.0063382476, -0.060939487, -351804.28, 6959.264, 0.0, 10.006437, 9.985279 
4.153336e+2, 2.7337617e+2, -241948.13, -410221.7, -1222.0409, -0.0052122865, -0.045249913, -241939.25, 18969.32, 0.0, 10.007349, 9.985063 
4.153656e+2, 2.8336027e+2, -148035.13, -338102.7, 986.99774, -0.005501176, -0.03936918, -148030.0, 15034.675, 0.0, 10.008091, 9.982931 
4.153978e+2, 2.9334295e+2, -44274.92, -238047.42, 1773.5481, -0.0076283193, -0.054965023, -44258.69, 20975.148, 0.0, 10.008515, 9.982862 
4.154303e+2, 3.0332908e+2, 63286.277, -85417.37, 4178.8325, -0.013280955, -0.061770193, 63403.617, 63403.617, 0.0, 10.009292, 9.989587 
4.1546294e+2, 3.1331885e+2, 84412.164, -74005.99, 2485.1838, -0.026945297, -0.054108184, 84451.14, 84451.14, 0.0, 10.0106945, 9.989693 
4.2485124e+2, 1.23455316e+2, -1767884.6, -1742141.1, 3834.6418, 0.011184894, -0.078331135, -1741582.1, -11448.204, 0.00035082738, 9.99641, 9.999821 
4.2488313e+2, 1.3345501e+2, -1657952.8, -1650029.9, -9122.528, -0.020291211, 0.009829529, -1644045.8, -11907.932, 0.00022768496, 9.997733, 9.998777 
4.2491537e+2, 1.4345306e+2, -1555428.5, -1559997.3, -6402.8486, -0.035900693, -0.014365653, -1550914.8, -16757.684, 0.0001228659, 9.998478, 9.997866 
4.2494917e+2, 1.534507e+2, -1460922.5, -1463403.8, -5236.864, -0.01893061, -0.040130544, -1456781.3, -20601.969, 0.000052266085, 9.998225, 9.9978895 
4.2498243e+2, 1.6344745e+2, -1372130.4, -1394037.6, -7986.48, -0.014620757, -0.05192259, -1369527.9, -31317.22, 0.00001678997, 9.998647, 9.995735 
4.25015e+2, 1.7344323e+2, -1250171.3, -1285773.4, -6755.7065, -0.030040918, -0.03785824, -1248932.4, -8680.251, 0.000003972505, 10.000336, 9.995611 
4.2504746e+2, 1.8343769e+2, -1151359.6, -1216860.4, -7133.3755, -0.029515948, -0.030947383, -1150591.8, -8285.416, 0.00000068530704, 10.001668, 9.992985 
4.2507976e+2, 1.9343036e+2, -1045251.56, -1117412.0, -3750.4553, -0.0015366111, -0.04275134, -1045057.1, -679.1685, 0.00000008596078, 10.002325, 9.992764 
4.251123e+2, 2.0342264e+2, -947163.5, -1028277.06, 550.8108, 0.01342824, -0.047586393, -947159.8, -706.2848, 0.000000007836224, 10.002711, 9.99197 
4.2514533e+2, 2.1341476e+2, -849063.9, -929034.5, -2697.614, 0.004407519, -0.04229147, -848972.94, -442.40564, 0.0000000005191636, 10.002664, 9.99207 
4.2517793e+2, 2.2340561e+2, -761028.8, -864189.5, -8431.293, -0.006392128, -0.04787753, -760344.3, -9724.318, 0.000000000025000514, 10.003206, 9.989543 
4.2520973e+2, 2.3339467e+2, -641017.4, -757984.3, -7497.761, -0.019621788, -0.07645071, -640538.7, 12187.832, 0.0000000000000068380394, 10.004816, 9.989321 
4.2524204e+2, 2.4338308e+2, -538783.56, -676457.94, -3537.0679, -0.02501821, -0.085817344, -538692.75, 16146.989, 0.00000000000000023892724, 10.005896, 9.987671 
4.2527512e+2, 2.5337094e+2, -439608.25, -578499.56, -5262.128, -0.016796296, -0.06290783, -439409.16, 17550.219, 0.0, 10.0060005, 9.987611 
4.2530814e+2, 2.6335764e+2, -353071.34, -512184.6, -7526.4653, -0.008810279, -0.045350157, -352716.13, 6374.101, 0.0, 10.006338, 9.985278 
4.2534086e+2, 2.7334282e+2, -244708.28, -411056.66, -7876.165, -0.0024832857, -0.042971637, -244336.2, 16899.66, 0.0, 10.007127, 9.985107 
4.2537358e+2, 2.8332686e+2, -150968.88, -339531.0, -7215.0996, -0.002188843, -0.04120548, -150693.2, 12698.779, 0.0, 10.007883, 9.982926 
4.2540625e+2, 2.9330972e+2, -44133.816, -238068.28, -8439.178, -0.011869566, -0.042552937, -43767.273, 21792.695, 0.0, 10.00852, 9.982851 
4.2543945e+2, 3.0329588e+2, 62720.457, -84813.34, -4039.7405, -0.019613706, -0.047531847, 62830.99, 62830.99, 0.0, 10.009207, 9.989659 
4.2547327e+2, 3.132855e+2, 74784.76, -77492.164, -1753.3065, -0.025876999, -0.06273524, 74804.94, 74804.94, 0.0, 10.009973, 9.989794 
4.3484706e+2, 1.234223e+2, -1773349.5, -1751836.9, 8682.782, -0.046881918, -0.036097873, -1748769.8, -18311.355, 0.00078514614, 9.9963455, 9.999189 
4.3488076e+2, 1.3342074e+2, -1664500.8, -1662607.6, -4325.3335, -0.027435064, 0.010553381, -1659126.5, -26652.434, 0.00050963036, 9.997699, 9.997934 
4.349142e+2, 1.4341804e+2, -1557042.6, -1562876.6, -6783.8584, -0.0037090313, -0.032519683, -1552575.3, -18074.805, 0.00027507497, 9.998465, 9.997674 
4.349478e+2, 1.5341578e+2, -1461649.8, -1464448.3, -6475.4854, 0.022539012, -0.040491704, -1456424.1, -19902.37, 0.00011705333, 9.998212, 9.997822 
4.3498147e+2, 1.634127e+2, -1370201.1, -1389679.8, -2904.8423, 0.027228441, -0.04378464, -1369777.1, -31225.762, 0.000037619757, 9.998631, 9.996035 
4.3501562e+2, 1.7340875e+2, -1247686.3, -1280361.8, -365.5178, -0.0024370982, -0.03867063, -1247682.1, -7092.1143, 0.000008906541, 10.000321, 9.99598 
4.3504924e+2, 1.8340366e+2, -1145441.6, -1204298.5, -4137.374, -0.021043792, -0.045441605, -1145152.1, -2512.527, 0.0000015378395, 10.001654, 9.993843 
4.350819e+2, 1.9339705e+2, -1038617.5, -1103465.3, -1347.2255, -0.019745314, -0.079047084, -1038589.5, 6113.96, 0.00000019312868, 10.002316, 9.993715 
4.3511468e+2, 2.0338951e+2, -952563.9, -1039407.0, 693.4968, -0.020162245, -0.08766703, -952558.3, -5781.366, 0.000000017634331, 10.002714, 9.991207 
4.351477e+2, 2.1338087e+2, -856448.9, -944753.5, -2807.341, -0.023465334, -0.053223055, -856359.75, -7497.3813, 0.0000000011708853, 10.002688, 9.990985 
4.3518093e+2, 2.2337142e+2, -759188.9, -860946.25, -3189.2122, -0.023834854, -0.036366485, -759089.06, -8133.565, 0.000000000056553692, 10.00323, 9.989748 
4.3521455e+2, 2.3336098e+2, -638034.3, -751460.9, -1308.71, -0.019024685, -0.056613702, -638019.25, 15037.946, 0.000000000000044721503, 10.004798, 9.989771 
4.3524802e+2, 2.433496e+2, -542404.9, -683115.7, -2340.7537, -0.015152636, -0.055330947, -542365.94, 12802.885, 0.000000000000001562477, 10.005863, 9.98723 
4.3528116e+2, 2.53337e+2, -444159.38, -587560.3, -4982.969, -0.013262601, -0.01660358, -443986.44, 13306.715, 0.0, 10.005988, 9.986996 
4.3531445e+2, 2.6332328e+2, -353517.38, -513031.28, -4976.129, -0.011916368, -0.0035680314, -353362.28, 6065.8867, 0.0, 10.006338, 9.985217 
4.3534786e+2, 2.73308e+2, -244585.92, -410450.03, -4825.6416, -0.011688313, -0.044490196, -244445.64, 17131.334, 0.0, 10.007113, 9.985151 
4.3538138e+2, 2.8329185e+2, -152568.4, -342530.03, -4608.4307, -0.015494603, -0.06197044, -152456.67, 11278.538, 0.0, 10.007871, 9.982725 
4.3541464e+2, 2.9327473e+2, -45509.945, -241535.66, -6033.077, -0.025399024, -0.035376366, -45324.44, 20578.824, 0.0, 10.00855, 9.982595 
4.3544862e+2, 3.0326104e+2, 66453.71, -78038.81, -1290.8079, -0.0266496, -0.027105048, 66465.24, 66465.24, 0.0, 10.0092535, 9.990096 
4.354834e+2, 3.1325108e+2, 78761.73, -69036.14, 923.67865, -0.013750905, -0.060096517, 78767.5, 78767.5, 0.0, 10.009969, 9.990371 
4.4484374e+2, 1.2338747e+2, -1757279.0, -1738454.3, -563.3384, -0.052079387, -0.010798142, -1738437.4, -7637.227, 0.0015538043, 9.997186, 9.999678 
4.4487828e+2, 1.3338596e+2, -1669173.9, -1660149.0, -4362.859, -0.020146111, -0.0024752582, -1658384.8, -25570.11, 0.0010089569, 9.997168, 9.99836 
4.4491234e+2, 1.4338335e+2, -1568904.5, -1568558.9, -880.6094, 0.007053707, -0.062104717, -1567834.4, -32994.508, 0.0005448942, 9.997648, 9.997689 
4.4494632e+2, 1.5338126e+2, -1449019.8, -1459060.0, -486.59915, 0.009137404, -0.04863408, -1448996.3, -12136.412, 0.00023205215, 9.999097, 9.997763 
4.4498053e+2, 1.6337824e+2, -1352581.9, -1382180.4, 1808.5972, 0.0059068375, -0.0389914, -1352471.8, -13582.534, 0.00007466019, 9.999869, 9.995946 
4.450155e+2, 1.7337415e+2, -1262261.8, -1288613.0, 752.772, -0.000108739485, -0.037213698, -1262240.3, -21310.979, 0.000017702305, 9.9993725, 9.995881 
4.4504997e+2, 1.8336909e+2, -1174852.5, -1215974.8, -5680.5146, -0.0050355247, -0.04464221, -1174082.3, -31103.578, 0.000003062777, 9.999529, 9.994076 
4.4508362e+2, 1.933628e+2, -1056891.1, -1109036.8, -7559.7188, -0.010103905, -0.073759295, -1055817.3, -10778.162, 0.0000003857046, 10.000918, 9.994006 
4.4511718e+2, 2.0335533e+2, -960984.5, -1046672.0, -8315.965, -0.018082649, -0.08151492, -960184.9, -13072.96, 0.00000003535121, 10.00227, 9.990919 
4.4515073e+2, 2.1334626e+2, -847211.56, -944719.56, -7303.2524, -0.031121062, -0.05299037, -846667.56, 2534.2505, 0.000000002359298, 10.003503, 9.990588 
4.451846e+2, 2.2333653e+2, -744514.25, -854006.7, -5216.1235, -0.032015115, -0.03671349, -744266.3, 7031.0557, 0.000000000114745775, 10.0042305, 9.989736 
4.4521907e+2, 2.3332624e+2, -648156.7, -755695.7, -5935.1597, -0.011263607, -0.048016574, -647830.06, 5567.599, 0.00000000000022836846, 10.004067, 9.989832 
4.4525322e+2, 2.433148e+2, -566327.0, -697582.3, -8145.332, -0.0016362455, -0.0454284, -565823.44, -10313.582, 0.0000000000000079783024, 10.004342, 9.986972 
4.4528687e+2, 2.5330177e+2, -454113.88, -596023.3, -8856.42, -0.013763636, -0.01881291, -453563.28, 4075.2366, 0.0, 10.005454, 9.986672 
4.453207e+2, 2.6328793e+2, -351055.1, -508114.63, -6610.111, -0.018328467, -0.013046171, -350777.38, 8997.231, 0.0, 10.006336, 9.985553 
4.4535482e+2, 2.7327317e+2, -246569.4, -406185.34, -3683.1218, -0.008107503, -0.051765114, -246484.45, 15434.054, 0.0, 10.006743, 9.985623 
4.4538912e+2, 2.8325722e+2, -158803.31, -347422.84, -36.111267, -0.0068204836, -0.06819041, -158803.31, 5271.129, 0.0, 10.007512, 9.982566 
4.4542342e+2, 2.9323977e+2, -41638.586, -243081.05, -1453.8203, -0.022153271, -0.04391623, -41628.094, 24617.465, 0.0, 10.008949, 9.9823 
4.4545817e+2, 3.0322593e+2, 74740.695, -74377.0, -934.2561, -0.025936164, -0.034194283, 74746.55, 74746.55, 0.0, 10.009824, 9.990078 
4.4549316e+2, 3.132161e+2, 72855.49, -71496.68, -3059.5535, -0.009397751, -0.057792146, 72920.31, 72920.31, 0.0, 10.009528, 9.9904175 
4.5484143e+2, 1.23350814e+2, -1745839.6, -1714071.5, -805.7711, -0.0047476413, -0.0025732785, -1714051.1, 17108.588, 0.0027803245, 9.9971485, 10.001352 
4.5487565e+2, 1.3335067e+2, -1657351.8, -1634893.5, -4841.3276, 0.0011327674, -0.02976459, -1633894.4, -734.7526, 0.0018069525, 9.997132, 10.000088 
4.549099e+2, 1.4334902e+2, -1567811.5, -1565468.5, 3505.05, -0.0051715327, -0.10400443, -1562944.4, -27769.395, 0.0009770269, 9.997613, 9.997911 
4.549447e+2, 1.5334712e+2, -1449791.0, -1460195.6, 4965.1973, -0.06159646, -0.06516478, -1447801.9, -10608.321, 0.00041677037, 9.999078, 9.997689 
4.549795e+2, 1.6334403e+2, -1356224.0, -1389465.3, 872.0404, -0.08121317, -0.03779252, -1356201.1, -16976.904, 0.00013439546, 9.9998665, 9.995449 
4.5501465e+2, 1.7333938e+2, -1266450.9, -1297179.1, -1343.6155, -0.024803506, -0.033652358, -1266392.3, -25122.064, 0.000031964762, 9.999378, 9.995294 
4.5504972e+2, 1.8333393e+2, -1177488.3, -1221499.6, -1680.1107, 0.01637579, -0.02922363, -1177424.3, -34100.598, 0.000005553748, 9.999535, 9.993692 
4.550849e+2, 1.9332762e+2, -1059239.1, -1114034.9, -2201.0134, 0.024383495, -0.028826416, -1059150.9, -13765.97, 0.00000070340104, 10.000926, 9.993656 
4.5511982e+2, 2.0332007e+2, -959931.3, -1044403.8, -3543.2244, 0.015898835, -0.030900126, -959782.94, -12324.322, 0.000000064967765, 10.002266, 9.991072 
4.5515436e+2, 2.1331082e+2, -845701.25, -941250.0, -2586.752, -0.020901794, -0.041131254, -845631.3, 3918.1047, 0.0000000043809485, 10.003487, 9.9908285 
4.5518884e+2, 2.2330093e+2, -746229.75, -857233.9, -5005.818, -0.03302946, -0.04739331, -746004.44, 5641.839, 0.00000000021602262, 10.004222, 9.989517 
4.5522326e+2, 2.3329043e+2, -650203.7, -760019.44, -6573.9688, 0.0014361851, -0.049662683, -649811.56, 3936.97, 0.0000000000009414817, 10.004075, 9.989531 
4.5525774e+2, 2.4327873e+2, -566786.06, -698780.4, -4642.6006, 0.013299701, -0.05360991, -566622.94, -10759.771, 0.000000000000032891313, 10.004354, 9.98688 
4.5529225e+2, 2.5326526e+2, -454493.44, -596875.0, -4430.724, -0.019041559, -0.063700154, -454355.7, 3639.9497, 0.0, 10.005456, 9.98661 
4.5532697e+2, 2.6325154e+2, -346254.03, -498299.66, -4545.159, -0.029078098, -0.067602016, -346118.28, 14011.903, 0.0, 10.006346, 9.986216 
4.5536172e+2, 2.73238e+2, -240538.92, -394100.56, -2470.7573, 0.0045341584, -0.064036936, -240499.19, 21763.2, 0.0, 10.006766, 9.986434 
4.5539692e+2, 2.8322268e+2, -159643.39, -349258.28, 4220.829, 0.018421888, -0.061095655, -159549.48, 4862.8696, 0.0, 10.007515, 9.982434 
4.5543256e+2, 2.9320467e+2, -44777.656, -248396.08, 3642.6472, -0.0057212077, -0.06500561, -44712.51, 21876.672, 0.0, 10.008897, 9.981957 
4.554681e+2, 3.0319032e+2, 70846.33, -81152.45, -1067.5756, -0.019522255, -0.06401965, 70853.83, 70853.83, 0.0, 10.009772, 9.989635 
4.555027e+2, 3.1318036e+2, 70303.805, -77832.97, -4436.5244, -0.013958331, -0.054979205, 70436.555, 70436.555, 0.0, 10.009581, 9.989955 
4.6483773e+2, 1.23314805e+2, -1773298.6, -1723940.8, 10701.043, 0.012922182, -0.031400185, -1721720.5, 9791.334, 0.004589857, 9.995125, 10.001678 
4.6487248e+2, 1.3331516e+2, -1663319.1, -1635583.6, -5250.7397, -0.0031832382, -0.03209019, -1634622.9, -1115.562, 0.0029879087, 9.996618, 10.000292 
4.649075e+2, 1.4331374e+2, -1565383.5, -1564966.4, -3794.984, -0.013567065, -0.09062337, -1561374.3, -25853.594, 0.0016192476, 9.997796, 9.9978485 
4.649435e+2, 1.533117e+2, -1460527.5, -1466748.1, -2689.499, -0.052964438, -0.05618798, -1459525.9, -21985.047, 0.00069287396, 9.998394, 9.997568 
4.6497923e+2, 1.6330841e+2, -1365880.9, -1396416.4, -7789.034, -0.068701334, -0.03276866, -1364008.8, -24435.275, 0.00022437889, 9.999297, 9.995246 
4.650146e+2, 1.7330353e+2, -1246734.6, -1290099.6, -7666.5093, -0.035448562, -0.031016814, -1245419.3, -3797.4692, 0.000053673917, 10.00082, 9.995069 
4.6505013e+2, 1.8329784e+2, -1145765.8, -1208632.9, -5452.43, -0.0063220183, -0.02846738, -1145296.4, -1618.7297, 0.000009398119, 10.001794, 9.993469 
4.6508613e+2, 1.9329128e+2, -1048580.3, -1111452.8, -5068.025, 0.012541558, -0.02903142, -1048174.3, -2433.062, 0.0000012027082, 10.001752, 9.99343 
4.651219e+2, 2.032836e+2, -964915.06, -1046297.56, -5608.4414, 0.016063211, -0.032287743, -964530.4, -16714.34, 0.00000011262272, 10.001891, 9.991122 
4.6515742e+2, 2.1327443e+2, -860261.3, -947250.6, -5570.2886, -0.008784646, -0.04402319, -859906.06, -10000.279, 0.000000007732489, 10.002437, 9.990925 
4.651926e+2, 2.2326458e+2, -763228.9, -866073.7, -9797.698, -0.020297542, -0.051579557, -762303.8, -10301.409, 0.00000000039024706, 10.0030775, 9.989466 
4.6522716e+2, 2.33254e+2, -653572.0, -762703.0, -10274.8125, -0.006945211, -0.054050222, -652613.06, 1492.5607, 0.0000000000032348013, 10.003883, 9.989439 
4.6526214e+2, 2.4324232e+2, -559021.25, -691922.2, -4176.3057, -0.0023708334, -0.059486423, -558890.2, -2670.3865, 0.00000000000011301746, 10.004739, 9.987163 
4.6529788e+2, 2.5322917e+2, -448301.8, -590146.0, -785.6427, -0.015130082, -0.07459674, -448297.44, 10051.753, 0.0, 10.005709, 9.986949 
4.6533352e+2, 2.632156e+2, -344494.84, -499954.53, -3362.3665, -0.018704792, -0.07322231, -344422.16, 16060.024, 0.0, 10.006562, 9.986 
4.653686e+2, 2.73202e+2, -237002.17, -396322.06, -9396.394, -0.0058838665, -0.044813808, -236449.9, 26165.865, 0.0, 10.007165, 9.986087 
4.6540433e+2, 2.8318658e+2, -156666.02, -345516.63, -5629.9365, 0.0036323261, -0.0348363, -156498.33, 8268.168, 0.0, 10.007612, 9.982633 
4.65441e+2, 2.9316857e+2, -59585.71, -251934.44, -1939.4578, 0.008574659, -0.06670111, -59566.16, 7376.4634, 0.0, 10.007714, 9.982279 
4.6547732e+2, 3.0315435e+2, 50930.863, -90084.164, -2373.4512, 0.003186438, -0.07791949, 50970.8, 50970.8, 0.0, 10.008369, 9.989693 
4.6551237e+2, 3.131446e+2, 76336.57, -74892.94, -2724.5, -0.026541874, -0.048609518, 76385.64, 76385.64, 0.0, 10.009995, 9.989953 
4.7483262e+2, 1.2327959e+2, -1782849.5, -1741228.0, 16102.7295, -0.007093238, -0.1012806, -1735725.6, -3870.256, 0.007113215, 9.9950285, 10.000544 
4.7486874e+2, 1.3327946e+2, -1674319.4, -1656906.9, 215.66728, -0.036128055, -0.0086774295, -1656904.1, -23046.857, 0.004643645, 9.996568, 9.998861 
4.7490522e+2, 1.4327754e+2, -1568470.8, -1570594.1, -1422.9218, -0.020263534, -0.019084733, -1567757.0, -31880.29, 0.0025262511, 9.997768, 9.997475 
4.7494277e+2, 1.5327497e+2, -1462058.5, -1469367.4, -740.4604, 0.033154264, -0.020367414, -1461984.3, -24082.326, 0.0010866441, 9.998376, 9.997394 
4.7497964e+2, 1.6327134e+2, -1365376.6, -1395000.3, -2906.735, 0.04119301, -0.023647804, -1365094.1, -25156.8, 0.00035438547, 9.999281, 9.995345 
4.7501546e+2, 1.7326654e+2, -1245798.9, -1287909.9, -2002.1962, -0.033797402, -0.029206304, -1245703.9, -3719.6204, 0.000085576154, 10.000809, 9.995217 
4.7505128e+2, 1.8326074e+2, -1146364.4, -1209688.5, -4816.3286, -0.07436292, -0.041663732, -1146000.1, -1959.501, 0.000015172572, 10.001791, 9.993396 
4.750873e+2, 1.9325377e+2, -1049356.4, -1113223.9, -5332.034, -0.045792338, -0.07173736, -1048914.4, -2806.3054, 0.0000019737136, 10.001766, 9.993299 
4.7512344e+2, 2.0324591e+2, -964988.3, -1046772.6, -4005.6643, -0.018612381, -0.08310816, -964792.6, -16608.172, 0.00000018875323, 10.001907, 9.991078 
4.7515997e+2, 2.1323706e+2, -860384.56, -947642.9, -3389.1682, 0.002793493, -0.061530564, -860253.1, -9981.721, 0.000000013307983, 10.002444, 9.990891 
4.751959e+2, 2.232274e+2, -762539.8, -864668.75, -6824.9136, 0.0033940151, -0.049653634, -762085.75, -9719.627, 0.00000000069387657, 10.003079, 9.989556 
4.7523075e+2, 2.3321685e+2, -652612.75, -761060.8, -7153.184, -0.035711076, -0.060361646, -652143.0, 2326.4792, 0.000000000009472845, 10.003898, 9.98954 
4.7526643e+2, 2.432055e+2, -554775.2, -683378.8, -748.81177, -0.047712706, -0.06327958, -554770.8, 1809.8374, 0.00000000000033105902, 10.00475, 9.987736 
4.753037e+2, 2.5319323e+2, -444035.94, -580522.0, 2566.2346, -0.0051910803, -0.055505484, -443987.7, 14713.558, 0.000000000000000004361499, 10.005674, 9.987619 
4.7534037e+2, 2.6317987e+2, -352159.97, -514624.22, -1194.2594, 0.00860003, -0.035742693, -352151.2, 8681.482, 0.000000000000000025260425, 10.006512, 9.985019 
4.7537544e+2, 2.7316502e+2, -246738.31, -416298.72, -7250.712, -0.037596762, 0.0014717667, -246428.83, 16550.434, 0.00000000000000010669206, 10.007157, 9.984721 
4.7541144e+2, 2.8314897e+2, -152976.08, -338453.72, -4892.78, -0.047538266, 0.008045035, -152847.1, 12289.546, 0.00000000000000033199385, 10.007641, 9.9831 
4.7544882e+2, 2.931315e+2, -53122.53, -239227.7, -1878.5417, 0.019334959, -0.051053915, -53103.57, 14203.205, 0.00000000000000078039946, 10.0077505, 9.983128 
4.7548604e+2, 3.031178e+2, 54802.656, -82706.45, 2359.5789, 0.037937332, -0.078535005, 54843.133, 54843.133, 0.0000000000000014474501, 10.008403, 9.990175 
4.7552216e+2, 3.1310865e+2, 79354.87, -68873.3, 2749.7632, -0.047756594, -0.031781733, 79405.86, 79405.86, 0.0000000000000022339833, 10.010011, 9.99035 
4.848286e+2, 1.23242795e+2, -1755246.9, -1733027.1, 2919.0388, -0.015599975, -0.097718045, -1732650.0, -434.15076, 0.01049777, 9.997116, 10.000066 
4.8486575e+2, 1.3324209e+2, -1664203.3, -1659766.5, -7576.2646, -0.03963208, 0.0021391571, -1654090.5, -19866.502, 0.0068823104, 9.99758, 9.998165 
4.8490307e+2, 1.4323975e+2, -1566161.8, -1570318.5, -6888.76, -0.018118305, -0.005161713, -1561044.8, -24797.072, 0.0037656925, 9.997957, 9.997395 
4.849411e+2, 1.5323707e+2, -1464363.0, -1469913.0, -4974.406, 0.036194503, -0.019935772, -1461442.0, -23168.564, 0.0016323061, 9.998187, 9.997444 
4.8497862e+2, 1.6323335e+2, -1376304.8, -1400820.0, -4509.939, 0.047013957, -0.033096716, -1375501.4, -35192.023, 0.00053782034, 9.998551, 9.995299 
4.8501563e+2, 1.7322846e+2, -1269961.1, -1300444.9, -4823.9897, -0.019031873, -0.04139057, -1269215.9, -26858.875, 0.00013162919, 9.999186, 9.995149 
4.8505238e+2, 1.832227e+2, -1170180.3, -1220135.8, -9347.573, -0.05894409, -0.050089616, -1168488.5, -24075.453, 0.000023746588, 10.000113, 9.993493 
4.8508894e+2, 1.9321603e+2, -1050992.8, -1112487.8, -8266.423, -0.049115807, -0.06472966, -1049901.0, -3423.0378, 0.0000031577385, 10.001579, 9.993437 
4.8512554e+2, 2.0320828e+2, -955983.6, -1042853.25, -7361.9746, -0.032131836, -0.072054446, -955364.1, -6810.743, 0.00000031029586, 10.002536, 9.991039 
4.851624e+2, 2.1319914e+2, -859912.06, -948416.06, -7511.5107, -0.0031466132, -0.06919214, -859279.1, -8636.387, 0.000000022599854, 10.002511, 9.990805 
4.8519892e+2, 2.2318938e+2, -764966.75, -866278.5, -8982.423, 0.0031874932, -0.063702576, -764176.5, -11437.937, 0.000000001223376, 10.002921, 9.989521 
4.8523483e+2, 2.3317897e+2, -647611.8, -759143.8, -9724.839, -0.034737997, -0.05548891, -646770.2, 8070.61, 0.000000000023981296, 10.004251, 9.989496 
4.8527133e+2, 2.431677e+2, -550866.6, -681987.06, -8158.5513, -0.04642213, -0.04734738, -550360.94, 6590.613, 0.0000000000008389532, 10.005032, 9.98769 
4.8530886e+2, 2.531553e+2, -458034.4, -588005.6, -10337.898, -0.006965969, -0.045975983, -457217.28, 1855.81, 0.0000000000000001261701, 10.004737, 9.98755 
4.8534614e+2, 2.6314178e+2, -371865.78, -523740.3, -11124.317, 0.0064276, -0.038557753, -371055.28, -9849.578, 0.00000000000000073087254, 10.005129, 9.985053 
4.853825e+2, 2.7312675e+2, -249861.47, -417403.78, -7257.6797, -0.03396658, -0.021638578, -249547.67, 13806.154, 0.0000000000000030875687, 10.006911, 9.984763 
4.8541936e+2, 2.8311083e+2, -143920.05, -332272.1, -3602.9487, -0.044712882, -0.014583073, -143851.16, 21659.066, 0.000000000000009609587, 10.008177, 9.983267 
4.854567e+2, 2.930939e+2, -44416.902, -233190.13, -5744.0737, 0.006486106, -0.037554614, -44242.28, 23433.174, 0.000000000000022592925, 10.008262, 9.983294 
4.854945e+2, 3.0308026e+2, 58688.668, -82582.875, -1690.4473, 0.02493012, -0.06309122, 58708.895, 58708.895, 0.00000000000004190963, 10.008725, 9.9900255 
4.8553228e+2, 3.1307086e+2, 75945.21, -72909.02, -4902.7715, -0.026130335, -0.016565176, 76106.516, 76106.516, 0.000000000000064683685, 10.009852, 9.990144 
4.9482572e+2, 1.23204455e+2, -1754109.8, -1730052.8, 4045.8262, -0.017687293, -0.013661161, -1729390.5, 3202.843, 0.014911252, 9.997091, 10.0002775 
4.9486363e+2, 1.3320297e+2, -1664153.9, -1658981.0, -6464.9023, -0.0143132, 0.0006844661, -1654604.4, -19996.502, 0.009830928, 9.997559, 9.998222 
4.9490115e+2, 1.4320031e+2, -1564832.5, -1566933.8, -6303.4487, -0.0077637015, -0.052126814, -1559492.8, -22859.018, 0.0054196375, 9.997934, 9.997632 
4.9493843e+2, 1.53198e+2, -1462666.1, -1465976.0, -4387.35, -0.04731492, -0.056869816, -1459632.0, -20976.416, 0.0023727028, 9.998175, 9.997714 
4.9497613e+2, 1.6319445e+2, -1377765.0, -1403576.1, -2630.142, -0.056062836, -0.061672114, -1377499.8, -36809.977, 0.00079196517, 9.998546, 9.99511 
4.9501505e+2, 1.7318928e+2, -1272087.8, -1304798.6, -2615.5815, 0.0053671114, -0.06728834, -1271879.9, -29139.73, 0.00019707251, 9.99919, 9.994844 
4.9505344e+2, 1.8318367e+2, -1168319.6, -1216166.4, -4509.206, 0.035505775, -0.054569416, -1167898.4, -23103.127, 0.000036298647, 10.000107, 9.99376 
4.95091e+2, 1.9317797e+2, -1048294.25, -1106719.6, -2804.8848, -0.0020404202, -0.011114903, -1048159.9, -1308.3125, 0.0000049503406, 10.001572, 9.993828 
4.9512815e+2, 2.031706e+2, -956329.3, -1043345.6, -6709.7373, -0.028286079, -0.0023831062, -955815.0, -6891.251, 0.00000050112493, 10.00253, 9.991005 
4.9516466e+2, 2.1316066e+2, -860660.3, -950352.8, -7714.852, -0.027483687, -0.066470295, -860001.56, -8981.435, 0.000000037748414, 10.002535, 9.990658 
4.952016e+2, 2.2315042e+2, -765871.4, -868610.4, -4883.121, -0.021862779, -0.09199462, -765639.8, -12519.608, 0.0000000021194788, 10.00294, 9.989348 
4.9523935e+2, 2.3314026e+2, -649189.5, -761930.0, -4607.8716, -0.008614113, -0.040728573, -649001.5, 6218.915, 0.00000000005330912, 10.004227, 9.989314 
4.952768e+2, 2.4312885e+2, -555492.56, -690781.25, -8187.0264, -0.0044035013, -0.013489507, -554998.94, 2333.785, 0.000000000001871645, 10.005002, 9.987102 
4.9531347e+2, 2.5311542e+2, -462652.06, -598106.4, -11344.381, -0.01955721, -0.04416867, -461708.53, -2244.8206, 0.000000000000009575241, 10.004763, 9.986848 
4.95351e+2, 2.6310146e+2, -365012.4, -510461.25, -5563.951, -0.023031194, -0.075637765, -364799.88, -3199.868, 0.000000000000055453838, 10.005168, 9.985936 
4.9538973e+2, 2.730872e+2, -242095.45, -399942.6, -517.23596, -0.0020951976, -0.10442865, -242093.77, 21646.316, 0.0000000000002341752, 10.006851, 9.985979 
4.9542803e+2, 2.83072e+2, -145824.63, -333969.8, -2418.4329, 0.0022066617, -0.09304937, -145793.55, 20095.475, 0.0000000000007286158, 10.0080805, 9.983194 
4.9546465e+2, 2.9305562e+2, -46969.54, -238863.31, -5877.41, -0.026799, -0.024750218, -46789.69, 21260.338, 0.0000000000017125554, 10.008282, 9.982892 
4.9550268e+2, 3.030416e+2, 54871.633, -92330.86, 1680.9066, -0.029560534, -0.035873964, 54890.824, 54890.824, 0.0000000000031753393, 10.008808, 9.98931 
4.955427e+2, 3.1303132e+2, 70704.04, -83340.85, -951.8638, 0.026659196, 0.0012779356, 70709.92, 70709.92, 0.000000000004897224, 10.009836, 9.989429 
5.0482213e+2, 1.23164885e+2, -1772306.1, -1734647.8, 3064.7522, -0.011298498, 0.008724462, -1734399.9, -1418.3168, 0.020533854, 9.995664, 10.000657 
5.0486076e+2, 1.331633e+2, -1676031.9, -1661840.9, -6252.9966, -0.006439241, -0.0163497, -1659478.8, -24482.396, 0.013628187, 9.996612, 9.998491 
5.04899e+2, 1.4316069e+2, -1566700.0, -1567957.3, -5208.6226, -0.0046975776, -0.07817893, -1562082.3, -25060.984, 0.0075791995, 9.997799, 9.99763 
5.049371e+2, 1.5315862e+2, -1444001.5, -1457807.6, -5758.1016, -0.06250008, -0.055455375, -1441915.3, -2873.8787, 0.0033562193, 9.999471, 9.997636 
5.049755e+2, 1.6315514e+2, -1347894.6, -1389293.0, -7195.968, -0.07635306, -0.046914443, -1346679.4, -5604.3726, 0.0011366707, 10.000579, 9.99509 
5.050149e+2, 1.731498e+2, -1251953.3, -1295200.0, -5588.584, 0.0035561023, -0.069239624, -1251242.8, -8115.9263, 0.00028802847, 10.000562, 9.99483 
5.050539e+2, 1.8314391e+2, -1164528.6, -1218602.1, -6721.627, 0.046717953, -0.06630406, -1163705.6, -18521.17, 0.000054231128, 10.000538, 9.993383 
5.050922e+2, 1.9313782e+2, -1065328.6, -1120295.5, -10914.813, 0.011683466, -0.016824473, -1063240.6, -15995.551, 0.0000075890043, 10.000626, 9.993354 
5.0513005e+2, 2.0313033e+2, -973913.6, -1048567.56, -17713.188, -0.019957364, -0.0015972283, -969924.0, -20605.674, 0.00000079091893, 10.001174, 9.991297 
5.051671e+2, 2.1312092e+2, -855430.75, -942660.2, -14586.142, -0.040755533, -0.058821544, -853056.4, -1646.732, 0.00000006148999, 10.002655, 9.991118 
5.052047e+2, 2.2311094e+2, -757531.5, -865150.9, -9868.378, -0.039341923, -0.08378634, -756634.06, -3127.0513, 0.0000000035684378, 10.003527, 9.989297 
5.052432e+2, 2.331005e+2, -665177.4, -771704.0, -9620.527, 0.0042233765, -0.044756055, -664315.56, -8705.622, 0.000000000106601436, 10.003212, 9.989134 
5.052813e+2, 2.4308896e+2, -575079.56, -699062.56, -9974.527, 0.020497208, -0.024125291, -574282.25, -16559.0, 0.0000000000037957758, 10.003596, 9.987215 
5.053186e+2, 2.5307572e+2, -451088.84, -590953.75, -7059.2344, -0.021147316, -0.050849732, -450733.44, 9119.001, 0.0000000000002126687, 10.005476, 9.986996 
5.053567e+2, 2.63062e+2, -344419.75, -497757.75, -1158.5574, -0.032654148, -0.07976747, -344411.0, 17575.566, 0.0000000000012317329, 10.006452, 9.98619 
5.053961e+2, 2.73048e+2, -259425.33, -405594.84, -2878.5303, 0.019069944, -0.105342895, -259368.67, 4755.213, 0.0000000000052015844, 10.005535, 9.986225 
5.054352e+2, 2.8303304e+2, -179883.42, -351291.28, -4975.207, 0.03164128, -0.085377336, -179739.13, -13468.437, 0.000000000016184465, 10.005766, 9.983121 
5.054729e+2, 2.9301655e+2, -46759.035, -240971.77, -6420.4487, -0.037583698, -0.013460225, -46547.016, 21885.832, 0.000000000038037778, 10.008372, 9.982702 
5.055119e+2, 3.0300176e+2, 71014.49, -89006.1, -1004.42194, -0.05645925, -0.068855435, 71020.8, 71020.8, 0.000000000070511263, 10.010094, 9.988923 
5.0555253e+2, 3.1299135e+2, 64749.023, -89112.27, -2884.3896, 0.042383384, -0.0028146585, 64803.08, 64803.08, 0.0000000001086931, 10.009532, 9.989188 
5.148179e+2, 1.2312413e+2, -1769824.3, -1727576.8, 6078.4834, -0.0038169178, -0.036781322, -1726719.6, 6660.447, 0.027554031, 9.995577, 10.001184 
5.1485723e+2, 1.3312313e+2, -1673708.8, -1655561.0, -3079.5183, -0.018791197, -0.049832396, -1655052.8, -19663.742, 0.018419899, 9.996555, 9.998937 
5.148968e+2, 1.4312097e+2, -1569171.4, -1572048.5, 270.15295, -0.011782314, -0.082066044, -1569146.3, -31736.512, 0.010340942, 9.997758, 9.997364 
5.1493704e+2, 1.5311891e+2, -1447386.8, -1464374.4, 337.469, -0.0115284445, -0.014444908, -1447380.0, -7949.341, 0.0046347342, 9.999454, 9.99719 
5.149767e+2, 1.631154e+2, -1346895.3, -1387178.6, -6498.284, -0.016425151, 0.0117727015, -1345872.9, -4407.653, 0.0015935765, 10.000583, 9.995227 
5.150152e+2, 1.7310995e+2, -1249925.8, -1291121.4, -6057.8403, -0.026220515, -0.047561172, -1249053.4, -5536.0093, 0.00041132476, 10.000573, 9.995098 
5.150537e+2, 1.8310343e+2, -1171351.8, -1233002.3, -6727.9214, -0.027120378, -0.08476095, -1170626.1, -25045.332, 0.00007915646, 10.000558, 9.992392 
5.150927e+2, 1.9309562e+2, -1074059.9, -1138963.8, -10581.228, -0.009980451, -0.078223296, -1072378.4, -24720.66, 0.0000113579035, 10.00066, 9.992063 
5.1513135e+2, 2.030876e+2, -969398.1, -1039785.5, -13030.303, -0.009907102, -0.066227235, -967063.4, -17326.635, 0.0000012170423, 10.001197, 9.9918785 
5.1516974e+2, 2.1307993e+2, -848146.06, -927684.9, -8872.601, -0.04557687, -0.047673203, -847168.3, 4643.123, 0.000000097492624, 10.002658, 9.992132 
5.1520807e+2, 2.2307087e+2, -757049.7, -863986.8, -9932.929, -0.051750705, -0.04189802, -756134.9, -2235.1113, 0.0000000058393734, 10.003523, 9.989375 
5.152464e+2, 2.3305967e+2, -665946.2, -773804.0, -10797.674, 0.003509218, -0.06532199, -664875.9, -8866.337, 0.00000000019841896, 10.003239, 9.9889765 
5.15285e+2, 2.4304804e+2, -569964.25, -688851.0, -4433.9883, 0.02752667, -0.074877836, -569799.1, -11675.445, 0.000000000007634904, 10.00361, 9.987901 
5.153242e+2, 2.5303602e+2, -445601.9, -578499.2, 2.9952865, -0.015356767, -0.06521409, -445601.9, 14639.289, 0.0000000000039886605, 10.0054245, 9.987866 
5.153632e+2, 2.630231e+2, -347235.03, -502299.78, -3082.9028, -0.026984954, -0.05648902, -347173.75, 15194.32, 0.000000000023101169, 10.006401, 9.985902 
5.154018e+2, 2.7300897e+2, -262968.03, -413912.1, -6939.3506, 0.029201662, -0.03707113, -262649.7, 1857.7129, 0.00000000009755803, 10.005583, 9.985635 
5.154411e+2, 2.8299376e+2, -179460.63, -352188.0, 1973.4236, 0.044170078, -0.0026090168, -179438.08, -12781.508, 0.000000000303523, 10.005837, 9.983019 
5.1548135e+2, 2.9297653e+2, -47841.88, -242051.64, 3326.0388, -0.031294588, -0.00020937133, -47784.934, 21039.639, 0.00000000071315065, 10.008316, 9.982647 
5.1552194e+2, 3.029607e+2, 68407.51, -92234.6, -802.2396, -0.061746802, -0.1523594, 68411.516, 68411.516, 0.0000000013213384, 10.010012, 9.988733 
5.1556194e+2, 3.1295082e+2, 66355.52, -86928.08, -5398.258, 0.02683226, -0.013617257, 66545.41, 66545.41, 0.0000000020352628, 10.009604, 9.989294 
5.2481455e+2, 1.23083524e+2, -1737057.4, -1714089.0, 9025.136, -0.0027973256, -0.058638416, -1710967.1, 22810.166, 0.036176804, 9.997875, 10.001024 
5.2485454e+2, 1.330824e+2, -1651409.8, -1648620.9, -6525.595, -0.026011294, -0.05378068, -1643342.4, -7554.6284, 0.024365017, 9.998225, 9.998593 
5.2489465e+2, 1.4308009e+2, -1564963.6, -1572487.5, -7467.651, -0.01818707, -0.07137984, -1560363.9, -22553.555, 0.013811107, 9.998147, 9.997135 
5.2493566e+2, 1.5307765e+2, -1481058.5, -1482916.4, -5998.2905, 0.00874234, -0.020988578, -1475917.6, -36082.906, 0.0062664114, 9.997253, 9.996993 
5.2497596e+2, 1.6307399e+2, -1392523.3, -1408096.5, -9355.391, 0.0111206, -0.0014924326, -1388138.0, -46267.215, 0.002187711, 9.997413, 9.99534 
5.250153e+2, 1.7306891e+2, -1259731.1, -1293895.4, -9053.176, -0.031285062, -0.043960456, -1257480.5, -13560.809, 0.0005752219, 9.999805, 9.995277 
5.250546e+2, 1.8306251e+2, -1156540.4, -1226569.5, -10367.566, -0.050229695, -0.0743549, -1155037.8, -9056.06, 0.00011314291, 10.0015955, 9.992321 
5.250939e+2, 1.9305445e+2, -1054269.3, -1130736.1, -6518.634, -0.021768428, -0.082696386, -1053717.5, -5656.476, 0.000016648359, 10.002065, 9.991947 
5.2513313e+2, 2.0304619e+2, -954383.8, -1035257.1, -4941.966, -0.008362263, -0.07652123, -954082.94, -3940.7007, 0.0000018353236, 10.002331, 9.991646 
5.251725e+2, 2.1303837e+2, -854201.7, -933794.7, -9555.487, -0.027541762, -0.045854002, -853070.56, -851.98425, 0.00000015174481, 10.002368, 9.991857 
5.252114e+2, 2.2302926e+2, -768697.0, -868174.1, -17547.46, -0.030074082, -0.036592245, -765692.44, -11384.689, 0.000000009413526, 10.00265, 9.989509 
5.252498e+2, 2.3301816e+2, -660117.5, -768545.0, -16300.6, 0.0025853273, -0.07184843, -657719.94, -1303.5515, 0.00000000035784709, 10.003519, 9.989199 
5.2528876e+2, 2.4300672e+2, -560762.06, -681945.75, -7624.1597, 0.015694, -0.082918845, -560284.25, -1755.9554, 0.00000000002014928, 10.00412, 9.988123 
5.25329e+2, 2.5299504e+2, -461029.44, -583720.2, -7105.0405, -0.01410881, -0.058479644, -460619.34, 23.109186, 0.000000000054994186, 10.004257, 9.988065 
5.2536887e+2, 2.6298222e+2, -370787.88, -515997.78, -14097.314, -0.021514306, -0.048207518, -369431.94, -6663.235, 0.00000000031851738, 10.00487, 9.985698 
5.2540773e+2, 2.7296758e+2, -251578.2, -412373.72, -16766.998, 0.018986963, -0.04533498, -249848.42, 15064.664, 0.000000001345189, 10.006516, 9.985287 
5.254477e+2, 2.8295237e+2, -151303.27, -335390.56, -3756.7354, 0.03420056, -0.006011893, -151226.64, 15835.872, 0.0000000041848507, 10.007617, 9.983303 
5.254894e+2, 2.9293576e+2, -57432.5, -242247.58, 1084.0472, -0.008320562, 0.023108019, -57426.14, 11797.58, 0.000000009829297, 10.007453, 9.983045 
5.2553123e+2, 3.0291975e+2, 43230.1, -100177.52, -382.30002, -0.034757804, -0.18421137, 43231.117, 43231.117, 0.000000018203474, 10.008085, 9.989114 
5.255716e+2, 3.129103e+2, 78003.91, -71331.25, -2218.76, 0.010752517, -0.045985337, 78036.87, 78036.87, 0.00000002802278, 10.009962, 9.990194 
5.348124e+2, 1.23043284e+2, -1744461.9, -1728054.1, 10466.927, -0.016754469, -0.05212513, -1722959.1, 11212.183, 0.046640746, 9.997845, 10.000062 
5.3485274e+2, 1.3304116e+2, -1660652.4, -1666823.1, -5953.582, -0.030007053, -0.02657117, -1657032.1, -20840.05, 0.031651113, 9.998202, 9.997361 
5.3489274e+2, 1.4303799e+2, -1566634.9, -1575294.5, -10637.06, -0.025249079, -0.046006072, -1559480.1, -21257.113, 0.018118156, 9.998135, 9.996945 
5.3493273e+2, 1.5303482e+2, -1480969.0, -1482043.0, -9949.6455, -0.0050554676, -0.07584056, -1471541.9, -31288.197, 0.008324205, 9.997236, 9.997058 
5.3497326e+2, 1.6303091e+2, -1392185.0, -1407024.9, -2916.2212, 0.0015136189, -0.08712821, -1391632.5, -49340.758, 0.002952043, 9.997397, 9.995412 
5.3501534e+2, 1.730266e+2, -1259301.9, -1292854.1, -62.580208, -0.014426529, -0.05852452, -1259301.8, -14967.876, 0.0007912693, 9.999797, 9.995342 
5.350564e+2, 1.830211e+2, -1150629.9, -1214381.4, -7577.82, -0.025626235, -0.03650369, -1149741.6, -3353.6353, 0.00015928308, 10.001598, 9.993143 
5.3509593e+2, 1.9301414e+2, -1047036.9, -1115942.3, -5222.6704, -0.027288508, -0.03406567, -1046643.3, 1813.0336, 0.000024088198, 10.002076, 9.992943 
5.351354e+2, 2.03006e+2, -961335.1, -1049783.6, -4873.0796, -0.019666089, -0.03606302, -961067.44, -10531.136, 0.0000027417923, 10.002344, 9.990647 
5.3517514e+2, 2.1299626e+2, -864367.4, -955360.1, -9438.102, 0.007871899, -0.0528219, -863398.75, -10767.317, 0.00000023528659, 10.002399, 9.990367 
5.3521454e+2, 2.2298609e+2, -767396.44, -865861.94, -14772.54, 0.020119488, -0.065657325, -765227.94, -10496.939, 0.000000015275884, 10.002666, 9.989656 
5.352533e+2, 2.3297584e+2, -655868.94, -760262.9, -12895.207, -0.00023602862, -0.06583219, -654299.6, 2531.6587, 0.0000000006877151, 10.003541, 9.98975 
5.352926e+2, 2.4296492e+2, -561669.44, -684381.0, -6764.428, -0.01531317, -0.052888904, -561297.7, -2359.4202, 0.00000000013052304, 10.004144, 9.987944 
5.353332e+2, 2.5295284e+2, -463490.94, -589165.8, -6598.3633, -0.018313803, -0.032907158, -463145.47, -2089.2698, 0.000000000612615, 10.0042715, 9.987686 
5.353738e+2, 2.6293942e+2, -371916.5, -518462.63, -8961.674, -0.018080251, -0.051541068, -371370.5, -8182.8813, 0.0000000034131882, 10.004872, 9.985524 
5.354139e+2, 2.7292395e+2, -253124.89, -415008.34, -10403.072, -0.010112196, -0.118282504, -252459.1, 12880.833, 0.000000014339296, 10.006486, 9.985117 
5.354551e+2, 2.8290886e+2, -147548.3, -326551.8, -3157.9763, 0.0036936, -0.083998516, -147492.6, 19995.46, 0.00000004456666, 10.007573, 9.983927 
5.354972e+2, 2.928941e+2, -52743.04, -231180.7, 104.09705, 0.025896892, 0.053384792, -52742.98, 16888.639, 0.00000010462058, 10.0074005, 9.983825 
5.3553987e+2, 3.0287865e+2, 48110.08, -88696.57, 5050.626, 0.016234059, -0.17285256, 48296.285, 48296.285, 0.00000019365781, 10.008037, 9.989913 
5.3558135e+2, 3.1286976e+2, 88532.72, -48719.65, 3747.923, -0.009315448, -0.06429348, 88634.99, 88634.99, 0.0000002979929, 10.00994, 9.991744 
5.448095e+2, 1.23001434e+2, -1763928.5, -1736878.8, 2690.7747, -0.016987232, -0.050953425, -1736613.8, -2032.6287, 0.05923043, 9.996494, 10.000082 
5.448505e+2, 1.3299924e+2, -1677325.0, -1676586.1, -6826.583, -0.016272033, -0.021273408, -1670119.0, -33515.89, 0.04050611, 9.997132, 9.99722 
5.4489094e+2, 1.4299597e+2, -1567263.1, -1577510.3, -6487.1465, -0.017121522, -0.034986656, -1564120.3, -25485.297, 0.023422668, 9.998161, 9.99679 
5.4493123e+2, 1.5299247e+2, -1440633.6, -1464452.9, -7491.2114, -0.021206677, -0.082209416, -1438473.5, 2195.0068, 0.010902844, 10.000057, 9.996886 
5.449723e+2, 1.6298828e+2, -1339181.9, -1383704.4, -1619.985, -0.02180194, -0.10196318, -1339123.0, 3586.133, 0.003931351, 10.001101, 9.995197 
5.4501545e+2, 1.7298387e+2, -1252937.1, -1292359.9, -839.8626, -0.009289611, -0.06255971, -1252919.3, -8166.559, 0.0010759312, 10.000335, 9.995111 
5.450574e+2, 1.829783e+2, -1173034.0, -1225328.3, -12417.06, -0.003799203, -0.032504525, -1170235.4, -23427.836, 0.0002222064, 10.000064, 9.993137 
5.450976e+2, 1.9297141e+2, -1061787.3, -1122689.1, -17222.191, -0.016277025, -0.02752698, -1057254.5, -8379.174, 0.00003466305, 10.001039, 9.992975 
5.451375e+2, 2.0296325e+2, -968845.1, -1053700.9, -19856.615, -0.017406471, -0.03007651, -964428.5, -13473.082, 0.0000040952546, 10.001835, 9.990613 
5.451776e+2, 2.1295342e+2, -865989.1, -956431.0, -14654.561, 0.0062431684, -0.054565296, -863673.9, -10622.402, 0.00000036843397, 10.002293, 9.990343 
5.452173e+2, 2.2294311e+2, -765177.75, -866901.44, -12479.705, 0.016007248, -0.07009141, -763669.06, -8516.978, 0.000000026361255, 10.002898, 9.989474 
5.4525703e+2, 2.3293276e+2, -650306.8, -760201.5, -15233.511, -0.0047285683, -0.060548395, -648234.25, 9019.484, 0.0000000023307893, 10.00402, 9.989519 
5.45297e+2, 2.4292177e+2, -552127.8, -679146.1, -14658.005, -0.016513921, -0.041908257, -550458.2, 8903.051, 0.0000000015642247, 10.004753, 9.988005 
5.4533786e+2, 2.5290975e+2, -454185.47, -583360.2, -11785.371, -0.010051931, -0.028944878, -453119.03, 8359.6, 0.000000005562811, 10.004836, 9.987812 
5.453789e+2, 2.6289636e+2, -366714.3, -514118.66, -7401.611, -0.0090136, -0.060378082, -366343.6, -2734.0479, 0.000000028366085, 10.005136, 9.985695 
5.4542017e+2, 2.7288085e+2, -258065.94, -415786.1, -5768.5483, -0.017497923, -0.1435156, -257855.23, 7906.6577, 0.00000011761462, 10.00607, 9.985261 
5.45462e+2, 2.8286606e+2, -159880.48, -329884.4, -2885.326, -0.0051941033, -0.09885671, -159831.53, 8075.3555, 0.0000003647328, 10.006601, 9.984173 
5.4550415e+2, 2.9285195e+2, -68562.586, -236850.4, -4620.199, 0.044592235, 0.082604416, -68435.836, 1608.7231, 0.00000085578625, 10.006205, 9.984022 
5.455475e+2, 3.0283606e+2, 30248.176, -101317.445, 3090.0305, 0.035175506, -0.18463935, 30320.709, 30320.709, 0.0000015835924, 10.006929, 9.989589 
5.455909e+2, 3.1282708e+2, 86951.15, -43507.67, -5032.3096, -0.026758771, -0.047960825, 87144.98, 87144.98, 0.0000024360013, 10.009511, 9.992312 
5.5480605e+2, 1.22958034e+2, -1758071.6, -1723076.4, 4716.6855, -0.0111148385, -0.058232382, -1722451.8, 12554.5625, 0.07429232, 9.99638, 10.001136 
5.5484796e+2, 1.3295674e+2, -1671560.1, -1662705.0, -5195.1943, 0.01419259, -0.037701365, -1660306.6, -23287.291, 0.051209517, 9.997052, 9.998194 
5.548893e+2, 1.4295411e+2, -1569245.6, -1580198.8, -621.00397, 0.0051439954, -0.03836061, -1569210.5, -30165.314, 0.02992419, 9.998104, 9.996626 
5.549311e+2, 1.5295067e+2, -1444055.0, -1471096.6, -612.1527, -0.042928938, -0.03961531, -1444041.3, -2962.4587, 0.014122313, 10.000039, 9.996434 
5.54973e+2, 1.6294612e+2, -1342650.3, -1391038.6, -3143.7039, -0.06380557, -0.045230918, -1342446.9, 676.1593, 0.0051837345, 10.001119, 9.994685 
5.550157e+2, 1.7294069e+2, -1256466.9, -1299893.6, -4366.492, -0.019011391, -0.056082617, -1256032.1, -10856.341, 0.001451182, 10.00036, 9.994583 
5.550577e+2, 1.829341e+2, -1178527.3, -1237073.3, -10346.063, 0.011933145, -0.061570477, -1176752.8, -29512.383, 0.00030831338, 10.000088, 9.99232 
5.550989e+2, 1.9292632e+2, -1067773.9, -1135578.6, -13570.473, 0.0077173417, -0.060221437, -1065158.8, -15841.442, 0.000049822873, 10.001066, 9.992078 
5.551395e+2, 2.02918e+2, -962249.94, -1040663.4, -17859.314, -0.00445935, -0.055741914, -958373.94, -6975.0547, 0.000006177531, 10.001862, 9.991485 
5.551794e+2, 2.1290974e+2, -855973.25, -936539.75, -13096.473, -0.031422097, -0.051724363, -853897.9, -418.54395, 0.00000062156033, 10.00233, 9.991676 
5.552196e+2, 2.2290023e+2, -768132.7, -873611.56, -8938.85, -0.04156852, -0.051997878, -767380.56, -11808.1875, 0.00000007849513, 10.002922, 9.989002 
5.55261e+2, 2.3288882e+2, -657020.44, -774073.5, -10724.05, -0.014347042, -0.056316555, -656046.06, 1638.153, 0.000000033049375, 10.004019, 9.988569 
5.55302e+2, 2.4287726e+2, -550791.3, -675722.06, -13459.305, 0.0053964057, -0.048664134, -549357.75, 10439.739, 0.000000030537407, 10.004726, 9.98825 
5.5534285e+2, 2.5286567e+2, -450811.2, -575519.6, -11569.598, 0.006269505, -0.043564476, -449746.94, 12163.551, 0.00000005386784, 10.004803, 9.988362 
5.5538416e+2, 2.6285282e+2, -364051.63, -507589.7, -4975.1973, 0.0018058923, -0.075770594, -363879.4, 156.74968, 0.00000019406193, 10.005086, 9.986164 
5.5542636e+2, 2.7283803e+2, -255364.98, -409683.3, -2540.1355, -0.009802858, -0.12977247, -255323.17, 10858.506, 0.00000074942295, 10.006038, 9.985695 
5.5546874e+2, 2.8282377e+2, -160278.39, -331129.25, -3888.3896, 0.00041883506, -0.05833086, -160189.94, 8131.551, 0.0000022942224, 10.006624, 9.984074 
5.5551046e+2, 2.9280928e+2, -70417.11, -241853.02, -6641.7534, 0.047853537, 0.112452224, -70160.18, 303.5211, 0.0000053700915, 10.00626, 9.98365 
5.5555433e+2, 3.027919e+2, 21061.86, -121240.46, 10358.01, 0.025953067, -0.21726987, 21811.854, 21811.854, 0.000009930988, 10.006969, 9.988191 
5.556002e+2, 3.127824e+2, 84107.336, -47976.316, 4126.0825, -0.04563848, 0.019743128, 84236.1, 84236.1, 0.000015272311, 10.009459, 9.992014 
5.64803e+2, 1.2291433e+2, -1739500.0, -1714352.8, 7369.8975, -0.008974946, -0.069441244, -1712352.0, 23082.43, 0.092263974, 9.997607, 10.001211 
5.6484556e+2, 1.3291319e+2, -1651762.4, -1652150.4, -10180.046, 0.00816783, -0.043950073, -1641774.5, -4328.5005, 0.06411256, 9.998347, 9.998274 
5.6488764e+2, 1.429106e+2, -1558631.9, -1576061.4, -8475.761, -0.010306196, -0.041899156, -1555189.9, -15718.27, 0.037873123, 9.998857, 9.99653 
5.649308e+2, 1.5290715e+2, -1460446.6, -1480782.3, -6235.1665, -0.026344668, -0.028232595, -1458687.1, -17181.8, 0.018134005, 9.998991, 9.996274 
5.649736e+2, 1.6290246e+2, -1369355.6, -1406791.3, -9523.724, -0.0339059, -0.02788834, -1367072.1, -23521.002, 0.0067838538, 9.999415, 9.994434 
5.6501603e+2, 1.7289664e+2, -1256485.5, -1303009.6, -9751.082, -0.020601066, -0.05280732, -1254524.4, -8916.7, 0.0019465184, 10.000487, 9.994304 
5.6505823e+2, 1.8288974e+2, -1160574.4, -1229381.0, -10808.942, -0.0067480137, -0.06810407, -1158916.4, -11241.079, 0.00042717464, 10.001352, 9.992227 
5.651003e+2, 1.928819e+2, -1057102.4, -1130880.9, -7544.313, 0.005691266, -0.06660814, -1056338.9, -6586.4727, 0.00007248372, 10.001812, 9.992038 
5.651417e+2, 2.028736e+2, -954907.4, -1036811.0, -10903.122, 0.0034300908, -0.058730148, -953480.8, -1646.9005, 0.000010126792, 10.002346, 9.991516 
5.6518227e+2, 2.128655e+2, -842339.2, -929430.2, -15194.698, -0.030785467, -0.044561993, -839764.3, 14148.551, 0.0000016724057, 10.003231, 9.991721 
5.65223e+2, 2.22856e+2, -756300.2, -868021.2, -16200.855, -0.04258901, -0.044244017, -753998.3, 2007.5332, 0.0000006828696, 10.003721, 9.988992 
5.652649e+2, 2.3284441e+2, -662917.2, -777258.5, -12145.365, -0.0047875433, -0.06838956, -661641.3, -3521.806, 0.0000005186009, 10.003612, 9.988552 
5.653062e+2, 2.428327e+2, -570840.56, -688092.94, -13545.252, 0.019677678, -0.064372264, -569296.1, -9062.013, 0.0000004730068, 10.003457, 9.988025 
5.653471e+2, 2.5282112e+2, -470049.97, -588095.1, -17284.836, 0.00979301, -0.031071322, -467571.06, -5223.48, 0.00000055618574, 10.0036125, 9.988078 
5.653887e+2, 2.6280826e+2, -376053.44, -511537.1, -11235.102, -0.002686894, -0.05516456, -375128.1, -10654.676, 0.0000011869142, 10.004156, 9.986342 
5.654322e+2, 2.7279338e+2, -255705.06, -406977.63, -8636.479, -0.014800765, -0.1361688, -255213.58, 11405.45, 0.0000037901987, 10.005861, 9.985962 
5.654755e+2, 2.8277946e+2, -152785.17, -327543.88, -14569.105, -0.005533654, -0.060161885, -151578.9, 17177.135, 0.000011143965, 10.007096, 9.9841 
5.6551707e+2, 2.9276523e+2, -57046.92, -237899.78, -17258.967, 0.03729475, 0.15703472, -55414.613, 15481.03, 0.00002588088, 10.007262, 9.9834385 
5.655617e+2, 3.0274677e+2, 27875.66, -130407.96, 7166.583, 0.01504201, -0.21942598, 28199.479, 28199.479, 0.000047783215, 10.007969, 9.987064 
5.656098e+2, 3.1273603e+2, 79916.86, -46170.395, 3469.333, -0.010025207, 0.007050754, 80012.25, 80012.25, 0.00007346192, 10.008986, 9.992353 
5.748006e+2, 1.2287059e+2, -1748591.9, -1729209.4, 10129.589, -0.015613021, -0.08474931, -1724881.8, 10981.222, 0.11375035, 9.997495, 10.000183 
5.7484347e+2, 1.3286874e+2, -1659428.9, -1665795.0, -8451.822, -0.037435997, -0.04031753, -1653580.6, -15699.152, 0.07970575, 9.998262, 9.997382 
5.748859e+2, 1.428655e+2, -1559889.5, -1577304.4, -8490.719, -0.06830178, -0.046447173, -1556435.0, -16521.48, 0.047626078, 9.998808, 9.996463 
5.749303e+2, 1.5286203e+2, -1460024.6, -1479017.8, -6516.849, 0.025032258, -0.048399642, -1458003.6, -16056.1455, 0.023162264, 9.998961, 9.996402 
5.74974e+2, 1.6285735e+2, -1369550.0, -1406886.9, -6782.9478, 0.06500336, -0.049764253, -1368355.9, -24362.848, 0.008851877, 9.999412, 9.994421 
5.750167e+2, 1.7285173e+2, -1256804.0, -1303616.8, -6137.7075, -0.01516984, -0.052344535, -1256012.6, -9964.517, 0.002618495, 10.000493, 9.99425 
5.75059e+2, 1.8284518e+2, -1156172.1, -1220564.1, -9157.889, -0.06156575, -0.052486368, -1154895.0, -6782.578, 0.00060495513, 10.001369, 9.992811 
5.7510185e+2, 1.928381e+2, -1051377.0, -1119689.6, -6289.8467, -0.025783299, -0.04940394, -1050802.6, -621.15607, 0.00011674837, 10.001846, 9.992777 
5.75144e+2, 2.0282993e+2, -959857.0, -1047528.9, -8307.395, 0.00082718255, -0.042127647, -959076.8, -6815.2915, 0.00002538977, 10.002372, 9.9907675 
5.7518584e+2, 2.1282068e+2, -850382.9, -946278.25, -11935.579, 0.0005588334, -0.03438255, -848919.6, 5432.7476, 0.000010757452, 10.003246, 9.990559 
5.752272e+2, 2.2281048e+2, -753797.5, -862608.1, -16033.565, 0.0037544018, -0.04620286, -751484.06, 4968.3105, 0.000007736589, 10.003713, 9.989364 
5.7526875e+2, 2.327994e+2, -657215.44, -765384.56, -12658.239, 0.018969381, -0.09456133, -655753.94, 2806.6104, 0.0000065229674, 10.0036125, 9.989359 
5.7530975e+2, 2.4278793e+2, -575299.0, -697629.1, -13305.282, 0.02368661, -0.08843383, -573868.56, -13195.9795, 0.0000059419185, 10.003467, 9.987371 
5.753506e+2, 2.5277594e+2, -476688.28, -603043.3, -16391.895, -0.0010637552, 0.0041577625, -474596.4, -11805.494, 0.000005930573, 10.003659, 9.987037 
5.7539266e+2, 2.627626e+2, -376132.13, -512941.88, -5961.7417, -0.025259197, -0.0025425123, -375872.84, -10950.936, 0.000007746674, 10.004204, 9.986219 
5.7543784e+2, 2.7274707e+2, -255373.31, -405605.03, -1931.6129, -0.03503725, -0.15864198, -255348.47, 11725.247, 0.000016548, 10.005829, 9.986064 
5.754824e+2, 2.8273308e+2, -153430.5, -326864.1, -13012.498, -0.024819434, -0.100479856, -152459.63, 16750.924, 0.000042830554, 10.007003, 9.984193 
5.755241e+2, 2.9271978e+2, -57353.12, -238659.7, -16636.223, 0.010701475, 0.21023726, -55839.266, 15502.3125, 0.000096663134, 10.007264, 9.983385 
5.7556945e+2, 3.0270058e+2, 21888.62, -143313.11, 10751.375, -0.0027188219, -0.19349724, 22585.383, 22585.383, 0.00017732779, 10.007999, 9.986155 
5.756195e+2, 3.1268817e+2, 83556.23, -34392.496, 7187.3696, 0.063308805, -0.042140227, 83992.58, 83992.58, 0.00027223537, 10.0088215, 9.993228 
5.847979e+2, 1.2282616e+2, -1755791.0, -1738885.1, 7005.1074, -0.015352579, -0.059048038, -1736359.8, -61.26588, 0.13972634, 9.997292, 9.99954 
5.8484167e+2, 1.3282377e+2, -1659779.1, -1668539.6, -6507.1426, -0.042386696, -0.04432717, -1656315.3, -17993.135, 0.09881993, 9.998343, 9.997153 
5.848849e+2, 1.4282027e+2, -1551684.9, -1574031.8, -5208.8496, -0.07955377, -0.05641031, -1550530.4, -10173.901, 0.05983592, 9.999396, 9.996397 
5.849299e+2, 1.528168e+2, -1443226.1, -1470935.9, -4934.503, 0.032125764, -0.05817072, -1442373.6, 16.69582, 0.02967235, 10.000103, 9.996396 
5.8497417e+2, 1.6281216e+2, -1351081.5, -1398012.9, -4897.142, 0.08347613, -0.0559609, -1350576.0, -6140.225, 0.01169154, 10.000666, 9.994415 
5.850175e+2, 1.7280665e+2, -1248276.6, -1299813.6, -4044.638, -0.004304018, -0.046045072, -1247961.1, -1471.3132, 0.0036587538, 10.001082, 9.994222 
5.850605e+2, 1.8280014e+2, -1153013.0, -1217684.5, -9305.503, -0.057616033, -0.04239088, -1151700.8, -3147.123, 0.00096831424, 10.00152, 9.992933 
5.851038e+2, 1.9279307e+2, -1046555.8, -1115801.1, -11242.48, -0.026375256, -0.054919727, -1044776.25, 5846.216, 0.0002747667, 10.002103, 9.992909 
5.8514637e+2, 2.0278478e+2, -961016.7, -1051196.5, -15289.85, 0.00081250333, -0.05555715, -958494.8, -5791.1685, 0.00012466928, 10.002413, 9.990494 
5.8518875e+2, 2.1277528e+2, -867293.6, -958865.9, -14021.503, 0.010235179, -0.037802085, -865194.75, -10397.383, 0.00008776913, 10.002271, 9.990174 
5.8523035e+2, 2.2276486e+2, -773048.44, -872501.7, -15653.581, 0.0164087, -0.040919397, -770642.8, -13743.172, 0.00007200399, 10.002424, 9.989309 
5.852724e+2, 2.327539e+2, -656187.3, -763873.94, -17085.586, 0.01998261, -0.08363976, -653541.5, 5464.9785, 0.00006284411, 10.003638, 9.989442 
5.853137e+2, 2.4274251e+2, -560188.2, -690936.9, -20042.043, 0.018493935, -0.07477488, -557185.0, 3933.1301, 0.000057896348, 10.004506, 9.987326 
5.85355e+2, 2.5273037e+2, -455296.72, -593380.06, -16639.104, -0.0010525249, 0.010567646, -453320.0, 9917.564, 0.000055242694, 10.005134, 9.986991 
5.853975e+2, 2.627169e+2, -361430.25, -507510.9, -1503.8949, -0.018282965, -0.006786875, -361414.75, 3955.3303, 0.000055795954, 10.005248, 9.986105 
5.854435e+2, 2.7270108e+2, -266969.63, -412954.84, 1654.9718, -0.017291613, -0.17301483, -266950.88, 573.3516, 0.00007332081, 10.005072, 9.985943 
5.854889e+2, 2.8268713e+2, -176307.55, -339444.1, -9509.9, -0.0044535855, -0.10821593, -175755.05, -6094.2764, 0.0001400374, 10.005483, 9.984069 
5.855315e+2, 2.926738e+2, -54865.684, -240972.86, -13732.463, 0.0066587483, 0.22637896, -53857.85, 17934.303, 0.00028783004, 10.007546, 9.983105 
5.855777e+2, 3.026537e+2, 26932.799, -153681.2, 7302.5015, -0.02954751, -0.20574312, 27227.57, 27227.57, 0.00051568105, 10.008848, 9.985053 
5.856276e+2, 3.1264028e+2, 66706.234, -31704.068, -225.97662, 0.074759156, -0.03929269, 66706.75, 66706.75, 0.00078684813, 10.007148, 9.994234 
5.947953e+2, 1.2278143e+2, -1760840.9, -1744872.9, 6267.5225, -0.009495512, 0.014877037, -1742706.8, -5969.5664, 0.17203061, 9.997108, 9.999218 
5.948404e+2, 1.3277856e+2, -1658507.4, -1663480.0, -3429.157, -0.00752347, -0.0543323, -1656758.0, -17992.86, 0.1231772, 9.998241, 9.997539 
5.9488463e+2, 1.427752e+2, -1552962.0, -1575398.1, -3181.4248, -0.044111706, -0.069985375, -1552519.6, -11721.659, 0.07603565, 9.999352, 9.996316 
5.949296e+2, 1.5277168e+2, -1445053.8, -1473620.5, -3367.1204, -0.007707687, -0.058540676, -1444662.3, -1830.2767, 0.038946252, 10.000067, 9.9962225 
5.9497416e+2, 1.6276702e+2, -1351590.5, -1398595.6, -4084.6555, 0.0154818855, -0.04728504, -1351238.1, -6360.583, 0.016317574, 10.000654, 9.994373 
5.9501874e+2, 1.7276151e+2, -1248662.9, -1300382.0, -3216.0679, 0.0067529944, -0.034805197, -1248463.6, -1532.1012, 0.005852864, 10.001083, 9.994175 
5.950626e+2, 1.8275473e+2, -1155617.4, -1223092.9, -7806.0737, 0.00018377794, -0.03824477, -1154726.1, -5728.163, 0.0021368093, 10.001533, 9.99255 
5.951062e+2, 1.9274691e+2, -1049658.3, -1122567.9, -9449.648, 0.00007342957, -0.08155272, -1048453.44, 2621.0322, 0.0010550627, 10.0021305, 9.992426 
5.951488e+2, 2.0273821e+2, -959669.2, -1049079.6, -15693.321, -0.00096220965, -0.09632988, -956994.7, -3834.855, 0.00073915557, 10.002449, 9.990617 
5.951909e+2, 2.1272925e+2, -864424.2, -954240.4, -15039.048, -0.0038038201, -0.053983986, -861972.94, -6724.5474, 0.0006049614, 10.002336, 9.990454 
5.9523255e+2, 2.2271907e+2, -775278.56, -878238.4, -12402.134, -0.0057486617, -0.02971697, -773805.7, -16457.137, 0.0005205479, 10.002472, 9.988892 
5.9527576e+2, 2.327079e+2, -660359.94, -772301.06, -12238.422, -0.0051307296, -0.04045275, -659037.56, 420.54047, 0.00046617113, 10.003627, 9.988869 
5.95318e+2, 2.4269632e+2, -558211.7, -685042.4, -17198.863, -0.0013148598, -0.027887324, -555920.8, 5650.6274, 0.0004356508, 10.004429, 9.987762 
5.953602e+2, 2.526843e+2, -450664.28, -582223.3, -14418.037, 0.0049153245, -0.008362826, -449102.7, 14586.379, 0.0004130641, 10.005069, 9.98778 
5.95403e+2, 2.6267084e+2, -363405.06, -510291.22, -2392.4363, 0.010574529, -0.062252272, -363366.1, 2454.253, 0.00038235346, 10.005179, 9.985955 
5.9544903e+2, 2.7265516e+2, -269539.56, -418651.94, 599.8459, 0.028193546, -0.18149751, -269537.16, -1563.2247, 0.00036756825, 10.00508, 9.985553 
5.954948e+2, 2.8264123e+2, -178525.22, -344087.34, -4237.294, 0.043455932, -0.087141775, -178416.84, -8306.778, 0.00045654777, 10.005461, 9.983766 
5.9553915e+2, 2.9262704e+2, -60711.39, -249889.05, -5413.7295, 0.018275201, 0.2101704, -60556.59, 11693.228, 0.0007430319, 10.00739, 9.982568 
5.955861e+2, 3.0260566e+2, 14471.186, -175325.2, 4783.7754, -0.06838612, -0.25177652, 14591.684, 14591.684, 0.0012328605, 10.008672, 9.983656 
5.956342e+2, 3.12592e+2, 74409.79, -16264.597, -7109.434, 0.02131598, 0.024400016, 74963.83, 74963.83, 0.0018376576, 10.007201, 9.995267 
6.047928e+2, 1.2273456e+2, -1742187.5, -1730995.3, 2503.808, -0.006479859, -0.02357231, -1730460.6, 6735.2256, 0.21415175, 9.998101, 9.999785 
6.048388e+2, 1.3273212e+2, -1651867.5, -1657805.5, -5627.161, 0.0023087736, -0.0709243, -1648474.1, -9254.559, 0.15643801, 9.998575, 9.997755 
6.0488415e+2, 1.4272934e+2, -1555482.4, -1575715.0, -5409.0728, -0.012322889, -0.04875587, -1554127.1, -12880.45, 0.09991357, 9.999126, 9.996402 
6.049296e+2, 1.527256e+2, -1445539.6, -1474464.3, -4982.758, -0.0071128383, -0.05933312, -1444705.4, -1422.3634, 0.05450123, 10.0000515, 9.996167 
6.049747e+2, 1.6272078e+2, -1348768.9, -1395266.3, -6804.5923, -0.0021769577, -0.067150116, -1347793.5, -2463.4785, 0.025909876, 10.000756, 9.994547 
6.050196e+2, 1.727154e+2, -1251342.0, -1299480.4, -5331.8833, 0.0038124253, -0.06240064, -1250758.5, -3375.7314, 0.011985906, 10.0008, 9.994372 
6.0506403e+2, 1.8270876e+2, -1161715.1, -1226482.8, -6197.8926, 0.007974637, -0.061935395, -1161127.4, -11679.307, 0.006540678, 10.001125, 9.992517 
6.0510844e+2, 1.9270116e+2, -1049299.6, -1123702.6, -4994.64, 0.007378066, -0.07425908, -1048965.8, 2556.9805, 0.004605954, 10.002202, 9.992316 
6.051516e+2, 2.0269245e+2, -950677.25, -1046983.2, -12360.374, -0.00019152682, -0.07168749, -949116.1, 4492.263, 0.0037908985, 10.003171, 9.990404 
6.051938e+2, 2.1268311e+2, -842686.44, -946352.44, -16389.096, -0.022024438, -0.04635489, -840157.1, 15543.477, 0.0032939822, 10.003944, 9.990205 
6.052356e+2, 2.2267261e+2, -751015.9, -866073.9, -15822.837, -0.03103572, -0.037016228, -748879.56, 8924.217, 0.0029298984, 10.004103, 9.988932 
6.05279e+2, 2.3266155e+2, -667056.9, -774055.75, -11510.959, -0.011263012, -0.053904254, -665832.5, -5920.212, 0.002684564, 10.003098, 9.98901 
6.0532147e+2, 2.426499e+2, -588817.7, -702253.9, -13206.435, 0.005725492, -0.040819407, -587300.44, -25274.275, 0.0025410713, 10.002436, 9.987551 
6.053645e+2, 2.526378e+2, -474616.53, -595945.1, -16252.775, 0.00820188, -0.0077099917, -472477.1, -8332.609, 0.0024159902, 10.003504, 9.9875965 
6.0540766e+2, 2.6262417e+2, -380134.44, -523436.94, -10571.503, 0.0076194876, -0.053049535, -379358.75, -13080.939, 0.0021913543, 10.004219, 9.985525 
6.0545415e+2, 2.7260798e+2, -266502.75, -421778.38, -7627.712, 0.016297901, -0.1769562, -266128.97, 2307.2034, 0.0018755151, 10.00543, 9.985186 
6.055004e+2, 2.8259403e+2, -167249.03, -334749.78, -9814.643, 0.03138502, -0.08745161, -166675.9, 3896.5571, 0.0017067166, 10.006008, 9.9841585 
6.0554606e+2, 2.925802e+2, -71258.375, -250692.98, -3413.946, 0.019895034, 0.2011772, -71193.445, 1515.1547, 0.0019738742, 10.006437, 9.9829855 
6.0559416e+2, 3.0255833e+2, -12215.903, -205062.88, 8212.784, -0.07606679, -0.27170244, -11866.777, -11866.777, 0.00273566, 10.00756, 9.982156 
6.056425e+2, 3.125428e+2, 106121.47, 6561.286, -8616.33, 0.019442182, 0.0019414033, 106861.66, 106861.66, 0.0038015225, 10.009084, 9.995927 
6.1479086e+2, 1.2268586e+2, -1732383.0, -1713152.5, 1372.9307, -0.016210983, -0.18352835, -1713054.9, 24616.46, 0.27197987, 9.998064, 10.001504 
6.148373e+2, 1.3268492e+2, -1651790.1, -1656598.0, -5822.8745, -0.013727988, -0.0984725, -1647894.5, -8213.632, 0.20546477, 9.998545, 9.99784 
6.148836e+2, 1.426832e+2, -1554829.0, -1573233.1, -3889.0542, 0.014439175, 0.008165357, -1554040.9, -12342.789, 0.13910946, 9.999085, 9.996579 
6.1493003e+2, 1.5267898e+2, -1446491.6, -1474978.5, -2561.9917, 0.031070331, -0.057449356, -1446263.1, -2524.1362, 0.08437977, 9.999997, 9.996148 
6.1497575e+2, 1.6267379e+2, -1347477.0, -1391232.1, -7124.5156, 0.028202878, -0.111981876, -1346346.1, -556.51605, 0.048490662, 10.000706, 9.994838 
6.150203e+2, 1.7266855e+2, -1249364.1, -1294528.0, -6323.5356, -0.012736461, -0.1272106, -1248495.4, -654.3784, 0.029760148, 10.000773, 9.994714 
6.1506474e+2, 1.8266235e+2, -1160125.5, -1222747.5, -3726.557, -0.034578588, -0.112215586, -1159904.5, -10002.257, 0.021442115, 10.001114, 9.992767 
6.151105e+2, 1.9265586e+2, -1047804.3, -1120599.3, -1537.8837, -0.0068755173, -0.035916124, -1047771.8, 4195.0093, 0.017749188, 10.002218, 9.992508 
6.1515486e+2, 2.026475e+2, -954630.5, -1055129.8, -9815.425, -0.0005886527, 0.013551731, -953680.8, 368.6647, 0.015684681, 10.003173, 9.989842 
6.1519754e+2, 2.1263687e+2, -848468.0, -957769.75, -13696.432, -0.04864573, -0.016713506, -846777.9, 9375.966, 0.014164987, 10.003934, 9.989426 
6.152394e+2, 2.226255e+2, -748617.8, -860206.94, -18273.215, -0.064912, -0.060545884, -745701.7, 12563.484, 0.012958528, 10.004086, 9.989338 
6.152823e+2, 2.3261479e+2, -661397.9, -762914.25, -16014.407, -0.0024005515, -0.11772173, -658931.5, 1438.0935, 0.012107185, 10.003136, 9.98975 
6.153242e+2, 2.4260318e+2, -593968.0, -713756.75, -11310.7705, 0.03518576, -0.107800946, -592909.4, -30426.066, 0.0115695195, 10.0024805, 9.986735 
6.15368e+2, 2.525908e+2, -481769.7, -611965.6, -12433.592, 0.0012246782, 0.006529422, -480592.94, -15987.648, 0.011032614, 10.003566, 9.986461 
6.1541146e+2, 2.6257664e+2, -385711.13, -534946.8, -7126.8765, -0.03563758, 0.010522251, -385371.53, -18627.088, 0.0100008305, 10.004188, 9.984761 
6.154589e+2, 2.7255934e+2, -269842.88, -429110.0, -3242.2908, -0.054768994, -0.1635315, -269776.88, -864.0127, 0.008357119, 10.005433, 9.984681 
6.1550575e+2, 2.825452e+2, -161714.11, -322389.47, -9247.683, -0.039158944, -0.11182274, -161183.61, 9867.5625, 0.0067573683, 10.0059395, 9.985055 
6.155523e+2, 2.925326e+2, -63929.777, -234687.06, -2190.9412, 0.0041650394, 0.19109058, -63901.67, 9272.641, 0.0061111366, 10.0063715, 9.984128 
6.156017e+2, 3.0251107e+2, -25040.25, -228364.77, 12829.368, -0.06582843, -0.26469117, -24233.941, -24233.941, 0.0067206235, 10.007392, 9.980649 
6.156517e+2, 3.1249258e+2, 101173.56, 7969.5356, -2414.8267, 0.04649544, -0.06790948, 101236.086, 101236.086, 0.008187073, 10.008607, 9.996254 
6.2478995e+2, 1.22640304e+2, -1702418.5, -1705656.8, 15777.027, -0.077905275, -0.04639713, -1688177.8, 49939.313, 0.35410506, 10.001556, 10.000907 
6.248362e+2, 1.3263802e+2, -1634205.5, -1650338.8, -5071.7046, -0.047951978, -0.07575703, -1632743.6, 7395.9585, 0.28108662, 10.000058, 9.997555 
6.248825e+2, 1.426354e+2, -1558316.4, -1571210.9, -1788.4454, 0.023977187, -0.04419336, -1558072.9, -15907.578, 0.20656246, 9.998681, 9.996914 
6.2493014e+2, 1.5263216e+2, -1439763.3, -1463238.0, 5930.8257, 0.031092662, -0.07927009, -1438349.9, 5847.4546, 0.14324221, 10.000149, 9.996884 
6.2497675e+2, 1.6262774e+2, -1338522.6, -1386537.3, 300.36035, 0.021859564, -0.102157585, -1338520.8, 7719.896, 0.099858776, 10.001362, 9.994849 
6.250212e+2, 1.7262252e+2, -1246217.0, -1296214.3, -5378.509, -0.008140757, -0.09419492, -1245644.9, 2647.2515, 0.07550127, 10.001141, 9.994424 
6.25066e+2, 1.8261608e+2, -1158919.9, -1224628.9, -3646.0586, -0.028646141, -0.07724345, -1158718.1, -8362.649, 0.063227676, 10.001282, 9.992561 
6.2511265e+2, 1.926089e+2, -1046335.44, -1122913.3, -4405.1895, -0.023811994, -0.04751849, -1046082.9, 6344.105, 0.056679733, 10.002455, 9.992234 
6.2515783e+2, 2.0260026e+2, -949939.9, -1046343.0, -14906.794, -0.018617421, -0.027553763, -947687.44, 6824.7026, 0.05228218, 10.003228, 9.990412 
6.2520117e+2, 2.1259063e+2, -860209.1, -954415.2, -9448.3125, -0.018025147, -0.03706456, -859270.9, -2664.5986, 0.04865137, 10.0027275, 9.990242 
6.252433e+2, 2.2257967e+2, -774246.94, -881284.44, -9435.018, -0.011829266, -0.058188923, -773421.6, -14707.807, 0.045559824, 10.0027, 9.988574 
6.252863e+2, 2.3256803e+2, -650789.1, -771669.6, -20960.957, 0.012630951, -0.09272637, -647257.6, 13570.448, 0.043225627, 10.004512, 9.988478 
6.2532824e+2, 2.4255545e+2, -550687.25, -697871.06, -24433.186, 0.030136067, -0.076561734, -546737.25, 16214.272, 0.041560948, 10.005669, 9.986292 
6.253725e+2, 2.5254264e+2, -459687.13, -603040.8, -20557.168, 0.02124519, 0.008041593, -456797.47, 8279.954, 0.039684195, 10.005131, 9.986336 
6.254161e+2, 2.6252788e+2, -386566.97, -540461.2, -8172.7095, 0.00073403027, -0.0019280355, -386134.16, -18912.371, 0.03611022, 10.004346, 9.984302 
6.2546474e+2, 2.725106e+2, -266483.38, -428383.28, -617.8904, -0.030800108, -0.15801083, -266481.03, 2909.535, 0.030348914, 10.0056925, 9.984609 
6.2551177e+2, 2.8249627e+2, -162606.44, -327432.2, -10746.381, -0.032775734, -0.10889953, -161908.75, 9621.222, 0.024075566, 10.006061, 9.98466 
6.2555915e+2, 2.9248282e+2, -48311.84, -234676.05, -12970.159, -0.017638113, 0.16833979, -47413.504, 26248.313, 0.01985892, 10.007779, 9.983444 
6.25609e+2, 3.024613e+2, -22808.252, -235661.1, -9244.023, -0.1074992, -0.22652252, -22407.545, -22407.545, 0.018799564, 10.007811, 9.97997 
6.256584e+2, 3.124421e+2, 59209.48, 6225.0176, -16300.779, 0.033515684, -0.027223293, 63822.773, 63822.773, 0.020104507, 10.004794, 9.998039 
6.348364e+2, 1.32592e+2, -1680156.8, -1685345.6, -18585.541, -0.02920877, -0.032390155, -1663985.5, -23395.848, 0.39863336, 9.997304, 9.9964905 
6.348816e+2, 1.4258644e+2, -1593108.8, -1583627.3, -5267.6816, 0.06866943, -0.21994783, -1581281.1, -38637.27, 0.32108045, 9.996124, 9.997306 
6.3493e+2, 1.5258557e+2, -1442435.3, -1449272.4, 8227.709, 0.007580617, -0.13784784, -1436944.1, 7709.4946, 0.25316352, 9.999343, 9.998268 
6.3497764e+2, 1.6258316e+2, -1341708.3, -1391195.9, -555.1618, -0.024593242, -0.043155096, -1341702.0, 4976.3223, 0.20479763, 10.001328, 9.994537 
6.3502264e+2, 1.7257771e+2, -1253305.1, -1310624.9, -7669.8906, 0.010703582, 0.030386385, -1252296.6, -3564.6033, 0.17587304, 10.001134, 9.993435 
6.3506776e+2, 1.8257032e+2, -1164503.5, -1236288.5, -1584.5809, 0.015723616, 0.040865127, -1164468.5, -13664.023, 0.15967952, 10.001295, 9.991751 
6.351149e+2, 1.9256054e+2, -1052292.5, -1135268.4, -228.06648, -0.051135316, -0.1077753, -1052291.9, 608.3858, 0.14982003, 10.002444, 9.9913845 
6.351606e+2, 2.0255093e+2, -941595.44, -1023822.3, -14618.833, -0.065791726, -0.1891538, -939073.75, 15920.366, 0.1423157, 10.00321, 9.991948 
6.352047e+2, 2.1254447e+2, -844444.7, -920069.06, -11551.34, 0.054351985, -0.108361974, -842719.6, 14338.055, 0.13550681, 10.00286, 9.992515 
6.352473e+2, 2.2253507e+2, -784504.8, -907623.7, -5060.4517, 0.113443516, -0.033427402, -784297.2, -25146.99, 0.12921384, 10.002932, 9.986654 
6.35291e+2, 2.3252122e+2, -671915.7, -817317.0, -13475.67, 0.023915704, 0.0075258245, -670677.3, -9389.728, 0.123995565, 10.004548, 9.985332 
6.353335e+2, 2.4250671e+2, -556603.7, -703802.7, -23130.254, -0.018615192, 0.040359933, -553054.7, 10375.915, 0.11969436, 10.005466, 9.98598 
6.3537806e+2, 2.5249323e+2, -458397.88, -594803.56, -23832.035, 0.054999042, -0.0031638488, -454353.94, 11207.765, 0.11434338, 10.004991, 9.986967 
6.3542145e+2, 2.624779e+2, -390546.97, -545228.1, -6762.896, 0.097648755, -0.07712303, -390251.84, -22541.207, 0.104492195, 10.004165, 9.984075 
6.3547146e+2, 2.724614e+2, -266784.38, -426243.3, 3264.8113, 0.06387172, -0.15554167, -266717.56, 3153.5984, 0.08894822, 10.005564, 9.984822 
6.355185e+2, 2.8244704e+2, -175739.7, -351708.16, -8758.663, 0.026780255, -0.08233176, -175304.83, -3293.1665, 0.07142285, 10.005848, 9.983129 
6.355666e+2, 2.924308e+2, -68039.68, -269446.1, -5985.1426, -0.05247752, 0.12574518, -67861.98, 6309.6284, 0.057965264, 10.007446, 9.981241 
6.356156e+2, 3.024091e+2, -29369.068, -238231.23, -17437.39, -0.2088249, -0.17264494, -27923.271, -27923.271, 0.05158817, 10.007293, 9.98008 
6.356619e+2, 3.123912e+2, 68092.79, 38077.03, -24622.281, -0.054420415, 0.10786073, 81920.53, 81920.53, 0.050905585, 10.00433, 10.000613 
6.449757e+2, 1.6253242e+2, -1386907.6, -1341225.9, -18394.3, -0.021815794, -0.00021773575, -1334740.0, 12437.368, 0.39380407, 9.994796, 10.001523 
6.4502543e+2, 1.7252772e+2, -1224596.4, -1274629.9, -9065.888, 0.06393548, -0.050561428, -1223004.3, 26218.063, 0.36312452, 10.003399, 9.994775 
6.450718e+2, 1.825203e+2, -1090484.1, -1161879.1, -5810.6177, -0.027926022, -0.19359489, -1090014.3, 61279.69, 0.34431255, 10.007517, 9.993812 
6.451172e+2, 1.925156e+2, -1048526.25, -1103795.5, 9604.628, -0.022131944, -0.07973786, -1046904.75, 6434.9478, 0.331853, 10.001692, 9.993925 
6.451619e+2, 2.0250878e+2, -1008616.94, -1068858.1, 19109.504, -0.040672183, -0.00815501, -1003066.5, -47660.04, 0.32141668, 9.998962, 9.99095 
6.4520717e+2, 2.124989e+2, -837239.4, -938693.5, -3628.584, -0.09034904, -0.059224077, -837109.75, 20393.928, 0.3110016, 10.004914, 9.990235 
6.452509e+2, 2.2248755e+2, -715227.1, -849193.7, -19046.73, -0.10448068, -0.09210851, -712571.8, 47043.914, 0.3004126, 10.008354, 9.988022 
6.452947e+2, 2.3247576e+2, -661746.6, -785177.44, 3667.799, -0.028641244, -0.080862895, -661637.75, 94.70376, 0.2907108, 10.004077, 9.987785 
6.453372e+2, 2.424614e+2, -632598.3, -770846.7, 18161.941, 0.017441409, -0.06275048, -630252.2, -66378.414, 0.28173926, 10.001463, 9.983387 
6.453817e+2, 2.5244486e+2, -493867.66, -651064.3, -11893.717, -0.026867412, -0.048675455, -492972.88, -26937.94, 0.2697425, 10.004099, 9.983595 
6.4542466e+2, 2.6242694e+2, -394528.2, -583350.9, -18773.871, -0.048892144, -0.065530546, -392679.7, -24469.826, 0.24780026, 10.005458, 9.980825 
6.454762e+2, 2.724072e+2, -297456.88, -477117.03, -33932.305, 0.025603073, -0.14993379, -291261.72, -20858.213, 0.21365689, 10.004976, 9.981584 
6.4552337e+2, 2.823908e+2, -200503.17, -344780.25, -52961.83, 0.07466842, -0.13546853, -183149.11, -10584.69, 0.17465182, 10.003349, 9.984737 
6.4557344e+2, 2.923765e+2, -71320.55, -234900.77, -6506.863, -0.006306594, -0.032646302, -71062.125, 3642.5195, 0.14277475, 10.005684, 9.98443 
6.4562213e+2, 3.0235848e+2, -55504.7, -228434.3, -7303.1577, -0.1487912, -0.26064068, -55196.82, -55196.82, 0.12435999, 10.004586, 9.982051 
6.4566666e+2, 3.1234097e+2, 53048.6, 55573.395, -7870.48, 0.0371831, -0.06321395, 62282.074, 62282.074, 0.11729074, 10.002433, 10.0030575 
6.555264e+2, 2.823311e+2, -183228.66, -283129.72, -47478.383, 0.019818885, 0.05416037, -164264.36, 8888.537, 0.35781732, 10.002562, 9.989397 
6.555795e+2, 2.9232392e+2, -38100.594, -119657.38, -1054.1508, 0.024443865, 0.06133034, -38086.973, 37135.42, 0.29644063, 10.005024, 9.992628 
6.556271e+2, 3.0231366e+2, -39957.207, -177595.9, -32846.184, -0.090076946, -0.06838779, -32520.572, -32520.572, 0.25640637, 10.003665, 9.986041 
6.556671e+2, 3.122974e+2, 39227.113, 63501.242, -19274.549, -0.076807156, 0.022190826, 74141.73, 74141.73, 0.2349045, 10.00063, 10.005375 
7.1215177e+2, 1.7262581e+2, -1308670.4, -1304789.0, -10562.365, 0.3268881, -0.53309166, -1295990.5, -47745.473, 0.39540657, 9.97373, 9.97436 
7.1148396e+2, 1.8260325e+2, -1183215.0, -1204036.4, 2154.2183, 0.1107655, -0.16116503, -1182994.5, -32524.598, 0.36718786, 9.9762, 9.973443 
7.1081907e+2, 1.9257703e+2, -1048037.9, -1087628.3, 3824.8022, -0.023762777, -0.1376802, -1047671.75, 5055.676, 0.33893153, 9.979056, 9.973334 
7.101542e+2, 2.0254989e+2, -937742.0, -996514.9, -4304.471, -0.10676411, -0.12467448, -937428.44, 17565.344, 0.30843776, 9.980732, 9.971976 
7.094892e+2, 2.1251993e+2, -847537.75, -912504.44, 2147.474, 0.06478383, -0.26600742, -847466.8, 9819.34, 0.27872315, 9.980329, 9.971031 
7.0882535e+2, 2.224907e+2, -741902.8, -783437.4, 8983.804, 0.16215786, -0.37041828, -740042.94, 19528.637, 0.25779146, 9.979961, 9.973441 
7.081591e+2, 2.3246646e+2, -639875.0, -673710.2, -1918.6836, -0.08889364, -0.23574415, -639766.56, 22043.146, 0.25592577, 9.980083, 9.974487 
7.0749503e+2, 2.4244194e+2, -546939.06, -584235.0, -17336.346, -0.28580916, -0.14420418, -540125.4, 23924.654, 0.28093815, 9.979886, 9.974348 
7.068329e+2, 2.5241432e+2, -465023.94, -508198.25, -10214.852, -0.1001311, -0.27924457, -462729.13, 3590.463, 0.33561885, 9.97902, 9.973218 
7.2478074e+2, 1.333962e+2, -1609597.0, -1623884.4, 3532.1199, 0.17841713, -0.09278181, -1608771.5, 23932.541, 0.3865402, 9.980177, 9.977025 
7.241192e+2, 1.4337048e+2, -1525424.0, -1559869.6, -9408.344, 0.17310467, -0.22162902, -1523021.8, 11932.808, 0.3205506, 9.979621, 9.974562 
7.2345734e+2, 1.5334603e+2, -1441005.5, -1474362.3, -7613.132, 0.36656088, -0.11396344, -1439350.1, -2154.8767, 0.26355705, 9.978386, 9.974201 
7.227913e+2, 1.6332008e+2, -1353439.8, -1374684.9, -5286.7183, 0.21066362, -0.1346506, -1352196.9, -12746.833, 0.22259246, 9.977359, 9.974669 
7.221251e+2, 1.7329608e+2, -1233314.9, -1265473.0, -5427.225, 0.0989097, -0.012584447, -1232423.6, 9261.274, 0.19628097, 9.979088, 9.974548 
7.214606e+2, 1.8327013e+2, -1134432.5, -1180116.9, 4657.166, 0.030050954, -0.0044910223, -1133962.5, 9976.174, 0.17793316, 9.979853, 9.973415 
7.2079873e+2, 1.9324099e+2, -1053964.6, -1097278.5, 7551.425, 0.031287074, -0.23785031, -1052685.9, -6463.0444, 0.16172512, 9.978871, 9.972866 
7.2013557e+2, 2.0321311e+2, -952274.3, -993924.5, -9780.97, 0.01573032, -0.30879137, -950091.75, -1596.5807, 0.14477547, 9.97867, 9.973206 
7.194687e+2, 2.131886e+2, -842722.0, -891507.6, -8635.132, 0.0010928372, -0.08738119, -841238.7, 9497.224, 0.12793343, 9.979653, 9.972937 
7.188039e+2, 2.2316131e+2, -759149.3, -830457.6, -1441.0005, 0.022585094, 0.009537257, -759120.25, -6116.566, 0.11532351, 9.979898, 9.970425 
7.1814054e+2, 2.3312996e+2, -674751.25, -749543.7, -4825.8853, 0.051808964, -0.122077405, -674441.2, -19130.154, 0.11273274, 9.979617, 9.969586 
7.1747774e+2, 2.431002e+2, -553513.7, -598147.4, -23697.938, 0.003405282, -0.2026053, -543278.5, 14323.581, 0.12506926, 9.979313, 9.973568 
7.1681213e+2, 2.530743e+2, -459612.53, -498438.3, -18645.97, -0.07711777, -0.2229916, -452108.28, 7745.242, 0.15568924, 9.979003, 9.973897 
7.161535e+2, 2.630465e+2, -406343.53, -461139.94, -812.49786, -0.0734588, -0.21949126, -406331.47, -44207.68, 0.20592439, 9.977723, 9.970619 
7.154973e+2, 2.730182e+2, -345494.97, -379357.6, 11751.375, -0.08008553, -0.094567075, -341816.5, -77416.14, 0.27404428, 9.9754715, 9.970751 
7.1483773e+2, 2.829887e+2, -148170.38, -172203.28, -90360.19, -0.28422317, -0.41053802, -69031.15, 97656.95, 0.35031328, 9.979698, 9.978242 
7.354211e+2, 1.2408164e+2, -1692467.8, -1691936.8, 6410.106, 0.28031743, -0.06034021, -1685786.8, 38200.496, 0.3249303, 9.980101, 9.980037 
7.3475844e+2, 1.340563e+2, -1644591.0, -1660260.3, -10446.294, 0.22185704, -0.1758433, -1639367.8, -13133.337, 0.2589689, 9.977489, 9.975518 
7.3409575e+2, 1.4403212e+2, -1558678.9, -1570203.9, -11106.392, 0.17656022, -0.12279191, -1551929.1, -23457.34, 0.19364516, 9.976778, 9.975309 
7.3343307e+2, 1.5400782e+2, -1436169.3, -1464563.1, -13057.781, 0.122778475, -0.07845854, -1431077.4, -365.2822, 0.13979182, 9.978649, 9.97489 
7.3277026e+2, 1.6398282e+2, -1307207.6, -1346476.9, -11295.818, 0.12202907, -0.058738332, -1304190.3, 28767.676, 0.103773825, 9.980825, 9.975171 
7.3210764e+2, 1.7395775e+2, -1175012.0, -1232365.5, -8335.138, 0.1459319, -0.09017754, -1173825.3, 61377.145, 0.0834387, 9.98339, 9.974967 
7.314437e+2, 1.8393175e+2, -1085854.5, -1158009.4, -14428.299, 0.122879386, -0.09943131, -1083076.4, 54380.04, 0.071988575, 9.983338, 9.973314 
7.307784e+2, 1.939046e+2, -1037823.44, -1091736.3, -13886.999, 0.06150703, -0.12654953, -1034456.7, 5265.6836, 0.063783295, 9.979986, 9.972763 
7.3011404e+2, 2.0387667e+2, -958745.5, -1008752.3, -17827.807, 0.029537722, -0.15525226, -953040.56, -11045.344, 0.056026805, 9.978855, 9.972333 
7.2944933e+2, 2.138494e+2, -827581.4, -897409.4, -21700.908, 0.030154862, -0.122839406, -821386.8, 22874.89, 0.04849387, 9.981364, 9.972141 
7.287851e+2, 2.2382097e+2, -728269.56, -819524.5, -26097.678, 0.02398359, -0.08710142, -721333.25, 25207.12, 0.042778473, 9.982282, 9.970347 
7.281203e+2, 2.3379064e+2, -658103.6, -745506.25, -15353.684, 0.018304875, -0.119356565, -655484.94, -6646.4927, 0.041425813, 9.980821, 9.969365 
7.274572e+2, 2.4376003e+2, -553474.0, -629367.6, -19058.377, -0.02032981, -0.14487843, -548956.94, 2181.3425, 0.04693572, 9.980487, 9.970861 
7.2679275e+2, 2.537315e+2, -425621.4, -515038.75, -26712.412, -0.10275126, -0.14386222, -418249.22, 35167.363, 0.061797857, 9.982709, 9.971285 
7.261335e+2, 2.6370144e+2, -336174.2, -442587.44, -23317.479, -0.122558355, -0.18756342, -331289.06, 24419.852, 0.088554315, 9.982966, 9.969814 
7.2547555e+2, 2.7367035e+2, -258948.4, -350372.63, -11153.798, -0.12896354, -0.28860462, -257607.31, 405.22012, 0.12834208, 9.981281, 9.970327 
7.2481763e+2, 2.83638e+2, -234232.27, -384473.97, -22928.463, -0.32574838, -0.18848498, -230811.05, -70481.875, 0.17687371, 9.979675, 9.962048 
7.241533e+2, 2.9360232e+2, -41843.094, -232054.2, -23875.205, -0.5065389, 0.11692928, -38892.074, 23788.229, 0.22322865, 9.986262, 9.962466 
7.2351056e+2, 3.035577e+2, -35089.492, -294643.34, 65558.81, 0.24587066, -0.3557236, -19470.379, -19470.379, 0.25663778, 9.987757, 9.955284 
7.228633e+2, 3.1351206e+2, 30298.52, 40649.953, -30854.078, -0.5594026, -0.38169116, 66759.414, 66759.414, 0.27518418, 9.978849, 9.981925 
7.4539924e+2, 1.2473996e+2, -1734141.0, -1737611.4, -6954.5156, 0.25271344, -0.23563723, -1728708.5, -11171.196, 0.23778464, 9.977389, 9.977007 
7.447377e+2, 1.3471667e+2, -1602729.9, -1630560.3, -6153.8765, 0.28872067, -0.2251597, -1601429.9, 18334.95, 0.17852762, 9.980246, 9.976139 
7.4407536e+2, 1.4469273e+2, -1502628.4, -1542830.9, -3536.6667, 0.27826706, -0.16067876, -1502319.6, 19680.531, 0.12097202, 9.980868, 9.975103 
7.4341273e+2, 1.5466864e+2, -1420883.3, -1457638.8, -4744.195, 0.17874676, -0.07496193, -1420280.8, 3957.8303, 0.07492237, 9.979802, 9.974728 
7.4275064e+2, 1.6464354e+2, -1327268.0, -1353137.6, -4423.8726, 0.14370705, -0.07899462, -1326532.4, -47.406513, 0.045666836, 9.979153, 9.975505 
7.4209005e+2, 1.7461798e+2, -1236132.3, -1261737.8, -5915.713, 0.20209594, -0.18911676, -1234831.5, -6098.0317, 0.030717533, 9.97885, 9.975232 
7.414262e+2, 1.8459226e+2, -1142338.6, -1188958.5, -27602.309, 0.18421468, -0.17169704, -1129520.5, 1464.6423, 0.023817481, 9.979187, 9.973218 
7.4075836e+2, 1.9456694e+2, -1034854.8, -1091304.8, -27842.168, 0.071794055, -0.012681431, -1023433.44, 9800.886, 0.020068232, 9.980088, 9.972746 
7.4009335e+2, 2.0453863e+2, -942575.8, -1015222.25, -15131.459, 0.026416915, -0.023742529, -939550.1, -4039.0332, 0.017150646, 9.980721, 9.971108 
7.394312e+2, 2.1450754e+2, -835183.5, -918724.8, -14888.257, 0.063665606, -0.23422931, -832609.5, 5203.863, 0.014529327, 9.981707, 9.970593 
7.3876727e+2, 2.244779e+2, -723709.3, -806711.25, -33014.523, 0.030348998, -0.27267522, -712179.25, 27923.844, 0.012609046, 9.982002, 9.971344 
7.3810005e+2, 2.3445071e+2, -636876.8, -720058.06, -27700.006, -0.091603756, -0.12451409, -628496.75, 13874.789, 0.012245855, 9.981555, 9.970801 
7.374366e+2, 2.4442032e+2, -564745.94, -676209.56, -19830.84, -0.15775497, -0.05022504, -561322.9, -16652.43, 0.014473152, 9.981645, 9.967274 
7.367752e+2, 2.5438735e+2, -448418.25, -573456.25, -24174.46, -0.14457692, -0.07075735, -443907.2, 3086.1814, 0.020687664, 9.983189, 9.9671545 
7.361169e+2, 2.643553e+2, -329397.88, -435348.47, -32214.527, -0.08162075, -0.12033151, -320371.9, 28933.979, 0.03277115, 9.983161, 9.970148 
7.354579e+2, 2.7432495e+2, -249083.73, -336769.66, -23115.545, -0.008803361, -0.20734759, -243363.27, 8236.748, 0.052169736, 9.981574, 9.971019 
7.347991e+2, 2.8429326e+2, -206647.92, -337597.2, -14053.239, -0.16889733, -0.19338295, -205156.73, -51247.414, 0.07766044, 9.980538, 9.964732 
7.341374e+2, 2.9425886e+2, -56094.363, -209347.44, 1332.7896, -0.4479241, -0.072457075, -56082.773, 165.27338, 0.104572356, 9.98387, 9.964972 
7.334902e+2, 3.042209e+2, -86449.26, -242759.58, 66853.41, 0.07852443, -0.22626685, -61756.926, -61756.926, 0.12762086, 9.980769, 9.96104 
7.328347e+2, 3.1418508e+2, -25214.025, 97035.625, -46301.465, -0.51318437, 0.06012823, 112592.414, 112592.414, 0.14480618, 9.96996, 9.9881935 
7.553783e+2, 1.2540205e+2, -1706203.3, -1722059.0, 753.55164, 0.3071798, -0.020371962, -1706167.5, 4886.5557, 0.1749869, 9.979446, 9.97718 
7.547182e+2, 1.3537858e+2, -1573840.4, -1611033.4, -1194.1261, 0.19150132, -0.07502992, -1573802.1, 39480.918, 0.1261471, 9.982336, 9.976623 
7.540564e+2, 1.4535432e+2, -1473697.8, -1525079.4, -12217.385, 0.17224585, -0.08399597, -1470940.6, 44580.137, 0.07953501, 9.982706, 9.975442 
7.533937e+2, 1.5532988e+2, -1395324.5, -1441748.4, -11499.993, 0.20452873, -0.06416622, -1392632.0, 25129.035, 0.04320715, 9.981371, 9.975037 
7.527304e+2, 1.6530451e+2, -1323103.9, -1360836.5, -12578.687, 0.19260928, -0.07328586, -1319295.0, 714.31885, 0.021097858, 9.979722, 9.974698 
7.520674e+2, 1.752787e+2, -1256370.8, -1282164.0, -16124.084, 0.16586839, -0.12141966, -1248620.1, -26359.422, 0.010665256, 9.977799, 9.974366 
7.514039e+2, 1.8525232e+2, -1154507.3, -1197539.1, -20514.082, 0.13379166, -0.115844555, -1146295.0, -21775.984, 0.006592949, 9.978632, 9.973074 
7.507397e+2, 1.9522601e+2, -1007724.2, -1080475.4, -20575.291, 0.08028398, -0.045657117, -1002308.3, 24469.457, 0.004968161, 9.982163, 9.972651 
7.5007594e+2, 2.0519772e+2, -901280.75, -995798.0, -16419.934, 0.026711866, -0.04995463, -898509.44, 30545.33, 0.004045389, 9.983487, 9.971145 
7.494128e+2, 2.1516772e+2, -818070.1, -911109.9, -12583.889, -0.009068075, -0.15491362, -816398.1, 14949.248, 0.0033372012, 9.982757, 9.97058 
7.487491e+2, 2.2513773e+2, -718208.4, -819467.1, -25727.242, -0.033046834, -0.16416319, -712046.7, 21594.455, 0.0028621939, 9.982934, 9.97005 
7.480836e+2, 2.3510885e+2, -599488.25, -715645.06, -29035.594, -0.07259268, -0.060459644, -592634.7, 43290.887, 0.0028366614, 9.984568, 9.969821 
7.474204e+2, 2.450775e+2, -527169.4, -663791.25, -20972.463, -0.109117426, -0.023738978, -524022.47, 14210.825, 0.0036093546, 9.984233, 9.96697 
7.4675834e+2, 2.550439e+2, -461284.53, -585488.75, -7804.003, -0.1117196, -0.066544354, -460796.13, -20234.004, 0.005786188, 9.982234, 9.966555 
7.460991e+2, 2.6501125e+2, -359948.72, -460143.22, -5600.4263, -0.07830587, -0.097767204, -359636.66, -16756.355, 0.010313397, 9.981129, 9.969103 
7.454396e+2, 2.7498028e+2, -247438.89, -348676.63, -10237.822, -0.02763716, -0.13439584, -246413.95, -1232.7977, 0.018113665, 9.981835, 9.969888 
7.4478054e+2, 2.849484e+2, -182312.5, -305792.44, -7371.0576, -0.13423838, -0.16173509, -181874.05, -34381.68, 0.0291918, 9.98124, 9.96661 
7.441205e+2, 2.94915e+2, -98793.35, -211978.36, -3132.4001, -0.35664448, -0.17006712, -98706.73, -48885.69, 0.042157877, 9.980136, 9.966853 
7.434682e+2, 3.0488208e+2, -73746.03, -177224.2, 19869.158, -0.07942337, -0.1631079, -70062.05, -70062.05, 0.05496989, 9.978651, 9.966664 
7.4281025e+2, 3.1484887e+2, -33593.145, -53589.195, -88240.25, -0.20395587, -0.16348119, 45213.688, 45213.688, 0.066277824, 9.976147, 9.974415 
7.653586e+2, 1.2606315e+2, -1681640.9, -1706780.6, 5610.7705, 0.31540155, 0.04081839, -1680445.5, 24132.88, 0.12768435, 9.981245, 9.977318 
7.646992e+2, 1.3604006e+2, -1601099.4, -1624071.1, 3993.3843, 0.17334382, 0.0102872215, -1600425.0, 6378.5923, 0.08972423, 9.980108, 9.976755 
7.6403767e+2, 1.4601575e+2, -1503388.3, -1540710.8, -13126.945, 0.1428165, -0.0081874, -1499233.8, 9807.835, 0.05413508, 9.980489, 9.975433 
7.633751e+2, 1.5599102e+2, -1388135.1, -1438202.3, -17212.799, 0.20104712, -0.023927663, -1382788.5, 28495.867, 0.0270741, 9.9818325, 9.9751005 
7.6271087e+2, 1.6596533e+2, -1293451.5, -1353783.8, -21462.73, 0.19173631, -0.03617627, -1286595.4, 26940.006, 0.011199405, 9.9820175, 9.974084 
7.62046e+2, 1.7593926e+2, -1206102.1, -1265035.9, -21696.725, 0.1269175, -0.045874428, -1198976.1, 16813.627, 0.004158356, 9.981482, 9.973719 
7.613831e+2, 1.8591225e+2, -1117866.4, -1182210.8, -12392.511, 0.09517835, -0.06145117, -1115562.1, 2492.1995, 0.0017335946, 9.981428, 9.972857 
7.60722e+2, 1.9588484e+2, -1013867.5, -1085691.4, -15129.641, 0.08688579, -0.08267188, -1010810.56, 9513.122, 0.0010015278, 9.982022, 9.972499 
7.60059e+2, 2.0585696e+2, -910818.9, -996309.06, -23373.576, 0.016599407, -0.061545633, -904845.7, 17751.396, 0.00073248235, 9.982639, 9.97159 
7.5939465e+2, 2.1582885e+2, -811154.25, -904186.4, -21327.582, -0.095985636, -0.021714319, -806497.94, 18374.367, 0.0005794508, 9.98306, 9.970977 
7.587316e+2, 2.2579853e+2, -724844.56, -841674.2, -25178.947, -0.08843526, -0.0008480937, -719649.06, 7520.835, 0.00049238495, 9.983437, 9.968411 
7.580689e+2, 2.3576707e+2, -614928.56, -740558.06, -26854.164, -0.0016917839, 0.01076795, -609429.06, 20050.332, 0.0005094102, 9.984378, 9.9682665 
7.5740564e+2, 2.4573517e+2, -514431.03, -637468.6, -30359.693, -0.00023686083, -0.023135029, -507347.53, 24443.734, 0.0007258498, 9.984174, 9.968742 
7.567412e+2, 2.557031e+2, -436526.66, -552778.25, -20448.86, -0.05346652, -0.0967553, -433034.56, 1069.3375, 0.0013426482, 9.982977, 9.96839 
7.5608003e+2, 2.656706e+2, -362896.34, -485109.1, -7666.5005, -0.120219275, -0.098652035, -362417.3, -25996.104, 0.00271117, 9.982144, 9.966932 
7.554198e+2, 2.7563804e+2, -258846.83, -380500.56, -11625.196, -0.19797496, -0.066183805, -257745.89, -19006.52, 0.005256592, 9.982375, 9.967426 
7.547611e+2, 2.8560492e+2, -178441.0, -301495.3, -12581.136, -0.21104534, -0.08770766, -177167.88, -36103.97, 0.009225566, 9.981552, 9.9666195 
7.5410247e+2, 2.955713e+2, -95923.93, -207486.27, -7892.384, -0.1857954, -0.12089137, -95368.36, -51974.184, 0.014432454, 9.980343, 9.96693 
7.5344586e+2, 3.0554065e+2, -43846.457, -127775.71, 14361.692, -0.22493277, -0.024020838, -41456.96, -41456.96, 0.020264829, 9.979421, 9.96952 
7.5278926e+2, 3.1551167e+2, 55452.9, 68525.0, -15139.856, -0.17955558, 0.11053251, 78479.41, 78479.41, 0.026022742, 9.980075, 9.981777 
7.7534074e+2, 1.2672336e+2, -1654625.9, -1689190.8, 1455.2294, 0.30284482, 0.010822891, -1654564.8, 43545.19, 0.090957634, 9.982786, 9.977768 
7.7468085e+2, 1.3670021e+2, -1583504.3, -1613361.4, 1218.5762, 0.26962435, -0.06686939, -1583454.6, 16880.605, 0.06282217, 9.981107, 9.976949 
7.7401924e+2, 1.466759e+2, -1495276.0, -1546325.0, -5111.7095, 0.20670591, -0.04359388, -1494769.3, 7804.4663, 0.036900125, 9.981462, 9.974639 
7.733571e+2, 1.566512e+2, -1375514.6, -1439387.5, -11393.256, 0.14680193, 0.020601146, -1373543.3, 31273.79, 0.017632255, 9.982999, 9.974512 
7.726935e+2, 1.6662543e+2, -1268333.1, -1340214.6, -18573.803, 0.13900112, 0.01167041, -1263817.4, 43251.87, 0.006673812, 9.983591, 9.974267 
7.7202946e+2, 1.765992e+2, -1168921.9, -1247215.4, -17348.262, 0.14481825, -0.030525219, -1165250.1, 44075.28, 0.002032905, 9.983929, 9.9737425 
7.713662e+2, 1.8657182e+2, -1093629.9, -1180314.3, -11838.09, 0.1086769, -0.034477387, -1092042.3, 19551.451, 0.00056122366, 9.983328, 9.97203 
7.707037e+2, 1.9654395e+2, -1015093.3, -1094040.0, -14610.461, 0.05849386, -0.025161395, -1012476.1, 1391.6198, 0.00019329248, 9.982092, 9.971887 
7.700414e+2, 2.0651573e+2, -912665.25, -998536.5, -15683.886, 0.014569759, -0.0120069515, -909890.3, 6253.9697, 0.000105847364, 9.982517, 9.971562 
7.693789e+2, 2.1648742e+2, -797291.06, -898725.4, -16380.195, -0.03638461, 0.008816024, -794711.5, 23709.916, 0.00007627121, 9.98396, 9.970986 
7.687157e+2, 2.2645706e+2, -717470.4, -836419.3, -21046.053, -0.044417873, 0.011970856, -713856.44, 6862.5337, 0.000064000655, 9.9836645, 9.968647 
7.680522e+2, 2.3642549e+2, -635515.9, -749390.8, -15519.356, -0.011337305, -0.00009629135, -633438.7, -10410.128, 0.00007112747, 9.982686, 9.968359 
7.673891e+2, 2.4639349e+2, -529526.7, -650406.5, -16953.084, -0.020711835, -0.022186413, -527194.06, -1852.3308, 0.00011814697, 9.983232, 9.968257 
7.6672536e+2, 2.5636145e+2, -409811.34, -545412.5, -18825.24, -0.06400139, -0.05788357, -407246.4, 20408.107, 0.0002556563, 9.984872, 9.9680805 
7.660636e+2, 2.6632845e+2, -333647.66, -483340.72, -12576.0625, -0.123968475, -0.045752678, -332598.47, -2621.0435, 0.0005836789, 9.984514, 9.9659815 
7.654026e+2, 2.7629486e+2, -257131.64, -393686.13, -12226.372, -0.20196515, -0.010831726, -256045.6, -23739.031, 0.0012544738, 9.982945, 9.966239 
7.64743e+2, 2.862611e+2, -166239.64, -295521.47, -11936.019, -0.21174912, -0.035241593, -165146.88, -30509.256, 0.0024268203, 9.982276, 9.966615 
7.640838e+2, 2.9622748e+2, -71594.336, -197908.84, -10001.657, -0.15794672, -0.070062764, -70807.305, -33839.785, 0.004157825, 9.982032, 9.966751 
7.634252e+2, 3.0619687e+2, -18871.307, -118212.81, -7183.853, -0.30718908, 0.063564055, -18354.496, -18354.496, 0.006306393, 9.981364, 9.969421 
7.6276845e+2, 3.1616452e+2, -10697.691, -78704.2, 16553.256, -0.36072493, -0.11340172, -6882.543, -6882.543, 0.008588478, 9.981641, 9.97223 
7.853221e+2, 1.2738329e+2, -1681299.9, -1703661.1, -5670.372, 0.28320625, 0.010602464, -1679944.3, 11700.626, 0.062321946, 9.980844, 9.97783 
7.84663e+2, 1.3736024e+2, -1554881.6, -1599653.5, -10676.614, 0.29206294, -0.0672887, -1552466.0, 41403.45, 0.04246114, 9.983178, 9.977076 
7.840015e+2, 1.4733614e+2, -1473632.6, -1534001.9, -10547.791, 0.22805457, -0.045258556, -1471842.8, 24262.996, 0.024464376, 9.982939, 9.974888 
7.8333956e+2, 1.5731168e+2, -1387576.6, -1444366.1, -9117.427, 0.13125688, 0.030279297, -1386148.8, 12197.809, 0.011362962, 9.982163, 9.974568 
7.826766e+2, 1.67286e+2, -1281088.9, -1346293.0, -15144.157, 0.12306569, 0.02969564, -1277743.3, 22854.97, 0.0041075577, 9.982778, 9.974239 
7.820135e+2, 1.7725973e+2, -1170366.4, -1249644.1, -17575.564, 0.15662591, -0.013922811, -1166644.6, 36210.36, 0.0011429207, 9.983956, 9.973593 
7.8134966e+2, 1.8723205e+2, -1085554.9, -1184457.5, -17103.3, 0.11242074, -0.0018973524, -1082680.8, 22446.098, 0.0002519489, 9.984187, 9.971323 
7.8068596e+2, 1.9720376e+2, -992578.56, -1088689.8, -17907.342, 0.032391798, 0.034231648, -989350.5, 18054.424, 0.000051009963, 9.983852, 9.97138 
7.8002435e+2, 2.0717515e+2, -898358.0, -992741.8, -12941.566, 0.025080271, 0.03199035, -896615.6, 13069.336, 0.000014624128, 9.983654, 9.971451 
7.7936363e+2, 2.1714634e+2, -801630.2, -900781.8, -16846.14, 0.046122268, 0.010942053, -798846.1, 13120.51, 0.0000078798585, 9.98373, 9.971005 
7.786998e+2, 2.2711617e+2, -712253.6, -825257.8, -28557.342, 0.0037255776, -0.011609013, -705446.9, 8814.696, 0.0000063340635, 9.983638, 9.96945 
7.7803457e+2, 2.370853e+2, -620824.1, -737172.1, -23431.746, -0.060209658, -0.036505193, -616282.44, 281.13248, 0.000007808548, 9.983494, 9.968864 
7.773719e+2, 2.470532e+2, -528114.75, -664339.8, -15752.847, -0.090933554, -0.012870958, -526316.8, -7438.7437, 0.000015587024, 9.984157, 9.966953 
7.767099e+2, 2.5702056e+2, -415210.0, -562921.75, -17431.082, -0.110240646, 0.024909135, -413180.88, 8017.609, 0.000039455597, 9.98531, 9.966707 
7.7604854e+2, 2.6698658e+2, -335165.1, -488957.94, -20012.43, -0.087295055, 0.034240186, -332603.63, -9071.961, 0.000101996346, 9.984657, 9.965432 
7.7538705e+2, 2.76952e+2, -258824.8, -399509.2, -17722.77, -0.055484466, 0.026122777, -256626.52, -30755.842, 0.00024626273, 9.983103, 9.965669 
7.7472585e+2, 2.869178e+2, -164885.17, -295288.97, -11762.066, -0.17222875, -0.00012415237, -163832.77, -35627.523, 0.0005322189, 9.982567, 9.966397 
7.740645e+2, 2.96884e+2, -74691.14, -214148.53, -8800.628, -0.33675, -0.014061753, -74137.95, -43602.06, 0.0010015985, 9.98264, 9.965247 
7.734079e+2, 3.0684882e+2, -46444.69, -193774.31, -14180.708, -0.24389608, 0.07057443, -45092.19, -45092.19, 0.0016288946, 9.982332, 9.963687 
7.727525e+2, 3.1681132e+2, 14089.455, -20182.23, -3840.7559, -0.12615702, -0.120507374, 14514.606, 14514.606, 0.0023268273, 9.981141, 9.976411 
7.9530346e+2, 1.2804256e+2, -1664383.3, -1702501.6, 8680.456, 0.24346477, 0.03614296, -1662499.6, 22687.256, 0.04048696, 9.98237, 9.977199 
7.9464626e+2, 1.380201e+2, -1536239.3, -1590601.4, -1712.3796, 0.2181541, 0.07097561, -1536185.4, 51221.55, 0.027255554, 9.984396, 9.977093 
7.9398483e+2, 1.4799647e+2, -1447879.1, -1502271.5, -9500.229, 0.20837487, 0.030013353, -1446267.6, 43369.977, 0.015450947, 9.983656, 9.976623 
7.933225e+2, 1.5797244e+2, -1372480.9, -1424663.9, -4462.756, 0.19776249, -0.015566845, -1372102.0, 19770.455, 0.0070204185, 9.982479, 9.9756775 
7.926599e+2, 1.679471e+2, -1278927.8, -1351510.6, -2649.2993, 0.15760271, 0.0100417, -1278831.1, 15290.079, 0.00246143, 9.983134, 9.973705 
7.919973e+2, 1.7792107e+2, -1166284.9, -1253732.3, -6598.289, 0.11718709, 0.0441435, -1165789.9, 30586.99, 0.0006538381, 9.984412, 9.973083 
7.913343e+2, 1.878929e+2, -1074153.3, -1182943.8, -8022.2886, 0.09148703, 0.049333133, -1073564.9, 25088.58, 0.00013178353, 9.984989, 9.971003 
7.906713e+2, 1.9786394e+2, -969928.3, -1080538.8, -9112.612, 0.06389102, 0.050035413, -969182.6, 31755.125, 0.00002083433, 9.985337, 9.971151 
7.900088e+2, 2.07835e+2, -888162.8, -992774.3, -7858.1836, 0.047680438, 0.0450322, -887575.8, 15645.13, 0.000003068247, 9.984314, 9.9710245 
7.893468e+2, 2.1780586e+2, -814849.7, -913076.4, -10980.324, 0.041160602, 0.033559214, -813637.2, -8131.4185, 0.0000007626613, 9.982836, 9.970524 
7.886833e+2, 2.277751e+2, -720696.2, -837418.56, -19795.484, 0.0048526423, 0.011719691, -717430.4, -9623.786, 0.0000004905789, 9.98329, 9.9688225 
7.88019e+2, 2.3774368e+2, -606603.94, -736025.3, -20630.762, -0.047376923, -0.014140638, -603394.8, 6719.0127, 0.0000006831063, 9.98459, 9.968534 
7.873566e+2, 2.4771155e+2, -515775.38, -657497.5, -13365.089, -0.08506327, 0.0042035985, -514526.0, -2097.2556, 0.000001662728, 9.984839, 9.967153 
7.866949e+2, 2.57679e+2, -425150.03, -568733.1, -10908.724, -0.11119097, 0.0411356, -424325.97, -9577.635, 0.0000049269224, 9.984515, 9.9666605 
7.8603286e+2, 2.6764503e+2, -342991.06, -492507.25, -14294.392, -0.08948562, 0.056962665, -341636.75, -24555.082, 0.000014655714, 9.98393, 9.965392 
7.8537035e+2, 2.7761033e+2, -253453.5, -398404.94, -8347.078, -0.045710735, 0.049851466, -252974.42, -33552.77, 0.000040518134, 9.983399, 9.965419 
7.847088e+2, 2.8757563e+2, -152507.63, -292171.1, -2202.7756, -0.1768604, 0.007939288, -152472.89, -30711.557, 0.000098284756, 9.983508, 9.965987 
7.840468e+2, 2.975412e+2, -73216.67, -225359.0, -1959.2039, -0.3857537, -0.013261146, -73191.445, -49093.79, 0.00020114292, 9.983199, 9.964052 
7.833899e+2, 3.0750427e+2, -95783.57, -242608.45, 5275.507, -0.16492875, 0.10644399, -95594.266, -95594.266, 0.00034538982, 9.979752, 9.961059 
7.827298e+2, 3.1746447e+2, 18416.598, 96972.38, 8923.026, -0.26573002, -0.17259003, 97973.18, 97973.18, 0.00051049626, 9.97561, 9.986091 
8.0528647e+2, 1.2870264e+2, -1645048.3, -1690596.3, 9713.526, 0.25308532, 0.059108954, -1643063.3, 35657.098, 0.024554512, 9.98369, 9.977396 
8.046296e+2, 1.3868068e+2, -1553463.0, -1595790.3, 1221.4014, 0.19403717, 0.13029902, -1553427.9, 27508.082, 0.016354568, 9.983068, 9.9773 
8.0396783e+2, 1.4865747e+2, -1453790.6, -1497400.0, -14961.705, 0.19607107, 0.08045917, -1449151.1, 34011.457, 0.009139995, 9.982889, 9.97734 
8.0330545e+2, 1.586338e+2, -1360164.3, -1413582.4, -15442.782, 0.2206757, -0.0060251183, -1356021.3, 29372.146, 0.0040751924, 9.983132, 9.97628 
8.026433e+2, 1.6860874e+2, -1269450.0, -1348202.1, -6752.2446, 0.16919044, 0.025593854, -1268875.3, 18764.158, 0.0013936984, 9.98394, 9.973721 
8.019816e+2, 1.7858297e+2, -1162241.1, -1253916.0, -7913.348, 0.09339884, 0.09071207, -1161563.0, 28330.027, 0.00035817633, 9.984861, 9.972949 
8.0131924e+2, 1.8855461e+2, -1070110.6, -1181957.0, -8521.384, 0.08087882, 0.0870984, -1069465.1, 22706.271, 0.0000688692, 9.98536, 9.970933 
8.006569e+2, 1.9852532e+2, -964896.9, -1078996.9, -10174.805, 0.08775441, 0.062375832, -963996.7, 30462.076, 0.000009974743, 9.985736, 9.971062 
7.999934e+2, 2.084962e+2, -874632.5, -989837.94, -12616.063, 0.058146793, 0.060262106, -873267.1, 23476.602, 0.000001123839, 9.985336, 9.970673 
7.9932976e+2, 2.1846679e+2, -792610.7, -909004.4, -12726.832, 0.017888278, 0.06184178, -791235.3, 7796.046, 0.00000012102512, 9.98464, 9.969883 
7.9866695e+2, 2.2843516e+2, -703931.0, -840642.2, -13982.022, 0.0014576918, 0.049660385, -702515.6, -1175.0471, 0.000000033332217, 9.9850645, 9.967742 
7.9800415e+2, 2.3840278e+2, -594237.9, -736073.6, -15658.667, -0.013082542, 0.029686164, -592529.75, 11127.85, 0.000000047938972, 9.985815, 9.967914 
7.9734194e+2, 2.4837053e+2, -503720.3, -644304.4, -14130.56, -0.052876137, 0.020475322, -502314.06, 3659.3567, 0.00000014453506, 9.985405, 9.967721 
7.9667956e+2, 2.583381e+2, -420122.5, -561251.94, -13422.684, -0.09816577, 0.019494751, -418857.22, -10566.288, 0.0000005154626, 9.984706, 9.9670315 
7.9601634e+2, 2.6830444e+2, -339650.53, -487874.2, -17511.52, -0.1344494, 0.04638385, -337609.78, -26989.059, 0.0000018294777, 9.984115, 9.965549 
7.953527e+2, 2.7827013e+2, -253104.16, -399078.78, -8903.648, -0.15984102, 0.06416994, -252563.08, -39605.934, 0.0000058794235, 9.9835825, 9.965227 
7.946922e+2, 2.882344e+2, -155868.1, -301127.9, -2270.7249, -0.20298178, -0.01662612, -155832.61, -40525.83, 0.00001585748, 9.983744, 9.965191 
7.9403144e+2, 2.981989e+2, -68843.07, -221362.81, -8051.955, -0.26937166, -0.074319825, -68419.164, -50764.848, 0.000034645294, 9.9834585, 9.964069 
7.933697e+2, 3.0816537e+2, -79322.94, -197216.22, -12395.816, -0.115571365, 0.1964165, -78033.68, -78033.68, 0.000061780345, 9.979075, 9.964155 
7.9270375e+2, 3.181283e+2, -23601.637, 39265.043, 5044.1924, -0.32196298, -0.049342606, 39667.2, 39667.2, 0.00009331262, 9.974323, 9.982495 
8.152713e+2, 1.2936303e+2, -1623182.4, -1667747.8, 14484.013, 0.30857512, 0.06387751, -1618888.8, 53360.957, 0.013656359, 9.98446, 9.978472 
8.146133e+2, 1.3934137e+2, -1542777.1, -1587338.6, 6173.8413, 0.22745334, 0.07278052, -1541937.5, 32524.71, 0.00901513, 9.983457, 9.9775715 
8.139507e+2, 1.4931843e+2, -1453401.0, -1506977.8, -5721.917, 0.17800638, 0.10211637, -1452796.6, 23891.045, 0.0049783196, 9.983188, 9.976496 
8.132882e+2, 1.5929502e+2, -1353181.8, -1412470.1, -6332.2505, 0.15528448, 0.113888085, -1352513.0, 26404.38, 0.0021846793, 9.983579, 9.976123 
8.126275e+2, 1.6927001e+2, -1255232.5, -1331230.8, 4009.687, 0.15770441, 0.088867545, -1255021.6, 26140.908, 0.0007317571, 9.984349, 9.974671 
8.1196713e+2, 1.792443e+2, -1151731.0, -1241231.4, 2985.9763, 0.1452668, 0.072148934, -1151631.5, 31782.912, 0.00018305307, 9.985101, 9.973661 
8.113048e+2, 1.8921666e+2, -1061879.9, -1172316.8, 3298.5786, 0.086138085, 0.08373736, -1061781.4, 23904.027, 0.00003398987, 9.985519, 9.971452 
8.1064236e+2, 1.991882e+2, -956642.0, -1070526.5, 2416.1033, 0.034286633, 0.092967525, -956590.75, 31373.799, 0.000004694791, 9.98593, 9.971454 
8.0997926e+2, 2.091592e+2, -858142.44, -982173.25, 756.96533, 0.034280196, 0.0908202, -858137.8, 32111.006, 0.00000048597997, 9.986295, 9.970617 
8.0931616e+2, 2.1912958e+2, -761306.94, -897312.2, 2591.0928, 0.035100967, 0.087847345, -761257.6, 31281.33, 0.000000038921392, 9.986761, 9.969526 
8.086538e+2, 2.2909762e+2, -672412.94, -830700.06, 4102.8345, 0.013472188, 0.09265659, -672306.7, 22545.29, 0.0000000034920689, 9.987306, 9.967181 
8.079912e+2, 2.3906487e+2, -568876.8, -728651.6, 1478.6722, -0.011139581, 0.093523785, -568863.1, 28309.668, 0.0000000029209066, 9.987562, 9.967363 
8.073278e+2, 2.4903199e+2, -493521.2, -644611.7, -5096.4756, -0.053964134, 0.078831404, -493349.5, 6145.159, 0.000000011628437, 9.986083, 9.967147 
8.066641e+2, 2.5899893e+2, -423589.06, -565135.8, -6740.513, -0.102162704, 0.06318299, -423268.8, -21450.703, 0.000000055090577, 9.984368, 9.966797 
8.060004e+2, 2.6896527e+2, -332156.75, -480001.44, -9184.869, -0.1484001, 0.07556785, -331588.34, -27440.799, 0.0000002469547, 9.984317, 9.96588 
8.053364e+2, 2.7893105e+2, -238816.8, -393062.8, -970.6769, -0.19021262, 0.083203115, -238810.69, -32328.375, 0.00000092541427, 9.9844675, 9.965103 
8.0467534e+2, 2.888948e+2, -174601.48, -318217.22, 1808.8434, -0.20647731, 0.004531847, -174578.7, -65741.15, 0.0000027234903, 9.982626, 9.964414 
8.0401385e+2, 2.9885888e+2, -105986.01, -229564.05, -7066.13, -0.2171824, -0.044895098, -105583.28, -94393.66, 0.000006234104, 9.980283, 9.964852 
8.0334884e+2, 3.0882826e+2, -45165.723, -137045.95, -12739.026, -0.09911299, 0.24436092, -43432.188, -43432.188, 0.0000113953865, 9.97926, 9.96783 
8.0267936e+2, 3.187942e+2, -19835.996, -35799.566, 14687.682, -0.31403607, 0.10951261, -11101.416, -11101.416, 0.000017440003, 9.977673, 9.975402 
8.252557e+2, 1.3002333e+2, -1622355.8, -1658249.4, -61.527565, 0.33644938, 0.09413092, -1622355.6, 43425.977, 0.006829297, 9.984132, 9.979441 
8.2459664e+2, 1.4000203e+2, -1534620.4, -1578680.8, -9437.794, 0.2128739, 0.052266728, -1532683.9, 35305.95, 0.0044781193, 9.983836, 9.97816 
8.239342e+2, 1.4997971e+2, -1435145.1, -1497663.1, -9845.43, 0.15733713, 0.11498401, -1433631.3, 36578.527, 0.0024504783, 9.984489, 9.976624 
8.232722e+2, 1.5995689e+2, -1325389.1, -1396697.0, -4764.7505, 0.12743415, 0.17854461, -1325072.1, 47362.336, 0.0010623109, 9.985451, 9.976301 
8.2261217e+2, 1.6993214e+2, -1235449.1, -1315080.0, 2578.7024, 0.15502979, 0.13395399, -1235365.8, 39310.984, 0.00035011073, 9.985474, 9.975289 
8.219527e+2, 1.7990668e+2, -1142612.0, -1229448.9, -2020.451, 0.17481892, 0.07623742, -1142565.0, 34360.594, 0.00008574844, 9.985455, 9.974404 
8.212904e+2, 1.8987991e+2, -1052975.9, -1159049.4, 490.9821, 0.08241295, 0.091471426, -1052973.6, 26214.03, 0.00001549313, 9.985791, 9.972309 
8.2062787e+2, 1.998524e+2, -950551.5, -1063144.6, 826.5899, -0.0120414775, 0.119001806, -950545.44, 30911.926, 0.00000206642, 9.986198, 9.971881 
8.199655e+2, 2.0982352e+2, -856307.4, -982486.25, -2366.8154, 0.015518837, 0.120797284, -856263.0, 27478.04, 0.00000020419282, 9.9865265, 9.970568 
8.1930315e+2, 2.1979381e+2, -761767.7, -900076.94, -960.5308, 0.0541677, 0.11731984, -761761.0, 24271.61, 0.000000015033491, 9.986905, 9.969372 
8.186411e+2, 2.2976185e+2, -676801.7, -834551.75, 3147.4246, 0.02167424, 0.13842249, -676738.94, 11606.982, 0.00000000086274315, 9.987151, 9.96703 
8.179786e+2, 2.3972906e+2, -577954.7, -738185.8, -532.89996, -0.023960155, 0.15997268, -577952.94, 12714.516, 0.00000000030032543, 9.987175, 9.966855 
8.1731373e+2, 2.4969542e+2, -497550.25, -657173.94, -11194.956, -0.068845935, 0.15321897, -496768.94, -3771.9443, 0.000000002545115, 9.986217, 9.966113 
8.166484e+2, 2.5966147e+2, -418333.47, -567084.56, -8351.999, -0.1134801, 0.13942811, -417866.0, -22536.549, 0.000000018852985, 9.984952, 9.966296 
8.1598496e+2, 2.696276e+2, -326150.47, -472804.0, -7598.2104, -0.13609256, 0.1271296, -325757.84, -28097.182, 0.00000010625368, 9.98467, 9.966141 
8.1532127e+2, 2.7959326e+2, -240815.94, -396246.22, -3442.3816, -0.15577675, 0.11154578, -240739.75, -40743.227, 0.00000044416996, 9.984494, 9.964793 
8.14658e+2, 2.8955683e+2, -181632.97, -329971.16, -8959.016, -0.20494896, 0.08888734, -181093.84, -78740.07, 0.0000013766249, 9.982467, 9.963544 
8.139936e+2, 2.9952115e+2, -95368.95, -202815.1, -13022.08, -0.25816205, 0.08868982, -93813.25, -89109.47, 0.000003231144, 9.9801035, 9.966644 
8.1332815e+2, 3.0949244e+2, -3839.6704, -61451.06, -10747.329, -0.13708983, 0.1651587, -1900.0707, -1900.0707, 0.00000598463, 9.9798565, 9.972602 
8.126574e+2, 3.1946155e+2, -53224.84, -122875.97, -7673.2246, -0.3501864, 0.12992184, -52389.527, -52389.527, 0.000009216728, 9.978101, 9.968941 
8.3524e+2, 1.3068333e+2, -1613015.9, -1647671.1, 8590.905, 0.32989848, 0.14995578, -1611003.1, 48314.38, 0.0030089617, 9.984355, 9.979927 
8.3458e+2, 1.4066231e+2, -1522994.9, -1562747.1, -333.4852, 0.1448944, 0.07903119, -1522992.1, 38530.13, 0.0019641386, 9.984048, 9.979038 
8.3391887e+2, 1.5064082e+2, -1419223.8, -1474338.5, 4654.083, 0.14752975, 0.10004962, -1418833.5, 44899.625, 0.0010681495, 9.984811, 9.97801 
8.3325857e+2, 1.6061886e+2, -1315155.3, -1387217.3, 7421.431, 0.17013724, 0.13688509, -1314398.9, 51550.117, 0.00045917454, 9.985812, 9.97669 
8.3259785e+2, 1.7059462e+2, -1233082.3, -1318179.6, 11401.584, 0.14651327, 0.1675709, -1231581.1, 36605.914, 0.00014963388, 9.985623, 9.974926 
8.319376e+2, 1.8056972e+2, -1136469.4, -1219650.8, 6582.164, 0.11845259, 0.17425437, -1135951.8, 34479.645, 0.00003610315, 9.985389, 9.975049 
8.312761e+2, 1.9054368e+2, -1041117.06, -1136545.1, 11843.549, 0.08055235, 0.13072729, -1039669.1, 33016.332, 0.0000063962675, 9.985704, 9.97384 
8.3061457e+2, 2.0051676e+2, -948619.3, -1061282.5, 12076.102, 0.038146704, 0.10461062, -947339.44, 27609.234, 0.00000083170164, 9.986103, 9.971996 
8.2995194e+2, 2.1048751e+2, -863182.8, -997710.5, 6645.295, 0.019555463, 0.14688775, -862855.3, 14381.172, 0.000000079560635, 9.986384, 9.969583 
8.2928956e+2, 2.2045755e+2, -760917.2, -896613.2, 5622.6235, 0.012520513, 0.17890447, -760684.56, 18846.674, 0.0000000056202727, 9.986633, 9.969748 
8.286276e+2, 2.3042643e+2, -675430.1, -817427.75, 11906.205, 0.0025327306, 0.15839021, -674438.7, 7396.5845, 0.0000000003286938, 9.986321, 9.968514 
8.2796514e+2, 2.4039443e+2, -588151.2, -737564.44, 14229.256, -0.015938587, 0.14285022, -586808.1, -2659.8723, 0.00000000051975496, 9.986048, 9.967285 
8.2730055e+2, 2.5036064e+2, -485889.7, -655750.3, 6858.7754, -0.05424409, 0.14762403, -485613.2, 866.39374, 0.000000005648476, 9.987037, 9.965607 
8.266351e+2, 2.6032642e+2, -374992.28, -547090.7, 9686.49, -0.09625338, 0.15122761, -374448.78, 14366.571, 0.000000045061856, 9.987753, 9.966038 
8.2597035e+2, 2.702925e+2, -304998.56, -461930.88, 6364.5225, -0.13282083, 0.14841194, -304740.88, -13593.313, 0.00000026154024, 9.985851, 9.966005 
8.253052e+2, 2.802581e+2, -250991.81, -400959.7, 9367.493, -0.1584156, 0.14328529, -250408.95, -56924.547, 0.0000011069018, 9.983539, 9.964626 
8.2464004e+2, 2.9022193e+2, -189896.8, -333199.22, 6218.5723, -0.19492914, 0.16388626, -189627.45, -93788.38, 0.00000344937, 9.98158, 9.963305 
8.2397354e+2, 3.001865e+2, -88848.36, -184409.06, 7943.5938, -0.2492927, 0.18031688, -88192.54, -88192.54, 0.000008116219, 9.979677, 9.967684 
8.2330734e+2, 3.1015778e+2, 5038.9736, -33050.86, -7161.8477, -0.18025917, 0.06718919, 6341.0693, 6341.0693, 0.00001505711, 9.979317, 9.974799 
8.226361e+2, 3.2012904e+2, -56720.61, -191073.44, -30761.424, -0.35265058, 0.24126925, -50012.41, -50012.41, 0.000023207638, 9.980337, 9.963264 
8.4522474e+2, 1.313464e+2, -1591959.8, -1645691.0, 18446.828, 0.29485175, 0.19963378, -1586236.4, 66586.88, 0.0011421927, 9.986172, 9.978909 
8.445643e+2, 1.4132498e+2, -1508470.3, -1553895.9, 1490.1842, 0.1385499, 0.15284833, -1508421.4, 46610.74, 0.0007435361, 9.984994, 9.979067 
8.4390354e+2, 1.5130363e+2, -1419486.0, -1465532.1, 4883.687, 0.15325566, 0.12978984, -1418973.8, 38266.973, 0.00040280866, 9.984481, 9.978816 
8.4324396e+2, 1.6128199e+2, -1330719.1, -1391320.4, 3164.7588, 0.1856645, 0.13010219, -1330554.4, 28898.18, 0.00017225166, 9.984659, 9.977066 
8.425832e+2, 1.7125826e+2, -1235865.3, -1318840.0, 10404.818, 0.13184088, 0.19465886, -1234580.4, 27105.705, 0.00005573453, 9.985428, 9.975003 
8.419227e+2, 1.8123396e+2, -1123990.8, -1205286.9, 7841.9316, 0.07731199, 0.23773785, -1123241.3, 40683.625, 0.000013319515, 9.9859, 9.975753 
8.412619e+2, 1.9120872e+2, -1032863.7, -1118757.0, 10252.972, 0.0849575, 0.16232571, -1031656.75, 34514.008, 0.00000232996, 9.985705, 9.9751005 
8.406011e+2, 2.0118235e+2, -954177.25, -1064616.5, 8673.763, 0.08418645, 0.10498418, -953500.2, 14927.929, 0.00000029792903, 9.985792, 9.972011 
8.399384e+2, 2.1115284e+2, -865088.06, -1007168.75, 9326.968, 0.018873956, 0.1791889, -864478.44, 6240.6704, 0.000000027884646, 9.986673, 9.968788 
8.3927584e+2, 2.2112273e+2, -746550.3, -881264.1, 10699.076, -0.03536514, 0.23515083, -745705.9, 27309.62, 0.0000000019195512, 9.987276, 9.970388 
8.3861375e+2, 2.3109256e+2, -654584.56, -787644.6, 11560.679, -0.017351218, 0.16328792, -653587.56, 21721.33, 0.00000000019847049, 9.986902, 9.970204 
8.379514e+2, 2.4106143e+2, -577679.0, -725949.4, 14886.757, -0.002993883, 0.09975146, -576199.06, 1413.1609, 0.000000001540425, 9.986558, 9.967845 
8.372879e+2, 2.510277e+2, -488308.47, -658237.2, 10842.329, -0.030330015, 0.11294394, -487619.47, -7676.1235, 0.000000016923275, 9.987063, 9.965426 
8.3662313e+2, 2.6099348e+2, -381135.8, -550263.56, 7653.6577, -0.07188217, 0.13183124, -380790.16, 1489.457, 0.00000013514581, 9.987363, 9.965939 
8.35956e+2, 2.7095962e+2, -307425.2, -464968.34, -2576.7583, -0.14266148, 0.15338585, -307383.03, -22771.2, 0.00000078455156, 9.985692, 9.965744 
8.3528847e+2, 2.809254e+2, -248073.83, -394522.28, 2201.1694, -0.19188274, 0.17676167, -248040.75, -61093.06, 0.000003320249, 9.983493, 9.964966 
8.3462185e+2, 2.9089025e+2, -183820.25, -318666.38, -977.2674, -0.1715538, 0.22191803, -183813.17, -94521.47, 0.000010345664, 9.981488, 9.964195 
8.339539e+2, 3.0085522e+2, -93113.336, -195046.73, 4916.895, -0.18813044, 0.2261253, -92876.71, -92876.71, 0.000024336772, 9.9798, 9.96679 
8.3328617e+2, 3.108226e+2, -17231.193, -78441.734, -12461.777, -0.21937194, -0.019366696, -14791.366, -14791.366, 0.000045134642, 9.979373, 9.97164 
8.3261824e+2, 3.207917e+2, -16376.858, -148406.98, 4329.543, -0.331413, 0.16156602, -16235.035, -16235.035, 0.0000695768, 9.982948, 9.965269 
8.5521054e+2, 1.3201202e+2, -1607238.3, -1674457.6, 22735.354, 0.25913393, 0.25681823, -1600270.8, 46033.53, 0.00036341642, 9.985881, 9.976969 
8.5455e+2, 1.4198983e+2, -1515705.5, -1564831.1, 6679.129, 0.20682341, 0.28424516, -1514813.6, 33708.336, 0.00023620963, 9.984632, 9.978361 
8.53888e+2, 1.519679e+2, -1423918.4, -1469048.5, 13508.726, 0.16460009, 0.22636998, -1420183.9, 30551.43, 0.00012768328, 9.984067, 9.978687 
8.53228e+2, 1.6194586e+2, -1331775.3, -1384732.8, 14565.973, 0.14915054, 0.17929706, -1328033.3, 24916.662, 0.000054433065, 9.984156, 9.977698 
8.5256845e+2, 1.719225e+2, -1229968.8, -1302732.5, 25154.664, 0.12740031, 0.17438586, -1222119.4, 33059.184, 0.00001753889, 9.985151, 9.976178 
8.5190886e+2, 1.8189879e+2, -1120965.6, -1199570.3, 19017.936, 0.09594256, 0.18395096, -1116606.1, 40804.883, 0.000004167791, 9.985729, 9.976113 
8.5124725e+2, 1.918744e+2, -1037696.8, -1122284.0, 18396.236, 0.07729678, 0.19656773, -1033869.1, 25780.61, 0.00000072355056, 9.985208, 9.9750185 
8.505863e+2, 2.0184883e+2, -953270.3, -1053084.4, 20550.525, 0.062573, 0.19624177, -949204.8, 12695.25, 0.00000009158835, 9.985231, 9.9730425 
8.499253e+2, 2.118203e+2, -849870.4, -979218.6, 29230.674, 0.030666504, 0.20166813, -843571.44, 20608.52, 0.000000008458324, 9.98671, 9.970572 
8.4926385e+2, 2.2179104e+2, -731070.3, -866477.2, 31631.088, -0.005584333, 0.20788857, -724045.7, 42421.09, 0.00000000058265287, 9.987829, 9.970907 
8.486012e+2, 2.317612e+2, -640639.2, -782485.56, 25544.568, -0.02526046, 0.1761128, -636179.2, 32578.945, 0.00000000027731314, 9.987694, 9.970002 
8.479381e+2, 2.4173042e+2, -559979.94, -712116.6, 24700.205, -0.039458364, 0.14728849, -556070.25, 14988.502, 0.0000000037693555, 9.987303, 9.968333 
8.472742e+2, 2.5169754e+2, -489226.22, -648866.5, 23271.107, -0.064379595, 0.16324516, -485903.1, -12521.145, 0.000000041425324, 9.98634, 9.966252 
8.466092e+2, 2.6166385e+2, -400902.84, -558299.3, 24417.08, -0.0978941, 0.18027754, -397202.0, -21489.146, 0.00000033075656, 9.985728, 9.965968 
8.4594196e+2, 2.716295e+2, -294322.94, -463237.7, 12078.179, -0.15789376, 0.19465135, -293463.66, -15414.33, 0.0000019196298, 9.98657, 9.965223 
8.452735e+2, 2.8159475e+2, -197027.88, -370533.5, 10590.488, -0.19372399, 0.20603506, -196383.84, -15993.68, 0.000008122085, 9.986719, 9.964851 
8.446048e+2, 2.915594e+2, -136514.53, -293940.53, -1841.6664, -0.14959618, 0.21527985, -136493.0, -53756.74, 0.00002530673, 9.984301, 9.964407 
8.43935e+2, 3.015243e+2, -62204.21, -190165.38, 6646.2104, -0.16017528, 0.21270944, -61859.94, -61859.94, 0.00005952907, 9.982087, 9.965989 
8.432659e+2, 3.114904e+2, -3856.8726, -97044.125, -1496.3016, -0.25510767, 0.017647086, -3832.8528, -3832.8528, 0.00011036813, 9.981123, 9.969351 
8.426006e+2, 3.214581e+2, -49337.965, -122394.64, 47034.07, -0.2890802, 0.15323356, -26313.607, -26313.607, 0.00017012685, 9.979094, 9.968864 
8.6519754e+2, 1.3267717e+2, -1565657.4, -1661824.1, 5800.7983, 0.22227833, 0.2711297, -1565308.8, 74478.71, 0.00009383463, 9.988946, 9.976338 
8.6453545e+2, 1.4265469e+2, -1494815.4, -1554156.5, 2281.3892, 0.23747788, 0.3098489, -1494727.8, 47281.316, 0.00006094004, 9.986029, 9.97835 
8.63873e+2, 1.526331e+2, -1393252.3, -1452751.3, 15521.702, 0.17918448, 0.27603796, -1389446.5, 54772.87, 0.00003290037, 9.986131, 9.978756 
8.6321276e+2, 1.6261125e+2, -1301170.6, -1363381.3, 16576.816, 0.14390956, 0.22811222, -1297029.3, 49402.875, 0.000014001087, 9.985995, 9.97822 
8.6255354e+2, 1.7258826e+2, -1227288.5, -1291026.4, 24763.639, 0.13162221, 0.17686798, -1218798.3, 29858.31, 0.0000045003767, 9.9849205, 9.977126 
8.6189425e+2, 1.8256508e+2, -1136318.3, -1203713.6, 15180.615, 0.10752635, 0.16340521, -1133056.8, 17826.484, 0.0000010659371, 9.9845495, 9.976458 
8.6123234e+2, 1.925414e+2, -1033919.7, -1120221.6, 17190.043, 0.06547934, 0.2394285, -1030621.7, 22494.023, 0.00000018424288, 9.98546, 9.975052 
8.605715e+2, 2.0251665e+2, -931308.9, -1027527.0, 24166.438, 0.038806632, 0.27569693, -925580.25, 29778.322, 0.000000023185766, 9.986157, 9.974361 
8.599121e+2, 2.1248935e+2, -838914.9, -950191.44, 31298.912, 0.044551093, 0.20786995, -830715.56, 26909.246, 0.0000000021246724, 9.986535, 9.972719 
8.5925186e+2, 2.2246122e+2, -741138.6, -867237.4, 28710.973, 0.029302023, 0.16965598, -734909.25, 24990.436, 0.00000000016612903, 9.986998, 9.971332 
8.585887e+2, 2.3243171e+2, -648128.0, -791402.4, 24161.277, -0.03587022, 0.2003455, -644163.25, 18025.854, 0.00000000051179117, 9.987422, 9.969524 
8.5792494e+2, 2.4240138e+2, -553489.56, -701129.9, 23355.56, -0.09235832, 0.22659004, -549883.0, 14603.72, 0.000000007637945, 9.987392, 9.968987 
8.572599e+2, 2.523697e+2, -476820.6, -628572.2, 18953.355, -0.12250174, 0.24786545, -474489.2, -7690.756, 0.000000083945466, 9.9865465, 9.96748 
8.5659456e+2, 2.6233676e+2, -397286.25, -556463.94, 25693.51, -0.1496133, 0.26118794, -393241.72, -24120.094, 0.0000006702643, 9.986067, 9.965928 
8.559285e+2, 2.723017e+2, -298070.22, -471854.66, 15368.27, -0.17253444, 0.25671872, -296721.63, -25257.223, 0.000003889783, 9.986749, 9.964534 
8.5526043e+2, 2.8226566e+2, -203314.2, -381651.56, 5271.5605, -0.1756835, 0.22167063, -203158.52, -29341.693, 0.000016460805, 9.986632, 9.964034 
8.545893e+2, 2.9222834e+2, -143057.98, -306867.8, -12373.929, -0.1372675, 0.120151676, -142128.55, -65945.72, 0.000051319832, 9.984207, 9.963439 
8.539172e+2, 3.0219278e+2, -60098.938, -192486.39, 702.23285, -0.1764133, 0.14035113, -60095.215, -60095.215, 0.000120814846, 9.982412, 9.965625 
8.5324705e+2, 3.1216246e+2, -312.314, -100280.19, -6394.486, -0.28911185, 0.34488815, 95.05188, 95.05188, 0.00022411745, 9.981636, 9.968809 
8.525774e+2, 3.2212728e+2, -68392.1, -103140.664, -5087.1094, -0.29095843, 0.17253774, -67662.67, -67662.67, 0.00034556063, 9.975853, 9.971199 
8.751855e+2, 1.3334176e+2, -1576173.1, -1661333.4, -1163.9404, 0.17473651, 0.22130957, -1576157.3, 57116.688, 0.000019043677, 9.987643, 9.976784 
8.745212e+2, 1.433194e+2, -1497236.8, -1547540.3, 8490.506, 0.22811764, 0.21364078, -1495842.3, 39652.586, 0.000012362725, 9.985393, 9.9789915 
8.738596e+2, 1.5329918e+2, -1392536.9, -1447467.0, 26960.447, 0.21516787, 0.269933, -1381515.6, 56177.684, 0.0000066696857, 9.985883, 9.979171 
8.7319934e+2, 1.6327828e+2, -1301979.4, -1362544.4, 21075.62, 0.19808736, 0.29119924, -1295367.4, 44530.703, 0.000002835376, 9.98568, 9.978296 
8.725381e+2, 1.7325558e+2, -1235319.9, -1293248.1, 27721.992, 0.14115423, 0.2606003, -1224191.3, 17928.75, 0.0000009100635, 9.984061, 9.97727 
8.7187797e+2, 1.832327e+2, -1144239.5, -1200161.5, 26643.48, 0.090460755, 0.24285457, -1133578.1, 10765.684, 0.00000021513608, 9.983593, 9.97713 
8.712178e+2, 1.932093e+2, -1029330.56, -1108207.9, 33226.66, 0.06178923, 0.26204544, -1017199.7, 29373.06, 0.000000037089958, 9.985293, 9.975921 
8.705579e+2, 2.0318496e+2, -922116.75, -1014147.56, 34945.58, 0.037331775, 0.2604796, -910351.44, 38459.215, 0.0000000046516857, 9.986222, 9.975147 
8.698978e+2, 2.1315864e+2, -844076.3, -942407.94, 37917.223, 0.017619384, 0.20067462, -831153.56, 19913.848, 0.0000000004243601, 9.98552, 9.9736805 
8.6923754e+2, 2.231317e+2, -752771.9, -858936.7, 38947.742, 0.0042411913, 0.17350155, -740016.1, 13314.421, 0.000000000071721434, 9.985449, 9.972644 
8.6857593e+2, 2.3310368e+2, -646296.0, -775620.7, 40977.145, -0.010203447, 0.21727149, -634405.44, 21200.398, 0.0000000009082265, 9.986757, 9.970837 
8.679129e+2, 2.4307437e+2, -542819.9, -689590.7, 40548.05, -0.04454231, 0.2504261, -532362.8, 25531.05, 0.000000013717135, 9.987613, 9.969496 
8.6724734e+2, 2.5304294e+2, -454082.84, -613103.56, 31525.496, -0.10119176, 0.25970435, -448061.0, 12141.583, 0.00000015076724, 9.987631, 9.967874 
8.665815e+2, 2.6301044e+2, -367063.78, -535862.2, 39802.69, -0.14596617, 0.2654657, -358149.13, 4372.2383, 0.0000012040975, 9.987626, 9.966491 
8.659155e+2, 2.729758e+2, -284705.9, -460943.97, 33869.895, -0.16877423, 0.25977507, -278420.84, -13561.014, 0.000006992764, 9.987209, 9.964861 
8.652468e+2, 2.8293982e+2, -206047.34, -383528.2, 22937.5, -0.16735926, 0.22006695, -203130.84, -35919.035, 0.000029645516, 9.986097, 9.963803 
8.645734e+2, 2.9290184e+2, -140569.88, -310248.44, 6975.342, -0.1378888, 0.10538769, -140283.61, -70698.94, 0.00009271142, 9.984194, 9.962762 
8.6389923e+2, 3.028663e+2, -58338.484, -186964.23, 25143.477, -0.19117443, 0.16643412, -53598.19, -53598.19, 0.00021904535, 9.981984, 9.965722 
8.632274e+2, 3.128379e+2, -37395.79, -118776.664, 21317.389, -0.30130923, 0.56984437, -32149.936, -32149.936, 0.0004076256, 9.978742, 9.96838 
8.625533e+2, 3.227993e+2, -40086.383, -64156.824, -12106.022, -0.26669806, 0.022006106, -35051.09, -35051.09, 0.00062983576, 9.975752, 9.973059 
8.8517225e+2, 1.3400747e+2, -1590704.1, -1661287.4, -13399.851, 0.17108417, 0.23548555, -1588245.9, 38506.16, 0.000002958578, 9.986252, 9.977434 
8.8450664e+2, 1.4398554e+2, -1486607.9, -1534498.6, 4735.6646, 0.22521065, 0.19575503, -1486144.1, 42824.12, 0.0000019202917, 9.985809, 9.979709 
8.838452e+2, 1.5396608e+2, -1392831.0, -1442393.8, 25663.879, 0.20887996, 0.2737283, -1381936.8, 49222.586, 0.0000010355539, 9.985679, 9.979675 
8.831849e+2, 1.6394585e+2, -1300290.1, -1358641.0, 15805.534, 0.20081045, 0.3226334, -1296283.9, 37074.1, 0.0000004399312, 9.985618, 9.97859 
8.825227e+2, 1.7392373e+2, -1210124.8, -1276929.3, 24370.293, 0.14484376, 0.31569284, -1202179.4, 33395.246, 0.00000014107277, 9.985545, 9.977624 
8.818622e+2, 1.839013e+2, -1112334.4, -1177743.3, 30797.889, 0.087276325, 0.29877007, -1100115.6, 37678.48, 0.00000003330806, 9.985543, 9.977731 
8.8120323e+2, 1.9387819e+2, -1016619.94, -1092801.5, 36650.93, 0.061355468, 0.2702695, -1001850.56, 38169.19, 0.0000000057331504, 9.985861, 9.976775 
8.80544e+2, 2.0385441e+2, -919342.5, -1004105.3, 31062.004, 0.033400882, 0.24183793, -909178.4, 33073.266, 0.00000000071752804, 9.986021, 9.975965 
8.7988305e+2, 2.1382917e+2, -833165.2, -927120.75, 34485.44, -0.012228828, 0.20485607, -821866.44, 22631.266, 0.00000000006547386, 9.985803, 9.974586 
8.792228e+2, 2.2380361e+2, -737711.8, -834120.25, 41354.9, -0.022379572, 0.19538908, -722403.25, 24344.725, 0.0000000000751049, 9.985795, 9.974219 
8.7856305e+2, 2.3377734e+2, -641264.9, -752721.7, 42306.79, 0.02833731, 0.23513895, -627025.3, 21981.027, 0.0000000014740116, 9.986317, 9.972703 
8.779012e+2, 2.4374914e+2, -550248.2, -687945.94, 38710.668, 0.027874092, 0.25408274, -540111.75, 11171.472, 0.000000022289091, 9.986911, 9.970003 
8.772354e+2, 2.5371772e+2, -456252.0, -612082.56, 31712.842, -0.052886486, 0.23740336, -450045.38, 3545.6008, 0.00000024496487, 9.987422, 9.968021 
8.765694e+2, 2.6368558e+2, -360526.7, -520408.44, 41309.598, -0.11833775, 0.22705726, -350484.1, 5421.539, 0.0000019576619, 9.987582, 9.96752 
8.7590283e+2, 2.7365205e+2, -278796.5, -445855.13, 32445.361, -0.15679581, 0.22320034, -272716.4, -14482.258, 0.000011400731, 9.987117, 9.965863 
8.752329e+2, 2.8361723e+2, -204382.36, -378235.1, 16359.403, -0.1714512, 0.21916635, -202856.34, -42280.86, 0.000048632028, 9.986001, 9.964086 
8.745574e+2, 2.9358017e+2, -141555.36, -310916.3, 474.13986, -0.15934926, 0.20742291, -141554.03, -78614.49, 0.00015357247, 9.984112, 9.962638 
8.73881e+2, 3.0354497e+2, -51722.22, -170025.02, 12763.568, -0.20674884, 0.2842823, -50360.836, -50360.836, 0.00036699965, 9.981729, 9.966831 
8.732058e+2, 3.1351578e+2, -44666.395, -114251.21, 8498.516, -0.2572449, 0.49452713, -43643.492, -43643.492, 0.00068988913, 9.977716, 9.968969 
8.7253e+2, 3.234794e+2, -24777.568, -42010.7, 2027.9772, -0.205304, 0.06932823, -24542.135, -24542.135, 0.001073521, 9.976318, 9.974314 
8.9515835e+2, 1.346741e+2, -1602240.5, -1658345.9, -10222.945, 0.20788206, 0.32009208, -1600435.9, 19787.35, 0.00000034527207, 9.985013, 9.978148 
8.9449203e+2, 1.4465275e+2, -1493115.0, -1529042.6, 9955.053, 0.21606871, 0.25971776, -1490541.0, 31891.621, 0.00000022408217, 9.984933, 9.980438 
8.9382964e+2, 1.5463318e+2, -1399674.5, -1439710.5, 31144.66, 0.12072193, 0.2714759, -1382669.4, 41953.832, 0.00000012080618, 9.984873, 9.980198 
8.9316946e+2, 1.6461316e+2, -1303495.8, -1352001.4, 22495.684, 0.11598951, 0.28398314, -1294669.0, 32149.887, 0.000000051297388, 9.984976, 9.979306 
8.9250857e+2, 1.7459199e+2, -1203872.4, -1263780.3, 32783.63, 0.15585817, 0.28765896, -1189419.0, 39607.152, 0.00000001643881, 9.985468, 9.978508 
8.918485e+2, 1.8457015e+2, -1108887.4, -1175480.3, 37227.09, 0.12971804, 0.28188223, -1092238.8, 39001.566, 0.000000003877973, 9.985645, 9.977767 
8.911889e+2, 1.945472e+2, -1021845.7, -1093725.3, 42002.543, 0.06108787, 0.2646801, -1002505.44, 30959.541, 0.00000000066676814, 9.985318, 9.976928 
8.905295e+2, 2.045244e+2, -921127.25, -990492.2, 37246.758, 0.028739328, 0.2634358, -904915.75, 30772.707, 0.00000000008333369, 9.985159, 9.977273 
8.898691e+2, 2.1450113e+2, -826180.75, -906542.94, 42878.707, 0.020252785, 0.27721265, -807598.75, 30317.566, 0.000000000010516922, 9.985415, 9.976118 
8.892086e+2, 2.2447686e+2, -739504.25, -827574.4, 47795.703, 0.0018237211, 0.289018, -718550.75, 21603.62, 0.000000000098867345, 9.985171, 9.974904 
8.885478e+2, 2.3445117e+2, -661962.7, -753237.94, 45870.32, -0.009748123, 0.30753145, -642894.25, -487.4815, 0.0000000020481026, 9.984282, 9.973646 
8.87886e+2, 2.444244e+2, -564412.06, -664978.56, 50903.97, -0.031770676, 0.29510757, -543143.8, 1524.996, 0.0000000309748, 9.984514, 9.972739 
8.872218e+2, 2.543955e+2, -451352.44, -577468.0, 55941.37, -0.08449822, 0.24288748, -430114.78, 16835.662, 0.0000003404844, 9.986177, 9.970814 
8.8655657e+2, 2.6436573e+2, -350311.66, -492797.13, 70978.42, -0.123732895, 0.23299162, -320988.66, 28253.537, 0.0000027257568, 9.986952, 9.969364 
8.858896e+2, 2.743342e+2, -270944.5, -422016.72, 65187.66, -0.14393224, 0.2675362, -246705.2, 4846.2354, 0.000015971164, 9.986328, 9.967414 
8.852183e+2, 2.8430125e+2, -197188.53, -348809.7, 52732.137, -0.15656784, 0.27574995, -180652.36, -26777.426, 0.000069086105, 9.984773, 9.966058 
8.845409e+2, 2.9426572e+2, -135013.55, -293112.9, 54785.0, -0.1651794, 0.26601157, -117885.016, -61661.47, 0.00022324533, 9.983225, 9.963552 
8.8386285e+2, 3.0423057e+2, -37326.984, -166532.03, 62016.395, -0.2112526, 0.31929302, -12377.738, -12377.738, 0.0005485991, 9.98204, 9.96607 
8.831849e+2, 3.1419796e+2, -28688.096, -135697.22, 28078.049, -0.21147723, 0.39605796, -21768.201, -21768.201, 0.0010574318, 9.979512, 9.966049 
8.8250846e+2, 3.2416204e+2, 38359.34, -14007.441, 20381.063, -0.21125016, 0.23800282, 45356.633, 45356.633, 0.001674894, 9.980986, 9.974044 
9.051432e+2, 1.3534042e+2, -1602224.0, -1638146.0, -3978.917, 0.24617241, 0.3837236, -1601788.5, 11908.634, 0.000000029867618, 9.984373, 9.980009 
9.0447766e+2, 1.4532009e+2, -1463757.8, -1511301.3, 5301.846, 0.20233902, 0.3137506, -1463173.8, 52721.918, 0.000000019382966, 9.986783, 9.9807825 
9.038147e+2, 1.5530048e+2, -1381067.4, -1428145.0, 24224.201, 0.089510836, 0.29178974, -1370829.1, 47256.71, 0.000000010447276, 9.9860325, 9.980512 
9.031543e+2, 1.6528061e+2, -1294656.8, -1342472.8, 14144.433, 0.08841244, 0.27840745, -1290786.0, 29493.496, 0.000000004434464, 9.985366, 9.979911 
9.024939e+2, 1.7526014e+2, -1205159.3, -1256912.9, 23228.588, 0.16080308, 0.2754357, -1196262.9, 26216.727, 0.0000000014203173, 9.9850855, 9.979354 
9.018341e+2, 1.8523914e+2, -1116292.9, -1172771.9, 28364.459, 0.14333722, 0.27536446, -1104507.3, 20178.383, 0.00000000033482794, 9.98486, 9.978455 
9.011739e+2, 1.9521704e+2, -1028334.75, -1089304.4, 39896.98, 0.053821713, 0.27250698, -1008609.06, 18293.508, 0.000000000057520166, 9.984536, 9.9776125 
9.0051454e+2, 2.0519552e+2, -920380.0, -974668.9, 39115.082, 0.029248435, 0.29965383, -899913.4, 29200.926, 0.0000000000071813653, 9.9845705, 9.978624 
8.998547e+2, 2.1517417e+2, -820823.0, -885940.4, 43113.14, 0.058883697, 0.35500234, -799355.7, 31968.75, 0.00000000000428494, 9.985035, 9.977731 
8.9919394e+2, 2.2515114e+2, -735125.06, -818495.2, 45352.973, 0.019679263, 0.38300645, -715210.3, 18340.535, 0.00000000010849106, 9.985135, 9.975516 
8.9853144e+2, 2.3512606e+2, -646334.5, -735054.0, 46175.914, -0.07669547, 0.38348407, -626663.0, 9134.026, 0.000000002258234, 9.984853, 9.974529 
8.978697e+2, 2.451013e+2, -530851.5, -605613.8, 59247.313, -0.1282751, 0.34217146, -498178.44, 39860.242, 0.000000034158017, 9.98508, 9.976527 
8.9720744e+2, 2.5507617e+2, -426463.9, -517726.03, 60660.875, -0.14396913, 0.2581441, -396187.56, 44094.934, 0.00000037566133, 9.985962, 9.975075 
8.9654326e+2, 2.650499e+2, -339766.3, -459409.44, 67682.28, -0.14399281, 0.27168134, -309257.88, 33281.594, 0.00000301649, 9.986452, 9.971932 
8.9587605e+2, 2.750217e+2, -256207.13, -387003.94, 59239.582, -0.12694924, 0.3756674, -233365.64, 11451.815, 0.000017853601, 9.986137, 9.969864 
8.9520335e+2, 2.849917e+2, -165999.78, -284568.6, 42989.367, -0.12691882, 0.3644381, -152053.55, -4941.7783, 0.000079075995, 9.984789, 9.970295 
8.945243e+2, 2.949589e+2, -112909.336, -250507.5, 55996.695, -0.15410405, 0.2508497, -93001.35, -43569.168, 0.00026623905, 9.983329, 9.96641 
8.938446e+2, 3.0492407e+2, -60428.832, -208120.73, 54738.72, -0.20654997, 0.24003495, -42353.34, -42353.34, 0.00069019, 9.981493, 9.963401 
8.931644e+2, 3.1488523e+2, -84296.65, -243165.81, 16214.351, -0.17843789, 0.26658046, -82658.68, -82658.68, 0.0014013384, 9.978918, 9.958837 
8.9248854e+2, 3.2484466e+2, 17638.352, -75191.68, 38905.652, -0.37512267, 0.41980696, 31787.379, 31787.379, 0.0023083058, 9.982369, 9.969293 
9.1512764e+2, 1.3600634e+2, -1597189.3, -1607108.4, 20204.701, 0.2698687, 0.42453822, -1581344.3, 25830.217, 0.000000001903787, 9.983849, 9.982521 
9.1446406e+2, 1.4598711e+2, -1479460.9, -1521995.8, 4665.926, 0.20509313, 0.36556995, -1478955.1, 30406.535, 0.0000000012354053, 9.98579, 9.9804945 
9.138012e+2, 1.5596741e+2, -1393669.4, -1437920.9, 23089.201, 0.16782592, 0.36122572, -1383816.1, 27737.344, 0.00000000066574474, 9.985275, 9.9801855 
9.131399e+2, 1.6594717e+2, -1305871.6, -1349683.1, 12012.283, 0.14638887, 0.33839852, -1302794.3, 10956.767, 0.0000000002824927, 9.984624, 9.979769 
9.12478e+2, 1.7592642e+2, -1216417.0, -1259938.6, 20567.303, 0.11500477, 0.30705273, -1208235.5, 7718.749, 0.00000000009044054, 9.984174, 9.979614 
9.1181755e+2, 1.8590687e+2, -1114825.0, -1144776.5, 26037.213, 0.08033477, 0.31053537, -1099764.0, 18381.326, 0.000000000021308946, 9.98372, 9.980924 
9.111576e+2, 1.958876e+2, -1028871.25, -1061632.4, 40995.754, 0.047521003, 0.3337418, -1001104.6, 19229.348, 0.000000000003658245, 9.983235, 9.980088 
9.104984e+2, 2.0586737e+2, -934706.25, -973953.7, 44520.473, 0.03296406, 0.34369096, -905676.44, 16855.744, 0.00000000000045636807, 9.983266, 9.979277 
9.098387e+2, 2.1584637e+2, -833653.25, -880987.3, 47019.785, 0.03156492, 0.3513057, -804680.1, 20058.297, 0.0000000000030655227, 9.983668, 9.978727 
9.091784e+2, 2.2582485e+2, -730157.1, -787919.5, 52415.03, -0.005756103, 0.35526285, -699193.06, 27756.506, 0.0000000000903565, 9.98426, 9.977985 
9.085165e+2, 2.3580231e+2, -624947.0, -692986.25, 59434.777, -0.07499966, 0.3514865, -590484.3, 38685.836, 0.0000000018811002, 9.984925, 9.977209 
9.0785474e+2, 2.457796e+2, -532384.94, -593026.6, 66996.984, -0.10267409, 0.33634603, -489167.03, 42225.09, 0.000000028451819, 9.984274, 9.977625 
9.0719193e+2, 2.5575656e+2, -460659.5, -513243.16, 59405.97, -0.09938786, 0.30312037, -421987.25, 11629.563, 0.00000031314025, 9.982562, 9.977043 
9.065277e+2, 2.65733e+2, -375323.13, -437472.4, 69319.95, -0.10361219, 0.31004268, -330431.4, 5416.292, 0.0000025239594, 9.982191, 9.975603 
9.058605e+2, 2.7570847e+2, -274678.6, -347380.78, 68158.11, -0.10436084, 0.36484239, -233783.78, 4305.54, 0.000015124688, 9.9824915, 9.974316 
9.051874e+2, 2.8568286e+2, -154871.11, -234433.03, 58652.098, -0.11701182, 0.37190944, -123781.81, 16558.521, 0.00006901787, 9.983163, 9.974494 
9.045058e+2, 2.9565597e+2, -106209.59, -182465.44, 66682.8, -0.17085053, 0.3194376, -67523.88, -24921.102, 0.00024569064, 9.980125, 9.972328 
9.251134e+2, 1.3667041e+2, -1541374.1, -1574360.5, 6615.5845, 0.27253956, 0.4025156, -1540096.9, 60571.418, 0.00000000008526822, 9.9873705, 9.983201 
9.24449e+2, 1.4665267e+2, -1494356.8, -1522353.8, -9166.243, 0.19740336, 0.41188535, -1491622.8, 11218.869, 0.00000000005532455, 9.984443, 9.981326 
9.237863e+2, 1.566335e+2, -1406909.5, -1439335.1, 16386.395, 0.20234105, 0.394983, -1400070.9, 4957.855, 0.000000000029806633, 9.984127, 9.980715 
9.231245e+2, 1.6661392e+2, -1308101.1, -1343531.9, 13946.33, 0.16956499, 0.38144413, -1303270.1, 3950.3086, 0.000000000012643394, 9.984156, 9.980365 
9.2246187e+2, 1.7659384e+2, -1205410.3, -1243987.4, 28932.936, 0.07842685, 0.35882998, -1189925.9, 19491.467, 0.0000000000040459667, 9.984466, 9.980394 
9.218011e+2, 1.8657558e+2, -1092184.1, -1113396.8, 29942.602, 0.041460246, 0.3604897, -1071024.9, 40570.598, 0.000000000000952743, 9.984371, 9.982635 
9.211411e+2, 1.9655824e+2, -1003200.3, -1028170.44, 37048.215, 0.052228626, 0.384237, -976590.0, 37173.996, 0.00000000000016345195, 9.984077, 9.981994 
9.204818e+2, 2.0653895e+2, -923451.06, -962435.1, 39492.35, 0.034572836, 0.37167755, -898902.4, 17050.234, 0.000000000000020373985, 9.983808, 9.979913 
9.1982204e+2, 2.1651833e+2, -826686.56, -865151.25, 42010.223, -0.004682434, 0.33283412, -799715.6, 18438.838, 0.0000000000018606304, 9.983658, 9.979926 
9.1916233e+2, 2.2649866e+2, -718746.7, -750375.7, 47728.516, -0.03016207, 0.3082503, -684280.9, 36065.55, 0.000000000055557395, 9.9837265, 9.980942 
9.185016e+2, 2.3647922e+2, -619372.1, -657381.2, 52524.855, -0.04683204, 0.2932596, -582519.44, 40016.254, 0.0000000011563022, 9.983945, 9.980257 
9.178395e+2, 2.4645858e+2, -536945.06, -590091.9, 55189.105, -0.03587413, 0.32378125, -502265.03, 22473.459, 0.000000017486771, 9.983678, 9.97817 
9.171754e+2, 2.5643727e+2, -445572.28, -488871.47, 51160.63, -0.01132773, 0.3696644, -411669.06, 15279.301, 0.00000019261098, 9.982819, 9.978582 
9.165107e+2, 2.6641616e+2, -340258.9, -372668.22, 69055.15, -0.0398257, 0.33009416, -285532.6, 43622.402, 0.000001557747, 9.982643, 9.979853 
9.158432e+2, 2.763956e+2, -230351.81, -258585.22, 66584.14, -0.08750419, 0.25325066, -176404.36, 54951.266, 0.000009437413, 9.982715, 9.980317 
9.151706e+2, 2.863757e+2, -125650.516, -176427.25, 67224.94, -0.12749381, 0.3371907, -79179.56, 54371.77, 0.00004425717, 9.983443, 9.978446 
9.1448534e+2, 2.9635686e+2, -59597.043, -88612.055, 46013.75, -0.2568399, 0.45355427, -25857.965, 9879.072, 0.00016661992, 9.980599, 9.977975 
9.350997e+2, 1.3733245e+2, -1572607.4, -1599353.8, -15396.541, 0.26439965, 0.3541883, -1565587.0, 28593.494, 0.0000000000029415736, 9.985347, 9.982334 
9.344326e+2, 1.473161e+2, -1497432.9, -1505207.0, -12532.738, 0.16017944, 0.4409464, -1488198.3, 8143.305, 0.0000000000019083366, 9.983437, 9.982994 
9.3376946e+2, 1.5729798e+2, -1408100.5, -1420757.6, 13373.957, 0.1546682, 0.36521056, -1399633.4, -1113.9718, 0.0000000000010279229, 9.983254, 9.98241 
9.331081e+2, 1.6728085e+2, -1303726.4, -1316947.4, 14592.845, 0.14934598, 0.40182555, -1294316.5, 6370.92, 0.0000000000004359048, 9.983478, 9.982511 
9.324464e+2, 1.7726383e+2, -1200420.9, -1221160.4, 31614.535, 0.100286454, 0.46861064, -1177518.9, 25335.521, 0.0000000000001394446, 9.984012, 9.982135 
9.317857e+2, 1.8724549e+2, -1101762.6, -1124694.3, 28966.13, 0.0726459, 0.4298579, -1082075.5, 22957.213, 0.00000000000003282296, 9.984058, 9.981992 
9.3112546e+2, 1.9722673e+2, -1008683.25, -1035229.06, 31528.809, 0.07582055, 0.36161435, -987747.44, 19467.13, 0.0000000000000056283993, 9.983952, 9.981624 
9.304657e+2, 2.072074e+2, -928780.3, -964052.06, 29267.225, 0.052966535, 0.35798764, -912246.06, -2842.386, 0.00000000000000070118843, 9.983439, 9.980069 
9.298053e+2, 2.1718766e+2, -836630.94, -862305.1, 29536.482, 0.008375212, 0.36995617, -817262.5, -5665.069, 0.00000000000083497646, 9.982697, 9.98071 
9.2914504e+2, 2.271692e+2, -736935.2, -742849.5, 31130.873, -0.018495528, 0.33873212, -708621.3, 5156.0303, 0.0000000000249549, 9.981845, 9.982555 
9.2848384e+2, 2.3715135e+2, -652751.06, -654042.4, 30220.855, -0.031235242, 0.2949386, -623169.0, -7217.979, 0.00000000051935445, 9.980929, 9.982238 
9.27822e+2, 2.471328e+2, -556784.1, -579530.5, 36688.043, -0.03298069, 0.33993623, -529746.9, -11613.199, 0.0000000078541085, 9.98167, 9.980187 
9.271582e+2, 2.5711408e+2, -431746.97, -457602.3, 33369.33, -0.029421782, 0.42088103, -408888.66, 11430.27, 0.00000008654337, 9.982942, 9.980906 
9.26493e+2, 2.670949e+2, -335676.75, -352412.66, 39360.637, -0.073817536, 0.3793239, -303804.38, 18702.195, 0.0000007013428, 9.982437, 9.981667 
9.258247e+2, 2.770765e+2, -239720.08, -229646.55, 16047.824, -0.13234007, 0.26973405, -217863.63, 6822.104, 0.0000042783217, 9.981065, 9.983702 
9.251534e+2, 2.8706104e+2, -130422.37, -133614.52, 17885.516, -0.11792845, 0.38785738, -114061.85, 12775.822, 0.00002042177, 9.982001, 9.982878 
9.2446977e+2, 2.9704416e+2, 35621.535, -32069.252, -12341.623, -0.25207353, 0.2908049, 37801.5, 66805.82, 0.00007993033, 9.988428, 9.979001 
9.450833e+2, 1.3799714e+2, -1602063.1, -1603369.9, -7941.369, 0.23285756, 0.33049732, -1594748.4, -7079.7935, 0.0, 9.982638, 9.982892 
9.4441587e+2, 1.47982e+2, -1486251.0, -1490462.6, 12512.79, 0.13332582, 0.49204406, -1475668.1, 14149.631, 0.0, 9.983865, 9.983493 
9.4375384e+2, 1.5796405e+2, -1358998.6, -1386193.6, 27400.027, 0.14677249, 0.37349606, -1342007.8, 49986.367, 0.0, 9.986165, 9.983142 
9.4309235e+2, 1.6794798e+2, -1266783.6, -1285100.9, 17539.908, 0.14877585, 0.42070642, -1256155.1, 37996.48, 0.0, 9.985381, 9.98369 
9.4243056e+2, 1.7793263e+2, -1192208.8, -1207190.3, 26294.69, 0.11067252, 0.5213802, -1172358.8, 23943.293, 0.0, 9.9841385, 9.983102 
9.4176984e+2, 1.8791406e+2, -1110913.4, -1136242.3, 23178.709, 0.09121715, 0.46077192, -1097165.0, 1317.6437, 0.0, 9.983748, 9.981448 
9.4110954e+2, 1.9789432e+2, -1015672.2, -1042967.3, 27460.35, 0.094779156, 0.34199455, -998655.0, 2019.0563, 0.0, 9.983671, 9.981282 
9.404494e+2, 2.0787519e+2, -919619.9, -956411.0, 28219.232, 0.07090116, 0.3584181, -904329.8, -1468.2388, 0.0, 9.983925, 9.98033 
9.3978846e+2, 2.178563e+2, -812686.4, -842676.1, 30675.828, 0.028093759, 0.41826054, -793536.7, 11510.637, 0.00000000000028468902, 9.9839735, 9.981333 
9.391272e+2, 2.2783865e+2, -714332.0, -721139.9, 30090.889, -0.0030549946, 0.38595808, -687453.1, 19766.518, 0.000000000008157955, 9.982899, 9.983445 
9.3846494e+2, 2.3782164e+2, -633443.75, -629816.9, 29007.242, -0.024682835, 0.3208473, -602566.44, 6818.823, 0.00000000016979894, 9.981633, 9.983521 
9.3780357e+2, 2.4780487e+2, -540406.06, -547408.2, 41070.445, -0.059774708, 0.36947432, -502687.75, 8862.961, 0.0000000025679472, 9.981893, 9.982318 
9.3714046e+2, 2.577885e+2, -425522.88, -433673.16, 33907.105, -0.099851035, 0.4636791, -395446.9, 18266.016, 0.000000028296595, 9.982569, 9.98274 
9.364745e+2, 2.677703e+2, -341683.44, -356794.7, 34412.168, -0.16119577, 0.45560053, -314007.2, 1884.4663, 0.00000022950282, 9.982065, 9.9815 
9.358049e+2, 2.7775216e+2, -235479.89, -218701.63, 14168.343, -0.21566257, 0.3863112, -210625.05, 7444.2, 0.0000014045202, 9.981016, 9.98441 
9.3513596e+2, 2.8773925e+2, -101336.06, -75981.836, 27327.463, -0.0764136, 0.48846364, -58534.22, 61660.844, 0.000006759484, 9.982351, 9.986713 
9.3446e+2, 2.977228e+2, 38176.777, -31682.535, 39210.59, -0.12096242, 0.29711223, 55759.51, 78115.336, 0.000026932837, 9.989132, 9.979344 
9.550651e+2, 1.3866445e+2, -1604166.4, -1581937.5, -19423.637, 0.19807649, 0.3407354, -1570673.3, 10458.679, 0.0, 9.981471, 9.984912 
9.5439965e+2, 1.4865057e+2, -1494660.4, -1497401.6, 20315.605, 0.12610552, 0.57796234, -1475669.3, 7598.79, 0.0, 9.983715, 9.98324 
9.5374084e+2, 1.5863217e+2, -1362855.3, -1392793.0, 26673.291, 0.20580399, 0.4436787, -1347237.6, 38210.293, 0.0, 9.986295, 9.982678 
9.530781e+2, 1.6861458e+2, -1274877.8, -1296993.8, 5683.04, 0.17337339, 0.40554625, -1273502.9, 14116.4375, 0.0, 9.985179, 9.982971 
9.524141e+2, 1.7859757e+2, -1204415.8, -1219638.9, 13571.963, 0.074891016, 0.40539685, -1196466.6, -6681.812, 0.0, 9.9836445, 9.982543 
9.517531e+2, 1.8857922e+2, -1121946.1, -1144594.1, 13183.49, 0.06544692, 0.40631297, -1115890.9, -23926.135, 0.0, 9.98326, 9.981214 
9.5109296e+2, 1.9856046e+2, -1021419.8, -1041117.3, 18863.105, 0.09513096, 0.39362255, -1009989.1, -15840.269, 0.0, 9.983254, 9.98171 
9.504337e+2, 2.085425e+2, -906503.6, -931483.94, 24664.172, 0.07506857, 0.40553764, -891347.4, 4977.839, 0.0, 9.984254, 9.9819565 
9.4977343e+2, 2.1852484e+2, -788620.56, -817614.6, 25699.463, 0.0317416, 0.43088454, -773611.25, 24887.467, 0.000000000000067652664, 9.985231, 9.982434 
9.4911104e+2, 2.285078e+2, -700357.9, -718578.25, 16958.62, -0.0058541107, 0.44881997, -690217.3, 10448.95, 0.0000000000019384904, 9.984155, 9.982997 
9.484472e+2, 2.3849116e+2, -619550.7, -621167.8, 12565.93, -0.036434945, 0.449542, -607767.3, -4937.915, 0.000000000040347756, 9.982687, 9.983672 
9.477853e+2, 2.4847451e+2, -539084.06, -534370.06, 21729.059, -0.061889328, 0.4336495, -514870.53, -9878.117, 0.0000000006101943, 9.981724, 9.983442 
9.4712204e+2, 2.5845838e+2, -448644.3, -433182.16, 8579.279, -0.09133748, 0.4355374, -429364.5, -22213.943, 0.000000006724211, 9.98084, 9.983841 
9.464562e+2, 2.6844153e+2, -349732.6, -348690.97, 11603.36, -0.15189934, 0.4536253, -337596.75, -28280.607, 0.000000054552586, 9.981457, 9.982546 
9.45787e+2, 2.7842465e+2, -210687.02, -203630.5, -3260.3662, -0.21059294, 0.44723234, -202354.75, 9127.161, 0.0000003341785, 9.983161, 9.98456 
9.451199e+2, 2.8841087e+2, -73595.89, -69264.23, -7329.8037, -0.061576497, 0.48600352, -63786.965, 49829.54, 0.0000016125001, 9.985313, 9.9862995 
9.444488e+2, 2.9839572e+2, 29256.96, -28069.445, 5474.808, -0.15092798, 0.49727628, 29775.135, 45539.25, 0.0000064614287, 9.988901, 9.9809885 
9.650483e+2, 1.3933052e+2, -1551217.0, -1550215.6, -5379.0703, 0.22011088, 0.42713898, -1545314.0, 29293.365, 0.0, 9.985209, 9.985663 
9.643846e+2, 1.4931615e+2, -1457250.1, -1482988.1, 9429.055, 0.12139655, 0.6020873, -1454165.5, 22581.992, 0.0, 9.986413, 9.983151 
9.6372634e+2, 1.5929751e+2, -1403454.9, -1415766.0, 13617.273, 0.2349636, 0.4576471, -1394666.5, -15737.484, 0.0, 9.98364, 9.982585 
9.6306276e+2, 1.6927952e+2, -1294124.8, -1309275.8, -2573.0146, 0.17942847, 0.38843632, -1293699.8, -12595.739, 0.0, 9.98396, 9.982819 
9.623979e+2, 1.7926182e+2, -1187609.5, -1213333.3, 11459.876, 0.051067874, 0.33953542, -1183244.8, 31.049679, 0.0, 9.9848585, 9.982383 
9.617368e+2, 1.89244e+2, -1090867.8, -1127767.5, 17952.547, 0.05156954, 0.3926644, -1083574.9, 1876.8424, 0.0, 9.985319, 9.981292 
9.610769e+2, 1.9922622e+2, -983450.75, -1013409.3, 28259.744, 0.09601209, 0.45838183, -966445.8, 21181.76, 0.0, 9.985478, 9.982387 
9.6041805e+2, 2.0920931e+2, -888148.56, -903946.94, 34783.586, 0.07154494, 0.4484635, -860378.5, 29415.174, 0.0, 9.984766, 9.9834795 
9.5975834e+2, 2.1919268e+2, -799139.4, -813264.2, 30389.922, 0.025473602, 0.43444353, -775002.0, 16954.87, 0.0000000000000117120025, 9.984114, 9.98316 
9.590949e+2, 2.2917591e+2, -712310.56, -732416.25, 17764.625, -0.015994422, 0.5151889, -701951.6, -7828.529, 0.0000000000003355644, 9.98362, 9.982157 
9.584298e+2, 2.3915932e+2, -615100.0, -622051.2, 14892.657, -0.0510046, 0.5923158, -603282.75, -6995.3916, 0.0000000000069838328, 9.9830885, 9.983264 
9.5776725e+2, 2.4914187e+2, -523531.56, -521854.75, 21463.766, -0.0499348, 0.4874377, -501213.03, -2756.7527, 0.00000000010561558, 9.982545, 9.983807 
9.5710343e+2, 2.5912482e+2, -430346.03, -417938.03, 8374.361, -0.043583598, 0.36686927, -413719.94, -13098.923, 0.0000000011640542, 9.981838, 9.984372 
9.564384e+2, 2.6910934e+2, -332356.66, -324317.0, 15281.631, -0.08631578, 0.4126308, -312535.34, -9762.452, 0.000000009444971, 9.982067, 9.98395 
9.5577085e+2, 2.7909377e+2, -218882.14, -222192.2, 3795.559, -0.14854692, 0.46597633, -216396.47, -11470.334, 0.000000057857413, 9.983334, 9.983318 
9.5510495e+2, 2.8907534e+2, -106377.92, -137550.31, 87.78661, -0.10808093, 0.3900408, -106377.67, 729.6254, 0.00000027926637, 9.985402, 9.981712 
9.544364e+2, 2.9905722e+2, 18831.793, -32242.508, -3306.7808, -0.2280044, 0.45200822, 19044.998, 28330.482, 0.0000011202083, 9.987812, 9.981298 
9.7503436e+2, 1.3999434e+2, -1548529.6, -1554484.1, 28954.574, 0.23318867, 0.5244552, -1522399.6, 45705.01, 0.0, 9.986455, 9.985193 
9.743709e+2, 1.4997806e+2, -1466357.8, -1492729.4, -11165.036, 0.11995396, 0.5578553, -1462265.8, 7997.005, 0.0, 9.985905, 9.982734 
9.737091e+2, 1.5995906e+2, -1413424.9, -1418990.6, -1909.2532, 0.20233314, 0.4026639, -1412832.9, -40385.09, 0.0, 9.982936, 9.982753 
9.7304636e+2, 1.699425e+2, -1294271.3, -1300954.0, -6466.246, 0.16391572, 0.41867748, -1290334.1, -15724.286, 0.0, 9.983855, 9.983582 
9.7238344e+2, 1.7992651e+2, -1174917.4, -1195198.5, 6818.986, 0.07301745, 0.45708403, -1172837.9, 3928.351, 0.0, 9.98548, 9.983429 
9.717232e+2, 1.8991e+2, -1066995.8, -1099439.9, 13072.836, 0.06841398, 0.50786525, -1062383.9, 16545.064, 0.0, 9.98647, 9.982732 
9.7106355e+2, 1.998934e+2, -954303.8, -982644.75, 20435.479, 0.09497128, 0.54743403, -943606.4, 37485.652, 0.0, 9.986928, 9.983761 
9.704028e+2, 2.0987725e+2, -878112.3, -886490.1, 21324.086, 0.043504905, 0.50181764, -860569.6, 22680.373, 0.0, 9.985009, 9.984484 
9.6974117e+2, 2.198613e+2, -812879.2, -813077.1, 19908.889, -0.023977088, 0.46332532, -793069.0, -7662.7144, 0.0000000000000014914695, 9.983068, 9.983651 
9.690782e+2, 2.2984432e+2, -715807.3, -733535.0, 14468.532, -0.039021697, 0.51997846, -707703.4, -20129.627, 0.000000000000042732568, 9.983663, 9.982042 
9.6841395e+2, 2.3982717e+2, -599260.1, -622651.94, 13669.559, -0.047299843, 0.57670784, -592965.75, -3222.6729, 0.00000000000088938075, 9.984861, 9.982311 
9.677516e+2, 2.4980856e+2, -490269.28, -524103.06, 13133.986, -0.066668145, 0.5123236, -485769.28, 6154.9478, 0.000000000013450299, 9.985943, 9.982044 
9.6708775e+2, 2.597904e+2, -368653.5, -397450.53, -8822.91, -0.0773415, 0.43417728, -366165.3, 27935.023, 0.0000000001482496, 9.986788, 9.983542 
9.6642274e+2, 2.697748e+2, -277111.44, -297960.25, -10439.179, -0.0886824, 0.47942147, -272783.06, 23470.525, 0.0000000012029147, 9.986192, 9.984019 
9.657557e+2, 2.797587e+2, -198955.94, -233319.48, -21394.852, -0.13204399, 0.5254216, -188697.72, 9713.65, 0.0000000073681794, 9.985983, 9.981734 
9.650911e+2, 2.8973755e+2, -88162.34, -161861.55, -13639.218, -0.17282638, 0.42551333, -85719.18, 14900.848, 0.000000035559857, 9.988511, 9.978911 
9.644252e+2, 2.9971835e+2, 71146.42, 475.59103, -26533.61, -0.26468366, 0.57833993, 79999.516, 82809.17, 0.00000014260962, 9.991104, 9.9821 
9.850205e+2, 1.4065623e+2, -1555942.9, -1550412.9, 14867.433, 0.22940794, 0.5481435, -1538055.5, 23564.398, 0.0, 9.985368, 9.985942 
9.8435557e+2, 1.5064082e+2, -1478486.4, -1483325.8, -2283.662, 0.090129875, 0.5514785, -1477579.0, -13809.153, 0.0, 9.984338, 9.983907 
9.8369306e+2, 1.6062301e+2, -1366964.0, -1391396.1, 19063.656, 0.18831016, 0.44140384, -1356538.3, 9405.094, 0.0, 9.985882, 9.982798 
9.830312e+2, 1.7060664e+2, -1263014.5, -1285311.1, 13905.829, 0.17527106, 0.5034108, -1256339.9, 11764.546, 0.0, 9.98606, 9.983333 
9.823694e+2, 1.8059105e+2, -1161167.8, -1180708.6, 18765.45, 0.10357037, 0.5789261, -1149781.5, 20476.457, 0.0, 9.986142, 9.983951 
9.817094e+2, 1.905751e+2, -1073035.9, -1088724.9, 20107.326, 0.07175135, 0.5935929, -1059297.0, 13117.258, 0.0, 9.985511, 9.983835 
9.8104954e+2, 2.0055929e+2, -975392.06, -981901.0, 19268.309, 0.07170777, 0.59803414, -959105.3, 15463.42, 0.0, 9.984983, 9.984682 
9.8038703e+2, 2.105438e+2, -884325.8, -883889.3, 10062.71, 0.002741701, 0.5557218, -874042.5, 2677.621, 0.0, 9.984239, 9.98503 
9.7972375e+2, 2.205283e+2, -802477.56, -804456.56, 10683.845, -0.076822594, 0.5111871, -792737.5, -13866.308, 0.00000000000000014322901, 9.98363, 9.984082 
9.7906196e+2, 2.3051113e+2, -699480.6, -723495.75, 13110.146, -0.05652528, 0.5166414, -693710.2, -12670.651, 0.0000000000000041040377, 9.9847975, 9.982312 
9.783991e+2, 2.4049339e+2, -590946.56, -631568.1, 15025.233, -0.037616022, 0.5287566, -585993.0, -2779.63, 0.000000000000085429954, 9.986099, 9.98119 
9.7773737e+2, 2.5047356e+2, -499247.0, -555597.3, 16699.818, -0.1038737, 0.55224144, -494669.72, -9261.7295, 0.000000000001292103, 9.986581, 9.979599 
9.770738e+2, 2.604543e+2, -378822.9, -418509.0, -6344.64, -0.15542907, 0.5724953, -377833.25, 9763.62, 0.0000000000142405965, 9.9868, 9.982053 
9.7640836e+2, 2.7043748e+2, -285527.1, -310947.28, -12438.204, -0.13354349, 0.5932073, -280453.63, 9307.537, 0.00000000011554544, 9.985938, 9.983196 
9.7574145e+2, 2.804198e+2, -211952.45, -259487.81, -14283.485, -0.1523071, 0.60634124, -207990.72, -16056.407, 0.0000000007077114, 9.986002, 9.979991 
9.750791e+2, 2.9039797e+2, -97400.27, -180812.88, -2660.62, -0.2397067, 0.5954607, -97315.5, -3165.5083, 0.000000003414842, 9.988631, 9.977665 
9.7441715e+2, 3.0037576e+2, 76905.57, 11447.046, -23551.045, -0.19756405, 0.5298208, 84498.22, 84498.22, 0.000000013690085, 9.9911175, 9.982893 
9.950054e+2, 1.4131603e+2, -1547895.3, -1522029.8, -34032.438, 0.23911594, 0.4332471, -1498555.6, 56600.01, 0.0, 9.984087, 9.988169 
9.943395e+2, 1.5130445e+2, -1450906.9, -1430044.8, 3991.0432, 0.028975422, 0.49231505, -1429307.3, 27961.27, 0.0, 9.984713, 9.987469 
9.9368006e+2, 1.6129044e+2, -1356341.6, -1383388.8, 19359.139, 0.23035122, 0.51365453, -1346250.4, 13155.289, 0.0, 9.986631, 9.983001 
9.9301845e+2, 1.7127237e+2, -1264397.9, -1302387.3, 11234.392, 0.224748, 0.5313579, -1261324.3, 258.96777, 0.0, 9.986785, 9.981835 
9.923563e+2, 1.8125467e+2, -1159749.4, -1182346.0, 10946.896, 0.1463195, 0.50695646, -1155316.0, 8440.945, 0.0, 9.986387, 9.98371 
9.9169433e+2, 1.9123751e+2, -1078928.0, -1087595.3, 10155.405, 0.053200193, 0.37737495, -1072220.3, -6296.2944, 0.0, 9.984967, 9.984165 
9.910329e+2, 2.0122123e+2, -997793.06, -1001267.56, 10744.875, -0.012209102, 0.31921798, -988645.9, -20563.238, 0.0, 9.983924, 9.983919 
9.9037063e+2, 2.1120574e+2, -900711.56, -911260.0, -2129.8867, -0.04981947, 0.4338081, -900297.75, -30062.47, 0.0, 9.984094, 9.98337 
9.897083e+2, 2.2119007e+2, -789742.06, -801178.8, -1761.48, -0.06360908, 0.4854652, -789476.9, -17087.783, 0.000000000000000010837507, 9.984846, 9.983976 
9.8904896e+2, 2.3117283e+2, -665553.7, -695280.56, 4796.148, 0.029101247, 0.40103638, -664799.06, 9757.563, 0.00000000000000031058006, 9.986883, 9.983508 
9.8838806e+2, 2.4115558e+2, -553928.06, -608840.3, 5097.712, 0.08267434, 0.36144882, -553458.8, 23266.201, 0.0000000000000064639003, 9.988623, 9.981711 
9.877258e+2, 2.5113618e+2, -474726.6, -541106.9, 11920.422, -0.024965541, 0.4019994, -472650.84, 6264.8916, 0.000000000000097753626, 9.988272, 9.979762 
9.8706126e+2, 2.6111647e+2, -377480.72, -426494.22, -5847.866, -0.115151204, 0.4133777, -376792.66, 4316.7974, 0.0000000000010773522, 9.987325, 9.981089 
9.8639435e+2, 2.710974e+2, -296420.1, -329833.78, -14462.306, -0.12055662, 0.336818, -291029.97, -7734.077, 0.000000000008741193, 9.985799, 9.981827 
9.857274e+2, 2.8107816e+2, -227218.39, -277094.97, -5258.431, -0.13472384, 0.3218102, -226670.03, -41185.81, 0.00000000005353408, 9.98552, 9.97898 
9.850685e+2, 2.910575e+2, -140615.88, -215079.22, 11207.514, -0.044159908, 0.5422118, -138965.61, -51277.125, 0.00000000025827646, 9.986378, 9.976256 
9.8440754e+2, 3.0103394e+2, 23555.861, -16974.867, -5686.0396, -0.08975356, 0.46739405, 24338.443, 24338.443, 0.0000000010352618, 9.987788, 9.982501 
1.0049886e+3, 1.4198634e+2, -1576222.6, -1573945.4, 15025.489, 0.23230433, 0.59934515, -1560015.4, -11427.507, 0.0, 9.983636, 9.983712 
1.0043242e+3, 1.5197131e+2, -1462188.6, -1454858.9, 19512.27, 0.02926955, 0.6163364, -1438670.3, 12065.045, 0.0, 9.984956, 9.985518 
1.0036668e+3, 1.619563e+2, -1365825.4, -1383353.0, 6874.7314, 0.3033279, 0.61405253, -1363450.6, -10568.016, 0.0, 9.985954, 9.983612 
1.003005e+3, 1.719387e+2, -1241499.0, -1282314.6, 16852.441, 0.1815014, 0.5854955, -1235440.1, 19615.402, 0.0, 9.988173, 9.982438 
1.00234225e+3, 1.8192145e+2, -1125138.8, -1173630.4, 18400.273, 0.03289902, 0.61002654, -1118947.3, 38277.42, 0.0, 9.989294, 9.982565 
1.00168005e+3, 1.9190466e+2, -1040199.06, -1078703.4, -3555.029, 0.05293656, 0.6510381, -1039873.6, 19513.84, 0.0, 9.988237, 9.983144 
1.00101806e+3, 2.0188779e+2, -959446.3, -981725.3, -8815.216, 0.057322558, 0.58948594, -956380.3, 5171.4395, 0.0, 9.98679, 9.9839735 
1.0003555e+3, 2.1187119e+2, -891391.7, -903346.75, 8145.335, 0.025935689, 0.5807631, -887265.9, -23549.908, 0.0, 9.984897, 9.983163 
9.996934e+2, 2.2185518e+2, -796541.56, -805018.7, 31177.371, -0.027133945, 0.6607433, -769315.94, -3442.1443, 0.0000000000000000006820092, 9.984851, 9.98313 
9.9903554e+2, 2.3183814e+2, -657978.8, -688351.4, 21221.518, -0.008508703, 0.6432316, -647069.56, 20969.275, 0.00000000000000001954189, 9.987748, 9.983337 
9.983761e+2, 2.4182045e+2, -537115.1, -585417.75, 1649.021, 0.028366279, 0.53805846, -537058.9, 33151.83, 0.00000000000000040645458, 9.989441, 9.982864 
9.977131e+2, 2.5180265e+2, -464949.9, -516343.5, 16777.828, -0.10014824, 0.5818206, -459957.6, 12428.502, 0.0000000000000061445223, 9.98826, 9.981179 
9.9704766e+2, 2.6178378e+2, -372203.44, -429711.63, 9940.716, -0.19454874, 0.63072133, -370533.6, 4038.0977, 0.00000000000006771698, 9.9879875, 9.980082 
9.963796e+2, 2.71764e+2, -275920.5, -340960.38, -5456.3457, -0.1648678, 0.6873239, -275465.94, 1298.9388, 0.0000000000005493915, 9.988148, 9.979577 
9.957126e+2, 2.817415e+2, -202192.52, -270866.16, -1809.5227, -0.16891879, 0.4966929, -202144.88, -23159.744, 0.0000000000033642223, 9.987703, 9.978374 
9.950566e+2, 2.9171923e+2, -63400.86, -189509.22, -3288.7039, 0.1148275, 0.6165671, -63315.152, 17890.033, 0.000000000016230134, 9.992323, 9.975397 
9.943931e+2, 3.016953e+2, 71794.086, -16903.316, 14008.577, -0.34289834, 0.606171, 73953.95, 73953.95, 0.00000000006506301, 9.992516, 9.980599 
