coord_x,coord_y,stress_xx,stress_yy,tau_xy,velocity_x,velocity_y,stress_1,eps,damage,lx,ly
5.0e+0, 1.2501717e+2, -1723632.6, -1732707.1, -0.000000000105170025, 0.000000000000000036427664, -0.063384145, -1723632.6, -8805.536, 0.0, 10.0, 9.998797 
5.0e+0, 1.3501623e+2, -1625670.1, -1634796.5, -0.000000000033106594, 0.00000000000000031839, -0.03612581, -1625670.1, -8831.828, 0.0, 10.0, 9.998791 
5.0e+0, 1.4501473e+2, -1537081.5, -1556140.8, -0.0000000000200935, 0.00000000000000034122717, 0.0011270263, -1537081.5, -18225.707, 0.0, 10.0, 9.997475 
5.0e+0, 1.5501268e+2, -1439073.0, -1458149.4, 0.00000000007722587, 0.00000000000000011038366, 0.047660526, -1439073.0, -18193.332, 0.0, 10.0, 9.997473 
5.0e+0, 1.6501072e+2, -1336450.4, -1350666.9, 0.000000000074646934, -0.000000000000000027626218, 0.07340378, -1336450.4, -13549.706, 0.0, 10.0, 9.9981165 
5.0e+0, 1.750089e+2, -1238448.5, -1252682.5, 0.000000000032827924, -0.00000000000000007584223, 0.078109026, -1238448.5, -13529.584, 0.0, 10.0, 9.998114 
5.0e+0, 1.8500713e+2, -1135894.5, -1145321.5, 0.000000000046560027, -0.00000000000000007240053, 0.05762654, -1135894.5, -8960.126, 0.0, 10.0, 9.998751 
5.0e+0, 1.9500542e+2, -1037897.25, -1047340.1, 0.00000000002445672, -0.000000000000000016376772, 0.011520169, -1037897.25, -8949.978, 0.0, 10.0, 9.998749 
5.0e+0, 2.0500365e+2, -939846.25, -949247.94, -0.00000000003637709, 0.000000000000000054325517, -0.0410282, -939846.25, -8885.576, 0.0, 10.0, 9.998754 
5.0e+0, 2.150018e+2, -841857.0, -851283.2, -0.00000000010814307, 0.00000000000000013924045, -0.10047368, -841857.0, -8882.356, 0.0, 10.0, 9.998751 
5.0e+0, 2.2500023e+2, -745520.3, -756732.3, -0.00000000011047974, 0.00000000000000012500848, -0.120292485, -745520.3, -10531.964, 0.0, 10.0, 9.998514 
5.0e+0, 2.3499894e+2, -647533.6, -658775.25, -0.00000000006674322, 0.00000000000000001318701, -0.101004004, -647533.6, -10531.712, 0.0, 10.0, 9.99851 
5.0e+0, 2.449973e+2, -556136.9, -574451.1, -0.00000000002651409, -0.00000000000000002962262, -0.069931366, -556136.9, -17116.916, 0.0, 10.0, 9.997574 
5.0e+0, 2.549953e+2, -458128.13, -476458.4, -0.000000000008236304, -0.000000000000000005099047, -0.027520262, -458128.13, -17085.479, 0.0, 10.0, 9.997571 
5.0e+0, 2.6499218e+2, -372716.28, -404562.53, 0.000000000006736913, 0.00000000000000002385461, -0.006721425, -372716.28, -29641.09, 0.0, 10.0, 9.995782 
5.0e+0, 2.7498794e+2, -274660.0, -306490.22, 0.000000000039483222, 0.000000000000000058094813, -0.008140607, -274660.0, -29542.387, 0.0, 10.0, 9.995784 
5.0e+0, 2.8498176e+2, -207046.78, -271577.22, 0.000000000033188566, 0.00000000000000005872434, 0.008222219, -207046.78, -59866.484, 0.0, 10.0, 9.99146 
5.0e+0, 2.9497355e+2, -108955.31, -173477.47, 0.000000000013410554, 0.00000000000000002529586, 0.041641317, -108955.31, -59692.004, 0.0, 10.0, 9.991461 
5.0e+0, 3.049667e+2, -40549.945, -84219.12, 0.000000000015189091, 0.000000000000000030820114, 0.072680816, -40549.945, -40549.945, 0.0, 10.0, 9.994219 
5.0e+0, 3.149612e+2, -40558.387, -84236.65, 0.000000000007522927, 0.00000000000000007615487, 0.1006251, -40558.387, -40558.387, 0.0, 10.0, 9.994217 
1.5e+1, 1.2501717e+2, -1723632.6, -1732707.1, 0.000000000012152708, 0.00000000000000010928299, -0.063384145, -1723632.6, -8805.536, 0.0, 10.0, 9.998797 
1.5e+1, 1.3501623e+2, -1625670.1, -1634796.5, 0.00000000008920235, 0.0000000000000009551699, -0.03612581, -1625670.1, -8831.828, 0.0, 10.0, 9.998791 
1.5e+1, 1.4501473e+2, -1537081.5, -1556140.8, -0.000000000072097196, 0.0000000000000010236815, 0.0011270263, -1537081.5, -18225.707, 0.0, 10.0, 9.997475 
1.5e+1, 1.5501268e+2, -1439073.0, -1458149.4, 0.000000000028592689, 0.00000000000000033115097, 0.047660526, -1439073.0, -18193.332, 0.0, 10.0, 9.997473 
1.5e+1, 1.6501072e+2, -1336450.4, -1350666.9, -0.000000000034281567, -0.000000000000000082878653, 0.07340378, -1336450.4, -13549.706, 0.0, 10.0, 9.9981165 
1.5e+1, 1.750089e+2, -1238448.5, -1252682.5, -0.00000000007278787, -0.0000000000000002275267, 0.078109026, -1238448.5, -13529.584, 0.0, 10.0, 9.998114 
1.5e+1, 1.8500713e+2, -1135894.5, -1145321.5, 0.00000000005905548, -0.00000000000000021720159, 0.05762654, -1135894.5, -8960.126, 0.0, 10.0, 9.998751 
1.5e+1, 1.9500542e+2, -1037897.25, -1047340.1, 0.000000000035550157, -0.000000000000000049130313, 0.011520169, -1037897.25, -8949.978, 0.0, 10.0, 9.998749 
1.5e+1, 2.0500365e+2, -939846.25, -949247.94, -0.00000000004555943, 0.00000000000000016297655, -0.0410282, -939846.25, -8885.576, 0.0, 10.0, 9.998754 
1.5e+1, 2.150018e+2, -841857.0, -851283.2, -0.00000000011728575, 0.00000000000000041772137, -0.10047368, -841857.0, -8882.356, 0.0, 10.0, 9.998751 
1.5e+1, 2.2500023e+2, -745520.3, -756732.3, -0.00000000010469732, 0.00000000000000037502543, -0.120292485, -745520.3, -10531.964, 0.0, 10.0, 9.998514 
1.5e+1, 2.3499894e+2, -647533.6, -658775.25, -0.00000000005788669, 0.00000000000000003956103, -0.101004004, -647533.6, -10531.712, 0.0, 10.0, 9.99851 
1.5e+1, 2.449973e+2, -556136.9, -574451.1, 0.0000000000053934726, -0.00000000000000008886787, -0.069931366, -556136.9, -17116.916, 0.0, 10.0, 9.997574 
1.5e+1, 2.549953e+2, -458128.13, -476458.4, 0.000000000027172847, -0.00000000000000001529714, -0.027520262, -458128.13, -17085.479, 0.0, 10.0, 9.997571 
1.5e+1, 2.6499218e+2, -372716.28, -404562.53, 0.000000000018338168, 0.00000000000000007156383, -0.006721425, -372716.28, -29641.09, 0.0, 10.0, 9.995782 
1.5e+1, 2.7498794e+2, -274660.0, -306490.22, 0.000000000053435423, 0.00000000000000017428444, -0.008140607, -274660.0, -29542.387, 0.0, 10.0, 9.995784 
1.5e+1, 2.8498176e+2, -207046.78, -271577.22, 0.000000000025418632, 0.000000000000000176173, 0.008222219, -207046.78, -59866.484, 0.0, 10.0, 9.99146 
1.5e+1, 2.9497355e+2, -108955.31, -173477.47, 0.000000000008711741, 0.00000000000000007588758, 0.041641317, -108955.31, -59692.004, 0.0, 10.0, 9.991461 
1.5e+1, 3.049667e+2, -40549.945, -84219.12, 0.000000000022265238, 0.00000000000000009246034, 0.072680816, -40549.945, -40549.945, 0.0, 10.0, 9.994219 
1.5e+1, 3.149612e+2, -40558.387, -84236.65, 0.000000000016391137, 0.0000000000000002284646, 0.1006251, -40558.387, -40558.387, 0.0, 10.0, 9.994217 
2.5e+1, 1.2501717e+2, -1723632.6, -1732707.1, 0.000000000081954055, 0.00000000000000032281556, -0.063384145, -1723632.6, -8805.536, 0.0, 10.0, 9.998797 
2.5e+1, 1.3501623e+2, -1625670.1, -1634796.5, 0.000000000072694475, 0.0000000000000010597553, -0.03612581, -1625670.1, -8831.828, 0.0, 10.0, 9.998791 
2.5e+1, 1.4501473e+2, -1537081.5, -1556140.8, -0.00000000011406948, 0.0000000000000010509688, 0.0011270263, -1537081.5, -18225.707, 0.0, 10.0, 9.997475 
2.5e+1, 1.5501268e+2, -1439073.0, -1458149.4, -0.000000000028321448, 0.00000000000000030600955, 0.047660526, -1439073.0, -18193.332, 0.0, 10.0, 9.997473 
2.5e+1, 1.6501072e+2, -1336450.4, -1350666.9, -0.00000000012027833, -0.00000000000000009612604, 0.07340378, -1336450.4, -13549.706, 0.0, 10.0, 9.9981165 
2.5e+1, 1.750089e+2, -1238448.5, -1252682.5, -0.00000000014113784, -0.00000000000000015871474, 0.078109026, -1238448.5, -13529.584, 0.0, 10.0, 9.998114 
2.5e+1, 1.8500713e+2, -1135894.5, -1145321.5, 0.000000000073678695, 0.000000000000000015851621, 0.05762654, -1135894.5, -8960.126, 0.0, 10.0, 9.998751 
2.5e+1, 1.9500542e+2, -1037897.25, -1047340.1, 0.000000000007528141, 0.00000000000000042724027, 0.011520169, -1037897.25, -8949.978, 0.0, 10.0, 9.998749 
2.5e+1, 2.0500365e+2, -939846.25, -949247.94, -0.00000000006436335, 0.00000000000000063238543, -0.0410282, -939846.25, -8885.576, 0.0, 10.0, 9.998754 
2.5e+1, 2.150018e+2, -841857.0, -851283.2, 0.000000000006075139, 0.00000000000000063189695, -0.10047368, -841857.0, -8882.356, 0.0, 10.0, 9.998751 
2.5e+1, 2.2500023e+2, -745520.3, -756732.3, 0.00000000005691373, 0.0000000000000005431261, -0.120292485, -745520.3, -10531.964, 0.0, 10.0, 9.998514 
2.5e+1, 2.3499894e+2, -647533.6, -658775.25, 0.000000000002882507, 0.00000000000000036862752, -0.101004004, -647533.6, -10531.712, 0.0, 10.0, 9.99851 
2.5e+1, 2.449973e+2, -556136.9, -574451.1, 0.000000000029422357, 0.00000000000000026873092, -0.069931366, -556136.9, -17116.916, 0.0, 10.0, 9.997574 
2.5e+1, 2.549953e+2, -458128.13, -476458.4, 0.000000000048712933, 0.00000000000000023884468, -0.027520262, -458128.13, -17085.479, 0.0, 10.0, 9.997571 
2.5e+1, 2.6499218e+2, -372716.28, -404562.53, 0.000000000021319063, 0.00000000000000022435253, -0.006721425, -372716.28, -29641.09, 0.0, 10.0, 9.995782 
2.5e+1, 2.7498794e+2, -274660.0, -306490.22, 0.000000000025403117, 0.00000000000000022727885, -0.008140607, -274660.0, -29542.387, 0.0, 10.0, 9.995784 
2.5e+1, 2.8498176e+2, -207046.78, -271577.22, -0.000000000003516432, 0.00000000000000023614005, 0.008222219, -207046.78, -59866.484, 0.0, 10.0, 9.99146 
2.5e+1, 2.9497355e+2, -108955.31, -173477.47, -0.000000000005763467, 0.0000000000000002507979, 0.041641317, -108955.31, -59692.004, 0.0, 10.0, 9.991461 
2.5e+1, 3.049667e+2, -40549.945, -84219.12, 0.000000000020172445, 0.0000000000000003314775, 0.072680816, -40549.945, -40549.945, 0.0, 10.0, 9.994219 
2.5e+1, 3.149612e+2, -40558.387, -84236.65, 0.00000000001481934, 0.0000000000000004801311, 0.1006251, -40558.387, -40558.387, 0.0, 10.0, 9.994217 
3.5e+1, 1.2501717e+2, -1723632.6, -1732707.1, -0.00000000009105836, 0.00000000000000067702533, -0.063384145, -1723632.6, -8805.536, 0.0, 10.0, 9.998797 
3.5e+1, 1.3501623e+2, -1625670.1, -1634796.5, -0.00000000011244534, 0.0000000000000006321462, -0.03612581, -1625670.1, -8831.828, 0.0, 10.0, 9.998791 
3.5e+1, 1.4501473e+2, -1537081.5, -1556140.8, -0.000000000076900604, 0.00000000000000042308928, 0.0011270263, -1537081.5, -18225.707, 0.0, 10.0, 9.997475 
3.5e+1, 1.5501268e+2, -1439073.0, -1458149.4, 0.000000000010109572, 0.000000000000000034959422, 0.047660526, -1439073.0, -18193.332, 0.0, 10.0, 9.997473 
3.5e+1, 1.6501072e+2, -1336450.4, -1350666.9, -0.00000000012049252, -0.00000000000000006736837, 0.07340378, -1336450.4, -13549.706, 0.0, 10.0, 9.9981165 
3.5e+1, 1.750089e+2, -1238448.5, -1252682.5, -0.00000000014140783, 0.00000000000000013059365, 0.078109026, -1238448.5, -13529.584, 0.0, 10.0, 9.998114 
3.5e+1, 1.8500713e+2, -1135894.5, -1145321.5, 0.0000000001077535, 0.0000000000000006267591, 0.05762654, -1135894.5, -8960.126, 0.0, 10.0, 9.998751 
3.5e+1, 1.9500542e+2, -1037897.25, -1047340.1, 0.000000000044699494, 0.0000000000000014127349, 0.011520169, -1037897.25, -8949.978, 0.0, 10.0, 9.998749 
3.5e+1, 2.0500365e+2, -939846.25, -949247.94, -0.00000000009083275, 0.0000000000000014625522, -0.0410282, -939846.25, -8885.576, 0.0, 10.0, 9.998754 
3.5e+1, 2.150018e+2, -841857.0, -851283.2, -0.000000000022586438, 0.0000000000000007817672, -0.10047368, -841857.0, -8882.356, 0.0, 10.0, 9.998751 
3.5e+1, 2.2500023e+2, -745520.3, -756732.3, 0.000000000046814316, 0.00000000000000062931054, -0.120292485, -745520.3, -10531.964, 0.0, 10.0, 9.998514 
3.5e+1, 2.3499894e+2, -647533.6, -658775.25, -0.000000000011684538, 0.0000000000000010003866, -0.101004004, -647533.6, -10531.712, 0.0, 10.0, 9.99851 
3.5e+1, 2.449973e+2, -556136.9, -574451.1, 0.00000000002810674, 0.0000000000000010431737, -0.069931366, -556136.9, -17116.916, 0.0, 10.0, 9.997574 
3.5e+1, 2.549953e+2, -458128.13, -476458.4, 0.000000000042404864, 0.00000000000000075732644, -0.027520262, -458128.13, -17085.479, 0.0, 10.0, 9.997571 
3.5e+1, 2.6499218e+2, -372716.28, -404562.53, 0.000000000029807035, 0.00000000000000048222073, -0.006721425, -372716.28, -29641.09, 0.0, 10.0, 9.995782 
3.5e+1, 2.7498794e+2, -274660.0, -306490.22, 0.00000000002992722, 0.00000000000000021707804, -0.008140607, -274660.0, -29542.387, 0.0, 10.0, 9.995784 
3.5e+1, 2.8498176e+2, -207046.78, -271577.22, 0.000000000014239758, 0.00000000000000023862546, 0.008222219, -207046.78, -59866.484, 0.0, 10.0, 9.99146 
3.5e+1, 2.9497355e+2, -108955.31, -173477.47, 0.000000000009254306, 0.00000000000000055002677, 0.041641317, -108955.31, -59692.004, 0.0, 10.0, 9.991461 
3.5e+1, 3.049667e+2, -40549.945, -84219.12, 0.000000000035238614, 0.0000000000000007478716, 0.072680816, -40549.945, -40549.945, 0.0, 10.0, 9.994219 
3.5e+1, 3.149612e+2, -40558.387, -84236.65, 0.000000000027838693, 0.0000000000000008311544, 0.1006251, -40558.387, -40558.387, 0.0, 10.0, 9.994217 
4.5e+1, 1.2501717e+2, -1723632.6, -1732707.1, 0.000000000024269612, 0.0000000000000015200236, -0.063384145, -1723632.6, -8805.536, 0.0, 10.0, 9.998797 
4.5e+1, 1.3501623e+2, -1625670.1, -1634796.5, 0.00000000005997291, 0.0000000000000011966896, -0.03612581, -1625670.1, -8831.828, 0.0, 10.0, 9.998791 
4.5e+1, 1.4501473e+2, -1537081.5, -1556140.8, 0.000000000076020745, 0.0000000000000009605128, 0.0011270263, -1537081.5, -18225.707, 0.0, 10.0, 9.997475 
4.5e+1, 1.5501268e+2, -1439073.0, -1458149.4, -0.000000000023735725, 0.00000000000000079188184, 0.047660526, -1439073.0, -18193.332, 0.0, 10.0, 9.997473 
4.5e+1, 1.6501072e+2, -1336450.4, -1350666.9, -0.00000000013514607, 0.00000000000000087446384, 0.07340378, -1336450.4, -13549.706, 0.0, 10.0, 9.9981165 
4.5e+1, 1.750089e+2, -1238448.5, -1252682.5, -0.00000000013974646, 0.0000000000000012219598, 0.078109026, -1238448.5, -13529.584, 0.0, 10.0, 9.998114 
4.5e+1, 1.8500713e+2, -1135894.5, -1145321.5, 0.00000000006364346, 0.0000000000000018163038, 0.05762654, -1135894.5, -8960.126, 0.0, 10.0, 9.998751 
4.5e+1, 1.9500542e+2, -1037897.25, -1047340.1, 0.00000000010289536, 0.0000000000000026485727, 0.011520169, -1037897.25, -8949.978, 0.0, 10.0, 9.998749 
4.5e+1, 2.0500365e+2, -939846.25, -949247.94, 0.00000000002106274, 0.0000000000000026883252, -0.0410282, -939846.25, -8885.576, 0.0, 10.0, 9.998754 
4.5e+1, 2.150018e+2, -841857.0, -851283.2, 0.000000000025392273, 0.000000000000001941756, -0.10047368, -841857.0, -8882.356, 0.0, 10.0, 9.998751 
4.5e+1, 2.2500023e+2, -745520.3, -756732.3, 0.00000000001302259, 0.0000000000000017924962, -0.120292485, -745520.3, -10531.964, 0.0, 10.0, 9.998514 
4.5e+1, 2.3499894e+2, -647533.6, -658775.25, -0.000000000037696304, 0.0000000000000022351872, -0.101004004, -647533.6, -10531.712, 0.0, 10.0, 9.99851 
4.5e+1, 2.449973e+2, -556136.9, -574451.1, 0.000000000016852134, 0.0000000000000023461447, -0.069931366, -556136.9, -17116.916, 0.0, 10.0, 9.997574 
4.5e+1, 2.549953e+2, -458128.13, -476458.4, 0.000000000021451011, 0.0000000000000021255034, -0.027520262, -458128.13, -17085.479, 0.0, 10.0, 9.997571 
4.5e+1, 2.6499218e+2, -372716.28, -404562.53, 0.000000000016684957, 0.0000000000000018137512, -0.006721425, -372716.28, -29641.09, 0.0, 10.0, 9.995782 
4.5e+1, 2.7498794e+2, -274660.0, -306490.22, -0.0000000000055403763, 0.0000000000000014099165, -0.008140607, -274660.0, -29542.387, 0.0, 10.0, 9.995784 
4.5e+1, 2.8498176e+2, -207046.78, -271577.22, -0.00000000004740785, 0.0000000000000013314451, 0.008222219, -207046.78, -59866.484, 0.0, 10.0, 9.99146 
4.5e+1, 2.9497355e+2, -108955.31, -173477.47, -0.00000000004536043, 0.0000000000000015808734, 0.041641317, -108955.31, -59692.004, 0.0, 10.0, 9.991461 
4.5e+1, 3.049667e+2, -40549.945, -84219.12, -0.000000000028698136, 0.0000000000000018227958, 0.072680816, -40549.945, -40549.945, 0.0, 10.0, 9.994219 
4.5e+1, 3.149612e+2, -40558.387, -84236.65, -0.000000000034270715, 0.0000000000000020577755, 0.1006251, -40558.387, -40558.387, 0.0, 10.0, 9.994217 
5.5e+1, 1.2501717e+2, -1723632.6, -1732707.1, 0.000000000048043094, 0.0000000000000028518102, -0.063384145, -1723632.6, -8805.536, 0.0, 10.0, 9.998797 
5.5e+1, 1.3501623e+2, -1625670.1, -1634796.5, 0.00000000008669417, 0.0000000000000027533858, -0.03612581, -1625670.1, -8831.828, 0.0, 10.0, 9.998791 
5.5e+1, 1.4501473e+2, -1537081.5, -1556140.8, -0.000000000009366394, 0.0000000000000026632395, 0.0011270263, -1537081.5, -18225.707, 0.0, 10.0, 9.997475 
5.5e+1, 1.5501268e+2, -1439073.0, -1458149.4, -0.0000000001099643, 0.0000000000000025767767, 0.047660526, -1439073.0, -18193.332, 0.0, 10.0, 9.997473 
5.5e+1, 1.6501072e+2, -1336450.4, -1350666.9, 0.000000000033199717, 0.0000000000000027293705, 0.07340378, -1336450.4, -13549.706, 0.0, 10.0, 9.9981165 
5.5e+1, 1.750089e+2, -1238448.5, -1252682.5, 0.000000000028210375, 0.0000000000000031153838, 0.078109026, -1238448.5, -13529.584, 0.0, 10.0, 9.998114 
5.5e+1, 1.8500713e+2, -1135894.5, -1145321.5, -0.000000000013124578, 0.0000000000000035844855, 0.05762654, -1135894.5, -8960.126, 0.0, 10.0, 9.998751 
5.5e+1, 1.9500542e+2, -1037897.25, -1047340.1, 0.000000000017805441, 0.0000000000000041347532, 0.011520169, -1037897.25, -8949.978, 0.0, 10.0, 9.998749 
5.5e+1, 2.0500365e+2, -939846.25, -949247.94, 0.00000000009670454, 0.0000000000000043097045, -0.0410282, -939846.25, -8885.576, 0.0, 10.0, 9.998754 
5.5e+1, 2.150018e+2, -841857.0, -851283.2, 0.0000000000978281, 0.0000000000000041118634, -0.10047368, -841857.0, -8882.356, 0.0, 10.0, 9.998751 
5.5e+1, 2.2500023e+2, -745520.3, -756732.3, -0.000000000033019375, 0.000000000000004032683, -0.120292485, -745520.3, -10531.964, 0.0, 10.0, 9.998514 
5.5e+1, 2.3499894e+2, -647533.6, -658775.25, -0.0000000000832845, 0.0000000000000040730295, -0.101004004, -647533.6, -10531.712, 0.0, 10.0, 9.99851 
5.5e+1, 2.449973e+2, -556136.9, -574451.1, -0.000000000015926246, 0.000000000000004177644, -0.069931366, -556136.9, -17116.916, 0.0, 10.0, 9.997574 
5.5e+1, 2.549953e+2, -458128.13, -476458.4, -0.0000000000120358706, 0.0000000000000043433757, -0.027520262, -458128.13, -17085.479, 0.0, 10.0, 9.997571 
5.5e+1, 2.6499218e+2, -372716.28, -404562.53, 0.000000000049601757, 0.000000000000004218944, -0.006721425, -372716.28, -29641.09, 0.0, 10.0, 9.995782 
5.5e+1, 2.7498794e+2, -274660.0, -306490.22, 0.0000000000276479, 0.0000000000000038057944, -0.008140607, -274660.0, -29542.387, 0.0, 10.0, 9.995784 
5.5e+1, 2.8498176e+2, -207046.78, -271577.22, -0.000000000045473042, 0.0000000000000035145989, 0.008222219, -207046.78, -59866.484, 0.0, 10.0, 9.99146 
5.5e+1, 2.9497355e+2, -108955.31, -173477.47, -0.00000000004414222, 0.0000000000000033433377, 0.041641317, -108955.31, -59692.004, 0.0, 10.0, 9.991461 
5.5e+1, 3.049667e+2, -40549.945, -84219.12, -0.000000000017385914, 0.00000000000000355625, 0.072680816, -40549.945, -40549.945, 0.0, 10.0, 9.994219 
5.5e+1, 3.149612e+2, -40558.387, -84236.65, -0.000000000020458368, 0.0000000000000041599944, 0.1006251, -40558.387, -40558.387, 0.0, 10.0, 9.994217 
6.5e+1, 1.2501717e+2, -1723632.6, -1732707.1, 0.00000000032385739, 0.000000000000007070297, -0.063384145, -1723632.6, -8805.536, 0.0, 10.0, 9.998797 
6.5e+1, 1.3501623e+2, -1625670.1, -1634796.5, 0.00000000021267084, 0.000000000000006698185, -0.03612581, -1625670.1, -8831.828, 0.0, 10.0, 9.998791 
6.5e+1, 1.4501473e+2, -1537081.5, -1556140.8, 0.000000000019305718, 0.0000000000000067664227, 0.0011270263, -1537081.5, -18225.707, 0.0, 10.0, 9.997475 
6.5e+1, 1.5501268e+2, -1439073.0, -1458149.4, -0.00000000005360288, 0.000000000000007275553, 0.047660526, -1439073.0, -18193.332, 0.0, 10.0, 9.997473 
6.5e+1, 1.6501072e+2, -1336450.4, -1350666.9, 0.00000000018466496, 0.000000000000007781922, 0.07340378, -1336450.4, -13549.706, 0.0, 10.0, 9.9981165 
6.5e+1, 1.750089e+2, -1238448.5, -1252682.5, 0.00000000020456205, 0.0000000000000082737916, 0.078109026, -1238448.5, -13529.584, 0.0, 10.0, 9.998114 
6.5e+1, 1.8500713e+2, -1135894.5, -1145321.5, 0.000000000064876125, 0.0000000000000087177436, 0.05762654, -1135894.5, -8960.126, 0.0, 10.0, 9.998751 
6.5e+1, 1.9500542e+2, -1037897.25, -1047340.1, 0.000000000048263508, 0.000000000000009114618, 0.011520169, -1037897.25, -8949.978, 0.0, 10.0, 9.998749 
6.5e+1, 2.0500365e+2, -939846.25, -949247.94, 0.00000000015101123, 0.00000000000000944385, -0.0410282, -939846.25, -8885.576, 0.0, 10.0, 9.998754 
6.5e+1, 2.150018e+2, -841857.0, -851283.2, 0.00000000011710792, 0.0000000000000097053865, -0.10047368, -841857.0, -8882.356, 0.0, 10.0, 9.998751 
6.5e+1, 2.2500023e+2, -745520.3, -756732.3, -0.00000000003630827, 0.0000000000000098728255, -0.120292485, -745520.3, -10531.964, 0.0, 10.0, 9.998514 
6.5e+1, 2.3499894e+2, -647533.6, -658775.25, -0.00000000003924887, 0.000000000000009949853, -0.101004004, -647533.6, -10531.712, 0.0, 10.0, 9.99851 
6.5e+1, 2.449973e+2, -556136.9, -574451.1, -0.000000000024714347, 0.0000000000000100777236, -0.069931366, -556136.9, -17116.916, 0.0, 10.0, 9.997574 
6.5e+1, 2.549953e+2, -458128.13, -476458.4, -0.00000000007135575, 0.00000000000001025293, -0.027520262, -458128.13, -17085.479, 0.0, 10.0, 9.997571 
6.5e+1, 2.6499218e+2, -372716.28, -404562.53, 0.0000000000031714783, 0.000000000000010151412, -0.006721425, -372716.28, -29641.09, 0.0, 10.0, 9.995782 
6.5e+1, 2.7498794e+2, -274660.0, -306490.22, -0.000000000012117404, 0.000000000000009774985, -0.008140607, -274660.0, -29542.387, 0.0, 10.0, 9.995784 
6.5e+1, 2.8498176e+2, -207046.78, -271577.22, -0.00000000012081784, 0.000000000000009376558, 0.008222219, -207046.78, -59866.484, 0.0, 10.0, 9.99146 
6.5e+1, 2.9497355e+2, -108955.31, -173477.47, -0.000000000187154, 0.000000000000008952367, 0.041641317, -108955.31, -59692.004, 0.0, 10.0, 9.991461 
6.5e+1, 3.049667e+2, -40549.945, -84219.12, -0.00000000022810596, 0.000000000000009265375, 0.072680816, -40549.945, -40549.945, 0.0, 10.0, 9.994219 
6.5e+1, 3.149612e+2, -40558.387, -84236.65, -0.00000000035715417, 0.000000000000010327316, 0.1006251, -40558.387, -40558.387, 0.0, 10.0, 9.994217 
7.5e+1, 1.2501717e+2, -1723632.6, -1732707.1, 0.00000000037656517, 0.000000000000014175484, -0.063384145, -1723632.6, -8805.536, 0.0, 10.0, 9.998797 
7.5e+1, 1.3501623e+2, -1625670.1, -1634796.5, 0.00000000026795377, 0.000000000000013031087, -0.03612581, -1625670.1, -8831.828, 0.0, 10.0, 9.998791 
7.5e+1, 1.4501473e+2, -1537081.5, -1556140.8, 0.00000000011035566, 0.000000000000013270063, 0.0011270263, -1537081.5, -18225.707, 0.0, 10.0, 9.997475 
7.5e+1, 1.5501268e+2, -1439073.0, -1458149.4, 0.000000000038435016, 0.00000000000001488821, 0.047660526, -1439073.0, -18193.332, 0.0, 10.0, 9.997473 
7.5e+1, 1.6501072e+2, -1336450.4, -1350666.9, 0.00000000015108992, 0.000000000000016032118, 0.07340378, -1336450.4, -13549.706, 0.0, 10.0, 9.9981165 
7.5e+1, 1.750089e+2, -1238448.5, -1252682.5, 0.00000000017708525, 0.000000000000016697183, 0.078109026, -1238448.5, -13529.584, 0.0, 10.0, 9.998114 
7.5e+1, 1.8500713e+2, -1135894.5, -1145321.5, 0.00000000010237528, 0.000000000000017216078, 0.05762654, -1135894.5, -8960.126, 0.0, 10.0, 9.998751 
7.5e+1, 1.9500542e+2, -1037897.25, -1047340.1, 0.00000000008974325, 0.000000000000017588168, 0.011520169, -1037897.25, -8949.978, 0.0, 10.0, 9.998749 
7.5e+1, 2.0500365e+2, -939846.25, -949247.94, 0.00000000017440537, 0.000000000000018090762, -0.0410282, -939846.25, -8885.576, 0.0, 10.0, 9.998754 
7.5e+1, 2.150018e+2, -841857.0, -851283.2, 0.00000000014408508, 0.000000000000018722325, -0.10047368, -841857.0, -8882.356, 0.0, 10.0, 9.998751 
7.5e+1, 2.2500023e+2, -745520.3, -756732.3, 0.00000000005939191, 0.000000000000019312924, -0.120292485, -745520.3, -10531.964, 0.0, 10.0, 9.998514 
7.5e+1, 2.3499894e+2, -647533.6, -658775.25, 0.00000000006014507, 0.000000000000019865659, -0.101004004, -647533.6, -10531.712, 0.0, 10.0, 9.99851 
7.5e+1, 2.449973e+2, -556136.9, -574451.1, -0.000000000053167575, 0.000000000000020046385, -0.069931366, -556136.9, -17116.916, 0.0, 10.0, 9.997574 
7.5e+1, 2.549953e+2, -458128.13, -476458.4, -0.000000000097069304, 0.000000000000019854166, -0.027520262, -458128.13, -17085.479, 0.0, 10.0, 9.997571 
7.5e+1, 2.6499218e+2, -372716.28, -404562.53, -0.00000000004542652, 0.000000000000019611154, -0.006721425, -372716.28, -29641.09, 0.0, 10.0, 9.995782 
7.5e+1, 2.7498794e+2, -274660.0, -306490.22, -0.00000000005972858, 0.000000000000019317488, -0.008140607, -274660.0, -29542.387, 0.0, 10.0, 9.995784 
7.5e+1, 2.8498176e+2, -207046.78, -271577.22, -0.00000000013685421, 0.000000000000018917322, 0.008222219, -207046.78, -59866.484, 0.0, 10.0, 9.99146 
7.5e+1, 2.9497355e+2, -108955.31, -173477.47, -0.00000000020910226, 0.00000000000001840796, 0.041641317, -108955.31, -59692.004, 0.0, 10.0, 9.991461 
7.5e+1, 3.049667e+2, -40549.945, -84219.12, -0.0000000002015618, 0.000000000000018950172, 0.072680816, -40549.945, -40549.945, 0.0, 10.0, 9.994219 
7.5e+1, 3.149612e+2, -40558.387, -84236.65, -0.00000000033439426, 0.000000000000020559743, 0.1006251, -40558.387, -40558.387, 0.0, 10.0, 9.994217 
8.5e+1, 1.2501717e+2, -1723632.6, -1732707.1, 0.0000000013578912, 0.00000000000003392543, -0.063384145, -1723632.6, -8805.536, 0.0, 10.0, 9.998797 
8.5e+1, 1.3501623e+2, -1625670.1, -1634796.5, 0.0000000009818033, 0.000000000000031755103, -0.03612581, -1625670.1, -8831.828, 0.0, 10.0, 9.998791 
8.5e+1, 1.4501473e+2, -1537081.5, -1556140.8, 0.0000000007986859, 0.000000000000032210654, 0.0011270263, -1537081.5, -18225.707, 0.0, 10.0, 9.997475 
8.5e+1, 1.5501268e+2, -1439073.0, -1458149.4, 0.0000000006848071, 0.00000000000003528324, 0.047660526, -1439073.0, -18193.332, 0.0, 10.0, 9.997473 
8.5e+1, 1.6501072e+2, -1336450.4, -1350666.9, 0.00000000074731016, 0.000000000000037741213, 0.07340378, -1336450.4, -13549.706, 0.0, 10.0, 9.9981165 
8.5e+1, 1.750089e+2, -1238448.5, -1252682.5, 0.00000000073594086, 0.000000000000039582114, 0.078109026, -1238448.5, -13529.584, 0.0, 10.0, 9.998114 
8.5e+1, 1.8500713e+2, -1135894.5, -1145321.5, 0.0000000006282663, 0.000000000000041223003, 0.05762654, -1135894.5, -8960.126, 0.0, 10.0, 9.998751 
8.5e+1, 1.9500542e+2, -1037897.25, -1047340.1, 0.0000000005067367, 0.00000000000004266242, 0.011520169, -1037897.25, -8949.978, 0.0, 10.0, 9.998749 
8.5e+1, 2.0500365e+2, -939846.25, -949247.94, 0.00000000044802984, 0.000000000000044297028, -0.0410282, -939846.25, -8885.576, 0.0, 10.0, 9.998754 
8.5e+1, 2.150018e+2, -841857.0, -851283.2, 0.00000000038960826, 0.000000000000046126206, -0.10047368, -841857.0, -8882.356, 0.0, 10.0, 9.998751 
8.5e+1, 2.2500023e+2, -745520.3, -756732.3, 0.00000000030523803, 0.00000000000004751582, -0.120292485, -745520.3, -10531.964, 0.0, 10.0, 9.998514 
8.5e+1, 2.3499894e+2, -647533.6, -658775.25, 0.00000000027778108, 0.000000000000048469217, -0.101004004, -647533.6, -10531.712, 0.0, 10.0, 9.99851 
8.5e+1, 2.449973e+2, -556136.9, -574451.1, -0.0000000000064562774, 0.00000000000004886042, -0.069931366, -556136.9, -17116.916, 0.0, 10.0, 9.997574 
8.5e+1, 2.549953e+2, -458128.13, -476458.4, -0.00000000010711606, 0.000000000000048688982, -0.027520262, -458128.13, -17085.479, 0.0, 10.0, 9.997571 
8.5e+1, 2.6499218e+2, -372716.28, -404562.53, -0.00000000019795422, 0.000000000000048188097, -0.006721425, -372716.28, -29641.09, 0.0, 10.0, 9.995782 
8.5e+1, 2.7498794e+2, -274660.0, -306490.22, -0.00000000032764075, 0.00000000000004735702, -0.008140607, -274660.0, -29542.387, 0.0, 10.0, 9.995784 
8.5e+1, 2.8498176e+2, -207046.78, -271577.22, -0.0000000005388484, 0.00000000000004635535, 0.008222219, -207046.78, -59866.484, 0.0, 10.0, 9.99146 
8.5e+1, 2.9497355e+2, -108955.31, -173477.47, -0.00000000085835733, 0.00000000000004518106, 0.041641317, -108955.31, -59692.004, 0.0, 10.0, 9.991461 
8.5e+1, 3.049667e+2, -40549.945, -84219.12, -0.0000000011255818, 0.000000000000046389243, 0.072680816, -40549.945, -40549.945, 0.0, 10.0, 9.994219 
8.5e+1, 3.149612e+2, -40558.387, -84236.65, -0.0000000017368004, 0.00000000000005001255, 0.1006251, -40558.387, -40558.387, 0.0, 10.0, 9.994217 
9.5e+1, 1.2501717e+2, -1723632.6, -1732707.1, 0.0000000012843101, 0.000000000000066320145, -0.063384145, -1723632.6, -8805.536, 0.0, 10.0, 9.998797 
9.5e+1, 1.3501623e+2, -1625670.1, -1634796.5, 0.0000000009047407, 0.00000000000006287023, -0.03612581, -1625670.1, -8831.828, 0.0, 10.0, 9.998791 
9.5e+1, 1.4501473e+2, -1537081.5, -1556140.8, 0.0000000009528094, 0.0000000000000635882, 0.0011270263, -1537081.5, -18225.707, 0.0, 10.0, 9.997475 
9.5e+1, 1.5501268e+2, -1439073.0, -1458149.4, 0.0000000008478865, 0.00000000000006846064, 0.047660526, -1439073.0, -18193.332, 0.0, 10.0, 9.997473 
9.5e+1, 1.6501072e+2, -1336450.4, -1350666.9, 0.0000000010223996, 0.000000000000072909215, 0.07340378, -1336450.4, -13549.706, 0.0, 10.0, 9.9981165 
9.5e+1, 1.750089e+2, -1238448.5, -1252682.5, 0.0000000010107087, 0.00000000000007692859, 0.078109026, -1238448.5, -13529.584, 0.0, 10.0, 9.998114 
9.5e+1, 1.8500713e+2, -1135894.5, -1145321.5, 0.00000000092676344, 0.00000000000008073851, 0.05762654, -1135894.5, -8960.126, 0.0, 10.0, 9.998751 
9.5e+1, 1.9500542e+2, -1037897.25, -1047340.1, 0.0000000008061823, 0.000000000000084337376, 0.011520169, -1037897.25, -8949.978, 0.0, 10.0, 9.998749 
9.5e+1, 2.0500365e+2, -939846.25, -949247.94, 0.0000000005849942, 0.00000000000008806265, -0.0410282, -939846.25, -8885.576, 0.0, 10.0, 9.998754 
9.5e+1, 2.150018e+2, -841857.0, -851283.2, 0.00000000052767846, 0.000000000000091917034, -0.10047368, -841857.0, -8882.356, 0.0, 10.0, 9.998751 
9.5e+1, 2.2500023e+2, -745520.3, -756732.3, 0.00000000042877363, 0.00000000000009448152, -0.120292485, -745520.3, -10531.964, 0.0, 10.0, 9.998514 
9.5e+1, 2.3499894e+2, -647533.6, -658775.25, 0.00000000039712697, 0.00000000000009576053, -0.101004004, -647533.6, -10531.712, 0.0, 10.0, 9.99851 
9.5e+1, 2.449973e+2, -556136.9, -574451.1, -0.000000000016995365, 0.00000000000009651984, -0.069931366, -556136.9, -17116.916, 0.0, 10.0, 9.997574 
9.5e+1, 2.549953e+2, -458128.13, -476458.4, -0.00000000012216617, 0.00000000000009675738, -0.027520262, -458128.13, -17085.479, 0.0, 10.0, 9.997571 
9.5e+1, 2.6499218e+2, -372716.28, -404562.53, -0.0000000003011667, 0.00000000000009588224, -0.006721425, -372716.28, -29641.09, 0.0, 10.0, 9.995782 
9.5e+1, 2.7498794e+2, -274660.0, -306490.22, -0.00000000042821988, 0.00000000000009389358, -0.008140607, -274660.0, -29542.387, 0.0, 10.0, 9.995784 
9.5e+1, 2.8498176e+2, -207046.78, -271577.22, -0.0000000005563435, 0.00000000000009169064, 0.008222219, -207046.78, -59866.484, 0.0, 10.0, 9.99146 
9.5e+1, 2.9497355e+2, -108955.31, -173477.47, -0.00000000087582175, 0.00000000000008927167, 0.041641317, -108955.31, -59692.004, 0.0, 10.0, 9.991461 
9.5e+1, 3.049667e+2, -40549.945, -84219.12, -0.0000000010026854, 0.00000000000009158259, 0.072680816, -40549.945, -40549.945, 0.0, 10.0, 9.994219 
9.5e+1, 3.149612e+2, -40558.387, -84236.65, -0.0000000016131038, 0.00000000000009868574, 0.1006251, -40558.387, -40558.387, 0.0, 10.0, 9.994217 
1.05e+2, 1.2501717e+2, -1723632.6, -1732707.1, 0.0000000063424093, 0.00000000000016010236, -0.063384145, -1723632.6, -8805.536, 0.0, 10.0, 9.998797 
1.05e+2, 1.3501623e+2, -1625670.1, -1634796.5, 0.0000000046303095, 0.00000000000015119137, -0.03612581, -1625670.1, -8831.828, 0.0, 10.0, 9.998791 
1.05e+2, 1.4501473e+2, -1537081.5, -1556140.8, 0.0000000042774344, 0.00000000000015182109, 0.0011270263, -1537081.5, -18225.707, 0.0, 10.0, 9.997475 
1.05e+2, 1.5501268e+2, -1439073.0, -1458149.4, 0.0000000034207248, 0.0000000000001619431, 0.047660526, -1439073.0, -18193.332, 0.0, 10.0, 9.997473 
1.05e+2, 1.6501072e+2, -1336450.4, -1350666.9, 0.0000000034735068, 0.00000000000017234358, 0.07340378, -1336450.4, -13549.706, 0.0, 10.0, 9.9981165 
1.05e+2, 1.750089e+2, -1238448.5, -1252682.5, 0.0000000032364627, 0.00000000000018301144, 0.078109026, -1238448.5, -13529.584, 0.0, 10.0, 9.998114 
1.05e+2, 1.8500713e+2, -1135894.5, -1145321.5, 0.0000000029857135, 0.00000000000019338581, 0.05762654, -1135894.5, -8960.126, 0.0, 10.0, 9.998751 
1.05e+2, 1.9500542e+2, -1037897.25, -1047340.1, 0.0000000028856924, 0.0000000000002034664, 0.011520169, -1037897.25, -8949.978, 0.0, 10.0, 9.998749 
1.05e+2, 2.0500365e+2, -939846.25, -949247.94, 0.00000000234818, 0.00000000000021238573, -0.0410282, -939846.25, -8885.576, 0.0, 10.0, 9.998754 
1.05e+2, 2.150018e+2, -841857.0, -851283.2, 0.0000000020491793, 0.00000000000022014931, -0.10047368, -841857.0, -8882.356, 0.0, 10.0, 9.998751 
1.05e+2, 2.2500023e+2, -745520.3, -756732.3, 0.0000000014337431, 0.0000000000002258605, -0.120292485, -745520.3, -10531.964, 0.0, 10.0, 9.998514 
1.05e+2, 2.3499894e+2, -647533.6, -658775.25, 0.0000000011148666, 0.00000000000022952378, -0.101004004, -647533.6, -10531.712, 0.0, 10.0, 9.99851 
1.05e+2, 2.449973e+2, -556136.9, -574451.1, 0.00000000015095121, 0.00000000000023148557, -0.069931366, -556136.9, -17116.916, 0.0, 10.0, 9.997574 
1.05e+2, 2.549953e+2, -458128.13, -476458.4, -0.00000000032015518, 0.00000000000023174559, -0.027520262, -458128.13, -17085.479, 0.0, 10.0, 9.997571 
1.05e+2, 2.6499218e+2, -372716.28, -404562.53, -0.0000000012137767, 0.0000000000002296483, -0.006721425, -372716.28, -29641.09, 0.0, 10.0, 9.995782 
1.05e+2, 2.7498794e+2, -274660.0, -306490.22, -0.0000000017778099, 0.00000000000022518837, -0.008140607, -274660.0, -29542.387, 0.0, 10.0, 9.995784 
1.05e+2, 2.8498176e+2, -207046.78, -271577.22, -0.0000000025630846, 0.00000000000022010788, 0.008222219, -207046.78, -59866.484, 0.0, 10.0, 9.99146 
1.05e+2, 2.9497355e+2, -108955.31, -173477.47, -0.0000000040998622, 0.00000000000021440404, 0.041641317, -108955.31, -59692.004, 0.0, 10.0, 9.991461 
1.05e+2, 3.049667e+2, -40549.945, -84219.12, -0.0000000055061418, 0.0000000000002196906, 0.072680816, -40549.945, -40549.945, 0.0, 10.0, 9.994219 
1.05e+2, 3.149612e+2, -40558.387, -84236.65, -0.000000008377249, 0.00000000000023611232, 0.1006251, -40558.387, -40558.387, 0.0, 10.0, 9.994217 
1.15e+2, 1.2501717e+2, -1723632.6, -1732707.1, 0.000000006006128, 0.00000000000031527211, -0.063384145, -1723632.6, -8805.536, 0.0, 10.0, 9.998797 
1.15e+2, 1.3501623e+2, -1625670.1, -1634796.5, 0.000000004298937, 0.00000000000029671851, -0.03612581, -1625670.1, -8831.828, 0.0, 10.0, 9.998791 
1.15e+2, 1.4501473e+2, -1537081.5, -1556140.8, 0.0000000050051483, 0.00000000000029690933, 0.0011270263, -1537081.5, -18225.707, 0.0, 10.0, 9.997475 
1.15e+2, 1.5501268e+2, -1439073.0, -1458149.4, 0.000000004142246, 0.00000000000031573065, 0.047660526, -1439073.0, -18193.332, 0.0, 10.0, 9.997473 
1.15e+2, 1.6501072e+2, -1336450.4, -1350666.9, 0.0000000047676294, 0.00000000000033604434, 0.07340378, -1336450.4, -13549.706, 0.0, 10.0, 9.9981165 
1.15e+2, 1.750089e+2, -1238448.5, -1252682.5, 0.000000004531547, 0.00000000000035783068, 0.078109026, -1238448.5, -13529.584, 0.0, 10.0, 9.998114 
1.15e+2, 1.8500713e+2, -1135894.5, -1145321.5, 0.0000000041119566, 0.0000000000003791649, 0.05762654, -1135894.5, -8960.126, 0.0, 10.0, 9.998751 
1.15e+2, 1.9500542e+2, -1037897.25, -1047340.1, 0.000000004008877, 0.00000000000040004946, 0.011520169, -1037897.25, -8949.978, 0.0, 10.0, 9.998749 
1.15e+2, 2.0500365e+2, -939846.25, -949247.94, 0.0000000032192062, 0.0000000000004172663, -0.0410282, -939846.25, -8885.576, 0.0, 10.0, 9.998754 
1.15e+2, 2.150018e+2, -841857.0, -851283.2, 0.000000002920383, 0.00000000000043082305, -0.10047368, -841857.0, -8882.356, 0.0, 10.0, 9.998751 
1.15e+2, 2.2500023e+2, -745520.3, -756732.3, 0.0000000018069661, 0.00000000000044165276, -0.120292485, -745520.3, -10531.964, 0.0, 10.0, 9.998514 
1.15e+2, 2.3499894e+2, -647533.6, -658775.25, 0.0000000014860871, 0.00000000000044975902, -0.101004004, -647533.6, -10531.712, 0.0, 10.0, 9.99851 
1.15e+2, 2.449973e+2, -556136.9, -574451.1, 0.00000000024436309, 0.0000000000004537576, -0.069931366, -556136.9, -17116.916, 0.0, 10.0, 9.997574 
1.15e+2, 2.549953e+2, -458128.13, -476458.4, -0.00000000022773505, 0.00000000000045365358, -0.027520262, -458128.13, -17085.479, 0.0, 10.0, 9.997571 
1.15e+2, 2.6499218e+2, -372716.28, -404562.53, -0.0000000016103378, 0.0000000000004494863, -0.006721425, -372716.28, -29641.09, 0.0, 10.0, 9.995782 
1.15e+2, 2.7498794e+2, -274660.0, -306490.22, -0.0000000021822908, 0.0000000000004412414, -0.008140607, -274660.0, -29542.387, 0.0, 10.0, 9.995784 
1.15e+2, 2.8498176e+2, -207046.78, -271577.22, -0.0000000027054823, 0.00000000000043160706, 0.008222219, -207046.78, -59866.484, 0.0, 10.0, 9.99146 
1.15e+2, 2.9497355e+2, -108955.31, -173477.47, -0.0000000042507464, 0.0000000000004205782, 0.041641317, -108955.31, -59692.004, 0.0, 10.0, 9.991461 
1.15e+2, 3.049667e+2, -40549.945, -84219.12, -0.000000004843009, 0.00000000000043071327, 0.072680816, -40549.945, -40549.945, 0.0, 10.0, 9.994219 
1.15e+2, 3.149612e+2, -40558.387, -84236.65, -0.000000007705984, 0.00000000000046229226, 0.1006251, -40558.387, -40558.387, 0.0, 10.0, 9.994217 
1.25e+2, 1.2501717e+2, -1723632.6, -1732707.1, 0.000000029680217, 0.00000000000073512783, -0.063384145, -1723632.6, -8805.536, 0.0, 10.0, 9.998797 
1.25e+2, 1.3501623e+2, -1625670.1, -1634796.5, 0.000000021502684, 0.000000000000691315, -0.03612581, -1625670.1, -8831.828, 0.0, 10.0, 9.998791 
1.25e+2, 1.4501473e+2, -1537081.5, -1556140.8, 0.000000020335905, 0.0000000000006921575, 0.0011270263, -1537081.5, -18225.707, 0.0, 10.0, 9.997475 
1.25e+2, 1.5501268e+2, -1439073.0, -1458149.4, 0.000000016593372, 0.0000000000007373669, 0.047660526, -1439073.0, -18193.332, 0.0, 10.0, 9.997473 
1.25e+2, 1.6501072e+2, -1336450.4, -1350666.9, 0.000000016780396, 0.00000000000078553207, 0.07340378, -1336450.4, -13549.706, 0.0, 10.0, 9.9981165 
1.25e+2, 1.750089e+2, -1238448.5, -1252682.5, 0.000000015810283, 0.0000000000008366294, 0.078109026, -1238448.5, -13529.584, 0.0, 10.0, 9.998114 
1.25e+2, 1.8500713e+2, -1135894.5, -1145321.5, 0.000000014408986, 0.0000000000008867396, 0.05762654, -1135894.5, -8960.126, 0.0, 10.0, 9.998751 
1.25e+2, 1.9500542e+2, -1037897.25, -1047340.1, 0.000000013548212, 0.0000000000009358678, 0.011520169, -1037897.25, -8949.978, 0.0, 10.0, 9.998749 
1.25e+2, 2.0500365e+2, -939846.25, -949247.94, 0.0000000111224105, 0.0000000000009769655, -0.0410282, -939846.25, -8885.576, 0.0, 10.0, 9.998754 
1.25e+2, 2.150018e+2, -841857.0, -851283.2, 0.00000000988543, 0.0000000000010100489, -0.10047368, -841857.0, -8882.356, 0.0, 10.0, 9.998751 
1.25e+2, 2.2500023e+2, -745520.3, -756732.3, 0.0000000065572703, 0.0000000000010363313, -0.120292485, -745520.3, -10531.964, 0.0, 10.0, 9.998514 
1.25e+2, 2.3499894e+2, -647533.6, -658775.25, 0.0000000049343067, 0.0000000000010558233, -0.101004004, -647533.6, -10531.712, 0.0, 10.0, 9.99851 
1.25e+2, 2.449973e+2, -556136.9, -574451.1, 0.0000000010300024, 0.0000000000010654927, -0.069931366, -556136.9, -17116.916, 0.0, 10.0, 9.997574 
1.25e+2, 2.549953e+2, -458128.13, -476458.4, -0.0000000010706768, 0.0000000000010653467, -0.027520262, -458128.13, -17085.479, 0.0, 10.0, 9.997571 
1.25e+2, 2.6499218e+2, -372716.28, -404562.53, -0.0000000055845826, 0.0000000000010555805, -0.006721425, -372716.28, -29641.09, 0.0, 10.0, 9.995782 
1.25e+2, 2.7498794e+2, -274660.0, -306490.22, -0.000000008357829, 0.0000000000010361677, -0.008140607, -274660.0, -29542.387, 0.0, 10.0, 9.995784 
1.25e+2, 2.8498176e+2, -207046.78, -271577.22, -0.0000000120607115, 0.0000000000010135488, 0.008222219, -207046.78, -59866.484, 0.0, 10.0, 9.99146 
1.25e+2, 2.9497355e+2, -108955.31, -173477.47, -0.000000019214376, 0.0000000000009877067, 0.041641317, -108955.31, -59692.004, 0.0, 10.0, 9.991461 
1.25e+2, 3.049667e+2, -40549.945, -84219.12, -0.000000025550435, 0.0000000000010122423, 0.072680816, -40549.945, -40549.945, 0.0, 10.0, 9.994219 
1.25e+2, 3.149612e+2, -40558.387, -84236.65, -0.000000038890445, 0.0000000000010878266, 0.1006251, -40558.387, -40558.387, 0.0, 10.0, 9.994217 
1.35e+2, 1.2501717e+2, -1723632.6, -1732707.1, 0.000000028602816, 0.0000000000014196696, -0.063384145, -1723632.6, -8805.536, 0.0, 10.0, 9.998797 
1.35e+2, 1.3501623e+2, -1625670.1, -1634796.5, 0.000000020423952, 0.0000000000013349808, -0.03612581, -1625670.1, -8831.828, 0.0, 10.0, 9.998791 
1.35e+2, 1.4501473e+2, -1537081.5, -1556140.8, 0.000000023803405, 0.0000000000013375656, 0.0011270263, -1537081.5, -18225.707, 0.0, 10.0, 9.997475 
1.35e+2, 1.5501268e+2, -1439073.0, -1458149.4, 0.000000020063794, 0.0000000000014268517, 0.047660526, -1439073.0, -18193.332, 0.0, 10.0, 9.997473 
1.35e+2, 1.6501072e+2, -1336450.4, -1350666.9, 0.000000022404885, 0.0000000000015208068, 0.07340378, -1336450.4, -13549.706, 0.0, 10.0, 9.9981165 
1.35e+2, 1.750089e+2, -1238448.5, -1252682.5, 0.000000021439634, 0.0000000000016194075, 0.078109026, -1238448.5, -13529.584, 0.0, 10.0, 9.998114 
1.35e+2, 1.8500713e+2, -1135894.5, -1145321.5, 0.000000019725803, 0.0000000000017161098, 0.05762654, -1135894.5, -8960.126, 0.0, 10.0, 9.998751 
1.35e+2, 1.9500542e+2, -1037897.25, -1047340.1, 0.000000018869057, 0.0000000000018109215, 0.011520169, -1037897.25, -8949.978, 0.0, 10.0, 9.998749 
1.35e+2, 2.0500365e+2, -939846.25, -949247.94, 0.000000015118742, 0.0000000000018914833, -0.0410282, -939846.25, -8885.576, 0.0, 10.0, 9.998754 
1.35e+2, 2.150018e+2, -841857.0, -851283.2, 0.000000013880846, 0.000000000001957827, -0.10047368, -841857.0, -8882.356, 0.0, 10.0, 9.998751 
1.35e+2, 2.2500023e+2, -745520.3, -756732.3, 0.000000008863988, 0.000000000002009896, -0.120292485, -745520.3, -10531.964, 0.0, 10.0, 9.998514 
1.35e+2, 2.3499894e+2, -647533.6, -658775.25, 0.000000007242214, 0.0000000000020477166, -0.101004004, -647533.6, -10531.712, 0.0, 10.0, 9.99851 
1.35e+2, 2.449973e+2, -556136.9, -574451.1, 0.0000000012335198, 0.000000000002066691, -0.069931366, -556136.9, -17116.916, 0.0, 10.0, 9.997574 
1.35e+2, 2.549953e+2, -458128.13, -476458.4, -0.0000000008694782, 0.000000000002066825, -0.027520262, -458128.13, -17085.479, 0.0, 10.0, 9.997571 
1.35e+2, 2.6499218e+2, -372716.28, -404562.53, -0.000000007366077, 0.000000000002047931, -0.006721425, -372716.28, -29641.09, 0.0, 10.0, 9.995782 
1.35e+2, 2.7498794e+2, -274660.0, -306490.22, -0.000000010143481, 0.0000000000020099673, -0.008140607, -274660.0, -29542.387, 0.0, 10.0, 9.995784 
1.35e+2, 2.8498176e+2, -207046.78, -271577.22, -0.000000012610074, 0.0000000000019659333, 0.008222219, -207046.78, -59866.484, 0.0, 10.0, 9.99146 
1.35e+2, 2.9497355e+2, -108955.31, -173477.47, -0.00000001976264, 0.0000000000019157894, 0.041641317, -108955.31, -59692.004, 0.0, 10.0, 9.991461 
1.35e+2, 3.049667e+2, -40549.945, -84219.12, -0.000000022376494, 0.0000000000019642777, 0.072680816, -40549.945, -40549.945, 0.0, 10.0, 9.994219 
1.35e+2, 3.149612e+2, -40558.387, -84236.65, -0.00000003570194, 0.0000000000021127154, 0.1006251, -40558.387, -40558.387, 0.0, 10.0, 9.994217 
1.45e+2, 1.2501717e+2, -1723632.6, -1732707.1, 0.00000013229501, 0.0000000000032377458, -0.063384145, -1723632.6, -8805.536, 0.0, 10.0, 9.998797 
1.45e+2, 1.3501623e+2, -1625670.1, -1634796.5, 0.00000009628808, 0.0000000000030431961, -0.03612581, -1625670.1, -8831.828, 0.0, 10.0, 9.998791 
1.45e+2, 1.4501473e+2, -1537081.5, -1556140.8, 0.000000091990664, 0.0000000000030481889, 0.0011270263, -1537081.5, -18225.707, 0.0, 10.0, 9.997475 
1.45e+2, 1.5501268e+2, -1439073.0, -1458149.4, 0.00000007603237, 0.0000000000032514126, 0.047660526, -1439073.0, -18193.332, 0.0, 10.0, 9.997473 
1.45e+2, 1.6501072e+2, -1336450.4, -1350666.9, 0.0000000768918, 0.000000000003469472, 0.07340378, -1336450.4, -13549.706, 0.0, 10.0, 9.9981165 
1.45e+2, 1.750089e+2, -1238448.5, -1252682.5, 0.00000007281649, 0.000000000003702307, 0.078109026, -1238448.5, -13529.584, 0.0, 10.0, 9.998114 
1.45e+2, 1.8500713e+2, -1135894.5, -1145321.5, 0.000000066866434, 0.000000000003926106, 0.05762654, -1135894.5, -8960.126, 0.0, 10.0, 9.998751 
1.45e+2, 1.9500542e+2, -1037897.25, -1047340.1, 0.00000006273015, 0.000000000004140895, 0.011520169, -1037897.25, -8949.978, 0.0, 10.0, 9.998749 
1.45e+2, 2.0500365e+2, -939846.25, -949247.94, 0.000000051859658, 0.000000000004327886, -0.0410282, -939846.25, -8885.576, 0.0, 10.0, 9.998754 
1.45e+2, 2.150018e+2, -841857.0, -851283.2, 0.000000046224613, 0.0000000000044871433, -0.10047368, -841857.0, -8882.356, 0.0, 10.0, 9.998751 
1.45e+2, 2.2500023e+2, -745520.3, -756732.3, 0.00000003133119, 0.0000000000046111713, -0.120292485, -745520.3, -10531.964, 0.0, 10.0, 9.998514 
1.45e+2, 2.3499894e+2, -647533.6, -658775.25, 0.000000023848159, 0.000000000004700033, -0.101004004, -647533.6, -10531.712, 0.0, 10.0, 9.99851 
1.45e+2, 2.449973e+2, -556136.9, -574451.1, 0.000000005343594, 0.000000000004746193, -0.069931366, -556136.9, -17116.916, 0.0, 10.0, 9.997574 
1.45e+2, 2.549953e+2, -458128.13, -476458.4, -0.0000000043521515, 0.0000000000047496633, -0.027520262, -458128.13, -17085.479, 0.0, 10.0, 9.997571 
1.45e+2, 2.6499218e+2, -372716.28, -404562.53, -0.00000002489804, 0.000000000004708787, -0.006721425, -372716.28, -29641.09, 0.0, 10.0, 9.995782 
1.45e+2, 2.7498794e+2, -274660.0, -306490.22, -0.000000037431235, 0.0000000000046234696, -0.008140607, -274660.0, -29542.387, 0.0, 10.0, 9.995784 
1.45e+2, 2.8498176e+2, -207046.78, -271577.22, -0.00000005400077, 0.000000000004524098, 0.008222219, -207046.78, -59866.484, 0.0, 10.0, 9.99146 
1.45e+2, 2.9497355e+2, -108955.31, -173477.47, -0.00000008639508, 0.000000000004410582, 0.041641317, -108955.31, -59692.004, 0.0, 10.0, 9.991461 
1.45e+2, 3.049667e+2, -40549.945, -84219.12, -0.000000114725324, 0.0000000000045255336, 0.072680816, -40549.945, -40549.945, 0.0, 10.0, 9.994219 
1.45e+2, 3.149612e+2, -40558.387, -84236.65, -0.00000017473027, 0.0000000000048720108, 0.1006251, -40558.387, -40558.387, 0.0, 10.0, 9.994217 
1.55e+2, 1.2501717e+2, -1723632.6, -1732707.1, 0.00000012751109, 0.0000000000061893563, -0.063384145, -1723632.6, -8805.536, 0.0, 10.0, 9.998797 
1.55e+2, 1.3501623e+2, -1625670.1, -1634796.5, 0.000000091539704, 0.000000000005815961, -0.03612581, -1625670.1, -8831.828, 0.0, 10.0, 9.998791 
1.55e+2, 1.4501473e+2, -1537081.5, -1556140.8, 0.00000010734614, 0.0000000000058240275, 0.0011270263, -1537081.5, -18225.707, 0.0, 10.0, 9.997475 
1.55e+2, 1.5501268e+2, -1439073.0, -1458149.4, 0.00000009140095, 0.0000000000062110495, 0.047660526, -1439073.0, -18193.332, 0.0, 10.0, 9.997473 
1.55e+2, 1.6501072e+2, -1336450.4, -1350666.9, 0.00000010244586, 0.0000000000066315282, 0.07340378, -1336450.4, -13549.706, 0.0, 10.0, 9.9981165 
1.55e+2, 1.750089e+2, -1238448.5, -1252682.5, 0.000000098371615, 0.0000000000070853276, 0.078109026, -1238448.5, -13529.584, 0.0, 10.0, 9.998114 
1.55e+2, 1.8500713e+2, -1135894.5, -1145321.5, 0.000000090667136, 0.000000000007516728, 0.05762654, -1135894.5, -8960.126, 0.0, 10.0, 9.998751 
1.55e+2, 1.9500542e+2, -1037897.25, -1047340.1, 0.00000008652138, 0.0000000000079257885, 0.011520169, -1037897.25, -8949.978, 0.0, 10.0, 9.998749 
1.55e+2, 2.0500365e+2, -939846.25, -949247.94, 0.00000007041901, 0.000000000008286174, -0.0410282, -939846.25, -8885.576, 0.0, 10.0, 9.998754 
1.55e+2, 2.150018e+2, -841857.0, -851283.2, 0.0000000647792, 0.000000000008597998, -0.10047368, -841857.0, -8882.356, 0.0, 10.0, 9.998751 
1.55e+2, 2.2500023e+2, -745520.3, -756732.3, 0.00000004207122, 0.000000000008840157, -0.120292485, -745520.3, -10531.964, 0.0, 10.0, 9.998514 
1.55e+2, 2.3499894e+2, -647533.6, -658775.25, 0.00000003458269, 0.000000000009012772, -0.101004004, -647533.6, -10531.712, 0.0, 10.0, 9.99851 
1.55e+2, 2.449973e+2, -556136.9, -574451.1, 0.0000000066336305, 0.000000000009103999, -0.069931366, -556136.9, -17116.916, 0.0, 10.0, 9.997574 
1.55e+2, 2.549953e+2, -458128.13, -476458.4, -0.0000000030608251, 0.000000000009113862, -0.027520262, -458128.13, -17085.479, 0.0, 10.0, 9.997571 
1.55e+2, 2.6499218e+2, -372716.28, -404562.53, -0.000000032379656, 0.000000000009038149, -0.006721425, -372716.28, -29641.09, 0.0, 10.0, 9.995782 
1.55e+2, 2.7498794e+2, -274660.0, -306490.22, -0.00000004491302, 0.000000000008876675, -0.008140607, -274660.0, -29542.387, 0.0, 10.0, 9.995784 
1.55e+2, 2.8498176e+2, -207046.78, -271577.22, -0.00000005594477, 0.000000000008688043, 0.008222219, -207046.78, -59866.484, 0.0, 10.0, 9.99146 
1.55e+2, 2.9497355e+2, -108955.31, -173477.47, -0.00000008833585, 0.000000000008472085, 0.041641317, -108955.31, -59692.004, 0.0, 10.0, 9.991461 
1.55e+2, 3.049667e+2, -40549.945, -84219.12, -0.00000010004737, 0.000000000008696011, 0.072680816, -40549.945, -40549.945, 0.0, 10.0, 9.994219 
1.55e+2, 3.149612e+2, -40558.387, -84236.65, -0.0000001599885, 0.000000000009365713, 0.1006251, -40558.387, -40558.387, 0.0, 10.0, 9.994217 
1.65e+2, 1.2501717e+2, -1723632.6, -1732707.1, 0.0000005710771, 0.000000000013828933, -0.063384145, -1723632.6, -8805.536, 0.0, 10.0, 9.998797 
1.65e+2, 1.3501623e+2, -1625670.1, -1634796.5, 0.0000004181822, 0.000000000012983213, -0.03612581, -1625670.1, -8831.828, 0.0, 10.0, 9.998791 
1.65e+2, 1.4501473e+2, -1537081.5, -1556140.8, 0.00000040360925, 0.000000000013000221, 0.0011270263, -1537081.5, -18225.707, 0.0, 10.0, 9.997475 
1.65e+2, 1.5501268e+2, -1439073.0, -1458149.4, 0.00000033586537, 0.00000000001387432, 0.047660526, -1439073.0, -18193.332, 0.0, 10.0, 9.997473 
1.65e+2, 1.6501072e+2, -1336450.4, -1350666.9, 0.00000034268413, 0.000000000014827873, 0.07340378, -1336450.4, -13549.706, 0.0, 10.0, 9.9981165 
1.65e+2, 1.750089e+2, -1238448.5, -1252682.5, 0.00000032602682, 0.00000000001586054, 0.078109026, -1238448.5, -13529.584, 0.0, 10.0, 9.998114 
1.65e+2, 1.8500713e+2, -1135894.5, -1145321.5, 0.00000030014803, 0.00000000001684053, 0.05762654, -1135894.5, -8960.126, 0.0, 10.0, 9.998751 
1.65e+2, 1.9500542e+2, -1037897.25, -1047340.1, 0.00000028137532, 0.000000000017767983, 0.011520169, -1037897.25, -8949.978, 0.0, 10.0, 9.998749 
1.65e+2, 2.0500365e+2, -939846.25, -949247.94, 0.00000023460312, 0.000000000018590835, -0.0410282, -939846.25, -8885.576, 0.0, 10.0, 9.998754 
1.65e+2, 2.150018e+2, -841857.0, -851283.2, 0.00000020995085, 0.000000000019309332, -0.10047368, -841857.0, -8882.356, 0.0, 10.0, 9.998751 
1.65e+2, 2.2500023e+2, -745520.3, -756732.3, 0.0000001441796, 0.000000000019869509, -0.120292485, -745520.3, -10531.964, 0.0, 10.0, 9.998514 
1.65e+2, 2.3499894e+2, -647533.6, -658775.25, 0.00000011129977, 0.000000000020271647, -0.101004004, -647533.6, -10531.712, 0.0, 10.0, 9.99851 
1.65e+2, 2.449973e+2, -556136.9, -574451.1, 0.000000028757478, 0.00000000002048977, -0.069931366, -556136.9, -17116.916, 0.0, 10.0, 9.997574 
1.65e+2, 2.549953e+2, -458128.13, -476458.4, -0.0000000143719285, 0.000000000020523937, -0.027520262, -458128.13, -17085.479, 0.0, 10.0, 9.997571 
1.65e+2, 2.6499218e+2, -372716.28, -404562.53, -0.000000105646116, 0.000000000020364972, -0.006721425, -372716.28, -29641.09, 0.0, 10.0, 9.995782 
1.65e+2, 2.7498794e+2, -274660.0, -306490.22, -0.00000016157456, 0.00000000002001245, -0.008140607, -274660.0, -29542.387, 0.0, 10.0, 9.995784 
1.65e+2, 2.8498176e+2, -207046.78, -271577.22, -0.00000023423192, 0.000000000019596623, 0.008222219, -207046.78, -59866.484, 0.0, 10.0, 9.99146 
1.65e+2, 2.9497355e+2, -108955.31, -173477.47, -0.00000037623226, 0.000000000019117097, 0.041641317, -108955.31, -59692.004, 0.0, 10.0, 9.991461 
1.65e+2, 3.049667e+2, -40549.945, -84219.12, -0.0000004991641, 0.000000000019637868, 0.072680816, -40549.945, -40549.945, 0.0, 10.0, 9.994219 
1.65e+2, 3.149612e+2, -40558.387, -84236.65, -0.0000007613475, 0.00000000002117236, 0.1006251, -40558.387, -40558.387, 0.0, 10.0, 9.994217 
1.75e+2, 1.2501717e+2, -1723632.6, -1732707.1, 0.00000055004267, 0.000000000026156475, -0.063384145, -1723632.6, -8805.536, 0.0, 10.0, 9.998797 
1.75e+2, 1.3501623e+2, -1625670.1, -1634796.5, 0.00000039729665, 0.000000000024544953, -0.03612581, -1625670.1, -8831.828, 0.0, 10.0, 9.998791 
1.75e+2, 1.4501473e+2, -1537081.5, -1556140.8, 0.00000047036536, 0.000000000024576768, 0.0011270263, -1537081.5, -18225.707, 0.0, 10.0, 9.997475 
1.75e+2, 1.5501268e+2, -1439073.0, -1458149.4, 0.00000040266983, 0.000000000026241223, 0.047660526, -1439073.0, -18193.332, 0.0, 10.0, 9.997473 
1.75e+2, 1.6501072e+2, -1336450.4, -1350666.9, 0.00000045520426, 0.000000000028058505, 0.07340378, -1336450.4, -13549.706, 0.0, 10.0, 9.9981165 
1.75e+2, 1.750089e+2, -1238448.5, -1252682.5, 0.0000004385405, 0.000000000030027945, 0.078109026, -1238448.5, -13529.584, 0.0, 10.0, 9.998114 
1.75e+2, 1.8500713e+2, -1135894.5, -1145321.5, 0.00000040531228, 0.000000000031897512, 0.05762654, -1135894.5, -8960.126, 0.0, 10.0, 9.998751 
1.75e+2, 1.9500542e+2, -1037897.25, -1047340.1, 0.0000003865267, 0.000000000033667482, 0.011520169, -1037897.25, -8949.978, 0.0, 10.0, 9.998749 
1.75e+2, 2.0500365e+2, -939846.25, -949247.94, 0.00000031728936, 0.000000000035241872, -0.0410282, -939846.25, -8885.576, 0.0, 10.0, 9.998754 
1.75e+2, 2.150018e+2, -841857.0, -851283.2, 0.00000029262347, 0.00000000003662114, -0.10047368, -841857.0, -8882.356, 0.0, 10.0, 9.998751 
1.75e+2, 2.2500023e+2, -745520.3, -756732.3, 0.00000019294333, 0.000000000037699226, -0.120292485, -745520.3, -10531.964, 0.0, 10.0, 9.998514 
1.75e+2, 2.3499894e+2, -647533.6, -658775.25, 0.00000016006194, 0.00000000003847666, -0.101004004, -647533.6, -10531.712, 0.0, 10.0, 9.99851 
1.75e+2, 2.449973e+2, -556136.9, -574451.1, 0.000000036602994, 0.000000000038903505, -0.069931366, -556136.9, -17116.916, 0.0, 10.0, 9.997574 
1.75e+2, 2.549953e+2, -458128.13, -476458.4, -0.000000006528561, 0.000000000038979892, -0.027520262, -458128.13, -17085.479, 0.0, 10.0, 9.997571 
1.75e+2, 2.6499218e+2, -372716.28, -404562.53, -0.00000013613949, 0.000000000038689257, -0.006721425, -372716.28, -29641.09, 0.0, 10.0, 9.995782 
1.75e+2, 2.7498794e+2, -274660.0, -306490.22, -0.00000019209222, 0.000000000038030794, -0.008140607, -274660.0, -29542.387, 0.0, 10.0, 9.995784 
1.75e+2, 2.8498176e+2, -207046.78, -271577.22, -0.00000024061805, 0.000000000037249835, 0.008222219, -207046.78, -59866.484, 0.0, 10.0, 9.99146 
1.75e+2, 2.9497355e+2, -108955.31, -173477.47, -0.0000003825858, 0.000000000036345617, 0.041641317, -108955.31, -59692.004, 0.0, 10.0, 9.991461 
1.75e+2, 3.049667e+2, -40549.945, -84219.12, -0.00000043335297, 0.000000000037351105, 0.072680816, -40549.945, -40549.945, 0.0, 10.0, 9.994219 
1.75e+2, 3.149612e+2, -40558.387, -84236.65, -0.0000006953049, 0.000000000040291954, 0.1006251, -40558.387, -40558.387, 0.0, 10.0, 9.994217 
1.85e+2, 1.2501717e+2, -1723632.6, -1732707.1, 0.0000023900348, 0.0000000000572492, -0.063384145, -1723632.6, -8805.536, 0.0, 10.0, 9.998797 
1.85e+2, 1.3501623e+2, -1625670.1, -1634796.5, 0.0000017585747, 0.000000000053677847, -0.03612581, -1625670.1, -8831.828, 0.0, 10.0, 9.998791 
1.85e+2, 1.4501473e+2, -1537081.5, -1556140.8, 0.0000017170213, 0.00000000005374716, 0.0011270264, -1537081.5, -18225.707, 0.0, 10.0, 9.997475 
1.85e+2, 1.5501268e+2, -1439073.0, -1458149.4, 0.0000014392211, 0.000000000057433416, 0.047660526, -1439073.0, -18193.332, 0.0, 10.0, 9.997473 
1.85e+2, 1.6501072e+2, -1336450.4, -1350666.9, 0.0000014800606, 0.00000000006146227, 0.07340378, -1336450.4, -13549.706, 0.0, 10.0, 9.9981165 
1.85e+2, 1.750089e+2, -1238448.5, -1252682.5, 0.0000014106556, 0.00000000006583222, 0.078109026, -1238448.5, -13529.583, 0.0, 10.0, 9.998114 
1.85e+2, 1.8500713e+2, -1135894.5, -1145321.5, 0.0000013042505, 0.00000000006999739, 0.05762654, -1135894.5, -8960.126, 0.0, 10.0, 9.998751 
1.85e+2, 1.9500542e+2, -1037897.25, -1047340.1, 0.0000012255952, 0.00000000007395835, 0.011520169, -1037897.25, -8949.978, 0.0, 10.0, 9.998749 
1.85e+2, 2.0500365e+2, -939846.25, -949247.94, 0.0000010284438, 0.0000000000774847, -0.0410282, -939846.25, -8885.576, 0.0, 10.0, 9.998754 
1.85e+2, 2.150018e+2, -841857.0, -851283.2, 0.0000009239383, 0.000000000080577454, -0.10047368, -841857.0, -8882.356, 0.0, 10.0, 9.998751 
1.85e+2, 2.2500023e+2, -745520.3, -756732.3, 0.0000006425665, 0.00000000008300804, -0.120292485, -745520.3, -10531.964, 0.0, 10.0, 9.998514 
1.85e+2, 2.3499894e+2, -647533.6, -658775.25, 0.0000005021661, 0.00000000008477764, -0.101004004, -647533.6, -10531.712, 0.0, 10.0, 9.99851 
1.85e+2, 2.449973e+2, -556136.9, -574451.1, 0.00000014704533, 0.000000000085772396, -0.069931366, -556136.9, -17116.916, 0.0, 10.0, 9.997574 
1.85e+2, 2.549953e+2, -458128.13, -476458.4, -0.000000038972175, 0.000000000085992616, -0.027520262, -458128.13, -17085.479, 0.0, 10.0, 9.997571 
1.85e+2, 2.6499218e+2, -372716.28, -404562.53, -0.0000004332784, 0.000000000085401075, -0.006721425, -372716.28, -29641.09, 0.0, 10.0, 9.995782 
1.85e+2, 2.7498794e+2, -274660.0, -306490.22, -0.00000067501685, 0.00000000008399598, -0.008140607, -274660.0, -29542.387, 0.0, 10.0, 9.995784 
1.85e+2, 2.8498176e+2, -207046.78, -271577.22, -0.0000009843492, 0.00000000008231066, 0.008222219, -207046.78, -59866.484, 0.0, 10.0, 9.99146 
1.85e+2, 2.9497355e+2, -108955.31, -173477.47, -0.0000015883795, 0.00000000008034338, 0.041641317, -108955.31, -59692.004, 0.0, 10.0, 9.991461 
1.85e+2, 3.049667e+2, -40549.945, -84219.12, -0.000002105179, 0.000000000082635246, 0.072680816, -40549.945, -40549.945, 0.0, 10.0, 9.994219 
1.85e+2, 3.149612e+2, -40558.387, -84236.65, -0.000003216191, 0.000000000089243626, 0.1006251, -40558.387, -40558.387, 0.0, 10.0, 9.994217 
1.95e+2, 1.2501717e+2, -1723632.6, -1732707.1, 0.0000023013029, 0.0000000001071071, -0.063384145, -1723632.6, -8805.536, 0.0, 10.0, 9.998797 
1.95e+2, 1.3501623e+2, -1625670.1, -1634796.5, 0.0000016704471, 0.0000000001003819, -0.03612581, -1625670.1, -8831.828, 0.0, 10.0, 9.998791 
1.95e+2, 1.4501473e+2, -1537081.5, -1556140.8, 0.000002000153, 0.0000000001005114, 0.0011270264, -1537081.5, -18225.707, 0.0, 10.0, 9.997475 
1.95e+2, 1.5501268e+2, -1439073.0, -1458149.4, 0.0000017225699, 0.0000000001074509, 0.047660526, -1439073.0, -18193.332, 0.0, 10.0, 9.997473 
1.95e+2, 1.6501072e+2, -1336450.4, -1350666.9, 0.0000019570246, 0.000000000115039166, 0.07340378, -1336450.4, -13549.706, 0.0, 10.0, 9.9981165 
1.95e+2, 1.750089e+2, -1238448.5, -1252682.5, 0.0000018876068, 0.00000000012327336, 0.078109026, -1238448.5, -13529.583, 0.0, 10.0, 9.998114 
1.95e+2, 1.8500713e+2, -1135894.5, -1145321.5, 0.000001754844, 0.00000000013114015, 0.05762654, -1135894.5, -8960.126, 0.0, 10.0, 9.998751 
1.95e+2, 1.9500542e+2, -1037897.25, -1047340.1, 0.0000016761253, 0.0000000001386406, 0.011520169, -1037897.25, -8949.978, 0.0, 10.0, 9.998749 
1.95e+2, 2.0500365e+2, -939846.25, -949247.94, 0.0000013852695, 0.00000000014531933, -0.0410282, -939846.25, -8885.576, 0.0, 10.0, 9.998754 
1.95e+2, 2.150018e+2, -841857.0, -851283.2, 0.0000012806992, 0.00000000015117826, -0.10047368, -841857.0, -8882.356, 0.0, 10.0, 9.998751 
1.95e+2, 2.2500023e+2, -745520.3, -756732.3, 0.0000008571504, 0.00000000015579595, -0.120292485, -745520.3, -10531.964, 0.0, 10.0, 9.998514 
1.95e+2, 2.3499894e+2, -647533.6, -658775.25, 0.00000071672736, 0.00000000015917459, -0.101004004, -647533.6, -10531.712, 0.0, 10.0, 9.99851 
1.95e+2, 2.449973e+2, -556136.9, -574451.1, 0.00000018956811, 0.00000000016109644, -0.069931366, -556136.9, -17116.916, 0.0, 10.0, 9.997574 
1.95e+2, 2.549953e+2, -458128.13, -476458.4, 0.000000003551545, 0.00000000016156212, -0.027520262, -458128.13, -17085.479, 0.0, 10.0, 9.997571 
1.95e+2, 2.6499218e+2, -372716.28, -404562.53, -0.00000055317696, 0.00000000016050043, -0.006721425, -372716.28, -29641.09, 0.0, 10.0, 9.995782 
1.95e+2, 2.7498794e+2, -274660.0, -306490.22, -0.00000079500205, 0.00000000015790799, -0.008140607, -274660.0, -29542.387, 0.0, 10.0, 9.995784 
1.95e+2, 2.8498176e+2, -207046.78, -271577.22, -0.0000010025886, 0.00000000015477909, 0.008222219, -207046.78, -59866.484, 0.0, 10.0, 9.99146 
1.95e+2, 2.9497355e+2, -108955.31, -173477.47, -0.0000016064687, 0.00000000015111037, 0.041641317, -108955.31, -59692.004, 0.0, 10.0, 9.991461 
1.95e+2, 3.049667e+2, -40549.945, -84219.12, -0.0000018189575, 0.00000000015549029, 0.072680816, -40549.945, -40549.945, 0.0, 10.0, 9.994219 
1.95e+2, 3.149612e+2, -40558.387, -84236.65, -0.000002928951, 0.00000000016802737, 0.1006251, -40558.387, -40558.387, 0.0, 10.0, 9.994217 
2.05e+2, 1.2501717e+2, -1723632.6, -1732707.1, 0.000009685223, 0.00000000022952178, -0.063384145, -1723632.6, -8805.536, 0.0, 10.0, 9.998797 
2.05e+2, 1.3501623e+2, -1625670.1, -1634796.5, 0.0000071608038, 0.00000000021491865, -0.03612581, -1625670.1, -8831.827, 0.0, 10.0, 9.998791 
2.05e+2, 1.4501473e+2, -1537081.5, -1556140.8, 0.000007079229, 0.00000000021519947, 0.0011270264, -1537081.5, -18225.707, 0.0, 10.0, 9.997475 
2.05e+2, 1.5501268e+2, -1439073.0, -1458149.4, 0.0000059777485, 0.00000000023026708, 0.047660526, -1439073.0, -18193.332, 0.0, 10.0, 9.997473 
2.05e+2, 1.6501072e+2, -1336450.4, -1350666.9, 0.0000061900596, 0.00000000024674363, 0.07340378, -1336450.4, -13549.706, 0.0, 10.0, 9.9981165 
2.05e+2, 1.750089e+2, -1238448.5, -1252682.5, 0.0000059101862, 0.000000000264623, 0.078109026, -1238448.5, -13529.583, 0.0, 10.0, 9.998114 
2.05e+2, 1.8500713e+2, -1135894.5, -1145321.5, 0.000005492773, 0.0000000002817574, 0.05762654, -1135894.5, -8960.126, 0.0, 10.0, 9.998751 
2.05e+2, 1.9500542e+2, -1037897.25, -1047340.1, 0.0000051760576, 0.00000000029814898, 0.011520169, -1037897.25, -8949.977, 0.0, 10.0, 9.998749 
2.05e+2, 2.0500365e+2, -939846.25, -949247.94, 0.000004370833, 0.0000000003127852, -0.0410282, -939846.25, -8885.576, 0.0, 10.0, 9.998754 
2.05e+2, 2.150018e+2, -841857.0, -851283.2, 0.0000039412316, 0.00000000032567016, -0.10047368, -841857.0, -8882.356, 0.0, 10.0, 9.998751 
2.05e+2, 2.2500023e+2, -745520.3, -756732.3, 0.0000027740077, 0.00000000033587283, -0.120292485, -745520.3, -10531.963, 0.0, 10.0, 9.998514 
2.05e+2, 2.3499894e+2, -647533.6, -658775.25, 0.0000021909605, 0.00000000034339806, -0.101004004, -647533.6, -10531.712, 0.0, 10.0, 9.99851 
2.05e+2, 2.449973e+2, -556136.9, -574451.1, 0.0000007098625, 0.00000000034776615, -0.069931366, -556136.9, -17116.916, 0.0, 10.0, 9.997574 
2.05e+2, 2.549953e+2, -458128.13, -476458.4, -0.00000006692813, 0.0000000003489784, -0.027520262, -458128.13, -17085.479, 0.0, 10.0, 9.997571 
2.05e+2, 2.6499218e+2, -372716.28, -404562.53, -0.0000017181337, 0.00000000034688608, -0.006721425, -372716.28, -29641.088, 0.0, 10.0, 9.995782 
2.05e+2, 2.7498794e+2, -274660.0, -306490.22, -0.0000027310473, 0.00000000034148184, -0.008140607, -274660.0, -29542.387, 0.0, 10.0, 9.995784 
2.05e+2, 2.8498176e+2, -207046.78, -271577.22, -0.000004006574, 0.0000000003348856, 0.008222219, -207046.78, -59866.484, 0.0, 10.0, 9.99146 
2.05e+2, 2.9497355e+2, -108955.31, -173477.47, -0.000006496314, 0.00000000032708988, 0.041641317, -108955.31, -59692.004, 0.0, 10.0, 9.991461 
2.05e+2, 3.049667e+2, -40549.945, -84219.12, -0.000008598833, 0.0000000003368677, 0.072680816, -40549.945, -40549.945, 0.0, 10.0, 9.994219 
2.05e+2, 3.149612e+2, -40558.387, -84236.65, -0.000013159415, 0.00000000036445663, 0.1006251, -40558.387, -40558.387, 0.0, 10.0, 9.994217 
2.15e+2, 1.2501717e+2, -1723632.6, -1732707.1, 0.000009324269, 0.00000000042449322, -0.063384145, -1723632.6, -8805.536, 0.0, 10.0, 9.998797 
2.15e+2, 1.3501623e+2, -1625670.1, -1634796.5, 0.0000068023387, 0.00000000039728812, -0.03612581, -1625670.1, -8831.827, 0.0, 10.0, 9.998791 
2.15e+2, 1.4501473e+2, -1537081.5, -1556140.8, 0.000008241731, 0.0000000003978114, 0.0011270264, -1537081.5, -18225.707, 0.0, 10.0, 9.997475 
2.15e+2, 1.5501268e+2, -1439073.0, -1458149.4, 0.000007141106, 0.00000000042588197, 0.047660526, -1439073.0, -18193.332, 0.0, 10.0, 9.997473 
2.15e+2, 1.6501072e+2, -1336450.4, -1350666.9, 0.000008149424, 0.0000000004565757, 0.07340378, -1336450.4, -13549.706, 0.0, 10.0, 9.9981165 
2.15e+2, 1.750089e+2, -1238448.5, -1252682.5, 0.000007869481, 0.00000000048988114, 0.078109026, -1238448.5, -13529.583, 0.0, 10.0, 9.998114 
2.15e+2, 1.8500713e+2, -1135894.5, -1145321.5, 0.0000073577758, 0.0000000005218491, 0.05762654, -1135894.5, -8960.126, 0.0, 10.0, 9.998751 
2.15e+2, 1.9500542e+2, -1037897.25, -1047340.1, 0.00000704083, 0.0000000005524835, 0.011520169, -1037897.25, -8949.977, 0.0, 10.0, 9.998749 
2.15e+2, 2.0500365e+2, -939846.25, -949247.94, 0.0000058633896, 0.00000000057988225, -0.0410282, -939846.25, -8885.576, 0.0, 10.0, 9.998754 
2.15e+2, 2.150018e+2, -841857.0, -851283.2, 0.000005433514, 0.00000000060405314, -0.10047368, -841857.0, -8882.356, 0.0, 10.0, 9.998751 
2.15e+2, 2.2500023e+2, -745520.3, -756732.3, 0.0000036885986, 0.0000000006232387, -0.120292485, -745520.3, -10531.963, 0.0, 10.0, 9.998514 
2.15e+2, 2.3499894e+2, -647533.6, -658775.25, 0.0000031054628, 0.0000000006374481, -0.101004004, -647533.6, -10531.712, 0.0, 10.0, 9.99851 
2.15e+2, 2.449973e+2, -556136.9, -574451.1, 0.0000009217342, 0.0000000006457815, -0.069931366, -556136.9, -17116.916, 0.0, 10.0, 9.997574 
2.15e+2, 2.549953e+2, -458128.13, -476458.4, 0.00000014493158, 0.00000000064824146, -0.027520262, -458128.13, -17085.479, 0.0, 10.0, 9.997571 
2.15e+2, 2.6499218e+2, -372716.28, -404562.53, -0.0000021712085, 0.00000000064455796, -0.006721425, -372716.28, -29641.088, 0.0, 10.0, 9.995782 
2.15e+2, 2.7498794e+2, -274660.0, -306490.22, -0.0000031844777, 0.0000000006347175, -0.008140607, -274660.0, -29542.387, 0.0, 10.0, 9.995784 
2.15e+2, 2.8498176e+2, -207046.78, -271577.22, -0.000004042237, 0.00000000062263017, 0.008222219, -207046.78, -59866.484, 0.0, 10.0, 9.99146 
2.15e+2, 2.9497355e+2, -108955.31, -173477.47, -0.0000065313393, 0.00000000060828187, 0.041641317, -108955.31, -59692.004, 0.0, 10.0, 9.991461 
2.15e+2, 3.049667e+2, -40549.945, -84219.12, -0.0000073925307, 0.00000000062676747, 0.072680816, -40549.945, -40549.945, 0.0, 10.0, 9.994219 
2.15e+2, 3.149612e+2, -40558.387, -84236.65, -0.000011948916, 0.0000000006785314, 0.1006251, -40558.387, -40558.387, 0.0, 10.0, 9.994217 
2.25e+2, 1.2501717e+2, -1723632.6, -1732707.1, 0.00003797724, 0.0000000008902889, -0.063384145, -1723632.6, -8805.535, 0.0, 10.0, 9.998797 
2.25e+2, 1.3501623e+2, -1625670.1, -1634796.5, 0.000028215201, 0.00000000083242213, -0.03612581, -1625670.1, -8831.827, 0.0, 10.0, 9.998791 
2.25e+2, 1.4501473e+2, -1537081.5, -1556140.8, 0.000028250368, 0.0000000008334763, 0.0011270265, -1537081.5, -18225.705, 0.0, 10.0, 9.997475 
2.25e+2, 1.5501268e+2, -1439073.0, -1458149.4, 0.000024022347, 0.0000000008930663, 0.047660526, -1439073.0, -18193.332, 0.0, 10.0, 9.997473 
2.25e+2, 1.6501072e+2, -1336450.4, -1350666.9, 0.000025058494, 0.0000000009582795, 0.07340378, -1336450.4, -13549.705, 0.0, 10.0, 9.9981165 
2.25e+2, 1.750089e+2, -1238448.5, -1252682.5, 0.000023982486, 0.0000000010290913, 0.078109026, -1238448.5, -13529.583, 0.0, 10.0, 9.998114 
2.25e+2, 1.8500713e+2, -1135894.5, -1145321.5, 0.00002240062, 0.0000000010972366, 0.05762654, -1135894.5, -8960.125, 0.0, 10.0, 9.998751 
2.25e+2, 1.9500542e+2, -1037897.25, -1047340.1, 0.000021161155, 0.0000000011627233, 0.011520169, -1037897.25, -8949.977, 0.0, 10.0, 9.998749 
2.25e+2, 2.0500365e+2, -939846.25, -949247.94, 0.000017978022, 0.0000000012214318, -0.0410282, -939846.25, -8885.575, 0.0, 10.0, 9.998754 
2.25e+2, 2.150018e+2, -841857.0, -851283.2, 0.000016267995, 0.0000000012733786, -0.10047368, -841857.0, -8882.355, 0.0, 10.0, 9.998751 
2.25e+2, 2.2500023e+2, -745520.3, -756732.3, 0.000011583793, 0.000000001314804, -0.120292485, -745520.3, -10531.963, 0.0, 10.0, 9.998514 
2.25e+2, 2.3499894e+2, -647533.6, -658775.25, 0.000009242056, 0.0000000013457278, -0.101004004, -647533.6, -10531.711, 0.0, 10.0, 9.99851 
2.25e+2, 2.449973e+2, -556136.9, -574451.1, 0.0000032597698, 0.0000000013641965, -0.069931366, -556136.9, -17116.916, 0.0, 10.0, 9.997574 
2.25e+2, 2.549953e+2, -458128.13, -476458.4, 0.000000117625234, 0.000000001370216, -0.027520262, -458128.13, -17085.477, 0.0, 10.0, 9.997571 
2.25e+2, 2.6499218e+2, -372716.28, -404562.53, -0.000006578164, 0.0000000013632366, -0.006721425, -372716.28, -29641.088, 0.0, 10.0, 9.995782 
2.25e+2, 2.7498794e+2, -274660.0, -306490.22, -0.000010688147, 0.0000000013432294, -0.008140607, -274660.0, -29542.385, 0.0, 10.0, 9.995784 
2.25e+2, 2.8498176e+2, -207046.78, -271577.22, -0.000015773212, 0.0000000013183432, 0.008222219, -207046.78, -59866.484, 0.0, 10.0, 9.99146 
2.25e+2, 2.9497355e+2, -108955.31, -173477.47, -0.000025705984, 0.000000001288547, 0.041641317, -108955.31, -59692.004, 0.0, 10.0, 9.991461 
2.25e+2, 3.049667e+2, -40549.945, -84219.12, -0.000033974447, 0.0000000013289461, 0.072680816, -40549.945, -40549.945, 0.0, 10.0, 9.994219 
2.25e+2, 3.149612e+2, -40558.387, -84236.65, -0.00005208807, 0.0000000014404931, 0.1006251, -40558.387, -40558.387, 0.0, 10.0, 9.994217 
2.35e+2, 1.2501717e+2, -1723632.6, -1732707.1, 0.000036547586, 0.0000000016269088, -0.063384145, -1723632.6, -8805.535, 0.0, 10.0, 9.998797 
2.35e+2, 1.3501623e+2, -1625670.1, -1634796.5, 0.000026795442, 0.0000000015203206, -0.03612581, -1625670.1, -8831.827, 0.0, 10.0, 9.998791 
2.35e+2, 1.4501473e+2, -1537081.5, -1556140.8, 0.000032858607, 0.0000000015221941, 0.0011270266, -1537081.5, -18225.705, 0.0, 10.0, 9.997475 
2.35e+2, 1.5501268e+2, -1439073.0, -1458149.4, 0.000028634044, 0.00000000163182, 0.047660526, -1439073.0, -18193.332, 0.0, 10.0, 9.997473 
2.35e+2, 1.6501072e+2, -1336450.4, -1350666.9, 0.000032851833, 0.0000000017518549, 0.07340378, -1336450.4, -13549.705, 0.0, 10.0, 9.9981165 
2.35e+2, 1.750089e+2, -1238448.5, -1252682.5, 0.00003177559, 0.0000000018822535, 0.078109026, -1238448.5, -13529.583, 0.0, 10.0, 9.998114 
2.35e+2, 1.8500713e+2, -1135894.5, -1145321.5, 0.00002986714, 0.00000000200792, 0.05762654, -1135894.5, -8960.125, 0.0, 10.0, 9.998751 
2.35e+2, 1.9500542e+2, -1037897.25, -1047340.1, 0.000028626791, 0.0000000021288684, 0.011520169, -1037897.25, -8949.977, 0.0, 10.0, 9.998749 
2.35e+2, 2.0500365e+2, -939846.25, -949247.94, 0.000024006347, 0.0000000022374338, -0.0410282, -939846.25, -8885.575, 0.0, 10.0, 9.998754 
2.35e+2, 2.150018e+2, -841857.0, -851283.2, 0.000022295219, 0.0000000023336466, -0.10047368, -841857.0, -8882.355, 0.0, 10.0, 9.998751 
2.35e+2, 2.2500023e+2, -745520.3, -756732.3, 0.0000153481, 0.0000000024105689, -0.120292485, -745520.3, -10531.963, 0.0, 10.0, 9.998514 
2.35e+2, 2.3499894e+2, -647533.6, -658775.25, 0.000013005993, 0.0000000024682372, -0.101004004, -647533.6, -10531.711, 0.0, 10.0, 9.99851 
2.35e+2, 2.449973e+2, -556136.9, -574451.1, 0.0000042524953, 0.0000000025030114, -0.069931366, -556136.9, -17116.916, 0.0, 10.0, 9.997574 
2.35e+2, 2.549953e+2, -458128.13, -476458.4, 0.0000011102942, 0.0000000025149023, -0.027520262, -458128.13, -17085.477, 0.0, 10.0, 9.997571 
2.35e+2, 2.6499218e+2, -372716.28, -404562.53, -0.000008218848, 0.000000002502922, -0.006721425, -372716.28, -29641.088, 0.0, 10.0, 9.995782 
2.35e+2, 2.7498794e+2, -274660.0, -306490.22, -0.000012330252, 0.0000000024670177, -0.008140607, -274660.0, -29542.385, 0.0, 10.0, 9.995784 
2.35e+2, 2.8498176e+2, -207046.78, -271577.22, -0.000015753314, 0.0000000024220246, 0.008222219, -207046.78, -59866.484, 0.0, 10.0, 9.99146 
2.35e+2, 2.9497355e+2, -108955.31, -173477.47, -0.000025683528, 0.0000000023678852, 0.041641314, -108955.31, -59692.004, 0.0, 10.0, 9.991461 
2.35e+2, 3.049667e+2, -40549.945, -84219.12, -0.000029048997, 0.0000000024434035, 0.072680816, -40549.945, -40549.945, 0.0, 10.0, 9.994219 
2.35e+2, 3.149612e+2, -40558.387, -84236.65, -0.000047146004, 0.0000000026503417, 0.1006251, -40558.387, -40558.387, 0.0, 10.0, 9.994217 
2.45e+2, 1.2501717e+2, -1723632.6, -1732707.1, 0.00014394739, 0.000000003337821, -0.063384145, -1723632.6, -8805.534, 0.0, 10.0, 9.998797 
2.45e+2, 1.3501623e+2, -1625670.1, -1634796.5, 0.00010748486, 0.0000000031157972, -0.03612581, -1625670.1, -8831.826, 0.0, 10.0, 9.998791 
2.45e+2, 1.4501473e+2, -1537081.5, -1556140.8, 0.000109047156, 0.0000000031193061, 0.0011270269, -1537081.5, -18225.705, 0.0, 10.0, 9.997475 
2.45e+2, 1.5501268e+2, -1439073.0, -1458149.4, 0.00009337624, 0.0000000033468712, 0.047660526, -1439073.0, -18193.33, 0.0, 10.0, 9.997473 
2.45e+2, 1.6501072e+2, -1336450.4, -1350666.9, 0.00009813843, 0.000000003596214, 0.07340378, -1336450.4, -13549.704, 0.0, 10.0, 9.9981165 
2.45e+2, 1.750089e+2, -1238448.5, -1252682.5, 0.00009414187, 0.0000000038672394, 0.078109026, -1238448.5, -13529.582, 0.0, 10.0, 9.998114 
2.45e+2, 1.8500713e+2, -1135894.5, -1145321.5, 0.000088356486, 0.0000000041290984, 0.05762654, -1135894.5, -8960.124, 0.0, 10.0, 9.998751 
2.45e+2, 1.9500542e+2, -1037897.25, -1047340.1, 0.00008366985, 0.0000000043818185, 0.011520169, -1037897.25, -8949.976, 0.0, 10.0, 9.998749 
2.45e+2, 2.0500365e+2, -939846.25, -949247.94, 0.00007150154, 0.000000004609201, -0.0410282, -939846.25, -8885.574, 0.0, 10.0, 9.998754 
2.45e+2, 2.150018e+2, -841857.0, -851283.2, 0.00006492104, 0.000000004811308, -0.10047368, -841857.0, -8882.3545, 0.0, 10.0, 9.998751 
2.45e+2, 2.2500023e+2, -745520.3, -756732.3, 0.000046740184, 0.0000000049735887, -0.120292485, -745520.3, -10531.961, 0.0, 10.0, 9.998514 
2.45e+2, 2.3499894e+2, -647533.6, -658775.25, 0.000037634112, 0.000000005096121, -0.101004004, -647533.6, -10531.709, 0.0, 10.0, 9.99851 
2.45e+2, 2.449973e+2, -556136.9, -574451.1, 0.000014264501, 0.0000000051712203, -0.069931366, -556136.9, -17116.914, 0.0, 10.0, 9.997574 
2.45e+2, 2.549953e+2, -458128.13, -476458.4, 0.0000019740517, 0.000000005198911, -0.027520262, -458128.13, -17085.477, 0.0, 10.0, 9.997571 
2.45e+2, 2.6499218e+2, -372716.28, -404562.53, -0.000024281211, 0.0000000051772706, -0.006721425, -372716.28, -29641.086, 0.0, 10.0, 9.995782 
2.45e+2, 2.7498794e+2, -274659.97, -306490.22, -0.00004041142, 0.000000005106189, -0.008140608, -274659.97, -29542.385, 0.0, 10.0, 9.995784 
2.45e+2, 2.8498176e+2, -207046.78, -271577.22, -0.000059989074, 0.0000000050158193, 0.008222218, -207046.78, -59866.484, 0.0, 10.0, 9.99146 
2.45e+2, 2.9497355e+2, -108955.31, -173477.47, -0.00009829815, 0.0000000049060387, 0.041641314, -108955.31, -59692.0, 0.0, 10.0, 9.991461 
2.45e+2, 3.049667e+2, -40549.94, -84219.12, -0.00012967964, 0.0000000050675184, 0.07268081, -40549.94, -40549.94, 0.0, 10.0, 9.994219 
2.45e+2, 3.149612e+2, -40558.383, -84236.65, -0.00019921036, 0.0000000055039564, 0.1006251, -40558.383, -40558.383, 0.0, 10.0, 9.994217 
2.55e+2, 1.2501717e+2, -1723632.6, -1732707.1, 0.00013846016, 0.000000006023025, -0.06338414, -1723632.6, -8805.535, 0.0, 10.0, 9.998797 
2.55e+2, 1.3501623e+2, -1625670.1, -1634796.5, 0.00010203559, 0.0000000056188516, -0.03612581, -1625670.1, -8831.826, 0.0, 10.0, 9.998791 
2.55e+2, 1.4501473e+2, -1537081.5, -1556140.8, 0.00012668838, 0.0000000056248117, 0.0011270273, -1537081.5, -18225.705, 0.0, 10.0, 9.997475 
2.55e+2, 1.5501268e+2, -1439073.0, -1458149.4, 0.00011103083, 0.00000000603822, 0.04766053, -1439073.0, -18193.33, 0.0, 10.0, 9.997473 
2.55e+2, 1.6501072e+2, -1336450.4, -1350666.9, 0.00012806228, 0.000000006491357, 0.07340378, -1336450.4, -13549.704, 0.0, 10.0, 9.9981165 
2.55e+2, 1.750089e+2, -1238448.5, -1252682.5, 0.00012406497, 0.0000000069840485, 0.078109026, -1238448.5, -13529.582, 0.0, 10.0, 9.998114 
2.55e+2, 1.8500713e+2, -1135894.5, -1145321.5, 0.000117222444, 0.0000000074607724, 0.05762654, -1135894.5, -8960.124, 0.0, 10.0, 9.998751 
2.55e+2, 1.9500542e+2, -1037897.25, -1047340.1, 0.00011253247, 0.0000000079215745, 0.01152017, -1037897.25, -8949.976, 0.0, 10.0, 9.998749 
2.55e+2, 2.0500365e+2, -939846.25, -949247.94, 0.0000950184, 0.000000008336733, -0.041028198, -939846.25, -8885.574, 0.0, 10.0, 9.998754 
2.55e+2, 2.150018e+2, -841857.0, -851283.2, 0.00008843362, 0.000000008706362, -0.10047368, -841857.0, -8882.3545, 0.0, 10.0, 9.998751 
2.55e+2, 2.2500023e+2, -745520.3, -756732.3, 0.00006167858, 0.000000009003863, -0.120292485, -745520.3, -10531.961, 0.0, 10.0, 9.998514 
2.55e+2, 2.3499894e+2, -647533.6, -658775.25, 0.00005257103, 0.000000009229378, -0.101004004, -647533.6, -10531.709, 0.0, 10.0, 9.99851 
2.55e+2, 2.449973e+2, -556136.9, -574451.1, 0.000018649967, 0.000000009368824, -0.06993136, -556136.9, -17116.914, 0.0, 10.0, 9.997574 
2.55e+2, 2.549953e+2, -458128.13, -476458.4, 0.0000063593375, 0.0000000094222425, -0.027520262, -458128.13, -17085.477, 0.0, 10.0, 9.997571 
2.55e+2, 2.6499218e+2, -372716.28, -404562.53, -0.000029952182, 0.000000009386282, -0.0067214253, -372716.28, -29641.086, 0.0, 10.0, 9.995782 
2.55e+2, 2.7498794e+2, -274659.97, -306490.22, -0.0000460878, 0.000000009260743, -0.008140608, -274659.97, -29542.385, 0.0, 10.0, 9.995784 
2.55e+2, 2.8498176e+2, -207046.78, -271577.22, -0.000059261587, 0.000000009099727, 0.008222218, -207046.78, -59866.484, 0.0, 10.0, 9.99146 
2.55e+2, 2.9497355e+2, -108955.31, -173477.47, -0.00009756072, 0.000000008903007, 0.041641314, -108955.31, -59692.0, 0.0, 10.0, 9.991461 
2.55e+2, 3.049667e+2, -40549.94, -84219.12, -0.00011022327, 0.00000000920129, 0.07268081, -40549.94, -40549.94, 0.0, 10.0, 9.994219 
2.55e+2, 3.149612e+2, -40558.387, -84236.65, -0.00017969027, 0.000000010001337, 0.10062509, -40558.387, -40558.387, 0.0, 10.0, 9.994217 
2.65e+2, 1.2501717e+2, -1723632.6, -1732707.1, 0.00052683137, 0.0000000120816575, -0.06338414, -1723632.6, -8805.531, 0.0, 10.0, 9.998797 
2.65e+2, 1.3501623e+2, -1625670.1, -1634796.5, 0.00039544445, 0.000000011257566, -0.03612581, -1625670.1, -8831.823, 0.0, 10.0, 9.998791 
2.65e+2, 1.4501473e+2, -1537081.5, -1556140.8, 0.00040672795, 0.000000011267499, 0.0011270285, -1537081.5, -18225.701, 0.0, 10.0, 9.997475 
2.65e+2, 1.5501268e+2, -1439073.0, -1458149.4, 0.000350708, 0.000000012105987, 0.04766053, -1439073.0, -18193.326, 0.0, 10.0, 9.997473 
2.65e+2, 1.6501072e+2, -1336450.4, -1350666.9, 0.0003713749, 0.000000013025625, 0.07340378, -1336450.4, -13549.7, 0.0, 10.0, 9.9981165 
2.65e+2, 1.750089e+2, -1238448.4, -1252682.5, 0.00035704754, 0.000000014026057, 0.078109026, -1238448.4, -13529.577, 0.0, 10.0, 9.998114 
2.65e+2, 1.8500713e+2, -1135894.5, -1145321.5, 0.0003366918, 0.00000001499652, 0.057626545, -1135894.5, -8960.119, 0.0, 10.0, 9.998751 
2.65e+2, 1.9500542e+2, -1037897.2, -1047340.1, 0.00031957185, 0.000000015937102, 0.011520171, -1037897.2, -8949.971, 0.0, 10.0, 9.998749 
2.65e+2, 2.0500365e+2, -939846.25, -949247.94, 0.00027464476, 0.000000016786426, -0.041028198, -939846.25, -8885.569, 0.0, 10.0, 9.998754 
2.65e+2, 2.150018e+2, -841857.0, -851283.1, 0.00025017123, 0.00000001754472, -0.10047368, -841857.0, -8882.349, 0.0, 10.0, 9.998751 
2.65e+2, 2.2500023e+2, -745520.3, -756732.3, 0.00018198081, 0.000000018157502, -0.120292485, -745520.3, -10531.956, 0.0, 10.0, 9.998514 
2.65e+2, 2.3499894e+2, -647533.56, -658775.25, 0.00014777524, 0.00000001862506, -0.101004004, -647533.56, -10531.704, 0.0, 10.0, 9.99851 
2.65e+2, 2.449973e+2, -556136.9, -574451.1, 0.000059591624, 0.000000018918424, -0.06993136, -556136.9, -17116.908, 0.0, 10.0, 9.997574 
2.65e+2, 2.549953e+2, -458128.1, -476458.38, 0.0000131483885, 0.000000019037683, -0.027520264, -458128.1, -17085.47, 0.0, 10.0, 9.997571 
2.65e+2, 2.6499218e+2, -372716.25, -404562.53, -0.000086270404, 0.00000001897668, -0.0067214253, -372716.25, -29641.08, 0.0, 10.0, 9.995782 
2.65e+2, 2.7498794e+2, -274659.97, -306490.22, -0.00014743708, 0.000000018735012, -0.008140609, -274659.97, -29542.379, 0.0, 10.0, 9.995784 
2.65e+2, 2.8498176e+2, -207046.77, -271577.22, -0.00022012132, 0.000000018419819, 0.008222217, -207046.77, -59866.477, 0.0, 10.0, 9.99146 
2.65e+2, 2.9497355e+2, -108955.305, -173477.47, -0.0003627719, 0.000000018030626, 0.041641314, -108955.305, -59691.996, 0.0, 10.0, 9.991461 
2.65e+2, 3.049667e+2, -40549.938, -84219.11, -0.0004775313, 0.000000018654282, 0.07268081, -40549.938, -40549.938, 0.0, 10.0, 9.994219 
2.65e+2, 3.149612e+2, -40558.38, -84236.65, -0.0007351403, 0.00000002030466, 0.10062509, -40558.38, -40558.38, 0.0, 10.0, 9.994217 
2.75e+2, 1.2501717e+2, -1723632.6, -1732707.1, 0.0005064127, 0.000000021513719, -0.06338413, -1723632.6, -8805.531, 0.0, 10.0, 9.998797 
2.75e+2, 1.3501623e+2, -1625670.1, -1634796.5, 0.00037516627, 0.000000020031942, -0.036125805, -1625670.1, -8831.823, 0.0, 10.0, 9.998791 
2.75e+2, 1.4501473e+2, -1537081.5, -1556140.8, 0.00047181855, 0.000000020047366, 0.0011270302, -1537081.5, -18225.701, 0.0, 10.0, 9.997475 
2.75e+2, 1.5501268e+2, -1439073.0, -1458149.4, 0.00041584854, 0.000000021550171, 0.04766053, -1439073.0, -18193.326, 0.0, 10.0, 9.997473 
2.75e+2, 1.6501072e+2, -1336450.4, -1350666.9, 0.00048219666, 0.00000002319902, 0.07340378, -1336450.4, -13549.7, 0.0, 10.0, 9.9981165 
2.75e+2, 1.750089e+2, -1238448.4, -1252682.5, 0.00046786707, 0.000000024993266, 0.078109026, -1238448.4, -13529.577, 0.0, 10.0, 9.998114 
2.75e+2, 1.8500713e+2, -1135894.5, -1145321.5, 0.00044431616, 0.000000026736345, 0.057626545, -1135894.5, -8960.119, 0.0, 10.0, 9.998751 
2.75e+2, 1.9500542e+2, -1037897.2, -1047340.1, 0.00042718407, 0.000000028428405, 0.011520172, -1037897.2, -8949.971, 0.0, 10.0, 9.998749 
2.75e+2, 2.0500365e+2, -939846.25, -949247.94, 0.00036308466, 0.000000029958283, -0.041028198, -939846.25, -8885.569, 0.0, 10.0, 9.998754 
2.75e+2, 2.150018e+2, -841857.0, -851283.1, 0.00033859516, 0.000000031326383, -0.10047367, -841857.0, -8882.349, 0.0, 10.0, 9.998751 
2.75e+2, 2.2500023e+2, -745520.3, -756732.3, 0.00023908389, 0.000000032434507, -0.120292485, -745520.3, -10531.956, 0.0, 10.0, 9.998514 
2.75e+2, 2.3499894e+2, -647533.56, -658775.25, 0.00020487263, 0.000000033283168, -0.101004004, -647533.56, -10531.704, 0.0, 10.0, 9.99851 
2.75e+2, 2.449973e+2, -556136.9, -574451.1, 0.00007795567, 0.000000033820022, -0.06993136, -556136.9, -17116.908, 0.0, 10.0, 9.997574 
2.75e+2, 2.549953e+2, -458128.1, -476458.38, 0.000031511776, 0.000000034045232, -0.027520264, -458128.1, -17085.47, 0.0, 10.0, 9.997571 
2.75e+2, 2.6499218e+2, -372716.25, -404562.53, -0.000104899125, 0.000000033948464, -0.006721426, -372716.25, -29641.08, 0.0, 10.0, 9.995782 
2.75e+2, 2.7498794e+2, -274659.97, -306490.22, -0.0001660858, 0.000000033528995, -0.00814061, -274659.97, -29542.379, 0.0, 10.0, 9.995784 
2.75e+2, 2.8498176e+2, -207046.77, -271577.22, -0.00021489419, 0.000000032976093, 0.008222216, -207046.77, -59866.48, 0.0, 10.0, 9.99146 
2.75e+2, 2.9497355e+2, -108955.305, -173477.47, -0.00035750747, 0.000000032288895, 0.041641314, -108955.305, -59691.996, 0.0, 10.0, 9.991461 
2.75e+2, 3.049667e+2, -40549.938, -84219.12, -0.00040326276, 0.000000033426492, 0.07268081, -40549.938, -40549.938, 0.0, 10.0, 9.994219 
2.75e+2, 3.149612e+2, -40558.38, -84236.65, -0.00066063565, 0.000000036413923, 0.10062508, -40558.38, -40558.38, 0.0, 10.0, 9.994217 
2.85e+2, 1.2501717e+2, -1723632.5, -1732707.1, 0.0018594427, 0.0000000421695, -0.06338412, -1723632.5, -8805.52, 0.0, 10.0, 9.998797 
2.85e+2, 1.3501623e+2, -1625670.1, -1634796.5, 0.0014033217, 0.000000039213486, -0.036125798, -1625670.1, -8831.812, 0.0, 10.0, 9.998791 
2.85e+2, 1.4501473e+2, -1537081.5, -1556140.8, 0.0014640761, 0.000000039233203, 0.0011270342, -1537081.5, -18225.69, 0.0, 10.0, 9.997475 
2.85e+2, 1.5501268e+2, -1439073.0, -1458149.4, 0.0012711809, 0.000000042209106, 0.047660533, -1439073.0, -18193.314, 0.0, 10.0, 9.997473 
2.85e+2, 1.6501072e+2, -1336450.4, -1350666.9, 0.0013562805, 0.00000004547598, 0.07340379, -1336450.4, -13549.687, 0.0, 10.0, 9.9981165 
2.85e+2, 1.750089e+2, -1238448.4, -1252682.5, 0.0013067217, 0.000000049032536, 0.078109026, -1238448.4, -13529.5625, 0.0, 10.0, 9.998114 
2.85e+2, 1.8500713e+2, -1135894.5, -1145321.5, 0.0012378998, 0.000000052496343, 0.05762655, -1135894.5, -8960.104, 0.0, 10.0, 9.998751 
2.85e+2, 1.9500542e+2, -1037897.2, -1047340.1, 0.0011775274, 0.00000005586767, 0.011520174, -1037897.2, -8949.953, 0.0, 10.0, 9.998749 
2.85e+2, 2.0500365e+2, -939846.2, -949247.94, 0.0010174643, 0.000000058922282, -0.041028194, -939846.2, -8885.551, 0.0, 10.0, 9.998754 
2.85e+2, 2.150018e+2, -841856.94, -851283.1, 0.00092961907, 0.00000006166098, -0.10047367, -841856.94, -8882.33, 0.0, 10.0, 9.998751 
2.85e+2, 2.2500023e+2, -745520.3, -756732.25, 0.0006828227, 0.000000063887626, -0.12029248, -745520.3, -10531.937, 0.0, 10.0, 9.998514 
2.85e+2, 2.3499894e+2, -647533.56, -658775.2, 0.0005588458, 0.00000006560327, -0.101004, -647533.56, -10531.684, 0.0, 10.0, 9.99851 
2.85e+2, 2.449973e+2, -556136.9, -574451.1, 0.0002378324, 0.000000066702896, -0.06993136, -556136.9, -17116.889, 0.0, 10.0, 9.997574 
2.85e+2, 2.549953e+2, -458128.1, -476458.38, 0.000068502835, 0.00000006718686, -0.027520264, -458128.1, -17085.45, 0.0, 10.0, 9.997571 
2.85e+2, 2.6499218e+2, -372716.25, -404562.53, -0.0002945647, 0.00000006703773, -0.0067214267, -372716.25, -29641.06, 0.0, 10.0, 9.995782 
2.85e+2, 2.7498794e+2, -274659.97, -306490.22, -0.0005183759, 0.0000000662541, -0.008140611, -274659.97, -29542.357, 0.0, 10.0, 9.995784 
2.85e+2, 2.8498176e+2, -207046.75, -271577.22, -0.00077814574, 0.00000006520061, 0.008222212, -207046.75, -59866.457, 0.0, 10.0, 9.99146 
2.85e+2, 2.9497355e+2, -108955.28, -173477.45, -0.0012902723, 0.00000006387551, 0.04164131, -108955.28, -59691.977, 0.0, 10.0, 9.991461 
2.85e+2, 3.049667e+2, -40549.918, -84219.11, -0.0016938902, 0.000000066199796, 0.07268079, -40549.918, -40549.918, 0.0, 10.0, 9.994219 
2.85e+2, 3.149612e+2, -40558.36, -84236.64, -0.0026137829, 0.00000007222371, 0.10062506, -40558.36, -40558.36, 0.0, 10.0, 9.994217 
2.95e+2, 1.2501717e+2, -1723632.5, -1732707.1, 0.0017858404, 0.000000074049, -0.06338411, -1723632.5, -8805.5205, 0.0, 10.0, 9.998797 
2.95e+2, 1.3501623e+2, -1625670.1, -1634796.5, 0.0013302213, 0.0000000688022, -0.03612579, -1625670.1, -8831.8125, 0.0, 10.0, 9.998791 
2.95e+2, 1.4501473e+2, -1537081.5, -1556140.8, 0.0016951872, 0.00000006882501, 0.0011270402, -1537081.5, -18225.69, 0.0, 10.0, 9.997475 
2.95e+2, 1.5501268e+2, -1439073.0, -1458149.4, 0.0015024722, 0.000000074082784, 0.04766054, -1439073.0, -18193.314, 0.0, 10.0, 9.997473 
2.95e+2, 1.6501072e+2, -1336450.4, -1350666.9, 0.0017515166, 0.000000079856505, 0.07340379, -1336450.4, -13549.687, 0.0, 10.0, 9.9981165 
2.95e+2, 1.750089e+2, -1238448.4, -1252682.5, 0.0017019516, 0.00000008614387, 0.07810903, -1238448.4, -13529.5625, 0.0, 10.0, 9.998114 
2.95e+2, 1.8500713e+2, -1135894.5, -1145321.5, 0.0016243055, 0.000000092276515, 0.057626553, -1135894.5, -8960.104, 0.0, 10.0, 9.998751 
2.95e+2, 1.9500542e+2, -1037897.2, -1047340.1, 0.0015638907, 0.000000098254894, 0.011520179, -1037897.2, -8949.953, 0.0, 10.0, 9.998749 
2.95e+2, 2.0500365e+2, -939846.2, -949247.94, 0.0013376309, 0.000000103678424, -0.04102819, -939846.2, -8885.551, 0.0, 10.0, 9.998754 
2.95e+2, 2.150018e+2, -841856.94, -851283.1, 0.0012497279, 0.0000001085485, -0.10047367, -841856.94, -8882.33, 0.0, 10.0, 9.998751 
2.95e+2, 2.2500023e+2, -745520.3, -756732.25, 0.00089276413, 0.00000011251686, -0.12029248, -745520.3, -10531.937, 0.0, 10.0, 9.998514 
2.95e+2, 2.3499894e+2, -647533.56, -658775.2, 0.000768766, 0.000000115585344, -0.101004, -647533.56, -10531.684, 0.0, 10.0, 9.99851 
2.95e+2, 2.449973e+2, -556136.9, -574451.1, 0.00031090592, 0.00000011756704, -0.06993136, -556136.9, -17116.889, 0.0, 10.0, 9.997574 
2.95e+2, 2.549953e+2, -458128.1, -476458.38, 0.00014157413, 0.000000118462566, -0.027520264, -458128.1, -17085.45, 0.0, 10.0, 9.997571 
2.95e+2, 2.6499218e+2, -372716.25, -404562.53, -0.00035237055, 0.00000011824449, -0.006721428, -372716.25, -29641.06, 0.0, 10.0, 9.995782 
2.95e+2, 2.7498794e+2, -274659.97, -306490.22, -0.0005762528, 0.00000011691032, -0.008140615, -274659.97, -29542.357, 0.0, 10.0, 9.995784 
2.95e+2, 2.8498176e+2, -207046.75, -271577.22, -0.0007499678, 0.000000115093364, 0.008222207, -207046.75, -59866.46, 0.0, 10.0, 9.99146 
2.95e+2, 2.9497355e+2, -108955.28, -173477.47, -0.001261959, 0.00000011279048, 0.041641302, -108955.28, -59691.977, 0.0, 10.0, 9.991461 
2.95e+2, 3.049667e+2, -40549.918, -84219.11, -0.0014202901, 0.00000011697419, 0.072680786, -40549.918, -40549.918, 0.0, 10.0, 9.994219 
2.95e+2, 3.149612e+2, -40558.36, -84236.64, -0.0023393391, 0.00000012773403, 0.10062504, -40558.36, -40558.36, 0.0, 10.0, 9.994217 
3.05e+2, 1.2501717e+2, -1723632.5, -1732707.0, 0.0063204733, 0.00000014174852, -0.06338407, -1723632.5, -8805.481, 0.0, 10.0, 9.998797 
3.05e+2, 1.3501623e+2, -1625670.0, -1634796.5, 0.004797013, 0.0000001315125, -0.036125768, -1625670.0, -8831.774, 0.0, 10.0, 9.998791 
3.05e+2, 1.4501473e+2, -1537081.5, -1556140.8, 0.0050794077, 0.00000013150664, 0.0011270535, -1537081.5, -18225.65, 0.0, 10.0, 9.997475 
3.05e+2, 1.5501268e+2, -1439072.9, -1458149.3, 0.0044404673, 0.00000014166363, 0.047660556, -1439072.9, -18193.271, 0.0, 10.0, 9.997473 
3.05e+2, 1.6501072e+2, -1336450.4, -1350666.9, 0.004773671, 0.00000015282244, 0.073403805, -1336450.4, -13549.641, 0.0, 10.0, 9.9981165 
3.05e+2, 1.750089e+2, -1238448.4, -1252682.5, 0.004608338, 0.00000016497862, 0.07810905, -1238448.4, -13529.514, 0.0, 10.0, 9.998114 
3.05e+2, 1.8500713e+2, -1135894.4, -1145321.5, 0.004385071, 0.00000017686511, 0.057626564, -1135894.4, -8960.051, 0.0, 10.0, 9.998751 
3.05e+2, 1.9500542e+2, -1037897.1, -1047340.06, 0.0041797697, 0.00000018848273, 0.011520189, -1037897.1, -8949.896, 0.0, 10.0, 9.998749 
3.05e+2, 2.0500365e+2, -939846.1, -949247.94, 0.003630184, 0.00000019904283, -0.041028183, -939846.1, -8885.491, 0.0, 10.0, 9.998754 
3.05e+2, 2.150018e+2, -841856.9, -851283.1, 0.003326255, 0.00000020854814, -0.100473665, -841856.9, -8882.268, 0.0, 10.0, 9.998751 
3.05e+2, 2.2500023e+2, -745520.25, -756732.25, 0.0024654537, 0.00000021632069, -0.12029247, -745520.25, -10531.871, 0.0, 10.0, 9.998514 
3.05e+2, 2.3499894e+2, -647533.5, -658775.2, 0.0020324243, 0.00000022236406, -0.101004, -647533.5, -10531.616, 0.0, 10.0, 9.99851 
3.05e+2, 2.449973e+2, -556136.8, -574451.06, 0.0009067359, 0.00000022631359, -0.06993136, -556136.8, -17116.82, 0.0, 10.0, 9.997574 
3.05e+2, 2.549953e+2, -458128.0, -476458.34, 0.00031193157, 0.00000022817046, -0.027520262, -458128.0, -17085.38, 0.0, 10.0, 9.997571 
3.05e+2, 2.6499218e+2, -372716.2, -404562.5, -0.00096484704, 0.0000002278949, -0.0067214314, -372716.2, -29640.992, 0.0, 10.0, 9.995782 
3.05e+2, 2.7498794e+2, -274659.88, -306490.2, -0.0017538834, 0.00000022548205, -0.008140622, -274659.88, -29542.29, 0.0, 10.0, 9.995784 
3.05e+2, 2.8498176e+2, -207046.69, -271577.2, -0.0026458777, 0.00000022211718, 0.008222197, -207046.69, -59866.39, 0.0, 10.0, 9.99146 
3.05e+2, 2.9497355e+2, -108955.22, -173477.44, -0.004415769, 0.00000021779404, 0.04164129, -108955.22, -59691.91, 0.0, 10.0, 9.991461 
3.05e+2, 3.049667e+2, -40549.85, -84219.086, -0.005778196, 0.00000022614132, 0.07268076, -40549.85, -40549.85, 0.0, 10.0, 9.994219 
3.05e+2, 3.149612e+2, -40558.29, -84236.62, -0.008939122, 0.00000024733458, 0.10062498, -40558.29, -40558.29, 0.0, 10.0, 9.994217 
3.15e+2, 1.2501717e+2, -1723632.5, -1732707.1, 0.006063646, 0.00000024526807, -0.06338401, -1723632.5, -8805.484, 0.0, 10.0, 9.998797 
3.15e+2, 1.3501623e+2, -1625670.0, -1634796.5, 0.0045419117, 0.00000022734436, -0.036125734, -1625670.0, -8831.777, 0.0, 10.0, 9.998791 
3.15e+2, 1.4501473e+2, -1537081.5, -1556140.8, 0.005867666, 0.0000002272781, 0.0011270741, -1537081.5, -18225.65, 0.0, 10.0, 9.997475 
3.15e+2, 1.5501268e+2, -1439072.9, -1458149.3, 0.0052293516, 0.00000024495162, 0.047660578, -1439072.9, -18193.273, 0.0, 10.0, 9.997473 
3.15e+2, 1.6501072e+2, -1336450.4, -1350666.9, 0.0061288667, 0.0000002643738, 0.07340383, -1336450.4, -13549.642, 0.0, 10.0, 9.9981165 
3.15e+2, 1.750089e+2, -1238448.4, -1252682.5, 0.0059635187, 0.00000028553677, 0.07810906, -1238448.4, -13529.514, 0.0, 10.0, 9.998114 
3.15e+2, 1.8500713e+2, -1135894.4, -1145321.5, 0.0057186843, 0.00000030626214, 0.057626583, -1135894.4, -8960.051, 0.0, 10.0, 9.998751 
3.15e+2, 1.9500542e+2, -1037897.1, -1047340.06, 0.005513239, 0.00000032655115, 0.011520206, -1037897.1, -8949.897, 0.0, 10.0, 9.998749 
3.15e+2, 2.0500365e+2, -939846.1, -949247.94, 0.0047439854, 0.0000003450155, -0.041028168, -939846.1, -8885.492, 0.0, 10.0, 9.998754 
3.15e+2, 2.150018e+2, -841856.9, -851283.1, 0.004439855, 0.0000003616599, -0.10047365, -841856.9, -8882.268, 0.0, 10.0, 9.998751 
3.15e+2, 2.2500023e+2, -745520.25, -756732.25, 0.0032064675, 0.0000003752991, -0.12029246, -745520.25, -10531.872, 0.0, 10.0, 9.998514 
3.15e+2, 2.3499894e+2, -647533.5, -658775.2, 0.002773362, 0.00000038593944, -0.10100399, -647533.5, -10531.617, 0.0, 10.0, 9.99851 
3.15e+2, 2.449973e+2, -556136.8, -574451.06, 0.0011832311, 0.00000039294252, -0.06993135, -556136.8, -17116.82, 0.0, 10.0, 9.997574 
3.15e+2, 2.549953e+2, -458128.0, -476458.34, 0.00058841956, 0.00000039631058, -0.027520262, -458128.0, -17085.38, 0.0, 10.0, 9.997571 
3.15e+2, 2.6499218e+2, -372716.2, -404562.5, -0.0011327638, 0.00000039598893, -0.006721436, -372716.2, -29640.992, 0.0, 10.0, 9.995782 
3.15e+2, 2.7498794e+2, -274659.9, -306490.2, -0.0019220428, 0.00000039196928, -0.008140633, -274659.9, -29542.291, 0.0, 10.0, 9.995784 
3.15e+2, 2.8498176e+2, -207046.69, -271577.2, -0.0025145395, 0.00000038627203, 0.008222181, -207046.69, -59866.395, 0.0, 10.0, 9.99146 
3.15e+2, 2.9497355e+2, -108955.22, -173477.44, -0.0042839563, 0.00000037888617, 0.041641273, -108955.22, -59691.91, 0.0, 10.0, 9.991461 
3.15e+2, 3.049667e+2, -40549.855, -84219.09, -0.004806856, 0.0000003937012, 0.07268071, -40549.855, -40549.855, 0.0, 10.0, 9.994219 
3.15e+2, 3.149612e+2, -40558.297, -84236.625, -0.007964878, 0.00000043102534, 0.10062489, -40558.297, -40558.297, 0.0, 10.0, 9.994217 
3.25e+2, 1.2501717e+2, -1723632.4, -1732707.0, 0.02066035, 0.0000004582372, -0.06338389, -1723632.4, -8805.361, 0.0, 10.0, 9.998797 
3.25e+2, 1.3501623e+2, -1625669.9, -1634796.5, 0.015771993, 0.00000042405776, -0.036125667, -1625669.9, -8831.656, 0.0, 10.0, 9.998791 
3.25e+2, 1.4501473e+2, -1537081.4, -1556140.8, 0.016959934, 0.0000004237183, 0.0011271178, -1537081.4, -18225.523, 0.0, 10.0, 9.997475 
3.25e+2, 1.5501268e+2, -1439072.8, -1458149.3, 0.014926629, 0.00000045699548, 0.047660623, -1439072.8, -18193.14, 0.0, 10.0, 9.997473 
3.25e+2, 1.6501072e+2, -1336450.1, -1350666.8, 0.016168598, 0.00000049357783, 0.07340387, -1336450.1, -13549.496, 0.0, 10.0, 9.9981165 
3.25e+2, 1.750089e+2, -1238448.3, -1252682.4, 0.01563704, 0.00000053345053, 0.07810911, -1238448.3, -13529.357, 0.0, 10.0, 9.998114 
3.25e+2, 1.8500713e+2, -1135894.3, -1145321.4, 0.014943051, 0.0000005725945, 0.05762662, -1135894.3, -8959.883, 0.0, 10.0, 9.998751 
3.25e+2, 1.9500542e+2, -1037896.94, -1047340.0, 0.014270503, 0.00000061101196, 0.01152024, -1037896.94, -8949.717, 0.0, 10.0, 9.998749 
3.25e+2, 2.0500365e+2, -939845.94, -949247.8, 0.012454199, 0.00000064603734, -0.041028135, -939845.94, -8885.301, 0.0, 10.0, 9.998754 
3.25e+2, 2.150018e+2, -841856.7, -851283.0, 0.01144183, 0.0000006776795, -0.10047362, -841856.7, -8882.067, 0.0, 10.0, 9.998751 
3.25e+2, 2.2500023e+2, -745520.06, -756732.1, 0.008552491, 0.0000007036924, -0.12029244, -745520.06, -10531.663, 0.0, 10.0, 9.998514 
3.25e+2, 2.3499894e+2, -647533.3, -658775.06, 0.007097102, 0.0000007240881, -0.101003975, -647533.3, -10531.402, 0.0, 10.0, 9.99851 
3.25e+2, 2.449973e+2, -556136.56, -574451.0, 0.0033006708, 0.00000073765625, -0.06993134, -556136.56, -17116.602, 0.0, 10.0, 9.997574 
3.25e+2, 2.549953e+2, -458127.78, -476458.25, 0.0012907918, 0.00000074440106, -0.027520262, -458127.78, -17085.16, 0.0, 10.0, 9.997571 
3.25e+2, 2.6499218e+2, -372715.94, -404562.38, -0.0030255744, 0.0000007442743, -0.0067214463, -372715.94, -29640.771, 0.0, 10.0, 9.995782 
3.25e+2, 2.7498794e+2, -274659.66, -306490.1, -0.005701548, 0.0000007372604, -0.008140657, -274659.66, -29542.07, 0.0, 10.0, 9.995784 
3.25e+2, 2.8498176e+2, -207046.47, -271577.1, -0.008638006, 0.0000007270237, 0.008222148, -207046.47, -59866.18, 0.0, 10.0, 9.99146 
3.25e+2, 2.9497355e+2, -108955.0, -173477.34, -0.014516296, 0.00000071354293, 0.04164123, -108955.0, -59691.69, 0.0, 10.0, 9.991461 
3.25e+2, 3.049667e+2, -40549.64, -84219.01, -0.018919697, 0.0000007423857, 0.07268062, -40549.64, -40549.64, 0.0, 10.0, 9.994219 
3.25e+2, 3.149612e+2, -40558.07, -84236.54, -0.029353337, 0.000000814142, 0.1006247, -40558.07, -40558.07, 0.0, 10.0, 9.994217 
3.35e+2, 1.2501717e+2, -1723632.4, -1732707.0, 0.01979345, 0.0000007806559, -0.06338372, -1723632.4, -8805.371, 0.0, 10.0, 9.998797 
3.35e+2, 1.3501623e+2, -1625670.0, -1634796.5, 0.014910796, 0.0000007216527, -0.036125563, -1625670.0, -8831.666, 0.0, 10.0, 9.998791 
3.35e+2, 1.4501473e+2, -1537081.4, -1556140.8, 0.019537244, 0.0000007208272, 0.0011271846, -1537081.4, -18225.527, 0.0, 10.0, 9.997475 
3.35e+2, 1.5501268e+2, -1439072.8, -1458149.3, 0.017506033, 0.00000077779515, 0.04766069, -1439072.8, -18193.145, 0.0, 10.0, 9.997473 
3.35e+2, 1.6501072e+2, -1336450.1, -1350666.8, 0.020627785, 0.00000084043455, 0.07340394, -1336450.1, -13549.497, 0.0, 10.0, 9.9981165 
3.35e+2, 1.750089e+2, -1238448.3, -1252682.4, 0.020096201, 0.00000090871987, 0.07810917, -1238448.3, -13529.358, 0.0, 10.0, 9.998114 
3.35e+2, 1.8500713e+2, -1135894.3, -1145321.4, 0.019359464, 0.0000009758622, 0.057626676, -1135894.3, -8959.884, 0.0, 10.0, 9.998751 
3.35e+2, 1.9500542e+2, -1037896.94, -1047340.0, 0.018686451, 0.0000010418652, 0.011520293, -1037896.94, -8949.718, 0.0, 10.0, 9.998749 
3.35e+2, 2.0500365e+2, -939845.94, -949247.8, 0.016170653, 0.0000011021083, -0.04102809, -939845.94, -8885.303, 0.0, 10.0, 9.998754 
3.35e+2, 2.150018e+2, -841856.7, -851283.0, 0.015157612, 0.0000011566069, -0.10047358, -841856.7, -8882.069, 0.0, 10.0, 9.998751 
3.35e+2, 2.2500023e+2, -745520.06, -756732.1, 0.011059023, 0.0000012015006, -0.12029241, -745520.06, -10531.666, 0.0, 10.0, 9.998514 
3.35e+2, 2.3499894e+2, -647533.3, -658775.06, 0.009603374, 0.0000012368101, -0.10100395, -647533.3, -10531.404, 0.0, 10.0, 9.99851 
3.35e+2, 2.449973e+2, -556136.56, -574451.0, 0.0042956704, 0.0000012604547, -0.069931336, -556136.56, -17116.605, 0.0, 10.0, 9.997574 
3.35e+2, 2.549953e+2, -458127.8, -476458.25, 0.0022857687, 0.0000012724419, -0.02752026, -458127.8, -17085.164, 0.0, 10.0, 9.997571 
3.35e+2, 2.6499218e+2, -372715.97, -404562.4, -0.0034756337, 0.000001272751, -0.006721461, -372715.97, -29640.775, 0.0, 10.0, 9.995782 
3.35e+2, 2.7498794e+2, -274659.7, -306490.1, -0.006152401, 0.0000012613554, -0.008140693, -274659.7, -29542.076, 0.0, 10.0, 9.995784 
3.35e+2, 2.8498176e+2, -207046.48, -271577.13, -0.008083698, 0.0000012443721, 0.0082220975, -207046.48, -59866.188, 0.0, 10.0, 9.99146 
3.35e+2, 2.9497355e+2, -108955.016, -173477.38, -0.013960382, 0.0000012217643, 0.041641172, -108955.016, -59691.703, 0.0, 10.0, 9.991461 
3.35e+2, 3.049667e+2, -40549.66, -84219.05, -0.015601609, 0.0000012721948, 0.07268049, -40549.66, -40549.66, 0.0, 10.0, 9.994219 
3.35e+2, 3.149612e+2, -40558.09, -84236.58, -0.026025629, 0.0000013966846, 0.10062442, -40558.09, -40558.09, 0.0, 10.0, 9.994217 
3.45e+2, 1.2501717e+2, -1723632.0, -1732706.9, 0.06484271, 0.0000014225855, -0.06338336, -1723632.0, -8804.997, 0.0, 10.0, 9.998797 
3.45e+2, 1.3501623e+2, -1625669.6, -1634796.4, 0.04979798, 0.0000013126619, -0.036125354, -1625669.6, -8831.3, 0.0, 10.0, 9.998791 
3.45e+2, 1.4501473e+2, -1537081.0, -1556140.5, 0.054415077, 0.0000013102771, 0.0011273219, -1537081.0, -18225.145, 0.0, 10.0, 9.997475 
3.45e+2, 1.5501268e+2, -1439072.4, -1458149.1, 0.04820704, 0.0000014147196, 0.04766083, -1439072.4, -18192.738, 0.0, 10.0, 9.997473 
3.45e+2, 1.6501072e+2, -1336449.8, -1350666.6, 0.052615084, 0.0000015295846, 0.07340407, -1336449.8, -13549.058, 0.0, 10.0, 9.9981165 
3.45e+2, 1.750089e+2, -1238447.8, -1252682.1, 0.050968394, 0.0000016548249, 0.078109294, -1238447.8, -13528.882, 0.0, 10.0, 9.998114 
3.45e+2, 1.8500713e+2, -1135893.8, -1145321.1, 0.04890404, 0.000001778269, 0.05762679, -1135893.8, -8959.371, 0.0, 10.0, 9.998751 
3.45e+2, 1.9500542e+2, -1037896.44, -1047339.75, 0.046783324, 0.0000018999222, 0.011520402, -1037896.44, -8949.169, 0.0, 10.0, 9.998749 
3.45e+2, 2.0500365e+2, -939845.4, -949247.56, 0.041013002, 0.0000020111397, -0.04102799, -939845.4, -8884.721, 0.0, 10.0, 9.998754 
3.45e+2, 2.150018e+2, -841856.06, -851282.75, 0.037770826, 0.0000021119492, -0.1004735, -841856.06, -8881.455, 0.0, 10.0, 9.998751 
3.45e+2, 2.2500023e+2, -745519.44, -756731.9, 0.02845222, 0.0000021952378, -0.120292336, -745519.44, -10531.028, 0.0, 10.0, 9.998514 
3.45e+2, 2.3499894e+2, -647532.6, -658774.8, 0.023752766, 0.000002261044, -0.1010039, -647532.6, -10530.745, 0.0, 10.0, 9.99851 
3.45e+2, 2.449973e+2, -556135.94, -574450.7, 0.011460156, 0.000002305539, -0.069931306, -556135.94, -17115.934, 0.0, 10.0, 9.997574 
3.45e+2, 2.549953e+2, -458127.13, -476457.94, 0.00493809, 0.0000023287373, -0.027520256, -458127.13, -17084.482, 0.0, 10.0, 9.997571 
3.45e+2, 2.6499218e+2, -372715.28, -404562.1, -0.009063507, 0.0000023308164, -0.006721491, -372715.28, -29640.094, 0.0, 10.0, 9.995782 
3.45e+2, 2.7498794e+2, -274659.0, -306489.78, -0.017778741, 0.0000023117282, -0.008140767, -274659.0, -29541.396, 0.0, 10.0, 9.995784 
3.45e+2, 2.8498176e+2, -207045.81, -271576.84, -0.02702313, 0.0000022821914, 0.008221992, -207045.81, -59865.52, 0.0, 10.0, 9.99146 
3.45e+2, 2.9497355e+2, -108954.336, -173477.08, -0.04575019, 0.0000022421361, 0.041641053, -108954.336, -59691.03, 0.0, 10.0, 9.991461 
3.45e+2, 3.049667e+2, -40548.984, -84218.79, -0.05933853, 0.0000023378602, 0.07268021, -40548.984, -40548.984, 0.0, 10.0, 9.994219 
3.45e+2, 3.149612e+2, -40557.387, -84236.305, -0.09235639, 0.0000025712707, 0.10062385, -40557.387, -40557.387, 0.0, 10.0, 9.994217 
3.55e+2, 1.2501717e+2, -1723632.1, -1732707.0, 0.062014516, 0.0000023840257, -0.06338283, -1723632.1, -8805.026, 0.0, 10.0, 9.998797 
3.55e+2, 1.3501623e+2, -1625669.6, -1634796.4, 0.046987873, 0.0000021970855, -0.03612504, -1625669.6, -8831.329, 0.0, 10.0, 9.998791 
3.55e+2, 1.4501473e+2, -1537081.0, -1556140.5, 0.062474743, 0.000002192068, 0.0011275297, -1537081.0, -18225.156, 0.0, 10.0, 9.997475 
3.55e+2, 1.5501268e+2, -1439072.4, -1458149.1, 0.05627343, 0.0000023677687, 0.047661047, -1439072.4, -18192.752, 0.0, 10.0, 9.997473 
3.55e+2, 1.6501072e+2, -1336449.8, -1350666.6, 0.0666667, 0.000002561028, 0.07340429, -1336449.8, -13549.062, 0.0, 10.0, 9.9981165 
3.55e+2, 1.750089e+2, -1238447.8, -1252682.1, 0.065019995, 0.0000027717658, 0.07810949, -1238447.8, -13528.885, 0.0, 10.0, 9.998114 
3.55e+2, 1.8500713e+2, -1135893.8, -1145321.1, 0.062908225, 0.0000029798148, 0.05762697, -1135893.8, -8959.375, 0.0, 10.0, 9.998751 
3.55e+2, 1.9500542e+2, -1037896.44, -1047339.75, 0.06078606, 0.000003185183, 0.011520567, -1037896.44, -8949.173, 0.0, 10.0, 9.998749 
3.55e+2, 2.0500365e+2, -939845.4, -949247.56, 0.052881766, 0.0000033731312, -0.04102784, -939845.4, -8884.727, 0.0, 10.0, 9.998754 
3.55e+2, 2.150018e+2, -841856.06, -851282.75, 0.04963744, 0.0000035437063, -0.10047337, -841856.06, -8881.462, 0.0, 10.0, 9.998751 
3.55e+2, 2.2500023e+2, -745519.44, -756731.9, 0.03655953, 0.0000036849037, -0.12029224, -745519.44, -10531.037, 0.0, 10.0, 9.998514 
3.55e+2, 2.3499894e+2, -647532.6, -658774.8, 0.03185922, 0.0000037967898, -0.101003826, -647532.6, -10530.754, 0.0, 10.0, 9.99851 
3.55e+2, 2.449973e+2, -556135.94, -574450.7, 0.014862518, 0.0000038729095, -0.06993127, -556135.94, -17115.945, 0.0, 10.0, 9.997574 
3.55e+2, 2.549953e+2, -458127.13, -476457.97, 0.008340384, 0.0000039132874, -0.02752025, -458127.13, -17084.494, 0.0, 10.0, 9.997571 
3.55e+2, 2.6499218e+2, -372715.28, -404562.13, -0.010148719, 0.000003918471, -0.0067215357, -372715.28, -29640.111, 0.0, 10.0, 9.995782 
3.55e+2, 2.7498794e+2, -274659.0, -306489.8, -0.01886644, 0.0000038883786, -0.008140878, -274659.0, -29541.412, 0.0, 10.0, 9.995784 
3.55e+2, 2.8498176e+2, -207045.84, -271576.9, -0.024862304, 0.000003840481, 0.008221835, -207045.84, -59865.555, 0.0, 10.0, 9.99146 
3.55e+2, 2.9497355e+2, -108954.375, -173477.16, -0.043584123, 0.0000037746581, 0.041640867, -108954.375, -59691.066, 0.0, 10.0, 9.991461 
3.55e+2, 3.049667e+2, -40549.047, -84218.914, -0.048451588, 0.0000039393817, 0.07267979, -40549.047, -40549.047, 0.0, 10.0, 9.994219 
3.55e+2, 3.149612e+2, -40557.445, -84236.43, -0.081438854, 0.0000043378996, 0.10062299, -40557.445, -40557.445, 0.0, 10.0, 9.994217 
3.65e+2, 1.2501717e+2, -1723631.0, -1732706.5, 0.19506249, 0.000004234536, -0.06338178, -1723631.0, -8803.943, 0.0, 10.0, 9.998797 
3.65e+2, 1.3501623e+2, -1625668.5, -1634796.0, 0.15072626, 0.0000038944745, -0.036124423, -1625668.5, -8830.2705, 0.0, 10.0, 9.998791 
3.65e+2, 1.4501473e+2, -1537079.9, -1556140.0, 0.16747789, 0.0000038821818, 0.0011279429, -1537079.9, -18224.047, 0.0, 10.0, 9.997475 
3.65e+2, 1.5501268e+2, -1439071.3, -1458148.5, 0.14931728, 0.000004195483, 0.047661476, -1439071.3, -18191.58, 0.0, 10.0, 9.997473 
3.65e+2, 1.6501072e+2, -1336448.5, -1350666.0, 0.16420966, 0.0000045401107, 0.0734047, -1336448.5, -13547.787, 0.0, 10.0, 9.9981165 
3.65e+2, 1.750089e+2, -1238446.4, -1252681.5, 0.15929414, 0.000004915921, 0.07810987, -1238446.4, -13527.502, 0.0, 10.0, 9.998114 
3.65e+2, 1.8500713e+2, -1135892.3, -1145320.5, 0.15342323, 0.0000052878336, 0.05762732, -1135892.3, -8957.885, 0.0, 10.0, 9.998751 
3.65e+2, 1.9500542e+2, -1037894.8, -1047338.94, 0.14699173, 0.0000056558597, 0.011520898, -1037894.8, -8947.573, 0.0, 10.0, 9.998749 
3.65e+2, 2.0500365e+2, -939843.7, -949246.75, 0.12939271, 0.0000059931435, -0.041027542, -939843.7, -8883.03, 0.0, 10.0, 9.998754 
3.65e+2, 2.150018e+2, -841854.3, -851281.9, 0.11942382, 0.0000062997683, -0.10047311, -841854.3, -8879.672, 0.0, 10.0, 9.998751 
3.65e+2, 2.2500023e+2, -745517.56, -756731.0, 0.09059464, 0.0000065542577, -0.12029203, -745517.56, -10529.174, 0.0, 10.0, 9.998514 
3.65e+2, 2.3499894e+2, -647530.7, -658773.9, 0.076040715, 0.000006756731, -0.10100368, -647530.7, -10528.827, 0.0, 10.0, 9.99851 
3.65e+2, 2.449973e+2, -556133.94, -574449.75, 0.037900362, 0.0000068956856, -0.06993118, -556133.94, -17113.979, 0.0, 10.0, 9.997574 
3.65e+2, 2.549953e+2, -458125.13, -476457.03, 0.01761379, 0.0000069711664, -0.027520237, -458125.13, -17082.5, 0.0, 10.0, 9.997571 
3.65e+2, 2.6499218e+2, -372713.28, -404561.22, -0.025874827, 0.0000069849652, -0.0067216232, -372713.28, -29638.113, 0.0, 10.0, 9.995782 
3.65e+2, 2.7498794e+2, -274657.03, -306488.9, -0.053080086, 0.0000069369385, -0.008141098, -274657.03, -29539.42, 0.0, 10.0, 9.995784 
3.65e+2, 2.8498176e+2, -207043.89, -271576.06, -0.08082934, 0.000006856537, 0.008221522, -207043.89, -59863.59, 0.0, 10.0, 9.99146 
3.65e+2, 2.9497355e+2, -108952.39, -173476.31, -0.13793701, 0.0000067435403, 0.041640498, -108952.39, -59689.08, 0.0, 10.0, 9.991461 
3.65e+2, 3.049667e+2, -40547.06, -84218.16, -0.17783831, 0.000007048095, 0.07267897, -40547.06, -40547.06, 0.0, 10.0, 9.994218 
3.65e+2, 3.149612e+2, -40555.37, -84235.625, -0.277793, 0.000007776112, 0.100621305, -40555.37, -40555.37, 0.0, 10.0, 9.994217 
3.75e+2, 1.2501717e+2, -1723631.1, -1732706.6, 0.18615271, 0.000006974116, -0.063380234, -1723631.1, -8804.029, 0.0, 10.0, 9.998797 
3.75e+2, 1.3501623e+2, -1625668.6, -1634796.1, 0.14187142, 0.0000064048295, -0.036123503, -1625668.6, -8830.355, 0.0, 10.0, 9.998791 
3.75e+2, 1.4501473e+2, -1537079.9, -1556140.1, 0.19151899, 0.0000063806187, 0.0011285616, -1537079.9, -18224.082, 0.0, 10.0, 9.997475 
3.75e+2, 1.5501268e+2, -1439071.3, -1458148.6, 0.17337906, 0.0000068978625, 0.047662113, -1439071.3, -18191.613, 0.0, 10.0, 9.997473 
3.75e+2, 1.6501072e+2, -1336448.5, -1350666.0, 0.20651579, 0.0000074668324, 0.073405325, -1336448.5, -13547.797, 0.0, 10.0, 9.9981165 
3.75e+2, 1.750089e+2, -1238446.4, -1252681.5, 0.20160046, 0.000008087291, 0.07811044, -1238446.4, -13527.512, 0.0, 10.0, 9.998114 
3.75e+2, 1.8500713e+2, -1135892.3, -1145320.5, 0.19584402, 0.000008702325, 0.05762785, -1135892.3, -8957.897, 0.0, 10.0, 9.998751 
3.75e+2, 1.9500542e+2, -1037894.8, -1047339.0, 0.1894082, 0.000009311952, 0.011521393, -1037894.8, -8947.585, 0.0, 10.0, 9.998749 
3.75e+2, 2.0500365e+2, -939843.7, -949246.8, 0.1655839, 0.000009871176, -0.041027095, -939843.7, -8883.049, 0.0, 10.0, 9.998754 
3.75e+2, 2.150018e+2, -841854.3, -851281.94, 0.1556084, 0.000010380135, -0.100472726, -841854.3, -8879.69, 0.0, 10.0, 9.998751 
3.75e+2, 2.2500023e+2, -745517.56, -756731.06, 0.115609735, 0.000010803298, -0.12029172, -745517.56, -10529.201, 0.0, 10.0, 9.998514 
3.75e+2, 2.3499894e+2, -647530.75, -658773.94, 0.101053104, 0.000011140868, -0.10100346, -647530.75, -10528.8545, 0.0, 10.0, 9.99851 
3.75e+2, 2.449973e+2, -556134.0, -574449.9, 0.048942875, 0.000011373868, -0.06993105, -556134.0, -17114.016, 0.0, 10.0, 9.997574 
3.75e+2, 2.549953e+2, -458125.16, -476457.13, 0.028656114, 0.000011502375, -0.027520215, -458125.16, -17082.537, 0.0, 10.0, 9.997571 
3.75e+2, 2.6499218e+2, -372713.34, -404561.3, -0.028100856, 0.0000115303, -0.006721752, -372713.34, -29638.164, 0.0, 10.0, 9.995782 
3.75e+2, 2.7498794e+2, -274657.06, -306489.0, -0.055313554, 0.000011457408, -0.0081414245, -274657.06, -29539.47, 0.0, 10.0, 9.995784 
3.75e+2, 2.8498176e+2, -207044.0, -271576.3, -0.07297021, 0.000011330359, 0.008221054, -207044.0, -59863.7, 0.0, 10.0, 9.99146 
3.75e+2, 2.9497355e+2, -108952.49, -173476.53, -0.13006142, 0.0000111487825, 0.04163995, -108952.49, -59689.188, 0.0, 10.0, 9.991461 
3.75e+2, 3.049667e+2, -40547.246, -84218.55, -0.14359403, 0.000011664, 0.07267775, -40547.246, -40547.246, 0.0, 10.0, 9.994218 
3.75e+2, 3.149612e+2, -40555.555, -84236.016, -0.24345544, 0.000012885909, 0.10061881, -40555.555, -40555.555, 0.0, 10.0, 9.994217 
3.85e+2, 1.2501717e+2, -1723628.1, -1732705.5, 0.5613853, 0.000012065763, -0.06337733, -1723628.1, -8801.036, 0.0, 10.0, 9.998797 
3.85e+2, 1.3501623e+2, -1625665.8, -1634795.0, 0.43650398, 0.000011055167, -0.036121756, -1625665.8, -8827.435, 0.0, 10.0, 9.998791 
3.85e+2, 1.4501473e+2, -1537076.9, -1556138.8, 0.49354878, 0.000011001009, 0.0011297506, -1537076.9, -18221.016, 0.0, 10.0, 9.997475 
3.85e+2, 1.5501268e+2, -1439068.0, -1458147.1, 0.44271478, 0.0000118969165, 0.047663342, -1439068.0, -18188.379, 0.0, 10.0, 9.997473 
3.85e+2, 1.6501072e+2, -1336445.0, -1350664.4, 0.49056908, 0.000012882266, 0.073406525, -1336445.0, -13544.276, 0.0, 10.0, 9.9981165 
3.85e+2, 1.750089e+2, -1238442.5, -1252679.6, 0.4764246, 0.000013956639, 0.07811154, -1238442.5, -13523.686, 0.0, 10.0, 9.998114 
3.85e+2, 1.8500713e+2, -1135888.1, -1145318.5, 0.46046734, 0.000015024199, 0.05762887, -1135888.1, -8953.7705, 0.0, 10.0, 9.998751 
3.85e+2, 1.9500542e+2, -1037890.4, -1047336.9, 0.44172004, 0.000016084961, 0.011522348, -1037890.4, -8943.15, 0.0, 10.0, 9.998749 
3.85e+2, 2.0500365e+2, -939839.0, -949244.56, 0.39025962, 0.00001705916, -0.04102623, -939839.0, -8878.342, 0.0, 10.000001, 9.998754 
3.85e+2, 2.150018e+2, -841849.4, -851279.56, 0.3608729, 0.000017947032, -0.10047198, -841849.4, -8874.719, 0.0, 10.000001, 9.998751 
3.85e+2, 2.2500023e+2, -745512.4, -756728.6, 0.27547145, 0.000018686967, -0.120291114, -745512.4, -10524.022, 0.0, 10.000001, 9.998514 
3.85e+2, 2.3499894e+2, -647525.4, -658771.44, 0.23232049, 0.000019279318, -0.10100303, -647525.4, -10523.491, 0.0, 10.000001, 9.99851 
3.85e+2, 2.449973e+2, -556128.5, -574447.3, 0.11916554, 0.000019691395, -0.06993081, -556128.5, -17108.541, 0.0, 10.000001, 9.997574 
3.85e+2, 2.549953e+2, -458119.63, -476454.56, 0.05880534, 0.000019923342, -0.027520169, -458119.63, -17076.977, 0.0, 10.000001, 9.997571 
3.85e+2, 2.6499218e+2, -372707.78, -404558.78, -0.07022071, 0.000019984862, -0.0067219953, -372707.78, -29632.588, 0.0, 10.000001, 9.995782 
3.85e+2, 2.7498794e+2, -274651.5, -306486.5, -0.15144195, 0.000019875555, -0.008142049, -274651.5, -29533.902, 0.0, 10.000001, 9.995784 
3.85e+2, 2.8498176e+2, -207038.5, -271573.97, -0.23058435, 0.000019670597, 0.008220161, -207038.5, -59858.203, 0.0, 10.000001, 9.99146 
3.85e+2, 2.9497355e+2, -108946.93, -173474.17, -0.39688578, 0.00001936933, 0.041638903, -108946.93, -59683.62, 0.0, 10.000001, 9.991461 
3.85e+2, 3.049667e+2, -40541.67, -84216.43, -0.50791496, 0.000020296247, 0.07267544, -40541.668, -40541.668, 0.0, 10.000001, 9.994218 
3.85e+2, 3.149612e+2, -40549.715, -84233.78, -0.7966604, 0.0000224689, 0.1006141, -40549.715, -40549.715, 0.0, 10.000001, 9.994217 
3.95e+2, 1.2501717e+2, -1723628.3, -1732706.0, 0.5343108, 0.000019509476, -0.06337307, -1723628.3, -8801.275, 0.0, 10.0, 9.998797 
3.95e+2, 1.3501623e+2, -1625666.0, -1634795.5, 0.40958908, 0.000017845488, -0.036119185, -1625666.0, -8827.674, 0.0, 10.0, 9.998791 
3.95e+2, 1.4501473e+2, -1537077.0, -1556138.9, 0.56174237, 0.000017743352, 0.0011315099, -1537077.0, -18221.113, 0.0, 10.0, 9.997475 
3.95e+2, 1.5501268e+2, -1439068.1, -1458147.4, 0.51096934, 0.000019192647, 0.04766516, -1439068.1, -18188.475, 0.0, 10.0, 9.997473 
3.95e+2, 1.6501072e+2, -1336445.0, -1350664.4, 0.61195195, 0.00002078641, 0.0734083, -1336445.0, -13544.304, 0.0, 10.0, 9.9981165 
3.95e+2, 1.750089e+2, -1238442.6, -1252679.8, 0.59780866, 0.000022523967, 0.07811317, -1238442.6, -13523.713, 0.0, 10.0, 9.998114 
3.95e+2, 1.8500713e+2, -1135888.3, -1145318.6, 0.58289766, 0.000024253452, 0.057630375, -1135888.3, -8953.807, 0.0, 10.0, 9.998751 
3.95e+2, 1.9500542e+2, -1037890.44, -1047336.94, 0.56413805, 0.000025974887, 0.011523761, -1037890.44, -8943.187, 0.0, 10.0, 9.998749 
3.95e+2, 2.0500365e+2, -939839.06, -949244.7, 0.49534276, 0.000027557091, -0.04102495, -939839.06, -8878.397, 0.0, 10.000001, 9.998754 
3.95e+2, 2.150018e+2, -841849.4, -851279.7, 0.46593666, 0.00002900046, -0.10047087, -841849.4, -8874.774, 0.0, 10.000001, 9.998751 
3.95e+2, 2.2500023e+2, -745512.5, -756728.8, 0.34889182, 0.000030205261, -0.12029022, -745512.5, -10524.1045, 0.0, 10.000001, 9.998514 
3.95e+2, 2.3499894e+2, -647525.44, -658771.6, 0.30573276, 0.000031172076, -0.10100238, -647525.44, -10523.573, 0.0, 10.000001, 9.99851 
3.95e+2, 2.449973e+2, -556128.6, -574447.56, 0.15311205, 0.000031848267, -0.06993044, -556128.6, -17108.652, 0.0, 10.000001, 9.997574 
3.95e+2, 2.549953e+2, -458119.72, -476454.78, 0.092751324, 0.000032234067, -0.027520094, -458119.72, -17077.088, 0.0, 10.000001, 9.997571 
3.95e+2, 2.6499218e+2, -372707.9, -404559.1, -0.073488995, 0.000032348653, -0.0067223525, -372707.9, -29632.738, 0.0, 10.000001, 9.995782 
3.95e+2, 2.7498794e+2, -274651.66, -306486.8, -0.1547314, 0.00003219138, -0.008142971, -274651.66, -29534.053, 0.0, 10.000001, 9.995784 
3.95e+2, 2.8498176e+2, -207038.81, -271574.63, -0.20378707, 0.00003187725, 0.008218841, -207038.81, -59858.51, 0.0, 10.000001, 9.99146 
3.95e+2, 2.9497355e+2, -108947.24, -173474.81, -0.37003887, 0.00003140518, 0.041637354, -108947.24, -59683.93, 0.0, 10.000001, 9.991461 
3.95e+2, 3.049667e+2, -40542.207, -84217.55, -0.40488052, 0.000032944838, 0.07267203, -40542.207, -40542.207, 0.0, 10.000001, 9.994218 
3.95e+2, 3.149612e+2, -40550.254, -84234.89, -0.693354, 0.00003652508, 0.100607194, -40550.254, -40550.254, 0.0, 10.000001, 9.994217 
4.05e+2, 1.2501717e+2, -1723620.4, -1732702.8, 1.5425229, 0.00003285218, -0.06336535, -1723620.4, -8793.395, 0.0, 10.000001, 9.998797 
4.05e+2, 1.3501623e+2, -1625658.3, -1634792.4, 1.2069669, 0.000029971337, -0.036114477, -1625658.3, -8820.001, 0.0, 10.000001, 9.998791 
4.05e+2, 1.4501473e+2, -1537068.9, -1556135.3, 1.3897903, 0.000029757266, 0.0011347721, -1537068.9, -18213.059, 0.0, 10.000001, 9.997475 
4.05e+2, 1.5501268e+2, -1439059.6, -1458143.5, 1.253804, 0.00003219213, 0.047668528, -1439059.6, -18179.979, 0.0, 10.000001, 9.997473 
4.05e+2, 1.6501072e+2, -1336435.8, -1350660.0, 1.3998806, 0.000034868597, 0.073411584, -1336435.8, -13535.055, 0.0, 10.000001, 9.9981165 
4.05e+2, 1.750089e+2, -1238432.5, -1252674.9, 1.3606138, 0.00003778553, 0.07811618, -1238432.5, -13513.655, 0.0, 10.000001, 9.998114 
4.05e+2, 1.8500713e+2, -1135877.4, -1145313.4, 1.3191335, 0.000040696003, 0.05763317, -1135877.4, -8942.951, 0.0, 10.000001, 9.998751 
4.05e+2, 1.9500542e+2, -1037878.75, -1047331.4, 1.2666346, 0.00004360003, 0.011526382, -1037878.75, -8931.511, 0.0, 10.000001, 9.998749 
4.05e+2, 2.0500365e+2, -939826.6, -949238.9, 1.1225643, 0.00004627151, -0.041022576, -939826.6, -8865.996, 0.0, 10.000001, 9.998754 
4.05e+2, 2.150018e+2, -841836.3, -851273.5, 1.0396361, 0.000048711107, -0.10046882, -841836.3, -8861.665, 0.0, 10.000001, 9.998751 
4.05e+2, 2.2500023e+2, -745498.8, -756722.44, 0.7978647, 0.000050751503, -0.12028856, -745498.8, -10510.441, 0.0, 10.000002, 9.998514 
4.05e+2, 2.3499894e+2, -647511.3, -658765.0, 0.6756249, 0.00005239369, -0.10100119, -647511.3, -10509.412, 0.0, 10.000002, 9.99851 
4.05e+2, 2.449973e+2, -556114.2, -574440.94, 0.35538682, 0.000053550295, -0.06992975, -556114.2, -17094.184, 0.0, 10.000002, 9.997574 
4.05e+2, 2.549953e+2, -458105.0, -476448.03, 0.18398473, 0.000054221724, -0.02751995, -458105.0, -17062.377, 0.0, 10.000002, 9.997571 
4.05e+2, 2.6499218e+2, -372693.16, -404552.44, -0.1806814, 0.00005445028, -0.0067230035, -372693.16, -29617.977, 0.0, 10.000002, 9.995782 
4.05e+2, 2.7498794e+2, -274636.9, -306480.13, -0.41203687, 0.000054234904, -0.00814467, -274636.9, -29519.29, 0.0, 10.000002, 9.995784 
4.05e+2, 2.8498176e+2, -207024.22, -271568.5, -0.6255719, 0.00005375077, 0.008216405, -207024.22, -59843.918, 0.0, 10.000002, 9.99146 
4.05e+2, 2.9497355e+2, -108932.43, -173468.61, -1.0867919, 0.00005299599, 0.041634493, -108932.43, -59669.117, 0.0, 10.000002, 9.991461 
4.05e+2, 3.049667e+2, -40527.348, -84211.99, -1.3780042, 0.000055688106, 0.07266583, -40527.348, -40527.348, 0.0, 10.000002, 9.994218 
4.05e+2, 3.149612e+2, -40534.65, -84228.984, -2.1716855, 0.00006187689, 0.10059471, -40534.65, -40534.65, 0.0, 10.000002, 9.994217 
4.15e+2, 1.2501717e+2, -1723621.1, -1732704.1, 1.4632658, 0.000052093867, -0.06335417, -1723621.1, -8794.039, 0.0, 10.000001, 9.998797 
4.15e+2, 1.3501623e+2, -1625658.9, -1634793.8, 1.1281515, 0.00004743271, -0.03610763, -1625658.9, -8820.643, 0.0, 10.000001, 9.998791 
4.15e+2, 1.4501473e+2, -1537069.1, -1556135.9, 1.5730523, 0.00004704275, 0.0011395373, -1537069.1, -18213.32, 0.0, 10.000001, 9.997475 
4.15e+2, 1.5501268e+2, -1439059.9, -1458144.0, 1.4372377, 0.00005089536, 0.04767345, -1439059.9, -18180.238, 0.0, 10.000001, 9.997473 
4.15e+2, 1.6501072e+2, -1336435.8, -1350660.1, 1.7307645, 0.00005512883, 0.07341638, -1336435.8, -13535.131, 0.0, 10.000001, 9.9981165 
4.15e+2, 1.750089e+2, -1238432.6, -1252675.1, 1.6915027, 0.00005974132, 0.07812058, -1238432.6, -13513.731, 0.0, 10.000001, 9.998114 
4.15e+2, 1.8500713e+2, -1135877.4, -1145313.6, 1.6547629, 0.00006435184, 0.05763725, -1135877.4, -8943.052, 0.0, 10.000001, 9.998751 
4.15e+2, 1.9500542e+2, -1037878.9, -1047331.6, 1.6022304, 0.00006896039, 0.011530208, -1037878.9, -8931.611, 0.0, 10.000001, 9.998749 
4.15e+2, 2.0500365e+2, -939826.8, -949239.2, 1.4121773, 0.00007320241, -0.041019112, -939826.8, -8866.153, 0.0, 10.000001, 9.998754 
4.15e+2, 2.150018e+2, -841836.44, -851273.8, 1.329195, 0.00007707897, -0.10046582, -841836.44, -8861.822, 0.0, 10.000001, 9.998751 
4.15e+2, 2.2500023e+2, -745499.06, -756722.9, 1.0021807, 0.000080325684, -0.12028613, -745499.06, -10510.672, 0.0, 10.000002, 9.998514 
4.15e+2, 2.3499894e+2, -647511.5, -658765.5, 0.8799178, 0.000082944156, -0.10099944, -647511.5, -10509.642, 0.0, 10.000002, 9.99851 
4.15e+2, 2.449973e+2, -556114.5, -574441.56, 0.45399377, 0.00008479748, -0.069928735, -556114.5, -17094.504, 0.0, 10.000002, 9.997574 
4.15e+2, 2.549953e+2, -458105.34, -476448.7, 0.28259027, 0.000085886306, -0.027519733, -458105.34, -17062.7, 0.0, 10.000002, 9.997571 
4.15e+2, 2.6499218e+2, -372693.6, -404553.3, -0.18063416, 0.00008628974, -0.0067239483, -372693.6, -29618.408, 0.0, 10.000002, 9.995782 
4.15e+2, 2.7498794e+2, -274637.3, -306481.03, -0.4120467, 0.00008600613, -0.008147144, -274637.3, -29519.719, 0.0, 10.000002, 9.995784 
4.15e+2, 2.8498176e+2, -207025.08, -271570.28, -0.5397142, 0.00008529115, 0.008212855, -207025.08, -59844.777, 0.0, 10.000002, 9.99146 
4.15e+2, 2.9497355e+2, -108933.29, -173470.39, -1.0007907, 0.00008414175, 0.041630324, -108933.29, -59669.977, 0.0, 10.000002, 9.991461 
4.15e+2, 3.049667e+2, -40528.82, -84215.055, -1.0821869, 0.00008852605, 0.07265684, -40528.82, -40528.82, 0.0, 10.000002, 9.994218 
4.15e+2, 3.149612e+2, -40536.13, -84232.055, -1.8751115, 0.000098524324, 0.10057663, -40536.125, -40536.125, 0.0, 10.000002, 9.994217 
4.25e+2, 1.2501717e+2, -1723601.4, -1732696.3, 4.0374155, 0.00008531659, -0.06333467, -1723601.4, -8774.331, 0.0, 10.000002, 9.998797 
4.25e+2, 1.3501623e+2, -1625639.8, -1634786.1, 3.1790426, 0.000077451514, -0.036095552, -1625639.8, -8801.505, 0.0, 10.000002, 9.998791 
4.25e+2, 1.4501473e+2, -1537049.1, -1556126.8, 3.7311022, 0.00007667634, 0.0011480509, -1537049.1, -18193.246, 0.0, 10.000002, 9.997475 
4.25e+2, 1.5501268e+2, -1439038.8, -1458134.5, 3.3838189, 0.0000829434, 0.047682222, -1439038.8, -18159.082, 0.0, 10.000003, 9.997473 
4.25e+2, 1.6501072e+2, -1336412.8, -1350649.1, 3.80675, 0.00008982485, 0.073424935, -1336412.8, -13512.101, 0.0, 10.000003, 9.9981165 
4.25e+2, 1.750089e+2, -1238407.5, -1252663.1, 3.7014678, 0.00009731768, 0.07812843, -1238407.5, -13488.683, 0.0, 10.000003, 9.998114 
4.25e+2, 1.8500713e+2, -1135850.4, -1145300.8, 3.5981307, 0.000104826075, 0.057644516, -1135850.4, -8916.011, 0.0, 10.000003, 9.998751 
4.25e+2, 1.9500542e+2, -1037849.75, -1047317.75, 3.4569395, 0.00011234995, 0.011537019, -1037849.75, -8902.508, 0.0, 10.000003, 9.998749 
4.25e+2, 2.0500365e+2, -939795.9, -949224.6, 3.0712674, 0.00011927899, -0.041012943, -939795.9, -8835.233, 0.0, 10.000004, 9.998754 
4.25e+2, 2.150018e+2, -841803.75, -851258.44, 2.8475735, 0.00012561496, -0.100460485, -841803.75, -8829.117, 0.0, 10.000004, 9.998751 
4.25e+2, 2.2500023e+2, -745464.94, -756707.06, 2.1948237, 0.00013092984, -0.120281816, -745464.94, -10476.579, 0.0, 10.000004, 9.998514 
4.25e+2, 2.3499894e+2, -647476.2, -658749.06, 1.8646591, 0.00013522629, -0.10099633, -647476.2, -10474.282, 0.0, 10.000004, 9.99851 
4.25e+2, 2.449973e+2, -556078.3, -574425.06, 1.0024226, 0.00013828615, -0.06992693, -556078.3, -17058.36, 0.0, 10.000004, 9.997573 
4.25e+2, 2.549953e+2, -458068.56, -476431.84, 0.5390708, 0.0001401105, -0.02751934, -458068.56, -17025.914, 0.0, 10.000004, 9.997571 
4.25e+2, 2.6499218e+2, -372656.66, -404536.75, -0.4396609, 0.00014086106, -0.006725619, -372656.66, -29581.467, 0.0, 10.000004, 9.995782 
4.25e+2, 2.7498794e+2, -274600.3, -306464.44, -1.0667081, 0.00014053515, -0.008151536, -274600.3, -29482.707, 0.0, 10.000004, 9.995784 
4.25e+2, 2.8498176e+2, -206988.45, -271555.1, -1.6087706, 0.00013949316, 0.008206549, -206988.45, -59808.145, 0.0, 10.000004, 9.991459 
4.25e+2, 2.9497355e+2, -108896.02, -173454.9, -2.8232586, 0.00013772992, 0.041622918, -108896.02, -59632.7, 0.0, 10.000005, 9.991461 
4.25e+2, 3.049667e+2, -40491.363, -84201.25, -3.5381358, 0.00014517072, 0.07264113, -40491.36, -40491.36, 0.0, 10.000005, 9.994218 
4.25e+2, 3.149612e+2, -40496.69, -84217.3, -5.607136, 0.00016195005, 0.100545295, -40496.69, -40496.69, 0.0, 10.000005, 9.994216 
4.35e+2, 1.2501717e+2, -1723603.0, -1732699.6, 3.8142397, 0.00013252033, -0.06330685, -1723603.0, -8775.98, 0.0, 10.000002, 9.998797 
4.35e+2, 1.3501623e+2, -1625641.4, -1634789.5, 2.9570315, 0.00012002775, -0.03607824, -1625641.4, -8803.147, 0.0, 10.000002, 9.99879 
4.35e+2, 1.4501473e+2, -1537049.8, -1556128.1, 4.1956105, 0.00011865804, 0.0011603128, -1537049.8, -18193.914, 0.0, 10.000002, 9.997475 
4.35e+2, 1.5501268e+2, -1439039.4, -1458135.8, 3.8487883, 0.00012833625, 0.047694854, -1439039.4, -18159.748, 0.0, 10.000003, 9.997473 
4.35e+2, 1.6501072e+2, -1336413.0, -1350649.5, 4.6607447, 0.00013895665, 0.073437236, -1336413.0, -13512.306, 0.0, 10.000003, 9.998116 
4.35e+2, 1.750089e+2, -1238407.8, -1252663.5, 4.555481, 0.00015051459, 0.07813972, -1238407.8, -13488.887, 0.0, 10.000003, 9.998114 
4.35e+2, 1.8500713e+2, -1135850.6, -1145301.4, 4.4690585, 0.00016211868, 0.057654966, -1135850.6, -8916.281, 0.0, 10.000003, 9.998751 
4.35e+2, 1.9500542e+2, -1037850.0, -1047318.3, 4.32778, 0.00017376871, 0.011546816, -1037850.0, -8902.778, 0.0, 10.000003, 9.998748 
4.35e+2, 2.0500365e+2, -939796.3, -949225.5, 3.8261485, 0.00018450124, -0.041004073, -939796.3, -8835.658, 0.0, 10.000004, 9.998754 
4.35e+2, 2.150018e+2, -841804.2, -851259.3, 3.6023102, 0.00019431906, -0.10045281, -841804.2, -8829.54, 0.0, 10.000004, 9.998751 
4.35e+2, 2.2500023e+2, -745465.56, -756708.3, 2.7318516, 0.00020256394, -0.12027561, -745465.56, -10477.201, 0.0, 10.000004, 9.998514 
4.35e+2, 2.3499894e+2, -647476.8, -658750.3, 2.4016242, 0.00020924008, -0.10099185, -647476.75, -10474.903, 0.0, 10.000004, 9.998509 
4.35e+2, 2.449973e+2, -556079.2, -574426.8, 1.2721958, 0.00021401628, -0.06992434, -556079.2, -17059.229, 0.0, 10.000004, 9.997573 
4.35e+2, 2.549953e+2, -458069.4, -476433.66, 0.80884016, 0.00021689427, -0.02751877, -458069.4, -17026.78, 0.0, 10.000004, 9.997571 
4.35e+2, 2.6499218e+2, -372657.8, -404539.2, -0.41496742, 0.00021816419, -0.0067280163, -372657.8, -29582.637, 0.0, 10.000004, 9.995782 
4.35e+2, 2.7498794e+2, -274601.47, -306466.88, -1.0421605, 0.00021782196, -0.008157846, -274601.47, -29483.873, 0.0, 10.000004, 9.995784 
4.35e+2, 2.8498176e+2, -206990.7, -271559.78, -1.3502145, 0.00021635678, 0.008197487, -206990.7, -59810.402, 0.0, 10.000004, 9.991459 
4.35e+2, 2.9497355e+2, -108898.28, -173459.6, -2.564306, 0.00021376049, 0.04161228, -108898.28, -59634.953, 0.0, 10.000005, 9.99146 
4.35e+2, 3.049667e+2, -40495.207, -84209.234, -2.7300076, 0.00022562208, 0.07261869, -40495.207, -40495.207, 0.0, 10.000005, 9.994217 
4.35e+2, 3.149612e+2, -40500.543, -84225.3, -4.7970037, 0.00025215407, 0.10050069, -40500.543, -40500.543, 0.0, 10.000005, 9.994216 
4.45e+2, 1.2501717e+2, -1723556.3, -1732681.3, 10.041365, 0.0002109237, -0.063260175, -1723556.3, -8729.286, 0.0, 10.000006, 9.998796 
4.45e+2, 1.3501623e+2, -1625596.3, -1634771.9, 7.9554276, 0.0001903934, -0.03604885, -1625596.3, -8757.961, 0.0, 10.000006, 9.99879 
4.45e+2, 1.4501473e+2, -1537002.4, -1556106.9, 9.5261135, 0.000187795, 0.0011813852, -1537002.4, -18146.57, 0.0, 10.000006, 9.997475 
4.45e+2, 1.5501268e+2, -1438989.6, -1458113.4, 8.680126, 0.00020300719, 0.04771651, -1438989.6, -18109.941, 0.0, 10.000006, 9.997472 
4.45e+2, 1.6501072e+2, -1336358.8, -1350623.8, 9.839325, 0.0002196807, 0.0734583, -1336358.8, -13458.132, 0.0, 10.000007, 9.998116 
4.45e+2, 1.750089e+2, -1238348.9, -1252635.5, 9.566314, 0.00023780818, 0.07815902, -1238348.9, -13429.987, 0.0, 10.000007, 9.998114 
4.4500002e+2, 1.8500713e+2, -1135787.1, -1145271.3, 9.318529, 0.00025605632, 0.05767281, -1135787.1, -8852.716, 0.0, 10.000008, 9.998751 
4.4500002e+2, 1.9500542e+2, -1037781.56, -1047285.9, 8.953854, 0.00027442453, 0.011563518, -1037781.56, -8834.363, 0.0, 10.000008, 9.998748 
4.4500002e+2, 2.0500365e+2, -939723.6, -949191.44, 7.9678464, 0.0002913473, -0.04098897, -939723.6, -8762.991, 0.0, 10.000009, 9.998754 
4.4500002e+2, 2.150018e+2, -841727.25, -851223.25, 7.391901, 0.00030682905, -0.100439765, -841727.25, -8752.662, 0.0, 10.000009, 9.998751 
4.4500002e+2, 2.2500023e+2, -745385.44, -756671.3, 5.7149353, 0.0003198446, -0.12026507, -745385.44, -10397.071, 0.0, 10.00001, 9.998513 
4.4500002e+2, 2.3499894e+2, -647393.6, -658711.8, 4.866626, 0.00033040068, -0.100984275, -647393.6, -10391.766, 0.0, 10.00001, 9.998509 
4.4500002e+2, 2.449973e+2, -555994.2, -574388.2, 2.6645937, 0.00033799314, -0.06991996, -555994.2, -16974.23, 0.0, 10.0000105, 9.997573 
4.4500002e+2, 2.549953e+2, -457982.84, -476394.25, 1.4755442, 0.00034262481, -0.02751783, -457982.84, -16940.203, 0.0, 10.0000105, 9.997571 
4.4500002e+2, 2.6499218e+2, -372570.8, -404500.47, -1.0097125, 0.00034485472, -0.0067321295, -372570.8, -29495.629, 0.0, 10.0000105, 9.995781 
4.4500002e+2, 2.7498794e+2, -274514.16, -306428.03, -2.621735, 0.0003446767, -0.0081686275, -274514.16, -29396.535, 0.0, 10.0000105, 9.995784 
4.4500002e+2, 2.8498173e+2, -206904.14, -271524.3, -3.9069529, 0.00034269507, 0.008182017, -206904.14, -59723.824, 0.0, 10.0000105, 9.991458 
4.4500002e+2, 2.9497355e+2, -108809.945, -173423.28, -6.9324007, 0.00033889653, 0.04159412, -108809.945, -59546.605, 0.0, 10.0000105, 9.99146 
4.4500002e+2, 3.049667e+2, -40406.27, -84176.99, -8.55842, 0.00035840517, 0.07258112, -40406.266, -40406.266, 0.0, 10.000011, 9.994216 
4.4500002e+2, 3.149612e+2, -40406.645, -84190.69, -13.6536045, 0.0004015665, 0.10042673, -40406.64, -40406.64, 0.0, 10.000011, 9.994215 
4.5500004e+2, 1.2501718e+2, -1723560.3, -1732689.4, 9.437971, 0.00032052663, -0.06319464, -1723560.3, -8733.295, 0.0, 10.000006, 9.998796 
4.5500004e+2, 1.3501623e+2, -1625600.1, -1634780.0, 7.3549476, 0.00028854844, -0.036007382, -1625600.1, -8761.954, 0.0, 10.000006, 9.998789 
4.5500004e+2, 1.4501473e+2, -1537004.0, -1556110.1, 10.630323, 0.0002840872, 0.0012112681, -1537004.0, -18148.197, 0.0, 10.000006, 9.997475 
4.5500004e+2, 1.5501268e+2, -1438991.1, -1458116.6, 9.785514, 0.00030695618, 0.047747195, -1438991.1, -18111.564, 0.0, 10.000006, 9.997472 
4.5500004e+2, 1.6501074e+2, -1336359.3, -1350624.9, 11.917627, 0.00033199697, 0.073488116, -1336359.3, -13458.661, 0.0, 10.000007, 9.998116 
4.5500004e+2, 1.750089e+2, -1238349.4, -1252636.5, 11.644673, 0.00035919843, 0.078186326, -1238349.4, -13430.516, 0.0, 10.000007, 9.998114 
4.5500004e+2, 1.8500713e+2, -1135787.8, -1145272.6, 11.4488325, 0.0003866389, 0.057698045, -1135787.8, -8853.413, 0.0, 10.000008, 9.998751 
4.5500004e+2, 1.9500542e+2, -1037782.25, -1047287.25, 11.08394, 0.0004143174, 0.011587128, -1037782.25, -8835.059, 0.0, 10.000008, 9.998748 
4.5500004e+2, 2.0500365e+2, -939724.75, -949193.7, 9.820461, 0.0004398171, -0.040967632, -939724.7, -8764.082, 0.0, 10.000009, 9.998754 
4.5500004e+2, 2.150018e+2, -841728.4, -851225.5, 9.24415, 0.00046314482, -0.10042134, -841728.4, -8753.749, 0.0, 10.000009, 9.99875 
4.5500004e+2, 2.2500025e+2, -745387.0, -756674.56, 7.041834, 0.00048277166, -0.12025019, -745387.0, -10398.67, 0.0, 10.00001, 9.998513 
4.5500004e+2, 2.3499894e+2, -647395.25, -658715.1, 6.193364, 0.000498708, -0.100973584, -647395.25, -10393.359, 0.0, 10.00001, 9.998509 
4.5500004e+2, 2.449973e+2, -555996.44, -574392.8, 3.3568358, 0.00051021663, -0.06991379, -555996.44, -16976.46, 0.0, 10.0000105, 9.997573 
4.5500004e+2, 2.549953e+2, -457985.06, -476398.88, 2.1677756, 0.00051730196, -0.027516522, -457985.06, -16942.428, 0.0, 10.0000105, 9.997571 
4.5500004e+2, 2.6499218e+2, -372573.8, -404506.72, -0.8852926, 0.00052093255, -0.0067379596, -372573.8, -29498.637, 0.0, 10.0000105, 9.995781 
4.5500004e+2, 2.7498794e+2, -274517.16, -306434.25, -2.4976666, 0.0005210992, -0.008183882, -274517.16, -29399.533, 0.0, 10.0000105, 9.995783 
4.5500004e+2, 2.8498173e+2, -206909.78, -271536.0, -3.1757977, 0.0005185079, 0.008160138, -206909.78, -59729.45, 0.0, 10.0000105, 9.991458 
4.5500004e+2, 2.9497355e+2, -108815.586, -173434.98, -6.2002015, 0.00051313796, 0.041568447, -108815.58, -59552.22, 0.0, 10.0000105, 9.991459 
4.5500004e+2, 3.049667e+2, -40415.742, -84196.67, -6.4646335, 0.00054351985, 0.07252842, -40415.74, -40415.74, 0.0, 10.000011, 9.994215 
4.5500004e+2, 3.149612e+2, -40416.137, -84210.4, -11.554785, 0.0006101872, 0.10032343, -40416.133, -40416.133, 0.0, 10.000011, 9.994213 
4.6500003e+2, 1.2501718e+2, -1723455.8, -1732648.8, 23.664156, 0.00049541966, -0.06308905, -1723455.6, -8628.762, 0.0, 10.000013, 9.9987955 
4.6500003e+2, 1.3501625e+2, -1625499.5, -1634741.3, 18.859304, 0.00044427565, -0.035939746, -1625499.4, -8661.23, 0.0, 10.000012, 9.998789 
4.6500003e+2, 1.4501473e+2, -1536898.6, -1556063.0, 23.066675, 0.00043617183, 0.0012605783, -1536898.6, -18042.89, 0.0, 10.000013, 9.997474 
4.6500003e+2, 1.5501268e+2, -1438880.8, -1458067.1, 21.101809, 0.00047081476, 0.04779766, -1438880.8, -18001.11, 0.0, 10.000013, 9.997472 
4.6500003e+2, 1.6501074e+2, -1336239.4, -1350567.9, 24.103014, 0.0005086807, 0.07353703, -1336239.4, -13338.714, 0.0, 10.000014, 9.998116 
4.6500003e+2, 1.750089e+2, -1238219.1, -1252574.6, 23.417538, 0.00054975273, 0.078231014, -1238219.1, -13300.276, 0.0, 10.000016, 9.998114 
4.6500003e+2, 1.8500713e+2, -1135647.4, -1145206.4, 22.841993, 0.00059130613, 0.05773924, -1135647.4, -8713.007, 0.0, 10.000017, 9.99875 
4.6500003e+2, 1.9500542e+2, -1037631.25, -1047215.9, 21.9374, 0.00063333893, 0.011625576, -1037631.25, -8684.036, 0.0, 10.000018, 9.998748 
4.6500003e+2, 2.0500365e+2, -939564.44, -949118.94, 19.532764, 0.00067204237, -0.04093297, -939564.44, -8603.822, 0.0, 10.00002, 9.998753 
4.6500006e+2, 2.150018e+2, -841558.9, -851146.3, 18.119375, 0.0007074273, -0.100391485, -841558.9, -8584.263, 0.0, 10.000021, 9.99875 
4.6500006e+2, 2.2500025e+2, -745210.5, -756593.44, 14.029613, 0.0007372127, -0.12022617, -745210.5, -10222.144, 0.0, 10.000022, 9.998513 
4.6500006e+2, 2.3499894e+2, -647212.06, -658630.8, 11.961207, 0.0007614148, -0.10095642, -647212.06, -10210.218, 0.0, 10.000023, 9.998509 
4.6500006e+2, 2.449973e+2, -555809.25, -574308.3, 6.6452928, 0.0007789707, -0.06990401, -555809.25, -16789.273, 0.0, 10.000023, 9.997572 
4.6500006e+2, 2.549953e+2, -457794.25, -476312.72, 3.7578542, 0.00078988716, -0.02751463, -457794.25, -16751.627, 0.0, 10.000024, 9.99757 
4.6500006e+2, 2.6499218e+2, -372381.97, -404422.25, -2.1864529, 0.00079593726, -0.006747678, -372381.97, -29306.771, 0.0, 10.000024, 9.99578 
4.6500006e+2, 2.7498794e+2, -274324.2, -306349.3, -6.103278, 0.0007971077, -0.008208932, -274324.2, -29206.553, 0.0, 10.000024, 9.995782 
4.6500006e+2, 2.8498173e+2, -206718.16, -271458.53, -8.920542, 0.0007939995, 0.008124309, -206718.16, -59537.805, 0.0, 10.000024, 9.991456 
4.6500006e+2, 2.9497352e+2, -108619.43, -173355.42, -16.020687, 0.0007865801, 0.041526444, -108619.43, -59356.035, 0.0, 10.000025, 9.991457 
4.6500006e+2, 3.049667e+2, -40217.86, -84126.36, -19.394981, 0.00083491654, 0.07244414, -40217.85, -40217.85, 0.0, 10.000026, 9.994212 
4.6500006e+2, 3.1496117e+2, -40206.566, -84134.5, -31.19322, 0.0009398493, 0.10016024, -40206.543, -40206.543, 0.0, 10.000027, 9.994211 
4.7500005e+2, 1.250172e+2, -1723464.9, -1732667.5, 22.100958, 0.0007356025, -0.06294341, -1723464.9, -8638.007, 0.0, 10.000013, 9.998794 
4.7500002e+2, 1.3501625e+2, -1625508.6, -1634760.0, 17.303003, 0.00065757486, -0.035845947, -1625508.5, -8670.4375, 0.0, 10.000012, 9.998787 
4.7500002e+2, 1.4501475e+2, -1536902.4, -1556070.8, 25.509995, 0.00064404873, 0.0013293158, -1536902.4, -18046.668, 0.0, 10.000013, 9.997474 
4.7500005e+2, 1.550127e+2, -1438884.5, -1458074.8, 23.547983, 0.0006945827, 0.047867917, -1438884.4, -18004.877, 0.0, 10.000013, 9.997471 
4.7500005e+2, 1.6501074e+2, -1336240.6, -1350570.6, 28.848555, 0.00074973167, 0.073605046, -1336240.6, -13340.032, 0.0, 10.000014, 9.998116 
4.7500005e+2, 1.7500891e+2, -1238220.4, -1252577.4, 28.163242, 0.00080947083, 0.07829308, -1238220.4, -13301.594, 0.0, 10.000016, 9.998114 
4.7500005e+2, 1.8500714e+2, -1135649.1, -1145209.9, 27.729635, 0.00087005773, 0.05779639, -1135649.0, -8714.72, 0.0, 10.000017, 9.99875 
4.7500005e+2, 1.9500542e+2, -1037633.0, -1047219.4, 26.82453, 0.0009314888, 0.011678861, -1037632.9, -8685.746, 0.0, 10.000018, 9.998748 
4.7500005e+2, 2.0500365e+2, -939567.1, -949124.44, 23.79139, 0.0009880229, -0.040884975, -939567.06, -8606.488, 0.0, 10.00002, 9.998753 
4.7500005e+2, 2.1500182e+2, -841561.56, -851151.75, 22.377127, 0.001039676, -0.10035021, -841561.5, -8586.92, 0.0, 10.000021, 9.99875 
4.7500005e+2, 2.2500025e+2, -745214.4, -756601.44, 17.094273, 0.0010831673, -0.120193005, -745214.4, -10226.036, 0.0, 10.000022, 9.998512 
4.7500008e+2, 2.3499894e+2, -647215.94, -658638.9, 15.025483, 0.0011185207, -0.100932784, -647215.94, -10214.101, 0.0, 10.000023, 9.998508 
4.7500008e+2, 2.449973e+2, -555814.6, -574319.5, 8.303002, 0.0011442549, -0.0698906, -555814.6, -16794.688, 0.0, 10.000023, 9.997571 
4.7500008e+2, 2.549953e+2, -457799.66, -476323.88, 5.415531, 0.0011603798, -0.02751216, -457799.66, -16757.025, 0.0, 10.000024, 9.997569 
4.7500008e+2, 2.6499218e+2, -372389.28, -404437.38, -1.7418295, 0.0011698683, -0.0067612845, -372389.28, -29314.076, 0.0, 10.000024, 9.995779 
4.7500008e+2, 2.7498794e+2, -274331.5, -306364.47, -5.659452, 0.0011727016, -0.008243778, -274331.5, -29213.838, 0.0, 10.000024, 9.995781 
4.7500008e+2, 2.8498173e+2, -206731.39, -271486.0, -6.983154, 0.0011691693, 0.0080745295, -206731.39, -59551.008, 0.0, 10.000024, 9.991454 
4.7500008e+2, 2.9497352e+2, -108632.66, -173382.88, -14.08069, 0.0011592224, 0.041468106, -108632.66, -59369.215, 0.0, 10.000025, 9.991455 
4.7500008e+2, 3.049667e+2, -40239.8, -84171.93, -14.269824, 0.0012325945, 0.07232829, -40239.793, -40239.793, 0.0, 10.000026, 9.994209 
4.7500008e+2, 3.1496117e+2, -40228.543, -84180.15, -26.056118, 0.0013905519, 0.09993717, -40228.527, -40228.527, 0.0, 10.000027, 9.994208 
4.8500007e+2, 1.2501721e+2, -1723244.5, -1732582.9, 52.679733, 0.0011033096, -0.06271847, -1723244.3, -8417.513, 0.0, 10.00003, 9.998792 
4.8500007e+2, 1.3501626e+2, -1625297.4, -1634679.8, 42.21269, 0.0009819611, -0.035699252, -1625297.1, -8459.128, 0.0, 10.000029, 9.998785 
4.8500007e+2, 1.4501475e+2, -1536682.3, -1555972.9, 52.809612, 0.0009583867, 0.0014380061, -1536682.1, -17826.49, 0.0, 10.000029, 9.997473 
4.8500007e+2, 1.550127e+2, -1438654.6, -1457972.3, 48.45883, 0.0010319129, 0.04797851, -1438654.5, -17774.969, 0.0, 10.00003, 9.99747 
4.850001e+2, 1.6501075e+2, -1335991.8, -1350453.1, 55.780712, 0.0011119483, 0.0737117, -1335991.6, -13091.082, 0.0, 10.000031, 9.998116 
4.850001e+2, 1.7500891e+2, -1237950.9, -1252449.9, 54.113224, 0.0011984564, 0.07839003, -1237950.6, -13031.973, 0.0, 10.000034, 9.998113 
4.850001e+2, 1.8500714e+2, -1135359.1, -1145073.6, 52.807533, 0.0012864937, 0.057885308, -1135358.9, -8424.664, 0.0, 10.000037, 9.99875 
4.850001e+2, 1.9500543e+2, -1037321.6, -1047072.9, 50.652008, 0.0013760539, 0.011761449, -1037321.4, -8374.274, 0.0, 10.00004, 9.998747 
4.850001e+2, 2.0500366e+2, -939237.3, -948971.5, 45.06336, 0.0014583677, -0.040810898, -939237.1, -8276.598, 0.0, 10.000042, 9.998752 
4.8500013e+2, 2.1500182e+2, -841213.1, -850989.94, 41.76139, 0.0015334598, -0.1002868, -841212.94, -8238.449, 0.0, 10.000045, 9.998749 
4.8500013e+2, 2.2500025e+2, -744852.06, -756436.2, 32.316513, 0.0015966691, -0.12014237, -744851.94, -9863.66, 0.0, 10.000047, 9.998511 
4.8500013e+2, 2.3499894e+2, -646840.3, -658467.25, 27.542377, 0.0016480319, -0.100897074, -646840.25, -9838.408, 0.0, 10.000049, 9.9985075 
4.8500013e+2, 2.449973e+2, -555430.94, -574148.06, 15.458686, 0.0016855488, -0.069870815, -555430.94, -16411.021, 0.0, 10.00005, 9.99757 
4.8500013e+2, 2.549953e+2, -457408.4, -476148.9, 8.847079, 0.0017092351, -0.027509313, -457408.4, -16365.791, 0.0, 10.000051, 9.997568 
4.8500013e+2, 2.6499218e+2, -371995.72, -404266.38, -4.4730244, 0.0017242791, -0.0067833243, -371995.72, -28920.518, 0.0, 10.0000515, 9.995777 
4.8500013e+2, 2.7498794e+2, -273934.78, -306192.1, -13.429858, 0.0017306553, -0.008298669, -273934.78, -28817.113, 0.0, 10.0000515, 9.99578 
4.8500013e+2, 2.8498173e+2, -206336.67, -271329.2, -19.051044, 0.0017275072, 0.007996519, -206336.67, -59156.234, 0.0, 10.000052, 9.991451 
4.8500013e+2, 2.9497352e+2, -108227.19, -173221.05, -34.66836, 0.0017147597, 0.04137683, -108227.164, -58963.65, 0.0, 10.000054, 9.991452 
4.8500013e+2, 3.0496666e+2, -39829.85, -84029.74, -40.886036, 0.0018274308, 0.07215198, -39829.816, -39829.816, 0.0, 10.000056, 9.9942045 
4.8500016e+2, 3.1496114e+2, -39792.87, -84025.664, -66.426056, 0.0020674493, 0.099602945, -39792.773, -39792.773, 0.0, 10.000059, 9.994203 
4.950001e+2, 1.2501723e+2, -1723264.5, -1732623.9, 48.808914, 0.0015985395, -0.06241426, -1723264.3, -8437.688, 0.0, 10.00003, 9.998789 
4.950001e+2, 1.3501628e+2, -1625317.3, -1634720.8, 38.35728, 0.0014174335, -0.03549966, -1625317.1, -8479.217, 0.0, 10.000029, 9.998782 
4.950001e+2, 1.4501478e+2, -1536690.5, -1555990.0, 57.790165, 0.0013791849, 0.0015866486, -1536690.4, -17834.85, 0.0, 10.000029, 9.997472 
4.950001e+2, 1.5501271e+2, -1438662.9, -1457989.3, 53.44595, 0.0014828045, 0.04812945, -1438662.6, -17783.303, 0.0, 10.00003, 9.997469 
4.9500012e+2, 1.6501075e+2, -1335995.0, -1350459.6, 65.88598, 0.0015953295, 0.073856995, -1335994.6, -13094.24, 0.0, 10.000031, 9.998115 
4.9500012e+2, 1.7500892e+2, -1237954.0, -1252456.4, 64.218925, 0.0017167082, 0.07852188, -1237953.8, -13035.129, 0.0, 10.000034, 9.998113 
4.9500012e+2, 1.8500715e+2, -1135363.3, -1145082.0, 63.26214, 0.0018406127, 0.058005996, -1135362.9, -8428.679, 0.0, 10.000037, 9.998749 
4.9500015e+2, 1.9500543e+2, -1037325.7, -1047081.25, 61.105453, 0.0019670324, 0.011873339, -1037325.3, -8378.283, 0.0, 10.00004, 9.998747 
4.9500015e+2, 2.0500366e+2, -939243.56, -948984.3, 54.171413, 0.0020830752, -0.040710732, -939243.25, -8282.774, 0.0, 10.000042, 9.998752 
4.9500015e+2, 2.1500182e+2, -841219.3, -851002.75, 50.867466, 0.0021887769, -0.10020125, -841219.06, -8244.609, 0.0, 10.000045, 9.998748 
4.9500015e+2, 2.2500025e+2, -744861.0, -756454.7, 38.883396, 0.002277716, -0.12007427, -744860.9, -9872.622, 0.0, 10.000047, 9.99851 
4.9500018e+2, 2.3499896e+2, -646849.25, -658485.75, 34.108387, 0.0023499457, -0.10084928, -646849.1, -9847.35, 0.0, 10.000049, 9.998507 
4.9500018e+2, 2.449973e+2, -555443.3, -574173.7, 19.136982, 0.00240285, -0.06984465, -555443.3, -16423.41, 0.0, 10.00005, 9.997568 
4.9500018e+2, 2.549953e+2, -457420.78, -476174.5, 12.525268, 0.0024364507, -0.027506094, -457420.78, -16378.149, 0.0, 10.000051, 9.997566 
4.9500018e+2, 2.6499218e+2, -372012.44, -404301.03, -3.1466122, 0.0024591675, -0.006813797, -372012.44, -28937.219, 0.0, 10.0000515, 9.995775 
4.9500018e+2, 2.7498794e+2, -273951.5, -306226.72, -12.105146, 0.0024709664, -0.008373605, -273951.5, -28833.771, 0.0, 10.0000515, 9.995777 
4.9500018e+2, 2.8498173e+2, -206365.78, -271389.56, -14.257322, 0.0024690107, 0.007890279, -206365.78, -59185.273, 0.0, 10.000052, 9.991447 
4.9500018e+2, 2.9497352e+2, -108256.27, -173281.45, -29.86848, 0.0024531896, 0.041252606, -108256.266, -58992.637, 0.0, 10.000054, 9.991448 
4.9500018e+2, 3.0496663e+2, -39877.348, -84128.4, -29.088604, 0.0026194223, 0.0719152, -39877.33, -39877.33, 0.0, 10.000056, 9.994198 
4.950002e+2, 3.1496108e+2, -39840.45, -84124.5, -54.601955, 0.0029705379, 0.099157564, -39840.383, -39840.383, 0.0, 10.000059, 9.994196 
5.050002e+2, 1.2501726e+2, -1722828.3, -1732458.9, 110.38647, 0.0023249793, -0.061964776, -1722827.0, -8000.687, 0.0, 10.000061, 9.998785 
5.050002e+2, 1.3501629e+2, -1624901.9, -1634566.0, 88.87052, 0.0020513544, -0.035200924, -1624901.0, -8063.296, 0.0, 10.000058, 9.998778 
5.050002e+2, 1.450148e+2, -1536259.8, -1555800.4, 113.921165, 0.0019873497, 0.00181139, -1536259.0, -17403.684, 0.0, 10.000058, 9.99747 
5.050002e+2, 1.5501273e+2, -1438215.9, -1457791.9, 104.731895, 0.0021315033, 0.048356324, -1438215.3, -17336.03, 0.0, 10.000061, 9.997467 
5.050002e+2, 1.6501078e+2, -1335513.4, -1350233.8, 121.518974, 0.0022874575, 0.07407421, -1335512.4, -12612.127, 0.0, 10.000065, 9.998114 
5.050002e+2, 1.7500894e+2, -1237434.6, -1252212.3, 117.59111, 0.0024551407, 0.07871784, -1237433.8, -12515.258, 0.0, 10.00007, 9.998112 
5.050002e+2, 1.8500717e+2, -1134806.8, -1144822.3, 114.67573, 0.00262707, 0.058184292, -1134805.4, -7871.3994, 0.0, 10.000075, 9.998748 
5.0500023e+2, 1.9500545e+2, -1036729.8, -1046802.6, 109.74189, 0.0028032272, 0.01203766, -1036728.6, -7781.7104, 0.0, 10.000081, 9.998746 
5.0500023e+2, 2.0500368e+2, -938614.3, -948695.0, 97.37537, 0.0029645322, -0.040564578, -938613.4, -7653.0386, 0.0, 10.000086, 9.99875 
5.0500023e+2, 2.1500184e+2, -840556.2, -850697.2, 90.04033, 0.0031110386, -0.10007741, -840555.4, -7580.995, 0.0, 10.000091, 9.998747 
5.0500023e+2, 2.2500026e+2, -744173.0, -756144.06, 69.43967, 0.0032341422, -0.11997673, -744172.6, -9184.45, 0.0, 10.000094, 9.998508 
5.0500023e+2, 2.3499896e+2, -646137.06, -658163.6, 59.035595, 0.0033339197, -0.10078205, -646136.75, -9135.048, 0.0, 10.000098, 9.998505 
5.050003e+2, 2.449973e+2, -554717.1, -573853.44, 33.28809, 0.0034071554, -0.069809474, -554717.06, -15697.208, 0.0, 10.000101, 9.997565 
5.050003e+2, 2.549953e+2, -456680.28, -475847.6, 19.069578, 0.00345388, -0.027504707, -456680.28, -15637.658, 0.0, 10.000103, 9.997563 
5.050003e+2, 2.6499215e+2, -371267.53, -403982.97, -8.704462, 0.0034881276, -0.0068617933, -371267.53, -28192.287, 0.0, 10.000104, 9.995771 
5.050003e+2, 2.749879e+2, -273198.8, -305905.13, -27.885307, 0.0035098533, -0.00848663, -273198.78, -28081.01, 0.0, 10.000105, 9.995773 
5.050003e+2, 2.849817e+2, -205615.13, -271097.9, -37.825825, 0.0035117688, 0.007731374, -205615.11, -58434.492, 0.0, 10.000107, 9.991441 
5.050003e+2, 2.949735e+2, -107482.07, -172978.77, -69.82185, 0.003493711, 0.04106722, -107482.0, -58218.207, 0.0, 10.000111, 9.991442 
5.050003e+2, 3.0496663e+2, -39092.69, -83864.266, -79.42809, 0.003739424, 0.07157377, -39092.55, -39092.55, 0.0, 10.000115, 9.994187 
5.050003e+2, 3.1496105e+2, -39003.383, -83835.305, -130.73824, 0.004253066, 0.09852844, -39003.0, -39003.0, 0.0, 10.000122, 9.994186 
5.150002e+2, 1.2501729e+2, -1722869.4, -1732543.1, 101.24948, 0.0032826245, -0.061370037, -1722868.3, -8042.3, 0.0, 10.000061, 9.998779 
5.150002e+2, 1.3501632e+2, -1624942.8, -1634650.1, 79.76594, 0.0028837197, -0.034803055, -1624942.1, -8104.7056, 0.0, 10.000058, 9.998773 
5.150002e+2, 1.4501482e+2, -1536277.3, -1555836.3, 123.12414, 0.0027828782, 0.0021122291, -1536276.4, -17421.293, 0.0, 10.000058, 9.997467 
5.150002e+2, 1.5501276e+2, -1438233.3, -1457827.8, 113.94913, 0.0029780057, 0.04865913, -1438232.6, -17353.594, 0.0, 10.000061, 9.997465 
5.150002e+2, 1.6501081e+2, -1335520.9, -1350249.0, 141.42761, 0.0031883288, 0.07436334, -1335519.5, -12619.395, 0.0, 10.000065, 9.998113 
5.150002e+2, 1.7500895e+2, -1237442.1, -1252227.6, 137.50078, 0.00341375, 0.07897791, -1237440.9, -12522.523, 0.0, 10.00007, 9.998111 
5.150003e+2, 1.8500718e+2, -1134816.0, -1144841.5, 135.36234, 0.003645861, 0.05842019, -1134814.3, -7880.3457, 0.0, 10.000075, 9.998747 
5.150003e+2, 1.9500548e+2, -1036739.06, -1046821.75, 130.426, 0.0038846326, 0.012254409, -1036737.44, -7790.6543, 0.0, 10.000081, 9.998745 
5.150003e+2, 2.050037e+2, -938628.1, -948723.44, 115.34594, 0.004102733, -0.04037244, -938626.8, -7666.578, 0.0, 10.000086, 9.998748 
5.1500034e+2, 2.1500185e+2, -840569.9, -850725.56, 108.00665, 0.0043002386, -0.09991529, -840568.75, -7594.511, 0.0, 10.000091, 9.998745 
5.1500034e+2, 2.2500028e+2, -744192.5, -756184.4, 82.36934, 0.0044659404, -0.119849734, -744191.94, -9203.8955, 0.0, 10.000094, 9.998506 
5.1500034e+2, 2.3499897e+2, -646156.56, -658203.94, 71.96341, 0.004599946, -0.1006954, -646156.1, -9154.459, 0.0, 10.000098, 9.998502 
5.1500034e+2, 2.4499731e+2, -554743.75, -573908.5, 40.784454, 0.004698457, -0.0697653, -554743.7, -15723.828, 0.0, 10.000101, 9.997561 
5.1500034e+2, 2.549953e+2, -456706.88, -475902.63, 26.565586, 0.004761516, -0.027505152, -456706.8, -15664.217, 0.0, 10.000103, 9.99756 
5.1500034e+2, 2.6499215e+2, -371303.34, -404057.16, -5.237425, 0.004811151, -0.0069273114, -371303.34, -28228.043, 0.0, 10.000104, 9.995767 
5.1500034e+2, 2.749879e+2, -273234.56, -305979.28, -24.421682, 0.0048473077, -0.008637744, -273234.53, -28116.674, 0.0, 10.000105, 9.995769 
5.150004e+2, 2.849817e+2, -205674.75, -271221.66, -26.800241, 0.0048557734, 0.0075198035, -205674.73, -58493.977, 0.0, 10.000107, 9.991432 
5.150004e+2, 2.9497346e+2, -107541.67, -173102.53, -58.782585, 0.0048363153, 0.040820673, -107541.62, -58277.6, 0.0, 10.000111, 9.991433 
5.150004e+2, 3.0496654e+2, -39188.12, -84062.51, -54.035164, 0.0051874253, 0.07112769, -39188.055, -39188.055, 0.0, 10.000115, 9.994174 
5.150004e+2, 3.14961e+2, -39098.98, -84033.914, -105.28955, 0.005915022, 0.09771557, -39098.734, -39098.734, 0.0, 10.000122, 9.994172 
5.2500033e+2, 1.2501734e+2, -1722061.0, -1732243.3, 216.83778, 0.0046270066, -0.060531184, -1722056.4, -7230.868, 0.0, 10.00012, 9.998771 
5.2500033e+2, 1.3501638e+2, -1624179.1, -1634372.1, 175.19496, 0.004042077, -0.03423443, -1624176.1, -7339.1265, 0.0, 10.000114, 9.998764 
5.2500033e+2, 1.4501487e+2, -1535490.9, -1555494.6, 230.66109, 0.0038799865, 0.0025460618, -1535488.3, -16633.482, 0.0, 10.0001135, 9.997463 
5.2500033e+2, 1.5501279e+2, -1437425.0, -1457475.8, 212.13362, 0.0041377335, 0.049092438, -1437422.8, -16544.002, 0.0, 10.000117, 9.997461 
5.250004e+2, 1.6501084e+2, -1334656.5, -1349847.9, 248.20837, 0.004413981, 0.074774, -1334652.5, -11752.688, 0.0, 10.000124, 9.998112 
5.250004e+2, 1.7500898e+2, -1236516.1, -1251796.8, 239.27037, 0.0047085998, 0.0793442, -1236512.4, -11594.39, 0.0, 10.0001335, 9.998109 
5.2500045e+2, 1.8500721e+2, -1133829.8, -1144386.0, 232.84416, 0.0050139227, 0.05874946, -1133824.6, -6891.03, 0.0, 10.000144, 9.998745 
5.2500045e+2, 1.9500549e+2, -1035688.25, -1046335.3, 222.00153, 0.005329903, 0.012554259, -1035683.6, -6737.0933, 0.0, 10.000154, 9.998742 
5.250005e+2, 2.0500372e+2, -937524.06, -948222.0, 195.97073, 0.0056173615, -0.04010931, -937520.5, -6560.5054, 0.0, 10.000163, 9.998745 
5.250005e+2, 2.1500187e+2, -839410.9, -850197.8, 180.4894, 0.0058764075, -0.09969608, -839407.9, -6433.8037, 0.0, 10.000172, 9.998741 
5.250005e+2, 2.2500029e+2, -742995.2, -755651.8, 138.15967, 0.0060931095, -0.119681045, -742993.7, -8005.775, 0.0, 10.000178, 9.998501 
5.250006e+2, 2.3499897e+2, -644920.75, -657653.1, 116.8031, 0.0062676193, -0.10058399, -644919.7, -7918.1265, 0.0, 10.000185, 9.998497 
5.250006e+2, 2.4499731e+2, -553487.06, -573364.3, 65.63743, 0.00639595, -0.06971359, -553486.9, -14467.082, 0.0, 10.00019, 9.997556 
5.250006e+2, 2.549953e+2, -455426.47, -475347.44, 37.044262, 0.0064781597, -0.027515583, -455426.4, -14383.806, 0.0, 10.000194, 9.997554 
5.250006e+2, 2.6499215e+2, -370015.9, -403520.44, -16.370605, 0.006549277, -0.00702752, -370015.9, -26940.566, 0.0, 10.000196, 9.995759 
5.250006e+2, 2.749879e+2, -271930.25, -305434.88, -54.60542, 0.006609239, -0.008855467, -271930.16, -26812.172, 0.0, 10.000198, 9.995761 
5.250006e+2, 2.8498167e+2, -204370.52, -270729.53, -69.34813, 0.0066308603, 0.0072187297, -204370.45, -57189.457, 0.0, 10.000202, 9.99142 
5.2500063e+2, 2.9497343e+2, -106190.516, -172588.34, -129.92015, 0.006613808, 0.04047091, -106190.266, -56925.906, 0.0, 10.000209, 9.991422 
5.2500063e+2, 3.0496648e+2, -37814.996, -83617.51, -140.34381, 0.007111659, 0.07052158, -37814.566, -37814.566, 0.0, 10.000218, 9.994154 
5.250007e+2, 3.149609e+2, -37628.164, -83542.23, -235.08736, 0.008132787, 0.09664193, -37626.96, -37626.96, 0.0, 10.000232, 9.994153 
5.350005e+2, 1.2501742e+2, -1722140.5, -1732406.4, 196.34218, 0.0063581103, -0.059448224, -1722136.8, -7311.915, 0.0, 10.00012, 9.998759 
5.3500044e+2, 1.3501646e+2, -1624258.5, -1634535.0, 154.7633, 0.0055264127, -0.03349506, -1624256.1, -7419.6895, 0.0, 10.000114, 9.998753 
5.3500044e+2, 1.4501493e+2, -1535526.3, -1555567.1, 245.6538, 0.0052786637, 0.003112883, -1535523.3, -16668.871, 0.0, 10.0001135, 9.997458 
5.350005e+2, 1.5501285e+2, -1437460.1, -1457548.1, 227.1556, 0.005610676, 0.049656235, -1437457.6, -16579.303, 0.0, 10.000117, 9.997457 
5.350005e+2, 1.6501088e+2, -1334673.4, -1349882.6, 284.11676, 0.005964403, 0.07530616, -1334668.1, -11768.731, 0.0, 10.000124, 9.998109 
5.3500056e+2, 1.7500903e+2, -1236533.0, -1251831.6, 275.181, 0.0063396767, 0.079816684, -1236528.1, -11610.444, 0.0, 10.0001335, 9.998107 
5.3500056e+2, 1.8500724e+2, -1133850.1, -1144428.1, 270.3296, 0.006731241, 0.0591721, -1133843.3, -6910.01, 0.0, 10.000144, 9.998742 
5.350006e+2, 1.9500554e+2, -1035708.6, -1046377.4, 259.48166, 0.0071390243, 0.012937205, -1035702.3, -6756.1055, 0.0, 10.000154, 9.998739 
5.350007e+2, 2.0500375e+2, -937553.1, -948282.0, 228.30644, 0.0075084013, -0.03977519, -937548.3, -6588.5796, 0.0, 10.000163, 9.998741 
5.350007e+2, 2.150019e+2, -839439.9, -850257.7, 212.81647, 0.007839527, -0.09941978, -839435.7, -6461.8716, 0.0, 10.000172, 9.998737 
5.3500074e+2, 2.250003e+2, -743035.2, -755734.56, 161.22528, 0.0081156315, -0.11947067, -743033.2, -8045.46, 0.0, 10.000178, 9.998496 
5.3500074e+2, 2.3499899e+2, -644960.7, -657735.8, 139.86496, 0.00833692, -0.10044783, -644959.2, -7957.7715, 0.0, 10.000185, 9.998491 
5.3500074e+2, 2.4499732e+2, -553540.56, -573475.06, 79.47651, 0.008499615, -0.06965435, -553540.25, -14520.547, 0.0, 10.00019, 9.997548 
5.350008e+2, 2.549953e+2, -455479.88, -475458.1, 50.882248, 0.008603793, -0.027536001, -455479.75, -14437.162, 0.0, 10.000194, 9.997546 
5.350008e+2, 2.6499215e+2, -370087.25, -403668.3, -8.312997, 0.008702485, -0.0071624145, -370087.25, -27011.818, 0.0, 10.000196, 9.9957485 
5.350008e+2, 2.7498788e+2, -272001.5, -305582.7, -46.554207, 0.008795626, -0.009139792, -272001.44, -26883.252, 0.0, 10.000198, 9.99575 
5.350008e+2, 2.8498164e+2, -204483.39, -270963.84, -45.937565, 0.008837007, 0.006828159, -204483.36, -57302.063, 0.0, 10.000202, 9.991405 
5.350008e+2, 2.9497334e+2, -106303.336, -172822.72, -106.48101, 0.008826166, 0.04001794, -106303.164, -57038.36, 0.0, 10.000209, 9.9914055 
5.3500086e+2, 3.0496642e+2, -37991.23, -83983.67, -89.6066, 0.009512098, 0.06975546, -37991.055, -37991.055, 0.0, 10.000218, 9.994129 
5.350009e+2, 3.149608e+2, -37804.715, -83909.08, -184.2412, 0.0109063275, 0.09530753, -37803.977, -37803.977, 0.0, 10.000232, 9.994128 
5.450007e+2, 1.2501754e+2, -1720742.4, -1731900.0, 397.40262, 0.008681216, -0.0579937, -1720728.3, -5904.459, 0.0, 10.000222, 9.998744 
5.450006e+2, 1.3501655e+2, -1622951.1, -1634073.1, 321.66815, 0.007498916, -0.03248866, -1622941.8, -6106.1284, 0.0, 10.000211, 9.998737 
5.450006e+2, 1.45015e+2, -1534193.6, -1554999.1, 436.43948, 0.0071165124, 0.003890308, -1534184.5, -15330.878, 0.0, 10.000208, 9.997452 
5.450007e+2, 1.550129e+2, -1436107.8, -1456970.9, 400.74365, 0.0075281886, 0.050421774, -1436100.1, -15222.462, 0.0, 10.000214, 9.997449 
5.450007e+2, 1.6501094e+2, -1333243.5, -1349229.6, 473.21756, 0.007962842, 0.07602145, -1333229.5, -10330.694, 0.0, 10.000223, 9.998105 
5.4500073e+2, 1.750091e+2, -1235016.8, -1251137.1, 453.64487, 0.0084202625, 0.08044417, -1235004.0, -10086.877, 0.0, 10.000239, 9.998103 
5.450008e+2, 1.850073e+2, -1132249.9, -1143701.0, 439.71512, 0.008902829, 0.05972604, -1132233.0, -5300.3145, 0.0, 10.000255, 9.998737 
5.4500085e+2, 1.9500558e+2, -1034016.94, -1045606.5, 416.8662, 0.009410428, 0.013432333, -1034002.0, -5056.2476, 0.0, 10.000271, 9.998735 
5.450009e+2, 2.050038e+2, -935790.0, -947496.06, 364.79428, 0.009867118, -0.039350104, -935778.6, -4819.347, 0.0, 10.000286, 9.998734 
5.450009e+2, 2.1500194e+2, -837601.0, -849435.6, 333.77066, 0.010273115, -0.09907576, -837591.56, -4618.107, 0.0, 10.0003, 9.998732 
5.45001e+2, 2.2500034e+2, -741148.25, -754913.75, 252.03384, 0.010609757, -0.11921697, -741143.6, -6156.1997, 0.0, 10.000312, 9.998487 
5.4500103e+2, 2.3499903e+2, -643023.0, -656891.06, 210.83264, 0.010877319, -0.10029401, -643019.8, -6018.622, 0.0, 10.000321, 9.998484 
5.4500103e+2, 2.4499735e+2, -551579.2, -572648.44, 116.5575, 0.01107344, -0.06960267, -551578.56, -12558.965, 0.0, 10.000329, 9.997538 
5.4500103e+2, 2.549953e+2, -453485.66, -474616.28, 63.047318, 0.011198215, -0.027588753, -453485.47, -12442.889, 0.0, 10.000335, 9.997536 
5.450011e+2, 2.6499212e+2, -368084.78, -402862.25, -30.557323, 0.011332021, -0.0073625175, -368084.75, -25009.203, 0.0, 10.00034, 9.995734 
5.450011e+2, 2.7498785e+2, -269966.94, -304761.8, -100.978424, 0.011474801, -0.009530349, -269966.66, -24848.205, 0.0, 10.000345, 9.995736 
5.450011e+2, 2.8498158e+2, -202442.61, -270224.4, -116.550354, 0.011548792, 0.006301125, -202442.4, -55260.68, 0.0, 10.000353, 9.991383 
5.450011e+2, 2.9497328e+2, -104178.78, -172043.77, -221.39655, 0.011553359, 0.039409336, -104178.06, -54912.605, 0.0, 10.000365, 9.991384 
5.4500115e+2, 3.049663e+2, -35825.695, -83316.19, -221.12558, 0.012481948, 0.06878191, -35824.664, -35824.664, 0.0, 10.000383, 9.994096 
5.4500127e+2, 3.1496066e+2, -35475.473, -83163.42, -379.7396, 0.014350208, 0.09368043, -35472.45, -35472.45, 0.0, 10.000408, 9.994094 
5.550009e+2, 1.2501769e+2, -1720887.0, -1732196.8, 353.8627, 0.011596279, -0.056167644, -1720876.0, -6053.4443, 0.0, 10.000222, 9.998724 
5.5500084e+2, 1.3501666e+2, -1623095.4, -1634369.5, 278.24664, 0.009959551, -0.031215247, -1623088.5, -6253.9375, 0.0, 10.000211, 9.998717 
5.5500084e+2, 1.450151e+2, -1534261.6, -1555138.9, 456.73166, 0.009393506, 0.0048783226, -1534251.6, -15398.903, 0.0, 10.000208, 9.997442 
5.5500084e+2, 1.5501301e+2, -1436175.6, -1457110.4, 421.09244, 0.009890244, 0.051389042, -1436167.1, -15290.327, 0.0, 10.000214, 9.997439 
5.550009e+2, 1.6501103e+2, -1333280.5, -1349305.9, 531.58563, 0.0104092695, 0.076919846, -1333262.9, -10364.825, 0.0, 10.000223, 9.9981 
5.5500096e+2, 1.7500919e+2, -1235053.6, -1251213.4, 512.0172, 0.01095033, 0.081226654, -1235037.5, -10121.083, 0.0, 10.000239, 9.998097 
5.550011e+2, 1.8500738e+2, -1132292.9, -1143789.8, 501.011, 0.011528657, 0.06041128, -1132271.1, -5339.0166, 0.0, 10.000255, 9.998731 
5.5500114e+2, 1.9500566e+2, -1034059.9, -1045695.1, 478.15125, 0.012144085, 0.014039634, -1034040.25, -5095.113, 0.0, 10.000271, 9.998729 
5.550012e+2, 2.0500386e+2, -935848.2, -947616.3, 416.95444, 0.01269348, -0.038834058, -935833.44, -4874.6807, 0.0, 10.000286, 9.998726 
5.5500126e+2, 2.1500199e+2, -837659.06, -849555.7, 385.91412, 0.013177141, -0.09866401, -837646.5, -4673.527, 0.0, 10.0003, 9.998723 
5.550013e+2, 2.2500038e+2, -741225.44, -755073.4, 288.50955, 0.013575458, -0.11891993, -741219.44, -6232.353, 0.0, 10.000312, 9.998476 
5.550013e+2, 2.3499906e+2, -643100.06, -657050.6, 247.30124, 0.013888789, -0.10012252, -643095.7, -6094.765, 0.0, 10.000321, 9.998472 
5.550014e+2, 2.4499735e+2, -551679.25, -572855.7, 139.22118, 0.0141174, -0.06955852, -551678.4, -12658.892, 0.0, 10.000329, 9.997523 
5.550014e+2, 2.549953e+2, -453585.6, -474823.38, 85.708, 0.014261402, -0.027673833, -453585.25, -12542.652, 0.0, 10.000335, 9.997521 
5.5500144e+2, 2.6499212e+2, -368216.13, -403134.6, -13.857146, 0.01443786, -0.007627818, -368216.13, -25140.398, 0.0, 10.00034, 9.995715 
5.5500144e+2, 2.7498782e+2, -270098.13, -305034.03, -84.28918, 0.014646735, -0.010027124, -270097.9, -24979.12, 0.0, 10.000345, 9.995718 
5.5500144e+2, 2.8498152e+2, -202637.98, -270630.03, -71.078476, 0.014766182, 0.005637645, -202637.92, -55455.605, 0.0, 10.000353, 9.991355 
5.550015e+2, 2.949732e+2, -104374.08, -172449.53, -175.86832, 0.01479535, 0.03864511, -104373.625, -55107.332, 0.0, 10.000365, 9.991356 
5.550016e+2, 3.0496618e+2, -36120.824, -83929.49, -127.91016, 0.016021166, 0.067600965, -36120.484, -36120.484, 0.0, 10.000383, 9.994054 
5.5500174e+2, 3.1496048e+2, -35771.15, -83777.91, -286.3252, 0.018464372, 0.091760635, -35769.438, -35769.438, 0.0, 10.000408, 9.994052 
5.650013e+2, 1.250179e+2, -1718636.5, -1731405.8, 675.58514, 0.015333262, -0.053838775, -1718600.9, -3780.179, 0.0, 10.000388, 9.998696 
5.6500113e+2, 1.3501683e+2, -1621016.9, -1633662.6, 546.3726, 0.013080492, -0.029569115, -1620993.3, -4160.197, 0.0, 10.000365, 9.99869 
5.6500113e+2, 1.4501524e+2, -1532173.1, -1554273.3, 767.81665, 0.01224202, 0.006163078, -1532146.5, -13295.074, 0.0, 10.000357, 9.997428 
5.6500125e+2, 1.5501314e+2, -1434093.9, -1456248.5, 702.0646, 0.0128072025, 0.052630436, -1434071.6, -13196.059, 0.0, 10.000361, 9.997426 
5.650013e+2, 1.6501115e+2, -1331115.4, -1348343.0, 837.9349, 0.013387939, 0.0780569, -1331074.6, -8177.7075, 0.0, 10.000375, 9.998092 
5.6500137e+2, 1.750093e+2, -1232792.9, -1250204.8, 796.9515, 0.0139839435, 0.082199946, -1232756.5, -7841.087, 0.0, 10.000397, 9.99809 
5.650015e+2, 1.850075e+2, -1129940.1, -1142749.6, 767.66864, 0.014635859, 0.061246756, -1129894.4, -2963.1682, 0.0, 10.00042, 9.998722 
5.6500155e+2, 1.9500576e+2, -1031603.1, -1044605.3, 721.63306, 0.015343438, 0.0147642065, -1031563.2, -2618.8794, 0.0, 10.000443, 9.99872 
5.650016e+2, 2.0500393e+2, -933318.94, -946523.44, 622.8127, 0.015967567, -0.038234964, -933289.6, -2331.5522, 0.0, 10.000464, 9.998714 
5.650017e+2, 2.1500205e+2, -835048.8, -848424.3, 563.8162, 0.016508654, -0.09820456, -835025.06, -2052.6594, 0.0, 10.000484, 9.998712 
5.650018e+2, 2.2500043e+2, -738575.25, -753962.0, 415.81213, 0.016949413, -0.11860973, -738564.0, -3577.421, 0.0, 10.000501, 9.998461 
5.6500185e+2, 2.3499909e+2, -640402.3, -655917.06, 341.21344, 0.017290302, -0.099971764, -640394.8, -3394.1736, 0.0, 10.000513, 9.998457 
5.6500185e+2, 2.4499737e+2, -548969.4, -571762.3, 181.15686, 0.017536454, -0.06956663, -548967.94, -9948.628, 0.0, 10.000524, 9.997504 
5.650019e+2, 2.549953e+2, -450842.63, -473714.94, 88.40475, 0.017687993, -0.02784031, -450842.28, -9799.66, 0.0, 10.000532, 9.997502 
5.650019e+2, 2.649921e+2, -365469.97, -402088.72, -58.44657, 0.017913383, -0.008007724, -365469.88, -22393.912, 0.0, 10.000541, 9.99569 
5.6500196e+2, 2.7498776e+2, -267300.2, -303964.1, -177.1813, 0.01821264, -0.010675877, -267299.34, -22180.035, 0.0, 10.000548, 9.995692 
5.6500196e+2, 2.8498143e+2, -199821.47, -269669.1, -178.59879, 0.018397866, 0.004792344, -199821.02, -52637.902, 0.0, 10.000564, 9.991319 
5.65002e+2, 2.9497305e+2, -101427.62, -171427.25, -342.103, 0.018467925, 0.037677143, -101425.945, -52158.523, 0.0, 10.000585, 9.99132 
5.6500214e+2, 3.04966e+2, -33108.438, -83063.7, -300.53574, 0.020041954, 0.06621233, -33106.63, -33106.63, 0.0, 10.000615, 9.994001 
5.650023e+2, 3.1496024e+2, -32519.404, -82797.93, -536.33545, 0.023146844, 0.089646794, -32513.684, -32513.684, 0.0, 10.000657, 9.9939995 
5.750017e+2, 1.2501816e+2, -1718883.3, -1731912.3, 588.2811, 0.019892054, -0.051007155, -1718856.8, -4038.3972, 0.0, 10.000388, 9.998662 
5.750016e+2, 1.3501705e+2, -1621263.1, -1634168.5, 459.27438, 0.016861657, -0.027550314, -1621246.8, -4415.648, 0.0, 10.000365, 9.998655 
5.7500154e+2, 1.4501545e+2, -1532298.3, -1554530.6, 786.7036, 0.015661996, 0.007744542, -1532270.5, -13420.724, 0.0, 10.000357, 9.997411 
5.750016e+2, 1.5501331e+2, -1434218.8, -1456505.6, 721.055, 0.01627901, 0.054145925, -1434195.5, -13321.374, 0.0, 10.000361, 9.997409 
5.7500166e+2, 1.650113e+2, -1331192.8, -1348502.6, 921.27783, 0.016898803, 0.0794326, -1331143.9, -8248.271, 0.0, 10.000375, 9.998081 
5.750018e+2, 1.7500943e+2, -1232870.3, -1250364.3, 880.30115, 0.017521067, 0.083364025, -1232826.0, -7911.8936, 0.0, 10.000397, 9.998078 
5.750019e+2, 1.8500762e+2, -1130026.8, -1142928.3, 856.1578, 0.01822441, 0.06223247, -1129970.3, -3040.1763, 0.0, 10.00042, 9.99871 
5.75002e+2, 1.9500586e+2, -1031689.56, -1044783.8, 810.1001, 0.01900847, 0.015606046, -1031639.6, -2696.3574, 0.0, 10.000443, 9.998708 
5.7500213e+2, 2.0500402e+2, -933429.56, -946752.06, 696.26605, 0.019689374, -0.037552815, -933393.3, -2436.1492, 0.0, 10.000464, 9.998699 
5.750022e+2, 2.1500213e+2, -835159.25, -848652.7, 637.23865, 0.020267662, -0.0976974, -835129.2, -2157.5527, 0.0, 10.000484, 9.998695 
5.750023e+2, 2.2500049e+2, -738715.0, -754251.1, 465.0238, 0.020731645, -0.11828633, -738701.1, -3715.0923, 0.0, 10.000501, 9.998442 
5.750024e+2, 2.3499912e+2, -640541.9, -656205.94, 390.4125, 0.021081889, -0.09984172, -640532.1, -3531.899, 0.0, 10.000513, 9.998438 
5.7500243e+2, 2.4499738e+2, -549142.8, -572121.56, 212.81638, 0.021330642, -0.06962696, -549140.9, -10121.735, 0.0, 10.0005245, 9.997479 
5.7500243e+2, 2.549953e+2, -451015.88, -474073.97, 120.057396, 0.021478033, -0.028088154, -451015.25, -9972.542, 0.0, 10.000532, 9.997478 
5.750025e+2, 2.6499203e+2, -365691.47, -402547.94, -27.890066, 0.021758638, -0.008502202, -365691.44, -22615.12, 0.0, 10.000541, 9.995659 
5.750025e+2, 2.7498767e+2, -267521.4, -304423.1, -146.64066, 0.02217256, -0.011476577, -267520.8, -22400.854, 0.0, 10.000548, 9.995661 
5.7500255e+2, 2.8498128e+2, -200126.27, -270301.88, -98.97516, 0.022443878, 0.0037652582, -200126.13, -52941.992, 0.0, 10.000564, 9.991276 
5.750027e+2, 2.949729e+2, -101732.3, -172060.3, -262.37347, 0.022571115, 0.036505476, -101731.32, -52462.46, 0.0, 10.000585, 9.991277 
5.750028e+2, 3.049658e+2, -33547.52, -83976.21, -145.19121, 0.02454434, 0.06461601, -33547.1, -33547.1, 0.0, 10.000615, 9.993938 
5.7500297e+2, 3.1495997e+2, -32959.34, -83712.29, -380.64902, 0.028397657, 0.08733884, -32956.484, -32956.484, 0.0, 10.000657, 9.993937 
5.8500224e+2, 1.250185e+2, -1715518.5, -1730773.5, 1057.5505, 0.025472868, -0.04759024, -1715445.5, -630.1735, 0.0, 10.000639, 9.998617 
5.850021e+2, 1.3501735e+2, -1618201.5, -1633178.1, 851.02875, 0.021439476, -0.025081197, -1618153.3, -1324.739, 0.0, 10.000595, 9.9986105 
5.8500206e+2, 1.4501569e+2, -1529281.6, -1553332.5, 1248.7356, 0.01973477, 0.009686024, -1529216.9, -10369.449, 0.0, 10.000573, 9.997387 
5.8500206e+2, 1.5501353e+2, -1431285.0, -1455348.5, 1133.0391, 0.02034037, 0.05597483, -1431231.8, -10359.701, 0.0, 10.000572, 9.997384 
5.850022e+2, 1.6501153e+2, -1328213.6, -1347236.0, 1370.6726, 0.020923937, 0.08106136, -1328115.4, -5221.682, 0.0, 10.000586, 9.998065 
5.850023e+2, 1.7500961e+2, -1229830.6, -1249069.3, 1289.2059, 0.021485178, 0.084707774, -1229744.6, -4832.134, 0.0, 10.000612, 9.998062 
5.850024e+2, 1.8500778e+2, -1126930.8, -1141624.4, 1230.666, 0.022166073, 0.06333536, -1126828.4, 100.154686, 0.0, 10.000639, 9.9986925 
5.850026e+2, 1.9500601e+2, -1028518.5, -1043444.56, 1142.3134, 0.022966094, 0.016513972, -1028431.6, 510.30847, 0.0, 10.000669, 9.99869 
5.850027e+2, 2.0500416e+2, -930227.9, -945445.0, 964.8041, 0.023643697, -0.03685427, -930166.94, 789.0531, 0.0, 10.000693, 9.998677 
5.8500284e+2, 2.1500222e+2, -831912.44, -847324.7, 858.36884, 0.024199598, -0.09722196, -831864.75, 1105.9268, 0.0, 10.000716, 9.998673 
5.8500296e+2, 2.2500056e+2, -735476.0, -752981.6, 607.36237, 0.024633817, -0.11803726, -735454.94, -469.62555, 0.0, 10.000734, 9.998415 
5.850031e+2, 2.3499916e+2, -637295.5, -654933.9, 480.6416, 0.024947032, -0.0998234, -637282.4, -282.59097, 0.0, 10.000749, 9.998411 
5.8500314e+2, 2.449974e+2, -545925.75, -570923.6, 231.76085, 0.025160842, -0.06983074, -545923.6, -6904.6216, 0.0, 10.00076, 9.997448 
5.850032e+2, 2.5499526e+2, -447791.0, -472873.3, 83.48644, 0.025275353, -0.02850561, -447790.72, -6747.8755, 0.0, 10.000769, 9.997445 
5.850032e+2, 2.6499197e+2, -362483.78, -401443.28, -116.96072, 0.025609564, -0.0091822315, -362483.44, -19406.607, 0.0, 10.000779, 9.99562 
5.8500326e+2, 2.7498758e+2, -264248.1, -303287.84, -298.02292, 0.026163734, -0.012468752, -264245.8, -19124.938, 0.0, 10.0007925, 9.995622 
5.850033e+2, 2.8498113e+2, -196818.78, -269282.03, -250.34982, 0.026543316, 0.002534933, -196817.92, -49632.434, 0.0, 10.000815, 9.991224 
5.8500344e+2, 2.949727e+2, -98260.836, -170963.02, -474.89252, 0.026746416, 0.03511345, -98257.734, -48987.027, 0.0, 10.000848, 9.991225 
5.850036e+2, 3.0496553e+2, -29989.955, -83058.73, -329.35846, 0.029124497, 0.0629065, -29987.91, -29987.91, 0.0, 10.000894, 9.993868 
5.8500385e+2, 3.1495962e+2, -29114.596, -82658.1, -629.4125, 0.033719525, 0.08515019, -29107.197, -29107.197, 0.0, 10.000955, 9.993866 
5.95003e+2, 1.2501892e+2, -1715912.9, -1731583.8, 892.9791, 0.032075495, -0.043588113, -1715862.3, -1050.783, 0.0, 10.000639, 9.998563 
5.950028e+2, 1.3501772e+2, -1618595.3, -1633987.3, 686.7947, 0.026813801, -0.022161834, -1618564.6, -1739.4209, 0.0, 10.000595, 9.998556 
5.950027e+2, 1.45016e+2, -1529501.8, -1553785.5, 1246.8143, 0.024460252, 0.011987473, -1529438.0, -10593.298, 0.0, 10.000573, 9.997355 
5.950028e+2, 1.5501383e+2, -1431504.8, -1455800.9, 1131.2961, 0.024991224, 0.058117118, -1431452.3, -10582.685, 0.0, 10.000572, 9.997354 
5.9500283e+2, 1.6501176e+2, -1328367.6, -1347553.3, 1470.102, 0.02546332, 0.08294317, -1328255.6, -5364.1675, 0.0, 10.000586, 9.998043 
5.95003e+2, 1.7500985e+2, -1229984.3, -1249386.3, 1388.643, 0.025876306, 0.08623118, -1229885.4, -4975.056, 0.0, 10.000612, 9.998041 
5.950032e+2, 1.8500797e+2, -1127096.9, -1141967.4, 1338.9857, 0.026460933, 0.06455545, -1126977.4, -50.705902, 0.0, 10.00064, 9.998669 
5.950033e+2, 1.9500618e+2, -1028684.5, -1043787.2, 1250.5884, 0.027216442, 0.01748803, -1028581.6, 358.6143, 0.0, 10.000669, 9.998667 
5.950035e+2, 2.050043e+2, -930427.6, -945857.6, 1050.3942, 0.027830722, -0.036139276, -930356.44, 598.12366, 0.0, 10.000694, 9.998649 
5.950036e+2, 2.1500234e+2, -832111.9, -847736.9, 943.90405, 0.028304704, -0.09677817, -832055.06, 914.5253, 0.0, 10.000716, 9.998646 
5.950037e+2, 2.2500065e+2, -735713.56, -753472.8, 658.98987, 0.028656222, -0.11786243, -735689.2, -704.6793, 0.0, 10.000734, 9.998381 
5.9500384e+2, 2.3499922e+2, -637532.75, -655424.75, 532.2487, 0.028886065, -0.099916704, -637516.94, -517.63873, 0.0, 10.000749, 9.998377 
5.950039e+2, 2.4499741e+2, -546203.25, -571498.06, 265.9265, 0.029027415, -0.07017788, -546200.5, -7181.6333, 0.0, 10.00076, 9.997408 
5.9500396e+2, 2.5499523e+2, -448068.2, -473447.34, 117.6392, 0.029080343, -0.02909257, -448067.63, -7024.527, 0.0, 10.000769, 9.997406 
5.95004e+2, 2.649919e+2, -362821.78, -402143.75, -68.91047, 0.029466566, -0.0100477245, -362821.66, -19744.15, 0.0, 10.000779, 9.995571 
5.950041e+2, 2.7498746e+2, -264585.66, -303988.0, -249.98837, 0.030186556, -0.013652345, -264584.1, -19462.055, 0.0, 10.0007925, 9.995573 
5.9500414e+2, 2.8498095e+2, -197237.84, -270151.72, -127.67136, 0.03069657, 0.0011014104, -197237.61, -50050.453, 0.0, 10.000815, 9.991164 
5.950043e+2, 2.9497245e+2, -98679.79, -171833.16, -352.02307, 0.030994225, 0.033501107, -98678.09, -49405.13, 0.0, 10.000848, 9.991165 
5.950045e+2, 3.049652e+2, -30549.783, -84221.81, -99.413956, 0.03378289, 0.06108369, -30549.598, -30549.598, 0.0, 10.000894, 9.993788 
5.9500486e+2, 3.1495923e+2, -29675.652, -83823.75, -398.91107, 0.03911306, 0.0830804, -29672.715, -29672.715, 0.0, 10.000955, 9.993786 
6.0500383e+2, 1.2501948e+2, -1711241.0, -1730077.1, 1509.5155, 0.039793596, -0.039040253, -1711120.8, 3685.7148, 0.0, 10.00099, 9.998494 
6.050036e+2, 1.3501817e+2, -1614417.9, -1632722.6, 1200.5026, 0.03303281, -0.018798377, -1614339.5, 2481.5142, 0.0, 10.000913, 9.998487 
6.050035e+2, 1.450164e+2, -1525492.9, -1552295.9, 1864.7257, 0.029829329, 0.0146430945, -1525363.8, -6522.8154, 0.0, 10.000866, 9.997314 
6.050035e+2, 1.5501419e+2, -1427733.8, -1454428.0, 1670.7292, 0.03015314, 0.060534228, -1427629.6, -6763.443, 0.0, 10.000849, 9.997313 
6.050036e+2, 1.6501209e+2, -1324670.0, -1346103.0, 2059.3232, 0.030362006, 0.085010156, -1324473.9, -1585.4723, 0.0, 10.000853, 9.998013 
6.050038e+2, 1.7501013e+2, -1226341.1, -1247963.6, 1906.8678, 0.030455826, 0.08784083, -1226174.3, -1266.6041, 0.0, 10.000875, 9.99801 
6.0500395e+2, 1.8500824e+2, -1123507.6, -1140593.8, 1798.3284, 0.030797813, 0.06577702, -1123320.4, 3603.913, 0.0, 10.0009, 9.998635 
6.0500413e+2, 1.950064e+2, -1025120.1, -1042426.8, 1637.8676, 0.031386875, 0.018393615, -1024966.5, 3971.7605, 0.0, 10.000927, 9.998633 
6.050043e+2, 2.0500448e+2, -926940.4, -944594.44, 1337.4751, 0.031822614, -0.03555635, -926839.6, 4113.2573, 0.0, 10.000951, 9.9986105 
6.050045e+2, 2.1500249e+2, -828679.2, -846501.0, 1155.5793, 0.032106217, -0.09652346, -828604.56, 4363.689, 0.0, 10.00097, 9.998608 
6.0500467e+2, 2.2500075e+2, -732391.0, -752352.4, 756.974, 0.032282226, -0.11791984, -732362.4, 2621.245, 0.0, 10.000983, 9.998338 
6.050047e+2, 2.3499925e+2, -634298.56, -654348.06, 554.7347, 0.032351512, -0.100271925, -634283.2, 2715.6135, 0.0, 10.000991, 9.998334 
6.0500485e+2, 2.4499741e+2, -543079.4, -570531.4, 201.59052, 0.03235813, -0.0708081, -543077.9, -4059.063, 0.0, 10.000997, 9.997359 
6.050049e+2, 2.5499517e+2, -445006.9, -472511.94, -16.590883, 0.032302048, -0.029975316, -445006.9, -3963.3486, 0.0, 10.001002, 9.997357 
6.0500497e+2, 2.649918e+2, -359823.47, -401328.88, -242.30704, 0.032720737, -0.011183004, -359822.06, -16743.572, 0.0, 10.001013, 9.995515 
6.05005e+2, 2.7498728e+2, -261539.64, -303151.06, -488.1694, 0.033614982, -0.0150413355, -261533.92, -16410.355, 0.0, 10.001028, 9.995517 
6.0500515e+2, 2.8498074e+2, -194153.81, -269385.3, -330.78036, 0.034262378, -0.00050546747, -194152.34, -46963.055, 0.0, 10.001058, 9.9911 
6.050053e+2, 2.9497218e+2, -95460.0, -171003.05, -591.86224, 0.034659967, 0.03171561, -95455.37, -46179.625, 0.0, 10.0011, 9.991101 
6.050056e+2, 3.0496484e+2, -27255.111, -83530.87, -239.31665, 0.037755184, 0.05935738, -27254.094, -27254.094, 0.0, 10.001159, 9.993708 
6.0500604e+2, 3.1495878e+2, -26146.068, -83021.695, -540.84406, 0.043606445, 0.08164975, -26140.926, -26140.926, 0.0, 10.001236, 9.993706 
6.1500496e+2, 1.2502015e+2, -1711831.4, -1731290.3, 1218.764, 0.04862691, -0.033946633, -1711755.4, 3044.9958, 0.0, 10.00099, 9.998411 
6.150046e+2, 1.3501875e+2, -1615007.5, -1633934.4, 910.2778, 0.04009633, -0.014990838, -1614963.8, 1852.0243, 0.0, 10.000913, 9.9984045 
6.150044e+2, 1.4501691e+2, -1525862.1, -1553055.8, 1802.2979, 0.035841934, 0.017652882, -1525743.3, -6906.81, 0.0, 10.000866, 9.997263 
6.150044e+2, 1.5501462e+2, -1428102.4, -1455186.8, 1608.5939, 0.035826158, 0.0632262, -1428007.3, -7145.049, 0.0, 10.00085, 9.997261 
6.1500454e+2, 1.6501248e+2, -1324958.1, -1346696.6, 2145.3542, 0.035620153, 0.08726241, -1324748.5, -1863.6047, 0.0, 10.000853, 9.997972 
6.150047e+2, 1.7501049e+2, -1226629.0, -1248556.8, 1992.9025, 0.03522405, 0.08953687, -1226449.3, -1544.8164, 0.0, 10.000875, 9.99797 
6.150049e+2, 1.8500853e+2, -1123809.8, -1141216.8, 1900.7959, 0.035177186, 0.06700023, -1123604.6, 3316.8716, 0.0, 10.0009, 9.998593 
6.1500514e+2, 1.9500665e+2, -1025421.9, -1043049.25, 1740.2489, 0.035478014, 0.019230954, -1025251.75, 3684.1262, 0.0, 10.000927, 9.998591 
6.150053e+2, 2.0500468e+2, -927282.25, -945299.75, 1409.5068, 0.035620145, -0.035105217, -927172.6, 3778.3303, 0.0, 10.000951, 9.998563 
6.150055e+2, 2.1500264e+2, -829020.56, -847205.75, 1227.519, 0.035605047, -0.096457526, -828938.06, 4028.7231, 0.0, 10.00097, 9.998559 
6.150056e+2, 2.2500084e+2, -732770.75, -753136.7, 786.2421, 0.03551287, -0.11820916, -732740.44, 2242.1626, 0.0, 10.000983, 9.998284 
6.1500573e+2, 2.349993e+2, -634677.9, -655131.9, 583.9734, 0.035344508, -0.10088876, -634661.25, 2337.1548, 0.0, 10.000991, 9.99828 
6.1500585e+2, 2.4499738e+2, -543488.4, -571377.0, 219.96075, 0.03515419, -0.0717211, -543486.6, -4467.714, 0.0, 10.000997, 9.997302 
6.150059e+2, 2.5499508e+2, -445415.47, -473357.0, 1.7600671, 0.034941737, -0.031153576, -445415.47, -4371.2275, 0.0, 10.001001, 9.9973 
6.1500597e+2, 2.6499164e+2, -360283.2, -402280.5, -181.50578, 0.035373397, -0.012587887, -360282.4, -17202.66, 0.0, 10.001012, 9.99545 
6.15006e+2, 2.7498707e+2, -261998.88, -304102.28, -427.366, 0.036450356, -0.01663568, -261994.53, -16869.057, 0.0, 10.001028, 9.995452 
6.150062e+2, 2.8498045e+2, -194642.48, -270398.2, -172.41371, 0.037242115, -0.0022857382, -194642.1, -47450.22, 0.0, 10.001058, 9.991031 
6.1500645e+2, 2.949718e+2, -95948.75, -172016.61, -433.17038, 0.037745062, 0.029756881, -95946.28, -46667.26, 0.0, 10.0011, 9.991032 
6.150068e+2, 3.0496442e+2, -27820.8, -84704.34, 51.764072, 0.041043133, 0.057727035, -27820.754, -27820.754, 0.0, 10.001159, 9.993628 
6.150073e+2, 3.1495827e+2, -26713.418, -84198.22, -248.90628, 0.047202047, 0.08085683, -26712.34, -26712.34, 0.0, 10.001236, 9.993625 
6.250062e+2, 1.2502095e+2, -1705801.1, -1729460.6, 1935.8579, 0.058507644, -0.028529989, -1705643.8, 9149.107, 0.0, 10.001448, 9.998313 
6.250057e+2, 1.3501945e+2, -1609717.8, -1632466.9, 1503.3125, 0.047941905, -0.010884423, -1609618.9, 7190.4956, 0.0, 10.00132, 9.998306 
6.250055e+2, 1.4501752e+2, -1520954.6, -1551416.4, 2535.9382, 0.04239705, 0.020894494, -1520745.0, -1914.2126, 0.0, 10.001232, 9.997196 
6.250055e+2, 1.5501517e+2, -1423680.4, -1453784.6, 2227.8564, 0.041826673, 0.06603886, -1423516.4, -2659.2493, 0.0, 10.001183, 9.997194 
6.2500554e+2, 1.6501296e+2, -1320830.1, -1345311.4, 2826.7908, 0.040967587, 0.08952434, -1320508.0, 2372.4385, 0.0, 10.001161, 9.997916 
6.250057e+2, 1.7501089e+2, -1222766.1, -1247301.4, 2560.9585, 0.039820317, 0.091132954, -1222501.6, 2398.9592, 0.0, 10.001165, 9.997914 
6.2500596e+2, 1.8500888e+2, -1120193.8, -1140105.4, 2380.465, 0.03916924, 0.06803097, -1119913.1, 7005.0415, 0.0, 10.001175, 9.998536 
6.250062e+2, 1.9500694e+2, -1022004.6, -1042035.2, 2106.7146, 0.039012164, 0.019801162, -1021785.44, 7147.667, 0.0, 10.001188, 9.998534 
6.2500644e+2, 2.0500492e+2, -924111.44, -944468.7, 1630.8654, 0.038713645, -0.034984067, -923981.6, 6967.1567, 0.0, 10.001198, 9.9985 
6.250066e+2, 2.1500279e+2, -826064.5, -846479.44, 1336.6051, 0.03827547, -0.0967724, -825977.3, 6987.9194, 0.0, 10.001202, 9.998496 
6.250068e+2, 2.2500093e+2, -730071.25, -752582.0, 742.174, 0.037817314, -0.118908525, -730046.8, 4934.8823, 0.0, 10.0012, 9.998217 
6.2500685e+2, 2.3499931e+2, -632217.9, -654693.9, 437.59854, 0.037340026, -0.10192364, -632209.4, 4788.7515, 0.0, 10.001191, 9.998213 
6.25007e+2, 2.4499732e+2, -541254.06, -571060.75, -22.253033, 0.036894906, -0.073052645, -541254.06, -2234.706, 0.0, 10.001183, 9.997233 
6.2500703e+2, 2.5499496e+2, -443378.66, -473136.78, -318.84222, 0.03648155, -0.03274344, -443375.25, -2329.9226, 0.0, 10.001174, 9.9972315 
6.250071e+2, 2.6499146e+2, -358392.88, -402164.28, -503.19565, 0.036883302, -0.014321647, -358387.1, -15305.57, 0.0, 10.001176, 9.9953785 
6.250072e+2, 2.7498677e+2, -260163.83, -304013.34, -794.39087, 0.03810186, -0.018400867, -260149.44, -15021.502, 0.0, 10.001188, 9.99538 
6.250074e+2, 2.849801e+2, -192817.33, -270256.84, -450.23364, 0.038997263, -0.0041436367, -192814.72, -45619.69, 0.0, 10.001214, 9.990965 
6.250076e+2, 2.949714e+2, -94162.59, -171895.58, -685.6289, 0.039565176, 0.027749294, -94156.55, -44873.707, 0.0, 10.001254, 9.990966 
6.2500805e+2, 3.0496395e+2, -26048.186, -84570.68, 7.949929, 0.042792547, 0.056444637, -26048.186, -26048.186, 0.0, 10.001311, 9.993563 
6.250086e+2, 3.1495777e+2, -24952.541, -84072.26, -170.62192, 0.048749644, 0.08118292, -24952.049, -24952.049, 0.0, 10.001388, 9.99356 
6.350078e+2, 1.2502192e+2, -1706628.1, -1731160.6, 1455.9683, 0.06943579, -0.022789748, -1706542.0, 8241.847, 0.0, 10.001448, 9.998197 
6.3500714e+2, 1.3502029e+2, -1610543.8, -1634165.3, 1024.2169, 0.056569528, -0.006478782, -1610499.4, 6302.1143, 0.0, 10.00132, 9.998191 
6.350068e+2, 1.4501825e+2, -1521541.4, -1552623.8, 2349.4824, 0.049494788, 0.024368199, -1521364.8, -2540.7996, 0.0, 10.001232, 9.997114 
6.350067e+2, 1.5501581e+2, -1424266.1, -1454990.3, 2041.8638, 0.048155032, 0.06897259, -1424131.0, -3279.8567, 0.0, 10.001183, 9.997112 
6.350068e+2, 1.6501352e+2, -1321332.9, -1346346.8, 2845.2183, 0.04640493, 0.091796406, -1321013.4, 1861.8009, 0.0, 10.001161, 9.997846 
6.3500696e+2, 1.7501137e+2, -1223268.3, -1248335.6, 2579.3809, 0.04424558, 0.09262962, -1223005.6, 1890.452, 0.0, 10.001165, 9.997844 
6.350072e+2, 1.8500927e+2, -1120709.8, -1141168.5, 2432.2449, 0.042775273, 0.06886981, -1120424.6, 6489.71, 0.0, 10.001175, 9.998464 
6.3500744e+2, 1.9500726e+2, -1022520.06, -1043097.4, 2158.3408, 0.04199091, 0.020104885, -1022296.1, 6633.86, 0.0, 10.001188, 9.998462 
6.350076e+2, 2.0500515e+2, -924665.25, -945610.2, 1647.8947, 0.041104972, -0.03519221, -924536.4, 6410.022, 0.0, 10.001198, 9.998422 
6.350078e+2, 2.1500294e+2, -826617.7, -847620.06, 1353.4921, 0.040119562, -0.0974674, -826530.8, 6432.833, 0.0, 10.001202, 9.998419 
6.35008e+2, 2.25001e+2, -730644.2, -753763.8, 709.82526, 0.039197806, -0.12001725, -730622.4, 4358.452, 0.0, 10.0012, 9.998136 
6.3500804e+2, 2.3499931e+2, -632790.25, -655875.06, 405.21362, 0.038340405, -0.103375964, -632783.2, 4214.8994, 0.0, 10.001191, 9.998132 
6.350081e+2, 2.4499723e+2, -541811.2, -572210.8, -54.832375, 0.037582684, -0.07480221, -541811.06, -2791.028, 0.0, 10.001183, 9.997155 
6.3500816e+2, 2.549948e+2, -443935.22, -474286.22, -351.44485, 0.03692394, -0.034744456, -443931.16, -2884.348, 0.0, 10.001174, 9.997153 
6.350082e+2, 2.6499122e+2, -358938.9, -403292.34, -456.6031, 0.03725299, -0.016384054, -358934.22, -15850.441, 0.0, 10.001176, 9.995301 
6.3500834e+2, 2.7498648e+2, -260709.4, -305140.9, -747.7467, 0.03857216, -0.020337017, -260696.83, -15565.887, 0.0, 10.001188, 9.995303 
6.3500863e+2, 2.849797e+2, -193261.27, -271173.72, -301.7305, 0.039530635, -0.006079505, -193260.1, -46061.355, 0.0, 10.001214, 9.990902 
6.3500893e+2, 2.9497096e+2, -94607.07, -172813.45, -536.6267, 0.0401233, 0.025692394, -94603.38, -45316.17, 0.0, 10.001253, 9.990903 
6.3500935e+2, 3.0496344e+2, -26391.326, -85277.28, 296.20847, 0.043007288, 0.055508927, -26389.836, -26389.836, 0.0, 10.001311, 9.993514 
6.3501e+2, 3.1495723e+2, -25297.766, -84781.72, 118.85058, 0.04825463, 0.082625344, -25297.527, -25297.527, 0.0, 10.001388, 9.993511 
6.4500964e+2, 1.2502307e+2, -1699352.4, -1729110.8, 2177.8062, 0.08114433, -0.017145466, -1699193.9, 15579.326, 0.0, 10.002007, 9.998064 
6.450088e+2, 1.3502127e+2, -1604276.0, -1632608.1, 1611.7589, 0.06581098, -0.0020774012, -1604184.6, 12607.64, 0.0, 10.001811, 9.998057 
6.450083e+2, 1.450191e+2, -1515953.4, -1551051.3, 3111.9907, 0.056991573, 0.02782676, -1515679.5, 3136.3074, 0.0, 10.001662, 9.997012 
6.4500815e+2, 1.5501656e+2, -1419477.1, -1453807.3, 2652.1152, 0.05461817, 0.07177671, -1419273.5, 1570.5317, 0.0, 10.001558, 9.99701 
6.4500815e+2, 1.6501416e+2, -1317144.1, -1345342.3, 3534.1338, 0.05169797, 0.09384296, -1316708.0, 6161.0117, 0.0, 10.001491, 9.997754 
6.450083e+2, 1.7501192e+2, -1219627.4, -1247598.0, 3105.8958, 0.048232857, 0.09382491, -1219286.6, 5604.139, 0.0, 10.001458, 9.997751 
6.4500856e+2, 1.8500973e+2, -1117560.3, -1140691.6, 2848.156, 0.04572182, 0.06934406, -1117214.8, 9695.159, 0.0, 10.001435, 9.998369 
6.450088e+2, 1.950076e+2, -1019778.0, -1042818.6, 2412.837, 0.044160478, 0.019994304, -1019528.06, 9398.444, 0.0, 10.001421, 9.998367 
6.45009e+2, 2.050054e+2, -922349.4, -945588.75, 1713.6849, 0.042570546, -0.035853837, -922223.7, 8720.157, 0.0, 10.001403, 9.998323 
6.4500916e+2, 2.150031e+2, -824682.9, -847783.7, 1265.5314, 0.04095441, -0.098644435, -824613.75, 8348.318, 0.0, 10.001382, 9.998321 
6.450092e+2, 2.2500105e+2, -729095.6, -754112.1, 428.82596, 0.039510857, -0.121611424, -729088.3, 5891.9644, 0.0, 10.001353, 9.998038 
6.4500934e+2, 2.3499925e+2, -631636.6, -656414.8, -6.0922556, 0.038240287, -0.10529213, -631636.6, 5361.8013, 0.0, 10.001318, 9.9980345 
6.4500934e+2, 2.4499708e+2, -540987.4, -572813.44, -571.1625, 0.03713568, -0.0769946, -540977.1, -1955.7913, 0.0, 10.001283, 9.997066 
6.450094e+2, 2.5499454e+2, -443498.97, -475076.2, -948.82275, 0.036195945, -0.037167802, -443470.5, -2421.5112, 0.0, 10.001247, 9.997064 
6.4500946e+2, 2.6499087e+2, -358766.94, -404077.4, -1006.5991, 0.03635764, -0.018748242, -358744.6, -15657.834, 0.0, 10.001225, 9.995224 
6.450096e+2, 2.7498606e+2, -260845.7, -306074.63, -1300.3572, 0.037623774, -0.022354914, -260808.34, -15673.674, 0.0, 10.001217, 9.995226 
6.450098e+2, 2.8497925e+2, -193563.66, -271850.2, -714.7651, 0.038501993, -0.0079553835, -193557.13, -46354.023, 0.0, 10.001216, 9.990855 
6.450101e+2, 2.9497042e+2, -95357.516, -173706.75, -833.6006, 0.038986374, 0.02375907, -95348.65, -46056.547, 0.0, 10.0012245, 9.990855 
6.450106e+2, 3.0496293e+2, -27368.662, -85874.86, 326.5608, 0.041086733, 0.055045784, -27366.84, -27366.84, 0.0, 10.001249, 9.993504 
6.450113e+2, 3.1495672e+2, -26789.354, -85628.23, 429.55835, 0.04487181, 0.085182056, -26786.217, -26786.217, 0.0, 10.00129, 9.993501 
6.550118e+2, 1.2502438e+2, -1700436.0, -1731338.8, 1440.2126, 0.09363429, -0.01159506, -1700369.0, 14391.767, 0.0, 10.002007, 9.997912 
6.5501076e+2, 1.3502243e+2, -1605358.6, -1634834.6, 875.33685, 0.07566684, 0.002321129, -1605332.6, 11448.752, 0.0, 10.001811, 9.997906 
6.5501004e+2, 1.4502011e+2, -1516829.9, -1552854.9, 2720.8599, 0.06488792, 0.03127125, -1516625.5, 2180.8186, 0.0, 10.001662, 9.996889 
6.5500975e+2, 1.5501744e+2, -1420352.3, -1455608.3, 2261.7085, 0.061216954, 0.07445238, -1420207.8, 627.8577, 0.0, 10.001558, 9.996887 
6.550097e+2, 1.6501491e+2, -1317954.6, -1347010.5, 3412.0806, 0.056847975, 0.095665224, -1317559.3, 5302.504, 0.0, 10.001491, 9.997641 
6.550098e+2, 1.7501254e+2, -1220436.9, -1249264.4, 2983.8445, 0.0517839, 0.094720006, -1220131.3, 4753.488, 0.0, 10.001458, 9.997639 
6.5501e+2, 1.8501024e+2, -1118381.5, -1142382.5, 2795.271, 0.04801106, 0.06945489, -1118060.3, 8844.7295, 0.0, 10.001435, 9.998254 
6.5501016e+2, 1.95008e+2, -1020598.3, -1044507.94, 2359.7183, 0.045523338, 0.019470554, -1020367.6, 8555.067, 0.0, 10.001421, 9.998252 
6.550104e+2, 2.0500566e+2, -923193.56, -947327.8, 1632.5596, 0.043113038, -0.03696787, -923083.6, 7857.609, 0.0, 10.001403, 9.998204 
6.550105e+2, 2.1500324e+2, -825526.2, -849521.6, 1184.2123, 0.040782787, -0.10030253, -825467.9, 7492.7188, 0.0, 10.001382, 9.998201 
6.5501064e+2, 2.2500107e+2, -729914.56, -755800.3, 294.4396, 0.03875927, -0.12369019, -729911.2, 5068.726, 0.0, 10.001353, 9.997923 
6.5501064e+2, 2.3499915e+2, -632454.8, -658102.25, -140.51773, 0.037042424, -0.10767148, -632454.06, 4545.1895, 0.0, 10.001317, 9.997919 
6.5501064e+2, 2.4499688e+2, -541697.75, -574278.44, -704.17847, 0.03555659, -0.07962933, -541682.5, -2659.3083, 0.0, 10.001282, 9.996965 
6.5501064e+2, 2.5499424e+2, -444208.75, -476540.34, -1081.8672, 0.034300208, -0.04001316, -444172.56, -3120.7373, 0.0, 10.001247, 9.9969635 
6.550107e+2, 2.6499048e+2, -359319.84, -405216.78, -1040.1151, 0.034200106, -0.021414245, -359296.28, -16205.81, 0.0, 10.001225, 9.995146 
6.550108e+2, 2.7498558e+2, -261398.47, -307213.47, -1333.7527, 0.035259992, -0.024455136, -261359.67, -16220.535, 0.0, 10.001216, 9.995148 
6.55011e+2, 2.8497872e+2, -193794.77, -272320.9, -682.6097, 0.035915058, -0.009772225, -193788.83, -46580.703, 0.0, 10.001216, 9.990823 
6.5501136e+2, 2.949699e+2, -95590.05, -174178.81, -800.8149, 0.036158588, 0.021948123, -95581.89, -46284.38, 0.0, 10.0012245, 9.990823 
6.5501183e+2, 3.0496237e+2, -27197.342, -85505.6, 481.367, 0.037036568, 0.055053454, -27193.367, -27193.367, 0.0, 10.001249, 9.993528 
6.550125e+2, 3.1495625e+2, -26620.303, -85260.41, 585.8734, 0.038609378, 0.08885054, -26614.451, -26614.451, 0.0, 10.00129, 9.9935255 
6.650142e+2, 1.2502588e+2, -1692137.9, -1729184.3, 2046.2908, 0.10652407, -0.0066362, -1692025.3, 22721.146, 0.0, 10.002653, 9.997744 
6.6501296e+2, 1.3502376e+2, -1598313.5, -1633292.9, 1353.5021, 0.08598018, 0.006345002, -1598261.3, 18507.453, 0.0, 10.002372, 9.997737 
6.65012e+2, 1.4502127e+2, -1510808.6, -1551565.8, 3407.0593, 0.07315286, 0.034414247, -1510525.8, 8269.444, 0.0, 10.002143, 9.996742 
6.650116e+2, 1.5501845e+2, -1415445.9, -1454861.9, 2769.6262, 0.06794794, 0.076755434, -1415252.1, 5573.804, 0.0, 10.001964, 9.996741 
6.650114e+2, 1.6501577e+2, -1313967.3, -1346645.5, 4036.6365, 0.061875727, 0.097084925, -1313476.0, 9377.495, 0.0, 10.00183, 9.9975 
6.6501147e+2, 1.7501326e+2, -1217258.5, -1249292.6, 3406.87, 0.05494053, 0.09522528, -1216900.3, 7977.636, 0.0, 10.001742, 9.997498 
6.650115e+2, 1.850108e+2, -1115879.6, -1142757.3, 3123.5356, 0.04971626, 0.06918612, -1115521.4, 11378.163, 0.0, 10.001675, 9.998113 
6.650117e+2, 1.9500841e+2, -1018617.25, -1045135.4, 2487.7966, 0.04619437, 0.018575598, -1018385.9, 10532.697, 0.0, 10.001625, 9.998111 
6.650118e+2, 2.0500591e+2, -921698.6, -948215.56, 1550.5938, 0.042915076, -0.038424596, -921608.25, 9330.282, 0.0, 10.0015745, 9.998061 
6.6501194e+2, 2.1500334e+2, -824450.9, -850612.8, 911.88934, 0.039881025, -0.10225498, -824419.1, 8540.184, 0.0, 10.001525, 9.998057 
6.6501194e+2, 2.2500104e+2, -729230.94, -756997.4, -212.00612, 0.03732192, -0.12601213, -729229.3, 5750.7207, 0.0, 10.001466, 9.9977865 
6.6501194e+2, 2.3499897e+2, -632240.8, -659526.6, -805.9611, 0.035237007, -0.1102398, -632217.0, 4783.652, 0.0, 10.001398, 9.997783 
6.650119e+2, 2.4499656e+2, -541853.56, -575602.1, -1510.4498, 0.033425044, -0.08241507, -541786.06, -2760.2334, 0.0, 10.001326, 9.996854 
6.650118e+2, 2.5499383e+2, -444987.66, -478164.84, -1973.6511, 0.03188394, -0.042987447, -444870.66, -3815.0752, 0.0, 10.001247, 9.996852 
6.650118e+2, 2.6498997e+2, -360530.97, -406610.25, -1876.3838, 0.031403836, -0.024125129, -360454.7, -17359.572, 0.0, 10.001177, 9.995074 
6.650119e+2, 2.7498502e+2, -263403.94, -308989.56, -2127.1707, 0.031989, -0.026454672, -263304.9, -18160.443, 0.0, 10.001114, 9.995076 
6.6501206e+2, 2.8497812e+2, -196312.47, -273609.4, -1340.3309, 0.03217873, -0.0113644395, -196289.23, -49075.39, 0.0, 10.001046, 9.990816 
6.650124e+2, 2.9496926e+2, -99259.02, -176022.11, -1265.8296, 0.031965647, 0.020464247, -99238.16, -49934.785, 0.0, 10.000976, 9.990816 
6.650129e+2, 3.0496183e+2, -31467.762, -86696.79, 418.068, 0.031173408, 0.055380777, -31464.596, -31464.596, 0.0, 10.000918, 9.993607 
6.6501355e+2, 3.149558e+2, -32124.34, -87045.07, 914.87115, 0.02984822, 0.09272519, -32109.104, -32109.104, 0.0, 10.0008745, 9.993604 
6.75017e+2, 1.2502758e+2, -1693466.8, -1731917.4, 988.01825, 0.11981699, -0.0022639756, -1693441.4, 21288.717, 0.0, 10.002653, 9.997558 
6.750154e+2, 1.3502526e+2, -1599641.4, -1636024.4, 296.9446, 0.09675256, 0.009997642, -1599639.0, 17115.207, 0.0, 10.002373, 9.997552 
6.7501426e+2, 1.450226e+2, -1512024.9, -1554068.4, 2729.9377, 0.08178712, 0.037258293, -1511848.4, 6934.1187, 0.0, 10.002143, 9.9965725 
6.750136e+2, 1.550196e+2, -1416660.3, -1457361.0, 2093.657, 0.07481208, 0.07868828, -1416552.9, 4262.094, 0.0, 10.001964, 9.996572 
6.750133e+2, 1.6501674e+2, -1315159.5, -1349099.4, 3706.714, 0.06678249, 0.09810425, -1314759.4, 8084.7866, 0.0, 10.00183, 9.997334 
6.7501324e+2, 1.7501403e+2, -1218449.1, -1251743.5, 3077.0417, 0.057704426, 0.09534253, -1218167.3, 6702.923, 0.0, 10.001742, 9.997332 
6.7501324e+2, 1.8501142e+2, -1117078.9, -1145226.5, 2936.6104, 0.050839454, 0.068539195, -1116775.8, 10117.69, 0.0, 10.001675, 9.997944 
6.7501336e+2, 1.9500884e+2, -1019815.0, -1047602.25, 2300.5857, 0.04617578, 0.017310578, -1019625.8, 9288.345, 0.0, 10.001625, 9.997942 
6.750134e+2, 2.050062e+2, -922901.5, -950694.1, 1361.3131, 0.041978866, -0.04022326, -922835.0, 8100.7705, 0.0, 10.0015745, 9.997891 
6.750135e+2, 2.1500343e+2, -825652.44, -853089.94, 722.37134, 0.03825107, -0.10450149, -825633.44, 7324.767, 0.0, 10.001525, 9.997889 
6.750134e+2, 2.2500096e+2, -730348.94, -759303.2, -467.7371, 0.03520039, -0.12857743, -730341.4, 4639.1157, 0.0, 10.001466, 9.997629 
6.750133e+2, 2.3499875e+2, -633357.75, -661831.4, -1061.7206, 0.032825094, -0.11299766, -633318.25, 3684.4722, 0.0, 10.001398, 9.997625 
6.750132e+2, 2.449962e+2, -542724.5, -577398.75, -1804.832, 0.030741626, -0.0853527, -542630.8, -3601.5454, 0.0, 10.001325, 9.996732 
6.7501307e+2, 2.5499332e+2, -445858.03, -479960.53, -2268.0894, 0.028947325, -0.046091773, -445707.84, -4647.614, 0.0, 10.001247, 9.996729 
6.75013e+2, 2.6498938e+2, -361005.1, -407584.56, -2116.0552, 0.027969236, -0.026882235, -360909.16, -17808.475, 0.0, 10.001177, 9.9950075 
6.75013e+2, 2.749844e+2, -263878.5, -309963.3, -2366.7087, 0.027811991, -0.028355118, -263757.28, -18606.656, 0.0, 10.001113, 9.995009 
6.7501307e+2, 2.8497744e+2, -196187.8, -273337.6, -1607.2567, 0.02729488, -0.012733944, -196154.33, -48934.06, 0.0, 10.001046, 9.990835 
6.750133e+2, 2.9496863e+2, -99136.78, -175751.55, -1532.2188, 0.026410047, 0.019305095, -99106.15, -49796.477, 0.0, 10.000976, 9.990835 
6.750137e+2, 3.0496126e+2, -30574.982, -84821.26, 252.0974, 0.023501037, 0.056026697, -30573.81, -30573.81, 0.0, 10.000917, 9.993735 
6.7501426e+2, 3.149554e+2, -31233.328, -85167.96, 750.52704, 0.018594006, 0.09680821, -31222.887, -31222.887, 0.0, 10.000874, 9.993732 
6.8502015e+2, 1.2502949e+2, -1684454.6, -1729751.1, 1394.7993, 0.13320844, 0.0011526503, -1684411.8, 30299.906, 0.0, 10.003362, 9.997359 
6.850182e+2, 1.3502698e+2, -1592012.5, -1634535.0, 608.93616, 0.107915975, 0.012950946, -1592003.8, 24734.008, 0.0, 10.002988, 9.997354 
6.850168e+2, 1.450241e+2, -1505683.8, -1553145.9, 3299.623, 0.09086997, 0.039566774, -1505455.4, 13312.574, 0.0, 10.002668, 9.99638 
6.8501586e+2, 1.550209e+2, -1411595.8, -1457059.3, 2492.9468, 0.081947275, 0.08015644, -1411459.4, 9342.937, 0.0, 10.002401, 9.996378 
6.850153e+2, 1.6501784e+2, -1311199.0, -1349352.6, 4309.7017, 0.07179841, 0.09877456, -1310718.3, 12115.198, 0.0, 10.002194, 9.997139 
6.8501514e+2, 1.7501494e+2, -1215399.5, -1252438.8, 3474.9824, 0.060431592, 0.09527284, -1215076.3, 9785.029, 0.0, 10.002045, 9.997137 
6.850151e+2, 1.8501212e+2, -1114725.9, -1146279.6, 3329.078, 0.05189593, 0.067870215, -1114378.5, 12508.053, 0.0, 10.00193, 9.997748 
6.850151e+2, 1.9500935e+2, -1017920.06, -1048877.3, 2485.1575, 0.046175208, 0.01619171, -1017721.9, 11187.365, 0.0, 10.001849, 9.997746 
6.850151e+2, 2.0500648e+2, -921410.56, -952181.94, 1350.8076, 0.04120957, -0.041719865, -921351.4, 9581.323, 0.0, 10.001772, 9.997695 
6.850151e+2, 2.1500354e+2, -824489.4, -854736.6, 499.59924, 0.037000734, -0.10630285, -824481.1, 8475.95, 0.0, 10.001699, 9.997691 
6.8501496e+2, 2.2500087e+2, -729459.94, -760890.94, -965.41315, 0.03361871, -0.13062337, -729430.3, 5550.966, 0.0, 10.001614, 9.997449 
6.850148e+2, 2.3499848e+2, -632931.06, -663643.1, -1730.1716, 0.031060778, -0.115230344, -632833.94, 4171.2974, 0.0, 10.001514, 9.997445 
6.8501455e+2, 2.4499576e+2, -542669.7, -578904.94, -2706.3088, 0.028746681, -0.08773313, -542468.7, -3435.3345, 0.0, 10.001395, 9.996594 
6.850143e+2, 2.5499275e+2, -446697.28, -481898.5, -3275.5818, 0.02667318, -0.04858008, -446395.06, -5329.426, 0.0, 10.001256, 9.9965925 
6.850141e+2, 2.6498872e+2, -362503.22, -408971.9, -3175.8928, 0.024968272, -0.02906634, -362287.2, -19180.123, 0.0, 10.001102, 9.994948 
6.8501395e+2, 2.7498367e+2, -266893.78, -312081.56, -3371.8208, 0.023636427, -0.029827448, -266643.56, -21486.027, 0.0, 10.000935, 9.99495 
6.850139e+2, 2.8497675e+2, -200268.0, -274819.22, -2590.6865, 0.022045013, -0.013675, -200178.08, -52950.81, 0.0, 10.000745, 9.990879 
6.8501395e+2, 2.9496795e+2, -105272.11, -178222.45, -2329.5432, 0.020186162, 0.01872054, -105197.8, -55881.504, 0.0, 10.000533, 9.990879 
6.8501425e+2, 3.0496073e+2, -37797.055, -86319.38, -164.29738, 0.014934737, 0.056677796, -37796.5, -37796.5, 0.0, 10.000337, 9.993913 
6.8501467e+2, 3.149551e+2, -40449.617, -87622.8, 698.2553, 0.006293779, 0.099606864, -40439.285, -40439.285, 0.0, 10.000155, 9.99391 
6.9502366e+2, 1.2503162e+2, -1685966.6, -1732861.9, -17.589634, 0.14670467, 0.0036220017, -1685966.6, 28724.518, 0.0, 10.003363, 9.9971485 
6.950213e+2, 1.3502888e+2, -1593523.6, -1637644.8, -800.9596, 0.119472764, 0.015211087, -1593509.0, 23210.268, 0.0, 10.002988, 9.997142 
6.9501954e+2, 1.4502579e+2, -1507225.3, -1556318.6, 2294.7915, 0.10040168, 0.04134427, -1507118.1, 11633.478, 0.0, 10.002668, 9.996164 
6.9501835e+2, 1.5502235e+2, -1413134.6, -1460227.3, 1489.9541, 0.08935377, 0.08116359, -1413087.5, 7700.5693, 0.0, 10.002402, 9.996163 
6.950176e+2, 1.6501908e+2, -1312779.1, -1352605.9, 3745.7485, 0.076923706, 0.09909855, -1312429.9, 10391.528, 0.0, 10.002194, 9.996918 
6.950172e+2, 1.7501596e+2, -1216977.4, -1255688.0, 2911.4324, 0.063122176, 0.095017664, -1216759.6, 8091.769, 0.0, 10.002045, 9.996916 
6.95017e+2, 1.8501289e+2, -1116316.9, -1149556.8, 3024.6516, 0.05288558, 0.067179404, -1116043.9, 10835.001, 0.0, 10.001929, 9.997525 
6.950169e+2, 1.950099e+2, -1019508.75, -1052151.3, 2180.4841, 0.046191834, 0.015217976, -1019363.75, 9539.929, 0.0, 10.001849, 9.997523 
6.9501686e+2, 2.0500682e+2, -923012.3, -955484.7, 1077.6239, 0.040605348, -0.042916678, -922976.56, 7952.8325, 0.0, 10.001772, 9.997469 
6.9501674e+2, 2.1500364e+2, -826088.9, -858037.06, 226.23482, 0.036126755, -0.10766254, -826087.25, 6868.734, 0.0, 10.001699, 9.997466 
6.9501656e+2, 2.2500075e+2, -730897.44, -763859.25, -1339.7731, 0.032572456, -0.13215418, -730843.1, 4139.151, 0.0, 10.001614, 9.997246 
6.950163e+2, 2.3499815e+2, -634366.9, -666610.0, -2104.5125, 0.029938769, -0.11694233, -634230.06, 2778.0955, 0.0, 10.001514, 9.997242 
6.950159e+2, 2.4499527e+2, -543737.4, -581111.5, -3231.3118, 0.027434383, -0.08956119, -543460.06, -4421.992, 0.0, 10.001395, 9.996444 
6.950155e+2, 2.549921e+2, -447764.4, -484103.97, -3800.7583, 0.025055468, -0.050457574, -447371.16, -6299.297, 0.0, 10.001256, 9.996442 
6.9501513e+2, 2.6498798e+2, -362874.25, -409733.97, -3808.3674, 0.02239563, -0.03068215, -362566.75, -19452.498, 0.0, 10.001102, 9.994896 
6.9501483e+2, 2.7498287e+2, -267265.84, -312842.7, -4004.3481, 0.019458478, -0.030875094, -266916.7, -21751.482, 0.0, 10.000935, 9.994899 
6.9501466e+2, 2.8497595e+2, -199797.86, -273829.28, -3390.9636, 0.016426392, -0.014190828, -199642.86, -52408.004, 0.0, 10.000745, 9.990947 
6.950145e+2, 2.9496726e+2, -104804.78, -177232.77, -3129.8167, 0.013292064, 0.018706618, -104669.79, -55346.56, 0.0, 10.000532, 9.990947 
6.950145e+2, 3.0496016e+2, -36234.004, -83047.95, -849.1316, 0.0054721637, 0.057334848, -36218.61, -36218.61, 0.0, 10.000336, 9.994137 
6.950147e+2, 3.1495473e+2, -38886.723, -84345.14, 15.019111, -0.0070565254, 0.10113243, -38886.72, -38886.72, 0.0, 10.0001545, 9.994136 
7.050275e+2, 1.2503396e+2, -1676370.1, -1730619.1, 255.64134, 0.15988162, 0.005046096, -1676369.0, 38299.242, 0.0, 10.00412, 9.996931 
7.050247e+2, 1.3503101e+2, -1585306.3, -1636077.5, -568.6115, 0.1313888, 0.016780235, -1585299.9, 31398.637, 0.0, 10.003653, 9.996924 
7.050226e+2, 1.4502771e+2, -1500433.0, -1555611.9, 2862.518, 0.11069375, 0.042736426, -1500284.9, 18448.176, 0.0, 10.0032425, 9.995933 
7.0502114e+2, 1.5502404e+2, -1407610.0, -1460136.5, 1938.5974, 0.0976453, 0.08204251, -1407538.5, 13233.254, 0.0, 10.002891, 9.995932 
7.0502007e+2, 1.6502051e+2, -1308376.0, -1353155.8, 4554.8306, 0.08300587, 0.09957254, -1307917.4, 14889.967, 0.0, 10.002611, 9.996677 
7.050195e+2, 1.7501715e+2, -1213431.1, -1256653.3, 3581.737, 0.06678962, 0.09521376, -1213136.4, 11703.419, 0.0, 10.002403, 9.996676 
7.050191e+2, 1.8501385e+2, -1113367.9, -1150875.5, 3878.2441, 0.054890122, 0.06726519, -1112971.1, 13898.492, 0.0, 10.00225, 9.99728 
7.0501894e+2, 1.950106e+2, -1016817.75, -1053594.6, 2867.8823, 0.04727773, 0.01537084, -1016595.44, 12301.385, 0.0, 10.0021515, 9.997278 
7.050188e+2, 2.0500728e+2, -920479.4, -957024.06, 1661.2944, 0.041017942, -0.042818867, -920404.0, 10520.931, 0.0, 10.002065, 9.997222 
7.0501864e+2, 2.1500386e+2, -823589.6, -859592.75, 647.0128, 0.036109958, -0.10774155, -823578.0, 9375.951, 0.0, 10.00199, 9.997219 
7.050183e+2, 2.2500074e+2, -728380.56, -765136.44, -1207.3228, 0.032227393, -0.13227002, -728341.0, 6641.56, 0.0, 10.001893, 9.997024 
7.0501786e+2, 2.3499791e+2, -632122.2, -668019.7, -2122.8733, 0.029365012, -0.116958044, -631997.1, 5013.5386, 0.0, 10.001776, 9.997019 
7.050174e+2, 2.4499483e+2, -541853.44, -582117.56, -3669.7651, 0.026554117, -0.08956883, -541521.7, -2479.2415, 0.0, 10.001607, 9.996273 
7.0501685e+2, 2.5499147e+2, -447059.88, -485680.3, -4392.2266, 0.023790095, -0.050546523, -446566.66, -5488.712, 0.0, 10.001387, 9.99627 
7.0501626e+2, 2.6498723e+2, -363065.2, -410384.78, -4724.623, 0.01996276, -0.030695416, -362598.06, -19476.645, 0.0, 10.001113, 9.994846 
7.0501566e+2, 2.749821e+2, -269779.75, -314613.0, -4904.6753, 0.015073932, -0.030658554, -269249.44, -24076.584, 0.0, 10.000786, 9.994848 
7.050151e+2, 2.8497523e+2, -204039.97, -275048.3, -4501.0356, 0.010394258, -0.013635572, -203755.8, -56513.418, 0.0, 10.000418, 9.99102 
7.0501465e+2, 2.9496655e+2, -111918.72, -179833.33, -4195.478, 0.0059184856, 0.01971517, -111660.52, -62330.527, 0.0, 10.000009, 9.991021 
7.0501435e+2, 3.0495965e+2, -44913.42, -84529.75, -1681.5228, -0.0041816686, 0.058145545, -44842.176, -44842.176, 0.0, 9.999623, 9.994378 
7.050143e+2, 3.1495446e+2, -50170.23, -87073.46, -690.6162, -0.019955626, 0.10111394, -50157.31, -50157.31, 0.0, 9.999263, 9.994377 
7.150318e+2, 1.2503657e+2, -1677963.5, -1733899.4, -1509.416, 0.17275068, 0.0054359995, -1677922.8, 36720.133, 0.0, 10.00412, 9.996708 
7.150285e+2, 1.3503338e+2, -1586898.9, -1639357.4, -2330.1924, 0.14366755, 0.01766649, -1586795.5, 29879.77, 0.0, 10.003653, 9.996701 
7.1502596e+2, 1.4502984e+2, -1502202.9, -1559256.6, 1532.5367, 0.12174458, 0.04374858, -1502161.8, 16550.484, 0.0, 10.003243, 9.995685 
7.1502405e+2, 1.5502593e+2, -1409376.5, -1463775.0, 611.5815, 0.10681835, 0.082796104, -1409369.6, 11383.79, 0.0, 10.002891, 9.995684 
7.150227e+2, 1.6502213e+2, -1310217.8, -1356950.4, 3771.4084, 0.09003981, 0.10019724, -1309915.4, 12876.09, 0.0, 10.002611, 9.996419 
7.150219e+2, 1.7501852e+2, -1215270.0, -1260443.0, 2799.426, 0.071427524, 0.095859565, -1215097.1, 9729.236, 0.0, 10.002403, 9.996418 
7.150214e+2, 1.8501496e+2, -1115269.6, -1154797.0, 3509.0945, 0.057902273, 0.06812353, -1114960.5, 11898.235, 0.0, 10.00225, 9.997013 
7.1502113e+2, 1.9501147e+2, -1018716.4, -1057512.3, 2498.7605, 0.04942494, 0.016643528, -1018556.06, 10332.553, 0.0, 10.0021515, 9.997011 
7.150209e+2, 2.0500785e+2, -922384.3, -960957.75, 1381.805, 0.042439546, -0.041434873, -922334.9, 8584.522, 0.0, 10.002065, 9.996954 
7.150206e+2, 2.1500416e+2, -825491.2, -863523.0, 367.5907, 0.036943533, -0.10654874, -825487.6, 7463.4087, 0.0, 10.00199, 9.996951 
7.150202e+2, 2.250008e+2, -730098.06, -768688.8, -1649.074, 0.03257779, -0.13098083, -730027.75, 4954.403, 0.0, 10.001894, 9.99678 
7.150197e+2, 2.3499772e+2, -633838.3, -671570.5, -2564.7036, 0.029334893, -0.11528921, -633664.75, 3347.8435, 0.0, 10.001776, 9.996777 
7.1501905e+2, 2.4499443e+2, -543205.6, -584916.0, -4497.223, 0.026101839, -0.08776865, -542726.25, -3679.718, 0.0, 10.001607, 9.996081 
7.150182e+2, 2.549909e+2, -448412.03, -488477.8, -5219.857, 0.022873128, -0.048859525, -447743.13, -6659.228, 0.0, 10.001387, 9.996079 
7.150173e+2, 2.6498654e+2, -363405.66, -411084.34, -5956.7007, 0.017666204, -0.029117191, -362672.72, -19544.168, 0.0, 10.001113, 9.994799 
7.150164e+2, 2.7498135e+2, -270121.3, -315310.6, -6137.547, 0.010480106, -0.029186077, -269302.56, -24122.074, 0.0, 10.000786, 9.9948015 
7.1501553e+2, 2.8497446e+2, -203487.83, -273887.53, -6045.2656, 0.0039458587, -0.012016096, -202972.48, -55722.684, 0.0, 10.000418, 9.9911 
7.150146e+2, 2.9496592e+2, -111368.414, -178670.5, -5740.684, -0.0019380862, 0.021739554, -110882.266, -61545.668, 0.0, 10.000008, 9.991101 
7.150139e+2, 3.0495915e+2, -43121.383, -80781.85, -3043.288, -0.014034241, 0.05910998, -42877.043, -42877.043, 0.0, 9.999622, 9.994636 
7.1501344e+2, 3.149542e+2, -48375.953, -83313.98, -2050.804, -0.032418195, 0.09956503, -48255.984, -48255.984, 0.0, 9.999262, 9.994636 
7.2503644e+2, 1.2503946e+2, -1667924.1, -1731481.3, -1150.3926, 0.18562713, 0.005545132, -1667903.3, 46711.336, 0.0, 10.0049095, 9.996488 
7.250326e+2, 1.3503607e+2, -1578239.1, -1637615.4, -1951.6953, 0.15678965, 0.01852444, -1578175.0, 38474.164, 0.0, 10.004349, 9.996481 
7.250296e+2, 1.4503229e+2, -1494919.9, -1558456.6, 2403.3455, 0.13405906, 0.04493811, -1494829.1, 23859.158, 0.0, 10.003858, 9.99544 
7.250273e+2, 1.5502812e+2, -1403133.1, -1463479.3, 1507.6926, 0.11726428, 0.0838875, -1403095.5, 17636.398, 0.0, 10.003434, 9.99544 
7.250257e+2, 1.650241e+2, -1304834.0, -1357225.0, 5292.5527, 0.09829502, 0.101569094, -1304304.8, 18467.719, 0.0, 10.003103, 9.996161 
7.250246e+2, 1.7502023e+2, -1210375.5, -1260954.3, 4324.081, 0.07717559, 0.097911455, -1210008.5, 14801.428, 0.0, 10.002862, 9.9961605 
7.2502387e+2, 1.8501641e+2, -1110664.1, -1155618.5, 5505.844, 0.06183673, 0.07077414, -1109999.6, 16845.334, 0.0, 10.002696, 9.99674 
7.250235e+2, 1.9501263e+2, -1013985.3, -1058272.6, 4453.7344, 0.052228287, 0.019826211, -1013541.9, 15335.562, 0.0, 10.002606, 9.996738 
7.250232e+2, 2.0500877e+2, -917458.7, -961603.2, 3411.359, 0.04436495, -0.037855953, -917196.6, 13714.236, 0.0, 10.002532, 9.996683 
7.2502285e+2, 2.150048e+2, -820327.94, -864053.2, 2379.3389, 0.038240988, -0.102710254, -820198.9, 12746.346, 0.0, 10.002474, 9.99668 
7.250223e+2, 2.2500117e+2, -725092.5, -769229.8, -3.6585941, 0.03353531, -0.126575, -725092.5, 9886.412, 0.0, 10.002364, 9.996516 
7.2502166e+2, 2.3499785e+2, -629467.25, -672419.8, -1084.1202, 0.030238057, -0.11001503, -629439.94, 7571.963, 0.0, 10.002203, 9.996511 
7.250208e+2, 2.4499433e+2, -539490.75, -585323.2, -3635.1458, 0.02658674, -0.08244382, -539204.2, -156.11656, 0.0, 10.001956, 9.995885 
7.250197e+2, 2.549906e+2, -446335.7, -489678.13, -4398.846, 0.022575716, -0.04429752, -445893.75, -4806.3076, 0.0, 10.001624, 9.995882 
7.250185e+2, 2.649861e+2, -362673.84, -411476.3, -5793.947, 0.015841393, -0.02481197, -361995.4, -18861.99, 0.0, 10.001195, 9.994732 
7.250171e+2, 2.7498084e+2, -272279.72, -317095.5, -6117.0225, 0.006379597, -0.024626883, -271459.78, -26273.84, 0.0, 10.0006695, 9.994735 
7.250157e+2, 2.8497398e+2, -207821.2, -275270.7, -6519.8013, -0.0017322209, -0.007490415, -207196.77, -59941.508, 0.0, 10.00009, 9.991163 
7.2501427e+2, 2.9496545e+2, -118984.09, -181630.38, -6339.6743, -0.008488958, 0.025941784, -118348.98, -69007.586, 0.0, 9.9994545, 9.991165 
7.250131e+2, 3.0495882e+2, -52739.348, -82979.94, -3618.747, -0.021910466, 0.061419178, -52312.34, -52312.34, 0.0, 9.9988575, 9.994854 
7.2501206e+2, 3.1495404e+2, -60873.99, -86888.04, -2922.8513, -0.04210194, 0.09841765, -60549.633, -60549.633, 0.0, 9.998299, 9.994855 
7.3504144e+2, 1.2504265e+2, -1669487.0, -1734699.8, -3267.2012, 0.19852243, 0.0053793513, -1669323.8, 45259.563, 0.0, 10.00491, 9.996268 
7.350371e+2, 1.3503906e+2, -1579800.0, -1640832.5, -4063.5227, 0.17075457, 0.01935776, -1579530.6, 37089.387, 0.0, 10.004349, 9.996262 
7.3503363e+2, 1.4503504e+2, -1496644.4, -1562012.4, 808.0087, 0.14762962, 0.04630683, -1496634.4, 22027.018, 0.0, 10.003858, 9.995198 
7.350309e+2, 1.5503064e+2, -1404852.4, -1467026.9, -82.954414, 0.12897421, 0.085317194, -1404852.3, 15855.1455, 0.0, 10.003435, 9.995198 
7.3502886e+2, 1.6502638e+2, -1306666.0, -1361006.4, 4386.006, 0.107762255, 0.10368598, -1306314.4, 16436.123, 0.0, 10.003103, 9.995904 
7.3502755e+2, 1.7502226e+2, -1212204.9, -1264730.6, 3419.6775, 0.08402506, 0.10136242, -1211983.3, 12807.164, 0.0, 10.002862, 9.995903 
7.350266e+2, 1.8501818e+2, -1112640.6, -1159699.3, 5172.929, 0.06668626, 0.075206436, -1112078.8, 14749.214, 0.0, 10.002697, 9.996462 
7.350262e+2, 1.9501415e+2, -1015959.3, -1062349.5, 4121.677, 0.055682972, 0.024906583, -1015596.0, 13267.256, 0.0, 10.002607, 9.996461 
7.3502576e+2, 2.0501001e+2, -919395.25, -965603.8, 3198.435, 0.046790984, -0.032096982, -919174.94, 11724.444, 0.0, 10.002533, 9.99641 
7.3502535e+2, 2.1500579e+2, -822262.44, -868049.9, 2166.4622, 0.03999981, -0.09624449, -822160.1, 10776.263, 0.0, 10.002474, 9.9964075 
7.350247e+2, 2.2500187e+2, -727122.5, -773423.94, -603.7461, 0.035096187, -0.11907492, -727114.6, 7858.155, 0.0, 10.002364, 9.996229 
7.350239e+2, 2.3499827e+2, -631496.25, -676611.75, -1683.9008, 0.03206764, -0.10116222, -631433.5, 5575.046, 0.0, 10.002203, 9.996225 
7.350228e+2, 2.449945e+2, -540922.8, -588281.0, -4880.3877, 0.028001297, -0.07362014, -540425.06, -1377.9387, 0.0, 10.001956, 9.995683 
7.3502135e+2, 2.5499055e+2, -447766.66, -492635.0, -5644.187, 0.022891855, -0.036880665, -447067.53, -5978.937, 0.0, 10.001623, 9.99568 
7.350196e+2, 2.649859e+2, -363280.13, -412724.63, -7769.379, 0.014482074, -0.01779823, -362088.03, -18952.053, 0.0, 10.001195, 9.994647 
7.350178e+2, 2.7498057e+2, -272885.63, -318340.72, -8095.0005, 0.0027645393, -0.017000854, -271487.03, -26297.742, 0.0, 10.0006695, 9.99465 
7.3501575e+2, 2.8497365e+2, -207500.25, -274591.5, -8912.437, -0.0066508786, -0.000076233664, -206336.5, -59077.754, 0.0, 10.00009, 9.99121 
7.3501366e+2, 2.949652e+2, -118660.92, -180943.6, -8734.715, -0.013749178, 0.032308925, -117459.125, -68114.734, 0.0, 9.9994545, 9.991212 
7.350118e+2, 3.0495864e+2, -51502.6, -80390.64, -5727.619, -0.027831396, 0.06506682, -50408.434, -50408.434, 0.0, 9.998857, 9.995031 
7.350103e+2, 3.14954e+2, -59634.215, -84284.27, -5029.9336, -0.049036235, 0.09767586, -58647.348, -58647.348, 0.0, 9.998298, 9.995034 
7.4504685e+2, 1.2504625e+2, -1659650.3, -1732118.6, -2420.119, 0.21178615, 0.0061482983, -1659569.5, 54978.58, 0.0, 10.005674, 9.996071 
7.4504197e+2, 1.3504247e+2, -1570952.4, -1638736.6, -3052.5513, 0.18525936, 0.02067157, -1570815.1, 45771.473, 0.0, 10.005047, 9.996064 
7.45038e+2, 1.4503826e+2, -1488583.0, -1560467.0, 2600.997, 0.16192202, 0.04833268, -1488489.0, 30141.02, 0.0, 10.004509, 9.994986 
7.450348e+2, 1.5503366e+2, -1397175.4, -1465666.0, 1935.5751, 0.14160143, 0.08820421, -1397120.6, 23557.521, 0.0, 10.00406, 9.994987 
7.450324e+2, 1.6502918e+2, -1299596.6, -1360256.5, 7256.813, 0.11848221, 0.10795399, -1298740.5, 23982.816, 0.0, 10.003701, 9.995665 
7.4503076e+2, 1.7502485e+2, -1205565.9, -1264188.4, 6425.5356, 0.09260323, 0.107556924, -1204869.9, 19895.727, 0.0, 10.00343, 9.995664 
7.450297e+2, 1.8502054e+2, -1106249.0, -1159350.5, 8995.476, 0.073381715, 0.082533, -1104766.5, 22039.102, 0.0, 10.003252, 9.996216 
7.450291e+2, 1.9501626e+2, -1009541.9, -1061988.6, 8186.613, 0.060742088, 0.032597903, -1008293.75, 20549.584, 0.0, 10.003164, 9.996215 
7.4502856e+2, 2.0501189e+2, -913341.2, -965668.2, 7462.5513, 0.050745387, -0.02307011, -912297.75, 18584.182, 0.0, 10.003076, 9.996142 
7.450281e+2, 2.150074e+2, -816642.8, -868323.0, 6469.2593, 0.043373615, -0.08491655, -815845.3, 17076.174, 0.0, 10.002988, 9.9961405 
7.4502736e+2, 2.2500323e+2, -722250.44, -774111.3, 3313.5476, 0.03740484, -0.106940635, -722039.6, 12920.929, 0.0, 10.002829, 9.995957 
7.450263e+2, 2.3499937e+2, -627617.3, -677780.0, 2341.9443, 0.032827638, -0.089725204, -627508.2, 9490.821, 0.0, 10.0026, 9.995954 
7.450249e+2, 2.4499537e+2, -537453.4, -588571.2, -1371.6151, 0.027147053, -0.062108416, -537416.56, 1623.2804, 0.0, 10.002278, 9.995506 
7.450231e+2, 2.5499126e+2, -445484.53, -493501.0, -1938.1902, 0.020355718, -0.024524974, -445406.44, -4323.4272, 0.0, 10.001864, 9.995504 
7.4502087e+2, 2.6498646e+2, -362633.66, -413966.44, -5079.411, 0.010447509, -0.0052720867, -362135.88, -19003.957, 0.0, 10.001307, 9.994508 
7.450183e+2, 2.7498096e+2, -274852.22, -320841.88, -5808.0283, -0.0025891305, -0.0049642217, -274130.06, -28943.455, 0.0, 10.000602, 9.994511 
7.450156e+2, 2.84974e+2, -210787.06, -275801.66, -7266.6357, -0.012560969, 0.011419756, -209984.77, -62728.22, 0.0, 9.999847, 9.991243 
7.450129e+2, 2.9496557e+2, -124396.23, -183323.69, -7187.4985, -0.019442812, 0.043209765, -123532.22, -74190.43, 0.0, 9.999044, 9.991246 
7.450104e+2, 3.049591e+2, -59521.04, -83175.66, -4319.091, -0.03331896, 0.07309553, -58757.09, -58757.09, 0.0, 9.99826, 9.995128 
7.450082e+2, 3.1495446e+2, -70641.54, -88495.77, -4232.4473, -0.05436082, 0.100529656, -69689.02, -69689.02, 0.0, 9.997495, 9.9951315 
7.5505275e+2, 1.2505029e+2, -1660908.1, -1734715.0, -4785.34, 0.2254222, 0.007840379, -1660599.1, 53909.688, 0.0, 10.005675, 9.995894 
7.550472e+2, 1.3504635e+2, -1572207.0, -1641329.8, -5411.0254, 0.20030434, 0.022464208, -1571786.0, 44763.094, 0.0, 10.005047, 9.995888 
7.550426e+2, 1.4504196e+2, -1489883.5, -1563155.1, 911.3031, 0.1769336, 0.051016092, -1489872.1, 28722.176, 0.0, 10.00451, 9.994802 
7.550389e+2, 1.5503718e+2, -1398472.1, -1468346.1, 251.69455, 0.15514204, 0.092542745, -1398471.3, 22173.02, 0.0, 10.004061, 9.994804 
7.550362e+2, 1.6503254e+2, -1301176.1, -1363517.1, 6243.919, 0.13044731, 0.11436111, -1300556.9, 22134.432, 0.0, 10.003701, 9.995442 
7.550343e+2, 1.7502798e+2, -1207143.4, -1267442.5, 5416.992, 0.10289596, 0.11647631, -1206660.6, 18075.092, 0.0, 10.00343, 9.995442 
7.55033e+2, 1.8502349e+2, -1107768.6, -1162485.6, 8675.895, 0.0819062, 0.092733, -1106426.0, 20351.83, 0.0, 10.003252, 9.996002 
7.5503236e+2, 1.9501898e+2, -1011060.2, -1065120.8, 7868.8784, 0.06739072, 0.042883024, -1009938.1, 18879.596, 0.0, 10.003164, 9.996001 
7.550317e+2, 2.050144e+2, -915207.25, -969517.4, 7145.1147, 0.056214057, -0.010797853, -914283.0, 16575.654, 0.0, 10.003076, 9.99588 
7.550311e+2, 2.1500969e+2, -818505.75, -872164.4, 6151.898, 0.048347224, -0.06876548, -817809.5, 15091.032, 0.0, 10.002987, 9.995878 
7.550302e+2, 2.2500527e+2, -724080.25, -777885.4, 2465.5288, 0.04045367, -0.090210356, -723967.5, 10974.624, 0.0, 10.002829, 9.9957 
7.550289e+2, 2.3500112e+2, -629442.75, -681548.8, 1495.7925, 0.032527, -0.07572225, -629399.8, 7583.6294, 0.0, 10.002599, 9.995696 
7.550272e+2, 2.4499692e+2, -538516.0, -590762.56, -2913.425, 0.024043068, -0.04792644, -538354.06, 672.2581, 0.0, 10.002278, 9.995357 
7.5502485e+2, 2.5499266e+2, -446548.8, -495693.4, -3482.3005, 0.014990283, -0.007265522, -446303.28, -5232.5693, 0.0, 10.001864, 9.995355 
7.550221e+2, 2.649877e+2, -363993.75, -416772.94, -7724.52, 0.0037565695, 0.012728759, -362886.44, -19765.184, 0.0, 10.001306, 9.994316 
7.5501883e+2, 2.7498204e+2, -276208.6, -323644.28, -8456.101, -0.009673658, 0.0114545245, -274746.28, -29568.344, 0.0, 10.000601, 9.994319 
7.5501543e+2, 2.8497496e+2, -210647.19, -275504.63, -10288.544, -0.019462708, 0.026972158, -209054.2, -61805.492, 0.0, 9.999847, 9.991264 
7.5501186e+2, 2.9496655e+2, -124247.54, -183009.48, -10214.94, -0.025575712, 0.058617424, -122522.46, -73188.85, 0.0, 9.999044, 9.991268 
7.550085e+2, 3.0496e+2, -59422.48, -82957.7, -7201.4565, -0.03838767, 0.08548385, -57393.8, -57393.8, 0.0, 9.998259, 9.995143 
7.550056e+2, 3.1495538e+2, -70543.89, -88264.27, -7114.652, -0.058102947, 0.10697249, -68040.93, -68040.93, 0.0, 9.997494, 9.995148 
7.650589e+2, 1.2505494e+2, -1651001.6, -1731460.9, -2781.1848, 0.23838133, 0.011211755, -1650905.6, 63558.03, 0.0, 10.006416, 9.995754 
7.6505274e+2, 1.3505085e+2, -1563234.5, -1638532.9, -3131.1438, 0.21579082, 0.02630322, -1563104.5, 53400.895, 0.0, 10.005725, 9.995748 
7.650476e+2, 1.4504634e+2, -1481738.6, -1560833.9, 4164.3423, 0.19349144, 0.056375634, -1481520.0, 37031.926, 0.0, 10.005135, 9.994657 
7.6504344e+2, 1.5504144e+2, -1390967.0, -1466331.4, 3781.272, 0.17132568, 0.10044259, -1390777.8, 29825.527, 0.0, 10.004642, 9.9946575 
7.6504034e+2, 1.6503665e+2, -1294255.9, -1361923.3, 10852.752, 0.14486887, 0.124017276, -1292557.9, 30093.914, 0.0, 10.00425, 9.995285 
7.650381e+2, 1.7503196e+2, -1200580.0, -1266018.6, 10508.259, 0.11419359, 0.12715642, -1198934.0, 25763.766, 0.0, 10.003954, 9.995285 
7.6503664e+2, 1.8502732e+2, -1101308.5, -1161057.6, 14977.718, 0.090278916, 0.10493275, -1097764.1, 28977.234, 0.0, 10.003766, 9.995851 
7.650358e+2, 1.9502269e+2, -1004519.6, -1063653.6, 14627.373, 0.07301932, 0.057129677, -1001099.2, 27683.57, 0.0, 10.003684, 9.99585 
7.6503503e+2, 2.0501792e+2, -909514.7, -969463.1, 14133.603, 0.05929895, 0.0057076965, -906349.6, 24475.93, 0.0, 10.003581, 9.995639 
7.650344e+2, 2.15013e+2, -813314.44, -872346.2, 13297.326, 0.049080983, -0.04978093, -810457.4, 22412.357, 0.0, 10.003458, 9.995638 
7.6503325e+2, 2.2500838e+2, -718563.44, -776968.9, 9597.917, 0.038261574, -0.07119655, -717026.6, 17886.785, 0.0, 10.003282, 9.9955435 
7.650317e+2, 2.3500404e+2, -623959.7, -680646.25, 9382.493, 0.026834378, -0.05915464, -622447.1, 14509.406, 0.0, 10.00305, 9.99554 
7.6502955e+2, 2.449997e+2, -534282.9, -590814.1, 4256.2363, 0.017205928, -0.02915216, -533964.2, 5036.7627, 0.0, 10.002658, 9.995169 
7.650268e+2, 2.5499535e+2, -444339.63, -496724.22, 3406.0671, 0.00935411, 0.018346865, -444119.1, -3072.3748, 0.0, 10.002106, 9.995167 
7.650234e+2, 2.649902e+2, -363037.16, -417844.34, -1761.2769, -0.0012919982, 0.03817978, -362980.6, -19881.729, 0.0, 10.001437, 9.994179 
7.650194e+2, 2.749843e+2, -276450.25, -325291.66, -2080.9207, -0.014756978, 0.029772105, -276361.75, -31204.326, 0.0, 10.00065, 9.994182 
7.6501524e+2, 2.8497717e+2, -210905.77, -276104.66, -4172.882, -0.023384692, 0.04417474, -210639.78, -63410.67, 0.0, 9.99985, 9.991221 
7.650109e+2, 2.9496875e+2, -124669.53, -183676.23, -4573.741, -0.027114587, 0.08074112, -124317.12, -75003.195, 0.0, 9.999035, 9.991226 
7.650068e+2, 3.049622e+2, -61914.74, -84518.85, -2343.5576, -0.03744021, 0.10607138, -61674.316, -61674.316, 0.0, 9.998103, 9.9951105 
7.650029e+2, 3.1495744e+2, -77170.836, -91796.46, -2607.4087, -0.05462504, 0.11945761, -76719.9, -76719.9, 0.0, 9.997053, 9.995117 
7.750654e+2, 1.250602e+2, -1651748.1, -1733006.5, -5377.0615, 0.25069055, 0.016241228, -1651393.9, 63018.906, 0.0, 10.006416, 9.995648 
7.7505857e+2, 1.35056e+2, -1563981.9, -1640076.5, -5720.133, 0.23172621, 0.032170758, -1563554.3, 52901.27, 0.0, 10.005725, 9.995642 
7.750529e+2, 1.4505142e+2, -1482530.3, -1562466.0, 2315.6257, 0.21158361, 0.064389944, -1482463.3, 36039.82, 0.0, 10.005135, 9.994545 
7.7504826e+2, 1.5504645e+2, -1391751.9, -1467949.5, 1940.4397, 0.190123, 0.11187126, -1391702.4, 28852.838, 0.0, 10.004642, 9.994548 
7.7504474e+2, 1.6504157e+2, -1294929.1, -1363313.6, 9754.554, 0.1617151, 0.13689381, -1293565.0, 29039.93, 0.0, 10.00425, 9.99519 
7.750422e+2, 1.7503679e+2, -1201246.6, -1267398.3, 9417.782, 0.12648113, 0.13959038, -1199932.0, 24719.965, 0.0, 10.003954, 9.995192 
7.7504045e+2, 1.8503205e+2, -1101961.9, -1162408.5, 14688.067, 0.09850011, 0.119128294, -1098581.9, 28114.627, 0.0, 10.003766, 9.995758 
7.7503955e+2, 1.9502738e+2, -1005177.7, -1065004.5, 14338.5, 0.077641286, 0.075311854, -1001918.75, 26819.875, 0.0, 10.003684, 9.995757 
7.7503866e+2, 2.0502247e+2, -911091.5, -972702.25, 13693.883, 0.060030088, 0.026414217, -908184.94, 22597.912, 0.0, 10.00358, 9.995419 
7.7503777e+2, 2.1501735e+2, -814885.9, -875569.3, 12860.361, 0.04562608, -0.027981704, -812272.94, 20556.297, 0.0, 10.003457, 9.995418 
7.7503645e+2, 2.2501259e+2, -718987.5, -777813.94, 8752.348, 0.030891411, -0.04991132, -717712.94, 17161.455, 0.0, 10.00328, 9.995486 
7.750346e+2, 2.3500817e+2, -624386.75, -681487.4, 8536.167, 0.015814034, -0.040031593, -623137.94, 13780.336, 0.0, 10.003048, 9.995483 
7.750321e+2, 2.4500373e+2, -535900.4, -594114.56, 2198.189, 0.0066819577, -0.005810263, -535817.44, 3146.413, 0.0, 10.002656, 9.994945 
7.750289e+2, 2.5499925e+2, -445954.0, -500021.72, 1345.3378, 0.0034520912, 0.052245546, -445920.53, -4909.459, 0.0, 10.002104, 9.994942 
7.7502483e+2, 2.6499397e+2, -363639.53, -419059.97, -4708.753, -0.004714851, 0.0710184, -363242.28, -20177.426, 0.0, 10.001435, 9.994096 
7.7502e+2, 2.7498785e+2, -277037.5, -326495.25, -5031.5093, -0.017858611, 0.0499781, -276530.8, -31405.65, 0.0, 10.000649, 9.9941 
7.7501506e+2, 2.849806e+2, -211644.98, -277636.28, -7231.1924, -0.024351988, 0.06302498, -210861.89, -63664.055, 0.0, 9.99985, 9.991116 
7.7500993e+2, 2.9497218e+2, -125400.29, -185193.23, -7641.672, -0.024091654, 0.109548084, -124439.12, -75156.33, 0.0, 9.999035, 9.991122 
7.750049e+2, 3.0496553e+2, -62478.0, -85677.26, -6295.1577, -0.030513944, 0.13482158, -60879.887, -60879.887, 0.0, 9.998103, 9.99503 
7.750001e+2, 3.1496057e+2, -77729.61, -92923.86, -6566.659, -0.043970108, 0.13796988, -75284.96, -75284.96, 0.0, 9.997052, 9.99504 
7.8507227e+2, 1.2506633e+2, -1643572.5, -1729864.8, -1960.3339, 0.26468012, 0.025091328, -1643528.0, 70825.8, 0.0, 10.007009, 9.995573 
7.8506476e+2, 1.3506207e+2, -1557282.1, -1637652.3, -2069.3516, 0.24922255, 0.042418472, -1557228.9, 59168.258, 0.0, 10.006216, 9.995566 
7.8505844e+2, 1.4505744e+2, -1476313.9, -1559875.0, 7275.5063, 0.23006782, 0.07606799, -1475685.1, 42760.047, 0.0, 10.005576, 9.994506 
7.850534e+2, 1.5505242e+2, -1385551.6, -1465354.0, 7446.8257, 0.20713347, 0.12499982, -1384862.6, 35635.133, 0.0, 10.005081, 9.99451 
7.850494e+2, 1.6504756e+2, -1287988.0, -1359778.4, 16777.242, 0.17560227, 0.15092833, -1284260.8, 38286.836, 0.0, 10.004715, 9.995204 
7.850465e+2, 1.7504281e+2, -1193543.3, -1263488.1, 17257.07, 0.13563982, 0.15405568, -1189517.3, 35077.324, 0.0, 10.004472, 9.995206 
7.8504455e+2, 1.8503807e+2, -1095070.3, -1159893.5, 23553.69, 0.10425972, 0.13669999, -1087415.8, 39223.53, 0.0, 10.004272, 9.995685 
7.850435e+2, 1.9503337e+2, -999384.4, -1063018.5, 23338.848, 0.08129921, 0.09869438, -991742.25, 36939.59, 0.0, 10.004114, 9.995684 
7.850424e+2, 2.050284e+2, -906414.06, -971564.4, 23104.113, 0.0605071, 0.050910402, -899052.56, 31674.447, 0.0, 10.003948, 9.995317 
7.850414e+2, 2.1502313e+2, -810948.7, -874777.44, 23164.58, 0.041846134, -0.007000549, -803427.94, 29346.771, 0.0, 10.003775, 9.995318 
7.850398e+2, 2.2501832e+2, -716082.5, -776761.6, 18989.426, 0.02545898, -0.027564673, -710629.8, 24190.727, 0.0, 10.003493, 9.995454 
7.8503764e+2, 2.3501393e+2, -623751.9, -681530.06, 18963.334, 0.011303218, -0.0115499385, -618083.94, 18780.408, 0.0, 10.003106, 9.995452 
7.8503466e+2, 2.4500939e+2, -538230.75, -597558.94, 11721.765, 0.0027891065, 0.025430959, -535998.8, 2912.1514, 0.0, 10.002596, 9.994737 
7.8503084e+2, 2.550047e+2, -449467.44, -504036.13, 11005.154, -0.00013342455, 0.082862996, -447331.56, -6371.2266, 0.0, 10.001963, 9.994735 
7.850262e+2, 2.6499933e+2, -364564.84, -418776.97, 5173.0044, -0.0074724527, 0.09961881, -364075.66, -21060.674, 0.0, 10.00134, 9.99416 
7.850207e+2, 2.7499324e+2, -275453.16, -325001.0, 5953.999, -0.019272972, 0.07525245, -274747.72, -29672.91, 0.0, 10.000726, 9.9941635 
7.85015e+2, 2.849859e+2, -210444.47, -279825.2, 3496.977, -0.022185054, 0.08881596, -210268.66, -63120.367, 0.0, 10.000051, 9.990868 
7.8500915e+2, 2.949773e+2, -123090.38, -186831.8, 2017.2766, -0.016076181, 0.1395887, -123026.6, -73791.28, 0.0, 9.9993105, 9.990875 
7.8500324e+2, 3.0497047e+2, -59573.625, -84832.21, 1569.2338, -0.01934612, 0.1643301, -59476.508, -59476.508, 0.0, 9.998324, 9.99498 
7.849972e+2, 3.1496543e+2, -77520.75, -93340.57, 1527.2517, -0.032468975, 0.16213809, -77374.66, -77374.66, 0.0, 9.9970875, 9.994992 
7.9507947e+2, 1.2507331e+2, -1643910.5, -1730545.3, -4926.459, 0.28032652, 0.037701044, -1643631.3, 70655.34, 0.0, 10.007008, 9.995526 
7.950712e+2, 1.3506903e+2, -1557610.8, -1638319.1, -5026.227, 0.268254, 0.056981374, -1557298.9, 59031.46, 0.0, 10.006216, 9.995522 
7.950642e+2, 1.450644e+2, -1476085.4, -1559403.6, 5429.7524, 0.24893288, 0.09136257, -1475733.0, 42645.457, 0.0, 10.005575, 9.994538 
7.950586e+2, 1.5505941e+2, -1385305.9, -1464854.4, 5612.367, 0.22238335, 0.13982134, -1384911.9, 35518.992, 0.0, 10.005081, 9.994544 
7.950542e+2, 1.6505462e+2, -1287122.0, -1357995.6, 15884.244, 0.18658029, 0.16613433, -1283724.8, 38755.137, 0.0, 10.004714, 9.995326 
7.9505104e+2, 1.7505e+2, -1192687.6, -1261706.0, 16369.761, 0.1417271, 0.17056122, -1189001.9, 35523.94, 0.0, 10.00447, 9.995328 
7.9504883e+2, 1.8504535e+2, -1095496.6, -1160733.8, 22984.143, 0.10760679, 0.15763904, -1088212.3, 38357.7, 0.0, 10.004271, 9.995628 
7.950476e+2, 1.9504067e+2, -999815.4, -1063848.6, 22772.242, 0.08401275, 0.12723117, -992542.8, 36069.813, 0.0, 10.004111, 9.995629 
7.950464e+2, 2.0503567e+2, -906334.94, -971331.44, 22477.398, 0.060733367, 0.07915772, -899319.0, 31339.057, 0.0, 10.003945, 9.995335 
7.950451e+2, 2.1503034e+2, -810861.9, -874525.2, 22541.111, 0.037746668, 0.013202147, -803688.94, 29017.451, 0.0, 10.003771, 9.9953375 
7.9504323e+2, 2.2502558e+2, -716175.7, -776880.44, 17560.742, 0.02194365, -0.0041216877, -711461.75, 23290.209, 0.0, 10.0034895, 9.995447 
7.950408e+2, 2.3502134e+2, -623842.7, -681646.1, 17528.436, 0.01321255, 0.026202746, -618942.7, 17852.146, 0.0, 10.003102, 9.995445 
7.9503727e+2, 2.4501671e+2, -539595.8, -600334.44, 9357.924, 0.0054287435, 0.064482994, -538186.7, 655.66736, 0.0, 10.002593, 9.994548 
7.950328e+2, 2.550117e+2, -450808.13, -506799.72, 8644.112, -0.0014411164, 0.11025263, -449504.0, -8609.416, 0.0, 10.001962, 9.994546 
7.9502755e+2, 2.650063e+2, -363067.4, -415682.9, 2884.1262, -0.009577886, 0.12405095, -362909.78, -19960.488, 0.0, 10.00134, 9.99437 
7.950214e+2, 2.7500048e+2, -273961.13, -321917.13, 3653.331, -0.019020034, 0.10556713, -273684.4, -28677.973, 0.0, 10.000726, 9.994374 
7.9501516e+2, 2.8499308e+2, -213174.47, -285502.47, 724.0845, -0.016908469, 0.121505834, -213167.22, -66086.64, 0.0, 10.0000515, 9.990478 
7.950086e+2, 2.9498407e+2, -125803.45, -192475.67, -764.3593, -0.003098621, 0.17085856, -125794.695, -76623.08, 0.0, 9.999311, 9.990487 
7.950017e+2, 3.0497703e+2, -59713.05, -85112.7, -3083.1484, -0.003971619, 0.19459443, -59344.16, -59344.16, 0.0, 9.998324, 9.99496 
7.9499453e+2, 3.1497198e+2, -77653.53, -93573.97, -3139.2993, -0.02016676, 0.19195724, -77056.86, -77056.86, 0.0, 9.997086, 9.994977 
8.0508673e+2, 1.2508139e+2, -1640139.9, -1728595.9, -116.11601, 0.29588342, 0.054948736, -1640139.6, 74069.55, 0.0, 10.007257, 9.995536 
8.050776e+2, 1.3507712e+2, -1554040.0, -1636454.5, 216.24268, 0.28527683, 0.074713856, -1554039.5, 62213.344, 0.0, 10.006452, 9.995532 
8.0507004e+2, 1.4507255e+2, -1471218.9, -1555500.4, 12537.625, 0.2653508, 0.10888701, -1469393.3, 48906.902, 0.0, 10.005838, 9.994675 
8.0506396e+2, 1.5506771e+2, -1379445.0, -1460449.1, 13507.482, 0.23622285, 0.15646014, -1377252.0, 43099.45, 0.0, 10.005411, 9.994682 
8.0505913e+2, 1.6506308e+2, -1281705.1, -1353679.1, 24823.98, 0.1983207, 0.18453176, -1273973.8, 48425.266, 0.0, 10.005009, 9.995476 
8.050557e+2, 1.7505863e+2, -1189266.9, -1258353.8, 25531.607, 0.1518617, 0.19338317, -1180855.5, 43587.598, 0.0, 10.004629, 9.995479 
8.0505323e+2, 1.8505411e+2, -1094940.5, -1160371.6, 32850.906, 0.114671014, 0.18311705, -1081293.5, 45192.992, 0.0, 10.004303, 9.995637 
8.050517e+2, 1.9504943e+2, -1000950.94, -1064288.6, 33127.38, 0.08654699, 0.15370683, -986790.3, 41738.73, 0.0, 10.004028, 9.99564 
8.0505025e+2, 2.0504452e+2, -907342.5, -970086.5, 33734.355, 0.058937263, 0.10443675, -892647.06, 37926.79, 0.0, 10.0038, 9.99549 
8.050487e+2, 2.1503933e+2, -811972.56, -873320.3, 34821.37, 0.0318065, 0.035192348, -796241.5, 36379.47, 0.0, 10.003619, 9.995493 
8.0504656e+2, 2.2503461e+2, -719128.44, -779480.0, 29209.576, 0.014414861, 0.02213533, -707306.9, 27359.135, 0.0, 10.003338, 9.995343 
8.0504376e+2, 2.3503037e+2, -626687.5, -684184.44, 28455.727, 0.0065873163, 0.06403145, -614985.94, 21723.166, 0.0, 10.002957, 9.995341 
8.050399e+2, 2.4502568e+2, -538898.75, -599745.2, 20452.89, -0.002358846, 0.09968604, -532662.9, 6094.4194, 0.0, 10.002629, 9.99457 
8.050349e+2, 2.5502056e+2, -444945.47, -503701.88, 21317.467, -0.0124311065, 0.12879463, -438026.1, 2784.381, 0.0, 10.002351, 9.994568 
8.0502903e+2, 2.6501516e+2, -354639.28, -411601.53, 15001.491, -0.018133925, 0.14289266, -350930.03, -8065.0796, 0.0, 10.001916, 9.99437 
8.050225e+2, 2.750095e+2, -265227.3, -317680.66, 14204.438, -0.019584576, 0.14161192, -261627.75, -16707.096, 0.0, 10.001323, 9.994374 
8.0501556e+2, 2.85002e+2, -205281.72, -284243.16, 10764.472, -0.012860395, 0.1575857, -203840.55, -56844.652, 0.0, 10.000701, 9.990249 
8.0500835e+2, 2.949926e+2, -116624.18, -190557.98, 10497.123, 0.002235887, 0.18971689, -115162.69, -66072.16, 0.0, 10.000048, 9.990262 
8.0500054e+2, 3.0498534e+2, -47349.637, -80157.55, 6910.3364, 0.0015152714, 0.21220413, -45953.523, -45953.523, 0.0, 9.999214, 9.994869 
8.049922e+2, 3.149804e+2, -62119.863, -87065.46, 6303.4683, -0.015735038, 0.22437932, -60617.527, -60617.527, 0.0, 9.998192, 9.994888 
8.150941e+2, 1.2509054e+2, -1639693.0, -1727649.1, -3123.211, 0.31134477, 0.0767405, -1639582.3, 74539.33, 0.0, 10.007256, 9.9956 
8.150842e+2, 1.3508633e+2, -1553579.5, -1635479.6, -2778.8564, 0.30033857, 0.09557328, -1553485.4, 62679.24, 0.0, 10.00645, 9.995598 
8.1507605e+2, 1.4508191e+2, -1469529.5, -1551991.4, 10954.735, 0.27938786, 0.12863672, -1468099.1, 50111.492, 0.0, 10.0058365, 9.994914 
8.1506944e+2, 1.5507731e+2, -1377754.8, -1456921.9, 11929.263, 0.2487047, 0.17493565, -1375996.3, 44263.332, 0.0, 10.005409, 9.994923 
8.1506425e+2, 1.650729e+2, -1280472.3, -1351077.5, 23415.895, 0.21083312, 0.20612326, -1273412.5, 48892.42, 0.0, 10.005006, 9.995654 
8.1506044e+2, 1.7506872e+2, -1188034.1, -1255742.3, 24130.281, 0.16597398, 0.22245538, -1180314.5, 44032.184, 0.0, 10.004625, 9.995658 
8.1505764e+2, 1.8506432e+2, -1094464.4, -1159325.4, 31841.127, 0.1253636, 0.2130746, -1081446.0, 44942.785, 0.0, 10.0043, 9.995709 
8.150558e+2, 1.9505967e+2, -1000445.0, -1063198.9, 32127.713, 0.08888319, 0.17818487, -986914.2, 41517.047, 0.0, 10.004025, 9.995715 
8.15054e+2, 2.0505491e+2, -905305.25, -965846.4, 33081.688, 0.05514095, 0.12685122, -890734.94, 39739.58, 0.0, 10.0037985, 9.99578 
8.150523e+2, 2.1505001e+2, -809944.2, -869090.5, 34162.527, 0.02404537, 0.05899376, -794332.75, 38185.918, 0.0, 10.003617, 9.995783 
8.150498e+2, 2.2504541e+2, -720561.0, -782408.3, 27797.346, 0.0029251117, 0.05121395, -709903.8, 24659.07, 0.0, 10.003336, 9.995144 
8.1504655e+2, 2.3504107e+2, -628092.75, -687077.56, 27047.09, -0.008448154, 0.1019814, -617568.3, 19039.035, 0.0, 10.002956, 9.995144 
8.150423e+2, 2.4503632e+2, -537268.0, -596369.3, 19422.607, -0.020424984, 0.13110758, -531456.56, 7199.2373, 0.0, 10.002629, 9.9948 
8.15037e+2, 2.550312e+2, -443305.6, -500297.97, 20285.912, -0.03297937, 0.13861874, -436822.5, 3885.665, 0.0, 10.00235, 9.994801 
8.150308e+2, 2.6502585e+2, -356107.53, -414637.28, 12772.695, -0.033051644, 0.15629359, -353441.63, -10679.549, 0.0, 10.001916, 9.994162 
8.150237e+2, 2.750203e+2, -266684.0, -320700.06, 11970.917, -0.020954259, 0.18341602, -264149.9, -19332.373, 0.0, 10.001323, 9.994167 
8.1501627e+2, 2.850126e+2, -205739.97, -285196.5, 8311.281, -0.010062526, 0.19700436, -204879.9, -57985.582, 0.0, 10.000701, 9.990183 
8.1500834e+2, 2.950028e+2, -117059.234, -191462.08, 8040.084, -0.000074221934, 0.19614407, -116200.33, -67208.164, 0.0, 10.000048, 9.990199 
8.1499976e+2, 3.0499545e+2, -48469.82, -82481.086, 3079.9285, -0.00291845, 0.21718891, -48193.168, -48193.168, 0.0, 9.999214, 9.994708 
8.1499034e+2, 3.149906e+2, -63247.996, -89382.92, 2453.9258, -0.019288456, 0.2594553, -63019.582, -63019.582, 0.0, 9.998191, 9.994728 
8.251015e+2, 1.2510097e+2, -1639975.1, -1726272.9, 2975.1257, 0.3254322, 0.10210766, -1639872.8, 74149.13, 0.0, 10.007169, 9.995733 
8.250908e+2, 1.3509688e+2, -1554301.8, -1634295.9, 3860.1873, 0.31520617, 0.11978687, -1554115.9, 61947.77, 0.0, 10.006332, 9.995733 
8.2508194e+2, 1.4509267e+2, -1470025.9, -1549105.1, 19331.604, 0.2943746, 0.15207754, -1465553.1, 52554.457, 0.0, 10.005665, 9.995193 
8.250749e+2, 1.5508832e+2, -1379351.9, -1454552.8, 20612.35, 0.26326746, 0.19797516, -1374072.6, 46081.176, 0.0, 10.005161, 9.995203 
8.2506925e+2, 1.6508418e+2, -1283270.3, -1350236.0, 32620.729, 0.22281782, 0.23063552, -1270006.9, 52189.84, 0.0, 10.004718, 9.9958515 
8.25065e+2, 1.7508022e+2, -1190912.6, -1254917.1, 33488.07, 0.1733131, 0.25033593, -1176594.3, 47642.094, 0.0, 10.004331, 9.995857 
8.2506186e+2, 1.85076e+2, -1095897.5, -1157518.4, 42576.203, 0.12622744, 0.23901697, -1074153.1, 52123.473, 0.0, 10.004092, 9.995934 
8.250597e+2, 1.9507153e+2, -999266.56, -1060099.9, 43990.56, 0.08148835, 0.19715403, -976201.06, 52116.32, 0.0, 10.003995, 9.995941 
8.2505774e+2, 2.0506701e+2, -902851.4, -962312.44, 45233.383, 0.044410627, 0.14714813, -878452.8, 51905.613, 0.0, 10.003864, 9.995989 
8.2505584e+2, 2.1506241e+2, -807288.94, -865469.3, 45722.16, 0.014777095, 0.08884661, -782187.3, 50212.492, 0.0, 10.003696, 9.995992 
8.2505316e+2, 2.2505783e+2, -719130.56, -783619.25, 38749.242, -0.0054312167, 0.083549015, -700964.56, 33479.117, 0.0, 10.003514, 9.994974 
8.2504964e+2, 2.3505327e+2, -623977.3, -686953.56, 38230.207, -0.01648304, 0.12961623, -605937.2, 30553.033, 0.0, 10.003317, 9.994977 
8.2504505e+2, 2.450485e+2, -529603.3, -590365.44, 30555.168, -0.026612997, 0.15237518, -516895.8, 21642.924, 0.0, 10.003053, 9.995005 
8.250395e+2, 2.550435e+2, -436432.44, -494673.16, 31236.404, -0.035828628, 0.15200205, -422847.9, 17741.434, 0.0, 10.00272, 9.995006 
8.250329e+2, 2.6503804e+2, -353654.06, -417960.47, 21882.262, -0.032134615, 0.1711193, -346914.3, -4270.322, 0.0, 10.002275, 9.993759 
8.250253e+2, 2.7503222e+2, -263685.38, -323763.06, 19624.04, -0.015890501, 0.20878726, -257843.38, -13140.741, 0.0, 10.001719, 9.993765 
8.250172e+2, 2.8502432e+2, -200287.14, -281829.78, 15156.191, -0.006238556, 0.21906061, -197561.22, -50779.94, 0.0, 10.00104, 9.990248 
8.250085e+2, 2.950144e+2, -113849.16, -189188.61, 15830.409, -0.002770046, 0.20128576, -110658.016, -61778.457, 0.0, 10.000235, 9.990263 
8.2499903e+2, 3.0500698e+2, -47136.36, -84280.555, 10349.562, -0.0059696585, 0.22313322, -44447.313, -44447.313, 0.0, 9.999409, 9.994489 
8.249887e+2, 3.150021e+2, -59474.2, -89979.02, 9277.35, -0.01651396, 0.28358167, -56874.293, -56874.293, 0.0, 9.99855, 9.994512 
8.3510876e+2, 1.2511264e+2, -1638582.4, -1723304.6, -143.04283, 0.33820194, 0.13099636, -1638582.1, 75328.11, 0.0, 10.007164, 9.995937 
8.350973e+2, 1.3510874e+2, -1552890.9, -1631296.4, 751.2588, 0.32989562, 0.14732696, -1552883.6, 63066.387, 0.0, 10.006327, 9.995939 
8.350878e+2, 1.4510478e+2, -1467805.1, -1544450.5, 17461.734, 0.31028348, 0.17918453, -1464014.4, 53977.047, 0.0, 10.005661, 9.99551 
8.3508027e+2, 1.5510076e+2, -1377111.8, -1449873.0, 18745.822, 0.27984077, 0.22553186, -1372566.1, 47468.29, 0.0, 10.005157, 9.9955225 
8.3507407e+2, 1.650969e+2, -1281764.1, -1347085.0, 31186.162, 0.23423839, 0.25804245, -1269266.1, 52808.387, 0.0, 10.004715, 9.996067 
8.3506936e+2, 1.7509316e+2, -1189367.9, -1251712.0, 32070.559, 0.17398472, 0.27708152, -1175816.1, 48295.98, 0.0, 10.004329, 9.996077 
8.350658e+2, 1.8508919e+2, -1093260.4, -1152066.1, 42236.633, 0.1174569, 0.2610664, -1071200.0, 54949.754, 0.0, 10.004091, 9.996305 
8.350635e+2, 1.9508499e+2, -996643.2, -1054645.4, 43652.9, 0.06456556, 0.21078311, -973235.9, 54951.707, 0.0, 10.003993, 9.996314 
8.3506143e+2, 2.0508076e+2, -901957.56, -960404.25, 44616.934, 0.026916971, 0.16547213, -877845.4, 52380.37, 0.0, 10.00386, 9.996121 
8.3505946e+2, 2.1507648e+2, -806414.06, -863585.06, 45100.71, 0.004046312, 0.12470838, -781602.9, 50661.656, 0.0, 10.003693, 9.996121 
8.350566e+2, 2.2507189e+2, -720159.9, -785680.1, 38008.45, -0.010719363, 0.11907099, -702741.6, 31566.867, 0.0, 10.003511, 9.994834 
8.350529e+2, 2.3506701e+2, -624958.4, -688939.1, 37498.41, -0.017651185, 0.14714572, -607658.6, 28699.072, 0.0, 10.003315, 9.994843 
8.3504814e+2, 2.450622e+2, -528334.8, -587725.75, 29302.148, -0.021120701, 0.16377598, -516311.75, 22094.465, 0.0, 10.003053, 9.995185 
8.3504236e+2, 2.5505742e+2, -435178.72, -492087.9, 29973.113, -0.021253495, 0.16897856, -422304.75, 18149.385, 0.0, 10.002721, 9.995182 
8.350353e+2, 2.6505178e+2, -357814.47, -426608.1, 19776.563, -0.01564289, 0.18733196, -352534.44, -10023.651, 0.0, 10.002277, 9.993166 
8.3502716e+2, 2.7504525e+2, -267852.16, -332429.06, 17517.592, -0.0044988543, 0.21786949, -263406.28, -18830.31, 0.0, 10.001721, 9.99317 
8.3501834e+2, 2.8503713e+2, -198912.8, -278978.8, 12118.282, -0.0014146564, 0.22395195, -197118.86, -50462.086, 0.0, 10.001041, 9.990441 
8.350087e+2, 2.950274e+2, -112513.64, -186401.44, 12791.608, -0.005875936, 0.2052208, -110361.805, -61609.016, 0.0, 10.000234, 9.990453 
8.349984e+2, 3.0501994e+2, -49077.8, -88324.86, 7151.542, -0.007649244, 0.23004346, -47815.273, -47815.273, 0.0, 9.99941, 9.994209 
8.3498734e+2, 3.1501487e+2, -61411.813, -93969.22, 6043.367, -0.0074411845, 0.2967681, -60326.227, -60326.227, 0.0, 9.99855, 9.994237 
8.451157e+2, 1.2512559e+2, -1647802.0, -1724870.8, 6051.2593, 0.35109475, 0.16278958, -1647329.8, 66456.52, 0.0, 10.006407, 9.996197 
8.451034e+2, 1.3512193e+2, -1561497.8, -1632540.8, 7396.0806, 0.34283942, 0.17774335, -1560736.0, 55087.664, 0.0, 10.00561, 9.996201 
8.4509325e+2, 1.4511827e+2, -1474576.0, -1543981.0, 25817.033, 0.32194892, 0.20833349, -1466026.0, 51836.074, 0.0, 10.0050335, 9.995846 
8.4508526e+2, 1.5511456e+2, -1381866.0, -1448399.0, 27248.38, 0.28911895, 0.253513, -1372130.9, 47770.816, 0.0, 10.004667, 9.99586 
8.4507865e+2, 1.6511098e+2, -1284709.8, -1345493.5, 40473.938, 0.23884122, 0.28363192, -1264487.4, 57451.555, 0.0, 10.00438, 9.996338 
8.450735e+2, 1.7510746e+2, -1189718.1, -1248821.1, 41780.992, 0.17176625, 0.2991849, -1168094.0, 55879.992, 0.0, 10.004169, 9.99635 
8.4506977e+2, 1.8510379e+2, -1092840.1, -1147896.1, 52550.016, 0.112176225, 0.2807456, -1061044.4, 64964.273, 0.0, 10.003946, 9.99666 
8.450673e+2, 1.9509995e+2, -998329.9, -1051503.4, 53849.348, 0.059863072, 0.22930348, -964861.56, 63181.535, 0.0, 10.003705, 9.996668 
8.4506506e+2, 2.0509595e+2, -907201.75, -962642.6, 54313.598, 0.024409167, 0.18913333, -873943.56, 56135.49, 0.0, 10.003488, 9.996149 
8.450629e+2, 2.1509181e+2, -812061.06, -866011.75, 54050.754, 0.0052022636, 0.1596038, -778628.1, 53488.625, 0.0, 10.003292, 9.99615 
8.4506e+2, 2.2508723e+2, -724012.75, -787156.75, 47682.656, -0.007813209, 0.149174, -698397.06, 35763.66, 0.0, 10.00323, 9.994869 
8.4505624e+2, 2.3508216e+2, -624977.7, -688530.7, 48481.32, -0.014884326, 0.1568111, -598787.1, 37423.906, 0.0, 10.003294, 9.99488 
8.4505135e+2, 2.450773e+2, -525620.06, -587169.7, 39397.76, -0.017889312, 0.1699697, -506402.16, 31857.473, 0.0, 10.003268, 9.995117 
8.450453e+2, 2.550726e+2, -429348.13, -490092.06, 38229.406, -0.01695523, 0.18819204, -410894.44, 29412.43, 0.0, 10.003153, 9.99511 
8.45038e+2, 2.6506662e+2, -352972.78, -430568.03, 26207.46, -0.010218302, 0.20585762, -344950.66, -2584.0977, 0.0, 10.002877, 9.992604 
8.450293e+2, 2.7505943e+2, -261280.6, -335561.56, 24152.477, 0.0020665787, 0.22233075, -254118.06, -9679.639, 0.0, 10.0024395, 9.992608 
8.450196e+2, 2.8505093e+2, -192468.06, -275693.44, 15724.789, 0.0016089585, 0.22288962, -189596.1, -43073.914, 0.0, 10.001471, 9.9904585 
8.4500873e+2, 2.9504126e+2, -116002.945, -187923.69, 15074.48, -0.011035159, 0.20719256, -112971.16, -64353.637, 0.0, 9.999983, 9.990469 
8.4499747e+2, 3.0503386e+2, -56772.18, -91783.914, 11200.583, -0.017673545, 0.23389275, -53495.64, -53495.64, 0.0, 9.998866, 9.994233 
8.449856e+2, 3.1502882e+2, -67728.69, -96762.67, 12325.608, -0.018762643, 0.30147222, -63201.945, -63201.945, 0.0, 9.998102, 9.994259 
8.5512227e+2, 1.2513979e+2, -1645638.6, -1720244.4, 3080.8381, 0.36406007, 0.19745655, -1645511.6, 68138.76, 0.0, 10.006398, 9.996514 
8.551091e+2, 1.3513644e+2, -1559297.9, -1627882.0, 4440.2803, 0.3540523, 0.21101828, -1559011.6, 56673.04, 0.0, 10.005604, 9.996519 
8.550983e+2, 1.451331e+2, -1472105.0, -1538797.3, 24458.514, 0.32946047, 0.2395303, -1464096.8, 53622.99, 0.0, 10.005029, 9.996201 
8.5508996e+2, 1.5512972e+2, -1379366.8, -1443180.0, 25895.17, 0.29128653, 0.28196317, -1370180.9, 49575.043, 0.0, 10.004663, 9.996217 
8.5508305e+2, 1.6512641e+2, -1282440.5, -1340752.4, 39697.74, 0.23682742, 0.30749997, -1262342.3, 59447.727, 0.0, 10.004376, 9.996662 
8.550777e+2, 1.7512317e+2, -1187432.9, -1244039.6, 41012.336, 0.16676351, 0.31681645, -1165905.6, 57916.61, 0.0, 10.004166, 9.996677 
8.5507375e+2, 1.8511984e+2, -1090480.0, -1142958.3, 51646.44, 0.11034831, 0.2982066, -1058789.4, 67064.09, 0.0, 10.0039425, 9.996999 
8.550711e+2, 1.9511639e+2, -995983.0, -1046600.4, 52945.535, 0.06710557, 0.25267836, -962608.1, 65276.035, 0.0, 10.003701, 9.9970045 
8.550687e+2, 2.0511258e+2, -907716.75, -963690.44, 53566.113, 0.0364871, 0.21803322, -875266.9, 54651.566, 0.0, 10.003487, 9.9960785 
8.5506636e+2, 2.1510841e+2, -812504.2, -866985.4, 53322.344, 0.017928781, 0.19359003, -779867.25, 52089.37, 0.0, 10.003294, 9.996083 
8.550634e+2, 2.2510381e+2, -722460.7, -784074.9, 47920.754, 0.0030586214, 0.17401241, -696298.7, 37701.754, 0.0, 10.003235, 9.995077 
8.5505956e+2, 2.3509872e+2, -623420.56, -685464.44, 48721.586, -0.008315461, 0.15880707, -596683.06, 39367.043, 0.0, 10.003301, 9.995087 
8.550546e+2, 2.4509381e+2, -527703.4, -591640.4, 38948.92, -0.016929815, 0.17115782, -509283.34, 28815.701, 0.0, 10.003276, 9.994808 
8.550484e+2, 2.55089e+2, -431483.0, -494649.94, 37775.676, -0.022790356, 0.2097132, -413827.1, 26320.502, 0.0, 10.0031595, 9.994795 
8.5504085e+2, 2.6508257e+2, -356665.5, -438316.78, 24535.97, -0.015681278, 0.22670473, -349859.78, -7648.398, 0.0, 10.002881, 9.992071 
8.550318e+2, 2.750746e+2, -264980.56, -343283.9, 22475.184, 0.003834174, 0.2222499, -258988.17, -14698.207, 0.0, 10.002442, 9.992078 
8.5502106e+2, 2.8506574e+2, -193619.16, -278086.94, 10092.839, 0.0027786728, 0.21599105, -192429.94, -46052.39, 0.0, 10.00147, 9.9902935 
8.5500866e+2, 2.9505596e+2, -117152.734, -190304.9, 9471.102, -0.018271862, 0.20728086, -115946.4, -67472.57, 0.0, 9.999981, 9.990305 
8.549961e+2, 3.0504867e+2, -54461.26, -86998.76, 8349.516, -0.036148045, 0.23466815, -52443.77, -52443.77, 0.0, 9.998868, 9.994558 
8.549833e+2, 3.150439e+2, -65463.83, -92054.6, 9441.552, -0.05087239, 0.29779616, -62452.46, -62452.46, 0.0, 9.998103, 9.99458 
8.6512804e+2, 1.2515502e+2, -1662862.3, -1724425.0, 8194.863, 0.3720301, 0.2321591, -1661790.0, 51714.25, 0.0, 10.005041, 9.996889 
8.651142e+2, 1.3515204e+2, -1573232.0, -1630447.8, 10009.626, 0.36213228, 0.24478567, -1571531.4, 44003.54, 0.0, 10.00447, 9.996895 
8.6510295e+2, 1.4514904e+2, -1483428.0, -1540310.6, 31720.322, 0.336275, 0.2707004, -1469265.5, 48300.934, 0.0, 10.004082, 9.996557 
8.6509424e+2, 1.5514597e+2, -1388443.0, -1443578.8, 33186.156, 0.29578364, 0.308941, -1372868.0, 46731.156, 0.0, 10.003868, 9.996575 
8.650871e+2, 1.6514295e+2, -1291018.6, -1341597.1, 47152.18, 0.2390862, 0.32968792, -1262802.0, 58828.047, 0.0, 10.003646, 9.99696 
8.650815e+2, 1.7513995e+2, -1196294.8, -1244999.0, 48285.35, 0.16692306, 0.33376208, -1166568.1, 57091.52, 0.0, 10.003414, 9.996977 
8.6507726e+2, 1.8513688e+2, -1099559.3, -1144871.8, 58423.965, 0.110262245, 0.3157771, -1059552.4, 66135.91, 0.0, 10.003213, 9.997223 
8.6507446e+2, 1.9513372e+2, -1004148.6, -1048079.56, 58905.676, 0.06848906, 0.27668923, -963246.25, 64470.016, 0.0, 10.003035, 9.997227 
8.6507195e+2, 2.0513009e+2, -912741.25, -965129.9, 60692.92, 0.036160257, 0.24357846, -872831.3, 56917.69, 0.0, 10.003099, 9.996168 
8.650696e+2, 2.1512598e+2, -810397.5, -864912.75, 61673.727, 0.012782276, 0.21593593, -770226.44, 61560.195, 0.0, 10.00339, 9.996178 
8.6506677e+2, 2.2512156e+2, -712105.4, -774744.25, 58278.977, 0.00010810642, 0.19127285, -677263.3, 56565.05, 0.0, 10.003756, 9.995463 
8.650634e+2, 2.3511681e+2, -607789.1, -673652.1, 60421.92, -0.0023788898, 0.16924627, -571907.2, 63967.293, 0.0, 10.004186, 9.995466 
8.650586e+2, 2.4511187e+2, -513732.66, -589995.6, 49795.145, -0.009635039, 0.18371706, -489145.97, 48777.547, 0.0, 10.004451, 9.994352 
8.650523e+2, 2.5510672e+2, -414312.6, -491473.13, 47542.16, -0.021396458, 0.2327341, -391666.28, 48309.46, 0.0, 10.004554, 9.994338 
8.650443e+2, 2.6509988e+2, -340285.9, -433667.88, 32167.54, -0.015804311, 0.24575457, -330277.7, 11765.71, 0.0, 10.00414, 9.991781 
8.6503464e+2, 2.7509147e+2, -255527.72, -341960.34, 31891.752, 0.0065048314, 0.22373371, -245034.33, -908.3402, 0.0, 10.003225, 9.991789 
8.6502296e+2, 2.850823e+2, -181389.6, -273968.72, 18732.332, 0.0011547009, 0.21474934, -177742.95, -31527.107, 0.0, 10.002378, 9.990134 
8.6500937e+2, 2.950725e+2, -94427.46, -181147.47, 18177.922, -0.031167183, 0.2176006, -90771.23, -42458.48, 0.0, 10.001611, 9.990145 
8.649957e+2, 3.0506513e+2, -26927.494, -73559.62, 16825.275, -0.05396725, 0.24591379, -21490.668, -21490.668, 0.0, 10.000744, 9.9945755 
8.649821e+2, 3.1506026e+2, -40994.89, -80163.266, 15540.232, -0.06733915, 0.30057764, -35578.293, -35578.293, 0.0, 9.99977, 9.994592 
8.751331e+2, 1.2517127e+2, -1659934.8, -1718131.3, 6049.8203, 0.37516895, 0.26697567, -1659312.5, 54035.855, 0.0, 10.005029, 9.997322 
8.7511873e+2, 1.3516872e+2, -1570265.6, -1624143.6, 7881.5723, 0.36717942, 0.279111, -1569136.4, 46238.254, 0.0, 10.00446, 9.997327 
8.751071e+2, 1.4516607e+2, -1480946.1, -1535056.5, 30919.191, 0.34241366, 0.30191487, -1466916.3, 50486.035, 0.0, 10.004075, 9.996918 
8.750982e+2, 1.5516332e+2, -1385929.0, -1438303.4, 32381.744, 0.30253217, 0.33454907, -1370470.8, 48960.86, 0.0, 10.003863, 9.996937 
8.7509084e+2, 1.6516057e+2, -1289115.6, -1337621.0, 46277.063, 0.24546728, 0.35030267, -1261121.3, 60338.32, 0.0, 10.003642, 9.997232 
8.7508494e+2, 1.7515779e+2, -1194357.6, -1241007.4, 47420.105, 0.17206274, 0.35009494, -1164836.4, 58650.273, 0.0, 10.003413, 9.99725 
8.750805e+2, 1.8515494e+2, -1098708.6, -1143185.1, 57736.72, 0.11179628, 0.33350486, -1059075.5, 66437.67, 0.0, 10.003215, 9.997336 
8.750774e+2, 1.9515194e+2, -1003239.44, -1046349.44, 58248.13, 0.06411223, 0.30136093, -962685.94, 64853.594, 0.0, 10.00304, 9.997342 
8.750749e+2, 2.0514849e+2, -910852.7, -961414.06, 61772.88, 0.023715986, 0.26585048, -869387.6, 60183.117, 0.0, 10.003107, 9.996418 
8.7507284e+2, 2.1514452e+2, -808494.44, -861121.7, 62770.92, -0.009811409, 0.22694926, -766744.9, 64861.934, 0.0, 10.003397, 9.996434 
8.750704e+2, 2.2514048e+2, -708063.4, -766469.9, 59878.504, -0.016253436, 0.2012841, -670646.3, 62998.184, 0.0, 10.003759, 9.996028 
8.7506765e+2, 2.3513639e+2, -603892.44, -665588.5, 62005.08, 0.003004635, 0.18806164, -565485.7, 70198.45, 0.0, 10.004186, 9.996018 
8.750632e+2, 2.4513146e+2, -517937.7, -598708.56, 50153.125, 0.0038313079, 0.20740347, -493931.2, 43801.867, 0.0, 10.004451, 9.993757 
8.750569e+2, 2.5512573e+2, -418417.06, -500087.78, 47889.973, -0.012979286, 0.2572149, -396316.16, 43475.15, 0.0, 10.004559, 9.993747 
8.750485e+2, 2.651185e+2, -340603.4, -434422.34, 28706.168, -0.010754015, 0.2630854, -332517.03, 9345.559, 0.0, 10.004144, 9.991727 
8.750379e+2, 2.751099e+2, -255907.42, -342767.1, 28415.059, 0.010020669, 0.22682503, -247437.69, -3491.224, 0.0, 10.003225, 9.991733 
8.750253e+2, 2.8510064e+2, -182452.1, -276170.3, 15807.82, -0.003296876, 0.21922949, -179857.55, -33820.438, 0.0, 10.0023775, 9.989983 
8.750107e+2, 2.9509085e+2, -95525.24, -183416.95, 15308.082, -0.049829464, 0.23822154, -92935.36, -44801.023, 0.0, 10.00161, 9.989989 
8.7499636e+2, 3.0508325e+2, -29065.412, -77968.85, 13114.123, -0.07122861, 0.2677385, -25770.658, -25770.658, 0.0, 10.000742, 9.994272 
8.749819e+2, 3.1507796e+2, -43191.992, -84653.54, 11818.255, -0.06823844, 0.3103888, -40059.902, -40059.902, 0.0, 9.999766, 9.994285 
8.8513714e+2, 1.2518802e+2, -1686594.5, -1725785.4, 8550.72, 0.37696838, 0.29979602, -1684810.1, 28377.088, 0.0, 10.002983, 9.997798 
8.8512236e+2, 1.3518594e+2, -1591484.9, -1629163.0, 10722.266, 0.3711026, 0.31178364, -1588647.3, 26561.396, 0.0, 10.002785, 9.997801 
8.8511056e+2, 1.4518367e+2, -1498343.6, -1539721.6, 35001.016, 0.34651566, 0.33107287, -1478374.3, 38858.246, 0.0, 10.002725, 9.997258 
8.8510156e+2, 1.5518118e+2, -1399199.0, -1440963.3, 36312.168, 0.30532253, 0.35701805, -1378192.8, 41065.855, 0.0, 10.002793, 9.997276 
8.8509405e+2, 1.6517867e+2, -1299375.9, -1340345.5, 49770.566, 0.24709098, 0.36776468, -1266039.4, 55244.715, 0.0, 10.002844, 9.997436 
8.850881e+2, 1.7517605e+2, -1200790.8, -1241873.6, 50422.625, 0.17271617, 0.36424857, -1166886.0, 56423.207, 0.0, 10.002875, 9.997452 
8.850836e+2, 1.8517336e+2, -1101314.9, -1143291.6, 60813.27, 0.10949548, 0.3475942, -1057970.0, 67364.17, 0.0, 10.002986, 9.997441 
8.850805e+2, 1.951705e+2, -1000654.94, -1043896.6, 61284.83, 0.05694194, 0.31856468, -957288.94, 70070.39, 0.0, 10.003163, 9.99745 
8.850781e+2, 2.0516728e+2, -906055.2, -954561.4, 65830.19, 0.018600525, 0.28222248, -860152.56, 69235.586, 0.0, 10.003238, 9.996823 
8.8507617e+2, 2.1516366e+2, -808353.9, -856484.5, 67998.79, -0.0063918903, 0.23885755, -760287.5, 71133.195, 0.0, 10.003208, 9.996843 
8.850739e+2, 2.2516018e+2, -712533.8, -761984.25, 66002.99, -0.010070646, 0.21624541, -666776.94, 66676.31, 0.0, 10.003164, 9.996622 
8.8507134e+2, 2.3515679e+2, -615437.06, -664598.94, 68424.65, 0.0062604165, 0.21310686, -567312.06, 68174.05, 0.0, 10.00311, 9.996607 
8.850672e+2, 2.451523e+2, -528067.3, -600463.5, 61515.766, 0.004874714, 0.23394747, -492889.72, 44640.93, 0.0, 10.003619, 9.9940405 
8.850615e+2, 2.5514677e+2, -414902.97, -495237.22, 65750.3, -0.013096718, 0.27691668, -378021.4, 61565.2, 0.0, 10.00466, 9.99403 
8.850528e+2, 2.651398e+2, -333484.88, -427188.88, 44847.574, -0.014169754, 0.276468, -315480.0, 26175.238, 0.0, 10.004458, 9.992065 
8.8504094e+2, 2.7513146e+2, -255697.4, -338963.4, 47545.527, 0.0006974781, 0.23483963, -234133.22, 9602.864, 0.0, 10.00307, 9.9920635 
8.850279e+2, 2.851221e+2, -179892.34, -282926.44, 39097.832, -0.0061575132, 0.23093979, -166736.02, -20907.826, 0.0, 10.002887, 9.989272 
8.850137e+2, 2.951117e+2, -66976.46, -177628.47, 34352.934, -0.0337209, 0.26219207, -57178.81, -9247.46, 0.0, 10.003905, 9.989278 
8.8499874e+2, 3.051034e+2, 5428.418, -68074.39, 22799.984, -0.035515137, 0.2854897, 11926.35, 11926.35, 0.0, 10.003393, 9.9936695 
8.84983e+2, 3.150973e+2, -23530.018, -81921.84, 19333.344, -0.013719053, 0.30709168, -17709.084, -17709.084, 0.0, 10.001404, 9.993676 
8.951401e+2, 1.2520528e+2, -1683103.9, -1718255.8, 7767.9463, 0.37737426, 0.3307629, -1681463.9, 31557.082, 0.0, 10.002967, 9.998317 
8.951252e+2, 1.3520372e+2, -1587933.0, -1621652.6, 9962.308, 0.3738623, 0.34292138, -1585209.6, 29827.625, 0.0, 10.002775, 9.998316 
8.951133e+2, 1.4520183e+2, -1496124.3, -1535045.1, 35230.418, 0.348586, 0.3582893, -1475336.8, 41720.168, 0.0, 10.00272, 9.997579 
8.951043e+2, 1.5519959e+2, -1396960.4, -1436310.1, 36539.836, 0.30424243, 0.37648845, -1375135.1, 43944.992, 0.0, 10.002791, 9.997594 
8.9509684e+2, 1.6519724e+2, -1298406.6, -1338350.5, 49857.016, 0.24409682, 0.38221216, -1264670.1, 56433.42, 0.0, 10.002843, 9.997571 
8.9509094e+2, 1.7519476e+2, -1199798.0, -1239877.9, 50531.418, 0.16902512, 0.37631994, -1165477.8, 57649.496, 0.0, 10.002877, 9.997587 
8.9508647e+2, 1.8519214e+2, -1100568.8, -1141845.9, 61445.035, 0.10348688, 0.35815957, -1056388.8, 68762.38, 0.0, 10.00299, 9.997538 
8.9508355e+2, 1.9518937e+2, -999847.25, -1042350.0, 61921.414, 0.047070347, 0.32853293, -955632.0, 71543.55, 0.0, 10.003168, 9.997554 
8.950813e+2, 2.0518649e+2, -902026.06, -946352.0, 65676.66, 0.020699225, 0.29293978, -854873.7, 74327.48, 0.0, 10.0032425, 9.997381 
8.950797e+2, 2.1518347e+2, -804349.0, -848285.7, 67831.48, 0.022372436, 0.25171417, -755017.1, 76211.09, 0.0, 10.003211, 9.997401 
8.9507735e+2, 2.2518066e+2, -707979.1, -752702.1, 65739.5, 0.017843034, 0.23606698, -660902.0, 72352.46, 0.0, 10.00317, 9.997254 
8.950745e+2, 2.3517798e+2, -610781.8, -655251.75, 68223.76, 0.0072141923, 0.24423857, -561261.1, 74019.17, 0.0, 10.003121, 9.997241 
8.9507073e+2, 2.4517438e+2, -519831.4, -583584.25, 65400.652, -0.0062355692, 0.26326913, -478952.4, 58363.7, 0.0, 10.003628, 9.995192 
8.950661e+2, 2.5516987e+2, -406946.72, -478525.72, 69565.76, -0.021434527, 0.29206485, -364504.0, 74857.63, 0.0, 10.004652, 9.995179 
8.9505714e+2, 2.6516378e+2, -328467.3, -416537.0, 39577.89, -0.025802722, 0.28622186, -313295.1, 28126.25, 0.0, 10.004445, 9.992799 
8.9504385e+2, 2.7515623e+2, -250508.56, -328318.53, 42343.21, -0.02139541, 0.24785268, -231910.98, 11583.851, 0.0, 10.003072, 9.992789 
8.9503074e+2, 2.851466e+2, -188915.45, -301597.75, 42966.516, -0.007402868, 0.24987976, -174401.48, -28812.465, 0.0, 10.002885, 9.987998 
8.9501804e+2, 2.9513502e+2, -76314.49, -196343.84, 38216.68, 0.017175892, 0.2896628, -65179.496, -17475.73, 0.0, 10.003876, 9.988012 
8.950031e+2, 3.0512547e+2, -1232.1208, -81291.1, 15292.24, 0.053751677, 0.29885927, 1589.4413, 1589.4413, 0.0, 10.003362, 9.992776 
8.9498556e+2, 3.1511822e+2, -29980.623, -95030.93, 11856.0, 0.09698029, 0.29124784, -27887.135, -27887.135, 0.0, 10.001387, 9.992784 
9.051417e+2, 1.2522216e+2, -1716600.8, -1728473.6, 5981.0093, 0.37216845, 0.35714114, -1714110.3, -1252.2704, 0.0, 10.000425, 9.998862 
9.0512705e+2, 1.3522114e+2, -1611251.6, -1626970.3, 8368.723, 0.3742986, 0.36936402, -1607630.3, 7238.4043, 0.0, 10.000928, 9.998856 
9.0511537e+2, 1.4521962e+2, -1513585.9, -1540288.9, 33950.94, 0.35164633, 0.38070542, -1490455.5, 26428.96, 0.0, 10.00139, 9.9978695 
9.051066e+2, 1.5521759e+2, -1409276.5, -1439091.3, 35030.59, 0.30749562, 0.39107576, -1386113.3, 32791.848, 0.0, 10.001814, 9.997881 
9.050994e+2, 1.6521537e+2, -1307881.3, -1341791.9, 47722.83, 0.24613065, 0.3915788, -1274191.3, 46735.47, 0.0, 10.002148, 9.997676 
9.0509355e+2, 1.7521296e+2, -1206105.8, -1241779.5, 48183.402, 0.16857205, 0.3829659, -1172563.6, 50385.727, 0.0, 10.002397, 9.997691 
9.050893e+2, 1.8521048e+2, -1105176.5, -1142337.4, 59273.22, 0.10207929, 0.3635428, -1061639.8, 63332.387, 0.0, 10.0026, 9.997694 
9.050866e+2, 1.9520788e+2, -1004842.1, -1042985.7, 60176.477, 0.04616464, 0.33409515, -960787.5, 66207.555, 0.0, 10.00275, 9.997713 
9.050843e+2, 2.0520535e+2, -907235.3, -943663.25, 62524.164, 0.0233223, 0.3029967, -860326.1, 68691.25, 0.0, 10.00266, 9.997848 
9.050825e+2, 2.1520288e+2, -813729.0, -847629.94, 64037.855, 0.030924296, 0.27036545, -764436.25, 66603.28, 0.0, 10.002344, 9.997867 
9.050802e+2, 2.2520067e+2, -714226.8, -748741.0, 63033.72, 0.022559693, 0.26069352, -666130.6, 66929.46, 0.0, 10.0024395, 9.997879 
9.050774e+2, 2.3519865e+2, -609312.1, -647398.9, 65449.492, -0.0005080875, 0.27217188, -560191.8, 74887.7, 0.0, 10.0029125, 9.99788 
9.050736e+2, 2.4519622e+2, -526717.2, -565236.1, 63351.78, -0.00913024, 0.27855745, -479762.03, 57341.47, 0.0, 10.002217, 9.997129 
9.050689e+2, 2.5519338e+2, -454935.63, -480097.25, 73369.59, -0.0044278232, 0.2801652, -393076.03, 46055.883, 0.0, 10.000427, 9.997112 
9.050597e+2, 2.6518938e+2, -369000.9, -412603.1, 54448.402, -0.024489982, 0.28256264, -332151.22, 9019.769, 0.0, 10.0006485, 9.9949 
9.050463e+2, 2.7518433e+2, -239490.52, -299615.7, 67450.016, -0.06663251, 0.28530708, -195706.89, 47513.52, 0.0, 10.0028105, 9.99488 
9.050309e+2, 2.8517726e+2, -245715.98, -288311.25, 66990.56, -0.0010935664, 0.25274888, -196719.06, -51429.34, 0.0, 9.9972, 9.99163 
9.151421e+2, 1.2523869e+2, -1712711.9, -1720178.8, 7790.7666, 0.36145756, 0.37911165, -1707806.1, 4891.819, 0.0, 10.000413, 9.999433 
9.1512793e+2, 1.3523823e+2, -1607340.4, -1618761.5, 10187.837, 0.37245944, 0.39128745, -1601371.8, 13331.229, 0.0, 10.00092, 9.999417 
9.1511685e+2, 1.4523707e+2, -1511776.0, -1536469.4, 35476.746, 0.3556614, 0.39848477, -1486558.9, 30155.982, 0.0, 10.001387, 9.998132 
9.151085e+2, 1.5523523e+2, -1407478.5, -1435343.0, 36550.008, 0.31492856, 0.40092656, -1382295.4, 36437.754, 0.0, 10.001812, 9.998137 
9.1510165e+2, 1.6523314e+2, -1307351.5, -1340707.4, 48600.613, 0.25298595, 0.39600605, -1272646.9, 48106.477, 0.0, 10.002148, 9.99775 
9.150959e+2, 1.7523077e+2, -1205522.1, -1240659.1, 49078.777, 0.171205, 0.38434115, -1170962.1, 51813.254, 0.0, 10.0024, 9.9977665 
9.1509193e+2, 1.852284e+2, -1103582.3, -1139166.9, 59781.844, 0.105127536, 0.36390355, -1059001.3, 65795.55, 0.0, 10.002605, 9.997908 
9.1508937e+2, 1.9522603e+2, -1003247.75, -1039812.0, 60657.027, 0.05397556, 0.33539316, -958177.56, 68640.12, 0.0, 10.002755, 9.997928 
9.15087e+2, 2.0522389e+2, -904456.56, -938083.06, 61276.945, 0.026331414, 0.31245017, -857728.1, 71108.625, 0.0, 10.002666, 9.998225 
9.150847e+2, 2.1522194e+2, -810901.1, -842057.6, 62866.29, 0.01967592, 0.29467264, -761711.7, 69142.586, 0.0, 10.002356, 9.998241 
9.1508245e+2, 2.2522026e+2, -709700.25, -739597.5, 64780.656, 0.0048259734, 0.289939, -658165.9, 74703.87, 0.0, 10.00245, 9.9985 
9.1508013e+2, 2.3521884e+2, -604763.2, -637924.44, 67060.17, -0.016351614, 0.29694122, -552264.25, 82619.21, 0.0, 10.002911, 9.9985285 
9.1507584e+2, 2.4521786e+2, -507692.97, -525724.56, 56567.89, -0.0038628355, 0.28014016, -459426.9, 77465.64, 0.0, 10.002208, 9.999836 
9.1506964e+2, 2.552173e+2, -435861.97, -440718.9, 66717.445, 0.03670641, 0.24196075, -371528.8, 67368.52, 0.0, 10.000428, 9.999805 
9.1506046e+2, 2.6521665e+2, -344459.06, -361932.38, 62553.94, -0.01145352, 0.2662816, -290034.63, 50869.52, 0.0, 10.000663, 9.998365 
9.150484e+2, 2.7521583e+2, -215401.44, -249434.64, 75226.08, -0.13460736, 0.34727454, -155291.34, 87621.55, 0.0, 10.002808, 9.998324 
9.150282e+2, 2.8521392e+2, -186067.03, -163908.77, 16822.25, 0.01415481, 0.23826039, -154845.03, -9914.448, 0.0, 9.997132, 10.000157 
9.251411e+2, 1.2525377e+2, -1746104.3, -1730398.0, 997.3093, 0.35214564, 0.39389992, -1730334.9, -17783.2, 0.0, 9.997885, 9.999975 
9.25128e+2, 1.3525385e+2, -1629641.8, -1623660.3, 3145.2607, 0.3725624, 0.40431112, -1622310.9, -7759.4326, 0.0, 9.999148, 9.999951 
9.251176e+2, 1.4525303e+2, -1528034.3, -1541347.9, 27251.611, 0.3593729, 0.40815127, -1506638.1, 9921.165, 0.0, 10.000152, 9.998404 
9.251099e+2, 1.5525141e+2, -1418895.9, -1437925.0, 28367.05, 0.3172272, 0.4057589, -1398490.3, 20084.854, 0.0, 10.000909, 9.998403 
9.251034e+2, 1.6524948e+2, -1315318.0, -1342976.1, 39922.176, 0.2553837, 0.39711097, -1286897.5, 33695.88, 0.0, 10.001538, 9.997892 
9.2509824e+2, 1.7524724e+2, -1209750.1, -1241112.5, 40899.34, 0.17518474, 0.38276637, -1181628.9, 40985.32, 0.0, 10.002046, 9.997909 
9.250944e+2, 1.8524505e+2, -1105789.4, -1137479.3, 50974.504, 0.109903455, 0.36186567, -1068254.0, 56379.746, 0.0, 10.0023365, 9.998153 
9.25092e+2, 1.9524296e+2, -1006393.5, -1038593.9, 52064.37, 0.05871786, 0.33499733, -967996.75, 58655.586, 0.0, 10.002423, 9.998172 
9.2508954e+2, 2.0524116e+2, -904958.0, -934338.2, 51668.62, 0.027621701, 0.31789365, -865931.75, 62736.473, 0.0, 10.0024605, 9.99858 
9.250871e+2, 2.1523966e+2, -807043.94, -836173.1, 53089.65, 0.014228619, 0.30970943, -766557.3, 64124.434, 0.0, 10.002446, 9.998599 
9.250846e+2, 2.2523858e+2, -711993.5, -731863.2, 55086.97, -0.0028331073, 0.3058927, -665952.7, 66739.01, 0.0, 10.001911, 9.999289 
9.2508197e+2, 2.3523787e+2, -628626.94, -640515.8, 58498.06, -0.02202981, 0.30593643, -575772.06, 58926.31, 0.0, 10.000892, 9.999328 
9.250771e+2, 2.4523805e+2, -526839.1, -517843.06, 41037.016, -0.0005071602, 0.28857175, -481058.3, 55637.66, 0.0, 10.000157, 10.001367 
9.250699e+2, 2.552391e+2, -435798.84, -423657.4, 42517.97, 0.055121187, 0.25562394, -386778.97, 51906.055, 0.0, 9.999699, 10.0013275 
9.2506015e+2, 2.6524028e+2, -357445.1, -342584.7, 34686.867, -0.008826019, 0.27906704, -314541.13, 26132.27, 0.0, 9.998678, 10.000653 
9.25048e+2, 2.752417e+2, -282616.97, -256095.95, 38304.895, -0.17491604, 0.35360238, -228821.22, 13839.593, 0.0, 9.997104, 10.000622 
9.250278e+2, 2.8524274e+2, -96141.64, -84163.836, -49656.453, 0.026110284, 0.25658536, -40136.438, 104513.32, 0.0, 10.001792, 10.003409 
9.3513894e+2, 1.2526743e+2, -1742489.3, -1722906.9, 5655.275, 0.34394583, 0.40171105, -1721391.0, -8972.255, 0.0, 9.997883, 10.000485 
9.3512714e+2, 1.3526799e+2, -1626046.9, -1616271.0, 7779.231, 0.3744205, 0.40869254, -1611971.5, 2441.9268, 0.0, 9.999149, 10.000454 
9.351178e+2, 1.4526755e+2, -1526055.5, -1537268.5, 30003.55, 0.36272618, 0.40993997, -1501139.1, 15278.526, 0.0, 10.000152, 9.998681 
9.351108e+2, 1.552662e+2, -1416979.8, -1433935.0, 31111.646, 0.31452316, 0.4057, -1393211.4, 25219.223, 0.0, 10.000907, 9.998675 
9.3510497e+2, 1.6526447e+2, -1313878.6, -1339934.8, 41743.11, 0.25351372, 0.3949539, -1283177.8, 37268.836, 0.0, 10.001535, 9.998101 
9.351003e+2, 1.752624e+2, -1208333.4, -1238099.5, 42710.188, 0.18054742, 0.37828892, -1177987.4, 44478.117, 0.0, 10.002042, 9.998116 
9.3509686e+2, 1.8526047e+2, -1103873.9, -1133458.9, 51231.297, 0.11634358, 0.35746905, -1065342.3, 59140.516, 0.0, 10.002334, 9.998428 
9.350944e+2, 1.9525865e+2, -1004450.56, -1034596.1, 52332.65, 0.06039305, 0.33295378, -965063.3, 61435.41, 0.0, 10.002424, 9.998444 
9.3509203e+2, 2.052572e+2, -902588.6, -929469.5, 51569.98, 0.02726991, 0.31941333, -862736.4, 65775.164, 0.0, 10.002461, 9.998912 
9.350895e+2, 2.152561e+2, -804649.75, -831192.5, 52943.723, 0.0146179935, 0.3156715, -763339.4, 67182.305, 0.0, 10.002444, 9.9989395 
9.350865e+2, 2.2525561e+2, -705321.94, -718033.9, 51226.9, -0.000704608, 0.30892926, -660058.2, 72467.516, 0.0, 10.001908, 10.000235 
9.350829e+2, 2.3525576e+2, -622000.56, -626872.9, 54656.086, -0.018343927, 0.29978728, -569726.4, 64797.78, 0.0, 10.000893, 10.000259 
9.3507725e+2, 2.4525683e+2, -524118.44, -512322.56, 39307.027, 0.0006113396, 0.30395094, -478473.44, 58040.22, 0.0, 10.000162, 10.00174 
9.3506956e+2, 2.552587e+2, -433109.1, -418132.3, 40783.473, 0.051886287, 0.31962693, -384155.44, 54339.406, 0.0, 9.9997015, 10.001704 
9.350588e+2, 2.652604e+2, -349732.97, -326545.38, 28772.65, -0.015658392, 0.3191346, -307118.5, 33360.043, 0.0, 9.998672, 10.001754 
9.3504494e+2, 2.7526203e+2, -274536.1, -239287.75, 32738.541, -0.18906337, 0.30482873, -219730.97, 22732.777, 0.0, 9.997097, 10.001777 
9.350297e+2, 2.8526366e+2, -110301.52, -113677.375, -8950.278, 0.032015167, 0.3106363, -102881.4, 41565.246, 0.0, 10.001814, 10.001385 
9.45136e+2, 1.252787e+2, -1761991.4, -1728115.3, -6446.497, 0.33908224, 0.41275257, -1726930.0, -14620.856, 0.0, 9.996377, 10.000872 
9.4512594e+2, 1.3527958e+2, -1636644.0, -1617189.9, -5335.7817, 0.37862688, 0.41485304, -1615822.5, -1522.17, 0.0, 9.99825, 10.000835 
9.4511765e+2, 1.4527945e+2, -1534018.6, -1537951.1, 13189.083, 0.3695933, 0.41297305, -1522650.1, -6348.719, 0.0, 9.999476, 9.998965 
9.4511133e+2, 1.5527837e+2, -1426835.5, -1435529.1, 14333.951, 0.31829944, 0.4071328, -1416203.8, 2107.7583, 0.0, 10.000102, 9.9989605 
9.451061e+2, 1.65277e+2, -1323828.8, -1339716.5, 25139.139, 0.25586158, 0.39587435, -1305408.3, 14915.718, 0.0, 10.000643, 9.998549 
9.451019e+2, 1.7527539e+2, -1219028.3, -1238290.5, 27865.566, 0.18308179, 0.37977812, -1199176.4, 23162.01, 0.0, 10.001101, 9.99856 
9.450988e+2, 1.8527392e+2, -1113068.4, -1133339.9, 36786.215, 0.11938318, 0.36189905, -1085047.1, 39304.355, 0.0, 10.001512, 9.998836 
9.450966e+2, 1.9527255e+2, -1009683.2, -1032558.44, 38825.645, 0.064143494, 0.34244552, -980645.5, 45717.72, 0.0, 10.001872, 9.998851 
9.4509417e+2, 2.0527159e+2, -906857.56, -925597.3, 37948.18, 0.027910521, 0.3305745, -877139.6, 51231.91, 0.0, 10.001915, 9.999441 
9.4509155e+2, 2.1527098e+2, -812256.0, -828933.1, 40690.23, 0.008653022, 0.325446, -779058.7, 51318.01, 0.0, 10.00167, 9.999469 
9.45088e+2, 2.2527112e+2, -710311.0, -713252.2, 36042.36, -0.008279017, 0.3201687, -675709.25, 56665.83, 0.0, 10.001258, 10.000875 
9.450837e+2, 2.3527195e+2, -620494.7, -619034.25, 37194.37, -0.023337914, 0.31500408, -582562.94, 51804.063, 0.0, 10.00069, 10.000893 
9.4507736e+2, 2.4527355e+2, -521719.2, -507041.4, 21832.61, -0.008781108, 0.32414815, -491347.22, 45004.156, 0.0, 10.000154, 10.002107 
9.450691e+2, 2.5527588e+2, -431356.63, -413129.84, 23110.012, 0.03229323, 0.34590966, -397401.22, 40927.41, 0.0, 9.999648, 10.002072 
9.450578e+2, 2.6527783e+2, -338305.66, -319058.1, 6405.143, -0.016397981, 0.34481695, -317121.47, 23188.418, 0.0, 9.999377, 10.001928 
9.4504356e+2, 2.7527955e+2, -240069.1, -220272.08, 3599.6501, -0.14620642, 0.32326257, -219637.89, 22656.299, 0.0, 9.999365, 10.00199 
9.450304e+2, 2.852814e+2, -132336.88, -125632.35, -7491.3267, -0.0014182315, 0.3430247, -120777.445, 23497.447, 0.0, 10.000378, 10.001267 
9.551323e+2, 1.2528762e+2, -1760038.0, -1724259.5, 584.8497, 0.3372296, 0.4265989, -1724249.9, -12027.368, 0.0, 9.996385, 10.00113 
9.551242e+2, 1.3528872e+2, -1634777.4, -1613394.3, 1608.7036, 0.3850666, 0.4224399, -1613274.0, 937.54596, 0.0, 9.998253, 10.001093 
9.551172e+2, 1.4528883e+2, -1531985.1, -1533713.4, 15525.956, 0.3798746, 0.4169126, -1517299.3, -1089.2926, 0.0, 9.999474, 9.999254 
9.5511156e+2, 1.55288e+2, -1424787.0, -1431202.9, 16679.87, 0.32829556, 0.40969342, -1411009.4, 7208.0015, 0.0, 10.000097, 9.999257 
9.551068e+2, 1.6528714e+2, -1319051.6, -1329750.0, 26856.049, 0.26217827, 0.39950475, -1297017.3, 23207.615, 0.0, 10.000638, 9.999231 
9.5510304e+2, 1.7528623e+2, -1214311.6, -1228439.6, 29586.72, 0.18278101, 0.3868418, -1190957.3, 31275.19, 0.0, 10.001095, 9.999234 
9.5510036e+2, 1.8528543e+2, -1109382.4, -1125565.9, 38139.793, 0.11913482, 0.374671, -1078485.4, 45753.973, 0.0, 10.001504, 9.999369 
9.5509857e+2, 1.9528468e+2, -1006029.7, -1024776.56, 40135.07, 0.069960214, 0.36285162, -974188.0, 52057.54, 0.0, 10.001862, 9.999387 
9.550961e+2, 2.0528433e+2, -901943.5, -915214.25, 37039.195, 0.029457409, 0.35085863, -870950.0, 57297.883, 0.0, 10.0019045, 10.0001545 
9.550931e+2, 2.1528438e+2, -807358.2, -818671.56, 39763.508, -0.0036653206, 0.3388864, -772851.06, 57395.684, 0.0, 10.001663, 10.000173 
9.550891e+2, 2.2528508e+2, -708010.2, -708343.06, 33936.883, -0.025296876, 0.339331, -674239.3, 58000.277, 0.0, 10.001251, 10.001214 
9.550842e+2, 2.3528641e+2, -618230.6, -614118.75, 35104.355, -0.036450513, 0.35061085, -581010.2, 53216.777, 0.0, 10.00068, 10.001233 
9.550773e+2, 2.4528824e+2, -519451.66, -502110.47, 19982.375, -0.028287897, 0.34863403, -488998.63, 47210.51, 0.0, 10.000143, 10.002449 
9.5506835e+2, 2.5529057e+2, -429061.56, -408193.72, 21190.49, -0.003731925, 0.3356286, -395007.66, 43178.656, 0.0, 9.9996395, 10.002415 
9.550572e+2, 2.6529256e+2, -343664.16, -329987.97, 6402.149, -0.011270315, 0.35719553, -327458.72, 12708.764, 0.0, 9.999368, 10.001184 
9.55044e+2, 2.7529424e+2, -245225.23, -230835.73, 3534.7988, -0.046600025, 0.40767628, -230014.3, 12138.08, 0.0, 9.999358, 10.001269 
9.5503e+2, 2.852959e+2, -119779.96, -99492.016, 416.55347, -0.07394199, 0.3514792, -99483.46, 44651.344, 0.0, 10.000373, 10.003069 
9.6512896e+2, 1.2529428e+2, -1756719.0, -1721001.6, -9475.207, 0.35073042, 0.43646538, -1718643.6, -6484.9023, 0.0, 9.996543, 10.001277 
9.651225e+2, 1.3529545e+2, -1634832.4, -1611710.9, -9401.7, 0.39169624, 0.42504552, -1608370.5, 5776.254, 0.0, 9.9981785, 10.0012455 
9.6511656e+2, 1.4529583e+2, -1533892.5, -1529234.3, 37.244606, 0.38265654, 0.41511545, -1529233.9, -13091.52, 0.0, 9.999114, 9.999735 
9.651113e+2, 1.5529548e+2, -1431673.8, -1429104.5, 2608.8843, 0.32970196, 0.40608057, -1427481.1, -9335.91, 0.0, 9.999397, 9.999741 
9.65107e+2, 1.6529523e+2, -1326884.1, -1325323.5, 13576.986, 0.26327506, 0.39666483, -1312504.4, 7642.2563, 0.0, 9.999751, 9.999963 
9.651037e+2, 1.752951e+2, -1222848.6, -1224395.9, 16684.6, 0.18468393, 0.3871266, -1206919.6, 15227.265, 0.0, 10.000162, 9.999962 
9.651013e+2, 1.8529505e+2, -1119774.9, -1122424.4, 25524.004, 0.11972506, 0.37938938, -1095541.3, 28605.135, 0.0, 10.000443, 10.000097 
9.6509975e+2, 1.952951e+2, -1019267.06, -1023023.9, 28926.941, 0.06724755, 0.3731212, -992157.6, 33987.426, 0.0, 10.000607, 10.000114 
9.650974e+2, 2.052955e+2, -912857.44, -911800.6, 25700.469, 0.024114147, 0.36117107, -886623.1, 41516.926, 0.0, 10.000785, 10.00093 
9.650943e+2, 2.1529627e+2, -812030.8, -812298.75, 28808.514, -0.01107652, 0.34435183, -783355.94, 46775.777, 0.0, 10.000973, 10.000942 
9.6509e+2, 2.2529764e+2, -713350.9, -705338.75, 21398.545, -0.031974245, 0.34885705, -687574.5, 44543.527, 0.0, 10.000647, 10.001712 
9.650845e+2, 2.3529957e+2, -626763.75, -612746.44, 23727.59, -0.040003646, 0.37206197, -595014.0, 39085.34, 0.0, 9.999862, 10.001722 
9.65077e+2, 2.4530165e+2, -528360.2, -505820.2, 9713.886, -0.039921973, 0.36745024, -502211.6, 33867.63, 0.0, 9.999512, 10.0025 
9.650676e+2, 2.5530386e+2, -429693.47, -407711.1, 8693.853, -0.033552557, 0.33879533, -404688.38, 33369.11, 0.0, 9.999567, 10.002482 
9.650566e+2, 2.65306e+2, -341024.0, -327218.66, -3197.9539, -0.016750434, 0.36377427, -326513.84, 13523.326, 0.0, 9.999489, 10.001316 
9.650439e+2, 2.75308e+2, -245106.56, -229554.13, 402.8325, 0.010582271, 0.43479872, -229543.7, 12474.88, 0.0, 9.999318, 10.001375 
9.6502936e+2, 2.8530943e+2, -139221.53, -108702.85, -2775.549, -0.11376785, 0.35138524, -108452.484, 35550.883, 0.0, 9.999036, 10.003082 
9.751258e+2, 1.2529871e+2, -1756385.6, -1720480.3, -3215.2803, 0.37887624, 0.44222203, -1720194.6, -8077.118, 0.0, 9.996551, 10.001309 
9.751207e+2, 1.3529982e+2, -1634461.3, -1611009.8, -3242.8745, 0.39847377, 0.42257297, -1610569.6, 3536.2048, 0.0, 9.998182, 10.001291 
9.7511566e+2, 1.4530051e+2, -1529149.6, -1519469.1, 1174.2026, 0.37821174, 0.4075846, -1519328.8, -3230.3318, 0.0, 9.999113, 10.0004 
9.7511065e+2, 1.553008e+2, -1426974.4, -1419361.0, 3758.7751, 0.3228197, 0.3964511, -1417818.0, 276.91333, 0.0, 9.999393, 10.000405 
9.751068e+2, 1.6530128e+2, -1321385.0, -1313868.4, 15159.06, 0.25935468, 0.387565, -1302008.8, 18080.625, 0.0, 9.999745, 10.000746 
9.7510386e+2, 1.7530195e+2, -1217401.5, -1212969.6, 18216.396, 0.18873736, 0.38083714, -1196834.9, 25246.822, 0.0, 10.000154, 10.000746 
9.7510177e+2, 1.853028e+2, -1113438.0, -1109073.4, 26128.863, 0.12109317, 0.37632573, -1085035.9, 39036.65, 0.0, 10.000431, 10.001014 
9.751002e+2, 1.9530378e+2, -1013033.3, -1009784.0, 29544.879, 0.056279026, 0.37364978, -981819.1, 44242.53, 0.0, 10.00059, 10.001026 
9.750981e+2, 2.0530507e+2, -907238.4, -899729.25, 26417.035, 0.012200799, 0.36184984, -876801.25, 51246.793, 0.0, 10.000765, 10.001764 
9.750953e+2, 2.1530662e+2, -806483.9, -800285.9, 29440.42, -0.013625959, 0.3419525, -773781.8, 56249.953, 0.0, 10.000949, 10.001776 
9.750907e+2, 2.2530878e+2, -709106.4, -696060.75, 18483.623, -0.028646402, 0.34894285, -682982.75, 49027.664, 0.0, 10.000624, 10.002357 
9.7508436e+2, 2.3531143e+2, -622541.4, -603696.0, 20882.05, -0.03444129, 0.37991983, -590209.1, 43775.324, 0.0, 9.999846, 10.002349 
9.750765e+2, 2.4531375e+2, -530164.5, -509302.4, 10009.408, -0.044001758, 0.38077486, -505276.78, 30685.172, 0.0, 9.999501, 10.002267 
9.7506696e+2, 2.5531575e+2, -431239.06, -410633.3, 8941.981, -0.057223756, 0.3545686, -407294.03, 30648.383, 0.0, 9.999556, 10.002288 
9.7505593e+2, 2.6531816e+2, -334143.38, -312772.38, -3745.0117, -0.03263264, 0.3640381, -312135.13, 27784.066, 0.0, 9.999479, 10.002312 
9.7504336e+2, 2.753209e+2, -238672.56, -216184.88, -280.7544, 0.02594928, 0.405857, -216181.38, 25711.61, 0.0, 9.999315, 10.002295 
9.7502834e+2, 2.8532207e+2, -151451.95, -134153.63, -4096.14, -0.1206797, 0.34379983, -133232.7, 10647.998, 0.0, 9.999037, 10.001334 
9.851236e+2, 1.253027e+2, -1727307.3, -1708651.0, -5112.2817, 0.4002214, 0.48623848, -1707341.9, 4739.486, 0.0, 9.998628, 10.001099 
9.851195e+2, 1.3530366e+2, -1618959.6, -1605672.0, -7029.617, 0.40200225, 0.4717442, -1602643.4, 11428.145, 0.0, 9.999334, 10.001093 
9.8511493e+2, 1.4530444e+2, -1520610.4, -1512631.1, -9269.117, 0.37454206, 0.46453038, -1506529.5, 9533.933, 0.0, 9.999581, 10.000636 
9.8511e+2, 1.5530507e+2, -1425213.9, -1415836.4, -9837.767, 0.32110184, 0.4636486, -1409627.3, 8429.758, 0.0, 9.999402, 10.000641 
9.851063e+2, 1.6530593e+2, -1325014.4, -1311134.6, -943.2557, 0.26277047, 0.45837215, -1311070.9, 8977.194, 0.0, 9.999308, 10.001144 
9.851037e+2, 1.7530698e+2, -1227328.6, -1213158.9, -734.72205, 0.2003145, 0.44926256, -1213120.9, 8915.759, 0.0, 9.99928, 10.001156 
9.851017e+2, 1.8530847e+2, -1125079.1, -1102548.9, 5540.2827, 0.13555013, 0.43580133, -1101260.3, 22760.408, 0.0, 9.999113, 10.002098 
9.851001e+2, 1.953104e+2, -1031288.56, -1006437.3, 10229.167, 0.068805635, 0.41849822, -1002768.44, 23231.584, 0.0, 9.998818, 10.002112 
9.850978e+2, 2.0531283e+2, -929077.3, -895481.0, 10021.105, 0.01996422, 0.40269706, -892719.0, 35255.566, 0.0, 9.998634, 10.003087 
9.85095e+2, 2.1531577e+2, -832278.2, -798031.44, 16610.906, -0.013057522, 0.38823712, -791298.3, 38646.117, 0.0, 9.998551, 10.003091 
9.8509026e+2, 2.25319e+2, -731315.0, -694399.5, 7773.1626, -0.028024256, 0.3823326, -692829.5, 39082.516, 0.0, 9.998572, 10.003463 
9.850837e+2, 2.3532248e+2, -631674.94, -595702.56, 13627.737, -0.027524399, 0.38424507, -591122.9, 42754.457, 0.0, 9.998689, 10.003456 
9.8507553e+2, 2.4532573e+2, -536697.2, -503673.5, 9511.787, -0.04184897, 0.38389215, -501129.75, 34715.633, 0.0, 9.998677, 10.003049 
9.8506594e+2, 2.5532874e+2, -440257.13, -406377.38, 15963.608, -0.0694407, 0.38090035, -400040.75, 37775.223, 0.0, 9.998569, 10.003053 
9.850549e+2, 2.653315e+2, -342589.3, -314970.28, 4545.013, -0.044068977, 0.38150752, -314241.56, 25547.504, 0.0, 9.998822, 10.002475 
9.8504275e+2, 2.7533406e+2, -236350.06, -213474.63, 1898.9907, 0.028330635, 0.3864259, -213318.05, 28446.691, 0.0, 9.999408, 10.002434 
9.85028e+2, 2.853354e+2, -140604.2, -140124.45, -1114.8992, -0.11849038, 0.38509858, -139223.9, 4527.8076, 0.0, 10.000266, 10.000332 
9.951224e+2, 1.2530623e+2, -1730494.3, -1715245.9, -2519.328, 0.41705146, 0.5677659, -1714840.4, -2789.5127, 0.0, 9.998631, 10.00065 
9.951189e+2, 1.3530691e+2, -1622085.1, -1612136.6, -4501.9395, 0.4037971, 0.57112867, -1610401.9, 3642.326, 0.0, 9.999336, 10.000653 
9.951145e+2, 1.453076e+2, -1521884.0, -1515307.9, -10025.313, 0.37252808, 0.5837527, -1508045.1, 7992.627, 0.0, 9.999583, 10.000453 
9.9510944e+2, 1.5530826e+2, -1426482.8, -1418533.1, -10568.554, 0.32490844, 0.60459185, -1411216.6, 6815.105, 0.0, 9.999406, 10.000456 
9.951057e+2, 1.6530909e+2, -1324767.4, -1310706.4, -1130.5367, 0.2734601, 0.6053834, -1310616.1, 9407.081, 0.0, 9.9993105, 10.001172 
9.951031e+2, 1.7531009e+2, -1226940.6, -1212399.5, -947.4876, 0.21900567, 0.588309, -1212338.0, 9674.126, 0.0, 9.999282, 10.001206 
9.9510103e+2, 1.8531203e+2, -1116161.5, -1084209.3, 4337.669, 0.16214512, 0.5537933, -1083630.9, 40360.125, 0.0, 9.999114, 10.003348 
9.9509925e+2, 1.9531488e+2, -1022309.06, -987970.0, 9021.236, 0.10311084, 0.5041682, -985744.25, 40216.055, 0.0, 9.99882, 10.003372 
9.9509674e+2, 2.053188e+2, -916294.7, -869153.06, 9565.024, 0.045450628, 0.48050806, -867286.25, 60633.58, 0.0, 9.998635, 10.004886 
9.950936e+2, 2.1532367e+2, -819622.1, -771930.56, 16146.187, -0.010988236, 0.4800323, -766978.44, 62891.77, 0.0, 9.998551, 10.004875 
9.950888e+2, 2.2532828e+2, -720236.4, -671545.25, 8020.7773, -0.03146533, 0.446797, -670258.0, 61565.234, 0.0, 9.998573, 10.005027 
9.9508244e+2, 2.3533268e+2, -620444.7, -572539.3, 13801.771, -0.020476751, 0.3845346, -568847.44, 64930.895, 0.0, 9.998691, 10.005041 
9.9507433e+2, 2.4533756e+2, -524136.6, -477753.38, 8887.289, -0.034548447, 0.37712651, -476108.8, 59621.08, 0.0, 9.998679, 10.004824 
9.9506444e+2, 2.5534278e+2, -428202.88, -381510.2, 15398.305, -0.071219794, 0.4180191, -376889.44, 60789.277, 0.0, 9.998571, 10.004757 
9.950537e+2, 2.6534605e+2, -346957.8, -324176.38, 6554.1416, -0.051805556, 0.41629663, -322425.38, 17222.008, 0.0, 9.99883, 10.001841 
9.9504197e+2, 2.7534747e+2, -240482.98, -222257.95, 3985.2249, 0.01744724, 0.37651166, -221424.61, 20209.5, 0.0, 9.999417, 10.001827 
9.950284e+2, 2.853494e+2, -142393.78, -143975.42, 2944.0386, -0.107600585, 0.4746433, -140136.2, 3480.3562, 0.0, 10.000273, 10.000065 
