coord_x,coord_y,stress_xx,stress_yy,tau_xy,velocity_x,velocity_y,stress_1,eps,damage,lx,ly
4.99678e+0, 1.2393499e+2, -1793536.6, -1727080.5, -1973.4126, 0.0012450748, -0.009402719, -1727022.0, -1587.0737, 0.0, 9.993534, 10.002333 
4.9972826e+0, 1.3393568e+2, -1690805.4, -1643364.0, -2512.3767, -0.0003823467, -0.03200519, -1643231.3, -15803.367, 0.0, 9.994573, 10.000854 
4.9977884e+0, 1.4393567e+2, -1590232.1, -1563783.4, -2556.6458, -0.0011040018, -0.032887295, -1563538.5, -34110.598, 0.0, 9.995598, 9.999099 
4.9983153e+0, 1.5393472e+2, -1477548.4, -1459303.5, -2035.8782, 0.00037242332, -0.032334134, -1459079.0, -27641.8, 0.0, 9.996622, 9.999037 
4.9988428e+0, 1.6393279e+2, -1379379.3, -1385190.6, -1761.1636, 0.00074226613, -0.02623574, -1378887.1, -45430.785, 0.0, 9.99767, 9.9969 
4.999376e+0, 1.7392977e+2, -1265798.3, -1280424.3, -2138.426, -0.0006165181, -0.012075137, -1265492.0, -30005.908, 0.0, 9.998763, 9.996825 
4.9999014e+0, 1.8392539e+2, -1170704.4, -1212786.3, -1978.4169, -0.0007180092, -0.009067788, -1170611.5, -33082.477, 0.0, 9.999817, 9.994244 
5.0004184e+0, 1.9391935e+2, -1058965.6, -1109560.1, -610.6886, 0.0011879551, -0.025893638, -1058958.3, -19370.162, 0.0, 10.000813, 9.994113 
5.0009215e+0, 2.0391256e+2, -957975.94, -1028804.0, -762.65326, 0.0009388122, -0.034030236, -957967.75, -16313.198, 0.0, 10.001822, 9.992445 
5.001403e+0, 2.13905e+2, -844937.6, -923747.0, -3422.777, -0.002545566, -0.03116981, -844789.25, -1060.9662, 0.0, 10.002857, 9.992421 
5.001925e+0, 2.238961e+2, -752323.1, -861097.8, -4143.916, -0.0025409793, -0.026639076, -752165.5, -6349.8945, 0.0, 10.0039015, 9.989501 
5.0025064e+0, 2.3388548e+2, -640080.1, -758143.75, -2023.4354, 0.0027728728, -0.022869088, -640045.5, 7874.362, 0.0, 10.004956, 9.989325 
5.0030524e+0, 2.4387388e+2, -540253.2, -681174.8, -941.7532, 0.0039624637, -0.020795463, -540246.9, 9786.752, 0.0, 10.006024, 9.98737 
5.003544e+0, 2.538612e+2, -426759.0, -576268.6, -1639.8107, -0.0010810589, -0.0242777, -426741.03, 25417.06, 0.0, 10.007109, 9.987313 
5.0040346e+0, 2.638473e+2, -330505.7, -505532.88, -2105.004, -0.0028480184, -0.02966059, -330480.38, 23813.541, 0.0, 10.008125, 9.984956 
5.0045216e+0, 2.7383205e+2, -219868.56, -402449.25, -1569.0282, 0.0005051885, -0.042220607, -219855.08, 36588.12, 0.0, 10.009033, 9.984861 
5.0050545e+0, 2.8381577e+2, -123439.05, -332098.1, -1297.7941, 0.0013729904, -0.04077591, -123430.98, 35171.785, 0.0, 10.01008, 9.982463 
5.0056493e+0, 2.9379836e+2, -7666.934, -226323.11, -3004.1567, -0.001735235, -0.021508776, -7625.6675, 53147.867, 0.0, 10.011333, 9.982387 
5.006182e+0, 3.0378357e+2, 95369.28, -89703.4, -3905.753, -0.0018251634, -0.013993663, 95451.67, 95451.67, 0.0, 10.012401, 9.987876 
5.0066096e+0, 3.137713e+2, 106153.72, -84902.97, -1505.1984, 0.0028644311, -0.0286162, 106165.58, 106165.58, 0.0, 10.01316, 9.98784 
1.4990339e+1, 1.23933695e+2, -1794221.3, -1728481.4, 2226.264, 0.0034872731, -0.031682357, -1728406.1, -2958.7996, 0.0, 9.993534, 10.002237 
1.4991848e+1, 1.3393454e+2, -1691532.5, -1644860.8, 1402.0387, -0.0012337519, -0.028242683, -1644818.6, -17379.45, 0.0, 9.994573, 10.0007515 
1.4993364e+1, 1.4393465e+2, -1589411.4, -1562090.0, 1289.9614, -0.0033484665, -0.015521331, -1562029.3, -32591.135, 0.0, 9.995598, 9.999214 
1.4994946e+1, 1.5393381e+2, -1476561.4, -1457268.3, 1841.3363, 0.0011148843, -0.018598875, -1457094.1, -25647.793, 0.0, 9.996622, 9.999175 
1.4996529e+1, 1.6393179e+2, -1379924.8, -1386313.0, 2327.0562, 0.0021790937, -0.024140274, -1379167.0, -45701.008, 0.0, 9.99767, 9.996823 
1.4998128e+1, 1.7392845e+2, -1266552.4, -1281974.9, 2005.4508, -0.0018842316, -0.032814015, -1266295.9, -30797.113, 0.0, 9.998763, 9.996719 
1.4999704e+1, 1.8392412e+2, -1168415.5, -1208051.1, 1809.2458, -0.0021559307, -0.033466205, -1168333.0, -30791.916, 0.0, 9.999816, 9.994567 
1.5001255e+1, 1.9391872e+2, -1056331.6, -1104106.4, 3158.449, 0.0035293004, -0.02405713, -1056123.6, -16529.45, 0.0, 10.000812, 9.994485 
1.5002763e+1, 2.03912e+2, -962204.56, -1037504.0, 3117.16, 0.002788648, -0.018339569, -962075.75, -20415.709, 0.0, 10.0018215, 9.991853 
1.500421e+1, 2.139037e+2, -849998.94, -934196.94, 495.35233, -0.007639997, -0.019628469, -849996.0, -6254.586, 0.0, 10.002857, 9.991708 
1.5005776e+1, 2.2389454e+2, -749253.0, -854732.56, -167.12982, -0.0076642297, -0.022009272, -749252.75, -3421.324, 0.0, 10.003901, 9.989936 
1.5007518e+1, 2.3388436e+2, -636047.0, -749776.75, 1971.0719, 0.008263778, -0.027627343, -636012.9, 11917.809, 0.0, 10.004955, 9.989897 
1.5009156e+1, 2.4387302e+2, -540991.44, -682663.5, 3134.2937, 0.011888718, -0.028465461, -540922.1, 9119.793, 0.0, 10.006022, 9.987269 
1.5010631e+1, 2.538602e+2, -428104.56, -579021.7, 2467.9543, -0.0032429837, -0.023580546, -428064.22, 24103.434, 0.0, 10.007107, 9.987127 
1.5012103e+1, 2.6384637e+2, -329636.47, -503700.7, 1400.9689, -0.0085995225, -0.018457143, -329625.2, 24677.918, 0.0, 10.008124, 9.985082 
1.5013567e+1, 2.7383146e+2, -218750.03, -400125.22, 1861.5231, 0.0014901366, -0.015221275, -218730.94, 37718.527, 0.0, 10.009033, 9.985021 
1.5015161e+1, 2.8381506e+2, -126231.51, -337873.28, 3289.6196, 0.0041027656, -0.016422626, -126180.39, 32429.707, 0.0, 10.010078, 9.982069 
1.5016948e+1, 2.9379687e+2, -11022.083, -233247.89, 1754.1841, -0.005187413, -0.026608227, -11008.236, 49779.938, 0.0, 10.011331, 9.9819145 
1.5018547e+1, 3.0378196e+2, 99178.88, -81715.02, -805.2542, -0.005498008, -0.03089625, 99182.47, 99182.47, 0.0, 10.012398, 9.988425 
1.5019828e+1, 3.137705e+2, 110923.54, -74922.45, 1355.4258, 0.008556314, -0.02842701, 110933.42, 110933.42, 0.0, 10.013158, 9.988525 
2.4983884e+1, 1.2393151e+2, -1793843.3, -1728226.0, -1675.7574, 0.0037622985, -0.035771344, -1728183.3, -2714.6277, 0.0, 9.993555, 10.002244 
2.4986422e+1, 1.339324e+2, -1691552.3, -1644797.6, -1994.3378, -0.00076266006, -0.02705293, -1644712.8, -17252.748, 0.0, 9.994568, 10.000758 
2.4988964e+1, 1.4393257e+2, -1589144.8, -1561771.3, -1847.5848, -0.0035160752, -0.011672653, -1561647.1, -32188.516, 0.0, 9.995607, 9.999229 
2.49916e+1, 1.5393172e+2, -1475206.8, -1456394.8, -2175.9333, 0.00021687675, -0.016981907, -1456146.3, -24679.521, 0.0, 9.996705, 9.999194 
2.4994212e+1, 1.6392967e+2, -1379512.1, -1386614.1, -2311.3025, 0.0012068975, -0.024970511, -1378826.1, -45339.418, 0.0, 9.99772, 9.9967785 
2.499682e+1, 1.7392623e+2, -1269027.1, -1283761.6, -2264.5242, -0.0017735111, -0.036552668, -1268686.9, -33166.63, 0.0, 9.99862, 9.996667 
2.4999423e+1, 1.8392192e+2, -1170649.6, -1208207.8, -2738.342, -0.0019353735, -0.037224013, -1170451.0, -32888.426, 0.0, 9.999623, 9.994649 
2.500204e+1, 1.9391666e+2, -1055960.5, -1102808.8, -3390.5593, 0.0020594734, -0.023800887, -1055716.4, -16102.049, 0.0, 10.000788, 9.994584 
2.5004628e+1, 2.0390998e+2, -961381.7, -1038095.5, -2943.997, 0.0022577231, -0.015729748, -961268.9, -19588.994, 0.0, 10.001921, 9.991764 
2.5007182e+1, 2.1390158e+2, -848679.44, -934789.56, -1088.4313, -0.0034197913, -0.01752863, -848665.7, -4903.3027, 0.0, 10.003, 9.991598 
2.5009772e+1, 2.2389233e+2, -747471.7, -853724.4, -865.2483, -0.0037511678, -0.02072599, -747464.7, -1611.6384, 0.0, 10.004016, 9.989948 
2.5012422e+1, 2.3388219e+2, -636146.8, -749520.75, -2809.3699, 0.0039771893, -0.027683577, -636077.2, 11874.905, 0.0, 10.004935, 9.989923 
2.5015056e+1, 2.4387085e+2, -542494.8, -682864.7, -3172.3445, 0.0058875117, -0.029398536, -542423.2, 7639.9224, 0.0, 10.005897, 9.987315 
2.501766e+1, 2.538581e+2, -430457.5, -579603.5, -2094.8757, -0.0013322146, -0.025021419, -430428.1, 21760.285, 0.0, 10.006922, 9.987175 
2.502023e+1, 2.638443e+2, -331222.7, -504952.06, -2614.9841, -0.0036949306, -0.01809695, -331183.34, 23140.26, 0.0, 10.008036, 9.985039 
2.502272e+1, 2.7382934e+2, -215502.94, -399168.0, -3732.3665, 0.0013901244, -0.009906059, -215427.13, 41042.96, 0.0, 10.009282, 9.984965 
2.5025338e+1, 2.8381297e+2, -122780.47, -335782.66, -2171.1926, 0.0029931627, -0.0112933, -122758.34, 35872.555, 0.0, 10.010298, 9.982105 
2.5028124e+1, 2.9379475e+2, -16289.81, -235220.16, 68.71136, -0.0011397826, -0.029781476, -16289.788, 44519.41, 0.0, 10.010943, 9.981965 
2.503077e+1, 3.0377984e+2, 93329.484, -84265.02, -1100.2926, -0.0019480176, -0.035300728, 93336.3, 93336.3, 0.0, 10.011983, 9.98845 
2.5033164e+1, 3.1376854e+2, 117941.89, -71299.45, -3725.613, 0.0028787004, -0.023191363, 118015.21, 118015.21, 0.0, 10.01363, 9.988546 
3.4977412e+1, 1.23928435e+2, -1793044.9, -1726606.4, 2405.1223, 0.00048217032, -0.021816563, -1726519.5, -1020.5574, 0.0, 9.993556, 10.002354 
3.4981006e+1, 1.3392931e+2, -1690722.0, -1643115.3, 1810.2903, 0.0007112317, -0.028105315, -1643046.5, -15556.058, 0.0, 9.994569, 10.000872 
3.498459e+1, 1.4392939e+2, -1589687.4, -1562892.3, 2246.9233, -0.0021849554, -0.021686738, -1562705.1, -33215.637, 0.0, 9.995607, 9.999154 
3.4988272e+1, 1.5392846e+2, -1475936.0, -1457892.3, 1987.7236, -0.003218382, -0.027482737, -1457675.9, -26177.1, 0.0, 9.996704, 9.999092 
3.4991893e+1, 1.6392641e+2, -1379585.0, -1386780.6, 1156.0817, -0.0030965717, -0.028801624, -1379403.8, -45884.973, 0.0, 9.997721, 9.996766 
3.4995452e+1, 1.7392313e+2, -1269008.0, -1283754.3, 1142.021, -0.00084736187, -0.023141084, -1268920.1, -33369.242, 0.0, 9.998621, 9.996667 
3.499906e+1, 1.8391879e+2, -1171723.5, -1210445.8, 1545.2012, -0.0007742636, -0.020488732, -1171661.9, -34068.395, 0.0, 9.999624, 9.994495 
3.5002774e+1, 1.9391316e+2, -1057189.6, -1105342.1, 1030.752, -0.00396353, -0.025002932, -1057167.5, -17518.973, 0.0, 10.000789, 9.9944105 
3.5006514e+1, 2.0390649e+2, -958421.3, -1031973.44, 1161.4696, -0.0016081015, -0.02639464, -958403.0, -16689.027, 0.0, 10.001919, 9.992181 
3.5010314e+1, 2.138986e+2, -845220.5, -927625.1, 2991.062, 0.009432642, -0.024708644, -845112.06, -1320.8538, 0.0, 10.002999, 9.992087 
3.501391e+1, 2.238895e+2, -750353.75, -859657.8, 2650.6287, 0.008442005, -0.022855485, -750289.5, -4409.057, 0.0, 10.004015, 9.989544 
3.5017213e+1, 2.3387893e+2, -639779.7, -757052.3, 671.46094, -0.01076945, -0.022953844, -639775.9, 8208.34, 0.0, 10.004936, 9.989408 
3.5020748e+1, 2.438674e+2, -541119.94, -680022.3, 641.6107, -0.015013849, -0.02385927, -541117.0, 8980.159, 0.0, 10.005897, 9.987509 
3.5024643e+1, 2.5385484e+2, -428456.63, -575454.25, 1766.8755, 0.004126176, -0.02821392, -428435.38, 23784.852, 0.0, 10.006921, 9.987458 
3.502842e+1, 2.6384103e+2, -332673.3, -507940.6, 1992.1324, 0.011270382, -0.028688522, -332650.7, 21704.707, 0.0, 10.008035, 9.984835 
3.503199e+1, 2.7382576e+2, -217406.92, -403069.03, 991.0549, -0.00037309458, -0.0261085, -217401.64, 39103.44, 0.0, 10.00928, 9.984699 
3.5035583e+1, 2.8380945e+2, -119528.01, -328961.66, 519.49316, -0.0026757892, -0.025496032, -119526.72, 39138.445, 0.0, 10.010295, 9.982573 
3.503918e+1, 2.9379192e+2, -12300.998, -226946.64, 2461.137, 0.009822036, -0.030973552, -12272.782, 48563.895, 0.0, 10.010945, 9.982531 
3.5042858e+1, 3.0377722e+2, 89947.5, -91313.66, 4651.5903, 0.008346523, -0.02766198, 90066.79, 90066.79, 0.0, 10.011983, 9.987966 
3.504662e+1, 3.137653e+2, 113462.03, -80510.78, 2503.8557, -0.015251726, -0.01284636, 113494.34, 113494.34, 0.0, 10.013625, 9.987917 
4.497096e+1, 1.2392432e+2, -1792642.9, -1726749.5, -672.69904, -0.0022884323, -0.017861558, -1726742.6, -1203.468, 0.0, 9.993597, 10.002322 
4.4975582e+1, 1.339251e+2, -1690842.1, -1643555.9, -2738.2288, 0.0010730127, -0.030821892, -1643397.8, -15866.161, 0.0, 9.994576, 10.000837 
4.4980186e+1, 1.4392515e+2, -1590533.6, -1563487.4, -2533.5173, -0.00062568136, -0.027044332, -1563252.1, -33720.906, 0.0, 9.995558, 9.999136 
4.498491e+1, 1.539242e+2, -1478124.3, -1459131.4, -2124.2344, -0.0026836635, -0.02940176, -1458896.6, -27356.29, 0.0, 9.996563, 9.999075 
4.4989586e+1, 1.6392219e+2, -1380322.0, -1386925.8, -2403.922, -0.0028781, -0.02740075, -1379539.6, -45979.438, 0.0, 9.997661, 9.996784 
4.4994223e+1, 1.7391898e+2, -1264612.9, -1281369.1, -2238.632, 0.000071049704, -0.018567564, -1264319.0, -28727.32, 0.0, 9.998909, 9.996688 
4.4998887e+1, 1.839146e+2, -1166953.8, -1209292.5, -1798.6312, 0.00036417902, -0.015879985, -1166877.5, -29242.715, 0.0, 9.999999, 9.994391 
4.5003596e+1, 1.939088e+2, -1057051.4, -1106618.1, -1963.8818, -0.0037169035, -0.024995675, -1056973.6, -17282.3, 0.0, 10.000855, 9.99429 
4.5008335e+1, 2.0390207e+2, -960219.3, -1031567.0, -2618.7983, -0.0023456507, -0.029786963, -960123.3, -18366.105, 0.0, 10.001741, 9.992293 
4.501313e+1, 2.1389432e+2, -848852.8, -927783.25, -3387.831, 0.007327822, -0.029621825, -848707.7, -4874.5474, 0.0, 10.002682, 9.9922285 
4.501779e+1, 2.2388528e+2, -754126.4, -861866.5, -3541.3364, 0.007099662, -0.026536696, -754010.1, -8088.472, 0.0, 10.003773, 9.98951 
4.5022252e+1, 2.3387471e+2, -637898.7, -756769.44, -2096.9822, -0.008169418, -0.02126094, -637861.75, 10163.789, 0.0, 10.005091, 9.989351 
4.502684e+1, 2.4386315e+2, -536908.2, -678563.4, -1705.5394, -0.011025635, -0.020157188, -536887.6, 13251.193, 0.0, 10.006209, 9.987456 
4.5031616e+1, 2.538505e+2, -427456.8, -575551.94, -3144.9927, 0.0048436997, -0.027716998, -427390.06, 24872.67, 0.0, 10.007014, 9.987406 
4.5036387e+1, 2.6383668e+2, -333677.44, -507625.44, -2530.0256, 0.010123147, -0.03154571, -333640.63, 20757.504, 0.0, 10.007931, 9.984905 
4.504113e+1, 2.7382144e+2, -220609.73, -403660.9, -881.7574, -0.0012803788, -0.03231817, -220605.5, 35941.777, 0.0, 10.009019, 9.984783 
4.50458e+1, 2.8380516e+2, -121727.43, -330303.4, -2276.798, -0.0035213102, -0.029864477, -121702.58, 37004.254, 0.0, 10.010155, 9.982548 
4.5050317e+1, 2.9378772e+2, -6620.851, -224666.39, -4906.789, 0.008534518, -0.025608215, -6510.487, 54367.402, 0.0, 10.011354, 9.982489 
4.5055047e+1, 3.03773e+2, 95322.48, -89507.75, -2930.8408, 0.008470341, -0.021390554, 95368.94, 95368.94, 0.0, 10.012386, 9.987894 
4.5060045e+1, 3.1376085e+2, 105930.53, -84996.83, -947.6381, -0.011058636, -0.019601714, 105935.234, 105935.234, 0.0, 10.013143, 9.98784 
5.496452e+1, 1.2391917e+2, -1793819.0, -1729277.3, 3278.8574, -0.007010406, -0.023669314, -1729111.1, -3521.509, 0.0, 9.993602, 10.002149 
5.497015e+1, 1.3391976e+2, -1692214.5, -1646343.1, 923.3004, -0.00021278758, -0.03532647, -1646324.6, -18740.736, 0.0, 9.994575, 10.0006485 
5.497576e+1, 1.4391975e+2, -1590206.9, -1562815.1, 1240.451, 0.0005171628, -0.02749148, -1562759.1, -33175.22, 0.0, 9.995558, 9.999182 
5.498151e+1, 1.5391897e+2, -1477556.3, -1458029.5, 1704.3678, 0.0004318051, -0.022644972, -1457881.9, -26290.174, 0.0, 9.996566, 9.999148 
5.498729e+1, 1.6391702e+2, -1379911.8, -1386192.5, 2193.4016, 0.00009603715, -0.020726183, -1379221.5, -45610.703, 0.0, 9.997665, 9.996831 
5.4993135e+1, 1.7391375e+2, -1264292.1, -1280723.0, 2486.7397, -0.000023045168, -0.022841292, -1263924.0, -28281.049, 0.0, 9.998909, 9.996732 
5.499889e+1, 1.8390931e+2, -1167359.9, -1210131.6, 1580.795, 0.0003210009, -0.023321142, -1167301.5, -29615.223, 0.0, 9.999999, 9.994333 
5.500451e+1, 1.9390355e+2, -1057537.8, -1107646.1, 1270.2662, 0.0015248546, -0.023767816, -1057505.6, -17762.71, 0.0, 10.000856, 9.994219 
5.501009e+1, 2.0389673e+2, -961505.56, -1034280.2, 882.6973, -0.0014921604, -0.025936285, -961494.9, -19685.195, 0.0, 10.001744, 9.992107 
5.5015635e+1, 2.138887e+2, -850259.25, -930727.06, 165.08932, -0.010801902, -0.032374915, -850258.94, -6370.6875, 0.0, 10.002684, 9.992026 
5.502141e+1, 2.2387968e+2, -751758.4, -856984.56, 1271.1826, -0.008829985, -0.03179772, -751743.0, -5766.415, 0.0, 10.003773, 9.989841 
5.502753e+1, 2.3386954e+2, -635099.94, -750943.1, 2886.177, 0.010532679, -0.022575542, -635028.06, 13048.083, 0.0, 10.00509, 9.989749 
5.5033326e+1, 2.438581e+2, -538988.7, -682830.0, 1526.6584, 0.016005214, -0.018362205, -538972.5, 11215.787, 0.0, 10.006207, 9.987165 
5.5038583e+1, 2.5384507e+2, -430124.28, -581117.4, -119.706764, 0.00002948731, -0.023882916, -430124.2, 22191.668, 0.0, 10.007017, 9.987023 
5.5044144e+1, 2.638312e+2, -331297.72, -502695.75, 1439.4608, -0.007816849, -0.026887365, -331285.63, 23166.227, 0.0, 10.007931, 9.985242 
5.5050135e+1, 2.738164e+2, -217585.23, -397365.2, 3216.7573, -0.0026108967, -0.028830655, -217527.69, 39069.055, 0.0, 10.009018, 9.985214 
5.505598e+1, 2.8380018e+2, -125303.305, -337697.1, 2187.1023, -0.0010492482, -0.024688445, -125280.78, 33475.145, 0.0, 10.010153, 9.982042 
5.506154e+1, 2.9378214e+2, -11061.132, -233901.23, -371.13904, -0.0053464742, -0.013747744, -11060.515, 49872.19, 0.0, 10.011354, 9.981855 
5.5067325e+1, 3.037671e+2, 97640.67, -84667.08, 134.90834, -0.0023345223, -0.016437504, 97640.77, 97640.77, 0.0, 10.012386, 9.988226 
5.507343e+1, 3.1375515e+2, 109156.66, -78227.64, 1895.3914, 0.0124616865, -0.043544453, 109175.82, 109175.82, 0.0, 10.013141, 9.988304 
6.4958084e+1, 1.23912744e+2, -1795252.3, -1729586.6, -2229.5884, -0.00480311, -0.028055357, -1729511.1, -3858.5444, 0.0, 9.993486, 10.002182 
6.496475e+1, 1.3391343e+2, -1691203.9, -1645466.1, -3199.894, -0.00049439946, -0.03331236, -1645243.4, -17597.443, 0.0, 9.994626, 10.000681 
6.497138e+1, 1.4391345e+2, -1587947.5, -1562046.0, -2257.3296, -0.0009134962, -0.022863748, -1561850.8, -32205.084, 0.0, 9.995725, 9.999151 
6.497818e+1, 1.539126e+2, -1474597.4, -1457032.0, -2641.071, -0.00023907058, -0.02154435, -1456643.5, -24989.395, 0.0, 9.996785, 9.999108 
6.4984983e+1, 1.639106e+2, -1378624.3, -1385534.3, -2764.5474, -0.00035321165, -0.02284325, -1377654.4, -43980.563, 0.0, 9.997751, 9.996833 
6.4991874e+1, 1.739073e+2, -1268967.1, -1282913.3, -2751.8677, -0.001110928, -0.027865918, -1268443.8, -32737.7, 0.0, 9.998588, 9.996737 
6.499866e+1, 1.8390289e+2, -1173445.3, -1212620.6, -3499.0676, -0.0002584418, -0.028200792, -1173135.3, -35386.06, 0.0, 9.999563, 9.994374 
6.500533e+1, 1.9389722e+2, -1058536.6, -1107613.6, -2939.5532, 0.0027722965, -0.023778958, -1058361.3, -18556.344, 0.0, 10.000766, 9.994265 
6.501196e+1, 2.038904e+2, -959169.44, -1034392.7, -2480.7888, 0.0004517075, -0.022454314, -959087.7, -17216.031, 0.0, 10.001956, 9.991995 
6.501855e+1, 2.1388227e+2, -844607.44, -929472.56, -2649.8687, -0.009915706, -0.027453091, -844524.8, -573.37335, 0.0, 10.003133, 9.991893 
6.5025336e+1, 2.2387318e+2, -746737.94, -853656.4, -2437.945, -0.008549696, -0.028467229, -746682.4, -642.0617, 0.0, 10.004077, 9.98992 
6.503241e+1, 2.3386309e+2, -640497.7, -752375.4, -3052.2166, 0.01051249, -0.02551379, -640414.5, 7724.8135, 0.0, 10.004668, 9.989854 
6.5039235e+1, 2.4385169e+2, -547295.9, -686683.56, -3850.0305, 0.015524258, -0.022931235, -547189.6, 3061.3477, 0.0, 10.005631, 9.987179 
6.504566e+1, 2.5383872e+2, -427866.34, -579987.9, -2587.7737, -0.0012116473, -0.022748545, -427822.34, 24555.695, 0.0, 10.007169, 9.987026 
6.5052277e+1, 2.6382485e+2, -325580.25, -500491.6, -1787.037, -0.008032666, -0.022624714, -325561.97, 28952.008, 0.0, 10.008347, 9.98519 
6.505915e+1, 2.7381e+2, -218991.55, -398690.3, -3760.2932, 0.0007479679, -0.025545595, -218912.89, 37746.645, 0.0, 10.008947, 9.985155 
6.506603e+1, 2.837937e+2, -129525.27, -339772.13, -3603.839, 0.0024657336, -0.02390932, -129463.516, 29355.76, 0.0, 10.009865, 9.982038 
6.507283e+1, 2.9377565e+2, -12192.503, -234418.36, -1338.6075, -0.0073856125, -0.01762348, -12184.44, 48812.027, 0.0, 10.011275, 9.981857 
6.5079695e+1, 3.0376065e+2, 98631.055, -83307.86, -936.3, -0.005284353, -0.020573469, 98635.875, 98635.875, 0.0, 10.012414, 9.988305 
6.5086585e+1, 3.1374884e+2, 109272.484, -77199.23, -2214.7007, 0.01623752, -0.040786833, 109298.78, 109298.78, 0.0, 10.013105, 9.988391 
7.4951655e+1, 1.2390503e+2, -1793443.4, -1725925.9, 2260.3257, 0.002703757, -0.030608652, -1725850.3, -122.026344, 0.0, 9.993489, 10.002427 
7.4959373e+1, 1.3390608e+2, -1689320.3, -1641612.1, 1088.3821, -0.00054351555, -0.024792973, -1641587.3, -13869.302, 0.0, 9.994626, 10.000942 
7.496706e+1, 1.4390624e+2, -1588688.4, -1563624.1, 1760.7571, -0.0059711393, -0.0131100565, -1563501.0, -33784.47, 0.0, 9.995727, 9.999042 
7.4974906e+1, 1.5390508e+2, -1475690.9, -1459308.8, 1372.1013, -0.006004182, -0.025923757, -1459194.6, -27466.75, 0.0, 9.996786, 9.998952 
7.498269e+1, 1.639029e+2, -1378907.4, -1386146.1, 462.61377, -0.005599093, -0.033686765, -1378878.0, -45128.895, 0.0, 9.997752, 9.99679 
7.4990433e+1, 1.738996e+2, -1269165.3, -1283337.0, 408.53876, -0.0040334496, -0.03368235, -1269153.5, -33372.3, 0.0, 9.998588, 9.996707 
7.4998206e+1, 1.8389529e+2, -1172394.5, -1210500.6, 881.6376, -0.0024121564, -0.030489028, -1172374.1, -34550.633, 0.0, 9.999565, 9.994516 
7.500607e+1, 1.938898e+2, -1057359.3, -1105199.8, 1616.6317, -0.000895671, -0.02509568, -1057304.8, -17427.16, 0.0, 10.000766, 9.994428 
7.501394e+1, 2.038831e+2, -959424.25, -1034915.4, 1958.5737, 0.0025165624, -0.019336775, -959373.5, -17430.271, 0.0, 10.001956, 9.991959 
7.5021875e+1, 2.1387498e+2, -845049.6, -930373.3, 1789.6901, 0.008843455, -0.014958585, -845012.1, -989.2936, 0.0, 10.003132, 9.991831 
7.502957e+1, 2.2386579e+2, -747957.5, -856180.7, 19.058022, 0.006628347, -0.016727207, -747957.5, -1844.6036, 0.0, 10.004077, 9.989746 
7.503689e+1, 2.3385535e+2, -641783.5, -755078.9, -841.6357, -0.008789535, -0.03021183, -641777.25, 6437.897, 0.0, 10.004671, 9.989667 
7.5044584e+1, 2.4384393e+2, -545015.3, -682017.3, 1547.519, -0.013109531, -0.033908352, -544997.8, 5329.116, 0.0, 10.005634, 9.987495 
7.505285e+1, 2.5383145e+2, -425207.44, -574406.94, 3226.2617, -0.0000013612321, -0.024446001, -425137.72, 27311.672, 0.0, 10.007165, 9.987409 
7.506079e+1, 2.6381767e+2, -328666.06, -506784.28, 860.9757, 0.008023418, -0.01891372, -328661.9, 25922.693, 0.0, 10.008342, 9.984761 
7.5068176e+1, 2.7380225e+2, -222731.98, -406525.13, -1512.902, 0.007923415, -0.022454616, -222719.53, 34016.06, 0.0, 10.008951, 9.984618 
7.507593e+1, 2.837858e+2, -126076.36, -332686.2, 1365.3916, 0.0059118876, -0.027391393, -126067.336, 32829.492, 0.0, 10.009868, 9.98252 
7.508419e+1, 2.937682e+2, -7906.449, -225366.53, 3985.325, 0.0010207236, -0.037021417, -7833.436, 53235.793, 0.0, 10.011269, 9.982479 
7.509215e+1, 3.0375355e+2, 97358.625, -85809.12, 1960.0436, -0.0017548938, -0.033623323, 97379.6, 97379.6, 0.0, 10.012409, 9.988134 
7.509953e+1, 3.137419e+2, 107382.01, -81233.63, 340.1077, -0.0011936614, -0.012304312, 107382.625, 107382.625, 0.0, 10.013109, 9.988112 
8.494521e+1, 1.2389659e+2, -1791804.3, -1725169.4, 247.09268, 0.0034638883, -0.025044715, -1725168.4, 642.6956, 0.0, 9.9936, 10.002424 
8.495396e+1, 1.3389759e+2, -1690265.3, -1642129.4, -3207.939, -0.0016541327, -0.024795568, -1641916.5, -14115.18, 0.0, 9.994563, 10.000936 
8.49627e+1, 1.4389771e+2, -1590984.9, -1564594.9, -3182.449, -0.0067602303, -0.015767295, -1564216.5, -34416.465, 0.0, 9.9955635, 9.999054 
8.4971637e+1, 1.5389656e+2, -1477722.4, -1460150.6, -2301.2742, -0.0045652264, -0.028155206, -1459854.3, -28043.05, 0.0, 9.996641, 9.998963 
8.498047e+1, 1.638944e+2, -1379209.9, -1386800.3, -2742.023, -0.0032287159, -0.033818852, -1378322.9, -44490.535, 0.0, 9.997752, 9.996743 
8.49892e+1, 1.7389111e+2, -1264642.9, -1281752.3, -3011.0613, -0.0026884007, -0.029051812, -1264128.5, -28263.824, 0.0, 9.998921, 9.996652 
8.4997976e+1, 1.8388677e+2, -1166177.1, -1207380.4, -2914.2402, -0.0024817053, -0.025697736, -1165972.0, -28064.764, 0.0, 9.999984, 9.994523 
8.500687e+1, 1.9388121e+2, -1055428.4, -1104105.3, -3277.9268, -0.0029421386, -0.026946178, -1055208.6, -15246.913, 0.0, 10.00089, 9.994439 
8.5015786e+1, 2.0387451e+2, -961682.25, -1035227.06, -3363.1008, 0.00064488716, -0.024272243, -961528.8, -19501.55, 0.0, 10.001767, 9.992026 
8.5024756e+1, 2.138665e+2, -852218.4, -933010.5, -2543.7576, 0.010284964, -0.017216654, -852138.4, -8032.474, 0.0, 10.002605, 9.991904 
8.503349e+1, 2.2385731e+2, -754239.6, -860537.25, -3406.1338, 0.008979196, -0.016974304, -754130.56, -7934.684, 0.0, 10.003703, 9.989629 
8.5041827e+1, 2.3384674e+2, -635005.9, -753406.8, -3938.5125, -0.009318383, -0.02935772, -634875.0, 13424.513, 0.0, 10.005203, 9.989522 
8.5050535e+1, 2.4383527e+2, -535027.3, -676490.0, -2426.736, -0.014062129, -0.03313445, -534985.7, 15426.154, 0.0, 10.006287, 9.9875555 
8.5059816e+1, 2.5382283e+2, -431066.34, -576286.5, -2983.401, 0.0022097202, -0.025553536, -431005.06, 21528.564, 0.0, 10.0067215, 9.987492 
8.506879e+1, 2.6380908e+2, -338976.84, -511732.44, -4611.479, 0.010017541, -0.02066824, -338853.84, 15814.611, 0.0, 10.007632, 9.984764 
8.507726e+1, 2.737937e+2, -217836.28, -404260.03, -3068.1328, 0.004070419, -0.02299561, -217785.8, 39033.637, 0.0, 10.009291, 9.984607 
8.5086054e+1, 2.8377727e+2, -117067.62, -327524.34, -198.00926, 0.002315281, -0.027127866, -117067.43, 41912.926, 0.0, 10.01045, 9.982591 
8.5095286e+1, 2.9375973e+2, -14105.762, -227441.92, -1671.4054, 0.0073103365, -0.036640964, -14092.668, 47059.285, 0.0, 10.010801, 9.982559 
8.510427e+1, 3.0374515e+2, 87306.516, -90466.914, -3998.4355, 0.0051889755, -0.032807488, 87396.4, 87396.4, 0.0, 10.011706, 9.988151 
8.511276e+1, 3.137335e+2, 113137.04, -78418.086, -3379.8477, -0.008412993, -0.01062827, 113196.66, 113196.66, 0.0, 10.013503, 9.988113 
9.493874e+1, 1.238874e+2, -1793659.8, -1729004.8, 4093.7332, -0.00472542, -0.011089198, -1728746.6, -2845.355, 0.0, 9.993601, 10.002162 
9.4948494e+1, 1.3388789e+2, -1692272.3, -1646193.1, 385.98193, -0.0042328904, -0.03341679, -1646189.9, -18293.586, 0.0, 9.994561, 10.000659 
9.495829e+1, 1.4388785e+2, -1590038.3, -1562597.0, 814.8966, -0.0036552032, -0.030801332, -1562572.8, -32676.225, 0.0, 9.995561, 9.999189 
9.496836e+1, 1.5388703e+2, -1476393.8, -1457411.9, 1795.3024, 0.0034336252, -0.028446048, -1457243.5, -25339.018, 0.0, 9.99664, 9.999149 
9.4978315e+1, 1.6388507e+2, -1379564.8, -1387561.9, 1637.6141, 0.005899433, -0.023242472, -1379242.4, -45318.4, 0.0, 9.997754, 9.99669 
9.4988173e+1, 1.7388174e+2, -1265214.8, -1282952.6, 1421.9075, 0.0021446105, -0.013961535, -1265101.5, -29144.873, 0.0, 9.998921, 9.996569 
9.499798e+1, 1.8387726e+2, -1167075.6, -1209252.5, 601.67786, -0.0012289553, -0.013630469, -1167067.0, -29066.482, 0.0, 9.999985, 9.994395 
9.5007753e+1, 1.9387142e+2, -1056389.8, -1106082.4, 148.68608, -0.004167644, -0.029426431, -1056389.4, -16331.827, 0.0, 10.00089, 9.994305 
9.5017487e+1, 2.0386463e+2, -960471.0, -1032714.06, -183.30237, -0.0060329856, -0.037236493, -960470.5, -18346.607, 0.0, 10.001767, 9.992197 
9.5027196e+1, 2.138568e+2, -850704.9, -929915.5, 615.738, -0.006240898, -0.03414063, -850700.1, -6499.3438, 0.0, 10.002606, 9.992114 
9.503708e+1, 2.2384775e+2, -754675.0, -861481.94, 1956.0773, -0.0024312395, -0.029003303, -754639.25, -8349.756, 0.0, 10.003705, 9.989562 
9.5047194e+1, 2.3383723e+2, -635771.5, -754913.9, 1730.5432, 0.007556631, -0.023097014, -635746.4, 12646.198, 0.0, 10.005199, 9.98942 
9.505708e+1, 2.4382569e+2, -536445.8, -679340.6, -364.81372, 0.011201068, -0.020715097, -536444.9, 14060.978, 0.0, 10.006283, 9.987362 
9.5066565e+1, 2.5381294e+2, -432475.28, -579272.9, -1383.0203, 0.0049568787, -0.025990902, -432462.25, 20168.582, 0.0, 10.006725, 9.987286 
9.50763e+1, 2.637992e+2, -335921.75, -505506.25, 1104.748, -0.0026303118, -0.027888063, -335914.53, 18850.96, 0.0, 10.007636, 9.985186 
9.5086396e+1, 2.737843e+2, -214366.25, -396905.6, 3191.0242, -0.011949459, -0.027107982, -214310.48, 42600.72, 0.0, 10.009283, 9.985112 
9.509639e+1, 2.837681e+2, -119501.49, -332361.28, 1634.3556, -0.009539877, -0.023273945, -119488.945, 39581.066, 0.0, 10.010441, 9.982264 
9.510613e+1, 2.9375032e+2, -17150.953, -233890.11, -441.86792, 0.011363937, -0.017320348, -17150.053, 44094.62, 0.0, 10.010807, 9.982115 
9.511608e+1, 3.037355e+2, 88847.62, -87492.57, 2089.3171, 0.015136026, -0.018610844, 88872.37, 88872.37, 0.0, 10.011717, 9.988348 
9.512627e+1, 3.1372374e+2, 115080.7, -74241.945, 3412.2214, -0.008685541, -0.034477904, 115142.19, 115142.19, 0.0, 10.013497, 9.988401 
1.0493241e+2, 1.23876944e+2, -1792013.5, -1729445.1, -312.14957, -0.004870117, -0.014055404, -1729443.6, -3440.038, 0.0, 9.993765, 10.00205 
1.0494319e+2, 1.3387734e+2, -1689719.6, -1646229.5, -3067.626, -0.001955821, -0.034878563, -1646014.1, -18014.482, 0.0, 9.994787, 10.000545 
1.04954e+2, 1.4387725e+2, -1586837.0, -1561168.3, -2352.0325, -0.000595143, -0.029858928, -1560954.6, -30954.148, 0.0, 9.995783, 9.999176 
1.0496504e+2, 1.5387647e+2, -1474824.5, -1456666.6, -2775.6858, 0.0021995306, -0.025443202, -1456251.8, -24243.486, 0.0, 9.996747, 9.999145 
1.0497601e+2, 1.6387449e+2, -1379910.9, -1387226.5, -3247.2732, 0.0028089653, -0.020922592, -1378677.4, -44649.82, 0.0, 9.997706, 9.996733 
1.0498696e+2, 1.7387117e+2, -1268480.5, -1283988.8, -2461.7534, 0.000784727, -0.016553344, -1268099.1, -32038.857, 0.0, 9.998674, 9.996615 
1.0499783e+2, 1.8386666e+2, -1172037.8, -1212617.0, -2823.4727, -0.00035558105, -0.017156119, -1171842.3, -33737.934, 0.0, 9.999686, 9.994308 
1.0500862e+2, 1.9386078e+2, -1058833.6, -1108439.6, -3081.1833, -0.0005556581, -0.027738512, -1058643.0, -18481.137, 0.0, 10.000772, 9.994198 
1.05019346e+2, 2.0385394e+2, -958733.1, -1032162.8, -3863.2322, -0.002904292, -0.03412361, -958530.44, -16301.581, 0.0, 10.001897, 9.992168 
1.0503002e+2, 2.1384603e+2, -843848.1, -926792.2, -4755.924, -0.008676846, -0.035670884, -843576.3, 730.00543, 0.0, 10.003083, 9.992093 
1.0504092e+2, 2.2383699e+2, -748864.0, -857659.6, -3647.2686, -0.006083283, -0.03171311, -748741.9, -2347.007, 0.0, 10.004058, 9.989649 
1.05052166e+2, 2.3382661e+2, -642155.75, -756868.6, -2364.9658, 0.009206841, -0.021826522, -642107.0, 6389.5977, 0.0, 10.004712, 9.989519 
1.0506308e+2, 2.4381511e+2, -546035.2, -684909.0, -3688.8774, 0.014068648, -0.018157955, -545937.25, 4672.3193, 0.0, 10.005666, 9.987278 
1.05073445e+2, 2.538022e+2, -427904.38, -578274.75, -4049.5288, 0.0025426713, -0.026423551, -427795.4, 24940.504, 0.0, 10.00709, 9.987175 
1.0508418e+2, 2.6378843e+2, -327508.13, -500704.13, -1752.5313, -0.005515233, -0.029851744, -327490.4, 27380.629, 0.0, 10.00818, 9.9852495 
1.05095446e+2, 2.7377364e+2, -221669.22, -399459.63, -2679.9233, -0.007927857, -0.028041855, -221628.83, 35386.95, 0.0, 10.0087385, 9.985197 
1.0510648e+2, 2.8375745e+2, -131267.28, -339111.22, -5630.766, -0.005064487, -0.023108797, -131114.86, 28059.59, 0.0, 10.009677, 9.982167 
1.0511709e+2, 2.9373953e+2, -11939.535, -232739.88, -5430.2046, 0.0058025764, -0.016139848, -11806.069, 49544.195, 0.0, 10.011223, 9.981991 
1.05128095e+2, 3.0372465e+2, 99101.984, -82767.62, -1418.2201, 0.0085290875, -0.017512226, 99113.04, 99113.04, 0.0, 10.012429, 9.988328 
1.0513963e+2, 3.1371287e+2, 108965.65, -77254.945, -2174.1978, -0.0018863849, -0.03500721, 108991.03, 108991.03, 0.0, 10.013075, 9.988395 
1.14926256e+2, 1.23865195e+2, -1791749.3, -1728881.3, 3695.7744, 0.0019737957, -0.03451388, -1728664.8, -2546.3567, 0.0, 9.993764, 10.002088 
1.1493805e+2, 1.338659e+2, -1689406.4, -1645570.5, 782.2588, 0.004794748, -0.029222386, -1645556.5, -17444.78, 0.0, 9.994787, 10.000588 
1.149498e+2, 1.4386587e+2, -1588037.0, -1563612.1, 1290.1189, 0.0016605863, -0.012759749, -1563544.3, -33432.176, 0.0, 9.995781, 9.99901 
1.1496168e+2, 1.5386477e+2, -1476228.4, -1459538.0, 870.2861, -0.008929554, -0.018940847, -1459492.8, -27369.908, 0.0, 9.996745, 9.998949 
1.1497357e+2, 1.6386265e+2, -1378873.4, -1385107.5, 385.68686, -0.013392894, -0.026715256, -1378849.6, -44706.016, 0.0, 9.997707, 9.996876 
1.14985555e+2, 1.7385936e+2, -1267163.1, -1281281.3, 1208.7288, -0.0074180537, -0.036912497, -1267060.4, -30884.734, 0.0, 9.998674, 9.9967985 
1.1499751e+2, 1.8385495e+2, -1172352.9, -1213261.3, 1231.8389, -0.0006881013, -0.036486764, -1172315.9, -34097.125, 0.0, 9.999686, 9.994264 
1.1500947e+2, 1.9384922e+2, -1059360.8, -1109527.4, 1039.5536, 0.007059278, -0.022010291, -1059339.3, -19064.207, 0.0, 10.000772, 9.9941225 
1.1502137e+2, 2.0384237e+2, -960324.44, -1035446.75, 564.62836, 0.008993941, -0.015089881, -960320.25, -17977.863, 0.0, 10.001897, 9.991944 
1.1503322e+2, 2.1383417e+2, -845608.75, -930381.75, -275.30612, 0.0021847817, -0.021973718, -845607.9, -1185.1176, 0.0, 10.00308, 9.991848 
1.1504501e+2, 2.2382504e+2, -747187.06, -854163.94, -978.46924, -0.0028762904, -0.02528866, -747178.1, -665.8904, 0.0, 10.004057, 9.989886 
1.1505674e+2, 2.3381487e+2, -640009.2, -752443.4, 67.312874, -0.0050002406, -0.025329983, -640009.2, 8602.623, 0.0, 10.004713, 9.98982 
1.1506855e+2, 2.438035e+2, -545828.06, -684519.6, 1307.037, -0.0060764733, -0.025135111, -545815.7, 4907.471, 0.0, 10.005667, 9.987302 
1.1508046e+2, 2.5379065e+2, -428041.8, -578475.7, 1308.1438, -0.005498496, -0.026863875, -428030.44, 24818.588, 0.0, 10.007085, 9.987163 
1.1509242e+2, 2.6377675e+2, -329554.44, -504876.75, 690.3622, 0.00024920437, -0.026567433, -329551.72, 25433.418, 0.0, 10.008178, 9.984964 
1.1510441e+2, 2.7376166e+2, -223883.19, -404122.78, -626.8272, 0.014271703, -0.026080884, -223881.0, 33252.195, 0.0, 10.008741, 9.984876 
1.1511636e+2, 2.837453e+2, -130255.61, -337114.1, -282.4695, 0.013866887, -0.026619388, -130255.23, 29038.328, 0.0, 10.009682, 9.9823 
1.1512816e+2, 2.9372746e+2, -10604.926, -229902.02, 395.81998, -0.009547355, -0.03177446, -10604.211, 50864.33, 0.0, 10.011219, 9.982185 
1.151403e+2, 3.037126e+2, 97396.29, -86183.97, 1412.2415, -0.014964798, -0.02863512, 97407.15, 97407.15, 0.0, 10.0124235, 9.988095 
1.1515282e+2, 3.1370085e+2, 106830.16, -81609.055, 248.60489, 0.00938537, -0.014355128, 106830.484, 106830.484, 0.0, 10.013072, 9.988096 
1.2491996e+2, 1.23852454e+2, -1792787.4, -1728428.3, -1364.7122, 0.0026363297, -0.0369864, -1728399.4, -2156.1304, 0.0, 9.99365, 10.00217 
1.2493273e+2, 1.3385327e+2, -1690954.0, -1645139.8, -4025.847, 0.0025020025, -0.029010285, -1644788.8, -16553.402, 0.0, 9.994629, 10.000691 
1.2494551e+2, 1.438533e+2, -1590175.6, -1565260.5, -2738.6448, 0.00005912607, -0.011507181, -1564963.1, -34727.934, 0.0, 9.995661, 9.998953 
1.2495845e+2, 1.5385209e+2, -1476160.0, -1460357.9, -2253.6604, -0.008028566, -0.021072695, -1460042.8, -27795.775, 0.0, 9.996785, 9.998872 
1.24971375e+2, 1.6384988e+2, -1376907.4, -1385063.1, -3110.839, -0.010981407, -0.030069044, -1375856.3, -41587.625, 0.0, 9.997879, 9.996792 
1.24984376e+2, 1.7384651e+2, -1263984.3, -1280677.8, -4325.9414, -0.0052676965, -0.03819782, -1262929.9, -26628.46, 0.0, 9.998931, 9.996712 
1.2499733e+2, 1.8384212e+2, -1167934.8, -1210254.3, -4959.733, -0.000057672936, -0.036388192, -1167361.3, -29016.656, 0.0, 9.9999485, 9.994336 
1.2501028e+2, 1.9383648e+2, -1056494.6, -1107049.9, -3876.4143, 0.0039429427, -0.021736939, -1056199.1, -15799.212, 0.0, 10.000919, 9.994217 
1.2502322e+2, 2.0382968e+2, -961178.7, -1036210.44, -2971.5537, 0.0060510263, -0.013888842, -961061.2, -18594.395, 0.0, 10.001852, 9.991911 
1.2503615e+2, 2.1382146e+2, -851082.9, -933592.25, -2353.1924, 0.0054239756, -0.018463392, -851015.8, -6468.292, 0.0, 10.002729, 9.9917965 
1.2504895e+2, 2.2381227e+2, -752363.8, -856996.8, -3496.144, 0.0018834743, -0.022377165, -752247.1, -5609.706, 0.0, 10.0037155, 9.989856 
1.2506151e+2, 2.3380202e+2, -637840.2, -751721.1, -4937.925, -0.006366023, -0.027519178, -637626.44, 11111.261, 0.0, 10.004875, 9.989787 
1.2507433e+2, 2.4379064e+2, -541138.06, -681709.06, -4002.0747, -0.008953076, -0.028933879, -541024.2, 9825.039, 0.0, 10.005963, 9.987348 
1.250875e+2, 2.537779e+2, -429715.38, -578657.4, -3405.0613, -0.002896774, -0.02668941, -429637.6, 23336.574, 0.0, 10.006943, 9.987215 
1.2510054e+2, 2.63764e+2, -333531.66, -507861.7, -4393.1367, 0.0046190675, -0.02481766, -333421.03, 21689.248, 0.0, 10.007949, 9.984867 
1.2511328e+2, 2.7374876e+2, -220859.38, -403987.22, -4419.323, 0.014034816, -0.026435906, -220752.78, 36506.965, 0.0, 10.009006, 9.9847555 
1.2512621e+2, 2.8373232e+2, -123932.305, -333117.28, -1719.6628, 0.011302893, -0.028613726, -123918.164, 35502.4, 0.0, 10.010074, 9.982382 
1.2513934e+2, 2.9371458e+2, -10723.689, -228705.05, -1446.5367, -0.010820074, -0.034107774, -10714.091, 50880.336, 0.0, 10.011155, 9.982295 
1.2515254e+2, 3.036998e+2, 92390.98, -88905.37, -2221.6687, -0.01494423, -0.030438956, 92418.195, 92418.195, 0.0, 10.012091, 9.988066 
1.2516576e+2, 3.13688e+2, 102281.04, -84369.875, -1963.8254, 0.010525427, -0.014218179, 102301.695, 102301.695, 0.0, 10.012781, 9.988046 
1.3491355e+2, 1.23838685e+2, -1791902.3, -1726514.0, 2411.7402, -0.005064396, -0.02060472, -1726425.1, -46.648396, 0.0, 9.993646, 10.0023 
1.3492724e+2, 1.3383944e+2, -1689817.6, -1642727.5, -360.96024, -0.009636245, -0.034176257, -1642724.8, -14353.933, 0.0, 9.994625, 10.000855 
1.349411e+2, 1.4383951e+2, -1589757.0, -1564354.5, 1426.1909, -0.0062620826, -0.026648898, -1564274.6, -33904.426, 0.0, 9.995658, 9.999015 
1.3495536e+2, 1.5383838e+2, -1475854.3, -1459717.1, 2015.0106, 0.004195314, -0.03203637, -1459469.3, -27088.06, 0.0, 9.996784, 9.998915 
1.3496947e+2, 1.6383615e+2, -1379105.4, -1389597.8, 885.9135, 0.009283659, -0.031022038, -1379031.1, -44627.848, 0.0, 9.997879, 9.996483 
1.3498344e+2, 1.7383263e+2, -1266515.8, -1285912.3, -346.96393, 0.0067452285, -0.02035108, -1266509.5, -30071.594, 0.0, 9.998932, 9.996353 
1.349973e+2, 1.8382813e+2, -1166514.5, -1207349.8, -1269.96, 0.00064804783, -0.016743392, -1166475.0, -27992.932, 0.0, 9.9999485, 9.994534 
1.3501106e+2, 1.938225e+2, -1054598.4, -1103132.6, -205.70415, -0.010909933, -0.026732754, -1054597.5, -14060.646, 0.0, 10.000918, 9.994482 
1.3502489e+2, 2.0381582e+2, -960028.8, -1033839.2, 353.2262, -0.012911969, -0.030280478, -960027.1, -17424.695, 0.0, 10.001852, 9.992071 
1.3503884e+2, 2.1380782e+2, -850026.4, -931449.4, 944.4016, 0.0002633639, -0.025040852, -850015.44, -5334.6294, 0.0, 10.002731, 9.991941 
1.3505273e+2, 2.2379866e+2, -754387.3, -861226.94, 723.2501, 0.0070960806, -0.022966485, -754382.4, -7611.7637, 0.0, 10.003717, 9.989565 
1.350665e+2, 2.3378806e+2, -640329.9, -756855.06, -574.94775, 0.0038810421, -0.028289666, -640327.06, 8547.492, 0.0, 10.004873, 9.989436 
1.3508043e+2, 2.437765e+2, -540689.3, -680746.9, -266.808, 0.0039070714, -0.0295, -540688.8, 10298.9375, 0.0, 10.005962, 9.9874115 
1.3509455e+2, 2.5376388e+2, -428915.4, -576899.2, 253.18701, 0.009283483, -0.026030058, -428914.97, 24196.408, 0.0, 10.006938, 9.987336 
1.351085e+2, 2.637501e+2, -332990.63, -506661.66, -497.87448, 0.006600425, -0.024389973, -332989.22, 22257.266, 0.0, 10.007946, 9.984949 
1.3512206e+2, 2.737349e+2, -220355.0, -402887.44, -481.4529, -0.008718845, -0.028740369, -220353.72, 37041.785, 0.0, 10.009003, 9.98483 
1.3513605e+2, 2.8371856e+2, -123724.73, -332623.28, 2281.7588, -0.013050902, -0.028778465, -123699.805, 35855.734, 0.0, 10.01007, 9.982415 
1.3515061e+2, 2.9370093e+2, -10658.158, -228372.16, 2559.618, 0.0006935793, -0.02431496, -10628.069, 51100.055, 0.0, 10.011147, 9.982321 
1.3516486e+2, 3.0368623e+2, 93440.46, -86550.23, 481.0577, 0.0067135016, -0.023725366, 93441.74, 93441.74, 0.0, 10.012084, 9.98823 
1.3517843e+2, 3.136744e+2, 103705.516, -81631.34, 561.2586, -0.000030211673, -0.032537144, 103707.21, 103707.21, 0.0, 10.012792, 9.988227 
1.4490724e+2, 1.23824045e+2, -1791323.1, -1727532.3, 552.4162, -0.0036795044, -0.014419607, -1727527.5, -1005.4832, 0.0, 9.993737, 10.002185 
1.4492199e+2, 1.3382463e+2, -1686816.9, -1642386.3, -4345.204, -0.010670439, -0.035544053, -1641965.3, -13449.233, 0.0, 9.994875, 10.000754 
1.4493689e+2, 1.4382462e+2, -1585694.3, -1562197.4, -3966.2307, -0.0062794257, -0.029928721, -1561545.9, -31029.805, 0.0, 9.995924, 9.999028 
1.4495218e+2, 1.5382357e+2, -1474699.1, -1458847.4, -3549.9858, 0.0054038465, -0.031117829, -1458088.8, -25562.191, 0.0, 9.996847, 9.998939 
1.449673e+2, 1.6382138e+2, -1380196.5, -1389681.9, -3644.125, 0.010432638, -0.027540086, -1378958.1, -44410.125, 0.0, 9.997785, 9.996519 
1.4498226e+2, 1.7381789e+2, -1268817.5, -1286565.4, -1907.8922, 0.005841045, -0.0169787, -1268614.8, -32032.414, 0.0, 9.998753, 9.996394 
1.4499712e+2, 1.8381335e+2, -1170227.5, -1210152.9, -2139.9214, -0.00048076015, -0.014849761, -1170113.1, -31486.426, 0.0, 9.999739, 9.994442 
1.450119e+2, 1.9380762e+2, -1057752.6, -1105872.0, -3872.4893, -0.009629585, -0.028353553, -1057443.0, -16760.08, 0.0, 10.000754, 9.994372 
1.4502671e+2, 2.0380086e+2, -960311.8, -1033293.3, -5216.354, -0.011055952, -0.034233857, -959940.9, -17191.855, 0.0, 10.001802, 9.992128 
1.4504164e+2, 2.1379292e+2, -846977.94, -929058.44, -5131.63, -0.00031026267, -0.029646374, -846658.3, -1831.7124, 0.0, 10.002899, 9.992018 
1.4505656e+2, 2.2378378e+2, -751077.75, -860459.0, -4508.3057, 0.0059713223, -0.026156474, -750892.25, -3975.9902, 0.0, 10.003979, 9.989487 
1.4507146e+2, 2.3377313e+2, -638645.94, -757123.75, -3893.3835, 0.004926668, -0.026819414, -638518.1, 10502.638, 0.0, 10.005034, 9.989336 
1.4508641e+2, 2.4376154e+2, -540701.94, -680683.94, -3571.725, 0.0056203753, -0.026709579, -540610.8, 10523.6045, 0.0, 10.005957, 9.987416 
1.4510137e+2, 2.537489e+2, -432684.1, -578523.4, -3930.354, 0.009020868, -0.027275389, -432578.25, 20680.074, 0.0, 10.00667, 9.98735 
1.4511625e+2, 2.6373515e+2, -337132.6, -507759.47, -3885.2598, 0.0046341596, -0.026015121, -337044.16, 18348.852, 0.0, 10.007621, 9.985027 
1.4513099e+2, 2.737201e+2, -220367.31, -401890.0, -3641.1138, -0.0121975485, -0.024966404, -220294.3, 37246.37, 0.0, 10.008957, 9.984917 
1.4514607e+2, 2.837038e+2, -125208.21, -334037.16, -2395.225, -0.013787151, -0.023388492, -125180.74, 34519.598, 0.0, 10.009996, 9.982351 
1.4516152e+2, 2.9368603e+2, -19899.535, -233799.56, -3135.407, 0.009260654, -0.023478704, -19853.586, 42020.645, 0.0, 10.0105505, 9.982232 
1.4517677e+2, 3.0367133e+2, 87666.5, -86993.695, -3978.684, 0.014937839, -0.026816461, 87757.086, 87757.086, 0.0, 10.011583, 9.988436 
1.4519145e+2, 3.136597e+2, 114230.984, -73713.234, -3220.787, -0.007917807, -0.038218603, 114286.164, 114286.164, 0.0, 10.0133915, 9.988479 
1.5490107e+2, 1.23808496e+2, -1794071.5, -1733106.0, 4829.734, 0.0053617386, -0.018949835, -1732725.8, -6051.44, 0.0, 9.993735, 10.001805 
1.5491696e+2, 1.3380878e+2, -1689564.8, -1647960.3, -75.38604, -0.0009185915, -0.033120926, -1647960.1, -19288.543, 0.0, 9.994872, 10.000376 
1.5493287e+2, 1.4380859e+2, -1585966.9, -1562735.8, -430.1561, -0.00067604106, -0.020907167, -1562727.8, -32054.326, 0.0, 9.995923, 9.99899 
1.5494893e+2, 1.5380758e+2, -1474642.6, -1458716.0, -76.29766, -0.005538459, -0.01815552, -1458715.8, -26032.303, 0.0, 9.996846, 9.998947 
1.5496491e+2, 1.6380553e+2, -1377398.9, -1383947.0, -23.186861, -0.008938351, -0.01951021, -1377398.8, -42695.363, 0.0, 9.997786, 9.996907 
1.5498088e+2, 1.7380229e+2, -1265673.4, -1280109.3, 1756.3712, -0.008899536, -0.028053345, -1265462.8, -28727.713, 0.0, 9.998754, 9.996831 
1.5499683e+2, 1.8379779e+2, -1172864.6, -1215597.3, 1669.2225, -0.004498125, -0.030757282, -1172799.5, -34020.527, 0.0, 9.999738, 9.99407 
1.5501283e+2, 1.9379173e+2, -1061147.9, -1112928.0, -25.215427, 0.006485948, -0.026679408, -1061147.9, -20309.463, 0.0, 10.000757, 9.993889 
1.5502875e+2, 2.0378476e+2, -960581.44, -1033888.44, -1133.5605, 0.010295776, -0.025776768, -960563.94, -17657.121, 0.0, 10.001803, 9.992085 
1.5504457e+2, 2.1377674e+2, -846870.5, -928806.25, -1006.65753, 0.0029379723, -0.032140907, -846858.1, -1872.9108, 0.0, 10.002896, 9.992035 
1.5506046e+2, 2.2376762e+2, -750149.8, -858494.75, -534.5425, -0.0024062733, -0.0318894, -750147.2, -3072.6714, 0.0, 10.003976, 9.98962 
1.5507641e+2, 2.3375721e+2, -637658.9, -754966.5, 68.55425, -0.0040234574, -0.023238814, -637658.9, 11517.839, 0.0, 10.005029, 9.989485 
1.5509227e+2, 2.4374571e+2, -541116.94, -681461.25, -783.00073, -0.0046861856, -0.020565558, -541112.56, 10177.003, 0.0, 10.005953, 9.987363 
1.5510792e+2, 2.537329e+2, -433197.8, -579675.1, -1284.7361, -0.0038908068, -0.030057708, -433186.56, 20228.512, 0.0, 10.006674, 9.987268 
1.5512383e+2, 2.6371914e+2, -336494.97, -506563.6, 809.50916, -0.0020761986, -0.029537523, -336491.13, 19058.809, 0.0, 10.007626, 9.9851055 
1.551401e+2, 2.737043e+2, -219727.45, -400464.9, 1342.2317, 0.0014506953, -0.01558055, -219717.48, 37977.87, 0.0, 10.008952, 9.985015 
1.5515627e+2, 2.83688e+2, -126367.39, -336307.22, -49.29627, 0.006726261, -0.012767123, -126367.375, 33487.633, 0.0, 10.009991, 9.982198 
1.5517215e+2, 2.9366988e+2, -21122.576, -236550.47, -1121.5923, 0.014692148, -0.03089556, -21116.736, 40915.86, 0.0, 10.010561, 9.982038 
1.551883e+2, 3.0365512e+2, 89526.8, -83294.62, 2198.3777, 0.010128361, -0.03900696, 89554.76, 89554.76, 0.0, 10.011589, 9.988685 
1.5520479e+2, 3.13644e+2, 116158.68, -69265.95, 3531.1108, -0.015016197, -0.03264445, 116225.9, 116225.9, 0.0, 10.013372, 9.98879 
1.6489479e+2, 1.23791575e+2, -1793223.6, -1732547.5, -1760.891, 0.0011821962, -0.02458332, -1732496.5, -5656.459, 0.0, 9.993784, 10.001815 
1.6491178e+2, 1.3379198e+2, -1691419.3, -1648222.8, -3398.6145, 0.0010047468, -0.031099461, -1647957.0, -19120.762, 0.0, 9.994716, 10.000431 
1.6492873e+2, 1.4379185e+2, -1589299.4, -1564514.4, -1925.3414, 0.004908407, -0.015754819, -1564365.6, -33528.203, 0.0, 9.995701, 9.998975 
1.6494574e+2, 1.5379077e+2, -1475778.0, -1459582.3, -1856.5068, -0.006133301, -0.01728232, -1459372.1, -26524.086, 0.0, 9.99678, 9.998918 
1.6496268e+2, 1.6378865e+2, -1376857.9, -1384187.0, -3397.0203, -0.01207943, -0.022059781, -1375525.6, -40656.813, 0.0, 9.997841, 9.9968605 
1.649797e+2, 1.7378534e+2, -1264173.3, -1279947.5, -5300.2725, -0.009114039, -0.032502454, -1262557.8, -25656.709, 0.0, 9.998878, 9.996777 
1.6499668e+2, 1.8378083e+2, -1169618.3, -1213576.9, -5915.306, -0.0023186724, -0.03444822, -1168836.3, -29891.15, 0.0, 9.999938, 9.994104 
1.6501375e+2, 1.9377488e+2, -1056665.9, -1110184.8, -3657.0344, 0.00991976, -0.025532965, -1056417.1, -15413.559, 0.0, 10.001037, 9.993936 
1.6503069e+2, 2.0376788e+2, -958155.8, -1034239.0, -3126.1365, 0.012664545, -0.022255244, -958027.56, -14955.375, 0.0, 10.002033, 9.991947 
1.6504744e+2, 2.1375969e+2, -848432.4, -931400.4, -4366.9673, 0.00054126926, -0.030118417, -848203.2, -3050.7368, 0.0, 10.002868, 9.991868 
1.6506428e+2, 2.2375052e+2, -753053.6, -858448.44, -4667.377, -0.005532323, -0.03144261, -752847.3, -5605.1104, 0.0, 10.003714, 9.989747 
1.6508123e+2, 2.3374026e+2, -642930.25, -755629.9, -3949.0525, -0.0019099317, -0.024337243, -642792.0, 6550.88, 0.0, 10.004585, 9.98965 
1.650981e+2, 2.4372882e+2, -545943.3, -684474.6, -4427.856, -0.0015276517, -0.021350475, -545801.94, 5653.079, 0.0, 10.0056505, 9.987299 
1.6511473e+2, 2.5371593e+2, -428711.03, -578565.8, -5014.956, -0.006595176, -0.027354624, -428543.4, 25037.783, 0.0, 10.007025, 9.987171 
1.6513167e+2, 2.637021e+2, -329422.2, -503410.97, -3522.0317, -0.0047145924, -0.028365426, -329350.9, 26365.92, 0.0, 10.008121, 9.985078 
1.6514902e+2, 2.7368715e+2, -222569.44, -402024.13, -3845.3958, 0.008165854, -0.023897914, -222487.08, 35376.22, 0.0, 10.008762, 9.984995 
1.6516617e+2, 2.8367084e+2, -130414.37, -337734.22, -5024.462, 0.013485811, -0.022475239, -130292.67, 29730.324, 0.0, 10.009688, 9.982241 
1.6518287e+2, 2.936529e+2, -13206.768, -232080.73, -4378.5776, 0.0061110714, -0.028575674, -13119.209, 49079.816, 0.0, 10.011074, 9.982094 
1.6520005e+2, 3.0363816e+2, 95720.81, -82182.31, -990.1481, 0.00037145556, -0.030209567, 95726.32, 95726.32, 0.0, 10.012093, 9.988516 
1.6521783e+2, 3.1362677e+2, 102163.48, -78309.15, -3264.4707, -0.002172182, -0.027096082, 102222.51, 102222.51, 0.0, 10.012501, 9.9885845 
1.748884e+2, 1.2377322e+2, -1790294.8, -1726433.3, 1632.052, -0.018644951, -0.03149447, -1726391.6, 628.3537, 0.0, 9.993779, 10.002231 
1.7490642e+2, 1.337742e+2, -1687865.3, -1640802.3, 105.52017, -0.0057632625, -0.029534392, -1640802.1, -11791.816, 0.0, 9.99471, 10.000936 
1.749245e+2, 1.4377438e+2, -1589308.9, -1564441.8, 2074.6028, 0.009671173, -0.01453198, -1564269.9, -33261.215, 0.0, 9.995697, 9.9989805 
1.7494261e+2, 1.5377308e+2, -1476290.4, -1460571.1, 2243.2307, 0.002872244, -0.028617641, -1460257.4, -27236.28, 0.0, 9.996777, 9.99885 
1.7496064e+2, 1.637707e+2, -1380302.4, -1391279.1, 538.39233, -0.00006568292, -0.035311118, -1380276.0, -45231.523, 0.0, 9.997842, 9.996376 
1.749787e+2, 1.73767e+2, -1268033.0, -1287911.0, -1373.4242, 0.0045853034, -0.03039454, -1267938.5, -30857.682, 0.0, 9.9988785, 9.996232 
1.749967e+2, 1.8376245e+2, -1166470.5, -1207098.5, -1803.6676, 0.0053991564, -0.025772309, -1166390.6, -27265.193, 0.0, 9.999938, 9.994544 
1.7501469e+2, 1.9375697e+2, -1052557.9, -1101725.3, 494.90942, -0.00015367792, -0.024867995, -1052552.9, -11373.897, 0.0, 10.001036, 9.994511 
1.7503254e+2, 2.037502e+2, -959767.56, -1037572.75, 107.09699, -0.00498778, -0.023618625, -959767.44, -16521.922, 0.0, 10.002033, 9.991718 
1.7505021e+2, 2.1374173e+2, -850875.3, -936433.5, -1234.1901, -0.008329512, -0.023652304, -850857.5, -5528.9478, 0.0, 10.002868, 9.991524 
1.7506799e+2, 2.2373244e+2, -752168.25, -856655.5, -1418.8678, -0.004810439, -0.024785388, -752149.0, -4729.3022, 0.0, 10.003715, 9.989867 
1.7508593e+2, 2.3372222e+2, -641565.25, -752889.7, -695.581, 0.009808176, -0.029887347, -641560.94, 7958.621, 0.0, 10.004588, 9.989834 
1.751039e+2, 2.4371085e+2, -546427.9, -685512.8, 455.41974, 0.013604381, -0.028718933, -546426.4, 5204.647, 0.0, 10.005651, 9.987226 
1.7512181e+2, 2.5369802e+2, -429587.97, -580220.0, 134.47536, -0.0002209375, -0.01956893, -429587.88, 24168.988, 0.0, 10.007016, 9.987061 
1.751398e+2, 2.6368403e+2, -330408.9, -505259.38, -819.9307, -0.0044415034, -0.02260149, -330405.06, 25488.783, 0.0, 10.008113, 9.984953 
1.7515777e+2, 2.7366865e+2, -223489.34, -403864.53, -1489.6127, 0.007292988, -0.048868194, -223477.03, 34567.35, 0.0, 10.00876, 9.984869 
1.751758e+2, 2.8365234e+2, -128831.0, -334362.47, -210.69986, 0.006218647, -0.051461566, -128830.79, 31373.4, 0.0, 10.009684, 9.982471 
1.7519373e+2, 2.9363507e+2, -11326.5, -227981.6, 755.0008, -0.016333535, -0.017421464, -11323.869, 51049.9, 0.0, 10.011065, 9.982376 
1.75212e+2, 3.0362043e+2, 91780.79, -90267.88, 902.9281, -0.015022783, -0.0020503032, 91785.27, 91785.27, 0.0, 10.012089, 9.987962 
1.7523064e+2, 3.136081e+2, 97536.734, -88236.68, -1710.0714, 0.026692428, -0.021254158, 97552.48, 97552.48, 0.0, 10.012516, 9.987894 
1.8488224e+2, 1.2375439e+2, -1790255.9, -1726804.6, 1069.3052, -0.012822392, -0.02936268, -1726786.6, 417.81512, 0.0, 9.993794, 10.002195 
1.8490116e+2, 1.3375534e+2, -1684919.3, -1639153.4, -4082.524, -0.009957833, -0.032656815, -1638792.0, -9596.979, 0.0, 9.994897, 10.000953 
1.8492027e+2, 1.4375548e+2, -1585561.8, -1562944.5, -4228.3003, 0.004530022, -0.020049283, -1562179.9, -30986.268, 0.0, 9.995962, 9.998948 
1.849395e+2, 1.5375417e+2, -1473643.5, -1459720.5, -3896.3916, 0.004801306, -0.03135202, -1458704.3, -25498.107, 0.0, 9.996973, 9.998807 
1.849586e+2, 1.6375177e+2, -1378721.8, -1391334.9, -4204.0664, 0.005214079, -0.03517826, -1377448.9, -42218.98, 0.0, 9.997981, 9.9963 
1.8497767e+2, 1.7374802e+2, -1266814.4, -1288218.9, -2677.782, 0.006727563, -0.027343856, -1266484.5, -29217.592, 0.0, 9.998997, 9.99615 
1.8499662e+2, 1.837434e+2, -1167071.3, -1207498.5, -2974.4546, 0.004328583, -0.022808481, -1166853.6, -27541.512, 0.0, 9.9999, 9.994533 
1.8501548e+2, 1.9373788e+2, -1058521.6, -1104627.1, -5010.172, -0.0046290373, -0.026638394, -1057983.4, -16617.363, 0.0, 10.000627, 9.994507 
1.850343e+2, 2.0373112e+2, -966002.75, -1039560.6, -6306.357, -0.008457101, -0.026673172, -965466.0, -22033.715, 0.0, 10.001561, 9.991806 
1.850531e+2, 2.1372281e+2, -850552.0, -935110.0, -4336.6836, -0.0041309204, -0.022346802, -850330.2, -4816.231, 0.0, 10.002837, 9.991624 
1.8507192e+2, 2.2371353e+2, -748633.4, -856337.75, -3782.873, 0.0011205487, -0.02196805, -748500.7, -895.71497, 0.0, 10.004015, 9.989739 
1.8509074e+2, 2.3370312e+2, -636246.7, -752097.2, -5612.171, 0.0075488808, -0.030190425, -635975.5, 13731.22, 0.0, 10.005028, 9.989671 
1.8510965e+2, 2.4369164e+2, -541970.9, -683125.4, -5166.6553, 0.009267445, -0.031461287, -541782.0, 10037.198, 0.0, 10.005943, 9.987243 
1.851287e+2, 2.5367883e+2, -433761.22, -581767.6, -4358.0293, 0.0033173847, -0.023756433, -433633.03, 20311.799, 0.0, 10.006709, 9.987098 
1.8514769e+2, 2.6366493e+2, -338041.63, -508657.44, -4899.246, 0.0006735808, -0.023859149, -337901.06, 18180.188, 0.0, 10.007573, 9.984978 
1.8516643e+2, 2.7364966e+2, -225495.25, -404599.13, -4651.2397, 0.0033351288, -0.039779477, -225374.55, 32856.168, 0.0, 10.008611, 9.984887 
1.8518539e+2, 2.8363332e+2, -129660.266, -335349.0, -2427.5386, -0.00010112905, -0.04163429, -129631.62, 30758.93, 0.0, 10.009648, 9.982418 
1.8520463e+2, 2.9361585e+2, -17189.773, -231589.47, -3736.2292, -0.0140142, -0.023007456, -17124.684, 45437.46, 0.0, 10.010692, 9.982305 
1.8522398e+2, 3.0360118e+2, 88439.914, -90412.086, -4219.2827, -0.010171193, -0.013030607, 88539.4, 88539.4, 0.0, 10.011792, 9.98809 
1.8524335e+2, 3.1358916e+2, 105345.91, -82638.95, -1206.262, 0.023350649, -0.020209325, 105353.64, 105353.64, 0.0, 10.012973, 9.988057 
1.9487634e+2, 1.23735085e+2, -1794028.1, -1734376.0, 5011.64, 0.017717455, -0.018055772, -1733957.9, -6564.2866, 0.0, 9.993788, 10.001683 
1.9489606e+2, 1.3373536e+2, -1688531.0, -1646438.5, 67.59812, -0.012058988, -0.040473934, -1646438.4, -17047.506, 0.0, 9.994892, 10.000458 
1.9491607e+2, 1.4373513e+2, -1586080.6, -1563956.1, -426.81195, -0.011659463, -0.032536156, -1563947.9, -32554.816, 0.0, 9.995959, 9.9988785 
1.9493641e+2, 1.5373401e+2, -1473742.0, -1459888.5, -93.09095, -0.0013135854, -0.025388248, -1459887.9, -26483.82, 0.0, 9.996971, 9.998795 
1.9495657e+2, 1.6373181e+2, -1376298.6, -1386386.1, -393.44553, 0.0023493972, -0.021347802, -1376283.3, -40857.598, 0.0, 9.997984, 9.996633 
1.9497657e+2, 1.7372833e+2, -1264059.1, -1282572.4, 1163.5596, -0.003736542, -0.023216227, -1263986.3, -26526.543, 0.0, 9.998999, 9.9965315 
1.949964e+2, 1.8372367e+2, -1170270.8, -1214121.4, -106.92602, -0.0067562093, -0.025455397, -1170270.5, -30765.145, 0.0, 9.999901, 9.99408 
1.9501612e+2, 1.9371757e+2, -1062594.3, -1113057.0, -2265.6833, -0.004692856, -0.03086311, -1062492.6, -20927.547, 0.0, 10.000628, 9.99393 
1.9503596e+2, 2.0371066e+2, -963149.3, -1033715.2, -1769.4923, 0.00088863686, -0.03138354, -963105.0, -19472.06, 0.0, 10.001562, 9.992202 
1.9505611e+2, 2.1370289e+2, -846739.0, -927213.25, 461.76877, 0.011956467, -0.026105125, -846736.4, -1027.2278, 0.0, 10.002834, 9.992162 
1.9507603e+2, 2.2369377e+2, -751204.8, -861575.06, 113.20538, 0.011146819, -0.022876013, -751204.7, -3406.3196, 0.0, 10.004011, 9.989383 
1.950956e+2, 2.3368296e+2, -639794.94, -759324.8, -1815.3632, -0.009138794, -0.025361909, -639767.4, 10137.068, 0.0, 10.005022, 9.989178 
1.9511536e+2, 2.436712e+2, -541307.1, -681641.4, -2197.5227, -0.015115972, -0.029762, -541272.7, 10746.988, 0.0, 10.0059395, 9.987344 
1.9513541e+2, 2.5365838e+2, -432464.66, -578992.44, -1503.6407, 0.0031659435, -0.039216027, -432449.22, 21695.898, 0.0, 10.006704, 9.987288 
1.9515535e+2, 2.6364473e+2, -336903.97, -506299.88, -1181.1993, 0.009431141, -0.031741172, -336895.72, 19383.42, 0.0, 10.007573, 9.985137 
1.9517496e+2, 2.7363008e+2, -224334.16, -402309.44, -820.4599, -0.004623451, 0.00087210303, -224330.38, 34092.344, 0.0, 10.0086155, 9.98504 
1.9519497e+2, 2.836138e+2, -131760.95, -339865.84, 1376.8087, -0.0071061025, 0.0045002075, -131751.84, 28830.648, 0.0, 10.009655, 9.982104 
1.9521557e+2, 2.9359525e+2, -19935.107, -237281.22, 168.00244, 0.01056469, -0.043702893, -19934.977, 42828.9, 0.0, 10.010691, 9.981914 
1.9523601e+2, 3.0358037e+2, 93517.52, -79626.23, 128.13132, 0.012912603, -0.06016597, 93517.62, 93517.62, 0.0, 10.011783, 9.988832 
1.95256e+2, 3.1356972e+2, 111593.914, -69218.766, 3040.992, -0.011541049, -0.024074856, 111645.05, 111645.05, 0.0, 10.012954, 9.988985 
2.048702e+2, 1.2371433e+2, -1793067.6, -1735892.9, -1522.7822, 0.01783919, -0.017204227, -1735852.4, -8255.32, 0.0, 9.993933, 10.001504 
2.0489103e+2, 1.3371448e+2, -1687793.9, -1647451.6, -3437.4124, -0.009788183, -0.036956478, -1647160.8, -17565.326, 0.0, 9.994996, 10.000335 
2.049121e+2, 1.4371416e+2, -1585815.1, -1564551.0, -2741.8523, -0.0077740555, -0.030130232, -1564203.1, -32604.492, 0.0, 9.996005, 9.998812 
2.0493333e+2, 1.5371296e+2, -1474860.5, -1461104.8, -2843.038, -0.0029576316, -0.025849523, -1460540.4, -26929.834, 0.0, 9.996921, 9.998733 
2.0495443e+2, 1.6371073e+2, -1377696.3, -1386101.4, -4105.5903, -0.001658391, -0.023238014, -1376023.8, -40391.516, 0.0, 9.997843, 9.996716 
2.0497543e+2, 1.7370737e+2, -1266326.8, -1282480.6, -4635.198, -0.005114045, -0.024099853, -1265091.3, -27426.162, 0.0, 9.998789, 9.9966345 
2.0499629e+2, 1.8370274e+2, -1171491.1, -1215612.4, -5825.33, -0.005413017, -0.025476038, -1170735.0, -31024.621, 0.0, 9.999854, 9.993995 
2.0501702e+2, 1.9369653e+2, -1056300.6, -1111225.4, -4544.9106, -0.0010057511, -0.030483687, -1055927.1, -14155.82, 0.0, 10.001108, 9.993818 
2.0503786e+2, 2.0368953e+2, -954948.06, -1030198.94, -3530.3862, 0.0042333878, -0.03172572, -954782.8, -10942.873, 0.0, 10.002139, 9.992158 
2.0505892e+2, 2.1368168e+2, -847370.44, -927916.75, -5526.344, 0.010635067, -0.028865127, -846993.06, -1076.3389, 0.0, 10.002807, 9.992121 
2.0507981e+2, 2.2367258e+2, -756771.5, -863775.6, -6823.694, 0.0078089894, -0.025832452, -756338.1, -8332.08, 0.0, 10.003607, 9.989422 
2.051004e+2, 2.3366183e+2, -645022.94, -761232.25, -4772.6304, -0.010174952, -0.025102759, -644827.3, 5284.1147, 0.0, 10.004636, 9.98923 
2.0512116e+2, 2.4365015e+2, -545326.0, -683281.6, -3584.2915, -0.014452549, -0.02727753, -545232.94, 6993.111, 0.0, 10.005648, 9.98737 
2.051421e+2, 2.5363737e+2, -433293.03, -579168.7, -4175.471, 0.0038082015, -0.03606674, -433173.63, 21177.572, 0.0, 10.006636, 9.987306 
2.0516299e+2, 2.6362368e+2, -334958.72, -505566.03, -4207.3955, 0.009685792, -0.030284477, -334855.0, 21630.354, 0.0, 10.007713, 9.985115 
2.0518373e+2, 2.7360898e+2, -219653.1, -400322.56, -4986.975, -0.0053999806, -0.0037381682, -219515.55, 39114.18, 0.0, 10.008945, 9.985011 
2.052048e+2, 2.8359264e+2, -126807.02, -337221.9, -3389.7883, -0.0064741783, -0.00052051246, -126752.42, 34037.2, 0.0, 10.009982, 9.982121 
2.052263e+2, 2.935742e+2, -19877.377, -236920.66, -1865.8953, 0.016347295, -0.03901834, -19861.338, 43108.58, 0.0, 10.010678, 9.98194 
2.0524767e+2, 3.0355942e+2, 89050.33, -81741.21, -1736.4772, 0.01742639, -0.053061828, 89067.98, 89067.98, 0.0, 10.011468, 9.988835 
2.0526859e+2, 3.1354865e+2, 104063.31, -72921.84, -5180.6963, -0.019202061, -0.027927324, 104214.83, 104214.83, 0.0, 10.012434, 9.988975 
2.148638e+2, 1.2369204e+2, -1791974.3, -1733451.4, 2076.7217, -0.016321402, -0.027669352, -1733377.8, -5562.3765, 0.0, 9.993924, 10.001672 
2.1488608e+2, 1.336927e+2, -1686055.5, -1643722.6, 563.91876, -0.004156864, -0.021864166, -1643715.1, -13906.084, 0.0, 9.994988, 10.000588 
2.1490835e+2, 1.4369252e+2, -1586311.3, -1565453.8, 762.4647, 0.015778797, -0.012213905, -1565425.9, -33615.11, 0.0, 9.996001, 9.998751 
2.1493028e+2, 1.5369096e+2, -1475703.9, -1462743.8, 619.6051, -0.0010241861, -0.032665428, -1462714.3, -28888.324, 0.0, 9.996917, 9.998621 
2.1495223e+2, 1.636885e+2, -1378879.5, -1388513.4, -546.7048, -0.008275509, -0.041105274, -1378848.5, -42998.617, 0.0, 9.997843, 9.99655 
2.149743e+2, 1.7368507e+2, -1267582.4, -1285055.6, -1045.3868, 0.0018005387, -0.030066378, -1267520.0, -29636.537, 0.0, 9.99879, 9.996456 
2.1499628e+2, 1.8368058e+2, -1169461.4, -1211410.8, -1244.4974, 0.0073819947, -0.022903088, -1169424.4, -29496.701, 0.0, 9.999852, 9.99428 
2.1501818e+2, 1.9367473e+2, -1053760.9, -1106014.0, 200.87045, 0.00525126, -0.025628656, -1053760.1, -11775.117, 0.0, 10.001108, 9.994171 
2.1503997e+2, 2.0366772e+2, -958251.94, -1037075.56, -771.39557, 0.00037615479, -0.027617738, -958244.4, -14190.652, 0.0, 10.002143, 9.991685 
2.1506155e+2, 2.1365923e+2, -851588.6, -936653.1, -3030.8433, -0.008769111, -0.030407375, -851480.75, -5343.7803, 0.0, 10.002808, 9.991524 
2.1508324e+2, 2.2364992e+2, -753755.5, -857546.44, -3119.347, -0.009799464, -0.030619709, -753661.8, -5433.6665, 0.0, 10.003606, 9.989844 
2.1510518e+2, 2.3363976e+2, -640939.5, -752734.3, -922.8165, 0.002855429, -0.029006211, -640931.9, 9395.881, 0.0, 10.004633, 9.98981 
2.1512705e+2, 2.4362844e+2, -545655.3, -683937.1, 68.33048, 0.009196249, -0.023913411, -545655.25, 6783.351, 0.0, 10.005647, 9.987324 
2.1514875e+2, 2.536157e+2, -434322.72, -581282.0, -529.034, 0.004482926, -0.015205735, -434320.8, 20242.676, 0.0, 10.006634, 9.987161 
2.1517062e+2, 2.6360175e+2, -336297.56, -508261.0, 234.32979, 0.00083958794, -0.019715339, -336297.25, 20402.846, 0.0, 10.007709, 9.98493 
2.1519274e+2, 2.7358627e+2, -221221.67, -403242.78, -384.7413, -0.0006187912, -0.049968507, -221220.86, 37630.633, 0.0, 10.00893, 9.984817 
2.1521486e+2, 2.8356993e+2, -124775.32, -332572.88, -588.3609, -0.00009677312, -0.05313265, -124773.66, 36238.05, 0.0, 10.009963, 9.982447 
2.1523686e+2, 2.935527e+2, -17086.152, -230977.95, 588.4888, 0.0042368122, -0.011730814, -17084.533, 46096.39, 0.0, 10.0106735, 9.9823475 
2.1525902e+2, 3.0353814e+2, 84466.75, -91411.766, 1603.5604, 0.0038201346, 0.0034989044, 84481.37, 84481.37, 0.0, 10.011475, 9.988167 
2.1528119e+2, 3.1352594e+2, 98275.09, -85261.15, -1494.3486, -0.0047720233, -0.030982327, 98287.26, 98287.26, 0.0, 10.012447, 9.988119 
2.2485769e+2, 1.2366885e+2, -1791023.8, -1732184.3, -1788.064, -0.020032512, -0.031592745, -1732130.0, -4087.389, 0.0, 9.993952, 10.001739 
2.2488107e+2, 1.3366967e+2, -1684769.6, -1641398.4, -3765.235, -0.0028669017, -0.02283323, -1641073.9, -11039.37, 0.0, 9.994998, 10.000737 
2.249044e+2, 1.4366958e+2, -1585494.0, -1565059.9, -4048.4373, 0.020524317, -0.014220985, -1564287.0, -32251.47, 0.0, 9.996053, 9.998747 
2.249273e+2, 1.5366802e+2, -1472923.6, -1461702.6, -3661.2139, 0.0006098759, -0.031082524, -1460613.6, -26562.988, 0.0, 9.997116, 9.9985895 
2.249502e+2, 1.636655e+2, -1375821.4, -1388232.6, -4577.8486, -0.008089512, -0.03879045, -1374315.5, -38240.25, 0.0, 9.998098, 9.99644 
2.2497319e+2, 1.7366192e+2, -1265914.1, -1285615.0, -4741.45, 0.0031779304, -0.03193662, -1264832.5, -26721.994, 0.0, 9.998958, 9.996333 
2.2499613e+2, 1.8365735e+2, -1169198.5, -1210486.4, -4780.892, 0.0086356765, -0.026130099, -1168652.1, -28496.96, 0.0, 9.999833, 9.994347 
2.250191e+2, 1.9365165e+2, -1058424.4, -1107174.3, -5144.2695, 0.0037806216, -0.025250897, -1057887.4, -15676.228, 0.0, 10.000739, 9.994265 
2.2504185e+2, 2.0364466e+2, -964966.9, -1040706.56, -6521.887, -0.0024080928, -0.025340648, -964409.4, -20129.973, 0.0, 10.001697, 9.991649 
2.250643e+2, 2.1363613e+2, -852871.7, -937904.44, -4943.452, -0.010706645, -0.029374907, -852585.3, -6221.9395, 0.0, 10.002745, 9.991465 
2.2508693e+2, 2.2362676e+2, -751256.94, -856302.8, -3572.963, -0.009359976, -0.030773113, -751135.56, -2680.5916, 0.0, 10.003773, 9.989845 
2.2510992e+2, 2.336166e+2, -638813.8, -751609.1, -5424.3496, 0.0075983643, -0.02991218, -638553.56, 12000.996, 0.0, 10.00477, 9.989815 
2.2513278e+2, 2.436053e+2, -543944.5, -683047.8, -6740.858, 0.013381234, -0.024867373, -543618.6, 9046.762, 0.0, 10.005758, 9.987324 
2.2515538e+2, 2.5359258e+2, -432848.2, -580544.56, -6361.191, 0.000008436063, -0.015075845, -432574.72, 22215.44, 0.0, 10.006731, 9.987157 
2.2517823e+2, 2.6357862e+2, -337776.16, -509217.38, -4498.279, -0.005301117, -0.020281708, -337658.22, 19268.713, 0.0, 10.007615, 9.984905 
2.252014e+2, 2.735631e+2, -229877.58, -407738.16, -3964.8271, 0.0034596398, -0.053560816, -229789.23, 29289.65, 0.0, 10.008347, 9.984785 
2.2522451e+2, 2.8354672e+2, -134752.58, -336774.06, -4316.592, 0.005499516, -0.0567616, -134660.39, 26578.672, 0.0, 10.009247, 9.9825 
2.2524732e+2, 2.935296e+2, -19904.445, -231570.55, -5510.717, -0.0042171255, -0.01084622, -19761.07, 43646.184, 0.0, 10.010441, 9.982413 
2.2527048e+2, 3.035151e+2, 87060.86, -90017.05, -3388.4153, -0.00523485, 0.0060289674, 87125.67, 87125.67, 0.0, 10.011642, 9.988176 
2.2529396e+2, 3.1350288e+2, 104123.305, -82397.84, -583.56537, 0.009064554, -0.030912012, 104125.13, 104125.13, 0.0, 10.012843, 9.988124 
2.3485191e+2, 1.2364472e+2, -1791372.4, -1732651.8, 1653.1848, 0.005640772, -0.028145531, -1732605.3, -4326.236, 0.0, 9.993941, 10.001709 
2.3487604e+2, 1.3364537e+2, -1684620.6, -1640876.1, 162.42001, -0.006485631, -0.040118575, -1640875.6, -10603.148, 0.0, 9.994989, 10.000773 
2.3490031e+2, 1.4364524e+2, -1585167.1, -1564247.9, -89.18743, 0.005122859, -0.037058428, -1564247.5, -31973.941, 0.0, 9.996046, 9.998803 
2.3492444e+2, 1.5364407e+2, -1472564.6, -1460893.5, 353.57672, 0.00014611706, -0.02117282, -1460882.8, -26597.49, 0.0, 9.997111, 9.998645 
2.3494835e+2, 1.636417e+2, -1376163.8, -1388979.5, -1243.4448, -0.0030747496, -0.015910469, -1376044.3, -39735.484, 0.0, 9.998101, 9.996386 
2.3497209e+2, 1.7363785e+2, -1266395.4, -1286626.0, -1485.4337, -0.0020926034, -0.029632872, -1266286.9, -27940.383, 0.0, 9.99896, 9.996261 
2.3499586e+2, 1.8363306e+2, -1170200.1, -1212547.9, -1377.3641, -0.0028168107, -0.035099424, -1170155.4, -29762.158, 0.0, 9.999832, 9.9942045 
2.3501974e+2, 1.9362724e+2, -1059506.5, -1109423.9, -1697.8724, -0.006539823, -0.029246394, -1059448.9, -16998.59, 0.0, 10.000739, 9.994109 
2.3504351e+2, 2.036204e+2, -962168.25, -1034994.3, -2661.5168, -0.005560857, -0.024970321, -962071.1, -17553.797, 0.0, 10.0017, 9.992034 
2.3506719e+2, 2.1361233e+2, -849509.25, -930977.25, -1015.64813, 0.003431577, -0.025952803, -849496.6, -2900.2864, 0.0, 10.002745, 9.991935 
2.3509088e+2, 2.236031e+2, -754101.4, -862178.4, 173.41551, 0.0076993434, -0.026332922, -754101.06, -5414.2324, 0.0, 10.003772, 9.989443 
2.3511465e+2, 2.3359238e+2, -642707.6, -759581.7, -1663.133, 0.0034916229, -0.027941937, -642684.0, 8108.007, 0.0, 10.004766, 9.98927 
2.351384e+2, 2.435807e+2, -543725.75, -682470.7, -3077.5725, -0.0023221087, -0.029773366, -543657.5, 9248.817, 0.0, 10.005753, 9.987363 
2.35162e+2, 2.5356796e+2, -431952.56, -578562.06, -2716.2551, -0.010289211, -0.03432621, -431902.28, 23128.938, 0.0, 10.006725, 9.987293 
2.3518579e+2, 2.635542e+2, -336924.3, -507395.7, -1677.9674, -0.009562518, -0.031305373, -336907.78, 20258.193, 0.0, 10.007612, 9.985028 
2.3520978e+2, 2.7353927e+2, -228965.8, -405948.44, -1284.414, 0.006109785, -0.018125976, -228956.47, 30356.1, 0.0, 10.008351, 9.984903 
2.352338e+2, 2.83523e+2, -135964.58, -339442.47, -151.38638, 0.009030565, -0.015154302, -135964.47, 25507.81, 0.0, 10.009253, 9.982313 
2.3525771e+2, 2.9350498e+2, -21613.752, -235099.16, -1045.8221, -0.0099588195, -0.033292565, -21608.629, 42039.934, 0.0, 10.01044, 9.982169 
2.3528208e+2, 3.0349037e+2, 91263.375, -81030.26, 1050.2017, -0.010722483, -0.040229417, 91269.77, 91269.77, 0.0, 10.011633, 9.988794 
2.3530695e+2, 3.1347933e+2, 109219.07, -71350.25, 3728.4272, 0.020629685, -0.029152108, 109296.02, 109296.02, 0.0, 10.012825, 9.988887 
2.4484606e+2, 1.2361983e+2, -1788716.6, -1733033.8, -609.9465, 0.015730511, -0.026686555, -1733027.1, -4504.377, 0.0, 9.994187, 10.001561 
2.4487104e+2, 1.3362037e+2, -1683962.3, -1641774.8, -2840.2375, -0.010918494, -0.040155623, -1641584.4, -11066.92, 0.0, 9.995081, 10.000664 
2.4489622e+2, 1.4362013e+2, -1586040.5, -1564427.4, -3906.727, -0.004033574, -0.04261186, -1563742.9, -31223.186, 0.0, 9.995972, 9.998821 
2.4492142e+2, 1.5361904e+2, -1476075.9, -1462168.6, -3632.291, 0.00066864653, -0.022938764, -1461277.1, -26746.375, 0.0, 9.996851, 9.998679 
2.4494638e+2, 1.6361672e+2, -1379600.0, -1390464.1, -4871.0356, 0.001346648, -0.014770199, -1377735.9, -41182.266, 0.0, 9.997855, 9.996399 
2.449711e+2, 1.7361288e+2, -1264528.1, -1285592.1, -4525.018, -0.003938441, -0.026949527, -1263597.3, -25006.123, 0.0, 9.999077, 9.996269 
2.4499579e+2, 1.8360807e+2, -1166635.6, -1211841.8, -4632.6655, -0.006640638, -0.03283269, -1166165.8, -25527.412, 0.0, 10.000116, 9.99411 
2.4502054e+2, 1.9360209e+2, -1058695.6, -1110257.1, -4735.919, -0.0054024043, -0.030966049, -1058264.3, -15567.475, 0.0, 10.000845, 9.993997 
2.4504527e+2, 2.035952e+2, -961299.06, -1033887.56, -5601.7593, -0.0013774968, -0.027964383, -960869.3, -16104.978, 0.0, 10.001725, 9.992092 
2.4507003e+2, 2.1358725e+2, -846935.5, -928772.5, -6669.7954, 0.006967693, -0.025605774, -846395.44, 446.73627, 0.0, 10.002875, 9.992015 
2.4509472e+2, 2.2357805e+2, -753069.94, -862216.3, -6787.9043, 0.008701631, -0.0246564, -752649.4, -3717.0493, 0.0, 10.003862, 9.989389 
2.4511927e+2, 2.3356722e+2, -646017.06, -761982.3, -5369.2783, -0.001111709, -0.028455375, -645769.0, 5269.446, 0.0, 10.004571, 9.989196 
2.4514394e+2, 2.4355549e+2, -548660.5, -685193.25, -4368.6255, -0.0067906496, -0.031929683, -548520.9, 4632.5864, 0.0, 10.0054245, 9.987332 
2.4516869e+2, 2.5354272e+2, -434804.78, -580227.4, -5046.5146, -0.0053577796, -0.037206426, -434629.88, 20648.82, 0.0, 10.006538, 9.987265 
2.4519348e+2, 2.63529e+2, -336324.38, -506248.94, -5360.0137, -0.0024097322, -0.03186906, -336155.47, 21257.643, 0.0, 10.007612, 9.985103 
2.4521823e+2, 2.7351418e+2, -224424.13, -402709.3, -5278.15, 0.0026071696, -0.011706091, -224268.0, 35290.207, 0.0, 10.008614, 9.984994 
2.4524315e+2, 2.8349793e+2, -131736.8, -338035.38, -3351.711, 0.0030666606, -0.0091145765, -131682.36, 30035.287, 0.0, 10.009567, 9.982252 
2.4526823e+2, 2.9347974e+2, -22131.01, -236281.69, -3086.7048, -0.0037688208, -0.039638795, -22086.53, 41809.31, 0.0, 10.01044, 9.982084 
2.452936e+2, 3.0346507e+2, 87155.24, -81819.6, -1928.0646, -0.002586756, -0.050578885, 87177.234, 87177.234, 0.0, 10.011292, 9.9889 
2.453193e+2, 3.1345427e+2, 99969.14, -74271.02, -3562.3323, 0.011970478, -0.029169966, 100041.94, 100041.94, 0.0, 10.012115, 9.989021 
2.5484017e+2, 1.2359419e+2, -1790916.4, -1737350.5, 2240.9421, 0.006230395, -0.027678015, -1737257.0, -8482.851, 0.0, 9.994181, 10.001268 
2.5486603e+2, 1.3359462e+2, -1686113.0, -1645918.9, 499.6011, -0.01738693, -0.022468882, -1645912.6, -15142.6875, 0.0, 9.99507, 10.000384 
2.5489217e+2, 1.4359418e+2, -1586294.3, -1564713.9, -631.3995, -0.0077267615, -0.030114891, -1564695.4, -31921.154, 0.0, 9.995962, 9.998804 
2.5491828e+2, 1.5359284e+2, -1476001.6, -1461841.1, -317.37927, 0.0009338223, -0.036329865, -1461834.0, -27046.674, 0.0, 9.996842, 9.998703 
2.5494426e+2, 1.6359049e+2, -1379077.8, -1389321.1, -429.23996, 0.0034571472, -0.03582988, -1379059.8, -42249.45, 0.0, 9.997851, 9.996475 
2.549702e+2, 1.7358698e+2, -1263940.9, -1284344.1, 130.58987, -0.0032318458, -0.024161581, -1263940.1, -25095.23, 0.0, 9.999075, 9.996352 
2.5499594e+2, 1.8358229e+2, -1166918.1, -1212450.0, -1624.0203, -0.003965931, -0.019408392, -1166860.4, -25969.5, 0.0, 10.000118, 9.994065 
2.550215e+2, 1.9357613e+2, -1059130.9, -1111184.5, -1986.9147, 0.00569203, -0.030423239, -1059055.1, -16103.953, 0.0, 10.000846, 9.993931 
2.550471e+2, 2.0356901e+2, -963133.94, -1037714.9, -1482.8055, 0.008476076, -0.034403596, -963104.44, -18083.637, 0.0, 10.001727, 9.991827 
2.5507283e+2, 2.135608e+2, -849043.9, -933087.75, -2301.231, -0.0009419034, -0.028325453, -848980.94, -1879.6329, 0.0, 10.002873, 9.991719 
2.5509843e+2, 2.2355157e+2, -751085.8, -858020.2, -3897.0996, -0.0071074595, -0.025646936, -750943.94, -1752.2317, 0.0, 10.003859, 9.9896755 
2.551238e+2, 2.335411e+2, -643301.0, -756385.56, -2745.8455, -0.0071689812, -0.031410623, -643234.4, 8059.9404, 0.0, 10.004573, 9.989574 
2.5514942e+2, 2.4352957e+2, -549300.94, -686577.94, -452.96756, -0.0018101888, -0.031790994, -549299.44, 4107.911, 0.0, 10.005427, 9.987234 
2.551754e+2, 2.5351676e+2, -436120.1, -582866.4, -874.9793, 0.0129285855, -0.024830772, -436114.88, 19418.258, 0.0, 10.006535, 9.987084 
2.5520125e+2, 2.6350293e+2, -336238.2, -505865.06, -1591.7391, 0.014453931, -0.022385655, -336223.25, 21445.467, 0.0, 10.007604, 9.985129 
2.5522673e+2, 2.734879e+2, -224151.3, -401869.8, -1594.4834, -0.0072071184, -0.031584423, -224136.98, 35678.89, 0.0, 10.008602, 9.985054 
2.5525257e+2, 2.834716e+2, -131446.53, -337221.53, -118.78984, -0.01254749, -0.03539335, -131446.45, 30528.838, 0.0, 10.009559, 9.982309 
2.5527883e+2, 2.9345378e+2, -21713.018, -235434.58, 52.79284, 0.01226005, -0.031848207, -21713.004, 42436.773, 0.0, 10.010442, 9.982139 
2.553051e+2, 3.0343914e+2, 84815.23, -86867.79, 1044.061, 0.016867539, -0.02878423, 84821.57, 84821.57, 0.0, 10.011301, 9.988546 
2.5533116e+2, 3.1342775e+2, 97059.39, -80425.63, -508.72375, -0.016031846, -0.030249786, 97060.84, 97060.84, 0.0, 10.01212, 9.988593 
2.6483417e+2, 1.2356734e+2, -1793480.0, -1738636.1, -3033.3752, -0.0014017109, -0.033840057, -1738468.9, -9431.736, 0.0, 9.994003, 10.001262 
2.6486123e+2, 1.3356793e+2, -1683407.5, -1644499.8, -2093.0303, -0.013205861, -0.014519969, -1644387.4, -13355.804, 0.0, 9.995244, 10.000392 
2.648884e+2, 1.4356741e+2, -1581004.3, -1563516.6, -2857.5286, -0.0004949933, -0.02408025, -1563061.5, -30024.928, 0.0, 9.996376, 9.99868 
2.6491532e+2, 1.5356585e+2, -1470224.3, -1460714.3, -3974.1729, -0.00082185265, -0.036772612, -1459272.1, -24220.453, 0.0, 9.997305, 9.998549 
2.649422e+2, 1.6356339e+2, -1374804.1, -1387371.6, -4956.2246, -0.0014036455, -0.040054712, -1373084.8, -36008.87, 0.0, 9.998143, 9.996461 
2.6496917e+2, 1.7355987e+2, -1267164.4, -1285794.9, -5002.5215, -0.00073856727, -0.027536828, -1265906.1, -26795.738, 0.0, 9.998845, 9.996359 
2.649959e+2, 1.8355522e+2, -1172406.3, -1214902.9, -6852.2993, 0.0014214998, -0.020931304, -1171328.6, -30172.63, 0.0, 9.99973, 9.994081 
2.650224e+2, 1.9354911e+2, -1057568.0, -1110230.5, -6611.771, 0.005339084, -0.028182333, -1056750.6, -13534.741, 0.0, 10.00094, 9.993944 
2.6504892e+2, 2.0354198e+2, -960381.4, -1037349.4, -5389.0, 0.005025035, -0.031846438, -960005.9, -14720.049, 0.0, 10.001951, 9.991739 
2.6507556e+2, 2.135336e+2, -853428.5, -936412.06, -4870.207, -0.0026294885, -0.031376753, -853143.6, -5775.7837, 0.0, 10.002621, 9.9916115 
2.651021e+2, 2.2352432e+2, -755911.56, -859653.6, -6130.589, -0.006699582, -0.029851178, -755550.5, -6091.7275, 0.0, 10.003493, 9.989737 
2.6512843e+2, 2.3351401e+2, -640427.0, -753990.1, -7026.205, -0.004889537, -0.029033186, -639993.94, 11566.018, 0.0, 10.004722, 9.98966 
2.6515502e+2, 2.4350254e+2, -544297.44, -684077.75, -5841.72, 0.0002329199, -0.026734915, -544053.75, 9618.451, 0.0, 10.005762, 9.987237 
2.651819e+2, 2.5348967e+2, -437034.63, -583402.94, -5115.943, 0.010566009, -0.024074335, -436856.03, 18942.389, 0.0, 10.006471, 9.987073 
2.6520866e+2, 2.634758e+2, -341190.2, -508386.78, -4984.738, 0.011227378, -0.025389213, -341041.72, 16892.71, 0.0, 10.007265, 9.985115 
2.6523516e+2, 2.7346072e+2, -229821.66, -404745.4, -5463.586, -0.0048214677, -0.036956605, -229651.17, 30430.826, 0.0, 10.008214, 9.985039 
2.65262e+2, 2.8344443e+2, -135946.19, -339701.7, -4262.1484, -0.0081452, -0.039237097, -135857.06, 26384.44, 0.0, 10.009256, 9.98228 
2.6528928e+2, 2.9342666e+2, -21498.307, -235697.77, -4654.8604, 0.011064647, -0.027565308, -21397.197, 43018.42, 0.0, 10.010466, 9.982103 
2.6531646e+2, 3.0341202e+2, 87373.21, -85825.125, -4027.613, 0.013927595, -0.021828214, 87466.82, 87466.82, 0.0, 10.01148, 9.988527 
2.6534328e+2, 3.1340054e+2, 97247.6, -80463.59, -3030.9006, -0.012928824, -0.030007113, 97299.28, 97299.28, 0.0, 10.012133, 9.988582 
2.748281e+2, 1.2353927e+2, -1791579.4, -1734365.3, 918.33655, -0.00970786, -0.044931363, -1734350.5, -5038.2603, 0.0, 9.993989, 10.0015545 
2.7485663e+2, 1.3354024e+2, -1681416.0, -1640131.1, 2591.4888, 0.0013602464, -0.01663234, -1639969.1, -8666.282, 0.0, 9.995233, 10.00069 
2.7488494e+2, 1.4353982e+2, -1582793.8, -1567045.5, 786.0836, 0.017173782, -0.025057148, -1567006.4, -33699.27, 0.0, 9.99637, 9.998441 
2.7491257e+2, 1.5353805e+2, -1472647.9, -1465626.0, -489.35815, -0.006179993, -0.024172861, -1465592.0, -30267.787, 0.0, 9.997301, 9.998215 
2.7494022e+2, 1.6353534e+2, -1375566.6, -1388943.3, -2229.478, -0.015369667, -0.026953723, -1375204.9, -37853.99, 0.0, 9.998144, 9.996351 
2.7496806e+2, 1.7353155e+2, -1267724.9, -1286852.0, -2353.213, 0.0025570889, -0.036920577, -1267439.6, -28051.695, 0.0, 9.998842, 9.996285 
2.749957e+2, 1.8352681e+2, -1171890.5, -1213775.8, -2530.4683, 0.0084570795, -0.037368804, -1171738.3, -30303.86, 0.0, 9.999727, 9.994156 
2.7502322e+2, 1.93521e+2, -1056862.9, -1108743.5, -1994.2913, -0.0074531576, -0.024554871, -1056786.4, -13294.944, 0.0, 10.000937, 9.994044 
2.750507e+2, 2.0351402e+2, -959791.0, -1036152.8, -2580.3313, -0.012900485, -0.020615568, -959703.9, -14144.11, 0.0, 10.001954, 9.9918165 
2.750782e+2, 2.1350558e+2, -852817.8, -935267.8, -2366.8813, 0.00054151885, -0.0348474, -852749.94, -5107.5015, 0.0, 10.002626, 9.991684 
2.7510574e+2, 2.2349624e+2, -756930.06, -861841.0, -1815.0577, 0.007948922, -0.037360217, -756898.7, -7164.733, 0.0, 10.003497, 9.989583 
2.7513328e+2, 2.3348589e+2, -641857.5, -756818.4, -2386.685, 0.004231888, -0.021573717, -641807.94, 10027.687, 0.0, 10.004715, 9.989468 
2.7516076e+2, 2.4347438e+2, -543696.1, -682641.94, -2925.936, -0.0019062228, -0.016699215, -543634.56, 10313.747, 0.0, 10.005754, 9.987335 
2.7518815e+2, 2.5346145e+2, -436020.38, -581233.75, -2506.976, -0.011823706, -0.03416716, -435977.1, 20097.75, 0.0, 10.00647, 9.987219 
2.752157e+2, 2.6344758e+2, -341505.6, -509063.22, -1624.2346, -0.011496505, -0.040417884, -341489.84, 16720.78, 0.0, 10.007266, 9.985066 
2.752435e+2, 2.7343264e+2, -230346.28, -405917.8, -1981.3473, 0.007435739, -0.029396178, -230323.92, 30033.15, 0.0, 10.008218, 9.984954 
2.7527148e+2, 2.834164e+2, -136666.88, -341194.22, 13.275654, 0.013152718, -0.02229954, -136666.88, 25849.852, 0.0, 10.009255, 9.982175 
2.7529955e+2, 2.9339835e+2, -22518.676, -237427.9, -142.05913, -0.005717045, -0.026121497, -22518.582, 42174.86, 0.0, 10.010448, 9.98199 
2.7532774e+2, 3.0338368e+2, 89009.34, -81996.11, -1302.2294, -0.009409383, -0.028132878, 89019.26, 89019.26, 0.0, 10.011463, 9.988795 
2.7535576e+2, 3.1337258e+2, 99877.17, -75369.25, -755.45166, 0.015426822, -0.02885076, 99880.42, 99880.42, 0.0, 10.012152, 9.988919 
2.8482231e+2, 1.2351049e+2, -1784615.8, -1731148.3, -2242.0847, -0.008686046, -0.039818686, -1731054.5, -1460.1149, 0.0, 9.99446, 10.001539 
2.8485185e+2, 1.335113e+2, -1682128.0, -1641343.9, -2985.4683, 0.0015487488, -0.018819984, -1641126.5, -9540.242, 0.0, 9.9952135, 10.000611 
2.8488114e+2, 1.4351076e+2, -1587007.1, -1568907.5, -5784.0596, 0.0150643485, -0.036553137, -1567217.0, -33625.332, 0.0, 9.99607, 9.998452 
2.8490978e+2, 1.5350915e+2, -1475307.4, -1466576.5, -4423.8945, -0.004797142, -0.023909237, -1464726.9, -29119.299, 0.0, 9.997101, 9.998242 
2.849384e+2, 1.6350648e+2, -1376095.6, -1389779.1, -4797.7026, -0.012627562, -0.020637339, -1374581.1, -36947.395, 0.0, 9.998128, 9.996298 
2.8496704e+2, 1.7350258e+2, -1263629.1, -1285605.4, -4982.3813, 0.002342751, -0.035173815, -1262552.3, -22880.371, 0.0, 9.999148, 9.996218 
2.8499562e+2, 1.8349776e+2, -1166943.5, -1211610.1, -5052.6, 0.0067208027, -0.038762987, -1166379.1, -24660.06, 0.0, 10.000069, 9.994133 
2.8502408e+2, 1.9349192e+2, -1058633.9, -1109798.0, -5328.8887, -0.0082925735, -0.02639062, -1058084.8, -14308.333, 0.0, 10.000821, 9.994023 
2.850525e+2, 2.0348495e+2, -963384.2, -1037625.0, -6894.7637, -0.012445609, -0.021546884, -962749.3, -16904.68, 0.0, 10.001691, 9.991838 
2.8508094e+2, 2.1347658e+2, -850240.8, -933700.4, -7082.9854, 0.00234932, -0.032270618, -849644.0, -1717.2557, 0.0, 10.002784, 9.991709 
2.8510937e+2, 2.2346723e+2, -753619.4, -861009.3, -6152.322, 0.009952091, -0.034205858, -753268.06, -3249.7107, 0.0, 10.003751, 9.989511 
2.851379e+2, 2.3345673e+2, -645643.6, -759636.56, -5947.8716, 0.0041817697, -0.023172826, -645334.06, 6787.2075, 0.0, 10.004493, 9.989378 
2.851663e+2, 2.4344517e+2, -549390.5, -684887.1, -6516.347, -0.0026967444, -0.021095946, -549077.9, 5156.666, 0.0, 10.005337, 9.987379 
2.8519458e+2, 2.534323e+2, -436895.3, -580900.9, -6734.8965, -0.010911026, -0.03767528, -436581.0, 19779.361, 0.0, 10.0063715, 9.987284 
2.8522307e+2, 2.6341847e+2, -339939.94, -509386.7, -5877.629, -0.009783632, -0.04171386, -339736.28, 18759.705, 0.0, 10.007414, 9.984967 
2.8525186e+2, 2.7340344e+2, -227546.7, -406025.97, -6481.103, 0.0074304803, -0.026030308, -227311.67, 33331.633, 0.0, 10.008467, 9.98482 
2.8528076e+2, 2.8338715e+2, -134586.38, -338500.06, -4439.7056, 0.011716465, -0.018634398, -134489.77, 28313.336, 0.0, 10.009321, 9.982322 
2.8530967e+2, 2.9336923e+2, -30147.506, -238807.73, -2579.1963, -0.0071581663, -0.029869935, -30115.63, 34862.88, 0.0, 10.00982, 9.982194 
2.8533882e+2, 3.0335468e+2, 78889.6, -87054.75, -1948.4021, -0.009756795, -0.033701114, 78912.47, 78912.47, 0.0, 10.010768, 9.988778 
2.853681e+2, 3.1334358e+2, 105205.47, -73489.94, -3823.8684, 0.016809376, -0.025756713, 105287.26, 105287.26, 0.0, 10.012542, 9.988854 
2.9481688e+2, 1.2348102e+2, -1787373.0, -1736490.9, 96.10065, -0.00071470946, -0.017022988, -1736490.8, -6607.3403, 0.0, 9.99445, 10.001179 
2.9484692e+2, 1.3348112e+2, -1685870.1, -1648582.1, -259.52277, -0.013941298, -0.021176415, -1648580.4, -16698.186, 0.0, 9.995196, 10.000125 
2.94877e+2, 1.4348018e+2, -1585323.0, -1565024.3, -2134.1848, -0.008654478, -0.059225906, -1564802.3, -30911.18, 0.0, 9.996052, 9.998722 
2.9490694e+2, 1.5347908e+2, -1472603.5, -1460724.5, -540.1818, 0.001953534, -0.036294095, -1460700.0, -24797.855, 0.0, 9.9970875, 9.998644 
2.9493672e+2, 1.6347677e+2, -1376131.4, -1389713.4, -946.73804, 0.0055625252, -0.021302179, -1376065.8, -38140.887, 0.0, 9.998121, 9.996303 
2.9496616e+2, 1.7347291e+2, -1264175.5, -1286603.3, -1101.5498, -0.0021072952, -0.022387287, -1264121.6, -24159.012, 0.0, 9.999142, 9.99615 
2.9499555e+2, 1.8346803e+2, -1167838.0, -1213395.9, -2051.7043, -0.0049438053, -0.024964636, -1167745.8, -25735.215, 0.0, 10.000067, 9.99401 
2.95025e+2, 1.9346185e+2, -1059542.9, -1111706.9, -2462.8801, 0.0011802973, -0.033546403, -1059426.9, -15355.858, 0.0, 10.000822, 9.993891 
2.9505438e+2, 2.0345473e+2, -963543.9, -1038087.1, -2937.1008, 0.004391713, -0.034578018, -963428.4, -17287.604, 0.0, 10.001698, 9.9918 
2.950837e+2, 2.1344653e+2, -850358.2, -933975.44, -2924.911, 0.0019191024, -0.02401792, -850256.0, -2034.8654, 0.0, 10.002786, 9.991685 
2.9511303e+2, 2.2343722e+2, -753628.9, -860947.7, -3165.323, -0.001416541, -0.020651096, -753535.56, -3223.253, 0.0, 10.003748, 9.989513 
2.9514226e+2, 2.334265e+2, -645615.5, -759519.94, -3166.8386, -0.0057400255, -0.033304494, -645527.5, 6889.7915, 0.0, 10.004491, 9.989384 
2.9517162e+2, 2.4341486e+2, -549419.94, -684965.5, -2816.832, -0.0035645624, -0.039163202, -549361.44, 5169.786, 0.0, 10.005339, 9.98737 
2.9520115e+2, 2.534022e+2, -436972.03, -581022.56, -2870.5508, 0.010474917, -0.03520951, -436914.84, 19740.615, 0.0, 10.006371, 9.987272 
2.9523072e+2, 2.6338837e+2, -341024.34, -511488.9, -2007.5535, 0.013349185, -0.030043695, -341000.7, 17790.25, 0.0, 10.007407, 9.984823 
2.952602e+2, 2.7337307e+2, -228921.5, -408614.8, -2528.9243, -0.004616076, -0.02644467, -228885.9, 32055.082, 0.0, 10.008456, 9.984645 
2.9528984e+2, 2.8335676e+2, -132094.64, -333123.06, -2304.5842, -0.0113964565, -0.027115146, -132068.22, 31032.7, 0.0, 10.009315, 9.98269 
2.9531962e+2, 2.9333928e+2, -26605.676, -231730.38, -945.5999, 0.0038781737, -0.038286615, -26601.316, 38670.266, 0.0, 10.009835, 9.982668 
2.953498e+2, 3.033249e+2, 77221.64, -90796.91, 3686.8777, 0.009032409, -0.038477235, 77302.51, 77302.51, 0.0, 10.010778, 9.988511 
2.9538044e+2, 3.1331357e+2, 101809.26, -79767.27, 2788.6282, -0.006948059, -0.020937586, 101852.07, 101852.07, 0.0, 10.0125065, 9.988436 
3.0481142e+2, 1.23450354e+2, -1786113.1, -1736056.5, -4076.6858, 0.0046133124, -0.020209942, -1735726.6, -5542.826, 0.0, 9.9945345, 10.001163 
3.0484223e+2, 1.3345037e+2, -1683158.3, -1649013.1, -1675.755, -0.013655883, -0.017372897, -1648931.1, -16747.672, 0.0, 9.995449, 9.99997 
3.048731e+2, 1.4344932e+2, -1581134.8, -1562932.0, -2675.8462, -0.013968069, -0.05910849, -1562546.9, -28353.28, 0.0, 9.996328, 9.998726 
3.0490407e+2, 1.5344822e+2, -1471503.0, -1459852.5, -3850.7976, 0.0026693307, -0.037634194, -1458694.8, -22490.299, 0.0, 9.997143, 9.99867 
3.0493477e+2, 1.6344592e+2, -1377669.0, -1390564.0, -5716.019, 0.008518364, -0.023001663, -1375500.0, -37272.938, 0.0, 9.998015, 9.996289 
3.049652e+2, 1.7344208e+2, -1266162.6, -1287768.4, -5574.37, -0.003861204, -0.022271117, -1264809.1, -24544.336, 0.0, 9.99901, 9.996128 
3.0499554e+2, 1.8343715e+2, -1169240.5, -1214845.0, -6597.0117, -0.0075570857, -0.024223596, -1168305.4, -25992.178, 0.0, 9.999999, 9.9939375 
3.0502594e+2, 1.9343087e+2, -1057633.4, -1111661.4, -6705.859, 0.004028012, -0.033973984, -1056813.5, -12438.847, 0.0, 10.000985, 9.993809 
3.050562e+2, 2.0342372e+2, -960293.94, -1036260.8, -6542.3413, 0.00874221, -0.035240356, -959734.6, -13289.942, 0.0, 10.001902, 9.991821 
3.0508646e+2, 2.1341558e+2, -851261.75, -933969.94, -6061.672, 0.00049381837, -0.023692321, -850819.9, -2295.2896, 0.0, 10.002697, 9.991724 
3.0511662e+2, 2.2340627e+2, -756728.44, -862758.44, -6435.403, -0.0048391595, -0.021182032, -756339.25, -5723.536, 0.0, 10.003543, 9.989484 
3.0514675e+2, 2.3339544e+2, -646018.75, -760198.4, -6855.2896, -0.00470813, -0.037888374, -645608.6, 7112.8525, 0.0, 10.004479, 9.989337 
3.0517706e+2, 2.4338378e+2, -548493.44, -685324.44, -6340.359, -0.000084541585, -0.04273042, -548200.3, 6635.6353, 0.0, 10.005429, 9.987296 
3.0520755e+2, 2.5337112e+2, -436855.16, -581872.56, -6816.3535, 0.012224802, -0.028664133, -436535.47, 20424.65, 0.0, 10.006411, 9.987189 
3.0523807e+2, 2.6335734e+2, -341444.47, -510180.1, -5755.737, 0.0133679295, -0.02165763, -341248.34, 17847.043, 0.0, 10.007308, 9.984955 
3.0526844e+2, 2.7334204e+2, -233463.61, -408806.8, -3952.0928, -0.0059660324, -0.031585768, -233374.58, 27870.252, 0.0, 10.008051, 9.984824 
3.0529898e+2, 2.833257e+2, -138245.39, -338110.97, -3848.0466, -0.012120057, -0.037122745, -138171.34, 25233.48, 0.0, 10.008973, 9.98251 
3.0532968e+2, 2.9330814e+2, -22709.143, -232695.69, -7420.32, 0.0066426536, -0.03643854, -22447.258, 43129.668, 0.0, 10.010219, 9.9824095 
3.0536076e+2, 3.032937e+2, 83727.02, -86064.58, -4130.7783, 0.012147281, -0.033306576, 83827.46, 83827.46, 0.0, 10.01115, 9.988648 
3.0539235e+2, 3.132824e+2, 88701.12, -83585.9, -804.4163, -0.009079906, -0.029828906, 88704.87, 88704.87, 0.0, 10.01149, 9.988656 
3.1480595e+2, 1.234185e+2, -1783979.5, -1731315.1, -1066.6936, 0.0037379216, -0.050312147, -1731293.6, -798.00183, 0.0000000000000806617, 9.994523, 10.001485 
3.1483787e+2, 1.334191e+2, -1682167.8, -1646618.8, 1744.8512, 0.0023515383, -0.0072082225, -1646533.4, -14043.398, 0.00000000000005243424, 9.995436, 10.000135 
3.1486958e+2, 1.4341816e+2, -1583253.9, -1567034.6, 409.04358, -0.0010302946, -0.03517662, -1567024.4, -32525.188, 0.000000000000028332263, 9.996318, 9.998449 
3.1490114e+2, 1.5341657e+2, -1474206.6, -1465158.6, -815.36066, -0.0040259687, -0.027453365, -1465085.8, -28571.076, 0.000000000000012064798, 9.997131, 9.998312 
3.1493264e+2, 1.6341391e+2, -1378016.1, -1391128.1, -2110.0632, -0.006103875, -0.025625398, -1377685.0, -39144.27, 0.000000000000003878589, 9.998009, 9.996251 
3.149642e+2, 1.7340998e+2, -1266090.4, -1287477.8, -1806.3584, -0.0043690093, -0.03491336, -1265938.9, -25359.832, 0.0000000000000009180906, 9.999003, 9.996148 
3.1499562e+2, 1.8340506e+2, -1169403.3, -1215100.5, -2851.5261, -0.0023044683, -0.03661638, -1169226.0, -26598.64, 0.00000000000000015841597, 9.999995, 9.993919 
3.1502688e+2, 1.9339895e+2, -1057873.5, -1112062.0, -2931.4236, -0.0004825374, -0.027974106, -1057715.4, -13027.978, 0.000000000000000019869674, 10.00098, 9.99378 
3.1505805e+2, 2.0339186e+2, -959802.25, -1035178.7, -3384.475, -0.00040156997, -0.023896106, -959650.6, -12893.755, 0.0000000000000000018107616, 10.0019, 9.991892 
3.150891e+2, 2.1338362e+2, -850560.6, -932572.8, -3043.2446, -0.0029911196, -0.030943487, -850447.8, -1610.3146, 0.0000000000000000001198895, 10.002701, 9.991815 
3.1512022e+2, 2.2337426e+2, -757068.94, -863524.3, -3019.1821, -0.0021298854, -0.035488434, -756983.4, -6054.3594, 0.0000000000000000000057675156, 10.003546, 9.989428 
3.1515133e+2, 2.3336352e+2, -646633.8, -761464.0, -3320.558, 0.0051940447, -0.03753678, -646537.9, 6496.503, 0.0, 10.004478, 9.989248 
3.1518257e+2, 2.4335182e+2, -549510.0, -687367.94, -2688.5488, 0.0060938136, -0.032691583, -549457.56, 5691.5396, 0.0, 10.005427, 9.987154 
3.152138e+2, 2.5333902e+2, -438034.78, -584138.9, -3129.0813, -0.0049061044, -0.018386763, -437967.78, 19307.082, 0.0, 10.006404, 9.987034 
3.1524515e+2, 2.633252e+2, -338857.1, -504608.25, -2885.4202, -0.00894913, -0.016442016, -338806.9, 20603.006, 0.0, 10.0073, 9.985336 
3.1527656e+2, 2.733103e+2, -230009.64, -401622.4, -1340.1617, 0.00062277366, -0.041113403, -229999.19, 31556.525, 0.0, 10.008052, 9.9853115 
3.1530812e+2, 2.8329393e+2, -142890.86, -347763.53, 316.44095, 0.0055523664, -0.04850657, -142890.38, 20825.336, 0.0, 10.008973, 9.981845 
3.1533983e+2, 2.932757e+2, -29082.22, -245835.28, -2721.8044, 0.0015812762, -0.025621027, -29048.047, 36846.69, 0.0, 10.010215, 9.981508 
3.153718e+2, 3.0326098e+2, 87043.695, -79069.93, -2262.3577, 0.0003608448, -0.019508986, 87074.5, 87074.5, 0.0, 10.011148, 9.989126 
3.1540403e+2, 3.132501e+2, 94116.1, -72362.586, 322.97873, 0.0038955326, -0.049971573, 94116.73, 94116.73, 0.0, 10.011495, 9.989421 
3.248003e+2, 1.2338605e+2, -1785111.5, -1730246.3, -3516.7134, -0.0030392837, -0.0589926, -1730021.8, 791.7009, 0.0000000000023454196, 9.9943695, 10.001629 
3.248333e+2, 1.3338672e+2, -1682809.0, -1647638.3, -2338.6143, 0.0071180277, -0.0034198968, -1647483.4, -14676.235, 0.0000000000015241749, 9.995417, 10.000069 
3.2486597e+2, 1.4338571e+2, -1582214.3, -1568251.0, -4541.8467, 0.0022307176, -0.029098844, -1566903.8, -32086.44, 0.0000000000008233425, 9.996455, 9.998294 
3.2489845e+2, 1.533839e+2, -1469839.4, -1464949.9, -4441.19, -0.0057060462, -0.02683548, -1462325.0, -25490.064, 0.00000000000035051592, 9.997504, 9.998139 
3.2493085e+2, 1.6338107e+2, -1372167.6, -1388941.0, -5243.8413, -0.009160631, -0.0284163, -1370663.3, -31800.768, 0.00000000000011265747, 9.998429, 9.996191 
3.249633e+2, 1.7337713e+2, -1264266.0, -1287017.9, -5486.881, -0.0027281041, -0.037075277, -1263011.9, -22110.713, 0.000000000000026661206, 9.999139, 9.996108 
3.249956e+2, 1.833722e+2, -1170454.1, -1215289.0, -6433.718, 0.00093191257, -0.037995733, -1169549.1, -26599.738, 0.000000000000004599458, 9.999904, 9.993945 
3.2502773e+2, 1.9336613e+2, -1060497.5, -1112903.3, -6023.415, -0.001630494, -0.028645186, -1059814.1, -14805.09, 0.0000000000000005767878, 10.000777, 9.993816 
3.250598e+2, 2.03359e+2, -963547.06, -1038272.4, -6870.852, -0.0029675544, -0.024966704, -962920.56, -15841.719, 0.000000000000000052554126, 10.001692, 9.991777 
3.250918e+2, 2.1335058e+2, -851792.8, -934809.44, -8286.582, -0.0018443954, -0.033945825, -850973.75, -1812.6052, 0.0000000000000000034789587, 10.00268, 9.991666 
3.2512385e+2, 2.2334118e+2, -755015.06, -861853.75, -8805.331, 0.0007508913, -0.037469015, -754294.25, -3041.0261, 0.00000000000000000016733108, 10.003651, 9.989483 
3.2515588e+2, 2.3333059e+2, -644347.44, -759240.5, -7790.4946, 0.0058212625, -0.033562284, -643821.56, 9535.534, 0.0, 10.0045805, 9.989345 
3.2518795e+2, 2.4331896e+2, -549209.3, -687175.4, -6158.4443, 0.004839793, -0.028025592, -548935.0, 6536.1836, 0.0, 10.00544, 9.987156 
3.2522005e+2, 2.5330603e+2, -441340.75, -585897.2, -5645.7515, -0.0073596295, -0.022784697, -441120.6, 16477.25, 0.0, 10.006177, 9.98702 
3.252523e+2, 2.632922e+2, -343546.5, -507695.78, -6008.844, -0.009931596, -0.023774255, -343326.8, 16406.662, 0.0, 10.007008, 9.985262 
3.2528463e+2, 2.7327728e+2, -231213.48, -403201.97, -8447.652, 0.005265707, -0.0391861, -230799.55, 31079.871, 0.0, 10.008005, 9.985219 
3.2531717e+2, 2.832609e+2, -142266.52, -346921.34, -6417.3325, 0.011303123, -0.042755604, -142065.48, 21973.994, 0.0, 10.008985, 9.981889 
3.253499e+2, 2.932427e+2, -32669.002, -246673.73, -2776.9248, 0.0000052187884, -0.026990715, -32632.975, 33585.445, 0.0, 10.00992, 9.98159 
3.2538274e+2, 3.0322802e+2, 82440.28, -80421.28, -1235.1687, -0.003222456, -0.02337761, 82449.65, 82449.65, 0.0, 10.010787, 9.989208 
3.2541555e+2, 3.1321725e+2, 94991.59, -71061.875, -3567.5771, 0.008235488, -0.046543665, 95068.2, 95068.2, 0.0, 10.011507, 9.989503 
3.3479455e+2, 1.23353034e+2, -1785996.0, -1731324.1, 224.05571, -0.018924225, -0.04352676, -1731323.3, -186.08315, 0.00000000005167391, 9.99434, 10.001565 
3.3482864e+2, 1.3335322e+2, -1685412.6, -1652367.1, 1480.5306, -0.00086547644, -0.0061173327, -1652300.9, -19165.643, 0.00000000003357157, 9.995391, 9.999756 
3.3486235e+2, 1.4335193e+2, -1582682.6, -1568832.6, -696.6789, -0.005903987, -0.04186073, -1568797.6, -33649.5, 0.000000000018130754, 9.996439, 9.998259 
3.34896e+2, 1.5335016e+2, -1469835.3, -1464689.8, -518.5776, -0.0034107564, -0.03614312, -1464638.0, -27472.535, 0.000000000007717037, 9.997494, 9.998159 
3.3492935e+2, 1.6334738e+2, -1372830.6, -1390210.4, -2419.6245, -0.0016407226, -0.031228364, -1372500.1, -33307.453, 0.0000000000024798213, 9.9984255, 9.996102 
3.3496246e+2, 1.7334343e+2, -1265109.0, -1288609.8, -2827.2488, 0.0003224836, -0.02868384, -1264773.6, -23542.166, 0.00000000000058676854, 9.999134, 9.995999 
3.349955e+2, 1.8333846e+2, -1170015.8, -1214269.3, -3220.1418, 0.001169339, -0.028266005, -1169782.6, -26502.781, 0.00000000000010121049, 9.999898, 9.994015 
3.3502853e+2, 1.9333233e+2, -1059773.1, -1111375.9, -2654.792, -0.00068705925, -0.03578677, -1059637.0, -14296.988, 0.000000000000012690283, 10.000775, 9.993918 
3.3506152e+2, 2.033251e+2, -965647.75, -1042653.5, -3160.1956, -0.0008221408, -0.038298186, -965518.3, -18107.361, 0.0000000000000011561161, 10.001695, 9.991474 
3.3509454e+2, 2.1331644e+2, -854488.3, -940390.2, -4487.6797, 0.0025424142, -0.03306483, -854254.5, -4758.665, 0.000000000000000076521916, 10.002681, 9.9912815 
3.351275e+2, 2.2330698e+2, -753909.7, -859486.5, -5222.29, 0.0025642212, -0.027586915, -753652.0, -2063.307, 0.0000000000000000036800285, 10.003648, 9.989643 
3.3516037e+2, 2.3329662e+2, -642499.9, -755305.4, -4285.3486, -0.0034258706, -0.025814127, -642337.3, 11352.839, 0.0, 10.004576, 9.989613 
3.3519334e+2, 2.4328512e+2, -548283.75, -685133.25, -3340.2415, -0.004984706, -0.028106505, -548202.25, 7600.4253, 0.0, 10.005435, 9.987294 
3.3522636e+2, 2.5327215e+2, -440535.7, -584222.2, -2977.682, 0.0022012447, -0.040725484, -440474.0, 17455.664, 0.0, 10.006178, 9.98713 
3.3525947e+2, 2.6325816e+2, -346938.34, -514783.47, -2513.487, 0.0069508785, -0.0426495, -346900.72, 13166.041, 0.0, 10.00701, 9.984773 
3.3529267e+2, 2.7324292e+2, -235504.23, -412134.75, -4659.147, 0.0067097303, -0.027359223, -235381.42, 26834.809, 0.0, 10.008007, 9.984603 
3.353261e+2, 2.8322658e+2, -137635.17, -337169.88, -2864.7236, 0.004763446, -0.021740051, -137594.05, 26782.41, 0.0, 10.00898, 9.982554 
3.3535984e+2, 2.9320893e+2, -26386.426, -233137.88, 533.44025, 0.0006566545, -0.03893085, -26385.049, 40164.12, 0.0, 10.009903, 9.98252 
3.3539355e+2, 3.031946e+2, 80340.78, -84394.875, 1280.1155, -0.00087430846, -0.04297787, 80350.73, 80350.73, 0.0, 10.010773, 9.988937 
3.3542702e+2, 3.1318378e+2, 91826.37, -78439.17, -1084.1223, 0.0015888079, -0.023424368, 91833.27, 91833.27, 0.0, 10.011545, 9.988974 
3.447891e+2, 1.2331885e+2, -1779276.9, -1728032.1, -4173.4546, -0.018539278, -0.03301655, -1727694.4, 3777.8894, 0.00000000081250584, 9.9947815, 10.001569 
3.4482417e+2, 1.3331865e+2, -1682604.5, -1653694.0, -2720.8416, -0.0018351966, -0.012335988, -1653440.1, -19966.064, 0.00000000052773436, 9.995688, 9.999516 
3.4485877e+2, 1.4331716e+2, -1581621.6, -1568349.3, -4888.976, -0.012604044, -0.051868547, -1566742.8, -31254.158, 0.00000000028494548, 9.996506, 9.998253 
3.4489334e+2, 1.5331551e+2, -1473870.4, -1466143.3, -4659.4336, -0.0013600691, -0.038164698, -1463953.9, -26449.13, 0.0000000001212577, 9.99719, 9.998201 
3.4492764e+2, 1.6331281e+2, -1378808.3, -1393486.6, -6138.2905, 0.0042319144, -0.028364168, -1376579.6, -37048.203, 0.00000000003895854, 9.998028, 9.996068 
3.449616e+2, 1.7330877e+2, -1264810.3, -1289013.0, -6136.535, 0.00025471646, -0.02685296, -1263343.3, -21772.355, 0.000000000009216846, 9.99917, 9.99595 
3.4499553e+2, 1.8330377e+2, -1165687.6, -1212716.6, -6889.6875, -0.0019310648, -0.027272832, -1164699.1, -21079.146, 0.0000000000015895714, 10.000211, 9.993963 
3.450294e+2, 1.9329758e+2, -1056069.5, -1110159.1, -7559.7603, -0.0013133909, -0.03470481, -1055032.9, -9352.287, 0.00000000000019928297, 10.001046, 9.993863 
3.4506333e+2, 2.032903e+2, -962931.6, -1041362.9, -7671.8813, 0.0005024744, -0.03742045, -962188.25, -14436.368, 0.0000000000000181529, 10.001873, 9.991469 
3.4509727e+2, 2.1328165e+2, -854034.2, -940117.0, -6173.5884, 0.0041265227, -0.03357077, -853593.7, -3756.9126, 0.0000000000000012013685, 10.002703, 9.991285 
3.451311e+2, 2.2327216e+2, -756151.9, -861369.2, -6055.7417, 0.003511567, -0.02853357, -755804.5, -3874.556, 0.00000000000000005776772, 10.003521, 9.9895735 
3.451648e+2, 2.3326172e+2, -646853.4, -758404.44, -7682.449, -0.0051841065, -0.025179286, -646326.75, 7705.375, 0.0, 10.004313, 9.989523 
3.451986e+2, 2.4325015e+2, -551952.8, -687179.75, -8592.081, -0.006578763, -0.028068395, -551409.06, 4736.2896, 0.0, 10.005188, 9.9872675 
3.4523258e+2, 2.532371e+2, -440015.6, -584127.94, -9153.432, 0.0061835223, -0.045415852, -439436.53, 18836.354, 0.0, 10.006212, 9.987113 
3.452666e+2, 2.632231e+2, -343983.8, -512868.38, -7506.9, 0.0118865045, -0.048042666, -343650.78, 16759.158, 0.0, 10.007182, 9.984815 
3.4530064e+2, 2.7320802e+2, -234411.25, -410963.56, -5045.123, 0.0031558087, -0.025976814, -234267.2, 28291.123, 0.0, 10.008046, 9.984662 
3.4533492e+2, 2.8319174e+2, -139966.7, -337785.22, -2900.1584, -0.0009427212, -0.01786067, -139924.19, 24793.633, 0.0, 10.008791, 9.982602 
3.4536946e+2, 2.931741e+2, -34755.32, -236722.55, -5624.4937, 0.005220452, -0.040486284, -34598.81, 32291.746, 0.0, 10.009299, 9.982559 
3.4540412e+2, 3.0315977e+2, 72266.61, -88278.96, -5935.139, 0.0067512817, -0.04638244, 72485.72, 72485.72, 0.0, 10.010208, 9.988934 
3.454387e+2, 3.1314898e+2, 97002.4, -76003.37, -4592.2554, -0.002890475, -0.021903621, 97124.21, 97124.21, 0.0, 10.011894, 9.988966 
3.5478407e+2, 1.23283505e+2, -1779280.6, -1727609.1, -646.16254, -0.0029151875, -0.026668003, -1727601.0, 4217.618, 0.000000009469599, 9.994767, 10.001599 
3.5481992e+2, 1.3328299e+2, -1684262.1, -1656580.3, 511.458, 0.003949302, -0.022288525, -1656570.9, -22747.299, 0.0000000061492664, 9.995668, 9.999325 
3.5485518e+2, 1.4328142e+2, -1581757.0, -1568207.8, -2310.044, -0.019044254, -0.059121884, -1567824.8, -31985.912, 0.0000000033196064, 9.99649, 9.998266 
3.5489053e+2, 1.5327996e+2, -1473677.8, -1465343.4, -2171.9055, -0.0007408328, -0.032876335, -1464811.3, -26957.979, 0.0000000014124153, 9.997175, 9.99826 
3.549257e+2, 1.6327731e+2, -1378847.4, -1393266.8, -2174.7393, 0.0069235717, -0.019490538, -1378526.5, -38647.285, 0.0000000004537274, 9.998014, 9.996085 
3.5496074e+2, 1.7327316e+2, -1264874.3, -1288938.1, -1789.4744, -0.0043214154, -0.03161462, -1264741.9, -22821.943, 0.00000000010733056, 9.999162, 9.9959545 
3.5499567e+2, 1.8326807e+2, -1166992.5, -1215267.4, -3523.7026, -0.009928237, -0.035169233, -1166736.8, -22766.73, 0.00000000001850869, 10.000204, 9.993789 
3.5503045e+2, 1.9326183e+2, -1057609.6, -1113239.1, -4349.198, -0.0047783297, -0.025651908, -1057271.6, -11240.521, 0.0000000000023202033, 10.001042, 9.993652 
3.550652e+2, 2.032546e+2, -960949.06, -1037290.6, -4496.077, -0.0005426234, -0.022519534, -960685.2, -12583.18, 0.00000000000021133044, 10.001875, 9.991742 
3.5509995e+2, 2.1324614e+2, -851327.2, -934575.06, -3021.5605, 0.00177043, -0.035106014, -851217.7, -1033.0184, 0.000000000000013984623, 10.002706, 9.991658 
3.551346e+2, 2.2323665e+2, -758161.9, -865510.7, -3066.7004, 0.0019732409, -0.039730936, -758074.3, -5796.748, 0.0000000000000006723836, 10.00352, 9.989288 
3.5516915e+2, 2.3322585e+2, -649839.5, -764594.0, -4663.2285, -0.0015534492, -0.031407427, -649650.3, 4733.1445, 0.0, 10.004313, 9.989098 
3.5520387e+2, 2.4321403e+2, -553245.5, -689847.1, -4835.816, -0.0019187247, -0.02800822, -553074.5, 3424.8987, 0.0, 10.005188, 9.987082 
3.5523877e+2, 2.5320092e+2, -441083.22, -586170.56, -5233.6094, 0.0041619446, -0.037968557, -440894.66, 17733.137, 0.0, 10.006206, 9.986973 
3.5527375e+2, 2.6318705e+2, -340506.97, -505366.3, -4190.594, 0.004456197, -0.041065294, -340400.5, 20363.13, 0.0, 10.007171, 9.985329 
3.5530862e+2, 2.7317244e+2, -229981.7, -401435.8, -1966.2437, -0.006544956, -0.033800326, -229959.16, 32947.703, 0.0, 10.008033, 9.985315 
3.5534367e+2, 2.831563e+2, -143476.13, -344947.25, -1019.40173, -0.0077704033, -0.02918832, -143470.97, 21593.826, 0.0, 10.008788, 9.98211 
3.5537884e+2, 2.9313812e+2, -39502.758, -247334.4, -3848.3477, 0.011835354, -0.0333001, -39431.523, 27811.6, 0.0, 10.0093355, 9.981812 
3.5541442e+2, 3.0312347e+2, 74327.19, -84780.04, -398.13562, 0.017215608, -0.03586411, 74328.18, 74328.18, 0.0, 10.0102415, 9.989152 
3.5545057e+2, 3.1311285e+2, 99443.09, -69918.37, 1664.692, -0.008515922, -0.038221683, 99459.45, 99459.45, 0.0, 10.01185, 9.989398 
3.647789e+2, 1.2324725e+2, -1775907.6, -1725894.0, -3169.8977, -0.0033256656, -0.03059579, -1725693.9, 6480.007, 0.00000008268434, 9.994986, 10.001603 
3.6481562e+2, 1.332466e+2, -1686073.1, -1659482.4, -2660.2715, 0.010968295, -0.023521444, -1659218.8, -25038.543, 0.00000005368276, 9.995626, 9.999143 
3.6485168e+2, 1.4324503e+2, -1582479.9, -1568525.4, -4962.847, -0.016552117, -0.049696617, -1566940.5, -30744.852, 0.000000028975498, 9.99643, 9.998269 
3.648879e+2, 1.5324351e+2, -1466695.4, -1461458.5, -4855.247, -0.004067416, -0.03222443, -1458560.6, -20350.17, 0.000000012326782, 9.997619, 9.998303 
3.6492395e+2, 1.6324082e+2, -1370642.0, -1390071.8, -5489.1304, 0.001641364, -0.024314288, -1369198.5, -28961.646, 0.000000003959453, 9.998599, 9.996013 
3.649599e+2, 1.732366e+2, -1265333.6, -1290262.3, -6032.2974, -0.004323519, -0.034462743, -1263950.6, -21672.373, 0.0000000009365381, 9.999169, 9.995854 
3.6499572e+2, 1.8323141e+2, -1171957.0, -1218146.4, -7688.833, -0.0068537495, -0.03652823, -1170710.8, -26381.807, 0.0000000001614897, 9.999879, 9.993745 
3.650314e+2, 1.9322515e+2, -1060084.0, -1114772.0, -7208.2334, -0.0036640535, -0.027313942, -1059149.9, -12759.372, 0.000000000020242613, 10.000881, 9.993621 
3.65067e+2, 2.0321791e+2, -961865.94, -1037613.8, -7774.7925, -0.0015164841, -0.023610324, -961076.1, -12614.713, 0.0000000000018436379, 10.001799, 9.991754 
3.6510253e+2, 2.132095e+2, -853431.94, -935423.94, -9010.0, -0.0014750331, -0.033565372, -852453.56, -1909.836, 0.00000000000012199398, 10.002546, 9.991671 
3.6513802e+2, 2.232e+2, -760222.7, -866780.1, -9440.714, -0.00035462776, -0.038295966, -759392.7, -6756.021, 0.0000000000000058651187, 10.003385, 9.989259 
3.6517355e+2, 2.331891e+2, -648709.8, -764419.7, -8240.271, 0.0030282193, -0.035673384, -648125.94, 6617.5537, 0.0, 10.0044, 9.989061 
3.6520916e+2, 2.4317726e+2, -550970.7, -688489.0, -6224.8374, 0.0046715504, -0.032734424, -550689.5, 6170.0547, 0.0, 10.005323, 9.987105 
3.6524487e+2, 2.531643e+2, -442809.7, -586622.56, -5404.0117, 0.0025208083, -0.032821562, -442606.94, 16379.859, 0.0, 10.0060625, 9.987009 
3.6528066e+2, 2.6315048e+2, -345821.1, -508065.84, -5292.933, -0.00037323765, -0.032599293, -345648.63, 15473.574, 0.0, 10.006806, 9.985316 
3.6531642e+2, 2.7313575e+2, -236950.02, -405062.25, -7782.325, -0.00461791, -0.034911428, -236590.52, 26675.938, 0.0, 10.007559, 9.985289 
3.6535236e+2, 2.8311953e+2, -147540.16, -347556.84, -7801.7427, -0.0038229045, -0.034505207, -147236.31, 18188.84, 0.0, 10.008527, 9.982049 
3.6538842e+2, 2.9310134e+2, -31412.936, -244119.84, -6023.3613, 0.007265519, -0.03189021, -31242.504, 36361.027, 0.0, 10.009911, 9.981751 
3.6542493e+2, 3.030867e+2, 82915.38, -80883.29, -1137.8112, 0.011783236, -0.031236578, 82923.29, 82923.29, 0.0, 10.010834, 9.989133 
3.6546195e+2, 3.13076e+2, 84454.47, -77323.266, -2176.9568, 0.00089061726, -0.038002055, 84483.76, 84483.76, 0.0, 10.010818, 9.989382 
3.747737e+2, 1.2321007e+2, -1776680.1, -1726677.8, -157.51582, -0.023563838, -0.045606535, -1726677.3, 5860.76, 0.0000005532481, 9.994954, 10.00156 
3.7481135e+2, 1.3320948e+2, -1687760.8, -1662240.8, -496.8535, 0.018450879, -0.015746161, -1662231.1, -27687.002, 0.00000035914545, 9.9956, 9.998964 
3.7484822e+2, 1.43208e+2, -1582893.3, -1568838.6, -957.9813, -0.005943901, -0.022548394, -1568773.6, -32214.875, 0.00000019382824, 9.9964075, 9.998255 
3.7488544e+2, 1.532062e+2, -1466721.9, -1461163.9, -380.25604, -0.012498233, -0.03627827, -1461138.0, -22561.822, 0.00000008245099, 9.997604, 9.998326 
3.749224e+2, 1.6320328e+2, -1371952.8, -1392622.9, -3035.4595, -0.013296091, -0.043505285, -1371516.1, -30911.717, 0.000000026481976, 9.998595, 9.995838 
3.749591e+2, 1.7319903e+2, -1266970.5, -1293466.0, -3955.437, -0.0008562375, -0.0357141, -1266392.6, -23746.283, 0.0000000062635124, 9.999166, 9.995635 
3.7499574e+2, 1.8319383e+2, -1171418.8, -1216900.9, -4218.2153, 0.006140763, -0.03125106, -1171030.9, -26333.607, 0.0000000010799891, 9.999872, 9.993829 
3.7503234e+2, 1.9318753e+2, -1059049.0, -1112579.5, -3334.32, 0.00081785436, -0.039304893, -1058842.1, -12083.168, 0.00000000013537126, 10.000878, 9.993768 
3.7506878e+2, 2.0318022e+2, -963621.5, -1041265.3, -4735.243, -0.00411999, -0.040340446, -963333.8, -14503.271, 0.000000000012328863, 10.001801, 9.9915 
3.7510502e+2, 2.1317168e+2, -855802.1, -940372.4, -6134.4795, -0.0069945166, -0.029230908, -855359.5, -4445.17, 0.0000000000008157841, 10.002549, 9.991329 
3.7514138e+2, 2.2316217e+2, -758685.5, -863646.3, -5737.945, -0.005028616, -0.024771864, -758372.75, -5365.1284, 0.00000000000003921943, 10.0033865, 9.989468 
3.75178e+2, 2.3315142e+2, -646416.44, -759591.94, -4369.8945, 0.006690893, -0.03766608, -646248.0, 8864.648, 0.000000000000000000006929764, 10.0043955, 9.989389 
3.7521458e+2, 2.431398e+2, -549588.2, -685408.2, -3310.5422, 0.010832317, -0.04148779, -549507.56, 7718.9697, 0.0000000000000000000002423796, 10.005316, 9.987316 
3.752509e+2, 2.5312713e+2, -441621.5, -583944.4, -2748.6958, -0.00036518677, -0.029800639, -441568.44, 17782.441, 0.0, 10.006055, 9.987191 
3.7528744e+2, 2.631133e+2, -349267.66, -515118.56, -2607.5588, -0.004803891, -0.022690237, -349226.7, 12259.925, 0.0, 10.0068035, 9.984832 
3.753241e+2, 2.730979e+2, -241266.0, -414246.94, -4976.3433, 0.005485525, -0.030106984, -241122.95, 22514.564, 0.0, 10.00757, 9.984651 
3.75361e+2, 2.8308138e+2, -145197.22, -342881.16, -3027.8423, 0.0074591823, -0.034581117, -145150.86, 20648.299, 0.0, 10.008535, 9.982359 
3.753982e+2, 2.9306367e+2, -28104.572, -236571.34, -926.5988, -0.0076230294, -0.03522169, -28100.455, 39872.33, 0.0, 10.009883, 9.982275 
3.754356e+2, 3.0304927e+2, 80901.7, -84356.71, -482.7802, -0.008669036, -0.03187882, 80903.11, 80903.11, 0.0, 10.010809, 9.988902 
3.75473e+2, 3.1303832e+2, 82311.07, -82834.03, -2422.2004, 0.019070711, -0.024208106, 82346.59, 82346.59, 0.0, 10.010869, 9.9889765 
3.8476852e+2, 1.2317202e+2, -1779589.9, -1727213.6, -3286.3672, -0.024108985, -0.0447822, -1727008.3, 5902.6934, 0.0000029192024, 9.994705, 10.00164 
3.8480708e+2, 1.3317138e+2, -1683009.8, -1659390.1, -3195.0132, 0.018920982, -0.02410877, -1658965.5, -24048.227, 0.0000018948215, 9.995887, 9.999015 
3.848448e+2, 1.4316998e+2, -1576973.1, -1567617.8, -2994.9714, -0.009356023, -0.019258121, -1566741.1, -29809.887, 0.0000010225369, 9.996873, 9.998106 
3.84883e+2, 1.5316798e+2, -1468704.1, -1464256.3, -3989.773, -0.012017847, -0.03386533, -1461912.5, -22961.867, 0.0000004349407, 9.997555, 9.998133 
3.8492087e+2, 1.6316493e+2, -1376454.1, -1395369.4, -7860.596, -0.010559669, -0.04229725, -1373614.0, -32633.543, 0.00000013969013, 9.998304, 9.995786 
3.8495833e+2, 1.7316063e+2, -1265901.6, -1293163.6, -7547.0884, 0.00030010426, -0.035381887, -1263951.9, -20929.305, 0.000000033038678, 9.999238, 9.995616 
3.8499573e+2, 1.8315542e+2, -1167776.0, -1215370.0, -6817.9854, 0.0061477963, -0.031743504, -1166818.5, -21744.822, 0.0000000056966374, 10.000123, 9.993806 
3.8503322e+2, 1.9314907e+2, -1058670.4, -1112636.8, -7153.6416, 0.00052314234, -0.04025404, -1057738.3, -10602.641, 0.0000000007140435, 10.000904, 9.993745 
3.8507056e+2, 2.0314173e+2, -964875.06, -1042433.8, -8906.697, -0.0034476845, -0.04157003, -963865.4, -14657.866, 0.00000000006503118, 10.001731, 9.991447 
3.8510767e+2, 2.1313313e+2, -854559.94, -940427.75, -8339.84, -0.0036908758, -0.031333797, -853757.44, -2465.394, 0.000000000004303039, 10.002655, 9.991269 
3.8514486e+2, 2.231236e+2, -756232.06, -862025.5, -7026.914, -0.0019755438, -0.026575143, -755767.3, -2381.7773, 0.00000000000020687176, 10.003526, 9.989508 
3.8518232e+2, 2.3311296e+2, -647302.94, -759391.25, -7555.2627, 0.003001655, -0.03649413, -646795.94, 8693.764, 0.00000000000000000020104626, 10.004299, 9.989444 
3.852197e+2, 2.4310137e+2, -553207.2, -687053.2, -8704.768, 0.004735216, -0.038986273, -552643.44, 4959.7246, 0.000000000000000000007029948, 10.0050535, 9.987324 
3.8525683e+2, 2.5308868e+2, -445586.66, -585907.1, -9640.065, 0.0001687132, -0.029094992, -444927.47, 14800.267, 0.0, 10.005775, 9.987185 
3.8529423e+2, 2.630748e+2, -351360.53, -516416.4, -8089.763, -0.000046429952, -0.02389322, -350964.97, 10898.812, 0.0, 10.006661, 9.984805 
3.8533184e+2, 2.7305937e+2, -236932.8, -412470.72, -6167.789, 0.008243927, -0.033071823, -236716.36, 27298.738, 0.0, 10.00787, 9.984626 
3.8536966e+2, 2.8304288e+2, -141174.81, -340649.03, -3057.7886, 0.008744462, -0.037033804, -141127.94, 25048.74, 0.0, 10.008791, 9.982387 
3.854077e+2, 2.9302523e+2, -39228.082, -241526.8, -4351.6865, -0.0058267782, -0.032273162, -39134.516, 29214.984, 0.0, 10.00909, 9.982313 
3.854459e+2, 3.0301088e+2, 67195.6, -89974.664, -4759.397, -0.0071197627, -0.028349912, 67339.59, 67339.59, 0.0, 10.009814, 9.988989 
3.854841e+2, 3.1299993e+2, 91109.766, -77375.87, -3399.1733, 0.017106472, -0.03129075, 91178.32, 91178.32, 0.0, 10.011412, 9.989088 
3.947634e+2, 1.2313314e+2, -1779020.8, -1724966.8, 1824.9362, -0.0063326433, -0.025338206, -1724905.3, 8386.901, 0.000012531762, 9.994659, 10.001808 
3.948029e+2, 1.3313231e+2, -1681566.5, -1655717.4, 1030.7463, 0.011007999, -0.049116768, -1655676.4, -20376.457, 0.0000081336, 9.995858, 9.999272 
3.948415e+2, 1.4313097e+2, -1579322.4, -1572033.6, -316.03595, -0.029570922, -0.04143146, -1572020.0, -34706.86, 0.0000043890395, 9.996858, 9.997809 
3.9488065e+2, 1.5312888e+2, -1471922.6, -1470455.1, -1586.3219, -0.004007422, -0.025003737, -1469441.0, -30107.078, 0.0000018668253, 9.997538, 9.997716 
3.9491937e+2, 1.6312574e+2, -1376139.1, -1394438.6, -4637.478, 0.009116745, -0.019434944, -1375031.0, -33666.168, 0.0000005995586, 9.998294, 9.99585 
3.9495754e+2, 1.731214e+2, -1264768.5, -1290632.5, -4035.3264, -0.002115811, -0.033323463, -1264153.5, -20746.291, 0.00000014180438, 9.99923, 9.995788 
3.949957e+2, 1.8311614e+2, -1168766.8, -1217254.0, -3793.481, -0.00885599, -0.038450893, -1168471.8, -23013.082, 0.000000024450705, 10.000116, 9.993678 
3.9503407e+2, 1.9310978e+2, -1060107.1, -1115512.3, -4152.8555, -0.0060493913, -0.03046526, -1059797.5, -12276.691, 0.0000000030648393, 10.000902, 9.9935465 
3.9507234e+2, 2.0310241e+2, -963903.44, -1040382.2, -5470.4424, -0.0014933086, -0.027426578, -963514.1, -13921.208, 0.00000000027913746, 10.00173, 9.991584 
3.951104e+2, 2.1309382e+2, -853024.06, -937254.56, -4785.436, 0.0064618518, -0.03892339, -852753.06, -1075.7452, 0.00000000001847093, 10.002655, 9.991482 
3.951485e+2, 2.2308426e+2, -757127.1, -863860.8, -3998.7576, 0.006723513, -0.04257409, -756977.56, -3206.6924, 0.0000000000008880364, 10.003526, 9.989379 
3.9518648e+2, 2.3307362e+2, -648824.8, -762424.1, -4615.382, -0.009156464, -0.03251852, -648637.6, 7237.557, 0.000000000000000004402075, 10.004294, 9.989237 
3.9522454e+2, 2.4306193e+2, -554613.94, -689826.3, -5946.1636, -0.014709965, -0.025750756, -554352.94, 3636.8384, 0.00000000000000000015389045, 10.00505, 9.987133 
3.9526263e+2, 2.530489e+2, -446835.97, -588591.3, -6905.7603, 0.002468216, -0.030296642, -446500.34, 13617.232, 0.0, 10.005782, 9.986994 
3.9530098e+2, 2.6303497e+2, -348633.44, -510825.06, -3905.1216, 0.011558444, -0.034774024, -348539.47, 13714.595, 0.0, 10.006663, 9.985182 
3.9533967e+2, 2.7302003e+2, -233700.31, -405189.7, -1714.4302, 0.0026959507, -0.042892355, -233683.17, 30717.072, 0.0, 10.007845, 9.98513 
3.9537838e+2, 2.8300378e+2, -143179.5, -344058.5, -1506.5679, -0.0008484698, -0.041710015, -143168.2, 23391.045, 0.0, 10.008761, 9.982164 
3.9541695e+2, 2.929859e+2, -41839.637, -247203.88, -3439.0298, 0.008976709, -0.024010122, -41782.063, 26952.742, 0.0, 10.009107, 9.981913 
3.954559e+2, 3.0297145e+2, 70003.33, -84668.35, 243.15967, 0.01130744, -0.021077387, 70003.7, 70003.7, 0.0, 10.009838, 9.989335 
3.9549533e+2, 3.129607e+2, 94367.234, -69820.89, 2473.4907, -0.005571956, -0.055110186, 94404.484, 94404.484, 0.0, 10.011378, 9.9896145 
4.0475845e+2, 1.2309338e+2, -1769085.1, -1722628.0, 1280.8081, -0.0026161794, -0.018389592, -1722592.8, 11089.093, 0.00004485904, 9.995431, 10.001585 
4.047989e+2, 1.3309231e+2, -1677236.1, -1654617.4, -3538.3901, 0.010726336, -0.05670755, -1654076.8, -18384.887, 0.00002911354, 9.996187, 9.999179 
4.0483832e+2, 1.4309096e+2, -1579260.8, -1573077.9, -6699.1626, -0.03235948, -0.040544696, -1568791.3, -31086.098, 0.000015709626, 9.996901, 9.997709 
4.0487826e+2, 1.5308873e+2, -1471131.9, -1471079.3, -5820.6255, -0.0008394143, -0.026703168, -1465284.9, -25557.672, 0.000006681798, 9.997625, 9.997625 
4.0491778e+2, 1.6308555e+2, -1373663.6, -1392948.6, -6700.0156, 0.014137396, -0.021773769, -1371564.4, -29805.768, 0.0000021459712, 9.998441, 9.995875 
4.0495685e+2, 1.730813e+2, -1261165.0, -1288337.5, -6867.289, -0.0037067216, -0.031373687, -1259528.0, -15727.94, 0.00000050756734, 9.999444, 9.995833 
4.049959e+2, 1.8307607e+2, -1165941.6, -1216534.3, -7844.2305, -0.013419102, -0.03467866, -1164753.3, -18901.889, 0.00000008752133, 10.00033, 9.993617 
4.05035e+2, 1.9306958e+2, -1059644.1, -1116266.1, -7702.9956, -0.0064179283, -0.0306397, -1058614.9, -10700.12, 0.000000010971236, 10.000969, 9.993457 
4.0507403e+2, 2.0306215e+2, -964819.2, -1040914.3, -8494.367, 0.00061474554, -0.0292494, -963882.5, -13894.91, 0.0000000009993062, 10.001662, 9.991575 
4.0511298e+2, 2.1305357e+2, -855417.75, -938330.7, -9233.523, 0.006944368, -0.03702629, -854401.9, -2330.3184, 0.00000000006613187, 10.002479, 9.9914875 
4.0515187e+2, 2.2304404e+2, -761018.1, -866024.1, -9455.148, 0.0068013314, -0.039443094, -760173.56, -6008.5083, 0.0000000000031798247, 10.003263, 9.989352 
4.0519065e+2, 2.3303331e+2, -653599.94, -765124.44, -8988.78, -0.0068580145, -0.034326617, -652880.1, 3390.0515, 0.0000000000000000688154, 10.003976, 9.989201 
4.052295e+2, 2.4302156e+2, -557879.0, -691651.4, -8434.472, -0.011476155, -0.030560676, -557349.25, 1036.049, 0.0000000000000000024051838, 10.004827, 9.987112 
4.0526852e+2, 2.5300854e+2, -444305.5, -587578.9, -8094.356, 0.0026560694, -0.033021707, -443849.66, 16663.465, 0.0, 10.005953, 9.986979 
4.053077e+2, 2.6299465e+2, -345178.44, -508073.78, -5625.597, 0.009248944, -0.035398617, -344984.38, 17664.732, 0.0, 10.006846, 9.985277 
4.0534714e+2, 2.7297986e+2, -241665.88, -407669.13, -6195.799, -0.00086172787, -0.04205034, -241434.94, 23359.06, 0.0, 10.007231, 9.98525 
4.0538666e+2, 2.8296372e+2, -155412.75, -349428.16, -6631.4, -0.003131789, -0.041085325, -155186.36, 11765.761, 0.0, 10.007887, 9.982212 
4.0542608e+2, 2.9294583e+2, -41138.266, -246501.2, -5744.8296, 0.012849099, -0.027048437, -40977.688, 28150.0, 0.0, 10.009128, 9.981948 
4.0546593e+2, 3.0293143e+2, 75039.734, -81014.74, -465.1904, 0.017587546, -0.02455957, 75041.125, 75041.125, 0.0, 10.0101185, 9.9894495 
4.0550625e+2, 3.1292087e+2, 83021.36, -73886.19, -765.51013, -0.00503075, -0.05144387, 83025.09, 83025.09, 0.0, 10.010526, 9.989741 
4.147538e+2, 1.23052776e+2, -1774301.4, -1732619.1, 5170.025, -0.01708874, -0.025253354, -1731987.4, 2092.1958, 0.0001357749, 9.995402, 10.000916 
4.1479513e+2, 1.330514e+2, -1681011.0, -1661750.6, -1120.2377, 0.017241795, -0.045681413, -1661685.8, -25592.494, 0.00008811505, 9.996165, 9.998699 
4.148354e+2, 1.4304993e+2, -1578837.1, -1571645.5, -4227.605, -0.017752225, -0.014946356, -1569691.4, -31583.777, 0.000047546542, 9.996878, 9.997813 
4.1487586e+2, 1.5304756e+2, -1469661.3, -1467551.6, -3212.2986, -0.0038482477, -0.03929688, -1465225.4, -25094.814, 0.000020223571, 9.997605, 9.997871 
4.149161e+2, 1.6304436e+2, -1374032.5, -1393354.9, -3237.4827, 0.0022526805, -0.050684895, -1373504.5, -31342.521, 0.0000064954993, 9.998427, 9.99585 
4.149563e+2, 1.7304033e+2, -1261882.3, -1289612.3, -3111.7368, -0.0058653527, -0.029969634, -1261537.4, -17335.82, 0.0000015364569, 9.999436, 9.995745 
4.1499627e+2, 1.8303517e+2, -1165967.1, -1216494.4, -5238.7813, -0.009002818, -0.020030165, -1165429.8, -19177.604, 0.00000026496838, 10.000327, 9.993618 
4.1503602e+2, 1.9302846e+2, -1059521.0, -1115989.8, -5264.6553, -0.0022631541, -0.04036448, -1059034.4, -10716.659, 0.000000033220672, 10.00097, 9.993472 
4.1507572e+2, 2.0302089e+2, -965925.56, -1043256.7, -5496.2197, 0.0009321642, -0.046745062, -965536.9, -15145.079, 0.0000000030265355, 10.001666, 9.99141 
4.151154e+2, 2.1301241e+2, -856790.25, -941277.4, -6063.0156, -0.0034895514, -0.026085785, -856357.4, -3882.1472, 0.00000000020034616, 10.002483, 9.991281 
4.1515505e+2, 2.2300287e+2, -760490.4, -865019.06, -6663.459, -0.0034637267, -0.017879829, -760067.3, -5498.5947, 0.000000000009636878, 10.003268, 9.989414 
4.1519475e+2, 2.3299198e+2, -652553.44, -763142.5, -6274.6377, 0.0067122914, -0.04109475, -652198.56, 4476.585, 0.0000000000000007946489, 10.003984, 9.989328 
4.1523457e+2, 2.4298021e+2, -556905.6, -689703.6, -4491.6157, 0.010421781, -0.051604465, -556753.9, 2036.3634, 0.000000000000000027769294, 10.004829, 9.987239 
4.1527444e+2, 2.5296748e+2, -443689.06, -585848.25, -3869.353, -0.00022195638, -0.036975104, -443583.8, 17331.426, 0.0, 10.005933, 9.987102 
4.1531444e+2, 2.6295373e+2, -346651.7, -510500.0, -3745.3257, -0.0071643936, -0.026516054, -346566.13, 16483.879, 0.0, 10.006823, 9.98512 
4.1535434e+2, 2.7293873e+2, -243284.8, -410990.63, -4910.7837, -0.0051892186, -0.031628888, -243141.13, 22055.969, 0.0, 10.007233, 9.98502 
4.1539457e+2, 2.829225e+2, -153289.64, -345311.28, -2755.8877, -0.0014027007, -0.035308227, -153250.1, 14105.901, 0.0, 10.007901, 9.982482 
4.1543514e+2, 2.9290482e+2, -38439.895, -240694.77, -1313.6793, 0.0063558696, -0.03906504, -38431.363, 31097.904, 0.0, 10.00912, 9.982343 
4.1547602e+2, 3.0289063e+2, 74152.086, -82494.89, 1334.1163, 0.012039818, -0.037292235, 74163.45, 74163.45, 0.0, 10.010108, 9.989347 
4.1551697e+2, 3.1288025e+2, 81615.31, -77041.34, 422.7504, 0.011028579, -0.026350781, 81616.44, 81616.44, 0.0, 10.010543, 9.989511 
4.247493e+2, 1.23011015e+2, -1770527.0, -1734606.6, 269.085, -0.021039378, -0.027775386, -1734604.5, -115.81981, 0.00035082738, 9.995814, 10.00057 
4.247914e+2, 1.330096e+2, -1679354.4, -1661188.8, -4368.2944, 0.020368883, -0.046392355, -1660192.9, -23690.008, 0.00022768496, 9.996277, 9.998681 
4.2483234e+2, 1.4300822e+2, -1578516.9, -1571077.8, -4788.68, -0.00997234, -0.007070046, -1568733.8, -30217.406, 0.0001228659, 9.996872, 9.997852 
4.2487353e+2, 1.5300584e+2, -1465436.0, -1464915.1, -4950.7544, -0.006165421, -0.0382943, -1460218.0, -19678.627, 0.000052266085, 9.99786, 9.997922 
4.249146e+2, 1.6300257e+2, -1370521.0, -1392926.5, -6374.9526, -0.0041115144, -0.05457211, -1368834.1, -26262.842, 0.00001678997, 9.998711, 9.995735 
4.2495567e+2, 1.7299838e+2, -1265046.8, -1292891.5, -6941.8643, -0.0036475915, -0.034567744, -1263412.1, -18799.71, 0.000003972505, 9.999286, 9.99559 
4.249965e+2, 1.8299313e+2, -1171040.3, -1219267.1, -9458.022, -0.0019561586, -0.023898136, -1169251.8, -22587.795, 0.00000068530704, 9.999985, 9.993589 
4.2503703e+2, 1.9298646e+2, -1059282.3, -1115826.1, -9643.625, 0.0005362919, -0.040154546, -1057682.8, -8953.564, 0.00000008596078, 10.000973, 9.993476 
4.250775e+2, 2.0297891e+2, -963016.8, -1042029.06, -9717.986, 0.00025852936, -0.045101125, -961839.1, -11035.869, 0.000000007836224, 10.001862, 9.991393 
4.2511785e+2, 2.1297033e+2, -855874.9, -941119.06, -9062.291, -0.0058981804, -0.029304907, -854922.06, -2034.769, 0.0000000005191636, 10.00255, 9.991255 
4.2515832e+2, 2.2296077e+2, -759787.4, -864952.1, -8818.34, -0.005640397, -0.022750774, -759053.06, -4071.9216, 0.000000000025000514, 10.003318, 9.98939 
4.251989e+2, 2.3294991e+2, -648447.75, -761517.9, -9494.374, 0.007862776, -0.039684113, -647656.06, 9431.35, 0.0000000000000068380394, 10.004272, 9.989294 
4.2523953e+2, 2.4293819e+2, -553236.25, -687266.44, -8872.428, 0.013194688, -0.046793982, -552651.5, 6550.7124, 0.00000000000000023892724, 10.00504, 9.987298 
4.2528012e+2, 2.529255e+2, -450471.25, -588292.94, -8749.268, 0.00026784145, -0.03617945, -449918.06, 11408.696, 0.0, 10.005422, 9.987175 
4.2532083e+2, 2.6291177e+2, -357822.03, -515775.1, -8120.369, -0.0065279426, -0.027947752, -357405.66, 6055.514, 0.0, 10.006039, 9.985132 
4.253616e+2, 2.728968e+2, -244123.39, -411486.53, -7718.637, -0.00035893684, -0.030436192, -243768.17, 21839.973, 0.0, 10.007167, 9.985014 
4.2540264e+2, 2.8288054e+2, -149206.48, -343315.53, -4838.2813, 0.0033254586, -0.033891667, -149085.95, 18681.13, 0.0, 10.00817, 9.982484 
4.2544407e+2, 2.9286286e+2, -42560.734, -242661.34, -5954.4863, 0.0020597067, -0.04234059, -42383.703, 27557.04, 0.0, 10.008824, 9.982344 
4.2548576e+2, 3.028487e+2, 67003.336, -84319.555, -5039.227, 0.004662576, -0.03999294, 67170.96, 67170.96, 0.0, 10.009539, 9.989488 
4.2552742e+2, 3.1283858e+2, 80641.05, -75400.62, -3641.8635, 0.01271988, -0.018006794, 80726.0, 80726.0, 0.0, 10.010378, 9.9896965 
4.347452e+2, 1.2296809e+2, -1771117.4, -1734912.6, 2945.047, -0.017568076, -0.028185787, -1734674.6, 234.75238, 0.00078514614, 9.995778, 10.000563 
4.3478763e+2, 1.3296695e+2, -1676667.6, -1654791.1, -3078.051, 0.018451283, -0.05910038, -1654366.3, -17445.605, 0.00050963036, 9.9962435, 9.999126 
4.348292e+2, 1.4296585e+2, -1579141.4, -1571661.1, -1671.3594, -0.011324109, -0.0178472, -1571304.6, -32373.219, 0.00027507497, 9.996844, 9.997821 
4.3487138e+2, 1.529636e+2, -1466725.0, -1467154.1, -1297.845, -0.01018025, -0.023122173, -1465624.1, -24670.67, 0.00011705333, 9.997845, 9.997771 
4.349133e+2, 1.6296022e+2, -1372168.8, -1396097.0, -4112.392, -0.007533926, -0.03209187, -1371481.8, -28495.266, 0.000037619757, 9.998704, 9.99552 
4.3495503e+2, 1.7295547e+2, -1266805.5, -1296319.5, -4896.5273, 0.001524898, -0.044584036, -1266014.4, -20981.545, 0.000008906541, 9.999281, 9.995356 
4.3499655e+2, 1.8294992e+2, -1171540.1, -1220156.9, -6103.9253, 0.0063097733, -0.046279103, -1170785.5, -23698.262, 0.0000015378395, 9.99998, 9.993526 
4.35038e+2, 1.9294356e+2, -1059369.0, -1115969.1, -5853.469, 0.00021599389, -0.030360669, -1058770.0, -9620.29, 0.00000019312868, 10.000972, 9.993463 
4.350793e+2, 2.0293616e+2, -962123.7, -1040174.75, -6906.852, -0.0039911284, -0.024484146, -961517.2, -10294.926, 0.000000017634331, 10.0018635, 9.991515 
4.3512046e+2, 2.1292737e+2, -854708.4, -938782.25, -6399.8105, -0.0025560898, -0.045656294, -854224.0, -915.85175, 0.0000000011708853, 10.002554, 9.991407 
4.3516168e+2, 2.229177e+2, -760526.44, -866564.56, -5350.526, -0.0019640964, -0.05257228, -760257.1, -4854.437, 0.000000000056553692, 10.003323, 9.989274 
4.3520308e+2, 2.3290706e+2, -649879.9, -764283.3, -5805.265, -0.00391987, -0.03071842, -649586.06, 7921.339, 0.000000000000044721503, 10.004263, 9.989106 
4.352444e+2, 2.4289541e+2, -553549.9, -687649.8, -7026.2075, -0.0035866015, -0.017838394, -553182.75, 6438.9883, 0.000000000000001562477, 10.005032, 9.987272 
4.3528554e+2, 2.5288248e+2, -450267.56, -587959.25, -7372.229, 0.002290516, -0.030704873, -449873.97, 11874.208, 0.0, 10.005428, 9.987191 
4.3532702e+2, 2.628687e+2, -356541.0, -513370.94, -4487.1533, 0.007502375, -0.038037863, -356412.72, 7470.4873, 0.0, 10.00605, 9.985286 
4.3536887e+2, 2.728539e+2, -242899.13, -408751.22, -3571.4226, 0.010282199, -0.03713135, -242822.25, 23205.805, 0.0, 10.007159, 9.985199 
4.354109e+2, 2.8283778e+2, -151176.38, -346877.47, -2225.6667, 0.008516678, -0.03615441, -151151.08, 17035.355, 0.0, 10.008148, 9.982246 
4.3545288e+2, 2.9281977e+2, -45209.945, -247890.86, -3714.855, -0.0013831044, -0.03836605, -45141.88, 25221.086, 0.0, 10.008816, 9.981985 
4.354952e+2, 3.0280554e+2, 69445.68, -79268.78, -2187.3672, -0.006203594, -0.034433372, 69477.84, 69477.84, 0.0, 10.009544, 9.989825 
4.355377e+2, 3.1279588e+2, 84647.234, -67463.32, -880.1489, -0.0020461776, -0.022136543, 84652.33, 84652.33, 0.0, 10.010397, 9.990228 
4.4474104e+2, 1.2292454e+2, -1772571.0, -1737589.6, 2055.6936, -0.00894826, -0.027405478, -1737469.3, -2133.067, 0.0015538043, 9.995754, 10.000389 
4.4478396e+2, 1.329236e+2, -1670906.1, -1649142.0, -6845.5615, 0.01430635, -0.05957158, -1647167.9, -9822.492, 0.0010089569, 9.996503, 9.999379 
4.448262e+2, 1.4292258e+2, -1574163.4, -1570507.3, -5716.932, -0.014559206, -0.02224247, -1566333.3, -26977.72, 0.0005448942, 9.997229, 9.997705 
4.4486928e+2, 1.5292016e+2, -1465622.4, -1468968.9, -5608.9575, -0.009398822, -0.023856834, -1461442.4, -20063.21, 0.00023205215, 9.99801, 9.9975605 
4.4491208e+2, 1.6291665e+2, -1370791.1, -1395800.5, -8825.882, -0.0047395425, -0.03078922, -1367990.1, -24576.732, 0.00007466019, 9.998806, 9.995482 
4.4495445e+2, 1.729119e+2, -1261445.8, -1293570.6, -8037.4917, 0.0019988178, -0.043723933, -1259547.0, -14087.242, 0.000017702305, 9.999631, 9.995367 
4.4499674e+2, 1.8290633e+2, -1166350.0, -1218624.0, -7991.9907, 0.005229223, -0.045401707, -1165155.5, -17641.066, 0.000003062777, 10.000368, 9.993439 
4.4503894e+2, 1.9289985e+2, -1060742.5, -1117935.4, -8503.23, -0.0008276743, -0.029495604, -1059505.0, -9926.97, 0.0000003857046, 10.000926, 9.993346 
4.4508103e+2, 2.028924e+2, -965910.5, -1041444.4, -10314.96, -0.0039278814, -0.02431352, -964527.25, -12876.014, 0.00000003535121, 10.001572, 9.991565 
4.4512296e+2, 2.1288368e+2, -856011.9, -938387.25, -10386.016, 0.00023579304, -0.046367384, -854722.6, -986.34845, 0.000000002359298, 10.002411, 9.991498 
4.4516498e+2, 2.2287408e+2, -762869.94, -868097.4, -9401.779, 0.001543108, -0.052947752, -762036.5, -6206.1626, 0.000000000114745775, 10.003168, 9.989239 
4.4520706e+2, 2.3286335e+2, -657454.3, -768752.2, -9019.652, -0.0051606875, -0.029910449, -656728.1, 1207.5442, 0.00000000000022836846, 10.003768, 9.989037 
4.4524914e+2, 2.4285169e+2, -560640.3, -690699.1, -9565.436, -0.007027869, -0.018211016, -559940.56, 109.772484, 0.0000000000000079783024, 10.004521, 9.987307 
4.4529107e+2, 2.5283876e+2, -447122.3, -585770.25, -9630.411, 0.0018713899, -0.035767373, -446456.6, 15719.969, 0.0, 10.005605, 9.987252 
4.453333e+2, 2.6282498e+2, -349656.78, -510344.63, -6790.643, 0.009022594, -0.044186022, -349370.34, 14941.061, 0.0, 10.006523, 9.985261 
4.4537598e+2, 2.7281022e+2, -244789.31, -410338.34, -7512.384, 0.01088742, -0.036822245, -244449.11, 22007.18, 0.0, 10.007047, 9.98514 
4.4541878e+2, 2.827941e+2, -157949.98, -349471.84, -6577.3765, 0.008450585, -0.031855196, -157724.36, 10890.098, 0.0, 10.007643, 9.982307 
4.4546145e+2, 2.9277617e+2, -50584.64, -249440.52, -5300.7593, -0.0016196754, -0.036864974, -50443.44, 20346.822, 0.0, 10.008389, 9.982082 
4.455046e+2, 3.027619e+2, 65228.785, -82770.69, -2069.0635, -0.0065613105, -0.036322992, 65257.703, 65257.703, 0.0, 10.009299, 9.989703 
4.4554812e+2, 3.12752e+2, 84875.8, -69567.59, -5180.87, -0.002788788, -0.027229337, 85049.39, 85049.39, 0.0, 10.010489, 9.990034 
4.547369e+2, 1.2288041e+2, -1776052.1, -1743310.1, 5565.0186, 0.0013616794, -0.025316508, -1742390.1, -6621.385, 0.0027803245, 9.995693, 10.000025 
4.547804e+2, 1.3287959e+2, -1671206.9, -1648927.8, -4424.5073, 0.006003492, -0.046563033, -1648081.3, -10304.434, 0.0018069525, 9.996471, 9.999403 
4.5482334e+2, 1.4287835e+2, -1575941.6, -1573671.3, -3183.6606, -0.021429623, -0.01991106, -1571426.5, -31637.871, 0.0009770269, 9.9972105, 9.997494 
4.5486736e+2, 1.5287547e+2, -1467862.9, -1473126.1, -2871.9736, -0.0054730317, -0.041406468, -1466599.1, -24782.277, 0.00041677037, 9.997993, 9.99728 
4.54911e+2, 1.6287182e+2, -1369908.9, -1393667.3, -5967.614, 0.0024754158, -0.0519384, -1368494.1, -24641.584, 0.00013439546, 9.998795, 9.995627 
4.5495403e+2, 1.7286764e+2, -1259722.8, -1289842.4, -5040.467, -0.003844909, -0.032299556, -1258901.6, -13008.061, 0.000031964762, 9.999626, 9.995618 
4.5499697e+2, 1.8286231e+2, -1167218.4, -1220271.8, -5836.1377, -0.0073290505, -0.02111789, -1166584.0, -18637.998, 0.000005553748, 10.000365, 9.993323 
4.5503983e+2, 1.928553e+2, -1062267.5, -1121131.8, -6408.2456, -0.004819219, -0.037381627, -1061578.0, -11563.383, 0.00000070340104, 10.000932, 9.99312 
4.5508263e+2, 2.0284757e+2, -966041.3, -1041782.8, -7347.738, -0.0022143922, -0.04421388, -965335.06, -13244.749, 0.000000064967765, 10.001575, 9.991535 
4.551254e+2, 2.1283922e+2, -855812.94, -938032.4, -7116.9873, 0.0010816219, -0.031911675, -855201.44, -1029.2866, 0.0000000043809485, 10.002414, 9.991518 
4.5516816e+2, 2.2282977e+2, -762554.9, -867547.56, -6961.378, 0.0030415712, -0.024773784, -762095.3, -5830.568, 0.00000000021602262, 10.003176, 9.989268 
4.552109e+2, 2.3281875e+2, -657075.56, -768142.44, -6751.8384, 0.0012981613, -0.036030382, -656666.6, 1706.0315, 0.0000000000009414817, 10.0037775, 9.98907 
4.5525375e+2, 2.4280691e+2, -559945.0, -689284.9, -5844.1626, -0.0005082548, -0.044937253, -559681.5, 807.03595, 0.000000000000032891313, 10.004522, 9.987398 
4.5529667e+2, 2.5279424e+2, -446671.25, -584397.6, -5548.307, -0.001948384, -0.05000584, -446448.1, 16164.552, 0.0, 10.005584, 9.987352 
4.5533976e+2, 2.6278058e+2, -351402.84, -513356.4, -4493.895, -0.0019565464, -0.04649659, -351278.22, 13468.327, 0.0, 10.006499, 9.985063 
4.5538294e+2, 2.727656e+2, -246922.4, -414597.6, -5687.4395, 0.00056068413, -0.030090459, -246729.72, 20163.898, 0.0, 10.007044, 9.984845 
4.5542637e+2, 2.8274944e+2, -155698.42, -344913.13, -4114.6934, 0.0011902208, -0.021323638, -155608.98, 13443.111, 0.0, 10.007648, 9.982613 
4.5546988e+2, 2.9273188e+2, -47098.715, -242426.61, -2836.1104, -0.0005364843, -0.036808163, -47057.543, 24166.605, 0.0, 10.008402, 9.982552 
4.5551398e+2, 3.0271763e+2, 61573.21, -90428.86, 1738.0374, 0.00035288392, -0.043860715, 61593.082, 61593.082, 0.0, 10.009302, 9.989171 
4.5555872e+2, 3.1270698e+2, 78663.49, -81770.125, -793.6885, 0.004626752, -0.03218389, 78667.42, 78667.42, 0.0, 10.010458, 9.989207 
4.6473283e+2, 1.2283545e+2, -1771154.5, -1744403.0, 3586.921, 0.0047220616, -0.02608619, -1743930.5, -7721.201, 0.004589857, 9.996165, 9.999715 
4.6477702e+2, 1.3283457e+2, -1665779.3, -1647021.6, -8021.571, 0.0024876203, -0.043792084, -1644059.1, -5841.2656, 0.0029879087, 9.996859, 9.99934 
4.6482074e+2, 1.4283319e+2, -1571632.8, -1572087.5, -6825.233, -0.016643442, -0.026608372, -1565031.0, -24799.97, 0.0016192476, 9.997514, 9.997449 
4.6486545e+2, 1.5283029e+2, -1465776.9, -1472614.1, -4817.5967, -0.0019205256, -0.044613913, -1463288.3, -21028.79, 0.00069287396, 9.998146, 9.997238 
4.6490976e+2, 1.6282664e+2, -1370085.5, -1394076.3, -7219.712, 0.004285484, -0.05171724, -1368080.4, -23785.182, 0.00022437889, 9.998785, 9.995603 
4.6495357e+2, 1.7282246e+2, -1262125.3, -1291380.8, -8357.525, -0.004325287, -0.030696837, -1259906.0, -13569.68, 0.000053673917, 9.999467, 9.995585 
4.6499723e+2, 1.8281709e+2, -1169586.5, -1221520.9, -10347.389, -0.008764027, -0.020351317, -1167600.9, -19211.807, 0.000009398119, 10.000195, 9.993316 
4.650408e+2, 1.9281003e+2, -1060453.9, -1120352.4, -9512.99, -0.00500455, -0.041031096, -1058979.4, -8521.264, 0.0000012027082, 10.001045, 9.993115 
4.650843e+2, 2.0280226e+2, -962962.6, -1041421.9, -9668.034, -0.0012998421, -0.048685383, -961788.8, -9254.583, 0.00000011262272, 10.001822, 9.991437 
4.6512783e+2, 2.1279384e+2, -856000.25, -939609.94, -10493.189, 0.001347795, -0.030717708, -854703.44, -86.607666, 0.000000007732489, 10.002454, 9.991385 
4.651713e+2, 2.2278434e+2, -762668.0, -866772.8, -10981.292, 0.003283387, -0.022038177, -761522.25, -4812.447, 0.00000000039024706, 10.003121, 9.989343 
4.6521476e+2, 2.327734e+2, -654397.2, -765558.06, -10266.104, 0.002822609, -0.038748853, -653457.06, 5360.043, 0.0000000000032348013, 10.003895, 9.989184 
4.6525833e+2, 2.4276163e+2, -558739.9, -688828.56, -8919.008, 0.002169419, -0.048923552, -558131.2, 2801.0828, 0.00000000000011301746, 10.004597, 9.98739 
4.6530202e+2, 2.5274894e+2, -453488.7, -588481.4, -9680.121, 0.00080906926, -0.047704577, -452798.1, 10258.415, 0.0, 10.00514, 9.987282 
4.653459e+2, 2.6273528e+2, -360769.25, -517232.78, -8645.578, -0.0009134946, -0.041931983, -360292.97, 4897.4316, 0.0, 10.005816, 9.985122 
4.6538976e+2, 2.7272034e+2, -249803.33, -415002.25, -7368.7363, -0.0050709476, -0.032392252, -249475.3, 17861.867, 0.0, 10.006787, 9.98494 
4.6543396e+2, 2.827042e+2, -154780.81, -345087.53, -5018.187, -0.0055948626, -0.02690933, -154648.58, 14846.921, 0.0, 10.00773, 9.982558 
4.6547836e+2, 2.9268655e+2, -46338.047, -243217.95, -7537.8477, 0.004553141, -0.036427293, -46049.87, 25618.084, 0.0, 10.0084915, 9.982449 
4.6552333e+2, 3.0267233e+2, 61528.406, -88532.15, -3209.6042, 0.010601798, -0.04271702, 61597.023, 61597.023, 0.0, 10.0092125, 9.989333 
4.6556872e+2, 3.126618e+2, 69747.39, -83226.516, 919.1602, 0.0018572113, -0.043346103, 69752.91, 69752.91, 0.0, 10.009723, 9.989455 
4.7472888e+2, 1.2278969e+2, -1773635.0, -1748328.1, 6146.4287, -0.0063070385, -0.03043821, -1746914.4, -10256.983, 0.007113215, 9.9961195, 9.999465 
4.7477385e+2, 1.3278857e+2, -1667581.9, -1649865.3, -5820.664, 0.0022375416, -0.051842015, -1648124.0, -9455.776, 0.004643645, 9.996828, 9.999155 
4.748184e+2, 1.4278707e+2, -1571115.6, -1570391.9, -4803.7744, -0.00099222, -0.042522907, -1565936.4, -25253.355, 0.0025262511, 9.99749, 9.997571 
4.7486362e+2, 1.5278463e+2, -1464621.0, -1469815.4, -2647.1887, -0.0016448986, -0.032576635, -1463509.6, -20802.73, 0.0010866441, 9.998133, 9.997429 
4.7490847e+2, 1.6278113e+2, -1371655.6, -1396988.4, -4975.57, -0.0036417847, -0.0289328, -1370713.4, -25972.055, 0.00035438547, 9.998775, 9.995405 
4.749531e+2, 1.7277634e+2, -1264416.0, -1295941.5, -5907.07, -0.0022422397, -0.03861196, -1263345.5, -16557.316, 0.000085576154, 9.999464, 9.995272 
4.749975e+2, 1.8277065e+2, -1168928.3, -1220132.8, -7409.259, -0.0014771222, -0.043224245, -1167877.6, -19033.941, 0.000015172572, 10.000195, 9.993405 
4.750419e+2, 1.9276403e+2, -1058985.3, -1117440.9, -6311.521, -0.003245067, -0.040066447, -1058311.5, -7402.839, 0.0000019737136, 10.001054, 9.993304 
4.7508615e+2, 2.027564e+2, -964034.2, -1043684.4, -7215.279, -0.003738232, -0.037511956, -963385.9, -10402.45, 0.00000018875323, 10.001826, 9.991278 
4.751303e+2, 2.1274751e+2, -857858.1, -943468.5, -8045.181, -0.0011710485, -0.04208337, -857108.6, -2038.0055, 0.000000013307983, 10.002456, 9.991118 
4.751744e+2, 2.227378e+2, -761898.4, -865183.56, -8100.784, 0.000014997339, -0.043174442, -761266.9, -4101.082, 0.00000000069387657, 10.003122, 9.989447 
4.752186e+2, 2.3272724e+2, -652997.2, -762681.8, -7257.604, -0.0018526004, -0.03824797, -652519.06, 6750.184, 0.000000000009472845, 10.003896, 9.989377 
4.752629e+2, 2.4271572e+2, -559685.25, -690741.0, -6734.179, -0.000742068, -0.032114815, -559340.1, 2042.2261, 0.00000000000033105902, 10.004598, 9.987255 
4.7530726e+2, 2.527028e+2, -455148.06, -591881.6, -7689.1274, 0.007426982, -0.030615713, -454717.03, 8791.815, 0.000000000000000004361499, 10.00514, 9.987046 
4.753518e+2, 2.6268905e+2, -358808.6, -513089.06, -5379.469, 0.008539338, -0.031276826, -358621.25, 7022.4136, 0.000000000000000025260425, 10.005814, 9.985401 
4.7539654e+2, 2.7267432e+2, -247102.13, -409080.38, -3899.9204, -0.00862794, -0.04264272, -247008.28, 20779.844, 0.00000000000000010669206, 10.006775, 9.985345 
4.7544163e+2, 2.826582e+2, -157623.45, -350416.53, -2247.2456, -0.014228831, -0.046019513, -157597.27, 12348.67, 0.00000000000000033199385, 10.007705, 9.982202 
4.7548693e+2, 2.9264018e+2, -51018.105, -252319.83, -4888.6294, 0.011397295, -0.035079893, -50899.453, 21222.963, 0.00000000000000078039946, 10.008468, 9.9818325 
4.7553268e+2, 3.0262592e+2, 66392.85, -77942.16, -1151.1517, 0.021774972, -0.03453324, 66402.03, 66402.03, 0.0000000000000014474501, 10.009198, 9.990061 
4.7557834e+2, 3.126163e+2, 77845.51, -66495.74, 2293.6885, -0.011667259, -0.05181778, 77881.945, 77881.945, 0.0000000000000022339833, 10.009735, 9.990591 
4.8472518e+2, 1.2274327e+2, -1766975.0, -1744754.4, 4537.779, -0.007949627, -0.041078158, -1743863.4, -6751.378, 0.01049777, 9.996545, 9.999497 
4.847707e+2, 1.3274217e+2, -1666808.8, -1651546.9, -7428.949, -0.0029464352, -0.046116438, -1648528.0, -9405.031, 0.0068823104, 9.996958, 9.998977 
4.8481596e+2, 1.4274046e+2, -1571706.8, -1571377.8, -6622.9414, 0.0048362175, -0.042543285, -1564917.3, -23777.566, 0.0037656925, 9.997474, 9.997507 
4.8486182e+2, 1.5273803e+2, -1463452.4, -1469643.4, -6173.37, 0.0005427797, -0.030171907, -1459641.9, -16478.21, 0.0016323061, 9.99822, 9.997393 
4.8490736e+2, 1.6273445e+2, -1369310.3, -1397302.0, -9322.282, -0.0040718666, -0.026694013, -1366489.8, -21290.982, 0.00053782034, 9.998988, 9.995272 
4.849527e+2, 1.7272945e+2, -1260756.9, -1295957.1, -9211.579, -0.0019223657, -0.04205059, -1258492.0, -11244.314, 0.00013162919, 9.999779, 9.995113 
4.8499787e+2, 1.8272364e+2, -1164616.0, -1218014.5, -10548.427, 0.00026482475, -0.048528194, -1162607.8, -13303.404, 0.000023746588, 10.00048, 9.993405 
4.8504293e+2, 1.9271712e+2, -1059439.4, -1117163.9, -10614.9795, -0.00020970799, -0.03965286, -1057549.3, -6180.916, 0.0000031577385, 10.000991, 9.993348 
4.8508787e+2, 2.0270954e+2, -968016.44, -1045759.8, -11883.556, -0.0006395187, -0.034715377, -966240.5, -12797.851, 0.00000031029586, 10.001552, 9.9912615 
4.8513263e+2, 2.1270056e+2, -860758.6, -945310.56, -11196.479, -0.00084197184, -0.043585416, -859301.06, -3770.413, 0.000000022599854, 10.002266, 9.99108 
4.8517743e+2, 2.2269082e+2, -764050.3, -866364.06, -10393.789, -0.0011822493, -0.046604447, -763005.1, -5378.962, 0.000000001223376, 10.002969, 9.989437 
4.8522237e+2, 2.3268026e+2, -656202.44, -764552.44, -10944.03, -0.002624289, -0.0389979, -655108.06, 4621.581, 0.000000000023981296, 10.003679, 9.989348 
4.852674e+2, 2.4266875e+2, -562401.06, -691952.94, -11208.781, -0.00084906735, -0.030643523, -561438.44, 404.2695, 0.0000000000008389532, 10.004396, 9.987263 
4.8531237e+2, 2.5265586e+2, -454595.25, -591557.8, -10624.87, 0.007029693, -0.02814749, -453775.94, 10193.109, 0.0000000000000001261701, 10.005164, 9.987053 
4.8535767e+2, 2.6264212e+2, -357264.72, -511973.88, -7431.242, 0.009967135, -0.030404877, -356908.6, 9195.112, 0.00000000000000073087254, 10.005889, 9.985439 
4.8540327e+2, 2.7262732e+2, -250738.56, -410774.44, -8452.237, -0.00046113587, -0.04618743, -250293.4, 17954.97, 0.0000000000000030875687, 10.006508, 9.9853525 
4.8544914e+2, 2.826113e+2, -164503.52, -352468.34, -7363.4053, -0.005261783, -0.04803126, -164215.5, 6189.9526, 0.000000000000009609587, 10.007167, 9.982312 
4.8549503e+2, 2.9259348e+2, -59208.82, -254903.42, -5442.709, 0.0057273214, -0.03041232, -59057.563, 13522.513, 0.000000000000022592925, 10.007834, 9.981958 
4.8554143e+2, 3.025792e+2, 58997.574, -80211.18, -22.08365, 0.011179878, -0.044215884, 58997.58, 58997.58, 0.00000000000004190963, 10.008615, 9.99019 
4.8558807e+2, 3.1256983e+2, 74978.64, -66422.23, -3298.6694, 0.00028702838, -0.048206393, 75055.55, 75055.55, 0.000000000000064683685, 10.009451, 9.990729 
4.9472177e+2, 1.2269624e+2, -1765358.4, -1740188.4, 5303.9043, -0.0050088693, -0.059125826, -1739116.4, -1543.6782, 0.014911252, 9.996496, 9.999826 
4.9476752e+2, 1.326954e+2, -1668849.8, -1654767.5, -6284.329, -0.015416159, -0.025589814, -1652371.0, -12789.628, 0.009830928, 9.996924, 9.998767 
4.9481335e+2, 1.4269342e+2, -1574000.4, -1575318.0, -4438.1963, -0.0021183202, -0.026158243, -1570172.4, -28571.43, 0.0054196375, 9.997444, 9.997248 
4.9486005e+2, 1.5269046e+2, -1465745.0, -1473905.8, -3561.8135, 0.001722447, -0.038375206, -1464409.1, -20779.379, 0.0023727028, 9.998205, 9.997104 
4.949064e+2, 1.6268656e+2, -1369877.1, -1398292.4, -6633.303, 0.000078856, -0.046255305, -1368404.9, -22736.957, 0.00079196517, 9.998984, 9.9952 
4.9495244e+2, 1.7268173e+2, -1260884.0, -1296162.3, -6459.7573, -0.0055585187, -0.041035205, -1259738.4, -12023.204, 0.00019707251, 9.999781, 9.995091 
4.9499828e+2, 1.8267602e+2, -1165224.8, -1219131.5, -8594.794, -0.006784283, -0.03642524, -1163887.5, -14116.236, 0.000036298647, 10.000477, 9.993326 
4.9504393e+2, 1.9266926e+2, -1060084.3, -1118552.0, -8778.776, 0.0006821208, -0.040448528, -1058794.6, -6957.0767, 0.0000049503406, 10.000998, 9.993245 
4.9508947e+2, 2.026616e+2, -967034.3, -1043855.56, -9463.844, 0.0043769497, -0.04082222, -965885.6, -11973.154, 0.00000050112493, 10.00156, 9.991384 
4.9513492e+2, 2.1265294e+2, -859299.06, -942570.8, -8448.432, -0.0003046318, -0.03541222, -858450.56, -2453.2056, 0.000000037748414, 10.002281, 9.991255 
4.951804e+2, 2.2264332e+2, -764826.0, -868180.9, -7752.634, -0.0030526246, -0.03265994, -764247.75, -6155.9893, 0.0000000021194788, 10.002979, 9.989305 
4.952261e+2, 2.3263238e+2, -657789.7, -767921.9, -8216.496, -0.0014428803, -0.04069136, -657180.06, 3018.7542, 0.00000000005330912, 10.003682, 9.989114 
4.9527183e+2, 2.4262066e+2, -561447.3, -689909.5, -8346.696, -0.00013037704, -0.042899393, -560907.25, 1406.3972, 0.000000000001871645, 10.004395, 9.987399 
4.953175e+2, 2.5260803e+2, -453119.34, -588275.2, -7758.1387, -0.0006189734, -0.038213395, -452675.47, 11762.104, 0.000000000000009575241, 10.005153, 9.987279 
4.953635e+2, 2.625944e+2, -358789.2, -514882.0, -5089.736, 0.0029186173, -0.03768237, -358623.4, 7947.834, 0.000000000000055453838, 10.005879, 9.985242 
4.9540994e+2, 2.7257934e+2, -253445.4, -416115.63, -6226.5796, 0.015705144, -0.044453308, -253207.4, 15511.192, 0.0000000000002341752, 10.006498, 9.984988 
4.9545655e+2, 2.825634e+2, -161111.75, -345181.34, -4989.726, 0.016143078, -0.03535661, -160976.58, 9898.431, 0.0000000000007286158, 10.007156, 9.982812 
4.9550268e+2, 2.9254627e+2, -53958.184, -243991.4, -3348.3105, -0.01161664, -0.021033, -53899.207, 19143.451, 0.0000000000017125554, 10.007836, 9.982698 
4.9554977e+2, 3.0253193e+2, 56390.203, -85765.5, 2556.6196, -0.019227974, -0.07025801, 56436.168, 56436.168, 0.0000000000031753393, 10.008625, 9.989796 
4.955978e+2, 3.125223e+2, 70100.23, -76213.38, -693.3088, 0.028553963, -0.0316246, 70103.51, 70103.51, 0.000000000004897224, 10.009439, 9.990057 
5.0471824e+2, 1.2264863e+2, -1764507.9, -1737041.4, 2020.5131, 0.00062059046, -0.057546895, -1736893.5, 1145.9644, 0.020533854, 9.996425, 10.000072 
5.047645e+2, 1.3264766e+2, -1666232.9, -1656541.5, -9884.485, -0.022049272, -0.016311688, -1650378.8, -10329.594, 0.013628187, 9.99722, 9.998501 
5.048111e+2, 1.4264528e+2, -1566803.3, -1573655.1, -7794.843, 0.0009524357, -0.034212165, -1561714.8, -19642.084, 0.0075791995, 9.997998, 9.9970875 
5.048585e+2, 1.526422e+2, -1459135.8, -1472297.6, -5812.9756, 0.0011197294, -0.04384154, -1456936.1, -12833.573, 0.0033562193, 9.998711, 9.9969635 
5.049055e+2, 1.6263823e+2, -1364798.4, -1396684.8, -8541.407, -0.0022903478, -0.048050404, -1362654.5, -16513.018, 0.0011366707, 9.999355, 9.995127 
5.049523e+2, 1.726334e+2, -1259829.5, -1296377.8, -8767.704, -0.00448462, -0.039268114, -1257835.0, -9646.036, 0.00028802847, 9.999874, 9.9950285 
5.0499874e+2, 1.826276e+2, -1166734.3, -1220469.5, -11388.66, -0.0036501694, -0.033257302, -1164420.1, -14174.47, 0.000054231128, 10.000388, 9.993276 
5.0504494e+2, 1.9262077e+2, -1060794.5, -1119544.1, -11372.558, 0.00071627856, -0.03999391, -1058669.9, -6357.2905, 0.0000075890043, 10.000964, 9.993193 
5.05091e+2, 2.0261307e+2, -966667.1, -1043921.25, -11730.886, 0.0027699973, -0.041819457, -964925.1, -10537.035, 0.00000079091893, 10.001581, 9.991366 
5.0513726e+2, 2.126044e+2, -858395.25, -942452.5, -12023.306, 0.000002078395, -0.035653442, -856709.25, -236.26303, 0.00000006148999, 10.002342, 9.99123 
5.0518346e+2, 2.2259477e+2, -763879.2, -867481.0, -12330.591, -0.00091700215, -0.033231545, -762431.9, -3864.4136, 0.0000000035684378, 10.003023, 9.989326 
5.052297e+2, 2.3258385e+2, -659060.8, -768263.3, -11087.088, 0.00082341925, -0.04267732, -657946.56, 2727.864, 0.000000000106601436, 10.003572, 9.9891405 
5.0527614e+2, 2.4257217e+2, -564340.3, -691316.7, -9905.245, 0.0013523515, -0.044056214, -563572.25, -783.4211, 0.0000000000037957758, 10.004182, 9.987405 
5.053225e+2, 2.525595e+2, -455626.34, -590121.0, -10945.46, -0.0027330697, -0.03662487, -454741.4, 10171.459, 0.0000000000002126687, 10.004995, 9.987226 
5.0536925e+2, 2.6254582e+2, -360426.2, -514801.25, -9394.181, -0.0012170107, -0.038869467, -359856.63, 7190.154, 0.0000000000012317329, 10.005719, 9.985317 
5.054163e+2, 2.7253082e+2, -256827.98, -416655.78, -7785.3325, 0.013195214, -0.05562724, -256449.66, 12744.505, 0.0000000000052015844, 10.006209, 9.985087 
5.054635e+2, 2.8251502e+2, -165719.27, -347030.06, -4926.9385, 0.017124137, -0.040061854, -165585.48, 5763.553, 0.000000000016184465, 10.006809, 9.982854 
5.055105e+2, 2.9249814e+2, -56659.027, -245738.78, -8015.7886, -0.0036746592, 0.0013613096, -56319.816, 17194.516, 0.000000000038037778, 10.007652, 9.982664 
5.0555843e+2, 3.0248344e+2, 55539.3, -86763.37, -4278.684, -0.012177435, -0.08008513, 55667.832, 55667.832, 0.000000000070511263, 10.008573, 9.989746 
5.0560707e+2, 3.1247386e+2, 68826.04, -75192.32, -3816.0725, 0.021036558, -0.02967108, 68927.08, 68927.08, 0.0000000001086931, 10.009259, 9.990216 
5.147147e+2, 1.2260051e+2, -1764576.8, -1735602.8, 3946.643, 0.00046312812, -0.03395445, -1735074.8, 3436.7363, 0.027554031, 9.996362, 10.000197 
5.1476175e+2, 1.3259898e+2, -1669504.9, -1662168.1, -7268.115, -0.0246546, -0.018210758, -1657695.1, -17168.965, 0.018419899, 9.997183, 9.998127 
5.148092e+2, 1.4259602e+2, -1567680.5, -1574782.9, -5480.849, 0.012878128, -0.068078876, -1564701.0, -22146.012, 0.010340942, 9.997974, 9.997016 
5.148572e+2, 1.5259327e+2, -1459267.3, -1472215.3, -3450.4294, -0.004340854, -0.046406455, -1458405.3, -13823.285, 0.0046347342, 9.998699, 9.996969 
5.149048e+2, 1.6258945e+2, -1365414.1, -1397814.4, -6774.6563, -0.016111093, -0.0313404, -1364054.6, -17435.113, 0.0015935765, 9.999355, 9.995045 
5.149522e+2, 1.7258437e+2, -1260506.6, -1297853.3, -7101.814, -0.0021584763, -0.036887627, -1259201.6, -10532.323, 0.00041132476, 9.999883, 9.994918 
5.149993e+2, 1.8257843e+2, -1166737.6, -1220640.8, -9517.258, 0.006242388, -0.039237723, -1165106.6, -14379.01, 0.00007915646, 10.000398, 9.993255 
5.150459e+2, 1.9257167e+2, -1060534.8, -1119342.4, -9297.27, -0.0028072454, -0.037579328, -1059099.9, -6306.098, 0.0000113579035, 10.000982, 9.993193 
5.1509255e+2, 2.0256394e+2, -967667.44, -1046239.94, -9165.981, -0.008034635, -0.037125256, -966612.3, -11742.702, 0.0000012170423, 10.001594, 9.991199 
5.151396e+2, 2.1255492e+2, -859878.1, -945724.25, -9099.732, -0.0020428752, -0.043928504, -858924.1, -1966.3031, 0.000000097492624, 10.002353, 9.990996 
5.151865e+2, 2.2254513e+2, -762604.6, -864930.3, -10060.909, 0.0025462904, -0.047823023, -761624.8, -2571.2288, 0.0000000058393734, 10.003028, 9.989493 
5.1523334e+2, 2.325346e+2, -656949.8, -764029.4, -8901.89, 0.002295628, -0.04527706, -656214.8, 4942.0845, 0.00000000019841896, 10.003579, 9.989423 
5.1528025e+2, 2.4252318e+2, -565468.06, -693557.56, -7140.723, 0.0009762876, -0.0353941, -565071.25, -1802.1697, 0.000000000007634904, 10.004178, 9.98725 
5.153275e+2, 2.5251025e+2, -458127.13, -594856.7, -7812.988, -0.0021839403, -0.02457504, -457682.13, 7713.5576, 0.0000000000039886605, 10.004975, 9.986908 
5.1537496e+2, 2.6249644e+2, -358518.44, -510326.25, -7296.1123, -0.005057019, -0.035508506, -358168.56, 9362.483, 0.000000000023101169, 10.005699, 9.985629 
5.154222e+2, 2.724816e+2, -253418.22, -409459.78, -6175.7344, -0.0071969493, -0.0780105, -253174.17, 16502.0, 0.00000000009755803, 10.006204, 9.9855795 
5.1547015e+2, 2.8246605e+2, -168080.33, -352089.1, -2407.3826, -0.0014816188, -0.057764582, -168048.83, 3779.7712, 0.000000000303523, 10.006816, 9.982501 
5.155184e+2, 2.9244903e+2, -61850.547, -256152.64, -4962.224, 0.022863634, 0.036326602, -61723.902, 12271.702, 0.00000000071315065, 10.007638, 9.981954 
5.1556736e+2, 3.024336e+2, 56271.344, -84583.19, -1362.342, 0.023699772, -0.07771217, 56284.52, 56284.52, 0.0000000013213384, 10.0085535, 9.989896 
5.1561594e+2, 3.124245e+2, 74492.15, -63381.63, -1796.7109, -0.016398948, -0.02756273, 74515.555, 74515.555, 0.0000000020352628, 10.0092745, 9.991007 
5.2471125e+2, 1.2255141e+2, -1759823.5, -1732393.8, 2432.9504, 0.0049281516, -0.029995847, -1732179.6, 6813.1733, 0.036176804, 9.99662, 10.000298 
5.2475905e+2, 1.3254966e+2, -1665159.9, -1662874.6, -8510.055, -0.029232934, -0.019597612, -1655430.8, -14421.139, 0.024365017, 9.997583, 9.997883 
5.2480745e+2, 1.4254645e+2, -1562789.5, -1573678.5, -7210.0083, 0.018252445, -0.07355154, -1559199.3, -16158.453, 0.013811107, 9.998357, 9.9969 
5.248559e+2, 1.525437e+2, -1458689.1, -1472705.6, -6159.6006, -0.0012502505, -0.044414718, -1456367.0, -11299.149, 0.0062664114, 9.998767, 9.996897 
5.249041e+2, 1.6253984e+2, -1367616.3, -1399314.4, -9742.458, -0.014838365, -0.025847256, -1364861.4, -17755.563, 0.002187711, 9.999213, 9.9950075 
5.249521e+2, 1.7253466e+2, -1261460.1, -1298752.9, -9676.019, -0.0015034052, -0.0385114, -1259099.1, -9942.645, 0.0005752219, 9.999825, 9.994884 
5.249997e+2, 1.8252861e+2, -1166587.9, -1221827.3, -11900.057, 0.0069830697, -0.04476481, -1164133.4, -12917.541, 0.00011314291, 10.000457, 9.99314 
5.25047e+2, 1.9252178e+2, -1058638.4, -1119949.4, -12598.873, -0.0011292924, -0.037941575, -1056150.4, -2867.6733, 0.000016648359, 10.00117, 9.993053 
5.250942e+2, 2.0251396e+2, -964775.3, -1045041.1, -12878.548, -0.0059505617, -0.034257814, -962759.6, -7400.3145, 0.0000018353236, 10.001789, 9.991179 
5.251419e+2, 2.1250494e+2, -860561.0, -945904.75, -11216.367, -0.0014243315, -0.044146538, -859111.5, -1663.8752, 0.00000015174481, 10.002286, 9.991015 
5.251894e+2, 2.2249514e+2, -766262.4, -867098.4, -11903.78, 0.0019743254, -0.05062779, -764876.2, -5332.6367, 0.000000009413526, 10.002779, 9.989466 
5.2523685e+2, 2.3248458e+2, -660209.5, -766388.44, -13135.556, 0.002001391, -0.046797115, -658608.56, 3038.6658, 0.00000000035784709, 10.003375, 9.989357 
5.2528435e+2, 2.4247314e+2, -568381.06, -694233.75, -11998.879, 0.0023103359, -0.033608537, -567247.25, -3488.025, 0.00000000002014928, 10.003933, 9.987317 
5.253323e+2, 2.5246033e+2, -464229.3, -596785.6, -9888.234, 0.0017819491, -0.020784725, -463495.75, 2389.0015, 0.000000000054994186, 10.0045, 9.987003 
5.2538043e+2, 2.6244655e+2, -365448.0, -512987.6, -7867.4946, -0.0004990783, -0.037000008, -365029.66, 2989.9058, 0.00000000031851738, 10.005175, 9.9857025 
5.254285e+2, 2.7243167e+2, -253687.06, -409609.44, -9747.616, -0.008010838, -0.08885853, -253080.05, 17085.463, 0.000000001345189, 10.006164, 9.985589 
5.25477e+2, 2.8241625e+2, -165097.14, -350410.22, -7601.6226, -0.004865219, -0.05811478, -164785.84, 7530.7925, 0.0000000041848507, 10.006996, 9.982522 
5.2552587e+2, 2.923995e+2, -66754.875, -258845.19, -6127.0703, 0.022014273, 0.061775714, -66559.64, 7921.592, 0.000000009829297, 10.007302, 9.98193 
5.255756e+2, 3.0238345e+2, 46108.676, -91904.17, 635.50995, 0.020749172, -0.10154378, 46111.6, 46111.6, 0.000000018203474, 10.007945, 9.989686 
5.256251e+2, 3.1237435e+2, 71200.8, -62035.652, -4619.294, -0.014273138, -0.02757787, 71360.76, 71360.76, 0.00000002802278, 10.008907, 9.991268 
5.347079e+2, 1.2250147e+2, -1760930.9, -1732917.9, 6393.355, 0.005242136, -0.041457977, -1731527.6, 7954.3433, 0.046640746, 9.996545, 10.0002985 
5.3475654e+2, 1.3249968e+2, -1667021.3, -1665480.0, -5601.591, -0.037994996, -0.021284765, -1660596.3, -19096.791, 0.031651113, 9.997539, 9.997719 
5.348058e+2, 1.4249656e+2, -1564268.4, -1576022.5, -5746.3833, 0.014446419, -0.04949828, -1561925.9, -18395.945, 0.018118156, 9.998336, 9.996743 
5.3485477e+2, 1.5249349e+2, -1460013.4, -1474936.9, -5087.981, 0.0073957597, -0.037505254, -1458443.8, -12883.792, 0.008324205, 9.998752, 9.996747 
5.3490347e+2, 1.624894e+2, -1367780.8, -1399542.8, -7964.3013, -0.0021355269, -0.03127998, -1365895.5, -18295.4, 0.002952043, 9.999216, 9.994985 
5.3495187e+2, 1.7248423e+2, -1261341.4, -1298502.3, -7658.369, -0.0043814015, -0.043880265, -1259825.0, -10174.505, 0.0007912693, 9.99983, 9.994891 
5.350001e+2, 1.824781e+2, -1167838.6, -1224594.5, -9624.04, -0.003941463, -0.050346036, -1166251.1, -14540.5625, 0.00015928308, 10.000469, 9.99294 
5.3504825e+2, 1.9247103e+2, -1060341.1, -1123771.1, -10102.889, 0.001546077, -0.042401586, -1058770.9, -4990.807, 0.000024088198, 10.001188, 9.992778 
5.350961e+2, 2.0246312e+2, -963712.2, -1043083.1, -11008.564, 0.003825365, -0.03464005, -962213.6, -6356.029, 0.0000027417923, 10.001802, 9.9913025 
5.3514415e+2, 2.1245441e+2, -858422.5, -941953.8, -9383.163, -0.0018442847, -0.037653975, -857381.5, 561.4401, 0.00000023528659, 10.002311, 9.991267 
5.351921e+2, 2.2244468e+2, -767762.75, -870333.3, -9814.166, -0.005645096, -0.042758055, -766832.1, -6794.143, 0.000000015275884, 10.002786, 9.98924 
5.352402e+2, 2.3243368e+2, -662848.7, -772042.94, -10744.839, -0.0021407362, -0.046822194, -661801.44, 344.66635, 0.0000000006877151, 10.003385, 9.988964 
5.3528833e+2, 2.4242207e+2, -566451.56, -690373.6, -9820.723, 0.002627418, -0.038076088, -565678.1, -1418.3423, 0.00000000013052304, 10.003938, 9.9875765 
5.3533685e+2, 2.524097e+2, -461057.0, -590089.4, -7749.4854, 0.007374152, -0.02419922, -460593.25, 5787.6504, 0.000000000612615, 10.004492, 9.987462 
5.3538567e+2, 2.6239616e+2, -366810.72, -515569.28, -4743.9146, 0.00898483, -0.04207071, -366659.6, 1853.903, 0.0000000034131882, 10.005162, 9.985528 
5.354348e+2, 2.723809e+2, -257225.06, -416228.63, -6133.6724, 0.005737599, -0.09023486, -256988.8, 13674.547, 0.000000014339296, 10.006129, 9.985149 
5.3548414e+2, 2.8236547e+2, -163299.86, -345741.25, -6071.6123, 0.0032891317, -0.04533101, -163098.02, 9716.426, 0.00000004456666, 10.006956, 9.982858 
5.3553295e+2, 2.923493e+2, -63149.87, -250996.36, -5380.609, -0.0028498962, 0.079384066, -62995.875, 11977.149, 0.00000010462058, 10.007289, 9.982469 
5.355832e+2, 3.0233273e+2, 42601.387, -99350.695, 3648.0283, -0.016553843, -0.14604163, 42695.074, 42695.074, 0.00000019365781, 10.007962, 9.989157 
5.3563434e+2, 3.123236e+2, 70420.266, -63559.516, -1412.4463, 0.013849308, 0.0003137168, 70435.15, 70435.15, 0.0000002979929, 10.008913, 9.991152 
5.4470474e+2, 1.2245085e+2, -1751775.3, -1728595.3, 5179.6665, 0.010513213, -0.04593571, -1727490.5, 12487.433, 0.05923043, 9.997146, 10.00032 
5.447542e+2, 1.324489e+2, -1664774.8, -1665988.6, -7249.4697, -0.033788994, -0.030461948, -1658106.9, -16109.854, 0.04050611, 9.997748, 9.997578 
5.448041e+2, 1.4244585e+2, -1564499.0, -1577434.9, -8061.8726, 0.011759846, -0.037226316, -1560631.3, -16604.31, 0.023422668, 9.998362, 9.996634 
5.448536e+2, 1.5244259e+2, -1457210.1, -1474833.5, -7456.264, 0.0074735847, -0.03553364, -1454478.8, -8419.882, 0.010902844, 9.998985, 9.996638 
5.4490286e+2, 1.624383e+2, -1362431.0, -1397838.6, -10093.009, -0.00021684999, -0.03639738, -1359756.0, -11655.311, 0.003931351, 9.999607, 9.994907 
5.449519e+2, 1.7243315e+2, -1255402.9, -1296420.6, -10335.946, -0.004385849, -0.04361459, -1252945.6, -2794.4805, 0.0010759312, 10.00026, 9.994818 
5.450007e+2, 1.8242696e+2, -1163335.1, -1223351.0, -12636.2, -0.004793354, -0.047283616, -1160783.1, -8571.405, 0.0002222064, 10.000805, 9.992857 
5.4504937e+2, 1.9241977e+2, -1060631.8, -1124980.9, -12075.902, 0.0007154978, -0.044116493, -1058440.3, -4157.764, 0.00003466305, 10.001201, 9.992689 
5.450978e+2, 2.0241176e+2, -967383.94, -1045533.8, -12995.379, 0.003797395, -0.03685968, -965279.6, -8918.64, 0.0000040952546, 10.001571, 9.991246 
5.4514635e+2, 2.1240309e+2, -862759.0, -944549.4, -13535.984, 0.0006909927, -0.030829415, -860577.06, -2131.2146, 0.00000036843403, 10.002026, 9.991223 
5.451948e+2, 2.2239338e+2, -771476.7, -872214.5, -14260.564, -0.001583858, -0.034248028, -769496.9, -8955.778, 0.000000026361263, 10.002524, 9.989232 
5.452435e+2, 2.3238221e+2, -663449.8, -772303.25, -12363.889, -0.0022866465, -0.053267486, -662063.1, 587.264, 0.0000000023307902, 10.003327, 9.988973 
5.4529226e+2, 2.4237058e+2, -565310.25, -689881.75, -10920.93, -0.00013105776, -0.049398243, -564360.06, 404.235, 0.0000000015642249, 10.003999, 9.987583 
5.453414e+2, 2.5235835e+2, -460543.2, -590210.2, -12019.048, 0.006638764, -0.018262433, -459438.53, 7445.5635, 0.000000005562811, 10.004523, 9.987438 
5.453907e+2, 2.6234484e+2, -368930.72, -516645.2, -9911.423, 0.009142993, -0.031356953, -368268.63, 747.7182, 0.000000028366085, 10.005006, 9.985523 
5.4544055e+2, 2.7232936e+2, -265949.72, -420718.72, -8504.086, 0.0044267112, -0.09886786, -265483.84, 5684.5713, 0.00000011761462, 10.005537, 9.98512 
5.454906e+2, 2.823141e+2, -173632.39, -348474.16, -7340.632, 0.0026116623, -0.05121011, -173324.73, -6.5064673, 0.0000003647328, 10.006134, 9.983067 
5.455401e+2, 2.922984e+2, -67191.7, -250928.11, -8872.276, -0.0015249212, 0.104906015, -66764.27, 8707.352, 0.00000085578625, 10.006895, 9.982668 
5.4559106e+2, 3.022813e+2, 40090.95, -105157.234, 328.87534, -0.019399822, -0.171496, 40091.695, 40091.695, 0.0000015835924, 10.007938, 9.988781 
5.4564327e+2, 3.1227195e+2, 74104.14, -56476.5, -3373.2803, 0.01667085, -0.0034821117, 74191.23, 74191.23, 0.0000024360013, 10.008882, 9.991671 
5.547019e+2, 1.22399665e+2, -1752731.6, -1728980.1, 5828.3813, 0.009390032, -0.044604905, -1727627.0, 12852.279, 0.07429232, 9.997075, 10.000339 
5.547521e+2, 1.3239741e+2, -1666818.9, -1668555.8, -5707.6055, -0.017193116, -0.04640976, -1661914.0, -19412.795, 0.051209517, 9.997687, 9.997426 
5.5480236e+2, 1.423944e+2, -1566021.5, -1579228.9, -6259.924, 0.008388836, -0.03650635, -1563526.0, -18994.941, 0.02992419, 9.998311, 9.996529 
5.548525e+2, 1.5239102e+2, -1458217.6, -1476191.5, -5563.171, -0.004959865, -0.03894034, -1456635.1, -10070.946, 0.014122313, 9.9989605, 9.9965515 
5.549023e+2, 1.623866e+2, -1363376.6, -1399705.5, -8154.95, -0.014869806, -0.041787107, -1361630.0, -13022.576, 0.005183735, 9.99961, 9.994771 
5.5495214e+2, 1.7238142e+2, -1256331.0, -1298474.4, -8270.094, -0.0049243174, -0.03845012, -1254766.3, -4107.859, 0.0014511821, 10.000274, 9.994664 
5.550015e+2, 1.8237516e+2, -1162983.8, -1222913.8, -11285.616, 0.0011972305, -0.03576736, -1160928.9, -8209.453, 0.0003083134, 10.000824, 9.992872 
5.5505055e+2, 1.9236797e+2, -1059811.1, -1123728.3, -10867.432, -0.0062287105, -0.041887578, -1058013.9, -3223.7668, 0.000049822887, 10.001226, 9.992756 
5.550993e+2, 2.0235987e+2, -968664.0, -1048648.3, -11590.281, -0.008662145, -0.039547004, -967018.4, -10148.783, 0.000006177535, 10.001594, 9.991018 
5.551484e+2, 2.1235098e+2, -864709.9, -949132.4, -11894.602, 0.003621608, -0.023582198, -863066.0, -4109.386, 0.00000062156136, 10.002053, 9.990893 
5.551975e+2, 2.2234112e+2, -769941.9, -869399.4, -11638.611, 0.009920648, -0.02543496, -768598.06, -7544.871, 0.0000000784953, 10.002538, 9.989414 
5.5524683e+2, 2.3233008e+2, -660844.1, -766997.1, -9187.967, -0.0017289255, -0.06606451, -660054.75, 3106.2793, 0.000000033049396, 10.003331, 9.989328 
5.552962e+2, 2.4231854e+2, -567118.56, -693319.6, -8777.226, -0.009159313, -0.06785475, -566511.0, -1237.0999, 0.00000003053741, 10.003986, 9.987352 
5.5534583e+2, 2.5230622e+2, -463942.9, -597006.3, -10025.305, -0.0027425413, -0.0041352254, -463191.8, 4203.3623, 0.00000005386784, 10.004514, 9.986976 
5.5539566e+2, 2.622926e+2, -368130.22, -514682.53, -8061.164, -0.001839044, -0.008349532, -367688.16, 1840.7474, 0.00000019406193, 10.004988, 9.985666 
5.554459e+2, 2.72277e+2, -263814.66, -415841.38, -6577.758, -0.012804011, -0.114290446, -263530.6, 8150.952, 0.00000074942295, 10.005509, 9.985468 
5.5549663e+2, 2.82262e+2, -173310.64, -347331.97, -4924.707, -0.009623556, -0.07058204, -173171.39, 657.08466, 0.0000022942224, 10.006114, 9.98315 
5.555472e+2, 2.9224673e+2, -68616.766, -253365.88, -5962.2095, 0.017553233, 0.13724488, -68424.555, 7553.3896, 0.0000053700915, 10.006873, 9.982506 
5.555993e+2, 3.022288e+2, 36589.664, -111587.945, 3974.0566, 0.0034006862, -0.18314686, 36696.168, 36696.168, 0.000009930988, 10.00791, 9.988343 
5.556519e+2, 3.1221923e+2, 79623.1, -43297.234, -662.75616, -0.0031048656, -0.007213663, 79626.68, 79626.68, 0.000015272311, 10.008824, 9.992589 
5.6469905e+2, 1.2234791e+2, -1749290.1, -1729360.1, 3639.3455, 0.0041326615, -0.038962334, -1728716.4, 12269.927, 0.092263974, 9.997381, 10.000176 
5.6475013e+2, 1.3234544e+2, -1659012.1, -1665634.8, -5732.356, -0.010888139, -0.05644178, -1655703.4, -12692.8955, 0.06411256, 9.998244, 9.997351 
5.6480104e+2, 1.4234243e+2, -1555457.3, -1575272.3, -6773.5073, 0.0070973346, -0.03576507, -1553363.1, -8322.954, 0.037873123, 9.999068, 9.996428 
5.648517e+2, 1.5233892e+2, -1451669.8, -1474511.3, -6808.661, -0.0052820216, -0.040114645, -1449794.1, -2719.5618, 0.018134005, 9.999464, 9.996417 
5.6490207e+2, 1.6233437e+2, -1360740.1, -1399760.6, -9773.353, -0.013987672, -0.043321814, -1358429.0, -9309.653, 0.0067838547, 9.999841, 9.994651 
5.649524e+2, 1.723291e+2, -1258267.4, -1300767.1, -9902.523, -0.00402479, -0.036646433, -1256073.3, -4902.2764, 0.0019465192, 10.000193, 9.994544 
5.6500226e+2, 1.8232279e+2, -1166402.0, -1224835.9, -12898.898, 0.0028121572, -0.032469083, -1163681.4, -10448.364, 0.0004271751, 10.000598, 9.992846 
5.650518e+2, 1.9231555e+2, -1059225.1, -1123359.8, -12980.365, -0.0034605765, -0.041638337, -1056697.6, -1393.9166, 0.00007248392, 10.00126, 9.992759 
5.651011e+2, 2.0230734e+2, -965670.6, -1048872.0, -14051.357, -0.0058512953, -0.042562116, -963361.7, -5977.5845, 0.000010126858, 10.001865, 9.990866 
5.6515074e+2, 2.1229826e+2, -859515.9, -948886.5, -13555.346, 0.0026317828, -0.029147439, -857505.1, 1968.0928, 0.0000016724213, 10.002497, 9.990693 
5.6520015e+2, 2.2228824e+2, -765037.5, -868092.9, -13920.276, 0.0074344957, -0.030969055, -763190.4, -1618.8857, 0.00000068287227, 10.002903, 9.9893265 
5.6525004e+2, 2.3227721e+2, -665421.1, -769928.1, -14492.826, 0.0014614, -0.063715205, -663448.56, 230.57336, 0.00000051860127, 10.00303, 9.989271 
5.6529987e+2, 2.4226573e+2, -577755.7, -698207.5, -14772.598, -0.0024252972, -0.05847293, -575970.4, -10178.707, 0.00000047300682, 10.003231, 9.987379 
5.653501e+2, 2.5225338e+2, -469413.9, -599022.44, -12270.058, -0.0029412282, 0.000878766, -468262.53, -349.74326, 0.00000055618574, 10.004095, 9.98704 
5.6540054e+2, 2.6223975e+2, -370143.6, -515198.03, -8786.866, -0.0059607215, -0.014953281, -369613.28, 433.3158, 0.0000011869142, 10.004803, 9.985728 
5.654514e+2, 2.7222407e+2, -265874.22, -416861.8, -9302.856, -0.010301852, -0.13168146, -265303.2, 6897.1147, 0.0000037901987, 10.005342, 9.985485 
5.6550276e+2, 2.8220934e+2, -174149.2, -345011.63, -7819.2124, -0.0019125136, -0.074633084, -173792.13, 552.132, 0.000011143965, 10.005893, 9.983427 
5.6555396e+2, 2.9219463e+2, -70307.59, -252300.42, -6231.9565, 0.020370385, 0.16621214, -70094.445, 6393.8853, 0.00002588088, 10.006647, 9.982694 
5.6560695e+2, 3.0217594e+2, 27563.281, -125028.83, 4619.577, -0.006200944, -0.20413026, 27703.008, 27703.008, 0.000047783215, 10.00768, 9.987522 
5.656605e+2, 3.121656e+2, 74299.98, -39038.715, -5124.548, 0.0012177438, -0.016424678, 74531.21, 74531.21, 0.00007346192, 10.008152, 9.993196 
5.746963e+2, 1.2229583e+2, -1754114.9, -1735848.9, 2521.7703, -0.00786686, -0.028164787, -1735507.1, 5989.721, 0.11375035, 9.997259, 9.99976 
5.747483e+2, 1.3229313e+2, -1660648.4, -1666636.8, -2767.7178, -0.017618392, -0.06082565, -1659565.1, -16042.004, 0.07970576, 9.998146, 9.997323 
5.7480013e+2, 1.4229009e+2, -1557219.8, -1577603.5, -5496.274, 0.0052534686, -0.036142413, -1555832.1, -10279.021, 0.04762608, 9.99902, 9.996286 
5.748513e+2, 1.5228643e+2, -1453516.0, -1477685.4, -6048.985, 0.003339228, -0.038846005, -1452086.6, -4497.4556, 0.023162274, 9.999446, 9.996203 
5.7490206e+2, 1.6228166e+2, -1361735.3, -1401707.1, -9034.743, -0.001380037, -0.03995104, -1359788.0, -10152.122, 0.008851887, 9.999848, 9.994507 
5.7495266e+2, 1.7227626e+2, -1259004.0, -1302274.8, -9121.568, -0.0034789515, -0.037320845, -1257159.8, -5470.9, 0.0026185028, 10.000204, 9.994428 
5.750028e+2, 1.8226978e+2, -1166751.3, -1225811.0, -11247.911, -0.002720484, -0.03712724, -1164681.6, -10929.256, 0.0006049601, 10.000616, 9.992764 
5.7505316e+2, 1.922625e+2, -1059417.5, -1124328.6, -10817.182, 0.00414389, -0.04500794, -1057662.3, -1838.8328, 0.00011675058, 10.001291, 9.992669 
5.7510304e+2, 2.0225418e+2, -965862.2, -1049748.3, -12023.946, 0.0062438482, -0.047752783, -964172.75, -6267.8506, 0.000025390495, 10.001891, 9.9907875 
5.751531e+2, 2.1224488e+2, -859709.1, -949878.3, -11331.678, -0.0063389433, -0.047775798, -858306.9, 1689.0334, 0.000010757624, 10.002528, 9.990603 
5.752029e+2, 2.2223465e+2, -767343.06, -873150.1, -13188.293, -0.012968237, -0.05038989, -765724.0, -3627.6975, 0.0000077366185, 10.002916, 9.988974 
5.752531e+2, 2.3222357e+2, -668463.56, -776260.56, -13972.645, 0.0031560014, -0.047652617, -666681.9, -2476.7043, 0.000006522971, 10.003036, 9.988833 
5.753032e+2, 2.4221206e+2, -576318.75, -695012.8, -12204.505, 0.014550041, -0.024215365, -575076.9, -8758.697, 0.000005941919, 10.003215, 9.987604 
5.753542e+2, 2.5219983e+2, -466195.88, -591996.1, -8803.848, 0.0016215863, -0.0019619588, -465582.75, 2855.0679, 0.000005930573, 10.004071, 9.98753 
5.7540536e+2, 2.621862e+2, -370828.25, -516119.4, -6795.8716, -0.009301638, -0.04632569, -370511.06, 59.768673, 0.000007746674, 10.00478, 9.985674 
5.7545686e+2, 2.7217034e+2, -268028.0, -421196.3, -7571.129, 0.0040085977, -0.1508767, -267654.7, 5071.7715, 0.000016548, 10.005339, 9.985184 
5.7550883e+2, 2.821559e+2, -171779.31, -339606.0, -5853.778, 0.018595368, -0.0689651, -171575.38, 3292.5999, 0.000042830554, 10.005864, 9.98381 
5.755605e+2, 2.9214185e+2, -67845.1, -245752.36, -3537.1477, 0.005704125, 0.18987261, -67774.8, 9230.773, 0.000096663134, 10.006578, 9.9831705 
5.756142e+2, 3.0212247e+2, 18397.57, -141864.17, 6968.0444, -0.046995237, -0.22989592, 18699.965, 18699.965, 0.00017732779, 10.007595, 9.986399 
5.7566875e+2, 3.121111e+2, 76402.16, -33333.926, -3684.6492, 0.01853646, -0.0045261504, 76525.74, 76525.74, 0.00027223537, 10.008113, 9.993593 
5.8469385e+2, 1.2224267e+2, -1747591.1, -1737716.3, -1758.344, -0.0042733103, -0.031727184, -1737412.5, 4605.2544, 0.13972634, 9.997912, 9.9993105 
5.847466e+2, 1.3224016e+2, -1654062.6, -1661863.4, -3535.917, -0.019102043, -0.05501394, -1652698.5, -8656.067, 0.09881995, 9.998518, 9.997458 
5.847992e+2, 1.422371e+2, -1555007.4, -1576719.6, -6578.924, 0.0066682254, -0.037141263, -1553169.5, -7097.0137, 0.05983596, 9.999178, 9.996262 
5.848508e+2, 1.5223339e+2, -1451347.3, -1477217.6, -6836.8794, 0.004305184, -0.037973963, -1449651.5, -1542.8052, 0.029672418, 9.999615, 9.996149 
5.84902e+2, 1.6222855e+2, -1359873.4, -1402195.3, -8905.465, 0.00033051136, -0.03905704, -1358075.9, -7919.6616, 0.011691614, 10.000028, 9.994386 
5.8495307e+2, 1.7222297e+2, -1254254.5, -1301908.9, -9504.303, -0.0008438535, -0.03914278, -1252428.9, -218.04294, 0.0036588176, 10.000607, 9.994255 
5.8500373e+2, 1.8221629e+2, -1160730.4, -1224931.6, -12329.712, 0.00016449735, -0.04032935, -1158443.9, -4167.633, 0.0009683537, 10.001107, 9.992582 
5.850546e+2, 1.9220886e+2, -1057784.6, -1125876.3, -13026.646, 0.0053125517, -0.045448564, -1055377.5, 971.50757, 0.00027478443, 10.001498, 9.992459 
5.8510494e+2, 2.022004e+2, -966937.56, -1051011.8, -15010.188, 0.0070011527, -0.045321025, -964338.1, -5906.123, 0.00012467508, 10.001834, 9.990727 
5.851556e+2, 2.1219112e+2, -863849.1, -952028.1, -14069.9795, -0.0041700746, -0.044399947, -861658.5, -1135.7349, 0.0000877705, 10.002239, 9.990595 
5.852057e+2, 2.2218077e+2, -773114.8, -877946.44, -15868.419, -0.010603374, -0.0481527, -770765.5, -8141.1797, 0.00007200422, 10.002611, 9.988787 
5.852563e+2, 2.3216945e+2, -665950.06, -777216.6, -15351.872, 0.0011283539, -0.050218847, -663870.75, 864.79034, 0.00006284414, 10.0033, 9.988637 
5.8530664e+2, 2.4215774e+2, -570336.6, -693535.25, -13467.92, 0.011213994, -0.027689427, -568881.56, -2031.0725, 0.00005789635, 10.003663, 9.987494 
5.853582e+2, 2.521455e+2, -470125.6, -594685.7, -13392.468, 0.0052974597, 0.0020097198, -468701.94, 268.0601, 0.000055242694, 10.003814, 9.987471 
5.854097e+2, 2.6213187e+2, -382884.6, -522569.16, -13029.874, -0.0032973601, -0.04108807, -381679.56, -10576.203, 0.000055795954, 10.003944, 9.98564 
5.85462e+2, 2.721159e+2, -273072.6, -423930.66, -11486.969, -0.0012739717, -0.15583964, -272202.94, 1057.357, 0.00007332081, 10.004968, 9.985181 
5.8551455e+2, 2.8210166e+2, -172799.98, -337615.38, -10205.203, 0.011937054, -0.06887691, -172170.5, 3229.181, 0.0001400374, 10.005672, 9.984037 
5.8556676e+2, 2.9208794e+2, -78405.54, -249638.58, -9869.148, 0.018006826, 0.21208608, -77838.6, -304.85294, 0.00028783004, 10.005764, 9.983304 
5.856214e+2, 3.0206794e+2, -1869.3318, -162043.92, 2218.7053, -0.03805779, -0.23816915, -1838.6046, -1838.6046, 0.00051568105, 10.006594, 9.985503 
5.85677e+2, 3.120558e+2, 87030.17, -15391.795, -6219.718, 0.018490795, -0.0022100774, 87406.49, 87406.49, 0.00078684813, 10.008234, 9.994778 
5.9469193e+2, 1.2218867e+2, -1754096.9, -1746431.3, -2651.3867, 0.014101026, -0.058819577, -1745603.6, -3056.7607, 0.17203067, 9.997747, 9.998745 
5.947451e+2, 1.321868e+2, -1653811.0, -1659086.1, -2360.7512, -0.017746866, -0.03575078, -1652908.9, -8343.569, 0.12317733, 9.9984255, 9.9976845 
5.947984e+2, 1.4218368e+2, -1555160.5, -1575691.8, -5724.9, 0.008638228, -0.036762733, -1553672.0, -7076.024, 0.0760359, 9.99913, 9.996344 
5.9485036e+2, 1.5218008e+2, -1451362.0, -1476026.8, -6324.2607, -0.005479215, -0.038631763, -1449835.0, -1203.5732, 0.038946632, 9.999573, 9.996242 
5.949019e+2, 1.6217522e+2, -1361082.4, -1404168.1, -7829.415, -0.014401132, -0.04176832, -1359703.8, -9024.886, 0.016318014, 10.000013, 9.99425 
5.9495366e+2, 1.721694e+2, -1256226.8, -1305759.3, -7999.944, -0.0004764137, -0.04313299, -1254966.8, -2230.985, 0.0058532357, 10.000607, 9.993984 
5.950049e+2, 1.8216242e+2, -1162969.0, -1229673.3, -11269.577, 0.0077754813, -0.042883363, -1161116.4, -6312.3535, 0.002137039, 10.001124, 9.992243 
5.9505606e+2, 1.9215469e+2, -1060051.0, -1130988.0, -12021.872, -0.0026911972, -0.042703137, -1058069.0, -1188.8499, 0.001055166, 10.00153, 9.992086 
5.951066e+2, 2.0214601e+2, -967212.44, -1052048.6, -13986.961, -0.008063408, -0.034704387, -964965.9, -6000.5894, 0.00073918933, 10.001861, 9.99064 
5.951579e+2, 2.121369e+2, -863310.7, -951542.4, -12946.495, 0.00411616, -0.02047398, -861450.25, -395.85403, 0.00060496945, 10.002273, 9.990605 
5.952085e+2, 2.2212648e+2, -773012.3, -878075.5, -13817.556, 0.0088257305, -0.02595027, -771225.44, -8069.128, 0.0005205493, 10.002625, 9.988769 
5.952595e+2, 2.3211478e+2, -665817.0, -777026.94, -12755.675, -0.0094858995, -0.06967568, -664372.7, 898.4055, 0.0004661713, 10.003303, 9.988646 
5.9531003e+2, 2.421027e+2, -573770.8, -700154.4, -12605.926, -0.016695525, -0.06564384, -572525.75, -5136.258, 0.0004356508, 10.003644, 9.98705 
5.9536207e+2, 2.5209036e+2, -474004.66, -602806.6, -12915.045, 0.0044832053, 0.0099643, -472722.4, -3212.0232, 0.0004130641, 10.003822, 9.986909 
5.954138e+2, 2.6207662e+2, -383420.94, -523632.0, -10499.434, 0.0074669714, -0.007032328, -382639.06, -10993.822, 0.00038235346, 10.003925, 9.98558 
5.954667e+2, 2.7206045e+2, -271954.9, -421396.03, -7597.6934, -0.026588336, -0.14873368, -271569.66, 2233.6636, 0.00036756825, 10.004945, 9.985365 
5.9551984e+2, 2.8204644e+2, -172816.11, -336476.06, -9631.722, -0.022886436, -0.07195928, -172251.2, 3689.4624, 0.00045654777, 10.005604, 9.984155 
5.955728e+2, 2.9203284e+2, -80775.59, -253112.31, -9553.719, 0.04808325, 0.23005164, -80247.586, -2173.3987, 0.0007430319, 10.005694, 9.983102 
5.956284e+2, 3.020121e+2, -9212.457, -175143.86, 7243.169, 0.004974346, -0.23494719, -8896.882, -8896.882, 0.0012328605, 10.006497, 9.984647 
5.9568495e+2, 3.1199932e+2, 96751.55, 8631.972, -624.3902, -0.010990164, 0.013737071, 96755.97, 96755.97, 0.0018376576, 10.008082, 9.99649 
6.0469013e+2, 1.2213482e+2, -1743878.0, -1748751.9, -2155.7686, 0.01523435, -0.057661112, -1743061.4, 13.223334, 0.214152, 9.998765, 9.998092 
6.047437e+2, 1.3213293e+2, -1645187.5, -1654642.4, -7.7711496, -0.020923695, -0.024959339, -1645187.5, -94.320015, 0.15643857, 9.99899, 9.997712 
6.047976e+2, 1.4212964e+2, -1552647.8, -1575293.6, -4809.646, 0.0105610415, -0.047086615, -1551668.6, -4543.1377, 0.09991464, 9.999323, 9.996281 
6.0484993e+2, 1.5212591e+2, -1451868.6, -1478972.8, -8286.594, -0.002820885, -0.041200455, -1449535.9, -373.79388, 0.054502863, 9.999648, 9.996001 
6.049019e+2, 1.6212098e+2, -1359572.6, -1403201.9, -10840.381, -0.01315374, -0.038068447, -1357027.6, -5817.3413, 0.025911747, 10.0001, 9.994267 
6.0495436e+2, 1.7211518e+2, -1253283.5, -1303516.1, -9039.193, -0.003710721, -0.045395218, -1251706.4, 1560.6163, 0.011987488, 10.000766, 9.994056 
6.050061e+2, 1.8210813e+2, -1159945.5, -1229609.4, -10863.8125, 0.0033075262, -0.049466725, -1158290.6, -2954.673, 0.0065416535, 10.001381, 9.992122 
6.050577e+2, 1.9210029e+2, -1056337.8, -1131512.1, -10935.906, -0.0004891256, -0.04449265, -1054779.3, 2633.9592, 0.0046063922, 10.001875, 9.991884 
6.0510874e+2, 2.0209138e+2, -963186.94, -1052782.4, -13111.178, -0.0025872325, -0.033830743, -961307.7, -1807.1108, 0.0037910414, 10.00226, 9.990388 
6.0516036e+2, 2.12082e+2, -861142.5, -953349.44, -14603.354, 0.0026983842, -0.024286278, -858884.94, 2707.5732, 0.003294016, 10.002549, 9.99034 
6.0521114e+2, 2.220713e+2, -771426.9, -878761.75, -16742.012, 0.0039198315, -0.033166803, -768876.1, -5178.896, 0.0029299043, 10.002783, 9.988643 
6.052627e+2, 2.3205958e+2, -668807.8, -779225.0, -16374.352, -0.008357665, -0.073591515, -666430.75, -618.9035, 0.0026845648, 10.003121, 9.988579 
6.053136e+2, 2.4204737e+2, -580213.2, -706049.75, -16686.777, -0.010848184, -0.06403944, -578038.0, -10106.546, 0.0025410713, 10.003321, 9.986794 
6.0536605e+2, 2.5203487e+2, -471406.84, -603621.44, -14788.769, 0.0074176444, 0.015619276, -469772.88, 281.28833, 0.0024159902, 10.004074, 9.986732 
6.054179e+2, 2.6202086e+2, -379033.9, -525560.4, -11111.462, 0.0075499555, -0.0039803176, -378196.06, -6004.2896, 0.0021913543, 10.004366, 9.9852495 
6.054716e+2, 2.7200422e+2, -273824.7, -425655.25, -10483.456, -0.024815364, -0.16076979, -273104.25, 1250.2156, 0.0018755151, 10.004902, 9.985115 
6.055252e+2, 2.819901e+2, -178785.03, -338176.84, -16086.507, -0.01756796, -0.09044585, -177177.72, -685.2043, 0.0017067166, 10.005087, 9.984306 
6.055786e+2, 2.9197672e+2, -76886.83, -250684.14, -13616.276, 0.049396925, 0.22294386, -75826.52, 2797.5486, 0.0019738742, 10.005897, 9.983181 
6.05635e+2, 3.019554e+2, -12025.355, -192812.44, 5466.741, -0.011739239, -0.24283625, -11860.2, -11860.2, 0.00273566, 10.006999, 9.983184 
6.0569286e+2, 3.1194073e+2, 93391.555, 16115.287, -8919.31, -0.0002158745, -0.015438237, 94407.67, 94407.67, 0.0038015225, 10.007469, 9.997278 
6.1468863e+2, 1.2208177e+2, -1749078.0, -1758384.3, -9271.755, -0.01813722, -0.01254267, -1743357.3, 237.30656, 0.27198067, 9.998751, 9.9974375 
6.147427e+2, 1.3207906e+2, -1646644.9, -1656700.5, -285.98676, -0.028076181, -0.026032953, -1646636.8, -1015.9087, 0.20546661, 9.998965, 9.997573 
6.14797e+2, 1.4207546e+2, -1555395.1, -1579950.1, -5052.1997, 0.011099198, -0.06985329, -1554396.3, -6740.2603, 0.13911296, 9.99929, 9.995971 
6.1484975e+2, 1.520714e+2, -1457523.0, -1489225.4, -8194.252, 0.009252619, -0.043243993, -1455530.3, -5833.9927, 0.08438501, 9.999599, 9.995318 
6.149022e+2, 1.620662e+2, -1359899.8, -1402448.3, -9887.783, 0.0015263414, -0.02385314, -1357714.3, -5966.979, 0.048496593, 10.000046, 9.994336 
6.14955e+2, 1.7206055e+2, -1251598.6, -1298899.5, -7533.291, -0.010891817, -0.044717055, -1250427.8, 3374.7004, 0.02976512, 10.000731, 9.994376 
6.150074e+2, 1.8205364e+2, -1159820.4, -1228922.4, -9545.211, -0.01494696, -0.05884759, -1158526.1, -2655.894, 0.021445168, 10.001372, 9.992164 
6.1505973e+2, 1.9204576e+2, -1056853.1, -1132576.5, -9758.79, 0.008462109, -0.05120467, -1055615.6, 2331.6963, 0.017750558, 10.001892, 9.991793 
6.151113e+2, 2.0203659e+2, -966378.8, -1059197.9, -12425.037, 0.018991698, -0.043309342, -964744.3, -4706.9917, 0.015685128, 10.002258, 9.989946 
6.151628e+2, 2.1202646e+2, -864876.8, -961414.0, -13743.792, -0.012071351, -0.05449851, -862958.3, -821.6229, 0.014165093, 10.002571, 9.989774 
6.1521363e+2, 2.2201523e+2, -772981.75, -882346.75, -15666.213, -0.029343475, -0.06784487, -770781.9, -6535.155, 0.012958546, 10.002805, 9.988383 
6.152659e+2, 2.3200387e+2, -669791.7, -781406.44, -15390.608, 0.001010362, -0.064309195, -667708.4, -1350.4497, 0.012107187, 10.003133, 9.98842 
6.153173e+2, 2.4199165e+2, -581547.56, -708020.94, -14309.36, 0.023324635, -0.027897794, -579948.75, -11471.4795, 0.0115695195, 10.003295, 9.986664 
6.153701e+2, 2.5197887e+2, -471082.0, -602757.2, -12314.894, 0.0056241537, 0.017618766, -469940.16, 662.66943, 0.011032614, 10.004077, 9.986777 
6.154221e+2, 2.6196432e+2, -384450.66, -535771.06, -10094.994, -0.015450249, -0.0279845, -383780.16, -11034.898, 0.010000831, 10.004296, 9.984593 
6.154767e+2, 2.7194688e+2, -279090.97, -437010.63, -8907.101, -0.0126512125, -0.19157465, -278590.2, -3673.7551, 0.008357119, 10.0049095, 9.984334 
6.155306e+2, 2.8193235e+2, -178324.39, -337088.3, -15037.818, 0.012078185, -0.12796262, -176912.6, 146.11778, 0.0067573693, 10.005043, 9.98442 
6.155842e+2, 2.9191923e+2, -75990.48, -247671.31, -10433.749, 0.02004432, 0.18887126, -75358.695, 3828.84, 0.0061111376, 10.005809, 9.983444 
6.1564124e+2, 3.0189764e+2, -27579.537, -221224.3, 7919.9795, -0.08233988, -0.25422874, -27256.154, -27256.154, 0.006720624, 10.00681, 9.9813385 
6.157005e+2, 3.1188017e+2, 88126.195, 14437.171, -6173.46, 0.029073894, -0.060812216, 88639.81, 88639.81, 0.008187074, 10.007097, 9.997347 
6.246879e+2, 1.220258e+2, -1745739.5, -1759695.3, -5681.659, 0.023936432, -0.08329834, -1743718.9, 424.03952, 0.3541072, 9.999077, 9.99718 
6.247419e+2, 1.3202427e+2, -1634369.3, -1645320.4, -1114.0358, -0.048065133, -0.014847944, -1634257.0, 11900.716, 0.28109142, 9.999946, 9.99789 
6.2479657e+2, 1.4202076e+2, -1543142.8, -1571263.6, -6202.5757, 0.000786389, -0.067263916, -1541835.5, 6356.509, 0.20657134, 10.000141, 9.996149 
6.2484956e+2, 1.5201694e+2, -1444272.4, -1477903.6, -2543.3464, 0.00024369161, -0.049475797, -1444081.1, 6148.4966, 0.1432552, 10.000365, 9.995728 
6.249026e+2, 1.6201185e+2, -1350773.0, -1403447.3, 699.06116, -0.004632042, -0.03326443, -1350763.8, 1515.9645, 0.09987318, 10.000901, 9.993866 
6.2495625e+2, 1.7200552e+2, -1246923.3, -1306779.8, -6008.487, -0.0016373709, -0.03685428, -1246326.1, 8015.7256, 0.075513154, 10.001529, 9.99345 
6.250091e+2, 1.8199816e+2, -1151262.3, -1223012.6, -15583.64, -0.00014645113, -0.040843662, -1148023.9, 8390.117, 0.06323491, 10.001909, 9.992306 
6.250614e+2, 1.919906e+2, -1057399.6, -1127410.4, -13526.603, -0.0026231755, -0.046997372, -1054877.1, 3610.8987, 0.056682963, 10.001619, 9.99228 
6.25113e+2, 2.0198172e+2, -973086.9, -1060436.3, -10430.354, -0.0020046618, -0.04567722, -971858.7, -11283.713, 0.052283235, 10.001698, 9.990138 
6.251656e+2, 2.1197192e+2, -862171.5, -959593.94, -7173.6436, 0.0046961783, -0.03392353, -861646.06, 1025.0028, 0.048651624, 10.002734, 9.989822 
6.2521714e+2, 2.2196059e+2, -766529.06, -885627.9, -8161.1455, 0.007399766, -0.03657522, -765972.44, -1190.1973, 0.04555987, 10.003528, 9.987811 
6.252696e+2, 2.3194814e+2, -660997.06, -786099.0, -13376.963, 0.0030345619, -0.06562815, -659582.7, 7321.2793, 0.043225635, 10.004149, 9.987606 
6.253209e+2, 2.4193485e+2, -568234.5, -708934.9, -17149.781, 0.0030088925, -0.05659642, -566174.3, 2859.6, 0.04156095, 10.004482, 9.986051 
6.253742e+2, 2.5192168e+2, -474166.06, -610038.94, -20131.2, 0.006783253, -0.0012914037, -471246.16, -83.18629, 0.0396842, 10.004064, 9.986308 
6.254261e+2, 2.6190677e+2, -400155.28, -548237.25, -17717.977, 0.001072111, -0.022511236, -398064.84, -24755.55, 0.036110226, 10.0034275, 9.984146 
6.2548167e+2, 2.7188954e+2, -275373.6, -434425.63, -10421.824, -0.011943337, -0.15120393, -274693.63, 784.51996, 0.030348925, 10.005115, 9.984409 
6.255359e+2, 2.818751e+2, -171738.7, -337898.72, -16542.424, 0.0055674016, -0.08186097, -170107.8, 7511.838, 0.02407558, 10.005649, 9.984081 
6.2559074e+2, 2.91861e+2, -64844.71, -250017.47, -15620.08, 0.03890522, 0.19954681, -63536.34, 16221.534, 0.019858932, 10.006901, 9.982756 
6.256484e+2, 3.018392e+2, -33587.848, -236306.3, -4890.896, -0.051623408, -0.19491279, -33469.918, -33469.918, 0.018799573, 10.006825, 9.980332 
6.257068e+2, 3.118205e+2, 64167.773, 16752.924, -11834.895, 0.04923005, -0.011961731, 66957.64, 66957.64, 0.020104513, 10.004729, 9.99874 
6.3474214e+2, 1.31969e+2, -1668253.1, -1658854.0, -3602.5903, -0.009293092, -0.028227722, -1657632.0, -10932.636, 0.3986437, 9.997151, 9.998287 
6.347969e+2, 1.4196603e+2, -1574676.6, -1580440.9, -11549.002, 0.0323753, -0.04548686, -1565655.6, -16927.068, 0.32109898, 9.997596, 9.99675 
6.348497e+2, 1.5196303e+2, -1446277.1, -1462491.3, -3986.335, -0.01573795, -0.07103207, -1445350.0, 5407.573, 0.25318962, 9.999575, 9.99716 
6.3490325e+2, 1.6195837e+2, -1358699.3, -1419184.5, 1349.6243, -0.035832707, -0.07283177, -1358669.1, -5866.2007, 0.20482565, 10.000871, 9.992798 
6.34958e+2, 1.7195052e+2, -1262728.5, -1339825.5, -4841.769, 0.017637681, -0.027133424, -1262425.6, -7544.925, 0.1758956, 10.00151, 9.991198 
6.350115e+2, 1.819421e+2, -1152502.4, -1222406.1, -16605.518, 0.038618825, 0.003697199, -1148758.3, 8205.427, 0.15969306, 10.001866, 9.992362 
6.350627e+2, 1.9193503e+2, -1052307.9, -1113816.5, -14936.073, -0.04054214, -0.03494968, -1048872.9, 10159.88, 0.14982603, 10.001636, 9.993192 
6.35114e+2, 2.019269e+2, -967834.7, -1049720.3, -8008.9746, -0.076730974, -0.04328795, -967058.75, -5946.3853, 0.14231765, 10.001717, 9.990845 
6.351687e+2, 2.1191838e+2, -857693.7, -950096.56, -3453.2732, 0.03952095, 0.029689958, -857564.8, 5630.9937, 0.13550727, 10.002805, 9.990423 
6.3522166e+2, 2.219073e+2, -772131.75, -899171.06, -5814.9106, 0.10095651, 0.055587795, -771866.1, -6561.7993, 0.12921391, 10.003624, 9.98683 
6.352737e+2, 2.3189242e+2, -670454.7, -807439.06, -11190.885, -0.010789112, -0.07842504, -669546.5, -2096.6077, 0.12399557, 10.004209, 9.98611 
6.3532466e+2, 2.4187697e+2, -577756.1, -727194.06, -17194.338, -0.07881137, -0.14389329, -575803.25, -6202.1187, 0.11969438, 10.004419, 9.98483 
6.353783e+2, 2.518633e+2, -481844.88, -625231.1, -22890.719, 0.00071818166, -0.042323727, -478279.2, -6543.8213, 0.114343435, 10.004038, 9.985283 
6.3543e+2, 2.618481e+2, -403444.72, -553678.2, -14737.332, 0.04433844, 0.009224415, -402012.7, -28128.006, 0.10449232, 10.003335, 9.98383 
6.354868e+2, 2.7183202e+2, -270941.34, -424232.97, -5176.829, -0.028360497, -0.048096236, -270766.72, 5275.1494, 0.08894842, 10.005083, 9.985124 
6.3554114e+2, 2.81818e+2, -177989.14, -350504.2, -16365.609, -0.04181056, 0.03367055, -176450.34, 1728.9481, 0.07142308, 10.005568, 9.983283 
6.3559806e+2, 2.9180172e+2, -76446.63, -273002.6, -12172.739, 0.08503213, 0.236455, -75695.64, 4643.048, 0.057965472, 10.006801, 9.981245 
6.3565594e+2, 3.0177975e+2, -39038.133, -242196.16, -13092.38, 0.038786624, -0.08819523, -38197.88, -38197.88, 0.051588327, 10.006546, 9.980097 
6.3571084e+2, 3.1176123e+2, 69111.54, 40587.484, -19226.598, 0.018714968, 0.11821204, 78788.336, 78788.336, 0.050905686, 10.004253, 10.000758 
6.4490235e+2, 1.618964e+2, -1382190.9, -1375915.0, -10934.041, -0.0066267764, -0.040120237, -1367677.6, -14267.029, 0.39385006, 9.996859, 9.997523 
6.449595e+2, 1.7189382e+2, -1233276.8, -1251491.3, -5866.515, 0.027587177, -0.04075367, -1231550.9, 23884.918, 0.3631605, 10.00134, 9.997428 
6.45012e+2, 1.8188879e+2, -1154016.3, -1216063.5, 15250.755, -0.079992734, -0.09012386, -1150470.4, 7014.5986, 0.34433386, 10.00162, 9.992968 
6.4506465e+2, 1.918811e+2, -1068687.3, -1141685.3, -294.51746, 0.013019731, -0.058450785, -1068686.1, -9125.563, 0.33186242, 10.001233, 9.991503 
6.451168e+2, 2.0187165e+2, -984039.4, -1071401.9, -6829.389, 0.057049554, -0.044239633, -983508.7, -21855.314, 0.32141975, 10.001219, 9.989591 
6.451709e+2, 2.1186088e+2, -866845.2, -966962.7, -13426.235, -0.019853836, -0.08821562, -865075.94, -1316.9089, 0.31100234, 10.002626, 9.989332 
6.4522386e+2, 2.2184902e+2, -762875.56, -881278.1, -21047.98, -0.066079065, -0.10644827, -759245.25, 6630.006, 0.30041274, 10.003921, 9.987882 
6.452781e+2, 2.3183797e+2, -663012.0, -781851.06, -4281.5225, 0.014330907, -0.037852857, -662857.94, 5125.8867, 0.29071087, 10.00395, 9.987993 
6.453304e+2, 2.4182428e+2, -588432.7, -746368.6, 4388.306, 0.068536825, 0.0247822, -588310.9, -18192.93, 0.28173953, 10.004304, 9.9836035 
6.4538336e+2, 2.518075e+2, -465288.6, -633583.3, -9641.025, 0.004313742, -0.0010501198, -464738.1, 7543.5244, 0.26974326, 10.006099, 9.983766 
6.45434e+2, 2.6178876e+2, -382675.66, -592193.5, -11089.733, -0.05628135, -0.06668135, -382090.3, -7625.1895, 0.2478019, 10.006855, 9.979501 
6.4549243e+2, 2.7176693e+2, -286339.0, -492831.1, -42448.594, -0.03578614, -0.17653099, -277953.38, -1273.9915, 0.21365945, 10.0065975, 9.979654 
6.455469e+2, 2.8174883e+2, -181117.61, -344400.84, -74725.586, 0.006025482, -0.17049469, -152082.81, 26774.094, 0.17465475, 10.0054245, 9.98372 
6.4560515e+2, 2.9173404e+2, -37443.3, -221625.6, -36389.563, 0.02303256, -0.04648429, -30514.354, 50487.297, 0.14277737, 10.008759, 9.983772 
6.4566195e+2, 3.0171514e+2, -16433.297, -217919.81, -38919.79, -0.08351338, -0.28545648, -9176.768, -9176.768, 0.12436197, 10.007582, 9.981221 
6.4571416e+2, 3.1169593e+2, 47717.78, 45931.18, -37932.258, -0.0233531, -0.1786994, 84767.25, 84767.25, 0.11729216, 10.002316, 10.002251 
6.5555274e+2, 2.8167546e+2, -197504.3, -332297.4, -9531.213, 0.022757484, -0.037283435, -196833.67, -17258.197, 0.35784882, 10.003002, 9.985763 
6.5561396e+2, 2.9166654e+2, -39288.184, -145262.39, 30908.268, 0.018898405, 0.05055074, -30932.365, 50730.332, 0.29646865, 10.006297, 9.990349 
6.5566975e+2, 3.0165446e+2, -44593.938, -200800.16, -1805.5118, -0.024790682, -0.05189405, -44573.074, -44573.074, 0.25642827, 10.004215, 9.98418 
6.5571606e+2, 3.1163618e+2, -26829.926, 19249.879, 10130.495, 0.039559923, 0.014500328, 21378.69, 21378.69, 0.23492157, 9.996118, 10.003603 
7.134215e+2, 1.7058958e+2, -1267247.3, -1274504.0, 8018.719, 0.11885521, -0.27892628, -1262074.3, 6129.8804, 0.39580005, 9.956597, 9.955231 
7.1250695e+2, 1.8054521e+2, -1166018.5, -1194912.9, 1856.8618, 0.06425633, -0.16055275, -1165899.6, 4739.9, 0.36749697, 9.957835, 9.953686 
7.115946e+2, 1.904985e+2, -1065978.1, -1098366.3, -1854.1123, 0.08801951, -0.19669464, -1065872.3, 7224.5107, 0.33911413, 9.958312, 9.953553 
7.106823e+2, 2.0045099e+2, -972310.8, -1021465.4, -9668.943, 0.07004486, -0.25006634, -970477.25, 5084.574, 0.30851838, 9.958652, 9.952054 
7.097678e+2, 2.1040212e+2, -871830.5, -937022.6, -2867.129, -0.02085788, -0.2449686, -871704.7, 6336.21, 0.27875134, 9.959522, 9.950486 
7.0885473e+2, 2.2035307e+2, -764336.1, -823976.44, 3244.6873, -0.077286646, -0.20629406, -764160.06, 16361.699, 0.25781414, 9.959969, 9.951188 
7.079434e+2, 2.3030543e+2, -677055.75, -726063.9, 2014.3286, 0.07017611, -0.15497056, -676973.06, 6015.42, 0.2560245, 9.958886, 9.9518585 
7.0703304e+2, 2.4025767e+2, -586970.6, -633481.2, -15973.543, 0.16257419, -0.14231512, -582013.1, 3443.4065, 0.28137207, 9.958119, 9.951998 
7.061133e+2, 2.5020677e+2, -472637.7, -539068.7, -17575.145, -0.1969452, -0.35673064, -468274.53, 19680.527, 0.33708623, 9.960428, 9.950731 
7.270269e+2, 1.3168837e+2, -1620950.3, -1638409.6, 6115.9326, 0.22943872, -0.19647838, -1619021.0, 30418.393, 0.38657025, 9.959954, 9.956037 
7.261127e+2, 1.4164412e+2, -1556993.4, -1564591.5, -5039.772, 0.09659464, -0.1931077, -1554481.1, -2608.6218, 0.32062596, 9.957041, 9.9560585 
7.2520334e+2, 1.5160067e+2, -1493556.4, -1487777.0, -6644.024, 0.1115743, -0.16479424, -1483421.5, -29123.352, 0.26370573, 9.954858, 9.95586 
7.242925e+2, 1.615553e+2, -1367467.5, -1401156.5, 6089.8936, 0.15730442, -0.15191412, -1366400.4, -9657.728, 0.2228128, 9.957547, 9.953104 
7.233787e+2, 1.7150803e+2, -1265062.4, -1308620.6, 3728.8806, 0.12063105, -0.14205126, -1264745.5, -5539.5425, 0.1965221, 9.958214, 9.952333 
7.2246486e+2, 1.8145996e+2, -1163290.8, -1213610.1, 4037.4282, 0.04038571, -0.15509005, -1162968.8, -1291.8768, 0.17812835, 9.958728, 9.951992 
7.2155243e+2, 1.9141215e+2, -1070974.9, -1121343.8, 3450.0642, 0.035308328, -0.13386308, -1070739.6, -6593.948, 0.16184242, 9.9585905, 9.951728 
7.2064036e+2, 2.0136403e+2, -971747.0, -1018089.8, -2652.541, 0.025174975, -0.11270685, -971595.6, -4978.4307, 0.1448277, 9.95844, 9.952221 
7.1972764e+2, 2.113163e+2, -865955.0, -913922.4, -682.3159, 0.019869775, -0.14513403, -865945.3, 3138.8494, 0.1279522, 9.958992, 9.952336 
7.188155e+2, 2.2126769e+2, -772780.75, -835409.1, -4931.7554, 0.02265895, -0.1750921, -772394.8, -834.88495, 0.11534224, 9.959188, 9.950869 
7.179015e+2, 2.3121776e+2, -691564.0, -758085.3, -5918.529, 0.013864072, -0.19704022, -691041.5, -16992.084, 0.112820126, 9.958734, 9.949769 
7.169893e+2, 2.411676e+2, -593953.44, -656126.44, -15758.8955, -0.032904025, -0.18495052, -590187.2, -13645.898, 0.12544987, 9.95844, 9.9503565 
7.160745e+2, 2.511187e+2, -470534.44, -545734.44, -12046.611, -0.13955751, -0.14035632, -468651.78, 10369.04, 0.15695432, 9.960524, 9.950309 
7.1516436e+2, 2.61068e+2, -367936.03, -460605.0, -11218.16, -0.15353319, -0.14836474, -366597.34, 14920.31, 0.20918901, 9.96167, 9.949001 
7.1425664e+2, 2.710186e+2, -298266.0, -362932.47, -13021.348, 0.049452785, -0.07467683, -295742.5, -11741.062, 0.28090832, 9.959173, 9.95085 
7.133478e+2, 2.809703e+2, -200814.02, -266736.8, -85406.875, -0.136765, -0.13342595, -142228.78, 44246.086, 0.3630289, 9.959462, 9.951722 
7.37897e+2, 1.22651495e+2, -1736023.0, -1720464.1, 9862.757, 0.22452217, -0.094449416, -1715682.0, 22321.06, 0.32493475, 9.956805, 9.959423 
7.369828e+2, 1.3260451e+2, -1658154.3, -1691418.6, 820.0843, 0.114489935, -0.17468984, -1658134.1, -17671.078, 0.25898266, 9.957738, 9.953286 
7.36071e+2, 1.4255959e+2, -1545380.6, -1569571.5, 10208.324, 0.14086288, -0.043895945, -1541648.6, 1254.283, 0.19368057, 9.9583645, 9.954849 
7.3516154e+2, 1.5251425e+2, -1437413.0, -1465244.8, 5733.2666, 0.093402654, -0.10124372, -1436278.3, 9068.76, 0.13986363, 9.959213, 9.955021 
7.342509e+2, 1.6246809e+2, -1337679.6, -1385623.8, -8771.73, 0.08592552, -0.124197975, -1336125.3, 11673.93, 0.103883736, 9.959957, 9.953296 
7.3333806e+2, 1.7242107e+2, -1230861.4, -1288100.0, -7253.833, 0.081605084, -0.13425478, -1229956.4, 20303.209, 0.083562806, 9.96077, 9.952762 
7.3242515e+2, 1.823733e+2, -1132972.4, -1198617.8, -5995.8657, 0.06500664, -0.13931482, -1132429.3, 20298.27, 0.072091475, 9.96106, 9.952008 
7.315123e+2, 1.9232532e+2, -1045213.8, -1110749.5, -4202.106, 0.060065683, -0.12745167, -1044945.5, 10252.553, 0.06384599, 9.960576, 9.951536 
7.3059994e+2, 2.0227665e+2, -953529.6, -1019056.0, -6286.5356, 0.045626715, -0.11497017, -952931.94, 4743.141, 0.056054916, 9.96022, 9.95131 
7.296873e+2, 2.1222802e+2, -853642.8, -921448.25, -9241.561, 0.022033712, -0.12812933, -852405.8, 7745.4395, 0.048504353, 9.960493, 9.951315 
7.287752e+2, 2.221786e+2, -757027.5, -835855.06, -19483.873, 0.0155438725, -0.14720015, -752474.6, 10160.493, 0.042791545, 9.960776, 9.950366 
7.278615e+2, 2.3212849e+2, -655892.0, -745616.25, -14473.313, 0.00019462264, -0.16932607, -653615.06, 11511.261, 0.041490365, 9.961444, 9.949525 
7.2694916e+2, 2.420776e+2, -556838.1, -653073.2, -15711.967, -0.05726089, -0.15375625, -554337.9, 13287.161, 0.047216214, 9.961629, 9.949098 
7.2603613e+2, 2.5202787e+2, -458397.28, -556219.4, -13783.712, -0.08797963, -0.066658005, -456492.16, 13620.554, 0.06272873, 9.961831, 9.94921 
7.251275e+2, 2.619759e+2, -377301.16, -497798.5, -18828.734, 0.001461172, -0.07255574, -374427.56, -1805.6852, 0.09099975, 9.961699, 9.946799 
7.2421825e+2, 2.7191964e+2, -273540.47, -399286.2, -9921.126, 0.11280658, -0.33356097, -272762.53, 2409.908, 0.13379948, 9.962395, 9.946697 
7.233091e+2, 2.818651e+2, -195164.5, -331433.72, -18358.268, -0.10343115, -0.35001042, -192734.6, -15028.185, 0.18802178, 9.96136, 9.945328 
7.2239333e+2, 2.918156e+2, -31092.4, -161711.08, -11050.178, -0.52409, 0.058596168, -30164.166, 50027.445, 0.24447276, 9.96552, 9.947881 
7.2149956e+2, 3.0175456e+2, -61243.56, -332422.9, 88243.33, 0.21626636, -0.32354528, -35057.324, -35057.324, 0.29310322, 9.967195, 9.93293 
7.206014e+2, 3.1168547e+2, 67312.19, 21581.086, -5761.826, -0.16464221, -0.21659896, 68026.97, 68026.97, 0.33032152, 9.964851, 9.956192 
7.478528e+2, 1.2356054e+2, -1744148.3, -1722230.0, 12655.057, 0.17477827, -0.07609648, -1716448.4, 12647.274, 0.23778631, 9.956853, 9.959822 
7.469416e+2, 1.3351561e+2, -1631800.5, -1660090.3, -15617.026, 0.16988525, -0.18708465, -1624874.9, 6660.9634, 0.17853287, 9.958996, 9.955411 
7.460315e+2, 1.4347109e+2, -1523186.1, -1565100.5, 201.4019, 0.25332305, -0.10460022, -1523185.1, 10786.828, 0.120985776, 9.960368, 9.954471 
7.451216e+2, 1.5342532e+2, -1436227.3, -1475644.0, 2055.7292, 0.1498438, -0.12991233, -1436120.3, 299.8468, 0.0749508, 9.959702, 9.954177 
7.442104e+2, 1.6337888e+2, -1343130.3, -1385046.8, -8596.6455, 0.07536305, -0.14814636, -1341435.8, -2560.4902, 0.045711238, 9.959383, 9.95365 
7.432985e+2, 1.733326e+2, -1238066.4, -1286953.8, -8862.365, 0.07851986, -0.14098528, -1236509.4, 4818.881, 0.030768666, 9.960012, 9.953317 
7.423861e+2, 1.8328522e+2, -1140531.4, -1203041.3, -12321.208, 0.08109283, -0.13646272, -1138190.5, 5601.9644, 0.023860537, 9.960493, 9.952093 
7.4147314e+2, 1.9323711e+2, -1039098.3, -1108296.6, -12005.18, 0.07620549, -0.14432026, -1037074.7, 9189.082, 0.020094704, 9.960989, 9.951627 
7.405604e+2, 2.0318802e+2, -948247.0, -1028566.75, -12374.168, 0.054528795, -0.14108445, -946383.8, 2360.999, 0.017162584, 9.96113, 9.950354 
7.396477e+2, 2.131383e+2, -856745.8, -940406.0, -11642.182, 0.0016081339, -0.13429363, -855155.94, -3923.518, 0.014533996, 9.961072, 9.9498005 
7.3873574e+2, 2.2308813e+2, -753532.3, -835294.75, -20365.475, -0.017567195, -0.12610972, -748740.5, 4983.439, 0.012616357, 9.961093, 9.9503 
7.378232e+2, 2.330387e+2, -649884.25, -737854.7, -17104.188, 0.014014585, -0.11889538, -646675.7, 9532.544, 0.012283745, 9.961703, 9.950034 
7.3691124e+2, 2.4298769e+2, -560037.8, -668010.5, -21869.863, -0.016240185, -0.11213445, -555776.25, 2931.6975, 0.014639427, 9.962013, 9.948003 
7.359978e+2, 2.5293532e+2, -461036.1, -576293.06, -20435.002, -0.107283704, -0.12449658, -457520.22, 3700.8826, 0.021253286, 9.962486, 9.947611 
7.350885e+2, 2.6288214e+2, -369967.78, -497061.3, -22466.318, -0.07982811, -0.13692711, -366113.3, -2371.273, 0.03435078, 9.962505, 9.946533 
7.3417985e+2, 2.728284e+2, -263846.88, -388224.88, -11372.268, 0.042071316, -0.17991398, -262815.63, 3452.5825, 0.05608599, 9.962887, 9.947144 
7.332707e+2, 2.8277436e+2, -195644.55, -338528.8, -13822.488, -0.08650219, -0.16203488, -194319.66, -25522.037, 0.086617045, 9.961889, 9.944339 
7.3235726e+2, 2.927206e+2, -75995.12, -214430.06, -21242.994, -0.38775086, -0.01957453, -72808.7, -1484.1068, 0.12292976, 9.9625845, 9.946022 
7.3146033e+2, 3.026639e+2, -99647.5, -260708.6, 45608.83, 0.1544417, -0.16254549, -87628.95, -87628.95, 0.16005194, 9.960759, 9.941186 
7.3055744e+2, 3.126065e+2, 37451.477, 100071.69, -44328.594, -0.30407822, 0.07035151, 123032.63, 123032.63, 0.19415992, 9.955965, 9.965819 
7.578112e+2, 1.2446615e+2, -1722478.3, -1733938.9, -4298.6543, 0.20830561, -0.11225137, -1721045.1, -823.0628, 0.17498739, 9.958916, 9.957486 
7.569017e+2, 1.3442415e+2, -1595317.9, -1618610.8, -8783.939, 0.15043047, -0.116700456, -1592376.8, 30256.844, 0.1261487, 9.96092, 9.957484 
7.5599176e+2, 1.4438036e+2, -1498529.3, -1545998.9, -6541.766, 0.14543527, -0.103582636, -1497644.3, 27418.275, 0.079539225, 9.961837, 9.955126 
7.550819e+2, 1.5433516e+2, -1412687.6, -1459553.0, -5065.656, 0.1319807, -0.12159511, -1412146.4, 15358.872, 0.04321595, 9.961101, 9.95462 
7.5417084e+2, 1.6428913e+2, -1324044.0, -1375571.1, -10687.09, 0.10804096, -0.12518491, -1321915.4, 8040.7764, 0.02111174, 9.960691, 9.953753 
7.532592e+2, 1.7424299e+2, -1224013.9, -1281153.0, -11491.043, 0.09469174, -0.10944342, -1221789.6, 10618.802, 0.0106813945, 9.961034, 9.95332 
7.523471e+2, 1.8419546e+2, -1126943.3, -1200015.6, -12755.632, 0.07808851, -0.105556, -1124780.6, 10093.3125, 0.0066066408, 9.961627, 9.951889 
7.514349e+2, 1.9414714e+2, -1015778.6, -1100294.1, -12648.477, 0.052493744, -0.11842649, -1013926.25, 23421.227, 0.0049766195, 9.962742, 9.951475 
7.5052255e+2, 2.040979e+2, -918798.5, -1015534.1, -15347.886, 0.030411534, -0.120616145, -916421.8, 23408.027, 0.0040492197, 9.963102, 9.950378 
7.496099e+2, 2.140482e+2, -830763.3, -928652.56, -11641.695, 0.007628595, -0.11398793, -829397.9, 12918.951, 0.0033387938, 9.962717, 9.9498 
7.4869776e+2, 2.2399767e+2, -737700.6, -837632.44, -14539.585, -0.0028527963, -0.108709715, -735628.2, 9183.876, 0.002865328, 9.9624605, 9.949463 
7.4778545e+2, 2.3394723e+2, -636839.4, -741645.06, -15260.906, 0.010047251, -0.10739381, -634662.44, 12643.525, 0.0028536606, 9.962844, 9.949307 
7.468739e+2, 2.4389543e+2, -548930.75, -672963.0, -18641.52, -0.017044477, -0.11125543, -546189.6, 3623.738, 0.0036860695, 9.963027, 9.947317 
7.4596125e+2, 2.5384223e+2, -446353.22, -577773.25, -11679.925, -0.09626594, -0.1433167, -445323.22, 7011.373, 0.006063293, 9.96358, 9.946927 
7.4505144e+2, 2.637888e+2, -356413.28, -491701.28, -8887.849, -0.09713159, -0.13880806, -355831.88, -973.9286, 0.011175118, 9.963148, 9.946462 
7.441423e+2, 2.7373627e+2, -264073.0, -388928.94, -7141.646, -0.0054306127, -0.07553911, -263665.84, -6293.0957, 0.020553144, 9.962438, 9.947277 
7.432327e+2, 2.8368226e+2, -197062.38, -345050.3, -7070.7866, -0.07192046, -0.06182579, -196725.31, -36823.504, 0.03537975, 9.961808, 9.943924 
7.4232066e+2, 2.9362518e+2, -94164.54, -245327.72, -3053.4617, -0.27253973, -0.13198833, -94102.88, -31641.898, 0.055516787, 9.96215, 9.943855 
7.4141884e+2, 3.0357048e+2, -49494.52, -158464.45, 38460.402, -0.029329266, -0.1969044, -37287.55, -37287.55, 0.07898517, 9.9606285, 9.947805 
7.405147e+2, 3.135181e+2, -22630.592, -35474.79, -73051.11, -0.2296898, -0.27041584, 44280.164, 44280.164, 0.10293957, 9.956998, 9.95534 
7.6777065e+2, 1.2537508e+2, -1705134.8, -1715810.4, 643.60486, 0.23396762, -0.08482804, -1705096.1, 6220.113, 0.12768447, 9.959702, 9.958078 
7.668618e+2, 1.3533337e+2, -1605056.1, -1621705.3, -3206.4292, 0.13518354, -0.056708187, -1604460.0, 9264.682, 0.0897246, 9.960055, 9.957626 
7.659522e+2, 1.4528976e+2, -1513876.9, -1549450.6, -8572.009, 0.101846136, -0.056719285, -1511919.1, 4232.819, 0.054136056, 9.96048, 9.955581 
7.650427e+2, 1.5524504e+2, -1409271.3, -1453282.5, -9336.518, 0.117837235, -0.07987921, -1407372.5, 11217.659, 0.02707615, 9.961133, 9.955077 
7.641319e+2, 1.6519919e+2, -1311695.1, -1370651.9, -13231.803, 0.1128714, -0.085567884, -1308861.6, 12177.781, 0.011202649, 9.961657, 9.953723 
7.6322055e+2, 1.7515294e+2, -1208290.9, -1274537.0, -14710.941, 0.09247415, -0.07667638, -1205171.0, 18321.725, 0.0041621407, 9.962214, 9.953302 
7.623089e+2, 1.8510541e+2, -1116095.1, -1195433.8, -13952.098, 0.06792607, -0.0735488, -1113713.0, 12245.399, 0.0017368137, 9.962509, 9.951885 
7.613974e+2, 1.9505708e+2, -1018597.0, -1102996.8, -13359.378, 0.03232473, -0.08436556, -1016532.8, 11899.056, 0.00100352, 9.962715, 9.951394 
7.6048535e+2, 2.0500793e+2, -920416.25, -1013409.56, -20329.07, 0.01596419, -0.088418715, -916166.44, 14747.03, 0.0007333881, 9.962881, 9.950694 
7.5957274e+2, 2.1495855e+2, -822604.4, -920580.44, -19091.613, 0.023186855, -0.08798886, -819015.7, 14381.415, 0.0005798582, 9.963115, 9.950244 
7.586605e+2, 2.249077e+2, -734967.56, -848180.75, -19529.52, 0.013545754, -0.091291666, -731693.4, 4201.604, 0.00049339, 9.96326, 9.948493 
7.5774825e+2, 2.3485602e+2, -635172.0, -753575.6, -19910.396, -0.013155764, -0.107884884, -631913.56, 6487.678, 0.0005151367, 9.963596, 9.948219 
7.568369e+2, 2.4480373e+2, -537709.44, -664278.9, -20736.008, -0.03274499, -0.11626432, -534398.8, 6514.5767, 0.00075310044, 9.963794, 9.947617 
7.559254e+2, 2.5475124e+2, -434498.3, -566220.9, -15163.774, -0.052048802, -0.12143461, -432775.22, 10652.174, 0.0014514101, 9.964266, 9.947419 
7.5501496e+2, 2.6469794e+2, -353747.3, -496397.6, -14950.822, -0.06839795, -0.10590959, -352197.2, -6247.6333, 0.003100265, 9.963715, 9.94583 
7.541041e+2, 2.7464417e+2, -266664.03, -400728.47, -13815.447, -0.07453696, -0.07883061, -265255.16, -16778.455, 0.0065108817, 9.962821, 9.946221 
7.5319463e+2, 2.845898e+2, -179102.23, -317274.38, -5685.2583, -0.09603511, -0.10717275, -178868.7, -27859.445, 0.012669682, 9.962495, 9.945439 
7.5228494e+2, 2.945345e+2, -70254.24, -213856.48, 5448.4956, -0.13933842, -0.17194854, -70047.81, -16497.094, 0.022128604, 9.9632, 9.945309 
7.513794e+2, 3.0448145e+2, -35080.46, -153373.06, 31599.998, -0.12165834, -0.09466535, -27168.244, -27168.244, 0.034260325, 9.96177, 9.947093 
7.50476e+2, 3.1442982e+2, 49600.258, 77021.27, -3531.3945, 0.05220116, -0.027518751, 77468.76, 77468.76, 0.04744328, 9.959829, 9.963226 
7.777312e+2, 1.2628423e+2, -1681463.5, -1707690.4, 626.11237, 0.21009806, -0.060104236, -1681448.5, 20959.62, 0.09095766, 9.961493, 9.957797 
7.7682275e+2, 1.362418e+2, -1587375.3, -1617550.3, -1936.1005, 0.15011638, -0.07622653, -1587251.5, 17572.262, 0.06282223, 9.961392, 9.95727 
7.759136e+2, 1.4619818e+2, -1495712.6, -1538851.8, -4279.773, 0.12788549, -0.06741483, -1495292.1, 11959.039, 0.036900293, 9.96161, 9.955789 
7.7500457e+2, 1.5615404e+2, -1393034.9, -1444037.4, -5872.911, 0.13024652, -0.051019806, -1392367.4, 17316.504, 0.017632606, 9.962131, 9.955256 
7.740941e+2, 1.6610825e+2, -1296516.0, -1364670.8, -8815.026, 0.106257096, -0.05687369, -1295394.4, 16738.232, 0.0066743675, 9.962694, 9.953678 
7.731833e+2, 1.760617e+2, -1190237.0, -1266799.4, -10364.919, 0.06776588, -0.073103935, -1188858.6, 25729.932, 0.0020335538, 9.963406, 9.953295 
7.72272e+2, 1.8601431e+2, -1098432.5, -1184556.6, -11927.47, 0.05867542, -0.07120896, -1096811.3, 20241.566, 0.00056177605, 9.963449, 9.95217 
7.7136064e+2, 1.9596645e+2, -1008069.06, -1095659.0, -10987.465, 0.061266527, -0.06385631, -1006711.75, 12809.929, 0.00019363454, 9.963144, 9.95166 
7.7044874e+2, 2.0591718e+2, -915996.1, -1016871.3, -13995.548, 0.04018227, -0.06889464, -914090.4, 7913.8247, 0.00010600358, 9.963314, 9.950278 
7.695364e+2, 2.158673e+2, -810422.75, -920031.4, -14964.089, 0.014006015, -0.08070216, -808416.5, 16076.265, 0.00007634891, 9.964037, 9.949898 
7.6862437e+2, 2.2581616e+2, -720243.9, -846187.44, -15674.642, -0.0029181247, -0.08207715, -718322.4, 8671.334, 0.00006424019, 9.964297, 9.948184 
7.6771235e+2, 2.3576425e+2, -623369.3, -752387.94, -13849.991, -0.01972722, -0.085269764, -621899.25, 7602.945, 0.000072578594, 9.964356, 9.947918 
7.66801e+2, 2.4571179e+2, -532171.75, -663945.6, -14339.089, -0.032852475, -0.091026865, -530629.5, 1386.4811, 0.00012566986, 9.964044, 9.947499 
7.658897e+2, 2.5565928e+2, -440584.44, -571347.44, -13684.426, -0.03907637, -0.093196355, -439167.72, -4637.6943, 0.00028999217, 9.963699, 9.9473915 
7.6497877e+2, 2.656058e+2, -356994.56, -500638.34, -14825.8545, -0.061281998, -0.08723824, -355480.3, -18426.516, 0.0007256404, 9.963444, 9.94569 
7.6406705e+2, 2.7555144e+2, -257103.1, -401371.63, -11475.877, -0.0982645, -0.0926884, -256195.94, -16609.373, 0.0017619813, 9.963564, 9.945745 
7.631573e+2, 2.854972e+2, -164054.19, -299615.8, -6164.986, -0.1084362, -0.12628438, -163774.39, -21656.223, 0.0038963724, 9.963034, 9.946379 
7.6224804e+2, 2.9544336e+2, -80905.45, -210820.86, -4606.985, -0.09593893, -0.15668511, -80742.29, -36096.91, 0.007514117, 9.962158, 9.946228 
7.6134086e+2, 3.0539063e+2, -46101.484, -171593.6, 8729.895, -0.13033493, -0.024196144, -45497.098, -45497.098, 0.012457724, 9.961718, 9.945915 
7.6043344e+2, 3.1533578e+2, 3606.5496, -48678.24, -7442.915, -0.2648065, -0.1205109, 4645.431, 4645.431, 0.01802789, 9.961049, 9.954347 
7.8769255e+2, 1.2719254e+2, -1681133.0, -1708345.1, -5922.348, 0.21265642, -0.03140738, -1679900.0, 13608.561, 0.06232195, 9.961558, 9.957916 
7.867845e+2, 1.3714984e+2, -1574857.1, -1612017.4, -8556.891, 0.15446903, -0.08219213, -1572981.5, 22945.35, 0.042461146, 9.96237, 9.957337 
7.858758e+2, 1.4710641e+2, -1477871.8, -1527560.0, -9561.085, 0.13467626, -0.07580686, -1476095.5, 22256.738, 0.024464397, 9.962813, 9.956134 
7.849671e+2, 1.5706278e+2, -1378288.9, -1434712.1, -10810.229, 0.13433284, -0.04302647, -1376288.6, 24491.256, 0.011363006, 9.963125, 9.955542 
7.84057e+2, 1.6701727e+2, -1288671.5, -1359496.0, -11994.692, 0.105692506, -0.043890294, -1286695.3, 16530.527, 0.004107627, 9.963266, 9.953873 
7.8314656e+2, 1.7697084e+2, -1188819.4, -1264696.5, -13152.357, 0.060371716, -0.06647729, -1186604.3, 19076.488, 0.0011430016, 9.963526, 9.953469 
7.822355e+2, 1.8692365e+2, -1092303.3, -1179481.3, -16854.611, 0.05952408, -0.06489349, -1089158.1, 18984.623, 0.00025201778, 9.963814, 9.952428 
7.8132427e+2, 1.9687614e+2, -993979.3, -1087488.9, -17329.9, 0.0834819, -0.05147724, -990870.94, 19737.146, 0.000051052633, 9.964086, 9.951872 
7.804125e+2, 2.0682678e+2, -904055.8, -1015938.75, -17484.852, 0.052586056, -0.05680424, -901387.0, 11704.676, 0.000014643728, 9.964459, 9.949938 
7.795004e+2, 2.1677648e+2, -801220.1, -920147.44, -18577.344, -0.0075131995, -0.076535806, -798385.75, 17198.709, 0.00000789094, 9.964962, 9.949571 
7.7858865e+2, 2.267253e+2, -710280.8, -841101.75, -19769.115, -0.023910219, -0.0704046, -707358.7, 10727.156, 0.0000063767493, 9.965036, 9.948248 
7.776768e+2, 2.3667364e+2, -614909.25, -748238.2, -17729.01, -0.018796401, -0.054937053, -612592.06, 7999.9336, 0.00000808982, 9.964999, 9.9479265 
7.767652e+2, 2.4662098e+2, -527233.44, -666661.9, -18671.934, -0.034045793, -0.055348422, -524776.25, -1668.4937, 0.000017232574, 9.964685, 9.947007 
7.758533e+2, 2.565679e+2, -436986.38, -575104.25, -17778.713, -0.058829784, -0.06537789, -434734.6, -9106.953, 0.000048172915, 9.964263, 9.946847 
7.749423e+2, 2.6651406e+2, -348630.94, -492057.34, -15839.928, -0.0680003, -0.07961839, -346902.44, -18747.766, 0.00014272226, 9.963997, 9.945967 
7.7403104e+2, 2.7645978e+2, -252097.83, -396596.8, -11419.929, -0.072587736, -0.1040957, -251200.86, -20514.22, 0.00040247172, 9.963967, 9.945807 
7.7312034e+2, 2.8640565e+2, -166057.06, -306667.97, -9426.188, -0.12126303, -0.080372795, -165427.98, -32211.053, 0.0009993806, 9.963262, 9.945631 
7.722094e+2, 2.963519e+2, -85844.28, -222609.66, -7130.51, -0.1862024, -0.020266395, -85473.52, -49729.984, 0.0020826098, 9.962366, 9.94521 
7.7130383e+2, 3.0629614e+2, -39763.19, -168694.5, 7506.567, -0.05306709, -0.12553047, -39327.62, -39327.62, 0.0036195656, 9.96241, 9.94564 
7.7039534e+2, 3.16242e+2, 17865.602, -52393.81, -20425.89, -0.2512873, -0.0957292, 23372.25, 23372.25, 0.0053881304, 9.962212, 9.95309 
7.9765505e+2, 1.2810008e+2, -1663794.5, -1699931.3, 1004.1678, 0.22623011, -0.0128816925, -1663766.6, 20849.96, 0.04048696, 9.962657, 9.957953 
7.967474e+2, 1.3805766e+2, -1557675.4, -1602484.3, -1482.57, 0.13954249, -0.03704708, -1557626.4, 29405.914, 0.027255554, 9.963376, 9.957454 
7.958389e+2, 1.4801443e+2, -1461654.9, -1515255.6, -2873.299, 0.115183, -0.044217985, -1461501.4, 27954.365, 0.015450949, 9.963572, 9.95657 
7.949305e+2, 1.5797092e+2, -1363508.9, -1423697.5, -4630.362, 0.11822471, -0.04041589, -1363154.8, 28726.787, 0.0070204227, 9.963793, 9.955926 
7.940207e+2, 1.6792586e+2, -1275597.4, -1349666.6, -5620.313, 0.110445336, -0.032752648, -1275173.3, 19149.85, 0.0024614362, 9.963823, 9.95424 
7.9311067e+2, 1.7788e+2, -1178823.8, -1257319.0, -6651.699, 0.091023445, -0.031207334, -1178264.1, 18508.379, 0.00065384543, 9.963909, 9.953745 
7.921997e+2, 1.8783273e+2, -1084573.6, -1178083.3, -8605.331, 0.06523109, -0.042432148, -1083788.3, 15447.079, 0.00013178977, 9.964273, 9.9523 
7.9128855e+2, 1.9778486e+2, -981796.75, -1084599.6, -10123.124, 0.047827676, -0.053222775, -980809.4, 20894.865, 0.000020838193, 9.964864, 9.951708 
7.903774e+2, 2.0773539e+2, -891325.94, -1013438.6, -10513.928, 0.032406267, -0.04685799, -890427.3, 13761.721, 0.0000030700355, 9.9653015, 9.9497175 
7.8946614e+2, 2.1768513e+2, -789052.25, -915771.06, -12260.402, 0.008324214, -0.041415323, -787876.94, 18804.543, 0.0000007638524, 9.965632, 9.94955 
7.8855425e+2, 2.2763409e+2, -697745.2, -832034.9, -13978.831, -0.007325747, -0.044883948, -696305.5, 12875.893, 0.0000004963504, 9.965528, 9.9486 
7.876423e+2, 2.3758256e+2, -605816.5, -743232.7, -11878.611, -0.0142761255, -0.047609285, -604797.25, 6888.8535, 0.0000007257683, 9.965361, 9.948049 
7.867303e+2, 2.4752972e+2, -519111.44, -667760.44, -13155.409, -0.0387438, -0.044980843, -517956.2, -3752.3582, 0.0000019514928, 9.965262, 9.946597 
7.8581804e+2, 2.5747633e+2, -422977.66, -572385.9, -13173.158, -0.06897778, -0.04674787, -421825.1, -5098.168, 0.000006680876, 9.965179, 9.94654 
7.849066e+2, 2.6742244e+2, -337719.78, -485330.4, -14262.568, -0.073532395, -0.063391425, -336354.3, -17099.705, 0.000023601087, 9.9644985, 9.946147 
7.8399503e+2, 2.7736828e+2, -254006.5, -397286.4, -12162.02, -0.0666516, -0.092606075, -252981.48, -31196.555, 0.000076343385, 9.963669, 9.945927 
7.830836e+2, 2.873144e+2, -164293.34, -307375.03, -11256.8955, -0.12515055, -0.041054115, -163413.13, -39100.203, 0.00020741971, 9.963321, 9.94549 
7.8217155e+2, 2.9726076e+2, -81235.29, -224887.64, -3830.2854, -0.2122732, 0.058210067, -81133.234, -54294.83, 0.000455572, 9.962769, 9.944747 
7.8126615e+2, 3.0720294e+2, -47762.523, -171692.45, 9359.39, -0.022862203, -0.2331207, -47059.67, -47059.67, 0.00081531185, 9.96158, 9.945782 
7.803584e+2, 3.1715077e+2, 55566.36, 56803.434, 9830.189, -0.1710628, -0.10697641, 66034.52, 66034.52, 0.0012340943, 9.961256, 9.961371 
8.0761737e+2, 1.2900679e+2, -1653641.0, -1683056.1, -4561.17, 0.20847857, -0.02650632, -1652950.0, 22782.807, 0.024554512, 9.962995, 9.959156 
8.0671084e+2, 1.3896617e+2, -1547561.9, -1591044.4, -5205.588, 0.13400945, 0.025823867, -1546947.4, 31183.65, 0.016354568, 9.9639015, 9.958071 
8.058025e+2, 1.48923e+2, -1456144.1, -1512262.5, -8243.765, 0.11475041, 0.0023618776, -1454958.1, 25595.38, 0.009139995, 9.964007, 9.956682 
8.048943e+2, 1.5887931e+2, -1358469.0, -1419306.5, -12454.518, 0.11786928, -0.030784762, -1356018.1, 26962.965, 0.0040751924, 9.964128, 9.956232 
8.0398476e+2, 1.6883475e+2, -1262537.5, -1338650.1, -12118.784, 0.11096701, -0.01943003, -1260654.5, 24763.08, 0.0013936987, 9.964589, 9.954798 
8.030751e+2, 1.7878957e+2, -1161007.5, -1246394.5, -12735.984, 0.09968645, -0.0026598757, -1159148.4, 28712.074, 0.0003581768, 9.9650955, 9.954068 
8.0216426e+2, 1.8874231e+2, -1070529.6, -1173073.4, -13221.577, 0.061290253, -0.020509228, -1068852.4, 21470.844, 0.00006886962, 9.965402, 9.952262 
8.0125344e+2, 1.9869423e+2, -971234.0, -1081220.5, -14472.804, 0.017322944, -0.04635927, -969361.44, 23432.537, 0.000009974997, 9.965745, 9.951661 
8.0034274e+2, 2.086449e+2, -884019.06, -1009823.5, -12687.005, 0.01954073, -0.028602786, -882752.4, 12525.151, 0.0000011239578, 9.965872, 9.949762 
7.9943204e+2, 2.1859488e+2, -784128.9, -911865.8, -13093.797, 0.03108376, -0.003617656, -782800.5, 14967.449, 0.00000012112295, 9.965965, 9.949661 
7.985201e+2, 2.2854395e+2, -689687.4, -824542.7, -16579.834, 0.012367823, -0.021732071, -687678.9, 12587.726, 0.00000003393751, 9.965982, 9.9489 
7.976077e+2, 2.384924e+2, -598313.75, -739570.6, -15162.849, -0.015063594, -0.05072923, -596704.44, 6066.5654, 0.000000053106362, 9.965937, 9.948051 
7.966956e+2, 2.4843928e+2, -515308.88, -670309.2, -15286.29, -0.046946842, -0.043055777, -513815.72, -8524.281, 0.00000018502698, 9.965802, 9.946158 
7.957833e+2, 2.583856e+2, -421089.13, -575575.56, -15432.283, -0.078551024, -0.02938341, -419562.63, -11744.761, 0.00000078873825, 9.965566, 9.946096 
7.9487103e+2, 2.683314e+2, -337803.1, -488356.97, -18940.121, -0.08364558, -0.035033856, -335456.9, -25108.43, 0.0000033031974, 9.964679, 9.945758 
7.9395854e+2, 2.7827698e+2, -256550.94, -400776.38, -15222.854, -0.08119391, -0.05298193, -254961.69, -42080.008, 0.000011929884, 9.963681, 9.945609 
7.9304713e+2, 2.8822258e+2, -161861.22, -302999.84, -13105.926, -0.11315917, -0.044402268, -160654.55, -45240.234, 0.000034477274, 9.96351, 9.945627 
7.9213524e+2, 2.981684e+2, -79082.164, -231512.89, -7070.243, -0.16948272, -0.0025115923, -78754.93, -60809.234, 0.000078235214, 9.963379, 9.943932 
7.912268e+2, 3.0811062e+2, -62009.926, -200887.98, -7235.9873, -0.1141558, -0.10937443, -61633.926, -61633.926, 0.00014245899, 9.961542, 9.943747 
7.90317e+2, 3.1805882e+2, 31608.555, 68524.01, -11712.059, -0.2568107, 0.16047321, 71926.29, 71926.29, 0.00021764936, 9.958661, 9.96367 
8.175809e+2, 1.2991339e+2, -1622294.0, -1651145.9, 7468.337, 0.18142352, -0.03335967, -1620475.4, 46374.387, 0.013656359, 9.964302, 9.960595 
8.1667525e+2, 1.3987462e+2, -1533327.1, -1577572.1, 2633.5486, 0.14390081, 0.0791424, -1533170.9, 36059.074, 0.00901513, 9.964413, 9.958654 
8.1576705e+2, 1.4983124e+2, -1449698.8, -1511712.9, -58.660427, 0.13449296, 0.035805427, -1449698.8, 21955.97, 0.0049783196, 9.964338, 9.956494 
8.148589e+2, 1.597872e+2, -1349748.6, -1413308.9, -3618.2002, 0.1355648, -0.023632156, -1349543.4, 24542.43, 0.0021846793, 9.964439, 9.956419 
8.139495e+2, 1.6974309e+2, -1251104.1, -1326977.8, -1327.7247, 0.100069016, -0.01450776, -1251080.9, 25436.783, 0.0007317571, 9.964919, 9.955398 
8.1304014e+2, 1.7969842e+2, -1150651.4, -1239475.5, -3187.799, 0.063492686, 0.004046926, -1150537.1, 28418.113, 0.0001830531, 9.965508, 9.954299 
8.1213003e+2, 1.8965134e+2, -1062417.5, -1170993.9, -4199.4253, 0.058368467, 0.0051843817, -1062255.3, 19161.416, 0.000033989887, 9.965813, 9.952174 
8.112199e+2, 1.9960347e+2, -960044.8, -1071512.4, -6271.9824, 0.04990119, -0.0021071355, -959693.0, 24192.717, 0.000004694803, 9.966076, 9.952118 
8.103088e+2, 2.095548e+2, -871242.25, -992283.94, -3391.9497, 0.029270366, -0.0071975985, -871147.3, 15214.869, 0.0000004859857, 9.965991, 9.950805 
8.093979e+2, 2.1950538e+2, -779104.3, -905962.0, -1481.6819, 0.013912016, -0.0070278673, -779087.0, 9759.202, 0.000000038927663, 9.965905, 9.949953 
8.0848616e+2, 2.2945423e+2, -687768.06, -830214.25, -6218.6714, -0.0008413229, -0.011757521, -687497.06, 3850.17, 0.0000000035424357, 9.966174, 9.9483385 
8.0757403e+2, 2.3940243e+2, -588412.6, -737287.9, -8428.877, -0.01960053, -0.02300407, -587936.9, 5917.7407, 0.0000000034232408, 9.966483, 9.947925 
8.066618e+2, 2.4934947e+2, -501370.75, -660199.56, -8414.585, -0.045563735, -0.021983355, -500926.22, -4552.6533, 0.000000016077351, 9.966389, 9.946473 
8.057492e+2, 2.5929588e+2, -410108.78, -570474.3, -6541.299, -0.07349955, -0.015225049, -409842.4, -10943.601, 0.00000008731356, 9.966099, 9.946013 
8.048361e+2, 2.6924142e+2, -323329.97, -484943.13, -12213.044, -0.08703443, -0.014664616, -322412.25, -20980.127, 0.00000042653662, 9.965581, 9.945346 
8.039227e+2, 2.7918667e+2, -236050.03, -393747.84, -7893.6353, -0.09051886, -0.024224939, -235655.89, -31687.5, 0.0000016729764, 9.965013, 9.945294 
8.030112e+2, 2.8913188e+2, -142929.7, -295164.9, -8099.1685, -0.10733758, -0.038912483, -142500.03, -35994.73, 0.000005037126, 9.9647045, 9.945481 
8.020989e+2, 2.9907706e+2, -74646.11, -239368.23, -6948.415, -0.14961432, -0.025140963, -74353.52, -65311.08, 0.000011663782, 9.963906, 9.9430485 
8.0118716e+2, 3.090195e+2, -77499.92, -223166.95, -4960.4434, -0.1923453, 0.027476475, -77331.195, -77331.195, 0.000021458478, 9.960787, 9.942125 
8.0027604e+2, 3.1896314e+2, 25691.742, 67768.234, -5689.0654, -0.15342331, -0.052220065, 68523.875, 68523.875, 0.000032957003, 9.957704, 9.963445 
8.2754564e+2, 1.3082202e+2, -1605058.8, -1649369.4, 2415.9194, 0.1609406, 0.031768218, -1604927.5, 53019.184, 0.006829297, 9.965817, 9.959969 
8.266399e+2, 1.4078178e+2, -1527597.0, -1575545.9, -9501.882, 0.15800798, 0.03536313, -1525782.8, 34558.305, 0.0044781193, 9.964901, 9.958736 
8.2573164e+2, 1.5073928e+2, -1436141.4, -1498790.0, -6325.493, 0.13947901, 0.029517744, -1435509.1, 27248.082, 0.0024504783, 9.965082, 9.95719 
8.2482374e+2, 1.6069621e+2, -1330744.5, -1398838.5, -6478.66, 0.13232145, 0.0067301947, -1330133.5, 35045.613, 0.0010623109, 9.965597, 9.956913 
8.239146e+2, 1.7065246e+2, -1237098.8, -1315799.6, -4234.067, 0.09238945, 0.004811874, -1236871.6, 30735.81, 0.00035011073, 9.965779, 9.955859 
8.230057e+2, 1.8060811e+2, -1143044.8, -1233219.1, -7667.8594, 0.049660318, 0.012626773, -1142397.4, 27644.578, 0.00008574844, 9.965989, 9.9546175 
8.2209593e+2, 1.9056143e+2, -1056864.5, -1165962.5, -5424.4775, 0.061574645, 0.027471947, -1056595.4, 15904.169, 0.00001549313, 9.966155, 9.952407 
8.2118624e+2, 2.0051402e+2, -952272.06, -1061050.9, -6259.714, 0.073970996, 0.034428056, -951913.0, 23051.35, 0.0000020664204, 9.966361, 9.952689 
8.2027495e+2, 2.10466e+2, -857333.1, -975093.94, -6885.906, 0.031832285, 0.007655869, -856931.9, 20502.266, 0.00000020419301, 9.966522, 9.95178 
8.193637e+2, 2.2041713e+2, -768915.3, -900432.5, -6222.444, -0.011895862, -0.01583254, -768621.56, 11290.83, 0.000000015033814, 9.966627, 9.9501 
8.184523e+2, 2.3036575e+2, -683943.8, -836144.9, -7404.0405, -0.020107413, 0.0021943017, -683584.5, -1168.3042, 0.0000000008661143, 9.966854, 9.947657 
8.175406e+2, 2.4031365e+2, -582316.7, -734875.8, -7976.715, -0.025590815, 0.017111555, -581900.75, 3026.2598, 0.0000000003390189, 9.966995, 9.947825 
8.1662834e+2, 2.5026092e+2, -492707.94, -648906.44, -9839.598, -0.039203744, 0.0040045204, -492090.53, -4647.441, 0.0000000029190814, 9.966736, 9.947027 
8.157155e+2, 2.6020756e+2, -407287.66, -568788.1, -8334.543, -0.060016103, -0.007894904, -406858.66, -16892.715, 0.000000021680407, 9.966336, 9.945963 
8.1480175e+2, 2.7015272e+2, -325057.22, -491037.7, -14886.795, -0.089166656, -0.00219105, -323732.6, -31229.13, 0.00000012230502, 9.965761, 9.944756 
8.138877e+2, 2.8009745e+2, -238689.47, -402175.84, -8421.536, -0.109840415, -0.0008287422, -238256.81, -43211.668, 0.00000051149766, 9.965266, 9.944534 
8.1297606e+2, 2.900419e+2, -144314.31, -305458.38, -10994.305, -0.1227023, 0.005524784, -143567.67, -45978.824, 0.0000015856871, 9.965167, 9.944487 
8.120631e+2, 2.9998636e+2, -64447.08, -227167.84, -16217.437, -0.15730366, 0.018536933, -62846.523, -62713.81, 0.0000037225761, 9.964267, 9.943569 
8.111482e+2, 3.0992964e+2, -56985.4, -179332.6, -15201.065, -0.15001282, -0.057274, -55125.027, -55125.027, 0.0000068960435, 9.960548, 9.944798 
8.102347e+2, 3.198751e+2, 15410.243, 30413.285, 16252.3545, -0.11493827, -0.11596593, 40811.816, 40811.816, 0.000010622672, 9.958744, 9.960154 
8.3751154e+2, 1.3173081e+2, -1612175.5, -1667803.8, 6581.3022, 0.1496849, 0.08381548, -1611407.5, 37634.04, 0.0030089617, 9.9657, 9.958626 
8.36605e+2, 1.4168818e+2, -1521597.6, -1571214.9, -935.67194, 0.16894947, -0.054516263, -1521580.0, 29878.723, 0.0019641386, 9.965017, 9.958793 
8.356967e+2, 1.5164742e+2, -1423333.4, -1479681.6, 6205.512, 0.12595248, 0.0199508, -1422658.0, 31200.92, 0.0010681495, 9.965214, 9.958334 
8.347892e+2, 1.6160603e+2, -1323329.4, -1389488.8, 4056.316, 0.106247306, 0.07113487, -1323081.6, 33183.273, 0.00045917454, 9.965641, 9.95743 
8.338806e+2, 1.7156222e+2, -1232697.5, -1312387.3, 6263.9204, 0.100189365, 0.04332763, -1232208.1, 26485.596, 0.00014963388, 9.965797, 9.956001 
8.3297205e+2, 1.8151787e+2, -1135505.5, -1222101.9, 2011.2039, 0.07949329, 0.02247488, -1135458.8, 25669.186, 0.00003610315, 9.965929, 9.955312 
8.32062e+2, 1.9147216e+2, -1046794.4, -1148449.9, 6122.5786, 0.055495944, 0.028925532, -1046427.0, 17149.023, 0.0000063962675, 9.96604, 9.953553 
8.3115226e+2, 2.0142558e+2, -948254.2, -1056738.0, 6421.6987, 0.041966837, 0.034167077, -947875.4, 18156.984, 0.00000083170164, 9.966279, 9.952904 
8.302416e+2, 2.1137744e+2, -854210.3, -978510.9, 3540.2249, 0.026292687, 0.02381728, -854109.56, 14394.174, 0.00000007956064, 9.9667015, 9.951412 
8.2933086e+2, 2.2132857e+2, -755358.2, -890382.75, 1738.8722, 0.0031330565, 0.013413465, -755335.8, 15646.523, 0.0000000056202865, 9.967154, 9.950541 
8.284196e+2, 2.3127797e+2, -664461.25, -816949.8, 3901.594, -0.01747416, 0.025200376, -664361.44, 9116.819, 0.00000000032887434, 9.967522, 9.948547 
8.27508e+2, 2.4122646e+2, -566005.75, -723670.06, 6021.8594, -0.03209591, 0.035816453, -565776.06, 10207.003, 0.0000000005220618, 9.967695, 9.948048 
8.265954e+2, 2.511737e+2, -480610.5, -643926.5, -370.16498, -0.04400096, 0.023421226, -480609.66, -2109.845, 0.000000005672043, 9.967312, 9.946925 
8.2568216e+2, 2.611202e+2, -395146.63, -564220.75, -1214.561, -0.059500586, 0.009672524, -395137.88, -14114.352, 0.00000004524447, 9.966958, 9.945904 
8.247681e+2, 2.710652e+2, -304259.72, -482824.4, -7049.8613, -0.08999364, 0.011559132, -303981.84, -20419.201, 0.00000026258755, 9.967019, 9.944572 
8.2385355e+2, 2.810097e+2, -217998.58, -396458.1, 1190.2891, -0.114970446, 0.019784713, -217990.64, -31884.018, 0.0000011113134, 9.966607, 9.944071 
8.229409e+2, 2.9095376e+2, -157673.94, -318782.8, -1260.5953, -0.12767883, 0.047997255, -157664.08, -69009.52, 0.0000034630966, 9.964255, 9.943684 
8.2202655e+2, 3.0089772e+2, -83261.625, -224104.63, -8999.492, -0.15270588, 0.04751516, -82688.91, -82688.91, 0.000008148521, 9.962078, 9.944446 
8.2110935e+2, 3.1084186e+2, -17281.604, -129201.29, -18432.93, -0.104124874, -0.15712543, -14323.903, -14323.903, 0.0000151170525, 9.961497, 9.947476 
8.201931e+2, 3.207911e+2, 855.9517, -38647.426, 32811.793, -0.21481602, 0.089706965, 19402.344, 19402.344, 0.000023300157, 9.960562, 9.954652 
8.4747756e+2, 1.3263884e+2, -1598402.5, -1650290.3, -1376.8468, 0.17859559, 0.05537742, -1598366.0, 41778.836, 0.0011421927, 9.966248, 9.9596405 
8.465702e+2, 1.4259778e+2, -1503136.8, -1555818.1, -1609.6583, 0.14401911, -0.00047982117, -1503087.6, 39459.094, 0.0007435361, 9.966094, 9.959257 
8.456623e+2, 1.5255725e+2, -1403294.8, -1463648.0, 6094.101, 0.114516124, 0.050639335, -1402685.6, 42258.81, 0.00040280866, 9.966422, 9.9588995 
8.447552e+2, 1.6251631e+2, -1307708.8, -1377553.6, -1030.6794, 0.10402236, 0.092993416, -1307693.5, 39652.305, 0.00017225166, 9.96657, 9.957875 
8.438465e+2, 1.7247288e+2, -1226592.4, -1305550.1, 3254.329, 0.105129205, 0.06305229, -1226458.5, 23312.404, 0.00005573453, 9.966082, 9.956389 
8.4293807e+2, 1.8242894e+2, -1129991.3, -1212048.4, 222.28952, 0.09022802, 0.03600559, -1129990.8, 22210.436, 0.000013319515, 9.966038, 9.9559965 
8.420282e+2, 1.9238408e+2, -1030394.56, -1129988.1, 2686.1663, 0.045052584, 0.035706323, -1030322.2, 24318.422, 0.00000232996, 9.966769, 9.954587 
8.411185e+2, 2.0233826e+2, -934685.4, -1049215.0, 1923.1039, 0.015838142, 0.03892265, -934653.1, 22436.463, 0.00000029792903, 9.967218, 9.953107 
8.402085e+2, 2.1229011e+2, -849388.06, -979852.0, 3304.8018, 0.025248988, 0.045671843, -849304.44, 10256.943, 0.000000027884646, 9.967248, 9.951104 
8.3929837e+2, 2.2224137e+2, -747547.4, -878768.6, 4111.125, 0.021484273, 0.048608817, -747418.7, 14620.337, 0.0000000019195514, 9.967411, 9.951199 
8.3838725e+2, 2.3219177e+2, -653887.1, -797672.0, 4160.8057, -0.013381925, 0.046436183, -653766.8, 10758.16, 0.00000000019847694, 9.967699, 9.949792 
8.374756e+2, 2.4214102e+2, -564038.0, -721792.4, 4032.886, -0.043207362, 0.04578884, -563935.0, 3087.163, 0.0000000015405226, 9.967822, 9.948128 
8.3656263e+2, 2.5208792e+2, -481284.25, -649755.7, -2540.063, -0.05775625, 0.04339483, -481245.97, -11703.81, 0.000000016924346, 9.967523, 9.946374 
8.3564913e+2, 2.6203403e+2, -393317.4, -564332.4, -352.16983, -0.07243117, 0.03482068, -393316.66, -21246.604, 0.00000013515435, 9.967209, 9.945726 
8.347353e+2, 2.719789e+2, -301480.38, -479768.88, -6711.5605, -0.0861971, 0.022084234, -301228.1, -26617.922, 0.0000007846011, 9.967242, 9.944607 
8.338203e+2, 2.819234e+2, -217689.64, -394969.34, -5071.7793, -0.10020701, 0.02901416, -217544.66, -40390.53, 0.000003320459, 9.966539, 9.944057 
8.329047e+2, 2.9186767e+2, -165086.89, -321885.5, -12769.44, -0.119432725, 0.08598412, -164053.78, -84353.51, 0.000010346318, 9.963602, 9.94354 
8.3198804e+2, 3.0181152e+2, -89988.48, -223917.28, -9010.984, -0.15833399, 0.08561967, -89384.92, -89384.92, 0.000024338313, 9.961605, 9.944566 
8.310717e+2, 3.1175563e+2, 4602.5977, -115627.055, -17124.814, -0.13201499, -0.1476064, 6994.184, 6994.184, 0.000045137505, 9.963161, 9.947619 
8.3015394e+2, 3.217045e+2, -9086.222, -71921.41, -2811.7715, -0.23029023, 0.14202784, -8960.65, -8960.65, 0.00006958122, 9.960545, 9.952029 
8.5744405e+2, 1.3354757e+2, -1584147.9, -1622599.9, 7865.1387, 0.20237806, 0.045560602, -1582601.3, 48640.28, 0.00036341642, 9.966149, 9.961395 
8.565359e+2, 1.4350905e+2, -1500782.0, -1550156.6, 7099.3535, 0.10191969, 0.1253006, -1499781.5, 33837.42, 0.00023620963, 9.965892, 9.959618 
8.556287e+2, 1.5346773e+2, -1403334.9, -1462085.4, 17842.063, 0.1152155, 0.083128, -1398340.9, 37682.773, 0.00012768328, 9.966189, 9.959045 
8.547219e+2, 1.6342647e+2, -1305073.0, -1370417.5, 6417.814, 0.1248277, 0.06426377, -1304448.8, 33979.19, 0.000054433065, 9.966224, 9.958392 
8.538124e+2, 1.7338401e+2, -1223162.9, -1295926.6, 11605.055, 0.09398762, 0.064482346, -1221356.9, 19486.604, 0.00001753889, 9.965688, 9.957114 
8.529038e+2, 1.8334083e+2, -1128782.6, -1208695.4, 12593.292, 0.065426365, 0.062196333, -1126845.0, 16421.271, 0.000004167791, 9.965812, 9.956263 
8.519951e+2, 1.9329621e+2, -1025712.6, -1125548.5, 15545.697, 0.050201457, 0.06443522, -1023348.0, 22355.764, 0.00000072355056, 9.966827, 9.954838 
8.5108626e+2, 2.032509e+2, -921894.06, -1032432.75, 10722.792, 0.034000624, 0.06668791, -920863.5, 27284.264, 0.00000009158835, 9.967365, 9.954117 
8.501758e+2, 2.1320395e+2, -837181.44, -960429.94, 14661.873, 0.019614339, 0.07036832, -835461.25, 15146.462, 0.000000008458324, 9.967201, 9.952314 
8.492655e+2, 2.2315606e+2, -742296.56, -870652.2, 19114.531, 0.004905385, 0.06954754, -739510.5, 13566.32, 0.00000000058265287, 9.967259, 9.951659 
8.483549e+2, 2.3310667e+2, -650117.9, -792564.5, 16206.075, -0.0184084, 0.05957887, -648297.4, 7263.3154, 0.00000000027731337, 9.967541, 9.95011 
8.4744346e+2, 2.4305633e+2, -555262.4, -711568.56, 14901.521, -0.040047817, 0.055981934, -553854.44, 4199.447, 0.000000003769359, 9.967883, 9.948734 
8.465306e+2, 2.5300393e+2, -459438.97, -632991.06, 11648.925, -0.054682672, 0.06229116, -458660.56, 1906.6266, 0.000000041425363, 9.968456, 9.946888 
8.4561706e+2, 2.6295048e+2, -365193.84, -546677.1, 17059.54, -0.0710978, 0.05895354, -363604.16, -513.1784, 0.00000033075688, 9.968643, 9.945951 
8.447028e+2, 2.7289543e+2, -288633.5, -470694.2, 9801.516, -0.08773379, 0.03996547, -288107.34, -22477.11, 0.0000019196314, 9.967668, 9.944685 
8.4378695e+2, 2.8283992e+2, -208354.17, -387068.0, 7632.394, -0.09550463, 0.04335151, -208028.8, -39855.164, 0.000008122092, 9.966584, 9.944175 
8.428689e+2, 2.927843e+2, -135152.17, -305339.0, -2682.787, -0.11216264, 0.10312787, -135109.89, -64390.89, 0.000025306752, 9.965039, 9.9435005 
8.419502e+2, 3.0272815e+2, -61676.426, -208392.86, 10759.952, -0.16367038, 0.10560247, -60891.508, -60891.508, 0.000059529124, 9.963155, 9.944505 
8.41034e+2, 3.1267226e+2, -19430.55, -127292.07, 3560.0398, -0.16625509, -0.11101384, -19313.178, -19313.178, 0.00011036823, 9.961285, 9.947414 
8.401135e+2, 3.2261968e+2, -34827.3, -95196.234, -23630.598, -0.19147514, 0.0990564, -26677.617, -26677.617, 0.000170127, 9.957869, 9.950784 
8.674108e+2, 1.34458e+2, -1562408.9, -1611193.6, 3701.5498, 0.18910195, 0.10493568, -1562129.6, 60192.117, 0.00009383463, 9.967693, 9.961437 
8.6650217e+2, 1.444193e+2, -1482002.1, -1536578.1, -2470.7424, 0.09455453, 0.14509374, -1481890.5, 42810.18, 0.00006094004, 9.967036, 9.960092 
8.65595e+2, 1.5437852e+2, -1396988.1, -1452964.5, 12828.809, 0.11978392, 0.093543805, -1394188.0, 32911.68, 0.00003290037, 9.966425, 9.959669 
8.6468816e+2, 1.6433772e+2, -1299131.6, -1362256.8, 1498.7217, 0.13153, 0.06651039, -1299096.1, 30403.08, 0.000014001087, 9.966448, 9.958926 
8.637786e+2, 1.7429605e+2, -1195497.4, -1275910.4, 6756.518, 0.08285605, 0.080277614, -1194933.6, 36973.668, 0.0000045003767, 9.967336, 9.957816 
8.6287004e+2, 1.842536e+2, -1102737.5, -1191127.0, 9080.902, 0.05023719, 0.08954673, -1101814.1, 32508.912, 0.0000010659371, 9.967436, 9.956792 
8.61962e+2, 1.942095e+2, -1023364.06, -1119263.9, 16040.0625, 0.0570419, 0.09168436, -1020752.3, 16003.157, 0.00000018424288, 9.966837, 9.955324 
8.610535e+2, 2.0416494e+2, -921925.94, -1019821.75, 9937.213, 0.047572736, 0.09271615, -920927.44, 18264.898, 0.000000023185766, 9.966838, 9.955248 
8.601429e+2, 2.1411924e+2, -824307.8, -939089.94, 12028.426, 0.0095507745, 0.09143201, -823060.9, 18578.768, 0.0000000021246724, 9.967451, 9.95371 
8.5923266e+2, 2.2407226e+2, -733498.4, -862939.1, 17470.89, -0.01627916, 0.085821874, -731181.75, 12918.024, 0.00000000016612903, 9.967757, 9.952026 
8.583224e+2, 2.3402302e+2, -646527.56, -789358.06, 16278.39, -0.023320528, 0.071016155, -644695.8, 1886.3905, 0.00000000051179117, 9.967763, 9.950241 
8.574115e+2, 2.4397315e+2, -548288.25, -697361.0, 17759.969, -0.032793365, 0.06770371, -546201.56, 2869.3242, 0.000000007637945, 9.967973, 9.949667 
8.5649925e+2, 2.539219e+2, -452999.38, -617467.25, 13974.256, -0.04376841, 0.08090927, -451820.47, -247.30054, 0.000000083945466, 9.968452, 9.947936 
8.5558575e+2, 2.6386926e+2, -363791.38, -540685.06, 15603.349, -0.06686391, 0.082507014, -362425.6, -8336.949, 0.0000006702643, 9.968521, 9.946349 
8.5467017e+2, 2.7381447e+2, -288121.75, -467423.78, 6142.213, -0.10333844, 0.06896561, -287911.56, -31286.516, 0.000003889783, 9.967561, 9.9448395 
8.5375327e+2, 2.83759e+2, -206679.17, -381825.06, 4474.7944, -0.11508025, 0.05703002, -206564.92, -47396.78, 0.000016460805, 9.966541, 9.9444275 
8.5283434e+2, 2.93703e+2, -128644.945, -298861.44, -7183.631, -0.107400626, 0.0578643, -128342.31, -66625.65, 0.000051319832, 9.96538, 9.94363 
8.5191375e+2, 3.036469e+2, -58116.863, -209791.8, -482.99744, -0.15841724, 0.07112888, -58115.324, -58115.324, 0.000120814846, 9.963432, 9.944078 
8.509939e+2, 3.135919e+2, -45582.164, -146100.78, -11849.647, -0.17950301, 0.010448299, -44204.156, -44204.156, 0.00022411745, 9.95961, 9.9467125 
8.500713e+2, 3.2353953e+2, 963.724, -32007.443, -23532.848, -0.21878813, 0.1325683, 13210.863, 13210.863, 0.00034556063, 9.958589, 9.954467 
8.7737805e+2, 1.3536863e+2, -1576676.4, -1624454.9, 10273.8545, 0.17166567, 0.14950539, -1574560.9, 38838.805, 0.000019043677, 9.966858, 9.960818 
8.76469e+2, 1.4532915e+2, -1484598.8, -1529214.6, 2709.535, 0.10524041, 0.11249331, -1484434.9, 31351.316, 0.000012362725, 9.9662695, 9.960793 
8.755612e+2, 1.5528962e+2, -1396598.4, -1443645.3, 20197.182, 0.12020843, 0.104576856, -1389117.4, 29055.45, 0.0000066696857, 9.965848, 9.960469 
8.746545e+2, 1.6524956e+2, -1300226.1, -1359765.3, 12706.95, 0.12523298, 0.10249836, -1297627.6, 22937.352, 0.000002835376, 9.966144, 9.959182 
8.73746e+2, 1.7520817e+2, -1192635.9, -1270220.8, 19142.998, 0.08136223, 0.11039318, -1188169.6, 34801.11, 0.0000009100635, 9.967255, 9.958215 
8.7283754e+2, 1.8516643e+2, -1094936.1, -1174181.0, 13228.896, 0.050021432, 0.11283944, -1092786.1, 32593.54, 0.00000021513608, 9.967091, 9.957984 
8.719284e+2, 1.9512355e+2, -1021817.9, -1103895.3, 21856.168, 0.049418535, 0.10991885, -1016360.7, 11438.809, 0.000000037089958, 9.965996, 9.956634 
8.7101984e+2, 2.0507987e+2, -926459.1, -1015470.3, 23324.309, 0.041180257, 0.10553094, -920717.6, 9509.84, 0.0000000046516857, 9.966091, 9.955844 
8.7011033e+2, 2.1503477e+2, -819565.9, -929380.6, 24625.95, 0.013588217, 0.09967477, -814296.3, 18372.87, 0.0000000004243601, 9.967294, 9.954428 
8.6920065e+2, 2.2498882e+2, -720081.0, -842809.7, 26706.025, -0.010096613, 0.09918637, -714521.56, 20598.033, 0.000000000071721434, 9.967808, 9.953303 
8.682901e+2, 2.3494105e+2, -634456.3, -768903.56, 28905.223, -0.02410094, 0.0993216, -628505.3, 9082.153, 0.0000000009082265, 9.967647, 9.951531 
8.6737925e+2, 2.4489239e+2, -540001.5, -679764.3, 34829.75, -0.036050074, 0.097366355, -531802.6, 8261.552, 0.000000013717135, 9.967645, 9.950837 
8.6646724e+2, 2.5484216e+2, -450483.88, -603172.2, 30903.297, -0.04785867, 0.09848996, -444466.38, -1909.9473, 0.00000015076724, 9.967711, 9.949067 
8.655539e+2, 2.6479062e+2, -359364.4, -526988.9, 33661.492, -0.06821946, 0.09918813, -352857.28, -7796.166, 0.0000012040975, 9.967925, 9.947336 
8.64638e+2, 2.7473676e+2, -265554.53, -446926.13, 26136.588, -0.103562266, 0.095508225, -261863.25, -14274.931, 0.000006992764, 9.968238, 9.945565 
8.6372036e+2, 2.8468174e+2, -177256.5, -362523.88, 25064.436, -0.11898576, 0.07209835, -173925.48, -23798.37, 0.000029645516, 9.96785, 9.94467 
8.628e+2, 2.946253e+2, -108651.59, -287102.28, 10974.492, -0.110406145, 0.029229458, -107979.21, -55299.92, 0.00009271142, 9.966171, 9.943603 
8.618771e+2, 3.045692e+2, -48428.586, -204152.19, 9986.81, -0.15538192, 0.06751424, -47790.727, -47790.727, 0.00021904535, 9.963369, 9.943908 
8.6095315e+2, 3.1451526e+2, -45936.04, -150092.64, 1534.4534, -0.17723179, 0.1378745, -45913.438, -45913.438, 0.0004076256, 9.95899, 9.946025 
8.600294e+2, 3.244626e+2, 15892.314, 25737.686, 11065.545, -0.27183586, 0.066850014, 32926.117, 32926.117, 0.00062983576, 9.957429, 9.958727 
8.8734496e+2, 1.3627928e+2, -1563592.1, -1617316.8, 4946.8896, 0.14995581, 0.15495048, -1563140.4, 41336.33, 0.000002958578, 9.967759, 9.96088 
8.86436e+2, 1.4624014e+2, -1464854.1, -1511297.8, -664.3585, 0.13856053, 0.11161616, -1464844.6, 42015.344, 0.0000019202917, 9.967302, 9.96152 
8.8552785e+2, 1.5620166e+2, -1365384.5, -1420568.5, 18541.063, 0.12023471, 0.12937209, -1359733.6, 49502.996, 0.0000010355539, 9.967681, 9.961208 
8.8462096e+2, 1.6616233e+2, -1280578.0, -1343019.9, 11862.22, 0.11502138, 0.13503706, -1278400.4, 33221.43, 0.0000004399312, 9.967215, 9.959813 
8.837129e+2, 1.7612152e+2, -1198620.0, -1264419.5, 21787.684, 0.07821908, 0.13404626, -1192059.6, 21962.191, 0.00000014107277, 9.966525, 9.958935 
8.8280433e+2, 1.8608052e+2, -1094079.1, -1162982.6, 12196.475, 0.048923504, 0.13041885, -1091984.0, 24439.361, 0.00000003330806, 9.966668, 9.958905 
8.8189465e+2, 1.9603871e+2, -995494.9, -1078695.9, 18746.102, 0.042391572, 0.123597294, -991466.25, 27366.34, 0.0000000057331504, 9.967241, 9.957777 
8.809863e+2, 2.0599583e+2, -904937.25, -999113.4, 23817.145, 0.0351287, 0.11768521, -899256.56, 21996.055, 0.00000000071752804, 9.9674015, 9.956429 
8.8007784e+2, 2.159514e+2, -812320.0, -917735.2, 25787.953, 0.019374497, 0.10892171, -806349.56, 17338.564, 0.00000000006547386, 9.967537, 9.955197 
8.7916845e+2, 2.2590671e+2, -712283.7, -821110.06, 24404.52, -0.003396172, 0.11644229, -707061.5, 19064.62, 0.0000000000751049, 9.967573, 9.954939 
8.782577e+2, 2.3586085e+2, -624512.8, -745033.5, 26330.16, -0.027022282, 0.13429596, -619011.56, 9563.847, 0.0000000014740116, 9.967514, 9.953267 
8.773468e+2, 2.4581364e+2, -532783.9, -662204.9, 33512.3, -0.04683804, 0.13056034, -524621.06, 6416.775, 0.000000022289091, 9.967563, 9.952137 
8.764348e+2, 2.557645e+2, -444075.34, -586159.7, 29424.854, -0.063477635, 0.111804, -438222.7, -4703.6055, 0.00000024496487, 9.967583, 9.950315 
8.755218e+2, 2.6571435e+2, -352081.7, -506866.1, 35276.824, -0.0722041, 0.11065887, -344420.94, -8410.765, 0.0000019576619, 9.967793, 9.948795 
8.7460655e+2, 2.7566192e+2, -258147.17, -429021.06, 27304.635, -0.08091069, 0.12041411, -253890.11, -15366.669, 0.000011400731, 9.968221, 9.946764 
8.7368834e+2, 2.8560767e+2, -176392.9, -360599.72, 19694.158, -0.11226076, 0.10192343, -174310.88, -33256.145, 0.000048632028, 9.967857, 9.944656 
8.727657e+2, 2.9555094e+2, -110776.54, -291066.97, 3834.7988, -0.15211008, 0.06083737, -110695.01, -67084.47, 0.00015357247, 9.966141, 9.943213 
8.7184024e+2, 3.0549496e+2, -40295.76, -186469.92, -7093.1875, -0.17618096, 0.110455245, -39952.367, -39952.367, 0.00036699965, 9.963147, 9.944955 
8.7091255e+2, 3.1544226e+2, -40020.707, -137802.58, -12979.225, -0.12740327, 0.1922142, -38327.22, -38327.22, 0.00068988913, 9.95877, 9.9466505 
8.699856e+2, 3.2538703e+2, -41181.035, -38581.043, 643.0885, -0.2245496, -0.042527843, -38430.676, -38430.676, 0.001073521, 9.954987, 9.955612 
8.9731234e+2, 1.3719009e+2, -1572931.6, -1616560.8, 8731.953, 0.15588617, 0.15425897, -1571249.0, 24302.773, 0.00000034527207, 9.966776, 9.961285 
8.964034e+2, 1.4715171e+2, -1471871.3, -1506482.8, 6221.9346, 0.17642914, 0.12852557, -1470786.8, 27141.326, 0.00000022408217, 9.966404, 9.9621935 
8.9549524e+2, 1.5711407e+2, -1369138.8, -1414365.5, 25363.904, 0.11497918, 0.16177703, -1357771.4, 42525.496, 0.00000012080618, 9.96699, 9.961912 
8.9458776e+2, 1.6707556e+2, -1280962.3, -1330797.9, 13926.997, 0.10161586, 0.16170648, -1277334.4, 25339.668, 0.000000051297388, 9.966448, 9.960901 
8.936789e+2, 1.7703578e+2, -1200714.0, -1252980.3, 25950.963, 0.071396686, 0.14752294, -1190017.9, 15045.499, 0.00000001643881, 9.96566, 9.960031 
8.9277077e+2, 1.8699536e+2, -1098838.6, -1161143.3, 22674.0, 0.048823036, 0.13708508, -1091460.8, 15998.462, 0.000000003877973, 9.966129, 9.959264 
8.9186215e+2, 1.9695401e+2, -990309.75, -1070566.4, 28390.873, 0.04752481, 0.12898758, -981281.94, 28582.182, 0.00000000066676814, 9.967298, 9.958292 
8.9095384e+2, 2.0691185e+2, -898826.2, -988027.0, 27867.375, 0.034080885, 0.1347057, -890835.8, 21441.564, 0.00000000008333369, 9.967265, 9.957182 
8.900448e+2, 2.1686846e+2, -814667.56, -907251.1, 30893.615, 0.007823797, 0.14287336, -805305.5, 9397.306, 0.000000000010516922, 9.966663, 9.956262 
8.891353e+2, 2.2682497e+2, -716013.56, -806632.94, 31579.303, -0.009173096, 0.14181781, -706094.44, 11034.485, 0.000000000098867345, 9.966414, 9.956438 
8.8822466e+2, 2.3678057e+2, -625403.6, -727896.44, 33757.69, -0.021316951, 0.14181206, -615284.06, 4279.7686, 0.0000000020481026, 9.966461, 9.954909 
8.8731384e+2, 2.4673495e+2, -531950.6, -645033.9, 42187.11, -0.044020016, 0.14122547, -517946.5, 4064.3374, 0.0000000309748, 9.96662, 9.953739 
8.864018e+2, 2.566876e+2, -439691.2, -564251.1, 39360.742, -0.0702739, 0.1328896, -428295.75, -3821.5488, 0.0000003404844, 9.966669, 9.952208 
8.854887e+2, 2.666398e+2, -349089.5, -475078.5, 49683.484, -0.073968224, 0.12625797, -331854.6, -4911.979, 0.0000027257568, 9.9662075, 9.951642 
8.8457346e+2, 2.7659008e+2, -270287.53, -405725.28, 49115.24, -0.06819435, 0.12913892, -254351.44, -24922.262, 0.000015971164, 9.96552, 9.9494 
8.836548e+2, 2.8653866e+2, -182910.44, -330902.1, 52372.81, -0.11469607, 0.12491052, -166251.47, -34318.34, 0.000069086105, 9.965207, 9.947341 
8.827308e+2, 2.9648414e+2, -103165.625, -268073.94, 59007.258, -0.19278799, 0.1023499, -84226.76, -49759.17, 0.00022324533, 9.964793, 9.944517 
8.8180333e+2, 3.064287e+2, -15168.457, -169577.16, 43778.793, -0.1879535, 0.14513898, -3619.8105, -3619.8105, 0.0005485991, 9.963359, 9.944774 
8.808729e+2, 3.1637442e+2, -10446.98, -146462.94, 15682.11, -0.06495733, 0.20881014, -8662.311, -8662.311, 0.0010574318, 9.96092, 9.94405 
8.7994236e+2, 3.2631463e+2, -13183.847, -67013.88, 17665.574, -0.1949506, -0.080444306, -7904.289, -7904.289, 0.001674894, 9.958211, 9.951219 
9.0727955e+2, 1.3810198e+2, -1537573.1, -1577967.4, -1748.5593, 0.13715623, 0.1716012, -1537497.5, 49119.535, 0.000000029867618, 9.968034, 9.963118 
9.063698e+2, 1.4806426e+2, -1463787.1, -1501199.0, 8827.664, 0.16478366, 0.14656024, -1461808.8, 27178.012, 0.000000019382966, 9.966974, 9.962253 
9.0546215e+2, 1.5802681e+2, -1361420.1, -1407054.4, 24190.178, 0.09904623, 0.1824228, -1350983.9, 40369.926, 0.000000010447276, 9.967416, 9.9622555 
9.045545e+2, 1.6798894e+2, -1261559.5, -1311212.4, 7911.488, 0.09643667, 0.17770724, -1260329.4, 33395.277, 0.000000004434464, 9.967315, 9.961882 
9.036452e+2, 1.779502e+2, -1171064.3, -1228940.1, 20115.469, 0.07409347, 0.15798761, -1164759.6, 31343.97, 0.0000000014203173, 9.967276, 9.961003 
9.027373e+2, 1.8791048e+2, -1080374.6, -1147135.4, 20453.586, 0.051262394, 0.14888036, -1074606.6, 23886.072, 0.00000000033482794, 9.967269, 9.959819 
9.018296e+2, 1.9786978e+2, -984330.2, -1060398.3, 26386.273, 0.050047226, 0.14210147, -976073.56, 24817.67, 0.000000000057520166, 9.967465, 9.959024 
9.0092105e+2, 2.0782857e+2, -891952.5, -973765.2, 23968.27, 0.030366486, 0.15583831, -885447.8, 17847.525, 0.0000000000071813653, 9.967243, 9.958182 
9.0001136e+2, 2.1778642e+2, -801999.1, -886720.0, 29215.701, -0.0052654785, 0.1750317, -792901.2, 12807.407, 0.00000000000428494, 9.966894, 9.957528 
8.9910173e+2, 2.2774416e+2, -701716.2, -783823.7, 30840.834, -0.015406442, 0.16279525, -691422.44, 16700.205, 0.00000000010849106, 9.966742, 9.95786 
8.981913e+2, 2.3770116e+2, -610594.6, -702375.75, 31797.854, -0.01255791, 0.13888824, -600654.7, 9888.92, 0.000000002258234, 9.966727, 9.956583 
8.972805e+2, 2.4765727e+2, -519061.38, -619113.4, 40446.49, -0.038322434, 0.14721544, -504756.03, 8217.398, 0.000000034158017, 9.966709, 9.955525 
8.963684e+2, 2.576122e+2, -425288.06, -531211.5, 36734.715, -0.074616484, 0.1612075, -413795.28, 1619.7958, 0.00000037566133, 9.966562, 9.954552 
8.9545476e+2, 2.6756722e+2, -326376.66, -422779.8, 45933.105, -0.08032451, 0.1393744, -307995.66, 9859.742, 0.00000301649, 9.96596, 9.95539 
8.945389e+2, 2.7752107e+2, -246559.5, -349814.47, 45178.344, -0.074548826, 0.11341629, -229583.19, -9276.193, 0.000017853601, 9.965279, 9.953336 
8.9361995e+2, 2.8747478e+2, -140282.7, -241872.0, 48052.27, -0.12306187, 0.13865006, -121155.13, 1605.6769, 0.000079075995, 9.9653, 9.953239 
8.926955e+2, 2.9742607e+2, -72008.07, -207395.84, 63504.09, -0.20475309, 0.16262382, -46883.684, -21645.277, 0.00026623905, 9.964975, 9.948575 
8.917665e+2, 3.0737177e+2, -26333.97, -187550.86, 36853.344, -0.1849391, 0.10417502, -18308.955, -18308.955, 0.00069019, 9.962805, 9.943617 
8.9083385e+2, 3.1731197e+2, -47581.387, -220347.6, 9084.896, -0.036390103, 0.026813813, -47104.973, -47104.973, 0.0014013384, 9.960557, 9.938943 
8.89899e+2, 3.2725605e+2, 16401.906, -21858.063, 12319.385, -0.3861984, 0.41389126, 20025.46, 20025.46, 0.0023083058, 9.958748, 9.953269 
9.172466e+2, 1.3901442e+2, -1549081.5, -1562878.9, -10192.562, 0.124289826, 0.18862243, -1543672.5, 34004.684, 0.000000001903787, 9.9660845, 9.964912 
9.1633606e+2, 1.4897706e+2, -1475447.5, -1509969.3, 12813.846, 0.12673102, 0.16435921, -1471211.1, 8832.052, 0.0000000012354053, 9.966347, 9.961972 
9.1542906e+2, 1.589393e+2, -1370855.1, -1411404.6, 27250.564, 0.079371765, 0.19203718, -1357164.3, 25248.81, 0.00000000066574474, 9.966759, 9.962265 
9.145217e+2, 1.6890179e+2, -1265270.9, -1305914.6, 9731.632, 0.10163343, 0.18443267, -1263061.0, 21719.4, 0.0000000002824927, 9.966737, 9.962497 
9.136126e+2, 1.7886376e+2, -1171913.6, -1222584.3, 21881.174, 0.09163849, 0.16858675, -1163772.6, 23379.855, 0.00000000009044054, 9.966916, 9.961607 
9.127046e+2, 1.8882471e+2, -1081992.1, -1141826.0, 20913.545, 0.056783736, 0.17443775, -1075407.0, 14128.354, 0.000000000021308946, 9.966855, 9.960388 
9.117966e+2, 1.987849e+2, -987002.8, -1049770.8, 26338.826, 0.041686136, 0.18126017, -977415.0, 14510.375, 0.000000000003658245, 9.966717, 9.960117 
9.1088784e+2, 2.0874493e+2, -891005.0, -954023.3, 25026.41, 0.028853677, 0.17205119, -882275.56, 12041.137, 0.00000000000045636807, 9.966427, 9.959898 
9.0997803e+2, 2.1870428e+2, -800742.0, -869305.3, 32036.553, 0.0026954552, 0.16490306, -788102.75, 8612.081, 0.0000000000030655227, 9.966204, 9.958991 
9.090682e+2, 2.2866303e+2, -706229.1, -779412.2, 33269.395, -0.017578106, 0.17025307, -693365.75, 5753.5317, 0.0000000000903565, 9.966118, 9.958446 
9.081575e+2, 2.3862115e+2, -612427.1, -689288.44, 31583.932, -0.02783144, 0.17029816, -601113.9, 415.81012, 0.0000000018811002, 9.965946, 9.957885 
9.0724653e+2, 2.4857886e+2, -524072.06, -599677.9, 39556.395, -0.04197694, 0.16644539, -507159.63, -3215.8623, 0.000000028451819, 9.96532, 9.957543 
9.063339e+2, 2.5853592e+2, -437249.1, -510207.13, 36964.242, -0.06368718, 0.16624923, -421794.75, -15430.651, 0.00000031314025, 9.964441, 9.956985 
9.0541947e+2, 2.6849338e+2, -340361.94, -404357.03, 42405.05, -0.08433915, 0.15747264, -319236.7, -10455.541, 0.0000025239594, 9.963721, 9.957836 
9.045025e+2, 2.784505e+2, -257549.73, -319132.44, 36807.453, -0.09746555, 0.14059325, -240352.6, -29151.443, 0.000015124688, 9.962704, 9.956991 
9.0358454e+2, 2.884082e+2, -131544.8, -195921.97, 33488.12, -0.109531574, 0.16148134, -117283.84, -3668.0706, 0.00006901787, 9.963788, 9.95796 
9.026593e+2, 2.983658e+2, -57851.227, -129985.625, 30714.672, -0.16954653, 0.20077215, -46545.08, -30513.752, 0.00024569064, 9.962069, 9.955981 
9.2721456e+2, 1.3992642e+2, -1538476.0, -1576031.1, 1920.7255, 0.23310345, 0.20839703, -1538378.0, 30363.754, 0.00000000008526822, 9.968008, 9.963368 
9.26303e+2, 1.4988962e+2, -1433368.4, -1478629.4, 8173.2144, 0.07174652, 0.20472229, -1431937.6, 39164.473, 0.00000000005532455, 9.968701, 9.96301 
9.2539644e+2, 1.5985239e+2, -1354800.3, -1397122.5, 28821.521, 0.10564209, 0.20053694, -1340205.6, 33261.086, 0.000000000029806633, 9.96755, 9.962755 
9.2448866e+2, 1.6981521e+2, -1256491.6, -1297244.3, 12666.435, 0.113478996, 0.19713445, -1252875.5, 22955.098, 0.000000000012643394, 9.967172, 9.962817 
9.235795e+2, 1.7977774e+2, -1163147.8, -1211357.1, 23115.93, 0.08388236, 0.18960091, -1153855.1, 24342.508, 0.0000000000040459667, 9.967239, 9.962191 
9.2267144e+2, 1.897394e+2, -1072410.4, -1127606.4, 23676.547, 0.05168698, 0.20098503, -1063645.9, 16927.334, 0.000000000000952743, 9.967112, 9.96115 
9.2176336e+2, 1.9970055e+2, -974400.7, -1029453.2, 30145.365, 0.038536433, 0.21199174, -961104.94, 21849.156, 0.00000000000016345195, 9.966976, 9.961248 
9.2085445e+2, 2.0966175e+2, -872591.56, -927477.56, 26248.367, 0.030092793, 0.18474972, -862059.6, 23274.004, 0.000000000000020373985, 9.966945, 9.961406 
9.199445e+2, 2.1962246e+2, -782158.4, -846791.0, 30510.754, 0.010218504, 0.1555523, -770030.9, 17687.113, 0.0000000000018606304, 9.966929, 9.960189 
9.190344e+2, 2.2958206e+2, -694415.7, -767988.94, 32003.928, -0.023596704, 0.1833481, -682442.6, 7671.7144, 0.000000000055557395, 9.9667225, 9.958941 
9.181233e+2, 2.3954129e+2, -596757.1, -666043.75, 29937.87, -0.0501328, 0.21185899, -585613.56, 6900.6943, 0.0000000011563022, 9.966372, 9.95924 
9.172118e+2, 2.495006e+2, -503573.1, -565562.94, 35858.586, -0.045338992, 0.18503837, -487170.5, 7741.9014, 0.000000017486771, 9.965677, 9.9596815 
9.1629857e+2, 2.5945988e+2, -415786.25, -473228.13, 31980.742, -0.043555353, 0.15634924, -401522.78, -4211.8984, 0.00000019261098, 9.964779, 9.959341 
9.153831e+2, 2.694194e+2, -326005.63, -380570.3, 36936.13, -0.09474238, 0.19167976, -307368.44, -7660.292, 0.000001557747, 9.964026, 9.959306 
9.1446483e+2, 2.7937928e+2, -237675.8, -283813.13, 33380.582, -0.13875805, 0.22356568, -220168.28, -18066.49, 0.000009437413, 9.963044, 9.959269 
9.135492e+2, 2.893375e+2, -123499.14, -188258.44, 43922.016, -0.054514516, 0.18376517, -101311.54, 3199.8298, 0.00004425717, 9.964454, 9.958519 
9.1262186e+2, 2.9929876e+2, -9124.261, -35596.414, 9782.471, -0.16283081, 0.22789374, -5901.5874, 989.3091, 0.00016661992, 9.962892, 9.961759 
9.3718237e+2, 1.4083776e+2, -1561712.5, -1604869.9, 19436.541, 0.22355187, 0.26746216, -1554249.5, 5563.765, 0.0000000000029415736, 9.967699, 9.961847 
9.362709e+2, 1.508018e+2, -1437600.8, -1461677.4, 2779.9192, 0.028590597, 0.24855363, -1437284.0, 24881.174, 0.0000000000019083366, 9.967531, 9.964698 
9.3536437e+2, 1.6076557e+2, -1360240.5, -1391860.5, 24036.744, 0.17095932, 0.20622838, -1347280.4, 17238.854, 0.0000000000010279229, 9.966843, 9.963448 
9.344557e+2, 1.707287e+2, -1264291.1, -1300540.6, 10509.596, 0.119610175, 0.21900623, -1261464.6, 5415.9917, 0.0000000000004359048, 9.966696, 9.962851 
9.3354607e+2, 1.8069167e+2, -1164616.1, -1202246.5, 21080.768, 0.030414527, 0.22620285, -1155175.1, 14068.053, 0.0000000000001394446, 9.966799, 9.963042 
9.3263817e+2, 1.9065443e+2, -1069871.3, -1110009.6, 21831.361, 0.034970656, 0.21915784, -1060286.0, 11321.798, 0.00000000000003282296, 9.96665, 9.96256 
9.3173033e+2, 2.0061678e+2, -974826.25, -1018475.7, 29642.844, 0.058504634, 0.21619147, -959840.44, 14136.283, 0.0000000000000056283993, 9.966562, 9.962171 
9.308214e+2, 2.1057868e+2, -874446.9, -924060.25, 24962.441, 0.031514626, 0.21475397, -864061.3, 12288.604, 0.00000000000000070118843, 9.966766, 9.961747 
9.2991143e+2, 2.2054009e+2, -779464.4, -838504.7, 25612.543, -0.005997857, 0.20779678, -769902.0, 8825.806, 0.00000000000083497646, 9.966944, 9.960813 
9.290013e+2, 2.3050013e+2, -691537.4, -757807.4, 26100.28, -0.019677866, 0.21098006, -682492.4, -1372.8755, 0.0000000000249549, 9.966677, 9.959701 
9.280899e+2, 2.4046013e+2, -592372.06, -650409.6, 23270.89, -0.030097004, 0.21828878, -584193.75, -682.15814, 0.00000000051935445, 9.96626, 9.960378 
9.271777e+2, 2.504206e+2, -496770.6, -550622.44, 25159.773, -0.04046612, 0.20513716, -486845.2, -946.8734, 0.0000000078541085, 9.965864, 9.96069 
9.262637e+2, 2.603812e+2, -405058.13, -456403.34, 14776.776, -0.052927952, 0.18790285, -401109.2, -12825.384, 0.00000008654337, 9.965322, 9.960418 
9.253477e+2, 2.703412e+2, -311108.16, -369422.47, 14920.423, -0.114009835, 0.21058281, -307512.3, -16835.672, 0.0000007013428, 9.965352, 9.959729 
9.24429e+2, 2.8030184e+2, -205442.36, -258303.0, 1890.2162, -0.16066264, 0.24131513, -205374.84, -12311.959, 0.0000042783217, 9.965577, 9.960203 
9.235147e+2, 2.9026067e+2, -123355.89, -188604.7, 16495.344, -0.006955353, 0.2318372, -119422.836, -23956.719, 0.00002042177, 9.965673, 9.958381 
9.225871e+2, 3.00221e+2, 49249.4, -7911.56, -36594.88, -0.24989985, 0.1664692, 67101.98, 67101.98, 0.00007993033, 9.969186, 9.961488 
9.471495e+2, 1.4174828e+2, -1528926.0, -1556188.1, 17927.521, 0.12929231, 0.25922987, -1520035.9, 30856.1, 0.0, 9.968402, 9.964704 
9.4623846e+2, 1.5171356e+2, -1435215.3, -1453803.9, 2286.852, 0.061434932, 0.26294333, -1434938.0, 18293.61, 0.0, 9.967344, 9.965312 
9.4533116e+2, 1.6167812e+2, -1349410.8, -1380240.6, 19899.785, 0.15948422, 0.23279731, -1339653.9, 15924.486, 0.0, 9.967286, 9.964092 
9.444226e+2, 1.7164186e+2, -1247669.4, -1285355.0, 12653.502, 0.11005556, 0.24521069, -1243815.0, 14118.537, 0.0, 9.967546, 9.963475 
9.4351304e+2, 1.8160555e+2, -1144176.8, -1182122.6, 24152.043, 0.013567943, 0.25103962, -1132436.5, 27852.805, 0.0, 9.96775, 9.963863 
9.4260496e+2, 1.9156912e+2, -1052388.5, -1089713.9, 20883.86, 0.030613312, 0.23201509, -1043043.5, 19602.217, 0.0, 9.967326, 9.963616 
9.416971e+2, 2.0153244e+2, -962934.7, -1004848.2, 26840.559, 0.06925306, 0.22252385, -949838.56, 15166.232, 0.0, 9.967057, 9.962927 
9.407882e+2, 2.1149507e+2, -866827.9, -916242.9, 25269.268, 0.027967166, 0.24958608, -856194.25, 11177.152, 0.0, 9.967164, 9.962121 
9.398783e+2, 2.2145715e+2, -771147.8, -827195.6, 26415.594, -0.020429796, 0.26320788, -760660.4, 9082.871, 0.00000000000028468902, 9.96723, 9.961403 
9.389681e+2, 2.314176e+2, -679807.8, -742144.4, 27807.252, -0.009890891, 0.23482049, -669206.44, 2924.0747, 0.000000000008157955, 9.967072, 9.960492 
9.380566e+2, 2.413782e+2, -579328.1, -634017.2, 24640.34, -0.0013167209, 0.2151741, -569864.1, 4652.093, 0.00000000016979894, 9.966745, 9.961154 
9.371437e+2, 2.513395e+2, -486840.8, -540101.25, 25496.613, -0.041404568, 0.23502369, -476603.1, 291.93896, 0.0000000025679472, 9.966328, 9.9611 
9.3622875e+2, 2.6130065e+2, -398460.34, -451796.0, 14562.984, -0.083030105, 0.24071205, -394743.1, -15468.095, 0.000000028296595, 9.965771, 9.960447 
9.353129e+2, 2.712596e+2, -310796.94, -374769.2, 16619.348, -0.13500674, 0.19582166, -306737.06, -25059.654, 0.00000022950282, 9.965712, 9.959189 
9.3439466e+2, 2.812196e+2, -200438.31, -249236.45, 2632.1626, -0.1643638, 0.18162407, -200296.75, -16227.011, 0.0000014045202, 9.965747, 9.960714 
9.334806e+2, 2.9118118e+2, -113351.125, -170517.56, 22047.596, -0.004376185, 0.3404527, -105835.914, -19389.92, 0.000006759484, 9.965875, 9.959421 
9.325564e+2, 3.0113825e+2, 13110.25, -74077.46, -7744.498, -0.22399971, 0.16907935, 13792.816, 13792.816, 0.000026932837, 9.968645, 9.9575815 
9.5711815e+2, 1.4265864e+2, -1530429.8, -1526816.0, 3097.3394, 0.21865554, 0.23022275, -1525037.0, 16934.66, 0.0, 9.966835, 9.967382 
9.562059e+2, 1.5262462e+2, -1444982.0, -1460065.6, -2732.1377, 0.09691469, 0.2720864, -1444502.4, -197.31712, 0.0, 9.966861, 9.965218 
9.552976e+2, 1.6258976e+2, -1349291.1, -1370947.3, 15133.486, 0.07812251, 0.27966216, -1341510.9, 5135.5127, 0.0, 9.967078, 9.964888 
9.543901e+2, 1.725545e+2, -1242614.6, -1267593.0, 9227.532, 0.10710885, 0.27027485, -1239575.5, 9416.161, 0.0, 9.967435, 9.964824 
9.534813e+2, 1.8251902e+2, -1144584.4, -1177223.3, 17503.404, 0.06282183, 0.25618705, -1136972.8, 14366.187, 0.0, 9.967657, 9.964289 
9.5257246e+2, 1.9248262e+2, -1055204.5, -1091134.4, 12457.772, 0.03541768, 0.237436, -1051307.8, 2387.288, 0.0, 9.967294, 9.963609 
9.516641e+2, 2.0244625e+2, -960055.0, -995884.25, 17865.174, 0.0434721, 0.23295653, -952669.5, 3381.5852, 0.0, 9.967136, 9.963612 
9.507555e+2, 2.124098e+2, -862027.25, -903149.0, 17359.043, 0.029121138, 0.26133174, -855679.25, 2729.4844, 0.0, 9.967269, 9.963074 
9.4984585e+2, 2.2237296e+2, -762981.7, -807786.25, 18786.627, -0.0036906253, 0.27571473, -756147.0, 4622.827, 0.000000000000067652664, 9.967382, 9.96272 
9.489355e+2, 2.3233485e+2, -666582.2, -719375.8, 21818.318, -0.018296165, 0.25352114, -658732.4, 4410.549, 0.0000000000019384904, 9.967572, 9.961823 
9.480236e+2, 2.4229652e+2, -566721.5, -621097.4, 18124.805, -0.025421308, 0.23756142, -561233.9, 4284.229, 0.000000000040347756, 9.967645, 9.961574 
9.4711065e+2, 2.5225773e+2, -473625.53, -533326.1, 16943.635, -0.053252533, 0.25333732, -469151.97, -1253.8533, 0.0000000006101943, 9.967609, 9.960925 
9.4619554e+2, 2.6221874e+2, -377172.16, -438603.22, 4739.2485, -0.08233693, 0.25621378, -376808.7, -6529.013, 0.000000006724211, 9.967597, 9.960436 
9.4527984e+2, 2.7217758e+2, -288882.28, -360036.28, 12366.579, -0.1149053, 0.19688658, -286794.25, -14111.35, 0.000000054552586, 9.967639, 9.959087 
9.4436187e+2, 2.821372e+2, -171624.95, -230704.8, 497.00275, -0.14090064, 0.16914022, -171620.78, 3457.9517, 0.0000003341785, 9.968223, 9.960547 
9.434477e+2, 2.92099e+2, -85111.26, -154957.63, 10297.121, -0.021879332, 0.36524376, -83624.836, -6172.104, 0.0000016125001, 9.968535, 9.959148 
9.4252574e+2, 3.0205444e+2, 6458.531, -92812.51, -10902.244, -0.18407556, 0.22131187, 7641.745, 7641.745, 0.0000064614287, 9.969214, 9.956156 
9.6708417e+2, 1.4357023e+2, -1533035.4, -1539770.0, 10362.344, 0.14235374, 0.33566204, -1525507.0, 7532.757, 0.0, 9.967216, 9.966329 
9.6617347e+2, 1.5353529e+2, -1425153.0, -1445678.6, 5522.2646, 0.1126845, 0.25520265, -1423761.6, 11620.58, 0.0, 9.967998, 9.965573 
9.6526515e+2, 1.6350117e+2, -1326633.0, -1352721.8, 21113.855, 0.065831356, 0.3003937, -1314859.0, 22857.436, 0.0, 9.96829, 9.965389 
9.6435773e+2, 1.7346653e+2, -1232755.8, -1252924.4, 12451.685, 0.11340225, 0.28629044, -1226817.0, 13238.418, 0.0, 9.967678, 9.965658 
9.634491e+2, 1.8343173e+2, -1142357.1, -1170526.4, 18710.3, 0.08405089, 0.26519355, -1133022.8, 9373.337, 0.0, 9.967552, 9.964753 
9.625399e+2, 1.933957e+2, -1044259.06, -1082065.8, 18261.691, 0.033691533, 0.25271192, -1036878.9, 7869.8228, 0.0, 9.967862, 9.963821 
9.616313e+2, 2.0335968e+2, -943866.75, -980162.06, 25401.814, 0.026862236, 0.24884434, -930796.0, 16305.374, 0.0, 9.967896, 9.964139 
9.607229e+2, 2.1332371e+2, -852197.25, -889166.4, 23122.23, 0.032943636, 0.26456532, -841079.1, 8374.862, 0.0, 9.967548, 9.963771 
9.5981336e+2, 2.232878e+2, -753078.25, -787883.5, 22832.63, 0.009919003, 0.2743921, -741772.3, 10033.499, 0.0000000000000117120025, 9.967428, 9.963977 
9.589029e+2, 2.3325118e+2, -656319.44, -698600.56, 24629.133, -0.03550526, 0.26854753, -645002.06, 9162.085, 0.0000000000003355644, 9.967618, 9.963183 
9.5799094e+2, 2.4321382e+2, -565457.3, -619243.25, 19478.518, -0.061413016, 0.26108745, -559144.2, -2614.1611, 0.0000000000069838328, 9.96769, 9.961633 
9.570782e+2, 2.5317457e+2, -473970.9, -536534.94, 19898.547, -0.06275277, 0.25641215, -468178.44, -9263.473, 0.00000000010561558, 9.967736, 9.960572 
9.5616347e+2, 2.6313543e+2, -371509.16, -430230.28, 8057.0596, -0.05911094, 0.2532988, -370423.72, -9125.425, 0.0000000011640542, 9.967762, 9.960844 
9.552481e+2, 2.730954e+2, -280837.94, -346004.8, 14914.848, -0.06132521, 0.23525777, -277586.56, -13896.531, 0.000000009444971, 9.967778, 9.95991 
9.5433044e+2, 2.8305516e+2, -177145.22, -240351.81, 3908.9177, -0.101900734, 0.20182449, -176904.4, -10820.316, 0.000000057857413, 9.9681225, 9.959959 
9.534153e+2, 2.9301444e+2, -97614.06, -173228.55, 12791.498, -0.09103038, 0.22982433, -95508.77, -27025.244, 0.00000027926637, 9.968111, 9.958131 
9.524947e+2, 3.0297166e+2, 21588.424, -45809.39, -13511.126, -0.14653838, 0.1889437, 24196.084, 24196.084, 0.0000011202083, 9.968075, 9.9597025 
9.770518e+2, 1.4447993e+2, -1535317.5, -1537265.9, 2077.426, 0.17277735, 0.31953713, -1533997.1, -9870.38, 0.0, 9.967034, 9.966698 
9.7614187e+2, 1.544456e+2, -1423814.0, -1437152.6, 2037.5385, 0.1419306, 0.22445713, -1423509.8, 2953.2969, 0.0, 9.9679785, 9.966325 
9.7523385e+2, 1.6441236e+2, -1328566.0, -1351184.4, 11326.064, 0.10391843, 0.3104736, -1323869.6, 4918.8994, 0.0, 9.968206, 9.965593 
9.7432536e+2, 1.7437804e+2, -1233484.5, -1250581.3, 2885.274, 0.109096475, 0.30588576, -1233010.6, -1886.0841, 0.0, 9.967687, 9.965887 
9.734165e+2, 1.8434404e+2, -1134837.1, -1153560.4, 11809.406, 0.05721032, 0.30034128, -1129128.9, 4328.664, 0.0, 9.967771, 9.965899 
9.7250813e+2, 1.9430952e+2, -1032023.2, -1061218.1, 12916.098, 0.033138663, 0.31513596, -1027129.3, 8666.257, 0.0, 9.968361, 9.965085 
9.7159976e+2, 2.0427428e+2, -936451.94, -972402.4, 16721.734, 0.040439107, 0.30601296, -929876.7, 8264.016, 0.0, 9.968466, 9.964409 
9.706906e+2, 2.1423794e+2, -847968.06, -884476.0, 13539.189, 0.022555562, 0.27197248, -843495.0, -2998.45, 0.0, 9.967982, 9.963913 
9.6978074e+2, 2.242022e+2, -746867.4, -777442.4, 13723.148, -0.0069455174, 0.26180756, -741611.44, 1235.1055, 0.0000000000000014914695, 9.967859, 9.964564 
9.6887094e+2, 2.3416635e+2, -649042.56, -687379.44, 13241.2295, -0.01726163, 0.27315196, -644913.8, 283.43747, 0.000000000000042732568, 9.968135, 9.963838 
9.679593e+2, 2.4412984e+2, -554317.6, -604070.44, 7411.2607, -0.030872202, 0.2789595, -553237.1, -5682.246, 0.00000000000088938075, 9.968397, 9.962466 
9.670465e+2, 2.540914e+2, -457441.53, -519400.0, 12681.697, -0.06055145, 0.27848777, -454946.3, -5014.6943, 0.000000000013450299, 9.968869, 9.961229 
9.661318e+2, 2.6405284e+2, -349362.13, -412400.63, 3462.7705, -0.0725537, 0.2808526, -349172.5, 3137.032, 0.0000000001482496, 9.969358, 9.961247 
9.652168e+2, 2.7401346e+2, -255535.81, -328387.25, 8343.862, -0.06311892, 0.2962343, -254592.39, 102.295074, 0.0000000012029147, 9.969668, 9.960177 
9.642992e+2, 2.8397337e+2, -160567.92, -233833.61, -1437.7964, -0.11324476, 0.27706876, -160539.72, -3452.411, 0.0000000073681794, 9.969603, 9.959641 
9.6338284e+2, 2.939314e+2, -93283.28, -169559.69, 14424.495, -0.17158256, 0.20467742, -90646.63, -31147.516, 0.000000035559857, 9.96852, 9.957935 
9.6246326e+2, 3.0389133e+2, 56389.05, 1888.4595, -20988.691, -0.117458045, 0.33463347, 63535.03, 63535.03, 0.00000014260962, 9.969123, 9.96231 
9.8701835e+2, 1.4538844e+2, -1520720.4, -1521257.9, 13336.415, 0.11407896, 0.35751623, -1507650.0, 7575.3335, 0.0, 9.967926, 9.96769 
9.861098e+2, 1.553555e+2, -1418110.3, -1423902.0, 18.685, 0.15495256, 0.29547486, -1418110.3, -562.4386, 0.0, 9.967908, 9.967379 
9.8520154e+2, 1.6532317e+2, -1323311.5, -1342846.9, 10587.356, 0.063746884, 0.39196813, -1318674.4, 1190.0082, 0.0, 9.968313, 9.966109 
9.842933e+2, 1.7528883e+2, -1215748.3, -1236313.5, 5431.136, 0.09547983, 0.33825555, -1214402.0, 7798.4243, 0.0, 9.968655, 9.966342 
9.833845e+2, 1.8525527e+2, -1120656.8, -1139262.1, 13011.298, 0.051943526, 0.3258757, -1113964.6, 10564.477, 0.0, 9.96843, 9.966539 
9.8247623e+2, 1.9522177e+2, -1032395.5, -1052847.5, 10200.584, 0.03392965, 0.368336, -1028177.75, -1320.1802, 0.0, 9.9679985, 9.965936 
9.815681e+2, 2.0518732e+2, -935898.8, -967494.6, 13026.099, 0.046985935, 0.36753353, -931221.06, -2026.1837, 0.0, 9.968311, 9.96489 
9.806587e+2, 2.1515116e+2, -832625.4, -873367.56, 13628.372, 0.014720243, 0.3110275, -828487.0, 3061.982, 0.0, 9.968875, 9.96421 
9.797488e+2, 2.2511557e+2, -728613.7, -764004.9, 16041.547, -0.01639782, 0.2835296, -722424.8, 11472.487, 0.00000000000000014322901, 9.968949, 9.964918 
9.788394e+2, 2.3508005e+2, -637705.25, -678178.0, 14639.764, 0.008769804, 0.29893246, -632964.94, 3279.9434, 0.0000000000000041040377, 9.968796, 9.964143 
9.779281e+2, 2.4504435e+2, -541553.06, -584032.7, 8844.158, 0.0049576983, 0.31346956, -539785.3, -1190.939, 0.000000000000085429954, 9.968721, 9.963685 
9.770154e+2, 2.5500724e+2, -447603.9, -501332.38, 14579.966, -0.06762226, 0.32544675, -443902.44, -2944.563, 0.000000000001292103, 9.969021, 9.962411 
9.7610074e+2, 2.6496944e+2, -346168.16, -407791.97, 5309.8745, -0.11567973, 0.324103, -345713.97, -2385.8074, 0.0000000000142405965, 9.969469, 9.96152 
9.751859e+2, 2.7493036e+2, -255290.84, -326436.44, 10577.31, -0.11837717, 0.34435868, -253751.61, -8040.7285, 0.00000000011554544, 9.969608, 9.960327 
9.742681e+2, 2.8489125e+2, -158268.47, -222936.67, -3128.866, -0.16692194, 0.3796859, -158117.44, -10023.445, 0.0000000007077114, 9.96918, 9.960548 
9.733505e+2, 2.9485103e+2, -89995.414, -150548.7, 9884.586, -0.21059994, 0.36081147, -88422.73, -37934.703, 0.000000003414842, 9.967798, 9.95951 
9.724326e+2, 3.048088e+2, 49037.47, -28149.955, -6368.347, -0.16395715, 0.31467634, 49559.36, 49559.36, 0.000000013690085, 9.970108, 9.960051 
9.969875e+2, 1.4629486e+2, -1497156.9, -1490636.4, 3599.616, 0.17180093, 0.30051634, -1489040.1, 17304.002, 0.0, 9.968677, 9.969365 
9.9607784e+2, 1.562642e+2, -1411006.3, -1409027.5, -2704.5164, 0.15143229, 0.3433311, -1407137.1, 1507.273, 0.0, 9.967997, 9.968451 
9.951691e+2, 1.6623266e+2, -1313917.1, -1329187.9, 6957.194, -0.04606019, 0.4250936, -1311222.9, -270.02542, 0.0, 9.968734, 9.966927 
9.9426216e+2, 1.7619792e+2, -1206073.0, -1224109.1, 882.3094, 0.077990696, 0.2587654, -1206029.9, 7262.5317, 0.0, 9.969159, 9.967026 
9.9335366e+2, 1.8616384e+2, -1121116.0, -1144604.1, 2692.6555, 0.09535587, 0.18893208, -1120811.3, -5185.0957, 0.0, 9.968702, 9.9661045 
9.924445e+2, 1.9612989e+2, -1035489.1, -1056990.3, -172.17377, 0.049215045, 0.22545287, -1035487.75, -17528.52, 0.0, 9.968031, 9.965763 
9.9153674e+2, 2.060971e+2, -921296.75, -941962.6, 9380.704, 0.046930887, 0.2995239, -917673.8, 2606.587, 0.0, 9.968805, 9.9665785 
9.90629e+2, 2.1606363e+2, -807701.75, -845198.56, 10981.395, 0.069125116, 0.35622042, -804722.44, 17885.498, 0.0, 9.970163, 9.965622 
9.8971945e+2, 2.2602874e+2, -710091.9, -757212.3, 8381.539, 0.04324791, 0.34208217, -708645.44, 16304.472, 0.000000000000000010837507, 9.970463, 9.964691 
9.8880905e+2, 2.3599255e+2, -620085.6, -669229.0, 6629.775, -0.005103106, 0.3023644, -619206.94, 8097.9116, 0.00000000000000031058006, 9.970142, 9.964181 
9.8789686e+2, 2.4595708e+2, -525181.9, -565285.5, -622.1069, -0.04028316, 0.28342113, -525172.25, 4479.943, 0.0000000000000064639003, 9.969514, 9.964695 
9.869846e+2, 2.5592095e+2, -438640.66, -484063.63, 5421.0034, -0.05981534, 0.27768338, -438002.66, -5997.0645, 0.000000000000097753626, 9.969221, 9.963645 
9.8607117e+2, 2.6588428e+2, -333293.22, -387134.72, 88.22313, -0.0524004, 0.26388782, -333293.06, 1071.9316, 0.0000000000010773522, 9.969919, 9.962855 
9.8515636e+2, 2.758457e+2, -241153.11, -303563.94, 8686.59, -0.051653333, 0.19981094, -239966.64, -3223.6477, 0.000000000008741193, 9.969985, 9.961688 
9.842378e+2, 2.8580707e+2, -147125.94, -205400.14, -6354.7646, -0.111642614, 0.17414083, -146441.0, -7319.803, 0.00000000005353408, 9.969299, 9.961633 
9.8331946e+2, 2.9576924e+2, -80068.49, -139660.02, 2878.5713, -0.08645539, 0.29554787, -79929.766, -38438.34, 0.00000000025827646, 9.968034, 9.960099 
9.824011e+2, 3.0572638e+2, -26503.47, -83942.98, 10492.015, -0.15110599, 0.2678823, -24646.982, -24646.982, 0.0000000010352618, 9.965992, 9.958192 
1.0069551e+3, 1.4720644e+2, -1502202.3, -1497997.1, -5281.804, 0.15138483, 0.4300951, -1494414.8, 2997.7278, 0.0, 9.967727, 9.968351 
1.0060457e+3, 1.5717249e+2, -1409481.5, -1417758.0, 3778.7358, 0.14737898, 0.3085587, -1408015.8, -8271.539, 0.0, 9.9686, 9.967497 
1.0051391e+3, 1.6714042e+2, -1304170.3, -1315504.1, 2365.3403, 0.09567291, 0.3447005, -1303696.4, -1638.393, 0.0, 9.9691725, 9.967744 
1.00423135e+3, 1.771089e+2, -1197459.6, -1206507.6, -2301.4946, 0.11036237, 0.386283, -1196907.9, 7458.4614, 0.0, 9.969346, 9.968152 
1.0033219e+3, 1.8707678e+2, -1103707.1, -1124742.9, 6773.615, 0.060699314, 0.4085451, -1101714.8, 4966.16, 0.0, 9.969619, 9.966747 
1.0024129e+3, 1.9704306e+2, -1003877.7, -1033388.6, 13410.302, 0.05472308, 0.42178422, -998694.25, 10317.079, 0.0, 9.970133, 9.965882 
1.0015053e+3, 2.070084e+2, -910866.25, -936657.1, 8816.84, 0.015397713, 0.33767313, -908140.25, 3210.3298, 0.0, 9.969922, 9.966337 
1.0005978e+3, 2.1697447e+2, -817873.56, -840265.25, -7326.296, -0.02523434, 0.3112207, -815689.5, -2006.7338, 0.0, 9.969432, 9.966662 
9.9968874e+2, 2.2694135e+2, -724022.4, -750829.3, -188.46875, -0.017256038, 0.34847248, -724021.06, -8013.006, 0.0000000000000000006820092, 9.969261, 9.965696 
9.9877846e+2, 2.3690651e+2, -631311.8, -664474.9, 15427.5205, -0.033302058, 0.38665122, -625244.8, -6894.3115, 0.00000000000000001954189, 9.969219, 9.964507 
9.978664e+2, 2.4687158e+2, -516750.3, -549886.6, 11346.966, -0.017704474, 0.4023117, -513237.2, 7455.2715, 0.00000000000000040645458, 9.9698925, 9.965098 
9.969538e+2, 2.568364e+2, -424023.63, -465470.1, 13876.633, -0.045052506, 0.4241497, -419806.66, 3229.5317, 0.0000000000000061445223, 9.969997, 9.964236 
9.960404e+2, 2.6679933e+2, -346516.8, -369326.13, -9074.469, -0.093069695, 0.25061727, -343347.1, -17947.271, 0.00000000000006771698, 9.968079, 9.965186 
9.9512506e+2, 2.7676612e+2, -240353.63, -282073.38, 24495.115, -0.16768141, 0.49080846, -229039.83, -1313.9069, 0.0000000000005493915, 9.969075, 9.963217 
9.942072e+2, 2.867275e+2, -115075.086, -189791.97, 279.26465, -0.09154571, 0.43860292, -115074.04, 15029.885, 0.0000000000033642223, 9.971513, 9.961366 
9.9328744e+2, 2.966865e+2, 5757.918, -102386.38, -22041.693, -0.13539581, 0.2806408, 10077.836, 42582.1, 0.000000000016230134, 9.974212, 9.959959 
9.9236566e+2, 3.0664644e+2, 32550.217, -29691.691, -10026.755, -0.19689924, 0.3719978, 34125.586, 34125.586, 0.00000000006506301, 9.968664, 9.96058 
