coord_x,coord_y,stress_xx,stress_yy,tau_xy,velocity_x,velocity_y,stress_1,eps,damage,lx,ly
5.001055e+0, 1.2493607e+2, -1697229.3, -1726893.5, -571.5533, 0.00049857533, -0.061078057, -1697218.3, 18402.34, 0.0, 10.0021, 9.998169 
5.001164e+0, 1.3493425e+2, -1596187.9, -1627563.0, -589.25385, 0.00072429364, -0.059679244, -1596176.9, 21461.527, 0.0, 10.002313, 9.998156 
5.0012624e+0, 1.4493173e+2, -1504396.6, -1546862.5, -667.97644, 0.0007483797, -0.06259147, -1504386.1, 15276.75, 0.0, 10.00251, 9.996882 
5.001352e+0, 1.5492857e+2, -1403762.3, -1447642.5, -687.91125, 0.0005803236, -0.06906562, -1403751.5, 17942.191, 0.0, 10.002692, 9.996877 
5.001434e+0, 1.6492477e+2, -1312710.6, -1367769.8, -790.2934, 0.0005031138, -0.06947076, -1312699.3, 11031.473, 0.0, 10.002858, 9.995563 
5.001509e+0, 1.749204e+2, -1212521.0, -1268742.1, -855.6863, 0.0005197454, -0.06455503, -1212507.9, 13265.964, 0.0, 10.003008, 9.995559 
5.001572e+0, 1.8491513e+2, -1124992.0, -1195264.4, -978.53564, 0.0004367573, -0.059493873, -1124978.4, 2847.2874, 0.0, 10.003135, 9.993827 
5.001621e+0, 1.9490899e+2, -1025498.5, -1096599.0, -981.0656, 0.00025087318, -0.05514515, -1025485.0, 4401.167, 0.0, 10.003238, 9.99382 
5.0016606e+0, 2.049022e+2, -935075.3, -1016164.9, -1047.992, 0.00008606355, -0.055280466, -935061.8, -3108.9517, 0.0, 10.00332, 9.99258 
5.001689e+0, 2.1489473e+2, -836160.7, -917717.2, -1019.4639, -0.00005617484, -0.060868625, -836147.94, -2122.2634, 0.0, 10.00338, 9.992579 
5.001728e+0, 2.2488657e+2, -746954.44, -839783.9, -948.93823, -0.00019716339, -0.06483381, -746944.75, -10839.445, 0.0, 10.00346, 9.991169 
5.001777e+0, 2.348777e+2, -647458.25, -741064.25, -985.60205, -0.00033831943, -0.068110414, -647447.9, -9256.126, 0.0, 10.00356, 9.991166 
5.001828e+0, 2.4486798e+2, -559873.94, -667113.94, -969.9164, -0.00042635272, -0.07236578, -559865.2, -19578.512, 0.0, 10.003665, 9.98947 
5.001883e+0, 2.548574e+2, -460229.38, -568329.3, -936.63763, -0.00045783393, -0.07850594, -460221.25, -17831.125, 0.0, 10.003776, 9.989466 
5.00195e+0, 2.648461e+2, -370797.8, -491311.44, -801.1038, -0.0005191554, -0.07919012, -370792.5, -26291.734, 0.0, 10.003911, 9.987961 
5.00203e+0, 2.748341e+2, -270317.47, -392020.0, -758.46265, -0.0006122311, -0.07523151, -270312.75, -23694.225, 0.0, 10.004073, 9.987966 
5.002117e+0, 2.848214e+2, -180150.63, -314380.1, -682.7986, -0.0005892667, -0.071090855, -180147.14, -31403.605, 0.0, 10.004246, 9.986484 
5.00221e+0, 2.9480788e+2, -79333.445, -214876.3, -652.77014, -0.00044163, -0.06800723, -79330.3, -28454.53, 0.0, 10.004429, 9.986493 
5.0023097e+0, 3.0479705e+2, 10128.96, -86520.445, -546.7101, -0.0005826641, -0.06766945, 10132.053, 10132.053, 0.0, 10.004631, 9.991831 
5.002416e+0, 3.1478888e+2, 13426.117, -84800.41, -509.12338, -0.0010340135, -0.07151561, 13428.756, 13428.756, 0.0, 10.004852, 9.991843 
1.5003164e+1, 1.2493583e+2, -1697261.5, -1726959.3, 234.65607, 0.0014946016, -0.058828823, -1697259.8, 18363.242, 0.0, 10.0021, 9.998164 
1.5003492e+1, 1.34934e+2, -1596220.0, -1627628.5, 215.05312, 0.0021729618, -0.059923213, -1596218.5, 21422.5, 0.0, 10.002313, 9.998151 
1.5003788e+1, 1.4493145e+2, -1504435.3, -1546942.0, 16.271095, 0.0022451524, -0.06358225, -1504435.3, 15230.276, 0.0, 10.00251, 9.996878 
1.5004057e+1, 1.5492828e+2, -1403800.6, -1447721.4, -3.043917, 0.0017409888, -0.068993516, -1403800.6, 17895.727, 0.0, 10.002692, 9.996872 
1.5004303e+1, 1.6492449e+2, -1312834.0, -1368023.8, -224.97858, 0.0015093654, -0.06923054, -1312833.1, 10900.393, 0.0, 10.002858, 9.995545 
1.5004528e+1, 1.749201e+2, -1212645.1, -1268997.6, -290.0479, 0.0015592665, -0.06506637, -1212643.6, 13133.242, 0.0, 10.003008, 9.995542 
1.5004715e+1, 1.8491483e+2, -1124997.4, -1195275.0, -589.4327, 0.0013102964, -0.05985486, -1124992.5, 2836.325, 0.0, 10.003135, 9.993826 
1.5004864e+1, 1.9490871e+2, -1025503.06, -1096608.0, -592.62866, 0.0007526455, -0.0544241, -1025498.1, 4391.015, 0.0, 10.003238, 9.993819 
1.5004982e+1, 2.049019e+2, -935021.06, -1016052.5, -819.66876, 0.00025821675, -0.05469614, -935012.75, -3056.962, 0.0, 10.00332, 9.992588 
1.5005068e+1, 2.1489443e+2, -836106.25, -917604.44, -792.19025, -0.00016850131, -0.0616881, -836098.5, -2069.8237, 0.0, 10.00338, 9.992587 
1.5005185e+1, 2.2488627e+2, -747023.75, -839926.8, -573.30347, -0.0005914692, -0.06556257, -747020.2, -10911.863, 0.0, 10.00346, 9.991159 
1.500533e+1, 2.3487741e+2, -647528.75, -741209.8, -608.4274, -0.0010149349, -0.067185424, -647524.8, -9330.101, 0.0, 10.00356, 9.991156 
1.5005486e+1, 2.4486768e+2, -559813.06, -666987.56, -555.36145, -0.0012790448, -0.071380936, -559810.2, -19520.53, 0.0, 10.003665, 9.989478 
1.500565e+1, 2.548571e+2, -460167.2, -568200.1, -522.2132, -0.0013734874, -0.07913933, -460164.66, -17771.506, 0.0, 10.003776, 9.989474 
1.5005851e+1, 2.648458e+2, -370720.22, -491150.0, -190.18843, -0.0015574319, -0.07995665, -370719.94, -26216.219, 0.0, 10.003911, 9.987972 
1.5006092e+1, 2.7483383e+2, -270239.9, -391858.16, -145.97237, -0.0018366609, -0.074555285, -270239.72, -23618.496, 0.0, 10.004073, 9.987976 
1.5006351e+1, 2.848211e+2, -180094.0, -314261.47, 8.395984, -0.0017678108, -0.07023086, -180094.0, -31347.844, 0.0, 10.004246, 9.986492 
1.5006632e+1, 2.948076e+2, -79277.48, -214759.0, 37.66924, -0.0013249025, -0.06831, -79277.46, -28399.055, 0.0, 10.004429, 9.986501 
1.500693e+1, 3.0479681e+2, 10198.304, -86375.38, 286.82764, -0.0017478596, -0.06786726, 10199.155, 10199.155, 0.0, 10.004631, 9.991841 
1.5007247e+1, 3.1478864e+2, 13495.77, -84654.836, 324.20673, -0.003101902, -0.07023912, 13496.84, 13496.84, 0.0, 10.004852, 9.991853 
2.5005272e+1, 1.249353e+2, -1697561.3, -1727140.6, -1060.0221, 0.0031670125, -0.057193838, -1697523.3, 18104.896, 0.0, 10.002081, 9.998161 
2.5005826e+1, 1.3493344e+2, -1596082.0, -1627596.1, -1071.1147, 0.0037820728, -0.060130958, -1596045.8, 21600.674, 0.0, 10.002324, 9.998148 
2.5006327e+1, 1.449309e+2, -1504093.5, -1546903.0, -1452.0842, 0.0036533694, -0.06435515, -1504044.4, 15626.711, 0.0, 10.002539, 9.996866 
2.5006777e+1, 1.5492772e+2, -1403373.8, -1447641.4, -1516.2748, 0.002837617, -0.06897313, -1403321.9, 18380.033, 0.0, 10.002727, 9.9968605 
2.5007182e+1, 1.649239e+2, -1312613.5, -1368142.3, -1950.7094, 0.002467111, -0.06902931, -1312545.0, 11194.185, 0.0, 10.002883, 9.995525 
2.5007546e+1, 1.7491949e+2, -1212804.3, -1269301.8, -2037.0718, 0.0025570062, -0.0653134, -1212731.0, 13051.873, 0.0, 10.003007, 9.995522 
2.500785e+1, 1.849142e+2, -1125240.6, -1195445.6, -2490.9285, 0.0020854538, -0.060096327, -1125152.4, 2682.4495, 0.0, 10.00312, 9.993821 
2.5008097e+1, 1.9490808e+2, -1025750.5, -1096779.9, -2524.364, 0.001033483, -0.05419101, -1025660.9, 4234.312, 0.0, 10.003223, 9.993814 
2.5008294e+1, 2.049013e+2, -935158.3, -1016040.5, -2920.9583, 0.00027089956, -0.05443575, -935052.94, -3091.1091, 0.0, 10.003307, 9.992596 
2.5008443e+1, 2.1489382e+2, -836182.1, -917562.06, -2899.185, -0.00018773253, -0.06186759, -836078.94, -2044.2472, 0.0, 10.003371, 9.992594 
2.500864e+1, 2.2488566e+2, -747224.94, -840134.1, -2552.1345, -0.00080455496, -0.06565953, -747154.9, -11040.519, 0.0, 10.003451, 9.991149 
2.5008878e+1, 2.3487678e+2, -647806.9, -741456.7, -2586.317, -0.0015934419, -0.06665133, -647735.5, -9534.746, 0.0, 10.003546, 9.991146 
2.5009134e+1, 2.4486707e+2, -559968.8, -666902.25, -2468.5308, -0.0020757401, -0.07087863, -559911.8, -19616.143, 0.0, 10.003648, 9.989492 
2.5009406e+1, 2.5485647e+2, -460343.63, -568121.8, -2391.9785, -0.0022323565, -0.07936897, -460290.56, -17891.426, 0.0, 10.0037565, 9.989489 
2.500974e+1, 2.6484522e+2, -371012.56, -491100.56, -1848.584, -0.0024848452, -0.08016771, -370984.13, -26474.588, 0.0, 10.003882, 9.987988 
2.5010133e+1, 2.7483326e+2, -270781.47, -391928.88, -1758.334, -0.00283948, -0.073948905, -270755.94, -24129.127, 0.0, 10.004028, 9.987993 
2.5010562e+1, 2.8482056e+2, -180737.75, -314403.53, -1434.4823, -0.002823004, -0.06953709, -180722.34, -31970.773, 0.0, 10.004194, 9.986507 
2.5011027e+1, 2.948071e+2, -79837.21, -214861.2, -1352.9302, -0.0024070994, -0.06831036, -79823.66, -28939.895, 0.0, 10.004383, 9.986516 
2.5011528e+1, 3.047963e+2, 9797.774, -86363.59, -888.26355, -0.0031432947, -0.067683436, 9805.979, 9805.979, 0.0, 10.004595, 9.991859 
2.5012067e+1, 3.1478813e+2, 13288.231, -84549.79, -788.0693, -0.005117722, -0.06892224, 13294.579, 13294.579, 0.0, 10.004829, 9.991871 
3.5007372e+1, 1.2493449e+2, -1697574.9, -1727168.1, -142.93898, 0.005512387, -0.05616623, -1697574.3, 18061.97, 0.0, 10.002081, 9.998159 
3.5008168e+1, 1.349326e+2, -1596094.9, -1627622.1, -155.49387, 0.005551242, -0.060301796, -1596094.1, 21560.389, 0.0, 10.002324, 9.998146 
3.500888e+1, 1.4493005e+2, -1504217.8, -1547157.9, -746.1679, 0.0049730903, -0.06490999, -1504204.8, 15474.618, 0.0, 10.002539, 9.996849 
3.5009515e+1, 1.5492687e+2, -1403498.3, -1447897.0, -810.4369, 0.0038702213, -0.06900392, -1403483.5, 18226.852, 0.0, 10.002727, 9.996843 
3.5010076e+1, 1.6492304e+2, -1312777.8, -1368479.9, -1483.1051, 0.003376334, -0.06886667, -1312738.3, 11009.528, 0.0, 10.002883, 9.995502 
3.5010564e+1, 1.7491858e+2, -1212968.9, -1269640.1, -1569.9558, 0.0035129068, -0.06529651, -1212925.5, 12866.212, 0.0, 10.003007, 9.995499 
3.501098e+1, 1.8491328e+2, -1125302.5, -1195572.4, -2104.8835, 0.0027623705, -0.060218327, -1125239.5, 2604.3281, 0.0, 10.00312, 9.993813 
3.501132e+1, 1.9490714e+2, -1025812.2, -1096906.4, -2138.139, 0.0010938769, -0.05444449, -1025747.94, 4156.368, 0.0, 10.003223, 9.993806 
3.50116e+1, 2.0490035e+2, -935113.75, -1015947.9, -2678.1353, 0.00012434935, -0.054498576, -935025.1, -3054.1929, 0.0, 10.003307, 9.992601 
3.501182e+1, 2.148929e+2, -836136.94, -917468.1, -2657.5022, -0.000114366274, -0.061409023, -836050.2, -2006.456, 0.0, 10.003371, 9.9926 
3.501209e+1, 2.2488472e+2, -747295.1, -840278.44, -2197.0415, -0.0008370831, -0.06512645, -747243.25, -11119.844, 0.0, 10.003451, 9.991139 
3.501242e+1, 2.3487586e+2, -647878.9, -741604.56, -2229.8782, -0.0020742055, -0.066507004, -647825.9, -9615.945, 0.0, 10.003546, 9.991136 
3.5012776e+1, 2.4486613e+2, -559828.25, -666609.94, -2061.2024, -0.002816727, -0.070857726, -559788.5, -19483.705, 0.0, 10.003648, 9.989512 
3.5013154e+1, 2.5485557e+2, -460201.2, -567824.9, -1984.7767, -0.0030347852, -0.079196475, -460164.63, -17756.563, 0.0, 10.0037565, 9.989509 
3.5013616e+1, 2.6484433e+2, -370852.06, -490765.4, -1303.0764, -0.0033019374, -0.079825394, -370837.9, -26319.697, 0.0, 10.003882, 9.988011 
3.5014153e+1, 2.748324e+2, -270621.53, -391594.1, -1212.009, -0.0036216022, -0.07341258, -270609.38, -23974.117, 0.0, 10.004027, 9.988016 
3.501475e+1, 2.8481972e+2, -180585.31, -314083.7, -724.4211, -0.003755435, -0.06900959, -180581.39, -31821.576, 0.0, 10.004194, 9.986529 
3.5015395e+1, 2.9480627e+2, -79685.59, -214542.61, -642.13116, -0.0036876886, -0.06801013, -79682.54, -28790.725, 0.0, 10.004383, 9.986538 
3.5016105e+1, 3.047955e+2, 9981.863, -85977.1, -7.0930095, -0.0047683185, -0.067120224, 9981.864, 9981.864, 0.0, 10.004595, 9.991886 
3.5016876e+1, 3.147874e+2, 13472.123, -84163.31, 93.627014, -0.007082331, -0.06756587, 13472.213, 13472.213, 0.0, 10.004828, 9.991898 
4.50095e+1, 1.24933355e+2, -1696936.9, -1727013.8, -1360.3486, 0.007234301, -0.057449635, -1696875.5, 18771.73, 0.0, 10.0021305, 9.998145 
4.501053e+1, 1.3493147e+2, -1595414.1, -1627446.1, -1465.3943, 0.006964914, -0.06031214, -1595347.3, 22318.375, 0.0, 10.002377, 9.998132 
4.5011455e+1, 1.449289e+2, -1503693.5, -1547179.3, -2370.3188, 0.006155977, -0.064601794, -1503564.8, 16125.834, 0.0, 10.002586, 9.996824 
4.5012268e+1, 1.5492569e+2, -1403177.9, -1448018.1, -2489.7883, 0.0049403617, -0.06925427, -1403040.0, 18681.764, 0.0, 10.002761, 9.996819 
4.5012978e+1, 1.6492185e+2, -1312571.4, -1368569.4, -3397.1924, 0.0042623132, -0.069039546, -1312366.0, 11393.443, 0.0, 10.002905, 9.995485 
4.501358e+1, 1.7491737e+2, -1212897.0, -1269794.3, -3438.157, 0.004142003, -0.06473467, -1212690.0, 13113.446, 0.0, 10.00302, 9.9954815 
4.5014104e+1, 1.8491207e+2, -1125295.0, -1195646.6, -4024.7837, 0.0031383755, -0.05982271, -1125065.5, 2790.254, 0.0, 10.003124, 9.993806 
4.5014542e+1, 1.949059e+2, -1025939.4, -1097045.8, -4045.3826, 0.001220015, -0.05514723, -1025709.94, 4206.462, 0.0, 10.003218, 9.993799 
4.5014903e+1, 2.048991e+2, -935321.44, -1016176.06, -4765.863, 0.00012063156, -0.054935064, -935041.5, -3058.348, 0.0, 10.003299, 9.99259 
4.5015186e+1, 2.1489166e+2, -836305.0, -917677.7, -4879.9395, -0.00012193685, -0.060162902, -836013.44, -1957.5237, 0.0, 10.0033655, 9.992589 
4.5015535e+1, 2.2488348e+2, -747395.7, -840220.75, -4333.803, -0.0009893429, -0.063863896, -747193.75, -11058.202, 0.0, 10.00344, 9.991149 
4.501595e+1, 2.348746e+2, -648184.9, -741644.7, -4217.6143, -0.0025195784, -0.06696955, -647994.94, -9772.797, 0.0, 10.00352, 9.991145 
4.5016396e+1, 2.448649e+2, -560319.56, -666728.25, -3954.336, -0.003360589, -0.07144687, -560172.8, -19855.861, 0.0, 10.003609, 9.989523 
4.501688e+1, 2.5485435e+2, -460870.22, -568029.5, -3950.6875, -0.0034716548, -0.07823062, -460724.78, -18304.803, 0.0, 10.003705, 9.989519 
4.501746e+1, 2.6484314e+2, -371543.72, -490740.2, -3133.166, -0.003815334, -0.078602105, -371461.4, -26931.494, 0.0, 10.003819, 9.988044 
4.5018137e+1, 2.7483124e+2, -271481.1, -391647.06, -2970.7908, -0.0044064517, -0.07330507, -271407.7, -24760.951, 0.0, 10.003953, 9.988049 
4.501889e+1, 2.8481856e+2, -181593.75, -314302.1, -2255.2847, -0.004739168, -0.06905747, -181555.44, -32784.42, 0.0, 10.004114, 9.986553 
4.501973e+1, 2.9480517e+2, -80698.27, -214764.97, -2157.4348, -0.004792283, -0.067185424, -80663.56, -29760.842, 0.0, 10.004302, 9.986561 
4.502065e+1, 3.047944e+2, 9026.384, -86120.45, -1329.3389, -0.00614265, -0.06606071, 9044.953, 9044.953, 0.0, 10.004516, 9.991914 
4.5021647e+1, 3.1478634e+2, 12572.733, -84280.18, -1214.8881, -0.008887346, -0.06696158, 12587.97, 12587.97, 0.0, 10.004753, 9.991926 
5.501164e+1, 1.24931924e+2, -1697123.5, -1727397.5, -433.053, 0.008331459, -0.061032776, -1697117.4, 18543.8, 0.0, 10.0021305, 9.998119 
5.501292e+1, 1.3493006e+2, -1595599.8, -1627828.3, -539.5268, 0.008023266, -0.06016254, -1595590.8, 22088.727, 0.0, 10.002377, 9.998106 
5.501405e+1, 1.4492746e+2, -1503921.9, -1547649.1, -1716.8854, 0.0072019314, -0.06343296, -1503854.5, 15850.14, 0.0, 10.002586, 9.996792 
5.501504e+1, 1.549242e+2, -1403406.4, -1448488.3, -1836.9287, 0.006047216, -0.06972236, -1403331.6, 18404.777, 0.0, 10.002761, 9.996786 
5.5015886e+1, 1.6492032e+2, -1312649.3, -1368729.9, -2965.141, 0.0051247124, -0.0695463, -1312493.0, 11281.367, 0.0, 10.002905, 9.995475 
5.501661e+1, 1.7491587e+2, -1212973.1, -1269951.3, -3006.7573, 0.0044455095, -0.06363061, -1212814.9, 13003.421, 0.0, 10.00302, 9.995471 
5.5017227e+1, 1.8491055e+2, -1125332.8, -1195724.4, -3674.8687, 0.0032144417, -0.058911473, -1125141.5, 2729.2214, 0.0, 10.003124, 9.9938 
5.5017763e+1, 1.9490437e+2, -1025977.25, -1097122.9, -3695.2236, 0.0014110507, -0.05629628, -1025785.8, 4145.693, 0.0, 10.003218, 9.9937935 
5.5018204e+1, 2.0489755e+2, -935528.2, -1016601.56, -4514.311, 0.0002586263, -0.0557437, -935277.56, -3279.181, 0.0, 10.003299, 9.992561 
5.501855e+1, 2.1489011e+2, -836512.5, -918105.5, -4629.037, -0.00021053018, -0.058134176, -836250.7, -2179.4805, 0.0, 10.0033655, 9.992559 
5.5018973e+1, 2.2488193e+2, -747192.94, -839800.75, -4032.6355, -0.0012612871, -0.061875466, -747017.7, -10866.785, 0.0, 10.00344, 9.991178 
5.501946e+1, 2.3487304e+2, -647979.4, -741217.4, -3916.0313, -0.0029302, -0.06803514, -647815.2, -9577.712, 0.0, 10.00352, 9.991175 
5.502e+1, 2.4486336e+2, -560311.94, -666709.06, -3594.7434, -0.0037089507, -0.07264349, -560190.6, -19858.502, 0.0, 10.003609, 9.989524 
5.502058e+1, 2.5485283e+2, -460866.38, -568016.94, -3591.0562, -0.0035457502, -0.07647738, -460746.16, -18311.277, 0.0, 10.003705, 9.98952 
5.502128e+1, 2.6484165e+2, -371257.16, -490140.5, -2633.4783, -0.004027369, -0.07650344, -371198.84, -26654.242, 0.0, 10.003819, 9.988085 
5.502208e+1, 2.7482978e+2, -271191.84, -391040.56, -2470.1785, -0.0051944917, -0.073623754, -271140.94, -24479.736, 0.0, 10.003953, 9.9880905 
5.5022997e+1, 2.8481713e+2, -181415.84, -313925.13, -1548.6827, -0.0057746144, -0.069678105, -181397.75, -32612.572, 0.0, 10.004113, 9.986579 
5.502402e+1, 2.9480377e+2, -80523.79, -214393.4, -1449.0338, -0.005722999, -0.06584154, -80508.11, -29591.63, 0.0, 10.004302, 9.986587 
5.502515e+1, 3.0479306e+2, 9231.133, -85685.125, -435.7533, -0.007269266, -0.06450935, 9233.133, 9233.133, 0.0, 10.004515, 9.991944 
5.502639e+1, 3.1478497e+2, 12776.888, -83846.34, -320.169, -0.010536105, -0.06710384, 12777.949, 12777.949, 0.0, 10.004753, 9.991956 
6.501385e+1, 1.2493024e+2, -1695377.8, -1727056.9, -1550.5328, 0.009109772, -0.06300743, -1695302.0, 20375.559, 0.0, 10.002272, 9.998074 
6.5015364e+1, 1.3492835e+2, -1594159.4, -1627636.6, -1804.4917, 0.008789193, -0.060051527, -1594062.4, 23633.848, 0.0, 10.002497, 9.99806 
6.501669e+1, 1.4492571e+2, -1502721.5, -1547430.3, -3337.2034, 0.00791116, -0.06280369, -1502473.8, 17248.012, 0.0, 10.002685, 9.996759 
6.5017843e+1, 1.5492241e+2, -1402564.4, -1448442.5, -3461.4304, 0.006708278, -0.07003956, -1402304.8, 19449.225, 0.0, 10.002833, 9.996754 
6.5018827e+1, 1.6491851e+2, -1311968.9, -1368653.0, -4822.483, 0.0056266473, -0.069875464, -1311561.5, 12230.642, 0.0, 10.002962, 9.995452 
6.5019655e+1, 1.7491403e+2, -1212391.6, -1269921.8, -4952.6855, 0.004673325, -0.06300337, -1211968.4, 13867.854, 0.0, 10.003071, 9.995448 
6.502037e+1, 1.849087e+2, -1124863.0, -1195537.5, -5779.754, 0.0034094127, -0.05801091, -1124393.4, 3495.329, 0.0, 10.003158, 9.993796 
6.502099e+1, 1.9490252e+2, -1025904.94, -1097128.8, -5787.8535, 0.0018233204, -0.055831786, -1025437.6, 4512.019, 0.0, 10.003224, 9.993791 
6.5021497e+1, 2.0489569e+2, -935778.7, -1017030.06, -6629.6997, 0.0005660948, -0.05539844, -935241.3, -3224.624, 0.0, 10.003295, 9.992534 
6.502192e+1, 2.1488822e+2, -836666.5, -918490.06, -6732.7734, -0.00034283946, -0.05757788, -836116.2, -2026.4121, 0.0, 10.003368, 9.992532 
6.50224e+1, 2.2488005e+2, -747111.4, -839468.44, -6154.0054, -0.0015601071, -0.061267924, -746703.1, -10533.676, 0.0, 10.003432, 9.991203 
6.5022963e+1, 2.3487118e+2, -648294.1, -741071.06, -6056.8125, -0.0031088283, -0.06754812, -647900.4, -9644.618, 0.0, 10.003486, 9.991201 
6.5023583e+1, 2.4486151e+2, -561193.2, -667147.5, -5688.711, -0.003766192, -0.072049975, -560888.6, -20538.363, 0.0, 10.003549, 9.989523 
6.5024245e+1, 2.5485098e+2, -462090.3, -568626.44, -5703.363, -0.0034802496, -0.0755345, -461785.84, -19332.8, 0.0, 10.003622, 9.989519 
6.502505e+1, 2.6483983e+2, -372388.4, -490162.66, -4570.424, -0.0041875644, -0.07562037, -372211.3, -27648.768, 0.0, 10.003719, 9.9881315 
6.5025973e+1, 2.74828e+2, -272469.97, -391126.0, -4361.7285, -0.00595188, -0.07323395, -272309.84, -25631.105, 0.0, 10.003842, 9.988138 
6.502704e+1, 2.848154e+2, -183008.9, -314339.53, -3204.7864, -0.006678279, -0.069226846, -182930.75, -34128.44, 0.0, 10.003989, 9.98661 
6.5028244e+1, 2.9480207e+2, -82376.83, -214936.95, -3060.7947, -0.0062884702, -0.06473323, -82306.195, -31372.95, 0.0, 10.00416, 9.986618 
6.5029585e+1, 3.047914e+2, 7367.974, -86239.555, -1769.9088, -0.00795451, -0.06358565, 7401.4272, 7401.4272, 0.0, 10.004372, 9.991975 
6.503107e+1, 3.1478333e+2, 11177.611, -84275.96, -1647.1957, -0.011840217, -0.067275934, 11206.027, 11206.027, 0.0, 10.004628, 9.991986 
7.501613e+1, 1.249283e+2, -1695842.4, -1728011.3, -702.5037, 0.0095669385, -0.063379675, -1695827.0, 19869.521, 0.0, 10.002272, 9.998009 
7.501787e+1, 1.3492635e+2, -1594622.6, -1628590.4, -957.66943, 0.009262627, -0.059978098, -1594595.8, 23120.076, 0.0, 10.002497, 9.997995 
7.501938e+1, 1.4492367e+2, -1502957.1, -1547918.0, -2776.5415, 0.008284683, -0.06271089, -1502786.3, 16955.52, 0.0, 10.002685, 9.996726 
7.5020677e+1, 1.5492034e+2, -1402797.1, -1448925.1, -2901.5378, 0.0069255056, -0.07020686, -1402615.4, 19158.986, 0.0, 10.002833, 9.99672 
7.502179e+1, 1.649164e+2, -1312211.6, -1369156.3, -4417.1274, 0.0057696067, -0.07002783, -1311871.1, 11941.763, 0.0, 10.002962, 9.995418 
7.502272e+1, 1.749119e+2, -1212634.6, -1270424.0, -4547.582, 0.0048251976, -0.06284928, -1212279.0, 13578.316, 0.0, 10.003071, 9.995414 
7.502353e+1, 1.8490656e+2, -1124878.6, -1195570.6, -5532.593, 0.003721738, -0.057121847, -1124448.3, 3461.647, 0.0, 10.003158, 9.993794 
7.502422e+1, 1.949004e+2, -1025920.25, -1097160.3, -5541.618, 0.0024544613, -0.05376713, -1025491.75, 4479.006, 0.0, 10.003224, 9.993788 
7.50248e+1, 2.0489353e+2, -935961.6, -1017406.9, -6355.206, 0.001041248, -0.053907216, -935468.75, -3430.732, 0.0, 10.003294, 9.992508 
7.5025284e+1, 2.14886e+2, -836852.4, -918873.06, -6457.181, -0.00051914173, -0.058480814, -836347.1, -2235.5784, 0.0, 10.003368, 9.992506 
7.502583e+1, 2.2487782e+2, -746945.6, -839124.1, -5955.8105, -0.0018865139, -0.06203157, -746562.44, -10371.183, 0.0, 10.003432, 9.991227 
7.502645e+1, 2.3486902e+2, -648125.94, -740719.7, -5860.46, -0.0030581404, -0.06552372, -647756.5, -9479.456, 0.0, 10.003486, 9.991225 
7.502713e+1, 2.4485935e+2, -561221.06, -667199.75, -5419.27, -0.003535294, -0.06968122, -560944.6, -20573.209, 0.0, 10.003549, 9.98952 
7.502787e+1, 2.548488e+2, -462123.16, -568687.5, -5432.9863, -0.003276906, -0.07539385, -461846.88, -19372.438, 0.0, 10.003621, 9.989515 
7.5028765e+1, 2.6483768e+2, -372024.34, -489398.56, -4112.3174, -0.0042970455, -0.07594311, -371880.44, -27296.68, 0.0, 10.003719, 9.988184 
7.502981e+1, 2.748259e+2, -272102.5, -390351.25, -3902.4526, -0.0066797817, -0.07214411, -271973.84, -25274.563, 0.0, 10.003842, 9.988191 
7.503102e+1, 2.8481334e+2, -182755.98, -313798.84, -2567.2544, -0.007452751, -0.0677147, -182705.7, -33883.324, 0.0, 10.003988, 9.986648 
7.50324e+1, 2.9480004e+2, -82129.08, -214403.64, -2421.255, -0.006493891, -0.063858375, -82084.77, -31131.777, 0.0, 10.004159, 9.986655 
7.5033957e+1, 3.047894e+2, 7574.8438, -85788.81, -811.6449, -0.00820499, -0.06328376, 7581.899, 7581.899, 0.0, 10.004371, 9.992006 
7.5035685e+1, 3.1478137e+2, 11381.689, -83830.164, -684.0786, -0.0128068235, -0.06747864, 11386.604, 11386.604, 0.0, 10.004627, 9.992018 
8.5018486e+1, 1.24926075e+2, -1693850.4, -1727613.8, -2154.7673, 0.0106321955, -0.061611395, -1693713.4, 22004.992, 0.0, 10.002432, 9.997957 
8.502045e+1, 1.3492405e+2, -1592529.1, -1628143.5, -2307.2048, 0.009742878, -0.060056947, -1592380.3, 25358.014, 0.0, 10.002665, 9.997945 
8.5022146e+1, 1.4492135e+2, -1500748.6, -1547198.8, -4387.1685, 0.008353677, -0.06317991, -1500337.9, 19426.85, 0.0, 10.00285, 9.996695 
8.502359e+1, 1.5491797e+2, -1400739.3, -1448277.4, -4502.455, 0.006830205, -0.06939023, -1400316.5, 21480.893, 0.0, 10.002989, 9.996689 
8.5024816e+1, 1.6491401e+2, -1310616.8, -1368848.3, -6256.9556, 0.0058211735, -0.069054656, -1309952.0, 13884.27, 0.0, 10.003091, 9.995376 
8.502584e+1, 1.7490946e+2, -1211677.5, -1270428.6, -6443.998, 0.005344769, -0.06287855, -1210979.0, 14902.3125, 0.0, 10.003156, 9.995372 
8.5026723e+1, 1.8490408e+2, -1124232.9, -1195463.1, -7634.4395, 0.004337811, -0.056702018, -1123423.8, 4510.439, 0.0, 10.003211, 9.993775 
8.5027456e+1, 1.9489792e+2, -1025591.2, -1097207.4, -7766.003, 0.0027821541, -0.051393457, -1024758.7, 5236.3633, 0.0, 10.003256, 9.99377 
8.5028106e+1, 2.0489106e+2, -935696.6, -1017238.94, -8479.858, 0.0011426475, -0.0519282, -934824.1, -2761.7236, 0.0, 10.003311, 9.992512 
8.5028654e+1, 2.148835e+2, -836706.5, -918761.94, -8358.439, -0.000580758, -0.059350573, -835863.75, -1727.645, 0.0, 10.003377, 9.99251 
8.5029256e+1, 2.2487532e+2, -747235.1, -839443.4, -8014.4253, -0.0018903699, -0.06270777, -746543.75, -10327.862, 0.0, 10.003421, 9.991211 
8.502991e+1, 2.3486653e+2, -648899.1, -741276.5, -8222.086, -0.0027695626, -0.062813334, -648173.06, -9871.464, 0.0, 10.003441, 9.991209 
8.5030645e+1, 2.4485688e+2, -562113.7, -667351.8, -7737.3413, -0.003243544, -0.06682549, -561547.9, -21151.941, 0.0, 10.003475, 9.989545 
8.503145e+1, 2.5484633e+2, -463349.94, -568997.2, -7530.756, -0.0032878537, -0.07581768, -462815.8, -20316.902, 0.0, 10.003526, 9.98954 
8.5032415e+1, 2.648352e+2, -373668.66, -489873.66, -6026.5054, -0.0045323856, -0.07678548, -373356.94, -28748.94, 0.0, 10.0035925, 9.988213 
8.503356e+1, 2.748235e+2, -274296.1, -391091.38, -5999.6826, -0.007058515, -0.07035354, -273988.72, -27265.654, 0.0, 10.003677, 9.988219 
8.5034907e+1, 2.84811e+2, -185231.19, -314336.47, -4487.1294, -0.007880095, -0.065396175, -185075.42, -36229.75, 0.0, 10.00379, 9.986707 
8.5036445e+1, 2.9479772e+2, -85034.58, -215143.84, -4173.3804, -0.006865786, -0.06327469, -84900.85, -33925.01, 0.0, 10.003931, 9.986714 
8.503821e+1, 3.047871e+2, 4436.8613, -86717.28, -2017.2368, -0.008369371, -0.06351428, 4481.481, 4481.481, 0.0, 10.00413, 9.992059 
8.5040194e+1, 3.1477913e+2, 8324.659, -84723.3, -1727.8037, -0.012605356, -0.067524366, 8356.731, 8356.731, 0.0, 10.004392, 9.992069 
9.502094e+1, 1.2492358e+2, -1694116.3, -1728164.5, -1281.0529, 0.012298342, -0.057722047, -1694068.1, 21674.965, 0.0, 10.002432, 9.99792 
9.502312e+1, 1.3492146e+2, -1592793.3, -1628692.0, -1434.0562, 0.01022852, -0.060285926, -1592736.1, 25027.54, 0.0, 10.002665, 9.997907 
9.502499e+1, 1.4491871e+2, -1500961.8, -1547643.3, -3865.1738, 0.00811948, -0.06420771, -1500643.9, 19146.63, 0.0, 10.002851, 9.996664 
9.502657e+1, 1.5491535e+2, -1400951.8, -1448720.1, -3982.1187, 0.0064241607, -0.0676001, -1400622.0, 21201.24, 0.0, 10.00299, 9.996659 
9.5027906e+1, 1.6491134e+2, -1310962.9, -1369565.9, -6015.3423, 0.005780993, -0.06696591, -1310351.9, 13510.693, 0.0, 10.003092, 9.995327 
9.502901e+1, 1.749067e+2, -1212026.4, -1271151.4, -6203.035, 0.006227308, -0.063088596, -1211382.5, 14525.628, 0.0, 10.003157, 9.995322 
9.5029944e+1, 1.8490131e+2, -1124476.8, -1195969.3, -7469.402, 0.00525433, -0.056747742, -1123704.6, 4256.831, 0.0, 10.003211, 9.993741 
9.5030713e+1, 1.9489513e+2, -1025835.1, -1097714.0, -7601.256, 0.0028093997, -0.048715223, -1025040.1, 4982.4077, 0.0, 10.003256, 9.993735 
9.5031416e+1, 2.0488825e+2, -935465.7, -1016764.0, -8237.306, 0.00087329623, -0.04946637, -934639.44, -2549.5916, 0.0, 10.003311, 9.992544 
9.5032036e+1, 2.148807e+2, -836473.3, -918278.94, -8115.1274, -0.00053002225, -0.06018735, -835676.06, -1512.5504, 0.0, 10.003377, 9.992542 
9.5032686e+1, 2.2487253e+2, -747627.0, -840249.8, -7941.291, -0.0015759077, -0.063298665, -746951.06, -10707.694, 0.0, 10.00342, 9.991157 
9.5033365e+1, 2.3486373e+2, -649299.9, -742100.0, -8150.9863, -0.002246283, -0.059425626, -648589.4, -10260.029, 0.0, 10.003441, 9.991153 
9.503413e+1, 2.4485406e+2, -561743.4, -666577.8, -7556.1807, -0.0028919382, -0.0634874, -561201.56, -20777.865, 0.0, 10.003475, 9.989597 
9.503496e+1, 2.5484353e+2, -462972.66, -568205.6, -7348.7017, -0.0035109993, -0.07679872, -462461.94, -19935.48, 0.0, 10.003525, 9.989594 
9.5036006e+1, 2.6483244e+2, -373642.34, -489805.06, -5711.923, -0.004893211, -0.07814276, -373362.16, -28726.887, 0.0, 10.003592, 9.988217 
9.503724e+1, 2.7482074e+2, -274279.3, -391037.03, -5684.4243, -0.0070939003, -0.06787249, -274003.22, -27253.219, 0.0, 10.003676, 9.988223 
9.503869e+1, 2.848083e+2, -184685.56, -313179.13, -3964.6047, -0.007965775, -0.06228114, -184563.36, -35691.188, 0.0, 10.003789, 9.986786 
9.504037e+1, 2.947951e+2, -84483.85, -213970.73, -3648.3867, -0.0074028093, -0.06297766, -84381.14, -33379.402, 0.0, 10.003929, 9.986794 
9.5042336e+1, 3.0478454e+2, 4924.8145, -85667.51, -1042.2977, -0.008451534, -0.06427062, 4936.805, 4936.805, 0.0, 10.004128, 9.992131 
9.50446e+1, 3.1477663e+2, 8804.668, -83681.22, -744.53033, -0.011257712, -0.067416444, 8810.661, 8810.661, 0.0, 10.00439, 9.992142 
1.050235e+2, 1.2492079e+2, -1690588.1, -1726817.8, -2401.8376, 0.013257407, -0.055771105, -1690429.5, 25340.96, 0.0, 10.002687, 9.997887 
1.0502591e+2, 1.3491863e+2, -1589555.8, -1627486.1, -2523.4788, 0.010611213, -0.060314827, -1589388.5, 28403.002, 0.0, 10.002901, 9.997874 
1.0502795e+2, 1.4491583e+2, -1498227.4, -1546882.4, -5388.166, 0.008238056, -0.064279, -1497637.9, 22181.035, 0.0, 10.003061, 9.9966135 
1.0502966e+2, 1.5491243e+2, -1398683.5, -1448188.0, -5661.518, 0.00668196, -0.06548453, -1398044.3, 23807.646, 0.0, 10.003168, 9.996608 
1.0503108e+2, 1.649084e+2, -1308974.6, -1368893.6, -7965.402, 0.006230529, -0.06456283, -1307933.9, 15957.747, 0.0, 10.00324, 9.9953 
1.0503223e+2, 1.7490372e+2, -1210484.8, -1270694.1, -7982.0493, 0.0069240904, -0.062361002, -1209444.6, 16493.018, 0.0, 10.003274, 9.9952965 
1.0503321e+2, 1.8489829e+2, -1123398.9, -1195967.5, -9246.958, 0.005799389, -0.056492325, -1122239.1, 5752.171, 0.0, 10.003307, 9.993694 
1.0503401e+2, 1.9489206e+2, -1024941.44, -1097804.3, -9469.025, 0.0027860834, -0.047676254, -1023731.0, 6321.742, 0.0, 10.00334, 9.993688 
1.0503475e+2, 2.0488518e+2, -934537.56, -1016105.6, -10188.812, 0.00079133426, -0.047937643, -933284.1, -1163.9263, 0.0, 10.0033655, 9.992562 
1.0503542e+2, 2.1487764e+2, -836227.44, -917943.94, -10168.588, -0.00013827032, -0.058491178, -834981.1, -787.4987, 0.0, 10.003385, 9.992561 
1.05036095e+2, 2.2486944e+2, -748404.1, -841183.4, -10157.11, -0.0009944753, -0.061650418, -747305.2, -11031.611, 0.0, 10.003391, 9.991106 
1.0503678e+2, 2.348606e+2, -650458.4, -743229.7, -10327.715, -0.0017700755, -0.058038186, -649322.56, -10962.437, 0.0, 10.003386, 9.991102 
1.0503756e+2, 2.4485092e+2, -562566.56, -666366.25, -9606.387, -0.0026092175, -0.062403895, -561685.0, -21230.545, 0.0, 10.003392, 9.989652 
1.05038434e+2, 2.5484043e+2, -464230.94, -568189.56, -9387.234, -0.0035164293, -0.07607945, -463390.1, -20833.361, 0.0, 10.003412, 9.98965 
1.0503952e+2, 2.6482937e+2, -375992.9, -491056.25, -7716.858, -0.0049096686, -0.077317625, -375477.66, -30812.385, 0.0, 10.003436, 9.988207 
1.0504081e+2, 2.7481768e+2, -277458.5, -392701.63, -7804.754, -0.0068276203, -0.0664222, -276932.3, -30152.234, 0.0, 10.003465, 9.988212 
1.0504235e+2, 2.848053e+2, -187826.31, -313694.6, -5861.702, -0.007954503, -0.06090259, -187553.92, -38652.03, 0.0, 10.0035305, 9.986876 
1.0504414e+2, 2.9479215e+2, -88121.95, -214705.5, -5466.262, -0.008224156, -0.062430784, -87886.34, -36855.72, 0.0, 10.003636, 9.986886 
1.0504629e+2, 3.047817e+2, 586.4934, -86724.2, -2353.0789, -0.008826908, -0.06384298, 649.8644, 649.8644, 0.0, 10.003786, 9.992224 
1.050488e+2, 3.147739e+2, 3533.967, -85189.01, -1900.3636, -0.009803015, -0.06633174, 3574.6523, 3574.6523, 0.0, 10.0039835, 9.992233 
1.150262e+2, 1.2491772e+2, -1690786.9, -1727242.8, -1600.59, 0.013511813, -0.055761028, -1690716.8, 25083.885, 0.0, 10.002688, 9.997857 
1.15028806e+2, 1.3491555e+2, -1589755.1, -1627909.0, -1723.2025, 0.010889886, -0.06014844, -1589677.5, 28144.482, 0.0, 10.002901, 9.997845 
1.1503102e+2, 1.4491269e+2, -1498729.9, -1547925.6, -4984.4717, 0.00870404, -0.06340484, -1498230.0, 21619.713, 0.0, 10.003061, 9.996542 
1.1503283e+2, 1.5490924e+2, -1399189.6, -1449236.5, -5259.8623, 0.0075946595, -0.063048266, -1398642.9, 23240.584, 0.0, 10.003169, 9.996536 
1.15034334e+2, 1.6490516e+2, -1308998.3, -1368949.4, -7838.0215, 0.0071635987, -0.06185082, -1307990.4, 15932.974, 0.0, 10.00324, 9.9952965 
1.15035504e+2, 1.7490049e+2, -1210502.5, -1270739.5, -7856.3604, 0.007437162, -0.060708556, -1209494.6, 16474.803, 0.0, 10.003275, 9.995294 
1.1503652e+2, 1.84895e+2, -1123808.1, -1196819.0, -9129.483, 0.0059767356, -0.05593861, -1122683.8, 5339.7817, 0.0, 10.003307, 9.993636 
1.1503735e+2, 1.948887e+2, -1025356.06, -1098664.5, -9350.579, 0.0027120574, -0.04825433, -1024182.2, 5903.4966, 0.0, 10.00334, 9.993629 
1.1503812e+2, 2.0488182e+2, -934501.4, -1016033.0, -10121.981, 0.0008935889, -0.04733341, -933263.56, -1110.2416, 0.0, 10.0033655, 9.992567 
1.1503881e+2, 2.1487431e+2, -836188.06, -917861.2, -10103.252, 0.00058916915, -0.054299854, -834956.8, -730.4091, 0.0, 10.003385, 9.992567 
1.1503949e+2, 2.248661e+2, -748721.6, -841835.6, -10182.089, -0.00015002531, -0.057790153, -747621.25, -11314.632, 0.0, 10.003391, 9.991062 
1.1504017e+2, 2.3485716e+2, -650783.3, -743895.5, -10352.413, -0.0013406131, -0.058619395, -649646.2, -11252.262, 0.0, 10.003386, 9.991056 
1.1504096e+2, 2.4484749e+2, -562178.3, -665552.7, -9539.34, -0.002395384, -0.063546635, -561305.4, -20817.102, 0.0, 10.003392, 9.989708 
1.1504185e+2, 2.548371e+2, -463836.7, -567358.25, -9321.231, -0.003308417, -0.0736883, -463004.06, -20414.43, 0.0, 10.003411, 9.989707 
1.15042955e+2, 2.6482606e+2, -376182.7, -491430.13, -7615.219, -0.0045878673, -0.074339844, -375681.7, -30983.691, 0.0, 10.003435, 9.988182 
1.1504428e+2, 2.748143e+2, -277662.47, -393100.22, -7702.0127, -0.0062654433, -0.0659837, -277150.84, -30337.555, 0.0, 10.003464, 9.988185 
1.1504588e+2, 2.8480193e+2, -187150.34, -312260.7, -5472.8374, -0.007848718, -0.061233923, -186911.39, -37976.57, 0.0, 10.00353, 9.986974 
1.1504777e+2, 2.947889e+2, -87434.78, -213240.45, -5074.7417, -0.009326184, -0.061639708, -87230.41, -36167.957, 0.0, 10.003634, 9.986987 
1.1505006e+2, 3.0477858e+2, 1341.0402, -85109.32, -1620.9279, -0.009492784, -0.06225205, 1371.4216, 1371.4216, 0.0, 10.003784, 9.992335 
1.150528e+2, 3.147709e+2, 4281.4014, -83577.07, -1162.8011, -0.008246743, -0.06428789, 4296.7886, 4296.7886, 0.0, 10.003981, 9.992345 
1.250291e+2, 1.2491452e+2, -1684823.0, -1725181.5, -1957.0472, 0.013147316, -0.056840327, -1684728.4, 31103.748, 0.0, 10.003131, 9.997782 
1.2503189e+2, 1.3491228e+2, -1585290.8, -1626581.1, -2427.9463, 0.0112821255, -0.05875655, -1585148.4, 32705.504, 0.0, 10.003242, 9.997769 
1.2503421e+2, 1.4490937e+2, -1495503.0, -1547272.0, -6220.4355, 0.009514963, -0.06143065, -1494766.1, 25116.303, 0.0, 10.003321, 9.99646 
1.250361e+2, 1.5490583e+2, -1396846.5, -1449018.8, -6576.143, 0.00857874, -0.062138945, -1396030.4, 25886.71, 0.0, 10.003368, 9.996454 
1.2503766e+2, 1.649017e+2, -1306554.5, -1367833.9, -9363.179, 0.007926252, -0.060785502, -1305155.9, 18801.637, 0.0, 10.003409, 9.99529 
1.2503888e+2, 1.7489702e+2, -1208042.3, -1269613.0, -9401.842, 0.0075689363, -0.058219295, -1206638.6, 19364.916, 0.0, 10.003446, 9.995287 
1.250399e+2, 1.848915e+2, -1121975.0, -1196461.8, -10746.822, 0.006080522, -0.053853877, -1120455.5, 7602.3994, 0.0, 10.003456, 9.993589 
1.2504075e+2, 1.9488515e+2, -1024223.2, -1098657.4, -10890.669, 0.0034144465, -0.048475973, -1022662.44, 7458.228, 0.0, 10.003441, 9.993581 
1.2504151e+2, 2.0487823e+2, -933942.4, -1016151.44, -11814.294, 0.0017801162, -0.04695173, -932278.25, -89.533424, 0.0, 10.003421, 9.992533 
1.250422e+2, 2.1487072e+2, -836275.6, -918291.8, -12095.852, 0.0012273809, -0.05027482, -834528.94, -267.10577, 0.0, 10.003395, 9.992533 
1.2504287e+2, 2.2486249e+2, -749070.3, -841958.56, -12209.368, 0.00030165957, -0.054167468, -747492.3, -11150.135, 0.0, 10.0033655, 9.991066 
1.2504353e+2, 2.348535e+2, -651547.8, -744217.0, -12010.058, -0.0010089523, -0.0596609, -650016.6, -11586.737, 0.0, 10.003331, 9.991061 
1.250443e+2, 2.4484384e+2, -563520.56, -666176.6, -11152.166, -0.0020290094, -0.06466377, -562323.0, -21798.85, 0.0, 10.0033, 9.98971 
1.250452e+2, 2.548335e+2, -465897.4, -568331.25, -11343.221, -0.0027440062, -0.070016146, -464656.34, -22031.217, 0.0, 10.003269, 9.989709 
1.250463e+2, 2.6482245e+2, -378814.78, -492525.6, -9646.686, -0.0040360214, -0.070381336, -378002.22, -33268.848, 0.0, 10.003247, 9.988197 
1.2504762e+2, 2.748107e+2, -280908.97, -394492.06, -9416.581, -0.005952826, -0.06654283, -280133.6, -33284.746, 0.0, 10.003233, 9.988201 
1.2504926e+2, 2.8479835e+2, -190732.3, -313281.66, -6884.34, -0.007922738, -0.06272594, -190346.77, -41376.707, 0.0, 10.003253, 9.987037 
1.2505123e+2, 2.9478544e+2, -91737.96, -214598.53, -6756.974, -0.009946651, -0.06020043, -91367.46, -40270.63, 0.0, 10.003308, 9.987051 
1.2505364e+2, 3.0477518e+2, -3595.0225, -86337.984, -3181.593, -0.010201482, -0.05952207, -3472.8657, -3472.8657, 0.0, 10.003395, 9.992437 
1.2505654e+2, 3.147676e+2, -1755.8501, -85329.44, -2780.381, -0.008547541, -0.0620573, -1663.4526, -1663.4526, 0.0, 10.003516, 9.992449 
1.3503222e+2, 1.24911174e+2, -1685673.0, -1726953.6, -1538.7058, 0.012162426, -0.05906056, -1685615.6, 30249.223, 0.0, 10.003132, 9.997661 
1.3503513e+2, 1.3490885e+2, -1586146.1, -1628361.3, -2011.6246, 0.0117846625, -0.056157727, -1586050.5, 31837.063, 0.0, 10.0032425, 9.997647 
1.3503756e+2, 1.4490584e+2, -1496152.4, -1548626.1, -6042.235, 0.010665277, -0.05836997, -1495465.6, 24451.383, 0.0, 10.003322, 9.996367 
1.350395e+2, 1.5490218e+2, -1397497.4, -1450374.4, -6398.177, 0.009632226, -0.062734455, -1396734.1, 25218.787, 0.0, 10.003369, 9.996362 
1.3504107e+2, 1.6489801e+2, -1306612.0, -1367967.3, -9230.807, 0.008520127, -0.06134737, -1305253.4, 18740.469, 0.0, 10.00341, 9.99528 
1.3504231e+2, 1.7489335e+2, -1208096.5, -1269738.5, -9270.804, 0.007324526, -0.0549098, -1206732.4, 19307.229, 0.0, 10.003446, 9.995278 
1.3504335e+2, 1.8488781e+2, -1122234.5, -1197007.8, -10806.211, 0.0061102957, -0.05026121, -1120704.1, 7390.1245, 0.0, 10.003456, 9.993551 
1.350442e+2, 1.948814e+2, -1024490.4, -1099215.1, -10950.775, 0.0048796744, -0.048346408, -1022918.6, 7239.0444, 0.0, 10.003441, 9.993543 
1.3504495e+2, 2.0487441e+2, -934464.44, -1017232.75, -11913.62, 0.003438875, -0.046790328, -932783.75, -557.5017, 0.0, 10.003421, 9.992459 
1.350456e+2, 2.1486686e+2, -836801.0, -919379.3, -12195.152, 0.001778148, -0.04641456, -835037.7, -737.8299, 0.0, 10.003395, 9.992458 
1.3504623e+2, 2.2485861e+2, -748703.94, -841200.44, -12340.618, 0.00036595933, -0.050778482, -747085.75, -10705.421, 0.0, 10.0033655, 9.9911175 
1.3504685e+2, 2.3484963e+2, -651174.94, -743439.4, -12142.073, -0.0007745281, -0.061155003, -649603.75, -11135.911, 0.0, 10.003331, 9.991115 
1.3504761e+2, 2.4483998e+2, -563882.6, -666914.1, -11269.973, -0.0015137278, -0.06575755, -562664.25, -22102.17, 0.0, 10.003299, 9.989659 
1.3504848e+2, 2.5482965e+2, -466275.1, -569095.94, -11461.928, -0.0018305848, -0.065086514, -465012.88, -22349.754, 0.0, 10.003268, 9.989657 
1.3504957e+2, 2.648186e+2, -378434.2, -491713.84, -9703.468, -0.0032588784, -0.06545648, -377609.0, -32837.656, 0.0, 10.003246, 9.988254 
1.3505088e+2, 2.7480683e+2, -280520.7, -393658.84, -9471.884, -0.005886094, -0.06807894, -279733.2, -32846.453, 0.0, 10.003232, 9.988258 
1.3505252e+2, 2.8479454e+2, -190554.4, -312876.34, -6683.315, -0.008175339, -0.065358825, -190190.33, -41182.74, 0.0, 10.003251, 9.987065 
1.3505453e+2, 2.9478168e+2, -91571.77, -214205.72, -6553.312, -0.01009721, -0.058127243, -91222.57, -40088.832, 0.0, 10.003306, 9.987079 
1.3505703e+2, 3.0477148e+2, -2972.3386, -84985.41, -2733.0378, -0.010952189, -0.055674527, -2881.3625, -2881.3625, 0.0, 10.003392, 9.992532 
1.3506004e+2, 3.14764e+2, -1130.6714, -83961.484, -2326.9487, -0.010666413, -0.059642613, -1065.3524, -1065.3524, 0.0, 10.003513, 9.992544 
1.4503562e+2, 1.24907754e+2, -1678793.6, -1725298.5, -2085.1992, 0.011888447, -0.058595143, -1678700.4, 37198.19, 0.0, 10.003673, 9.997509 
1.4503859e+2, 1.3490532e+2, -1580881.4, -1627503.8, -2789.2605, 0.012223193, -0.053191055, -1580715.0, 37207.395, 0.0, 10.0036745, 9.997496 
1.4504106e+2, 1.4490217e+2, -1491468.5, -1547050.9, -6963.9766, 0.011379334, -0.0559311, -1490609.3, 29343.854, 0.0, 10.003671, 9.9963045 
1.4504302e+2, 1.5489842e+2, -1393630.1, -1449190.9, -7096.6484, 0.010311177, -0.06354329, -1392738.0, 29251.742, 0.0, 10.003662, 9.996299 
1.4504461e+2, 1.6489418e+2, -1303409.6, -1367106.6, -10014.599, 0.009035293, -0.06213829, -1301872.3, 22159.072, 0.0, 10.003658, 9.995218 
1.4504586e+2, 1.748895e+2, -1205398.8, -1269123.0, -10451.283, 0.0075405133, -0.052269354, -1203728.4, 22349.084, 0.0, 10.00366, 9.995216 
1.450469e+2, 1.8488394e+2, -1119917.0, -1196126.0, -12362.642, 0.006567371, -0.046773113, -1117961.6, 10170.798, 0.0, 10.003625, 9.993529 
1.4504771e+2, 1.9487748e+2, -1023009.3, -1098737.9, -12385.951, 0.0061444496, -0.046720352, -1021035.0, 9161.258, 0.0, 10.003552, 9.993521 
1.4504842e+2, 2.0487043e+2, -933891.0, -1017704.0, -13233.988, 0.004654017, -0.045858525, -931851.0, 414.27365, 0.0, 10.003492, 9.992392 
1.4504902e+2, 2.1486284e+2, -836553.6, -920015.56, -13464.089, 0.0020417415, -0.044946533, -834435.3, -95.83152, 0.0, 10.003445, 9.992391 
1.450496e+2, 2.2485457e+2, -748244.1, -840496.2, -13713.915, 0.00038345566, -0.0491722, -746248.6, -9828.457, 0.0, 10.003376, 9.99116 
1.4505018e+2, 2.3484562e+2, -651537.94, -743118.56, -13583.168, -0.0002561778, -0.059844438, -649565.75, -11058.585, 0.0, 10.003284, 9.9911585 
1.4505087e+2, 2.4483597e+2, -565808.1, -668576.25, -12773.791, -0.00078916183, -0.064028665, -564244.2, -23642.645, 0.0, 10.003199, 9.989594 
1.4505167e+2, 2.5482556e+2, -468955.84, -571145.3, -13078.642, -0.0012134244, -0.062165838, -467308.53, -24605.39, 0.0, 10.003118, 9.98959 
1.450527e+2, 2.6481456e+2, -380663.47, -491809.3, -11173.365, -0.002883047, -0.06302536, -379551.38, -34740.066, 0.0, 10.003051, 9.988341 
1.4505398e+2, 2.7480283e+2, -283264.2, -393973.34, -10698.479, -0.005897558, -0.06794795, -282239.8, -35313.89, 0.0, 10.003, 9.988349 
1.4505564e+2, 2.8479055e+2, -194774.0, -314933.97, -7719.9927, -0.008163514, -0.06547205, -194280.03, -45233.69, 0.0, 10.002963, 9.987063 
1.4505766e+2, 2.9477775e+2, -96952.32, -216844.56, -7822.259, -0.009616471, -0.056245536, -96444.12, -45271.715, 0.0, 10.002938, 9.987075 
1.4506021e+2, 3.047676e+2, -8484.888, -86369.96, -3754.0923, -0.011360281, -0.053514235, -8304.357, -8304.357, 0.0, 10.002959, 9.992645 
1.4506328e+2, 3.1476024e+2, -7384.095, -85675.02, -3187.7754, -0.013454478, -0.059097014, -7254.5127, -7254.5127, 0.0, 10.003028, 9.99266 
1.5503931e+2, 1.2490426e+2, -1680079.9, -1727964.6, -2079.4263, 0.012317945, -0.055473402, -1679989.8, 35943.2, 0.0, 10.0036745, 9.997328 
1.5504226e+2, 1.3490164e+2, -1582171.4, -1630180.3, -2784.6301, 0.012598344, -0.049861137, -1582010.4, 35948.324, 0.0, 10.003675, 9.9973135 
1.5504472e+2, 1.4489838e+2, -1491695.4, -1547543.6, -6996.235, 0.011662773, -0.05410642, -1490832.4, 29158.121, 0.0, 10.003672, 9.99627 
1.5504667e+2, 1.5489456e+2, -1393847.5, -1449662.4, -7128.356, 0.01062083, -0.06456376, -1392951.5, 29076.2, 0.0, 10.003664, 9.996266 
1.5504828e+2, 1.6489026e+2, -1304209.1, -1368773.8, -10011.187, 0.009471778, -0.063155204, -1302692.5, 21377.395, 0.0, 10.003659, 9.995105 
1.5504953e+2, 1.748855e+2, -1206202.9, -1270797.1, -10446.632, 0.008207559, -0.050287664, -1204555.4, 21561.668, 0.0, 10.00366, 9.995102 
1.5505053e+2, 1.8487988e+2, -1119953.4, -1196216.8, -12633.447, 0.007444118, -0.043391325, -1117915.0, 10257.437, 0.0, 10.003626, 9.993524 
1.5505129e+2, 1.948734e+2, -1023038.9, -1098812.5, -12660.159, 0.007212344, -0.043628402, -1020979.6, 9256.684, 0.0, 10.003553, 9.993516 
1.5505193e+2, 2.0486632e+2, -934311.06, -1018579.6, -13416.086, 0.005432724, -0.044168085, -932226.7, 79.06606, 0.0, 10.003492, 9.992332 
1.5505247e+2, 2.1485864e+2, -836984.1, -920905.75, -13643.253, 0.002022419, -0.045823064, -834821.8, -441.00455, 0.0, 10.003445, 9.992331 
1.5505299e+2, 2.2485036e+2, -748004.2, -839995.7, -14055.956, 0.00035370304, -0.0493211, -745904.44, -9442.862, 0.0, 10.003376, 9.991195 
1.5505347e+2, 2.348415e+2, -651292.1, -742601.25, -13929.722, 0.0005394135, -0.055788998, -649214.3, -10666.44, 0.0, 10.003284, 9.991194 
1.5505408e+2, 2.4483182e+2, -566380.2, -669747.25, -13082.961, 0.00014022237, -0.059526335, -564750.0, -24107.64, 0.0, 10.003198, 9.989515 
1.550548e+2, 2.5482133e+2, -469545.78, -572349.9, -13384.761, -0.00088739453, -0.061209224, -467831.7, -25086.547, 0.0, 10.003117, 9.989509 
1.5505576e+2, 2.6481026e+2, -379842.6, -490082.47, -11364.349, -0.0029023134, -0.06304299, -378683.25, -33830.05, 0.0, 10.00305, 9.98846 
1.5505698e+2, 2.747987e+2, -282427.0, -392199.03, -10890.3125, -0.0059876596, -0.06618927, -281357.0, -34390.582, 0.0, 10.002999, 9.988471 
1.550586e+2, 2.847865e+2, -195025.13, -315405.6, -7813.7715, -0.007895062, -0.063116334, -194520.06, -45433.75, 0.0, 10.002961, 9.987033 
1.550606e+2, 2.947736e+2, -97234.125, -217369.1, -7912.3955, -0.008520453, -0.054547805, -96715.24, -45502.45, 0.0, 10.002936, 9.9870405 
1.5506317e+2, 3.0476356e+2, -7599.3, -84455.555, -3497.8467, -0.011434311, -0.053001385, -7440.436, -7440.436, 0.0, 10.002955, 9.992778 
1.5506627e+2, 3.1475627e+2, -6481.7705, -83710.2, -2923.7102, -0.01689742, -0.06037437, -6371.2427, -6371.2427, 0.0, 10.003024, 9.992797 
1.6504325e+2, 1.24900654e+2, -1674076.1, -1726598.0, -3088.1816, 0.014922129, -0.050868433, -1673895.1, 42073.367, 0.0, 10.004149, 9.997189 
1.6504619e+2, 1.3489787e+2, -1576733.3, -1629096.5, -3478.2732, 0.013790522, -0.047907513, -1576503.3, 41492.63, 0.0, 10.004113, 9.997173 
1.650486e+2, 1.4489451e+2, -1486124.1, -1545195.8, -7580.487, 0.012105974, -0.053530626, -1485166.9, 34861.62, 0.0, 10.004067, 9.996238 
1.6505052e+2, 1.5489066e+2, -1388977.1, -1447645.0, -7703.544, 0.011166636, -0.06362024, -1387982.5, 34083.457, 0.0, 10.00401, 9.996235 
1.6505209e+2, 1.6488628e+2, -1300685.3, -1368358.0, -10564.414, 0.010161016, -0.062291507, -1299074.4, 25034.451, 0.0, 10.003956, 9.994988 
1.6505332e+2, 1.748814e+2, -1203468.6, -1270775.9, -11015.109, 0.009081817, -0.04994962, -1201711.8, 24445.459, 0.0, 10.003903, 9.994985 
1.6505428e+2, 1.8487571e+2, -1117234.8, -1195212.0, -13528.622, 0.008267604, -0.04231466, -1114954.4, 13259.045, 0.0, 10.003825, 9.993495 
1.6505492e+2, 1.9486924e+2, -1020817.0, -1098039.9, -13720.268, 0.0077407695, -0.0404993, -1018451.75, 11825.551, 0.0, 10.003718, 9.993488 
1.6505548e+2, 2.0486212e+2, -932857.56, -1018163.56, -14415.891, 0.0059760273, -0.041596856, -930487.3, 1859.7899, 0.0, 10.003605, 9.992307 
1.6505595e+2, 2.1485437e+2, -836601.7, -921012.1, -14384.882, 0.0029042924, -0.04656439, -834217.56, 205.08401, 0.0, 10.003484, 9.992304 
1.6505636e+2, 2.2484608e+2, -748403.56, -840374.56, -14956.471, 0.0013511459, -0.049399577, -746032.44, -9528.87, 0.0, 10.003357, 9.9911785 
1.6505674e+2, 2.3483726e+2, -652308.7, -743278.75, -15217.989, 0.0014173456, -0.050989028, -649830.44, -11240.778, 0.0, 10.003223, 9.991178 
1.6505723e+2, 2.4482755e+2, -567937.9, -670637.06, -14272.115, 0.00053215487, -0.05490374, -565991.4, -25307.027, 0.0, 10.003098, 9.989503 
1.6505784e+2, 2.5481698e+2, -471629.66, -573497.5, -14057.467, -0.0013734635, -0.062161807, -469725.34, -26937.682, 0.0, 10.00298, 9.989495 
1.650587e+2, 2.6480597e+2, -382255.5, -490495.8, -11944.875, -0.003339077, -0.06431956, -380953.0, -36057.504, 0.0, 10.002852, 9.988527 
1.6505985e+2, 2.7479455e+2, -286113.94, -393211.25, -11868.277, -0.005378013, -0.062138397, -284814.5, -37806.92, 0.0, 10.002713, 9.98854 
1.6506138e+2, 2.8478238e+2, -200158.7, -317627.9, -8657.539, -0.006818859, -0.058481168, -199524.06, -50397.12, 0.0, 10.002598, 9.987056 
1.6506334e+2, 2.9476947e+2, -103326.95, -220066.88, -8337.118, -0.007605416, -0.05446923, -102734.555, -51480.973, 0.0, 10.002507, 9.9870615 
1.6506587e+2, 3.0475947e+2, -13793.55, -85755.375, -3316.8904, -0.011651607, -0.054574348, -13640.99, -13640.99, 0.0, 10.002458, 9.9929285 
1.6506898e+2, 3.1475234e+2, -13731.9795, -85485.125, -2611.141, -0.0193217, -0.06043078, -13637.084, -13637.084, 0.0, 10.002452, 9.99295 
1.7504744e+2, 1.2489694e+2, -1674761.0, -1728024.0, -3221.7524, 0.01966222, -0.044850152, -1674566.8, 41438.402, 0.0, 10.00415, 9.997091 
1.750503e+2, 1.34894e+2, -1577415.1, -1630523.0, -3613.2947, 0.015786065, -0.04730454, -1577170.4, 40863.53, 0.0, 10.004115, 9.997076 
1.7505267e+2, 1.4489056e+2, -1486328.9, -1545645.9, -7791.0176, 0.012705004, -0.054185495, -1485322.6, 34744.64, 0.0, 10.004068, 9.996207 
1.7505454e+2, 1.5488672e+2, -1389176.1, -1448084.9, -7915.6343, 0.011943193, -0.060755733, -1388131.1, 33973.563, 0.0, 10.004012, 9.996204 
1.7505606e+2, 1.6488226e+2, -1301506.0, -1370075.3, -10761.281, 0.011097378, -0.05958194, -1299856.8, 24291.56, 0.0, 10.003957, 9.994871 
1.7505723e+2, 1.7487723e+2, -1204302.4, -1272516.0, -11208.934, 0.010158452, -0.051218994, -1202507.8, 23690.477, 0.0, 10.003904, 9.994866 
1.7505811e+2, 1.8487146e+2, -1117573.8, -1195929.6, -13925.026, 0.00903888, -0.043499745, -1115172.6, 13082.526, 0.0, 10.003825, 9.993445 
1.7505863e+2, 1.9486497e+2, -1021153.25, -1098749.8, -14120.115, 0.007740994, -0.03733864, -1018663.7, 11655.52, 0.0, 10.003719, 9.99344 
1.7505908e+2, 2.0485784e+2, -932798.7, -1018052.1, -14869.87, 0.006286749, -0.038164195, -930279.5, 2109.6636, 0.0, 10.003605, 9.992313 
1.7505945e+2, 2.1485007e+2, -836545.3, -920895.9, -14838.787, 0.0046654725, -0.047173455, -834011.06, 453.97052, 0.0, 10.003484, 9.992312 
1.7505974e+2, 2.2484174e+2, -748876.25, -841345.0, -15457.188, 0.0033535415, -0.04941093, -746360.8, -9814.683, 0.0, 10.003356, 9.991112 
1.7505997e+2, 2.3483291e+2, -652792.25, -744268.9, -15719.24, 0.0023758737, -0.045463096, -650166.44, -11533.919, 0.0, 10.003222, 9.99111 
1.7506032e+2, 2.448232e+2, -567566.06, -669852.4, -14711.988, 0.00039743888, -0.050162222, -565492.06, -24764.748, 0.0, 10.003097, 9.989556 
1.7506081e+2, 2.548126e+2, -471250.78, -572690.9, -14495.118, -0.002654681, -0.064979814, -469220.2, -26389.484, 0.0, 10.002979, 9.989552 
1.7506155e+2, 2.6480162e+2, -382154.66, -490255.0, -12462.905, -0.004186788, -0.06683221, -380736.4, -35798.293, 0.0, 10.0028515, 9.9885435 
1.7506258e+2, 2.7479032e+2, -286027.7, -392986.3, -12390.358, -0.0040877084, -0.05585345, -284611.13, -37561.754, 0.0, 10.002711, 9.988556 
1.75064e+2, 2.847782e+2, -199662.16, -316538.9, -8997.173, -0.0049546333, -0.05161616, -198973.61, -49805.348, 0.0, 10.002595, 9.987131 
1.7506586e+2, 2.947653e+2, -102830.76, -218968.11, -8670.326, -0.006867833, -0.055966236, -102187.04, -50892.254, 0.0, 10.002504, 9.987139 
1.7506833e+2, 3.0475536e+2, -12668.682, -83332.81, -3337.5781, -0.012011806, -0.058184844, -12511.393, -12511.393, 0.0, 10.002454, 9.993096 
1.7507143e+2, 3.1474847e+2, -12607.939, -83038.08, -2628.015, -0.020759173, -0.05930439, -12510.015, -12510.015, 0.0, 10.002447, 9.99312 
1.8505183e+2, 1.24893196e+2, -1669282.0, -1726258.8, -3267.7224, 0.023747923, -0.04276351, -1669095.3, 46946.73, 0.0, 10.004562, 9.997011 
1.8505466e+2, 1.3489015e+2, -1571886.4, -1628735.5, -3539.0518, 0.017819542, -0.047756128, -1571666.9, 46404.816, 0.0, 10.00453, 9.996995 
1.8505695e+2, 1.4488664e+2, -1480891.6, -1543799.0, -7933.0156, 0.013544591, -0.054604765, -1479906.8, 40199.15, 0.0, 10.004473, 9.996136 
1.8505874e+2, 1.5488276e+2, -1384115.8, -1446419.9, -8361.4795, 0.012664133, -0.058018, -1383013.1, 39130.56, 0.0, 10.004391, 9.996134 
1.850602e+2, 1.6487823e+2, -1297142.1, -1368794.1, -11266.936, 0.011879441, -0.05671958, -1295412.3, 28775.746, 0.0, 10.004291, 9.994797 
1.8506129e+2, 1.7487308e+2, -1200914.6, -1271714.0, -11392.366, 0.011189512, -0.05140089, -1199126.6, 27112.24, 0.0, 10.004172, 9.994791 
1.8506204e+2, 1.8486723e+2, -1114969.3, -1195534.5, -14196.811, 0.009891548, -0.044261348, -1112540.8, 15755.931, 0.0, 10.004041, 9.993368 
1.8506245e+2, 1.9486068e+2, -1019101.3, -1098626.5, -14609.94, 0.007966852, -0.036083784, -1016502.2, 13859.104, 0.0, 10.003897, 9.993361 
1.8506277e+2, 2.0485353e+2, -930978.3, -1017006.44, -15587.041, 0.006514332, -0.03621468, -928241.25, 4190.259, 0.0, 10.003722, 9.992328 
1.8506296e+2, 2.1484576e+2, -835961.06, -920437.2, -15500.948, 0.005560675, -0.04594448, -833206.5, 1300.7434, 0.0, 10.003516, 9.992328 
1.850631e+2, 2.2483744e+2, -749704.5, -842398.0, -16014.469, 0.004208237, -0.047998585, -747015.7, -10427.084, 0.0, 10.003328, 9.991055 
1.8506315e+2, 2.3482855e+2, -654144.06, -745591.06, -16217.588, 0.0024333252, -0.04289067, -651353.1, -12677.66, 0.0, 10.0031595, 9.991051 
1.8506335e+2, 2.4481885e+2, -568525.94, -669349.5, -15035.8, -0.00009294875, -0.04819787, -566331.44, -25561.2, 0.0, 10.00299, 9.989643 
1.8506369e+2, 2.548083e+2, -472968.5, -572529.44, -14574.981, -0.0034269036, -0.0655387, -470878.72, -28005.828, 0.0, 10.002819, 9.98964 
1.8506429e+2, 2.6479736e+2, -385728.5, -492259.84, -12727.229, -0.004653685, -0.066601545, -384229.1, -39249.156, 0.0, 10.002619, 9.98852 
1.8506512e+2, 2.7478608e+2, -290980.22, -395682.75, -12979.827, -0.003610355, -0.051231, -289395.13, -42303.945, 0.0, 10.002385, 9.988528 
1.850664e+2, 2.84774e+2, -204490.97, -317302.25, -9252.962, -0.0042844866, -0.047006477, -203737.06, -54527.543, 0.0, 10.002197, 9.987271 
1.8506815e+2, 2.947612e+2, -108347.34, -220023.58, -8427.832, -0.0068265987, -0.056188103, -107714.91, -56379.934, 0.0, 10.002057, 9.987282 
1.8507051e+2, 3.047514e+2, -19635.902, -85413.78, -2871.165, -0.011858559, -0.05910587, -19510.816, -19510.816, 0.0, 10.001921, 9.993211 
1.8507355e+2, 3.1474465e+2, -21420.832, -86018.26, -2579.2466, -0.019681554, -0.056371607, -21318.012, -21318.012, 0.0, 10.001787, 9.993234 
1.9505642e+2, 1.24889426e+2, -1669711.3, -1727195.8, -3378.8508, 0.02718363, -0.044581205, -1669513.3, 46565.598, 0.0, 10.004565, 9.996946 
1.9505921e+2, 1.3488632e+2, -1572318.8, -1629672.6, -3653.5483, 0.019888235, -0.049243987, -1572086.9, 46022.28, 0.0, 10.004532, 9.99693 
1.9506145e+2, 1.4488274e+2, -1481657.0, -1545413.6, -8234.423, 0.014619148, -0.054793604, -1480610.6, 39533.508, 0.0, 10.004475, 9.996025 
1.9506314e+2, 1.5487877e+2, -1384885.9, -1448039.3, -8665.41, 0.013330565, -0.055405214, -1383718.5, 38464.402, 0.0, 10.004393, 9.996022 
1.9506449e+2, 1.6487418e+2, -1297364.6, -1369280.9, -11709.475, 0.0125102475, -0.05371019, -1295506.1, 28721.81, 0.0, 10.0042925, 9.994762 
1.9506547e+2, 1.7486897e+2, -1201134.6, -1272189.5, -11836.423, 0.01217544, -0.050522648, -1199214.9, 27064.422, 0.0, 10.004173, 9.994758 
1.950661e+2, 1.8486303e+2, -1115706.6, -1197072.1, -14735.107, 0.010823041, -0.044607457, -1113120.4, 15217.414, 0.0, 10.004042, 9.993263 
1.9506635e+2, 1.9485639e+2, -1019848.44, -1100182.0, -15146.529, 0.008412332, -0.036688033, -1017087.56, 13315.988, 0.0, 10.003898, 9.993256 
1.9506648e+2, 2.048492e+2, -930819.75, -1016690.56, -16354.639, 0.006660972, -0.035718836, -927810.3, 4663.765, 0.0, 10.003723, 9.99235 
1.9506647e+2, 2.1484147e+2, -835792.1, -920096.0, -16273.904, 0.005610375, -0.04292798, -832759.7, 1789.686, 0.0, 10.003516, 9.992351 
1.9506642e+2, 2.2483313e+2, -750061.6, -843135.06, -16648.139, 0.003941138, -0.045193322, -747173.4, -10542.479, 0.0, 10.003328, 9.991004 
1.9506632e+2, 2.3482415e+2, -654519.94, -746354.0, -16846.031, 0.0016100141, -0.043196317, -651527.25, -12808.636, 0.0, 10.003159, 9.990999 
1.9506635e+2, 2.4481449e+2, -567709.94, -667632.8, -15670.055, -0.0009326659, -0.048951253, -565310.2, -24497.12, 0.0, 10.002989, 9.98976 
1.9506651e+2, 2.548041e+2, -472142.3, -570776.8, -15211.883, -0.0037051684, -0.063902296, -469849.56, -26935.295, 0.0, 10.002817, 9.98976 
1.950669e+2, 2.6479322e+2, -386218.1, -493228.88, -13595.16, -0.0047494676, -0.063691884, -384517.9, -39496.957, 0.0, 10.002617, 9.988454 
1.9506751e+2, 2.7478182e+2, -291494.72, -396708.5, -13849.632, -0.003926116, -0.04822594, -289702.2, -42569.227, 0.0, 10.002383, 9.98846 
1.9506858e+2, 2.8476983e+2, -203096.3, -314359.44, -9775.422, -0.004780684, -0.04460067, -202243.97, -52993.203, 0.0, 10.002194, 9.9874735 
1.9507019e+2, 2.947572e+2, -106924.016, -217000.88, -8945.256, -0.007466584, -0.05517557, -106201.83, -54827.625, 0.0, 10.002054, 9.98749 
1.9507243e+2, 3.0474755e+2, -19258.674, -84538.89, -3365.0574, -0.011210892, -0.0574123, -19085.67, -19085.67, 0.0, 10.001917, 9.993273 
1.9507536e+2, 3.147409e+2, -21091.969, -85210.34, -3071.671, -0.016166234, -0.051684294, -20945.152, -20945.152, 0.0, 10.001781, 9.993292 
2.0506135e+2, 1.2488587e+2, -1660588.8, -1724292.3, -1982.6179, 0.02666987, -0.047776908, -1660527.1, 55586.49, 0.0, 10.005252, 9.996808 
2.0506404e+2, 1.3488264e+2, -1564821.9, -1627570.4, -2804.1672, 0.020727249, -0.05075722, -1564696.8, 53448.297, 0.0, 10.00511, 9.996793 
2.0506617e+2, 1.4487894e+2, -1475599.4, -1544057.0, -7907.131, 0.016209124, -0.054966684, -1474698.0, 45483.37, 0.0, 10.004956, 9.995883 
2.0506777e+2, 1.5487483e+2, -1380025.4, -1447270.0, -8570.274, 0.015258258, -0.054134402, -1378950.3, 43271.17, 0.0, 10.004793, 9.99588 
2.0506898e+2, 1.6487016e+2, -1292950.0, -1367701.5, -11907.391, 0.014180938, -0.05175407, -1291099.1, 33168.34, 0.0, 10.004618, 9.994712 
2.0506978e+2, 1.748649e+2, -1197718.3, -1271089.1, -12161.075, 0.012964169, -0.048678603, -1195755.1, 30564.074, 0.0, 10.004431, 9.994708 
2.0507024e+2, 1.8485892e+2, -1113131.9, -1196437.5, -14984.801, 0.011136465, -0.043922767, -1110518.4, 17859.928, 0.0, 10.004244, 9.993208 
2.0507033e+2, 1.9485217e+2, -1017876.5, -1099848.0, -15021.617, 0.00867987, -0.03826341, -1015210.44, 15234.363, 0.0, 10.004059, 9.9932 
2.0507027e+2, 2.0484495e+2, -929214.9, -1016175.3, -16433.074, 0.006763833, -0.03659686, -926213.1, 6302.602, 0.0, 10.003844, 9.992326 
2.0507002e+2, 2.1483725e+2, -834778.1, -919863.7, -16697.691, 0.0054264525, -0.03998005, -831618.6, 2972.3428, 0.0, 10.003597, 9.992328 
2.0506975e+2, 2.248289e+2, -749817.5, -842909.25, -16999.363, 0.0035034886, -0.0421905, -746810.4, -10137.875, 0.0, 10.00334, 9.991014 
2.0506941e+2, 2.348199e+2, -655712.94, -746822.1, -16742.064, 0.00094862335, -0.044162225, -652733.9, -13973.408, 0.0, 10.003073, 9.991009 
2.0506923e+2, 2.4481025e+2, -569857.4, -667845.2, -15491.935, -0.0012558202, -0.049851254, -567466.44, -26611.906, 0.0, 10.002806, 9.989835 
2.050692e+2, 2.548e+2, -475654.72, -571638.5, -15373.711, -0.0030862063, -0.060409505, -473252.44, -30297.81, 0.0, 10.002541, 9.989835 
2.0506936e+2, 2.6478916e+2, -390792.47, -495467.5, -13704.293, -0.0044077598, -0.059902217, -389028.03, -43967.1, 0.0, 10.002304, 9.988452 
2.0506974e+2, 2.747777e+2, -295676.1, -398777.28, -13478.925, -0.0051777572, -0.048555233, -293943.06, -46769.656, 0.0, 10.002099, 9.988455 
2.0507061e+2, 2.8476578e+2, -206622.73, -314300.1, -9215.653, -0.006421291, -0.044943247, -205839.7, -56549.215, 0.0, 10.001877, 9.98763 
2.0507202e+2, 2.9475337e+2, -111874.8, -217587.13, -8734.85, -0.008181621, -0.051066674, -111157.914, -59745.99, 0.0, 10.001637, 9.987651 
2.0507409e+2, 3.0474386e+2, -26642.66, -87201.06, -3360.3398, -0.010122148, -0.05256793, -26456.768, -26456.768, 0.0, 10.001371, 9.993353 
2.0507683e+2, 3.1473723e+2, -30827.662, -89033.484, -2926.229, -0.012297229, -0.050198257, -30680.92, -30680.92, 0.0, 10.001076, 9.993369 
2.1506654e+2, 1.24882534e+2, -1662039.9, -1727345.8, -2511.6326, 0.022286689, -0.052360814, -1661943.5, 54202.67, 0.0, 10.005256, 9.996599 
2.1506914e+2, 1.3487914e+2, -1566286.6, -1630641.5, -3334.196, 0.020362638, -0.05229585, -1566114.4, 52065.137, 0.0, 10.005113, 9.996582 
2.1507116e+2, 1.4487524e+2, -1476804.5, -1546584.6, -8514.012, 0.01829995, -0.05512276, -1475780.8, 44436.805, 0.0, 10.004959, 9.99571 
2.1507259e+2, 1.5487097e+2, -1381233.6, -1449796.3, -9177.308, 0.018413514, -0.054169916, -1380026.5, 42232.895, 0.0, 10.004795, 9.9957075 
2.1507362e+2, 1.6486618e+2, -1293409.8, -1368682.6, -12603.557, 0.01686526, -0.05082661, -1291355.5, 32951.035, 0.0, 10.00462, 9.994644 
2.1507421e+2, 1.7486086e+2, -1198171.6, -1272056.0, -12858.051, 0.013561716, -0.045898493, -1195997.9, 30360.84, 0.0, 10.004432, 9.994641 
2.1507448e+2, 1.8485485e+2, -1113162.3, -1196524.6, -15674.257, 0.0108471215, -0.042234395, -1110312.5, 18105.828, 0.0, 10.004246, 9.993201 
2.1507439e+2, 1.9484805e+2, -1017915.1, -1099937.3, -15710.179, 0.008773141, -0.04078215, -1015009.0, 15476.185, 0.0, 10.00406, 9.993194 
2.150741e+2, 2.048408e+2, -929692.1, -1017158.0, -17351.262, 0.006823691, -0.03881423, -926375.75, 6180.6943, 0.0, 10.003844, 9.992259 
2.1507363e+2, 2.1483308e+2, -835269.3, -920866.3, -17618.648, 0.0050144466, -0.037102807, -831784.7, 2847.275, 0.0, 10.003596, 9.99226 
2.1507308e+2, 2.2482474e+2, -749348.8, -841922.75, -17997.574, 0.002898373, -0.038997155, -745972.94, -9259.431, 0.0, 10.00334, 9.991081 
2.1507248e+2, 2.3481575e+2, -655232.25, -745807.4, -17741.781, 0.00044309633, -0.045771837, -651881.0, -13079.8125, 0.0, 10.003072, 9.991078 
2.1507204e+2, 2.4480617e+2, -569655.2, -667399.25, -16481.965, -0.0010782768, -0.05089807, -566950.8, -26056.12, 0.0, 10.002805, 9.989865 
2.1507175e+2, 2.54796e+2, -475467.5, -571211.25, -16363.893, -0.0015962448, -0.055115107, -472747.94, -29753.955, 0.0, 10.002539, 9.989865 
2.1507166e+2, 2.647852e+2, -390409.22, -494622.8, -14470.893, -0.003640862, -0.055254616, -388437.16, -43337.215, 0.0, 10.002302, 9.98851 
2.1507181e+2, 2.7477375e+2, -295297.53, -397932.72, -14237.601, -0.0073409546, -0.05212744, -293359.1, -46146.58, 0.0, 10.002096, 9.988514 
2.1507247e+2, 2.847619e+2, -205867.86, -312663.53, -10101.052, -0.009179109, -0.047968768, -204920.88, -55592.16, 0.0, 10.001874, 9.987743 
2.1507366e+2, 2.947497e+2, -111120.3, -215936.89, -9625.661, -0.008974202, -0.04395782, -110243.67, -58795.465, 0.0, 10.001634, 9.987765 
2.1507546e+2, 3.047403e+2, -26015.078, -85804.14, -4451.2407, -0.00860862, -0.044659566, -25685.506, -25685.506, 0.0, 10.001368, 9.99345 
2.1507795e+2, 3.147337e+2, -30212.47, -87653.74, -4017.4216, -0.008090449, -0.051810052, -29932.854, -29932.854, 0.0, 10.001072, 9.993465 
2.2507218e+2, 1.248794e+2, -1652119.8, -1724601.4, -2284.149, 0.020564532, -0.051250823, -1652047.9, 64129.164, 0.0, 10.006021, 9.996413 
2.2507459e+2, 1.3487579e+2, -1558325.6, -1628869.0, -2949.18, 0.021265158, -0.05197862, -1558202.5, 60009.684, 0.0, 10.005745, 9.996395 
2.2507639e+2, 1.4487173e+2, -1470472.6, -1545532.4, -8082.782, 0.020532021, -0.055376843, -1469612.1, 50640.043, 0.0, 10.005478, 9.995529 
2.2507761e+2, 1.5486726e+2, -1376294.6, -1449426.8, -8809.023, 0.02086985, -0.054309625, -1375248.5, 47047.32, 0.0, 10.005219, 9.995526 
2.2507842e+2, 1.6486233e+2, -1288734.3, -1367278.1, -12290.894, 0.018423568, -0.050857563, -1286855.9, 37488.28, 0.0, 10.004975, 9.994567 
2.2507879e+2, 1.7485696e+2, -1194088.5, -1270930.6, -12620.648, 0.013036702, -0.045821406, -1192068.8, 34328.406, 0.0, 10.004747, 9.994565 
2.2507884e+2, 1.8485089e+2, -1109653.5, -1194883.4, -15593.969, 0.009850103, -0.041905962, -1106890.0, 21567.082, 0.0, 10.004487, 9.993196 
2.2507852e+2, 1.948441e+2, -1015993.3, -1099062.4, -15624.067, 0.00901406, -0.040055454, -1013151.9, 17372.117, 0.0, 10.004193, 9.993189 
2.2507799e+2, 2.048368e+2, -929483.06, -1017690.7, -17389.426, 0.0077043814, -0.038015325, -926178.7, 6416.845, 0.0, 10.003885, 9.992203 
2.2507721e+2, 2.1482904e+2, -836159.06, -921944.7, -17582.3, 0.0058995406, -0.036575735, -832695.3, 1976.3215, 0.0, 10.003564, 9.992202 
2.2507639e+2, 2.2482069e+2, -750133.1, -841529.3, -17914.797, 0.0032744692, -0.03879305, -746747.06, -9993.854, 0.0, 10.003253, 9.99115 
2.2507548e+2, 2.3481177e+2, -656477.56, -745615.0, -17650.549, -0.0002440979, -0.045955982, -653109.75, -14269.582, 0.0, 10.002953, 9.991149 
2.2507475e+2, 2.4480227e+2, -572044.4, -668275.56, -16491.123, -0.0021910693, -0.049975038, -569296.7, -28363.598, 0.0, 10.002629, 9.98989 
2.2507416e+2, 2.5479212e+2, -479053.78, -572679.9, -16421.184, -0.002443716, -0.05146858, -476257.2, -33225.168, 0.0, 10.002282, 9.989889 
2.250738e+2, 2.647814e+2, -394277.53, -495085.53, -14037.97, -0.004188613, -0.052592833, -392359.2, -47221.867, 0.0, 10.001977, 9.988636 
2.2507371e+2, 2.7477002e+2, -299946.66, -398751.28, -13294.782, -0.0075546624, -0.05447782, -298189.03, -50940.01, 0.0, 10.001717, 9.988642 
2.2507411e+2, 2.8475827e+2, -211778.52, -314726.78, -9200.818, -0.00901141, -0.049906608, -210962.67, -61598.457, 0.0, 10.001435, 9.987814 
2.2507504e+2, 2.9474622e+2, -117977.2, -218471.05, -9066.25, -0.008367498, -0.039527237, -117165.83, -65683.24, 0.0, 10.00113, 9.987835 
2.2507659e+2, 3.0473694e+2, -32684.299, -87003.86, -3879.1416, -0.0076073855, -0.039738316, -32408.676, -32408.676, 0.0, 10.000823, 9.99363 
2.2507875e+2, 3.1473047e+2, -37082.64, -88922.72, -2818.4995, -0.0067322785, -0.052929826, -36929.85, -36929.85, 0.0, 10.000512, 9.993649 
2.350782e+2, 1.2487644e+2, -1653278.9, -1727022.4, -3317.2715, 0.02142993, -0.044609513, -1653130.0, 63076.24, 0.0, 10.006022, 9.996248 
2.3508035e+2, 1.3487262e+2, -1559484.8, -1631303.1, -3984.78, 0.023400435, -0.04985254, -1559264.4, 58979.05, 0.0, 10.005748, 9.996228 
2.350819e+2, 1.4486834e+2, -1471785.9, -1548291.8, -9050.173, 0.022900742, -0.05572454, -1470729.9, 49555.31, 0.0, 10.005481, 9.99534 
2.3508285e+2, 1.5486372e+2, -1377608.0, -1452191.6, -9771.354, 0.022646917, -0.054549485, -1376349.1, 45981.54, 0.0, 10.005222, 9.9953375 
2.350834e+2, 1.6485864e+2, -1289325.6, -1368550.4, -13138.029, 0.018888155, -0.051816843, -1287203.8, 37176.664, 0.0, 10.004978, 9.994479 
2.3508354e+2, 1.7485316e+2, -1194682.1, -1272189.3, -13463.6875, 0.011422618, -0.048364643, -1192410.0, 34024.395, 0.0, 10.004749, 9.994478 
2.3508331e+2, 1.8484704e+2, -1109676.9, -1194951.9, -16684.984, 0.008165657, -0.042902004, -1106528.5, 21966.19, 0.0, 10.004488, 9.993191 
2.3508272e+2, 1.948403e+2, -1016017.56, -1099121.4, -16722.447, 0.009396584, -0.036187503, -1012778.8, 17782.375, 0.0, 10.004194, 9.993184 
2.3508188e+2, 2.0483299e+2, -929812.56, -1018371.56, -18590.566, 0.00937967, -0.034285814, -926068.3, 6564.728, 0.0, 10.003886, 9.992156 
2.350808e+2, 2.1482512e+2, -836498.7, -922641.94, -18779.824, 0.008041213, -0.03832487, -832582.56, 2127.506, 0.0, 10.003564, 9.992154 
2.3507965e+2, 2.2481677e+2, -749641.94, -840503.44, -19031.62, 0.0046026027, -0.04149752, -745816.6, -9025.018, 0.0, 10.003252, 9.99122 
2.3507842e+2, 2.3480797e+2, -655978.3, -744564.2, -18769.334, -0.00110785, -0.044764012, -652165.6, -13288.09, 0.0, 10.002952, 9.991221 
2.3507735e+2, 2.4479851e+2, -571924.1, -668002.2, -17783.727, -0.004557185, -0.047138132, -568738.06, -27768.146, 0.0, 10.002628, 9.989909 
2.350764e+2, 2.547884e+2, -478947.75, -572429.9, -17715.553, -0.0055619855, -0.049421325, -475703.16, -32634.363, 0.0, 10.002281, 9.989906 
2.3507576e+2, 2.6477775e+2, -392964.63, -492315.9, -15010.226, -0.0060190307, -0.051866867, -390746.38, -45573.207, 0.0, 10.001975, 9.988826 
2.3507544e+2, 2.7476653e+2, -298630.4, -395942.2, -14260.692, -0.0058808825, -0.05564966, -296583.63, -49300.605, 0.0, 10.001714, 9.988835 
2.3507558e+2, 2.847549e+2, -211634.19, -314330.53, -10330.214, -0.006004479, -0.050788518, -210605.39, -61208.297, 0.0, 10.001431, 9.9878435 
2.3507619e+2, 2.947429e+2, -117864.836, -218137.27, -10197.28, -0.006404608, -0.03769671, -116838.32, -65323.195, 0.0, 10.001126, 9.98786 
2.3507741e+2, 3.0473378e+2, -30923.154, -83248.13, -5028.3975, -0.0071047917, -0.037722345, -30444.31, -30444.31, 0.0, 10.000818, 9.99389 
2.3507926e+2, 3.1472754e+2, -35274.664, -85078.79, -3972.009, -0.008141861, -0.053582672, -34959.875, -34959.875, 0.0, 10.000508, 9.993914 
2.4508452e+2, 1.24873504e+2, -1645888.6, -1724607.4, -3997.1904, 0.023920558, -0.04024523, -1645686.1, 70549.07, 0.0, 10.0065775, 9.996142 
2.450864e+2, 1.3486959e+2, -1552005.5, -1628853.8, -4232.6777, 0.025206681, -0.046337184, -1551773.1, 66500.34, 0.0, 10.006309, 9.996121 
2.4508767e+2, 1.4486516e+2, -1464676.0, -1546414.3, -8897.04, 0.02395311, -0.053920608, -1463718.8, 56597.844, 0.0, 10.006033, 9.995199 
2.4508835e+2, 1.5486035e+2, -1370848.0, -1450493.0, -9270.25, 0.023124654, -0.054936543, -1369783.3, 52580.305, 0.0, 10.005752, 9.995195 
2.450886e+2, 1.6485517e+2, -1283162.3, -1366337.4, -12488.807, 0.019067334, -0.053168673, -1281327.5, 43086.848, 0.0, 10.005432, 9.99441 
2.4508846e+2, 1.7484963e+2, -1190427.6, -1270893.8, -12687.993, 0.011591759, -0.04937818, -1188474.4, 37994.625, 0.0, 10.005073, 9.99441 
2.450879e+2, 1.8484347e+2, -1107046.9, -1194503.6, -16253.021, 0.008259823, -0.04249556, -1104124.1, 24405.762, 0.0, 10.0047035, 9.993117 
2.4508697e+2, 1.9483668e+2, -1014632.9, -1099281.6, -16808.266, 0.009353485, -0.033210386, -1011417.44, 19179.521, 0.0, 10.004324, 9.993111 
2.450858e+2, 2.0482934e+2, -928657.4, -1017445.2, -18687.885, 0.009048063, -0.031807743, -924884.3, 7784.7217, 0.0, 10.003949, 9.992188 
2.4508435e+2, 2.1482144e+2, -836050.4, -922042.06, -18277.678, 0.007257021, -0.03963926, -832326.6, 2419.418, 0.0, 10.003578, 9.992188 
2.4508287e+2, 2.2481312e+2, -750079.7, -840468.6, -18340.846, 0.0038135261, -0.04329161, -746499.94, -9672.564, 0.0, 10.003212, 9.991242 
2.4508134e+2, 2.3480436e+2, -657308.8, -744967.06, -18450.566, -0.0014251298, -0.04346958, -653583.6, -14670.78, 0.0, 10.002851, 9.991243 
2.4507989e+2, 2.4479495e+2, -573866.3, -668420.94, -17702.547, -0.0052629, -0.0450698, -570660.7, -29655.904, 0.0, 10.002473, 9.989956 
2.4507856e+2, 2.5478488e+2, -481569.0, -573175.56, -17425.031, -0.0075819623, -0.049091876, -478366.44, -35263.03, 0.0, 10.002079, 9.989953 
2.4507758e+2, 2.6477432e+2, -396228.34, -491871.44, -14571.081, -0.0075131822, -0.051772013, -394057.72, -48851.023, 0.0, 10.001664, 9.989007 
2.4507692e+2, 2.7476335e+2, -304449.06, -396701.53, -13899.993, -0.0048431004, -0.05414564, -302400.2, -55085.637, 0.0, 10.001226, 9.989018 
2.4507673e+2, 2.8475183e+2, -219639.05, -317379.2, -9702.028, -0.0040624784, -0.04955624, -218685.3, -69257.91, 0.0, 10.000848, 9.987916 
2.4507703e+2, 2.9473987e+2, -126021.14, -221290.16, -9234.777, -0.005349579, -0.03856715, -125134.234, -73589.21, 0.0, 10.000533, 9.987929 
2.4507794e+2, 3.047309e+2, -37664.414, -84234.95, -3955.892, -0.006986943, -0.037733346, -37330.773, -37330.773, 0.0, 10.000258, 9.994092 
2.4507952e+2, 3.147249e+2, -40833.96, -85459.23, -3339.971, -0.009007567, -0.049482066, -40585.363, -40585.363, 0.0, 10.000028, 9.99412 
2.5509113e+2, 1.248706e+2, -1646190.9, -1725301.0, -4982.125, 0.027975472, -0.038155377, -1645878.4, 70385.61, 0.0, 10.00658, 9.996093 
2.5509274e+2, 1.3486665e+2, -1552310.0, -1629549.9, -5228.991, 0.026694864, -0.041479, -1551957.6, 66344.76, 0.0, 10.006311, 9.996073 
2.550937e+2, 1.4486215e+2, -1465319.8, -1547799.4, -9944.178, 0.023732655, -0.050031602, -1464137.8, 56208.496, 0.0, 10.006036, 9.995104 
2.5509408e+2, 1.548572e+2, -1371505.4, -1451892.8, -10314.095, 0.022346968, -0.055462696, -1370203.1, 52191.36, 0.0, 10.0057535, 9.995099 
2.5509405e+2, 1.6485193e+2, -1283519.4, -1367104.5, -13822.218, 0.018969445, -0.05489995, -1281293.0, 43153.21, 0.0, 10.005434, 9.994356 
2.5509354e+2, 1.7484637e+2, -1190789.9, -1271655.4, -14025.922, 0.013482239, -0.048913646, -1188426.3, 38074.88, 0.0, 10.005074, 9.994357 
2.5509265e+2, 1.848401e+2, -1108039.6, -1196560.8, -17664.684, 0.0100747105, -0.04073065, -1104644.8, 23918.064, 0.0, 10.004704, 9.992977 
2.5509128e+2, 1.9483317e+2, -1015630.75, -1101358.8, -18215.768, 0.008900041, -0.031094639, -1011920.75, 18710.6, 0.0, 10.004325, 9.992969 
2.5508973e+2, 2.0482582e+2, -927871.75, -1015842.6, -20064.324, 0.006774897, -0.030544728, -923511.6, 9192.035, 0.0, 10.00395, 9.992297 
2.550879e+2, 2.1481803e+2, -835240.7, -920381.7, -19657.975, 0.0036406182, -0.040536292, -830921.06, 3858.5874, 0.0, 10.003579, 9.992302 
2.5508606e+2, 2.2480974e+2, -750258.06, -840829.8, -19687.73, 0.0009701573, -0.044204537, -746163.6, -9303.122, 0.0, 10.003212, 9.991218 
2.550842e+2, 2.34801e+2, -657527.6, -745380.56, -19794.947, -0.0012175867, -0.042077184, -653273.5, -14327.416, 0.0, 10.002849, 9.991216 
2.5508237e+2, 2.447916e+2, -573386.7, -667370.75, -19165.406, -0.0043613715, -0.043748315, -569628.7, -28590.846, 0.0, 10.002471, 9.990029 
2.5508064e+2, 2.5478154e+2, -481081.9, -572103.2, -18890.08, -0.008539382, -0.050429855, -477317.25, -34181.313, 0.0, 10.002077, 9.990027 
2.550792e+2, 2.6477116e+2, -395061.97, -489392.16, -16200.402, -0.008682908, -0.05229518, -392357.25, -47119.258, 0.0, 10.001662, 9.989178 
2.5507817e+2, 2.7476034e+2, -303266.25, -394194.25, -15536.69, -0.004424047, -0.050053615, -300684.8, -53341.055, 0.0, 10.0012245, 9.98919 
2.550776e+2, 2.84749e+2, -218864.55, -315711.78, -10882.859, -0.003157356, -0.046273954, -217656.69, -68201.445, 0.0, 10.000845, 9.988031 
2.5507757e+2, 2.947371e+2, -125272.11, -219655.97, -10402.83, -0.005179349, -0.042057592, -124139.125, -72566.75, 0.0, 10.00053, 9.988043 
2.550782e+2, 3.0472824e+2, -36697.47, -82129.51, -4814.04, -0.007248843, -0.03971924, -36192.97, -36192.97, 0.0, 10.000255, 9.994239 
2.5507954e+2, 3.147225e+2, -39873.348, -83348.29, -4192.7715, -0.0093574785, -0.04078515, -39472.684, -39472.684, 0.0, 10.000023, 9.9942665 
2.6509812e+2, 1.2486805e+2, -1636749.5, -1722380.4, -3127.542, 0.030981334, -0.04037246, -1636635.4, 79653.61, 0.0, 10.007296, 9.995943 
2.6509938e+2, 1.34864e+2, -1543933.6, -1627163.3, -4133.73, 0.028291367, -0.039027262, -1543728.9, 74599.69, 0.0, 10.006955, 9.995922 
2.651e+2, 1.4485939e+2, -1457673.5, -1544866.3, -9257.969, 0.024598302, -0.046864226, -1456701.4, 63672.055, 0.0, 10.006591, 9.995033 
2.6510006e+2, 1.5485436e+2, -1365427.5, -1449717.3, -9436.03, 0.02344828, -0.055307552, -1364384.1, 58038.438, 0.0, 10.006202, 9.995029 
2.6509967e+2, 1.64849e+2, -1279117.1, -1365872.6, -13246.212, 0.020424193, -0.054715637, -1277139.8, 47335.23, 0.0, 10.005773, 9.994275 
2.6509875e+2, 1.7484339e+2, -1188012.6, -1271219.9, -13668.516, 0.015416501, -0.045467798, -1185824.8, 40705.668, 0.0, 10.005302, 9.994276 
2.6509744e+2, 1.8483706e+2, -1106012.4, -1196409.1, -17034.316, 0.011325146, -0.03772985, -1102909.0, 25683.957, 0.0, 10.004879, 9.992903 
2.650957e+2, 1.9483e+2, -1013536.44, -1101178.9, -17089.373, 0.008225582, -0.03249272, -1010322.06, 20340.486, 0.0, 10.004504, 9.992894 
2.650937e+2, 2.0482261e+2, -925340.94, -1014157.75, -19023.432, 0.004991426, -0.03239729, -921437.9, 11297.229, 0.0, 10.004103, 9.992338 
2.6509148e+2, 2.148149e+2, -833564.1, -919090.3, -19135.563, 0.001619974, -0.038630676, -829478.0, 5332.364, 0.0, 10.003673, 9.992344 
2.6508924e+2, 2.2480665e+2, -750563.75, -840910.75, -19515.533, -0.00015850605, -0.041038487, -746528.5, -9637.694, 0.0, 10.003188, 9.991223 
2.6508695e+2, 2.347979e+2, -660483.4, -746757.7, -19389.688, -0.00023152893, -0.040331423, -656326.0, -17349.504, 0.0, 10.002645, 9.99122 
2.650847e+2, 2.4478853e+2, -577530.56, -668457.75, -18480.316, -0.0025081213, -0.043749027, -573918.06, -32850.08, 0.0, 10.002148, 9.990111 
2.650825e+2, 2.5477856e+2, -485965.5, -573532.9, -18139.521, -0.0071764523, -0.052539047, -482356.66, -39191.242, 0.0, 10.001702, 9.99011 
2.650807e+2, 2.6476824e+2, -399904.34, -490486.78, -15634.43, -0.008342947, -0.05336099, -397281.8, -52015.4, 0.0, 10.001277, 9.989288 
2.650792e+2, 2.7475762e+2, -307617.44, -395046.34, -15422.177, -0.005683311, -0.046626057, -304976.78, -57606.04, 0.0, 10.000873, 9.989302 
2.6507822e+2, 2.847464e+2, -223415.64, -316352.9, -10697.908, -0.004961704, -0.042670608, -222200.11, -72719.1, 0.0, 10.000466, 9.988171 
2.6507786e+2, 2.9473457e+2, -131180.22, -220947.5, -10024.898, -0.0063756346, -0.043040194, -130074.305, -78477.164, 0.0, 10.000057, 9.988182 
2.6507816e+2, 3.0472583e+2, -44141.32, -84702.9, -4187.74, -0.007814283, -0.040465705, -43713.477, -43713.477, 0.0, 9.9997, 9.994329 
2.6507926e+2, 3.1472024e+2, -48352.547, -86438.36, -3987.5889, -0.0092598805, -0.03591759, -47939.527, -47939.527, 0.0, 9.999398, 9.994355 
2.7510545e+2, 1.2486586e+2, -1638465.8, -1726004.5, -4371.427, 0.03296453, -0.046756286, -1638248.0, 78062.445, 0.0, 10.0073, 9.995695 
2.7510634e+2, 1.3486162e+2, -1545667.6, -1630814.6, -5384.3213, 0.029989345, -0.03889354, -1545328.5, 73023.44, 0.0, 10.006959, 9.995672 
2.7510664e+2, 1.4485689e+2, -1457959.6, -1545531.4, -10692.74, 0.026508056, -0.044393975, -1456672.9, 63725.227, 0.0, 10.006595, 9.994987 
2.751063e+2, 1.5485178e+2, -1365703.5, -1450351.6, -10875.296, 0.026356556, -0.05449635, -1364328.6, 58119.23, 0.0, 10.006205, 9.994985 
2.7510548e+2, 1.6484638e+2, -1279852.6, -1367446.5, -14991.063, 0.023373358, -0.052686375, -1277358.0, 47142.863, 0.0, 10.005775, 9.994167 
2.7510408e+2, 1.7484069e+2, -1188760.6, -1272816.5, -15417.702, 0.017392537, -0.039154585, -1186021.9, 40535.258, 0.0, 10.005305, 9.994166 
2.7510232e+2, 1.8483427e+2, -1106064.4, -1196555.8, -18425.715, 0.012030295, -0.033536624, -1102456.4, 26164.021, 0.0, 10.004881, 9.992891 
2.751002e+2, 1.9482712e+2, -1013597.6, -1101318.3, -18470.617, 0.0073371273, -0.037271246, -1009867.06, 20823.707, 0.0, 10.004505, 9.992884 
2.7509782e+2, 2.0481972e+2, -925522.1, -1014524.9, -20614.113, 0.003678262, -0.03725828, -920979.5, 11783.957, 0.0, 10.004103, 9.992313 
2.750952e+2, 2.1481207e+2, -833756.94, -919467.5, -20733.443, 0.0011364899, -0.034027655, -829004.94, 5833.2593, 0.0, 10.003672, 9.992319 
2.7509242e+2, 2.2480386e+2, -750327.25, -840399.5, -21533.979, 0.00036762524, -0.033932302, -745443.8, -8525.385, 0.0, 10.003187, 9.99126 
2.750896e+2, 2.347951e+2, -660235.94, -746232.75, -21415.277, 0.0015057907, -0.03824283, -655198.1, -16193.988, 0.0, 10.002644, 9.991257 
2.7508688e+2, 2.4478576e+2, -576900.44, -667134.56, -20142.69, 0.0002623789, -0.045030996, -572608.2, -31512.887, 0.0, 10.002147, 9.990202 
2.7508426e+2, 2.5477585e+2, -485343.25, -572205.06, -19794.973, -0.0035709671, -0.055398583, -481044.88, -37852.99, 0.0, 10.0017, 9.990202 
2.75082e+2, 2.6476562e+2, -399559.03, -489718.9, -17138.445, -0.006540941, -0.054955397, -396411.1, -51119.008, 0.0, 10.001274, 9.989342 
2.7508005e+2, 2.747551e+2, -307285.0, -394298.84, -16924.838, -0.008570017, -0.043845143, -304108.94, -56713.297, 0.0, 10.00087, 9.989354 
2.7507865e+2, 2.84744e+2, -222322.13, -314012.8, -12216.052, -0.009398077, -0.038761184, -220722.47, -71217.69, 0.0, 10.0004635, 9.988332 
2.7507788e+2, 2.947323e+2, -130084.56, -218580.4, -11543.083, -0.008902045, -0.04159709, -128603.7, -76984.27, 0.0, 10.000053, 9.988346 
2.7507785e+2, 3.0472365e+2, -43956.566, -84204.27, -5306.8604, -0.008680334, -0.0400115, -43268.59, -43268.59, 0.0, 9.999695, 9.994366 
2.7507865e+2, 3.147181e+2, -48211.77, -86004.96, -5089.2617, -0.008744143, -0.03475845, -47538.44, -47538.44, 0.0, 9.9993925, 9.994388 
2.8511316e+2, 1.2486424e+2, -1628462.3, -1723985.5, -2076.7827, 0.035705805, -0.04653744, -1628417.1, 87909.195, 0.0, 10.008104, 9.9954405 
2.851137e+2, 1.3485974e+2, -1537133.9, -1629535.8, -3147.9846, 0.031892482, -0.03887372, -1537026.8, 81343.695, 0.0, 10.007665, 9.995416 
2.8511354e+2, 1.4485484e+2, -1449656.9, -1542607.8, -8829.009, 0.027633393, -0.04392366, -1448825.6, 71592.75, 0.0, 10.007208, 9.994886 
2.851128e+2, 1.5484965e+2, -1358637.6, -1448014.4, -9406.69, 0.02702047, -0.052602798, -1357658.3, 64810.637, 0.0, 10.006734, 9.994886 
2.851115e+2, 1.6484414e+2, -1274017.4, -1366006.6, -14029.977, 0.023522103, -0.049640585, -1271925.1, 52597.813, 0.0, 10.006234, 9.994042 
2.8510958e+2, 1.7483833e+2, -1183757.1, -1271793.3, -14576.024, 0.016968837, -0.035230417, -1181406.6, 45173.863, 0.0, 10.005708, 9.9940405 
2.8510737e+2, 1.8483186e+2, -1101397.1, -1193943.6, -17307.152, 0.011577766, -0.030536616, -1098266.4, 30377.87, 0.0, 10.005184, 9.992922 
2.851048e+2, 1.9482473e+2, -1011033.94, -1099705.1, -17037.672, 0.0074303863, -0.03714392, -1007872.94, 22841.514, 0.0, 10.004664, 9.992917 
2.8510195e+2, 2.048173e+2, -925478.06, -1015338.1, -19313.006, 0.004196194, -0.03743171, -921503.06, 11284.23, 0.0, 10.004142, 9.992239 
2.8509882e+2, 2.148096e+2, -835100.8, -920978.25, -19810.006, 0.0019534542, -0.03171422, -830751.4, 4111.2813, 0.0, 10.003617, 9.992242 
2.8509557e+2, 2.2480138e+2, -751336.3, -840263.8, -20939.67, 0.0004990762, -0.030919224, -746652.4, -9709.407, 0.0, 10.003091, 9.991315 
2.850922e+2, 2.3479265e+2, -661001.2, -745953.56, -20665.084, -0.0001009697, -0.036484674, -656241.0, -17212.842, 0.0, 10.002563, 9.991314 
2.8508896e+2, 2.4478337e+2, -578192.8, -666812.2, -19225.65, -0.001236742, -0.04423003, -574201.6, -33082.906, 0.0, 10.002018, 9.990286 
2.8508586e+2, 2.5477356e+2, -488375.1, -572722.3, -18926.643, -0.0029659509, -0.055222332, -484322.84, -41108.383, 0.0, 10.001452, 9.990287 
2.850831e+2, 2.6476336e+2, -404209.56, -491698.8, -16101.116, -0.0055335723, -0.054750774, -401340.5, -56026.387, 0.0, 10.000944, 9.989366 
2.8508073e+2, 2.7475286e+2, -312534.28, -396586.3, -16103.47, -0.009028568, -0.042893168, -309554.66, -62137.227, 0.0, 10.0005, 9.989377 
2.8507888e+2, 2.8474188e+2, -227617.16, -314699.34, -11635.018, -0.010429651, -0.03723134, -226089.4, -76563.8, 0.0, 10.00002, 9.988499 
2.8507763e+2, 2.9473037e+2, -136949.63, -219985.45, -10921.206, -0.009515965, -0.039692514, -135537.23, -83898.76, 0.0, 9.999501, 9.988516 
2.850772e+2, 3.0472186e+2, -52582.813, -86743.09, -3878.6418, -0.008911843, -0.03977437, -52147.957, -52147.957, 0.0, 9.999033, 9.994511 
2.8507766e+2, 3.1471643e+2, -58427.984, -89323.75, -2835.0347, -0.0086367, -0.03842779, -58169.992, -58169.992, 0.0, 9.998622, 9.994532 
2.951213e+2, 1.24863185e+2, -1630249.3, -1727789.1, -3702.6855, 0.03916225, -0.040023413, -1630109.0, 86227.945, 0.0, 10.008111, 9.995179 
2.9512137e+2, 1.3485835e+2, -1538941.8, -1633369.5, -4775.279, 0.033990867, -0.038955316, -1538700.9, 79683.375, 0.0, 10.00767, 9.995152 
2.9512075e+2, 1.4485322e+2, -1450670.3, -1544796.1, -10582.086, 0.028007453, -0.04536663, -1449495.3, 70939.12, 0.0, 10.007213, 9.994736 
2.951195e+2, 1.5484793e+2, -1359648.1, -1450187.4, -11158.613, 0.025534883, -0.049672004, -1358293.1, 64192.77, 0.0, 10.006739, 9.994737 
2.9511768e+2, 1.6484228e+2, -1274971.5, -1368048.9, -15976.057, 0.020987798, -0.045617774, -1272305.6, 52235.715, 0.0, 10.006238, 9.993902 
2.9511526e+2, 1.7483632e+2, -1184723.6, -1273841.9, -16521.475, 0.014245174, -0.03359274, -1181759.4, 44841.11, 0.0, 10.00571, 9.9939 
2.9511252e+2, 1.8482982e+2, -1100873.1, -1192901.6, -19230.957, 0.010013481, -0.028684312, -1097016.1, 31648.453, 0.0, 10.005186, 9.992992 
2.9510948e+2, 1.9482277e+2, -1010496.75, -1098618.1, -18968.193, 0.008464096, -0.032311402, -1006587.3, 24146.4, 0.0, 10.004665, 9.9929905 
2.951061e+2, 2.0481533e+2, -926338.06, -1017123.4, -21262.805, 0.0064724805, -0.03309441, -921604.9, 11201.915, 0.0, 10.004143, 9.992117 
2.9510245e+2, 2.1480747e+2, -835991.06, -922822.06, -21751.459, 0.004019401, -0.03159824, -830847.0, 4036.8357, 0.0, 10.003617, 9.992116 
2.9509866e+2, 2.2479922e+2, -750801.4, -839160.0, -22890.133, 0.00024989943, -0.031852644, -745223.56, -8259.099, 0.0, 10.003091, 9.99139 
2.950947e+2, 2.3479058e+2, -660441.7, -744796.0, -22621.432, -0.004933679, -0.035050306, -654758.2, -15709.512, 0.0, 10.002563, 9.991393 
2.950909e+2, 2.4478139e+2, -577641.94, -665664.06, -21326.455, -0.0068623885, -0.041420773, -572747.06, -31608.746, 0.0, 10.002018, 9.990365 
2.9508728e+2, 2.5477165e+2, -487836.72, -571586.4, -21033.512, -0.005264426, -0.05211432, -482851.03, -39617.79, 0.0, 10.0014515, 9.990365 
2.9508406e+2, 2.647615e+2, -404270.34, -491780.2, -17761.256, -0.005299855, -0.05280553, -400802.88, -55470.273, 0.0, 10.000942, 9.989361 
2.9508123e+2, 2.7475098e+2, -312631.88, -396711.56, -17748.705, -0.0071415734, -0.043711796, -309038.78, -61602.55, 0.0, 10.000496, 9.989369 
2.9507893e+2, 2.8474006e+2, -226467.45, -312215.84, -13550.584, -0.008165197, -0.038010605, -224377.05, -74833.42, 0.0, 10.000015, 9.98867 
2.9507715e+2, 2.9472873e+2, -135777.94, -217443.88, -12846.508, -0.008279335, -0.037345413, -133804.78, -82150.336, 0.0, 9.999496, 9.988692 
2.9507625e+2, 3.0472043e+2, -50913.234, -83147.24, -5405.247, -0.008533674, -0.039749082, -50030.99, -50030.99, 0.0, 9.999028, 9.99476 
2.9507625e+2, 3.1471515e+2, -56767.02, -85715.766, -4349.2417, -0.008937188, -0.04678421, -56127.71, -56127.71, 0.0, 9.998615, 9.994782 
3.051299e+2, 1.2486253e+2, -1618307.0, -1724108.1, -2635.5623, 0.040348522, -0.03297704, -1618241.4, 98102.39, 0.0, 10.009016, 9.994988 
3.0512947e+2, 1.3485746e+2, -1528605.5, -1630487.4, -3207.9897, 0.03493531, -0.036083493, -1528504.6, 89888.625, 0.0, 10.008468, 9.994961 
3.0512834e+2, 1.4485216e+2, -1441384.9, -1541859.5, -8803.685, 0.028568445, -0.043496445, -1440619.3, 79825.8, 0.0, 10.007914, 9.994594 
3.0512655e+2, 1.5484676e+2, -1351584.6, -1447841.9, -9317.488, 0.025779285, -0.045312706, -1350691.0, 71806.9, 0.0, 10.007356, 9.9945965 
3.0512416e+2, 1.6484097e+2, -1268183.5, -1366060.0, -14274.756, 0.02128325, -0.0416388, -1266144.1, 58410.492, 0.0, 10.006757, 9.993785 
3.0512118e+2, 1.7483485e+2, -1179614.9, -1272667.0, -14650.621, 0.014982931, -0.03303402, -1177362.6, 49252.418, 0.0, 10.006115, 9.993783 
3.0511785e+2, 1.8482828e+2, -1096705.1, -1191157.5, -17564.67, 0.01081386, -0.027608152, -1093544.5, 35135.293, 0.0, 10.005482, 9.992968 
3.0511424e+2, 1.9482127e+2, -1007820.75, -1097581.4, -18008.95, 0.008922603, -0.026506266, -1004342.3, 26406.445, 0.0, 10.004859, 9.992967 
3.0511034e+2, 2.048138e+2, -924764.75, -1016533.0, -20209.506, 0.0066314545, -0.027475994, -920511.3, 12310.8, 0.0, 10.004257, 9.992102 
3.051061e+2, 2.1480586e+2, -835210.2, -922619.2, -19890.713, 0.003920022, -0.031462006, -830896.75, 4002.9297, 0.0, 10.003678, 9.992101 
3.0510175e+2, 2.2479759e+2, -750507.8, -838900.0, -20828.373, -0.00018332554, -0.033227295, -745845.8, -8865.328, 0.0, 10.003106, 9.9914 
3.0509725e+2, 2.3478898e+2, -660689.06, -744794.8, -21059.11, -0.005781036, -0.03363721, -655710.75, -16646.365, 0.0, 10.002542, 9.991404 
3.0509287e+2, 2.4477986e+2, -578542.94, -665649.0, -20384.354, -0.0077058827, -0.0379486, -574008.7, -32855.14, 0.0, 10.001936, 9.990405 
3.0508864e+2, 2.5477016e+2, -489946.72, -572153.7, -20373.676, -0.0056429715, -0.047382366, -485174.47, -41926.473, 0.0, 10.001287, 9.990405 
3.0508482e+2, 2.6476008e+2, -408065.84, -492809.6, -16711.838, -0.0049696798, -0.049369905, -404889.28, -59542.38, 0.0, 10.000648, 9.989433 
3.0508152e+2, 2.7474958e+2, -319097.47, -399026.13, -16110.883, -0.0058423458, -0.044367246, -315972.25, -68522.11, 0.0, 10.000018, 9.989442 
3.0507866e+2, 2.8473875e+2, -234271.39, -314419.56, -11768.072, -0.0067269662, -0.039469108, -232579.22, -83022.67, 0.0, 9.9994135, 9.988811 
3.0507633e+2, 2.947276e+2, -144436.64, -220041.4, -11326.4, -0.0076225665, -0.035972275, -142776.28, -91110.52, 0.0, 9.998835, 9.988833 
3.050749e+2, 3.047195e+2, -60059.543, -84426.22, -3678.8977, -0.008451331, -0.0379501, -59516.215, -59516.215, 0.0, 9.998265, 9.995039 
3.0507442e+2, 3.147145e+2, -68031.85, -87976.87, -2380.3765, -0.009201021, -0.04726312, -67751.7, -67751.7, 0.0, 9.997706, 9.995065 
3.1513888e+2, 1.2486226e+2, -1619106.5, -1725898.5, -4644.8037, 0.03936469, -0.025466742, -1618904.9, 97441.984, 0.0, 10.009023, 9.9948635 
3.1513792e+2, 1.3485706e+2, -1529430.4, -1632292.3, -5232.0947, 0.034781378, -0.030398631, -1529165.0, 89232.72, 0.0, 10.008472, 9.994836 
3.1513625e+2, 1.4485162e+2, -1442285.5, -1543785.6, -10865.722, 0.029308671, -0.038465556, -1441135.4, 79315.445, 0.0, 10.007917, 9.994461 
3.1513393e+2, 1.5484609e+2, -1352503.3, -1449775.9, -11377.93, 0.02767265, -0.039590485, -1351190.0, 71314.77, 0.0, 10.007359, 9.994464 
3.1513098e+2, 1.6484018e+2, -1268839.5, -1367443.1, -16646.691, 0.024277238, -0.03769973, -1266104.9, 58457.85, 0.0, 10.006759, 9.99369 
3.151273e+2, 1.7483391e+2, -1180261.3, -1274039.3, -17022.402, 0.019023858, -0.033501316, -1177267.0, 49357.5, 0.0, 10.006117, 9.993689 
3.1512338e+2, 1.8482724e+2, -1097500.8, -1192842.3, -19866.316, 0.013874106, -0.027270526, -1093526.9, 35163.418, 0.0, 10.005485, 9.992851 
3.151191e+2, 1.9482018e+2, -1008619.25, -1099274.0, -20311.205, 0.008831509, -0.019770019, -1004276.56, 26483.303, 0.0, 10.004861, 9.99285 
3.1511456e+2, 2.0481268e+2, -924129.6, -1015255.2, -22352.62, 0.004760928, -0.020630123, -918942.0, 13891.299, 0.0, 10.004259, 9.9921875 
3.1510976e+2, 2.1480478e+2, -834565.4, -921296.25, -22034.197, 0.0017410206, -0.03130595, -829288.56, 5621.8784, 0.0, 10.003679, 9.99219 
3.1510487e+2, 2.247965e+2, -750885.2, -839662.06, -22921.482, -0.0007976197, -0.03502471, -745316.3, -8325.129, 0.0, 10.003105, 9.991348 
3.1509984e+2, 2.3478788e+2, -661107.2, -745612.75, -23149.398, -0.0027968907, -0.032244027, -655181.2, -16105.796, 0.0, 10.00254, 9.991349 
3.1509486e+2, 2.4477875e+2, -578554.94, -665617.7, -22785.049, -0.0039406605, -0.033837806, -572952.4, -31787.75, 0.0, 10.001934, 9.990408 
3.1508997e+2, 2.547691e+2, -489947.47, -572107.7, -22781.887, -0.004169396, -0.04108356, -484053.22, -40794.32, 0.0, 10.001286, 9.990409 
3.150855e+2, 2.6475903e+2, -407066.2, -490690.5, -19048.064, -0.0045493613, -0.04449425, -402931.78, -57574.61, 0.0, 10.000647, 9.989578 
3.150815e+2, 2.7474862e+2, -318083.47, -396866.94, -18447.602, -0.0051157735, -0.044866975, -313977.84, -66518.5, 0.0, 10.000016, 9.989591 
3.1507805e+2, 2.847379e+2, -233552.67, -312858.56, -13918.683, -0.0060942406, -0.04158722, -231180.8, -81616.195, 0.0, 9.999411, 9.988918 
3.1507516e+2, 2.9472694e+2, -143739.36, -218507.06, -13474.647, -0.0075339023, -0.03554353, -141385.08, -89712.46, 0.0, 9.998831, 9.98894 
3.1507316e+2, 3.0471906e+2, -57958.516, -79956.01, -5756.1543, -0.008663853, -0.034432355, -56543.33, -56543.33, 0.0, 9.998261, 9.995348 
3.1507215e+2, 3.1471437e+2, -65909.09, -83434.66, -4463.8135, -0.009442298, -0.040096052, -64837.65, -64837.65, 0.0, 9.997701, 9.995379 
3.2514837e+2, 1.24862626e+2, -1606710.4, -1721799.9, -2174.855, 0.040700182, -0.021378705, -1606669.3, 109674.47, 0.0, 10.009951, 9.99469 
3.251468e+2, 1.3485725e+2, -1519560.4, -1629434.3, -3134.0132, 0.036408946, -0.026227884, -1519471.1, 98925.15, 0.0, 10.009229, 9.994661 
3.2514447e+2, 1.4485165e+2, -1434446.9, -1541470.1, -8937.07, 0.030974094, -0.033849668, -1433705.8, 86745.06, 0.0, 10.008516, 9.994328 
3.2514155e+2, 1.54846e+2, -1346770.6, -1448479.6, -9454.4795, 0.029270716, -0.03407584, -1345899.3, 76606.81, 0.0, 10.007813, 9.99433 
3.2513794e+2, 1.6483998e+2, -1263780.6, -1365596.5, -14659.761, 0.026082871, -0.032943655, -1261711.9, 62853.145, 0.0, 10.00713, 9.993635 
3.2513362e+2, 1.7483366e+2, -1175501.1, -1272330.5, -14742.881, 0.021331573, -0.03126992, -1173306.3, 53321.168, 0.0, 10.006468, 9.993634 
3.2512903e+2, 1.8482688e+2, -1093757.0, -1192567.3, -17478.4, 0.015817415, -0.025843097, -1090756.4, 37937.695, 0.0, 10.005806, 9.992714 
3.2512408e+2, 1.9481967e+2, -1005437.9, -1099294.6, -18091.496, 0.009477869, -0.017281776, -1002071.4, 28693.65, 0.0, 10.005146, 9.99271 
3.2511893e+2, 2.0481215e+2, -920795.5, -1013108.44, -20367.328, 0.0045607775, -0.017435016, -916501.5, 16337.375, 0.0, 10.004463, 9.992234 
3.2511348e+2, 2.1480429e+2, -833054.0, -919995.8, -20335.994, 0.0011773938, -0.027824929, -828532.5, 6382.9834, 0.0, 10.003757, 9.992241 
3.2510793e+2, 2.2479604e+2, -751989.2, -840486.44, -21287.143, -0.00040881961, -0.031697508, -747135.0, -10138.933, 0.0, 10.003042, 9.9913225 
3.2510227e+2, 2.3478739e+2, -664542.2, -747588.44, -21316.426, -0.00002274169, -0.02952015, -659390.25, -20309.586, 0.0, 10.002317, 9.991321 
3.2509667e+2, 2.4477823e+2, -582866.06, -667567.06, -20814.031, -0.0007597865, -0.031513833, -578027.7, -36857.68, 0.0, 10.001633, 9.99042 
3.250911e+2, 2.5476858e+2, -494154.6, -573999.94, -20747.203, -0.0027417273, -0.038945176, -489085.44, -45821.273, 0.0, 10.000991, 9.990421 
3.25086e+2, 2.6475862e+2, -410803.94, -490995.78, -17082.32, -0.004471396, -0.042163324, -407316.72, -61955.016, 0.0, 10.000325, 9.989713 
3.2508132e+2, 2.7474836e+2, -322726.34, -397580.16, -16575.604, -0.0059426427, -0.04193518, -319220.1, -71757.65, 0.0, 9.999632, 9.989726 
3.2507724e+2, 2.8473774e+2, -239689.11, -314858.56, -12044.36, -0.0069510587, -0.038897704, -237806.4, -88239.766, 0.0, 9.998949, 9.989004 
3.2507372e+2, 2.9472682e+2, -151261.77, -221193.6, -11766.062, -0.0074661733, -0.03400835, -149335.19, -97661.18, 0.0, 9.998275, 9.989024 
3.2507107e+2, 3.047191e+2, -66523.06, -82193.8, -4638.697, -0.009173959, -0.030700367, -65252.914, -65252.914, 0.0, 9.997592, 9.995517 
3.250694e+2, 3.1471467e+2, -76405.91, -86576.914, -4408.8574, -0.012201151, -0.030462345, -74760.85, -74760.85, 0.0, 9.996898, 9.99555 
3.3515838e+2, 1.24863595e+2, -1608206.5, -1725001.1, -4811.4233, 0.044225346, -0.020536305, -1608008.6, 108325.94, 0.0, 10.009956, 9.99447 
3.3515602e+2, 1.3485801e+2, -1521061.5, -1632645.4, -5784.538, 0.039719038, -0.023491103, -1520762.5, 97626.6, 0.0, 10.009234, 9.994441 
3.35153e+2, 1.4485227e+2, -1435338.1, -1543425.6, -11521.057, 0.033511776, -0.029631112, -1434123.8, 86321.586, 0.0, 10.008522, 9.994192 
3.3514935e+2, 1.5484647e+2, -1347652.6, -1450416.6, -12041.507, 0.030585831, -0.028755795, -1346260.5, 76241.26, 0.0, 10.007819, 9.994196 
3.351451e+2, 1.648404e+2, -1263830.5, -1365809.4, -17102.8, 0.026759254, -0.027409144, -1261038.6, 63522.84, 0.0, 10.007134, 9.993618 
3.3514014e+2, 1.7483403e+2, -1175556.1, -1272531.6, -17189.342, 0.02199168, -0.026473075, -1172599.4, 54024.62, 0.0, 10.006472, 9.993619 
3.3513486e+2, 1.8482715e+2, -1094849.5, -1194881.4, -19918.066, 0.01669704, -0.023374109, -1091029.4, 37662.324, 0.0, 10.005809, 9.992555 
3.3512926e+2, 1.9481975e+2, -1006568.6, -1101659.6, -20523.29, 0.010826573, -0.018835725, -1002328.2, 28436.387, 0.0, 10.005148, 9.992549 
3.351234e+2, 2.0481215e+2, -920714.75, -1012960.94, -22970.105, 0.00595435, -0.017722325, -915311.5, 17527.611, 0.0, 10.004464, 9.992244 
3.3511725e+2, 2.1480438e+2, -832949.56, -919801.4, -22948.828, 0.0021571077, -0.021162521, -827258.7, 7656.276, 0.0, 10.003758, 9.992253 
3.35111e+2, 2.2479615e+2, -751984.25, -840495.75, -23972.438, 0.000939964, -0.023455791, -745908.6, -8913.24, 0.0, 10.003043, 9.991322 
3.351046e+2, 2.3478745e+2, -664546.3, -747610.4, -24001.545, 0.0025475335, -0.025516704, -658109.8, -19029.494, 0.0, 10.002318, 9.991319 
3.3509833e+2, 2.4477828e+2, -582718.8, -667260.1, -23191.818, 0.0018550167, -0.030909522, -576774.6, -35604.777, 0.0, 10.001633, 9.99044 
3.350921e+2, 2.547686e+2, -494021.75, -573698.6, -23116.975, -0.0013618361, -0.040821485, -487800.5, -44536.484, 0.0, 10.00099, 9.990442 
3.3508632e+2, 2.6475874e+2, -409966.75, -489216.84, -19642.838, -0.004728054, -0.042294513, -405365.25, -60004.535, 0.0, 10.000323, 9.989835 
3.3508095e+2, 2.7474865e+2, -321883.97, -395776.63, -19148.486, -0.00827874, -0.03568346, -317216.66, -69756.94, 0.0, 9.99963, 9.989851 
3.3507618e+2, 2.8473815e+2, -239280.45, -313940.53, -14547.415, -0.009259087, -0.031547777, -236546.05, -86983.13, 0.0, 9.998946, 9.989068 
3.3507198e+2, 2.9472724e+2, -150877.13, -220311.1, -14266.106, -0.0074251443, -0.03140086, -148060.25, -96390.1, 0.0, 9.998271, 9.989086 
3.3506867e+2, 3.047196e+2, -66353.75, -81745.85, -7206.6396, -0.009981172, -0.026761314, -63506.324, -63506.324, 0.0, 9.997588, 9.995549 
3.3506626e+2, 3.1471527e+2, -76250.81, -86145.11, -6979.7324, -0.017425729, -0.018419612, -72642.79, -72642.79, 0.0, 9.996893, 9.995583 
3.4516877e+2, 1.2486542e+2, -1597191.5, -1722088.1, -1541.9738, 0.045572504, -0.01820186, -1597172.5, 119144.56, 0.0, 10.010813, 9.99425 
3.4516567e+2, 1.3485962e+2, -1510947.6, -1630182.0, -2523.1174, 0.041186277, -0.020329533, -1510894.3, 107479.414, 0.0, 10.01003, 9.994221 
3.451619e+2, 1.4485367e+2, -1425739.1, -1540743.8, -8316.16, 0.034305647, -0.026568288, -1425141.0, 95290.87, 0.0, 10.009262, 9.994014 
3.4515753e+2, 1.548477e+2, -1338789.0, -1448090.8, -9145.743, 0.029975986, -0.026806796, -1338029.0, 84461.21, 0.0, 10.008509, 9.994019 
3.451525e+2, 1.6484149e+2, -1255400.4, -1362562.0, -14540.197, 0.026074598, -0.024270272, -1253462.5, 71088.47, 0.0, 10.007746, 9.993542 
3.4514686e+2, 1.748351e+2, -1168720.0, -1270047.1, -15055.162, 0.022644717, -0.019711511, -1166530.5, 60083.48, 0.0, 10.006974, 9.993544 
3.4514087e+2, 1.8482813e+2, -1089827.3, -1193317.0, -17759.014, 0.0181947, -0.017483054, -1086864.6, 41817.848, 0.0, 10.006189, 9.9924755 
3.4513456e+2, 1.9482058e+2, -1003543.75, -1101073.4, -17760.584, 0.012637473, -0.01861413, -1000410.2, 30346.375, 0.0, 10.005392, 9.99247 
3.4512797e+2, 2.0481291e+2, -918795.06, -1012676.4, -20108.838, 0.0072111185, -0.018167567, -914669.2, 18162.602, 0.0, 10.004623, 9.992186 
3.4512106e+2, 2.1480513e+2, -831491.06, -919739.3, -20597.402, 0.0019308687, -0.016882593, -826920.3, 7987.551, 0.0, 10.003885, 9.992195 
3.4511408e+2, 2.2479689e+2, -750576.8, -839546.44, -21906.857, -0.00008546698, -0.01779374, -745475.25, -8486.898, 0.0, 10.003127, 9.991344 
3.4510693e+2, 2.3478821e+2, -663936.5, -747034.3, -21740.832, 0.0014629515, -0.02210961, -658592.2, -19519.008, 0.0, 10.002348, 9.9913435 
3.4509993e+2, 2.4477905e+2, -583186.56, -666746.5, -20515.152, 0.001263214, -0.029163623, -578421.56, -37259.11, 0.0, 10.001569, 9.990506 
3.45093e+2, 2.5476944e+2, -496467.34, -574136.7, -20103.611, -0.0008631377, -0.04007968, -491572.3, -48316.31, 0.0, 10.000791, 9.990508 
3.450865e+2, 2.6475963e+2, -414274.06, -490892.56, -16865.34, -0.0043770727, -0.040466588, -410725.94, -65373.78, 0.0, 10.0000105, 9.98987 
3.4508035e+2, 2.7474964e+2, -327479.3, -398085.4, -17032.146, -0.00943406, -0.030472657, -323585.4, -76134.836, 0.0, 9.999229, 9.989885 
3.4507486e+2, 2.847392e+2, -245551.02, -315661.56, -12499.673, -0.010846467, -0.025297416, -243389.16, -93836.17, 0.0, 9.99846, 9.989184 
3.4506997e+2, 2.947284e+2, -158349.34, -222592.19, -11803.362, -0.008258262, -0.026719213, -156249.34, -104590.19, 0.0, 9.997702, 9.989203 
3.4506592e+2, 3.0472082e+2, -75187.7, -85385.92, -4444.274, -0.01155748, -0.02323208, -73522.76, -73522.76, 0.0, 9.996955, 9.9956045 
3.4506273e+2, 3.1471655e+2, -85702.22, -90105.19, -4063.3542, -0.02142459, -0.0155411195, -83282.3, -83282.3, 0.0, 9.996219, 9.995635 
3.5517958e+2, 1.2486805e+2, -1598645.3, -1725251.1, -4416.507, 0.04486949, -0.014487698, -1598491.4, 117800.15, 0.0, 10.01082, 9.994032 
3.5517573e+2, 1.3486205e+2, -1512418.9, -1633360.0, -5409.285, 0.040924065, -0.016760837, -1512177.4, 106172.9, 0.0, 10.010036, 9.994001 
3.5517117e+2, 1.4485586e+2, -1427218.0, -1543905.8, -11088.837, 0.033461876, -0.024583435, -1426173.5, 94237.18, 0.0, 10.009267, 9.993796 
3.5516602e+2, 1.5484962e+2, -1340295.9, -1451272.0, -11908.661, 0.027555792, -0.028026585, -1339032.4, 83439.14, 0.0, 10.0085125, 9.9938 
3.551602e+2, 1.6484328e+2, -1256309.3, -1364488.1, -17376.652, 0.024109816, -0.02338585, -1253586.5, 70947.37, 0.0, 10.007749, 9.993409 
3.5515383e+2, 1.7483681e+2, -1169625.6, -1271957.9, -17902.53, 0.023293989, -0.011087741, -1166584.0, 60013.516, 0.0, 10.006976, 9.993412 
3.5514706e+2, 1.8482979e+2, -1089814.4, -1193329.9, -20705.164, 0.020278126, -0.008347114, -1085826.5, 42840.164, 0.0, 10.006191, 9.992474 
3.5513994e+2, 1.9482218e+2, -1003517.6, -1101058.4, -20708.08, 0.014886041, -0.016704528, -999303.3, 31437.963, 0.0, 10.005394, 9.99247 
3.551326e+2, 2.0481442e+2, -919646.4, -1014456.94, -22834.451, 0.0083356025, -0.018757299, -914433.44, 18383.832, 0.0, 10.004624, 9.9920635 
3.5512495e+2, 2.1480653e+2, -832380.2, -921568.75, -23316.271, 0.00055268256, -0.014869261, -826652.5, 8241.943, 0.0, 10.003885, 9.99207 
3.5511714e+2, 2.2479826e+2, -750254.5, -838856.06, -24784.043, -0.0033825145, -0.014594755, -743793.0, -6817.794, 0.0, 10.003126, 9.991392 
3.5510924e+2, 2.3478962e+2, -663595.9, -746300.0, -24623.266, -0.0031288334, -0.019272313, -656820.0, -17760.426, 0.0, 10.002346, 9.991394 
3.5510144e+2, 2.4478056e+2, -582436.4, -665157.7, -23396.355, -0.0024142172, -0.026318643, -576277.6, -35129.63, 0.0, 10.001567, 9.990615 
3.5509378e+2, 2.5477108e+2, -495716.75, -572538.25, -22991.016, -0.0012158985, -0.0368131, -489361.75, -46121.285, 0.0, 10.000789, 9.990619 
3.5508648e+2, 2.647613e+2, -414640.44, -491597.3, -19764.19, -0.003442872, -0.036745008, -409861.34, -64525.04, 0.0, 10.000009, 9.989823 
3.550796e+2, 2.7475122e+2, -327882.3, -398855.06, -19927.695, -0.009450798, -0.026269272, -322669.84, -75234.56, 0.0, 9.999227, 9.989834 
3.550733e+2, 2.8474087e+2, -244419.55, -313237.3, -15305.768, -0.011739973, -0.02011361, -241168.94, -91631.86, 0.0, 9.998456, 9.989351 
3.5506767e+2, 2.9473025e+2, -157189.83, -220096.42, -14610.791, -0.009947444, -0.020023258, -153961.94, -102320.62, 0.0, 9.997698, 9.989376 
3.5506287e+2, 3.047228e+2, -74714.88, -84297.38, -7164.975, -0.013891585, -0.020106807, -70886.8, -70886.8, 0.0, 9.99695, 9.995681 
3.5505897e+2, 3.1471848e+2, -85267.67, -89070.26, -6778.511, -0.024246944, -0.021600489, -80128.86, -80128.86, 0.0, 9.996213, 9.995708 
3.651909e+2, 1.2487147e+2, -1585949.0, -1721502.5, -1933.3925, 0.044629708, -0.009557124, -1585921.4, 130337.07, 0.0, 10.01179, 9.9938135 
3.6518618e+2, 1.3486524e+2, -1501381.3, -1630431.5, -2936.1665, 0.041284297, -0.012054234, -1501314.5, 117004.82, 0.0, 10.010895, 9.993782 
3.6518082e+2, 1.4485885e+2, -1417616.6, -1540892.9, -8341.153, 0.034401022, -0.020808486, -1417054.9, 103326.77, 0.0, 10.009993, 9.993647 
3.6517483e+2, 1.5485246e+2, -1332935.1, -1449352.5, -8659.774, 0.029098516, -0.02613787, -1332294.5, 90149.54, 0.0, 10.009086, 9.993651 
3.651682e+2, 1.6484593e+2, -1251048.1, -1364236.5, -14054.261, 0.025921632, -0.021572113, -1249329.3, 75178.92, 0.0, 10.008206, 9.993202 
3.65161e+2, 1.7483927e+2, -1165481.3, -1272262.8, -15123.856, 0.025023894, -0.007410083, -1163380.5, 63193.188, 0.0, 10.007359, 9.993205 
3.6515343e+2, 1.8483217e+2, -1085047.8, -1190920.3, -18206.584, 0.021605134, -0.0039181495, -1082004.4, 46639.418, 0.0, 10.006512, 9.992481 
3.651455e+2, 1.9482456e+2, -999424.1, -1098938.0, -18125.867, 0.01546373, -0.012746112, -996225.4, 34492.84, 0.0, 10.005667, 9.99248 
3.651373e+2, 2.0481676e+2, -917596.6, -1014388.7, -20032.572, 0.00910746, -0.015292486, -913614.4, 19180.227, 0.0, 10.004804, 9.991981 
3.6512887e+2, 2.1480879e+2, -832448.25, -922554.6, -20223.623, 0.002526736, -0.011891102, -828117.4, 6755.322, 0.0, 10.0039215, 9.991984 
3.6512026e+2, 2.248005e+2, -751015.4, -838798.2, -21587.656, -0.0016039424, -0.012308041, -745993.75, -9039.992, 0.0, 10.003056, 9.991429 
3.651115e+2, 2.3479187e+2, -665325.06, -746687.1, -21501.24, -0.0030560007, -0.017908031, -659992.5, -20954.727, 0.0, 10.002208, 9.991433 
3.6510292e+2, 2.4478287e+2, -585104.75, -665832.3, -20516.963, -0.0030726192, -0.023874776, -580189.56, -39063.914, 0.0, 10.001357, 9.990669 
3.6509442e+2, 2.5477347e+2, -499493.8, -573748.4, -20515.852, -0.0015380286, -0.031114766, -494202.53, -50985.18, 0.0, 10.000503, 9.990673 
3.6508635e+2, 2.6476374e+2, -419694.78, -493503.0, -17195.799, -0.0036041432, -0.030973429, -415885.16, -70572.47, 0.0, 9.999639, 9.98987 
3.6507857e+2, 2.747537e+2, -334297.25, -401424.25, -16633.203, -0.009647673, -0.0239058, -330401.8, -82990.266, 0.0, 9.998764, 9.989881 
3.6507148e+2, 2.8474343e+2, -251362.08, -314842.1, -11573.579, -0.012458489, -0.018186688, -249317.83, -99805.46, 0.0, 9.997905, 9.989507 
3.65065e+2, 2.94733e+2, -165341.61, -222255.78, -10983.343, -0.011727743, -0.015262723, -163295.58, -111680.805, 0.0, 9.997063, 9.989533 
3.650594e+2, 3.0472568e+2, -84096.484, -86340.34, -3111.2256, -0.015244319, -0.016867507, -81911.08, -81911.08, 0.0, 9.9962, 9.995901 
3.6505473e+2, 3.1472152e+2, -96825.49, -92150.02, -1623.3013, -0.023513813, -0.024720162, -91641.695, -91641.695, 0.0, 9.995313, 9.995931 
3.7520266e+2, 1.2487564e+2, -1587472.4, -1724691.8, -5224.699, 0.044826016, -0.0035075026, -1587273.8, 128944.305, 0.0, 10.011793, 9.993595 
3.7519708e+2, 1.3486919e+2, -1502888.6, -1633615.3, -6232.9785, 0.04222576, -0.0062880656, -1502592.1, 115688.914, 0.0, 10.010899, 9.993564 
3.7519082e+2, 1.4486265e+2, -1418160.8, -1542103.6, -11682.432, 0.03700436, -0.0153610315, -1417069.3, 103275.555, 0.0, 10.009997, 9.993563 
3.7518397e+2, 1.5485618e+2, -1333477.0, -1450551.0, -12011.485, 0.034346383, -0.021332886, -1332257.4, 90150.61, 0.0, 10.009089, 9.993567 
3.751765e+2, 1.6484945e+2, -1252954.9, -1368249.3, -17183.5, 0.031268258, -0.018879037, -1250448.4, 74025.67, 0.0, 10.00821, 9.992928 
3.7516838e+2, 1.7484246e+2, -1167402.0, -1276319.1, -18233.443, 0.027765015, -0.008380447, -1164430.8, 62112.02, 0.0, 10.007362, 9.992927 
3.7515998e+2, 1.8483523e+2, -1084870.5, -1190633.9, -21304.521, 0.022216823, -0.003919903, -1080740.3, 47873.74, 0.0, 10.0065155, 9.992499 
3.7515116e+2, 1.948277e+2, -999242.44, -1098596.3, -21239.479, 0.014461124, -0.006841633, -994892.4, 35795.34, 0.0, 10.005669, 9.992502 
3.7514213e+2, 2.0481992e+2, -917924.3, -1015058.06, -23293.959, 0.009547483, -0.007979201, -912627.0, 20137.072, 0.0, 10.004804, 9.991935 
3.7513283e+2, 2.1481186e+2, -832809.2, -923259.7, -23486.832, 0.0076888795, -0.007992678, -827074.1, 7768.787, 0.0, 10.00392, 9.991938 
3.7512338e+2, 2.248035e+2, -750840.4, -838389.2, -24722.705, 0.0050122254, -0.010887752, -744341.44, -7417.1006, 0.0, 10.003054, 9.991458 
3.7511376e+2, 2.3479491e+2, -665132.3, -746256.94, -24632.85, 0.0014774622, -0.017949522, -658238.56, -19230.408, 0.0, 10.002207, 9.991463 
3.7510428e+2, 2.4478595e+2, -585101.25, -665797.56, -23677.99, -0.00083689234, -0.02180884, -578666.7, -37570.977, 0.0, 10.001356, 9.990672 
3.7509495e+2, 2.547766e+2, -499501.3, -573730.2, -23680.998, -0.0018375112, -0.023068422, -492589.94, -49403.016, 0.0, 10.000502, 9.990674 
3.7508595e+2, 2.6476693e+2, -418736.75, -491469.88, -20436.74, -0.004828687, -0.023223534, -413387.75, -68106.14, 0.0, 9.999637, 9.99001 
3.7507734e+2, 2.74757e+2, -333334.38, -399357.5, -19877.924, -0.010025189, -0.023331001, -327811.6, -80431.97, 0.0, 9.998761, 9.990023 
3.7506938e+2, 2.8474683e+2, -250397.78, -312754.72, -14698.335, -0.013018468, -0.019422952, -247106.88, -97627.695, 0.0, 9.997901, 9.989651 
3.7506208e+2, 2.947366e+2, -164388.67, -220179.0, -14107.987, -0.013606302, -0.012383178, -161024.03, -109444.2, 0.0, 9.997059, 9.989677 
3.750556e+2, 3.0472952e+2, -81617.96, -81087.14, -6396.0415, -0.01564667, -0.013517574, -74951.0, -74951.0, 0.0, 9.996195, 9.9962635 
3.7505007e+2, 3.147257e+2, -94315.99, -86822.484, -4919.3755, -0.019322876, -0.02497062, -84385.516, -84385.516, 0.0, 9.995308, 9.996298 
3.8521487e+2, 1.2488066e+2, -1578091.8, -1722033.6, -2400.622, 0.04768315, 0.0014366066, -1578051.8, 138117.47, 0.0, 10.012514, 9.993424 
3.8520837e+2, 1.3487399e+2, -1493692.1, -1631053.9, -3087.1482, 0.04424294, -0.004860748, -1493622.8, 124611.44, 0.0, 10.011607, 9.993392 
3.852012e+2, 1.448673e+2, -1409429.0, -1539514.9, -8760.784, 0.03838271, -0.0132540725, -1408841.6, 111457.94, 0.0, 10.010663, 9.993413 
3.8519335e+2, 1.5486072e+2, -1325851.4, -1448511.4, -9563.664, 0.035268206, -0.0145062925, -1325110.3, 97253.555, 0.0, 10.009681, 9.993418 
3.8518497e+2, 1.6485384e+2, -1245903.1, -1366301.8, -14139.6875, 0.031638164, -0.013212314, -1244264.9, 80166.445, 0.0, 10.008755, 9.992794 
3.8517603e+2, 1.7484666e+2, -1160620.3, -1274513.8, -14140.709, 0.027471125, -0.010082544, -1158890.9, 67611.02, 0.0, 10.007889, 9.992792 
3.8516667e+2, 1.848393e+2, -1079178.8, -1188949.9, -17372.162, 0.022088844, -0.005799345, -1076495.1, 52079.207, 0.0, 10.006949, 9.992401 
3.8515696e+2, 1.9483176e+2, -996060.25, -1098129.6, -18164.844, 0.01539042, -0.0012489018, -992923.94, 37724.496, 0.0, 10.005931, 9.992406 
3.8514698e+2, 2.0482391e+2, -916624.7, -1014683.0, -20681.943, 0.010991596, -0.0007100715, -912441.06, 20284.166, 0.0, 10.004902, 9.991911 
3.8513675e+2, 2.148158e+2, -833790.3, -923982.44, -20691.201, 0.0090773385, -0.005251721, -829270.06, 5534.579, 0.0, 10.003862, 9.991914 
3.8512638e+2, 2.2480746e+2, -752475.5, -838587.1, -21316.307, 0.0058913995, -0.009689001, -747487.75, -10601.707, 0.0, 10.002915, 9.991509 
3.851159e+2, 2.3479892e+2, -666764.5, -746442.2, -21040.121, 0.0013416307, -0.015070764, -661549.9, -22580.67, 0.0, 10.0020685, 9.991516 
3.8510555e+2, 2.4478999e+2, -587612.06, -667036.0, -20169.395, -0.0017969081, -0.018128248, -582783.6, -41727.22, 0.0, 10.001184, 9.990669 
3.850953e+2, 2.5478065e+2, -503020.3, -575472.3, -20213.402, -0.0034212556, -0.01953356, -497762.53, -54614.77, 0.0, 10.000261, 9.990669 
3.8508537e+2, 2.6477104e+2, -422714.88, -491583.75, -17153.693, -0.0061538825, -0.019853845, -418678.8, -73437.09, 0.0, 9.999286, 9.9901705 
3.8507584e+2, 2.7476123e+2, -339595.63, -400536.03, -16438.219, -0.010111927, -0.020178743, -335444.34, -88106.24, 0.0, 9.998252, 9.990187 
3.8506696e+2, 2.847513e+2, -258600.23, -314820.06, -10872.795, -0.012862054, -0.016994167, -256570.73, -107134.66, 0.0, 9.997257, 9.989819 
3.8505876e+2, 2.9474118e+2, -174194.94, -223021.38, -10097.053, -0.014305768, -0.011190617, -172189.31, -120654.1, 0.0, 9.9963045, 9.989845 
3.850514e+2, 3.0473435e+2, -91925.336, -83067.06, -2691.8848, -0.015855217, -0.010942511, -82313.195, -82313.195, 0.0, 9.995358, 9.99653 
3.8504496e+2, 3.1473082e+2, -105363.37, -89134.21, -1954.6864, -0.017524384, -0.018170107, -88902.1, -88902.1, 0.0, 9.99442, 9.996566 
3.952274e+2, 1.2488647e+2, -1578908.1, -1723867.8, -5700.088, 0.052978035, 0.005342044, -1578684.3, 137428.23, 0.0, 10.012521, 9.993296 
3.9522e+2, 1.348796e+2, -1494525.8, -1632899.0, -6399.193, 0.04724968, -0.007437145, -1494230.4, 123948.89, 0.0, 10.011613, 9.993263 
3.9521185e+2, 1.4487277e+2, -1410845.4, -1542546.3, -12359.28, 0.038622137, -0.014223711, -1409695.6, 110550.57, 0.0, 10.010669, 9.993204 
3.95203e+2, 1.5486607e+2, -1327279.9, -1451571.0, -13174.255, 0.03216775, -0.0057914415, -1325898.8, 96412.92, 0.0, 10.009686, 9.993206 
3.951937e+2, 1.6485909e+2, -1245840.3, -1366263.4, -17320.457, 0.027375555, -0.0047799237, -1243398.6, 80981.62, 0.0, 10.008759, 9.992794 
3.951839e+2, 1.748518e+2, -1160579.6, -1274464.1, -17318.984, 0.024345513, -0.012464834, -1158004.1, 68447.445, 0.0, 10.007891, 9.992794 
3.9517364e+2, 1.8484433e+2, -1080629.6, -1191945.3, -21120.271, 0.021271847, -0.009420736, -1076757.1, 51767.934, 0.0, 10.006949, 9.992197 
3.9516294e+2, 1.9483668e+2, -997539.3, -1101182.8, -21918.152, 0.01814008, 0.004062589, -993094.75, 37505.87, 0.0, 10.005931, 9.992197 
3.951519e+2, 2.0482874e+2, -916619.6, -1014693.75, -24516.586, 0.013376277, 0.0065188217, -910832.44, 21845.916, 0.0, 10.004903, 9.991909 
3.9514056e+2, 2.1482056e+2, -833739.4, -923936.3, -24529.254, 0.0068793995, -0.003605361, -827500.2, 7258.0044, 0.0, 10.003865, 9.991916 
3.9512923e+2, 2.2481225e+2, -751908.0, -837460.06, -24447.244, 0.0013089951, -0.008690522, -745414.8, -8575.58, 0.0, 10.002917, 9.991585 
3.951179e+2, 2.3480386e+2, -666229.3, -745321.1, -24168.553, -0.0032564104, -0.009393556, -659428.75, -20507.518, 0.0, 10.002068, 9.991591 
3.951067e+2, 2.4479493e+2, -587693.3, -667152.1, -23584.115, -0.00582321, -0.012901775, -581220.56, -40212.4, 0.0, 10.001183, 9.990662 
3.9509553e+2, 2.5478554e+2, -503125.53, -575621.3, -23628.488, -0.006243185, -0.020346353, -496104.34, -53004.195, 0.0, 10.000258, 9.990661 
3.9508465e+2, 2.6477602e+2, -421472.9, -488940.34, -20979.287, -0.00757956, -0.020705996, -415481.38, -70288.11, 0.0, 9.999283, 9.990352 
3.950741e+2, 2.7476645e+2, -338321.53, -397835.8, -20282.168, -0.009921372, -0.014516159, -332066.8, -84779.57, 0.0, 9.998249, 9.990372 
3.950642e+2, 2.847567e+2, -257278.78, -312020.2, -14421.953, -0.012015137, -0.011004939, -253711.67, -104328.33, 0.0, 9.997254, 9.990011 
3.9505506e+2, 2.947467e+2, -172885.13, -220233.84, -13644.185, -0.013859635, -0.011653192, -169234.78, -117753.53, 0.0, 9.996302, 9.990036 
3.9504674e+2, 3.0474007e+2, -90759.586, -80568.36, -6184.2715, -0.015886994, -0.00911625, -77650.83, -77650.83, 0.0, 9.995356, 9.996702 
3.9503938e+2, 3.1473687e+2, -104212.41, -86653.18, -5450.237, -0.018102188, -0.004431198, -85099.03, -85099.03, 0.0, 9.994416, 9.9967375 
4.0524042e+2, 1.2489333e+2, -1566368.4, -1719408.1, -1453.5802, 0.052061938, 0.005028867, -1566354.6, 149690.8, 0.0, 10.013446, 9.993147 
4.05232e+2, 1.3488635e+2, -1483697.0, -1629283.1, -2304.661, 0.048107322, -0.0053347074, -1483660.5, 134453.0, 0.0, 10.012422, 9.993114 
4.052229e+2, 1.4487933e+2, -1401931.0, -1540905.3, -8603.464, 0.040049903, -0.011073374, -1401400.4, 118781.734, 0.0, 10.011392, 9.992962 
4.0521306e+2, 1.5487237e+2, -1319151.5, -1450338.8, -9648.172, 0.032797385, -0.0034484249, -1318445.8, 103804.49, 0.0, 10.010357, 9.992963 
4.0520272e+2, 1.6486526e+2, -1237741.6, -1362451.9, -13768.396, 0.027832784, -0.0023639323, -1236239.6, 88080.32, 0.0, 10.0093155, 9.992782 
4.05192e+2, 1.7485799e+2, -1155110.5, -1271910.6, -13849.747, 0.02529455, -0.0090939095, -1153490.8, 72900.6, 0.0, 10.008267, 9.992784 
4.0518072e+2, 1.8485044e+2, -1077963.1, -1192349.6, -17840.828, 0.02245639, -0.0058065723, -1075245.1, 53220.492, 0.0, 10.007204, 9.9920435 
4.0516898e+2, 1.948426e+2, -995776.5, -1102059.9, -18254.12, 0.019301232, 0.0072023757, -992728.75, 37814.0, 0.0, 10.006125, 9.992041 
4.051569e+2, 2.048346e+2, -913676.44, -1013141.9, -20448.063, 0.0133457845, 0.008579634, -909636.8, 22984.521, 0.0, 10.005097, 9.991919 
4.0514457e+2, 2.148264e+2, -829827.9, -921892.75, -20372.7, 0.0043992964, -0.0032860443, -825521.1, 9180.025, 0.0, 10.004125, 9.991927 
4.0513223e+2, 2.2481811e+2, -749405.7, -836351.8, -20438.277, -0.0014055591, -0.0072216177, -744840.94, -8058.891, 0.0, 10.003091, 9.991574 
4.0511996e+2, 2.3480974e+2, -667361.25, -745983.4, -20786.904, -0.0038449902, -0.003662501, -662203.7, -23339.842, 0.0, 10.001994, 9.99158 
4.0510774e+2, 2.4480087e+2, -590832.4, -667486.7, -20182.906, -0.0054962356, -0.007326703, -585843.0, -44892.63, 0.0, 10.000916, 9.990766 
4.0509558e+2, 2.5479153e+2, -508206.28, -576871.6, -19370.709, -0.0062948666, -0.019705197, -503118.72, -60077.016, 0.0, 9.999857, 9.990767 
4.0508372e+2, 2.647821e+2, -427577.47, -490757.03, -16716.127, -0.008195919, -0.020945257, -423427.3, -78293.42, 0.0, 9.998815, 9.990452 
4.0507212e+2, 2.7477267e+2, -344337.53, -399614.8, -16650.059, -0.0112900445, -0.01122348, -339709.78, -92483.2, 0.0, 9.997787, 9.990471 
4.0506122e+2, 2.8476304e+2, -263448.34, -313180.44, -11104.164, -0.013695709, -0.00628407, -261081.64, -111760.305, 0.0, 9.996753, 9.990172 
4.0505102e+2, 2.9475322e+2, -180380.3, -222022.78, -10541.294, -0.0153797, -0.007821057, -177863.95, -126446.18, 0.0, 9.9957075, 9.990198 
4.0504175e+2, 3.0474678e+2, -99734.06, -83611.29, -3300.3723, -0.017315753, -0.004236051, -82961.85, -82961.85, 0.0, 9.994683, 9.996816 
4.0503338e+2, 3.147437e+2, -114132.89, -90170.11, -3009.2644, -0.019496841, 0.0036502045, -89797.984, -89797.984, 0.0, 9.99368, 9.99685 
4.152538e+2, 1.2490119e+2, -1567422.6, -1721794.5, -5184.196, 0.0455051, 0.00089798257, -1567248.6, 148719.8, 0.000000000000022943224, 10.013455, 9.992979 
4.1524446e+2, 1.3489415e+2, -1484794.0, -1631695.9, -6062.3066, 0.047006525, 0.0010866447, -1484544.3, 133493.03, 0.000000000000014916547, 10.012428, 9.992946 
4.1523433e+2, 1.4488691e+2, -1403806.8, -1544855.8, -12401.345, 0.04257108, -0.004141795, -1402724.6, 117383.37, 0.0000000000000080614396, 10.011395, 9.992691 
4.1522345e+2, 1.5487958e+2, -1321080.9, -1454338.1, -13426.38, 0.036868952, -0.006985846, -1319741.5, 102438.24, 0.0000000000000034333597, 10.010358, 9.992689 
4.152121e+2, 1.6487232e+2, -1237908.4, -1362792.9, -17598.258, 0.03265533, -0.005482992, -1235475.9, 88775.16, 0.0000000000000011039291, 10.0093155, 9.992758 
4.152003e+2, 1.7486514e+2, -1155260.6, -1272219.5, -17704.041, 0.03002456, -0.00035114225, -1152639.5, 73682.06, 0.00000000000000026134582, 10.008267, 9.992762 
4.1518795e+2, 1.8485755e+2, -1078687.3, -1193851.9, -21818.656, 0.02549708, 0.004546589, -1074692.1, 53704.113, 0.000000000000000045100147, 10.007204, 9.9919405 
4.1517508e+2, 1.9484952e+2, -996501.7, -1103581.6, -22226.615, 0.018964807, 0.008299686, -992071.4, 38403.9, 0.0000000000000000056573413, 10.006126, 9.991936 
4.15162e+2, 2.0484143e+2, -913516.9, -1012812.9, -24030.574, 0.011044346, 0.005792887, -908007.0, 24547.578, 0.0000000000000000005155827, 10.005097, 9.99194 
4.1514865e+2, 2.1483329e+2, -829700.3, -921566.7, -23954.994, 0.0016532232, -0.004206969, -823829.06, 10804.886, 0.000000000000000000034134984, 10.004122, 9.99195 
4.1513532e+2, 2.2482498e+2, -750103.25, -837704.4, -24487.053, -0.0023461403, -0.00529729, -743723.1, -7008.177, 0.0000000000000000000016419714, 10.003087, 9.991483 
4.1512197e+2, 2.3481654e+2, -668071.7, -747371.3, -24844.143, -0.0006090393, 0.002126834, -660931.1, -22133.69, 0.0, 10.00199, 9.991487 
4.151087e+2, 2.4480774e+2, -589362.9, -664376.75, -24099.87, -0.0010056832, -0.0014125038, -582287.56, -41404.16, 0.0, 10.000912, 9.990979 
4.1509545e+2, 2.5479856e+2, -506688.75, -573672.94, -23295.695, -0.0036887962, -0.017656881, -499383.66, -56410.867, 0.0, 9.999855, 9.990986 
4.150825e+2, 2.6478928e+2, -427449.1, -490442.22, -20534.822, -0.008040012, -0.020587536, -421346.28, -76282.37, 0.0, 9.998813, 9.990474 
4.1506985e+2, 2.747799e+2, -344241.88, -399370.5, -20467.158, -0.014184874, -0.01023102, -337474.06, -90317.56, 0.0, 9.997786, 9.990488 
4.1505793e+2, 2.847703e+2, -262547.06, -311258.28, -14987.178, -0.01784976, -0.0027843425, -258305.28, -109054.94, 0.0, 9.99675, 9.990304 
4.150467e+2, 2.9476067e+2, -179475.42, -220079.0, -14432.187, -0.018831799, 0.00023106823, -174868.36, -123523.305, 0.0, 9.995705, 9.990332 
4.150364e+2, 3.0475432e+2, -99384.48, -82806.41, -7034.4063, -0.020126265, 0.0036333262, -80223.875, -80223.875, 0.0, 9.99468, 9.996872 
4.1502705e+2, 3.1475124e+2, -113810.31, -89404.99, -6742.3047, -0.021718288, 0.0061415276, -87666.22, -87666.22, 0.0, 9.993676, 9.996903 
4.2526776e+2, 1.24910265e+2, -1554232.3, -1718446.4, -981.35974, 0.044741154, 0.0013571437, -1554226.4, 161653.39, 0.00000000000066720864, 10.014486, 9.992703 
4.252573e+2, 1.3490298e+2, -1474153.5, -1629599.6, -2622.4973, 0.04640927, 0.0061771027, -1474109.3, 143841.64, 0.00000000000043364105, 10.013286, 9.99267 
4.2524606e+2, 1.4489554e+2, -1394772.1, -1541982.5, -8932.23, 0.043149713, 0.0008431121, -1394232.1, 125791.65, 0.00000000000023428321, 10.012076, 9.992554 
4.2523408e+2, 1.5488802e+2, -1314698.4, -1452756.5, -8993.416, 0.039454106, -0.007654039, -1314115.0, 107982.34, 0.00000000000009975255, 10.010858, 9.992552 
4.2522162e+2, 1.6488062e+2, -1233370.5, -1362237.5, -12911.6455, 0.03553428, -0.006236886, -1232089.6, 92080.4, 0.00000000000003206562, 10.009695, 9.992608 
4.2520875e+2, 1.7487334e+2, -1151559.8, -1272082.8, -13914.727, 0.031408496, 0.004645592, -1149974.1, 76267.38, 0.000000000000007589741, 10.00859, 9.992612 
4.251953e+2, 1.8486567e+2, -1074733.0, -1192299.5, -18280.398, 0.025543759, 0.010577814, -1071956.1, 56360.895, 0.0000000000000013094991, 10.007488, 9.991906 
4.2518133e+2, 1.9485755e+2, -992827.3, -1102155.3, -18167.14, 0.017833926, 0.010370805, -989887.5, 40509.207, 0.00000000000000016423085, 10.006391, 9.991902 
4.2516714e+2, 2.0484944e+2, -911376.44, -1011704.1, -19788.992, 0.010827735, 0.007133074, -907614.25, 24861.982, 0.00000000000000001496435, 10.005239, 9.991944 
4.2515275e+2, 2.1484134e+2, -830988.75, -922126.44, -19835.363, 0.004577887, -0.00014183656, -826858.9, 7696.3687, 0.0000000000000000009905546, 10.004029, 9.991954 
4.251383e+2, 2.2483303e+2, -753852.06, -839941.56, -20351.355, 0.0011748859, -0.0013997229, -749283.5, -12647.057, 0.000000000000000000047639422, 10.002848, 9.991444 
4.2512384e+2, 2.3482451e+2, -672617.2, -750008.1, -20310.06, 0.0007998636, 0.0027560878, -667611.0, -28891.313, 0.0, 10.001697, 9.991446 
4.2510945e+2, 2.4481575e+2, -593264.2, -664835.56, -19452.969, -0.0011722181, -0.00074911764, -588318.6, -47513.402, 0.0, 10.000582, 9.991104 
4.250951e+2, 2.5480673e+2, -510825.78, -574211.7, -19294.75, -0.0048727053, -0.013397898, -505414.4, -62521.36, 0.0, 9.999507, 9.991114 
4.250811e+2, 2.6479754e+2, -432339.6, -491978.9, -16592.621, -0.009754877, -0.015844826, -428034.06, -83050.94, 0.0, 9.99844, 9.990545 
4.2506745e+2, 2.7478817e+2, -349601.9, -401151.9, -16117.583, -0.015904116, -0.00837873, -344977.47, -97902.19, 0.0, 9.997381, 9.990559 
4.250544e+2, 2.847787e+2, -268889.38, -313224.84, -10808.542, -0.019352978, -0.0010071828, -266394.72, -117226.41, 0.0, 9.996266, 9.9904 
4.250421e+2, 2.947692e+2, -187747.81, -222976.19, -10532.633, -0.019868137, 0.004984166, -184838.94, -133577.11, 0.0, 9.99509, 9.990428 
4.2503068e+2, 3.0476296e+2, -109543.64, -85742.97, -2821.002, -0.021403844, 0.0071419547, -85413.18, -85413.18, 0.0, 9.993897, 9.9970455 
4.250202e+2, 3.1476e+2, -126956.234, -93770.55, -1617.4768, -0.023993697, 0.0038061047, -93691.9, -93691.9, 0.0, 9.992688, 9.997078 
4.352823e+2, 1.2492047e+2, -1556917.1, -1723950.1, -5386.6943, 0.049228553, 0.0060086213, -1556743.5, 159036.47, 0.000000000014594067, 10.014485, 9.992329 
4.352706e+2, 1.3491283e+2, -1476784.0, -1635079.1, -6996.0703, 0.046257462, 0.010047791, -1476475.4, 141379.6, 0.000000000009482433, 10.0132885, 9.992295 
4.3525812e+2, 1.4490516e+2, -1394791.8, -1542148.0, -13372.869, 0.041958544, 0.0040666116, -1393588.0, 126341.71, 0.0000000000051217047, 10.012081, 9.992538 
4.3524495e+2, 1.5489763e+2, -1314679.4, -1452876.5, -13462.359, 0.04067663, -0.005666135, -1313380.1, 108623.23, 0.000000000002180144, 10.010864, 9.992539 
4.3523133e+2, 1.6489007e+2, -1235147.4, -1366041.9, -16963.145, 0.03662003, -0.004805309, -1232984.8, 91092.67, 0.0000000000007006642, 10.009701, 9.992346 
4.3521732e+2, 1.7488253e+2, -1153400.4, -1275957.4, -17947.066, 0.029697305, 0.006180387, -1150826.4, 75325.32, 0.00000000000016581898, 10.008594, 9.992346 
4.3520275e+2, 1.8487474e+2, -1074490.6, -1191824.0, -22290.021, 0.022815436, 0.01261354, -1070398.9, 57829.523, 0.000000000000028605434, 10.007489, 9.991937 
4.3518773e+2, 1.9486669e+2, -992590.3, -1101643.0, -22193.953, 0.01596592, 0.013369604, -988246.5, 42061.1, 0.0000000000000035869563, 10.00639, 9.991937 
4.3517238e+2, 2.0485862e+2, -911467.75, -1011851.75, -24248.143, 0.012571391, 0.012353877, -905917.44, 26469.377, 0.0000000000000003267816, 10.005237, 9.991934 
4.3515685e+2, 2.1485052e+2, -831084.3, -922294.4, -24306.549, 0.01284813, 0.008630886, -825011.25, 9454.449, 0.000000000000000021627613, 10.004027, 9.991941 
4.3514124e+2, 2.2484216e+2, -753765.5, -839754.44, -24608.447, 0.008900037, 0.004357063, -747221.1, -10673.991, 0.000000000000000001039993, 10.002847, 9.991455 
4.3512553e+2, 2.3483357e+2, -672514.5, -749813.0, -24563.322, 0.00044856058, -0.0015360361, -665369.44, -26738.398, 0.0, 10.001697, 9.991458 
4.3510997e+2, 2.4482484e+2, -592941.1, -664179.1, -23431.66, -0.0058001447, -0.0050832774, -585925.0, -45208.64, 0.0, 10.000582, 9.991148 
4.350946e+2, 2.5481597e+2, -510523.2, -573567.0, -23278.768, -0.009708952, -0.0069845384, -502859.25, -60056.43, 0.0, 9.999506, 9.991158 
4.3507951e+2, 2.648069e+2, -431494.78, -490181.75, -20522.883, -0.01328, -0.0068608806, -425030.03, -80138.18, 0.0, 9.998438, 9.990668 
4.3506482e+2, 2.747976e+2, -348766.47, -399346.66, -20050.662, -0.0164791, -0.0056935097, -341782.44, -94799.16, 0.0, 9.997378, 9.990683 
4.350507e+2, 2.8478822e+2, -268493.34, -312323.0, -15184.658, -0.01827184, -0.0009104413, -263746.72, -114671.11, 0.0, 9.9962635, 9.990462 
4.350372e+2, 2.9477876e+2, -187362.13, -222102.17, -14922.869, -0.018538844, 0.0065000597, -181832.16, -130663.766, 0.0, 9.995086, 9.990488 
4.3502456e+2, 3.0477268e+2, -107537.5, -81507.85, -7324.594, -0.021183185, 0.0063492656, -79588.31, -79588.31, 0.0, 9.993895, 9.997336 
4.3501288e+2, 3.1476992e+2, -124923.37, -89475.65, -6131.179, -0.026347963, -0.0033094496, -88445.14, -88445.14, 0.0, 9.992685, 9.997373 
4.4529715e+2, 1.2493185e+2, -1548253.8, -1721871.0, -1584.7872, 0.052628003, 0.013147857, -1548239.4, 167429.6, 0.00000000022799249, 10.015166, 9.992136 
4.4528425e+2, 1.3492393e+2, -1467498.0, -1632694.1, -1920.1006, 0.047082886, 0.010416898, -1467475.6, 150270.66, 0.0000000001480979, 10.014012, 9.992102 
4.4527057e+2, 1.449161e+2, -1384861.9, -1538929.9, -8266.143, 0.041732553, 0.0038600226, -1384419.6, 135403.2, 0.00000000007997208, 10.012826, 9.992392 
4.452562e+2, 1.5490846e+2, -1304762.0, -1449671.9, -9285.648, 0.040628266, -0.00094109477, -1304169.4, 117728.016, 0.00000000003403401, 10.011609, 9.992393 
4.4524136e+2, 1.6490076e+2, -1226427.8, -1363376.0, -12747.035, 0.036168944, 0.0005102247, -1225251.4, 98721.49, 0.0000000000109358885, 10.010362, 9.992203 
4.4522613e+2, 1.7489305e+2, -1147181.3, -1274519.0, -12850.701, 0.02823953, 0.007572649, -1145897.3, 80151.53, 0.0000000000025876577, 10.009084, 9.992202 
4.4521043e+2, 1.8488514e+2, -1070107.3, -1190312.3, -17010.068, 0.021598281, 0.0129813235, -1067746.5, 60380.117, 0.00000000000044632868, 10.0078125, 9.991879 
4.4519418e+2, 1.9487706e+2, -990604.2, -1101286.4, -17542.91, 0.016299972, 0.015767982, -987890.25, 42316.047, 0.000000000000055958944, 10.006549, 9.991879 
4.4517767e+2, 2.0486896e+2, -910696.44, -1011634.7, -20101.535, 0.013719607, 0.016670126, -906840.56, 25445.094, 0.0000000000000050973155, 10.005294, 9.991918 
4.4516093e+2, 2.1486087e+2, -830854.75, -922343.94, -20180.69, 0.014052778, 0.014756379, -826601.06, 7763.561, 0.0000000000000003373156, 10.004047, 9.991925 
4.4514412e+2, 2.2485253e+2, -752940.44, -838473.6, -19908.523, 0.009145768, 0.009521956, -748533.6, -12087.818, 0.00000000000000001621814, 10.002863, 9.991531 
4.4512722e+2, 2.34844e+2, -671252.06, -748310.6, -19368.752, -0.0013755285, -0.0002995275, -666657.6, -28128.387, 0.0, 10.001742, 9.991534 
4.4511053e+2, 2.4483529e+2, -593285.25, -664523.56, -18290.93, -0.008565029, -0.0042638187, -588863.4, -48249.11, 0.0, 10.000564, 9.991129 
4.45094e+2, 2.5482643e+2, -513272.63, -575099.06, -18589.586, -0.012197976, -0.0027792088, -508113.7, -65412.973, 0.0, 9.999324, 9.991137 
4.4507775e+2, 2.6481742e+2, -435945.06, -490640.44, -16036.816, -0.014637161, -0.0019845583, -431589.84, -86800.74, 0.0, 9.998058, 9.990817 
4.450619e+2, 2.7480823e+2, -356629.63, -401423.0, -15348.158, -0.015784366, -0.003125323, -351875.3, -104996.125, 0.0, 9.996763, 9.990833 
4.450466e+2, 2.8479898e+2, -278414.47, -315510.4, -10126.234, -0.016854865, 0.00032401163, -275830.28, -126860.14, 0.0, 9.995513, 9.9906025 
4.4503188e+2, 2.9478967e+2, -197693.08, -225496.89, -9259.8, -0.017833631, 0.00746701, -194891.48, -143829.89, 0.0, 9.9943075, 9.990627 
4.4501802e+2, 3.047838e+2, -117570.56, -83295.02, -1598.6503, -0.022335334, 0.0068153306, -83220.625, -83220.625, 0.0, 9.993073, 9.997606 
4.4500506e+2, 3.147813e+2, -135815.81, -91658.58, -575.3863, -0.03057536, -0.0035925338, -91651.086, -91651.086, 0.0, 9.991804, 9.997644 
4.5531234e+2, 1.2494432e+2, -1548364.6, -1722245.8, -5790.902, 0.05509466, 0.022532722, -1548172.0, 167375.14, 0.0000000026236897, 10.015172, 9.9921055 
4.5529827e+2, 1.3493626e+2, -1467677.1, -1633085.0, -6130.467, 0.048791952, 0.007668092, -1467450.3, 150175.56, 0.0000000017038922, 10.014013, 9.992074 
4.552834e+2, 1.4492828e+2, -1386765.4, -1542814.4, -12718.616, 0.04237694, 0.00062401907, -1385735.6, 133968.17, 0.0000000009199074, 10.012824, 9.992127 
4.552678e+2, 1.5492047e+2, -1306672.1, -1453586.4, -13729.625, 0.039423797, 0.00629788, -1305400.1, 116380.04, 0.00000000039142292, 10.011608, 9.9921255 
4.5525172e+2, 1.6491264e+2, -1226648.4, -1363813.3, -17415.943, 0.0343237, 0.00935935, -1224471.6, 99385.195, 0.00000000012575323, 10.010361, 9.992172 
4.552352e+2, 1.7490484e+2, -1147392.5, -1274932.0, -17529.182, 0.02701805, 0.0088440245, -1145027.1, 80906.53, 0.000000000029751073, 10.009083, 9.992173 
4.5521823e+2, 1.8489681e+2, -1071087.6, -1192313.9, -21640.283, 0.02177284, 0.011842104, -1067340.5, 60672.08, 0.00000000000513088, 10.007812, 9.991742 
4.5520073e+2, 1.948886e+2, -991587.7, -1103303.3, -22166.107, 0.018673053, 0.017625446, -987350.3, 42742.945, 0.000000000000643223, 10.006548, 9.991741 
4.5518297e+2, 2.0488046e+2, -910821.8, -1011900.3, -24668.424, 0.014287929, 0.020145528, -905122.75, 27050.549, 0.000000000000058585935, 10.005294, 9.991898 
4.5516488e+2, 2.1487235e+2, -830959.06, -922592.1, -24762.463, 0.008598018, 0.018403137, -824695.56, 9557.003, 0.000000000000003876605, 10.004048, 9.991906 
4.5514688e+2, 2.248641e+2, -751938.6, -836407.25, -24037.98, 0.0023323821, 0.014155533, -745577.0, -9243.926, 0.00000000000000018636928, 10.002863, 9.991671 
4.5512894e+2, 2.348557e+2, -670284.1, -746240.7, -23510.164, -0.004591107, 0.006218291, -663596.1, -25181.287, 0.0, 10.0017395, 9.991676 
4.551111e+2, 2.4484701e+2, -593864.3, -665634.0, -22885.81, -0.009552489, 0.0014758671, -587187.6, -46688.055, 0.0, 10.00056, 9.991054 
4.550933e+2, 2.5483805e+2, -513864.66, -576260.44, -23188.428, -0.01243165, -0.0007102983, -506190.8, -63603.652, 0.0, 9.999321, 9.991057 
4.5507583e+2, 2.6482907e+2, -434722.78, -488057.8, -20845.672, -0.013901302, -0.0010666199, -427542.13, -82866.945, 0.0, 9.998055, 9.9909935 
4.5505866e+2, 2.748201e+2, -355376.44, -398782.25, -20170.229, -0.013858212, -0.0006494935, -347450.75, -100687.445, 0.0, 9.996761, 9.991014 
4.5504212e+2, 2.8481105e+2, -276883.1, -312291.78, -14624.334, -0.015116004, 0.0026778174, -271624.1, -122771.79, 0.0, 9.99551, 9.990823 
4.550262e+2, 2.9480195e+2, -196167.67, -222281.84, -13760.197, -0.017753748, 0.007891717, -190255.56, -139313.77, 0.0, 9.994306, 9.990848 
4.5501107e+2, 3.0479628e+2, -115834.47, -79635.42, -6333.0464, -0.024861436, 0.008548757, -78559.43, -78559.43, 0.0, 9.993071, 9.997857 
4.5499682e+2, 3.1479412e+2, -134087.77, -88010.61, -5320.3853, -0.03669166, 0.0029552255, -87404.26, -87404.26, 0.0, 9.991801, 9.997894 
4.6532798e+2, 1.2495805e+2, -1535399.8, -1716831.5, -1131.1606, 0.054598775, 0.024913672, -1535392.8, 180020.28, 0.000000022415033, 10.016092, 9.9920225 
4.6531263e+2, 1.3494995e+2, -1458421.0, -1629476.5, -1829.9788, 0.049637042, 0.0139201665, -1458401.5, 159090.64, 0.000000014553804, 10.01468, 9.991991 
4.652965e+2, 1.4494184e+2, -1380603.1, -1542004.6, -8202.577, 0.04441954, 0.00763089, -1380187.4, 139383.98, 0.000000007855995, 10.013337, 9.991929 
4.6527964e+2, 1.549338e+2, -1301316.6, -1453184.4, -8723.718, 0.04200836, 0.009999401, -1300817.1, 120832.81, 0.0000000033422816, 10.012066, 9.991926 
4.6526226e+2, 1.6492584e+2, -1221104.8, -1361499.3, -12454.052, 0.0358866, 0.0122591965, -1220008.6, 103719.33, 0.0000000010736458, 10.010753, 9.992135 
4.6524444e+2, 1.74918e+2, -1142991.3, -1273167.8, -12606.213, 0.025993288, 0.013435716, -1141781.6, 84023.27, 0.00000000025397526, 10.009397, 9.992137 
4.6522614e+2, 1.8490994e+2, -1067748.0, -1191260.3, -16325.267, 0.020280994, 0.016166816, -1065626.6, 62257.547, 0.000000000043796126, 10.00806, 9.991688 
4.652074e+2, 1.9490167e+2, -988976.3, -1102608.5, -16228.227, 0.01889206, 0.019709999, -986704.1, 43261.543, 0.0000000000054899657, 10.006748, 9.991687 
4.6518835e+2, 2.0489344e+2, -908685.94, -1011663.7, -18427.465, 0.0146925915, 0.021664493, -905487.75, 26558.662, 0.0000000000005000029, 10.005471, 9.991823 
4.6516904e+2, 2.1488526e+2, -828747.44, -922330.1, -18900.652, 0.007576169, 0.021086464, -825074.3, 9052.012, 0.000000000000033083325, 10.004231, 9.99183 
4.651498e+2, 2.2487701e+2, -750858.75, -835298.8, -18786.326, 0.0015116672, 0.018642958, -746867.75, -10660.885, 0.0000000000000015903953, 10.002908, 9.99172 
4.6513057e+2, 2.348687e+2, -673423.94, -747163.9, -18901.068, -0.0034677046, 0.013233888, -668861.5, -30573.625, 0.0, 10.001495, 9.991726 
4.6511146e+2, 2.4486005e+2, -599159.56, -667643.3, -18028.17, -0.007879383, 0.0076079727, -594703.6, -54331.4, 0.0, 10.000171, 9.9911 
4.6509245e+2, 2.548511e+2, -519061.06, -578226.25, -17388.814, -0.011688917, 0.0008699593, -514328.94, -71869.17, 0.0, 9.998939, 9.991103 
4.650737e+2, 2.6484218e+2, -439326.84, -488695.66, -14945.994, -0.014161911, -0.00035307815, -435154.66, -90607.7, 0.0, 9.997669, 9.991132 
4.650552e+2, 2.7483338e+2, -360211.94, -399521.88, -14556.126, -0.015206944, 0.0031154284, -355408.8, -108775.38, 0.0, 9.996358, 9.991153 
4.6503738e+2, 2.8482446e+2, -282692.53, -313579.13, -9315.09, -0.016614564, 0.007457266, -280100.7, -131379.66, 0.0, 9.995045, 9.990955 
4.650202e+2, 2.9481548e+2, -203645.38, -224378.89, -9091.792, -0.01840905, 0.0115161715, -200223.36, -149414.02, 0.0, 9.993725, 9.990979 
4.650038e+2, 3.0481e+2, -124890.875, -81850.36, -2534.8438, -0.025325434, 0.013463102, -81701.586, -81701.586, 0.0, 9.992354, 9.998047 
4.6498817e+2, 3.1480807e+2, -145476.64, -91347.28, -1976.9716, -0.03762089, 0.011804583, -91275.17, -91275.17, 0.0, 9.990926, 9.998084 
4.7534403e+2, 1.2497297e+2, -1536326.9, -1718749.1, -6257.634, 0.05162452, 0.021413362, -1536112.5, 179154.58, 0.00000014465813, 10.016092, 9.99189 
4.753273e+2, 1.349649e+2, -1459293.8, -1631354.5, -6972.668, 0.0497159, 0.028233571, -1459011.6, 158334.33, 0.00000009390782, 10.014683, 9.991859 
4.7530988e+2, 1.4495668e+2, -1381514.5, -1543955.1, -12827.565, 0.047707614, 0.023744432, -1380507.8, 138918.56, 0.00000005068327, 10.01334, 9.991794 
4.752918e+2, 1.5494835e+2, -1302276.6, -1455157.5, -13330.581, 0.048000053, 0.010498937, -1301122.9, 120384.79, 0.000000021560604, 10.012065, 9.99179 
4.7527307e+2, 1.649403e+2, -1221410.8, -1362086.3, -17385.06, 0.040516146, 0.009843473, -1219294.1, 104292.625, 0.0000000069253208, 10.01075, 9.992094 
4.7525382e+2, 1.7493251e+2, -1143298.5, -1273757.5, -17560.682, 0.025133708, 0.021096705, -1140976.1, 84687.23, 0.0000000016380841, 10.009394, 9.992096 
4.7523415e+2, 1.8492445e+2, -1067574.4, -1190865.5, -21135.477, 0.017259032, 0.025490541, -1064051.8, 63690.7, 0.0000000002824568, 10.008059, 9.991714 
4.7521415e+2, 1.9491614e+2, -988791.2, -1102201.0, -21046.709, 0.017115306, 0.022007868, -985011.3, 44812.934, 0.00000000003540476, 10.006746, 9.991714 
4.7519386e+2, 2.0490783e+2, -909563.5, -1013446.1, -22979.248, 0.014953131, 0.021392956, -904707.44, 27198.246, 0.0000000000032243969, 10.005469, 9.9917 
4.751733e+2, 2.1489957e+2, -829653.06, -924152.44, -23449.283, 0.010715753, 0.02288474, -824154.25, 9832.361, 0.00000000000021334346, 10.00423, 9.991706 
4.751527e+2, 2.2489125e+2, -751108.4, -835773.3, -23987.387, 0.006331765, 0.023008903, -744784.56, -8716.795, 0.0000000000000102557275, 10.002906, 9.991687 
4.751321e+2, 2.3488294e+2, -673651.94, -747627.94, -24120.863, 0.00176561, 0.020742819, -666481.94, -28333.047, 0.0, 10.001494, 9.991693 
4.7511166e+2, 2.4487434e+2, -597975.8, -665183.2, -22588.492, -0.0036731188, 0.014122733, -591089.44, -50856.785, 0.0, 10.00017, 9.991267 
4.750914e+2, 2.548655e+2, -517881.8, -575736.7, -21955.318, -0.010017955, 0.0019857693, -510493.5, -68174.62, 0.0, 9.998937, 9.991273 
4.7507134e+2, 2.6485673e+2, -438609.9, -487159.0, -19822.37, -0.0154058095, 0.00018227007, -431544.7, -87139.914, 0.0, 9.997666, 9.991236 
4.7505152e+2, 2.7484804e+2, -359500.03, -398010.8, -19445.963, -0.019774461, 0.0081551215, -351389.1, -104899.17, 0.0, 9.996356, 9.991255 
4.750324e+2, 2.8483927e+2, -282358.44, -312848.4, -14243.245, -0.021296555, 0.014635192, -276740.06, -128163.44, 0.0, 9.995042, 9.991004 
4.750139e+2, 2.9483032e+2, -203328.17, -223674.72, -14028.279, -0.019788323, 0.018323978, -196172.63, -145508.08, 0.0, 9.993723, 9.991027 
4.7499615e+2, 3.0482492e+2, -123996.3, -79942.305, -7877.7163, -0.023730122, 0.021556765, -78575.99, -78575.99, 0.0, 9.992352, 9.998178 
4.7497913e+2, 3.1482318e+2, -144581.89, -89433.39, -7334.748, -0.03336121, 0.022974074, -88474.54, -88474.54, 0.0, 9.990922, 9.998216 
4.8536053e+2, 1.2498952e+2, -1526928.0, -1717070.5, -139.44565, 0.054714613, 0.020239158, -1526928.0, 188177.14, 0.00000072311684, 10.016855, 9.991628 
4.8534238e+2, 1.3498126e+2, -1449829.6, -1629613.9, -1681.2461, 0.048937548, 0.033035323, -1449813.9, 167372.23, 0.00000046936913, 10.015449, 9.991601 
4.8532355e+2, 1.449729e+2, -1371806.8, -1539687.8, -7498.9385, 0.046329413, 0.0302317, -1371472.4, 147795.44, 0.00000025329925, 10.014017, 9.991749 
4.853041e+2, 1.5496449e+2, -1295230.9, -1452192.3, -7356.215, 0.048571758, 0.0131958695, -1294886.9, 126463.08, 0.00000010774416, 10.012562, 9.991745 
4.8528403e+2, 1.6495633e+2, -1216673.8, -1360916.0, -11397.74, 0.041961294, 0.011839748, -1215778.8, 107651.14, 0.000000034605513, 10.011118, 9.991989 
4.8526338e+2, 1.7494847e+2, -1139654.1, -1273131.1, -12001.716, 0.026383406, 0.025541436, -1138583.5, 86923.734, 0.000000008185115, 10.009688, 9.99199 
4.8524234e+2, 1.8494038e+2, -1064015.5, -1188972.1, -15627.334, 0.017927144, 0.031732727, -1062090.8, 65495.996, 0.0000000014113334, 10.00829, 9.991725 
4.8522097e+2, 1.949321e+2, -985973.3, -1100661.4, -15618.911, 0.01680325, 0.029316822, -983884.25, 45784.043, 0.00000000017690142, 10.0069275, 9.991725 
4.8519933e+2, 2.0492376e+2, -908398.7, -1013412.06, -17183.643, 0.01486311, 0.02746456, -905658.4, 26091.617, 0.000000000016110677, 10.005568, 9.991649 
4.8517752e+2, 2.1491541e+2, -830193.8, -924965.3, -17109.39, 0.012095882, 0.025436826, -827199.6, 6632.158, 0.0000000000010659677, 10.004212, 9.9916525 
4.851556e+2, 2.2490704e+2, -751991.1, -836342.44, -17648.025, 0.0075990316, 0.024818534, -748447.6, -12534.332, 0.000000000000051242522, 10.002848, 9.99167 
4.8513362e+2, 2.3489873e+2, -673989.06, -747941.9, -17641.697, 0.001287166, 0.02466448, -669996.1, -32001.723, 0.0, 10.001474, 9.991674 
4.8511177e+2, 2.4489018e+2, -598737.4, -664398.3, -16081.63, -0.004042549, 0.018347468, -595010.25, -54932.49, 0.0, 10.000064, 9.991365 
4.8509017e+2, 2.548814e+2, -521777.72, -576449.4, -15923.028, -0.008379983, 0.0046377117, -517478.28, -75315.125, 0.0, 9.998615, 9.991373 
4.8506883e+2, 2.6487273e+2, -444084.5, -489178.56, -13993.321, -0.013837328, 0.0037700662, -440095.1, -95846.87, 0.0, 9.997261, 9.991288 
4.850477e+2, 2.7486417e+2, -364199.16, -399668.4, -13972.692, -0.020438857, 0.015266676, -359356.1, -113023.42, 0.0, 9.996004, 9.991306 
4.850272e+2, 2.8485543e+2, -286977.44, -313466.3, -8990.965, -0.023041144, 0.02196416, -284213.97, -135795.55, 0.0, 9.994653, 9.991144 
4.8500735e+2, 2.9484662e+2, -209904.92, -225233.14, -8061.514, -0.021395572, 0.022402644, -206445.78, -155940.6, 0.0, 9.993199, 9.991167 
4.8498815e+2, 3.0484134e+2, -133130.25, -83155.055, -2130.271, -0.02429926, 0.024651706, -83064.414, -83064.414, 0.0, 9.99167, 9.99828 
4.8496965e+2, 3.148397e+2, -156368.86, -93942.055, -1805.5901, -0.03190769, 0.027528863, -93889.875, -93889.875, 0.0, 9.99006, 9.998316 
4.9537748e+2, 1.2500758e+2, -1529605.1, -1722557.9, -5245.429, 0.06292105, 0.02103489, -1529462.6, 185465.61, 0.000002895035, 10.016853, 9.991254 
4.953578e+2, 1.349989e+2, -1452457.4, -1635017.6, -6711.78, 0.047381952, 0.029463254, -1452210.9, 164802.52, 0.0000018790013, 10.015449, 9.991232 
4.953375e+2, 1.449904e+2, -1371502.8, -1539077.1, -12727.39, 0.040835574, 0.028276926, -1370541.5, 148555.14, 0.0000010139566, 10.014017, 9.991788 
4.953166e+2, 1.5498209e+2, -1294913.6, -1451585.5, -12633.696, 0.04431218, 0.01792605, -1293901.4, 127276.375, 0.00000043127574, 10.012563, 9.991783 
4.9529514e+2, 1.6497388e+2, -1217781.8, -1363223.6, -16603.973, 0.040565334, 0.017793342, -1215910.3, 107347.836, 0.00000013851356, 10.011119, 9.99183 
4.952731e+2, 1.7496581e+2, -1140811.9, -1275477.1, -17206.164, 0.029553002, 0.027075527, -1138648.1, 86689.48, 0.00000003276196, 10.0096855, 9.991829 
4.9525067e+2, 1.8495767e+2, -1064027.3, -1188945.6, -20595.217, 0.021937048, 0.035226047, -1060719.4, 66698.51, 0.0000000056490914, 10.008287, 9.991726 
4.952279e+2, 1.9494948e+2, -985962.44, -1100620.0, -20611.459, 0.017821241, 0.041277587, -982369.75, 47128.867, 0.0000000007080883, 10.006927, 9.991726 
4.9520493e+2, 2.0494115e+2, -908253.6, -1013105.8, -22165.547, 0.014437998, 0.039398078, -903760.44, 27819.78, 0.00000000006448763, 10.005568, 9.991668 
4.9518174e+2, 2.1493272e+2, -830056.7, -924671.2, -22095.373, 0.011819405, 0.028692242, -825151.06, 8511.354, 0.00000000000426689, 10.004211, 9.991671 
4.9515843e+2, 2.2492434e+2, -751967.1, -836274.5, -22712.273, 0.005503551, 0.024241425, -746237.8, -10493.704, 0.0000000000002051179, 10.002846, 9.9916725 
4.95135e+2, 2.3491603e+2, -673979.25, -747894.7, -22718.9, -0.0046281544, 0.025192153, -667554.7, -29729.531, 0.00000000000000000000077018436, 10.001472, 9.991676 
4.9511182e+2, 2.4490751e+2, -598469.0, -663818.56, -21453.197, -0.008773271, 0.020414442, -592055.7, -52147.52, 0.00000000000000000000002694688, 10.000062, 9.991404 
4.9508882e+2, 2.5489882e+2, -521501.22, -575863.25, -21309.973, -0.00675819, 0.008800654, -514143.53, -72150.52, 0.0, 9.998614, 9.991411 
4.9506614e+2, 2.648902e+2, -444047.4, -489079.63, -18674.932, -0.009536887, 0.010332145, -437310.66, -93232.97, 0.0, 9.997259, 9.991293 
4.9504372e+2, 2.7488166e+2, -364183.94, -399591.66, -18655.855, -0.017279172, 0.024414666, -356168.78, -110006.84, 0.0, 9.996002, 9.99131 
4.9502188e+2, 2.84873e+2, -285344.16, -310028.66, -14421.269, -0.021907644, 0.029437536, -278704.75, -130458.055, 0.0, 9.99465, 9.991379 
4.9500054e+2, 2.948644e+2, -208254.95, -221765.06, -13512.884, -0.023251971, 0.023756796, -199902.77, -149571.2, 0.0, 9.9931965, 9.991404 
4.9497983e+2, 3.0485922e+2, -132605.86, -82013.06, -8165.73, -0.02705041, 0.022728544, -80727.76, -80727.76, 0.0, 9.991667, 9.998357 
4.9495968e+2, 3.1485763e+2, -155873.61, -92851.734, -7852.8613, -0.03331441, 0.025400054, -91887.96, -91887.96, 0.0, 9.990057, 9.99839 
5.053947e+2, 1.2502736e+2, -1520170.8, -1720244.4, 1167.8729, 0.06265974, 0.025536913, -1520164.0, 194570.77, 0.000009618934, 10.017591, 9.991045 
5.053736e+2, 1.3501842e+2, -1444089.1, -1633170.8, 880.5487, 0.047680072, 0.028600754, -1444085.1, 172737.44, 0.0000062427052, 10.016111, 9.991028 
5.0535184e+2, 1.4500976e+2, -1363343.3, -1536447.4, -5207.3413, 0.040751472, 0.028129442, -1363186.8, 155720.67, 0.0000033685756, 10.014627, 9.991663 
5.0532943e+2, 1.5500137e+2, -1287210.3, -1449186.8, -6203.7056, 0.042440772, 0.023830507, -1286973.0, 134016.2, 0.0000014327592, 10.013143, 9.991658 
5.053065e+2, 1.6499309e+2, -1211371.1, -1361203.9, -10696.794, 0.038842242, 0.024788247, -1210611.4, 112459.19, 0.00000046015737, 10.011599, 9.991727 
5.0528294e+2, 1.7498486e+2, -1136868.5, -1274669.5, -10868.843, 0.029960468, 0.030126099, -1136016.5, 89134.9, 0.00000010883852, 10.009997, 9.991725 
5.052591e+2, 1.8497662e+2, -1061322.0, -1188546.4, -13773.534, 0.022772243, 0.037804384, -1059848.0, 67384.664, 0.000000018767146, 10.008508, 9.991639 
5.052349e+2, 1.9496836e+2, -983507.9, -1100346.3, -14373.251, 0.017319098, 0.04690575, -981765.7, 47548.332, 0.0000000023524631, 10.007129, 9.99164 
5.052106e+2, 2.0496003e+2, -905395.56, -1010961.25, -16140.086, 0.013618886, 0.045769528, -902983.0, 28412.602, 0.00000000021425271, 10.005725, 9.991731 
5.0518596e+2, 2.1495165e+2, -828275.1, -923056.8, -15724.644, 0.011717779, 0.03348411, -825734.44, 7742.8984, 0.000000000014176619, 10.004295, 9.991733 
5.051613e+2, 2.2494328e+2, -751822.3, -836205.7, -16273.131, 0.006017864, 0.027979178, -748792.9, -13234.027, 0.0000000000006815187, 10.0028515, 9.991668 
5.0513643e+2, 2.3493497e+2, -675095.2, -748449.0, -16301.745, -0.0035867123, 0.028388618, -671635.5, -33995.55, 0.00000000000000000002234131, 10.001391, 9.991671 
5.051118e+2, 2.4492648e+2, -599948.3, -664099.0, -15162.929, -0.008750641, 0.024153426, -596544.94, -56822.094, 0.00000000000000000000078141426, 9.999937, 9.991437 
5.050873e+2, 2.5491783e+2, -522995.56, -576152.4, -15021.4, -0.009309488, 0.014281658, -519044.4, -77237.234, 0.0, 9.998488, 9.991445 
5.0506324e+2, 2.649092e+2, -447401.06, -490342.06, -12051.944, -0.011792375, 0.015471788, -444249.78, -100358.18, 0.0, 9.997009, 9.991321 
5.050395e+2, 2.7490067e+2, -371240.88, -402648.34, -11829.858, -0.016322618, 0.02697502, -367283.7, -121307.836, 0.0, 9.9955, 9.991337 
5.050162e+2, 2.8489217e+2, -293027.44, -311088.06, -7795.76, -0.020614116, 0.032187864, -290127.94, -142068.64, 0.0, 9.994005, 9.991611 
5.049934e+2, 2.948838e+2, -216283.28, -222975.58, -6885.27, -0.02460747, 0.029531166, -211974.13, -161832.53, 0.0, 9.992527, 9.991636 
5.0497115e+2, 3.0487883e+2, -140808.27, -84324.35, -1656.9951, -0.029550957, 0.027350018, -84275.79, -84275.79, 0.0, 9.991029, 9.998499 
5.0494945e+2, 3.1487736e+2, -162789.13, -94571.42, -833.0704, -0.035360485, 0.024624148, -94561.25, -94561.25, 0.0, 9.989509, 9.998529 
5.154122e+2, 1.250487e+2, -1520531.3, -1721069.5, -4260.007, 0.0551023, 0.03325594, -1520440.9, 194085.17, 0.000027284425, 10.017595, 9.990984 
5.153897e+2, 1.3503964e+2, -1444561.1, -1634012.5, -4540.194, 0.04963546, 0.030146008, -1444452.4, 172162.47, 0.000017706703, 10.016105, 9.990971 
5.153665e+2, 1.4503083e+2, -1365333.6, -1540352.3, -10642.226, 0.045378845, 0.029627819, -1364688.9, 154012.34, 0.000009554285, 10.014619, 9.991399 
5.153426e+2, 1.5502225e+2, -1289157.1, -1453073.9, -11615.123, 0.042659197, 0.030799054, -1288338.3, 132447.03, 0.000004063736, 10.013136, 9.991394 
5.1531804e+2, 1.6501379e+2, -1211710.8, -1361868.1, -16538.389, 0.036816865, 0.032727476, -1209910.8, 112957.37, 0.0000013051528, 10.011596, 9.99168 
5.152929e+2, 1.750055e+2, -1137140.1, -1275307.4, -16718.336, 0.027877165, 0.034571104, -1135146.0, 89803.63, 0.00000030870135, 10.01, 9.991677 
5.1526755e+2, 1.8499713e+2, -1062400.5, -1190852.4, -18788.629, 0.020738209, 0.039570622, -1059708.8, 67323.3, 0.000000053230764, 10.008511, 9.991478 
5.15242e+2, 1.9498868e+2, -984651.5, -1102689.1, -19385.0, 0.01542928, 0.04675873, -981549.5, 47565.77, 0.000000006672757, 10.007128, 9.991478 
5.1521623e+2, 2.0498034e+2, -904649.4, -1009353.6, -21363.154, 0.012434695, 0.04707823, -900458.3, 30738.668, 0.00000000060775274, 10.005721, 9.991839 
5.151903e+2, 2.1497212e+2, -827540.4, -921464.8, -20983.313, 0.011781278, 0.039761234, -823065.75, 10211.469, 0.00000000004021519, 10.004292, 9.99184 
5.151642e+2, 2.2496381e+2, -751902.75, -836302.25, -21669.982, 0.009002579, 0.035779566, -746664.06, -11305.981, 0.0000000000019333647, 10.002848, 9.99166 
5.151379e+2, 2.3495547e+2, -675172.1, -748551.94, -21706.885, 0.0040628067, 0.034124922, -669231.75, -31792.26, 0.00000000000000000048395505, 10.001389, 9.991662 
5.1511174e+2, 2.4494699e+2, -599707.56, -663561.25, -20542.914, -0.00423849, 0.02950381, -593669.5, -54147.254, 0.000000000000000000016922272, 9.999935, 9.991472 
5.1508576e+2, 2.549384e+2, -522749.6, -575617.3, -20414.904, -0.015944263, 0.02104509, -515784.1, -74178.0, 0.0, 9.9984865, 9.99148 
5.150602e+2, 2.649298e+2, -447022.28, -489528.75, -17686.777, -0.020415422, 0.019208955, -440625.53, -96935.19, 0.0, 9.997007, 9.991374 
5.15035e+2, 2.7492124e+2, -370867.4, -401838.72, -17477.564, -0.01751422, 0.023043271, -363002.03, -117227.37, 0.0, 9.995497, 9.99139 
5.1501024e+2, 2.849129e+2, -291385.34, -307643.94, -13335.798, -0.019168697, 0.030314904, -283896.4, -136039.88, 0.0, 9.994002, 9.991844 
5.149859e+2, 2.949049e+2, -214642.14, -219529.84, -12434.065, -0.025467461, 0.039790582, -204414.03, -154478.52, 0.0, 9.992525, 9.99187 
5.1496214e+2, 3.0490014e+2, -139327.73, -81209.84, -7362.356, -0.031814173, 0.038555924, -80291.69, -80291.69, 0.0, 9.991026, 9.998711 
5.149389e+2, 3.1489873e+2, -161309.95, -91472.0, -6535.582, -0.038092714, 0.025192777, -90865.66, -90865.66, 0.0, 9.989507, 9.99874 
5.2543026e+2, 1.2507156e+2, -1508759.1, -1716558.3, 221.42824, 0.053345107, 0.042283386, -1508758.9, 205543.77, 0.00006720551, 10.018445, 9.99087 
5.254061e+2, 1.350624e+2, -1437279.9, -1631657.9, -388.6167, 0.050478745, 0.039168052, -1437279.1, 179113.39, 0.000043612567, 10.016647, 9.99086 
5.253813e+2, 1.4505343e+2, -1360559.9, -1539504.5, -5615.974, 0.047095347, 0.037747554, -1360383.9, 158096.34, 0.000023532237, 10.015002, 9.991262 
5.253559e+2, 1.5504469e+2, -1284564.9, -1452313.6, -5701.41, 0.043348227, 0.03697203, -1284371.3, 136194.44, 0.000010008963, 10.013508, 9.991258 
5.253298e+2, 1.6503616e+2, -1205816.5, -1359282.0, -10338.511, 0.036414795, 0.038026296, -1205123.1, 117526.28, 0.0000032146113, 10.012005, 9.99165 
5.253032e+2, 1.7502783e+2, -1129983.0, -1272125.0, -10372.557, 0.026364269, 0.03998792, -1129230.0, 95501.14, 0.0000007603501, 10.010495, 9.991646 
5.252763e+2, 1.8501939e+2, -1056435.8, -1188608.4, -11807.765, 0.019721966, 0.043542176, -1055389.1, 71425.016, 0.00000013111384, 10.00894, 9.991413 
5.2524924e+2, 1.9501087e+2, -981910.0, -1102026.6, -11688.346, 0.016469825, 0.047761623, -980783.2, 48115.063, 0.0000000164363, 10.007338, 9.991412 
5.2522206e+2, 2.0500247e+2, -904032.06, -1009439.56, -13754.34, 0.013797643, 0.048586637, -902266.9, 28713.645, 0.0000000014970755, 10.005774, 9.991798 
5.251946e+2, 2.1499425e+2, -828315.2, -922237.6, -14392.249, 0.011747217, 0.045283727, -826159.25, 6901.517, 0.00000000009906756, 10.00425, 9.991798 
5.251669e+2, 2.2498594e+2, -753242.25, -836643.6, -15482.564, 0.0088278055, 0.042143874, -750460.8, -15319.144, 0.0000000000047629682, 10.002736, 9.991682 
5.251392e+2, 2.349776e+2, -677136.9, -749198.1, -15265.442, 0.0050518317, 0.038130507, -674036.5, -36813.367, 0.0000000000000000075019524, 10.001235, 9.991684 
5.251116e+2, 2.4496913e+2, -602013.06, -664459.25, -13906.777, -0.002947861, 0.033454295, -599056.06, -59750.363, 0.00000000000000000026225149, 9.999762, 9.991487 
5.2508414e+2, 2.5496057e+2, -525006.25, -576496.25, -13899.878, -0.015306639, 0.027267218, -521493.56, -80104.33, 0.0, 9.998317, 9.991493 
5.250571e+2, 2.6495206e+2, -448974.38, -488769.3, -11284.737, -0.020835822, 0.024513641, -445997.06, -102524.34, 0.0, 9.996795, 9.99152 
5.250303e+2, 2.7494356e+2, -374148.28, -401721.78, -10349.372, -0.019330367, 0.024143767, -370696.0, -125140.055, 0.0, 9.9951935, 9.991536 
5.2500397e+2, 2.8493536e+2, -297114.16, -309370.47, -6436.7915, -0.021519957, 0.031571336, -294354.88, -146718.2, 0.0, 9.99356, 9.991931 
5.249781e+2, 2.9492748e+2, -223138.48, -222602.44, -6624.108, -0.027526185, 0.045733474, -216240.92, -166526.42, 0.0, 9.991893, 9.991957 
5.2495277e+2, 3.049229e+2, -148666.5, -83032.2, -1941.305, -0.03303885, 0.04601985, -82974.836, -82974.836, 0.0, 9.990265, 9.998946 
5.2492803e+2, 3.1492177e+2, -171636.02, -93767.58, -911.2148, -0.03792406, 0.030857489, -93756.914, -93756.914, 0.0, 9.988678, 9.998975 
5.354487e+2, 1.2509583e+2, -1510149.6, -1718954.6, -6297.438, 0.05649999, 0.052582037, -1509959.9, 204105.84, 0.00014532506, 10.018425, 9.990714 
5.3542274e+2, 1.3508657e+2, -1438451.6, -1633934.1, -6892.4087, 0.050330184, 0.054630905, -1438208.9, 177947.6, 0.00009430582, 10.016641, 9.9907055 
5.353963e+2, 1.450775e+2, -1360717.9, -1539787.1, -10992.252, 0.046299983, 0.051546678, -1360045.6, 158199.55, 0.000050884668, 10.015, 9.991241 
5.3536946e+2, 1.5506865e+2, -1284792.6, -1452624.5, -11096.798, 0.04446021, 0.042441558, -1284062.1, 136269.44, 0.000021642816, 10.0135, 9.991237 
5.3534186e+2, 1.6506007e+2, -1206017.6, -1359477.6, -15801.927, 0.0374338, 0.041067313, -1204407.4, 118008.14, 0.0000069512203, 10.011994, 9.991637 
5.3531367e+2, 1.7505178e+2, -1130194.0, -1272332.1, -15853.834, 0.025351515, 0.04631877, -1128447.3, 96049.88, 0.0000016442291, 10.010485, 9.991633 
5.3528523e+2, 1.8504333e+2, -1056332.6, -1188208.0, -17667.473, 0.019633016, 0.049510818, -1054006.8, 72573.21, 0.00000028354032, 10.00893, 9.991442 
5.352566e+2, 1.9503479e+2, -981751.8, -1101600.4, -17576.813, 0.020178918, 0.049835455, -979227.25, 49436.85, 0.000000035545742, 10.007332, 9.99144 
5.3522784e+2, 2.0502633e+2, -905251.25, -1011933.25, -19361.742, 0.017471302, 0.05031325, -901846.0, 28901.055, 0.0000000032378196, 10.005772, 9.991627 
5.351988e+2, 2.1501796e+2, -829503.94, -924725.7, -20000.205, 0.0115941, 0.050130196, -825473.75, 7355.094, 0.00000000021427757, 10.004251, 9.991626 
5.3516966e+2, 2.2500962e+2, -752795.7, -835765.7, -21019.273, 0.0056635276, 0.04718043, -747774.6, -12864.35, 0.000000000010302872, 10.002737, 9.991738 
5.3514045e+2, 2.3500128e+2, -676706.0, -748333.75, -20820.584, -0.00028832103, 0.040516287, -671093.7, -34102.33, 0.000000000000000085218847, 10.001235, 9.991739 
5.3511137e+2, 2.4499285e+2, -602017.6, -664442.3, -19266.027, -0.004678146, 0.036095742, -596550.44, -57476.793, 0.0000000000000000029784177, 9.99976, 9.991486 
5.350826e+2, 2.5498432e+2, -525053.94, -576504.8, -19274.496, -0.007585551, 0.032994866, -518634.3, -77477.33, 0.0, 9.998312, 9.991491 
5.3505397e+2, 2.6497594e+2, -447287.47, -485193.28, -17266.955, -0.013313429, 0.03138302, -440601.34, -97362.16, 0.0, 9.99679, 9.991763 
5.350255e+2, 2.7496767e+2, -372442.28, -398138.53, -16349.153, -0.021830281, 0.03022833, -364496.9, -119176.914, 0.0, 9.99519, 9.991779 
5.349975e+2, 2.8495955e+2, -297512.7, -310149.22, -12699.125, -0.027654203, 0.03590456, -289646.88, -142246.9, 0.0, 9.993556, 9.991876 
5.3497e+2, 2.949516e+2, -223559.2, -223419.66, -12898.994, -0.030782755, 0.04729574, -210590.25, -161111.52, 0.0, 9.991889, 9.9918995 
5.3494304e+2, 3.0494714e+2, -146837.81, -79179.336, -7917.999, -0.033199366, 0.049743105, -78265.055, -78265.055, 0.0, 9.990262, 9.999208 
5.3491676e+2, 3.1494632e+2, -169807.69, -89904.85, -6884.891, -0.034792334, 0.041824363, -89315.95, -89315.95, 0.0, 9.988674, 9.999238 
5.454673e+2, 1.2512185e+2, -1505226.1, -1717928.1, 106.47326, 0.061905753, 0.057273477, -1505226.1, 208585.14, 0.0002790143, 10.018816, 9.990584 
5.454397e+2, 1.3511246e+2, -1430756.0, -1631519.6, -268.85587, 0.050242495, 0.06003467, -1430755.6, 185147.64, 0.00018105944, 10.017218, 9.99058 
5.454116e+2, 1.4510332e+2, -1352554.3, -1536019.1, -3971.4346, 0.044563796, 0.056526467, -1352468.4, 165524.33, 0.00009769506, 10.01556, 9.991216 
5.453831e+2, 1.5509443e+2, -1279782.3, -1450384.3, -4062.5579, 0.04474828, 0.045933157, -1279685.6, 140393.86, 0.000041553678, 10.013844, 9.991212 
5.4535395e+2, 1.6508584e+2, -1203358.3, -1358389.4, -8604.933, 0.039285287, 0.044632666, -1202882.0, 119281.61, 0.000013346707, 10.012177, 9.991612 
5.4532415e+2, 1.7507751e+2, -1129099.1, -1272019.0, -8707.988, 0.028334482, 0.051435243, -1128570.6, 95674.79, 0.0000031571901, 10.010562, 9.991607 
5.4529417e+2, 1.8506905e+2, -1055752.3, -1188311.9, -10802.046, 0.022563063, 0.05595713, -1054877.8, 71450.664, 0.0000005444863, 10.00898, 9.991401 
5.4526407e+2, 1.9506049e+2, -980448.8, -1101360.3, -11153.861, 0.021907398, 0.057415266, -979428.5, 48984.324, 0.00000006826584, 10.007431, 9.991399 
5.452337e+2, 2.0505194e+2, -903431.06, -1011877.06, -12511.815, 0.017575737, 0.0565088, -902006.25, 28490.246, 0.0000000062190226, 10.005925, 9.991546 
5.4520315e+2, 2.1504346e+2, -826839.5, -924266.56, -12460.95, 0.009636523, 0.05252337, -825270.94, 7308.4316, 0.00000000041163573, 10.004461, 9.991545 
5.451725e+2, 2.2503509e+2, -749602.6, -833946.94, -13438.608, 0.0030670804, 0.049663726, -747513.2, -12852.0205, 0.000000000019796113, 10.002936, 9.991755 
5.451417e+2, 2.350268e+2, -674702.0, -747106.2, -13472.917, -0.002123901, 0.046889942, -672276.25, -35534.527, 0.00000000000000071314017, 10.001353, 9.9917555 
5.4511106e+2, 2.450184e+2, -603462.9, -664916.8, -12351.434, -0.0041481056, 0.042113338, -601073.3, -62249.402, 0.000000000000000024919749, 9.999644, 9.991498 
5.4508066e+2, 2.550098e+2, -532182.25, -579732.25, -12206.671, -0.0030421345, 0.03449282, -529231.75, -88324.2, 0.0, 9.997808, 9.991504 
5.450505e+2, 2.650015e+2, -455231.66, -487543.78, -10053.563, -0.008805993, 0.033688493, -452359.0, -109370.02, 0.0, 9.996175, 9.99189 
5.4502046e+2, 2.7499348e+2, -377910.97, -399298.44, -9976.901, -0.021472085, 0.038560245, -373979.6, -128911.54, 0.0, 9.994744, 9.991905 
5.4499084e+2, 2.8498545e+2, -302313.47, -311446.56, -6846.4277, -0.02929911, 0.044106655, -298650.38, -151503.38, 0.0, 9.993176, 9.9919615 
5.4496163e+2, 2.949775e+2, -228946.33, -225016.56, -5942.231, -0.032236174, 0.04923737, -220722.78, -171497.27, 0.0, 9.99147, 9.9919815 
5.44933e+2, 3.0497316e+2, -153069.94, -80894.195, -810.2008, -0.034487102, 0.05198195, -80885.1, -80885.1, 0.0, 9.989772, 9.999317 
5.4490507e+2, 3.1497246e+2, -177525.6, -92338.61, -935.744, -0.035979204, 0.05100329, -92328.33, -92328.33, 0.0, 9.988083, 9.999348 
5.554862e+2, 1.2514947e+2, -1505948.0, -1719347.8, -5511.641, 0.06916523, 0.057372537, -1505805.8, 207734.97, 0.00048247844, 10.018816, 9.990483 
5.5545694e+2, 1.3513996e+2, -1431562.4, -1632957.1, -5930.702, 0.05019713, 0.056959555, -1431387.9, 184246.17, 0.00031309918, 10.017209, 9.990481 
5.5542713e+2, 1.4513077e+2, -1352823.6, -1536355.0, -10107.284, 0.042043667, 0.054067448, -1352268.6, 165455.34, 0.00016894772, 10.01555, 9.991193 
5.553969e+2, 1.5512191e+2, -1279953.6, -1450669.4, -10240.746, 0.04432181, 0.04780029, -1279341.5, 140469.06, 0.00007186557, 10.01384, 9.99119 
5.5536616e+2, 1.651133e+2, -1203542.5, -1358780.8, -14444.095, 0.041870736, 0.048684184, -1202210.0, 119684.945, 0.000023085004, 10.0121765, 9.991582 
5.553348e+2, 1.7510495e+2, -1129282.5, -1272426.9, -14582.945, 0.03485216, 0.055514462, -1127811.9, 96165.12, 0.000005461546, 10.010562, 9.991575 
5.553032e+2, 1.8509647e+2, -1056396.8, -1189674.9, -16453.545, 0.028140616, 0.06290706, -1054395.6, 71665.02, 0.0000009420698, 10.00898, 9.991303 
5.552715e+2, 1.9508785e+2, -981094.3, -1102716.8, -16818.55, 0.02180684, 0.07003042, -978811.44, 49334.02, 0.00000011814362, 10.007431, 9.9913025 
5.5523956e+2, 2.0507924e+2, -903356.9, -1011696.75, -17869.125, 0.014428317, 0.066758886, -900485.7, 29744.0, 0.000000010766381, 10.005923, 9.991556 
5.552076e+2, 2.1507065e+2, -826813.44, -924104.4, -17833.928, 0.006021598, 0.052630402, -823647.44, 8665.844, 0.0000000007129222, 10.004456, 9.991554 
5.551754e+2, 2.2506227e+2, -749747.7, -834110.2, -19280.834, 0.001022102, 0.049841326, -745549.94, -11154.974, 0.000000000034304923, 10.00293, 9.991743 
5.5514306e+2, 2.3505409e+2, -674847.56, -747289.56, -19338.623, -0.00062977883, 0.057103947, -670008.3, -33533.496, 0.0000000000000044463555, 10.001348, 9.991742 
5.5511075e+2, 2.4504568e+2, -603235.1, -664391.3, -19186.844, -0.0014972016, 0.05131621, -597713.94, -59156.977, 0.00000000000000015534927, 9.9996395, 9.991532 
5.550785e+2, 2.55037e+2, -531896.7, -579171.5, -19052.951, -0.0016130197, 0.031843968, -525173.9, -84532.6, 0.0, 9.9978075, 9.991539 
5.550466e+2, 2.6502874e+2, -455071.3, -487233.84, -15394.136, -0.0072142063, 0.031590402, -448890.8, -106168.31, 0.0, 9.996176, 9.991907 
5.550152e+2, 2.7502084e+2, -377791.66, -399024.0, -15337.98, -0.018249098, 0.049187943, -369754.25, -124953.875, 0.0, 9.994743, 9.991921 
5.5498403e+2, 2.8501296e+2, -300673.28, -308002.44, -13265.048, -0.026475422, 0.05615998, -290575.94, -143697.95, 0.0, 9.993173, 9.992194 
5.5495304e+2, 2.950051e+2, -227316.39, -221590.52, -12365.847, -0.031890385, 0.051527515, -211760.53, -162805.55, 0.0, 9.9914665, 9.992213 
5.549228e+2, 3.0500087e+2, -153387.16, -81513.36, -7168.0327, -0.03696582, 0.05269589, -80805.45, -80805.45, 0.0, 9.989769, 9.999271 
5.5489314e+2, 3.1500024e+2, -177852.98, -92973.76, -7300.311, -0.041689295, 0.058347635, -92350.445, -92350.445, 0.0, 9.98808, 9.999301 
5.6550545e+2, 1.2517935e+2, -1495538.8, -1715900.8, 3406.6765, 0.06705158, 0.059536256, -1495486.1, 217762.25, 0.000765034, 10.019594, 9.990326 
5.654744e+2, 1.3516966e+2, -1424981.3, -1631355.4, 2676.212, 0.05223732, 0.058182817, -1424946.5, 190396.81, 0.0004965, 10.017723, 9.990328 
5.6544286e+2, 1.4516035e+2, -1347293.6, -1534572.0, -1634.818, 0.044170626, 0.055587977, -1347279.4, 170155.08, 0.0002679426, 10.01596, 9.991102 
5.6541103e+2, 1.5515141e+2, -1273677.4, -1448516.0, -2171.4717, 0.042818442, 0.050846614, -1273650.4, 145871.39, 0.000113994894, 10.014299, 9.991101 
5.6537855e+2, 1.6514273e+2, -1197390.8, -1356928.3, -6636.9185, 0.039541837, 0.053713743, -1197115.1, 124491.88, 0.000036626738, 10.012638, 9.991472 
5.653456e+2, 1.7513429e+2, -1123787.5, -1270901.9, -7262.5874, 0.03433286, 0.062825836, -1123429.9, 100260.26, 0.000008668135, 10.010979, 9.991465 
5.653124e+2, 1.8512571e+2, -1051537.4, -1188188.3, -9104.364, 0.02817139, 0.07083522, -1050933.5, 74841.08, 0.0000014958391, 10.009341, 9.991218 
5.6527907e+2, 1.9511698e+2, -977186.2, -1101679.6, -9344.997, 0.021130817, 0.07706845, -976488.6, 51371.715, 0.00000018770315, 10.007727, 9.991218 
5.6524557e+2, 2.0510836e+2, -900673.6, -1009793.9, -10183.29, 0.014127239, 0.072328426, -899731.44, 30213.398, 0.000000017119131, 10.006072, 9.991601 
5.6521195e+2, 2.150998e+2, -827437.6, -923813.5, -9845.589, 0.0071638147, 0.056191713, -826442.1, 5585.9385, 0.0000000011348267, 10.004378, 9.991599 
5.651782e+2, 2.2509141e+2, -753039.3, -836081.6, -11333.163, 0.0029350691, 0.053296037, -751520.44, -17410.65, 0.000000000054687904, 10.002712, 9.991702 
5.651443e+2, 2.3508322e+2, -678968.1, -749668.0, -11552.714, 0.0014056388, 0.06226811, -677128.25, -40938.32, 0.000000000000021026875, 10.001074, 9.9917 
5.651103e+2, 2.4507481e+2, -603969.25, -663749.3, -11350.205, -0.0015567845, 0.056875046, -601886.75, -63614.86, 0.00000000000000073459096, 9.999537, 9.991613 
5.650764e+2, 2.5506625e+2, -526839.7, -575740.3, -10821.74, -0.005918461, 0.036548775, -524551.9, -84196.39, 0.0, 9.998102, 9.991618 
5.650429e+2, 2.6505795e+2, -451986.97, -486418.0, -7498.6353, -0.011162032, 0.036484286, -450424.72, -107988.14, 0.0, 9.996407, 9.991838 
5.6500983e+2, 2.7504998e+2, -382285.3, -401858.9, -8022.8984, -0.017342847, 0.055234585, -379417.16, -134902.03, 0.0, 9.994455, 9.991855 
5.64977e+2, 2.8504217e+2, -306801.0, -308952.56, -6390.688, -0.024387708, 0.06299549, -301396.2, -154804.06, 0.0, 9.992659, 9.992366 
5.649443e+2, 2.9503456e+2, -232538.97, -222108.67, -5912.071, -0.032214243, 0.058726568, -219440.27, -170772.94, 0.0, 9.9910145, 9.992386 
5.649123e+2, 3.0503038e+2, -158990.88, -83185.18, -524.8182, -0.038969472, 0.057110954, -83181.55, -83181.55, 0.0, 9.989332, 9.999357 
5.648809e+2, 3.150298e+2, -183890.53, -94851.055, 373.72314, -0.044684306, 0.05890027, -94849.484, -94849.484, 0.0, 9.987613, 9.999386 
5.755249e+2, 1.2521124e+2, -1497162.1, -1718798.0, -3422.8674, 0.057304006, 0.06346455, -1497109.3, 215827.06, 0.0011346666, 10.01958, 9.99013 
5.7549214e+2, 1.3520136e+2, -1426510.1, -1634182.8, -4120.1333, 0.056096856, 0.063082576, -1426428.4, 188604.67, 0.0007365261, 10.017711, 9.990136 
5.7545894e+2, 1.451919e+2, -1348380.8, -1536606.6, -7644.2583, 0.050158687, 0.060515873, -1348070.8, 169054.94, 0.000397581, 10.015952, 9.990963 
5.7542527e+2, 1.551828e+2, -1274705.0, -1450524.8, -8188.054, 0.040345028, 0.054940578, -1274324.5, 144890.13, 0.000169211, 10.014294, 9.990962 
5.753911e+2, 1.6517398e+2, -1198627.1, -1359390.1, -12650.29, 0.032950845, 0.05966103, -1197637.8, 123663.414, 0.000054395226, 10.012633, 9.9913025 
5.753565e+2, 1.7516541e+2, -1125035.5, -1273366.8, -13277.03, 0.027641071, 0.07302424, -1123856.4, 99529.22, 0.000012882169, 10.010972, 9.991296 
5.7532173e+2, 1.851567e+2, -1052075.6, -1189175.4, -14962.712, 0.023321485, 0.07961077, -1050461.6, 75009.76, 0.0000022251336, 10.009335, 9.991149 
5.7528675e+2, 1.9514786e+2, -977708.75, -1102627.5, -15220.286, 0.019970164, 0.07908391, -975881.06, 51677.38, 0.00000027957375, 10.00772, 9.991153 
5.7525164e+2, 2.0513922e+2, -900100.2, -1008501.9, -16373.645, 0.016424486, 0.07373893, -897681.0, 31961.793, 0.000000025542473, 10.006065, 9.991688 
5.752164e+2, 2.1513082e+2, -826847.56, -922537.2, -16070.963, 0.012690528, 0.0630163, -824220.56, 7504.0195, 0.0000000016972418, 10.0043745, 9.991684 
5.7518095e+2, 2.2512244e+2, -753453.44, -836921.9, -17385.68, 0.008498006, 0.059762526, -749976.94, -16170.7, 0.00000000008205606, 10.002709, 9.991641 
5.7514536e+2, 2.3511413e+2, -679356.9, -750482.6, -17613.508, 0.0039185095, 0.06261699, -675234.06, -39346.395, 0.000000000000077527164, 10.001073, 9.99164 
5.7510984e+2, 2.4510577e+2, -602999.4, -661730.25, -16674.055, -0.0042503914, 0.059054468, -598595.7, -60626.574, 0.0000000000000027084035, 9.9995365, 9.991748 
5.750744e+2, 2.5509742e+2, -525927.8, -573785.4, -16186.509, -0.015835313, 0.048496716, -520967.34, -80916.85, 0.0, 9.998098, 9.991749 
5.750392e+2, 2.6508915e+2, -453024.03, -488485.16, -14820.273, -0.02053535, 0.048161592, -447645.88, -105514.164, 0.0, 9.996401, 9.991695 
5.750043e+2, 2.7508092e+2, -383293.22, -403886.03, -15354.649, -0.018715618, 0.056635227, -375102.28, -130889.7, 0.0, 9.994451, 9.991714 
5.7496965e+2, 2.850731e+2, -305973.28, -307189.06, -12580.45, -0.023049623, 0.06467457, -293986.06, -147696.4, 0.0, 9.992655, 9.992484 
5.749353e+2, 2.9506567e+2, -231714.45, -220352.97, -12108.165, -0.03323687, 0.07102859, -212659.16, -164296.44, 0.0, 9.991011, 9.992502 
5.7490164e+2, 3.0506164e+2, -157386.39, -79826.89, -6999.4326, -0.040479176, 0.065239005, -79200.28, -79200.28, 0.0, 9.989329, 9.999584 
5.7486856e+2, 3.1506118e+2, -182244.28, -91428.25, -6056.1353, -0.044672646, 0.057664037, -91026.17, -91026.17, 0.0, 9.987612, 9.999617 
5.855448e+2, 1.2524495e+2, -1489805.5, -1716359.6, 1716.8057, 0.059482906, 0.077268384, -1489792.5, 222814.33, 0.0016004441, 10.02013, 9.990017 
5.855101e+2, 1.352349e+2, -1420109.5, -1632212.6, 1589.0732, 0.0576117, 0.071477994, -1420097.6, 194607.44, 0.0010392271, 10.018192, 9.990025 
5.854751e+2, 1.4522532e+2, -1342476.6, -1534664.1, -627.6395, 0.050766535, 0.06670724, -1342474.5, 174324.3, 0.0005612505, 10.016388, 9.99087 
5.8543974e+2, 1.5521614e+2, -1269161.5, -1448768.6, -830.52856, 0.03976056, 0.061801482, -1269157.6, 149730.9, 0.0002390276, 10.014705, 9.9908695 
5.854039e+2, 1.652072e+2, -1194177.9, -1358402.6, -5050.2793, 0.03260637, 0.0664146, -1194022.8, 126953.42, 0.000076908815, 10.012978, 9.991188 
5.853676e+2, 1.7519853e+2, -1122055.8, -1273088.4, -5240.8174, 0.028816186, 0.0788989, -1121874.1, 101187.6, 0.00001823669, 10.011216, 9.991182 
5.8533114e+2, 1.8518972e+2, -1049781.9, -1188220.8, -6320.694, 0.024987683, 0.08398456, -1049493.9, 75654.44, 0.000003155392, 10.009488, 9.991125 
5.8529454e+2, 1.9518083e+2, -976590.7, -1102226.3, -6210.293, 0.021232693, 0.08136591, -976284.5, 50951.207, 0.00000039737813, 10.007792, 9.99113 
5.8525777e+2, 2.0517221e+2, -899130.56, -1007834.2, -7500.082, 0.017173197, 0.07700167, -898615.5, 30704.486, 0.000000036420587, 10.006113, 9.991695 
5.852208e+2, 2.1516383e+2, -825461.8, -921677.3, -7690.2793, 0.012817619, 0.070282064, -824851.06, 6550.4067, 0.0000000024305173, 10.004451, 9.991691 
5.851838e+2, 2.2515546e+2, -751978.06, -836550.9, -8933.898, 0.007620603, 0.06712875, -751044.6, -17561.365, 0.00000000011819473, 10.002815, 9.991601 
5.851465e+2, 2.3514704e+2, -677460.1, -749902.3, -8945.941, 0.0016385511, 0.06623729, -676371.75, -40806.293, 0.00000000000023125287, 10.001206, 9.991601 
5.8510935e+2, 2.4513869e+2, -603309.94, -661971.9, -8405.666, -0.0050351527, 0.06412541, -602129.25, -64482.184, 0.000000000000008078857, 9.999509, 9.991731 
5.8507234e+2, 2.5513038e+2, -531275.06, -576458.3, -8980.512, -0.012448911, 0.060144242, -529555.56, -89827.52, 0.0, 9.997726, 9.991734 
5.850354e+2, 2.6512212e+2, -458461.63, -490433.47, -8140.438, -0.018226866, 0.058706664, -456508.3, -114699.15, 0.0, 9.995989, 9.991748 
5.849986e+2, 2.7511385e+2, -384960.03, -404013.75, -7150.64, -0.022313586, 0.058557533, -382575.03, -138684.8, 0.0, 9.994296, 9.991764 
5.849621e+2, 2.851061e+2, -307564.97, -307490.13, -3693.2568, -0.02735332, 0.065682575, -303834.1, -157867.17, 0.0, 9.992516, 9.992516 
5.849261e+2, 2.9509875e+2, -236538.69, -222193.56, -3821.262, -0.03338284, 0.078582495, -221239.16, -173200.06, 0.0, 9.990649, 9.992537 
5.8489066e+2, 3.050948e+2, -164053.38, -80734.76, 668.6506, -0.03954497, 0.06908969, -80729.4, -80729.4, 0.0, 9.988763, 9.999781 
5.848558e+2, 3.1509456e+2, -191627.84, -93567.22, 1475.7643, -0.045317043, 0.06461777, -93545.016, -93545.016, 0.0, 9.986856, 9.999821 
5.95565e+2, 1.2528035e+2, -1490506.4, -1717089.5, -5268.432, 0.07120589, 0.09910718, -1490383.9, 221877.13, 0.0021661317, 10.020108, 9.989972 
5.9552824e+2, 1.3527016e+2, -1420536.8, -1632813.0, -5385.1235, 0.05708228, 0.08275136, -1420400.3, 193960.25, 0.0014073377, 10.018185, 9.989981 
5.9549147e+2, 1.4526048e+2, -1342897.4, -1535324.9, -6686.8423, 0.046944823, 0.074023195, -1342665.4, 173789.63, 0.0007606434, 10.016381, 9.990824 
5.9545445e+2, 1.5525128e+2, -1269720.0, -1449503.5, -6919.6914, 0.04083009, 0.07107275, -1269454.1, 149090.73, 0.00032429176, 10.014687, 9.990823 
5.954169e+2, 1.6524228e+2, -1194803.1, -1359294.9, -11425.157, 0.037623625, 0.07387212, -1194013.4, 126619.69, 0.000104495644, 10.0129595, 9.991131 
5.9537894e+2, 1.7523348e+2, -1122537.3, -1273887.1, -11617.935, 0.03682319, 0.081025526, -1121650.6, 101068.96, 0.000024827536, 10.011207, 9.991127 
5.9534067e+2, 1.8522467e+2, -1049626.1, -1187813.5, -12478.728, 0.0323397, 0.084568195, -1048508.25, 76298.14, 0.0000043074656, 10.009483, 9.991151 
5.9530234e+2, 1.952158e+2, -976403.8, -1101792.5, -12401.959, 0.02461631, 0.08395884, -975188.94, 51704.387, 0.0000005444766, 10.007789, 9.991156 
5.9526384e+2, 2.052072e+2, -899497.56, -1008558.06, -13600.999, 0.016479766, 0.0819635, -897827.0, 31150.598, 0.00000005015306, 10.00611, 9.991643 
5.952252e+2, 2.151988e+2, -825832.56, -922406.1, -13810.85, 0.007944881, 0.07797711, -823896.3, 7163.106, 0.000000003369609, 10.004448, 9.991638 
5.951865e+2, 2.2519039e+2, -752046.6, -836647.94, -14882.758, 0.00075805315, 0.07537751, -749504.9, -16363.315, 0.00000000016534783, 10.002811, 9.991591 
5.9514767e+2, 2.3518196e+2, -677554.44, -750038.1, -14922.529, -0.0051506036, 0.072980635, -674602.5, -39378.59, 0.00000000000058112824, 10.001203, 9.991589 
5.9510887e+2, 2.4517354e+2, -604405.06, -664164.0, -15045.649, -0.0038840685, 0.07195801, -600830.75, -63524.47, 0.000000000000020302384, 9.999504, 9.991578 
5.9507024e+2, 2.5516513e+2, -532329.4, -578576.2, -15633.749, 0.003960381, 0.071488984, -527540.3, -88151.75, 0.0, 9.997722, 9.991586 
5.9503156e+2, 2.6515687e+2, -456662.5, -486666.4, -14476.235, -0.00455616, 0.06815792, -450816.9, -109347.65, 0.0, 9.995985, 9.992002 
5.949929e+2, 2.751488e+2, -383183.03, -400289.94, -13514.722, -0.028287888, 0.061013084, -375742.44, -132194.17, 0.0, 9.994293, 9.992015 
5.949546e+2, 2.851411e+2, -307870.7, -308077.06, -10725.115, -0.03732548, 0.06596136, -297248.28, -151624.19, 0.0, 9.992512, 9.992472 
5.949168e+2, 2.9513377e+2, -236832.05, -222744.02, -10849.904, -0.032568242, 0.081192195, -216852.1, -169155.55, 0.0, 9.990645, 9.992496 
5.9487945e+2, 3.0512986e+2, -162837.53, -78125.83, -6519.888, -0.036097735, 0.06854389, -77626.96, -77626.96, 0.0, 9.988758, 9.999957 
5.948426e+2, 3.1512997e+2, -190378.28, -90850.98, -5614.8228, -0.04654094, 0.08176896, -90535.22, -90535.22, 0.0, 9.986849, 10.000005 
6.0558534e+2, 1.253176e+2, -1484535.4, -1714372.4, 1799.1543, 0.07282664, 0.10744737, -1484521.3, 227375.45, 0.002821002, 10.020527, 9.989939 
6.055468e+2, 1.3530736e+2, -1412672.0, -1629180.9, 1808.4838, 0.057457633, 0.08854484, -1412656.9, 201339.64, 0.0018343189, 10.018726, 9.98995 
6.05508e+2, 1.4529763e+2, -1336527.9, -1532423.8, 648.0612, 0.047768407, 0.0793668, -1336525.8, 179565.52, 0.0009925449, 10.016816, 9.990795 
6.054692e+2, 1.5528843e+2, -1267895.3, -1448817.0, 591.60767, 0.043698277, 0.07785047, -1267893.3, 150288.05, 0.00042381897, 10.014809, 9.990795 
6.0542995e+2, 1.6527942e+2, -1194045.3, -1358825.1, -2983.6028, 0.04026462, 0.08094156, -1193991.3, 126278.44, 0.00013685656, 10.012995, 9.99113 
6.0539013e+2, 1.7527062e+2, -1120058.1, -1272596.3, -2746.15, 0.03718681, 0.087279074, -1120008.6, 102347.71, 0.000032610536, 10.01136, 9.991124 
6.0535026e+2, 1.8526177e+2, -1046614.56, -1186640.3, -3609.6084, 0.032103222, 0.0897951, -1046521.56, 77921.82, 0.0000056800372, 10.009689, 9.991115 
6.0531026e+2, 1.9525287e+2, -973493.25, -1100654.6, -3893.562, 0.025247933, 0.088069305, -973374.1, 53156.55, 0.0000007217892, 10.007987, 9.991121 
6.052701e+2, 2.052442e+2, -897373.25, -1008353.3, -5303.621, 0.016973393, 0.08678077, -897120.4, 31495.096, 0.00000006695995, 10.006279, 9.991559 
6.0522974e+2, 2.1523575e+2, -824432.56, -922536.9, -5668.0005, 0.0074019646, 0.08511872, -824106.2, 6591.827, 0.000000004541509, 10.004566, 9.991556 
6.051893e+2, 2.252273e+2, -751287.06, -836388.3, -6705.3022, 0.00011613371, 0.08327924, -750761.94, -17981.395, 0.00000000022563604, 10.002856, 9.991572 
6.051488e+2, 2.3521884e+2, -678205.5, -750458.9, -6762.868, -0.0050385026, 0.08025482, -677577.94, -42714.76, 0.0000000000012717337, 10.001151, 9.9915695 
6.051083e+2, 2.4521038e+2, -606169.2, -665060.25, -6903.7734, -0.0034688828, 0.07792569, -605370.7, -68424.88, 0.000000000000044430293, 9.9993725, 9.991565 
6.0506785e+2, 2.552019e+2, -534963.1, -579871.5, -6393.7813, 0.0043418235, 0.07552843, -534070.5, -95042.086, 0.0, 9.99753, 9.991573 
6.050274e+2, 2.6519373e+2, -458739.4, -486221.28, -4738.215, -0.004837763, 0.07234151, -457945.4, -116836.84, 0.0, 9.995769, 9.99212 
6.04987e+2, 2.7518582e+2, -385191.4, -399815.0, -4736.6855, -0.029962597, 0.067156784, -383791.22, -140605.02, 0.0, 9.9940815, 9.992134 
6.04947e+2, 2.8517818e+2, -311724.1, -309734.72, -3108.9175, -0.039156295, 0.073174186, -307465.25, -162203.97, 0.0, 9.992227, 9.99248 
6.049072e+2, 2.9517084e+2, -242771.1, -225402.55, -2783.8286, -0.033276543, 0.08871137, -224967.27, -177633.64, 0.0, 9.990217, 9.992504 
6.04868e+2, 3.0516684e+2, -169267.89, -81348.37, 1261.5284, -0.03745927, 0.0678615, -81330.266, -81330.266, 0.0, 9.988311, 9.999936 
6.0482925e+2, 3.1516707e+2, -195341.2, -93144.54, 808.2988, -0.0499586, 0.09502794, -93138.15, -93138.15, 0.0, 9.986493, 10.000006 
6.1560583e+2, 1.2535658e+2, -1484697.6, -1714496.8, -4497.302, 0.066419214, 0.10511994, -1484609.6, 226905.52, 0.0035407331, 10.020531, 9.989922 
6.155655e+2, 1.3534635e+2, -1413055.9, -1629420.1, -4542.89, 0.05866777, 0.09002639, -1412960.5, 200654.19, 0.0023048804, 10.018709, 9.989935 
6.155249e+2, 1.4533667e+2, -1336856.8, -1532584.0, -6505.9263, 0.05240596, 0.083154336, -1336640.8, 179068.58, 0.0012490697, 10.016795, 9.9907875 
6.1548406e+2, 1.5532745e+2, -1267993.8, -1448844.1, -6593.0176, 0.048024494, 0.08260169, -1267753.8, 150045.69, 0.0005344682, 10.0148, 9.990791 
6.1544293e+2, 1.653185e+2, -1193620.5, -1357930.8, -8865.528, 0.040813442, 0.08778255, -1193143.5, 126743.87, 0.00017307664, 10.012993, 9.991186 
6.154015e+2, 1.7530976e+2, -1119673.8, -1271771.8, -8706.308, 0.030911794, 0.09717672, -1119177.0, 102796.23, 0.0000413998, 10.011357, 9.991176 
6.1535984e+2, 1.853009e+2, -1047185.94, -1187749.5, -9839.03, 0.025277553, 0.09909075, -1046500.6, 77559.88, 0.0000072482835, 10.009685, 9.991035 
6.1531824e+2, 1.9529189e+2, -974076.7, -1101756.8, -10119.055, 0.023472369, 0.093541645, -973279.7, 52869.152, 0.00000092745114, 10.007981, 9.991044 
6.152764e+2, 2.052831e+2, -898125.8, -1009797.44, -11567.617, 0.01855275, 0.091504395, -896940.1, 31294.453, 0.000000086827825, 10.006272, 9.991458 
6.152343e+2, 2.1527459e+2, -825157.7, -923940.1, -11953.584, 0.01083469, 0.091771185, -823731.75, 6586.2075, 0.0000000059595835, 10.00456, 9.991458 
6.151922e+2, 2.2526608e+2, -751438.25, -836602.7, -12985.021, 0.0052450937, 0.090885915, -749502.44, -17101.396, 0.00000000030064534, 10.002851, 9.991555 
6.1515003e+2, 2.3525761e+2, -678335.25, -750619.0, -13078.351, 0.0015715902, 0.0880629, -676041.75, -41557.977, 0.000000000002468787, 10.001144, 9.991556 
6.151077e+2, 2.4524918e+2, -605260.06, -663113.94, -13761.204, -0.0039398335, 0.082065955, -602153.6, -65587.52, 0.00000000000008625209, 9.999367, 9.9916935 
6.150652e+2, 2.552408e+2, -534031.94, -577930.1, -13260.264, -0.011042791, 0.07240642, -530337.4, -91689.33, 0.0, 9.997527, 9.991701 
6.150231e+2, 2.6523265e+2, -458744.22, -486203.03, -11066.625, -0.018720133, 0.07142641, -454839.38, -114111.945, 0.0, 9.995767, 9.992117 
6.149811e+2, 2.7522486e+2, -385194.56, -399780.9, -11112.332, -0.027138308, 0.07710315, -379195.84, -136391.6, 0.0, 9.994079, 9.992132 
6.149392e+2, 2.8521731e+2, -311227.1, -308628.8, -10690.944, -0.032806706, 0.087417975, -299158.38, -154279.75, 0.0, 9.992221, 9.992553 
6.148974e+2, 2.9521003e+2, -242324.94, -224380.25, -10329.201, -0.03567469, 0.10125489, -219670.66, -172720.33, 0.0, 9.990211, 9.992571 
6.1485624e+2, 3.0520582e+2, -170803.19, -84463.734, -5576.083, -0.043858413, 0.06696558, -84105.1, -84105.1, 0.0, 9.988306, 9.999719 
6.1481565e+2, 3.15206e+2, -196602.22, -95760.33, -5900.9766, -0.05552048, 0.110075615, -95416.19, -95416.19, 0.0, 9.986492, 9.999821 
6.256267e+2, 1.2539807e+2, -1473364.1, -1708798.1, 4671.1035, 0.065234765, 0.10824574, -1473271.5, 237837.63, 0.0042961636, 10.021301, 9.989915 
6.2558436e+2, 1.3538782e+2, -1407996.9, -1626843.3, 4796.091, 0.06234315, 0.0927349, -1407891.8, 205316.98, 0.0028003969, 10.019045, 9.989927 
6.255418e+2, 1.4537807e+2, -1334334.3, -1532397.3, 3078.0466, 0.05590347, 0.08557763, -1334286.5, 181017.56, 0.0015203912, 10.017003, 9.99068 
6.25499e+2, 1.5536875e+2, -1263378.8, -1447634.9, 2450.3953, 0.04706228, 0.08478871, -1263346.1, 154049.08, 0.00065219257, 10.015147, 9.990686 
6.254561e+2, 1.6535969e+2, -1188683.4, -1356679.6, 247.65112, 0.039457243, 0.091813035, -1188683.1, 130801.055, 0.00021191461, 10.013367, 9.991073 
6.2541294e+2, 1.753509e+2, -1115829.8, -1270992.9, -672.8414, 0.03256387, 0.10473827, -1115826.9, 105744.02, 0.00005092078, 10.011654, 9.99107 
6.2536967e+2, 1.85342e+2, -1043535.1, -1185399.5, -2112.2188, 0.027199425, 0.1074795, -1043503.7, 80154.664, 0.000008969404, 10.009895, 9.991077 
6.253262e+2, 1.95333e+2, -971758.2, -1100076.3, -1521.453, 0.023369193, 0.10047976, -971740.2, 54006.215, 0.0000011568833, 10.008101, 9.991083 
6.2528265e+2, 2.0532422e+2, -897384.56, -1009965.25, -2283.3428, 0.017913861, 0.09697627, -897338.25, 30494.088, 0.00000010943836, 10.006331, 9.9914 
6.252389e+2, 2.1531561e+2, -824904.06, -924307.56, -2305.7954, 0.010968665, 0.09576723, -824850.56, 5065.837, 0.000000007611776, 10.004585, 9.991403 
6.251951e+2, 2.2530708e+2, -751695.3, -836389.3, -3076.9846, 0.0062479083, 0.094501995, -751583.7, -19583.97, 0.00000000039039313, 10.002805, 9.991573 
6.251511e+2, 2.3529865e+2, -680100.4, -751148.0, -2843.6406, 0.0034744884, 0.09231206, -679986.75, -45904.54, 0.0000000000042773966, 10.000996, 9.991573 
6.2510705e+2, 2.4529023e+2, -605669.1, -662879.44, -3539.7856, -0.004203275, 0.087238945, -605450.94, -69286.695, 0.00000000000014944121, 9.999307, 9.99172 
6.250628e+2, 2.5528187e+2, -530645.56, -575863.1, -3733.4114, -0.016282322, 0.07865923, -530339.4, -92093.555, 0.0, 9.997726, 9.991728 
6.250188e+2, 2.6527378e+2, -457506.63, -486062.56, -2773.8013, -0.022974635, 0.07769258, -457239.7, -116914.31, 0.0, 9.995856, 9.992065 
6.24975e+2, 2.752659e+2, -390404.63, -402708.97, -3095.9597, -0.02486153, 0.08251764, -389669.56, -147266.67, 0.0, 9.993725, 9.9920845 
6.249313e+2, 2.8525838e+2, -315606.84, -309848.4, -2454.3538, -0.030886564, 0.0964701, -308944.28, -164467.5, 0.0, 9.991869, 9.992621 
6.2488765e+2, 2.9525125e+2, -240966.13, -222875.25, -2075.737, -0.040427845, 0.11789952, -222640.14, -176093.06, 0.0, 9.9902525, 9.992636 
6.248445e+2, 3.0524686e+2, -171032.22, -85097.17, 2499.167, -0.04918873, 0.06698177, -85024.555, -85024.555, 0.0, 9.988298, 9.9996605 
6.2480193e+2, 3.15247e+2, -203102.05, -98915.836, 3612.3127, -0.055900283, 0.11338034, -98790.74, -98790.74, 0.0, 9.986033, 9.999805 
6.356481e+2, 1.2544176e+2, -1474080.3, -1708836.0, -3485.1353, 0.068155214, 0.115699254, -1474028.6, 236652.7, 0.0050586537, 10.021252, 9.989928 
6.356034e+2, 1.354315e+2, -1408147.4, -1626700.6, -3366.4302, 0.067945205, 0.09651782, -1408095.5, 204685.58, 0.003302097, 10.019032, 9.989936 
6.3555884e+2, 1.4542162e+2, -1335528.1, -1534858.4, -3647.9727, 0.058382086, 0.08700784, -1335461.4, 179416.0, 0.001796241, 10.017005, 9.990504 
6.3551414e+2, 1.5541212e+2, -1264577.9, -1450129.4, -4226.8257, 0.04166715, 0.08493117, -1264481.8, 152488.78, 0.00077254185, 10.015148, 9.990509 
6.3546944e+2, 1.6540287e+2, -1190451.4, -1360231.4, -5893.7207, 0.036603857, 0.09355632, -1190247.0, 128814.336, 0.00025190442, 10.013362, 9.990827 
6.3542473e+2, 1.7539388e+2, -1117617.0, -1274383.4, -6822.9746, 0.041068558, 0.11037045, -1117320.6, 103829.67, 0.0000608147, 10.011639, 9.990839 
6.353797e+2, 1.8538496e+2, -1042581.1, -1183139.5, -8579.294, 0.03661558, 0.11515519, -1042059.4, 81178.47, 0.000010778668, 10.00988, 9.991232 
6.353344e+2, 1.9537614e+2, -970739.2, -1097835.9, -8060.234, 0.024649763, 0.108772404, -970230.06, 55094.25, 0.0000014014743, 10.008093, 9.991233 
6.3528895e+2, 2.053674e+2, -897446.56, -1010011.1, -8681.858, 0.015259208, 0.10311781, -896780.9, 30628.873, 0.00000013394492, 10.006326, 9.991393 
6.352435e+2, 2.1535873e+2, -824944.4, -924295.94, -8729.573, 0.008073975, 0.0973466, -824183.2, 5311.0645, 0.000000009436395, 10.004579, 9.9914 
6.351978e+2, 2.2535023e+2, -751243.25, -835395.3, -9755.344, 0.0034126965, 0.09446749, -750127.2, -18549.82, 0.0000000004915383, 10.002799, 9.991636 
6.351521e+2, 2.3534186e+2, -679644.75, -750204.0, -9538.402, 0.00092749984, 0.09323298, -678378.06, -44718.816, 0.0000000000066317694, 10.000993, 9.991632 
6.351063e+2, 2.4533351e+2, -606066.25, -663683.8, -9422.533, -0.0041677565, 0.09350986, -604564.5, -68823.61, 0.000000000000231701, 9.999305, 9.99166 
6.350606e+2, 2.5532517e+2, -531075.1, -576682.6, -9699.663, -0.011537682, 0.09417541, -529097.94, -91275.7, 0.0, 9.997722, 9.991668 
6.350147e+2, 2.6531696e+2, -458140.44, -487289.38, -10785.444, -0.017814279, 0.09095623, -454583.7, -114680.98, 0.0, 9.995849, 9.991978 
6.3496876e+2, 2.7530888e+2, -391003.03, -403852.8, -11071.767, -0.023258667, 0.083225735, -384627.03, -142644.72, 0.0, 9.993717, 9.992003 
6.3492316e+2, 2.8530142e+2, -315060.16, -308654.34, -8525.895, -0.033497695, 0.100305036, -302749.6, -158693.7, 0.0, 9.991865, 9.992699 
6.348778e+2, 2.9529452e+2, -240359.1, -221654.08, -8205.099, -0.047648672, 0.13888115, -218565.0, -172441.2, 0.0, 9.990253, 9.992713 
6.3483274e+2, 3.0529004e+2, -170106.84, -83207.07, -6033.781, -0.053355627, 0.067801036, -82790.125, -82790.125, 0.0, 9.9882965, 9.9997835 
6.3478804e+2, 3.152903e+2, -201782.63, -96080.586, -4664.8003, -0.05041346, 0.11312906, -95875.125, -95875.125, 0.0, 9.986026, 9.999996 
6.456694e+2, 1.2548749e+2, -1474507.5, -1709529.6, 3649.7432, 0.07462788, 0.11836366, -1474450.9, 235782.78, 0.005798419, 10.021242, 9.989867 
6.456227e+2, 1.3547724e+2, -1402441.4, -1624390.6, 3372.5005, 0.068389334, 0.1065284, -1402390.1, 209943.4, 0.0037898817, 10.019436, 9.989879 
6.455761e+2, 1.4546736e+2, -1327450.4, -1531064.9, 3803.5073, 0.05695502, 0.09873373, -1327379.3, 187050.77, 0.0020651957, 10.017552, 9.990479 
6.4552957e+2, 1.5545778e+2, -1257800.4, -1447041.6, 4248.127, 0.041803695, 0.09362823, -1257705.0, 158818.63, 0.0008903147, 10.015605, 9.990478 
6.4548296e+2, 1.6544844e+2, -1186920.8, -1359721.9, 3707.9539, 0.03760581, 0.098848164, -1186841.3, 131774.25, 0.00029122463, 10.013639, 9.990707 
6.454364e+2, 1.7543927e+2, -1117782.6, -1275620.6, 3695.0657, 0.042367015, 0.111830086, -1117696.1, 103009.78, 0.00007060177, 10.011662, 9.990723 
6.453895e+2, 1.854303e+2, -1042957.8, -1183476.3, 2213.868, 0.03753885, 0.11749114, -1042922.94, 79871.19, 0.000012581801, 10.009845, 9.991205 
6.4534247e+2, 1.9542149e+2, -969443.2, -1097288.4, 1573.7954, 0.024557104, 0.116018035, -969423.8, 55456.594, 0.000001647428, 10.008169, 9.991214 
6.452953e+2, 2.0541279e+2, -895287.0, -1008106.56, 557.098, 0.015451812, 0.11132381, -895284.25, 31681.262, 0.00000015884235, 10.00642, 9.991458 
6.4524806e+2, 2.1540417e+2, -823705.8, -922879.4, 1070.1003, 0.009692821, 0.10327388, -823694.25, 5355.3853, 0.000000011311138, 10.004612, 9.99146 
6.4520067e+2, 2.2539566e+2, -750376.25, -835543.25, -12.293963, 0.003540978, 0.10093487, -750376.25, -19243.469, 0.00000000059670374, 10.002867, 9.991573 
6.4515316e+2, 2.3538727e+2, -677029.44, -749449.56, -615.044, -0.0028772133, 0.10247801, -677024.2, -43809.14, 0.000000000009269021, 10.001178, 9.991575 
6.4510566e+2, 2.453789e+2, -604921.25, -662916.2, -637.36816, -0.006438169, 0.10371809, -604914.25, -69617.414, 0.00000000000032384813, 9.999358, 9.991668 
6.450582e+2, 2.553706e+2, -535070.6, -578405.94, -362.48196, -0.007614548, 0.10402706, -535067.6, -97689.484, 0.0, 9.997423, 9.991674 
6.450105e+2, 2.6536232e+2, -461331.44, -488991.9, -1432.1284, -0.015206706, 0.09789192, -461257.5, -121798.54, 0.0, 9.995621, 9.991951 
6.4496255e+2, 2.7535415e+2, -387703.53, -402415.2, -1183.3582, -0.028411314, 0.084775396, -387608.97, -146069.69, 0.0, 9.993934, 9.991976 
6.4491504e+2, 2.8534672e+2, -313179.0, -307753.4, 1278.6836, -0.037600067, 0.105403386, -307467.16, -163854.44, 0.0, 9.991978, 9.992685 
6.4486784e+2, 2.953399e+2, -246921.64, -224773.9, 938.87823, -0.043177653, 0.15535781, -224734.17, -179054.45, 0.0, 9.989786, 9.992704 
6.448208e+2, 3.0533528e+2, -177446.05, -85085.29, 2012.7606, -0.048870552, 0.065696925, -85041.445, -85041.445, 0.0, 9.987705, 9.999919 
6.4477384e+2, 3.1533578e+2, -204473.98, -94747.31, 3748.7195, -0.05380681, 0.11979458, -94619.38, -94619.38, 0.0, 9.985713, 10.000218 
6.5569067e+2, 1.2553512e+2, -1475124.1, -1710920.3, -2750.4792, 0.083598696, 0.11757632, -1475092.0, 234675.72, 0.006477974, 10.02126, 9.989756 
6.556421e+2, 1.355249e+2, -1403331.0, -1625814.5, -3092.1155, 0.064661376, 0.12161371, -1403288.0, 208579.38, 0.0042384053, 10.019424, 9.9897785 
6.5559363e+2, 1.4551507e+2, -1327119.4, -1529657.0, -3202.9087, 0.052530233, 0.11872751, -1327068.8, 186894.64, 0.0023128209, 10.017522, 9.9905815 
6.555452e+2, 1.5550555e+2, -1257579.1, -1445759.5, -2835.027, 0.046550896, 0.10936507, -1257536.4, 158519.88, 0.0009989268, 10.015568, 9.990575 
6.5549666e+2, 1.6549617e+2, -1187216.5, -1359831.8, -3503.2776, 0.041667927, 0.10710075, -1187145.4, 131002.945, 0.00032756326, 10.013615, 9.990704 
6.55448e+2, 1.754869e+2, -1117738.0, -1275624.5, -3474.8306, 0.03742546, 0.109765, -1117661.5, 102578.02, 0.000079670775, 10.0116625, 9.990714 
6.553994e+2, 1.8547784e+2, -1044020.56, -1185813.4, -3855.5176, 0.03119684, 0.11535609, -1043915.8, 78412.86, 0.00001425812, 10.009849, 9.991037 
6.553506e+2, 1.9546896e+2, -970585.8, -1099475.4, -4510.882, 0.023323154, 0.12244797, -970428.1, 53987.785, 0.0000018769787, 10.00816, 9.991062 
6.5530175e+2, 2.054603e+2, -894394.3, -1006043.3, -6032.3633, 0.018196007, 0.121438816, -894069.4, 32431.383, 0.00000018218175, 10.006408, 9.991597 
6.5525275e+2, 2.154518e+2, -822818.1, -920952.94, -5570.24, 0.01539375, 0.11321533, -822503.0, 6080.571, 0.000000013076899, 10.004605, 9.991588 
6.552036e+2, 2.2544332e+2, -751545.9, -837909.56, -6252.081, 0.0063217976, 0.11346906, -751095.6, -20428.89, 0.0000000006962456, 10.002863, 9.991407 
6.551542e+2, 2.3543479e+2, -678128.5, -751650.44, -6899.543, -0.007931536, 0.11961749, -677486.6, -44736.305, 0.000000000011839007, 10.001172, 9.991421 
6.55105e+2, 2.4542636e+2, -604314.75, -661591.1, -7841.529, -0.010910949, 0.11761355, -603260.6, -68427.97, 0.00000000000041364842, 9.9993515, 9.991754 
6.5505564e+2, 2.55418e+2, -534458.3, -577091.8, -7564.1133, -0.0044945003, 0.10822535, -533156.06, -96242.18, 0.0, 9.997418, 9.991759 
6.550061e+2, 2.654098e+2, -460979.44, -488229.7, -7764.769, -0.015217846, 0.0986122, -458922.22, -119927.91, 0.0, 9.995618, 9.991997 
6.5495634e+2, 2.754017e+2, -387375.25, -401707.25, -7587.785, -0.04049335, 0.087269336, -384104.5, -143030.6, 0.0, 9.99393, 9.992019 
6.549069e+2, 2.8539425e+2, -313836.25, -309059.72, -7002.6597, -0.043085538, 0.11171251, -304049.25, -160902.02, 0.0, 9.991972, 9.99259 
6.548578e+2, 2.9538742e+2, -247582.94, -225966.84, -7295.073, -0.026221, 0.16697887, -223735.25, -178520.44, 0.0, 9.989775, 9.9926195 
6.5480864e+2, 3.053827e+2, -176359.0, -82649.84, -5446.6704, -0.035358757, 0.06062243, -82334.33, -82334.33, 0.0, 9.987696, 10.000082 
6.5475947e+2, 3.1538364e+2, -202498.11, -90629.125, -3403.3486, -0.066994175, 0.14303753, -90525.68, -90525.68, 0.0, 9.985709, 10.000494 
6.657123e+2, 1.255851e+2, -1464118.8, -1706472.8, 5246.2046, 0.07848482, 0.12863955, -1464005.3, 245273.34, 0.007046293, 10.022051, 9.989654 
6.656617e+2, 1.3557473e+2, -1399113.8, -1624618.5, 5048.0737, 0.06597599, 0.12620744, -1399000.8, 212379.06, 0.004613486, 10.019739, 9.989686 
6.6561115e+2, 1.4556487e+2, -1326874.5, -1529161.3, 4847.9097, 0.05749728, 0.1232539, -1326758.4, 186717.84, 0.002519886, 10.017507, 9.990602 
6.6556066e+2, 1.5555543e+2, -1260333.6, -1446711.3, 4828.139, 0.053120207, 0.11868747, -1260208.8, 155359.8, 0.0010897449, 10.015345, 9.990598 
6.6551024e+2, 1.6554609e+2, -1187492.5, -1359255.9, 5445.2573, 0.04525123, 0.1181797, -1187320.0, 130339.945, 0.00035794685, 10.013547, 9.990756 
6.654598e+2, 1.7553687e+2, -1111408.6, -1271856.3, 5844.719, 0.034228094, 0.12002475, -1111196.0, 108554.67, 0.00008725305, 10.012047, 9.990765 
6.654094e+2, 1.8552779e+2, -1038130.1, -1182934.5, 5672.194, 0.02776998, 0.12255995, -1037908.25, 83931.58, 0.000015659469, 10.010232, 9.991026 
6.6535884e+2, 1.9551885e+2, -970191.3, -1099253.6, 6173.099, 0.02507811, 0.12506798, -969896.7, 54030.895, 0.000002068843, 10.008166, 9.991051 
6.653082e+2, 2.0551017e+2, -895720.75, -1007121.25, 5047.51, 0.020877453, 0.12588882, -895492.5, 30520.088, 0.0000002016875, 10.006318, 9.991545 
6.652574e+2, 2.1550171e+2, -822146.9, -921042.44, 4266.6826, 0.0155268945, 0.12460361, -821963.1, 6132.244, 0.000000014552631, 10.004651, 9.991538 
6.6520643e+2, 2.2549315e+2, -750567.7, -837722.7, 3547.6274, 0.0059730057, 0.12446089, -750423.5, -20244.465, 0.0000000007794324, 10.002924, 9.991369 
6.651555e+2, 2.3548453e+2, -678370.75, -752002.5, 3859.3792, -0.0071615125, 0.12426644, -678169.06, -45905.5, 0.000000000013985764, 10.001148, 9.991386 
6.651043e+2, 2.4547611e+2, -603605.6, -660587.0, 2770.3289, -0.010608891, 0.12214583, -603471.3, -69125.484, 0.00000000000048865973, 9.999353, 9.991798 
6.650531e+2, 2.5546786e+2, -531966.56, -575251.8, 2855.346, -0.005920558, 0.11768691, -531779.06, -95352.87, 0.0, 9.997542, 9.991802 
6.6500175e+2, 2.6545966e+2, -459277.66, -487318.2, 2738.6455, -0.016387898, 0.10745271, -459012.66, -120506.22, 0.0, 9.995712, 9.991991 
6.6495025e+2, 2.754515e+2, -388109.53, -401967.84, 2547.6685, -0.03978522, 0.09097497, -387656.03, -147069.5, 0.0, 9.993858, 9.992014 
6.648989e+2, 2.8544402e+2, -315439.34, -310242.53, 1775.8804, -0.0423784, 0.117721446, -309693.66, -167033.72, 0.0, 9.99186, 9.992539 
6.6484755e+2, 2.9543722e+2, -248104.23, -226636.64, 1915.8698, -0.026915992, 0.1812972, -226467.0, -181739.8, 0.0, 9.989738, 9.992568 
6.6479635e+2, 3.0543226e+2, -176718.4, -83854.71, 3427.1948, -0.036710907, 0.055190668, -83728.4, -83728.4, 0.0, 9.987698, 9.999977 
6.647451e+2, 3.154333e+2, -201753.84, -89505.164, 3737.5752, -0.07034737, 0.1575782, -89380.85, -89380.85, 0.0, 9.98571, 10.000551 
6.7573416e+2, 1.2563725e+2, -1465519.1, -1707938.0, -3054.395, 0.06289326, 0.14847213, -1465480.6, 243287.61, 0.007449591, 10.021994, 9.989571 
6.756815e+2, 1.3562655e+2, -1400191.4, -1625894.9, -3150.2668, 0.0713974, 0.12251303, -1400147.5, 210725.0, 0.004879076, 10.019699, 9.989608 
6.756288e+2, 1.4561659e+2, -1327345.3, -1529689.6, -2796.194, 0.069747366, 0.11576176, -1327306.6, 185663.19, 0.002666086, 10.017485, 9.990566 
6.755761e+2, 1.5560724e+2, -1260420.0, -1446958.6, -2719.8145, 0.060996916, 0.12299969, -1260380.4, 154681.11, 0.0011536296, 10.015345, 9.990572 
6.755238e+2, 1.6559803e+2, -1186745.0, -1357617.3, 184.40396, 0.048412275, 0.13173808, -1186744.9, 130406.836, 0.00037921706, 10.013542, 9.990863 
6.7547184e+2, 1.7558901e+2, -1111051.3, -1270368.5, 366.72928, 0.03251645, 0.14075775, -1111050.4, 108190.37, 0.00009252872, 10.0120125, 9.990874 
6.7541957e+2, 1.8557999e+2, -1037560.5, -1181066.8, -1857.4926, 0.026856689, 0.13762811, -1037536.44, 83792.66, 0.000016627151, 10.010198, 9.991161 
6.75367e+2, 1.9557104e+2, -969363.7, -1097416.6, -1317.8165, 0.029407993, 0.12430828, -969350.1, 54066.758, 0.0000022001364, 10.008157, 9.991172 
6.753145e+2, 2.0556231e+2, -897088.06, -1010040.8, -1037.0326, 0.02338116, 0.12550491, -897078.56, 28423.783, 0.00000021489991, 10.006319, 9.991338 
6.75262e+2, 2.1555376e+2, -823424.7, -923741.94, -1844.9299, 0.010551208, 0.13743778, -823390.75, 4195.214, 0.00000001554136, 10.004651, 9.991346 
6.7520934e+2, 2.2554514e+2, -749880.94, -836286.9, -2979.0217, 0.0028571365, 0.13390984, -749778.4, -20108.008, 0.00000000083452795, 10.00292, 9.991462 
6.751566e+2, 2.3553643e+2, -677722.0, -750577.6, -2715.4832, -0.00083933544, 0.11706306, -677620.9, -45865.51, 0.000000000015311547, 10.001142, 9.991479 
6.751037e+2, 2.4552809e+2, -603459.2, -660225.44, -3967.6604, -0.0058880835, 0.11793113, -603183.2, -69346.37, 0.0000000000005349796, 9.999348, 9.991817 
6.750506e+2, 2.5552008e+2, -531829.9, -574937.6, -3912.3398, -0.011922601, 0.13251142, -531477.6, -95562.28, 0.0, 9.997539, 9.991817 
6.7499745e+2, 2.6551187e+2, -459565.47, -487858.03, -4233.3374, -0.0185247, 0.12430835, -458945.63, -120949.98, 0.0, 9.9957075, 9.991949 
6.749443e+2, 2.7550355e+2, -388384.6, -402461.7, -4486.3687, -0.025894001, 0.095813006, -387076.38, -146999.06, 0.0, 9.993852, 9.991975 
6.748908e+2, 2.854961e+2, -315376.13, -310004.16, -6212.541, -0.035634097, 0.12343692, -305921.8, -163771.16, 0.0, 9.991852, 9.992551 
6.748371e+2, 2.954894e+2, -248119.17, -226608.78, -5999.6274, -0.046702404, 0.19844456, -225048.55, -180831.86, 0.0, 9.989732, 9.992564 
6.747838e+2, 3.0548397e+2, -179341.81, -89338.51, -4017.1465, -0.053776138, 0.049272146, -89159.56, -89159.56, 0.0, 9.987698, 9.999592 
6.747309e+2, 3.1548482e+2, -202747.53, -91698.055, -3414.2231, -0.062297694, 0.17302273, -91593.18, -91593.18, 0.0, 9.985714, 10.00039 
6.857561e+2, 1.2569143e+2, -1466820.3, -1706029.8, 4269.7686, 0.072268575, 0.1494113, -1466744.1, 241493.64, 0.0076543647, 10.021775, 9.989783 
6.8570113e+2, 1.3568102e+2, -1399854.9, -1623346.8, 6107.8545, 0.0725158, 0.13022718, -1399688.0, 210651.25, 0.0050122635, 10.019599, 9.989803 
6.856463e+2, 1.4567114e+2, -1325519.9, -1528852.6, 8266.079, 0.06658486, 0.12460226, -1325184.4, 187251.42, 0.0027381792, 10.017592, 9.990544 
6.8559164e+2, 1.5566175e+2, -1254596.8, -1444171.6, 8577.343, 0.056585796, 0.12892464, -1254209.4, 160318.56, 0.0011844288, 10.015724, 9.990551 
6.855374e+2, 1.6565251e+2, -1184212.6, -1356624.3, 11630.562, 0.04786829, 0.13641967, -1183431.6, 133187.06, 0.00038916888, 10.013705, 9.990826 
6.854837e+2, 1.7564343e+2, -1117297.3, -1273501.9, 10984.1875, 0.039693825, 0.14543287, -1116528.6, 102179.4, 0.00009490214, 10.01157, 9.990851 
6.854296e+2, 1.856345e+2, -1042691.3, -1182312.4, 8597.639, 0.032933243, 0.14473954, -1042163.9, 78631.875, 0.000017041042, 10.009772, 9.991259 
6.8537515e+2, 1.9562566e+2, -966946.7, -1095094.4, 8973.531, 0.027648076, 0.1356465, -966321.4, 56560.805, 0.0000022528175, 10.008251, 9.9912615 
6.853209e+2, 2.056169e+2, -892884.4, -1008819.4, 9958.968, 0.020154586, 0.13527165, -892035.1, 32932.65, 0.00000021979824, 10.006622, 9.991251 
6.8526673e+2, 2.1560822e+2, -819819.9, -922694.75, 10030.64, 0.010716921, 0.14120294, -818851.0, 8201.844, 0.000000015874642, 10.004908, 9.991269 
6.852123e+2, 2.2559959e+2, -746830.9, -833955.6, 8668.957, 0.004391373, 0.13695328, -745976.7, -16839.38, 0.0000000008511546, 10.003071, 9.991522 
6.851578e+2, 2.35591e+2, -676954.94, -749457.7, 8843.171, 0.00063745613, 0.12345826, -675891.9, -44670.477, 0.000000000015416822, 10.001141, 9.991529 
6.8510306e+2, 2.4558261e+2, -603547.3, -661710.25, 7410.202, -0.0057918164, 0.12587489, -602618.06, -69314.83, 0.00000000000053865793, 9.999384, 9.991674 
6.850482e+2, 2.5557443e+2, -529121.25, -574925.56, 6310.528, -0.014446297, 0.14078397, -528267.75, -92884.58, 0.0, 9.99776, 9.991689 
6.849932e+2, 2.655662e+2, -456840.06, -485968.06, 4856.9434, -0.019991647, 0.13137639, -456051.56, -118587.55, 0.0, 9.995848, 9.991986 
6.849381e+2, 2.7555788e+2, -389937.13, -402711.66, 5319.265, -0.023125177, 0.10027263, -388012.25, -148466.7, 0.0, 9.993703, 9.992004 
6.8488264e+2, 2.8555045e+2, -315499.63, -310996.75, 3911.0251, -0.03511896, 0.1332063, -308735.44, -167116.66, 0.0, 9.991863, 9.992454 
6.84827e+2, 2.9554376e+2, -240854.94, -224117.63, 3265.098, -0.054018762, 0.21975467, -223503.22, -179818.63, 0.0, 9.9902525, 9.99246 
6.8477166e+2, 3.055379e+2, -175302.28, -89947.43, 3878.7568, -0.05917375, 0.042946395, -89771.53, -89771.53, 0.0, 9.988062, 9.999349 
6.8471646e+2, 3.1553867e+2, -206751.72, -93147.14, 6008.328, -0.060740247, 0.18074019, -92830.25, -92830.25, 0.0, 9.985398, 10.000417 
6.957782e+2, 1.2574755e+2, -1464165.3, -1699695.5, -3131.4907, 0.099825434, 0.13663156, -1464123.6, 243564.56, 0.0076492643, 10.021733, 9.990225 
6.9572073e+2, 1.3573787e+2, -1397035.1, -1617220.9, -1616.352, 0.069951154, 0.14705625, -1397023.3, 212759.66, 0.005005164, 10.019583, 9.990216 
6.9566375e+2, 1.4572825e+2, -1325581.1, -1528712.0, 1487.8165, 0.05141787, 0.14607283, -1325570.3, 186306.77, 0.002731528, 10.017577, 9.990552 
6.956072e+2, 1.5571868e+2, -1254917.5, -1444248.6, 1743.2045, 0.042424683, 0.13606822, -1254901.4, 159069.05, 0.0011799452, 10.015696, 9.99055 
6.955511e+2, 1.6570929e+2, -1185410.9, -1358661.1, 3885.1257, 0.04448974, 0.13389692, -1185323.8, 130738.92, 0.0003869972, 10.013681, 9.990688 
6.954954e+2, 1.7570001e+2, -1118049.5, -1275093.8, 3398.2551, 0.054349568, 0.13679919, -1117976.0, 100177.94, 0.00009415038, 10.011567, 9.990735 
6.9543946e+2, 1.8569116e+2, -1041968.2, -1180998.5, 3153.7625, 0.044655327, 0.14548047, -1041896.7, 78344.26, 0.000016854947, 10.009778, 9.991338 
6.9538337e+2, 1.9568263e+2, -966341.56, -1093873.4, 3387.5798, 0.020429047, 0.15774173, -966251.6, 56073.117, 0.0000022197537, 10.00825, 9.991337 
6.9532746e+2, 2.056739e+2, -892685.44, -1008264.56, 3662.6934, 0.012039889, 0.15375303, -892569.5, 31840.68, 0.00000021556478, 10.006613, 9.991284 
6.9527173e+2, 2.1566501e+2, -819654.2, -922077.9, 3679.6067, 0.015622039, 0.13661386, -819522.2, 6974.743, 0.00000001548309, 10.004892, 9.99131 
6.9521546e+2, 2.2565645e+2, -746543.44, -833203.44, 1517.119, 0.010018766, 0.134478, -746516.9, -17936.168, 0.0000000008249626, 10.00306, 9.9915695 
6.951589e+2, 2.356481e+2, -676667.75, -748925.8, 1727.0789, -0.0025771079, 0.14294186, -676626.5, -45964.08, 0.000000000014123528, 10.00114, 9.991558 
6.951024e+2, 2.4563959e+2, -605479.56, -665761.75, 1349.1057, -0.010026036, 0.14521654, -605449.44, -72703.766, 0.0000000000004934731, 9.999384, 9.991389 
6.9504595e+2, 2.5563097e+2, -530896.0, -578549.8, 126.00448, -0.01350411, 0.14239621, -530895.7, -96065.67, 0.0, 9.997755, 9.991435 
6.94989e+2, 2.6562262e+2, -455929.13, -483977.97, -3219.0417, -0.021011094, 0.12880689, -455564.44, -118652.75, 0.0, 9.995838, 9.992117 
6.949316e+2, 2.756145e+2, -389177.1, -400989.94, -2620.6304, -0.03190103, 0.10447012, -388621.8, -149630.45, 0.0, 9.993692, 9.992118 
6.9487447e+2, 2.8560713e+2, -316855.7, -313773.84, -2109.5632, -0.04081318, 0.14719257, -312702.34, -171638.19, 0.0, 9.99186, 9.992256 
6.948173e+2, 2.9560038e+2, -242009.55, -226729.94, -2962.625, -0.04776253, 0.24547164, -226175.61, -183044.78, 0.0, 9.99026, 9.992269 
6.947598e+2, 3.0559403e+2, -175674.23, -90854.9, -6184.1523, -0.05218372, 0.036102153, -90406.38, -90406.38, 0.0, 9.988061, 9.999275 
6.9470185e+2, 3.1559488e+2, -204980.97, -89262.08, -3518.902, -0.066603765, 0.18662639, -89155.17, -89155.17, 0.0, 9.985383, 10.000679 
7.057998e+2, 1.2580675e+2, -1467011.4, -1703260.0, 9441.87, 0.09989506, 0.13590199, -1466634.6, 240473.73, 0.0074222935, 10.0216055, 9.99001 
7.057403e+2, 1.3579693e+2, -1396225.3, -1618636.3, 7143.955, 0.069107845, 0.15296939, -1395996.1, 213208.6, 0.004850645, 10.019691, 9.990042 
7.056813e+2, 1.4578736e+2, -1323208.9, -1525959.5, 9157.172, 0.05235424, 0.15672524, -1322796.1, 188502.45, 0.0026427698, 10.017647, 9.990682 
7.056228e+2, 1.5577798e+2, -1256178.9, -1443334.1, 10269.54, 0.047340933, 0.14987496, -1255617.1, 157773.44, 0.001139036, 10.01552, 9.990672 
7.0556474e+2, 1.6576861e+2, -1185981.5, -1358309.3, 13767.799, 0.047751997, 0.1454234, -1184888.5, 130593.62, 0.0003724621, 10.013592, 9.99073 
7.055071e+2, 1.7575933e+2, -1113638.0, -1272419.6, 14586.502, 0.051907036, 0.14211975, -1112309.1, 105264.28, 0.00009025799, 10.011823, 9.990766 
7.054494e+2, 1.857504e+2, -1037778.56, -1180385.1, 15270.704, 0.041796803, 0.14927524, -1036161.6, 83499.46, 0.000016075985, 10.010104, 9.991196 
7.053917e+2, 1.9574173e+2, -964118.6, -1093917.6, 14063.581, 0.020901127, 0.16360766, -962612.3, 59133.836, 0.0000021035253, 10.00843, 9.991223 
7.053341e+2, 2.0573306e+2, -891198.1, -1005529.94, 13519.082, 0.014323246, 0.16100733, -889621.3, 34209.813, 0.00000020264906, 10.006604, 9.991451 
7.052765e+2, 2.1572435e+2, -821392.44, -921135.4, 14546.997, 0.018692903, 0.14459161, -819314.2, 6602.012, 0.0000000144162025, 10.004674, 9.991455 
7.052185e+2, 2.2571577e+2, -747826.5, -835587.3, 12531.612, 0.011197737, 0.14398383, -746072.1, -18072.04, 0.0000000007596356, 10.003026, 9.991399 
7.051602e+2, 2.357073e+2, -670679.7, -747561.0, 11240.311, -0.005330685, 0.1547657, -669070.0, -38986.69, 0.000000000011659866, 10.001593, 9.991409 
7.0510197e+2, 2.4569874e+2, -598131.7, -661334.44, 11127.267, -0.011753822, 0.1553869, -596229.9, -64062.895, 0.00000000000040738883, 9.9998255, 9.991454 
7.0504385e+2, 2.556901e+2, -529486.4, -577148.2, 12536.348, -0.01050677, 0.14775184, -526390.1, -92139.04, 0.0, 9.997797, 9.991482 
7.0498496e+2, 2.656817e+2, -454176.03, -484818.78, 8945.892, -0.020323504, 0.13336776, -451755.56, -115422.016, 0.0, 9.996008, 9.991949 
7.0492566e+2, 2.7567342e+2, -379593.56, -397926.88, 7360.82, -0.038767256, 0.1114009, -377003.97, -138589.3, 0.0, 9.994392, 9.991964 
7.048665e+2, 2.85666e+2, -310129.84, -310946.1, 7073.0483, -0.044794396, 0.15937403, -303453.16, -162965.2, 0.0, 9.992316, 9.992204 
7.048075e+2, 2.9565927e+2, -247568.66, -229937.33, 7353.575, -0.040902935, 0.2648202, -227272.97, -184718.6, 0.0, 9.98988, 9.992206 
7.047478e+2, 3.056525e+2, -180154.3, -95334.875, 3184.3794, -0.045577936, 0.025997778, -95215.49, -95215.49, 0.0, 9.987831, 9.99905 
7.046874e+2, 3.1565332e+2, -193274.06, -81341.7, 5177.888, -0.07433091, 0.19749382, -81102.695, -81102.695, 0.0, 9.986063, 10.000868 
7.158212e+2, 1.2586865e+2, -1471485.9, -1712912.0, 2272.6704, 0.079975575, 0.14402084, -1471464.5, 235037.8, 0.006958827, 10.021611, 9.98934 
7.1576e+2, 1.3585806e+2, -1400937.9, -1627501.6, 312.77426, 0.069891274, 0.15051298, -1400937.4, 207668.95, 0.004540975, 10.019645, 9.98945 
7.156991e+2, 1.4584838e+2, -1322245.9, -1522776.5, 1696.3286, 0.06573623, 0.15931173, -1322231.5, 188469.98, 0.0024690384, 10.017587, 9.990915 
7.156386e+2, 1.558394e+2, -1254989.4, -1440051.5, 2715.4497, 0.06726264, 0.16915524, -1254949.5, 157840.13, 0.0010612445, 10.015478, 9.990905 
7.1557844e+2, 1.6583031e+2, -1184781.5, -1355394.6, 7369.3687, 0.05595714, 0.16829784, -1184463.8, 130414.97, 0.0003457531, 10.013569, 9.990931 
7.155187e+2, 1.7582114e+2, -1112490.4, -1269937.8, 8148.2515, 0.03507256, 0.15897658, -1112069.8, 104898.555, 0.0000833791, 10.011814, 9.99093 
7.1545935e+2, 1.8581201e+2, -1040063.06, -1184906.3, 9200.251, 0.027027072, 0.15543033, -1039481.06, 79576.74, 0.000014756686, 10.010093, 9.990884 
7.154002e+2, 1.958029e+2, -966196.0, -1097727.3, 7977.209, 0.028277012, 0.15537207, -965714.0, 55433.27, 0.0000019151955, 10.008406, 9.990967 
7.153408e+2, 2.0579432e+2, -889247.06, -1001217.7, 6498.049, 0.025506442, 0.15887024, -888871.25, 34360.02, 0.00000018261967, 10.006587, 9.991744 
7.152812e+2, 2.1578613e+2, -819500.3, -917393.94, 7542.049, 0.019903455, 0.16424428, -818922.7, 6388.9, 0.000000012828853, 10.004676, 9.991699 
7.152215e+2, 2.2577748e+2, -750220.7, -840682.3, 7240.254, 0.008341297, 0.16420911, -749644.9, -22248.59, 0.0000000006659994, 10.003031, 9.991041 
7.151618e+2, 2.3576848e+2, -672813.1, -751837.4, 5824.9287, -0.0075986283, 0.15916012, -672386.06, -42901.5, 0.000000000008619809, 10.001585, 9.991114 
7.151018e+2, 2.4575998e+2, -595261.94, -655240.9, 3575.8313, -0.011088818, 0.15700275, -595049.5, -63481.938, 0.0000000000003011625, 9.999814, 9.991866 
7.1504164e+2, 2.5575185e+2, -527000.5, -571940.7, 5058.3936, -0.0055128667, 0.15697886, -526438.2, -92791.375, 0.0, 9.99779, 9.991832 
7.14981e+2, 2.6574337e+2, -457305.6, -491263.4, 2884.3948, -0.017954826, 0.1450109, -457062.34, -121332.555, 0.0, 9.996004, 9.991501 
7.1492e+2, 2.7573466e+2, -382393.1, -403762.7, 1095.8223, -0.043765627, 0.12109581, -382337.03, -144521.39, 0.0, 9.994391, 9.991556 
7.148588e+2, 2.8572708e+2, -309271.63, -309137.97, -2160.6357, -0.047064334, 0.16957664, -307043.13, -167153.05, 0.0, 9.992309, 9.992319 
7.1479744e+2, 2.957205e+2, -247116.69, -228688.23, -1621.392, -0.033378668, 0.2771644, -228546.67, -186591.67, 0.0, 9.989861, 9.992289 
7.1473575e+2, 3.0571333e+2, -182747.64, -100583.8, -3314.3967, -0.0394065, 0.012540471, -100450.31, -100450.31, 0.0, 9.987824, 9.998683 
7.1467346e+2, 3.1571418e+2, -191942.36, -79151.45, -899.6474, -0.084211774, 0.2227074, -79144.27, -79144.27, 0.0, 9.986088, 10.000997 
7.2584295e+2, 1.2593226e+2, -1465903.8, -1707163.8, 5666.647, 0.07711569, 0.16420066, -1465770.6, 240109.1, 0.0062665376, 10.021823, 9.989606 
7.257795e+2, 1.3592184e+2, -1404817.3, -1626668.8, 9395.707, 0.07382153, 0.15922183, -1404420.0, 203562.36, 0.004083157, 10.019225, 9.98968 
7.257164e+2, 1.4591219e+2, -1330493.5, -1527106.3, 13289.7705, 0.07090368, 0.16434965, -1329599.3, 180477.69, 0.0022156257, 10.017007, 9.990871 
7.256538e+2, 1.5590319e+2, -1260465.1, -1442787.4, 12838.949, 0.06982926, 0.17612928, -1259565.4, 152599.98, 0.00094971614, 10.01508, 9.990883 
7.255919e+2, 1.6589417e+2, -1186152.4, -1354495.1, 17933.03, 0.0565408, 0.17663464, -1184263.1, 129990.53, 0.00030827694, 10.013385, 9.9910555 
7.255305e+2, 1.7588513e+2, -1110542.5, -1267434.4, 18231.975, 0.03390022, 0.1681901, -1108451.6, 107890.22, 0.00007397587, 10.011857, 9.991054 
7.254694e+2, 1.8587609e+2, -1039657.4, -1183789.0, 19918.475, 0.028704278, 0.16160658, -1036955.4, 81475.234, 0.000013007399, 10.010056, 9.990951 
7.2540855e+2, 1.9586697e+2, -970160.06, -1098859.5, 21337.379, 0.036288094, 0.15561685, -966714.75, 53805.223, 0.0000016738736, 10.008076, 9.991018 
7.253474e+2, 2.0585838e+2, -891399.4, -1003745.7, 20135.988, 0.02941468, 0.1624456, -887899.44, 34704.863, 0.00000015788065, 10.00648, 9.991594 
7.25286e+2, 2.1585013e+2, -812757.7, -915375.1, 18235.328, 0.01222396, 0.17807017, -809613.56, 15071.625, 0.000000010940743, 10.005167, 9.991575 
7.2522473e+2, 2.2584143e+2, -743045.4, -836393.5, 17989.434, 0.0025278754, 0.17579861, -739698.56, -12928.163, 0.00000000055861227, 10.003461, 9.991099 
7.251634e+2, 2.3583236e+2, -673671.56, -751490.0, 19586.15, -0.0020110426, 0.15933448, -669020.0, -40160.934, 0.000000000005705525, 10.001468, 9.991163 
7.251017e+2, 2.4582392e+2, -596122.25, -655927.8, 16598.309, -0.0062590744, 0.16019815, -591824.44, -60882.645, 0.0000000000001993381, 9.999742, 9.991824 
7.250396e+2, 2.5581586e+2, -520744.56, -569187.06, 14861.749, -0.010048883, 0.17373584, -516548.56, -83528.31, 0.0, 9.998204, 9.991795 
7.249772e+2, 2.658073e+2, -452028.97, -489555.13, 12697.535, -0.021024322, 0.15937155, -448136.34, -113032.26, 0.0, 9.996376, 9.991412 
7.2491443e+2, 2.7579838e+2, -383535.3, -405131.47, 13628.55, -0.037684444, 0.121549614, -376945.6, -139753.52, 0.0, 9.994324, 9.991466 
7.248512e+2, 2.8579074e+2, -307528.72, -309125.2, 9635.567, -0.042830057, 0.17358978, -298658.38, -159391.39, 0.0, 9.992437, 9.992226 
7.247876e+2, 2.957842e+2, -235846.03, -224385.97, 8666.804, -0.038835697, 0.29685715, -219726.25, -178394.95, 0.0, 9.990654, 9.992169 
7.247238e+2, 3.0577642e+2, -175514.64, -102223.73, 5994.8105, -0.0410921, 0.0044836286, -101736.625, -101736.625, 0.0, 9.988516, 9.998208 
7.2465956e+2, 3.1577706e+2, -190347.05, -76727.27, 8099.538, -0.080658354, 0.23608331, -76152.8, -76152.8, 0.0, 9.986103, 10.001128 
7.358648e+2, 1.259976e+2, -1460382.1, -1693865.9, -3198.3235, 0.08650068, 0.19285546, -1460338.3, 244902.67, 0.0053861653, 10.021712, 9.990552 
7.357988e+2, 1.3598798e+2, -1399171.0, -1614419.6, 138.2924, 0.07988014, 0.1762012, -1399170.9, 208164.03, 0.00350507, 10.019182, 9.99052 
7.3573345e+2, 1.459785e+2, -1332089.0, -1530400.6, 6249.651, 0.06958263, 0.17117958, -1331892.3, 177535.63, 0.0018986415, 10.016997, 9.990641 
7.356688e+2, 1.5596916e+2, -1261762.6, -1445538.1, 6105.1567, 0.058700424, 0.17347181, -1261560.1, 149959.31, 0.00081192434, 10.015079, 9.990686 
7.3560524e+2, 1.659601e+2, -1185663.5, -1353277.9, 12620.299, 0.05137414, 0.17357858, -1184718.6, 128889.58, 0.0002627085, 10.013372, 9.991135 
7.3554254e+2, 1.7595121e+2, -1110138.6, -1265882.6, 12674.423, 0.045790274, 0.17134732, -1109113.9, 106581.14, 0.000062770254, 10.011823, 9.991166 
7.354796e+2, 1.8594246e+2, -1037145.7, -1178035.1, 12722.924, 0.043826967, 0.16803455, -1036005.94, 81774.836, 0.000010973778, 10.010025, 9.991347 
7.354167e+2, 1.9593376e+2, -967817.2, -1094019.4, 14211.846, 0.044548664, 0.16332263, -966236.56, 53629.484, 0.000001401471, 10.00807, 9.991341 
7.353538e+2, 2.0592503e+2, -894971.6, -1011182.8, 15324.118, 0.026884485, 0.17092282, -892984.9, 28966.771, 0.00000013088435, 10.006481, 9.991078 
7.3529106e+2, 2.1591628e+2, -815891.7, -921609.0, 13287.371, -0.0033938633, 0.18655564, -814247.2, 9790.598, 0.000000008955621, 10.005155, 9.991147 
7.3522806e+2, 2.259076e+2, -739961.5, -829759.1, 10659.332, -0.0057697417, 0.17957194, -738713.56, -12590.701, 0.00000000045002047, 10.003444, 9.9915495 
7.35165e+2, 2.358989e+2, -670967.7, -745841.5, 12325.223, 0.011046649, 0.15566228, -668990.94, -40783.367, 0.0000000000034003228, 10.00146, 9.991542 
7.351015e+2, 2.4589045e+2, -599301.94, -662524.06, 10862.134, 0.0022543145, 0.1650798, -597487.75, -67197.44, 0.00000000000011879701, 9.99974, 9.991365 
7.350377e+2, 2.5588214e+2, -523505.84, -574861.44, 8980.998, -0.02420415, 0.19802329, -521980.56, -89608.734, 0.0, 9.998199, 9.9914 
7.3497343e+2, 2.658735e+2, -450013.4, -485273.9, 4958.422, -0.02927584, 0.17624062, -449329.4, -114872.805, 0.0, 9.9963665, 9.991698 
7.349089e+2, 2.7586457e+2, -381851.56, -401465.9, 6010.5522, -0.019864395, 0.11225918, -380156.25, -143612.33, 0.0, 9.994311, 9.991711 
7.3484373e+2, 2.8585696e+2, -309562.8, -313275.63, 3025.1816, -0.032094024, 0.1713133, -307869.88, -169251.34, 0.0, 9.992432, 9.991934 
7.3477805e+2, 2.9585046e+2, -237836.39, -228794.78, 1907.7858, -0.05886101, 0.3247098, -228408.72, -187725.77, 0.0, 9.9906645, 9.991852 
7.347123e+2, 3.0584192e+2, -179315.77, -110390.09, -3130.8164, -0.05119725, 0.0022387435, -110248.17, -110248.17, 0.0, 9.9885235, 9.997631 
7.346459e+2, 3.158421e+2, -189239.28, -74303.734, -523.5583, -0.061004493, 0.24441579, -74301.35, -74301.35, 0.0, 9.9860935, 10.0012865 
7.45886e+2, 1.2606569e+2, -1474951.6, -1700925.3, 9567.881, 0.09412688, 0.18440697, -1474547.3, 230026.95, 0.004382892, 10.020662, 9.990541 
7.4581766e+2, 1.3605626e+2, -1404123.5, -1616359.9, 7495.7734, 0.079886936, 0.1877537, -1403859.1, 202807.42, 0.0028493854, 10.018784, 9.990553 
7.4575037e+2, 1.4604697e+2, -1330816.6, -1526834.1, 14281.89, 0.06699708, 0.18577746, -1329781.5, 178976.22, 0.0015413767, 10.016926, 9.990892 
7.4568385e+2, 1.560378e+2, -1259145.1, -1441455.5, 17208.793, 0.057050653, 0.17990138, -1257535.0, 153312.61, 0.00065792195, 10.015108, 9.990918 
7.456185e+2, 1.6602887e+2, -1186611.9, -1352605.5, 25519.887, 0.052547302, 0.17846152, -1182777.0, 130158.055, 0.0002123419, 10.013233, 9.991216 
7.4555415e+2, 1.760201e+2, -1116249.0, -1267724.0, 25700.668, 0.051189262, 0.17931408, -1112007.1, 103013.69, 0.000050562856, 10.011331, 9.991248 
7.454895e+2, 1.8601142e+2, -1041414.6, -1179821.5, 24603.77, 0.046475194, 0.1790972, -1037171.06, 79934.82, 0.000008799104, 10.009695, 9.991357 
7.454248e+2, 1.9600277e+2, -964409.44, -1091995.1, 23720.09, 0.03959002, 0.17742506, -960142.25, 59048.508, 0.000001116866, 10.008261, 9.991362 
7.4536043e+2, 2.0599402e+2, -891574.5, -1009440.06, 26508.418, 0.023344973, 0.18180151, -885887.06, 35389.43, 0.00000010346054, 10.006683, 9.991074 
7.452961e+2, 2.1598518e+2, -817555.3, -922239.9, 27895.355, 0.000593205, 0.18991025, -810586.0, 12777.461, 0.0000000070042963, 10.005007, 9.991144 
7.452315e+2, 2.2597651e+2, -740111.94, -829333.0, 24143.79, -0.0024599668, 0.1838106, -733997.5, -8549.304, 0.00000000034718184, 10.003384, 9.991576 
7.4516654e+2, 2.359679e+2, -665279.56, -742712.3, 23025.594, 0.008267544, 0.16665812, -658950.0, -31417.967, 0.0000000000018208408, 10.001804, 9.991562 
7.4510145e+2, 2.4595939e+2, -593388.56, -661450.0, 22212.695, -0.0007464713, 0.17625244, -586780.7, -57165.133, 0.00000000000006361155, 10.000195, 9.991192 
7.45036e+2, 2.5595087e+2, -519096.25, -574286.25, 22377.643, -0.023743188, 0.20486291, -511163.2, -79463.91, 0.0, 9.998542, 9.991243 
7.4496996e+2, 2.6594213e+2, -444010.22, -481764.9, 16809.52, -0.02819822, 0.18229708, -437610.8, -103826.17, 0.0, 9.996722, 9.991734 
7.4490345e+2, 2.7593327e+2, -374305.16, -397458.9, 16143.236, -0.01962536, 0.119902216, -366016.78, -130145.36, 0.0, 9.994783, 9.991727 
7.4483645e+2, 2.8592563e+2, -303098.03, -312441.7, 13421.53, -0.03277939, 0.18418369, -293558.5, -155611.9, 0.0, 9.992947, 9.991713 
7.44769e+2, 2.9591894e+2, -231998.45, -228582.08, 12700.117, -0.061100904, 0.34499967, -217475.8, -177463.34, 0.0, 9.991149, 9.991603 
7.44701e+2, 3.059097e+2, -175293.05, -114302.695, 5936.554, -0.048031773, -0.0073117777, -113730.23, -113730.23, 0.0, 9.98902, 9.99709 
7.4463224e+2, 3.1590962e+2, -178452.6, -65575.12, 9376.633, -0.05852912, 0.25631925, -64801.51, -64801.51, 0.0, 9.986651, 10.001583 
7.559068e+2, 1.2613618e+2, -1479472.8, -1710578.9, 2904.5232, 0.10023872, 0.15045369, -1479436.3, 224446.86, 0.0033428594, 10.020653, 9.989877 
7.558364e+2, 1.3612653e+2, -1408093.6, -1624088.8, 1174.1432, 0.07535439, 0.19584014, -1408087.3, 197891.23, 0.0021716692, 10.018748, 9.990031 
7.557673e+2, 1.4611748e+2, -1326902.4, -1517842.0, 8155.0493, 0.06362858, 0.20617546, -1326554.6, 181512.95, 0.0011735755, 10.016876, 9.991516 
7.5569904e+2, 1.5610886e+2, -1255689.0, -1433226.5, 10663.44, 0.06283043, 0.19340958, -1255050.8, 155101.28, 0.0005002262, 10.015054, 9.991492 
7.5563186e+2, 1.6610022e+2, -1186263.5, -1351132.9, 18555.57, 0.05849961, 0.18971203, -1184200.9, 128035.76, 0.00016113723, 10.013194, 9.991323 
7.555654e+2, 1.7609157e+2, -1115750.5, -1266576.0, 18847.746, 0.05109501, 0.19124754, -1113430.9, 100890.586, 0.00003827044, 10.01132, 9.991321 
7.554991e+2, 1.8608278e+2, -1043418.9, -1183997.4, 19430.357, 0.03871269, 0.19408943, -1040782.75, 75624.77, 0.0000066366365, 10.009694, 9.991064 
7.554329e+2, 1.9607389e+2, -965925.44, -1094992.1, 18547.305, 0.023448585, 0.1969734, -963313.0, 55181.797, 0.00000083842565, 10.008252, 9.991152 
7.55367e+2, 2.0606525e+2, -888518.5, -1002841.1, 20452.889, 0.019334026, 0.19465433, -884969.56, 35609.984, 0.00000007717735, 10.006666, 9.991522 
7.553014e+2, 2.160567e+2, -815041.9, -916700.94, 21721.217, 0.022246435, 0.18868788, -810595.25, 12067.952, 0.0000000051810867, 10.004988, 9.991522 
7.552351e+2, 2.2604808e+2, -742568.9, -834259.25, 18272.277, 0.010836007, 0.18884937, -739061.7, -14314.135, 0.00000000025399235, 10.003373, 9.991236 
7.551682e+2, 2.3603936e+2, -667275.94, -746882.3, 17192.434, -0.009707039, 0.19161035, -663721.6, -36888.61, 0.00000000000085384765, 10.001802, 9.991268 
7.551015e+2, 2.4603067e+2, -592545.2, -659685.3, 16067.53, -0.014232622, 0.19296807, -588898.1, -59980.164, 0.000000000000029827242, 10.00019, 9.991304 
7.5503474e+2, 2.5602198e+2, -518482.34, -572924.0, 16096.3125, -0.0085187545, 0.19413882, -514079.34, -83076.43, 0.0, 9.998534, 9.99133 
7.549668e+2, 2.6601326e+2, -445411.4, -484563.1, 9503.504, -0.01830137, 0.17804044, -443226.5, -110138.13, 0.0, 9.996714, 9.991536 
7.54898e+2, 2.760045e+2, -375705.88, -400268.53, 8962.985, -0.038202412, 0.14558594, -372783.06, -137608.48, 0.0, 9.994775, 9.991528 
7.548292e+2, 2.859967e+2, -303933.78, -314198.34, 6685.389, -0.045099776, 0.21265328, -300637.84, -163386.78, 0.0, 9.992946, 9.991582 
7.5476027e+2, 2.9598975e+2, -233018.78, -230781.58, 5797.8804, -0.04330203, 0.3566205, -225995.38, -186675.73, 0.0, 9.99115, 9.99144 
7.5469023e+2, 3.0597985e+2, -178487.6, -121028.24, -2912.0024, -0.030619042, -0.024559384, -120881.05, -120881.05, 0.0, 9.989019, 9.996615 
7.546187e+2, 3.1597978e+2, -174884.55, -58376.91, 1094.6421, -0.0767529, 0.27947897, -58366.625, -58366.625, 0.0, 9.986655, 10.002061 
7.6592726e+2, 1.2620953e+2, -1482076.4, -1710061.5, 11267.6, 0.10001358, 0.17174004, -1481520.8, 221644.3, 0.0023631726, 10.02035, 9.990027 
7.658549e+2, 1.3619976e+2, -1414673.8, -1625576.9, 14441.95, 0.077377886, 0.19087039, -1413689.4, 191572.19, 0.0015344145, 10.018185, 9.990164 
7.657837e+2, 1.4619078e+2, -1336679.4, -1522244.6, 21951.535, 0.06637184, 0.20197348, -1334118.0, 173231.98, 0.0008285898, 10.01616, 9.991527 
7.657137e+2, 1.5618236e+2, -1266442.9, -1437854.5, 21002.81, 0.06574415, 0.20666696, -1263906.9, 145525.86, 0.000352819, 10.014263, 9.99153 
7.656448e+2, 1.6617383e+2, -1192866.9, -1353005.6, 28355.37, 0.059904885, 0.20646636, -1187994.4, 123521.96, 0.00011349446, 10.012658, 9.99143 
7.655767e+2, 1.7616522e+2, -1115424.4, -1264988.4, 28731.932, 0.04970498, 0.20273584, -1110094.8, 103505.86, 0.000026904001, 10.011253, 9.991434 
7.6550883e+2, 1.8615653e+2, -1041078.3, -1181396.1, 31520.842, 0.03671788, 0.20213602, -1034322.75, 81363.01, 0.0000046535424, 10.009764, 9.9911785 
7.654412e+2, 1.9614772e+2, -964911.3, -1093102.8, 33277.926, 0.022328641, 0.20287605, -956787.4, 60984.754, 0.0000005858552, 10.008233, 9.991257 
7.6537365e+2, 2.0613915e+2, -889452.94, -1003191.2, 33743.293, 0.019921439, 0.2026874, -880195.6, 39660.563, 0.000000053676505, 10.006568, 9.991513 
7.6530635e+2, 2.1613064e+2, -816891.8, -917476.25, 32198.17, 0.025255311, 0.2012287, -807467.8, 14471.688, 0.0000000035808891, 10.004827, 9.99152 
7.6523846e+2, 2.2612198e+2, -741245.56, -834472.3, 29927.156, 0.012435306, 0.20114535, -732465.44, -8441.104, 0.0000000001740833, 10.003473, 9.991147 
7.651703e+2, 2.3611313e+2, -659095.2, -743641.2, 30492.867, -0.012371033, 0.20112592, -649245.06, -23134.133, 0.00000000000033524073, 10.002365, 9.991189 
7.651019e+2, 2.4610439e+2, -584114.56, -655620.3, 27924.256, -0.016361766, 0.20138684, -574501.9, -46305.54, 0.0000000000000117099645, 10.000737, 9.991286 
7.6503336e+2, 2.5609568e+2, -514892.06, -571402.9, 27182.48, -0.0065769632, 0.20182686, -503939.63, -73658.15, 0.0, 9.998759, 9.991295 
7.6496375e+2, 2.6608682e+2, -440268.63, -484659.1, 20552.049, -0.017803755, 0.18572521, -432214.66, -99846.24, 0.0, 9.997148, 9.99129 
7.6489323e+2, 2.760778e+2, -362562.03, -396263.34, 19625.426, -0.043122556, 0.15465027, -353545.7, -119088.695, 0.0, 9.995747, 9.991303 
7.6482254e+2, 2.8606993e+2, -291877.22, -308735.6, 16169.107, -0.047550768, 0.22470087, -282072.06, -145537.67, 0.0, 9.993755, 9.991533 
7.647516e+2, 2.9606292e+2, -230304.25, -230707.77, 16004.127, -0.037623186, 0.3715136, -214500.61, -175897.52, 0.0, 9.99136, 9.991311 
7.6467955e+2, 3.0605236e+2, -177377.34, -128670.89, 6407.8804, -0.021978311, -0.032782733, -127841.97, -127841.97, 0.0, 9.989419, 9.995867 
7.646058e+2, 3.160518e+2, -156048.19, -45239.78, 8680.305, -0.085236564, 0.29643565, -44563.92, -44563.92, 0.0, 9.987742, 10.002411 
7.759476e+2, 1.2628534e+2, -1478205.0, -1699719.9, 3379.7651, 0.09565177, 0.2306718, -1478153.5, 224270.19, 0.0015256448, 10.0202265, 9.990776 
7.758732e+2, 1.3627557e+2, -1411005.0, -1616749.4, 6379.712, 0.084220305, 0.17579252, -1410807.4, 193711.73, 0.0009902609, 10.018115, 9.990784 
7.758e+2, 1.4626656e+2, -1339853.5, -1528310.1, 14920.202, 0.07335987, 0.18029453, -1338679.5, 167928.17, 0.00053448067, 10.0161295, 9.991117 
7.75728e+2, 1.562581e+2, -1268726.5, -1442677.0, 14379.878, 0.06623545, 0.22020766, -1267545.8, 141145.73, 0.00022743066, 10.014262, 9.991191 
7.756574e+2, 1.6624957e+2, -1192022.1, -1351182.6, 23502.373, 0.05773704, 0.22740792, -1188624.1, 122151.08, 0.00007309113, 10.012651, 9.991548 
7.75588e+2, 1.7624098e+2, -1114616.5, -1262619.6, 23787.957, 0.04732164, 0.21377695, -1110887.1, 101972.02, 0.000017304237, 10.01122, 9.991601 
7.755186e+2, 1.8623254e+2, -1038235.6, -1174702.1, 26097.918, 0.039629664, 0.20441043, -1033414.94, 81526.77, 0.0000029879077, 10.009723, 9.991645 
7.7544945e+2, 1.9622411e+2, -962607.7, -1087684.5, 27573.822, 0.033919297, 0.19735342, -956798.7, 60225.414, 0.00000037528147, 10.0082, 9.991632 
7.7538025e+2, 2.0621559e+2, -892274.9, -1008779.2, 27306.602, 0.02398925, 0.20703189, -886192.25, 32915.566, 0.000000034276457, 10.006552, 9.99113 
7.75311e+2, 2.1620691e+2, -818904.94, -921891.94, 26122.586, 0.011452168, 0.22618814, -812657.9, 8535.186, 0.0000000022771283, 10.004832, 9.991206 
7.752419e+2, 2.2619814e+2, -740040.06, -832127.25, 25952.074, 0.003986513, 0.21951887, -733229.9, -9950.862, 0.000000000110077475, 10.003479, 9.991297 
7.751727e+2, 2.3618919e+2, -658294.3, -741747.7, 26089.408, -0.0004129367, 0.19593334, -650809.44, -25443.22, 0.00000000000010545501, 10.002354, 9.991316 
7.7510273e+2, 2.461805e+2, -585099.1, -657436.8, 20517.547, -0.008210402, 0.20251277, -579684.8, -52233.65, 0.0000000000000036832736, 10.000721, 9.9911585 
7.7503204e+2, 2.5617194e+2, -515889.22, -573379.7, 20059.46, -0.018154372, 0.22816102, -509582.06, -80046.81, 0.0, 9.998749, 9.991154 
7.749608e+2, 2.6616278e+2, -442189.5, -488604.28, 15318.186, -0.026344446, 0.20487279, -437589.88, -105964.914, 0.0, 9.997146, 9.991012 
7.748891e+2, 2.761532e+2, -364100.8, -399541.5, 14004.669, -0.03344413, 0.14589974, -359234.88, -125516.04, 0.0, 9.9957485, 9.991068 
7.748164e+2, 2.861453e+2, -291403.5, -307751.56, 7084.7656, -0.039964832, 0.21966583, -288760.5, -152964.0, 0.0, 9.993748, 9.99159 
7.7474284e+2, 2.9613858e+2, -230931.84, -231730.89, 7372.586, -0.045854717, 0.39031646, -223947.95, -186085.56, 0.0, 9.991341, 9.991236 
7.74669e+2, 3.0612722e+2, -184651.1, -143766.28, 244.7603, -0.022966513, -0.030961096, -143764.81, -143764.81, 0.0, 9.98942, 9.99482 
7.7459365e+2, 3.1612584e+2, -154086.61, -41892.74, 2662.7778, -0.081645414, 0.3129233, -41829.58, -41829.58, 0.0, 9.987773, 10.002614 
7.8596705e+2, 1.2636259e+2, -1497143.1, -1703913.3, 10715.505, 0.10404906, 0.23389313, -1496589.3, 205078.48, 0.000879104, 10.018672, 9.991218 
7.858907e+2, 1.3635345e+2, -1423152.6, -1618010.6, 12004.701, 0.08371286, 0.1989765, -1422415.9, 181341.17, 0.0005704976, 10.017048, 9.991192 
7.858158e+2, 1.4634468e+2, -1347779.9, -1530927.1, 22583.863, 0.07014131, 0.20202179, -1345036.3, 160807.1, 0.00030782796, 10.015503, 9.991219 
7.8574204e+2, 1.5633617e+2, -1270395.9, -1441873.5, 25162.68, 0.06399379, 0.22830763, -1266779.8, 141147.61, 0.00013093058, 10.014049, 9.991318 
7.856699e+2, 1.6632782e+2, -1193419.1, -1348535.6, 36366.914, 0.057691105, 0.23174946, -1185316.3, 124692.984, 0.000042053704, 10.0123825, 9.991825 
7.855989e+2, 1.7631954e+2, -1121172.3, -1262687.8, 37814.38, 0.05015225, 0.22030163, -1111701.8, 100388.49, 0.000009948382, 10.010608, 9.991859 
7.85528e+2, 1.8631127e+2, -1046697.6, -1177906.1, 39660.04, 0.04344993, 0.21394151, -1035641.4, 78529.6, 0.0000017159998, 10.009076, 9.991709 
7.8545743e+2, 1.9630295e+2, -968669.7, -1089734.8, 38675.473, 0.037650246, 0.2102143, -957369.25, 58883.203, 0.00000021523358, 10.007717, 9.9917 
7.853868e+2, 2.0629442e+2, -891904.3, -1008762.25, 39215.125, 0.024230698, 0.21722487, -879964.44, 38371.668, 0.000000019622581, 10.006555, 9.991103 
7.853161e+2, 2.1628566e+2, -808532.2, -916911.7, 40466.11, 0.006026956, 0.23039815, -795090.3, 25331.887, 0.0000000013004385, 10.005512, 9.991185 
7.852456e+2, 2.2627686e+2, -731677.06, -828143.5, 40272.527, 0.0011136406, 0.22387974, -717074.6, 5433.716, 0.00000000006265893, 10.004024, 9.991272 
7.851751e+2, 2.3626792e+2, -659449.4, -742429.3, 39297.348, 0.004461528, 0.20373686, -643793.06, -19197.588, 0.00000000000002576039, 10.00225, 9.991288 
7.8510356e+2, 2.4625917e+2, -583347.06, -657913.4, 32949.68, -0.004820693, 0.21177074, -570873.7, -44192.563, 0.0000000000000008997057, 10.000867, 9.991024 
7.850312e+2, 2.5625047e+2, -502181.4, -567978.25, 32520.873, -0.022132855, 0.23823126, -488820.63, -60054.207, 0.0, 9.999708, 9.991028 
7.8495836e+2, 2.6624116e+2, -429709.13, -483927.22, 27987.148, -0.028414521, 0.21285604, -417854.3, -86996.734, 0.0, 9.998027, 9.990871 
7.84885e+2, 2.762314e+2, -360794.34, -399293.47, 27722.955, -0.027580924, 0.14961518, -346293.22, -113339.99, 0.0, 9.996002, 9.990927 
7.848104e+2, 2.8622335e+2, -284478.38, -306167.16, 19011.506, -0.03832165, 0.22704561, -273435.84, -138403.73, 0.0, 9.994266, 9.99141 
7.847347e+2, 2.9621655e+2, -213100.9, -225971.86, 17672.965, -0.056147903, 0.40577275, -200728.17, -163629.19, 0.0, 9.992652, 9.990963 
7.8465897e+2, 3.0620438e+2, -173501.05, -149021.44, 10340.969, -0.022788713, -0.03250522, -145237.88, -145237.88, 0.0, 9.99061, 9.99385 
7.845817e+2, 3.1620222e+2, -143469.42, -32062.834, 13616.79, -0.07774514, 0.32029915, -30422.654, -30422.654, 0.0, 9.98827, 10.003013 
7.959859e+2, 1.2644134e+2, -1495279.5, -1700244.5, 5086.6484, 0.12055022, 0.20030168, -1495153.4, 205743.64, 0.00043875896, 10.01867, 9.991455 
7.9590774e+2, 1.364333e+2, -1421613.8, -1614078.0, 6220.712, 0.077652305, 0.2507741, -1421412.9, 181563.25, 0.00028471305, 10.017008, 9.991466 
7.958312e+2, 1.4642492e+2, -1345122.5, -1524045.0, 17454.14, 0.059615716, 0.25468558, -1343435.8, 161622.67, 0.00015360067, 10.015436, 9.991708 
7.957561e+2, 1.5641642e+2, -1267939.0, -1435000.4, 19807.688, 0.05977354, 0.23167866, -1265622.6, 141519.27, 0.000065315224, 10.013966, 9.991815 
7.956823e+2, 1.6640842e+2, -1191204.5, -1342596.6, 29908.07, 0.05931588, 0.22362797, -1185510.3, 123709.92, 0.000020971254, 10.012316, 9.99225 
7.9560953e+2, 1.7640066e+2, -1118982.5, -1257676.1, 31380.393, 0.057114117, 0.22360939, -1112213.0, 99082.96, 0.0000049587384, 10.01058, 9.992203 
7.955372e+2, 1.8639253e+2, -1048372.6, -1181368.9, 34650.25, 0.047773264, 0.22971876, -1039886.5, 73488.96, 0.0000008548392, 10.009072, 9.991466 
7.954652e+2, 1.9638409e+2, -969642.56, -1091967.3, 33920.21, 0.03465074, 0.23851919, -960866.3, 54591.91, 0.00000010714206, 10.007723, 9.991536 
7.953933e+2, 2.0637554e+2, -889855.3, -1004414.5, 35520.008, 0.02143256, 0.23181736, -879735.94, 37806.168, 0.000000009758481, 10.006548, 9.991395 
7.9532164e+2, 2.1636678e+2, -807161.75, -913412.56, 36356.363, 0.008114149, 0.21601874, -795912.5, 23715.264, 0.0000000006458845, 10.005482, 9.99143 
7.9524964e+2, 2.2635806e+2, -733048.75, -830539.56, 33668.82, 0.002953758, 0.21628271, -722551.4, -838.33234, 0.000000000031069577, 10.003997, 9.991111 
7.951773e+2, 2.3634925e+2, -660411.0, -744502.25, 33030.42, 0.0025427314, 0.22411065, -648988.44, -25189.13, 0.0000000000000047979355, 10.002247, 9.9911375 
7.9510444e+2, 2.4634033e+2, -584115.4, -659578.2, 28672.943, -0.005678737, 0.2282446, -574456.94, -48570.293, 0.00000000000000016756772, 10.000869, 9.990901 
7.9503095e+2, 2.5633126e+2, -502835.16, -569241.0, 27839.816, -0.018470831, 0.23184107, -492708.06, -64732.78, 0.0, 9.999703, 9.990935 
7.9495645e+2, 2.66322e+2, -429566.06, -483497.84, 20326.365, -0.024228625, 0.21010248, -422763.3, -92696.96, 0.0, 9.998014, 9.990894 
7.9488105e+2, 2.7631244e+2, -361079.1, -399640.0, 20401.604, -0.025994854, 0.16681568, -352288.9, -120128.94, 0.0, 9.995986, 9.990898 
7.9480463e+2, 2.863042e+2, -287331.34, -312005.94, 13087.587, -0.043078292, 0.24734835, -281682.7, -147441.81, 0.0, 9.994262, 9.991001 
7.9472727e+2, 2.9629686e+2, -216051.55, -232557.52, 11487.889, -0.06874814, 0.417387, -210159.45, -173846.83, 0.0, 9.99267, 9.990492 
7.946496e+2, 3.0628383e+2, -179091.56, -161057.5, 1461.6381, -0.021407159, -0.037399214, -160939.8, -160939.8, 0.0, 9.990623, 9.993003 
7.9457e+2, 3.1628102e+2, -138984.64, -22526.717, 4938.6313, -0.073485725, 0.32304552, -22317.66, -22317.66, 0.0, 9.988254, 10.003659 
8.0600417e+2, 1.2652291e+2, -1504716.0, -1703351.4, 14325.895, 0.114766225, 0.21733557, -1503688.1, 196410.27, 0.0001842531, 10.017926, 9.991572 
8.059241e+2, 1.3651487e+2, -1434946.9, -1618203.4, 14930.263, 0.07720768, 0.25542635, -1433738.5, 168439.08, 0.000119561475, 10.015963, 9.991661 
8.05846e+2, 1.4650689e+2, -1359141.3, -1524413.0, 27345.592, 0.06272258, 0.25708166, -1354734.3, 149521.67, 0.000064497035, 10.014168, 9.9922695 
8.057693e+2, 1.5649897e+2, -1284641.4, -1437174.4, 30237.926, 0.06548501, 0.23661815, -1278865.8, 127467.914, 0.0000274214, 10.012536, 9.9923315 
8.056941e+2, 1.6649133e+2, -1205737.6, -1347740.0, 40062.953, 0.06355669, 0.23306519, -1195214.6, 113193.84, 0.000008802369, 10.0112095, 9.992412 
8.056199e+2, 1.764838e+2, -1124566.9, -1258408.5, 40050.348, 0.057565294, 0.23891157, -1113497.8, 96984.38, 0.0000020807402, 10.010082, 9.9923725 
8.0554616e+2, 1.864758e+2, -1048102.7, -1179703.3, 45051.516, 0.045845304, 0.24176322, -1034157.6, 78402.85, 0.0000003585685, 10.008995, 9.991593 
8.0547297e+2, 1.9646738e+2, -964961.06, -1088030.6, 46661.85, 0.03125354, 0.24230699, -949269.8, 65372.89, 0.00000004492146, 10.00794, 9.991672 
8.0539984e+2, 2.0645897e+2, -888739.0, -1002210.56, 48045.69, 0.021699278, 0.23633675, -871128.75, 45596.383, 0.0000000040892556, 10.00652, 9.991529 
8.053269e+2, 2.164504e+2, -814309.7, -915414.94, 48013.598, 0.014822494, 0.2259375, -795142.4, 23666.613, 0.00000000027047947, 10.004898, 9.9915495 
8.0525357e+2, 2.2644171e+2, -735467.2, -832339.8, 45752.285, 0.006073254, 0.22705407, -717275.06, 3618.9436, 0.0000000000130008625, 10.003829, 9.991042 
8.0517995e+2, 2.3643284e+2, -648311.44, -739076.7, 45747.508, -0.0035061913, 0.23368852, -629254.8, -6273.7266, 0.0000000000000006745451, 10.003062, 9.991086 
8.0510557e+2, 2.4642386e+2, -572696.8, -654235.56, 41258.637, -0.010047213, 0.23649772, -555462.6, -30393.693, 0.000000000000000023557235, 10.001626, 9.990868 
8.050307e+2, 2.5641474e+2, -501483.75, -568988.75, 41194.54, -0.015072171, 0.23840679, -481980.06, -54822.03, 0.0, 9.999781, 9.990882 
8.0495465e+2, 2.6640534e+2, -425061.78, -483782.3, 32418.299, -0.021534944, 0.21905571, -410684.53, -81434.09, 0.0, 9.998396, 9.990657 
8.0487764e+2, 2.763956e+2, -343709.5, -393470.84, 30587.99, -0.028657416, 0.18083096, -329160.8, -97814.94, 0.0, 9.997236, 9.990687 
8.0479944e+2, 2.8638715e+2, -270449.06, -305936.94, 22673.105, -0.04644271, 0.26066688, -259402.08, -125973.28, 0.0, 9.995472, 9.9908 
8.047203e+2, 2.9637957e+2, -208137.69, -232073.08, 22689.102, -0.07047313, 0.42579827, -194453.47, -158950.5, 0.0, 9.993321, 9.990175 
8.046407e+2, 3.0636582e+2, -175326.81, -169977.13, 11395.741, -0.0138339605, -0.033231497, -160946.52, -160946.52, 0.0, 9.991309, 9.9920225 
8.045587e+2, 3.163621e+2, -119022.39, -5973.813, 13644.42, -0.079432234, 0.32919925, -4350.312, -4350.312, 0.0, 9.989288, 10.00426 
8.1602186e+2, 1.266069e+2, -1505414.4, -1702853.8, 7208.0347, 0.09442162, 0.26746258, -1505151.6, 194124.63, 0.00006376061, 10.017835, 9.991637 
8.1594014e+2, 1.3659813e+2, -1435073.0, -1616205.5, 8188.804, 0.08099113, 0.22565395, -1434703.5, 166658.47, 0.00004137539, 10.015859, 9.991833 
8.158603e+2, 1.4659056e+2, -1355596.0, -1515521.4, 21762.162, 0.075458296, 0.22414663, -1352687.5, 150748.66, 0.00002231875, 10.014092, 9.992899 
8.1578207e+2, 1.5658367e+2, -1281097.3, -1429309.1, 24629.457, 0.078459494, 0.24367711, -1277111.5, 128392.59, 0.000009487834, 10.0125065, 9.992869 
8.157053e+2, 1.665764e+2, -1206002.4, -1348118.5, 36082.46, 0.06954422, 0.2559761, -1197366.1, 110209.44, 0.0000030450792, 10.0112, 9.992382 
8.156299e+2, 1.7656887e+2, -1124256.1, -1257619.9, 36136.906, 0.05263596, 0.26349044, -1115093.8, 94555.84, 0.00000071964223, 10.010073, 9.992422 
8.155551e+2, 1.8656097e+2, -1045230.7, -1173309.3, 41402.832, 0.03895202, 0.25028312, -1033012.4, 78714.3, 0.00000012397778, 10.008971, 9.992032 
8.154808e+2, 1.9655277e+2, -962698.2, -1082478.8, 42591.93, 0.027640827, 0.22553442, -949097.5, 64709.16, 0.000000015526435, 10.007898, 9.992062 
8.154064e+2, 2.0654465e+2, -888896.56, -1002058.8, 42052.926, 0.024572771, 0.23315376, -874980.4, 40905.73, 0.0000000014128964, 10.006492, 9.991543 
8.1533194e+2, 2.1653643e+2, -813923.7, -914898.2, 42516.613, 0.02551475, 0.2577289, -798406.2, 19560.59, 0.00000000009342081, 10.004904, 9.991572 
8.1525743e+2, 2.2652774e+2, -735063.25, -831704.9, 43007.45, 0.010197607, 0.25368217, -718696.06, 1355.9844, 0.000000000004488386, 10.003838, 9.991074 
8.1518286e+2, 2.3651862e+2, -648047.94, -738250.5, 42431.88, -0.013515458, 0.23275128, -631225.1, -9083.917, 0.000000000000000071157756, 10.003049, 9.991141 
8.1510717e+2, 2.4650973e+2, -572314.6, -653179.25, 34328.49, -0.017779218, 0.23751904, -559707.2, -35479.035, 0.0000000000000000024848621, 10.001606, 9.990937 
8.150305e+2, 2.5650084e+2, -501506.84, -568957.5, 34710.95, -0.011973203, 0.25827032, -486835.4, -60520.484, 0.0, 9.99977, 9.990877 
8.149531e+2, 2.6649117e+2, -428442.47, -490761.44, 28101.389, -0.020458037, 0.2395695, -417642.44, -89232.42, 0.0, 9.998395, 9.990171 
8.1487477e+2, 2.7648088e+2, -346296.75, -398986.25, 25806.48, -0.035962477, 0.19124034, -335763.03, -105251.875, 0.0, 9.997242, 9.990297 
8.147949e+2, 2.8647226e+2, -270018.22, -305150.16, 14488.379, -0.048213687, 0.26662758, -264814.13, -132218.33, 0.0, 9.99547, 9.99084 
8.1471366e+2, 2.9646468e+2, -209080.28, -233789.56, 14847.277, -0.059851505, 0.43055707, -202119.67, -167450.0, 0.0, 9.993305, 9.99005 
8.146321e+2, 3.064503e+2, -183177.34, -186114.92, 3977.677, 0.0004412864, -0.018608533, -180405.94, -180405.94, 0.0, 9.991301, 9.990907 
8.145478e+2, 3.164457e+2, -114964.945, 2164.3586, 5703.1353, -0.098725885, 0.34669396, 2441.3945, 2441.3945, 0.0, 9.989296, 10.0048 
8.2603884e+2, 1.266923e+2, -1525820.9, -1704406.1, 13050.6455, 0.0998353, 0.2689526, -1524872.1, 173567.8, 0.000017954637, 10.0160475, 9.99237 
8.259551e+2, 1.3668424e+2, -1456846.3, -1619190.6, 18223.227, 0.08264352, 0.22675766, -1454825.9, 145692.69, 0.000011651598, 10.01401, 9.99249 
8.258736e+2, 1.466771e+2, -1375165.6, -1522325.0, 34244.86, 0.075473644, 0.22763254, -1367586.9, 135001.66, 0.0000062848585, 10.01261, 9.993125 
8.2579404e+2, 1.5667047e+2, -1292052.1, -1431817.4, 34955.523, 0.077935785, 0.25173342, -1283797.3, 120856.76, 0.0000026714176, 10.011607, 9.993109 
8.257162e+2, 1.6666344e+2, -1212847.9, -1349077.1, 47351.39, 0.06774625, 0.26287633, -1198006.1, 108717.17, 0.0000008572275, 10.0106, 9.992583 
8.256397e+2, 1.7665605e+2, -1128942.1, -1257231.8, 48769.047, 0.049182292, 0.26617596, -1112507.9, 96287.96, 0.00000020254105, 10.009606, 9.992647 
8.255638e+2, 1.8664846e+2, -1050960.5, -1172547.8, 53663.76, 0.039606225, 0.25498435, -1030663.7, 80206.36, 0.00000003488382, 10.008395, 9.992336 
8.254884e+2, 1.966406e+2, -972126.25, -1083919.1, 54125.066, 0.03531912, 0.23536806, -950215.6, 62730.984, 0.0000000043673882, 10.007087, 9.9923315 
8.254128e+2, 2.0663261e+2, -892761.7, -1003819.1, 53588.625, 0.0277197, 0.24381347, -871120.6, 43904.258, 0.0000000003973031, 10.006192, 9.991543 
8.2533705e+2, 2.1662441e+2, -804111.5, -909627.06, 54099.613, 0.018315341, 0.26725328, -781303.75, 35801.934, 0.00000000002626095, 10.005522, 9.991608 
8.252615e+2, 2.2661579e+2, -726329.7, -825739.7, 54953.547, 0.005618588, 0.26090685, -701936.9, 17253.16, 0.000000000001261275, 10.00433, 9.991217 
8.2518584e+2, 2.3660676e+2, -649882.1, -737569.9, 55129.55, -0.008866022, 0.23695381, -623287.75, -2009.6277, 0.000000000000000005611816, 10.002825, 9.991267 
8.251088e+2, 2.4659795e+2, -570116.1, -652294.06, 46217.953, -0.015527131, 0.24374947, -549363.3, -25998.896, 0.00000000000000000019594809, 10.001732, 9.990907 
8.2503074e+2, 2.565891e+2, -485458.13, -561456.2, 46042.805, -0.01793164, 0.26925808, -463759.03, -38307.92, 0.0, 10.000846, 9.990843 
8.2495195e+2, 2.6657933e+2, -413427.22, -485131.5, 40567.043, -0.024220234, 0.24985409, -395140.1, -67592.836, 0.0, 9.999458, 9.99001 
8.248723e+2, 2.7656883e+2, -339020.1, -396752.78, 40551.965, -0.032307807, 0.19800958, -318109.66, -88459.414, 0.0, 9.997761, 9.990163 
8.247907e+2, 2.8656006e+2, -260370.47, -301231.8, 27833.787, -0.04637575, 0.27033916, -246273.88, -114537.74, 0.0, 9.996125, 9.99075 
8.247075e+2, 2.9655236e+2, -192914.16, -228487.1, 27424.107, -0.06426906, 0.4308975, -178013.63, -144202.27, 0.0, 9.994482, 9.989807 
8.246242e+2, 3.0653742e+2, -169236.98, -191705.83, 15939.271, 0.008772181, -0.0019229742, -160970.83, -160970.83, 0.0, 9.992748, 9.989784 
8.2453775e+2, 3.1653166e+2, -88336.95, 21064.605, 16424.545, -0.108536035, 0.3482145, 23477.23, 23477.23, 0.0, 9.990823, 10.005321 
8.3605504e+2, 1.2677914e+2, -1519000.8, -1687468.4, 5995.102, 0.121741675, 0.23916134, -1518787.6, 178801.6, 0.0000040737064, 10.015913, 9.99357 
8.3596903e+2, 1.3677281e+2, -1449791.8, -1604394.4, 11094.632, 0.0823374, 0.2507635, -1448999.6, 150651.55, 0.0000026437538, 10.013991, 9.993491 
8.358861e+2, 1.4676613e+2, -1375286.1, -1522728.3, 30405.377, 0.06631968, 0.2569155, -1369262.1, 132454.72, 0.0000014259784, 10.012615, 9.993087 
8.3580554e+2, 1.5675926e+2, -1291965.8, -1431161.8, 31226.436, 0.06725089, 0.26005036, -1285281.6, 118503.08, 0.00000060604356, 10.011585, 9.9931555 
8.3572674e+2, 1.6675232e+2, -1210552.4, -1343477.9, 43799.332, 0.060093462, 0.25752366, -1197418.1, 108434.586, 0.00000019443611, 10.010559, 9.992977 
8.356493e+2, 1.7674525e+2, -1126917.3, -1251964.9, 44965.734, 0.047066282, 0.25181445, -1112427.1, 95494.99, 0.00000004592908, 10.009556, 9.993022 
8.355722e+2, 1.8673812e+2, -1049811.8, -1169552.0, 48859.152, 0.04638207, 0.25738618, -1032405.44, 77586.64, 0.000000007908247, 10.008361, 9.992548 
8.3549565e+2, 1.9673076e+2, -970689.8, -1081093.0, 49700.18, 0.052180998, 0.26764634, -951612.7, 60451.387, 0.0000000009898031, 10.007087, 9.992516 
8.35419e+2, 2.0672277e+2, -892615.25, -1003597.5, 51234.17, 0.03058002, 0.26537302, -872580.1, 41562.344, 0.00000000009001152, 10.006195, 9.991551 
8.3534235e+2, 2.1671423e+2, -803842.1, -908679.8, 51331.97, -0.0047642817, 0.25672165, -782894.06, 33332.016, 0.0000000000059473247, 10.005503, 9.991675 
8.352657e+2, 2.267058e+2, -724710.44, -822055.1, 49399.32, -0.0062457505, 0.25139403, -704033.75, 14274.703, 0.0000000000002855474, 10.004308, 9.991468 
8.3518887e+2, 2.3669723e+2, -648417.75, -734540.56, 49959.453, 0.009508676, 0.24654013, -625522.9, -5130.6626, 0.00000000000000000032811435, 10.002818, 9.991467 
8.3511066e+2, 2.4668844e+2, -570774.0, -653728.0, 42960.934, -0.0043395665, 0.2546229, -552535.2, -30056.95, 0.000000000000000000011455193, 10.001735, 9.9908 
8.3503145e+2, 2.5667942e+2, -485761.6, -562041.8, 42354.473, -0.03317454, 0.2711844, -466905.5, -42338.66, 0.0, 10.000843, 9.990795 
8.3495134e+2, 2.666697e+2, -412117.06, -482312.88, 34140.984, -0.032589927, 0.2500122, -398251.0, -71588.86, 0.0, 9.999447, 9.990196 
8.348702e+2, 2.7665943e+2, -338072.56, -394572.7, 34286.17, -0.016871588, 0.20106307, -321897.34, -93134.44, 0.0, 9.9977455, 9.990307 
8.3478695e+2, 2.8665057e+2, -261877.39, -304164.13, 21760.729, -0.04108039, 0.27145508, -252679.84, -121830.37, 0.0, 9.996113, 9.990542 
8.347018e+2, 2.966426e+2, -195223.05, -233436.72, 21500.063, -0.08642144, 0.4267818, -185566.66, -152639.1, 0.0, 9.994486, 9.989453 
8.34617e+2, 3.066271e+2, -176637.61, -207516.52, 8941.447, 0.010144963, 0.017660787, -174235.38, -174235.38, 0.0, 9.992766, 9.988678 
8.345286e+2, 3.1662008e+2, -84707.016, 28214.629, 7494.5747, -0.10758919, 0.33583277, 28709.871, 28709.871, 0.0, 9.990832, 10.005789 
8.4606975e+2, 1.2686852e+2, -1551266.1, -1699518.3, 15768.375, 0.12620153, 0.24553217, -1549607.5, 147106.64, 0.00000073545374, 10.013529, 9.993879 
8.4598243e+2, 1.3686258e+2, -1465304.5, -1608096.8, 16018.976, 0.08012795, 0.26355815, -1463529.5, 135242.8, 0.0000004773218, 10.012741, 9.993826 
8.458982e+2, 1.4685622e+2, -1386597.9, -1524983.9, 35721.96, 0.061710306, 0.26968125, -1377920.9, 122914.086, 0.00000025744572, 10.011676, 9.993374 
8.4581655e+2, 1.5684958e+2, -1304831.6, -1433716.5, 38469.35, 0.062328976, 0.26886702, -1294222.6, 108677.63, 0.00000010939993, 10.010519, 9.99348 
8.457367e+2, 1.6684304e+2, -1223621.6, -1344698.5, 52235.96, 0.059455395, 0.26561877, -1204200.8, 100763.766, 0.000000035091528, 10.009416, 9.993429 
8.4565824e+2, 1.7683645e+2, -1140924.1, -1253988.4, 53829.7, 0.052925337, 0.26095718, -1119395.3, 87634.125, 0.0000000082870475, 10.008363, 9.993443 
8.455802e+2, 1.8682963e+2, -1058861.5, -1171294.5, 58388.516, 0.04878222, 0.26754957, -1034025.44, 75070.72, 0.0000000014264486, 10.0076, 9.992779 
8.455026e+2, 1.9682251e+2, -969781.9, -1077812.4, 59496.977, 0.046429813, 0.2792556, -943438.3, 67727.51, 0.00000000017847206, 10.006997, 9.992763 
8.454251e+2, 2.0681475e+2, -891598.44, -999853.94, 62476.53, 0.027117116, 0.27509052, -863063.44, 50178.316, 0.000000000016224046, 10.006095, 9.991832 
8.4534764e+2, 2.1680647e+2, -808110.5, -907414.75, 64365.734, -0.0010312535, 0.26244226, -776471.3, 38851.566, 0.0000000000010715605, 10.005036, 9.991961 
8.452699e+2, 2.2679833e+2, -725077.6, -819659.75, 62096.797, -0.003244335, 0.25859532, -694314.5, 23088.098, 0.000000000000051429313, 10.004139, 9.991684 
8.451919e+2, 2.3679e+2, -639457.25, -727885.4, 62723.61, 0.00830006, 0.2584828, -606930.6, 12553.214, 0.000000000000000000014321143, 10.003299, 9.991662 
8.451127e+2, 2.4678129e+2, -562687.1, -649248.7, 56637.395, -0.0059622414, 0.2635533, -534686.6, -13117.544, 0.00000000000000000000049989553, 10.002232, 9.990835 
8.4503233e+2, 2.5677222e+2, -482499.75, -559637.5, 57019.402, -0.03391981, 0.27291307, -452229.9, -28571.887, 0.0, 10.000998, 9.990852 
8.44951e+2, 2.6676264e+2, -403749.03, -476618.22, 47924.27, -0.032472562, 0.25599232, -379982.2, -54230.246, 0.0, 9.999914, 9.990325 
8.4486854e+2, 2.767526e+2, -320118.9, -384588.47, 47592.605, -0.014967705, 0.21720003, -294872.06, -67021.63, 0.0, 9.99888, 9.990408 
8.4478366e+2, 2.867436e+2, -242122.3, -296942.78, 34192.688, -0.045138557, 0.2790557, -225709.47, -95770.89, 0.0, 9.997524, 9.990321 
8.446969e+2, 2.9673523e+2, -174671.94, -226937.0, 33972.777, -0.10160406, 0.4165652, -157943.55, -125922.83, 0.0, 9.995996, 9.989136 
8.4461063e+2, 3.0671954e+2, -160181.89, -209398.1, 21295.564, 0.022476656, 0.054573286, -152246.8, -152246.8, 0.0, 9.994272, 9.9877825 
8.4452015e+2, 3.1671137e+2, -59951.03, 45207.68, 18535.348, -0.1097505, 0.33432397, 48379.09, 48379.09, 0.0, 9.992264, 10.006218 
8.560832e+2, 1.2696e+2, -1552991.9, -1703103.1, 12318.027, 0.119069934, 0.27555618, -1551987.9, 143831.02, 0.00000010392011, 10.013532, 9.993628 
8.559951e+2, 1.3695355e+2, -1466939.8, -1609790.4, 12737.759, 0.076746255, 0.26808572, -1465812.8, 132069.19, 0.00000006745095, 10.01267, 9.993737 
8.559098e+2, 1.4694744e+2, -1383904.3, -1517725.9, 31616.115, 0.06031091, 0.27101514, -1376810.8, 123131.23, 0.00000003637854, 10.011597, 9.993897 
8.5582703e+2, 1.5694143e+2, -1301608.6, -1426111.0, 34355.45, 0.06169957, 0.27839392, -1292757.8, 109243.56, 0.000000015456534, 10.010472, 9.994011 
8.5574615e+2, 1.669355e+2, -1220403.4, -1337419.9, 48401.914, 0.06414129, 0.28418645, -1202977.8, 101081.78, 0.0000000049568016, 10.009382, 9.993934 
8.5566676e+2, 1.7692947e+2, -1137890.0, -1247262.5, 50190.016, 0.064778395, 0.28852856, -1118349.4, 87769.35, 0.0000000011702359, 10.008338, 9.993906 
8.5558784e+2, 1.8692288e+2, -1057214.5, -1167481.1, 56252.793, 0.04714889, 0.2833502, -1033581.94, 74601.29, 0.00000000020136144, 10.00758, 9.993043 
8.555094e+2, 1.9691584e+2, -967783.2, -1073185.8, 57122.023, 0.02195307, 0.27348465, -942764.75, 67487.43, 0.000000000025183461, 10.006973, 9.993084 
8.554311e+2, 2.069086e+2, -888055.5, -992161.56, 58619.426, 0.019102154, 0.27554822, -861713.7, 50609.39, 0.000000000002288388, 10.006073, 9.99236 
8.553529e+2, 2.1690103e+2, -804673.06, -900209.2, 60665.297, 0.026205659, 0.28295806, -775226.7, 39170.43, 0.0000000000001510805, 10.005027, 9.99245 
8.5527426e+2, 2.2689322e+2, -723538.2, -816480.2, 58976.477, 0.012045652, 0.28048372, -694924.06, 21549.475, 0.000000000000007247889, 10.004137, 9.991896 
8.55195e+2, 2.3688504e+2, -637917.56, -724670.94, 59466.06, -0.011396169, 0.27222577, -607688.9, 10864.644, 0.0, 10.003294, 9.991877 
8.5511476e+2, 2.4687646e+2, -561367.6, -646432.9, 51990.777, -0.019011294, 0.27076048, -536728.3, -16090.947, 0.0, 10.002224, 9.991022 
8.550335e+2, 2.5686753e+2, -481310.56, -557058.2, 52554.81, -0.020226339, 0.27476913, -454404.5, -31679.59, 0.0, 10.000989, 9.991024 
8.5495096e+2, 2.668582e+2, -403094.13, -475215.6, 44077.668, -0.024495121, 0.2681595, -382205.6, -57388.94, 0.0, 9.99991, 9.990414 
8.5486734e+2, 2.7684838e+2, -319498.97, -383440.7, 43444.75, -0.028123658, 0.24730079, -297529.28, -70616.54, 0.0, 9.998884, 9.990475 
8.547811e+2, 2.8683913e+2, -243546.42, -300138.2, 28438.463, -0.05929432, 0.29356468, -231724.94, -102721.586, 0.0, 9.997529, 9.990088 
8.546928e+2, 2.9683024e+2, -176393.06, -230739.61, 28230.396, -0.10789746, 0.39917976, -164382.9, -133292.05, 0.0, 9.996001, 9.988861 
8.5460514e+2, 3.0681482e+2, -164370.7, -218193.5, 14059.8125, 0.0476411, 0.111568645, -160919.27, -160919.27, 0.0, 9.994272, 9.9871645 
8.545123e+2, 3.1680572e+2, -57556.406, 50509.195, 7702.255, -0.12023206, 0.34920463, 51055.406, 51055.406, 0.0, 9.992236, 10.006576 
8.6609584e+2, 1.2705165e+2, -1572874.9, -1705505.6, 11750.141, 0.11211595, 0.29679435, -1571842.0, 123079.945, 0.000000011291206, 10.011838, 9.994282 
8.660068e+2, 1.3704579e+2, -1492739.8, -1615220.8, 17208.146, 0.08381234, 0.2827876, -1490368.0, 106611.305, 0.0000000073293784, 10.010578, 9.994368 
8.6592054e+2, 1.470402e+2, -1407568.4, -1523314.0, 38558.184, 0.06749241, 0.28019726, -1395899.9, 103134.22, 0.0000000039527883, 10.009704, 9.994418 
8.658368e+2, 1.5703465e+2, -1318591.0, -1428617.5, 41224.95, 0.06250313, 0.28307706, -1304858.8, 96229.74, 0.0000000016791767, 10.009041, 9.994517 
8.6575496e+2, 1.670292e+2, -1234063.5, -1339644.3, 54666.387, 0.06172943, 0.2914702, -1210858.9, 92283.266, 0.00000000053836874, 10.008235, 9.994322 
8.6567456e+2, 1.7702362e+2, -1148592.9, -1247672.1, 56097.387, 0.06068959, 0.30163231, -1123292.0, 81905.03, 0.0000000001270618, 10.007376, 9.994329 
8.655949e+2, 1.8701753e+2, -1066033.5, -1165444.5, 64317.65, 0.045912176, 0.29613194, -1034453.1, 72803.52, 0.000000000021855228, 10.006681, 9.993602 
8.6551595e+2, 1.9701101e+2, -976850.6, -1071484.8, 66921.62, 0.025384389, 0.28289428, -942207.9, 67112.56, 0.0000000000027321734, 10.006065, 9.99362 
8.6543685e+2, 2.0700425e+2, -894306.75, -989910.4, 68047.87, 0.020499073, 0.28350163, -858948.94, 52437.668, 0.00000000000024815387, 10.005391, 9.992823 
8.653578e+2, 2.1699715e+2, -805927.0, -895724.0, 69945.59, 0.023103185, 0.2909773, -767709.56, 45746.535, 0.000000000000016375126, 10.004693, 9.992898 
8.6527824e+2, 2.2698975e+2, -723399.1, -812835.44, 68812.3, 0.010437597, 0.29134896, -686051.2, 29477.484, 0.000000000000000785184, 10.0039625, 9.9922085 
8.6519825e+2, 2.369819e+2, -636208.8, -719733.94, 70070.65, -0.009501836, 0.2867516, -596399.25, 21206.072, 0.0, 10.0032015, 9.992238 
8.65117e+2, 2.4697372e+2, -556396.2, -639265.9, 62998.504, -0.018291757, 0.2830796, -522427.75, -2742.3442, 0.0, 10.002323, 9.991437 
8.6503464e+2, 2.5696516e+2, -473093.25, -548704.06, 65433.87, -0.022115497, 0.28255218, -435328.56, -13559.295, 0.0, 10.001326, 9.991404 
8.649511e+2, 2.6695615e+2, -396625.84, -469268.38, 58029.355, -0.024254186, 0.28134647, -364488.06, -40630.504, 0.0, 10.0001955, 9.990649 
8.648662e+2, 2.769467e+2, -316817.47, -378979.72, 58357.332, -0.024072973, 0.27028918, -281780.4, -55830.02, 0.0, 9.998894, 9.99074 
8.6477876e+2, 2.8693756e+2, -235766.52, -292773.4, 46739.156, -0.060706064, 0.2974588, -209525.14, -81485.25, 0.0, 9.997864, 9.990389 
8.646893e+2, 2.9692858e+2, -158304.2, -221223.14, 50456.137, -0.11850863, 0.3715546, -130303.44, -100175.766, 0.0, 9.997162, 9.988904 
8.646006e+2, 3.069131e+2, -143866.39, -225864.63, 32133.068, 0.059182487, 0.16464967, -132774.61, -132774.61, 0.0, 9.996384, 9.985579 
8.64506e+2, 3.1690198e+2, -9765.783, 73313.93, 14546.448, -0.13256316, 0.33838362, 75787.234, 75787.234, 0.0, 9.99547, 10.006552 
8.7610763e+2, 1.271438e+2, -1565442.0, -1687822.9, 7602.1177, 0.10528757, 0.31228927, -1564971.5, 129048.86, 0.00000000092689995, 10.011728, 9.995526 
8.7601745e+2, 1.3713923e+2, -1485700.5, -1599222.8, 13049.427, 0.09807333, 0.30463833, -1484219.8, 111845.01, 0.0000000006017147, 10.010508, 9.99548 
8.7593037e+2, 1.4713433e+2, -1404465.0, -1515768.3, 36219.023, 0.08047225, 0.29476273, -1393717.0, 104395.55, 0.0000000003244905, 10.009651, 9.994951 
8.7584585e+2, 1.5712918e+2, -1315708.8, -1421611.5, 38722.97, 0.06403647, 0.28423417, -1303060.5, 97102.42, 0.00000000013782106, 10.008992, 9.995011 
8.7576306e+2, 1.671241e+2, -1232276.8, -1335172.0, 51621.055, 0.05368262, 0.29036093, -1210843.8, 91369.18, 0.00000000004417575, 10.008196, 9.994639 
8.7568176e+2, 1.7711888e+2, -1145885.3, -1241685.1, 53284.164, 0.044291593, 0.30356473, -1122136.0, 82128.42, 0.000000000010422498, 10.007354, 9.994741 
8.756016e+2, 1.8711352e+2, -1060497.9, -1153652.8, 62166.8, 0.045633063, 0.3069815, -1029395.44, 76921.37, 0.0000000000017919883, 10.006663, 9.99441 
8.7552226e+2, 1.9710791e+2, -971998.3, -1060992.0, 64551.566, 0.05173088, 0.3051501, -938093.2, 70278.586, 0.00000000000022391456, 10.006042, 9.994342 
8.754423e+2, 2.0710161e+2, -891332.1, -983500.9, 65447.94, 0.028676087, 0.29739317, -857371.5, 53061.79, 0.000000000000020326843, 10.005376, 9.993262 
8.753621e+2, 2.170948e+2, -802769.7, -889233.6, 67395.14, -0.0067579453, 0.28771317, -765932.25, 46567.79, 0.0000000000000013405733, 10.004691, 9.993338 
8.7528205e+2, 2.2708784e+2, -720353.2, -806574.56, 66045.57, -0.005220759, 0.2927027, -684593.4, 29974.652, 0.000000000000000064243816, 10.00396, 9.992632 
8.7520164e+2, 2.370806e+2, -632580.7, -712148.6, 67304.555, 0.012453895, 0.3025671, -594181.1, 22458.197, 0.0, 10.003194, 9.992755 
8.7511945e+2, 2.4707304e+2, -551791.94, -629706.56, 59277.84, -0.0056029186, 0.30043265, -519815.94, -1102.7097, 0.0, 10.002318, 9.992085 
8.7503576e+2, 2.5706506e+2, -468789.7, -539891.75, 61758.85, -0.039781574, 0.29598022, -433080.4, -12289.266, 0.0, 10.001327, 9.991998 
8.749512e+2, 2.6705655e+2, -393730.06, -463310.16, 53122.516, -0.031123854, 0.29537827, -365019.3, -42144.7, 0.0, 10.0001955, 9.991045 
8.7486535e+2, 2.7704751e+2, -313347.63, -371701.44, 53335.094, -0.0014289605, 0.28576005, -281730.4, -56767.227, 0.0, 9.998888, 9.991228 
8.747767e+2, 2.870389e+2, -229461.8, -279595.5, 44214.17, -0.048828565, 0.28988802, -203703.06, -76655.484, 0.0, 9.997857, 9.991288 
8.746863e+2, 2.9703045e+2, -155410.47, -215365.84, 48054.668, -0.13619828, 0.33313274, -128749.72, -99619.89, 0.0, 9.997167, 9.989296 
8.7459695e+2, 3.0701452e+2, -162399.78, -264709.4, 29192.768, 0.05304943, 0.21446441, -154656.1, -154656.1, 0.0, 9.996394, 9.982911 
8.7450147e+2, 3.1700027e+2, -12167.324, 67941.695, 7357.205, -0.13175084, 0.32266846, 68611.77, 68611.77, 0.0, 9.995471, 10.006171 
8.86118e+2, 1.2723729e+2, -1599637.4, -1696563.3, 13596.934, 0.10808568, 0.31396863, -1597766.0, 95338.984, 0.000000000056981576, 10.00904, 9.996218 
8.860269e+2, 1.3723348e+2, -1511381.5, -1603735.5, 16381.55, 0.09860151, 0.31204048, -1508561.9, 86580.19, 0.00000000003699274, 10.008395, 9.996184 
8.8593906e+2, 1.472293e+2, -1425870.5, -1519061.1, 40150.086, 0.0804821, 0.30686253, -1410958.4, 86224.46, 0.000000000019947929, 10.00787, 9.995582 
8.85854e+2, 1.572248e+2, -1334737.1, -1424147.9, 43146.254, 0.06423966, 0.30003875, -1317312.3, 81914.516, 0.000000000008470906, 10.007389, 9.9956045 
8.8577056e+2, 1.672202e+2, -1248321.1, -1337488.8, 56548.71, 0.05437996, 0.30083662, -1220894.6, 80377.43, 0.0000000000027144218, 10.006848, 9.99512 
8.856886e+2, 1.7721537e+2, -1157995.8, -1242013.1, 59306.605, 0.04542472, 0.3051716, -1127327.0, 75992.59, 0.0000000000006401885, 10.00627, 9.995228 
8.856077e+2, 1.8721056e+2, -1071534.8, -1152651.6, 67627.164, 0.046421267, 0.31039688, -1033236.2, 72130.555, 0.00000000000011002324, 10.005618, 9.994969 
8.8552773e+2, 1.9720557e+2, -983845.25, -1060085.8, 68714.875, 0.052175846, 0.31524852, -943385.06, 64030.496, 0.000000000000013740928, 10.004928, 9.994933 
8.854472e+2, 2.0719998e+2, -899546.3, -978675.1, 71065.27, 0.027455274, 0.30795604, -857774.3, 51695.95, 0.0000000000000012467115, 10.0044155, 9.994044 
8.8536644e+2, 2.1719389e+2, -807487.56, -882911.8, 75279.61, -0.010490748, 0.29571587, -761002.2, 50527.402, 0.0000000000000000821722, 10.003976, 9.994098 
8.852856e+2, 2.2718772e+2, -723580.5, -799126.9, 75787.52, -0.0074904165, 0.30008283, -676674.5, 36915.61, 0.000000000000000003935413, 10.003325, 9.993425 
8.852046e+2, 2.3718128e+2, -635772.44, -704815.4, 79767.92, 0.0137898065, 0.3105193, -583376.4, 32277.254, 0.0, 10.002564, 9.993534 
8.851216e+2, 2.4717449e+2, -552746.5, -621884.06, 72655.4, -0.0031973259, 0.310098, -506855.3, 10864.786, 0.0, 10.001859, 9.992816 
8.8503706e+2, 2.5716728e+2, -464106.9, -528478.75, 75963.38, -0.03777302, 0.3079307, -413792.1, 5998.5117, 0.0, 10.001207, 9.992811 
8.849512e+2, 2.6715964e+2, -393108.4, -453238.03, 66918.555, -0.028176952, 0.3080105, -349811.2, -27945.76, 0.0, 9.999762, 9.991907 
8.848637e+2, 2.7715147e+2, -324628.1, -367298.78, 71241.336, 0.0031048737, 0.2974535, -271595.94, -47650.387, 0.0, 9.997631, 9.992096 
8.8477486e+2, 2.8714305e+2, -221865.05, -278378.84, 69338.74, -0.049258914, 0.29273623, -175246.63, -49219.14, 0.0, 9.99844, 9.991076 
8.8468546e+2, 2.9713434e+2, -96745.74, -192892.6, 63100.53, -0.14354286, 0.3296974, -65492.43, -37379.727, 0.0, 10.001409, 9.988785 
8.8459545e+2, 3.0711716e+2, -119162.05, -272968.72, 32429.104, 0.056673054, 0.25308374, -112604.195, -112604.195, 0.0, 10.000579, 9.980303 
8.8449806e+2, 3.1710002e+2, 21317.82, 88404.305, 8890.838, -0.13317491, 0.3032421, 89562.59, 89562.59, 0.0, 9.997573, 10.006516 
8.961271e+2, 1.2733187e+2, -1598182.8, -1691865.0, 11315.271, 0.11664278, 0.30688307, -1596835.4, 95343.14, 0.0000000000023392783, 10.008964, 9.996568 
8.960352e+2, 1.3732848e+2, -1508511.5, -1597255.8, 14371.768, 0.089308485, 0.30975738, -1506242.0, 87969.87, 0.0000000000015186728, 10.008369, 9.996632 
8.959469e+2, 1.4732502e+2, -1421180.8, -1508835.1, 38495.43, 0.07151633, 0.31752664, -1406675.1, 89570.586, 0.00000000000081882537, 10.007843, 9.996286 
8.958614e+2, 1.573214e+2, -1330509.0, -1414506.5, 41258.465, 0.06374928, 0.32644087, -1313633.8, 84647.625, 0.00000000000034763362, 10.007347, 9.996277 
8.957775e+2, 1.6731733e+2, -1244449.1, -1328573.6, 54343.652, 0.061833948, 0.31958202, -1217791.1, 82529.9, 0.0000000000001113612, 10.006805, 9.995744 
8.9569503e+2, 1.7731296e+2, -1154525.4, -1234080.9, 57066.33, 0.05991593, 0.306448, -1124741.4, 77622.6, 0.000000000000026254008, 10.006234, 9.995782 
8.956133e+2, 1.8730856e+2, -1068968.0, -1147015.1, 65071.688, 0.04731573, 0.30795813, -1032115.6, 72291.45, 0.0000000000000045099943, 10.005599, 9.995358 
8.955325e+2, 1.97304e+2, -980101.2, -1052502.0, 66454.28, 0.03126158, 0.31538764, -940627.0, 65824.8, 0.00000000000000056296764, 10.0049305, 9.995444 
8.9545155e+2, 2.0729934e+2, -891762.6, -962627.25, 69522.44, 0.01927153, 0.31610847, -849164.06, 59333.387, 0.000000000000000051047926, 10.0044155, 9.995135 
8.953706e+2, 2.1729445e+2, -800145.8, -867414.6, 73424.76, 0.008562971, 0.3139101, -753018.44, 57526.746, 0.0000000000000000033623965, 10.00396, 9.99516 
8.9528906e+2, 2.2728932e+2, -715456.6, -782115.06, 72908.58, 0.0010168877, 0.3126191, -668620.44, 43974.96, 0.00000000000000000016092036, 10.003311, 9.994589 
8.95207e+2, 2.3728389e+2, -628302.25, -689479.2, 76876.77, -0.0043306863, 0.31084788, -576152.06, 38496.66, 0.0, 10.002564, 9.994576 
8.9512336e+2, 2.4727802e+2, -546654.0, -609426.8, 70221.516, -0.009607659, 0.31261995, -501123.78, 15582.513, 0.0, 10.001861, 9.993662 
8.950385e+2, 2.5727177e+2, -456634.8, -512962.53, 73398.81, -0.01597828, 0.31893563, -406181.94, 12585.738, 0.0, 10.001201, 9.993872 
8.9495105e+2, 2.672654e+2, -383665.25, -433553.03, 58779.375, -0.016138755, 0.31935927, -344756.1, -23926.178, 0.0, 9.999748, 9.993241 
8.9486116e+2, 2.7725852e+2, -315835.06, -348920.56, 64662.824, -0.012600306, 0.30506676, -265632.44, -42735.09, 0.0, 9.99762, 9.993343 
8.947732e+2, 2.8725013e+2, -231089.48, -297962.16, 81068.89, -0.0626956, 0.3069903, -176832.3, -51852.87, 0.0, 9.998476, 9.989742 
8.94687e+2, 2.9724023e+2, -105888.98, -212866.78, 71086.36, -0.13808249, 0.36366743, -70415.34, -43339.25, 0.0, 10.00146, 9.98741 
8.945962e+2, 3.072211e+2, -136086.77, -307204.25, 20906.42, 0.072633594, 0.27530485, -133569.55, -133569.55, 0.0, 10.0005, 9.977989 
8.944954e+2, 3.1720224e+2, 30176.244, 110780.055, -3585.6736, -0.1399224, 0.3482123, 110939.25, 110939.25, 0.0, 9.997357, 10.008144 
9.061348e+2, 1.2742697e+2, -1631111.8, -1701889.1, 12904.356, 0.11872455, 0.3141899, -1628832.4, 62415.016, 0.000000000000080661755, 10.006457, 9.997101 
9.060426e+2, 1.3742413e+2, -1531094.8, -1602409.6, 16746.346, 0.081756376, 0.32068568, -1527358.1, 65917.28, 0.000000000000052366565, 10.006574, 9.997147 
9.0595394e+2, 1.4742114e+2, -1441023.4, -1513788.5, 39018.17, 0.06773324, 0.327657, -1424057.0, 71247.79, 0.000000000000028231442, 10.006283, 9.996699 
9.05868e+2, 1.5741791e+2, -1350217.4, -1418661.3, 40255.883, 0.06916025, 0.3344504, -1331603.0, 65733.516, 0.000000000000011983068, 10.005763, 9.996759 
9.057836e+2, 1.674145e+2, -1261247.6, -1328556.9, 53264.914, 0.06591727, 0.33048752, -1231896.0, 67473.82, 0.0000000000000038374984, 10.0053, 9.996471 
9.057005e+2, 1.7741089e+2, -1170024.4, -1233974.4, 56724.66, 0.058453463, 0.3218622, -1136883.4, 64521.805, 0.0000000000000009043636, 10.004842, 9.996459 
9.0561837e+2, 1.874071e+2, -1080721.3, -1145418.1, 66052.016, 0.044827297, 0.32086635, -1039521.8, 63920.426, 0.00000000000000015528517, 10.004477, 9.996002 
9.0553695e+2, 1.9740313e+2, -987306.5, -1048496.7, 68972.48, 0.029408664, 0.32311222, -942447.9, 63033.293, 0.000000000000000019373829, 10.004108, 9.996103 
9.0545547e+2, 2.0739926e+2, -899590.25, -956169.44, 71283.82, 0.01895577, 0.32441625, -851187.7, 56331.305, 0.0000000000000000017557318, 10.003429, 9.996042 
9.0537393e+2, 2.1739532e+2, -813298.56, -863506.7, 74092.836, 0.010685222, 0.3252833, -760172.44, 49385.105, 0.00000000000000000011557008, 10.002607, 9.996074 
9.052917e+2, 2.2739123e+2, -726884.75, -774319.4, 73212.91, 0.0022960748, 0.32351136, -673643.4, 37954.1, 0.0000000000000000000055271728, 10.001941, 9.995778 
9.052089e+2, 2.3738697e+2, -637739.6, -680781.56, 77550.88, -0.0060197636, 0.31991997, -578778.94, 34860.293, 0.0, 10.00133, 9.995763 
9.051246e+2, 2.4738252e+2, -552735.94, -594094.4, 74417.3, -0.0112393955, 0.32137606, -496178.06, 19505.045, 0.0, 10.000637, 9.995289 
9.05039e+2, 2.5737786e+2, -465274.4, -499056.16, 82731.64, -0.015445366, 0.32721847, -397726.97, 20001.725, 0.0, 9.999803, 9.995475 
9.049503e+2, 2.6737338e+2, -383264.22, -409517.13, 69564.695, -0.014505672, 0.32883298, -325598.38, -5825.608, 0.0, 9.9987, 9.995359 
9.048588e+2, 2.773687e+2, -298770.28, -316809.3, 82701.14, -0.010645125, 0.31976545, -224598.28, -2779.3264, 0.0, 9.997688, 9.995477 
9.0476793e+2, 2.8736338e+2, -306753.6, -289235.16, 110507.73, -0.07305448, 0.3250279, -187140.05, -63269.29, 0.0, 9.991207, 9.993759 
9.1614115e+2, 1.2752242e+2, -1627077.5, -1692505.4, 13150.21, 0.11622692, 0.3307811, -1624533.4, 65779.43, 0.0, 10.006413, 9.997761 
9.1604906e+2, 1.3752028e+2, -1528089.4, -1594652.5, 16639.268, 0.07550533, 0.34038863, -1524161.8, 68172.37, 0.0, 10.006507, 9.997706 
9.1596013e+2, 1.4751753e+2, -1440339.6, -1510910.0, 37091.66, 0.06762808, 0.33704555, -1424430.6, 69930.37, 0.0, 10.006215, 9.996924 
9.158738e+2, 1.5751441e+2, -1348275.4, -1413670.3, 38702.457, 0.07854823, 0.32918066, -1330307.3, 66084.6, 0.0, 10.005717, 9.997117 
9.157889e+2, 1.6751175e+2, -1255795.4, -1316842.9, 51698.91, 0.06698063, 0.33617944, -1226281.9, 72136.12, 0.0, 10.005277, 9.997276 
9.157052e+2, 1.7750914e+2, -1164522.1, -1222536.1, 55173.71, 0.04465492, 0.3483573, -1131195.0, 69248.61, 0.0, 10.004835, 9.997238 
9.1562283e+2, 1.8750615e+2, -1074798.3, -1132835.8, 64656.96, 0.04022878, 0.34568262, -1032946.6, 69526.234, 0.0, 10.00446, 9.996865 
9.155412e+2, 1.9750293e+2, -982185.2, -1037144.5, 67186.414, 0.043132547, 0.33705372, -937075.94, 67428.34, 0.0, 10.004073, 9.996891 
9.154589e+2, 2.0749974e+2, -894377.25, -944973.75, 68149.28, 0.024458367, 0.3328827, -846982.1, 59553.184, 0.0, 10.003406, 9.996812 
9.153764e+2, 2.1749653e+2, -807543.3, -851762.25, 71258.13, -0.0021698752, 0.33072034, -755043.44, 53523.117, 0.0, 10.002609, 9.996869 
9.152936e+2, 2.2749352e+2, -718062.5, -756268.1, 70978.914, -0.0021501712, 0.3332432, -663660.75, 46935.434, 0.0, 10.001947, 9.997004 
9.152103e+2, 2.3749056e+2, -628268.75, -661172.25, 75419.34, 0.007911132, 0.33721894, -567527.6, 45097.48, 0.0, 10.0013275, 9.997099 
9.1512525e+2, 2.4748799e+2, -535868.7, -559180.94, 71438.6, -0.009267995, 0.33576456, -475141.53, 39509.0, 0.0, 10.000634, 9.99767 
9.150386e+2, 2.574856e+2, -450278.6, -468058.97, 79008.84, -0.037701562, 0.332742, -379661.34, 37012.438, 0.0, 9.999802, 9.997587 
9.1494894e+2, 2.6748356e+2, -362912.72, -367271.28, 65672.875, -0.023316432, 0.33680943, -299382.97, 19311.297, 0.0, 9.998689, 9.998251 
9.148567e+2, 2.7748188e+2, -277931.25, -273393.5, 79590.91, 0.011361288, 0.34207785, -196039.13, 24671.824, 0.0, 9.997675, 9.998452 
9.1475904e+2, 2.8748277e+2, -241043.02, -152414.14, 64043.492, -0.081755586, 0.3478718, -118848.305, 3854.297, 0.0, 9.991149, 10.003034 
9.2614645e+2, 1.2761724e+2, -1654116.8, -1698234.0, 9532.26, 0.10953205, 0.3450948, -1652145.3, 37239.566, 0.0, 10.004255, 9.99843 
9.2605454e+2, 1.3761571e+2, -1553602.5, -1599532.1, 12816.033, 0.08011422, 0.35036394, -1550268.4, 41131.508, 0.0, 10.004448, 9.998384 
9.259654e+2, 1.4761361e+2, -1462106.0, -1514031.1, 33438.484, 0.07011002, 0.34526494, -1445734.3, 47685.953, 0.0, 10.004415, 9.997587 
9.258787e+2, 1.5761113e+2, -1366375.5, -1415843.0, 37632.465, 0.074120864, 0.3365106, -1346076.4, 49368.273, 0.0, 10.004204, 9.997699 
9.257935e+2, 1.6760895e+2, -1270712.6, -1318928.0, 49786.1, 0.06338253, 0.3429286, -1239504.5, 57961.645, 0.0, 10.004045, 9.997727 
9.2570955e+2, 1.7760679e+2, -1175601.8, -1222038.0, 51104.613, 0.04465142, 0.35496137, -1142688.3, 56799.113, 0.0, 10.003833, 9.997757 
9.2562664e+2, 1.8760453e+2, -1086229.6, -1129025.9, 59091.117, 0.04075106, 0.3542056, -1044781.56, 56728.004, 0.0, 10.003281, 9.997696 
9.255445e+2, 1.9760217e+2, -998480.9, -1035951.25, 61517.656, 0.043163087, 0.34813932, -952908.75, 50623.906, 0.0, 10.002572, 9.9977 
9.2546165e+2, 2.0759985e+2, -906347.9, -940263.3, 63124.676, 0.024181515, 0.34356856, -857942.9, 47612.418, 0.0, 10.002139, 9.997745 
9.2537856e+2, 2.1759754e+2, -813291.06, -844073.7, 67209.94, -0.0028573084, 0.33983007, -759732.6, 47844.945, 0.0, 10.001769, 9.997796 
9.252951e+2, 2.2759561e+2, -722208.6, -744428.06, 66649.266, -0.0040117255, 0.34197548, -665749.5, 43847.145, 0.0, 10.001073, 9.998227 
9.252111e+2, 2.3759389e+2, -636396.75, -651551.3, 70982.19, 0.0051267226, 0.3463745, -572588.56, 39025.03, 0.0, 10.0001955, 9.998296 
9.2512524e+2, 2.4759269e+2, -543966.4, -545105.1, 62784.89, -0.00973778, 0.34486532, -481748.28, 31877.125, 0.0, 9.999317, 9.999268 
9.2503774e+2, 2.575919e+2, -459487.28, -454762.9, 64542.945, -0.03614886, 0.34063107, -392538.94, 23094.14, 0.0, 9.998423, 9.999171 
9.249469e+2, 2.6759177e+2, -365189.6, -342396.94, 46975.383, -0.030962132, 0.34473482, -305455.28, 12179.316, 0.0, 9.997448, 10.00056 
9.2485344e+2, 2.7759242e+2, -284915.0, -251782.88, 55851.766, -0.0051669814, 0.3539026, -210092.14, 9536.356, 0.0, 9.996181, 10.000656 
9.247531e+2, 2.875957e+2, -141136.08, -74331.34, -137.54471, -0.07057318, 0.36271918, -74331.055, 47265.758, 0.0, 9.996853, 10.005654 
9.361506e+2, 1.2771149e+2, -1650171.1, -1688951.0, 10516.966, 0.10054808, 0.3575749, -1647502.5, 40959.527, 0.0, 10.004205, 9.999087 
9.360591e+2, 1.3771054e+2, -1549779.4, -1589307.8, 13681.035, 0.092076026, 0.35355857, -1545506.3, 44965.16, 0.0, 10.004346, 9.99913 
9.359699e+2, 1.477094e+2, -1456094.0, -1500275.3, 32643.34, 0.07387755, 0.35271075, -1438769.1, 53713.477, 0.0, 10.004354, 9.99855 
9.358828e+2, 1.5770791e+2, -1361086.0, -1405027.1, 36837.223, 0.05960966, 0.3528042, -1340165.0, 54331.813, 0.0, 10.004206, 9.998433 
9.357975e+2, 1.6770604e+2, -1269373.6, -1315956.0, 48923.57, 0.056817606, 0.34988722, -1238480.0, 58035.35, 0.0, 10.004036, 9.997932 
9.357135e+2, 1.7770395e+2, -1173793.3, -1217382.5, 50012.23, 0.05526626, 0.346095, -1141033.0, 57502.93, 0.0, 10.003792, 9.998092 
9.3562996e+2, 1.8770234e+2, -1080820.6, -1117374.5, 56437.004, 0.04466754, 0.35023004, -1039774.9, 60776.902, 0.0, 10.003255, 9.998498 
9.3554693e+2, 1.9770092e+2, -992461.5, -1023754.6, 59282.484, 0.031802062, 0.35699385, -946795.5, 55770.367, 0.0, 10.00258, 9.998524 
9.354637e+2, 2.0769958e+2, -898727.7, -924569.1, 61744.57, 0.019589122, 0.35596, -848566.44, 56012.383, 0.0, 10.002141, 9.998812 
9.3538046e+2, 2.1769835e+2, -806161.75, -828924.25, 65460.402, 0.0071024694, 0.3519232, -751100.56, 55490.12, 0.0, 10.001751, 9.998835 
9.352961e+2, 2.2769748e+2, -713755.2, -726703.4, 63269.28, -0.0042554815, 0.3495815, -656629.6, 51969.523, 0.0, 10.001059, 9.999439 
9.3521106e+2, 2.3769689e+2, -628913.75, -636152.75, 67659.29, -0.013886251, 0.34832698, -564777.25, 45827.64, 0.0, 10.000196, 9.999342 
9.351245e+2, 2.4769658e+2, -537988.25, -532772.56, 59380.043, -0.011879085, 0.3493277, -475943.13, 36664.813, 0.0, 9.999317, 10.000103 
9.3503636e+2, 2.5769672e+2, -451910.9, -438964.97, 61497.277, -0.00985154, 0.3502719, -383600.94, 31005.902, 0.0, 9.998417, 10.000248 
9.349443e+2, 2.6769805e+2, -352843.3, -316846.06, 42518.555, -0.038752764, 0.3516593, -288673.5, 27920.232, 0.0, 9.997448, 10.002299 
9.348491e+2, 2.7770033e+2, -274211.44, -230134.78, 49394.297, -0.066201955, 0.35488158, -198085.38, 20485.86, 0.0, 9.996198, 10.002117 
9.347504e+2, 2.8770232e+2, -169731.02, -133343.83, 12852.24, -0.034176826, 0.36933753, -129262.17, -8709.485, 0.0, 9.996829, 10.001655 
9.4615394e+2, 1.278053e+2, -1672288.8, -1693450.9, 6763.7744, 0.10270281, 0.36291614, -1670311.6, 17231.967, 0.0, 10.002436, 9.999648 
9.4606245e+2, 1.3780491e+2, -1575724.0, -1595771.8, 9951.472, 0.09275483, 0.36019805, -1571623.0, 17924.223, 0.0, 10.002323, 9.999681 
9.4597346e+2, 1.4780432e+2, -1475315.3, -1503546.0, 27111.783, 0.07285624, 0.3604911, -1458864.5, 32688.613, 0.0, 10.002801, 9.99909 
9.4588655e+2, 1.578034e+2, -1370978.3, -1403923.6, 28483.898, 0.057189185, 0.36184257, -1354546.9, 39015.08, 0.0, 10.003294, 9.998963 
9.45801e+2, 1.6780207e+2, -1280336.5, -1314880.0, 39536.61, 0.057304185, 0.35944557, -1254463.8, 41111.375, 0.0, 10.003028, 9.9985 
9.457166e+2, 1.7780054e+2, -1189784.4, -1218816.1, 42869.55, 0.05965718, 0.3556068, -1159039.9, 38550.258, 0.0, 10.002444, 9.998649 
9.456327e+2, 1.8779953e+2, -1091664.0, -1115326.5, 49152.78, 0.044354636, 0.35899663, -1052938.6, 46661.504, 0.0, 10.002216, 9.999141 
9.455492e+2, 1.9779874e+2, -995598.75, -1017865.9, 50875.094, 0.02451898, 0.364983, -954653.2, 46954.734, 0.0, 10.002063, 9.999178 
9.4546556e+2, 2.0779814e+2, -902836.7, -917543.4, 51150.44, 0.019975763, 0.36477593, -858513.75, 45099.93, 0.0, 10.001487, 9.999613 
9.4538176e+2, 2.1779773e+2, -815674.06, -824792.4, 53096.434, 0.019443035, 0.36205453, -766941.4, 38676.21, 0.0, 10.000742, 9.999614 
9.452969e+2, 2.2779764e+2, -718802.0, -719810.75, 48422.83, -0.000053108837, 0.35859346, -670880.94, 36737.473, 0.0, 10.000332, 10.000274 
9.4521105e+2, 2.3779787e+2, -626168.06, -625163.44, 49900.055, -0.024008147, 0.3554144, -575763.2, 33852.875, 0.0, 9.999991, 10.000207 
9.451238e+2, 2.4779852e+2, -533362.25, -519510.16, 40768.44, -0.012023644, 0.3594611, -485083.6, 26526.074, 0.0, 9.999187, 10.001084 
9.450349e+2, 2.5779969e+2, -448740.63, -426836.88, 43952.29, 0.007297331, 0.36489433, -392492.53, 21106.17, 0.0, 9.998219, 10.001179 
9.4494206e+2, 2.6780158e+2, -338790.63, -305499.66, 20946.814, -0.040492218, 0.35794964, -295389.94, 20189.938, 0.0, 9.998273, 10.0027 
9.448464e+2, 2.7780417e+2, -230568.69, -204079.19, 16378.61, -0.096650295, 0.3492955, -196260.17, 21294.041, 0.0, 9.999042, 10.002569 
9.4474894e+2, 2.8780583e+2, -135289.56, -132540.48, -1665.7268, -0.009568983, 0.37679178, -131755.39, -12216.658, 0.0, 9.999922, 10.000281 
9.5615643e+2, 1.2789856e+2, -1670261.1, -1687107.1, 6110.799, 0.11154332, 0.3641543, -1668277.9, 18352.44, 0.0, 10.002337, 10.000128 
9.560647e+2, 1.3789873e+2, -1572231.8, -1589639.8, 10551.338, 0.08543754, 0.36968145, -1567257.6, 21371.078, 0.0, 10.002368, 10.00008 
9.559762e+2, 1.478984e+2, -1473347.8, -1499866.1, 28981.443, 0.06875523, 0.36886346, -1454736.4, 35895.496, 0.0, 10.002821, 9.999333 
9.558899e+2, 1.5789771e+2, -1369120.9, -1398686.3, 29372.9, 0.06361275, 0.36614588, -1351020.5, 41618.14, 0.0, 10.003235, 9.99935 
9.5580405e+2, 1.678971e+2, -1275047.6, -1302986.5, 37089.074, 0.062648244, 0.37165615, -1249384.5, 45260.05, 0.0, 10.00298, 9.99933 
9.5571905e+2, 1.7789651e+2, -1184630.8, -1208237.1, 40941.625, 0.059079275, 0.37952742, -1153824.9, 42825.43, 0.0, 10.002443, 9.999368 
9.556349e+2, 1.8789603e+2, -1088085.4, -1107745.5, 48382.145, 0.04096989, 0.37764603, -1048544.75, 50110.324, 0.0, 10.002209, 9.9996605 
9.555512e+2, 1.9789565e+2, -992461.8, -1010597.75, 49614.176, 0.020583596, 0.37236238, -951093.75, 49565.12, 0.0, 10.0020275, 9.999689 
9.554671e+2, 2.0789556e+2, -899172.2, -909540.2, 48131.508, 0.024301093, 0.37101027, -855946.3, 46713.24, 0.0, 10.001465, 10.000164 
9.553827e+2, 2.1789572e+2, -811836.44, -817018.4, 50722.65, 0.0336409, 0.3708927, -763638.6, 41019.297, 0.0, 10.000747, 10.000138 
9.552973e+2, 2.2789614e+2, -715415.6, -712862.75, 47211.54, 0.008156152, 0.3689887, -666910.4, 39743.523, 0.0, 10.000336, 10.000743 
9.5521104e+2, 2.3789686e+2, -621408.6, -615027.94, 48090.168, -0.025952881, 0.3667292, -570022.4, 38624.336, 0.0, 9.999979, 10.000902 
9.55123e+2, 2.4789855e+2, -525826.4, -503703.25, 37052.445, -0.010768454, 0.37483594, -476096.47, 34533.887, 0.0, 9.999174, 10.002166 
9.550331e+2, 2.5790074e+2, -443402.56, -415752.56, 40847.19, 0.014702812, 0.38534808, -386454.22, 26154.297, 0.0, 9.998215, 10.001934 
9.5494044e+2, 2.6790234e+2, -345482.84, -319374.47, 24030.832, -0.03532663, 0.3642299, -305081.03, 9512.03, 0.0, 9.998275, 10.001755 
9.5484537e+2, 2.7790383e+2, -234502.02, -212107.39, 18257.096, -0.09395566, 0.33555862, -201887.39, 14690.558, 0.0, 9.999033, 10.002028 
9.54749e+2, 2.8790626e+2, -125802.766, -113084.38, 4092.8113, -0.0019551355, 0.38377306, -111881.14, 6673.5522, 0.0, 9.9999275, 10.001632 
9.661581e+2, 1.2799077e+2, -1689190.3, -1693432.3, 420.8565, 0.116909884, 0.3718318, -1689148.9, -3421.4502, 0.0, 10.000942, 10.000395 
9.6606684e+2, 1.3799122e+2, -1575304.1, -1588391.8, 3417.2683, 0.07618031, 0.3797185, -1574465.6, 13257.517, 0.0, 10.002059, 10.000334 
9.659787e+2, 1.4799117e+2, -1480749.3, -1500575.0, 19216.965, 0.06339381, 0.3800018, -1469039.0, 20684.715, 0.0, 10.0022135, 9.999593 
9.6589243e+2, 1.5799074e+2, -1387232.9, -1404177.9, 19427.73, 0.068265386, 0.3774923, -1374510.6, 17217.35, 0.0, 10.00188, 9.999646 
9.6580654e+2, 1.6799049e+2, -1288529.4, -1304326.8, 24594.416, 0.06478598, 0.37822086, -1270596.4, 23133.97, 0.0, 10.001859, 9.999795 
9.657212e+2, 1.7799032e+2, -1189820.6, -1205511.9, 26179.527, 0.054867953, 0.380234, -1170336.5, 25395.639, 0.0, 10.001886, 9.999841 
9.6563673e+2, 1.8799031e+2, -1094380.0, -1104733.5, 32601.223, 0.041014824, 0.37739643, -1066547.1, 31184.813, 0.0, 10.00154, 10.000207 
9.6555287e+2, 1.9799048e+2, -1003333.56, -1009832.25, 33886.84, 0.027790627, 0.37283623, -972540.7, 27189.58, 0.0, 10.001049, 10.000232 
9.6546835e+2, 2.0799099e+2, -903765.8, -905104.6, 32379.305, 0.025440333, 0.37232372, -872049.0, 29676.256, 0.0, 10.00089, 10.000761 
9.6538335e+2, 2.1799174e+2, -806973.25, -807928.44, 35191.395, 0.025386734, 0.3731919, -772256.2, 31461.541, 0.0, 10.000815, 10.000739 
9.6529764e+2, 2.2799279e+2, -710741.56, -703861.44, 32062.248, 0.0073238565, 0.37355965, -675055.25, 30652.367, 0.0, 10.000395, 10.001341 
9.6521103e+2, 2.3799413e+2, -619634.8, -607511.5, 33250.66, -0.015030361, 0.37365368, -579774.44, 27919.906, 0.0, 9.9998455, 10.00149 
9.651224e+2, 2.4799624e+2, -517228.34, -495731.8, 18455.684, -0.0092638945, 0.37913287, -485122.72, 24550.982, 0.0, 9.999635, 10.002505 
9.65032e+2, 2.5799882e+2, -420767.06, -400322.7, 17259.816, 0.0017100424, 0.38617727, -390485.13, 21163.492, 0.0, 9.999609, 10.002345 
9.649394e+2, 2.6800066e+2, -327809.9, -310523.34, 7378.7905, -0.030159345, 0.37273467, -307802.1, 5827.8174, 0.0, 9.99951, 10.001796 
9.6484506e+2, 2.780023e+2, -226712.7, -209052.08, 8520.523, -0.064182095, 0.35200274, -205611.53, 10002.272, 0.0, 9.999635, 10.001963 
9.6474934e+2, 2.8800443e+2, -107143.625, -102608.49, -4538.9756, -0.018810723, 0.37179366, -99802.19, 17790.604, 0.0, 10.001183, 10.001786 
9.7615904e+2, 1.2808193e+2, -1689562.5, -1692578.5, 4619.11, 0.11977753, 0.3827985, -1686211.5, -1376.6418, 0.0, 10.000878, 10.000491 
9.760688e+2, 1.3808247e+2, -1575060.0, -1586876.6, 6664.0547, 0.06577819, 0.38890254, -1572062.3, 14767.451, 0.0, 10.002019, 10.000463 
9.759808e+2, 1.4808264e+2, -1479292.9, -1497019.9, 17897.164, 0.057204198, 0.39175925, -1468184.6, 20643.64, 0.0, 10.002186, 9.999846 
9.7589433e+2, 1.580825e+2, -1385778.1, -1401114.9, 18704.691, 0.07137618, 0.3923861, -1373230.9, 17598.863, 0.0, 10.001875, 9.999856 
9.758083e+2, 1.6808228e+2, -1287253.9, -1301747.5, 24848.508, 0.06435266, 0.3789657, -1268617.0, 24214.793, 0.0, 10.001863, 9.9999695 
9.75723e+2, 1.780821e+2, -1187992.4, -1201668.4, 25992.291, 0.04781708, 0.3619534, -1167953.8, 26879.691, 0.0, 10.0018835, 10.000103 
9.7563833e+2, 1.8808256e+2, -1090667.0, -1096897.9, 30749.832, 0.043795045, 0.3615978, -1062875.1, 33953.64, 0.0, 10.00153, 10.000743 
9.75554e+2, 1.9808336e+2, -999565.2, -1001899.1, 32506.398, 0.043851383, 0.3668322, -968204.8, 30616.193, 0.0, 10.00104, 10.000775 
9.754692e+2, 2.0808448e+2, -899569.5, -896153.94, 32121.504, 0.023487262, 0.36846104, -865694.8, 35115.273, 0.0, 10.000879, 10.001376 
9.7538394e+2, 2.1808584e+2, -802659.44, -798471.75, 34417.87, -0.0022520404, 0.36919945, -766084.06, 36712.387, 0.0, 10.0007925, 10.001394 
9.75298e+2, 2.280876e+2, -706153.56, -693963.25, 29859.346, -0.0009468963, 0.3727875, -669583.3, 35195.914, 0.0, 10.000374, 10.002024 
9.7521114e+2, 2.3808965e+2, -616542.94, -601012.25, 31323.85, 0.007650965, 0.37687644, -576505.56, 30253.6, 0.0, 9.999839, 10.001934 
9.7512203e+2, 2.4809161e+2, -519848.34, -501113.6, 18365.36, -0.008458102, 0.37252712, -489864.63, 18875.26, 0.0, 9.999633, 10.002137 
9.7503126e+2, 2.5809374e+2, -420163.8, -398946.2, 16661.502, -0.031730555, 0.36652172, -389802.72, 20916.283, 0.0, 9.999603, 10.002441 
9.74939e+2, 2.6809666e+2, -320715.94, -295646.72, 7627.714, -0.023681609, 0.3835653, -293508.28, 19181.936, 0.0, 9.999498, 10.002825 
9.748453e+2, 2.7809957e+2, -224169.34, -203495.44, 10543.405, -0.005320426, 0.40197873, -199067.03, 15594.079, 0.0, 9.999622, 10.002356 
9.7475004e+2, 2.8810024e+2, -115038.63, -119573.086, 4101.7744, -0.06657705, 0.33771473, -112619.19, 4034.7422, 0.0, 10.001217, 10.000621 
9.861595e+2, 1.2817216e+2, -1697744.9, -1694362.5, 3624.9163, 0.111033715, 0.38030323, -1692053.6, -8101.7813, 0.0, 10.000246, 10.000693 
9.860706e+2, 1.3817294e+2, -1582824.6, -1589082.8, 4823.5684, 0.07008745, 0.3901453, -1580204.1, 5740.3125, 0.0, 10.001439, 10.0006075 
9.8598284e+2, 1.4817323e+2, -1485934.6, -1500326.1, 10581.463, 0.06379156, 0.4005965, -1480334.1, 7607.435, 0.0, 10.001749, 9.999842 
9.8589617e+2, 1.5817319e+2, -1389043.1, -1402446.8, 10012.796, 0.075816646, 0.4109214, -1383696.3, 6245.676, 0.0, 10.001658, 9.999881 
9.8581016e+2, 1.6817321e+2, -1289229.1, -1301152.9, 15730.586, 0.068600595, 0.41142485, -1278368.5, 13573.224, 0.0, 10.001682, 10.000107 
9.857248e+2, 1.7817327e+2, -1190942.4, -1201994.8, 15704.8955, 0.052498925, 0.4083312, -1179819.8, 14121.105, 0.0, 10.001659, 10.000198 
9.8563975e+2, 1.8817392e+2, -1093563.5, -1096313.5, 16837.508, 0.048299573, 0.41325447, -1078045.0, 17889.734, 0.0, 10.001271, 10.000918 
9.85555e+2, 1.9817492e+2, -1002468.8, -1000680.06, 16689.354, 0.048340157, 0.41992033, -984861.1, 13063.892, 0.0, 10.000758, 10.00101 
9.8546994e+2, 2.0817637e+2, -902265.44, -891500.06, 15937.416, 0.0294129, 0.41605043, -880060.94, 19849.723, 0.0, 10.000469, 10.001909 
9.8538446e+2, 2.1817821e+2, -807476.25, -794880.75, 17344.535, 0.0046957782, 0.4089892, -782726.0, 19166.436, 0.0, 10.000239, 10.001926 
9.852982e+2, 2.2818045e+2, -707213.44, -688081.2, 11469.989, 0.0031531495, 0.40560192, -682711.75, 21158.672, 0.0, 10.000055, 10.002601 
9.85211e+2, 2.38183e+2, -611620.9, -591947.3, 12673.012, 0.00830394, 0.4029656, -585741.44, 20103.84, 0.0, 9.999916, 10.00254 
9.851218e+2, 2.4818547e+2, -513451.16, -492576.6, 5299.4385, -0.0106839705, 0.39316007, -491308.28, 16512.693, 0.0, 9.999864, 10.002628 
9.8503095e+2, 2.58188e+2, -413095.9, -390744.9, 8723.563, -0.03665755, 0.38175738, -387743.22, 22052.66, 0.0, 9.999905, 10.002863 
9.849387e+2, 2.6819113e+2, -313665.8, -290949.22, -3284.1165, -0.023012217, 0.3938684, -290483.94, 21281.14, 0.0, 9.999946, 10.00295 
9.848452e+2, 2.781942e+2, -215936.67, -198347.53, -4645.347, 0.0021413113, 0.41082904, -197196.06, 16538.713, 0.0, 10.000158, 10.002487 
9.847512e+2, 2.8819498e+2, -112743.36, -119625.38, -632.55566, -0.084489085, 0.3538297, -112685.7, 3040.9543, 0.0, 10.001453, 10.000539 
9.9615985e+2, 1.2826219e+2, -1690800.6, -1688514.5, -5832.7314, 0.122403465, 0.44298312, -1683713.9, -642.4923, 0.0, 10.000629, 10.000938 
9.96072e+2, 1.3826302e+2, -1577534.5, -1585422.1, -5286.729, 0.07228463, 0.43494824, -1574882.6, 10180.516, 0.0, 10.001767, 10.000728 
9.9598455e+2, 1.4826292e+2, -1484651.5, -1502692.1, -3153.5684, 0.05930925, 0.41755408, -1484116.1, 2947.5703, 0.0, 10.001975, 9.999596 
9.958977e+2, 1.5826243e+2, -1388650.6, -1404244.5, -3013.3245, 0.06429015, 0.406448, -1388088.6, 979.72485, 0.0, 10.0017805, 9.999723 
9.9581176e+2, 1.6826245e+2, -1287083.9, -1299507.3, 3381.4146, 0.061401907, 0.40972167, -1286223.1, 4844.936, 0.0, 10.001813, 10.000178 
9.9572647e+2, 1.7826276e+2, -1189168.5, -1202084.5, 3576.1665, 0.05214621, 0.42382586, -1188244.4, 4820.901, 0.0, 10.00183, 10.00013 
9.9564093e+2, 1.8826322e+2, -1091849.3, -1096952.6, 4391.256, 0.03869691, 0.42529738, -1089322.1, 5738.8354, 0.0, 10.001457, 10.0008 
9.955555e+2, 1.9826406e+2, -999997.6, -999898.56, 5926.183, 0.027624203, 0.4268994, -994021.7, 3031.1665, 0.0, 10.00095, 10.000984 
9.9547035e+2, 2.0826575e+2, -895975.2, -883307.06, 7253.1846, 0.02781708, 0.41999325, -880011.56, 19024.615, 0.0, 10.000683, 10.002378 
9.9538493e+2, 2.1826805e+2, -801278.4, -787234.3, 10001.066, 0.028839232, 0.41362518, -782036.3, 18976.922, 0.0, 10.000467, 10.002349 
9.952983e+2, 2.2827078e+2, -700011.3, -678998.7, 5812.031, 0.0076024914, 0.41413653, -677498.2, 25488.21, 0.0, 10.000311, 10.003107 
9.952107e+2, 2.3827395e+2, -602346.06, -578665.5, 8284.729, -0.017809473, 0.41631693, -576054.8, 28900.645, 0.0, 10.0001745, 10.003329 
9.9512154e+2, 2.4827772e+2, -500778.78, -471987.13, 2995.2913, -0.01802139, 0.42459658, -471678.8, 35239.26, 0.0, 10.000108, 10.003926 
9.9503106e+2, 2.5828162e+2, -406014.84, -379576.06, 7391.5464, -0.015012263, 0.4283198, -377649.94, 31229.621, 0.0, 10.000054, 10.003559 
9.9493855e+2, 2.6828408e+2, -319031.13, -302656.44, -3090.7598, -0.031566616, 0.40241772, -302092.47, 8762.545, 0.0, 9.999971, 10.002136 
9.948449e+2, 2.78286e+2, -216572.44, -200185.83, -2810.1992, -0.047005318, 0.37505183, -199717.3, 13118.6455, 0.0, 10.000184, 10.002353 
9.947529e+2, 2.882886e+2, -105041.49, -104245.33, 5778.724, -0.063806646, 0.42997313, -98850.99, 15959.437, 0.0, 10.001491, 10.001588 
