coord_x,coord_y,stress_xx,stress_yy,tau_xy,velocity_x,velocity_y,stress_1,eps,damage,lx,ly
4.9962687e+0, 1.2357544e+2, -1806237.4, -1729704.8, -1296.9896, 0.00091865414, -0.027201528, -1729682.8, -724.84814, 0.0, 9.992518, 10.00265 
4.996814e+0, 1.335767e+2, -1701663.9, -1644114.3, -2244.4368, -0.00054365554, -0.031484876, -1644026.9, -13081.455, 0.0, 9.993639, 10.001258 
4.9973807e+0, 1.4357698e+2, -1601247.3, -1567610.4, -2530.393, -0.0011414215, -0.03196663, -1567421.1, -34478.47, 0.0, 9.994783, 9.999235 
4.9979895e+0, 1.5357614e+2, -1486451.3, -1462660.5, -1801.024, 0.00018385018, -0.030412322, -1462525.0, -27574.094, 0.0, 9.9959755, 9.999124 
4.998572e+0, 1.6357422e+2, -1387159.1, -1388637.6, -1809.868, 0.0008170933, -0.02965359, -1385943.4, -48973.457, 0.0, 9.997127, 9.99693 
4.9991122e+0, 1.7357108e+2, -1273551.5, -1283849.0, -2656.9866, 0.00016001525, -0.030484736, -1272906.4, -33905.83, 0.0, 9.99822, 9.996856 
4.9996585e+0, 1.8356672e+2, -1177330.8, -1215047.5, -2814.847, -0.00036591673, -0.029727483, -1177121.8, -36078.65, 0.0, 9.999324, 9.994329 
5.000219e+0, 1.9356094e+2, -1063734.8, -1110949.8, -1968.0997, -0.0005209062, -0.02957024, -1063652.9, -20553.002, 0.0, 10.000447, 9.994195 
5.0007844e+0, 2.0355411e+2, -964347.0, -1036263.06, -1737.4789, -0.0004263035, -0.028899513, -964305.06, -19138.191, 0.0, 10.001576, 9.992056 
5.001361e+0, 2.135461e+2, -850080.25, -931159.44, -2668.9294, 0.00011696594, -0.029897284, -849992.5, -2747.132, 0.0, 10.002719, 9.991982 
5.001927e+0, 2.2353686e+2, -753634.06, -862547.06, -3006.3723, 0.00030438052, -0.029528249, -753551.1, -4215.374, 0.0, 10.003847, 9.9894285 
5.002473e+0, 2.3352617e+2, -640473.1, -758767.25, -2177.8735, -0.000137901, -0.030238783, -640433.06, 11007.657, 0.0, 10.004948, 9.989286 
5.003027e+0, 2.435144e+2, -541716.06, -684947.56, -1688.6552, -0.00017441394, -0.028851423, -541696.2, 11859.764, 0.0, 10.006057, 9.987097 
5.0035936e+0, 2.5350147e+2, -427900.38, -580145.4, -1958.7172, 0.00064566743, -0.027078923, -427875.2, 27807.656, 0.0, 10.007174, 9.987018 
5.0041616e+0, 2.6348734e+2, -329755.16, -508265.34, -2193.1501, 0.0006398777, -0.027270168, -329728.22, 28092.855, 0.0, 10.00831, 9.98468 
5.004729e+0, 2.7347186e+2, -215384.39, -403361.25, -2648.326, -0.00083531725, -0.03571111, -215347.1, 44625.67, 0.0, 10.009474, 9.984587 
5.0052965e+0, 2.8345507e+2, -121127.54, -339711.03, -2840.95, -0.0011145157, -0.035171773, -121090.62, 41046.656, 0.0, 10.010615, 9.981685 
5.005859e+0, 2.9343677e+2, -8296.581, -236202.25, -2330.083, 0.0007516284, -0.023023333, -8272.762, 56044.22, 0.0, 10.011702, 9.981534 
5.0064343e+0, 3.0342147e+2, 102128.875, -85964.28, -1835.0076, 0.0011805344, -0.020062454, 102146.77, 102146.77, 0.0, 10.012845, 9.987919 
5.0070274e+0, 3.134093e+2, 120703.83, -75870.25, -2175.051, -0.0010593993, -0.03773686, 120727.89, 120727.89, 0.0, 10.014075, 9.98802 
1.4988805e+1, 1.2357451e+2, -1808095.8, -1733509.6, 2756.8555, 0.0025104582, -0.032154277, -1733407.9, -4440.9434, 0.0, 9.992518, 10.002392 
1.4990443e+1, 1.3357556e+2, -1703634.3, -1648160.8, 2012.5302, -0.0017150618, -0.029659986, -1648087.9, -17131.2, 0.0, 9.993639, 10.000982 
1.4992142e+1, 1.4357577e+2, -1600338.3, -1565735.0, 1909.9432, -0.003462107, -0.02735747, -1565630.0, -32675.365, 0.0, 9.994783, 9.999363 
1.4993969e+1, 1.535751e+2, -1485082.9, -1459841.6, 2711.5034, 0.0005500619, -0.028525528, -1459553.6, -24592.438, 0.0, 9.995975, 9.999315 
1.4995715e+1, 1.6357318e+2, -1388303.3, -1390990.5, 2357.4614, 0.0024028646, -0.029406548, -1386933.4, -49953.49, 0.0, 9.997127, 9.99677 
1.4997336e+1, 1.7356984e+2, -1275138.3, -1287112.5, 1486.9868, 0.0004452845, -0.029320607, -1274956.4, -35943.57, 0.0, 9.99822, 9.996634 
1.4998975e+1, 1.8356542e+2, -1176158.5, -1212612.1, 1401.3518, -0.001097796, -0.029024929, -1176104.6, -35048.754, 0.0, 9.999323, 9.994495 
1.5000656e+1, 1.9355986e+2, -1062124.4, -1107605.8, 2288.1233, -0.0015953388, -0.030586762, -1062009.6, -18899.05, 0.0, 10.000446, 9.994424 
1.5002353e+1, 2.0355307e+2, -965647.94, -1038919.44, 2553.1584, -0.0013073316, -0.030543013, -965559.06, -20382.031, 0.0, 10.001575, 9.991876 
1.5004082e+1, 2.1354483e+2, -851874.94, -934859.5, 1654.0737, 0.00034699036, -0.029181935, -851841.94, -4584.1094, 0.0, 10.002719, 9.991731 
1.5005781e+1, 2.2353554e+2, -752480.5, -860138.75, 1172.2078, 0.00087370473, -0.027945006, -752467.7, -3118.7964, 0.0, 10.003845, 9.989594 
1.5007418e+1, 2.3352505e+2, -638853.44, -755391.9, 1989.8834, -0.00046869525, -0.028818531, -638819.5, 12632.065, 0.0, 10.004947, 9.989517 
1.5009081e+1, 2.4351339e+2, -541919.75, -685331.25, 2515.871, -0.00052147347, -0.03015156, -541875.6, 11690.159, 0.0, 10.006055, 9.987071 
1.501078e+1, 2.535003e+2, -428425.6, -581205.9, 2273.827, 0.0019314511, -0.034029957, -428391.78, 27302.229, 0.0, 10.007172, 9.986946 
1.5012485e+1, 2.6348615e+2, -330521.53, -509828.8, 2180.5999, 0.0018706444, -0.0321257, -330495.03, 27337.873, 0.0, 10.008309, 9.984574 
1.5014187e+1, 2.734707e+2, -216240.97, -405120.44, 1760.0328, -0.0025341876, -0.022427903, -216224.56, 43759.59, 0.0, 10.009473, 9.984467 
1.501589e+1, 2.834539e+2, -120365.58, -338078.03, 1309.3352, -0.003354132, -0.021100536, -120357.7, 41791.1, 0.0, 10.0106125, 9.981798 
1.5017577e+1, 2.9343545e+2, -7263.857, -234021.61, 1782.0737, 0.0022626377, -0.037181355, -7249.8525, 57079.777, 0.0, 10.011701, 9.981684 
1.5019304e+1, 3.0342016e+2, 101739.81, -86732.96, 2735.2964, 0.00354627, -0.039813273, 101779.5, 101779.5, 0.0, 10.012843, 9.987867 
1.5021084e+1, 3.134083e+2, 119980.62, -77273.98, 2491.139, -0.0031771718, -0.020813467, 120012.07, 120012.07, 0.0, 10.014071, 9.987925 
2.4981281e+1, 1.2357226e+2, -1809297.5, -1734419.1, -3241.8696, 0.001822464, -0.0317735, -1734279.0, -5290.0654, 0.0, 9.99245, 10.002363 
2.498415e+1, 1.335733e+2, -1702175.3, -1647789.0, -1953.8489, -0.0005801984, -0.028852524, -1647719.0, -16740.031, 0.0, 9.9937525, 10.000953 
2.4987017e+1, 1.435735e+2, -1598133.3, -1564808.4, -1850.8295, -0.0020126111, -0.026475478, -1564705.9, -31728.771, 0.0, 9.99494, 9.999349 
2.498992e+1, 1.5357277e+2, -1485757.0, -1460271.3, -2604.545, 0.0002262549, -0.028778432, -1460007.8, -25023.844, 0.0, 9.995934, 9.999306 
2.499277e+1, 1.6357087e+2, -1390039.9, -1391774.1, -3086.7354, 0.0012716269, -0.030045073, -1387700.8, -50698.074, 0.0, 9.997005, 9.996775 
2.499556e+1, 1.7356752e+2, -1274994.9, -1286950.8, -2216.7505, 0.00034881834, -0.029306225, -1274597.1, -35561.703, 0.0, 9.998226, 9.996641 
2.4998344e+1, 1.8356313e+2, -1175118.3, -1212273.6, -2025.5173, -0.00032476784, -0.028488165, -1175008.1, -33929.594, 0.0, 9.9994, 9.99448 
2.5001138e+1, 1.9355753e+2, -1061465.0, -1107489.5, -2982.6667, -0.0006297128, -0.030069621, -1061272.5, -18139.205, 0.0, 10.0005, 9.994405 
2.5003946e+1, 2.0355073e+2, -965368.6, -1038798.06, -3170.6929, -0.0005311252, -0.030200178, -965231.94, -20031.977, 0.0, 10.001595, 9.991874 
2.5006783e+1, 2.1354248e+2, -852330.44, -935048.25, -2200.4497, 0.00010712104, -0.029637028, -852271.94, -4991.134, 0.0, 10.002686, 9.991733 
2.5009593e+1, 2.2353318e+2, -753238.9, -860379.75, -2069.5388, 0.0004540656, -0.028748507, -753198.94, -3827.0942, 0.0, 10.003788, 9.989605 
2.5012353e+1, 2.3352271e+2, -639259.4, -755456.0, -2872.5698, 0.00018996731, -0.029291155, -639188.44, 12285.946, 0.0, 10.004913, 9.989529 
2.5015146e+1, 2.4351107e+2, -541973.44, -685561.7, -3124.0254, 0.00026819645, -0.029978821, -541905.5, 11683.097, 0.0, 10.00606, 9.987052 
2.5017974e+1, 2.5349796e+2, -427628.13, -581083.1, -3035.9658, 0.0007658447, -0.033040818, -427568.1, 28148.836, 0.0, 10.007238, 9.986921 
2.5020805e+1, 2.634838e+2, -329707.84, -509329.7, -2701.0986, 0.00056435587, -0.031187486, -329667.22, 28188.719, 0.0, 10.008359, 9.984584 
2.5023627e+1, 2.7346835e+2, -217530.53, -405566.5, -2154.4458, -0.0010464216, -0.023519818, -217505.86, 42501.348, 0.0, 10.009377, 9.984483 
2.5026464e+1, 2.8345156e+2, -122131.24, -339000.88, -2030.9502, -0.0011687557, -0.022732504, -122112.22, 40059.613, 0.0, 10.010494, 9.981791 
2.5029308e+1, 2.934331e+2, -6126.5835, -233578.27, -2724.7053, 0.0011400797, -0.03675463, -6093.948, 58258.64, 0.0, 10.011783, 9.981674 
2.5032184e+1, 3.0341786e+2, 103513.45, -85747.8, -2521.9443, 0.0015972928, -0.03846081, 103547.055, 103547.055, 0.0, 10.012959, 9.987879 
2.5035095e+1, 3.1340596e+2, 117767.48, -78155.38, -2035.7389, -0.0010724314, -0.02116662, 117788.625, 117788.625, 0.0, 10.013909, 9.987942 
3.497369e+1, 1.2356868e+2, -1807827.0, -1731417.8, 1447.551, -0.0027506636, -0.02631491, -1731390.4, -2366.2708, 0.0, 9.99245, 10.002566 
3.4977937e+1, 1.3356987e+2, -1700621.4, -1644625.1, 2979.8713, 0.0025392976, -0.028729806, -1644467.0, -13454.555, 0.0, 9.993753, 10.001166 
3.4982005e+1, 1.4357008e+2, -1599189.1, -1566986.3, 2045.619, 0.0026235722, -0.029647533, -1566856.9, -33846.594, 0.0, 9.994939, 9.999201 
3.4985837e+1, 1.5356918e+2, -1487275.0, -1463387.5, 1155.0829, -0.0016845599, -0.031142853, -1463331.8, -28312.662, 0.0, 9.995933, 9.999094 
3.498973e+1, 1.6356723e+2, -1388798.1, -1389233.9, 1396.4539, -0.0035152922, -0.031634662, -1387602.6, -50564.38, 0.0, 9.997006, 9.996946 
3.499378e+1, 1.7356414e+2, -1273282.1, -1283456.6, 2414.8455, -0.0007036966, -0.030299312, -1272738.1, -33669.484, 0.0, 9.998227, 9.996879 
3.4997764e+1, 1.835598e+2, -1176466.3, -1215077.1, 2173.6506, 0.0012209913, -0.028284047, -1176344.3, -35233.246, 0.0, 9.999401, 9.994288 
3.5001662e+1, 1.9355397e+2, -1063349.9, -1111372.6, 1179.0205, 0.001617387, -0.02790848, -1063321.0, -20152.645, 0.0, 10.0005, 9.99414 
3.5005558e+1, 2.0354709e+2, -964094.1, -1036155.4, 944.6917, 0.000938376, -0.028084442, -964081.75, -18846.027, 0.0, 10.001594, 9.992054 
3.5009456e+1, 2.1353906e+2, -850529.4, -931314.56, 1922.9648, -0.00126047, -0.031109968, -850483.6, -3169.323, 0.0, 10.002685, 9.991987 
3.5013363e+1, 2.2352983e+2, -754234.3, -862419.3, 2140.68, -0.0017041093, -0.032004714, -754191.94, -4787.3247, 0.0, 10.003787, 9.989466 
3.5017282e+1, 2.3351918e+2, -640708.8, -758464.4, 1387.8284, 0.0010833191, -0.031540588, -640692.44, 10816.687, 0.0, 10.004914, 9.989323 
3.502122e+1, 2.4350743e+2, -542057.94, -685724.2, 1282.6176, 0.0011479113, -0.028582577, -542046.5, 11577.781, 0.0, 10.006059, 9.987041 
3.5025173e+1, 2.5349444e+2, -427479.63, -580753.8, 1409.2301, -0.0033409065, -0.023794578, -427466.66, 28284.996, 0.0, 10.007237, 9.986944 
3.5029125e+1, 2.6348028e+2, -328800.47, -507418.6, 1214.9093, -0.0038183865, -0.02467784, -328792.2, 29098.008, 0.0, 10.008358, 9.984714 
3.5033047e+1, 2.734648e+2, -216472.7, -403352.56, 1676.9059, 0.00296729, -0.038860537, -216457.66, 43584.27, 0.0, 10.009376, 9.984633 
3.5037017e+1, 2.8344804e+2, -123011.016, -340789.1, 2673.631, 0.004620404, -0.04024284, -122978.195, 39228.19, 0.0, 10.010492, 9.981669 
3.5041046e+1, 2.9342973e+2, -7362.8228, -236099.31, 2141.393, -0.0031648932, -0.021820018, -7342.7773, 57043.113, 0.0, 10.011781, 9.981502 
3.5045078e+1, 3.0341446e+2, 104066.27, -84520.375, 1242.7814, -0.005152739, -0.016589507, 104074.47, 104074.47, 0.0, 10.012956, 9.987964 
3.504906e+1, 3.1340232e+2, 118679.46, -76229.46, 1515.5095, 0.0038569053, -0.038465, 118691.24, 118691.24, 0.0, 10.013908, 9.988074 
4.4966224e+1, 1.2356402e+2, -1805191.4, -1729926.6, -2156.2737, -0.0024485353, -0.026579771, -1729865.0, -795.1421, 0.0, 9.992619, 10.002584 
4.4971627e+1, 1.3356522e+2, -1702310.5, -1645196.1, -1964.092, 0.002703855, -0.029797997, -1645128.6, -14070.681, 0.0, 9.993627, 10.001188 
4.4976836e+1, 1.4356545e+2, -1602239.9, -1568460.1, -3336.1753, 0.0025364975, -0.031040723, -1568133.8, -35078.094, 0.0, 9.994731, 9.999201 
4.4981816e+1, 1.5356456e+2, -1486120.4, -1462868.3, -2694.5425, -0.0009265518, -0.030335685, -1462560.0, -27495.58, 0.0, 9.996013, 9.999089 
4.4986838e+1, 1.6356261e+2, -1386106.4, -1388091.1, -2196.061, -0.002493283, -0.030106194, -1384688.9, -47605.26, 0.0, 9.997195, 9.996931 
4.4992e+1, 1.7355946e+2, -1273516.8, -1283772.9, -3080.5178, -0.00054255035, -0.030486759, -1272662.6, -33548.336, 0.0, 9.9982195, 9.99686 
4.4997105e+1, 1.8355513e+2, -1178038.3, -1215725.4, -3755.1187, 0.0010683425, -0.029394321, -1177667.8, -36510.844, 0.0, 9.9992895, 9.994297 
4.500214e+1, 1.935493e+2, -1063965.6, -1111510.4, -2704.814, 0.0016741541, -0.028492332, -1063812.3, -20598.27, 0.0, 10.00045, 9.994153 
4.500715e+1, 2.0354244e+2, -964230.2, -1036244.1, -2429.4812, 0.0013566037, -0.028178915, -964148.3, -18867.027, 0.0, 10.001586, 9.99205 
4.5012146e+1, 2.1353441e+2, -850601.94, -931401.0, -3395.206, -0.0004959712, -0.030781668, -850459.5, -3099.5615, 0.0, 10.002682, 9.9919815 
4.5017165e+1, 2.2352518e+2, -753960.2, -862453.6, -3658.9753, -0.0010661486, -0.03136216, -753836.9, -4386.59, 0.0, 10.003813, 9.9894495 
4.5022237e+1, 2.3351452e+2, -639501.7, -758072.56, -3024.4312, 0.0006414973, -0.030788152, -639424.6, 12130.35, 0.0, 10.005004, 9.989305 
4.50273e+1, 2.4350275e+2, -541140.06, -685167.75, -2508.8594, 0.0007930637, -0.028292846, -541096.4, 12573.853, 0.0, 10.006116, 9.98705 
4.503234e+1, 2.5348973e+2, -429589.0, -581616.3, -2486.2834, -0.0022518255, -0.024978802, -429548.34, 26249.252, 0.0, 10.007085, 9.986958 
4.5037407e+1, 2.6347563e+2, -331340.0, -508577.38, -2778.7576, -0.00230914, -0.025980785, -331296.44, 26639.613, 0.0, 10.008181, 9.984719 
4.5042476e+1, 2.7346015e+2, -214723.03, -402482.38, -3416.7732, 0.0028089518, -0.03767653, -214660.88, 45426.652, 0.0, 10.009494, 9.984634 
4.5047593e+1, 2.8344336e+2, -120371.414, -339546.56, -2841.718, 0.0038393487, -0.038268324, -120334.58, 41917.355, 0.0, 10.0106735, 9.981666 
4.5052737e+1, 2.9342505e+2, -10024.806, -237443.94, -2201.099, -0.0027709373, -0.022418039, -10003.504, 54428.203, 0.0, 10.011599, 9.981497 
4.505792e+1, 3.0340976e+2, 100468.88, -86190.336, -2300.356, -0.004031378, -0.018361948, 100497.234, 100497.234, 0.0, 10.012705, 9.987968 
4.5063078e+1, 3.1339765e+2, 121891.8, -74615.84, -2938.2485, 0.0043787844, -0.03858879, 121935.72, 121935.72, 0.0, 10.014127, 9.988079 
5.4958886e+1, 1.2355826e+2, -1806341.8, -1732412.6, 1509.1266, 0.00029290782, -0.03232792, -1732381.8, -3255.6194, 0.0, 9.992624, 10.002413 
5.496522e+1, 1.3355932e+2, -1703604.8, -1647815.0, 1826.6854, -0.0006505858, -0.032171547, -1647755.3, -16639.44, 0.0, 9.993625, 10.001011 
5.4971516e+1, 1.4355955e+2, -1601149.4, -1566210.4, 1352.619, -0.0030047446, -0.03043087, -1566158.1, -33044.383, 0.0, 9.994731, 9.999353 
5.497786e+1, 1.5355888e+2, -1484587.5, -1459789.5, 2190.5303, 0.0010822059, -0.026288794, -1459597.5, -24477.455, 0.0, 9.996016, 9.999296 
5.49841e+1, 1.6355696e+2, -1387492.4, -1391062.0, 1778.5416, 0.0025478168, -0.025441224, -1386757.5, -49618.65, 0.0, 9.997201, 9.996726 
5.499023e+1, 1.7355353e+2, -1275469.9, -1287806.3, 779.303, -0.00018626478, -0.029875407, -1275420.9, -36248.2, 0.0, 9.9982195, 9.996585 
5.499637e+1, 1.8354908e+2, -1176549.6, -1212657.0, 547.5818, -0.0019617293, -0.031726893, -1176541.3, -35325.098, 0.0, 9.999289, 9.994506 
5.500256e+1, 1.9354354e+2, -1061891.8, -1107255.9, 1694.9297, -0.0017418512, -0.031783603, -1061828.5, -18558.014, 0.0, 10.000451, 9.994442 
5.500872e+1, 2.0353676e+2, -965487.75, -1038888.06, 1724.7557, -0.0008609949, -0.030497804, -965447.25, -20110.465, 0.0, 10.001588, 9.991869 
5.501485e+1, 2.1352851e+2, -852455.44, -935248.75, 740.298, 0.0012064114, -0.028763874, -852448.8, -5031.1147, 0.0, 10.002683, 9.991718 
5.5021006e+1, 2.235192e+2, -753204.0, -860887.94, 773.72174, 0.0012199398, -0.026877739, -753198.44, -3689.4802, 0.0, 10.003813, 9.989555 
5.5027217e+1, 2.3350869e+2, -638314.56, -755596.25, 1476.9598, -0.0022076438, -0.027050618, -638296.0, 13315.953, 0.0, 10.005003, 9.989473 
5.503339e+1, 2.4349701e+2, -540906.06, -684667.6, 1250.1262, -0.00246317, -0.029171914, -540895.2, 12831.227, 0.0, 10.006116, 9.987084 
5.5039483e+1, 2.534839e+2, -429510.3, -581487.9, 1151.651, 0.0030543108, -0.03676718, -429501.6, 26353.17, 0.0, 10.007087, 9.986964 
5.504565e+1, 2.6346976e+2, -332212.78, -510371.56, 1966.5022, 0.004110067, -0.035145197, -332191.06, 25802.404, 0.0, 10.008179, 9.984597 
5.505192e+1, 2.734544e+2, -215769.5, -404620.72, 1556.3734, -0.0027448959, -0.020398157, -215756.67, 44387.375, 0.0, 10.009492, 9.9844885 
5.505819e+1, 2.834376e+2, -119575.12, -337852.22, 859.53094, -0.004933848, -0.017247783, -119571.734, 42736.723, 0.0, 10.010672, 9.981782 
5.5064386e+1, 2.934191e+2, -8852.424, -235044.61, 1255.482, 0.0015272332, -0.03816516, -8845.455, 55644.477, 0.0, 10.0116005, 9.981659 
5.5070704e+1, 3.0340376e+2, 99963.24, -87253.17, 2766.4148, 0.003698312, -0.043364413, 100004.12, 100004.12, 0.0, 10.012705, 9.987895 
5.5077153e+1, 3.1339195e+2, 120985.42, -76380.76, 2443.4905, -0.0021049075, -0.022463582, 121015.664, 121015.664, 0.0, 10.014121, 9.987959 
6.495146e+1, 1.2355137e+2, -1808228.5, -1733715.3, -3338.427, 0.0016387632, -0.03253905, -1733566.0, -4372.317, 0.0, 9.992512, 10.002377 
6.495892e+1, 1.3355242e+2, -1701804.1, -1647311.8, -1834.5504, -0.0006099439, -0.031258058, -1647250.1, -16066.55, 0.0, 9.993763, 10.000976 
6.496633e+1, 1.435526e+2, -1598116.3, -1564758.9, -2039.1842, -0.004277854, -0.029881919, -1564634.6, -31453.035, 0.0, 9.994936, 9.99935 
6.497386e+1, 1.5355194e+2, -1484862.8, -1459916.8, -2720.687, 0.0011839702, -0.02702683, -1459623.5, -24435.408, 0.0, 9.9959955, 9.999295 
6.4981246e+1, 1.6355002e+2, -1389321.8, -1392083.5, -3706.327, 0.0034617009, -0.026384901, -1386747.4, -49540.375, 0.0, 9.997082, 9.996712 
6.498846e+1, 1.7354657e+2, -1275386.1, -1287926.4, -2826.9243, 0.00044599723, -0.02946603, -1274778.4, -35537.52, 0.0, 9.998232, 9.996568 
6.4995694e+1, 1.8354212e+2, -1175510.0, -1212181.1, -2438.7231, -0.0015305347, -0.030780362, -1175348.5, -34064.07, 0.0, 9.99936, 9.994502 
6.5003014e+1, 1.9353656e+2, -1061740.8, -1107192.6, -3409.5781, -0.0018177332, -0.031578038, -1061486.4, -18147.62, 0.0, 10.000461, 9.99444 
6.501031e+1, 2.0352979e+2, -965675.5, -1039211.2, -4109.064, -0.0010857125, -0.03062293, -965446.6, -20041.379, 0.0, 10.001584, 9.991846 
6.501757e+1, 2.1352151e+2, -851622.4, -935139.06, -3342.4888, 0.0013691678, -0.028414924, -851488.8, -4002.4268, 0.0, 10.002751, 9.991691 
6.502484e+1, 2.2351219e+2, -752655.7, -860460.5, -2751.441, 0.0017719871, -0.026590353, -752585.5, -3007.8032, 0.0, 10.003841, 9.989569 
6.503212e+1, 2.3350167e+2, -641106.4, -756720.9, -3174.086, -0.0016546126, -0.027844828, -641019.3, 10661.289, 0.0, 10.004801, 9.989492 
6.5039396e+1, 2.4349001e+2, -544031.0, -686122.1, -3842.6938, -0.0019126225, -0.030155469, -543927.2, 9867.808, 0.0, 10.005898, 9.987087 
6.5046656e+1, 2.5347692e+2, -427286.4, -580390.56, -3972.5295, 0.0033843466, -0.03620945, -427183.4, 28739.756, 0.0, 10.007237, 9.986965 
6.505396e+1, 2.6346278e+2, -328791.75, -508953.47, -2997.89, 0.0041546775, -0.034091447, -328741.88, 29320.057, 0.0, 10.008424, 9.984573 
6.506132e+1, 2.734474e+2, -218405.77, -406181.97, -2582.3281, -0.0032271205, -0.020802427, -218370.27, 41842.637, 0.0, 10.009322, 9.984463 
6.506871e+1, 2.834306e+2, -123577.45, -339592.8, -2920.828, -0.004976715, -0.018330092, -123537.96, 38839.49, 0.0, 10.010388, 9.981797 
6.507608e+1, 2.934121e+2, -6542.3247, -233671.9, -3542.421, 0.0032176718, -0.038185712, -6487.089, 58071.543, 0.0, 10.011748, 9.98168 
6.508354e+1, 3.033968e+2, 103359.13, -85652.89, -2389.107, 0.0053574634, -0.042648565, 103389.32, 103389.32, 0.0, 10.0129385, 9.987891 
6.50911e+1, 3.1338495e+2, 116318.2, -78758.75, -1984.8347, -0.0034114004, -0.021654172, 116338.4, 116338.4, 0.0, 10.0138035, 9.987947 
7.494396e+1, 1.23543344e+2, -1807430.0, -1732125.9, 1218.1558, -0.00027597093, -0.026719114, -1732106.1, -2833.7517, 0.0, 9.992515, 10.002481 
7.4952704e+1, 1.3354447e+2, -1700974.4, -1645626.9, 2901.7476, 0.0020536967, -0.027092982, -1645475.3, -14213.921, 0.0, 9.993763, 10.001089 
7.49613e+1, 1.4354463e+2, -1599238.8, -1567128.1, 2040.0388, -0.002293705, -0.029408999, -1566999.0, -33739.29, 0.0, 9.99494, 9.9991865 
7.496983e+1, 1.535437e+2, -1486361.4, -1463014.1, 1275.8265, -0.0019282819, -0.032379188, -1462944.6, -27675.803, 0.0, 9.9959955, 9.9990835 
7.4978286e+1, 1.6354172e+2, -1388010.8, -1389406.3, 570.1509, -0.0011819268, -0.032854605, -1387807.5, -50519.242, 0.0, 9.997082, 9.996894 
7.4986696e+1, 1.735386e+2, -1273609.0, -1284287.6, 1533.0492, 0.00048402333, -0.029300157, -1273393.3, -34074.223, 0.0, 9.998233, 9.996815 
7.499509e+1, 1.8353422e+2, -1176977.8, -1215253.9, 1731.5542, 0.0012849933, -0.026535986, -1176899.6, -35537.906, 0.0, 9.999362, 9.994291 
7.5003505e+1, 1.9352838e+2, -1063791.8, -1111433.0, 756.93665, 0.0004771302, -0.027953109, -1063779.8, -20360.736, 0.0, 10.000462, 9.99415 
7.5011903e+1, 2.0352149e+2, -964689.06, -1037175.8, 251.30817, -0.00030314352, -0.028551029, -964688.2, -19201.53, 0.0, 10.001584, 9.991984 
7.50203e+1, 2.1351339e+2, -850114.3, -932032.1, 1064.3889, -0.0009897895, -0.029747909, -850100.44, -2534.4521, 0.0, 10.002751, 9.991901 
7.5028664e+1, 2.2350413e+2, -753201.2, -861604.5, 959.8577, -0.0006611619, -0.030580644, -753192.7, -3535.9805, 0.0, 10.003843, 9.98949 
7.5036955e+1, 2.3349346e+2, -642010.8, -758597.7, 425.324, 0.0013753473, -0.033295084, -642009.25, 9751.805, 0.0, 10.004802, 9.989363 
7.5045335e+1, 2.4348176e+2, -544178.25, -686435.94, 990.9183, 0.0013706555, -0.031400822, -544171.3, 9704.557, 0.0, 10.005898, 9.987065 
7.5053835e+1, 2.534688e+2, -427326.16, -580437.6, 1094.9508, -0.0021838418, -0.023706619, -427318.34, 28684.518, 0.0, 10.007236, 9.986962 
7.506231e+1, 2.6345465e+2, -328280.84, -507835.28, 623.88556, -0.0032354246, -0.02314224, -328278.7, 29862.732, 0.0, 10.008421, 9.984651 
7.5070685e+1, 2.7343908e+2, -217762.27, -404861.63, 770.53394, 0.0003854805, -0.038431656, -217759.1, 42534.98, 0.0, 10.009323, 9.984551 
7.507918e+1, 2.8342223e+2, -124144.5, -340773.2, 1920.2515, 0.0023874112, -0.04101837, -124127.48, 38331.434, 0.0, 10.010388, 9.981716 
7.508781e+1, 2.93404e+2, -7384.0195, -235333.17, 1596.2876, 0.0012612287, -0.023221513, -7372.842, 57264.97, 0.0, 10.011744, 9.981567 
7.509643e+1, 3.033888e+2, 103741.6, -84789.78, 1145.2843, -0.00012764189, -0.01695022, 103748.555, 103748.555, 0.0, 10.012937, 9.987949 
7.510493e+1, 3.1337664e+2, 117004.65, -77374.9, 1224.8727, -0.0019486736, -0.035649754, 117012.37, 117012.37, 0.0, 10.013804, 9.988042 
8.493653e+1, 1.2353416e+2, -1805439.3, -1731194.4, -2825.9597, -0.0015730736, -0.026924541, -1731087.0, -1724.4506, 0.0, 9.992648, 10.002479 
8.4946495e+1, 1.335353e+2, -1700738.6, -1645538.0, -1968.5603, 0.0036279918, -0.026125908, -1645467.9, -14116.599, 0.0, 9.993778, 10.001085 
8.495622e+1, 1.4353544e+2, -1600296.1, -1568050.0, -3331.7124, -0.000856415, -0.029009629, -1567709.4, -34359.406, 0.0, 9.994884, 9.999149 
8.496581e+1, 1.5353444e+2, -1487109.1, -1463877.3, -2921.103, -0.0019258382, -0.032803766, -1463515.5, -28155.998, 0.0, 9.995966, 9.999038 
8.497536e+1, 1.6353244e+2, -1387777.6, -1389109.6, -3090.292, -0.001905921, -0.033635274, -1385282.4, -47903.152, 0.0, 9.997088, 9.996908 
8.498495e+1, 1.7352933e+2, -1272580.6, -1283520.8, -3730.485, 0.00026738315, -0.02940389, -1271429.6, -32019.96, 0.0, 9.99829, 9.996837 
8.499449e+1, 1.8352497e+2, -1176185.9, -1215269.3, -4274.685, 0.0016189081, -0.026352085, -1175723.9, -34271.42, 0.0, 9.999433, 9.994253 
8.5003984e+1, 1.9351907e+2, -1063856.9, -1112008.9, -3524.227, 0.0013980606, -0.027926868, -1063600.4, -20090.086, 0.0, 10.00048, 9.9941 
8.501347e+1, 2.0351215e+2, -965187.75, -1037102.0, -3172.0234, 0.0006112202, -0.028856888, -965048.06, -19469.973, 0.0, 10.001535, 9.992011 
8.5022974e+1, 2.1350409e+2, -851886.6, -932456.1, -3593.2202, -0.0012708543, -0.030423036, -851726.7, -4069.616, 0.0, 10.00261, 9.991939 
8.5032445e+1, 2.2349484e+2, -754699.9, -862616.0, -4299.034, -0.0011850551, -0.031114858, -754528.9, -4781.206, 0.0, 10.003752, 9.989462 
8.504187e+1, 2.3348416e+2, -639250.3, -757702.06, -4206.723, 0.0021034032, -0.032635264, -639101.1, 12751.205, 0.0, 10.005009, 9.989322 
8.5051364e+1, 2.4347241e+2, -540717.0, -684893.8, -3165.9548, 0.0022942706, -0.03029993, -540647.5, 13319.913, 0.0, 10.00614, 9.987052 
8.5060966e+1, 2.5345945e+2, -430121.63, -581904.7, -3118.103, -0.0031023214, -0.023482766, -430057.6, 26036.977, 0.0, 10.007048, 9.986949 
8.5070556e+1, 2.6344532e+2, -332815.75, -509707.0, -3803.1592, -0.0040998408, -0.023544395, -332734.03, 25499.123, 0.0, 10.008095, 9.984678 
8.5080063e+1, 2.7342975e+2, -216514.95, -403886.78, -4095.955, 0.0024701667, -0.039021425, -216425.45, 43960.05, 0.0, 10.009392, 9.984582 
8.5089684e+1, 2.8341293e+2, -121534.18, -339650.9, -2777.4163, 0.0047103707, -0.041285023, -121498.81, 41051.37, 0.0, 10.010572, 9.981701 
8.509941e+1, 2.9339468e+2, -10739.556, -237205.97, -2485.1895, -0.0011467796, -0.02246403, -10712.287, 54016.957, 0.0, 10.011522, 9.981544 
8.5109174e+1, 3.0337948e+2, 99487.25, -86454.05, -2667.957, -0.003173448, -0.016122574, 99525.52, 99525.52, 0.0, 10.012625, 9.987984 
8.5118866e+1, 3.1336734e+2, 120156.86, -75400.47, -2945.4805, 0.0019069504, -0.03631087, 120201.21, 120201.21, 0.0, 10.014002, 9.988079 
9.492916e+1, 1.2352376e+2, -1806257.4, -1732910.3, 1388.3666, -0.0043690233, -0.033280708, -1732884.0, -3419.7874, 0.0, 9.99265, 10.002359 
9.4940275e+1, 1.3352482e+2, -1701628.8, -1647315.0, 2263.9124, 0.0037002196, -0.028412625, -1647220.8, -15766.841, 0.0, 9.993776, 10.000964 
9.495111e+1, 1.4352494e+2, -1599659.6, -1566698.8, 751.5267, -0.0004614085, -0.028437426, -1566681.6, -33229.01, 0.0, 9.994882, 9.999241 
9.49618e+1, 1.5352413e+2, -1486199.3, -1462007.6, 1188.073, 0.00048684335, -0.028439973, -1461949.5, -26488.816, 0.0, 9.995965, 9.999165 
9.497248e+1, 1.6352214e+2, -1388859.6, -1391369.3, 1381.2439, 0.00037980854, -0.028738799, -1388248.4, -50768.17, 0.0, 9.99709, 9.996753 
9.498324e+1, 1.7351876e+2, -1274019.0, -1286497.8, 824.20123, -0.0010167082, -0.029791871, -1273964.9, -34451.71, 0.0, 9.99829, 9.996633 
9.4993895e+1, 1.8351433e+2, -1175207.4, -1213271.9, -252.38007, -0.0013322044, -0.030066641, -1175205.8, -33649.008, 0.0, 9.999433, 9.994388 
9.5004445e+1, 1.9350861e+2, -1062486.4, -1109176.4, 433.63416, 0.000119503966, -0.03161373, -1062482.3, -18869.625, 0.0, 10.000479, 9.994291 
9.501501e+1, 2.0350178e+2, -965793.4, -1038330.44, 858.29333, 0.00068037974, -0.03158414, -965783.2, -20103.53, 0.0, 10.0015335, 9.991926 
9.50256e+1, 2.134936e+2, -852822.4, -934388.6, 468.9159, -0.000363393, -0.03052165, -852819.7, -5059.924, 0.0, 10.00261, 9.991806 
9.503621e+1, 2.2348432e+2, -754528.5, -862280.25, 326.55524, -0.0008900766, -0.028148811, -754527.56, -4676.8203, 0.0, 10.003753, 9.989483 
9.5046854e+1, 2.3347373e+2, -638925.44, -756991.06, 535.3944, -0.00045047494, -0.025981855, -638923.0, 13031.561, 0.0, 10.005006, 9.98937 
9.505748e+1, 2.43462e+2, -540789.4, -685000.1, 413.76596, -0.00015587923, -0.026780093, -540788.2, 13281.521, 0.0, 10.006138, 9.987044 
9.506805e+1, 2.5344884e+2, -430239.63, -582155.8, 263.7473, -0.000027956921, -0.03515114, -430239.2, 25959.223, 0.0, 10.007049, 9.986931 
9.5078695e+1, 2.6343468e+2, -332913.4, -509953.3, 844.56476, 0.00041459876, -0.035207275, -332909.38, 25427.77, 0.0, 10.008097, 9.984659 
9.508945e+1, 2.7341938e+2, -216683.3, -404187.3, 798.78546, 0.0016071745, -0.023199337, -216679.89, 43807.35, 0.0, 10.00939, 9.984562 
9.510022e+1, 2.8340265e+2, -121246.85, -338953.13, 965.4956, 0.0006722726, -0.019815082, -121242.57, 41408.746, 0.0, 10.010568, 9.9817505 
9.511091e+1, 2.933841e+2, -10313.328, -236326.5, 1026.1924, -0.0042206678, -0.03540742, -10308.669, 54524.223, 0.0, 10.011522, 9.981603 
9.5121795e+1, 3.0336884e+2, 99627.42, -86217.336, 2226.6384, -0.004193221, -0.039308503, 99654.1, 99654.1, 0.0, 10.012627, 9.987997 
9.513291e+1, 3.1335706e+2, 120137.64, -75350.234, 2259.1606, 0.0051518586, -0.024274098, 120163.75, 120163.75, 0.0, 10.013997, 9.988084 
1.0492184e+2, 1.23512276e+2, -1805961.1, -1733263.1, -3211.9805, -0.0034979514, -0.033133537, -1733121.5, -3544.7263, 0.0, 9.992689, 10.002314 
1.0493406e+2, 1.3351327e+2, -1701611.1, -1647768.5, -1824.3317, 0.0038330394, -0.02976955, -1647706.8, -16139.752, 0.0, 9.993794, 10.000922 
1.04946e+2, 1.4351338e+2, -1598816.1, -1566076.3, -3167.6262, -0.0019815285, -0.030615207, -1565772.6, -32206.6, 0.0, 9.994928, 9.999257 
1.0495785e+2, 1.5351261e+2, -1483693.3, -1460493.4, -3479.3647, 0.0010041153, -0.027118932, -1459982.8, -24409.324, 0.0, 9.996121, 9.999187 
1.0496965e+2, 1.6351064e+2, -1387180.3, -1391144.3, -3582.2434, 0.0018738176, -0.026292572, -1385068.3, -47475.297, 0.0, 9.997228, 9.996697 
1.04981475e+2, 1.7350717e+2, -1275881.1, -1288168.5, -3166.769, -0.0007851005, -0.030576434, -1275113.0, -35486.074, 0.0, 9.998195, 9.996562 
1.0499323e+2, 1.8350269e+2, -1177588.3, -1214046.3, -3799.64, -0.0018341716, -0.032057274, -1177196.5, -35525.613, 0.0, 9.999252, 9.99442 
1.0500492e+2, 1.9349705e+2, -1062111.4, -1108444.6, -4152.6895, -0.00036266903, -0.031219825, -1061742.1, -18015.96, 0.0, 10.00048, 9.994338 
1.050166e+2, 2.0349021e+2, -964388.9, -1038166.44, -4416.3413, 0.0005914095, -0.030071631, -964125.5, -18332.52, 0.0, 10.001651, 9.991878 
1.0502827e+2, 2.1348196e+2, -851582.9, -934516.4, -4361.076, 0.00042334004, -0.0303201, -851354.2, -3480.339, 0.0, 10.002726, 9.991738 
1.05039984e+2, 2.2347265e+2, -753920.1, -861722.1, -3976.7207, 0.000051114956, -0.028623661, -753773.6, -3808.469, 0.0, 10.00378, 9.989505 
1.05051756e+2, 2.334621e+2, -641473.94, -757813.75, -3819.8757, -0.0008774137, -0.026187677, -641348.7, 10719.934, 0.0, 10.004813, 9.989404 
1.050635e+2, 2.4345036e+2, -544086.2, -686549.44, -4199.598, -0.0007002844, -0.027031725, -543962.5, 10220.999, 0.0, 10.005909, 9.987046 
1.0507514e+2, 2.5343722e+2, -429189.63, -581689.1, -4305.013, 0.0013603376, -0.036091127, -429068.2, 27244.156, 0.0, 10.007121, 9.986925 
1.050869e+2, 2.6342303e+2, -330503.13, -508914.84, -3317.186, 0.0020818957, -0.035939135, -330441.47, 28009.701, 0.0, 10.0082655, 9.984646 
1.0509877e+2, 2.7340776e+2, -218283.48, -405122.9, -3305.6228, 0.00028662063, -0.021955093, -218225.03, 42376.234, 0.0, 10.009284, 9.984546 
1.0511067e+2, 2.83391e+2, -124016.6, -340247.4, -3435.257, -0.0011502408, -0.018286387, -123962.04, 38803.336, 0.0, 10.010373, 9.981752 
1.05122484e+2, 2.9337242e+2, -9321.212, -235790.0, -3784.9526, -0.0020820324, -0.036637187, -9257.972, 55689.184, 0.0, 10.011586, 9.981606 
1.051345e+2, 3.0335718e+2, 101208.48, -85184.555, -2464.7715, -0.0011073367, -0.041436445, 101241.07, 101241.07, 0.0, 10.012721, 9.988021 
1.05146736e+2, 3.1334546e+2, 116015.57, -77041.445, -2330.5742, 0.0031579926, -0.02399102, 116043.7, 116043.7, 0.0, 10.013697, 9.98811 
1.1491457e+2, 1.2349967e+2, -1805797.8, -1732887.6, 1001.8651, -0.00017449858, -0.026227197, -1732873.9, -3173.4263, 0.0, 9.992687, 10.002339 
1.1492786e+2, 1.3350062e+2, -1701396.1, -1647283.5, 2335.195, 0.0035388288, -0.03027596, -1647183.0, -15492.009, 0.0, 9.993793, 10.000955 
1.1494089e+2, 1.4350069e+2, -1599271.8, -1566970.6, 1268.4219, -0.0062579513, -0.035719305, -1566920.9, -33230.48, 0.0, 9.9949255, 9.999197 
1.1495396e+2, 1.5349987e+2, -1484267.0, -1461659.1, 1040.6139, -0.0009839329, -0.028768076, -1461611.3, -25912.965, 0.0, 9.99612, 9.999107 
1.14966884e+2, 1.6349788e+2, -1386797.9, -1390383.6, 168.46588, 0.0017723779, -0.02613969, -1386790.0, -49072.094, 0.0, 9.997229, 9.996748 
1.1497969e+2, 1.7349447e+2, -1275372.0, -1287129.1, 491.639, 0.0003498811, -0.03178987, -1275351.5, -35600.18, 0.0, 9.998195, 9.996632 
1.149925e+2, 1.8349001e+2, -1178086.3, -1215064.6, 695.2421, -0.0007111869, -0.032465685, -1178073.3, -36278.164, 0.0, 9.999252, 9.9943495 
1.15005404e+2, 1.9348432e+2, -1062793.1, -1109841.9, 509.3458, -0.00086285226, -0.026810331, -1062787.6, -18936.81, 0.0, 10.000479, 9.994242 
1.1501824e+2, 2.0347744e+2, -964480.3, -1038350.94, -289.54373, -0.0006420699, -0.024361597, -964479.1, -18560.982, 0.0, 10.001651, 9.991863 
1.15031e+2, 2.1346915e+2, -851588.8, -934507.3, -319.07846, 0.00045449298, -0.02980101, -851587.6, -3588.1216, 0.0, 10.002724, 9.991738 
1.15043774e+2, 2.234598e+2, -753756.1, -861384.1, -90.692406, 0.0007565662, -0.03255003, -753756.06, -3664.9456, 0.0, 10.003781, 9.989526 
1.1505658e+2, 2.3344924e+2, -641297.7, -757437.9, 51.86288, -0.00025059446, -0.03303289, -641297.7, 10896.905, 0.0, 10.004812, 9.9894285 
1.1506941e+2, 2.4343756e+2, -543986.4, -686341.7, 227.83261, -0.0005298616, -0.030887175, -543986.06, 10322.988, 0.0, 10.005909, 9.987059 
1.1508226e+2, 2.5342456e+2, -429152.9, -581544.9, 239.28316, 0.00054229744, -0.02663399, -429152.53, 27284.012, 0.0, 10.007117, 9.986936 
1.15095146e+2, 2.634104e+2, -330606.7, -509066.53, 592.4106, 0.00017220159, -0.025877398, -330604.72, 27970.584, 0.0, 10.008263, 9.984635 
1.15108036e+2, 2.7339482e+2, -218385.6, -405314.3, 481.8937, -0.0026259297, -0.034849696, -218384.34, 42343.246, 0.0, 10.009283, 9.984531 
1.1512103e+2, 2.8337803e+2, -124237.34, -340701.5, 955.25446, -0.00221645, -0.036146227, -124233.13, 38659.227, 0.0, 10.010373, 9.98172 
1.1513414e+2, 2.933597e+2, -9632.652, -236359.5, 748.37616, 0.0043096105, -0.0263156, -9630.182, 55441.773, 0.0, 10.011583, 9.981566 
1.15147285e+2, 3.0334452e+2, 101344.02, -84818.57, 1315.7949, 0.004766382, -0.02317251, 101353.32, 101353.32, 0.0, 10.012717, 9.988046 
1.15160346e+2, 3.1333253e+2, 116295.46, -76507.445, 1294.8563, -0.005975277, -0.035599865, 116304.16, 116304.16, 0.0, 10.0137, 9.988143 
1.2490731e+2, 1.2348592e+2, -1804241.0, -1732198.3, -2939.3396, 0.00053126254, -0.026666228, -1732078.5, -2243.3306, 0.0, 9.992794, 10.00233 
1.249217e+2, 1.334869e+2, -1700048.4, -1646656.4, -2082.5552, 0.0049487464, -0.028166039, -1646575.4, -14749.808, 0.0, 9.993883, 10.00095 
1.2493582e+2, 1.4348692e+2, -1599155.4, -1567414.9, -3164.6924, -0.0066071507, -0.03456713, -1567102.4, -33277.117, 0.0, 9.994953, 9.999149 
1.2495001e+2, 1.5348604e+2, -1486301.9, -1463253.4, -3206.2974, -0.0017551795, -0.030504882, -1462815.6, -26981.672, 0.0, 9.996006, 9.999052 
1.2496405e+2, 1.63484e+2, -1388138.8, -1390817.0, -4134.222, 0.0011901895, -0.028408956, -1385132.3, -47278.375, 0.0, 9.997127, 9.996764 
1.24977976e+2, 1.7348064e+2, -1272499.1, -1285390.6, -4134.9287, 0.0008291738, -0.030533804, -1271286.9, -31400.23, 0.0, 9.998374, 9.996659 
1.2499189e+2, 1.834762e+2, -1174645.3, -1213996.0, -4122.1426, 0.0003585312, -0.030103942, -1174218.1, -32287.67, 0.0, 9.999511, 9.994292 
1.2500587e+2, 1.934704e+2, -1063657.3, -1111046.1, -4136.8677, -0.0004327457, -0.027698463, -1063298.8, -19311.578, 0.0, 10.000452, 9.994169 
1.250198e+2, 2.0346348e+2, -966818.3, -1039214.5, -4544.0225, -0.0005485813, -0.02654712, -966534.25, -20479.27, 0.0, 10.001477, 9.991885 
1.2503369e+2, 2.1345524e+2, -852217.25, -934376.1, -4257.6885, 0.0006191057, -0.029587371, -851997.2, -3861.5068, 0.0, 10.002661, 9.991774 
1.2504756e+2, 2.234459e+2, -753621.06, -861654.44, -4253.7896, 0.0010998446, -0.031430367, -753453.8, -3226.6667, 0.0, 10.003803, 9.989493 
1.2506142e+2, 2.3343529e+2, -640743.7, -757683.3, -4685.9707, 0.00011696009, -0.03372718, -640556.2, 11775.058, 0.0, 10.004871, 9.98938 
1.2507534e+2, 2.4342358e+2, -543408.9, -685981.0, -4490.758, -0.0002304031, -0.03191382, -543267.56, 11178.433, 0.0, 10.005943, 9.987063 
1.2508932e+2, 2.534106e+2, -430326.5, -581953.9, -4422.5464, 0.0003155592, -0.025214285, -430197.6, 26375.596, 0.0, 10.007029, 9.986946 
1.2510334e+2, 2.6339644e+2, -332515.34, -509958.5, -4214.7114, 0.00008131738, -0.024097221, -332415.28, 26296.557, 0.0, 10.008128, 9.984635 
1.2511732e+2, 2.7338085e+2, -218728.0, -405512.38, -4296.4336, -0.0018511002, -0.03620701, -218629.23, 42235.234, 0.0, 10.00926, 9.984526 
1.2513141e+2, 2.8336406e+2, -124129.695, -340488.2, -3409.7856, -0.0011416754, -0.038617153, -124075.97, 38953.344, 0.0, 10.010372, 9.981731 
1.2514564e+2, 2.9334575e+2, -11577.029, -237113.11, -3243.5327, 0.004326879, -0.025798216, -11530.393, 53678.125, 0.0, 10.011439, 9.981581 
1.2515992e+2, 3.033306e+2, 99106.23, -85977.28, -2614.8994, 0.004424843, -0.021348026, 99143.164, 99143.164, 0.0, 10.012565, 9.988036 
1.251741e+2, 3.1331858e+2, 117542.74, -76071.14, -3025.83, -0.005297035, -0.035256095, 117590.02, 117590.02, 0.0, 10.01379, 9.988127 
1.3490006e+2, 1.2347098e+2, -1804573.6, -1732815.9, 1362.485, -0.0035539498, -0.034683194, -1732790.0, -2808.5474, 0.0, 9.992791, 10.002288 
1.3491562e+2, 1.3347204e+2, -1700379.5, -1647290.0, 1990.5262, 0.0075132004, -0.023276571, -1647215.5, -15244.356, 0.0, 9.993881, 10.000906 
1.349308e+2, 1.4347206e+2, -1599361.1, -1567810.5, 799.48865, -0.0036612235, -0.027181879, -1567790.3, -33819.24, 0.0, 9.994951, 9.999122 
1.3494602e+2, 1.5347104e+2, -1486528.0, -1463691.9, 776.1761, -0.0021299622, -0.03232874, -1463665.5, -27684.656, 0.0, 9.996004, 9.999022 
1.3496117e+2, 1.6346896e+2, -1388242.6, -1391021.3, 464.11365, -0.0008934525, -0.033154014, -1388167.3, -50165.97, 0.0, 9.997126, 9.99675 
1.3497634e+2, 1.7346568e+2, -1272582.5, -1285579.5, 599.1843, 0.000053621286, -0.026799912, -1272554.9, -32521.549, 0.0, 9.998375, 9.996644 
1.349914e+2, 1.8346122e+2, -1174889.8, -1214525.1, -411.0023, 0.00041924772, -0.024912266, -1174885.5, -32808.227, 0.0, 9.999512, 9.994255 
1.3500634e+2, 1.9345526e+2, -1063977.0, -1111702.9, -589.07324, -0.00019006184, -0.033764385, -1063969.8, -19834.273, 0.0, 10.000452, 9.9941225 
1.3502128e+2, 2.0344833e+2, -966373.0, -1038302.1, -233.91011, -0.00044869227, -0.03648416, -966372.25, -20168.69, 0.0, 10.001477, 9.991946 
1.3503635e+2, 2.1344024e+2, -851648.9, -933212.1, 213.08794, 0.000056315694, -0.029714307, -851648.4, -3365.6714, 0.0, 10.002661, 9.991852 
1.3505137e+2, 2.2343099e+2, -754200.8, -862848.6, -194.45981, 0.000041753057, -0.025391506, -754200.44, -3826.9954, 0.0, 10.003802, 9.98941 
1.350663e+2, 2.3342024e+2, -641577.4, -759361.1, -686.30615, -0.00069244957, -0.028256424, -641573.44, 10905.387, 0.0, 10.0048685, 9.989265 
1.3508128e+2, 2.4340843e+2, -543439.3, -686013.0, -452.97018, -0.00090955675, -0.030003231, -543437.8, 11156.684, 0.0, 10.005942, 9.98706 
1.3509636e+2, 2.5339538e+2, -430230.34, -581710.6, -364.71744, -0.00009579653, -0.031639118, -430229.47, 26492.865, 0.0, 10.007026, 9.986962 
1.3511148e+2, 2.6338124e+2, -332446.44, -509805.4, -35.634274, 0.00057789846, -0.030184804, -332446.4, 26414.367, 0.0, 10.008128, 9.984644 
1.351266e+2, 2.7336586e+2, -218723.97, -405426.2, -78.98046, 0.0012975499, -0.026350733, -218723.94, 42287.953, 0.0, 10.009256, 9.984531 
1.3514182e+2, 2.8334907e+2, -123788.86, -339697.38, 587.0877, 0.0007400006, -0.02596935, -123787.266, 39388.945, 0.0, 10.010367, 9.981786 
1.3515703e+2, 2.9333064e+2, -11133.919, -236204.55, 702.3637, -0.0021130627, -0.03491735, -11131.727, 54225.086, 0.0, 10.01144, 9.981641 
1.3517243e+2, 3.0331543e+2, 98841.99, -86523.27, 1828.6144, -0.0025135952, -0.035457917, 98860.03, 98860.03, 0.0, 10.012565, 9.987997 
1.3518797e+2, 3.1330362e+2, 117018.01, -76992.305, 1555.5214, 0.0021553785, -0.023181187, 117030.48, 117030.48, 0.0, 10.0137825, 9.988066 
1.4489289e+2, 1.23454995e+2, -1803800.8, -1732906.4, -2899.6848, -0.004244795, -0.035596438, -1732788.0, -2649.8586, 0.0, 9.99286, 10.002245 
1.4490952e+2, 1.3345602e+2, -1700222.8, -1647748.4, -2667.4006, 0.0082114935, -0.022556411, -1647613.1, -15484.935, 0.0, 9.993912, 10.000856 
1.4492579e+2, 1.43456e+2, -1598645.4, -1567588.3, -3676.1123, -0.0036406678, -0.027559087, -1567159.1, -33030.6, 0.0, 9.995003, 9.999108 
1.4494212e+2, 1.5345497e+2, -1483837.3, -1462478.3, -3532.2092, -0.0011031574, -0.031941563, -1461909.3, -25770.852, 0.0, 9.996189, 9.99901 
1.4495838e+2, 1.6345288e+2, -1386144.6, -1390342.1, -3910.1306, 0.0003239927, -0.032691613, -1383805.6, -45646.723, 0.0, 9.997281, 9.996716 
1.4497463e+2, 1.7344955e+2, -1275203.3, -1287251.4, -3973.854, -0.00019650151, -0.027636135, -1274010.6, -33819.008, 0.0, 9.998211, 9.996607 
1.4499079e+2, 1.8344505e+2, -1178470.1, -1216254.0, -4879.0615, -0.00026748044, -0.026057243, -1177850.3, -35614.535, 0.0, 9.999266, 9.994252 
1.4500684e+2, 1.9343911e+2, -1062428.3, -1110875.5, -4668.4585, 0.00028762833, -0.033475578, -1061982.5, -17688.709, 0.0, 10.000552, 9.994126 
1.4502288e+2, 2.0343216e+2, -963097.7, -1036992.5, -4530.4053, 0.00036329782, -0.03560327, -962821.0, -16459.096, 0.0, 10.001711, 9.991918 
1.45039e+2, 2.1342404e+2, -852189.75, -933850.4, -4959.5205, -0.00031396546, -0.029943166, -851889.7, -3448.2095, 0.0, 10.002639, 9.991814 
1.4505509e+2, 2.2341476e+2, -756311.25, -863802.25, -5329.003, -0.00050812936, -0.025815716, -756047.75, -5515.253, 0.0, 10.003654, 9.989413 
1.4507115e+2, 2.3340404e+2, -641926.56, -759390.25, -4866.0176, 0.00005255651, -0.027173128, -641725.3, 10912.271, 0.0, 10.004837, 9.989274 
1.4508726e+2, 2.4339223e+2, -543054.0, -686018.06, -4295.3975, 0.00027582483, -0.028899431, -542925.0, 11828.293, 0.0, 10.005974, 9.98704 
1.4510338e+2, 2.533791e+2, -430407.34, -582086.75, -4554.912, -0.00034840952, -0.03320198, -430270.66, 26610.963, 0.0, 10.007025, 9.986933 
1.4511956e+2, 2.63365e+2, -332926.38, -509737.16, -4214.335, 0.00008715814, -0.032400496, -332825.97, 26194.238, 0.0, 10.00808, 9.984668 
1.4513582e+2, 2.7334964e+2, -220029.94, -405648.84, -4068.8337, 0.0024537235, -0.025792733, -219940.8, 41229.965, 0.0, 10.009147, 9.984565 
1.4515214e+2, 2.8333288e+2, -125637.25, -340847.44, -3408.143, 0.002054709, -0.023981616, -125583.29, 37751.57, 0.0, 10.010249, 9.981761 
1.4516844e+2, 2.933144e+2, -11671.621, -236873.25, -3998.728, -0.0035928593, -0.03377897, -11600.642, 53915.285, 0.0, 10.011417, 9.981603 
1.4518495e+2, 3.032992e+2, 98890.234, -85769.36, -2988.7725, -0.0041951067, -0.035452973, 98938.6, 98938.6, 0.0, 10.012533, 9.98806 
1.4520165e+2, 3.1328744e+2, 114027.16, -77476.17, -2317.2666, 0.0050600343, -0.024959153, 114055.195, 114055.195, 0.0, 10.013533, 9.988149 
1.5488577e+2, 1.2343791e+2, -1804182.1, -1733625.3, 1368.7631, -0.0031830997, -0.029114826, -1733598.8, -3293.1482, 0.0, 9.992857, 10.002195 
1.5490341e+2, 1.3343878e+2, -1700694.9, -1648621.3, 1241.4701, 0.006341034, -0.026166547, -1648591.6, -16294.574, 0.0, 9.993908, 10.000797 
1.5492074e+2, 1.4343868e+2, -1598675.0, -1567589.9, 692.29865, -0.0075781997, -0.03582024, -1567574.5, -33276.344, 0.0, 9.995, 9.999107 
1.5493833e+2, 1.5343778e+2, -1483761.1, -1462314.3, 958.0243, 0.0003013216, -0.029404996, -1462271.6, -25964.617, 0.0, 9.996188, 9.99902 
1.549557e+2, 1.6343568e+2, -1386463.6, -1391038.4, -273.28973, 0.003723265, -0.026926793, -1386447.4, -48120.066, 0.0, 9.997283, 9.996666 
1.5497284e+2, 1.7343219e+2, -1275632.4, -1288149.9, -472.9931, -0.00071949937, -0.03298688, -1275614.6, -35252.953, 0.0, 9.998212, 9.996543 
1.5499003e+2, 1.8342765e+2, -1178186.3, -1215670.9, -233.29593, -0.0027093412, -0.03356022, -1178184.8, -35778.625, 0.0, 9.999265, 9.99429 
1.5500739e+2, 1.934219e+2, -1062002.1, -1110029.6, 211.08937, -0.00017373204, -0.02687768, -1062001.1, -17538.734, 0.0, 10.000553, 9.994182 
1.5502462e+2, 2.0341499e+2, -963885.8, -1038626.8, -861.0052, 0.0006813828, -0.023889739, -963875.9, -17345.678, 0.0, 10.001711, 9.991805 
1.5504162e+2, 2.1340662e+2, -853229.7, -935981.44, -1496.6345, -0.0012776797, -0.030087642, -853202.6, -4590.3184, 0.0, 10.002637, 9.991669 
1.5505873e+2, 2.2339721e+2, -755653.75, -862456.3, -1035.7693, -0.0016568715, -0.032550197, -755643.7, -4939.344, 0.0, 10.003654, 9.989503 
1.55076e+2, 2.3338665e+2, -641002.7, -757431.2, -415.10046, 0.0012085193, -0.030415367, -641001.25, 11806.554, 0.0, 10.004834, 9.989408 
1.5509325e+2, 2.4337496e+2, -543324.94, -686509.75, -322.70508, 0.0019835369, -0.028511405, -543324.2, 11598.349, 0.0, 10.005971, 9.987006 
1.551104e+2, 2.5336182e+2, -430902.9, -583062.9, -639.9743, -0.0011537214, -0.029851494, -430900.22, 26151.016, 0.0, 10.007023, 9.986866 
1.5512764e+2, 2.6334763e+2, -332642.88, -509114.1, -265.5688, -0.0022700068, -0.030776424, -332642.47, 26547.729, 0.0, 10.008079, 9.98471 
1.5514494e+2, 2.7333224e+2, -219611.34, -404758.28, -122.1708, 0.0005686106, -0.03412855, -219611.27, 41729.816, 0.0, 10.009146, 9.984625 
1.5516238e+2, 2.8331548e+2, -126337.93, -342256.75, 828.62115, 0.0015783083, -0.032189537, -126334.75, 37170.477, 0.0, 10.010247, 9.981664 
1.5517989e+2, 2.9329705e+2, -12650.492, -238798.84, 354.1078, -0.0009677144, -0.023019865, -12649.938, 53035.89, 0.0, 10.011413, 9.98147 
1.5519752e+2, 3.0328187e+2, 99929.016, -83467.29, 830.1203, -0.0014801134, -0.022070134, 99932.77, 99932.77, 0.0, 10.0125265, 9.988219 
1.5521516e+2, 3.1327006e+2, 115548.914, -74340.29, 1371.9287, 0.002043736, -0.03982447, 115558.83, 115558.83, 0.0, 10.0135355, 9.98836 
1.6487865e+2, 1.2341969e+2, -1803415.9, -1733362.3, -2493.3455, -0.0027130982, -0.028574014, -1733273.6, -2789.4263, 0.0, 9.99291, 10.002183 
1.6489738e+2, 1.3342051e+2, -1698836.0, -1648029.6, -2863.9863, 0.0070351567, -0.02665343, -1647868.6, -15392.572, 0.0, 9.994044, 10.000767 
1.649158e+2, 1.4342035e+2, -1597197.4, -1567142.3, -3363.001, -0.007839711, -0.038533814, -1566770.6, -32293.0, 0.0, 9.99511, 9.999081 
1.6493444e+2, 1.5341945e+2, -1485512.0, -1463484.8, -3413.0054, -0.00004456456, -0.028964434, -1462968.1, -26481.621, 0.0, 9.996079, 9.998988 
1.649529e+2, 1.6341735e+2, -1388372.4, -1392284.9, -4647.93, 0.0036030223, -0.02506214, -1385285.8, -46778.758, 0.0, 9.997163, 9.996635 
1.6497117e+2, 1.734138e+2, -1272122.0, -1286790.9, -4607.906, -0.00041145756, -0.03299657, -1270794.6, -30252.85, 0.0, 9.998463, 9.996509 
1.6498947e+2, 1.8340923e+2, -1173376.6, -1213509.6, -4571.241, -0.0021817323, -0.034343123, -1172862.5, -30275.9, 0.0, 9.999598, 9.994271 
1.6500787e+2, 1.9340348e+2, -1063932.5, -1111144.3, -4723.391, -0.000054470263, -0.026359212, -1063464.6, -18821.645, 0.0, 10.000427, 9.994162 
1.6502617e+2, 2.0339656e+2, -968321.4, -1040874.5, -5633.34, 0.0007611809, -0.022944743, -967886.6, -21175.693, 0.0, 10.0014105, 9.991792 
1.650443e+2, 2.1338816e+2, -852618.75, -935781.56, -5252.045, -0.00076292217, -0.030266173, -852288.4, -3495.1821, 0.0, 10.002681, 9.991656 
1.6506249e+2, 2.2337873e+2, -752961.44, -861232.25, -4610.723, -0.00092110777, -0.033523794, -752765.44, -1880.0227, 0.0, 10.0038395, 9.989492 
1.6508082e+2, 2.3336816e+2, -641688.2, -757877.8, -5067.2905, 0.0012302937, -0.03144317, -641467.6, 11521.403, 0.0, 10.00479, 9.989393 
1.6509911e+2, 2.4335647e+2, -545730.3, -687446.6, -5354.6216, 0.0018517752, -0.029091805, -545528.25, 9575.49, 0.0, 10.005795, 9.987022 
1.6511737e+2, 2.5334337e+2, -432427.97, -583525.8, -5054.195, -0.0003718489, -0.028969547, -432259.1, 24973.023, 0.0, 10.006904, 9.986887 
1.651357e+2, 2.633292e+2, -333611.8, -509866.9, -4412.7236, -0.0013924558, -0.029396566, -333501.4, 25869.605, 0.0, 10.008022, 9.98468 
1.6515408e+2, 2.7331376e+2, -219701.67, -405233.63, -4947.7466, -0.0005182054, -0.033638917, -219569.83, 41952.563, 0.0, 10.009155, 9.984583 
1.651726e+2, 2.8329697e+2, -126084.07, -341748.8, -4051.9565, 0.0004229678, -0.03281402, -126007.97, 37678.773, 0.0, 10.010245, 9.981693 
1.6519122e+2, 2.9327857e+2, -14735.839, -239254.56, -3350.2866, 0.001321613, -0.025450459, -14685.856, 51181.2, 0.0, 10.011242, 9.981518 
1.6520996e+2, 3.032634e+2, 96988.34, -84786.24, -2426.303, 0.0014369423, -0.02405879, 97020.73, 97020.73, 0.0, 10.012316, 9.988226 
1.6522868e+2, 3.1325164e+2, 115726.85, -74267.49, -3375.9607, 0.00010286776, -0.036833532, 115786.82, 115786.82, 0.0, 10.013541, 9.988359 
1.7487155e+2, 1.23400256e+2, -1803277.9, -1732955.3, 2197.1482, -0.0047316602, -0.034431394, -1732886.6, -2212.0515, 0.0, 9.992905, 10.002211 
1.7489146e+2, 1.3340117e+2, -1698864.4, -1648011.8, 1366.6595, 0.009797877, -0.02398017, -1647975.0, -15309.46, 0.0, 9.9940405, 10.000768 
1.7491093e+2, 1.4340098e+2, -1597609.0, -1567954.4, 349.46878, -0.0050648088, -0.035491914, -1567950.3, -33282.953, 0.0, 9.995108, 9.999024 
1.7493051e+2, 1.5339997e+2, -1486048.6, -1464520.8, 239.8413, -0.0031058148, -0.03054136, -1464518.0, -27840.715, 0.0, 9.996077, 9.998918 
1.7495005e+2, 1.6339783e+2, -1388436.6, -1392400.6, 67.785675, -0.0014763154, -0.02710539, -1388435.5, -49737.13, 0.0, 9.997163, 9.996625 
1.7496964e+2, 1.7339435e+2, -1272098.5, -1286762.0, 335.39594, -0.000046368557, -0.027686428, -1272090.9, -31358.357, 0.0, 9.998463, 9.996509 
1.7498909e+2, 1.8338975e+2, -1173896.3, -1214601.1, -1176.7483, 0.00055654463, -0.028236061, -1173862.4, -31084.793, 0.0, 9.9995985, 9.994195 
1.750083e+2, 1.933838e+2, -1064563.4, -1112483.3, -1605.7494, -0.00035970227, -0.03184631, -1064509.6, -19673.84, 0.0, 10.000428, 9.994068 
1.7502758e+2, 2.0337681e+2, -967641.9, -1039521.9, -1120.1511, -0.00065558794, -0.032669343, -967624.44, -20720.133, 0.0, 10.001412, 9.991881 
1.7504698e+2, 2.1336862e+2, -851758.0, -933968.3, -456.0031, 0.00031181122, -0.030482015, -851755.44, -2770.9648, 0.0, 10.002679, 9.991778 
1.7506635e+2, 2.233593e+2, -753733.75, -862771.8, -879.65137, 0.00040271776, -0.028727187, -753726.6, -2650.659, 0.0, 10.003836, 9.9893875 
1.7508559e+2, 2.3334855e+2, -642778.7, -760115.8, -1525.3193, -0.0009534528, -0.03027933, -642758.9, 10422.569, 0.0, 10.004789, 9.98924 
1.7510489e+2, 2.4333675e+2, -545266.94, -686476.56, -1321.6583, -0.0011022384, -0.030459488, -545254.56, 10042.495, 0.0, 10.005795, 9.987086 
1.7512429e+2, 2.5332373e+2, -431692.72, -581944.1, -919.2715, 0.0011781357, -0.030543797, -431687.13, 25737.29, 0.0, 10.0069, 9.986995 
1.7514375e+2, 2.6330963e+2, -334284.44, -511205.25, -230.89827, 0.0015066738, -0.02824446, -334284.16, 25278.639, 0.0, 10.008019, 9.984588 
1.7516324e+2, 2.7329412e+2, -220687.56, -407181.4, -732.48816, -0.0019800207, -0.024934314, -220684.69, 41030.047, 0.0, 10.009151, 9.984449 
1.7518283e+2, 2.832773e+2, -125088.07, -339540.8, -286.15366, -0.0025744091, -0.02634485, -125087.695, 38791.715, 0.0, 10.01024, 9.981846 
1.7520249e+2, 2.932589e+2, -13291.686, -236214.92, 282.61624, 0.0024210182, -0.040101174, -13291.327, 52768.285, 0.0, 10.011241, 9.981724 
1.752223e+2, 3.0324382e+2, 96069.87, -86696.28, 1903.487, 0.0034788034, -0.04046415, 96089.69, 96089.69, 0.0, 10.012316, 9.988093 
1.752422e+2, 3.1323218e+2, 114252.78, -77267.1, 1173.6467, -0.003149957, -0.017432258, 114259.98, 114259.98, 0.0, 10.013538, 9.988152 
1.8486455e+2, 1.23379834e+2, -1800599.4, -1731804.4, -1348.0372, -0.003982044, -0.035820697, -1731777.9, -903.2136, 0.0, 9.993089, 10.002194 
1.848855e+2, 1.3338073e+2, -1699560.8, -1649059.6, -3293.8198, 0.00951156, -0.021521142, -1648845.8, -15979.732, 0.0, 9.9940195, 10.000702 
1.8490602e+2, 1.4338048e+2, -1598568.0, -1568809.1, -4237.482, -0.005372042, -0.03403019, -1568217.5, -33349.086, 0.0, 9.995055, 9.998986 
1.849267e+2, 1.5337941e+2, -1482704.3, -1463250.9, -4040.1091, -0.0027089687, -0.031021541, -1462445.3, -25566.348, 0.0, 9.996316, 9.998882 
1.8494734e+2, 1.6337723e+2, -1384641.4, -1390794.6, -4233.1177, -0.00061074126, -0.028357746, -1382485.0, -43584.703, 0.0, 9.997427, 9.9966 
1.8496802e+2, 1.7337373e+2, -1275061.0, -1288460.3, -4197.5405, 0.00030248295, -0.027479278, -1273854.6, -32920.152, 0.0, 9.998269, 9.996482 
1.8498853e+2, 1.8336913e+2, -1178777.3, -1217143.6, -5620.471, 0.00061466167, -0.027634341, -1177970.9, -34991.17, 0.0, 9.99927, 9.994176 
1.8500881e+2, 1.9336314e+2, -1062374.5, -1111576.1, -5471.086, -0.00040079508, -0.03272385, -1061773.4, -16735.107, 0.0, 10.000581, 9.994051 
1.8502915e+2, 2.0335613e+2, -962935.75, -1037472.5, -4976.404, -0.00048712819, -0.033998903, -962604.94, -15497.941, 0.0, 10.00174, 9.991857 
1.8504964e+2, 2.1334793e+2, -852726.5, -934729.8, -5434.1777, 0.00090992125, -0.030360442, -852367.94, -3180.5718, 0.0, 10.002623, 9.991748 
1.8507007e+2, 2.2333857e+2, -757192.7, -864438.75, -6204.9424, 0.0010973065, -0.027782138, -756834.9, -5555.884, 0.0, 10.003597, 9.989383 
1.8509035e+2, 2.3332782e+2, -643254.44, -760287.2, -5742.703, -0.0010177362, -0.029638663, -642973.3, 10411.18, 0.0, 10.004752, 9.98924 
1.8511072e+2, 2.4331601e+2, -544228.9, -686175.8, -5014.92, -0.0014976959, -0.03015243, -544051.94, 11448.227, 0.0, 10.005871, 9.987065 
1.8513119e+2, 2.53303e+2, -431636.6, -582235.56, -5575.296, 0.0009140193, -0.030699152, -431430.47, 26197.402, 0.0, 10.006916, 9.98696 
1.8515173e+2, 2.6328886e+2, -334979.63, -511218.2, -5048.683, 0.0018433818, -0.028907435, -334835.1, 24931.28, 0.0, 10.007954, 9.984613 
1.8517232e+2, 2.7327338e+2, -222733.55, -407761.22, -4391.185, -0.00022431082, -0.026135433, -222629.39, 39288.656, 0.0, 10.008989, 9.984483 
1.8519299e+2, 2.832566e+2, -127816.29, -340941.1, -3763.7957, -0.00088934496, -0.027074745, -127749.84, 36332.664, 0.0, 10.010051, 9.981837 
1.8521367e+2, 2.932382e+2, -14495.641, -237040.77, -4787.725, 0.00073697325, -0.037940588, -14392.6875, 51869.996, 0.0, 10.011165, 9.981699 
1.8523458e+2, 3.0322307e+2, 95849.41, -86589.22, -3284.418, 0.0011881425, -0.03802212, 95908.516, 95908.516, 0.0, 10.012288, 9.988109 
1.8525569e+2, 3.132114e+2, 112665.164, -77743.73, -2442.248, -0.0007046842, -0.020326767, 112696.484, 112696.484, 0.0, 10.013413, 9.988174 
1.9485767e+2, 1.2335838e+2, -1801125.9, -1732771.9, 2676.3267, -0.0025287727, -0.032827687, -1732667.3, -1582.1493, 0.0, 9.993084, 10.00213 
1.9487947e+2, 1.3335913e+2, -1700645.6, -1651122.8, 125.862045, 0.005330814, -0.019168906, -1651122.5, -18044.719, 0.0, 9.994014, 10.000563 
1.9490103e+2, 1.4335877e+2, -1598738.5, -1569035.9, 286.40158, -0.009780597, -0.034181707, -1569033.1, -33951.87, 0.0, 9.995049, 9.998972 
1.9492304e+2, 1.5335771e+2, -1482675.4, -1463156.4, 747.0478, 0.00038674552, -0.030410241, -1463127.9, -26036.357, 0.0, 9.996313, 9.998888 
1.9494483e+2, 1.6335551e+2, -1384884.0, -1391352.6, -834.33746, 0.0049848445, -0.028727742, -1384778.1, -45665.066, 0.0, 9.997431, 9.996558 
1.9496629e+2, 1.7335191e+2, -1275409.9, -1289192.6, -1044.0638, -0.00032878303, -0.03235939, -1275331.3, -34183.043, 0.0, 9.998271, 9.996429 
1.9498776e+2, 1.8334728e+2, -1178440.6, -1216451.4, -960.5399, -0.003206377, -0.03250163, -1178416.4, -35222.79, 0.0, 9.99927, 9.994221 
1.9500938e+2, 1.9334145e+2, -1061937.6, -1110658.6, -498.45377, -0.001304147, -0.029095478, -1061932.5, -16681.682, 0.0, 10.000579, 9.994112 
1.950309e+2, 2.0333445e+2, -963912.25, -1039469.3, -1433.3368, 0.000042389936, -0.027003001, -963885.06, -16565.672, 0.0, 10.0017395, 9.991719 
1.9505227e+2, 2.1332602e+2, -853978.1, -937313.56, -2146.7744, 0.00011406282, -0.029883176, -853922.9, -4520.6885, 0.0, 10.002623, 9.99157 
1.9507365e+2, 2.2331658e+2, -756445.3, -862907.2, -2039.3333, 0.00008000119, -0.030533092, -756406.3, -4911.6196, 0.0, 10.003597, 9.989486 
1.9509512e+2, 2.33306e+2, -642161.6, -757985.56, -1408.5616, -0.00012304026, -0.029405816, -642144.5, 11453.81, 0.0, 10.004749, 9.989396 
1.9511661e+2, 2.4329425e+2, -544981.0, -687653.25, -1082.4082, -0.00076947967, -0.028303798, -544972.8, 10740.523, 0.0, 10.005867, 9.986964 
1.9513808e+2, 2.5328106e+2, -432795.0, -584528.3, -1683.5382, -0.0019583406, -0.029480902, -432776.3, 25066.277, 0.0, 10.00691, 9.986806 
1.9515967e+2, 2.6326686e+2, -334087.13, -509285.4, -1207.8954, -0.0012581656, -0.03103965, -334078.8, 25902.957, 0.0, 10.00795, 9.984745 
1.9518135e+2, 2.732515e+2, -221435.86, -405001.53, -579.0586, 0.0033151484, -0.036698245, -221434.03, 40698.36, 0.0, 10.008986, 9.984671 
1.952031e+2, 2.8323478e+2, -128920.016, -343187.84, 245.09259, 0.00365382, -0.034626585, -128919.734, 35376.395, 0.0, 10.010049, 9.981682 
1.9522479e+2, 2.932164e+2, -16103.233, -240369.63, -668.0474, -0.0039943247, -0.02038296, -16101.244, 50375.027, 0.0, 10.011164, 9.981469 
1.952468e+2, 3.0320123e+2, 96834.31, -84468.84, 887.3081, -0.005729288, -0.018284505, 96838.66, 96838.66, 0.0, 10.012284, 9.988254 
1.9526918e+2, 3.131894e+2, 114024.75, -74564.77, 1720.7695, 0.004276182, -0.043531194, 114040.45, 114040.45, 0.0, 10.013397, 9.988399 
2.0485075e+2, 1.2333579e+2, -1800597.8, -1732509.9, -1421.8716, -0.0024444428, -0.031470455, -1732480.3, -1173.8579, 0.0, 9.993113, 10.002129 
2.0487358e+2, 1.3333645e+2, -1698267.6, -1650904.5, -4191.9736, 0.0051724985, -0.018739939, -1650536.4, -17236.434, 0.0, 9.99421, 10.000478 
2.048962e+2, 1.4333601e+2, -1595912.6, -1568078.8, -3503.0, -0.008192517, -0.035694346, -1567644.6, -32340.537, 0.0, 9.995255, 9.998931 
2.0491932e+2, 1.5333493e+2, -1484126.6, -1464221.1, -3287.7124, 0.0005472315, -0.030979322, -1463692.3, -26377.494, 0.0, 9.996226, 9.998853 
2.0494218e+2, 1.633327e+2, -1387196.9, -1392786.3, -5274.291, 0.0045306734, -0.028580029, -1384022.6, -44686.113, 0.0, 9.997283, 9.996528 
2.0496468e+2, 1.7332909e+2, -1271999.5, -1287842.5, -5383.203, -0.000110128196, -0.03222101, -1270343.5, -28971.451, 0.0, 9.998512, 9.996399 
2.0498721e+2, 1.8332443e+2, -1173445.6, -1214331.8, -5225.0674, -0.002449465, -0.03229826, -1172788.4, -29370.756, 0.0, 9.99962, 9.994189 
2.0500992e+2, 1.9331856e+2, -1063396.8, -1111715.1, -5443.846, -0.00076001947, -0.028811296, -1062791.0, -17315.838, 0.0, 10.000492, 9.994077 
2.050325e+2, 2.0331153e+2, -967965.8, -1041476.56, -6553.705, 0.0003117573, -0.026802117, -967386.06, -19842.037, 0.0, 10.001462, 9.991711 
2.0505488e+2, 2.1330309e+2, -853916.94, -937299.56, -6049.6016, 0.000032885255, -0.029835625, -853480.3, -3853.4648, 0.0, 10.0026245, 9.991565 
2.0507732e+2, 2.2329365e+2, -754612.25, -862212.0, -5391.7573, 0.000014372091, -0.030684954, -754342.75, -2623.2822, 0.0, 10.003728, 9.989465 
2.0509985e+2, 2.3328301e+2, -642736.8, -758526.8, -6014.074, 0.00021429878, -0.030188663, -642425.3, 11398.141, 0.0, 10.004719, 9.989368 
2.0512241e+2, 2.4327128e+2, -546748.94, -688394.56, -6144.448, 0.000014128119, -0.029404612, -546482.9, 9455.727, 0.0, 10.005737, 9.98697 
2.0514494e+2, 2.5325808e+2, -433951.72, -584929.5, -5580.4663, -0.0010874183, -0.030206788, -433745.75, 24321.988, 0.0, 10.006822, 9.986815 
2.0516758e+2, 2.6324388e+2, -335028.38, -509630.47, -4838.5537, -0.0008267278, -0.031146768, -334894.4, 25312.355, 0.0, 10.007878, 9.984752 
2.0519026e+2, 2.7322856e+2, -222803.53, -405564.25, -5495.4707, 0.0019627444, -0.035969295, -222638.44, 39718.83, 0.0, 10.008885, 9.984675 
2.0521307e+2, 2.8321183e+2, -130212.51, -343915.56, -4547.2305, 0.0023218978, -0.033852, -130115.79, 34405.23, 0.0, 10.009962, 9.9816675 
2.0523597e+2, 2.9319343e+2, -16165.884, -240559.7, -3946.2551, -0.0019605998, -0.021347525, -16096.505, 50605.008, 0.0, 10.011164, 9.981451 
2.0525908e+2, 3.0317825e+2, 96493.18, -83849.734, -2381.9065, -0.002655562, -0.019832514, 96524.63, 96524.63, 0.0, 10.012221, 9.988322 
2.0528235e+2, 3.131665e+2, 108955.47, -76059.64, -2676.0889, 0.0032936914, -0.04291551, 108994.164, 108994.164, 0.0, 10.013002, 9.988481 
2.1484384e+2, 1.23312056e+2, -1800283.4, -1731617.3, 3137.5054, -0.0057659666, -0.031673294, -1731474.1, 64.88555, 0.0, 9.993101, 10.0021925 
2.1486783e+2, 1.3331267e+2, -1698607.0, -1651465.5, -114.59599, 0.008198438, -0.020464731, -1651465.3, -17932.297, 0.0, 9.9942045, 10.00044 
2.1489152e+2, 1.4331219e+2, -1596413.8, -1569026.9, 183.81667, -0.0015191549, -0.03864573, -1569025.6, -33487.895, 0.0, 9.995253, 9.998866 
2.1491551e+2, 1.5331103e+2, -1484704.3, -1465303.1, 364.1915, -0.003406933, -0.032681204, -1465296.3, -27747.303, 0.0, 9.996222, 9.998778 
2.1493939e+2, 1.6330877e+2, -1387314.4, -1392988.4, -785.7286, -0.0035877472, -0.02787404, -1387207.6, -47636.543, 0.0, 9.997281, 9.996512 
2.149632e+2, 1.7330518e+2, -1272038.3, -1287927.4, -702.38904, 0.000086949425, -0.026985068, -1272007.3, -30400.994, 0.0, 9.998512, 9.996389 
2.1498689e+2, 1.833005e+2, -1174173.8, -1215836.6, -1730.5099, 0.0018598281, -0.026971713, -1174102.0, -30449.688, 0.0, 9.99962, 9.994085 
2.1501042e+2, 1.932944e+2, -1064236.4, -1113507.1, -2164.6462, 0.000009738707, -0.03188758, -1064141.5, -18429.627, 0.0, 10.000494, 9.993951 
2.1503395e+2, 2.0328733e+2, -967039.0, -1039656.75, -2375.6912, -0.0010776684, -0.033216838, -966961.4, -19180.172, 0.0, 10.001467, 9.99183 
2.150575e+2, 2.1327911e+2, -852703.0, -934796.94, -1676.6484, -0.0005291679, -0.030045256, -852668.8, -2807.0354, 0.0, 10.002624, 9.991734 
2.1508104e+2, 2.2326973e+2, -755594.7, -864191.1, -1589.7593, -0.00033323403, -0.028172784, -755571.4, -3617.7336, 0.0, 10.003725, 9.989329 
2.1510457e+2, 2.3325887e+2, -644198.94, -761460.44, -2317.229, -0.00081415253, -0.03170942, -644153.1, 9906.852, 0.0, 10.004714, 9.989168 
2.1512815e+2, 2.4324705e+2, -546022.06, -686816.0, -2170.3845, -0.00022547328, -0.03309683, -545988.56, 10187.513, 0.0, 10.0057335, 9.987077 
2.1515182e+2, 2.5323403e+2, -432806.44, -582449.4, -1549.651, 0.0024127234, -0.032565117, -432790.4, 25513.088, 0.0, 10.006816, 9.986986 
2.151755e+2, 2.6321995e+2, -335790.94, -511113.34, -1085.7511, 0.0018619364, -0.029327681, -335784.22, 24657.324, 0.0, 10.007874, 9.98465 
2.1519908e+2, 2.7320454e+2, -223973.9, -407940.4, -1769.5193, -0.004941882, -0.024605654, -223956.89, 38635.855, 0.0, 10.008883, 9.984511 
2.1522295e+2, 2.8318775e+2, -129428.72, -342192.28, -233.68501, -0.0059579257, -0.025246331, -129428.46, 35328.746, 0.0, 10.009956, 9.981786 
2.1524721e+2, 2.9316926e+2, -15100.816, -238066.8, 485.07434, 0.005320912, -0.039238643, -15099.762, 51838.63, 0.0, 10.011151, 9.981625 
2.1527143e+2, 3.0315414e+2, 96330.73, -83941.97, 677.2952, 0.008444076, -0.04086258, 96333.266, 96333.266, 0.0, 10.012212, 9.9883175 
2.1529528e+2, 3.131428e+2, 108783.68, -76644.31, 123.422806, -0.005205448, -0.020743277, 108783.76, 108783.76, 0.0, 10.013014, 9.988433 
2.2483699e+2, 1.2328726e+2, -1798701.3, -1730555.9, -420.3831, -0.004692328, -0.032878976, -1730553.3, 1228.7018, 0.0, 9.993193, 10.002213 
2.2486202e+2, 1.332878e+2, -1698375.8, -1652299.8, -4517.5664, 0.0068249004, -0.021885525, -1651861.0, -18084.375, 0.0, 9.994256, 10.000352 
2.248868e+2, 1.4328724e+2, -1595644.3, -1569124.6, -4491.6484, 0.00009953055, -0.038662475, -1568384.5, -32602.494, 0.0, 9.99532, 9.99882 
2.2491184e+2, 1.5328607e+2, -1482169.0, -1464491.5, -4134.4272, -0.0024819719, -0.032128535, -1463572.3, -25778.676, 0.0, 9.996408, 9.998736 
2.2493675e+2, 1.6328378e+2, -1384936.1, -1392138.4, -4955.2593, -0.0032605554, -0.027299114, -1382411.6, -42595.598, 0.0, 9.997451, 9.996482 
2.2496167e+2, 1.7328015e+2, -1273562.8, -1288992.5, -5021.045, -0.00006362119, -0.027285129, -1272072.8, -30221.15, 0.0, 9.998417, 9.996358 
2.249864e+2, 1.832754e+2, -1177051.5, -1217566.5, -6213.551, 0.0018341374, -0.027700884, -1176120.0, -32221.95, 0.0, 9.999435, 9.994051 
2.2501096e+2, 1.932693e+2, -1063509.1, -1113506.8, -6029.4463, 0.00078842026, -0.031992935, -1062792.3, -16834.41, 0.0, 10.000556, 9.993916 
2.250355e+2, 2.0326221e+2, -964588.3, -1038466.3, -5947.502, -0.00011746126, -0.0330968, -964112.56, -16085.158, 0.0, 10.001628, 9.991828 
2.2506012e+2, 2.1325396e+2, -852742.06, -934799.75, -6424.2026, -0.0009490549, -0.030880382, -852242.2, -2134.1152, 0.0, 10.002617, 9.99173 
2.2508472e+2, 2.2324458e+2, -757065.7, -865030.06, -6839.6987, -0.0010045731, -0.029276801, -756634.06, -4434.0024, 0.0, 10.003627, 9.989313 
2.2510926e+2, 2.3323373e+2, -644693.0, -761888.75, -6321.0967, 0.00011871591, -0.03130022, -644353.06, 9953.44, 0.0, 10.004684, 9.989147 
2.2513388e+2, 2.4322188e+2, -546192.5, -686797.56, -5648.701, 0.0011510582, -0.031854484, -545965.9, 10456.696, 0.0, 10.005714, 9.9870825 
2.2515856e+2, 2.5320888e+2, -434536.28, -583166.6, -6166.5444, 0.001634208, -0.031942938, -434280.88, 24269.115, 0.0, 10.006689, 9.986992 
2.2518328e+2, 2.631948e+2, -337982.84, -512299.38, -5919.9355, 0.00060959737, -0.02936399, -337782.03, 22906.066, 0.0, 10.007725, 9.984634 
2.2520798e+2, 2.7317932e+2, -224088.48, -408207.38, -5601.9897, -0.0032208331, -0.024903473, -223918.2, 38921.36, 0.0, 10.00888, 9.984489 
2.2523293e+2, 2.8316253e+2, -129609.07, -341898.97, -3930.599, -0.0033973588, -0.025999969, -129536.31, 35467.727, 0.0, 10.009923, 9.981817 
2.2525813e+2, 2.9314408e+2, -20658.684, -240246.63, -4170.662, 0.0036817905, -0.04055438, -20579.498, 46605.367, 0.0, 10.010741, 9.981668 
2.2528338e+2, 3.0312902e+2, 90537.43, -86230.22, -3853.5444, 0.0056423177, -0.041617226, 90621.4, 90621.4, 0.0, 10.011786, 9.988359 
2.2530846e+2, 3.1311774e+2, 113017.84, -74111.016, -3731.8748, -0.002751906, -0.01901236, 113092.234, 113092.234, 0.0, 10.013279, 9.988474 
2.3483023e+2, 1.2326137e+2, -1798931.0, -1730791.9, 3772.9207, -0.0017842943, -0.034555282, -1730583.6, 1451.9788, 0.0, 9.993182, 10.002199 
2.3485623e+2, 1.3326178e+2, -1699487.0, -1654374.8, -580.99713, 0.00022306028, -0.0227013, -1654367.3, -20335.707, 0.0, 9.994248, 10.000212 
2.348821e+2, 1.4326118e+2, -1595892.1, -1569495.9, -455.37628, -0.0042033675, -0.03563416, -1569488.0, -33450.49, 0.0, 9.995315, 9.9987955 
2.349083e+2, 1.5326e+2, -1482230.1, -1464548.5, -27.047455, 0.0017371621, -0.02934898, -1464548.5, -26499.371, 0.0, 9.996405, 9.998733 
2.3493429e+2, 1.6325766e+2, -1385225.6, -1392766.0, -1248.3136, 0.003557778, -0.026924748, -1385024.3, -44952.297, 0.0, 9.997453, 9.996435 
2.3496006e+2, 1.7325392e+2, -1273941.8, -1289769.0, -1364.9059, -0.0016554897, -0.033243526, -1273825.0, -31716.299, 0.0, 9.998418, 9.996302 
2.349858e+2, 1.8324916e+2, -1176740.1, -1216906.8, -2072.0388, -0.0037336012, -0.03451619, -1176633.5, -32478.246, 0.0, 9.9994335, 9.994095 
2.3501152e+2, 1.9324319e+2, -1063065.3, -1112591.8, -1771.5238, 0.00036632433, -0.029136375, -1063002.0, -16788.277, 0.0, 10.000555, 9.993977 
2.3503718e+2, 2.0323613e+2, -965421.4, -1040238.1, -2167.135, 0.0018059358, -0.0265883, -965358.7, -17075.666, 0.0, 10.001632, 9.991702 
2.3506273e+2, 2.1322764e+2, -853899.44, -937180.9, -2714.1838, -0.002076964, -0.03237069, -853811.06, -3445.0264, 0.0, 10.002616, 9.991566 
2.3508832e+2, 2.2321817e+2, -756369.7, -863553.44, -2914.1665, -0.0030077265, -0.033799242, -756290.5, -3831.6118, 0.0, 10.003624, 9.989412 
2.3511398e+2, 2.3320754e+2, -643631.75, -759635.06, -2349.581, 0.0017930852, -0.029096365, -643584.2, 10979.0, 0.0, 10.004682, 9.989301 
2.3513962e+2, 2.4319579e+2, -546857.9, -688125.75, -1991.5494, 0.0026986746, -0.025884127, -546829.75, 9848.642, 0.0, 10.0057125, 9.98699 
2.351652e+2, 2.5318262e+2, -435574.0, -585264.5, -2547.6187, -0.0040279757, -0.028474478, -435530.66, 23276.752, 0.0, 10.006686, 9.986847 
2.3519093e+2, 2.6316842e+2, -337565.97, -511355.72, -1746.344, -0.005070667, -0.03086005, -337548.44, 23398.125, 0.0, 10.00772, 9.984698 
2.3521695e+2, 2.7315295e+2, -223431.55, -406680.94, -1316.636, 0.005531931, -0.035956547, -223422.08, 39675.77, 0.0, 10.008873, 9.984594 
2.3524296e+2, 2.8313622e+2, -129967.836, -342496.4, -758.4178, 0.0077866833, -0.035476457, -129965.13, 35296.6, 0.0, 10.009916, 9.981777 
2.3526879e+2, 2.9311794e+2, -21131.537, -241303.55, -1222.1697, -0.0065119793, -0.026846746, -21124.754, 46316.43, 0.0, 10.010745, 9.981591 
2.3529501e+2, 3.0310294e+2, 91218.17, -84888.97, 1208.7344, -0.010325549, -0.023865495, 91226.47, 91226.47, 0.0, 10.011789, 9.988447 
2.3532185e+2, 3.130914e+2, 113653.71, -72451.33, 1802.9642, 0.007425326, -0.035885032, 113671.17, 113671.17, 0.0, 10.013265, 9.98859 
2.4482347e+2, 1.2323441e+2, -1797203.1, -1729588.0, -373.93976, 0.0011782171, -0.03431717, -1729585.9, 2713.9194, 0.0, 9.993276, 10.00223 
2.448505e+2, 1.3323474e+2, -1698519.5, -1654698.8, -4466.2407, -0.0025024302, -0.024160936, -1654248.1, -19951.59, 0.0, 9.994342, 10.000139 
2.4487746e+2, 1.4323412e+2, -1594847.6, -1569483.6, -4107.4185, -0.004023867, -0.03323732, -1568835.1, -32532.34, 0.0, 9.995402, 9.998748 
2.4490473e+2, 1.5323284e+2, -1481688.9, -1464753.3, -3976.6921, 0.0019677333, -0.02951724, -1463865.9, -25550.824, 0.0, 9.996457, 9.998687 
2.4493176e+2, 1.6323046e+2, -1384668.1, -1392893.0, -5585.7686, 0.0039552716, -0.028489789, -1381844.3, -41505.734, 0.0, 9.997503, 9.996397 
2.4495855e+2, 1.732267e+2, -1272363.8, -1289417.5, -5690.011, -0.00089895725, -0.03370931, -1270639.5, -28264.139, 0.0, 9.998539, 9.996262 
2.449853e+2, 1.832219e+2, -1174798.3, -1215953.6, -6259.358, -0.0030183748, -0.034305196, -1173867.4, -29445.104, 0.0, 9.999561, 9.994091 
2.4501207e+2, 1.9321595e+2, -1062859.0, -1112419.5, -6328.659, -0.00042067713, -0.029412197, -1062063.6, -15583.006, 0.0, 10.000562, 9.9939785 
2.4503876e+2, 2.0320886e+2, -966719.4, -1041415.75, -6925.928, 0.0009150233, -0.02674572, -966082.6, -17532.459, 0.0, 10.001562, 9.99165 
2.4506533e+2, 2.1320033e+2, -854959.8, -938404.7, -6832.0894, -0.0004170413, -0.031145196, -854404.1, -3770.3513, 0.0, 10.00257, 9.991499 
2.4509194e+2, 2.2319083e+2, -756855.25, -863591.3, -6689.9717, -0.00061110395, -0.032335486, -756437.56, -3710.666, 0.0, 10.003578, 9.989426 
2.451186e+2, 2.331802e+2, -644673.94, -759781.4, -6961.899, 0.0009206659, -0.029823625, -644254.4, 10576.708, 0.0, 10.004591, 9.989327 
2.4514526e+2, 2.4316844e+2, -548242.8, -688987.7, -6928.667, 0.0007037467, -0.027704373, -547902.5, 9043.832, 0.0, 10.005621, 9.986969 
2.4517187e+2, 2.5315523e+2, -435665.9, -585655.9, -6732.3135, -0.0031116295, -0.029202634, -435364.34, 23711.225, 0.0, 10.006691, 9.986813 
2.4519868e+2, 2.6314107e+2, -337352.56, -510970.1, -5452.0894, -0.0027973722, -0.030896168, -337181.5, 24033.266, 0.0, 10.007718, 9.98472 
2.4522573e+2, 2.7312565e+2, -226116.73, -407569.06, -5501.732, 0.0054336935, -0.03645566, -225950.08, 37415.727, 0.0, 10.008665, 9.984628 
2.4525274e+2, 2.8310892e+2, -133322.53, -344265.2, -5281.576, 0.006660638, -0.035552926, -133190.38, 32339.135, 0.0, 10.009688, 9.981759 
2.4527958e+2, 2.930906e+2, -19565.0, -240833.33, -5465.7485, -0.005709373, -0.024609689, -19430.068, 48278.977, 0.0, 10.01086, 9.981562 
2.4530688e+2, 3.0307555e+2, 93169.6, -84000.625, -2652.9526, -0.00867162, -0.022079904, 93209.32, 93209.32, 0.0, 10.011919, 9.9884405 
2.4533483e+2, 3.13064e+2, 106241.9, -76047.54, -2810.627, 0.0070673143, -0.039806135, 106285.23, 106285.23, 0.0, 10.012748, 9.988586 
2.5481677e+2, 1.2320634e+2, -1796893.4, -1728694.9, 3492.543, 0.0013291262, -0.031753197, -1728516.4, 4058.4893, 0.0, 9.993266, 10.002292 
2.5484484e+2, 1.3320662e+2, -1698780.1, -1654958.4, -513.45593, -0.0022480271, -0.026593791, -1654952.3, -20380.094, 0.0, 9.99433, 10.000123 
2.548729e+2, 1.43206e+2, -1595436.3, -1570487.8, -168.33485, -0.00018624177, -0.031628992, -1570486.6, -33908.35, 0.0, 9.995393, 9.998681 
2.549011e+2, 1.532046e+2, -1482317.6, -1465916.8, 7.7869797, -0.0032079516, -0.03254563, -1465916.8, -27324.889, 0.0, 9.99645, 9.998609 
2.5492918e+2, 1.6320215e+2, -1384928.8, -1393405.5, -1672.2294, -0.004029285, -0.0319978, -1384610.8, -43994.83, 0.0, 9.997502, 9.996359 
2.549571e+2, 1.7319845e+2, -1272578.1, -1289835.0, -1758.8077, 0.0012655352, -0.028770333, -1272400.6, -29748.244, 0.0, 9.998538, 9.99623 
2.5498492e+2, 1.8319364e+2, -1175095.6, -1216581.9, -2453.3486, 0.0029124764, -0.027115572, -1174951.1, -30251.705, 0.0, 9.999561, 9.994045 
2.550126e+2, 1.9318753e+2, -1063192.8, -1113114.6, -2534.7983, -0.0029129894, -0.03278667, -1063064.4, -16305.17, 0.0, 10.000561, 9.993929 
2.5504026e+2, 2.0318037e+2, -966585.06, -1041155.44, -3137.4868, -0.0044594174, -0.033664584, -966453.3, -17623.998, 0.0, 10.001563, 9.991664 
2.5506794e+2, 2.1317199e+2, -854729.5, -937944.44, -3031.0745, 0.0026330452, -0.027429506, -854619.25, -3707.5984, 0.0, 10.002571, 9.991527 
2.5509557e+2, 2.231625e+2, -757289.2, -864466.6, -2900.2795, 0.0047785146, -0.02507077, -757210.75, -4206.2173, 0.0, 10.003577, 9.989364 
2.5512317e+2, 2.3315167e+2, -645292.44, -761012.1, -3164.3923, -0.0032228904, -0.033353865, -645206.0, 9904.529, 0.0, 10.004588, 9.989242 
2.5515082e+2, 2.4313983e+2, -547967.2, -688326.6, -2984.5212, -0.0058678496, -0.03713604, -547903.75, 9322.825, 0.0, 10.005616, 9.987014 
2.5517863e+2, 2.5312674e+2, -435212.4, -584612.6, -2746.309, 0.0029806432, -0.03386246, -435161.94, 24192.785, 0.0, 10.006685, 9.986883 
2.552065e+2, 2.6311263e+2, -337492.66, -511155.75, -1892.4524, 0.005911648, -0.029525552, -337472.06, 24020.965, 0.0, 10.007713, 9.984707 
2.552343e+2, 2.7309728e+2, -226436.3, -408102.13, -2028.5474, -0.0034796353, -0.027264813, -226413.64, 37230.066, 0.0, 10.00866, 9.984591 
2.5526232e+2, 2.8308055e+2, -133342.97, -344167.06, -1120.4642, -0.006694631, -0.026684042, -133337.02, 32470.635, 0.0, 10.009682, 9.981766 
2.5529057e+2, 2.9306206e+2, -19550.887, -240642.7, -1150.0586, 0.0039942516, -0.03254848, -19544.904, 48443.64, 0.0, 10.010854, 9.981575 
2.5531897e+2, 3.0304697e+2, 92468.6, -85342.09, 560.3449, 0.007715927, -0.034706075, 92470.37, 92470.37, 0.0, 10.011915, 9.988347 
2.553475e+2, 3.1303546e+2, 105438.266, -77728.016, 219.73253, -0.0041356427, -0.03226558, 105438.53, 105438.53, 0.0, 10.01275, 9.988467 
2.6481003e+2, 1.2317723e+2, -1796304.8, -1728621.9, -396.76184, 0.000874868, -0.030118538, -1728619.6, 4240.59, 0.0, 9.993309, 10.00227 
2.6483923e+2, 1.331774e+2, -1696690.9, -1654494.4, -4494.9414, -0.0038635537, -0.030902969, -1654020.9, -19162.395, 0.0, 9.99449, 10.000071 
2.648684e+2, 1.431768e+2, -1592685.6, -1569686.6, -4653.81, 0.003269865, -0.029849643, -1568780.6, -31916.182, 0.0, 9.995598, 9.99863 
2.648976e+2, 1.5317534e+2, -1481303.4, -1466005.6, -4427.3286, -0.0025483216, -0.03203552, -1464816.8, -25937.953, 0.0, 9.996541, 9.998551 
2.649267e+2, 1.6317284e+2, -1384895.8, -1393615.5, -5843.5674, -0.0050753807, -0.03225783, -1381964.8, -41061.496, 0.0, 9.997509, 9.996336 
2.6495567e+2, 1.7316909e+2, -1272465.9, -1289946.9, -5860.3955, 0.0009109978, -0.0282416, -1270683.0, -27743.137, 0.0, 9.998547, 9.996212 
2.649845e+2, 1.8316427e+2, -1175275.6, -1217108.5, -6614.9263, 0.0034352585, -0.026263328, -1174254.5, -29267.424, 0.0, 9.999563, 9.994002 
2.6501316e+2, 1.931581e+2, -1063731.3, -1113919.8, -6733.761, -0.0018321143, -0.032433454, -1062843.5, -15796.015, 0.0, 10.000544, 9.9938755 
2.6504183e+2, 2.0315093e+2, -966684.75, -1041042.9, -7205.4907, -0.0034210088, -0.034079377, -965992.94, -16875.049, 0.0, 10.001543, 9.991675 
2.6507053e+2, 2.1314254e+2, -854235.06, -937436.75, -7122.2686, 0.0021732736, -0.029041113, -853629.75, -2429.6633, 0.0, 10.002587, 9.991548 
2.6509914e+2, 2.2313306e+2, -757035.8, -864705.06, -7049.0503, 0.0038916795, -0.026717482, -756576.3, -3283.2861, 0.0, 10.003605, 9.989328 
2.6512775e+2, 2.3312221e+2, -645901.7, -761834.0, -7081.5376, -0.002628828, -0.032749165, -645470.75, 9928.573, 0.0, 10.004564, 9.989192 
2.6515645e+2, 2.4311033e+2, -548871.56, -688696.9, -6628.29, -0.0042300755, -0.03546704, -548558.06, 8957.499, 0.0, 10.005547, 9.987017 
2.6518527e+2, 2.5309727e+2, -436591.22, -585098.1, -6738.04, 0.0038526806, -0.03366916, -436286.13, 23357.584, 0.0, 10.0065775, 9.986896 
2.6521415e+2, 2.6308316e+2, -339247.0, -511887.44, -6346.746, 0.0057483856, -0.029988522, -339013.97, 22767.96, 0.0, 10.007584, 9.984713 
2.6524284e+2, 2.730678e+2, -228195.19, -408860.28, -6278.8823, -0.005061762, -0.026617615, -227977.23, 35955.26, 0.0, 10.00853, 9.984595 
2.6527187e+2, 2.8305107e+2, -135568.83, -345397.7, -4604.0347, -0.00776971, -0.026276134, -135467.86, 30628.602, 0.0, 10.009529, 9.98175 
2.653013e+2, 2.9303256e+2, -22679.525, -242399.33, -4736.265, 0.006379301, -0.034850355, -22577.479, 45700.387, 0.0, 10.010642, 9.98155 
2.6533082e+2, 3.030175e+2, 90123.06, -85492.04, -3415.9153, 0.010696662, -0.03670118, 90189.48, 90189.48, 0.0, 10.011705, 9.988432 
2.6536018e+2, 3.1300613e+2, 104916.305, -76684.17, -2450.7573, -0.006215803, -0.027757872, 104949.375, 104949.375, 0.0, 10.0126505, 9.988583 
2.748033e+2, 1.2314706e+2, -1797336.6, -1730446.0, 3418.164, -0.002801943, -0.028696531, -1730271.8, 2884.0322, 0.0, 9.993299, 10.002147 
2.7483368e+2, 1.3314705e+2, -1697559.5, -1655994.0, -61.565067, -0.008262785, -0.03705895, -1655994.0, -20838.049, 0.0, 9.994478, 9.99997 
2.7486405e+2, 1.4314646e+2, -1593072.5, -1570287.6, -999.83954, 0.0051820865, -0.02805442, -1570243.9, -33081.965, 0.0, 9.995589, 9.9985895 
2.7489424e+2, 1.5314499e+2, -1481582.6, -1466441.3, -905.26025, 0.0024743658, -0.028052237, -1466387.4, -27211.121, 0.0, 9.996534, 9.998523 
2.7492425e+2, 1.6314246e+2, -1384979.8, -1393737.5, -2019.1205, -0.0008935688, -0.02916929, -1384536.6, -43335.574, 0.0, 9.997506, 9.9963255 
2.7495417e+2, 1.7313865e+2, -1272568.0, -1290054.1, -1916.625, -0.0028760396, -0.03210173, -1272360.4, -29122.031, 0.0, 9.998543, 9.996204 
2.74984e+2, 1.831338e+2, -1175565.3, -1217653.5, -2859.943, -0.0027283428, -0.03170647, -1175371.9, -30085.965, 0.0, 9.999561, 9.993963 
2.7501377e+2, 1.9312768e+2, -1064059.3, -1114584.8, -3008.0972, 0.0014877453, -0.028628932, -1063880.8, -16534.852, 0.0, 10.000543, 9.993829 
2.7504343e+2, 2.0312048e+2, -966608.25, -1040918.75, -3305.2356, 0.002650983, -0.028232966, -966461.56, -17045.195, 0.0, 10.001545, 9.99168 
2.7507305e+2, 2.1311197e+2, -854078.4, -937160.25, -3174.1763, -0.002664858, -0.03590651, -853957.25, -2457.7175, 0.0, 10.002589, 9.991562 
2.751027e+2, 2.2310247e+2, -757088.6, -864812.0, -3398.282, -0.004511041, -0.03718869, -756981.5, -3388.7957, 0.0, 10.003605, 9.989318 
2.7513236e+2, 2.3309176e+2, -646038.6, -762061.44, -3496.6616, 0.0011924899, -0.028243398, -645933.3, 9764.548, 0.0, 10.004561, 9.989175 
2.7516204e+2, 2.4307995e+2, -549119.8, -689147.94, -2838.3997, 0.003613514, -0.023099178, -549062.3, 8751.402, 0.0, 10.005544, 9.986983 
2.751918e+2, 2.5306675e+2, -436931.88, -585682.8, -2885.1743, -0.0009800611, -0.029066972, -436875.94, 23066.977, 0.0, 10.006573, 9.986855 
2.7522162e+2, 2.6305255e+2, -339137.56, -511495.84, -2793.8582, -0.0035075631, -0.032459304, -339092.3, 22989.586, 0.0, 10.007576, 9.98474 
2.7525145e+2, 2.730372e+2, -227920.06, -408219.0, -2809.637, -0.0011513843, -0.033801634, -227876.28, 36356.125, 0.0, 10.008528, 9.984637 
2.7528152e+2, 2.8302047e+2, -135801.47, -345850.3, -667.90405, 0.0008836555, -0.033201277, -135799.34, 30596.877, 0.0, 10.009527, 9.981716 
2.7531192e+2, 2.93002e+2, -23134.652, -243215.81, -634.3385, 0.0018850728, -0.03213456, -23132.822, 45444.516, 0.0, 10.010636, 9.981494 
2.7534243e+2, 3.0298704e+2, 91666.27, -82065.05, 142.78787, 0.0014171128, -0.029342279, 91666.39, 91666.39, 0.0, 10.011696, 9.988668 
2.7537286e+2, 3.129759e+2, 106997.82, -72224.75, 900.5986, -0.0021739288, -0.025941577, 107002.34, 107002.34, 0.0, 10.012647, 9.988887 
2.847967e+2, 1.2311581e+2, -1795124.1, -1730647.5, -1231.0592, -0.0010558792, -0.027318174, -1730624.0, 2838.0903, 0.0, 9.993494, 10.002032 
2.848282e+2, 1.3311572e+2, -1696194.5, -1655454.0, -3461.0955, -0.01036932, -0.04090333, -1655162.0, -19699.08, 0.0, 9.994568, 9.999958 
2.8485966e+2, 1.4311518e+2, -1592447.9, -1570271.1, -4501.9175, 0.0055692196, -0.024736777, -1569392.1, -31923.654, 0.0, 9.995637, 9.998561 
2.8489083e+2, 1.5311365e+2, -1479794.3, -1465931.4, -4592.3823, 0.0034918035, -0.02720848, -1464548.1, -25064.758, 0.0, 9.996666, 9.998487 
2.8492185e+2, 1.6311106e+2, -1382814.1, -1393081.8, -5798.149, 0.0000855661, -0.030269522, -1380203.6, -38694.91, 0.0, 9.997665, 9.996286 
2.8495273e+2, 1.731072e+2, -1271701.0, -1290062.0, -5992.7363, -0.0031861728, -0.033708, -1269918.3, -26371.795, 0.0, 9.998614, 9.996162 
2.8498355e+2, 1.8310231e+2, -1175448.9, -1217920.6, -7069.5005, -0.003196351, -0.03310044, -1174303.1, -28708.803, 0.0, 9.999577, 9.993931 
2.850143e+2, 1.9309618e+2, -1063698.1, -1114757.8, -7111.8286, 0.0024741783, -0.028389655, -1062726.0, -15071.457, 0.0, 10.000577, 9.993793 
2.8504503e+2, 2.0308895e+2, -966450.1, -1041002.5, -7358.834, 0.004076311, -0.027065495, -965730.7, -16005.51, 0.0, 10.001556, 9.991662 
2.850756e+2, 2.1308045e+2, -855307.3, -937916.06, -7448.6865, -0.0030709573, -0.03505797, -854641.06, -2832.4746, 0.0, 10.002506, 9.991545 
2.8510624e+2, 2.2307092e+2, -758813.44, -865725.44, -7786.831, -0.005338383, -0.036799155, -758249.25, -4347.3345, 0.0, 10.003484, 9.989307 
2.851369e+2, 2.3306018e+2, -646624.25, -762435.06, -7850.9785, 0.0022451011, -0.028643563, -646094.44, 9912.828, 0.0, 10.004519, 9.989163 
2.851676e+2, 2.4304835e+2, -549536.3, -689349.06, -7150.569, 0.0050615775, -0.023799034, -549171.56, 8951.61, 0.0, 10.005508, 9.98698 
2.8519827e+2, 2.5303516e+2, -439269.0, -586822.9, -6972.9365, -0.0021439511, -0.028969025, -438940.22, 21312.135, 0.0, 10.006407, 9.986851 
2.852291e+2, 2.63021e+2, -341873.9, -512767.06, -6484.184, -0.004748417, -0.03225157, -341628.22, 20763.082, 0.0, 10.00738, 9.984742 
2.8526002e+2, 2.730056e+2, -228053.78, -408261.97, -6714.3877, 0.0021982233, -0.03460052, -227803.97, 36737.97, 0.0, 10.008511, 9.984636 
2.8529108e+2, 2.8298894e+2, -135185.94, -345108.1, -4764.668, 0.0048475587, -0.033973236, -135077.84, 31627.758, 0.0, 10.009545, 9.981751 
2.853224e+2, 2.9297048e+2, -26584.627, -244334.33, -4140.257, -0.0016344807, -0.03072292, -26505.934, 42380.15, 0.0, 10.010369, 9.98154 
2.8535384e+2, 3.0295557e+2, 86422.195, -84043.42, -3109.3389, -0.0038126057, -0.027768023, 86478.89, 86478.89, 0.0, 10.011306, 9.988714 
2.8538546e+2, 3.129445e+2, 105024.6, -72649.13, -4000.2722, 0.002551132, -0.02836603, 105114.625, 105114.625, 0.0, 10.012481, 9.98893 
2.947903e+2, 1.2308342e+2, -1796279.9, -1732587.4, 1839.0145, 0.0030541604, -0.026368786, -1732534.4, 1245.184, 0.0, 9.993478, 10.0019045 
2.9482275e+2, 1.3308336e+2, -1695911.8, -1654451.5, 570.13635, -0.010652502, -0.042529136, -1654443.6, -18663.549, 0.0, 9.99455, 10.0000305 
2.948553e+2, 1.4308292e+2, -1592777.9, -1570612.6, -635.6581, 0.0036213773, -0.020001652, -1570594.4, -32809.914, 0.0, 9.995623, 9.998542 
2.9488745e+2, 1.5308128e+2, -1480226.4, -1466593.4, -729.42786, -0.0010473991, -0.029472265, -1466554.4, -26753.941, 0.0, 9.996655, 9.998444 
2.9491946e+2, 1.6307859e+2, -1383349.4, -1394076.3, -2189.484, -0.004120922, -0.035629492, -1382919.8, -41093.06, 0.0, 9.997661, 9.996218 
2.9495138e+2, 1.7307474e+2, -1272318.4, -1291195.5, -2396.935, -0.0009055918, -0.033162393, -1272018.8, -28154.133, 0.0, 9.998608, 9.996085 
2.9498318e+2, 1.8306981e+2, -1175657.9, -1218279.9, -3311.1436, 0.0010692955, -0.030382445, -1175402.3, -29489.395, 0.0, 9.999574, 9.993905 
2.9501486e+2, 1.9306359e+2, -1063778.9, -1114932.3, -3294.2383, -0.00015120927, -0.031711243, -1063567.6, -15593.811, 0.0, 10.000577, 9.993778 
2.950465e+2, 2.0305635e+2, -966648.25, -1041524.44, -3726.148, -0.0009003726, -0.030649591, -966463.3, -16418.564, 0.0, 10.001562, 9.99162 
2.9507816e+2, 2.1304789e+2, -855603.56, -938589.06, -3854.7976, -0.0003844661, -0.026859462, -855424.94, -3297.3303, 0.0, 10.00251, 9.991493 
2.9510978e+2, 2.2303838e+2, -758909.44, -865877.44, -3953.8474, -0.00013190821, -0.025831558, -758763.44, -4542.458, 0.0, 10.003482, 9.989295 
2.951414e+2, 2.3302747e+2, -646707.4, -762501.7, -3948.3286, -0.00041554932, -0.03366515, -646572.94, 9754.867, 0.0, 10.004515, 9.989158 
2.9517305e+2, 2.4301557e+2, -549380.7, -688965.5, -3713.5603, -0.0007752028, -0.036801424, -549281.94, 9162.35, 0.0, 10.005507, 9.987003 
2.952047e+2, 2.530025e+2, -439057.44, -586330.5, -3645.9534, -0.0009752674, -0.033079877, -438967.22, 21605.18, 0.0, 10.006406, 9.986882 
2.952365e+2, 2.629884e+2, -342056.3, -513042.94, -2487.5342, 0.00012216573, -0.02936907, -342020.13, 20690.502, 0.0, 10.007375, 9.984722 
2.9526854e+2, 2.7297303e+2, -228396.28, -408817.7, -2526.3179, 0.003847116, -0.02977216, -228360.9, 36500.582, 0.0, 10.008505, 9.984597 
2.9530063e+2, 2.8295633e+2, -134613.64, -343714.63, -1576.8535, 0.0034384013, -0.029421492, -134601.75, 32423.303, 0.0, 10.009538, 9.981847 
2.9533273e+2, 2.92938e+2, -25762.191, -242451.8, -1225.1459, -0.0052091125, -0.030425409, -25755.264, 43449.348, 0.0, 10.010364, 9.9816675 
2.9536515e+2, 3.0292305e+2, 85563.125, -85733.6, 869.5746, -0.006892625, -0.031105101, 85567.54, 85567.54, 0.0, 10.011302, 9.988596 
2.9539797e+2, 3.1291178e+2, 103780.445, -75287.49, 336.64877, 0.0056004887, -0.034400124, 103781.08, 103781.08, 0.0, 10.012484, 9.988743 
3.0478382e+2, 1.23050034e+2, -1795289.5, -1734037.9, -2325.3735, 0.0041123074, -0.025361422, -1733949.8, 156.9749, 0.0, 9.99362, 10.001732 
3.0481738e+2, 1.3305e+2, -1692098.5, -1651751.1, -2789.5073, -0.00977035, -0.045177158, -1651559.3, -15452.116, 0.0, 9.994763, 10.000105 
3.04851e+2, 1.430496e+2, -1589937.5, -1569675.6, -4660.581, 0.0040867645, -0.019695647, -1568655.0, -30544.074, 0.0, 9.995829, 9.998498 
3.0488414e+2, 1.5304789e+2, -1480072.6, -1467303.0, -5157.5537, -0.0019414034, -0.029996905, -1465480.1, -25352.385, 0.0, 9.996695, 9.998369 
3.049171e+2, 1.6304515e+2, -1384317.6, -1394899.4, -6537.5083, -0.0049544196, -0.036201328, -1381198.3, -39043.773, 0.0, 9.997603, 9.996182 
3.0495e+2, 1.7304127e+2, -1272091.1, -1291355.5, -6414.469, 0.00092484587, -0.031653475, -1270150.8, -25958.248, 0.0, 9.99863, 9.996057 
3.049828e+2, 1.8303633e+2, -1174801.8, -1218127.3, -7091.154, 0.0035230038, -0.028462378, -1173670.6, -27429.7, 0.0, 9.999638, 9.993878 
3.0501544e+2, 1.9303004e+2, -1063311.8, -1114988.4, -7171.596, -0.0017937841, -0.032744955, -1062334.9, -14032.443, 0.0, 10.000615, 9.99375 
3.0504808e+2, 2.0302276e+2, -966550.56, -1041900.5, -7793.4634, -0.0037589816, -0.03291224, -965752.94, -15379.118, 0.0, 10.001579, 9.991581 
3.0508068e+2, 2.130143e+2, -855581.5, -939066.44, -7932.778, 0.0012810496, -0.026870258, -854834.4, -2377.4731, 0.0, 10.002524, 9.991447 
3.051133e+2, 2.2300474e+2, -758940.5, -865909.2, -7795.4004, 0.003513072, -0.02467808, -758375.4, -3824.8633, 0.0, 10.003473, 9.98929 
3.0514583e+2, 2.3299384e+2, -647817.94, -762976.44, -7686.3413, -0.0007404793, -0.033756644, -647307.1, 9350.263, 0.0, 10.004431, 9.989159 
3.0517846e+2, 2.4298194e+2, -550835.3, -689583.6, -7568.2246, -0.0027945035, -0.03754248, -550423.7, 8350.241, 0.0, 10.005396, 9.98701 
3.0521113e+2, 2.5296888e+2, -439164.6, -586344.2, -7758.5376, 0.000052631407, -0.033246152, -438756.75, 22145.205, 0.0, 10.00639, 9.986882 
3.052439e+2, 2.6295477e+2, -342221.03, -513228.6, -6406.0503, 0.0022981402, -0.02902672, -341981.4, 21058.799, 0.0, 10.007362, 9.984709 
3.0527693e+2, 2.7293935e+2, -231503.25, -410455.47, -6240.343, 0.002691095, -0.029088298, -231285.9, 33905.285, 0.0, 10.008288, 9.984584 
3.0531e+2, 2.8292266e+2, -138966.4, -345773.6, -5817.821, 0.0013356456, -0.028900586, -138802.88, 28551.96, 0.0, 10.00923, 9.981848 
3.0534303e+2, 2.9290432e+2, -28148.438, -243537.02, -6421.3306, -0.0032118263, -0.030900892, -27957.17, 41577.266, 0.0, 10.01019, 9.98167 
3.0537644e+2, 3.028894e+2, 84531.33, -85749.93, -3550.3596, -0.003241943, -0.0321364, 84605.32, 84605.32, 0.0, 10.011202, 9.988636 
3.0541036e+2, 3.1287816e+2, 101909.84, -75601.055, -2383.9622, 0.0049369396, -0.035637833, 101941.85, 101941.85, 0.0, 10.012322, 9.988792 
3.147774e+2, 1.23015665e+2, -1797302.0, -1737817.5, 895.2763, -0.0017964587, -0.023980664, -1737804.0, -3360.5757, 0.0000000000000806617, 9.993609, 10.001475 
3.1481218e+2, 1.3301557e+2, -1691974.0, -1651107.4, 1517.6478, -0.008550391, -0.04870058, -1651051.1, -14606.851, 0.00000000000005243424, 9.994748, 10.000151 
3.1484687e+2, 1.4301518e+2, -1590595.1, -1570754.8, -1282.1407, 0.0057720947, -0.024336835, -1570672.3, -32224.012, 0.000000000000028332263, 9.995818, 9.998426 
3.1488082e+2, 1.5301342e+2, -1480935.8, -1468818.8, -1959.0458, -0.00045209713, -0.028837532, -1468509.9, -28044.47, 0.000000000000012064798, 9.996683, 9.998269 
3.149147e+2, 1.6301067e+2, -1384427.5, -1394978.1, -2823.4875, -0.0041591926, -0.03179415, -1383719.5, -41226.957, 0.000000000000003878589, 9.997597, 9.996178 
3.1494865e+2, 1.7300677e+2, -1272037.3, -1291110.4, -2520.4194, 0.0010014282, -0.029143736, -1271709.9, -27179.254, 0.0000000000000009180906, 9.998623, 9.996074 
3.1498244e+2, 1.8300183e+2, -1175013.0, -1218485.5, -3351.804, 0.0028056127, -0.027273681, -1174756.1, -28176.98, 0.00000000000000015841597, 9.999634, 9.993853 
3.1501606e+2, 1.9299552e+2, -1063624.1, -1115549.3, -3435.9941, -0.0034550999, -0.031583745, -1063397.8, -14756.767, 0.000000000000000019869674, 10.00061, 9.9937105 
3.1504962e+2, 2.0298818e+2, -966870.75, -1042504.7, -4159.879, -0.0057721953, -0.034030586, -966642.6, -15929.772, 0.0000000000000000018107616, 10.001577, 9.991537 
3.150832e+2, 2.1297958e+2, -855856.7, -939671.25, -4331.3896, 0.0009612849, -0.034838155, -855633.44, -2836.3623, 0.0000000000000000001198895, 10.002527, 9.991402 
3.1511676e+2, 2.2297e+2, -758853.25, -865750.2, -4208.6304, 0.0041818246, -0.03320266, -758687.8, -3796.8418, 0.0000000000000000000057675156, 10.003474, 9.989297 
3.151503e+2, 2.3295923e+2, -647732.8, -762716.75, -4076.1523, -0.00036597473, -0.029466389, -647588.5, 9408.08, 0.0, 10.004426, 9.989176 
3.1518388e+2, 2.429474e+2, -551023.9, -689846.06, -3892.1792, -0.0027972553, -0.026770946, -550914.9, 8197.642, 0.0, 10.005392, 9.98699 
3.152175e+2, 2.5293425e+2, -439430.3, -586786.75, -4069.4763, -0.000019343997, -0.02980955, -439318.0, 21923.465, 0.0, 10.006386, 9.986851 
3.1525126e+2, 2.6292005e+2, -342286.25, -513264.78, -2953.695, 0.0009234747, -0.031160165, -342235.22, 21145.182, 0.0, 10.007359, 9.984704 
3.1528515e+2, 2.7290463e+2, -231555.45, -410412.66, -2821.3086, -0.0024175437, -0.03227388, -231510.95, 34020.52, 0.0, 10.008284, 9.984585 
3.1531918e+2, 2.828879e+2, -139623.31, -346972.1, -2333.3079, -0.0031849383, -0.031914156, -139597.06, 28098.36, 0.0, 10.009224, 9.981765 
3.1535327e+2, 2.928695e+2, -28764.932, -245001.6, -2909.0645, 0.002732871, -0.032031827, -28725.803, 41150.1, 0.0, 10.0102, 9.981561 
3.1538773e+2, 3.028546e+2, 85897.48, -83132.32, 409.4616, 0.0051057655, -0.031315666, 85898.47, 85898.47, 0.0, 10.011212, 9.988806 
3.1542265e+2, 3.128436e+2, 103262.51, -72153.28, 1693.5721, -0.0021141497, -0.032514345, 103278.86, 103278.86, 0.0, 10.012296, 9.9890375 
3.2477117e+2, 1.2298029e+2, -1793173.4, -1738372.6, -3402.706, -0.0018005074, -0.02531076, -1738162.1, -3371.9656, 0.0000000000023454196, 9.993994, 10.001244 
3.24807e+2, 1.3298026e+2, -1690405.1, -1649847.5, -2098.5676, -0.0066527054, -0.04602339, -1649739.1, -12948.738, 0.0000000000015241749, 9.994826, 10.000192 
3.248426e+2, 1.4297983e+2, -1591737.5, -1571572.1, -4914.8203, 0.0038050648, -0.02509183, -1570438.1, -31643.525, 0.0000000000008233425, 9.995743, 9.998403 
3.248776e+2, 1.5297805e+2, -1478808.1, -1468253.4, -5208.2207, 0.00063707185, -0.029256262, -1466116.1, -25304.01, 0.00000000000035051592, 9.9968405, 9.998225 
3.2491246e+2, 1.6297524e+2, -1380824.6, -1393904.4, -6094.6606, -0.001959322, -0.032194056, -1378425.0, -35585.254, 0.00000000000011265747, 9.997864, 9.996115 
3.249473e+2, 1.7297128e+2, -1270717.6, -1291225.4, -6514.4116, -0.00041366526, -0.029985325, -1268823.4, -23944.81, 0.000000000000026661206, 9.998737, 9.996004 
3.2498205e+2, 1.8296628e+2, -1175129.4, -1218783.6, -7738.6836, 0.00042959908, -0.027919453, -1173798.1, -26870.617, 0.000000000000004599458, 9.999629, 9.993827 
3.2501668e+2, 1.9295995e+2, -1064196.5, -1115980.6, -7681.5903, -0.0013767319, -0.03071868, -1063081.0, -14091.575, 0.0000000000000005767878, 10.000572, 9.993692 
3.2505122e+2, 2.0295261e+2, -967603.25, -1042972.1, -8176.329, -0.0019477499, -0.032822426, -966726.44, -15664.994, 0.000000000000000052554126, 10.001524, 9.991525 
3.250857e+2, 2.1294397e+2, -856235.06, -939990.06, -8125.638, 0.00006138732, -0.035630517, -855454.0, -2308.0798, 0.0000000000000000034789587, 10.002499, 9.991388 
3.2512018e+2, 2.2293437e+2, -759338.06, -866231.5, -8083.814, 0.0010608205, -0.034643468, -758730.2, -3490.1174, 0.00000000000000000016733108, 10.003446, 9.989272 
3.2515466e+2, 2.329236e+2, -649302.9, -763784.3, -8322.415, -0.00016510671, -0.028926387, -648701.0, 8644.776, 0.0, 10.004325, 9.989145 
3.251892e+2, 2.4291174e+2, -553007.06, -690935.6, -7965.9185, -0.00052649714, -0.0253751, -552548.56, 6913.355, 0.0, 10.005254, 9.986976 
3.2522383e+2, 2.5289857e+2, -440664.4, -587471.4, -7897.4707, 0.0008337564, -0.029936606, -440240.78, 21350.316, 0.0, 10.006297, 9.98684 
3.2525858e+2, 2.6288438e+2, -343200.0, -513182.13, -6981.886, 0.00073575217, -0.032192733, -342913.7, 20816.307, 0.0, 10.007266, 9.984749 
3.252933e+2, 2.7286902e+2, -234315.39, -411096.4, -6661.398, -0.0030420308, -0.03244884, -234064.73, 31815.693, 0.0, 10.008059, 9.984642 
3.253283e+2, 2.8285232e+2, -143085.23, -348962.13, -4961.234, -0.0031428856, -0.031548988, -142965.75, 25078.344, 0.0, 10.008991, 9.981736 
3.253635e+2, 2.9283386e+2, -28523.004, -245460.66, -4948.8433, 0.005535817, -0.031860594, -28410.168, 41814.96, 0.0, 10.010231, 9.98151 
3.2539898e+2, 3.0281895e+2, 86793.58, -82122.39, -2788.5818, 0.008199736, -0.030854458, 86839.6, 86839.6, 0.0, 10.01124, 9.988858 
3.254346e+2, 3.1280804e+2, 95446.93, -75020.02, -2982.9993, -0.0045415694, -0.030481057, 95499.12, 95499.12, 0.0, 10.011707, 9.98912 
3.3476523e+2, 1.2294387e+2, -1794942.3, -1741556.1, -940.12646, 0.0015796984, -0.030766618, -1741539.5, -6392.4785, 0.00000000005167391, 9.9939785, 10.001031 
3.3480182e+2, 1.32944e+2, -1690479.4, -1649440.3, 919.0179, -0.004775595, -0.03656711, -1649419.8, -12273.89, 0.00000000003357157, 9.994803, 10.000226 
3.348383e+2, 1.4294355e+2, -1591864.8, -1571377.4, -1052.4918, -0.0031955524, -0.021668542, -1571323.5, -32173.219, 0.000000000018130754, 9.995723, 9.998421 
3.3487442e+2, 1.5294172e+2, -1478872.6, -1468080.0, -1073.8859, 0.00014948589, -0.031149806, -1467974.3, -26806.129, 0.000000000007717037, 9.996827, 9.9982395 
3.3491033e+2, 1.6293883e+2, -1381786.1, -1395762.6, -2686.0654, 0.0002844154, -0.03732168, -1381287.8, -38091.367, 0.0000000000024798213, 9.99786, 9.995987 
3.34946e+2, 1.7293473e+2, -1271970.6, -1293648.5, -3237.5886, -0.0042053172, -0.0342448, -1271497.5, -26260.824, 0.00000000000058676854, 9.998732, 9.995838 
3.3498162e+2, 1.8292962e+2, -1175361.9, -1219141.1, -4221.375, -0.0046350085, -0.030477194, -1174958.6, -27671.959, 0.00000000000010121049, 9.999623, 9.993802 
3.3501726e+2, 1.9292334e+2, -1064146.1, -1115821.9, -4051.629, 0.0031563507, -0.0302093, -1063830.4, -14482.153, 0.000000000000012690283, 10.000568, 9.993702 
3.3505282e+2, 2.0291603e+2, -967486.56, -1042747.4, -4476.637, 0.005891336, -0.029400298, -967221.25, -15801.327, 0.0000000000000011561161, 10.001526, 9.991535 
3.350882e+2, 2.1290743e+2, -856138.8, -939784.7, -4413.5103, -0.0025942712, -0.029585518, -855906.6, -2402.553, 0.000000000000000076521916, 10.002499, 9.991398 
3.3512357e+2, 2.2289781e+2, -759753.8, -867030.5, -4700.8584, -0.0070283604, -0.029165825, -759548.25, -3949.859, 0.0000000000000000036800285, 10.003444, 9.989215 
3.35159e+2, 2.3288688e+2, -649825.5, -764868.1, -5013.0063, -0.0014340496, -0.03152159, -649607.44, 8098.063, 0.0, 10.004326, 9.989067 
3.3519453e+2, 2.4287494e+2, -553048.44, -691001.25, -4190.1772, 0.0023112241, -0.032536667, -552921.3, 6901.2256, 0.0, 10.005254, 9.986967 
3.3523017e+2, 2.528618e+2, -440685.38, -587325.1, -3987.8655, 0.0012821446, -0.033562776, -440577.0, 21374.357, 0.0, 10.0062895, 9.98685 
3.3526585e+2, 2.628477e+2, -342764.72, -512018.72, -3887.488, -0.000055374832, -0.03225158, -342675.47, 21414.08, 0.0, 10.007256, 9.984829 
3.353014e+2, 2.7283245e+2, -233582.19, -409603.22, -3813.211, -0.0013844012, -0.030073566, -233499.63, 32739.176, 0.0, 10.008061, 9.984737 
3.353373e+2, 2.828158e+2, -142863.58, -348573.16, -810.3961, -0.0007405629, -0.02824099, -142860.39, 25541.313, 0.0, 10.008994, 9.981756 
3.3537376e+2, 2.9279733e+2, -28819.2, -245623.34, -393.7385, 0.004936752, -0.030744288, -28818.484, 41764.523, 0.0, 10.010213, 9.981502 
3.354102e+2, 3.027824e+2, 86049.695, -83152.36, -588.93225, 0.0054381974, -0.030906344, 86051.75, 86051.75, 0.0, 10.011221, 9.988791 
3.3544633e+2, 3.127714e+2, 95359.586, -75905.72, -1410.9098, -0.0069495835, -0.029365696, 95371.2, 95371.2, 0.0, 10.011743, 9.9890375 
3.4475932e+2, 1.2290666e+2, -1792695.5, -1742167.5, -3642.9072, 0.0015721531, -0.03305004, -1741906.1, -6394.5034, 0.00000000081250584, 9.994191, 10.000883 
3.447968e+2, 1.3290681e+2, -1686220.4, -1648030.3, -2452.1477, -0.00040960775, -0.030506475, -1647873.4, -10363.146, 0.00000000052773436, 9.9951105, 10.000168 
3.4483412e+2, 1.4290619e+2, -1588104.5, -1570042.5, -4849.5396, -0.0059983428, -0.026132854, -1568822.9, -29306.582, 0.00000000028494548, 9.995993, 9.998373 
3.4487125e+2, 1.5290436e+2, -1479026.8, -1468619.0, -5312.2334, -0.00038212948, -0.031480365, -1466386.5, -24852.336, 0.0000000001212577, 9.996829, 9.998194 
3.4490815e+2, 1.6290146e+2, -1383797.5, -1397153.5, -6969.6196, 0.0013944489, -0.03541058, -1380823.0, -37260.41, 0.00000000003895854, 9.997732, 9.995947 
3.449448e+2, 1.7289728e+2, -1271093.4, -1293633.9, -6659.7407, -0.0034511567, -0.03472084, -1269272.9, -23669.31, 0.000000000009216846, 9.9988, 9.9958 
3.449813e+2, 1.8289213e+2, -1173074.3, -1218665.0, -7413.922, -0.0042614928, -0.032342132, -1171898.9, -24244.816, 0.0000000000015895714, 9.9998, 9.993743 
3.4501788e+2, 1.9288579e+2, -1063443.4, -1116214.1, -7894.24, 0.0027436656, -0.03093178, -1062287.8, -12571.516, 0.00000000000019928297, 10.000641, 9.993633 
3.4505433e+2, 2.0287845e+2, -967863.5, -1043166.25, -8596.649, 0.005399848, -0.028906303, -966894.56, -15106.281, 0.0000000000000181529, 10.001501, 9.991512 
3.4509063e+2, 2.1286984e+2, -857156.8, -940437.9, -8681.26, -0.0019403703, -0.028092107, -856261.5, -2388.9783, 0.0000000000000012013685, 10.002429, 9.991381 
3.45127e+2, 2.2286022e+2, -760555.4, -867339.8, -8916.107, -0.0055076526, -0.027843678, -759816.06, -3849.1367, 0.00000000000000005776772, 10.003376, 9.989221 
3.4516332e+2, 2.3284926e+2, -649133.44, -764409.2, -8660.759, -0.0005157654, -0.03295521, -648486.4, 9587.844, 0.0, 10.004359, 9.989077 
3.4519976e+2, 2.4283731e+2, -552626.9, -690831.1, -7515.582, 0.0024342309, -0.034940504, -552219.4, 7971.8345, 0.0, 10.005275, 9.986963 
3.452363e+2, 2.528242e+2, -444326.28, -589201.7, -7519.276, 0.00048585463, -0.032775935, -443937.06, 18382.828, 0.0, 10.006035, 9.986838 
3.4527293e+2, 2.6281008e+2, -347579.28, -514373.3, -7408.8574, -0.00026567318, -0.030035406, -347250.84, 17207.227, 0.0, 10.006916, 9.984827 
3.4530947e+2, 2.7279484e+2, -233272.31, -409478.16, -7925.335, 0.0015187481, -0.030811736, -232916.58, 33691.01, 0.0, 10.008075, 9.984734 
3.4534636e+2, 2.827782e+2, -141264.05, -347246.1, -5485.9395, 0.0020996558, -0.030411754, -141118.05, 27652.414, 0.0, 10.009072, 9.981803 
3.4538364e+2, 2.927598e+2, -36015.777, -248382.22, -4773.3115, 0.0003274904, -0.030219264, -35908.543, 35042.38, 0.0, 10.009677, 9.981565 
3.4542102e+2, 3.0274493e+2, 76741.7, -86792.17, -3942.4119, -0.00016332803, -0.029141344, 76836.69, 76836.69, 0.0, 10.010535, 9.988866 
3.4545824e+2, 3.12734e+2, 99365.336, -73077.15, -3644.2197, 0.0011087544, -0.030161632, 99442.31, 99442.31, 0.0, 10.011971, 9.989117 
3.5475343e+2, 1.22868724e+2, -1793819.1, -1743930.4, -61.46729, -0.0051625073, -0.031463075, -1743930.3, -8046.8335, 0.000000009469599, 9.994172, 10.000767 
3.54792e+2, 1.3286869e+2, -1687865.0, -1650902.3, 870.39636, 0.0057425634, -0.02787583, -1650881.8, -12998.111, 0.0000000061492664, 9.995091, 9.999977 
3.5483012e+2, 1.4286777e+2, -1589231.3, -1572001.9, -1767.2314, -0.0056142337, -0.039194748, -1571822.5, -31929.691, 0.0000000033196064, 9.995978, 9.998243 
3.5486808e+2, 1.5286595e+2, -1480033.8, -1470341.0, -2250.6528, -0.0021200816, -0.030521708, -1469843.9, -27933.293, 0.0000000014124153, 9.996816, 9.99808 
3.5490584e+2, 1.6286308e+2, -1383586.8, -1396461.6, -3196.2197, -0.0002622646, -0.026122222, -1382837.0, -38898.22, 0.0000000004537274, 9.997722, 9.9959955 
3.5494363e+2, 1.7285894e+2, -1270561.8, -1292341.3, -2604.8926, 0.00051121856, -0.031347595, -1270254.5, -24275.143, 0.00000000010733056, 9.998793, 9.995888 
3.549812e+2, 1.8285374e+2, -1173817.5, -1220063.1, -4046.4495, 0.000107884916, -0.033475332, -1173466.1, -25436.006, 0.00000000001850869, 9.999794, 9.993648 
3.5501847e+2, 1.9284727e+2, -1064516.8, -1118344.1, -4669.9883, -0.0037463084, -0.03283703, -1064114.6, -14020.855, 0.0000000000023202033, 10.000638, 9.993486 
3.5505572e+2, 2.0283979e+2, -968276.7, -1044057.2, -5122.3877, -0.004936723, -0.031201703, -967932.0, -15765.04, 0.00000000000021133044, 10.001504, 9.9914465 
3.5509312e+2, 2.1283114e+2, -857393.6, -941005.4, -5125.8394, 0.00049564755, -0.030822841, -857080.5, -2828.8489, 0.000000000000013984623, 10.002433, 9.991336 
3.5513046e+2, 2.2282152e+2, -760092.4, -866367.06, -5236.6904, 0.003577599, -0.030466657, -759835.0, -3488.8862, 0.0000000000000006723836, 10.003375, 9.989284 
3.5516772e+2, 2.3281068e+2, -648548.9, -763078.06, -4932.8228, 0.0009677977, -0.03350305, -648336.8, 10115.538, 0.0, 10.004354, 9.989166 
3.5520503e+2, 2.4279882e+2, -552748.06, -690923.0, -4517.916, -0.0014460981, -0.03292024, -552600.5, 7968.115, 0.0, 10.00527, 9.986956 
3.552423e+2, 2.5278568e+2, -444614.25, -589750.3, -4734.4365, -0.002506824, -0.027806627, -444459.97, 18237.408, 0.0, 10.006035, 9.986797 
3.552798e+2, 2.6277152e+2, -348105.78, -515448.75, -3463.216, -0.0015651168, -0.02567944, -348034.16, 16801.992, 0.0, 10.006916, 9.984749 
3.553176e+2, 2.7275607e+2, -234038.94, -410831.44, -3597.1877, 0.003839089, -0.03438824, -233965.78, 33021.516, 0.0, 10.008065, 9.984641 
3.5535547e+2, 2.827394e+2, -140973.7, -346325.75, -2884.6233, 0.0034957002, -0.037387233, -140933.19, 28217.6, 0.0, 10.009061, 9.981867 
3.5539323e+2, 2.9272115e+2, -35130.48, -246673.27, -2716.1838, -0.008988965, -0.03026085, -35095.61, 36233.945, 0.0, 10.009687, 9.981673 
3.5543147e+2, 3.0270645e+2, 78295.7, -83816.99, 579.67065, -0.00997598, -0.02596846, 78297.77, 78297.77, 0.0, 10.010547, 9.9890585 
3.554704e+2, 3.126957e+2, 100642.62, -70022.06, 1569.147, 0.014634637, -0.03246566, 100657.05, 100657.05, 0.0, 10.011954, 9.989328 
3.647477e+2, 1.22829795e+2, -1789227.6, -1740894.6, -3281.35, -0.0074981586, -0.03332899, -1740672.9, -4407.8726, 0.00000008268434, 9.994441, 10.000834 
3.6478716e+2, 1.3282971e+2, -1687483.1, -1652662.4, -2925.8923, 0.010734952, -0.021831585, -1652418.3, -14152.447, 0.00000005368276, 9.995194, 9.9998 
3.6482608e+2, 1.428285e+2, -1589366.4, -1573280.1, -5050.32, -0.006818306, -0.045252774, -1571826.0, -31548.418, 0.000000028975498, 9.996013, 9.998134 
3.64865e+2, 1.5282665e+2, -1476491.3, -1469641.1, -5280.625, -0.003254337, -0.03195805, -1466772.0, -24476.2, 0.000000012326782, 9.99709, 9.997988 
3.6490375e+2, 1.6282374e+2, -1378696.0, -1394589.5, -6591.1265, -0.00048535736, -0.024101956, -1376318.4, -31993.898, 0.000000003959453, 9.998067, 9.995949 
3.6494243e+2, 1.7281955e+2, -1270426.1, -1292677.4, -7059.527, 0.0020815646, -0.029453984, -1268375.5, -22010.023, 0.0000000009365381, 9.99881, 9.995849 
3.6498094e+2, 1.8281431e+2, -1176212.0, -1221463.9, -8842.651, 0.002133848, -0.032128144, -1174545.5, -26128.922, 0.0000000001614897, 9.999633, 9.993622 
3.650191e+2, 1.928078e+2, -1064232.8, -1118412.3, -8587.944, -0.0045194514, -0.03302469, -1062904.1, -12423.573, 0.000000000020242613, 10.000658, 9.993464 
3.650573e+2, 2.0280029e+2, -966635.6, -1043623.7, -8547.017, -0.0067555383, -0.032592412, -965698.2, -13144.138, 0.0000000000018436379, 10.001622, 9.991413 
3.6509556e+2, 2.127916e+2, -857406.2, -941457.9, -8607.853, 0.0012140243, -0.032662548, -856533.7, -1894.4685, 0.00000000000012199398, 10.002441, 9.991296 
3.651338e+2, 2.2278194e+2, -761547.8, -867267.2, -8758.215, 0.0055399244, -0.031757113, -760827.1, -4093.2478, 0.0000000000000058651187, 10.003276, 9.989264 
3.6517197e+2, 2.327711e+2, -651483.25, -764658.94, -9168.977, 0.0010790597, -0.03200089, -650745.2, 8094.887, 0.0, 10.004152, 9.989149 
3.6521018e+2, 2.4275924e+2, -555461.75, -692021.1, -9246.913, -0.002087517, -0.030491497, -554838.44, 6117.86, 0.0, 10.005065, 9.986973 
3.6524835e+2, 2.527461e+2, -443962.9, -589145.3, -9058.775, -0.0018464962, -0.029019231, -443399.84, 19685.32, 0.0, 10.006059, 9.986821 
3.6528677e+2, 2.6273197e+2, -346855.1, -514679.94, -6982.5806, -0.00032970484, -0.028319035, -346565.06, 18658.805, 0.0, 10.006988, 9.98476 
3.653255e+2, 2.7271658e+2, -238307.08, -412755.72, -6432.3916, 0.003350961, -0.032591417, -238070.22, 29304.328, 0.0, 10.007757, 9.9846525 
3.6536428e+2, 2.8269988e+2, -147612.6, -349670.53, -5814.822, 0.0029572493, -0.033997994, -147445.39, 22092.492, 0.0, 10.008601, 9.981855 
3.654029e+2, 2.9268157e+2, -36216.105, -247411.48, -6588.2983, -0.006015683, -0.03255015, -36010.78, 35706.53, 0.0, 10.009612, 9.981653 
3.6544204e+2, 3.0266687e+2, 79369.17, -82770.195, -3238.9778, -0.006392866, -0.030635003, 79433.84, 79433.84, 0.0, 10.010587, 9.989105 
3.6548203e+2, 3.1265625e+2, 94132.266, -72451.46, -3035.0664, 0.010824642, -0.031481206, 94187.55, 94187.55, 0.0, 10.011464, 9.989389 
3.7474218e+2, 1.2278989e+2, -1787763.9, -1737110.9, 453.00443, -0.0067429715, -0.03849652, -1737106.9, -450.71667, 0.0000005532481, 9.99441, 10.001101 
3.747824e+2, 1.3278982e+2, -1689044.6, -1655213.0, -406.5889, 0.013830365, -0.012308487, -1655208.1, -16551.432, 0.00000035914545, 9.99517, 9.999635 
3.7482205e+2, 1.427884e+2, -1590302.9, -1574702.0, -1402.9231, -0.011211431, -0.04385397, -1574576.9, -33906.207, 0.00000019382824, 9.995992, 9.998043 
3.7486207e+2, 1.527864e+2, -1477210.3, -1470743.9, -1236.3816, -0.004930502, -0.035893574, -1470515.5, -27825.455, 0.00000008245099, 9.997075, 9.997916 
3.7490183e+2, 1.6278338e+2, -1379887.4, -1396854.5, -3615.9023, -0.0005653927, -0.029804002, -1379148.9, -34429.1, 0.000000026481976, 9.998061, 9.995793 
3.7494123e+2, 1.7277908e+2, -1271782.9, -1295289.8, -4322.994, 0.0002018513, -0.029314747, -1271013.0, -24250.98, 0.0000000062635124, 9.998804, 9.995669 
3.7498054e+2, 1.827738e+2, -1175943.5, -1220765.1, -5230.8174, 0.00049638824, -0.02833216, -1175341.1, -26527.406, 0.0000000010799891, 9.999626, 9.9936695 
3.7501982e+2, 1.9276735e+2, -1063492.6, -1116820.8, -4623.7207, -0.00096216146, -0.03142954, -1063094.8, -12217.82, 0.00000000013537126, 10.000655, 9.99357 
3.7505895e+2, 2.0275989e+2, -966694.44, -1043754.94, -5245.699, -0.0019183061, -0.033015527, -966339.0, -13389.003, 0.000000000012328863, 10.001623, 9.9914 
3.75098e+2, 2.1275115e+2, -857725.5, -942126.75, -5492.2983, -0.0010457353, -0.033594992, -857369.56, -2333.9514, 0.0000000000008157841, 10.002442, 9.991246 
3.7513703e+2, 2.2274144e+2, -762220.44, -868668.8, -5491.4165, -0.0008892889, -0.031728484, -761937.9, -4807.0176, 0.00000000000003921943, 10.003278, 9.989163 
3.7517607e+2, 2.3273051e+2, -652314.56, -766341.0, -5832.806, -0.0019543574, -0.028269423, -652017.0, 7220.958, 0.000000000000000000006929764, 10.00415, 9.989032 
3.7521523e+2, 2.4271859e+2, -555274.6, -691491.8, -5593.738, -0.0020021205, -0.02723498, -555045.3, 6309.453, 0.0000000000000000000002423796, 10.005059, 9.987007 
3.7525445e+2, 2.5270543e+2, -443513.9, -588018.6, -5337.671, 0.0005019924, -0.035765182, -443317.0, 20166.742, 0.0, 10.00605, 9.986897 
3.752938e+2, 2.6269135e+2, -346335.56, -513406.1, -3998.998, 0.0013343028, -0.03714002, -346239.88, 19381.918, 0.0, 10.006981, 9.984846 
3.7533322e+2, 2.726762e+2, -237759.52, -411444.34, -3680.3027, -0.0015753919, -0.026175216, -237681.56, 30088.682, 0.0, 10.007752, 9.98474 
3.7537283e+2, 2.8265962e+2, -148174.13, -350714.72, -2376.2043, -0.0016142235, -0.021614254, -148146.27, 21786.54, 0.0, 10.008597, 9.981781 
3.7541267e+2, 2.92641e+2, -37060.97, -249222.64, -2917.326, 0.0063361977, -0.036498602, -37020.863, 35094.074, 0.0, 10.009617, 9.981522 
3.754528e+2, 3.026261e+2, 78849.58, -83966.65, 24.319807, 0.007311444, -0.042073146, 78849.586, 78849.586, 0.0, 10.010595, 9.989013 
3.7549332e+2, 3.1261554e+2, 93453.375, -73549.07, 156.82175, -0.010548415, -0.027931122, 93453.52, 93453.52, 0.0, 10.011454, 9.989314 
3.8473666e+2, 1.2274912e+2, -1784021.9, -1733455.0, -1197.2845, -0.00538709, -0.04149388, -1733426.6, 3628.9714, 0.0000029192024, 9.99457, 10.0012665 
3.8477772e+2, 1.3274892e+2, -1686851.6, -1657152.0, -4647.3374, 0.015339999, -0.008587271, -1656441.8, -17384.146, 0.0000018948215, 9.995437, 9.999369 
3.8481814e+2, 1.4274725e+2, -1586837.5, -1573900.9, -5607.8984, -0.012812276, -0.04328315, -1571808.4, -30734.582, 0.0000010225369, 9.996257, 9.997961 
3.8485917e+2, 1.5274523e+2, -1476577.6, -1470696.6, -4970.8423, -0.003974569, -0.035844132, -1467861.6, -24768.068, 0.0000004349407, 9.997121, 9.997889 
3.8489988e+2, 1.6274215e+2, -1381029.0, -1398177.4, -7289.0547, 0.0012357613, -0.030669283, -1378349.5, -33225.668, 0.00000013969013, 9.998007, 9.995724 
3.849401e+2, 1.7273775e+2, -1269733.8, -1295221.3, -7476.69, -0.0012175521, -0.031331353, -1267702.4, -20535.43, 0.000000033038678, 9.998974, 9.995587 
3.8498026e+2, 1.827324e+2, -1172326.3, -1219414.3, -8076.423, -0.0016978907, -0.030307272, -1170979.6, -21760.248, 0.0000000056966374, 9.999882, 9.993631 
3.8502046e+2, 1.9272597e+2, -1063605.8, -1117144.1, -8470.064, 0.0013171824, -0.030605245, -1062297.8, -11015.298, 0.0000000007140435, 10.0006485, 9.993546 
3.8506055e+2, 2.0271851e+2, -969002.7, -1044968.8, -9774.688, 0.0023430982, -0.03052516, -967765.1, -14409.545, 0.00000000006503118, 10.001461, 9.991388 
3.851004e+2, 2.1270972e+2, -858349.25, -942518.94, -9776.232, -0.0016191548, -0.032951683, -857228.7, -1787.1704, 0.000000000004303039, 10.002397, 9.991234 
3.851403e+2, 2.2269998e+2, -761865.7, -868688.6, -9399.122, -0.0037101903, -0.032442454, -761045.0, -3507.9578, 0.00000000000020687176, 10.0033, 9.989145 
3.8518023e+2, 2.3268904e+2, -652558.56, -766729.5, -9150.039, -0.0012740743, -0.029026756, -651829.9, 7814.417, 0.00000000000000000020104626, 10.004136, 9.989006 
3.852203e+2, 2.4267711e+2, -556359.06, -692110.06, -8377.274, 0.0007945346, -0.028007293, -555844.06, 5917.274, 0.000000000000000000007029948, 10.004979, 9.986999 
3.852604e+2, 2.5266394e+2, -446417.44, -589497.56, -8675.296, 0.001484443, -0.035819944, -445893.34, 17996.969, 0.0, 10.005844, 9.986891 
3.8530064e+2, 2.6264983e+2, -349871.22, -514622.8, -8098.8667, 0.0010031398, -0.037258886, -349474.03, 16554.203, 0.0, 10.006705, 9.98489 
3.8534084e+2, 2.7263477e+2, -240184.38, -411963.0, -8104.182, -0.002262323, -0.028429, -239802.88, 28373.434, 0.0, 10.007546, 9.984798 
3.8538134e+2, 2.826182e+2, -150033.64, -351638.13, -5969.3936, -0.0019312295, -0.024080347, -149857.05, 20481.488, 0.0, 10.008461, 9.981776 
3.8542223e+2, 2.9259965e+2, -38344.137, -250086.48, -5670.2715, 0.008020618, -0.033777513, -38192.402, 34328.047, 0.0, 10.009527, 9.981501 
3.8546333e+2, 3.0258477e+2, 77183.87, -83863.16, -2939.965, 0.009804746, -0.037363663, 77237.516, 77237.516, 0.0, 10.010432, 9.989094 
3.8550448e+2, 3.1257424e+2, 86572.3, -75530.37, -1947.6688, -0.010967308, -0.0305231, 86595.695, 86595.695, 0.0, 10.010912, 9.989436 
3.9473122e+2, 1.227076e+2, -1784440.0, -1733462.8, 3374.6077, -0.0066046324, -0.0397016, -1733240.3, 4222.2134, 0.000012531762, 9.9945345, 10.001277 
3.9477313e+2, 1.3270698e+2, -1690207.9, -1663354.3, -1760.5237, 0.013913369, -0.01085561, -1663239.3, -23770.748, 0.0000081336, 9.995411, 9.998955 
3.948144e+2, 1.4270507e+2, -1587683.3, -1575157.4, -2616.8403, -0.013184479, -0.043527793, -1574632.8, -33145.305, 0.0000043890395, 9.996237, 9.997881 
3.9485633e+2, 1.5270309e+2, -1476643.9, -1470422.9, -1834.7932, -0.0017806233, -0.031590834, -1469922.0, -26415.46, 0.0000018668253, 9.997104, 9.997911 
3.948979e+2, 1.6270004e+2, -1381079.8, -1398031.4, -3850.1855, 0.0035184198, -0.025972504, -1380246.3, -34709.707, 0.0000005995586, 9.997997, 9.995733 
3.9493906e+2, 1.7269556e+2, -1269794.4, -1295157.3, -3844.347, -0.003630321, -0.03557643, -1269224.5, -21644.01, 0.00000014180438, 9.998966, 9.99559 
3.949801e+2, 1.8269013e+2, -1173273.9, -1221217.8, -5045.914, -0.006429775, -0.038456544, -1172748.6, -23114.979, 0.000000024450705, 9.999875, 9.993508 
3.950211e+2, 1.926836e+2, -1064795.3, -1119508.1, -5537.38, 0.00085348106, -0.030575631, -1064240.4, -12542.829, 0.0000000030648393, 10.000646, 9.993382 
3.9506203e+2, 2.0267609e+2, -969078.44, -1045097.44, -6343.751, 0.00415558, -0.025067667, -968552.7, -14781.371, 0.00000000027913746, 10.001461, 9.991376 
3.9510277e+2, 2.1266733e+2, -858082.4, -941995.1, -6160.8022, -0.002151583, -0.030345289, -857632.44, -1775.2479, 0.00000000001847093, 10.002398, 9.991265 
3.951436e+2, 2.2265758e+2, -761477.0, -867912.8, -6136.378, -0.004927515, -0.03340149, -761124.4, -3171.7683, 0.0000000000008880364, 10.003302, 9.989194 
3.9518443e+2, 2.3264666e+2, -652183.9, -765927.3, -5982.9956, 0.0010430096, -0.033859055, -651870.06, 8189.6426, 0.000000000000000004402075, 10.004134, 9.9890585 
3.9522532e+2, 2.4263473e+2, -556817.1, -692970.4, -5173.965, 0.0040998156, -0.032232333, -556620.75, 5555.7534, 0.00000000000000000015389045, 10.004976, 9.9869375 
3.9526623e+2, 2.5262156e+2, -447162.28, -590912.1, -5444.3125, 0.00011645285, -0.029915633, -446956.38, 17349.213, 0.0, 10.00584, 9.986791 
3.953073e+2, 2.6260746e+2, -349902.0, -514522.84, -4990.3184, -0.002612361, -0.029265745, -349750.88, 16693.047, 0.0, 10.0067, 9.984896 
3.9534843e+2, 2.725922e+2, -239996.42, -411483.1, -5046.5654, -0.0013492187, -0.038074132, -239848.05, 28745.219, 0.0, 10.007544, 9.984828 
3.9538983e+2, 2.8257564e+2, -149762.98, -350934.5, -2292.6296, -0.0005242596, -0.03956698, -149736.86, 21018.797, 0.0, 10.008455, 9.981822 
3.954317e+2, 2.9255733e+2, -38248.5, -249400.89, -1825.0892, -0.00018963954, -0.025593529, -38232.727, 34702.254, 0.0, 10.009509, 9.98155 
3.954737e+2, 3.025427e+2, 78484.15, -80670.23, -856.6219, 0.0007422685, -0.018964319, 78488.76, 78488.76, 0.0, 10.010415, 9.989315 
3.9551553e+2, 3.125322e+2, 88927.08, -71268.67, -519.23376, 0.0010289757, -0.03763494, 88928.766, 88928.766, 0.0, 10.010944, 9.989708 
4.0472582e+2, 1.22664906e+2, -1782716.0, -1732898.8, -238.12233, -0.0061916322, -0.0374616, -1732897.6, 4983.265, 0.00004485904, 9.994652, 10.001248 
4.0476862e+2, 1.3266407e+2, -1687612.0, -1664059.1, -5474.5693, 0.011113415, -0.016425222, -1662848.9, -22959.664, 0.00002911354, 9.995664, 9.998776 
4.0481082e+2, 1.4266208e+2, -1583337.4, -1574008.4, -5481.66, -0.010722441, -0.040991094, -1571475.3, -29566.555, 0.000015709626, 9.996565, 9.997792 
4.0485355e+2, 1.5266003e+2, -1473464.1, -1469478.6, -5352.8804, -0.0008213681, -0.030988786, -1465759.6, -21830.936, 0.000006681798, 9.997335, 9.997857 
4.0489596e+2, 1.6265692e+2, -1379224.1, -1397462.8, -7598.181, 0.0036029732, -0.026341056, -1376473.5, -30514.422, 0.0000021459712, 9.998128, 9.995702 
4.0493804e+2, 1.7265242e+2, -1269401.4, -1295284.9, -7849.3066, -0.0025160774, -0.034189567, -1267207.1, -19203.955, 0.00000050756734, 9.998999, 9.995559 
4.0497997e+2, 1.8264696e+2, -1173741.1, -1221990.9, -9400.1, -0.0051810816, -0.036662254, -1171974.5, -21917.83, 0.00000008752133, 9.999859, 9.993456 
4.0502176e+2, 1.9264035e+2, -1064418.4, -1119994.1, -9356.329, -0.00053378294, -0.031959146, -1062885.5, -10764.013, 0.000000010971236, 10.000693, 9.993319 
4.050635e+2, 2.0263277e+2, -968248.1, -1045017.9, -9539.724, 0.0020361617, -0.027887998, -967080.5, -12884.651, 0.0000000009993062, 10.001522, 9.991345 
4.0510517e+2, 2.1262401e+2, -858892.5, -942651.9, -9740.733, -0.0004762224, -0.030091343, -857774.6, -1492.9412, 0.00000000006613187, 10.002343, 9.9912405 
4.0514684e+2, 2.2261427e+2, -763072.0, -868505.1, -10164.235, -0.001370518, -0.031660177, -762101.06, -3723.9673, 0.0000000000031798247, 10.003175, 9.989208 
4.0518847e+2, 2.3260333e+2, -653401.44, -766242.8, -10259.361, 0.0010274515, -0.035087608, -652476.25, 8007.953, 0.0000000000000000688154, 10.00403, 9.989079 
4.052302e+2, 2.4259141e+2, -558057.3, -693423.44, -9333.415, 0.002235083, -0.03462176, -557416.8, 5184.102, 0.0000000000000000024051838, 10.004874, 9.986949 
4.05272e+2, 2.525783e+2, -449225.88, -591823.94, -8933.785, 0.00040460017, -0.028636027, -448668.34, 16061.265, 0.0, 10.005684, 9.986799 
4.0531394e+2, 2.625642e+2, -352322.06, -515898.66, -7868.908, -0.00041677663, -0.026155818, -351944.38, 14923.44, 0.0, 10.006534, 9.984876 
4.0535593e+2, 2.7254888e+2, -241174.8, -412378.6, -8326.031, 0.0007774972, -0.03766648, -240770.84, 28246.87, 0.0, 10.007467, 9.9847975 
4.0539822e+2, 2.825323e+2, -151289.06, -350906.38, -5929.394, 0.00026604073, -0.041196458, -151113.1, 20067.102, 0.0, 10.008306, 9.981891 
4.0544087e+2, 2.9251412e+2, -46185.17, -252110.25, -5238.6816, -0.0032966284, -0.027666371, -46051.984, 27306.59, 0.0, 10.008903, 9.981652 
4.054837e+2, 3.0249953e+2, 69247.055, -84436.69, -3870.9392, -0.0024549977, -0.020483678, 69344.5, 69344.5, 0.0, 10.009736, 9.98938 
4.0552664e+2, 3.1248912e+2, 92217.305, -69191.49, -4893.186, 0.0064406325, -0.03532581, 92365.51, 92365.51, 0.0, 10.011138, 9.989751 
4.1472048e+2, 1.2262109e+2, -1784063.5, -1734559.8, 4466.195, -0.00590024, -0.031797886, -1734160.0, 4150.352, 0.0001357749, 9.994604, 10.001152 
4.1476426e+2, 1.3262013e+2, -1687466.8, -1663091.8, -2043.7421, 0.0055737477, -0.02567059, -1662921.6, -22602.012, 0.00008811505, 9.995639, 9.998848 
4.1480744e+2, 1.426183e+2, -1584261.8, -1575454.9, -2623.9678, -0.0065784645, -0.035584297, -1574732.4, -32394.844, 0.000047546542, 9.996547, 9.997699 
4.1485086e+2, 1.5261604e+2, -1474744.3, -1471646.5, -2598.628, -0.0025190893, -0.034411434, -1470170.3, -25810.5, 0.000020223571, 9.997317, 9.997715 
4.1489407e+2, 1.6261278e+2, -1380036.8, -1398792.0, -4555.5024, -0.00034404776, -0.03244003, -1378988.8, -32597.047, 0.0000064954993, 9.998116, 9.995612 
4.149371e+2, 1.7260833e+2, -1270009.3, -1296327.3, -4613.4063, 0.00091198843, -0.027293013, -1269224.0, -20788.71, 0.0000015364569, 9.998991, 9.995485 
4.1497988e+2, 1.826029e+2, -1173668.6, -1221732.8, -6279.0254, 0.0006324052, -0.024533998, -1172861.9, -22373.236, 0.00000026496838, 9.999855, 9.993472 
4.1502243e+2, 1.9259617e+2, -1064158.0, -1119415.8, -6157.199, -0.0044119414, -0.034565996, -1063480.1, -10925.742, 0.000000033220672, 10.000692, 9.993355 
4.1506493e+2, 2.025885e+2, -968654.5, -1045881.06, -6390.148, -0.0060338327, -0.038765404, -968129.3, -13499.824, 0.0000000030265355, 10.001524, 9.991282 
4.1510755e+2, 2.1257974e+2, -859487.25, -943959.8, -6573.957, 0.0014341472, -0.031899773, -858978.7, -2263.2002, 0.00000000020034616, 10.002347, 9.991146 
4.1515008e+2, 2.2256999e+2, -763188.06, -868756.2, -6946.5933, 0.004687159, -0.02715725, -762732.9, -3921.941, 0.000000000009636878, 10.003177, 9.989185 
4.1519248e+2, 2.3255904e+2, -653393.4, -766192.94, -6995.1074, -0.0029622598, -0.032866556, -652961.2, 7957.0845, 0.0000000000000007946489, 10.004029, 9.98908 
4.15235e+2, 2.4254714e+2, -557579.56, -692318.8, -6251.5044, -0.006675631, -0.03491411, -557290.1, 5744.868, 0.000000000000000027769294, 10.004871, 9.987021 
4.152777e+2, 2.5253406e+2, -448651.16, -590466.06, -5932.0903, 0.0006194135, -0.031113345, -448403.47, 16759.51, 0.0, 10.005677, 9.986891 
4.1532052e+2, 2.6252002e+2, -352754.34, -516603.66, -4546.978, 0.005209424, -0.027023157, -352628.25, 14672.382, 0.0, 10.006527, 9.984826 
4.1536343e+2, 2.7250472e+2, -242036.48, -413850.13, -4910.6465, 0.0016508106, -0.02841567, -241896.25, 27554.3, 0.0, 10.007455, 9.984698 
4.1540653e+2, 2.8248814e+2, -150824.19, -349699.06, -3579.5098, -0.0019463587, -0.030312007, -150759.78, 20853.418, 0.0, 10.008298, 9.981973 
4.1544977e+2, 2.924699e+2, -45024.21, -249926.38, -3290.8462, -0.0034704152, -0.037685405, -44971.37, 28820.7, 0.0, 10.008917, 9.98179 
4.1549346e+2, 3.0245525e+2, 68856.914, -85556.56, 443.95688, -0.0021671792, -0.038690906, 68858.19, 68858.19, 0.0, 10.009752, 9.989287 
4.1553774e+2, 3.1244498e+2, 90653.15, -71716.5, 270.7747, 0.003306163, -0.026446272, 90653.6, 90653.6, 0.0, 10.011109, 9.989583 
4.2471528e+2, 1.22576214e+2, -1779839.1, -1734756.3, 1631.919, -0.0024052153, -0.02716519, -1734697.3, 4052.8977, 0.00035082738, 9.994977, 10.000948 
4.247599e+2, 1.3257523e+2, -1684141.4, -1659688.3, -5792.162, 0.00014034443, -0.03673341, -1658385.6, -17625.96, 0.00022768496, 9.995772, 9.999008 
4.2480403e+2, 1.4257365e+2, -1584213.1, -1576156.4, -6109.5107, -0.0006064128, -0.02925771, -1572866.6, -30091.49, 0.0001228659, 9.996572, 9.997633 
4.2484826e+2, 1.5257122e+2, -1473133.0, -1472379.0, -6060.6206, -0.0018949889, -0.032954656, -1466683.6, -21884.535, 0.000052266085, 9.997484, 9.997576 
4.2489225e+2, 1.625678e+2, -1377097.4, -1398060.6, -8044.572, -0.0030296652, -0.03455929, -1374366.3, -27533.627, 0.00001678997, 9.998335, 9.995549 
4.2493612e+2, 1.7256333e+2, -1269103.1, -1296335.5, -8013.719, 0.001162635, -0.02808723, -1266920.0, -18043.574, 0.000003972505, 9.999062, 9.995446 
4.2497978e+2, 1.8255787e+2, -1174081.8, -1222184.0, -9521.888, 0.0029986955, -0.02423877, -1172265.4, -21335.447, 0.00000068530704, 9.999826, 9.993449 
4.2502314e+2, 1.9255112e+2, -1063760.9, -1119422.4, -9817.557, -0.0032259582, -0.033916153, -1062080.0, -9084.057, 0.00000008596078, 10.000716, 9.993337 
4.250665e+2, 2.0254344e+2, -968047.7, -1045666.75, -10425.445, -0.005735513, -0.03819602, -966671.75, -11600.66, 0.000000007836224, 10.001557, 9.991274 
4.2510986e+2, 2.1253465e+2, -860161.06, -944387.8, -10119.646, 0.0010790529, -0.032735355, -858962.3, -1805.0029, 0.0000000005191636, 10.0022955, 9.991136 
4.251532e+2, 2.2252488e+2, -765005.56, -869960.44, -9895.991, 0.0044791163, -0.028405743, -764080.7, -4827.7144, 0.000000000025000514, 10.003056, 9.989157 
4.2519644e+2, 2.3251392e+2, -655661.3, -767796.75, -10218.631, -0.0015167164, -0.031630933, -654737.7, 6622.808, 0.0000000000000068380394, 10.003886, 9.989033 
4.252398e+2, 2.4250199e+2, -559567.1, -693148.4, -9859.743, -0.004607695, -0.03307868, -558843.3, 4634.0947, 0.00000000000000023892724, 10.004717, 9.987035 
4.2528328e+2, 2.524889e+2, -450157.84, -590956.4, -10101.98, -0.00046381605, -0.03382181, -449436.75, 16168.788, 0.0, 10.005553, 9.986912 
4.2532694e+2, 2.624749e+2, -354402.03, -516704.84, -8581.1045, 0.0028500145, -0.031516317, -353949.63, 13793.363, 0.0, 10.006371, 9.984889 
4.2537072e+2, 2.7245972e+2, -246003.47, -414970.9, -7787.551, 0.0023597341, -0.02711326, -245645.31, 24246.363, 0.0, 10.007135, 9.984771 
4.2541468e+2, 2.8244317e+2, -155649.86, -352449.2, -6053.2637, 0.0008088898, -0.026264455, -155463.84, 16589.914, 0.0, 10.007976, 9.981935 
4.254587e+2, 2.924248e+2, -44889.758, -250727.95, -7285.005, -0.0015971109, -0.038592897, -44632.25, 29601.55, 0.0, 10.008952, 9.981712 
4.2550325e+2, 3.0241016e+2, 70452.53, -83634.32, -3621.3208, -0.0012054069, -0.04225707, 70537.59, 70537.59, 0.0, 10.009803, 9.989387 
4.2554843e+2, 3.124e+2, 80198.2, -74865.164, -1726.2849, 0.0023050373, -0.027361514, 80217.414, 80217.414, 0.0, 10.0103, 9.98975 
4.347103e+2, 1.2253031e+2, -1782911.1, -1740122.4, 4954.8633, -0.000044020202, -0.025488561, -1739556.1, -356.30154, 0.00078514614, 9.994939, 10.000597 
4.347556e+2, 1.3252935e+2, -1683055.8, -1656549.3, -3221.9822, -0.00669578, -0.049389303, -1656163.3, -14953.883, 0.00050963036, 9.995737, 9.999233 
4.3480068e+2, 1.4252809e+2, -1584874.5, -1576817.5, -3059.436, 0.005518404, -0.02141042, -1575787.5, -32565.8, 0.00027507497, 9.996544, 9.997596 
4.3484578e+2, 1.5252553e+2, -1474254.6, -1474256.8, -2743.557, -0.0011583291, -0.026059283, -1471512.1, -26265.295, 0.00011705333, 9.997469, 9.997451 
4.3489057e+2, 1.6252197e+2, -1377526.4, -1398707.8, -5350.9185, -0.0071545653, -0.03216526, -1376251.4, -28969.684, 0.000037619757, 9.998327, 9.995504 
4.3493515e+2, 1.7251737e+2, -1269313.6, -1296583.8, -5383.1626, -0.0033111877, -0.03632398, -1268289.5, -18962.854, 0.000008906541, 9.999056, 9.995427 
4.349796e+2, 1.8251184e+2, -1174600.8, -1223120.1, -6388.4575, 0.0003263044, -0.03574198, -1173773.8, -22392.86, 0.0000015378395, 9.999823, 9.993382 
4.3502393e+2, 1.9250517e+2, -1064301.4, -1120510.6, -6415.2007, 0.0010042966, -0.030085979, -1063578.5, -10132.325, 0.00000019312868, 10.000716, 9.993258 
4.350681e+2, 2.0249754e+2, -967706.0, -1044973.2, -7508.704, 0.00023621209, -0.02626734, -966983.06, -11462.044, 0.000000017634331, 10.00156, 9.991316 
4.3511212e+2, 2.1248871e+2, -859513.8, -943143.5, -7261.6353, -0.0031182412, -0.032527857, -858887.94, -1280.4957, 0.0000000011708853, 10.002301, 9.991214 
4.351562e+2, 2.2247893e+2, -765215.2, -870550.5, -6791.245, -0.0036698375, -0.0349314, -764779.2, -5075.7905, 0.000000000056553692, 10.003064, 9.989108 
4.352004e+2, 2.3246792e+2, -656282.1, -769115.3, -7017.7363, 0.003092792, -0.03095293, -655847.3, 5963.8857, 0.000000000000044721503, 10.003888, 9.988939 
4.3524462e+2, 2.4245594e+2, -560032.7, -694046.5, -6726.39, 0.0055236267, -0.028807208, -559695.94, 4232.637, 0.000000000000001562477, 10.004715, 9.98697 
4.3528882e+2, 2.5244275e+2, -450663.53, -591780.7, -6972.6196, -0.0037821014, -0.036526863, -450319.88, 15738.003, 0.0, 10.005544, 9.986855 
4.3533322e+2, 2.624287e+2, -353482.63, -514488.97, -5717.9854, -0.008291159, -0.038732525, -353279.8, 14915.623, 0.0, 10.006359, 9.985041 
4.3537784e+2, 2.7241376e+2, -244577.11, -411772.6, -5086.5264, 0.0005653479, -0.032504868, -244422.52, 25919.41, 0.0, 10.007127, 9.984989 
4.354227e+2, 2.8239733e+2, -156847.34, -354669.5, -2777.4346, 0.005609377, -0.028017696, -156808.34, 15694.546, 0.0, 10.007964, 9.981784 
4.354677e+2, 2.9237878e+2, -47080.38, -254931.4, -3791.6963, 0.00096230005, -0.03203309, -47011.23, 27673.654, 0.0, 10.008939, 9.981425 
4.3551305e+2, 3.0236408e+2, 72132.62, -79900.08, -1506.7856, -0.0018437407, -0.0338146, 72147.55, 72147.55, 0.0, 10.009798, 9.98964 
4.355587e+2, 3.1235418e+2, 83550.33, -68222.984, -256.41403, -0.0019326626, -0.035005305, 83550.76, 83550.76, 0.0, 10.010317, 9.990193 
4.4470543e+2, 1.22483656e+2, -1781518.6, -1743769.6, 2970.566, 0.0048180614, -0.024722036, -1743537.4, -3880.259, 0.0015538043, 9.99521, 10.000213 
4.447514e+2, 1.3248268e+2, -1677449.1, -1652731.6, -6270.131, -0.012857066, -0.052859772, -1651232.0, -9565.363, 0.0010089569, 9.99606, 9.999329 
4.447974e+2, 1.4248157e+2, -1579834.4, -1574425.9, -6736.9097, 0.007676253, -0.017478768, -1569870.8, -26193.076, 0.0005448942, 9.99688, 9.997587 
4.4484332e+2, 1.5247893e+2, -1472288.8, -1473774.0, -5878.477, 0.0010211596, -0.024586733, -1467106.1, -21402.703, 0.00023205215, 9.997611, 9.997408 
4.4488892e+2, 1.6247532e+2, -1377140.1, -1399081.8, -8298.01, -0.005912544, -0.033109557, -1374355.4, -26616.443, 0.00007466019, 9.998369, 9.995452 
4.4493428e+2, 1.7247066e+2, -1267373.9, -1296257.3, -8712.057, -0.0040479563, -0.03770724, -1264949.6, -15165.167, 0.000017702305, 9.999205, 9.995371 
4.4497946e+2, 1.8246508e+2, -1172254.1, -1222406.9, -9870.439, -0.0008923267, -0.03669497, -1170381.5, -18542.379, 0.000003062777, 9.999991, 9.993342 
4.450246e+2, 1.9245839e+2, -1065206.3, -1121331.4, -9696.679, 0.0024132875, -0.029320687, -1063578.3, -9673.501, 0.0000003857046, 10.000662, 9.993223 
4.450696e+2, 2.0245072e+2, -970296.5, -1046469.8, -10754.084, 0.0029162993, -0.025046248, -968807.4, -12827.625, 0.00000003535121, 10.001384, 9.991293 
4.4511437e+2, 2.1244186e+2, -860316.3, -943785.2, -11302.557, -0.0030577274, -0.033210102, -858812.9, -746.2902, 0.000000002359298, 10.002247, 9.99119 
4.4515923e+2, 2.2243205e+2, -764762.06, -870211.5, -11180.259, -0.0048628943, -0.03634768, -763589.7, -3427.0154, 0.000000000114745775, 10.0030775, 9.989119 
4.4520426e+2, 2.3242109e+2, -656550.9, -769022.5, -10618.197, 0.0027767196, -0.031221664, -655557.2, 6713.01, 0.00000000000022836846, 10.003848, 9.988959 
4.452493e+2, 2.4240914e+2, -561477.44, -694745.56, -9636.841, 0.0062776883, -0.028238878, -560784.2, 3603.177, 0.0000000000000079783024, 10.004606, 9.986969 
4.452943e+2, 2.5239593e+2, -453604.72, -593342.44, -9599.2, -0.0016821568, -0.034985777, -452948.4, 13568.288, 0.0, 10.005337, 9.986843 
4.4533944e+2, 2.623819e+2, -356976.1, -515970.75, -8335.011, -0.005769454, -0.037445273, -356540.34, 12113.912, 0.0, 10.006099, 9.985062 
4.4538486e+2, 2.7236694e+2, -247254.0, -412851.75, -9032.718, -0.000005704717, -0.035068393, -246762.75, 24038.104, 0.0, 10.006922, 9.985008 
4.4543055e+2, 2.823505e+2, -159523.0, -355267.78, -6763.086, 0.003483691, -0.031784277, -159289.61, 13671.986, 0.0, 10.007738, 9.981846 
4.454764e+2, 2.9233208e+2, -52954.977, -256932.39, -5500.2354, 0.0018736789, -0.030292267, -52806.77, 22335.594, 0.0, 10.008486, 9.9815035 
4.4552264e+2, 3.0231747e+2, 65572.46, -82936.64, -2430.1768, 0.0007632986, -0.029539848, 65612.22, 65612.22, 0.0, 10.009324, 9.98966 
4.4556904e+2, 3.1230757e+2, 83765.34, -68288.586, -4199.859, -0.002289608, -0.03602669, 83881.26, 83881.26, 0.0, 10.010321, 9.990184 
4.5470062e+2, 1.2243627e+2, -1785280.8, -1750283.6, 5136.1147, 0.006828192, -0.027317276, -1749545.4, -9423.927, 0.0027803245, 9.995161, 9.99979 
4.547474e+2, 1.3243529e+2, -1678367.9, -1653810.5, -3284.188, -0.019924773, -0.04572748, -1653378.9, -11247.657, 0.0018069525, 9.99603, 9.999265 
4.5479426e+2, 1.4243405e+2, -1579983.9, -1574236.4, -4222.3105, 0.003919948, -0.018068168, -1572002.6, -27859.291, 0.0009770269, 9.996861, 9.997603 
4.5484093e+2, 1.5243143e+2, -1472253.6, -1473252.6, -3339.141, 0.0028217915, -0.029252619, -1469376.9, -23207.826, 0.00041677037, 9.997595, 9.997445 
4.5488733e+2, 1.624278e+2, -1377742.6, -1399987.4, -5448.051, -0.0012118871, -0.037886407, -1376480.0, -28275.594, 0.00013439546, 9.998357, 9.995392 
4.5493346e+2, 1.7242314e+2, -1268213.6, -1297783.3, -5657.6094, -0.0026191098, -0.032269813, -1267168.1, -16918.053, 0.000031964762, 9.999199, 9.995264 
4.5497942e+2, 1.8241754e+2, -1172429.6, -1222621.6, -7342.992, -0.0026700755, -0.027026892, -1171377.5, -19072.396, 0.000005553748, 9.999989, 9.993324 
4.5502523e+2, 1.9241074e+2, -1065131.5, -1121211.8, -7184.9346, -0.0010451885, -0.031777818, -1064225.6, -9853.931, 0.00000070340104, 10.000667, 9.993223 
4.5507097e+2, 2.0240298e+2, -970891.0, -1047731.06, -7672.45, -0.00025543073, -0.034278087, -970132.4, -13684.752, 0.000000064967765, 10.001387, 9.991201 
4.5511666e+2, 2.1239406e+2, -861211.9, -945662.44, -7937.634, -0.0005292717, -0.03414385, -860472.25, -1937.2136, 0.0000000043809485, 10.002248, 9.991057 
4.5516238e+2, 2.2238423e+2, -764314.5, -869323.9, -8168.8916, -0.001209439, -0.032258663, -763682.8, -3051.4922, 0.00000000021602262, 10.003081, 9.989172 
4.5520803e+2, 2.3237334e+2, -655678.94, -767181.2, -7703.4917, -0.0038295903, -0.032159317, -655149.25, 7588.944, 0.0000000000009414817, 10.003847, 9.989081 
4.552538e+2, 2.4236149e+2, -561113.5, -693823.0, -6872.38, -0.00388623, -0.030743806, -560758.56, 4095.8499, 0.000000000000032891313, 10.004601, 9.987031 
4.5529968e+2, 2.523484e+2, -453486.47, -592923.9, -6884.659, 0.0036196539, -0.029317768, -453147.34, 13835.369, 0.0, 10.00533, 9.986873 
4.553457e+2, 2.6233435e+2, -357795.0, -517564.22, -5395.511, 0.0072221044, -0.028231943, -357612.97, 11507.195, 0.0, 10.006096, 9.984949 
4.553918e+2, 2.7231914e+2, -248523.47, -415345.47, -6039.391, -0.0015865271, -0.03469438, -248305.11, 22964.115, 0.0, 10.006919, 9.984834 
4.5543817e+2, 2.8230268e+2, -157999.22, -351851.6, -4094.0398, -0.007170294, -0.0365973, -157912.8, 15517.835, 0.0, 10.007728, 9.9820795 
4.554849e+2, 2.922846e+2, -50371.313, -251422.77, -3057.1714, 0.000030865915, -0.03203699, -50324.836, 25282.7, 0.0, 10.008482, 9.981877 
4.55532e+2, 3.022702e+2, 64072.305, -85903.336, 749.8242, 0.0045808936, -0.028262243, 64076.05, 64076.05, 0.0, 10.009318, 9.989453 
4.5557937e+2, 3.122599e+2, 80527.84, -74531.48, -713.0207, -0.0027353894, -0.03088261, 80531.12, 80531.12, 0.0, 10.010301, 9.98976 
4.64696e+2, 1.2238808e+2, -1780335.0, -1749339.3, 827.1014, 0.007985849, -0.028329758, -1749317.3, -8723.421, 0.004589857, 9.995551, 9.999659 
4.6474352e+2, 1.323872e+2, -1675260.9, -1652085.1, -5047.9375, -0.019123664, -0.036718063, -1651033.4, -8430.919, 0.0029879087, 9.996217, 9.999287 
4.6479118e+2, 1.4238581e+2, -1578402.0, -1574125.6, -6109.8906, 0.0050953557, -0.025369894, -1569790.6, -25174.398, 0.0016192476, 9.996985, 9.997548 
4.6483862e+2, 1.5238313e+2, -1470162.9, -1473278.6, -6292.961, 0.0037766425, -0.031996, -1465237.9, -18595.604, 0.00069287396, 9.99777, 9.997354 
4.6488577e+2, 1.6237947e+2, -1375460.8, -1399477.1, -9022.09, -0.00022263636, -0.03632081, -1372449.1, -23771.096, 0.00022437889, 9.998526, 9.995338 
4.649327e+2, 1.7237478e+2, -1267910.9, -1298179.9, -8876.978, -0.0009293411, -0.030158637, -1265499.6, -14775.566, 0.000053673917, 9.999231, 9.995216 
4.6497944e+2, 1.8236913e+2, -1173003.5, -1223236.5, -10469.163, -0.0009810897, -0.02571294, -1170908.9, -18129.36, 0.000009398119, 9.999949, 9.993297 
4.6502593e+2, 1.9236226e+2, -1064093.3, -1121075.3, -10666.341, -0.0019438011, -0.03354815, -1062162.1, -7315.414, 0.0000012027082, 10.000738, 9.993194 
4.650724e+2, 2.0235448e+2, -969309.1, -1047355.75, -11074.047, -0.0017695972, -0.03695359, -967768.25, -10845.246, 0.00000011262272, 10.001498, 9.991168 
4.651189e+2, 2.1234556e+2, -861912.0, -946488.3, -10699.525, 0.0010173933, -0.03327009, -860579.44, -1568.9603, 0.000000007732489, 10.00221, 9.9910145 
4.651654e+2, 2.2233573e+2, -766721.44, -870435.75, -10798.166, 0.0018556368, -0.030113291, -765609.1, -4502.299, 0.00000000039024706, 10.002903, 9.989179 
4.6521175e+2, 2.323248e+2, -659424.6, -768963.5, -11197.649, -0.0036758315, -0.03288605, -658291.6, 4922.234, 0.0000000000032348013, 10.003579, 9.989083 
4.6525827e+2, 2.4231294e+2, -564858.94, -695190.1, -10638.919, -0.0051957024, -0.03282607, -563996.2, 1333.8176, 0.00000000000011301746, 10.004311, 9.987072 
4.6530494e+2, 2.522999e+2, -455008.66, -593356.75, -10600.972, 0.00381533, -0.030140221, -454201.06, 13256.831, 0.0, 10.005201, 9.986898 
4.653518e+2, 2.6228592e+2, -358236.38, -517601.06, -8873.933, 0.008504801, -0.027807673, -357743.75, 11851.236, 0.0, 10.006044, 9.984966 
4.6539858e+2, 2.722707e+2, -251034.52, -416520.47, -8439.691, -0.0010303457, -0.032710902, -250605.22, 21138.607, 0.0, 10.006729, 9.984842 
4.6544576e+2, 2.8225428e+2, -161736.39, -353659.06, -6080.7437, -0.0070458637, -0.034300894, -161543.94, 12361.19, 0.0, 10.007462, 9.982079 
4.6549323e+2, 2.9223618e+2, -53649.563, -253118.98, -7573.5347, 0.00013830536, -0.0330703, -53362.42, 22720.004, 0.0, 10.008248, 9.981867 
4.6554118e+2, 3.0222178e+2, 61365.4, -85408.75, -4228.7275, 0.005198342, -0.0313966, 61487.133, 61487.133, 0.0, 10.00905, 9.989605 
4.6558934e+2, 3.122117e+2, 73756.914, -75261.09, -1809.6002, -0.0016608338, -0.031749528, 73778.88, 73778.88, 0.0, 10.009726, 9.989978 
4.7469148e+2, 1.2233912e+2, -1779543.5, -1746608.5, 20.09938, 0.000071323295, -0.029588956, -1746608.4, -5534.6816, 0.007113215, 9.995511, 9.999859 
4.7473982e+2, 1.3233848e+2, -1675169.5, -1650925.8, -2462.1963, -0.011352904, -0.025172029, -1650678.1, -7598.296, 0.004643645, 9.996181, 9.999376 
4.7478822e+2, 1.4233682e+2, -1579841.1, -1576350.0, -3507.4844, 0.009921187, -0.039301362, -1574177.8, -29081.668, 0.0025262511, 9.996957, 9.997405 
4.748364e+2, 1.5233406e+2, -1472134.5, -1476895.5, -3531.9592, 0.0008306066, -0.032361005, -1470255.8, -23132.64, 0.0010866441, 9.997756, 9.997109 
4.7488424e+2, 1.6233033e+2, -1375909.1, -1400117.4, -6606.0864, -0.0072397194, -0.02790663, -1374223.8, -25063.928, 0.00035438547, 9.998516, 9.995295 
4.7493196e+2, 1.7232555e+2, -1267812.4, -1297838.8, -6362.1294, -0.0017968449, -0.03127587, -1266520.0, -15313.432, 0.000085576154, 9.9992285, 9.9952345 
4.749794e+2, 1.8231982e+2, -1173284.8, -1223786.8, -7715.8564, 0.001710302, -0.032767594, -1172132.3, -18869.654, 0.000015172572, 9.99995, 9.993255 
4.750267e+2, 1.9231296e+2, -1064539.9, -1122122.5, -7696.3813, -0.002211071, -0.033931594, -1063528.9, -8199.084, 0.0000019737136, 10.000748, 9.993113 
4.7507387e+2, 2.0230518e+2, -969055.1, -1046914.1, -8412.346, -0.004260822, -0.032732856, -968156.6, -10750.464, 0.00000018875323, 10.001503, 9.991192 
4.751211e+2, 2.1229628e+2, -861501.4, -945674.6, -7955.2837, -0.0005831744, -0.03093084, -860756.1, -1262.8572, 0.000000013307983, 10.002212, 9.991065 
4.7516832e+2, 2.2228645e+2, -767003.5, -871043.9, -8165.9844, 0.0018991324, -0.029654397, -766366.5, -4776.87, 0.00000000069387657, 10.002906, 9.989131 
4.752154e+2, 2.3227544e+2, -660036.1, -770380.9, -8560.769, 0.00087774865, -0.032977596, -659375.94, 4321.678, 0.000000000009472845, 10.003586, 9.98898 
4.7526264e+2, 2.4226351e+2, -564885.75, -695321.06, -7485.0693, -0.00043588615, -0.034190416, -564457.6, 1356.8977, 0.00000000000033105902, 10.004315, 9.987056 
4.753101e+2, 2.522504e+2, -455084.75, -593230.5, -7257.286, -0.002189627, -0.03662121, -454704.53, 13238.235, 0.000000000000000004361499, 10.005188, 9.986909 
4.7535774e+2, 2.6223648e+2, -357614.34, -515802.84, -6175.7554, -0.0026804407, -0.035191584, -357373.6, 12705.786, 0.000000000000000025260425, 10.006024, 9.985094 
4.7540534e+2, 2.7222154e+2, -250184.72, -414418.9, -6071.868, -0.00091712794, -0.029884342, -249960.55, 22265.297, 0.00000000000000010669206, 10.006717, 9.984987 
4.7545332e+2, 2.8220516e+2, -163273.56, -356596.06, -3410.9905, -0.00009523075, -0.025800347, -163213.39, 11172.978, 0.00000000000000033199385, 10.007451, 9.981878 
4.755015e+2, 2.9218665e+2, -56355.14, -258448.6, -4801.8276, 0.00046429993, -0.032520875, -56241.113, 20326.68, 0.00000000000000078039946, 10.008239, 9.981502 
4.755502e+2, 3.021721e+2, 64419.754, -78848.26, -1674.439, 0.001306988, -0.038187448, 64439.32, 64439.32, 0.0000000000000014474501, 10.009046, 9.99005 
4.755991e+2, 3.1216285e+2, 79248.336, -64023.793, 242.11853, -0.0022396331, -0.030008629, 79248.74, 79248.74, 0.0000000000000022339833, 10.00974, 9.990735 
4.8468697e+2, 1.2228974e+2, -1777528.4, -1743881.9, -2328.492, -0.0009669829, -0.03504664, -1743721.5, -2163.8882, 0.01049777, 9.9955635, 10.00002 
4.847362e+2, 1.3228908e+2, -1671825.6, -1651999.8, -3311.8926, -0.006054628, -0.016450634, -1651461.1, -7897.135, 0.0068823104, 9.9965105, 9.99914 
4.847854e+2, 1.4228708e+2, -1573034.0, -1574539.3, -6796.0093, 0.00810771, -0.044285048, -1566949.0, -21365.514, 0.0037656925, 9.997477, 9.997267 
4.8483425e+2, 1.5228425e+2, -1468451.1, -1476250.0, -6291.759, 0.0006308495, -0.032845516, -1464948.4, -17337.2, 0.0016323061, 9.998047, 9.997006 
4.8488283e+2, 1.6228046e+2, -1374401.4, -1400048.8, -8670.817, -0.0060381116, -0.025488824, -1371745.1, -22096.648, 0.00053782034, 9.998639, 9.9952345 
4.8493123e+2, 1.722756e+2, -1266245.1, -1297628.6, -8928.888, -0.0009824703, -0.032375704, -1263882.6, -12186.659, 0.00013162919, 9.999347, 9.995189 
4.8497942e+2, 1.8226981e+2, -1172157.3, -1223900.0, -10720.698, 0.0027537327, -0.0354159, -1170024.0, -16271.315, 0.000023746588, 10.000048, 9.993194 
4.8502743e+2, 1.9226292e+2, -1065114.3, -1123166.3, -10690.74, -0.00083779916, -0.033018336, -1063208.1, -7387.862, 0.0000031577385, 10.00073, 9.993045 
4.8507535e+2, 2.022551e+2, -970410.5, -1047635.94, -11642.73, -0.0030046152, -0.030086689, -968693.44, -10796.545, 0.00000031029586, 10.001404, 9.991184 
4.8512325e+2, 2.1224618e+2, -863102.56, -946395.56, -11622.808, -0.00050627254, -0.03096944, -861511.1, -1526.9302, 0.000000022599854, 10.002089, 9.99107 
4.8517114e+2, 2.2223637e+2, -768452.44, -871770.25, -11823.953, 0.0017535198, -0.03139851, -767116.56, -5035.9985, 0.000000001223376, 10.002795, 9.989131 
4.85219e+2, 2.3222531e+2, -659779.25, -770599.6, -11652.294, 0.0018278667, -0.03399727, -658567.3, 5621.436, 0.000000000023981296, 10.003607, 9.98895 
4.8526695e+2, 2.4221338e+2, -564221.3, -694991.4, -10230.687, 0.0010753905, -0.033964533, -563425.75, 2879.9558, 0.0000000000008389532, 10.00435, 9.987058 
4.853151e+2, 2.522003e+2, -458627.53, -595009.56, -10088.191, -0.003019161, -0.034634653, -457885.34, 10548.486, 0.0000000000000001261701, 10.004936, 9.986904 
4.8536348e+2, 2.621864e+2, -363384.5, -517859.97, -9008.837, -0.0042829923, -0.034483384, -362860.9, 7709.3223, 0.00000000000000073087254, 10.005582, 9.985164 
4.8541188e+2, 2.7217144e+2, -254266.27, -415771.06, -9494.34, 0.000598075, -0.034949813, -253710.05, 19006.563, 0.0000000000000030875687, 10.006395, 9.985045 
4.8546067e+2, 2.8215516e+2, -166246.83, -357320.1, -6546.183, 0.003007153, -0.029189555, -166022.81, 8853.466, 0.000000000000009609587, 10.007205, 9.981942 
4.8550954e+2, 2.9213682e+2, -60994.156, -260260.75, -5466.046, 0.000024148565, -0.023783615, -60844.33, 16211.745, 0.000000000000022592925, 10.00789, 9.981544 
4.8555905e+2, 3.0212218e+2, 59425.246, -81139.8, -1294.6307, -0.0010251976, -0.042329118, 59437.168, 59437.168, 0.00000000000004190963, 10.0086775, 9.990072 
4.8560876e+2, 3.12113e+2, 76456.36, -65186.816, -4368.8247, 0.0010630087, -0.031217648, 76590.984, 76590.984, 0.000000000000064683685, 10.009516, 9.99076 
4.9468255e+2, 1.2224009e+2, -1777772.5, -1742903.1, -3142.5076, 0.00017449126, -0.042418815, -1742622.3, -578.1819, 0.014911252, 9.995507, 10.00011 
4.9473274e+2, 1.3223901e+2, -1676898.6, -1661475.3, 515.2939, -0.0054758126, -0.011240071, -1661458.0, -17403.52, 0.009830928, 9.996475, 9.998505 
4.9478278e+2, 1.4223656e+2, -1574275.9, -1576570.3, -4543.641, -0.0031683068, -0.040463183, -1570736.9, -24658.059, 0.0054196375, 9.9974575, 9.997132 
4.9483234e+2, 1.522337e+2, -1468358.6, -1475708.1, -4485.3716, 0.0003294984, -0.034131993, -1466234.9, -18128.314, 0.0023727028, 9.998036, 9.997042 
4.9488157e+2, 1.6222988e+2, -1375026.5, -1401151.8, -6398.578, 0.00050374493, -0.02966646, -1373543.5, -23399.379, 0.00079196517, 9.998635, 9.995155 
4.949306e+2, 1.7222491e+2, -1267213.9, -1299553.4, -6459.5137, -0.0006486404, -0.03328063, -1265971.4, -13778.753, 0.00019707251, 9.999349, 9.995049 
4.9497944e+2, 1.8221904e+2, -1172740.0, -1224951.5, -8313.871, -0.0011041155, -0.0339153, -1171448.1, -17197.865, 0.000036298647, 10.000044, 9.993119 
4.9502817e+2, 1.9221207e+2, -1065466.6, -1123937.6, -8189.2134, -0.0012197853, -0.031703852, -1064341.3, -8022.831, 0.0000049503406, 10.000735, 9.992985 
4.9507678e+2, 2.0220421e+2, -970554.6, -1048050.1, -9176.011, -0.0015735665, -0.029620713, -969482.94, -11087.2705, 0.00000050112493, 10.001412, 9.991147 
4.9512535e+2, 2.1219523e+2, -863202.1, -946846.1, -8993.202, -0.0013497567, -0.03268937, -862246.1, -1762.5992, 0.000000037748414, 10.002102, 9.991028 
4.9517393e+2, 2.2218536e+2, -768197.2, -871378.2, -8900.5, -0.0011486016, -0.0344867, -767435.0, -4854.819, 0.0000000021194788, 10.002802, 9.98915 
4.9522257e+2, 2.3217437e+2, -659534.06, -770087.9, -8547.353, -0.0020991198, -0.0359394, -658877.1, 5810.858, 0.00000000005330912, 10.003606, 9.988982 
4.952713e+2, 2.4216251e+2, -564131.06, -694674.0, -7838.3506, -0.0022275217, -0.032325923, -563662.06, 3142.2234, 0.000000000001871645, 10.004346, 9.987077 
4.953201e+2, 2.521495e+2, -458826.63, -595206.0, -7927.58, -0.0005613149, -0.024830697, -458367.34, 10564.371, 0.000000000000009575241, 10.004927, 9.986893 
4.9536914e+2, 2.621356e+2, -363567.88, -518036.56, -6232.999, 0.0011375997, -0.026083123, -363316.75, 7751.472, 0.000000000000055453838, 10.005573, 9.985151 
4.954183e+2, 2.721204e+2, -254703.25, -416479.2, -6550.1167, 0.0016533615, -0.04677278, -254438.48, 18778.406, 0.0000000000002341752, 10.006388, 9.984996 
4.9546784e+2, 2.8210416e+2, -164356.7, -353197.63, -4052.8906, 0.0002913285, -0.04240167, -164269.75, 11106.117, 0.0000000000007286158, 10.007196, 9.9822235 
4.9551743e+2, 2.9208648e+2, -58440.83, -254715.22, -3312.8906, -0.0028600737, -0.006769465, -58384.926, 19164.137, 0.0000000000017125554, 10.007881, 9.98192 
4.9556768e+2, 3.0207175e+2, 56805.65, -86313.5, 1401.3782, -0.0040094024, -0.0460308, 56819.37, 56819.37, 0.0000000000031753393, 10.008671, 9.989713 
4.9561834e+2, 3.12062e+2, 72245.26, -73504.32, -1645.2719, 0.004027899, -0.030958908, 72263.83, 72263.83, 0.000000000004897224, 10.0095005, 9.9901905 
5.046783e+2, 1.2218953e+2, -1768764.1, -1737660.4, -8857.438, 0.0006295518, -0.040809225, -1735315.0, 7224.5264, 0.020533854, 9.996067, 10.000196 
5.047294e+2, 1.3218807e+2, -1674530.9, -1664675.1, -1245.5668, -0.00050896354, -0.018149499, -1664520.1, -19966.324, 0.013628187, 9.996808, 9.998121 
5.0478023e+2, 1.421854e+2, -1573802.3, -1577852.4, -6083.7524, -0.0057418183, -0.036685765, -1569415.4, -22835.465, 0.0075791995, 9.99754, 9.997004 
5.048304e+2, 1.5218247e+2, -1466161.0, -1475229.0, -7065.099, 0.0007269232, -0.034132767, -1462300.3, -13691.617, 0.0033562193, 9.9981985, 9.996992 
5.048803e+2, 1.6217855e+2, -1372488.8, -1401049.1, -9340.599, 0.0030978827, -0.03226692, -1369705.3, -19058.15, 0.0011366707, 9.998844, 9.995057 
5.0493e+2, 1.7217351e+2, -1265687.0, -1300253.4, -9299.038, -0.0003732049, -0.033124253, -1263344.1, -10647.734, 0.00028802847, 9.999504, 9.994922 
5.0497955e+2, 1.8216753e+2, -1171600.5, -1225257.5, -11205.238, -0.0018382306, -0.032304265, -1169354.5, -14599.369, 0.000054231128, 10.000145, 9.993045 
5.0502896e+2, 1.9216049e+2, -1064813.3, -1124374.1, -11161.155, -0.00007945489, -0.03246906, -1062790.5, -5966.4253, 0.0000075890043, 10.000798, 9.992921 
5.050782e+2, 2.0215255e+2, -970256.7, -1048223.06, -12240.792, 0.00073695893, -0.03154608, -968380.06, -9478.236, 0.00000079091893, 10.001431, 9.991123 
5.0512743e+2, 2.1214357e+2, -863782.6, -947482.8, -12065.228, -0.0009959249, -0.032860473, -862078.1, -1088.3849, 0.00000006148999, 10.002064, 9.991 
5.0517666e+2, 2.221337e+2, -769870.44, -872342.0, -11945.991, -0.0019007113, -0.03398288, -768496.25, -5409.6406, 0.0000000035684378, 10.002683, 9.989137 
5.05226e+2, 2.3212266e+2, -663276.5, -772166.8, -11809.872, -0.0022882726, -0.03654641, -662010.4, 3184.325, 0.000000000106601436, 10.003348, 9.988958 
5.052755e+2, 2.4211083e+2, -568301.75, -696146.3, -11445.317, -0.0014633673, -0.031786423, -567285.2, 25.499178, 0.0000000000037957758, 10.004021, 9.987129 
5.0532496e+2, 2.520979e+2, -460987.06, -595945.06, -11322.042, 0.00080009986, -0.02085832, -460043.8, 9393.591, 0.0000000000002126687, 10.004752, 9.986922 
5.0537467e+2, 2.6208398e+2, -364432.8, -517957.47, -8919.766, 0.002522347, -0.024464937, -363916.3, 7657.4224, 0.0000000000012317329, 10.005482, 9.985195 
5.054246e+2, 2.7206877e+2, -257124.33, -417378.53, -8625.193, 0.0015282969, -0.054869596, -256661.44, 17061.611, 0.0000000000052015844, 10.006198, 9.98502 
5.0547487e+2, 2.8205264e+2, -168078.52, -354367.8, -6472.074, -0.000014060734, -0.045060623, -167853.94, 8027.0146, 0.000000000016184465, 10.006899, 9.982285 
5.055251e+2, 2.9203522e+2, -63527.86, -257047.8, -8205.45, -0.0011961383, 0.012220385, -63180.563, 14871.189, 0.000000000038037778, 10.007509, 9.981937 
5.055762e+2, 3.020201e+2, 52076.426, -88502.984, -3242.8218, -0.003095915, -0.06204021, 52151.19, 52151.19, 0.000000000070511263, 10.008322, 9.989726 
5.056277e+2, 3.1201056e+2, 70676.03, -71796.875, -2515.6755, 0.00416046, -0.029205497, 70720.44, 70720.44, 0.0000000001086931, 10.009263, 9.990426 
5.146743e+2, 1.2213816e+2, -1769135.5, -1737255.8, -6862.8735, -0.0085378075, -0.025764424, -1735841.1, 7201.836, 0.027554031, 9.996022, 10.00024 
5.1472634e+2, 1.3213624e+2, -1676153.8, -1666952.4, 1107.0913, 0.006928426, -0.038092945, -1666821.0, -21759.385, 0.018419899, 9.996773, 9.997974 
5.1477784e+2, 1.4213368e+2, -1575276.0, -1579990.5, -3895.5674, -0.000841795, -0.032310527, -1573080.0, -25993.248, 0.010340942, 9.997507, 9.996868 
5.148286e+2, 1.5213059e+2, -1467492.0, -1477501.3, -4894.679, -0.0011784888, -0.032315392, -1465496.4, -16379.295, 0.0046347342, 9.998182, 9.9968405 
5.148791e+2, 1.6212647e+2, -1373456.1, -1402860.0, -7208.6855, -0.0031027913, -0.03325459, -1371784.0, -20626.578, 0.0015935765, 9.998841, 9.994928 
5.1492953e+2, 1.7212133e+2, -1266435.4, -1301868.0, -7072.395, -0.0036191645, -0.03229219, -1265075.9, -11868.175, 0.00041132476, 9.999513, 9.9948015 
5.1497966e+2, 1.8211527e+2, -1171955.5, -1226144.9, -8988.375, -0.0029679176, -0.030709896, -1170503.5, -15236.205, 0.00007915646, 10.0001545, 9.992975 
5.150298e+2, 1.9210812e+2, -1065001.5, -1125065.5, -8798.488, -0.0003157294, -0.034356777, -1063739.1, -6402.0513, 0.0000113579035, 10.000814, 9.992861 
5.150797e+2, 2.0210013e+2, -970323.7, -1048567.8, -9977.84, 0.0010860116, -0.035162836, -969071.3, -9655.752, 0.0000012170423, 10.001442, 9.99109 
5.151295e+2, 2.1209118e+2, -863830.6, -947820.75, -9675.987, -0.0015545891, -0.03188194, -862730.3, -1226.9658, 0.000000097492624, 10.002076, 9.990966 
5.1517934e+2, 2.2208129e+2, -769970.7, -872727.4, -9489.929, -0.0031034094, -0.030525092, -769101.6, -5501.359, 0.0000000058393734, 10.002691, 9.989102 
5.152294e+2, 2.3207018e+2, -663531.4, -772845.44, -9129.936, -0.00092362333, -0.03604417, -662774.1, 2935.0642, 0.00000000019841896, 10.003356, 9.988905 
5.1527953e+2, 2.4205832e+2, -568095.2, -695613.2, -8765.114, 0.0004565973, -0.03228045, -567495.5, 329.90164, 0.000000000007634904, 10.004017, 9.987164 
5.1532966e+2, 2.5204545e+2, -460786.4, -595255.7, -8558.411, -0.0009065342, -0.021766966, -460243.88, 9707.68, 0.0000000000039886605, 10.00474, 9.986972 
5.1538014e+2, 2.6203156e+2, -363918.94, -516559.56, -6315.9336, -0.0020547078, -0.02970166, -363658.03, 8429.5, 0.000000000023101169, 10.005468, 9.985292 
5.154308e+2, 2.7201638e+2, -256762.38, -416186.6, -6104.4053, -0.0019303912, -0.060448337, -256528.98, 17707.162, 0.00000000009755803, 10.006178, 9.985108 
5.1548177e+2, 2.8200045e+2, -169292.64, -356473.44, -4341.295, -0.0005245382, -0.037154175, -169192.02, 7200.4414, 0.000000000303523, 10.006881, 9.982145 
5.1553273e+2, 2.919829e+2, -65917.12, -261717.0, -6094.0728, 0.0025881194, 0.03526611, -65727.625, 12836.892, 0.00000000071315065, 10.007499, 9.981617 
5.155845e+2, 3.0196717e+2, 53703.895, -84961.24, 90.38218, -0.00093519484, -0.08900339, 53703.953, 53703.953, 0.0000000013213384, 10.008324, 9.989958 
5.15637e+2, 3.119585e+2, 76655.2, -59320.21, 399.57062, -0.00047631926, -0.015152477, 76656.375, 76656.375, 0.0000000020352628, 10.009275, 9.991262 
5.2467054e+2, 1.2208599e+2, -1763255.4, -1735799.0, -7680.862, -0.010866916, -0.019213548, -1733796.4, 9757.827, 0.036176804, 9.99646, 10.000135 
5.2472335e+2, 1.3208368e+2, -1671327.5, -1666373.3, -1359.4783, 0.01563375, -0.058285724, -1666024.8, -20447.982, 0.024365017, 9.99716, 9.997824 
5.247754e+2, 1.4208128e+2, -1572031.1, -1580012.5, -6529.5405, -0.0043815053, -0.020799795, -1568369.3, -20768.963, 0.013811107, 9.997791, 9.996721 
5.248269e+2, 1.5207796e+2, -1464301.3, -1477478.3, -7633.2354, -0.0018979042, -0.029107047, -1460806.4, -11173.575, 0.0062664114, 9.99846, 9.996699 
5.248781e+2, 1.6207364e+2, -1370417.0, -1402659.0, -10022.149, -0.00080403563, -0.03716821, -1367555.6, -15880.408, 0.002187711, 9.999093, 9.994816 
5.2492917e+2, 1.7206842e+2, -1264865.0, -1302432.6, -10046.814, -0.0018919029, -0.033401705, -1262347.0, -8620.766, 0.0005752219, 9.999663, 9.994687 
5.249798e+2, 1.8206225e+2, -1171327.4, -1226463.1, -12051.483, -0.0017903411, -0.029783815, -1168808.3, -13021.63, 0.00011314291, 10.000217, 9.992916 
5.2503055e+2, 1.9205509e+2, -1065413.4, -1125601.8, -11669.622, -0.00035926123, -0.034930967, -1063230.0, -5373.1255, 0.000016648359, 10.000793, 9.992828 
5.2508104e+2, 2.0204702e+2, -971777.3, -1050083.9, -12795.087, 0.0004980277, -0.036058888, -969739.7, -9803.826, 0.0000018353236, 10.001367, 9.991019 
5.251316e+2, 2.1203801e+2, -864602.94, -949320.56, -12981.279, -0.0005684841, -0.0300524, -862658.44, -634.18884, 0.00000015174481, 10.002057, 9.9908695 
5.2518207e+2, 2.2202806e+2, -769879.1, -872716.8, -13366.648, -0.0011949386, -0.028610732, -768170.1, -4048.3354, 0.000000009413526, 10.002683, 9.989104 
5.2523273e+2, 2.3201692e+2, -665296.56, -773500.25, -12615.02, -0.00014758126, -0.03919179, -663845.25, 2385.6663, 0.00000000035784709, 10.003211, 9.988928 
5.2528346e+2, 2.420051e+2, -571525.8, -696907.3, -11522.216, 0.000998336, -0.035514295, -570475.75, -2128.908, 0.00000000002014928, 10.003752, 9.987201 
5.253343e+2, 2.5199232e+2, -464436.5, -596845.5, -11339.532, 0.000032145592, -0.017569862, -463472.38, 6999.6763, 0.000000000054994186, 10.004469, 9.98699 
5.2538544e+2, 2.6197848e+2, -367619.28, -517814.06, -9275.121, -0.0011034698, -0.027716337, -367048.66, 5559.0757, 0.00000000031851738, 10.005172, 9.985349 
5.2543676e+2, 2.719632e+2, -261077.97, -418218.44, -9607.237, -0.003316719, -0.07256706, -260492.78, 14264.794, 0.000000001345189, 10.005857, 9.985124 
5.2548844e+2, 2.8194737e+2, -173086.86, -357129.8, -7680.9004, -0.0017274946, -0.041031312, -172766.86, 4145.5625, 0.0000000041848507, 10.006556, 9.982252 
5.255401e+2, 2.9193026e+2, -69431.16, -262493.22, -6980.9614, 0.0068042926, 0.06370907, -69179.06, 9901.332, 0.000000009829297, 10.007205, 9.981704 
5.2559274e+2, 3.01914e+2, 48756.3, -89947.73, 969.08044, 0.0015484734, -0.10760736, 48763.074, 48763.074, 0.000000018203474, 10.0080805, 9.989731 
5.2564603e+2, 3.1190518e+2, 73177.83, -58775.773, -4199.658, -0.0017482801, -0.021990238, 73311.35, 73311.35, 0.00000002802278, 10.008926, 9.991457 
5.34667e+2, 1.22033134e+2, -1766749.4, -1741102.6, -3565.4812, -0.014467354, -0.020043015, -1740616.1, 3455.7698, 0.046640746, 9.996388, 9.999789 
5.347206e+2, 1.320304e+2, -1673551.4, -1669756.4, 338.02612, 0.023778591, -0.078949474, -1669726.5, -23627.637, 0.031651113, 9.997119, 9.997605 
5.3477305e+2, 1.4202817e+2, -1573505.8, -1582290.4, -4580.7705, -0.019204212, -0.0026865278, -1571551.8, -23430.963, 0.018118156, 9.9977665, 9.99657 
5.348254e+2, 1.520246e+2, -1465395.9, -1479277.8, -5511.3237, -0.004806606, -0.024622174, -1463473.9, -13318.234, 0.008324205, 9.998445, 9.996578 
5.3487724e+2, 1.6202003e+2, -1371270.9, -1404394.3, -8118.577, 0.0059728273, -0.043413725, -1369388.0, -17187.674, 0.002952043, 9.999099, 9.994688 
5.3492886e+2, 1.7201474e+2, -1265804.3, -1304392.4, -8233.746, 0.0028930309, -0.03606158, -1264120.8, -9868.46, 0.0007912693, 9.999671, 9.994543 
5.349801e+2, 1.8200849e+2, -1171437.8, -1226895.9, -10231.716, -0.00068504584, -0.03007361, -1169610.3, -13296.618, 0.00015928308, 10.000231, 9.992875 
5.350314e+2, 1.9200131e+2, -1065176.4, -1125453.3, -9714.346, -0.0040845247, -0.035665758, -1063649.5, -5265.5654, 0.000024088198, 10.0008135, 9.992822 
5.350824e+2, 2.0199321e+2, -972308.9, -1051476.8, -10510.762, -0.005849294, -0.03569852, -970937.2, -10473.96, 0.0000027417923, 10.001382, 9.990912 
5.3513366e+2, 2.1198407e+2, -865359.25, -951373.7, -10352.545, -0.0018961107, -0.02815337, -864130.8, -1577.8348, 0.00000023528659, 10.002083, 9.990711 
5.3518474e+2, 2.21974e+2, -769693.06, -872450.56, -11232.881, 0.00027204023, -0.028439349, -768479.44, -3827.824, 0.000000015275884, 10.002688, 9.989117 
5.352359e+2, 2.3196287e+2, -664615.25, -772240.5, -10558.119, -0.0020713548, -0.04526849, -663589.25, 3171.3962, 0.0000000006877151, 10.003219, 9.989007 
5.3528714e+2, 2.4195112e+2, -571222.1, -696300.2, -9077.712, -0.0022883168, -0.041409824, -570566.75, -1690.991, 0.00000000013052304, 10.003751, 9.98724 
5.353388e+2, 2.5193846e+2, -464677.9, -597008.25, -8576.699, 0.0018772515, -0.008981534, -464124.34, 6875.337, 0.000000000612615, 10.004451, 9.986985 
5.353906e+2, 2.6192465e+2, -368028.1, -518273.88, -6794.6743, 0.002390235, -0.01865779, -367721.44, 5413.794, 0.0000000034131882, 10.005155, 9.985322 
5.3544265e+2, 2.7190903e+2, -261882.23, -419539.7, -7198.307, -0.0047852024, -0.09007645, -261554.25, 13734.145, 0.000000014339296, 10.00584, 9.985039 
5.35495e+2, 2.8189334e+2, -171028.55, -352530.72, -5510.3145, -0.005019586, -0.056241203, -170861.4, 6580.792, 0.00000004456666, 10.00654, 9.982571 
5.355473e+2, 2.9187706e+2, -66716.586, -256417.02, -4879.924, 0.00908655, 0.09584892, -66591.13, 13010.319, 0.00000010462058, 10.007187, 9.982123 
5.3560084e+2, 3.018604e+2, 44212.35, -98949.86, 3981.3384, 0.0015054081, -0.11890937, 44322.99, 44322.99, 0.00000019365781, 10.008072, 9.989106 
5.3565496e+2, 3.1185085e+2, 71152.836, -62516.324, -1436.955, -0.004538255, -0.014857155, 71168.28, 71168.28, 0.0000002979929, 10.008917, 9.991196 
5.446636e+2, 1.2197947e+2, -1758215.5, -1739441.4, -4456.4478, -0.013883675, -0.015105874, -1738437.3, 6160.4766, 0.05923043, 9.997055, 9.999583 
5.4471797e+2, 1.3197644e+2, -1668252.0, -1668992.1, -2760.7578, 0.030678496, -0.08745132, -1665836.6, -19209.098, 0.04050611, 9.997546, 9.997445 
5.4477096e+2, 1.4197418e+2, -1570546.0, -1582175.0, -7067.3657, -0.02271721, -0.00045290546, -1567208.6, -18558.836, 0.023422668, 9.99801, 9.996457 
5.448239e+2, 1.519705e+2, -1463341.4, -1479477.4, -7828.3716, -0.0061080004, -0.02344547, -1460167.6, -9481.859, 0.010902844, 9.998624, 9.996474 
5.4487646e+2, 1.6196582e+2, -1369817.3, -1404730.5, -10580.271, 0.007269698, -0.04406868, -1366861.3, -14129.483, 0.003931351, 9.99923, 9.994597 
5.449286e+2, 1.7196043e+2, -1263802.5, -1304429.0, -10472.243, 0.0042561935, -0.03676507, -1261262.0, -6477.533, 0.0010759312, 9.999843, 9.994452 
5.4498047e+2, 1.8195407e+2, -1169548.9, -1227342.1, -12478.07, 0.0008438754, -0.030783748, -1166969.9, -10123.085, 0.0002222064, 10.000407, 9.992755 
5.4503226e+2, 1.9194677e+2, -1063459.4, -1126244.8, -13098.79, -0.0034938413, -0.036083035, -1060836.1, -1917.869, 0.00003466305, 10.000986, 9.992681 
5.450839e+2, 2.0193857e+2, -970846.3, -1051322.8, -14598.3955, -0.0056367177, -0.035294868, -968280.0, -7281.2466, 0.0000040952546, 10.001495, 9.990862 
5.451357e+2, 2.1192941e+2, -867302.06, -952370.94, -13502.657, -0.0011579318, -0.028172534, -865210.25, -2121.7341, 0.00000036843403, 10.001941, 9.990707 
5.451873e+2, 2.2191933e+2, -774026.2, -874648.44, -13779.75, 0.0017596718, -0.030058855, -772173.2, -6985.842, 0.000000026361263, 10.002385, 9.98911 
5.452391e+2, 2.3190817e+2, -666761.9, -773473.9, -13693.396, -0.0019339055, -0.047548447, -665032.75, 2263.878, 0.0000000023307902, 10.003065, 9.988994 
5.452908e+2, 2.4189647e+2, -572117.3, -696695.8, -12725.343, -0.002816904, -0.040741492, -570830.75, -1419.3948, 0.0000000015642249, 10.003668, 9.987252 
5.4534316e+2, 2.5188386e+2, -467502.13, -598530.7, -12108.805, 0.0024503423, -0.0027824906, -466392.5, 5142.3223, 0.000000005562811, 10.004243, 9.98698 
5.453956e+2, 2.6187003e+2, -372414.6, -519999.03, -9787.389, 0.0034481506, -0.016036766, -371768.34, 1902.1267, 0.000000028366085, 10.004824, 9.985359 
5.454483e+2, 2.7185428e+2, -265622.28, -421072.72, -9400.951, -0.0038263476, -0.10290915, -265055.8, 10769.177, 0.00000011761462, 10.005566, 9.985058 
5.455014e+2, 2.8183874e+2, -173718.34, -351801.47, -7726.895, -0.0027947992, -0.06226005, -173383.7, 4593.2295, 0.0000003647328, 10.006252, 9.982757 
5.4555434e+2, 2.91823e+2, -71433.375, -257209.4, -8836.897, 0.010609388, 0.12278032, -71013.98, 9117.449, 0.00000085578625, 10.006768, 9.982274 
5.4560864e+2, 3.018057e+2, 35711.625, -107652.24, 512.1229, -0.002962927, -0.14218305, 35713.453, 35713.453, 0.0000015835924, 10.007636, 9.9887295 
5.4566383e+2, 3.1179598e+2, 71453.94, -56814.42, -2663.347, 0.0006111039, -0.01537988, 71509.22, 71509.22, 0.0000024360013, 10.008641, 9.991738 
5.5466074e+2, 1.21925056e+2, -1759718.3, -1740780.4, -1783.8342, -0.014779673, -0.011665512, -1740613.9, 4517.1636, 0.07429232, 9.996982, 9.99952 
5.547155e+2, 1.3192196e+2, -1670058.8, -1671224.4, -1989.0062, 0.03366832, -0.080280334, -1668568.9, -21407.55, 0.051209517, 9.997493, 9.997312 
5.54769e+2, 1.4191934e+2, -1572072.0, -1584081.9, -5510.058, -0.015940458, -0.014298746, -1569927.1, -20740.03, 0.02992419, 9.997965, 9.996342 
5.548225e+2, 1.519157e+2, -1464498.4, -1481121.5, -5972.2334, -0.0091042835, -0.026105916, -1462575.3, -11352.286, 0.014122313, 9.998598, 9.996367 
5.548756e+2, 1.6191097e+2, -1370226.5, -1405437.3, -8768.416, -0.0024543777, -0.039381437, -1368163.8, -14894.6455, 0.005183735, 9.999231, 9.994541 
5.549284e+2, 1.7190553e+2, -1263904.0, -1304757.3, -8565.947, -0.0012117743, -0.036149845, -1262180.6, -6858.096, 0.0014511821, 9.999854, 9.994417 
5.549808e+2, 1.8189903e+2, -1170821.6, -1230240.9, -10633.426, -0.0006233707, -0.03215046, -1168976.1, -11589.901, 0.0003083134, 10.000424, 9.992543 
5.5503327e+2, 1.9189149e+2, -1065244.0, -1130343.5, -11160.078, -0.0016256298, -0.03504703, -1063384.0, -3923.879, 0.000049822887, 10.00101, 9.992384 
5.5508536e+2, 2.0188309e+2, -970540.1, -1051094.9, -13020.431, -0.0019795443, -0.03351428, -968487.9, -6945.344, 0.000006177535, 10.001515, 9.990864 
5.5513763e+2, 2.1187401e+2, -866050.2, -950197.44, -11956.545, -0.0005949192, -0.02981332, -864384.25, -752.8573, 0.00000062156136, 10.001963, 9.990841 
5.5518967e+2, 2.2186399e+2, -774080.06, -874968.25, -11600.235, -0.00018183775, -0.03374173, -772763.44, -7033.7954, 0.0000000784953, 10.002393, 9.989082 
5.552421e+2, 2.3185278e+2, -667399.94, -774989.94, -10952.662, -0.0030260887, -0.047106735, -666296.25, 1543.1783, 0.000000033049396, 10.003075, 9.988882 
5.552945e+2, 2.4184105e+2, -572323.06, -697124.25, -10458.239, -0.0044867634, -0.03502883, -571452.75, -1498.2614, 0.00000003053741, 10.003668, 9.98722 
5.553473e+2, 2.518284e+2, -467749.44, -598843.56, -9933.492, -0.0011865587, 0.0017292525, -467001.03, 5077.3047, 0.00000005386784, 10.004236, 9.986959 
5.5540043e+2, 2.618145e+2, -372056.75, -518733.38, -7383.0776, -0.00084691186, -0.020405922, -371686.06, 2528.3618, 0.00000019406193, 10.004795, 9.985459 
5.5545384e+2, 2.717988e+2, -265070.38, -419307.72, -6703.5786, -0.004249617, -0.11297748, -264779.56, 11588.879, 0.00000074942295, 10.005529, 9.985196 
5.555077e+2, 2.8178364e+2, -173634.36, -351077.06, -5835.426, 0.000010095433, -0.058518358, -173442.66, 5074.6387, 0.0000022942224, 10.00623, 9.982813 
5.555611e+2, 2.9176795e+2, -72846.24, -259499.92, -6964.787, 0.008569264, 0.14647876, -72586.72, 8084.0576, 0.0000053700915, 10.0067425, 9.982123 
5.556162e+2, 3.0174977e+2, 32668.559, -113076.05, 4010.5688, -0.013238579, -0.17660005, 32778.84, 32778.84, 0.000009930988, 10.007605, 9.988361 
5.5567247e+2, 3.117404e+2, 78367.336, -41299.37, 214.46503, 0.007984432, 0.002092873, 78367.72, 78367.72, 0.000015272311, 10.008608, 9.9928055 
5.646578e+2, 1.2186984e+2, -1755226.3, -1737727.0, -816.55133, -0.011775454, -0.021302963, -1737689.0, 7983.1816, 0.092263974, 9.997219, 9.999637 
5.647131e+2, 1.3186692e+2, -1666055.4, -1671150.9, -4201.905, 0.028629992, -0.062441446, -1663689.1, -15988.332, 0.06411256, 9.997835, 9.997147 
5.647671e+2, 1.418639e+2, -1567002.5, -1582697.8, -7393.241, -0.012729038, -0.022574108, -1564068.4, -14337.821, 0.037873123, 9.998343, 9.996248 
5.648213e+2, 1.518602e+2, -1459551.0, -1479624.9, -7604.913, -0.006238638, -0.030178867, -1456995.3, -5228.606, 0.018134005, 9.998966, 9.9962845 
5.64875e+2, 1.6185544e+2, -1365908.0, -1404549.8, -10806.823, -0.00067783304, -0.03847847, -1363091.0, -9277.564, 0.0067838547, 9.999571, 9.994431 
5.6492835e+2, 1.7184988e+2, -1261702.3, -1305142.6, -11622.299, -0.0022659698, -0.035257734, -1258788.3, -2920.3892, 0.0019465192, 10.000059, 9.994285 
5.6498134e+2, 1.8184325e+2, -1170017.5, -1230852.3, -13966.388, -0.0025587557, -0.031629313, -1166964.4, -9031.479, 0.0004271751, 10.000518, 9.992448 
5.6503433e+2, 1.9183563e+2, -1065255.0, -1131169.8, -13030.436, -0.0003269318, -0.034985155, -1062772.5, -2764.9512, 0.00007248392, 10.001041, 9.992306 
5.650869e+2, 2.0182712e+2, -971254.25, -1052433.6, -14547.59, 0.0015953954, -0.03368308, -968726.0, -6635.0654, 0.000010126858, 10.001504, 9.990773 
5.6513965e+2, 2.11818e+2, -866044.9, -951247.8, -15167.403, 0.0012269727, -0.028236883, -863425.4, 754.9895, 0.0000016724213, 10.001999, 9.9907465 
5.651921e+2, 2.2180787e+2, -773961.94, -875675.56, -15839.299, 0.000106882144, -0.03228692, -771552.44, -5272.836, 0.00000068287227, 10.002417, 9.989018 
5.652451e+2, 2.3179656e+2, -669535.06, -776744.9, -14891.037, -0.0028811896, -0.050849084, -667505.2, 885.1659, 0.00000051860127, 10.00294, 9.988825 
5.65298e+2, 2.4178481e+2, -576565.25, -698937.4, -14389.582, -0.0032605818, -0.038488496, -574896.0, -4390.344, 0.00000047300682, 10.003351, 9.9872465 
5.653514e+2, 2.517723e+2, -472256.03, -600401.56, -13279.409, 0.00073454203, 0.0077260216, -470894.4, 1733.7146, 0.00000055618574, 10.003883, 9.987021 
5.65405e+2, 2.6175848e+2, -377235.78, -521011.16, -9875.96, 0.0007967685, -0.016184116, -376560.56, -1797.0361, 0.0000011869142, 10.004401, 9.985497 
5.6545925e+2, 2.7174258e+2, -269316.56, -421738.4, -9658.228, -0.004885468, -0.12577052, -268707.0, 8212.543, 0.0000037901987, 10.005225, 9.985181 
5.655138e+2, 2.817276e+2, -175756.64, -349709.47, -9751.46, 0.00027519924, -0.063223355, -175211.7, 3854.4932, 0.000011143965, 10.005936, 9.98306 
5.655677e+2, 2.917125e+2, -76344.6, -259639.1, -9127.119, 0.015110795, 0.1772352, -75891.24, 5323.1104, 0.00002588088, 10.006408, 9.982281 
5.6562364e+2, 3.016935e+2, 23191.191, -126622.055, 4174.1895, -0.013240293, -0.19322577, 23307.404, 23307.404, 0.000047783215, 10.007339, 9.987549 
5.65681e+2, 3.1168342e+2, 78367.13, -34169.242, -4703.63, 0.008110382, -0.004511314, 78563.38, 78563.38, 0.00007346192, 10.0082855, 9.993436 
5.746551e+2, 1.21814e+2, -1755140.1, -1734889.6, 3348.5503, -0.008000989, -0.046239626, -1734350.3, 11869.085, 0.11375035, 9.997077, 9.999935 
5.747108e+2, 1.3181147e+2, -1669233.8, -1675252.4, -3252.9285, 0.013061244, -0.033735096, -1667811.6, -19567.383, 0.07970576, 9.997737, 9.99691 
5.747655e+2, 1.4180793e+2, -1568682.3, -1584686.5, -5977.65, -0.016244192, -0.025794713, -1566696.1, -16416.896, 0.04762608, 9.998287, 9.996134 
5.7482034e+2, 1.5180415e+2, -1460513.4, -1480911.6, -5877.3877, -0.0010228548, -0.035506073, -1458941.1, -6625.086, 0.023162274, 9.998942, 9.996201 
5.748747e+2, 1.6179925e+2, -1367312.1, -1407350.9, -9419.262, 0.0085988585, -0.040752687, -1365207.0, -10843.027, 0.008851887, 9.9995775, 9.994227 
5.7492846e+2, 1.7179352e+2, -1263429.1, -1308706.0, -10360.249, -0.0007181193, -0.03333188, -1261171.1, -4750.8755, 0.0026185028, 10.000071, 9.994028 
5.749818e+2, 1.8178672e+2, -1169729.5, -1230518.1, -12608.375, -0.007609053, -0.028881775, -1167218.1, -8731.051, 0.0006049601, 10.000536, 9.9924555 
5.7503533e+2, 1.9177917e+2, -1064023.0, -1129215.6, -11424.287, -0.004062895, -0.037397277, -1062078.9, -1518.0671, 0.00011675058, 10.001075, 9.992415 
5.7508844e+2, 2.0177065e+2, -972070.0, -1054633.3, -13040.304, -0.00050872646, -0.03776228, -970059.4, -7415.018, 0.000025390495, 10.001532, 9.990604 
5.7514167e+2, 2.1176131e+2, -867766.8, -955523.8, -13443.645, -0.00039710992, -0.024899287, -865753.56, -1017.6583, 0.000010757624, 10.002036, 9.990431 
5.7519454e+2, 2.2175094e+2, -774528.25, -877253.25, -14094.566, -0.002434586, -0.026326759, -772629.5, -5791.9595, 0.0000077366185, 10.002434, 9.9889 
5.7524806e+2, 2.3173949e+2, -669746.94, -776957.3, -12839.345, -0.0052245376, -0.057780135, -668230.8, 718.9273, 0.000006522971, 10.002933, 9.988811 
5.753014e+2, 2.417277e+2, -576606.06, -698344.56, -12430.666, -0.003287912, -0.05032069, -575349.75, -4284.3843, 0.000005941919, 10.003317, 9.987304 
5.7535535e+2, 2.5171548e+2, -471674.3, -598992.44, -11149.27, 0.004082878, 0.014359411, -470705.34, 2479.7234, 0.000005930573, 10.003868, 9.987125 
5.754095e+2, 2.617018e+2, -377639.8, -521902.56, -7351.6826, 0.002547181, -0.003877678, -377266.13, -1946.9269, 0.000007746674, 10.004401, 9.985434 
5.754644e+2, 2.7168542e+2, -270697.72, -424374.75, -6682.628, -0.010147192, -0.14041634, -270407.7, 7071.96, 0.000016548, 10.005217, 9.984998 
5.755197e+2, 2.8167054e+2, -173846.69, -344861.22, -8196.041, -0.005549943, -0.07791772, -173454.78, 6170.747, 0.000042830554, 10.005891, 9.983413 
5.755742e+2, 2.9165632e+2, -73840.766, -253791.97, -7487.0527, 0.023453096, 0.21052557, -73529.8, 8235.177, 0.000096663134, 10.006375, 9.982695 
5.7563096e+2, 3.016368e+2, 14599.44, -143578.94, 7663.1797, -0.010334606, -0.19303165, 14969.827, 14969.827, 0.00017732779, 10.007309, 9.986389 
5.7568914e+2, 3.116252e+2, 79503.3, -29648.627, -1291.3594, -0.0019743936, -0.0037776867, 79518.57, 79518.57, 0.00027223537, 10.008209, 9.993769 
5.846524e+2, 1.21757545e+2, -1748379.1, -1733259.3, 1861.8696, -0.00064236065, -0.048025653, -1733033.4, 13739.235, 0.13972634, 9.997562, 9.999854 
5.847085e+2, 1.3175517e+2, -1664316.8, -1673124.5, -4531.76, -0.000066407614, -0.019394884, -1662401.5, -13605.583, 0.09881995, 9.998076, 9.996883 
5.84764e+2, 1.4175132e+2, -1562706.1, -1582799.5, -6413.972, -0.010118935, -0.035001002, -1560833.4, -9999.404, 0.05983596, 9.998736, 9.996036 
5.848194e+2, 1.5174755e+2, -1457438.8, -1480411.6, -6797.3657, 0.0004823594, -0.03582005, -1455578.3, -2707.4675, 0.029672418, 9.99919, 9.996109 
5.848743e+2, 1.6174263e+2, -1366952.4, -1408262.8, -10032.856, 0.0073246215, -0.034343597, -1364644.6, -9725.719, 0.011691614, 9.99964, 9.994133 
5.8492863e+2, 1.7173675e+2, -1259954.1, -1308400.0, -10153.306, 0.0020263507, -0.030933576, -1257912.3, -935.6209, 0.0036588176, 10.0003605, 9.993905 
5.8498263e+2, 1.8172976e+2, -1164228.6, -1229145.0, -12879.72, -0.0023946683, -0.03056802, -1161766.5, -2721.4854, 0.0009683537, 10.00096, 9.992341 
5.850366e+2, 1.917221e+2, -1062229.1, -1129888.5, -13961.728, -0.0027551856, -0.040043026, -1059461.3, 1658.8533, 0.00027478443, 10.001258, 9.992276 
5.8509e+2, 2.0171344e+2, -972533.9, -1056041.8, -16579.96, -0.0015621333, -0.039784182, -969362.5, -6157.518, 0.00012467508, 10.001535, 9.990504 
5.8514374e+2, 2.1170406e+2, -868001.9, -956629.25, -15615.052, -0.0002701463, -0.024428358, -865331.2, -34.256245, 0.0000877705, 10.002051, 9.990347 
5.85197e+2, 2.2169358e+2, -775351.4, -878995.4, -15795.22, -0.001091795, -0.024752451, -772997.6, -5597.8857, 0.00007200422, 10.002438, 9.988773 
5.85251e+2, 2.3168202e+2, -671646.06, -778877.1, -15287.03, -0.003668974, -0.05659505, -669509.3, 3.5775921, 0.00006284414, 10.002843, 9.988717 
5.853046e+2, 2.4167013e+2, -579815.0, -700784.3, -15485.378, -0.001048904, -0.047875207, -577864.1, -6234.8267, 0.00005789635, 10.003112, 9.987239 
5.853592e+2, 2.516579e+2, -473548.38, -600371.5, -14805.539, 0.006826567, 0.017302323, -471842.88, 1906.4684, 0.000055242694, 10.003737, 9.987095 
5.8541375e+2, 2.6164412e+2, -381409.47, -524595.4, -11392.713, 0.0041388245, -0.005812099, -380508.7, -4624.4067, 0.000055795954, 10.004145, 9.985379 
5.854694e+2, 2.7162758e+2, -276692.56, -428062.0, -9557.436, -0.013104377, -0.15201473, -276091.5, 1954.8864, 0.00007332081, 10.004802, 9.984952 
5.855253e+2, 2.816129e+2, -179274.55, -344440.06, -11129.856, -0.00730626, -0.08353858, -178527.92, 1662.2213, 0.0001400374, 10.00537, 9.983691 
5.855805e+2, 2.9159912e+2, -75921.38, -252585.61, -11106.76, 0.028827433, 0.2260994, -75225.85, 7099.422, 0.00028783004, 10.006098, 9.982919 
5.856382e+2, 3.0157894e+2, 6001.3853, -160053.69, 4311.6313, -0.013295037, -0.2089547, 6113.2617, 6113.2617, 0.00051568105, 10.007193, 9.985325 
5.8569735e+2, 3.1156632e+2, 81702.04, -18926.863, -4469.652, 0.005489322, -0.008193338, 81900.18, 81900.18, 0.00078684813, 10.007886, 9.994672 
5.946501e+2, 1.2170091e+2, -1755329.4, -1742414.5, -495.22818, 0.0076987543, -0.019417131, -1742395.6, 4932.3193, 0.17203067, 9.997398, 9.999229 
5.947065e+2, 1.3169833e+2, -1664865.8, -1671966.1, -3370.606, -0.013532193, -0.019393863, -1663520.6, -14167.367, 0.12317733, 9.997983, 9.997 
5.9476286e+2, 1.416943e+2, -1564044.6, -1584353.4, -5474.87, 0.00351771, -0.048974022, -1562662.8, -11270.172, 0.0760359, 9.998695, 9.995939 
5.9481853e+2, 1.516906e+2, -1458962.8, -1482346.4, -6263.567, -0.0045784535, -0.032071374, -1457390.6, -3961.8013, 0.038946632, 9.999149, 9.995988 
5.948738e+2, 1.616857e+2, -1367394.4, -1408610.5, -8605.883, -0.010150587, -0.019778972, -1365669.6, -10192.856, 0.016318014, 9.999624, 9.994108 
5.949291e+2, 1.716797e+2, -1260194.9, -1308657.0, -8074.45, 0.0015744055, -0.02886266, -1258885.0, -1349.3684, 0.0058532357, 10.000359, 9.993879 
5.949837e+2, 1.816725e+2, -1166115.4, -1233172.1, -11870.744, 0.009309051, -0.037507895, -1164076.0, -4469.78, 0.002137039, 10.0009775, 9.99205 
5.950378e+2, 1.9166447e+2, -1064890.4, -1135820.8, -13375.194, 0.00048242827, -0.04266834, -1062452.1, -767.24176, 0.001055166, 10.00129, 9.991848 
5.9509146e+2, 2.0165552e+2, -972763.94, -1056993.8, -15391.005, -0.0063562477, -0.038748357, -970039.7, -6266.9883, 0.00073918933, 10.001562, 9.990421 
5.9514576e+2, 2.116462e+2, -867016.2, -955173.3, -14025.12, -0.0025152422, -0.02650239, -864838.7, 1025.2385, 0.00060496945, 10.002082, 9.990424 
5.951994e+2, 2.2163568e+2, -775968.4, -880569.94, -14410.952, -0.0003239911, -0.027747441, -774019.3, -6052.2505, 0.0005205493, 10.002452, 9.988656 
5.9525377e+2, 2.3162408e+2, -672706.0, -781324.2, -13797.29, -0.004243752, -0.048960503, -670980.8, -900.15906, 0.0004661713, 10.002855, 9.988542 
5.9530777e+2, 2.4161205e+2, -581514.8, -704002.7, -13560.007, -0.0032533037, -0.033347286, -580031.6, -7833.022, 0.0004356508, 10.0031, 9.987022 
5.953629e+2, 2.5159946e+2, -474912.16, -602909.56, -12471.553, 0.0056822305, 0.01608723, -473708.3, 613.5911, 0.0004130641, 10.003727, 9.986922 
5.954179e+2, 2.615854e+2, -382539.78, -526237.94, -9501.006, 0.0021391257, -0.022362009, -381914.3, -5454.629, 0.00038235346, 10.004098, 9.985294 
5.954742e+2, 2.7156886e+2, -276742.25, -428104.72, -7255.6484, -0.018306542, -0.16145751, -276395.25, 2226.2349, 0.00036756825, 10.004787, 9.984957 
5.9553057e+2, 2.8155458e+2, -178164.36, -341509.28, -9242.051, -0.011208644, -0.0801207, -177643.11, 3118.7505, 0.00045654777, 10.005323, 9.983919 
5.955866e+2, 2.915408e+2, -77271.19, -253178.8, -8289.569, 0.028900843, 0.22498079, -76881.41, 6015.368, 0.0007430319, 10.005992, 9.982928 
5.9564525e+2, 3.0151978e+2, -4101.955, -177563.36, 7376.63, -0.026458183, -0.2397709, -3788.821, -3788.821, 0.0012328605, 10.007041, 9.984193 
5.957052e+2, 3.1150645e+2, 88882.56, -1158.5155, -2569.935, 0.0089032715, 0.004004884, 88955.85, 88955.85, 0.0018376576, 10.007782, 9.995933 
6.046476e+2, 1.2164353e+2, -1751303.3, -1743842.5, 739.5566, 0.009800381, -0.025279658, -1743769.9, 4120.2607, 0.214152, 9.997819, 9.998929 
6.047045e+2, 1.3164066e+2, -1658708.3, -1670216.5, -2468.5398, -0.023779409, -0.03628657, -1658201.1, -8282.725, 0.15643857, 9.998445, 9.996891 
6.047618e+2, 1.416369e+2, -1561003.0, -1583307.8, -5263.3755, 0.016186744, -0.038308777, -1559823.4, -7868.1216, 0.09991464, 9.998906, 9.99591 
6.0481787e+2, 1.5163295e+2, -1454947.8, -1482146.9, -6639.9, 0.0013021453, -0.03308528, -1453413.4, 580.5185, 0.054502863, 9.999493, 9.995832 
6.048736e+2, 1.6162786e+2, -1360494.3, -1405300.3, -9474.444, -0.0123879565, -0.03043123, -1358573.1, -2529.4255, 0.025911747, 10.000089, 9.994103 
6.0492945e+2, 1.7162192e+2, -1258235.9, -1307650.9, -9382.374, -0.002907876, -0.033797387, -1256514.5, 1587.4211, 0.011987488, 10.0004835, 9.993882 
6.049846e+2, 1.8161473e+2, -1167591.4, -1234773.0, -13045.09, 0.005194153, -0.036528427, -1165147.3, -4974.994, 0.0065416535, 10.000905, 9.991973 
6.0503924e+2, 1.9160667e+2, -1061856.6, -1135568.6, -12809.123, 0.0016477297, -0.037683494, -1059694.3, 2557.1213, 0.0046063922, 10.001541, 9.991743 
6.050933e+2, 2.0159757e+2, -967207.56, -1056413.6, -14094.518, -0.0019350487, -0.031874932, -965033.6, -693.0625, 0.0037910414, 10.002041, 9.990221 
6.0514796e+2, 2.11588e+2, -865805.7, -957202.1, -15454.17, -0.0015108449, -0.023534909, -863263.3, 3171.0066, 0.003294016, 10.002282, 9.990181 
6.052019e+2, 2.2157718e+2, -776407.56, -882507.3, -17575.219, -0.0015098273, -0.029995717, -773572.0, -5031.686, 0.0029299043, 10.002482, 9.988506 
6.052567e+2, 2.3156546e+2, -672860.2, -782470.6, -16819.172, -0.0049088895, -0.05837854, -670337.44, 317.80505, 0.0026845648, 10.002882, 9.988447 
6.0531086e+2, 2.4155319e+2, -583533.1, -707753.2, -16267.333, -0.0026754872, -0.04384381, -581438.1, -8662.794, 0.0025410713, 10.003078, 9.986769 
6.053666e+2, 2.5154057e+2, -477464.03, -606317.56, -15252.149, 0.00748469, 0.021024762, -475683.28, -784.06836, 0.0024159902, 10.00363, 9.986733 
6.054219e+2, 2.6152638e+2, -387502.0, -532125.0, -12727.855, 0.004794119, -0.0074434928, -386390.4, -9351.984, 0.0021913543, 10.003873, 9.985009 
6.05479e+2, 2.715095e+2, -276713.63, -430472.25, -11231.476, -0.013348165, -0.1552664, -275897.56, 3305.9282, 0.0018755151, 10.004832, 9.984791 
6.05536e+2, 2.814952e+2, -176919.88, -339013.47, -15700.379, -0.0010036586, -0.07833399, -175413.16, 5930.446, 0.0017067166, 10.00527, 9.984133 
6.055926e+2, 2.914816e+2, -79661.35, -253150.98, -13261.765, 0.041405883, 0.23269597, -78653.46, 4822.9824, 0.0019738742, 10.005735, 9.983062 
6.056521e+2, 3.0146012e+2, -19369.201, -200581.31, 4214.662, -0.031448748, -0.23288551, -19271.229, -19271.229, 0.00273566, 10.006659, 9.982788 
6.05713e+2, 3.1144503e+2, 92791.21, 10429.909, -9406.071, 0.010829662, 0.004200194, 93851.77, 93851.77, 0.0038015225, 10.007645, 9.996777 
6.1464524e+2, 1.21585935e+2, -1750829.0, -1742282.4, 1718.0476, -0.01170118, -0.06019649, -1741949.9, 6504.4897, 0.27198067, 9.99776, 9.999132 
6.1470294e+2, 1.3158265e+2, -1661344.1, -1674609.9, -2431.8928, -0.029358704, -0.07582266, -1660912.4, -10425.6, 0.20546661, 9.998415, 9.996595 
6.147608e+2, 1.4157955e+2, -1561907.9, -1584146.6, -4734.5806, 0.026471611, -0.0012726276, -1560941.9, -8424.783, 0.13911296, 9.998871, 9.995859 
6.148175e+2, 1.5157506e+2, -1457692.5, -1486549.9, -5496.232, 0.015076968, -0.035805102, -1456681.1, -2119.8884, 0.08438501, 9.999446, 9.995545 
6.1487377e+2, 1.6156943e+2, -1361871.5, -1406833.4, -8926.396, -0.0018563058, -0.06373411, -1360164.1, -3547.8154, 0.048496593, 10.000041, 9.994014 
6.149298e+2, 1.7156364e+2, -1259222.8, -1308714.0, -9039.309, -0.011805074, -0.045239247, -1257623.5, 1049.5563, 0.02976512, 10.000453, 9.993816 
6.149853e+2, 1.8155664e+2, -1167208.5, -1233539.9, -11666.891, -0.016494613, -0.026455889, -1165216.3, -4474.5757, 0.021445168, 10.0008955, 9.992052 
6.1504084e+2, 1.9154878e+2, -1060590.9, -1132925.8, -10992.109, -0.002338418, -0.02568654, -1058957.4, 3861.2305, 0.017750558, 10.001558, 9.991903 
6.150955e+2, 2.0153962e+2, -969664.8, -1061380.8, -13375.293, 0.007474261, -0.020609569, -967754.06, -2845.8281, 0.015685128, 10.002042, 9.989877 
6.151503e+2, 2.115295e+2, -869728.3, -965604.9, -14854.166, -0.002091318, -0.016460096, -867479.7, -472.0036, 0.014165093, 10.002302, 9.989593 
6.152043e+2, 2.215181e+2, -777845.1, -885588.44, -16436.59, -0.010225694, -0.03132114, -775393.44, -6273.9463, 0.012958546, 10.002493, 9.988287 
6.152595e+2, 2.3150612e+2, -673218.4, -783098.9, -15601.497, -0.007476073, -0.08299516, -671046.1, 190.48546, 0.012107187, 10.002882, 9.9883995 
6.153139e+2, 2.4149355e+2, -586307.75, -712597.7, -14398.597, -0.0013536384, -0.07738005, -584686.94, -11327.063, 0.0115695195, 10.003049, 9.986444 
6.153702e+2, 2.5148103e+2, -479464.13, -610551.44, -13477.537, 0.0033658794, 0.028431833, -478092.78, -2610.1182, 0.011032614, 10.003645, 9.986426 
6.154257e+2, 2.6146674e+2, -391948.13, -540694.56, -10566.395, -0.0024548317, 0.0333537, -391201.25, -13578.3, 0.010000831, 10.003818, 9.984458 
6.1548394e+2, 2.7144912e+2, -279957.97, -437400.44, -7907.06, -0.011629121, -0.13860846, -279561.88, 233.42271, 0.00835712, 10.0048275, 9.984317 
6.155414e+2, 2.8143445e+2, -176631.34, -337676.5, -15197.81, 0.011634165, -0.08457356, -175209.67, 6729.359, 0.0067573697, 10.005204, 9.984274 
6.155984e+2, 2.914212e+2, -79067.27, -251059.31, -11593.135, 0.05494895, 0.23988391, -78289.35, 5779.3867, 0.006111138, 10.005663, 9.983255 
6.1565864e+2, 3.0139962e+2, -32162.314, -224156.4, 7513.2563, -0.036749188, -0.19176477, -31868.748, -31868.748, 0.0067206244, 10.006507, 9.981255 
6.157204e+2, 3.1138217e+2, 90641.8, 15168.691, -4664.057, 0.00087568944, 0.013191359, 90928.93, 90928.93, 0.008187074, 10.007273, 9.997286 
6.2464374e+2, 1.21527284e+2, -1753743.5, -1762708.3, -800.8731, 0.032995157, 0.010921675, -1753672.5, -4643.0737, 0.3541072, 9.9984455, 9.99724 
6.247017e+2, 1.3152389e+2, -1642295.1, -1654252.4, -2321.8018, -0.046758115, -0.06540278, -1641860.1, 9202.511, 0.28109142, 9.999514, 9.997446 
6.2476027e+2, 1.415212e+2, -1541936.4, -1571775.9, -4794.92, 0.007419433, -0.0019206535, -1541184.8, 11904.214, 0.20657134, 10.000378, 9.995969 
6.248171e+2, 1.5151681e+2, -1451580.8, -1482606.1, -4996.4043, 0.0050126323, -0.026850188, -1450795.9, 4335.968, 0.1432552, 9.999867, 9.995616 
6.248737e+2, 1.6151132e+2, -1364626.0, -1408787.5, -4779.0674, -0.0033452106, -0.047406353, -1364114.8, -6928.9775, 0.09987318, 9.999864, 9.993972 
6.2493056e+2, 1.7150538e+2, -1254847.5, -1308040.8, -5432.5264, -0.001329194, -0.034159184, -1254298.4, 4945.7427, 0.075513154, 10.000837, 9.993675 
6.249867e+2, 1.8149823e+2, -1156727.0, -1228190.9, -9705.889, -0.00013122769, -0.024116108, -1155432.3, 5881.832, 0.06323491, 10.001614, 9.992076 
6.250424e+2, 1.9149019e+2, -1060533.4, -1133737.5, -11847.919, -0.0022588787, -0.036867972, -1058663.5, 4729.25, 0.056682963, 10.0016, 9.991833 
6.250973e+2, 2.014809e+2, -973342.1, -1062358.6, -14415.534, -0.0019368845, -0.040783778, -971065.9, -5582.1045, 0.052283235, 10.001741, 9.989956 
6.251526e+2, 2.1147108e+2, -868661.06, -963165.2, -11278.487, 0.002243149, -0.02378001, -867333.7, 246.41948, 0.048651624, 10.00229, 9.989766 
6.25207e+2, 2.2145975e+2, -777810.5, -890663.1, -9775.642, 0.0020391152, -0.022924872, -776969.94, -7278.678, 0.04555987, 10.00272, 9.987831 
6.2526274e+2, 2.314473e+2, -669288.0, -789450.2, -13939.985, -0.0044106976, -0.056645095, -667692.0, 4121.2646, 0.043225635, 10.003522, 9.987653 
6.253175e+2, 2.41434e+2, -574122.94, -712974.25, -17472.47, -0.0032081048, -0.048848115, -571958.0, 1985.6337, 0.04156095, 10.004108, 9.985928 
6.253741e+2, 2.5142074e+2, -477528.4, -613680.56, -18634.344, 0.00991299, 0.014639785, -475024.1, 1049.4485, 0.039684203, 10.003904, 9.986111 
6.254294e+2, 2.6140562e+2, -402576.97, -552046.7, -13559.816, 0.0076950286, -0.0035314572, -401356.78, -23135.275, 0.036110234, 10.003353, 9.983897 
6.2548864e+2, 2.7138796e+2, -280276.9, -439847.97, -8051.6753, -0.020166827, -0.14501406, -279871.66, 522.7347, 0.030348934, 10.004886, 9.984119 
6.2554646e+2, 2.8137317e+2, -176463.42, -341963.44, -18210.771, -0.00801964, -0.08617614, -174483.3, 8056.154, 0.024075592, 10.005383, 9.983901 
6.256047e+2, 2.9135898e+2, -64926.93, -250992.47, -17663.238, 0.05142915, 0.19803804, -63265.0, 21413.506, 0.019858941, 10.006927, 9.982648 
6.2566555e+2, 3.0133718e+2, -28489.006, -232569.05, -5295.2964, -0.032257177, -0.19414096, -28351.7, -28351.7, 0.018799579, 10.0071, 9.980425 
6.257269e+2, 3.1131858e+2, 70158.29, 21820.143, -11247.893, 0.01291522, -0.018339926, 72647.41, 72647.41, 0.020104516, 10.005032, 9.9989195 
6.347016e+2, 1.3146488e+2, -1668045.3, -1649992.1, -637.24445, -0.003147899, -0.034106564, -1649969.6, 1671.5674, 0.3986437, 9.996709, 9.999141 
6.347606e+2, 1.4146225e+2, -1574691.4, -1586761.6, -11124.826, 0.009964968, -0.05255349, -1568070.1, -14403.432, 0.32109898, 9.9978485, 9.996169 
6.348167e+2, 1.5145873e+2, -1460089.4, -1483331.0, -10113.005, -0.015578271, -0.018143848, -1456305.1, -603.7537, 0.25318962, 9.99908, 9.995945 
6.3487345e+2, 1.6145402e+2, -1365566.9, -1409558.1, -4138.419, -0.020915024, 0.01581606, -1365181.0, -7433.5757, 0.20482565, 9.999823, 9.993925 
6.349317e+2, 1.7144755e+2, -1257380.6, -1312047.9, -2664.027, 0.022409976, -0.004298622, -1257251.0, 2559.895, 0.1758956, 10.000812, 9.993399 
6.3498884e+2, 1.8143985e+2, -1159328.3, -1231482.1, -9651.115, 0.045219284, -0.02992104, -1158059.8, 3826.395, 0.15969306, 10.001563, 9.991866 
6.35044e+2, 1.9143115e+2, -1063739.9, -1140008.1, -12621.843, -0.0056636594, -0.0738408, -1061705.4, 2265.989, 0.14982603, 10.001616, 9.991385 
6.350987e+2, 2.0142151e+2, -970345.3, -1056367.6, -12852.517, -0.042150185, -0.092966065, -968466.1, -2400.419, 0.14231765, 10.001764, 9.99034 
6.3515496e+2, 2.114128e+2, -862213.25, -949578.94, -9194.866, 0.0005124581, -0.048789736, -861256.0, 6895.081, 0.13550727, 10.002382, 9.990637 
6.352101e+2, 2.2140212e+2, -781799.3, -901310.7, -7434.7446, 0.025581058, -0.006461634, -781338.56, -11082.811, 0.12921391, 10.002835, 9.987038 
6.3526636e+2, 2.3138888e+2, -678555.5, -810313.2, -10861.919, -0.006701334, 0.011607067, -677666.06, -5280.126, 0.12399558, 10.003588, 9.986185 
6.3532144e+2, 2.413744e+2, -581370.06, -726285.2, -16676.662, -0.021306403, 0.03366708, -579475.7, -4947.721, 0.1196944, 10.004036, 9.985048 
6.353781e+2, 2.5135952e+2, -481185.8, -620359.4, -21135.773, 0.016595077, -0.019476138, -478046.8, -1373.7141, 0.11434348, 10.003866, 9.985673 
6.3543296e+2, 2.6134306e+2, -407905.78, -561819.44, -11669.966, 0.025835324, -0.10381548, -407025.97, -28191.719, 0.10449241, 10.003265, 9.983282 
6.354934e+2, 2.7132598e+2, -279841.44, -440231.03, -3815.194, -0.04502073, -0.16635694, -279750.72, 1250.9258, 0.088948555, 10.00492, 9.984079 
6.3555133e+2, 2.813112e+2, -182228.52, -355339.3, -17431.965, -0.06454606, -0.081406385, -180490.6, 2656.1855, 0.07142324, 10.005382, 9.98301 
6.3561136e+2, 2.9129487e+2, -76393.305, -271521.06, -13234.373, 0.024885805, 0.109729715, -75499.78, 9807.242, 0.05796561, 10.006749, 9.98134 
6.356724e+2, 3.012728e+2, -37059.39, -239160.06, -13398.426, -0.03947802, -0.23526631, -36175.0, -36175.0, 0.051588424, 10.006572, 9.980261 
6.3573134e+2, 3.112541e+2, 70598.14, 44307.305, -19224.393, -0.0035162987, -0.067954965, 80741.76, 80741.76, 0.050905757, 10.004203, 10.001021 
6.4487326e+2, 1.6139019e+2, -1365679.5, -1386317.1, -4508.0605, 0.035733208, -0.057402365, -1364737.8, -6365.0767, 0.39385006, 9.998795, 9.9959 
6.4493114e+2, 1.7138594e+2, -1251534.6, -1277026.8, -14671.35, -0.08657963, -0.079331614, -1244846.0, 15568.535, 0.3631605, 10.000358, 9.996078 
6.4498943e+2, 1.813812e+2, -1169335.9, -1218942.3, -8927.032, 0.02317619, -0.024993274, -1167778.3, -5317.351, 0.34433386, 10.000053, 9.993449 
6.450457e+2, 1.9137466e+2, -1062049.1, -1121568.8, 1886.1948, 0.033074133, -0.004063698, -1061989.4, 2535.6833, 0.33186242, 10.001044, 9.99293 
6.4510113e+2, 2.0136608e+2, -971203.44, -1065019.8, 9263.993, 0.0076928237, 0.00084661256, -970297.44, -3688.4377, 0.32141975, 10.002071, 9.9896145 
6.451575e+2, 2.1135488e+2, -865965.4, -974603.6, -6466.731, -0.020537557, -0.02374962, -865581.8, 3136.9597, 0.31100234, 10.003151, 9.988553 
6.45213e+2, 2.2134219e+2, -765424.94, -889087.94, -18260.395, -0.0359965, -0.050605413, -762784.94, 8058.1396, 0.30041274, 10.004069, 9.987257 
6.4527e+2, 2.3132965e+2, -669134.56, -789708.2, -3881.192, -0.0034961654, -0.0829584, -669009.75, 3956.2256, 0.29071093, 10.003678, 9.987562 
6.453257e+2, 2.4131496e+2, -599693.06, -755543.06, 1575.922, 0.022688368, -0.08266223, -599677.1, -24567.162, 0.2817397, 10.0036745, 9.983249 
6.4538276e+2, 2.5129887e+2, -473399.66, -641758.5, -18959.613, 0.008882822, -0.0043098475, -471290.97, 5976.744, 0.26974383, 10.00565, 9.983384 
6.454376e+2, 2.6128078e+2, -384135.3, -596387.9, -23414.658, -0.0091958735, 0.031731017, -381583.0, -2137.624, 0.24780308, 10.00688, 9.97915 
6.455002e+2, 2.7125892e+2, -276633.16, -489462.6, -46525.637, 0.014217945, -0.0473886, -266906.9, 14752.617, 0.2136612, 10.007626, 9.979353 
6.455585e+2, 2.8124085e+2, -166958.13, -337620.9, -77994.72, 0.056381922, -0.013105424, -136684.05, 47152.367, 0.17465666, 10.006688, 9.983581 
6.456189e+2, 2.9122636e+2, -52979.813, -230387.02, -45191.676, 0.07651524, 0.14929503, -42131.332, 43847.05, 0.14277904, 10.007618, 9.983695 
6.4567786e+2, 3.0120766e+2, -66953.13, -243776.39, -47446.766, -0.028409747, -0.058749378, -55026.277, -55026.277, 0.124363236, 10.004159, 9.981065 
6.4573276e+2, 3.111883e+2, -15655.488, 13630.337, -49940.51, 0.016238675, 0.05478303, 51030.387, 51030.387, 0.11729312, 9.997745, 10.00207 
6.5556425e+2, 2.8116146e+2, -216844.36, -338839.53, 11312.195, -0.046232864, -0.09756521, -215804.28, -31189.924, 0.35786867, 10.001548, 9.986034 
6.55626e+2, 2.9115224e+2, -32591.555, -146793.56, 38397.42, 0.008447687, 0.0027316902, -20882.045, 65822.55, 0.29648608, 10.007414, 9.989788 
6.5568244e+2, 3.011397e+2, 4884.674, -184298.77, 8892.168, 0.019046195, -0.08529228, 5301.712, 5301.712, 0.25644237, 10.008088, 9.983453 
6.557293e+2, 3.1112036e+2, 21830.07, 31992.705, 22045.924, -0.03505637, -0.0388758, 49535.324, 49535.324, 0.23493361, 10.000335, 10.0027 
7.146078e+2, 1.683119e+2, -1284948.6, -1299320.1, -2486.2407, 0.1346769, -0.14154223, -1284530.8, 5999.27, 0.39580005, 9.93409, 9.931955 
7.134778e+2, 1.7824233e+2, -1196550.9, -1232090.0, 3370.4526, 0.030672068, -0.16088171, -1196234.1, -3022.3235, 0.36749697, 9.934257, 9.929583 
7.1234775e+2, 1.8817195e+2, -1094718.6, -1128499.1, 4043.8154, 0.041644238, -0.17336793, -1094241.3, 1660.1904, 0.33911413, 9.934342, 9.929648 
7.1121764e+2, 1.9810104e+2, -996168.3, -1040205.6, 4421.5903, 0.062751204, -0.17149955, -995728.75, 2867.6082, 0.30851847, 9.934804, 9.928624 
7.1008545e+2, 2.0802978e+2, -891988.06, -937432.8, 1269.1512, 0.023859799, -0.1620017, -891952.6, 9342.217, 0.27875233, 9.935382, 9.928682 
7.0895433e+2, 2.1795908e+2, -788561.75, -830809.1, -1678.3657, -0.012369899, -0.1234094, -788495.2, 15492.507, 0.25782213, 9.93567, 9.929343 
7.078244e+2, 2.2788854e+2, -701058.2, -737753.3, 1393.8428, 0.0088854795, -0.14306639, -701005.3, 5673.288, 0.25607178, 9.934974, 9.929579 
7.066964e+2, 2.3781778e+2, -608415.1, -639970.7, -13355.816, -0.0017699078, -0.21085295, -603521.25, 5850.2764, 0.28158236, 9.934341, 9.930002 
7.0556295e+2, 2.4774759e+2, -494070.06, -548740.06, -21945.344, -0.030097887, -0.14562495, -486350.8, 25709.145, 0.33780035, 9.93678, 9.92854 
7.2905374e+2, 1.2971789e+2, -1644381.1, -1663699.5, 3940.0852, 0.09986699, -0.12008196, -1643608.4, 25144.295, 0.38657025, 9.936854, 9.932645 
7.2792685e+2, 1.396496e+2, -1576616.4, -1592166.3, -4970.8027, 0.17070544, -0.16205384, -1575163.1, -3741.855, 0.32062596, 9.934367, 9.932329 
7.267996e+2, 1.4958186e+2, -1517320.8, -1522135.0, -7219.7764, 0.113731205, -0.16007602, -1512117.4, -38032.188, 0.26370573, 9.931947, 9.931579 
7.256704e+2, 1.595124e+2, -1380087.3, -1414034.1, 11760.177, 0.04560194, -0.15432233, -1376411.3, 355.04825, 0.2228128, 9.934664, 9.930095 
7.245413e+2, 1.6944353e+2, -1280799.6, -1306049.6, 9025.534, 0.07856953, -0.11430278, -1277905.3, 1536.0863, 0.1965221, 9.934522, 9.930914 
7.2341245e+2, 1.7937426e+2, -1189007.4, -1216556.8, 2585.6194, 0.08787614, -0.10959258, -1188766.9, -6646.587, 0.17812835, 9.934261, 9.930593 
7.222823e+2, 1.893048e+2, -1089567.3, -1121901.4, -339.69778, 0.059647486, -0.10711786, -1089563.6, -4762.568, 0.16184242, 9.934546, 9.930189 
7.2115177e+2, 1.9923455e+2, -994829.44, -1039445.5, -3813.4246, 0.0026093856, -0.09047016, -994505.8, -7016.5117, 0.14482777, 9.934865, 9.928916 
7.200204e+2, 2.0916258e+2, -897300.2, -953115.0, -3253.3901, -0.021913985, -0.11761089, -897111.2, -6916.9346, 0.12795308, 9.935368, 9.927822 
7.1888995e+2, 2.1908998e+2, -794775.06, -851763.56, -7182.7866, -0.006173357, -0.14782815, -793883.7, -978.1869, 0.11534935, 9.935561, 9.928023 
7.177597e+2, 2.2901842e+2, -706939.8, -758134.8, -5173.4526, 0.047261603, -0.14148416, -706422.25, -10815.102, 0.11286214, 9.935114, 9.928127 
7.166311e+2, 2.3894644e+2, -618869.1, -672054.5, -14638.62, 0.020527398, -0.11442529, -615106.25, -16793.508, 0.1256348, 9.934692, 9.927728 
7.1549904e+2, 2.4887434e+2, -494662.8, -566429.56, -15451.356, -0.12615578, -0.084038354, -491477.53, 9541.387, 0.15757394, 9.937005, 9.927311 
7.143718e+2, 2.588007e+2, -388097.34, -481620.63, -11593.101, -0.105771974, -0.07938662, -386681.7, 17058.838, 0.2108181, 9.938647, 9.925647 
7.1324885e+2, 2.68726e+2, -341693.56, -397686.78, 19311.244, 0.1531627, -0.16961646, -335679.38, -29206.734, 0.2844648, 9.934813, 9.926825 
7.121229e+2, 2.786559e+2, -221899.36, -228548.69, -64461.105, -0.14142841, -0.18312438, -160677.25, 48482.055, 0.370008, 9.933096, 9.933374 
7.401153e+2, 1.2091512e+2, -1761253.9, -1776890.4, -1239.8877, 0.17736416, -0.116913095, -1761156.3, -6136.0967, 0.32493475, 9.935053, 9.93305 
7.3898786e+2, 1.3084707e+2, -1660093.9, -1674906.9, 6538.7813, 0.09950237, -0.17081295, -1657620.5, 67.10852, 0.25898266, 9.934906, 9.932794 
7.378611e+2, 1.4078106e+2, -1554416.4, -1573740.3, 9478.432, 0.08230924, -0.032811183, -1550543.4, 9791.113, 0.19368057, 9.935643, 9.932658 
7.367346e+2, 1.5071304e+2, -1451156.3, -1478836.1, 5585.989, 0.06864779, -0.08578632, -1450071.5, 12929.546, 0.13986363, 9.936315, 9.932105 
7.356068e+2, 1.6064388e+2, -1352203.8, -1398380.1, -3816.822, 0.0733743, -0.11040193, -1351890.4, 13788.41, 0.103883736, 9.936977, 9.930353 
7.344771e+2, 1.7057428e+2, -1256880.1, -1304618.4, -5275.635, 0.068423145, -0.09995091, -1256304.0, 12057.054, 0.083562806, 9.936848, 9.930119 
7.3334765e+2, 1.805042e+2, -1166659.6, -1215865.1, -8799.286, 0.06286593, -0.09053073, -1165133.4, 5914.8135, 0.072091475, 9.936444, 9.929762 
7.3221785e+2, 1.904339e+2, -1067131.8, -1119821.4, -10689.88, 0.045888092, -0.09944637, -1065045.6, 8691.324, 0.06384599, 9.936729, 9.929555 
7.3108786e+2, 2.0036298e+2, -968818.56, -1030610.25, -16679.842, 0.014267265, -0.100413986, -964603.56, 11828.217, 0.05605498, 9.937034, 9.928808 
7.2995704e+2, 2.1029152e+2, -866931.94, -937525.5, -14540.934, -0.0054458524, -0.1038674, -864054.1, 15077.813, 0.048505012, 9.937635, 9.92816 
7.28827e+2, 2.2021899e+2, -764374.8, -844687.25, -17115.717, 0.005326086, -0.11869715, -760879.4, 20963.191, 0.04279683, 9.938226, 9.92745 
7.276966e+2, 2.301465e+2, -667617.7, -751903.6, -14463.403, 0.045407385, -0.121539205, -665204.9, 19348.297, 0.04152153, 9.938438, 9.927149 
7.265675e+2, 2.4007337e+2, -578850.4, -667994.7, -17073.38, 0.013904357, -0.08866983, -575692.3, 11577.847, 0.04735316, 9.938073, 9.92647 
7.2543645e+2, 2.500001e+2, -481652.4, -572569.94, -11853.817, -0.13394749, -0.08079169, -480132.3, 9855.506, 0.06318985, 9.938206, 9.926494 
7.2430986e+2, 2.5992537e+2, -390183.28, -490860.16, -16768.092, -0.12323394, -0.14571148, -387463.94, 5255.513, 0.09224925, 9.938042, 9.925595 
7.231855e+2, 2.6985016e+2, -296608.0, -390339.97, -8294.683, 0.17171924, -0.24439262, -295879.63, -422.51193, 0.13673848, 9.937787, 9.926247 
7.220602e+2, 2.797761e+2, -228481.67, -324854.66, -31391.854, 0.10242788, -0.13824244, -219158.28, -20974.826, 0.1944097, 9.935559, 9.925013 
7.209188e+2, 2.8970623e+2, -16720.91, -106533.836, -28696.29, -0.5007073, 0.15425836, -8335.091, 92532.54, 0.2572477, 9.942536, 9.929202 
7.1980083e+2, 2.9962495e+2, -20426.021, -296767.75, 102782.1, 0.11907527, -0.3597042, 13610.396, 17274.293, 0.31562352, 9.94777, 9.911562 
7.186929e+2, 3.0953294e+2, 43414.785, -1140.1238, 4573.9375, -0.10834937, -0.1940326, 43879.492, 43879.492, 0.36477825, 9.941846, 9.932391 
7.500497e+2, 1.22042015e+2, -1743184.3, -1743098.5, 6336.0527, 0.14066167, -0.090407915, -1736805.1, 7173.632, 0.23778631, 9.935264, 9.935296 
7.48924e+2, 1.3197567e+2, -1638474.5, -1650990.3, -423.24472, 0.16360188, -0.15860598, -1638460.3, 8168.9087, 0.17853287, 9.9361515, 9.934136 
7.477979e+2, 1.4190933e+2, -1546138.3, -1576708.3, -119.065384, 0.15689355, -0.09967297, -1546137.8, 3141.293, 0.120985776, 9.936544, 9.932288 
7.4667144e+2, 1.5184133e+2, -1453904.6, -1486728.0, -1069.0054, 0.12082303, -0.10935542, -1453869.9, -1924.5908, 0.0749508, 9.936349, 9.931779 
7.4554366e+2, 1.6177234e+2, -1357833.1, -1399547.8, -10708.852, 0.09635266, -0.12166004, -1355244.6, -623.51764, 0.045711238, 9.936443, 9.930773 
7.4441415e+2, 1.7170309e+2, -1249806.8, -1302291.9, -10063.743, 0.06515196, -0.10788464, -1247943.3, 9356.896, 0.030768666, 9.937356, 9.930188 
7.4328434e+2, 1.8163274e+2, -1152729.3, -1215028.3, -11481.1045, 0.039194673, -0.09525759, -1150680.8, 9308.898, 0.023860537, 9.937691, 9.929254 
7.421548e+2, 1.9156179e+2, -1059152.6, -1122716.3, -11243.87, 0.036793634, -0.11524922, -1057222.3, 5462.5947, 0.020094706, 9.937607, 9.928945 
7.410252e+2, 2.0149027e+2, -962814.06, -1029663.8, -16800.81, 0.027327275, -0.12336797, -958829.2, 6556.3354, 0.01716262, 9.937577, 9.928624 
7.398949e+2, 2.1141918e+2, -862746.8, -934277.75, -15888.316, 0.006783626, -0.101903066, -859376.56, 8705.5, 0.014534381, 9.93795, 9.928318 
7.3876524e+2, 2.2134691e+2, -766758.1, -850820.2, -21380.637, 0.0035152219, -0.08908018, -761632.6, 9157.619, 0.012619459, 9.938281, 9.92714 
7.376348e+2, 2.3127365e+2, -670283.4, -761198.75, -19677.031, 0.02200758, -0.11357312, -666207.4, 7300.764, 0.012302132, 9.938587, 9.926552 
7.3650545e+2, 2.411997e+2, -577336.75, -673818.6, -23305.406, -0.0030617944, -0.11250035, -572002.2, 4230.577, 0.014721319, 9.938498, 9.925951 
7.353753e+2, 2.511259e+2, -477815.94, -578709.44, -18274.29, -0.08143221, -0.08696816, -474608.03, 4347.947, 0.021538835, 9.938907, 9.925833 
7.342486e+2, 2.610509e+2, -388353.63, -500820.1, -23880.38, -0.063143626, -0.09637098, -383493.06, -1802.3483, 0.03518583, 9.938742, 9.924678 
7.331221e+2, 2.7097538e+2, -297382.53, -397084.63, -17404.586, 0.076750815, -0.15438233, -294431.63, -10000.444, 0.058288787, 9.937993, 9.925622 
7.319948e+2, 2.8090015e+2, -230913.03, -341147.25, -31007.346, -0.014729138, -0.117252655, -222789.72, -35621.26, 0.091940604, 9.936377, 9.923483 
7.308598e+2, 2.9082653e+2, -67739.83, -183323.17, -52192.465, -0.35738218, 0.057269514, -47660.254, 42229.266, 0.13421471, 9.939788, 9.926468 
7.297426e+2, 3.007502e+2, -73032.08, -256221.53, 27097.18, 0.13771307, -0.082076855, -69107.95, -69107.95, 0.18031055, 9.940858, 9.919338 
7.286285e+2, 3.1066757e+2, 25258.92, 55087.426, -37026.934, -0.19910452, 0.0891344, 80090.945, 80090.945, 0.225195, 9.935121, 9.939332 
7.599854e+2, 1.2316787e+2, -1736868.3, -1760027.4, -14507.408, 0.11396843, -0.06988876, -1729885.8, 3062.0186, 0.17498739, 9.936239, 9.933446 
7.58861e+2, 1.3310252e+2, -1615871.8, -1640087.5, -1982.9384, 0.14660192, -0.061972316, -1615710.4, 19877.363, 0.1261487, 9.937926, 9.934229 
7.577345e+2, 1.430354e+2, -1522299.8, -1561786.0, -6956.5493, 0.062065974, -0.09559755, -1521110.0, 17135.07, 0.079539225, 9.938169, 9.932616 
7.5660837e+2, 1.5296789e+2, -1429406.3, -1471372.9, -6049.2676, 0.09088268, -0.09658311, -1428551.8, 12354.708, 0.04321595, 9.937917, 9.932119 
7.554809e+2, 1.6289932e+2, -1335322.9, -1385414.0, -11142.34, 0.095766716, -0.09792694, -1332956.1, 10621.962, 0.02111174, 9.937916, 9.9311495 
7.5435215e+2, 1.7283042e+2, -1228327.1, -1287780.5, -10613.72, 0.05995227, -0.09429481, -1226489.1, 19764.338, 0.0106813945, 9.938729, 9.930649 
7.532229e+2, 1.8276027e+2, -1131100.6, -1204759.9, -13463.746, 0.036943633, -0.089422226, -1128716.8, 20224.162, 0.006606641, 9.93917, 9.929322 
7.520934e+2, 1.9268945e+2, -1035012.1, -1112451.8, -12546.187, 0.039753433, -0.093162484, -1033030.2, 18604.713, 0.0049766204, 9.939254, 9.928885 
7.509638e+2, 2.0261776e+2, -941586.5, -1025133.94, -15948.666, 0.032519773, -0.095318444, -938645.56, 15691.88, 0.004049235, 9.939189, 9.928175 
7.4983364e+2, 2.1254602e+2, -845488.25, -932191.7, -15778.881, 0.009192623, -0.08971368, -842705.94, 14334.276, 0.0033389647, 9.9392605, 9.927878 
7.4870396e+2, 2.2247322e+2, -754946.44, -852242.75, -19938.072, -0.0015055259, -0.08486437, -751019.2, 8734.358, 0.0028667098, 9.939238, 9.926677 
7.475738e+2, 2.323996e+2, -654033.5, -759021.06, -17516.44, 0.0020942453, -0.10212185, -651188.1, 11286.791, 0.0028619748, 9.939733, 9.926211 
7.4644464e+2, 2.4232516e+2, -559304.0, -673809.56, -18295.059, -0.015915873, -0.10856697, -556451.94, 8752.437, 0.0037244244, 9.939859, 9.925352 
7.4531525e+2, 2.522507e+2, -464884.88, -580539.9, -12297.731, -0.048737522, -0.086880974, -463591.72, 4342.603, 0.0062073097, 9.939801, 9.925211 
7.4418813e+2, 2.621755e+2, -379199.44, -501466.6, -14334.225, -0.035599913, -0.0657859, -377541.4, -6870.426, 0.011650194, 9.939185, 9.924323 
7.430599e+2, 2.721e+2, -277206.3, -393416.2, -13264.805, 0.00077988865, -0.08990133, -275711.44, -2300.482, 0.021981837, 9.93907, 9.925205 
7.419315e+2, 2.8202346e+2, -209641.17, -355131.13, -16550.465, -0.07716513, -0.113488466, -207782.2, -31621.252, 0.039156344, 9.938708, 9.921371 
7.408013e+2, 2.919443e+2, -94343.01, -253621.88, -20533.682, -0.19403584, -0.10591591, -91738.47, -12801.658, 0.06384304, 9.940064, 9.921145 
7.396821e+2, 3.0186754e+2, -36796.375, -157534.78, 30959.275, 0.06309088, -0.12916003, -29320.775, -29320.775, 0.094090015, 9.939741, 9.9258375 
7.3856336e+2, 3.1179276e+2, -27438.822, -39725.746, -68457.266, -0.25162825, -0.26629052, 35150.094, 35150.094, 0.12608115, 9.934891, 9.932748 
7.699231e+2, 1.24293625e+2, -1705972.8, -1708833.4, 6460.901, 0.21342649, -0.02375413, -1700785.8, 21130.629, 0.12768447, 9.937507, 9.936796 
7.687983e+2, 1.3422817e+2, -1620384.0, -1645322.9, -2130.552, 0.110328086, -0.025746917, -1620203.3, 4354.312, 0.0897246, 9.937596, 9.934113 
7.676722e+2, 1.441614e+2, -1521562.6, -1555193.6, -8603.482, 0.0419963, -0.046663202, -1519489.5, 7722.0386, 0.054136056, 9.9379225, 9.933244 
7.6654625e+2, 1.5409446e+2, -1415617.9, -1458572.1, -8677.898, 0.06953965, -0.05854756, -1413931.0, 15936.588, 0.02707615, 9.938668, 9.932691 
7.65419e+2, 1.6402619e+2, -1320173.0, -1376616.4, -13327.676, 0.078026146, -0.06406038, -1317184.3, 15352.057, 0.011202649, 9.938983, 9.93133 
7.6429087e+2, 1.739574e+2, -1223663.1, -1283535.3, -14488.415, 0.053807188, -0.0715657, -1220341.4, 14868.929, 0.0041621407, 9.9390545, 9.930931 
7.631621e+2, 1.8388748e+2, -1129983.4, -1203543.1, -19051.36, 0.03799448, -0.07022072, -1125342.1, 12553.446, 0.0017368137, 9.939304, 9.929513 
7.6203275e+2, 1.9381696e+2, -1028112.06, -1109067.6, -18768.934, 0.039899494, -0.062413894, -1023972.3, 16614.371, 0.0010035203, 9.9398, 9.929011 
7.609031e+2, 2.0374526e+2, -933938.75, -1025376.4, -22041.986, 0.032811105, -0.062003605, -928902.6, 14386.6045, 0.0007333931, 9.93995, 9.927946 
7.59773e+2, 2.1367301e+2, -837705.1, -932763.1, -21736.791, 0.0090566, -0.07739702, -832970.44, 13026.661, 0.0005799141, 9.940054, 9.927576 
7.586433e+2, 2.2359985e+2, -745963.8, -851371.56, -23991.28, -0.010013318, -0.07944087, -740760.1, 7953.5938, 0.0004938477, 9.940138, 9.9264345 
7.5751346e+2, 2.3352621e+2, -645511.25, -757343.0, -21834.914, -0.021678818, -0.07839257, -641399.25, 10036.011, 0.00051797275, 9.940561, 9.926037 
7.5638443e+2, 2.4345164e+2, -550616.2, -670471.4, -22817.469, -0.031200245, -0.08573808, -546419.25, 7746.6543, 0.00076705613, 9.940611, 9.925301 
7.552552e+2, 2.5337684e+2, -456070.38, -575808.0, -18318.266, -0.038264398, -0.09561682, -453330.63, 3568.2156, 0.0015101767, 9.940466, 9.925219 
7.541274e+2, 2.6330158e+2, -373836.3, -502383.1, -17134.227, -0.040969204, -0.07384037, -371591.7, -11955.18, 0.0033241804, 9.939922, 9.9239 
7.5299895e+2, 2.732258e+2, -271917.97, -400054.9, -15961.439, -0.046028834, -0.05040739, -269959.66, -7580.2764, 0.0072687957, 9.940046, 9.924262 
7.5187147e+2, 2.8314883e+2, -182226.83, -329793.06, -11881.585, -0.06551761, -0.086604014, -181276.28, -16142.704, 0.014807628, 9.9404, 9.9222355 
7.507435e+2, 2.9307023e+2, -68655.37, -226015.02, -653.04846, -0.0823713, -0.14461134, -68652.66, -749.0613, 0.026964525, 9.941495, 9.921901 
7.496208e+2, 3.029941e+2, -31761.082, -153950.55, 37807.023, -0.06377294, -0.072161734, -21009.191, -21009.191, 0.043098036, 9.940041, 9.924791 
7.485018e+2, 3.1292027e+2, 32560.924, 70873.18, 1301.8851, 0.03986195, -0.038747776, 70917.37, 70917.37, 0.060994133, 9.93653, 9.941281 
7.798608e+2, 1.2541798e+2, -1693067.5, -1723910.8, -0.7748936, 0.13801949, -0.06800666, -1693067.5, 17831.127, 0.09095766, 9.939043, 9.9348345 
7.7873665e+2, 1.3535267e+2, -1597868.3, -1633308.0, -683.02246, 0.11269614, -0.06638759, -1597855.1, 15683.396, 0.06282223, 9.93902, 9.934217 
7.776112e+2, 1.4528644e+2, -1500417.5, -1541215.3, -3429.7188, 0.08949944, -0.05860442, -1500131.1, 16056.331, 0.036900293, 9.939174, 9.933618 
7.764857e+2, 1.5522009e+2, -1397779.3, -1446500.3, -5016.5005, 0.077362314, -0.04612466, -1397268.1, 21569.576, 0.017632606, 9.939679, 9.933059 
7.7535844e+2, 1.651521e+2, -1306059.5, -1370459.6, -11373.754, 0.068450466, -0.04552608, -1304109.8, 17394.14, 0.0066743675, 9.939839, 9.93136 
7.7423054e+2, 1.7508326e+2, -1208941.3, -1277500.0, -12577.646, 0.056806825, -0.056514844, -1206706.6, 17471.54, 0.0020335538, 9.939948, 9.930929 
7.731019e+2, 1.8501334e+2, -1115439.4, -1196966.0, -14942.953, 0.043275923, -0.058637444, -1112786.9, 14076.631, 0.00056177605, 9.940209, 9.929581 
7.719731e+2, 1.9494286e+2, -1012031.56, -1101336.9, -15207.901, 0.032356415, -0.05433645, -1009512.8, 20041.186, 0.00019363461, 9.940765, 9.929122 
7.708437e+2, 2.0487112e+2, -918253.75, -1020951.06, -18727.213, 0.020945458, -0.056206435, -914945.3, 17311.533, 0.00010600476, 9.940987, 9.92779 
7.697138e+2, 2.1479873e+2, -819984.56, -927412.56, -18492.703, 0.0059515545, -0.06807536, -816890.3, 18075.867, 0.0000763623, 9.941202, 9.927408 
7.685843e+2, 2.2472546e+2, -728232.44, -845462.75, -18933.133, -0.0073766615, -0.06729766, -725250.5, 12433.543, 0.0000643525, 9.9412565, 9.926325 
7.674547e+2, 2.3465179e+2, -631514.9, -752304.06, -16911.156, -0.016623542, -0.059168812, -629191.9, 11213.841, 0.00007331168, 9.941332, 9.926008 
7.6632553e+2, 2.4457715e+2, -541892.25, -669268.2, -18662.697, -0.026445046, -0.068670854, -539214.2, 3922.857, 0.00012965723, 9.94107, 9.925166 
7.6519614e+2, 2.5450212e+2, -447765.5, -574681.4, -17746.21, -0.03456889, -0.09236956, -445330.8, 541.5586, 0.0003093701, 9.94087, 9.925138 
7.640677e+2, 2.6442677e+2, -364921.9, -500282.6, -15418.864, -0.044783086, -0.07259907, -363187.75, -14576.908, 0.0008103393, 9.940475, 9.92379 
7.6293916e+2, 2.743509e+2, -271371.78, -405653.44, -11766.048, -0.05537358, -0.02970208, -270348.63, -18994.365, 0.0020751832, 9.940234, 9.923701 
7.61812e+2, 2.8427404e+2, -175979.67, -312392.13, -6674.9644, -0.058711387, -0.06897208, -175653.83, -21546.31, 0.00481795, 9.94023, 9.923437 
7.6068467e+2, 2.941967e+2, -77176.85, -215905.6, -1866.2451, -0.06356999, -0.15444025, -77151.75, -20286.582, 0.009633072, 9.940416, 9.923221 
7.595599e+2, 3.0412114e+2, -50936.0, -182770.7, 15084.092, -0.116192296, -0.001545819, -49232.152, -49232.152, 0.016351257, 9.939592, 9.922846 
7.5843585e+2, 3.1404424e+2, -17272.898, -48548.598, -5795.7524, -0.24989817, 0.0035112952, -16233.425, -16233.425, 0.024007745, 9.937051, 9.933014 
7.897995e+2, 1.2654218e+2, -1687943.5, -1713003.5, -4969.521, 0.12609027, -0.051499933, -1686994.0, 12888.529, 0.06232195, 9.939123, 9.935752 
7.886762e+2, 1.3647754e+2, -1579693.8, -1616988.4, -5337.7773, 0.124195844, -0.069020115, -1578944.9, 23571.2, 0.042461146, 9.940104, 9.934949 
7.8755116e+2, 1.4641169e+2, -1483365.6, -1532460.8, -8199.662, 0.10749287, -0.06308223, -1482032.4, 23129.006, 0.024464397, 9.940425, 9.933751 
7.8642565e+2, 1.5634555e+2, -1386633.8, -1440406.9, -11181.741, 0.08463564, -0.0451102, -1384401.4, 23408.098, 0.011363006, 9.940495, 9.933231 
7.852985e+2, 1.6627778e+2, -1295104.8, -1364080.8, -16730.922, 0.0687018, -0.04090497, -1291260.6, 19212.697, 0.004107627, 9.940651, 9.93158 
7.8417087e+2, 1.762092e+2, -1193093.4, -1269047.8, -17771.441, 0.05762187, -0.0489432, -1189141.0, 24004.393, 0.0011430016, 9.941095, 9.931098 
7.830425e+2, 1.8613943e+2, -1099623.6, -1188284.9, -18567.01, 0.042512763, -0.050692674, -1095892.4, 19936.543, 0.00025201778, 9.941363, 9.929767 
7.81914e+2, 1.960691e+2, -1000116.3, -1094552.1, -19284.701, 0.023110326, -0.051170915, -996330.0, 22187.953, 0.000051052644, 9.94164, 9.929294 
7.807847e+2, 2.0599745e+2, -908925.94, -1017647.7, -22812.564, 0.010843091, -0.052511618, -904333.3, 16886.809, 0.00001464393, 9.941781, 9.92775 
7.7965516e+2, 2.1592507e+2, -810697.25, -924025.06, -22572.39, 0.0016612684, -0.058365583, -806366.8, 17562.494, 0.000007893304, 9.941974, 9.927362 
7.785257e+2, 2.2585185e+2, -718201.2, -840116.9, -22590.166, -0.0028743073, -0.054120623, -714150.0, 12496.576, 0.0000063973866, 9.9420185, 9.926401 
7.773963e+2, 2.3577827e+2, -622163.75, -747233.0, -21118.56, -0.0028462687, -0.046628404, -618694.06, 10673.386, 0.000008236199, 9.942036, 9.926066 
7.762669e+2, 2.4570346e+2, -536026.94, -670804.25, -22810.732, -0.017389767, -0.054417305, -532270.94, -170.57928, 0.000018142293, 9.9417715, 9.924745 
7.75137e+2, 2.55628e+2, -444001.38, -577737.94, -21597.74, -0.04237175, -0.07535938, -440599.94, -5760.223, 0.000053293974, 9.941442, 9.924648 
7.740082e+2, 2.655525e+2, -355558.56, -488938.16, -18163.266, -0.049924217, -0.06671201, -353129.38, -15549.905, 0.00016765638, 9.940967, 9.924257 
7.7287954e+2, 2.754769e+2, -265892.47, -397194.06, -12131.758, -0.0463106, -0.046498045, -264780.97, -24460.611, 0.0005001343, 9.9405, 9.92404 
7.7175206e+2, 2.8540048e+2, -172786.78, -305164.66, -4059.5999, -0.0721948, -0.066550754, -172662.4, -29593.246, 0.0012941048, 9.940406, 9.923694 
7.706246e+2, 2.953238e+2, -78557.65, -217364.33, 271.56918, -0.11880684, -0.09676971, -78557.12, -32736.557, 0.0027670495, 9.940551, 9.92295 
7.695002e+2, 3.0524665e+2, -57760.0, -200732.4, 7714.258, -0.07181508, 0.0031016977, -57344.973, -57344.973, 0.00488154, 9.939814, 9.921252 
7.6837593e+2, 3.151669e+2, 37753.99, 37513.016, -10780.458, -0.018559571, -0.15615949, 48414.633, 48414.633, 0.007329064, 9.93823, 9.937978 
7.9973954e+2, 1.2766609e+2, -1660353.0, -1691355.0, 4419.5635, 0.13370456, -0.030894784, -1659735.3, 29134.107, 0.04048696, 9.94057, 9.9364605 
7.986169e+2, 1.3760245e+2, -1560026.8, -1600897.1, 1697.641, 0.11836559, -0.019329417, -1559956.4, 31536.754, 0.027255554, 9.941017, 9.935549 
7.974919e+2, 1.4753678e+2, -1469877.5, -1525137.6, -2544.5562, 0.09789888, -0.025389079, -1469760.5, 24376.07, 0.015450949, 9.941092, 9.933881 
7.963666e+2, 1.574705e+2, -1373312.8, -1433338.5, -5793.348, 0.080188446, -0.035449855, -1372758.6, 24027.506, 0.0070204227, 9.941144, 9.933335 
7.9523957e+2, 1.6740283e+2, -1282219.5, -1356074.4, -9151.534, 0.0651762, -0.03653387, -1281102.4, 18346.678, 0.0024614362, 9.941269, 9.931806 
7.941124e+2, 1.7733453e+2, -1180407.1, -1260797.4, -10745.848, 0.050019555, -0.03763118, -1178995.5, 23122.662, 0.00065384543, 9.94167, 9.931352 
7.9298425e+2, 1.8726502e+2, -1087328.0, -1181127.0, -11405.131, 0.03615261, -0.036428828, -1085961.1, 18838.092, 0.00013178977, 9.941922, 9.929965 
7.9185617e+2, 1.9719492e+2, -987727.0, -1087527.0, -12835.609, 0.023201201, -0.03567439, -986102.56, 21383.77, 0.000020838195, 9.942189, 9.92948 
7.907271e+2, 2.0712338e+2, -897563.1, -1011795.0, -15682.645, 0.019844236, -0.03750106, -895449.25, 14737.985, 0.0000030700608, 9.942299, 9.927867 
7.895977e+2, 2.1705113e+2, -799231.7, -917909.5, -15390.879, 0.018770156, -0.041264266, -797268.2, 15626.855, 0.0000007641624, 9.942461, 9.927497 
7.884682e+2, 2.2697788e+2, -708747.8, -837451.9, -15989.993, 0.0026846586, -0.04227121, -706791.0, 8821.634, 0.00000049924284, 9.942486, 9.9263115 
7.873386e+2, 2.3690416e+2, -613497.06, -745485.9, -16306.9375, -0.01376648, -0.042464964, -611512.2, 6822.7515, 0.0000007488596, 9.942473, 9.925952 
7.862091e+2, 2.4682924e+2, -524263.6, -667484.1, -18296.535, -0.025349427, -0.04586326, -521963.16, -894.1924, 0.0000021180936, 9.942469, 9.924601 
7.8507924e+2, 2.567537e+2, -426331.4, -571425.8, -17163.08, -0.039901312, -0.056178246, -424328.84, -519.96, 0.000007743483, 9.942518, 9.924501 
7.839498e+2, 2.6667812e+2, -337906.56, -479880.28, -19320.355, -0.04954351, -0.052521065, -335324.34, -8775.143, 0.000029168345, 9.941938, 9.9243965 
7.8282034e+2, 2.766026e+2, -253600.3, -390309.88, -17209.771, -0.050202914, -0.049996443, -251467.11, -22178.053, 0.000098910874, 9.941139, 9.924343 
7.816925e+2, 2.865266e+2, -168860.83, -302169.0, -12824.911, -0.078482166, -0.06302588, -167638.22, -35604.023, 0.00027650586, 9.94056, 9.92402 
7.805647e+2, 2.9645056e+2, -91197.195, -227016.31, -8607.501, -0.1262351, -0.056393117, -90653.875, -55874.496, 0.0006169302, 9.939777, 9.922884 
7.794396e+2, 3.0637285e+2, -62725.703, -203070.44, 3651.1392, -0.06409591, -0.00622042, -62630.78, -62630.78, 0.0011135023, 9.939152, 9.921332 
7.7831334e+2, 3.1629133e+2, 27970.26, -846.53046, 12948.47, -0.11592052, -0.3190136, 32933.617, 32933.617, 0.0016932306, 9.938943, 9.934955 
8.096804e+2, 1.2879051e+2, -1645638.4, -1680492.0, -701.6184, 0.13139674, -0.01839187, -1645624.3, 32226.895, 0.024554512, 9.941528, 9.936853 
8.085578e+2, 1.3872732e+2, -1553088.9, -1594985.3, -5036.385, 0.102561496, -0.00024335244, -1552492.0, 27978.463, 0.016354568, 9.941489, 9.935856 
8.0743307e+2, 1.48662e+2, -1459666.6, -1517582.3, -7498.9766, 0.085573256, -0.0017184193, -1458711.4, 24399.209, 0.009139995, 9.941819, 9.934218 
8.0630815e+2, 1.58596e+2, -1355898.3, -1422770.6, -11240.825, 0.07779147, -0.015297278, -1354059.3, 31698.244, 0.0040751924, 9.942354, 9.9336 
8.0518126e+2, 1.6852857e+2, -1264984.6, -1345172.9, -13326.539, 0.06400633, -0.022211235, -1262827.9, 25590.168, 0.0013936987, 9.942438, 9.932119 
8.040542e+2, 1.7846055e+2, -1167302.3, -1251620.6, -14865.426, 0.04624332, -0.025398616, -1164758.1, 26326.07, 0.0003581768, 9.942541, 9.931675 
8.029264e+2, 1.883914e+2, -1074596.9, -1172557.9, -14595.095, 0.032835014, -0.021783745, -1072468.6, 21293.426, 0.00006886962, 9.94279, 9.930252 
8.017985e+2, 1.9832158e+2, -974969.3, -1079561.1, -16364.922, 0.023055851, -0.018884739, -972468.56, 23977.797, 0.000009974997, 9.943064, 9.929699 
8.0066967e+2, 2.0825025e+2, -884681.56, -1003730.3, -18794.385, 0.028408589, -0.019890876, -881784.94, 17360.152, 0.00000112396, 9.943186, 9.928082 
7.995405e+2, 2.1817823e+2, -787205.8, -911050.56, -18646.58, 0.034788925, -0.02432851, -784459.25, 17391.637, 0.00000012115365, 9.943323, 9.927629 
7.984109e+2, 2.2810487e+2, -698647.0, -834419.2, -19306.473, 0.0016917324, -0.031892568, -695955.0, 8614.325, 0.000000034254263, 9.943345, 9.926162 
7.97281e+2, 2.3803087e+2, -604860.25, -743812.0, -18961.43, -0.040616486, -0.041747298, -602319.25, 4975.075, 0.000000056028007, 9.943258, 9.925722 
7.961516e+2, 2.4795586e+2, -516945.6, -664515.75, -19882.988, -0.040767726, -0.036150686, -514313.6, -4284.327, 0.00000020923696, 9.943111, 9.924493 
7.950219e+2, 2.5788033e+2, -423133.03, -573063.0, -19095.912, -0.03234283, -0.029379131, -420739.1, -7969.812, 0.0000009577335, 9.942979, 9.924137 
7.9389185e+2, 2.6780403e+2, -341887.03, -491820.84, -24101.324, -0.046482004, -0.023944935, -338108.1, -22591.184, 0.0000042292563, 9.942161, 9.923383 
7.927614e+2, 2.7772743e+2, -260444.06, -404507.22, -21994.193, -0.0639178, -0.027486669, -257161.02, -38893.676, 0.000015757232, 9.941226, 9.923299 
7.9163295e+2, 2.8765017e+2, -175364.67, -312711.47, -20954.143, -0.08831495, -0.06952174, -172238.97, -51215.055, 0.00004628584, 9.940539, 9.923293 
7.9050446e+2, 2.975733e+2, -92455.53, -226154.16, -17273.305, -0.12423927, -0.08682789, -90259.945, -66482.62, 0.00010590441, 9.939804, 9.922997 
7.893795e+2, 3.0749813e+2, -31412.115, -148778.45, -708.3266, -0.037005987, 0.014269947, -31407.84, -31407.84, 0.00019366574, 9.939886, 9.9246235 
7.8825164e+2, 3.174249e+2, 43596.62, 18675.336, 5902.911, -0.22771828, 0.2416966, 44924.086, 44924.086, 0.0002965463, 9.939422, 9.935768 
8.196225e+2, 1.299148e+2, -1625858.3, -1667718.4, 5633.783, 0.12715547, -0.009603191, -1625113.4, 41720.85, 0.013656359, 9.94248, 9.937148 
8.1849957e+2, 1.3985167e+2, -1537214.5, -1585048.4, 1184.3041, 0.092030056, -0.014103368, -1537185.1, 32267.89, 0.00901513, 9.942226, 9.936073 
8.173752e+2, 1.4978679e+2, -1447454.3, -1507863.9, 2516.908, 0.08192784, -0.0014462611, -1447349.6, 24739.313, 0.0049783196, 9.942274, 9.934609 
8.162508e+2, 1.5972134e+2, -1346469.9, -1414586.8, -2582.3599, 0.083072655, 0.0054997914, -1346372.1, 28358.217, 0.0021846793, 9.94258, 9.933955 
8.15124e+2, 1.6965422e+2, -1256071.3, -1337447.9, -4382.183, 0.07031107, -0.0070732487, -1255836.0, 21551.938, 0.0007317571, 9.942614, 9.932481 
8.139971e+2, 1.795865e+2, -1157587.8, -1243199.5, -5828.0806, 0.050811525, -0.018854043, -1157192.9, 22858.383, 0.0001830531, 9.94276, 9.93206 
8.128695e+2, 1.8951772e+2, -1064619.4, -1164393.1, -4478.7007, 0.034479856, -0.01357465, -1064418.8, 18306.559, 0.000033989887, 9.943062, 9.930609 
8.1174195e+2, 1.9944826e+2, -964575.44, -1072006.3, -6903.1025, 0.021724656, -0.0075476663, -964133.7, 21272.36, 0.000004694803, 9.943375, 9.92998 
8.1061316e+2, 2.0937715e+2, -873754.94, -997162.0, -9103.519, 0.020185102, -0.0076406836, -873087.0, 15015.735, 0.0000004859859, 9.943597, 9.92826 
8.0948424e+2, 2.1930528e+2, -774707.6, -904999.3, -9496.371, 0.020331293, -0.010578152, -774019.1, 16787.896, 0.000000038930008, 9.943897, 9.927699 
8.083548e+2, 2.2923194e+2, -683575.2, -828423.5, -10965.716, -0.0034627502, -0.015178103, -682749.75, 10775.735, 0.000000003570094, 9.944152, 9.926116 
8.0722505e+2, 2.3915792e+2, -585910.06, -735620.7, -11643.43, -0.034941826, -0.022009408, -585009.94, 11240.653, 0.0000000037187802, 9.944298, 9.925709 
8.060953e+2, 2.4908286e+2, -500774.4, -656888.06, -14214.48, -0.03955117, -0.021913413, -499490.72, -504.8209, 0.000000018805313, 9.943948, 9.924509 
8.049652e+2, 2.590073e+2, -413529.38, -570428.06, -13925.052, -0.0345357, -0.016241876, -412303.06, -10576.785, 0.000000107488816, 9.943454, 9.923984 
8.038345e+2, 2.6893067e+2, -325619.28, -488032.22, -17578.94, -0.045878276, -0.0103044445, -323738.4, -19261.273, 0.00000053998946, 9.943176, 9.922916 
8.0270326e+2, 2.7885342e+2, -238624.45, -399842.7, -12055.785, -0.06301117, -0.017002156, -237727.92, -30494.256, 0.0000021469273, 9.942705, 9.922587 
8.015737e+2, 2.887753e+2, -161962.4, -312291.44, -11888.077, -0.09710887, -0.07031672, -161028.1, -51029.336, 0.0000065058885, 9.941409, 9.922492 
8.0044407e+2, 2.9869774e+2, -82746.61, -213734.25, -5632.521, -0.13122122, -0.09646391, -82504.85, -69746.23, 0.000015112034, 9.939933, 9.923434 
7.993196e+2, 3.0862516e+2, -19587.195, -107117.56, 3043.1638, 0.021625938, 0.04529258, -19481.521, -19481.521, 0.000027844664, 9.939051, 9.927724 
7.981909e+2, 3.1855032e+2, -21698.436, -87111.87, -15842.378, -0.16015728, -0.055722654, -18063.574, -18063.574, 0.000042801923, 9.937435, 9.929362 
8.2956564e+2, 1.3103926e+2, -1612800.0, -1664582.0, -631.2364, 0.15034482, 0.0014011906, -1612792.3, 43023.45, 0.006829297, 9.943656, 9.936933 
8.284424e+2, 1.4097606e+2, -1516554.0, -1572327.9, -8588.262, 0.08436595, -0.0027487362, -1515261.5, 43173.777, 0.0044781193, 9.943631, 9.936417 
8.273178e+2, 1.5091188e+2, -1428920.9, -1490141.8, -4398.847, 0.076891854, 0.00307365, -1428606.5, 32457.799, 0.0024504783, 9.943255, 9.93552 
8.261936e+2, 1.6084726e+2, -1335453.6, -1402579.8, -8142.781, 0.0847249, 0.009766181, -1334480.0, 29217.494, 0.0010623109, 9.943142, 9.934621 
8.250669e+2, 1.7078075e+2, -1239751.4, -1324078.9, -7020.5103, 0.07094252, 0.0021954426, -1239171.0, 27178.033, 0.00035011073, 9.943613, 9.933028 
8.2394034e+2, 1.8071353e+2, -1137260.4, -1229595.8, -8692.4795, 0.051323343, -0.007545302, -1136449.1, 32558.21, 0.00008574844, 9.944077, 9.932436 
8.2281286e+2, 1.9064508e+2, -1050189.8, -1154572.8, -7870.4565, 0.036554106, -0.002530009, -1049599.6, 22078.572, 0.00001549313, 9.944004, 9.930942 
8.216855e+2, 2.0057598e+2, -954603.8, -1064700.0, -10811.919, 0.022132833, 0.0030561925, -953552.06, 20803.621, 0.0000020664204, 9.944022, 9.930293 
8.205569e+2, 2.1050516e+2, -861623.6, -989122.3, -11425.258, 0.00932079, 0.0031061007, -860607.9, 16441.691, 0.00000020419303, 9.944421, 9.928517 
8.194281e+2, 2.2043349e+2, -763350.44, -899266.94, -10954.174, -0.00024047424, 0.0020739606, -762473.25, 17278.648, 0.000000015033955, 9.944745, 9.927754 
8.1829906e+2, 2.303602e+2, -676657.7, -825480.56, -11783.417, -0.005169101, 0.00509882, -675730.44, 6739.408, 0.0000000008680532, 9.944723, 9.9260645 
8.171696e+2, 2.4028616e+2, -581943.5, -734040.94, -12658.86, -0.016172232, 0.0039823954, -580897.1, 4298.0156, 0.00000000036248413, 9.94464, 9.925637 
8.160393e+2, 2.5021088e+2, -496967.25, -655318.1, -16708.86, -0.036466666, -0.0110994335, -495223.34, -7290.983, 0.0000000031520493, 9.944255, 9.924404 
8.1490856e+2, 2.6013508e+2, -409854.22, -567766.75, -15228.136, -0.05178406, -0.022520991, -408399.13, -17724.0, 0.000000023463139, 9.94373, 9.923969 
8.1377774e+2, 2.7005854e+2, -321215.84, -482227.9, -18366.693, -0.04557233, -0.015800558, -319147.3, -25722.58, 0.00000013247441, 9.94343, 9.923088 
8.126464e+2, 2.7998143e+2, -235753.61, -398328.66, -12880.467, -0.04657605, -0.015793836, -234739.44, -38559.24, 0.0000005542298, 9.942979, 9.92241 
8.1151533e+2, 2.8990325e+2, -159840.48, -314592.5, -16310.235, -0.105704, -0.031589657, -158140.14, -59194.07, 0.0000017184684, 9.941722, 9.921934 
8.103841e+2, 2.9982543e+2, -81530.97, -219079.38, -8134.8574, -0.1603306, -0.027751314, -81051.53, -79342.805, 0.0000040347345, 9.940314, 9.922663 
8.092582e+2, 3.0975083e+2, -35546.64, -127369.43, -11537.955, 0.01597208, 0.02260403, -34119.04, -34119.04, 0.000007474419, 9.938493, 9.926587 
8.081282e+2, 3.1967342e+2, -16840.617, -79000.72, -19140.445, -0.16662054, -0.25177926, -11419.623, -11419.623, 0.000011514828, 9.93786, 9.93001 
8.395098e+2, 1.3216393e+2, -1603651.0, -1662767.9, 8901.032, 0.16141666, 0.017835507, -1602339.9, 42455.254, 0.0030089617, 9.944149, 9.936639 
8.38386e+2, 1.4210078e+2, -1511423.8, -1563780.1, 749.1793, 0.072861195, 0.026561623, -1511413.0, 36001.26, 0.0019641386, 9.943419, 9.936841 
8.3726096e+2, 1.5203723e+2, -1418212.6, -1474154.0, 5845.6113, 0.06782134, 0.014140537, -1417608.4, 32428.475, 0.0010681495, 9.943204, 9.936468 
8.361367e+2, 1.6197333e+2, -1325549.6, -1389853.1, 2267.982, 0.0794152, 0.007051928, -1325469.8, 27193.13, 0.00045917454, 9.943202, 9.935328 
8.3501065e+2, 1.7190762e+2, -1230702.6, -1312364.3, 5530.2725, 0.0643523, 0.012289691, -1230329.8, 24976.96, 0.00014963388, 9.943686, 9.933708 
8.3388454e+2, 1.8184106e+2, -1130692.8, -1223692.4, 1233.8433, 0.045609728, 0.014246948, -1130676.4, 27282.549, 0.00003610315, 9.9441, 9.932711 
8.3275706e+2, 1.9177268e+2, -1045020.75, -1151292.4, 1459.1616, 0.042391356, 0.014710931, -1045000.7, 15628.328, 0.0000063962675, 9.94398, 9.931077 
8.316298e+2, 2.0170374e+2, -946681.94, -1057100.3, -242.4559, 0.03517556, 0.014376407, -946681.44, 16623.418, 0.00000083170164, 9.944099, 9.930699 
8.305017e+2, 2.116334e+2, -849126.44, -977815.44, 647.91473, 0.0105379615, 0.010945263, -849123.2, 16870.684, 0.00000007956064, 9.944779, 9.92905 
8.293733e+2, 2.215622e+2, -747744.5, -886633.4, -312.9731, -0.007192958, 0.008557407, -747743.75, 20947.469, 0.000000005620293, 9.94526, 9.928254 
8.282441e+2, 2.3148939e+2, -663826.6, -814139.2, -1223.1666, -0.0028224816, 0.0104748355, -663816.7, 7588.0063, 0.00000000032898215, 9.94502, 9.926512 
8.271145e+2, 2.4141572e+2, -573023.8, -727173.94, -203.64975, -0.0044539226, 0.010604567, -573023.5, 1103.0306, 0.00000000052348903, 9.944797, 9.925813 
8.259839e+2, 2.513405e+2, -483196.8, -647906.56, -4690.5435, -0.033462983, -0.0009047177, -483063.34, -6200.214, 0.000000005686858, 9.944828, 9.924386 
8.2485276e+2, 2.6126462e+2, -389889.6, -558544.2, -3510.4036, -0.05720584, -0.013601561, -389816.56, -10210.061, 0.00000004536004, 9.944786, 9.923863 
8.237217e+2, 2.7118793e+2, -303358.06, -474266.4, -11123.925, -0.048839107, -0.01078578, -302637.06, -20279.275, 0.00000026325205, 9.944362, 9.923014 
8.225897e+2, 2.8111082e+2, -220567.06, -393060.94, -8899.981, -0.04384195, -0.0053028874, -220109.08, -34995.53, 0.0000011141149, 9.943753, 9.922271 
8.214572e+2, 2.910327e+2, -145396.0, -310871.72, -14207.155, -0.1086376, 0.00886317, -144185.08, -56306.137, 0.000003471816, 9.942449, 9.921595 
8.2032436e+2, 3.0095443e+2, -75686.16, -227785.02, -4365.7676, -0.16879816, 0.024461692, -75560.945, -75560.945, 0.0000081690405, 9.940816, 9.921576 
8.191963e+2, 3.1087705e+2, -42081.145, -151874.64, -9029.342, -0.0073835086, -0.031417616, -41343.53, -41343.53, 0.000015155089, 9.938507, 9.924514 
8.180667e+2, 3.2080352e+2, 34207.516, 33479.848, 17005.965, -0.13998902, 0.04356565, 50853.535, 50853.535, 0.000023358854, 9.938136, 9.937598 
8.494541e+2, 1.3328958e+2, -1577828.8, -1637857.5, -1560.6, 0.12522538, 0.03434705, -1577788.3, 55976.844, 0.0011421927, 9.945321, 9.937705 
8.4832954e+2, 1.4322717e+2, -1501647.4, -1552954.4, -2321.7766, 0.08815056, 0.036674775, -1501542.5, 34834.41, 0.0007435361, 9.943924, 9.937278 
8.472047e+2, 1.5316401e+2, -1399384.0, -1460330.8, 5105.4346, 0.07013484, 0.02896384, -1398959.3, 40036.23, 0.00040280866, 9.944429, 9.936894 
8.4608054e+2, 1.6310056e+2, -1300882.8, -1373211.4, -2211.8726, 0.07395356, 0.022350669, -1300815.1, 40802.117, 0.00017225166, 9.944772, 9.935797 
8.449546e+2, 1.7303543e+2, -1216180.0, -1299114.5, 1422.0358, 0.06144636, 0.028155299, -1216155.6, 28099.883, 0.00005573453, 9.944499, 9.934372 
8.438287e+2, 1.8296948e+2, -1123257.1, -1215751.3, -3298.6353, 0.044236716, 0.032686293, -1123139.6, 23762.06, 0.000013319515, 9.944482, 9.93319 
8.427014e+2, 1.9290155e+2, -1029497.2, -1139549.1, 342.99222, 0.04404176, 0.030357515, -1029496.06, 20071.52, 0.00000232996, 9.944915, 9.931474 
8.4157425e+2, 2.0283297e+2, -928811.1, -1042726.8, 1241.8948, 0.039946623, 0.026306445, -928797.56, 23442.02, 0.00000029792903, 9.945155, 9.931182 
8.4044653e+2, 2.1276312e+2, -840268.0, -967291.25, 2632.3381, 0.010700788, 0.019147158, -840213.44, 14710.176, 0.000000027884646, 9.945213, 9.9295845 
8.3931845e+2, 2.2269244e+2, -743402.2, -878223.25, -717.8204, -0.010601704, 0.013616966, -743398.4, 14217.522, 0.0000000019195514, 9.945311, 9.928804 
8.381891e+2, 2.3262018e+2, -655361.4, -803200.75, -2939.555, -0.00019887967, 0.011188184, -655302.94, 5021.092, 0.00000000019847783, 9.945311, 9.927102 
8.3705944e+2, 2.4254695e+2, -565861.9, -721202.94, -486.0059, -0.000017267583, 0.01118452, -565860.3, -2818.8997, 0.000000001540536, 9.945229, 9.926014 
8.3592886e+2, 2.5247195e+2, -478951.94, -645032.6, -4853.71, -0.030356023, 0.015016103, -478810.22, -13034.128, 0.000000016924494, 9.9451475, 9.924391 
8.347976e+2, 2.6239595e+2, -391842.97, -565080.5, -3810.5952, -0.059196427, 0.012465463, -391759.2, -23238.406, 0.00000013515553, 9.944956, 9.923282 
8.3366585e+2, 2.723184e+2, -307966.6, -484971.6, -13880.453, -0.07134291, 0.007045835, -306884.75, -35603.914, 0.00000078460795, 9.944463, 9.922153 
8.3253324e+2, 2.822405e+2, -222364.33, -396805.2, -13325.502, -0.070876636, 0.008837724, -221352.28, -47308.473, 0.0000033204878, 9.943815, 9.921917 
8.314003e+2, 2.9216227e+2, -142461.2, -309961.6, -21534.576, -0.07223832, 0.025447128, -139736.92, -62926.586, 0.000010346408, 9.942723, 9.92141 
8.3026624e+2, 3.0208352e+2, -70216.16, -229831.27, -12782.697, -0.11197069, 0.027884884, -69198.94, -69198.94, 0.000024338526, 9.9414015, 9.921029 
8.291346e+2, 3.1200498e+2, -36164.19, -157176.1, -18331.854, -0.07782132, -0.06503172, -33448.1, -33448.1, 0.000045138222, 9.939209, 9.923519 
8.2800305e+2, 3.2193235e+2, -2505.498, 20899.02, -1447.6523, -0.16656595, 0.13665354, 20988.22, 20988.22, 0.00006958403, 9.9353285, 9.938031 
8.5939896e+2, 1.3441586e+2, -1578814.6, -1624443.5, 997.269, 0.11145898, 0.042671483, -1578792.9, 43935.848, 0.00036341642, 9.944266, 9.938854 
8.5827374e+2, 1.4435412e+2, -1493704.3, -1545860.6, 5974.837, 0.10838864, 0.037521675, -1493028.6, 32305.156, 0.00023620963, 9.944119, 9.937536 
8.571492e+2, 1.5429135e+2, -1397460.5, -1457011.3, 17353.22, 0.07481341, 0.044922914, -1392772.8, 35176.17, 0.00012768328, 9.944271, 9.937129 
8.560252e+2, 1.6422823e+2, -1299901.5, -1368756.6, 5956.867, 0.07077867, 0.046463214, -1299390.0, 31177.598, 0.000054433065, 9.944353, 9.936151 
8.5489905e+2, 1.7416348e+2, -1213153.1, -1292140.8, 10643.272, 0.06508861, 0.044426136, -1211744.1, 21457.926, 0.00001753889, 9.944149, 9.934892 
8.537731e+2, 1.8409815e+2, -1115826.8, -1201819.1, 7949.968, 0.045554724, 0.043894675, -1115097.9, 20744.238, 0.000004167791, 9.944278, 9.934133 
8.5264623e+2, 1.9403131e+2, -1018059.25, -1122029.0, 13665.855, 0.030298477, 0.044019002, -1016293.0, 22204.105, 0.00000072355056, 9.944931, 9.932556 
8.5151947e+2, 2.0396364e+2, -918426.4, -1030081.0, 12511.175, 0.024141666, 0.040152557, -917041.6, 24118.525, 0.00000009158835, 9.9451885, 9.931853 
8.5039175e+2, 2.1389438e+2, -834817.06, -957575.75, 14154.726, 0.0146750435, 0.031446345, -833206.06, 10632.424, 0.000000008458324, 9.944906, 9.930211 
8.492637e+2, 2.2382429e+2, -740009.6, -870832.2, 13104.669, -0.0016161047, 0.028003015, -738709.8, 7815.306, 0.00000000058265287, 9.944968, 9.929315 
8.481346e+2, 2.3375256e+2, -642466.44, -791390.8, 10829.826, -0.013600316, 0.031229634, -641683.0, 7544.9375, 0.0000000002773134, 9.945625, 9.9276 
8.4700507e+2, 2.4367976e+2, -544346.7, -706720.5, 12881.782, -0.019825924, 0.029857337, -543331.1, 8609.957, 0.0000000037693595, 9.946168, 9.926401 
8.458746e+2, 2.5360507e+2, -453334.66, -628935.75, 7899.744, -0.032385208, 0.026400052, -452980.0, 1692.9377, 0.000000041425366, 9.946351, 9.924719 
8.447433e+2, 2.635293e+2, -365611.13, -550906.7, 10493.66, -0.05344403, 0.025526611, -365018.75, -7603.5464, 0.0000003307569, 9.946261, 9.923342 
8.4361064e+2, 2.734516e+2, -286990.63, -475779.47, 4102.9136, -0.08052747, 0.023296192, -286901.5, -26724.98, 0.0000019196316, 9.945487, 9.921811 
8.424774e+2, 2.8337336e+2, -204169.7, -387457.6, 6708.805, -0.07794699, 0.022571953, -203924.47, -40981.13, 0.000008122093, 9.944555, 9.921625 
8.413435e+2, 2.932947e+2, -130673.62, -304415.9, -4498.385, -0.035903014, 0.03167638, -130557.23, -64844.023, 0.000025306756, 9.943017, 9.92106 
8.402079e+2, 3.032154e+2, -65356.992, -229156.03, 3225.3254, -0.07873095, 0.024439307, -65293.508, -65293.508, 0.00005952913, 9.941217, 9.920531 
8.390725e+2, 3.1313625e+2, -37006.457, -159700.11, -3637.9922, -0.17427887, -0.08207237, -36898.68, -36898.68, 0.000110368244, 9.938579, 9.922905 
8.3793783e+2, 3.2306087e+2, -31588.71, -31535.76, -7812.103, -0.11731955, 0.0015012355, -23750.088, -23750.088, 0.00017012702, 9.933621, 9.934189 
8.6934394e+2, 1.3554265e+2, -1565475.3, -1618995.3, 4191.148, 0.14197437, 0.047162555, -1565149.0, 46538.434, 0.00009383463, 9.945611, 9.938758 
8.682185e+2, 1.4548126e+2, -1461575.6, -1524171.9, -3176.5344, 0.07086337, 0.05453342, -1461414.8, 52874.27, 0.00006094004, 9.946101, 9.938131 
8.6709386e+2, 1.5541913e+2, -1379366.3, -1441372.5, 11984.191, 0.078222945, 0.055035032, -1377130.6, 39767.35, 0.00003290037, 9.945265, 9.937826 
8.6596984e+2, 1.6535665e+2, -1288268.1, -1356716.1, 1682.4348, 0.08179408, 0.05816972, -1288226.9, 31283.424, 0.000014001087, 9.944931, 9.93676 
8.6484355e+2, 1.7529261e+2, -1193341.5, -1275130.8, 8806.743, 0.060573492, 0.058968145, -1192403.9, 29733.975, 0.0000045003767, 9.945245, 9.935593 
8.6371773e+2, 1.8522808e+2, -1095446.8, -1181734.0, 6420.57, 0.03722032, 0.05671193, -1094971.6, 29798.688, 0.0000010659371, 9.945306, 9.935076 
8.625912e+2, 1.9516225e+2, -1005891.2, -1104533.4, 12150.693, 0.02014833, 0.054257642, -1004416.56, 22998.514, 0.00000018424288, 9.94535, 9.93367 
8.614646e+2, 2.050955e+2, -910869.0, -1019247.5, 8195.355, 0.015988562, 0.0515995, -910252.8, 19816.107, 0.000000023185766, 9.945402, 9.932581 
8.603368e+2, 2.1502703e+2, -821443.5, -943115.06, 10649.842, 0.020865727, 0.044581883, -820518.4, 12221.341, 0.0000000021246724, 9.94548, 9.93099 
8.592089e+2, 2.2495767e+2, -727925.9, -859113.0, 13292.694, 0.0016028328, 0.046512444, -726592.5, 8826.83, 0.00000000016612903, 9.945629, 9.929892 
8.5808e+2, 2.3488662e+2, -634994.2, -781849.2, 11861.527, -0.03763147, 0.058175445, -634042.3, 4073.3691, 0.00000000051179117, 9.9459715, 9.92815 
8.56951e+2, 2.4481428e+2, -540803.7, -700001.06, 14035.215, -0.04888593, 0.05241191, -539575.75, 1248.6198, 0.000000007637945, 9.946255, 9.926843 
8.55821e+2, 2.547398e+2, -450922.38, -622908.9, 8625.982, -0.03491022, 0.029264864, -450490.84, -6936.979, 0.000000083945466, 9.946359, 9.925099 
8.546897e+2, 2.646646e+2, -360377.16, -538246.4, 9655.633, -0.040564302, 0.025573844, -359854.53, -13564.2705, 0.0000006702643, 9.946194, 9.924155 
8.5355633e+2, 2.7458784e+2, -281802.8, -464016.7, 2193.268, -0.063512415, 0.04091507, -281776.4, -32734.006, 0.000003889783, 9.945444, 9.9224825 
8.5242194e+2, 2.845097e+2, -205813.95, -389410.97, 4015.8643, -0.07504915, 0.03238054, -205726.16, -53918.004, 0.000016460805, 9.944507, 9.921312 
8.51286e+2, 2.944302e+2, -135646.55, -310275.66, -9611.132, -0.07332321, 0.0039959913, -135119.17, -80532.81, 0.000051319832, 9.942822, 9.920507 
8.501486e+2, 3.0435112e+2, -60759.59, -215862.22, -2312.6401, -0.11218798, 0.020773659, -60725.117, -60725.117, 0.000120814846, 9.941027, 9.92122 
8.490115e+2, 3.1427372e+2, -30072.21, -145024.52, -7415.7783, -0.12671967, 0.018144758, -29595.78, -29595.78, 0.00022411745, 9.938493, 9.923451 
8.4787285e+2, 3.2419693e+2, -11072.155, -36174.08, -18623.314, -0.07187101, 0.004911506, -1165.2795, -1165.2795, 0.00034556063, 9.935321, 9.93206 
8.792895e+2, 1.3666981e+2, -1567623.8, -1619227.6, 18042.043, 0.13132265, 0.06521766, -1561941.4, 38701.223, 0.000019043677, 9.945485, 9.938778 
8.781638e+2, 1.4660878e+2, -1467844.4, -1518617.3, 1759.2758, 0.030537775, 0.07358684, -1467783.5, 35457.34, 0.000012362725, 9.945011, 9.9388075 
8.77039e+2, 1.5654725e+2, -1378345.6, -1432310.5, 18949.512, 0.090549424, 0.060456004, -1372356.3, 33487.293, 0.0000066696857, 9.944682, 9.938576 
8.7591475e+2, 1.6648546e+2, -1286029.5, -1347684.8, 10636.946, 0.09544045, 0.06447998, -1284246.0, 24203.102, 0.000002835376, 9.944543, 9.937445 
8.747885e+2, 1.764223e+2, -1190025.1, -1264147.0, 18880.475, 0.041554794, 0.07488213, -1185493.0, 25575.133, 0.0000009100635, 9.944868, 9.936434 
8.7366277e+2, 1.863585e+2, -1092475.4, -1172157.5, 14396.3125, 0.021594558, 0.06840086, -1089954.1, 23739.242, 0.00000021513608, 9.944882, 9.935817 
8.725365e+2, 1.9629338e+2, -1003272.94, -1093947.8, 20590.102, 0.03107712, 0.05490523, -998816.44, 17514.563, 0.000000037089958, 9.944844, 9.934541 
8.7140995e+2, 2.0622754e+2, -906871.9, -1008070.9, 18001.709, 0.026802031, 0.05748657, -903765.06, 15211.114, 0.0000000046516857, 9.945022, 9.933458 
8.702823e+2, 2.1616016e+2, -811353.94, -928246.1, 21230.14, 0.011727121, 0.06568893, -807617.5, 14018.9, 0.0000000004243601, 9.945469, 9.931939 
8.691547e+2, 2.2609167e+2, -714743.8, -842589.5, 24102.781, -0.0047206576, 0.06458421, -710350.7, 13956.6455, 0.000000000071721434, 9.945776, 9.930854 
8.6802614e+2, 2.3602149e+2, -623344.8, -765037.5, 24068.547, -0.027329518, 0.062101673, -619368.0, 7627.036, 0.0000000009082265, 9.94594, 9.929187 
8.6689717e+2, 2.4595033e+2, -529174.25, -678838.7, 28794.453, -0.037694752, 0.0560398, -523825.53, 5866.382, 0.000000013717135, 9.9459715, 9.928226 
8.6576706e+2, 2.5587723e+2, -441670.53, -603698.5, 27265.861, -0.03258508, 0.04040455, -437205.3, -4797.296, 0.00000015076724, 9.945889, 9.9263 
8.6463577e+2, 2.6580313e+2, -348539.25, -520317.5, 30415.68, -0.03734394, 0.03738316, -343312.75, -8179.109, 0.0000012040975, 9.945953, 9.925124 
8.635021e+2, 2.7572727e+2, -258171.69, -441552.4, 21512.865, -0.055074964, 0.051632337, -255681.77, -17804.895, 0.000006992764, 9.945995, 9.9233675 
8.6236686e+2, 2.8564966e+2, -176600.67, -370666.78, 24715.592, -0.07673295, 0.036711935, -173502.44, -32865.133, 0.000029645516, 9.945647, 9.921479 
8.6122894e+2, 2.9556987e+2, -107308.45, -295574.75, 13516.395, -0.10661431, -0.011042148, -106343.01, -62924.0, 0.00009271142, 9.944039, 9.920191 
8.6008966e+2, 3.054912e+2, -37697.1, -190622.3, 15048.977, -0.11667323, 0.040126696, -36230.24, -36230.24, 0.00021904535, 9.941227, 9.922058 
8.589504e+2, 3.1541568e+2, -32264.752, -135387.83, 5193.7393, -0.026158916, 0.13259892, -32003.832, -32003.832, 0.0004076256, 9.937041, 9.924102 
8.578068e+2, 3.253374e+2, -25895.373, -54381.42, -6505.762, -0.1725764, -0.007810815, -24479.895, -24479.895, 0.00062983576, 9.934022, 9.9307375 
8.8923526e+2, 1.3779753e+2, -1538026.8, -1585535.6, 8582.863, 0.105384246, 0.103338875, -1536523.8, 53068.72, 0.000002958578, 9.9466, 9.940469 
8.8810927e+2, 1.4773709e+2, -1454042.9, -1505105.4, -52.348267, 0.057171114, 0.07535736, -1454042.9, 38141.64, 0.0000019202917, 9.945761, 9.939378 
8.8698435e+2, 1.5767637e+2, -1350152.9, -1411872.4, 17900.967, 0.082217835, 0.07834625, -1345336.6, 49442.72, 0.0000010355539, 9.94639, 9.939205 
8.8585985e+2, 1.6761515e+2, -1260175.4, -1327987.4, 6876.602, 0.08651393, 0.079253785, -1259485.0, 37894.3, 0.0000004399312, 9.946021, 9.9381075 
8.847335e+2, 1.7755271e+2, -1176478.5, -1248356.4, 15835.001, 0.03787196, 0.082452066, -1173144.5, 26846.555, 0.00000014107277, 9.945431, 9.937315 
8.8360775e+2, 1.8748981e+2, -1081053.9, -1157115.6, 11970.253, 0.019787941, 0.07769192, -1079214.5, 23393.041, 0.00000003330806, 9.945289, 9.936704 
8.824816e+2, 1.9742568e+2, -988573.9, -1076582.8, 19465.393, 0.037804592, 0.06438898, -984460.9, 20774.863, 0.0000000057331504, 9.945444, 9.935484 
8.813552e+2, 2.0736073e+2, -893607.94, -991749.0, 17930.17, 0.02926398, 0.07018165, -890434.75, 17437.246, 0.00000000071752804, 9.945571, 9.934369 
8.8022774e+2, 2.1729445e+2, -800164.0, -911465.3, 21254.078, -0.00071555155, 0.08537211, -796243.44, 14278.145, 0.00000000006547386, 9.945814, 9.932984 
8.7910044e+2, 2.2722694e+2, -705640.94, -825495.8, 24049.027, -0.0077522644, 0.07607858, -700995.5, 12187.236, 0.0000000000751049, 9.945895, 9.931997 
8.7797236e+2, 2.3715779e+2, -614841.8, -745943.5, 24229.928, -0.0025307422, 0.055374432, -610507.06, 5353.0747, 0.0000000014740116, 9.945914, 9.9305105 
8.7684333e+2, 2.4708831e+2, -517755.7, -652372.6, 28303.164, -0.016972305, 0.05681632, -512047.03, 6493.542, 0.000000022289091, 9.945872, 9.930108 
8.757129e+2, 2.570173e+2, -432470.6, -580167.9, 25920.504, -0.036836147, 0.0631956, -428053.7, -6817.5586, 0.00000024496487, 9.945723, 9.927999 
8.745815e+2, 2.6694447e+2, -345971.6, -508986.66, 31111.023, -0.05015261, 0.053945303, -340235.94, -16286.014, 0.0000019576619, 9.945762, 9.926016 
8.734481e+2, 2.768691e+2, -253110.1, -428746.4, 21803.709, -0.06437894, 0.044189263, -250443.83, -23755.523, 0.000011400731, 9.94598, 9.9242325 
8.723127e+2, 2.8679302e+2, -165052.3, -348641.0, 20447.879, -0.07129214, 0.054749724, -162802.4, -33368.8, 0.000048632028, 9.945765, 9.922759 
8.711735e+2, 2.9671466e+2, -98086.96, -282144.03, 9492.388, -0.07741554, 0.060197968, -97598.71, -65396.895, 0.00015357247, 9.944286, 9.920764 
8.700309e+2, 3.066348e+2, -43157.004, -200307.56, -4425.994, -0.111760154, 0.0539725, -43032.45, -43032.45, 0.00036699965, 9.940894, 9.921173 
8.688861e+2, 3.165576e+2, -52501.5, -153780.88, -19271.967, -0.07564077, 0.037505418, -48958.29, -48958.29, 0.00068988913, 9.935736, 9.923249 
8.6774e+2, 3.2648078e+2, -33002.71, -49551.348, -9153.706, -0.187761, -0.0024426437, -28937.877, -28937.877, 0.001073521, 9.933213, 9.931543 
8.991814e+2, 1.3892551e+2, -1540947.4, -1569469.6, 9207.741, 0.12355048, 0.113653824, -1538233.1, 40306.508, 0.00000034527207, 9.945391, 9.941935 
8.980551e+2, 1.4886579e+2, -1458147.4, -1500299.8, 6881.054, 0.08606757, 0.07743353, -1457052.5, 24071.986, 0.00000022408217, 9.945128, 9.939945 
8.969302e+2, 1.5880588e+2, -1356261.1, -1408970.3, 24614.049, 0.053538185, 0.104872726, -1346554.4, 37157.04, 0.00000012080618, 9.94561, 9.939725 
8.958055e+2, 1.6874506e+2, -1264211.9, -1322977.3, 9957.581, 0.07343042, 0.09418994, -1262570.4, 23737.0, 0.000000051297388, 9.94523, 9.938714 
8.946789e+2, 1.7868318e+2, -1176781.9, -1238673.3, 20278.33, 0.059047546, 0.078613974, -1170729.6, 18184.162, 0.00000001643881, 9.944787, 9.938193 
8.935529e+2, 1.886214e+2, -1079155.5, -1144381.6, 18433.21, 0.028691974, 0.09071694, -1074306.6, 17212.563, 0.000000003877973, 9.944759, 9.9377575 
8.9242667e+2, 1.9855864e+2, -985988.06, -1063875.3, 26632.598, 0.021909507, 0.10248424, -977752.25, 16381.948, 0.00000000066676814, 9.944971, 9.93651 
8.9130056e+2, 2.084944e+2, -891899.75, -980831.3, 25183.102, 0.020693064, 0.0900103, -885263.7, 11499.608, 0.00000000008333369, 9.945077, 9.935279 
8.901733e+2, 2.184289e+2, -797380.44, -896003.5, 28949.023, 0.005272491, 0.07794898, -789510.94, 9893.96, 0.000000000010516922, 9.945195, 9.934257 
8.890459e+2, 2.2836295e+2, -702014.75, -804489.25, 32856.223, -0.0077175205, 0.07210057, -692385.06, 9665.754, 0.000000000098867345, 9.945057, 9.933703 
8.879176e+2, 2.3829566e+2, -613958.9, -726990.75, 35920.03, -0.010780611, 0.06408573, -603509.9, 1199.9299, 0.0000000020481026, 9.944882, 9.932106 
8.867886e+2, 2.482276e+2, -516851.56, -636731.7, 40456.977, -0.021264065, 0.07270884, -504475.8, 2900.9285, 0.0000000309748, 9.944944, 9.9314785 
8.8565814e+2, 2.5815824e+2, -425631.38, -558962.44, 35999.207, -0.039580073, 0.084444195, -416532.56, -6476.033, 0.0000003404844, 9.944987, 9.929729 
8.845266e+2, 2.6808733e+2, -337491.3, -479763.34, 46086.73, -0.055810593, 0.069466434, -323866.94, -11116.022, 0.0000027257568, 9.944693, 9.928409 
8.8339293e+2, 2.780142e+2, -252298.63, -402886.44, 44959.516, -0.069896765, 0.04976064, -239896.86, -24429.465, 0.000015971164, 9.944201, 9.926515 
8.822573e+2, 2.8794104e+2, -162675.88, -313157.47, 45433.45, -0.06610048, 0.08038911, -150022.55, -31837.682, 0.000069086105, 9.943445, 9.925762 
8.8111705e+2, 2.9786557e+2, -92936.46, -259478.5, 47738.61, -0.060414825, 0.11883095, -80222.914, -59298.313, 0.00022324533, 9.942412, 9.922599 
8.7997144e+2, 3.0778563e+2, -25765.533, -197847.28, 37512.44, -0.12851392, 0.054935727, -17943.66, -17943.66, 0.0005485991, 9.940578, 9.920157 
8.78822e+2, 3.1770483e+2, -19996.75, -162736.02, 16560.184, -0.14754185, -0.06356641, -18100.674, -18100.674, 0.0010574318, 9.937835, 9.920209 
8.776756e+2, 3.2762927e+2, 17667.414, -5200.0786, 19765.678, -0.087764576, 0.146477, 29068.129, 29068.129, 0.001674894, 9.93542, 9.9325075 
9.0912735e+2, 1.400537e+2, -1516092.5, -1556599.1, 7596.225, 0.10114897, 0.09945953, -1514714.8, 52769.47, 0.000000029867618, 9.947127, 9.941988 
9.0800077e+2, 1.499947e+2, -1432735.0, -1479361.6, 3683.2046, 0.08067407, 0.08418825, -1432445.9, 37616.348, 0.000000019382966, 9.946518, 9.940737 
9.068759e+2, 1.5993565e+2, -1343976.6, -1394698.3, 22181.21, 0.051885225, 0.11783396, -1335645.0, 36995.86, 0.000000010447276, 9.946111, 9.940487 
9.057509e+2, 1.6987564e+2, -1249200.6, -1305606.4, 8627.798, 0.07275287, 0.107525125, -1247910.4, 27318.6, 0.000000004434464, 9.945829, 9.939589 
9.0462416e+2, 1.7981468e+2, -1154618.1, -1217177.0, 21063.361, 0.06125988, 0.08931664, -1148187.3, 29639.117, 0.0000000014203173, 9.945861, 9.939099 
9.0349805e+2, 1.897538e+2, -1057549.4, -1123633.9, 18560.555, 0.027844068, 0.10651554, -1052693.3, 27729.676, 0.00000000033482794, 9.945841, 9.938662 
9.023719e+2, 1.9969216e+2, -966533.1, -1043294.7, 25412.854, 0.012721482, 0.12719482, -958882.44, 24144.623, 0.000000000057520166, 9.945859, 9.937535 
9.012457e+2, 2.0962879e+2, -877526.2, -962050.6, 24544.252, 0.01750624, 0.1021785, -870915.94, 14731.536, 0.0000000000071813653, 9.945592, 9.936332 
9.0011865e+2, 2.195643e+2, -783849.8, -872669.6, 28791.186, 0.012464106, 0.069247656, -775333.6, 12945.04, 0.00000000000428494, 9.945436, 9.935731 
8.98991e+2, 2.2950014e+2, -685094.2, -775565.25, 30826.912, -0.012766231, 0.072617486, -675588.94, 15318.207, 0.00000000010849106, 9.94535, 9.935569 
8.978623e+2, 2.39435e+2, -597921.8, -700840.6, 32991.74, -0.031959407, 0.08120198, -588254.06, 5291.039, 0.000000002258234, 9.945233, 9.933797 
8.9673346e+2, 2.4936827e+2, -506158.94, -617861.75, 38664.0, -0.034208436, 0.09340167, -494081.84, 2117.4265, 0.000000034158017, 9.945166, 9.932738 
8.9560306e+2, 2.5930038e+2, -412673.13, -531518.6, 33462.477, -0.039204437, 0.10191482, -403899.1, -5034.088, 0.00000037566133, 9.945025, 9.931642 
8.944712e+2, 2.6923224e+2, -315201.0, -430435.25, 43454.254, -0.05877959, 0.0899729, -300651.63, 880.7725, 0.00000301649, 9.944589, 9.931916 
8.9333713e+2, 2.7916262e+2, -234499.73, -362483.66, 40990.07, -0.076921225, 0.077247605, -222497.23, -18283.021, 0.000017853601, 9.944116, 9.929331 
8.922006e+2, 2.8909183e+2, -139147.14, -264034.8, 34483.504, -0.08307582, 0.08116987, -130258.34, -23350.379, 0.000079075995, 9.943462, 9.929012 
8.91059e+2, 2.9901934e+2, -68288.77, -206905.23, 41470.84, -0.09395247, 0.0929892, -56829.055, -47210.363, 0.00026623905, 9.942301, 9.926482 
8.8991207e+2, 3.089457e+2, -5479.615, -151650.16, 27066.709, -0.092172965, 0.15842426, -628.607, -628.607, 0.00069019, 9.940054, 9.9234 
8.8876104e+2, 3.1886572e+2, -33050.08, -198389.6, 14676.844, -0.032121293, 0.15001325, -31757.354, -31757.354, 0.0014013384, 9.937866, 9.917212 
8.8760835e+2, 3.2878342e+2, -4972.257, -13904.277, -1192.8539, -0.22237687, 0.06718523, -4815.6978, -4815.6978, 0.0023083058, 9.9332905, 9.932074 
9.190741e+2, 1.411824e+2, -1522659.6, -1554535.5, 7993.573, 0.10225001, 0.11994524, -1520767.4, 35656.83, 0.000000001903787, 9.946287, 9.94231 
9.179467e+2, 1.5112372e+2, -1442333.3, -1475690.4, 7777.9688, 0.06792953, 0.089852355, -1440608.8, 18390.227, 0.0000000012354053, 9.945443, 9.941385 
9.168219e+2, 1.6106543e+2, -1345740.6, -1386078.8, 24422.088, 0.06560856, 0.12555932, -1334235.9, 27334.402, 0.00000000066574474, 9.9455185, 9.941288 
9.156965e+2, 1.7100644e+2, -1249278.3, -1293479.9, 10782.833, 0.07175388, 0.1260607, -1246788.1, 17360.244, 0.0000000002824927, 9.945272, 9.940637 
9.145696e+2, 1.8094663e+2, -1155414.0, -1207858.4, 23647.111, 0.038320553, 0.11742526, -1146326.3, 20408.184, 0.00000000009044054, 9.945373, 9.939943 
9.134438e+2, 1.9088611e+2, -1059121.4, -1118188.5, 21003.346, 0.02426587, 0.11231377, -1052414.5, 16912.818, 0.000000000021308946, 9.945438, 9.939213 
9.123178e+2, 2.0082502e+2, -964599.0, -1030869.8, 26528.346, 0.03082871, 0.11363314, -955287.9, 16637.926, 0.000000000003658245, 9.945434, 9.938563 
9.1119117e+2, 2.1076313e+2, -875141.0, -945073.75, 25708.264, 0.024977032, 0.110061266, -866707.4, 7824.7217, 0.00000000000045636807, 9.944999, 9.937721 
9.1006374e+2, 2.2070031e+2, -785219.2, -858903.0, 31513.188, 0.007134193, 0.0994011, -773580.06, 3567.2422, 0.0000000000030655227, 9.944672, 9.936984 
9.089361e+2, 2.3063706e+2, -686782.2, -765654.0, 32591.313, -0.011582202, 0.097915225, -675057.75, 4709.0166, 0.0000000000903565, 9.944755, 9.93655 
9.078074e+2, 2.4057308e+2, -594875.4, -683504.25, 31747.092, -0.02630721, 0.0987578, -584677.0, -2283.6633, 0.0000000018811002, 9.94471, 9.935301 
9.066782e+2, 2.5050783e+2, -507330.8, -599848.1, 38732.5, -0.03431907, 0.097216845, -493256.5, -8223.662, 0.000000028451819, 9.944204, 9.934444 
9.055474e+2, 2.6044178e+2, -417332.66, -509863.38, 36640.887, -0.04067056, 0.09889461, -404580.75, -16900.627, 0.00000031314025, 9.943569, 9.93373 
9.044151e+2, 2.703759e+2, -317848.1, -406311.1, 44016.68, -0.053414606, 0.10550283, -299678.5, -9353.119, 0.0000025239594, 9.943186, 9.934261 
9.0328014e+2, 2.8030923e+2, -241002.47, -337137.22, 37073.33, -0.07581992, 0.10193672, -228366.44, -35387.824, 0.000015124688, 9.942214, 9.932135 
9.021431e+2, 2.9024056e+2, -133072.06, -235393.2, 33134.48, -0.10374715, 0.060248256, -123279.39, -27627.943, 0.00006901787, 9.942487, 9.931832 
9.009998e+2, 3.0017263e+2, -45437.813, -119466.23, 31730.61, -0.09967449, 0.0789195, -33698.73, -33698.73, 0.00024569064, 9.939855, 9.9336605 
9.290211e+2, 1.4231378e+2, -1492969.5, -1511904.9, -16790.701, 0.17099233, 0.20835674, -1483161.1, 62176.89, 0.00000000008526822, 9.946187, 9.944612 
9.278922e+2, 1.5225416e+2, -1425702.6, -1467415.8, 16444.988, 0.025608506, 0.073005565, -1419999.1, 27922.814, 0.00000000005532455, 9.946669, 9.941248 
9.2676836e+2, 1.6219637e+2, -1318388.0, -1368545.3, 27074.502, 0.08342713, 0.15453243, -1306561.9, 43926.563, 0.000000000029806633, 9.947193, 9.941551 
9.256423e+2, 1.7213775e+2, -1225160.1, -1273358.9, 11697.362, 0.0745991, 0.1435609, -1222471.4, 30591.389, 0.000000000012643394, 9.946547, 9.941325 
9.245151e+2, 1.8207869e+2, -1138225.5, -1190176.8, 23884.713, 0.023913484, 0.12889035, -1128913.5, 26727.88, 0.0000000000040459667, 9.946154, 9.940749 
9.233893e+2, 1.920188e+2, -1047335.44, -1103823.8, 23212.857, 0.02411958, 0.11698035, -1039020.44, 19207.34, 0.000000000000952743, 9.945896, 9.93991 
9.2226344e+2, 2.0195848e+2, -952289.06, -1012314.44, 28218.709, 0.045278687, 0.1096167, -941106.4, 19712.426, 0.00000000000016345195, 9.945739, 9.939584 
9.211364e+2, 2.1189791e+2, -857087.06, -921425.3, 25318.654, 0.027728347, 0.122770995, -848318.56, 15093.831, 0.000000000000020373985, 9.94559, 9.939004 
9.200085e+2, 2.2183658e+2, -766610.06, -837852.94, 31113.717, -0.00009762635, 0.13080798, -754935.1, 11078.101, 0.0000000000018606304, 9.945479, 9.938033 
9.1888106e+2, 2.3177408e+2, -672587.9, -749398.8, 32902.152, -0.007072298, 0.124658614, -660421.3, 8204.159, 0.000000000055557395, 9.945393, 9.937348 
9.177524e+2, 2.4171111e+2, -577592.75, -656857.1, 30805.025, -0.012532414, 0.11194769, -567028.7, 4213.5366, 0.0000000011563022, 9.945149, 9.936867 
9.1662246e+2, 2.5164747e+2, -487356.78, -566963.4, 36322.324, -0.0329882, 0.08918902, -473274.9, 590.39984, 0.000000017486771, 9.944598, 9.93647 
9.15491e+2, 2.615837e+2, -396215.66, -473648.78, 33722.305, -0.04425687, 0.08133685, -383588.6, -7098.5005, 0.00000019261098, 9.943962, 9.936003 
9.143585e+2, 2.715199e+2, -301472.16, -378554.44, 40241.246, -0.035246313, 0.11984862, -284292.75, -5177.4736, 0.000001557747, 9.943553, 9.935963 
9.132227e+2, 2.81456e+2, -211552.34, -283710.28, 34687.19, -0.06281339, 0.12542346, -197582.4, -15841.15, 0.000009437413, 9.942633, 9.935526 
9.120857e+2, 2.9138952e+2, -106651.38, -195331.77, 48654.902, -0.15462258, 0.013801073, -85163.375, -771.1752, 0.00004425717, 9.943371, 9.934314 
9.109403e+2, 3.013271e+2, -4623.266, -49543.504, 26253.398, -0.10419527, 0.152671, 7466.5483, 7466.5483, 0.00016661992, 9.941082, 9.937195 
9.389658e+2, 1.4344393e+2, -1513808.4, -1517723.0, -22734.383, 0.13151492, 0.13218106, -1492947.3, 41316.836, 0.0000000000029415736, 9.944582, 9.945095 
9.3783826e+2, 1.5338475e+2, -1436386.6, -1475351.5, 17478.146, -0.014189046, 0.06632739, -1429695.5, 7147.9614, 0.0000000000019083366, 9.946244, 9.941071 
9.367156e+2, 1.633274e+2, -1327383.9, -1370418.3, 22859.973, 0.10692626, 0.19272362, -1317507.4, 21898.234, 0.0000000000010279229, 9.946507, 9.941773 
9.355887e+2, 1.7326882e+2, -1230411.4, -1270764.8, 7826.791, 0.08158406, 0.15219776, -1228946.5, 13032.915, 0.0000000000004359048, 9.946006, 9.941769 
9.344611e+2, 1.8321034e+2, -1137947.4, -1178544.5, 21032.838, 0.017291032, 0.12360652, -1129015.6, 15536.916, 0.0000000000001394446, 9.945751, 9.941749 
9.333351e+2, 1.931517e+2, -1046512.7, -1091388.5, 20602.86, 0.022618165, 0.13181044, -1038488.5, 8638.185, 0.00000000000003282296, 9.945513, 9.940947 
9.3220913e+2, 2.0309241e+2, -953290.5, -1003982.7, 26392.943, 0.04610257, 0.13371915, -942044.06, 7663.4194, 0.0000000000000056283993, 9.945405, 9.94032 
9.3108195e+2, 2.1303225e+2, -855666.8, -912869.2, 22928.463, 0.024098156, 0.12780914, -847610.94, 4685.989, 0.00000000000000070118843, 9.945493, 9.9396715 
9.299542e+2, 2.229717e+2, -760707.44, -823980.7, 27213.303, -0.005321285, 0.12990089, -750613.5, 4276.829, 0.00000000000083497646, 9.945568, 9.9389925 
9.288266e+2, 2.3291028e+2, -668563.56, -736462.4, 28731.494, -0.0042523346, 0.14034301, -658037.56, -545.47003, 0.0000000000249549, 9.945375, 9.938266 
9.2769766e+2, 2.4284852e+2, -572403.44, -638689.9, 25468.799, -0.006600526, 0.13504873, -563747.94, -3650.7437, 0.00000000051935445, 9.94505, 9.938154 
9.2656726e+2, 2.52786e+2, -479343.0, -548376.3, 28320.756, -0.037236392, 0.1044759, -469211.4, -6502.501, 0.0000000078541085, 9.944808, 9.937686 
9.254351e+2, 2.6272365e+2, -385634.53, -450414.94, 21229.66, -0.05165321, 0.0944389, -379297.16, -13977.817, 0.00000008654337, 9.944296, 9.93753 
9.2430246e+2, 2.7266112e+2, -296674.84, -363666.6, 26856.678, -0.031168276, 0.14233956, -287237.6, -19305.309, 0.0000007013428, 9.943906, 9.936916 
9.2316604e+2, 2.8259858e+2, -190176.78, -250405.31, 12078.227, -0.06814077, 0.13998064, -187844.9, -17299.775, 0.0000042783217, 9.944002, 9.937353 
9.2202926e+2, 2.9253343e+2, -99716.945, -176243.4, 22119.47, -0.19310664, 0.006662361, -93783.51, -20600.865, 0.00002042177, 9.9445505, 9.935603 
9.2088515e+2, 3.0247146e+2, 39249.688, -53133.84, -19599.035, -0.06461528, 0.15186884, 43235.62, 43235.62, 0.00007993033, 9.947683, 9.934901 
9.4891196e+2, 1.4457376e+2, -1480957.9, -1503523.4, 1903.2979, 0.1159248, 0.21827838, -1480798.5, 42394.08, 0.0, 9.947714, 9.945061 
9.477854e+2, 1.5451474e+2, -1414504.1, -1459592.1, 16990.297, 0.010772149, 0.110870525, -1408818.6, 16952.076, 0.0, 9.947495, 9.941628 
9.466623e+2, 1.644577e+2, -1313735.5, -1354101.1, 21522.695, 0.12264054, 0.19728865, -1304412.9, 23916.943, 0.0, 9.946944, 9.942614 
9.4553506e+2, 1.7439993e+2, -1211593.8, -1251801.1, 11373.705, 0.07889958, 0.15919739, -1208599.4, 22296.291, 0.0, 9.946843, 9.942561 
9.4440717e+2, 1.8434222e+2, -1117051.3, -1159945.6, 23775.336, 0.008728329, 0.1326146, -1106479.0, 26982.15, 0.0, 9.946783, 9.942399 
9.432809e+2, 1.942843e+2, -1027781.44, -1073815.0, 20506.264, 0.020927368, 0.14899528, -1019971.6, 16056.655, 0.0, 9.9464035, 9.941697 
9.421547e+2, 2.0422581e+2, -936182.8, -987765.0, 26206.63, 0.04627118, 0.15350455, -925204.8, 13396.386, 0.0, 9.946249, 9.941031 
9.4102764e+2, 2.141662e+2, -839537.06, -897068.8, 24801.605, 0.020397617, 0.13436396, -830321.44, 10863.892, 0.0, 9.946289, 9.940344 
9.398998e+2, 2.2410639e+2, -745154.3, -805599.4, 28730.96, -0.008906563, 0.13128512, -733677.1, 10094.4, 0.00000000000028468902, 9.946187, 9.939877 
9.387721e+2, 2.3404603e+2, -655185.2, -718826.75, 30061.018, -0.002817513, 0.15757187, -643231.25, 3131.9734, 0.000000000008157955, 9.945831, 9.939175 
9.3764275e+2, 2.4398538e+2, -558908.5, -619572.1, 26157.266, -0.006281993, 0.1625763, -549187.56, -230.29236, 0.00000000016979894, 9.945463, 9.939173 
9.3651205e+2, 2.5392377e+2, -467272.56, -532042.8, 28966.13, -0.04653525, 0.13612108, -456208.47, -4648.27, 0.0000000025679472, 9.945224, 9.938522 
9.353793e+2, 2.6386246e+2, -372191.5, -430186.84, 19962.617, -0.066124246, 0.12744047, -365984.47, -11823.917, 0.000000028296595, 9.944644, 9.938642 
9.342461e+2, 2.7380067e+2, -288752.78, -351004.25, 26922.314, -0.053602666, 0.15718555, -278724.88, -21958.682, 0.00000022950282, 9.944116, 9.937649 
9.331099e+2, 2.837387e+2, -186086.34, -239436.06, 14676.926, -0.08240372, 0.14706331, -182315.19, -22942.363, 0.0000014045202, 9.944045, 9.938049 
9.319746e+2, 2.9367524e+2, -93236.64, -164150.47, 29510.818, -0.12423027, 0.10580711, -82562.43, -20568.588, 0.000006759484, 9.944744, 9.936291 
9.308327e+2, 3.0361068e+2, 34072.344, -59092.29, 3226.4656, -0.06571625, 0.10465079, 34183.945, 34183.945, 0.000026932837, 9.947035, 9.935034 
9.588593e+2, 1.4570124e+2, -1493036.6, -1502935.3, -2718.045, 0.1196281, 0.14344311, -1492339.4, 19804.883, 0.0, 9.946778, 9.945698 
9.5773304e+2, 1.5564394e+2, -1418727.9, -1453960.6, 11023.609, 0.051643804, 0.14910087, -1415563.1, -857.3746, 0.0, 9.946999, 9.942355 
9.566092e+2, 1.6558737e+2, -1312454.8, -1340555.3, 14759.323, 0.12223893, 0.1897968, -1306127.4, 11132.447, 0.0, 9.94664, 9.943725 
9.5548177e+2, 1.7553096e+2, -1208783.1, -1237490.8, 6592.2964, 0.067604974, 0.17541932, -1207341.8, 12470.744, 0.0, 9.946689, 9.943704 
9.543539e+2, 1.8547395e+2, -1120162.0, -1159940.4, 16777.246, 0.0022430618, 0.15604524, -1114030.9, 8340.164, 0.0, 9.946691, 9.942514 
9.5322746e+2, 1.9541597e+2, -1028737.3, -1072747.0, 13226.839, 0.021140555, 0.15741666, -1025068.0, -128.73862, 0.0, 9.946478, 9.941825 
9.521013e+2, 2.0535809e+2, -928310.7, -972662.3, 19458.172, 0.047130823, 0.16593152, -920984.2, 6522.1777, 0.0, 9.946569, 9.942011 
9.509743e+2, 2.1529967e+2, -829525.3, -880321.25, 18526.715, 0.023900729, 0.16607477, -823486.06, 6592.6387, 0.0, 9.946752, 9.941362 
9.498464e+2, 2.252408e+2, -734911.0, -789128.8, 20282.615, -0.0071001826, 0.15791588, -728163.2, 4492.3926, 0.000000000000067652664, 9.946661, 9.940825 
9.487182e+2, 2.3518105e+2, -645290.1, -703407.25, 21309.97, -0.010796253, 0.15781225, -638313.75, -3072.6694, 0.0000000000019384904, 9.946362, 9.940023 
9.4758856e+2, 2.4512123e+2, -547423.25, -603085.06, 16999.3, -0.014345381, 0.15823495, -542642.25, -4815.23, 0.000000000040347756, 9.946164, 9.940018 
9.4645786e+2, 2.5506052e+2, -454047.66, -516494.38, 19218.93, -0.040316984, 0.14883593, -448606.78, -8185.244, 0.0000000006101943, 9.946197, 9.939166 
9.453249e+2, 2.6499978e+2, -353196.16, -413927.16, 6295.3276, -0.057237078, 0.14181118, -352550.47, -9534.218, 0.000000006724211, 9.946171, 9.939077 
9.4419116e+2, 2.749381e+2, -264438.38, -332129.13, 11223.561, -0.059021976, 0.1424249, -262625.97, -17005.549, 0.000000054552586, 9.946103, 9.938086 
9.430552e+2, 2.8487664e+2, -154849.27, -214158.97, 1304.4775, -0.07717187, 0.13259847, -154820.6, -6598.222, 0.0000003341785, 9.946531, 9.938699 
9.419213e+2, 2.9481438e+2, -74722.02, -148709.2, 15883.001, -0.04722334, 0.15721333, -71456.51, -20624.732, 0.0000016125001, 9.946655, 9.936539 
9.4077903e+2, 3.047491e+2, 65793.61, -21600.816, -11493.767, -0.18680818, 0.10630698, 67279.945, 67279.945, 0.0000064614287, 9.948606, 9.937195 
9.688068e+2, 1.4682834e+2, -1473045.1, -1502474.3, 19685.373, 0.0749836, 0.20528476, -1463182.6, 37916.93, 0.0, 9.949132, 9.945104 
9.6768045e+2, 1.5677206e+2, -1395701.5, -1424962.4, 9199.9795, 0.06832912, 0.14679833, -1393049.4, 10601.648, 0.0, 9.94762, 9.943961 
9.6655554e+2, 1.6671675e+2, -1303289.4, -1327600.1, 16583.846, 0.09067033, 0.19863798, -1294883.1, 11309.752, 0.0, 9.94687, 9.94443 
9.654285e+2, 1.7666097e+2, -1198763.0, -1224327.4, 8053.0513, 0.062669255, 0.17194901, -1196437.8, 12301.75, 0.0, 9.947013, 9.944467 
9.6430093e+2, 1.8660471e+2, -1106023.5, -1146063.6, 19215.496, 0.0094078155, 0.157479, -1098294.0, 12996.745, 0.0, 9.947336, 9.94309 
9.6317434e+2, 1.9654724e+2, -1009610.44, -1056703.8, 20321.57, 0.024408014, 0.16561383, -1002053.8, 11800.129, 0.0, 9.947473, 9.94227 
9.620481e+2, 2.0648998e+2, -912239.75, -955341.75, 26038.576, 0.04586874, 0.17737795, -899990.56, 16424.71, 0.0, 9.947228, 9.942684 
9.609211e+2, 2.1643238e+2, -821230.3, -866422.8, 23793.42, 0.022462044, 0.18803316, -811013.2, 7966.3853, 0.0, 9.946882, 9.942126 
9.5979303e+2, 2.2637422e+2, -726184.5, -775273.4, 22937.656, -0.00944914, 0.17250925, -717134.8, 4414.4937, 0.0000000000000117120025, 9.946804, 9.941592 
9.586645e+2, 2.3631494e+2, -633313.3, -688405.3, 23504.604, -0.022272343, 0.14573517, -624648.2, -518.2338, 0.0000000000003355644, 9.946745, 9.940774 
9.5753473e+2, 2.4625582e+2, -537888.8, -590777.5, 19477.338, -0.020011107, 0.14247009, -531490.06, -4780.8647, 0.0000000000069838328, 9.946478, 9.940629 
9.564043e+2, 2.5619587e+2, -447744.9, -506808.88, 22120.396, -0.020583563, 0.14964171, -440379.06, -11082.393, 0.00000000010561558, 9.946346, 9.939689 
9.5527136e+2, 2.6613528e+2, -350929.84, -412746.56, 8763.135, -0.03433487, 0.13963103, -349711.6, -17821.785, 0.0000000011640542, 9.946318, 9.939005 
9.541374e+2, 2.7607328e+2, -260975.0, -327881.84, 13512.779, -0.05328886, 0.10967338, -258348.97, -23851.855, 0.000000009444971, 9.946254, 9.938251 
9.5300156e+2, 2.860123e+2, -150319.75, -201586.44, 1257.204, -0.07775825, 0.08919796, -150288.94, -13194.313, 0.000000057857413, 9.946301, 9.939692 
9.5186734e+2, 2.959512e+2, -79835.99, -142931.23, 14921.286, -0.039112236, 0.12060753, -76485.23, -36791.984, 0.00000027926637, 9.945769, 9.937372 
9.5072836e+2, 3.0588603e+2, 56943.445, -46494.43, 792.4212, -0.14812216, 0.1120181, 56949.516, 56949.516, 0.0000011202083, 9.94903, 9.935604 
9.7875655e+2, 1.4795375e+2, -1465333.8, -1482414.5, 592.79205, 0.13698347, 0.16174687, -1465313.1, 24758.277, 0.0, 9.948691, 9.946383 
9.77628e+2, 1.578997e+2, -1388538.4, -1401974.5, -1119.1381, 0.06675618, 0.14295827, -1388445.8, 4155.566, 0.0, 9.947316, 9.945712 
9.76502e+2, 1.6784562e+2, -1301690.6, -1321289.5, 9610.843, 0.044330858, 0.21654572, -1297764.3, -2633.2212, 0.0, 9.947004, 9.944902 
9.753757e+2, 1.7778993e+2, -1194381.9, -1214403.3, 2053.9487, 0.070921235, 0.14903204, -1194173.4, 3503.2236, 0.0, 9.94728, 9.945149 
9.7424865e+2, 1.8773487e+2, -1095647.9, -1126066.4, 12253.014, 0.027868515, 0.14949569, -1091326.1, 8889.952, 0.0, 9.947727, 9.944375 
9.731222e+2, 1.976791e+2, -997840.1, -1037831.5, 13337.949, 0.025069434, 0.19873874, -993799.9, 8962.868, 0.0, 9.948036, 9.943378 
9.7199553e+2, 2.0762232e+2, -905483.4, -946808.56, 16002.088, 0.03486272, 0.19198902, -900011.5, 5307.859, 0.0, 9.947733, 9.943064 
9.70868e+2, 2.175647e+2, -816447.56, -858864.0, 14487.789, -0.0021822746, 0.16496703, -811971.44, -4087.231, 0.0, 9.947309, 9.942511 
9.697401e+2, 2.2750717e+2, -716851.1, -764482.2, 14885.141, -0.02330071, 0.17085108, -712582.0, -2134.2998, 0.0000000000000014914695, 9.947581, 9.942072 
9.6861213e+2, 2.3744877e+2, -615847.6, -673287.2, 13728.372, -0.0070553785, 0.18087895, -612735.1, 284.59912, 0.000000000000042732568, 9.948054, 9.9413 
9.6748203e+2, 2.4739027e+2, -519465.84, -575094.94, 6475.9, -0.009097794, 0.18760465, -518721.94, -3129.051, 0.00000000000088938075, 9.947803, 9.941178 
9.663511e+2, 2.573308e+2, -433689.16, -494217.6, 9608.33, -0.035127386, 0.19422121, -432200.53, -14024.834, 0.000000000013450299, 9.947468, 9.940172 
9.652184e+2, 2.6727068e+2, -325134.25, -393979.13, -81.29339, -0.052617453, 0.17924665, -325134.16, -4369.5605, 0.0000000001482496, 9.948286, 9.9395 
9.6408504e+2, 2.7720913e+2, -219055.83, -303209.03, 7055.81, -0.06410205, 0.16022561, -218468.34, 4898.8413, 0.0000000012029147, 9.94939, 9.9384775 
9.62949e+2, 2.8714827e+2, -115986.45, -187878.83, -14007.777, -0.09635466, 0.15724714, -113353.55, 12610.355, 0.0000000073681794, 9.949023, 9.939495 
9.618138e+2, 2.9708725e+2, -50739.67, -127202.99, -4885.335, -0.07416982, 0.16605268, -50428.805, -21866.67, 0.000000035559857, 9.947927, 9.937826 
9.6067786e+2, 3.070226e+2, 49856.055, -64514.57, -604.0272, -0.13313, 0.23368168, 49859.246, 49859.246, 0.00000014260962, 9.949655, 9.934455 
9.887043e+2, 1.4908142e+2, -1459836.8, -1481563.4, 12459.7295, 0.062000126, 0.22250564, -1454169.6, 24851.521, 0.0, 9.949126, 9.946201 
9.875757e+2, 1.5902735e+2, -1379352.1, -1391408.1, -3242.0212, 0.10122539, 0.18625797, -1378535.6, 3015.7236, 0.0, 9.947528, 9.9462595 
9.8644906e+2, 1.6897422e+2, -1283358.3, -1304208.9, 13048.656, 0.015313052, 0.28096342, -1277081.6, 6990.371, 0.0, 9.947939, 9.945572 
9.853235e+2, 1.7891906e+2, -1175746.4, -1197973.0, 6834.5854, 0.080680475, 0.20075034, -1173813.0, 12799.517, 0.0, 9.94826, 9.945728 
9.8419654e+2, 1.888644e+2, -1087366.8, -1113710.1, 12453.169, 0.04435082, 0.17806764, -1082411.8, 6736.3613, 0.0, 9.947927, 9.945122 
9.830699e+2, 1.9880946e+2, -997471.9, -1029792.5, 10518.82, 0.015705347, 0.23057754, -994350.06, -2663.774, 0.0, 9.947723, 9.944179 
9.8194313e+2, 2.087534e+2, -898504.06, -938436.56, 13245.391, 0.021421568, 0.23191157, -894510.1, -274.1407, 0.0, 9.947979, 9.943565 
9.808153e+2, 2.1869606e+2, -801794.06, -847211.1, 14185.435, -0.015803194, 0.18879697, -797727.5, -929.2809, 0.0, 9.948127, 9.9429245 
9.7968775e+2, 2.2863907e+2, -705160.25, -752567.8, 17675.693, -0.029361088, 0.19992374, -699295.5, 61.187622, 0.00000000000000014322901, 9.94817, 9.942587 
9.785604e+2, 2.3858142e+2, -610203.5, -665667.8, 16782.283, 0.008768908, 0.243434, -605520.9, -3599.7217, 0.0000000000000041040377, 9.948257, 9.941664 
9.774298e+2, 2.4852347e+2, -513494.16, -566759.06, 6896.7017, -0.0095263, 0.26363236, -512615.66, -8126.47, 0.000000000000085429954, 9.947927, 9.941601 
9.762981e+2, 2.5846437e+2, -426902.6, -485634.72, 12168.546, -0.080828, 0.27172196, -424481.25, -17412.418, 0.000000000001292103, 9.947721, 9.940601 
9.751664e+2, 2.6840487e+2, -316268.2, -381206.47, 6550.136, -0.09382505, 0.25502858, -315614.1, -5962.9263, 0.0000000000142405965, 9.948651, 9.940235 
9.740344e+2, 2.783444e+2, -218172.27, -303477.47, 10094.645, -0.07510845, 0.27450484, -216993.98, -4750.336, 0.00000000011554544, 9.949507, 9.938415 
9.728975e+2, 2.8828228e+2, -136451.39, -228595.86, -19978.055, -0.13643089, 0.3198632, -132306.36, -17453.97, 0.0000000007077114, 9.948742, 9.9368925 
9.7176075e+2, 2.982189e+2, -59194.645, -141985.44, -13820.683, -0.16413617, 0.2930149, -56948.43, -39474.273, 0.000000003414842, 9.947746, 9.937161 
9.706273e+2, 3.0815402e+2, 67026.43, -18151.188, -2458.5732, -0.13216677, 0.16987541, 67097.336, 67097.336, 0.000000013690085, 9.949309, 9.938047 
9.986541e+2, 1.5020774e+2, -1456015.6, -1475374.4, -4650.123, 0.08249499, 0.17774509, -1454956.6, 13027.623, 0.0, 9.949016, 9.946553 
9.9752396e+2, 1.6015385e+2, -1374338.8, -1385128.3, -5281.12, 0.16499558, 0.16065112, -1372184.1, -1671.3158, 0.0, 9.947779, 9.946601 
9.96397e+2, 1.7010184e+2, -1273974.8, -1290487.8, 11086.45, -0.024795009, 0.29339787, -1268408.1, 4614.7944, 0.0, 9.948402, 9.946352 
9.952721e+2, 1.8004733e+2, -1170122.6, -1191868.3, 961.55115, 0.081709005, 0.21764927, -1170080.1, 5477.146, 0.0, 9.948668, 9.946047 
9.9414515e+2, 1.8999186e+2, -1084956.0, -1112185.5, 3492.6345, 0.07913249, 0.11076518, -1084515.1, -6414.6025, 0.0, 9.948216, 9.945174 
9.930178e+2, 1.9993657e+2, -993632.9, -1023662.6, 3303.3027, 0.013215751, 0.11306213, -993273.75, -12631.642, 0.0, 9.948022, 9.944609 
9.918916e+2, 2.0988248e+2, -887120.9, -923577.3, 7639.7017, 0.023056293, 0.23191366, -885584.7, -2412.2905, 0.0, 9.948635, 9.944438 
9.907649e+2, 2.1982683e+2, -783620.7, -828400.2, 7528.8613, 0.049509533, 0.27644864, -782388.75, 3329.097, 0.0, 9.949192, 9.943826 
9.8963696e+2, 2.297699e+2, -684823.75, -728264.3, 10980.187, 0.008606744, 0.17638633, -682206.1, 6069.6113, 0.000000000000000010837507, 9.949138, 9.943834 
9.885087e+2, 2.3971228e+2, -596013.9, -648599.0, 13369.473, -0.03168178, 0.1090298, -592810.0, -1969.8259, 0.00000000000000031058006, 9.948991, 9.94248 
9.873781e+2, 2.4965458e+2, -498561.63, -554814.3, 3885.6318, -0.03288042, 0.10796024, -498294.5, -4888.713, 0.0000000000000064639003, 9.948926, 9.941926 
9.8624724e+2, 2.59596e+2, -402551.8, -466532.2, 11815.211, -0.026770702, 0.12078819, -400439.63, -4459.5903, 0.000000000000097753626, 9.949253, 9.941165 
9.851167e+2, 2.6953745e+2, -296289.34, -365298.0, 6649.402, -0.008043795, 0.14695317, -295654.47, 2899.2556, 0.0000000000010773522, 9.949976, 9.94079 
9.8398507e+2, 2.79477e+2, -210867.52, -298442.16, 6291.954, 0.0039445525, 0.11582705, -210417.77, -9271.992, 0.000000000008741193, 9.950034, 9.93857 
9.8284715e+2, 2.8941387e+2, -125925.93, -229005.19, -15976.555, -0.07368561, 0.105971575, -123506.47, -19741.703, 0.00000000005353408, 9.949498, 9.936199 
9.817092e+2, 2.9935083e+2, -52168.063, -135186.95, 3796.6863, -0.066288225, 0.2037476, -51994.79, -45611.723, 0.00000000025827646, 9.947859, 9.936903 
9.80575e+2, 3.0928725e+2, 2071.6658, -22492.416, 8268.428, -0.05892448, 0.10829221, 4595.5503, 4595.5503, 0.0000000010352618, 9.943551, 9.940128 
1.008602e+3, 1.5133819e+2, -1460108.4, -1464253.8, -11178.293, 0.123303354, 0.25562683, -1450812.3, 6095.1196, 0.0, 9.947289, 9.946978 
1.00747086e+3, 1.6128373e+2, -1348588.4, -1373312.6, 11836.054, 0.02084637, 0.22544685, -1343835.8, 15604.999, 0.0, 9.949649, 9.946175 
1.0063459e+3, 1.712298e+2, -1260348.9, -1275849.9, 14335.759, 0.023992615, 0.18353705, -1251802.6, 10166.796, 0.0, 9.949046, 9.946737 
1.0052199e+3, 1.81177e+2, -1177735.5, -1185960.8, 10995.036, 0.07911884, 0.21710332, -1170109.1, -5621.9863, 0.0, 9.947914, 9.946456 
1.0040931e+3, 1.9112384e+2, -1064054.8, -1098598.0, 17503.877, 0.03174233, 0.33291003, -1056735.9, 10272.622, 0.0, 9.949832, 9.9449 
1.0029667e+3, 2.0106812e+2, -946354.6, -991599.94, 11861.938, 0.011297944, 0.30057126, -943433.4, 26121.21, 0.0, 9.951182, 9.94486 
1.00183986e+3, 2.1101192e+2, -872563.8, -903089.8, 11394.499, -0.005148039, 0.15372981, -868779.7, 3324.974, 0.0, 9.949408, 9.945111 
1.00071296e+3, 2.20957e+2, -793791.44, -821210.4, 12822.917, -0.0013781424, 0.20364529, -788729.2, -14086.365, 0.0, 9.948367, 9.94441 
9.995856e+2, 2.3090237e+2, -676023.7, -713733.0, 7204.7026, -0.022022475, 0.27946028, -674694.06, 2484.5344, 0.0000000000000000006820092, 9.949696, 9.9445095 
9.984575e+2, 2.4084634e+2, -572717.8, -623964.2, 5686.8403, -0.0450169, 0.2751083, -572094.3, 7633.732, 0.00000000000000001954189, 9.950377, 9.94352 
9.9732745e+2, 2.507893e+2, -477644.9, -534460.6, 9300.208, 0.017710103, 0.2863528, -476161.28, 6125.2153, 0.00000000000000040645458, 9.950313, 9.942359 
9.96196e+2, 2.6073095e+2, -387390.22, -457557.7, 17357.004, -0.06347139, 0.28110722, -383331.47, 1526.8677, 0.0000000000000061445223, 9.950598, 9.940964 
9.950658e+2, 2.706712e+2, -267659.6, -349516.88, -24927.828, -0.077871256, 0.19948728, -260665.9, 26778.213, 0.00000000000006771698, 9.952111, 9.941722 
9.9393344e+2, 2.80613e+2, -216560.47, -292280.8, 21841.418, -0.14766625, 0.30577162, -210712.05, -20697.426, 0.0000000000005493915, 9.949175, 9.939066 
9.927975e+2, 2.9055065e+2, -74276.3, -181975.61, -6241.1333, -0.013547604, 0.2726213, -73915.83, 18710.088, 0.0000000000033642223, 9.952121, 9.937811 
9.9165785e+2, 3.0048734e+2, 43629.434, -85158.09, -25357.813, -0.053153023, 0.21035787, 48442.43, 48442.43, 0.000000000016230134, 9.954177, 9.937251 
9.9051446e+2, 3.104251e+2, 4308.445, -48240.598, -27181.635, -0.24326561, 0.35394454, 15838.575, 15838.575, 0.00000000006506301, 9.944193, 9.93786 
