coord_x,coord_y,stress_xx,stress_yy,tau_xy,velocity_x,velocity_y,stress_1,eps,damage,lx,ly
5.001577e+0, 1.242876e+2, -1683890.9, -1719949.9, -265.29596, 0.008373452, 0.02454971, -1683889.0, 38095.695, 0.0, 10.002987, 9.998208 
5.0011766e+0, 1.342845e+2, -1607942.8, -1650861.3, 320.4461, 0.0038023721, 0.05028695, -1607940.3, 16074.721, 0.0, 10.002276, 9.996591 
5.0007993e+0, 1.4428109e+2, -1515634.8, -1548603.3, 1060.3379, 0.0007087427, 0.024673311, -1515600.8, 10447.695, 0.0, 10.001584, 9.997215 
5.000452e+0, 1.5427835e+2, -1426384.4, -1453412.8, 1703.6826, -0.0011324848, 0.01659743, -1426277.4, 1797.3236, 0.0, 10.000925, 9.997344 
5.000104e+0, 1.6427529e+2, -1344062.4, -1371671.0, 1783.84, -0.0011984474, 0.015472749, -1343947.6, -13843.043, 0.0, 10.000232, 9.996574 
4.99976e+0, 1.7427197e+2, -1256618.5, -1278503.1, 1453.3672, 0.0010900109, 0.024072679, -1256522.4, -24385.23, 0.0, 9.999498, 9.996599 
4.9994522e+0, 1.8426827e+2, -1173122.0, -1195602.9, 1796.4539, 0.002354492, 0.030350756, -1172979.3, -38805.617, 0.0, 9.9988575, 9.99588 
4.999194e+0, 1.9426419e+2, -1082425.1, -1100819.3, 2177.3237, 0.0022461559, 0.031906202, -1082170.9, -45957.242, 0.0, 9.998343, 9.995907 
4.9989566e+0, 2.0425957e+2, -998294.9, -1021190.1, 2668.5725, 0.00075661804, 0.030756352, -997987.94, -59728.87, 0.0, 9.997898, 9.994866 
4.9987477e+0, 2.142544e+2, -905366.1, -925601.25, 2716.2952, -0.0025528753, 0.025266232, -905007.9, -64698.14, 0.0, 9.997547, 9.994867 
4.9985108e+0, 2.242488e+2, -820188.56, -843735.1, 2107.0073, -0.0037746516, 0.024899928, -820001.5, -77637.1, 0.0, 9.997097, 9.993979 
4.998235e+0, 2.3424286e+2, -730530.5, -749574.4, 1568.6151, -0.0022075223, 0.030128732, -730402.1, -85979.5, 0.0, 9.996514, 9.993994 
4.997964e+0, 2.4423623e+2, -649156.75, -672661.6, 1416.304, -0.0004588263, 0.027232047, -649071.7, -102584.37, 0.0, 9.995937, 9.992826 
4.9976975e+0, 2.5422892e+2, -559459.06, -578669.7, 1689.7101, 0.0015141695, 0.012419067, -559311.56, -110752.83, 0.0, 9.995364, 9.992823 
4.997449e+0, 2.6422122e+2, -475709.44, -498666.56, 2308.752, 0.0017361472, 0.010863666, -475479.56, -124845.516, 0.0, 9.9948635, 9.991826 
4.997223e+0, 2.7421322e+2, -383429.0, -403138.97, 2727.6497, -0.00039059148, 0.025817968, -383058.47, -130345.9, 0.0, 9.994453, 9.991846 
4.9969664e+0, 2.8420466e+2, -298315.3, -320350.56, 2120.9756, -0.0009857416, 0.027986277, -298113.03, -143316.73, 0.0, 9.993953, 9.991038 
4.996665e+0, 2.941956e+2, -209036.48, -225880.34, 1015.4092, 0.000497095, 0.011379459, -208975.5, -152090.88, 0.0, 9.9933195, 9.991092 
4.996333e+0, 3.041899e+2, -123163.05, -84598.55, 295.16483, 0.0014370987, 0.0035040404, -84596.28, -84596.28, 0.0, 9.992638, 9.997739 
4.9959555e+0, 3.141877e+2, -133711.47, -88836.02, 512.9933, 0.0016340388, 0.005976443, -88830.164, -88830.164, 0.0, 9.9918785, 9.997814 
1.5004732e+1, 1.2428797e+2, -1682693.4, -1717484.3, -2766.9897, 0.025104793, 0.036217075, -1682474.6, 39506.617, 0.0, 10.002986, 9.998375 
1.5003529e+1, 1.3428484e+2, -1606662.5, -1648227.1, -2357.949, 0.011406441, 0.03890239, -1606529.1, 17482.719, 0.0, 10.002276, 9.99677 
1.5002398e+1, 1.4428158e+2, -1514437.8, -1546139.9, -1448.714, 0.002124981, 0.012706907, -1514371.6, 11671.924, 0.0, 10.001584, 9.997383 
1.5001354e+1, 1.5427929e+2, -1425196.1, -1450966.3, -775.9371, -0.0033985237, 0.032879613, -1425172.8, 2893.008, 0.0, 10.000925, 9.99751 
1.5000312e+1, 1.6427635e+2, -1344554.1, -1372679.5, -971.8768, -0.0035940425, 0.038155336, -1344520.6, -14426.061, 0.0, 10.000232, 9.996506 
1.499928e+1, 1.7427273e+2, -1257240.9, -1279782.3, -1310.774, 0.0032701106, 0.024242077, -1257164.9, -25034.926, 0.0, 9.999498, 9.996512 
1.4998357e+1, 1.842689e+2, -1172556.8, -1194437.9, -208.85994, 0.0070637423, 0.020410234, -1172554.8, -38387.387, 0.0, 9.9988575, 9.995959 
1.4997582e+1, 1.94265e+2, -1081769.1, -1099466.8, 240.5501, 0.0067379507, 0.028425181, -1081765.9, -45560.094, 0.0, 9.998343, 9.995998 
1.499687e+1, 2.0426045e+2, -998207.9, -1021010.94, 1295.9286, 0.0022682108, 0.030377043, -998134.44, -59884.23, 0.0, 9.997898, 9.994879 
1.4996244e+1, 2.1425526e+2, -905325.2, -925516.5, 1392.6361, -0.007661047, 0.02345907, -905229.6, -64928.6, 0.0, 9.997547, 9.994873 
1.4995532e+1, 2.2424962e+2, -821066.4, -845547.0, -29.565626, -0.011323648, 0.02310788, -821066.3, -78710.02, 0.0, 9.997097, 9.993856 
1.4994706e+1, 2.3424356e+2, -731482.8, -751541.56, -634.27313, -0.006623213, 0.030313835, -731462.8, -87046.97, 0.0, 9.996514, 9.993859 
1.4993891e+1, 2.4423693e+2, -648749.44, -671818.94, -747.8857, -0.0013773065, 0.031429805, -648725.25, -102244.555, 0.0, 9.995937, 9.992885 
1.4993092e+1, 2.5422975e+2, -558941.75, -577598.8, -476.15338, 0.004543125, 0.023367744, -558929.56, -110378.83, 0.0, 9.995364, 9.992895 
1.4992347e+1, 2.6422212e+2, -474979.16, -497153.9, 720.8281, 0.005206607, 0.019072145, -474955.75, -124330.375, 0.0, 9.9948635, 9.99193 
1.499167e+1, 2.742141e+2, -382682.7, -401592.44, 1178.673, -0.0011729561, 0.018542117, -382609.5, -129905.43, 0.0, 9.994453, 9.991952 
1.49909e+1, 2.842054e+2, -300093.88, -324035.22, -197.35686, -0.002957624, 0.01792694, -300092.25, -145303.63, 0.0, 9.993953, 9.990787 
1.4989994e+1, 2.9419622e+2, -211030.44, -230014.08, -1383.623, 0.0014912991, 0.015793812, -210930.11, -154051.42, 0.0, 9.9933195, 9.9908085 
1.4988999e+1, 3.0419046e+2, -122894.76, -84040.0, -2520.083, 0.004306815, 0.014043403, -83877.23, -83877.23, 0.0, 9.992638, 9.997778 
1.4987867e+1, 3.141883e+2, -133247.34, -87869.73, -2358.3481, 0.004897689, 0.011204721, -87747.484, -87747.484, 0.0, 9.9918785, 9.997881 
2.5007695e+1, 1.2428912e+2, -1681915.5, -1713992.0, 713.7034, 0.027139526, 0.04126046, -1681899.6, 40070.945, 0.0, 10.002904, 9.998652 
2.500573e+1, 1.3428621e+2, -1607327.5, -1645254.3, 1802.9819, 0.013465614, 0.038835716, -1607242.0, 16756.54, 0.0, 10.002088, 9.997063 
2.5003895e+1, 1.4428313e+2, -1517922.4, -1547724.3, 3009.0935, 0.0055066003, 0.012878777, -1517621.5, 8407.1455, 0.0, 10.001342, 9.997393 
2.5002217e+1, 1.5428092e+2, -1428612.3, -1452765.9, 2384.1838, 0.0015786283, 0.040530168, -1428379.1, -328.66776, 0.0, 10.000699, 9.997498 
2.5000554e+1, 1.6427799e+2, -1345206.6, -1372526.6, 2173.0708, 0.00091817963, 0.04735795, -1345034.9, -14955.935, 0.0, 10.000167, 9.996547 
2.4998938e+1, 1.7427436e+2, -1252662.1, -1277042.3, 2871.0942, 0.0046394304, 0.027139084, -1252328.6, -20214.217, 0.0, 9.999788, 9.996557 
2.4997444e+1, 1.842705e+2, -1165510.9, -1191129.3, 4308.994, 0.005855584, 0.019724686, -1164805.5, -30653.672, 0.0, 9.999342, 9.995949 
2.499613e+1, 1.9426659e+2, -1074991.5, -1096343.9, 3972.9697, 0.0036985623, 0.027791603, -1074276.3, -38085.895, 0.0, 9.998813, 9.995983 
2.4994886e+1, 2.0426203e+2, -994117.4, -1018991.94, 4416.075, 0.0002940519, 0.030293817, -993356.7, -55121.91, 0.0, 9.998176, 9.994882 
2.4993747e+1, 2.1425687e+2, -907440.25, -926493.4, 4493.6797, -0.004731927, 0.02455883, -906433.6, -66148.266, 0.0, 9.9974, 9.994877 
2.4992542e+1, 2.2425121e+2, -825206.9, -848017.56, 3803.58, -0.0068564424, 0.024041582, -824589.3, -82248.484, 0.0, 9.996835, 9.993814 
2.4991252e+1, 2.3424509e+2, -731336.25, -751979.1, 3906.1187, -0.005123352, 0.029283516, -730621.9, -86220.82, 0.0, 9.996547, 9.9938135 
2.4989957e+1, 2.4423845e+2, -644899.1, -670006.06, 3719.7583, -0.0018555336, 0.03226138, -644359.6, -97893.555, 0.0, 9.996202, 9.992879 
2.4988653e+1, 2.5423133e+2, -552894.0, -574688.94, 3408.8218, 0.0034350127, 0.031178867, -552373.3, -103837.68, 0.0, 9.995778, 9.992894 
2.4987364e+1, 2.6422372e+2, -469930.4, -494053.97, 3720.9893, 0.0045989077, 0.026801793, -469369.47, -118759.516, 0.0, 9.99518, 9.991988 
2.4986082e+1, 2.7421564e+2, -383840.34, -401437.03, 3814.6013, 0.00023112501, 0.016686032, -383049.0, -130360.21, 0.0, 9.994344, 9.992015 
2.498473e+1, 2.8420693e+2, -305460.03, -328197.06, 2868.0747, -0.00027336684, 0.013832151, -305103.84, -150330.0, 0.0, 9.993653, 9.990645 
2.4983262e+1, 2.9419765e+2, -214576.0, -233494.77, 2627.9036, 0.0044471826, 0.019439153, -214217.75, -157352.83, 0.0, 9.993154, 9.990651 
2.4981691e+1, 3.0419186e+2, -121469.63, -82472.32, 2098.0103, 0.0068785613, 0.020948727, -82359.77, -82359.77, 0.0, 9.992697, 9.997856 
2.4979964e+1, 3.141898e+2, -126562.41, -83540.47, 2485.7703, 0.0062495447, 0.015213364, -83397.32, -83397.32, 0.0, 9.992289, 9.997979 
3.5010475e+1, 1.24291e+2, -1679154.1, -1708300.0, -2154.8909, 0.014492873, 0.039687812, -1678995.6, 42956.824, 0.0, 10.002903, 9.99904 
3.5007787e+1, 1.3428864e+2, -1604410.3, -1639247.9, -1264.9341, 0.009995023, 0.050083485, -1604364.4, 19610.87, 0.0, 10.002088, 9.997471 
3.5005292e+1, 1.4428571e+2, -1518986.8, -1549899.9, 535.71375, 0.01084406, 0.025176642, -1518977.5, 7026.2188, 0.0, 10.001342, 9.997245 
3.5003036e+1, 1.5428317e+2, -1429984.4, -1455578.4, -28.683233, 0.013771159, 0.03954825, -1429984.4, -1955.7008, 0.0, 10.000698, 9.997307 
3.5000837e+1, 1.6428018e+2, -1344119.6, -1370285.1, 672.7471, 0.012306093, 0.043078024, -1344102.3, -14044.52, 0.0, 10.000167, 9.996699 
3.499873e+1, 1.7427683e+2, -1251387.1, -1274415.4, 1455.4199, 0.0051877447, 0.032776844, -1251295.5, -19205.092, 0.0, 9.999787, 9.996737 
3.4996715e+1, 1.8427306e+2, -1166223.4, -1192596.1, 2350.2356, -0.001275502, 0.028303467, -1166015.6, -31888.525, 0.0, 9.999342, 9.995849 
3.4994835e+1, 1.9426896e+2, -1075860.0, -1098135.3, 1978.4095, -0.0068814186, 0.030008754, -1075685.6, -39518.32, 0.0, 9.998813, 9.995861 
3.4993008e+1, 2.0426433e+2, -994159.7, -1019080.3, 1555.6448, -0.005165398, 0.03049889, -994063.0, -55850.36, 0.0, 9.998176, 9.994875 
3.4991255e+1, 2.1425919e+2, -907421.0, -926452.4, 1567.0239, 0.0062373863, 0.028565738, -907292.8, -67030.055, 0.0, 9.9974, 9.99488 
3.498954e+1, 2.2425354e+2, -824915.75, -847416.4, 2585.931, 0.009613158, 0.027703356, -824622.4, -82304.32, 0.0, 9.996835, 9.993855 
3.4987873e+1, 2.342474e+2, -731023.44, -751336.06, 2826.1445, 0.0022846519, 0.027044367, -730637.56, -86259.26, 0.0, 9.996547, 9.993857 
3.498616e+1, 2.4424078e+2, -645368.44, -670982.44, 2160.9219, -0.0019015026, 0.029726924, -645187.44, -98743.96, 0.0, 9.996202, 9.992812 
3.498438e+1, 2.5423363e+2, -553427.6, -575800.6, 1805.5883, -0.0018288137, 0.035844788, -553282.8, -104769.56, 0.0, 9.995779, 9.992818 
3.49825e+1, 2.6422602e+2, -469827.5, -493845.7, 681.1996, -0.00009943558, 0.034047596, -469808.2, -119220.4, 0.0, 9.99518, 9.9920025 
3.498046e+1, 2.7421793e+2, -383692.88, -401125.47, 644.8373, 0.0038236212, 0.020267196, -383669.06, -131002.37, 0.0, 9.994344, 9.992037 
3.4978455e+1, 2.842092e+2, -305662.25, -328605.94, 891.75836, 0.007065986, 0.015721012, -305627.66, -150875.75, 0.0, 9.993652, 9.990618 
3.4976465e+1, 2.9419988e+2, -214808.7, -233969.56, 740.9896, 0.009357039, 0.022315491, -214780.1, -157936.81, 0.0, 9.993153, 9.990619 
3.497441e+1, 3.0419415e+2, -120631.71, -80732.44, 549.2089, 0.009148218, 0.024196533, -80724.875, -80724.875, 0.0, 9.992697, 9.997975 
3.4972247e+1, 3.141922e+2, -125626.695, -81611.445, 947.9089, 0.0056719324, 0.017987844, -81591.04, -81591.04, 0.0, 9.992289, 9.998112 
4.501314e+1, 1.2429426e+2, -1685025.9, -1710881.0, 5665.8267, 0.011244228, 0.03696548, -1683838.8, 38081.957, 0.0, 10.002491, 9.9990635 
4.500978e+1, 1.3429205e+2, -1606829.4, -1640077.3, 3553.2695, 0.009737842, 0.060323022, -1606453.9, 17488.219, 0.0, 10.001907, 9.997501 
4.5006648e+1, 1.442891e+2, -1519730.3, -1551229.0, 4399.634, 0.012911701, 0.03671842, -1519127.3, 6843.5493, 0.0, 10.001333, 9.997158 
4.50038e+1, 1.5428635e+2, -1429466.3, -1456401.5, 4588.8804, 0.015967013, 0.03866481, -1428706.0, -708.1344, 0.0, 10.00078, 9.9972105 
4.5001054e+1, 1.6428332e+2, -1342598.6, -1368737.3, 5888.385, 0.013718369, 0.038833793, -1341333.4, -11306.003, 0.0, 10.000235, 9.996771 
4.4998473e+1, 1.7428014e+2, -1251983.0, -1273757.3, 6011.592, 0.0046734056, 0.037178673, -1250433.6, -18375.24, 0.0, 9.999706, 9.99682 
4.4995973e+1, 1.8427639e+2, -1169446.5, -1195751.6, 6170.5347, -0.0021934714, 0.036090024, -1168071.0, -33976.043, 0.0, 9.999191, 9.995707 
4.49936e+1, 1.9427207e+2, -1078642.6, -1101277.1, 5508.7495, -0.006209572, 0.03416349, -1077373.1, -41236.043, 0.0, 9.9987, 9.995701 
4.4991246e+1, 2.0426735e+2, -992251.7, -1017721.9, 4981.166, -0.004683418, 0.032870945, -991312.2, -53128.973, 0.0, 9.998287, 9.994913 
4.4988927e+1, 2.1426228e+2, -898548.7, -921548.2, 5372.813, 0.0041706827, 0.03165778, -897355.44, -57122.76, 0.0, 9.99798, 9.994933 
4.498669e+1, 2.2425665e+2, -815028.06, -842751.75, 6629.4473, 0.0072923107, 0.030063754, -813524.3, -71236.61, 0.0, 9.997515, 9.993843 
4.498457e+1, 2.3425047e+2, -726857.56, -749507.0, 6430.7446, 0.0027572117, 0.026724258, -725159.1, -80810.76, 0.0, 9.99684, 9.99384 
4.498238e+1, 2.442438e+2, -645262.3, -671052.44, 5687.244, -0.000740426, 0.028551312, -644063.8, -97650.12, 0.0, 9.996215, 9.992801 
4.4980088e+1, 2.542367e+2, -555268.2, -576811.5, 5818.3677, -0.00280674, 0.036261693, -553797.25, -105313.64, 0.0, 9.995658, 9.992806 
4.497765e+1, 2.6422906e+2, -470892.3, -495211.06, 4097.522, -0.0010346867, 0.037052464, -470220.47, -119662.08, 0.0, 9.995144, 9.991925 
4.4974995e+1, 2.742209e+2, -379312.2, -399926.5, 3227.4836, 0.005879477, 0.027170638, -378818.7, -126180.78, 0.0, 9.994682, 9.991954 
4.497239e+1, 2.8421223e+2, -297961.4, -323669.2, 3736.6963, 0.011384431, 0.023631124, -297429.28, -142706.28, 0.0, 9.994127, 9.990726 
4.4969815e+1, 2.94203e+2, -209772.75, -230145.47, 4771.421, 0.014913853, 0.02733573, -208710.63, -151897.3, 0.0, 9.993438, 9.990743 
4.496714e+1, 3.0419728e+2, -121109.83, -81315.63, 4573.422, 0.013278131, 0.027256496, -80796.79, -80796.79, 0.0, 9.99268, 9.997943 
4.496429e+1, 3.1419528e+2, -132800.42, -85579.09, 3601.7058, 0.0048051258, 0.020375494, -85305.96, -85305.96, 0.0, 9.991819, 9.998065 
5.501569e+1, 1.2429886e+2, -1687454.5, -1715833.6, 3624.8506, 0.01726873, 0.03317493, -1686998.9, 34876.703, 0.0, 10.00249, 9.998728 
5.5011714e+1, 1.3429645e+2, -1609320.8, -1645165.6, 1367.983, 0.01266524, 0.069573835, -1609268.6, 14630.892, 0.0, 10.001906, 9.997156 
5.500797e+1, 1.4429332e+2, -1519916.6, -1551592.0, 2314.2139, 0.0117142275, 0.047499813, -1519748.5, 6181.617, 0.0, 10.001332, 9.997133 
5.50045e+1, 1.5429045e+2, -1429479.1, -1456413.1, 2524.5125, 0.008179182, 0.037872322, -1429244.6, -1286.5985, 0.0, 10.000779, 9.99721 
5.50012e+1, 1.6428737e+2, -1342669.6, -1368872.4, 3894.138, 0.0051746466, 0.034631442, -1342103.1, -12115.292, 0.0, 10.000235, 9.996761 
5.499816e+1, 1.7428425e+2, -1252062.6, -1273912.6, 4033.3672, 0.003087962, 0.040346142, -1251341.9, -19323.664, 0.0, 9.999706, 9.99681 
5.4995215e+1, 1.8428044e+2, -1170757.6, -1198447.5, 4312.8086, 0.0030697233, 0.043085176, -1170101.5, -36046.082, 0.0, 9.999191, 9.9955225 
5.4992414e+1, 1.9427593e+2, -1080047.3, -1104169.6, 3666.6743, 0.005702629, 0.040260747, -1079502.3, -43402.586, 0.0, 9.9987, 9.995504 
5.49896e+1, 2.0427114e+2, -991656.2, -1016497.06, 3779.3777, 0.0017104817, 0.037414175, -991093.9, -52947.313, 0.0, 9.998287, 9.994996 
5.498676e+1, 2.1426615e+2, -897794.4, -920006.9, 4224.4683, -0.011009308, 0.03382444, -897018.06, -56822.92, 0.0, 9.99798, 9.995038 
5.4984e+1, 2.2426052e+2, -815472.1, -843687.06, 4182.2124, -0.013898945, 0.031119157, -814865.25, -72615.36, 0.0, 9.997516, 9.993779 
5.4981345e+1, 2.3425427e+2, -727406.5, -750648.25, 3876.126, -0.0037327483, 0.028336095, -726777.06, -82465.91, 0.0, 9.99684, 9.993762 
5.497862e+1, 2.4424757e+2, -644937.9, -670380.1, 3553.5508, 0.0016155321, 0.028739497, -644450.9, -98074.02, 0.0, 9.996215, 9.9928465 
5.497578e+1, 2.5424048e+2, -554878.6, -576000.3, 3716.8823, 0.00047933892, 0.032399412, -554243.6, -105797.055, 0.0, 9.995658, 9.992862 
5.497282e+1, 2.642328e+2, -472072.9, -497654.6, 2338.4143, 0.0017705881, 0.035792142, -471860.9, -121339.125, 0.0, 9.995144, 9.991758 
5.4969686e+1, 2.742246e+2, -380615.5, -402642.6, 1486.3875, 0.0063709486, 0.037420522, -380515.66, -127913.27, 0.0, 9.994683, 9.991768 
5.496653e+1, 2.8421596e+2, -296207.97, -320057.13, 1205.0476, 0.012655665, 0.037608106, -296147.22, -141460.13, 0.0, 9.994128, 9.9909725 
5.4963315e+1, 2.9420695e+2, -207773.7, -226011.34, 2162.5818, 0.02113839, 0.03451857, -207520.77, -150745.72, 0.0, 9.993438, 9.991025 
5.495988e+1, 3.0420128e+2, -122414.086, -84011.27, 1389.2638, 0.019291215, 0.030130014, -83961.08, -83961.08, 0.0, 9.992679, 9.997758 
5.4956096e+1, 3.1419903e+2, -134418.45, -88890.21, 346.1375, 0.0035956218, 0.022369923, -88887.58, -88887.58, 0.0, 9.991817, 9.997839 
6.501817e+1, 1.2430413e+2, -1688822.6, -1719076.1, 5798.582, 0.015689181, 0.033985715, -1687749.3, 34074.684, 0.0, 10.002508, 9.998498 
6.501351e+1, 1.3430147e+2, -1613114.5, -1649606.6, 4243.023, 0.008685367, 0.06956697, -1612627.6, 11222.794, 0.0, 10.0017605, 9.996925 
6.500914e+1, 1.4429823e+2, -1522811.9, -1553015.1, 6291.551, 0.0058237324, 0.048365884, -1521553.8, 4328.516, 0.0, 10.001136, 9.997132 
6.500515e+1, 1.5429543e+2, -1430823.4, -1456897.1, 6679.281, -0.00008730501, 0.043576244, -1429212.0, -1302.3477, 0.0, 10.000681, 9.997224 
6.50013e+1, 1.6429232e+2, -1344847.9, -1370810.3, 7498.7896, -0.0019922536, 0.04184377, -1342837.6, -12898.014, 0.0, 10.000124, 9.996683 
6.499772e+1, 1.7428909e+2, -1256567.5, -1277070.3, 7052.927, 0.0016072168, 0.044663996, -1254375.6, -22404.49, 0.0, 9.999441, 9.996722 
6.4994246e+1, 1.842852e+2, -1176164.0, -1201750.0, 7914.1377, 0.0041759503, 0.04512809, -1173914.0, -39904.785, 0.0, 9.998853, 9.995461 
6.499096e+1, 1.9428061e+2, -1084966.3, -1107215.9, 8355.477, 0.0052907104, 0.040879212, -1082177.9, -46123.805, 0.0, 9.998394, 9.995444 
6.4987695e+1, 2.0427576e+2, -996702.6, -1019307.6, 9047.056, -0.00046897016, 0.03814557, -993527.7, -55426.305, 0.0, 9.997959, 9.994964 
6.498448e+1, 2.1427076e+2, -904211.25, -923465.4, 8510.39, -0.015254224, 0.036678657, -900988.9, -60838.758, 0.0, 9.997559, 9.995006 
6.4981264e+1, 2.2426508e+2, -822262.9, -847990.9, 6931.102, -0.017656926, 0.034812424, -820514.44, -78309.05, 0.0, 9.997096, 9.993688 
6.4978045e+1, 2.3425873e+2, -732273.6, -754074.6, 6422.477, -0.00363814, 0.031158559, -730522.3, -86254.64, 0.0, 9.996553, 9.993666 
6.4974767e+1, 2.4425198e+2, -647482.1, -671173.4, 6263.8867, 0.004712087, 0.030068517, -645927.94, -99594.17, 0.0, 9.996022, 9.992885 
6.497141e+1, 2.542449e+2, -556782.25, -576369.06, 6395.478, 0.0054250075, 0.031420063, -554878.94, -106475.734, 0.0, 9.995504, 9.992909 
6.496795e+1, 2.6423728e+2, -474341.16, -499291.38, 5685.1777, 0.006418073, 0.035919756, -473106.78, -122628.45, 0.0, 9.995012, 9.99171 
6.496432e+1, 2.7422908e+2, -382935.03, -404400.66, 5825.144, 0.007859124, 0.043223675, -381456.13, -128896.96, 0.0, 9.994553, 9.991711 
6.496062e+1, 2.8422043e+2, -296678.66, -319676.63, 4902.9575, 0.012301131, 0.045535043, -295677.03, -141033.19, 0.0, 9.994069, 9.991026 
6.49568e+1, 2.9421145e+2, -205695.61, -224304.63, 4143.159, 0.020722052, 0.03976306, -204814.86, -148083.47, 0.0, 9.993549, 9.991087 
6.495271e+1, 3.0420572e+2, -119640.14, -84183.086, 1951.4861, 0.021191116, 0.03492339, -84076.01, -84076.01, 0.0, 9.992933, 9.997623 
6.4948165e+1, 3.1420338e+2, -130237.52, -88585.875, 1381.5569, 0.011030573, 0.02977283, -88540.1, -88540.1, 0.0, 9.992177, 9.997686 
7.5020593e+1, 1.2431004e+2, -1689759.0, -1720926.1, 3157.4265, 0.0065465383, 0.039361324, -1689442.4, 32323.658, 0.0, 10.002505, 9.998374 
7.501516e+1, 1.3430712e+2, -1613995.3, -1651355.4, 1442.5834, -0.0021677902, 0.060298096, -1613939.6, 9855.535, 0.0, 10.001758, 9.996807 
7.501017e+1, 1.4430383e+2, -1522685.6, -1552709.5, 4515.8774, -0.0047601783, 0.039347403, -1522021.0, 3806.5078, 0.0, 10.001134, 9.997153 
7.500574e+1, 1.5430126e+2, -1430626.1, -1456455.9, 4993.3657, -0.00885563, 0.05580763, -1429694.5, -1841.7606, 0.0, 10.000679, 9.997254 
7.500137e+1, 1.6429819e+2, -1345919.5, -1372991.6, 4992.5776, -0.007801927, 0.060482327, -1345028.1, -15145.396, 0.0, 10.000123, 9.996534 
7.4997145e+1, 1.7429465e+2, -1257733.8, -1279455.9, 4494.178, 0.00023670455, 0.05010406, -1256840.6, -24923.566, 0.0, 9.99944, 9.99656 
7.4993074e+1, 1.842906e+2, -1175717.5, -1200821.5, 6136.935, 0.0011098768, 0.042180944, -1174297.6, -40341.26, 0.0, 9.998853, 9.995524 
7.498923e+1, 1.9428608e+2, -1084400.5, -1106044.1, 6644.122, -0.0075115594, 0.036003005, -1082523.6, -46523.215, 0.0, 9.998393, 9.995524 
7.498555e+1, 2.0428123e+2, -997764.4, -1021493.1, 7528.766, -0.011252266, 0.035073046, -995577.25, -57529.5, 0.0, 9.997959, 9.994814 
7.4982107e+1, 2.1427612e+2, -905410.06, -925925.8, 7005.2046, -0.008494081, 0.040237032, -903246.3, -63148.574, 0.0, 9.997558, 9.994838 
7.49785e+1, 2.2427034e+2, -823101.4, -849701.3, 4926.074, -0.0039008984, 0.0411528, -822218.44, -80064.13, 0.0, 9.997095, 9.993571 
7.497466e+1, 2.3426384e+2, -733081.75, -755728.94, 4378.0635, 0.0030603088, 0.035184097, -732264.9, -88047.016, 0.0, 9.996553, 9.993552 
7.4970835e+1, 2.4425703e+2, -647263.4, -670709.6, 4305.7197, 0.008539958, 0.032532632, -646497.7, -100213.164, 0.0, 9.996022, 9.992917 
7.496698e+1, 2.5425e+2, -556488.7, -575750.06, 4438.2485, 0.012043872, 0.03334789, -555515.25, -107161.74, 0.0, 9.995503, 9.992952 
7.496303e+1, 2.642424e+2, -473838.94, -498238.72, 3937.4822, 0.012924944, 0.037445918, -473219.28, -122791.19, 0.0, 9.995012, 9.991781 
7.495889e+1, 2.7423427e+2, -382420.9, -403321.16, 4090.6104, 0.010340794, 0.044523634, -381648.8, -129140.55, 0.0, 9.994552, 9.991784 
7.4954677e+1, 2.842256e+2, -297682.78, -321747.6, 2972.9758, 0.010262286, 0.047334526, -297320.94, -142727.72, 0.0, 9.994069, 9.990885 
7.495028e+1, 2.9421648e+2, -206823.34, -226649.83, 2179.0234, 0.013522824, 0.043030795, -206586.69, -149904.33, 0.0, 9.99355, 9.990926 
7.4945617e+1, 3.042107e+2, -120217.805, -85400.27, -824.1423, 0.018903842, 0.04165842, -85380.78, -85380.78, 0.0, 9.992934, 9.9975395 
7.494051e+1, 3.142083e+2, -130767.13, -89715.695, -1478.3226, 0.02729253, 0.042686872, -89662.52, -89662.52, 0.0, 9.992178, 9.997608 
8.502276e+1, 1.2431613e+2, -1694787.6, -1721487.6, 1955.9957, -0.005906891, 0.04147662, -1694645.1, 27061.34, 0.0, 10.002081, 9.998542 
8.501663e+1, 1.3431339e+2, -1619457.0, -1651881.8, 2382.6565, -0.0072443914, 0.06228155, -1619282.9, 4450.826, 0.0, 10.001293, 9.996997 
8.5011e+1, 1.443102e+2, -1531000.3, -1556233.5, 7462.1167, -0.005483963, 0.039629485, -1528958.6, -3193.7292, 0.0, 10.0005455, 9.997199 
8.5006e+1, 1.5430766e+2, -1442472.4, -1461835.0, 8033.199, -0.010114503, 0.05492929, -1439573.5, -11783.665, 0.0, 9.999856, 9.997288 
8.5001063e+1, 1.6430455e+2, -1358820.5, -1380856.6, 8263.795, -0.010777472, 0.060480863, -1356065.9, -26245.59, 0.0, 9.999314, 9.996392 
8.4996295e+1, 1.743009e+2, -1265764.0, -1285107.4, 7842.0728, -0.005946699, 0.053576782, -1262984.3, -31128.242, 0.0, 9.998969, 9.996404 
8.4991705e+1, 1.8429677e+2, -1179576.6, -1202602.8, 9554.083, -0.007176511, 0.04520429, -1176128.8, -42232.605, 0.0, 9.998586, 9.995532 
8.4987414e+1, 1.942922e+2, -1087785.9, -1107465.4, 9633.671, -0.016463082, 0.033484615, -1083855.1, -47914.824, 0.0, 9.998154, 9.995543 
8.498327e+1, 2.0428726e+2, -1004362.6, -1027033.2, 9724.362, -0.01739768, 0.032156356, -1000763.0, -62774.48, 0.0, 9.997611, 9.994604 
8.497936e+1, 2.1428198e+2, -916286.6, -933742.56, 8733.527, -0.007286584, 0.043667506, -912667.44, -72627.12, 0.0, 9.996926, 9.99461 
8.497529e+1, 2.2427613e+2, -832471.56, -853812.3, 7512.82, -0.0011729556, 0.046011537, -830092.06, -87994.22, 0.0, 9.996438, 9.993608 
8.497101e+1, 2.3426962e+2, -737721.0, -757322.4, 8301.0, -0.00040476452, 0.034993105, -734678.0, -90516.81, 0.0, 9.996208, 9.993609 
8.496673e+1, 2.4426281e+2, -649373.6, -672189.9, 8376.03, 0.002677044, 0.030998446, -646628.9, -100401.06, 0.0, 9.995898, 9.992874 
8.496244e+1, 2.5425577e+2, -557239.9, -576670.94, 7787.641, 0.008846409, 0.0353801, -554503.94, -106206.91, 0.0, 9.995477, 9.992902 
8.495803e+1, 2.6424816e+2, -473264.88, -497330.2, 6832.5327, 0.011809165, 0.03983643, -471460.3, -121088.72, 0.0, 9.995025, 9.991837 
8.495343e+1, 2.7424005e+2, -382330.28, -402557.66, 6899.3906, 0.010505905, 0.04300061, -380201.1, -127749.69, 0.0, 9.994527, 9.991847 
8.4948736e+1, 2.8423142e+2, -298340.28, -322691.9, 6026.298, 0.010654393, 0.04466145, -296930.56, -142394.14, 0.0, 9.994051, 9.990828 
8.494385e+1, 2.9422227e+2, -206591.81, -227290.23, 5928.197, 0.012721874, 0.042927805, -205014.17, -148387.98, 0.0, 9.993598, 9.990858 
8.493867e+1, 3.0421644e+2, -117267.03, -84054.0, 3136.2393, 0.020166878, 0.0452223, -83760.445, -83760.445, 0.0, 9.993139, 9.997532 
8.4933007e+1, 3.142141e+2, -123690.625, -86337.52, 3000.5505, 0.035053883, 0.051385198, -86098.02, -86098.02, 0.0, 9.992663, 9.997604 
9.502468e+1, 1.24322385e+2, -1691598.6, -1714780.8, -814.56396, -0.02168471, 0.04042021, -1691570.0, 30075.22, 0.0, 10.002073, 9.999001 
9.5017934e+1, 1.343203e+2, -1615963.6, -1644606.4, -557.6076, -0.0065715653, 0.075503856, -1615952.8, 7713.2544, 0.0, 10.001288, 9.997493 
9.501164e+1, 1.4431737e+2, -1530540.3, -1555223.1, 4860.933, 0.0036026735, 0.04918396, -1529617.5, -3922.8372, 0.0, 10.000543, 9.997269 
9.500591e+1, 1.5431462e+2, -1442233.9, -1461300.5, 5466.803, -0.0039082957, 0.04089674, -1440777.8, -13056.482, 0.0, 9.999854, 9.997325 
9.5000374e+1, 1.6431142e+2, -1359802.4, -1382849.1, 6896.225, -0.01095969, 0.041830007, -1357896.5, -28144.004, 0.0, 9.999313, 9.996257 
9.4995147e+1, 1.7430781e+2, -1266840.9, -1287304.4, 6571.8203, -0.016985966, 0.055123173, -1264912.1, -33124.094, 0.0, 9.998969, 9.996254 
9.499016e+1, 1.8430367e+2, -1179923.3, -1203305.3, 7964.975, -0.020704135, 0.054245934, -1177467.9, -43639.348, 0.0, 9.998586, 9.995484 
9.498551e+1, 1.9429897e+2, -1088081.8, -1108066.0, 8022.6924, -0.021533875, 0.033317845, -1085259.6, -49385.695, 0.0, 9.998153, 9.9955015 
9.4980866e+1, 2.0429385e+2, -1006282.06, -1030976.8, 7213.6875, -0.018893598, 0.02937426, -1004329.3, -66405.48, 0.0, 9.99761, 9.994336 
9.497624e+1, 2.1428835e+2, -918340.06, -937952.3, 6153.67, -0.011710575, 0.046956535, -916569.1, -76591.14, 0.0, 9.996924, 9.994324 
9.497164e+1, 2.2428243e+2, -831106.56, -850966.5, 6538.122, -0.009599352, 0.049371615, -829147.44, -87111.29, 0.0, 9.996437, 9.993803 
9.496708e+1, 2.3427607e+2, -736095.75, -753944.94, 7451.059, -0.0141509, 0.030542452, -733394.25, -89296.43, 0.0, 9.996208, 9.99384 
9.496247e+1, 2.4426933e+2, -650198.44, -673881.8, 6846.7046, -0.013004756, 0.02543046, -648361.56, -102197.75, 0.0, 9.995897, 9.992759 
9.4957787e+1, 2.542622e+2, -558258.94, -578770.5, 6198.8774, -0.0043266723, 0.037519928, -556531.06, -108297.2, 0.0, 9.995477, 9.992758 
9.4952965e+1, 2.6425457e+2, -472984.06, -496743.47, 4981.795, 0.0029383658, 0.043090567, -471981.78, -121672.87, 0.0, 9.995024, 9.991877 
9.4947934e+1, 2.7424642e+2, -381954.97, -401770.78, 5020.357, 0.0083094835, 0.03858712, -380755.63, -128366.97, 0.0, 9.994527, 9.991901 
9.494282e+1, 2.842378e+2, -298123.7, -322234.7, 4315.253, 0.013517151, 0.03742015, -297374.66, -142901.16, 0.0, 9.994051, 9.990859 
9.49375e+1, 2.942287e+2, -206391.36, -226873.94, 4225.112, 0.0184625, 0.039374743, -205554.05, -148991.2, 0.0, 9.993598, 9.990887 
9.493185e+1, 3.04223e+2, -116747.15, -82998.11, 1379.7189, 0.025043843, 0.045533936, -82941.8, -82941.8, 0.0, 9.99314, 9.997603 
9.4925666e+1, 3.1422076e+2, -123123.24, -85232.625, 1231.2139, 0.03404165, 0.055754118, -85192.664, -85192.664, 0.0, 9.992667, 9.997678 
1.0502602e+2, 1.2432936e+2, -1710917.8, -1721456.4, 2639.3728, -0.022850277, 0.03759258, -1710293.6, 11282.939, 0.0, 10.000642, 9.999244 
1.05018735e+2, 1.3432752e+2, -1627532.5, -1647165.3, 1111.9236, -0.009032797, 0.07150056, -1627469.8, -3874.9856, 0.0, 10.000368, 9.9977665 
1.05011895e+2, 1.4432478e+2, -1537093.1, -1557103.3, 5756.031, 0.00040022386, 0.042943783, -1535555.5, -9934.052, 0.0, 10.00004, 9.997385 
1.0500562e+2, 1.5432213e+2, -1444581.8, -1461277.3, 6867.4756, -0.00797259, 0.034289014, -1442119.9, -14472.812, 0.0, 9.999644, 9.997428 
1.0499958e+2, 1.6431892e+2, -1362767.8, -1385861.4, 8878.257, -0.0154430345, 0.035648152, -1359749.1, -30070.586, 0.0, 9.99918, 9.996116 
1.049939e+2, 1.7431517e+2, -1272928.1, -1292042.1, 8518.285, -0.021300474, 0.050386574, -1269682.9, -37967.37, 0.0, 9.9986315, 9.996095 
1.0498848e+2, 1.8431094e+2, -1187352.9, -1207382.8, 9809.366, -0.02269816, 0.05163583, -1183349.1, -49592.22, 0.0, 9.9981, 9.995441 
1.0498342e+2, 1.9430622e+2, -1096549.5, -1112557.1, 9921.484, -0.018397411, 0.033709474, -1091805.9, -56003.414, 0.0, 9.997593, 9.995466 
1.0497832e+2, 2.0430103e+2, -1012551.8, -1035680.06, 9807.864, -0.016459875, 0.029185068, -1008952.7, -71099.4, 0.0, 9.997255, 9.994186 
1.0497321e+2, 2.1429531e+2, -916321.9, -938738.06, 9749.725, -0.017611952, 0.041484006, -912674.75, -72765.21, 0.0, 9.997139, 9.994165 
1.049682e+2, 2.2428934e+2, -824550.25, -846879.94, 10343.142, -0.018250411, 0.042905994, -820495.5, -78527.33, 0.0, 9.996845, 9.993882 
1.049633e+2, 2.3428312e+2, -733807.44, -751736.5, 10263.313, -0.018203132, 0.028743027, -729144.8, -85116.31, 0.0, 9.996317, 9.9939375 
1.0495832e+2, 2.4427642e+2, -651965.7, -676031.06, 8965.195, -0.014520952, 0.026772087, -648993.06, -102898.72, 0.0, 9.995833, 9.992642 
1.0495321e+2, 2.5426915e+2, -560216.94, -581205.1, 8381.969, -0.0060649463, 0.039942674, -557280.4, -109114.73, 0.0, 9.995407, 9.992624 
1.04947984e+2, 2.6426148e+2, -472556.16, -495718.8, 7340.67, 0.0022218383, 0.043226585, -470425.72, -120184.52, 0.0, 9.995018, 9.991949 
1.0494256e+2, 2.7425337e+2, -379166.53, -399435.06, 7632.9785, 0.010284304, 0.031998828, -376613.56, -124293.0, 0.0, 9.994675, 9.991988 
1.0493702e+2, 2.8424475e+2, -294952.9, -321123.5, 6719.918, 0.016883463, 0.030536225, -293328.25, -138923.19, 0.0, 9.994286, 9.990821 
1.0493124e+2, 2.9423568e+2, -203339.16, -225948.53, 6025.307, 0.021461362, 0.040762804, -201833.69, -145339.39, 0.0, 9.993831, 9.990837 
1.0492515e+2, 3.0422992e+2, -112827.93, -81785.28, 2614.2815, 0.026029019, 0.048528273, -81566.66, -81566.66, 0.0, 9.993437, 9.997542 
1.0491852e+2, 3.1422758e+2, -116934.53, -82948.81, 1432.2527, 0.030823207, 0.051383544, -82888.56, -82888.56, 0.0, 9.99312, 9.997616 
1.15026794e+2, 1.2433701e+2, -1710767.4, -1721035.6, 1705.5134, -0.009645631, 0.032984264, -1710491.5, 11009.16, 0.0, 10.000637, 9.999274 
1.1501905e+2, 1.3433506e+2, -1627210.8, -1646417.5, 118.757324, -0.014650118, 0.05032534, -1627210.0, -3690.1711, 0.0, 10.000365, 9.997819 
1.1501178e+2, 1.4433241e+2, -1535957.1, -1554698.1, 4323.133, -0.015041817, 0.020991378, -1535008.0, -9462.289, 0.0, 10.000037, 9.997549 
1.1500512e+2, 1.5433016e+2, -1443394.0, -1458780.0, 5410.8403, -0.022282759, 0.035170082, -1441681.6, -14114.006, 0.0, 9.999641, 9.997599 
1.14998676e+2, 1.6432704e+2, -1363834.3, -1388014.6, 6875.9937, -0.024205867, 0.04193241, -1362015.8, -32417.367, 0.0, 9.999178, 9.99597 
1.1499256e+2, 1.7432295e+2, -1274148.9, -1294526.4, 6479.2188, -0.01886476, 0.039294142, -1272263.3, -40624.434, 0.0, 9.998631, 9.995926 
1.1498668e+2, 1.8431857e+2, -1187620.0, -1207911.4, 7908.185, -0.013135277, 0.037309937, -1184902.0, -51220.387, 0.0, 9.998099, 9.995405 
1.1498112e+2, 1.9431399e+2, -1096758.4, -1112963.3, 8031.7134, -0.0070263436, 0.034693837, -1093452.1, -57726.047, 0.0, 9.997592, 9.995439 
1.14975646e+2, 2.0430878e+2, -1012745.3, -1036068.8, 9294.117, -0.010091987, 0.031602427, -1009494.75, -71717.63, 0.0, 9.997255, 9.99416 
1.1497028e+2, 2.1430287e+2, -916497.8, -939122.3, 9339.341, -0.025039269, 0.027143816, -913140.75, -73305.766, 0.0, 9.997141, 9.994138 
1.14964955e+2, 2.2429682e+2, -824777.8, -847376.56, 8466.454, -0.027141148, 0.026514132, -821957.8, -80063.664, 0.0, 9.996846, 9.993848 
1.1495968e+2, 2.3429078e+2, -734064.06, -752271.0, 8269.122, -0.012440859, 0.029636614, -730869.06, -86915.6, 0.0, 9.996318, 9.9939 
1.14954285e+2, 2.4428405e+2, -652788.9, -677721.25, 7332.4336, -0.0016895867, 0.035098623, -650792.4, -104772.94, 0.0, 9.995832, 9.992527 
1.1494871e+2, 2.5427663e+2, -561087.9, -582992.5, 6773.6553, 0.00380617, 0.042639088, -559162.44, -111070.055, 0.0, 9.995407, 9.992501 
1.1494308e+2, 2.6426885e+2, -471810.16, -494167.0, 6029.3247, 0.009802072, 0.04018269, -470287.78, -120119.21, 0.0, 9.995018, 9.992054 
1.1493729e+2, 2.742608e+2, -378290.7, -397632.22, 6340.1084, 0.016505333, 0.023178976, -376397.7, -124150.516, 0.0, 9.994676, 9.992111 
1.14931345e+2, 2.8425223e+2, -295701.22, -322699.13, 5037.7773, 0.02074261, 0.02401564, -294791.8, -140460.55, 0.0, 9.994287, 9.990712 
1.1492508e+2, 2.9424316e+2, -204224.06, -227814.23, 4299.664, 0.021621002, 0.047228727, -203464.81, -147044.2, 0.0, 9.993832, 9.990708 
1.1491856e+2, 3.0423725e+2, -114177.38, -84635.0, 1385.9512, 0.022994265, 0.054252844, -84570.12, -84570.12, 0.0, 9.99344, 9.997346 
1.1491159e+2, 3.142345e+2, -118307.85, -85885.0, 225.47453, 0.02531146, 0.03795083, -85883.44, -85883.44, 0.0, 9.993124, 9.997412 
1.2502731e+2, 1.2434501e+2, -1711590.5, -1720681.6, 3852.3782, -0.01702751, 0.019634474, -1710177.6, 11243.481, 0.0, 10.000548, 9.999342 
1.2501927e+2, 1.343431e+2, -1627987.3, -1645776.8, 2492.2734, -0.024192652, 0.03285864, -1627644.6, -4204.8623, 0.0, 10.000268, 9.997909 
1.2501167e+2, 1.4434052e+2, -1538138.9, -1556090.0, 5607.691, -0.02329673, 0.005294895, -1536531.0, -11065.744, 0.0, 9.999903, 9.9975195 
1.2500463e+2, 1.5433836e+2, -1446747.6, -1460858.9, 5075.6787, -0.025042478, 0.032510545, -1445111.6, -17624.94, 0.0, 9.999433, 9.997559 
1.2499779e+2, 1.6433522e+2, -1366291.8, -1389571.5, 6084.5327, -0.022870746, 0.041442063, -1364797.4, -35279.723, 0.0, 9.999026, 9.995937 
1.2499127e+2, 1.7433096e+2, -1273264.8, -1294461.1, 6724.9907, -0.01523394, 0.026865164, -1271311.1, -39751.746, 0.0, 9.998707, 9.995893 
1.2498494e+2, 1.8432657e+2, -1183702.0, -1205927.3, 8833.225, -0.009688009, 0.023922892, -1180619.0, -47016.5, 0.0, 9.998363, 9.995411 
1.24978915e+2, 1.9432212e+2, -1090861.9, -1110007.3, 9232.553, -0.0069920393, 0.034649707, -1087135.1, -51489.14, 0.0, 9.99799, 9.995446 
1.24973044e+2, 2.0431694e+2, -1008681.7, -1034124.6, 11084.809, -0.0089436965, 0.033780076, -1004529.8, -66833.09, 0.0, 9.997534, 9.994156 
1.2496741e+2, 2.1431091e+2, -919039.94, -940398.7, 11336.694, -0.016887112, 0.017028134, -914144.6, -74389.05, 0.0, 9.996969, 9.994133 
1.24961734e+2, 2.2430478e+2, -831442.25, -852370.94, 9649.294, -0.015187972, 0.015383235, -827672.44, -85856.83, 0.0, 9.996469, 9.99369 
1.2495598e+2, 2.3429869e+2, -739185.25, -756658.3, 8412.491, -0.00087997364, 0.03226452, -735793.44, -91917.836, 0.0, 9.996051, 9.993729 
1.24950126e+2, 2.4429189e+2, -655367.3, -679100.6, 7608.027, 0.007916945, 0.03970132, -653137.9, -107195.55, 0.0, 9.995663, 9.992515 
1.2494413e+2, 2.5428432e+2, -562482.6, -583672.44, 7990.582, 0.0094214445, 0.03371432, -559807.25, -111790.82, 0.0, 9.995312, 9.9925 
1.2493811e+2, 2.6427656e+2, -471928.25, -493569.38, 7804.4736, 0.013608451, 0.027858716, -469407.34, -119314.79, 0.0, 9.994982, 9.992112 
1.2493202e+2, 2.7426866e+2, -377843.06, -396727.0, 7664.815, 0.021374915, 0.020883275, -375123.63, -122953.914, 0.0, 9.994677, 9.992171 
1.2492573e+2, 2.8426006e+2, -294675.44, -323919.44, 5996.3657, 0.0244645, 0.024509544, -293493.7, -139239.78, 0.0, 9.994431, 9.990559 
1.24919124e+2, 2.9425076e+2, -199187.92, -227300.36, 4929.619, 0.021269536, 0.040842377, -198348.55, -142003.14, 0.0, 9.994259, 9.990537 
1.2491231e+2, 3.0424467e+2, -105340.74, -81885.94, 2401.873, 0.021084264, 0.04321545, -81642.5, -81642.5, 0.0, 9.99411, 9.997211 
1.2490514e+2, 3.1424177e+2, -106682.33, -81776.57, 1789.1975, 0.02520689, 0.025275664, -81648.695, -81648.695, 0.0, 9.993985, 9.997279 
1.3502759e+2, 1.2435334e+2, -1710962.4, -1719213.6, 2878.2947, -0.044769738, -0.002307427, -1710057.5, 11280.476, 0.0, 10.000541, 9.999444 
1.3501939e+2, 1.3435164e+2, -1627147.4, -1643920.9, 1468.0304, -0.03760114, 0.019126276, -1627019.9, -3665.0334, 0.0, 10.000262, 9.998037 
1.3501157e+2, 1.4434905e+2, -1539807.6, -1559420.8, 3911.5037, -0.024406381, -0.004187651, -1539056.3, -13675.781, 0.0, 9.999899, 9.997294 
1.3500415e+2, 1.5434667e+2, -1448584.5, -1464566.0, 3340.794, -0.016297497, 0.026278364, -1447914.3, -20509.896, 0.0, 9.99943, 9.997307 
1.3499692e+2, 1.6434343e+2, -1365733.6, -1388377.6, 4876.0776, -0.011476498, 0.034176704, -1364728.3, -35291.766, 0.0, 9.999025, 9.996018 
1.3499002e+2, 1.7433922e+2, -1272537.4, -1292935.6, 5555.4546, -0.010430763, 0.0131282685, -1271122.5, -39644.89, 0.0, 9.998706, 9.995996 
1.3498327e+2, 1.8433492e+2, -1183353.0, -1205201.9, 7470.2437, -0.012418026, 0.011499806, -1181043.1, -47523.254, 0.0, 9.998363, 9.9954605 
1.3497679e+2, 1.9433065e+2, -1090537.8, -1109355.0, 7856.5137, -0.018421462, 0.033555683, -1087688.9, -52126.758, 0.0, 9.997991, 9.99549 
1.3497053e+2, 2.043255e+2, -1008519.8, -1033807.06, 9019.683, -0.013047186, 0.035697587, -1005632.3, -68019.92, 0.0, 9.997535, 9.994177 
1.3496463e+2, 2.1431941e+2, -918911.6, -940123.5, 9217.275, 0.007068829, 0.011176373, -915466.06, -75794.45, 0.0, 9.996969, 9.994151 
1.3495852e+2, 2.2431317e+2, -833464.94, -856517.94, 8043.658, 0.017869063, 0.009578061, -830935.8, -89202.99, 0.0, 9.996468, 9.993406 
1.3495219e+2, 2.3430687e+2, -741371.0, -761146.2, 6838.213, 0.016547417, 0.036665224, -739236.7, -95441.664, 0.0, 9.99605, 9.9934225 
1.3494584e+2, 2.4429992e+2, -654716.7, -677729.25, 6265.143, 0.014236006, 0.040502742, -653121.56, -107258.29, 0.0, 9.995662, 9.992608 
1.3493945e+2, 2.5429228e+2, -561624.6, -581872.3, 6663.5435, 0.010669999, 0.012876718, -559628.5, -111690.65, 0.0, 9.995311, 9.992623 
1.3493308e+2, 2.6428455e+2, -471877.25, -493447.3, 6640.32, 0.01352439, 0.006044427, -469996.94, -119983.64, 0.0, 9.994982, 9.99212 
1.3492672e+2, 2.742769e+2, -377860.84, -396758.22, 6503.642, 0.02482858, 0.025311606, -375838.9, -123750.625, 0.0, 9.994677, 9.992168 
1.3492021e+2, 2.842683e+2, -296062.84, -326817.6, 5312.5215, 0.028016847, 0.032166827, -295171.03, -140997.94, 0.0, 9.994432, 9.990359 
1.3491337e+2, 2.9425848e+2, -200649.25, -230410.4, 4273.5845, 0.020383352, 0.02112979, -200047.73, -143778.84, 0.0, 9.994263, 9.990322 
1.3490641e+2, 3.0425212e+2, -105752.08, -82877.53, 1918.2261, 0.02034443, 0.0148556195, -82717.79, -82717.79, 0.0, 9.994116, 9.99714 
1.3489918e+2, 3.1424934e+2, -106988.52, -82608.34, 1314.3245, 0.030685397, 0.01343382, -82537.695, -82537.695, 0.0, 9.993994, 9.997217 
1.4502777e+2, 1.243617e+2, -1716946.4, -1721093.6, 1876.3135, -0.057667565, -0.019433977, -1716223.5, 5031.3057, 0.0, 10.000089, 9.999537 
1.4501946e+2, 1.3436021e+2, -1631479.6, -1644686.1, 351.16943, -0.040162, 0.011503223, -1631470.3, -8200.538, 0.0, 9.999908, 9.9981575 
1.4501138e+2, 1.4435768e+2, -1543449.1, -1562238.0, 2748.2007, -0.021743832, -0.009526954, -1543055.5, -17760.342, 0.0, 9.999696, 9.997202 
1.450036e+2, 1.5435517e+2, -1449162.0, -1466073.9, 3209.0532, -0.014395189, 0.018419566, -1448573.6, -21253.186, 0.0, 9.999444, 9.997197 
1.4499606e+2, 1.6435191e+2, -1361816.0, -1384443.9, 5972.3257, -0.009668036, 0.023580007, -1360336.4, -30983.904, 0.0, 9.999204, 9.996199 
1.449889e+2, 1.7434789e+2, -1267060.5, -1288031.9, 7399.2134, -0.007849636, -0.00043128195, -1264712.8, -33320.97, 0.0, 9.998981, 9.996195 
1.4498186e+2, 1.843436e+2, -1179381.9, -1205430.1, 8624.451, -0.008992419, -0.00063390046, -1176785.3, -43351.5, 0.0, 9.998727, 9.995267 
1.4497505e+2, 1.9433917e+2, -1085638.5, -1109452.1, 7003.688, -0.014056953, 0.028432408, -1083731.4, -48253.523, 0.0, 9.998432, 9.995269 
1.4496839e+2, 2.0433402e+2, -1000325.06, -1028419.1, 6709.804, -0.007350106, 0.033876266, -998804.8, -61276.297, 0.0, 9.998032, 9.994302 
1.4496192e+2, 2.1432807e+2, -910100.9, -934172.56, 7846.152, 0.014626055, 0.007898481, -907769.25, -68182.97, 0.0, 9.997498, 9.9943 
1.4495537e+2, 2.2432178e+2, -825473.06, -854754.8, 8375.149, 0.023467768, 0.0038044031, -823246.9, -81599.15, 0.0, 9.997104, 9.993217 
1.4494866e+2, 2.3431523e+2, -730532.94, -758295.7, 7934.0654, 0.015206498, 0.027032843, -728425.56, -84713.09, 0.0, 9.996893, 9.993208 
1.4494193e+2, 2.443082e+2, -640188.0, -669114.1, 7633.856, 0.009132078, 0.028396709, -638296.94, -92515.62, 0.0, 9.996586, 9.992748 
1.4493513e+2, 2.543007e+2, -548141.75, -573487.6, 8341.268, 0.0059610843, 0.0001233536, -545643.0, -97788.8, 0.0, 9.996153, 9.992788 
1.449284e+2, 2.64293e+2, -463180.1, -491832.72, 7607.9536, 0.010662924, -0.0029878896, -461285.28, -111355.74, 0.0, 9.9956875, 9.991888 
1.4492166e+2, 2.7428523e+2, -372331.72, -397025.88, 5491.4224, 0.025697414, 0.025688313, -371165.63, -119159.17, 0.0, 9.995182, 9.991906 
1.449148e+2, 2.8427643e+2, -291539.1, -323866.53, 4564.712, 0.03160975, 0.0310527, -290906.9, -136814.5, 0.0, 9.994709, 9.990427 
1.449077e+2, 2.9426658e+2, -199788.97, -228952.9, 5886.554, 0.025356231, 0.0041386294, -198645.63, -142457.22, 0.0, 9.994277, 9.990414 
1.4490059e+2, 3.0426016e+2, -106753.44, -84543.15, 5768.5923, 0.026272062, -0.007083468, -83134.266, -83134.266, 0.0, 9.994098, 9.997034 
1.4489338e+2, 3.1425735e+2, -104119.83, -82602.84, 4779.2993, 0.037030935, 0.0011533175, -81589.05, -81589.05, 0.0, 9.994249, 9.997094 
1.5502788e+2, 1.2437008e+2, -1716487.3, -1719965.0, 1254.8353, -0.05591781, -0.03172568, -1716081.8, 5089.884, 0.0, 10.000081, 9.999618 
1.5501946e+2, 1.3436882e+2, -1630781.4, -1643108.0, -289.90753, -0.031976774, 0.009944332, -1630774.6, -7589.9497, 0.0, 9.999903, 9.998267 
1.5501113e+2, 1.4436637e+2, -1543248.4, -1561711.1, 1847.728, -0.015356948, -0.010743135, -1543065.3, -17855.979, 0.0, 9.999692, 9.997239 
1.5500301e+2, 1.543638e+2, -1448990.9, -1465632.8, 2299.454, -0.019358004, 0.008935105, -1448679.0, -21444.02, 0.0, 9.99944, 9.997229 
1.5499517e+2, 1.6436066e+2, -1359863.9, -1380366.3, 5170.8735, -0.017443283, 0.009654968, -1358633.5, -29367.572, 0.0, 9.999202, 9.996476 
1.5498787e+2, 1.7435692e+2, -1264973.1, -1283707.9, 6604.379, -0.007503998, -0.0138216745, -1262879.0, -31576.908, 0.0, 9.9989805, 9.99649 
1.5498069e+2, 1.843526e+2, -1182491.9, -1211839.5, 7564.3105, 0.000619029, -0.0124969585, -1180657.0, -47312.49, 0.0, 9.998727, 9.99483 
1.5497369e+2, 1.9434772e+2, -1089098.8, -1116606.0, 5920.464, 0.006252541, 0.019237434, -1087878.6, -52485.227, 0.0, 9.998433, 9.994781 
1.5496656e+2, 2.0434244e+2, -998646.25, -1024994.75, 4767.841, 0.008182024, 0.028305175, -997810.0, -60364.617, 0.0, 9.9980345, 9.994534 
1.5495934e+2, 2.1433681e+2, -908065.7, -930020.7, 5841.652, 0.005449716, 0.0072668125, -906608.1, -67108.28, 0.0, 9.997499, 9.994581 
1.5495226e+2, 2.2433057e+2, -826088.7, -856092.7, 7515.378, 0.0011137361, -0.001967548, -824311.5, -82750.93, 0.0, 9.9971075, 9.993124 
1.5494534e+2, 2.3432373e+2, -731326.56, -760029.4, 7152.6587, -0.005306707, 0.0030228354, -729642.9, -86014.89, 0.0, 9.996898, 9.993087 
1.5493834e+2, 2.4431671e+2, -638776.06, -666306.94, 6056.799, -0.0077081127, 0.003113914, -637502.5, -91805.734, 0.0, 9.996592, 9.992936 
1.5493119e+2, 2.5430965e+2, -546581.9, -570375.6, 6702.486, -0.004892577, -0.00428018, -544823.75, -97058.04, 0.0, 9.996158, 9.992997 
1.5492402e+2, 2.643019e+2, -466492.94, -498794.4, 5703.2856, 0.004933935, 0.0010812928, -465515.53, -115674.03, 0.0, 9.995692, 9.991409 
1.5491684e+2, 2.742935e+2, -376026.34, -404754.94, 3545.578, 0.023915898, 0.021820739, -375595.22, -123670.766, 0.0, 9.995185, 9.991376 
1.5490957e+2, 2.8428453e+2, -289077.1, -318802.53, 2880.5947, 0.035246607, 0.02088089, -288800.5, -134788.36, 0.0, 9.994711, 9.990772 
1.5490209e+2, 2.9427505e+2, -196895.08, -222945.0, 4236.294, 0.036377616, -0.009999404, -196223.48, -140119.34, 0.0, 9.994277, 9.990825 
1.5489481e+2, 3.042688e+2, -107749.43, -86621.54, 6203.071, 0.039080795, -0.022363307, -84934.98, -84934.98, 0.0, 9.9941, 9.99689 
1.5488769e+2, 3.1426582e+2, -105376.53, -85308.5, 5363.91, 0.044234898, -0.01163035, -83964.77, -83964.77, 0.0, 9.994254, 9.996905 
1.6502789e+2, 1.2437872e+2, -1715468.6, -1720174.4, 2162.778, -0.066184044, -0.04337616, -1714625.6, 6460.6587, 0.0, 10.00018, 9.999555 
1.6501932e+2, 1.343775e+2, -1630476.4, -1643365.3, -501.77054, -0.03667791, 0.00531101, -1630456.9, -7357.8184, 0.0, 9.999941, 9.998231 
1.6501085e+2, 1.4437501e+2, -1541618.5, -1560406.5, 1258.0009, -0.017611954, -0.01712076, -1541534.6, -16410.908, 0.0, 9.99978, 9.997285 
1.6500255e+2, 1.5437242e+2, -1444523.0, -1462902.8, 1847.7461, -0.021938676, -0.0059170434, -1444339.1, -17189.49, 0.0, 9.99972, 9.997278 
1.6499454e+2, 1.643694e+2, -1353440.9, -1374864.8, 4104.393, -0.01883824, -0.0041550803, -1352681.5, -23502.244, 0.0, 9.999536, 9.996688 
1.6498698e+2, 1.7436601e+2, -1260258.3, -1278930.5, 4964.9927, -0.0057516233, -0.014420542, -1259020.1, -27808.043, 0.0, 9.999194, 9.996711 
1.649795e+2, 1.8436174e+2, -1182530.8, -1213969.1, 6246.5166, 0.005894936, -0.013018344, -1181335.1, -48080.996, 0.0, 9.9988165, 9.994641 
1.6497219e+2, 1.9435646e+2, -1091227.4, -1120069.0, 6637.3213, 0.015527977, 0.0019579397, -1089773.3, -54466.637, 0.0, 9.998394, 9.994563 
1.6496469e+2, 2.0435107e+2, -997376.44, -1023439.9, 6066.152, 0.014962851, 0.008007554, -996033.75, -58674.086, 0.0, 9.99808, 9.9946165 
1.64957e+2, 2.1434571e+2, -901363.25, -925616.25, 5796.565, 0.0013819002, 0.0016488625, -900049.06, -60637.137, 0.0, 9.997908, 9.994683 
1.6494952e+2, 2.243396e+2, -818767.06, -851663.2, 7274.112, -0.0052127615, -0.004658687, -817230.4, -75758.85, 0.0, 9.997569, 9.993202 
1.6494234e+2, 2.343327e+2, -729034.94, -758067.56, 8397.746, -0.002780524, -0.011976495, -726780.9, -83241.61, 0.0, 9.997018, 9.993162 
1.6493498e+2, 2.4432565e+2, -640983.56, -668921.8, 6710.969, 0.0011046873, -0.012042139, -639455.1, -93846.89, 0.0, 9.996508, 9.992798 
1.649274e+2, 2.543186e+2, -549255.5, -573400.56, 4579.6157, 0.0068557076, -0.0037625737, -548416.06, -100738.625, 0.0, 9.99605, 9.992843 
1.6491981e+2, 2.643107e+2, -468318.63, -502100.84, 3227.0925, 0.014157997, 0.0027833614, -468013.13, -118258.24, 0.0, 9.995672, 9.991194 
1.6491212e+2, 2.743019e+2, -374500.56, -406503.72, 3426.0664, 0.023509802, 0.0057706754, -374137.9, -122296.39, 0.0, 9.995397, 9.991154 
1.649044e+2, 2.8429282e+2, -282705.6, -314721.9, 3170.5598, 0.029718535, 0.001286878, -282394.63, -128464.41, 0.0, 9.995103, 9.990861 
1.6489656e+2, 2.942836e+2, -188698.88, -217737.48, 2252.4963, 0.031688735, -0.014447492, -188525.19, -132505.39, 0.0, 9.994783, 9.990936 
1.6488907e+2, 3.042774e+2, -103606.984, -85017.516, 4173.65, 0.039612133, -0.021724956, -84123.46, -84123.46, 0.0, 9.994399, 9.996856 
1.648819e+2, 3.1427428e+2, -110473.4, -88297.48, 4455.523, 0.05563225, -0.019242458, -87435.766, -87435.766, 0.0, 9.993927, 9.996859 
1.7502785e+2, 1.2438757e+2, -1717091.9, -1723265.3, 1294.6115, -0.08839257, -0.054376498, -1716831.4, 4167.3364, 0.0, 10.000171, 9.999349 
1.7501909e+2, 1.3438618e+2, -1631896.5, -1646094.5, -1369.9117, -0.054177124, -0.0023701917, -1631765.6, -8752.618, 0.0, 9.999933, 9.998049 
1.7501053e+2, 1.4438361e+2, -1541335.9, -1559683.4, 1031.1873, -0.028460763, -0.02863079, -1541278.1, -16239.423, 0.0, 9.999775, 9.997336 
1.7500228e+2, 1.5438099e+2, -1444116.5, -1461961.3, 1666.683, -0.022162002, -0.026131792, -1443962.1, -16897.729, 0.0, 9.999716, 9.997344 
1.7499413e+2, 1.6437814e+2, -1352449.9, -1372753.8, 2925.2327, -0.013903652, -0.017796963, -1352036.9, -22944.348, 0.0, 9.999533, 9.996832 
1.7498621e+2, 1.7437516e+2, -1259226.3, -1276765.5, 3718.6606, -0.0026302857, -0.00210801, -1258470.4, -27348.496, 0.0, 9.999192, 9.996858 
1.7497833e+2, 1.8437098e+2, -1182096.6, -1213055.8, 4703.3433, 0.006761041, -0.0021431192, -1181397.9, -48234.855, 0.0, 9.998816, 9.994703 
1.7497057e+2, 1.943654e+2, -1090828.4, -1119235.4, 5077.6177, 0.013609013, -0.023555348, -1089948.1, -54730.305, 0.0, 9.998394, 9.994619 
1.7496276e+2, 2.0435992e+2, -997858.94, -1024443.06, 5391.4624, 0.012879954, -0.027209522, -996807.1, -59535.5, 0.0, 9.998081, 9.994547 
1.7495492e+2, 2.1435471e+2, -901895.25, -926761.2, 5173.2, 0.0025157295, -0.0090187425, -900861.94, -61539.19, 0.0, 9.9979105, 9.994603 
1.749472e+2, 2.2434878e+2, -816929.94, -847920.44, 5291.349, 0.0047970414, -0.0041877744, -816051.4, -74670.586, 0.0, 9.997572, 9.993455 
1.749396e+2, 2.343421e+2, -727066.6, -754010.25, 6320.974, 0.023318602, -0.017740257, -725657.44, -82211.125, 0.0, 9.997019, 9.993438 
1.7493184e+2, 2.44335e+2, -644365.94, -675888.94, 4961.323, 0.036218695, -0.016831843, -643603.5, -98087.5, 0.0, 9.996507, 9.992322 
1.7492379e+2, 2.543275e+2, -553029.3, -581167.2, 2826.13, 0.04183738, 0.0017797477, -552748.25, -105158.625, 0.0, 9.996049, 9.992312 
1.7491573e+2, 2.6431927e+2, -467938.44, -501290.88, 2115.8147, 0.038741026, 0.0020144451, -467804.75, -118134.66, 0.0, 9.995672, 9.991248 
1.7490754e+2, 2.7431026e+2, -373792.56, -405068.16, 2374.4763, 0.024427759, -0.022922376, -373613.3, -121855.42, 0.0, 9.9953985, 9.99125 
1.7489937e+2, 2.843012e+2, -283906.9, -317295.03, 1963.5867, 0.01460709, -0.028072806, -283791.8, -129944.875, 0.0, 9.995108, 9.990683 
1.7489114e+2, 2.9429212e+2, -190028.55, -220621.3, 1003.911, 0.010620088, -0.00879275, -189995.64, -134059.86, 0.0, 9.99479, 9.990736 
1.7488335e+2, 3.0428597e+2, -102999.86, -83847.45, 2351.392, 0.027351229, -0.004499923, -83562.99, -83562.99, 0.0, 9.994404, 9.996934 
1.7487599e+2, 3.1428277e+2, -109817.07, -86876.5, 2592.1924, 0.07137696, -0.021466875, -86587.24, -86587.24, 0.0, 9.993925, 9.996957 
1.8502808e+2, 1.2439645e+2, -1716160.4, -1723385.5, -871.0237, -0.08704073, -0.04780319, -1716056.8, 4854.7637, 0.0, 10.0002575, 9.999299 
1.8501903e+2, 1.3439496e+2, -1630953.3, -1645814.1, -2320.9172, -0.056681752, -0.005152661, -1630599.3, -7672.7104, 0.0, 10.000004, 9.998034 
1.8501025e+2, 1.4439237e+2, -1540359.5, -1557033.6, 1526.2506, -0.03203746, -0.041324504, -1540220.9, -15268.8955, 0.0, 9.999746, 9.99753 
1.8500188e+2, 1.5438987e+2, -1446092.5, -1460615.4, 3230.3423, -0.021842767, -0.045911554, -1445406.4, -18430.2, 0.0, 9.999481, 9.997549 
1.8499355e+2, 1.6438709e+2, -1357239.5, -1377278.4, 3677.545, -0.013332705, -0.03457067, -1356585.9, -27582.121, 0.0, 9.999302, 9.996636 
1.8498538e+2, 1.7438403e+2, -1260251.0, -1279760.1, 1661.8527, -0.0064605544, -0.0031907815, -1260110.5, -29076.166, 0.0, 9.999231, 9.996635 
1.8497719e+2, 1.8437994e+2, -1175875.1, -1205829.5, 1719.2847, -0.00075763493, -0.001231118, -1175776.8, -42702.016, 0.0, 9.999058, 9.995078 
1.8496904e+2, 1.943746e+2, -1082582.6, -1110594.1, 4750.5015, 0.0033224944, -0.038062405, -1081798.9, -46672.363, 0.0, 9.9987545, 9.995031 
1.849609e+2, 2.0436922e+2, -995143.2, -1025289.1, 6144.082, 0.00536629, -0.045912497, -993939.06, -56759.67, 0.0, 9.99836, 9.994353 
1.8495284e+2, 2.1436386e+2, -904463.7, -930642.56, 4762.4556, 0.0048357644, -0.017524105, -903624.2, -64391.945, 0.0, 9.9978485, 9.994368 
1.849447e+2, 2.2435793e+2, -820756.0, -849010.56, 2673.0103, 0.011760698, -0.005580015, -820505.4, -79214.625, 0.0, 9.997277, 9.993523 
1.849365e+2, 2.3435137e+2, -732138.5, -755475.44, 2216.4543, 0.028276132, -0.016072404, -731929.8, -88574.72, 0.0, 9.99663, 9.9935255 
1.8492821e+2, 2.4434422e+2, -650489.7, -680287.0, 2195.446, 0.03920362, -0.016778942, -650328.8, -104903.78, 0.0, 9.99615, 9.992194 
1.8491979e+2, 2.543365e+2, -556402.25, -584418.1, 3056.6992, 0.04288067, -0.005716978, -556072.6, -108571.94, 0.0, 9.995888, 9.992167 
1.8491144e+2, 2.6432818e+2, -465823.28, -499235.56, 4961.776, 0.038064737, -0.012200574, -465102.03, -115520.086, 0.0, 9.995772, 9.99134 
1.8490312e+2, 2.7431923e+2, -366528.3, -400347.7, 5373.3545, 0.022309657, -0.04283142, -365695.1, -114026.15, 0.0, 9.995843, 9.991357 
1.8489476e+2, 2.8431007e+2, -277055.1, -318117.63, 3608.4885, 0.012168167, -0.045386955, -276740.4, -122981.49, 0.0, 9.995753, 9.9903145 
1.8488625e+2, 2.9430073e+2, -183178.1, -221855.75, 1032.8848, 0.009338947, -0.012683313, -183150.53, -127299.55, 0.0, 9.995454, 9.990331 
1.8487799e+2, 3.042944e+2, -94872.34, -80622.21, 104.704056, 0.023023237, -0.0010819514, -80621.44, -80621.44, 0.0, 9.994989, 9.996872 
1.8486996e+2, 3.1429115e+2, -104436.836, -84690.336, -759.8678, 0.058498964, -0.018891513, -84661.14, -84661.14, 0.0, 9.99431, 9.996921 
1.9502857e+2, 1.2440534e+2, -1715702.3, -1722041.3, -1803.8187, -0.062492825, -0.023903308, -1715224.9, 5599.9014, 0.0, 10.00024, 9.999397 
1.9501916e+2, 1.3440377e+2, -1630072.9, -1643739.8, -3243.548, -0.04437461, -0.0031203416, -1629342.1, -6502.2207, 0.0, 9.999993, 9.998179 
1.9501002e+2, 1.4440125e+2, -1538077.4, -1552160.4, 569.3242, -0.028423635, -0.05518825, -1538054.4, -13190.162, 0.0, 9.999739, 9.997864 
1.9500136e+2, 1.5439905e+2, -1443706.5, -1455578.6, 2274.1868, -0.021001097, -0.065245755, -1443285.8, -16400.816, 0.0, 9.999476, 9.997893 
1.9499281e+2, 1.6439618e+2, -1361154.9, -1385239.3, 3415.2683, -0.017137134, -0.054539014, -1360679.9, -31766.652, 0.0, 9.999299, 9.996096 
1.949845e+2, 1.743926e+2, -1264541.3, -1288537.6, 1439.1359, -0.017312717, -0.017777568, -1264455.3, -33505.637, 0.0, 9.999229, 9.996038 
1.9497609e+2, 1.8438855e+2, -1170949.5, -1195672.5, 667.06006, -0.016782247, -0.010281881, -1170931.5, -37941.793, 0.0, 9.999058, 9.995769 
1.9496761e+2, 1.9438405e+2, -1077052.5, -1099218.0, 3652.5945, -0.015468893, -0.041365594, -1076466.1, -41433.063, 0.0, 9.998756, 9.995805 
1.9495913e+2, 2.0437893e+2, -997409.25, -1029990.2, 4293.4727, -0.0076818382, -0.04789588, -996853.0, -59769.754, 0.0, 9.998362, 9.994032 
1.9495071e+2, 2.1437316e+2, -907266.25, -936425.25, 2850.2825, 0.008336212, -0.02387002, -906990.25, -67849.58, 0.0, 9.997849, 9.993973 
1.9494201e+2, 2.2436698e+2, -821650.94, -850819.5, 261.05, 0.015515368, -0.008856261, -821648.6, -80446.97, 0.0, 9.997276, 9.9934 
1.9493295e+2, 2.3436043e+2, -732926.0, -757035.2, -246.39842, 0.011434943, -0.006762636, -732923.5, -89657.49, 0.0, 9.996627, 9.99342 
1.9492404e+2, 2.4435331e+2, -648892.5, -676918.4, 1101.6465, 0.009037444, -0.011780481, -648849.25, -103513.55, 0.0, 9.996148, 9.992424 
1.9491532e+2, 2.543456e+2, -554634.5, -580720.06, 2068.894, 0.008811201, -0.026708255, -554471.44, -107060.44, 0.0, 9.995887, 9.99242 
1.9490695e+2, 2.6433736e+2, -464903.47, -497349.63, 5169.234, 0.0112468405, -0.04029586, -464099.84, -114609.07, 0.0, 9.995774, 9.991467 
1.9489893e+2, 2.7432874e+2, -365625.22, -398577.47, 5658.18, 0.017098596, -0.053574774, -364680.72, -113105.82, 0.0, 9.995849, 9.991475 
1.9489063e+2, 2.843194e+2, -280963.63, -326371.94, 2556.1729, 0.022949213, -0.05020432, -280820.2, -127153.75, 0.0, 9.995761, 9.989746 
1.948819e+2, 2.9430932e+2, -187428.23, -230848.78, -135.55986, 0.028734038, -0.026607553, -187427.81, -131662.0, 0.0, 9.995462, 9.989711 
1.9487303e+2, 3.0430263e+2, -96223.41, -83609.33, -2417.9363, 0.02687847, -0.012116025, -83161.73, -83161.73, 0.0, 9.994998, 9.996662 
1.9486386e+2, 3.1429937e+2, -105589.875, -87246.92, -3405.2078, 0.015358084, -0.0112369275, -86635.18, -86635.18, 0.0, 9.994318, 9.996741 
2.0502813e+2, 1.2441374e+2, -1740046.8, -1729910.8, -3265.3535, -0.038863737, -0.022287758, -1728950.0, -8207.973, 0.0, 9.998414, 9.999755 
2.0501871e+2, 1.3441248e+2, -1641479.5, -1644673.9, -2647.4983, -0.038664684, -0.011631728, -1639984.6, -17230.77, 0.0, 9.999018, 9.998592 
2.0500955e+2, 1.4441025e+2, -1541233.3, -1551330.1, 945.228, -0.034371857, -0.06632649, -1541145.5, -16370.287, 0.0, 9.999421, 9.998075 
2.0500079e+2, 1.5440835e+2, -1440869.4, -1451988.9, 1474.8914, -0.029391821, -0.06655871, -1440677.0, -13883.962, 0.0, 9.999573, 9.998091 
2.0499212e+2, 1.6440547e+2, -1359444.8, -1386388.6, 2762.4104, -0.025709929, -0.057962157, -1359164.5, -30343.15, 0.0, 9.9995, 9.995919 
2.0498362e+2, 1.7440152e+2, -1267160.5, -1292069.5, 3735.8967, -0.023269318, -0.038300198, -1266612.3, -35750.977, 0.0, 9.999149, 9.995836 
2.0497498e+2, 1.8439746e+2, -1173587.6, -1194918.8, 2289.33, -0.020913985, -0.030476503, -1173344.6, -40443.156, 0.0, 9.99879, 9.995949 
2.0496616e+2, 1.9439338e+2, -1080476.3, -1098576.6, 946.0088, -0.018762285, -0.03923574, -1080427.0, -45485.953, 0.0, 9.998424, 9.996011 
2.0495732e+2, 2.0438845e+2, -1001628.6, -1031572.5, 215.49742, -0.009644552, -0.039987948, -1001627.1, -64637.676, 0.0, 9.998054, 9.994073 
2.0494847e+2, 2.1438256e+2, -909528.6, -937190.06, 1961.2749, 0.008349499, -0.031220913, -909390.25, -70342.39, 0.0, 9.997681, 9.994001 
2.049394e+2, 2.2437626e+2, -817816.3, -850121.5, 2037.7078, 0.010590238, -0.023914091, -817688.3, -76578.45, 0.0, 9.997588, 9.993295 
2.0493e+2, 2.3436964e+2, -715791.25, -750006.94, 1539.543, -0.007240216, -0.019798733, -715722.1, -72547.05, 0.0, 9.997851, 9.993306 
2.0492078e+2, 2.4436255e+2, -622777.56, -662293.2, 2285.6262, -0.016643142, -0.02241733, -622645.75, -77401.39, 0.0, 9.997847, 9.9926 
2.0491177e+2, 2.5435504e+2, -529679.94, -566456.1, 2796.5928, -0.015246898, -0.034616943, -529468.5, -82150.88, 0.0, 9.997498, 9.992615 
2.049031e+2, 2.64347e+2, -449322.63, -490017.72, 4549.9443, -0.0040913294, -0.04294782, -448820.13, -99424.02, 0.0, 9.996847, 9.991449 
2.0489478e+2, 2.7433836e+2, -366398.72, -399322.38, 3845.5396, 0.01957289, -0.04757087, -365955.53, -114475.695, 0.0, 9.995811, 9.991443 
2.0488621e+2, 2.8432888e+2, -291899.72, -334672.53, 1998.8687, 0.03625186, -0.045700382, -291806.53, -138233.66, 0.0, 9.995142, 9.989476 
2.0487726e+2, 2.943184e+2, -196987.97, -238680.13, 1904.606, 0.04380318, -0.03684773, -196901.14, -141224.84, 0.0, 9.994946, 9.989424 
2.048681e+2, 3.0431142e+2, -96539.9, -85753.81, 1661.5377, 0.030120872, -0.028030865, -85503.664, -85503.664, 0.0, 9.995061, 9.996485 
2.0485854e+2, 3.1430808e+2, -88384.8, -80874.85, 777.94824, -0.0108386595, -0.020872368, -80795.12, -80795.12, 0.0, 9.995579, 9.996571 
2.1502678e+2, 1.2442165e+2, -1735801.4, -1720981.9, -1084.6803, -0.016121626, -0.04244715, -1720902.9, -239.58504, 0.0, 9.998405, 10.000364 
2.1501772e+2, 1.3442108e+2, -1636767.1, -1634785.8, -328.1586, -0.039499164, -0.030526062, -1634732.8, -12064.18, 0.0, 9.99901, 9.999267 
2.1500883e+2, 1.4441934e+2, -1540746.6, -1550132.3, 1650.8917, -0.049883083, -0.07472766, -1540464.6, -15779.432, 0.0, 9.9994135, 9.998159 
2.150002e+2, 1.5441774e+2, -1440618.4, -1451322.6, 2087.4067, -0.04706873, -0.04981834, -1440225.8, -13525.054, 0.0, 9.999568, 9.998137 
2.1499148e+2, 1.6441494e+2, -1358164.3, -1383647.9, 1591.8219, -0.03908151, -0.04480435, -1358065.3, -29337.104, 0.0, 9.999496, 9.996107 
2.1498278e+2, 1.7441079e+2, -1265805.8, -1289207.6, 2458.588, -0.024287036, -0.06484846, -1265550.3, -34780.94, 0.0, 9.999146, 9.996032 
2.1497384e+2, 1.8440664e+2, -1176022.1, -1199887.4, 953.9457, -0.013049262, -0.061906394, -1175984.1, -43173.504, 0.0, 9.998789, 9.99561 
2.149647e+2, 1.9440258e+2, -1083149.6, -1104049.1, -405.0814, -0.006387309, -0.031568438, -1083141.8, -48291.02, 0.0, 9.998423, 9.995638 
2.1495546e+2, 2.0439774e+2, -998708.25, -1025521.3, -1165.6737, -0.00044410847, -0.022039963, -998657.7, -61759.35, 0.0, 9.998054, 9.994485 
2.1494612e+2, 2.1439204e+2, -906250.56, -930411.2, 587.22345, 0.0046886643, -0.03960546, -906236.25, -67282.04, 0.0, 9.997681, 9.994463 
2.1493684e+2, 2.2438577e+2, -818381.1, -851348.94, 2949.2563, -0.0032603382, -0.05104833, -818119.4, -77103.766, 0.0, 9.997592, 9.993209 
2.1492764e+2, 2.343789e+2, -716522.44, -751724.4, 2592.117, -0.027807822, -0.055832002, -716332.6, -73249.88, 0.0, 9.997862, 9.993183 
2.1491842e+2, 2.4437192e+2, -621735.06, -660436.3, 1130.0427, -0.037715267, -0.049111594, -621702.1, -76550.664, 0.0, 9.99786, 9.99272 
2.1490915e+2, 2.5436488e+2, -528524.7, -564374.44, 1478.6526, -0.02896017, -0.028911952, -528463.8, -81242.87, 0.0, 9.997512, 9.992749 
2.1489991e+2, 2.64357e+2, -450391.63, -492438.56, 741.71954, -0.007549309, -0.019189706, -450378.53, -101080.27, 0.0, 9.996857, 9.991279 
2.148907e+2, 2.743482e+2, -367776.25, -402139.2, -154.60129, 0.029968236, -0.024155559, -367775.56, -116391.4, 0.0, 9.99581, 9.991249 
2.1488151e+2, 2.8433853e+2, -291689.5, -334070.0, 1014.3046, 0.05205689, -0.031501606, -291665.25, -138186.53, 0.0, 9.995135, 9.98952 
2.148723e+2, 2.943279e+2, -196636.4, -237820.23, 1159.7781, 0.054246657, -0.043256957, -196603.77, -141021.02, 0.0, 9.994941, 9.989484 
2.148632e+2, 3.0432075e+2, -97522.58, -87864.7, 3504.585, 0.03273753, -0.04910925, -86727.01, -86727.01, 0.0, 9.995066, 9.996337 
2.1485405e+2, 3.1431714e+2, -89233.41, -83117.27, 2802.5186, -0.019204682, -0.048789814, -82027.34, -82027.34, 0.0, 9.995601, 9.996406 
2.2502574e+2, 1.24430746e+2, -1716306.9, -1713910.6, 9285.431, -0.030826105, -0.07744503, -1705746.4, 14826.207, 0.0, 9.999834, 10.000147 
2.2501689e+2, 1.3443016e+2, -1630609.0, -1633812.0, 3692.4602, -0.047604047, -0.047881886, -1628185.8, -5607.379, 0.0, 9.999515, 9.999086 
2.2500806e+2, 1.4442848e+2, -1544065.1, -1551430.4, 1167.8529, -0.053951178, -0.07922681, -1543884.4, -19289.475, 0.0, 9.999174, 9.998188 
2.2499937e+2, 1.5442704e+2, -1451563.3, -1456203.4, 1464.9861, -0.047892887, -0.044144467, -1451139.4, -24529.934, 0.0, 9.998804, 9.998178 
2.2499049e+2, 1.6442434e+2, -1371100.1, -1387682.6, 416.13943, -0.038207874, -0.03922818, -1371089.6, -42453.79, 0.0, 9.998519, 9.996308 
2.2498152e+2, 1.7442027e+2, -1276146.9, -1291870.5, 1351.5377, -0.023628138, -0.07228513, -1276031.6, -45355.77, 0.0, 9.99834, 9.996243 
2.2497232e+2, 1.8441609e+2, -1185665.6, -1206263.0, 733.2188, -0.01402958, -0.07444207, -1185639.6, -52922.523, 0.0, 9.998205, 9.99546 
2.2496293e+2, 1.944119e+2, -1088751.6, -1108730.8, 876.5987, -0.010782613, -0.039098874, -1088713.3, -53954.53, 0.0, 9.998126, 9.995462 
2.249534e+2, 2.0440714e+2, -998085.3, -1022570.56, 1.2841328, -0.008284178, -0.025973283, -998085.3, -61279.36, 0.0, 9.997981, 9.99472 
2.2494373e+2, 2.144017e+2, -903287.5, -926037.6, 221.9607, -0.00668989, -0.041917413, -903285.3, -64426.31, 0.0, 9.997756, 9.994724 
2.2493427e+2, 2.2439563e+2, -820376.56, -850360.1, 3232.0127, -0.009064164, -0.056384258, -820032.1, -79113.75, 0.0, 9.997372, 9.993383 
2.249251e+2, 2.3438886e+2, -731075.0, -756893.1, 5112.7935, -0.016517019, -0.06991668, -730099.4, -87114.87, 0.0, 9.996787, 9.99335 
2.2491574e+2, 2.4438183e+2, -645945.0, -674865.94, 2900.6956, -0.015858522, -0.062256046, -645656.94, -100603.47, 0.0, 9.996323, 9.992477 
2.2490616e+2, 2.5437465e+2, -552384.7, -578928.9, 145.98967, -0.004831003, -0.028856305, -552383.9, -105259.12, 0.0, 9.996011, 9.99248 
2.2489648e+2, 2.643667e+2, -464979.56, -499835.94, -2271.1465, 0.0097221555, -0.011927098, -464832.2, -115629.01, 0.0, 9.995873, 9.991248 
2.2488657e+2, 2.743579e+2, -365717.63, -401321.22, -1858.2379, 0.028831987, -0.017391719, -365620.9, -114331.49, 0.0, 9.995957, 9.991234 
2.2487693e+2, 2.8434825e+2, -278749.0, -325962.28, 1599.0605, 0.03958125, -0.029184466, -278694.9, -125311.35, 0.0, 9.99594, 9.989686 
2.2486751e+2, 2.9433772e+2, -182919.58, -229207.5, 2717.5532, 0.039450306, -0.050402675, -182760.58, -127274.26, 0.0, 9.995793, 9.989662 
2.2485831e+2, 3.0433065e+2, -92882.555, -83715.32, 6605.156, 0.026893698, -0.060929824, -80259.19, -80259.19, 0.0, 9.9953, 9.996509 
2.2484921e+2, 3.1432724e+2, -106070.58, -89346.57, 8448.382, -0.001589799, -0.05911605, -85821.68, -85821.68, 0.0, 9.994365, 9.9965725 
2.3502505e+2, 1.24441005e+2, -1724022.3, -1729327.6, 8061.06, -0.08265428, -0.12715289, -1718188.6, 2281.3457, 0.0, 9.999818, 9.999107 
2.3501627e+2, 1.3443972e+2, -1638215.0, -1649105.5, 2509.0815, -0.06291188, -0.063676685, -1637664.8, -15181.414, 0.0, 9.999502, 9.998054 
2.3500732e+2, 1.4443764e+2, -1544414.1, -1551899.9, -183.19356, -0.04660221, -0.079802796, -1544409.6, -19905.139, 0.0, 9.999165, 9.99816 
2.3499833e+2, 1.5443616e+2, -1451460.0, -1455806.5, 102.06622, -0.03186125, -0.049533784, -1451457.6, -24937.895, 0.0, 9.998796, 9.998208 
2.3498917e+2, 1.6443363e+2, -1369666.0, -1384591.0, -254.93216, -0.023097, -0.04119081, -1369661.8, -41116.86, 0.0, 9.998513, 9.99652 
2.3497987e+2, 1.7442992e+2, -1274609.9, -1288593.6, 726.2469, -0.021375904, -0.0603895, -1274572.3, -43991.21, 0.0, 9.998336, 9.996467 
2.3497044e+2, 1.8442583e+2, -1185436.1, -1205719.9, 462.9377, -0.024025498, -0.06792759, -1185425.5, -52804.266, 0.0, 9.998203, 9.995497 
2.3496084e+2, 1.9442137e+2, -1088593.1, -1108372.5, 634.66833, -0.032206256, -0.062138062, -1088572.8, -53907.42, 0.0, 9.998125, 9.995485 
2.3495114e+2, 2.044166e+2, -997699.25, -1021772.94, -764.6892, -0.033439983, -0.05213696, -997675.0, -60962.406, 0.0, 9.997982, 9.994774 
2.3494129e+2, 2.1441153e+2, -902873.9, -925205.5, -587.5592, -0.025926884, -0.03794102, -902858.44, -64095.863, 0.0, 9.997758, 9.99478 
2.3493168e+2, 2.2440583e+2, -817262.3, -843895.06, 1114.6031, -0.0065531163, -0.039329514, -817215.75, -76397.29, 0.0, 9.997371, 9.993823 
2.3492232e+2, 2.3439941e+2, -727899.6, -750138.7, 2917.1316, 0.027573833, -0.061386608, -727523.4, -84642.73, 0.0, 9.996779, 9.9938135 
2.3491272e+2, 2.4439229e+2, -650515.8, -684010.4, 1677.7859, 0.05021082, -0.0614426, -650432.0, -105481.29, 0.0, 9.99631, 9.9918585 
2.3490278e+2, 2.5438434e+2, -557465.25, -589104.0, -1050.5447, 0.058413524, -0.034722563, -557430.4, -110400.85, 0.0, 9.995997, 9.991792 
2.3489271e+2, 2.6437604e+2, -464311.38, -498220.53, -2036.9423, 0.048430644, -0.02186238, -464189.44, -115077.96, 0.0, 9.995865, 9.991362 
2.348824e+2, 2.7436736e+2, -364500.4, -398848.94, -1524.4979, 0.015530983, -0.028091596, -364432.88, -113236.766, 0.0, 9.995961, 9.991401 
2.3487245e+2, 2.8435796e+2, -276537.13, -321613.97, 1075.9391, -0.002601041, -0.03933277, -276511.47, -123223.55, 0.0, 9.995952, 9.989978 
2.3486291e+2, 2.9434773e+2, -180630.86, -224742.38, 2140.932, -0.0019283112, -0.05826174, -180527.19, -125139.75, 0.0, 9.995807, 9.989961 
2.3485348e+2, 3.0434117e+2, -89257.15, -76301.63, 3178.2944, 0.0121358875, -0.062945865, -75563.93, -75563.93, 0.0, 9.995306, 9.997013 
2.3484403e+2, 3.1433836e+2, -102646.17, -81881.164, 4855.2236, 0.04339202, -0.050838247, -80802.01, -80802.01, 0.0, 9.99435, 9.99709 
2.4502495e+2, 1.2445164e+2, -1725094.8, -1733692.4, 4482.984, -0.07932437, -0.111071266, -1723182.5, -2816.98, 0.0, 9.999909, 9.998767 
2.4501577e+2, 1.3444978e+2, -1641288.1, -1654065.1, 4346.1035, -0.05694448, -0.07420973, -1639950.0, -17565.895, 0.0, 9.999442, 9.9977455 
2.4500646e+2, 1.4444734e+2, -1547411.5, -1555981.4, 4067.5208, -0.043560117, -0.09962816, -1545788.3, -21379.486, 0.0, 9.999073, 9.997926 
2.449971e+2, 1.5444575e+2, -1452684.6, -1458986.1, 2402.0085, -0.035932492, -0.056604195, -1451873.4, -25448.004, 0.0, 9.998824, 9.997977 
2.4498764e+2, 1.6444324e+2, -1366871.0, -1381500.3, 1333.4215, -0.032637134, -0.041441232, -1366750.4, -38299.96, 0.0, 9.998629, 9.996674 
2.4497816e+2, 1.744397e+2, -1270969.6, -1284834.1, 1967.5851, -0.034393065, -0.061010454, -1270695.9, -40210.99, 0.0, 9.998497, 9.996644 
2.4496855e+2, 1.8443576e+2, -1182924.1, -1202785.0, 1834.0146, -0.03701909, -0.07006408, -1182756.3, -50232.664, 0.0, 9.9983, 9.995649 
2.4495883e+2, 1.9443142e+2, -1089074.6, -1106917.3, 2946.544, -0.040818818, -0.06744311, -1088600.6, -54034.09, 0.0, 9.998019, 9.995636 
2.4494894e+2, 2.0442666e+2, -1001888.44, -1025130.2, 1232.4739, -0.038667846, -0.057994414, -1001823.25, -65209.656, 0.0, 9.997753, 9.994655 
2.449389e+2, 2.144215e+2, -907506.25, -928961.2, -44.892395, -0.029011516, -0.040840223, -907506.2, -68841.375, 0.0, 9.997507, 9.994645 
2.4492891e+2, 2.2441588e+2, -819510.44, -842763.5, -1189.6755, -0.0073428946, -0.03564431, -819449.75, -78729.766, 0.0, 9.997121, 9.994021 
2.44919e+2, 2.3440981e+2, -729557.2, -748493.06, -1329.3662, 0.029349074, -0.046766747, -729464.3, -86685.3, 0.0, 9.99656, 9.994033 
2.4490905e+2, 2.4440269e+2, -651199.7, -685487.0, 57.783855, 0.05135914, -0.051295742, -651199.56, -106350.88, 0.0, 9.996313, 9.991757 
2.4489897e+2, 2.5439438e+2, -551553.94, -587623.44, 1759.4866, 0.054794036, -0.048357222, -551468.3, -104537.74, 0.0, 9.99646, 9.991668 
2.4488889e+2, 2.6438597e+2, -452193.63, -491680.97, 3835.0784, 0.040246822, -0.044101994, -451824.63, -102811.09, 0.0, 9.996663, 9.991422 
2.4487871e+2, 2.7437747e+2, -349718.06, -390901.5, 3693.5015, 0.003017485, -0.03974073, -349389.44, -98292.836, 0.0, 9.996938, 9.991471 
2.448687e+2, 2.8436822e+2, -263722.2, -313932.44, 3119.2954, -0.013949283, -0.04403579, -263529.16, -110342.23, 0.0, 9.996763, 9.99011 
2.448588e+2, 2.943582e+2, -176513.98, -221215.2, 2801.9937, -0.0050151525, -0.060678996, -176339.03, -121053.97, 0.0, 9.996021, 9.990098 
2.4484874e+2, 3.0435172e+2, -91145.38, -77310.31, -507.26843, 0.01616499, -0.05784382, -77291.74, -77291.74, 0.0, 9.995178, 9.997005 
2.4483839e+2, 3.1434906e+2, -104763.22, -83113.38, -3073.673, 0.05319282, -0.031607065, -82685.46, -82685.46, 0.0, 9.994211, 9.997074 
2.5502545e+2, 1.2446266e+2, -1722917.3, -1728757.1, 2688.504, -0.021554876, -0.029981626, -1721868.0, -1608.7009, 0.0, 9.99989, 9.99911 
2.550155e+2, 1.3446034e+2, -1638585.5, -1648166.4, 2590.3784, -0.029971898, -0.07966562, -1637929.9, -15649.12, 0.0, 9.999428, 9.998152 
2.550055e+2, 1.4445756e+2, -1550759.3, -1562582.1, 3105.708, -0.04492956, -0.13865493, -1549993.0, -25685.04, 0.0, 9.999063, 9.997482 
2.5499567e+2, 1.544558e+2, -1456333.6, -1466275.9, 1493.0457, -0.060201596, -0.06533917, -1456114.3, -29787.625, 0.0, 9.9988165, 9.997484 
2.5498593e+2, 1.6445315e+2, -1366282.6, -1380153.3, 861.8518, -0.06693053, -0.039989013, -1366229.3, -37876.3, 0.0, 9.998624, 9.996767 
2.549764e+2, 1.744496e+2, -1270112.1, -1282987.0, 1528.2714, -0.06281362, -0.074265294, -1269933.1, -39545.617, 0.0, 9.998495, 9.99677 
2.5496668e+2, 1.8444587e+2, -1181024.5, -1198840.4, 857.93964, -0.053072084, -0.08087562, -1180983.3, -48559.07, 0.0, 9.9983, 9.995917 
2.549569e+2, 1.9444206e+2, -1087108.4, -1102841.4, 1944.4574, -0.03651488, -0.054637056, -1086871.6, -52409.41, 0.0, 9.998019, 9.995913 
2.5494686e+2, 2.0443733e+2, -1004000.2, -1029460.25, 351.98727, -0.023781843, -0.043181196, -1003995.4, -67486.13, 0.0, 9.997754, 9.994359 
2.5493655e+2, 2.1443157e+2, -909864.7, -933804.0, -927.3166, -0.01574286, -0.050838213, -909828.8, -71262.76, 0.0, 9.997507, 9.994313 
2.5492597e+2, 2.2442575e+2, -819908.94, -843551.56, -3209.0825, -0.011757643, -0.045647018, -819481.06, -78857.7, 0.0, 9.99712, 9.993967 
2.5491512e+2, 2.3441996e+2, -729840.3, -749039.75, -3443.7, -0.012742914, -0.025820479, -729241.3, -86561.055, 0.0, 9.996559, 9.993995 
2.549047e+2, 2.44413e+2, -648109.4, -679111.4, 478.5433, -0.0148665095, -0.031528514, -648102.0, -103354.0, 0.0, 9.996315, 9.99219 
2.548947e+2, 2.5440478e+2, -548192.56, -580784.9, 2363.996, -0.018462539, -0.070115544, -548022.0, -101193.78, 0.0, 9.996467, 9.992131 
2.54885e+2, 2.6439646e+2, -452042.97, -491582.25, 4887.002, -0.016820488, -0.07913205, -451447.9, -102538.32, 0.0, 9.996675, 9.991423 
2.5487554e+2, 2.7438816e+2, -349743.0, -391232.53, 4757.699, -0.008665394, -0.052302152, -349204.44, -98213.26, 0.0, 9.996951, 9.991442 
2.5486568e+2, 2.8437904e+2, -263806.44, -314346.06, 513.47424, 0.0070101656, -0.042987727, -263801.22, -110720.26, 0.0, 9.996775, 9.990076 
2.548552e+2, 2.9436892e+2, -176697.28, -221681.53, -63.35845, 0.032314297, -0.05739256, -176697.19, -121517.47, 0.0, 9.996026, 9.990063 
2.5484416e+2, 3.043623e+2, -95055.266, -85425.22, -4185.002, 0.039863676, -0.04523035, -83860.69, -83860.69, 0.0, 9.995179, 9.996447 
2.5483233e+2, 3.1435922e+2, -108914.91, -91755.78, -6878.0366, 0.02498262, -0.00063861726, -89339.15, -89339.15, 0.0, 9.994214, 9.996479 
2.6502517e+2, 1.2447225e+2, -1726873.3, -1722828.5, -3927.6777, -0.0036253047, -0.014104023, -1720433.1, -267.09344, 0.0, 9.999279, 9.999813 
2.6501492e+2, 1.3447064e+2, -1634590.8, -1637509.9, -1213.4967, -0.023593312, -0.07054009, -1634152.3, -11972.232, 0.0, 9.99932, 9.99893 
2.6500466e+2, 1.4446813e+2, -1549105.4, -1563741.8, 1692.9117, -0.045485135, -0.13581593, -1548912.1, -24707.871, 0.0, 9.999259, 9.997308 
2.6499462e+2, 1.5446608e+2, -1454248.4, -1467838.3, 2039.5503, -0.060051043, -0.06774381, -1453948.9, -27723.17, 0.0, 9.999068, 9.997255 
2.6498458e+2, 1.6446345e+2, -1364017.5, -1376172.4, 2324.5608, -0.06467107, -0.044550598, -1363588.1, -35335.95, 0.0, 9.9986515, 9.997024 
2.6497468e+2, 1.7446017e+2, -1275995.6, -1282673.4, 4111.6235, -0.0567036, -0.077228606, -1274037.9, -43754.027, 0.0, 9.997956, 9.997052 
2.6496464e+2, 1.8445659e+2, -1195124.4, -1206979.8, 2948.6816, -0.044602517, -0.07944097, -1194431.5, -62112.297, 0.0, 9.997395, 9.995802 
2.649545e+2, 1.9445272e+2, -1103055.0, -1112119.8, 902.4263, -0.027510703, -0.04533129, -1102966.0, -68607.93, 0.0, 9.996999, 9.995776 
2.649442e+2, 2.0444797e+2, -1017334.7, -1034063.5, 0.84073514, -0.016600516, -0.03593996, -1017334.7, -80929.59, 0.0, 9.996763, 9.994525 
2.6493368e+2, 2.1444224e+2, -920001.3, -936668.5, 2652.555, -0.01335021, -0.058000684, -919589.4, -81127.99, 0.0, 9.996726, 9.994495 
2.6492298e+2, 2.2443639e+2, -823422.2, -847727.56, 2445.807, -0.017740138, -0.0555932, -823178.56, -82659.49, 0.0, 9.996986, 9.993746 
2.64912e+2, 2.3443046e+2, -716110.9, -745132.44, 676.8307, -0.03160007, -0.02404896, -716095.06, -73517.58, 0.0, 9.997615, 9.99375 
2.6490155e+2, 2.444236e+2, -622561.3, -662656.56, 3377.3809, -0.03748844, -0.026917642, -622278.8, -77634.305, 0.0, 9.997884, 9.992555 
2.6489162e+2, 2.5441566e+2, -527227.9, -566137.3, 4789.341, -0.033448055, -0.07386463, -526647.0, -79925.875, 0.0, 9.997705, 9.992533 
2.6488188e+2, 2.6440743e+2, -446304.9, -490707.0, 5187.5513, -0.019318368, -0.08495188, -445706.9, -96905.66, 0.0, 9.997148, 9.991254 
2.6487225e+2, 2.74399e+2, -363341.13, -400103.28, 3644.728, 0.0075172065, -0.052211843, -362983.28, -112098.766, 0.0, 9.996119, 9.991237 
2.6486203e+2, 2.8438982e+2, -283011.63, -323534.97, -1554.1211, 0.03142279, -0.03820944, -282952.1, -129977.055, 0.0, 9.995455, 9.990084 
2.64851e+2, 2.943798e+2, -187782.2, -226790.58, -1723.4135, 0.051628504, -0.049459986, -187706.22, -132632.84, 0.0, 9.9952545, 9.990086 
2.6483947e+2, 3.0437294e+2, -95870.836, -91236.914, -4536.752, 0.04542816, -0.04120304, -88459.72, -88459.72, 0.0, 9.995354, 9.995965 
2.6482716e+2, 3.143692e+2, -88850.33, -87884.95, -6582.296, 0.0058021694, -0.0095236115, -81767.67, -81767.67, 0.0, 9.995835, 9.995963 
2.7502427e+2, 1.24480456e+2, -1719542.9, -1707427.5, -3845.8218, -0.025180819, -0.062173035, -1706309.9, 13775.636, 0.0, 9.999266, 10.000864 
2.750141e+2, 1.3448071e+2, -1626614.6, -1620789.5, -1042.5026, -0.037661854, -0.046651524, -1620608.5, 1473.1296, 0.0, 9.999307, 10.000071 
2.7500394e+2, 1.4447904e+2, -1548643.3, -1562491.4, 1040.7909, -0.04520232, -0.091262996, -1548565.5, -24467.72, 0.0, 9.999248, 9.997397 
2.7499393e+2, 1.5447661e+2, -1454160.4, -1467434.6, 1345.2874, -0.035459757, -0.06386616, -1454025.5, -27902.834, 0.0, 9.999061, 9.997286 
2.7498364e+2, 1.6447404e+2, -1361130.9, -1370066.5, -165.36504, -0.025769634, -0.055085924, -1361127.8, -32979.39, 0.0, 9.998646, 9.99744 
2.7497303e+2, 1.744714e+2, -1272950.1, -1276256.8, 1536.6895, -0.015796166, -0.06975993, -1272346.3, -42172.11, 0.0, 9.997951, 9.99749 
2.7496234e+2, 1.8446787e+2, -1198818.8, -1214458.6, 1451.5123, -0.0113679, -0.06564207, -1198685.1, -66476.09, 0.0, 9.99739, 9.995294 
2.7495164e+2, 1.9446334e+2, -1107123.8, -1120377.4, -545.5708, -0.013832204, -0.03961311, -1107101.4, -72847.125, 0.0, 9.996994, 9.995214 
2.7494094e+2, 2.0445853e+2, -1012853.2, -1024705.5, -152.86725, -0.017370503, -0.0363602, -1012851.2, -76549.51, 0.0, 9.99676, 9.995164 
2.749303e+2, 2.1445349e+2, -915024.94, -926305.7, 2594.495, -0.022185149, -0.062192272, -914456.8, -76105.945, 0.0, 9.996724, 9.995202 
2.749199e+2, 2.2444777e+2, -826219.06, -853517.94, 4801.413, -0.025308598, -0.06551967, -825399.2, -84992.06, 0.0, 9.99699, 9.993348 
2.749097e+2, 2.344413e+2, -719218.25, -751792.06, 3153.7202, -0.026409907, -0.04217157, -718915.75, -76444.58, 0.0, 9.997627, 9.993288 
2.748997e+2, 2.4443439e+2, -620264.56, -658262.4, 2911.553, -0.014890449, -0.037929554, -620042.75, -75504.06, 0.0, 9.9979, 9.992846 
2.7488983e+2, 2.5442708e+2, -524651.44, -561108.4, 4129.2393, 0.012332562, -0.058717888, -524189.63, -77579.9, 0.0, 9.99772, 9.992868 
2.7487957e+2, 2.6441896e+2, -448709.97, -495793.66, 1416.4606, 0.035215747, -0.0602711, -448667.4, -99978.45, 0.0, 9.997153, 9.990902 
2.7486882e+2, 2.7441e+2, -366267.0, -405912.7, -346.41705, 0.052747797, -0.03894632, -366263.97, -115486.69, 0.0, 9.996109, 9.990844 
2.7485776e+2, 2.844006e+2, -282888.66, -322888.25, -2536.733, 0.059178453, -0.029492486, -282728.44, -129858.484, 0.0, 9.99544, 9.990135 
2.748463e+2, 2.9439068e+2, -187358.23, -225692.2, -2507.914, 0.05164829, -0.036545537, -187194.84, -132228.11, 0.0, 9.995247, 9.990163 
2.7483472e+2, 3.0438346e+2, -98621.125, -97111.69, -2846.3657, 0.031628814, -0.04645952, -94921.68, -94921.68, 0.0, 9.995364, 9.995557 
2.7482295e+2, 3.1437886e+2, -91419.086, -94026.56, -4725.3037, -0.0040658363, -0.061208114, -87820.97, -87820.97, 0.0, 9.995873, 9.995523 
2.8502437e+2, 1.2449107e+2, -1691321.0, -1698014.5, 11937.658, -0.042635787, -0.10947988, -1682269.8, 37710.527, 0.0, 10.001368, 10.000475 
2.8501382e+2, 1.344915e+2, -1617253.8, -1620075.1, 3607.8257, -0.036999907, -0.042545628, -1614790.6, 7185.185, 0.0, 10.000107, 9.999728 
2.8500322e+2, 1.4448991e+2, -1549658.1, -1560756.6, 711.3979, -0.03346404, -0.070790604, -1549612.8, -25621.205, 0.0, 9.99908, 9.997597 
2.8499278e+2, 1.5448746e+2, -1463186.8, -1469264.5, 2492.8547, -0.01872529, -0.06930421, -1462295.1, -36278.79, 0.0, 9.998334, 9.997515 
2.8498203e+2, 1.6448504e+2, -1371537.0, -1373506.6, 942.836, -0.010533762, -0.06397558, -1371158.4, -43117.85, 0.0, 9.997866, 9.997585 
2.849709e+2, 1.7448276e+2, -1275156.9, -1275768.0, 361.20706, -0.00999763, -0.05444351, -1274989.4, -44926.305, 0.0, 9.997731, 9.99763 
2.8495985e+2, 1.8447934e+2, -1195306.6, -1212394.6, 1620.2388, -0.01191951, -0.049307268, -1195154.4, -63057.313, 0.0, 9.997612, 9.995326 
2.8494886e+2, 1.9447456e+2, -1099337.4, -1116311.0, 4083.3848, -0.016984068, -0.050660633, -1098406.1, -64261.91, 0.0, 9.997511, 9.995239 
2.8493798e+2, 2.0446977e+2, -1002190.2, -1018675.8, 5569.89, -0.021149337, -0.05130475, -1000484.75, -64293.3, 0.0, 9.997449, 9.995239 
2.8492737e+2, 2.1446505e+2, -904040.3, -920083.8, 3590.2634, -0.024186108, -0.05226, -903273.56, -65035.832, 0.0, 9.997434, 9.995282 
2.8491697e+2, 2.2445941e+2, -824897.2, -853158.56, 4550.0444, -0.02038131, -0.050724164, -824182.7, -83889.44, 0.0, 9.997091, 9.993324 
2.849069e+2, 2.3445271e+2, -738180.1, -761326.4, 6165.9634, -0.008155711, -0.04713788, -736640.06, -94280.664, 0.0, 9.996347, 9.993257 
2.848968e+2, 2.4444577e+2, -652365.8, -673951.94, 5506.0225, 0.013148826, -0.04406689, -651042.5, -106615.13, 0.0, 9.995713, 9.992831 
2.8488663e+2, 2.5443864e+2, -561365.0, -578999.06, 4017.0083, 0.04574111, -0.042952564, -560493.06, -113996.42, 0.0, 9.995214, 9.992857 
2.8487608e+2, 2.6443052e+2, -477005.9, -510642.56, 1427.0623, 0.062218398, -0.042872924, -476945.47, -128369.234, 0.0, 9.995267, 9.990799 
2.8486493e+2, 2.7442124e+2, -368558.94, -408250.0, 1874.632, 0.058702387, -0.045274973, -368470.6, -117803.09, 0.0, 9.996004, 9.990734 
2.8485364e+2, 2.844116e+2, -267689.66, -316570.56, 1008.0651, 0.04916161, -0.041647878, -267668.88, -114907.36, 0.0, 9.996522, 9.990044 
2.8484207e+2, 2.944018e+2, -165671.45, -216240.0, -202.11856, 0.03202226, -0.0320367, -165670.64, -110813.07, 0.0, 9.996775, 9.990073 
2.8483048e+2, 3.0439457e+2, -80639.19, -86358.39, 144.43822, 0.017126627, -0.047546312, -80635.54, -80635.54, 0.0, 9.996506, 9.995744 
2.8481874e+2, 3.143898e+2, -94124.586, -93051.98, 3159.0583, 0.0050572855, -0.095956646, -90384.02, -90384.02, 0.0, 9.995588, 9.995726 
2.9502565e+2, 1.24504104e+2, -1704799.9, -1724995.5, 7169.177, -0.05605515, -0.15599021, -1702513.8, 17337.13, 0.0, 10.001339, 9.998654 
2.9501408e+2, 1.34503e+2, -1630613.4, -1647023.5, -1171.1465, -0.021762138, -0.05808532, -1630530.1, -8667.573, 0.0, 10.000087, 9.997906 
2.950025e+2, 1.4450073e+2, -1547660.4, -1556296.9, -2188.9753, -0.010413622, -0.074239336, -1547137.3, -23251.627, 0.0, 9.999065, 9.997906 
2.9499123e+2, 1.5449858e+2, -1460331.5, -1463110.6, -306.8361, -0.00993403, -0.08404846, -1460298.0, -34391.02, 0.0, 9.9983225, 9.997937 
2.9497984e+2, 1.6449639e+2, -1372622.8, -1375530.6, 357.5953, -0.019160572, -0.071181744, -1372579.4, -44650.35, 0.0, 9.997859, 9.99745 
2.9496837e+2, 1.7449427e+2, -1276417.9, -1278223.1, -96.50583, -0.039795652, -0.031104894, -1276412.6, -46461.813, 0.0, 9.997726, 9.997464 
2.949571e+2, 1.8449098e+2, -1191184.3, -1203874.1, 1300.7529, -0.04684471, -0.030399878, -1191052.3, -59068.83, 0.0, 9.997613, 9.995905 
2.9494616e+2, 1.9448636e+2, -1094874.0, -1107165.1, 3790.3838, -0.0374758, -0.07889846, -1093799.1, -59770.813, 0.0, 9.997516, 9.995859 
2.949354e+2, 2.0448165e+2, -1005707.3, -1026039.9, 5591.763, -0.028272672, -0.08105434, -1004270.94, -68196.2, 0.0, 9.997456, 9.994733 
2.9492486e+2, 2.144769e+2, -907964.4, -928331.94, 3599.1208, -0.019324038, -0.027673744, -907347.06, -69224.89, 0.0, 9.997442, 9.994715 
2.9491425e+2, 2.2447129e+2, -822316.94, -847863.9, 1884.8141, -0.0026483561, -0.010359261, -822178.7, -82000.86, 0.0, 9.997094, 9.993683 
2.9490355e+2, 2.3446468e+2, -735427.4, -755369.9, 3368.9146, 0.023554396, -0.038479637, -734873.6, -92631.1, 0.0, 9.996337, 9.993667 
2.9489282e+2, 2.4445769e+2, -655061.25, -679013.94, 3607.5186, 0.0466473, -0.045130778, -654529.75, -110218.92, 0.0, 9.995692, 9.992495 
2.9488203e+2, 2.5445035e+2, -564451.44, -584726.0, 2125.9458, 0.065968275, -0.026502898, -564230.9, -117848.43, 0.0, 9.995188, 9.992477 
2.948713e+2, 2.6444203e+2, -476218.16, -508498.2, 4020.2996, 0.060050506, -0.0331005, -475724.97, -127261.25, 0.0, 9.995248, 9.990953 
2.9486057e+2, 2.7443257e+2, -367213.38, -405473.22, 4752.6094, 0.02289377, -0.07227293, -366631.84, -116076.01, 0.0, 9.996007, 9.990921 
2.9484966e+2, 2.8442287e+2, -269142.28, -320007.56, 2088.6914, -0.0010639892, -0.075846516, -269056.66, -116406.3, 0.0, 9.996543, 9.989799 
2.9483846e+2, 2.944131e+2, -167175.72, -220001.36, 747.6645, -0.008509865, -0.03646325, -167165.14, -112418.56, 0.0, 9.996804, 9.9898 
2.9482687e+2, 3.0440617e+2, -74518.586, -74191.45, -3167.4702, 0.0017770493, -0.044135757, -71183.33, -71183.33, 0.0, 9.99653, 9.996565 
2.9481465e+2, 3.144021e+2, -87844.445, -80035.25, -328.94373, 0.034172103, -0.11239114, -80021.42, -80021.42, 0.0, 9.99559, 9.996615 
3.0502644e+2, 1.2451699e+2, -1728075.6, -1741182.0, -2955.8225, -0.03992066, -0.119564585, -1727439.9, -7714.5327, 0.0, 9.999966, 9.998228 
3.0501404e+2, 1.345152e+2, -1639387.3, -1655629.4, -528.4944, -0.0132458145, -0.053875387, -1639370.1, -17626.285, 0.0, 9.999676, 9.997521 
3.0500177e+2, 1.4451261e+2, -1540900.3, -1551797.9, 4615.9087, -0.009448449, -0.086026095, -1539207.9, -15438.334, 0.0, 9.999471, 9.998013 
3.0499002e+2, 1.5451059e+2, -1444118.4, -1453730.9, 4339.3003, -0.014367029, -0.0953177, -1442449.4, -16660.318, 0.0, 9.999358, 9.99807 
3.049783e+2, 1.6450836e+2, -1353985.8, -1369849.3, 4434.1255, -0.02566792, -0.07872085, -1352830.5, -25019.08, 0.0, 9.999271, 9.9971485 
3.0496678e+2, 1.7450598e+2, -1256857.4, -1272347.4, 2799.653, -0.044413414, -0.031072378, -1256366.9, -26530.771, 0.0, 9.999214, 9.997141 
3.0495536e+2, 1.8450281e+2, -1168604.4, -1187429.6, 2311.8872, -0.04918682, -0.025451154, -1168324.6, -36456.773, 0.0, 9.998912, 9.996393 
3.0494407e+2, 1.9449873e+2, -1079355.4, -1093667.8, 4062.363, -0.037020147, -0.072354056, -1078282.8, -44375.65, 0.0, 9.998313, 9.996391 
3.04933e+2, 2.0449412e+2, -1004399.8, -1029082.3, 6245.2344, -0.023022661, -0.07596067, -1002909.6, -66957.21, 0.0, 9.997703, 9.994406 
3.0492225e+2, 2.1448897e+2, -915969.6, -936395.8, 5719.2983, -0.0068805255, -0.027509212, -914477.25, -76473.15, 0.0, 9.997076, 9.994342 
3.0491135e+2, 2.2448322e+2, -824763.3, -847141.44, 4296.7764, 0.009288389, -0.010759241, -823966.7, -83905.75, 0.0, 9.996843, 9.993853 
3.0490026e+2, 2.3447685e+2, -722951.44, -747086.3, 4184.697, 0.025573231, -0.034402724, -722246.5, -80123.32, 0.0, 9.99709, 9.993867 
3.0488926e+2, 2.444699e+2, -630997.44, -669903.44, 4870.81, 0.034415033, -0.0402737, -630396.9, -86205.5, 0.0, 9.997444, 9.9922695 
3.0487823e+2, 2.5446227e+2, -526103.44, -568978.6, 4429.639, 0.03414641, -0.025217595, -525650.56, -79384.62, 0.0, 9.997929, 9.992228 
3.048675e+2, 2.644539e+2, -434938.25, -486025.34, 7618.834, 0.022591745, -0.03446989, -433826.22, -85478.58, 0.0, 9.997961, 9.9911785 
3.0485702e+2, 2.7444467e+2, -344437.1, -391636.75, 8888.605, -0.0030529506, -0.0752459, -342818.7, -92381.62, 0.0, 9.997442, 9.991175 
3.0484626e+2, 2.8443497e+2, -266366.1, -321310.06, 5318.966, -0.012229538, -0.081277646, -265855.9, -113324.43, 0.0, 9.996845, 9.989563 
3.0483502e+2, 2.944249e+2, -178462.86, -228407.5, 3983.7346, -0.0007870027, -0.045317605, -178147.1, -123516.31, 0.0, 9.996157, 9.989537 
3.048231e+2, 3.0441803e+2, -86417.95, -76639.45, -3593.2195, 0.020177562, -0.046668384, -75461.086, -75461.086, 0.0, 9.995568, 9.9968605 
3.0481014e+2, 3.144145e+2, -92439.97, -78567.75, -5174.484, 0.053092424, -0.09661015, -76850.25, -76850.25, 0.0, 9.995113, 9.996947 
3.1502685e+2, 1.2452975e+2, -1721709.4, -1727465.9, -4214.127, 0.0050845454, -0.0011298585, -1719484.4, 118.938576, 0.0000000000000806617, 9.99994, 9.99917 
3.1501374e+2, 1.3452804e+2, -1632222.6, -1640455.4, -1649.8431, -0.011618759, -0.030291753, -1631904.3, -10285.005, 0.00000000000005243424, 9.999658, 9.998559 
3.1500104e+2, 1.4452551e+2, -1541864.5, -1553414.8, 4163.639, -0.030599223, -0.106168956, -1540520.1, -16876.8, 0.000000000000028332263, 9.999456, 9.997908 
3.149892e+2, 1.5452345e+2, -1445431.9, -1456165.1, 3922.9392, -0.032171175, -0.102987245, -1444150.9, -18488.238, 0.000000000000012064798, 9.999349, 9.997908 
3.1497753e+2, 1.6452092e+2, -1357430.3, -1376806.4, 4242.0767, -0.030145835, -0.086588964, -1356542.3, -28854.357, 0.000000000000003878589, 9.999269, 9.9966755 
3.1496623e+2, 1.745179e+2, -1260337.6, -1279485.4, 2636.058, -0.0236402, -0.054699544, -1259981.4, -30262.256, 0.0000000000000009180906, 9.999215, 9.996654 
3.1495455e+2, 1.845148e+2, -1165761.4, -1181615.8, 208.06342, -0.01859904, -0.03452049, -1165758.6, -34008.27, 0.00000000000000015841597, 9.998916, 9.996786 
3.149426e+2, 1.9451167e+2, -1076177.0, -1087181.5, 1858.6538, -0.01535863, -0.030078296, -1075871.6, -42090.637, 0.000000000000000019869674, 9.998318, 9.996829 
3.1493092e+2, 2.0450722e+2, -1005424.5, -1031220.6, 3943.8975, -0.0052382, -0.03525967, -1004835.0, -69010.2, 0.0000000000000000018107616, 9.997705, 9.994257 
3.1491953e+2, 2.145012e+2, -917250.75, -938986.4, 3419.7783, 0.013274309, -0.052700672, -916725.4, -78841.55, 0.0000000000000000001198895, 9.997075, 9.994164 
3.1490824e+2, 2.2449519e+2, -824968.6, -847549.8, 5181.383, 0.014997393, -0.053231984, -823836.5, -83893.44, 0.0000000000000000000057675156, 9.996845, 9.993822 
3.1489706e+2, 2.3448923e+2, -722955.7, -747301.94, 5221.4434, -0.00360021, -0.034913994, -721883.1, -79881.44, 0.0, 9.997102, 9.993846 
3.1488612e+2, 2.444823e+2, -631473.2, -671379.6, 6753.028, -0.02580411, -0.029239029, -630361.4, -86291.836, 0.0, 9.997468, 9.992156 
3.1487533e+2, 2.544743e+2, -526407.6, -570423.1, 6350.673, -0.05241763, -0.039945606, -525509.6, -79361.96, 0.0, 9.997967, 9.99211 
3.1486475e+2, 2.6446605e+2, -432312.75, -481444.06, 5824.564, -0.052039485, -0.047506362, -431631.66, -83403.14, 0.0, 9.998, 9.991471 
3.1485435e+2, 2.7445745e+2, -341863.0, -386816.5, 6877.868, -0.018649835, -0.052655004, -340834.25, -90522.6, 0.0, 9.997466, 9.991491 
3.1484342e+2, 2.8444788e+2, -267854.63, -324551.6, 2680.8372, 0.017883651, -0.056171462, -267728.16, -115322.81, 0.0, 9.996853, 9.989336 
3.148318e+2, 2.9443714e+2, -180380.56, -232197.3, 1311.6365, 0.058280386, -0.058949992, -180347.38, -125836.53, 0.0, 9.99615, 9.98928 
3.1481922e+2, 3.0443007e+2, -88544.23, -80769.195, -5403.373, 0.0742923, -0.055449836, -78000.19, -78000.19, 0.0, 9.995559, 9.99658 
3.1480536e+2, 3.144268e+2, -94425.91, -82646.945, -7013.5103, 0.06015261, -0.04586328, -79378.08, -79378.08, 0.0, 9.995113, 9.996666 
3.2502618e+2, 1.24540545e+2, -1735316.8, -1724247.1, -10264.814, 0.014686519, 0.00853761, -1718120.0, 1378.0203, 0.0000000000023454196, 9.998587, 10.0000515 
3.2501313e+2, 1.3453977e+2, -1631950.1, -1629469.4, -8121.3076, -0.014748441, -0.024203395, -1622494.3, -989.586, 0.0000000000015241749, 9.999204, 9.99953 
3.250004e+2, 1.4453796e+2, -1540144.9, -1548646.6, -2331.6914, -0.037867192, -0.09585115, -1539547.4, -16025.673, 0.0000000000008233425, 9.999401, 9.998261 
3.249884e+2, 1.5453634e+2, -1446927.0, -1453296.5, 982.867, -0.032450788, -0.082382575, -1446778.8, -21241.889, 0.00000000000035051592, 9.999089, 9.99823 
3.2497656e+2, 1.6453381e+2, -1368377.8, -1383470.8, 3775.6606, -0.020720437, -0.07501096, -1367486.0, -39924.37, 0.00000000000011265747, 9.998579, 9.996558 
3.2496494e+2, 1.7453033e+2, -1281668.6, -1291438.3, 4711.4004, -0.001205763, -0.075301245, -1279766.8, -50170.04, 0.000000000000026661206, 9.997829, 9.996512 
3.2495302e+2, 1.845271e+2, -1186299.5, -1192544.8, 2779.0352, 0.006131694, -0.056507997, -1185242.0, -53612.69, 0.000000000000004599458, 9.997556, 9.996701 
3.2494083e+2, 1.9452426e+2, -1083608.8, -1091701.9, 502.61472, -0.0012683802, -0.01636316, -1083577.6, -49919.785, 0.0000000000000005767878, 9.9978485, 9.99675 
3.249288e+2, 2.0451996e+2, -998665.0, -1024359.6, 1613.267, -0.0006500462, -0.015435328, -998564.06, -62863.965, 0.000000000000000052554126, 9.99801, 9.994578 
3.2491702e+2, 2.14514e+2, -901154.0, -927363.25, 4973.56, 0.009757485, -0.06259987, -900241.94, -62483.836, 0.0000000000000000034789587, 9.998006, 9.994505 
3.249055e+2, 2.2450794e+2, -812060.75, -844218.25, 8973.807, 0.008121463, -0.07266562, -809726.06, -69908.64, 0.00000000000000000016733108, 9.997851, 9.993562 
3.2489434e+2, 2.3450185e+2, -719001.6, -748644.9, 7004.001, -0.008119141, -0.03928253, -717430.06, -75552.48, 0.0, 9.997511, 9.993556 
3.2488346e+2, 2.4449478e+2, -635426.44, -673779.6, 8337.329, -0.027146533, -0.030570723, -633692.44, -89745.56, 0.0, 9.997218, 9.992113 
3.2487285e+2, 2.5448662e+2, -540973.4, -577797.25, 8652.616, -0.049564637, -0.053017356, -539041.6, -93015.24, 0.0, 9.996984, 9.992082 
3.2486212e+2, 2.6447836e+2, -453909.1, -492198.28, 4603.5576, -0.044227865, -0.055523414, -453363.38, -105256.195, 0.0, 9.996534, 9.991445 
3.2485113e+2, 2.7447003e+2, -366032.0, -398794.63, 2885.553, -0.0048148297, -0.034940936, -365779.78, -115591.19, 0.0, 9.995823, 9.991466 
3.2483974e+2, 2.844605e+2, -286158.8, -331719.2, 3.5740702, 0.031804435, -0.03690724, -286158.8, -133877.11, 0.0, 9.995526, 9.989487 
3.248278e+2, 2.9444966e+2, -185144.97, -232703.17, 1924.1564, 0.064875945, -0.06798533, -185067.25, -130679.266, 0.0, 9.995744, 9.989441 
3.2481506e+2, 3.0444238e+2, -83659.08, -84991.89, -2909.3535, 0.07536212, -0.06520184, -81340.79, -81340.79, 0.0, 9.996174, 9.995995 
3.248013e+2, 3.1443888e+2, -73140.64, -79438.43, -7111.525, 0.057692192, -0.022009356, -68512.05, -68512.05, 0.0, 9.996874, 9.99604 
3.3502454e+2, 1.2454941e+2, -1729891.6, -1712490.6, -8175.6025, -0.010841876, -0.08849212, -1709252.1, 10156.727, 0.00000000005167391, 9.998563, 10.000859 
3.3501223e+2, 1.3455038e+2, -1625847.8, -1616449.4, -5817.54, -0.022582665, -0.034993876, -1613670.1, 7729.717, 0.00000000003357157, 9.999186, 10.000422 
3.3499986e+2, 1.4454994e+2, -1534633.1, -1536907.0, -3369.0313, -0.03138985, -0.054987453, -1532214.4, -8809.785, 0.000000000018130754, 9.999385, 9.999065 
3.3498767e+2, 1.545492e+2, -1441376.3, -1441563.6, -208.5266, -0.015236361, -0.03339595, -1441241.4, -15829.633, 0.000000000007717037, 9.999078, 9.999032 
3.3497536e+2, 1.6454703e+2, -1366876.8, -1380119.0, 1021.86395, 0.0026587327, -0.043881327, -1366798.4, -39365.633, 0.0000000000024798213, 9.9985695, 9.996789 
3.3496302e+2, 1.7454328e+2, -1280364.3, -1288473.1, 1913.3124, 0.02284908, -0.09285131, -1279935.5, -50466.29, 0.00000000000058676854, 9.997819, 9.996717 
3.3495077e+2, 1.845397e+2, -1190555.3, -1201103.3, 3782.916, 0.02478714, -0.091633044, -1189338.9, -57834.152, 0.00000000000010121049, 9.99755, 9.99612 
3.3493876e+2, 1.9453643e+2, -1088049.3, -1100778.8, 1670.4069, 0.004798861, -0.031904396, -1087833.8, -54295.47, 0.000000000000012690283, 9.9978485, 9.99613 
3.3492672e+2, 2.0453234e+2, -992911.0, -1012551.0, 1733.6484, -0.010025727, -0.016881697, -992759.2, -57180.293, 0.0000000000000011561161, 9.998014, 9.995379 
3.3491477e+2, 2.1452732e+2, -894801.2, -914465.75, 5077.4844, -0.018527228, -0.056587853, -893567.56, -55940.48, 0.000000000000000076521916, 9.998017, 9.995378 
3.3490318e+2, 2.2452146e+2, -815486.56, -851553.4, 7834.543, -0.011849775, -0.06830856, -813858.25, -74173.99, 0.0000000000000000036800285, 9.997865, 9.993053 
3.3489206e+2, 2.3451465e+2, -722981.25, -757011.9, 5766.88, 0.013094614, -0.04766506, -722030.56, -80279.3, 0.0, 9.9975195, 9.992979 
3.3488125e+2, 2.4450725e+2, -635225.8, -673337.2, 7436.586, 0.033147275, -0.044666797, -633826.2, -90002.22, 0.0, 9.997219, 9.992142 
3.348708e+2, 2.544992e+2, -540696.94, -576956.2, 7763.282, 0.047160856, -0.06419385, -539104.7, -93202.16, 0.0, 9.996975, 9.992142 
3.3485955e+2, 2.6449087e+2, -456820.84, -497758.5, 1977.4312, 0.050027635, -0.058190074, -456725.53, -108741.234, 0.0, 9.996515, 9.991072 
3.348474e+2, 2.744823e+2, -369152.13, -404705.75, 116.05765, 0.039605334, -0.022477327, -369151.75, -119082.76, 0.0, 9.995801, 9.991071 
3.348352e+2, 2.8447285e+2, -282537.0, -323800.0, 611.095, 0.028013896, -0.023870893, -282527.97, -130366.28, 0.0, 9.995512, 9.990034 
3.3482304e+2, 2.944624e+2, -180912.34, -223894.48, 2762.9526, 0.014961805, -0.07204482, -180735.47, -126472.47, 0.0, 9.995746, 9.990042 
3.348107e+2, 3.0445492e+2, -89841.305, -98305.484, -345.25687, 0.019184485, -0.07610684, -89827.24, -89827.24, 0.0, 9.996199, 9.995069 
3.347981e+2, 3.1445044e+2, -79535.06, -93810.484, -4500.6904, 0.044394925, -0.027357727, -78234.58, -78234.58, 0.0, 9.996924, 9.9950285 
3.4502304e+2, 1.2456123e+2, -1724141.6, -1712927.9, 12980.404, -0.041604474, -0.16386841, -1704395.1, 14895.061, 0.00000000081250584, 9.999089, 10.000569 
3.450112e+2, 1.3456243e+2, -1633006.1, -1622666.3, 6926.361, -0.025913574, -0.06186225, -1619193.1, 2087.076, 0.00000000052773436, 9.998815, 10.000178 
3.4499893e+2, 1.4456216e+2, -1545633.1, -1542640.5, 623.4641, -0.023432888, -0.0515764, -1542515.8, -19231.512, 0.00000000028494548, 9.9986515, 9.999033 
3.449865e+2, 1.5456145e+2, -1448282.1, -1445148.9, -2549.3406, -0.013731274, -0.025025025, -1443723.4, -18431.525, 0.0000000001212577, 9.998615, 9.999015 
3.4497398e+2, 1.6455956e+2, -1358784.4, -1369184.6, -3033.4785, -0.005396151, -0.037491847, -1357964.3, -30654.137, 0.00000000003895854, 9.998815, 9.997416 
3.4496137e+2, 1.7455633e+2, -1254059.4, -1268347.8, 1205.6096, 0.0015046224, -0.096661925, -1253958.3, -24617.809, 0.000000000009216846, 9.9992895, 9.997374 
3.4494895e+2, 1.845528e+2, -1169485.5, -1195940.5, 4996.599, 0.002775981, -0.10359874, -1168573.3, -37197.926, 0.0000000000015895714, 9.999203, 9.995669 
3.4493682e+2, 1.94549e+2, -1082784.6, -1103873.3, 3722.9124, -0.0028799786, -0.0495039, -1082146.8, -48732.184, 0.00000000000019928297, 9.998449, 9.995627 
3.4492475e+2, 2.0454475e+2, -991981.4, -1010263.1, 2528.6172, -0.009527779, -0.029707447, -991638.1, -56181.52, 0.0000000000000181529, 9.997996, 9.995544 
3.449127e+2, 2.1454011e+2, -895108.25, -912395.06, 740.02985, -0.017278414, -0.05228824, -895076.6, -57575.414, 0.0000000000000012013685, 9.997899, 9.995579 
3.4490097e+2, 2.2453433e+2, -818377.6, -854102.56, 1317.2521, -0.0106876325, -0.061497517, -818329.1, -78771.555, 0.00000000000000005776772, 9.997714, 9.992955 
3.4488952e+2, 2.3452726e+2, -725150.94, -759358.3, 2713.6226, 0.013254738, -0.05586925, -724937.0, -83309.95, 0.0, 9.997425, 9.9928665 
3.4487835e+2, 2.4451981e+2, -639097.8, -673440.3, 5867.2476, 0.03893517, -0.058148976, -638123.06, -94423.11, 0.0, 9.996876, 9.992301 
3.448675e+2, 2.54512e+2, -553504.3, -581219.56, 7011.5483, 0.06658224, -0.071119726, -551831.5, -106055.305, 0.0, 9.996014, 9.992315 
3.4485593e+2, 2.6450363e+2, -469444.1, -507291.78, 3617.7292, 0.06917, -0.06521868, -469101.4, -121242.79, 0.0, 9.995798, 9.9907675 
3.4484348e+2, 2.7449462e+2, -363133.03, -405491.5, 2360.5378, 0.04131581, -0.037775848, -363001.88, -113054.34, 0.0, 9.996369, 9.990743 
3.4483135e+2, 2.8448513e+2, -258396.11, -309922.4, 4073.7576, 0.01367491, -0.035499435, -258076.02, -106035.24, 0.0, 9.997067, 9.990234 
3.4481955e+2, 2.944751e+2, -147573.77, -205255.94, 3485.1526, -0.013580979, -0.06550827, -147363.95, -93225.86, 0.0, 9.997919, 9.990272 
3.448077e+2, 3.0446753e+2, -62929.83, -91557.34, -655.86273, -0.0026696397, -0.06879699, -62914.81, -62914.81, 0.0, 9.99831, 9.994516 
3.447957e+2, 3.1446224e+2, -65867.21, -93910.95, -1649.3098, 0.054801155, -0.04053914, -65770.55, -65770.55, 0.0, 9.998148, 9.994433 
3.5502174e+2, 1.24575995e+2, -1734532.4, -1733558.9, 11694.308, -0.07774527, -0.21763271, -1722341.1, -3199.2239, 0.000000009469599, 9.999063, 9.99918 
3.5501e+2, 1.3457595e+2, -1643219.4, -1643100.6, 5810.7534, -0.02494344, -0.104945354, -1637348.9, -16203.3955, 0.0000000061492664, 9.998795, 9.998798 
3.549977e+2, 1.445746e+2, -1552168.6, -1555638.3, 406.93463, -0.014239243, -0.08573293, -1552121.5, -28960.701, 0.0000000033196064, 9.998635, 9.998156 
3.54985e+2, 1.5457305e+2, -1454582.4, -1457757.3, -2727.2075, -0.028166547, -0.05729922, -1453014.3, -27837.143, 0.0000000014124153, 9.998603, 9.998162 
3.549724e+2, 1.6457134e+2, -1351585.1, -1354188.3, -1316.2782, -0.04539447, -0.0557147, -1351035.6, -23841.605, 0.0000000004537274, 9.99881, 9.998437 
3.5495996e+2, 1.7456953e+2, -1246164.8, -1252060.3, 3042.3655, -0.06633435, -0.08635562, -1244876.3, -15665.501, 0.00000000010733056, 9.999291, 9.998481 
3.549475e+2, 1.8456644e+2, -1171760.6, -1200683.8, 2394.3494, -0.06102614, -0.09201902, -1171563.8, -40322.637, 0.00000000001850869, 9.999207, 9.995343 
3.5493505e+2, 1.945619e+2, -1085518.3, -1109539.6, 928.12115, -0.024854947, -0.06932844, -1085482.5, -52195.703, 0.0000000000023202033, 9.998452, 9.995238 
3.5492286e+2, 2.045572e+2, -995524.0, -1017578.56, 2120.6912, 0.0009004215, -0.054199044, -995321.94, -59988.316, 0.00000000000021133044, 9.997999, 9.995043 
3.5491094e+2, 2.1455231e+2, -898678.8, -919778.1, 402.5784, 0.014319105, -0.049534857, -898671.1, -61290.016, 0.000000000000013984623, 9.997903, 9.995072 
3.5489893e+2, 2.2454648e+2, -816067.8, -849341.25, 267.5326, 0.0119641675, -0.051930055, -816065.6, -76627.52, 0.0000000000000006723836, 9.997717, 9.993277 
3.5488674e+2, 2.345396e+2, -722543.75, -753986.94, 1660.852, -0.009037067, -0.06389818, -722456.25, -80950.71, 0.0, 9.997428, 9.99323 
3.5487473e+2, 2.4453242e+2, -637098.75, -669230.6, 2729.5017, -0.01273134, -0.0710308, -636868.5, -93292.89, 0.0, 9.996875, 9.992587 
3.548629e+2, 2.54525e+2, -551648.9, -577115.5, 3754.7869, 0.0043170704, -0.073565856, -551106.8, -105458.83, 0.0, 9.996004, 9.992599 
3.548511e+2, 2.6451656e+2, -471209.03, -510793.16, 5595.7573, 0.00861709, -0.07693768, -470433.22, -122702.44, 0.0, 9.995795, 9.990528 
3.548394e+2, 2.74507e+2, -364777.78, -409209.56, 4599.7437, -0.0025998165, -0.082562655, -364306.6, -114481.5, 0.0, 9.996387, 9.990479 
3.5482818e+2, 2.8449735e+2, -259190.03, -312311.6, 7248.9766, -0.012010253, -0.07321235, -258218.61, -106298.625, 0.0, 9.997104, 9.990052 
3.5481748e+2, 2.944877e+2, -148120.64, -207463.53, 6644.285, -0.019222952, -0.04750978, -147385.81, -93371.4, 0.0, 9.99797, 9.990095 
3.548062e+2, 3.0448002e+2, -63284.992, -93439.56, -1271.7468, 0.0119789895, -0.04199207, -63231.453, -63231.453, 0.0, 9.998362, 9.994361 
3.5479426e+2, 3.1447408e+2, -66371.5, -95816.45, -2405.7524, 0.08990612, -0.062114652, -66176.234, -66176.234, 0.0, 9.998188, 9.994282 
3.6502057e+2, 1.245896e+2, -1738991.0, -1741362.0, -3585.5168, -0.09906374, -0.18938428, -1736400.1, -17391.504, 0.00000008268434, 9.999002, 9.998685 
3.650088e+2, 1.3458887e+2, -1643276.5, -1648332.1, -2503.9473, -0.037056092, -0.09804275, -1642246.4, -21227.986, 0.00000005368276, 9.999013, 9.99834 
3.6499634e+2, 1.4458701e+2, -1549954.4, -1556462.6, -1995.2466, -0.023835476, -0.09931624, -1549391.4, -26353.064, 0.000000028975498, 9.998866, 9.99799 
3.649834e+2, 1.5458505e+2, -1456738.4, -1460573.4, 98.9073, -0.042127248, -0.096831426, -1456735.8, -31677.648, 0.000000012326782, 9.99853, 9.998006 
3.649708e+2, 1.6458341e+2, -1358428.6, -1355581.1, 2299.8188, -0.05666803, -0.087452285, -1354300.0, -27225.611, 0.000000003959453, 9.998258, 9.9986105 
3.6495864e+2, 1.7458227e+2, -1262922.3, -1258079.9, -301.82477, -0.06662723, -0.07083453, -1258061.3, -28975.514, 0.0000000009365381, 9.998056, 9.998673 
3.649462e+2, 1.845793e+2, -1189111.0, -1210162.3, -5171.8306, -0.05762782, -0.06888634, -1187909.0, -56794.2, 0.0000000001614897, 9.998068, 9.995254 
3.649334e+2, 1.945743e+2, -1088110.3, -1111954.1, -4560.3213, -0.026187303, -0.08534352, -1087267.8, -54103.492, 0.000000000020242613, 9.998323, 9.995139 
3.649209e+2, 2.0456931e+2, -992796.0, -1018047.56, -1054.2839, -0.0023520018, -0.08424608, -992752.06, -57538.625, 0.0000000000018436379, 9.9982605, 9.994885 
3.6490878e+2, 2.1456443e+2, -901030.1, -922736.1, -186.84718, 0.01241829, -0.06386034, -901028.56, -63767.26, 0.00000000000012199398, 9.997818, 9.994912 
3.648966e+2, 2.245586e+2, -816362.2, -848378.06, 928.6219, 0.012771545, -0.061057538, -816335.25, -77016.98, 0.0000000000000058651187, 9.997647, 9.993377 
3.648844e+2, 2.3455177e+2, -716297.4, -749694.7, 433.16965, -0.0040827133, -0.08035704, -716291.75, -74906.43, 0.0, 9.997798, 9.993345 
3.6487213e+2, 2.4454471e+2, -620964.0, -661364.44, -1487.8274, -0.014208741, -0.082730785, -620909.3, -77454.81, 0.0, 9.997972, 9.992596 
3.6485973e+2, 2.545375e+2, -519884.06, -561733.1, -2661.5308, -0.016066402, -0.06616206, -519715.47, -74190.195, 0.0, 9.998172, 9.992604 
3.6484778e+2, 2.6452905e+2, -438297.75, -494633.13, 392.55057, -0.015355085, -0.07042926, -438295.0, -90687.05, 0.0, 9.998033, 9.990555 
3.6483625e+2, 2.7451926e+2, -348414.28, -401026.53, 1697.3387, -0.011791557, -0.100826085, -348359.6, -98655.72, 0.0, 9.997493, 9.990507 
3.6482525e+2, 2.8450945e+2, -264274.72, -317871.9, 5419.483, -0.005952441, -0.09355112, -263732.22, -111932.234, 0.0, 9.996886, 9.9897785 
3.648148e+2, 2.9449978e+2, -175892.1, -224115.22, 3970.5352, 0.002669679, -0.042506047, -175567.36, -121672.24, 0.0, 9.996203, 9.989809 
3.6480388e+2, 3.044921e+2, -89084.12, -101593.484, -892.54156, 0.041096523, -0.04165381, -89020.75, -89020.75, 0.0, 9.996406, 9.994746 
3.6479244e+2, 3.1448618e+2, -70690.79, -93208.57, 2465.1384, 0.11555793, -0.10305013, -70424.08, -70424.08, 0.0, 9.997687, 9.994702 
3.750195e+2, 1.246021e+2, -1736827.9, -1736024.1, -3842.583, -0.10606525, -0.07942604, -1732562.5, -13673.004, 0.0000005532481, 9.998968, 9.999062 
3.7500757e+2, 1.346013e+2, -1640437.4, -1641916.6, -2551.8215, -0.062370554, -0.04127059, -1638520.1, -17621.889, 0.00000035914545, 9.998993, 9.998784 
3.7499493e+2, 1.4459941e+2, -1546416.0, -1548713.8, -3271.6404, -0.05233098, -0.09221596, -1544097.4, -21180.783, 0.00000019382824, 9.998848, 9.998523 
3.7498182e+2, 1.5459746e+2, -1453117.0, -1452728.5, -1208.4043, -0.05572575, -0.14383437, -1451698.9, -26764.027, 0.00000008245099, 9.998516, 9.998545 
3.7496924e+2, 1.6459578e+2, -1363581.9, -1365882.1, 1493.8193, -0.03880779, -0.1329487, -1362846.8, -35895.29, 0.000000026481976, 9.998248, 9.997912 
3.7495735e+2, 1.7459454e+2, -1268418.5, -1269104.4, -1079.3007, 0.0017609955, -0.04997754, -1267629.0, -38663.656, 0.0000000062635124, 9.998047, 9.997926 
3.7494498e+2, 1.845914e+2, -1188207.1, -1208083.4, -4253.2456, 0.01396983, -0.033850968, -1187335.3, -56338.668, 0.0000000010799891, 9.998062, 9.995397 
3.7493193e+2, 1.9458608e+2, -1086794.5, -1109209.9, -3549.6992, -0.006900117, -0.09726806, -1086245.8, -53198.246, 0.00000000013537126, 9.998325, 9.995323 
3.74919e+2, 2.0458105e+2, -991396.56, -1015222.06, -2580.0774, -0.020225782, -0.119897224, -991120.4, -56023.98, 0.000000000012328863, 9.998265, 9.995074 
3.749062e+2, 2.145764e+2, -899653.5, -919904.94, -1793.5308, -0.02468325, -0.0959795, -899495.94, -62353.81, 0.0000000000008157841, 9.997821, 9.995102 
3.7489405e+2, 2.2457065e+2, -817306.1, -850381.3, 1502.3364, -0.009289628, -0.08965059, -817238.0, -78039.414, 0.00000000000003921943, 9.997653, 9.993237 
3.7488255e+2, 2.345637e+2, -717249.6, -751847.3, 1075.8059, 0.029341806, -0.10538197, -717216.2, -75949.125, 0.000000000000000000006929764, 9.997809, 9.993192 
3.7487063e+2, 2.4455656e+2, -622785.8, -665527.8, -678.04034, 0.036790043, -0.09294747, -622775.06, -79437.63, 0.0000000000000000000002423796, 9.997992, 9.9923 
3.7485817e+2, 2.5454932e+2, -521503.63, -565851.75, -1895.1194, 0.0074000405, -0.048316915, -521422.78, -76013.6, 0.0, 9.998208, 9.992304 
3.7484598e+2, 2.6454094e+2, -435653.3, -489996.34, -1674.5841, -0.0010539198, -0.044512495, -435601.75, -88110.414, 0.0, 9.998072, 9.99085 
3.7483403e+2, 2.745313e+2, -345784.72, -396058.25, -502.84225, 0.01550785, -0.09075777, -345779.7, -96194.73, 0.0, 9.997516, 9.990834 
3.7482253e+2, 2.845214e+2, -266961.72, -323440.78, 2641.5398, 0.0336859, -0.09543961, -266838.44, -115156.484, 0.0, 9.996888, 9.989395 
3.7481147e+2, 2.9451123e+2, -179207.84, -230360.97, 1124.5931, 0.053760737, -0.051565982, -179183.13, -125401.36, 0.0, 9.996179, 9.989391 
3.748007e+2, 3.0450356e+2, -82717.875, -87769.305, 3531.2566, 0.08521332, -0.06980874, -80902.05, -80902.05, 0.0, 9.996385, 9.995703 
3.7479028e+2, 3.1449836e+2, -63315.39, -78068.3, 7347.5273, 0.13008705, -0.16490392, -60280.4, -60280.4, 0.0, 9.997701, 9.995733 
3.850175e+2, 1.24612495e+2, -1764519.4, -1741160.6, -12742.613, -0.08757267, -0.042393137, -1735554.8, -16765.955, 0.0000029192024, 9.99672, 9.999816 
3.8500562e+2, 1.3461207e+2, -1659027.3, -1641844.3, -8632.876, -0.07026075, -0.04667808, -1638256.3, -17463.826, 0.0000018948215, 9.997329, 9.999605 
3.849931e+2, 1.4461078e+2, -1555554.0, -1546110.4, -8345.187, -0.07117543, -0.11296366, -1541243.8, -18439.475, 0.0000010225369, 9.997919, 9.999156 
3.8498017e+2, 1.5460952e+2, -1449172.6, -1443833.4, -5707.2153, -0.068633385, -0.15778467, -1440202.3, -15386.934, 0.0000004349407, 9.998479, 9.99917 
3.849675e+2, 1.6460785e+2, -1366809.4, -1376702.9, -5295.2666, -0.04616546, -0.13903172, -1364509.8, -37677.754, 0.00000013969013, 9.9984255, 9.997093 
3.849552e+2, 1.7460583e+2, -1280288.0, -1284760.8, -9033.13, -0.00041666307, -0.04665789, -1273218.5, -44364.316, 0.000000033038678, 9.9976635, 9.997049 
3.8494268e+2, 1.8460251e+2, -1194609.4, -1203550.9, -8424.732, 0.017089546, -0.035562035, -1189542.6, -58655.48, 0.0000000056966374, 9.997293, 9.996081 
3.8492987e+2, 1.9459774e+2, -1095278.6, -1104944.0, -3386.3503, 0.0012336546, -0.12093189, -1094210.4, -61278.42, 0.0000000007140435, 9.997382, 9.996074 
3.849171e+2, 2.0459294e+2, -999406.1, -1021216.06, -1572.1525, -0.013389974, -0.14915328, -999293.4, -64315.277, 0.00000000006503118, 9.997808, 9.994889 
3.849044e+2, 2.145882e+2, -889448.75, -917487.94, -3982.4763, -0.02636894, -0.11168718, -888894.06, -51868.938, 0.000000000004303039, 9.998624, 9.99488 
3.8489217e+2, 2.2458237e+2, -803931.0, -845251.4, -4342.5933, -0.010153209, -0.09723769, -803479.5, -64396.727, 0.00000000000020687176, 9.99862, 9.99312 
3.848804e+2, 2.3457532e+2, -720167.8, -754533.75, -4565.4517, 0.040364884, -0.11126674, -719571.6, -78419.55, 0.00000000000000000020104626, 9.997662, 9.993082 
3.8486835e+2, 2.445679e+2, -638257.3, -677436.25, -4764.0063, 0.053289425, -0.10188681, -637686.3, -94461.15, 0.000000000000000000007029948, 9.997123, 9.99191 
3.84856e+2, 2.5456017e+2, -540795.94, -579716.56, -6684.898, 0.021620685, -0.06576441, -539679.75, -94377.984, 0.0, 9.997082, 9.991904 
3.848437e+2, 2.645518e+2, -448378.53, -492862.8, -8225.8125, 0.015727958, -0.057921022, -446906.2, -99521.94, 0.0, 9.997056, 9.991149 
3.8483158e+2, 2.7454266e+2, -350240.94, -394538.66, -7089.8647, 0.040574294, -0.08552558, -349133.88, -99661.086, 0.0, 9.997048, 9.991166 
3.8481963e+2, 2.8453287e+2, -266265.75, -322671.8, -3144.5723, 0.056269266, -0.096661195, -266091.0, -114522.625, 0.0, 9.996914, 9.989437 
3.8480794e+2, 2.9452237e+2, -172497.4, -226846.56, -1286.6826, 0.061168935, -0.08894314, -172466.97, -118795.84, 0.0, 9.996623, 9.989419 
3.8479728e+2, 3.0451506e+2, -72995.766, -75000.27, 7206.4395, 0.086356595, -0.108634986, -66722.22, -66722.22, 0.0, 9.9967, 9.996429 
3.8478777e+2, 3.1451103e+2, -64759.07, -70212.38, 9232.59, 0.13522586, -0.16386941, -57858.92, -57858.92, 0.0, 9.997229, 9.996503 
3.9501467e+2, 1.24620885e+2, -1757070.4, -1725187.1, -10750.864, -0.0446898, -0.07672313, -1721900.8, -3195.143, 0.000012531762, 9.996695, 10.000911 
3.9500305e+2, 1.346213e+2, -1650963.0, -1624738.4, -6434.496, -0.06113342, -0.11405521, -1623244.8, -2544.245, 0.0000081336, 9.99731, 10.000773 
3.9499095e+2, 1.4462113e+2, -1550674.0, -1535623.1, -6302.045, -0.08086251, -0.16160356, -1533332.9, -10631.641, 0.0000043890395, 9.997902, 9.999875 
3.9497852e+2, 1.5462126e+2, -1444320.1, -1433529.8, -3656.425, -0.081367396, -0.1379324, -1432407.4, -7707.9443, 0.0000018668253, 9.998468, 9.999875 
3.9496562e+2, 1.6461964e+2, -1373798.0, -1390851.8, -8062.4956, -0.07960277, -0.10498482, -1370589.9, -43873.86, 0.0000005995586, 9.998419, 9.996132 
3.9495212e+2, 1.7461611e+2, -1287745.0, -1299846.3, -11966.61, -0.074994765, -0.061272312, -1280386.3, -51633.703, 0.00000014180438, 9.997656, 9.996025 
3.949393e+2, 1.8461262e+2, -1185969.4, -1185519.6, -8212.692, -0.050190873, -0.07465255, -1177528.8, -46741.867, 0.000000024450705, 9.997286, 9.997311 
3.949272e+2, 1.946092e+2, -1085960.1, -1085553.0, -3001.9312, -0.002365491, -0.1565733, -1082747.8, -49930.05, 0.0000000030648393, 9.997377, 9.9973955 
3.9491525e+2, 2.0460494e+2, -1003564.25, -1029743.8, 1506.5634, 0.018599164, -0.17176059, -1003477.8, -68619.09, 0.00000000027913746, 9.99781, 9.994306 
3.9490342e+2, 2.1459977e+2, -893940.56, -927019.1, -802.3588, 0.008342394, -0.11007599, -893921.1, -57010.258, 0.00000000001847093, 9.998639, 9.994221 
3.94891e+2, 2.2459367e+2, -804470.56, -846675.25, -7716.3496, 0.0105444435, -0.08266823, -803104.0, -64132.5, 0.0000000000008880364, 9.998636, 9.993013 
3.9487794e+2, 2.3458655e+2, -720696.6, -755648.44, -8223.538, 0.027439393, -0.09715809, -718858.44, -77817.18, 0.000000000000000004402075, 9.997664, 9.993002 
3.9486527e+2, 2.4457863e+2, -641903.75, -684788.3, -5087.9746, 0.033292502, -0.109694846, -641308.4, -98189.586, 0.00000000000000000015389045, 9.997118, 9.991409 
3.948531e+2, 2.5456992e+2, -544640.5, -587364.25, -6899.0674, 0.025950398, -0.12062672, -543554.06, -98349.625, 0.0, 9.997071, 9.991385 
3.94841e+2, 2.6456138e+2, -446529.0, -488748.03, -8333.042, 0.034798298, -0.112975486, -444943.78, -97655.56, 0.0, 9.997046, 9.991433 
3.9482886e+2, 2.7455312e+2, -347982.72, -389787.1, -7227.5356, 0.062837906, -0.08530565, -346768.4, -97399.54, 0.0, 9.997049, 9.991489 
3.948166e+2, 2.8454372e+2, -262714.88, -315468.1, -4312.8276, 0.060134675, -0.09718309, -262364.6, -110903.85, 0.0, 9.996923, 9.9899235 
3.9480418e+2, 2.9453304e+2, -168724.63, -219436.73, -2477.2043, 0.02106001, -0.15702395, -168603.9, -115039.164, 0.0, 9.996644, 9.989914 
3.9479354e+2, 3.045264e+2, -69446.43, -68116.59, 8874.785, 0.040397193, -0.1588931, -59881.85, -59881.85, 0.0, 9.996726, 9.996887 
3.94785e+2, 3.1452402e+2, -61368.547, -63357.918, 10964.835, 0.12907161, -0.09383464, -51353.37, -51353.37, 0.0, 9.997241, 9.996965 
4.0501142e+2, 1.2463069e+2, -1743724.4, -1712860.5, 1955.7197, -0.068733126, -0.12337988, -1712737.0, 5870.9746, 0.00004485904, 9.997343, 10.00143 
4.0500015e+2, 1.3463187e+2, -1648055.0, -1616995.8, 1822.9489, -0.077135876, -0.14126095, -1616889.1, 3706.5447, 0.00002911354, 9.997229, 10.001339 
4.0498844e+2, 1.4463216e+2, -1563886.8, -1544192.8, -3926.026, -0.080488525, -0.16351761, -1543438.9, -20846.504, 0.000015709626, 9.997094, 9.999687 
4.0497646e+2, 1.5463232e+2, -1468292.4, -1447576.8, -8267.752, -0.056092203, -0.11590888, -1444681.6, -20090.625, 0.000006681798, 9.996939, 9.999668 
4.0496373e+2, 1.6463046e+2, -1388601.8, -1398218.1, -12798.015, -0.05659526, -0.09557416, -1379738.5, -53128.855, 0.0000021459712, 9.9974165, 9.996122 
4.0495017e+2, 1.7462638e+2, -1273667.9, -1293080.6, -9051.749, -0.08537726, -0.10694702, -1270102.1, -41451.676, 0.00000050756734, 9.998613, 9.99602 
4.0493724e+2, 1.8462291e+2, -1157244.5, -1169050.1, -6124.689, -0.07692691, -0.12609124, -1154641.1, -23957.15, 0.00000008752133, 9.99913, 9.997538 
4.049251e+2, 1.9462025e+2, -1062539.1, -1071523.6, -9229.311, -0.025526948, -0.1566765, -1056766.9, -24058.648, 0.000000010971236, 9.998856, 9.997638 
4.0491325e+2, 2.0461608e+2, -998967.56, -1032474.4, -8087.99, 0.011409077, -0.15344457, -997117.4, -62368.652, 0.0000000009993062, 9.998336, 9.99387 
4.0490174e+2, 2.1461028e+2, -913403.1, -941687.25, -8965.942, 0.031048227, -0.111568354, -910800.44, -73993.09, 0.00000000006613187, 9.997535, 9.993761 
4.0488937e+2, 2.2460382e+2, -819431.75, -854303.75, -14697.25, 0.033580378, -0.09397858, -814063.75, -75192.43, 0.0000000000031798247, 9.997628, 9.992986 
4.04876e+2, 2.345967e+2, -704727.06, -748056.6, -14684.036, 0.016421858, -0.10660707, -700219.6, -59279.043, 0.0000000000000000688154, 9.998758, 9.992995 
4.0486312e+2, 2.445889e+2, -611085.9, -666126.56, -9712.518, 0.012160909, -0.12448659, -609422.3, -66405.53, 0.0000000000000000024051838, 9.999058, 9.991748 
4.0485078e+2, 2.5458038e+2, -522834.28, -572921.2, -4941.5454, 0.022946147, -0.14952159, -522351.4, -77251.3, 0.0, 9.99839, 9.9917345 
4.0483838e+2, 2.6457185e+2, -440152.16, -489553.56, -5424.083, 0.043618277, -0.14348762, -439563.63, -92379.625, 0.0, 9.997647, 9.991088 
4.048259e+2, 2.7456337e+2, -353956.53, -396856.13, -9656.87, 0.07582357, -0.10224275, -351882.97, -102615.555, 0.0, 9.996816, 9.99112 
4.0481347e+2, 2.8455395e+2, -265651.56, -314265.7, -8555.39, 0.070691295, -0.10751477, -264189.88, -112830.17, 0.0, 9.996606, 9.990163 
4.0480107e+2, 2.945435e+2, -159707.47, -212117.86, -8402.997, 0.021424975, -0.1696591, -158393.17, -104931.734, 0.0, 9.99713, 9.990185 
4.0479055e+2, 3.0453676e+2, -62691.53, -74574.91, -1565.4705, 0.027736617, -0.15467738, -62488.76, -62488.76, 0.0, 9.997602, 9.996029 
4.047823e+2, 3.1453392e+2, -56590.33, -71327.95, -10035.757, 0.09996948, -0.04901543, -51508.605, -51508.605, 0.0, 9.998007, 9.996058 
4.1500786e+2, 1.2464199e+2, -1744692.8, -1713956.4, 1247.3104, -0.15907684, -0.17990926, -1713905.9, 4589.3223, 0.0001357749, 9.99731, 10.0013685 
4.1499698e+2, 1.3464381e+2, -1648729.9, -1617765.3, 1243.8165, -0.118348956, -0.12800771, -1617715.4, 2762.276, 0.00008811505, 9.997208, 10.001294 
4.1498563e+2, 1.4464387e+2, -1572138.5, -1560623.9, -4627.8955, -0.07011983, -0.11851958, -1558994.5, -36516.918, 0.000047546542, 9.997076, 9.998577 
4.1497406e+2, 1.5464267e+2, -1476766.5, -1464494.0, -8959.815, 0.0073656724, -0.09181319, -1459770.6, -35280.926, 0.000020223571, 9.996921, 9.998525 
4.1496196e+2, 1.6464028e+2, -1382022.1, -1384356.5, -8495.719, 0.023614833, -0.11113231, -1374613.8, -48101.008, 0.0000064954993, 9.997408, 9.997067 
4.149493e+2, 1.746366e+2, -1266327.5, -1277949.8, -4498.664, -0.030671475, -0.18440396, -1264789.8, -36241.953, 0.0000015364569, 9.998618, 9.997046 
4.149365e+2, 1.846334e+2, -1162928.8, -1180920.3, -6930.358, -0.06298912, -0.19008014, -1160568.8, -29990.13, 0.00000026496838, 9.999141, 9.996722 
4.1492352e+2, 1.9463088e+2, -1068632.0, -1084331.0, -10267.297, -0.06965583, -0.119969, -1063557.4, -30953.617, 0.000000033220672, 9.99887, 9.996756 
4.149111e+2, 2.0462634e+2, -1001016.3, -1036829.4, -11133.528, -0.036802594, -0.09281504, -997837.4, -63188.715, 0.0000000030265355, 9.998343, 9.9935665 
4.1489935e+2, 2.146196e+2, -915481.75, -945768.4, -12064.824, 0.041019537, -0.11643963, -911263.25, -74547.82, 0.00000000020034616, 9.997527, 9.9934845 
4.1488725e+2, 2.2461268e+2, -819194.06, -853673.5, -10622.262, 0.058836095, -0.13237599, -816184.3, -77401.15, 0.000000000009636878, 9.997627, 9.993028 
4.148747e+2, 2.3460567e+2, -704016.1, -747028.06, -10320.095, 0.0070436476, -0.1406755, -701668.2, -60817.004, 0.0000000000000007946489, 9.998781, 9.9930525 
4.14862e+2, 2.445986e+2, -602061.5, -648166.94, -11971.444, -0.010675134, -0.14634584, -599138.4, -56218.3, 0.000000000000000027769294, 9.999091, 9.992956 
4.148491e+2, 2.5459155e+2, -513569.66, -554285.0, -7409.218, 0.011544441, -0.15064575, -512263.28, -67273.99, 0.0, 9.998416, 9.992993 
4.1483602e+2, 2.6458314e+2, -447198.56, -504467.44, -8537.599, 0.040755715, -0.14784746, -445952.9, -98880.8, 0.0, 9.9976635, 9.990059 
4.1482276e+2, 2.7457324e+2, -361862.3, -413264.5, -12926.994, 0.078096114, -0.13764381, -358794.44, -109624.73, 0.0, 9.99682, 9.989995 
4.1481027e+2, 2.8456336e+2, -265908.3, -314835.16, -6926.8613, 0.087938964, -0.12817404, -264946.56, -113679.51, 0.0, 9.996612, 9.99012 
4.1479865e+2, 2.945536e+2, -159344.27, -211803.53, -6622.8506, 0.065337285, -0.12185131, -158521.06, -105158.15, 0.0, 9.997153, 9.990194 
4.1478842e+2, 3.0454594e+2, -78464.12, -108107.81, -424.94147, 0.05067428, -0.09137807, -78458.02, -78458.02, 0.0, 9.997642, 9.993708 
4.1477978e+2, 3.1454012e+2, -73030.81, -106405.27, -9221.934, 0.044928573, -0.032624606, -70652.164, -70652.164, 0.0, 9.998054, 9.993628 
4.2500597e+2, 1.2465335e+2, -1727818.4, -1714821.3, -2973.5251, -0.15518893, -0.185363, -1714173.3, 4210.038, 0.00035082738, 9.998844, 10.000566 
4.2499468e+2, 1.3465458e+2, -1639539.5, -1622376.3, -8896.343, -0.115001656, -0.11114602, -1618597.0, 1775.0381, 0.00022768496, 9.998219, 10.000495 
4.2498302e+2, 1.4465417e+2, -1563762.1, -1558869.1, -14043.965, -0.0685769, -0.0973189, -1547060.1, -24683.426, 0.0001228659, 9.997742, 9.998378 
4.2497116e+2, 1.5465252e+2, -1470609.4, -1463592.0, -11125.55, 0.0027654613, -0.09765945, -1455435.0, -31042.121, 0.000052266085, 9.997427, 9.998342 
4.2495927e+2, 1.6465016e+2, -1381373.5, -1377826.4, -5603.7383, 0.025171755, -0.13206954, -1373722.3, -47307.01, 0.00001678997, 9.997178, 9.997625 
4.2494735e+2, 1.7464705e+2, -1285586.3, -1280724.3, -4912.3022, -0.009228384, -0.20715657, -1277674.4, -49230.63, 0.000003972505, 9.997018, 9.997639 
4.2493513e+2, 1.8464382e+2, -1191845.0, -1205129.1, -9222.82, -0.038124863, -0.20564038, -1187121.5, -56646.23, 0.00000068530704, 9.997608, 9.995822 
4.249226e+2, 1.946405e+2, -1072712.9, -1097061.8, -13204.656, -0.06055119, -0.11733129, -1066926.9, -34417.773, 0.00000008596078, 9.999053, 9.995804 
4.2490998e+2, 2.0463552e+2, -983350.6, -1028249.44, -17989.959, -0.043739982, -0.0872141, -977031.75, -42473.043, 0.000000007836224, 9.999542, 9.993573 
4.2489737e+2, 2.1462867e+2, -894507.6, -935147.5, -16689.805, 0.018268468, -0.12610535, -888532.1, -51906.35, 0.0000000005191636, 9.998935, 9.993528 
4.2488492e+2, 2.2462176e+2, -808876.4, -845165.6, -9943.102, 0.03727013, -0.15706399, -806330.6, -67637.79, 0.000000000025000514, 9.998176, 9.993344 
4.248727e+2, 2.3461492e+2, -724048.2, -753117.56, -7525.7095, 0.0058689825, -0.17975898, -722215.44, -81456.6, 0.0000000000000068380394, 9.997253, 9.993379 
4.2485997e+2, 2.4460812e+2, -638286.5, -666929.5, -15090.957, -0.0007674717, -0.16982529, -631803.1, -88977.62, 0.00000000000000023892724, 9.996664, 9.99285 
4.2484665e+2, 2.5460148e+2, -542921.3, -569815.0, -21164.62, 0.021765329, -0.12400787, -531293.1, -86401.11, 0.0, 9.996463, 9.992883 
4.2483327e+2, 2.6459298e+2, -458859.47, -511141.47, -22071.58, 0.039573994, -0.118217915, -450787.8, -103812.14, 0.0, 9.996906, 9.989976 
4.2481995e+2, 2.7458248e+2, -343726.22, -405541.66, -18393.477, 0.05181882, -0.15988877, -338667.2, -89588.875, 0.0, 9.998101, 9.989909 
4.2480758e+2, 2.8457224e+2, -242086.03, -310941.9, -10844.471, 0.06295014, -0.15114135, -240418.45, -89239.195, 0.0, 9.998566, 9.989447 
4.2479637e+2, 2.945624e+2, -149384.36, -214842.25, -15993.602, 0.072794646, -0.08517206, -145685.58, -92408.695, 0.0, 9.998169, 9.989502 
4.2478612e+2, 3.045542e+2, -81369.76, -110436.445, -5707.5464, 0.0649755, -0.06307418, -80289.19, -80289.19, 0.0, 9.997479, 9.9936285 
4.2477694e+2, 3.1454748e+2, -96960.64, -118561.37, 3753.6936, 0.035358354, -0.093997866, -96326.93, -96326.93, 0.0, 9.996437, 9.993571 
4.3500575e+2, 1.2466484e+2, -1739668.4, -1738204.9, -5477.7056, -0.059853904, -0.14121735, -1733410.3, -15138.79, 0.00078514614, 9.998809, 9.998992 
4.3499342e+2, 1.3466427e+2, -1651330.9, -1645920.0, -11429.804, -0.0678314, -0.09074696, -1636879.9, -16601.46, 0.00050963036, 9.998196, 9.998903 
4.3498072e+2, 1.4466313e+2, -1559023.3, -1548632.6, -15410.101, -0.076659724, -0.099866375, -1537565.6, -15276.149, 0.00027507497, 9.997724, 9.999079 
4.3496788e+2, 1.5466192e+2, -1465226.0, -1452137.3, -12415.767, -0.071819976, -0.1336044, -1444646.6, -20346.469, 0.00011705333, 9.997414, 9.999125 
4.3495566e+2, 1.6466013e+2, -1380486.4, -1375700.5, -6339.4023, -0.05410081, -0.15821607, -1371317.5, -45000.973, 0.000037619757, 9.9971695, 9.997772 
4.3494424e+2, 1.7465775e+2, -1284826.1, -1278809.5, -5590.5576, -0.022184499, -0.17379388, -1275469.3, -47131.055, 0.000008906541, 9.997007, 9.997772 
4.349331e+2, 1.846541e+2, -1199150.1, -1219893.0, -3953.7703, -0.0024187737, -0.1715446, -1198422.1, -68048.27, 0.0000015378395, 9.9976015, 9.99482 
4.3492228e+2, 1.9464909e+2, -1080074.1, -1112317.3, -7702.9375, 0.0031203402, -0.14989376, -1078328.4, -45903.94, 0.00000019312868, 9.999062, 9.994759 
4.3490988e+2, 2.046435e+2, -980888.6, -1023460.56, -19999.578, -0.0086762635, -0.13847293, -972967.1, -38487.574, 0.000000017634331, 9.999558, 9.993889 
4.3489572e+2, 2.146374e+2, -891554.0, -929469.8, -18911.064, -0.039391827, -0.14069691, -883734.44, -47195.6, 0.0000000011708853, 9.998956, 9.993903 
4.348824e+2, 2.2463103e+2, -804560.9, -836503.06, -13391.865, -0.03368955, -0.16739857, -799689.25, -61088.73, 0.000000000056553692, 9.998189, 9.993926 
4.3487003e+2, 2.3462443e+2, -720062.7, -744534.7, -10997.543, 0.013090813, -0.22396594, -715846.8, -75182.7, 0.000000000000044721503, 9.997241, 9.993968 
4.3485707e+2, 2.446174e+2, -649405.44, -689232.94, -15925.753, 0.04335613, -0.19492358, -643820.44, -101086.46, 0.000000000000001562477, 9.996638, 9.991339 
4.3484342e+2, 2.5460997e+2, -554519.0, -593198.5, -22071.842, 0.05455444, -0.06796246, -544512.7, -99702.62, 0.0, 9.996439, 9.991296 
4.348302e+2, 2.646012e+2, -452507.5, -497832.9, -17865.732, 0.039701127, -0.052262817, -446312.25, -99415.5, 0.0, 9.996903, 9.990885 
4.348175e+2, 2.7459097e+2, -336102.47, -390490.56, -13895.828, -0.0056161443, -0.1679374, -332757.84, -83763.0, 0.0, 9.998138, 9.990919 
4.3480548e+2, 2.845804e+2, -251071.3, -330701.7, -12350.48, -0.007986046, -0.17661752, -249199.75, -98101.62, 0.0, 9.998618, 9.988069 
4.3479425e+2, 2.9456958e+2, -159268.97, -236127.22, -17932.38, 0.040367, -0.060930304, -155290.94, -102084.945, 0.0, 9.998205, 9.988026 
4.3478367e+2, 3.0456144e+2, -64600.98, -75887.375, -9917.516, 0.06925903, -0.07323847, -58833.535, -58833.535, 0.0, 9.997495, 9.995988 
4.3477377e+2, 3.1455588e+2, -79421.11, -81685.29, -187.82208, 0.074167006, -0.23934057, -79405.63, -79405.63, 0.0, 9.99642, 9.996105 
4.450038e+2, 1.2467594e+2, -1781466.4, -1761876.5, -5200.124, 0.00071641733, -0.10597497, -1760581.8, -42418.406, 0.0015538043, 9.996111, 9.998705 
4.4499174e+2, 1.3467447e+2, -1658343.5, -1652527.6, -1203.7501, -0.03681433, -0.11654654, -1652288.3, -32110.363, 0.0010089569, 9.997854, 9.998621 
4.4497928e+2, 1.4467305e+2, -1533561.9, -1535762.8, -2683.8699, -0.075378634, -0.14172985, -1531761.6, -9570.154, 0.0005448942, 9.99943, 9.999122 
4.4496664e+2, 1.5467216e+2, -1414735.9, -1426955.6, -5252.148, -0.10281494, -0.14965941, -1412788.8, 11410.444, 0.00023205215, 10.000817, 9.999182 
4.4495443e+2, 1.6467036e+2, -1323726.9, -1353412.6, -7728.075, -0.09513478, -0.15460175, -1321835.5, 4380.2554, 0.00007466019, 10.001258, 9.997302 
4.4494277e+2, 1.7466763e+2, -1235182.1, -1260166.1, -11876.502, -0.04743976, -0.15668336, -1230437.5, -2196.1023, 0.000017702305, 10.000619, 9.99729 
4.4493154e+2, 1.8466356e+2, -1176132.1, -1212259.0, -9826.309, -0.0027737904, -0.15640815, -1173632.4, -43351.19, 0.000003062777, 9.999317, 9.994509 
4.449208e+2, 1.9465806e+2, -1108587.6, -1129618.0, -7992.719, 0.037824474, -0.15493436, -1105894.9, -73558.445, 0.0000003857046, 9.997263, 9.994456 
4.4490844e+2, 2.046522e+2, -1020280.5, -1041670.6, -15813.695, 0.02530628, -0.15813123, -1011884.8, -77491.086, 0.00000003535121, 9.996831, 9.993973 
4.4489425e+2, 2.1464612e+2, -901335.7, -933108.1, -16822.674, -0.04744574, -0.16793709, -894083.75, -57631.277, 0.000000002359298, 9.998237, 9.994006 
4.448806e+2, 2.2464001e+2, -795240.06, -830290.94, -18110.809, -0.05982465, -0.18068981, -787563.44, -49051.66, 0.000000000114745775, 9.998747, 9.994083 
4.4486758e+2, 2.3463397e+2, -704354.5, -735158.75, -19161.205, -0.0030794449, -0.19958586, -695172.56, -54601.63, 0.00000000000022836846, 9.998232, 9.994132 
4.4485417e+2, 2.4462661e+2, -637850.3, -693643.06, -21555.398, 0.028584363, -0.16763282, -630492.7, -87848.516, 0.0000000000000079783024, 9.997853, 9.990455 
4.448402e+2, 2.546179e+2, -543468.4, -598318.94, -22583.873, 0.030950977, -0.076702006, -535366.56, -90633.91, 0.0, 9.99764, 9.990368 
4.448271e+2, 2.64609e+2, -440267.66, -481422.84, -13568.6455, 0.022274615, -0.07018458, -436196.8, -89376.625, 0.0, 9.997284, 9.991824 
4.4481504e+2, 2.746e+2, -348969.78, -385337.0, -9469.833, 0.00035715514, -0.16506183, -346651.66, -97745.83, 0.0, 9.996763, 9.991937 
4.448032e+2, 2.8458983e+2, -284917.9, -348940.84, -5933.762, 0.012526312, -0.18150252, -284372.6, -133367.5, 0.0, 9.996377, 9.987903 
4.4479167e+2, 2.9457837e+2, -190960.89, -253874.86, -1914.2832, 0.06536903, -0.10630281, -190902.69, -137783.88, 0.0, 9.996135, 9.987806 
4.447805e+2, 3.0457067e+2, -78080.945, -67750.21, 6125.863, 0.079924226, -0.12256286, -64902.64, -64902.64, 0.0, 9.995932, 9.997297 
4.447696e+2, 3.1456688e+2, -79237.83, -66122.0, 6821.49, 0.048396625, -0.2503085, -63217.406, -63217.406, 0.0, 9.995756, 9.997495 
4.550002e+2, 1.2468676e+2, -1774910.6, -1747487.3, 933.56946, 0.02499363, -0.07802194, -1747455.5, -29397.78, 0.0027803245, 9.996078, 9.999696 
4.549897e+2, 1.3468532e+2, -1651391.6, -1637609.9, 5193.806, -0.022523426, -0.18874165, -1635871.8, -15801.824, 0.0018069525, 9.997834, 9.999641 
4.5497882e+2, 1.4468402e+2, -1538310.1, -1545146.5, 2469.5374, -0.06489962, -0.22331876, -1537511.4, -15429.524, 0.0009770269, 9.999421, 9.9984865 
4.549676e+2, 1.546833e+2, -1419660.9, -1437006.8, -73.84188, -0.090282835, -0.14561571, -1419660.6, 4428.702, 0.00041677037, 10.00082, 9.998495 
4.549557e+2, 1.6468091e+2, -1331565.9, -1369664.4, -9993.168, -0.09816357, -0.12071172, -1329103.8, -2990.9988, 0.00013439546, 10.001267, 9.996189 
4.5494306e+2, 1.7467673e+2, -1243058.1, -1276677.9, -14373.315, -0.08624594, -0.15628153, -1237750.9, -9597.696, 0.000031964762, 10.000637, 9.996154 
4.5493048e+2, 1.8467219e+2, -1173228.0, -1206405.0, -17569.523, -0.04100906, -0.16073129, -1165653.1, -35455.758, 0.000005553748, 9.999326, 9.994901 
4.549181e+2, 1.946674e+2, -1105561.9, -1123066.5, -15800.117, 0.042026, -0.13186732, -1096251.9, -64007.13, 0.00000070340104, 9.997253, 9.994904 
4.5490557e+2, 2.0466161e+2, -1021785.06, -1044326.44, -10802.45, 0.057683975, -0.14534777, -1017444.2, -83143.0, 0.000000064967765, 9.996817, 9.993797 
4.548929e+2, 2.146548e+2, -902739.6, -936011.25, -11365.161, -0.0039261575, -0.20807825, -899228.06, -62861.03, 0.0000000043809485, 9.998241, 9.993805 
4.5487958e+2, 2.2464868e+2, -797146.5, -834522.8, -19763.107, -0.039302908, -0.19669095, -788634.9, -50207.684, 0.00000000021602262, 9.998763, 9.993784 
4.5486543e+2, 2.3464346e+2, -706155.56, -739294.94, -21090.479, -0.044555414, -0.10306816, -695904.3, -55424.31, 0.0000000000009414817, 9.998253, 9.993837 
4.5485127e+2, 2.4463572e+2, -639177.3, -696914.56, -22400.01, -0.049234733, -0.08517333, -631506.1, -88949.14, 0.000000000000032891313, 9.99788, 9.990216 
4.54837e+2, 2.5462514e+2, -544778.7, -601602.94, -23329.713, -0.053337518, -0.15451097, -536427.75, -91766.86, 0.0, 9.997668, 9.9901285 
4.5482403e+2, 2.646163e+2, -433324.47, -467335.28, -15566.165, -0.014367129, -0.1775218, -427275.84, -80528.7, 0.0, 9.9973, 9.992778 
4.548125e+2, 2.7460954e+2, -342102.72, -370683.78, -11566.734, 0.0739152, -0.15013318, -338008.25, -89196.266, 0.0, 9.996748, 9.992944 
4.5480075e+2, 2.846004e+2, -277396.97, -332517.47, -6847.719, 0.13082038, -0.16410628, -276559.0, -125658.42, 0.0, 9.996345, 9.989038 
4.5478866e+2, 2.9458874e+2, -183355.34, -237334.78, -2619.1045, 0.15207261, -0.22706787, -183228.56, -130213.08, 0.0, 9.996106, 9.98895 
4.547766e+2, 3.0458197e+2, -77436.555, -66017.46, 5783.379, 0.096838005, -0.21359512, -63600.113, -63600.113, 0.0, 9.995919, 9.997419 
4.5476437e+2, 3.1458056e+2, -78443.58, -64739.53, 6176.579, -0.04921734, -0.11327215, -62366.57, -62366.57, 0.0, 9.995772, 9.997579 
4.6499875e+2, 1.24697804e+2, -1681604.6, -1699995.1, 4998.371, -0.03714821, -0.078811, -1680333.9, 37616.08, 0.004589857, 10.002328, 9.99988 
4.6498877e+2, 1.3469656e+2, -1613189.0, -1616874.6, 2867.4827, -0.023277232, -0.18885937, -1611623.3, 8336.093, 0.0029879087, 10.000328, 9.999841 
4.6497843e+2, 1.446951e+2, -1548537.9, -1557652.4, -1150.9574, -0.027232494, -0.21918409, -1548394.8, -26421.92, 0.0016192476, 9.999045, 9.997825 
4.649678e+2, 1.5469374e+2, -1457918.5, -1463499.5, -3772.238, -0.04151759, -0.13687362, -1456016.9, -32029.654, 0.00069287396, 9.998553, 9.997802 
4.6495602e+2, 1.6469091e+2, -1374459.8, -1392447.0, -12646.217, -0.048652515, -0.11045855, -1367935.3, -41920.008, 0.00022437889, 9.9984255, 9.996025 
4.6494308e+2, 1.7468655e+2, -1272388.4, -1292711.9, -9712.19, -0.048101716, -0.14857073, -1268493.5, -40435.938, 0.000053673917, 9.99871, 9.996001 
4.6492982e+2, 1.8468177e+2, -1177898.5, -1212060.1, -13752.795, -0.031803966, -0.15575203, -1173050.1, -42945.87, 0.000009398119, 9.999146, 9.994602 
4.649162e+2, 1.9467665e+2, -1071112.8, -1109757.8, -17874.846, 0.0029052584, -0.12946661, -1064112.9, -31958.582, 0.0000012027082, 9.999741, 9.994605 
4.6490324e+2, 2.046708e+2, -981472.7, -1022157.75, -11306.0205, 0.012503022, -0.1456035, -978542.0, -44330.74, 0.00000011262272, 9.999445, 9.994037 
4.6489108e+2, 2.146642e+2, -901985.25, -932897.75, -8334.338, -0.007765762, -0.21166474, -899881.4, -63606.37, 0.000000007732489, 9.998169, 9.994054 
4.6487775e+2, 2.2465797e+2, -824036.4, -856520.1, -18796.193, -0.025949063, -0.18675517, -815436.8, -77099.86, 0.00000000039024706, 9.997309, 9.99299 
4.6486306e+2, 2.3465225e+2, -731450.94, -760951.25, -24361.191, -0.041621696, -0.05928554, -717722.44, -77326.77, 0.0000000000032348013, 9.996925, 9.993006 
4.6484855e+2, 2.4464437e+2, -649363.75, -691683.2, -22289.695, -0.05302908, -0.054136235, -639789.7, -97316.234, 0.00000000000011301746, 9.99674, 9.991127 
4.6483418e+2, 2.546341e+2, -550820.9, -593730.4, -13923.288, -0.059485972, -0.19128121, -546699.0, -102126.42, 0.0, 9.996785, 9.991091 
4.6482086e+2, 2.6462573e+2, -446830.25, -473935.78, -7292.0244, -0.016867928, -0.21765517, -444993.06, -98338.92, 0.0, 9.996373, 9.992772 
4.6480867e+2, 2.7461964e+2, -361561.84, -380532.7, -11448.234, 0.08233446, -0.117998324, -356180.0, -107465.97, 0.0, 9.995429, 9.9929085 
4.647965e+2, 2.8461102e+2, -291124.38, -331253.06, -9713.064, 0.13596208, -0.11587201, -288896.97, -138098.63, 0.0, 9.995059, 9.98975 
4.6478423e+2, 2.945996e+2, -189150.45, -231854.25, -8522.846, 0.13691302, -0.2289859, -187512.3, -134602.55, 0.0, 9.995345, 9.9896965 
4.6477237e+2, 3.045929e+2, -80363.56, -74955.62, -2883.6892, 0.08020071, -0.21458218, -73706.48, -73706.48, 0.0, 9.996038, 9.996755 
4.6476087e+2, 3.1459138e+2, -62893.27, -65434.395, -8694.318, -0.04561861, -0.052566204, -55377.164, -55377.164, 0.0, 9.997191, 9.996853 
4.7499958e+2, 1.247092e+2, -1686954.8, -1709696.9, -2585.246, -0.18873484, -0.1076153, -1686664.5, 31174.283, 0.007113215, 10.002283, 9.999237 
4.7498897e+2, 1.3470833e+2, -1618339.9, -1626690.1, -4859.4175, -0.039752886, -0.11612914, -1616108.3, 3736.9668, 0.004643645, 10.000301, 9.999182 
4.7497812e+2, 1.4470634e+2, -1553960.3, -1568176.4, -3406.8535, 0.037640363, -0.12841937, -1553186.0, -31322.146, 0.0025262511, 9.999024, 9.997117 
4.7496715e+2, 1.5470351e+2, -1463419.8, -1474219.6, -5798.805, 0.04283299, -0.1234791, -1460895.9, -37003.53, 0.0010866441, 9.998533, 9.99708 
4.7495547e+2, 1.6470042e+2, -1369071.6, -1380823.4, -11797.742, 0.05266556, -0.12426268, -1361767.5, -35844.754, 0.00035438547, 9.998407, 9.996822 
4.7494295e+2, 1.7469719e+2, -1266509.9, -1280334.8, -8646.868, 0.06747844, -0.13363354, -1262352.1, -34398.125, 0.000085576154, 9.998704, 9.996843 
4.7492954e+2, 1.8469235e+2, -1185163.9, -1227043.5, -11457.559, 0.024895279, -0.14139001, -1182234.3, -52233.105, 0.000015172572, 9.999153, 9.993578 
4.749151e+2, 1.946858e+2, -1078470.9, -1125533.1, -15521.882, -0.081784956, -0.14792983, -1073812.5, -41747.508, 0.0000019737136, 9.999772, 9.993513 
4.7490147e+2, 2.0467976e+2, -976283.3, -1012172.25, -16024.984, -0.11368721, -0.15894653, -970169.44, -36045.402, 0.00000018875323, 9.99948, 9.994697 
4.7488874e+2, 2.1467437e+2, -896775.25, -922271.4, -13172.776, -0.06165717, -0.17743748, -891192.06, -55015.586, 0.000000013307983, 9.998178, 9.994771 
4.748751e+2, 2.2466788e+2, -833657.56, -876130.2, -20262.14, -0.020730658, -0.15008086, -825541.94, -87300.76, 0.00000000069387657, 9.997302, 9.991653 
4.7486046e+2, 2.3466027e+2, -741604.7, -781700.94, -25752.475, 0.0077502844, -0.07107355, -729016.7, -88697.97, 0.000000000009472845, 9.99692, 9.9915905 
4.74846e+2, 2.4465255e+2, -634558.7, -660811.44, -22099.725, 0.02119565, -0.07731759, -621980.94, -79586.484, 0.00000000000033105848, 9.996733, 9.993237 
4.7483173e+2, 2.5464484e+2, -535114.94, -560988.75, -13542.787, 0.017084053, -0.18429162, -529322.94, -84855.37, 0.0, 9.996778, 9.993329 
4.7481757e+2, 2.6463735e+2, -454382.72, -489279.6, -10550.097, 0.016342351, -0.1857348, -451441.13, -104900.305, 0.0, 9.996364, 9.991726 
4.7480348e+2, 2.7463028e+2, -370131.38, -397891.34, -15060.212, 0.019612078, -0.06738633, -363530.53, -114917.586, 0.0, 9.995415, 9.991726 
4.7479036e+2, 2.8462145e+2, -289684.7, -328015.28, -8947.366, 0.017841676, -0.033802375, -287699.0, -136998.94, 0.0, 9.995052, 9.989972 
4.7477832e+2, 2.9461074e+2, -187141.1, -227727.2, -7748.6533, 0.01037898, -0.10076857, -185712.05, -132908.83, 0.0, 9.995352, 9.989974 
4.7476792e+2, 3.046032e+2, -90725.19, -97065.66, 958.77997, 0.026731579, -0.11763965, -90583.38, -90583.38, 0.0, 9.996073, 9.995218 
4.7475928e+2, 3.1459892e+2, -73375.14, -88504.15, -4920.1924, 0.06922045, -0.06781427, -71915.79, -71915.79, 0.0, 9.997257, 9.995235 
4.850018e+2, 1.2472119e+2, -1704912.8, -1723748.6, -3230.3684, -0.1416246, -0.10812403, -1704374.3, 13347.38, 0.01049777, 10.001283, 9.998768 
4.8498976e+2, 1.3471998e+2, -1608215.4, -1627178.5, -4344.8857, -0.03183151, -0.102944456, -1607267.3, 12464.248, 0.0068823104, 10.0012245, 9.998699 
4.84978e+2, 1.447176e+2, -1528245.4, -1558573.5, 996.4492, 0.031141512, -0.117619954, -1528212.8, -6458.738, 0.0037656925, 10.000893, 9.9968605 
4.8496658e+2, 1.5471426e+2, -1439838.9, -1465682.9, 2045.5878, 0.04766499, -0.13659737, -1439678.0, -15891.054, 0.0016323061, 10.000258, 9.9968195 
4.8495463e+2, 1.647109e+2, -1351440.4, -1375798.0, -4371.86, 0.06135223, -0.13700193, -1350679.4, -24859.336, 0.00053782034, 9.999756, 9.996509 
4.8494205e+2, 1.7470764e+2, -1258593.4, -1280057.6, -10035.379, 0.07193707, -0.11833638, -1254632.4, -26780.387, 0.00013162919, 9.999392, 9.9965315 
4.8492885e+2, 1.8470271e+2, -1178794.0, -1222211.4, -10657.01, 0.02075645, -0.12578423, -1176319.3, -46419.086, 0.000023746588, 9.999507, 9.993739 
4.849149e+2, 1.9469602e+2, -1071442.4, -1120314.3, -5170.8174, -0.10014622, -0.1632447, -1070901.3, -38936.176, 0.0000031577385, 10.000168, 9.993678 
4.8490095e+2, 2.0469011e+2, -969983.4, -1010192.56, -10552.996, -0.13568507, -0.1656645, -967382.0, -33358.785, 0.00000031029586, 9.9999485, 9.994603 
4.8488706e+2, 2.1468514e+2, -889221.5, -919806.9, -14243.407, -0.07442334, -0.13086033, -883615.9, -47543.42, 0.000000022599854, 9.998736, 9.994671 
4.8487255e+2, 2.2467853e+2, -827377.3, -874580.06, -17420.244, -0.027960023, -0.10411961, -821644.6, -83506.12, 0.000000001223376, 9.997787, 9.991525 
4.8485744e+2, 2.3467016e+2, -739181.25, -782156.5, -13103.385, 0.0016681917, -0.08711569, -735501.06, -95278.53, 0.000000000023981294, 9.9971485, 9.991446 
4.8484266e+2, 2.4466261e+2, -632979.94, -652659.4, -9034.649, 0.023427112, -0.10321255, -629461.4, -87164.76, 0.00000000000083893737, 9.996516, 9.993894 
4.8482823e+2, 2.5465608e+2, -543013.25, -557108.4, -12354.394, 0.035324205, -0.16022632, -535837.6, -91479.49, 0.0, 9.995899, 9.994021 
4.8481402e+2, 2.6464853e+2, -465148.63, -508873.44, -14516.295, 0.03160709, -0.14312938, -460768.16, -114335.7, 0.0, 9.99624, 9.990453 
4.847999e+2, 2.746399e+2, -346683.28, -401869.13, -20323.31, 0.0099725, -0.042599883, -340006.6, -91486.22, 0.0, 9.997672, 9.99037 
4.8478663e+2, 2.8463054e+2, -243527.83, -302574.25, -16322.883, -0.00952304, -0.009181287, -239315.94, -88702.805, 0.0, 9.998072, 9.99026 
4.8477423e+2, 2.946204e+2, -156729.5, -209291.27, -14662.555, -0.026145743, -0.056690823, -152915.94, -100205.65, 0.0, 9.997269, 9.990316 
4.8476353e+2, 3.046127e+2, -101342.63, -102246.39, -2770.414, 0.017184902, -0.10030697, -98987.484, -98987.484, 0.0, 9.995338, 9.995221 
4.8475462e+2, 3.1460813e+2, -149181.6, -125043.87, 3404.3608, 0.13058057, -0.08202999, -124572.914, -124572.914, 0.0, 9.992048, 9.995242 
4.9500552e+2, 1.2473391e+2, -1707996.1, -1728800.4, -3809.3906, 0.10130959, -0.080309376, -1707320.5, 10276.417, 0.014911252, 10.001235, 9.9984455 
4.9499133e+2, 1.3473164e+2, -1611061.1, -1632143.5, -4835.2227, -0.0007048656, -0.14988984, -1610005.1, 9612.1045, 0.009830928, 10.001194, 9.998374 
4.9497813e+2, 1.4472894e+2, -1527210.1, -1555927.0, -1518.8079, -0.047927093, -0.1878677, -1527130.0, -5487.6772, 0.0054196375, 10.000876, 9.997044 
4.949661e+2, 1.547261e+2, -1438536.5, -1462779.1, -448.85397, -0.029278418, -0.17703316, -1438528.3, -14858.348, 0.0023727028, 10.000255, 9.997015 
4.949535e+2, 1.6472241e+2, -1361917.4, -1397240.8, -5883.659, -0.025579097, -0.14876468, -1360963.1, -35256.664, 0.00079196517, 9.999756, 9.995048 
4.9494034e+2, 1.7471792e+2, -1269404.3, -1302307.4, -11558.123, -0.03849542, -0.10257341, -1265750.0, -37998.508, 0.00019707251, 9.999397, 9.995011 
4.9492767e+2, 1.8471287e+2, -1168917.1, -1201927.0, -8350.898, -0.046854865, -0.109057836, -1166924.8, -37123.754, 0.000036298647, 9.999516, 9.995112 
4.9491554e+2, 1.9470736e+2, -1060842.9, -1098768.1, -2586.3955, -0.050826937, -0.17609464, -1060667.3, -28813.283, 0.0000049503406, 10.000188, 9.995133 
4.9490178e+2, 2.0470187e+2, -976061.8, -1023092.7, -14817.936, -0.050845332, -0.16615632, -971782.5, -37874.133, 0.00000050112493, 9.9999695, 9.9937105 
4.9488607e+2, 2.1469654e+2, -895790.25, -933824.4, -18759.617, -0.045579825, -0.07110972, -888094.56, -52131.66, 0.000000037748414, 9.998761, 9.993699 
4.9487016e+2, 2.2468995e+2, -819100.06, -857841.6, -19834.848, -0.049180888, -0.048147477, -810746.3, -72717.46, 0.0000000021194788, 9.997807, 9.992655 
4.9485394e+2, 2.3468201e+2, -730579.2, -764548.6, -15284.503, -0.063588984, -0.10811445, -724714.5, -84607.68, 0.000000000053309013, 9.997158, 9.99264 
4.9483842e+2, 2.4467456e+2, -639278.8, -665645.0, -11113.411, -0.051362388, -0.13209158, -635219.44, -93040.06, 0.0000000000018704428, 9.996519, 9.993003 
4.948237e+2, 2.5466776e+2, -550014.0, -571327.25, -14634.084, -0.009228664, -0.117561996, -542567.56, -98322.805, 0.0000000000000000000017017642, 9.995891, 9.993052 
4.9481022e+2, 2.6465908e+2, -475958.9, -531406.25, -9284.876, 0.02742982, -0.08901949, -474445.4, -128114.95, 0.000000000000000000000059654236, 9.996251, 9.988907 
4.947981e+2, 2.746483e+2, -356899.66, -424402.56, -14935.988, 0.05745084, -0.045916483, -353742.5, -105304.23, 0.0, 9.997736, 9.988797 
4.9478546e+2, 2.8463796e+2, -239891.64, -296897.63, -19381.832, 0.06097644, -0.046952505, -233926.16, -83386.125, 0.0, 9.998156, 9.990605 
4.947722e+2, 2.946281e+2, -152976.06, -202891.3, -18062.89, 0.035124518, -0.10467804, -147125.39, -94491.57, 0.0, 9.997333, 9.990721 
4.9475926e+2, 3.0462122e+2, -89766.21, -78209.66, -15421.886, 0.054816168, -0.17023966, -67519.08, -67519.08, 0.0, 9.995341, 9.996862 
4.9474657e+2, 3.1461892e+2, -138197.97, -99750.24, -9597.376, 0.13122052, -0.09159274, -97487.67, -97487.67, 0.0, 9.991942, 9.997023 
5.050065e+2, 1.2474636e+2, -1728731.6, -1737381.0, -217.60464, 0.15231155, -0.081125244, -1728726.1, -11251.182, 0.020533854, 9.999739, 9.998596 
5.0499266e+2, 1.3474426e+2, -1610507.5, -1630275.9, 2202.4058, 0.020390177, -0.14929679, -1610265.1, 9228.675, 0.013628187, 10.001157, 9.998523 
5.0497943e+2, 1.4474158e+2, -1515354.8, -1552656.9, 1639.4312, -0.04696349, -0.18350598, -1515282.9, 6236.135, 0.0075791995, 10.001786, 9.996826 
5.049669e+2, 1.5473855e+2, -1421422.0, -1457208.5, -818.7065, -0.038062572, -0.1689549, -1421403.3, 2144.8474, 0.0033562193, 10.001531, 9.996777 
5.04954e+2, 1.6473441e+2, -1338327.6, -1391329.6, -2730.6658, -0.047675766, -0.14845301, -1338187.4, -12598.522, 0.0011366707, 10.0015955, 9.994557 
5.049406e+2, 1.747292e+2, -1234472.8, -1291073.6, -735.3652, -0.07835771, -0.12247264, -1234463.3, -6822.574, 0.00028802847, 10.002017, 9.994503 
5.049277e+2, 1.8472418e+2, -1143399.5, -1184021.8, -511.2215, -0.072238296, -0.12461206, -1143393.0, -13702.981, 0.000054231128, 10.001007, 9.995606 
5.049151e+2, 1.9471951e+2, -1083093.6, -1103818.9, -2068.6165, -0.025381537, -0.16045353, -1082889.3, -51153.746, 0.0000075890043, 9.998413, 9.995651 
5.049007e+2, 2.0471418e+2, -1022463.06, -1050636.5, -15246.096, -0.012141468, -0.14133357, -1015792.1, -82003.305, 0.00000079091893, 9.997013, 9.993271 
5.0488406e+2, 2.1470822e+2, -925605.3, -953751.9, -15476.62, -0.03619327, -0.061154112, -918760.1, -82910.4, 0.00000006148999, 9.996954, 9.993218 
5.0486755e+2, 2.2470151e+2, -825397.3, -855327.8, -15126.454, -0.056819428, -0.04817458, -819084.2, -81167.7, 0.0000000035684378, 9.9971285, 9.9931555 
5.048512e+2, 2.3469406e+2, -720503.2, -753786.75, -15611.139, -0.0744641, -0.11315605, -714327.06, -74338.2, 0.000000000106599, 9.997584, 9.993172 
5.048354e+2, 2.4468672e+2, -624748.75, -665283.1, -13858.161, -0.064115316, -0.12518038, -620463.8, -78403.55, 0.0000000000037690797, 9.99779, 9.992418 
5.0482035e+2, 2.5467962e+2, -527671.0, -567794.44, -14936.0, -0.022045553, -0.07922837, -522721.6, -78592.01, 0.000000000000000000049289046, 9.997725, 9.99241 
5.048068e+2, 2.646704e+2, -463536.22, -524707.4, -607.1896, 0.020561812, -0.06974606, -463530.2, -117310.445, 0.0000000000000000000017269324, 9.997068, 9.988968 
5.047949e+2, 2.74659e+2, -385442.7, -437283.66, 6578.4443, 0.063458666, -0.10289557, -384620.94, -136288.44, 0.0, 9.99574, 9.988875 
5.047821e+2, 2.8464866e+2, -292196.88, -319703.25, 4076.9983, 0.088069595, -0.11606244, -291605.3, -141171.89, 0.0, 9.994458, 9.990824 
5.047681e+2, 2.9463962e+2, -211283.97, -228699.83, 3754.6035, 0.092305236, -0.114999905, -210509.0, -157988.86, 0.0, 9.993227, 9.990929 
5.047541e+2, 3.046326e+2, -112272.38, -89763.62, 1343.3235, 0.08527552, -0.198767, -89683.734, -89683.734, 0.0, 9.9938135, 9.996809 
5.0474006e+2, 3.1463036e+2, -71995.54, -66633.92, -6676.2695, 0.07439272, -0.10829702, -62120.336, -62120.336, 0.0, 9.996412, 9.997147 
5.150048e+2, 1.2475872e+2, -1725266.0, -1728984.6, 4674.738, 0.009848706, -0.11007534, -1722094.4, -4740.417, 0.027554031, 9.999693, 9.999186 
5.1499397e+2, 1.3475801e+2, -1606963.1, -1621778.3, 7195.0166, 0.03141847, -0.10035779, -1604044.0, 15315.987, 0.018419899, 10.001123, 9.999116 
5.1498204e+2, 1.447556e+2, -1520398.3, -1562395.9, 624.8047, 0.034412332, -0.10350121, -1520388.9, 993.8477, 0.010340942, 10.001762, 9.996173 
5.1496905e+2, 1.5475166e+2, -1426607.8, -1467557.3, -1965.4138, 0.021216365, -0.11173751, -1426513.6, -3092.7097, 0.0046347342, 10.001522, 9.996074 
5.14956e+2, 1.6474696e+2, -1334740.9, -1383948.3, -1329.2003, -0.0054227076, -0.13617827, -1334705.0, -9238.372, 0.0015935765, 10.001602, 9.995053 
5.14943e+2, 1.7474158e+2, -1230436.9, -1283246.8, 814.01996, -0.047733992, -0.17954569, -1230424.4, -2905.6921, 0.00041132476, 10.002046, 9.995019 
5.149288e+2, 1.8473671e+2, -1146064.8, -1189941.3, -10126.803, -0.055891953, -0.17337647, -1143840.3, -14273.437, 0.00007915646, 10.001028, 9.995189 
5.149135e+2, 1.9473253e+2, -1086327.3, -1110353.9, -11964.563, -0.025714029, -0.11463946, -1081385.6, -49776.664, 0.0000113579035, 9.998411, 9.995203 
5.148975e+2, 2.0472701e+2, -1022683.25, -1050664.3, -15706.107, -0.021781132, -0.09007491, -1015640.06, -81975.75, 0.0000012170423, 9.997, 9.993273 
5.1488084e+2, 2.1472013e+2, -925609.0, -953620.06, -15595.942, -0.047703672, -0.10400697, -918652.94, -82920.06, 0.000000097492624, 9.996953, 9.993224 
5.1486474e+2, 2.2471318e+2, -826425.7, -857569.94, -13313.214, -0.051039528, -0.10746009, -821510.44, -83708.84, 0.0000000058393703, 9.99714, 9.992994 
5.1484925e+2, 2.3470627e+2, -721363.75, -756023.4, -13734.139, -0.02871219, -0.10135398, -716581.4, -76712.3, 0.00000000019837329, 9.99761, 9.993004 
5.148338e+2, 2.4469902e+2, -626503.44, -669535.1, -13991.368, -0.012142575, -0.08054364, -622354.3, -80414.45, 0.000000000007134189, 9.997822, 9.99211 
5.148183e+2, 2.546915e+2, -529354.8, -572128.9, -15085.362, -0.0021254926, -0.045867905, -524569.8, -80556.35, 0.000000000000000013828485, 9.997766, 9.992091 
5.1480377e+2, 2.646825e+2, -450446.88, -498024.97, -5523.2915, 0.009795559, -0.08847336, -449814.1, -103713.43, 0.0000000000000000008730735, 9.997088, 9.990778 
5.1479024e+2, 2.7467197e+2, -372735.9, -410097.84, 1758.6149, 0.023592442, -0.21783948, -372653.3, -124451.23, 0.000000000000000000039538807, 9.995703, 9.990749 
5.1477623e+2, 2.8466275e+2, -292764.06, -319334.22, -188.11662, 0.06701064, -0.21773964, -292762.72, -142471.13, 0.0000000000000000000014097545, 9.994395, 9.990875 
5.1476175e+2, 2.9465505e+2, -212559.67, -229586.58, -509.96964, 0.14395958, -0.08261405, -212544.4, -160177.05, 0.0, 9.993155, 9.990899 
5.1474816e+2, 3.0464694e+2, -126138.14, -118459.03, 11435.779, 0.1064084, -0.18156412, -110235.45, -110235.45, 0.0, 9.993824, 9.994833 
5.1473546e+2, 3.1464237e+2, -81793.5, -90781.03, 3378.5464, -0.04601421, -0.119902715, -80665.12, -80665.12, 0.0, 9.996594, 9.995397 
5.2500653e+2, 1.24771334e+2, -1656802.4, -1697704.4, 4510.6636, -0.028762914, -0.12632288, -1656310.9, 60919.16, 0.036176804, 10.0046, 9.99897 
5.2499557e+2, 1.3477072e+2, -1593558.8, -1617629.3, 932.62885, 0.030773088, -0.08524893, -1593522.6, 25713.19, 0.024365017, 10.002167, 9.998893 
5.249835e+2, 1.4476833e+2, -1532234.5, -1567808.5, -4891.308, 0.050650213, -0.077587865, -1531574.3, -10315.293, 0.013811107, 10.0009365, 9.996211 
5.249704e+2, 1.547643e+2, -1433898.9, -1470790.3, -2036.8494, 0.029831644, -0.09830821, -1433786.8, -10488.964, 0.0062664114, 10.001009, 9.996106 
5.249572e+2, 1.6475977e+2, -1347053.1, -1383814.3, 566.61816, 0.007270906, -0.13283285, -1347044.4, -21702.824, 0.002187711, 10.000494, 9.995602 
5.2494395e+2, 1.7475489e+2, -1266296.5, -1294556.4, 2807.7742, -0.01788462, -0.18395469, -1266020.3, -38631.715, 0.0005752219, 9.999333, 9.995568 
5.2492917e+2, 1.8475005e+2, -1178319.5, -1212594.8, -10819.326, -0.034213524, -0.17029071, -1175190.0, -45753.586, 0.00011314291, 9.999127, 9.994571 
5.249126e+2, 1.9474548e+2, -1067887.4, -1108815.1, -14391.736, -0.03992897, -0.08664393, -1063333.4, -31850.244, 0.000016648359, 9.999981, 9.994548 
5.2489585e+2, 2.0473962e+2, -975832.1, -1027432.25, -16548.49, -0.04895192, -0.06477591, -970981.0, -37439.223, 0.0000018353236, 10.000165, 9.993324 
5.2487904e+2, 2.1473247e+2, -885579.1, -933562.06, -16063.335, -0.06241184, -0.1127864, -880698.1, -45086.246, 0.00000015174481, 9.999646, 9.993291 
5.2486277e+2, 2.2472525e+2, -801607.1, -850180.0, -13949.837, -0.054774716, -0.12685724, -797885.9, -60203.348, 0.000000009413484, 9.999025, 9.99259 
5.2484727e+2, 2.3471808e+2, -714233.4, -757377.0, -16413.56, -0.022948237, -0.10407562, -708698.94, -68946.445, 0.0000000003572173, 9.998295, 9.992586 
5.2483153e+2, 2.4471045e+2, -636323.7, -678931.8, -19922.244, 0.0033819464, -0.08148942, -628460.0, -86632.89, 0.000000000013245786, 9.997341, 9.991707 
5.2481556e+2, 2.5470236e+2, -555639.3, -589467.75, -21796.398, 0.02285535, -0.0628803, -544964.1, -101057.84, 0.00000000000000038532895, 9.996159, 9.991691 
5.2480036e+2, 2.6469368e+2, -462460.75, -491540.16, -14804.807, 0.026134351, -0.109013446, -456249.9, -110259.414, 0.000000000000000024719012, 9.995726, 9.991887 
5.24786e+2, 2.746844e+2, -358145.88, -390305.8, -13149.499, 0.010833828, -0.22637782, -353453.88, -105374.58, 0.0000000000000000011415998, 9.9961405, 9.991901 
5.247713e+2, 2.8467578e+2, -269293.2, -314523.44, -21125.338, 0.039944496, -0.19826469, -260961.19, -110797.984, 0.000000000000000000040680988, 9.996273, 9.99031 
5.24756e+2, 2.9466787e+2, -174388.67, -218503.48, -26171.11, 0.119470894, -0.021270683, -162219.53, -109977.58, 0.0, 9.996076, 9.990262 
5.247423e+2, 3.046588e+2, -111430.99, -112101.37, -6111.5034, 0.0917788, -0.17791897, -105645.49, -105645.49, 0.0, 9.994858, 9.994778 
5.247301e+2, 3.1465405e+2, -140428.94, -114164.81, 1363.6998, -0.03229418, -0.13206019, -114094.195, -114094.195, 0.0, 9.992361, 9.995835 
5.3501177e+2, 1.2478437e+2, -1665952.4, -1713292.9, -4618.2544, 0.033983205, -0.12875043, -1665506.1, 51595.2, 0.046640746, 10.004511, 9.997911 
5.3499764e+2, 1.3478252e+2, -1602085.1, -1633815.1, -8444.8, 0.01746188, -0.10448126, -1599977.6, 19142.6, 0.031651113, 10.00211, 9.997816 
5.34984e+2, 1.4477982e+2, -1527570.0, -1557306.4, -5136.856, 0.00075468235, -0.10663139, -1526707.6, -5561.0767, 0.018118156, 10.000906, 9.996935 
5.3497094e+2, 1.5477654e+2, -1428737.5, -1459694.9, -2013.786, -0.014089672, -0.12943073, -1428607.0, -5429.1167, 0.008324205, 10.000996, 9.996862 
5.3495747e+2, 1.6477293e+2, -1343049.4, -1375290.1, -3913.6453, -0.0113686975, -0.13817206, -1342581.1, -17368.178, 0.002952043, 10.000487, 9.996181 
5.349436e+2, 1.7476918e+2, -1262477.8, -1286356.1, -1769.3689, 0.010298917, -0.1340768, -1262347.3, -35097.637, 0.0007912693, 9.999324, 9.996126 
5.349285e+2, 1.8476428e+2, -1184239.0, -1224784.8, -7835.078, -0.008409225, -0.11442716, -1182777.6, -53479.117, 0.00015928308, 9.999135, 9.993734 
5.349123e+2, 1.9475836e+2, -1073609.1, -1121458.9, -11195.645, -0.071025975, -0.07834939, -1071119.3, -39761.043, 0.000024088196, 10.000026, 9.993662 
5.3489554e+2, 2.0475197e+2, -974326.25, -1025605.9, -18416.04, -0.097100735, -0.06723159, -968397.9, -34976.594, 0.000002741791, 10.000226, 9.993416 
5.3487855e+2, 2.1474522e+2, -883867.56, -931404.75, -18031.1, -0.083088964, -0.086253494, -877802.2, -42315.62, 0.00000023528594, 9.999713, 9.993402 
5.348617e+2, 2.2473769e+2, -805862.2, -859933.06, -16740.652, -0.07093902, -0.10453725, -801098.8, -63539.164, 0.000000015275107, 9.999069, 9.991901 
5.3484523e+2, 2.347294e+2, -719014.4, -767628.4, -19282.451, -0.06087209, -0.12212977, -712294.9, -72655.0, 0.00000000068071493, 9.998314, 9.991875 
5.348286e+2, 2.4472085e+2, -640140.06, -686501.75, -24449.563, -0.020591907, -0.13115866, -629629.2, -87905.87, 0.00000000005656776, 9.99733, 9.991194 
5.3481203e+2, 2.5471202e+2, -559682.4, -597023.7, -26363.64, 0.05282284, -0.13440245, -546047.75, -102238.12, 0.000000000026357007, 9.996126, 9.991187 
5.3479654e+2, 2.647037e+2, -460683.0, -487326.66, -13432.148, 0.07071445, -0.13114637, -455086.75, -109195.63, 0.00000000002066693, 9.9957075, 9.992182 
5.3478235e+2, 2.7469608e+2, -355549.22, -385432.25, -11796.454, 0.0265518, -0.11857287, -351453.8, -103487.484, 0.000000000014003002, 9.996166, 9.992221 
5.3476727e+2, 2.8468743e+2, -277262.9, -332539.22, -22322.223, 0.005548556, -0.047166437, -269374.3, -119322.914, 0.000000000007715369, 9.996342, 9.989042 
5.347512e+2, 2.9467762e+2, -182304.42, -237235.92, -27498.14, 0.010457196, 0.070803344, -170904.83, -118756.2, 0.0000000000033919358, 9.996179, 9.988929 
5.347367e+2, 3.0466783e+2, -96143.984, -81680.62, -16480.518, 0.037624165, -0.18856117, -70914.95, -70914.95, 0.0000000000012133894, 9.994922, 9.996827 
5.34724e+2, 3.1466556e+2, -121526.85, -72773.87, -9190.694, 0.12919025, -0.110159345, -71098.836, -71098.836, 0.00000000000036743037, 9.992275, 9.998708 
5.450149e+2, 1.2479872e+2, -1713726.8, -1742811.0, 5238.836, 0.05735053, -0.148326, -1712811.9, 4147.716, 0.05923043, 10.00133, 9.997446 
5.449999e+2, 1.347965e+2, -1601278.8, -1638826.9, 5597.7354, 0.018847138, -0.114070304, -1600462.0, 18520.69, 0.04050611, 10.002407, 9.997326 
5.4498553e+2, 1.4479375e+2, -1503759.5, -1541715.0, 10052.347, -0.007265151, -0.11264426, -1501261.6, 19748.514, 0.023422668, 10.002382, 9.997275 
5.44972e+2, 1.5479079e+2, -1423886.8, -1453471.3, 10060.662, -0.017932452, -0.14028947, -1420789.6, 2248.9763, 0.010902844, 10.001153, 9.997208 
5.4495806e+2, 1.6478737e+2, -1339712.6, -1375964.9, 4582.7007, -0.017634219, -0.1367934, -1339142.4, -14070.247, 0.003931351, 10.000807, 9.995979 
5.449438e+2, 1.747837e+2, -1233193.4, -1274666.6, 684.9941, -0.005520635, -0.10154155, -1233182.0, -6073.5933, 0.0010759311, 10.001423, 9.995903 
5.449287e+2, 1.847784e+2, -1152952.6, -1215016.3, -5289.3667, -0.021229824, -0.08587217, -1152505.0, -23344.107, 0.00022220632, 10.001495, 9.993256 
5.449128e+2, 1.9477159e+2, -1062647.6, -1121810.8, -5871.0015, -0.06785387, -0.092174634, -1062070.8, -30842.049, 0.000034662993, 10.001012, 9.993161 
5.448961e+2, 2.0476459e+2, -971816.4, -1029458.94, -15941.183, -0.084002025, -0.0938163, -967701.5, -34404.336, 0.000004095219, 10.000609, 9.992969 
5.448787e+2, 2.1475759e+2, -878333.06, -933839.8, -20073.086, -0.06604806, -0.09293653, -871834.75, -36470.11, 0.00000036841564, 10.000303, 9.992953 
5.448614e+2, 2.2474964e+2, -796076.4, -860054.1, -20586.768, -0.052995834, -0.10889093, -790024.44, -52582.94, 0.00000002634807, 9.999937, 9.991478 
5.4484427e+2, 2.3474076e+2, -703783.56, -765141.3, -21107.273, -0.0457476, -0.14338459, -697223.9, -57696.746, 0.0000000022674218, 9.999555, 9.991448 
5.44827e+2, 2.447316e+2, -618542.44, -682993.6, -26573.102, -0.007849979, -0.1621975, -608999.4, -67383.09, 0.0000000009499693, 9.999091, 9.990586 
5.4480946e+2, 2.5472212e+2, -527835.1, -588576.0, -29449.252, 0.06382768, -0.1680493, -515901.66, -72192.914, 0.0000000007524435, 9.998587, 9.990582 
5.447928e+2, 2.6471323e+2, -450465.0, -491196.34, -22650.621, 0.072485626, -0.15637079, -440370.7, -94574.305, 0.00000000059215455, 9.996774, 9.991409 
5.4477704e+2, 2.7470502e+2, -399297.1, -415327.38, -29543.18, 0.011181251, -0.121931195, -376701.1, -128823.3, 0.00000000040218157, 9.9935465, 9.991448 
5.447615e+2, 2.846964e+2, -330512.5, -349849.38, -30371.068, -0.015904645, -0.04747331, -308308.06, -158345.14, 0.00000000022185716, 9.992329, 9.989803 
5.447458e+2, 2.9468715e+2, -217674.33, -245643.5, -18799.572, -0.006220365, 0.048539825, -208228.33, -156174.39, 0.00000000009757752, 9.993373, 9.98971 
5.447304e+2, 3.0467743e+2, -126634.27, -93690.34, -17765.26, 0.028352026, -0.25575203, -85935.664, -85935.664, 0.000000000034918485, 9.992681, 9.997096 
5.4471534e+2, 3.146765e+2, -147399.67, -71916.305, -26064.787, 0.14848603, -0.07696614, -63790.707, -63790.707, 0.0000000000105772014, 9.989882, 9.999946 
5.5501604e+2, 1.2481463e+2, -1714677.3, -1742254.8, 8670.595, 0.038770653, -0.18534406, -1712177.6, 4625.0625, 0.07429231, 10.001241, 9.997525 
5.5500245e+2, 1.3481286e+2, -1601973.0, -1638227.1, 9084.224, 0.03429041, -0.113131106, -1599824.1, 18997.465, 0.051209513, 10.002347, 9.9973955 
5.549882e+2, 1.4481027e+2, -1505036.8, -1543059.8, 5264.0933, 0.026323535, -0.09457624, -1504321.4, 16526.406, 0.029924188, 10.002338, 9.997199 
5.549735e+2, 1.5480715e+2, -1424944.5, -1454969.8, 5103.608, 0.01763859, -0.13040851, -1424100.6, -1222.1326, 0.014122311, 10.001127, 9.997113 
5.5495894e+2, 1.6480316e+2, -1346932.4, -1390699.0, 6522.0317, -0.012880846, -0.12876275, -1345981.1, -21063.082, 0.005183733, 10.000812, 9.994971 
5.5494463e+2, 1.7479853e+2, -1240263.4, -1289679.0, 2797.1138, -0.06814593, -0.087214746, -1240105.5, -13141.425, 0.0014511801, 10.0014515, 9.994864 
5.549297e+2, 1.847925e+2, -1153296.0, -1216477.5, -7249.94, -0.07511349, -0.08526627, -1152474.8, -23451.498, 0.00030831166, 10.001535, 9.993133 
5.5491424e+2, 1.9478522e+2, -1062997.1, -1123244.1, -7861.797, -0.02985948, -0.12836356, -1061988.1, -30894.04, 0.00004982162, 10.001051, 9.99304 
5.5489755e+2, 2.047775e+2, -978724.3, -1044242.94, -17128.848, -0.0076597035, -0.14495836, -974516.5, -41347.4, 0.000006176785, 10.000636, 9.991946 
5.548796e+2, 2.1476956e+2, -885409.3, -949032.75, -21344.781, -0.010386896, -0.13442215, -878911.94, -43665.734, 0.0000006211789, 10.000335, 9.9918995 
5.5486184e+2, 2.2476107e+2, -796777.4, -862131.75, -22034.828, -0.00015931117, -0.14156817, -790042.25, -52713.72, 0.00000007827174, 9.999969, 9.991319 
5.5484456e+2, 2.3475213e+2, -704286.7, -766902.75, -22535.69, 0.024027113, -0.16898704, -697019.5, -57604.78, 0.000000032523523, 9.999591, 9.991308 
5.5482656e+2, 2.4474266e+2, -623238.56, -693482.75, -28299.791, 0.041584156, -0.17434509, -613255.9, -71749.266, 0.000000026481137, 9.99913, 9.989849 
5.5480796e+2, 2.5473264e+2, -532402.75, -599164.1, -31284.813, 0.052090432, -0.16051053, -520034.03, -76429.72, 0.000000023367745, 9.998642, 9.989829 
5.547891e+2, 2.6472202e+2, -463895.88, -519504.2, -35078.773, 0.02618321, -0.18595558, -446938.53, -101230.555, 0.000000019406484, 9.996793, 9.989465 
5.5477e+2, 2.7471086e+2, -413969.0, -444377.25, -42405.125, -0.03971211, -0.24797055, -384124.7, -136307.42, 0.00000001384622, 9.9934845, 9.989492 
5.547536e+2, 2.8470233e+2, -310800.84, -307186.84, -27155.531, -0.0249724, -0.21292521, -281778.25, -131877.3, 0.000000008052487, 9.992257, 9.992751 
5.5473995e+2, 2.9469633e+2, -196735.81, -201126.61, -14552.263, 0.07721278, -0.099010296, -184214.28, -132255.14, 0.000000003791173, 9.993332, 9.992773 
5.5472344e+2, 3.0468747e+2, -139993.27, -120688.38, -28000.258, 0.067078315, -0.38488707, -100723.53, -100723.53, 0.0000000014973157, 9.992659, 9.995249 
5.547037e+2, 3.146866e+2, -152957.23, -82840.81, -37440.566, 0.007652623, -0.0005367669, -66606.98, -66606.98, 0.00000000052600757, 9.989871, 9.999192 
5.6501824e+2, 1.2483103e+2, -1678162.6, -1718340.6, 5136.413, 0.013478221, -0.15967757, -1677516.4, 39125.984, 0.09226395, 10.003765, 9.997922 
5.6500405e+2, 1.3482925e+2, -1623190.4, -1644747.9, 8306.347, 0.0498901, -0.12861404, -1620361.1, -1700.2537, 0.06411254, 10.000646, 9.99778 
5.6498945e+2, 1.4482678e+2, -1543893.9, -1563071.5, 9380.36, 0.04621222, -0.113898695, -1540068.6, -19382.592, 0.037873108, 9.999697, 9.997125 
5.6497437e+2, 1.5482391e+2, -1426940.4, -1457102.9, 9001.559, 0.0020195467, -0.1141602, -1424458.3, -1743.438, 0.018133987, 10.001041, 9.997009 
5.6495994e+2, 1.6481969e+2, -1335986.6, -1391601.5, 13190.297, -0.040428985, -0.103639275, -1333016.9, -8259.947, 0.006783829, 10.001823, 9.994418 
5.6494623e+2, 1.748143e+2, -1236427.9, -1294386.5, 12750.905, -0.081983455, -0.0822824, -1233746.6, -6936.4385, 0.0019464903, 10.001995, 9.994279 
5.649314e+2, 1.848079e+2, -1147352.5, -1212669.5, 2057.6775, -0.07541739, -0.09184764, -1147287.8, -18415.041, 0.00042714865, 10.001896, 9.993214 
5.6491566e+2, 1.9480067e+2, -1055355.5, -1118681.1, 2691.1697, -0.016445862, -0.13680229, -1055241.4, -24299.197, 0.00007246469, 10.001531, 9.993114 
5.6489897e+2, 2.0479257e+2, -965615.5, -1046856.1, -1836.281, 0.013588059, -0.15404084, -965574.0, -32553.396, 0.000010115462, 10.001918, 9.991141 
5.648815e+2, 2.1478383e+2, -849923.06, -941150.6, -4437.5864, 0.012084203, -0.14250317, -849707.75, -14601.757, 0.0000016666178, 10.003156, 9.991066 
5.648635e+2, 2.2477444e+2, -760057.2, -855859.9, -12935.508, 0.019500291, -0.14741172, -758341.4, -21143.922, 0.0000006797035, 10.002964, 9.990294 
5.6484514e+2, 2.347645e+2, -686386.7, -769918.0, -20671.94, 0.0365016, -0.17152567, -681550.9, -42257.418, 0.0000005141414, 10.001306, 9.990274 
5.6482637e+2, 2.4475417e+2, -611883.3, -698230.9, -28028.184, 0.04594023, -0.1657949, -603583.25, -62189.395, 0.0000004503673, 10.00033, 9.988954 
5.648073e+2, 2.5474343e+2, -515693.47, -601183.44, -32166.094, 0.046808794, -0.13296418, -504942.75, -61444.26, 0.00000040433733, 10.000203, 9.988945 
5.6478673e+2, 2.6473194e+2, -439696.94, -513738.72, -41490.36, 0.018723745, -0.17718792, -421112.1, -75501.59, 0.00000033979248, 9.99868, 9.988954 
5.6476456e+2, 2.747197e+2, -384613.06, -435907.0, -37705.582, -0.040468752, -0.297579, -364658.72, -116928.805, 0.000000245083, 9.99571, 9.989 
5.64746e+2, 2.8471157e+2, -300839.88, -287948.1, -16270.054, -0.012913261, -0.25956666, -276893.56, -127084.516, 0.00000014422194, 9.992286, 9.994064 
5.647312e+2, 2.9470754e+2, -259620.48, -216788.27, -16747.758, 0.109272905, -0.08173538, -211017.31, -159169.55, 0.0000000689007, 9.988374, 9.994103 
5.64714e+2, 3.0469847e+2, -210954.9, -163627.78, -26848.264, 0.0704516, -0.41971198, -151503.17, -151503.17, 0.000000027736029, 9.988182, 9.994462 
5.646941e+2, 3.1469658e+2, -118442.83, -58368.105, -27047.96, -0.0480151, -0.056505185, -47984.74, -47984.74, 0.000000009979728, 9.991904, 9.999881 
5.750217e+2, 1.248482e+2, -1676791.6, -1710171.3, -6157.797, -0.020651232, -0.07101313, -1675691.9, 40784.047, 0.11375018, 10.0036125, 9.998594 
5.750048e+2, 1.3484588e+2, -1619955.0, -1635518.6, -4150.927, 0.06556151, -0.16171175, -1618917.1, -418.71375, 0.07970562, 10.000539, 9.99845 
5.749892e+2, 1.4484346e+2, -1545638.3, -1565005.4, 13603.794, 0.051763237, -0.17140684, -1538623.5, -18100.592, 0.047625937, 9.999636, 9.99702 
5.749747e+2, 1.5484129e+2, -1428426.6, -1459351.8, 13587.971, -0.06718945, -0.09072473, -1423304.6, -759.02405, 0.023162073, 10.001017, 9.996865 
5.749612e+2, 1.648371e+2, -1336881.3, -1393278.5, 13468.478, -0.10159353, -0.060408074, -1333829.9, -9242.664, 0.008851612, 10.001827, 9.994296 
5.749486e+2, 1.7483112e+2, -1237281.3, -1296261.9, 13049.885, -0.04598073, -0.086803354, -1234522.9, -7877.374, 0.0026181845, 10.002011, 9.994138 
5.749338e+2, 1.8482466e+2, -1145190.5, -1208597.8, 432.67102, -0.0219617, -0.105722755, -1145187.5, -16479.43, 0.0006046686, 10.001921, 9.993474 
5.749171e+2, 1.9481803e+2, -1053167.8, -1114868.6, 1101.033, -0.031243652, -0.11772767, -1053148.1, -22376.186, 0.000116538424, 10.00157, 9.99335 
5.7490057e+2, 2.0480992e+2, -968958.2, -1054665.0, 2797.813, -0.024906853, -0.12070534, -968866.94, -36016.15, 0.0000252647, 10.001964, 9.990586 
5.748846e+2, 2.1480054e+2, -853191.7, -949393.75, 366.03574, -0.002873305, -0.11635154, -853190.3, -18247.49, 0.000010693578, 10.003228, 9.990466 
5.7486635e+2, 2.2478981e+2, -773029.0, -884126.2, -18906.695, 0.00062763784, -0.12506863, -769899.56, -32852.176, 0.000007702296, 10.003031, 9.988331 
5.7484597e+2, 2.347779e+2, -700058.44, -798848.25, -27028.56, -0.01424991, -0.14878683, -693147.06, -53983.92, 0.000006484987, 10.001339, 9.98828 
5.7482624e+2, 2.4476609e+2, -619673.4, -714396.4, -28538.137, 0.0011042916, -0.13461754, -611739.9, -70461.56, 0.000005821211, 10.000334, 9.987847 
5.748076e+2, 2.5475445e+2, -522977.47, -616763.3, -32680.125, 0.047176328, -0.08452181, -512713.25, -69321.04, 0.000005302518, 10.000228, 9.987868 
5.7478577e+2, 2.647429e+2, -431879.8, -498528.56, -52401.566, 0.05104312, -0.12668681, -403103.94, -57599.336, 0.0000045081524, 9.998724, 9.989967 
5.747609e+2, 2.747316e+2, -375997.4, -419546.8, -48718.277, 0.01109518, -0.26252186, -344409.13, -96794.14, 0.000003289673, 9.995777, 9.99008 
5.747386e+2, 2.8472424e+2, -304402.8, -295669.22, -31377.236, 0.019959992, -0.17613253, -268356.34, -118669.71, 0.0000019627548, 9.992294, 9.993529 
5.747192e+2, 2.947208e+2, -265346.16, -226329.75, -31930.438, 0.08083238, 0.11631092, -208419.73, -156698.89, 0.0000009543975, 9.988271, 9.993497 
5.7470167e+2, 3.0471033e+2, -208987.55, -157518.4, -13382.476, 0.032249115, -0.35018358, -154246.78, -154246.78, 0.0000003929138, 9.988109, 9.994914 
5.7468647e+2, 3.147065e+2, -100749.89, -23393.055, -12294.411, -0.009856557, -0.23147213, -21486.098, -21486.098, 0.0000001451773, 9.991997, 10.0022335 
5.850229e+2, 1.24863885e+2, -1747988.5, -1739609.9, -8569.284, 0.026357407, -0.07969825, -1734260.8, -17937.748, 0.13972558, 9.9981165, 9.999227 
5.850054e+2, 1.3486251e+2, -1608795.0, -1623046.1, -6219.9453, 0.047031865, -0.13816503, -1606462.3, 11873.962, 0.09881921, 10.00108, 9.999049 
5.8498985e+2, 1.4486024e+2, -1507576.6, -1551726.9, 11224.303, 0.012547588, -0.13582951, -1504887.0, 15471.942, 0.059834994, 10.002529, 9.996521 
5.8497626e+2, 1.5485746e+2, -1413578.4, -1458019.4, 8166.731, -0.078961074, -0.06610552, -1412125.1, 10262.455, 0.029670905, 10.002305, 9.996335 
5.849633e+2, 1.6485293e+2, -1332223.3, -1388604.3, 5390.267, -0.08327447, -0.053520013, -1331712.5, -7280.429, 0.011689436, 10.002035, 9.994519 
5.84951e+2, 1.7484693e+2, -1239457.1, -1295064.5, 7318.654, 0.004187476, -0.103931256, -1238510.1, -12020.406, 0.0036562744, 10.0017605, 9.994346 
5.849364e+2, 1.8484044e+2, -1140120.4, -1209395.8, -3779.7095, 0.017369203, -0.12241204, -1139914.8, -11362.261, 0.00096601923, 10.002404, 9.993191 
5.849197e+2, 1.9483379e+2, -1019438.06, -1102089.3, -7713.8633, -0.04781683, -0.10798746, -1018724.3, 11892.844, 0.0002730844, 10.004024, 9.993038 
5.849035e+2, 2.0482528e+2, -939288.2, -1048912.4, -10788.183, -0.049041454, -0.09515218, -938236.56, -5536.367, 0.00012366689, 10.004356, 9.989828 
5.848881e+2, 2.1481518e+2, -856770.06, -960092.75, -15045.738, 0.017190842, -0.08621444, -854623.7, -19824.17, 0.00008725695, 10.003367, 9.989679 
5.848697e+2, 2.2480373e+2, -775213.0, -890922.25, -32149.234, 0.02817168, -0.1011283, -766880.56, -29969.365, 0.00007172896, 10.003123, 9.987832 
5.8484846e+2, 2.3479116e+2, -668096.8, -789121.56, -29271.43, -0.017934285, -0.14229305, -661388.94, -22355.691, 0.0000625581, 10.003765, 9.987774 
5.8482784e+2, 2.4477872e+2, -581536.75, -701835.25, -23998.256, -0.012355683, -0.13806342, -576926.06, -35771.594, 0.000057217287, 10.0031805, 9.987331 
5.8480835e+2, 2.5476655e+2, -508640.9, -615623.1, -23978.584, 0.046594627, -0.0906448, -503512.28, -60238.55, 0.000052776104, 10.001437, 9.987364 
5.847847e+2, 2.6475456e+2, -434996.1, -507838.53, -55927.12, 0.063291214, -0.12057263, -404676.4, -59285.344, 0.00004531936, 9.998816, 9.989294 
5.847568e+2, 2.7474284e+2, -384657.28, -431040.9, -65907.81, 0.037263457, -0.2281023, -337979.94, -90474.08, 0.000033426346, 9.995473, 9.989455 
5.8473104e+2, 2.8473496e+2, -311379.2, -311346.75, -58619.52, 0.02612473, -0.11595191, -252743.45, -103159.89, 0.000020217725, 9.9923315, 9.992453 
5.847075e+2, 2.947306e+2, -255316.02, -234346.3, -62871.734, 0.027663933, 0.19750443, -181091.16, -129464.21, 0.000010005793, 9.989488, 9.992381 
5.846886e+2, 3.0471984e+2, -219993.1, -143946.97, -28003.797, -0.0067548566, -0.32254758, -134747.52, -134747.52, 0.000004209121, 9.986515, 9.996633 
5.8467513e+2, 3.1471756e+2, -201227.8, -27553.229, -16251.992, 0.084601514, -0.23582453, -26045.5, -26045.5, 0.0000015927792, 9.983181, 10.006217 
5.950223e+2, 1.24878496e+2, -1747090.1, -1733502.4, 1325.1349, 0.1516688, -0.18583675, -1733374.3, -17195.059, 0.17202796, 9.997946, 9.999722 
5.95006e+2, 1.3487951e+2, -1607464.0, -1617163.3, 3027.5188, -0.007922673, -0.055698503, -1606596.6, 11573.791, 0.123174176, 10.000991, 9.999489 
5.949915e+2, 1.4487748e+2, -1514673.5, -1565563.6, 9631.454, -0.07273727, -0.005683318, -1512911.6, 7279.5483, 0.07603089, 10.002481, 9.995595 
5.9497905e+2, 1.5487267e+2, -1420839.5, -1472129.8, 6350.4395, -0.033636898, -0.041418564, -1420065.0, 2173.6912, 0.038938075, 10.002264, 9.995389 
5.949663e+2, 1.6486737e+2, -1328900.5, -1381064.8, 3555.4163, 0.013324611, -0.08379646, -1328659.3, -4369.481, 0.016305398, 10.002015, 9.995036 
5.9495336e+2, 1.7486192e+2, -1235967.9, -1287528.0, 5623.735, 0.06651996, -0.13392676, -1235361.6, -9020.635, 0.0058384426, 10.001756, 9.994855 
5.949391e+2, 1.8485533e+2, -1146356.0, -1222452.9, 1849.2144, 0.040823128, -0.14202626, -1146311.0, -17906.346, 0.0021234495, 10.002428, 9.992286 
5.9492356e+2, 1.9484794e+2, -1025438.5, -1115447.5, -2033.4076, -0.067501284, -0.107586406, -1025392.56, 5084.9653, 0.0010452687, 10.004081, 9.992095 
5.9490776e+2, 2.0483863e+2, -945899.1, -1063467.1, -14928.733, -0.059635162, -0.07669087, -944033.1, -11463.945, 0.0007333191, 10.004399, 9.988812 
5.94892e+2, 2.1482769e+2, -863857.56, -975237.6, -19437.242, 0.072047465, -0.051833387, -860563.0, -25885.941, 0.000601976, 10.003395, 9.988629 
5.9487355e+2, 2.2481608e+2, -767590.25, -875594.7, -29819.686, 0.10279064, -0.07597053, -759904.1, -23114.246, 0.00051892584, 10.003146, 9.988864 
5.9485275e+2, 2.3480421e+2, -659930.44, -773325.6, -26898.355, 0.025223775, -0.15374756, -653873.44, -14969.063, 0.00046442408, 10.003817, 9.988824 
5.948312e+2, 2.4479206e+2, -580323.44, -700097.5, -30326.273, 0.004355156, -0.17939125, -573082.7, -32060.197, 0.00043175695, 10.003217, 9.987428 
5.9480983e+2, 2.5477973e+2, -507804.25, -614131.8, -30739.68, 0.04318357, -0.15587695, -499557.0, -56413.902, 0.00040214084, 10.001454, 9.987452 
5.9478337e+2, 2.6476675e+2, -453269.13, -545412.44, -68571.27, 0.05201023, -0.16373865, -416729.53, -71458.83, 0.00034801927, 9.998793, 9.986741 
5.947522e+2, 2.747532e+2, -402861.72, -468726.03, -79114.32, 0.03230474, -0.19498442, -350099.06, -102693.914, 0.00025924318, 9.995465, 9.986885 
5.947231e+2, 2.8474322e+2, -323264.66, -336262.5, -70111.086, -0.0005836414, -0.080857456, -259351.92, -109847.93, 0.00015903635, 9.992335, 9.990748 
5.946962e+2, 2.947363e+2, -266906.28, -259500.03, -74034.56, -0.054816503, 0.1467847, -189076.05, -137503.61, 0.00008019, 9.989531, 9.99064 
5.946747e+2, 3.0472642e+2, -199213.58, -100039.4, -42466.336, -0.049206343, -0.3412928, -84340.43, -84340.43, 0.000034486755, 9.986481, 9.999656 
5.9465957e+2, 3.1472978e+2, -165152.6, 53277.625, -30238.313, 0.22947426, -0.017161896, 57386.367, 57386.367, 0.000013352514, 9.982928, 10.011886 
6.050213e+2, 1.2489261e+2, -1708538.5, -1718394.9, -1384.4601, 0.11843294, -0.17474051, -1708347.8, 7692.5635, 0.21414438, 10.000906, 9.999312 
6.0500693e+2, 1.3489299e+2, -1607863.9, -1621722.9, -5571.1787, -0.012007713, -0.06807499, -1605902.0, 12135.472, 0.15642758, 10.001188, 9.999101 
6.0499364e+2, 1.4489056e+2, -1529535.0, -1572898.8, -5715.503, -0.05452844, -0.03753449, -1528794.3, -8732.668, 0.09989448, 10.001415, 9.995624 
6.049813e+2, 1.5488565e+2, -1428823.5, -1476061.4, -2205.7114, -0.0018784857, -0.08754386, -1428720.8, -6611.111, 0.054466818, 10.001709, 9.995398 
6.0496837e+2, 1.6488074e+2, -1327685.0, -1372468.0, -2355.7974, 0.03159377, -0.1279391, -1327561.4, -3404.58, 0.025858134, 10.001745, 9.995756 
6.049547e+2, 1.7487618e+2, -1235904.3, -1279706.1, 445.12225, 0.044064704, -0.1595711, -1235899.8, -9700.496, 0.011924625, 10.001418, 9.995555 
6.049411e+2, 1.8486978e+2, -1155531.5, -1230876.4, 6267.564, 0.023532208, -0.16674027, -1155013.8, -26752.596, 0.0064839656, 10.001967, 9.991941 
6.049277e+2, 1.9486186e+2, -1036675.7, -1125327.5, 6327.1416, -0.03194105, -0.14924021, -1036226.4, -5887.4116, 0.0045644, 10.003498, 9.991709 
6.0491264e+2, 2.0485242e+2, -936558.25, -1054004.5, -4934.1704, -0.03222141, -0.13298082, -936351.4, -3919.4924, 0.003766136, 10.004828, 9.989243 
6.0489625e+2, 2.1484177e+2, -823965.06, -951196.3, 864.8473, 0.027833115, -0.120471224, -823959.2, 10577.267, 0.0032812916, 10.005921, 9.989034 
6.048774e+2, 2.2483055e+2, -730344.9, -855742.6, -9181.247, 0.051143836, -0.13458465, -729676.2, 6969.6997, 0.0029228232, 10.005607, 9.989018 
6.0485667e+2, 2.3481917e+2, -657071.6, -770588.2, -13794.795, 0.033022318, -0.1778443, -655419.25, -16663.166, 0.0026760742, 10.003948, 9.988941 
6.048341e+2, 2.4480756e+2, -591066.4, -697490.1, -23122.348, 0.025007458, -0.18599795, -586259.75, -45390.6, 0.0025205046, 10.002138, 9.988119 
6.048106e+2, 2.5479594e+2, -517992.8, -610868.75, -19358.518, 0.029431762, -0.165425, -514119.38, -71136.29, 0.002361557, 10.000391, 9.988178 
6.047825e+2, 2.647827e+2, -444450.0, -555043.5, -46440.824, 0.026717348, -0.17817241, -427535.4, -82422.125, 0.002053937, 9.999965, 9.985512 
6.0475045e+2, 2.7476782e+2, -323943.9, -444233.0, -46631.387, 0.017354624, -0.21318023, -307984.22, -60724.125, 0.0015438155, 10.001402, 9.985688 
6.04718e+2, 2.8475657e+2, -251082.94, -311676.8, -46823.9, 0.0012213391, -0.12291111, -225609.08, -76238.28, 0.0009609978, 9.997654, 9.989856 
6.046856e+2, 2.9474822e+2, -286203.1, -279407.88, -44282.383, -0.027507927, 0.054333273, -238392.94, -186940.45, 0.0004941326, 9.9886055, 9.989714 
6.046594e+2, 3.0473754e+2, -266323.5, -144354.52, -16849.623, -0.03422415, -0.4109956, -142069.61, -142069.61, 0.00021732651, 9.982388, 9.99858 
6.046405e+2, 3.1474105e+2, -212860.94, 48322.14, -37206.57, 0.23212057, 0.021974858, 53518.96, 53518.96, 0.0000860134, 9.978854, 10.013524 
6.150203e+2, 1.24906786e+2, -1716890.3, -1737582.8, -2968.5513, -0.07819521, -0.045009796, -1716472.8, -572.22156, 0.2719626, 10.0008335, 9.998034 
6.1500865e+2, 1.3490346e+2, -1616059.6, -1639379.6, -6928.0728, 0.03693128, -0.17837395, -1614156.8, 3775.7717, 0.2054351, 10.001154, 9.997897 
6.1499625e+2, 1.4490007e+2, -1523807.3, -1559833.4, -6067.2773, 0.06743695, -0.23246714, -1522812.9, -2847.7305, 0.13904995, 10.00137, 9.996528 
6.149832e+2, 1.5489691e+2, -1423443.6, -1463408.8, -2148.443, 0.013711942, -0.20263, -1423328.4, -1332.6053, 0.08427048, 10.001651, 9.996281 
6.149695e+2, 1.6489342e+2, -1322751.9, -1360586.1, -4630.45, -0.03050277, -0.18371925, -1322193.5, 1835.9343, 0.048326954, 10.001692, 9.996584 
6.1495507e+2, 1.7489003e+2, -1230707.8, -1268018.3, -1797.355, -0.06422043, -0.18025148, -1230621.3, -4559.608, 0.02956751, 10.001388, 9.996359 
6.149425e+2, 1.84884e+2, -1154578.0, -1228456.1, 11270.192, -0.035383213, -0.19621482, -1152897.0, -24777.313, 0.021264603, 10.001963, 9.992104 
6.149321e+2, 1.948757e+2, -1035693.6, -1123260.9, 11537.568, 0.05909895, -0.23466326, -1034198.94, -3998.9053, 0.017619368, 10.003514, 9.991836 
6.149182e+2, 2.0486677e+2, -923182.06, -1026078.6, -913.39136, 0.03252568, -0.2670969, -923173.94, 9113.084, 0.015607347, 10.004834, 9.991139 
6.149007e+2, 2.1485761e+2, -810261.7, -923133.8, 5022.795, -0.1214929, -0.29618332, -810038.6, 24337.734, 0.014125211, 10.005969, 9.990922 
6.148812e+2, 2.2484723e+2, -735276.3, -867139.4, -15297.938, -0.13399473, -0.28025126, -733524.75, 2953.339, 0.012935217, 10.005667, 9.988206 
6.148603e+2, 2.3483609e+2, -663420.56, -783855.94, -20450.248, 0.0027562228, -0.21549854, -660042.75, -21454.943, 0.012073571, 10.003961, 9.988023 
6.148365e+2, 2.4482529e+2, -582515.06, -678537.56, -29312.008, 0.049349435, -0.15649751, -574274.4, -33580.414, 0.011475319, 10.002092, 9.989425 
6.1481065e+2, 2.548152e+2, -508809.75, -591282.0, -26415.922, 0.0008438786, -0.11613068, -501074.25, -58281.12, 0.01077239, 10.000382, 9.989507 
6.1478204e+2, 2.648024e+2, -442884.0, -552140.06, -40734.633, -0.01995033, -0.16084853, -429368.56, -84450.73, 0.009386971, 9.999964, 9.985719 
6.147517e+2, 2.747868e+2, -319626.16, -439431.25, -40676.504, -0.0134164095, -0.28958833, -307120.88, -60051.563, 0.0071094176, 10.001581, 9.9859295 
6.147161e+2, 2.847752e+2, -248590.5, -310143.44, -80397.25, 0.03237846, -0.25486422, -193280.33, -44098.563, 0.0044909846, 9.997777, 9.9899 
6.146756e+2, 2.9476675e+2, -286533.38, -279625.44, -77875.21, 0.11743732, -0.0892125, -205127.64, -153864.45, 0.0023565479, 9.988556, 9.98972 
6.146423e+2, 3.0475348e+2, -308482.28, -228201.42, -29889.947, 0.037739396, -0.5415398, -218295.23, -218295.23, 0.0010602814, 9.982219, 9.992929 
6.1461747e+2, 3.147511e+2, -237050.94, 1957.98, -50365.355, 0.058079995, -0.124220215, 12137.695, 12137.695, 0.0004286971, 9.978682, 10.010426 
6.250212e+2, 1.2491722e+2, -1760768.3, -1754448.0, 3311.1492, 0.09417201, -0.15704066, -1753031.0, -37233.668, 0.3540694, 9.997644, 9.998451 
6.250107e+2, 1.3491526e+2, -1598593.4, -1623953.6, 8449.352, 0.060983755, -0.19503348, -1596036.1, 21779.93, 0.28101575, 10.002622, 9.998277 
6.249985e+2, 1.4491275e+2, -1488675.4, -1530855.4, 1223.882, 0.02838243, -0.21497197, -1488639.9, 31200.402, 0.2064144, 10.003959, 9.997237 
6.249845e+2, 1.5491e+2, -1423978.9, -1455572.8, 3094.948, -0.0017558408, -0.214275, -1423678.5, -1812.0575, 0.14297219, 10.001251, 9.997008 
6.2497103e+2, 1.6490676e+2, -1334436.6, -1369281.1, 3856.947, -0.009968843, -0.19462551, -1334014.9, -10116.899, 0.09946146, 10.001004, 9.99633 
6.249581e+2, 1.7490342e+2, -1205724.6, -1258269.3, -1802.6698, 0.004459613, -0.15943632, -1205662.8, 20267.955, 0.07504083, 10.003331, 9.996083 
6.2494636e+2, 1.8489774e+2, -1113402.0, -1199166.0, 7641.68, 0.029666536, -0.16858186, -1112726.5, 15259.5625, 0.06280723, 10.004442, 9.992906 
6.249361e+2, 1.9489005e+2, -1021061.0, -1107298.9, 11893.807, 0.067856595, -0.22453547, -1019450.75, 10609.605, 0.056373473, 10.004169, 9.992615 
6.249222e+2, 2.0488179e+2, -942974.44, -1029852.06, -6861.3564, 0.040427737, -0.2533505, -942435.9, -10295.443, 0.052099902, 10.003205, 9.991679 
6.2490517e+2, 2.1487343e+2, -870087.0, -946859.0, -12060.382, -0.05740478, -0.25646955, -868237.0, -34015.34, 0.048556924, 10.001612, 9.991425 
6.248856e+2, 2.2486416e+2, -775412.0, -865096.94, -25227.938, -0.077165574, -0.25040415, -768802.56, -32490.34, 0.04549896, 10.001987, 9.990133 
6.2486446e+2, 2.3485444e+2, -641980.9, -752553.7, -10087.864, -0.011512321, -0.2337812, -641068.06, -2660.7258, 0.043111812, 10.00451, 9.989892 
6.248399e+2, 2.4484414e+2, -537929.4, -664025.4, -21070.766, 0.015911048, -0.18910767, -534501.6, 6006.9897, 0.041191194, 10.005415, 9.98883 
6.248132e+2, 2.5483367e+2, -450095.47, -570595.25, -34724.74, 0.00025696392, -0.12392822, -440805.03, 1806.3677, 0.038607765, 10.004669, 9.988888 
6.2478304e+2, 2.648212e+2, -406420.5, -520756.5, -51807.92, -0.010087714, -0.16480504, -386437.75, -41705.105, 0.033593718, 10.001863, 9.98695 
6.247514e+2, 2.7480665e+2, -366442.47, -446338.5, -43876.48, -0.01273108, -0.31834158, -347052.56, -100180.05, 0.025570678, 9.997685, 9.98734 
6.247116e+2, 2.8479564e+2, -322008.53, -345702.13, -100922.6, 0.041612435, -0.29693636, -232239.78, -83261.9, 0.016370405, 9.992733, 9.98989 
6.246641e+2, 2.947872e+2, -298428.25, -286010.4, -98717.06, 0.15120006, -0.12784877, -193307.19, -142248.13, 0.008761732, 9.987754, 9.989657 
6.2462395e+2, 3.0477354e+2, -339571.13, -259666.06, -31199.914, 0.047589082, -0.5478343, -248926.98, -248926.98, 0.0040306314, 9.980764, 9.991472 
6.2459254e+2, 3.1476873e+2, -329865.9, -31064.805, -17011.17, 0.017133068, -0.22976552, -30099.453, -30099.453, 0.0016633932, 9.971821, 10.011434 
6.3501394e+2, 1.3492885e+2, -1625223.5, -1623517.0, 21327.559, 0.12601528, -0.15780541, -1603025.6, 14658.172, 0.39848772, 9.999785, 9.999978 
6.3500106e+2, 1.4492914e+2, -1517652.9, -1542921.8, -12153.208, -0.11410233, 0.0025985253, -1512756.5, 6925.0425, 0.32077533, 10.001418, 9.997675 
6.349854e+2, 1.5492547e+2, -1432271.0, -1454338.9, -10054.041, -0.03339679, -0.13102362, -1428377.4, -6660.8896, 0.25262195, 10.000465, 9.997468 
6.349731e+2, 1.6492125e+2, -1345169.0, -1390063.1, 10290.409, 0.09152864, -0.16381831, -1342922.6, -19164.996, 0.20402536, 10.000965, 9.99493 
6.349639e+2, 1.749168e+2, -1216786.9, -1279435.5, 5563.6455, 0.24928704, -0.0994679, -1216296.6, 9505.7295, 0.17499948, 10.003314, 9.994644 
6.3495266e+2, 1.8491128e+2, -1107249.0, -1179895.4, 5617.737, 0.21488373, -0.08403804, -1106817.1, 21039.94, 0.15889283, 10.004429, 9.994219 
6.3493943e+2, 1.9490512e+2, -1013950.8, -1087960.0, 9900.767, -0.015008952, -0.12028032, -1012649.2, 17268.412, 0.14925043, 10.00419, 9.9939165 
6.349249e+2, 2.0489761e+2, -949693.2, -1043854.25, -13534.456, -0.017154975, -0.09070358, -947786.44, -15795.3545, 0.14197706, 10.0032215, 9.990708 
6.349096e+2, 2.1488927e+2, -877369.7, -961754.0, -18952.184, 0.22063316, 0.003302177, -873308.56, -39236.188, 0.13532838, 10.001617, 9.9903965 
6.348906e+2, 2.2488134e+2, -741695.6, -795329.8, -15655.92, 0.22545469, -0.039396144, -737460.1, -1311.7407, 0.1290764, 10.002002, 9.994878 
6.34869e+2, 2.3487428e+2, -610968.6, -682176.6, -234.55887, -0.015151201, -0.23416583, -610967.9, 27246.605, 0.123644516, 10.004603, 9.994646 
6.3484436e+2, 2.44864e+2, -557491.2, -705206.25, -23473.81, -0.08176819, -0.2870816, -553850.6, -13536.626, 0.11842003, 10.005421, 9.986016 
6.348182e+2, 2.5485095e+2, -469936.9, -613054.9, -39513.867, 0.0260104, -0.19488119, -459752.2, -17310.16, 0.11052868, 10.004713, 9.98597 
6.347856e+2, 2.6483858e+2, -389457.84, -485442.84, -68731.07, 0.058853757, -0.1937888, -353621.72, -9059.518, 0.09567111, 10.001824, 9.989388 
6.347493e+2, 2.748271e+2, -349579.03, -408329.94, -61887.438, 0.017833922, -0.2952048, -310449.22, -63777.266, 0.072849736, 9.997531, 9.990012 
6.3470393e+2, 2.8481784e+2, -325382.8, -348192.63, -120200.93, 0.020334486, -0.23872183, -216046.94, -67286.49, 0.047064, 9.9924965, 9.989845 
6.346509e+2, 2.9480955e+2, -300019.06, -288097.5, -117360.84, 0.056988046, -0.048235495, -176546.16, -125705.09, 0.025607774, 9.987662, 9.989569 
6.346039e+2, 3.047981e+2, -316989.94, -210342.8, -66048.67, -0.017955042, -0.41100028, -178779.2, -178779.2, 0.01201377, 9.980602, 9.994927 
6.345648e+2, 3.1479532e+2, -295499.2, 48811.418, -49243.152, 0.10215182, -0.25425243, 55715.703, 55715.703, 0.0050506694, 9.971385, 10.017148 
6.449766e+2, 1.6492856e+2, -1305011.4, -1368176.6, -28865.717, 0.15241444, -0.07359426, -1293807.4, 29881.63, 0.39254373, 10.005024, 9.994611 
6.44963e+2, 1.7492272e+2, -1195137.6, -1266384.5, -26896.389, -0.31630948, -0.120931566, -1186124.3, 39623.754, 0.361741, 10.006203, 9.994295 
6.449516e+2, 1.8491828e+2, -1095773.0, -1144674.1, -30733.684, -0.37039465, -0.09165768, -1080950.3, 46842.367, 0.3430875, 10.005142, 9.996597 
6.449428e+2, 1.9491592e+2, -1027753.75, -1067602.0, -25545.996, -0.0028315824, 0.0074516316, -1015280.8, 14535.984, 0.3309722, 10.002256, 9.996346 
6.4492977e+2, 2.0491222e+2, -910356.9, -950280.3, -6622.0854, 0.12344985, -0.014139904, -909287.1, 22564.904, 0.32089284, 10.003614, 9.99691 
6.4491266e+2, 2.1490766e+2, -760019.9, -824180.25, 27939.668, 0.007845702, -0.15990673, -749558.75, 84335.055, 0.3107135, 10.0089245, 9.996544 
6.448943e+2, 2.2490086e+2, -683044.6, -802289.75, 23111.87, 0.009211519, -0.18786153, -678721.9, 57236.305, 0.3001059, 10.009628, 9.990747 
6.4487547e+2, 2.3489259e+2, -626795.8, -735635.25, -24305.596, 0.12036105, -0.09548082, -621614.6, 16422.992, 0.2896487, 10.005695, 9.990512 
6.448506e+2, 2.4488327e+2, -557063.0, -647003.94, -52902.906, 0.11179794, -0.095535584, -532599.6, 7527.2256, 0.2776653, 10.00314, 9.991153 
6.4482105e+2, 2.5487342e+2, -473318.72, -553798.4, -11140.634, -0.018143546, -0.1949365, -471805.0, -29584.447, 0.25765792, 10.001827, 9.991413 
6.4478636e+2, 2.6486295e+2, -389185.13, -492981.47, -15927.023, -0.05783709, -0.253739, -386796.2, -42475.207, 0.22086208, 10.002183, 9.988639 
6.4475036e+2, 2.748514e+2, -242487.17, -364088.5, -35583.97, -0.007122488, -0.28040516, -232839.7, 13592.489, 0.16695501, 10.00542, 9.989211 
6.447002e+2, 2.8484246e+2, -203516.27, -273648.78, -129156.63, 0.026230728, -0.2224479, -104750.25, 43768.043, 0.10791281, 10.00035, 9.991246 
6.4463836e+2, 2.9483494e+2, -288920.22, -267523.16, -116781.99, 0.037237983, -0.09713144, -160950.67, -110359.37, 0.059247714, 9.987736, 9.99088 
6.445806e+2, 3.0482677e+2, -411386.0, -219463.67, -78864.586, -0.028569348, -0.34905913, -191214.66, -191214.66, 0.028188396, 9.9726095, 9.998077 
6.4452857e+2, 3.1482658e+2, -501235.3, 4627.6313, -63785.23, 0.11513698, -0.26530206, 12546.471, 12546.471, 0.01202782, 9.95501, 10.021953 
6.5475506e+2, 2.748793e+2, -269049.16, -430537.88, -25038.69, -0.10717962, -0.28175798, -265256.03, -19099.664, 0.31033075, 10.005696, 9.98452 
6.547011e+2, 2.848692e+2, -188939.13, -234246.92, -167621.8, 0.05109917, -0.26034388, -42447.332, 105807.195, 0.19846153, 10.000512, 9.994511 
6.5462667e+2, 2.948634e+2, -268253.97, -222967.4, -165451.78, 0.096186824, -0.29529557, -78616.64, -28307.127, 0.108878046, 9.987589, 9.993997 
6.545533e+2, 3.0486e+2, -396871.75, -177950.6, -145850.53, 0.019935556, -0.37256858, -105054.4, -105054.4, 0.052134957, 9.972015, 10.001195 
6.5448165e+2, 3.148639e+2, -490552.7, 47145.965, -130104.2, 0.010734479, -0.20223601, 76972.16, 76972.16, 0.02245797, 9.953971, 10.025467 
6.647075e+2, 2.8492212e+2, -35299.336, -115911.95, -29436.66, 0.0865645, -0.3142123, -25694.57, 122038.49, 0.2902986, 10.011753, 9.996841 
6.646151e+2, 2.949178e+2, -223557.6, -172560.02, -33706.566, 0.10149564, -0.4310859, -155793.9, -106019.555, 0.15820676, 9.989288, 9.996145 
6.6452175e+2, 3.0491927e+2, -482248.75, -166900.03, -28551.041, 0.053896695, -0.33408108, -164335.92, -164335.92, 0.07580644, 9.963771, 10.005459 
6.644271e+2, 3.1492683e+2, -719682.7, -19045.393, -3243.0303, -0.014382744, -0.23022796, -19030.38, -19030.38, 0.032803725, 9.936418, 10.028813 
6.7471975e+2, 2.8500465e+2, -30805.074, -98184.99, -81540.71, 0.11947502, -0.38268322, 23731.383, 170652.34, 0.33211675, 10.011778, 9.99884 
6.746037e+2, 2.9500237e+2, -211017.33, -143598.61, -114073.18, 0.039231855, -0.49044544, -58358.35, -9413.975, 0.18046749, 9.988969, 9.998163 
6.74485e+2, 3.050099e+2, -445196.44, -74975.28, -124249.05, 0.07149419, -0.22423208, -37142.477, -37142.477, 0.08642108, 9.962864, 10.012047 
6.743628e+2, 3.1502274e+2, -713036.9, 23416.563, -99288.67, 0.03676706, -0.2388445, 36567.816, 36567.816, 0.03742851, 9.934871, 10.032402 
6.847306e+2, 2.8512946e+2, -28821.605, -87181.13, 75170.99, 0.09978951, -0.36796698, 22634.455, 168332.27, 0.29524252, 10.010202, 9.999074 
6.845887e+2, 2.9512727e+2, -295684.94, -166730.72, 102054.71, -0.024862643, -0.4913333, -110491.37, -62771.074, 0.1615203, 9.981953, 9.9988165 
6.844459e+2, 3.0513674e+2, -497198.03, -69907.3, 76146.56, 0.12161923, -0.16455343, -56742.957, -56742.957, 0.07742675, 9.957609, 10.013806 
6.842982e+2, 3.1514987e+2, -686817.5, 20597.861, 60179.207, -0.0023745408, -0.32157803, 25680.734, 25680.734, 0.03347226, 9.936865, 10.030186 
6.949455e+2, 2.7529687e+2, -43151.145, -43068.914, -133039.95, 0.24368766, -0.24971294, 89929.94, 331992.9, 0.3172035, 10.010844, 10.011893 
6.947396e+2, 2.853023e+2, -18084.373, -81059.414, 8099.054, 0.015004318, -0.26342624, -17059.455, 126948.13, 0.20671627, 10.00939, 9.999012 
6.945693e+2, 2.952997e+2, -300348.9, -160791.0, 8993.171, -0.093121834, -0.4240215, -160213.88, -114182.6, 0.11442915, 9.980884, 9.999407 
6.944039e+2, 3.0530784e+2, -519953.03, -105123.28, 16210.746, 0.2070824, -0.17561492, -104490.766, -104490.766, 0.05489713, 9.956856, 10.011475 
6.942346e+2, 3.153182e+2, -738126.8, -83386.625, -8446.625, -0.043234356, -0.3460413, -83277.68, -83277.68, 0.023602493, 9.936556, 10.022829 
7.075545e+2, 1.7554414e+2, -1234124.0, -1212585.4, 10330.78, 0.46839988, 0.055249803, -1208431.5, 11230.195, 0.39511442, 9.994959, 9.998355 
7.072849e+2, 1.855406e+2, -1168173.6, -1160391.5, -5298.0005, 0.28914586, 0.033417325, -1157709.3, -36014.027, 0.36691037, 9.994103, 9.995204 
7.070148e+2, 1.9553362e+2, -1036457.3, -1048532.1, 5090.1924, 0.27736297, -0.17357472, -1034597.9, -10837.628, 0.3387076, 9.996534, 9.994874 
7.067427e+2, 2.055285e+2, -902275.25, -914662.3, -9298.345, 0.2305132, -0.2501545, -897296.56, 28510.355, 0.3081703, 9.998835, 9.996568 
7.0646894e+2, 2.155255e+2, -779612.0, -805571.1, -21414.852, 0.16916654, -0.21611851, -767550.3, 60282.477, 0.2778722, 10.0011835, 9.996596 
7.0620537e+2, 2.2552201e+2, -696848.9, -715376.94, 9794.2, 0.1231285, -0.22669443, -692631.5, 37232.7, 0.25434494, 10.000015, 9.996757 
7.059496e+2, 2.3551825e+2, -655499.75, -645979.1, -43.731903, 0.07892362, -0.28440255, -645978.94, -14079.626, 0.24354813, 9.995449, 9.996775 
7.0569164e+2, 2.455172e+2, -508920.53, -484064.06, -44937.25, 0.12128259, -0.31185776, -449868.1, 84039.305, 0.24338481, 9.996912, 10.001751 
7.054305e+2, 2.5551927e+2, -340203.06, -357478.97, -62352.016, 0.2577082, -0.3047346, -285893.5, 149991.0, 0.24118793, 10.003576, 10.001355 
7.0518607e+2, 2.6551503e+2, -292952.9, -400364.28, -8721.264, 0.27214402, -0.24678412, -292249.4, 45675.816, 0.22003843, 10.005062, 9.989798 
7.049516e+2, 2.7550563e+2, -218420.64, -307807.3, -8467.575, 0.16305135, -0.18092667, -217625.58, 22392.617, 0.17424618, 10.002581, 9.99074 
7.047415e+2, 2.8549874e+2, -213559.83, -202045.48, 115459.72, -0.004976199, -0.24190691, -92199.49, 49884.94, 0.11605228, 9.994416, 9.996015 
7.0454895e+2, 2.954938e+2, -313699.4, -185692.66, 97862.73, -0.17853609, -0.3542645, -132762.1, -88632.32, 0.06483979, 9.980155, 9.997139 
7.0436525e+2, 3.054977e+2, -404764.0, -84639.39, 105197.98, 0.24902149, -0.25312227, -53164.35, -53164.35, 0.031048024, 9.965699, 10.007792 
7.041767e+2, 3.1550545e+2, -571036.5, -80282.14, 58824.47, -0.13458131, -0.2861969, -73329.62, -73329.62, 0.013224449, 9.950646, 10.015384 
7.1862715e+2, 1.358352e+2, -1654751.9, -1629943.4, 33042.06, 0.42909434, -0.3002824, -1607053.9, 1743.4022, 0.38652638, 9.993734, 9.9967375 
7.183578e+2, 1.458312e+2, -1560010.9, -1573122.0, 19344.477, 0.24620345, -0.17133342, -1546141.4, -35302.89, 0.32051286, 9.995083, 9.99313 
7.180885e+2, 1.5582447e+2, -1395902.5, -1441116.4, 15289.1875, 0.31680495, -0.15752508, -1391217.9, 21689.166, 0.2634744, 10.000081, 9.993056 
7.17818e+2, 1.6581772e+2, -1294170.9, -1332786.5, 7971.7334, 0.3053171, -0.1744404, -1292590.0, 22385.287, 0.22245309, 9.999902, 9.99388 
7.1754694e+2, 1.7581138e+2, -1247153.5, -1259551.3, -3505.56, 0.21050799, -0.20251024, -1246230.9, -29191.875, 0.19610295, 9.995918, 9.994205 
7.172786e+2, 1.8580826e+2, -1135260.3, -1115524.9, 1146.8765, 0.23624142, -0.13111556, -1115458.4, 3611.5642, 0.17775887, 9.995146, 9.997847 
7.170121e+2, 1.9580728e+2, -1018805.25, -1017588.25, 5052.1973, 0.34876373, -0.0003877474, -1013108.06, 7970.5503, 0.16158238, 9.996873, 9.996957 
7.167428e+2, 2.0580077e+2, -931334.0, -991427.75, -12244.755, 0.3486695, -0.016376333, -928934.75, -5794.256, 0.14460723, 9.998917, 9.991031 
7.164712e+2, 2.157907e+2, -803832.6, -878358.3, -23764.4, 0.26762348, -0.13045308, -796899.7, 28336.736, 0.12741996, 10.001286, 9.991052 
7.1620625e+2, 2.2578228e+2, -713787.25, -770234.8, -5424.59, 0.21163745, -0.15174474, -713270.7, 14046.374, 0.1133316, 10.0001335, 9.992563 
7.159459e+2, 2.3577517e+2, -678281.7, -708143.25, -16163.002, 0.17174175, -0.11791839, -671208.56, -41823.51, 0.10585445, 9.996022, 9.992204 
7.1568894e+2, 2.457662e+2, -561268.4, -610321.7, -33680.594, 0.14148255, -0.18663827, -544130.44, -12659.896, 0.10468399, 9.997718, 9.991629 
7.15433e+2, 2.5575674e+2, -382337.03, -475299.3, -56131.707, 0.12975852, -0.3159188, -355939.72, 77620.18, 0.104284465, 10.004015, 9.991519 
7.1519005e+2, 2.6574537e+2, -305756.38, -445780.97, -18103.432, 0.16411796, -0.33749774, -303453.7, 32216.19, 0.096556924, 10.00506, 9.986612 
7.149546e+2, 2.7573246e+2, -238043.88, -355209.63, -17303.67, 0.21571071, -0.30504847, -235541.81, 2254.825, 0.077733226, 10.002481, 9.98745 
7.147356e+2, 2.8572208e+2, -252080.69, -271478.97, 72463.734, 0.031109076, -0.30031008, -188669.88, -48773.52, 0.052383665, 9.993647, 9.99115 
7.145277e+2, 2.957137e+2, -347053.5, -250623.25, 54202.12, -0.29495883, -0.27695557, -226294.81, -184319.36, 0.029371154, 9.979789, 9.992631 
7.143312e+2, 3.0571073e+2, -428766.66, -144753.9, 60562.77, 0.2356152, -0.42346242, -132378.75, -132378.75, 0.01399277, 9.9659605, 10.003296 
7.14129e+2, 3.1571504e+2, -588779.1, -141462.34, 788.24945, -0.07165151, -0.32179075, -141460.95, -141460.95, 0.0058887033, 9.951437, 10.010511 
7.2888964e+2, 1.2610574e+2, -1701796.8, -1695248.1, -699.1479, 0.534037, -0.1968187, -1695174.3, 8976.453, 0.3249284, 9.996708, 9.998008 
7.2862345e+2, 1.3610438e+2, -1595129.4, -1596708.6, -4789.2217, 0.43057588, -0.13129991, -1591065.1, 15099.21, 0.25896257, 9.997755, 9.997489 
7.283566e+2, 1.4610058e+2, -1488968.5, -1519451.9, -6297.2456, 0.34454334, -0.10857845, -1487718.9, 20482.885, 0.19362748, 9.999576, 9.994936 
7.2808915e+2, 1.5609547e+2, -1361820.5, -1411364.0, -1843.6715, 0.25697157, -0.10224796, -1361752.0, 48500.62, 0.13975194, 10.002011, 9.994346 
7.278185e+2, 1.6608852e+2, -1274376.6, -1342247.6, -17720.137, 0.24540056, -0.11533785, -1270028.8, 42293.445, 0.10370437, 10.001878, 9.992379 
7.275462e+2, 1.7608055e+2, -1195969.4, -1252735.9, -17541.697, 0.28317806, -0.14975952, -1190986.3, 23415.674, 0.08334713, 10.000288, 9.99258 
7.272768e+2, 1.8607506e+2, -1091029.1, -1117786.0, -9680.293, 0.28637475, -0.12107315, -1087894.3, 28561.238, 0.07189677, 9.9993925, 9.995693 
7.270094e+2, 1.9607157e+2, -1006332.4, -1035804.56, -25440.387, 0.2801044, -0.04242259, -991668.4, 26819.877, 0.06370717, 9.998841, 9.994992 
7.2674173e+2, 2.0606332e+2, -929008.9, -1011036.06, -35615.934, 0.30570474, -0.055998962, -915702.94, 4864.4546, 0.05593775, 10.000009, 9.989457 
7.2647375e+2, 2.1605186e+2, -799124.5, -900984.8, -30724.234, 0.33865857, -0.14139698, -790574.75, 32102.785, 0.048229113, 10.002473, 9.989092 
7.262093e+2, 2.2604042e+2, -685720.3, -802053.56, -16453.455, 0.30160657, -0.15338251, -683438.0, 41350.24, 0.04178008, 10.003963, 9.988571 
7.259471e+2, 2.360294e+2, -583562.44, -707491.94, -24142.318, 0.22598426, -0.11617558, -579025.44, 47869.992, 0.038066003, 10.004513, 9.988195 
7.256904e+2, 2.4601607e+2, -503718.9, -641867.25, -7887.898, 0.16076185, -0.15246294, -503270.0, 25754.715, 0.037113097, 10.0042925, 9.986268 
7.254366e+2, 2.5600144e+2, -417209.1, -553013.25, -2972.9976, 0.10294257, -0.24510157, -417144.03, 14021.987, 0.03688356, 10.003663, 9.98602 
7.2519386e+2, 2.659859e+2, -344433.03, -493393.47, 41403.344, 0.12864679, -0.2788265, -333698.6, -381.42075, 0.0342976, 10.003231, 9.983858 
7.249573e+2, 2.7596986e+2, -247965.44, -387980.2, 44398.254, 0.21123162, -0.28385934, -235073.86, 400.27835, 0.02777388, 10.00282, 9.984642 
7.247303e+2, 2.859565e+2, -243562.47, -301048.28, 102447.11, 0.049172644, -0.26513284, -165902.53, -28300.096, 0.018788632, 9.995275, 9.987795 
7.245093e+2, 2.9594514e+2, -317348.7, -269001.38, 98032.08, -0.26437348, -0.20128687, -192206.45, -152495.9, 0.010526717, 9.982826, 9.989301 
7.243003e+2, 3.0593693e+2, -359032.22, -146489.34, 114110.36, 0.2764394, -0.53211343, -96828.76, -96828.76, 0.0049821343, 9.971878, 9.999663 
7.2408456e+2, 3.1594044e+2, -449630.94, -81803.195, 49576.07, -0.08651419, -0.13874108, -75238.46, -75238.46, 0.0020711366, 9.960773, 10.009295 
7.38886e+2, 1.2637289e+2, -1690205.9, -1698295.5, 2866.5667, 0.47124457, -0.048247173, -1689293.1, 12245.675, 0.23778392, 9.998268, 9.996811 
7.386198e+2, 1.3636982e+2, -1591605.5, -1601521.9, -245.50508, 0.27247542, -0.03374207, -1591599.4, 11969.204, 0.17852521, 9.998327, 9.996677 
7.3835504e+2, 1.463664e+2, -1481155.6, -1494351.1, 459.86542, 0.23182112, -0.056026813, -1481139.6, 24461.902, 0.12096515, 9.999073, 9.997009 
7.3809123e+2, 1.5636289e+2, -1369246.0, -1398036.0, -1885.0428, 0.2871931, -0.09898548, -1369123.1, 38511.855, 0.07490658, 10.000369, 9.996161 
7.3782146e+2, 1.6635707e+2, -1287580.5, -1353514.3, -30643.313, 0.3748195, -0.0625068, -1275538.3, 34154.543, 0.04563878, 10.000877, 9.992125 
7.375485e+2, 1.7634991e+2, -1190836.0, -1259135.9, -28220.963, 0.47679633, 0.013150269, -1180684.3, 31080.26, 0.0306798, 10.0009, 9.991868 
7.3727703e+2, 1.8634084e+2, -1106959.5, -1172490.8, -15973.231, 0.36469212, -0.056339536, -1103273.4, 10578.6045, 0.023779068, 10.000185, 9.991579 
7.370068e+2, 1.9633095e+2, -1026867.94, -1087333.8, -27494.826, 0.13445568, -0.20546596, -1016235.25, -289.5475, 0.020036114, 9.999139, 9.991297 
7.3674065e+2, 2.0632099e+2, -921259.1, -1004766.5, -26278.75, 0.18326433, -0.23545411, -913677.75, 4363.1973, 0.017113127, 10.000497, 9.989667 
7.3647684e+2, 2.1631089e+2, -791376.75, -901031.1, -23317.94, 0.3906112, -0.20234019, -786624.2, 33513.938, 0.014419016, 10.003165, 9.988774 
7.362141e+2, 2.262973e+2, -706044.4, -853725.06, -15626.058, 0.38215423, -0.20776382, -704409.06, 17861.475, 0.012198122, 10.00426, 9.984913 
7.359518e+2, 2.3628202e+2, -606370.8, -756625.7, -22730.906, 0.2452283, -0.2314991, -603007.3, 21413.148, 0.010874596, 10.0044775, 9.984852 
7.3569494e+2, 2.4626738e+2, -512584.8, -661463.1, -9786.555, 0.18147539, -0.17851113, -511944.25, 14620.413, 0.010455523, 10.004288, 9.984902 
7.354409e+2, 2.5625318e+2, -425526.97, -572663.4, -4661.2944, 0.16257831, -0.090028584, -425379.44, 3325.0127, 0.010331095, 10.003749, 9.984608 
7.351973e+2, 2.6623654e+2, -355696.72, -516641.38, 40295.746, 0.14837013, -0.07711137, -346171.56, -15303.937, 0.009590903, 10.003296, 9.982192 
7.349593e+2, 2.762185e+2, -259512.13, -410727.6, 38886.31, 0.13522561, -0.112914346, -250098.25, -17054.037, 0.0077632978, 10.002796, 9.983036 
7.347255e+2, 2.8620344e+2, -253250.17, -317327.2, 57966.35, 0.05837159, -0.1342155, -219057.55, -83867.664, 0.005248091, 9.994924, 9.986629 
7.3449427e+2, 2.9619023e+2, -325488.53, -285455.84, 58164.13, -0.045491405, -0.1320968, -243960.25, -206644.75, 0.0029321057, 9.982636, 9.98805 
7.342733e+2, 3.0617982e+2, -366206.44, -167653.88, 80758.83, 0.3598613, -0.533087, -138954.5, -138954.5, 0.0013787597, 9.971987, 9.997958 
7.3404425e+2, 3.1618348e+2, -406713.53, -8835.287, 9800.732, -0.2603494, 0.0035434836, -8594.017, -8594.017, 0.0005670677, 9.961233, 10.013821 
7.4888587e+2, 1.2663926e+2, -1646451.0, -1681813.1, 760.2248, 0.39254653, -0.023126123, -1646434.8, 52496.473, 0.17498668, 10.001967, 9.996288 
7.4862015e+2, 1.3663565e+2, -1570323.0, -1597264.0, -578.1179, 0.36562392, -0.010272558, -1570310.5, 30656.246, 0.12614638, 10.000152, 9.996054 
7.483547e+2, 1.4663118e+2, -1493244.9, -1512750.8, -3067.4583, 0.330918, -0.04381886, -1492773.9, 10235.699, 0.07953291, 9.998608, 9.995897 
7.4808973e+2, 1.566265e+2, -1417085.6, -1432617.5, -15472.448, 0.3074151, -0.10254387, -1407539.5, -2485.4922, 0.043202266, 9.997328, 9.99534 
7.4782115e+2, 1.6662051e+2, -1305278.3, -1360112.4, -36590.008, 0.35436308, -0.065795, -1286973.1, 20139.988, 0.021089088, 9.999535, 9.992493 
7.4755067e+2, 1.766138e+2, -1148913.4, -1239352.5, -35162.582, 0.4361147, 0.020506812, -1136851.0, 72329.49, 0.010653346, 10.003786, 9.991963 
7.472793e+2, 1.8660422e+2, -1068375.3, -1171176.5, -30811.371, 0.37299705, -0.022166718, -1059847.9, 51425.613, 0.006580732, 10.003486, 9.9901085 
7.470078e+2, 1.9659308e+2, -1012485.75, -1097888.9, -27288.885, 0.22284329, -0.14270987, -1004510.8, 8869.315, 0.0049578967, 10.000805, 9.989751 
7.4674284e+2, 2.0658179e+2, -897058.3, -1005436.7, -7010.2544, 0.22912613, -0.17320314, -896606.75, 18881.977, 0.004033346, 10.002731, 9.988573 
7.4648154e+2, 2.1657054e+2, -744696.75, -891465.9, -12960.628, 0.33621463, -0.14906408, -743561.0, 74036.15, 0.003301667, 10.006899, 9.987693 
7.46219e+2, 2.265557e+2, -684648.5, -858971.3, -15935.649, 0.33494684, -0.15796973, -683203.7, 36538.28, 0.002729245, 10.006266, 9.9835615 
7.4595577e+2, 2.3653896e+2, -632977.56, -783594.75, -8247.755, 0.26174855, -0.18904097, -632527.25, -10620.883, 0.0023883223, 10.003126, 9.983556 
7.4569845e+2, 2.4652334e+2, -543027.94, -682172.6, 18807.234, 0.1980898, -0.14359003, -540530.7, -16471.111, 0.002268712, 10.002366, 9.984268 
7.454441e+2, 2.5650847e+2, -441911.16, -586928.7, 28998.854, 0.14952606, -0.05286952, -436327.3, -10121.869, 0.0022265106, 10.002801, 9.983901 
7.451986e+2, 2.6649132e+2, -408944.63, -544212.8, 72382.66, 0.13277051, -0.03791404, -377515.03, -49141.26, 0.0020580373, 9.999581, 9.981823 
7.449577e+2, 2.7647287e+2, -385288.78, -473835.2, 79225.27, 0.12475474, -0.074480146, -338805.38, -108250.336, 0.0016605145, 9.994143, 9.98254 
7.4471843e+2, 2.8645754e+2, -316270.22, -348691.4, 89654.04, 0.08374976, -0.07272455, -241373.02, -108668.68, 0.0011195914, 9.990443, 9.986173 
7.444799e+2, 2.964441e+2, -257849.77, -257278.05, 95018.1, 0.046770778, -0.04800063, -162545.38, -127711.03, 0.00062352285, 9.987224, 9.987256 
7.442481e+2, 3.064324e+2, -285600.56, -153063.92, 104013.54, 0.34898534, -0.39746332, -96002.164, -96002.164, 0.00029169032, 9.9782, 9.9954405 
7.4400747e+2, 3.164328e+2, -312973.84, 75029.48, 23104.666, -0.2646605, 0.0061845966, 76400.46, 76400.46, 0.0001190091, 9.965614, 10.016949 
7.588868e+2, 1.269053e+2, -1664750.3, -1695754.6, -6314.339, 0.33099502, -0.03893207, -1663513.6, 32812.316, 0.12768431, 10.000496, 9.995819 
7.586219e+2, 1.3690162e+2, -1560956.6, -1600737.5, -10506.983, 0.51297146, 0.013317207, -1558352.0, 40010.844, 0.089724064, 10.001068, 9.995361 
7.583549e+2, 1.4689575e+2, -1483606.3, -1529812.3, -12610.942, 0.46676737, -0.019258955, -1480388.4, 20030.922, 0.054134592, 10.000201, 9.993977 
7.5808734e+2, 1.5688899e+2, -1406230.5, -1444988.3, -20024.514, 0.3137305, -0.093044326, -1397743.3, 4740.4663, 0.027072964, 9.998841, 9.993772 
7.5782007e+2, 1.6688235e+2, -1296288.5, -1350666.6, -23220.182, 0.27794522, -0.082647204, -1287722.5, 16826.62, 0.0111973565, 10.000031, 9.992951 
7.5755304e+2, 1.7687577e+2, -1162948.4, -1242829.3, -26458.795, 0.3037325, -0.029708628, -1154979.4, 51636.023, 0.004155564, 10.002727, 9.992283 
7.5728256e+2, 1.8686692e+2, -1076492.3, -1178935.8, -42752.5, 0.36211064, 0.010232211, -1060994.9, 47707.293, 0.001730722, 10.003021, 9.989779 
7.570107e+2, 1.968569e+2, -999481.6, -1098065.3, -33850.113, 0.42437574, 0.03568433, -988977.8, 21822.018, 0.0009991071, 10.001951, 9.989175 
7.5674695e+2, 2.0684448e+2, -901197.8, -1025472.2, 7668.8765, 0.34626022, 0.011020112, -900726.4, 12194.064, 0.0007296112, 10.003341, 9.986966 
7.5648725e+2, 2.1683095e+2, -767700.2, -917528.44, -2186.4805, 0.21140194, -0.034761246, -767668.25, 47383.504, 0.00057082047, 10.006038, 9.986357 
7.56224e+2, 2.268157e+2, -692683.4, -860249.8, -27073.775, 0.21556617, -0.04103239, -688417.6, 28782.818, 0.00045943182, 10.005536, 9.98377 
7.5595903e+2, 2.3679952e+2, -628222.7, -778010.56, -16684.994, 0.27884382, -0.033284348, -626386.6, -7028.256, 0.0003951228, 10.003273, 9.98382 
7.557009e+2, 2.4678335e+2, -537682.7, -676847.1, 20760.979, 0.20503728, -0.07048677, -534651.56, -13136.4, 0.0003714572, 10.002665, 9.984473 
7.554461e+2, 2.5676727e+2, -439221.84, -581900.25, 27322.33, 0.06924764, -0.12405258, -434168.7, -10498.4, 0.00036209033, 10.002854, 9.984195 
7.551977e+2, 2.6675045e+2, -402179.97, -527830.4, 51319.215, 0.08946277, -0.148348, -383883.84, -58049.49, 0.00033292756, 9.999412, 9.982915 
7.5495225e+2, 2.7673328e+2, -379701.1, -458261.78, 60815.406, 0.18121299, -0.16412033, -346583.5, -118580.31, 0.00026748236, 9.9939165, 9.983606 
7.54709e+2, 2.8671977e+2, -310960.53, -334892.28, 80878.336, 0.109003894, -0.07851568, -241167.7, -111030.59, 0.00017970752, 9.99034, 9.987075 
7.544666e+2, 2.9670835e+2, -251785.39, -250482.64, 82083.96, -0.033631396, 0.06416636, -169047.47, -136796.56, 0.00009973921, 9.987449, 9.987495 
7.542253e+2, 3.0669707e+2, -302833.47, -194396.0, 59856.293, 0.23085159, -0.07134123, -167853.06, -167853.06, 0.00004647792, 9.978209, 9.992374 
7.5397414e+2, 3.1669062e+2, -316572.34, 62565.957, -13216.307, -0.17905821, -0.09118261, 63026.1, 63026.1, 0.000018863831, 9.965635, 10.015877 
7.688865e+2, 1.2717034e+2, -1688262.1, -1729205.4, 5044.526, 0.33948854, -0.051283646, -1687649.8, 6079.9766, 0.09095763, 9.999555, 9.994056 
7.686237e+2, 1.3716543e+2, -1534013.5, -1605374.9, -7067.8325, 0.42291474, 0.051539928, -1533320.3, 62459.9, 0.06282214, 10.003739, 9.99381 
7.6835704e+2, 1.4715858e+2, -1434793.5, -1516284.1, -20861.914, 0.41713423, 0.03657933, -1429763.3, 68083.71, 0.03690004, 10.004007, 9.993082 
7.6808906e+2, 1.5715101e+2, -1355121.9, -1427310.5, -24507.969, 0.36235002, -0.031369787, -1347587.8, 52332.266, 0.01763206, 10.002619, 9.993154 
7.6782113e+2, 1.671443e+2, -1278221.6, -1336989.5, -22462.246, 0.31625244, -0.033257887, -1270619.5, 31366.025, 0.006673461, 10.000994, 9.993434 
7.675535e+2, 1.7713793e+2, -1208074.0, -1262118.0, -23651.81, 0.28239742, -0.0049709277, -1199185.1, 4863.5996, 0.0020324262, 9.999471, 9.9925785 
7.672848e+2, 1.8712886e+2, -1089573.1, -1188952.1, -31383.8, 0.33563504, 0.016747246, -1080491.9, 25645.52, 0.0005607306, 10.002287, 9.9895115 
7.670157e+2, 1.971185e+2, -926679.9, -1065777.1, -25189.018, 0.42557317, 0.03724401, -922258.9, 85979.62, 0.00019287558, 10.007031, 9.988959 
7.667513e+2, 2.0710625e+2, -876730.1, -1014378.6, 6863.734, 0.34725514, 0.038659263, -876388.75, 33969.64, 0.00010534362, 10.004922, 9.986915 
7.6648945e+2, 2.1709295e+2, -860727.9, -962839.94, 7379.945, 0.19176443, 0.025068449, -860197.25, -47708.83, 0.0000747061, 9.999578, 9.98631 
7.662267e+2, 2.270779e+2, -761061.2, -887826.44, -2988.5195, 0.21081915, 0.017005496, -760990.75, -46355.656, 0.000057814395, 10.000585, 9.984207 
7.659633e+2, 2.3706202e+2, -605655.1, -763877.75, 7346.7446, 0.3092855, 0.011935516, -605314.7, 11475.1045, 0.000048750582, 10.00462, 9.984039 
7.657044e+2, 2.4704535e+2, -523058.7, -677619.1, 32346.535, 0.22065958, -0.03872788, -516562.25, 2388.7295, 0.00004538458, 10.003896, 9.983722 
7.654477e+2, 2.5702834e+2, -472708.38, -604386.06, 31655.092, 0.04881199, -0.11354724, -465493.8, -44379.17, 0.00004395907, 10.000725, 9.983615 
7.6519614e+2, 2.670113e+2, -423816.34, -537067.1, 39735.99, 0.085606724, -0.14100513, -411265.25, -87984.59, 0.00004018425, 9.997727, 9.983033 
7.649469e+2, 2.769944e+2, -362365.28, -442455.16, 41528.18, 0.21766308, -0.14960451, -344719.78, -119273.24, 0.000032116903, 9.994633, 9.9843235 
7.6469857e+2, 2.8698242e+2, -316868.47, -310927.44, 64290.91, 0.11062713, -0.09252149, -249538.47, -121972.76, 0.000021486107, 9.988612, 9.989482 
7.644505e+2, 2.9697293e+2, -328334.4, -271664.6, 75935.41, -0.1023182, 0.019911982, -218949.81, -189289.28, 0.000011883551, 9.981368, 9.988843 
7.642034e+2, 3.0696326e+2, -293341.53, -214409.75, 56835.445, 0.15339708, 0.12788068, -184681.53, -184681.53, 0.0000055201517, 9.979717, 9.990069 
7.639476e+2, 3.169505e+2, -129168.97, 107091.74, -5953.699, -0.039182987, -0.29208058, 107241.68, 107241.68, 0.000002232594, 9.980251, 10.011669 
7.7888685e+2, 1.2743545e+2, -1662862.4, -1736081.5, 12485.263, 0.35407197, -0.051487066, -1660792.0, 30340.895, 0.062321946, 10.002359, 9.992304 
7.786259e+2, 1.374291e+2, -1552488.9, -1632402.4, 1630.6783, 0.27658814, 0.08472241, -1552455.6, 40743.223, 0.042461134, 10.003146, 9.992278 
7.7836e+2, 1.4742154e+2, -1451800.4, -1530948.5, -22004.527, 0.32818463, 0.09074594, -1446094.1, 49179.527, 0.024464365, 10.002995, 9.992524 
7.7809227e+2, 1.5741362e+2, -1358293.0, -1431907.9, -24013.879, 0.42666024, 0.042082977, -1351152.1, 46198.656, 0.011362938, 10.002482, 9.992838 
7.7782285e+2, 1.6740698e+2, -1268251.9, -1328002.5, -25009.574, 0.39033845, 0.036085192, -1259165.5, 40249.664, 0.004107514, 10.001461, 9.993769 
7.7755326e+2, 1.7740074e+2, -1193136.0, -1252750.3, -24528.61, 0.3012505, 0.04603575, -1184341.0, 17134.414, 0.001142861, 10.000406, 9.992756 
7.772868e+2, 1.87391e+2, -1090049.4, -1191380.1, -14033.17, 0.29728967, 0.006701067, -1088141.9, 15428.289, 0.00025188737, 10.002485, 9.989309 
7.7702165e+2, 1.973797e+2, -943820.06, -1073675.5, -15359.516, 0.3295647, -0.04870312, -942028.06, 63651.797, 0.000050957726, 10.005921, 9.988986 
7.767556e+2, 2.073683e+2, -879149.3, -1006576.5, -13837.44, 0.29728308, -0.011561383, -877664.0, 30127.965, 0.000014559192, 10.004243, 9.9876995 
7.7648944e+2, 2.1735658e+2, -845274.5, -946887.75, -6028.4526, 0.23599517, 0.05708351, -844918.1, -35010.56, 0.000007668185, 10.000198, 9.987052 
7.76228e+2, 2.2734213e+2, -749072.56, -873743.9, 11390.81, 0.27040493, 0.035940558, -748040.4, -35991.9, 0.0000054578713, 10.001178, 9.984928 
7.759684e+2, 2.3732641e+2, -607691.7, -761993.2, 16105.791, 0.34288138, -0.020540189, -606028.5, 8172.8105, 0.0000044714375, 10.004452, 9.984279 
7.757085e+2, 2.4730931e+2, -536636.9, -700333.25, 19830.047, 0.2445318, -0.03217701, -534268.94, -17901.52, 0.0000041169124, 10.003622, 9.982244 
7.754487e+2, 2.5729162e+2, -482076.88, -623862.44, 20317.46, 0.077065445, -0.027797228, -479222.88, -60683.71, 0.000003962311, 10.000692, 9.98224 
7.7519417e+2, 2.672738e+2, -430395.53, -549922.44, 28396.842, 0.11197261, -0.024437476, -423992.16, -103278.63, 0.0000035985104, 9.997675, 9.982111 
7.7494156e+2, 2.7725616e+2, -360900.75, -437643.28, 26569.463, 0.22908379, -0.030707337, -352599.84, -129713.18, 0.00000285722, 9.9945135, 9.9846325 
7.7468675e+2, 2.8724515e+2, -291808.22, -254276.14, 34991.6, 0.08926289, -0.13096926, -233336.06, -108342.836, 0.0000019012997, 9.988272, 9.993392 
7.74431e+2, 2.9723734e+2, -315361.38, -234585.58, 54599.496, -0.15270826, -0.22612843, -207059.66, -179991.95, 0.0000010475559, 9.98085, 9.99152 
7.741831e+2, 3.0723068e+2, -297341.1, -228193.38, 64567.9, 0.13073237, 0.15268072, -189525.4, -189525.4, 0.0000004852703, 9.980093, 9.988921 
7.739303e+2, 3.1721812e+2, -168814.6, -17054.967, 7842.6377, 0.028289242, -0.053689178, -16650.75, -16650.75, 0.00000019611444, 9.982213, 10.0022 
7.888925e+2, 1.2769897e+2, -1587290.8, -1682123.0, -220.6021, 0.3780068, -0.0058905953, -1587290.3, 101263.04, 0.04048696, 10.0068245, 9.993797 
7.886284e+2, 1.3769351e+2, -1556511.1, -1619500.6, 1692.422, 0.28607494, 0.07411019, -1556465.8, 34143.76, 0.027255554, 10.002044, 9.993622 
7.883617e+2, 1.4768729e+2, -1466018.0, -1525230.9, -3387.161, 0.31805828, 0.09379506, -1465824.9, 26845.994, 0.015450946, 10.001374, 9.993618 
7.8809446e+2, 1.5768073e+2, -1354746.1, -1426695.4, -552.20074, 0.40164015, 0.08646058, -1354742.0, 39992.824, 0.007020416, 10.0025015, 9.993057 
7.8782517e+2, 1.6767278e+2, -1261112.5, -1347692.4, -8105.9805, 0.386759, 0.07651013, -1260360.1, 36452.305, 0.002461426, 10.002871, 9.991647 
7.875556e+2, 1.7766434e+2, -1164261.6, -1254682.3, -15610.22, 0.3297399, 0.06521606, -1161642.5, 37252.387, 0.0006538327, 10.002994, 9.991337 
7.872892e+2, 1.8765435e+2, -1093502.3, -1188974.8, -3752.403, 0.31475592, 0.030031819, -1093355.0, 7636.951, 0.00013177795, 10.0020075, 9.989691 
7.8702444e+2, 1.9764352e+2, -1017395.9, -1105733.9, -3087.2527, 0.3195239, -0.014774493, -1017288.1, -14191.286, 0.000020829575, 10.0006695, 9.989317 
7.8675866e+2, 2.076323e+2, -910243.25, -1018925.1, -5195.0396, 0.3250756, 0.0131288525, -909995.5, -4788.401, 0.0000030620913, 10.001916, 9.987949 
7.864928e+2, 2.1762073e+2, -786076.56, -916262.6, 256.8207, 0.32605, 0.06933891, -786076.06, 21245.428, 0.00000074129565, 10.004072, 9.987248 
7.862305e+2, 2.2760649e+2, -722345.06, -860583.44, 15201.474, 0.30034015, 0.06062173, -720693.2, -11232.399, 0.0000003971504, 10.002923, 9.984994 
7.8597e+2, 2.3759104e+2, -663690.56, -787001.0, 15882.828, 0.27143312, 0.021882204, -661677.6, -50066.13, 0.00000030579704, 10.000461, 9.984539 
7.8571004e+2, 2.4757446e+2, -578882.44, -713214.1, 24004.758, 0.20975439, 0.006165846, -574721.7, -60948.85, 0.00000027708822, 10.000323, 9.9829235 
7.8545004e+2, 2.5755733e+2, -472598.72, -611635.7, 35439.426, 0.12975733, 0.0061822156, -464086.6, -48147.273, 0.0000002646991, 10.000908, 9.982834 
7.851922e+2, 2.6754057e+2, -419997.3, -534951.94, 48174.9, 0.13980871, 0.050210346, -402478.2, -84374.625, 0.000000238629, 9.997812, 9.982803 
7.8493506e+2, 2.7752402e+2, -374772.7, -439126.03, 56710.914, 0.18841706, 0.090448156, -341746.1, -121479.23, 0.00000018829499, 9.993193, 9.984823 
7.846754e+2, 2.8751153e+2, -278110.1, -262680.9, 33059.54, 0.06406514, -0.07225978, -236447.77, -114061.016, 0.00000012556437, 9.9896965, 9.991935 
7.844147e+2, 2.9750156e+2, -235715.77, -203260.2, 19579.314, -0.1272523, -0.26898885, -194057.88, -169576.98, 0.00000007144186, 9.986477, 9.991036 
7.8416526e+2, 3.0749577e+2, -223449.8, -177759.66, 49567.133, 0.1291963, 0.12145909, -146026.36, -146026.36, 0.000000037712685, 9.984446, 9.990418 
7.839127e+2, 3.1748506e+2, -200914.72, -97365.305, 19922.148, 0.011358788, 0.049571224, -93664.68, -93664.68, 0.000000022392745, 9.982773, 9.996438 
7.988992e+2, 1.2796348e+2, -1593009.6, -1664455.1, -8578.025, 0.40057492, 0.04689463, -1591994.1, 93970.62, 0.024554512, 10.005273, 9.995644 
7.986311e+2, 1.3795918e+2, -1529728.0, -1585406.1, -8753.042, 0.33525878, 0.05734044, -1528384.4, 59623.035, 0.016354568, 10.002895, 9.995463 
7.983634e+2, 1.4795473e+2, -1439896.6, -1495182.5, -2455.4385, 0.32728323, 0.086050786, -1439787.8, 50263.05, 0.009139995, 10.002449, 9.995167 
7.9809654e+2, 1.5794994e+2, -1346652.4, -1419388.4, -3770.3083, 0.34760582, 0.11687617, -1346457.5, 45639.816, 0.004075192, 10.002933, 9.993389 
7.9782784e+2, 1.6794035e+2, -1277577.6, -1385852.6, -9598.256, 0.3593607, 0.103454, -1276733.4, 17458.578, 0.0013936982, 10.003064, 9.98897 
7.9755896e+2, 1.7792915e+2, -1174789.1, -1279479.9, -13219.386, 0.362908, 0.07413295, -1173145.8, 23156.98, 0.00035817598, 10.003133, 9.98955 
7.9729164e+2, 1.879192e+2, -1083289.6, -1177283.4, -5770.113, 0.3543636, 0.07207909, -1082936.8, 15462.77, 0.00006886884, 10.00239, 9.990253 
7.970254e+2, 1.9790943e+2, -1003928.4, -1094392.0, -2941.3333, 0.34634042, 0.0771843, -1003832.9, -3338.8376, 0.0000099744275, 10.001384, 9.989719 
7.9676133e+2, 2.0789802e+2, -906058.75, -1016795.94, 4014.9126, 0.390272, 0.07255041, -905913.4, -3307.5498, 0.0000011234085, 10.002272, 9.987938 
7.96498e+2, 2.178858e+2, -791402.56, -920375.4, 4428.814, 0.43966872, 0.06806313, -791250.6, 13475.388, 0.00000011941263, 10.0038185, 9.987093 
7.962335e+2, 2.2787155e+2, -727850.25, -868127.0, 6129.537, 0.305719, 0.09262652, -727582.9, -20716.455, 0.000000025827301, 10.002715, 9.98453 
7.9596895e+2, 2.3785639e+2, -659264.4, -781346.2, 10945.497, 0.122799374, 0.118066855, -658290.8, -49274.99, 0.000000015428776, 10.000598, 9.984817 
7.9570967e+2, 2.4784094e+2, -561766.7, -678939.56, 27253.4, 0.1356815, 0.06370734, -555737.94, -44572.47, 0.000000013459813, 10.00043, 9.985196 
7.9545164e+2, 2.578254e+2, -457827.28, -577712.75, 32730.979, 0.20560932, -0.005505797, -449473.25, -36157.625, 0.000000012841815, 10.000788, 9.985178 
7.951901e+2, 2.6781163e+2, -404321.16, -499460.28, 30287.313, 0.1632572, 0.08954194, -395497.6, -80045.805, 0.000000012439261, 9.997608, 9.985237 
7.949272e+2, 2.77798e+2, -376253.75, -440387.25, 41039.6, 0.090100676, 0.21947129, -356238.6, -138651.89, 0.000000013843871, 9.993057, 9.984719 
7.946649e+2, 2.8778142e+2, -329867.16, -370136.4, 20722.125, 0.03817907, 0.11256424, -321108.72, -201360.23, 0.000000021671486, 9.989682, 9.9845295 
7.944026e+2, 2.977648e+2, -260902.78, -262026.23, 7747.7573, -0.013483576, -0.049924187, -253696.42, -231787.39, 0.000000040739483, 9.9867525, 9.98684 
7.941502e+2, 3.077566e+2, -187000.25, -109498.664, 39639.516, 0.1415062, -0.03162342, -92815.58, -92815.58, 0.000000071294544, 9.98477, 9.994895 
7.9389375e+2, 3.1775177e+2, -185304.73, -62387.215, 10109.648, -0.1558213, 0.07249676, -61561.273, -61561.273, 0.00000010824256, 9.982638, 9.998853 
8.089027e+2, 1.2823336e+2, -1628581.0, -1698905.4, 13778.777, 0.36109412, 0.11278248, -1625977.6, 57345.51, 0.013656359, 10.003436, 9.994036 
8.0863535e+2, 1.3822739e+2, -1511601.8, -1589483.0, 2162.207, 0.36500695, 0.10525757, -1511541.8, 73839.62, 0.00901513, 10.00461, 9.99429 
8.083675e+2, 1.4822155e+2, -1416063.5, -1489392.6, 321.82025, 0.36639702, 0.06955693, -1416062.1, 71374.734, 0.0049783196, 10.004241, 9.994693 
8.0810016e+2, 1.5821575e+2, -1336542.5, -1414407.9, -7398.932, 0.37295344, 0.034600407, -1335845.8, 53646.414, 0.0021846793, 10.003536, 9.9934845 
8.078311e+2, 1.6820762e+2, -1264515.8, -1365335.6, -2526.3726, 0.365435, 0.076717, -1264452.5, 27120.873, 0.0007317571, 10.003266, 9.990257 
8.075621e+2, 1.7819837e+2, -1166266.8, -1267361.5, 8399.911, 0.3533992, 0.1309487, -1165573.5, 28092.645, 0.00018305305, 10.003289, 9.990186 
8.072946e+2, 1.881882e+2, -1068293.8, -1175084.8, 16088.684, 0.34243476, 0.119708665, -1065922.5, 29842.725, 0.00003398985, 10.0035515, 9.9897175 
8.070281e+2, 1.9817758e+2, -970398.8, -1083022.8, 15087.733, 0.3343455, 0.09256313, -968412.6, 29455.348, 0.0000046947775, 10.003802, 9.989228 
8.067637e+2, 2.0816562e+2, -899468.44, -1018480.3, 19677.693, 0.3651043, 0.07955874, -896299.25, 3686.0212, 0.0000004859577, 10.0028515, 9.987468 
8.065002e+2, 2.1815293e+2, -824717.06, -938701.8, 17900.818, 0.40246856, 0.07186992, -821971.94, -19861.936, 0.000000038830002, 10.001552, 9.986877 
8.062355e+2, 2.2813906e+2, -742838.5, -870764.44, 20329.156, 0.30628103, 0.11758223, -739685.6, -35438.047, 0.0000000030310274, 10.001396, 9.984893 
8.0597055e+2, 2.3812452e+2, -641299.2, -767094.6, 29552.512, 0.1664708, 0.17226522, -634702.5, -28310.893, 0.00000000067420153, 10.001491, 9.985233 
8.057101e+2, 2.481096e+2, -565843.3, -673823.6, 38376.652, 0.16468328, 0.11391807, -553593.75, -45057.31, 0.00000000071539147, 9.999757, 9.98578 
8.0545074e+2, 2.5809458e+2, -499462.2, -585354.2, 31645.947, 0.2107766, 0.026787385, -489061.94, -78381.05, 0.0000000021337974, 9.997302, 9.986312 
8.051866e+2, 2.6808208e+2, -416736.7, -483512.25, 18644.027, 0.15185064, 0.081821926, -411883.88, -99080.42, 0.00000001008872, 9.99568, 9.98725 
8.049206e+2, 2.7807e+2, -350667.75, -421799.16, 28424.326, 0.05974476, 0.18004373, -340704.75, -125781.59, 0.000000041317843, 9.994414, 9.985347 
8.046564e+2, 2.8805292e+2, -294376.5, -385356.0, 35679.4, 0.03824752, 0.18978854, -282053.3, -164961.95, 0.00000012814291, 9.993397, 9.981537 
8.043924e+2, 2.9803467e+2, -195627.6, -253892.66, 52928.02, 0.03668675, 0.16598737, -164344.23, -145073.83, 0.00000030152626, 9.992124, 9.984427 
8.041361e+2, 3.0802268e+2, -144150.17, -90222.29, 57692.17, 0.12802564, -0.08304669, -53503.887, -53503.887, 0.00000055944497, 9.987642, 9.994575 
8.038754e+2, 3.1802e+2, -175708.31, -26252.191, -4702.5254, -0.22221904, 0.2043068, -26104.377, -26104.377, 0.0000008617809, 9.981791, 10.001712 
8.189062e+2, 1.2850507e+2, -1615391.3, -1714269.6, 10934.397, 0.3227263, 0.17648914, -1614196.5, 66466.86, 0.006829297, 10.005311, 9.992121 
8.1864023e+2, 1.3849716e+2, -1522310.1, -1613365.3, 3619.92, 0.3904668, 0.16566119, -1522166.4, 60573.625, 0.0044781193, 10.004691, 9.992611 
8.183721e+2, 1.4848924e+2, -1429519.3, -1508115.1, 150.90707, 0.40983856, 0.049827073, -1429519.0, 55295.71, 0.0024504783, 10.00383, 9.993585 
8.181041e+2, 1.5848163e+2, -1341853.4, -1415427.6, -6902.0234, 0.41830802, -0.07477708, -1341211.5, 45674.848, 0.0010623109, 10.003101, 9.99359 
8.178345e+2, 1.6847599e+2, -1249821.4, -1328691.8, -1587.568, 0.37874186, 0.040315367, -1249789.5, 39154.13, 0.00035011073, 10.003003, 9.992866 
8.1756514e+2, 1.7847025e+2, -1157684.0, -1246856.4, 7438.756, 0.3258978, 0.20509832, -1157067.8, 33935.11, 0.00008574844, 10.003184, 9.991639 
8.172979e+2, 1.884597e+2, -1077498.6, -1189132.0, 15423.079, 0.30954346, 0.16397908, -1075407.0, 17698.86, 0.000015493128, 10.003357, 9.988867 
8.170316e+2, 1.984476e+2, -980804.9, -1096792.1, 13068.622, 0.3039874, 0.070568316, -979350.6, 15872.613, 0.0000020664195, 10.003475, 9.988449 
8.167658e+2, 2.0843498e+2, -906355.56, -1028915.2, 14734.435, 0.289812, 0.062110495, -904609.06, -7262.171, 0.00000020419225, 10.002667, 9.986819 
8.165005e+2, 2.1842198e+2, -824905.25, -940242.5, 16364.385, 0.27871102, 0.079999626, -822628.4, -23153.344, 0.000000015030654, 10.001596, 9.986723 
8.16237e+2, 2.2840878e+2, -735464.44, -856323.0, 22147.0, 0.31435347, 0.13684016, -731533.9, -29927.264, 0.0000000008413565, 10.001459, 9.985828 
8.159738e+2, 2.3839517e+2, -638672.94, -760304.7, 28077.246, 0.34733382, 0.19722982, -632504.44, -28762.064, 0.0000000001313571, 10.001443, 9.985696 
8.157108e+2, 2.4838017e+2, -571804.9, -684288.94, 29641.248, 0.25924703, 0.1620559, -564472.0, -58584.258, 0.0000000012207032, 9.999641, 9.985067 
8.1544733e+2, 2.583648e+2, -499293.9, -584035.0, 24237.52, 0.14756365, 0.09606719, -492851.3, -84815.77, 0.000000009745165, 9.997237, 9.9863825 
8.15182e+2, 2.6835203e+2, -406030.03, -461697.06, 13686.275, 0.11458999, 0.019255951, -402847.13, -92687.81, 0.000000056615875, 9.995705, 9.988688 
8.149154e+2, 2.7833977e+2, -338788.38, -397585.97, 24452.246, 0.10156613, -0.04001877, -329948.44, -117670.19, 0.00000023978018, 9.994451, 9.986948 
8.1465006e+2, 2.8832647e+2, -276691.44, -351695.16, 32408.84, 0.058059033, 0.15062304, -264627.97, -150216.48, 0.00000074770037, 9.993554, 9.983716 
8.1438446e+2, 2.983126e+2, -194630.16, -257955.95, 46650.08, 0.0037832097, 0.38605416, -169912.48, -153361.69, 0.0000017604058, 9.992378, 9.983953 
8.1412345e+2, 3.0829504e+2, -189874.55, -186528.56, 35413.813, 0.09191135, 0.032414608, -152748.25, -152748.25, 0.0000032669245, 9.987596, 9.987887 
8.138579e+2, 3.1828532e+2, -147468.8, 39767.285, -29099.344, -0.11759926, 0.09990162, 44185.508, 44185.508, 0.0000050341396, 9.981354, 10.006364 
8.289141e+2, 1.2877414e+2, -1568125.9, -1669869.5, 2036.5453, 0.42167652, 0.16319588, -1568085.1, 109943.836, 0.0030089617, 10.007478, 9.994069 
8.2864475e+2, 1.3876833e+2, -1520288.9, -1602006.1, 7539.6704, 0.38833332, 0.18983658, -1519599.1, 60485.824, 0.0019641386, 10.004259, 9.9935055 
8.283748e+2, 1.4876056e+2, -1450779.4, -1526681.5, 12301.632, 0.37399492, 0.112131774, -1448835.4, 33323.37, 0.0010681495, 10.002641, 9.99281 
8.2810587e+2, 1.5875256e+2, -1361372.4, -1425830.6, 7772.86, 0.37209982, 0.01716758, -1360448.3, 23786.326, 0.00045917454, 10.001727, 9.993458 
8.2783663e+2, 1.68747e+2, -1258089.6, -1321315.9, 12540.934, 0.35930204, 0.07619387, -1255693.0, 30597.027, 0.00014963388, 10.0018835, 9.993865 
8.2756793e+2, 1.7874148e+2, -1166371.6, -1246965.1, 15065.599, 0.33705926, 0.17238899, -1163647.4, 24698.256, 0.00003610315, 10.002345, 9.99203 
8.2730055e+2, 1.8873084e+2, -1099152.5, -1206918.3, 20745.36, 0.31432074, 0.15170197, -1095296.9, -4846.9014, 0.0000063962675, 10.002111, 9.9882555 
8.27034e+2, 1.9871859e+2, -1005526.5, -1109257.8, 19245.303, 0.2952546, 0.097536094, -1002071.0, -9501.828, 0.00000083170164, 10.001719, 9.988438 
8.2676774e+2, 2.0870665e+2, -914345.0, -1022048.06, 26231.557, 0.28116414, 0.08853969, -908295.94, -13609.542, 0.000000079560614, 10.001567, 9.987758 
8.2650197e+2, 2.186944e+2, -820545.8, -930368.8, 36037.02, 0.26963648, 0.09775665, -809776.75, -12969.832, 0.0000000056200697, 10.001473, 9.987344 
8.262382e+2, 2.2868158e+2, -735269.94, -852829.6, 41543.266, 0.30154228, 0.15639488, -722071.2, -23135.994, 0.00000000032575911, 10.001248, 9.986064 
8.259749e+2, 2.3866828e+2, -644015.75, -758429.75, 42085.094, 0.3408194, 0.21922044, -630203.06, -29134.639, 0.00000000048077403, 10.000791, 9.986046 
8.2571e+2, 2.4865371e+2, -576552.25, -682146.25, 42421.16, 0.2567927, 0.19338807, -561621.3, -58411.645, 0.000000005239319, 9.998995, 9.985379 
8.2544434e+2, 2.5863868e+2, -503573.72, -587781.8, 44846.547, 0.13969167, 0.14122112, -484163.8, -78809.3, 0.000000041851326, 9.996901, 9.986113 
8.2517797e+2, 2.6862478e+2, -404657.84, -475517.63, 24407.178, 0.11601648, 0.054591555, -397064.63, -89575.69, 0.0000002430437, 9.996341, 9.987364 
8.249108e+2, 2.786113e+2, -313602.28, -384948.22, 15981.862, 0.11922885, -0.033065684, -310185.88, -100565.98, 0.0000010289219, 9.996068, 9.987087 
8.2464397e+2, 2.885995e+2, -247288.39, -310741.78, 18582.635, 0.054956537, 0.13360061, -242246.92, -130509.21, 0.000003206874, 9.99431, 9.986216 
8.2437634e+2, 2.9858777e+2, -196227.4, -255429.48, 31906.867, -0.029289411, 0.3719202, -182305.25, -168449.89, 0.0000075463436, 9.991984, 9.984351 
8.2411104e+2, 3.0856857e+2, -206494.52, -238216.22, 28996.918, 0.061905358, 0.09837728, -189304.08, -189304.08, 0.000014001417, 9.988137, 9.98395 
8.238414e+2, 3.185552e+2, -88609.086, 104957.01, -19778.42, -0.016402787, 0.07074647, 106957.28, 106957.28, 0.000021580927, 9.983625, 10.009497 
8.389223e+2, 1.2904416e+2, -1569641.1, -1641404.4, -3154.0972, 0.5254709, 0.14298639, -1569502.8, 105882.36, 0.0011421927, 10.00603, 9.996605 
8.3864874e+2, 1.3904104e+2, -1518054.8, -1585172.3, -382.23975, 0.3756574, 0.2050717, -1518052.6, 59362.0, 0.0007435361, 10.003681, 9.994872 
8.3837694e+2, 1.4903402e+2, -1453329.6, -1533215.9, 11651.914, 0.3210019, 0.19734316, -1451664.9, 27817.268, 0.00040280866, 10.002686, 9.992306 
8.38107e+2, 1.5902625e+2, -1355409.6, -1424097.9, 10995.651, 0.3038386, 0.16768001, -1353692.4, 27864.781, 0.00017225166, 10.002187, 9.993304 
8.378383e+2, 1.690199e+2, -1249215.5, -1312882.8, 17140.127, 0.3331295, 0.12934816, -1244894.4, 38724.05, 0.00005573453, 10.002334, 9.994203 
8.375706e+2, 1.7901337e+2, -1162461.9, -1245661.8, 15856.123, 0.36254916, 0.09903574, -1159542.5, 26139.336, 0.000013319515, 10.002652, 9.991965 
8.3730286e+2, 1.8900277e+2, -1098963.1, -1212187.9, 20986.666, 0.33275038, 0.1218475, -1095198.4, -7412.358, 0.00000232996, 10.002356, 9.987756 
8.370358e+2, 1.9899102e+2, -999259.06, -1101362.4, 21731.584, 0.29603404, 0.14899176, -994826.2, -4924.5757, 0.00000029792903, 10.001943, 9.988834 
8.3676964e+2, 2.0898037e+2, -900655.06, -995478.0, 27466.223, 0.3092387, 0.1356087, -893273.8, -1267.875, 0.000000027884644, 10.00165, 9.989508 
8.36504e+2, 2.189695e+2, -814021.25, -915374.75, 35393.04, 0.32445088, 0.12098546, -802885.4, -8772.736, 0.0000000019195052, 10.00142, 9.988385 
8.362391e+2, 2.2895688e+2, -738251.8, -855433.4, 40265.92, 0.26611882, 0.17650302, -725749.56, -29510.668, 0.00000000019751621, 10.001106, 9.98594 
8.3597416e+2, 2.3894355e+2, -643624.06, -753332.94, 38970.902, 0.20087583, 0.23865274, -631190.0, -32817.563, 0.0000000015260163, 10.000602, 9.986456 
8.357083e+2, 2.4892993e+2, -567998.9, -664320.8, 34112.29, 0.19017638, 0.21107933, -557141.8, -56636.855, 0.000000016765284, 9.998959, 9.986567 
8.3544165e+2, 2.5891584e+2, -506559.3, -596554.9, 39226.383, 0.183114, 0.16943608, -491861.94, -89220.51, 0.00000013388681, 9.997005, 9.985432 
8.351747e+2, 2.689002e+2, -431317.22, -532088.75, 23397.191, 0.14759167, 0.19436046, -426149.84, -121354.984, 0.0000007772567, 9.99643, 9.9834385 
8.349068e+2, 2.788843e+2, -323265.4, -405350.7, 12308.669, 0.10741257, 0.21021843, -321459.47, -114508.66, 0.0000032894218, 9.9961, 9.985651 
8.34638e+2, 2.888711e+2, -229563.4, -273635.84, 9019.621, 0.02664128, 0.1140774, -227788.94, -118711.234, 0.000010249668, 9.99428, 9.98872 
8.343679e+2, 2.988587e+2, -186725.08, -233132.05, 19469.186, -0.06334351, 0.051369783, -179639.11, -168441.5, 0.000024110983, 9.991837, 9.985896 
8.340988e+2, 3.088435e+2, -208052.28, -238490.94, 11893.934, 0.03806042, 0.12794113, -203955.98, -203955.98, 0.000044716184, 9.987936, 9.983946 
8.338253e+2, 3.1883076e+2, -98135.51, 82836.99, -31295.963, 0.010583951, 0.17628948, 88096.23, 88096.23, 0.00006893188, 9.983693, 10.007856 
8.4892553e+2, 1.2931962e+2, -1611632.3, -1663481.0, 9498.932, 0.42775962, 0.22560316, -1609946.9, 62740.71, 0.00036341642, 10.00315, 9.996368 
8.486516e+2, 1.3931541e+2, -1537957.4, -1589774.1, 7499.1753, 0.3949789, 0.18929076, -1536893.9, 37833.44, 0.00023620963, 10.002029, 9.995286 
8.483799e+2, 1.4930946e+2, -1451584.1, -1517856.3, 27961.777, 0.3734062, 0.18587741, -1441362.9, 35421.492, 0.00012768328, 10.002121, 9.993544 
8.481101e+2, 1.5930295e+2, -1348227.0, -1419250.3, 32684.537, 0.3634987, 0.185244, -1335475.3, 43371.83, 0.000054433065, 10.002559, 9.993335 
8.478412e+2, 1.6929565e+2, -1252893.6, -1331756.1, 34901.33, 0.3519195, 0.16459538, -1239666.3, 41251.75, 0.00001753889, 10.002763, 9.992631 
8.475732e+2, 1.7928788e+2, -1159691.1, -1247518.1, 26708.953, 0.34026873, 0.13978998, -1152206.6, 30787.205, 0.000004167791, 10.002911, 9.9916725 
8.473054e+2, 1.892781e+2, -1082482.6, -1186567.9, 36756.266, 0.32710356, 0.14536966, -1070811.4, 14278.179, 0.00000072355056, 10.002637, 9.989273 
8.470381e+2, 1.9926752e+2, -988089.8, -1087445.1, 45002.33, 0.31409016, 0.15772864, -970737.0, 16456.238, 0.00000009158835, 10.002254, 9.989486 
8.467713e+2, 2.0925675e+2, -904604.9, -1001768.2, 43559.074, 0.3165435, 0.14855275, -887936.44, 1362.453, 0.000000008458323, 10.00148, 9.989059 
8.4650487e+2, 2.1924569e+2, -822581.9, -916715.94, 42676.914, 0.31797388, 0.13982242, -806114.5, -14706.47, 0.0000000005826384, 10.000624, 9.988644 
8.462394e+2, 2.2923383e+2, -751017.44, -849625.56, 50087.87, 0.26412424, 0.18781383, -730038.56, -36512.445, 0.00000000027701247, 9.999621, 9.986989 
8.4597373e+2, 2.3922132e+2, -666226.44, -757935.5, 55256.066, 0.20085187, 0.23905535, -640276.56, -44625.605, 0.0000000037648156, 9.9986925, 9.986966 
8.457075e+2, 2.492077e+2, -561717.7, -663087.94, 45146.676, 0.19354752, 0.2106514, -544526.4, -46742.625, 0.00000004137552, 9.999382, 9.986388 
8.4544045e+2, 2.5919354e+2, -460267.25, -575721.1, 43488.44, 0.19667372, 0.17652984, -445719.4, -45797.8, 0.00000033035957, 10.000147, 9.98532 
8.451724e+2, 2.6917806e+2, -396197.7, -518274.47, 45732.094, 0.1585321, 0.24302743, -380966.1, -78891.875, 0.000001917329, 9.998865, 9.983046 
8.449034e+2, 2.791621e+2, -310317.7, -402225.94, 55321.75, 0.111275025, 0.30354694, -284353.25, -80121.625, 0.00000811236, 9.996999, 9.98511 
8.4463257e+2, 2.8914785e+2, -225831.47, -276673.06, 33031.445, 0.038357012, 0.15267149, -209571.4, -103203.086, 0.000025276431, 9.9946, 9.988126 
8.4436005e+2, 2.991342e+2, -177627.7, -224029.16, 22292.21, -0.04516091, 0.0005538079, -168653.66, -160155.2, 0.000059457765, 9.992112, 9.986297 
8.4408784e+2, 3.0912054e+2, -161636.7, -197646.88, 18619.182, 0.04088914, 0.10439406, -153740.88, -153740.88, 0.00011023596, 9.990138, 9.985538 
8.4381115e+2, 3.191087e+2, -51321.375, 68884.22, -12331.388, 0.01282791, 0.16680807, 70136.2, 70136.2, 0.0001699231, 9.988313, 10.004481 
8.589275e+2, 1.2959695e+2, -1616656.4, -1674818.6, 4799.5166, 0.3131261, 0.30647004, -1616263.0, 53708.113, 0.00009383463, 10.003191, 9.995555 
8.5865414e+2, 1.3959114e+2, -1523894.4, -1579366.8, 4414.712, 0.42867404, 0.16812415, -1523545.3, 48481.457, 0.00006094004, 10.002842, 9.995585 
8.5838294e+2, 1.495864e+2, -1427645.8, -1486826.9, 26302.537, 0.45282507, 0.15100516, -1417645.6, 56425.85, 0.00003290037, 10.002936, 9.99528 
8.581137e+2, 1.5958136e+2, -1339598.0, -1414538.9, 28356.633, 0.45745444, 0.16204956, -1330077.6, 46041.543, 0.000014001087, 10.003145, 9.993404 
8.5784423e+2, 1.6957319e+2, -1267387.3, -1361488.8, 34248.62, 0.37994602, 0.19601053, -1256242.3, 21957.598, 0.0000045003767, 10.002771, 9.990609 
8.5757565e+2, 1.795643e+2, -1167124.8, -1252109.1, 29288.072, 0.29836956, 0.22274303, -1158009.1, 22278.602, 0.0000010659371, 10.002454, 9.991555 
8.5730785e+2, 1.895558e+2, -1069460.5, -1152862.9, 37035.332, 0.31312534, 0.18664126, -1055388.9, 26981.113, 0.00000018424288, 10.002341, 9.9916935 
8.570406e+2, 1.9954672e+2, -983993.6, -1077492.5, 42413.305, 0.3387942, 0.14580394, -967621.0, 16836.924, 0.000000023185766, 10.002183, 9.9901905 
8.567727e+2, 2.0953521e+2, -913523.44, -1022575.06, 40771.22, 0.30945516, 0.14634196, -899965.75, -13394.06, 0.0000000021246724, 10.001571, 9.987578 
8.5650516e+2, 2.1952316e+2, -819207.6, -914982.6, 41147.43, 0.27677545, 0.15670824, -803957.75, -15266.699, 0.00000000016612564, 10.000839, 9.988628 
8.5623926e+2, 2.295125e+2, -733228.3, -820527.75, 46613.31, 0.28862348, 0.19276752, -713018.06, -22221.646, 0.0000000005117208, 9.999939, 9.9887905 
8.559734e+2, 2.395013e+2, -657314.8, -747964.6, 54700.11, 0.29743463, 0.22631378, -631601.4, -38694.55, 0.000000007636883, 9.999073, 9.987453 
8.557074e+2, 2.4948694e+2, -568364.56, -679793.7, 49097.266, 0.24240057, 0.19651856, -549818.44, -54771.31, 0.000000083933806, 9.999563, 9.985159 
8.5544044e+2, 2.5947195e+2, -456582.72, -566544.2, 43454.703, 0.18072766, 0.16284464, -441483.56, -44290.004, 0.0000006701713, 10.000102, 9.985948 
8.551712e+2, 2.6945856e+2, -375172.78, -473350.1, 39116.19, 0.15228651, 0.19983217, -361493.8, -62167.707, 0.000003889244, 9.998788, 9.98611 
8.5490066e+2, 2.7944493e+2, -308405.72, -397935.06, 47661.324, 0.13260615, 0.24742386, -287783.25, -86322.37, 0.000016458524, 9.99696, 9.985375 
8.5462767e+2, 2.8942993e+2, -254110.02, -334188.88, 23078.62, 0.09708052, 0.285623, -247934.95, -144327.95, 0.000051312716, 9.994516, 9.984178 
8.5435295e+2, 2.9941455e+2, -183480.86, -234303.22, 13588.253, 0.04024262, 0.2901481, -180075.92, -174320.16, 0.00012079808, 9.992009, 9.9856 
8.5407835e+2, 3.0939895e+2, -133263.19, -140702.77, 12279.048, 0.07792312, -0.0530831, -124152.87, -124152.87, 0.00022408634, 9.990215, 9.989347 
8.537993e+2, 3.1939128e+2, -87029.43, -16054.686, -14540.018, -0.049802974, 0.23447277, -13191.494, -13191.494, 0.00034551264, 9.988831, 9.998344 
8.6893123e+2, 1.2987298e+2, -1640382.9, -1696868.8, 14406.565, 0.41865924, 0.19188085, -1636920.8, 30343.643, 0.000019043677, 10.002021, 9.994608 
8.6865777e+2, 1.3986813e+2, -1521070.4, -1583013.6, 11628.941, 0.46196622, 0.2326864, -1518959.1, 50353.82, 0.000012362725, 10.003226, 9.995135 
8.683865e+2, 1.4986305e+2, -1417355.5, -1481332.8, 28049.436, 0.45932686, 0.1907132, -1406799.6, 64561.668, 0.0000066696857, 10.003579, 9.995366 
8.681172e+2, 1.5985774e+2, -1328193.1, -1402150.1, 22590.01, 0.44979587, 0.15051956, -1321839.0, 51572.83, 0.000002835376, 10.003564, 9.994085 
8.678465e+2, 1.6985072e+2, -1269371.6, -1347830.4, 35438.785, 0.37090036, 0.183726, -1255734.6, 19746.43, 0.0000009100635, 10.001915, 9.991919 
8.6757684e+2, 1.798431e+2, -1190272.9, -1252825.6, 44616.9, 0.28794193, 0.21930891, -1167061.8, 10494.58, 0.00000021513608, 10.000352, 9.992424 
8.673091e+2, 1.8983528e+2, -1088083.8, -1154994.3, 51425.617, 0.2958603, 0.1892393, -1060188.8, 19443.496, 0.000000037089958, 10.000726, 9.992275 
8.670421e+2, 1.9982684e+2, -992302.5, -1077065.4, 49541.098, 0.31626293, 0.155684, -969488.0, 12226.398, 0.0000000046516857, 10.001366, 9.9906 
8.667741e+2, 2.0981587e+2, -911257.5, -1018731.44, 52529.86, 0.29018164, 0.18404058, -889847.6, -6024.154, 0.0000000004243601, 10.001539, 9.987795 
8.6650634e+2, 2.1980424e+2, -803051.75, -903043.5, 60459.234, 0.26080498, 0.21610594, -774594.44, 11344.53, 0.00000000007172086, 10.001696, 9.988921 
8.6624026e+2, 2.2979358e+2, -697921.4, -798261.06, 60876.527, 0.2774533, 0.21398216, -669205.44, 18837.92, 0.00000000090821445, 10.002054, 9.989212 
8.659742e+2, 2.3978245e+2, -607070.44, -717633.25, 63146.28, 0.295473, 0.20668672, -578426.4, 11725.735, 0.000000013716953, 10.002163, 9.987995 
8.657075e+2, 2.4976873e+2, -549760.8, -664815.3, 64279.07, 0.24810517, 0.18696143, -521025.78, -28739.81, 0.00000015076525, 10.00048, 9.985638 
8.654398e+2, 2.597544e+2, -472693.34, -565346.1, 67133.414, 0.18663712, 0.16817501, -437453.63, -43027.508, 0.0000012040816, 9.998507, 9.986639 
8.651693e+2, 2.6974174e+2, -381123.22, -463330.8, 51655.547, 0.13991305, 0.18231484, -356213.25, -59661.863, 0.000006992672, 9.997709, 9.987216 
8.648973e+2, 2.7972892e+2, -303301.5, -392346.78, 49274.33, 0.11089486, 0.21109593, -281414.63, -82736.24, 0.000029645124, 9.997051, 9.985691 
8.646235e+2, 2.8971398e+2, -226351.95, -331563.22, 41799.71, 0.118751824, 0.32025936, -211767.05, -110942.5, 0.0000927102, 9.996734, 9.983152 
8.643476e+2, 2.9969856e+2, -116579.016, -198163.34, 49433.977, 0.10315311, 0.39377764, -93279.695, -90303.914, 0.00021904246, 9.9962435, 9.985767 
8.640705e+2, 3.0968264e+2, -74159.5, -100246.5, 32035.541, 0.10427184, -0.07043204, -52613.855, -52613.855, 0.0004076202, 9.993571, 9.990322 
8.6378896e+2, 3.1967625e+2, -78869.39, -67086.586, 1454.2836, -0.11024552, 0.37292153, -66909.75, -66909.75, 0.00062982744, 9.991695, 9.993406 
8.789349e+2, 1.3014938e+2, -1621731.1, -1694268.1, 12170.403, 0.5600181, 0.06300469, -1619743.6, 44809.94, 0.000002958578, 10.003617, 9.99405 
8.786612e+2, 1.4014612e+2, -1531872.0, -1593085.0, 14323.54, 0.48837206, 0.31617832, -1528686.1, 37903.004, 0.0000019202917, 10.002732, 9.99468 
8.783897e+2, 1.5014037e+2, -1437434.8, -1495205.5, 32143.518, 0.44234085, 0.24492799, -1423104.8, 45540.05, 0.0000010355539, 10.002405, 9.994967 
8.781201e+2, 1.6013438e+2, -1341499.5, -1397785.6, 23620.313, 0.40881553, 0.14383644, -1332900.9, 37801.67, 0.0000004399312, 10.002173, 9.995011 
8.778481e+2, 1.7012917e+2, -1257485.6, -1314751.5, 30599.906, 0.35137102, 0.15782875, -1244211.5, 28541.646, 0.00000014107277, 10.001502, 9.994332 
8.7757725e+2, 1.8012357e+2, -1174573.4, -1232341.0, 41874.14, 0.29121307, 0.18496239, -1152587.5, 22220.54, 0.00000003330806, 10.000859, 9.993568 
8.773097e+2, 1.9011618e+2, -1083977.6, -1154364.4, 53843.39, 0.27641365, 0.17905909, -1054846.3, 22034.393, 0.0000000057331504, 10.001092, 9.992148 
8.7704307e+2, 2.0010804e+2, -988412.75, -1070432.5, 51810.605, 0.27228418, 0.17790787, -963345.75, 15614.938, 0.00000000071752804, 10.001446, 9.991009 
8.767754e+2, 2.1009839e+2, -902817.25, -1001158.5, 54123.234, 0.26717237, 0.24273764, -878864.2, 2193.1445, 0.00000000006547386, 10.001544, 9.988978 
8.76508e+2, 2.2008802e+2, -800149.5, -896255.44, 63059.934, 0.25807783, 0.29806575, -768920.44, 14240.4, 0.000000000075104825, 10.001681, 9.989381 
8.762419e+2, 2.3007666e+2, -702080.7, -804039.94, 63902.44, 0.23960862, 0.24274185, -671314.06, 13957.0, 0.0000000014740101, 10.001954, 9.988853 
8.7597567e+2, 2.4006489e+2, -603977.4, -707228.0, 62336.67, 0.22488762, 0.1818573, -574664.25, 12720.943, 0.000000022289068, 10.001983, 9.988764 
8.7570775e+2, 2.5005302e+2, -536593.3, -637270.5, 57355.832, 0.22518286, 0.18268251, -510618.97, -21118.068, 0.0000002449646, 10.000427, 9.987495 
8.7543845e+2, 2.6004052e+2, -466561.13, -554775.8, 62626.203, 0.21033186, 0.1907462, -434068.84, -42446.168, 0.0000019576598, 9.998582, 9.987293 
8.7516683e+2, 2.7002734e+2, -385126.03, -472828.97, 48941.64, 0.11751887, 0.18895076, -363264.22, -69511.914, 0.000011400719, 9.997774, 9.986512 
8.748938e+2, 2.8001383e+2, -298026.78, -382419.0, 47003.53, 0.04233331, 0.18875587, -277057.66, -81172.06, 0.000048631977, 9.997116, 9.986313 
8.7462014e+2, 2.9000005e+2, -207827.66, -295581.94, 42299.863, 0.097284675, 0.22684608, -190758.25, -92737.51, 0.00015357231, 9.996865, 9.985536 
8.7434435e+2, 2.9998645e+2, -106538.445, -182090.92, 44626.816, 0.13395976, 0.27418473, -85845.914, -85691.48, 0.00036699927, 9.996422, 9.986739 
8.7406427e+2, 3.0997282e+2, -92362.49, -139833.56, 20563.148, 0.11786198, 0.1682623, -84693.91, -84693.91, 0.00068988843, 9.993573, 9.987555 
8.737803e+2, 3.1996062e+2, -86825.13, -83673.4, 8849.145, -0.14420174, 0.28644237, -76260.9, -76260.9, 0.0010735199, 9.991755, 9.992274 
8.8893986e+2, 1.3042533e+2, -1588902.3, -1642860.8, -4290.206, 0.6115494, 0.107870325, -1588563.4, 73288.414, 0.00000034527207, 10.004201, 9.997253 
8.886626e+2, 1.404241e+2, -1551144.8, -1581328.8, 13247.882, 0.48821554, 0.2835568, -1546155.0, 17710.855, 0.00000022408217, 10.000426, 9.996537 
8.8838977e+2, 1.5041976e+2, -1482200.0, -1509016.8, 40352.62, 0.41951632, 0.25364158, -1453086.4, 12822.094, 0.00000012080618, 9.998963, 9.995623 
8.881195e+2, 1.6041479e+2, -1394928.5, -1417873.6, 37947.566, 0.3760435, 0.19911541, -1366757.1, 1199.5413, 0.000000051297388, 9.998254, 9.995465 
8.878487e+2, 1.7040981e+2, -1277313.6, -1318857.1, 42762.44, 0.3538467, 0.19483458, -1250545.0, 19460.162, 0.00000001643881, 9.999911, 9.994795 
8.87579e+2, 1.8040453e+2, -1159337.6, -1217919.4, 45799.836, 0.32893, 0.19982976, -1134263.3, 37793.633, 0.000000003877973, 10.0015745, 9.994207 
8.8731134e+2, 1.9039802e+2, -1074412.8, -1140527.6, 58270.496, 0.3117406, 0.20713587, -1040475.8, 33644.867, 0.00000000066676814, 10.001308, 9.992965 
8.870444e+2, 2.0039088e+2, -988921.94, -1057517.1, 60682.59, 0.2979278, 0.21704425, -953515.1, 22676.012, 0.00000000008333369, 10.000803, 9.992153 
8.867767e+2, 2.1038239e+2, -902575.7, -981692.06, 66392.85, 0.2840446, 0.246136, -864849.6, 13425.782, 0.000000000010516922, 10.000684, 9.990656 
8.8650924e+2, 2.2037324e+2, -806846.2, -886103.9, 78712.49, 0.2666295, 0.2726885, -758349.56, 22016.277, 0.00000000009886734, 10.000598, 9.990511 
8.8624287e+2, 2.3036303e+2, -722319.3, -805072.7, 84761.73, 0.22977293, 0.24977794, -669374.3, 13091.316, 0.0000000020481024, 10.000134, 9.989534 
8.8597614e+2, 2.4035224e+2, -628723.7, -707678.25, 88501.82, 0.1982264, 0.21759543, -571293.6, 13276.692, 0.000000030974796, 9.999722, 9.989662 
8.857079e+2, 2.5034133e+2, -528356.5, -618111.9, 80940.45, 0.20580289, 0.2033989, -480684.94, 5991.5957, 0.00000034048438, 10.000242, 9.988745 
8.854381e+2, 2.6032984e+2, -429394.34, -530318.94, 84442.01, 0.20519432, 0.2020863, -381485.44, 7303.384, 0.0000027257565, 10.000728, 9.987804 
8.8516563e+2, 2.7031687e+2, -358743.44, -463772.06, 70889.77, 0.13011888, 0.23422153, -323035.78, -32119.553, 0.000015971162, 9.999598, 9.986094 
8.8489115e+2, 2.803032e+2, -286677.22, -369286.88, 68913.516, 0.05841962, 0.23819152, -247638.03, -54587.633, 0.0000690861, 9.997396, 9.986906 
8.846159e+2, 2.902888e+2, -222101.47, -294675.25, 62393.98, 0.06007217, 0.12309309, -186209.78, -91018.61, 0.00022324531, 9.9953985, 9.986229 
8.843398e+2, 3.0027524e+2, -117537.54, -189190.14, 53192.684, 0.065594524, 0.11476343, -89231.27, -89231.27, 0.0005485991, 9.995641, 9.986613 
8.8406014e+2, 3.102649e+2, -49060.773, -152831.61, 22453.611, 0.13762955, 0.52473277, -44410.703, -44410.703, 0.0010574318, 9.997946, 9.984518 
8.837759e+2, 3.2024482e+2, 15545.592, -39675.957, 16277.191, -0.11562704, 0.13124552, 19986.367, 19986.367, 0.0016748939, 9.999061, 9.991745 
8.989438e+2, 1.307022e+2, -1585439.3, -1600429.0, -8825.076, 0.62503916, 0.18764219, -1581355.9, 77786.35, 0.000000029867618, 10.002571, 10.000804 
8.986629e+2, 1.4070275e+2, -1530714.3, -1546977.9, 6335.3374, 0.47592166, 0.2266675, -1528537.6, 32598.742, 0.000000019382966, 10.000705, 9.998691 
8.983887e+2, 1.5070026e+2, -1461365.8, -1487618.5, 36128.387, 0.39678693, 0.25598618, -1436053.1, 27108.219, 0.000000010447276, 9.999871, 9.99662 
8.981177e+2, 1.606968e+2, -1376404.9, -1405446.0, 39174.375, 0.35202467, 0.27256227, -1349146.5, 16049.087, 0.000000004434464, 9.99939, 9.995768 
8.978489e+2, 1.7069161e+2, -1273508.0, -1318646.3, 50046.273, 0.36752346, 0.25142148, -1241177.3, 26069.25, 0.0000000014203173, 10.000302, 9.994641 
8.975811e+2, 1.8068612e+2, -1160203.1, -1212087.1, 49016.766, 0.37984306, 0.23386107, -1130686.8, 38613.54, 0.00000000033482794, 10.001269, 9.994751 
8.9731324e+2, 1.9068079e+2, -1067667.4, -1123037.6, 57334.97, 0.369373, 0.25187016, -1031683.3, 39669.21, 0.000000000057520166, 10.001146, 9.994218 
8.9704585e+2, 2.0067494e+2, -976545.06, -1034100.6, 60453.52, 0.3538117, 0.2617479, -938369.2, 35040.305, 0.0000000000071813653, 10.000895, 9.993692 
8.9677775e+2, 2.1066757e+2, -884558.94, -950169.5, 65832.875, 0.31889343, 0.2171431, -843810.5, 31670.533, 0.00000000000428494, 10.000937, 9.9926815 
8.9650995e+2, 2.2065982e+2, -790627.06, -859748.25, 76650.53, 0.28055966, 0.18849239, -741105.9, 36450.633, 0.00000000010849106, 10.00091, 9.99216 
8.9624304e+2, 2.3065194e+2, -707294.6, -780270.2, 81794.26, 0.23787221, 0.24992348, -654218.7, 25415.482, 0.000000002258234, 10.000399, 9.991093 
8.959759e+2, 2.406434e+2, -617373.94, -689268.44, 88434.086, 0.20009665, 0.29621407, -557860.25, 23858.09, 0.000000034158017, 9.999955, 9.990806 
8.9570796e+2, 2.5063306e+2, -520024.47, -602298.44, 83268.01, 0.18555835, 0.23960386, -468286.22, 15533.175, 0.00000037566133, 10.000336, 9.989787 
8.954386e+2, 2.6062214e+2, -425560.44, -521349.16, 84024.836, 0.17686813, 0.20553257, -376738.5, 9187.912, 0.00000301649, 10.00069, 9.988432 
8.951657e+2, 2.7061027e+2, -358589.84, -463236.38, 63744.934, 0.18174286, 0.32153755, -328444.06, -40400.688, 0.000017853601, 9.999577, 9.986094 
8.948896e+2, 2.8059712e+2, -282134.78, -359601.28, 57416.813, 0.15889725, 0.35957497, -251607.98, -61435.613, 0.000079075995, 9.997342, 9.987527 
8.946105e+2, 2.9058018e+2, -231449.17, -311368.4, 60451.453, -0.0074645663, -0.0027543928, -198943.97, -106607.57, 0.00026623905, 9.995219, 9.985187 
8.9433324e+2, 3.0056477e+2, -129606.266, -208727.0, 60549.76, -0.12880445, -0.09640118, -96838.94, -96838.94, 0.00069019, 9.995418, 9.985431 
8.940586e+2, 3.1055954e+2, -69362.05, -197293.92, 30524.076, 0.17627029, 1.051474, -62452.32, -62452.32, 0.0014013384, 9.99811, 9.981418 
8.937764e+2, 3.205294e+2, 24922.422, -29160.924, 10825.323, 0.0021254218, -0.07231107, 27008.736, 27008.736, 0.0023083058, 9.999447, 9.992226 
9.0894276e+2, 1.3098423e+2, -1647956.5, -1642333.0, 7448.4385, 0.49417558, 0.30109698, -1637183.3, 19199.826, 0.000000001903787, 9.998822, 9.999672 
9.08663e+2, 1.4098333e+2, -1540693.1, -1553393.0, 10401.909, 0.43283954, 0.2739894, -1534856.1, 23534.95, 0.0000000012354053, 10.000097, 9.99853 
9.0838945e+2, 1.5098086e+2, -1446429.4, -1474779.6, 36602.957, 0.4199127, 0.27227402, -1421352.6, 39061.953, 0.00000000066574474, 10.000647, 9.997113 
9.081189e+2, 1.6097775e+2, -1352291.0, -1388447.1, 38256.664, 0.420762, 0.27475068, -1328056.1, 34388.58, 0.0000000002824927, 10.000799, 9.996243 
9.078496e+2, 1.7097329e+2, -1272790.0, -1311869.1, 51223.58, 0.41337875, 0.27392367, -1237505.8, 26982.936, 0.00000000009044054, 10.000068, 9.995204 
9.0758157e+2, 1.8096861e+2, -1180301.8, -1211444.3, 53579.49, 0.40031987, 0.27382517, -1140076.8, 26457.813, 0.000000000021308946, 9.999449, 9.995651 
9.0731376e+2, 1.9096442e+2, -1077298.9, -1112967.5, 62836.563, 0.3794096, 0.28739274, -1029814.75, 38760.574, 0.000000000003658245, 9.999856, 9.9955 
9.070465e+2, 2.0095964e+2, -977786.7, -1024930.6, 66094.33, 0.35727793, 0.28910753, -931186.75, 39434.766, 0.00000000000045636807, 10.000396, 9.994537 
9.0677893e+2, 2.109529e+2, -875504.4, -936161.2, 66808.83, 0.32151997, 0.23069741, -832462.25, 40224.16, 0.0000000000030655227, 10.001152, 9.993548 
9.065114e+2, 2.2094604e+2, -769056.44, -833443.75, 71187.84, 0.28272384, 0.18703678, -723121.06, 51631.582, 0.0000000000903565, 10.001693, 9.993617 
9.0624404e+2, 2.3093998e+2, -680014.8, -743774.1, 76213.56, 0.24290769, 0.24014206, -629282.0, 47530.12, 0.0000000018811002, 10.00123, 9.993206 
9.0597624e+2, 2.4093334e+2, -599034.75, -664850.06, 85744.875, 0.2043111, 0.28828812, -540099.6, 38777.758, 0.000000028451819, 10.000506, 9.992218 
9.057076e+2, 2.5092453e+2, -526108.75, -589475.25, 82228.28, 0.1700135, 0.25376466, -469670.94, 11293.484, 0.00000031314025, 9.999198, 9.991215 
9.054376e+2, 2.609154e+2, -448795.53, -506226.1, 88481.53, 0.14869884, 0.23313037, -384486.38, -1432.04, 0.0000025239594, 9.997905, 9.990784 
9.0516436e+2, 2.709065e+2, -360336.16, -423193.88, 88187.19, 0.18463384, 0.3289002, -298144.75, -13002.797, 0.000015124688, 9.997587, 9.98962 
9.048872e+2, 2.808965e+2, -258201.69, -316494.9, 102238.89, 0.18677218, 0.3597447, -181035.95, 6203.89, 0.00006901787, 9.997409, 9.990129 
9.046034e+2, 2.90883e+2, -255882.06, -277742.53, 111792.97, -0.032639492, 0.040731654, -154486.27, -65115.38, 0.00024569064, 9.991157, 9.988923 
9.189403e+2, 1.3126725e+2, -1655850.4, -1668153.3, 10271.953, 0.35895693, 0.4094471, -1650028.8, 3585.8335, 0.00000000008526822, 9.999284, 9.997729 
9.186628e+2, 1.4126438e+2, -1538164.8, -1558792.0, 14516.16, 0.39345962, 0.3426774, -1530671.4, 24969.979, 0.00000000005532455, 10.000585, 9.997933 
9.183905e+2, 1.5126154e+2, -1441908.3, -1469268.8, 37473.113, 0.45797807, 0.29037726, -1415696.4, 41970.98, 0.000000000029806633, 10.000824, 9.997407 
9.181206e+2, 1.6125844e+2, -1348169.0, -1380304.3, 35803.027, 0.51173204, 0.25775996, -1324993.5, 34702.87, 0.000000000012643394, 10.00081, 9.996795 
9.178502e+2, 1.7125504e+2, -1261048.5, -1296657.5, 47272.79, 0.46295446, 0.28781655, -1228338.5, 33391.555, 0.0000000000040459667, 10.00044, 9.996052 
9.1758114e+2, 1.8125157e+2, -1163127.5, -1191104.4, 52993.055, 0.40480363, 0.31540918, -1122307.6, 41456.555, 0.000000000000952743, 10.000108, 9.99672 
9.173135e+2, 1.9124848e+2, -1060990.3, -1090044.5, 63630.97, 0.36713392, 0.31624073, -1010249.2, 55544.43, 0.00000000000016345195, 10.00034, 9.996838 
9.170467e+2, 2.0124465e+2, -970843.1, -1015905.0, 67703.6, 0.3355252, 0.3079784, -922019.9, 45810.086, 0.000000000000020373985, 10.000653, 9.995041 
9.1677994e+2, 2.1123837e+2, -874432.56, -932352.1, 69997.13, 0.3072052, 0.26921076, -827641.0, 42249.96, 0.0000000000018606304, 10.001115, 9.993829 
9.165131e+2, 2.2123219e+2, -763081.2, -814998.94, 72303.67, 0.2773568, 0.23144732, -712217.6, 59733.1, 0.000000000055557395, 10.001441, 9.994986 
9.162453e+2, 2.3122759e+2, -666003.7, -709682.94, 73922.305, 0.24595654, 0.21891357, -610762.4, 63232.332, 0.0000000011563022, 10.001006, 9.99563 
9.159768e+2, 2.4122263e+2, -590222.94, -643217.9, 81479.875, 0.21025534, 0.22171909, -531040.25, 45002.23, 0.000000017486771, 10.000346, 9.993759 
9.157066e+2, 2.51216e+2, -513917.3, -563848.75, 76762.09, 0.1575857, 0.2564892, -458163.13, 19946.018, 0.00000019261098, 9.99916, 9.992954 
9.1543514e+2, 2.6120973e+2, -419381.97, -446563.16, 86097.09, 0.116223454, 0.27695906, -345809.4, 34362.434, 0.000001557747, 9.99796, 9.994813 
9.1516143e+2, 2.712056e+2, -309823.78, -318903.5, 88402.96, 0.13629374, 0.251575, -225844.19, 56367.367, 0.000009437413, 9.997622, 9.996737 
9.148842e+2, 2.8120172e+2, -224839.75, -246883.55, 102050.94, 0.14497554, 0.2495625, -133217.23, 51032.35, 0.00004425717, 9.9973955, 9.994895 
9.14595e+2, 2.9119837e+2, -189916.94, -143654.88, 68226.68, 0.005204635, 0.31678602, -94744.77, -8460.557, 0.00016661992, 9.991245, 9.997705 
9.289405e+2, 1.3154744e+2, -1668995.9, -1673684.0, 12126.736, 0.47684434, 0.38686368, -1658988.8, -8118.4766, 0.0000000000029415736, 9.998421, 9.997835 
9.286637e+2, 1.4154504e+2, -1546498.8, -1566433.0, 16127.015, 0.42846063, 0.37103325, -1537507.4, 15385.804, 0.0000000000019083366, 10.00021, 9.997608 
9.28391e+2, 1.5154189e+2, -1455779.6, -1482029.1, 32931.33, 0.44941622, 0.3380343, -1433453.9, 21469.0, 0.0000000000010279229, 10.000159, 9.996871 
9.281207e+2, 1.6153865e+2, -1357192.6, -1380123.0, 30536.545, 0.47544035, 0.31378934, -1336039.9, 20913.889, 0.0000000000004359048, 10.000029, 9.997218 
9.278506e+2, 1.7153603e+2, -1250382.6, -1279670.4, 42802.555, 0.43330964, 0.3298672, -1219788.3, 39190.98, 0.0000000000001394446, 10.000694, 9.997112 
9.275818e+2, 1.8153338e+2, -1141150.8, -1170014.4, 48287.566, 0.38144127, 0.33774108, -1105184.5, 55819.97, 0.00000000000003282296, 10.00119, 9.997656 
9.273142e+2, 1.9153087e+2, -1044092.06, -1070913.3, 56776.78, 0.34245452, 0.30313015, -999163.6, 63863.832, 0.0000000000000056283993, 10.001054, 9.997827 
9.2704725e+2, 2.0152798e+2, -962357.0, -998477.4, 60022.64, 0.30671993, 0.28298837, -917736.4, 47318.19, 0.00000000000000070118843, 10.000687, 9.996243 
9.2678e+2, 2.115238e+2, -882270.44, -918577.25, 67103.55, 0.26907346, 0.31349725, -830908.1, 36187.88, 0.00000000000083497646, 9.999848, 9.995369 
9.265128e+2, 2.2151935e+2, -793154.3, -820676.06, 72379.82, 0.2370651, 0.32157087, -733238.9, 35901.008, 0.0000000000249549, 9.999033, 9.995727 
9.2624474e+2, 2.315148e+2, -697631.9, -717023.0, 65001.016, 0.22481064, 0.2567878, -641607.3, 29575.441, 0.00000000051935445, 9.998536, 9.996337 
9.25976e+2, 2.415105e+2, -611543.2, -634451.6, 66255.41, 0.20789985, 0.2183387, -555759.2, 17464.709, 0.0000000078541085, 9.998111, 9.995497 
9.257053e+2, 2.5150657e+2, -512464.78, -532453.8, 65856.36, 0.16836502, 0.28172556, -455848.84, 19415.064, 0.00000008654337, 9.997992, 9.995677 
9.2543304e+2, 2.6150316e+2, -406664.34, -410065.63, 75599.234, 0.12907584, 0.3198435, -332746.63, 44551.727, 0.0000007013428, 9.997598, 9.997482 
9.251582e+2, 2.7150166e+2, -308103.97, -278940.25, 55815.98, 0.120329864, 0.24379437, -235832.83, 43479.727, 0.0000042783217, 9.996181, 10.000295 
9.248799e+2, 2.8150108e+2, -245934.05, -221067.98, 48366.695, 0.111640684, 0.22551276, -183561.88, -2244.3723, 0.00002042177, 9.994606, 9.9982605 
9.245891e+2, 2.915027e+2, -85574.24, -52420.51, -16052.126, -0.001489414, 0.4422706, -45922.21, 37382.184, 0.00007993033, 9.997088, 10.001407 
9.3894064e+2, 1.3182648e+2, -1651683.6, -1658111.5, 12811.314, 0.63372487, 0.34550333, -1641689.3, 6447.358, 0.0, 9.99934, 9.998532 
9.3866444e+2, 1.418251e+2, -1543434.5, -1567399.0, 13887.308, 0.4747912, 0.39053547, -1537074.8, 13075.742, 0.0, 10.000538, 9.997432 
9.383909e+2, 1.5182176e+2, -1457036.1, -1489947.8, 30322.182, 0.42548347, 0.39408106, -1438992.3, 13190.901, 0.0, 10.000383, 9.996226 
9.3812e+2, 1.6181843e+2, -1351706.8, -1372481.3, 33327.156, 0.4024463, 0.39041016, -1327185.6, 27030.002, 0.0, 10.0002, 9.997651 
9.378508e+2, 1.7181647e+2, -1243787.4, -1264249.3, 45602.582, 0.37988675, 0.3793453, -1207282.1, 48951.465, 0.0, 10.000638, 9.998193 
9.3758255e+2, 1.8181446e+2, -1139462.0, -1160163.3, 48174.664, 0.34886062, 0.3517501, -1100538.6, 57713.01, 0.0, 10.000924, 9.99846 
9.3731487e+2, 1.9181225e+2, -1043541.06, -1062012.5, 54418.785, 0.31385013, 0.27257818, -997579.8, 62691.12, 0.0, 10.00072, 9.998599 
9.3704754e+2, 2.0181027e+2, -955750.25, -977894.8, 55776.51, 0.27544105, 0.2414798, -909957.6, 52331.355, 0.0, 10.000378, 9.997799 
9.367793e+2, 2.1180904e+2, -867694.3, -887032.94, 61440.727, 0.2194806, 0.3642441, -815166.7, 49136.72, 0.00000000000028468902, 9.999773, 9.997558 
9.365112e+2, 2.2180676e+2, -789564.7, -815986.4, 68329.93, 0.17836158, 0.43691978, -733180.25, 33147.02, 0.000000000008157955, 9.999149, 9.995992 
9.3624294e+2, 2.318014e+2, -697905.7, -721825.4, 62457.863, 0.18937667, 0.33048612, -646272.94, 22105.285, 0.00000000016979894, 9.998722, 9.995907 
9.35974e+2, 2.417971e+2, -595117.4, -604606.25, 66115.234, 0.20041944, 0.25699684, -533576.56, 36842.59, 0.0000000025679472, 9.998303, 9.99743 
9.3570364e+2, 2.5179625e+2, -487615.94, -482469.44, 65426.438, 0.19867134, 0.32175478, -419565.66, 52862.836, 0.000000028296595, 9.9980755, 9.999044 
9.354311e+2, 2.6179552e+2, -398455.84, -392601.84, 72040.78, 0.1809003, 0.36450773, -323428.63, 51007.195, 0.00000022950282, 9.997575, 9.99867 
9.351545e+2, 2.7179438e+2, -308498.0, -279510.3, 49003.49, 0.13335608, 0.30672285, -242902.16, 33544.688, 0.0000014045202, 9.996155, 10.000228 
9.348741e+2, 2.8179425e+2, -232303.55, -193286.05, 43628.746, 0.07813504, 0.27631503, -165002.97, 13444.759, 0.000006759484, 9.994631, 10.000123 
9.345855e+2, 2.917951e+2, -97099.22, -76516.58, 5071.9966, -0.068617545, 0.36146703, -75334.61, 5106.29, 0.000026932837, 9.997124, 9.999899 
9.4894046e+2, 1.3210186e+2, -1638482.0, -1636208.3, -280.615, 0.6388607, 0.38141805, -1636174.1, 9266.289, 0.0, 9.999622, 10.000007 
9.48665e+2, 1.4210139e+2, -1539121.0, -1550412.5, 721.0307, 0.4874241, 0.37519103, -1539075.1, 8369.338, 0.0, 10.000227, 9.998832 
9.483915e+2, 1.5209958e+2, -1452368.0, -1472677.5, 20495.598, 0.44837326, 0.39126128, -1439649.5, 9812.98, 0.0, 10.00009, 9.997573 
9.4812024e+2, 1.6209745e+2, -1354116.1, -1366782.1, 29768.799, 0.42531604, 0.4011405, -1330014.1, 21469.057, 0.0, 9.99979, 9.9982395 
9.47851e+2, 1.7209587e+2, -1255379.9, -1265682.0, 39863.78, 0.38630122, 0.39280334, -1220335.8, 33162.035, 0.0, 9.999726, 9.998551 
9.475827e+2, 1.8209414e+2, -1160801.8, -1170282.6, 38247.543, 0.34772286, 0.36747736, -1127002.0, 28511.508, 0.0, 9.999512, 9.9984865 
9.473148e+2, 1.9209199e+2, -1068947.4, -1074536.6, 40031.53, 0.32748777, 0.29747745, -1031613.06, 25919.662, 0.0, 9.999048, 9.998606 
9.470473e+2, 2.0209038e+2, -973610.94, -976015.9, 39045.76, 0.30487058, 0.26925102, -935749.1, 23798.139, 0.0, 9.998769, 9.998787 
9.4677925e+2, 2.1209039e+2, -867084.06, -869583.25, 41234.08, 0.26550448, 0.37327287, -827080.6, 34468.37, 0.000000000000067652664, 9.999146, 9.999155 
9.4651103e+2, 2.2208951e+2, -777665.06, -797887.7, 47455.566, 0.2281687, 0.4399319, -739255.56, 24303.572, 0.0000000000019384904, 9.999512, 9.99716 
9.4624245e+2, 2.3208553e+2, -676323.6, -699616.1, 48028.758, 0.20976163, 0.36471188, -638549.25, 27047.713, 0.000000000040347756, 9.9997835, 9.996963 
9.4597304e+2, 2.4208264e+2, -565134.2, -572653.44, 54151.98, 0.19735663, 0.31082916, -514611.44, 53012.977, 0.0000000006101943, 9.9997, 9.998955 
9.4570196e+2, 2.5208327e+2, -466576.13, -452151.06, 43748.965, 0.1900561, 0.35417312, -415024.1, 54594.504, 0.000000006724211, 9.998763, 10.000851 
9.454288e+2, 2.6208392e+2, -392123.34, -381930.25, 41182.055, 0.17151645, 0.3868915, -345530.56, 26082.041, 0.000000054552586, 9.997818, 9.999388 
9.451513e+2, 2.7208316e+2, -291288.34, -274294.6, 17656.906, 0.12345213, 0.36463866, -263196.47, 10423.589, 0.0000003341785, 9.997638, 9.999979 
9.448705e+2, 2.820832e+2, -177197.28, -158978.6, 10785.911, 0.06941618, 0.34140882, -153970.0, 21649.596, 0.0000016125001, 9.998311, 10.000836 
9.4458485e+2, 2.9208332e+2, -46309.293, -61327.797, -13120.843, -0.05441929, 0.33333707, -38700.83, 38918.023, 0.0000064614287, 10.001244, 9.999262 
9.589396e+2, 1.3237606e+2, -1633594.6, -1619111.0, 9662.721, 0.6026596, 0.42583776, -1614277.5, 28478.877, 0.0, 9.999327, 10.001283 
9.5866525e+2, 1.4237629e+2, -1529672.4, -1528057.5, 4365.7046, 0.48757458, 0.3520981, -1524425.3, 20327.336, 0.0, 10.000094, 10.000408 
9.5839185e+2, 1.5237623e+2, -1439738.6, -1446374.6, 18507.906, 0.48178244, 0.37149158, -1424253.6, 22499.158, 0.0, 10.000065, 9.9993725 
9.581205e+2, 1.6237555e+2, -1349336.3, -1358485.0, 27250.004, 0.47389552, 0.38966024, -1326279.4, 22480.07, 0.0, 9.999855, 9.998788 
9.5785093e+2, 1.7237425e+2, -1253634.6, -1263582.9, 37956.0, 0.40916574, 0.39318198, -1220328.3, 30443.854, 0.0, 9.999793, 9.998669 
9.5758235e+2, 1.8237264e+2, -1161467.6, -1174008.5, 36557.793, 0.35713995, 0.38494685, -1130646.4, 22140.88, 0.0, 9.99961, 9.998181 
9.5731413e+2, 1.9237043e+2, -1067882.0, -1078165.5, 38947.34, 0.3587418, 0.34880263, -1033738.5, 21069.559, 0.0, 9.999294, 9.998222 
9.570467e+2, 2.0236887e+2, -964492.6, -964386.6, 41162.957, 0.36291763, 0.32801807, -923276.6, 33545.773, 0.0, 9.999094, 9.999413 
9.5677936e+2, 2.1236914e+2, -856752.06, -852131.75, 42755.758, 0.36101493, 0.35699221, -811623.75, 47196.527, 0.0000000000000117120025, 9.999335, 10.000254 
9.565117e+2, 2.2236909e+2, -765817.6, -774226.5, 48192.625, 0.33631074, 0.38240552, -721646.4, 39174.707, 0.0000000000003355644, 9.99957, 9.998753 
9.5624274e+2, 2.3236766e+2, -664298.9, -672871.44, 47944.16, 0.26143256, 0.38032562, -620449.75, 42384.855, 0.0000000000069838328, 9.9997225, 9.998822 
9.5597273e+2, 2.4236685e+2, -559922.5, -558375.94, 50762.05, 0.19475801, 0.3759283, -508381.28, 56460.867, 0.00000000010561558, 9.999546, 9.999997 
9.5570034e+2, 2.523677e+2, -465032.75, -446263.4, 39203.336, 0.1489474, 0.37899566, -415337.1, 51497.016, 0.0000000011640542, 9.998633, 10.001301 
9.55426e+2, 2.623685e+2, -391104.1, -378515.53, 37666.258, 0.11060654, 0.3915611, -346621.25, 22205.574, 0.000000009444971, 9.997755, 9.999636 
9.5514864e+2, 2.723681e+2, -295411.0, -282528.56, 19045.957, 0.09507005, 0.42063975, -268864.1, 1967.4194, 0.000000057857413, 9.997621, 9.999436 
9.548691e+2, 2.823679e+2, -181483.13, -168491.97, 15992.163, 0.09252521, 0.4247021, -157726.56, 15107.356, 0.00000027926637, 9.998358, 10.000193 
9.545873e+2, 2.923671e+2, -46014.7, -62745.19, 1950.6633, 0.058964275, 0.37077558, -45790.277, 29050.28, 0.0000011202083, 10.001373, 9.999202 
9.689375e+2, 1.3265277e+2, -1652050.0, -1638158.9, 17346.592, 0.5041369, 0.48710376, -1626419.0, 13628.604, 0.0, 9.998579, 10.000327 
9.686643e+2, 1.4265254e+2, -1540716.1, -1536217.9, 2642.7192, 0.4180991, 0.43745017, -1534996.8, 7051.5073, 0.0, 9.999519, 10.000143 
9.683913e+2, 1.5265226e+2, -1445440.5, -1448799.0, 8102.774, 0.43599132, 0.4367686, -1438844.8, 5205.4727, 0.0, 9.9997225, 9.999411 
9.6812004e+2, 1.6265164e+2, -1349849.8, -1355115.8, 12775.72, 0.44306123, 0.44383213, -1339438.5, 6617.362, 0.0, 9.999734, 9.9991455 
9.678503e+2, 1.7265092e+2, -1252295.8, -1257428.1, 23473.025, 0.36989972, 0.45903176, -1231249.0, 16813.871, 0.0, 9.999723, 9.999179 
9.675816e+2, 1.8264996e+2, -1157632.1, -1167466.9, 24141.324, 0.3174406, 0.46593848, -1137912.5, 12160.06, 0.0, 9.999759, 9.998601 
9.673137e+2, 1.926484e+2, -1054661.8, -1065958.1, 29627.305, 0.33944258, 0.45296887, -1030149.1, 21938.258, 0.0, 10.000041, 9.998712 
9.670463e+2, 2.026472e+2, -949705.56, -956885.44, 33145.04, 0.3533396, 0.437983, -919956.6, 34142.22, 0.0, 10.00019, 9.999403 
9.667789e+2, 2.1264696e+2, -848032.2, -848196.94, 29197.314, 0.33610445, 0.42440262, -818917.1, 37184.094, 0.0000000000000014914695, 10.00005, 10.000218 
9.665111e+2, 2.2264688e+2, -757465.8, -759656.94, 29197.482, 0.3037053, 0.41368645, -729343.4, 28758.543, 0.000000000000042732568, 9.999791, 9.999716 
9.66242e+2, 2.3264673e+2, -662505.5, -657168.4, 25287.87, 0.23677729, 0.40920785, -634408.7, 25694.432, 0.00000000000088938075, 9.999312, 10.000189 
9.659717e+2, 2.4264714e+2, -568151.56, -554049.25, 23523.367, 0.18417446, 0.409534, -536542.94, 25555.902, 0.000000000013450299, 9.998723, 10.000796 
9.656988e+2, 2.5264847e+2, -472624.75, -447154.63, 10207.475, 0.16663806, 0.4149302, -443568.72, 20517.344, 0.0000000001482496, 9.998096, 10.001616 
9.65424e+2, 2.6264963e+2, -388218.75, -372130.66, 9883.397, 0.13836527, 0.42554817, -367431.53, -1356.3333, 0.0000000012029147, 9.997862, 10.000146 
9.6514684e+2, 2.7264956e+2, -281435.5, -275460.7, -2107.0994, 0.10250489, 0.4515659, -274792.34, -6715.749, 0.0000000073681794, 9.998696, 9.999536 
9.648682e+2, 2.826495e+2, -161193.05, -157939.42, 1245.5891, 0.09085017, 0.45604804, -157517.33, 12560.138, 0.000000035559857, 9.999854, 10.000306 
9.645888e+2, 2.926489e+2, -46750.723, -60024.97, -1453.226, 0.0730183, 0.4049936, -46593.492, 25487.785, 0.00000014260962, 10.001328, 9.999533 
9.789353e+2, 1.3292915e+2, -1649853.8, -1650892.5, 16050.577, 0.4062045, 0.564472, -1634314.1, 3027.8394, 0.0, 9.999346, 9.999146 
9.7866297e+2, 1.4292835e+2, -1546679.6, -1546943.4, 3536.027, 0.33817086, 0.55470604, -1543273.0, -3924.3425, 0.0, 9.999453, 9.999466 
9.7839034e+2, 1.5292726e+2, -1450419.0, -1457382.8, 8248.911, 0.37049207, 0.5290359, -1444947.3, -3589.163, 0.0, 9.999648, 9.998862 
9.781192e+2, 1.6292624e+2, -1347974.8, -1351761.3, 13917.248, 0.3892795, 0.5216874, -1335822.6, 7544.577, 0.0, 9.999753, 9.999364 
9.778495e+2, 1.7292607e+2, -1245157.0, -1248223.6, 23540.717, 0.31289047, 0.54679686, -1223099.6, 22269.08, 0.0, 9.999956, 9.999693 
9.7758085e+2, 1.8292576e+2, -1148991.5, -1156335.9, 24827.955, 0.26209557, 0.5675858, -1127565.6, 19806.299, 0.0, 10.000051, 9.999225 
9.773134e+2, 1.9292517e+2, -1047538.0, -1053192.8, 29825.354, 0.29884624, 0.57359666, -1020406.3, 28971.959, 0.0, 10.00013, 9.999548 
9.770461e+2, 2.0292439e+2, -953816.0, -963064.0, 32594.041, 0.30861294, 0.56472504, -925519.56, 25866.648, 0.0, 10.00009, 9.999032 
9.76778e+2, 2.129233e+2, -856151.4, -859079.3, 29655.348, 0.24557847, 0.5290309, -827923.9, 25472.941, 0.00000000000000014322901, 9.999793, 9.999586 
9.765097e+2, 2.2292274e+2, -757378.6, -752704.94, 29835.64, 0.19207081, 0.48720875, -725114.8, 30287.379, 0.0000000000000041040377, 9.999493, 10.000314 
9.762406e+2, 2.3292308e+2, -658136.7, -644246.2, 25279.443, 0.16681911, 0.4383784, -624975.25, 32423.334, 0.000000000000085429954, 9.999138, 10.001135 
9.7597027e+2, 2.4292408e+2, -565006.4, -546905.9, 22149.96, 0.1708909, 0.41954577, -532028.56, 27360.154, 0.000000000001292103, 9.998685, 10.001281 
9.756975e+2, 2.52926e+2, -470353.53, -445269.75, 8839.673, 0.2324329, 0.46034253, -442467.63, 18902.96, 0.0000000000142405965, 9.998208, 10.001679 
9.754229e+2, 2.629275e+2, -381948.22, -362009.13, 11209.936, 0.2385506, 0.47999045, -356976.88, 6378.8813, 0.00000000011554544, 9.997995, 10.000776 
9.7514594e+2, 2.7292758e+2, -276890.66, -266744.8, 2505.0637, 0.13954641, 0.45237678, -266160.0, -805.33124, 0.0000000007077114, 9.998744, 10.000134 
9.748677e+2, 2.82928e+2, -155086.64, -145659.4, 5491.1377, 0.056197017, 0.43523124, -143136.27, 24213.73, 0.000000003414842, 9.999886, 10.001158 
9.74589e+2, 2.9292884e+2, -41574.688, -48852.137, 5299.3306, -0.03971789, 0.44136596, -38785.098, 30554.95, 0.000000013690085, 10.001324, 10.000343 
9.88936e+2, 1.332007e+2, -1622324.9, -1619017.5, 1660.6573, 0.4692769, 0.43292513, -1618327.6, 16354.74, 0.0, 10.000391, 10.000851 
9.886628e+2, 1.4320083e+2, -1550500.8, -1545276.6, 14.406285, 0.39341322, 0.40763578, -1545276.5, -8596.856, 0.0, 9.999047, 9.999796 
9.8838985e+2, 1.5319937e+2, -1456626.8, -1459765.0, 7209.638, 0.3739589, 0.33575442, -1450817.5, -12124.007, 0.0, 9.999217, 9.998908 
9.8811865e+2, 1.6319796e+2, -1349756.3, -1350602.4, 16280.6455, 0.36468142, 0.28099054, -1333893.1, 6813.55, 0.0, 9.9995775, 9.999525 
9.8785007e+2, 1.7319763e+2, -1238301.4, -1242145.5, 24799.477, 0.34539145, 0.2681828, -1215349.6, 27360.14, 0.0, 10.00034, 9.99992 
9.8758197e+2, 1.831975e+2, -1138839.5, -1148080.9, 23005.244, 0.32553887, 0.28131968, -1119995.5, 24715.584, 0.0, 10.000621, 9.99951 
9.873139e+2, 1.9319779e+2, -1042312.9, -1045752.75, 25627.22, 0.32263282, 0.33972108, -1018347.94, 28361.121, 0.0, 10.000299, 9.999979 
9.87046e+2, 2.031982e+2, -953793.94, -954976.7, 27886.316, 0.3146677, 0.39321572, -926492.75, 22212.904, 0.0, 9.999764, 9.999733 
9.867775e+2, 2.131986e+2, -866170.8, -854316.1, 30565.82, 0.28196156, 0.43096438, -829108.25, 21593.44, 0.000000000000000010837507, 9.998719, 10.000369 
9.8650897e+2, 2.2319955e+2, -772699.5, -750283.25, 37797.76, 0.25402567, 0.460614, -722066.8, 30625.766, 0.00000000000000031058006, 9.998072, 10.001074 
9.862399e+2, 2.3320124e+2, -666146.3, -638360.9, 33024.89, 0.24329081, 0.47436652, -616425.5, 38250.582, 0.0000000000000064639003, 9.998233, 10.0018835 
9.8596966e+2, 2.432028e+2, -565356.25, -550442.6, 29803.123, 0.23989487, 0.48662862, -527177.6, 29483.14, 0.000000000000097753626, 9.998895, 10.000865 
9.8569727e+2, 2.5320384e+2, -440014.28, -438121.22, 13049.203, 0.25318426, 0.51059145, -425984.28, 32666.605, 0.0000000000010773522, 10.000708, 10.00093 
9.8542273e+2, 2.6320472e+2, -329609.38, -337390.84, 6699.378, 0.23586969, 0.51403165, -325752.88, 34889.285, 0.000000000008741193, 10.001683, 10.000678 
9.8514587e+2, 2.7320468e+2, -247106.64, -252767.03, -5411.541, 0.15468797, 0.47586378, -243829.89, 18811.451, 0.00000000005353408, 10.000863, 10.000113 
9.848679e+2, 2.8320512e+2, -153240.63, -144233.95, -7932.534, 0.07625414, 0.45511025, -139615.61, 25020.623, 0.00000000025827646, 10.000036, 10.001263 
9.845893e+2, 2.9320616e+2, -72253.71, -64208.965, -12390.428, -0.038437583, 0.46943566, -55204.363, 11420.611, 0.0000000010352618, 9.999283, 10.000415 
9.989377e+2, 1.3347487e+2, -1617205.8, -1592896.0, 13450.996, 0.6343009, 0.53292876, -1586921.6, 45074.66, 0.0, 9.999684, 10.002799 
9.9866235e+2, 1.4347684e+2, -1547512.5, -1537978.6, 10837.265, 0.46063402, 0.5633369, -1530906.3, 3069.5317, 0.0, 9.99904, 10.000194 
9.983887e+2, 1.5347667e+2, -1446789.8, -1451847.8, 11890.727, 0.34786767, 0.60150194, -1437162.0, -1184.1936, 0.0, 9.999847, 9.9990635 
9.981177e+2, 1.6347584e+2, -1339226.5, -1346848.9, 13500.063, 0.30148697, 0.6046498, -1329010.0, 8975.955, 0.0, 10.000509, 9.999311 
9.978503e+2, 1.7347543e+2, -1230625.5, -1240044.6, 6822.544, 0.33113176, 0.6085652, -1227044.9, 12944.646, 0.0, 10.001122, 9.999748 
9.975827e+2, 1.834748e+2, -1133987.3, -1149214.8, -12362.416, 0.34190717, 0.5877501, -1127082.1, 14913.741, 0.0, 10.001288, 9.999252 
9.973139e+2, 1.9347432e+2, -1039538.56, -1046091.8, -23841.996, 0.296866, 0.5877717, -1018749.06, 25252.291, 0.0, 10.000752, 9.99997 
9.9704534e+2, 2.0347461e+2, -944843.5, -939794.44, -31324.098, 0.27044076, 0.5747865, -910893.3, 35105.92, 0.0, 10.00008, 10.000902 
9.9677616e+2, 2.1347573e+2, -850157.7, -831066.94, -30233.285, 0.2790699, 0.5407785, -808908.0, 39080.305, 0.0000000000000000006820092, 9.99929, 10.001982 
9.9650747e+2, 2.2347787e+2, -755928.56, -733563.25, -14515.084, 0.29070443, 0.5496272, -726422.7, 23544.953, 0.00000000000000001954189, 9.998995, 10.002068 
9.962386e+2, 2.3348051e+2, -643439.25, -619569.6, -8611.2, 0.28090513, 0.57402337, -616787.4, 35154.94, 0.00000000000000040645458, 9.999567, 10.002774 
9.959689e+2, 2.4348235e+2, -549478.56, -553850.3, 4664.002, 0.26198778, 0.59808135, -546513.6, 7411.063, 0.0000000000000061445223, 10.000576, 10.000018 
9.9569726e+2, 2.5348163e+2, -424378.84, -445098.88, 3854.3826, 0.18038814, 0.55847263, -423685.06, 32246.615, 0.00000000000006771698, 10.002495, 9.999719 
9.954234e+2, 2.6348117e+2, -322627.5, -341694.6, -1314.2322, 0.13610476, 0.53211206, -322537.34, 35398.215, 0.0000000000005493915, 10.002485, 10.000028 
9.9514675e+2, 2.7348092e+2, -250286.02, -261319.58, -8747.1045, 0.15363885, 0.5266859, -245461.3, 14475.238, 0.0000000000033642223, 10.00092, 9.999496 
9.9486864e+2, 2.8348073e+2, -159043.14, -155974.88, -11972.504, 0.15745127, 0.51515466, -145438.61, 16498.54, 0.000000000016230134, 9.999989, 10.000473 
9.945899e+2, 2.9348037e+2, -81328.24, -80442.27, -15572.83, 0.10397004, 0.48233467, -65306.13, -1366.0358, 0.00000000006506301, 9.999135, 9.999376 
