coord_x,coord_y,stress_xx,stress_yy,tau_xy,velocity_x,velocity_y,stress_1,eps,damage,lx,ly
5.002175e+0, 1.2426327e+2, -1668620.6, -1720838.4, 1475.2281, -0.0018517852, 0.003931383, -1668579.0, 53642.71, 0.0, 10.004387, 9.997465 
5.001776e+0, 1.3425973e+2, -1592932.1, -1650097.5, 2128.3555, -0.0014352993, 0.043072548, -1592853.0, 31403.697, 0.0, 10.003581, 9.996007 
5.001411e+0, 1.4425558e+2, -1503182.6, -1551910.8, 2712.9614, -0.00080647646, 0.015446176, -1503032.0, 23265.389, 0.0, 10.002837, 9.996381 
5.0010926e+0, 1.5425204e+2, -1413962.3, -1456943.4, 2483.6216, -0.000030020652, 0.010739334, -1413819.1, 14512.84, 0.0, 10.002186, 9.9964905 
5.000774e+0, 1.6424812e+2, -1331615.4, -1376426.8, 2381.4607, 0.00009752599, 0.014997307, -1331489.3, -1118.728, 0.0, 10.001547, 9.995611 
5.00046e+0, 1.7424393e+2, -1242497.4, -1282549.0, 2367.5522, -0.0006184423, 0.03182598, -1242357.9, -9945.837, 0.0, 10.000933, 9.995627 
5.0001466e+0, 1.842392e+2, -1159035.3, -1200235.0, 2361.5618, -0.0010022464, 0.03631893, -1158900.4, -24441.855, 0.0, 10.000314, 9.994858 
4.9998373e+0, 1.9423395e+2, -1069916.5, -1106261.8, 2411.3826, -0.00094440253, 0.022614786, -1069757.3, -33247.54, 0.0, 9.999694, 9.994881 
4.9995628e+0, 2.0422834e+2, -985989.1, -1024243.06, 2735.7063, -0.00007227245, 0.016569048, -985794.44, -47229.94, 0.0, 9.999127, 9.994062 
4.9993363e+0, 2.1422248e+2, -895005.9, -929402.25, 2936.0603, 0.0018925875, 0.020141969, -894757.06, -54134.832, 0.0, 9.998635, 9.9940815 
4.999063e+0, 2.2421622e+2, -810802.44, -846932.25, 2570.9526, 0.0027030522, 0.026619745, -810620.44, -67936.62, 0.0, 9.998072, 9.993289 
4.998726e+0, 2.3420963e+2, -722210.6, -753200.7, 2130.0125, 0.0019501642, 0.035684023, -722064.94, -77316.26, 0.0, 9.997413, 9.993311 
4.998373e+0, 2.4420251e+2, -640167.2, -672173.44, 2009.3376, 0.0014229335, 0.0372493, -640041.5, -93223.14, 0.0, 9.996717, 9.992482 
4.997998e+0, 2.5419495e+2, -552817.5, -579008.06, 2628.2007, 0.001212814, 0.027624724, -552556.4, -103663.7, 0.0, 9.995972, 9.992506 
4.9976316e+0, 2.641871e+2, -469544.78, -494545.22, 2773.9468, 0.0013531486, 0.025997866, -469240.7, -118271.305, 0.0, 9.995235, 9.991928 
4.997275e+0, 2.7417916e+2, -381630.16, -400723.66, 2151.1423, 0.0019711882, 0.03397989, -381390.8, -128343.44, 0.0, 9.994511, 9.991984 
4.9968696e+0, 2.8417075e+2, -301514.56, -320995.5, 1309.7957, 0.0021979108, 0.03837255, -301426.9, -146296.78, 0.0, 9.993695, 9.991118 
4.9963936e+0, 2.941619e+2, -216830.66, -228792.02, 1023.6262, 0.0018783038, 0.0363694, -216743.69, -159526.7, 0.0, 9.99275, 9.991167 
4.9959022e+0, 3.0415666e+2, -130718.79, -80516.68, 686.00854, 0.00081413944, 0.037877716, -80507.305, -80507.305, 0.0, 9.991788, 9.998428 
4.9953836e+0, 3.1415528e+2, -144329.05, -85614.055, 381.13132, -0.0012592846, 0.042641614, -85611.58, -85611.58, 0.0, 9.990792, 9.998559 
1.5006524e+1, 1.2426419e+2, -1667267.3, -1718053.8, -1358.8674, -0.0055666626, 0.018363344, -1667230.9, 54982.05, 0.0, 10.004386, 9.997655 
1.5005329e+1, 1.3426061e+2, -1591500.3, -1647151.5, -908.97766, -0.0043059625, 0.03335653, -1591485.4, 32762.734, 0.0, 10.003581, 9.996207 
1.5004233e+1, 1.4425652e+2, -1503536.0, -1552632.6, 203.6431, -0.0024193975, 0.0027633887, -1503535.1, 22753.063, 0.0, 10.002837, 9.996331 
1.5003277e+1, 1.5425314e+2, -1414460.6, -1457964.4, 32.57552, -0.00009005921, 0.022579815, -1414460.6, 13860.728, 0.0, 10.002186, 9.996422 
1.5002324e+1, 1.6424923e+2, -1331697.5, -1376592.3, 44.538456, 0.00029277566, 0.030801153, -1331697.4, -1337.4845, 0.0, 10.001547, 9.9956 
1.500138e+1, 1.7424478e+2, -1242544.5, -1282643.9, 52.540985, -0.0018555277, 0.024097916, -1242544.4, -10140.847, 0.0, 10.000933, 9.995621 
1.500044e+1, 1.8423998e+2, -1158955.6, -1200069.5, 17.803476, -0.0030063153, 0.021766767, -1158955.6, -24505.008, 0.0, 10.000314, 9.994868 
1.4999513e+1, 1.9423491e+2, -1069829.4, -1106081.5, 73.70486, -0.0028333964, 0.023736345, -1069829.3, -33328.95, 0.0, 9.999694, 9.994893 
1.499869e+1, 2.0422941e+2, -985669.56, -1023583.8, 838.59906, -0.00021623324, 0.025211321, -985651.0, -47096.79, 0.0, 9.999127, 9.994107 
1.4998008e+1, 2.1422353e+2, -894667.4, -928703.25, 1079.5349, 0.0056778495, 0.025246708, -894633.2, -54021.418, 0.0, 9.998635, 9.994128 
1.4997189e+1, 2.242172e+2, -811500.0, -848372.2, 129.45444, 0.00810896, 0.026747363, -811499.56, -68825.586, 0.0, 9.998072, 9.993191 
1.4996177e+1, 2.3421045e+2, -722996.3, -754823.5, -361.37265, 0.0058498727, 0.028982913, -722992.2, -78251.695, 0.0, 9.997413, 9.9932 
1.4995119e+1, 2.4420336e+2, -639129.1, -670026.1, -783.2829, 0.004268422, 0.030367808, -639109.25, -92299.16, 0.0, 9.996717, 9.992629 
1.4993994e+1, 2.5419602e+2, -551624.94, -576539.56, -195.1709, 0.0036383704, 0.029603433, -551623.4, -102741.445, 0.0, 9.995972, 9.992674 
1.4992894e+1, 2.6418826e+2, -470523.8, -496570.5, 31.523119, 0.004059282, 0.03068304, -470523.75, -119565.586, 0.0, 9.995235, 9.99179 
1.4991824e+1, 2.7418008e+2, -382800.16, -403145.8, -593.5545, 0.0059137885, 0.03292117, -382782.88, -129744.555, 0.0, 9.994511, 9.991818 
1.499061e+1, 2.8417155e+2, -302028.84, -322059.1, -2189.023, 0.006593331, 0.036103167, -301792.4, -146670.02, 0.0, 9.993695, 9.991046 
1.4989181e+1, 2.9416266e+2, -217286.44, -229734.94, -2557.339, 0.00563493, 0.039187167, -216781.55, -159572.14, 0.0, 9.99275, 9.991103 
1.4987706e+1, 3.0415735e+2, -131247.33, -81610.445, -3043.5854, 0.0024398067, 0.04009178, -81424.516, -81424.516, 0.0, 9.991787, 9.998354 
1.4986151e+1, 3.141558e+2, -144867.13, -86726.055, -3381.5098, -0.0037807792, 0.036369156, -86530.05, -86530.05, 0.0, 9.990792, 9.998483 
2.5010875e+1, 1.2426582e+2, -1667553.4, -1716286.6, 2003.7588, -0.0041636983, 0.021998383, -1667471.1, 54725.918, 0.0, 10.004284, 9.997824 
2.500883e+1, 1.3426237e+2, -1592151.5, -1645425.4, 2115.4182, -0.005711041, 0.031585958, -1592067.6, 32163.164, 0.0, 10.003448, 9.996388 
2.5006956e+1, 1.4425838e+2, -1506074.4, -1553829.0, 3823.577, -0.005010328, 0.0009041093, -1505770.1, 20499.81, 0.0, 10.002663, 9.996335 
2.500533e+1, 1.5425506e+2, -1417924.5, -1459774.9, 4143.3228, -0.0021367979, 0.027887365, -1417518.3, 10784.326, 0.0, 10.001955, 9.99641 
2.500374e+1, 1.6425116e+2, -1335015.3, -1377916.0, 4833.5703, -0.0008640053, 0.03620405, -1334477.4, -4136.2905, 0.0, 10.001308, 9.9956255 
2.5002223e+1, 1.7424664e+2, -1245026.1, -1283528.9, 5146.9453, -0.0016377554, 0.020133713, -1244350.0, -11964.857, 0.0, 10.00075, 9.995649 
2.5000715e+1, 1.8424185e+2, -1160389.9, -1200815.5, 5303.3423, -0.0021788843, 0.015480057, -1159705.8, -25273.5, 0.0, 10.000218, 9.9948635 
2.4999228e+1, 1.9423683e+2, -1069386.0, -1105949.6, 5229.4067, -0.0024293878, 0.024584029, -1068652.8, -32171.252, 0.0, 9.999727, 9.994885 
2.4997795e+1, 2.0423138e+2, -986315.5, -1023680.2, 5381.5146, 0.00032298864, 0.029929364, -985555.9, -47020.785, 0.0, 9.999074, 9.994126 
2.4996443e+1, 2.1422553e+2, -900834.44, -931453.5, 5393.135, 0.0071051326, 0.02939386, -899912.25, -59319.8, 0.0, 9.998204, 9.994149 
2.4994995e+1, 2.2421917e+2, -819867.6, -852489.25, 5067.6494, 0.009877741, 0.02800388, -819098.5, -76443.73, 0.0, 9.997503, 9.993185 
2.4993414e+1, 2.3421234e+2, -728626.0, -757640.2, 5385.385, 0.0072215167, 0.024259996, -727658.7, -82936.81, 0.0, 9.997032, 9.993192 
2.4991743e+1, 2.4420525e+2, -642169.6, -671358.9, 4521.713, 0.0056464565, 0.02526215, -641485.25, -94693.75, 0.0, 9.996504, 9.9926405 
2.4989945e+1, 2.5419798e+2, -552661.4, -576884.9, 3906.9148, 0.0055690315, 0.031704918, -552046.8, -103184.2, 0.0, 9.9958935, 9.992688 
2.498812e+1, 2.6419026e+2, -471941.72, -497886.84, 3342.993, 0.0064764014, 0.03492904, -471517.9, -120579.055, 0.0, 9.995166, 9.991733 
2.4986245e+1, 2.7418196e+2, -386692.25, -405728.16, 3442.67, 0.008727879, 0.032371763, -386088.78, -133068.78, 0.0, 9.994274, 9.9917555 
2.4984202e+1, 2.841733e+2, -306232.88, -324814.4, 2147.2263, 0.009140094, 0.0336568, -305988.0, -150883.19, 0.0, 9.993439, 9.99098 
2.4981907e+1, 2.941644e+2, -218858.14, -231224.81, 1748.3125, 0.007001055, 0.038867563, -218615.73, -161423.5, 0.0, 9.992674, 9.991037 
2.4979548e+1, 3.0415902e+2, -130350.96, -81631.414, 1123.8933, 0.003845429, 0.03869152, -81605.51, -81605.51, 0.0, 9.991868, 9.998313 
2.4977076e+1, 3.1415737e+2, -142156.34, -85851.95, 1027.0492, -0.0006163598, 0.029441603, -85833.22, -85833.22, 0.0, 9.990996, 9.998444 
3.501522e+1, 1.2426819e+2, -1666484.8, -1714073.5, -928.7533, 0.002314239, 0.014891012, -1666466.6, 55707.215, 0.0, 10.004283, 9.997974 
3.501228e+1, 1.3426504e+2, -1590984.0, -1643014.5, -1026.4653, -0.0056567183, 0.03774708, -1590963.8, 33241.137, 0.0, 10.003448, 9.996552 
3.5009584e+1, 1.4426118e+2, -1505679.4, -1553009.1, 1120.5641, -0.008580654, 0.009835862, -1505652.9, 20589.746, 0.0, 10.002663, 9.99639 
3.5007244e+1, 1.5425782e+2, -1417593.0, -1459087.5, 1488.7164, -0.0061724833, 0.026667453, -1417539.6, 10736.16, 0.0, 10.001955, 9.996457 
3.5005024e+1, 1.6425392e+2, -1334567.5, -1376991.0, 2683.4697, -0.0033759554, 0.031218119, -1334398.4, -4084.4014, 0.0, 10.001308, 9.995688 
3.5002992e+1, 1.7424953e+2, -1244573.0, -1282592.8, 3049.4023, 0.000032920456, 0.019939164, -1244330.0, -11973.011, 0.0, 10.00075, 9.995712 
3.5000968e+1, 1.8424477e+2, -1160534.6, -1201111.4, 3434.6006, 0.0014770324, 0.01745413, -1160246.0, -25842.37, 0.0, 10.000218, 9.9948435 
3.499898e+1, 1.9423972e+2, -1069580.3, -1106349.5, 3386.7097, 0.0002657144, 0.025154943, -1069271.0, -32817.594, 0.0, 9.999727, 9.994858 
3.499688e+1, 2.0423424e+2, -986361.7, -1023773.06, 2202.5789, 0.0015407731, 0.030716272, -986232.44, -47725.316, 0.0, 9.999074, 9.99412 
3.4994638e+1, 2.142284e+2, -900872.7, -931527.25, 2106.534, 0.0061613796, 0.032584272, -900728.56, -60164.24, 0.0, 9.998203, 9.994144 
3.4992477e+1, 2.242221e+2, -819250.1, -851209.1, 3178.307, 0.007989774, 0.030391615, -818937.1, -76310.84, 0.0, 9.997503, 9.993273 
3.4990436e+1, 2.3421529e+2, -727955.5, -756250.7, 3613.6504, 0.0060515692, 0.021522062, -727501.3, -82808.51, 0.0, 9.997032, 9.993287 
3.4988248e+1, 2.4420819e+2, -643039.56, -673154.0, 2261.383, 0.0055475915, 0.021939717, -642870.7, -96108.19, 0.0, 9.996504, 9.992518 
3.4985852e+1, 2.5420085e+2, -553663.44, -578956.25, 1599.6191, 0.0069984193, 0.033930976, -553562.7, -104728.04, 0.0, 9.9958935, 9.992546 
3.4983307e+1, 2.6419306e+2, -471757.97, -497502.6, 61.292873, 0.008599113, 0.038732506, -471757.84, -120846.46, 0.0, 9.995166, 9.991759 
3.4980538e+1, 2.741848e+2, -386410.8, -405134.84, 67.80299, 0.010400029, 0.03232972, -386410.56, -133418.22, 0.0, 9.994273, 9.991796 
3.4977645e+1, 2.841761e+2, -306641.0, -325648.56, -770.2449, 0.0098173525, 0.031026889, -306609.84, -151532.48, 0.0, 9.993438, 9.990924 
3.4974572e+1, 2.941671e+2, -219328.39, -232192.64, -1141.2003, 0.0059557897, 0.035391122, -219227.94, -162062.52, 0.0, 9.992673, 9.990971 
3.4971428e+1, 3.0416167e+2, -130392.7, -81714.7, -2116.3025, 0.005033504, 0.033650186, -81622.87, -81622.87, 0.0, 9.991868, 9.998307 
3.4968162e+1, 3.1416e+2, -142160.1, -85861.18, -2263.6687, 0.008276289, 0.021852683, -85770.305, -85770.305, 0.0, 9.990996, 9.998444 
4.501938e+1, 1.2427177e+2, -1669761.0, -1716360.5, 5423.336, -0.0004655491, 0.009003297, -1669138.1, 53000.53, 0.0, 10.004089, 9.997912 
4.501569e+1, 1.3426863e+2, -1592084.1, -1644186.6, 3483.5708, -0.006728251, 0.040225778, -1591852.3, 32317.29, 0.0, 10.0034, 9.996495 
4.5012268e+1, 1.442648e+2, -1504471.8, -1551901.3, 4991.495, -0.009225567, 0.013721798, -1503952.1, 22255.156, 0.0, 10.002722, 9.996436 
4.5009235e+1, 1.5426141e+2, -1415522.6, -1457475.9, 5445.699, -0.008302747, 0.023788972, -1414827.3, 13413.246, 0.0, 10.002069, 9.99651 
4.5006344e+1, 1.6425756e+2, -1333222.5, -1375854.4, 6703.6523, -0.005846367, 0.027468007, -1332193.3, -1914.957, 0.0, 10.001379, 9.99573 
4.5003673e+1, 1.7425328e+2, -1245816.6, -1282730.3, 6924.1343, -0.0012074809, 0.023190876, -1244560.5, -12240.287, 0.0, 10.000645, 9.995753 
4.500104e+1, 1.8424858e+2, -1164853.6, -1202807.4, 7522.685, 0.0022163216, 0.022540452, -1163416.9, -29050.555, 0.0, 9.999907, 9.994879 
4.4998467e+1, 1.942435e+2, -1077535.6, -1109818.9, 7962.582, 0.003956591, 0.02515271, -1075678.5, -39262.266, 0.0, 9.999168, 9.994892 
4.499574e+1, 2.0423803e+2, -993774.0, -1027626.25, 6919.3345, 0.0047178525, 0.02832061, -992414.3, -53944.24, 0.0, 9.998579, 9.994096 
4.4992816e+1, 2.1423216e+2, -901243.56, -932022.6, 6650.9966, 0.004192042, 0.031441506, -899867.9, -59340.38, 0.0, 9.998192, 9.994116 
4.499001e+1, 2.2422588e+2, -817033.9, -849383.1, 7509.8066, 0.004627063, 0.030510286, -815375.5, -72786.33, 0.0, 9.9976225, 9.993339 
4.4987357e+1, 2.3421916e+2, -730738.5, -756761.3, 7788.1504, 0.0063582924, 0.022896247, -728585.75, -83930.945, 0.0, 9.996806, 9.9933605 
4.4984546e+1, 2.4421205e+2, -650442.94, -677909.94, 6414.3867, 0.007861498, 0.023213109, -649018.8, -102294.24, 0.0, 9.996049, 9.9924135 
4.4981506e+1, 2.5420457e+2, -562183.7, -584425.5, 5908.5864, 0.0090421485, 0.033265036, -560711.5, -111913.414, 0.0, 9.99537, 9.992425 
4.4978276e+1, 2.6419672e+2, -477595.78, -499987.1, 4229.018, 0.009664142, 0.03699383, -476823.7, -125948.27, 0.0, 9.994752, 9.991789 
4.4974768e+1, 2.741885e+2, -386997.38, -404939.9, 4219.846, 0.009545107, 0.030709967, -386054.47, -133098.6, 0.0, 9.994213, 9.9918375 
4.4971126e+1, 2.841798e+2, -305228.34, -325265.13, 3197.2458, 0.008717111, 0.028737778, -304730.53, -149689.73, 0.0, 9.993547, 9.990896 
4.4967267e+1, 2.9417077e+2, -219137.34, -232474.88, 3032.8433, 0.0068894736, 0.03133583, -218480.1, -161350.73, 0.0, 9.992702, 9.990937 
4.4963318e+1, 3.041653e+2, -130766.83, -82223.766, 1921.8743, 0.008080074, 0.029972501, -82147.79, -82147.79, 0.0, 9.991856, 9.998278 
4.4959214e+1, 3.1416363e+2, -142296.45, -86260.51, 1518.6768, 0.013558336, 0.021513868, -86219.375, -86219.375, 0.0, 9.991, 9.998413 
5.502335e+1, 1.2427656e+2, -1671724.6, -1720378.1, 3008.7532, -0.012456962, 0.0043388074, -1671539.3, 50552.164, 0.0, 10.004089, 9.99764 
5.501907e+1, 1.3427319e+2, -1594078.6, -1648262.1, 900.4566, -0.008915652, 0.0390474, -1594063.8, 30061.078, 0.0, 10.003399, 9.996219 
5.5015016e+1, 1.4426921e+2, -1504220.5, -1551363.4, 2531.6929, -0.0069622267, 0.012593825, -1504084.9, 22078.994, 0.0, 10.002721, 9.996473 
5.50113e+1, 1.5426587e+2, -1415100.3, -1456588.4, 3006.4126, -0.008536556, 0.01925496, -1414883.6, 13313.248, 0.0, 10.0020685, 9.996571 
5.5007696e+1, 1.6426207e+2, -1333068.9, -1375523.9, 3961.0178, -0.008278537, 0.024951395, -1332702.5, -2468.33, 0.0, 10.001378, 9.995753 
5.5004275e+1, 1.742579e+2, -1245685.4, -1282450.4, 4167.8477, -0.0053693084, 0.02988614, -1245218.8, -12943.628, 0.0, 10.000644, 9.995772 
5.5000925e+1, 1.8425326e+2, -1164202.8, -1201459.8, 4744.7876, 0.000025436304, 0.030736227, -1163608.0, -29287.39, 0.0, 9.999906, 9.99497 
5.499768e+1, 1.942482e+2, -1076845.8, -1108390.8, 5189.0376, 0.008637153, 0.024571767, -1076014.1, -39643.95, 0.0, 9.999168, 9.994989 
5.499437e+1, 2.042427e+2, -994058.44, -1028209.7, 5366.5537, 0.009842482, 0.02273521, -993235.0, -54810.94, 0.0, 9.998579, 9.994057 
5.499098e+1, 2.142368e+2, -901607.75, -932776.94, 5201.0405, 0.0011813304, 0.025945501, -900762.8, -60280.824, 0.0, 9.998192, 9.994064 
5.4987586e+1, 2.2423053e+2, -816703.25, -848701.6, 4552.462, -0.0002207937, 0.028354526, -816068.2, -73524.75, 0.0, 9.9976225, 9.993385 
5.498418e+1, 2.3422395e+2, -730360.7, -755971.44, 4703.3438, 0.008145916, 0.028412417, -729524.25, -84916.375, 0.0, 9.996806, 9.993414 
5.498064e+1, 2.4421683e+2, -651066.9, -679181.75, 3812.9465, 0.012586041, 0.029104216, -650558.94, -103881.25, 0.0, 9.996048, 9.992327 
5.4976904e+1, 2.5420916e+2, -562898.4, -585879.06, 3345.3127, 0.011682885, 0.029672919, -562421.3, -113668.31, 0.0, 9.995368, 9.992327 
5.4973024e+1, 2.642012e+2, -477371.03, -499499.94, 2163.9387, 0.009645006, 0.02966266, -477161.4, -126330.47, 0.0, 9.994751, 9.991822 
5.496895e+1, 2.7419308e+2, -386686.84, -404291.22, 2190.3044, 0.0061295656, 0.027499324, -386418.4, -133507.81, 0.0, 9.994212, 9.991882 
5.4964644e+1, 2.8418446e+2, -305201.3, -325209.13, 106.6402, 0.005818945, 0.026789935, -305200.75, -150205.61, 0.0, 9.993547, 9.9909 
5.496e+1, 2.941754e+2, -219144.02, -232482.72, -162.6969, 0.009829921, 0.026687961, -219142.03, -162058.06, 0.0, 9.992702, 9.990936 
5.495522e+1, 3.0416992e+2, -131150.47, -83008.94, -1283.2017, 0.012999661, 0.027676975, -82974.76, -82974.76, 0.0, 9.991856, 9.998223 
5.495023e+1, 3.1416827e+2, -142722.19, -87132.57, -1704.4484, 0.01513687, 0.028539497, -87080.36, -87080.36, 0.0, 9.991, 9.998353 
6.5027535e+1, 1.24282144e+2, -1667679.5, -1719311.8, 5044.9976, -0.01819453, 0.010543323, -1667191.1, 54845.773, 0.0, 10.004403, 9.997559 
6.5022445e+1, 1.3427861e+2, -1594152.1, -1649123.5, 4260.525, -0.012204569, 0.036647648, -1593823.9, 30247.818, 0.0, 10.003429, 9.996144 
6.5017647e+1, 1.4427455e+2, -1506700.0, -1552825.8, 7015.039, -0.008094684, 0.0072134845, -1505656.6, 20454.854, 0.0, 10.002563, 9.996449 
6.5013266e+1, 1.5427123e+2, -1418480.8, -1458457.0, 6945.3394, -0.007972594, 0.019141655, -1417308.5, 10835.731, 0.0, 10.001848, 9.99655 
6.5008986e+1, 1.6426744e+2, -1335888.4, -1376850.5, 7574.0435, -0.0076970123, 0.02718852, -1334532.8, -4351.3423, 0.0, 10.001184, 9.995756 
6.5004885e+1, 1.7426325e+2, -1246380.9, -1282730.1, 7691.351, -0.0069508483, 0.030578488, -1244820.5, -12597.931, 0.0, 10.000594, 9.995777 
6.500083e+1, 1.8425865e+2, -1162670.5, -1199970.9, 8013.6284, -0.003113841, 0.03059677, -1161021.8, -26754.006, 0.0, 9.999978, 9.995036 
6.499689e+1, 1.9425367e+2, -1073932.5, -1106184.4, 8257.686, 0.0047399825, 0.024562811, -1071941.3, -35624.715, 0.0, 9.999332, 9.995059 
6.499296e+1, 2.042482e+2, -992893.4, -1027496.75, 8991.19, 0.0069507034, 0.021532694, -990696.56, -52326.535, 0.0, 9.998652, 9.994068 
6.498904e+1, 2.1424228e+2, -905400.3, -934526.94, 9319.303, 0.0016438201, 0.021780947, -902673.75, -62245.582, 0.0, 9.99793, 9.994071 
6.498505e+1, 2.2423601e+2, -821897.4, -851420.44, 8220.158, 0.0012496245, 0.025023572, -819762.94, -77273.34, 0.0, 9.997276, 9.993366 
6.4980936e+1, 2.3422948e+2, -731819.9, -756910.5, 7770.5645, 0.007472174, 0.030999111, -729608.3, -85054.516, 0.0, 9.9967165, 9.993393 
6.497669e+1, 2.4422236e+2, -650103.44, -678325.06, 6997.7847, 0.0104284985, 0.03184886, -648463.56, -101840.01, 0.0, 9.996097, 9.99236 
6.497225e+1, 2.5421464e+2, -562228.1, -585118.94, 7564.8184, 0.008942713, 0.024804939, -559954.06, -111255.07, 0.0, 9.995396, 9.992364 
6.4967734e+1, 2.642067e+2, -477968.44, -499990.1, 7115.0444, 0.0070166797, 0.022709904, -475869.66, -125092.64, 0.0, 9.994719, 9.991803 
6.496307e+1, 2.741986e+2, -388904.47, -405627.84, 6650.7563, 0.0045506856, 0.025985975, -386582.03, -133725.55, 0.0, 9.994072, 9.991858 
6.4958143e+1, 2.8418994e+2, -306760.2, -326574.47, 3711.0178, 0.005146606, 0.02704831, -306087.94, -151146.69, 0.0, 9.993466, 9.990845 
6.49528e+1, 2.9418078e+2, -216505.6, -231861.5, 2957.653, 0.00985535, 0.02368381, -215955.63, -158924.67, 0.0, 9.992909, 9.990877 
6.494729e+1, 3.0417523e+2, -125803.02, -81903.086, 1030.4684, 0.012860742, 0.025837846, -81878.91, -81878.91, 0.0, 9.992284, 9.998092 
6.494149e+1, 3.1417352e+2, -135577.06, -85247.586, -38.741997, 0.013668173, 0.03396867, -85247.555, -85247.555, 0.0, 9.991556, 9.998214 
7.503194e+1, 1.24288484e+2, -1666966.6, -1717742.4, 1606.4648, -0.017787348, 0.0275069, -1666915.9, 55059.223, 0.0, 10.004398, 9.997667 
7.502583e+1, 1.3428487e+2, -1593280.5, -1647270.0, 605.9455, -0.016599756, 0.033002898, -1593273.8, 30736.65, 0.0, 10.003427, 9.996271 
7.5020164e+1, 1.4428078e+2, -1507312.3, -1554048.9, 4264.12, -0.0126040075, -0.0023941675, -1506926.4, 19123.959, 0.0, 10.002562, 9.9963665 
7.501513e+1, 1.542775e+2, -1419211.0, -1459935.1, 4277.876, -0.006626227, 0.023453588, -1418766.5, 9316.197, 0.0, 10.001847, 9.996449 
7.501021e+1, 1.6427368e+2, -1336004.0, -1377073.8, 5328.7305, -0.0041267676, 0.034169532, -1335323.9, -5203.6704, 0.0, 10.0011835, 9.995741 
7.5005484e+1, 1.7426938e+2, -1246451.9, -1282864.6, 5487.6104, -0.0059551056, 0.025258817, -1245642.8, -13480.222, 0.0, 10.000593, 9.995768 
7.500077e+1, 1.8426473e+2, -1162386.3, -1199377.5, 5603.988, -0.007211542, 0.022126626, -1161555.9, -27347.973, 0.0, 9.999978, 9.995076 
7.49961e+1, 1.9425988e+2, -1073624.1, -1105544.9, 5837.263, -0.0077641974, 0.025142184, -1072590.3, -36334.777, 0.0, 9.999332, 9.995102 
7.49915e+1, 2.0425451e+2, -992422.44, -1026523.25, 6292.324, -0.0039707315, 0.024724508, -991298.44, -52990.266, 0.0, 9.998652, 9.994134 
7.498701e+1, 2.1424858e+2, -904926.4, -933539.0, 6598.667, 0.005601048, 0.018947074, -903477.94, -63111.813, 0.0, 9.99793, 9.994138 
7.49824e+1, 2.242423e+2, -822495.3, -852641.4, 6068.0547, 0.009046594, 0.020502936, -821319.75, -78891.99, 0.0, 9.997275, 9.993282 
7.4977624e+1, 2.342357e+2, -732504.8, -758319.94, 5663.4775, 0.0042978805, 0.03062426, -731317.0, -86824.42, 0.0, 9.9967165, 9.993297 
7.49727e+1, 2.442286e+2, -648989.5, -676019.44, 4394.3403, 0.0013222053, 0.031409986, -648293.06, -101730.914, 0.0, 9.996097, 9.992517 
7.496757e+1, 2.5422102e+2, -560971.3, -582514.9, 4918.732, 0.00075978687, 0.01864561, -559901.44, -111265.23, 0.0, 9.995395, 9.992541 
7.49624e+1, 2.6421314e+2, -478474.7, -501028.8, 4668.425, 0.0017474097, 0.016145669, -477546.6, -126833.0, 0.0, 9.994719, 9.991732 
7.4957156e+1, 2.74205e+2, -389572.38, -406992.22, 4212.497, 0.0048308372, 0.02619388, -388607.2, -135813.7, 0.0, 9.994071, 9.991764 
7.495163e+1, 2.8419626e+2, -307574.9, -328248.13, 1598.8164, 0.00670789, 0.02954352, -307451.97, -152572.81, 0.0, 9.993465, 9.99073 
7.494569e+1, 2.9418695e+2, -217320.6, -233565.06, 862.95544, 0.0068909405, 0.022345785, -217274.88, -160304.55, 0.0, 9.99291, 9.99076 
7.493952e+1, 3.0418125e+2, -127260.59, -84964.55, -1649.0709, 0.007559853, 0.024458757, -84900.35, -84900.35, 0.0, 9.992286, 9.997881 
7.4933004e+1, 3.141794e+2, -137089.23, -88443.22, -2788.7407, 0.009083414, 0.03775515, -88283.87, -88283.87, 0.0, 9.991558, 9.9979925 
8.5036004e+1, 1.2429516e+2, -1676769.3, -1720906.0, 2462.4314, -0.014427824, 0.028574616, -1676632.4, 45277.375, 0.0, 10.003661, 9.99781 
8.502908e+1, 1.3429171e+2, -1596969.3, -1647195.4, 1590.2173, -0.018659262, 0.034905717, -1596918.9, 27024.305, 0.0, 10.003094, 9.996438 
8.5022646e+1, 1.4428772e+2, -1507976.5, -1554003.0, 6162.8423, -0.01770969, -0.0012383494, -1507165.6, 18816.592, 0.0, 10.0025, 9.996399 
8.5016936e+1, 1.5428445e+2, -1418586.5, -1459394.9, 7118.1953, -0.011836448, 0.023356443, -1417380.5, 10634.017, 0.0, 10.001879, 9.9964695 
8.501137e+1, 1.6428062e+2, -1335496.4, -1376925.4, 8751.355, -0.008185364, 0.032186326, -1333723.6, -3671.4978, 0.0, 10.001223, 9.995731 
8.500603e+1, 1.7427628e+2, -1247546.5, -1283533.0, 8909.681, -0.007203216, 0.020526875, -1245461.4, -13366.683, 0.0, 10.0005245, 9.995754 
8.50007e+1, 1.8427163e+2, -1163505.1, -1199967.3, 9075.143, -0.0083266385, 0.017231265, -1161371.3, -27231.088, 0.0, 9.999904, 9.99507 
8.499541e+1, 1.942668e+2, -1072844.8, -1105217.8, 8970.518, -0.012298807, 0.02353657, -1070525.1, -34337.7, 0.0, 9.999388, 9.995096 
8.4990156e+1, 2.0426144e+2, -990338.25, -1024955.1, 8625.952, -0.009211667, 0.02489255, -988307.9, -50068.008, 0.0, 9.998771, 9.994183 
8.4984964e+1, 2.1425559e+2, -903200.2, -932104.2, 8787.497, 0.003277361, 0.018853877, -900738.3, -60440.99, 0.0, 9.998021, 9.99419 
8.497969e+1, 2.2424932e+2, -821688.7, -852415.7, 9001.282, 0.007115868, 0.0189262, -819246.0, -76887.18, 0.0, 9.997338, 9.993267 
8.4974307e+1, 2.3424266e+2, -732251.44, -758433.8, 9211.266, -0.00062549516, 0.025956566, -729335.56, -84911.39, 0.0, 9.996743, 9.993274 
8.4968776e+1, 2.4423558e+2, -647082.5, -674036.44, 7907.0, -0.0048777135, 0.025903342, -644934.2, -98440.7, 0.0, 9.9961815, 9.992611 
8.496304e+1, 2.5422814e+2, -556370.44, -579131.9, 7855.43, -0.004397718, 0.015326075, -553922.6, -105356.3, 0.0, 9.99566, 9.992643 
8.495724e+1, 2.6422027e+2, -474042.38, -499528.97, 7080.528, -0.0019305119, 0.014961884, -472207.44, -121564.18, 0.0, 9.9950485, 9.991673 
8.4951323e+1, 2.742121e+2, -386520.25, -406321.7, 6754.3345, 0.0032076745, 0.027050612, -384435.75, -131711.98, 0.0, 9.994314, 9.991692 
8.4945184e+1, 2.8420332e+2, -304786.6, -326985.5, 5089.0415, 0.0058791386, 0.030174587, -303675.56, -148865.66, 0.0, 9.99366, 9.990722 
8.4938675e+1, 2.9419398e+2, -214444.75, -232211.58, 5248.2827, 0.005131883, 0.019704945, -213010.25, -156108.92, 0.0, 9.993108, 9.990756 
8.493194e+1, 3.0418816e+2, -124081.195, -85344.71, 3153.6587, 0.0058701625, 0.019715536, -85089.64, -85089.64, 0.0, 9.992585, 9.997708 
8.492483e+1, 3.141861e+2, -130588.914, -87404.9, 2236.4817, 0.008859996, 0.0325048, -87289.38, -87289.38, 0.0, 9.992093, 9.997805 
9.5039725e+1, 1.2430215e+2, -1675539.4, -1718291.8, 487.36798, -0.008187865, 0.01405004, -1675533.8, 46307.11, 0.0, 10.003657, 9.99799 
9.503217e+1, 1.3429911e+2, -1595531.1, -1644175.3, -512.1755, -0.018415399, 0.04235222, -1595525.8, 28344.742, 0.0, 10.003091, 9.996644 
9.5025086e+1, 1.4429536e+2, -1506959.3, -1551862.4, 3861.7358, -0.023424728, 0.010585128, -1506629.5, 19277.81, 0.0, 10.002498, 9.996545 
9.5018697e+1, 1.5429206e+2, -1417605.9, -1457340.8, 4806.164, -0.02358156, 0.01883612, -1417032.9, 10906.82, 0.0, 10.001878, 9.99661 
9.5012474e+1, 1.6428825e+2, -1335533.3, -1376973.4, 6157.189, -0.019832298, 0.02127329, -1334637.9, -4660.7813, 0.0, 10.001222, 9.995728 
9.5006526e+1, 1.7428395e+2, -1247665.1, -1283757.3, 6303.9995, -0.010688385, 0.016402546, -1246595.8, -14576.656, 0.0, 10.000524, 9.995739 
9.5000625e+1, 1.8427931e+2, -1163864.0, -1200695.0, 7099.7764, -0.0064682146, 0.01591965, -1162542.8, -28478.186, 0.0, 9.999903, 9.995021 
9.499484e+1, 1.942744e+2, -1073226.0, -1105999.0, 7047.734, -0.008849612, 0.019724026, -1071774.8, -35661.926, 0.0, 9.999388, 9.995043 
9.4988936e+1, 2.0426904e+2, -990105.75, -1024474.0, 5873.173, -0.008777612, 0.02202484, -989129.8, -50964.5, 0.0, 9.99877, 9.994215 
9.498289e+1, 2.1426328e+2, -902923.6, -931533.6, 5969.551, -0.0053934185, 0.02152585, -901728.06, -61506.195, 0.0, 9.998021, 9.994228 
9.497691e+1, 2.2425702e+2, -821302.25, -851619.06, 6724.3228, -0.0046110945, 0.020306239, -819877.7, -77594.72, 0.0, 9.997338, 9.99332 
9.497098e+1, 2.3425032e+2, -731865.7, -757633.25, 6976.179, -0.007305528, 0.016940495, -730098.2, -85749.61, 0.0, 9.996743, 9.993328 
9.496493e+1, 2.4424328e+2, -646867.75, -673592.44, 5927.609, -0.008147072, 0.015286451, -645612.0, -99194.38, 0.0, 9.9961815, 9.9926405 
9.4958687e+1, 2.5423595e+2, -556168.56, -578727.75, 5892.15, -0.0065006968, 0.014901014, -554722.3, -106232.945, 0.0, 9.99566, 9.99267 
9.495228e+1, 2.6422814e+2, -474336.4, -500157.1, 4372.505, -0.004007323, 0.0192336, -473616.06, -123050.03, 0.0, 9.995049, 9.99163 
9.4945604e+1, 2.7421987e+2, -386864.97, -407049.25, 3978.7769, -0.0003679646, 0.028549097, -386108.97, -133461.64, 0.0, 9.994315, 9.991641 
9.4938815e+1, 2.842111e+2, -304060.9, -325495.16, 2966.6194, 0.0026065647, 0.028893393, -303657.88, -148924.42, 0.0, 9.99366, 9.990823 
9.4931775e+1, 2.9420185e+2, -213635.11, -230549.19, 3177.881, 0.004610354, 0.015726486, -213057.75, -156233.86, 0.0, 9.993109, 9.9908695 
9.492455e+1, 3.0419597e+2, -124973.46, -87231.1, 1313.2672, 0.007883239, 0.011504802, -87185.46, -87185.46, 0.0, 9.992587, 9.997579 
9.4916964e+1, 3.141937e+2, -131611.69, -89606.48, 407.1244, 0.01310674, 0.017937561, -89602.53, -89602.53, 0.0, 9.992097, 9.997652 
1.0504321e+2, 1.24310076e+2, -1678225.5, -1718439.0, 5354.0176, -0.013822899, 0.0019876421, -1677524.9, 44237.74, 0.0, 10.003424, 9.998093 
1.0503514e+2, 1.3430724e+2, -1597100.5, -1643510.6, 3645.92, -0.02133789, 0.036311492, -1596815.9, 26974.617, 0.0, 10.002921, 9.99677 
1.050275e+2, 1.4430358e+2, -1508799.6, -1552884.4, 6897.452, -0.025731137, 0.0073832986, -1507745.6, 18080.865, 0.0, 10.0023775, 9.996532 
1.05020486e+2, 1.5430024e+2, -1419110.5, -1458329.4, 6613.493, -0.027757049, 0.01627797, -1418025.4, 9833.756, 0.0, 10.001785, 9.996586 
1.0501361e+2, 1.6429646e+2, -1335784.4, -1376234.6, 7344.5283, -0.02513079, 0.018908435, -1334492.1, -4595.9023, 0.0, 10.001166, 9.995804 
1.05006985e+2, 1.7429224e+2, -1247166.0, -1282581.4, 8211.348, -0.016083568, 0.013702373, -1245354.8, -13417.279, 0.0, 10.000517, 9.995821 
1.0500045e+2, 1.8428761e+2, -1165333.8, -1201949.8, 9560.159, -0.010106178, 0.0124537805, -1162987.9, -29005.121, 0.0, 9.999826, 9.994971 
1.0499408e+2, 1.9428262e+2, -1078092.3, -1109024.9, 9487.418, -0.008315828, 0.0148914475, -1075414.3, -39382.477, 0.0, 9.999084, 9.994983 
1.0498757e+2, 2.0427725e+2, -993840.94, -1026001.7, 8510.716, -0.008932869, 0.017576315, -991727.6, -53643.156, 0.0, 9.998504, 9.99424 
1.049809e+2, 2.1427155e+2, -901020.1, -930261.7, 8574.912, -0.012655394, 0.019783074, -898691.06, -58550.61, 0.0, 9.998136, 9.994259 
1.049743e+2, 2.2426534e+2, -816965.44, -848953.9, 8912.228, -0.013372816, 0.01840215, -814650.06, -72448.81, 0.0, 9.99761, 9.993369 
1.0496776e+2, 2.3425865e+2, -729608.2, -755969.25, 9108.419, -0.010104647, 0.011051029, -726767.2, -82500.49, 0.0, 9.996873, 9.993378 
1.0496111e+2, 2.4425164e+2, -646824.06, -673368.7, 8297.227, -0.00708672, 0.009567313, -644443.94, -98108.586, 0.0, 9.996176, 9.992658 
1.049543e+2, 2.542444e+2, -557967.2, -579436.5, 8186.856, -0.004427928, 0.014912499, -555201.56, -106795.055, 0.0, 9.99553, 9.992683 
1.049473e+2, 2.6423657e+2, -475341.3, -500632.97, 6781.678, -0.0037543476, 0.019445088, -473637.66, -123154.555, 0.0, 9.99498, 9.99163 
1.0493999e+2, 2.7422825e+2, -383377.25, -405376.94, 6752.637, -0.0056920196, 0.021520097, -381469.94, -128904.9, 0.0, 9.994554, 9.991639 
1.0493259e+2, 2.8421947e+2, -297782.0, -321753.38, 5849.934, -0.0046621026, 0.021327399, -296430.6, -141779.66, 0.0, 9.994059, 9.990885 
1.0492502e+2, 2.9421037e+2, -207918.4, -227035.08, 5707.398, 0.00028088255, 0.016675586, -206344.08, -149604.11, 0.0, 9.993467, 9.990935 
1.04917265e+2, 3.0420452e+2, -121299.02, -86075.19, 3980.5242, 0.007648642, 0.013058512, -85630.97, -85630.97, 0.0, 9.992865, 9.997522 
1.0490919e+2, 3.142021e+2, -129964.28, -89558.5, 3719.534, 0.018498747, 0.009345113, -89218.95, -89218.95, 0.0, 9.992241, 9.997584 
1.15046464e+2, 1.2431893e+2, -1678081.9, -1718058.9, 3597.5823, -0.031139366, -0.007701328, -1677760.8, 43914.188, 0.0, 10.00342, 9.998119 
1.15038e+2, 1.3431604e+2, -1596810.5, -1642830.4, 1783.7356, -0.027363805, 0.016914502, -1596741.5, 26961.838, 0.0, 10.002917, 9.996818 
1.1502989e+2, 1.4431234e+2, -1510042.9, -1555361.6, 4713.259, -0.024661157, -0.010663806, -1509557.9, 16182.03, 0.0, 10.002375, 9.996366 
1.1502231e+2, 1.54309e+2, -1420467.8, -1461057.3, 4416.9653, -0.024420125, 0.015719337, -1419992.6, 7780.3164, 0.0, 10.001783, 9.996401 
1.1501479e+2, 1.6430525e+2, -1334699.1, -1373957.5, 4937.358, -0.024137812, 0.025046986, -1334087.8, -4277.896, 0.0, 10.001164, 9.995958 
1.1500743e+2, 1.7430113e+2, -1245897.3, -1279943.1, 5793.3096, -0.023413133, 0.012399016, -1244938.5, -13088.452, 0.0, 10.000516, 9.996 
1.1500018e+2, 1.8429653e+2, -1165680.3, -1202645.1, 6808.14, -0.019242797, 0.0068147397, -1164466.3, -30571.322, 0.0, 9.9998255, 9.994924 
1.1499314e+2, 1.9429149e+2, -1078564.9, -1109982.9, 6712.4966, -0.010698355, 0.009044101, -1077190.9, -41246.375, 0.0, 9.9990835, 9.994917 
1.1498606e+2, 2.0428608e+2, -993717.9, -1025740.56, 7047.734, -0.009679099, 0.0115440795, -992235.4, -54237.934, 0.0, 9.998503, 9.994257 
1.14978984e+2, 2.142804e+2, -900850.7, -929919.1, 7211.791, -0.018506475, 0.01358886, -899159.8, -59106.555, 0.0, 9.9981365, 9.994281 
1.1497185e+2, 2.2427423e+2, -816633.5, -848276.6, 6239.7773, -0.01915326, 0.0131874, -815447.56, -73333.85, 0.0, 9.99761, 9.993415 
1.1496465e+2, 2.342676e+2, -729275.94, -755282.4, 6330.059, -0.008981767, 0.00833408, -727817.06, -83638.516, 0.0, 9.996873, 9.993424 
1.1495735e+2, 2.4426065e+2, -646790.8, -673288.7, 5840.37, -0.0016451397, 0.008802631, -645560.6, -99313.89, 0.0, 9.996175, 9.992662 
1.1494989e+2, 2.5425342e+2, -557974.0, -579425.4, 5751.507, 0.0018773911, 0.015353105, -556529.25, -108211.445, 0.0, 9.995529, 9.992684 
1.149423e+2, 2.6424557e+2, -475027.13, -499965.8, 5123.8066, -0.0011475217, 0.015498219, -474015.44, -123620.94, 0.0, 9.99498, 9.991674 
1.14934474e+2, 2.742372e+2, -383018.78, -404657.0, 5154.64, -0.012823578, 0.005756356, -381853.6, -129376.625, 0.0, 9.9945545, 9.991687 
1.1492655e+2, 2.8422847e+2, -297584.9, -321391.44, 3672.412, -0.01604099, 0.007337719, -297031.28, -142468.92, 0.0, 9.9940605, 9.990909 
1.1491841e+2, 2.9421958e+2, -207747.14, -226727.23, 3471.683, -0.0079735555, 0.02271495, -207132.06, -150482.48, 0.0, 9.993469, 9.990955 
1.1491011e+2, 3.0421382e+2, -121112.97, -85727.93, 1645.5077, 0.005093195, 0.02467291, -85651.58, -85651.58, 0.0, 9.992866, 9.997545 
1.149015e+2, 3.1421125e+2, -129797.08, -89229.14, 1371.4125, 0.025064103, 0.0069323005, -89182.83, -89182.83, 0.0, 9.992241, 9.997606 
1.2504986e+2, 1.2432831e+2, -1676327.5, -1717498.3, 5151.602, -0.039932612, -0.015489414, -1675692.6, 45889.742, 0.0, 10.003551, 9.998093 
1.2504086e+2, 1.3432546e+2, -1598104.5, -1643515.6, 2831.0537, -0.028401218, 0.01323648, -1597928.6, 25681.914, 0.0, 10.002831, 9.996812 
1.2503217e+2, 1.4432171e+2, -1513846.0, -1557714.6, 5927.032, -0.021415057, -0.015013994, -1513059.3, 12588.179, 0.0, 10.002137, 9.99632 
1.2502398e+2, 1.543183e+2, -1425267.4, -1463949.1, 6637.245, -0.020617405, 0.006802875, -1424160.1, 3521.139, 0.0, 10.00148, 9.99635 
1.2501584e+2, 1.6431454e+2, -1338264.0, -1375209.5, 7516.124, -0.021907607, 0.016489927, -1336793.5, -7075.1587, 0.0, 10.000901, 9.996 
1.2500788e+2, 1.7431054e+2, -1246868.4, -1279877.4, 7410.9717, -0.025499148, 0.010561762, -1245280.9, -13523.313, 0.0, 10.000426, 9.996047 
1.2500001e+2, 1.84306e+2, -1164217.6, -1201693.3, 7820.1787, -0.024072599, 0.006788753, -1162651.3, -28849.309, 0.0, 9.999914, 9.994945 
1.249923e+2, 1.9430092e+2, -1074437.5, -1107771.9, 8334.239, -0.01620515, 0.004437168, -1072469.9, -36618.2, 0.0, 9.999355, 9.994934 
1.24984644e+2, 2.042955e+2, -990406.1, -1023902.4, 9366.8955, -0.013343801, 0.0043418636, -987964.7, -50059.99, 0.0, 9.998719, 9.994276 
1.2497706e+2, 2.1428983e+2, -902974.6, -930730.4, 9539.348, -0.017053558, 0.0064091627, -900012.2, -60051.84, 0.0, 9.997982, 9.994299 
1.2496936e+2, 2.2428371e+2, -820166.5, -849768.3, 8273.173, -0.016458308, 0.008199173, -818011.25, -75990.805, 0.0, 9.997359, 9.993433 
1.2496151e+2, 2.3427716e+2, -728935.4, -754907.2, 8140.6836, -0.010140944, 0.008382099, -726594.7, -82509.945, 0.0, 9.996887, 9.993442 
1.2495359e+2, 2.4427022e+2, -643574.06, -671678.5, 7607.489, -0.005296343, 0.009945833, -641646.94, -95494.16, 0.0, 9.996392, 9.992666 
1.2494554e+2, 2.5426295e+2, -553027.25, -577005.06, 7532.915, -0.0024552105, 0.012378649, -550857.1, -102632.94, 0.0, 9.995866, 9.992685 
1.24937415e+2, 2.6425514e+2, -469530.16, -496377.25, 7333.905, -0.0042583086, 0.009924725, -467657.38, -117356.68, 0.0, 9.995315, 9.991756 
1.24929115e+2, 2.7424678e+2, -379839.25, -402129.34, 7686.595, -0.012205472, -0.000373007, -377445.63, -125063.39, 0.0, 9.994729, 9.991775 
1.2492068e+2, 2.8423813e+2, -296161.56, -321390.78, 5949.5176, -0.014345351, 0.002418041, -294828.94, -140361.58, 0.0, 9.994187, 9.990846 
1.2491199e+2, 2.9422918e+2, -204898.63, -226192.06, 5010.2607, -0.008736784, 0.021375578, -203778.64, -147223.45, 0.0, 9.9937, 9.99088 
1.249031e+2, 3.0422345e+2, -116371.96, -82532.75, 2693.7727, 0.0029208392, 0.025356619, -82319.66, -82319.66, 0.0, 9.993151, 9.997626 
1.24893844e+2, 3.1422096e+2, -125148.65, -85946.91, 2922.047, 0.022908043, 0.00750671, -85730.3, -85730.3, 0.0, 9.992514, 9.997699 
1.3505341e+2, 1.24338195e+2, -1677000.9, -1718708.5, 2591.381, -0.040394187, -0.021353947, -1676840.5, 44644.67, 0.0, 10.003544, 9.9980135 
1.3504373e+2, 1.3433546e+2, -1598585.1, -1644384.3, 146.22853, -0.024544504, 0.025084807, -1598584.8, 24927.654, 0.0, 10.002826, 9.996756 
1.3503437e+2, 1.4433171e+2, -1513353.8, -1556624.9, 3465.3557, -0.016033575, -0.0058858623, -1513077.9, 12471.424, 0.0, 10.002133, 9.996395 
1.350255e+2, 1.543281e+2, -1424705.1, -1462739.8, 4199.6895, -0.0163682, -0.0104588065, -1424247.0, 3337.524, 0.0, 10.001477, 9.996433 
1.3501678e+2, 1.643243e+2, -1338787.3, -1376249.1, 5713.6895, -0.018446932, -0.006638067, -1337935.3, -8313.436, 0.0, 10.000899, 9.99593 
1.3500834e+2, 1.7432041e+2, -1247482.3, -1281109.3, 5659.917, -0.0223471, 0.0082398625, -1246555.1, -14894.906, 0.0, 10.000425, 9.995964 
1.349999e+2, 1.8431596e+2, -1163589.1, -1200376.1, 5765.752, -0.024618715, 0.012373569, -1162706.6, -29002.568, 0.0, 9.999913, 9.995034 
1.3499157e+2, 1.9431089e+2, -1073715.8, -1106278.0, 6258.8716, -0.024878856, 0.0010544267, -1072554.1, -36800.59, 0.0, 9.999355, 9.995035 
1.3498329e+2, 2.043055e+2, -990243.94, -1023567.3, 6652.865, -0.019935839, -0.004048528, -988964.8, -51158.46, 0.0, 9.998719, 9.994298 
1.3497514e+2, 2.1429983e+2, -902870.94, -930504.44, 6774.653, -0.00821702, -0.0017660029, -901299.44, -61437.58, 0.0, 9.997981, 9.994314 
1.3496682e+2, 2.2429375e+2, -820227.8, -849877.5, 6439.293, -0.005226889, 0.0034525928, -818889.75, -76968.09, 0.0, 9.997358, 9.993425 
1.3495836e+2, 2.3428728e+2, -729006.94, -755051.3, 6374.4727, -0.013650796, 0.011244372, -727530.44, -83545.016, 0.0, 9.996887, 9.993431 
1.3494986e+2, 2.4428034e+2, -643540.4, -671620.25, 5645.2354, -0.018211354, 0.013014221, -642447.94, -96394.37, 0.0, 9.996393, 9.992669 
1.3494125e+2, 2.5427294e+2, -552986.0, -576944.75, 5550.121, -0.017655628, 0.005898297, -551762.75, -103636.96, 0.0, 9.995867, 9.992688 
1.3493265e+2, 2.642652e+2, -468655.78, -494596.66, 5141.0547, -0.013196417, 0.0027112977, -467674.06, -117472.35, 0.0, 9.9953165, 9.991878 
1.3492393e+2, 2.7425712e+2, -378919.34, -400236.6, 5473.3003, -0.0036050745, 0.0034112197, -377596.16, -125315.25, 0.0, 9.99473, 9.991902 
1.3491502e+2, 2.8424844e+2, -297207.94, -323569.5, 4089.3672, 0.0007922438, 0.0067887194, -296588.16, -142222.16, 0.0, 9.994188, 9.990696 
1.3490576e+2, 2.942392e+2, -206096.28, -228710.5, 3166.958, -0.0017813226, 0.012353869, -205661.14, -149204.25, 0.0, 9.993702, 9.9907055 
1.3489623e+2, 3.0423343e+2, -115341.19, -80444.15, 333.28558, 0.0011124456, 0.014725964, -80440.97, -80440.97, 0.0, 9.993153, 9.997767 
1.3488625e+2, 3.1423128e+2, -123940.14, -83496.77, 516.2679, 0.011617769, 0.0112216, -83490.19, -83490.19, 0.0, 9.9925165, 9.997865 
1.4505683e+2, 1.2434852e+2, -1682555.0, -1722767.0, 2937.5095, -0.036775924, -0.020376619, -1682341.5, 39042.445, 0.0, 10.003223, 9.997893 
1.4504649e+2, 1.3434571e+2, -1601208.9, -1646743.4, 92.014595, -0.024662055, 0.028078804, -1601208.6, 22203.225, 0.0, 10.002693, 9.996659 
1.4503647e+2, 1.4434196e+2, -1511329.3, -1552998.8, 3888.4878, -0.019018188, -0.0063823834, -1510969.5, 14479.005, 0.0, 10.002156, 9.99663 
1.4502701e+2, 1.5433854e+2, -1420900.1, -1458012.6, 5922.5005, -0.020143442, -0.019490767, -1419977.9, 7503.7695, 0.0, 10.001612, 9.996689 
1.4501771e+2, 1.6433479e+2, -1338106.0, -1377405.1, 7999.5464, -0.019828554, -0.017764522, -1336540.0, -7021.6904, 0.0, 10.00101, 9.995796 
1.4500877e+2, 1.7433082e+2, -1249911.0, -1284101.9, 7369.239, -0.01723133, 0.0033493417, -1248390.4, -16832.395, 0.0, 10.000338, 9.995801 
1.449998e+2, 1.8432635e+2, -1165553.6, -1199851.4, 7361.18, -0.016904246, 0.010515544, -1164040.5, -30438.62, 0.0, 9.999716, 9.995164 
1.4499088e+2, 1.9432142e+2, -1075497.4, -1105439.3, 8241.31, -0.019635048, -0.0019464991, -1073378.9, -37728.87, 0.0, 9.99916, 9.995186 
1.4498201e+2, 2.0431611e+2, -991335.4, -1024015.0, 8615.656, -0.015964597, -0.0071820524, -989203.06, -51501.09, 0.0, 9.998641, 9.994304 
1.4497323e+2, 2.1431045e+2, -900164.5, -929241.5, 8580.569, -0.0039067636, -0.003720312, -897821.25, -58063.785, 0.0, 9.998168, 9.994308 
1.4496438e+2, 2.2430436e+2, -815759.56, -847845.0, 8517.889, -0.0014493297, 0.0010650659, -813638.5, -71821.15, 0.0, 9.997669, 9.993412 
1.449554e+2, 2.3429784e+2, -725439.56, -753474.5, 8457.33, -0.011587484, 0.006340003, -723085.9, -79204.35, 0.0, 9.997137, 9.993416 
1.4494637e+2, 2.442909e+2, -639956.4, -669531.56, 7793.0845, -0.017361324, 0.0077979295, -638028.56, -92078.945, 0.0, 9.996622, 9.992699 
1.4493726e+2, 2.5428358e+2, -548896.06, -574589.2, 7926.337, -0.017344022, 0.00323203, -546647.56, -98626.234, 0.0, 9.99613, 9.992721 
1.4492807e+2, 2.6427588e+2, -465420.66, -492903.78, 6718.662, -0.011974506, 0.002180625, -463866.13, -113769.234, 0.0, 9.995531, 9.991887 
1.4491872e+2, 2.742678e+2, -377952.3, -399670.47, 6093.4087, 0.00046156856, 0.0044951774, -376359.53, -124183.71, 0.0, 9.994791, 9.991911 
1.4490923e+2, 2.842591e+2, -298183.94, -323889.53, 5229.186, 0.005552553, 0.00569974, -297160.9, -142899.94, 0.0, 9.994114, 9.990709 
1.448994e+2, 2.942498e+2, -208685.77, -229822.23, 5746.2544, 0.00075340545, 0.004014078, -207224.58, -150872.19, 0.0, 9.993518, 9.990717 
1.4488934e+2, 3.0424404e+2, -116263.89, -80791.76, 3590.104, 0.0005351889, 0.006566011, -80432.05, -80432.05, 0.0, 9.993085, 9.997775 
1.448789e+2, 3.14242e+2, -118798.67, -80942.89, 2579.7192, 0.00674678, 0.013249173, -80767.9, -80767.9, 0.0, 9.992865, 9.997871 
1.5506011e+2, 1.2435924e+2, -1683865.8, -1725224.0, 1039.8628, -0.029218256, -0.01277039, -1683839.6, 37439.27, 0.0, 10.003214, 9.99773 
1.5504915e+2, 1.3435617e+2, -1602284.8, -1648793.9, -1861.7683, -0.02871079, 0.02233524, -1602210.4, 21098.998, 0.0, 10.0026865, 9.996522 
1.550385e+2, 1.443525e+2, -1508587.4, -1547248.0, 1884.7705, -0.03025775, -0.016301658, -1508495.8, 16849.432, 0.0, 10.002151, 9.997023 
1.550285e+2, 1.5434958e+2, -1417902.3, -1451755.5, 3910.1572, -0.031871732, -0.02032671, -1417456.5, 9916.517, 0.0, 10.001607, 9.997115 
1.5501866e+2, 1.64346e+2, -1339549.6, -1380307.3, 5529.715, -0.026007466, -0.017022684, -1338812.6, -9404.472, 0.0, 10.001007, 9.9956 
1.5500918e+2, 1.743417e+2, -1251651.6, -1287642.6, 4873.385, -0.010154191, -0.0041453745, -1251003.4, -19552.4, 0.0, 10.000336, 9.995561 
1.5499967e+2, 1.8433715e+2, -1164328.6, -1197303.3, 5273.857, -0.0009336448, 0.0012485193, -1163505.6, -30009.98, 0.0, 9.999715, 9.9953375 
1.5499024e+2, 1.9433251e+2, -1074069.5, -1102479.8, 6185.3584, -0.00041314558, -0.0045344043, -1072781.3, -37240.023, 0.0, 9.99916, 9.995387 
1.5498081e+2, 2.0432733e+2, -991398.75, -1024141.6, 6844.597, -0.0014007841, -0.005021536, -990025.56, -52433.78, 0.0, 9.998641, 9.994294 
1.549714e+2, 2.1432169e+2, -900332.8, -929600.06, 6826.3364, -0.004225059, 0.000609931, -898818.94, -59171.637, 0.0, 9.998169, 9.994283 
1.5496202e+2, 2.2431552e+2, -815865.5, -848084.1, 6543.9385, -0.005207579, 0.001035268, -814587.06, -72879.33, 0.0, 9.99767, 9.993395 
1.549526e+2, 2.3430885e+2, -725551.56, -753722.4, 6462.6543, -0.0038301647, -0.006500779, -724139.75, -80366.66, 0.0, 9.997138, 9.993398 
1.5494314e+2, 2.4430193e+2, -639520.5, -668647.2, 5937.5, -0.0024785933, -0.0058430256, -638356.6, -92515.59, 0.0, 9.996623, 9.992758 
1.5493354e+2, 2.542948e+2, -548425.94, -573639.1, 6077.1094, -0.0011637204, 0.0045094886, -547037.6, -99126.66, 0.0, 9.996131, 9.9927845 
1.5492372e+2, 2.6428714e+2, -466130.25, -494385.75, 3987.8948, -0.00036810088, 0.008485563, -465578.2, -115591.92, 0.0, 9.995532, 9.991785 
1.5491353e+2, 2.7427888e+2, -378774.3, -401361.63, 3283.691, -0.00020026727, 0.0027594408, -378306.63, -126239.55, 0.0, 9.994791, 9.991795 
1.5490328e+2, 2.8427017e+2, -296917.7, -321229.75, 2929.9016, -0.0004293358, -0.001027191, -296569.6, -142417.17, 0.0, 9.994113, 9.9908905 
1.5489288e+2, 2.9426107e+2, -207280.08, -226848.64, 3494.9817, -0.0013001653, -0.0036069173, -206674.6, -150432.8, 0.0, 9.993515, 9.990921 
1.5488243e+2, 3.0425537e+2, -117203.1, -82720.21, 2688.7231, 0.0012462607, 0.0009583762, -82511.83, -82511.83, 0.0, 9.993084, 9.9976425 
1.5487178e+2, 3.142532e+2, -119866.73, -83257.11, 1768.4482, 0.008599464, 0.013484448, -83171.875, -83171.875, 0.0, 9.992869, 9.99771 
1.6506313e+2, 1.243703e+2, -1689638.1, -1726203.6, 1874.3177, -0.025072183, -0.005799169, -1689542.4, 31628.229, 0.0, 10.002741, 9.997893 
1.6505167e+2, 1.3436724e+2, -1604577.8, -1647645.6, 1431.2727, -0.03177721, 0.012222847, -1604530.3, 18670.205, 0.0, 10.002431, 9.996723 
1.6504052e+2, 1.4436373e+2, -1509957.8, -1546525.6, 5034.4736, -0.035939988, -0.028370364, -1509277.3, 15957.557, 0.0, 10.001997, 9.997145 
1.6502999e+2, 1.5436111e+2, -1420065.8, -1451503.8, 4706.777, -0.033308692, -0.013905385, -1419376.1, 7883.9097, 0.0, 10.001403, 9.997231 
1.6501959e+2, 1.6435763e+2, -1341642.5, -1380698.8, 5863.7847, -0.025100743, -0.0070481244, -1340781.1, -11487.107, 0.0, 10.000836, 9.995654 
1.6500951e+2, 1.7435323e+2, -1251678.1, -1287086.3, 7383.1626, -0.009338578, -0.009807046, -1250200.3, -18862.613, 0.0, 10.000309, 9.995609 
1.6499946e+2, 1.843487e+2, -1162805.1, -1196075.5, 8758.37, 0.0006894875, -0.009414445, -1160640.4, -27258.15, 0.0, 9.999797, 9.995379 
1.649895e+2, 1.9434416e+2, -1071624.9, -1100828.6, 8483.145, 0.0031713976, -0.006450589, -1069339.6, -33912.875, 0.0, 9.999306, 9.995427 
1.6497955e+2, 2.0433909e+2, -988936.5, -1022788.2, 8675.594, 0.002490641, -0.0025895252, -986842.6, -49366.016, 0.0, 9.998802, 9.9943075 
1.6496965e+2, 2.1433342e+2, -898599.3, -928632.8, 8940.577, -0.0021996023, 0.0016526581, -896139.3, -56607.125, 0.0, 9.9982815, 9.994292 
1.6495974e+2, 2.2432727e+2, -814424.75, -846432.75, 8925.623, -0.0020179723, -0.00081396964, -812104.0, -70511.59, 0.0, 9.997727, 9.993478 
1.6494983e+2, 2.3432066e+2, -725035.6, -752475.2, 9637.345, 0.004504583, -0.01315564, -721989.0, -78331.83, 0.0, 9.997129, 9.993485 
1.6493984e+2, 2.4431373e+2, -641009.94, -670034.25, 9268.264, 0.007899471, -0.01287467, -638302.8, -92577.85, 0.0, 9.99655, 9.992697 
1.649297e+2, 2.543066e+2, -550962.6, -575666.2, 8393.066, 0.0071925744, 0.0028737069, -548380.9, -100585.66, 0.0, 9.995993, 9.992712 
1.649193e+2, 2.6429892e+2, -466272.97, -494247.8, 6054.176, 0.004434576, 0.007951197, -465018.97, -115148.18, 0.0, 9.995513, 9.991802 
1.6490848e+2, 2.7429062e+2, -373573.84, -398583.2, 6396.6406, -0.00095715275, -0.0023055652, -372032.75, -120080.984, 0.0, 9.995134, 9.9918165 
1.6489765e+2, 2.8428188e+2, -288278.78, -317559.47, 5933.4897, -0.0049306257, -0.0067615784, -287122.1, -133084.86, 0.0, 9.994724, 9.990845 
1.6488671e+2, 2.942728e+2, -196596.94, -222264.81, 4557.6826, -0.0071018445, -0.004926898, -195811.69, -139685.0, 0.0, 9.99427, 9.9908695 
1.6487575e+2, 3.0426702e+2, -109589.77, -80843.96, 2749.4565, -0.0055201557, 0.0024126924, -80583.34, -80583.34, 0.0, 9.993682, 9.997483 
1.648646e+2, 3.1426468e+2, -120382.38, -85411.4, 1760.6871, 0.0012584416, 0.0155306235, -85322.98, -85322.98, 0.0, 9.992915, 9.9975395 
1.7506589e+2, 1.24381654e+2, -1686359.9, -1719195.1, 788.4408, -0.024275843, 0.000591694, -1686340.9, 34718.32, 0.0, 10.002729, 9.998375 
1.7505407e+2, 1.3437892e+2, -1600926.9, -1639882.8, 315.12958, -0.033876657, -0.002198779, -1600924.4, 22161.303, 0.0, 10.00242, 9.997255 
1.7504252e+2, 1.4437562e+2, -1511133.9, -1548718.3, 2902.116, -0.036154605, -0.0425546, -1510911.0, 14206.84, 0.0, 10.001987, 9.997 
1.7503148e+2, 1.543731e+2, -1421536.9, -1454374.4, 2512.7148, -0.024570568, -0.00026494422, -1421345.8, 5797.2407, 0.0, 10.001396, 9.997038 
1.750205e+2, 1.6436972e+2, -1339504.0, -1376202.6, 3904.2334, -0.017202076, 0.012106977, -1339093.3, -9917.075, 0.0, 10.000833, 9.995961 
1.7500977e+2, 1.7436542e+2, -1249285.4, -1282102.0, 5439.7354, -0.01481104, -0.013675915, -1248407.1, -17189.04, 0.0, 10.000307, 9.995949 
1.7499913e+2, 1.8436095e+2, -1163460.3, -1197391.1, 6939.3247, -0.012052687, -0.02149192, -1162095.9, -28833.979, 0.0, 9.999796, 9.99529 
1.7498869e+2, 1.943564e+2, -1072487.9, -1102594.6, 6673.9443, -0.008963321, -0.007687375, -1071074.8, -35768.055, 0.0, 9.999306, 9.995306 
1.7497829e+2, 2.043513e+2, -988667.8, -1022236.25, 6755.6772, -0.0043555833, 0.00011645125, -987359.25, -50002.484, 0.0, 9.998802, 9.994344 
1.7496799e+2, 2.1434565e+2, -898255.8, -927931.94, 7009.915, 0.0022211045, -0.00063842686, -896683.3, -57270.97, 0.0, 9.998282, 9.994339 
1.7495757e+2, 2.243396e+2, -813086.4, -843669.5, 6716.5303, 0.008194918, -0.0044865026, -811676.4, -70204.836, 0.0, 9.997727, 9.993666 
1.7494705e+2, 2.3433319e+2, -723645.56, -749590.44, 7408.443, 0.013400807, -0.013477963, -721679.1, -78145.19, 0.0, 9.997129, 9.993681 
1.7493643e+2, 2.4432631e+2, -642321.2, -672717.4, 7173.636, 0.013646, -0.0131727075, -640713.2, -95111.7, 0.0, 9.996549, 9.992514 
1.7492568e+2, 2.5431892e+2, -552483.6, -578768.6, 6295.4204, 0.0074901334, -0.0017959685, -551053.6, -103379.37, 0.0, 9.995991, 9.992499 
1.7491479e+2, 2.6431116e+2, -465275.22, -492161.13, 4598.9595, 0.0022305418, 0.00037054083, -464510.3, -114759.74, 0.0, 9.995512, 9.991944 
1.7490362e+2, 2.7430302e+2, -372354.3, -396112.34, 4996.0464, -0.0018176504, -0.010814208, -371346.47, -119516.49, 0.0, 9.995137, 9.991983 
1.7489235e+2, 2.842943e+2, -290188.22, -321645.16, 4258.7637, -0.007941518, -0.011461744, -289621.84, -135706.34, 0.0, 9.99473, 9.990562 
1.748809e+2, 2.9428497e+2, -198718.6, -226848.38, 2837.4124, -0.016852535, 0.0003423609, -198435.25, -142427.98, 0.0, 9.994279, 9.990551 
1.748693e+2, 3.0427897e+2, -110821.32, -83554.22, -109.69586, -0.020151978, 0.011256549, -83553.78, -83553.78, 0.0, 9.993689, 9.9972925 
1.7485735e+2, 3.1427643e+2, -121645.0, -88041.36, -1193.7051, -0.015815986, 0.019453878, -87999.01, -87999.01, 0.0, 9.992915, 9.997358 
1.8506826e+2, 1.2439373e+2, -1693072.9, -1719815.1, 5204.2803, -0.028557438, -0.0055954377, -1692095.9, 28844.854, 0.0, 10.002156, 9.99861 
1.8505605e+2, 1.3439132e+2, -1611927.4, -1642095.1, 2826.0103, -0.03524695, -0.0034649123, -1611664.9, 11298.99, 0.0, 10.001534, 9.997535 
1.8504402e+2, 1.443882e+2, -1525463.5, -1555738.9, 4819.884, -0.036759175, -0.040480565, -1524714.6, 279.89365, 0.0, 10.001014, 9.996995 
1.8503247e+2, 1.5438569e+2, -1433113.4, -1460283.1, 5668.9727, -0.025868222, 0.004833733, -1431978.0, -4958.102, 0.0, 10.00062, 9.997012 
1.8502103e+2, 1.643824e+2, -1346168.0, -1376743.3, 7748.145, -0.020616882, 0.016949506, -1344316.6, -15264.445, 0.0, 10.000262, 9.996201 
1.850098e+2, 1.743783e+2, -1252688.9, -1280870.9, 8676.973, -0.022186296, -0.013305364, -1250231.5, -19139.67, 0.0, 9.999949, 9.996204 
1.8499874e+2, 1.8437394e+2, -1166431.5, -1199020.9, 10022.393, -0.020642245, -0.022601182, -1163596.0, -30461.563, 0.0, 9.999601, 9.995271 
1.8498789e+2, 1.9436939e+2, -1074188.3, -1103828.5, 10379.905, -0.015244086, -0.0064291046, -1070914.8, -35735.414, 0.0, 9.9992075, 9.995268 
1.8497704e+2, 2.0436427e+2, -989004.9, -1022193.25, 10506.711, -0.008156542, 0.0006984242, -985958.4, -48728.695, 0.0, 9.99877, 9.99436 
1.8496625e+2, 2.1435858e+2, -898162.1, -927648.56, 10549.921, 0.0011283127, -0.0046348437, -894776.25, -55490.816, 0.0, 9.998278, 9.994359 
1.8495534e+2, 2.243526e+2, -810942.0, -841533.0, 9855.406, 0.007245917, -0.0077944067, -808041.9, -66697.9, 0.0, 9.997827, 9.993761 
1.8494427e+2, 2.3434637e+2, -718569.25, -745989.2, 9831.263, 0.009283502, -0.009335431, -715408.6, -72003.82, 0.0, 9.997426, 9.993782 
1.8493316e+2, 2.443395e+2, -636307.75, -670821.1, 9525.186, 0.007963755, -0.008790635, -633853.5, -88381.29, 0.0, 9.997003, 9.992422 
1.849219e+2, 2.5433192e+2, -545050.6, -576349.5, 9456.34, 0.0023229173, -0.006497307, -542415.44, -94868.7, 0.0, 9.996549, 9.9923935 
1.849105e+2, 2.6432407e+2, -458084.8, -488716.6, 7644.6035, -0.00077359047, -0.0053681913, -456282.97, -106659.26, 0.0, 9.996005, 9.9919405 
1.8489885e+2, 2.7431604e+2, -369273.5, -394587.4, 6791.7207, -0.00052558305, -0.007146625, -367566.38, -115864.08, 0.0, 9.995346, 9.991985 
1.8488711e+2, 2.8430727e+2, -291157.4, -323574.38, 5950.0474, -0.0038988285, -0.005855048, -290099.78, -136311.56, 0.0, 9.994726, 9.990431 
1.8487516e+2, 2.9429772e+2, -201489.97, -229771.64, 5870.5127, -0.0120874625, -0.0018289902, -200319.83, -144437.88, 0.0, 9.994156, 9.990408 
1.8486294e+2, 3.0429158e+2, -112360.53, -85089.87, 3607.403, -0.01975879, 0.0039141118, -84620.74, -84620.74, 0.0, 9.993616, 9.99722 
1.8485025e+2, 3.1428894e+2, -119205.766, -87619.77, 3353.7412, -0.026434068, 0.01029864, -87267.61, -87267.61, 0.0, 9.9931135, 9.997289 
1.9507034e+2, 1.2440649e+2, -1693250.4, -1719939.6, 2966.5596, -0.037787605, -0.023891162, -1692924.6, 27890.584, 0.0, 10.002147, 9.998606 
1.9505757e+2, 1.3440442e+2, -1611829.3, -1641677.3, 543.04364, -0.035882603, 0.008235944, -1611819.4, 11016.325, 0.0, 10.001526, 9.997566 
1.9504502e+2, 1.4440145e+2, -1524604.0, -1553790.6, 3344.4182, -0.03777266, -0.02247131, -1524225.6, 639.5327, 0.0, 10.001006, 9.99713 
1.9503297e+2, 1.5439883e+2, -1432197.8, -1458254.3, 4240.0635, -0.0371145, 0.0014101102, -1431525.1, -4633.995, 0.0, 10.000614, 9.997152 
1.9502115e+2, 1.6439566e+2, -1345003.4, -1374239.3, 6604.037, -0.035235237, 0.007625336, -1343580.9, -14658.308, 0.0, 10.0002575, 9.996372 
1.9500968e+2, 1.7439188e+2, -1251494.3, -1278339.9, 7549.838, -0.031446606, -0.008643594, -1249516.6, -18557.549, 0.0, 9.999948, 9.996377 
1.949983e+2, 1.843877e+2, -1166051.8, -1198203.8, 8601.5205, -0.025093216, -0.012737437, -1163895.3, -30895.275, 0.0, 9.9996, 9.995326 
1.9498709e+2, 1.9438311e+2, -1073859.8, -1103135.0, 8943.402, -0.015641611, -0.0026903953, -1071343.9, -36298.813, 0.0, 9.9992075, 9.995314 
1.949758e+2, 2.0437798e+2, -989019.3, -1022216.8, 8719.768, -0.00891976, -0.0008762036, -986868.3, -49772.777, 0.0, 9.99877, 9.994358 
1.9496447e+2, 2.1437223e+2, -898203.25, -927732.3, 8737.332, -0.0055972915, -0.010366231, -895811.7, -56659.996, 0.0, 9.998279, 9.994351 
1.9495305e+2, 2.2436628e+2, -810900.2, -841454.9, 8367.736, -0.0050842613, -0.0107188905, -808758.7, -67548.7, 0.0, 9.997828, 9.993766 
1.9494155e+2, 2.3436017e+2, -718517.8, -745913.7, 8358.294, -0.008160629, -0.00061532285, -716169.1, -72899.26, 0.0, 9.997429, 9.993785 
1.9492999e+2, 2.4435331e+2, -636235.56, -670728.56, 7851.3076, -0.009456351, 0.00037614637, -634532.5, -89195.27, 0.0, 9.997006, 9.992426 
1.9491835e+2, 2.543456e+2, -544966.8, -576256.0, 7767.5024, -0.008478041, -0.011252119, -543144.6, -95731.79, 0.0, 9.996552, 9.992397 
1.9490647e+2, 2.643377e+2, -459132.28, -490959.38, 5212.9, -0.004609426, -0.009169131, -458300.22, -108809.83, 0.0, 9.996008, 9.991784 
1.9489424e+2, 2.743297e+2, -370443.94, -397035.13, 4293.563, 0.0030067763, 0.009217108, -369767.88, -118198.92, 0.0, 9.995347, 9.9918165 
1.9488196e+2, 2.8432083e+2, -290964.1, -323153.47, 3767.361, 0.0075233663, 0.010453264, -290529.06, -136873.5, 0.0, 9.994725, 9.990459 
1.9486952e+2, 2.9431108e+2, -201218.45, -229159.81, 3723.6711, 0.00792667, -0.011874308, -200730.72, -144979.8, 0.0, 9.994155, 9.99045 
1.9485672e+2, 3.043048e+2, -112002.34, -84319.68, 1734.8434, -0.0035732263, -0.020493997, -84211.38, -84211.38, 0.0, 9.993615, 9.9972725 
1.9484332e+2, 3.1430224e+2, -118789.64, -86831.0, 1516.8579, -0.030277984, -0.012696044, -86759.17, -86759.17, 0.0, 9.993117, 9.99734 
2.0507236e+2, 1.24420255e+2, -1692135.6, -1719282.3, 7053.594, -0.053278856, -0.03426531, -1690412.3, 30267.729, 0.0, 10.002215, 9.998614 
2.050589e+2, 1.3441835e+2, -1613554.6, -1641971.8, 4700.1304, -0.04829618, 0.011115563, -1612797.5, 9901.533, 0.0, 10.001383, 9.997614 
2.0504574e+2, 1.4441547e+2, -1528833.6, -1555382.3, 8227.32, -0.04947905, -0.016104601, -1526490.8, -1762.9379, 0.0, 10.000697, 9.99717 
2.0503324e+2, 1.5441282e+2, -1438074.3, -1460671.6, 8427.626, -0.04954606, 0.00038535538, -1435277.4, -8523.089, 0.0, 10.000195, 9.9971895 
2.05021e+2, 1.6440973e+2, -1352063.9, -1375880.0, 10521.855, -0.046931144, 0.0054900213, -1348081.4, -19296.576, 0.0, 9.999699, 9.99653 
2.0500916e+2, 1.7440619e+2, -1261093.9, -1281145.4, 11418.841, -0.040514573, -0.0037926536, -1255924.0, -25104.895, 0.0, 9.999212, 9.996541 
2.0499739e+2, 1.8440211e+2, -1178617.9, -1204145.1, 12193.567, -0.03192071, -0.0055879382, -1173729.5, -40870.523, 0.0, 9.998737, 9.995339 
2.0498578e+2, 1.9439751e+2, -1087479.0, -1109701.6, 12196.108, -0.02074336, 0.0007159546, -1082091.6, -47187.313, 0.0, 9.998277, 9.9953165 
2.049741e+2, 2.0439236e+2, -1000512.4, -1026924.94, 12436.869, -0.014143317, -0.00037490332, -995578.06, -58623.383, 0.0, 9.997949, 9.994433 
2.0496242e+2, 2.1438669e+2, -904814.44, -930029.8, 13134.452, -0.013281391, -0.0116390465, -899215.9, -60205.785, 0.0, 9.997787, 9.994431 
2.0495066e+2, 2.2438073e+2, -815931.25, -845081.06, 12518.644, -0.012678118, -0.010380074, -811293.0, -70224.63, 0.0, 9.997535, 9.993658 
2.049388e+2, 2.3437457e+2, -723212.75, -749525.4, 11562.35, -0.012416349, 0.005592809, -718854.0, -75724.91, 0.0, 9.997166, 9.993664 
2.0492685e+2, 2.4436769e+2, -639325.7, -671148.25, 10601.207, -0.010743135, 0.0072105387, -636117.5, -90920.9, 0.0, 9.996748, 9.99252 
2.0491478e+2, 2.5436002e+2, -548298.7, -576636.2, 11303.559, -0.007250879, -0.010470676, -544342.2, -97070.72, 0.0, 9.996271, 9.992505 
2.0490243e+2, 2.6435208e+2, -462439.47, -494114.34, 9083.0, -0.0033888717, -0.010366451, -460019.72, -110670.49, 0.0, 9.995849, 9.991644 
2.0488964e+2, 2.7434397e+2, -369386.94, -398290.1, 8237.911, 0.0009991061, 0.011293238, -367203.88, -115774.73, 0.0, 9.995495, 9.991657 
2.0487675e+2, 2.843351e+2, -286949.16, -319649.1, 7475.5605, 0.005208854, 0.013303009, -285321.2, -131805.33, 0.0, 9.994931, 9.990597 
2.0486367e+2, 2.9432547e+2, -200874.22, -227203.47, 8276.608, 0.009074084, -0.011546416, -198488.61, -142878.86, 0.0, 9.9941, 9.990608 
2.0485026e+2, 3.043193e+2, -115006.375, -84310.78, 7477.592, 0.000419145, -0.025092887, -82586.11, -82586.11, 0.0, 9.993345, 9.997401 
2.048363e+2, 3.1431678e+2, -124077.15, -87964.81, 7854.73, -0.024276307, -0.025241757, -86330.32, -86330.32, 0.0, 9.992692, 9.997465 
2.1507436e+2, 1.2443499e+2, -1692276.8, -1719090.9, 3992.1602, -0.07487498, -0.03694428, -1691695.0, 28840.32, 0.0, 10.002194, 9.998636 
2.1506003e+2, 1.3443312e+2, -1613321.3, -1641140.9, 1597.9486, -0.07224019, 0.005328684, -1613229.8, 9324.422, 0.0, 10.001368, 9.997677 
2.1504623e+2, 1.4443024e+2, -1529371.0, -1556229.4, 6309.513, -0.071667574, -0.021141542, -1527962.6, -3379.6353, 0.0, 10.000687, 9.997117 
2.1503331e+2, 1.5442762e+2, -1438637.9, -1461628.6, 6582.186, -0.06312471, 0.0017795872, -1436886.8, -10277.369, 0.0, 10.000186, 9.997128 
2.1502061e+2, 1.6442457e+2, -1351101.9, -1373759.0, 8738.265, -0.055737842, 0.0104738865, -1348123.3, -19483.99, 0.0, 9.999694, 9.9966755 
2.1500829e+2, 1.744212e+2, -1260021.3, -1278851.0, 9633.977, -0.04939701, 0.0012226625, -1255965.6, -25293.33, 0.0, 9.999209, 9.996698 
2.1499604e+2, 1.8441719e+2, -1178846.4, -1204568.9, 10496.668, -0.04114039, -0.0011619901, -1175106.6, -42395.094, 0.0, 9.998735, 9.99531 
2.1498396e+2, 1.9441251e+2, -1087795.8, -1110305.5, 10507.567, -0.030600093, 0.0037912952, -1083653.1, -48895.76, 0.0, 9.998275, 9.995275 
2.1497196e+2, 2.0440744e+2, -999416.5, -1024623.4, 11819.943, -0.023891537, 0.002231501, -994741.1, -57933.85, 0.0, 9.997948, 9.99459 
2.1496011e+2, 2.1440193e+2, -903632.06, -927560.4, 12585.745, -0.021964371, -0.008366369, -898231.25, -59370.363, 0.0, 9.997787, 9.994598 
2.1494815e+2, 2.2439598e+2, -817513.9, -848319.3, 11217.665, -0.015436815, -0.006724525, -813861.94, -72942.62, 0.0, 9.997535, 9.993436 
2.1493605e+2, 2.3438956e+2, -724986.6, -753147.1, 10203.622, -0.0031306397, 0.009199089, -721678.2, -78695.47, 0.0, 9.997164, 9.993417 
2.1492375e+2, 2.4438265e+2, -638015.56, -668380.06, 8855.473, 0.004553263, 0.011669332, -635621.7, -90571.17, 0.0, 9.996746, 9.992709 
2.149112e+2, 2.5437522e+2, -546803.8, -573466.06, 9531.911, 0.0063853404, -0.0039307615, -543746.6, -96623.79, 0.0, 9.996268, 9.992722 
2.1489833e+2, 2.6436728e+2, -463340.03, -495925.06, 7755.4146, 0.003021507, -0.008923194, -461588.38, -112388.05, 0.0, 9.995847, 9.99152 
2.1488506e+2, 2.743589e+2, -370407.56, -400427.25, 6941.993, -0.006874338, -0.0016276566, -368879.97, -117596.875, 0.0, 9.995497, 9.991509 
2.1487153e+2, 2.8435007e+2, -285123.0, -315893.47, 4465.386, -0.011578316, 0.0021142515, -284488.06, -131118.78, 0.0, 9.994933, 9.990851 
2.1485758e+2, 2.9434094e+2, -198907.25, -223083.97, 5162.0146, -0.0097157145, -0.00019324641, -197851.22, -142392.83, 0.0, 9.994098, 9.99089 
2.1484351e+2, 3.043351e+2, -113586.84, -81267.82, 5018.248, -0.008439495, -0.008744935, -80506.555, -80506.555, 0.0, 9.9933405, 9.99761 
2.1482915e+2, 3.1433257e+2, -122737.76, -85037.74, 5455.401, -0.0077419165, -0.026697632, -84264.19, -84264.19, 0.0, 9.992685, 9.997667 
2.2507602e+2, 1.2445016e+2, -1705947.4, -1724642.5, 4009.106, -0.0788831, -0.031169154, -1705123.9, 15263.042, 0.0, 10.001216, 9.998735 
2.25061e+2, 1.3444842e+2, -1622553.0, -1644002.5, 2192.1338, -0.07629142, 0.008718368, -1622331.3, 73.22754, 0.0, 10.000668, 9.997822 
2.2504658e+2, 1.4444563e+2, -1537145.4, -1558918.8, 8284.299, -0.076416016, -0.020726595, -1534351.8, -9919.491, 0.0, 10.00011, 9.997213 
2.2503313e+2, 1.5444306e+2, -1447547.0, -1464922.3, 9726.217, -0.067748465, -0.001108399, -1443193.4, -16735.457, 0.0, 9.999534, 9.997219 
2.2501992e+2, 1.6444011e+2, -1360163.1, -1377562.4, 12557.684, -0.062180113, 0.008424938, -1353586.0, -25099.016, 0.0, 9.99905, 9.996728 
2.2500713e+2, 1.7443684e+2, -1267446.1, -1281904.6, 12657.193, -0.06010617, 0.0051267175, -1260099.1, -29579.979, 0.0, 9.998679, 9.996746 
2.2499448e+2, 1.844329e+2, -1183340.6, -1206184.0, 13798.965, -0.05444741, 0.004210033, -1176849.6, -44291.64, 0.0, 9.9984045, 9.995359 
2.2498207e+2, 1.9442824e+2, -1087825.3, -1109757.6, 14508.675, -0.04444633, 0.0050506857, -1080604.6, -46000.95, 0.0, 9.998248, 9.995323 
2.249698e+2, 2.0442323e+2, -998152.1, -1022701.4, 16109.253, -0.036015026, 0.003530674, -990174.0, -53521.188, 0.0, 9.997977, 9.994704 
2.2495772e+2, 2.1441789e+2, -906078.8, -927406.1, 16505.85, -0.029543372, -0.0018192747, -897091.6, -58386.8, 0.0, 9.997562, 9.994716 
2.2494549e+2, 2.2441193e+2, -823477.25, -852678.1, 15060.572, -0.019982254, 0.00049589825, -817101.7, -76338.48, 0.0, 9.99719, 9.993303 
2.2493303e+2, 2.3440534e+2, -730292.44, -757368.1, 14792.571, -0.0065282956, 0.011306641, -723778.0, -80949.484, 0.0, 9.996873, 9.993267 
2.2492036e+2, 2.4439839e+2, -639748.5, -667473.25, 13518.075, 0.0013497313, 0.012338142, -634248.44, -89351.914, 0.0, 9.9965515, 9.992863 
2.249074e+2, 2.5439116e+2, -546165.6, -571209.4, 13853.272, 0.0021625936, 0.0000015449783, -540013.7, -93046.96, 0.0, 9.996227, 9.992893 
2.248942e+2, 2.643833e+2, -462580.56, -495913.03, 12501.615, 0.00038911152, -0.006241071, -458412.84, -109369.32, 0.0, 9.9959135, 9.991487 
2.2488064e+2, 2.7437475e+2, -369012.47, -400266.75, 12481.204, -0.0046376926, -0.006009304, -364639.9, -113512.586, 0.0, 9.995613, 9.991462 
2.2486667e+2, 2.8436592e+2, -279671.88, -313838.66, 8503.853, -0.010135659, -0.002043641, -277672.34, -124458.29, 0.0, 9.995329, 9.990799 
2.2485209e+2, 2.9435685e+2, -185074.39, -217003.69, 6580.1406, -0.016213788, 0.005281533, -183771.5, -128468.516, 0.0, 9.9950695, 9.990836 
2.2483727e+2, 3.04351e+2, -98334.39, -73792.6, 2978.5645, -0.015481468, 0.0039808005, -73436.28, -73436.28, 0.0, 9.994379, 9.9976225 
2.2482207e+2, 3.1434858e+2, -115945.21, -81602.7, 1871.9471, -0.00577936, -0.009915506, -81500.97, -81500.97, 0.0, 9.993142, 9.997683 
2.3507737e+2, 1.2446576e+2, -1705058.5, -1722275.0, 1943.672, -0.06587396, -0.017187908, -1704841.8, 15392.909, 0.0, 10.001192, 9.998906 
2.3506182e+2, 1.3446423e+2, -1621223.4, -1640831.6, 156.788, -0.060945716, 0.021073064, -1621222.1, 1027.924, 0.0, 10.0006485, 9.998045 
2.350468e+2, 1.444616e+2, -1535598.5, -1555412.8, 6168.868, -0.06410033, -0.014983079, -1533834.9, -9558.949, 0.0, 10.000095, 9.9974575 
2.350327e+2, 1.5445915e+2, -1445934.0, -1461391.3, 7600.0894, -0.06358689, -0.008256609, -1442823.1, -16523.145, 0.0, 9.999524, 9.997462 
2.3501892e+2, 1.644563e+2, -1360542.0, -1378205.4, 11170.608, -0.06631317, -0.00057035557, -1355133.5, -26805.361, 0.0, 9.999044, 9.996686 
2.3500568e+2, 1.7445308e+2, -1267926.0, -1282797.8, 11309.056, -0.07268084, 0.007959487, -1261827.3, -31467.074, 0.0, 9.998675, 9.996686 
2.3499271e+2, 1.8444918e+2, -1182442.0, -1204287.8, 13222.86, -0.07187701, 0.010529651, -1176214.0, -43815.555, 0.0, 9.998404, 9.995487 
2.3498015e+2, 1.9444461e+2, -1086830.6, -1107693.9, 13981.156, -0.062321752, 0.004467507, -1079818.3, -45374.754, 0.0, 9.998249, 9.995462 
2.3496763e+2, 2.0443971e+2, -997626.94, -1021615.06, 14656.283, -0.05053404, 0.0035199197, -990682.56, -54191.098, 0.0, 9.997978, 9.994777 
2.3495522e+2, 2.1443453e+2, -905602.3, -926403.25, 14993.686, -0.035977688, 0.008075356, -897755.0, -59212.96, 0.0, 9.997562, 9.994783 
2.349426e+2, 2.2442862e+2, -823778.5, -853260.75, 13894.39, -0.026399478, 0.0113366125, -818262.4, -77662.17, 0.0, 9.9971895, 9.993263 
2.3492974e+2, 2.3442186e+2, -730644.44, -758047.75, 13649.8, -0.023028988, 0.011854646, -725005.6, -82338.89, 0.0, 9.996872, 9.99322 
2.349167e+2, 2.4441491e+2, -638933.4, -665743.25, 12350.67, -0.020985117, 0.009104386, -634111.1, -89376.375, 0.0, 9.996551, 9.99298 
2.349034e+2, 2.5440785e+2, -545278.6, -569350.4, 12676.74, -0.020604197, 0.0012263042, -539834.1, -93030.77, 0.0, 9.996227, 9.993019 
2.3488998e+2, 2.6440012e+2, -462128.0, -494977.13, 11401.186, -0.0115870675, -0.0022458395, -458558.75, -109679.83, 0.0, 9.995914, 9.991549 
2.3487638e+2, 2.7439165e+2, -368578.25, -399386.84, 11394.656, 0.008282742, -0.0014159818, -364821.88, -113859.96, 0.0, 9.995615, 9.99152 
2.3486221e+2, 2.8438267e+2, -282264.47, -319329.25, 7568.37, 0.010460558, 0.0011433891, -280778.63, -127728.36, 0.0, 9.995336, 9.990419 
2.3484723e+2, 2.943731e+2, -187738.9, -222868.36, 5625.5845, -0.009746949, 0.0044751246, -186860.02, -131716.11, 0.0, 9.995085, 9.990426 
2.3483162e+2, 3.043671e+2, -99504.84, -76596.25, -1540.3252, -0.020695683, 0.012956811, -76493.15, -76493.15, 0.0, 9.994394, 9.99742 
2.3481509e+2, 3.143647e+2, -117150.56, -84289.45, -2909.5608, -0.019571539, 0.026496349, -84033.83, -84033.83, 0.0, 9.99315, 9.997493 
2.4507798e+2, 1.24481566e+2, -1718560.3, -1725781.4, 1454.7291, -0.06799003, -0.0060269865, -1718278.3, 1802.1057, 0.0, 10.000139, 9.999181 
2.4506193e+2, 1.344803e+2, -1634786.3, -1643721.4, 476.05203, -0.059583884, 0.026065988, -1634761.0, -12668.218, 0.0, 9.999563, 9.998377 
2.4504645e+2, 1.4447795e+2, -1546861.5, -1557244.0, 7861.037, -0.062311262, -0.015943013, -1542632.3, -18516.541, 0.0, 9.99917, 9.997782 
2.4503195e+2, 1.5447575e+2, -1451419.5, -1460429.8, 9896.762, -0.06385791, -0.015257245, -1445050.8, -18913.674, 0.0, 9.998993, 9.997786 
2.4501784e+2, 1.6447306e+2, -1364549.9, -1380457.0, 14063.709, -0.0666461, -0.007496612, -1356346.5, -28182.87, 0.0, 9.998784, 9.996657 
2.450043e+2, 1.7446986e+2, -1270349.0, -1284506.1, 14289.688, -0.07060366, 0.008608332, -1261480.8, -31285.064, 0.0, 9.998533, 9.996637 
2.4499106e+2, 1.8446605e+2, -1183768.0, -1203272.3, 16536.938, -0.06896487, 0.01340474, -1174321.9, -42088.465, 0.0, 9.998241, 9.995634 
2.4497823e+2, 1.9446158e+2, -1090835.9, -1107856.1, 17433.436, -0.060521454, 0.0030015295, -1079946.4, -45669.105, 0.0, 9.997898, 9.99562 
2.4496546e+2, 2.0445679e+2, -1001877.7, -1023345.06, 18019.006, -0.049157564, 0.0036167917, -991637.6, -55313.49, 0.0, 9.997674, 9.994805 
2.449528e+2, 2.1445173e+2, -905017.4, -925882.9, 17992.68, -0.034163415, 0.017006265, -894651.6, -56277.656, 0.0, 9.997592, 9.994803 
2.4493994e+2, 2.2444585e+2, -818900.6, -850157.0, 17182.209, -0.026052805, 0.019115783, -811302.4, -70870.555, 0.0, 9.99749, 9.993327 
2.4492683e+2, 2.3443902e+2, -722931.7, -753543.75, 17815.426, -0.026525754, 0.006115203, -714750.2, -72251.56, 0.0, 9.997365, 9.993287 
2.4491349e+2, 2.4443206e+2, -630527.1, -662131.06, 16021.846, -0.02704769, 0.0022508702, -623825.7, -79259.195, 0.0, 9.997144, 9.992938 
2.4489984e+2, 2.544251e+2, -537118.4, -565948.56, 14998.314, -0.02760279, 0.008694424, -530731.0, -84096.375, 0.0, 9.996808, 9.9929695 
2.4488606e+2, 2.6441738e+2, -455959.84, -491702.3, 12340.997, -0.015740199, 0.009896042, -452112.88, -103402.96, 0.0, 9.996322, 9.991574 
2.4487203e+2, 2.7440888e+2, -367794.1, -398662.03, 12093.633, 0.011693691, 0.0033354296, -363620.3, -112827.27, 0.0, 9.995652, 9.99155 
2.4485753e+2, 2.8439975e+2, -286660.3, -323574.38, 9490.25, 0.019750034, 0.00010065777, -284363.38, -131480.89, 0.0, 9.995125, 9.99023 
2.4484229e+2, 2.9439e+2, -193642.06, -228009.25, 9163.981, 0.0032816748, -0.00035182206, -191351.2, -136372.73, 0.0, 9.994778, 9.99022 
2.448262e+2, 3.0438367e+2, -99749.17, -81138.04, 857.59753, -0.009836804, 0.008678756, -81098.61, -81098.61, 0.0, 9.994566, 9.997025 
2.4480893e+2, 3.1438094e+2, -99855.586, -80535.19, -2280.394, -0.018343003, 0.02825238, -80269.68, -80269.68, 0.0, 9.99453, 9.997085 
2.5507796e+2, 1.2449756e+2, -1716240.5, -1720461.5, -723.94226, -0.08477839, 0.0025305422, -1716119.8, 3804.0156, 0.0, 10.000116, 9.999552 
2.5506136e+2, 1.3449661e+2, -1631896.5, -1637429.9, -1656.6686, -0.07184444, 0.023874858, -1631438.4, -9505.561, 0.0, 9.999549, 9.99881 
2.5504553e+2, 1.4449462e+2, -1544127.9, -1551384.1, 7169.6436, -0.07082301, -0.023450196, -1539720.6, -15768.688, 0.0, 9.999161, 9.998184 
2.550309e+2, 1.5449284e+2, -1448683.4, -1454599.5, 9267.621, -0.06847746, -0.022069301, -1441913.1, -15943.9795, 0.0, 9.998985, 9.998184 
2.5501665e+2, 1.6449037e+2, -1364747.1, -1380704.8, 13178.884, -0.06316036, -0.012367761, -1357320.0, -29326.307, 0.0, 9.998779, 9.996642 
2.55003e+2, 1.7448717e+2, -1270672.1, -1285068.8, 13389.341, -0.05388458, 0.007052811, -1262668.8, -32642.924, 0.0, 9.998529, 9.996599 
2.5498953e+2, 1.8448342e+2, -1182616.9, -1200852.9, 15318.701, -0.04570074, 0.012826026, -1173907.9, -41844.855, 0.0, 9.9982395, 9.995798 
2.5497636e+2, 1.9447911e+2, -1089597.8, -1105274.0, 16197.453, -0.038936052, 0.0006665244, -1079441.6, -45336.414, 0.0, 9.997898, 9.995795 
2.549633e+2, 2.0447443e+2, -1001994.9, -1023577.5, 17729.467, -0.03177391, 0.0038335035, -992030.8, -55879.67, 0.0, 9.997675, 9.994788 
2.549505e+2, 2.1446943e+2, -905194.94, -926273.44, 17752.889, -0.02406375, 0.024955582, -895088.56, -56887.824, 0.0, 9.997595, 9.994774 
2.549375e+2, 2.2446357e+2, -817631.0, -847592.3, 16782.396, -0.018810183, 0.023742137, -810115.7, -69857.48, 0.0, 9.997494, 9.9935 
2.549243e+2, 2.3445675e+2, -721559.44, -750797.94, 17408.078, -0.016636254, -0.006116302, -713446.25, -71121.836, 0.0, 9.99737, 9.993471 
2.5491074e+2, 2.4444982e+2, -631923.94, -665130.1, 14845.345, -0.016306093, -0.008298117, -626254.94, -81862.8, 0.0, 9.997149, 9.992729 
2.5489673e+2, 2.5444287e+2, -538680.9, -569301.8, 13758.649, -0.01822524, 0.022716256, -533407.1, -86946.41, 0.0, 9.996815, 9.992737 
2.5488243e+2, 2.644351e+2, -456000.78, -491866.66, 9865.993, -0.011828411, 0.030524423, -453466.0, -104929.164, 0.0, 9.996326, 9.99156 
2.5486764e+2, 2.7442643e+2, -367800.3, -398662.72, 9539.13, 0.0049374523, 0.008213823, -365089.94, -114468.74, 0.0, 9.995652, 9.991549 
2.5485262e+2, 2.844172e+2, -286623.72, -323423.72, 8092.814, 0.017094754, -0.005411816, -284922.63, -132211.42, 0.0, 9.995123, 9.99024 
2.5483727e+2, 2.944074e+2, -193623.48, -227864.67, 7863.408, 0.023354454, -0.009458815, -191904.02, -137097.05, 0.0, 9.994774, 9.990231 
2.5482106e+2, 3.0440068e+2, -103942.65, -89947.86, 731.72266, 0.01817385, -0.009906733, -89909.71, -89909.71, 0.0, 9.994572, 9.996417 
2.5480366e+2, 3.143972e+2, -103977.85, -89763.47, -2347.1582, -0.0010708955, -0.00739315, -89385.914, -89385.914, 0.0, 9.99456, 9.996436 
2.650777e+2, 1.2451402e+2, -1725177.6, -1721339.3, 2631.0105, -0.08467419, -0.0039204233, -1720001.9, -239.73677, 0.0, 9.999356, 9.999862 
2.6506075e+2, 1.3451341e+2, -1631682.8, -1633187.1, 1290.9966, -0.07961737, 0.014644218, -1630940.9, -9173.094, 0.0, 9.999382, 9.999178 
2.6504463e+2, 1.4451177e+2, -1541212.0, -1547029.9, 9344.939, -0.080237724, -0.029453048, -1534333.8, -10550.175, 0.0, 9.99923, 9.998445 
2.650298e+2, 1.5451035e+2, -1448759.6, -1451774.1, 10337.352, -0.07097285, -0.018327981, -1439820.3, -14022.607, 0.0, 9.998855, 9.99844 
2.6501533e+2, 1.6450806e+2, -1368304.3, -1381700.0, 13926.469, -0.05920814, -0.006537134, -1359548.8, -31728.412, 0.0, 9.998504, 9.996708 
2.6500145e+2, 1.7450483e+2, -1275403.6, -1286741.9, 14805.834, -0.044069353, 0.005679569, -1265218.6, -35366.12, 0.0, 9.998179, 9.996655 
2.649878e+2, 1.8450116e+2, -1184206.8, -1199703.5, 17714.195, -0.03435966, 0.0069398726, -1172620.4, -40731.53, 0.0, 9.998048, 9.995969 
2.6497445e+2, 1.94497e+2, -1084695.3, -1100915.3, 18611.27, -0.031350948, -0.006366157, -1072503.8, -38574.348, 0.0, 9.998146, 9.995971 
2.649612e+2, 2.0449239e+2, -998449.9, -1023461.1, 19127.13, -0.026543668, -0.0007657967, -988103.0, -52128.07, 0.0, 9.997985, 9.994644 
2.649481e+2, 2.1448727e+2, -907579.4, -929223.56, 18115.537, -0.019506458, 0.027014332, -897299.56, -59273.84, 0.0, 9.997509, 9.994614 
2.6493484e+2, 2.2448146e+2, -821866.4, -846591.44, 17056.559, -0.012557364, 0.02610984, -813163.4, -73080.64, 0.0, 9.997072, 9.993772 
2.6492143e+2, 2.3447487e+2, -729454.56, -751304.06, 18538.4, -0.0057415967, -0.011078587, -718861.4, -76714.96, 0.0, 9.996687, 9.993766 
2.649077e+2, 2.4446794e+2, -643823.56, -673959.8, 16468.607, -0.0039541456, -0.015792232, -636569.9, -92355.84, 0.0, 9.996469, 9.992455 
2.648935e+2, 2.5446072e+2, -546066.3, -576311.1, 14846.373, -0.008322141, 0.018525181, -539996.7, -93711.23, 0.0, 9.996457, 9.99243 
2.6487887e+2, 2.6445282e+2, -452711.16, -489578.13, 10622.215, -0.009612685, 0.02751485, -449869.66, -101506.836, 0.0, 9.99652, 9.991622 
2.6486367e+2, 2.7444425e+2, -352208.8, -390199.78, 10927.233, -0.0070227524, 0.0037518619, -349290.1, -98843.664, 0.0, 9.996678, 9.9916315 
2.6484826e+2, 2.8443506e+2, -266739.47, -313466.84, 9038.905, 0.0017652574, -0.009649684, -265051.9, -112516.23, 0.0, 9.996467, 9.990272 
2.648325e+2, 2.9442528e+2, -178369.02, -220187.45, 8899.053, 0.018112453, -0.011385108, -176554.05, -121923.32, 0.0, 9.995804, 9.990259 
2.6481608e+2, 3.044184e+2, -94365.52, -88236.21, 4549.079, 0.024757259, -0.020376923, -85815.77, -85815.77, 0.0, 9.995352, 9.996157 
2.647987e+2, 3.144144e+2, -96990.96, -89507.555, 4419.9272, 0.01939271, -0.0399162, -87458.23, -87458.23, 0.0, 9.995171, 9.996157 
2.7507722e+2, 1.2453093e+2, -1723864.0, -1717913.9, 2610.8718, -0.06834208, -0.024747912, -1716930.8, 2664.6514, 0.0, 9.999327, 10.000108 
2.750601e+2, 1.3453066e+2, -1629833.0, -1628879.3, 1412.5814, -0.08312725, -0.0013823024, -1627865.3, -6267.4033, 0.0, 9.999361, 9.99948 
2.7504376e+2, 1.4452936e+2, -1540566.5, -1545343.6, 8035.7026, -0.0905698, -0.03388779, -1534571.9, -10961.103, 0.0, 9.999216, 9.998566 
2.7502862e+2, 1.5452822e+2, -1448109.5, -1450200.4, 8943.48, -0.07139779, -0.0041008107, -1440150.5, -14528.001, 0.0, 9.998845, 9.998549 
2.750139e+2, 1.6452608e+2, -1367375.8, -1379630.5, 12739.536, -0.054855596, 0.009876938, -1359366.6, -31722.707, 0.0, 9.998498, 9.99685 
2.7499968e+2, 1.7452285e+2, -1274431.5, -1284621.9, 13629.712, -0.04118714, 0.0044550253, -1264975.8, -35299.785, 0.0, 9.998176, 9.9968 
2.7498585e+2, 1.8451922e+2, -1182986.0, -1197135.1, 18074.428, -0.03501158, -0.0042432696, -1170651.0, -38939.58, 0.0, 9.998048, 9.996142 
2.7497253e+2, 1.9451523e+2, -1083442.3, -1098331.9, 19045.23, -0.0379348, -0.018137235, -1070438.4, -36688.32, 0.0, 9.998148, 9.996144 
2.7495912e+2, 2.0451058e+2, -1000386.4, -1027462.4, 17488.945, -0.03363368, -0.010265219, -991807.8, -56011.98, 0.0, 9.997987, 9.9943695 
2.749456e+2, 2.1450526e+2, -909687.3, -933558.8, 16362.684, -0.020578993, 0.023073265, -901369.6, -63520.41, 0.0, 9.997509, 9.994317 
2.7493197e+2, 2.244995e+2, -819244.7, -841121.2, 15624.454, -0.0073167263, 0.026223961, -811110.2, -71204.516, 0.0, 9.997071, 9.9941435 
2.7491826e+2, 2.3449333e+2, -726630.6, -745348.44, 17120.807, 0.0061753746, -0.008505503, -716477.7, -74512.74, 0.0, 9.996683, 9.994173 
2.7490428e+2, 2.4448638e+2, -646345.44, -679039.0, 16390.92, 0.010002138, -0.020228066, -639543.2, -95510.586, 0.0, 9.996465, 9.992109 
2.7489004e+2, 2.544786e+2, -548840.7, -581964.6, 14827.426, 0.002076742, -0.004762437, -543173.1, -97063.734, 0.0, 9.996455, 9.9920435 
2.748754e+2, 2.6447052e+2, -451666.44, -487479.6, 11222.216, -0.00920567, -0.00021174981, -448440.47, -100251.984, 0.0, 9.996525, 9.991762 
2.748602e+2, 2.7446222e+2, -350790.03, -387602.84, 11567.21, -0.024508618, -0.010489679, -347457.16, -97187.836, 0.0, 9.9966955, 9.9918 
2.7484444e+2, 2.8445327e+2, -266073.44, -312553.78, 6670.639, -0.02715122, -0.0124864625, -265135.03, -112778.56, 0.0, 9.996487, 9.990322 
2.7482802e+2, 2.9444364e+2, -177789.38, -219394.58, 6365.1133, -0.014289135, -0.00560367, -176837.38, -122387.14, 0.0, 9.995822, 9.990303 
2.7481127e+2, 3.0443677e+2, -93309.016, -86429.01, 3757.6042, 0.008402527, -0.022152841, -84774.586, -84774.586, 0.0, 9.99537, 9.996271 
2.7479416e+2, 3.144326e+2, -95915.87, -87640.62, 3796.9368, 0.043369934, -0.06905916, -86162.49, -86162.49, 0.0, 9.995188, 9.996276 
2.8507584e+2, 1.24548495e+2, -1745735.9, -1727289.3, 7756.8354, -0.05984096, -0.03699727, -1724461.1, -5038.8027, 0.0, 9.997785, 10.000222 
2.8505903e+2, 1.3454832e+2, -1644357.8, -1634096.5, 5696.735, -0.07428957, -0.020413313, -1631560.5, -10136.799, 0.0, 9.998293, 9.999645 
2.8504276e+2, 1.4454712e+2, -1550110.9, -1551434.5, 9466.751, -0.08344883, -0.04625362, -1541282.9, -17846.773, 0.0, 9.998629, 9.998437 
2.8502747e+2, 1.5454604e+2, -1450534.6, -1452978.0, 8365.772, -0.06707532, 0.0040760646, -1443301.8, -17854.049, 0.0, 9.998749, 9.998408 
2.850125e+2, 1.6454394e+2, -1361965.0, -1374545.9, 11076.99, -0.054485485, 0.01919956, -1355517.0, -28048.2, 0.0, 9.998759, 9.997069 
2.8499803e+2, 1.7454071e+2, -1266000.6, -1277873.4, 12598.443, -0.046186622, -0.0081011215, -1258010.0, -28509.916, 0.0, 9.998633, 9.997037 
2.8498402e+2, 1.8453725e+2, -1176374.4, -1192455.3, 17703.834, -0.04003849, -0.020765718, -1164970.6, -33436.848, 0.0, 9.998434, 9.996274 
2.8497067e+2, 1.9453356e+2, -1082644.9, -1096542.0, 18303.744, -0.036599617, -0.01722177, -1070015.1, -36445.355, 0.0, 9.998141, 9.99627 
2.849571e+2, 2.0452887e+2, -1001734.8, -1030615.2, 16285.538, -0.03378617, -0.009742823, -994409.5, -58793.523, 0.0, 9.998002, 9.994147 
2.8494328e+2, 2.1452308e+2, -903518.94, -933244.7, 15567.816, -0.031597484, 0.0017698306, -896858.25, -59184.75, 0.0, 9.998045, 9.994079 
2.849293e+2, 2.2451727e+2, -805493.0, -832478.44, 13859.956, -0.025207598, 0.0050840983, -799642.7, -59912.344, 0.0, 9.997924, 9.994321 
2.8491515e+2, 2.3451158e+2, -711707.4, -735921.06, 13727.325, -0.013792826, -0.0029019995, -705510.8, -63725.223, 0.0, 9.997606, 9.99437 
2.849009e+2, 2.4450475e+2, -636961.56, -674866.4, 13329.462, -0.004838072, -0.0118045, -632743.56, -88891.484, 0.0, 9.997121, 9.992077 
2.8488648e+2, 2.5449663e+2, -549422.0, -582737.25, 14394.676, 0.0010205093, -0.022617498, -544064.1, -98132.766, 0.0, 9.996435, 9.992 
2.8487176e+2, 2.6448843e+2, -459086.88, -492081.2, 12870.807, -0.00080157653, -0.02683564, -454660.03, -106648.3, 0.0, 9.99606, 9.991672 
2.8485668e+2, 2.7448016e+2, -360650.7, -393418.53, 11302.843, -0.011908833, -0.024422858, -357130.16, -107037.76, 0.0, 9.996065, 9.991707 
2.8484088e+2, 2.844712e+2, -270609.75, -315206.6, 3983.1145, -0.01857949, -0.019605847, -270256.8, -118077.1, 0.0, 9.996195, 9.990283 
2.848241e+2, 2.9446155e+2, -168360.72, -215268.14, 3001.8718, -0.019685907, -0.01321536, -168169.39, -113895.414, 0.0, 9.996485, 9.990268 
2.8480724e+2, 3.0445465e+2, -74455.59, -77831.13, 28.493404, 0.002218703, -0.028669534, -74455.35, -74455.35, 0.0, 9.996682, 9.996231 
2.847902e+2, 3.1445044e+2, -73056.086, -77112.48, -1137.5278, 0.05258489, -0.07243772, -72758.87, -72758.87, 0.0, 9.996776, 9.996236 
2.9507363e+2, 1.2456671e+2, -1745974.3, -1727580.1, 9438.88, -0.05877529, -0.04093199, -1723598.5, -4355.646, 0.0, 9.997779, 10.000205 
2.9505754e+2, 1.345664e+2, -1644352.8, -1633748.6, 7600.089, -0.053324405, -0.04243324, -1629784.0, -8538.214, 0.0, 9.9982815, 9.999675 
2.9504162e+2, 1.4456503e+2, -1553042.8, -1557094.8, 9993.371, -0.059287954, -0.06640371, -1544872.1, -21612.479, 0.0, 9.998615, 9.998058 
2.950263e+2, 1.5456378e+2, -1453541.6, -1458873.4, 8832.523, -0.05815898, 0.0063365255, -1446981.4, -21708.115, 0.0, 9.998738, 9.998012 
2.9501122e+2, 1.6456161e+2, -1359992.0, -1370284.9, 10687.145, -0.058130234, 0.021522844, -1353276.6, -25981.729, 0.0, 9.998752, 9.997362 
2.9499653e+2, 1.7455846e+2, -1263756.8, -1273127.0, 12167.789, -0.059160355, -0.032007508, -1255403.3, -26078.133, 0.0, 9.99863, 9.99736 
2.9498237e+2, 1.845552e+2, -1175799.0, -1191221.9, 16687.246, -0.049487896, -0.042580526, -1165127.5, -33770.914, 0.0, 9.998433, 9.996357 
2.9496893e+2, 1.9455196e+2, -1082128.1, -1095461.6, 17248.604, -0.02726335, -0.0033594563, -1070302.8, -36913.848, 0.0, 9.998142, 9.996343 
2.9495516e+2, 2.0454718e+2, -1002946.8, -1033135.2, 16455.912, -0.027062232, 0.00085184455, -995710.94, -60275.266, 0.0, 9.998005, 9.993974 
2.949411e+2, 2.145407e+2, -904744.9, -935877.1, 15795.745, -0.052986413, -0.037426516, -898134.25, -60635.18, 0.0, 9.998052, 9.993895 
2.9492682e+2, 2.2453478e+2, -805595.7, -832841.56, 12769.619, -0.067013316, -0.037751514, -800546.5, -60989.176, 0.0, 9.9979315, 9.99429 
2.9491225e+2, 2.3452955e+2, -711755.8, -736204.1, 12552.366, -0.06680075, 0.0060008555, -706458.8, -64850.004, 0.0, 9.997616, 9.994346 
2.9489762e+2, 2.4452297e+2, -634795.1, -670521.2, 10783.789, -0.049553927, 0.0099638505, -631792.44, -88119.39, 0.0, 9.997128, 9.992369 
2.9488277e+2, 2.5451484e+2, -547228.3, -578173.8, 11792.307, -0.011931605, -0.03482467, -543246.94, -97495.086, 0.0, 9.996435, 9.99231 
2.9486802e+2, 2.645065e+2, -461564.6, -497077.72, 12740.333, 0.016109193, -0.052275456, -457466.8, -109633.71, 0.0, 9.996057, 9.991331 
2.948532e+2, 2.74498e+2, -363412.06, -398941.44, 11261.993, 0.032526683, -0.038007233, -360143.06, -110226.61, 0.0, 9.996058, 9.991332 
2.9483756e+2, 2.8448877e+2, -271638.38, -317272.13, 4980.9897, 0.029729351, -0.031319007, -271101.03, -119094.664, 0.0, 9.996195, 9.990141 
2.9482085e+2, 2.944789e+2, -169046.77, -217024.64, 4045.7798, 0.0037615483, -0.03521609, -168707.98, -114604.84, 0.0, 9.996501, 9.990138 
2.9480398e+2, 3.044719e+2, -75548.92, -80777.01, 291.44656, 0.0068125166, -0.040095143, -75532.73, -75532.73, 0.0, 9.996714, 9.996013 
2.9478696e+2, 3.1446788e+2, -74036.91, -80058.7, -944.5186, 0.045491878, -0.047666542, -73892.234, -73892.234, 0.0, 9.996817, 9.996013 
3.05072e+2, 1.2458467e+2, -1719098.3, -1714280.5, 6964.6646, -0.08913656, -0.046960995, -1709319.9, 9746.574, 0.0, 9.999592, 10.000225 
3.05056e+2, 1.3458456e+2, -1637096.0, -1629472.0, 5506.857, -0.05475334, -0.033939112, -1626586.5, -5519.1846, 0.0, 9.998739, 9.9997425 
3.0504015e+2, 1.4458309e+2, -1560403.3, -1563496.8, 9160.928, -0.046665993, -0.06120905, -1552659.5, -29577.393, 0.0, 9.998236, 9.997809 
3.0502483e+2, 1.5458131e+2, -1464323.3, -1467081.1, 8973.739, -0.04771679, -0.014899152, -1456623.1, -31522.797, 0.0, 9.998133, 9.997749 
3.0500975e+2, 1.6457902e+2, -1366992.6, -1371309.8, 11143.91, -0.05178202, -0.008756698, -1357800.1, -30677.227, 0.0, 9.998172, 9.997575 
3.0499503e+2, 1.7457621e+2, -1265868.5, -1271540.6, 11905.058, -0.059090037, -0.050872386, -1256466.4, -27316.652, 0.0, 9.998372, 9.997595 
3.0498064e+2, 1.8457305e+2, -1181723.1, -1197344.9, 12810.487, -0.052455384, -0.050429232, -1174530.0, -43349.57, 0.0, 9.998168, 9.99607 
3.0496672e+2, 1.945696e+2, -1093935.1, -1104678.6, 10365.664, -0.02944683, -0.00070848904, -1087632.0, -54416.844, 0.0, 9.997486, 9.996035 
3.049527e+2, 2.0456478e+2, -1014225.2, -1034664.4, 11584.877, -0.027594179, -0.0032230874, -1008996.5, -73734.12, 0.0, 9.997065, 9.994327 
3.049386e+2, 2.1455841e+2, -918187.2, -938100.8, 15290.964, -0.050878435, -0.06857856, -909897.06, -72573.28, 0.0, 9.996948, 9.994279 
3.0492425e+2, 2.2455241e+2, -823394.94, -846598.44, 12701.982, -0.066213444, -0.0720073, -817793.75, -78411.29, 0.0, 9.996938, 9.993834 
3.0490956e+2, 2.3454696e+2, -723504.0, -747476.7, 8876.526, -0.071970955, -0.0029278256, -720575.1, -79137.86, 0.0, 9.997053, 9.99385 
3.0489457e+2, 2.4454038e+2, -634612.1, -667189.7, 3866.5332, -0.060578816, 0.012427444, -634159.5, -90657.57, 0.0, 9.996999, 9.9926605 
3.0487922e+2, 2.5453255e+2, -540380.9, -571177.25, 4962.0327, -0.028583482, -0.037593156, -539601.06, -94023.38, 0.0, 9.996743, 9.992641 
3.0486408e+2, 2.6452422e+2, -457546.66, -496770.63, 7649.175, 0.0025487852, -0.060017038, -456107.75, -108449.5, 0.0, 9.996401, 9.991188 
3.048492e+2, 2.745155e+2, -366066.8, -402126.94, 7813.0405, 0.032414153, -0.05036711, -364446.78, -114703.16, 0.0, 9.995957, 9.991164 
3.0483368e+2, 2.8450608e+2, -278682.72, -323172.1, 3815.2678, 0.04077316, -0.046668068, -278357.9, -126522.21, 0.0, 9.995819, 9.989921 
3.048173e+2, 2.9449594e+2, -177112.34, -223440.19, 2252.399, 0.023063896, -0.05162132, -177003.1, -123068.27, 0.0, 9.996057, 9.989916 
3.0480084e+2, 3.0448875e+2, -79686.664, -86534.125, -1534.1857, 0.027882861, -0.052120306, -79358.64, -79358.64, 0.0, 9.996591, 9.99568 
3.0478424e+2, 3.1448448e+2, -66623.3, -80297.414, -3620.5994, 0.06036898, -0.048607595, -65723.81, -65723.81, 0.0, 9.997488, 9.995676 
3.15071e+2, 1.246024e+2, -1719202.8, -1713755.9, 3613.6113, -0.15024136, -0.054349806, -1711954.4, 6938.455, 0.0000000000000806617, 9.999561, 10.000274 
3.150545e+2, 1.3460286e+2, -1636669.4, -1628131.3, 2229.5464, -0.078090414, 0.0045761517, -1627584.0, -6695.7085, 0.00000000000005243424, 9.99872, 9.999842 
3.150384e+2, 1.4460129e+2, -1561514.4, -1565476.3, 8642.715, -0.045294143, -0.03130461, -1554628.5, -31725.016, 0.000000000000028332263, 9.998224, 9.997679 
3.150231e+2, 1.5459862e+2, -1465450.8, -1469149.3, 8582.674, -0.035686493, -0.059634645, -1458520.4, -33591.42, 0.000000000000012064798, 9.998123, 9.997612 
3.1500807e+2, 1.6459614e+2, -1366185.8, -1369464.8, 11882.974, -0.035484977, -0.07130112, -1355829.8, -28876.875, 0.000000000000003878589, 9.998166, 9.997702 
3.1499353e+2, 1.7459396e+2, -1264951.3, -1269522.6, 12699.546, -0.045993812, -0.064461835, -1254333.4, -25359.318, 0.0000000000000009180906, 9.998368, 9.997732 
3.149788e+2, 1.8459074e+2, -1186566.0, -1207198.6, 10409.321, -0.04907921, -0.044300646, -1182226.9, -51221.19, 0.00000000000000015841597, 9.998164, 9.995399 
3.1496406e+2, 1.9458644e+2, -1099004.1, -1115010.3, 7808.7324, -0.043485727, -0.009494646, -1095825.8, -62776.62, 0.000000000000000019869674, 9.997482, 9.995331 
3.1494972e+2, 2.0458157e+2, -1007960.2, -1021628.44, 11096.942, -0.03542252, -0.022052355, -1001761.75, -66665.195, 0.0000000000000000018107616, 9.997062, 9.995215 
3.1493583e+2, 2.1457613e+2, -911432.94, -924036.7, 14910.979, -0.024566399, -0.09136868, -901546.9, -64398.742, 0.0000000000000000001198895, 9.996944, 9.995237 
3.1492162e+2, 2.2457017e+2, -829909.6, -859925.4, 13158.068, -0.021559246, -0.097585134, -824958.25, -85751.92, 0.0000000000000000000057675156, 9.996935, 9.992926 
3.1490704e+2, 2.3456371e+2, -730570.56, -762005.2, 9332.128, -0.027658423, -0.03045545, -728008.9, -86737.17, 0.0, 9.997053, 9.992857 
3.148918e+2, 2.4455686e+2, -632588.8, -662992.75, 2945.2803, -0.036777962, -0.005004316, -632306.1, -88966.484, 0.0, 9.997, 9.992946 
3.1487572e+2, 2.545496e+2, -537878.7, -566088.5, 3961.706, -0.049364503, -0.030274225, -537332.9, -91922.914, 0.0, 9.996749, 9.992985 
3.1486005e+2, 2.6454154e+2, -457062.03, -495874.0, 5909.6904, -0.043299966, -0.04918204, -456182.16, -108693.99, 0.0, 9.996407, 9.991244 
3.148447e+2, 2.7453262e+2, -365751.63, -401454.6, 6036.338, -0.015134178, -0.06152079, -364758.7, -115183.79, 0.0, 9.995958, 9.991208 
3.1482923e+2, 2.84523e+2, -280948.78, -327781.2, 4478.666, 0.012093409, -0.06581066, -280524.34, -128855.586, 0.0, 9.995818, 9.989605 
3.148135e+2, 2.9451263e+2, -179509.36, -228302.6, 3018.7185, 0.03798183, -0.06195419, -179323.31, -125553.164, 0.0, 9.996055, 9.989583 
3.1479785e+2, 3.04505e+2, -82900.63, -93291.15, 1627.7285, 0.06673631, -0.06497485, -82651.61, -82651.61, 0.0, 9.996598, 9.995213 
3.1478214e+2, 3.145001e+2, -69599.44, -86999.36, -363.84567, 0.09915771, -0.07762336, -69591.836, -69591.836, 0.0, 9.997515, 9.995203 
3.2507044e+2, 1.2461955e+2, -1729481.4, -1722359.5, -2688.0303, -0.1321752, -0.057497505, -1721458.9, -2734.6987, 0.0000000000023454196, 9.999016, 9.999958 
3.2505333e+2, 1.3461985e+2, -1634622.6, -1630223.0, -6783.7456, -0.07863597, 0.013169526, -1625291.4, -4569.7695, 0.0000000000015241749, 9.99899, 9.999572 
3.2503685e+2, 1.446183e+2, -1548576.4, -1554158.3, 1227.1188, -0.055094376, -0.027910395, -1548318.5, -25582.373, 0.0000000000008233425, 9.998884, 9.99813 
3.2502142e+2, 1.5461583e+2, -1453953.1, -1458205.4, 5758.459, -0.04340962, -0.08484959, -1449940.9, -25182.133, 0.00000000000035051592, 9.998672, 9.998091 
3.2500634e+2, 1.646134e+2, -1364889.9, -1372391.1, 10164.603, -0.037700128, -0.101664126, -1357806.0, -31024.299, 0.00000000000011265747, 9.998406, 9.997387 
3.2499182e+2, 1.7461108e+2, -1271733.6, -1276728.1, 7270.191, -0.03876784, -0.07244612, -1266543.8, -37739.285, 0.000000000000026661206, 9.998075, 9.997388 
3.2497692e+2, 1.846076e+2, -1191143.1, -1212377.4, 3848.3364, -0.046007425, -0.051114645, -1190467.3, -59627.97, 0.000000000000004599458, 9.997979, 9.995139 
3.249617e+2, 1.9460279e+2, -1090997.8, -1114024.8, 4567.5615, -0.0603789, -0.040026687, -1090124.9, -57237.453, 0.0000000000000005767878, 9.998152, 9.995074 
3.249469e+2, 2.04598e+2, -994813.1, -1010918.4, 6600.108, -0.05679519, -0.05006348, -992453.94, -57519.8, 0.000000000000000052554126, 9.997768, 9.995604 
3.2493258e+2, 2.145933e+2, -911552.9, -919452.44, 6206.7993, -0.032262877, -0.08604411, -908145.7, -71167.055, 0.0000000000000000034789587, 9.996734, 9.995655 
3.2491815e+2, 2.2458747e+2, -844898.2, -870099.0, 6424.099, -0.016772155, -0.09090418, -843355.06, -104319.34, 0.00000000000000000016733108, 9.996037, 9.99267 
3.249036e+2, 2.3458035e+2, -751922.9, -775567.06, 8052.3994, -0.011882978, -0.060155135, -749441.0, -108333.92, 0.0, 9.995733, 9.992572 
3.2488844e+2, 2.4457322e+2, -648350.1, -671173.4, 4571.8687, -0.021834627, -0.04342977, -647468.4, -104290.84, 0.0, 9.995946, 9.992897 
3.248725e+2, 2.5456616e+2, -537827.44, -566502.0, 2736.932, -0.04927971, -0.04462171, -537568.56, -92322.234, 0.0, 9.99677, 9.992948 
3.2485682e+2, 2.6455823e+2, -442325.97, -488705.1, 1914.0664, -0.056637317, -0.050810717, -442247.1, -94923.38, 0.0, 9.997411, 9.991252 
3.2484132e+2, 2.745493e+2, -338240.94, -388081.13, 1715.6788, -0.040062424, -0.0640774, -338181.94, -88771.38, 0.0, 9.997836, 9.991219 
3.2482582e+2, 2.8453958e+2, -251809.06, -316002.25, 339.23987, -0.0113354605, -0.07102121, -251807.27, -100301.74, 0.0, 9.99791, 9.989404 
3.2481024e+2, 2.9452893e+2, -158766.19, -220684.34, -179.52841, 0.031738885, -0.071741626, -158765.67, -105156.48, 0.0, 9.997577, 9.989373 
3.247949e+2, 3.0452108e+2, -71906.83, -90076.49, 1967.8021, 0.07046452, -0.07827953, -71696.16, -71696.16, 0.0, 9.99744, 9.995029 
3.247797e+2, 3.1451595e+2, -70417.375, -89444.016, 2326.2676, 0.10392724, -0.09319619, -70137.086, -70137.086, 0.0, 9.997544, 9.995023 
3.350704e+2, 1.2463614e+2, -1734998.1, -1732705.4, -3037.6619, -0.0375922, -0.056642253, -1730605.0, -12044.568, 0.00000000005167391, 9.998977, 9.999273 
3.3505255e+2, 1.3463557e+2, -1639638.1, -1639898.9, -6913.095, -0.057263456, -0.007565757, -1632854.1, -12287.612, 0.00000000003357157, 9.998966, 9.998925 
3.3503553e+2, 1.4463417e+2, -1541544.4, -1539281.5, 452.62057, -0.0760921, -0.05024025, -1539194.4, -16614.672, 0.000000000018130754, 9.998867, 9.999147 
3.350198e+2, 1.5463296e+2, -1446388.3, -1442339.6, 4939.643, -0.070897095, -0.090453774, -1439025.6, -14436.182, 0.000000000007717037, 9.998659, 9.999174 
3.3500454e+2, 1.6463079e+2, -1370534.5, -1383765.0, 8942.31, -0.05838909, -0.10008817, -1366026.5, -39416.793, 0.0000000000024798213, 9.998399, 9.996616 
3.349899e+2, 1.7462757e+2, -1277833.8, -1289110.6, 6039.9517, -0.03737549, -0.07490513, -1275209.4, -46567.977, 0.00000000000058676854, 9.998069, 9.996546 
3.3497494e+2, 1.8462355e+2, -1190120.0, -1210201.0, 4483.7227, -0.04328345, -0.07094045, -1189164.4, -58482.945, 0.00000000000010121049, 9.997978, 9.995286 
3.3495966e+2, 1.9461861e+2, -1089607.9, -1111216.1, 5279.6543, -0.080312744, -0.092685655, -1088386.9, -55656.523, 0.000000000000012690283, 9.9981575, 9.995262 
3.349443e+2, 2.04614e+2, -995727.5, -1012863.5, 2895.5688, -0.092281766, -0.08726904, -995251.44, -60475.82, 0.0000000000000011561161, 9.997771, 9.995467 
3.349289e+2, 2.1460986e+2, -912633.2, -921636.0, 2297.0627, -0.07507569, -0.051580783, -912081.0, -75265.08, 0.000000000000000076521916, 9.996733, 9.995504 
3.3491385e+2, 2.246042e+2, -842035.3, -864041.5, 5163.103, -0.053114835, -0.050963495, -840884.2, -102012.76, 0.0000000000000000036800285, 9.996032, 9.993083 
3.3489916e+2, 2.3459682e+2, -748951.9, -769161.06, 6931.515, -0.025666941, -0.09223049, -746802.94, -105858.984, 0.0, 9.995724, 9.993012 
3.348844e+2, 2.4458945e+2, -651354.8, -677180.06, 7586.613, -0.01599878, -0.10377436, -649291.06, -106274.71, 0.0, 9.995941, 9.992489 
3.348695e+2, 2.5458217e+2, -540917.1, -572962.6, 5881.168, -0.027181853, -0.08172661, -539871.9, -94784.14, 0.0, 9.996778, 9.992502 
3.3485442e+2, 2.645742e+2, -442457.72, -489355.25, 3563.3962, -0.035739888, -0.065463014, -442188.53, -95022.44, 0.0, 9.997431, 9.991197 
3.3483917e+2, 2.7456546e+2, -338010.84, -388345.34, 3269.5933, -0.04107744, -0.05735025, -337799.34, -88547.555, 0.0, 9.997871, 9.991183 
3.3482358e+2, 2.845557e+2, -251845.08, -316976.72, -960.697, -0.029393213, -0.06137547, -251830.92, -100483.68, 0.0, 9.997951, 9.989316 
3.3480754e+2, 2.9454476e+2, -158892.33, -221712.47, -1606.3958, 0.0024812697, -0.08098666, -158851.28, -105398.0, 0.0, 9.997611, 9.9892845 
3.34792e+2, 3.045369e+2, -70733.414, -88208.28, 2099.8103, 0.036005527, -0.09194565, -70484.64, -70484.64, 0.0, 9.997467, 9.995144 
3.3477694e+2, 3.14532e+2, -69361.53, -87491.26, 2565.8328, 0.071318105, -0.09406927, -69005.4, -69005.4, 0.0, 9.997559, 9.995149 
3.4506863e+2, 1.2465232e+2, -1765667.9, -1748521.0, -2805.549, -0.0074763615, -0.07163781, -1748073.6, -29673.768, 0.00000000081250584, 9.996931, 9.999201 
3.450512e+2, 1.3465145e+2, -1652678.5, -1646625.6, -1950.5859, -0.04345749, -0.04896513, -1646051.5, -25642.543, 0.00000000052773436, 9.9980955, 9.998894 
3.4503436e+2, 1.4465007e+2, -1543377.4, -1540170.4, 1674.2458, -0.07304735, -0.087600574, -1539455.6, -17033.684, 0.00000000028494548, 9.99874, 9.999149 
3.4501854e+2, 1.546492e+2, -1444581.6, -1441405.8, -2076.9714, -0.07160773, -0.094438694, -1440379.3, -15950.461, 0.0000000001212577, 9.998778, 9.999184 
3.4500304e+2, 1.64647e+2, -1368915.9, -1385692.3, -1344.0575, -0.059686385, -0.0954657, -1368808.9, -42359.414, 0.00000000003895854, 9.998624, 9.99638 
3.4498808e+2, 1.7464337e+2, -1277009.9, -1291509.0, 138.67673, -0.03558472, -0.090115204, -1277008.5, -48523.074, 0.000000000009216846, 9.998244, 9.996301 
3.44973e+2, 1.8463914e+2, -1188835.3, -1208343.3, 2234.1113, -0.03716556, -0.0975322, -1188582.8, -58055.65, 0.0000000000015895714, 9.998012, 9.9953985 
3.4495783e+2, 1.946343e+2, -1091790.5, -1110872.5, 2587.8416, -0.06853101, -0.12102398, -1091445.8, -58871.047, 0.00000000000019928297, 9.997946, 9.99539 
3.4494227e+2, 2.046297e+2, -994304.9, -1015776.56, -2418.8525, -0.08693907, -0.107274905, -994035.75, -59415.492, 0.0000000000000181529, 9.998022, 9.99515 
3.4492624e+2, 2.1462543e+2, -892647.56, -915745.9, -4536.88, -0.09005323, -0.05146252, -891788.4, -55125.594, 0.0000000000000012013685, 9.998258, 9.99517 
3.4491065e+2, 2.246199e+2, -807820.2, -841938.56, -2213.2441, -0.07862001, -0.04518533, -807677.25, -68959.91, 0.00000000000000005776772, 9.998126, 9.993579 
3.4489557e+2, 2.3461291e+2, -718091.8, -748299.0, 218.22467, -0.050429977, -0.09786472, -718090.25, -77305.06, 0.0, 9.997572, 9.993543 
3.4488073e+2, 2.4460566e+2, -637934.6, -672410.44, 3930.0498, -0.026550096, -0.11739377, -637492.3, -94636.266, 0.0, 9.99693, 9.992338 
3.448662e+2, 2.5459817e+2, -550804.4, -579790.6, 4330.324, -0.007846546, -0.09900987, -550171.25, -105241.62, 0.0, 9.996188, 9.992322 
3.448514e+2, 2.6459005e+2, -467512.53, -503295.22, 3293.193, -0.0007789653, -0.08032741, -467211.97, -120202.38, 0.0, 9.995794, 9.991036 
3.4483635e+2, 2.7458125e+2, -369210.06, -405211.9, 2092.6206, -0.007380509, -0.06280222, -369088.84, -119992.65, 0.0, 9.995811, 9.991025 
3.44821e+2, 2.8457144e+2, -273969.16, -326869.66, -1271.4999, -0.0049160603, -0.0670063, -273938.63, -122746.41, 0.0, 9.996401, 9.989389 
3.4480524e+2, 2.945605e+2, -157543.58, -220145.11, -562.51776, 0.008466371, -0.09810339, -157538.52, -104240.09, 0.0, 9.9976635, 9.989368 
3.4478992e+2, 3.045526e+2, -55231.766, -82285.74, 2431.8237, 0.025926422, -0.105270185, -55014.914, -55014.914, 0.0, 9.998595, 9.995008 
3.4477502e+2, 3.145478e+2, -47278.133, -78473.78, 786.93585, 0.04802021, -0.085491166, -47258.297, -47258.297, 0.0, 9.999142, 9.9950075 
3.5506526e+2, 1.2466813e+2, -1762171.9, -1741042.1, 1232.1031, -0.03981622, -0.10153806, -1740970.5, -22728.299, 0.000000009469599, 9.9969225, 9.999712 
3.5504937e+2, 1.3466752e+2, -1648888.3, -1638424.4, 2354.516, -0.03688576, -0.11071248, -1637919.0, -17670.59, 0.0000000061492664, 9.998082, 9.999456 
3.5503337e+2, 1.4466602e+2, -1550924.4, -1555238.6, 1900.263, -0.046352405, -0.1398595, -1550206.8, -27943.922, 0.0000000033196064, 9.998725, 9.998132 
3.5501754e+2, 1.5466456e+2, -1452426.9, -1457214.5, -1976.8384, -0.045762226, -0.09664436, -1451716.1, -27439.441, 0.0000000014124153, 9.998767, 9.998113 
3.5500187e+2, 1.6466206e+2, -1366968.4, -1381453.5, -2722.217, -0.041746676, -0.08764907, -1366473.6, -40172.62, 0.0000000004537274, 9.998616, 9.99667 
3.5498634e+2, 1.746584e+2, -1274676.0, -1286519.5, -1282.3843, -0.03367915, -0.11816117, -1274538.6, -46201.984, 0.00000000010733056, 9.998239, 9.996641 
3.549711e+2, 1.8465434e+2, -1188428.1, -1207385.5, 1988.8407, -0.02780059, -0.13082007, -1188221.6, -57845.098, 0.00000000001850869, 9.998009, 9.995464 
3.549562e+2, 1.9464986e+2, -1091396.6, -1110008.6, 2382.381, -0.024649682, -0.12443694, -1091096.5, -58675.84, 0.0000000000023202033, 9.997947, 9.995447 
3.5494077e+2, 2.0464505e+2, -997917.7, -1023289.1, -1493.4017, -0.04013769, -0.10985363, -997830.06, -63361.56, 0.00000000000021133044, 9.998028, 9.994634 
3.5492465e+2, 2.146399e+2, -896253.94, -923504.56, -3580.1492, -0.076654896, -0.08683257, -895791.44, -59271.45, 0.000000000000013984623, 9.998275, 9.994631 
3.5490867e+2, 2.2463441e+2, -803452.7, -833388.0, -4179.989, -0.09326074, -0.07435971, -802880.0, -64305.63, 0.0000000000000006723836, 9.998148, 9.99415 
3.548928e+2, 2.3462857e+2, -713414.94, -739101.94, -1863.9908, -0.08696676, -0.07561995, -713280.4, -72648.93, 0.0, 9.997595, 9.994159 
3.548774e+2, 2.4462183e+2, -636974.6, -670701.75, 1079.8809, -0.054318693, -0.08216294, -636940.06, -94242.74, 0.0, 9.996944, 9.992446 
3.548625e+2, 2.546141e+2, -550268.06, -578505.5, 1444.9121, 0.0086192135, -0.09551793, -550194.3, -105421.55, 0.0, 9.9961815, 9.992412 
3.548477e+2, 2.646057e+2, -469836.9, -507583.78, 3172.4905, 0.049060464, -0.095475666, -469572.13, -122716.94, 0.0, 9.995775, 9.990751 
3.5483286e+2, 2.745966e+2, -371751.22, -409748.9, 2048.393, 0.06324123, -0.081275225, -371641.13, -122696.195, 0.0, 9.995783, 9.990727 
3.548181e+2, 2.8458667e+2, -272618.53, -323547.5, 3310.9165, 0.06502288, -0.088942446, -272404.2, -121362.47, 0.0, 9.996383, 9.989625 
3.5480335e+2, 2.9457596e+2, -155575.9, -216248.42, 4226.627, 0.052405786, -0.12368382, -155282.88, -102137.04, 0.0, 9.997676, 9.989628 
3.547887e+2, 3.0456814e+2, -57669.797, -88109.59, 4526.39, 0.042233355, -0.118199624, -57010.98, -57010.98, 0.0, 9.998632, 9.99459 
3.5477412e+2, 3.1456324e+2, -49686.145, -84594.07, 2698.3433, 0.034808364, -0.06647774, -49478.797, -49478.797, 0.0, 9.999194, 9.994561 
3.650629e+2, 1.2468349e+2, -1728027.0, -1724289.4, -1052.2244, -0.08197371, -0.12900712, -1724013.5, -5924.045, 0.00000008268434, 9.999232, 9.999725 
3.6504772e+2, 1.3468303e+2, -1639302.4, -1633175.9, -3583.8408, -0.03893939, -0.12812711, -1631524.6, -11430.515, 0.00000005368276, 9.998705, 9.999515 
3.6503214e+2, 1.4468138e+2, -1556666.5, -1563016.9, -4548.81, -0.031586185, -0.15404883, -1554294.4, -32184.1, 0.000000028975498, 9.9985485, 9.997694 
3.650164e+2, 1.5467939e+2, -1455167.4, -1463715.5, -3920.8552, -0.040236987, -0.12084628, -1453641.4, -29511.426, 0.000000012326782, 9.998803, 9.997656 
3.650006e+2, 1.6467668e+2, -1361416.4, -1378292.4, -4352.2886, -0.043557566, -0.10948254, -1360360.0, -34203.414, 0.000000003959453, 9.998971, 9.996714 
3.649849e+2, 1.7467324e+2, -1262474.3, -1279904.5, -5126.1313, -0.04070172, -0.12404597, -1261078.5, -32888.027, 0.0000000009365381, 9.999037, 9.996706 
3.6496937e+2, 1.8466929e+2, -1180894.9, -1203970.9, -4948.342, -0.02880336, -0.12975015, -1179878.6, -49649.14, 0.0000000001614897, 9.998529, 9.995446 
3.6495408e+2, 1.9466475e+2, -1100020.8, -1114448.4, -5244.7603, -0.0067720762, -0.12624034, -1098315.6, -66041.87, 0.000000000020242613, 9.997367, 9.995429 
3.649384e+2, 2.0465988e+2, -1017012.4, -1031836.3, -4868.389, -0.01039623, -0.11947194, -1015556.56, -81234.49, 0.0000000000018436379, 9.996694, 9.9947 
3.649224e+2, 2.1465468e+2, -920686.8, -934608.1, -2295.6719, -0.043237187, -0.11035139, -920318.0, -83943.766, 0.00000000000012199398, 9.996574, 9.9946995 
3.6490637e+2, 2.2464922e+2, -824349.6, -843874.0, -3142.591, -0.06569233, -0.09692716, -823856.3, -85427.836, 0.0000000000000058651187, 9.996736, 9.99412 
3.648903e+2, 2.3464352e+2, -719203.25, -742280.06, -5803.3784, -0.07604525, -0.079743035, -717826.0, -77341.64, 0.0, 9.997213, 9.994128 
3.648746e+2, 2.44637e+2, -626784.75, -662732.7, -5905.5723, -0.05583864, -0.076439664, -625839.44, -83291.09, 0.0, 9.997506, 9.992722 
3.648593e+2, 2.5462955e+2, -527643.94, -564383.7, -4085.9744, -0.0004429982, -0.09028837, -527195.0, -82574.03, 0.0, 9.997589, 9.992699 
3.648442e+2, 2.646212e+2, -444312.97, -496200.7, 178.64128, 0.03706495, -0.09784086, -444312.38, -97609.45, 0.0, 9.997559, 9.990669 
3.6482933e+2, 2.7461183e+2, -348741.44, -399729.47, 648.7193, 0.05363159, -0.09915463, -348733.2, -99938.39, 0.0, 9.997402, 9.990633 
3.648149e+2, 2.846019e+2, -259167.17, -316305.28, 4564.664, 0.06362246, -0.105888054, -258804.8, -107913.125, 0.0, 9.99727, 9.989695 
3.648009e+2, 2.9459146e+2, -162365.77, -218669.31, 4187.8535, 0.06573358, -0.12066226, -162055.97, -109062.52, 0.0, 9.997172, 9.989708 
3.6478677e+2, 3.045836e+2, -81010.53, -101737.664, 3383.913, 0.060902145, -0.11079705, -80472.06, -80472.06, 0.0, 9.99713, 9.994382 
3.647724e+2, 3.1457835e+2, -80880.32, -102120.625, 3249.2385, 0.047875125, -0.072868586, -80394.38, -80394.38, 0.0, 9.997158, 9.994343 
3.750616e+2, 1.2469847e+2, -1732087.3, -1731663.5, -3326.6516, -0.13383618, -0.15310143, -1728542.0, -10600.861, 0.0000005532481, 9.999193, 9.999242 
3.750463e+2, 1.3469806e+2, -1642890.4, -1639988.5, -5691.0947, -0.04956396, -0.10172052, -1635566.3, -15620.765, 0.00000035914545, 9.998684, 9.99906 
3.7503073e+2, 1.446962e+2, -1555998.8, -1561265.4, -3740.293, -0.028726054, -0.13069399, -1554057.8, -32094.057, 0.00000019382824, 9.998535, 9.997818 
3.7501505e+2, 1.5469365e+2, -1454341.0, -1461680.0, -3012.862, -0.055115614, -0.16711712, -1453262.6, -29274.063, 0.00000008245099, 9.998792, 9.997798 
3.749994e+2, 1.6469087e+2, -1363118.6, -1381532.1, -4098.4473, -0.06513544, -0.1608027, -1362247.6, -36231.34, 0.000000026481976, 9.998963, 9.996496 
3.7498376e+2, 1.7468789e+2, -1264154.6, -1283214.9, -4865.9326, -0.056692265, -0.10747751, -1262984.3, -34937.62, 0.0000000062635124, 9.999034, 9.99648 
3.7496778e+2, 1.8468393e+2, -1181754.8, -1205639.0, -9179.384, -0.04055373, -0.09399384, -1178634.5, -48548.637, 0.0000000010799891, 9.998526, 9.995332 
3.7495133e+2, 1.9467893e+2, -1100873.5, -1116074.0, -9624.021, -0.01559907, -0.12636718, -1096210.6, -64076.18, 0.00000000013537126, 9.997363, 9.995317 
3.7493524e+2, 2.0467417e+2, -1012432.75, -1022210.0, -5421.674, 0.0019593954, -0.13606386, -1010021.1, -75839.85, 0.000000000012328863, 9.996689, 9.9953575 
3.7491953e+2, 2.1466969e+2, -915974.3, -924606.44, -2675.2102, 0.0109185325, -0.12155814, -915212.44, -78986.625, 0.0000000000008157841, 9.996565, 9.995384 
3.749038e+2, 2.2466421e+2, -829216.8, -853696.94, -1295.764, 0.0056277444, -0.11278401, -829148.4, -90868.29, 0.00000000000003921943, 9.996729, 9.993451 
3.7488812e+2, 2.3465766e+2, -724251.9, -752717.9, -3941.5774, -0.015659831, -0.11144072, -723716.2, -83371.26, 0.000000000000000000006929764, 9.997217, 9.993413 
3.748724e+2, 2.4465103e+2, -623501.44, -656180.1, -5525.6567, -0.030224666, -0.10144703, -622592.4, -80182.234, 0.0000000000000000000002423796, 9.9975195, 9.993161 
3.7485656e+2, 2.5464442e+2, -523876.7, -557098.06, -3764.8928, -0.036970854, -0.08305127, -523455.34, -78980.09, 0.0, 9.997614, 9.993183 
3.7484103e+2, 2.646364e+2, -442995.72, -494166.6, -429.84335, -0.041010246, -0.08663755, -442992.1, -96438.33, 0.0, 9.997592, 9.990791 
3.7482584e+2, 2.7462682e+2, -347494.1, -397856.25, -6.092455, -0.04209759, -0.11642451, -347494.1, -98847.2, 0.0, 9.997436, 9.990743 
3.7481144e+2, 2.8461698e+2, -259698.61, -317893.9, 3994.4175, -0.014554461, -0.11734653, -259425.72, -108682.445, 0.0, 9.997293, 9.989573 
3.7479788e+2, 2.9460686e+2, -163298.19, -220521.75, 3572.2966, 0.04593679, -0.08656248, -163076.03, -110233.54, 0.0, 9.997171, 9.98958 
3.747841e+2, 3.045989e+2, -81272.74, -101759.42, 3230.2483, 0.0820375, -0.08144981, -80775.484, -80775.484, 0.0, 9.997112, 9.994388 
3.7476996e+2, 3.1459302e+2, -81254.19, -102103.03, 3131.181, 0.08947775, -0.107298054, -80794.086, -80794.086, 0.0, 9.997128, 9.994356 
3.850604e+2, 1.2471232e+2, -1749285.9, -1741488.0, -11499.819, -0.1192459, -0.16260204, -1733244.1, -15440.362, 0.0000029192024, 9.998086, 9.999121 
3.8504526e+2, 1.3471168e+2, -1636414.1, -1637900.3, -11113.879, -0.049984258, -0.12515332, -1626018.5, -6208.1206, 0.0000018948215, 9.9991665, 9.998971 
3.850298e+2, 1.447099e+2, -1537461.4, -1550183.5, -8356.739, -0.032210033, -0.1516655, -1533320.1, -11492.079, 0.0000010225369, 9.999703, 9.998005 
3.8501433e+2, 1.5470767e+2, -1440657.6, -1452849.3, -7316.229, -0.04906897, -0.17554316, -1437230.5, -13380.459, 0.0000004349407, 9.999625, 9.997995 
3.8499862e+2, 1.647049e+2, -1359858.8, -1383441.4, -9740.9375, -0.053152177, -0.16090836, -1356355.6, -30477.72, 0.00000013969013, 9.999332, 9.996189 
3.8498282e+2, 1.7470166e+2, -1269855.9, -1289623.4, -11356.495, -0.042719178, -0.10336042, -1264684.5, -36773.074, 0.000000033038678, 9.998799, 9.996161 
3.849664e+2, 1.8469773e+2, -1175820.8, -1197311.9, -14504.522, -0.039004233, -0.09361386, -1168515.0, -38564.68, 0.0000000056966374, 9.998692, 9.995821 
3.8494927e+2, 1.9469313e+2, -1072341.1, -1096504.5, -10309.753, -0.042623628, -0.13903184, -1068540.3, -36545.313, 0.0000000007140435, 9.999056, 9.99583 
3.8493264e+2, 2.0468864e+2, -981307.9, -1007244.06, -6597.4707, -0.029520748, -0.14602084, -979726.1, -45687.17, 0.00000000006503118, 9.998813, 9.995348 
3.8491666e+2, 2.1468435e+2, -896674.6, -915540.25, -9300.56, 0.0021777402, -0.11092428, -892860.6, -56778.7, 0.000000000004303039, 9.99789, 9.995362 
3.8490084e+2, 2.246789e+2, -822656.44, -848991.56, -6064.662, 0.016315157, -0.1045867, -821326.94, -83191.14, 0.00000000000020687176, 9.997108, 9.993592 
3.8488525e+2, 2.346722e+2, -733925.5, -755828.5, -2127.7014, 0.010448462, -0.1317727, -733720.75, -93519.27, 0.00000000000000000020104626, 9.996487, 9.993555 
3.8486966e+2, 2.4466553e+2, -639015.7, -665202.2, -677.3755, -0.0043076905, -0.12762353, -638998.2, -96731.086, 0.000000000000000000007029948, 9.996523, 9.993028 
3.848541e+2, 2.5465897e+2, -529367.5, -561330.2, -3640.8154, -0.02913542, -0.089117214, -528958.0, -84626.01, 0.0, 9.997304, 9.993046 
3.848388e+2, 2.6465106e+2, -435830.22, -488242.44, -3280.954, -0.0447851, -0.085701615, -435625.63, -89216.086, 0.0, 9.997973, 9.9910145 
3.848237e+2, 2.7464166e+2, -330023.0, -386783.44, -1917.0618, -0.049941726, -0.12369259, -329958.34, -81457.45, 0.0, 9.998516, 9.990982 
3.8480926e+2, 2.8463182e+2, -241196.25, -312091.2, 669.5746, -0.027513286, -0.1237018, -241189.92, -90592.62, 0.0, 9.9986925, 9.989297 
3.847955e+2, 2.9462153e+2, -146729.84, -215843.64, -1084.4437, 0.026885353, -0.08120935, -146712.83, -94014.19, 0.0, 9.998446, 9.989288 
3.8478145e+2, 3.0461368e+2, -63398.05, -86695.914, -249.94986, 0.06140426, -0.07861436, -63395.37, -63395.37, 0.0, 9.998056, 9.994968 
3.847671e+2, 3.146082e+2, -71283.7, -90427.39, 4295.147, 0.07236434, -0.12403277, -70364.195, -70364.195, 0.0, 9.997512, 9.994973 
3.9505926e+2, 1.2472514e+2, -1748086.4, -1738477.5, -7750.495, -0.040115725, -0.15716429, -1734163.1, -16486.291, 0.000012531762, 9.998067, 9.999332 
3.950445e+2, 1.3472396e+2, -1634929.3, -1634346.9, -7131.0986, -0.040837526, -0.19779961, -1627501.0, -7813.072, 0.0000081336, 9.99915, 9.999219 
3.9502943e+2, 1.447225e+2, -1536063.3, -1546818.1, -8613.677, -0.04215042, -0.21621561, -1531286.3, -9583.53, 0.0000043890395, 9.999685, 9.998241 
3.950142e+2, 1.5472145e+2, -1439147.3, -1449362.8, -7680.132, -0.022397384, -0.14588048, -1435031.5, -11317.037, 0.0000018668253, 9.999612, 9.998238 
3.949984e+2, 1.6471884e+2, -1362932.5, -1389521.0, -11749.645, -0.007882245, -0.10979502, -1358484.4, -32742.941, 0.0000005995586, 9.999326, 9.995778 
3.9498207e+2, 1.7471457e+2, -1273044.3, -1295973.1, -13390.799, 0.0010539872, -0.1118787, -1266880.8, -39095.957, 0.00000014180438, 9.998794, 9.99573 
3.9496523e+2, 1.847107e+2, -1168073.1, -1181260.4, -13168.806, -0.024627281, -0.12884133, -1159939.5, -30116.42, 0.000000024450705, 9.998691, 9.996913 
3.949479e+2, 1.947073e+2, -1064103.6, -1079698.9, -8842.038, -0.08886513, -0.16438696, -1060112.1, -28256.688, 0.0000000030648393, 9.999067, 9.996967 
3.9493072e+2, 2.0470327e+2, -986116.0, -1017476.25, -9891.712, -0.106525674, -0.1491025, -983256.6, -49361.313, 0.00000000027913746, 9.998829, 9.99464 
3.9491382e+2, 2.1469861e+2, -901896.3, -926590.4, -12760.286, -0.07203154, -0.07745324, -896487.4, -60544.367, 0.00000000001847093, 9.997905, 9.9946 
3.9489743e+2, 2.2469324e+2, -815657.4, -834677.0, -8453.267, -0.03623683, -0.07121192, -812443.44, -74447.44, 0.0000000000008880364, 9.997116, 9.994562 
3.9488164e+2, 2.3468713e+2, -726712.06, -740768.56, -4424.292, 0.0007070179, -0.14031285, -725435.44, -85381.07, 0.000000000000000004402075, 9.996482, 9.994583 
3.9486647e+2, 2.4468043e+2, -644452.06, -676221.3, 2238.5498, 0.022081517, -0.15512645, -644295.1, -102175.375, 0.00000000000000000015389045, 9.996518, 9.992276 
3.9485195e+2, 2.5467315e+2, -535066.94, -573111.4, -645.98364, 0.025819462, -0.10926055, -535056.0, -90863.82, 0.0, 9.997308, 9.992238 
3.948375e+2, 2.6466507e+2, -433390.56, -483430.84, -1223.2762, 0.030479413, -0.09556676, -433360.7, -87089.2, 0.0, 9.997988, 9.991336 
3.9482313e+2, 2.7465615e+2, -327087.72, -381263.84, 91.15135, 0.036213085, -0.12015528, -327087.56, -78729.6, 0.0, 9.998545, 9.991344 
3.9480856e+2, 2.8464624e+2, -243915.31, -318486.84, -286.3053, 0.029326167, -0.12470526, -243914.22, -93459.01, 0.0, 9.998729, 9.988841 
3.9479378e+2, 2.9463524e+2, -149608.1, -222618.8, -2213.66, 0.008264016, -0.1072399, -149541.03, -96977.22, 0.0, 9.998485, 9.988805 
3.947789e+2, 3.046277e+2, -54507.85, -68988.94, -2511.5205, -0.0049500247, -0.104525335, -54084.637, -54084.637, 0.0, 9.998092, 9.996162 
3.9476383e+2, 3.1462377e+2, -62023.547, -71763.66, 2087.3086, -0.009472736, -0.120989814, -61595.082, -61595.082, 0.0, 9.9975395, 9.996238 
4.0505782e+2, 1.2473786e+2, -1728306.3, -1723624.8, -3346.003, -0.045692917, -0.17635056, -1721882.0, -4330.771, 0.00004485904, 9.99918, 9.999801 
4.0504402e+2, 1.3473712e+2, -1622686.4, -1622860.6, -782.10815, -0.034428276, -0.22298987, -1621986.6, -2428.7083, 0.00002911354, 9.999739, 9.999714 
4.0502924e+2, 1.4473583e+2, -1539981.3, -1553651.3, -8539.771, -0.025068088, -0.22909205, -1535878.0, -14306.737, 0.000015709626, 9.999629, 9.997806 
4.0501365e+2, 1.5473457e+2, -1454709.0, -1462068.8, -13036.551, 0.0032263491, -0.13416815, -1444842.9, -21257.176, 0.000006681798, 9.998772, 9.997786 
4.049975e+2, 1.647319e+2, -1373227.8, -1389342.9, -15619.325, 0.012802928, -0.10251267, -1363710.1, -38096.867, 0.0000021459712, 9.998397, 9.9962435 
4.0498075e+2, 1.7472775e+2, -1273036.4, -1290504.8, -10355.425, 0.0018451089, -0.14167726, -1268223.5, -40568.79, 0.00000050756734, 9.998553, 9.996219 
4.049638e+2, 1.8472433e+2, -1167838.9, -1176594.8, -8282.828, -0.027518118, -0.15742715, -1162848.3, -33159.543, 0.00000008752133, 9.998507, 9.997319 
4.0494663e+2, 1.9472179e+2, -1073377.3, -1079645.9, -9514.613, -0.07779482, -0.14904171, -1066494.0, -34780.395, 0.000000010971236, 9.998236, 9.997376 
4.049293e+2, 2.0471798e+2, -998205.44, -1025746.3, -13476.961, -0.09417823, -0.124349624, -992707.94, -58956.07, 0.0000000009993062, 9.998105, 9.99443 
4.0491182e+2, 2.1471278e+2, -900274.75, -928410.9, -12423.811, -0.072256, -0.08161077, -895574.2, -59769.74, 0.00000000006613187, 9.998123, 9.99437 
4.0489492e+2, 2.247074e+2, -798582.2, -822607.7, -7982.9604, -0.046212547, -0.08038402, -796171.56, -58314.293, 0.0000000000031798247, 9.998115, 9.994903 
4.0487874e+2, 2.3470187e+2, -700826.06, -724192.6, -9058.556, -0.0157752, -0.1280575, -697725.7, -57815.836, 0.0000000000000000688154, 9.998072, 9.994947 
4.0486345e+2, 2.4469522e+2, -629413.0, -672299.8, -1981.1332, 0.011985637, -0.14402868, -629321.7, -87347.086, 0.0000000000000000024051838, 9.997686, 9.991982 
4.0484917e+2, 2.5468734e+2, -542954.6, -580511.4, -1070.8687, 0.03650194, -0.12454122, -542924.06, -98871.77, 0.0, 9.996921, 9.991921 
4.0483493e+2, 2.6467907e+2, -457779.13, -494519.16, -602.29736, 0.057429075, -0.11545179, -457769.25, -111636.01, 0.0, 9.996286, 9.991401 
4.0482068e+2, 2.7467048e+2, -366565.13, -399443.66, -1442.811, 0.07426779, -0.12001644, -366501.94, -118284.84, 0.0, 9.9958, 9.991427 
4.048062e+2, 2.846606e+2, -285572.6, -336948.34, -296.2462, 0.061908446, -0.12887788, -285570.88, -135257.31, 0.0, 9.995801, 9.988993 
4.047913e+2, 2.9464942e+2, -179537.44, -235360.0, 2704.98, 0.01630832, -0.1436197, -179406.66, -126983.164, 0.0, 9.996357, 9.988959 
4.0477628e+2, 3.0464214e+2, -70531.55, -74048.06, 640.7779, -0.017380467, -0.1355939, -70418.43, -70418.43, 0.0, 9.996874, 9.996404 
4.0476096e+2, 3.1463894e+2, -63001.69, -69477.9, -2654.846, -0.037464418, -0.10357279, -62052.49, -62052.49, 0.0, 9.997349, 9.99649 
4.150561e+2, 1.2475058e+2, -1723554.4, -1713328.4, -1519.4115, -0.13365354, -0.21706702, -1713107.4, 4318.719, 0.0001357749, 9.999161, 10.000507 
4.150438e+2, 1.347512e+2, -1617781.8, -1612245.1, 1153.9789, -0.030669864, -0.20108886, -1612014.3, 7405.479, 0.00008811505, 9.999721, 10.000442 
4.150293e+2, 1.447499e+2, -1548260.4, -1570165.5, -11774.889, 0.018440085, -0.19096763, -1543131.6, -21698.215, 0.000047546542, 9.99961, 9.99669 
4.1501266e+2, 1.5474704e+2, -1463219.6, -1479184.9, -16360.718, 0.027494678, -0.14047794, -1452998.0, -29534.244, 0.000020223571, 9.998758, 9.996626 
4.1499585e+2, 1.6474412e+2, -1363830.9, -1369720.3, -15176.526, 0.008750609, -0.13891478, -1351316.0, -25822.744, 0.0000064954993, 9.998388, 9.997581 
4.149789e+2, 1.7474122e+2, -1263112.9, -1269860.6, -9769.366, -0.040866677, -0.19285682, -1256151.3, -28629.871, 0.0000015364569, 9.9985485, 9.997624 
4.1496208e+2, 1.8473868e+2, -1170037.9, -1180971.0, -9247.162, -0.047929663, -0.17914292, -1164762.4, -35215.246, 0.00000026496838, 9.998504, 9.997021 
4.1494554e+2, 1.9473659e+2, -1075870.8, -1084667.3, -10503.816, -0.008170606, -0.091900036, -1068881.5, -37312.066, 0.000000033220672, 9.998234, 9.997033 
4.1492847e+2, 2.0473269e+2, -996189.06, -1021520.0, -13361.988, 0.009837968, -0.07114485, -990443.75, -56834.938, 0.0000000030265355, 9.998105, 9.994716 
4.149107e+2, 2.1472684e+2, -898007.56, -923848.0, -12234.591, 0.0039636726, -0.1250052, -893134.0, -57467.402, 0.00000000020034616, 9.998132, 9.994676 
4.148934e+2, 2.2472136e+2, -800648.56, -827216.5, -8011.2534, -0.012235105, -0.13366249, -798419.8, -60699.61, 0.000000000009636878, 9.998133, 9.994577 
4.1487658e+2, 2.3471637e+2, -702865.1, -728957.06, -9151.187, -0.039955437, -0.093641676, -699975.56, -60207.05, 0.0000000000000007946489, 9.998098, 9.994608 
4.1486067e+2, 2.4470977e+2, -627879.7, -669577.7, -4872.755, -0.037135094, -0.092202425, -627317.9, -85485.414, 0.000000000000000027769294, 9.997708, 9.992156 
4.1484573e+2, 2.5470147e+2, -541625.0, -577682.4, -4029.0376, -0.00032095038, -0.13478723, -541180.25, -97267.01, 0.0, 9.996919, 9.992113 
4.1483092e+2, 2.64693e+2, -459695.78, -497902.78, -2552.7124, 0.032315485, -0.14599943, -459526.0, -113530.17, 0.0, 9.9962635, 9.9911785 
4.1481632e+2, 2.7468443e+2, -368841.6, -403109.25, -3442.494, 0.060200825, -0.12343637, -368499.2, -120419.64, 0.0, 9.995758, 9.991196 
4.14802e+2, 2.846748e+2, -280641.28, -325577.25, 1614.7455, 0.06806854, -0.13641994, -280583.34, -130409.68, 0.0, 9.995756, 9.98979 
4.14788e+2, 2.9466403e+2, -174138.58, -223346.84, 4820.6147, 0.053240065, -0.19112106, -173670.78, -121392.17, 0.0, 9.996326, 9.989794 
4.1477358e+2, 3.0465692e+2, -76498.11, -86124.84, 2438.5835, 0.028838828, -0.17207679, -75915.63, -75915.63, 0.0, 9.996865, 9.995577 
4.1475862e+2, 3.1465355e+2, -68946.38, -82171.46, -1092.2692, -0.0066726385, -0.07042268, -68856.78, -68856.78, 0.0, 9.997369, 9.995607 
4.250564e+2, 1.247637e+2, -1690139.4, -1700480.3, -2226.4355, -0.14279662, -0.21692637, -1689680.4, 27617.936, 0.00035082738, 10.001575, 10.000204 
4.2504388e+2, 1.3476442e+2, -1609176.4, -1611420.6, -7284.058, -0.028145818, -0.16127428, -1602928.5, 16363.023, 0.00022768496, 10.000446, 10.00015 
4.250291e+2, 1.4476311e+2, -1540048.0, -1562864.3, -18912.55, 0.019715482, -0.15159027, -1529369.3, -8064.119, 0.0001228659, 10.000021, 9.99699 
4.2501205e+2, 1.5476e+2, -1437216.9, -1463084.5, -12522.179, 0.010406459, -0.15534231, -1432148.3, -8811.556, 0.000052266085, 10.000374, 9.996934 
4.24995e+2, 1.6475748e+2, -1329841.9, -1345050.1, -7585.7773, -0.013727411, -0.16792057, -1326705.1, -1342.9772, 0.00001678997, 10.000344, 9.998307 
4.2497793e+2, 1.747556e+2, -1237991.5, -1249348.4, -7293.478, -0.05478283, -0.19216669, -1234426.5, -7046.3193, 0.000003972505, 9.999895, 9.998367 
4.2496082e+2, 1.8475337e+2, -1166901.1, -1184607.4, -12742.601, -0.047961175, -0.16264683, -1160238.0, -30834.898, 0.00000068530704, 9.998936, 9.996564 
4.249436e+2, 1.9475082e+2, -1091232.8, -1097599.8, -15229.494, 0.0120335175, -0.07434617, -1078857.5, -47426.84, 0.00000008596078, 9.997418, 9.996551 
4.2492616e+2, 2.0474689e+2, -1011517.8, -1022031.0, -13621.0, 0.036805227, -0.06164187, -1002174.3, -68704.03, 0.000000007836224, 9.9967575, 9.9953375 
4.249085e+2, 2.147415e+2, -909348.06, -922062.0, -9789.734, 0.022299323, -0.13440998, -904032.4, -68509.74, 0.0000000005191636, 9.997041, 9.995327 
4.248913e+2, 2.247361e+2, -815378.7, -839819.06, -4798.9155, 0.00064611185, -0.14516562, -814470.2, -76894.84, 0.000000000025000514, 9.997359, 9.994093 
4.248746e+2, 2.3473078e+2, -712084.8, -739237.2, -7345.353, -0.02907096, -0.087743185, -710225.1, -70597.6, 0.0000000000000068380394, 9.997716, 9.994092 
4.2485848e+2, 2.4472407e+2, -622775.94, -664395.0, -5457.538, -0.034398828, -0.08354507, -622072.2, -80379.56, 0.00000000000000023892724, 9.997936, 9.992401 
4.2484304e+2, 2.547159e+2, -523864.53, -566077.3, -4078.1523, -0.012384241, -0.14040437, -523474.16, -79702.516, 0.0, 9.997999, 9.992385 
4.2482787e+2, 2.647073e+2, -434932.16, -490295.75, -2038.4447, 0.006877831, -0.157175, -434857.2, -89002.09, 0.0, 9.99814, 9.990793 
4.2481297e+2, 2.746984e+2, -333419.3, -390554.0, -4223.708, 0.022915926, -0.1300229, -333108.75, -85166.086, 0.0, 9.998374, 9.990793 
4.2479846e+2, 2.846887e+2, -247336.23, -306959.66, -2587.6985, 0.03382338, -0.1351961, -247224.14, -97187.04, 0.0, 9.997923, 9.990022 
4.2478436e+2, 2.9467833e+2, -166791.58, -216979.14, -3888.547, 0.038962282, -0.17872055, -166492.08, -114353.75, 0.0, 9.996703, 9.990053 
4.2477e+2, 3.0467102e+2, -93204.88, -101244.25, -5887.9487, 0.023762543, -0.16155842, -90095.34, -90095.34, 0.0, 9.996019, 9.994954 
4.2475522e+2, 3.1466684e+2, -94245.984, -101743.695, -7583.924, -0.014979368, -0.07635475, -89534.945, -89534.945, 0.0, 9.995948, 9.994955 
4.3505862e+2, 1.2477728e+2, -1700265.9, -1720084.5, -6593.3057, -0.07665904, -0.1775362, -1698272.8, 18894.482, 0.00078514614, 10.001529, 9.998892 
4.3504435e+2, 1.3477686e+2, -1619061.4, -1631017.9, -11681.543, -0.027578564, -0.103970185, -1611917.3, 7255.16, 0.00050963036, 10.000421, 9.998827 
4.3502873e+2, 1.4477552e+2, -1528211.1, -1538070.6, -17817.686, -0.020985419, -0.11091683, -1514653.8, 6531.8594, 0.00027507497, 10.000006, 9.99868 
4.3501183e+2, 1.5477356e+2, -1424824.0, -1437217.1, -11278.792, -0.04842928, -0.17868079, -1418151.6, 5052.6147, 0.00011705333, 10.000361, 9.998697 
4.349949e+2, 1.6477199e+2, -1329259.4, -1343603.9, -9280.894, -0.05531886, -0.18929483, -1324702.3, 517.4838, 0.000037619757, 10.000337, 9.998406 
4.34978e+2, 1.7477094e+2, -1237565.1, -1248384.3, -9011.549, -0.040192474, -0.13888495, -1232464.1, -5233.0215, 0.000008906541, 9.999895, 9.99843 
4.3495995e+2, 1.8476844e+2, -1171407.1, -1193823.9, -18406.969, -0.028184587, -0.107463345, -1161064.6, -31807.758, 0.0000015378395, 9.998935, 9.9959345 
4.349407e+2, 1.9476445e+2, -1095896.8, -1107059.4, -20969.918, -0.01905501, -0.09736958, -1079778.1, -48480.492, 0.00000019312868, 9.997414, 9.995905 
4.349224e+2, 2.0476054e+2, -1004769.56, -1007913.8, -12673.8, -0.015943475, -0.09671856, -993570.75, -60234.266, 0.000000017634331, 9.996753, 9.9963 
4.3490508e+2, 2.1475677e+2, -902236.56, -907247.7, -8609.087, -0.019817784, -0.108337454, -895775.8, -60403.207, 0.0000000011708853, 9.997039, 9.996336 
4.3488854e+2, 2.2475162e+2, -820165.6, -849638.75, -3328.4956, -0.008665019, -0.11334072, -819794.44, -82371.74, 0.000000000056553692, 9.997361, 9.993421 
4.348728e+2, 2.3474501e+2, -717128.25, -749669.7, -5896.1553, 0.018780723, -0.11195649, -716092.9, -76605.46, 0.000000000000044721503, 9.997721, 9.993377 
4.34857e+2, 2.4473797e+2, -620423.94, -659697.44, -5059.3906, 0.022981308, -0.120263785, -619782.6, -78226.62, 0.000000000000001562477, 9.997947, 9.992714 
4.3484122e+2, 2.547305e+2, -521071.75, -560786.3, -3721.058, 0.001559199, -0.14086951, -520726.1, -77097.95, 0.0, 9.998023, 9.992733 
4.3482578e+2, 2.6472193e+2, -438425.72, -498417.63, -1105.2775, -0.019339623, -0.14763461, -438405.34, -92693.445, 0.0, 9.998182, 9.990216 
4.3481076e+2, 2.7471218e+2, -336803.13, -398890.5, -3343.8047, -0.03973347, -0.14012109, -336623.56, -88815.84, 0.0, 9.998435, 9.990192 
4.3479565e+2, 2.8470224e+2, -249386.2, -312421.66, -7335.6284, -0.044416144, -0.12428015, -248543.8, -98638.27, 0.0, 9.997977, 9.989618 
4.347804e+2, 2.9469213e+2, -169263.8, -222531.44, -8957.338, -0.03131288, -0.10094643, -167797.9, -115793.305, 0.0, 9.996724, 9.98966 
4.3476537e+2, 3.0468422e+2, -96158.02, -107282.58, -6761.9976, -0.03774956, -0.10006257, -92964.52, -92964.52, 0.0, 9.996021, 9.994536 
4.3475065e+2, 3.1467852e+2, -97358.25, -107853.984, -8313.178, -0.066864595, -0.12557884, -92775.09, -92775.09, 0.0, 9.995937, 9.994538 
4.4505987e+2, 1.2479148e+2, -1728084.1, -1740690.0, -2399.9639, -0.021956237, -0.13808358, -1727642.8, -10612.763, 0.0015538043, 9.999939, 9.998269 
4.4504482e+2, 1.3479002e+2, -1621447.9, -1639181.4, -2269.426, -0.02652523, -0.10550649, -1621162.1, -2117.3215, 0.0010089569, 10.000556, 9.998205 
4.4502884e+2, 1.4478871e+2, -1512160.5, -1520107.0, -8008.7725, -0.041924607, -0.12235397, -1507193.5, 13863.907, 0.0005448942, 10.000651, 9.999585 
4.45012e+2, 1.5478785e+2, -1420613.1, -1424638.9, -7656.881, -0.059796426, -0.1740281, -1414709.0, 8355.879, 0.00023205215, 10.000186, 9.999639 
4.4499478e+2, 1.6478688e+2, -1344286.1, -1352141.5, -12488.602, -0.054406404, -0.16817455, -1335122.1, -10047.54, 0.00007466019, 9.999362, 9.998301 
4.4497716e+2, 1.7478587e+2, -1264037.1, -1262739.1, -13810.414, -0.023697892, -0.10017267, -1249562.5, -22476.424, 0.000017702305, 9.998152, 9.998302 
4.4495854e+2, 1.8478335e+2, -1182358.1, -1194800.4, -18216.408, -0.017762812, -0.08317616, -1169329.9, -40218.21, 0.000003062777, 9.997996, 9.9963255 
4.449387e+2, 1.9477928e+2, -1069961.8, -1090006.0, -12861.171, -0.038671024, -0.122785196, -1063678.9, -32526.834, 0.0000003857046, 9.998983, 9.996303 
4.4492012e+2, 2.0477545e+2, -967644.94, -990839.7, -3572.5952, -0.044065565, -0.12921476, -967107.1, -33917.61, 0.00000003535121, 9.999321, 9.996216 
4.4490296e+2, 2.1477199e+2, -874847.3, -894964.6, -7956.607, -0.032805044, -0.10073006, -872080.9, -36857.906, 0.000000002359298, 9.998946, 9.996252 
4.4488633e+2, 2.2476679e+2, -808689.5, -845779.4, -6268.212, -0.008585514, -0.10039597, -807658.8, -70385.17, 0.000000000114745775, 9.998213, 9.993275 
4.448703e+2, 2.3475969e+2, -727419.06, -756327.3, -4526.5327, 0.029866917, -0.13254707, -726726.9, -87384.05, 0.00000000000022836846, 9.997086, 9.99323 
4.4485444e+2, 2.4475247e+2, -641757.5, -671871.06, -1484.8097, 0.03645412, -0.14321922, -641684.44, -100271.15, 0.0000000000000079783024, 9.996565, 9.992553 
4.4483864e+2, 2.5474516e+2, -541353.7, -572411.8, -4024.8413, 0.007595302, -0.1312274, -540840.56, -97356.1, 0.0, 9.996711, 9.992576 
4.448233e+2, 2.6473638e+2, -461301.3, -514302.94, -2636.093, -0.020107664, -0.12987836, -461170.53, -115599.96, 0.0, 9.996821, 9.989792 
4.448084e+2, 2.7472603e+2, -362365.25, -416098.16, -3550.0012, -0.04653236, -0.14173721, -362131.72, -114459.305, 0.0, 9.99689, 9.989764 
4.447929e+2, 2.8471577e+2, -268952.9, -324988.88, -9924.854, -0.057036996, -0.122217044, -267247.0, -117473.49, 0.0, 9.996765, 9.9893465 
4.4477677e+2, 2.947057e+2, -175374.53, -228526.75, -10686.975, -0.04936278, -0.069248445, -173306.25, -121433.51, 0.0, 9.99643, 9.989393 
4.447611e+2, 3.0469784e+2, -95276.62, -99395.38, -3033.7246, -0.054177653, -0.08390418, -93669.32, -93669.32, 0.0, 9.995753, 9.995208 
4.4474587e+2, 3.1469214e+2, -110580.58, -106424.51, 4050.4006, -0.07377385, -0.1761639, -103950.19, -103950.19, 0.0, 9.994687, 9.995237 
4.5506024e+2, 1.248064e+2, -1728126.4, -1740076.5, -346.21213, 0.019622378, -0.09751999, -1728116.4, -11231.095, 0.0027803245, 9.999915, 9.998321 
4.5504537e+2, 1.3480401e+2, -1621438.9, -1638455.8, -75.72507, -0.025605079, -0.16489987, -1621438.5, -2530.5996, 0.0018069525, 10.000532, 9.998263 
4.550295e+2, 1.4480275e+2, -1511717.0, -1518575.4, -9833.161, -0.043454964, -0.18490128, -1504732.3, 16187.607, 0.0009770269, 10.000629, 9.999698 
4.5501253e+2, 1.5480296e+2, -1420063.8, -1423072.4, -9514.606, -0.024169555, -0.1411049, -1411935.3, 10982.633, 0.00041677037, 10.000172, 9.99975 
4.5499456e+2, 1.6480218e+2, -1346779.6, -1356931.4, -17127.17, -0.011417259, -0.104515776, -1333992.0, -9065.76, 0.00013439546, 9.999351, 9.997977 
4.5497552e+2, 1.7480044e+2, -1266629.3, -1267740.1, -18464.793, -0.005686638, -0.0762268, -1248711.6, -21766.666, 0.000031964762, 9.998139, 9.997965 
4.5495653e+2, 1.8479814e+2, -1172288.5, -1173889.3, -14614.531, -0.016998615, -0.09015901, -1158452.5, -29484.953, 0.000005553748, 9.997994, 9.997748 
4.5493764e+2, 1.9479533e+2, -1059319.9, -1068394.8, -8975.27, -0.046926096, -0.15113379, -1053800.4, -22806.586, 0.00000070340104, 9.999003, 9.997764 
4.5491943e+2, 2.0479164e+2, -975655.4, -1007944.06, -4762.781, -0.047292702, -0.15948747, -974967.5, -41938.273, 0.000000064967765, 9.99935, 9.995033 
4.549021e+2, 2.1478713e+2, -883273.3, -912937.06, -9316.059, -0.01575942, -0.11195026, -880590.25, -45516.26, 0.0000000043809485, 9.998975, 9.99501 
4.5488465e+2, 2.2478153e+2, -805583.0, -839708.25, -10491.493, 0.00094903115, -0.10684181, -802615.56, -65486.734, 0.00000000021602262, 9.99823, 9.993677 
4.5486712e+2, 2.3477478e+2, -724269.4, -749715.8, -8745.954, 0.0015362371, -0.14954145, -721553.25, -82359.27, 0.0000000000009414817, 9.997084, 9.993679 
4.5485064e+2, 2.4476753e+2, -646817.06, -681990.06, -933.02, 0.0028680766, -0.15171796, -646792.3, -105527.375, 0.000000000000032891313, 9.996554, 9.991865 
4.5483533e+2, 2.5475982e+2, -546614.25, -582924.3, -3446.6235, 0.0047147544, -0.11069348, -546289.94, -102948.45, 0.0, 9.996698, 9.991862 
4.5482033e+2, 2.6475057e+2, -463472.53, -518373.84, -2435.488, 0.0060113403, -0.10321897, -463364.72, -117932.43, 0.0, 9.996808, 9.989518 
4.548058e+2, 2.7473977e+2, -364473.75, -419954.84, -3391.2693, 0.0065414654, -0.13409415, -364267.22, -116729.32, 0.0, 9.996872, 9.989508 
4.5479026e+2, 2.8472915e+2, -270199.8, -327231.56, -11202.692, 0.0009467384, -0.12978983, -268078.22, -118435.83, 0.0, 9.996755, 9.989196 
4.547736e+2, 2.9471883e+2, -176281.06, -230560.53, -12020.859, -0.010881953, -0.0879847, -173738.03, -121993.52, 0.0, 9.996441, 9.989246 
4.547572e+2, 3.0471164e+2, -82140.86, -72377.8, -7106.391, -0.021526055, -0.11721424, -68637.836, -68637.836, 0.0, 9.995768, 9.99705 
4.54741e+2, 3.1470767e+2, -97276.1, -78618.06, 37.811306, -0.031797487, -0.2278784, -78617.984, -78617.984, 0.0, 9.994682, 9.997142 
4.650612e+2, 1.24822095e+2, -1694554.8, -1717228.0, 5324.8877, 0.022452828, -0.06560306, -1693366.5, 23366.809, 0.004589857, 10.001916, 9.998896 
4.6504587e+2, 1.3481997e+2, -1617163.3, -1629860.9, 9378.261, -0.030641986, -0.16527303, -1612186.9, 6565.5103, 0.0029879087, 10.000534, 9.998845 
4.650296e+2, 1.4481886e+2, -1527645.1, -1529237.6, 166.9508, -0.04545674, -0.18716425, -1527627.9, -6865.15, 0.0016192476, 9.999666, 9.999438 
4.650124e+2, 1.5481906e+2, -1434098.5, -1433054.1, -2483.5916, -0.013162666, -0.11623296, -1431038.4, -8277.068, 0.00069287396, 9.999348, 9.99947 
4.649939e+2, 1.6481797e+2, -1351370.9, -1362800.3, -12422.621, -0.003610371, -0.080997616, -1343411.5, -18638.83, 0.00022437889, 9.999189, 9.997655 
4.6497405e+2, 1.7481558e+2, -1253232.6, -1264906.8, -13749.533, -0.018807463, -0.085223585, -1244132.5, -17335.521, 0.000053673917, 9.999205, 9.99764 
4.6495476e+2, 1.8481328e+2, -1156345.1, -1160914.5, -10775.329, -0.033035588, -0.10598483, -1147615.0, -18795.94, 0.000009398119, 9.998849, 9.998219 
4.6493617e+2, 1.9481114e+2, -1069032.9, -1067696.8, -12588.742, -0.046497032, -0.14616883, -1055758.4, -24920.377, 0.0000012027082, 9.9981, 9.998255 
4.649179e+2, 2.0480753e+2, -1007692.8, -1028211.75, -11875.458, -0.03627702, -0.15173838, -1002258.9, -69386.305, 0.00000011262272, 9.997362, 9.994621 
4.6490005e+2, 2.1480244e+2, -920695.6, -936047.25, -10378.085, -0.00047491404, -0.12071524, -915463.2, -80539.97, 0.000000007732489, 9.996631, 9.994572 
4.6488225e+2, 2.2479662e+2, -823978.8, -846667.7, -7000.9385, 0.004705941, -0.12346346, -821992.5, -85012.37, 0.00000000039024706, 9.996885, 9.9938545 
4.648645e+2, 2.3479009e+2, -706473.94, -739014.7, -7259.569, -0.023489794, -0.16438825, -704927.9, -65884.75, 0.0000000000032348013, 9.998203, 9.993871 
4.6484786e+2, 2.4478269e+2, -622564.44, -678512.9, -1873.0033, -0.028801875, -0.15667681, -622501.8, -81385.81, 0.00000000000011301746, 9.998562, 9.991134 
4.6483245e+2, 2.547744e+2, -534626.5, -585626.8, -4724.0923, -0.00930761, -0.09745055, -534192.6, -90993.62, 0.0, 9.99788, 9.991109 
4.6481726e+2, 2.647651e+2, -455951.78, -507481.53, -1267.8228, 0.005231301, -0.08971114, -455920.6, -110629.97, 0.0, 9.997003, 9.99017 
4.6480224e+2, 2.747548e+2, -373508.6, -416701.03, 4993.202, 0.014071225, -0.139697, -372938.88, -125547.94, 0.0, 9.995919, 9.990189 
4.6478638e+2, 2.847444e+2, -292028.56, -338128.9, 2251.146, 0.011970473, -0.14419939, -291918.88, -142425.77, 0.0, 9.995269, 9.989163 
4.6476948e+2, 2.9473403e+2, -196151.89, -240701.89, 2210.7417, -0.0017706411, -0.10014151, -196042.45, -144446.17, 0.0, 9.995096, 9.989198 
4.6475226e+2, 3.0472758e+2, -97732.664, -66737.89, 502.48505, -0.009615935, -0.113499254, -66729.75, -66729.75, 0.0, 9.994124, 9.998225 
4.6473467e+2, 3.1472513e+2, -124063.93, -77962.516, 2136.7256, -0.011828822, -0.1929976, -77863.695, -77863.695, 0.0, 9.992257, 9.998353 
4.7506276e+2, 1.24838695e+2, -1687757.0, -1701912.6, 7.671607, -0.014317327, -0.04163737, -1687757.0, 28815.639, 0.007113215, 10.001865, 9.999964 
4.750463e+2, 1.34838e+2, -1609917.3, -1614190.1, 3963.1643, -0.041895345, -0.10743458, -1607551.4, 11026.22, 0.004643645, 10.000505, 9.999921 
4.7502923e+2, 1.4483711e+2, -1532493.6, -1538684.6, -1326.0846, -0.048126616, -0.13002461, -1532221.6, -11636.153, 0.0025262511, 9.999649, 9.998801 
4.750116e+2, 1.5483622e+2, -1439175.8, -1443096.0, -3815.0857, -0.027386587, -0.0997517, -1436846.8, -14252.116, 0.0010866441, 9.999335, 9.99879 
4.749928e+2, 1.6483429e+2, -1353809.5, -1367567.9, -12514.173, -0.032297295, -0.09790556, -1346408.4, -21794.902, 0.00035438547, 9.999184, 9.997332 
4.749728e+2, 1.7483135e+2, -1255473.8, -1269529.8, -13737.729, -0.0648379, -0.12767833, -1247070.8, -20428.977, 0.000085576154, 9.999209, 9.997319 
4.749533e+2, 1.848288e+2, -1159924.5, -1168406.5, -13620.948, -0.06714444, -0.1305034, -1149899.6, -21233.674, 0.000015172572, 9.9988575, 9.997701 
4.7493437e+2, 1.9482678e+2, -1072788.3, -1075401.9, -15463.115, -0.037325643, -0.10617967, -1058576.9, -27891.95, 0.0000019737136, 9.998103, 9.9977255 
4.7491553e+2, 2.0482317e+2, -1005148.9, -1022704.56, -14702.314, -0.01082782, -0.10441851, -996803.4, -64083.656, 0.00000018875323, 9.9973545, 9.994997 
4.748968e+2, 2.1481791e+2, -918128.7, -930333.94, -13110.708, 0.012304984, -0.12752783, -909769.9, -74999.01, 0.000000013307983, 9.996615, 9.994966 
4.748791e+2, 2.2481205e+2, -824619.3, -847830.56, -1927.3744, 0.0017655775, -0.15103443, -824460.4, -87632.484, 0.00000000069387657, 9.996885, 9.993773 
4.7486252e+2, 2.3480557e+2, -706764.4, -740188.3, -2063.3003, -0.045340154, -0.1765254, -706637.5, -67746.914, 0.000000000009472845, 9.998234, 9.993774 
4.7484615e+2, 2.4479784e+2, -627652.6, -689839.25, -4275.2446, -0.058724158, -0.15766297, -627360.06, -86392.99, 0.00000000000033105848, 9.998599, 9.99034 
4.748301e+2, 2.5478882e+2, -539970.6, -597207.0, -7312.5254, -0.035678767, -0.0921927, -539051.1, -95993.305, 0.0, 9.997905, 9.990303 
4.7481397e+2, 2.6477984e+2, -444290.5, -483519.53, -5351.1074, -0.02507603, -0.09039432, -443573.66, -98427.34, 0.0, 9.997013, 9.991798 
4.7479776e+2, 2.7477103e+2, -361823.03, -392208.4, 955.6952, -0.02816686, -0.15967011, -361793.0, -114561.336, 0.0, 9.99591, 9.991864 
4.7478122e+2, 2.8476152e+2, -291680.13, -336945.84, 1700.3777, -0.02833381, -0.16589881, -291616.34, -142290.73, 0.0, 9.995254, 9.989249 
4.7476432e+2, 2.9475138e+2, -196040.39, -240100.33, 1723.5405, -0.0250565, -0.10477108, -195973.08, -144545.25, 0.0, 9.995085, 9.989242 
4.747463e+2, 3.047456e+2, -94970.055, -60479.82, -6379.7114, -0.020994332, -0.068778284, -59337.582, -59337.582, 0.0, 9.994106, 9.998657 
4.7472686e+2, 3.1474456e+2, -121523.49, -71743.76, -5100.161, -0.01656728, -0.053249173, -71226.59, -71226.59, 0.0, 9.992222, 9.998791 
4.8506436e+2, 1.2485592e+2, -1694744.8, -1705183.6, 6013.9976, -0.011127029, -0.060409766, -1692001.1, 24403.135, 0.01049777, 10.001379, 9.999978 
4.8504716e+2, 1.3485566e+2, -1596342.3, -1607506.6, 2018.8914, -0.049272034, -0.08468764, -1595988.4, 22417.14, 0.0068823104, 10.001426, 9.999932 
4.8502946e+2, 1.4485475e+2, -1515122.4, -1535203.1, -6370.636, -0.059558515, -0.088101685, -1513271.9, 7142.085, 0.0037656925, 10.001041, 9.998364 
4.8501125e+2, 1.5485334e+2, -1429665.6, -1443647.1, -7294.3315, -0.03755929, -0.064974494, -1426553.0, -4124.8633, 0.0016323061, 10.0002, 9.998335 
4.8499203e+2, 1.64851e+2, -1349363.9, -1364628.6, -12777.716, -0.04138846, -0.085659154, -1342112.6, -17662.164, 0.00053782034, 9.999446, 9.997405 
4.849717e+2, 1.7484774e+2, -1261081.3, -1271470.1, -11047.089, -0.0729192, -0.15382212, -1254068.3, -27588.14, 0.00013162919, 9.998789, 9.997393 
4.849519e+2, 1.8484484e+2, -1171818.0, -1182008.8, -10721.928, -0.0687915, -0.16191664, -1165042.3, -36534.918, 0.000023746588, 9.99838, 9.997006 
4.8493266e+2, 1.9484241e+2, -1075956.4, -1084974.5, -14077.378, -0.026591526, -0.10748112, -1065683.5, -35152.555, 0.0000031577385, 9.998229, 9.997013 
4.8491347e+2, 2.0483837e+2, -987895.0, -1015911.06, -14010.311, -0.010218096, -0.10533286, -982091.06, -49521.02, 0.00000031029586, 9.998594, 9.994862 
4.848945e+2, 2.1483268e+2, -876599.25, -911677.3, -16446.383, -0.021328062, -0.16011162, -870094.5, -35469.613, 0.000000022599854, 9.999507, 9.994842 
4.848768e+2, 2.2482675e+2, -791908.06, -833522.0, -8320.082, -0.029136905, -0.17591561, -790306.25, -53623.645, 0.000000001223376, 9.999178, 9.993646 
4.848605e+2, 2.3482065e+2, -717990.0, -747222.7, -8811.873, -0.033974964, -0.15165555, -715539.25, -76796.664, 0.000000000023981294, 9.997531, 9.993639 
4.8484397e+2, 2.4481286e+2, -659045.1, -704086.2, -9771.359, -0.030831665, -0.13495466, -657016.7, -116196.93, 0.00000000000083893737, 9.996408, 9.990431 
4.8482716e+2, 2.5480336e+2, -569399.75, -610495.44, -5984.1206, -0.018995818, -0.12706783, -568546.1, -125631.625, 0.0, 9.995845, 9.990393 
4.848102e+2, 2.647949e+2, -460594.75, -481238.9, -3379.9797, -0.026050732, -0.124586955, -460055.44, -115057.07, 0.0, 9.995453, 9.992709 
4.8479307e+2, 2.7478763e+2, -364981.53, -383469.1, -2899.9082, -0.053462345, -0.13067934, -364537.34, -117467.62, 0.0, 9.995244, 9.992786 
4.8477626e+2, 2.8477883e+2, -289191.06, -334285.3, -1969.4675, -0.05497891, -0.1192467, -289105.22, -139947.9, 0.0, 9.995356, 9.9893875 
4.8475972e+2, 2.9476848e+2, -184523.48, -233337.06, -1308.8014, -0.02839027, -0.09031809, -184488.4, -133226.9, 0.0, 9.995815, 9.989357 
4.8474136e+2, 3.0476227e+2, -72590.38, -62362.715, -18714.572, -0.021474816, -0.050577644, -48075.867, -48075.867, 0.0, 9.996174, 9.997541 
4.8472092e+2, 3.14761e+2, -68371.29, -58917.43, -30032.01, -0.035037152, 0.056785688, -33242.625, -33242.625, 0.0, 9.996399, 9.997676 
4.9506617e+2, 1.2487389e+2, -1702602.1, -1720470.9, 5901.6416, 0.02927559, -0.11989702, -1700828.9, 15397.884, 0.014911252, 10.001352, 9.998943 
4.9504855e+2, 1.3487306e+2, -1604370.3, -1623066.1, 1992.2427, -0.053720016, -0.096120164, -1604160.3, 14074.953, 0.009830928, 10.001393, 9.998883 
4.950303e+2, 1.4487188e+2, -1517392.4, -1539115.9, -9663.168, -0.08000291, -0.061042927, -1513716.1, 6531.116, 0.0054196375, 10.001013, 9.998109 
4.950114e+2, 1.548705e+2, -1431724.8, -1447430.1, -10602.658, -0.044240527, -0.01174979, -1426383.5, -4122.068, 0.0023727028, 10.000185, 9.998081 
4.9499157e+2, 1.6486812e+2, -1346199.6, -1357871.3, -15408.8, -0.031508043, -0.044105884, -1335558.5, -11275.426, 0.00079196517, 9.99944, 9.997865 
4.9497083e+2, 1.7486481e+2, -1257847.4, -1264690.9, -13644.346, -0.04317415, -0.16351497, -1247202.3, -20890.582, 0.00019707251, 9.998787, 9.997851 
4.949506e+2, 1.848614e+2, -1178180.6, -1195047.9, -11345.823, -0.03806768, -0.20061311, -1172477.3, -44134.19, 0.000036298647, 9.998383, 9.996115 
4.94931e+2, 1.9485801e+2, -1082309.0, -1098259.4, -14632.96, -0.015159058, -0.15207511, -1073619.0, -43242.76, 0.0000049503406, 9.998242, 9.9960985 
4.9491185e+2, 2.048531e+2, -992360.5, -1025668.06, -10536.565, -0.036348846, -0.1567313, -989307.25, -56883.35, 0.00000050112493, 9.998625, 9.99418 
4.9489322e+2, 2.1484667e+2, -880737.1, -921282.6, -12943.551, -0.10425671, -0.21903773, -876957.44, -42471.52, 0.000000037748414, 9.999559, 9.99416 
4.9487543e+2, 2.2484067e+2, -792765.4, -836140.75, -14563.97, -0.08953903, -0.19733557, -788329.0, -51784.06, 0.0000000021194788, 9.999216, 9.993445 
4.948585e+2, 2.3483522e+2, -719435.06, -750053.6, -15233.361, 0.012464273, -0.08792433, -713147.3, -74547.28, 0.000000000053309013, 9.997526, 9.993445 
4.9484122e+2, 2.4482767e+2, -652259.4, -689321.6, -11935.937, 0.057904214, -0.087716885, -648748.06, -108073.26, 0.0000000000018704428, 9.99638, 9.991449 
4.9482358e+2, 2.5481793e+2, -562528.1, -595518.3, -7995.1104, 0.043074787, -0.2049953, -560692.6, -117922.91, 0.0000000000000000000017017642, 9.995815, 9.991427 
4.9480593e+2, 2.6481014e+2, -460123.34, -479732.97, -4053.237, 0.004151464, -0.1941832, -459318.6, -114471.04, 0.000000000000000000000059654236, 9.995434, 9.992819 
4.9478823e+2, 2.748045e+2, -364404.72, -382199.75, -3741.2908, -0.060890928, -0.04810931, -363650.13, -116744.01, 0.0, 9.995244, 9.992871 
4.947715e+2, 2.847962e+2, -287629.97, -331487.88, -432.27213, -0.06736674, 0.0017131352, -287625.72, -138636.08, 0.0, 9.995379, 9.989565 
4.9475574e+2, 2.947852e+2, -182717.05, -230457.1, 262.26572, -0.0104070045, -0.055421513, -182715.61, -131616.42, 0.0, 9.995858, 9.9895315 
4.9473774e+2, 3.047772e+2, -91753.586, -103963.17, -18136.934, -0.010726993, -0.061897647, -78721.586, -78721.586, 0.0, 9.99626, 9.994643 
4.9471712e+2, 3.1477386e+2, -86451.3, -99848.1, -30068.29, -0.06919495, 0.1354229, -62344.332, -62344.332, 0.0, 9.996552, 9.994792 
5.050683e+2, 1.2489341e+2, -1670435.5, -1712669.3, 10573.7, -0.014955678, -0.13595766, -1667936.1, 48098.566, 0.020533854, 10.003937, 9.998214 
5.050501e+2, 1.3489205e+2, -1605962.0, -1632186.4, 8971.959, -0.04425877, -0.09309184, -1603186.3, 14862.756, 0.013628187, 10.001644, 9.998139 
5.050311e+2, 1.4489008e+2, -1534947.4, -1555432.5, -1783.2415, -0.053603142, -0.062299766, -1534793.4, -14724.776, 0.0075791995, 10.000147, 9.997417 
5.0501126e+2, 1.548877e+2, -1447130.0, -1462793.8, -6121.3735, -0.03912968, -0.04317969, -1445021.6, -22929.764, 0.0033562193, 9.999472, 9.997383 
5.0499094e+2, 1.6488504e+2, -1345797.9, -1356462.1, -11342.695, -0.03607881, -0.075683616, -1338596.5, -14480.285, 0.0011366707, 9.999409, 9.997976 
5.0497013e+2, 1.7488216e+2, -1239430.8, -1254512.6, -12230.582, -0.045459487, -0.16408478, -1232603.3, -6462.4507, 0.00028802847, 9.999982, 9.997966 
5.049497e+2, 1.8487838e+2, -1161970.6, -1198709.6, -12995.742, -0.04313028, -0.19436342, -1157838.4, -29662.436, 0.000054231128, 9.999978, 9.995094 
5.0492966e+2, 1.9487377e+2, -1073033.4, -1105544.0, -17379.404, -0.02855585, -0.16442353, -1065492.1, -35270.902, 0.0000075890043, 9.999376, 9.995055 
5.049105e+2, 2.0486817e+2, -990998.0, -1027191.94, -9855.308, -0.03703618, -0.17568256, -988488.44, -56213.008, 0.00000079091893, 9.998804, 9.993993 
5.0489247e+2, 2.148616e+2, -901008.75, -933269.0, -8514.97, -0.07024992, -0.23156849, -898899.2, -64560.92, 0.00000006148999, 9.998262, 9.993973 
5.048743e+2, 2.2485515e+2, -822372.06, -859685.7, -16109.346, -0.04723996, -0.20632228, -816379.6, -79977.586, 0.0000000035684378, 9.997583, 9.992631 
5.048559e+2, 2.3484889e+2, -736314.2, -767552.7, -21730.969, 0.035775907, -0.09642772, -725171.6, -86705.945, 0.000000000106599, 9.996766, 9.992623 
5.0483775e+2, 2.448415e+2, -640079.5, -669026.0, -15369.101, 0.060277484, -0.101241924, -633441.5, -92902.92, 0.0000000000037690797, 9.996583, 9.992743 
5.048198e+2, 2.5483298e+2, -534717.6, -567424.56, -9247.057, 0.022077825, -0.23020501, -532284.3, -89663.42, 0.000000000000000000049289046, 9.997079, 9.992739 
5.0480187e+2, 2.6482552e+2, -443051.94, -479829.88, -9046.156, -0.022115963, -0.21455553, -440947.3, -96251.8, 0.0000000000000000000017269324, 9.996954, 9.992083 
5.047838e+2, 2.7481934e+2, -356102.3, -386987.1, -15408.09, -0.07334495, -0.044758584, -349730.13, -102969.28, 0.0, 9.996183, 9.992098 
5.0476676e+2, 2.848114e+2, -280448.0, -315887.6, -11092.414, -0.07496438, 0.02402023, -277262.47, -128421.29, 0.0, 9.995339, 9.99066 
5.047508e+2, 2.948016e+2, -196037.88, -224523.5, -3091.9429, -0.02259772, -0.021601463, -195706.14, -144768.9, 0.0, 9.994406, 9.990643 
5.047334e+2, 3.0479294e+2, -117478.12, -127958.73, -5348.509, -0.010138265, -0.10312657, -115230.61, -115230.61, 0.0, 9.9949875, 9.993614 
5.047143e+2, 3.1478795e+2, -83640.69, -108664.0, -2655.2983, -0.032564446, 0.040695004, -83362.03, -83362.03, 0.0, 9.997178, 9.993878 
5.15071e+2, 1.2491459e+2, -1675154.5, -1719857.1, 1656.8481, -0.14225574, -0.11019216, -1675093.3, 40733.664, 0.027554031, 10.003851, 9.997758 
5.15052e+2, 1.3491267e+2, -1610011.9, -1639312.5, 34.954205, -0.021106025, -0.07592389, -1610011.9, 7834.2495, 0.018419899, 10.001592, 9.997674 
5.15032e+2, 1.4490947e+2, -1543470.3, -1572257.3, -4631.706, 0.018754654, -0.09160151, -1542743.4, -22866.33, 0.010340942, 10.000122, 9.996284 
5.1501095e+2, 1.5490508e+2, -1455615.9, -1479855.3, -8857.825, -0.022894679, -0.15937817, -1452724.0, -30805.178, 0.0046347342, 9.99946, 9.996225 
5.1499015e+2, 1.649018e+2, -1347615.4, -1360031.0, -9373.165, -0.056321032, -0.18047114, -1342580.6, -18631.336, 0.0015935765, 9.999409, 9.997731 
5.1496977e+2, 1.7489982e+2, -1241044.5, -1258022.3, -10200.187, -0.08187582, -0.15506993, -1236262.9, -10295.973, 0.00041132476, 9.999997, 9.997717 
5.1494926e+2, 1.8489577e+2, -1169943.6, -1215555.4, -15323.947, -0.0861267, -0.14216547, -1165273.5, -37267.72, 0.00007915646, 10.000001, 9.993933 
5.1492864e+2, 1.9488966e+2, -1081071.8, -1122575.6, -19706.67, -0.068004325, -0.14311774, -1073205.6, -43140.164, 0.0000113579035, 9.999401, 9.99388 
5.149096e+2, 2.0488356e+2, -988694.6, -1022704.2, -11964.607, -0.010995167, -0.16036531, -984907.25, -52782.734, 0.0000012170423, 9.998819, 9.994288 
5.1489234e+2, 2.1487752e+2, -898829.5, -928724.1, -10589.278, 0.08588046, -0.19584684, -895458.6, -61276.72, 0.000000097492624, 9.998264, 9.994279 
5.1487327e+2, 2.2487016e+2, -832882.7, -881180.75, -19077.361, 0.10154412, -0.20316151, -826256.4, -90002.35, 0.0000000058393703, 9.997579, 9.991165 
5.148526e+2, 2.3486152e+2, -746907.56, -789378.44, -24742.215, 0.033098593, -0.18180166, -735537.5, -97197.03, 0.00000000019837329, 9.996767, 9.991132 
5.1483345e+2, 2.4485423e+2, -628970.75, -646214.1, -13486.76, -0.0300761, -0.17879046, -621585.4, -81173.02, 0.000000000007134189, 9.996594, 9.994292 
5.148158e+2, 2.548484e+2, -523078.7, -543909.0, -7253.622, -0.08851032, -0.19845214, -520801.72, -78333.195, 0.000000000000000013828485, 9.997108, 9.99433 
5.14798e+2, 2.648409e+2, -454395.97, -504086.7, -12027.22, -0.10969176, -0.18274863, -451637.97, -107094.65, 0.0000000000000000008730735, 9.99699, 9.990405 
5.1477987e+2, 2.7483186e+2, -367933.06, -412132.78, -18638.914, -0.09170032, -0.12818992, -361122.5, -114485.71, 0.000000000000000000039538807, 9.996213, 9.990362 
5.147621e+2, 2.8482404e+2, -265664.06, -285542.25, -15100.148, -0.07824932, -0.060472213, -257525.55, -108810.45, 0.0000000000000000000014097545, 9.995356, 9.992725 
5.147447e+2, 2.9481757e+2, -181332.89, -193660.88, -6962.291, -0.06901153, 0.011910115, -178198.05, -127420.76, 0.0, 9.994392, 9.99276 
5.147282e+2, 3.0480936e+2, -110228.43, -112966.08, 2817.797, -0.021232327, -0.17841902, -108464.58, -108464.58, 0.0, 9.995006, 9.994629 
5.147127e+2, 3.1480336e+2, -73552.65, -89109.79, 6022.442, 0.08362818, -0.23427948, -71493.74, -71493.74, 0.0, 9.997256, 9.995176 
5.2507395e+2, 1.2493396e+2, -1706396.4, -1735384.3, -14321.201, -0.11587377, -0.09610537, -1700514.5, 15122.246, 0.036176804, 10.001668, 9.997782 
5.250535e+2, 1.3493201e+2, -1612426.1, -1640430.8, -12720.361, -0.02012448, -0.06914778, -1607510.9, 10145.35, 0.024365017, 10.001421, 9.99769 
5.250326e+2, 1.449286e+2, -1522706.3, -1562865.8, -7372.701, -0.0013129779, -0.10174066, -1521395.5, -1706.8774, 0.013811107, 10.00156, 9.996225 
5.250113e+2, 1.5492387e+2, -1417516.8, -1462193.1, -3579.6838, -0.06080308, -0.19627173, -1417231.8, 4501.011, 0.006266411, 10.002088, 9.996146 
5.249905e+2, 1.6492002e+2, -1322372.4, -1361944.6, -4890.139, -0.08299749, -0.20979224, -1321777.0, 1992.2202, 0.002187711, 10.001737, 9.996469 
5.249702e+2, 1.7491719e+2, -1242984.3, -1273420.3, -13664.445, -0.067562826, -0.14099237, -1237749.8, -11953.31, 0.0005752219, 10.000486, 9.996435 
5.249497e+2, 1.8491223e+2, -1171549.6, -1223196.9, -19373.46, -0.055991486, -0.122735254, -1165090.3, -37245.785, 0.00011314291, 10.000184, 9.993329 
5.24929e+2, 1.9490519e+2, -1064063.0, -1121194.9, -19548.27, -0.04745811, -0.15778477, -1058014.6, -28101.787, 0.000016648359, 10.000853, 9.993274 
5.2490944e+2, 2.0489846e+2, -969801.1, -1021112.6, -17349.611, 0.0059830854, -0.17330915, -964485.44, -32507.424, 0.0000018353236, 10.000427, 9.993621 
5.248911e+2, 2.1489213e+2, -894399.3, -934211.94, -23644.125, 0.10565015, -0.17031342, -883397.6, -49358.95, 0.00000015174481, 9.998887, 9.99361 
5.248715e+2, 2.2488438e+2, -814542.75, -871628.06, -25164.795, 0.10173433, -0.18909253, -805033.44, -68918.805, 0.000000009413484, 9.998794, 9.991236 
5.2485067e+2, 2.3487517e+2, -695838.4, -763947.44, -18896.607, -0.010227557, -0.23107177, -690946.94, -52741.2, 0.0000000003572173, 10.0002165, 9.991199 
5.248311e+2, 2.4486785e+2, -583274.4, -627615.5, -12862.797, -0.07931194, -0.2189202, -579813.25, -39535.2, 0.000000000013245786, 9.99986, 9.993986 
5.2481306e+2, 2.5486258e+2, -517062.94, -544517.44, -21380.828, -0.10396876, -0.153357, -505382.0, -63052.02, 0.00000000000000038532895, 9.99766, 9.994032 
5.2479434e+2, 2.64855e+2, -477287.44, -513387.78, -29407.203, -0.09254769, -0.14059937, -460832.66, -116427.2, 0.000000000000000024719012, 9.9953375, 9.990578 
5.247749e+2, 2.7484512e+2, -415171.13, -433245.84, -21341.463, -0.042670302, -0.18140706, -401032.38, -154527.45, 0.0000000000000000011415998, 9.992898, 9.990522 
5.247561e+2, 2.8483763e+2, -308965.5, -295275.4, -9440.969, -0.042816486, -0.13843559, -290459.13, -141880.3, 0.000000000000000000040680988, 9.991903, 9.993725 
5.2473783e+2, 2.9483268e+2, -202951.73, -192910.86, -9816.852, -0.09596738, -0.01870843, -186905.17, -136279.45, 0.0, 9.992424, 9.993763 
5.247224e+2, 3.0482528e+2, -119056.04, -98495.23, 6374.75, -0.036930826, -0.25780153, -96679.18, -96679.18, 0.0, 9.993583, 9.996317 
5.247099e+2, 3.1482103e+2, -85942.14, -70823.305, 15005.822, 0.16767476, -0.31465498, -61580.355, -61580.355, 0.0, 9.995348, 9.997359 
5.350774e+2, 1.2495177e+2, -1704825.6, -1729484.3, -15568.416, 0.056845192, -0.09192528, -1697295.8, 18166.332, 0.04664074, 10.001576, 9.998228 
5.350547e+2, 1.3495019e+2, -1610168.6, -1634190.5, -13887.099, -0.042371772, -0.07255203, -1603818.9, 13659.066, 0.03165111, 10.001369, 9.998138 
5.350331e+2, 1.4494763e+2, -1516177.3, -1548469.0, -5687.59, -0.11271696, -0.092722826, -1515204.9, 4297.141, 0.018118152, 10.001533, 9.997214 
5.350124e+2, 1.5494423e+2, -1410856.6, -1447857.9, -1850.449, -0.15322837, -0.15371278, -1410764.4, 10768.1045, 0.008324204, 10.002073, 9.997126 
5.3499186e+2, 1.6493975e+2, -1338946.8, -1395911.8, -9756.35, -0.11700835, -0.16346312, -1337322.1, -13746.838, 0.0029520427, 10.001735, 9.994155 
5.349713e+2, 1.7493431e+2, -1259688.0, -1307870.3, -18578.33, -0.0025854968, -0.122172095, -1253356.5, -27727.643, 0.00079126924, 10.000493, 9.994083 
5.349509e+2, 1.849278e+2, -1171632.9, -1223708.6, -17025.033, 0.048001897, -0.13685541, -1166560.9, -38868.918, 0.00015928307, 10.000207, 9.99328 
5.3493065e+2, 1.9492036e+2, -1063874.3, -1121530.9, -17132.088, 0.033341397, -0.210171, -1059167.9, -29404.324, 0.000024088195, 10.000893, 9.993228 
5.349099e+2, 2.0491284e+2, -981292.1, -1045615.44, -23169.65, 0.0108780665, -0.21638672, -973815.4, -41978.945, 0.000002741791, 10.000465, 9.991929 
5.3488874e+2, 2.149054e+2, -906092.8, -959001.8, -29637.908, -0.019133406, -0.1554917, -892820.1, -58910.8, 0.00000023528592, 9.9989195, 9.991901 
5.348688e+2, 2.2489771e+2, -802161.4, -846821.9, -19821.105, -0.054615933, -0.16293666, -794633.4, -58648.727, 0.000000015275107, 9.998834, 9.992907 
5.3485006e+2, 2.3488985e+2, -682831.9, -738478.4, -13293.489, -0.09670537, -0.24187493, -679819.25, -41757.867, 0.0000000006807148, 10.000285, 9.992903 
5.34831e+2, 2.4488235e+2, -598915.5, -661148.2, -21076.504, -0.08517898, -0.2195854, -592449.4, -52313.45, 0.00000000005656774, 9.999911, 9.991667 
5.3481156e+2, 2.5487527e+2, -533656.94, -578977.4, -30034.373, -0.01780549, -0.094453536, -518693.34, -76486.01, 0.000000000026357005, 9.997666, 9.991671 
5.347909e+2, 2.648675e+2, -462549.25, -482110.34, -39027.297, 0.036971897, -0.08683075, -432095.63, -87811.54, 0.00000000002066693, 9.995305, 9.992727 
5.34769e+2, 2.7485913e+2, -400520.53, -401373.53, -30705.342, 0.078950725, -0.20122235, -370238.72, -123872.86, 0.000000000014003002, 9.992831, 9.992729 
5.3474873e+2, 2.8485218e+2, -311248.84, -298521.25, -7527.115, 0.034486443, -0.21002556, -295028.3, -146595.23, 0.000000000007715369, 9.991845, 9.993529 
5.347302e+2, 2.9484662e+2, -205035.94, -196568.48, -7874.392, -0.101950586, -0.12108109, -191861.83, -141376.56, 0.0000000000033919358, 9.992401, 9.993523 
5.347158e+2, 3.048405e+2, -102293.26, -63521.953, 12536.325, -0.058585692, -0.33957922, -59821.613, -59821.613, 0.0000000000012133894, 9.993587, 9.998711 
5.347057e+2, 3.1484124e+2, -64115.6, -25002.313, 21118.365, 0.21469676, -0.14270608, -15776.19, -15776.19, 0.00000000000036743037, 9.9953375, 10.000506 
5.450779e+2, 1.2496987e+2, -1733120.6, -1742600.6, -6066.1025, 0.061291315, -0.12789257, -1730162.3, -14879.547, 0.059230343, 9.999563, 9.998309 
5.450559e+2, 1.3496844e+2, -1606075.4, -1631352.1, -7071.698, -0.06764767, -0.10193568, -1604231.4, 13065.971, 0.040506054, 10.001622, 9.998207 
5.450348e+2, 1.4496596e+2, -1505146.8, -1545292.1, -8301.429, -0.13007079, -0.10618452, -1503497.9, 15823.025, 0.023422638, 10.0023985, 9.997014 
5.4501474e+2, 1.5496261e+2, -1415468.4, -1452540.1, -13605.44, -0.1235523, -0.14208339, -1411011.1, 10340.19, 0.010902831, 10.001861, 9.99692 
5.449939e+2, 1.6495767e+2, -1345093.5, -1407040.1, -22254.525, -0.08044639, -0.15129551, -1337927.5, -14528.621, 0.003931347, 10.001662, 9.993443 
5.449725e+2, 1.7495129e+2, -1245692.5, -1309417.5, -19006.76, 0.00080053404, -0.13460176, -1240454.1, -14992.12, 0.0010759301, 10.0018015, 9.993343 
5.4495174e+2, 1.8494418e+2, -1155426.1, -1219977.4, -10586.729, 0.045741018, -0.1515435, -1153734.3, -26203.229, 0.00022220616, 10.001485, 9.992913 
5.449317e+2, 1.9493659e+2, -1068798.1, -1128202.0, -13427.186, 0.05222128, -0.20434831, -1065904.1, -36300.13, 0.00003466297, 10.000735, 9.99285 
5.4491085e+2, 2.0492846e+2, -975107.56, -1051407.0, -16693.0, 0.011727113, -0.2147574, -971615.25, -39932.16, 0.000004095217, 10.001262, 9.991149 
5.4488915e+2, 2.1491992e+2, -850660.5, -941067.94, -16369.887, -0.07608373, -0.18262081, -847787.75, -14021.061, 0.00000036841544, 10.003083, 9.991103 
5.448688e+2, 2.2491181e+2, -752085.0, -826012.06, -14221.041, -0.10505707, -0.17677543, -749443.7, -13597.186, 0.000000026348042, 10.002392, 9.992604 
5.4485005e+2, 2.349042e+2, -700974.9, -750639.6, -23194.395, -0.074155666, -0.19980134, -691827.44, -53906.09, 0.0000000022674176, 9.999179, 9.992616 
5.4482985e+2, 2.4489616e+2, -653732.0, -698826.4, -38081.9, -0.03312226, -0.16904078, -632023.06, -92021.55, 0.0000000009499688, 9.996632, 9.990692 
5.448082e+2, 2.548877e+2, -582542.06, -613882.8, -36621.574, 0.019303804, -0.08410926, -558379.06, -116292.4, 0.00000000075244344, 9.994795, 9.990681 
5.447857e+2, 2.648794e+2, -479909.88, -488538.6, -44171.03, 0.05097149, -0.09207526, -439843.0, -95674.67, 0.00000000059215455, 9.9940195, 9.992915 
5.447624e+2, 2.7487132e+2, -376156.94, -387309.0, -51280.94, 0.060715932, -0.19693184, -330149.78, -83903.91, 0.00000000040218157, 9.994389, 9.992953 
5.447412e+2, 2.8486452e+2, -284786.94, -284510.06, -33236.508, 0.012808929, -0.20862564, -251411.7, -103100.95, 0.00000000022185716, 9.99359, 9.993662 
5.447222e+2, 2.948589e+2, -216266.66, -200932.86, -30740.46, -0.09740478, -0.13739605, -176917.64, -126554.44, 0.00000000009757752, 9.99157, 9.993642 
5.447085e+2, 3.0485228e+2, -134268.05, -87275.805, -10862.701, -0.050408874, -0.38018155, -84886.3, -84886.3, 0.000000000034918485, 9.9917345, 9.997997 
5.4470044e+2, 3.1485364e+2, -80594.37, -30577.027, -26950.385, 0.21846806, -0.049193773, -18819.451, -18819.451, 0.0000000000105772014, 9.99408, 10.000765 
5.5507594e+2, 1.2498847e+2, -1736538.3, -1747799.1, 1097.0762, -0.09774737, -0.20367306, -1736432.4, -21335.549, 0.074291356, 9.999497, 9.997987 
5.550572e+2, 1.3498692e+2, -1609402.6, -1636715.8, 58.673656, -0.09554555, -0.1563098, -1609402.5, 7710.383, 0.051208895, 10.001564, 9.997867 
5.55038e+2, 1.4498375e+2, -1515824.4, -1566308.1, -10762.876, -0.055029433, -0.14142404, -1513625.5, 5518.3955, 0.029923854, 10.002347, 9.995606 
5.5501807e+2, 1.5497917e+2, -1425970.0, -1473587.3, -15985.073, 0.026966596, -0.16117981, -1421101.6, 86.34092, 0.014122169, 10.001835, 9.995498 
5.5499667e+2, 1.6497391e+2, -1338844.9, -1394084.4, -22014.123, 0.025512666, -0.1732715, -1331145.0, -7905.952, 0.0051836874, 10.001668, 9.994316 
5.549737e+2, 1.7496815e+2, -1239264.1, -1296454.8, -18728.037, -0.0600782, -0.17872337, -1233677.1, -8381.931, 0.0014511694, 10.001822, 9.994211 
5.549521e+2, 1.8496144e+2, -1160131.8, -1230186.5, -13605.198, -0.06625766, -0.16629691, -1157582.3, -30221.535, 0.0003083098, 10.001513, 9.9922 
5.5493194e+2, 1.9495393e+2, -1073676.8, -1138729.8, -16437.438, 0.0071310676, -0.13787279, -1069759.3, -40325.496, 0.000049821378, 10.000762, 9.992117 
5.5491203e+2, 2.0494533e+2, -973483.6, -1048760.5, -9682.124, 0.008892842, -0.16652223, -972258.25, -40740.81, 0.0000061767587, 10.001301, 9.991308 
5.548924e+2, 2.1493576e+2, -848592.56, -938331.9, -9323.885, -0.06256632, -0.25398433, -847634.06, -14023.962, 0.0000006211755, 10.003159, 9.991251 
5.548719e+2, 2.2492665e+2, -768356.94, -860933.8, -26380.67, -0.045423713, -0.23278339, -761367.25, -25666.975, 0.00000007827, 10.002446, 9.990191 
5.548506e+2, 2.3491818e+2, -718384.44, -786304.06, -35733.164, 0.06251623, -0.10188256, -703047.94, -65261.496, 0.000000032518262, 9.999165, 9.990186 
5.548275e+2, 2.449092e+2, -651434.44, -692678.25, -45114.664, 0.07917166, -0.06436611, -622451.94, -82575.89, 0.000000026464987, 9.996573, 9.991136 
5.548028e+2, 2.5489974e+2, -580103.3, -607465.25, -43527.785, 0.0022126487, -0.12650405, -548157.1, -106188.125, 0.000000023330932, 9.994739, 9.991141 
5.5477864e+2, 2.648904e+2, -494323.72, -517753.78, -42761.316, -0.06157265, -0.16198026, -461701.72, -117641.695, 0.00000001934484, 9.993995, 9.990931 
5.547551e+2, 2.748813e+2, -389501.47, -415929.97, -50126.79, -0.112021446, -0.16632491, -350876.44, -104728.21, 0.000000013770028, 9.9944315, 9.990975 
5.547335e+2, 2.8487426e+2, -280802.53, -277621.5, -41767.9, -0.119588174, -0.12554134, -237413.84, -89198.16, 0.000000007982015, 9.9936495, 9.9941025 
5.547139e+2, 2.9486912e+2, -213182.88, -194550.1, -39258.01, -0.08328217, -0.05759214, -163518.17, -113254.63, 0.000000003741015, 9.9915695, 9.994078 
5.547006e+2, 3.0485976e+2, -164623.9, -149977.14, -3454.6677, -0.010725303, -0.37543628, -149203.2, -149203.2, 0.0000000014685181, 9.991741, 9.99369 
5.546941e+2, 3.1485716e+2, -102360.36, -75823.58, -20336.486, 0.17312412, -0.013482764, -64809.82, -64809.82, 0.00000000051191795, 9.994103, 9.99764 
5.6507677e+2, 1.250071e+2, -1684416.3, -1724649.6, -472.5294, -0.15380245, -0.21403259, -1684410.8, 30501.383, 0.0922563, 10.003406, 9.997659 
5.6505907e+2, 1.3500503e+2, -1604597.9, -1638124.4, -1737.3427, -0.095771596, -0.1866046, -1604508.1, 12424.928, 0.06410758, 10.002084, 9.997524 
5.6503993e+2, 1.450016e+2, -1534701.9, -1575915.6, -11414.372, -0.029373493, -0.17750405, -1531751.8, -12785.165, 0.037870433, 10.001062, 9.995579 
5.6501937e+2, 1.5499707e+2, -1448417.0, -1485101.8, -6441.8677, 0.048576236, -0.18850042, -1447318.8, -26308.19, 0.01813285, 10.00033, 9.9954405 
5.649981e+2, 1.6499165e+2, -1351909.1, -1403887.5, -5659.5615, 0.04093269, -0.19665873, -1351300.1, -28236.719, 0.0067834645, 10.000926, 9.994005 
5.6497616e+2, 1.749856e+2, -1226386.8, -1293840.4, -11587.631, -0.053989075, -0.20349585, -1224451.6, 671.0429, 0.0019464039, 10.002856, 9.993888 
5.649548e+2, 1.8497834e+2, -1126322.9, -1222547.1, -15193.58, -0.07841508, -0.18929532, -1123980.9, 3212.8682, 0.00042713358, 10.004193, 9.991423 
5.6493443e+2, 1.9497009e+2, -1018234.9, -1120807.1, -18761.078, -0.030687632, -0.15490678, -1014911.06, 14363.328, 0.00007246266, 10.004928, 9.991321 
5.649142e+2, 2.0496134e+2, -939207.94, -1028792.25, -14998.419, -0.010700942, -0.17177325, -936763.56, -5403.807, 0.000010115209, 10.003489, 9.9916115 
5.6489444e+2, 2.1495226e+2, -893886.06, -957138.9, -13696.259, -0.02068732, -0.24290974, -891047.75, -57599.723, 0.0000016665724, 9.999922, 9.991541 
5.6487274e+2, 2.2494267e+2, -837442.56, -907642.44, -27925.744, 0.0030525231, -0.22486554, -827688.8, -92145.75, 0.0000006796611, 9.99829, 9.989019 
5.648495e+2, 2.349328e+2, -734109.44, -807434.6, -28090.484, 0.06306885, -0.115405574, -724585.2, -86942.12, 0.0000005139918, 9.998662, 9.988984 
5.648248e+2, 2.4492311e+2, -621637.0, -679504.5, -33349.363, 0.0513015, -0.08319433, -606419.4, -66679.88, 0.00000044990537, 9.998645, 9.991031 
5.647989e+2, 2.5491363e+2, -527825.8, -583264.7, -36191.305, -0.035511974, -0.13654174, -509958.22, -68126.35, 0.000000403286, 9.998341, 9.991054 
5.647742e+2, 2.6490337e+2, -443215.53, -509817.8, -30435.557, -0.102460414, -0.18567598, -431402.5, -87471.18, 0.00000033803593, 9.998194, 9.989448 
5.64751e+2, 2.7489245e+2, -343441.4, -410383.16, -33840.383, -0.14894052, -0.223018, -329315.3, -83278.03, 0.00000024291745, 9.998282, 9.989497 
5.647285e+2, 2.8488424e+2, -248325.64, -278631.47, -42439.41, -0.1306263, -0.152586, -218415.11, -70298.52, 0.0000001422259, 9.996569, 9.992629 
5.647066e+2, 2.9487848e+2, -203026.44, -206629.83, -54868.094, -0.043736316, 0.003244946, -149930.47, -99759.016, 0.00000006748614, 9.992984, 9.992575 
5.6469214e+2, 3.0486694e+2, -189159.64, -180128.11, -2970.024, 0.015303317, -0.3785364, -179238.95, -179238.95, 0.000000026927834, 9.990837, 9.992066 
5.646859e+2, 3.1486204e+2, -162762.77, -106090.375, 1650.1079, 0.14044075, -0.084327646, -106042.37, -106042.37, 0.000000009586422, 9.990009, 9.997534 
5.7508063e+2, 1.2502603e+2, -1689914.3, -1731368.1, -5997.7563, -0.11263275, -0.16030136, -1689063.9, 25661.973, 0.113705724, 10.003224, 9.997289 
5.750614e+2, 1.3502298e+2, -1608918.9, -1644418.0, -7314.8345, -0.06972706, -0.194001, -1607470.8, 9284.94, 0.07967678, 10.001972, 9.997147 
5.7504076e+2, 1.4501971e+2, -1526256.6, -1557075.5, -14794.347, -0.05285597, -0.21472874, -1520304.4, -1517.358, 0.047610383, 10.001005, 9.996881 
5.7501864e+2, 1.5501651e+2, -1439700.3, -1466456.8, -9746.196, -0.05917383, -0.22351049, -1436526.6, -15709.316, 0.023155462, 10.000306, 9.996714 
5.749983e+2, 1.6501106e+2, -1362910.6, -1426287.3, 1175.6975, -0.034312785, -0.22073963, -1362888.8, -40018.453, 0.008849489, 10.00093, 9.992478 
5.749797e+2, 1.7500366e+2, -1237205.1, -1316318.9, -4651.445, 0.02001693, -0.20853367, -1236932.5, -11989.305, 0.0026176805, 10.002877, 9.992345 
5.7495993e+2, 1.8499492e+2, -1132116.3, -1235169.5, -12660.435, 0.010099126, -0.22101966, -1130583.6, -3554.4836, 0.0006045793, 10.004232, 9.9905405 
5.749391e+2, 1.9498508e+2, -1023917.5, -1133775.3, -16266.667, -0.063039966, -0.2589519, -1021559.5, 7566.205, 0.00011652565, 10.0049925, 9.990402 
5.749174e+2, 2.049765e+2, -935425.56, -1021904.44, -28826.006, -0.04983858, -0.23284134, -926697.8, 4512.422, 0.00002526278, 10.003529, 9.992055 
5.74895e+2, 2.1496944e+2, -890999.0, -950900.6, -27557.012, 0.049179144, -0.14540327, -880250.44, -46970.17, 0.000010693075, 9.99991, 9.991965 
5.7487136e+2, 2.249599e+2, -837028.44, -906065.75, -26352.771, 0.038211606, -0.14998494, -828118.94, -92744.47, 0.00000770148, 9.998266, 9.989136 
5.748467e+2, 2.3494805e+2, -733400.5, -805871.06, -26434.172, -0.08271138, -0.24779938, -724783.1, -87291.86, 0.0000064818314, 9.998665, 9.989085 
5.748217e+2, 2.4493787e+2, -626512.4, -690006.2, -34053.344, -0.12757006, -0.23403618, -611702.94, -72111.19, 0.0000058113856, 9.998666, 9.990302 
5.747967e+2, 2.5492942e+2, -531954.25, -593278.5, -37077.176, -0.096777, -0.11173221, -514503.16, -72828.375, 0.0000052800024, 9.998408, 9.990334 
5.747729e+2, 2.6491836e+2, -448492.38, -522978.88, -29926.09, -0.067256846, -0.15948096, -437958.75, -94176.836, 0.00000447022, 9.998291, 9.9885 
5.7475054e+2, 2.749047e+2, -348487.25, -423373.5, -33343.047, -0.03845081, -0.3757414, -335793.1, -89879.6, 0.000003242424, 9.998394, 9.988554 
5.747264e+2, 2.8489426e+2, -272383.78, -330750.2, -56052.914, -0.008659623, -0.30260912, -238372.14, -90356.9, 0.000001918676, 9.996661, 9.989017 
5.747003e+2, 2.9488674e+2, -227637.23, -259371.25, -68608.5, 0.02294982, 0.04129708, -173084.86, -122994.914, 0.00000092272774, 9.993055, 9.98893 
5.746831e+2, 3.0487353e+2, -179305.9, -159961.56, -7073.129, 0.024776006, -0.3904351, -157651.25, -157651.25, 0.00000037453188, 9.990862, 9.993428 
5.746756e+2, 3.148686e+2, -141106.86, -58618.934, -1606.1001, 0.11946123, -0.24556863, -58587.67, -58587.67, 0.00000013607628, 9.989913, 10.000829 
5.8508164e+2, 1.2504272e+2, -1755389.3, -1754241.4, -15415.5625, -0.06675941, -0.16479293, -1739389.1, -24828.176, 0.13953742, 9.998092, 9.998244 
5.8506227e+2, 1.3504043e+2, -1633398.3, -1646504.9, -7120.101, -0.06591769, -0.21516427, -1630274.6, -13692.314, 0.09869721, 9.999809, 9.99806 
5.85042e+2, 1.450375e+2, -1515647.4, -1553331.8, -13152.982, -0.06527874, -0.24056214, -1511510.8, 7099.5854, 0.059769228, 10.001821, 9.996744 
5.850208e+2, 1.5503424e+2, -1386285.3, -1441752.4, -18836.844, -0.062395096, -0.24295199, -1380493.0, 40148.65, 0.029642953, 10.004088, 9.9965725 
5.850012e+2, 1.6502862e+2, -1308588.0, -1403520.1, -10126.986, -0.03444813, -0.23342408, -1307519.6, 15177.069, 0.011680452, 10.004797, 9.992156 
5.849831e+2, 1.7502096e+2, -1223844.5, -1313882.3, -7227.5864, 0.017526917, -0.21339414, -1223268.0, 1504.3866, 0.0036541303, 10.003962, 9.991989 
5.849637e+2, 1.8501195e+2, -1150350.9, -1244892.3, -10592.618, 0.021258915, -0.23041853, -1149178.6, -22317.521, 0.0009656299, 10.003024, 9.990466 
5.84943e+2, 1.9500186e+2, -1068334.1, -1156526.4, -8431.189, -0.023519324, -0.2855468, -1067535.4, -38575.45, 0.0002730228, 10.002011, 9.990295 
5.849203e+2, 2.0499298e+2, -964904.6, -1043537.94, -27364.125, -0.024600808, -0.25032914, -956319.3, -25271.559, 0.00012365509, 10.001824, 9.9914055 
5.8489585e+2, 2.1498564e+2, -858220.5, -942591.75, -34840.93, 0.019716337, -0.12653455, -845693.06, -12571.484, 0.00008725226, 10.002469, 9.991294 
5.848715e+2, 2.2497568e+2, -769951.25, -874946.5, -31637.545, -0.010388191, -0.13297832, -761155.06, -25935.387, 0.000071717135, 10.002899, 9.989022 
5.848473e+2, 2.3496331e+2, -667306.6, -775291.7, -33808.223, -0.11687359, -0.27238113, -657595.25, -20255.21, 0.00006251008, 10.003235, 9.98897 
5.8482176e+2, 2.4495229e+2, -588446.9, -688435.75, -51985.258, -0.15305488, -0.26179782, -566317.06, -26868.918, 0.000057067246, 10.001976, 9.988825 
5.847953e+2, 2.5494274e+2, -530300.4, -609262.7, -61152.477, -0.11709042, -0.10236829, -496991.53, -55448.953, 0.000052431642, 9.999221, 9.988873 
5.847702e+2, 2.6493117e+2, -479919.63, -535389.44, -52791.434, -0.054931592, -0.14283672, -448020.97, -104365.95, 0.0000447377, 9.995997, 9.988783 
5.847468e+2, 2.7491754e+2, -432543.56, -460683.9, -46612.082, 0.034114346, -0.38447875, -397924.34, -152138.2, 0.0000326997, 9.992479, 9.988875 
5.847213e+2, 2.8490624e+2, -363671.2, -397282.88, -56286.305, 0.07899239, -0.31361452, -321735.38, -173838.89, 0.000019537574, 9.991361, 9.987036 
5.846938e+2, 2.9489693e+2, -245767.81, -291128.7, -55905.527, 0.077395946, 0.05153666, -208117.23, -158127.31, 0.000009515296, 9.992772, 9.986899 
5.8467394e+2, 3.0488235e+2, -173441.61, -155328.58, 453.12695, 0.010429828, -0.4238015, -155317.25, -155317.25, 0.00000392331, 9.991155, 9.993611 
5.8466285e+2, 3.148776e+2, -178876.67, -50242.414, -3558.6091, 0.03582092, -0.28915724, -50144.043, -50144.043, 0.0000014506953, 9.986152, 10.003227 
5.9508026e+2, 1.2505764e+2, -1741990.8, -1723402.4, -9962.651, -0.016715117, -0.22640759, -1719071.8, -4659.038, 0.17144567, 9.997958, 10.000399 
5.950619e+2, 1.350578e+2, -1619770.3, -1616389.5, -1665.8539, -0.08487797, -0.24853607, -1615706.5, 702.94775, 0.12279743, 9.999727, 10.000148 
5.9504384e+2, 1.4505528e+2, -1527531.5, -1576891.4, -5806.239, -0.06751454, -0.25453216, -1526857.6, -8423.938, 0.075828195, 10.001766, 9.995164 
5.950259e+2, 1.5505052e+2, -1398133.9, -1465092.6, -11401.602, 0.037779365, -0.2476231, -1396245.8, 24235.37, 0.038852036, 10.00405, 9.994994 
5.9500664e+2, 1.6504456e+2, -1303300.0, -1391552.6, -13998.882, 0.03851533, -0.2349648, -1301132.8, 21407.568, 0.016277725, 10.004775, 9.992975 
5.9498626e+2, 1.7503768e+2, -1218373.6, -1302251.4, -11024.072, -0.06429101, -0.21810022, -1216948.9, 7659.402, 0.005831778, 10.003959, 9.992775 
5.9496605e+2, 1.8502958e+2, -1145355.1, -1234490.1, -14885.918, -0.046596784, -0.21676794, -1142934.9, -16247.023, 0.0021221843, 10.003028, 9.991166 
5.949461e+2, 1.950206e+2, -1063371.5, -1146281.3, -12626.057, 0.08985008, -0.23209304, -1061491.4, -32715.844, 0.0010450352, 10.002019, 9.990983 
5.94923e+2, 2.0501089e+2, -977732.7, -1070183.6, -24990.26, 0.06583914, -0.22248907, -971410.06, -40538.598, 0.00073326053, 10.001842, 9.98958 
5.9489703e+2, 2.150008e+2, -870701.94, -969564.5, -32674.28, -0.116077825, -0.19046669, -860879.0, -27906.506, 0.0006019394, 10.00253, 9.989422 
5.94873e+2, 2.2498988e+2, -771456.94, -879830.8, -30419.803, -0.1488911, -0.17671695, -763502.2, -28422.518, 0.00051879784, 10.002979, 9.988649 
5.948514e+2, 2.349785e+2, -668837.3, -780308.94, -32833.668, -0.03495538, -0.18212153, -659885.2, -22695.186, 0.00046389, 10.003319, 9.988585 
5.9482515e+2, 2.4496625e+2, -604319.2, -722264.9, -62686.195, -0.017111246, -0.15806587, -577226.0, -37916.043, 0.00043008235, 10.00202, 9.986492 
5.9479475e+2, 2.5495324e+2, -546815.5, -643480.0, -72505.34, -0.094831884, -0.11013575, -508009.75, -66571.164, 0.00039828735, 9.999228, 9.986529 
5.94766e+2, 2.649414e+2, -469811.16, -512817.4, -67001.52, -0.06921426, -0.13691631, -420946.75, -77392.38, 0.00034149023, 9.995915, 9.990365 
5.947394e+2, 2.7493083e+2, -423024.94, -437477.72, -60818.35, 0.062369272, -0.23409197, -369005.2, -123348.43, 0.00025105127, 9.992321, 9.990537 
5.9471303e+2, 2.8492028e+2, -367152.2, -401283.8, -50846.51, 0.12586667, -0.16907199, -330583.97, -182823.55, 0.00015132778, 9.991216, 9.986837 
5.946869e+2, 2.949091e+2, -247637.52, -295033.1, -49587.355, 0.11558373, 0.029911123, -216376.31, -166504.42, 0.00007459596, 9.992768, 9.986638 
5.9466475e+2, 3.0489337e+2, -181496.45, -172798.25, -18607.059, -0.034646515, -0.48091483, -158038.78, -158038.78, 0.00003120614, 9.9911995, 9.992382 
5.946473e+2, 3.1488922e+2, -171288.14, -32222.48, -23030.91, -0.12958005, -0.16947976, -28507.53, -28507.53, 0.000011710986, 9.986069, 10.004492 
6.0507935e+2, 1.2507465e+2, -1683117.1, -1698864.9, 7502.0303, -0.12910786, -0.26667583, -1680115.4, 34128.426, 0.21280721, 10.002702, 10.0000305 
6.050631e+2, 1.3507453e+2, -1590460.1, -1605620.0, -558.25165, -0.058098655, -0.28295782, -1590439.6, 25804.197, 0.15556723, 10.002202, 9.999807 
6.050461e+2, 1.450719e+2, -1530611.3, -1579134.4, -7533.71, -0.0040339036, -0.2795805, -1529468.5, -11199.018, 0.099434175, 10.001582, 9.995108 
6.0502833e+2, 1.5506722e+2, -1444420.3, -1489102.8, -2311.3403, 0.03864, -0.2585881, -1444301.0, -23984.22, 0.054272342, 10.000875, 9.9949045 
6.050098e+2, 1.6506116e+2, -1347076.8, -1415741.6, -3282.6658, 0.016713815, -0.23779023, -1346920.1, -24542.86, 0.025795627, 10.001887, 9.992733 
6.049904e+2, 1.7505406e+2, -1211920.8, -1301890.6, -8784.631, -0.0697683, -0.21906047, -1211071.0, 13376.507, 0.0119093405, 10.004526, 9.992529 
6.049702e+2, 1.8504599e+2, -1105921.6, -1212263.8, -24523.156, -0.059213016, -0.21714368, -1100538.9, 25988.088, 0.006480836, 10.005587, 9.991446 
6.049493e+2, 1.9503728e+2, -1016077.56, -1120626.9, -25976.02, 0.047436345, -0.23256123, -1009979.4, 18632.508, 0.0045636888, 10.005125, 9.991234 
6.04926e+2, 2.0502715e+2, -937718.7, -1061359.1, -32213.559, 0.01638028, -0.22886235, -929829.1, 882.57166, 0.003765903, 10.005029, 9.988643 
6.0490066e+2, 2.1501599e+2, -836556.7, -963970.4, -33787.613, -0.15140694, -0.2086766, -828151.4, 4671.568, 0.0032810557, 10.005333, 9.98845 
6.0487646e+2, 2.2500442e+2, -756987.1, -875401.0, -33964.117, -0.15748593, -0.1998422, -747937.06, -13001.02, 0.0029217969, 10.00407, 9.988426 
6.0485405e+2, 2.3499285e+2, -699947.7, -798448.2, -35883.793, -0.002515702, -0.20250447, -688261.6, -51214.19, 0.002671722, 10.001318, 9.988317 
6.0482717e+2, 2.4497923e+2, -630285.44, -754769.2, -59115.13, 0.02331797, -0.20957421, -606686.5, -67506.75, 0.0025068116, 10.001098, 9.984721 
6.0479635e+2, 2.549638e+2, -494852.47, -638094.56, -65140.777, -0.07967963, -0.22845663, -469659.78, -28328.563, 0.0023299293, 10.003621, 9.984773 
6.047648e+2, 2.6495048e+2, -387622.9, -492896.88, -84578.91, -0.08977366, -0.2311631, -340639.4, 2823.1123, 0.00200011, 10.002365, 9.9886265 
6.047336e+2, 2.7493936e+2, -356955.3, -424409.75, -104698.15, -0.0044023166, -0.20989858, -280686.03, -35113.617, 0.0014759091, 9.997611, 9.988915 
6.0470444e+2, 2.8492874e+2, -341855.78, -382283.13, -94657.92, 0.082869135, -0.106622525, -265277.3, -117599.31, 0.0008966465, 9.992608, 9.987513 
6.0467774e+2, 2.9491773e+2, -317625.6, -322117.28, -85762.9, 0.16730951, 0.04411575, -234079.14, -184291.53, 0.0004470389, 9.987658, 9.987296 
6.046529e+2, 3.0490246e+2, -281963.34, -218622.16, -53631.79, 0.0023982644, -0.46921682, -188007.95, -188007.95, 0.00018945981, 9.984176, 9.992665 
6.046309e+2, 3.1489918e+2, -210872.1, -19094.201, -46240.2, -0.18004644, -0.108406134, -8527.307, -8527.307, 0.00007194198, 9.981929, 10.007418 
6.1507934e+2, 1.2509423e+2, -1700768.9, -1735957.0, 4552.0093, -0.4030151, -0.28431344, -1700189.5, 13860.23, 0.2696146, 10.002632, 9.99726 
6.1506605e+2, 1.3509113e+2, -1608065.0, -1643527.4, -4115.821, 0.014958551, -0.3198748, -1607593.6, 8486.542, 0.20394264, 10.002148, 9.997119 
6.1504894e+2, 1.4508791e+2, -1521518.3, -1559173.5, -11641.688, 0.12313715, -0.31556174, -1518209.8, -97.47518, 0.13826159, 10.001537, 9.996479 
6.150282e+2, 1.5508479e+2, -1435787.9, -1470159.1, -6037.8335, -0.061166584, -0.27409536, -1434758.0, -14613.982, 0.08394125, 10.000835, 9.996204 
6.150105e+2, 1.6507879e+2, -1357614.8, -1436106.1, 5635.195, -0.09923864, -0.2404081, -1357212.1, -35008.207, 0.048221588, 10.001848, 9.9913645 
6.149957e+2, 1.750704e+2, -1221964.8, -1321977.5, 200.96333, 0.003074263, -0.2160575, -1221964.4, 2322.9312, 0.029541096, 10.004509, 9.991166 
6.149763e+2, 1.8506135e+2, -1107970.1, -1215521.8, -26878.49, -0.017396837, -0.23138437, -1101626.9, 24749.514, 0.021258509, 10.005585, 9.99122 
6.149524e+2, 1.95052e+2, -1017915.4, -1124262.8, -28312.148, -0.15683353, -0.28843775, -1010847.7, 17620.227, 0.017617602, 10.005149, 9.990969 
6.149291e+2, 2.0504184e+2, -937983.4, -1062357.9, -31448.848, -0.17721958, -0.27001196, -930483.56, 84.37383, 0.0156066, 10.005055, 9.988559 
6.1490667e+2, 2.1503131e+2, -836684.44, -965097.6, -32935.008, -0.08159178, -0.17815354, -828730.1, 3942.0535, 0.014123979, 10.005382, 9.988346 
6.148818e+2, 2.250193e+2, -757290.56, -876828.56, -44603.715, -0.030768491, -0.20129807, -742481.94, -7693.3516, 0.012929066, 10.00411, 9.988301 
6.148552e+2, 2.3500621e+2, -701735.3, -801521.44, -46958.535, -0.024022436, -0.34129584, -683112.5, -46198.984, 0.012047257, 10.001297, 9.988109 
6.148276e+2, 2.4499106e+2, -639493.6, -772690.7, -48981.53, -0.0388182, -0.42828372, -623420.75, -84361.625, 0.011392275, 10.001062, 9.983512 
6.1480004e+2, 2.549742e+2, -502021.97, -655040.0, -55871.48, -0.07559282, -0.46819, -483793.2, -42571.023, 0.01057991, 10.003729, 9.983557 
6.14767e+2, 2.649579e+2, -424286.56, -571898.06, -102985.23, -0.123084225, -0.43483263, -371390.9, -28007.916, 0.009058191, 10.002468, 9.983189 
6.1472964e+2, 2.7494225e+2, -393018.84, -502612.94, -124486.92, -0.18128446, -0.32631814, -311802.25, -66261.04, 0.0066925935, 9.997747, 9.983514 
6.1469567e+2, 2.8493062e+2, -329738.1, -358349.75, -115901.64, -0.0632195, -0.13823247, -227262.73, -79603.69, 0.0040930337, 9.992635, 9.989148 
6.1466587e+2, 2.9492208e+2, -308174.03, -299132.4, -106361.58, 0.23098327, 0.09671738, -197195.61, -147450.83, 0.0020625037, 9.987493, 9.9889555 
6.1463815e+2, 3.04909e+2, -271929.84, -192265.52, -63199.41, 0.1281881, -0.38156706, -157393.16, -157393.16, 0.0008844042, 9.983925, 9.9945965 
6.1461335e+2, 3.14907e+2, -180792.77, 47224.918, -54814.426, -0.111477576, -0.09268644, 59717.61, 59717.61, 0.00033890334, 9.981744, 10.012072 
6.250872e+2, 1.2511054e+2, -1667744.8, -1705263.1, -18518.457, -0.036966443, -0.26715544, -1660144.1, 53746.617, 0.35077748, 10.005801, 9.998122 
6.250669e+2, 1.3510853e+2, -1641833.3, -1652164.3, -12258.004, 0.030960029, -0.27856153, -1633696.9, -17786.1, 0.27896768, 9.999312, 9.99791 
6.2504846e+2, 1.4510576e+2, -1549175.0, -1571153.5, 11705.649, 0.017976997, -0.2730931, -1544108.5, -26170.209, 0.20535691, 9.999589, 9.996616 
6.250316e+2, 1.5510257e+2, -1364412.0, -1429348.6, 6640.5107, -0.073138796, -0.2525397, -1363739.9, 56230.285, 0.14253984, 10.006243, 9.9963665 
6.250161e+2, 1.6509637e+2, -1263416.3, -1388374.0, 9895.403, -0.06574934, -0.24326937, -1262637.5, 59394.195, 0.09932426, 10.008742, 9.991269 
6.250019e+2, 1.750876e+2, -1186193.3, -1304555.6, 13567.935, 0.03593963, -0.2462399, -1184657.9, 39460.645, 0.07500495, 10.007208, 9.991044 
6.2498194e+2, 1.8507916e+2, -1108797.3, -1204345.8, -12419.947, 0.020413233, -0.24378507, -1107209.3, 18992.639, 0.06279742, 10.005081, 9.992215 
6.2495667e+2, 1.9507141e+2, -1051435.3, -1129739.9, -5357.0513, -0.106740065, -0.23901474, -1051070.5, -22792.23, 0.056369856, 10.002357, 9.991934 
6.2493336e+2, 2.0506196e+2, -972828.1, -1072556.6, 10120.22, -0.12693526, -0.22677171, -971811.5, -41440.188, 0.0520979, 10.002378, 9.989147 
6.249123e+2, 2.1505126e+2, -837339.25, -959232.0, 12982.042, -0.043202367, -0.20761783, -835971.94, -3495.637, 0.048551686, 10.005059, 9.988883 
6.248872e+2, 2.2503847e+2, -744084.0, -894101.94, -16073.807, 0.0006503797, -0.23044355, -742381.1, -7780.293, 0.045470644, 10.006019, 9.98618 
6.2485874e+2, 2.3502399e+2, -655862.06, -803347.9, -34349.38, 0.0057991864, -0.2971754, -648254.5, -11514.342, 0.042990033, 10.0054455, 9.985971 
6.2483084e+2, 2.4500826e+2, -578258.94, -736941.56, -25701.602, -0.0070302687, -0.36289907, -574199.94, -35308.45, 0.040806673, 10.004936, 9.984093 
6.2480456e+2, 2.5499168e+2, -486158.63, -641771.06, -20255.367, -0.03924901, -0.43285412, -483565.3, -42514.535, 0.03771771, 10.004514, 9.984095 
6.247705e+2, 2.6497325e+2, -425716.44, -615057.94, -65639.586, -0.107447945, -0.44449398, -405186.9, -61955.395, 0.03207667, 10.004187, 9.979374 
6.2473047e+2, 2.749532e+2, -317723.22, -507513.8, -75132.125, -0.21007949, -0.3974359, -291581.53, -46148.742, 0.023647701, 10.004654, 9.979799 
6.2469083e+2, 2.8493905e+2, -239261.53, -323977.22, -90175.88, -0.12566389, -0.22937496, -181990.67, -34416.4, 0.014527997, 9.999191, 9.988291 
6.24653e+2, 2.9492995e+2, -300622.88, -304554.88, -99813.9, 0.14645885, 0.028760087, -202755.61, -153090.03, 0.007390215, 9.988364, 9.98814 
6.24618e+2, 3.0491817e+2, -374338.72, -219269.97, -66517.016, 0.106335044, -0.37703523, -194647.14, -194647.14, 0.003201734, 9.975944, 9.996594 
6.245872e+2, 3.1491798e+2, -437216.94, -24535.979, -56436.62, 0.04025665, -0.12455569, -16957.113, -16957.113, 0.0012352814, 9.962008, 10.016664 
6.350663e+2, 1.3512713e+2, -1658683.6, -1622223.1, -35612.637, 0.04880146, -0.20405765, -1600445.9, 15285.699, 0.39615747, 9.996449, 10.00182 
6.350453e+2, 1.4512593e+2, -1594282.1, -1605778.9, 32224.465, -0.25430048, -0.16911489, -1567297.3, -49554.58, 0.31961146, 9.997098, 9.99548 
6.3503873e+2, 1.5512107e+2, -1386726.0, -1451827.9, 25212.838, 0.018801382, -0.20309469, -1378103.5, 41686.387, 0.25216076, 10.005484, 9.995302 
6.350267e+2, 1.6511436e+2, -1264780.4, -1372725.1, 2037.9694, 0.11207518, -0.24937016, -1264741.9, 57113.66, 0.20388031, 10.008679, 9.9923525 
6.35009e+2, 1.7510608e+2, -1184800.0, -1289508.0, 6231.783, 0.02224384, -0.31237087, -1184430.4, 39506.707, 0.17495866, 10.007157, 9.992082 
6.349873e+2, 1.8509978e+2, -1098700.1, -1173300.5, -22091.701, 0.04952094, -0.25522986, -1092648.9, 33350.785, 0.15887901, 10.005034, 9.994373 
6.349621e+2, 1.9509582e+2, -1036404.5, -1098265.6, -15904.216, 0.1989779, -0.08514586, -1032555.1, -4515.566, 0.14924416, 10.002342, 9.994075 
6.3493866e+2, 2.0508778e+2, -963888.06, -1054224.6, 20239.09, 0.16619286, -0.10108442, -959560.94, -29441.941, 0.14197227, 10.002401, 9.99038 
6.349174e+2, 2.1507612e+2, -829506.5, -941760.5, 22774.047, -0.047030363, -0.30405763, -825062.06, 7171.0815, 0.13530965, 10.005117, 9.990043 
6.348925e+2, 2.2506212e+2, -773260.25, -955803.44, -17700.678, -0.07291546, -0.28923854, -771559.7, -37189.004, 0.12897071, 10.006092, 9.981932 
6.348651e+2, 2.3504637e+2, -684048.8, -864494.25, -36146.977, 0.08604573, -0.0597141, -677077.2, -40551.52, 0.123189695, 10.005581, 9.9817295 
6.3483715e+2, 2.4503103e+2, -561168.4, -701991.44, -27119.367, 0.12179054, 0.006926247, -556126.3, -17451.463, 0.116992496, 10.004954, 9.986468 
6.3480973e+2, 2.5501645e+2, -470070.97, -608063.0, -23337.152, 0.027430678, -0.101097554, -466231.06, -25415.926, 0.10726553, 10.004489, 9.986408 
6.3477534e+2, 2.6499692e+2, -439202.88, -643055.1, -62801.97, -0.040480763, -0.24413079, -421408.4, -78403.54, 0.090200104, 10.00417, 9.977483 
6.347366e+2, 2.7497268e+2, -327737.66, -532182.94, -72976.82, -0.0779503, -0.42004526, -304361.4, -59119.766, 0.06601464, 10.00481, 9.978044 
6.3469046e+2, 2.8495464e+2, -262557.13, -375723.22, -130649.63, -0.098962784, -0.38790813, -176764.03, -29345.32, 0.04056895, 9.999284, 9.984718 
6.346387e+2, 2.9494148e+2, -326393.66, -357610.3, -140777.61, -0.10991057, -0.17682748, -200361.77, -150813.47, 0.020774145, 9.988298, 9.98456 
6.3459164e+2, 3.0493018e+2, -364534.53, -190482.47, -121254.66, -0.09054926, -0.46639085, -128256.29, -128256.29, 0.009074326, 9.975533, 9.998767 
6.345505e+2, 3.1493264e+2, -419537.44, 33000.75, -109735.63, 0.2631741, -0.17715648, 58206.527, 58206.527, 0.0035179954, 9.961052, 10.021094 
6.450294e+2, 1.6512838e+2, -1338199.9, -1342180.5, -30749.54, -0.030473802, -0.23018901, -1309376.3, 12342.597, 0.39241174, 9.999748, 9.999014 
6.4501107e+2, 1.7512767e+2, -1306414.8, -1278725.4, 10192.759, 0.12022315, -0.20615794, -1275378.0, -51652.55, 0.36169916, 9.995087, 9.998671 
6.449886e+2, 1.8512306e+2, -1211784.8, -1247383.8, 8947.84, 0.043750647, -0.22929995, -1209662.3, -83891.0, 0.3430697, 9.997654, 9.992876 
6.4496225e+2, 1.9511524e+2, -994440.5, -1086672.8, -10158.828, -0.25290495, -0.29928178, -993334.9, 34514.61, 0.3309626, 10.007081, 9.992593 
6.4493984e+2, 2.0510684e+2, -884331.6, -1010389.3, -10236.12, -0.31260324, -0.2509821, -883505.8, 46427.164, 0.3208816, 10.009556, 9.989918 
6.4492166e+2, 2.1509837e+2, -830175.1, -946462.94, -21739.21, -0.14509462, -0.0918622, -826244.0, 5773.0796, 0.31065345, 10.005376, 9.989624 
6.4489806e+2, 2.2508746e+2, -735747.8, -855662.3, -16701.803, -0.08199658, -0.11177575, -733465.06, 658.6279, 0.29976076, 10.005145, 9.98922 
6.448701e+2, 2.3507474e+2, -606544.1, -740994.8, 46447.066, -0.12226306, -0.3038524, -592059.1, 44187.76, 0.28817573, 10.008548, 9.988775 
6.448424e+2, 2.4505742e+2, -554274.94, -803249.3, 50830.063, -0.08925186, -0.3063675, -544297.44, -5880.613, 0.2731296, 10.0099535, 9.977096 
6.4481646e+2, 2.550364e+2, -461533.03, -703698.8, -37171.9, 0.009887978, -0.12796725, -455955.66, -15330.958, 0.24762368, 10.009352, 9.977576 
6.4478266e+2, 2.650153e+2, -354561.72, -575765.1, -93001.73, 0.025730405, -0.11764575, -320657.16, 22174.697, 0.2047349, 10.009255, 9.9797 
6.447447e+2, 2.7499333e+2, -231248.95, -459524.06, -73517.52, -0.037976533, -0.285427, -209621.23, 35424.184, 0.14762199, 10.010796, 9.980156 
6.446911e+2, 2.8497708e+2, -204551.34, -314924.5, -148490.38, -0.09542895, -0.3222546, -101324.07, 45878.613, 0.09009316, 10.002016, 9.987589 
6.446244e+2, 2.949654e+2, -373841.6, -349857.56, -110433.29, -0.15312384, -0.24339138, -250767.08, -201452.16, 0.046190124, 9.983697, 9.9871645 
6.4456195e+2, 3.0495763e+2, -489513.47, -214381.8, -69324.2, -0.1260387, -0.45340523, -197901.52, -197901.52, 0.020273728, 9.965411, 10.001846 
6.445052e+2, 3.1496266e+2, -587248.3, 6345.746, -49831.414, 0.2753971, -0.23203622, 10499.953, 10499.953, 0.007885883, 9.947281, 10.025742 
6.547926e+2, 2.6502734e+2, -327378.78, -484362.2, -79681.016, 0.07994893, -0.07981992, -294022.3, 48700.55, 0.37749347, 10.009378, 9.986132 
6.5475494e+2, 2.750145e+2, -199791.06, -367962.8, -64349.16, -0.11768175, 0.019411653, -177993.75, 66856.37, 0.26577833, 10.011018, 9.98644 
6.546929e+2, 2.8500667e+2, -146901.63, -177918.16, -202780.53, -0.12974824, -0.008390754, 40962.797, 187886.81, 0.15978791, 10.001974, 9.998022 
6.5460986e+2, 2.9500318e+2, -306210.28, -203564.34, -178457.47, 0.045510545, -0.15076536, -69196.39, -20245.174, 0.08151363, 9.983331, 9.997318 
6.545283e+2, 3.0500308e+2, -466142.8, -152447.13, -134378.4, 0.02318279, -0.31989244, -102754.9, -102754.9, 0.035807192, 9.96472, 10.006386 
6.544489e+2, 3.1501135e+2, -564995.1, 70584.87, -113541.88, 0.0013445951, -0.23085383, 90259.3, 90259.3, 0.01395233, 9.946337, 10.030652 
6.6477895e+2, 2.7506092e+2, 42402.1, -171080.81, -184.97363, -0.05987556, 0.06768707, 42402.26, 286801.06, 0.3793451, 10.03612, 9.990343 
6.646895e+2, 2.850602e+2, -255753.3, -137040.08, -84090.0, -0.043970034, 0.1489063, -93467.91, 52936.215, 0.22419931, 9.989087, 10.006233 
6.64588e+2, 2.950637e+2, -412175.03, -159583.5, -64771.863, 0.07160592, -0.11805412, -143942.61, -95581.59, 0.11356551, 9.971856, 10.005391 
6.6448855e+2, 3.0507025e+2, -583829.0, -163942.73, -26311.166, 0.051700838, -0.2040465, -162300.44, -162300.44, 0.04982244, 9.954622, 10.010054 
6.6439086e+2, 3.150802e+2, -655650.25, 62167.793, -12029.88, -0.0677809, -0.3194726, 62369.344, 62369.344, 0.019431861, 9.938508, 10.03345 
6.746801e+2, 2.8514075e+2, -225678.73, -69038.57, -128551.06, 0.16403258, 0.12965544, 3171.7869, 148784.67, 0.24502733, 9.988383, 10.012856 
6.745573e+2, 2.9515067e+2, -375455.34, -70940.75, -123923.59, -0.113361515, -0.15289626, -26883.654, 20623.95, 0.12375029, 9.971078, 10.011924 
6.744414e+2, 3.051634e+2, -569082.1, -118391.55, -78508.52, -0.060030457, -0.11192139, -105107.234, -105107.234, 0.054238018, 9.9538355, 10.013454 
6.743306e+2, 3.151751e+2, -660182.7, 66605.64, -65501.156, 0.10830513, -0.39161554, 72461.69, 72461.69, 0.021169921, 9.937766, 10.034025 
6.848408e+2, 2.752632e+2, -161062.06, -259259.52, -37393.457, 0.24894007, -0.25053284, -148444.05, 93959.55, 0.35000604, 10.009889, 9.992024 
6.84674e+2, 2.8526658e+2, -107027.59, -35919.395, 118106.39, 0.25422105, 0.0055976845, 51868.36, 196242.4, 0.20724584, 9.997915, 10.009019 
6.8453187e+2, 2.9527286e+2, -277312.22, -48772.113, 88709.73, -0.12489534, -0.2834452, -18380.283, 27926.379, 0.10487824, 9.978458, 10.008893 
6.8439716e+2, 3.0528575e+2, -512878.47, -78890.59, 87392.3, -0.01213966, -0.11215853, -61953.38, -61953.38, 0.045937825, 9.956826, 10.013845 
6.8426573e+2, 3.1529725e+2, -741481.7, -1777.722, 74391.01, 0.05859786, -0.4391112, 5629.5054, 5629.5054, 0.017935915, 9.933262, 10.030616 
6.950535e+2, 2.6545626e+2, -232585.77, -357201.16, -48673.535, 0.032496873, -0.5485353, -215827.9, 122670.74, 0.3257838, 10.012783, 9.990565 
6.948499e+2, 2.754503e+2, -155157.02, -272229.9, -46624.633, 0.21576636, -0.20683141, -138857.83, 101704.62, 0.22902392, 10.009389, 9.991147 
6.946717e+2, 2.854435e+2, -183896.17, -200076.89, 78587.484, 0.21808724, -0.23577668, -112983.7, 29646.357, 0.13679288, 9.997791, 9.995422 
6.945124e+2, 2.9543626e+2, -362362.16, -225472.7, 27877.928, 0.080345444, -0.5272774, -220013.05, -175314.4, 0.06919359, 9.978333, 9.996402 
6.9435614e+2, 3.0544376e+2, -527009.2, -105601.49, 10143.945, 0.21664147, -0.22845724, -105357.45, -105357.45, 0.030174369, 9.956413, 10.011943 
6.941956e+2, 3.154556e+2, -797028.1, -101935.086, -8736.263, -0.22256814, -0.29696482, -101825.3, -101825.3, 0.011747377, 9.932338, 10.023898 
7.071784e+2, 1.7577702e+2, -1278038.8, -1316808.6, 10245.48, 0.33129793, 0.06498941, -1275497.8, -58125.51, 0.39511433, 9.996507, 9.991265 
7.069338e+2, 1.8576767e+2, -1139874.0, -1180912.1, -41331.574, 0.15968962, -0.0757988, -1114248.4, 5215.032, 0.36690953, 9.998203, 9.992889 
7.066848e+2, 1.9575933e+2, -1005585.0, -1065383.8, -35620.348, 0.26572746, -0.19581501, -988978.7, 32562.135, 0.33869967, 10.0016575, 9.992577 
7.064427e+2, 2.0575057e+2, -894358.75, -972567.8, -9109.241, 0.3034937, -0.25796708, -893311.75, 30311.223, 0.30810815, 10.003425, 9.991413 
7.062059e+2, 2.1574184e+2, -800576.0, -884859.6, -27255.201, 0.319285, -0.2786218, -792530.4, 33174.855, 0.27748832, 10.003346, 9.990948 
7.0597106e+2, 2.2572957e+2, -718405.06, -864521.75, -26336.373, 0.3017162, -0.28097656, -713803.1, 14020.278, 0.25250864, 10.004676, 9.985045 
7.057366e+2, 2.357146e+2, -594543.56, -757055.9, -14403.419, 0.22785883, -0.27163956, -593276.8, 36692.12, 0.23688442, 10.00723, 9.984409 
7.0550585e+2, 2.4569802e+2, -501783.47, -679151.2, 4594.172, 0.14497027, -0.28098458, -501664.56, 30465.967, 0.2254379, 10.007437, 9.982998 
7.052772e+2, 2.5568083e+2, -423703.8, -592992.44, 18244.734, 0.0811109, -0.30169684, -421759.84, 12538.111, 0.20587255, 10.005705, 9.983077 
7.0506316e+2, 2.6566553e+2, -331428.13, -470394.88, 66671.766, 0.12982085, -0.27047053, -304614.75, 31833.742, 0.16927065, 10.004544, 9.985729 
7.048571e+2, 2.7565187e+2, -231294.89, -363894.13, 50711.03, 0.25122076, -0.23109746, -214124.47, 24459.928, 0.11983653, 10.004243, 9.986607 
7.0466864e+2, 2.8563833e+2, -246571.48, -310804.8, 146823.9, 0.2059766, -0.3298437, -128392.66, 12325.344, 0.07133667, 9.996401, 9.987727 
7.0449245e+2, 2.956246e+2, -345430.16, -289756.16, 139590.2, 0.065474704, -0.48693752, -175254.4, -132402.14, 0.035696205, 9.982129, 9.989312 
7.0431745e+2, 3.0562723e+2, -398713.88, -60459.24, 125466.05, 0.28950202, -0.24575311, -19002.18, -19002.18, 0.015373255, 9.965343, 10.009709 
7.0413303e+2, 3.1563753e+2, -623853.94, -82646.07, 98287.56, -0.3539729, -0.20576967, -65349.09, -65349.09, 0.0059347325, 9.946268, 10.017403 
7.1813166e+2, 1.3603374e+2, -1615039.9, -1637183.1, -5210.8613, 0.45437226, -0.4324178, -1613875.0, -7031.479, 0.38652638, 9.998321, 9.995322 
7.178901e+2, 1.460294e+2, -1560535.4, -1583889.4, -26197.19, 0.31808507, -0.26415315, -1543530.6, -34642.418, 0.32051286, 9.996178, 9.993155 
7.17648e+2, 1.560232e+2, -1438201.9, -1472567.1, -30760.525, 0.51407623, -0.20624378, -1420150.3, -9198.059, 0.2634744, 9.9977665, 9.993355 
7.174093e+2, 1.6601758e+2, -1330090.1, -1350225.0, 7456.8735, 0.427144, -0.19863175, -1327629.3, -14620.069, 0.22245307, 9.997833, 9.99509 
7.171731e+2, 1.7601216e+2, -1249618.5, -1266294.5, 11164.103, 0.14161329, -0.23783688, -1244022.4, -28959.176, 0.19610292, 9.996868, 9.994515 
7.16933e+2, 1.8600544e+2, -1139705.8, -1190771.8, -31630.559, 0.25101113, -0.21829778, -1124588.6, -7459.214, 0.17775844, 9.998589, 9.99202 
7.166902e+2, 1.9599794e+2, -997352.0, -1078771.6, -29823.512, 0.6249035, -0.16316827, -987596.7, 31605.879, 0.16157821, 10.002444, 9.99117 
7.1644807e+2, 2.0598581e+2, -917684.0, -1056328.1, -11514.42, 0.49505585, -0.17287868, -916734.2, 4586.045, 0.14457572, 10.003854, 9.985487 
7.1620655e+2, 2.1597086e+2, -826312.4, -962148.7, -27033.01, 0.03799099, -0.22265318, -821130.2, 2334.732, 0.12723248, 10.003429, 9.985542 
7.159732e+2, 2.2595656e+2, -705568.25, -838535.75, -13874.702, 0.04382912, -0.2722327, -704135.94, 21466.607, 0.11246312, 10.004609, 9.986842 
7.1574503e+2, 2.3594272e+2, -581469.5, -734497.8, -5568.717, 0.34827697, -0.32730326, -581267.1, 46468.445, 0.102763794, 10.006967, 9.986078 
7.1551496e+2, 2.4592705e+2, -496969.97, -675743.94, -1652.1094, 0.3127945, -0.33791104, -496954.72, 32932.266, 0.09637724, 10.007222, 9.983304 
7.1528274e+2, 2.5591058e+2, -421796.75, -596288.44, 11534.811, 0.057312768, -0.31163654, -421037.53, 11008.957, 0.087644964, 10.005822, 9.982752 
7.150675e+2, 2.65891e+2, -377398.03, -577451.1, 67859.01, 0.10690016, -0.2935478, -356552.1, -22311.922, 0.07185869, 10.004669, 9.97825 
7.148624e+2, 2.758694e+2, -277148.75, -464092.53, 49443.563, 0.35896358, -0.30306673, -264877.25, -28421.012, 0.050387178, 10.004266, 9.979659 
7.1466476e+2, 2.8585407e+2, -249609.25, -313518.53, 98908.81, 0.19449839, -0.24302524, -177621.34, -39012.375, 0.02945104, 9.996025, 9.987471 
7.144716e+2, 2.9584315e+2, -342302.3, -284442.0, 94001.42, -0.2365218, -0.096281506, -215019.63, -174302.44, 0.014398538, 9.981984, 9.989499 
7.1428204e+2, 3.058424e+2, -400539.44, -73128.164, 68246.59, 0.1829614, -0.15980548, -59472.215, -59472.215, 0.006065059, 9.965437, 10.008492 
7.140829e+2, 3.158492e+2, -633280.25, -124423.84, 35471.94, -0.087134555, -0.31517416, -121963.02, -121963.02, 0.0023049617, 9.946904, 10.013884 
7.283682e+2, 1.262747e+2, -1711466.5, -1704380.8, 11626.118, 0.6634223, -0.27860165, -1695769.6, 6718.2104, 0.3249284, 9.997048, 9.9980345 
7.281282e+2, 1.3627438e+2, -1615447.5, -1614657.4, 3231.7563, 0.35531086, -0.11221968, -1611796.6, -7305.418, 0.25896257, 9.99722, 9.997282 
7.278881e+2, 1.4626914e+2, -1508204.3, -1561013.8, -10207.754, 0.27604654, -0.11243399, -1506299.9, 243.25484, 0.19362748, 9.999913, 9.992925 
7.276481e+2, 1.5626101e+2, -1354752.0, -1430756.3, -6886.1235, 0.34461236, -0.21545324, -1354133.1, 54490.504, 0.13975194, 10.004247, 9.993001 
7.274092e+2, 1.6625467e+2, -1255278.0, -1309155.4, 5129.04, 0.30212185, -0.26589432, -1254794.0, 55891.793, 0.10370436, 10.00322, 9.995178 
7.271715e+2, 1.7624964e+2, -1220361.4, -1252673.6, -567.0952, 0.18279126, -0.2834388, -1220351.4, -7616.922, 0.08334711, 9.998817, 9.994495 
7.269332e+2, 1.8624234e+2, -1120784.6, -1199887.9, -22334.135, 0.29389784, -0.22985272, -1114914.4, -107.60196, 0.07189657, 10.000785, 9.990468 
7.2669446e+2, 1.9623372e+2, -945075.6, -1071272.6, -27164.635, 0.56190026, -0.1350847, -939476.7, 77416.516, 0.06370529, 10.006849, 9.989672 
7.264535e+2, 2.0622069e+2, -871220.25, -1040355.6, -16126.325, 0.45533833, -0.1308399, -869696.44, 49324.477, 0.05592397, 10.007411, 9.984847 
7.2621113e+2, 2.1620493e+2, -813042.0, -964237.2, -2078.349, 0.09285465, -0.18392238, -813013.44, 8160.779, 0.048150294, 10.004611, 9.984661 
7.2597736e+2, 2.2618987e+2, -726412.44, -857607.44, 23108.258, 0.06633562, -0.21831317, -722461.2, 858.60986, 0.041427646, 10.003328, 9.985969 
7.25749e+2, 2.3617552e+2, -641767.1, -772771.5, 18137.678, 0.2784887, -0.24907343, -639302.3, -13844.305, 0.036843527, 10.0027, 9.98544 
7.2552e+2, 2.4615897e+2, -547800.44, -708966.94, 14512.885, 0.28240624, -0.2852235, -546504.0, -18886.355, 0.03386913, 10.003746, 9.982678 
7.2528946e+2, 2.5614136e+2, -419869.06, -603966.9, 21112.88, 0.13480084, -0.31608734, -417478.78, 12308.909, 0.030381503, 10.006194, 9.9820385 
7.250728e+2, 2.6612058e+2, -386967.88, -599150.4, 90265.516, 0.16645865, -0.29601336, -353763.7, -21770.535, 0.024547674, 10.004641, 9.976609 
7.2486436e+2, 2.7609754e+2, -344948.72, -512723.53, 111527.57, 0.32786644, -0.2655514, -289281.47, -55057.54, 0.016849048, 10.000156, 9.977913 
7.2465783e+2, 2.8608203e+2, -306321.03, -335690.22, 145354.44, 0.11329623, -0.1474375, -174911.31, -38533.434, 0.009570007, 9.991562, 9.987515 
7.244517e+2, 2.9607186e+2, -358718.38, -288996.84, 144014.95, -0.342529, 0.067526534, -175683.45, -137205.53, 0.004530405, 9.980369, 9.989356 
7.2425103e+2, 3.0606604e+2, -316081.28, -83629.79, 102130.36, 0.18605897, -0.2350418, -45133.094, -45133.094, 0.0018514603, 9.973065, 10.003554 
7.240405e+2, 3.1606942e+2, -352713.7, -32850.863, 32108.246, 0.0514218, -0.23965561, -29659.635, -29659.635, 0.00068753515, 9.96746, 10.009788 
7.383658e+2, 1.2651767e+2, -1696950.0, -1716544.5, 13354.098, 0.6890263, -0.09968336, -1690184.8, 9928.064, 0.23778392, 9.999067, 9.996115 
7.381272e+2, 1.3651355e+2, -1601560.9, -1626429.0, 9487.673, 0.50487405, -0.12013428, -1598354.5, 3798.1543, 0.17852521, 9.999057, 9.995569 
7.3788947e+2, 1.4650752e+2, -1498592.4, -1551191.8, 9096.068, 0.40611818, -0.14381458, -1497063.8, 7147.2017, 0.12096515, 10.000529, 9.993314 
7.376524e+2, 1.5650052e+2, -1365634.5, -1435033.8, 5212.431, 0.36210504, -0.17429873, -1365245.1, 41033.49, 0.07490658, 10.003057, 9.993304 
7.3741263e+2, 1.6649395e+2, -1267267.3, -1329239.9, -9979.426, 0.34031487, -0.1995174, -1265699.9, 42641.65, 0.04563878, 10.00254, 9.994081 
7.371718e+2, 1.7648776e+2, -1210793.9, -1262863.4, -12841.805, 0.3268301, -0.22200884, -1207799.0, 2601.7107, 0.030679794, 10.000055, 9.993175 
7.369342e+2, 1.8647863e+2, -1122240.8, -1220949.6, -32.384666, 0.29285595, -0.18728665, -1122240.8, -9748.934, 0.023778992, 10.001716, 9.988647 
7.366983e+2, 1.9646792e+2, -963557.8, -1096320.6, -8585.03, 0.25884244, -0.12029853, -963004.94, 51594.918, 0.020035418, 10.006053, 9.988372 
7.364593e+2, 2.0645571e+2, -862585.94, -1008986.0, -25797.498, 0.3027589, -0.1171069, -858173.1, 58547.03, 0.017108219, 10.006606, 9.987329 
7.362185e+2, 2.1644254e+2, -795995.8, -934878.4, -12089.443, 0.3724408, -0.15352044, -794951.3, 23896.848, 0.014392065, 10.004823, 9.986534 
7.3598254e+2, 2.264277e+2, -736425.44, -886928.25, 19054.885, 0.24990545, -0.12505797, -734050.44, -13057.615, 0.0120822, 10.003694, 9.983792 
7.357493e+2, 2.3641211e+2, -653645.44, -801290.25, 16042.86, 0.036507763, -0.06327522, -651922.4, -28777.443, 0.010485018, 10.002878, 9.9834 
7.355221e+2, 2.4639349e+2, -554398.8, -725361.5, 23663.006, 0.10320524, -0.15026143, -551184.06, -25859.102, 0.009443268, 10.003954, 9.981471 
7.352976e+2, 2.563733e+2, -423385.84, -611995.8, 27801.586, 0.31616783, -0.31952512, -419373.2, 8146.349, 0.008323768, 10.006279, 9.981449 
7.3507863e+2, 2.6635492e+2, -357968.7, -536310.94, 73920.625, 0.2905208, -0.27089345, -331313.44, -1612.3724, 0.00659176, 10.004498, 9.980871 
7.348625e+2, 2.7633747e+2, -318299.0, -453909.06, 92471.37, 0.1336244, -0.10628748, -271437.22, -39560.76, 0.004406338, 9.999947, 9.981919 
7.3464763e+2, 2.8632364e+2, -302599.6, -320591.8, 105998.58, -0.029131861, -0.060967524, -205216.06, -71205.266, 0.0024220445, 9.991085, 9.988572 
7.3443335e+2, 2.9631227e+2, -362506.13, -291062.03, 110390.24, -0.18971837, -0.063746214, -210757.9, -174639.88, 0.0011055471, 9.979984, 9.9892025 
7.3422575e+2, 3.0629998e+2, -373302.38, -214663.73, 91070.04, 0.3003947, -0.4881046, -173213.4, -173213.4, 0.000435968, 9.973593, 9.994219 
7.34009e+2, 3.162978e+2, -351907.72, -77230.16, 11608.796, -0.027839515, -0.1484062, -76740.41, -76740.41, 0.0001570949, 9.969383, 10.005686 
7.4836767e+2, 1.267596e+2, -1632623.8, -1681746.4, 14696.201, 0.6398886, -0.082005344, -1628562.8, 69181.35, 0.17498668, 10.004163, 9.996173 
7.4812967e+2, 1.3675515e+2, -1537290.8, -1593578.1, 16690.664, 0.530484, -0.13408518, -1532713.8, 67073.13, 0.12614638, 10.004042, 9.995375 
7.4789155e+2, 1.467487e+2, -1477356.6, -1547510.1, 16800.633, 0.4519963, -0.1483629, -1473540.8, 28308.5, 0.07953291, 10.002341, 9.992627 
7.476537e+2, 1.5674137e+2, -1413021.1, -1469340.3, 11630.87, 0.39308274, -0.14530218, -1410713.8, -6793.545, 0.043202266, 9.999985, 9.992434 
7.47415e+2, 1.6673322e+2, -1293124.4, -1368095.3, -1671.1117, 0.38226414, -0.16312179, -1293087.1, 12911.776, 0.021089088, 10.001772, 9.991826 
7.4717593e+2, 1.7672475e+2, -1141698.8, -1249613.4, -10402.926, 0.39538968, -0.19186161, -1140705.0, 67375.67, 0.010653344, 10.005698, 9.991383 
7.4693793e+2, 1.8671504e+2, -1073444.3, -1191226.5, 2340.64, 0.31512848, -0.17080136, -1073397.8, 36779.066, 0.0065807095, 10.004756, 9.989189 
7.4670094e+2, 1.9670461e+2, -1029188.2, -1124998.4, 6487.2495, 0.18841404, -0.12423533, -1028750.94, -16469.508, 0.004957697, 10.001291, 9.988658 
7.4646306e+2, 2.0669234e+2, -916896.75, -1038800.6, -8017.356, 0.23294294, -0.116955645, -916371.7, -1969.368, 0.0040319874, 10.002961, 9.987034 
7.4622476e+2, 2.1667917e+2, -759235.3, -919881.5, -10050.246, 0.3716814, -0.13257495, -758609.0, 57922.125, 0.0032945015, 10.007417, 9.9863615 
7.459883e+2, 2.2666404e+2, -690892.44, -870368.6, 9853.157, 0.28041473, -0.10544322, -690353.1, 28326.082, 0.0026996708, 10.006924, 9.98338 
7.4575293e+2, 2.3664786e+2, -642329.9, -800875.44, 18945.77, 0.05615706, -0.055348013, -640097.4, -19259.959, 0.0022924743, 10.0037565, 9.98297 
7.4552554e+2, 2.4662928e+2, -572214.5, -733905.1, 45456.188, 0.11437548, -0.11865522, -560311.56, -37293.72, 0.0020264904, 10.002693, 9.981438 
7.4530226e+2, 2.566094e+2, -473423.0, -631817.6, 54536.07, 0.33956584, -0.25121328, -456462.13, -31251.705, 0.0017550909, 10.002599, 9.981755 
7.4508005e+2, 2.665928e+2, -419412.25, -533376.25, 76451.67, 0.27674106, -0.20157367, -381043.28, -53669.246, 0.0013617746, 9.9987, 9.983709 
7.44858e+2, 2.7657807e+2, -403118.28, -468313.1, 83565.5, 0.043594588, -0.051258013, -346017.38, -116496.45, 0.0008870005, 9.992828, 9.98426 
7.4463797e+2, 2.8656378e+2, -324600.88, -346924.72, 76751.63, -0.05444941, -0.07161342, -258203.78, -126545.914, 0.00047235857, 9.990099, 9.987205 
7.444187e+2, 2.9655004e+2, -245352.06, -255014.25, 62423.04, -0.05827068, -0.18264031, -187573.45, -153786.83, 0.00020793451, 9.988691, 9.987536 
7.4420357e+2, 3.065347e+2, -280399.06, -219494.66, 60848.996, 0.32877156, -0.5941065, -181903.22, -181903.22, 0.00007895407, 9.981868, 9.989866 
7.43979e+2, 3.165303e+2, -301857.47, -40300.86, 17595.152, -0.10136746, -0.07218748, -39122.523, -39122.523, 0.000027465781, 9.972046, 10.006655 
7.583709e+2, 1.2700121e+2, -1646905.5, -1684177.6, 11224.246, 0.57605577, -0.12012156, -1643786.4, 51591.043, 0.12768431, 10.002492, 9.996727 
7.5813335e+2, 1.369977e+2, -1543338.9, -1595249.3, 9618.986, 0.5149933, -0.13185205, -1541613.8, 55797.18, 0.089724064, 10.003282, 9.995612 
7.5789404e+2, 1.4699101e+2, -1475840.3, -1556854.3, 2936.6987, 0.46449253, -0.12706093, -1475734.0, 23741.95, 0.054134592, 10.00276, 9.991785 
7.5765425e+2, 1.5698285e+2, -1396909.8, -1475170.3, 3450.9363, 0.42226607, -0.115868546, -1396757.9, 4797.5137, 0.027072964, 10.001673, 9.991222 
7.574173e+2, 1.6697262e+2, -1296912.0, -1399328.6, 12055.053, 0.41666663, -0.13658799, -1295512.1, 8143.1294, 0.0111973565, 10.00287, 9.989216 
7.5718194e+2, 1.7696154e+2, -1160705.3, -1279043.5, 1463.0099, 0.4257412, -0.17258629, -1160687.1, 45076.574, 0.0041555637, 10.005297, 9.989582 
7.56943e+2, 1.8695201e+2, -1064364.8, -1167471.4, -9205.654, 0.35405588, -0.16385067, -1063549.3, 44307.977, 0.001730717, 10.004452, 9.990899 
7.567028e+2, 1.9694306e+2, -1011222.1, -1104464.8, -2503.853, 0.244264, -0.13433361, -1011154.94, -1209.7473, 0.000999064, 10.001969, 9.989706 
7.5646573e+2, 2.0693024e+2, -924562.2, -1061722.0, 8032.6245, 0.19646046, -0.12157565, -924093.4, -12021.981, 0.0007293266, 10.0033865, 9.985318 
7.5623035e+2, 2.1691558e+2, -776976.06, -942644.44, 2316.8818, 0.18572588, -0.11901468, -776943.7, 37272.168, 0.0005693778, 10.006888, 9.985088 
7.559946e+2, 2.2689983e+2, -691023.8, -861756.1, -1665.3542, 0.22863093, -0.14450258, -691007.56, 25362.273, 0.00045372362, 10.006484, 9.984128 
7.55759e+2, 2.3688354e+2, -633505.44, -787603.2, 9404.278, 0.28501317, -0.18233295, -632933.6, -14404.807, 0.00037734385, 10.003938, 9.983747 
7.555297e+2, 2.4686673e+2, -562399.3, -717367.56, 45350.17, 0.25839967, -0.1579432, -550103.56, -29410.236, 0.00032800084, 10.002894, 9.982448 
7.5530344e+2, 2.568497e+2, -465760.47, -614751.1, 50463.02, 0.20255001, -0.10959018, -450277.63, -27417.063, 0.0002795818, 10.002561, 9.982904 
7.550773e+2, 2.6683402e+2, -410317.03, -511815.5, 53736.035, 0.14293416, -0.10054411, -387153.84, -62140.246, 0.0002130339, 9.998502, 9.985172 
7.548509e+2, 2.7681902e+2, -402988.5, -463134.4, 64400.715, 0.07286743, -0.11176288, -361985.2, -134825.34, 0.00013567065, 9.992561, 9.984649 
7.5462896e+2, 2.868018e+2, -355320.3, -410977.6, 72747.945, 0.037992235, -0.18209404, -305259.94, -175934.03, 0.00007026268, 9.990183, 9.982745 
7.5440884e+2, 2.9678386e+2, -261060.39, -300522.03, 50876.855, 0.028583001, -0.27407074, -226222.36, -194724.86, 0.000029917104, 9.98927, 9.984099 
7.54185e+2, 3.0677018e+2, -258812.86, -185297.0, 20110.217, 0.24456835, -0.4939107, -180155.45, -180155.45, 0.000010944672, 9.982132, 9.991942 
7.539494e+2, 3.1676704e+2, -253890.77, 59117.258, -14534.039, -0.2635423, -0.10968976, 59790.676, 59790.676, 0.00000366532, 9.97188, 10.013415 
7.6837176e+2, 1.2724075e+2, -1679669.4, -1708448.8, 13771.877, 0.5853095, -0.1284579, -1674141.0, 18890.838, 0.09095763, 10.000208, 9.996167 
7.681355e+2, 1.3723743e+2, -1557973.8, -1609398.0, 6691.3447, 0.47253737, -0.06828065, -1557117.4, 37947.21, 0.06282214, 10.002346, 9.995189 
7.6789755e+2, 1.4723054e+2, -1448014.1, -1541084.1, -464.1973, 0.4295192, -0.07997241, -1448011.8, 49119.805, 0.03690004, 10.004591, 9.992054 
7.676591e+2, 1.5722212e+2, -1319590.0, -1434994.4, 2274.785, 0.41850457, -0.11933811, -1319545.1, 79668.3, 0.01763206, 10.00692, 9.991461 
7.67422e+2, 1.6721244e+2, -1249428.4, -1372999.0, 15342.957, 0.4061531, -0.113297544, -1247551.9, 53756.363, 0.006673461, 10.005924, 9.989508 
7.6718587e+2, 1.7720214e+2, -1185184.9, -1290593.0, 17427.408, 0.3931504, -0.093138054, -1182378.3, 21031.318, 0.002032426, 10.003531, 9.989566 
7.6694715e+2, 1.8719186e+2, -1077179.3, -1183413.9, 5036.834, 0.36085, -0.10265186, -1076941.0, 28568.846, 0.00056072976, 10.003938, 9.9900055 
7.667076e+2, 1.9718161e+2, -961231.2, -1086939.6, 22.690783, 0.315141, -0.121920384, -961231.2, 46378.496, 0.00019286865, 10.005612, 9.989148 
7.6647e+2, 2.0716877e+2, -909855.3, -1050587.5, 13585.573, 0.23395178, -0.112577915, -908555.8, 1179.8063, 0.00010529914, 10.00415, 9.985699 
7.6623374e+2, 2.1715459e+2, -855672.9, -978783.6, 19703.705, 0.14412525, -0.09398305, -852596.2, -40720.85, 0.000074488526, 10.001359, 9.985232 
7.659988e+2, 2.2713868e+2, -744727.2, -890848.5, 18177.936, 0.19406085, -0.11918062, -742499.75, -28468.465, 0.000056988556, 10.002905, 9.983811 
7.657644e+2, 2.3712207e+2, -597006.25, -768273.75, 20879.86, 0.3081213, -0.16551134, -594497.44, 21696.885, 0.000046285786, 10.006304, 9.983887 
7.655333e+2, 2.471065e+2, -535461.9, -686144.25, 45934.105, 0.27791834, -0.121322416, -522563.4, -4216.156, 0.00003958519, 10.003829, 9.984049 
7.653038e+2, 2.570914e+2, -512704.25, -622613.94, 54817.86, 0.17448655, -0.034001082, -490038.03, -69542.14, 0.000033270506, 9.9985895, 9.984185 
7.650749e+2, 2.67076e+2, -431630.63, -521914.9, 51474.977, 0.13154529, -0.051018175, -408307.56, -85661.54, 0.000024968722, 9.996931, 9.985168 
7.648461e+2, 2.770604e+2, -339639.94, -433793.6, 52825.934, 0.12227587, -0.12601794, -315957.97, -91160.766, 0.000015610125, 9.996852, 9.984571 
7.646218e+2, 2.870429e+2, -296094.44, -387239.63, 81219.13, 0.09417252, -0.19341789, -248535.89, -121568.92, 0.000007899857, 9.994362, 9.98224 
7.64399e+2, 2.970247e+2, -244802.72, -298342.66, 83352.875, 0.057551946, -0.24284907, -184026.5, -154883.53, 0.000003268706, 9.990521, 9.983338 
7.641674e+2, 3.0701238e+2, -228925.1, -173225.84, 28157.363, 0.18757631, -0.26178268, -161471.95, -161471.95, 0.0000011555488, 9.9840355, 9.991497 
7.6392347e+2, 3.170059e+2, -169115.58, 117817.21, -21269.512, -0.26446757, -0.22066586, 119385.29, 119385.29, 0.00000037249225, 9.976706, 10.014932 
7.7837265e+2, 1.274802e+2, -1650712.4, -1703446.1, 17485.256, 0.605741, -0.11729241, -1645441.6, 45246.047, 0.062321946, 10.002742, 9.9953 
7.7813745e+2, 1.3747665e+2, -1553113.6, -1614249.3, 12184.841, 0.4209321, 0.0075628464, -1550774.6, 41949.016, 0.042461134, 10.002993, 9.994564 
7.779016e+2, 1.4746955e+2, -1453260.1, -1538010.9, 6471.584, 0.3820051, -0.032751653, -1452768.9, 42024.164, 0.024464365, 10.0039835, 9.992589 
7.7766573e+2, 1.5746108e+2, -1336166.4, -1434732.6, 4107.1904, 0.40448385, -0.13398398, -1335995.5, 60879.47, 0.011362938, 10.005405, 9.992237 
7.7742743e+2, 1.6745305e+2, -1253055.6, -1357876.0, 3017.9788, 0.37759194, -0.087778404, -1252968.9, 45984.9, 0.004107514, 10.004886, 9.991029 
7.771887e+2, 1.7744495e+2, -1179480.8, -1279876.4, 7593.5083, 0.33236304, 0.011220487, -1178909.8, 22123.87, 0.001142861, 10.003552, 9.990289 
7.769511e+2, 1.8743353e+2, -1090252.6, -1212281.6, 9118.53, 0.3534311, -0.019533964, -1089575.0, 13570.109, 0.00025188728, 10.004072, 9.988006 
7.7671397e+2, 1.9742075e+2, -973467.7, -1106276.0, 2644.2827, 0.39492127, -0.09997085, -973415.06, 31854.568, 0.000050956904, 10.005384, 9.987943 
7.7647495e+2, 2.0740834e+2, -897446.3, -1026729.06, 2317.2878, 0.3153583, -0.096559286, -897404.8, 9985.778, 0.00001455404, 10.004172, 9.987274 
7.762356e+2, 2.1739583e+2, -839964.2, -960108.06, 12824.363, 0.19001621, -0.060208097, -838610.56, -29097.508, 0.0000076437345, 10.001937, 9.986212 
7.7600145e+2, 2.2738014e+2, -748303.6, -902928.7, 30842.627, 0.15757811, -0.044214796, -742378.56, -30710.484, 0.0000053686263, 10.003217, 9.982872 
7.7576935e+2, 2.3736316e+2, -604345.75, -773882.6, 27633.81, 0.16952246, -0.039756604, -599955.25, 13881.193, 0.0000042165157, 10.005955, 9.983674 
7.7553636e+2, 2.4734841e+2, -525493.5, -658007.1, 26114.357, 0.20935173, -0.033050124, -520532.88, -4551.819, 0.0000035416363, 10.003414, 9.986086 
7.7530307e+2, 2.573345e+2, -504152.8, -604016.9, 39067.875, 0.2509217, -0.022928612, -490685.28, -72568.34, 0.000002937953, 9.998491, 9.985435 
7.750729e+2, 2.6731864e+2, -441324.06, -542768.2, 51280.438, 0.23001716, -0.04353681, -419918.38, -99646.28, 0.0000021768099, 9.997022, 9.983674 
7.748437e+2, 2.77302e+2, -340409.38, -437131.63, 50149.953, 0.1858538, -0.083749086, -319101.16, -96666.51, 0.0000013408251, 9.996967, 9.984257 
7.7461636e+2, 2.8728744e+2, -265262.5, -325915.28, 67115.586, 0.10661357, -0.08840315, -221939.78, -97362.35, 0.00000066614564, 9.99444, 9.986316 
7.743891e+2, 2.97274e+2, -227000.72, -261343.14, 66657.305, 0.014716302, -0.055274382, -175338.45, -148628.84, 0.0000002693506, 9.990458, 9.985794 
7.7415144e+2, 3.0726266e+2, -253133.9, -223260.44, 2725.1714, 0.18336621, 0.13943562, -223013.88, -223013.88, 0.000000092738915, 9.983915, 9.987999 
7.73902e+2, 3.1724918e+2, -216679.22, 9485.279, -36934.15, -0.12596044, -0.14044558, 15364.059, 15364.059, 0.000000029349557, 9.977082, 10.007229 
7.883783e+2, 1.2771937e+2, -1574858.8, -1664833.5, 11576.452, 0.5594947, -0.06378336, -1573393.1, 114954.72, 0.04048696, 10.007886, 9.995445 
7.881413e+2, 1.3771544e+2, -1532895.1, -1604769.8, 10904.782, 0.42105886, 0.011012583, -1531277.0, 59110.164, 0.027255554, 10.004284, 9.99454 
7.8790444e+2, 1.4770854e+2, -1478631.5, -1553025.3, 10163.087, 0.37685418, 0.0061054397, -1477268.1, 15186.839, 0.015450946, 10.002238, 9.992412 
7.876681e+2, 1.5770057e+2, -1398478.8, -1465015.1, 5612.591, 0.37606043, -0.033519033, -1398008.6, -3475.719, 0.007020416, 10.001038, 9.992317 
7.8743035e+2, 1.6769248e+2, -1290787.9, -1369249.9, 3830.2637, 0.36108184, -0.03824707, -1290601.3, 6009.8745, 0.002461426, 10.00195, 9.99173 
7.871924e+2, 1.7768425e+2, -1172768.5, -1270246.3, 4541.255, 0.33744797, -0.02325696, -1172557.4, 26133.396, 0.0006538327, 10.003681, 9.99095 
7.86955e+2, 1.8767369e+2, -1088382.3, -1207362.9, 12399.73, 0.34160122, -0.020423863, -1087103.8, 13690.308, 0.00013177795, 10.003968, 9.9884205 
7.867181e+2, 1.9766194e+2, -994933.5, -1114829.4, 15636.35, 0.3589508, -0.03140401, -992927.8, 9981.139, 0.000020829504, 10.003773, 9.988106 
7.864794e+2, 2.0764914e+2, -891723.7, -1026599.0, 10070.857, 0.32002497, -0.05872159, -890975.8, 14057.796, 0.0000030616504, 10.004605, 9.98705 
7.862403e+2, 2.176359e+2, -781848.5, -929475.2, 11383.842, 0.25319004, -0.08305072, -780975.8, 26186.842, 0.0000007392573, 10.005725, 9.986496 
7.860051e+2, 2.2762164e+2, -735281.75, -880033.2, 34391.824, 0.18693745, -0.030415947, -727526.06, -18222.121, 0.00000038996666, 10.0033045, 9.984368 
7.857715e+2, 2.3760672e+2, -689484.0, -802522.9, 43340.637, 0.12894402, 0.04157017, -674779.44, -63326.85, 0.00000028612655, 9.9995, 9.984737 
7.8553677e+2, 2.4759205e+2, -594835.7, -691236.0, 32202.596, 0.16385475, 0.015891187, -585068.06, -71471.41, 0.00000023460808, 9.9985485, 9.986077 
7.853015e+2, 2.5757754e+2, -496866.9, -597465.1, 34301.813, 0.23393296, -0.04111411, -486284.06, -70545.76, 0.00000019197503, 9.998762, 9.985742 
7.850702e+2, 2.675627e+2, -424467.66, -525167.2, 58107.625, 0.2270355, -0.026233885, -397930.5, -80046.305, 0.00000014073389, 9.997709, 9.984489 
7.848401e+2, 2.775475e+2, -346860.2, -426072.47, 70288.88, 0.18750273, 0.003246447, -305786.88, -85753.695, 0.00000008605346, 9.995845, 9.985391 
7.846094e+2, 2.8753495e+2, -285112.06, -305548.2, 72586.13, 0.09544063, -0.006775367, -222028.31, -99870.92, 0.00000004335427, 9.991658, 9.988871 
7.843775e+2, 2.9752386e+2, -266397.97, -257175.17, 62057.074, -0.0140593955, 0.009687831, -199558.4, -175291.45, 0.000000020034998, 9.986628, 9.987813 
7.8413653e+2, 3.0751437e+2, -210160.08, -202261.9, 21308.943, 0.18003277, 0.31520474, -184539.2, -184539.2, 0.000000011908638, 9.986732, 9.987872 
7.83885e+2, 3.1749818e+2, -87423.37, 1475.8417, 15493.282, -0.056291226, -0.14003883, 4098.619, 4098.619, 0.000000011464942, 9.988872, 10.000643 
7.983854e+2, 1.279594e+2, -1585096.1, -1666921.4, 593.52216, 0.50134015, 0.0011818757, -1585091.9, 100908.75, 0.024554512, 10.00683, 9.995721 
7.981458e+2, 1.3795489e+2, -1526020.9, -1600610.4, -1503.6024, 0.4394655, -0.0052112862, -1525990.5, 62053.734, 0.016354568, 10.0046215, 9.994618 
7.979068e+2, 1.4794838e+2, -1466571.4, -1550867.3, 5447.3438, 0.38366875, 0.04841355, -1466220.8, 23888.094, 0.009139995, 10.003205, 9.992065 
7.976689e+2, 1.5794106e+2, -1381691.1, -1458573.1, 6163.304, 0.34071022, 0.10837306, -1381200.1, 10981.27, 0.004075192, 10.002264, 9.99213 
7.974323e+2, 1.6793218e+2, -1278675.4, -1360214.0, 12030.425, 0.35085645, 0.013545282, -1276937.5, 17328.658, 0.0013936982, 10.002693, 9.991987 
7.9719645e+2, 1.7792279e+2, -1168688.0, -1261254.5, 9136.528, 0.37181726, -0.119495876, -1167794.9, 28560.291, 0.00035817598, 10.0036955, 9.99156 
7.9695874e+2, 1.8791403e+2, -1080941.5, -1186632.8, 11104.69, 0.32300428, -0.053905413, -1079787.4, 18653.324, 0.00006886884, 10.003742, 9.989935 
7.967208e+2, 1.9790497e+2, -993093.1, -1105654.1, 15326.816, 0.25852996, 0.0648305, -991043.44, 9486.578, 0.000009974423, 10.003557, 9.988836 
7.964837e+2, 2.0789114e+2, -904559.3, -1046496.5, 14701.219, 0.2843153, -0.012502562, -903052.6, -387.91037, 0.0000011233808, 10.004366, 9.985819 
7.962468e+2, 2.1787578e+2, -787119.94, -931963.2, 12076.955, 0.33086896, -0.14355738, -786119.9, 18694.422, 0.00000011928717, 10.005377, 9.98648 
7.960091e+2, 2.2786383e+2, -714775.6, -835303.0, 20097.21, 0.26207638, -0.056823645, -711512.9, -4580.3896, 0.000000025398569, 10.003134, 9.987439 
7.9577124e+2, 2.3785259e+2, -673211.56, -774092.06, 32348.594, 0.15812993, 0.09183165, -663729.75, -54685.035, 0.000000014300795, 9.999683, 9.986544 
7.9553497e+2, 2.478372e+2, -603821.8, -713608.1, 32728.184, 0.1285415, 0.033837993, -594805.75, -83609.49, 0.000000011133096, 9.998752, 9.984441 
7.9529923e+2, 2.578206e+2, -499141.78, -602180.6, 34002.535, 0.12782875, -0.08361048, -488932.6, -75573.445, 0.000000009034092, 9.998796, 9.985383 
7.950669e+2, 2.6780826e+2, -403398.34, -480902.16, 51529.67, 0.12724978, 0.0032098843, -377675.3, -62194.117, 0.000000007502093, 9.997685, 9.987477 
7.9483527e+2, 2.777971e+2, -329501.78, -388986.63, 60373.01, 0.12384807, 0.13864456, -291942.56, -74351.086, 0.000000008822122, 9.995778, 9.987899 
7.946005e+2, 2.8778514e+2, -281541.7, -293066.3, 52437.707, 0.057235897, 0.04104046, -234550.64, -114842.51, 0.00000001768764, 9.991359, 9.989776 
7.943636e+2, 2.9777366e+2, -257464.47, -230950.45, 49229.426, -0.02921597, -0.08973178, -193224.28, -171403.97, 0.00000003823453, 9.986267, 9.989712 
7.941235e+2, 3.077673e+2, -171545.23, -129729.97, 35218.44, 0.16781108, 0.16150428, -109680.695, -109680.695, 0.00000006997078, 9.987195, 9.992611 
7.9387444e+2, 3.177584e+2, -88863.266, -35040.688, 31744.652, -0.14040723, 0.077244356, -20335.389, -20335.389, 0.00000010756827, 9.990433, 9.997367 
8.0839086e+2, 1.2820195e+2, -1619832.4, -1701367.8, 11413.768, 0.48720676, 0.11779477, -1618264.8, 65364.848, 0.013656359, 10.005048, 9.994158 
8.08151e+2, 1.381953e+2, -1516150.6, -1602500.0, 3222.1545, 0.4437317, 0.03677775, -1516030.5, 69662.82, 0.00901513, 10.00549, 9.994041 
8.079117e+2, 1.4818941e+2, -1421798.5, -1511895.0, 14833.316, 0.39901838, 0.072603785, -1419419.1, 68331.766, 0.0049783196, 10.005452, 9.993581 
8.0767334e+2, 1.5818349e+2, -1330314.8, -1424780.6, 22137.844, 0.36137998, 0.1364394, -1325384.1, 64424.76, 0.0021846793, 10.00532, 9.99286 
8.074361e+2, 1.6817456e+2, -1259401.6, -1359810.5, 26910.41, 0.35582572, 0.0652604, -1252644.1, 39250.336, 0.0007317571, 10.00432, 9.991154 
8.071997e+2, 1.7816468e+2, -1177524.3, -1267840.4, 19480.41, 0.35763142, -0.045102786, -1173501.6, 20487.145, 0.00018305305, 10.003113, 9.991351 
8.0696166e+2, 1.8815619e+2, -1092350.6, -1180511.5, 18896.639, 0.3147042, -0.013837406, -1088471.0, 7599.918, 0.00003398985, 10.00238, 9.990983 
8.0672354e+2, 1.981477e+2, -1010891.06, -1105967.8, 22724.152, 0.25918135, 0.061796576, -1005739.0, -7585.156, 0.000004694777, 10.001911, 9.989599 
8.064866e+2, 2.0813462e+2, -936008.1, -1059647.0, 29688.963, 0.26738992, 0.021457214, -929248.56, -28966.959, 0.00000048595643, 10.002075, 9.985998 
8.0625015e+2, 2.1811998e+2, -825299.25, -943701.56, 31230.992, 0.2968849, -0.058024295, -817566.44, -15141.678, 0.0000000388243, 10.002407, 9.987034 
8.0601186e+2, 2.2810863e+2, -712947.6, -818634.06, 27922.445, 0.2613758, -0.022599006, -706024.06, -1487.8857, 0.0000000030120118, 10.002474, 9.988822 
8.057728e+2, 2.3809801e+2, -626264.4, -741192.06, 31451.545, 0.20020187, 0.05347507, -618220.25, -11579.434, 0.00000000062577843, 10.002352, 9.987483 
8.055349e+2, 2.4808323e+2, -579556.7, -705106.2, 35993.23, 0.15220982, 0.040063888, -569969.94, -61182.73, 0.00000000061896455, 10.000464, 9.984152 
8.052975e+2, 2.5806713e+2, -507875.84, -602982.44, 45172.633, 0.11148133, -0.0056582, -489840.38, -78893.55, 0.000000001977801, 9.997972, 9.985636 
8.050634e+2, 2.6805553e+2, -418538.25, -471377.16, 54163.7, 0.10353059, 0.05269363, -384694.16, -71633.13, 0.000000009865365, 9.995831, 9.98896 
8.0482984e+2, 2.780454e+2, -351507.25, -387089.03, 49529.727, 0.1069244, 0.13962369, -316670.13, -101509.24, 0.00000004097699, 9.993622, 9.989066 
8.045915e+2, 2.880341e+2, -288330.47, -297429.16, 26748.988, 0.053326063, 0.06501441, -265746.72, -148475.78, 0.00000012750877, 9.990793, 9.989779 
8.043508e+2, 2.9802302e+2, -227331.38, -207215.97, 22374.295, -0.018015772, -0.042378962, -192742.75, -173363.97, 0.00000030027738, 9.987834, 9.990677 
8.041108e+2, 3.0801687e+2, -145829.84, -85741.76, 12313.231, 0.15773898, 0.00009337348, -83316.43, -83316.43, 0.0000005572369, 9.987616, 9.995663 
8.038631e+2, 3.180133e+2, -133130.28, -74112.695, -3727.9272, -0.22357623, 0.20392744, -73878.15, -73878.15, 0.0000008584146, 9.98814, 9.996102 
8.1839615e+2, 1.2844598e+2, -1609880.1, -1718150.8, 11241.111, 0.4821057, 0.2415752, -1608725.4, 72518.875, 0.006829297, 10.006666, 9.992228 
8.1815654e+2, 1.3843697e+2, -1512161.0, -1606917.5, 4621.154, 0.44076306, 0.09348672, -1511936.1, 71394.484, 0.0044781193, 10.006039, 9.993454 
8.179173e+2, 1.4843184e+2, -1407325.0, -1481411.9, 13762.978, 0.41777158, 0.087714754, -1404850.9, 80528.36, 0.0024504783, 10.005421, 9.995664 
8.1767905e+2, 1.5842754e+2, -1328720.4, -1412878.4, 16793.291, 0.4041274, 0.12202506, -1325493.1, 61926.914, 0.0010623109, 10.004943, 9.993858 
8.174405e+2, 1.6841888e+2, -1270767.1, -1378074.6, 21325.408, 0.3660235, 0.12207406, -1266684.5, 22819.213, 0.00035011073, 10.00408, 9.990015 
8.1720245e+2, 1.7840888e+2, -1180010.3, -1274137.4, 17532.785, 0.3223877, 0.10486434, -1176850.5, 14749.954, 0.00008574844, 10.003152, 9.990873 
8.1696403e+2, 1.8839997e+2, -1082359.0, -1166383.1, 18457.334, 0.31536797, 0.05311467, -1078483.4, 15202.574, 0.000015493128, 10.00266, 9.99179 
8.16726e+2, 1.9839102e+2, -998857.94, -1090811.5, 22224.254, 0.3135006, 0.003752155, -993768.25, 2003.2795, 0.0000020664195, 10.0023365, 9.990416 
8.1648856e+2, 2.0837979e+2, -926412.0, -1043774.7, 31403.76, 0.25454584, 0.056378353, -918537.4, -20655.174, 0.00000020419225, 10.002269, 9.9869795 
8.162515e+2, 2.1836755e+2, -820754.2, -931925.8, 32789.16, 0.18910255, 0.12126777, -811803.9, -11800.687, 0.00000001503065, 10.002325, 9.987866 
8.160139e+2, 2.2835556e+2, -713389.3, -815736.1, 27911.934, 0.21338609, 0.043493424, -706272.1, -4152.678, 0.0000000008412843, 10.002331, 9.989078 
8.157757e+2, 2.3834345e+2, -625994.56, -736822.2, 28178.61, 0.25532672, -0.054704808, -619241.44, -15004.935, 0.00000000013026212, 10.0021925, 9.98784 
8.155361e+2, 2.483304e+2, -574951.56, -694518.2, 26253.877, 0.22498554, 0.046157934, -569440.9, -63073.805, 0.0000000012086369, 10.000385, 9.984867 
8.15296e+2, 2.5831684e+2, -502817.28, -593186.3, 36762.75, 0.17415807, 0.18311878, -489751.13, -81247.6, 0.00000000964855, 9.997976, 9.9862585 
8.150597e+2, 2.683042e+2, -418542.2, -471062.9, 45665.645, 0.15036231, 0.109297, -392124.7, -81497.555, 0.000000056053494, 9.995803, 9.98895 
8.148237e+2, 2.782919e+2, -355014.0, -392823.78, 39654.285, 0.13672335, -0.009644379, -329988.75, -117242.58, 0.00000023739364, 9.993535, 9.988668 
8.145825e+2, 2.882812e+2, -299053.97, -317709.9, 13938.225, 0.08863237, 0.076144114, -291610.4, -176758.7, 0.0000007402421, 9.990683, 9.988393 
8.143391e+2, 2.9827112e+2, -232504.33, -218809.14, 12945.553, 0.02708683, 0.19967327, -211011.7, -194060.61, 0.0000017428113, 9.987872, 9.989836 
8.140983e+2, 3.0826044e+2, -146489.39, -86364.27, 9377.27, 0.14918604, -0.18584731, -84935.71, -84935.71, 0.0000032341825, 9.98764, 9.995619 
8.138503e+2, 3.1825724e+2, -119155.34, -34618.613, -15727.781, -0.27788967, 0.018795691, -31787.336, -31787.336, 0.000004983531, 9.987691, 9.999037 
8.284043e+2, 1.2868963e+2, -1573671.3, -1701928.4, 11798.014, 0.453896, 0.27212286, -1572595.0, 106264.96, 0.0030089617, 10.009091, 9.992097 
8.281627e+2, 1.3868059e+2, -1503412.9, -1602979.0, 11342.465, 0.40618342, 0.13419573, -1502137.1, 78809.555, 0.0019641386, 10.006546, 9.993391 
8.279223e+2, 1.4867532e+2, -1415864.6, -1485916.3, 18450.719, 0.40994495, 0.11652654, -1411302.1, 71694.32, 0.0010681495, 10.004759, 9.995641 
8.276833e+2, 1.5867092e+2, -1346436.1, -1415953.6, 15085.968, 0.4300097, 0.13166595, -1343303.5, 41734.188, 0.00045917454, 10.003409, 9.994404 
8.2744426e+2, 1.6866356e+2, -1275235.9, -1363260.5, 28238.227, 0.40214878, 0.140019, -1266955.9, 20152.54, 0.00014963388, 10.002963, 9.99154 
8.272059e+2, 1.786551e+2, -1176959.8, -1263057.0, 35559.484, 0.3593904, 0.14091933, -1164172.4, 25017.664, 0.00003610315, 10.0028715, 9.991675 
8.269674e+2, 1.886461e+2, -1073777.9, -1166167.0, 36796.03, 0.3417903, 0.0800416, -1060914.1, 30362.115, 0.0000063962675, 10.003354, 9.991398 
8.267294e+2, 1.9863673e+2, -972724.4, -1074256.4, 33995.027, 0.32906345, 0.011579797, -962393.3, 30972.715, 0.00000083170164, 10.003879, 9.990753 
8.264911e+2, 2.0862679e+2, -907906.4, -1016124.75, 41744.844, 0.25455174, 0.07275403, -893674.94, 1788.87, 0.000000079560614, 10.002633, 9.988621 
8.2625294e+2, 2.1861623e+2, -833671.7, -929231.25, 47367.332, 0.16950807, 0.15675099, -814171.7, -16603.201, 0.0000000056200316, 10.00097, 9.988626 
8.260148e+2, 2.2860375e+2, -747203.4, -842287.5, 39679.67, 0.18441868, 0.06804311, -732820.25, -33130.86, 0.00000000032496097, 10.000389, 9.988158 
8.257765e+2, 2.3859067e+2, -655257.9, -751126.2, 32825.65, 0.2272342, -0.053161435, -645095.5, -43279.656, 0.0000000004686742, 10.000122, 9.987853 
8.255363e+2, 2.4857888e+2, -564353.0, -671219.44, 31475.94, 0.22133029, 0.061545856, -555771.4, -51837.33, 0.000000005106064, 10.000239, 9.986487 
8.252953e+2, 2.5856704e+2, -462843.4, -564084.44, 44819.063, 0.1971462, 0.2256354, -445853.38, -39800.13, 0.000000040785107, 10.000184, 9.987102 
8.2505625e+2, 2.6855388e+2, -405926.0, -473843.84, 44249.895, 0.16832477, 0.122703165, -384106.25, -75924.03, 0.00000023684203, 9.996906, 9.988149 
8.2481694e+2, 2.7854043e+2, -366516.75, -404187.0, 35511.7, 0.14136095, -0.04042774, -345154.3, -134841.44, 0.0000010026257, 9.99287, 9.988175 
8.2457393e+2, 2.885302e+2, -280419.16, -311537.94, 19480.059, 0.09406779, 0.124794416, -271047.28, -158632.63, 0.0000031247625, 9.991981, 9.988125 
8.243289e+2, 2.9852077e+2, -179241.2, -201387.48, 27661.572, 0.038071997, 0.3479258, -160518.75, -146009.55, 0.0000073527917, 9.991783, 9.98904 
8.2408726e+2, 3.085069e+2, -115779.31, -92663.97, 16303.269, 0.13722502, -0.20431697, -84237.234, -84237.234, 0.000013641611, 9.9906025, 9.993718 
8.238388e+2, 3.18503e+2, -92179.16, -6309.111, -30246.818, -0.25989944, 0.06311814, 3275.2544, 3275.2544, 0.000021025136, 9.988805, 10.000476 
8.384128e+2, 1.2893419e+2, -1584665.0, -1702646.4, 3232.8777, 0.42119268, 0.275627, -1584576.5, 91889.47, 0.0011421927, 10.008091, 9.99249 
8.381688e+2, 1.389258e+2, -1501714.1, -1601086.8, 2936.1396, 0.36568648, 0.17028649, -1501627.5, 76918.9, 0.0007435361, 10.006579, 9.993465 
8.379269e+2, 1.4892009e+2, -1411793.6, -1491968.0, 13915.637, 0.39492854, 0.15079625, -1409447.0, 71153.695, 0.00040280866, 10.005364, 9.994908 
8.376871e+2, 1.5891501e+2, -1328764.6, -1401842.4, 12786.302, 0.44800073, 0.15124387, -1326592.0, 56056.645, 0.00017225166, 10.004366, 9.994872 
8.374478e+2, 1.6890936e+2, -1244731.4, -1319550.4, 27301.521, 0.4473505, 0.14088486, -1235828.4, 48873.363, 0.00005573453, 10.0037985, 9.994103 
8.3720946e+2, 1.7890309e+2, -1159632.6, -1240324.5, 33656.86, 0.42605752, 0.12644538, -1147437.3, 39323.938, 0.000013319515, 10.003447, 9.992954 
8.369711e+2, 1.8889412e+2, -1079797.3, -1179082.4, 37980.816, 0.376571, 0.091717206, -1066934.4, 21912.873, 0.00000232996, 10.003402, 9.990505 
8.367332e+2, 1.9888437e+2, -977382.1, -1074062.4, 33407.617, 0.3227513, 0.055017855, -966961.4, 23979.83, 0.00000029792903, 10.00346, 9.990959 
8.3649385e+2, 2.0887549e+2, -894715.75, -986530.56, 34997.15, 0.26521796, 0.073164225, -882897.2, 10130.87, 0.000000027884644, 10.0025015, 9.990676 
8.362543e+2, 2.1886617e+2, -825012.06, -917649.0, 41902.13, 0.20567912, 0.10193506, -808871.0, -13751.366, 0.0000000019191981, 10.001227, 9.989276 
8.36015e+2, 2.288533e+2, -756967.44, -866273.3, 38316.3, 0.16290084, 0.07288693, -744873.94, -47628.656, 0.0000000001911084, 10.000564, 9.986427 
8.357757e+2, 2.3883958e+2, -656344.5, -753452.1, 33326.48, 0.13358153, 0.03214056, -646007.5, -46628.19, 0.0000000014288962, 10.000144, 9.987668 
8.3553594e+2, 2.4882862e+2, -549015.75, -637352.6, 32440.037, 0.15766281, 0.074031636, -538382.6, -36894.457, 0.000000015696456, 10.000178, 9.988815 
8.3529544e+2, 2.5881785e+2, -458044.16, -551038.1, 39393.332, 0.18629354, 0.13498951, -443600.13, -40004.65, 0.00000012534122, 10.000043, 9.988032 
8.3505297e+2, 2.6880464e+2, -418528.75, -497974.13, 27576.021, 0.15776896, 0.10740531, -409895.16, -104168.87, 0.00000072758246, 9.996745, 9.986511 
8.348095e+2, 2.7879092e+2, -371248.1, -412733.25, 25114.236, 0.11729803, 0.061917644, -359418.0, -151556.22, 0.0000030789397, 9.992785, 9.987585 
8.3456564e+2, 2.8878102e+2, -272087.03, -295861.53, 19379.098, 0.061995823, 0.20312975, -261239.81, -151277.89, 0.000009592962, 9.992095, 9.9891205 
8.343206e+2, 2.9877174e+2, -181890.86, -212414.78, 25998.898, 0.0029871517, 0.37850088, -167005.34, -154949.64, 0.000022564027, 9.992051, 9.9881315 
8.340779e+2, 3.0875692e+2, -144859.67, -156455.69, 8162.9224, 0.123557225, 0.06307104, -140645.17, -140645.17, 0.000041842937, 9.9907465, 9.989244 
8.338287e+2, 3.1874764e+2, -105665.97, -32821.47, -43850.297, -0.14161026, 0.19704215, -12239.958, -12239.958, 0.00006449779, 9.988726, 9.998655 
8.484193e+2, 1.2918009e+2, -1623742.3, -1721249.8, 12936.818, 0.42436045, 0.2725791, -1622055.0, 52001.99, 0.00036341642, 10.005366, 9.992507 
8.4817535e+2, 1.3917193e+2, -1509180.3, -1603176.5, 10975.845, 0.38875198, 0.18328157, -1507915.6, 68220.34, 0.00023620963, 10.005954, 9.993586 
8.4793305e+2, 1.4916655e+2, -1399013.5, -1485595.4, 24561.596, 0.4049559, 0.19140026, -1392531.1, 85656.64, 0.00012768328, 10.006171, 9.994902 
8.4769267e+2, 1.5916173e+2, -1296615.0, -1382594.9, 24675.766, 0.4394021, 0.21281232, -1290036.5, 90197.4, 0.000054433065, 10.006336, 9.995161 
8.4745276e+2, 1.6915646e+2, -1210222.0, -1293745.5, 33233.594, 0.43657944, 0.17557976, -1198612.3, 83670.875, 0.00001753889, 10.005685, 9.994916 
8.472137e+2, 1.7915069e+2, -1133800.4, -1219375.1, 31969.572, 0.41851366, 0.12957236, -1123176.0, 61160.98, 0.000004167791, 10.004761, 9.9937525 
8.469742e+2, 1.8914261e+2, -1082789.9, -1172837.4, 39378.86, 0.37169877, 0.10909287, -1067998.6, 18415.816, 0.00000072355056, 10.002771, 9.991215 
8.467352e+2, 1.9913375e+2, -1008892.75, -1081222.1, 43758.56, 0.32104, 0.09423173, -988288.7, 211.22943, 0.00000009158835, 10.000878, 9.991668 
8.464961e+2, 2.0912546e+2, -899935.9, -980161.5, 44862.5, 0.28975576, 0.093319334, -879868.25, 10712.481, 0.000000008458323, 10.001704, 9.991477 
8.46257e+2, 2.1911666e+2, -795641.06, -896763.5, 44066.73, 0.25959614, 0.09602797, -779132.8, 13533.971, 0.0000000005808473, 10.002872, 9.989912 
8.4601665e+2, 2.291045e+2, -738909.5, -854247.0, 45003.926, 0.21330157, 0.09746646, -723427.44, -28641.66, 0.00000000023966085, 10.001559, 9.986709 
8.457759e+2, 2.3909144e+2, -659727.1, -751476.2, 50933.4, 0.16490558, 0.096772105, -637054.75, -40140.746, 0.0000000031989926, 9.999662, 9.987921 
8.455348e+2, 2.490803e+2, -577877.4, -647806.25, 42222.848, 0.14089958, 0.0956227, -558021.4, -58997.605, 0.000000035150435, 9.997966, 9.989109 
8.45293e+2, 2.590693e+2, -509055.84, -573960.75, 35974.332, 0.12900579, 0.09893208, -493059.22, -91926.61, 0.00000028060646, 9.996378, 9.988247 
8.450491e+2, 2.6905656e+2, -428010.06, -505409.13, 26236.457, 0.1297334, 0.1242994, -419954.84, -116695.414, 0.000001628311, 9.996097, 9.986283 
8.4480387e+2, 2.7904332e+2, -324648.38, -392153.38, 34512.55, 0.12657079, 0.15092808, -310127.2, -104735.914, 0.00000688847, 9.995943, 9.987389 
8.445589e+2, 2.8903246e+2, -238983.22, -283027.13, 24894.553, 0.06571321, 0.22086357, -227768.06, -120267.53, 0.00002145954, 9.994402, 9.988855 
8.4431285e+2, 2.9902226e+2, -172629.72, -209432.38, 24879.373, -0.0076139555, 0.32079524, -160086.06, -150482.58, 0.000050469935, 9.992651, 9.98806 
8.4406894e+2, 3.0900994e+2, -133163.67, -153871.45, 31460.836, 0.11427927, 0.27172711, -110396.766, -110396.766, 0.000093551396, 9.991559, 9.988865 
8.4381914e+2, 3.1899783e+2, -100459.08, -67644.76, 2136.4258, -0.05367509, 0.23617817, -67506.25, -67506.25, 0.00014419001, 9.99056, 9.99504 
8.5842526e+2, 1.2942718e+2, -1589585.1, -1704122.5, 14037.48, 0.44194266, 0.26602224, -1587889.9, 83745.92, 0.00009383463, 10.007705, 9.992528 
8.581819e+2, 1.3941923e+2, -1494629.1, -1593261.4, 12474.606, 0.42984924, 0.18933976, -1493075.9, 80637.65, 0.00006094004, 10.006847, 9.993808 
8.5793936e+2, 1.4941452e+2, -1399453.3, -1482363.5, 26632.832, 0.42037627, 0.23388013, -1391635.4, 84124.55, 0.00003290037, 10.006008, 9.995187 
8.576987e+2, 1.594103e+2, -1308909.9, -1386012.9, 25255.957, 0.41959548, 0.28725266, -1301373.6, 76427.65, 0.000014001087, 10.005392, 9.995366 
8.5745794e+2, 1.6940485e+2, -1224002.4, -1299534.1, 31810.334, 0.40216154, 0.22151802, -1212390.5, 67461.43, 0.0000045003767, 10.004696, 9.994978 
8.5721797e+2, 1.793989e+2, -1140944.5, -1215770.9, 27883.305, 0.37753785, 0.14048488, -1131697.0, 50210.273, 0.0000010659371, 10.0039425, 9.994366 
8.569767e+2, 1.8939212e+2, -1073622.9, -1151732.8, 32177.617, 0.34862787, 0.12996386, -1062074.6, 21897.473, 0.00000018424288, 10.002631, 9.992684 
8.5673606e+2, 1.993848e+2, -995156.0, -1064355.6, 41980.24, 0.32207942, 0.13202615, -975354.6, 10688.115, 0.000000023185766, 10.001369, 9.992565 
8.564982e+2, 2.0937675e+2, -896339.2, -977542.2, 50724.457, 0.32180947, 0.12581748, -871967.94, 16152.983, 0.0000000021246724, 10.001958, 9.991542 
8.562605e+2, 2.1936804e+2, -792856.4, -887403.3, 44755.55, 0.32495853, 0.120419145, -775031.1, 15174.714, 0.00000000015853915, 10.002728, 9.990611 
8.5601914e+2, 2.293574e+2, -727681.94, -829826.9, 38059.36, 0.31495962, 0.13384801, -715060.5, -22750.453, 0.00000000035362585, 10.001474, 9.988382 
8.557768e+2, 2.3934591e+2, -654938.2, -743785.9, 44312.81, 0.2873328, 0.14623056, -636615.7, -42192.7, 0.00000000524369, 9.99973, 9.988384 
8.555329e+2, 2.4933377e+2, -585954.3, -666821.1, 35797.688, 0.15409695, 0.12723699, -572384.6, -75842.266, 0.000000057604947, 9.998043, 9.9877405 
8.552883e+2, 2.5932142e+2, -510455.16, -578408.94, 32595.059, 0.02591155, 0.11182981, -497348.44, -98684.15, 0.00000045975202, 9.996444, 9.987886 
8.550448e+2, 2.6930964e+2, -419888.38, -489330.13, 26248.379, 0.087748274, 0.16990514, -411083.2, -110301.695, 0.000002667598, 9.996157, 9.987339 
8.548004e+2, 2.7929753e+2, -323541.22, -391305.75, 31802.908, 0.17310658, 0.22291517, -310953.78, -108051.555, 0.000011286507, 9.996017, 9.987389 
8.5455376e+2, 2.8928408e+2, -251341.16, -309892.72, 16714.295, 0.11072008, 0.16353665, -246905.83, -141870.7, 0.00003517497, 9.994438, 9.986964 
8.543057e+2, 2.992715e+2, -163856.78, -190216.17, 18419.75, 0.013799083, 0.14406207, -154387.16, -147227.03, 0.00008277667, 9.992605, 9.989369 
8.540604e+2, 3.0926645e+2, -94198.14, -71818.38, 28884.615, 0.108741954, 0.3842917, -52031.91, -52031.91, 0.00015348918, 9.991523, 9.994457 
8.538097e+2, 3.1925622e+2, -148961.16, -170647.11, 4539.01, -0.06649859, 0.25201175, -148049.45, -148049.45, 0.00023661606, 9.990721, 9.987839 
8.6843574e+2, 1.2967472e+2, -1539199.6, -1668152.6, 11392.577, 0.49752235, 0.23642592, -1538200.9, 131009.33, 0.000019043677, 10.0105505, 9.993532 
8.681894e+2, 1.3966812e+2, -1478254.6, -1574775.0, 13064.665, 0.43732977, 0.19800103, -1476517.5, 94757.195, 0.000012362725, 10.007414, 9.994715 
8.679445e+2, 1.4966409e+2, -1416202.9, -1483396.0, 30270.74, 0.4120653, 0.23790196, -1404577.3, 68737.445, 0.0000066696857, 10.004465, 9.99579 
8.6770177e+2, 1.596603e+2, -1356840.9, -1405597.6, 32457.09, 0.40027863, 0.28146452, -1340626.5, 34725.76, 0.000002835376, 10.001884, 9.99566 
8.674601e+2, 1.6965508e+2, -1278537.6, -1326404.3, 42023.848, 0.36790136, 0.23692778, -1254109.8, 23291.768, 0.0000009100635, 10.000932, 9.994912 
8.6721945e+2, 1.7964941e+2, -1186554.4, -1232492.1, 39461.273, 0.33306712, 0.17975207, -1163864.0, 15590.863, 0.00000021513608, 10.000544, 9.994819 
8.669787e+2, 1.8964362e+2, -1076769.1, -1139903.3, 45051.914, 0.3295692, 0.17088297, -1053325.8, 28184.686, 0.000000037089958, 10.001798, 9.993853 
8.6673856e+2, 1.9963737e+2, -962850.7, -1039095.8, 52834.418, 0.32949176, 0.17104875, -935821.06, 47749.523, 0.0000000046516857, 10.00311, 9.993404 
8.665003e+2, 2.096299e+2, -887767.2, -968121.4, 61702.57, 0.31363153, 0.16590118, -854314.1, 31329.305, 0.0000000004243601, 10.002254, 9.991989 
8.66262e+2, 2.1962167e+2, -811013.2, -887757.4, 56982.176, 0.29863295, 0.16005498, -780687.5, 7036.0903, 0.000000000048385736, 10.001052, 9.991334 
8.660202e+2, 2.2961196e+2, -725380.5, -815136.1, 47819.465, 0.29540858, 0.16203813, -704678.44, -14860.022, 0.0000000004221643, 10.000966, 9.989575 
8.657771e+2, 2.3960143e+2, -630157.0, -724524.5, 51507.76, 0.28152236, 0.16502786, -607488.3, -15566.971, 0.000000006362904, 10.001019, 9.989031 
8.655321e+2, 2.4958947e+2, -556560.06, -654867.94, 46920.41, 0.16802628, 0.1562737, -537760.8, -43721.79, 0.00000006988873, 10.000044, 9.987499 
8.6528623e+2, 2.5957695e+2, -475786.4, -564296.7, 51980.574, 0.050234705, 0.15081018, -451773.72, -55611.14, 0.0000005578092, 9.998832, 9.9875765 
8.6504185e+2, 2.6956478e+2, -394696.38, -479296.0, 40677.344, 0.096989565, 0.20100376, -378311.28, -80028.195, 0.000003238621, 9.997886, 9.987114 
8.647967e+2, 2.7955228e+2, -316927.6, -394889.8, 35179.63, 0.17016776, 0.24352834, -303400.3, -102993.18, 0.000013725994, 9.996651, 9.986811 
8.645482e+2, 2.8953758e+2, -258997.14, -327732.72, 18984.37, 0.111796, 0.15488113, -254102.34, -151550.39, 0.00004290142, 9.9943695, 9.985737 
8.642984e+2, 2.9952383e+2, -156852.48, -177713.97, 27275.373, 0.021998096, 0.09768529, -138081.4, -133394.89, 0.0001013068, 9.99255, 9.990218 
8.640528e+2, 3.0952108e+2, -52598.42, -26943.441, 20492.42, 0.11429569, 0.3515811, -15594.833, -15594.833, 0.00018840002, 9.993193, 9.996841 
8.6380273e+2, 3.1951126e+2, -113436.46, -200140.1, -8273.859, -0.048911218, 0.16913675, -112653.98, -112653.98, 0.00029099907, 9.99514, 9.983906 
8.784465e+2, 1.299233e+2, -1548065.9, -1658305.9, 3090.1042, 0.5523719, 0.20847978, -1547979.3, 118794.93, 0.000002958578, 10.009273, 9.994756 
8.7819654e+2, 1.399183e+2, -1482352.4, -1564141.6, 3555.978, 0.432796, 0.20835546, -1482198.0, 86624.88, 0.0000019202917, 10.006529, 9.995811 
8.779487e+2, 1.4991494e+2, -1408463.0, -1471018.6, 21650.246, 0.39792293, 0.2276152, -1401700.9, 69155.58, 0.0000010355539, 10.004562, 9.996538 
8.777036e+2, 1.5991154e+2, -1339550.6, -1393120.6, 27214.117, 0.38283303, 0.2472587, -1328151.3, 44738.98, 0.0000004399312, 10.002854, 9.996004 
8.7746084e+2, 1.6990678e+2, -1262842.6, -1319223.4, 41315.805, 0.33537254, 0.24275301, -1241016.0, 33920.383, 0.00000014107277, 10.002014, 9.994854 
8.772197e+2, 1.7990164e+2, -1169258.9, -1218955.6, 42804.23, 0.28960404, 0.23180829, -1144613.4, 32372.744, 0.00000003330806, 10.001518, 9.995257 
8.769804e+2, 1.8989669e+2, -1064422.9, -1122038.0, 52035.273, 0.31437242, 0.2197979, -1033753.2, 45280.336, 0.0000000057331504, 10.002172, 9.994896 
8.767418e+2, 1.9989131e+2, -960147.1, -1028194.3, 54219.29, 0.33918166, 0.20985545, -930160.25, 50924.78, 0.00000000071752804, 10.002893, 9.994249 
8.7650216e+2, 2.0988464e+2, -886037.06, -958937.75, 57283.246, 0.27944958, 0.21094161, -854590.44, 28559.809, 0.00000000006528123, 10.0019865, 9.992722 
8.762622e+2, 2.198772e+2, -807486.5, -877222.56, 55006.42, 0.21296194, 0.20921841, -777227.9, 7995.205, 0.00000000002298472, 10.000904, 9.992107 
8.7602013e+2, 2.2986807e+2, -720270.06, -802318.5, 48781.508, 0.19219306, 0.18314564, -697555.56, -10243.816, 0.00000000038869732, 10.000885, 9.990484 
8.757772e+2, 2.3985818e+2, -625078.9, -712096.25, 50174.03, 0.18347237, 0.16117454, -602176.4, -12768.462, 0.0000000058728507, 10.000937, 9.989908 
8.755324e+2, 2.4984737e+2, -551230.56, -643791.06, 42140.42, 0.191987, 0.18609664, -534919.44, -43405.313, 0.00000006450738, 10.000028, 9.988237 
8.752865e+2, 2.5983563e+2, -477359.4, -568374.8, 48348.637, 0.18991455, 0.21328975, -456470.25, -62840.785, 0.0000005152238, 9.998861, 9.987262 
8.750403e+2, 2.6982185e+2, -404765.88, -500349.84, 36514.117, 0.1480242, 0.21328786, -392413.44, -96647.41, 0.000002999194, 9.997896, 9.985645 
8.747927e+2, 2.7980748e+2, -325261.6, -412201.2, 27572.654, 0.10910888, 0.2100948, -317254.47, -119346.36, 0.000012788027, 9.9966345, 9.9855995 
8.74542e+2, 2.8979284e+2, -264192.3, -337133.97, 9702.204, 0.061824102, 0.21762045, -262923.84, -162872.66, 0.00004036107, 9.994267, 9.985111 
8.7429076e+2, 2.9977924e+2, -160522.23, -183535.7, 24366.063, 0.01134166, 0.21726254, -145082.55, -142898.42, 0.00009640509, 9.992477, 9.989845 
8.7404627e+2, 3.0977103e+2, -70155.74, -63857.695, 21508.264, 0.13839461, 0.075882666, -45269.152, -45269.152, 0.00018109614, 9.9932575, 9.994305 
8.737989e+2, 3.1976235e+2, -86043.72, -150706.55, 9798.025, 0.021558706, 0.15198916, -84591.68, -84591.68, 0.0002816272, 9.995625, 9.987153 
8.88453e+2, 1.30175e+2, -1600614.0, -1678339.8, 3896.2336, 0.5022999, 0.25753644, -1600419.3, 63890.617, 0.00000034527207, 10.005372, 9.995204 
8.8820136e+2, 1.4017016e+2, -1520804.4, -1575164.9, 6641.3677, 0.43472445, 0.22086173, -1520004.8, 46351.938, 0.00000022408217, 10.003522, 9.996464 
8.8795334e+2, 1.5016738e+2, -1411888.0, -1465265.6, 29009.908, 0.42332843, 0.23280752, -1399157.8, 69226.125, 0.00000012080618, 10.003982, 9.997173 
8.877081e+2, 1.6016455e+2, -1308616.9, -1372268.5, 33904.496, 0.42455977, 0.24915114, -1293941.1, 76470.55, 0.000000051297388, 10.00468, 9.996495 
8.8746494e+2, 1.7016028e+2, -1223288.9, -1294833.5, 49218.71, 0.38600382, 0.25095353, -1198216.0, 74237.3, 0.00000001643881, 10.004451, 9.995277 
8.8722324e+2, 1.8015562e+2, -1130647.8, -1195190.4, 52244.15, 0.34201708, 0.24853975, -1101511.5, 72987.01, 0.000000003877973, 10.003895, 9.995657 
8.8698304e+2, 1.901511e+2, -1056009.9, -1112247.4, 59734.656, 0.3344282, 0.23511939, -1018106.75, 58435.63, 0.00000000066676814, 10.002458, 9.995372 
8.8674355e+2, 2.0014626e+2, -982948.44, -1031527.94, 59325.977, 0.32953015, 0.22500104, -943132.3, 35456.92, 0.00000000008333369, 10.000952, 9.994919 
8.86503e+2, 2.1014063e+2, -907935.5, -958186.25, 62361.367, 0.27716413, 0.24304424, -865828.25, 14816.391, 0.000000000007568592, 9.999938, 9.993712 
8.862622e+2, 2.2013426e+2, -827208.44, -877826.4, 63542.156, 0.21774805, 0.25643572, -784120.44, -1413.0569, 0.000000000014338903, 9.999117, 9.99288 
8.8601995e+2, 2.3012581e+2, -740744.25, -803323.44, 59320.797, 0.17982559, 0.22501563, -704966.75, -20177.393, 0.0000000002880348, 9.999057, 9.991261 
8.8577694e+2, 2.4011666e+2, -643718.94, -710676.6, 60068.703, 0.15651108, 0.19428149, -608429.5, -21551.227, 0.0000000043537822, 9.999154, 9.990832 
8.8553214e+2, 2.5010684e+2, -548581.25, -629763.0, 53012.91, 0.18909349, 0.21259525, -522403.97, -33429.813, 0.00000004784033, 9.99958, 9.989367 
8.8528615e+2, 2.6009613e+2, -453801.97, -545439.56, 62608.676, 0.215928, 0.2330661, -422037.22, -30958.2, 0.00000038284384, 9.999867, 9.988275 
8.850384e+2, 2.7008286e+2, -393198.7, -486420.97, 61786.72, 0.15048537, 0.20719011, -362413.47, -69203.76, 0.0000022424306, 9.998189, 9.986271 
8.8478863e+2, 2.8006878e+2, -333631.25, -413048.3, 66517.27, 0.081348024, 0.19132468, -295871.63, -100523.055, 0.000009696954, 9.995767, 9.985681 
8.8453686e+2, 2.9005453e+2, -249666.78, -341947.16, 57222.035, 0.05758714, 0.3011777, -222299.97, -124811.555, 0.000031323674, 9.995632, 9.983863 
8.842858e+2, 3.0003995e+2, -105290.86, -185177.1, 68502.52, 0.033635966, 0.3551961, -65936.76, -65936.76, 0.000076946104, 9.997419, 9.987134 
8.84042e+2, 3.1002313e+2, -37607.06, -114964.57, 38671.99, 0.1397797, -0.16196722, -21590.578, -21590.578, 0.00014826053, 9.998357, 9.988267 
8.8379616e+2, 3.200146e+2, -12399.91, -60817.17, 17780.707, 0.03188032, 0.28604767, -6571.7075, -6571.7075, 0.0002347059, 9.998446, 9.992011 
8.984577e+2, 1.3042817e+2, -1591675.1, -1670871.3, 2263.826, 0.43387413, 0.32109696, -1591610.5, 70220.71, 0.000000029867618, 10.005803, 9.995427 
8.982051e+2, 1.4042315e+2, -1501966.0, -1559859.4, 9737.717, 0.44107878, 0.23412834, -1500372.0, 63507.68, 0.000000019382966, 10.004534, 9.996964 
8.9795774e+2, 1.5042093e+2, -1399255.0, -1452507.8, 35812.055, 0.45962897, 0.24464594, -1381255.5, 84645.07, 0.000000010447276, 10.004582, 9.997729 
8.977134e+2, 1.6041867e+2, -1303367.6, -1363420.4, 37184.8, 0.48419765, 0.26402617, -1285599.8, 82322.29, 0.000000004434464, 10.004777, 9.997033 
8.9747024e+2, 1.7041494e+2, -1219429.1, -1285507.3, 49223.258, 0.46677554, 0.25901932, -1193184.9, 76773.586, 0.0000000014203173, 10.004388, 9.995925 
8.97228e+2, 1.804108e+2, -1129264.6, -1189867.6, 49204.785, 0.4318024, 0.24960473, -1101779.5, 70219.25, 0.00000000033482794, 10.003769, 9.99606 
8.9698577e+2, 1.9040653e+2, -1053487.4, -1107903.0, 54588.45, 0.3664907, 0.23537375, -1019702.0, 54338.64, 0.000000000057520166, 10.002461, 9.995638 
8.9674425e+2, 2.004021e+2, -975215.56, -1020274.5, 55575.086, 0.3092371, 0.22916049, -937777.0, 38307.273, 0.0000000000071813653, 10.001132, 9.995576 
8.965031e+2, 2.103977e+2, -893833.8, -937751.44, 59703.477, 0.2958884, 0.26855, -852179.0, 25949.166, 0.000000000000811602, 10.0002985, 9.994911 
8.96262e+2, 2.2039263e+2, -814751.2, -862596.06, 62822.695, 0.27939686, 0.30297917, -771450.3, 8728.357, 0.0000000000089349595, 9.999569, 9.993687 
8.9601946e+2, 2.3038499e+2, -730554.2, -789594.94, 60622.387, 0.22799245, 0.2820616, -692646.6, -10393.764, 0.00000000018507246, 9.999384, 9.992029 
8.9577633e+2, 2.403767e+2, -633748.3, -694202.56, 62238.59, 0.17830138, 0.25379595, -594785.0, -10451.5625, 0.0000000027981977, 9.9993515, 9.991853 
8.955314e+2, 2.503678e+2, -537315.5, -607237.5, 55834.332, 0.15711695, 0.23314339, -506399.75, -19980.26, 0.00000003077194, 9.9996395, 9.990874 
8.952852e+2, 2.6035842e+2, -437581.94, -510627.44, 61508.76, 0.13918746, 0.21449474, -402569.8, -14059.201, 0.00000024707452, 9.999811, 9.99067 
8.9503616e+2, 2.70348e+2, -372916.84, -443882.38, 52436.93, 0.111480854, 0.18598853, -345085.63, -54472.6, 0.0000014621912, 9.998138, 9.989152 
8.9478457e+2, 2.803367e+2, -320909.8, -386846.63, 59285.06, 0.092296846, 0.18951666, -286042.88, -93318.12, 0.0000064760534, 9.995762, 9.98742 
8.945331e+2, 2.903235e+2, -258357.8, -361401.7, 65307.734, 0.107873976, 0.40671784, -226695.55, -131839.9, 0.000021804974, 9.995702, 9.982532 
8.9428407e+2, 3.003071e+2, -140880.47, -262384.5, 77895.43, 0.09686384, 0.51572126, -102847.336, -102847.336, 0.000056523506, 9.997574, 9.981809 
8.9404005e+2, 3.1027812e+2, -110461.09, -268066.38, 38190.855, 0.09920291, -0.32913068, -101694.35, -101694.35, 0.00011477289, 9.99842, 9.977759 
8.9379346e+2, 3.202678e+2, 36625.69, 47473.016, 12281.845, -0.05478349, 0.5601702, 55475.44, 55475.44, 0.00018901186, 9.998163, 9.999548 
9.0846366e+2, 1.3068435e+2, -1602619.9, -1676234.9, 14261.926, 0.4738585, 0.32251805, -1599953.4, 59368.574, 0.000000001903787, 10.005051, 9.99534 
9.082105e+2, 1.4067961e+2, -1489718.4, -1553588.0, 20768.717, 0.45694914, 0.27035704, -1483559.0, 77809.02, 0.0000000012354053, 10.005345, 9.996913 
9.079624e+2, 1.5067713e+2, -1397459.4, -1453025.4, 44171.55, 0.43345627, 0.26623717, -1373059.9, 90331.6, 0.00000000066574474, 10.004754, 9.99754 
9.077173e+2, 1.6067451e+2, -1315364.8, -1370145.9, 42990.938, 0.4247523, 0.26827824, -1291780.1, 73635.96, 0.0000000002824927, 10.003985, 9.996904 
9.074735e+2, 1.7067076e+2, -1234113.0, -1291584.6, 52366.2, 0.4149491, 0.26400906, -1203116.4, 64336.633, 0.00000000009044054, 10.003325, 9.995985 
9.0723085e+2, 1.8066679e+2, -1144230.8, -1194606.5, 49766.332, 0.39536107, 0.26039684, -1113641.3, 55850.914, 0.000000000021308946, 10.002617, 9.996263 
9.0698785e+2, 1.9066304e+2, -1058924.3, -1105671.5, 54873.63, 0.35454616, 0.26512143, -1022653.56, 48875.938, 0.000000000003658245, 10.001854, 9.996045 
9.067456e+2, 2.0065926e+2, -967179.75, -1007175.9, 58892.438, 0.31595722, 0.2726022, -924982.6, 48584.535, 0.00000000000045636807, 10.00127, 9.996365 
9.0650433e+2, 2.1065584e+2, -865531.7, -909137.44, 65210.84, 0.3040862, 0.29524222, -818575.4, 57025.83, 0.00000000000009378447, 10.001585, 9.996204 
9.0626293e+2, 2.2065187e+2, -773307.9, -828009.44, 68845.64, 0.29007787, 0.3150439, -726579.06, 51061.375, 0.0000000000051814325, 10.001761, 9.994939 
9.0602e+2, 2.3064575e+2, -695598.56, -754361.94, 70497.87, 0.24628712, 0.3037724, -648604.6, 31095.314, 0.000000000107802066, 10.000961, 9.993595 
9.057762e+2, 2.4063903e+2, -615800.1, -670577.8, 76302.664, 0.19772874, 0.28847194, -562119.6, 19645.67, 0.0000000016303687, 9.999904, 9.993095 
9.0553033e+2, 2.5063154e+2, -544732.5, -592846.5, 70340.836, 0.1469691, 0.27552354, -494448.6, -10610.443, 0.00000001794676, 9.998316, 9.992389 
9.052831e+2, 2.6062393e+2, -464605.72, -496522.38, 76520.414, 0.10269061, 0.25716907, -402397.28, -16484.902, 0.00000014467659, 9.996731, 9.993013 
9.05033e+2, 2.706166e+2, -376172.22, -403712.7, 68387.805, 0.09503845, 0.21781136, -320182.06, -32197.969, 0.00000086707286, 9.996008, 9.992805 
9.047802e+2, 2.806088e+2, -297568.2, -336238.9, 84125.27, 0.10091634, 0.21698834, -230584.86, -40524.297, 0.000003957394, 9.995491, 9.990873 
9.045255e+2, 2.9059985e+2, -312460.13, -328919.38, 108340.27, 0.10934547, 0.44141087, -212037.38, -119886.88, 0.000014092226, 9.989122, 9.987546 
9.184693e+2, 1.3094145e+2, -1608048.9, -1679344.3, 14465.501, 0.5366045, 0.31064132, -1605225.8, 51577.656, 0.00000000008526822, 10.004715, 9.995306 
9.1821593e+2, 1.4093721e+2, -1496932.3, -1558626.5, 19965.13, 0.4720743, 0.3122972, -1491035.0, 67810.19, 0.00000000005532455, 10.004918, 9.996778 
9.179666e+2, 1.5093425e+2, -1406008.8, -1461242.0, 41129.586, 0.3867622, 0.2896203, -1384084.3, 76788.89, 0.000000000029806633, 10.004332, 9.997176 
9.177202e+2, 1.6093107e+2, -1322598.4, -1376870.9, 40807.816, 0.32567498, 0.26986346, -1300728.0, 62175.453, 0.000000000012643394, 10.003619, 9.996613 
9.1747576e+2, 1.7092718e+2, -1238606.1, -1294828.0, 51200.402, 0.3139436, 0.2697127, -1208307.3, 56634.94, 0.0000000000040459667, 10.003054, 9.995875 
9.172326e+2, 1.8092331e+2, -1144845.8, -1192808.1, 49264.793, 0.3081649, 0.27730218, -1114035.4, 52945.71, 0.000000000000952743, 10.002473, 9.99643 
9.169894e+2, 1.9092023e+2, -1053181.9, -1097044.8, 54009.277, 0.3261083, 0.31026772, -1016821.06, 52191.38, 0.00000000000016345195, 10.001982, 9.996546 
9.1674715e+2, 2.0091723e+2, -956552.2, -991729.9, 60488.703, 0.33668894, 0.33554953, -911147.0, 59895.574, 0.000000000000020373985, 10.001558, 9.997264 
9.1650593e+2, 2.1091466e+2, -855519.06, -888498.44, 67649.266, 0.30336103, 0.32048243, -802378.75, 70688.56, 0.00000000000001430179, 10.001606, 9.997598 
9.162645e+2, 2.2091179e+2, -764923.75, -805686.4, 67926.44, 0.2684452, 0.305237, -714386.8, 60708.15, 0.000000000002638386, 10.001547, 9.996555 
9.1602093e+2, 2.3090772e+2, -682601.06, -722953.6, 66936.63, 0.24575852, 0.30239245, -632866.0, 44268.406, 0.000000000054926484, 10.000754, 9.995824 
9.1577625e+2, 2.4090323e+2, -607042.1, -649371.6, 71289.08, 0.21662971, 0.30722448, -553842.4, 25336.205, 0.0000000008308831, 9.99975, 9.994598 
9.155287e+2, 2.5089765e+2, -532677.0, -567698.9, 64127.188, 0.15535589, 0.33888978, -483712.9, -2478.7944, 0.0000000091534424, 9.99828, 9.994092 
9.152798e+2, 2.6089227e+2, -446563.8, -460247.28, 72702.914, 0.10001697, 0.35499442, -380381.4, 2905.7449, 0.00000007404214, 9.996769, 9.995449 
9.1502905e+2, 2.7088842e+2, -344181.03, -337429.3, 66917.12, 0.09830021, 0.30187583, -273802.97, 11521.084, 0.0000004486991, 9.996012, 9.99733 
9.147757e+2, 2.8088516e+2, -259881.34, -257396.95, 82766.51, 0.1047036, 0.2721224, -175863.31, 11492.563, 0.0000021046867, 9.995455, 9.996282 
9.14514e+2, 2.9088378e+2, -227490.66, -153221.45, 63659.566, 0.046552382, 0.37963733, -116657.22, -27285.008, 0.000007923513, 9.989101, 9.99926 
9.2847276e+2, 1.3119757e+2, -1635687.0, -1685784.9, 10584.039, 0.5275907, 0.31327033, -1633542.8, 20752.219, 0.0000000000029415736, 10.002551, 9.9959545 
9.282196e+2, 1.411939e+2, -1526526.1, -1571365.4, 16091.441, 0.46749932, 0.3198122, -1521349.1, 34982.387, 0.0000000000019083366, 10.002842, 9.996936 
9.2797005e+2, 1.5119089e+2, -1436984.8, -1479521.1, 35143.797, 0.4109877, 0.311285, -1417174.8, 41185.625, 0.0000000000010279229, 10.002366, 9.996886 
9.277232e+2, 1.6118771e+2, -1348351.8, -1386240.5, 36641.01, 0.37139162, 0.30469888, -1326047.4, 34343.664, 0.0000000000004359048, 10.0017395, 9.996884 
9.2747825e+2, 1.7118455e+2, -1257571.1, -1295485.9, 50413.664, 0.35006782, 0.31509638, -1222668.3, 39754.574, 0.0000000000001394446, 10.001408, 9.996603 
9.2723453e+2, 1.8118139e+2, -1159577.0, -1193918.6, 53275.758, 0.33091557, 0.32829708, -1120773.3, 43681.56, 0.00000000000003282296, 10.001236, 9.996913 
9.2699146e+2, 1.911786e+2, -1052010.6, -1090649.1, 59294.36, 0.33383268, 0.34915763, -1008967.56, 57515.465, 0.0000000000000056283993, 10.001846, 9.9970045 
9.2674905e+2, 2.0117599e+2, -945104.0, -979923.94, 63181.516, 0.3312267, 0.36365756, -896977.6, 71531.72, 0.00000000000000070118843, 10.002091, 9.997763 
9.265068e+2, 2.1117398e+2, -864204.7, -884298.4, 65535.625, 0.2817404, 0.344956, -807950.25, 62578.246, 0.0000000000000022119594, 10.000662, 9.998303 
9.262644e+2, 2.2117181e+2, -793950.6, -809519.1, 62374.85, 0.2344805, 0.32575214, -738876.2, 33672.816, 0.0000000000010891477, 9.999138, 9.997444 
9.2602e+2, 2.3116893e+2, -710275.7, -720550.6, 56470.484, 0.21654455, 0.32085043, -658709.44, 15867.748, 0.000000000022674881, 9.998204, 9.997231 
9.257746e+2, 2.4116601e+2, -627153.0, -637147.56, 58810.25, 0.19580646, 0.32623848, -573128.06, 3477.962, 0.0000000003430275, 9.997463, 9.996567 
9.255265e+2, 2.5116298e+2, -526009.8, -533320.75, 57703.883, 0.14660726, 0.36483052, -471845.72, 6791.1074, 0.0000000037808174, 9.997442, 9.996827 
9.252768e+2, 2.6116022e+2, -426817.06, -427466.44, 69465.36, 0.10026263, 0.39077732, -357675.63, 22989.016, 0.00000003064746, 9.997182, 9.997437 
9.250249e+2, 2.711585e+2, -333755.7, -305750.63, 51382.406, 0.0986684, 0.35098138, -266496.97, 16183.808, 0.00000018700783, 9.9956875, 9.999646 
9.247702e+2, 2.811579e+2, -264905.6, -221353.38, 49812.906, 0.09745803, 0.3232784, -188764.75, -4078.3433, 0.00000089284123, 9.993618, 9.999701 
9.2450505e+2, 2.9116023e+2, -125838.51, -50578.78, -14208.322, -0.012748974, 0.37062323, -47985.727, 38681.004, 0.0000034934678, 9.994131, 10.004025 
9.384751e+2, 1.3145317e+2, -1629709.4, -1673015.3, 11224.6455, 0.5064755, 0.32422554, -1626972.9, 24819.18, 0.0, 10.002535, 9.996845 
9.382224e+2, 1.4145008e+2, -1524437.8, -1567704.3, 16463.436, 0.46204588, 0.32097396, -1518885.6, 34937.21, 0.0, 10.002864, 9.997174 
9.379729e+2, 1.5144718e+2, -1435518.3, -1481283.6, 34282.44, 0.46087733, 0.33537063, -1417183.3, 38668.22, 0.0, 10.002559, 9.996652 
9.3772596e+2, 1.6144425e+2, -1339746.5, -1376163.8, 37663.035, 0.46755648, 0.35241786, -1316121.4, 41759.11, 0.0, 10.002063, 9.997392 
9.3748057e+2, 1.7144212e+2, -1245949.1, -1277779.0, 50289.613, 0.43798804, 0.37582475, -1209116.3, 50785.652, 0.0, 10.001674, 9.997664 
9.372365e+2, 1.8143992e+2, -1152849.1, -1183351.3, 54912.69, 0.39805296, 0.3921065, -1111109.0, 50815.367, 0.0, 10.001392, 9.997557 
9.3699354e+2, 1.9143733e+2, -1051197.9, -1084429.3, 62307.574, 0.35501644, 0.38247466, -1003328.56, 60621.53, 0.0, 10.001674, 9.997512 
9.367508e+2, 2.0143494e+2, -948573.6, -977967.8, 61369.54, 0.3109634, 0.37331024, -900165.9, 65808.02, 0.0, 10.001687, 9.998074 
9.3650717e+2, 2.1143335e+2, -864010.5, -880382.06, 60111.766, 0.24888967, 0.37038538, -811529.7, 56459.406, 0.000000000000011991482, 10.000479, 9.998629 
9.362631e+2, 2.2143167e+2, -789989.1, -802663.6, 58937.098, 0.1925636, 0.3650256, -737049.56, 32955.68, 0.00000000000034373283, 9.999179, 9.997869 
9.360177e+2, 2.3142934e+2, -702932.7, -708093.1, 53938.254, 0.16666353, 0.35138622, -651513.0, 20515.367, 0.000000000007155366, 9.998314, 9.998004 
9.357715e+2, 2.4142756e+2, -608480.5, -601438.75, 58779.355, 0.14519088, 0.34331495, -546074.94, 27971.107, 0.000000000108239764, 9.997599, 9.998927 
9.355237e+2, 2.5142753e+2, -500134.13, -480813.06, 58056.684, 0.12544362, 0.35812858, -431618.66, 44427.88, 0.0000000011933202, 9.99751, 10.000378 
9.35274e+2, 2.6142755e+2, -416522.0, -405684.7, 66180.0, 0.104501344, 0.37154475, -344701.88, 33344.64, 0.000000009682468, 9.997159, 9.9989195 
9.3502057e+2, 2.7142662e+2, -332520.44, -302915.78, 44192.55, 0.09538296, 0.36669055, -271112.4, 8943.417, 0.000000059258237, 9.995658, 9.999816 
9.3476355e+2, 2.8142688e+2, -255489.61, -201819.55, 40008.38, 0.07408449, 0.37358892, -180480.0, 1573.7643, 0.00000028522044, 9.993583, 10.001009 
9.3449855e+2, 2.9142898e+2, -145603.95, -89144.73, -1081.4485, -0.06671746, 0.43506318, -89124.02, -5088.3545, 0.0000011364027, 9.993993, 10.001561 
9.4847786e+2, 1.3170794e+2, -1635320.6, -1657458.4, 5732.0117, 0.58706224, 0.38538048, -1633924.5, 15375.542, 0.0, 10.001399, 9.998501 
9.482253e+2, 1.4170608e+2, -1529900.6, -1559270.0, 12619.587, 0.5106194, 0.36343452, -1525223.1, 26094.58, 0.0, 10.002049, 9.998169 
9.479756e+2, 1.5170377e+2, -1434774.3, -1473533.9, 31310.805, 0.4772266, 0.36584508, -1417330.9, 36009.074, 0.0, 10.002331, 9.997278 
9.4772816e+2, 1.6170122e+2, -1335302.0, -1370555.4, 36425.656, 0.4631959, 0.37178162, -1312462.4, 42902.527, 0.0, 10.002257, 9.997653 
9.4748247e+2, 1.7169914e+2, -1242621.0, -1273694.4, 45247.28, 0.4417538, 0.38149157, -1210317.3, 47068.453, 0.0, 10.001835, 9.99785 
9.472379e+2, 1.8169716e+2, -1152179.5, -1176876.8, 47475.926, 0.40586105, 0.38872352, -1115472.5, 43933.223, 0.0, 10.001215, 9.998087 
9.469943e+2, 1.9169532e+2, -1067600.3, -1083437.9, 55444.797, 0.34867704, 0.38315448, -1019511.6, 41912.426, 0.0, 10.000214, 9.9982815 
9.467511e+2, 2.016936e+2, -980607.4, -989628.06, 55495.91, 0.29719132, 0.380458, -929438.8, 34002.297, 0.0, 9.999383, 9.998383 
9.465071e+2, 2.1169232e+2, -879353.44, -885261.9, 53275.023, 0.257784, 0.39273694, -828950.75, 36503.023, 0.000000000000002808218, 9.999374, 9.998817 
9.4626266e+2, 2.2169113e+2, -783618.1, -791706.4, 52445.684, 0.21937639, 0.40094182, -735060.9, 32404.922, 0.00000000000008048929, 9.999337, 9.998527 
9.460167e+2, 2.3168978e+2, -684239.9, -686942.94, 48900.19, 0.19116847, 0.39308003, -636672.56, 32806.914, 0.0000000000016754154, 9.999144, 9.999018 
9.4576997e+2, 2.416891e+2, -583397.4, -574668.2, 52752.336, 0.16288042, 0.3874038, -526100.2, 45386.07, 0.000000000025342959, 9.998772, 10.000164 
9.4552153e+2, 2.5169036e+2, -484120.44, -456515.75, 39688.348, 0.1311469, 0.39517435, -428298.22, 45175.383, 0.00000000027941532, 9.998002, 10.001846 
9.4527113e+2, 2.6169172e+2, -409401.72, -388163.63, 35977.68, 0.10242602, 0.39764568, -361270.56, 14189.839, 0.0000000022677775, 9.997164, 10.00021 
9.4501674e+2, 2.7169162e+2, -312448.56, -285683.75, 18028.053, 0.08823378, 0.38206533, -276614.0, 847.29083, 0.000000013891195, 9.996858, 10.00048 
9.4475865e+2, 2.816925e+2, -203786.0, -170720.61, 12678.161, 0.05712352, 0.39094144, -166419.06, 13034.016, 0.00000006703195, 9.997039, 10.001512 
9.444944e+2, 2.9169434e+2, -93437.28, -80743.26, -13856.926, -0.094563864, 0.47469407, -71848.914, 9588.319, 0.0000002686528, 9.998453, 10.000156 
9.5848024e+2, 1.3196199e+2, -1622065.1, -1631907.8, 10714.591, 0.6826863, 0.4528325, -1615195.8, 31619.758, 0.0, 10.001475, 10.000196 
9.5822793e+2, 1.419615e+2, -1525429.0, -1544573.4, 15313.005, 0.566723, 0.41550785, -1516942.5, 31876.447, 0.0, 10.001813, 9.999293 
9.5797783e+2, 1.519599e+2, -1435424.9, -1463394.0, 31046.875, 0.47696844, 0.39539647, -1415358.4, 35475.02, 0.0, 10.001832, 9.998212 
9.5772994e+2, 1.6195779e+2, -1343036.6, -1372668.8, 35028.98, 0.42136258, 0.37821704, -1319819.3, 33033.977, 0.0, 10.001654, 9.997804 
9.5748395e+2, 1.7195533e+2, -1248929.8, -1278358.3, 43150.996, 0.41250616, 0.3643875, -1218053.3, 36823.938, 0.0, 10.001467, 9.9977045 
9.57239e+2, 1.819533e+2, -1150865.9, -1170499.3, 44344.56, 0.38840622, 0.3579662, -1115264.4, 41632.953, 0.0, 10.0010395, 9.998595 
9.569943e+2, 1.9195244e+2, -1061801.6, -1070868.5, 50589.582, 0.3305087, 0.37162572, -1015542.75, 43363.43, 0.0, 10.000166, 9.99915 
9.567504e+2, 2.0195158e+2, -977889.06, -985009.2, 53411.1, 0.28882074, 0.38920984, -927919.5, 32995.395, 0.0, 9.999428, 9.998677 
9.565068e+2, 2.1195057e+2, -879205.75, -883875.3, 52855.316, 0.29233828, 0.41513306, -828633.6, 34292.15, 0.0000000000000004830602, 9.999339, 9.998926 
9.562627e+2, 2.2194986e+2, -778967.25, -779904.06, 52138.117, 0.2896233, 0.43672112, -727295.44, 37638.145, 0.000000000000013842872, 9.99925, 9.999368 
9.5601666e+2, 2.3194979e+2, -676531.3, -669778.3, 48028.46, 0.2666606, 0.44454962, -625007.8, 41926.938, 0.0000000000002881413, 9.999098, 10.000203 
9.557694e+2, 2.4195017e+2, -581629.25, -570194.7, 50489.594, 0.2298389, 0.4533197, -525099.7, 43831.69, 0.000000000004358468, 9.998734, 10.000474 
9.555198e+2, 2.5195137e+2, -486819.28, -461512.7, 36816.2, 0.15575096, 0.46906283, -435236.06, 35683.62, 0.000000000048050463, 9.99797, 10.001501 
9.552682e+2, 2.6195273e+2, -401119.16, -370804.03, 32954.207, 0.092980325, 0.46282732, -349688.6, 23217.146, 0.00000000038998074, 9.997148, 10.001388 
9.550135e+2, 2.7195358e+2, -304429.72, -268954.0, 19169.434, 0.07745548, 0.39442953, -260574.83, 14321.754, 0.0000000023889168, 9.996845, 10.001644 
9.5475566e+2, 2.8195482e+2, -206537.66, -176317.2, 13766.102, 0.049402762, 0.3709483, -170986.67, 5897.294, 0.000000011532014, 9.997022, 10.001147 
9.54493e+2, 2.9195625e+2, -95892.51, -87591.195, -4017.691, -0.08999061, 0.48236224, -85965.195, -7093.18, 0.000000046275776, 9.9985285, 9.999717 
9.6848106e+2, 1.322163e+2, -1622772.3, -1628643.1, 7889.989, 0.6254776, 0.49575147, -1617289.3, 27037.203, 0.0, 10.001303, 10.000499 
9.682287e+2, 1.4221652e+2, -1537087.8, -1546570.6, 8002.1978, 0.5159278, 0.49930283, -1532527.8, 13795.452, 0.0, 10.000895, 9.999626 
9.679784e+2, 1.5221512e+2, -1456678.4, -1469383.6, 19345.262, 0.4466732, 0.46172488, -1442669.4, 5666.1377, 0.0, 10.000238, 9.998601 
9.677303e+2, 1.6221316e+2, -1372129.0, -1386502.1, 23981.58, 0.40820214, 0.43457165, -1354280.4, -3926.7185, 0.0, 9.999723, 9.997841 
9.674845e+2, 1.7221084e+2, -1269910.9, -1288781.4, 32315.824, 0.40084675, 0.4372769, -1245681.1, 6695.458, 0.0, 10.000124, 9.997684 
9.6723944e+2, 1.822089e+2, -1162629.6, -1176239.3, 30763.662, 0.37998214, 0.4404947, -1137927.1, 16468.896, 0.0, 10.000311, 9.998592 
9.669944e+2, 1.9220799e+2, -1065608.5, -1071515.0, 32170.637, 0.33733594, 0.44595194, -1036255.9, 20149.238, 0.0, 9.999924, 9.999274 
9.6675e+2, 2.0220731e+2, -975000.9, -978063.4, 33830.344, 0.30454484, 0.45180392, -942667.1, 15745.175, 0.0, 9.999464, 9.9992 
9.66506e+2, 2.1220678e+2, -880740.94, -876371.2, 35972.316, 0.2970237, 0.45750976, -842517.44, 17900.572, 0.00000000000000006131223, 9.998963, 9.999669 
9.662615e+2, 2.2220674e+2, -782486.1, -770685.5, 38557.582, 0.28780526, 0.46310967, -737579.4, 24839.656, 0.0000000000000017569902, 9.998635, 10.000333 
9.6601564e+2, 2.3220766e+2, -673875.25, -656681.44, 33984.03, 0.2692344, 0.46637198, -630223.8, 34186.586, 0.000000000000036572155, 9.998875, 10.001247 
9.657683e+2, 2.4220894e+2, -575668.4, -559813.75, 34649.42, 0.23419634, 0.4742892, -532196.4, 34201.785, 0.000000000000553196, 9.998915, 10.001128 
9.6551794e+2, 2.522105e+2, -479083.4, -455300.66, 24101.334, 0.15257263, 0.49295464, -440316.78, 28065.99, 0.000000000006098638, 9.99849, 10.001681 
9.652658e+2, 2.6221222e+2, -382872.38, -355950.25, 21506.521, 0.08348633, 0.49055743, -344039.47, 26326.346, 0.000000000049495658, 9.998245, 10.001875 
9.650112e+2, 2.7221346e+2, -277232.84, -253462.73, 3826.8406, 0.068397425, 0.42668217, -252861.83, 19490.473, 0.00000000030316938, 9.998721, 10.001876 
9.6475387e+2, 2.8221488e+2, -172656.47, -159907.67, -5358.9316, 0.04673102, 0.39725566, -157954.34, 16383.728, 0.0000000014633511, 9.999449, 10.0012045 
9.6449274e+2, 2.9221612e+2, -68056.38, -72490.49, -10957.535, -0.06426352, 0.48266196, -59093.863, 17232.904, 0.0000000058720775, 10.00047, 9.999919 
9.7848123e+2, 1.3246992e+2, -1637753.8, -1637031.4, 3566.4253, 0.53446424, 0.54248285, -1633807.9, 8035.6895, 0.0, 10.000311, 10.000435 
9.782287e+2, 1.4247063e+2, -1544811.8, -1549852.6, 4726.2183, 0.4376314, 0.5960027, -1541975.9, 1860.3994, 0.0, 10.000326, 9.999696 
9.779783e+2, 1.524692e+2, -1456025.9, -1467654.0, 14767.213, 0.41169268, 0.54321176, -1445969.4, -120.52279, 0.0, 10.000198, 9.998739 
9.7773004e+2, 1.6246729e+2, -1368239.6, -1385283.0, 23910.078, 0.40917185, 0.51316667, -1351378.0, -3511.211, 0.0, 10.000016, 9.997791 
9.7748464e+2, 1.7246522e+2, -1267543.4, -1287823.8, 34258.117, 0.3972006, 0.5468431, -1241956.3, 7931.2764, 0.0, 10.000299, 9.997666 
9.772397e+2, 1.8246332e+2, -1163687.4, -1180240.0, 31624.416, 0.3758377, 0.5684979, -1139274.3, 12632.634, 0.0, 10.000382, 9.998275 
9.769945e+2, 1.924619e+2, -1065743.3, -1074864.5, 32277.445, 0.3560852, 0.5551124, -1037705.8, 16215.454, 0.0, 10.000046, 9.99897 
9.767498e+2, 2.0246097e+2, -968543.44, -967796.2, 34013.29, 0.3299246, 0.5347777, -934154.44, 21776.088, 0.0, 9.999586, 9.999825 
9.7650474e+2, 2.1246104e+2, -873031.9, -860677.44, 35385.813, 0.28109252, 0.50398016, -830933.7, 26995.662, 0.000000000000000005872876, 9.998962, 10.000724 
9.762597e+2, 2.2246172e+2, -776134.9, -756344.25, 39766.76, 0.23925401, 0.47763553, -725260.1, 34662.504, 0.0000000000000001683191, 9.9985895, 10.001328 
9.76014e+2, 2.324634e+2, -668107.5, -643561.94, 35380.9, 0.22106193, 0.46339265, -618385.75, 43520.457, 0.0000000000000035036726, 9.998836, 10.002163 
9.757667e+2, 2.4246548e+2, -569550.5, -546391.5, 33280.098, 0.19215965, 0.4588983, -522733.94, 41152.008, 0.000000000000052997818, 9.99888, 10.002056 
9.755162e+2, 2.524678e+2, -474046.25, -445416.88, 22539.865, 0.12815596, 0.47433066, -433030.3, 32832.734, 0.0000000000005842758, 9.998508, 10.002346 
9.752639e+2, 2.6247004e+2, -383829.13, -358419.63, 21284.662, 0.0743907, 0.48639885, -346336.34, 21504.977, 0.0000000000047418445, 9.998268, 10.001695 
9.750098e+2, 2.724713e+2, -282361.13, -264181.88, 6940.1636, 0.061301548, 0.481877, -261835.28, 7993.6055, 0.000000000029042851, 9.998732, 10.001153 
9.747534e+2, 2.8247267e+2, -168280.22, -151416.64, -2823.4133, 0.050475456, 0.4728988, -150956.48, 20859.078, 0.00000000014016743, 9.999477, 10.00179 
9.744938e+2, 2.9247403e+2, -60138.863, -57710.613, -5483.3643, -0.014053328, 0.4701888, -53308.566, 20492.695, 0.0000000005623089, 10.000546, 10.00093 
9.884807e+2, 1.3271974e+2, -1660977.8, -1641978.3, -2837.6458, 0.57001835, 0.39397123, -1641563.5, -2165.4277, 0.0, 9.99847, 10.001042 
9.882285e+2, 1.4272092e+2, -1562320.8, -1554508.3, 1238.1416, 0.4741058, 0.44602054, -1554316.8, -12929.82, 0.0, 9.998991, 10.000073 
9.879787e+2, 1.5271978e+2, -1457408.0, -1464315.1, 11004.193, 0.44803953, 0.38637984, -1449328.1, -5930.6353, 0.0, 9.999957, 9.999114 
9.877306e+2, 1.627183e+2, -1354932.1, -1370178.3, 21437.078, 0.4321685, 0.34677508, -1339803.0, 5608.9014, 0.0, 10.000572, 9.998567 
9.874853e+2, 1.7271703e+2, -1256824.8, -1271972.3, 34778.2, 0.41214618, 0.3691927, -1228805.1, 18619.104, 0.0, 10.000591, 9.998591 
9.872404e+2, 1.8271586e+2, -1160623.1, -1176442.0, 35322.742, 0.39150727, 0.4009611, -1132335.1, 17100.805, 0.0, 10.000516, 9.99843 
9.869951e+2, 1.9271496e+2, -1057846.6, -1070450.6, 37203.973, 0.3787617, 0.4430685, -1026414.7, 25030.328, 0.0, 10.000589, 9.998954 
9.8675007e+2, 2.0271471e+2, -955157.2, -956398.06, 37364.32, 0.3643234, 0.4749781, -918408.1, 35039.293, 0.0, 10.000311, 10.000182 
9.865043e+2, 2.1271567e+2, -866099.94, -850000.9, 35379.977, 0.33565128, 0.48344922, -821766.25, 33670.586, 0.0000000000000000004438203, 9.999146, 10.001303 
9.8625875e+2, 2.2271718e+2, -777956.4, -753504.0, 40512.074, 0.29861784, 0.49419805, -723413.44, 34007.887, 0.000000000000000012719565, 9.998362, 10.001596 
9.86013e+2, 2.3271938e+2, -671888.4, -642621.1, 32973.313, 0.2525514, 0.5118662, -621180.1, 38219.992, 0.00000000000000026474655, 9.998529, 10.002365 
9.8576576e+2, 2.4272168e+2, -570413.8, -545810.56, 25853.738, 0.20714562, 0.5159889, -529481.0, 31896.61, 0.0000000000000040044745, 9.998854, 10.002126 
9.8551553e+2, 2.5272372e+2, -458696.63, -438659.03, 10690.426, 0.15728796, 0.5001691, -434026.5, 29331.182, 0.00000000000004414758, 9.999666, 10.002308 
9.852634e+2, 2.6272592e+2, -359045.06, -344452.25, 4028.9077, 0.11108259, 0.50313365, -343413.8, 21922.602, 0.00000000000035828575, 9.999938, 10.001913 
9.8500884e+2, 2.7272788e+2, -280728.25, -262921.5, -3830.9658, 0.08738999, 0.54813474, -262132.27, 5186.091, 0.000000000002194212, 9.99887, 10.001219 
9.847523e+2, 2.8272972e+2, -181062.98, -148542.73, -7926.7993, 0.06260805, 0.55448216, -146713.47, 22586.887, 0.000000000010588524, 9.998259, 10.002601 
9.8449343e+2, 2.9273123e+2, -80900.0, -57536.523, -8207.133, -0.018487893, 0.47187456, -54941.707, 16341.098, 0.00000000004247506, 9.998732, 10.0018635 
9.984793e+2, 1.329725e+2, -1652484.9, -1632129.0, 804.5071, 0.5889078, 0.580037, -1632097.3, 4826.349, 0.0, 9.998835, 10.001511 
9.982275e+2, 1.4297432e+2, -1551975.8, -1546994.5, -1150.5006, 0.4645685, 0.6628129, -1546741.6, -7834.428, 0.0, 9.99966, 10.00029 
9.9797904e+2, 1.5297444e+2, -1439134.8, -1452914.5, -3000.8364, 0.47344345, 0.70389766, -1438509.6, 2397.3948, 0.0, 10.001204, 9.999362 
9.977316e+2, 1.629738e+2, -1329249.6, -1348897.5, -6491.946, 0.45941183, 0.70197964, -1327298.4, 15615.251, 0.0, 10.002068, 9.99942 
9.9748576e+2, 1.7297322e+2, -1230601.1, -1247772.1, -7669.512, 0.39260128, 0.6860994, -1227674.4, 17244.113, 0.0, 10.002028, 9.999738 
9.972406e+2, 1.8297225e+2, -1142919.4, -1167234.0, -16832.295, 0.35378194, 0.6572796, -1134313.1, 12614.273, 0.0, 10.001861, 9.99866 
9.9699545e+2, 1.9297086e+2, -1047072.3, -1065879.3, -20979.984, 0.34529343, 0.64248943, -1033484.8, 15456.392, 0.0, 10.001522, 9.999105 
9.967502e+2, 2.0297034e+2, -947058.25, -951443.94, -25655.174, 0.34351742, 0.62162536, -923502.4, 27443.291, 0.0, 10.000959, 10.000502 
9.9650365e+2, 2.1297096e+2, -853011.1, -840589.94, -24119.373, 0.34754688, 0.5573259, -821894.4, 31043.434, 0.000000000000000000027862545, 10.00002, 10.001794 
9.962574e+2, 2.2297259e+2, -764392.2, -749469.1, -6946.3965, 0.33038005, 0.54804313, -746736.25, 8184.619, 0.00000000000000000079847574, 9.999513, 10.001561 
9.960115e+2, 2.3297465e+2, -654249.8, -637089.5, -2525.837, 0.24275689, 0.57012695, -636725.44, 20175.506, 0.000000000000000016619501, 9.999958, 10.00225 
9.957646e+2, 2.4297687e+2, -552489.4, -543777.1, 2989.88, 0.20111267, 0.59243065, -542849.75, 16029.792, 0.000000000000000251395, 10.000442, 10.001637 
9.9551576e+2, 2.5297803e+2, -441605.13, -438174.5, 1278.1975, 0.20479997, 0.5456718, -437750.66, 23117.584, 0.0000000000000027717923, 10.001224, 10.001675 
9.9526405e+2, 2.629799e+2, -346022.4, -331750.47, -3193.888, 0.1839667, 0.5356402, -331068.34, 31781.916, 0.000000000000022495242, 10.000538, 10.002509 
9.950083e+2, 2.729832e+2, -274996.03, -251014.0, -7659.837, 0.14398178, 0.62643677, -248776.27, 16043.547, 0.00000000000013774646, 9.998837, 10.002045 
9.947507e+2, 2.8298602e+2, -174550.89, -134371.11, -8141.654, 0.07706641, 0.64289516, -132784.06, 34007.797, 0.00000000000066465594, 9.998221, 10.003596 
9.944913e+2, 2.9298776e+2, -76867.16, -47021.668, -5730.9, -0.093516275, 0.49225172, -45959.06, 22811.893, 0.0000000000026667993, 9.99864, 10.002646 
