coord_x,coord_y,stress_xx,stress_yy,tau_xy,velocity_x,velocity_y,stress_1,eps,damage,lx,ly
4.9967736e+0, 1.2427507e+2, -1792406.8, -1727376.1, -3502.7969, -0.0049890075, -0.058704507, -1727188.0, -5086.2544, 0.0, 9.993648, 10.002257 
4.9969798e+0, 1.3427655e+2, -1697980.6, -1646186.6, -1641.6248, -0.004878915, -0.0075490107, -1646134.8, -22046.332, 0.0, 9.994057, 10.000914 
4.9972433e+0, 1.4427736e+2, -1598512.5, -1557036.3, -443.99274, -0.004112941, 0.025768308, -1557031.5, -30950.633, 0.0, 9.994569, 10.000058 
4.997583e+0, 1.542771e+2, -1490678.9, -1453998.6, -934.92633, -0.0029038321, -0.0082391575, -1453974.8, -25891.838, 0.0, 9.995223, 10.000079 
4.99785e+0, 1.6427588e+2, -1400636.0, -1383117.4, -1285.942, 0.0006185142, -0.038066976, -1383023.5, -52928.97, 0.0, 9.9956875, 9.998005 
4.998026e+0, 1.742736e+2, -1299849.3, -1284531.0, 330.1138, 0.007179623, -0.061714012, -1284523.9, -52407.375, 0.0, 9.995908, 9.997934 
4.9982208e+0, 1.8427108e+2, -1203207.8, -1199005.6, 188.20918, 0.0058811, -0.052194014, -1198997.3, -64856.184, 0.0, 9.996324, 9.996879 
4.998445e+0, 1.942685e+2, -1095100.9, -1095994.5, -4176.737, -0.005733041, -0.0010797448, -1091347.1, -55179.844, 0.0, 9.9970045, 9.996884 
4.9987382e+0, 2.0426424e+2, -1007804.56, -1034469.44, -4988.897, -0.00741266, 0.018503742, -1006901.7, -68692.28, 0.0, 9.997624, 9.994094 
4.9991235e+0, 2.1425797e+2, -902752.8, -934500.25, -432.8985, 0.004135919, -0.0053774184, -902746.9, -62476.188, 0.0, 9.998164, 9.993961 
4.9994025e+0, 2.2425103e+2, -808696.94, -856265.3, 2259.265, 0.0070899087, -0.01740918, -808589.9, -66251.23, 0.0, 9.998662, 9.992367 
4.999537e+0, 2.342434e+2, -704425.25, -755610.75, 2785.261, -0.0014990218, -0.015447277, -704274.1, -59860.51, 0.0, 9.999104, 9.992329 
4.9997228e+0, 2.442352e+2, -607701.9, -670233.3, 1782.387, -0.0042114197, -0.012716261, -607651.1, -61157.33, 0.0, 9.99953, 9.991255 
4.999978e+0, 2.542265e+2, -503635.38, -569164.4, -1154.8076, 0.0010513678, -0.010933221, -503615.03, -55036.15, 0.0, 9.999935, 9.991262 
5.000221e+0, 2.6421666e+2, -413624.9, -498221.4, -3037.7922, 0.002926614, -0.018065354, -413515.94, -62841.063, 0.0, 10.000384, 9.98919 
5.000446e+0, 2.742056e+2, -308617.38, -397492.72, -3944.9282, 0.00022534026, -0.040319506, -308442.63, -55659.1, 0.0, 10.000888, 9.989127 
5.000687e+0, 2.8419375e+2, -219237.66, -329319.84, -3536.8777, -0.0011361933, -0.027343042, -219124.13, -64224.21, 0.0, 10.001397, 9.9868355 
5.0009465e+0, 2.9418108e+2, -114176.484, -228615.44, -1403.6952, -0.0006747979, 0.031127619, -114159.27, -57134.92, 0.0, 10.001905, 9.986767 
5.0012004e+0, 3.0417085e+2, -15988.251, -88519.44, -126.81212, 0.0010218576, 0.029612912, -15988.029, -15988.029, 0.0, 10.002381, 9.992777 
5.0014436e+0, 3.141628e+2, -9723.001, -85222.55, 272.67377, 0.004379086, -0.056638334, -9722.017, -9722.017, 0.0, 10.002799, 9.992802 
1.4990321e+1, 1.24274544e+2, -1789137.3, -1720677.5, -2148.3945, -0.015137531, -0.0007323599, -1720610.3, 1497.819, 0.0, 9.993648, 10.002711 
1.4990938e+1, 1.3427567e+2, -1694621.8, -1639302.3, -81.87002, -0.014721604, -0.03043279, -1639302.1, -15205.496, 0.0, 9.994057, 10.001381 
1.499173e+1, 1.4427644e+2, -1599209.5, -1558458.9, 1943.9144, -0.012347007, -0.021586962, -1558366.4, -32277.154, 0.0, 9.994568, 9.999963 
1.4992748e+1, 1.5427653e+2, -1491697.3, -1456085.5, 1545.9407, -0.008705989, -0.008123048, -1456018.5, -27929.871, 0.0, 9.995223, 9.999937 
1.499355e+1, 1.6427578e+2, -1397753.8, -1377191.0, -349.99634, 0.0018216112, -0.0006287378, -1377185.0, -47088.965, 0.0, 9.9956875, 9.998408 
1.4994077e+1, 1.7427419e+2, -1296674.6, -1278004.8, 1163.5237, 0.021491792, -0.0006097168, -1277932.5, -45820.773, 0.0, 9.995908, 9.998378 
1.4994663e+1, 1.8427128e+2, -1210753.3, -1214540.3, 2626.7502, 0.017673448, -0.005936606, -1209408.6, -75268.49, 0.0, 9.996324, 9.995821 
1.4995335e+1, 1.9426686e+2, -1103486.6, -1113271.4, -1595.15, -0.017212464, -0.019938089, -1103233.1, -67049.586, 0.0, 9.9970045, 9.995708 
1.4996214e+1, 2.0426221e+2, -1000380.56, -1019159.6, -2916.7969, -0.022267453, -0.024895992, -999937.94, -61708.895, 0.0, 9.997624, 9.995137 
1.4997372e+1, 2.1425745e+2, -894095.75, -916638.7, 1610.3822, 0.012412038, -0.018798366, -893981.25, -53705.99, 0.0, 9.998165, 9.995179 
1.4998206e+1, 2.2425143e+2, -807115.0, -852992.9, 3954.1548, 0.02124325, -0.015199173, -806776.7, -64442.496, 0.0, 9.998662, 9.992591 
1.499861e+1, 2.342439e+2, -703425.06, -753541.44, 4456.3325, -0.004529689, -0.016436504, -703031.94, -58623.688, 0.0, 9.999104, 9.99247 
1.4999169e+1, 2.4423544e+2, -612700.25, -680567.7, 3326.8894, -0.012646267, -0.01628439, -612537.56, -66046.25, 0.0, 9.99953, 9.99055 
1.4999934e+1, 2.5422594e+2, -509127.88, -580524.8, 385.56744, 0.0031399792, -0.015445925, -509125.78, -60541.375, 0.0, 9.999934, 9.990487 
1.5000664e+1, 2.6421574e+2, -415589.8, -502298.06, -1150.845, 0.008752627, -0.008637371, -415574.56, -64889.86, 0.0, 10.000384, 9.988912 
1.5001339e+1, 2.7420473e+2, -310307.4, -401000.03, -2031.0132, 0.0006513655, 0.004458159, -310261.94, -57469.49, 0.0, 10.000888, 9.988887 
1.5002061e+1, 2.841928e+2, -215668.8, -321904.25, -1598.8428, -0.0034298878, -0.0008667452, -215644.73, -60735.47, 0.0, 10.001396, 9.987343 
1.500284e+1, 2.9417983e+2, -110175.72, -220297.16, 525.0079, -0.0020268897, -0.032953054, -110173.21, -53137.3, 0.0, 10.001905, 9.987337 
1.5003604e+1, 3.0416995e+2, -14930.871, -86323.49, 1500.3926, 0.0030455813, -0.035017155, -14899.353, -14899.353, 0.0, 10.002381, 9.992928 
1.5004331e+1, 3.1416324e+2, -8947.159, -83605.24, 1860.2065, 0.013095705, 0.0023249716, -8900.839, -8900.839, 0.0, 10.0028, 9.992912 
2.4983929e+1, 1.2427352e+2, -1789947.0, -1719911.3, -1386.7001, -0.013729776, 0.019841578, -1719883.9, 2234.6108, 0.0, 9.993542, 10.002815 
2.4985076e+1, 1.342745e+2, -1692324.4, -1637061.3, -1897.2799, -0.01199802, -0.037081875, -1636996.3, -12887.923, 0.0, 9.9941635, 10.001481 
2.498635e+1, 1.442752e+2, -1598694.6, -1557899.0, -1297.1514, -0.008007582, -0.0387797, -1557857.8, -31756.744, 0.0, 9.99459, 9.9999895 
2.4987787e+1, 1.542754e+2, -1498315.6, -1459050.0, -483.83676, -0.004069762, -0.015731972, -1459044.0, -30944.55, 0.0, 9.994762, 9.999959 
2.4989066e+1, 1.6427483e+2, -1402728.6, -1379080.8, -2125.4119, 0.0026131182, 0.0043878583, -1378891.3, -48785.727, 0.0, 9.995326, 9.998455 
2.4990155e+1, 1.7427343e+2, -1288878.9, -1273668.9, -3510.377, 0.013094951, 0.020841513, -1272897.8, -40778.32, 0.0, 9.996414, 9.998426 
2.499126e+1, 1.8427049e+2, -1201056.4, -1210985.8, -1403.2711, 0.009689679, 0.0143265175, -1200861.9, -66713.63, 0.0, 9.997034, 9.995718 
2.4992405e+1, 1.9426572e+2, -1103872.5, -1114753.4, 2288.909, -0.012189907, -0.024286302, -1103410.6, -67215.81, 0.0, 9.997034, 9.995592 
2.4993704e+1, 2.0426093e+2, -1006053.75, -1021298.3, 2310.0154, -0.015053425, -0.039752375, -1005711.4, -67469.984, 0.0, 9.997211, 9.995193 
2.4995217e+1, 2.1425632e+2, -901460.25, -919438.6, -1769.3649, 0.007295665, -0.025539648, -901287.8, -61001.582, 0.0, 9.997629, 9.995248 
2.4996558e+1, 2.2425044e+2, -813073.44, -854485.8, -4003.5588, 0.013522796, -0.015951555, -812689.94, -70346.24, 0.0, 9.998196, 9.992714 
2.4997668e+1, 2.3424307e+2, -704622.06, -752682.4, -3595.0227, -0.0018407948, -0.014115091, -704354.6, -59938.418, 0.0, 9.99896, 9.992598 
2.4998802e+1, 2.4423467e+2, -611446.2, -680236.5, -2856.8237, -0.007176632, -0.014154079, -611327.75, -64828.98, 0.0, 9.999627, 9.990524 
2.499996e+1, 2.542251e+2, -506045.2, -579451.8, -286.0964, 0.0009175921, -0.01805324, -506044.06, -57451.402, 0.0, 10.000164, 9.990449 
2.5001115e+1, 2.6421475e+2, -413440.34, -503517.75, 1355.0651, 0.0030496048, -0.010506742, -413419.97, -62725.99, 0.0, 10.000628, 9.98871 
2.5002244e+1, 2.7420366e+2, -310219.9, -403368.38, 652.0127, -0.003001357, 0.010591721, -310215.34, -57412.21, 0.0, 10.000998, 9.988672 
2.5003436e+1, 2.8419158e+2, -215157.33, -320477.94, -131.06874, -0.004559567, 0.00019205741, -215157.16, -60236.133, 0.0, 10.001381, 9.987447 
2.5004697e+1, 2.9417852e+2, -111139.32, -219266.9, -1300.075, -0.000060967934, -0.054718956, -111123.69, -54075.383, 0.0, 10.001775, 9.98747 
2.5005913e+1, 3.0416873e+2, -17275.045, -87488.63, -2571.3826, 0.0038463133, -0.054126132, -17181.0, -17181.0, 0.0, 10.002221, 9.992924 
2.5007036e+1, 3.1416237e+2, -10084.896, -84330.734, -3198.741, 0.0070810374, 0.020887965, -9947.34, -9947.34, 0.0, 10.002728, 9.992897 
3.4977597e+1, 1.2427198e+2, -1791746.8, -1723599.0, 758.2858, -0.0016251687, 0.002724961, -1723590.6, -1457.4553, 0.0, 9.993542, 10.002565 
3.4979394e+1, 1.3427295e+2, -1694265.9, -1641042.4, 461.45825, 0.0032091443, -0.027231034, -1641038.4, -16914.986, 0.0, 9.9941635, 10.00121 
3.498111e+1, 1.4427364e+2, -1597582.8, -1555607.6, -531.2349, 0.008699389, -0.025914302, -1555600.9, -29484.467, 0.0, 9.99459, 10.000145 
3.4982696e+1, 1.5427375e+2, -1496979.6, -1456297.5, 180.73009, 0.010499546, -0.031130042, -1456296.8, -28181.342, 0.0, 9.994762, 10.000147 
3.4984395e+1, 1.64273e+2, -1404934.4, -1383623.4, 1742.8074, 0.0024610264, -0.023142526, -1383481.9, -53358.85, 0.0, 9.995327, 9.998146 
3.4986255e+1, 1.7427135e+2, -1291340.0, -1278764.5, 623.989, -0.018477231, 0.0025820932, -1278733.6, -46593.918, 0.0, 9.996416, 9.998079 
3.4988013e+1, 1.8426874e+2, -1194936.3, -1198421.1, -1118.1855, -0.01862246, 0.008433864, -1194608.3, -60442.88, 0.0, 9.997035, 9.9965725 
3.4989652e+1, 1.9426507e+2, -1097094.3, -1100809.4, 2290.485, 0.008876068, -0.013989483, -1096002.8, -59801.785, 0.0, 9.997035, 9.996542 
3.4991208e+1, 2.0426038e+2, -1012689.0, -1035000.06, 3775.8691, 0.013677559, -0.026123276, -1012067.3, -73820.76, 0.0, 9.997212, 9.994258 
3.4992656e+1, 2.1425456e+2, -909156.3, -935334.2, -182.86963, -0.011670859, -0.025545483, -909155.06, -68851.55, 0.0, 9.997629, 9.9941635 
3.4994453e+1, 2.2424808e+2, -812887.06, -854114.5, -1219.096, -0.01651565, -0.019658796, -812851.0, -70483.93, 0.0, 9.998196, 9.992739 
3.499671e+1, 2.3424092e+2, -703796.0, -750991.56, -700.53595, 0.0061190664, -0.008323019, -703785.6, -59347.96, 0.0, 9.9989605, 9.992713 
3.499862e+1, 2.442329e+2, -606781.0, -670621.44, -772.2136, 0.011617788, -0.0063797566, -606771.7, -60255.457, 0.0, 9.999629, 9.99118 
3.5000056e+1, 2.5422394e+2, -501093.88, -569202.3, 1731.4379, -0.005827664, -0.018501343, -501049.9, -52446.26, 0.0, 10.000164, 9.991149 
3.5001567e+1, 2.642138e+2, -414302.3, -505302.88, 2796.0474, -0.014451193, -0.023777818, -414216.47, -63513.695, 0.0, 10.000628, 9.988588 
3.500316e+1, 2.742023e+2, -311564.38, -406169.97, 2044.5394, -0.011109414, -0.021955501, -311520.2, -58704.58, 0.0, 10.000998, 9.988481 
3.5004818e+1, 2.841901e+2, -217221.16, -324770.56, 1358.6989, -0.0048955088, -0.024269924, -217204.0, -62268.746, 0.0, 10.001381, 9.987153 
3.5006526e+1, 2.9417717e+2, -113259.98, -223682.0, 187.85411, 0.0050057573, -0.034270905, -113259.66, -56198.074, 0.0, 10.001776, 9.987167 
3.500813e+1, 3.041672e+2, -18363.324, -89759.26, -676.011, 0.0032503107, -0.02784565, -18356.924, -18356.924, 0.0, 10.002222, 9.992768 
3.500955e+1, 3.1416026e+2, -11079.898, -86412.17, -1279.6753, -0.014247929, -0.0008793551, -11058.167, -11058.167, 0.0, 10.002729, 9.992753 
4.4971165e+1, 1.2427007e+2, -1792683.9, -1726081.5, 250.24004, -0.000118416305, -0.021896789, -1726080.5, -3929.135, 0.0, 9.993566, 10.002385 
4.4973534e+1, 1.3427112e+2, -1697542.4, -1644933.5, 633.3653, 0.007129157, -0.022959614, -1644925.9, -20784.621, 0.0, 9.9940405, 10.001006 
4.497575e+1, 1.4427178e+2, -1597034.4, -1555803.4, -1046.9957, 0.0108321, -0.011173849, -1555776.8, -29642.006, 0.0, 9.994647, 10.000104 
4.497773e+1, 1.5427172e+2, -1487311.0, -1451928.5, -1981.7906, 0.003946792, -0.029031767, -1451817.9, -23682.713, 0.0, 9.995434, 10.000116 
4.4979823e+1, 1.642708e+2, -1399583.0, -1381572.8, -830.55414, -0.0061853616, -0.034326036, -1381534.5, -51390.324, 0.0, 9.995714, 9.998096 
4.498211e+1, 1.7426896e+2, -1307610.9, -1287250.0, 248.61458, -0.020414785, -0.022437153, -1287246.9, -55084.367, 0.0, 9.995335, 9.998027 
4.4984436e+1, 1.842665e+2, -1211989.5, -1203551.9, -1011.0216, -0.015183, -0.01270841, -1203432.4, -69245.57, 0.0, 9.995739, 9.996853 
4.4986832e+1, 1.942634e+2, -1092628.1, -1095205.9, -2342.5066, 0.015651554, -0.0078053004, -1091243.4, -55026.31, 0.0, 9.997191, 9.996847 
4.498897e+1, 2.0425884e+2, -1000506.1, -1032603.94, -2396.9468, 0.019689454, -0.009610163, -1000328.1, -62066.484, 0.0, 9.998195, 9.993944 
4.499077e+1, 2.1425253e+2, -897491.2, -933745.4, -1019.1488, -0.011969743, -0.021375058, -897462.56, -57139.098, 0.0, 9.998601, 9.9938 
4.499292e+1, 2.2424579e+2, -804057.75, -850148.4, 524.5613, -0.020257592, -0.02218831, -804051.8, -61662.023, 0.0, 9.998812, 9.992711 
4.499554e+1, 2.3423864e+2, -706643.8, -752386.2, 163.64166, 0.0027479755, -0.009981851, -706643.2, -62183.105, 0.0, 9.998767, 9.992711 
4.4997925e+1, 2.4423069e+2, -614549.06, -672510.0, -1252.9514, 0.009884801, -0.007688292, -614522.0, -67984.164, 0.0, 9.999017, 9.991347 
4.4999984e+1, 2.542219e+2, -507032.78, -570053.75, -2613.5813, -0.0045930864, -0.020218717, -506924.56, -58301.113, 0.0, 9.99967, 9.991329 
4.5002088e+1, 2.6421192e+2, -417338.94, -504522.5, -2838.1985, -0.010406986, -0.02815783, -417246.66, -66525.69, 0.0, 10.000324, 9.988789 
4.5004213e+1, 2.742006e+2, -310582.1, -403445.22, -695.622, -0.0043701087, -0.031742107, -310576.88, -57744.535, 0.0, 10.000969, 9.988681 
4.5006356e+1, 2.8418842e+2, -216722.95, -327901.84, 26.246567, 0.0018882469, -0.02713742, -216722.95, -61771.223, 0.0, 10.00156, 9.986854 
4.500848e+1, 2.941754e+2, -111351.49, -226635.72, -1488.136, 0.008148031, -0.013510252, -111332.29, -54252.793, 0.0, 10.002072, 9.986822 
4.5010507e+1, 3.041652e+2, -13546.77, -86820.52, -1844.7574, 0.003452487, -0.010673898, -13500.355, -13500.355, 0.0, 10.002526, 9.992824 
4.501234e+1, 3.1415793e+2, -8146.887, -83980.766, -730.36536, -0.016122164, -0.024745151, -8139.8535, -8139.8535, 0.0, 10.002887, 9.992845 
5.496463e+1, 1.2426776e+2, -1793493.0, -1727757.5, 1840.9768, -0.010613783, -0.05370832, -1727706.0, -5532.7554, 0.0, 9.9935665, 10.002271 
5.49675e+1, 1.3426897e+2, -1698578.6, -1647033.0, 2441.458, -0.00065406883, -0.024380388, -1646917.6, -22755.463, 0.0, 9.99404, 10.000864 
5.497027e+1, 1.4426962e+2, -1598741.8, -1559309.3, 1844.4524, -0.0021015091, 0.0056195315, -1559223.1, -33067.043, 0.0, 9.994647, 9.999866 
5.497288e+1, 1.5426935e+2, -1489047.4, -1455537.6, 1022.57825, -0.024694288, -0.009288083, -1455506.5, -27347.79, 0.0, 9.995436, 9.99987 
5.4975367e+1, 1.6426826e+2, -1398048.3, -1378478.9, -1967.1696, -0.024323583, -0.028943194, -1378283.1, -48113.957, 0.0, 9.995717, 9.998305 
5.497772e+1, 1.7426628e+2, -1305874.6, -1283658.0, -1191.9546, 0.006797316, -0.054216165, -1283594.3, -51406.242, 0.0, 9.995334, 9.998272 
5.498052e+1, 1.8426377e+2, -1214122.3, -1207928.3, 3991.6013, 0.019411812, -0.049122084, -1205973.1, -71760.54, 0.0, 9.995738, 9.996554 
5.4983944e+1, 1.9426072e+2, -1095031.6, -1100194.0, 3176.4727, 0.0073773903, -0.0057533304, -1093519.8, -57276.703, 0.0, 9.997192, 9.996507 
5.498699e+1, 2.042563e+2, -998249.56, -1028035.6, -586.73035, 0.0019869274, 0.009794509, -998238.0, -59951.203, 0.0, 9.9981985, 9.994253 
5.498955e+1, 2.1425024e+2, -894884.6, -928431.6, 506.62405, 0.005717265, -0.013052133, -894877.0, -54530.816, 0.0, 9.998604, 9.994162 
5.499196e+1, 2.2424355e+2, -804596.25, -851308.2, 465.9771, 0.0017854202, -0.023579536, -804591.56, -62179.844, 0.0, 9.998815, 9.99263 
5.4994154e+1, 2.342362e+2, -707452.4, -754081.56, -19.056072, -0.012416258, -0.019098261, -707452.4, -62968.715, 0.0, 9.998768, 9.992595 
5.4996717e+1, 2.4422802e+2, -616809.8, -677229.0, 1010.99677, -0.013271373, -0.018087983, -616792.9, -70229.3, 0.0, 9.99902, 9.991023 
5.4999745e+1, 2.5421897e+2, -509419.03, -575029.25, -141.43466, 0.003929179, -0.023446571, -509418.75, -60766.516, 0.0, 9.999672, 9.990988 
5.5002666e+1, 2.6420915e+2, -413667.94, -496921.66, -403.70523, 0.014688057, -0.023578364, -413665.97, -62917.37, 0.0, 10.000324, 9.989307 
5.5005395e+1, 2.7419844e+2, -306389.28, -394761.78, 1739.593, 0.016630612, -0.018893076, -306355.06, -53501.742, 0.0, 10.000969, 9.989274 
5.500805e+1, 2.841865e+2, -218888.86, -332414.7, 2006.5294, 0.015122786, -0.008547517, -218853.4, -63882.926, 0.0, 10.001561, 9.986544 
5.501057e+1, 2.9417312e+2, -114078.414, -232307.4, 446.38107, 0.009100861, 0.0075413794, -114076.73, -56974.637, 0.0, 10.002073, 9.986433 
5.5013037e+1, 3.0416274e+2, -11683.232, -82961.75, -421.6641, 0.003904613, -0.0026630168, -11680.738, -11680.738, 0.0, 10.002526, 9.993087 
5.50154e+1, 3.1415546e+2, -5868.7427, -79280.78, 623.15216, 0.000063274136, -0.05096938, -5863.4536, -5863.4536, 0.0, 10.002889, 9.993165 
6.495813e+1, 1.2426468e+2, -1792427.8, -1723845.4, -5176.6416, -0.013204105, -0.046900194, -1723456.9, -1253.2626, 0.0, 9.993491, 10.002572 
6.4961433e+1, 1.3426611e+2, -1696308.0, -1642635.9, -1109.1957, -0.011400832, -0.025062755, -1642613.0, -18422.857, 0.0, 9.994051, 10.001156 
6.496475e+1, 1.4426686e+2, -1601774.3, -1561980.1, 607.0623, -0.011443113, 0.0041678827, -1561970.9, -35787.81, 0.0, 9.994493, 9.999759 
6.496803e+1, 1.5426652e+2, -1499543.4, -1462210.5, 614.7488, -0.020705223, -0.0037890917, -1462200.4, -34013.887, 0.0, 9.99479, 9.99973 
6.4971113e+1, 1.6426542e+2, -1399750.3, -1378612.0, -2540.1746, -0.013469378, -0.019377988, -1378311.1, -48114.008, 0.0, 9.995572, 9.998366 
6.4973974e+1, 1.7426354e+2, -1280792.0, -1270598.3, -3025.4043, 0.015957907, -0.044661466, -1269768.0, -37553.016, 0.0, 9.997003, 9.998348 
6.4977145e+1, 1.842608e+2, -1191531.5, -1201296.6, 466.61053, 0.021421172, -0.046443578, -1191509.3, -57267.746, 0.0, 9.997463, 9.996167 
6.4980733e+1, 1.9425717e+2, -1106096.1, -1110320.9, -1028.6721, -0.005108793, -0.018967194, -1105858.9, -69581.29, 0.0, 9.996645, 9.996081 
6.498423e+1, 2.0425273e+2, -1019291.4, -1032882.4, -3467.043, -0.010808804, -0.00524426, -1018458.06, -80136.46, 0.0, 9.996532, 9.994731 
6.4987594e+1, 2.1424739e+2, -909032.1, -929133.8, -861.55945, 0.011387623, -0.011063454, -908995.25, -68621.25, 0.0, 9.997374, 9.994709 
6.4990616e+1, 2.2424105e+2, -812337.56, -854829.75, -328.6038, 0.013269449, -0.016247803, -812335.0, -69898.98, 0.0, 9.998277, 9.99265 
6.499317e+1, 2.3423357e+2, -700436.8, -750940.9, -155.53313, -0.012216624, -0.022140697, -700436.4, -55927.29, 0.0, 9.999258, 9.992571 
6.499615e+1, 2.4422519e+2, -606481.5, -676605.75, 918.7715, -0.016410334, -0.02436334, -606469.44, -59878.21, 0.0, 9.999914, 9.990633 
6.499969e+1, 2.5421578e+2, -505695.38, -577949.94, -854.81305, 0.008105267, -0.023128962, -505685.28, -57001.613, 0.0, 10.000131, 9.990567 
6.500306e+1, 2.6420584e+2, -411384.97, -493580.94, -2398.5437, 0.019399889, -0.01801953, -411315.06, -60534.055, 0.0, 10.000384, 9.989506 
6.500618e+1, 2.7419546e+2, -308756.7, -393078.78, -2830.41, 0.012658718, -0.010001274, -308661.8, -55778.965, 0.0, 10.000685, 9.989525 
6.500929e+1, 2.8418368e+2, -225109.48, -334034.03, -2327.0818, 0.007741717, -0.0028246322, -225059.78, -70061.46, 0.0, 10.001076, 9.986667 
6.5012354e+1, 2.941703e+2, -120513.6, -234166.36, -161.22513, 0.0053548226, 0.0013091674, -120513.37, -63383.42, 0.0, 10.001579, 9.986544 
6.501547e+1, 3.0416e+2, -15128.343, -83832.37, 804.4854, 0.008125139, -0.008809904, -15118.924, -15118.924, 0.0, 10.002255, 9.993157 
6.50186e+1, 3.1415293e+2, -1395.3423, -76383.64, -27.01022, 0.01819372, -0.040376127, -1395.3325, -1395.3325, 0.0, 10.003163, 9.993232 
7.4951667e+1, 1.2426082e+2, -1787193.5, -1713149.9, -3247.9211, -0.009076485, -0.0007483026, -1713007.8, 9235.0, 0.0, 9.993494, 10.003297 
7.4955344e+1, 1.3426253e+2, -1691040.3, -1631803.6, 1007.38324, -0.02553493, -0.025021587, -1631786.5, -7561.098, 0.0, 9.99405, 10.001892 
7.4959177e+1, 1.4426349e+2, -1601611.8, -1561621.9, 1798.3674, -0.017581053, -0.015838465, -1561541.1, -35325.324, 0.0, 9.994493, 9.9997835 
7.496319e+1, 1.5426323e+2, -1499797.3, -1462699.9, 1757.6573, 0.015515164, -0.012595244, -1462616.8, -34398.023, 0.0, 9.994789, 9.999698 
7.4967086e+1, 1.642623e+2, -1400363.8, -1379883.8, 2575.8774, 0.025962412, -0.005562638, -1379564.8, -49336.715, 0.0, 9.995572, 9.99828 
7.497089e+1, 1.7426068e+2, -1281379.4, -1271906.6, 2415.9268, 0.006395577, 0.006567211, -1271326.0, -39082.35, 0.0, 9.997006, 9.998258 
7.49743e+1, 1.842576e+2, -1194827.6, -1208214.6, -2043.8145, -0.010087926, -0.0042629936, -1194522.6, -60248.914, 0.0, 9.99747, 9.995693 
7.4977213e+1, 1.9425276e+2, -1109694.9, -1117746.4, -4155.8975, -0.022277335, -0.047519933, -1107934.6, -71613.695, 0.0, 9.996646, 9.995576 
7.498068e+1, 2.0424813e+2, -1014703.8, -1023397.0, -748.5569, -0.019118324, -0.0548973, -1014639.9, -76273.64, 0.0, 9.9965315, 9.995377 
7.49849e+1, 2.1424398e+2, -903772.94, -918280.0, 2339.2825, 0.0044078305, -0.015489165, -903405.06, -62998.023, 0.0, 9.997374, 9.995449 
7.49889e+1, 2.2423829e+2, -811482.0, -853070.3, 3340.6746, 0.0134705715, -0.00022459141, -811215.4, -68752.65, 0.0, 9.998277, 9.99277 
7.4992585e+1, 2.3423076e+2, -699940.5, -749929.9, 3553.113, 0.003051146, -0.019207524, -699689.2, -55152.824, 0.0, 9.999259, 9.99264 
7.4996233e+1, 2.4422213e+2, -609689.25, -683265.4, 1947.371, 0.00016313126, -0.026534293, -609637.7, -63016.844, 0.0, 9.999916, 9.990177 
7.4999815e+1, 2.542123e+2, -509209.3, -585253.3, -45.58235, 0.0074854954, -0.019375995, -509209.3, -60491.414, 0.0, 10.000132, 9.9900675 
7.500329e+1, 2.642021e+2, -412227.9, -495351.03, -1283.8969, 0.0032071818, -0.011610681, -412208.1, -61389.867, 0.0, 10.000385, 9.989385 
7.5006574e+1, 2.741916e+2, -309379.06, -394395.47, -1691.3622, -0.016738812, -0.0050141197, -309345.44, -56424.49, 0.0, 10.000687, 9.989434 
7.5010085e+1, 2.841799e+2, -221202.47, -325953.84, -483.28366, -0.02089496, -0.009800748, -221200.25, -66164.94, 0.0, 10.001077, 9.987218 
7.5013846e+1, 2.9416683e+2, -116218.36, -225279.53, 1731.915, -0.0034176914, -0.032036223, -116190.86, -59027.72, 0.0, 10.00158, 9.987151 
7.501781e+1, 3.0415696e+2, -15953.6455, -85589.79, 4109.764, 0.01572582, -0.02908048, -15711.936, -15711.936, 0.0, 10.002257, 9.993036 
7.502196e+1, 3.1415036e+2, -2709.9656, -79125.5, 3395.5596, 0.03705308, 0.006705518, -2559.3792, -2559.3792, 0.0, 10.003163, 9.993043 
8.494509e+1, 1.2425691e+2, -1789508.4, -1715562.9, 618.7567, -0.010729752, 0.014650023, -1715557.8, 6723.4697, 0.0, 9.993391, 10.003183 
8.494942e+1, 1.3425829e+2, -1693476.0, -1634659.4, -1658.8533, -0.017715927, -0.028469782, -1634612.6, -10345.664, 0.0, 9.993957, 10.001743 
8.495378e+1, 1.4425915e+2, -1599919.0, -1558863.8, -4410.594, -0.007987448, -0.028645528, -1558395.3, -32137.264, 0.0, 9.994523, 9.999954 
8.495813e+1, 1.5425912e+2, -1493858.9, -1457607.6, -2770.965, 0.015680367, -0.023875922, -1457397.1, -29138.307, 0.0, 9.995097, 9.999892 
8.49625e+1, 1.6425826e+2, -1404330.4, -1383540.5, -447.32193, 0.020110216, -0.011263751, -1383530.9, -53263.566, 0.0, 9.995378, 9.998125 
8.496696e+1, 1.7425658e+2, -1308141.1, -1286971.0, -1224.8599, -0.00081125187, 0.011921431, -1286900.4, -54616.22, 0.0, 9.995275, 9.998073 
8.497093e+1, 1.8425362e+2, -1216003.0, -1214572.4, -4343.9126, -0.013500644, 0.006261343, -1210885.3, -76572.14, 0.0, 9.995859, 9.996042 
8.497428e+1, 1.9424912e+2, -1096419.3, -1106905.0, 234.93564, -0.015149392, -0.039465096, -1096414.0, -60057.48, 0.0, 9.99736, 9.995967 
8.497813e+1, 2.0424448e+2, -992987.25, -1017229.3, 3907.003, -0.010849214, -0.052138768, -992373.1, -53971.29, 0.0, 9.998201, 9.9949875 
8.4982634e+1, 2.1423978e+2, -895521.1, -919374.56, -1970.5762, 0.0012398483, -0.021715783, -895359.44, -54911.434, 0.0, 9.998157, 9.994994 
8.4987146e+1, 2.242339e+2, -810005.4, -850887.25, -4706.5923, 0.008464713, -0.008727602, -809470.56, -66964.84, 0.0, 9.998315, 9.992899 
8.4991646e+1, 2.3422661e+2, -706132.8, -750930.75, -3607.865, 0.009020895, -0.020900667, -705844.06, -61267.035, 0.0, 9.99875, 9.992816 
8.499586e+1, 2.4421823e+2, -618359.4, -684603.75, -3573.8074, 0.00673432, -0.024408568, -618167.1, -71508.03, 0.0, 9.9992, 9.990431 
8.499964e+1, 2.5420865e+2, -514191.38, -584748.25, 36.306557, 0.0006369679, -0.017629873, -514191.34, -65437.82, 0.0, 9.999666, 9.990326 
8.500348e+1, 2.6419842e+2, -416495.53, -499889.78, 1992.6898, -0.0067114686, -0.013588149, -416447.94, -65594.19, 0.0, 10.0002, 9.989163 
8.500734e+1, 2.741876e+2, -309222.56, -397263.6, 326.16766, -0.015769048, -0.015399398, -309221.38, -56261.61, 0.0, 10.000824, 9.989172 
8.5011435e+1, 2.8417575e+2, -214380.52, -321680.25, -200.07996, -0.014262301, -0.023556538, -214380.14, -59304.758, 0.0, 10.001502, 9.987305 
8.501581e+1, 2.9416284e+2, -105712.57, -218891.4, -1628.2177, 0.0015916041, -0.04227263, -105689.15, -48487.453, 0.0, 10.002244, 9.9872675 
8.5020274e+1, 3.0415303e+2, -10857.701, -84888.73, -1918.13, 0.015201451, -0.033941336, -10808.036, -10808.036, 0.0, 10.002684, 9.992878 
8.5024774e+1, 3.1414634e+2, -10811.401, -85081.336, -2686.5242, 0.0258232, 0.009742742, -10714.35, -10714.35, 0.0, 10.002695, 9.992859 
9.49384e+1, 1.2425295e+2, -1796543.8, -1729926.1, 2609.3591, -0.019454872, -0.0014438109, -1729824.1, -7504.9043, 0.0, 9.99339, 10.002209 
9.494369e+1, 1.3425335e+2, -1701047.9, -1650134.9, 483.2471, 0.012139891, -0.035535526, -1650130.3, -25815.39, 0.0, 9.993955, 10.000692 
9.4948554e+1, 1.4425384e+2, -1597634.5, -1554136.8, -2259.6165, 0.017291646, -0.033998694, -1554019.6, -27709.664, 0.0, 9.994521, 10.000276 
9.4952863e+1, 1.5425414e+2, -1490784.9, -1451283.6, -582.852, -0.021133166, -0.037732735, -1451275.0, -22968.184, 0.0, 9.995096, 10.000322 
9.495736e+1, 1.642533e+2, -1405950.1, -1386855.1, -662.0829, -0.032178063, -0.036710955, -1386832.3, -56517.08, 0.0, 9.995378, 9.997899 
9.496218e+1, 1.7425117e+2, -1310197.5, -1291091.3, -1622.4244, -0.0061611775, -0.029254528, -1290954.5, -58617.91, 0.0, 9.995271, 9.997794 
9.496703e+1, 1.842488e+2, -1207641.5, -1197263.1, 913.0078, 0.011042172, -0.015310538, -1197183.4, -62823.297, 0.0, 9.995854, 9.997222 
9.497196e+1, 1.9424628e+2, -1087138.8, -1087828.6, 5972.534, 0.01609886, 0.0053836876, -1081501.3, -45116.617, 0.0, 9.997362, 9.997266 
9.497658e+1, 2.0424178e+2, -1003116.25, -1038212.5, 4174.0215, 0.013712635, 0.0034756325, -1002626.6, -64198.023, 0.0, 9.998205, 9.993555 
9.4980794e+1, 2.1423478e+2, -907250.06, -943640.25, -2160.4316, 0.0014705134, -0.029791318, -907122.25, -66625.24, 0.0, 9.998159, 9.993338 
9.4985354e+1, 2.2422783e+2, -808997.7, -848841.1, -3214.7285, -0.00233755, -0.041932862, -808739.94, -66174.71, 0.0, 9.998316, 9.993037 
9.4990367e+1, 2.3422109e+2, -704075.3, -746699.75, -1966.3258, 0.0051758145, -0.027233155, -703984.75, -59353.504, 0.0, 9.998752, 9.993104 
9.4995016e+1, 2.4421346e+2, -611528.7, -670490.1, -1837.6093, 0.0028590953, -0.01798918, -611471.5, -64765.414, 0.0, 9.999201, 9.991394 
9.4999176e+1, 2.542048e+2, -506979.2, -569825.1, 1785.3182, -0.012732295, -0.017778289, -506928.5, -58137.78, 0.0, 9.999666, 9.991344 
9.500364e+1, 2.6419488e+2, -418729.78, -504546.78, 4296.6475, -0.010899598, -0.024048865, -418515.2, -67627.44, 0.0, 10.000201, 9.988845 
9.500847e+1, 2.7418348e+2, -312273.16, -403628.3, 2675.9834, 0.014793256, -0.041162796, -312194.84, -59195.39, 0.0, 10.000826, 9.988735 
9.5013356e+1, 2.8417128e+2, -217006.44, -327140.22, 2558.401, 0.02692901, -0.044100635, -216947.05, -61828.36, 0.0, 10.001503, 9.986931 
9.5018244e+1, 2.9415834e+2, -108337.266, -224295.05, 1161.5282, 0.020138863, -0.029646898, -108325.63, -51079.9, 0.0, 10.002242, 9.986898 
9.5022863e+1, 3.041482e+2, -12242.47, -87734.83, -1633.9421, 0.0064479145, -0.023407793, -12207.121, -12207.121, 0.0, 10.002682, 9.992683 
9.5027053e+1, 3.141408e+2, -12004.768, -87675.66, -2634.896, -0.016361464, -0.030823171, -11913.13, -11913.13, 0.0, 10.002701, 9.992679 
1.0493201e+2, 1.24248095e+2, -1794022.5, -1731275.9, -2282.0068, -0.011503342, -0.021262698, -1731193.0, -8826.77, 0.0, 9.99367, 10.00198 
1.049377e+2, 1.3424839e+2, -1700928.9, -1653190.6, 1585.4945, 0.011904972, -0.038269646, -1653138.1, -28774.75, 0.0, 9.994097, 10.000417 
1.0494307e+2, 1.4424881e+2, -1596339.8, -1553542.9, 1231.6676, 0.012388836, -0.028346596, -1553507.4, -27148.146, 0.0, 9.994611, 10.000273 
1.04947984e+2, 1.5424909e+2, -1488410.6, -1449942.1, -167.1074, -0.026320726, -0.035190918, -1449941.4, -21585.172, 0.0, 9.99525, 10.000339 
1.0495291e+2, 1.6424823e+2, -1399089.8, -1382761.0, -2416.223, -0.036265135, -0.040260278, -1382411.0, -52046.367, 0.0, 9.9958105, 9.997967 
1.0495793e+2, 1.7424607e+2, -1294968.5, -1282895.5, -863.23883, -0.007450958, -0.042922474, -1282834.1, -50447.89, 0.0, 9.996272, 9.997865 
1.0496327e+2, 1.8424375e+2, -1196616.5, -1191817.0, 1301.9882, 0.012973515, -0.02818389, -1191486.5, -57077.32, 0.0, 9.996601, 9.99723 
1.0496908e+2, 1.9424139e+2, -1095997.4, -1092109.6, -3235.6252, 0.02174709, 0.0077269305, -1090278.9, -53846.48, 0.0, 9.9967575, 9.997265 
1.04974344e+2, 2.0423692e+2, -1017585.1, -1045438.0, -6831.248, 0.018427553, 0.0114911655, -1015999.9, -77523.77, 0.0, 9.997229, 9.993535 
1.0497891e+2, 2.1422985e+2, -907923.9, -944194.3, -967.92914, -0.00096786104, -0.02886149, -907898.06, -67352.64, 0.0, 9.998123, 9.993318 
1.04983754e+2, 2.2422281e+2, -805135.9, -847884.44, 3106.703, -0.008597558, -0.043817513, -804911.25, -62296.85, 0.0, 9.99862, 9.992956 
1.0498897e+2, 2.34216e+2, -707252.3, -749216.94, 1496.4017, -0.0005154465, -0.026317842, -707199.0, -62517.957, 0.0, 9.998577, 9.993016 
1.0499408e+2, 2.4420841e+2, -613990.3, -669931.94, -901.04755, 0.0011274478, -0.016451707, -613975.8, -67220.305, 0.0, 9.998958, 9.991549 
1.04999036e+2, 2.541999e+2, -502132.38, -565512.3, -3494.5647, -0.005928979, -0.01871389, -501940.28, -53101.65, 0.0, 9.999913, 9.991519 
1.0500419e+2, 2.6419008e+2, -411791.06, -501710.8, -3910.3127, -0.00094013236, -0.025312172, -411621.34, -60686.38, 0.0, 10.000698, 9.988797 
1.0500957e+2, 2.741786e+2, -306631.22, -401651.78, -2827.9053, 0.0204682, -0.039685678, -306547.13, -53500.027, 0.0, 10.001245, 9.9886675 
1.050149e+2, 2.841663e+2, -217641.06, -329582.4, -1579.6135, 0.02872988, -0.038720325, -217618.77, -62451.496, 0.0, 10.001551, 9.98674 
1.05020106e+2, 2.9415324e+2, -120193.25, -232291.84, -1802.7849, 0.018787496, -0.018821804, -120164.266, -62868.34, 0.0, 10.001527, 9.986695 
1.0502519e+2, 3.04143e+2, -21097.71, -90181.38, -1883.1039, 0.0048450287, -0.017744675, -21046.418, -21046.418, 0.0, 10.001995, 9.9928465 
1.0502999e+2, 3.141356e+2, -4245.382, -81731.375, -24.245401, -0.01436204, -0.04495475, -4245.374, -4245.374, 0.0, 10.003138, 9.992876 
1.14925936e+2, 1.2424231e+2, -1790247.3, -1723512.0, -800.779, 0.012931293, -0.044716172, -1723502.4, -1079.9327, 0.0, 9.99367, 10.002506 
1.14931494e+2, 1.3424338e+2, -1697304.5, -1645701.4, 3219.3574, -0.019178683, -0.036674436, -1645501.4, -21088.895, 0.0, 9.994095, 10.000926 
1.1493733e+2, 1.4424405e+2, -1598779.5, -1558488.6, 3614.0256, -0.02367592, -0.011557113, -1558167.0, -31760.96, 0.0, 9.994608, 9.999938 
1.14943504e+2, 1.5424396e+2, -1491321.8, -1455896.4, 2286.426, 0.0004210709, -0.015857415, -1455749.4, -27342.287, 0.0, 9.995249, 9.999934 
1.14949174e+2, 1.6424304e+2, -1396462.6, -1377389.8, -598.0875, 0.008454785, -0.021449799, -1377371.0, -46955.047, 0.0, 9.995812, 9.998331 
1.1495424e+2, 1.7424127e+2, -1291878.3, -1276620.3, 921.4313, -0.0049207886, -0.02862816, -1276564.9, -44131.816, 0.0, 9.996276, 9.99829 
1.14959665e+2, 1.8423845e+2, -1204977.1, -1209102.4, 1973.5212, -0.008512268, -0.03225745, -1204185.0, -69724.375, 0.0, 9.996605, 9.996051 
1.1496563e+2, 1.942344e+2, -1105356.6, -1111361.8, -2672.311, 0.0010810766, -0.03290964, -1104339.6, -67839.29, 0.0, 9.996757, 9.995954 
1.14971414e+2, 2.0422989e+2, -1007620.1, -1024848.1, -3670.268, 0.0026838642, -0.028672112, -1006870.8, -68326.04, 0.0, 9.997227, 9.994938 
1.1497698e+2, 2.1422495e+2, -896340.94, -920308.2, 2437.2314, -0.0064265835, -0.019023696, -896095.56, -55502.14, 0.0, 9.998124, 9.994945 
1.1498236e+2, 2.2421885e+2, -807244.06, -852268.5, 3210.9656, -0.010758615, -0.014287207, -807016.25, -64362.863, 0.0, 9.998622, 9.992656 
1.1498746e+2, 2.3421137e+2, -710525.4, -756001.9, 1318.8508, -0.008599873, -0.018017821, -710487.1, -65760.55, 0.0, 9.998578, 9.992553 
1.1499304e+2, 2.4420309e+2, -618601.9, -679477.06, 2409.0315, 0.0010348075, -0.019837793, -618506.7, -71699.02, 0.0, 9.998958, 9.990896 
1.1499921e+2, 2.5419393e+2, -506861.38, -575294.1, 119.175934, 0.020744104, -0.020524012, -506861.16, -57963.742, 0.0, 9.999912, 9.99085 
1.1500513e+2, 2.6418394e+2, -410207.4, -498443.0, -1737.1652, 0.02278984, -0.017346358, -410173.22, -59177.723, 0.0, 10.000699, 9.989019 
1.1501061e+2, 2.7417296e+2, -304509.53, -397249.4, -785.47455, 0.0007418112, -0.011093918, -304502.88, -51399.97, 0.0, 10.001245, 9.988968 
1.1501607e+2, 2.8416088e+2, -217676.67, -329669.63, -1522.4965, -0.009295854, -0.0075361086, -217655.98, -62434.656, 0.0, 10.001552, 9.986733 
1.1502142e+2, 2.9414755e+2, -120408.516, -232799.36, -1920.148, -0.0024879219, -0.009665756, -120375.72, -63023.29, 0.0, 10.00153, 9.986659 
1.15027234e+2, 3.0413744e+2, -17430.7, -82627.86, 2072.6387, 0.009865787, -0.016924355, -17364.877, -17364.877, 0.0, 10.001997, 9.993362 
1.1503358e+2, 3.1413072e+2, -270.23212, -73472.99, 4288.6943, 0.029901618, -0.03315425, -19.829016, -19.829016, 0.0, 10.003138, 9.993442 
1.2491941e+2, 1.242361e+2, -1792621.5, -1719890.0, -4004.4075, 0.012248086, -0.04093489, -1719670.1, 2813.4597, 0.0, 9.993301, 10.002931 
1.2492551e+2, 1.3423759e+2, -1694147.5, -1639617.8, -669.2608, -0.027915886, -0.029718252, -1639609.5, -15140.298, 0.0, 9.994111, 10.001329 
1.24931805e+2, 1.4423846e+2, -1600744.9, -1560359.8, -1100.503, -0.031005131, -0.002990934, -1560329.8, -33868.867, 0.0, 9.994514, 9.999855 
1.2493838e+2, 1.5423824e+2, -1505084.5, -1463974.9, -412.87076, 0.0075920336, -0.009083123, -1463970.8, -35507.38, 0.0, 9.994373, 9.99981 
1.2494463e+2, 1.6423726e+2, -1410204.8, -1383944.0, -1080.5233, 0.019847723, -0.014730248, -1383899.6, -53426.863, 0.0, 9.994873, 9.998341 
1.2495051e+2, 1.7423554e+2, -1292305.6, -1276594.0, -2416.0037, -0.0030481834, -0.019592058, -1276230.9, -43741.59, 0.0, 9.996237, 9.998309 
1.2495641e+2, 1.8423253e+2, -1201228.4, -1210614.3, -2921.1382, -0.014526032, -0.02962828, -1200393.5, -65874.89, 0.0, 9.9970045, 9.995752 
1.24962375e+2, 1.9422798e+2, -1104550.1, -1114599.6, -354.7562, -0.0106727, -0.048358798, -1104537.6, -67974.36, 0.0, 9.996969, 9.99563 
1.2496849e+2, 2.0422345e+2, -1006713.3, -1019979.44, 1176.1459, -0.0062182588, -0.04544556, -1006609.9, -68002.13, 0.0, 9.997097, 9.995333 
1.2497483e+2, 2.1421917e+2, -902967.1, -918440.56, -1393.7703, -0.0009712563, -0.0146135595, -902842.56, -62192.54, 0.0, 9.997453, 9.995396 
1.2498084e+2, 2.2421336e+2, -814923.4, -856438.0, -4904.8965, -0.000047974238, -0.0023761585, -814351.75, -71644.7, 0.0, 9.998117, 9.992614 
1.2498639e+2, 2.342057e+2, -702103.0, -752852.9, -3989.8354, -0.005043368, -0.017151335, -701791.25, -57009.207, 0.0, 9.999194, 9.992468 
1.2499243e+2, 2.4419716e+2, -608545.75, -678791.7, -451.09726, 0.0009857836, -0.024051098, -608542.9, -61677.098, 0.0, 9.9998255, 9.990523 
1.24999106e+2, 2.5418764e+2, -510613.53, -581586.7, -717.14813, 0.021847114, -0.021663716, -510606.28, -61647.02, 0.0, 9.99985, 9.99045 
1.250055e+2, 2.6417756e+2, -417751.16, -498975.34, -1246.5752, 0.022664592, -0.016376253, -417732.03, -66673.945, 0.0, 10.000049, 9.989296 
1.2501143e+2, 2.7416694e+2, -313071.34, -397613.75, -30.739634, -0.00393825, -0.009335115, -313071.34, -59909.313, 0.0, 10.000496, 9.989304 
1.2501739e+2, 2.8415507e+2, -222364.38, -331268.7, -307.6652, -0.015635025, -0.0062567857, -222363.52, -67085.1, 0.0, 10.001203, 9.986792 
1.2502328e+2, 2.941417e+2, -109549.914, -227191.14, -198.91663, -0.0067354944, -0.010278907, -109549.58, -52140.17, 0.0, 10.002258, 9.986691 
1.2502962e+2, 3.041317e+2, -6382.1895, -77288.73, 1996.3655, 0.010407405, -0.014884787, -6326.0264, -6326.0264, 0.0, 10.002755, 9.993363 
1.2503648e+2, 3.1412503e+2, -10079.878, -78249.41, -83.32509, 0.039103236, -0.022079239, -10079.775, -10079.775, 0.0, 10.002466, 9.993437 
1.3491245e+2, 1.2422944e+2, -1790461.0, -1715263.3, -1068.7645, -0.015127839, -0.008782521, -1715248.0, 7301.7725, 0.0, 9.993294, 10.003247 
1.3491975e+2, 1.3423103e+2, -1692080.8, -1635282.1, 2399.0012, -0.014057304, -0.01710098, -1635181.0, -10647.113, 0.0, 9.994107, 10.001625 
1.3492654e+2, 1.4423202e+2, -1599530.3, -1557785.5, -1381.1011, -0.009146693, -0.002935027, -1557739.9, -31215.78, 0.0, 9.994512, 10.000031 
1.3493262e+2, 1.5423189e+2, -1504023.5, -1461634.5, -944.78644, -0.0055395267, -0.015213708, -1461613.4, -33088.105, 0.0, 9.994367, 9.999972 
1.3493927e+2, 1.6423085e+2, -1412801.6, -1389123.4, 3678.9856, -0.003180058, -0.020380568, -1388565.0, -58029.53, 0.0, 9.994865, 9.997992 
1.3494676e+2, 1.7422882e+2, -1295123.0, -1282362.6, 2778.9365, -0.0022383356, -0.015920732, -1281783.8, -49228.418, 0.0, 9.996236, 9.997916 
1.3495351e+2, 1.8422593e+2, -1196929.3, -1201817.8, -2665.9297, -0.005330846, -0.020209173, -1195756.6, -61173.05, 0.0, 9.997007, 9.99635 
1.3495933e+2, 1.9422208e+2, -1099689.9, -1104624.4, -476.4375, -0.01392025, -0.038224045, -1099644.3, -63023.063, 0.0, 9.996971, 9.996308 
1.3496555e+2, 2.0421761e+2, -1011139.4, -1029114.75, 2423.0217, -0.008738197, -0.03847177, -1010818.5, -72153.47, 0.0, 9.997098, 9.994709 
1.3497244e+2, 2.1421249e+2, -908175.5, -929185.1, -45.89342, 0.015041184, -0.015742369, -908175.44, -67460.04, 0.0, 9.997454, 9.994663 
1.3497919e+2, 2.2420634e+2, -813356.5, -853209.06, -1050.4211, 0.023080096, -0.008402303, -813328.8, -70553.1, 0.0, 9.998117, 9.992833 
1.3498573e+2, 2.3419897e+2, -699952.5, -748447.44, 85.06049, 0.009763677, -0.02372569, -699952.4, -55104.7, 0.0, 9.999196, 9.992767 
1.3499224e+2, 2.4419057e+2, -609174.1, -680138.44, -75.4271, 0.00048919773, -0.029080288, -609174.06, -62244.094, 0.0, 9.999828, 9.990429 
1.3499872e+2, 2.5418097e+2, -511526.56, -583466.8, -656.2864, -0.0030757394, -0.022094933, -511520.6, -62496.207, 0.0, 9.999849, 9.990322 
1.3500531e+2, 2.641709e+2, -415409.22, -494151.84, 294.68582, -0.0019324541, -0.022204623, -415408.13, -64285.297, 0.0, 10.000051, 9.989624 
1.3501205e+2, 2.741605e+2, -310450.6, -392201.03, 1638.0737, 0.0057543977, -0.034258705, -310417.78, -57193.082, 0.0, 10.000497, 9.989673 
1.3501884e+2, 2.8414884e+2, -221485.98, -329452.16, 3469.2346, 0.008942675, -0.03464183, -221374.63, -66035.88, 0.0, 10.001202, 9.986916 
1.3502567e+2, 2.9413578e+2, -108862.63, -225732.8, 3769.0222, 0.0057300203, -0.020636741, -108741.21, -51274.11, 0.0, 10.002257, 9.986791 
1.3503233e+2, 3.0412567e+2, -9946.028, -84695.83, 1308.7157, 0.006380178, -0.011676114, -9923.123, -9923.123, 0.0, 10.002756, 9.992855 
1.3503867e+2, 3.1411856e+2, -13962.746, -86477.42, -1214.9282, 0.012713811, -0.01188287, -13942.396, -13942.396, 0.0, 10.002473, 9.992868 
1.4490582e+2, 1.2422283e+2, -1785820.8, -1715937.0, 2424.2502, -0.027888019, -0.0013911151, -1715853.0, 6761.311, 0.0, 9.993734, 10.002989 
1.4491376e+2, 1.3422397e+2, -1701238.0, -1643358.0, 1250.4922, -0.0014853105, -0.024528835, -1643331.0, -18728.076, 0.0, 9.993642, 10.001304 
1.449211e+2, 1.4422475e+2, -1602648.1, -1558521.1, -4223.9126, 0.007000905, -0.01756452, -1558120.5, -31525.355, 0.0, 9.994266, 10.0001 
1.4492764e+2, 1.5422472e+2, -1481368.8, -1449492.8, -4183.953, -0.014165071, -0.02790927, -1448952.8, -20357.58, 0.0, 9.995857, 10.000072 
1.4493474e+2, 1.6422375e+2, -1390475.3, -1378952.8, -387.38345, -0.01866569, -0.029510396, -1378939.8, -48334.94, 0.0, 9.996412, 9.99793 
1.4494269e+2, 1.742217e+2, -1305430.0, -1288213.5, 977.83563, -0.0003658815, -0.01935969, -1288158.1, -55532.973, 0.0, 9.99557, 9.997841 
1.4494994e+2, 1.8421899e+2, -1214491.8, -1206591.9, -2765.812, 0.004235944, -0.0155622745, -1205719.8, -71068.07, 0.0, 9.995649, 9.996683 
1.4495634e+2, 1.9421563e+2, -1096939.6, -1099159.8, -2808.072, -0.009849887, -0.02227067, -1095030.3, -58345.617, 0.0, 9.99698, 9.9966755 
1.4496303e+2, 2.0421112e+2, -1002873.75, -1030000.06, -1653.3541, -0.009683538, -0.024183622, -1002773.3, -64044.77, 0.0, 9.997873, 9.994272 
1.449702e+2, 2.1420532e+2, -901342.4, -931552.9, -2515.8613, 0.009795432, -0.020579284, -901134.3, -60348.67, 0.0, 9.998165, 9.994155 
1.4497745e+2, 2.2419886e+2, -807206.25, -848927.94, -1569.7971, 0.018971972, -0.021728257, -807147.3, -64298.406, 0.0, 9.998481, 9.992949 
1.4498478e+2, 2.3419173e+2, -704021.3, -748521.1, -1295.2949, 0.013977072, -0.031024281, -703983.6, -59065.07, 0.0, 9.998836, 9.992935 
1.4499186e+2, 2.4418357e+2, -614993.6, -680233.2, -2150.9175, 0.00552531, -0.031643134, -614922.75, -67924.36, 0.0, 9.999313, 9.99067 
1.4499857e+2, 2.5417423e+2, -508188.22, -579072.3, -28.028984, -0.0075829034, -0.021875411, -508188.2, -59098.098, 0.0, 9.999959, 9.990568 
1.4500551e+2, 2.641642e+2, -410963.97, -494691.34, 711.4509, -0.0082846675, -0.022584908, -410957.9, -59769.54, 0.0, 10.00047, 9.989385 
1.4501269e+2, 2.7415344e+2, -308033.84, -394225.88, -2842.8425, 0.008042527, -0.040040802, -307940.2, -54646.64, 0.0, 10.0008, 9.989387 
1.450201e+2, 2.8414166e+2, -220877.86, -327433.1, -2344.9177, 0.01712957, -0.0439417, -220826.28, -65417.586, 0.0, 10.001169, 9.987068 
1.4502768e+2, 2.9412878e+2, -117173.734, -227579.92, -1266.1602, 0.015971398, -0.030890249, -117159.22, -59624.125, 0.0, 10.001594, 9.986982 
1.4503494e+2, 3.041187e+2, -17601.477, -91103.2, -3388.3901, 0.011495896, -0.021891579, -17445.605, -17445.605, 0.0, 10.002347, 9.992612 
1.450416e+2, 3.141113e+2, -281.76776, -83075.24, -3913.1304, 0.002749838, -0.020606179, -97.22985, -97.22985, 0.0, 10.003551, 9.992582 
1.5489958e+2, 1.24216266e+2, -1792083.9, -1728728.6, 2093.5127, -0.026563462, -0.019684019, -1728659.5, -5982.172, 0.0, 9.993734, 10.002119 
1.549075e+2, 1.3421634e+2, -1708285.6, -1657596.3, 890.9371, 0.009451825, -0.05276307, -1657580.5, -32903.805, 0.0, 9.993633, 10.00034 
1.5491545e+2, 1.4421657e+2, -1603063.6, -1559212.5, 1341.3322, 0.016861862, -0.047307253, -1559171.5, -32496.93, 0.0, 9.994258, 10.000055 
1.5492347e+2, 1.5421668e+2, -1481032.9, -1448944.4, 1900.2561, -0.018672915, -0.04733849, -1448832.3, -20158.984, 0.0, 9.995863, 10.000105 
1.549311e+2, 1.642159e+2, -1388690.5, -1375484.9, -2912.2502, -0.026940795, -0.042138208, -1374871.1, -44189.957, 0.0, 9.996423, 9.99816 
1.5493828e+2, 1.7421411e+2, -1303709.1, -1284603.4, -2253.804, 0.0021199055, -0.030115958, -1284341.1, -51641.85, 0.0, 9.995569, 9.998087 
1.5494567e+2, 1.8421169e+2, -1214115.4, -1205660.9, 1674.73, 0.013628081, -0.01580825, -1205341.3, -70617.87, 0.0, 9.995642, 9.99675 
1.5495342e+2, 1.9420858e+2, -1096558.6, -1098395.8, 2284.8318, 0.0010074101, -0.000478069, -1095014.6, -58260.805, 0.0, 9.996981, 9.996726 
1.5496092e+2, 2.04204e+2, -1004595.5, -1033654.2, -256.55713, -0.009656606, -0.002442012, -1004593.25, -65794.54, 0.0, 9.997878, 9.99402 
1.549681e+2, 2.1419762e+2, -903285.25, -935614.44, -1428.6256, -0.017327296, -0.02912916, -903222.25, -62361.15, 0.0, 9.998167, 9.993877 
1.5497561e+2, 2.2419089e+2, -807099.9, -848742.6, -258.1593, -0.013217097, -0.04243133, -807098.25, -64171.418, 0.0, 9.998483, 9.99296 
1.5498355e+2, 2.341839e+2, -703754.9, -747975.2, 36.919617, 0.0070256004, -0.03906497, -703754.9, -58759.813, 0.0, 9.9988365, 9.992971 
1.5499128e+2, 2.4417612e+2, -610902.44, -671770.3, 183.87834, 0.015540006, -0.031755723, -610901.9, -63830.527, 0.0, 9.999313, 9.991247 
1.5499869e+2, 2.541674e+2, -503760.34, -569921.1, 2401.9387, 0.007867488, -0.020844936, -503673.25, -54516.555, 0.0, 9.999959, 9.991193 
1.5500608e+2, 2.641574e+2, -416622.94, -506455.88, 2024.9124, 0.0031083787, -0.017548421, -416577.3, -65322.36, 0.0, 10.000473, 9.988579 
1.5501346e+2, 2.7414578e+2, -314613.94, -407909.72, -1625.8782, 0.0025162874, -0.026775157, -314585.63, -61216.816, 0.0, 10.000802, 9.988449 
1.5502119e+2, 2.8413355e+2, -219566.66, -324761.53, -799.99945, 0.008547468, -0.034245837, -219560.58, -64072.113, 0.0, 10.001171, 9.987248 
1.5502936e+2, 2.9412073e+2, -115148.0, -223416.27, 310.6349, 0.023712564, -0.041035682, -115147.11, -57533.52, 0.0, 10.0015955, 9.987266 
1.5503743e+2, 3.0411068e+2, -17469.36, -90833.14, 885.7242, 0.025369199, -0.04537439, -17458.668, -17458.668, 0.0, 10.002346, 9.99263 
1.5504521e+2, 3.1410325e+2, -383.75568, -83227.04, 628.2705, 0.008257479, -0.047993835, -378.99124, -378.99124, 0.0, 10.003548, 9.992573 
1.6489343e+2, 1.2420841e+2, -1793824.5, -1730564.8, -6185.7495, -0.010414563, -0.0383887, -1729965.6, -7211.8716, 0.0, 9.993658, 10.00203 
1.6490152e+2, 1.342085e+2, -1694560.4, -1652520.1, -1118.1383, -0.0014082852, -0.055997875, -1652490.5, -27737.234, 0.0, 9.994634, 10.000196 
1.6490988e+2, 1.4420871e+2, -1593171.9, -1554706.1, 3054.0923, -0.00018112277, -0.042694446, -1554465.3, -27713.873, 0.0, 9.994942, 10.000029 
1.6491865e+2, 1.5420878e+2, -1503429.8, -1460079.1, 3228.2075, -0.012253873, -0.044736333, -1459840.0, -31089.473, 0.0, 9.99435, 10.000084 
1.6492675e+2, 1.64208e+2, -1414040.3, -1387321.0, -3031.163, -0.01570381, -0.041669935, -1386981.5, -56222.973, 0.0, 9.994678, 9.998204 
1.649341e+2, 1.7420624e+2, -1293230.1, -1278980.8, -3928.5913, -0.007514014, -0.031818956, -1277969.4, -45193.26, 0.0, 9.996259, 9.998134 
1.6494189e+2, 1.842037e+2, -1194286.4, -1198220.0, -979.7334, -0.00048437272, -0.021437379, -1194055.9, -59254.594, 0.0, 9.997087, 9.996553 
1.649504e+2, 1.942003e+2, -1099507.0, -1102258.6, -2348.2683, 0.004824616, -0.012591565, -1098161.1, -61326.67, 0.0, 9.996884, 9.996508 
1.649585e+2, 2.0419571e+2, -1014470.0, -1036231.94, -4496.1455, 0.0010531651, -0.013248781, -1013577.6, -74698.11, 0.0, 9.997109, 9.994215 
1.6496617e+2, 2.1418968e+2, -905209.25, -933943.5, -1833.6785, -0.014982941, -0.027991747, -905092.7, -64154.05, 0.0, 9.997925, 9.994107 
1.6497405e+2, 2.2418305e+2, -808722.9, -851474.94, -262.65323, -0.01656602, -0.035331365, -808721.25, -65717.82, 0.0, 9.998456, 9.992785 
1.6498223e+2, 2.3417585e+2, -708716.06, -752737.94, -1925.3601, 0.0014741616, -0.034266863, -708632.0, -63557.92, 0.0, 9.998599, 9.992761 
1.6499038e+2, 2.4416795e+2, -615389.1, -672835.3, -3033.371, 0.011758158, -0.029375218, -615229.4, -68078.07, 0.0, 9.998959, 9.991344 
1.649985e+2, 2.5415936e+2, -507880.53, -570516.5, -4468.087, 0.011272195, -0.020868082, -507563.4, -58327.88, 0.0, 9.999618, 9.991315 
1.6500658e+2, 2.6414937e+2, -419109.03, -508928.88, -4711.4443, 0.010110928, -0.017693965, -418862.56, -67528.95, 0.0, 10.000358, 9.988463 
1.650145e+2, 2.7413765e+2, -309611.97, -407008.63, -2388.5015, 0.00800747, -0.023762487, -309553.44, -56104.754, 0.0, 10.001209, 9.988314 
1.6502269e+2, 2.8412527e+2, -211643.98, -322826.34, -425.93616, 0.010120531, -0.028532565, -211642.36, -56072.688, 0.0, 10.001796, 9.98708 
1.6503109e+2, 2.9411232e+2, -110361.03, -223032.45, -2804.011, 0.017875955, -0.03323254, -110291.29, -52594.973, 0.0, 10.002007, 9.987093 
1.650397e+2, 3.0410227e+2, -16532.49, -87744.51, -1654.5933, 0.020857219, -0.03927195, -16494.066, -16494.066, 0.0, 10.002296, 9.992865 
1.6504842e+2, 3.14095e+2, -10749.403, -85138.29, 322.47357, 0.017521977, -0.049130928, -10748.005, -10748.005, 0.0, 10.0027, 9.992849 
1.7488739e+2, 1.2419922e+2, -1788786.3, -1720021.4, -2610.95, 0.019970248, -0.057526235, -1719922.4, 2921.6467, 0.0, 9.9936495, 10.002749 
1.7489582e+2, 1.3420042e+2, -1689448.0, -1642073.1, 2623.1765, -0.035212968, -0.033299517, -1641928.3, -17095.65, 0.0, 9.994636, 10.000904 
1.7490438e+2, 1.4420119e+2, -1593250.4, -1554911.0, 1256.6028, -0.04563257, -0.0025261084, -1554869.9, -28044.336, 0.0, 9.994946, 10.000013 
1.7491315e+2, 1.5420103e+2, -1504215.8, -1461346.9, 960.6566, 0.0048276926, -0.019490937, -1461325.4, -32498.326, 0.0, 9.994337, 10.000005 
1.7492174e+2, 1.6420001e+2, -1415341.4, -1389650.0, 2403.4783, 0.0149586275, -0.027790982, -1389427.1, -58590.098, 0.0, 9.994663, 9.998052 
1.7493013e+2, 1.7419805e+2, -1294322.5, -1281284.5, 2161.5205, -0.029933257, -0.024230285, -1280935.5, -48079.285, 0.0, 9.996261, 9.997975 
1.749386e+2, 1.8419503e+2, -1197480.5, -1204991.0, -1242.4181, -0.03904415, -0.03249023, -1197280.4, -62394.695, 0.0, 9.997095, 9.996088 
1.7494723e+2, 1.9419079e+2, -1103008.6, -1109492.5, -3158.1204, 0.000919515, -0.059234817, -1101724.6, -64797.535, 0.0, 9.996886, 9.996014 
1.7495584e+2, 2.0418625e+2, -1009878.44, -1026717.06, -1727.6077, 0.021912532, -0.057215445, -1009703.06, -70731.375, 0.0, 9.9971075, 9.9948635 
1.749644e+2, 2.141815e+2, -899892.6, -922956.7, 1271.7382, 0.016664011, -0.017120615, -899822.7, -58804.195, 0.0, 9.997924, 9.994857 
1.7497274e+2, 2.2417536e+2, -811267.94, -856756.56, 490.476, 0.0085217925, -0.000077351324, -811262.6, -68183.74, 0.0, 9.998458, 9.992424 
1.7498077e+2, 2.3416753e+2, -711975.6, -759504.75, -1388.5409, -0.0033157317, -0.01655464, -711935.06, -66779.1, 0.0, 9.998602, 9.992297 
1.7498916e+2, 2.4415907e+2, -618104.7, -678455.4, -726.80896, -0.0064975056, -0.024479687, -618095.94, -70857.28, 0.0, 9.99896, 9.99096 
1.7499803e+2, 2.5415006e+2, -510552.25, -576018.3, -1989.9607, 0.0022668173, -0.021990433, -510491.84, -61164.93, 0.0, 9.999616, 9.99094 
1.7500696e+2, 2.6414004e+2, -415052.3, -500548.3, -1563.6709, 0.012290131, -0.022950709, -415023.72, -63599.023, 0.0, 10.00036, 9.989034 
1.7501588e+2, 2.7412897e+2, -304961.97, -397370.88, 809.1046, 0.023866141, -0.030992035, -304954.88, -51421.324, 0.0, 10.00121, 9.988972 
1.750246e+2, 2.8411683e+2, -215249.6, -330302.75, 545.1302, 0.021124013, -0.026894078, -215247.02, -59594.324, 0.0, 10.001796, 9.9865675 
1.7503291e+2, 2.9410347e+2, -114723.93, -232132.92, -2034.7632, -0.001623279, -0.00778173, -114688.68, -56905.06, 0.0, 10.002008, 9.986469 
1.7504176e+2, 3.040934e+2, -13363.661, -81238.44, -205.5979, -0.0021672181, -0.004005302, -13363.038, -13363.038, 0.0, 10.0023, 9.993308 
1.7505124e+2, 3.140866e+2, -6902.6196, -77155.77, 1810.7023, 0.028917568, -0.024165465, -6855.9814, -6855.9814, 0.0, 10.002702, 9.993396 
1.8488078e+2, 1.2418993e+2, -1790399.3, -1716239.8, -2985.2537, 0.009540962, -0.04556756, -1716119.8, 6815.7734, 0.0, 9.99334, 10.003157 
1.8489009e+2, 1.3419144e+2, -1697946.0, -1642015.8, -281.62268, -0.035108853, -0.029145706, -1642014.4, -17093.34, 0.0, 9.9938755, 10.001277 
1.8489912e+2, 1.4419234e+2, -1600367.1, -1559283.3, -5709.8096, -0.043141138, -0.00024310632, -1558504.4, -31592.154, 0.0, 9.994501, 9.999931 
1.849079e+2, 1.541921e+2, -1491637.4, -1456613.8, -6572.5703, 0.0011038842, -0.012109104, -1455420.9, -26506.287, 0.0, 9.995252, 9.999879 
1.849169e+2, 1.6419102e+2, -1398848.8, -1381396.3, -1759.8398, 0.011288648, -0.02184877, -1381220.5, -50295.273, 0.0, 9.995772, 9.998072 
1.849263e+2, 1.7418897e+2, -1298093.9, -1282765.4, -317.70178, -0.025087455, -0.02863492, -1282758.8, -49813.797, 0.0, 9.995988, 9.998005 
1.849354e+2, 1.8418588e+2, -1208345.3, -1211435.9, -4014.5933, -0.033354856, -0.03999623, -1205588.9, -70613.92, 0.0, 9.996407, 9.995982 
1.8494418e+2, 1.9418159e+2, -1100604.4, -1109626.4, -3290.9084, -0.0033500812, -0.05975205, -1099531.5, -62514.625, 0.0, 9.997107, 9.995897 
1.8495311e+2, 2.0417707e+2, -1001887.6, -1021737.1, -1240.4265, 0.0146526275, -0.05631763, -1001810.4, -62748.883, 0.0, 9.997604, 9.994962 
1.8496229e+2, 2.1417236e+2, -900494.0, -921955.0, -2945.6895, 0.015943622, -0.022626989, -900097.0, -58989.246, 0.0, 9.997828, 9.994969 
1.8497114e+2, 2.2416627e+2, -814276.44, -858524.94, -5449.5107, 0.011242488, -0.006267739, -813615.2, -70447.43, 0.0, 9.998266, 9.9923935 
1.849796e+2, 2.3415846e+2, -706304.1, -757211.6, -4194.1943, -0.0015637488, -0.0153041575, -705960.9, -60716.313, 0.0, 9.999008, 9.992255 
1.8498847e+2, 2.441499e+2, -610160.06, -677237.0, -933.3597, -0.005579131, -0.023872944, -610147.06, -62818.492, 0.0, 9.999616, 9.9907255 
1.8499786e+2, 2.5414047e+2, -506272.6, -576800.8, -1244.2604, 0.0024313338, -0.033343054, -506250.66, -56830.207, 0.0, 10.000032, 9.990684 
1.8500732e+2, 2.6413047e+2, -412836.34, -496160.0, -1242.1226, 0.012160622, -0.035965726, -412817.8, -61299.39, 0.0, 10.000366, 9.98933 
1.8501678e+2, 2.7411985e+2, -311485.47, -396667.0, -1228.4435, 0.024152882, -0.031255987, -311467.75, -57845.03, 0.0, 10.000597, 9.989314 
1.8502606e+2, 2.8410795e+2, -224413.11, -334061.8, -621.3947, 0.020764275, -0.023187784, -224409.58, -68670.18, 0.0, 10.001138, 9.986628 
1.8503496e+2, 2.9409456e+2, -112930.74, -230927.06, 1684.3566, -0.004249891, -0.01235116, -112906.7, -55035.895, 0.0, 10.002116, 9.9865 
1.8504415e+2, 3.0408445e+2, -10010.747, -80230.06, 2564.9268, -0.005908031, -0.008440205, -9917.182, -9917.182, 0.0, 10.002556, 9.993255 
1.8505366e+2, 3.140777e+2, -14245.436, -81402.75, -133.98158, 0.02556113, -0.016419366, -14245.169, -14245.169, 0.0, 10.002227, 9.993332 
1.9487359e+2, 1.2418052e+2, -1790129.0, -1715322.4, -1019.6856, -0.045110527, -0.001288371, -1715308.4, 7719.919, 0.0, 9.993323, 10.003226 
1.9488432e+2, 1.3418145e+2, -1698082.5, -1641861.5, 1703.3522, -0.0002759933, -0.04416291, -1641809.9, -16791.148, 0.0, 9.993856, 10.001296 
1.9489413e+2, 1.4418209e+2, -1601623.9, -1561596.4, -2925.51, 0.008847595, -0.03725804, -1561383.8, -34371.3, 0.0, 9.99449, 9.999779 
1.9490291e+2, 1.5418194e+2, -1492787.5, -1459050.0, -3700.2932, -0.024540499, -0.023315415, -1458649.0, -29635.053, 0.0, 9.9952545, 9.999711 
1.949123e+2, 1.6418093e+2, -1397343.5, -1378486.0, -847.6338, -0.02894706, -0.024157278, -1378448.0, -47424.25, 0.0, 9.995782, 9.998263 
1.9492261e+2, 1.7417897e+2, -1296531.5, -1279480.9, 450.66568, 0.0070554293, -0.045370024, -1279469.0, -46426.195, 0.0, 9.995986, 9.998229 
1.9493233e+2, 1.8417625e+2, -1206523.3, -1207567.4, -1486.1243, 0.017167753, -0.043856755, -1205470.1, -70400.82, 0.0, 9.996402, 9.996247 
1.9494125e+2, 1.9417274e+2, -1098660.3, -1105670.4, -580.594, -0.008586824, -0.013265192, -1098612.5, -61508.313, 0.0, 9.997108, 9.996165 
1.9495036e+2, 2.0416814e+2, -1005132.25, -1028521.75, -252.81361, -0.02195846, -0.009587366, -1005129.56, -65980.164, 0.0, 9.997609, 9.994496 
1.9495976e+2, 2.1416223e+2, -904254.56, -929731.25, -2122.7356, -0.018117305, -0.044554163, -904078.9, -62871.984, 0.0, 9.997828, 9.994438 
1.949692e+2, 2.2415572e+2, -812068.94, -853994.8, -2804.0642, -0.00932707, -0.05433025, -811882.25, -68611.77, 0.0, 9.998267, 9.992702 
1.9497868e+2, 2.3414862e+2, -703547.25, -751566.4, -1372.2322, 0.006097993, -0.030662516, -703508.06, -58167.805, 0.0, 9.999011, 9.992638 
1.9498828e+2, 2.4414033e+2, -610741.8, -678476.1, 721.8022, 0.013911278, -0.027661067, -610734.1, -63312.69, 0.0, 9.999618, 9.990639 
1.9499798e+2, 2.541306e+2, -507211.78, -578723.06, 310.47745, 0.0111636445, -0.05489927, -507210.4, -57693.945, 0.0, 10.000031, 9.990552 
1.9500767e+2, 2.6412055e+2, -412715.2, -495914.94, -341.9453, 0.009176891, -0.056638513, -412713.78, -61098.65, 0.0, 10.000367, 9.9893465 
1.9501723e+2, 2.7411023e+2, -311243.0, -396206.25, -391.32355, 0.008487397, -0.024745014, -311241.2, -57524.586, 0.0, 10.0006, 9.989344 
1.9502708e+2, 2.8409863e+2, -220012.27, -324954.78, 2769.9844, 0.008430041, -0.01732739, -219939.2, -64108.98, 0.0, 10.001139, 9.987248 
1.950372e+2, 2.940855e+2, -108213.47, -221046.6, 5330.694, 0.009411428, -0.046464894, -107962.19, -50003.85, 0.0, 10.002112, 9.987178 
1.9504687e+2, 3.0407545e+2, -13817.295, -88122.484, 1712.8617, 0.009036208, -0.051995054, -13777.831, -13777.831, 0.0, 10.002557, 9.992713 
1.9505571e+2, 3.1406835e+2, -18685.625, -90984.01, -1433.3228, 0.006687989, -0.025628822, -18657.22, -18657.22, 0.0, 10.002244, 9.992666 
2.0486695e+2, 1.2417061e+2, -1787673.5, -1716657.0, -60.958866, -0.05353974, -0.0031890343, -1716657.0, 6468.143, 0.0, 9.993598, 10.003002 
2.0487818e+2, 1.3417123e+2, -1701708.6, -1646903.6, 242.79434, 0.006530532, -0.04813921, -1646902.6, -21783.996, 0.0, 9.993752, 10.001005 
2.0488861e+2, 1.4417167e+2, -1604658.1, -1562666.4, -3143.5144, 0.0183092, -0.045909904, -1562432.4, -35318.266, 0.0, 9.994265, 9.999814 
2.0489816e+2, 1.5417153e+2, -1492016.0, -1457964.8, -2028.2495, -0.02612264, -0.039562184, -1457844.4, -28728.893, 0.0, 9.9952755, 9.999774 
2.0490809e+2, 1.6417056e+2, -1395716.8, -1377954.5, -1541.5729, -0.033122372, -0.03787326, -1377821.6, -46696.723, 0.0, 9.995903, 9.99824 
2.0491865e+2, 1.7416874e+2, -1296459.3, -1279798.4, -2410.2527, 0.011463337, -0.04249871, -1279456.8, -46313.723, 0.0, 9.996005, 9.998197 
2.0492874e+2, 1.8416612e+2, -1207182.0, -1206779.8, -4249.0527, 0.023217238, -0.03373107, -1202727.0, -67558.29, 0.0, 9.996309, 9.996345 
2.0493823e+2, 1.9416265e+2, -1101088.3, -1105625.6, -4424.9478, -0.010395005, -0.008994355, -1098384.4, -61181.332, 0.0, 9.99689, 9.996272 
2.0494781e+2, 2.0415801e+2, -1009033.25, -1032063.25, -4744.7207, -0.027106058, -0.008907149, -1008094.06, -68845.46, 0.0, 9.997415, 9.994348 
2.0495757e+2, 2.1415193e+2, -904983.9, -932009.0, -4006.379, -0.020424936, -0.04402037, -904402.44, -63094.645, 0.0, 9.997862, 9.994266 
2.0496753e+2, 2.2414532e+2, -810136.2, -852483.8, -2894.1003, -0.008455352, -0.05754731, -809939.3, -66567.02, 0.0, 9.998374, 9.992752 
2.0497772e+2, 2.3413819e+2, -703473.56, -750745.4, -3714.6763, 0.01039657, -0.042938314, -703183.44, -57741.305, 0.0, 9.998981, 9.992706 
2.0498784e+2, 2.4413e+2, -612708.25, -677875.2, -3423.8735, 0.01842913, -0.0377475, -612528.9, -65006.67, 0.0, 9.999416, 9.990776 
2.0499781e+2, 2.5412062e+2, -512333.97, -579579.75, -1895.0317, 0.011368944, -0.047114395, -512280.6, -62666.336, 0.0, 9.999611, 9.990696 
2.0500779e+2, 2.6411057e+2, -419627.72, -501760.8, -1698.8801, 0.0051294887, -0.04510235, -419592.6, -67879.734, 0.0, 10.000003, 9.989121 
2.0501778e+2, 2.7409983e+2, -312002.22, -399459.63, -3855.4014, 0.00026738795, -0.029606283, -311832.6, -58014.26, 0.0, 10.000671, 9.989085 
2.050281e+2, 2.8408813e+2, -219328.47, -321254.75, -2941.5654, 0.0027381978, -0.030713262, -219243.64, -63310.996, 0.0, 10.001041, 9.987546 
2.050388e+2, 2.940754e+2, -122164.836, -223800.27, -2808.8687, 0.015400555, -0.057081748, -122087.266, -64030.383, 0.0, 10.000984, 9.987529 
2.0504913e+2, 3.040655e+2, -25254.396, -94404.14, -4666.2573, 0.017970044, -0.06119129, -24940.936, -24940.936, 0.0, 10.0018015, 9.992643 
2.0505877e+2, 3.1405833e+2, 4179.847, -81234.375, -3599.8054, 0.006242163, -0.035619132, 4331.2935, 4331.2935, 0.0, 10.003867, 9.992553 
2.1486095e+2, 1.2416017e+2, -1791718.3, -1724692.5, 588.77014, -0.014186266, -0.053876642, -1724687.3, -1461.2876, 0.0, 9.9935875, 10.0024605 
2.148717e+2, 1.3416076e+2, -1706361.0, -1656167.3, 821.2613, -0.016317083, -0.040853728, -1656153.8, -30933.064, 0.0, 9.99374, 10.0003805 
2.1488252e+2, 1.441611e+2, -1603188.0, -1559407.5, 416.47696, -0.017323418, -0.024896042, -1559403.6, -32186.117, 0.0, 9.994254, 10.000039 
2.1489367e+2, 1.5416083e+2, -1489955.4, -1453582.8, 1843.9865, -0.0035418523, -0.060905524, -1453489.5, -24269.715, 0.0, 9.995268, 10.000074 
2.1490431e+2, 1.6415988e+2, -1397492.6, -1381584.0, -836.9173, -0.0007401012, -0.063446954, -1381540.1, -50310.9, 0.0, 9.995903, 9.9979925 
2.1491441e+2, 1.7415823e+2, -1298586.1, -1284160.1, -2010.6396, -0.013074418, -0.019525638, -1283885.1, -50639.117, 0.0, 9.996007, 9.997898 
2.1492465e+2, 1.8415543e+2, -1207719.0, -1207851.9, -2202.4973, -0.017152417, -0.009124519, -1205582.0, -70308.41, 0.0, 9.996307, 9.996271 
2.1493514e+2, 1.9415128e+2, -1101481.5, -1106424.5, -2211.314, -0.009511209, -0.04789519, -1100636.6, -63322.633, 0.0, 9.99689, 9.996217 
2.149455e+2, 2.041466e+2, -1007796.25, -1029539.44, -3012.8167, -0.0008915121, -0.05550917, -1007386.5, -68026.7, 0.0, 9.9974165, 9.994517 
2.1495575e+2, 2.141414e+2, -903597.25, -929165.1, -2303.2498, 0.008889439, -0.020963358, -903391.44, -61980.613, 0.0, 9.997863, 9.994458 
2.1496612e+2, 2.2413501e+2, -811607.94, -855548.25, -636.45667, 0.013516719, -0.015275891, -811598.75, -68125.15, 0.0, 9.998376, 9.992541 
2.1497671e+2, 2.341271e+2, -705234.44, -754383.06, -1413.2577, 0.010917042, -0.05188831, -705193.8, -59643.082, 0.0, 9.998982, 9.992457 
2.1498716e+2, 2.441189e+2, -610146.3, -672583.1, -2570.4534, 0.0073070065, -0.054250676, -610040.7, -62409.438, 0.0, 9.999417, 9.991136 
2.1499734e+2, 2.5411046e+2, -509362.34, -573437.0, -1177.0784, 0.0024572057, -0.009928784, -509340.75, -59626.473, 0.0, 9.999612, 9.991115 
2.1500775e+2, 2.641005e+2, -422844.7, -508450.13, 651.802, -0.0005725623, -0.0013138758, -422839.72, -71027.734, 0.0, 10.000004, 9.988663 
2.1501845e+2, 2.740886e+2, -315857.16, -407460.3, -1342.0421, -0.0011252504, -0.045574438, -315837.5, -61909.27, 0.0, 10.000672, 9.988537 
2.1502917e+2, 2.8407645e+2, -219429.9, -321516.9, -2953.9497, 0.0028465355, -0.06328585, -219344.52, -63297.445, 0.0, 10.001044, 9.987526 
2.1503977e+2, 2.9406416e+2, -121821.06, -223244.6, -3078.1445, 0.013480162, -0.044660714, -121727.73, -63560.906, 0.0, 10.000993, 9.987562 
2.1505097e+2, 3.040546e+2, -22451.734, -88703.74, 2346.4392, 0.020605529, -0.036563773, -22368.734, -22368.734, 0.0, 10.001806, 9.99303 
2.1506281e+2, 3.140475e+2, 7012.205, -75153.586, 4154.6396, 0.022638956, -0.046182763, 7221.746, 7221.746, 0.0, 10.003858, 9.992972 
2.2485463e+2, 1.2414899e+2, -1792161.4, -1725387.5, -5842.4556, -0.003059013, -0.069854535, -1724880.1, -1545.0801, 0.0, 9.993579, 10.002415 
2.2486573e+2, 1.341496e+2, -1695404.5, -1651942.6, -1648.0131, -0.024771808, -0.043319754, -1651880.3, -26550.508, 0.0, 9.994531, 10.00028 
2.2487703e+2, 1.4414996e+2, -1591622.8, -1553881.5, -971.8077, -0.03035013, -0.02025086, -1553856.5, -26529.992, 0.0, 9.995043, 10.00003 
2.2488885e+2, 1.5414968e+2, -1494720.8, -1455942.8, -1902.9894, 0.0033846186, -0.055782434, -1455849.6, -26520.74, 0.0, 9.9949465, 10.000069 
2.2489998e+2, 1.641487e+2, -1407738.0, -1386957.5, -5152.579, 0.008447501, -0.060238022, -1385750.0, -54411.434, 0.0, 9.995222, 9.997957 
2.249103e+2, 1.7414695e+2, -1298504.3, -1284563.9, -4404.4365, -0.026183922, -0.021445008, -1283288.9, -49932.72, 0.0, 9.99603, 9.997859 
2.2492094e+2, 1.8414408e+2, -1203380.4, -1206455.5, -3502.7312, -0.033949863, -0.015422583, -1201092.6, -65707.98, 0.0, 9.996634, 9.996206 
2.249321e+2, 1.9413982e+2, -1101095.5, -1106975.6, -3606.8413, -0.004345529, -0.057197098, -1099382.3, -61956.215, 0.0, 9.996947, 9.99615 
2.2494309e+2, 2.041351e+2, -1007482.25, -1029633.44, -4572.545, 0.01349063, -0.063490346, -1006575.5, -67103.33, 0.0, 9.997448, 9.994494 
2.2495383e+2, 2.1412997e+2, -898631.25, -926981.44, -5428.5444, 0.014429256, -0.02206745, -897627.3, -56104.56, 0.0, 9.998211, 9.994436 
2.2496466e+2, 2.241236e+2, -807100.8, -853507.44, -4859.7183, 0.012862979, -0.011548676, -806597.4, -63012.03, 0.0, 9.99869, 9.992527 
2.2497556e+2, 2.341157e+2, -708350.8, -756032.0, -3955.728, 0.007884781, -0.0459274, -708024.9, -62362.285, 0.0, 9.998775, 9.992444 
2.2498637e+2, 2.4410747e+2, -614468.44, -674596.94, -4973.861, 0.003081141, -0.049563963, -614059.75, -66316.52, 0.0, 9.999118, 9.991141 
2.2499701e+2, 2.5409898e+2, -506164.0, -571812.06, -6639.9927, -0.0015557397, -0.011513485, -505499.13, -55672.445, 0.0, 9.999827, 9.991118 
2.2500795e+2, 2.64089e+2, -417122.88, -505389.5, -4670.411, 0.0004455078, -0.005743812, -416876.44, -64951.965, 0.0, 10.000381, 9.9886875 
2.2501928e+2, 2.7407715e+2, -314969.53, -406729.13, -2367.0637, 0.011800292, -0.047510862, -314908.5, -60868.258, 0.0, 10.000719, 9.988564 
2.2503045e+2, 2.8406492e+2, -218253.3, -324579.47, -2928.9429, 0.01641405, -0.060620874, -218172.67, -62012.652, 0.0, 10.001279, 9.987204 
2.2504133e+2, 2.9405236e+2, -107306.25, -220270.02, -5995.534, 0.0113504, -0.03466556, -106988.93, -48706.195, 0.0, 10.002159, 9.987204 
2.2505303e+2, 3.0404264e+2, -11476.28, -81533.27, -1662.0083, 0.012766185, -0.028125823, -11436.874, -11436.874, 0.0, 10.002477, 9.993197 
2.2506574e+2, 3.1403562e+2, -18573.16, -85000.34, -1212.4692, 0.023586215, -0.05193089, -18551.037, -18551.037, 0.0, 10.00199, 9.993194 
2.3484801e+2, 1.24137e+2, -1788927.6, -1718367.3, -2362.7412, -0.023729512, -0.0485241, -1718288.1, 5164.607, 0.0, 9.993562, 10.002898 
2.3486033e+2, 1.3413773e+2, -1692193.1, -1645283.8, 1963.5608, -0.018657243, -0.05570725, -1645201.6, -19755.742, 0.0, 9.994528, 10.000732 
2.3487219e+2, 1.4413822e+2, -1593442.3, -1557635.6, -1050.0533, -0.019920243, -0.03289803, -1557604.9, -30163.38, 0.0, 9.995045, 9.999773 
2.3488368e+2, 1.5413807e+2, -1497160.6, -1460739.8, -2334.8062, -0.006801548, -0.0233475, -1460590.6, -31147.572, 0.0, 9.994938, 9.999746 
2.3489504e+2, 1.64137e+2, -1406595.9, -1384399.3, -2381.9326, -0.007845347, -0.026992083, -1384146.5, -52692.848, 0.0, 9.995214, 9.998134 
2.3490632e+2, 1.7413487e+2, -1296929.3, -1281280.5, -1300.9873, -0.028422391, -0.049043525, -1281173.0, -47698.92, 0.0, 9.996029, 9.998081 
2.3491766e+2, 1.84132e+2, -1203713.8, -1207194.5, -2141.3142, -0.027148811, -0.05374799, -1202694.8, -67192.37, 0.0, 9.996636, 9.996155 
2.3492914e+2, 1.9412823e+2, -1101616.4, -1108101.4, -2391.2395, 0.004650651, -0.036363315, -1100830.0, -63290.62, 0.0, 9.996951, 9.996071 
2.3494056e+2, 2.0412348e+2, -1009025.44, -1032858.5, -1818.8943, 0.015064998, -0.031960003, -1008887.44, -69301.44, 0.0, 9.99745, 9.994272 
2.3495185e+2, 2.1411754e+2, -900283.0, -930424.94, -2525.0796, -0.00471374, -0.04748187, -900072.94, -58428.8, 0.0, 9.998213, 9.9942 
2.349631e+2, 2.2411102e+2, -805762.3, -850811.06, -4314.831, -0.011373286, -0.046891432, -805352.75, -61644.645, 0.0, 9.998693, 9.992707 
2.3497428e+2, 2.3410392e+2, -706758.1, -752765.5, -3634.179, 0.0006153355, -0.025143396, -706472.8, -60694.703, 0.0, 9.998777, 9.992665 
2.349855e+2, 2.4409568e+2, -616940.5, -679720.44, -2505.3638, 0.0050522434, -0.023370178, -616840.7, -68982.016, 0.0, 9.999119, 9.99079 
2.3499684e+2, 2.5408614e+2, -509041.72, -577756.94, -3959.5066, -0.0012729128, -0.05171156, -508814.3, -58862.383, 0.0, 9.999826, 9.990712 
2.350084e+2, 2.6407605e+2, -413566.25, -498037.44, -3294.5276, 0.007701095, -0.058233712, -413437.94, -61387.22, 0.0, 10.000383, 9.989188 
2.3502026e+2, 2.7406543e+2, -310752.8, -398032.0, -1131.6445, 0.03852807, -0.0356473, -310738.16, -56583.21, 0.0, 10.000722, 9.989156 
2.3503199e+2, 2.8405347e+2, -222584.6, -333610.25, 156.66788, 0.042727828, -0.023015108, -222584.38, -66312.25, 0.0, 10.001281, 9.986585 
2.3504347e+2, 2.940399e+2, -112571.28, -231181.27, -2690.0674, 0.0087992875, -0.026874473, -112510.305, -54105.156, 0.0, 10.002158, 9.986456 
2.3505533e+2, 3.040296e+2, -11771.544, -82186.805, -3031.8606, -0.0055334084, -0.03561281, -11641.242, -11641.242, 0.0, 10.002481, 9.99315 
2.3506758e+2, 3.1402263e+2, -18215.97, -84534.3, -3071.017, 0.008729108, -0.0532387, -18074.064, -18074.064, 0.0, 10.002006, 9.993217 
2.448414e+2, 1.24124564e+2, -1789148.1, -1715628.5, -2473.9292, -0.03234963, -0.03865073, -1715545.3, 8029.5513, 0.0, 9.99342, 10.003154 
2.4485448e+2, 1.3412538e+2, -1702312.5, -1647834.6, -65.270905, -0.018133642, -0.05929083, -1647834.6, -22267.654, 0.0, 9.993735, 10.000945 
2.4486688e+2, 1.4412588e+2, -1604809.9, -1564775.9, -4407.551, -0.019198798, -0.039975587, -1564296.4, -36734.156, 0.0, 9.994342, 9.999629 
2.4487875e+2, 1.5412568e+2, -1492265.4, -1460364.9, -4693.271, -0.012931116, -0.019604435, -1459688.6, -30123.975, 0.0, 9.995357, 9.999567 
2.4489062e+2, 1.6412452e+2, -1394263.3, -1377648.1, -4377.415, -0.010787694, -0.023513371, -1376565.5, -44989.56, 0.0, 9.996018, 9.9982 
2.4490255e+2, 1.7412233e+2, -1293933.0, -1278809.9, -4327.768, -0.014450533, -0.06120387, -1277659.0, -44062.13, 0.0, 9.996187, 9.998171 
2.4491441e+2, 1.8411946e+2, -1204876.0, -1208132.3, -5630.823, -0.011703089, -0.06624623, -1200642.6, -65017.934, 0.0, 9.9965725, 9.9961195 
2.449262e+2, 1.9411588e+2, -1097342.9, -1106540.5, -5668.2393, -0.00020567821, -0.027993234, -1094642.5, -56982.188, 0.0, 9.997264, 9.996024 
2.4493799e+2, 2.0411114e+2, -1004780.1, -1030191.3, -4231.01, 0.0013450343, -0.021035377, -1004094.2, -64387.383, 0.0, 9.997712, 9.994326 
2.4494982e+2, 2.1410504e+2, -905540.94, -932266.75, -2705.6682, -0.011078882, -0.05960169, -905269.8, -63503.445, 0.0, 9.997823, 9.994263 
2.449615e+2, 2.2409847e+2, -813984.0, -855129.4, -4251.426, -0.013074395, -0.064026944, -813549.3, -69718.74, 0.0, 9.998146, 9.992678 
2.4497303e+2, 2.3409154e+2, -707068.44, -753363.25, -5559.262, -0.00048474074, -0.021902347, -706410.2, -60511.082, 0.0, 9.998775, 9.992624 
2.4498476e+2, 2.4408332e+2, -614207.8, -678961.0, -3698.4673, 0.0074898847, -0.016828895, -613997.25, -66017.45, 0.0, 9.999329, 9.99074 
2.4499674e+2, 2.540735e+2, -510094.47, -578851.0, -2424.222, 0.008619954, -0.06612604, -510009.1, -59933.69, 0.0, 9.99978, 9.99066 
2.4500884e+2, 2.6406333e+2, -414554.63, -498311.38, -2238.3623, 0.016258309, -0.07717605, -414494.88, -62320.082, 0.0, 10.000305, 9.989207 
2.4502105e+2, 2.7405292e+2, -307311.16, -396094.2, -4356.8877, 0.033153027, -0.035856344, -307097.88, -52820.72, 0.0, 10.000944, 9.98918 
2.4503325e+2, 2.8404105e+2, -220802.39, -332647.44, -3129.4114, 0.033758875, -0.017704805, -220714.89, -64321.168, 0.0, 10.001398, 9.986591 
2.4504536e+2, 2.9402736e+2, -120807.22, -235064.08, -386.55548, 0.011185204, -0.034887258, -120805.914, -62277.99, 0.0, 10.001589, 9.9864645 
2.4505761e+2, 3.04017e+2, -20057.979, -87034.5, 656.999, 0.0019411712, -0.044893175, -20051.533, -20051.533, 0.0, 10.001946, 9.993076 
2.4506989e+2, 3.1401014e+2, -10861.305, -81934.46, -356.68042, 0.012013607, -0.046252113, -10859.515, -10859.515, 0.0, 10.002549, 9.993136 
2.5483486e+2, 1.2411166e+2, -1789444.6, -1715800.6, -1278.2645, -0.029708982, -0.041206896, -1715778.5, 7922.9966, 0.0, 9.9934025, 10.003149 
2.5484815e+2, 1.341125e+2, -1703076.8, -1648801.5, 1050.5709, -0.024071407, -0.05383966, -1648781.1, -23088.094, 0.0, 9.9937105, 10.00089 
2.5486112e+2, 1.441129e+2, -1605320.1, -1565336.1, -789.7925, -0.029296143, -0.041078854, -1565320.5, -37631.313, 0.0, 9.994321, 9.999599 
2.548741e+2, 1.541124e+2, -1492512.1, -1460788.9, -796.5549, -0.0155933015, -0.045728575, -1460769.0, -31074.826, 0.0, 9.995353, 9.999538 
2.5488675e+2, 1.641112e+2, -1394557.5, -1378381.9, -3481.9692, -0.0007979303, -0.05129734, -1377664.3, -45958.36, 0.0, 9.996025, 9.998146 
2.5489905e+2, 1.7410927e+2, -1294326.8, -1279608.9, -3719.5325, 0.015798127, -0.057615876, -1278722.3, -44997.65, 0.0, 9.996188, 9.998116 
2.549112e+2, 1.8410645e+2, -1205018.5, -1208391.4, -3180.6353, 0.012149649, -0.051978193, -1203104.9, -67352.79, 0.0, 9.996572, 9.996101 
2.5492325e+2, 1.9410267e+2, -1097409.1, -1106728.5, -3021.3062, -0.020021982, -0.032414164, -1096515.4, -58725.836, 0.0, 9.997266, 9.996009 
2.549354e+2, 2.0409803e+2, -1002351.1, -1025274.44, -3619.7036, -0.029169615, -0.031490896, -1001793.1, -61958.04, 0.0, 9.997718, 9.994657 
2.549477e+2, 2.140924e+2, -902925.0, -926872.0, -2278.4438, -0.00550761, -0.058310732, -902710.2, -60820.273, 0.0, 9.997824, 9.994629 
2.5495985e+2, 2.2408596e+2, -815702.6, -858671.6, -2010.2294, 0.007269638, -0.062524684, -815608.8, -71655.7, 0.0, 9.998147, 9.9924345 
2.5497186e+2, 2.3407854e+2, -709197.94, -757791.7, -3145.9075, 0.004166067, -0.036353037, -708995.1, -62969.05, 0.0, 9.998776, 9.99232 
2.549841e+2, 2.4407026e+2, -612438.8, -675341.06, -1947.1705, 0.009615004, -0.030340191, -612378.56, -64271.383, 0.0, 9.999331, 9.990984 
2.5499672e+2, 2.5406098e+2, -507952.34, -574425.5, -732.3385, 0.02753423, -0.05480997, -507944.28, -57746.684, 0.0, 9.999781, 9.99096 
2.5500923e+2, 2.640508e+2, -417814.94, -505069.2, 82.212654, 0.0257964, -0.06242107, -417814.88, -65517.723, 0.0, 10.000307, 9.988743 
2.550216e+2, 2.7403963e+2, -311166.03, -404052.94, -1969.8031, -0.004331561, -0.047878668, -311124.28, -56716.895, 0.0, 10.000944, 9.988634 
2.550342e+2, 2.8402758e+2, -216414.34, -323517.63, -2300.755, -0.010676133, -0.04426846, -216364.94, -59839.508, 0.0, 10.001398, 9.987215 
2.5504702e+2, 2.9401466e+2, -115519.04, -224113.78, 265.00125, 0.017984653, -0.05839091, -115518.4, -56866.598, 0.0, 10.001592, 9.987212 
2.550599e+2, 3.040048e+2, -20717.764, -88530.1, 2706.9063, 0.034333933, -0.055913012, -20609.883, -20609.883, 0.0, 10.001954, 9.992969 
2.5507265e+2, 3.1399795e+2, -12068.91, -84738.36, 1843.9724, 0.032106582, -0.031264406, -12022.149, -12022.149, 0.0, 10.002563, 9.992934 
2.6482847e+2, 1.2409827e+2, -1785239.6, -1715569.6, -3009.909, -0.024638161, -0.04281681, -1715439.9, 8392.782, 0.0, 9.993764, 10.002988 
2.648423e+2, 1.3409896e+2, -1692824.5, -1646279.4, -2043.3174, -0.017288636, -0.04860166, -1646189.8, -20364.152, 0.0, 9.994512, 10.0006695 
2.6485577e+2, 1.4409927e+2, -1595010.5, -1559142.4, -4032.5664, -0.02604657, -0.038734954, -1558694.6, -30871.928, 0.0, 9.994968, 9.999703 
2.6486927e+2, 1.5409875e+2, -1496489.9, -1461210.5, -2838.3933, -0.01756374, -0.057517976, -1460983.6, -31156.125, 0.0, 9.995016, 9.999672 
2.648824e+2, 1.6409758e+2, -1405442.9, -1384979.0, -5432.2466, -0.0063663684, -0.06253705, -1383626.4, -51787.426, 0.0, 9.99534, 9.99803 
2.648951e+2, 1.7409572e+2, -1297105.8, -1282542.3, -6397.5435, 0.008951946, -0.047383003, -1280131.1, -46273.703, 0.0, 9.996067, 9.997973 
2.6490778e+2, 1.8409292e+2, -1203620.4, -1206462.1, -5590.6963, 0.008054508, -0.039195012, -1199272.9, -63387.92, 0.0, 9.996612, 9.996212 
2.649204e+2, 1.9408904e+2, -1101785.8, -1107337.0, -4301.064, -0.015834376, -0.04380685, -1099442.5, -61519.37, 0.0, 9.9969015, 9.996143 
2.64933e+2, 2.0408443e+2, -1009246.44, -1028837.9, -6241.18, -0.020311706, -0.04592248, -1007427.1, -67458.83, 0.0, 9.997256, 9.9946375 
2.6494554e+2, 2.1407902e+2, -904895.8, -928240.56, -8032.187, 0.00258702, -0.045667876, -902399.2, -60378.152, 0.0, 9.997706, 9.99459 
2.6495817e+2, 2.2407258e+2, -813217.7, -857660.75, -7059.34, 0.013076551, -0.04642442, -812123.4, -68039.15, 0.0, 9.9983225, 9.992416 
2.6497087e+2, 2.3406485e+2, -703406.3, -755172.0, -5887.079, 0.005505055, -0.050563607, -702745.2, -56585.25, 0.0, 9.999178, 9.992303 
2.6498362e+2, 2.440565e+2, -607249.94, -673089.1, -6137.3555, 0.0072720777, -0.050287426, -606682.7, -58440.887, 0.0, 9.999696, 9.99096 
2.649964e+2, 2.5404748e+2, -508851.0, -575129.06, -7535.0576, 0.022371473, -0.0451807, -508005.16, -57675.176, 0.0, 9.999729, 9.990934 
2.6500928e+2, 2.640374e+2, -423428.25, -507075.34, -5371.521, 0.02016563, -0.042857323, -423084.72, -70656.15, 0.0, 9.99989, 9.988805 
2.650222e+2, 2.740261e+2, -320831.6, -407902.6, -2726.6404, -0.0069418, -0.046931006, -320746.28, -66206.555, 0.0, 10.000244, 9.988708 
2.6503524e+2, 2.8401405e+2, -226201.66, -327364.1, -2728.206, -0.0092347115, -0.053478647, -226128.13, -69470.29, 0.0, 10.000688, 9.987294 
2.6504853e+2, 2.9400122e+2, -119825.31, -225313.83, -5150.9624, 0.024452928, -0.06537854, -119574.38, -60791.242, 0.0, 10.001256, 9.987289 
2.6506194e+2, 3.0399147e+2, -18948.713, -86846.4, -3209.5247, 0.04013569, -0.059269737, -18797.336, -18797.336, 0.0, 10.002036, 9.993042 
2.6507547e+2, 3.1398478e+2, -3259.4932, -79655.85, -1906.473, 0.029105749, -0.028979696, -3211.9468, -3211.9468, 0.0, 10.003129, 9.99301 
2.7482232e+2, 1.24084406e+2, -1787805.6, -1720568.0, -210.61781, -0.01831788, -0.042630423, -1720567.4, 3401.0544, 0.0, 9.993755, 10.00265 
2.7483705e+2, 1.3408475e+2, -1695756.5, -1652197.3, 736.1197, 0.0026576656, -0.043457, -1652184.9, -26219.865, 0.0, 9.994509, 10.000267 
2.7485093e+2, 1.4408493e+2, -1593332.8, -1555644.5, -3714.003, -0.009074617, -0.032859977, -1555282.0, -27318.963, 0.0, 9.994967, 9.999941 
2.7486426e+2, 1.540847e+2, -1494505.5, -1456837.4, -2730.9983, -0.019633437, -0.054332264, -1456640.4, -26675.338, 0.0, 9.995004, 9.999975 
2.7487746e+2, 1.6408363e+2, -1406964.8, -1387800.4, -2897.9253, -0.029256752, -0.056398343, -1387371.8, -55396.242, 0.0, 9.995328, 9.997843 
2.7489072e+2, 1.7408165e+2, -1298877.9, -1286045.5, -3604.824, -0.037058596, -0.03021237, -1285102.1, -51106.727, 0.0, 9.996061, 9.997736 
2.7490404e+2, 1.8407878e+2, -1201905.9, -1202908.1, -4355.421, -0.025912642, -0.027839676, -1198022.9, -61999.19, 0.0, 9.996612, 9.996452 
2.7491757e+2, 1.9407487e+2, -1099765.5, -1103095.9, -3188.55, 0.012184818, -0.062425364, -1097833.5, -59771.97, 0.0, 9.996899, 9.996433 
2.7493072e+2, 2.0407026e+2, -1011991.9, -1034459.56, -4542.435, 0.028347773, -0.06463178, -1011108.25, -71001.44, 0.0, 9.997255, 9.994253 
2.7494335e+2, 2.1406482e+2, -908059.9, -934815.9, -6293.311, 0.012778699, -0.021664925, -906653.56, -64493.215, 0.0, 9.997709, 9.99414 
2.749564e+2, 2.2405829e+2, -811707.2, -854615.6, -3964.9622, 0.0032697697, -0.01547545, -811343.9, -67119.42, 0.0, 9.998326, 9.99262 
2.7497e+2, 2.3405038e+2, -701455.5, -751173.5, -2635.811, 0.0028213256, -0.06440786, -701316.1, -55014.73, 0.0, 9.999181, 9.992573 
2.7498323e+2, 2.4404192e+2, -609274.44, -677332.94, -5724.8633, -0.0003904839, -0.07665489, -608796.25, -60411.977, 0.0, 9.999701, 9.990667 
2.7499586e+2, 2.540329e+2, -511299.0, -580233.7, -7428.483, -0.0075533204, -0.037329234, -510507.6, -60034.438, 0.0, 9.999733, 9.990583 
2.7500898e+2, 2.6402307e+2, -419285.97, -498531.13, -4176.545, -0.001333641, -0.018744517, -419066.47, -66496.75, 0.0, 9.999893, 9.989386 
2.7502275e+2, 2.7401233e+2, -315966.0, -397885.16, -1421.1045, 0.024244444, -0.033255212, -315941.34, -61266.45, 0.0, 10.000249, 9.989389 
2.750364e+2, 2.8400037e+2, -229324.95, -333959.06, -720.0794, 0.036925178, -0.045553036, -229320.0, -72528.27, 0.0, 10.000694, 9.986839 
2.7504984e+2, 2.93987e+2, -123801.84, -233723.61, -3059.2073, 0.030468432, -0.056139395, -123716.77, -64794.14, 0.0, 10.001264, 9.986709 
2.7506378e+2, 3.0397698e+2, -17166.418, -83241.05, 657.64734, 0.019737637, -0.055137806, -17159.873, -17159.873, 0.0, 10.002041, 9.993285 
2.7507833e+2, 3.1397048e+2, -992.838, -74801.19, 2157.8035, 0.0027563244, -0.0389756, -929.808, -929.808, 0.0, 10.003124, 9.993342 
2.848163e+2, 1.2407008e+2, -1778361.8, -1715570.0, -2049.2363, -0.024984824, -0.04342431, -1715503.3, 8605.239, 0.0, 9.994373, 10.002688 
2.8483146e+2, 1.3407032e+2, -1698480.3, -1653669.3, 1692.982, 0.0032499928, -0.05329092, -1653605.4, -27499.482, 0.0, 9.994328, 10.000257 
2.8484577e+2, 1.4407043e+2, -1599028.6, -1559786.4, -2169.6863, -0.006911609, -0.04401862, -1559666.9, -31562.17, 0.0, 9.994638, 9.99982 
2.848595e+2, 1.540702e+2, -1488624.1, -1455481.4, -4508.438, -0.017108444, -0.052743226, -1454879.0, -24772.03, 0.0, 9.995467, 9.99984 
2.8487316e+2, 1.640691e+2, -1396686.9, -1382333.4, -5741.394, -0.027251182, -0.051572815, -1380319.4, -48201.586, 0.0, 9.996004, 9.997884 
2.848868e+2, 1.7406708e+2, -1297571.8, -1284733.4, -4264.156, -0.036879934, -0.03575745, -1283446.1, -49308.11, 0.0, 9.996119, 9.997797 
2.8490058e+2, 1.8406418e+2, -1205058.3, -1205500.3, -4838.4043, -0.02628641, -0.03589179, -1200435.9, -64269.348, 0.0, 9.996442, 9.996358 
2.8491455e+2, 1.9406024e+2, -1098058.4, -1103527.9, -6719.2485, 0.01273837, -0.061482828, -1093538.6, -55334.07, 0.0, 9.997069, 9.996318 
2.8492823e+2, 2.0405553e+2, -1004736.56, -1031743.44, -8029.2373, 0.02705629, -0.06350611, -1002529.75, -62278.95, 0.0, 9.997783, 9.994182 
2.8494143e+2, 2.140499e+2, -895072.2, -929279.8, -6840.9565, 0.0057915533, -0.033194885, -893754.9, -51448.684, 0.0, 9.998627, 9.994072 
2.8495494e+2, 2.2404335e+2, -802816.7, -849810.4, -5122.9424, -0.0033080792, -0.027718112, -802264.7, -57894.2, 0.0, 9.998911, 9.992665 
2.8496882e+2, 2.3403567e+2, -712679.7, -755987.44, -5594.2354, 0.0053451634, -0.059778243, -711968.75, -65523.26, 0.0, 9.998385, 9.992628 
2.8498238e+2, 2.440273e+2, -626363.1, -685076.06, -7069.54, 0.005301898, -0.06783695, -625523.9, -76996.37, 0.0, 9.9985075, 9.990715 
2.8499553e+2, 2.540182e+2, -513205.6, -580641.75, -5645.926, -0.0074583436, -0.04310105, -512736.2, -62118.945, 0.0, 9.9995775, 9.99063 
2.850091e+2, 2.6400834e+2, -412141.03, -494963.97, -3280.3713, -0.0022888698, -0.02986336, -412011.3, -59297.367, 0.0, 10.000376, 9.989397 
2.8502327e+2, 2.739977e+2, -308385.63, -394179.1, -5645.0415, 0.02873321, -0.035802506, -308015.78, -53197.527, 0.0, 10.000765, 9.989392 
2.8503746e+2, 2.8398573e+2, -222016.38, -331745.47, -5813.5645, 0.041705955, -0.041587036, -221709.22, -64774.16, 0.0, 10.001249, 9.98672 
2.850514e+2, 2.9397225e+2, -115641.75, -231248.48, -4755.2007, 0.028279465, -0.048856642, -115446.484, -56379.406, 0.0, 10.001884, 9.986578 
2.8506577e+2, 3.039622e+2, -16566.617, -81371.01, -817.6433, 0.0165914, -0.053099375, -16556.303, -16556.303, 0.0, 10.002012, 9.993426 
2.8508064e+2, 3.139557e+2, -24981.41, -84427.08, -656.1501, 0.0072433776, -0.05479941, -24974.168, -24974.168, 0.0, 10.00139, 9.993517 
2.9481047e+2, 1.24055296e+2, -1775534.8, -1709501.8, -2177.9714, -0.047057167, -0.045403346, -1709430.0, 14822.684, 0.0, 9.994366, 10.003102 
2.9482555e+2, 1.3405569e+2, -1695989.8, -1648031.4, 1436.7196, -0.01717253, -0.07914662, -1647988.4, -21740.113, 0.0, 9.9943075, 10.0006485 
2.9484025e+2, 1.4405575e+2, -1602952.4, -1567350.0, 718.34937, -0.020972857, -0.07318745, -1567335.5, -39087.848, 0.0, 9.994617, 9.999314 
2.9485503e+2, 1.5405522e+2, -1492986.5, -1464303.6, -1324.1936, -0.010347364, -0.05280587, -1464242.6, -33989.113, 0.0, 9.995461, 9.999242 
2.9486945e+2, 1.6405398e+2, -1394689.6, -1378280.3, -5102.8843, 0.000113590395, -0.04791596, -1376822.9, -44556.76, 0.0, 9.996008, 9.998157 
2.9488343e+2, 1.7405197e+2, -1295027.0, -1279403.8, -3839.5107, 0.010935085, -0.064904355, -1278511.1, -44225.727, 0.0, 9.996117, 9.99816 
2.9489738e+2, 1.8404905e+2, -1208274.1, -1212037.5, -2607.9539, 0.007848135, -0.06416119, -1206939.9, -70626.195, 0.0, 9.996439, 9.995913 
2.9491135e+2, 1.9404511e+2, -1101796.3, -1111242.1, -4306.5933, -0.015532601, -0.040516935, -1100127.5, -61774.75, 0.0, 9.997069, 9.995792 
2.9492548e+2, 2.040402e+2, -1002929.44, -1028150.3, -4887.947, -0.026629658, -0.041805413, -1002015.25, -61614.52, 0.0, 9.997789, 9.994421 
2.9493982e+2, 2.1403423e+2, -892693.9, -924530.9, -3599.8914, -0.019704545, -0.08086402, -892291.9, -49832.848, 0.0, 9.998634, 9.99439 
2.949538e+2, 2.240277e+2, -803587.25, -851526.75, -6603.8926, -0.0074444567, -0.0841445, -802694.1, -58171.098, 0.0, 9.998919, 9.992543 
2.9496726e+2, 2.3402064e+2, -713839.1, -758391.9, -7588.839, 0.012451712, -0.03687076, -712581.94, -65989.086, 0.0, 9.998388, 9.992462 
2.949811e+2, 2.4401256e+2, -623619.4, -679407.3, -3581.5896, 0.023598118, -0.023491358, -623390.4, -74718.19, 0.0, 9.998508, 9.991099 
2.949954e+2, 2.5400326e+2, -510042.38, -574108.56, -1565.2554, 0.022051137, -0.06231605, -510004.16, -59241.28, 0.0, 9.999579, 9.991074 
2.9500964e+2, 2.6399314e+2, -416078.44, -503120.72, -1596.8154, 0.016782694, -0.07610476, -416049.16, -63187.195, 0.0, 10.000377, 9.988838 
2.9502383e+2, 2.7398208e+2, -313109.28, -403970.47, -4218.21, 0.0061408705, -0.054566573, -312913.88, -57943.313, 0.0, 10.000767, 9.98872 
2.9503834e+2, 2.8397006e+2, -220556.13, -328687.13, -3556.225, 0.0048086527, -0.0415122, -220439.3, -63350.723, 0.0, 10.001249, 9.986928 
2.9505315e+2, 2.939569e+2, -113504.21, -226753.81, -2399.613, 0.017593957, -0.043415405, -113453.39, -54236.07, 0.0, 10.0018835, 9.986884 
2.9506794e+2, 3.03947e+2, -16207.316, -80753.22, -2749.7268, 0.029679198, -0.053151626, -16090.387, -16090.387, 0.0, 10.002022, 9.9934635 
2.9508236e+2, 3.139403e+2, -24545.098, -84115.14, -3100.8696, 0.040070582, -0.07632584, -24384.12, -24384.12, 0.0, 10.00142, 9.993523 
3.0480453e+2, 1.2404e+2, -1785833.6, -1715712.0, -4137.1553, -0.043619014, -0.052591983, -1715468.8, 8933.335, 0.0, 9.993713, 10.002999 
3.0481988e+2, 1.3404027e+2, -1694842.9, -1649213.9, -4924.4546, -0.023284573, -0.084253244, -1648688.5, -22289.365, 0.0, 9.994456, 10.000493 
3.04835e+2, 1.4404027e+2, -1596156.4, -1563991.5, -5147.363, -0.031322163, -0.07648381, -1563187.9, -34788.71, 0.0, 9.995073, 9.999318 
3.0485052e+2, 1.5403982e+2, -1492019.0, -1463594.1, -2414.4233, -0.010223973, -0.050437286, -1463390.5, -32986.133, 0.0, 9.995515, 9.999263 
3.0486554e+2, 1.6403854e+2, -1394346.9, -1378446.9, -5554.483, 0.0075339293, -0.045993555, -1376698.8, -44281.703, 0.0, 9.996044, 9.998128 
3.048799e+2, 1.7403643e+2, -1286571.6, -1275683.8, -7455.5596, 0.020896217, -0.071849704, -1271896.1, -37458.855, 0.0, 9.996707, 9.998125 
3.048942e+2, 1.8403342e+2, -1198788.3, -1209139.1, -6867.61, 0.013713395, -0.07346553, -1195364.4, -58897.664, 0.0, 9.997156, 9.99576 
3.0490845e+2, 1.9402936e+2, -1099525.8, -1111992.6, -5858.182, -0.023208084, -0.042854287, -1097205.0, -58698.14, 0.0, 9.997303, 9.995626 
3.0492294e+2, 2.0402445e+2, -1009080.1, -1029978.5, -5573.752, -0.036618948, -0.042045116, -1007686.5, -67131.47, 0.0, 9.997318, 9.994525 
3.0493775e+2, 2.1401854e+2, -913468.75, -933124.06, -5731.612, -0.015981961, -0.08579102, -911919.5, -69307.016, 0.0, 9.99715, 9.994522 
3.0495214e+2, 2.2401209e+2, -822554.8, -860460.4, -8746.799, 0.00026683303, -0.08955618, -820633.8, -75958.16, 0.0, 9.99761, 9.992567 
3.0496594e+2, 2.340051e+2, -704969.6, -753970.56, -8369.949, 0.009666399, -0.03712101, -703579.4, -56834.484, 0.0, 9.998987, 9.992474 
3.049802e+2, 2.4399702e+2, -605124.9, -671102.5, -4769.969, 0.018582417, -0.02224109, -604781.75, -55957.516, 0.0, 9.999797, 9.991043 
3.049951e+2, 2.539876e+2, -507656.03, -573697.9, -6549.857, 0.026983552, -0.064518295, -507012.7, -56096.81, 0.0, 9.999772, 9.991007 
3.050098e+2, 2.6397744e+2, -423532.0, -506142.63, -7368.1206, 0.023131803, -0.081947014, -422879.97, -69864.57, 0.0, 9.99984, 9.988889 
3.050242e+2, 2.739664e+2, -322983.0, -407973.28, -4571.3623, 0.0013286584, -0.064702064, -322737.8, -67614.13, 0.0, 10.000053, 9.988791 
3.0503902e+2, 2.8395447e+2, -233321.25, -334326.72, -614.34314, -0.0035991443, -0.05077895, -233317.5, -76076.44, 0.0, 10.000349, 9.986977 
3.050545e+2, 2.9394147e+2, -129543.55, -233995.47, -1295.9576, 0.016644007, -0.044010874, -129527.47, -70158.72, 0.0, 10.000758, 9.986931 
3.0506977e+2, 3.039316e+2, -23320.824, -84928.49, -3466.417, 0.035821725, -0.0479222, -23126.396, -23126.396, 0.0, 10.001561, 9.9934 
3.0508468e+2, 3.1392482e+2, -2759.661, -74496.03, -4512.8965, 0.052588604, -0.06983069, -2476.8718, -2476.8718, 0.0, 10.002951, 9.993445 
3.1479856e+2, 1.2402424e+2, -1791244.1, -1726003.5, -1321.5626, -0.014147399, -0.06427992, -1725976.8, -1420.3297, 0.0000000000000806617, 9.993684, 10.002313 
3.1481442e+2, 1.3402405e+2, -1700510.0, -1660430.5, -2190.4856, -0.014404128, -0.06704202, -1660311.1, -33752.516, 0.00000000000005243424, 9.994441, 9.999737 
3.1482998e+2, 1.4402394e+2, -1592434.9, -1556190.4, -3526.4875, -0.038294014, -0.052087847, -1555850.5, -27290.578, 0.000000000000028332263, 9.995069, 9.999848 
3.1484598e+2, 1.5402396e+2, -1487368.8, -1453753.9, -813.57336, -0.017718762, -0.04534751, -1453734.1, -23174.281, 0.000000000000012064798, 9.995503, 9.999936 
3.1486145e+2, 1.6402285e+2, -1396949.0, -1383613.3, -3098.0173, -0.0068428325, -0.0458888, -1382928.6, -50358.1, 0.000000000000003878589, 9.996037, 9.997778 
3.1487632e+2, 1.7402042e+2, -1289818.3, -1282398.0, -4919.2866, -0.009515145, -0.055594444, -1279946.6, -45352.652, 0.0000000000000009180906, 9.996709, 9.997665 
3.148911e+2, 1.8401718e+2, -1197665.1, -1206950.6, -6167.049, -0.010844075, -0.062717974, -1194588.5, -57962.805, 0.00000000000000015841597, 9.997163, 9.995905 
3.149059e+2, 1.9401295e+2, -1098013.9, -1108897.3, -5299.1904, -0.010234489, -0.06908963, -1095860.0, -57192.742, 0.000000000000000019869674, 9.997305, 9.995835 
3.149206e+2, 2.0400816e+2, -1009396.0, -1030587.4, -6054.786, -0.0020316814, -0.06507023, -1007788.0, -67073.76, 0.0000000000000000018107616, 9.997319, 9.994482 
3.1493524e+2, 2.140028e+2, -914012.44, -934108.56, -6340.112, 0.01715652, -0.04718385, -912179.4, -69412.51, 0.0000000000000000001198895, 9.997148, 9.994455 
3.1494996e+2, 2.2399649e+2, -821416.75, -857993.8, -4046.4731, 0.019254582, -0.042755615, -820974.44, -76145.52, 0.0000000000000000000057675156, 9.997605, 9.992736 
3.1496477e+2, 2.3398899e+2, -703577.44, -751131.56, -3065.2134, -0.0038097748, -0.060466543, -703380.6, -56478.387, 0.0, 9.998988, 9.992664 
3.149797e+2, 2.4398059e+2, -608615.94, -678450.2, -4343.006, -0.01077266, -0.06456466, -608346.9, -59362.387, 0.0, 9.999805, 9.990536 
3.1499466e+2, 2.539712e+2, -511744.03, -582212.25, -6686.7227, 0.006617909, -0.049971737, -511115.13, -60038.086, 0.0, 9.999777, 9.990421 
3.1500962e+2, 2.6396114e+2, -418857.28, -496499.47, -6680.8354, 0.01592725, -0.04764805, -418286.6, -65111.473, 0.0, 9.999844, 9.989544 
3.1502438e+2, 2.7395055e+2, -317258.9, -396229.4, -3804.4844, 0.01302681, -0.0662846, -317076.03, -61797.445, 0.0, 10.000061, 9.989589 
3.1503958e+2, 2.8393885e+2, -233970.97, -335845.84, 760.9987, 0.015100002, -0.06927739, -233965.28, -76571.73, 0.0, 10.000359, 9.986867 
3.1505534e+2, 2.9392576e+2, -130914.17, -237054.73, 155.7345, 0.024825335, -0.05054293, -130913.945, -71391.53, 0.0, 10.000771, 9.986714 
3.150713e+2, 3.0391583e+2, -24419.59, -87367.68, 1293.8771, 0.034574762, -0.037671387, -24393.006, -24393.006, 0.0, 10.001568, 9.993226 
3.1508756e+2, 3.139091e+2, -3989.828, -76930.586, 649.41943, 0.043549493, -0.03596732, -3984.0464, -3984.0464, 0.0, 10.002946, 9.9932785 
3.247926e+2, 1.240078e+2, -1781434.1, -1723042.8, -4341.758, -0.01248227, -0.066178225, -1722721.8, 1995.7083, 0.0000000000023454196, 9.994424, 10.002151 
3.2480925e+2, 1.3400751e+2, -1692457.5, -1658802.5, -1101.6425, -0.0067992113, -0.05791248, -1658766.5, -32045.717, 0.0000000000015241749, 9.995085, 9.999534 
3.2482532e+2, 1.4400733e+2, -1585731.5, -1552196.6, -3321.9216, -0.033217188, -0.043976616, -1551870.8, -23147.922, 0.0000000000008233425, 9.995488, 9.999917 
3.2484147e+2, 1.540073e+2, -1486099.1, -1452054.6, -5177.888, -0.019555036, -0.051279925, -1451284.5, -20561.656, 0.00000000000035051592, 9.99554, 10.000032 
3.2485726e+2, 1.640061e+2, -1402352.8, -1388626.1, -8277.678, -0.015138977, -0.056225672, -1384736.5, -52002.234, 0.00000000000011265747, 9.9957695, 9.997565 
3.2487267e+2, 1.7400354e+2, -1297965.8, -1289106.1, -8435.293, -0.02370105, -0.05593679, -1284008.1, -49248.85, 0.000000000000026661206, 9.99627, 9.99742 
3.2488796e+2, 1.8400025e+2, -1202854.4, -1207681.0, -9848.522, -0.02041888, -0.05935441, -1195127.9, -58336.344, 0.000000000000004599458, 9.996731, 9.996064 
3.2490322e+2, 1.9399619e+2, -1099137.0, -1107161.0, -9159.516, -0.00012911425, -0.07115793, -1093149.4, -54317.93, 0.0000000000000005767878, 9.9971285, 9.9960375 
3.2491827e+2, 2.0399144e+2, -1004842.6, -1030104.5, -10131.416, 0.014554209, -0.06652453, -1001281.4, -60403.402, 0.000000000000000052554126, 9.9977, 9.994329 
3.249331e+2, 2.13986e+2, -895031.94, -927083.5, -11382.593, 0.020707227, -0.03927819, -891400.94, -48469.25, 0.0000000000000000034789587, 9.998533, 9.994262 
3.249482e+2, 2.239796e+2, -800674.3, -846110.3, -8797.37, 0.015405882, -0.036349542, -799030.44, -54036.277, 0.00000000000000000016733108, 9.9989395, 9.992898 
3.249636e+2, 2.3397213e+2, -706168.2, -750096.94, -7664.6587, -0.0064024404, -0.071422055, -704869.3, -57802.418, 0.0, 9.99871, 9.992867 
3.2497895e+2, 2.4396378e+2, -625019.2, -687493.9, -8833.731, -0.013006439, -0.07989085, -623794.1, -74645.375, 0.0, 9.998729, 9.990438 
3.249941e+2, 2.5395438e+2, -522097.13, -588696.0, -7925.845, 0.0030463915, -0.05071076, -521166.88, -69925.34, 0.0, 9.999129, 9.990293 
3.2500935e+2, 2.6394442e+2, -420392.63, -495679.22, -6734.22, 0.015570459, -0.041083645, -419795.0, -66455.85, 0.0, 9.999668, 9.989685 
3.250247e+2, 2.7393395e+2, -311080.06, -391330.4, -8419.992, 0.022496242, -0.06291269, -310206.13, -54765.004, 0.0, 10.0004, 9.9897585 
3.2504037e+2, 2.8392234e+2, -223412.66, -329450.16, -5824.964, 0.025191706, -0.07000018, -223093.63, -65538.695, 0.0, 10.001022, 9.986981 
3.2505643e+2, 2.939093e+2, -119681.87, -230402.97, -4059.2002, 0.021770608, -0.056824945, -119533.26, -59850.145, 0.0, 10.001484, 9.986824 
3.2507285e+2, 3.0389944e+2, -22900.814, -86368.04, -511.60742, 0.024661269, -0.04517512, -22896.691, -22896.691, 0.0, 10.0016575, 9.993252 
3.2508963e+2, 3.138928e+2, -26336.26, -87512.414, 226.81071, 0.036408402, -0.03834059, -26335.418, -26335.418, 0.0, 10.001398, 9.993299 
3.3478674e+2, 1.2399068e+2, -1778833.9, -1717340.6, -1986.2151, -0.04278691, -0.0572663, -1717276.5, 7608.9375, 0.00000000005167391, 9.9944105, 10.002542 
3.3480442e+2, 1.3399069e+2, -1689870.6, -1653176.3, 1310.5625, -0.0011824263, -0.057264604, -1653129.5, -26244.121, 0.00000000003357157, 9.995072, 9.999919 
3.34821e+2, 1.4399041e+2, -1588943.4, -1558578.8, -2961.4402, -0.015930163, -0.05318342, -1558292.6, -29404.592, 0.000000000018130754, 9.9954815, 9.999485 
3.3483705e+2, 1.5398979e+2, -1489984.3, -1459725.4, -5083.5938, -0.01576435, -0.06869479, -1458894.1, -28000.566, 0.000000000007717037, 9.995528, 9.999516 
3.3485302e+2, 1.6398825e+2, -1403069.4, -1389817.0, -6634.5073, -0.017529666, -0.07719761, -1387066.4, -54157.93, 0.0000000000024798213, 9.995759, 9.997487 
3.3486897e+2, 1.7398569e+2, -1298339.0, -1289589.8, -6559.027, -0.021301491, -0.07360047, -1286080.4, -51146.45, 0.00000000000058676854, 9.99626, 9.997391 
3.3488476e+2, 1.8398261e+2, -1201743.6, -1205174.6, -8303.26, -0.014758611, -0.063896716, -1194980.5, -58016.07, 0.00000000000010121049, 9.996722, 9.996238 
3.349004e+2, 1.9397901e+2, -1097778.4, -1104265.9, -7617.9897, 0.0064779613, -0.048309833, -1092742.4, -53742.477, 0.000000000000012690283, 9.997125, 9.996236 
3.3491597e+2, 2.0397423e+2, -1006744.75, -1034102.94, -7087.585, 0.011678877, -0.04540169, -1005017.6, -63970.957, 0.0000000000000011561161, 9.9977045, 9.994052 
3.3493137e+2, 2.1396801e+2, -897221.9, -931849.1, -8166.9707, -0.0067699743, -0.062586635, -895392.3, -52284.742, 0.000000000000000076521916, 9.998546, 9.993929 
3.3494684e+2, 2.2396138e+2, -799426.2, -843776.6, -9272.0, -0.012549754, -0.07132358, -797565.8, -52393.61, 0.0000000000000000036800285, 9.998952, 9.99305 
3.349624e+2, 2.3395449e+2, -704630.6, -746968.9, -8550.003, 0.0012007853, -0.06978783, -702969.2, -55729.75, 0.0, 9.998714, 9.993078 
3.349779e+2, 2.439465e+2, -622799.1, -682931.9, -7544.9, 0.0112934075, -0.06756596, -621866.9, -72549.02, 0.0, 9.998733, 9.990746 
3.3499333e+2, 2.5393713e+2, -519805.25, -583992.6, -6397.847, 0.015497714, -0.06663191, -519173.75, -67763.56, 0.0, 9.999133, 9.990609 
3.3500907e+2, 2.6392713e+2, -423014.38, -501121.9, -4128.625, 0.020965185, -0.06226727, -422796.75, -69288.414, 0.0, 9.99967, 9.98931 
3.350252e+2, 2.739165e+2, -314249.4, -397935.84, -5686.9985, 0.028618656, -0.05484173, -313864.7, -58252.484, 0.0, 10.000402, 9.989304 
3.350414e+2, 2.8390488e+2, -221027.17, -324541.4, -4054.7039, 0.025723852, -0.053290993, -220868.6, -63142.434, 0.0, 10.001026, 9.987313 
3.3505777e+2, 2.9389203e+2, -116666.68, -224153.23, -2413.707, 0.007266584, -0.06283783, -116612.51, -56760.652, 0.0, 10.001487, 9.987248 
3.350743e+2, 3.038823e+2, -21326.184, -83243.586, -1314.2065, 0.0054769856, -0.07003139, -21298.303, -21298.303, 0.0, 10.001668, 9.993459 
3.35091e+2, 3.1387573e+2, -24661.697, -84606.58, -903.54785, 0.02875128, -0.0757061, -24648.082, -24648.082, 0.0, 10.001427, 9.993482 
3.447811e+2, 1.23973176e+2, -1776382.0, -1714411.1, -1484.5994, -0.051783618, -0.058932718, -1714375.6, 10681.097, 0.00000000081250584, 9.994493, 10.002703 
3.447994e+2, 1.3397333e+2, -1690257.0, -1651831.0, -359.21207, -0.0027051307, -0.05992992, -1651827.6, -24772.4, 0.00000000052773436, 9.994973, 10.000059 
3.4481648e+2, 1.43973e+2, -1590202.1, -1561490.0, -5846.15, -0.016949998, -0.05969964, -1560345.3, -31286.945, 0.00000000028494548, 9.995493, 9.999281 
3.4483284e+2, 1.539721e+2, -1483486.8, -1459250.6, -6004.5723, -0.017859435, -0.07783212, -1457844.6, -26778.164, 0.0000000001212577, 9.996084, 9.999277 
3.448491e+2, 1.639704e+2, -1392733.1, -1385623.6, -6333.1616, -0.017042696, -0.086514845, -1381915.8, -48832.8, 0.00000000003895854, 9.996494, 9.997416 
3.448655e+2, 1.7396782e+2, -1292978.4, -1287603.9, -6495.8926, -0.012956454, -0.07895485, -1283261.4, -48152.676, 0.000000000009216846, 9.996647, 9.997339 
3.4488168e+2, 1.8396476e+2, -1198027.4, -1202971.0, -8351.274, -0.0062087993, -0.06666855, -1191789.9, -54650.727, 0.0000000000015895714, 9.996955, 9.996274 
3.448977e+2, 1.939612e+2, -1092010.1, -1100936.5, -8789.656, 0.003773672, -0.050777916, -1086615.4, -47441.53, 0.00000000000019928297, 9.997492, 9.996284 
3.449136e+2, 2.0395641e+2, -1005923.94, -1034141.5, -8414.883, 0.0023599495, -0.051138543, -1003605.06, -62384.23, 0.0000000000000181529, 9.997776, 9.994015 
3.4492943e+2, 2.1395004e+2, -910066.6, -938627.5, -7427.3584, -0.015839538, -0.07688663, -908250.56, -64967.555, 0.0000000000000012013685, 9.997689, 9.993882 
3.449452e+2, 2.2394332e+2, -817459.0, -854536.7, -9430.679, -0.017282212, -0.08527474, -815198.1, -69849.445, 0.00000000000000005776772, 9.997806, 9.992872 
3.4496093e+2, 2.3393637e+2, -713029.56, -753210.94, -11876.807, 0.0064022606, -0.07033516, -709781.56, -62364.758, 0.0, 9.998233, 9.992885 
3.4497672e+2, 2.4392845e+2, -620597.7, -678153.06, -11128.581, 0.019525057, -0.06299869, -618520.9, -69026.5, 0.0, 9.998718, 9.991077 
3.4499258e+2, 2.539194e+2, -514618.3, -577083.3, -9289.399, 0.016685603, -0.06912759, -513266.13, -61682.832, 0.0, 9.999294, 9.991003 
3.4500876e+2, 2.6390952e+2, -422840.25, -503103.44, -5924.462, 0.016713964, -0.06894929, -422405.3, -68724.88, 0.0, 9.999766, 9.989128 
3.4502533e+2, 2.7389866e+2, -320625.72, -403838.88, -5951.3066, 0.021090329, -0.06155242, -320202.25, -64415.42, 0.0, 10.000083, 9.989055 
3.4504202e+2, 2.8388694e+2, -230232.73, -327262.53, -4852.1553, 0.020966606, -0.060455296, -229990.69, -72089.19, 0.0, 10.000319, 9.987469 
3.4505877e+2, 2.938743e+2, -130600.23, -228574.31, -4939.307, 0.01449495, -0.07082852, -130351.84, -70326.695, 0.0, 10.000428, 9.987455 
3.4507573e+2, 3.0386472e+2, -30874.719, -86939.625, -4450.536, 0.015225359, -0.077982664, -30523.625, -30523.625, 0.0, 10.000969, 9.993541 
3.4509274e+2, 3.138582e+2, -13415.114, -78442.85, -4842.2764, 0.026003527, -0.08234179, -13056.513, -13056.513, 0.0, 10.002163, 9.993549 
3.5477573e+2, 1.23955354e+2, -1777666.1, -1716464.4, 311.4029, -0.039162993, -0.07152625, -1716462.8, 8767.854, 0.000000009469599, 9.994472, 10.002571 
3.547943e+2, 1.3395542e+2, -1691762.5, -1654272.0, 1333.8182, -0.012425224, -0.06601547, -1654224.6, -26994.59, 0.0000000061492664, 9.994948, 9.999904 
3.5481173e+2, 1.4395504e+2, -1590271.0, -1561200.9, -3723.7197, -0.038651895, -0.063180774, -1560731.5, -31497.707, 0.0000000033196064, 9.995477, 9.999306 
3.5482883e+2, 1.5395422e+2, -1483217.4, -1458523.9, -3773.485, -0.026907274, -0.078165434, -1457960.1, -26718.803, 0.0000000014124153, 9.9960785, 9.999328 
3.5484567e+2, 1.6395254e+2, -1393222.1, -1386649.8, -5612.12, -0.01422214, -0.08328648, -1383432.5, -50174.793, 0.0000000004537274, 9.996498, 9.997342 
3.5486227e+2, 1.7394994e+2, -1293613.5, -1288871.1, -5911.571, 0.0006945136, -0.071342476, -1284872.9, -49589.188, 0.00000000010733056, 9.996648, 9.997251 
3.5487875e+2, 1.8394667e+2, -1198857.9, -1204617.0, -6426.3525, 0.0043164887, -0.06748917, -1194695.5, -57379.695, 0.00000000001850869, 9.996953, 9.996161 
3.5489506e+2, 1.9394274e+2, -1092777.8, -1102559.3, -6705.8, -0.00938411, -0.0792806, -1089368.6, -50014.637, 0.0000000000023202033, 9.997495, 9.99617 
3.5491124e+2, 2.0393792e+2, -1004451.25, -1031184.06, -8488.037, -0.014644866, -0.084641464, -1001983.94, -60582.85, 0.00000000000021133044, 9.997783, 9.994211 
3.5492718e+2, 2.1393207e+2, -908418.75, -935160.25, -7723.989, -0.0067610806, -0.08192735, -906348.1, -62889.65, 0.000000000000013984623, 9.997689, 9.994117 
3.549432e+2, 2.2392538e+2, -821179.0, -862122.6, -7944.9785, 0.0010091017, -0.07753546, -819691.4, -74167.21, 0.0000000000000006723836, 9.997803, 9.992355 
3.5495916e+2, 2.3391771e+2, -717334.75, -762090.94, -10183.976, 0.008319392, -0.072962545, -715126.44, -67526.875, 0.0, 9.998233, 9.992278 
3.5497537e+2, 2.4390963e+2, -618089.1, -673022.7, -8997.167, 0.010665167, -0.06612948, -616653.06, -66974.086, 0.0, 9.998723, 9.991424 
3.5499176e+2, 2.5390118e+2, -511316.25, -570292.3, -7109.678, 0.005883363, -0.058094863, -510471.28, -58709.54, 0.0, 9.999299, 9.991463 
3.5500836e+2, 2.638915e+2, -422772.03, -503013.94, -4673.4883, 0.0017713049, -0.060973313, -422500.75, -68644.375, 0.0, 9.999769, 9.989131 
3.550252e+2, 2.7388027e+2, -320946.38, -404580.72, -4815.4805, -0.0011135656, -0.082785554, -320670.03, -64704.06, 0.0, 10.000089, 9.988999 
3.5504225e+2, 2.8386843e+2, -230303.89, -327515.16, -4447.924, 0.009766303, -0.09121532, -230100.8, -72018.75, 0.0, 10.000326, 9.987446 
3.550595e+2, 2.93856e+2, -130591.59, -228698.52, -4640.3223, 0.042137984, -0.08087815, -130372.6, -70168.45, 0.0, 10.000438, 9.98744 
3.550771e+2, 3.0384657e+2, -31037.504, -87513.04, -502.55136, 0.0521003, -0.06951192, -31033.031, -31033.031, 0.0, 10.00098, 9.993493 
3.5509494e+2, 3.1384018e+2, -13608.049, -79099.22, -444.4953, 0.02593827, -0.059037626, -13605.032, -13605.032, 0.0, 10.002175, 9.993496 
3.6477035e+2, 1.239366e+2, -1773254.3, -1714440.1, -5682.8906, -0.03562713, -0.08092599, -1713896.1, 11517.7705, 0.00000008268434, 9.994774, 10.002558 
3.647892e+2, 1.3393663e+2, -1692991.5, -1655145.3, -3833.2815, -0.01136375, -0.07563017, -1654760.9, -27347.436, 0.00000005368276, 9.994875, 9.999877 
3.6480707e+2, 1.4393622e+2, -1594251.9, -1563765.5, -7312.0737, -0.040798943, -0.0720983, -1562102.5, -32684.896, 0.000000028975498, 9.995228, 9.999252 
3.6482486e+2, 1.5393545e+2, -1484866.5, -1459970.4, -8042.3545, -0.02459741, -0.078221075, -1457598.5, -26173.303, 0.000000012326782, 9.995989, 9.999271 
3.6484227e+2, 1.6393381e+2, -1391473.9, -1385109.8, -11387.999, -0.01043622, -0.07826132, -1376467.6, -43026.387, 0.000000003959453, 9.996583, 9.997405 
3.6485907e+2, 1.7393127e+2, -1288914.5, -1285739.0, -10696.31, 0.0013814993, -0.06671335, -1276513.3, -41046.805, 0.0000000009365381, 9.996927, 9.997327 
3.6487576e+2, 1.8392792e+2, -1197596.1, -1206152.0, -10740.199, 0.0023392022, -0.06726439, -1190313.3, -52814.05, 0.0000000001614897, 9.997129, 9.995971 
3.6489233e+2, 1.9392367e+2, -1099832.1, -1108483.1, -11869.416, -0.013351449, -0.08934322, -1091524.6, -51984.13, 0.000000000020242613, 9.99712, 9.995947 
3.6490875e+2, 2.0391876e+2, -1010169.94, -1032841.94, -14578.028, -0.016789667, -0.094849676, -1003039.1, -61450.715, 0.0000000000018436379, 9.99734, 9.994312 
3.6492506e+2, 2.1391319e+2, -904127.06, -931527.25, -14622.586, -0.0016049709, -0.0771326, -897789.4, -54146.242, 0.00000000000012199398, 9.9979105, 9.994256 
3.6494136e+2, 2.2390665e+2, -812010.06, -857472.5, -12861.166, 0.008279332, -0.06821135, -808623.9, -62916.266, 0.0000000000000058651187, 9.998417, 9.9923725 
3.649577e+2, 2.3389886e+2, -708717.5, -757866.94, -10445.321, 0.010026764, -0.07498046, -706589.75, -58805.78, 0.0, 9.998816, 9.992284 
3.6497423e+2, 2.4389067e+2, -613335.7, -671620.5, -8400.42, 0.009068367, -0.07473135, -612149.1, -62284.844, 0.0, 9.9990835, 9.991346 
3.6499098e+2, 2.5388214e+2, -513986.3, -572580.7, -10680.474, 0.0041421973, -0.06589823, -512100.22, -60152.586, 0.0, 9.999154, 9.991376 
3.650079e+2, 2.6387247e+2, -429548.97, -505510.75, -10549.169, 0.001764819, -0.06731206, -428111.2, -74068.88, 0.0, 9.999272, 9.989198 
3.6502498e+2, 2.7386138e+2, -329536.63, -407699.78, -9677.394, 0.0031665491, -0.086407006, -328356.28, -72205.35, 0.0, 9.999454, 9.98909 
3.6504233e+2, 2.838496e+2, -237814.45, -331242.72, -8212.192, 0.013460392, -0.09204906, -237098.11, -78831.75, 0.0, 9.99981, 9.987439 
3.6505988e+2, 2.9383716e+2, -130735.59, -228990.11, -8388.602, 0.037480194, -0.07927842, -130024.555, -69636.18, 0.0, 10.000433, 9.987422 
3.6507806e+2, 3.0382773e+2, -29314.178, -86245.664, -2055.2617, 0.04733254, -0.068998516, -29240.078, -29240.078, 0.0, 10.001073, 9.993535 
3.65097e+2, 3.1382132e+2, -19333.904, -81351.63, -1011.2565, 0.034100283, -0.06521255, -19317.418, -19317.418, 0.0, 10.001755, 9.993543 
3.7476507e+2, 1.2391689e+2, -1772815.1, -1712854.1, -5468.655, -0.043553106, -0.08614426, -1712359.4, 13247.36, 0.0000005532481, 9.994748, 10.002675 
3.747842e+2, 1.3391696e+2, -1692550.5, -1653541.5, -3688.4856, 0.00085585227, -0.088888526, -1653195.8, -25590.006, 0.00000035914545, 9.994848, 9.999997 
3.7480247e+2, 1.4391653e+2, -1595645.3, -1566033.9, -4848.8823, -0.02277878, -0.08673402, -1565260.1, -35650.098, 0.00000019382824, 9.995204, 9.999106 
3.74821e+2, 1.5391575e+2, -1486389.8, -1462616.0, -5263.3667, -0.010670398, -0.077947535, -1461502.8, -29884.646, 0.00000008245099, 9.995969, 9.999099 
3.7483886e+2, 1.6391417e+2, -1390206.3, -1382286.0, -10013.103, -0.006153712, -0.07116582, -1375478.4, -41844.535, 0.000000026481976, 9.996576, 9.997597 
3.7485588e+2, 1.7391181e+2, -1287221.9, -1282191.0, -9433.58, -0.012249632, -0.06522886, -1274943.3, -39286.125, 0.0000000062635124, 9.996928, 9.997565 
3.7487274e+2, 1.8390846e+2, -1199600.5, -1210213.9, -10695.237, -0.013749837, -0.06592754, -1192967.9, -55278.02, 0.0000000010799891, 9.997128, 9.995693 
3.748895e+2, 1.9390394e+2, -1102315.6, -1113474.8, -11919.549, -0.00866484, -0.08019168, -1094734.4, -55000.52, 0.00000000013537126, 9.997116, 9.995607 
3.749062e+2, 2.0389889e+2, -1010288.06, -1033019.25, -12626.266, -0.0044382825, -0.08071032, -1004665.44, -62882.145, 0.000000000012328863, 9.997339, 9.994298 
3.7492296e+2, 2.1389337e+2, -903869.94, -931059.9, -12413.051, -0.0013409533, -0.06192853, -899055.5, -55217.742, 0.0000000000008157841, 9.997915, 9.994284 
3.7493974e+2, 2.2388704e+2, -807913.94, -849166.44, -11263.544, 0.003197563, -0.057062574, -805038.94, -59139.07, 0.00000000000003921943, 9.998425, 9.992933 
3.7495655e+2, 2.3387977e+2, -704198.56, -748642.1, -8882.619, 0.010298677, -0.07603912, -702489.0, -54518.336, 0.000000000000000000006929764, 9.998822, 9.992909 
3.749734e+2, 2.4387157e+2, -616899.6, -679104.44, -7959.3813, 0.013440795, -0.08840687, -615897.4, -65846.57, 0.0000000000000000000002423796, 9.999091, 9.99083 
3.749902e+2, 2.5386226e+2, -518562.75, -582121.7, -10416.839, 0.010377648, -0.09254941, -516899.03, -64757.125, 0.0, 9.99916, 9.99072 
3.750073e+2, 2.6385233e+2, -428559.44, -503533.03, -9939.934, 0.015222628, -0.087881275, -427264.0, -73024.74, 0.0, 9.999277, 9.989329 
3.7502474e+2, 2.7384183e+2, -327827.2, -404256.34, -9034.975, 0.032355346, -0.07261442, -326773.66, -70430.93, 0.0, 9.99946, 9.989321 
3.7504232e+2, 2.838303e+2, -237674.34, -331124.5, -6130.2773, 0.03089674, -0.06346254, -237273.92, -78818.35, 0.0, 9.999821, 9.98744 
3.7505996e+2, 2.938177e+2, -130760.27, -229285.38, -6140.75, 0.0008268331, -0.0660256, -130379.016, -69799.99, 0.0, 10.000446, 9.987392 
3.7507868e+2, 3.038081e+2, -28282.557, -84408.67, 340.8867, 0.0011036654, -0.076048434, -28280.486, -28280.486, 0.0, 10.001089, 9.99365 
3.750989e+2, 3.1380156e+2, -18308.133, -79277.28, 1425.1398, 0.048306078, -0.09986252, -18274.84, -18274.84, 0.0, 10.0017605, 9.993679 
3.8476017e+2, 1.2389764e+2, -1765479.5, -1711909.4, -113.848045, -0.035918944, -0.083540745, -1711909.1, 13886.115, 0.0000029192024, 9.995352, 10.00245 
3.847797e+2, 1.3389742e+2, -1674750.4, -1647689.3, -1518.5688, 0.0035309333, -0.09137101, -1647604.3, -19807.34, 0.0000018948215, 9.996171, 9.999753 
3.847983e+2, 1.4389677e+2, -1576954.4, -1558204.8, -4993.108, -0.025624992, -0.09297965, -1556958.0, -27154.639, 0.0000010225369, 9.996525, 9.998997 
3.8481706e+2, 1.5389591e+2, -1483670.4, -1462336.8, -4931.2, -0.010798907, -0.080156766, -1461252.1, -29439.992, 0.0000004349407, 9.996198, 9.999006 
3.8483527e+2, 1.638943e+2, -1395731.4, -1385036.4, -9306.405, -0.006923511, -0.07313158, -1379650.5, -45822.254, 0.00000013969013, 9.996198, 9.997596 
3.8485262e+2, 1.7389189e+2, -1289968.9, -1283459.3, -10479.331, -0.018729702, -0.07199866, -1275740.9, -39889.055, 0.000000033038678, 9.996732, 9.997576 
3.8486984e+2, 1.8388852e+2, -1198811.8, -1211013.8, -12988.239, -0.01951498, -0.072692074, -1190562.9, -52678.02, 0.0000000056966374, 9.99723, 9.995589 
3.848869e+2, 1.9388396e+2, -1095139.5, -1111293.9, -12678.98, -0.0043230155, -0.07983016, -1088183.5, -48253.977, 0.0000000007140435, 9.997657, 9.995495 
3.849039e+2, 2.0387885e+2, -1002307.75, -1029592.3, -12290.181, 0.0033321795, -0.07908982, -997588.1, -55608.51, 0.00000000006503118, 9.997898, 9.994263 
3.8492084e+2, 2.1387321e+2, -904794.94, -931856.75, -12519.568, -0.0006632623, -0.068145365, -899891.5, -55856.492, 0.000000000004303039, 9.997864, 9.994255 
3.8493785e+2, 2.2386688e+2, -814418.1, -851270.44, -13038.041, -0.0007911988, -0.065372504, -810271.9, -64174.875, 0.00000000000020687176, 9.9979315, 9.99303 
3.84955e+2, 2.3385979e+2, -712920.44, -751642.56, -14579.379, 0.005289533, -0.07764565, -708044.94, -59878.832, 0.00000000000000000020104626, 9.99817, 9.993018 
3.8497213e+2, 2.4385163e+2, -625876.9, -684246.44, -14477.199, 0.010072154, -0.08817102, -622483.44, -72237.695, 0.000000000000000000007029948, 9.998507, 9.990761 
3.849893e+2, 2.5384218e+2, -521504.5, -584605.8, -12773.802, 0.012592524, -0.097759046, -519016.75, -66678.41, 0.0, 9.999001, 9.990627 
3.8500673e+2, 2.6383224e+2, -425766.6, -501457.9, -10178.934, 0.02144147, -0.09378238, -424421.63, -69985.664, 0.0, 9.999431, 9.989399 
3.8502446e+2, 2.7382186e+2, -322826.4, -400875.84, -10342.122, 0.039895874, -0.071964, -321479.25, -64941.293, 0.0, 9.999756, 9.98941 
3.8504243e+2, 2.838104e+2, -232012.67, -328785.75, -6785.4385, 0.036431875, -0.062435973, -231539.2, -72888.81, 0.0, 10.000221, 9.987407 
3.8506064e+2, 2.9379764e+2, -124342.42, -226744.03, -6804.4165, -0.0006335898, -0.07406495, -123892.266, -63117.176, 0.0, 10.000905, 9.987346 
3.8507965e+2, 3.037881e+2, -28380.236, -82056.9, -2677.6323, -0.0034898527, -0.08697943, -28246.996, -28246.996, 0.0, 10.000977, 9.993866 
3.8509977e+2, 3.1378186e+2, -41021.42, -87349.016, -1117.3257, 0.04630001, -0.10431459, -40994.492, -40994.492, 0.0, 10.0000725, 9.993939 
3.9475578e+2, 1.2387902e+2, -1770437.5, -1721510.4, 3012.9949, -0.013357749, -0.07152524, -1721325.5, 4651.9683, 0.000012531762, 9.99533, 10.001805 
3.947758e+2, 1.3387811e+2, -1679662.6, -1657668.8, 1570.304, -0.004859952, -0.08178991, -1657557.1, -29570.955, 0.0000081336, 9.996169, 9.999073 
3.9479455e+2, 1.4387697e+2, -1577490.1, -1559433.8, -5947.8535, -0.052433595, -0.08969439, -1557650.5, -27653.25, 0.0000043890395, 9.996534, 9.998906 
3.9481312e+2, 1.5387602e+2, -1483914.3, -1462529.8, -6325.3765, -0.027135368, -0.08471927, -1460798.9, -28792.086, 0.0000018668253, 9.996187, 9.998998 
3.948314e+2, 1.6387424e+2, -1397568.6, -1388394.6, -7678.2534, -0.013997889, -0.084250525, -1384037.6, -50013.242, 0.0000005995586, 9.996183, 9.997373 
3.9484936e+2, 1.7387153e+2, -1291887.8, -1287144.3, -8438.079, -0.018737707, -0.08758601, -1280750.9, -44700.27, 0.00000014180438, 9.996723, 9.997326 
3.9486712e+2, 1.8386805e+2, -1198350.6, -1209953.5, -11302.388, -0.01583735, -0.08809863, -1191447.6, -53362.953, 0.000000024450705, 9.997226, 9.995662 
3.9488462e+2, 1.9386366e+2, -1094252.9, -1109566.0, -10990.515, -0.0013374746, -0.08845463, -1088514.9, -48387.2, 0.0000000030648393, 9.997663, 9.995607 
3.9490184e+2, 2.0385857e+2, -1002657.0, -1030513.1, -12214.887, 0.0050985473, -0.09020069, -998059.56, -55881.906, 0.00000000027913746, 9.9979105, 9.994191 
3.9491874e+2, 2.1385267e+2, -905385.3, -933144.7, -12607.408, -0.00074528833, -0.09603884, -900514.2, -56278.863, 0.00000000001847093, 9.9978695, 9.9941635 
3.9493576e+2, 2.2384614e+2, -817160.0, -856967.75, -12198.793, -0.004780787, -0.09335557, -813719.2, -67419.555, 0.0000000000008880364, 9.997934, 9.992638 
3.9495304e+2, 2.3383887e+2, -715911.1, -757845.7, -13621.005, -0.0061386595, -0.07972256, -711875.25, -63504.29, 0.000000000000000004402075, 9.998172, 9.992593 
3.949705e+2, 2.438308e+2, -623232.94, -678854.94, -12702.913, -0.0022073626, -0.07350199, -620469.2, -70019.17, 0.00000000000000000015389045, 9.998512, 9.991124 
3.9498827e+2, 2.5382182e+2, -518179.22, -577778.94, -10885.058, 0.010172387, -0.08130148, -516253.44, -63715.598, 0.0, 9.999005, 9.991089 
3.9500612e+2, 2.6381204e+2, -425715.0, -501404.03, -8912.605, 0.01982374, -0.08471467, -424679.7, -70046.24, 0.0, 9.999434, 9.989399 
3.9502406e+2, 2.7380142e+2, -323190.78, -401699.47, -9179.718, 0.025029846, -0.08405025, -322131.72, -65394.04, 0.0, 9.999761, 9.98935 
3.9504257e+2, 2.8378972e+2, -232509.39, -329890.66, -4458.8745, 0.028999187, -0.08855672, -232305.66, -73453.63, 0.0, 10.000226, 9.987327 
3.9506185e+2, 2.937769e+2, -124934.26, -227905.19, -4333.29, 0.03140469, -0.10291762, -124752.22, -63774.332, 0.0, 10.000903, 9.987265 
3.9508098e+2, 3.0376756e+2, -26121.361, -77505.47, -5518.7446, 0.03150979, -0.10183761, -25535.322, -25535.322, 0.0, 10.000989, 9.99417 
3.9509967e+2, 3.137621e+2, -37914.555, -81758.516, -4771.5195, 0.02678889, -0.07946625, -37401.28, -37401.28, 0.0, 10.000116, 9.9943 
4.047513e+2, 1.2385901e+2, -1763690.5, -1720408.1, -4502.322, -0.016833406, -0.07565147, -1719944.8, 6228.536, 0.00004485904, 9.995877, 10.001611 
4.0477183e+2, 1.3385794e+2, -1685228.6, -1662512.3, -2318.5054, -0.005148022, -0.081831254, -1662278.0, -34094.44, 0.00002911354, 9.99588, 9.998883 
4.0479082e+2, 1.4385661e+2, -1585364.9, -1565479.9, -9226.425, -0.055540543, -0.08993492, -1561858.5, -31661.81, 0.000015709626, 9.996091, 9.998712 
4.0480945e+2, 1.5385549e+2, -1478420.5, -1461999.5, -11144.318, -0.03320704, -0.08494575, -1456367.8, -24159.848, 0.000006681798, 9.996648, 9.998809 
4.0482795e+2, 1.6385353e+2, -1385276.1, -1383166.4, -11925.685, -0.017760362, -0.08622765, -1372249.0, -38022.133, 0.0000021459712, 9.997046, 9.997308 
4.048464e+2, 1.7385076e+2, -1285213.1, -1284462.6, -11143.661, -0.012016979, -0.09408817, -1273687.9, -37433.92, 0.00000050756734, 9.997197, 9.997278 
4.0486446e+2, 1.8384723e+2, -1196808.4, -1209122.8, -13709.914, -0.0071568, -0.09555476, -1187936.5, -49648.082, 0.00000008752133, 9.997324, 9.99567 
4.048821e+2, 1.9384292e+2, -1097806.0, -1111127.4, -14231.9795, -0.0039606043, -0.091096506, -1088753.1, -48422.35, 0.000000010971236, 9.997411, 9.995623 
4.0489954e+2, 2.0383783e+2, -1007255.25, -1032582.1, -16043.0625, -0.0015450504, -0.09126538, -999479.94, -57099.375, 0.0000000009993062, 9.997585, 9.994208 
4.049166e+2, 2.1383193e+2, -904723.75, -932654.44, -15768.051, -0.000110002584, -0.10075593, -897625.8, -53187.54, 0.00000000006613187, 9.997902, 9.994182 
4.0493387e+2, 2.2382525e+2, -815277.6, -859053.0, -14164.768, -0.00034328576, -0.10005298, -811094.06, -64590.29, 0.0000000000031798247, 9.998189, 9.992373 
4.0495136e+2, 2.3381768e+2, -714251.44, -760439.94, -14619.635, -0.0036160985, -0.08584112, -710013.0, -61434.91, 0.0000000000000000688154, 9.998428, 9.992292 
4.0496913e+2, 2.4380954e+2, -621100.7, -676369.6, -13836.54, -0.000013594505, -0.07764951, -617830.25, -67172.16, 0.0000000000000000024051838, 9.99859, 9.991257 
4.0498716e+2, 2.538008e+2, -522207.2, -577611.2, -14106.076, 0.014332909, -0.08129287, -518822.5, -66078.82, 0.0, 9.998632, 9.991281 
4.0500528e+2, 2.6379114e+2, -433879.88, -505009.44, -12652.384, 0.01976073, -0.0848635, -431696.3, -76858.24, 0.0, 9.998858, 9.989429 
4.0502346e+2, 2.7378047e+2, -328774.78, -404278.8, -12349.064, 0.010784338, -0.090971015, -326806.34, -69863.57, 0.0, 9.99937, 9.989362 
4.0504232e+2, 2.837688e+2, -241236.61, -332938.5, -7447.3506, 0.016233206, -0.09727235, -240635.73, -81579.016, 0.0, 9.999572, 9.987434 
4.0506208e+2, 2.9375613e+2, -147636.05, -237530.63, -5955.1406, 0.045128163, -0.105919465, -147243.27, -86062.3, 0.0, 9.999285, 9.987387 
4.050816e+2, 3.0374688e+2, -43220.418, -86287.375, -6315.018, 0.05217516, -0.10089465, -42313.527, -42313.527, 0.0, 9.999829, 9.994128 
4.0510055e+2, 3.1374136e+2, -15258.414, -71630.15, -8570.027, 0.022733707, -0.07731533, -13984.334, -13984.334, 0.0, 10.0016985, 9.994233 
4.1474685e+2, 1.2383755e+2, -1761982.9, -1716217.8, -4844.605, -0.05063618, -0.09500993, -1715710.5, 10672.276, 0.0001357749, 9.9958515, 10.001905 
4.147678e+2, 1.3383693e+2, -1683293.8, -1657660.1, -2633.286, 0.0025136506, -0.09204667, -1657392.4, -29003.305, 0.00008811505, 9.995848, 9.999226 
4.1478714e+2, 1.4383571e+2, -1588049.8, -1570213.8, -7464.3403, -0.03371675, -0.094053276, -1567502.3, -37100.977, 0.000047546542, 9.99606, 9.998403 
4.1480616e+2, 1.5383428e+2, -1481366.3, -1467731.5, -9087.092, -0.029031722, -0.080542706, -1463188.8, -30773.293, 0.000020223571, 9.996635, 9.998424 
4.1482502e+2, 1.638322e+2, -1384624.8, -1381843.0, -11334.174, -0.018857121, -0.07827768, -1371814.8, -37378.715, 0.0000064954993, 9.99705, 9.997393 
4.148437e+2, 1.738295e+2, -1284128.5, -1282212.8, -10661.553, 0.00096385746, -0.09097234, -1272466.1, -36004.188, 0.0000015364569, 9.997201, 9.997427 
4.1486195e+2, 1.8382601e+2, -1197291.5, -1210021.3, -13401.342, 0.00569867, -0.09441045, -1188820.4, -50324.348, 0.00000026496838, 9.997322, 9.995608 
4.148794e+2, 1.9382164e+2, -1098489.8, -1112449.4, -13885.292, -0.013514848, -0.087436974, -1089928.8, -49389.445, 0.000000033220672, 9.99741, 9.995532 
4.1489694e+2, 2.0381661e+2, -1006633.3, -1031301.6, -14923.24, -0.01832715, -0.08193463, -999606.9, -57018.18, 0.0000000030265355, 9.997588, 9.994292 
4.1491452e+2, 2.138109e+2, -903864.0, -930970.9, -14515.377, -0.000038443377, -0.08117481, -897558.1, -52913.89, 0.00000000020034616, 9.997908, 9.994292 
4.149322e+2, 2.238042e+2, -816141.8, -861003.0, -13195.534, 0.011531089, -0.084361225, -812548.3, -65838.38, 0.000000000009636878, 9.9981985, 9.992233 
4.1494995e+2, 2.3379621e+2, -715390.2, -762923.9, -13648.138, 0.01203627, -0.095779836, -711750.2, -62962.098, 0.0000000000000007946489, 9.998435, 9.992118 
4.1496786e+2, 2.4378778e+2, -621805.2, -677957.0, -13535.725, 0.015545029, -0.100699894, -618712.6, -67841.914, 0.000000000000000027769294, 9.998599, 9.991142 
4.1498587e+2, 2.53779e+2, -522868.78, -579028.25, -13928.191, 0.024067154, -0.09760036, -519604.2, -66647.4, 0.0, 9.998637, 9.99118 
4.1500416e+2, 2.637694e+2, -433436.53, -504160.44, -10946.071, 0.020182269, -0.09386384, -431781.13, -76730.2, 0.0, 9.998864, 9.989482 
4.150227e+2, 2.7375886e+2, -328209.78, -403171.66, -10465.238, -0.004085967, -0.0925354, -326776.2, -69621.88, 0.0, 9.999374, 9.989433 
4.1504171e+2, 2.8374746e+2, -239162.45, -328784.1, -8306.183, -0.002867855, -0.088643074, -238399.14, -79133.32, 0.0, 9.999582, 9.987712 
4.1506135e+2, 2.9373524e+2, -145268.47, -232880.14, -7229.308, 0.040264018, -0.08321116, -144675.95, -83290.14, 0.0, 9.999301, 9.987696 
4.150815e+2, 3.0372593e+2, -45815.617, -91956.93, -394.312, 0.057934463, -0.084122546, -45812.25, -45812.25, 0.0, 9.999843, 9.99373 
4.1510236e+2, 3.137195e+2, -18777.453, -78895.25, -1610.728, 0.0320687, -0.09721738, -18734.328, -18734.328, 0.0, 10.0016985, 9.99373 
4.2474276e+2, 1.2381591e+2, -1757999.6, -1714104.1, -5517.1777, -0.05856387, -0.10913093, -1713421.3, 13173.3125, 0.00035082738, 9.99611, 10.001924 
4.2476392e+2, 1.3381548e+2, -1674556.3, -1652798.5, -5858.1904, 0.004133493, -0.09326536, -1651321.5, -22722.375, 0.00022768496, 9.996406, 9.999285 
4.2478356e+2, 1.4381433e+2, -1577939.6, -1564852.8, -9728.186, -0.028333934, -0.092625014, -1559672.1, -29061.514, 0.0001228659, 9.996722, 9.998445 
4.248031e+2, 1.5381287e+2, -1474396.6, -1463888.8, -7960.355, -0.021042805, -0.08723853, -1459604.8, -26979.676, 0.000052266085, 9.9970875, 9.998466 
4.248222e+2, 1.6381073e+2, -1382609.3, -1381838.5, -10622.004, -0.012120066, -0.08737139, -1371594.9, -36949.0, 0.00001678997, 9.997225, 9.997311 
4.2484084e+2, 1.7380801e+2, -1287288.4, -1284863.4, -12137.11, 0.00025251936, -0.093314484, -1273878.4, -37206.176, 0.000003972505, 9.997027, 9.997333 
4.248591e+2, 1.8380441e+2, -1202142.8, -1214711.1, -15470.468, 0.0011013477, -0.09406283, -1191728.9, -53021.457, 0.00000068530704, 9.9970875, 9.995404 
4.248769e+2, 1.9379978e+2, -1097797.3, -1114586.6, -16885.998, -0.016596531, -0.09082469, -1087334.4, -46581.117, 0.00000008596078, 9.997558, 9.995316 
4.248947e+2, 2.0379463e+2, -1001529.4, -1028667.06, -18764.668, -0.01878092, -0.08571024, -991941.7, -49137.82, 0.000000007836224, 9.997923, 9.99431 
4.2491257e+2, 2.1378903e+2, -900179.75, -928655.7, -18869.75, 0.003431703, -0.08012294, -890779.06, -45920.637, 0.0000000005191636, 9.998132, 9.99434 
4.2493048e+2, 2.2378236e+2, -814246.56, -859570.0, -17502.396, 0.017004851, -0.083261, -808274.6, -61351.043, 0.000000000025000514, 9.9983, 9.992282 
4.2494842e+2, 2.3377435e+2, -715322.2, -762419.3, -16416.896, 0.016363325, -0.101970516, -710164.5, -61162.58, 0.0000000000000068380394, 9.998415, 9.992163 
4.2496642e+2, 2.4376589e+2, -623699.1, -679808.94, -15694.595, 0.01746263, -0.10900285, -619607.5, -68522.68, 0.00000000000000023892724, 9.998503, 9.991065 
4.2498443e+2, 2.5375706e+2, -524621.1, -581038.1, -16164.406, 0.021352854, -0.099924885, -520317.97, -67146.625, 0.0, 9.998563, 9.991081 
4.2500293e+2, 2.6374745e+2, -435496.9, -504454.16, -12019.06, 0.019452868, -0.09436715, -433462.06, -78196.48, 0.0, 9.998685, 9.989551 
4.2502198e+2, 2.7373692e+2, -334274.3, -405144.7, -11271.768, 0.0076096654, -0.09816492, -332524.78, -75156.29, 0.0, 9.998909, 9.989524 
4.2504126e+2, 2.8372565e+2, -243562.03, -330431.0, -10620.438, 0.008218541, -0.09490298, -242282.44, -82803.08, 0.0, 9.999256, 9.987757 
4.2506075e+2, 2.937135e+2, -138284.08, -229065.7, -11722.367, 0.02959496, -0.08268843, -136794.83, -75196.46, 0.0, 9.999755, 9.987738 
4.2508122e+2, 3.037043e+2, -43272.03, -88986.625, -2050.5283, 0.041292135, -0.08268044, -43180.24, -43180.24, 0.0, 9.99994, 9.993883 
4.2510304e+2, 3.13698e+2, -47935.766, -90935.0, 1922.8157, 0.03513303, -0.10485362, -47849.953, -47849.953, 0.0, 9.999607, 9.993911 
4.3473905e+2, 1.2379415e+2, -1760785.6, -1718861.1, -4535.4243, -0.041086785, -0.118559174, -1718376.0, 8431.527, 0.00078514614, 9.996073, 10.0016165 
4.3476027e+2, 1.337936e+2, -1676921.0, -1657081.6, -4942.6777, -0.0016800682, -0.08426402, -1655918.5, -27105.266, 0.00050963036, 9.9963875, 9.999 
4.3478018e+2, 1.4379248e+2, -1575197.5, -1558909.0, -8629.015, -0.042041864, -0.08437091, -1555187.8, -24363.344, 0.00027507497, 9.996713, 9.99885 
4.348003e+2, 1.5379125e+2, -1470952.8, -1456519.8, -6694.003, -0.0109238615, -0.10541291, -1453893.0, -21056.795, 0.00011705333, 9.997078, 9.998968 
4.3481955e+2, 1.6378918e+2, -1384670.0, -1385841.5, -11211.279, 0.0010374472, -0.114414126, -1374029.1, -39172.96, 0.000037619757, 9.997218, 9.997041 
4.348377e+2, 1.737863e+2, -1290069.0, -1290347.8, -12941.398, -0.016208323, -0.10128871, -1277266.3, -40381.76, 0.000008906541, 9.997022, 9.996961 
4.3485597e+2, 1.8378241e+2, -1204827.8, -1220061.9, -14006.153, -0.02326189, -0.09423929, -1196501.5, -57578.67, 0.0000015378395, 9.997082, 9.995041 
4.3487448e+2, 1.937773e+2, -1100337.4, -1119854.3, -15055.754, -0.014249003, -0.10112699, -1092154.1, -51181.06, 0.00000019312868, 9.9975605, 9.994953 
4.348928e+2, 2.0377184e+2, -1001813.75, -1029424.75, -17896.857, -0.0037055982, -0.10281615, -993016.4, -49989.832, 0.000000017634331, 9.997933, 9.994251 
4.3491077e+2, 2.1376623e+2, -900138.9, -928732.56, -18050.58, 0.00931572, -0.09835341, -891409.2, -46327.844, 0.0000000011708853, 9.998141, 9.9943285 
4.3492877e+2, 2.2375971e+2, -812522.9, -856192.9, -16976.09, 0.014820646, -0.09728396, -806700.06, -59554.867, 0.000000000056553692, 9.998311, 9.992505 
4.3494678e+2, 2.3375206e+2, -713415.0, -758607.44, -15909.54, 0.008166228, -0.10403208, -708376.06, -59155.977, 0.000000000000044721503, 9.998423, 9.992417 
4.349648e+2, 2.437438e+2, -624070.9, -680718.25, -15422.455, 0.0043995366, -0.10187238, -620144.25, -68843.13, 0.000000000000001562477, 9.998512, 9.990996 
4.3498284e+2, 2.5373492e+2, -525355.4, -582624.1, -15929.154, 0.005455052, -0.08807644, -521222.94, -67834.62, 0.0, 9.998568, 9.990969 
4.3500158e+2, 2.6372522e+2, -434954.16, -503378.5, -11272.813, 0.016790632, -0.08631508, -433144.84, -77661.65, 0.0, 9.99869, 9.989619 
4.3502125e+2, 2.7371463e+2, -333505.63, -403678.06, -10485.899, 0.044326417, -0.10774168, -331972.22, -74385.61, 0.0, 9.998919, 9.989617 
4.3504092e+2, 2.8370318e+2, -244894.23, -333267.03, -8950.363, 0.047918357, -0.1157946, -243996.86, -84298.086, 0.0, 9.99926, 9.987559 
4.3506032e+2, 2.936908e+2, -139902.81, -232538.69, -9994.001, 0.012847335, -0.10371127, -138836.88, -77016.69, 0.0, 9.999763, 9.987494 
4.3508077e+2, 3.0368185e+2, -38210.168, -78777.42, -3107.863, 0.0017461275, -0.096192256, -37973.457, -37973.457, 0.0, 9.999958, 9.994573 
4.351026e+2, 3.1367654e+2, -41804.535, -78666.81, 395.69345, 0.029446745, -0.09999829, -41800.29, -41800.29, 0.0, 9.999633, 9.994737 
4.4473535e+2, 1.2377246e+2, -1756463.8, -1718975.3, -3568.5757, -0.03510168, -0.10861913, -1718638.6, 8381.532, 0.0015538043, 9.996456, 10.001425 
4.4475687e+2, 1.3377163e+2, -1671484.6, -1656410.4, -3205.0122, -0.0017791756, -0.088462844, -1655757.3, -26728.67, 0.0010089569, 9.996836, 9.99883 
4.4477695e+2, 1.4377035e+2, -1570904.4, -1556399.9, -8602.659, -0.04704931, -0.094237104, -1552400.4, -21359.422, 0.0005448942, 9.996982, 9.998891 
4.447972e+2, 1.5376928e+2, -1474915.6, -1457666.3, -10129.5205, -0.011894994, -0.10582995, -1452987.1, -19935.955, 0.00023205215, 9.996769, 9.999041 
4.4481668e+2, 1.6376719e+2, -1389287.0, -1390933.8, -15460.744, 0.00032335255, -0.11155716, -1374627.8, -39556.207, 0.00007466019, 9.997024, 9.996788 
4.4483516e+2, 1.7376393e+2, -1277296.6, -1287485.4, -16574.494, -0.02263186, -0.10513009, -1265051.3, -27947.766, 0.000017702305, 9.998032, 9.996664 
4.4485363e+2, 1.8375988e+2, -1184330.4, -1209135.5, -17358.73, -0.02804804, -0.10012609, -1175398.8, -36255.58, 0.000003062777, 9.998432, 9.995129 
4.4487226e+2, 1.9375499e+2, -1094931.5, -1115617.3, -14849.161, -0.0057531265, -0.101206176, -1087178.3, -45986.875, 0.0000003857046, 9.997855, 9.995101 
4.4489065e+2, 2.037495e+2, -1008325.25, -1035578.06, -15192.393, 0.0071282256, -0.10364481, -1001543.6, -58298.55, 0.00000003535121, 9.997614, 9.99399 
4.4490874e+2, 2.1374345e+2, -905470.75, -934940.0, -17604.668, 0.0047154017, -0.110289216, -897248.2, -51944.086, 0.000000002359298, 9.997928, 9.994011 
4.449269e+2, 2.2373675e+2, -815120.06, -856982.94, -19255.652, 0.003704565, -0.110412106, -807610.25, -60240.555, 0.000000000114745775, 9.998106, 9.992553 
4.4494498e+2, 2.3372935e+2, -717831.75, -759700.4, -19529.162, 0.0048609795, -0.1028745, -710136.8, -60694.43, 0.00000000000022836846, 9.99807, 9.992516 
4.449632e+2, 2.437212e+2, -627458.9, -682115.75, -18487.682, 0.005139595, -0.09570924, -621792.8, -70270.47, 0.0000000000000079783024, 9.998265, 9.99102 
4.4498155e+2, 2.5371224e+2, -521168.2, -580460.25, -17961.092, 0.003616537, -0.09157919, -516151.72, -62541.5, 0.0, 9.998841, 9.990985 
4.4500044e+2, 2.6370254e+2, -429470.9, -500886.0, -14273.328, 0.0154803535, -0.0930312, -426723.84, -71018.53, 0.0, 9.999066, 9.98961 
4.450201e+2, 2.73692e+2, -336792.56, -405497.75, -14543.979, 0.04863333, -0.10700269, -333840.63, -76032.375, 0.0, 9.998698, 9.989601 
4.4503993e+2, 2.8368056e+2, -253629.63, -336874.4, -10843.12, 0.052868593, -0.11431206, -252240.42, -92320.22, 0.0, 9.998629, 9.9876175 
4.4505972e+2, 2.9366815e+2, -149890.75, -236615.22, -9376.843, 0.01056401, -0.112934925, -148888.48, -86846.62, 0.0, 9.999038, 9.987567 
4.4508046e+2, 3.036593e+2, -45279.605, -80051.02, -4510.2324, -0.00037882873, -0.10748091, -44704.105, -44704.105, 0.0, 9.999371, 9.994773 
4.4510227e+2, 3.1365433e+2, -41803.92, -76263.93, -5823.2896, 0.03957866, -0.09894938, -40846.465, -40846.465, 0.0, 9.9995165, 9.994962 
4.5473173e+2, 1.23751e+2, -1757603.5, -1720296.0, -2346.7163, -0.044901595, -0.07460091, -1720149.0, 7081.8364, 0.0027803245, 9.996414, 10.001352 
4.5475376e+2, 1.3374957e+2, -1672317.3, -1657502.6, -1928.44, 0.0030545972, -0.10671347, -1657255.8, -28011.467, 0.0018069525, 9.996815, 9.998762 
4.54774e+2, 1.4374797e+2, -1573782.9, -1561846.5, -9361.433, -0.043168582, -0.124581546, -1556712.6, -25452.867, 0.0009770269, 9.996967, 9.998525 
4.547938e+2, 1.5374699e+2, -1478163.4, -1463712.1, -11148.601, -0.025985166, -0.08754221, -1457652.4, -24382.832, 0.00041677037, 9.996746, 9.998638 
4.5481354e+2, 1.6374473e+2, -1391317.5, -1394620.3, -12341.7, -0.01695356, -0.07626037, -1380517.1, -45225.375, 0.00013439546, 9.9970045, 9.996543 
4.548332e+2, 1.7374092e+2, -1278853.3, -1290801.4, -12776.073, -0.019713989, -0.10425419, -1270723.5, -33394.27, 0.000031964762, 9.998038, 9.996431 
4.5485222e+2, 1.8373686e+2, -1180113.6, -1200792.4, -18961.266, -0.013121012, -0.11207012, -1168855.9, -29487.088, 0.000005553748, 9.998451, 9.995687 
4.5487028e+2, 1.9373283e+2, -1090051.0, -1105706.4, -17069.912, 0.007946993, -0.09100905, -1079099.5, -37691.563, 0.00000070340104, 9.997868, 9.995769 
4.5488834e+2, 2.0372757e+2, -1011762.2, -1042684.25, -14359.571, 0.011879838, -0.08755363, -1006122.5, -62663.055, 0.000000064967765, 9.997617, 9.993503 
4.5490652e+2, 2.1372068e+2, -910093.1, -944555.6, -16311.423, -0.011551988, -0.11489601, -903597.2, -58070.188, 0.0000000043809485, 9.997933, 9.993352 
4.5492476e+2, 2.2371346e+2, -816070.7, -859104.6, -19224.906, -0.017379044, -0.12190437, -808733.25, -61135.465, 0.00000000021602262, 9.9981165, 9.992401 
4.5494306e+2, 2.3370615e+2, -718245.06, -760671.0, -19646.066, 0.0055970796, -0.09855042, -710545.1, -60875.41, 0.0000000000009414817, 9.998077, 9.992443 
4.549616e+2, 2.4369802e+2, -626570.56, -680374.6, -16549.334, 0.01863543, -0.09059275, -621887.8, -70138.445, 0.000000000000032891313, 9.998272, 9.991134 
4.549805e+2, 2.5368896e+2, -520160.53, -578420.8, -15714.623, 0.014943969, -0.110147424, -516192.13, -62354.16, 0.0, 9.998844, 9.991121 
4.549995e+2, 2.6367927e+2, -430162.3, -502404.72, -15219.245, 0.0147636, -0.114101276, -427087.0, -71154.02, 0.0, 9.999074, 9.989501 
4.5501852e+2, 2.736689e+2, -337730.4, -407606.72, -16035.265, 0.019716898, -0.095753655, -334226.34, -76191.63, 0.0, 9.99871, 9.9894495 
4.5503825e+2, 2.836576e+2, -251409.88, -332422.25, -9822.113, 0.021854425, -0.09028174, -250236.03, -90090.85, 0.0, 9.998637, 9.987916 
4.5505887e+2, 2.9364535e+2, -147230.14, -231188.66, -7995.7617, 0.021122226, -0.110267036, -146475.45, -84210.375, 0.0, 9.999045, 9.987931 
4.5508015e+2, 3.0363646e+2, -47313.582, -84413.945, -3964.6306, 0.032960262, -0.11629363, -46894.645, -46894.645, 0.0, 9.999379, 9.994468 
4.5510206e+2, 3.1363118e+2, -44359.43, -82043.45, -5522.323, 0.06308381, -0.1006759, -43566.84, -43566.84, 0.0, 9.99954, 9.994552 
4.647287e+2, 1.2372927e+2, -1739944.3, -1713792.9, -110.60429, -0.0479635, -0.07954471, -1713792.5, 13650.829, 0.004589857, 9.997698, 10.001175 
4.6475095e+2, 1.3372765e+2, -1663540.9, -1655368.9, -899.91956, 0.0070304903, -0.11221862, -1655271.0, -25812.43, 0.0029879087, 9.997495, 9.99858 
4.6477124e+2, 1.4372578e+2, -1568501.5, -1564104.0, -9193.857, -0.040458236, -0.12977274, -1556849.6, -25372.82, 0.0016192476, 9.997528, 9.998103 
4.647911e+2, 1.5372434e+2, -1463747.8, -1461936.6, -11513.73, -0.032597285, -0.09206865, -1451292.9, -17801.842, 0.00069287396, 9.997947, 9.998178 
4.6481097e+2, 1.637218e+2, -1376922.3, -1388890.9, -11872.094, -0.023258716, -0.07978781, -1369611.5, -34095.242, 0.00022437889, 9.998033, 9.996435 
4.6483114e+2, 1.7371793e+2, -1285873.0, -1294933.4, -10963.967, -0.010648671, -0.10610272, -1278540.3, -40986.098, 0.000053673917, 9.997584, 9.996374 
4.648504e+2, 1.8371384e+2, -1192789.8, -1206981.3, -19099.648, -0.00010639001, -0.11499104, -1179510.4, -39916.258, 0.000009398119, 9.9975815, 9.99569 
4.6486834e+2, 1.9370978e+2, -1083316.0, -1102382.0, -22414.504, 0.006524739, -0.09961912, -1068491.5, -26857.94, 0.0000012027082, 9.998315, 9.995779 
4.6488643e+2, 2.0370442e+2, -997993.75, -1038684.4, -21918.959, 0.00602104, -0.09547489, -988433.0, -44747.03, 0.00000011262272, 9.998664, 9.993268 
4.6490476e+2, 2.1369736e+2, -905204.56, -945330.06, -21079.074, -0.0056384546, -0.11189173, -896166.75, -50411.36, 0.000000007732489, 9.998397, 9.993075 
4.6492305e+2, 2.2369e+2, -814505.9, -858578.7, -22031.063, -0.0063883117, -0.11553034, -805381.9, -57554.37, 0.00000000039024706, 9.998228, 9.992385 
4.649413e+2, 2.3368262e+2, -715541.4, -759223.75, -21819.207, 0.01007182, -0.10047753, -706510.0, -56610.152, 0.0000000000032348013, 9.99825, 9.992461 
4.6495983e+2, 2.4367446e+2, -628448.1, -681683.3, -18356.828, 0.020293927, -0.09807247, -622732.0, -70752.09, 0.00000000000011301746, 9.998152, 9.991106 
4.649789e+2, 2.5366533e+2, -534839.6, -586199.9, -18909.207, 0.019911831, -0.11912493, -528628.9, -74559.805, 0.0, 9.997864, 9.991065 
4.6499798e+2, 2.6365563e+2, -447437.78, -509584.03, -18893.127, 0.017514255, -0.122285284, -442144.84, -85980.96, 0.0, 9.997833, 9.989611 
4.650169e+2, 2.7364546e+2, -343747.28, -409072.6, -17710.035, 0.011142041, -0.09957943, -339254.94, -80990.945, 0.0, 9.998225, 9.989587 
4.6503672e+2, 2.8363433e+2, -253240.45, -332486.72, -10404.728, 0.013601373, -0.09020797, -251897.13, -91524.09, 0.0, 9.998472, 9.987992 
4.650577e+2, 2.936222e+2, -155985.72, -234699.08, -10814.296, 0.03226214, -0.10693508, -154527.0, -92034.984, 0.0, 9.998407, 9.988 
4.650793e+2, 3.0361336e+2, -56875.402, -87098.06, -5645.5576, 0.050271157, -0.11548819, -55855.25, -55855.25, 0.0, 9.998639, 9.9946375 
4.6510148e+2, 3.1360814e+2, -46574.21, -80966.37, -2818.232, 0.06379285, -0.11219768, -46344.805, -46344.805, 0.0, 9.999299, 9.9947405 
4.7472644e+2, 1.23707384e+2, -1742517.8, -1718469.4, -1027.8484, -0.047751013, -0.1286249, -1718425.5, 9231.1, 0.007113215, 9.997679, 10.000864 
4.7474846e+2, 1.3370602e+2, -1666310.0, -1660432.9, -1902.657, 0.009032735, -0.10380964, -1659870.8, -30200.639, 0.004643645, 9.997476, 9.998241 
4.747688e+2, 1.4370388e+2, -1572439.3, -1571677.4, -8070.847, -0.0396026, -0.10661728, -1563978.5, -32287.184, 0.0025262511, 9.99751, 9.997594 
4.7478905e+2, 1.5370138e+2, -1467579.4, -1469865.6, -9980.982, -0.03314188, -0.120691724, -1458676.3, -24960.818, 0.0010866441, 9.997954, 9.997632 
4.7480905e+2, 1.6369836e+2, -1376531.1, -1388227.9, -13419.05, -0.020579262, -0.12530008, -1367741.4, -31996.37, 0.00035438547, 9.998043, 9.996473 
4.7482887e+2, 1.7369503e+2, -1285154.1, -1293173.9, -12808.641, 0.0028513225, -0.111259215, -1275742.4, -37964.5, 0.000085576154, 9.997578, 9.996495 
4.748481e+2, 1.8369086e+2, -1197194.1, -1215710.9, -16869.04, 0.009410073, -0.10814834, -1187209.8, -47391.08, 0.000015172572, 9.997569, 9.9951 
4.7486648e+2, 1.9368576e+2, -1088145.6, -1112583.6, -19547.691, -0.011992957, -0.12709288, -1077312.1, -35443.758, 0.0000019737136, 9.998329, 9.995074 
4.748849e+2, 2.0367996e+2, -997537.44, -1038230.3, -22611.883, -0.01254064, -0.12817138, -987465.5, -43540.246, 0.00000018875323, 9.998688, 9.993286 
4.7490343e+2, 2.1367343e+2, -904167.75, -943471.8, -22139.615, 0.021964666, -0.1015595, -894216.3, -48226.555, 0.000000013307983, 9.998412, 9.993194 
4.7492173e+2, 2.2366636e+2, -813557.94, -856809.5, -22044.75, 0.036496494, -0.090699576, -804302.6, -56243.27, 0.00000000069387657, 9.9982395, 9.992498 
4.749396e+2, 2.3365875e+2, -714690.4, -757651.25, -21632.38, 0.017481845, -0.10823147, -705685.25, -55551.85, 0.000000000009472845, 9.9982605, 9.992562 
4.7495788e+2, 2.4365042e+2, -629868.2, -684759.5, -19273.295, 0.008619433, -0.118186116, -623776.94, -71562.19, 0.00000000000033105848, 9.998161, 9.99089 
4.7497675e+2, 2.5364122e+2, -536690.3, -590080.75, -20004.785, 0.017300751, -0.11862997, -530026.5, -75721.79, 0.0, 9.997869, 9.990796 
4.7499588e+2, 2.6363155e+2, -445120.22, -504851.5, -17739.523, 0.022666832, -0.11773341, -440249.03, -83849.78, 0.0, 9.99784, 9.989929 
4.7501522e+2, 2.7362156e+2, -340875.56, -403225.22, -16281.988, 0.021494035, -0.11868625, -336879.75, -78382.22, 0.0, 9.998234, 9.98998 
4.750353e+2, 2.8361055e+2, -254207.2, -334615.66, -10528.107, 0.026470102, -0.11371136, -252851.58, -92246.19, 0.0, 9.99848, 9.987843 
4.7505623e+2, 2.935984e+2, -157673.83, -238371.9, -11293.96, 0.043080635, -0.102198124, -156123.02, -93398.61, 0.0, 9.998419, 9.987741 
4.75078e+2, 3.035898e+2, -52250.46, -77740.96, -3698.6729, 0.0509774, -0.10521139, -51724.63, -51724.63, 0.0, 9.998655, 9.995268 
4.7510055e+2, 3.135851e+2, -40905.78, -69531.37, -614.51, 0.04114696, -0.12515248, -40892.598, -40892.598, 0.0, 9.99932, 9.995509 
4.8472393e+2, 1.2368494e+2, -1750812.3, -1724816.1, -6277.173, -0.04310157, -0.14174776, -1723379.8, 4496.119, 0.01049777, 9.99721, 10.000659 
4.8474622e+2, 1.3368353e+2, -1659881.9, -1659765.0, -6249.34, 0.010577384, -0.10149947, -1653573.9, -23683.67, 0.0068823104, 9.998013, 9.998025 
4.847668e+2, 1.4368123e+2, -1558139.1, -1566542.6, -10880.21, -0.037453283, -0.099871054, -1550677.5, -18764.572, 0.0037656925, 9.998557, 9.997433 
4.8478743e+2, 1.5367843e+2, -1458304.8, -1467119.9, -9927.464, -0.021645134, -0.12934342, -1451850.4, -17910.504, 0.0016323061, 9.998655, 9.997479 
4.8480752e+2, 1.6367523e+2, -1367917.0, -1385196.9, -14029.6455, -0.007709719, -0.13934651, -1360080.4, -24109.174, 0.00053782034, 9.998674, 9.996375 
4.8482692e+2, 1.7367192e+2, -1271121.9, -1287434.4, -15368.169, 0.0038710274, -0.11397303, -1261879.8, -23875.832, 0.00013162919, 9.998573, 9.996406 
4.84846e+2, 1.8366756e+2, -1186986.8, -1215400.4, -17857.973, 0.0032467481, -0.10624417, -1178373.8, -38327.1, 0.000023746588, 9.998461, 9.994689 
4.8486477e+2, 1.9366194e+2, -1091165.6, -1119254.4, -18511.287, -0.017794497, -0.13176306, -1081974.0, -39872.54, 0.0000031577385, 9.998341, 9.994617 
4.848834e+2, 2.0365588e+2, -1002339.44, -1040144.44, -21719.732, -0.015908904, -0.13525604, -992448.7, -48287.64, 0.00000031029586, 9.998338, 9.993328 
4.8490193e+2, 2.1364953e+2, -901345.94, -940853.94, -21482.357, 0.024235757, -0.10421607, -891915.8, -45691.977, 0.000000022599854, 9.998543, 9.993312 
4.849202e+2, 2.2364244e+2, -808563.06, -856445.75, -22286.031, 0.04058995, -0.09255358, -799795.75, -51502.406, 0.000000001223376, 9.99866, 9.992323 
4.8493806e+2, 2.3363455e+2, -710602.25, -758408.6, -24456.082, 0.017109402, -0.115199715, -700308.06, -49937.906, 0.000000000023981294, 9.998651, 9.992324 
4.8495618e+2, 2.4362604e+2, -625748.8, -683819.25, -24360.617, 0.0066684657, -0.12557618, -616883.06, -64429.74, 0.00000000000083893737, 9.998483, 9.9908 
4.8497474e+2, 2.5361684e+2, -534045.25, -589685.1, -23847.605, 0.017752603, -0.11903732, -525222.94, -70679.57, 0.0, 9.99808, 9.990725 
4.849938e+2, 2.6360723e+2, -442941.0, -501807.06, -19067.041, 0.02480877, -0.11800943, -437304.75, -80667.35, 0.0, 9.997891, 9.990116 
4.850134e+2, 2.7359733e+2, -341967.72, -401577.28, -18758.14, 0.02424514, -0.12892506, -336556.13, -77821.74, 0.0, 9.998055, 9.990181 
4.850336e+2, 2.8358647e+2, -259495.13, -336438.28, -14542.259, 0.02903817, -0.12514575, -256838.38, -95997.586, 0.0, 9.998079, 9.987912 
4.8505434e+2, 2.9357445e+2, -166333.78, -242272.39, -13481.025, 0.043746747, -0.104429975, -164011.58, -101052.97, 0.0, 9.997806, 9.987773 
4.8507622e+2, 3.0356577e+2, -62217.926, -81501.34, -3535.3335, 0.0480485, -0.119540006, -61590.207, -61590.207, 0.0, 9.997913, 9.99537 
4.8509943e+2, 3.1356135e+2, -51247.547, -73082.94, -5115.506, 0.033932272, -0.12594578, -50108.523, -50108.523, 0.0, 9.9985285, 9.99565 
4.947212e+2, 1.2366205e+2, -1752820.0, -1727072.0, -4032.7373, -0.036794946, -0.113590315, -1726455.1, 1645.3037, 0.014911252, 9.997133, 10.000538 
4.9474424e+2, 1.3366021e+2, -1661129.4, -1661484.9, -3531.4744, 0.010107381, -0.105503656, -1657771.3, -27652.615, 0.009830928, 9.99798, 9.99792 
4.9476543e+2, 1.4365786e+2, -1556705.1, -1563372.9, -10476.228, -0.03526048, -0.11212373, -1549045.1, -16903.367, 0.0054196375, 9.998553, 9.997646 
4.9478635e+2, 1.5365557e+2, -1456514.4, -1463285.9, -9764.464, 0.001045707, -0.1172727, -1449565.3, -15401.489, 0.0023727028, 9.998654, 9.997737 
4.9480644e+2, 1.6365248e+2, -1369725.3, -1388885.0, -14432.9, 0.01429367, -0.11944911, -1361982.3, -25788.162, 0.00079196517, 9.998679, 9.9961195 
4.948254e+2, 1.7364864e+2, -1273370.4, -1292317.8, -15879.641, -0.009948907, -0.113849096, -1264353.1, -26121.154, 0.00019707251, 9.998591, 9.996061 
4.9484423e+2, 1.8364394e+2, -1188442.5, -1218637.8, -18466.334, -0.021578113, -0.110060625, -1179687.6, -39409.38, 0.000036298647, 9.998476, 9.99446 
4.9486315e+2, 1.9363834e+2, -1092573.6, -1122325.8, -18998.871, -0.012284956, -0.113251895, -1083319.8, -40986.785, 0.0000049503406, 9.998354, 9.994399 
4.9488184e+2, 2.0363218e+2, -1001758.56, -1039074.5, -21107.572, -0.005106384, -0.11598989, -992244.75, -47851.5, 0.00000050112493, 9.998347, 9.993394 
4.9490023e+2, 2.1362558e+2, -900364.3, -939190.8, -20621.354, -0.001250209, -0.119731024, -891455.94, -44998.023, 0.000000037748414, 9.998564, 9.993413 
4.9491853e+2, 2.2361821e+2, -811882.75, -863663.5, -22244.74, 0.0031015011, -0.12137326, -803639.0, -55108.902, 0.0000000021194788, 9.998678, 9.991821 
4.9493662e+2, 2.3360996e+2, -714743.9, -767169.56, -24502.055, 0.007904605, -0.12148735, -705075.44, -54464.47, 0.000000000053309013, 9.998661, 9.99172 
4.9495474e+2, 2.4360123e+2, -625368.2, -683183.5, -25680.252, 0.013566803, -0.120068245, -615608.94, -62912.527, 0.0000000000018704428, 9.998493, 9.990837 
4.9497283e+2, 2.535921e+2, -533136.7, -587865.44, -25340.85, 0.02049089, -0.12004979, -523205.38, -68419.47, 0.0000000000000000000017017642, 9.998085, 9.990846 
4.9499163e+2, 2.6358256e+2, -442783.7, -501517.06, -18739.314, 0.023179365, -0.12283466, -437314.13, -80434.75, 0.000000000000000000000059654236, 9.997895, 9.990132 
4.9501142e+2, 2.7357262e+2, -342046.1, -401869.34, -18221.586, 0.018206349, -0.13033509, -336932.97, -77956.95, 0.0, 9.998064, 9.990155 
4.9503163e+2, 2.8356192e+2, -257365.64, -332226.1, -15492.5625, 0.01940537, -0.12431023, -254286.11, -93205.17, 0.0, 9.998091, 9.9881935 
4.9505207e+2, 2.9355013e+2, -163994.25, -237640.44, -14733.639, 0.033242952, -0.11274696, -161156.02, -97959.63, 0.0, 9.99782, 9.988081 
4.9507406e+2, 3.035411e+2, -65107.875, -87758.695, -1769.0193, 0.04059156, -0.158872, -64970.547, -64970.547, 0.0, 9.997929, 9.99493 
4.9509802e+2, 3.1353664e+2, -54464.918, -79971.336, -3205.81, 0.039413504, -0.11191834, -54068.164, -54068.164, 0.0, 9.998542, 9.995168 
5.047193e+2, 1.23638906e+2, -1722349.3, -1712910.5, -2618.791, -0.03384584, -0.111808315, -1712232.6, 16094.361, 0.020533854, 9.999224, 10.0005045 
5.0474244e+2, 1.3363697e+2, -1652131.3, -1657491.4, -1520.8451, 0.008514575, -0.113789916, -1651729.8, -21383.742, 0.013628187, 9.998602, 9.997892 
5.0476384e+2, 1.4363456e+2, -1560560.8, -1565909.8, -8968.217, -0.038965717, -0.121284805, -1553876.8, -21507.06, 0.0075791995, 9.99831, 9.997598 
5.0478494e+2, 1.5363231e+2, -1458194.8, -1464923.0, -10836.268, -0.0029610253, -0.11821126, -1450212.4, -15820.755, 0.0033562193, 9.998567, 9.997672 
5.0480515e+2, 1.636291e+2, -1369294.9, -1391341.5, -17334.893, 0.01050345, -0.11616217, -1359775.3, -23352.236, 0.0011366707, 9.998817, 9.995887 
5.0482416e+2, 1.7362498e+2, -1268469.4, -1292938.0, -18310.48, -0.012990907, -0.11285473, -1258682.0, -20218.29, 0.00028802847, 9.999049, 9.995798 
5.0484306e+2, 1.8362004e+2, -1178973.8, -1216271.6, -20790.133, -0.020920923, -0.109198034, -1169694.0, -29181.717, 0.000054231128, 9.999208, 9.994267 
5.0486207e+2, 1.936143e+2, -1080161.3, -1118461.3, -21192.768, -0.00315296, -0.10909075, -1070748.0, -28179.51, 0.0000075890043, 9.999283, 9.994215 
5.0488067e+2, 2.03608e+2, -990652.06, -1034390.75, -24042.166, 0.003376014, -0.11266909, -980020.75, -35390.66, 0.00000079091893, 9.9991255, 9.99334 
5.048987e+2, 2.1360129e+2, -899939.06, -939544.06, -24766.389, -0.008524376, -0.124011464, -888031.75, -41336.13, 0.00000006148999, 9.998606, 9.993373 
5.0491685e+2, 2.2359376e+2, -819758.75, -870521.0, -25896.13, -0.009570893, -0.12886646, -808879.56, -60110.152, 0.0000000035684378, 9.998265, 9.991556 
5.049351e+2, 2.3358524e+2, -722256.6, -774321.25, -25812.25, 0.007040993, -0.12465429, -711629.0, -60775.953, 0.000000000106599, 9.998292, 9.991415 
5.0495315e+2, 2.4357642e+2, -628693.8, -684646.56, -26724.254, 0.018691592, -0.11753229, -617980.9, -65041.285, 0.0000000000037690797, 9.998249, 9.990861 
5.0497097e+2, 2.535674e+2, -532366.3, -587089.06, -27147.76, 0.021438232, -0.110877976, -521183.6, -66155.664, 0.000000000000000000049289046, 9.998114, 9.99089 
5.0498945e+2, 2.6355776e+2, -445548.25, -504877.5, -21361.465, 0.022318339, -0.117105976, -438657.4, -81535.24, 0.0000000000000000000017269324, 9.997788, 9.989956 
5.0500906e+2, 2.7354744e+2, -356851.13, -411617.53, -22355.172, 0.01988026, -0.14262024, -348884.72, -89662.12, 0.0, 9.997156, 9.989928 
5.0502914e+2, 2.835367e+2, -272859.63, -337304.66, -19640.809, 0.021171408, -0.13421993, -267345.53, -106018.08, 0.0, 9.996917, 9.988415 
5.050496e+2, 2.9352552e+2, -169521.89, -237411.33, -19144.445, 0.030476563, -0.094020925, -164495.42, -101057.95, 0.0, 9.997305, 9.988348 
5.050718e+2, 3.0351633e+2, -69736.95, -90205.88, -4169.8584, 0.036053874, -0.17200142, -68920.086, -68920.086, 0.0, 9.997607, 9.994922 
5.050961e+2, 3.1351194e+2, -68066.83, -85219.22, -2229.5718, 0.04390702, -0.11235085, -67781.76, -67781.76, 0.0, 9.997539, 9.995299 
5.147186e+2, 1.2361565e+2, -1722350.4, -1712594.6, -5499.987, -0.038594525, -0.14008453, -1710121.0, 18433.004, 0.027554031, 9.999219, 10.000533 
5.14741e+2, 1.3361391e+2, -1652422.5, -1657189.1, -4285.8433, 0.0047713583, -0.12672715, -1649901.9, -19330.75, 0.018419899, 9.998571, 9.997925 
5.1476204e+2, 1.4361143e+2, -1563860.1, -1571583.8, -8648.192, -0.04948329, -0.12646067, -1558250.6, -25655.152, 0.010340942, 9.998268, 9.997229 
5.1478314e+2, 1.5360866e+2, -1461738.3, -1471586.5, -10043.044, -0.037410185, -0.13301295, -1455477.1, -20854.135, 0.0046347342, 9.998547, 9.997225 
5.1480365e+2, 1.6360511e+2, -1370959.5, -1394507.5, -16687.951, -0.023799727, -0.13116363, -1362310.1, -25652.037, 0.0015935765, 9.998812, 9.995671 
5.148233e+2, 1.7360096e+2, -1269621.4, -1295489.5, -17609.53, -0.007018053, -0.11139041, -1260706.3, -22007.342, 0.00041132476, 9.999062, 9.995615 
5.1484257e+2, 1.8359588e+2, -1179733.6, -1218283.6, -20586.947, 0.0049569197, -0.103289776, -1170806.8, -30057.96, 0.00007915646, 9.999232, 9.994117 
5.148615e+2, 1.9358984e+2, -1080822.8, -1120417.4, -20940.814, 0.0082617635, -0.11940352, -1071802.5, -28994.445, 0.0000113579035, 9.999314, 9.994063 
5.148798e+2, 2.0358333e+2, -991763.75, -1037210.75, -25810.477, 0.0080330325, -0.125812, -980099.2, -35227.53, 0.0000012170423, 9.999152, 9.993134 
5.1489747e+2, 2.1357661e+2, -901205.2, -942587.3, -26804.066, 0.001929204, -0.11693018, -888035.06, -41097.67, 0.000000097492624, 9.998631, 9.993152 
5.149152e+2, 2.2356902e+2, -819687.2, -870604.25, -26152.709, 0.002086034, -0.114609264, -808647.75, -59635.93, 0.0000000058393703, 9.998278, 9.991543 
5.1493347e+2, 2.3356037e+2, -722069.06, -774117.6, -25586.873, 0.013199606, -0.12461312, -711597.44, -60500.684, 0.00000000019837329, 9.998302, 9.991422 
5.149514e+2, 2.4355152e+2, -628950.44, -685286.0, -27137.219, 0.019890124, -0.118213706, -618004.9, -64821.414, 0.000000000007134189, 9.998257, 9.990812 
5.1496905e+2, 2.5354266e+2, -532794.9, -588039.44, -27627.424, 0.018979637, -0.09121091, -521349.72, -66079.234, 0.000000000000000013828485, 9.998118, 9.990822 
5.1498723e+2, 2.635328e+2, -448047.66, -510156.56, -23551.365, 0.020873431, -0.10111148, -440127.2, -82760.26, 0.0000000000000000008730735, 9.997798, 9.98959 
5.150063e+2, 2.7352163e+2, -359951.03, -418044.72, -24823.557, 0.027774282, -0.1658801, -350788.84, -91313.39, 0.000000000000000000039538807, 9.997158, 9.989489 
5.150262e+2, 2.8351077e+2, -271848.75, -335278.0, -18826.059, 0.03291189, -0.15337421, -266681.97, -105100.27, 0.0000000000000000000014097545, 9.996922, 9.988549 
5.1504695e+2, 2.9350042e+2, -168143.88, -234619.38, -17811.424, 0.034072436, -0.047304533, -163672.28, -99988.77, 0.0, 9.99731, 9.988534 
5.150694e+2, 3.0349112e+2, -67128.29, -84967.2, -4266.0493, 0.032809246, -0.15978518, -66160.586, -66160.586, 0.0, 9.997624, 9.995268 
5.150937e+2, 3.1348696e+2, -62928.18, -74932.805, -2980.5203, 0.045976195, -0.114414856, -62228.906, -62228.906, 0.0, 9.99757, 9.995982 
5.247175e+2, 1.235927e+2, -1729222.3, -1717529.4, -4940.1196, -0.039582223, -0.1436519, -1715721.8, 13056.984, 0.036176804, 9.998802, 10.000406 
5.247399e+2, 1.3359074e+2, -1643184.4, -1654598.9, -5000.4805, 0.00047756094, -0.1360812, -1641303.6, -10506.004, 0.024365017, 9.999275, 9.997762 
5.2476084e+2, 1.4358813e+2, -1546583.1, -1564949.8, -9151.705, -0.05202518, -0.13413107, -1542801.6, -9977.981, 0.013811107, 9.999517, 9.997071 
5.2478206e+2, 1.535853e+2, -1451597.8, -1468412.1, -8435.533, -0.038326226, -0.13054349, -1448095.4, -13243.678, 0.0062664114, 9.99931, 9.997072 
5.248027e+2, 1.635816e+2, -1365244.0, -1393548.3, -12945.451, -0.023233317, -0.12794031, -1360216.3, -23328.031, 0.002187711, 9.999273, 9.995516 
5.2482265e+2, 1.7357713e+2, -1263690.8, -1294503.4, -13708.363, -0.0059231045, -0.123790696, -1258474.9, -19543.162, 0.0005752219, 9.99954, 9.995455 
5.24842e+2, 1.8357186e+2, -1174454.4, -1217209.5, -17553.03, 0.0059120455, -0.12123099, -1168171.4, -27187.834, 0.00011314291, 9.999654, 9.993988 
5.248609e+2, 1.9356582e+2, -1078367.3, -1120636.0, -17898.867, 0.008360398, -0.12493305, -1071806.3, -28763.268, 0.000016648359, 9.999539, 9.993944 
5.2487916e+2, 2.035591e+2, -991677.6, -1042805.4, -24667.225, 0.009138265, -0.12355386, -981717.1, -36608.26, 0.0000018353236, 9.999397, 9.992638 
5.248965e+2, 2.1355182e+2, -895410.6, -946129.44, -28462.535, 0.0070809172, -0.11580765, -882649.0, -35468.813, 0.00000015174481, 9.999291, 9.992595 
5.24914e+2, 2.2354387e+2, -808276.56, -865162.4, -28975.973, 0.008764974, -0.11616298, -796116.44, -46858.465, 0.000000009413484, 9.999051, 9.991544 
5.2493197e+2, 2.3353527e+2, -716333.1, -770448.06, -27830.332, 0.01787597, -0.12997948, -704575.2, -53232.973, 0.0000000003572173, 9.998644, 9.991512 
5.249497e+2, 2.4352638e+2, -630473.5, -688920.0, -29784.148, 0.022218753, -0.1239826, -617970.3, -64540.93, 0.000000000013245786, 9.998266, 9.990566 
5.249671e+2, 2.535172e+2, -536341.9, -593390.75, -32152.19, 0.017443918, -0.094398834, -521884.84, -66365.64, 0.00000000000000038532895, 9.998021, 9.990508 
5.2498496e+2, 2.635071e+2, -451397.75, -513092.22, -29798.64, 0.019601306, -0.10613467, -439355.47, -81737.484, 0.000000000000000024719012, 9.99761, 9.989488 
5.2500343e+2, 2.7349588e+2, -363670.1, -421171.56, -28891.855, 0.03383319, -0.17358272, -351661.25, -91933.21, 0.0000000000000000011415998, 9.996945, 9.989387 
5.250229e+2, 2.8348514e+2, -277594.1, -336626.34, -18980.865, 0.040805742, -0.14923637, -272017.84, -110184.8, 0.000000000000000000040680988, 9.996456, 9.988687 
5.250437e+2, 2.934751e+2, -183183.16, -240447.1, -17939.787, 0.03264454, -0.023620158, -178027.17, -114095.84, 0.0, 9.996208, 9.98867 
5.250661e+2, 3.0346543e+2, -89649.25, -93928.1, -6199.342, 0.024209764, -0.18973999, -85230.555, -85230.555, 0.0, 9.995994, 9.99544 
5.250902e+2, 3.134617e+2, -89041.484, -79835.38, -6968.1978, 0.048848625, -0.12385973, -76087.16, -76087.16, 0.0, 9.995443, 9.99667 
5.3471637e+2, 1.23570256e+2, -1733346.1, -1723405.9, -4277.8774, -0.038555276, -0.11743499, -1721818.4, 7180.366, 0.046640746, 9.998703, 10.000042 
5.3473914e+2, 1.3356759e+2, -1646916.5, -1661043.1, -3483.748, -0.0053711217, -0.1415687, -1646104.0, -15079.319, 0.031651113, 9.9992285, 9.997342 
5.347604e+2, 1.4356469e+2, -1546230.6, -1563847.4, -9939.433, -0.047218647, -0.14526322, -1541758.3, -8704.943, 0.018118156, 9.999509, 9.997147 
5.3478175e+2, 1.5356234e+2, -1450611.4, -1466129.5, -9536.203, -0.004572811, -0.10959318, -1446076.5, -10999.873, 0.008324205, 9.999306, 9.997225 
5.348023e+2, 1.6355868e+2, -1366105.3, -1395220.8, -12327.383, 0.013451163, -0.10458148, -1361587.0, -24474.645, 0.002952043, 9.999276, 9.995397 
5.348221e+2, 1.7355357e+2, -1264812.9, -1296920.0, -12822.073, -0.011205582, -0.15071568, -1260320.8, -21159.07, 0.0007912693, 9.999551, 9.995281 
5.348414e+2, 1.8354796e+2, -1174988.0, -1218662.9, -17972.36, -0.021558397, -0.1651394, -1168543.3, -27326.797, 0.00015928308, 9.999676, 9.9938755 
5.348604e+2, 1.9354226e+2, -1078734.4, -1121923.0, -18452.96, -0.006337462, -0.12667412, -1071924.0, -28650.879, 0.000024088198, 9.999569, 9.993838 
5.348785e+2, 2.0353532e+2, -996981.6, -1054315.8, -25126.016, 0.0035148251, -0.10611714, -987528.9, -42187.406, 0.000002741792, 9.999427, 9.9918375 
5.348958e+2, 2.1352689e+2, -901416.4, -959341.7, -28832.54, 0.0035443457, -0.12165117, -889511.56, -42087.44, 0.00000023528638, 9.999334, 9.99167 
5.34913e+2, 2.2351828e+2, -807992.75, -865168.75, -30463.729, 0.00769969, -0.1345445, -794803.8, -45295.457, 0.000000015275274, 9.99908, 9.991529 
5.3493065e+2, 2.3350988e+2, -715100.94, -768221.0, -29402.303, 0.019561319, -0.14025311, -702038.6, -50448.42, 0.0000000006807702, 9.998662, 9.991655 
5.34948e+2, 2.4350089e+2, -633647.44, -695515.1, -30885.336, 0.0244795, -0.13453229, -620868.5, -67190.31, 0.000000000056586156, 9.998269, 9.990115 
5.349651e+2, 2.5349098e+2, -540431.5, -601740.94, -33036.926, 0.016055733, -0.120947205, -526017.94, -70242.78, 0.000000000026363014, 9.998017, 9.98994 
5.3498256e+2, 2.6348066e+2, -450702.84, -511637.13, -32181.066, 0.016987342, -0.13235603, -436854.44, -78977.67, 0.000000000020668642, 9.997611, 9.989587 
5.350004e+2, 2.734699e+2, -362289.13, -418389.75, -31542.248, 0.03661719, -0.16578504, -348128.84, -88146.67, 0.000000000014003389, 9.996951, 9.989574 
5.350194e+2, 2.8345957e+2, -276530.7, -334531.25, -20349.578, 0.043660484, -0.122737676, -270103.25, -108019.61, 0.000000000007715435, 9.996461, 9.988828 
5.3503984e+2, 2.9344937e+2, -182537.39, -239235.73, -19015.78, 0.0247657, -0.02287045, -176750.42, -112567.414, 0.0000000000033919445, 9.996216, 9.9887495 
5.3506196e+2, 3.0343896e+2, -89481.734, -93788.664, -8026.9443, 0.009335164, -0.26045698, -83324.41, -83324.41, 0.0000000000012133904, 9.996014, 9.995436 
5.350857e+2, 3.1343612e+2, -83754.33, -69103.05, -9563.34, 0.0506618, -0.1084083, -64382.008, -64382.008, 0.00000000000036743045, 9.995465, 9.997391 
5.447153e+2, 1.235476e+2, -1725353.3, -1720072.8, -1910.789, -0.041789547, -0.11839983, -1719453.9, 9766.662, 0.05923043, 9.999269, 10.000014 
5.447384e+2, 1.3354489e+2, -1644545.5, -1660697.0, 2167.2175, -0.0070654703, -0.14163126, -1644259.8, -13012.885, 0.04050611, 9.999421, 9.997275 
5.4476005e+2, 1.4354181e+2, -1545825.6, -1567087.3, -5050.404, -0.03971511, -0.14482896, -1544687.0, -11409.945, 0.023422668, 9.999679, 9.99685 
5.447815e+2, 1.5353908e+2, -1442154.0, -1465987.5, -8763.629, 0.0075520305, -0.11494148, -1439278.5, -3974.5127, 0.010902844, 10.000048, 9.996877 
5.448021e+2, 1.6353516e+2, -1352801.6, -1389520.0, -13847.133, 0.023113053, -0.113421425, -1348165.1, -10822.75, 0.003931351, 10.00021, 9.995332 
5.4482186e+2, 1.7353004e+2, -1257824.6, -1293753.8, -13325.533, -0.01664054, -0.15812133, -1253421.9, -14030.306, 0.0010759311, 10.000035, 9.995262 
5.448411e+2, 1.8352431e+2, -1172690.5, -1221155.3, -18478.902, -0.034340028, -0.17134443, -1166448.8, -25000.982, 0.00022220639, 9.999982, 9.99356 
5.448602e+2, 1.9351824e+2, -1071803.1, -1122813.4, -21127.02, -0.012971041, -0.13213699, -1064189.3, -20681.422, 0.000034663044, 10.000217, 9.993465 
5.4487836e+2, 2.0351093e+2, -986945.25, -1053621.5, -28312.8, 0.0015179189, -0.11196129, -976545.0, -30964.988, 0.000004095248, 10.000284, 9.991472 
5.448955e+2, 2.1350212e+2, -892299.1, -959071.9, -28004.955, 0.0035115364, -0.13000563, -882108.8, -34442.484, 0.00000036842863, 10.000126, 9.991311 
5.4491246e+2, 2.234931e+2, -800292.2, -866350.44, -29602.219, 0.008215961, -0.14383137, -788968.06, -39213.57, 0.000000026352843, 9.999808, 9.991103 
5.449296e+2, 2.3348431e+2, -707733.9, -769659.2, -33033.945, 0.017874718, -0.14675719, -693420.44, -41580.152, 0.0000000022690143, 9.99937, 9.99122 
5.4494655e+2, 2.4347498e+2, -627692.44, -695673.7, -36649.473, 0.023088178, -0.13958336, -611697.56, -57766.04, 0.0000000009504995, 9.998794, 9.989857 
5.449632e+2, 2.534648e+2, -540315.94, -604471.75, -36428.29, 0.019481162, -0.1297955, -523855.1, -67823.92, 0.0000000007526166, 9.998129, 9.989709 
5.4498005e+2, 2.6345432e+2, -454107.25, -512741.47, -35228.36, 0.02062234, -0.1460652, -437592.84, -79458.69, 0.0000000005922039, 9.997348, 9.989645 
5.4499704e+2, 2.7344364e+2, -368834.1, -420584.63, -35492.47, 0.03305896, -0.18188773, -350786.22, -90547.05, 0.00000000040219272, 9.996463, 9.989661 
5.4501545e+2, 2.8343356e+2, -286361.03, -336365.2, -23235.28, 0.039603423, -0.12772141, -277231.28, -114893.51, 0.00000000022185907, 9.995654, 9.989097 
5.4503554e+2, 2.9342383e+2, -198500.34, -244356.4, -20485.18, 0.030399997, -0.0071284138, -190682.03, -126249.43, 0.00000000009757777, 9.994994, 9.988997 
5.450573e+2, 3.03413e+2, -108937.59, -104601.07, -8584.828, 0.01085302, -0.29681575, -97914.92, -97914.92, 0.000000000034918513, 9.994708, 9.995341 
5.4508066e+2, 3.134105e+2, -90150.2, -63075.93, -11811.983, 0.0447533, -0.10419655, -58647.07, -58647.07, 0.000000000010577204, 9.994594, 9.998247 
5.5471444e+2, 1.2352493e+2, -1724800.6, -1716787.9, -2713.876, -0.054085813, -0.15106699, -1715955.1, 13486.882, 0.07429232, 9.999176, 10.000308 
5.5473787e+2, 1.335229e+2, -1643583.4, -1656923.3, 2350.073, -0.005455639, -0.13505681, -1643181.5, -11719.573, 0.051209517, 9.99935, 9.997561 
5.5475986e+2, 1.4351973e+2, -1551987.1, -1578437.9, -3964.9985, -0.030156152, -0.13043483, -1551405.5, -17912.629, 0.02992419, 9.999629, 9.996098 
5.5478144e+2, 1.5351562e+2, -1449102.5, -1479745.1, -7686.385, -0.005380345, -0.14849631, -1447282.5, -11749.438, 0.014122313, 10.000032, 9.995945 
5.548022e+2, 1.6351104e+2, -1352823.8, -1389680.0, -14658.972, 0.0014260871, -0.15749013, -1347704.5, -10126.506, 0.0051837345, 10.000223, 9.99531 
5.5482185e+2, 1.7350663e+2, -1256652.1, -1291546.9, -14347.493, -0.024154946, -0.14518684, -1251510.5, -11889.804, 0.0014511817, 10.0000515, 9.9954 
5.548411e+2, 1.8350095e+2, -1176309.0, -1228931.8, -18054.855, -0.03320851, -0.13687804, -1170710.1, -29033.479, 0.00030831317, 10.000002, 9.993017 
5.548604e+2, 1.934938e+2, -1076155.5, -1132393.8, -20388.018, -0.012576799, -0.14056474, -1069542.0, -25795.049, 0.00004982271, 10.000251, 9.992793 
5.548786e+2, 2.0348592e+2, -985990.5, -1052300.9, -28872.555, 0.0022437223, -0.14146404, -975181.06, -29356.514, 0.0000061773967, 10.000316, 9.991545 
5.548957e+2, 2.1347749e+2, -890365.44, -955759.56, -28701.662, 0.005926333, -0.14086777, -879555.25, -31648.422, 0.0000006214507, 10.00016, 9.991517 
5.5491227e+2, 2.2346833e+2, -805982.25, -878708.94, -31220.547, 0.008789815, -0.14393868, -794418.44, -44422.05, 0.00000007837211, 9.999837, 9.990246 
5.5492896e+2, 2.3345847e+2, -714796.8, -784794.4, -34695.516, 0.010388986, -0.15025842, -700513.8, -48420.95, 0.00000003255942, 9.999398, 9.990172 
5.5494523e+2, 2.4344853e+2, -628222.6, -696989.2, -39130.79, 0.015066134, -0.14022817, -610515.3, -56324.98, 0.000000026503017, 9.998806, 9.989761 
5.5496144e+2, 2.5343853e+2, -539749.75, -603429.9, -38952.867, 0.025284918, -0.11984768, -521279.63, -64991.418, 0.000000023404336, 9.998137, 9.989776 
5.549775e+2, 2.6342797e+2, -453962.5, -512540.28, -38676.38, 0.02844999, -0.1472717, -434736.4, -76344.99, 0.000000019480769, 9.997352, 9.989659 
5.549934e+2, 2.7341688e+2, -368921.94, -420673.72, -38934.71, 0.020911755, -0.2224718, -348048.78, -87548.47, 0.000000013965125, 9.996454, 9.989663 
5.55011e+2, 2.8340706e+2, -283782.7, -331053.25, -26054.438, 0.026134431, -0.16262764, -272240.4, -109643.93, 0.000000008194208, 9.995661, 9.989456 
5.5503064e+2, 2.9339835e+2, -196194.17, -239463.61, -23041.688, 0.046602756, 0.024147524, -186222.23, -121540.41, 0.000000003918968, 9.994994, 9.989331 
5.5505216e+2, 3.033872e+2, -111318.11, -109356.4, -9344.457, 0.026608868, -0.29946613, -100941.46, -100941.46, 0.0000000015882468, 9.994709, 9.995009 
5.550751e+2, 3.133846e+2, -83928.49, -50293.09, -12998.255, 0.02937541, -0.08278797, -45855.445, -45855.445, 0.00000000057982985, 9.994615, 9.999105 
5.6471384e+2, 1.2350228e+2, -1720449.8, -1717225.9, -2712.8672, -0.048127033, -0.15921062, -1715682.1, 13981.427, 0.092263974, 9.999619, 10.000082 
5.6473744e+2, 1.3350008e+2, -1637012.0, -1657069.1, -1469.9349, -0.008190475, -0.13181902, -1636904.9, -5219.6855, 0.06411256, 9.999937, 9.997265 
5.6475973e+2, 1.4349677e+2, -1543606.5, -1574282.1, -8010.7583, -0.033042792, -0.12639004, -1541640.5, -7922.708, 0.037873123, 10.000192, 9.996105 
5.647814e+2, 1.5349253e+2, -1445199.6, -1477300.5, -4502.212, -0.01586833, -0.16303349, -1444580.1, -8821.245, 0.018134002, 10.000273, 9.995995 
5.648024e+2, 1.6348773e+2, -1351336.6, -1393489.4, -8781.988, -0.010198134, -0.17584851, -1349580.3, -11774.61, 0.006783849, 10.000518, 9.994911 
5.648223e+2, 1.7348309e+2, -1245729.3, -1291784.3, -13388.994, -0.02531596, -0.14209403, -1242119.8, -2268.5, 0.0019465141, 10.001035, 9.994907 
5.648418e+2, 1.8347706e+2, -1160692.9, -1224212.8, -19857.871, -0.02610437, -0.12552702, -1154995.8, -13085.262, 0.0004271713, 10.001192, 9.992759 
5.64861e+2, 1.9346957e+2, -1069867.3, -1131805.3, -19120.209, -0.0015206425, -0.1439827, -1064440.3, -20456.166, 0.0000724812, 10.000789, 9.992572 
5.648793e+2, 2.0346135e+2, -982157.6, -1053413.9, -25937.426, 0.011650419, -0.15270366, -973716.3, -27651.607, 0.000010124757, 10.000707, 9.99128 
5.648964e+2, 2.1345273e+2, -874939.6, -951311.06, -29151.807, 0.0038806186, -0.14691012, -865083.94, -16935.043, 0.0000016707496, 10.001343, 9.991247 
5.649128e+2, 2.2344318e+2, -788662.9, -877044.06, -36243.355, 0.0010243016, -0.1475088, -775701.1, -25458.791, 0.00000068123535, 10.001302, 9.989655 
5.6492877e+2, 2.3343267e+2, -706346.0, -788118.6, -37456.72, 0.007670554, -0.15618986, -691782.4, -39436.85, 0.0000005147218, 10.000283, 9.989525 
5.649443e+2, 2.4342217e+2, -624950.9, -700638.4, -41454.875, 0.017609669, -0.14499785, -606663.94, -52215.45, 0.00000045084565, 9.999241, 9.989312 
5.6495976e+2, 2.5341177e+2, -537546.6, -607132.9, -44784.047, 0.031988505, -0.1197239, -515628.44, -59078.45, 0.00000040533888, 9.99848, 9.989367 
5.6497496e+2, 2.634009e+2, -453173.72, -513830.13, -48332.133, 0.034076557, -0.15116091, -426442.34, -67786.164, 0.0000003419111, 9.997452, 9.989537 
5.649897e+2, 2.7338958e+2, -372912.72, -423874.25, -49353.08, 0.016967334, -0.2380006, -342850.75, -82083.53, 0.00000024849297, 9.996205, 9.989581 
5.650061e+2, 2.8338e+2, -296061.13, -334028.22, -37868.33, 0.020674175, -0.16771834, -272684.47, -109823.37, 0.00000014828878, 9.994655, 9.989758 
5.6502455e+2, 2.9337186e+2, -229073.55, -252779.84, -35402.96, 0.052871954, 0.046737242, -203592.17, -138651.11, 0.00000007256716, 9.992606, 9.989586 
5.650456e+2, 3.0336016e+2, -152436.28, -133560.05, -15250.579, 0.027284158, -0.32360253, -125063.336, -125063.336, 0.000000030344594, 9.992085, 9.994605 
5.650692e+2, 3.1335747e+2, -91332.56, -41245.832, -18539.809, 0.02620664, -0.07518371, -35130.016, -35130.016, 0.000000011523883, 9.993562, 10.000226 
5.747137e+2, 1.23479955e+2, -1727956.4, -1729597.8, -3333.3215, -0.02460338, -0.1374698, -1725344.3, 4538.022, 0.113750346, 9.999492, 9.999227 
5.747373e+2, 1.334766e+2, -1645331.0, -1671838.0, -1042.1675, -0.01596073, -0.1329565, -1645290.0, -13374.652, 0.07970574, 9.999845, 9.996302 
5.747598e+2, 1.4347295e+2, -1538757.5, -1562912.8, -8356.393, -0.050721955, -0.13461718, -1536148.5, -2197.6282, 0.04762605, 10.000139, 9.996898 
5.747816e+2, 1.5346995e+2, -1437952.0, -1461505.3, -4761.868, -0.02594187, -0.15658888, -1437025.6, -1046.1329, 0.02316222, 10.000242, 9.997079 
5.7480294e+2, 1.6346546e+2, -1357480.1, -1405792.0, -7424.9214, -0.012639801, -0.1652298, -1356364.9, -18341.479, 0.008851824, 10.000514, 9.99407 
5.7482344e+2, 1.734595e+2, -1253998.0, -1309060.0, -11799.602, -0.020591093, -0.14881569, -1251576.0, -11493.549, 0.0026184462, 10.001056, 9.993714 
5.7484317e+2, 1.8345271e+2, -1160170.3, -1223783.0, -21387.232, -0.014201707, -0.13874881, -1153648.4, -11499.09, 0.0006049181, 10.001229, 9.992766 
5.7486206e+2, 1.9344558e+2, -1067845.4, -1128380.4, -21021.977, 0.018028416, -0.1433521, -1061261.3, -17042.213, 0.00011672056, 10.000831, 9.992781 
5.748801e+2, 2.0343725e+2, -985966.2, -1061954.3, -24317.422, 0.027388468, -0.1458442, -978850.5, -32550.293, 0.000025367295, 10.000741, 9.990678 
5.748977e+2, 2.1342781e+2, -879697.7, -962139.56, -26784.93, -0.005823216, -0.14879552, -871759.75, -23367.236, 0.000010739204, 10.001392, 9.990481 
5.749139e+2, 2.2341761e+2, -790540.5, -881870.0, -39426.598, -0.019031333, -0.1550711, -775875.1, -25382.596, 0.000007719341, 10.001347, 9.989304 
5.7492906e+2, 2.3340683e+2, -707860.6, -791703.0, -41460.36, 0.007323476, -0.16397552, -690821.25, -38222.895, 0.0000064921687, 10.00031, 9.989266 
5.7494366e+2, 2.4339579e+2, -631026.9, -713067.44, -44670.336, 0.02948537, -0.15348484, -611399.8, -56693.33, 0.0000058297555, 9.999234, 9.98847 
5.749583e+2, 2.5338447e+2, -544181.4, -620900.6, -47683.848, 0.03814891, -0.13037647, -521342.88, -64525.344, 0.0000053236104, 9.998482, 9.988426 
5.749724e+2, 2.63373e+2, -455286.97, -518432.16, -53117.22, 0.034851205, -0.15838057, -425067.44, -66137.47, 0.0000045540646, 9.997463, 9.989219 
5.749859e+2, 2.7336156e+2, -374245.47, -426912.44, -54315.094, 0.018186735, -0.22818008, -340216.88, -79175.06, 0.0000033644237, 9.996223, 9.989365 
5.750007e+2, 2.8335217e+2, -294693.84, -331120.97, -45631.6, 0.020805318, -0.14477584, -263775.16, -100640.98, 0.0000020532113, 9.994648, 9.989968 
5.750171e+2, 2.9334408e+2, -227869.11, -250360.53, -43207.74, 0.046310224, 0.05842068, -194467.6, -129254.52, 0.0000010379762, 9.99261, 9.989755 
5.7503754e+2, 3.033317e+2, -155634.25, -139803.22, -11541.008, 0.010175907, -0.36843073, -133724.08, -133724.08, 0.00000045499738, 9.992072, 9.994179 
5.750628e+2, 3.1332925e+2, -82306.836, -20906.05, -13172.122, 0.0311601, -0.05235907, -18199.574, -18199.574, 0.00000018476815, 9.993501, 10.001643 
5.847135e+2, 1.2345685e+2, -1716708.6, -1722636.0, -5540.5566, -0.023709001, -0.1349832, -1713388.9, 16719.21, 0.13972628, 10.0002985, 9.999377 
5.84737e+2, 1.3345338e+2, -1645247.1, -1671156.1, 4354.5083, -0.020575976, -0.1495118, -1644534.9, -12392.7705, 0.09881981, 9.99982, 9.996366 
5.847598e+2, 1.4344978e+2, -1541858.0, -1563628.4, 755.8234, -0.0502264, -0.1540596, -1541831.8, -7654.3667, 0.05983568, 9.999894, 9.996971 
5.847821e+2, 1.5344708e+2, -1429421.9, -1456415.6, -3294.499, -0.027363827, -0.15463164, -1429025.6, 7177.6577, 0.029671986, 10.000801, 9.997151 
5.8480376e+2, 1.6344267e+2, -1347231.6, -1401863.8, -9374.762, -0.012159365, -0.15441112, -1345667.8, -7421.279, 0.011691108, 10.001257, 9.993974 
5.848245e+2, 1.7343646e+2, -1256052.8, -1311672.9, -6352.746, -0.0135547705, -0.149586, -1255336.4, -15028.441, 0.0036583636, 10.000985, 9.993574 
5.8484435e+2, 1.8342938e+2, -1163754.5, -1228851.9, -12119.8, -0.0086452635, -0.1470428, -1161571.3, -19193.602, 0.0009680178, 10.001124, 9.992477 
5.848634e+2, 1.9342193e+2, -1051871.0, -1124475.8, -16058.002, 0.008280051, -0.15138821, -1048478.0, -4027.805, 0.00027454388, 10.002085, 9.99244 
5.8488166e+2, 2.034133e+2, -961061.6, -1053163.0, -21222.54, 0.014338786, -0.15336831, -956406.6, -9872.11, 0.00012448919, 10.002573, 9.990394 
5.848996e+2, 2.134036e+2, -868002.8, -959697.56, -20374.004, -0.00016455699, -0.15599841, -863679.6, -15050.217, 0.00008762296, 10.002322, 9.990203 
5.8491576e+2, 2.2339295e+2, -784777.2, -885916.25, -34383.184, -0.003854814, -0.16141304, -774195.44, -23461.607, 0.00007186763, 10.002038, 9.988696 
5.849303e+2, 2.3338157e+2, -688054.56, -789239.1, -39786.203, 0.015370305, -0.16679952, -674284.44, -21438.873, 0.0000626273, 10.001971, 9.988635 
5.849439e+2, 2.4336994e+2, -606461.1, -709581.2, -46166.72, 0.031425063, -0.149529, -588812.75, -33852.887, 0.000057334793, 10.001262, 9.987739 
5.849575e+2, 2.5335798e+2, -528771.0, -621683.5, -47765.523, 0.03593006, -0.11741844, -508595.97, -51518.934, 0.000053095748, 9.999871, 9.987716 
5.849701e+2, 2.6334578e+2, -453032.25, -525304.56, -55759.164, 0.031798813, -0.14813042, -422723.66, -63527.18, 0.000046024852, 9.997934, 9.988542 
5.8498186e+2, 2.733335e+2, -386799.75, -440528.34, -60488.543, 0.02187152, -0.23854846, -347478.28, -86161.34, 0.00003458023, 9.9956665, 9.988721 
5.8499485e+2, 2.8332388e+2, -310383.75, -335575.38, -54309.965, 0.027364494, -0.15507498, -267228.1, -103817.02, 0.000021621432, 9.993431, 9.990262 
5.850092e+2, 2.9331642e+2, -240022.94, -252512.03, -50096.75, 0.043983094, 0.07442747, -195783.05, -130299.375, 0.000011313972, 9.991597, 9.990113 
5.850285e+2, 3.0330366e+2, -186251.23, -159960.13, -11483.721, -0.004297699, -0.3890693, -155650.55, -155650.55, 0.000005194945, 9.990175, 9.99373 
5.850541e+2, 3.1330067e+2, -141436.64, -31203.025, -13305.169, 0.048371937, -0.08289255, -29619.834, -29619.834, 0.0000022360696, 9.988633, 10.003298 
5.947136e+2, 1.23433284e+2, -1712231.0, -1709488.6, -8201.495, -0.050244465, -0.15602112, -1702544.5, 27793.518, 0.1720303, 10.000144, 10.000552 
5.947368e+2, 1.334309e+2, -1638810.4, -1655391.3, 1461.61, -0.024051, -0.18122278, -1638682.5, -6321.2427, 0.12317648, 9.999719, 9.997479 
5.947598e+2, 1.434276e+2, -1548152.6, -1574804.9, 2686.5732, -0.032188613, -0.18399926, -1547884.5, -13490.953, 0.076034255, 9.999829, 9.996235 
5.94783e+2, 1.5342411e+2, -1437366.0, -1472015.5, -779.0588, -0.02098501, -0.15876982, -1437348.5, -920.7735, 0.03894411, 10.000761, 9.996102 
5.9480506e+2, 1.6341953e+2, -1342786.3, -1392289.9, -10677.95, -0.011114356, -0.14402442, -1340581.3, -2108.084, 0.016315065, 10.001249, 9.994622 
5.948256e+2, 1.7341422e+2, -1249600.4, -1297956.8, -8047.0415, -0.006319168, -0.14427844, -1248296.5, -7770.735, 0.0058505926, 10.000978, 9.994504 
5.948455e+2, 1.8340729e+2, -1168438.5, -1238415.0, -9487.368, -0.011504928, -0.1501657, -1167175.0, -24581.309, 0.0021350835, 10.001132, 9.991816 
5.948651e+2, 1.9339877e+2, -1058214.1, -1138298.9, -12636.428, -0.03394542, -0.16821161, -1056267.5, -11590.922, 0.001053766, 10.002128, 9.99147 
5.948838e+2, 2.033895e+2, -960475.56, -1052841.5, -21906.86, -0.031005584, -0.17505528, -955543.2, -8776.012, 0.0007381075, 10.002618, 9.990391 
5.9490216e+2, 2.1338008e+2, -866272.8, -956902.8, -21735.21, 0.019093635, -0.16885743, -861329.8, -12470.314, 0.0006041106, 10.002364, 9.99037 
5.949183e+2, 2.233692e+2, -790480.8, -898293.5, -34796.47, 0.0458198, -0.16689108, -780225.75, -29259.418, 0.0005197563, 10.002065, 9.98784 
5.9493244e+2, 2.3335692e+2, -694863.2, -804068.44, -40069.43, 0.028646812, -0.16509221, -681738.4, -28651.098, 0.00046495852, 10.002006, 9.987606 
5.949451e+2, 2.4334452e+2, -610776.7, -718871.94, -50968.676, 0.019596031, -0.1337966, -590534.7, -35325.66, 0.00043299576, 10.001282, 9.987096 
5.949573e+2, 2.5333223e+2, -532181.94, -629088.8, -53297.727, 0.02322006, -0.08063395, -508604.97, -51275.887, 0.00040570888, 9.999893, 9.9872 
5.9496796e+2, 2.633192e+2, -460740.2, -541459.75, -64506.742, 0.022805858, -0.12104947, -425007.72, -65551.01, 0.0003559632, 9.997933, 9.987451 
5.949776e+2, 2.7330512e+2, -394891.5, -457611.84, -69445.77, 0.024427876, -0.26899737, -350053.4, -88459.07, 0.00027229832, 9.995673, 9.987559 
5.9498835e+2, 2.8329495e+2, -307972.2, -330466.72, -62358.97, 0.036378667, -0.19719471, -255854.31, -92160.58, 0.00017503003, 9.993414, 9.990629 
5.9500074e+2, 2.9328865e+2, -237117.61, -245670.47, -57060.266, 0.04336849, 0.09325668, -184173.73, -118418.44, 0.00009526984, 9.991554, 9.990608 
5.950185e+2, 3.032757e+2, -191378.69, -169091.39, -17439.814, -0.019404393, -0.3853118, -159538.95, -159538.95, 0.000046065772, 9.990113, 9.993137 
5.950428e+2, 3.132715e+2, -130068.39, -5821.1953, -19660.816, 0.064484544, -0.13954757, -2784.3057, -2784.3057, 0.000021126909, 9.988567, 10.00507 
6.0471296e+2, 1.23410195e+2, -1735431.0, -1722806.4, 853.3967, -0.034651875, -0.18302663, -1722748.9, 7814.9487, 0.2141504, 9.998415, 10.000345 
6.047368e+2, 1.3340783e+2, -1631746.8, -1655148.5, 450.05084, -0.018359771, -0.17582914, -1631738.0, 848.9236, 0.1564349, 10.000341, 9.997193 
6.047602e+2, 1.4340444e+2, -1529241.0, -1564315.9, -4155.5093, -0.03056081, -0.17744128, -1528755.4, 5865.0547, 0.099907555, 10.001113, 9.996321 
6.047834e+2, 1.534009e+2, -1447777.3, -1475820.1, 225.79552, -0.018635748, -0.17168848, -1447775.5, -11120.066, 0.054492068, 9.999995, 9.996219 
6.0480565e+2, 1.633964e+2, -1359877.3, -1398054.4, -3436.274, -0.010501703, -0.16255923, -1359570.4, -20870.762, 0.025899176, 9.999968, 9.99486 
6.04827e+2, 1.7339152e+2, -1234568.5, -1288297.3, -6240.685, -0.010701254, -0.14322837, -1233853.1, 6894.701, 0.011976248, 10.001903, 9.994713 
6.048475e+2, 1.8338484e+2, -1140758.6, -1223495.1, -10587.472, -0.016290369, -0.14126027, -1139425.4, 3387.9097, 0.006533352, 10.002953, 9.991947 
6.048674e+2, 1.9337632e+2, -1053711.9, -1135029.3, -6475.1636, -0.030967414, -0.17352524, -1053199.5, -8303.248, 0.0046004527, 10.002383, 9.991572 
6.0488623e+2, 2.03367e+2, -967311.25, -1057486.5, -11619.202, -0.027637502, -0.18364933, -965838.2, -18850.777, 0.003786453, 10.002218, 9.990267 
6.049047e+2, 2.1335763e+2, -859293.5, -955397.25, -14492.479, 0.009167178, -0.15870921, -857155.6, -8076.0464, 0.0032903722, 10.00293, 9.990196 
6.049209e+2, 2.2334652e+2, -773969.1, -894364.3, -28268.875, 0.03057823, -0.15115283, -767661.94, -16473.291, 0.0029265354, 10.0033655, 9.987481 
6.049351e+2, 2.3333366e+2, -676050.2, -799525.1, -29218.191, 0.022593774, -0.16907722, -669485.25, -16170.346, 0.0026794334, 10.00349, 9.987202 
6.0494727e+2, 2.4332044e+2, -591436.25, -719822.9, -42155.57, 0.020869901, -0.15308139, -578831.94, -23387.371, 0.0025303757, 10.003054, 9.986177 
6.0495836e+2, 2.5330716e+2, -504002.72, -625592.1, -48224.613, 0.029604724, -0.107227236, -487198.38, -29624.291, 0.0023909213, 10.002255, 9.986302 
6.049672e+2, 2.6329306e+2, -432404.13, -541500.3, -65894.59, 0.027328977, -0.14834844, -401409.3, -41697.473, 0.0021197093, 10.00044, 9.986259 
6.049743e+2, 2.7327797e+2, -369009.53, -458358.8, -71252.53, 0.012842081, -0.28229764, -329584.56, -67724.48, 0.0016524807, 9.997966, 9.986437 
6.049821e+2, 2.8326732e+2, -295679.53, -325802.84, -69168.29, 0.023409212, -0.19631277, -239952.02, -75987.836, 0.0010952904, 9.994255, 9.990583 
6.049913e+2, 2.9326114e+2, -268578.34, -261129.77, -67013.1, 0.055895794, 0.10256703, -197737.55, -131712.94, 0.00062263873, 9.989361, 9.99065 
6.0500664e+2, 3.032479e+2, -257141.1, -207081.36, -23144.613, -0.009484204, -0.38301077, -198020.66, -198020.66, 0.00031833941, 9.985872, 9.992596 
6.0502934e+2, 3.1324288e+2, -180132.92, -7327.733, -23996.697, 0.07249937, -0.16512538, -4057.3115, -4057.3115, 0.00015617778, 9.984135, 10.007128 
6.147119e+2, 1.2338828e+2, -1749672.1, -1746676.9, 7814.4775, 0.016299946, -0.21201785, -1740217.8, -9438.833, 0.27197537, 9.998288, 9.99863 
6.147374e+2, 1.3338475e+2, -1645141.1, -1682064.1, 5897.3516, -0.0012045228, -0.13258135, -1644222.0, -11407.922, 0.2054545, 10.000318, 9.995365 
6.1476123e+2, 1.4338076e+2, -1524200.6, -1551123.0, -7997.589, -0.04710681, -0.13082139, -1522004.0, 12849.461, 0.13908994, 10.001112, 9.99722 
6.1478335e+2, 1.533779e+2, -1439616.8, -1457149.9, -5368.4033, -0.023410656, -0.19106461, -1438103.6, -1222.315, 0.08435041, 9.9999275, 9.997515 
6.148056e+2, 1.6337375e+2, -1363412.5, -1403074.3, 1178.9681, -0.0122349365, -0.20920841, -1363377.5, -24455.732, 0.048456747, 9.999878, 9.994554 
6.148287e+2, 1.7336866e+2, -1239582.5, -1297998.6, 353.80798, -0.027359784, -0.14624587, -1239580.3, 1391.2756, 0.02972978, 10.00188, 9.994055 
6.1485034e+2, 1.8336225e+2, -1134322.8, -1210022.9, -12037.322, -0.02398607, -0.118746676, -1132454.8, 10579.741, 0.021419186, 10.0029745, 9.9928465 
6.148703e+2, 1.9335474e+2, -1045234.25, -1117619.0, -9378.024, 0.017350731, -0.16670515, -1044038.94, 1068.5405, 0.017732004, 10.002406, 9.992739 
6.14889e+2, 2.0334592e+2, -969500.6, -1061739.1, -10019.379, 0.025440585, -0.17859899, -968424.8, -21231.11, 0.0156708, 10.002212, 9.989977 
6.149072e+2, 2.1333632e+2, -863066.2, -963571.4, -11855.343, -0.031980403, -0.12434243, -861686.75, -12398.179, 0.0141537115, 10.002952, 9.989624 
6.149235e+2, 2.2332494e+2, -772545.06, -892362.6, -27559.525, -0.05371298, -0.112761036, -766510.0, -15109.728, 0.012947982, 10.003414, 9.98759 
6.149384e+2, 2.3331188e+2, -674243.25, -796380.1, -29068.646, -0.0053476673, -0.17936751, -667677.8, -14149.798, 0.012090875, 10.003523, 9.987395 
6.149505e+2, 2.4329768e+2, -600173.6, -737810.56, -44667.117, 0.034090742, -0.2089332, -586948.6, -31282.145, 0.011534932, 10.00306, 9.984942 
6.1496085e+2, 2.532827e+2, -513126.34, -645442.94, -51790.203, 0.05100319, -0.1995099, -495265.9, -37453.07, 0.010952761, 10.002315, 9.984911 
6.1496776e+2, 2.632673e+2, -441726.78, -561519.5, -75488.8, 0.03900426, -0.23024207, -405258.56, -45295.17, 0.009792287, 10.000447, 9.984903 
6.14972e+2, 2.7325177e+2, -376855.47, -476135.47, -81324.484, -0.01834044, -0.28019917, -331217.97, -69101.586, 0.0077819712, 9.998027, 9.985199 
6.149759e+2, 2.8324062e+2, -299372.06, -333786.72, -88153.39, -0.014787249, -0.15689257, -226762.3, -62536.566, 0.005329936, 9.99424, 9.990075 
6.149809e+2, 2.9323348e+2, -272865.7, -269222.0, -85985.555, 0.07534366, 0.097048186, -185039.0, -118743.32, 0.0031735566, 9.989301, 9.990153 
6.149927e+2, 3.032199e+2, -262014.7, -214230.19, -31807.45, 0.017795235, -0.38298455, -198341.13, -198341.13, 0.0017207229, 9.985719, 9.992202 
6.150132e+2, 3.1321478e+2, -167698.02, 23540.936, -30573.92, 0.058959015, -0.14052746, 28309.947, 28309.947, 0.0009054986, 9.983893, 10.009383 
6.2471324e+2, 1.233641e+2, -1664394.4, -1700731.1, -7020.6987, -0.06417651, -0.116603106, -1663085.1, 67931.65, 0.3540931, 10.006406, 9.998909 
6.247379e+2, 1.3336082e+2, -1625171.0, -1658762.6, 815.6223, -0.02491333, -0.11851717, -1625151.3, 7897.767, 0.2810599, 10.001352, 9.996449 
6.2476104e+2, 1.4335735e+2, -1555674.9, -1563237.9, 2344.1428, -0.057063226, -0.14088795, -1555007.3, -19924.063, 0.20651282, 9.998653, 9.997598 
6.247836e+2, 1.5335527e+2, -1425169.3, -1445829.3, -1072.2357, -0.035317503, -0.1508504, -1425113.8, 11989.366, 0.14316931, 10.000886, 9.997826 
6.248065e+2, 1.6335161e+2, -1327796.5, -1380614.0, 3082.2515, -0.021203548, -0.15802327, -1327617.3, 11521.546, 0.09977638, 10.002183, 9.994962 
6.2483037e+2, 1.7334625e+2, -1245919.9, -1296903.4, 9392.253, -0.018529903, -0.1624685, -1244244.6, -3053.683, 0.075428665, 10.001257, 9.994436 
6.248526e+2, 1.8333985e+2, -1156530.0, -1217860.4, -529.0202, -0.011262079, -0.16759096, -1156525.5, -13272.102, 0.06317337, 10.001295, 9.993141 
6.248729e+2, 1.9333296e+2, -1033746.0, -1109504.3, -5767.7163, 0.0063326126, -0.17671366, -1033309.44, 12011.177, 0.0566392, 10.003125, 9.992951 
6.2489206e+2, 2.0332475e+2, -937655.94, -1037747.0, -9889.319, 0.01187364, -0.16962606, -936688.2, 10712.795, 0.05224948, 10.004061, 9.990717 
6.249106e+2, 2.1331577e+2, -853593.5, -949943.0, -2479.0447, -0.005224379, -0.13775253, -853529.75, -4040.0654, 0.04862479, 10.003208, 9.990433 
6.2492716e+2, 2.2330455e+2, -779707.3, -901010.2, -10857.462, -0.011262284, -0.13436076, -778743.2, -27143.371, 0.04553478, 10.003153, 9.987126 
6.249427e+2, 2.3329103e+2, -657061.3, -796212.56, -19301.154, 0.0062444992, -0.17823283, -654433.75, -701.6248, 0.04318572, 10.005049, 9.986668 
6.2495476e+2, 2.4327652e+2, -562145.3, -722220.2, -42240.01, 0.025785992, -0.18622501, -551683.0, 4191.1064, 0.04147097, 10.005752, 9.984735 
6.2496406e+2, 2.532617e+2, -486407.78, -633983.4, -42043.227, 0.042416494, -0.15437217, -475270.47, -17251.59, 0.039459307, 10.004153, 9.984842 
6.2496877e+2, 2.6324558e+2, -433315.47, -573384.44, -63689.793, 0.031699702, -0.17967121, -408686.25, -48509.824, 0.035502102, 10.00172, 9.983481 
6.24971e+2, 2.7322823e+2, -358342.72, -481505.4, -70398.19, -0.017488876, -0.26700234, -326392.4, -64046.21, 0.028733619, 9.999905, 9.983937 
6.24971e+2, 2.8321552e+2, -291094.6, -347637.22, -92709.43, -0.002855223, -0.1776212, -222441.69, -57970.24, 0.020339342, 9.995579, 9.988491 
6.249705e+2, 2.9320654e+2, -281055.94, -293170.1, -99567.89, 0.09723164, 0.06987816, -187361.06, -120801.234, 0.012694748, 9.989609, 9.988378 
6.249772e+2, 3.0319262e+2, -304809.28, -235956.64, -47590.19, 0.030997481, -0.34660593, -211646.28, -211646.28, 0.007307337, 9.982819, 9.992143 
6.2499297e+2, 3.131874e+2, -277014.47, 465.70096, -40945.992, 0.0632856, -0.13367169, 6381.7095, 6381.7095, 0.00412638, 9.975145, 10.01204 
6.347393e+2, 1.333365e+2, -1639026.5, -1627835.6, -17611.725, -0.02198691, -0.1757325, -1614951.9, 18335.297, 0.39857566, 9.998583, 10.000424 
6.3476014e+2, 1.4333479e+2, -1596450.9, -1586045.1, 1478.6517, -0.003747212, -0.22627333, -1585839.0, -50535.883, 0.32097694, 9.996017, 9.997323 
6.347844e+2, 1.5333362e+2, -1441059.0, -1464556.4, 5293.812, -0.039591532, -0.058123786, -1439921.4, -2606.2754, 0.25301692, 10.000102, 9.996926 
6.348086e+2, 1.6333055e+2, -1322830.5, -1364164.8, -318.93417, -0.04136255, -0.0056386753, -1322828.0, 16517.18, 0.2046374, 10.002191, 9.996069 
6.3483196e+2, 1.7332475e+2, -1237429.1, -1276298.3, 4321.4263, 0.012271913, -0.19647597, -1236954.5, 4446.4927, 0.17573527, 10.0012245, 9.995845 
6.348542e+2, 1.8331803e+2, -1161030.8, -1225701.9, 4041.4597, 0.01660775, -0.29421744, -1160779.3, -17312.973, 0.15957789, 10.001242, 9.992624 
6.348753e+2, 1.933112e+2, -1040416.06, -1123132.8, 785.7395, -0.0733878, -0.20886283, -1040408.6, 5124.875, 0.14974464, 10.003147, 9.992002 
6.348952e+2, 2.0330359e+2, -927605.9, -1012160.4, -11466.132, -0.080172606, -0.1595455, -926078.56, 21529.797, 0.142255, 10.004127, 9.992423 
6.349147e+2, 2.1329603e+2, -839049.44, -917387.1, -6260.17, 0.08050699, -0.2048771, -838552.4, 11130.081, 0.13545737, 10.003268, 9.992616 
6.34932e+2, 2.2328542e+2, -786951.1, -916818.4, -5420.645, 0.1536759, -0.21884029, -786725.25, -34938.59, 0.12916654, 10.0032015, 9.986015 
6.349483e+2, 2.332712e+2, -668006.2, -820589.8, -11776.004, 0.053190455, -0.16762012, -667102.7, -13175.769, 0.12391613, 10.005132, 9.984956 
6.3496023e+2, 2.4325688e+2, -558371.6, -712163.9, -45463.42, -0.0086873155, -0.08223081, -545937.25, 10130.507, 0.11949662, 10.005757, 9.985423 
6.3496786e+2, 2.53244e+2, -477917.28, -616927.6, -49843.934, -0.0016503246, 0.02732918, -461892.4, -3698.923, 0.11378321, 10.004174, 9.986001 
6.349701e+2, 2.632278e+2, -443308.44, -594559.5, -71921.97, 0.0012841483, 0.0033920219, -414569.28, -54217.477, 0.1028533, 10.001712, 9.982058 
6.349712e+2, 2.7320743e+2, -367036.9, -501026.4, -78318.695, 0.00934417, -0.24247958, -330968.0, -68418.08, 0.084580116, 9.999949, 9.982595 
6.349671e+2, 2.8319186e+2, -309789.9, -386794.1, -116459.58, 0.052436683, -0.2600528, -225632.95, -60930.86, 0.061715093, 9.995541, 9.985877 
6.3496035e+2, 2.931802e+2, -303505.47, -338566.4, -122410.84, 0.119104184, 0.016936343, -197376.2, -130558.484, 0.040293537, 9.989508, 9.985368 
6.349597e+2, 3.0316612e+2, -305829.44, -232989.52, -77741.7, 0.024498824, -0.2724103, -183559.69, -183559.69, 0.02458592, 9.982549, 9.992525 
6.3496757e+2, 3.1316116e+2, -263673.9, 38531.285, -69800.98, 0.056021977, -0.114743665, 53874.387, 53874.387, 0.0148549015, 9.974622, 10.015004 
6.448066e+2, 1.6329911e+2, -1420809.8, -1385130.9, -22481.041, -0.04629057, -0.350635, -1374271.1, -34619.387, 0.3935423, 9.993999, 9.99859 
6.448341e+2, 1.7329976e+2, -1212934.9, -1237395.5, -8130.0996, 0.016288258, -0.10127925, -1210479.1, 31166.988, 0.36290616, 10.002978, 9.997781 
6.448582e+2, 1.8329643e+2, -1090643.0, -1147257.1, -15114.641, 0.02351024, -0.087987185, -1086860.5, 56818.555, 0.34415412, 10.006539, 9.995509 
6.448778e+2, 1.9329132e+2, -1060297.8, -1097716.9, 798.1419, 0.004250419, -0.14501484, -1060280.8, -14552.008, 0.33173627, 10.000189, 9.995176 
6.448973e+2, 2.0328422e+2, -1011018.75, -1069219.4, 15246.944, -0.024483135, -0.17690714, -1007266.4, -59468.234, 0.32132274, 9.998843, 9.991092 
6.4491844e+2, 2.1327522e+2, -813780.8, -924426.2, -7946.842, -0.06613243, -0.14057936, -813213.0, 36673.85, 0.31092435, 10.007129, 9.990258 
6.449368e+2, 2.2326499e+2, -678328.06, -808175.44, -24698.508, -0.078055575, -0.12900984, -673788.8, 78198.445, 0.30033526, 10.011071, 9.989682 
6.449531e+2, 2.3325458e+2, -632256.2, -745229.8, 6872.4263, -0.02441068, -0.1770879, -631839.7, 22249.54, 0.2905684, 10.005885, 9.98975 
6.4496505e+2, 2.4324188e+2, -591650.75, -723241.25, 7244.0977, 0.026763283, -0.2097098, -591253.1, -35039.92, 0.28133872, 10.00317, 9.985923 
6.449735e+2, 2.532277e+2, -451961.5, -599790.3, -5979.3525, 0.06345581, -0.2295666, -451720.03, 6631.5776, 0.26845768, 10.005951, 9.986348 
6.449756e+2, 2.6321062e+2, -378365.0, -596082.8, -36571.184, 0.07696619, -0.26141948, -372386.13, -11867.468, 0.24379481, 10.007597, 9.979104 
6.4497554e+2, 2.731885e+2, -280141.22, -502819.47, -62242.105, 0.060640574, -0.30257282, -263924.53, -1189.2456, 0.2030179, 10.00783, 9.978655 
6.449663e+2, 2.8317076e+2, -220084.17, -360288.53, -133214.25, 0.07456545, -0.22593619, -139652.81, 25256.771, 0.15189818, 10.00268, 9.984321 
6.449516e+2, 2.9315755e+2, -254671.19, -323749.88, -123683.3, 0.11471057, -0.027593153, -160795.1, -93754.31, 0.103240386, 9.993249, 9.984567 
6.449404e+2, 3.0314457e+2, -356910.06, -245413.58, -88369.38, 0.01965173, -0.21978226, -196677.3, -196677.3, 0.0664654, 9.97861, 9.99357 
6.4493495e+2, 3.1314e+2, -475110.25, -34099.34, -78070.07, 0.06568489, -0.12818743, -20686.879, -20686.879, 0.04264639, 9.959058, 10.017489 
6.549689e+2, 2.831523e+2, -230034.06, -368398.75, -162623.89, 0.05012161, -0.08011765, -122488.58, 42604.574, 0.31028104, 10.002782, 9.984079 
6.5494454e+2, 2.93139e+2, -242605.27, -299700.47, -159145.0, 0.07568602, -0.06468646, -109467.695, -42242.87, 0.21823692, 9.9932375, 9.98626 
6.5491855e+2, 3.031289e+2, -346643.2, -216037.5, -163206.02, 0.013109641, -0.18416382, -105554.49, -105554.49, 0.14703752, 9.978147, 9.995894 
6.5489304e+2, 3.1312582e+2, -476512.03, -16879.127, -150479.53, 0.06190778, -0.12283023, 28003.693, 28003.693, 0.09889723, 9.957976, 10.019479 
6.649378e+2, 2.931379e+2, -190834.2, -164911.4, 4497.7813, 0.14032742, -0.19770834, -164153.19, -96918.305, 0.38618892, 9.992216, 9.995806 
6.6489935e+2, 3.031391e+2, -228930.9, -57792.01, -87675.945, 0.076157585, -0.1073982, -20849.408, -20849.408, 0.26914772, 9.9817915, 10.004717 
6.6483504e+2, 3.131438e+2, -904755.06, -130163.945, -39001.363, 0.02969628, -0.13459674, -128205.15, -128205.15, 0.18652524, 9.92508, 10.027126 
6.7475736e+2, 3.13202e+2, -835074.3, 29522.807, -241352.03, -0.05723032, -0.034877494, 92333.18, 92333.18, 0.28263536, 9.922645, 10.041488 
6.846704e+2, 3.1333786e+2, -1069394.5, -3106.306, 125662.63, -0.10327269, -0.05947121, 11502.941, 11502.941, 0.33380264, 9.903181, 10.043887 
6.945724e+2, 3.1357118e+2, -1143487.5, -100032.95, -134067.28, -0.010193096, -0.03350822, -83082.79, -83082.79, 0.3011099, 9.899641, 10.037303 
7.1064395e+2, 1.7398316e+2, -1225649.3, -1243222.5, 1935.6985, 0.23931253, -0.28975025, -1225438.5, 9510.4375, 0.395116, 9.990391, 9.987144 
7.101774e+2, 1.8397193e+2, -1132864.5, -1151031.9, -10541.3125, 0.40710875, -0.10955968, -1128033.0, 9026.286, 0.36691204, 9.989779, 9.987102 
7.097058e+2, 1.9395848e+2, -1024468.25, -1048032.2, -14886.135, 0.31400734, -0.17466275, -1017265.7, 21925.014, 0.33871153, 9.990904, 9.98701 
7.0923686e+2, 2.0394515e+2, -924243.2, -947045.8, -6171.761, 0.24217258, -0.20880239, -922679.94, 18641.172, 0.30820137, 9.991117, 9.987201 
7.0877147e+2, 2.139323e+2, -845035.0, -862912.06, -10092.78, 0.2434619, -0.2139936, -840491.6, 2955.137, 0.27812424, 9.989533, 9.987084 
7.0830745e+2, 2.2391969e+2, -749214.94, -761064.3, -16271.744, 0.24325916, -0.21040379, -737822.8, 7747.499, 0.2559163, 9.989146, 9.987722 
7.0784247e+2, 2.3390763e+2, -632495.2, -656010.7, -18919.676, 0.21759725, -0.19130714, -621977.44, 25711.24, 0.25091398, 9.990992, 9.987479 
7.073822e+2, 2.4389549e+2, -524562.1, -543890.4, -5581.541, 0.16648178, -0.19047938, -523066.1, 26741.707, 0.26928523, 9.991734, 9.988448 
7.069258e+2, 2.538837e+2, -448184.0, -461803.84, -7821.8477, 0.12271596, -0.22105387, -444623.0, 7300.812, 0.30963358, 9.990135, 9.988268 
7.064779e+2, 2.6387382e+2, -337898.1, -328810.16, -5743.5737, 0.17085887, -0.19859017, -326030.44, 27990.654, 0.35722446, 9.989819, 9.9922695 
7.060326e+2, 2.7386743e+2, -219650.36, -214333.67, -20902.666, 0.28376636, -0.14424235, -195920.98, 60163.375, 0.38737097, 9.991928, 9.993741 
7.056041e+2, 2.8385946e+2, -146768.31, -162101.84, 17416.063, 0.12123264, -0.16794066, -135406.19, 22756.59, 0.38011798, 9.991887, 9.990483 
7.051828e+2, 2.938496e+2, -44172.34, -47987.48, -17093.172, -0.2780978, -0.23707414, -28880.625, 31379.797, 0.33619246, 9.991548, 9.992329 
7.04812e+2, 3.0385414e+2, -184935.78, 93273.266, 212735.81, 0.1625502, -0.17235638, 208347.02, 208347.02, 0.27302694, 9.972061, 10.014374 
7.044837e+2, 3.1387088e+2, -773108.25, -35854.68, 150586.22, -0.08490957, -0.004989536, -6283.13, -6283.13, 0.20952183, 9.926621, 10.023675 
7.2251743e+2, 1.3450508e+2, -1640696.1, -1626031.3, 4761.7144, 0.4416918, -0.17377762, -1624620.8, -2782.0894, 0.38652638, 9.987252, 9.989044 
7.220457e+2, 1.4449257e+2, -1552072.3, -1557177.0, -2179.7087, 0.32871565, -0.20049946, -1551268.1, -27306.852, 0.3205129, 9.987666, 9.986853 
7.2157526e+2, 1.5447976e+2, -1418925.6, -1441940.4, -3401.254, 0.42161646, -0.17233056, -1418433.5, 7653.0903, 0.26347446, 9.9901905, 9.986819 
7.211047e+2, 1.6446704e+2, -1310428.8, -1341263.8, 609.8558, 0.42511484, -0.10864371, -1310416.6, 17794.035, 0.22245318, 9.991373, 9.986562 
7.2063494e+2, 1.7445344e+2, -1230269.1, -1256929.4, -1937.2639, 0.31987604, -0.121258065, -1230129.0, 214.2227, 0.19610308, 9.989992, 9.986341 
7.201658e+2, 1.8443927e+2, -1140422.0, -1169873.3, -9228.343, 0.2731843, -0.1384378, -1137769.3, -5287.667, 0.17775908, 9.98964, 9.985823 
7.196962e+2, 1.9442473e+2, -1029358.1, -1068461.3, -12659.524, 0.26761773, -0.16934009, -1025617.44, 9006.35, 0.16158381, 9.990847, 9.985505 
7.192281e+2, 2.0441014e+2, -928545.3, -971250.3, -10379.181, 0.25673845, -0.16144243, -926156.4, 10610.357, 0.14462171, 9.99122, 9.98541 
7.1876115e+2, 2.1439606e+2, -845060.3, -884091.1, -15111.698, 0.25031716, -0.110217266, -839893.44, -988.34564, 0.12753801, 9.990332, 9.985169 
7.1829677e+2, 2.2438134e+2, -751180.8, -786935.3, -12128.754, 0.24413827, -0.10125636, -747454.75, -6405.522, 0.11406188, 9.990045, 9.985477 
7.1783364e+2, 2.3436633e+2, -644259.4, -689638.06, -15759.959, 0.2240664, -0.1494029, -639323.0, 3873.2537, 0.109257646, 9.991041, 9.985056 
7.173739e+2, 2.4435098e+2, -544983.0, -597531.94, -13865.704, 0.16739903, -0.15404974, -541548.8, 3797.8071, 0.11664553, 9.991488, 9.984732 
7.169156e+2, 2.5433624e+2, -465297.72, -513393.22, -18575.352, 0.09299843, -0.10757188, -458959.0, -11467.639, 0.13619918, 9.990574, 9.984442 
7.1646726e+2, 2.6431948e+2, -387652.66, -451572.9, -4218.4355, 0.123694986, -0.109501824, -387375.47, -37719.438, 0.16187418, 9.9905815, 9.982587 
7.1602404e+2, 2.743018e+2, -260438.53, -331109.88, -27589.023, 0.23214506, -0.17462628, -250943.81, 886.5846, 0.18221055, 9.992494, 9.983649 
7.155946e+2, 2.8428453e+2, -215335.36, -306002.38, 25820.668, 0.065600686, -0.11617912, -208497.67, -54497.844, 0.18619122, 9.991449, 9.9803 
7.151729e+2, 2.94267e+2, -118802.945, -188961.38, -10796.422, -0.30453575, 0.071978666, -117179.11, -61007.38, 0.17136572, 9.990637, 9.98234 
7.147848e+2, 3.0425388e+2, -290307.88, -83967.9, 118499.76, 0.3081644, -0.3079766, -30019.336, -30019.336, 0.14421496, 9.970258, 9.997587 
7.1441126e+2, 3.1425282e+2, -828244.4, -178854.08, -8675.816, -0.09639272, -0.22161475, -178738.19, -178738.19, 0.11401644, 9.926549, 10.012291 
7.3297536e+2, 1.2498561e+2, -1725777.0, -1725249.6, -9780.214, 0.45447224, -0.14124136, -1715729.5, -598.42053, 0.3249284, 9.988506, 9.988673 
7.3250645e+2, 1.349759e+2, -1608677.5, -1620464.3, -3736.2715, 0.4177192, 0.032443758, -1607593.0, 9632.839, 0.25896257, 9.9901705, 9.98826 
7.320368e+2, 1.4496388e+2, -1501706.1, -1529872.3, -8338.976, 0.39466083, 0.07387812, -1499422.4, 19920.914, 0.19362748, 9.991356, 9.987136 
7.315666e+2, 1.5495005e+2, -1392111.8, -1430238.6, -12713.477, 0.3906708, -0.018479772, -1388261.3, 33217.277, 0.13975194, 9.99238, 9.986769 
7.310961e+2, 1.6493556e+2, -1299367.8, -1347757.9, -13749.744, 0.3712948, -0.07584326, -1295733.8, 27886.719, 0.10370437, 9.992475, 9.985681 
7.306257e+2, 1.7492098e+2, -1217055.1, -1260960.5, -15690.238, 0.32061502, -0.10036021, -1212024.4, 13738.89, 0.08334714, 9.99142, 9.985447 
7.301565e+2, 1.8490608e+2, -1121764.3, -1168969.0, -12916.804, 0.29120392, -0.1090971, -1118461.0, 9448.148, 0.071896814, 9.991424, 9.985115 
7.296882e+2, 1.9489115e+2, -1009907.6, -1067957.8, -13549.75, 0.29337126, -0.106336065, -1006900.7, 23154.377, 0.063707724, 9.992637, 9.984747 
7.292207e+2, 2.0487514e+2, -909387.94, -984101.4, -13639.267, 0.2728971, -0.10672534, -906975.9, 25236.139, 0.05594349, 9.993462, 9.983493 
7.2875345e+2, 2.1485865e+2, -808026.75, -888537.2, -18166.02, 0.23307225, -0.10467699, -804117.7, 30256.041, 0.048275508, 9.993921, 9.983196 
7.2828877e+2, 2.2484165e+2, -713723.4, -795904.75, -15462.312, 0.2179567, -0.0999181, -710910.44, 25629.822, 0.04206468, 9.993876, 9.983034 
7.2782564e+2, 2.3482464e+2, -630735.25, -711237.06, -18419.84, 0.22127995, -0.107627936, -626720.75, 11986.266, 0.039384924, 9.993117, 9.982628 
7.2736645e+2, 2.4480627e+2, -540282.1, -638017.6, -9995.92, 0.18104818, -0.10399924, -539270.25, 1616.6388, 0.041739717, 9.993555, 9.981023 
7.26909e+2, 2.5478756e+2, -420916.38, -533968.75, -12849.545, 0.112139575, -0.08371913, -419474.3, 23595.838, 0.049269445, 9.995383, 9.980757 
7.264609e+2, 2.647661e+2, -347813.06, -495098.6, 19379.883, 0.13130458, -0.10140226, -345305.75, -24.665325, 0.05988947, 9.99578, 9.977013 
7.260179e+2, 2.7474257e+2, -256786.86, -394046.84, 22620.488, 0.2118448, -0.16910274, -253155.08, -5642.654, 0.069315895, 9.995088, 9.977715 
7.255854e+2, 2.847207e+2, -248952.27, -360304.56, 96148.69, 0.03963715, -0.08064042, -193523.05, -43795.6, 0.072982654, 9.990212, 9.976282 
7.251595e+2, 2.9469934e+2, -259440.0, -300974.4, 108229.45, -0.29301482, 0.15504506, -170003.34, -118066.836, 0.06919842, 9.982224, 9.977397 
7.247546e+2, 3.0467713e+2, -354710.97, -215057.72, 181016.98, 0.36957276, -0.35084486, -90866.55, -90866.55, 0.05986995, 9.968584, 9.987008 
7.2434646e+2, 3.14667e+2, -462135.53, 55862.72, 56853.93, -0.13360107, -0.099090695, 62029.42, 62029.42, 0.048533134, 9.946632, 10.01554 
7.429636e+2, 1.2545414e+2, -1696126.6, -1701038.9, 1569.1993, 0.3564671, -0.050522275, -1695668.1, 14873.036, 0.23778392, 9.990432, 9.989503 
7.424968e+2, 1.3544227e+2, -1596038.6, -1606773.0, -482.15024, 0.40747538, -0.18200976, -1596017.0, 16639.566, 0.17852521, 9.990776, 9.988971 
7.420282e+2, 1.4542934e+2, -1509915.4, -1546281.5, -9130.916, 0.40642485, -0.21019574, -1507751.5, 7031.544, 0.12096515, 9.991107, 9.98616 
7.4155843e+2, 1.5541595e+2, -1406088.5, -1448436.9, -13579.454, 0.36004755, -0.16312689, -1402108.3, 14805.687, 0.07490658, 9.991666, 9.985897 
7.4108803e+2, 1.6540167e+2, -1304981.3, -1358156.6, -19654.943, 0.33492658, -0.12919705, -1298505.0, 20548.857, 0.04563878, 9.992215, 9.985116 
7.406174e+2, 1.7538697e+2, -1204537.6, -1262840.3, -21596.518, 0.32583025, -0.10837642, -1197409.3, 23789.096, 0.030679801, 9.99255, 9.984793 
7.401485e+2, 1.8537173e+2, -1109408.5, -1170805.8, -14239.289, 0.31964052, -0.083963685, -1106266.9, 17081.252, 0.023779081, 9.992635, 9.984471 
7.396811e+2, 1.9535641e+2, -1013662.4, -1078405.5, -17248.78, 0.31797546, -0.05768474, -1009353.7, 16144.25, 0.020036291, 9.992705, 9.9840975 
7.392141e+2, 2.0533904e+2, -925997.7, -1012220.75, -18548.66, 0.27945793, -0.07597237, -922176.75, 5491.3003, 0.017114943, 9.993113, 9.981824 
7.3874706e+2, 2.153202e+2, -823369.94, -917337.0, -19904.3, 0.2065553, -0.13636643, -819327.7, 10524.683, 0.014433494, 9.993725, 9.981365 
7.3828226e+2, 2.2530118e+2, -727111.1, -827927.7, -20354.813, 0.18588297, -0.12968028, -723156.6, 8882.092, 0.012286064, 9.993945, 9.980827 
7.3781866e+2, 2.3528264e+2, -636621.4, -739399.25, -23185.582, 0.2095138, -0.06651709, -631633.06, 2587.4412, 0.011279745, 9.993747, 9.980408 
7.3736036e+2, 2.452616e+2, -552660.2, -678971.0, -5103.857, 0.19579253, -0.06548102, -552454.3, -16027.563, 0.01187284, 9.99431, 9.977909 
7.3690486e+2, 2.5523898e+2, -438290.4, -576146.5, -7969.9526, 0.15461498, -0.122913055, -437831.16, 816.80994, 0.014127681, 9.995647, 9.977771 
7.3645705e+2, 2.652153e+2, -359758.88, -518063.56, 17106.828, 0.16594484, -0.13637657, -357931.38, -17051.104, 0.01747176, 9.995771, 9.975379 
7.360128e+2, 2.7519104e+2, -268406.3, -415510.13, 19007.107, 0.20266363, -0.11647253, -265990.13, -22871.469, 0.020667378, 9.995014, 9.976181 
7.355754e+2, 2.8516924e+2, -231204.75, -317628.9, 69136.2, 0.03745092, -0.07997091, -192887.1, -47554.78, 0.02229509, 9.989882, 9.979001 
7.351422e+2, 2.9514876e+2, -244400.97, -265803.8, 83120.08, -0.23820344, -0.025240516, -171296.25, -123763.47, 0.021680772, 9.981957, 9.979563 
7.3472226e+2, 3.051304e+2, -362257.4, -225520.7, 116304.87, 0.30189088, -0.17805533, -158977.78, -158977.78, 0.019233372, 9.967862, 9.985909 
7.342933e+2, 3.1512043e+2, -436168.72, 70652.62, -30868.21, -0.24194176, 0.15543392, 72525.74, 72525.74, 0.015964143, 9.947602, 10.014913 
7.5295615e+2, 1.2592211e+2, -1679317.9, -1704805.1, 591.7716, 0.45375988, -0.096194215, -1679304.1, 26652.115, 0.17498668, 9.992303, 9.988181 
7.524886e+2, 1.3591024e+2, -1583071.6, -1614054.8, -6271.0767, 0.42629436, -0.09975756, -1581850.4, 26222.389, 0.12614638, 9.992303, 9.98773 
7.520199e+2, 1.4589663e+2, -1495945.0, -1545651.6, -14165.999, 0.39877123, -0.10951767, -1492191.3, 18014.93, 0.07953291, 9.992406, 9.985658 
7.515506e+2, 1.5588216e+2, -1393902.4, -1449290.4, -16566.115, 0.3651257, -0.117867514, -1389325.8, 23021.625, 0.043202266, 9.99279, 9.985359 
7.51081e+2, 1.658671e+2, -1289777.3, -1358720.5, -19555.121, 0.3429435, -0.10274756, -1284616.9, 29877.82, 0.021089088, 9.993593, 9.984493 
7.5061136e+2, 1.7585184e+2, -1177729.8, -1258416.8, -22174.92, 0.3310079, -0.07546747, -1172037.1, 44607.492, 0.010653346, 9.994747, 9.984109 
7.501424e+2, 1.8583526e+2, -1089398.1, -1179386.0, -21562.676, 0.311403, -0.07105979, -1084498.1, 34309.188, 0.0065807356, 9.994701, 9.982947 
7.4967414e+2, 1.958181e+2, -1007154.56, -1092772.1, -25966.713, 0.28779104, -0.080999285, -999894.8, 21080.648, 0.004957941, 9.993801, 9.982686 
7.492074e+2, 2.0580019e+2, -917050.94, -1010999.0, -20710.576, 0.26657742, -0.078364134, -912688.0, 10462.927, 0.0040337867, 9.993807, 9.981678 
7.487414e+2, 2.1578176e+2, -814082.06, -917391.0, -17095.846, 0.24177235, -0.077513434, -811326.5, 14004.677, 0.0033051048, 9.994459, 9.981065 
7.482772e+2, 2.257615e+2, -720232.75, -845900.7, -12770.771, 0.21275581, -0.08534633, -718948.06, 8581.472, 0.002749876, 9.995224, 9.978998 
7.4781364e+2, 2.3574047e+2, -612566.1, -748547.25, -12518.11, 0.18813968, -0.08911274, -611423.4, 18311.99, 0.002482714, 9.996158, 9.978608 
7.4735546e+2, 2.457179e+2, -536547.06, -686688.75, 9987.462, 0.1734286, -0.08395944, -535885.56, -3928.9402, 0.0025978526, 9.995887, 9.976527 
7.469002e+2, 2.5569436e+2, -458810.56, -600739.06, 16966.063, 0.16653317, -0.09011017, -456810.63, -22622.932, 0.0031081692, 9.994626, 9.976386 
7.4645126e+2, 2.6567012e+2, -400335.06, -536255.1, 47615.242, 0.16620058, -0.090596505, -385314.5, -48889.348, 0.00389485, 9.992651, 9.97529 
7.460051e+2, 2.7564555e+2, -331208.38, -444120.06, 57506.426, 0.1612944, -0.081713006, -307077.3, -68411.57, 0.004692301, 9.990332, 9.976001 
7.455629e+2, 2.8562385e+2, -284626.8, -326128.06, 84279.28, 0.04131341, -0.086274214, -218581.2, -77702.66, 0.0051773, 9.985061, 9.980088 
7.45123e+2, 2.9560384e+2, -291820.63, -272678.03, 86928.85, -0.13092323, -0.10183589, -194795.13, -151720.8, 0.0051652854, 9.97762, 9.980635 
7.4469036e+2, 3.055881e+2, -306681.78, -191127.8, 102136.695, 0.2135585, -0.050131213, -131558.8, -131558.8, 0.004706713, 9.970674, 9.986193 
7.4425036e+2, 3.1557286e+2, -340045.25, -106252.56, -24065.248, -0.00657149, -0.22749376, -103801.13, -103801.13, 0.004007134, 9.963148, 9.994389 
7.6294893e+2, 1.2638976e+2, -1685917.9, -1725552.4, -3330.1199, 0.50777763, -0.098033324, -1685640.0, 15735.399, 0.12768431, 9.992368, 9.986812 
7.624813e+2, 1.3637762e+2, -1573402.3, -1623942.6, -9331.488, 0.42589515, 0.010278932, -1571734.4, 31760.6, 0.089724064, 9.993569, 9.986491 
7.6201254e+2, 1.4636357e+2, -1477197.5, -1536947.0, -14922.248, 0.38459972, 0.014483186, -1473678.0, 31954.703, 0.054134592, 9.993747, 9.985616 
7.6154363e+2, 1.5634851e+2, -1383607.0, -1446478.1, -14877.209, 0.36449364, -0.046644285, -1380264.4, 27515.313, 0.027072964, 9.993594, 9.985148 
7.610747e+2, 1.6633274e+2, -1290370.1, -1366162.8, -14344.6, 0.34582353, -0.056987576, -1287746.0, 22187.996, 0.0111973565, 9.993889, 9.983837 
7.60606e+2, 1.7631672e+2, -1186754.3, -1270757.0, -17399.37, 0.32989654, -0.037119653, -1183292.9, 28797.928, 0.004155564, 9.994492, 9.983382 
7.601369e+2, 1.8629879e+2, -1098937.6, -1199416.3, -20816.756, 0.297711, -0.056601956, -1094795.6, 19470.863, 0.0017307227, 9.99468, 9.981528 
7.5966763e+2, 1.9627982e+2, -1005078.2, -1105670.9, -22399.938, 0.2533647, -0.102655455, -1000315.6, 16136.641, 0.0009991154, 9.994521, 9.98137 
7.592013e+2, 2.0626162e+2, -904042.75, -1003989.8, -14778.088, 0.25661162, -0.07067198, -901903.44, 16727.371, 0.0007296909, 9.994699, 9.981688 
7.587365e+2, 2.1624401e+2, -805415.94, -913726.6, -15384.493, 0.2888838, 0.005818058, -803273.06, 17530.4, 0.0005714269, 9.995112, 9.981012 
7.582728e+2, 2.2622274e+2, -726129.0, -863501.2, -10532.487, 0.2473378, -0.029308796, -725326.2, -2314.6433, 0.00046301575, 9.995517, 9.977677 
7.578096e+2, 2.3619933e+2, -623832.3, -767448.8, -9088.656, 0.15956788, -0.13352855, -623259.44, 1980.189, 0.00041138154, 9.99602, 9.97738 
7.57351e+2, 2.4617632e+2, -539093.9, -689190.9, 6534.425, 0.13876751, -0.10970438, -538809.94, -11344.223, 0.00042795477, 9.995762, 9.976352 
7.5689477e+2, 2.5615364e+2, -455471.38, -598326.5, 12268.615, 0.16088462, -0.010357103, -454425.4, -24736.336, 0.00051353493, 9.994816, 9.97639 
7.564436e+2, 2.6613018e+2, -390254.88, -516376.1, 39019.926, 0.1413396, -0.004216478, -379158.94, -47239.68, 0.0006500815, 9.992721, 9.976487 
7.559946e+2, 2.7610615e+2, -326129.78, -428094.53, 46819.01, 0.091380864, -0.062672995, -307893.5, -73739.29, 0.00079665467, 9.990105, 9.977063 
7.555479e+2, 2.8608468e+2, -286544.22, -324740.44, 56985.33, 0.051870503, -0.08506751, -245541.88, -109178.055, 0.0009002007, 9.9847, 9.980077 
7.551021e+2, 2.960651e+2, -289221.5, -264854.88, 61074.688, 0.025309443, -0.06613093, -214760.17, -176204.16, 0.0009244628, 9.977393, 9.980998 
7.5465995e+2, 3.0605054e+2, -284328.3, -151028.83, 80994.914, 0.08580866, -0.040666375, -112786.414, -112786.414, 0.0008686793, 9.970898, 9.988534 
7.54214e+2, 3.1603694e+2, -293163.66, -53247.207, -7487.713, -0.1284242, -0.26156607, -53013.742, -53013.742, 0.0007607955, 9.965305, 9.996901 
7.7294195e+2, 1.2685706e+2, -1664321.5, -1723316.0, 1554.403, 0.46568277, 0.013905819, -1664280.6, 32518.854, 0.09095763, 9.994296, 9.986069 
7.724757e+2, 1.3684307e+2, -1552179.4, -1619659.6, -4734.791, 0.40222248, 0.009480242, -1551848.8, 47087.92, 0.06282214, 9.995276, 9.9859705 
7.720073e+2, 1.4682905e+2, -1451111.5, -1518223.5, -13499.689, 0.38191396, 0.006229917, -1448497.8, 52575.746, 0.03690004, 9.995196, 9.986173 
7.7153814e+2, 1.5681502e+2, -1362661.1, -1432202.6, -12157.932, 0.38250488, -0.00594936, -1360596.8, 42613.645, 0.01763206, 9.994764, 9.985531 
7.710692e+2, 1.6679914e+2, -1279166.9, -1364546.8, -8065.721, 0.35612828, -0.02092898, -1278411.6, 26953.848, 0.006673461, 9.994747, 9.983514 
7.706007e+2, 1.7678249e+2, -1180793.4, -1271530.1, -9709.169, 0.3192914, -0.034094166, -1179766.1, 27762.352, 0.0020324262, 9.994975, 9.983066 
7.7013195e+2, 1.8676451e+2, -1088555.9, -1195912.0, -9483.181, 0.3003915, -0.035865046, -1087724.6, 21979.945, 0.00056073064, 9.995376, 9.98137 
7.6966345e+2, 1.9674578e+2, -985311.25, -1099833.3, -6877.4014, 0.28673217, -0.03830956, -984899.7, 26988.416, 0.00019287675, 9.995938, 9.980975 
7.691971e+2, 2.0672615e+2, -892392.56, -1017070.25, -382.11356, 0.26538503, -0.032610744, -892391.44, 21689.021, 0.000105354295, 9.996204, 9.9799595 
7.6873195e+2, 2.167063e+2, -797324.06, -925334.7, -5223.9272, 0.24861224, -0.015568023, -797111.2, 19163.672, 0.00007478487, 9.996214, 9.979635 
7.682682e+2, 2.266847e+2, -722245.8, -860488.4, 4.3482575, 0.22821502, -0.02950407, -722245.8, -3759.5625, 0.000058271056, 9.995572, 9.977774 
7.6780516e+2, 2.3666196e+2, -640818.3, -775053.75, 8077.585, 0.19602478, -0.07334227, -640334.0, -19625.52, 0.000050801, 9.994653, 9.977377 
7.6734614e+2, 2.4663873e+2, -560412.94, -699891.0, 26342.09, 0.16300322, -0.06158818, -555603.7, -32667.39, 0.00005248322, 9.99415, 9.976202 
7.668889e+2, 2.5661552e+2, -467596.44, -602756.56, 31680.445, 0.13969599, -0.006667012, -460539.28, -35374.49, 0.00006302116, 9.99373, 9.976388 
7.664352e+2, 2.6659247e+2, -407946.6, -515166.38, 47446.387, 0.12026473, 0.0024708805, -389966.13, -62575.56, 0.00008041981, 9.990816, 9.977197 
7.65983e+2, 2.7656937e+2, -369141.3, -439648.7, 52052.926, 0.09485828, -0.03336856, -341527.44, -111911.12, 0.00010028301, 9.986501, 9.977744 
7.65532e+2, 2.8654823e+2, -302204.2, -328663.84, 57131.496, 0.0809289, -0.06635853, -256790.72, -124967.62, 0.00011645324, 9.983201, 9.980213 
7.6508147e+2, 2.9652858e+2, -239939.45, -237451.28, 60546.74, 0.08098283, -0.06586146, -178135.86, -144120.36, 0.00012371832, 9.980327, 9.981125 
7.6463175e+2, 3.0651408e+2, -230246.27, -125776.266, 59929.813, 0.012701092, -0.022587229, -98512.35, -98512.35, 0.00012040881, 9.974339, 9.988358 
7.6418173e+2, 3.1650436e+2, -229722.6, 34642.13, -4020.6348, 0.014885635, 0.11270475, 34703.26, 34703.26, 0.000108745495, 9.967357, 10.002256 
7.8293633e+2, 1.2732367e+2, -1647318.8, -1712743.8, -2199.3604, 0.43782997, 0.07344678, -1647244.9, 44984.44, 0.062321946, 9.995395, 9.986319 
7.8247076e+2, 1.37309e+2, -1551834.3, -1618603.9, -2324.8484, 0.3921342, -0.014941594, -1551753.4, 42619.246, 0.042461134, 9.9952, 9.986043 
7.820024e+2, 1.4729506e+2, -1452113.5, -1518408.6, -14600.55, 0.38624987, -0.015413693, -1449040.4, 47468.38, 0.024464365, 9.995047, 9.986218 
7.815331e+2, 1.5728159e+2, -1357548.8, -1429405.6, -17921.553, 0.40038785, 0.018256081, -1353327.0, 45313.35, 0.011362938, 9.995084, 9.985616 
7.8106415e+2, 1.672657e+2, -1273601.3, -1363427.1, -13071.6455, 0.36555865, 0.003608466, -1271737.6, 29057.793, 0.004107514, 9.9952135, 9.983436 
7.805956e+2, 1.7724873e+2, -1175501.8, -1270124.8, -13828.068, 0.30943996, -0.03228361, -1173522.4, 29439.115, 0.001142861, 9.995406, 9.983015 
7.801275e+2, 1.8723106e+2, -1082815.9, -1191486.5, -12305.516, 0.30708906, -0.011514337, -1081439.9, 23694.54, 0.0002518874, 9.995729, 9.981567 
7.7965987e+2, 1.9721295e+2, -983805.25, -1101232.1, -9844.148, 0.32557875, 0.030124875, -982985.75, 24326.232, 0.000050957846, 9.996165, 9.980836 
7.791933e+2, 2.0719196e+2, -903526.25, -1040678.8, -2305.7188, 0.2692184, -0.0018314999, -903487.5, 6030.065, 0.000014560252, 9.9962435, 9.978351 
7.787275e+2, 2.171697e+2, -807774.75, -943871.6, -4005.568, 0.18461062, -0.06272356, -807656.94, 4078.2966, 0.000007675719, 9.996087, 9.978397 
7.7826357e+2, 2.271484e+2, -716195.56, -850037.9, -1560.548, 0.20093895, -0.033741925, -716177.4, -2233.1792, 0.0000055004994, 9.995651, 9.97839 
7.778005e+2, 2.3712732e+2, -630896.06, -763762.25, 5483.6055, 0.2551742, 0.025809191, -630670.2, -14519.214, 0.000004660397, 9.995056, 9.977919 
7.773407e+2, 2.4710402e+2, -556364.6, -696289.0, 24548.979, 0.20078598, 0.003538837, -552182.6, -33803.707, 0.0000047683106, 9.994405, 9.976283 
7.768823e+2, 2.5707984e+2, -468111.1, -600118.9, 27665.49, 0.102555595, -0.046702947, -462547.6, -41932.01, 0.0000057169227, 9.993596, 9.976564 
7.764258e+2, 2.670572e+2, -405843.63, -507707.34, 31172.764, 0.10769503, -0.030595046, -397061.2, -74223.99, 0.000007344358, 9.990603, 9.977646 
7.7597e+2, 2.770352e+2, -364394.44, -430897.06, 37194.465, 0.1549229, 0.00066708133, -347755.1, -122702.43, 0.000009336093, 9.986489, 9.978194 
7.7551556e+2, 2.8701437e+2, -298861.8, -322177.2, 46846.99, 0.10907834, -0.03925856, -262243.8, -134987.17, 0.000011195764, 9.983248, 9.980489 
7.750612e+2, 2.969945e+2, -241455.25, -241124.1, 47242.316, 0.02258165, -0.08260357, -194047.06, -164596.19, 0.000012370588, 9.980341, 9.980705 
7.7460665e+2, 3.0697834e+2, -252889.02, -174616.97, 29522.23, 0.056922257, 0.019940753, -164730.64, -164730.64, 0.0000125104125, 9.974249, 9.984799 
7.741497e+2, 3.1696475e+2, -239495.22, 9694.04, -5313.193, 0.05104832, 0.092992716, 9807.276, 9807.276, 0.000011668627, 9.967609, 10.0004635 
7.929327e+2, 1.2778868e+2, -1612045.9, -1673666.0, 978.4727, 0.44747382, 0.019447988, -1612030.4, 75642.734, 0.04048696, 9.996736, 9.988315 
7.9246664e+2, 1.3777639e+2, -1530507.0, -1595837.0, 2497.9592, 0.40732306, -0.016413884, -1530411.6, 59380.965, 0.027255554, 9.995991, 9.987134 
7.9199785e+2, 1.4776208e+2, -1450880.8, -1533044.3, -7327.52, 0.39443892, -0.009216471, -1450232.4, 41700.44, 0.015450946, 9.995661, 9.984891 
7.9152864e+2, 1.5774722e+2, -1352594.8, -1438014.8, -12611.458, 0.3971712, 0.014364152, -1350771.8, 43306.85, 0.007020416, 9.995789, 9.984683 
7.910598e+2, 1.6773126e+2, -1261543.6, -1356639.0, -7993.5034, 0.36557236, 0.017597744, -1260876.4, 35358.62, 0.002461426, 9.995888, 9.983576 
7.905915e+2, 1.7771469e+2, -1164912.1, -1263994.3, -8337.393, 0.31906235, 0.009374753, -1164215.5, 34181.81, 0.0006538327, 9.995974, 9.983159 
7.901235e+2, 1.8769698e+2, -1074672.3, -1186818.4, -5861.7944, 0.30883926, 0.009962311, -1074366.8, 26203.813, 0.00013177797, 9.996138, 9.981699 
7.8965604e+2, 1.9767866e+2, -977675.3, -1096569.8, -3826.1682, 0.3137507, 0.016662639, -977552.3, 25197.39, 0.000020829584, 9.996381, 9.981061 
7.8918946e+2, 2.0765825e+2, -900495.3, -1033660.0, 5763.2773, 0.2669274, 0.0042630974, -900246.3, 4703.196, 0.0000030621695, 9.996055, 9.978862 
7.887234e+2, 2.1763681e+2, -812322.6, -942865.56, 11160.187, 0.19967979, -0.0199303, -811375.4, -4215.6206, 0.00000074182736, 9.995474, 9.978627 
7.882591e+2, 2.2761528e+2, -721462.44, -856602.44, 14620.294, 0.20332243, 0.0045853616, -719898.8, -10527.86, 0.00000040007126, 9.995324, 9.977961 
7.877956e+2, 2.3759368e+2, -626106.44, -762765.7, 17760.916, 0.2373437, 0.048539326, -623835.9, -12252.971, 0.000000318536, 9.99529, 9.97777 
7.8733486e+2, 2.4757056e+2, -557755.3, -690190.2, 32260.896, 0.19482207, 0.01609043, -550314.7, -36505.793, 0.00000032076503, 9.993835, 9.976823 
7.86875e+2, 2.5754675e+2, -489976.22, -604328.2, 36386.156, 0.118959025, -0.046383888, -479380.2, -63339.066, 0.00000038287877, 9.991629, 9.977048 
7.864159e+2, 2.6752454e+2, -417087.13, -509472.75, 35431.1, 0.11700242, -0.023240633, -405063.63, -86804.42, 0.0000004948514, 9.989481, 9.9778385 
7.859569e+2, 2.7750292e+2, -347181.47, -419243.94, 40262.11, 0.15124404, 0.024657106, -329182.28, -108710.68, 0.0000006434695, 9.987341, 9.978362 
7.854992e+2, 2.874822e+2, -280538.6, -313152.25, 45385.137, 0.097527534, -0.0035616602, -248619.69, -125945.42, 0.0000008021417, 9.984338, 9.980369 
7.850415e+2, 2.974622e+2, -237565.31, -243862.27, 41548.855, 0.002074841, -0.04234131, -199045.81, -174176.4, 0.0000009278537, 9.980644, 9.980173 
7.845829e+2, 3.0744419e+2, -216172.13, -178136.58, 24856.932, 0.11997953, 0.017421206, -165856.7, -165856.7, 0.0000009795199, 9.97737, 9.982755 
7.8411865e+2, 3.1742576e+2, -160227.66, 22527.506, 15358.455, -0.10961152, -0.18446404, 23809.217, 23809.217, 0.00000094697555, 9.973913, 9.998043 
8.029297e+2, 1.2825577e+2, -1598663.4, -1658354.0, 3017.3862, 0.46787754, 0.0012218441, -1598511.3, 84585.62, 0.024554512, 9.997162, 9.989041 
8.024625e+2, 1.3824469e+2, -1528204.3, -1591289.4, -5287.3555, 0.41430458, 0.011593152, -1527764.3, 57440.05, 0.016354568, 9.995938, 9.987493 
8.019936e+2, 1.4822999e+2, -1449336.5, -1541093.8, -8342.937, 0.39260298, 0.014629356, -1448584.1, 38764.664, 0.009139995, 9.996162, 9.98413 
8.0152464e+2, 1.5821412e+2, -1340380.8, -1437981.4, -8552.43, 0.38581872, 0.016825976, -1339637.0, 49867.66, 0.004075192, 9.996897, 9.9841 
8.010558e+2, 1.6819818e+2, -1252142.9, -1350209.8, -4016.4382, 0.36379972, 0.035278898, -1251978.6, 39682.6, 0.0013936982, 9.99645, 9.983676 
8.005876e+2, 1.7818198e+2, -1165960.1, -1262726.9, -4438.466, 0.33270434, 0.05312461, -1165757.0, 28063.152, 0.00035817598, 9.995835, 9.983257 
8.0011964e+2, 1.8816409e+2, -1075786.9, -1185957.3, -1409.5808, 0.3078653, 0.027869977, -1075768.9, 20226.014, 0.00006886884, 9.996029, 9.9817705 
7.996522e+2, 1.9814545e+2, -974826.06, -1091201.4, -899.24445, 0.2884425, -0.006625801, -974819.1, 23357.498, 0.000009974428, 9.996421, 9.981372 
7.991855e+2, 2.0812611e+2, -891183.44, -1017848.75, 4920.7046, 0.26454103, 0.013505049, -890992.56, 9373.741, 0.0000011234129, 9.996195, 9.979832 
7.987192e+2, 2.1810614e+2, -804483.75, -932691.5, 9806.901, 0.23497018, 0.0455498, -803737.94, -1175.513, 0.00000011944039, 9.995741, 9.979171 
7.982545e+2, 2.2808419e+2, -722583.1, -863610.75, 14763.968, 0.20881829, 0.047795802, -721054.1, -16276.46, 0.00000002597435, 9.995566, 9.977344 
7.977904e+2, 2.380615e+2, -626686.0, -765093.0, 16979.863, 0.18788613, 0.04045234, -624633.4, -17633.285, 0.000000016056735, 9.995362, 9.9775305 
7.973284e+2, 2.4803881e+2, -553144.2, -678849.44, 25080.574, 0.17693463, 0.012409424, -548324.9, -39103.203, 0.000000015596067, 9.993721, 9.977554 
7.96867e+2, 2.5801602e+2, -487077.7, -595641.7, 29127.576, 0.16241963, -0.021544816, -479756.53, -68312.266, 0.000000018652306, 9.991489, 9.97761 
7.9640543e+2, 2.6799405e+2, -416395.9, -507732.22, 27779.283, 0.12939888, 0.0056557627, -408610.63, -94950.6, 0.000000025281043, 9.98947, 9.977857 
7.959437e+2, 2.7797237e+2, -346635.2, -418737.06, 31778.469, 0.09721602, 0.045261163, -334628.44, -118754.88, 0.0000000374065, 9.987367, 9.978275 
7.954832e+2, 2.879516e+2, -284003.66, -319367.28, 31841.443, 0.05815435, 0.047042582, -265264.0, -147187.28, 0.000000058144145, 9.984249, 9.979841 
7.9502225e+2, 2.9793146e+2, -239509.72, -248838.45, 28008.133, 0.012290456, 0.048244674, -215780.22, -195507.2, 0.00000008882991, 9.980642, 9.979692 
7.945611e+2, 3.0791134e+2, -214220.2, -179472.94, 13859.45, 0.18502349, -0.063641466, -174622.1, -174622.1, 0.00000012603861, 9.977611, 9.982412 
7.9409313e+2, 3.1789368e+2, -178967.88, -23075.436, -12761.767, -0.083065964, -0.1179217, -22037.633, -22037.633, 0.0000001634395, 9.973948, 9.9946785 
8.129278e+2, 1.287258e+2, -1596289.4, -1675727.0, 6515.9053, 0.5090423, 0.062754914, -1595758.4, 82734.93, 0.013656359, 9.997911, 9.987342 
8.1245863e+2, 1.3871324e+2, -1526579.5, -1599940.3, -1309.3176, 0.40224907, 0.08045045, -1526556.1, 54060.125, 0.00901513, 9.996293, 9.986666 
8.119899e+2, 1.486987e+2, -1432823.9, -1521736.3, 4750.344, 0.3697121, 0.06246779, -1432570.9, 50187.63, 0.0049783196, 9.996726, 9.9851465 
8.115219e+2, 1.5868355e+2, -1322384.0, -1420820.4, 4340.7856, 0.36463827, 0.038881358, -1322193.0, 62713.84, 0.0021846793, 9.997644, 9.98482 
8.1105256e+2, 1.6866791e+2, -1243933.0, -1344001.1, 5238.4897, 0.36486155, 0.053006444, -1243659.5, 43400.5, 0.0007317571, 9.996726, 9.983839 
8.105835e+2, 1.7865187e+2, -1166135.0, -1261311.4, 7792.4717, 0.3574184, 0.072386846, -1165501.3, 23715.928, 0.00018305305, 9.995597, 9.983351 
8.101155e+2, 1.88634e+2, -1077504.5, -1186484.0, 15366.844, 0.30870777, 0.047291316, -1075379.1, 16012.748, 0.00003398985, 9.995788, 9.981751 
8.096483e+2, 1.9861537e+2, -974208.56, -1088941.6, 15143.373, 0.2572885, 0.013174655, -972243.44, 21330.213, 0.0000046947775, 9.996248, 9.981501 
8.091816e+2, 2.0859633e+2, -887372.7, -1010996.06, 18016.777, 0.25308922, 0.03201566, -884800.44, 10959.811, 0.00000048595786, 9.996082, 9.98024 
8.087153e+2, 2.1857671e+2, -800048.44, -927774.5, 22000.344, 0.2550918, 0.06262007, -796365.2, 1587.3894, 0.00000003883108, 9.9957695, 9.979399 
8.082501e+2, 2.2855467e+2, -722854.75, -864311.4, 27670.416, 0.21431157, 0.05352297, -717634.75, -17466.049, 0.0000000030365013, 9.995424, 9.977252 
8.0778533e+2, 2.3853181e+2, -629298.06, -763055.7, 29903.742, 0.16774961, 0.033941425, -622917.0, -20524.305, 0.0000000006969869, 9.994868, 9.977757 
8.0732167e+2, 2.4850994e+2, -555245.3, -670825.3, 33150.758, 0.16802686, 0.030523356, -546412.06, -41805.37, 0.0000000007922744, 9.992976, 9.978252 
8.0685824e+2, 2.5848812e+2, -491729.28, -591927.06, 38719.32, 0.17595963, 0.03087797, -478510.84, -71690.65, 0.0000000023447873, 9.990726, 9.978027 
8.0639493e+2, 2.6846614e+2, -414236.38, -507252.63, 38338.055, 0.130368, 0.053030696, -400471.7, -91435.83, 0.00000001056723, 9.989487, 9.977689 
8.059313e+2, 2.7844414e+2, -329868.28, -409438.25, 39394.477, 0.07612721, 0.07273241, -313664.25, -102412.05, 0.000000042231346, 9.988287, 9.978267 
8.0546784e+2, 2.8842306e+2, -266731.34, -309836.72, 36178.176, 0.059366986, 0.04442545, -246172.53, -132714.22, 0.00000012962238, 9.98514, 9.979778 
8.050036e+2, 2.9840273e+2, -225771.14, -243074.56, 37756.027, 0.046318915, 0.035729732, -195688.23, -180031.11, 0.0000003035595, 9.981405, 9.979401 
8.0453944e+2, 3.083831e+2, -189889.11, -171835.36, 26734.105, 0.17751664, 0.022022016, -152645.28, -152645.28, 0.0000005618355, 9.979291, 9.981824 
8.040685e+2, 3.1836694e+2, -130504.06, -13420.198, -9628.559, -0.098650284, 0.18415618, -12633.663, -12633.663, 0.0000008642486, 9.977506, 9.993241 
8.2292587e+2, 1.2919633e+2, -1592503.8, -1686561.6, -2799.4548, 0.5080675, 0.10260394, -1592420.5, 81464.25, 0.006829297, 9.998651, 9.98623 
8.224552e+2, 1.3918285e+2, -1510484.9, -1595492.9, -3317.0752, 0.39704496, 0.12720285, -1510355.6, 65661.875, 0.0044781193, 9.997525, 9.986311 
8.2198656e+2, 1.4916885e+2, -1422831.9, -1503984.3, 9174.042, 0.35993478, 0.10118617, -1421807.8, 56346.043, 0.0024504783, 9.996889, 9.986253 
8.215191e+2, 1.5915462e+2, -1332421.4, -1417052.6, 5310.105, 0.35318807, 0.06567232, -1332089.5, 48202.973, 0.0010623109, 9.996594, 9.985554 
8.2104915e+2, 1.6913925e+2, -1247244.0, -1343443.9, 2260.554, 0.36629155, 0.07135741, -1247190.9, 35252.086, 0.00035011073, 9.996376, 9.984014 
8.205794e+2, 1.7912331e+2, -1155143.0, -1254249.5, 6319.7407, 0.37274113, 0.0845088, -1154741.6, 29857.412, 0.00008574844, 9.996269, 9.983494 
8.2011145e+2, 1.8910564e+2, -1067302.3, -1180131.9, 17348.928, 0.3065721, 0.06954965, -1064695.0, 22076.762, 0.000015493128, 9.996455, 9.981864 
8.1964433e+2, 1.9908728e+2, -967907.5, -1083774.5, 16259.788, 0.23288251, 0.04706538, -965669.0, 23282.47, 0.0000020664195, 9.996607, 9.981668 
8.1917757e+2, 2.0906834e+2, -883961.0, -1006273.5, 15975.798, 0.24396418, 0.05392348, -881908.75, 9227.937, 0.00000020419225, 9.996186, 9.980499 
8.1871116e+2, 2.190488e+2, -799761.25, -925300.1, 19385.426, 0.2669697, 0.066328846, -796835.94, -3507.9685, 0.000000015030654, 9.9957, 9.979603 
8.1824553e+2, 2.2902688e+2, -723403.3, -861770.8, 26342.494, 0.21795993, 0.05030747, -718557.94, -23015.303, 0.0000000008413565, 9.995281, 9.97746 
8.177801e+2, 2.3900428e+2, -628525.5, -756816.7, 28060.223, 0.15805131, 0.030921934, -622656.56, -24892.463, 0.0000000001313571, 9.99466, 9.9782095 
8.173145e+2, 2.4898337e+2, -549750.4, -660131.25, 24867.916, 0.16081193, 0.06000398, -544406.56, -44437.047, 0.0000000012207032, 9.992959, 9.978897 
8.168489e+2, 2.5896248e+2, -485801.25, -584866.94, 31268.309, 0.17118618, 0.09696522, -476757.56, -74583.19, 0.000000009745165, 9.990941, 9.978344 
8.163844e+2, 2.6894036e+2, -415444.75, -509845.16, 33833.508, 0.12592535, 0.10964416, -404571.16, -100180.02, 0.000000056615875, 9.989529, 9.977426 
8.1591964e+2, 2.7891788e+2, -331189.72, -407387.72, 32131.732, 0.07699225, 0.099598326, -319449.16, -112837.836, 0.00000023978018, 9.988077, 9.978412 
8.1545323e+2, 2.8889638e+2, -263620.8, -301752.78, 21447.178, 0.09338824, -0.014098487, -253990.22, -145168.31, 0.00000074770037, 9.984995, 9.980259 
8.149855e+2, 2.98876e+2, -224186.36, -240172.7, 26572.51, 0.09850829, -0.068652906, -204430.86, -193409.05, 0.0000017604058, 9.981384, 9.979492 
8.145177e+2, 3.0886048e+2, -191670.19, -178716.17, 20572.994, 0.06475958, 0.3684507, -163624.69, -163624.69, 0.0000032669245, 9.979461, 9.981171 
8.140465e+2, 3.1884006e+2, -99841.17, 38507.074, -7732.447, -0.094297245, 0.097048976, 38937.91, 38937.91, 0.0000050341396, 9.978115, 9.99644 
8.3292407e+2, 1.2966676e+2, -1585491.1, -1681880.4, 2606.6736, 0.43032974, 0.08382947, -1585420.6, 83855.6, 0.0030089617, 9.998923, 9.986319 
8.324534e+2, 1.3965362e+2, -1498372.4, -1582701.9, 3339.4448, 0.4214529, 0.124706514, -1498240.4, 73165.2, 0.0019641386, 9.9979, 9.986879 
8.3198375e+2, 1.4964087e+2, -1414555.1, -1487391.3, 17660.115, 0.3913335, 0.12459226, -1410499.1, 63031.09, 0.0010681495, 9.996745, 9.987345 
8.315153e+2, 1.5962781e+2, -1337433.9, -1413239.4, 15367.347, 0.37144762, 0.112100765, -1334437.1, 41220.457, 0.00045917454, 9.995838, 9.986082 
8.310452e+2, 1.6961227e+2, -1250516.0, -1345315.0, 15796.193, 0.3555438, 0.09294984, -1247953.1, 29856.307, 0.00014963388, 9.996058, 9.983971 
8.305757e+2, 1.7959608e+2, -1147081.1, -1248417.1, 19452.03, 0.3375263, 0.080583684, -1143475.5, 36492.598, 0.00003610315, 9.996618, 9.983653 
8.301082e+2, 1.8957917e+2, -1058120.5, -1170849.0, 30195.717, 0.30919856, 0.105346866, -1050541.8, 31592.26, 0.0000063962675, 9.996734, 9.982282 
8.2964146e+2, 1.9956154e+2, -965225.6, -1081971.8, 28373.855, 0.2772309, 0.12556879, -958694.94, 25612.004, 0.00000083170164, 9.996607, 9.981695 
8.2917374e+2, 2.0954204e+2, -888438.44, -1013167.7, 25194.893, 0.25915334, 0.10560013, -883541.44, 2956.2185, 0.000000079560614, 9.995908, 9.980077 
8.287064e+2, 2.1952194e+2, -800870.4, -919911.06, 28119.428, 0.24667633, 0.08381794, -794562.4, -5868.29, 0.0000000056200697, 9.995201, 9.980144 
8.2824045e+2, 2.2950155e+2, -718197.75, -839879.2, 38683.645, 0.21795064, 0.080368705, -706941.25, -16047.674, 0.00000000032575911, 9.99464, 9.979135 
8.277746e+2, 2.394805e+2, -632107.6, -751983.3, 43863.098, 0.18397681, 0.0781183, -617772.2, -24672.791, 0.00000000048077403, 9.993961, 9.978691 
8.2730764e+2, 2.4945877e+2, -551177.2, -671637.56, 33752.156, 0.16132803, 0.08646131, -542364.75, -47051.96, 0.000000005239319, 9.993149, 9.977877 
8.268403e+2, 2.5943696e+2, -465448.94, -574639.1, 33191.97, 0.14427078, 0.10280517, -456150.9, -58623.934, 0.000000041851326, 9.992127, 9.978395 
8.2637393e+2, 2.694157e+2, -403255.88, -491582.2, 37338.332, 0.12219545, 0.12271819, -389587.06, -89852.31, 0.0000002430437, 9.9896345, 9.978461 
8.2590723e+2, 2.7939412e+2, -341719.75, -406292.63, 42401.242, 0.10226819, 0.11710387, -320711.9, -118766.24, 0.0000010289219, 9.986901, 9.978831 
8.254388e+2, 2.893722e+2, -249281.33, -299232.3, 27587.258, 0.106366746, -0.021327417, -237043.5, -132882.77, 0.000003206874, 9.985979, 9.979779 
8.2496864e+2, 2.993513e+2, -171327.97, -219283.33, 24822.549, 0.09211457, -0.08094694, -160793.52, -154427.77, 0.0000075463436, 9.984992, 9.979073 
8.2449716e+2, 3.0933708e+2, -173301.64, -175517.19, 15531.815, 0.005390137, 0.5296805, -158838.16, -158838.16, 0.000014001417, 9.980719, 9.980665 
8.2402533e+2, 3.1931207e+2, -95740.98, 67895.67, 407.91623, 0.013205911, -0.22390316, 67896.69, 67896.69, 0.000021580927, 9.977173, 9.9988985 
8.429227e+2, 1.3013937e+2, -1577790.0, -1672667.0, 4326.6187, 0.39381167, 0.10051304, -1577593.1, 87053.71, 0.0011421927, 9.999205, 9.986698 
8.424515e+2, 1.4012647e+2, -1489711.5, -1572456.8, 4803.4043, 0.4372928, 0.12541738, -1489433.6, 77339.85, 0.0007435361, 9.998207, 9.987298 
8.4198064e+2, 1.5011431e+2, -1409779.3, -1479235.1, 13656.746, 0.41298652, 0.1411227, -1407190.5, 61701.79, 0.00040280866, 9.996783, 9.987845 
8.4151125e+2, 1.6010194e+2, -1335910.3, -1408843.9, 8918.458, 0.38662967, 0.14729382, -1334835.5, 36177.793, 0.00017225166, 9.995787, 9.986455 
8.410413e+2, 1.7008656e+2, -1241555.3, -1338482.8, 15582.994, 0.3435557, 0.11606703, -1239111.6, 34052.27, 0.00005573453, 9.996608, 9.984222 
8.405722e+2, 1.8007046e+2, -1132644.4, -1237893.3, 19989.379, 0.3027929, 0.08976205, -1128975.8, 46345.78, 0.000013319515, 9.9974785, 9.983963 
8.4010506e+2, 1.9005428e+2, -1053414.1, -1163360.4, 28457.93, 0.3140835, 0.1440837, -1046484.94, 30995.863, 0.00000232996, 9.996831, 9.982745 
8.396384e+2, 2.0003735e+2, -972037.6, -1084241.8, 25816.488, 0.32377118, 0.19679646, -966382.7, 13264.672, 0.00000029792903, 9.996089, 9.981787 
8.391698e+2, 2.100174e+2, -891125.6, -1017616.4, 25747.285, 0.2717817, 0.1537621, -886085.56, -4243.3364, 0.000000027884644, 9.99585, 9.979739 
8.3870137e+2, 2.1999693e+2, -789503.1, -905159.75, 31989.602, 0.21869643, 0.1046394, -781244.75, 2797.2944, 0.0000000019195052, 9.995578, 9.980873 
8.3823514e+2, 2.2997835e+2, -700764.94, -809265.06, 37213.32, 0.21988998, 0.12230202, -689228.25, -3004.8225, 0.00000000019751621, 9.994879, 9.981058 
8.377689e+2, 2.3995906e+2, -629170.3, -747478.5, 38525.887, 0.21880512, 0.14088535, -617730.8, -29319.018, 0.0000000015260163, 9.994037, 9.978958 
8.373008e+2, 2.4993578e+2, -561225.6, -694258.0, 30847.229, 0.16011974, 0.10590215, -554420.9, -63780.84, 0.000000016765284, 9.993239, 9.976235 
8.36832e+2, 2.5991225e+2, -463452.56, -571732.5, 29944.674, 0.104697116, 0.07531484, -455723.16, -62852.496, 0.00000013388681, 9.992161, 9.978472 
8.3636355e+2, 2.6989254e+2, -389801.78, -464456.53, 27012.527, 0.12190558, 0.11286215, -381053.03, -85989.71, 0.0000007772567, 9.989596, 9.980216 
8.358945e+2, 2.7987272e+2, -337426.28, -398942.88, 34957.04, 0.14067428, 0.13408451, -321622.06, -124364.695, 0.0000032894218, 9.986961, 9.979233 
8.354247e+2, 2.898502e+2, -257222.81, -317296.4, 24715.396, 0.092572115, 0.024088208, -248361.55, -148883.69, 0.000010249668, 9.986112, 9.978431 
8.34953e+2, 2.9982823e+2, -177067.61, -231815.97, 14421.812, 0.027474694, -0.016684335, -173500.97, -171807.39, 0.000024110983, 9.98498, 9.978125 
8.344781e+2, 3.0981144e+2, -177601.28, -181690.14, -4963.907, 0.03524602, 0.39667767, -174277.28, -174277.28, 0.000044716184, 9.9804535, 9.9802065 
8.340025e+2, 3.1978878e+2, -97440.42, 67079.26, 6062.746, 0.024281913, -0.112561315, 67302.375, 67302.375, 0.00006893188, 9.977218, 9.9988365 
8.529222e+2, 1.3061513e+2, -1573362.1, -1657147.9, 12346.273, 0.43166992, 0.1876833, -1571580.8, 88406.21, 0.00036341642, 9.998813, 9.987823 
8.524494e+2, 1.4060217e+2, -1493974.3, -1575913.4, 11639.909, 0.4160651, 0.13131957, -1492352.9, 69760.24, 0.00023620963, 9.997829, 9.987106 
8.5197717e+2, 1.5058878e+2, -1423369.3, -1500385.1, 18565.477, 0.40181765, 0.12868401, -1419127.5, 45116.688, 0.00012768328, 9.996317, 9.986533 
8.5150695e+2, 1.6057545e+2, -1340091.0, -1410956.9, 17163.02, 0.3921092, 0.13591534, -1336153.1, 30221.72, 0.000054433065, 9.995397, 9.986464 
8.510381e+2, 1.705615e+2, -1231709.9, -1320498.8, 30483.658, 0.34883097, 0.15643492, -1222251.6, 46260.223, 0.00001753889, 9.9966545, 9.98541 
8.5056996e+2, 1.805468e+2, -1122870.8, -1225756.5, 30487.945, 0.30404267, 0.16686521, -1114515.0, 56141.15, 0.000004167791, 9.997694, 9.984614 
8.5010153e+2, 1.9053029e+2, -1055438.1, -1161134.6, 34060.125, 0.30078357, 0.15305318, -1045413.25, 27404.488, 0.00000072355056, 9.996357, 9.983027 
8.496337e+2, 2.0051324e+2, -976036.56, -1073196.8, 35832.883, 0.30063558, 0.14544132, -964250.94, 10733.498, 0.00000009158835, 9.995097, 9.982934 
8.491654e+2, 2.1049543e+2, -880837.56, -991261.4, 44795.402, 0.26502883, 0.14298026, -864951.06, 12207.765, 0.000000008458323, 9.995505, 9.9815645 
8.486973e+2, 2.2047675e+2, -779684.06, -896573.56, 53869.94, 0.2263464, 0.1365371, -758644.44, 20696.967, 0.0000000005826384, 9.995932, 9.981078 
8.482302e+2, 2.3045722e+2, -701946.06, -821684.56, 48155.496, 0.21516588, 0.14210933, -684982.5, -3449.9158, 0.00000000027701247, 9.995124, 9.979959 
8.477629e+2, 2.4043712e+2, -621899.94, -739734.0, 42941.535, 0.20505534, 0.1459152, -607911.6, -24182.375, 0.0000000037648156, 9.994178, 9.979387 
8.472943e+2, 2.5041518e+2, -540604.3, -666862.7, 45709.33, 0.16036747, 0.11421803, -525793.56, -39849.37, 0.00000004137552, 9.993739, 9.977699 
8.468247e+2, 2.603928e+2, -445158.84, -558398.5, 52140.742, 0.11546866, 0.09078788, -424808.16, -36644.92, 0.00000033035957, 9.993017, 9.978652 
8.4635377e+2, 2.7037266e+2, -372578.66, -464939.72, 35201.008, 0.11921955, 0.14961642, -360692.4, -70331.75, 0.000001917329, 9.990912, 9.979322 
8.4588224e+2, 2.803522e+2, -311544.94, -391096.6, 34817.242, 0.1307001, 0.18165272, -298459.1, -105898.43, 0.00000811236, 9.988721, 9.978868 
8.4541124e+2, 2.903292e+2, -243863.5, -315123.66, 29938.41, 0.09069221, 0.045945387, -232955.31, -138169.05, 0.000025276431, 9.987024, 9.978054 
8.4493804e+2, 3.0030686e+2, -169338.08, -226150.47, 21896.15, 0.026823971, 0.0006306327, -161878.5, -161878.5, 0.000059457765, 9.985184, 9.97822 
8.4446025e+2, 3.1029016e+2, -123064.69, -148677.56, 5477.143, 0.057520453, 0.37960744, -121942.6, -121942.6, 0.00011023596, 9.983604, 9.980625 
8.439813e+2, 3.2026935e+2, -62006.04, 46154.043, 23174.67, -0.0029990587, 0.09034792, 50910.35, 50910.35, 0.0001699231, 9.981091, 9.995314 
8.629208e+2, 1.3109134e+2, -1579696.6, -1650241.3, 7350.229, 0.4596615, 0.2240128, -1578938.9, 76383.305, 0.00009383463, 9.997967, 9.98871 
8.6244696e+2, 1.410788e+2, -1494752.9, -1575925.6, 3242.6375, 0.40022737, 0.14545439, -1494623.5, 62820.348, 0.00006094004, 9.997751, 9.987156 
8.619737e+2, 1.5106484e+2, -1409970.6, -1500725.9, 18060.896, 0.38959676, 0.13188297, -1406508.5, 53072.11, 0.00003290037, 9.997501, 9.985868 
8.615029e+2, 1.61051e+2, -1311713.5, -1394400.3, 25858.795, 0.3897704, 0.1371193, -1304292.6, 57423.69, 0.000014001087, 9.997235, 9.986586 
8.610348e+2, 1.7103814e+2, -1226718.0, -1307379.8, 38399.242, 0.3520647, 0.19442002, -1211361.5, 52481.68, 0.0000045003767, 9.996587, 9.9862995 
8.605673e+2, 1.8102454e+2, -1140542.6, -1226293.6, 30237.258, 0.30903238, 0.23022941, -1130952.9, 35024.008, 0.0000010659371, 9.996131, 9.985307 
8.600976e+2, 1.9100794e+2, -1057551.0, -1155608.0, 33713.63, 0.28745997, 0.15235068, -1047078.2, 21060.16, 0.00000018424288, 9.995878, 9.983549 
8.5962856e+2, 2.0099106e+2, -957923.2, -1048760.0, 40818.965, 0.27073058, 0.087703995, -942275.9, 28026.703, 0.000000023185766, 9.995659, 9.984247 
8.591609e+2, 2.1097554e+2, -861548.06, -958902.94, 46019.086, 0.2571348, 0.13088624, -843238.56, 29216.041, 0.0000000021246724, 9.995873, 9.983607 
8.5869336e+2, 2.209588e+2, -780128.56, -897532.3, 48085.73, 0.23894033, 0.17096585, -762948.0, 11670.641, 0.00000000016612564, 9.99594, 9.981055 
8.5822517e+2, 2.3093773e+2, -713486.06, -846062.7, 45303.875, 0.20462584, 0.1525311, -699483.75, -22658.293, 0.0000000005117208, 9.995121, 9.978248 
8.577568e+2, 2.4091637e+2, -614540.7, -725886.44, 46113.83, 0.17446837, 0.13100281, -597922.8, -18887.88, 0.000000007636883, 9.994241, 9.9802065 
8.5728806e+2, 2.50897e+2, -522218.4, -626441.6, 45370.367, 0.16489944, 0.12279547, -505235.22, -24010.695, 0.000000083933806, 9.993661, 9.98044 
8.56818e+2, 2.6087692e+2, -448532.03, -560385.9, 45093.734, 0.14793326, 0.13167927, -432617.0, -49196.13, 0.0000006701713, 9.9927845, 9.978586 
8.563445e+2, 2.7085513e+2, -389834.88, -499795.22, 26239.848, 0.10783108, 0.21445726, -383894.22, -98259.22, 0.000003889244, 9.990825, 9.976898 
8.5587054e+2, 2.808327e+2, -315229.6, -400439.8, 29104.162, 0.08554299, 0.2456614, -306237.72, -118382.64, 0.000016458524, 9.988778, 9.978114 
8.553984e+2, 2.9080915e+2, -240822.27, -308808.44, 23601.078, 0.10651526, 0.039124556, -233432.5, -143346.81, 0.000051312716, 9.987017, 9.978403 
8.5492384e+2, 3.007873e+2, -160159.22, -207357.38, 15379.3955, 0.085314944, -0.02081564, -155590.19, -155590.19, 0.00012079808, 9.985182, 9.979431 
8.544439e+2, 3.10774e+2, -109022.36, -122985.34, 632.4676, 0.052694, 0.5379596, -108993.77, -108993.77, 0.00022408634, 9.983765, 9.982227 
8.539626e+2, 3.2074952e+2, -129889.17, -94614.195, -6815.5977, 0.009900871, 0.032527827, -93343.13, -93343.13, 0.00034551264, 9.980868, 9.985539 
8.729183e+2, 1.3156705e+2, -1594585.6, -1656607.3, 15082.529, 0.47153577, 0.16974813, -1591112.4, 59549.066, 0.000019043677, 9.996866, 9.988753 
8.7244445e+2, 1.4155583e+2, -1497432.5, -1565495.0, 10437.365, 0.4086563, 0.19053581, -1495868.0, 56903.29, 0.000012362725, 9.996995, 9.988177 
8.7197125e+2, 1.5154351e+2, -1398339.8, -1476648.0, 30387.164, 0.3768858, 0.18953772, -1387931.6, 66960.32, 0.0000066696857, 9.997433, 9.987466 
8.715004e+2, 1.6153076e+2, -1303510.4, -1387038.9, 35947.406, 0.36389425, 0.18660241, -1290170.5, 66846.62, 0.000002835376, 9.99752, 9.986803 
8.7103075e+2, 1.7151695e+2, -1240187.3, -1318701.3, 44113.207, 0.3419158, 0.18924864, -1220392.6, 38760.05, 0.0000009100635, 9.995701, 9.985823 
8.705622e+2, 1.8150309e+2, -1157078.8, -1221006.0, 40043.113, 0.31663167, 0.19341655, -1137806.4, 23482.314, 0.00000021513608, 9.9943075, 9.986463 
8.7009317e+2, 1.9148903e+2, -1053399.5, -1129603.9, 50912.445, 0.3083472, 0.17825492, -1027910.3, 35515.4, 0.000000037089958, 9.995041, 9.985618 
8.696247e+2, 2.0147397e+2, -954416.9, -1047261.5, 58721.227, 0.29431495, 0.15999998, -925984.56, 39588.047, 0.0000000046516857, 9.995805, 9.984138 
8.691567e+2, 2.1145707e+2, -869275.44, -975185.75, 55214.74, 0.2518534, 0.1670993, -845726.25, 22012.033, 0.0000000004243601, 9.995761, 9.982502 
8.686889e+2, 2.2143972e+2, -775835.75, -882392.8, 50888.004, 0.21695863, 0.17965247, -755438.0, 14470.39, 0.00000000007172086, 9.995517, 9.982298 
8.682202e+2, 2.3142111e+2, -696518.6, -810329.0, 59567.684, 0.20345904, 0.18194252, -671043.56, 1047.4219, 0.00000000090821445, 9.994921, 9.980619 
8.677512e+2, 2.4140173e+2, -605316.0, -711890.56, 71842.94, 0.18806306, 0.17924663, -569155.25, 5125.6514, 0.000000013716953, 9.994278, 9.980857 
8.672816e+2, 2.5138226e+2, -524122.56, -629364.25, 60983.18, 0.16985357, 0.17674169, -496195.9, -19724.56, 0.00000015076525, 9.9934225, 9.980178 
8.6681056e+2, 2.613621e+2, -448054.8, -558378.9, 52570.78, 0.14768547, 0.18069847, -427016.22, -48347.52, 0.0000012040816, 9.992531, 9.978768 
8.663359e+2, 2.7133992e+2, -366604.1, -486824.97, 43966.457, 0.10443191, 0.21018402, -352240.94, -71355.07, 0.000006992672, 9.992123, 9.976927 
8.6586046e+2, 2.8131714e+2, -276980.56, -382529.25, 55221.563, 0.07831468, 0.21375053, -253370.66, -70261.08, 0.000029645124, 9.991174, 9.9778 
8.65386e+2, 2.9129386e+2, -222651.63, -303758.6, 43679.703, 0.10612993, 0.08462189, -203602.25, -118264.11, 0.0000927102, 9.988155, 9.97785 
8.649092e+2, 3.0127227e+2, -147631.83, -193902.11, 32998.566, 0.09037455, 0.073437065, -130466.35, -130466.35, 0.00021904246, 9.985478, 9.979955 
8.644281e+2, 3.1125876e+2, -83480.82, -104341.83, 14773.339, 0.033932284, 0.5418779, -75826.89, -75826.89, 0.0004076202, 9.985018, 9.982759 
8.639457e+2, 3.2123235e+2, -95629.98, -131174.88, 6274.3374, 0.039219003, -0.044382885, -94554.95, -94554.95, 0.00062982744, 9.985153, 9.9806 
8.82916e+2, 1.3204457e+2, -1569551.1, -1644793.4, 16460.34, 0.47797123, 0.16684358, -1566107.8, 79875.984, 0.000002958578, 9.998598, 9.98864 
8.8244146e+2, 1.4203398e+2, -1489913.6, -1550744.5, 11034.096, 0.40839678, 0.22657375, -1487974.0, 60113.88, 0.0000019202917, 9.997045, 9.989113 
8.8196826e+2, 1.5202318e+2, -1400421.1, -1461095.8, 29925.361, 0.36643186, 0.23760796, -1388145.3, 62048.52, 0.0000010355539, 9.996603, 9.988952 
8.814973e+2, 1.6201146e+2, -1316502.6, -1389608.1, 29582.395, 0.34653184, 0.23100545, -1306031.8, 46276.723, 0.0000004399312, 9.996445, 9.987166 
8.8102657e+2, 1.7199712e+2, -1232661.3, -1316535.0, 40200.26, 0.33638927, 0.18522775, -1216505.5, 37943.42, 0.00000014107277, 9.996219, 9.985664 
8.80557e+2, 1.8198328e+2, -1126420.6, -1192669.5, 42637.363, 0.324378, 0.16373467, -1105552.8, 51031.652, 0.00000003330806, 9.99582, 9.987614 
8.800885e+2, 1.9197166e+2, -1033352.4, -1098412.6, 49317.695, 0.3292429, 0.21727876, -1006802.5, 51895.676, 0.0000000057331504, 9.995522, 9.987575 
8.796207e+2, 2.0195831e+2, -961785.4, -1054501.8, 52541.13, 0.31764728, 0.24881864, -938074.7, 22754.342, 0.00000000071752804, 9.995481, 9.983894 
8.791524e+2, 2.1193986e+2, -880659.5, -994599.1, 56668.65, 0.24322665, 0.20715915, -857274.5, 5735.539, 0.00000000006547386, 9.995593, 9.981233 
8.786841e+2, 2.219219e+2, -762741.2, -853904.9, 55683.164, 0.1887496, 0.18299432, -736362.44, 28823.602, 0.000000000075104825, 9.995447, 9.984179 
8.7821513e+2, 2.3190688e+2, -672684.3, -758702.25, 57004.27, 0.20833993, 0.22029802, -644284.2, 23049.03, 0.0000000014740101, 9.994806, 9.984176 
8.777457e+2, 2.4189036e+2, -603381.06, -706127.44, 65385.41, 0.2144347, 0.2499302, -571601.06, -2106.0981, 0.000000022289068, 9.99419, 9.981321 
8.7727505e+2, 2.5186995e+2, -531441.75, -647298.8, 56641.43, 0.16994676, 0.24652277, -508351.97, -36657.207, 0.0000002449646, 9.993527, 9.978872 
8.768029e+2, 2.6184887e+2, -439726.9, -545815.9, 52285.895, 0.12965713, 0.22414304, -418289.63, -44388.78, 0.0000019576598, 9.992745, 9.979474 
8.763281e+2, 2.7182725e+2, -353666.3, -461487.66, 42401.02, 0.109387755, 0.1551112, -338989.75, -62878.01, 0.000011400719, 9.992222, 9.978564 
8.758518e+2, 2.8180522e+2, -278519.72, -384410.1, 45893.47, 0.0948786, 0.12404075, -261397.78, -83070.57, 0.000048631977, 9.991082, 9.977632 
8.753739e+2, 2.917828e+2, -232429.8, -322597.75, 31112.262, 0.083309114, 0.1967909, -222736.61, -142188.36, 0.00015357231, 9.988005, 9.9765415 
8.7489414e+2, 3.017611e+2, -147610.92, -194061.84, 26498.576, 0.038221076, 0.26589468, -135600.1, -135600.1, 0.00036699927, 9.985471, 9.979897 
8.7441283e+2, 3.1174326e+2, -87486.5, -112210.52, 13525.267, 0.0067226645, 0.30610394, -81524.97, -81524.97, 0.00068988843, 9.98503, 9.982196 
8.739315e+2, 3.2172242e+2, -51188.027, -45679.223, 18283.455, 0.073636845, 0.1310083, -29943.86, -29943.86, 0.0010735199, 9.985546, 9.986296 
8.9291424e+2, 1.3252437e+2, -1584342.0, -1654479.5, 15057.979, 0.47654426, 0.2485714, -1581245.9, 60038.76, 0.00000034527207, 9.997571, 9.988376 
8.924378e+2, 1.4251295e+2, -1501663.0, -1551737.0, 12794.59, 0.38673422, 0.22590631, -1498583.3, 44813.453, 0.00000022408217, 9.995943, 9.989497 
8.9196414e+2, 1.5250275e+2, -1414656.9, -1462092.6, 33003.594, 0.3683102, 0.24558765, -1397732.6, 47763.97, 0.00000012080618, 9.995298, 9.989473 
8.914931e+2, 1.624919e+2, -1326794.6, -1382072.6, 35349.926, 0.3657556, 0.25379923, -1309561.3, 38041.59, 0.000000051297388, 9.995157, 9.988287 
8.910229e+2, 1.7247917e+2, -1224589.0, -1295815.1, 50346.293, 0.35188422, 0.23025335, -1198533.3, 51193.883, 0.00000001643881, 9.99601, 9.987132 
8.905535e+2, 1.8246624e+2, -1121248.3, -1194449.1, 49094.367, 0.33038616, 0.2200445, -1096612.8, 55241.27, 0.000000003877973, 9.996264, 9.98719 
8.9008373e+2, 1.9245344e+2, -1045081.6, -1115260.3, 48136.74, 0.31124896, 0.25499538, -1020602.44, 33377.28, 0.00000000066676814, 9.995089, 9.986623 
8.896152e+2, 2.024401e+2, -963509.94, -1033540.94, 52622.973, 0.2891003, 0.2738344, -935317.3, 20793.518, 0.00000000008333369, 9.994339, 9.985917 
8.891474e+2, 2.1242474e+2, -871043.94, -953743.9, 69888.16, 0.24157853, 0.23929694, -831189.4, 27071.227, 0.000000000010516922, 9.994611, 9.984392 
8.8867927e+2, 2.22409e+2, -769276.9, -849345.1, 74056.39, 0.2057273, 0.21621557, -725126.2, 35288.383, 0.00000000009886734, 9.994542, 9.984719 
8.8820946e+2, 2.3239361e+2, -685772.8, -766546.4, 63885.12, 0.21495011, 0.23650272, -650579.2, 11986.071, 0.0000000020481024, 9.993824, 9.984041 
8.8773936e+2, 2.4237739e+2, -603493.8, -690748.56, 68041.53, 0.21143521, 0.24947292, -566294.25, -1570.28, 0.000000030974796, 9.993365, 9.982795 
8.872684e+2, 2.523588e+2, -516226.4, -617700.56, 72337.805, 0.1625318, 0.2303622, -478606.2, -11700.203, 0.00000034048438, 9.9934225, 9.980821 
8.8679594e+2, 2.623395e+2, -416251.7, -516150.84, 79939.69, 0.12387735, 0.21342696, -371939.34, -2844.8757, 0.0000027257565, 9.993322, 9.980968 
8.8632065e+2, 2.7231964e+2, -334398.34, -437629.75, 69162.445, 0.11976159, 0.19533873, -299714.44, -28425.95, 0.000015971162, 9.992621, 9.979725 
8.858428e+2, 2.8229877e+2, -273378.94, -373983.25, 67034.36, 0.1078122, 0.18294384, -239872.31, -66379.52, 0.0000690861, 9.9906645, 9.978213 
8.8536143e+2, 2.9227597e+2, -233023.72, -329805.6, 62907.73, 0.055521272, 0.23115808, -202048.02, -126330.92, 0.00022324531, 9.9877615, 9.975803 
8.8488036e+2, 3.0225337e+2, -114871.73, -186023.94, 70636.42, -0.0012188344, 0.28394145, -71358.24, -71358.24, 0.0005485991, 9.987719, 9.979023 
8.8440114e+2, 3.1223223e+2, -18536.568, -109712.484, 43248.336, 0.04465027, 0.19204107, -1285.9995, -1285.9995, 0.0010574318, 9.990984, 9.97927 
8.8392025e+2, 3.2221213e+2, 38128.16, -4802.8794, 6704.5024, 0.08740489, 0.33030614, 39150.836, 39150.836, 0.0016748939, 9.991785, 9.986222 
9.0291137e+2, 1.3300455e+2, -1589925.9, -1652104.5, 10041.587, 0.4673125, 0.30131897, -1588344.4, 48237.125, 0.000000029867618, 9.996914, 9.988796 
9.024336e+2, 1.4299309e+2, -1496384.5, -1544814.6, 14285.838, 0.3760773, 0.23642732, -1492484.5, 46209.27, 0.000000019382966, 9.996098, 9.989815 
9.019598e+2, 1.5298316e+2, -1400143.0, -1451882.9, 33689.977, 0.37424633, 0.2579972, -1383536.3, 57254.75, 0.000000010447276, 9.996149, 9.989719 
9.014887e+2, 1.6297296e+2, -1307077.6, -1360074.8, 35921.984, 0.38240308, 0.2746103, -1288938.0, 53952.793, 0.000000004434464, 9.995985, 9.989389 
9.0101886e+2, 1.7296192e+2, -1222071.1, -1277495.1, 49641.297, 0.36236307, 0.27396858, -1192930.6, 52068.133, 0.0000000014203173, 9.995473, 9.988681 
9.0054935e+2, 1.8294989e+2, -1139498.5, -1207592.5, 45220.24, 0.32971114, 0.27522814, -1116941.0, 30175.639, 0.00000000033482794, 9.995185, 9.98682 
9.000786e+2, 1.9293597e+2, -1049167.8, -1126782.3, 50986.773, 0.28756863, 0.2819649, -1023899.6, 25354.213, 0.000000000057520166, 9.995187, 9.985687 
8.996094e+2, 2.029228e+2, -936033.94, -990879.44, 61124.027, 0.25773358, 0.28371504, -896463.0, 54920.164, 0.0000000000071813653, 9.994956, 9.988414 
8.99142e+2, 2.1291126e+2, -846679.56, -898023.94, 70801.27, 0.24619731, 0.2705843, -797039.8, 56455.094, 0.00000000000428494, 9.994394, 9.988291 
8.9867395e+2, 2.2289804e+2, -776714.94, -852475.9, 69101.94, 0.23184223, 0.25618955, -735791.8, 19831.816, 0.00000000010849106, 9.994002, 9.984789 
8.982033e+2, 2.3288147e+2, -689744.44, -778243.6, 64120.71, 0.2177522, 0.24239248, -656087.06, 1698.7864, 0.000000002258234, 9.993958, 9.983126 
8.977327e+2, 2.4286519e+2, -581720.6, -653834.0, 73163.375, 0.19605449, 0.22093022, -536211.6, 23733.459, 0.000000034158017, 9.993734, 9.985064 
8.972618e+2, 2.5284967e+2, -493499.75, -565967.94, 74745.18, 0.15293391, 0.17827484, -446669.1, 15427.512, 0.00000037566133, 9.993245, 9.984405 
8.9678925e+2, 2.6283368e+2, -407189.25, -487958.78, 79427.62, 0.12385234, 0.18873298, -358469.16, 5783.9, 0.00000301649, 9.992919, 9.983079 
8.963134e+2, 2.7281678e+2, -326340.4, -418174.88, 64872.58, 0.13219604, 0.3091024, -292779.06, -26359.348, 0.000017853601, 9.992506, 9.98105 
8.9583343e+2, 2.8279766e+2, -258895.88, -344529.13, 54315.934, 0.115161985, 0.33069515, -232549.77, -63942.746, 0.000079075995, 9.990613, 9.980106 
8.953488e+2, 2.9277408e+2, -230322.17, -324098.53, 59059.133, 0.021320796, 0.16559172, -201801.58, -130964.586, 0.00026623905, 9.9876375, 9.976218 
8.9486784e+2, 3.027508e+2, -126807.78, -211413.31, 83884.88, -0.023518357, 0.14646673, -75162.7, -75162.7, 0.00069019, 9.987803, 9.977317 
8.9439356e+2, 3.1272766e+2, -55001.8, -192268.52, 55433.508, 0.16881742, 0.29456148, -35411.516, -35411.516, 0.0014013384, 9.991395, 9.973466 
8.939114e+2, 3.2269582e+2, -37293.445, -165026.88, -14406.4795, 0.016125232, 0.17268553, -35688.766, -35688.766, 0.0023083058, 9.99181, 9.975095 
9.129073e+2, 1.3348491e+2, -1600847.4, -1636916.8, 9530.288, 0.4524388, 0.30782863, -1598484.1, 33391.992, 0.000000001903787, 9.9952345, 9.990598 
9.1242945e+2, 1.4347494e+2, -1510919.0, -1550850.1, 18680.61, 0.39573961, 0.2846456, -1503542.5, 30431.168, 0.0000000012354053, 9.995068, 9.989872 
9.1195595e+2, 1.5346451e+2, -1409910.3, -1460493.5, 38192.625, 0.38536704, 0.2873119, -1389394.3, 46681.57, 0.00000000066574474, 9.995664, 9.989351 
9.114846e+2, 1.634541e+2, -1309855.0, -1355875.5, 34324.75, 0.38207093, 0.28668377, -1291541.4, 46636.16, 0.0000000002824927, 9.995502, 9.98987 
9.110134e+2, 1.7344369e+2, -1234221.9, -1274317.5, 45683.45, 0.34616584, 0.27774906, -1204380.9, 35898.105, 0.00000000009044054, 9.994186, 9.989494 
9.105434e+2, 1.8343286e+2, -1148350.4, -1190353.6, 48590.46, 0.3105205, 0.27222547, -1116417.1, 25967.988, 0.000000000021308946, 9.993651, 9.988736 
9.100735e+2, 1.9342107e+2, -1040763.7, -1096677.1, 63383.76, 0.290068, 0.27124014, -999445.0, 45055.86, 0.000000000003658245, 9.994654, 9.987909 
9.096045e+2, 2.0340933e+2, -936054.3, -986396.7, 69982.016, 0.2738102, 0.2754293, -886854.4, 59761.707, 0.00000000000045636807, 9.9947, 9.988677 
9.0913576e+2, 2.1339805e+2, -865115.6, -904482.94, 68212.38, 0.2606709, 0.2862967, -813803.7, 34922.52, 0.0000000000030655227, 9.992938, 9.988501 
9.086669e+2, 2.2338592e+2, -789496.5, -836206.06, 69762.516, 0.2400946, 0.28405645, -739283.25, 11561.7295, 0.0000000000903565, 9.992154, 9.986828 
9.0819687e+2, 2.3337178e+2, -681222.94, -743389.75, 78573.12, 0.2076504, 0.25969338, -627808.4, 25174.814, 0.0000000018811002, 9.993219, 9.985754 
9.0772605e+2, 2.4335776e+2, -576915.6, -631062.9, 88446.055, 0.180497, 0.24460648, -511492.3, 43628.05, 0.000000028451819, 9.993076, 9.986697 
9.072537e+2, 2.5334433e+2, -513998.06, -552113.1, 83227.27, 0.157313, 0.24171142, -447674.28, 9577.419, 0.00000031314025, 9.990665, 9.986411 
9.067801e+2, 2.6333064e+2, -443405.47, -475424.1, 92408.52, 0.13638614, 0.2552035, -365629.75, -6243.7056, 0.0000025239594, 9.989019, 9.985701 
9.06304e+2, 2.7331626e+2, -351442.2, -390113.78, 89279.47, 0.12953027, 0.3180806, -279428.66, -17901.53, 0.000015124688, 9.988845, 9.984504 
9.05823e+2, 2.8330058e+2, -254536.23, -296500.9, 88585.29, 0.108985975, 0.32286984, -184482.25, -20801.322, 0.00006901787, 9.988505, 9.9840145 
9.053339e+2, 2.9328224e+2, -248982.52, -262645.13, 104607.125, 0.019489447, 0.18681917, -150983.88, -85124.734, 0.00024569064, 9.982546, 9.982051 
9.2290294e+2, 1.339654e+2, -1577773.1, -1612993.8, 6446.2437, 0.4578967, 0.3113265, -1576630.4, 50538.633, 0.00000000008526822, 9.996234, 9.991731 
9.2242485e+2, 1.4395654e+2, -1497578.9, -1541147.1, 16772.824, 0.40424103, 0.31950915, -1491869.9, 37385.8, 0.00000000005532455, 9.995848, 9.990195 
9.2195153e+2, 1.5394615e+2, -1411124.6, -1460037.1, 41520.78, 0.38826135, 0.30937484, -1387392.9, 43964.684, 0.000000000029806633, 9.995554, 9.98941 
9.214799e+2, 1.6393588e+2, -1311690.0, -1350400.1, 35867.184, 0.37721252, 0.29813585, -1290288.9, 43169.25, 0.000000000012643394, 9.995062, 9.990368 
9.210075e+2, 1.7392604e+2, -1225112.3, -1261613.4, 45937.56, 0.33086398, 0.2841732, -1193932.6, 41621.426, 0.0000000000040459667, 9.994404, 9.990165 
9.2053705e+2, 1.8391635e+2, -1128000.5, -1157825.4, 52923.234, 0.29597607, 0.27182347, -1087928.9, 49719.7, 0.000000000000952743, 9.994102, 9.990719 
9.200683e+2, 1.9390684e+2, -1027135.7, -1062191.1, 62934.156, 0.29827577, 0.26374638, -979334.0, 60407.26, 0.00000000000016345195, 9.994434, 9.990425 
9.195993e+2, 2.0389655e+2, -942596.8, -991105.6, 60392.223, 0.29442254, 0.27146295, -901770.5, 40071.754, 0.000000000000020373985, 9.994273, 9.988591 
9.1912884e+2, 2.1388505e+2, -860875.94, -906118.06, 62031.82, 0.27250463, 0.29984024, -817469.3, 26486.197, 0.0000000000018606304, 9.993329, 9.988152 
9.1865915e+2, 2.2387397e+2, -761229.8, -790508.25, 73772.08, 0.23930141, 0.307126, -700658.5, 45405.918, 0.000000000055557395, 9.992756, 9.989648 
9.1818994e+2, 2.3386341e+2, -659413.75, -689654.44, 79824.414, 0.19338359, 0.28204036, -593290.25, 54877.26, 0.0000000011563022, 9.992917, 9.989613 
9.177189e+2, 2.4385248e+2, -575034.6, -614340.8, 77981.99, 0.16773139, 0.29390767, -514267.34, 36007.38, 0.000000017486771, 9.992456, 9.988132 
9.1724443e+2, 2.5384116e+2, -497555.94, -524543.44, 72563.66, 0.16915056, 0.3584684, -437242.06, 15144.056, 0.00000019261098, 9.990859, 9.988147 
9.167694e+2, 2.6382965e+2, -412008.16, -421389.72, 90890.6, 0.15037559, 0.35105625, -325687.38, 28811.633, 0.000001557747, 9.989523, 9.989129 
9.162927e+2, 2.7381825e+2, -312471.7, -308471.7, 88966.125, 0.11366906, 0.24348392, -221483.08, 35126.266, 0.000009437413, 9.988851, 9.990082 
9.1581136e+2, 2.8380808e+2, -214655.39, -209421.13, 87668.58, 0.09845993, 0.22399904, -124330.625, 34378.11, 0.00004425717, 9.98833, 9.990051 
9.153167e+2, 2.938009e+2, -163189.34, -84677.67, 62524.547, 0.049165946, 0.31554177, -50107.094, 10672.139, 0.00016661992, 9.982533, 9.99366 
9.328991e+2, 1.3444525e+2, -1597571.9, -1627572.1, 3511.8127, 0.492522, 0.29800364, -1597166.3, 25301.385, 0.0000000000029415736, 9.995118, 9.991296 
9.3242025e+2, 1.444369e+2, -1499243.5, -1526513.5, 13052.131, 0.3822378, 0.31448245, -1494003.4, 30546.678, 0.0000000000019083366, 9.995075, 9.991583 
9.3194646e+2, 1.5442805e+2, -1414349.9, -1445046.3, 38438.836, 0.36943078, 0.3122909, -1388308.3, 38328.313, 0.0000000000010279229, 9.994626, 9.990857 
9.314743e+2, 1.6441898e+2, -1321664.1, -1348489.9, 35041.145, 0.36800215, 0.31710744, -1297556.5, 31169.227, 0.0000000000004359048, 9.994112, 9.990925 
9.3100184e+2, 1.7440993e+2, -1228322.1, -1255943.5, 45240.87, 0.33968017, 0.32913584, -1194830.9, 35983.65, 0.0000000000001394446, 9.993902, 9.990756 
9.3053114e+2, 1.8440068e+2, -1133917.4, -1159659.1, 51332.94, 0.3109352, 0.32758784, -1093866.3, 39038.69, 0.00000000000003282296, 9.993696, 9.990783 
9.300621e+2, 1.9439125e+2, -1041171.8, -1066189.0, 55508.508, 0.30262092, 0.3118305, -996779.94, 38217.082, 0.0000000000000056283993, 9.993399, 9.990711 
9.2959285e+2, 2.0438167e+2, -948793.9, -977866.94, 51413.98, 0.28818557, 0.307737, -909900.94, 27189.844, 0.00000000000000070118843, 9.993194, 9.99009 
9.2912215e+2, 2.1437174e+2, -849565.1, -880605.4, 58403.363, 0.25601298, 0.31889877, -804654.9, 34533.53, 0.00000000000083497646, 9.993284, 9.989915 
9.286519e+2, 2.2436206e+2, -755716.56, -775700.8, 68034.82, 0.22503951, 0.32657558, -696944.0, 44339.34, 0.0000000000249549, 9.992635, 9.990691 
9.281817e+2, 2.3435293e+2, -680216.8, -684055.56, 64184.06, 0.19727576, 0.3251444, -617923.44, 25449.262, 0.00000000051935445, 9.99085, 9.991068 
9.2771e+2, 2.443437e+2, -596977.75, -602339.94, 61351.953, 0.17656179, 0.33242938, -538248.3, 7214.8193, 0.0000000078541085, 9.990081, 9.990247 
9.272353e+2, 2.5433445e+2, -482318.34, -488049.88, 58057.766, 0.16565567, 0.35732645, -427055.66, 20498.486, 0.00000008654337, 9.99077, 9.990786 
9.267592e+2, 2.6432544e+2, -391590.25, -383346.75, 68686.18, 0.14189671, 0.3471102, -318658.75, 30983.396, 0.0000007013428, 9.989806, 9.9916525 
9.2628026e+2, 2.7431735e+2, -327541.38, -278052.38, 52925.152, 0.10777617, 0.27142563, -244372.89, 7347.811, 0.0000042783217, 9.986389, 9.993502 
9.257977e+2, 2.8431088e+2, -248058.1, -185406.69, 44440.46, 0.09671204, 0.26482984, -162360.94, -8576.864, 0.00002042177, 9.984781, 9.993772 
9.2530286e+2, 2.9430792e+2, -38452.05, 23340.643, -27290.867, 0.04806396, 0.37160558, 33667.78, 89481.35, 0.00007993033, 9.989958, 9.998083 
9.4289374e+2, 1.3492486e+2, -1614186.4, -1631555.9, 4691.3325, 0.5004156, 0.3016884, -1613000.3, 4769.2134, 0.0, 9.993812, 9.991674 
9.424148e+2, 1.4491752e+2, -1502175.1, -1514354.8, 15176.094, 0.36580515, 0.3430019, -1491912.6, 27929.447, 0.0, 9.994269, 9.992777 
9.419407e+2, 1.5490974e+2, -1413175.0, -1430832.9, 35108.953, 0.3571883, 0.32601362, -1385801.9, 36116.11, 0.0, 9.994092, 9.992085 
9.414683e+2, 1.6490164e+2, -1318146.0, -1340431.5, 32436.566, 0.36355376, 0.3375611, -1294991.6, 29005.951, 0.0, 9.994079, 9.99152 
9.40996e+2, 1.7489351e+2, -1215004.4, -1241710.1, 43498.234, 0.3487524, 0.37368134, -1182855.6, 43222.406, 0.0, 9.994479, 9.991457 
9.405251e+2, 1.848847e+2, -1125128.5, -1155477.4, 51060.0, 0.32277524, 0.3826474, -1087035.9, 41128.63, 0.0, 9.994297, 9.990755 
9.4005555e+2, 1.9487523e+2, -1038098.25, -1063632.8, 58075.508, 0.30219892, 0.36189094, -991403.2, 38853.832, 0.0, 9.993558, 9.990739 
9.395859e+2, 2.0486633e+2, -936993.75, -952629.25, 55758.21, 0.27608958, 0.3467371, -888507.9, 43835.99, 0.0, 9.993176, 9.991766 
9.3911517e+2, 2.148581e+2, -836270.56, -851119.75, 58992.44, 0.2355283, 0.33820942, -784237.4, 50187.008, 0.00000000000028468902, 9.993223, 9.991943 
9.3864435e+2, 2.2484969e+2, -752564.06, -769694.3, 62114.023, 0.21118927, 0.34805074, -698427.44, 38079.29, 0.000000000008157955, 9.99261, 9.991073 
9.381727e+2, 2.3484126e+2, -670441.9, -672966.25, 59020.344, 0.20748895, 0.37440726, -612670.2, 25919.379, 0.00000000016979894, 9.991192, 9.991583 
9.3770033e+2, 2.4483313e+2, -576244.5, -566253.56, 65673.73, 0.18781501, 0.35796756, -505385.56, 35283.582, 0.0000000025679472, 9.99044, 9.9925165 
9.3722594e+2, 2.5482553e+2, -467458.88, -450438.03, 61005.664, 0.15195435, 0.2982189, -397352.03, 45390.84, 0.000000028296595, 9.990554, 9.993451 
9.367487e+2, 2.6481888e+2, -385684.4, -363407.66, 57667.797, 0.12451512, 0.30841038, -315812.4, 28995.744, 0.00000022950282, 9.989373, 9.993136 
9.3626654e+2, 2.7481356e+2, -315602.56, -257578.33, 39516.066, 0.10989845, 0.38050145, -237567.77, 9293.078, 0.0000014045202, 9.986462, 9.994746 
9.357826e+2, 2.8480837e+2, -235812.64, -167671.98, 49611.785, 0.09024304, 0.3866565, -141558.3, 7353.5522, 0.000006759484, 9.985234, 9.994775 
9.3529266e+2, 2.9480255e+2, -63101.914, -31181.143, 3982.2803, 0.015283509, 0.3378347, -30691.834, 20277.084, 0.000026932837, 9.990265, 9.994541 
9.528865e+2, 1.3540435e+2, -1618720.3, -1610268.0, 3440.9675, 0.47249132, 0.3482414, -1609044.4, 4030.504, 0.0, 9.992579, 9.993783 
9.524085e+2, 1.4539877e+2, -1515877.8, -1518547.1, 10954.876, 0.36765745, 0.45504814, -1506176.6, 8952.596, 0.0, 9.993297, 9.993006 
9.5193446e+2, 1.5539052e+2, -1424190.3, -1433450.1, 27258.797, 0.36848646, 0.36592674, -1401171.0, 16038.152, 0.0, 9.993296, 9.992329 
9.5146227e+2, 1.6538264e+2, -1320920.0, -1332657.0, 27888.576, 0.37185118, 0.3467021, -1298289.1, 20996.816, 0.0, 9.993617, 9.992345 
9.509905e+2, 1.7537537e+2, -1210631.9, -1229409.1, 38557.863, 0.34420413, 0.38162667, -1180336.1, 41021.445, 0.0, 9.994466, 9.992363 
9.5051944e+2, 1.8536761e+2, -1116923.5, -1137041.3, 41598.965, 0.31205386, 0.38805833, -1084184.5, 39248.914, 0.0, 9.994289, 9.992019 
9.5004886e+2, 1.9535945e+2, -1033642.25, -1046162.25, 51116.23, 0.2904955, 0.36990035, -988404.1, 37109.25, 0.0, 9.993264, 9.992032 
9.495789e+2, 2.0535126e+2, -943615.3, -954377.3, 52015.49, 0.27120808, 0.36053437, -896703.25, 30890.248, 0.0, 9.992784, 9.991828 
9.491083e+2, 2.1534327e+2, -842387.44, -850296.0, 49497.734, 0.24544092, 0.3570073, -796686.3, 32985.344, 0.000000000000067652664, 9.992772, 9.992264 
9.48637e+2, 2.253356e+2, -746922.44, -752203.1, 48564.22, 0.21951394, 0.35878456, -700926.9, 30819.762, 0.0000000000019384904, 9.992474, 9.992379 
9.481643e+2, 2.3532833e+2, -650963.6, -647509.75, 47253.79, 0.19876309, 0.3671217, -601951.4, 31866.627, 0.000000000040347756, 9.991964, 9.9929495 
9.4769096e+2, 2.453215e+2, -563038.7, -546862.3, 52127.875, 0.17768544, 0.3587246, -502198.88, 33686.082, 0.0000000006101943, 9.990948, 9.993601 
9.4721586e+2, 2.5531533e+2, -477598.03, -441572.38, 39920.844, 0.15286627, 0.32813638, -415788.7, 22156.44, 0.000000006724211, 9.989475, 9.994647 
9.467378e+2, 2.6530993e+2, -383800.5, -348501.47, 32468.977, 0.12700923, 0.3394318, -329195.06, 10803.123, 0.000000054552586, 9.989182, 9.994372 
9.462552e+2, 2.7530548e+2, -253575.31, -219435.78, 11670.342, 0.10621837, 0.40002674, -215827.69, 26214.51, 0.0000003341785, 9.9907055, 9.995472 
9.457711e+2, 2.8530067e+2, -148719.64, -126799.66, 18547.559, 0.08427186, 0.40543497, -116215.9, 27873.818, 0.0000016125001, 9.991713, 9.99468 
9.4528437e+2, 2.9529357e+2, -42394.47, -44878.6, -6159.5576, 0.013479081, 0.3431602, -37352.996, 8805.817, 0.0000064614287, 9.993136, 9.992669 
9.62879e+2, 1.3588373e+2, -1604440.0, -1592256.0, 15149.91, 0.44433045, 0.40011844, -1582019.1, 26360.39, 0.0, 9.9931345, 9.994729 
9.6240234e+2, 1.4587866e+2, -1499371.6, -1509290.0, 12451.956, 0.38446963, 0.50571847, -1490927.6, 19501.174, 0.0, 9.994356, 9.993131 
9.6192825e+2, 1.5587023e+2, -1408940.4, -1424001.4, 26463.553, 0.3849881, 0.38732696, -1388956.8, 23553.715, 0.0, 9.994238, 9.992506 
9.6145606e+2, 1.6586266e+2, -1311189.1, -1319539.4, 29611.33, 0.37879097, 0.35210326, -1285460.1, 29123.734, 0.0, 9.993947, 9.993094 
9.609847e+2, 1.7585611e+2, -1215154.4, -1222007.3, 39071.086, 0.336659, 0.37761506, -1179359.8, 37288.004, 0.0, 9.99377, 9.993221 
9.605135e+2, 1.8584935e+2, -1114800.4, -1123409.0, 36111.41, 0.3013143, 0.38364792, -1082737.8, 35976.168, 0.0, 9.993868, 9.993177 
9.6004224e+2, 1.9584252e+2, -1014172.5, -1023784.4, 41933.02, 0.2827494, 0.37415007, -976770.94, 44010.027, 0.0, 9.994011, 9.993255 
9.5957184e+2, 2.0583497e+2, -932450.6, -949291.44, 46676.01, 0.27169976, 0.37150374, -893441.56, 29413.248, 0.0, 9.993571, 9.991846 
9.591012e+2, 2.1582706e+2, -839879.8, -847369.25, 48147.277, 0.2620889, 0.37272665, -795331.9, 29600.494, 0.0000000000000117120025, 9.992884, 9.992402 
9.5862955e+2, 2.2582006e+2, -738965.94, -732337.5, 47503.77, 0.22968881, 0.36087054, -688032.44, 38968.242, 0.0000000000003355644, 9.992325, 9.99378 
9.5815605e+2, 2.3581395e+2, -642849.6, -627872.9, 44629.457, 0.18362172, 0.33950925, -590107.94, 38952.676, 0.0000000000069838328, 9.99184, 9.994329 
9.576818e+2, 2.4580829e+2, -559571.2, -539650.6, 46226.285, 0.16462508, 0.35736498, -502323.72, 28792.62, 0.00000000010561558, 9.990904, 9.99408 
9.572054e+2, 2.558032e+2, -472343.7, -435777.25, 34504.004, 0.16370986, 0.40186775, -415011.75, 18154.959, 0.0000000011640542, 9.989657, 9.994915 
9.5672715e+2, 2.6579815e+2, -374711.5, -334684.3, 35524.516, 0.13713057, 0.39213365, -313923.72, 21292.418, 0.000000009444971, 9.989472, 9.9951935 
9.5624584e+2, 2.7579314e+2, -254164.08, -220691.02, 18595.797, 0.09742247, 0.35071638, -212409.25, 24855.451, 0.000000057857413, 9.990784, 9.995417 
9.557628e+2, 2.857878e+2, -158390.06, -144109.66, 18167.719, 0.08363207, 0.36381564, -131729.39, 7587.3433, 0.00000027926637, 9.9915495, 9.993603 
9.552778e+2, 2.9578072e+2, -42442.17, -44700.098, 6927.5703, 0.037211202, 0.37928092, -36552.176, 4833.9194, 0.0000011202083, 9.993149, 9.99284 
9.72872e+2, 1.3636294e+2, -1612818.6, -1606583.0, 19815.902, 0.4187757, 0.4183394, -1589641.1, 14041.459, 0.0, 9.993207, 9.993819 
9.723974e+2, 1.4635645e+2, -1500755.5, -1511777.8, 6701.227, 0.43397242, 0.4294185, -1497590.3, 8156.485, 0.0, 9.994431, 9.99299 
9.71923e+2, 1.5634865e+2, -1407986.1, -1423804.8, 17266.137, 0.40824804, 0.3877658, -1396903.9, 10919.766, 0.0, 9.994409, 9.9924755 
9.714501e+2, 1.6634154e+2, -1310350.3, -1313870.0, 18107.39, 0.38302833, 0.37169567, -1293917.5, 15975.499, 0.0, 9.993861, 9.993562 
9.7097784e+2, 1.763353e+2, -1223334.4, -1221214.0, 26746.564, 0.32326695, 0.3796237, -1195506.6, 16446.621, 0.0, 9.993117, 9.99364 
9.7050714e+2, 1.863287e+2, -1123615.5, -1132278.5, 26612.229, 0.2979966, 0.40392998, -1100984.5, 13033.791, 0.0, 9.99366, 9.992796 
9.7003716e+2, 1.9632195e+2, -1004160.7, -1019688.1, 26265.148, 0.30933803, 0.430782, -984535.9, 31549.174, 0.0, 9.994918, 9.993259 
9.695663e+2, 2.0631538e+2, -908225.2, -917827.9, 24426.842, 0.29433444, 0.4244216, -888132.25, 30017.33, 0.0, 9.99449, 9.99366 
9.6909416e+2, 2.1630903e+2, -825722.44, -821371.5, 30318.36, 0.2570302, 0.40382782, -793150.7, 27061.14, 0.0000000000000014914695, 9.9931555, 9.9941 
9.6862185e+2, 2.263033e+2, -734362.9, -721878.6, 32548.719, 0.2239425, 0.40270808, -694978.9, 27288.89, 0.000000000000042732568, 9.992464, 9.99449 
9.681481e+2, 2.3629819e+2, -635750.1, -616321.06, 26242.957, 0.19518866, 0.4093847, -598052.3, 26265.58, 0.00000000000088938075, 9.992165, 9.995054 
9.676733e+2, 2.462931e+2, -544684.94, -527378.3, 25507.584, 0.17872822, 0.4257985, -509096.2, 17271.523, 0.000000000013450299, 9.9918995, 9.994544 
9.671963e+2, 2.5628817e+2, -442333.56, -418763.06, 13721.663, 0.1682055, 0.4506401, -412460.3, 15955.694, 0.0000000001482496, 9.991812, 9.995155 
9.6671796e+2, 2.6628315e+2, -341567.1, -317996.1, 15316.262, 0.13317959, 0.42735505, -310455.8, 20009.182, 0.0000000012029147, 9.991979, 9.99529 
9.662374e+2, 2.762778e+2, -234892.44, -216395.55, -2041.0416, 0.089929715, 0.36796084, -216173.02, 16343.468, 0.0000000073681794, 9.992581, 9.995094 
9.6575487e+2, 2.8627262e+2, -143099.48, -135082.22, -4550.661, 0.08531957, 0.39368987, -133026.39, 1540.9146, 0.000000035559857, 9.992707, 9.993845 
9.6527076e+2, 2.9626575e+2, -45474.273, -36311.473, 3517.2651, 0.044827104, 0.39383844, -35117.027, 1517.622, 0.00000014260962, 9.992748, 9.993823 
9.828655e+2, 1.3683984e+2, -1609660.1, -1606633.0, 6857.451, 0.43601763, 0.4263142, -1601124.1, -2114.1, 0.0, 9.993467, 9.993859 
9.82391e+2, 1.468332e+2, -1525919.8, -1518694.1, 3509.6821, 0.43313047, 0.3882014, -1517270.1, -16194.197, 0.0, 9.992493, 9.993535 
9.819168e+2, 1.5682687e+2, -1424514.8, -1428284.0, 18858.867, 0.40210795, 0.4512583, -1407446.6, -4307.4946, 0.0, 9.993137, 9.992757 
9.814438e+2, 1.6681997e+2, -1309475.3, -1313022.5, 18843.186, 0.38098764, 0.4444653, -1292322.5, 12884.124, 0.0, 9.993908, 9.993572 
9.8097134e+2, 1.7681342e+2, -1201643.4, -1210621.4, 23931.424, 0.3183753, 0.41594765, -1181783.6, 25486.03, 0.0, 9.9946, 9.993658 
9.8050094e+2, 1.8680662e+2, -1118968.3, -1134019.9, 29687.434, 0.2943459, 0.44388705, -1095867.6, 13469.082, 0.0, 9.994204, 9.99242 
9.8003185e+2, 1.9679978e+2, -1023545.2, -1027935.75, 32807.24, 0.32106924, 0.49349847, -992859.9, 18544.95, 0.0, 9.993585, 9.993281 
9.7956055e+2, 2.0679422e+2, -910839.4, -899473.56, 24072.205, 0.3023671, 0.48862973, -880422.56, 33037.2, 0.0, 9.99343, 9.99535 
9.790872e+2, 2.1678951e+2, -811176.2, -795652.2, 26108.19, 0.24159397, 0.4566422, -776176.6, 39329.105, 0.00000000000000014322901, 9.993317, 9.995753 
9.786143e+2, 2.2678493e+2, -726741.9, -714081.44, 28952.727, 0.21256968, 0.47642428, -690775.0, 26775.846, 0.0000000000000041040377, 9.992815, 9.994866 
9.781404e+2, 2.3678058e+2, -631868.1, -609923.44, 22210.303, 0.20963253, 0.52062243, -596123.0, 23470.537, 0.000000000000085429954, 9.992242, 9.995471 
9.7766536e+2, 2.4677567e+2, -541554.8, -521963.03, 22819.303, 0.19180064, 0.51851225, -506925.88, 14715.138, 0.000000000001292103, 9.991954, 9.994902 
9.7718805e+2, 2.567705e+2, -440584.56, -417625.22, 13051.876, 0.16073948, 0.48569936, -411722.88, 11968.008, 0.0000000000142405965, 9.991928, 9.995186 
9.767098e+2, 2.6676527e+2, -343576.97, -322286.2, 16782.076, 0.11743591, 0.46014026, -313057.9, 12683.691, 0.00000000011554544, 9.991996, 9.994989 
9.762299e+2, 2.7675974e+2, -239076.03, -222707.2, 2263.9954, 0.08090177, 0.43020555, -222399.84, 5395.9824, 0.0000000007077114, 9.992489, 9.994722 
9.757476e+2, 2.867551e+2, -135847.83, -119081.086, -5510.9766, 0.08609177, 0.47084227, -117431.92, 12408.84, 0.000000003414842, 9.992616, 9.994982 
9.7526306e+2, 2.967488e+2, -36619.348, -17256.916, 10161.826, 0.004838187, 0.40043062, -12902.867, 19000.063, 0.000000013690085, 9.992742, 9.995208 
9.928594e+2, 1.3731202e+2, -1598290.0, -1582870.1, -20198.084, 0.48781094, 0.31508702, -1568960.5, 25426.078, 0.0, 9.993219, 9.9955635 
9.9238193e+2, 1.473076e+2, -1519819.6, -1492966.1, 556.3414, 0.3198341, 0.30318838, -1492954.6, 3475.2795, 0.0, 9.992, 9.995614 
9.919088e+2, 1.5730517e+2, -1422944.9, -1413799.9, 16519.002, 0.32460842, 0.56018066, -1401232.3, -2777.7412, 0.0, 9.992742, 9.993984 
9.9143773e+2, 1.6729777e+2, -1315535.9, -1329185.3, 18909.158, 0.35377246, 0.5320061, -1302257.5, -1730.59, 0.0, 9.994211, 9.992409 
9.909673e+2, 1.7728898e+2, -1190639.4, -1210848.5, 17517.543, 0.36833858, 0.38578057, -1180521.0, 22091.252, 0.0, 9.995693, 9.9931965 
9.904954e+2, 1.8728212e+2, -1105261.4, -1110452.9, 15956.285, 0.29765517, 0.33271873, -1091691.1, 12988.51, 0.0, 9.994393, 9.993934 
9.900234e+2, 1.9727638e+2, -1033100.5, -1016522.56, 26602.023, 0.20941254, 0.33363423, -996948.0, 9788.208, 0.0, 9.992269, 9.994652 
9.8955256e+2, 2.072719e+2, -925204.6, -908170.8, 24291.203, 0.22016785, 0.3934904, -890946.7, 17833.453, 0.0, 9.99266, 9.995146 
9.8908114e+2, 2.1726811e+2, -803774.1, -793035.1, 19363.037, 0.26038325, 0.45749235, -778310.9, 32506.213, 0.000000000000000010837507, 9.993987, 9.995675 
9.886078e+2, 2.2726311e+2, -715019.06, -707049.3, 14762.357, 0.23664244, 0.43627343, -695743.5, 17122.752, 0.00000000000000031058006, 9.993623, 9.995025 
9.8813283e+2, 2.37258e+2, -624957.6, -603885.7, 7312.579, 0.19298936, 0.38963252, -601596.6, 13319.857, 0.0000000000000064639003, 9.992668, 9.995764 
9.8765767e+2, 2.4725343e+2, -524941.5, -500069.53, 13340.047, 0.1905216, 0.3334892, -494267.9, 22692.768, 0.000000000000097753626, 9.992604, 9.99617 
9.8718095e+2, 2.572492e+2, -418368.0, -394841.97, 6872.3574, 0.20186992, 0.29053795, -392981.53, 26019.738, 0.0000000000010773522, 9.993035, 9.996269 
9.867027e+2, 2.6724556e+2, -325409.5, -302799.47, 13605.6455, 0.1671621, 0.31837562, -296415.03, 24621.664, 0.000000000008741193, 9.992858, 9.995878 
9.8622274e+2, 2.7724162e+2, -235898.66, -215333.6, 8339.424, 0.111919194, 0.37132537, -212376.92, 10699.023, 0.00000000005353408, 9.992528, 9.995125 
9.857411e+2, 2.8723747e+2, -130250.98, -120781.805, -1787.9194, 0.14821191, 0.47431022, -120455.47, 4660.8696, 0.00000000025827646, 9.9932785, 9.994502 
9.8525685e+2, 2.9723066e+2, -10792.573, -6184.499, 9397.494, 0.008069326, 0.39615312, 1187.2832, 28369.979, 0.0000000010352618, 9.994697, 9.995169 
1.002854e+3, 1.3779365e+2, -1570210.8, -1596965.3, 10741.292, 0.5430542, 0.7230366, -1566432.1, 23239.232, 0.0, 9.996216, 9.992528 
1.0023753e+3, 1.4778338e+2, -1474968.8, -1498864.3, -2166.3345, 0.31711462, 0.42206216, -1474773.9, 16996.752, 0.0, 9.996349, 9.993165 
1.0019033e+3, 1.5777734e+2, -1370902.4, -1398509.0, -26758.846, 0.37327385, 0.48445737, -1354596.5, 39233.355, 0.0, 9.996847, 9.993577 
1.00143276e+3, 1.6777167e+2, -1274897.8, -1297336.4, -12754.774, 0.37486207, 0.53617305, -1269130.1, 26755.504, 0.0, 9.996644, 9.993793 
1.0009627e+3, 1.777654e+2, -1180582.9, -1198864.9, 4054.5964, 0.3427802, 0.53287476, -1179724.0, 18222.998, 0.0, 9.996289, 9.993799 
1.0004904e+3, 1.8775992e+2, -1077093.4, -1090066.9, -14899.238, 0.34021753, 0.5656722, -1067330.0, 32670.523, 0.0, 9.996185, 9.9946 
1.0000172e+3, 1.9775529e+2, -980130.56, -984264.75, -20969.506, 0.29474345, 0.5915778, -961126.5, 40918.96, 0.0, 9.995837, 9.995501 
9.995457e+2, 2.0774993e+2, -905480.0, -896355.1, -12293.824, 0.24542971, 0.5021707, -887804.44, 16292.719, 0.0, 9.994228, 9.995555 
9.9907464e+2, 2.177454e+2, -819698.44, -795608.2, -5297.021, 0.24505964, 0.4606892, -794494.9, 11646.051, 0.0000000000000000006820092, 9.992965, 9.996186 
9.9860126e+2, 2.2774187e+2, -709565.0, -692442.0, 7143.3726, 0.23532183, 0.5006066, -689853.3, 18322.201, 0.00000000000000001954189, 9.993714, 9.995905 
9.9812543e+2, 2.3773761e+2, -592961.0, -578152.25, 15357.721, 0.17770784, 0.47923774, -568507.1, 41710.215, 0.00000000000000040645458, 9.994641, 9.996312 
9.9765027e+2, 2.4773508e+2, -506416.1, -481057.5, 13648.48, 0.19361937, 0.5621144, -475107.63, 37134.746, 0.0000000000000061445223, 9.993672, 9.99684 
9.9717414e+2, 2.57732e+2, -416070.4, -380925.16, -4183.3433, 0.23168403, 0.5571428, -380434.1, 33838.395, 0.00000000000006771698, 9.992819, 9.997397 
9.966943e+2, 2.677292e+2, -322096.44, -288374.13, -9832.435, 0.059524763, 0.54257643, -285716.7, 30583.193, 0.0000000000005493915, 9.992613, 9.997193 
9.962137e+2, 2.7772582e+2, -225628.83, -203230.0, -14217.694, -0.035818182, 0.51343626, -196330.52, 22002.338, 0.0000000000033642223, 9.992985, 9.996014 
9.957348e+2, 2.8772008e+2, -104198.16, -126294.28, -9309.587, 0.18097837, 0.508451, -100798.8, 19590.201, 0.000000000016230134, 9.995919, 9.993041 
9.9525183e+2, 2.9771224e+2, -7969.512, -29037.547, 13811.132, 0.03748465, 0.48538136, -1133.6451, 21331.787, 0.00000000006506301, 9.995981, 9.993069 
