coord_x,coord_y,stress_xx,stress_yy,tau_xy,velocity_x,velocity_y,stress_1,eps,damage,lx,ly
5.000702e+0, 1.2499124e+2, -1702994.3, -1722899.1, -741.72656, -0.00042259737, -0.038484603, -1702966.8, 12115.64, 0.0, 10.001412, 9.998775 
5.000833e+0, 1.3499008e+2, -1601262.4, -1623212.1, -758.5272, -0.00031980666, -0.032263122, -1601236.1, 15857.837, 0.0, 10.001672, 9.998763 
5.000949e+0, 1.4498827e+2, -1508537.6, -1541385.4, -874.8358, -0.00031041334, -0.02936636, -1508514.4, 10597.513, 0.0, 10.001904, 9.99755 
5.00105e+0, 1.549858e+2, -1407590.9, -1442036.6, -881.8711, -0.0003936268, -0.030849429, -1407568.3, 13567.494, 0.0, 10.002108, 9.997542 
5.0011486e+0, 1.6498257e+2, -1316780.1, -1363377.6, -932.00415, -0.00034834878, -0.036930837, -1316761.5, 6405.4204, 0.0, 10.002305, 9.996131 
5.001246e+0, 1.749786e+2, -1216015.6, -1264089.4, -972.7009, -0.00017387077, -0.048542608, -1215996.0, 9209.311, 0.0, 10.002495, 9.996125 
5.0013316e+0, 1.8497387e+2, -1127060.6, -1188665.8, -1066.8295, -0.00008435553, -0.05328869, -1127042.1, 209.19287, 0.0, 10.002665, 9.994504 
5.001406e+0, 1.9496839e+2, -1026876.2, -1089646.1, -1061.2941, -0.00008029121, -0.051958796, -1026858.25, 2446.8247, 0.0, 10.002814, 9.994499 
5.001482e+0, 2.0496203e+2, -939447.7, -1016922.75, -1075.4106, 0.0000595947, -0.046629384, -939432.75, -8065.2637, 0.0, 10.002962, 9.9927025 
5.001558e+0, 2.1495482e+2, -839280.75, -917901.56, -1100.7389, 0.00033714672, -0.038020667, -839265.3, -5826.7183, 0.0, 10.00311, 9.992698 
5.0016296e+0, 2.2494683e+2, -749245.9, -839717.44, -1124.6115, 0.00036047908, -0.03710178, -749231.9, -13714.667, 0.0, 10.003253, 9.991274 
5.0016963e+0, 2.3493803e+2, -649190.25, -740729.6, -1113.2953, 0.00012412932, -0.045010425, -649176.7, -11573.408, 0.0, 10.003391, 9.991271 
5.0017726e+0, 2.4492866e+2, -557477.5, -659382.6, -1052.674, -0.00005237103, -0.04635533, -557466.6, -17771.787, 0.0, 10.003546, 9.990055 
5.0018567e+0, 2.5491878e+2, -456911.3, -560102.4, -1065.7312, -0.00016750836, -0.04180946, -456900.3, -15108.498, 0.0, 10.003716, 9.990055 
5.001947e+0, 2.6490796e+2, -368484.47, -486204.44, -1023.74316, -0.0001491498, -0.0407917, -368475.56, -24577.979, 0.0, 10.003898, 9.988317 
5.0020444e+0, 2.7489623e+2, -267614.63, -386751.5, -997.80963, 0.000007888748, -0.04453971, -267606.28, -21594.076, 0.0, 10.004088, 9.988318 
5.002151e+0, 2.848836e+2, -180139.05, -315662.1, -889.2355, -0.000020448935, -0.047783043, -180133.2, -31996.846, 0.0, 10.004302, 9.986369 
5.0022686e+0, 2.948699e+2, -78544.016, -215850.83, -881.04926, -0.00024224244, -0.051725518, -78538.36, -28268.203, 0.0, 10.004541, 9.986372 
5.002401e+0, 3.0485886e+2, 10440.296, -89896.414, -771.8249, -0.00010910508, -0.049209855, 10446.233, 10446.233, 0.0, 10.004805, 9.991516 
5.00255e+0, 3.148505e+2, 14673.046, -87761.414, -738.5298, 0.00039941745, -0.041065253, 14678.37, 14678.37, 0.0, 10.005091, 9.991525 
1.5002106e+1, 1.2499091e+2, -1703026.1, -1722964.1, 236.63832, -0.0012678031, -0.03894628, -1703023.3, 12062.236, 0.0, 10.001412, 9.998771 
1.5002498e+1, 1.3498975e+2, -1601293.9, -1623276.9, 219.34898, -0.0009593673, -0.033193313, -1601291.8, 15805.52, 0.0, 10.001672, 9.998758 
1.5002845e+1, 1.4498791e+2, -1508551.0, -1541412.9, -105.702705, -0.0009312334, -0.030341804, -1508550.6, 10564.511, 0.0, 10.001904, 9.997548 
1.500315e+1, 1.5498546e+2, -1407603.9, -1442063.5, -113.03392, -0.0011808727, -0.03144367, -1407603.5, 13535.539, 0.0, 10.002108, 9.99754 
1.5003447e+1, 1.6498223e+2, -1316857.1, -1363536.1, -215.64473, -0.0010450429, -0.037434235, -1316856.1, 6314.1387, 0.0, 10.002305, 9.9961195 
1.5003736e+1, 1.7497823e+2, -1216092.6, -1264248.0, -256.31015, -0.0005216081, -0.04924755, -1216091.4, 9117.445, 0.0, 10.002495, 9.996114 
1.5003994e+1, 1.849735e+2, -1127050.1, -1188644.1, -503.05746, -0.00025306153, -0.053976193, -1127046.0, 208.84636, 0.0, 10.002665, 9.994506 
1.5004219e+1, 1.9496801e+2, -1026865.7, -1089624.5, -497.80435, -0.0002408686, -0.052407194, -1026861.75, 2446.8013, 0.0, 10.002814, 9.9945 
1.5004446e+1, 2.0496167e+2, -939495.2, -1017020.7, -520.2448, 0.00017876492, -0.047015235, -939491.7, -8120.7017, 0.0, 10.002962, 9.992696 
1.5004675e+1, 2.1495445e+2, -839328.7, -918000.4, -545.4792, 0.001011419, -0.038522094, -839324.94, -5882.732, 0.0, 10.00311, 9.992691 
1.500489e+1, 2.2494644e+2, -749224.8, -839673.6, -602.5349, 0.0010814684, -0.037538975, -749220.8, -13700.005, 0.0, 10.003253, 9.991277 
1.5005091e+1, 2.3493765e+2, -649169.0, -740685.3, -591.6292, 0.00037242152, -0.045201648, -649165.2, -11558.328, 0.0, 10.003391, 9.991274 
1.5005317e+1, 2.449283e+2, -557502.6, -659434.1, -408.00757, -0.0001570882, -0.046580456, -557501.0, -17802.605, 0.0, 10.003546, 9.990051 
1.500557e+1, 2.549184e+2, -456936.8, -560154.44, -420.5045, -0.0005025006, -0.04235446, -456935.1, -15139.668, 0.0, 10.003716, 9.990052 
1.5005842e+1, 2.649076e+2, -368437.25, -486105.66, -305.9713, -0.00044744744, -0.041393198, -368436.44, -24535.258, 0.0, 10.003898, 9.988323 
1.5006132e+1, 2.748959e+2, -267567.03, -386651.72, -279.92755, 0.000023668426, -0.044926003, -267566.38, -21550.656, 0.0, 10.004087, 9.988325 
1.5006453e+1, 2.848832e+2, -180125.16, -315632.06, 12.390432, -0.00006132044, -0.048241477, -180125.14, -31985.31, 0.0, 10.004302, 9.986371 
1.5006806e+1, 2.9486954e+2, -78530.72, -215821.94, 21.74549, -0.00072670204, -0.05255572, -78530.72, -28257.086, 0.0, 10.004541, 9.986374 
1.5007204e+1, 3.048585e+2, 10499.542, -89771.92, 308.32504, -0.0003272997, -0.050103687, 10500.49, 10500.49, 0.0, 10.004805, 9.991525 
1.5007648e+1, 3.1485012e+2, 14732.832, -87635.836, 342.90906, 0.0011982583, -0.04169693, 14733.98, 14733.98, 0.0, 10.005091, 9.991533 
2.500351e+1, 1.2499024e+2, -1703058.6, -1723001.3, -1276.3779, -0.0019107679, -0.040022112, -1702977.3, 12114.704, 0.0, 10.001411, 9.998769 
2.5004172e+1, 1.3498905e+2, -1601050.3, -1623179.3, -1275.0723, -0.0015219908, -0.034833543, -1600977.0, 16126.778, 0.0, 10.00169, 9.998756 
2.500476e+1, 1.4498723e+2, -1508187.9, -1541340.6, -1853.8965, -0.0015180488, -0.031987377, -1508084.6, 11037.134, 0.0, 10.001933, 9.9975395 
2.5005266e+1, 1.5498477e+2, -1407170.6, -1441956.6, -1917.3971, -0.0018936857, -0.03252819, -1407065.3, 14080.418, 0.0, 10.002142, 9.997532 
2.500576e+1, 1.6498151e+2, -1316492.3, -1363515.8, -2139.629, -0.0016752842, -0.03841708, -1316395.1, 6781.9785, 0.0, 10.0023365, 9.996106 
2.5006238e+1, 1.7497751e+2, -1215866.9, -1264295.4, -2204.2458, -0.00085956487, -0.050592452, -1215766.8, 9448.924, 0.0, 10.002517, 9.9961 
2.5006664e+1, 1.8497276e+2, -1126864.4, -1188598.3, -2629.3906, -0.00043260018, -0.055264484, -1126752.6, 509.23456, 0.0, 10.002679, 9.994501 
2.5007036e+1, 1.9496728e+2, -1026764.25, -1089619.9, -2665.269, -0.00039655447, -0.05321438, -1026651.44, 2664.1152, 0.0, 10.002823, 9.994496 
2.500741e+1, 2.0496094e+2, -939524.25, -1017115.8, -2725.233, 0.00026814337, -0.04769149, -939428.7, -8050.614, 0.0, 10.002964, 9.992688 
2.5007784e+1, 2.1495372e+2, -839489.5, -918160.3, -2754.556, 0.0015702111, -0.039421212, -839393.2, -5943.7915, 0.0, 10.003102, 9.992683 
2.5008142e+1, 2.2494571e+2, -749440.0, -839774.56, -2851.3508, 0.001677245, -0.03834311, -749350.1, -13822.083, 0.0, 10.003238, 9.991277 
2.5008473e+1, 2.3493692e+2, -649468.8, -740826.9, -2861.098, 0.00056323805, -0.045589257, -649379.3, -11765.299, 0.0, 10.00337, 9.991274 
2.5008848e+1, 2.4492757e+2, -557921.9, -659652.0, -2562.7297, -0.00024866866, -0.047006693, -557857.4, -18151.797, 0.0, 10.003518, 9.99005 
2.5009266e+1, 2.5491765e+2, -457487.1, -560435.7, -2557.892, -0.00075079856, -0.04328465, -457423.56, -15620.912, 0.0, 10.00368, 9.99005 
2.5009716e+1, 2.6490685e+2, -369027.63, -486302.03, -2351.7356, -0.0006647093, -0.042449135, -368980.5, -25072.113, 0.0, 10.003853, 9.988331 
2.5010195e+1, 2.7489516e+2, -268236.2, -386885.38, -2316.638, 0.000032787037, -0.045717187, -268191.0, -22168.193, 0.0, 10.004038, 9.988334 
2.501073e+1, 2.848825e+2, -180847.45, -315885.56, -1806.6786, -0.0001132722, -0.049143825, -180823.28, -32676.443, 0.0, 10.004249, 9.98638 
2.5011313e+1, 2.9486883e+2, -79285.63, -216091.34, -1747.1879, -0.0011398478, -0.05396185, -79263.32, -28982.732, 0.0, 10.004486, 9.9863825 
2.501198e+1, 3.048578e+2, 9810.279, -89976.11, -1226.017, -0.00047347083, -0.051650025, 9825.341, 9825.341, 0.0, 10.004751, 9.991536 
2.5012726e+1, 3.1484944e+2, 14169.33, -87779.305, -1168.4586, 0.0019835387, -0.042997606, 14182.72, 14182.72, 0.0, 10.005047, 9.991545 
3.5004917e+1, 1.2498923e+2, -1703054.6, -1722992.5, -227.96577, -0.0023521294, -0.041710407, -1703052.0, 12049.776, 0.0, 10.001411, 9.998769 
3.500586e+1, 1.3498804e+2, -1601045.6, -1623169.8, -227.28006, -0.0020078886, -0.03718239, -1601043.4, 16070.255, 0.0, 10.001689, 9.998757 
3.5006687e+1, 1.4498621e+2, -1508307.8, -1541587.0, -1067.664, -0.002071058, -0.03430178, -1508273.5, 10858.104, 0.0, 10.001933, 9.997522 
3.50074e+1, 1.5498373e+2, -1407289.6, -1442201.8, -1131.6263, -0.002532338, -0.034102004, -1407253.0, 13902.731, 0.0, 10.002142, 9.997515 
3.500809e+1, 1.6498047e+2, -1316614.8, -1363768.4, -1460.0774, -0.0022393307, -0.039878234, -1316569.5, 6617.653, 0.0, 10.0023365, 9.996089 
3.5008752e+1, 1.7497644e+2, -1215989.3, -1264547.9, -1524.6918, -0.0011878907, -0.05257585, -1215941.5, 9284.602, 0.0, 10.002517, 9.996083 
3.5009342e+1, 1.8497168e+2, -1126931.1, -1188736.0, -2088.563, -0.00062308053, -0.057152346, -1126860.6, 411.73572, 0.0, 10.002679, 9.994493 
3.5009858e+1, 1.949662e+2, -1026831.25, -1089758.0, -2124.7585, -0.00054748636, -0.054379694, -1026759.6, 2566.5032, 0.0, 10.002823, 9.994487 
3.5010374e+1, 2.0495984e+2, -939579.9, -1017230.2, -2205.3, 0.00032763273, -0.048657514, -939517.3, -8128.6265, 0.0, 10.002964, 9.992681 
3.5010895e+1, 2.149526e+2, -839545.94, -918275.94, -2234.5835, 0.0020135804, -0.0407171, -839482.56, -6022.419, 0.0, 10.003102, 9.992676 
3.5011384e+1, 2.2494459e+2, -749457.75, -839810.0, -2352.7747, 0.00214797, -0.039513454, -749396.5, -13857.68, 0.0, 10.003238, 9.991275 
3.5011846e+1, 2.349358e+2, -649486.6, -740862.25, -2362.9595, 0.000696634, -0.046172995, -649425.56, -11800.746, 0.0, 10.00337, 9.991271 
3.5012364e+1, 2.4492645e+2, -557917.1, -659640.25, -1953.6285, -0.00032726253, -0.04763362, -557879.6, -18163.277, 0.0, 10.003517, 9.990051 
3.5012943e+1, 2.5491655e+2, -457482.6, -560423.75, -1948.2744, -0.00091279164, -0.044599123, -457445.75, -15632.265, 0.0, 10.003679, 9.990051 
3.5013568e+1, 2.6490572e+2, -368965.28, -486169.6, -1656.401, -0.00080132985, -0.043958545, -368941.88, -25022.727, 0.0, 10.003853, 9.98834 
3.5014233e+1, 2.7489406e+2, -268174.0, -386752.63, -1621.1487, 0.00003509992, -0.04691245, -268151.84, -22118.398, 0.0, 10.004038, 9.988342 
3.5014975e+1, 2.848814e+2, -180745.08, -315668.8, -915.62335, -0.0001764533, -0.050489046, -180738.88, -32581.504, 0.0, 10.004249, 9.986395 
3.5015798e+1, 2.9486772e+2, -79183.66, -215874.86, -854.74713, -0.0014821409, -0.055942412, -79178.31, -28887.303, 0.0, 10.004485, 9.986397 
3.501673e+1, 3.0485672e+2, 9907.48, -89769.07, -115.785545, -0.00054819946, -0.05384708, 9907.615, 9907.615, 0.0, 10.004751, 9.99155 
3.501778e+1, 3.148484e+2, 14265.969, -87573.195, -56.317783, 0.0027547292, -0.044965193, 14266.0, 14266.0, 0.0, 10.005047, 9.991559 
4.500634e+1, 1.2498787e+2, -1702669.9, -1722807.5, -1670.5455, -0.00278415, -0.04421829, -1702532.3, 12582.592, 0.0, 10.001437, 9.998769 
4.5007566e+1, 1.3498668e+2, -1600404.8, -1622859.3, -1676.3403, -0.0023787073, -0.03963234, -1600280.4, 16846.3, 0.0, 10.001733, 9.998757 
4.5008644e+1, 1.4498483e+2, -1507675.3, -1541569.9, -2835.911, -0.0024416626, -0.036604173, -1507439.6, 11705.171, 0.0, 10.001988, 9.997497 
4.500957e+1, 1.5498234e+2, -1406559.0, -1442136.3, -2969.0806, -0.00295926, -0.03615491, -1406312.9, 14856.199, 0.0, 10.002204, 9.997489 
4.5010453e+1, 1.6497907e+2, -1315845.5, -1363559.3, -3464.6812, -0.0026211103, -0.041868467, -1315595.1, 7605.6777, 0.0, 10.002396, 9.996074 
4.501129e+1, 1.7497501e+2, -1215399.4, -1264425.4, -3510.1274, -0.0014225442, -0.054695807, -1215149.3, 10090.579, 0.0, 10.002564, 9.996068 
4.5012036e+1, 1.8497024e+2, -1126564.4, -1188776.1, -4243.554, -0.0007450575, -0.059113093, -1126276.3, 1010.1377, 0.0, 10.002713, 9.9944725 
4.5012692e+1, 1.9496475e+2, -1026662.56, -1089894.5, -4355.613, -0.0005910864, -0.05588457, -1026363.94, 2976.3142, 0.0, 10.002844, 9.994468 
4.501334e+1, 2.0495838e+2, -939522.06, -1017253.94, -4487.9326, 0.00041288158, -0.049946368, -939263.8, -7860.8613, 0.0, 10.00297, 9.992676 
4.501399e+1, 2.1495114e+2, -839723.4, -918414.0, -4492.7026, 0.002279077, -0.04203177, -839467.7, -5993.2544, 0.0, 10.003093, 9.992671 
4.5014614e+1, 2.2494312e+2, -749858.7, -840098.8, -4632.7046, 0.0024219118, -0.04068449, -749621.5, -14068.31, 0.0, 10.003215, 9.991266 
4.5015198e+1, 2.3493433e+2, -650044.75, -741227.56, -4688.6763, 0.00080286904, -0.047031425, -649804.3, -12165.085, 0.0, 10.003336, 9.991263 
4.5015857e+1, 2.4492498e+2, -558590.4, -659897.94, -4187.906, -0.0003186577, -0.04851766, -558417.56, -18686.756, 0.0, 10.0034685, 9.990057 
4.501659e+1, 2.5491506e+2, -458435.6, -560815.4, -4141.9023, -0.000929923, -0.045853768, -458268.3, -16440.426, 0.0, 10.003612, 9.990058 
4.501738e+1, 2.6490426e+2, -370117.13, -486641.4, -3731.2495, -0.0008330667, -0.04545992, -369997.75, -26064.25, 0.0, 10.003771, 9.988348 
4.5018226e+1, 2.7489257e+2, -269460.03, -387289.44, -3707.3928, 0.0000009237135, -0.048532866, -269343.5, -23295.777, 0.0, 10.003946, 9.98835 
4.5019174e+1, 2.8487995e+2, -182030.89, -316042.63, -2777.6724, -0.0002755085, -0.0522676, -181973.34, -33801.848, 0.0, 10.004149, 9.986417 
4.502023e+1, 2.948663e+2, -80535.875, -216279.36, -2660.7522, -0.0017115072, -0.05792116, -80483.74, -30178.83, 0.0, 10.004382, 9.98642 
4.502143e+1, 3.0485532e+2, 8529.284, -90241.28, -1644.2925, -0.00046420412, -0.056115273, 8556.65, 8556.65, 0.0, 10.004648, 9.991568 
4.5022786e+1, 3.14847e+2, 12974.74, -88005.04, -1561.2552, 0.0036216937, -0.047611665, 12998.873, 12998.873, 0.0, 10.00495, 9.991576 
5.500777e+1, 1.24986164e+2, -1702677.1, -1722823.1, -557.1396, -0.0032083273, -0.04754466, -1702661.8, 12469.471, 0.0, 10.001437, 9.998768 
5.5009294e+1, 1.3498498e+2, -1600411.3, -1622873.4, -563.7818, -0.0026354918, -0.04218287, -1600397.1, 16745.88, 0.0, 10.001733, 9.998756 
5.501063e+1, 1.4498313e+2, -1507925.5, -1542085.3, -2025.3674, -0.0026309274, -0.038894057, -1507805.9, 11355.477, 0.0, 10.001988, 9.997461 
5.5011773e+1, 1.5498058e+2, -1406808.1, -1442649.9, -2159.1094, -0.003175645, -0.038684804, -1406678.5, 14507.456, 0.0, 10.002204, 9.997454 
5.5012846e+1, 1.649773e+2, -1315932.0, -1363738.9, -2832.1802, -0.0028216986, -0.044385668, -1315764.8, 7453.179, 0.0, 10.002396, 9.996061 
5.5013853e+1, 1.7497323e+2, -1215484.9, -1264602.6, -2877.8462, -0.0015642642, -0.05695177, -1215316.8, 9940.306, 0.0, 10.002564, 9.996057 
5.501475e+1, 1.8496844e+2, -1126773.9, -1189208.9, -3755.0867, -0.0007992135, -0.06114633, -1126548.9, 754.8707, 0.0, 10.002713, 9.994443 
5.5015534e+1, 1.9496292e+2, -1026871.8, -1090326.5, -3867.3616, -0.00052821275, -0.05772751, -1026637.0, 2720.9922, 0.0, 10.002844, 9.994438 
5.501631e+1, 2.0495655e+2, -939532.9, -1017276.06, -4029.9685, 0.0005234266, -0.051556785, -939324.56, -7903.7515, 0.0, 10.00297, 9.992675 
5.5017084e+1, 2.149493e+2, -839734.1, -918435.1, -4034.9329, 0.0023670734, -0.043365397, -839527.8, -6035.499, 0.0, 10.003092, 9.99267 
5.501783e+1, 2.2494127e+2, -749962.06, -840310.56, -4176.437, 0.0024994817, -0.041856367, -749769.4, -14198.268, 0.0, 10.003214, 9.991252 
5.501854e+1, 2.3493247e+2, -650149.2, -741440.9, -4232.629, 0.0008816638, -0.048163343, -649953.4, -12296.024, 0.0, 10.003336, 9.991248 
5.501933e+1, 2.4492311e+2, -558512.75, -659733.6, -3652.9243, -0.0002237102, -0.049657863, -558381.1, -18632.193, 0.0, 10.0034685, 9.990068 
5.50202e+1, 2.549132e+2, -458357.56, -560648.8, -3606.7288, -0.0008034655, -0.04704956, -458230.56, -16384.695, 0.0, 10.003612, 9.990069 
5.502115e+1, 2.6490244e+2, -370078.1, -486554.34, -3072.9282, -0.0007609517, -0.04695377, -369997.1, -26045.664, 0.0, 10.00377, 9.988354 
5.502217e+1, 2.7489075e+2, -269422.56, -387204.53, -3048.428, -0.00006998742, -0.050576225, -269343.72, -23278.135, 0.0, 10.003945, 9.988356 
5.5023324e+1, 2.848781e+2, -181831.11, -315619.38, -1906.219, -0.00041089108, -0.054477517, -181803.97, -33614.76, 0.0, 10.004149, 9.986445 
5.5024606e+1, 2.948645e+2, -80335.99, -215854.28, -1787.6993, -0.0018295246, -0.05989925, -80312.414, -29990.123, 0.0, 10.004381, 9.986448 
5.502608e+1, 3.0485356e+2, 8662.663, -89952.83, -513.7533, -0.00022376532, -0.058454867, 8665.34, 8665.34, 0.0, 10.004647, 9.991588 
5.502775e+1, 3.148452e+2, 13105.689, -87720.24, -427.73456, 0.0045817904, -0.050932292, 13107.504, 13107.504, 0.0, 10.004949, 9.991595 
6.5009254e+1, 1.2498415e+2, -1701346.9, -1722418.1, -1806.9741, -0.0035523744, -0.050859742, -1701193.0, 13957.645, 0.0, 10.001538, 9.998746 
6.501108e+1, 1.3498297e+2, -1599137.1, -1622495.0, -1969.0356, -0.0027964816, -0.0444641, -1598972.3, 18190.31, 0.0, 10.00183, 9.998734 
6.5012664e+1, 1.4498109e+2, -1506766.9, -1541891.8, -3796.3516, -0.0026740727, -0.04099668, -1506361.3, 12819.943, 0.0, 10.002084, 9.997428 
6.501402e+1, 1.549785e+2, -1405657.9, -1442459.1, -3914.8997, -0.0031605114, -0.041449923, -1405246.0, 15960.273, 0.0, 10.002298, 9.997421 
6.501529e+1, 1.6497518e+2, -1314817.9, -1363441.9, -4820.7676, -0.0027452968, -0.047075324, -1314344.5, 8893.992, 0.0, 10.002482, 9.996039 
6.5016454e+1, 1.749711e+2, -1214591.6, -1264412.5, -4938.2046, -0.0014236253, -0.05882675, -1214106.9, 11170.837, 0.0, 10.002636, 9.996035 
6.501749e+1, 1.849663e+2, -1126153.8, -1189210.5, -5990.038, -0.0006098575, -0.0627993, -1125589.8, 1734.8713, 0.0, 10.0027685, 9.994416 
6.5018404e+1, 1.9496074e+2, -1026501.75, -1090450.3, -6084.004, -0.00030552538, -0.059751574, -1025928.06, 3451.1262, 0.0, 10.002882, 9.994411 
6.50193e+1, 2.0495434e+2, -939316.25, -1017273.4, -6304.688, 0.00066480896, -0.053394385, -938809.7, -7367.45, 0.0, 10.002989, 9.992665 
6.502018e+1, 2.149471e+2, -839830.06, -918584.2, -6367.457, 0.0023108232, -0.04444742, -839318.56, -5804.843, 0.0, 10.00309, 9.9926605 
6.5021026e+1, 2.2493908e+2, -750362.56, -840629.0, -6521.574, 0.0024390272, -0.042741604, -749893.8, -14301.136, 0.0, 10.003192, 9.9912405 
6.502185e+1, 2.3493023e+2, -650817.7, -741889.6, -6552.381, 0.0010143784, -0.049429007, -650348.7, -12669.655, 0.0, 10.003296, 9.991238 
6.5022767e+1, 2.4492088e+2, -559371.8, -660072.5, -5910.7534, 0.00000983367, -0.05094661, -559026.06, -19255.408, 0.0, 10.003407, 9.990075 
6.5023774e+1, 2.54911e+2, -459585.03, -561164.0, -5897.604, -0.0005641359, -0.04798999, -459243.78, -17376.3, 0.0, 10.003524, 9.990076 
6.5024865e+1, 2.649002e+2, -371550.47, -487112.44, -5209.152, -0.0006280505, -0.048145913, -371316.13, -27343.2, 0.0, 10.003663, 9.988367 
6.5026057e+1, 2.7488855e+2, -271106.78, -387864.88, -5125.586, -0.00016010023, -0.052644283, -270882.2, -24795.17, 0.0, 10.003823, 9.98837 
6.5027404e+1, 2.8487593e+2, -183630.08, -316174.72, -3747.0095, -0.0005234168, -0.056760833, -183524.23, -35313.813, 0.0, 10.004012, 9.986474 
6.502892e+1, 2.9486236e+2, -82352.05, -216513.22, -3635.8926, -0.0017547354, -0.061707046, -82253.586, -31910.402, 0.0, 10.00423, 9.986476 
6.5030646e+1, 3.048514e+2, 6554.126, -90546.14, -2027.4127, 0.00020375983, -0.060589433, 6596.4395, 6596.4395, 0.0, 10.004484, 9.991626 
6.5032613e+1, 3.1484312e+2, 10893.529, -88363.04, -1802.9514, 0.005537456, -0.054235343, 10926.268, 10926.268, 0.0, 10.004779, 9.991633 
7.501079e+1, 1.2498183e+2, -1701648.3, -1723039.6, -708.67633, -0.0038192172, -0.05416716, -1701624.9, 13548.367, 0.0, 10.001538, 9.998704 
7.501291e+1, 1.349806e+2, -1599437.1, -1623114.4, -871.528, -0.002863279, -0.046477217, -1599405.1, 17780.285, 0.0, 10.00183, 9.9986925 
7.5014746e+1, 1.4497869e+2, -1506986.8, -1542347.0, -2988.6926, -0.0025726536, -0.042912398, -1506735.9, 12468.439, 0.0, 10.002084, 9.997397 
7.5016326e+1, 1.5497607e+2, -1405876.0, -1442911.1, -3107.91, -0.0029158487, -0.044448536, -1405617.0, 15612.819, 0.0, 10.002298, 9.99739 
7.501777e+1, 1.6497272e+2, -1315039.9, -1363902.0, -4245.8535, -0.002394125, -0.049936805, -1314673.8, 8588.672, 0.0, 10.002482, 9.996008 
7.50191e+1, 1.7496863e+2, -1214812.8, -1264870.1, -4363.827, -0.0010029225, -0.06032357, -1214435.3, 10866.676, 0.0, 10.002636, 9.996003 
7.5020266e+1, 1.849638e+2, -1126328.3, -1189571.9, -5566.82, -0.00017902597, -0.06407413, -1125842.0, 1507.115, 0.0, 10.0027685, 9.994391 
7.5021285e+1, 1.9495821e+2, -1026676.8, -1090812.8, -5661.1006, 0.000075471464, -0.061955146, -1026180.94, 3222.954, 0.0, 10.002882, 9.994387 
7.5022286e+1, 2.0495178e+2, -939434.1, -1017517.3, -5928.4634, 0.00083640416, -0.055458076, -938986.56, -7519.4385, 0.0, 10.002989, 9.992649 
7.5023264e+1, 2.1494454e+2, -839949.9, -918830.75, -5991.6396, 0.0021107956, -0.04528037, -839497.4, -5958.6025, 0.0, 10.00309, 9.992643 
7.5024223e+1, 2.249365e+2, -750419.1, -840743.75, -6136.0625, 0.0022407598, -0.04334238, -750004.2, -14386.406, 0.0, 10.003192, 9.991233 
7.5025153e+1, 2.3492765e+2, -650875.1, -742004.94, -6166.906, 0.0011999486, -0.05082733, -650459.7, -12755.392, 0.0, 10.003296, 9.991229 
7.502618e+1, 2.4491829e+2, -559357.44, -660037.75, -5472.829, 0.00038038407, -0.052383397, -559060.9, -19264.924, 0.0, 10.003406, 9.990078 
7.50273e+1, 2.549084e+2, -459571.2, -561128.44, -5459.7153, -0.00021342386, -0.048678156, -459278.53, -17385.855, 0.0, 10.003524, 9.990079 
7.502853e+1, 2.6489764e+2, -371406.0, -486803.8, -4607.89, -0.0004354671, -0.049039368, -371222.28, -27224.281, 0.0, 10.003662, 9.988389 
7.5029874e+1, 2.7488598e+2, -270963.56, -387556.28, -4523.219, -0.00026997598, -0.05473715, -270788.34, -24676.371, 0.0, 10.003823, 9.988391 
7.503141e+1, 2.848734e+2, -183450.25, -315787.16, -2934.0144, -0.0006144563, -0.059117824, -183385.23, -35150.098, 0.0, 10.004012, 9.986501 
7.503315e+1, 2.9485983e+2, -82174.63, -216127.58, -2821.0154, -0.001490466, -0.063347474, -82115.25, -31747.69, 0.0, 10.004229, 9.986504 
7.503514e+1, 3.0484894e+2, 6930.077, -89744.77, -926.0033, 0.0008146584, -0.06252196, 6938.9463, 6938.9463, 0.0, 10.004483, 9.991681 
7.503741e+1, 3.148407e+2, 11269.874, -87558.05, -697.9726, 0.006486035, -0.05752169, 11274.804, 11274.804, 0.0, 10.004778, 9.991689 
8.501243e+1, 1.2497922e+2, -1699325.3, -1722515.9, -1936.5923, -0.003519082, -0.056043312, -1699164.6, 16034.096, 0.0, 10.001722, 9.99865 
8.5014826e+1, 1.3497794e+2, -1597368.9, -1622714.3, -2189.5964, -0.002727733, -0.04834545, -1597181.1, 20030.283, 0.0, 10.001997, 9.998638 
8.5016906e+1, 1.4497596e+2, -1504983.9, -1541716.9, -4634.694, -0.002394939, -0.04491326, -1504408.1, 14822.662, 0.0, 10.002234, 9.997366 
8.5018694e+1, 1.5497333e+2, -1404081.1, -1442380.5, -4751.9854, -0.002478452, -0.04669138, -1403500.4, 17756.21, 0.0, 10.002436, 9.997359 
8.5020316e+1, 1.6496994e+2, -1313614.3, -1363690.8, -6182.7476, -0.001793623, -0.051984146, -1312862.1, 10427.333, 0.0, 10.002601, 9.995965 
8.502178e+1, 1.749658e+2, -1213739.6, -1264831.4, -6388.3374, -0.00033660553, -0.061736733, -1212953.0, 12376.359, 0.0, 10.002729, 9.99596 
8.502308e+1, 1.8496093e+2, -1125359.8, -1189312.6, -7745.7656, 0.00045886522, -0.06536095, -1124434.9, 2941.902, 0.0, 10.002844, 9.994372 
8.50242e+1, 1.9495532e+2, -1025910.56, -1090653.4, -7797.2334, 0.0005890664, -0.06362411, -1024984.75, 4447.144, 0.0, 10.002944, 9.994368 
8.50253e+1, 2.0494889e+2, -939039.25, -1017637.3, -8159.207, 0.0010778112, -0.05697371, -938201.2, -6705.8296, 0.0, 10.00303, 9.99262 
8.502636e+1, 2.1494162e+2, -839974.4, -919156.5, -8306.117, 0.0019296623, -0.046092115, -839112.44, -5545.2134, 0.0, 10.003102, 9.992616 
8.50274e+1, 2.2493356e+2, -750653.2, -840887.56, -8456.504, 0.0020405217, -0.04397614, -749867.5, -14221.097, 0.0, 10.003178, 9.99123 
8.502843e+1, 2.3492472e+2, -651466.9, -742320.9, -8448.288, 0.0013943722, -0.051832423, -650688.0, -12955.043, 0.0, 10.003257, 9.991227 
8.5029554e+1, 2.4491537e+2, -560334.7, -660550.3, -7709.9976, 0.0007688422, -0.05342571, -559745.0, -19920.363, 0.0, 10.003341, 9.990074 
8.5030776e+1, 2.5490546e+2, -460948.47, -561834.06, -7742.001, 0.00016196979, -0.049405847, -460357.8, -18436.418, 0.0, 10.00343, 9.990075 
8.5032135e+1, 2.6489472e+2, -372970.13, -487242.63, -6726.9414, -0.00018313916, -0.049868017, -372575.47, -28548.875, 0.0, 10.003541, 9.988417 
8.5033625e+1, 2.748831e+2, -272948.84, -388195.97, -6587.37, -0.0002561094, -0.05610465, -272573.53, -26433.223, 0.0, 10.003674, 9.98842 
8.503534e+1, 2.848705e+2, -185842.56, -316610.28, -4748.259, -0.0005440516, -0.06081131, -185670.38, -37407.168, 0.0, 10.003833, 9.98653 
8.503728e+1, 2.94857e+2, -84973.73, -217147.84, -4612.2754, -0.0010540539, -0.065141976, -84812.98, -34417.64, 0.0, 10.004023, 9.986532 
8.5039514e+1, 3.0484614e+2, 4069.7813, -90362.945, -2353.0806, 0.0013716819, -0.06436359, 4128.379, 4128.379, 0.0, 10.004254, 9.991749 
8.504206e+1, 3.1483796e+2, 8156.802, -88292.64, -2025.7374, 0.0069029625, -0.059346553, 8199.33, 8199.33, 0.0, 10.004531, 9.991757 
9.5014155e+1, 1.2497631e+2, -1699795.9, -1723488.0, -904.1148, -0.0026573911, -0.056501437, -1699761.4, 15465.668, 0.0, 10.001722, 9.998583 
9.5016825e+1, 1.3497496e+2, -1597838.4, -1623684.4, -1157.5095, -0.002392003, -0.050068837, -1597786.6, 19453.943, 0.0, 10.001997, 9.998572 
9.501915e+1, 1.4497294e+2, -1505198.9, -1542164.9, -3880.9636, -0.0021425232, -0.046999525, -1504795.9, 14464.523, 0.0, 10.002234, 9.997335 
9.5021135e+1, 1.5497026e+2, -1404294.8, -1442825.1, -3998.97, -0.0018506837, -0.048184738, -1403884.0, 17402.414, 0.0, 10.002436, 9.997329 
9.502293e+1, 1.6496682e+2, -1313999.5, -1364488.9, -5698.85, -0.0009464584, -0.0532234, -1313364.3, 9955.5, 0.0, 10.002601, 9.995911 
9.502452e+1, 1.7496264e+2, -1214126.1, -1265631.6, -5904.7837, 0.0005726611, -0.063066654, -1213457.8, 11902.377, 0.0, 10.002729, 9.995905 
9.502593e+1, 1.8495774e+2, -1125451.9, -1189506.5, -7374.678, 0.0013015397, -0.066660285, -1124613.9, 2794.1543, 0.0, 10.002844, 9.994359 
9.5027155e+1, 1.9495212e+2, -1026003.0, -1090846.9, -7426.843, 0.0012336496, -0.06476392, -1025163.25, 4299.944, 0.0, 10.002944, 9.994354 
9.502833e+1, 2.0494567e+2, -939313.94, -1018205.8, -7891.502, 0.0013879411, -0.057946317, -938532.3, -7005.4146, 0.0, 10.00303, 9.992582 
9.5029455e+1, 2.1493836e+2, -840251.7, -919729.1, -8038.826, 0.0017666658, -0.046882767, -839446.75, -5847.636, 0.0, 10.003102, 9.992577 
9.5030576e+1, 2.2493029e+2, -750638.1, -840854.44, -8164.605, 0.0018376346, -0.04464314, -749905.2, -14226.696, 0.0, 10.003178, 9.991232 
9.5031685e+1, 2.3492144e+2, -651451.44, -742285.3, -8156.522, 0.001596989, -0.05244903, -650724.8, -12959.843, 0.0, 10.003256, 9.991229 
9.50329e+1, 2.4491207e+2, -560405.2, -660690.3, -7376.9014, 0.001174504, -0.054077826, -559865.44, -20008.75, 0.0, 10.003341, 9.990065 
9.503422e+1, 2.5490218e+2, -461021.4, -561976.1, -7408.7153, 0.0005611724, -0.05017254, -460480.6, -18527.016, 0.0, 10.00343, 9.990066 
9.5035684e+1, 2.6489145e+2, -372729.4, -486730.97, -6236.434, 0.0001274413, -0.05063344, -372389.25, -28330.59, 0.0, 10.003541, 9.988452 
9.50373e+1, 2.748798e+2, -272708.72, -387681.03, -6096.0093, -0.000121083765, -0.056756794, -272386.4, -26214.408, 0.0, 10.003673, 9.988455 
9.503917e+1, 2.848673e+2, -185627.31, -316142.5, -4042.5684, -0.00031560348, -0.061849825, -185502.22, -37207.645, 0.0, 10.003832, 9.986563 
9.5041305e+1, 2.948538e+2, -84762.62, -216684.69, -3904.104, -0.00044930703, -0.06708819, -84647.19, -34220.71, 0.0, 10.004022, 9.986565 
9.504378e+1, 3.04843e+2, 4615.41, -89200.35, -1320.2242, 0.0018741508, -0.066117324, 4633.9854, 4633.9854, 0.0, 10.004252, 9.991829 
9.504659e+1, 3.1483492e+2, 8704.581, -87121.57, -989.42694, 0.006793962, -0.05973449, 8714.796, 8714.796, 0.0, 10.004529, 9.991838 
1.05016015e+2, 1.2497311e+2, -1696478.3, -1722509.8, -2134.8977, -0.0014161122, -0.056099094, -1696304.4, 18953.932, 0.0, 10.001976, 9.998526 
1.05018936e+2, 1.349717e+2, -1594999.4, -1622938.6, -2319.1836, -0.0016828108, -0.051151842, -1594808.1, 22464.324, 0.0, 10.002218, 9.998515 
1.05021484e+2, 1.4496961e+2, -1502678.5, -1541440.6, -5320.251, -0.0015591213, -0.048413143, -1501961.6, 17331.24, 0.0, 10.002428, 9.997291 
1.0502367e+2, 1.5496692e+2, -1402103.1, -1442259.1, -5545.226, -0.00096621667, -0.04869762, -1401351.4, 19967.8, 0.0, 10.002606, 9.997284 
1.0502561e+2, 1.6496344e+2, -1312157.4, -1364112.8, -7539.315, 0.0000027365104, -0.053671394, -1311085.4, 12267.533, 0.0, 10.0027485, 9.995864 
1.0502732e+2, 1.749592e+2, -1212628.4, -1265422.4, -7684.5083, 0.001347517, -0.06430259, -1211532.5, 13861.373, 0.0, 10.002854, 9.995859 
1.0502883e+2, 1.8495426e+2, -1124146.9, -1189177.5, -9282.94, 0.001999863, -0.06787073, -1122847.8, 4594.394, 0.0, 10.002947, 9.994332 
1.0503014e+2, 1.9494863e+2, -1025008.44, -1090667.1, -9438.478, 0.0019538845, -0.065112814, -1023678.6, 5818.884, 0.0, 10.003025, 9.994327 
1.05031386e+2, 2.0494212e+2, -938760.06, -1018329.4, -10062.612, 0.0018364612, -0.058139674, -937507.25, -5945.741, 0.0, 10.003084, 9.992547 
1.0503257e+2, 2.1493478e+2, -840157.7, -920077.94, -10181.179, 0.0016439239, -0.047635775, -838881.1, -5246.9575, 0.0, 10.003125, 9.992541 
1.05033755e+2, 2.2492668e+2, -750743.7, -840968.8, -10284.149, 0.0015895983, -0.04538809, -749586.3, -13872.581, 0.0, 10.003173, 9.991226 
1.05034925e+2, 2.3491785e+2, -651913.4, -742570.7, -10335.307, 0.0016829796, -0.052616496, -650750.06, -12949.835, 0.0, 10.003227, 9.991223 
1.0503621e+2, 2.4490847e+2, -561305.0, -661163.6, -9547.234, 0.0015053374, -0.054207906, -560400.44, -20508.441, 0.0, 10.003281, 9.990061 
1.050376e+2, 2.5489858e+2, -462472.5, -562715.5, -9532.68, 0.0010441936, -0.050814413, -461574.03, -19585.115, 0.0, 10.003333, 9.990062 
1.0503916e+2, 2.6488784e+2, -374529.5, -487261.66, -8207.477, 0.0006007553, -0.05124701, -373935.1, -29841.217, 0.0, 10.003403, 9.988482 
1.05040886e+2, 2.748763e+2, -275129.28, -388508.34, -8103.3066, 0.00017217577, -0.0567867, -274553.06, -28346.201, 0.0, 10.003491, 9.988485 
1.050429e+2, 2.8486377e+2, -188471.03, -317002.6, -5781.423, 0.00000683782, -0.062182523, -188211.5, -39882.42, 0.0, 10.003615, 9.986608 
1.05045214e+2, 2.9485032e+2, -88039.79, -217753.19, -5538.911, 0.00012278039, -0.068655744, -87803.7, -37343.082, 0.0, 10.003775, 9.98661 
1.0504789e+2, 3.0483958e+2, 1091.7233, -90158.875, -2618.1895, 0.0020209153, -0.06730243, 1166.7833, 1166.7833, 0.0, 10.003979, 9.991895 
1.05050966e+2, 3.1483158e+2, 4834.8037, -88244.09, -2391.2158, 0.0057950974, -0.058806427, 4896.194, 4896.194, 0.0, 10.004231, 9.991904 
1.1501801e+2, 1.2496965e+2, -1696814.0, -1723210.8, -1224.4636, 0.00019947001, -0.054855276, -1696757.4, 18535.031, 0.0, 10.001976, 9.998478 
1.1502116e+2, 1.3496816e+2, -1595334.8, -1623637.9, -1409.1528, -0.0006040071, -0.05159948, -1595264.8, 22042.393, 0.0, 10.002218, 9.998467 
1.1502392e+2, 1.4496602e+2, -1503094.3, -1542304.0, -4651.1694, -0.000648427, -0.049160857, -1502550.1, 16777.943, 0.0, 10.002428, 9.9972315 
1.1502628e+2, 1.5496327e+2, -1402518.1, -1443120.6, -4876.6064, 0.0001717725, -0.048240036, -1401940.6, 19414.332, 0.0, 10.002606, 9.997226 
1.15028374e+2, 1.6495974e+2, -1312426.4, -1364674.0, -7143.419, 0.0010524627, -0.05333575, -1311467.4, 11921.8125, 0.0, 10.0027485, 9.995826 
1.15030184e+2, 1.7495544e+2, -1212895.8, -1265980.3, -7289.4624, 0.0019889884, -0.065445356, -1211913.0, 13517.571, 0.0, 10.002854, 9.995821 
1.15031786e+2, 1.8495047e+2, -1124433.6, -1189774.6, -8991.91, 0.002554627, -0.068994634, -1123218.9, 4260.32, 0.0, 10.002947, 9.994291 
1.1503318e+2, 1.9494481e+2, -1025295.2, -1091262.8, -9148.206, 0.0027481688, -0.064681225, -1024050.0, 5484.7954, 0.0, 10.003025, 9.994287 
1.1503448e+2, 2.0493828e+2, -938980.1, -1018786.3, -9912.992, 0.0024213947, -0.057562668, -937767.2, -6168.054, 0.0, 10.003084, 9.992516 
1.150357e+2, 2.1493089e+2, -840379.44, -920536.9, -10032.299, 0.0015605475, -0.048351042, -839142.9, -5470.6704, 0.0, 10.003125, 9.99251 
1.1503692e+2, 2.2492278e+2, -750840.1, -841166.75, -10085.058, 0.0012964618, -0.04621082, -749727.8, -13975.765, 0.0, 10.003173, 9.991213 
1.1503816e+2, 2.3491393e+2, -652010.9, -742768.1, -10136.036, 0.001653366, -0.052341573, -650892.7, -13054.086, 0.0, 10.003227, 9.99121 
1.150395e+2, 2.4490456e+2, -561291.4, -661127.7, -9356.935, 0.0017615549, -0.0538227, -560422.0, -20491.602, 0.0, 10.003281, 9.990064 
1.1504094e+2, 2.5489464e+2, -462460.66, -562678.75, -9342.612, 0.001608902, -0.051332735, -461597.16, -19569.777, 0.0, 10.003332, 9.990065 
1.1504257e+2, 2.6488394e+2, -374360.56, -486894.66, -7878.8325, 0.0012334939, -0.05171152, -373811.63, -29679.44, 0.0, 10.003402, 9.988507 
1.1504438e+2, 2.748724e+2, -274962.38, -388140.97, -7773.8115, 0.00062010926, -0.05620457, -274430.94, -28186.107, 0.0, 10.00349, 9.988511 
1.15046516e+2, 2.8485993e+2, -188073.0, -316149.72, -5189.908, 0.00042054628, -0.061820354, -187863.03, -39496.383, 0.0, 10.003613, 9.986667 
1.1504899e+2, 2.9484653e+2, -87644.516, -216899.53, -4944.3315, 0.0006614662, -0.06985066, -87455.664, -36957.914, 0.0, 10.003773, 9.98667 
1.15051866e+2, 3.0483586e+2, 1433.1609, -89409.805, -1676.7493, 0.0018172393, -0.06793033, 1464.0992, 1464.0992, 0.0, 10.003977, 9.991947 
1.1505517e+2, 3.1482792e+2, 5170.3955, -87499.61, -1444.9559, 0.0039212033, -0.056588892, 5192.9204, 5192.9204, 0.0, 10.00423, 9.991957 
1.2502018e+2, 1.2496594e+2, -1692172.0, -1721652.3, -2086.399, 0.0016586257, -0.054207686, -1692025.1, 23303.57, 0.0, 10.002322, 9.998415 
1.2502354e+2, 1.3496439e+2, -1591677.4, -1622559.3, -2382.7883, 0.0005498805, -0.05102319, -1591494.5, 25849.514, 0.0, 10.002498, 9.9984045 
1.2502648e+2, 1.449622e+2, -1500178.8, -1541599.1, -5874.6523, 0.0003885942, -0.048665006, -1499361.6, 20003.941, 0.0, 10.002658, 9.997169 
1.25029e+2, 1.5495938e+2, -1400087.5, -1442654.6, -6137.28, 0.0013110767, -0.047721285, -1399220.3, 22172.799, 0.0, 10.002803, 9.997162 
1.2503122e+2, 1.649558e+2, -1310171.3, -1363981.5, -8659.204, 0.002005472, -0.05304348, -1308812.1, 14615.649, 0.0, 10.00292, 9.99579 
1.2503313e+2, 1.7495146e+2, -1210907.8, -1265420.9, -8789.833, 0.0024622048, -0.065643765, -1209525.5, 15944.123, 0.0, 10.003008, 9.995785 
1.250348e+2, 1.8494645e+2, -1122918.8, -1189621.4, -10655.795, 0.0028932847, -0.06912288, -1121257.8, 6260.85, 0.0, 10.003076, 9.994239 
1.2503625e+2, 1.9494073e+2, -1024242.0, -1091337.8, -10898.582, 0.0033040543, -0.06415329, -1022516.06, 7058.686, 0.0, 10.003122, 9.994234 
1.2503761e+2, 2.0493418e+2, -938184.0, -1018711.0, -11827.345, 0.0027849227, -0.057040848, -936482.8, -4843.3267, 0.0, 10.003153, 9.992488 
1.2503885e+2, 2.1492675e+2, -839987.56, -920658.75, -11920.951, 0.0013116202, -0.048510045, -838262.8, -4549.9536, 0.0, 10.003165, 9.992482 
1.250401e+2, 2.2491859e+2, -750855.5, -841402.3, -11950.59, 0.00093501643, -0.046426084, -749304.8, -13511.891, 0.0, 10.003181, 9.991193 
1.2504138e+2, 2.3490974e+2, -652544.56, -743254.6, -12052.66, 0.0016963837, -0.051982764, -650970.44, -13090.813, 0.0, 10.003201, 9.99119 
1.2504275e+2, 2.4490036e+2, -562225.1, -661490.25, -11310.566, 0.0021370917, -0.05337837, -560952.7, -20981.197, 0.0, 10.003213, 9.990071 
1.2504423e+2, 2.5489047e+2, -464078.13, -563368.6, -11255.655, 0.0022421714, -0.05130185, -462818.16, -20749.705, 0.0, 10.003218, 9.990073 
1.250459e+2, 2.6487976e+2, -376502.47, -487677.1, -9627.328, 0.0018743838, -0.05161231, -375674.9, -31501.797, 0.0, 10.003244, 9.98853 
1.2504777e+2, 2.7486825e+2, -277665.8, -389193.72, -9542.707, 0.0010047188, -0.055538807, -276855.2, -30569.705, 0.0, 10.003295, 9.988533 
1.2505002e+2, 2.8485584e+2, -191094.61, -316903.88, -6704.0674, 0.0007920364, -0.06110697, -190738.38, -42331.465, 0.0, 10.003376, 9.98673 
1.2505263e+2, 2.9484248e+2, -91306.38, -217958.16, -6424.634, 0.00127755, -0.0696416, -90981.31, -40443.9, 0.0, 10.00349, 9.9867325 
1.2505569e+2, 3.048319e+2, -2925.7295, -90878.78, -2780.3174, 0.0016383888, -0.06755995, -2837.9275, -2837.9275, 0.0, 10.00365, 9.992003 
1.250592e+2, 3.1482401e+2, 146.15659, -89291.586, -2511.6643, 0.0018322973, -0.055328798, 216.63568, 216.63568, 0.0, 10.003857, 9.992013 
1.350225e+2, 1.24962024e+2, -1692714.0, -1722784.6, -1427.412, 0.0029555876, -0.054212704, -1692646.4, 22720.832, 0.0, 10.002323, 9.998338 
1.3502605e+2, 1.349604e+2, -1592220.8, -1623693.4, -1724.4248, 0.0017769074, -0.049435236, -1592126.5, 25256.72, 0.0, 10.002498, 9.998327 
1.3502914e+2, 1.4495814e+2, -1500659.9, -1542603.3, -5328.5435, 0.0015498688, -0.046938144, -1499993.5, 19411.963, 0.0, 10.002658, 9.9971 
1.3503182e+2, 1.5495525e+2, -1400570.8, -1443661.1, -5591.5605, 0.0024509784, -0.04714189, -1399857.0, 21576.719, 0.0, 10.002804, 9.997093 
1.3503414e+2, 1.649516e+2, -1310407.9, -1364478.9, -8330.255, 0.0028622998, -0.05279637, -1309153.6, 14315.304, 0.0, 10.00292, 9.995756 
1.3503613e+2, 1.7494725e+2, -1211146.0, -1265920.0, -8462.305, 0.0027687699, -0.064912066, -1209868.5, 15642.589, 0.0, 10.003008, 9.99575 
1.3503787e+2, 1.8494217e+2, -1123364.6, -1190547.5, -10482.357, 0.0030181108, -0.068268664, -1121767.0, 5793.4604, 0.0, 10.003076, 9.994176 
1.3503939e+2, 1.949364e+2, -1024690.7, -1092269.4, -10725.587, 0.0036242576, -0.06353019, -1023029.25, 6588.0337, 0.0, 10.003122, 9.99417 
1.3504076e+2, 2.0492978e+2, -938354.5, -1019067.44, -11780.631, 0.0029296156, -0.0565749, -936670.1, -4987.656, 0.0, 10.003153, 9.992463 
1.3504201e+2, 2.1492234e+2, -840159.06, -921015.0, -11875.453, 0.0008989408, -0.048122406, -838451.0, -4694.868, 0.0, 10.003166, 9.992457 
1.3504328e+2, 2.2491416e+2, -751048.56, -841799.6, -11884.865, 0.0005054203, -0.046042982, -749517.94, -13681.546, 0.0, 10.003181, 9.991165 
1.3504457e+2, 2.3490529e+2, -652741.0, -743654.3, -11986.533, 0.0018099843, -0.051540986, -651187.2, -13263.815, 0.0, 10.003201, 9.991162 
1.3504596e+2, 2.4489589e+2, -562138.3, -661299.8, -11296.722, 0.0026292526, -0.05287657, -560867.7, -20852.346, 0.0, 10.003212, 9.990085 
1.3504744e+2, 2.54886e+2, -463990.9, -563173.2, -11242.728, 0.0029419307, -0.050731543, -462732.44, -20620.32, 0.0, 10.003217, 9.990087 
1.3504915e+2, 2.6487532e+2, -376375.06, -487393.47, -9444.647, 0.0025222995, -0.050958537, -375577.3, -31360.674, 0.0, 10.003243, 9.98855 
1.3505107e+2, 2.7486384e+2, -277542.38, -388912.88, -9358.399, 0.0013260376, -0.05479023, -276761.47, -30432.64, 0.0, 10.003294, 9.988553 
1.350534e+2, 2.8485146e+2, -190645.23, -315937.6, -6279.2495, 0.0011205713, -0.060050126, -190331.33, -41881.52, 0.0, 10.003375, 9.986796 
1.3505612e+2, 2.948382e+2, -90862.04, -216989.6, -5996.781, 0.0019678418, -0.068057686, -90577.56, -39997.973, 0.0, 10.003489, 9.9868 
1.3505933e+2, 3.0482763e+2, -2537.1084, -90011.65, -2010.2076, 0.0014825235, -0.06621002, -2490.9373, -2490.9373, 0.0, 10.003648, 9.9920635 
1.3506304e+2, 3.148198e+2, 523.2653, -88432.734, -1733.9797, -0.00046897813, -0.05500257, 557.0522, 557.0522, 0.0, 10.003854, 9.992073 
1.4502507e+2, 1.24957964e+2, -1686912.8, -1721194.6, -1908.6101, 0.0041737286, -0.05390222, -1686806.8, 28600.291, 0.0, 10.00277, 9.998227 
1.4502873e+2, 1.3495626e+2, -1587556.9, -1622662.6, -2453.438, 0.002763945, -0.047874846, -1587386.3, 30037.736, 0.0, 10.002869, 9.998217 
1.4503197e+2, 1.449539e+2, -1496685.0, -1541422.5, -6254.734, 0.0023980865, -0.04526898, -1495827.0, 23620.16, 0.0, 10.002961, 9.997032 
1.4503475e+2, 1.5495093e+2, -1397459.4, -1442900.1, -6507.8247, 0.0033081037, -0.0462961, -1396545.6, 24930.443, 0.0, 10.003048, 9.9970255 
1.4503717e+2, 1.6494724e+2, -1307887.3, -1363835.8, -9480.774, 0.0035401077, -0.052088395, -1306324.4, 17187.553, 0.0, 10.003118, 9.995704 
1.4503922e+2, 1.7494282e+2, -1209156.9, -1265533.9, -9746.236, 0.003074174, -0.06365204, -1207519.5, 18034.959, 0.0, 10.003169, 9.995699 
1.4504102e+2, 1.849377e+2, -1121794.1, -1190368.5, -11914.985, 0.003074117, -0.06698828, -1119782.9, 7821.6045, 0.0, 10.003208, 9.994123 
1.4504255e+2, 1.9493186e+2, -1023419.75, -1092236.9, -12073.225, 0.0035577684, -0.0627593, -1021363.1, 8298.695, 0.0, 10.003234, 9.994118 
1.4504394e+2, 2.049252e+2, -937351.8, -1018968.94, -13273.845, 0.0027570252, -0.055967588, -935247.25, -3519.8174, 0.0, 10.003238, 9.992429 
1.4504519e+2, 2.1491772e+2, -839646.5, -921155.3, -13446.492, 0.0006360098, -0.047318585, -837485.5, -3684.1575, 0.0, 10.003218, 9.992423 
1.4504646e+2, 2.2490953e+2, -751076.56, -842075.7, -13495.516, 0.00036316965, -0.045220267, -749117.3, -13235.385, 0.0, 10.003191, 9.991142 
1.4504775e+2, 2.3490062e+2, -653524.94, -744296.1, -13568.773, 0.0020089897, -0.05089682, -651540.0, -13570.856, 0.0, 10.003158, 9.991139 
1.4504914e+2, 2.4489123e+2, -563319.56, -661733.56, -12892.231, 0.0030320266, -0.052192442, -561658.7, -21597.52, 0.0, 10.003125, 9.990097 
1.450506e+2, 2.5488135e+2, -465708.44, -563861.3, -12845.572, 0.0034050369, -0.049772345, -464055.16, -21897.328, 0.0, 10.003093, 9.990099 
1.4505231e+2, 2.648707e+2, -378599.4, -488225.66, -10882.557, 0.003021699, -0.049863145, -377529.53, -33267.367, 0.0, 10.00308, 9.988571 
1.4505428e+2, 2.7485922e+2, -280367.88, -390035.34, -10780.052, 0.0018336219, -0.053710096, -279318.28, -32944.1, 0.0, 10.00309, 9.988575 
1.4505664e+2, 2.848469e+2, -194048.97, -316825.75, -7531.17, 0.0017521111, -0.05860326, -193588.72, -45094.04, 0.0, 10.003109, 9.986864 
1.4505945e+2, 2.9483372e+2, -95478.12, -218456.84, -7242.0693, 0.0028486673, -0.0658432, -95053.11, -44429.375, 0.0, 10.0031395, 9.986868 
1.4506276e+2, 3.0482325e+2, -8087.023, -91437.125, -2733.6, 0.0016377366, -0.06460119, -7997.4663, -7997.4663, 0.0, 10.003212, 9.992175 
1.450666e+2, 3.1481552e+2, -6299.0264, -90464.44, -2068.5183, -0.0020927235, -0.05545529, -6248.219, -6248.219, 0.0, 10.00333, 9.992186 
1.5502785e+2, 1.24953784e+2, -1687922.1, -1723294.1, -1540.3165, 0.005314695, -0.053273544, -1687855.1, 27592.99, 0.0, 10.002772, 9.998084 
1.5503162e+2, 1.3495193e+2, -1588567.8, -1624764.8, -2084.6624, 0.0035128742, -0.04634274, -1588448.1, 29018.342, 0.0, 10.002871, 9.998073 
1.5503493e+2, 1.4494948e+2, -1497143.9, -1542388.5, -5929.188, 0.0029362005, -0.043658726, -1496379.8, 23110.807, 0.0, 10.002962, 9.996966 
1.550378e+2, 1.5494643e+2, -1397916.5, -1443859.3, -6183.08, 0.0038854135, -0.045189522, -1397099.0, 24421.295, 0.0, 10.003049, 9.99696 
1.550403e+2, 1.6494267e+2, -1308374.4, -1364853.3, -9287.91, 0.0040405313, -0.05092779, -1306886.3, 16670.5, 0.0, 10.003118, 9.995634 
1.550424e+2, 1.749382e+2, -1209642.9, -1266546.3, -9553.955, 0.0033775612, -0.06187315, -1208081.6, 17518.342, 0.0, 10.003169, 9.995629 
1.5504421e+2, 1.84933e+2, -1122081.3, -1190969.1, -11816.888, 0.0030621479, -0.06528943, -1120110.5, 7539.8926, 0.0, 10.003208, 9.994082 
1.5504579e+2, 1.9492714e+2, -1023706.3, -1092834.8, -11975.828, 0.0031106195, -0.06184412, -1021690.44, 8017.839, 0.0, 10.003235, 9.994078 
1.5504718e+2, 2.0492044e+2, -937665.4, -1019620.7, -13351.669, 0.0022711146, -0.055222906, -935545.06, -3770.768, 0.0, 10.003238, 9.992384 
1.550484e+2, 2.1491292e+2, -839964.25, -921812.25, -13525.506, 0.00051865896, -0.04610695, -837787.0, -3938.4182, 0.0, 10.003218, 9.992378 
1.5504965e+2, 2.2490467e+2, -751218.9, -842366.9, -13623.009, 0.00050244445, -0.043966092, -749226.4, -13296.865, 0.0, 10.003191, 9.991122 
1.5505092e+2, 2.3489575e+2, -653668.3, -744585.9, -13696.676, 0.0022912016, -0.05005429, -651649.75, -13632.792, 0.0, 10.003158, 9.991119 
1.5505226e+2, 2.4488635e+2, -563245.8, -661569.7, -13017.052, 0.0033463158, -0.051330116, -561551.7, -21442.695, 0.0, 10.003125, 9.9901085 
1.5505369e+2, 2.548765e+2, -465635.44, -563693.44, -12970.663, 0.0036351446, -0.04843233, -463948.75, -21743.229, 0.0, 10.003093, 9.990111 
1.550554e+2, 2.6486585e+2, -378448.2, -487887.94, -10854.307, 0.003373865, -0.048335057, -377382.06, -33072.36, 0.0, 10.003079, 9.988595 
1.5505737e+2, 2.748544e+2, -280223.13, -389701.13, -10749.777, 0.0025218083, -0.052305326, -279177.6, -32756.09, 0.0, 10.003088, 9.988598 
1.5505975e+2, 2.8484213e+2, -193598.56, -315845.63, -7418.946, 0.0026787315, -0.056775287, -193149.97, -44608.426, 0.0, 10.003107, 9.986932 
1.5506259e+2, 2.94829e+2, -95033.46, -217474.66, -7128.4707, 0.0039141946, -0.06301299, -94619.84, -43950.008, 0.0, 10.003137, 9.986936 
1.5506598e+2, 3.0481863e+2, -7003.205, -89108.39, -2294.5066, 0.002094312, -0.06273838, -6939.133, -6939.133, 0.0, 10.003209, 9.992336 
1.5506993e+2, 3.1481105e+2, -5219.1987, -88120.76, -1623.1676, -0.0030592391, -0.05666552, -5187.43, -5187.43, 0.0, 10.003326, 9.992348 
1.6503088e+2, 1.2494949e+2, -1681435.0, -1721672.1, -2148.3604, 0.0062672826, -0.05155329, -1681320.6, 34169.598, 0.0, 10.00328, 9.997947 
1.6503471e+2, 1.3494751e+2, -1583104.9, -1623645.6, -2649.3555, 0.0044337236, -0.04505124, -1582932.5, 34577.504, 0.0, 10.003308, 9.997935 
1.6503808e+2, 1.4494494e+2, -1492340.1, -1541006.5, -6589.3696, 0.0037095284, -0.042490046, -1491463.6, 28071.557, 0.0, 10.00333, 9.996881 
1.65041e+2, 1.5494181e+2, -1394155.3, -1442981.9, -6986.572, 0.004464446, -0.04358333, -1393175.3, 28390.443, 0.0, 10.003346, 9.996875 
1.6504353e+2, 1.6493797e+2, -1305375.9, -1364142.4, -10245.628, 0.004322869, -0.049290016, -1303640.8, 19962.105, 0.0, 10.003354, 9.995567 
1.6504565e+2, 1.7493342e+2, -1207382.3, -1266192.0, -10491.214, 0.0032565584, -0.060628068, -1205566.8, 20080.006, 0.0, 10.003356, 9.995563 
1.650475e+2, 1.849282e+2, -1120252.4, -1190584.4, -12811.633, 0.0026713696, -0.06411307, -1117991.3, 9706.526, 0.0, 10.003355, 9.994038 
1.6504908e+2, 1.9492227e+2, -1022303.2, -1092656.6, -12999.815, 0.0025890549, -0.060388803, -1019977.94, 9778.098, 0.0, 10.003352, 9.994032 
1.6505046e+2, 2.0491552e+2, -936737.5, -1019605.0, -14569.012, 0.0019434985, -0.053709853, -934250.75, -2428.2493, 0.0, 10.00332, 9.992346 
1.6505165e+2, 2.1490796e+2, -839653.56, -922099.56, -14701.67, 0.0007199137, -0.04476048, -837110.44, -3213.207, 0.0, 10.003258, 9.992339 
1.6505285e+2, 2.2489971e+2, -751374.2, -842680.1, -14825.405, 0.00081992836, -0.04281534, -749027.3, -13048.887, 0.0, 10.003191, 9.991101 
1.6505405e+2, 2.3489074e+2, -654393.25, -745173.8, -14910.224, 0.0022974433, -0.049142815, -652007.06, -13940.942, 0.0, 10.0031185, 9.991098 
1.6505535e+2, 2.4488135e+2, -564348.25, -661957.9, -14240.197, 0.0032889575, -0.050197683, -562313.2, -22155.04, 0.0, 10.003043, 9.990121 
1.6505674e+2, 2.5487152e+2, -467403.25, -564398.0, -14182.142, 0.0037726318, -0.04659034, -465372.13, -23117.602, 0.0, 10.002965, 9.990125 
1.6505839e+2, 2.648609e+2, -380937.34, -488756.78, -11928.788, 0.0039524096, -0.046362873, -379633.34, -35274.89, 0.0, 10.002894, 9.988625 
1.6506033e+2, 2.7484947e+2, -283725.0, -391058.16, -11776.011, 0.0037993174, -0.05082127, -282448.2, -35978.176, 0.0, 10.002833, 9.988628 
1.6506271e+2, 2.8483725e+2, -197870.31, -317059.72, -8333.177, 0.004081769, -0.055217154, -197290.52, -48700.957, 0.0, 10.002777, 9.987007 
1.6506554e+2, 2.948242e+2, -100477.57, -219247.63, -7984.489, 0.004835716, -0.060782664, -99943.2, -49226.133, 0.0, 10.002727, 9.987012 
1.6506892e+2, 3.0481395e+2, -13186.542, -90114.97, -2814.1091, 0.0023067147, -0.06057039, -13083.737, -13083.737, 0.0, 10.002699, 9.992513 
1.6507292e+2, 3.1480655e+2, -13125.79, -89938.555, -2026.1029, -0.0038101843, -0.05534511, -13072.385, -13072.385, 0.0, 10.002697, 9.992526 
1.7503418e+2, 1.24945104e+2, -1682357.1, -1723597.9, -2041.6772, 0.0070267976, -0.048798226, -1682256.3, 33277.164, 0.0, 10.003282, 9.997815 
1.7503802e+2, 1.3494298e+2, -1584028.8, -1625573.5, -2541.8674, 0.0055228597, -0.043996952, -1583873.8, 33680.81, 0.0, 10.00331, 9.997804 
1.7504142e+2, 1.4494027e+2, -1493069.1, -1542531.8, -6531.207, 0.0047142124, -0.04175942, -1492221.3, 27359.701, 0.0, 10.003332, 9.996777 
1.7504436e+2, 1.5493706e+2, -1394884.0, -1444504.8, -6928.7915, 0.0050448747, -0.04148832, -1393934.8, 27677.633, 0.0, 10.003347, 9.996771 
1.7504689e+2, 1.6493313e+2, -1305817.8, -1365072.8, -10241.646, 0.0043904455, -0.047183327, -1304097.5, 19552.86, 0.0, 10.003355, 9.995503 
1.75049e+2, 1.7492853e+2, -1207826.0, -1267124.0, -10487.244, 0.0027182628, -0.05990772, -1206025.9, 19669.094, 0.0, 10.003356, 9.995499 
1.7505085e+2, 1.8492323e+2, -1120589.3, -1191292.3, -12821.3955, 0.0019076092, -0.06345285, -1118336.0, 9410.579, 0.0, 10.003355, 9.993989 
1.7505243e+2, 1.9491726e+2, -1022644.7, -1093368.3, -13010.111, 0.001993351, -0.058406774, -1020327.3, 9477.897, 0.0, 10.003352, 9.993983 
1.7505378e+2, 2.0491049e+2, -936971.3, -1020090.8, -14803.025, 0.0017699879, -0.051444054, -934413.7, -2541.6545, 0.0, 10.003321, 9.992312 
1.7505492e+2, 2.149029e+2, -839890.44, -922589.1, -14937.375, 0.0012320051, -0.04328221, -837275.06, -3327.9565, 0.0, 10.003258, 9.992306 
1.7505604e+2, 2.248946e+2, -751536.3, -843011.94, -15097.875, 0.0013114337, -0.041767284, -749108.9, -13080.225, 0.0, 10.003191, 9.991078 
1.7505717e+2, 2.3488562e+2, -654558.0, -745506.44, -15182.71, 0.0020330786, -0.04816529, -652090.4, -13973.807, 0.0, 10.0031185, 9.9910755 
1.7505838e+2, 2.448762e+2, -564254.8, -661750.1, -14535.18, 0.0028663652, -0.048802365, -562134.0, -21925.334, 0.0, 10.003042, 9.990136 
1.7505969e+2, 2.548664e+2, -467311.6, -564185.2, -14477.897, 0.0038178456, -0.044258703, -465194.13, -22889.357, 0.0, 10.002964, 9.99014 
1.750613e+2, 2.648558e+2, -380703.7, -488240.0, -12160.354, 0.004750287, -0.04395698, -379345.72, -34937.242, 0.0, 10.002893, 9.988661 
1.750632e+2, 2.748444e+2, -283497.72, -390543.66, -12005.554, 0.005650286, -0.04926011, -282167.78, -35648.023, 0.0, 10.002831, 9.988665 
1.750655e+2, 2.8483224e+2, -197316.98, -315858.53, -8523.628, 0.005948772, -0.05392272, -196707.23, -48068.492, 0.0, 10.002775, 9.98709 
1.7506827e+2, 2.948193e+2, -99926.695, -218041.8, -8175.2856, 0.005615778, -0.059137356, -99363.53, -48598.086, 0.0, 10.002724, 9.987096 
1.7507163e+2, 3.048092e+2, -11893.902, -87353.984, -2825.8792, 0.002278721, -0.05810894, -11788.226, -11788.226, 0.0, 10.002696, 9.992703 
1.7507562e+2, 3.14802e+2, -11831.462, -87154.71, -2037.939, -0.0043548844, -0.051568728, -11776.363, -11776.363, 0.0, 10.002693, 9.992719 
1.8503773e+2, 1.2494062e+2, -1675461.0, -1721563.0, -2808.2034, 0.007960143, -0.046658378, -1675290.5, 40287.066, 0.0, 10.003807, 9.997697 
1.8504158e+2, 1.3493836e+2, -1578283.0, -1624101.8, -3210.422, 0.006971063, -0.04227496, -1578059.1, 39540.777, 0.0, 10.003758, 9.997685 
1.8504497e+2, 1.4493555e+2, -1488214.5, -1541364.4, -7163.6797, 0.0060655335, -0.04044926, -1487265.9, 32361.62, 0.0, 10.003714, 9.99667 
1.8504788e+2, 1.5493222e+2, -1390824.1, -1443721.8, -7579.8145, 0.0057585686, -0.04031562, -1389759.4, 31900.477, 0.0, 10.003675, 9.996664 
1.8505038e+2, 1.6492823e+2, -1302114.6, -1363896.0, -10905.166, 0.0044862144, -0.04607232, -1300246.3, 23452.479, 0.0, 10.003634, 9.995448 
1.8505247e+2, 1.7492355e+2, -1204759.9, -1266254.6, -11088.962, 0.0022142346, -0.058793034, -1202821.4, 22922.502, 0.0, 10.0035925, 9.995443 
1.8505429e+2, 1.849182e+2, -1118331.6, -1190860.4, -13482.734, 0.001250416, -0.062220026, -1115906.4, 11889.677, 0.0, 10.003538, 9.99393 
1.8505584e+2, 1.9491218e+2, -1021315.06, -1093390.0, -13752.907, 0.0016471891, -0.056919675, -1018780.0, 11075.209, 0.0, 10.003472, 9.993924 
1.8505713e+2, 2.0490536e+2, -936083.7, -1019912.2, -15712.627, 0.0017568468, -0.04973323, -933235.4, -1312.948, 0.0, 10.003392, 9.99229 
1.8505819e+2, 2.1489774e+2, -839479.75, -922641.7, -15767.537, 0.0015753458, -0.041376743, -836590.6, -2592.9006, 0.0, 10.003297, 9.992283 
1.8505923e+2, 2.2488941e+2, -751623.8, -843207.9, -15913.786, 0.0016752327, -0.04014322, -748937.4, -12857.984, 0.0, 10.003191, 9.991065 
1.8506028e+2, 2.3488042e+2, -655293.56, -746016.5, -15933.828, 0.0020649503, -0.047333084, -652576.5, -14408.946, 0.0, 10.003075, 9.991062 
1.8506138e+2, 2.4487102e+2, -565629.06, -662313.56, -15336.127, 0.0028448591, -0.047729786, -563254.75, -22995.11, 0.0, 10.002944, 9.990145 
1.8506257e+2, 2.5486124e+2, -469641.66, -565206.4, -15321.118, 0.004036686, -0.041851435, -467245.44, -24889.832, 0.0, 10.0028, 9.990149 
1.8506408e+2, 2.6485068e+2, -383668.06, -489013.38, -12883.995, 0.005421183, -0.041404653, -382115.2, -37656.242, 0.0, 10.002662, 9.98872 
1.8506588e+2, 2.748393e+2, -287465.84, -391795.5, -12556.066, 0.006997931, -0.047834486, -285976.0, -39406.28, 0.0, 10.002531, 9.988724 
1.8506812e+2, 2.8482723e+2, -202076.42, -317402.4, -8962.943, 0.007340204, -0.052763913, -201384.0, -52695.87, 0.0, 10.002417, 9.987158 
1.850708e+2, 2.9481435e+2, -105360.89, -219910.81, -8736.34, 0.006374737, -0.05732418, -104698.43, -53884.273, 0.0, 10.002318, 9.987163 
1.8507408e+2, 3.0480438e+2, -17838.318, -88716.46, -3557.139, 0.002131528, -0.05499418, -17660.244, -17660.244, 0.0, 10.002223, 9.992838 
1.8507802e+2, 3.147973e+2, -19086.229, -89135.586, -3191.4294, -0.0057093217, -0.046449516, -18941.129, -18941.129, 0.0, 10.00213, 9.992854 
1.9504155e+2, 1.2493603e+2, -1676194.4, -1723104.4, -2993.13, 0.009060248, -0.045167755, -1676004.1, 39618.58, 0.0, 10.003809, 9.997592 
1.9504537e+2, 1.3493367e+2, -1579015.4, -1625642.1, -3395.8313, 0.008771639, -0.03989858, -1578769.4, 38876.637, 0.0, 10.003759, 9.99758 
1.9504869e+2, 1.4493075e+2, -1488972.5, -1542956.3, -7309.2017, 0.007757025, -0.038568508, -1488000.4, 31674.219, 0.0, 10.0037155, 9.996561 
1.9505157e+2, 1.5492731e+2, -1391580.6, -1445308.4, -7723.854, 0.0066027967, -0.040047564, -1390492.3, 31215.918, 0.0, 10.003676, 9.996556 
1.9505401e+2, 1.6492322e+2, -1302439.4, -1364590.3, -11063.081, 0.004609153, -0.045941174, -1300528.9, 23218.977, 0.0, 10.003635, 9.9954 
1.9505607e+2, 1.749185e+2, -1205083.9, -1266941.6, -11247.914, 0.0017433758, -0.05729559, -1203102.0, 22691.295, 0.0, 10.003593, 9.995397 
1.9505782e+2, 1.849131e+2, -1118819.9, -1191880.5, -13729.618, 0.0006969539, -0.060426746, -1116325.0, 11521.105, 0.0, 10.003539, 9.99386 
1.9505931e+2, 1.9490701e+2, -1021808.94, -1094416.8, -13998.97, 0.0015444563, -0.055916935, -1019203.44, 10702.601, 0.0, 10.003472, 9.9938545 
1.9506054e+2, 2.0490016e+2, -936166.9, -1020087.5, -16066.657, 0.0019001772, -0.048568457, -933196.06, -1222.4381, 0.0, 10.003392, 9.992278 
1.9506149e+2, 2.1489254e+2, -839562.7, -922813.5, -16123.692, 0.0017528908, -0.03905747, -836549.0, -2500.0574, 0.0, 10.003297, 9.992271 
1.9506243e+2, 2.248842e+2, -751663.1, -843283.06, -16350.855, 0.0019122143, -0.037957348, -748832.5, -12701.775, 0.0, 10.003191, 9.99106 
1.9506334e+2, 2.3487519e+2, -655340.25, -746095.9, -16370.686, 0.0023843963, -0.04664333, -652477.56, -14258.545, 0.0, 10.003074, 9.991057 
1.9506434e+2, 2.4486579e+2, -565617.6, -662265.0, -15875.092, 0.0032140932, -0.046974733, -563076.8, -22765.652, 0.0, 10.002943, 9.990149 
1.9506538e+2, 2.5485602e+2, -469631.88, -565156.2, -15861.615, 0.004423839, -0.039373048, -467066.94, -24660.006, 0.0, 10.002799, 9.990153 
1.9506674e+2, 2.648455e+2, -383117.97, -487837.38, -13374.098, 0.0059670126, -0.038710956, -381436.9, -36927.01, 0.0, 10.002661, 9.988801 
1.9506842e+2, 2.7483422e+2, -286914.4, -390608.7, -13045.17, 0.007853404, -0.046542235, -285298.47, -38678.508, 0.0, 10.002529, 9.988806 
1.9507053e+2, 2.8482217e+2, -201744.14, -316660.22, -9328.569, 0.008265464, -0.051739223, -200991.81, -52254.07, 0.0, 10.002415, 9.987209 
1.9507311e+2, 2.9480937e+2, -105041.734, -219183.6, -9099.876, 0.0071100355, -0.05534957, -104320.805, -53457.582, 0.0, 10.002316, 9.987214 
1.9507632e+2, 3.0479947e+2, -17327.814, -87582.79, -3905.1052, 0.0018669985, -0.05124711, -17111.416, -17111.416, 0.0, 10.00222, 9.992917 
1.9508013e+2, 3.147925e+2, -18576.352, -87996.97, -3539.6882, -0.007851051, -0.04002994, -18396.334, -18396.334, 0.0, 10.002127, 9.992934 
2.0504564e+2, 1.2493141e+2, -1669494.3, -1721240.9, -3323.9578, 0.010888777, -0.044932205, -1669281.6, 46386.438, 0.0, 10.004325, 9.997467 
2.0504938e+2, 1.3492894e+2, -1572951.3, -1624092.0, -3873.4985, 0.010376968, -0.03831719, -1572659.5, 45032.863, 0.0, 10.004233, 9.997455 
2.0505263e+2, 1.4492592e+2, -1483361.9, -1541200.8, -7765.871, 0.008984094, -0.03722958, -1482337.3, 37384.81, 0.0, 10.00414, 9.996473 
2.0505543e+2, 1.5492237e+2, -1386787.6, -1443950.3, -8017.7344, 0.0073889415, -0.04030478, -1385684.4, 36072.297, 0.0, 10.0040455, 9.9964695 
2.0505781e+2, 1.6491821e+2, -1298450.0, -1363474.3, -11406.242, 0.0050783153, -0.04596485, -1296507.1, 27289.879, 0.0, 10.003943, 9.995327 
2.0505978e+2, 1.7491344e+2, -1202077.6, -1266306.8, -11786.848, 0.0020215001, -0.055207275, -1199982.9, 25860.273, 0.0, 10.003834, 9.995323 
2.0506145e+2, 1.8490799e+2, -1116468.1, -1191170.4, -14321.621, 0.000788655, -0.058167435, -1113816.6, 14079.775, 0.0, 10.003717, 9.993822 
2.0506284e+2, 1.9490184e+2, -1020284.4, -1094110.5, -14358.583, 0.0014597798, -0.055482518, -1017590.06, 12366.7705, 0.0, 10.003595, 9.993815 
2.0506397e+2, 2.0489495e+2, -935234.0, -1019948.94, -16433.951, 0.0018318819, -0.048286624, -932157.7, -132.88013, 0.0, 10.003469, 9.9922495 
2.050648e+2, 2.1488729e+2, -839135.0, -922922.6, -16614.275, 0.0019022394, -0.037179552, -835960.8, -1860.5347, 0.0, 10.00334, 9.992244 
2.0506561e+2, 2.2487898e+2, -751747.6, -843089.94, -16985.066, 0.0022776905, -0.035707045, -748691.56, -12509.439, 0.0, 10.003175, 9.99108 
2.0506638e+2, 2.3486997e+2, -656656.6, -746494.6, -16812.33, 0.0029617955, -0.04532502, -653613.5, -15343.242, 0.0, 10.002974, 9.991078 
2.050672e+2, 2.4486057e+2, -567967.25, -663353.56, -16233.147, 0.0037145768, -0.046012968, -565280.3, -24918.063, 0.0, 10.002781, 9.990153 
2.0506808e+2, 2.548508e+2, -472557.44, -566524.44, -16219.185, 0.004544151, -0.03813974, -469836.7, -27378.688, 0.0, 10.002597, 9.990157 
2.0506927e+2, 2.6484036e+2, -386108.7, -488364.84, -13688.386, 0.005896787, -0.037038084, -384308.03, -39747.508, 0.0, 10.002417, 9.988883 
2.0507082e+2, 2.7482915e+2, -290551.72, -391436.16, -13352.397, 0.007796558, -0.044271838, -288814.4, -42144.676, 0.0, 10.00224, 9.988889 
2.0507279e+2, 2.848172e+2, -206383.95, -318340.1, -9547.441, 0.008499888, -0.049272124, -205575.61, -56788.76, 0.0, 10.002072, 9.98726 
2.0507523e+2, 2.9480442e+2, -110579.48, -221305.13, -9331.747, 0.007931499, -0.053110737, -109798.52, -58886.656, 0.0, 10.001912, 9.987264 
2.050783e+2, 3.0479458e+2, -23333.396, -89751.9, -4096.7183, 0.0021035378, -0.0490857, -23081.664, -23081.664, 0.0, 10.001777, 9.992982 
2.05082e+2, 3.147877e+2, -24827.563, -90282.84, -3838.4248, -0.009471448, -0.037773166, -24603.238, -24603.238, 0.0, 10.001666, 9.992999 
2.1504998e+2, 1.2492678e+2, -1670502.3, -1723353.3, -3666.7576, 0.013428801, -0.045971096, -1670249.1, 45464.332, 0.0, 10.004327, 9.997322 
2.1505362e+2, 1.3492417e+2, -1573956.4, -1626203.9, -4216.532, 0.011790865, -0.037517272, -1573618.3, 44120.79, 0.0, 10.004235, 9.997311 
2.1505678e+2, 1.4492105e+2, -1483804.4, -1542156.5, -8117.748, 0.009754474, -0.036422137, -1482696.1, 37073.73, 0.0, 10.004142, 9.9964075 
2.1505947e+2, 1.5491742e+2, -1387229.8, -1444899.6, -8369.383, 0.008117071, -0.041076504, -1386039.6, 35765.5, 0.0, 10.004047, 9.996404 
2.1506177e+2, 1.6491318e+2, -1299135.1, -1364916.9, -11814.446, 0.0058850697, -0.04614165, -1297077.6, 26768.736, 0.0, 10.003944, 9.995228 
2.1506363e+2, 1.7490835e+2, -1202771.6, -1267759.8, -12195.653, 0.0030304906, -0.05254412, -1200558.4, 25334.771, 0.0, 10.003835, 9.995223 
2.1506518e+2, 1.8490285e+2, -1116517.8, -1191288.4, -14778.785, 0.0015108226, -0.0554533, -1113702.6, 14244.356, 0.0, 10.003718, 9.9938135 
2.1506643e+2, 1.9489665e+2, -1020335.1, -1094225.8, -14814.895, 0.001393152, -0.055602938, -1017475.44, 12532.277, 0.0, 10.003596, 9.993808 
2.1506743e+2, 2.0488973e+2, -935540.7, -1020585.6, -16915.465, 0.0015561293, -0.04886867, -932299.7, -223.7405, 0.0, 10.003469, 9.992207 
2.1506815e+2, 2.1488206e+2, -839452.44, -923573.56, -17096.002, 0.0020226217, -0.03573502, -836110.75, -1958.9939, 0.0, 10.00334, 9.992199 
2.150688e+2, 2.2487375e+2, -751429.06, -842419.3, -17735.715, 0.0027668583, -0.03339733, -748094.25, -11860.748, 0.0, 10.003175, 9.991127 
2.1506935e+2, 2.3486479e+2, -656336.75, -745812.44, -17566.936, 0.0037889464, -0.043397527, -653011.4, -14690.202, 0.0, 10.002973, 9.991125 
2.1506998e+2, 2.448554e+2, -567949.8, -663289.44, -16921.021, 0.0043419423, -0.044849932, -565035.75, -24622.738, 0.0, 10.002779, 9.990158 
2.1507068e+2, 2.5484565e+2, -472548.5, -566471.1, -16904.746, 0.0044035204, -0.038119312, -469598.53, -27089.7, 0.0, 10.002595, 9.990162 
2.150717e+2, 2.6483524e+2, -385551.63, -487167.88, -14344.389, 0.0052254456, -0.03636459, -383565.56, -38954.684, 0.0, 10.002415, 9.988965 
2.1507305e+2, 2.7482417e+2, -289993.3, -390226.34, -14009.373, 0.006850504, -0.04105566, -288072.1, -41352.996, 0.0, 10.002238, 9.988973 
2.1507487e+2, 2.8481224e+2, -206083.45, -317653.1, -10142.322, 0.008059172, -0.04540392, -205168.95, -56333.48, 0.0, 10.002069, 9.987308 
2.1507716e+2, 2.947995e+2, -110295.69, -220637.53, -9921.748, 0.008832445, -0.05061661, -109410.64, -58450.516, 0.0, 10.001909, 9.98731 
2.150801e+2, 3.047897e+2, -23034.256, -89037.86, -4501.233, 0.0028223896, -0.048461232, -22728.7, -22728.7, 0.0, 10.001773, 9.993032 
2.1508364e+2, 3.1478283e+2, -24538.648, -89575.67, -4233.9634, -0.010592502, -0.039542496, -24264.172, -24264.172, 0.0, 10.001661, 9.99305 
2.250546e+2, 1.2492224e+2, -1663378.3, -1721578.0, -3364.3054, 0.015377811, -0.04657545, -1663184.4, 52573.426, 0.0, 10.004886, 9.997171 
2.2505814e+2, 1.349195e+2, -1567040.4, -1624537.3, -3970.2913, 0.012953199, -0.03830191, -1566767.5, 51017.492, 0.0, 10.00478, 9.997159 
2.250612e+2, 1.4491625e+2, -1477037.3, -1539772.9, -8082.9844, 0.010531335, -0.03687763, -1476012.6, 43804.32, 0.0, 10.004642, 9.996326 
2.2506376e+2, 1.5491255e+2, -1381575.8, -1443055.3, -8449.469, 0.009039218, -0.040373784, -1380435.6, 41417.33, 0.0, 10.004472, 9.996323 
2.2506589e+2, 1.6490822e+2, -1294853.3, -1364052.9, -12061.076, 0.006854798, -0.044955418, -1292811.3, 31083.732, 0.0, 10.00429, 9.995119 
2.250676e+2, 1.7490327e+2, -1199729.3, -1267507.0, -12517.314, 0.003945237, -0.051574975, -1197491.4, 28451.598, 0.0, 10.004095, 9.995114 
2.25069e+2, 1.8489772e+2, -1113623.1, -1189758.0, -15054.972, 0.0020021573, -0.05457067, -1110754.3, 17243.0, 0.0, 10.003911, 9.993824 
2.250701e+2, 1.9489154e+2, -1018203.44, -1093058.1, -14944.314, 0.0010817804, -0.054664027, -1015330.2, 14727.717, 0.0, 10.003736, 9.993819 
2.2507094e+2, 2.048846e+2, -934638.06, -1020576.06, -17006.176, 0.001219001, -0.04814788, -931395.1, 731.1936, 0.0, 10.00355, 9.992168 
2.250715e+2, 2.1487689e+2, -839540.75, -924056.6, -17150.59, 0.002473249, -0.03550558, -836193.06, -1990.5112, 0.0, 10.003353, 9.99216 
2.2507195e+2, 2.248686e+2, -751911.6, -842194.4, -18053.604, 0.0033247715, -0.032657724, -748435.4, -12151.121, 0.0, 10.003122, 9.991168 
2.2507226e+2, 2.3485968e+2, -657755.94, -746030.56, -17927.178, 0.0037380909, -0.04112139, -654254.1, -15882.759, 0.0, 10.002855, 9.991167 
2.2507267e+2, 2.4485034e+2, -570258.9, -664021.25, -17099.318, 0.003990109, -0.04288227, -567237.8, -26774.98, 0.0, 10.0026045, 9.990192 
2.2507314e+2, 2.5484058e+2, -475582.6, -567555.1, -16861.426, 0.0040743877, -0.038394183, -472588.84, -30030.307, 0.0, 10.002371, 9.990196 
2.2507396e+2, 2.648302e+2, -389229.3, -488366.38, -14283.848, 0.0047877664, -0.036387775, -387212.3, -42552.164, 0.0, 10.002138, 9.9890175 
2.2507511e+2, 2.7481923e+2, -294481.78, -391813.72, -14184.647, 0.006167674, -0.038177796, -292456.72, -45689.08, 0.0, 10.001905, 9.989024 
2.2507672e+2, 2.848074e+2, -211131.05, -318901.16, -10202.264, 0.007543366, -0.041850608, -210173.73, -61290.535, 0.0, 10.001673, 9.987414 
2.2507884e+2, 2.9479474e+2, -116415.86, -222394.17, -9542.704, 0.008927473, -0.048785597, -115563.45, -64556.563, 0.0, 10.001438, 9.987417 
2.2508161e+2, 3.0478504e+2, -29986.723, -91070.016, -3432.5752, 0.0040423875, -0.049013343, -29794.434, -29794.434, 0.0, 10.001239, 9.993151 
2.2508505e+2, 3.1477827e+2, -32226.627, -91962.15, -2666.9937, -0.0076904786, -0.043188203, -32107.791, -32107.791, 0.0, 10.001077, 9.993168 
2.3505951e+2, 1.2491779e+2, -1664477.5, -1723895.9, -3755.8362, 0.016741123, -0.046760898, -1664241.0, 51560.383, 0.0, 10.004888, 9.997012 
2.3506293e+2, 1.3491488e+2, -1568144.3, -1626863.0, -4361.0415, 0.013868242, -0.040632956, -1567822.1, 50008.184, 0.0, 10.004783, 9.997 
2.3506583e+2, 1.449115e+2, -1477691.5, -1541170.6, -8715.668, 0.011313705, -0.038570035, -1476516.5, 43346.883, 0.0, 10.004644, 9.99623 
2.3506823e+2, 1.5490775e+2, -1382230.1, -1444447.5, -9085.321, 0.01014988, -0.038235694, -1380930.5, 40969.555, 0.0, 10.004474, 9.996227 
2.3507018e+2, 1.649033e+2, -1295674.9, -1365783.3, -12784.241, 0.007983343, -0.042436216, -1293416.4, 30526.773, 0.0, 10.004292, 9.995001 
2.350717e+2, 1.7489822e+2, -1200556.8, -1269243.6, -13237.868, 0.0047681723, -0.052252363, -1198093.8, 27898.846, 0.0, 10.004097, 9.994995 
2.3507291e+2, 1.8489261e+2, -1113397.3, -1189313.8, -15704.945, 0.0022683598, -0.05547655, -1110276.6, 17770.83, 0.0, 10.003912, 9.9938545 
2.3507382e+2, 1.9488649e+2, -1017976.5, -1092598.4, -15595.798, 0.00053169637, -0.052700687, -1014848.1, 15259.29, 0.0, 10.0037365, 9.993851 
2.3507448e+2, 2.0487957e+2, -934875.44, -1021062.44, -17739.727, 0.00082068256, -0.046158336, -931366.94, 808.88165, 0.0, 10.00355, 9.992135 
2.3507486e+2, 2.1487178e+2, -839793.56, -924564.4, -17882.78, 0.0032431493, -0.036456168, -836175.56, -1922.8873, 0.0, 10.003352, 9.9921255 
2.3507507e+2, 2.2486348e+2, -751668.9, -841673.1, -19043.482, 0.00394945, -0.03345002, -747805.44, -11471.084, 0.0, 10.003121, 9.991203 
2.3507512e+2, 2.3485464e+2, -657507.75, -745497.0, -18922.49, 0.0028336956, -0.038512327, -653611.0, -15190.14, 0.0, 10.002854, 9.991204 
2.3507525e+2, 2.4484535e+2, -569830.44, -663106.8, -17973.174, 0.0026837864, -0.040134225, -566487.1, -25975.283, 0.0, 10.002604, 9.990255 
2.3507552e+2, 2.5483564e+2, -475161.9, -566641.9, -17732.268, 0.0035590786, -0.038957343, -471845.0, -29237.863, 0.0, 10.002369, 9.990259 
2.350761e+2, 2.6482528e+2, -389109.97, -488065.06, -15147.445, 0.0045748893, -0.03709124, -386843.22, -42134.85, 0.0, 10.002135, 9.989038 
2.3507701e+2, 2.7481437e+2, -294375.06, -391528.16, -15047.29, 0.005737895, -0.03563273, -292097.88, -45282.45, 0.0, 10.001903, 9.989045 
2.3507838e+2, 2.8480265e+2, -210036.08, -316554.3, -11071.867, 0.006952623, -0.03860627, -208897.4, -59967.35, 0.0, 10.001669, 9.9875765 
2.3508027e+2, 2.9479012e+2, -115312.61, -220017.42, -10411.686, 0.0082383165, -0.047600467, -114287.33, -63235.094, 0.0, 10.001434, 9.987582 
2.3508285e+2, 3.0478054e+2, -28771.742, -88439.11, -4032.4075, 0.0057387836, -0.05070671, -28500.46, -28500.46, 0.0, 10.001234, 9.993334 
2.350862e+2, 3.1477392e+2, -31031.996, -89339.85, -3259.2646, -0.00090871006, -0.048650216, -30850.377, -30850.377, 0.0, 10.001071, 9.99335 
2.4506475e+2, 1.249135e+2, -1655637.0, -1721176.0, -3260.324, 0.017405862, -0.046012677, -1655475.3, 60368.254, 0.0, 10.005558, 9.996871 
2.4506803e+2, 1.349104e+2, -1560376.1, -1624673.6, -3742.9114, 0.0151533885, -0.04218348, -1560159.0, 57715.07, 0.0, 10.00538, 9.996858 
2.4507076e+2, 1.4490691e+2, -1470962.8, -1539411.0, -8426.602, 0.012813877, -0.03954193, -1469940.6, 49967.863, 0.0, 10.005168, 9.996096 
2.4507295e+2, 1.5490304e+2, -1376612.8, -1443228.8, -9090.869, 0.011585911, -0.035329755, -1375394.4, 46551.78, 0.0, 10.004922, 9.996092 
2.4507469e+2, 1.6489851e+2, -1290653.3, -1364125.4, -12834.643, 0.009215423, -0.039789136, -1288475.8, 35514.605, 0.0, 10.004667, 9.994931 
2.4507596e+2, 1.748933e+2, -1196538.0, -1268066.8, -12923.896, 0.0056498204, -0.054174453, -1194274.5, 31766.213, 0.0, 10.004404, 9.994926 
2.4507694e+2, 1.8488765e+2, -1110236.0, -1188000.1, -15371.16, 0.0028249882, -0.05755697, -1107307.9, 20788.064, 0.0, 10.004137, 9.9938345 
2.4507762e+2, 1.9488156e+2, -1016232.2, -1091967.8, -15634.506, 0.0007910154, -0.050321817, -1013131.56, 17024.248, 0.0, 10.003864, 9.993832 
2.4507804e+2, 2.0487462e+2, -934227.75, -1020653.7, -17864.79, 0.0011607211, -0.043284066, -930680.56, 1543.6411, 0.0, 10.00359, 9.992144 
2.450782e+2, 2.1486682e+2, -840308.06, -924721.3, -17695.154, 0.004064478, -0.03724116, -836748.8, -2447.5098, 0.0, 10.003313, 9.992134 
2.4507816e+2, 2.2485852e+2, -752883.6, -842088.8, -18920.285, 0.004359759, -0.034839924, -749036.56, -12653.684, 0.0, 10.003031, 9.9912195 
2.450779e+2, 2.3484974e+2, -659042.8, -746067.1, -18960.229, 0.0018895798, -0.037294842, -655091.3, -16622.254, 0.0, 10.002743, 9.9912195 
2.4507777e+2, 2.448405e+2, -571701.9, -663078.8, -18029.488, 0.0014126991, -0.038238883, -568273.1, -27713.635, 0.0, 10.002436, 9.990339 
2.4507776e+2, 2.5483084e+2, -478368.34, -567248.94, -17634.906, 0.0030533576, -0.038435943, -474997.22, -32343.15, 0.0, 10.002109, 9.990343 
2.4507806e+2, 2.6482055e+2, -393807.94, -489976.84, -14869.574, 0.004348192, -0.037145466, -391561.3, -46806.52, 0.0, 10.001799, 9.989071 
2.450787e+2, 2.7480966e+2, -299970.75, -393885.06, -14694.136, 0.0052692625, -0.03539974, -297725.34, -50863.78, 0.0, 10.001505, 9.989077 
2.4507982e+2, 2.8479803e+2, -215496.23, -317312.44, -10651.475, 0.0061090975, -0.03800049, -214393.86, -65418.668, 0.0, 10.001214, 9.987743 
2.4508144e+2, 2.947857e+2, -121513.76, -221104.44, -9950.898, 0.0068769543, -0.04654079, -120529.22, -69433.555, 0.0, 10.000927, 9.987752 
2.450838e+2, 3.047763e+2, -36216.492, -89868.36, -3424.1948, 0.0069915, -0.049729563, -35998.832, -35998.832, 0.0, 10.000629, 9.993526 
2.4508695e+2, 3.1476986e+2, -40592.05, -91785.92, -2573.0913, 0.006377743, -0.048336886, -40463.047, -40463.047, 0.0, 10.000321, 9.993544 
2.550703e+2, 1.2490935e+2, -1656483.6, -1722994.5, -3919.8599, 0.017378328, -0.044405863, -1656253.4, 59630.9, 0.0, 10.005562, 9.996745 
2.5507343e+2, 1.3490611e+2, -1561233.1, -1626503.4, -4403.509, 0.01679688, -0.04297075, -1560937.4, 56978.867, 0.0, 10.0053835, 9.996732 
2.5507593e+2, 1.4490247e+2, -1472164.8, -1541941.6, -9341.124, 0.015012738, -0.03981048, -1470935.9, 49016.184, 0.0, 10.005171, 9.995922 
2.5507787e+2, 1.5489846e+2, -1377819.6, -1445763.9, -10006.504, 0.0133384215, -0.031677157, -1376376.5, 45614.684, 0.0, 10.004924, 9.995918 
2.5507936e+2, 1.6489384e+2, -1290787.4, -1364446.3, -13811.211, 0.010547923, -0.037015997, -1288283.0, 35753.42, 0.0, 10.004669, 9.994908 
2.5508037e+2, 1.7488854e+2, -1196665.8, -1268366.4, -13898.308, 0.0065883943, -0.05730331, -1194066.0, 32021.496, 0.0, 10.004406, 9.994905 
2.550811e+2, 1.8488285e+2, -1110703.3, -1188987.6, -16382.099, 0.0036624144, -0.060780097, -1107413.3, 20729.818, 0.0, 10.004138, 9.993767 
2.550815e+2, 1.9487675e+2, -1016712.5, -1092967.0, -16647.395, 0.0018342016, -0.047543492, -1013236.56, 16966.602, 0.0, 10.003865, 9.993763 
2.5508165e+2, 2.0486979e+2, -933885.4, -1019943.2, -18894.334, 0.002216936, -0.039552577, -929919.8, 2351.8037, 0.0, 10.00359, 9.992192 
2.5508153e+2, 2.1486202e+2, -839963.9, -923998.56, -18724.008, 0.0049350704, -0.03786674, -835980.75, -1632.2836, 0.0, 10.003313, 9.992184 
2.550812e+2, 2.2485371e+2, -752927.1, -842158.75, -19991.193, 0.0045601265, -0.036810435, -748653.06, -12223.073, 0.0, 10.00303, 9.991215 
2.5508064e+2, 2.3484492e+2, -659097.44, -746152.5, -20032.145, 0.00090516196, -0.037428614, -654709.1, -16193.023, 0.0, 10.002741, 9.991215 
2.550802e+2, 2.4483575e+2, -570996.06, -661583.3, -19242.67, 0.00017413803, -0.037176445, -567078.0, -26472.043, 0.0, 10.002434, 9.990441 
2.5507984e+2, 2.5482622e+2, -477656.94, -565732.9, -18851.584, 0.0025548453, -0.036868334, -473791.63, -31092.203, 0.0, 10.002108, 9.990448 
2.5507984e+2, 2.6481602e+2, -393543.1, -489375.13, -15964.593, 0.0041055446, -0.03656911, -390953.53, -46154.063, 0.0, 10.001796, 9.989113 
2.550802e+2, 2.7480513e+2, -299724.22, -393308.7, -15784.417, 0.0047598467, -0.03740795, -297133.66, -50227.574, 0.0, 10.001502, 9.989117 
2.5508103e+2, 2.8479362e+2, -214325.19, -314808.06, -11716.365, 0.0050174645, -0.03995848, -212977.13, -63958.414, 0.0, 10.001211, 9.987917 
2.5508234e+2, 2.9478148e+2, -120330.92, -218567.58, -11018.867, 0.00486111, -0.045609366, -119110.14, -67972.88, 0.0, 10.000924, 9.987927 
2.5508446e+2, 3.047723e+2, -34846.758, -86937.77, -4575.7554, 0.007808873, -0.046175558, -34447.87, -34447.87, 0.0, 10.000627, 9.99373 
2.5508735e+2, 3.1476608e+2, -39222.64, -88851.05, -3730.8074, 0.014143336, -0.04244867, -38943.742, -38943.742, 0.0, 10.000318, 9.993747 
2.6507622e+2, 1.24905415e+2, -1646310.6, -1719518.8, -3141.8953, 0.017738545, -0.043451786, -1646176.1, 69746.836, 0.0, 10.006318, 9.9966135 
2.6507914e+2, 1.3490206e+2, -1552773.5, -1623874.8, -3684.7703, 0.01863027, -0.04151678, -1552583.0, 65373.098, 0.0, 10.006023, 9.996598 
2.6508144e+2, 1.4489824e+2, -1465402.9, -1540614.1, -8831.2, 0.017198278, -0.038322616, -1464379.9, 55613.582, 0.0, 10.005716, 9.995748 
2.6508307e+2, 1.5489407e+2, -1372139.1, -1444970.8, -9513.98, 0.014860822, -0.030276373, -1370916.8, 51117.555, 0.0, 10.005397, 9.995743 
2.6508427e+2, 1.6488935e+2, -1284894.1, -1361541.3, -13292.1045, 0.011733455, -0.03632293, -1282654.5, 41425.94, 0.0, 10.005069, 9.994912 
2.6508495e+2, 1.7488405e+2, -1191817.1, -1265951.6, -13185.564, 0.0077770813, -0.057993535, -1189541.9, 36589.664, 0.0, 10.004734, 9.99491 
2.6508537e+2, 1.8487829e+2, -1107949.1, -1188821.9, -15811.898, 0.004867226, -0.06129453, -1104967.5, 23220.047, 0.0, 10.004376, 9.993663 
2.6508546e+2, 1.9487211e+2, -1015552.7, -1093593.1, -16356.528, 0.0030689754, -0.04622133, -1012263.2, 17985.44, 0.0, 10.003996, 9.993657 
2.6508528e+2, 2.0486516e+2, -932794.44, -1018705.44, -18623.781, 0.0029631252, -0.03799416, -928930.9, 3386.3423, 0.0, 10.0036335, 9.992255 
2.650848e+2, 2.148574e+2, -839803.8, -923192.25, -18339.908, 0.0046497686, -0.037766803, -835948.5, -1554.9734, 0.0, 10.003292, 9.992249 
2.6508418e+2, 2.2484915e+2, -754119.0, -842682.25, -19554.865, 0.0038950832, -0.037634276, -749993.44, -13518.707, 0.0, 10.002947, 9.9912195 
2.650833e+2, 2.3484036e+2, -661201.5, -747129.44, -19531.012, 0.00054794876, -0.03860963, -656970.56, -18409.69, 0.0, 10.002596, 9.991219 
2.650825e+2, 2.4483123e+2, -573419.1, -661829.7, -18914.844, -0.00014179974, -0.037511993, -569542.4, -28892.16, 0.0, 10.002229, 9.990524 
2.6508182e+2, 2.548218e+2, -480920.88, -566371.6, -18678.643, 0.0020018204, -0.035081204, -477016.3, -34273.605, 0.0, 10.001843, 9.990532 
2.650815e+2, 2.6481166e+2, -397780.97, -490517.7, -15636.57, 0.0034520433, -0.035261236, -395215.44, -50373.445, 0.0, 10.001467, 9.989194 
2.650815e+2, 2.748008e+2, -305027.22, -394969.66, -15163.11, 0.0041478607, -0.039373342, -302539.72, -55591.64, 0.0, 10.0011, 9.989198 
2.65082e+2, 2.8478938e+2, -220163.5, -316370.4, -11057.305, 0.0042996784, -0.04227655, -218909.02, -69849.22, 0.0, 10.000757, 9.988029 
2.6508301e+2, 2.9477742e+2, -126596.17, -220329.27, -10820.611, 0.003874632, -0.045117386, -125363.25, -74186.18, 0.0, 10.00044, 9.98804 
2.650848e+2, 3.0476838e+2, -41304.563, -88684.98, -4939.8604, 0.0077659134, -0.042725205, -40795.016, -40795.016, 0.0, 10.000124, 9.993852 
2.6508743e+2, 3.1476232e+2, -45764.918, -90639.62, -4694.1406, 0.016380774, -0.035865307, -45279.145, -45279.145, 0.0, 9.99981, 9.993869 
2.750826e+2, 1.249017e+2, -1647249.0, -1721544.3, -4226.9487, 0.018467749, -0.043156497, -1647009.3, 68950.22, 0.0, 10.006323, 9.996473 
2.7508518e+2, 1.3489823e+2, -1553724.8, -1625915.4, -4776.255, 0.020646619, -0.037890524, -1553410.1, 64583.61, 0.0, 10.006027, 9.996458 
2.7508715e+2, 1.4489426e+2, -1466623.1, -1543196.8, -10016.29, 0.01937038, -0.035126183, -1465334.6, 54698.047, 0.0, 10.005719, 9.99557 
2.7508846e+2, 1.5488988e+2, -1373369.8, -1447566.4, -10694.219, 0.016160283, -0.03105137, -1371859.1, 50216.566, 0.0, 10.0054, 9.995565 
2.7508932e+2, 1.6488506e+2, -1284656.9, -1361105.6, -14529.923, 0.01277611, -0.037649076, -1281988.4, 42134.082, 0.0, 10.005072, 9.994941 
2.750897e+2, 1.7487982e+2, -1191573.1, -1265490.6, -14428.219, 0.009207233, -0.056329604, -1188856.6, 37316.293, 0.0, 10.004736, 9.994941 
2.7508974e+2, 1.8487403e+2, -1108926.1, -1190867.6, -17228.232, 0.0064274664, -0.05918272, -1105451.3, 22778.316, 0.0, 10.004378, 9.993523 
2.7508944e+2, 1.9486767e+2, -1016552.25, -1095677.8, -17770.611, 0.004488665, -0.04630255, -1012744.44, 17547.807, 0.0, 10.003997, 9.993515 
2.750889e+2, 2.0486067e+2, -932237.94, -1017569.2, -19889.71, 0.003409443, -0.038542718, -927829.6, 4531.61, 0.0, 10.003634, 9.992332 
2.750881e+2, 2.1485303e+2, -839236.44, -922021.44, -19606.334, 0.0032458378, -0.036970317, -834827.75, -391.2523, 0.0, 10.003292, 9.992329 
2.750871e+2, 2.248448e+2, -754029.9, -842484.44, -20855.902, 0.0023889716, -0.03734719, -749359.06, -12841.81, 0.0, 10.002946, 9.991234 
2.750859e+2, 2.3483601e+2, -661132.56, -746955.44, -20832.355, 0.0007939247, -0.04080344, -656343.06, -17739.592, 0.0, 10.002594, 9.991231 
2.7508473e+2, 2.4482693e+2, -572998.25, -660918.25, -20343.473, 0.0004346582, -0.03920524, -568519.2, -27826.717, 0.0, 10.002227, 9.990587 
2.7508366e+2, 2.548176e+2, -480495.5, -565449.4, -20111.682, 0.0013950487, -0.033086475, -475974.9, -33190.844, 0.0, 10.001842, 9.990596 
2.7508295e+2, 2.6480755e+2, -396975.63, -488802.47, -17004.37, 0.002397616, -0.033247598, -393927.9, -49045.508, 0.0, 10.001465, 9.989312 
2.750826e+2, 2.7479678e+2, -304224.66, -393249.63, -16528.99, 0.0034327577, -0.041299675, -301254.84, -54267.25, 0.0, 10.001098, 9.989316 
2.7508277e+2, 2.8478542e+2, -219828.67, -315608.78, -12235.706, 0.0039388495, -0.044945873, -218290.3, -69191.74, 0.0, 10.000754, 9.988082 
2.7508345e+2, 2.9477352e+2, -126281.05, -219595.72, -11995.167, 0.003879359, -0.045054782, -124763.8, -73548.6, 0.0, 10.000437, 9.988091 
2.7508494e+2, 3.047646e+2, -41047.203, -88069.49, -6103.4253, 0.0068910634, -0.039381333, -40267.902, -40267.902, 0.0, 10.000121, 9.993896 
2.750872e+2, 3.147586e+2, -45505.297, -90028.17, -5855.429, 0.013271997, -0.028613115, -44748.098, -44748.098, 0.0, 9.999806, 9.993912 
2.850893e+2, 1.2489836e+2, -1636632.1, -1718509.6, -2714.0793, 0.02057083, -0.04271066, -1636542.3, 79450.09, 0.0, 10.007137, 9.996283 
2.8509158e+2, 1.3489473e+2, -1544752.5, -1623697.0, -3649.0806, 0.022682467, -0.033351798, -1544584.1, 73443.96, 0.0, 10.006731, 9.996266 
2.850932e+2, 1.448906e+2, -1458577.4, -1540617.5, -8916.959, 0.021080513, -0.03151517, -1457619.4, 62449.31, 0.0, 10.006326, 9.995451 
2.8509414e+2, 1.5488605e+2, -1366573.6, -1445594.9, -9164.973, 0.017415803, -0.033300247, -1365524.5, 56588.69, 0.0, 10.00592, 9.995446 
2.8509465e+2, 1.6488115e+2, -1278637.6, -1358766.6, -13135.987, 0.014217608, -0.039833475, -1276539.1, 47621.73, 0.0, 10.005507, 9.994888 
2.8509465e+2, 1.7487592e+2, -1186806.0, -1263756.0, -13641.026, 0.011506889, -0.05226246, -1184459.5, 41751.867, 0.0, 10.005087, 9.994889 
2.850943e+2, 1.8487005e+2, -1105567.8, -1190232.9, -16707.559, 0.008721121, -0.05477237, -1102390.0, 25878.59, 0.0, 10.00465, 9.993434 
2.8509358e+2, 1.9486356e+2, -1014233.94, -1095559.5, -16864.994, 0.0058658672, -0.047740143, -1010875.25, 19457.324, 0.0, 10.004199, 9.993424 
2.8509262e+2, 2.0485651e+2, -930095.06, -1016076.9, -18792.102, 0.0036329427, -0.041079395, -926167.3, 6234.6016, 0.0, 10.003761, 9.992373 
2.850914e+2, 2.1484895e+2, -838255.25, -921075.6, -18786.035, 0.0020650919, -0.03559535, -834193.25, 283.18317, 0.0, 10.003339, 9.992371 
2.8509003e+2, 2.2484078e+2, -754543.3, -842415.0, -20219.459, 0.0013686719, -0.03549894, -750114.06, -13557.272, 0.0, 10.002897, 9.9912615 
2.8508842e+2, 2.3483197e+2, -663286.0, -747685.9, -20085.385, 0.0016018682, -0.042141404, -658749.9, -20106.91, 0.0, 10.002434, 9.991259 
2.8508687e+2, 2.4482292e+2, -576127.1, -662043.94, -19603.691, 0.0016511503, -0.040879276, -571865.5, -31133.783, 0.0, 10.001996, 9.9906225 
2.8508538e+2, 2.5481364e+2, -483994.78, -566753.0, -19586.777, 0.0015005578, -0.0320354, -479593.2, -36770.42, 0.0, 10.001586, 9.99063 
2.8508425e+2, 2.6480368e+2, -400436.94, -489046.53, -16556.379, 0.0016029979, -0.031847276, -397444.5, -52524.227, 0.0, 10.001166, 9.98944 
2.850835e+2, 2.7479303e+2, -308559.9, -393899.3, -16007.341, 0.0019640126, -0.04213138, -305656.16, -58631.832, 0.0, 10.000738, 9.989445 
2.850833e+2, 2.8478175e+2, -225610.81, -317819.84, -11500.959, 0.002614955, -0.04629508, -224197.97, -75063.54, 0.0, 10.000333, 9.988134 
2.8508365e+2, 2.9476994e+2, -133001.8, -222280.11, -11271.815, 0.0035864785, -0.045050006, -131600.67, -80350.17, 0.0, 9.999952, 9.988142 
2.850848e+2, 3.0476105e+2, -47680.313, -90489.1, -5050.1753, 0.006246769, -0.0390635, -47092.61, -47092.61, 0.0, 9.999632, 9.993965 
2.8508678e+2, 3.1475514e+2, -51242.48, -92014.28, -4604.188, 0.010759973, -0.029100912, -50729.016, -50729.016, 0.0, 9.999379, 9.993981 
2.950965e+2, 1.248954e+2, -1638294.4, -1722022.4, -4208.33, 0.023994058, -0.042154916, -1638083.4, 77938.22, 0.0, 10.007142, 9.996042 
2.9509833e+2, 1.3489158e+2, -1546421.1, -1627224.4, -5149.2, 0.02473789, -0.027932668, -1546094.4, 71964.95, 0.0, 10.006736, 9.996024 
2.9509953e+2, 1.4488728e+2, -1458977.6, -1541531.4, -10413.394, 0.022344192, -0.027502641, -1457684.4, 62417.094, 0.0, 10.00633, 9.995387 
2.9510006e+2, 1.5488258e+2, -1366970.0, -1446488.8, -10658.639, 0.018628232, -0.036966648, -1365566.1, 56581.055, 0.0, 10.005924, 9.995384 
2.9510015e+2, 1.648776e+2, -1279531.4, -1360668.9, -14690.379, 0.016043257, -0.042846132, -1276953.5, 47242.22, 0.0, 10.00551, 9.994758 
2.9509977e+2, 1.7487232e+2, -1187715.9, -1265673.6, -15198.761, 0.014644528, -0.04588101, -1184857.5, 41389.22, 0.0, 10.005089, 9.994758 
2.9509896e+2, 1.8486638e+2, -1105832.8, -1190809.4, -18381.809, 0.011722685, -0.048141874, -1102026.9, 26277.834, 0.0, 10.004652, 9.993394 
2.9509777e+2, 1.9485976e+2, -1014496.44, -1096124.0, -18536.17, 0.0072025517, -0.050481636, -1010484.44, 19885.477, 0.0, 10.0042, 9.993386 
2.9509637e+2, 2.0485269e+2, -930054.1, -1016002.94, -20352.615, 0.0036399404, -0.045535747, -925478.25, 6961.2324, 0.0, 10.003762, 9.992378 
2.9509473e+2, 2.1484518e+2, -838222.0, -921000.5, -20349.268, 0.0010973571, -0.033665266, -833490.06, 1023.37244, 0.0, 10.003339, 9.992375 
2.9509288e+2, 2.2483703e+2, -754253.3, -841798.25, -21938.475, 0.0008154288, -0.032144316, -749063.3, -12469.899, 0.0, 10.002896, 9.991304 
2.9509085e+2, 2.3482825e+2, -662997.8, -747066.8, -21806.553, 0.002950691, -0.04265337, -657678.06, -18998.557, 0.0, 10.002433, 9.991302 
2.950889e+2, 2.4481921e+2, -576094.25, -661945.75, -21127.494, 0.0034836426, -0.042534895, -571176.6, -30408.537, 0.0, 10.001995, 9.990629 
2.9508698e+2, 2.5480995e+2, -483972.75, -566669.06, -21107.895, 0.0022922677, -0.031897765, -478896.63, -36037.7, 0.0, 10.001584, 9.990637 
2.9508543e+2, 2.6480007e+2, -399501.72, -487064.03, -18143.885, 0.0010581866, -0.031044902, -395891.0, -50935.277, 0.0, 10.001164, 9.989576 
2.950842e+2, 2.7478954e+2, -307613.5, -391887.13, -17597.945, -0.00023597674, -0.04190905, -304086.34, -57027.938, 0.0, 10.000736, 9.989584 
2.9508358e+2, 2.847784e+2, -225295.19, -317102.75, -12916.039, 0.00035457718, -0.046368673, -223512.69, -74345.14, 0.0, 10.00033, 9.988185 
2.9508358e+2, 2.947666e+2, -132715.27, -221603.3, -12681.6045, 0.002999919, -0.045102987, -130941.39, -79658.27, 0.0, 9.9999485, 9.98819 
2.9508442e+2, 3.0475774e+2, -47086.035, -89147.02, -5979.8896, 0.0058191237, -0.04167015, -46252.387, -46252.387, 0.0, 9.999628, 9.994059 
2.9508615e+2, 3.1475186e+2, -50663.668, -90671.21, -5514.8296, 0.008816312, -0.03706784, -49917.4, -49917.4, 0.0, 9.999373, 9.994077 
3.051041e+2, 1.2489296e+2, -1628462.1, -1719982.4, -2231.0007, 0.028838113, -0.0388244, -1628407.8, 87638.0, 0.0, 10.007931, 9.995797 
3.0510548e+2, 1.3488889e+2, -1537339.8, -1625564.3, -3216.462, 0.026886854, -0.025251837, -1537222.6, 80863.31, 0.0, 10.007474, 9.995778 
3.051062e+2, 1.4488444e+2, -1449580.6, -1537597.9, -8552.774, 0.02320595, -0.025840206, -1448757.3, 71372.41, 0.0, 10.006997, 9.99533 
3.0510628e+2, 1.5487967e+2, -1358908.0, -1443184.0, -8748.112, 0.019808238, -0.036511578, -1358009.5, 64166.465, 0.0, 10.0065, 9.995329 
3.0510592e+2, 1.6487455e+2, -1273903.3, -1359990.6, -13050.638, 0.017971983, -0.041501403, -1271968.3, 52257.332, 0.0, 10.005983, 9.994574 
3.0510506e+2, 1.7486914e+2, -1183793.3, -1265841.1, -13952.204, 0.01777692, -0.041426424, -1181485.6, 44792.63, 0.0, 10.0054455, 9.994573 
3.0510378e+2, 1.848631e+2, -1101834.9, -1188741.6, -17165.646, 0.01490862, -0.044595163, -1098567.3, 29769.914, 0.0, 10.004919, 9.993405 
3.051021e+2, 1.9485644e+2, -1011411.4, -1094472.0, -16934.979, 0.009222918, -0.052081484, -1008091.25, 22311.201, 0.0, 10.004404, 9.9934 
3.051002e+2, 2.0484933e+2, -928679.2, -1015945.06, -18738.77, 0.004759825, -0.047750376, -924825.56, 7646.7476, 0.0, 10.003882, 9.992324 
3.050981e+2, 2.1484183e+2, -838395.25, -921706.56, -19179.96, 0.001597747, -0.031687163, -834191.7, 354.77347, 0.0, 10.003354, 9.99232 
3.0509576e+2, 2.248337e+2, -754833.75, -841477.44, -21011.447, 0.0010716046, -0.02907915, -750007.25, -13380.851, 0.0, 10.0028305, 9.991358 
3.0509323e+2, 2.3482493e+2, -664365.44, -747110.8, -20789.787, 0.0033756425, -0.041827705, -659435.7, -20723.625, 0.0, 10.002313, 9.991357 
3.0509079e+2, 2.448159e+2, -578655.7, -663099.8, -19882.67, 0.0039812247, -0.043120846, -574208.44, -33407.992, 0.0, 10.001816, 9.990637 
3.0508843e+2, 2.5480667e+2, -487463.1, -568283.9, -19860.193, 0.0027493557, -0.032983996, -482846.53, -39955.223, 0.0, 10.001342, 9.9906435 
3.0508643e+2, 2.6479685e+2, -403006.9, -487473.16, -17001.146, 0.0010012329, -0.031596236, -399713.38, -54725.926, 0.0, 10.00087, 9.989691 
3.0508474e+2, 2.7478644e+2, -311731.0, -392569.8, -16619.441, -0.0013192446, -0.04083186, -308447.6, -61358.76, 0.0, 10.000398, 9.9897 
3.0508372e+2, 2.8477538e+2, -230759.86, -318906.56, -11874.368, -0.001108965, -0.045193218, -229188.27, -79991.25, 0.0, 9.99992, 9.988259 
3.0508325e+2, 2.9476365e+2, -139704.16, -224156.02, -11454.689, 0.001860499, -0.045485675, -138178.08, -86866.12, 0.0, 9.999434, 9.988263 
3.0508372e+2, 3.047549e+2, -54951.51, -90576.57, -3857.223, 0.0047985637, -0.044332817, -54538.664, -54538.664, 0.0, 9.998986, 9.99427 
3.0508512e+2, 3.1474924e+2, -60729.637, -93126.07, -2507.6953, 0.0076823425, -0.042807367, -60536.67, -60536.67, 0.0, 9.99858, 9.994291 
3.1511205e+2, 1.2489102e+2, -1630187.4, -1723633.5, -3908.071, 0.035040163, -0.032844707, -1630024.3, 86040.85, 0.0, 10.007936, 9.995546 
3.1511298e+2, 1.3488664e+2, -1539073.0, -1629227.6, -4893.156, 0.029126009, -0.02519636, -1538808.1, 79300.13, 0.0, 10.007479, 9.995527 
3.151132e+2, 1.4488202e+2, -1449888.9, -1538324.0, -10383.01, 0.023682203, -0.026438754, -1448686.3, 71467.3, 0.0, 10.007002, 9.995278 
3.1511283e+2, 1.5487726e+2, -1359203.4, -1443873.0, -10586.604, 0.020957395, -0.032102432, -1357899.8, 64300.05, 0.0, 10.006504, 9.99528 
3.1511194e+2, 1.6487202e+2, -1275528.8, -1363410.9, -15039.125, 0.020000134, -0.035963845, -1273026.4, 51224.277, 0.0, 10.005986, 9.99434 
3.1511053e+2, 1.7486633e+2, -1185436.3, -1269295.1, -15933.864, 0.020903964, -0.038815282, -1182510.8, 43795.176, 0.0, 10.005449, 9.994336 
3.1510875e+2, 1.8486018e+2, -1101368.9, -1187837.9, -19066.467, 0.018270303, -0.044014655, -1097351.4, 31014.584, 0.0, 10.004922, 9.993465 
3.1510654e+2, 1.9485357e+2, -1010930.25, -1093517.1, -18839.137, 0.011899271, -0.052586377, -1006835.8, 23594.785, 0.0, 10.004405, 9.9934635 
3.151041e+2, 2.0484646e+2, -929456.56, -1017569.06, -20692.129, 0.0069488613, -0.047804203, -924839.25, 7661.306, 0.0, 10.003883, 9.992212 
3.1510147e+2, 2.1483885e+2, -839202.06, -923375.4, -21133.365, 0.0035087562, -0.029659728, -834194.06, 381.69302, 0.0, 10.003354, 9.992207 
3.150986e+2, 2.248307e+2, -754378.94, -840533.8, -22929.734, 0.002106809, -0.02629426, -748656.4, -12000.475, 0.0, 10.0028305, 9.991423 
3.1509554e+2, 2.3482199e+2, -663889.25, -746127.25, -22709.566, 0.0029096073, -0.039714083, -658034.9, -19293.98, 0.0, 10.002313, 9.991424 
3.1509262e+2, 2.4481301e+2, -578601.9, -662983.6, -21638.443, 0.0031876387, -0.042672843, -573376.56, -32547.56, 0.0, 10.001816, 9.990645 
3.150898e+2, 2.5480372e+2, -487429.47, -568193.0, -21612.129, 0.0028794825, -0.0352512, -482009.8, -39089.805, 0.0, 10.001341, 9.99065 
3.150873e+2, 2.6479393e+2, -402373.06, -486116.22, -18743.838, 0.0014116797, -0.033459064, -398369.13, -53353.496, 0.0, 10.000868, 9.989784 
3.1508517e+2, 2.747837e+2, -311105.34, -391200.03, -18366.295, -0.0013272382, -0.038931377, -307094.63, -59978.83, 0.0, 10.000395, 9.989796 
3.1508362e+2, 2.8477272e+2, -230126.89, -317503.3, -13674.457, -0.0018049844, -0.042810403, -228036.83, -78813.85, 0.0, 9.999916, 9.988357 
3.1508267e+2, 2.947611e+2, -139078.73, -222760.9, -13254.575, 0.00018288886, -0.046189573, -137029.5, -85692.32, 0.0, 9.999431, 9.98836 
3.150827e+2, 3.0475253e+2, -52748.395, -85889.47, -5362.7173, 0.0031962087, -0.04705333, -51902.234, -51902.234, 0.0, 9.998981, 9.994594 
3.1508368e+2, 3.1474715e+2, -58504.285, -88366.734, -4011.1313, 0.0073150145, -0.046389613, -57974.895, -57974.895, 0.0, 9.998574, 9.99462 
3.2512045e+2, 1.2488963e+2, -1619541.9, -1720418.0, -1751.1377, 0.03877267, -0.026985524, -1619511.5, 96567.64, 0.0, 10.008745, 9.995371 
3.2512084e+2, 1.3488501e+2, -1529483.5, -1626533.4, -2203.8687, 0.031598803, -0.024992999, -1529433.5, 88691.09, 0.0, 10.008218, 9.995351 
3.2512054e+2, 1.4488022e+2, -1441227.1, -1535775.5, -7945.3076, 0.025649099, -0.026287397, -1440564.1, 79607.26, 0.0, 10.007664, 9.99513 
3.251196e+2, 1.5487537e+2, -1351743.4, -1441903.6, -8876.279, 0.02333006, -0.026000353, -1350877.9, 71340.77, 0.0, 10.007084, 9.995132 
3.2511818e+2, 1.6487e+2, -1269058.1, -1361906.6, -13476.25, 0.022099348, -0.029799199, -1267141.8, 57129.133, 0.0, 10.006498, 9.994193 
3.2511625e+2, 1.748641e+2, -1179757.6, -1268181.4, -13716.0625, 0.022019599, -0.038777452, -1177678.9, 48649.25, 0.0, 10.005908, 9.994189 
3.2511386e+2, 1.8485786e+2, -1095820.5, -1185114.4, -16754.201, 0.019243684, -0.045241553, -1092780.4, 35608.44, 0.0, 10.0053, 9.993467 
3.251111e+2, 1.948513e+2, -1006992.9, -1091557.9, -16966.133, 0.013610153, -0.049939282, -1003716.0, 26737.057, 0.0, 10.004672, 9.993468 
3.2510808e+2, 2.0484413e+2, -927850.1, -1017943.5, -19045.084, 0.008790973, -0.044448033, -923989.56, 8533.841, 0.0, 10.004043, 9.992109 
3.2510486e+2, 2.1483639e+2, -839122.06, -924510.4, -19418.672, 0.0048379567, -0.028947579, -834913.4, -313.41577, 0.0, 10.00341, 9.992102 
3.2510144e+2, 2.2482821e+2, -754101.0, -839918.7, -21041.902, 0.0025000975, -0.025929993, -749219.4, -12538.92, 0.0, 10.002829, 9.991466 
3.2509783e+2, 2.3481956e+2, -663732.0, -745545.56, -20979.367, 0.0019235949, -0.03726796, -658666.0, -19901.203, 0.0, 10.002302, 9.991468 
3.250944e+2, 2.4481061e+2, -579310.25, -662950.44, -19909.559, 0.0018934327, -0.040665463, -574812.8, -33960.344, 0.0, 10.001751, 9.990679 
3.2509103e+2, 2.5480133e+2, -489621.6, -568883.56, -19690.246, 0.0024255125, -0.03637704, -484999.66, -42056.24, 0.0, 10.001175, 9.990684 
3.2508802e+2, 2.6479164e+2, -406406.38, -487566.44, -17009.49, 0.0018132189, -0.034167685, -402985.72, -57947.06, 0.0, 10.00057, 9.989829 
3.2508534e+2, 2.7478144e+2, -317541.03, -393809.34, -17008.025, -0.000058723082, -0.035383504, -313920.13, -66782.055, 0.0, 9.999932, 9.98984 
3.2508326e+2, 2.8477058e+2, -237499.73, -319573.2, -12203.463, -0.00067478046, -0.0396763, -235723.64, -86479.234, 0.0, 9.999347, 9.98849 
3.2508183e+2, 2.9475898e+2, -147079.95, -225114.27, -11508.273, 0.00007345429, -0.048563328, -145418.13, -94060.42, 0.0, 9.9988165, 9.988495 
3.250813e+2, 3.0475065e+2, -61126.895, -87183.05, -3609.1663, 0.0018617713, -0.049321897, -60636.215, -60636.215, 0.0, 9.998289, 9.994839 
3.2508183e+2, 3.1474558e+2, -68604.5, -90458.336, -2855.9578, 0.0047728927, -0.042385537, -68237.43, -68237.43, 0.0, 9.997762, 9.994868 
3.351292e+2, 1.2488875e+2, -1620210.0, -1721929.6, -3685.6877, 0.040138703, -0.021264873, -1620076.6, 96011.4, 0.0, 10.008752, 9.995265 
3.3512908e+2, 1.3488397e+2, -1530178.1, -1628055.1, -4148.699, 0.034293007, -0.024645133, -1530002.5, 88132.37, 0.0, 10.008222, 9.995246 
3.3512828e+2, 1.4487903e+2, -1442918.9, -1539317.9, -10082.892, 0.02904036, -0.025414305, -1441875.6, 78307.76, 0.0, 10.007667, 9.994887 
3.3512676e+2, 1.54874e+2, -1353452.6, -1445470.1, -11011.407, 0.026872061, -0.01828044, -1352153.3, 70079.16, 0.0, 10.007087, 9.994888 
3.3512473e+2, 1.6486846e+2, -1269474.1, -1362811.5, -15651.605, 0.024268227, -0.023034593, -1266919.4, 57366.895, 0.0, 10.006501, 9.99413 
3.3512214e+2, 1.7486241e+2, -1180151.1, -1269054.3, -15890.363, 0.021213852, -0.04119609, -1177396.4, 48948.484, 0.0, 10.005911, 9.994128 
3.3511913e+2, 1.8485612e+2, -1096162.1, -1185878.6, -19065.89, 0.01793132, -0.048195463, -1092278.5, 36127.605, 0.0, 10.005301, 9.993414 
3.351158e+2, 1.9484957e+2, -1007346.2, -1092329.6, -19285.324, 0.01439549, -0.04427235, -1003174.5, 27295.613, 0.0, 10.004674, 9.993415 
3.3511215e+2, 2.0484234e+2, -928507.8, -1019328.3, -21384.916, 0.010299894, -0.037817385, -923724.4, 8816.756, 0.0, 10.004044, 9.992015 
3.3510828e+2, 2.1483444e+2, -839793.75, -925910.6, -21754.252, 0.0056075756, -0.029492723, -834610.4, 8.895332, 0.0, 10.003411, 9.992005 
3.351043e+2, 2.248262e+2, -753945.75, -839595.6, -22988.943, 0.0022745295, -0.02789102, -748165.5, -11465.26, 0.0, 10.00283, 9.9914875 
3.351001e+2, 2.3481764e+2, -663573.9, -745201.3, -22923.21, 0.00043495547, -0.034502897, -657577.0, -18793.117, 0.0, 10.002301, 9.991492 
3.350961e+2, 2.4480873e+2, -578915.6, -662107.44, -22035.885, 0.00011503866, -0.03715582, -573439.25, -32568.14, 0.0, 10.00175, 9.990737 
3.350922e+2, 2.547995e+2, -489227.84, -568037.7, -21821.129, 0.0014060566, -0.036402557, -483589.38, -40627.59, 0.0, 10.001174, 9.990742 
3.3508858e+2, 2.647898e+2, -406446.94, -487616.5, -19367.63, 0.0022021257, -0.033762626, -402062.5, -57005.793, 0.0, 10.000568, 9.989826 
3.350853e+2, 2.7477968e+2, -317594.56, -393883.0, -19373.2, 0.0024384088, -0.030244349, -312956.75, -65800.945, 0.0, 9.999931, 9.989836 
3.3508265e+2, 2.8476885e+2, -236355.13, -317148.9, -14171.76, 0.0022163366, -0.03581531, -233941.4, -84679.94, 0.0, 9.999345, 9.988657 
3.3508062e+2, 2.9475737e+2, -145925.63, -222647.08, -13468.4375, 0.0014762854, -0.052554473, -143629.94, -92256.2, 0.0, 9.998814, 9.988665 
3.3507958e+2, 3.047492e+2, -60000.82, -84747.28, -5556.53, 0.0007806104, -0.051159766, -58810.43, -58810.43, 0.0, 9.998284, 9.9950075 
3.3507952e+2, 3.147444e+2, -67499.22, -88031.234, -4810.926, 0.000110191, -0.031041896, -66427.86, -66427.86, 0.0, 9.997756, 9.995037 
3.4513843e+2, 1.248885e+2, -1607931.3, -1717573.3, -1214.914, 0.041047584, -0.0190831, -1607917.9, 108172.92, 0.0, 10.009658, 9.99512 
3.451377e+2, 1.3488361e+2, -1520778.9, -1625106.5, -1981.3031, 0.03698357, -0.020283345, -1520741.3, 97397.55, 0.0, 10.008932, 9.9951 
3.4513623e+2, 1.4487848e+2, -1436058.8, -1538255.6, -7915.195, 0.032629117, -0.02054772, -1435449.4, 84739.516, 0.0, 10.008233, 9.994684 
3.4513414e+2, 1.5487325e+2, -1347942.5, -1445074.8, -8555.588, 0.030528799, -0.014527819, -1347194.6, 75045.5, 0.0, 10.007561, 9.994684 
3.4513146e+2, 1.6486755e+2, -1263530.8, -1360478.3, -12863.348, 0.027028183, -0.021118207, -1261853.0, 62442.35, 0.0, 10.00693, 9.994081 
3.4512827e+2, 1.7486143e+2, -1174151.8, -1266675.1, -13008.424, 0.022060964, -0.04189728, -1172357.6, 53996.88, 0.0, 10.006343, 9.994081 
3.4512463e+2, 1.8485507e+2, -1091304.0, -1184785.5, -16681.33, 0.018359715, -0.04777923, -1088416.5, 40000.06, 0.0, 10.005688, 9.993301 
3.451206e+2, 1.9484846e+2, -1003939.44, -1091956.4, -17346.215, 0.015983257, -0.038776413, -1000644.25, 29837.06, 0.0, 10.004962, 9.9933 
3.4511632e+2, 2.0484117e+2, -925948.5, -1018513.94, -19470.549, 0.012147931, -0.032274336, -922019.7, 10533.319, 0.0, 10.004237, 9.991976 
3.4511176e+2, 2.1483317e+2, -838561.25, -925731.4, -19412.203, 0.0067593437, -0.029252494, -834433.7, 198.17746, 0.0, 10.003513, 9.991968 
3.451071e+2, 2.2482489e+2, -753927.3, -839736.75, -20181.904, 0.0030763291, -0.02903602, -749417.6, -12704.416, 0.0, 10.002836, 9.991473 
3.451024e+2, 2.3481634e+2, -664991.1, -746035.6, -20379.488, 0.0012554512, -0.03285102, -660155.06, -21358.299, 0.0, 10.002211, 9.991479 
3.4509778e+2, 2.4480747e+2, -580914.7, -662393.06, -19710.21, 0.0009948869, -0.034305036, -576397.1, -35513.418, 0.0, 10.001584, 9.990797 
3.4509325e+2, 2.5479826e+2, -491969.5, -568669.7, -19471.748, 0.0023954976, -0.03407786, -487309.38, -44335.598, 0.0, 10.000957, 9.990803 
3.4508902e+2, 2.647886e+2, -410369.06, -489630.94, -17236.77, 0.0024854583, -0.0315058, -406782.9, -61714.406, 0.0, 10.000305, 9.989816 
3.4508505e+2, 2.747785e+2, -322109.25, -396203.1, -17307.139, 0.0011327504, -0.027542582, -318265.9, -71098.22, 0.0, 9.999628, 9.989823 
3.4508175e+2, 2.8476772e+2, -240690.2, -317259.7, -11858.181, 0.000550018, -0.033574715, -238895.8, -89623.17, 0.0, 9.998962, 9.988833 
3.4507918e+2, 2.947564e+2, -152011.92, -223556.72, -11073.196, 0.00077973853, -0.05179198, -150337.28, -98954.08, 0.0, 9.998309, 9.988846 
3.4507754e+2, 3.047484e+2, -69035.11, -88356.19, -3577.867, 0.00016714091, -0.04904504, -68393.84, -68393.84, 0.0, 9.997633, 9.995074 
3.4507686e+2, 3.1474376e+2, -79114.32, -92917.05, -3616.4, -0.0014015577, -0.024421388, -78224.2, -78224.2, 0.0, 9.996928, 9.995101 
3.551481e+2, 1.2488886e+2, -1609184.6, -1720247.6, -3876.2805, 0.04152121, -0.020272732, -1609049.5, 107037.96, 0.0, 10.009663, 9.994936 
3.5514665e+2, 1.3488387e+2, -1522028.9, -1627782.3, -4660.2866, 0.039670423, -0.012111611, -1521823.9, 96312.67, 0.0, 10.008937, 9.994916 
3.551445e+2, 1.4487858e+2, -1437182.0, -1540666.9, -10394.283, 0.036402855, -0.011887546, -1436148.4, 84040.02, 0.0, 10.008237, 9.994517 
3.5514173e+2, 1.5487307e+2, -1349074.9, -1447491.4, -11025.991, 0.034292214, -0.014539259, -1347854.8, 74387.19, 0.0, 10.007565, 9.994518 
3.5513842e+2, 1.6486727e+2, -1263760.9, -1361012.5, -15019.549, 0.030348461, -0.023808232, -1261494.0, 62804.355, 0.0, 10.006933, 9.994042 
3.5513464e+2, 1.7486115e+2, -1174392.0, -1267195.6, -15167.988, 0.024481669, -0.040958963, -1171975.8, 54381.69, 0.0, 10.006344, 9.994044 
3.5513037e+2, 1.848547e+2, -1092506.3, -1187276.6, -19360.74, 0.020449076, -0.044143002, -1088703.6, 39716.617, 0.0, 10.005689, 9.993131 
3.5512558e+2, 1.9484794e+2, -1005151.2, -1094476.0, -20029.488, 0.018337645, -0.033439375, -1000865.5, 29621.186, 0.0, 10.004963, 9.993128 
3.5512057e+2, 2.0484056e+2, -925820.5, -1018271.9, -22144.81, 0.014318978, -0.027769333, -920789.9, 11769.45, 0.0, 10.004238, 9.991992 
3.5511526e+2, 2.1483254e+2, -838416.75, -925452.44, -22088.072, 0.008274898, -0.028258301, -833132.06, 1506.0724, 0.0, 10.003514, 9.991986 
3.5510996e+2, 2.2482423e+2, -754257.0, -840427.5, -22498.322, 0.0048611397, -0.029394133, -748736.5, -12016.855, 0.0, 10.002837, 9.991426 
3.5510466e+2, 2.3481564e+2, -665341.1, -746751.7, -22688.816, 0.004291372, -0.03226454, -659444.9, -20641.148, 0.0, 10.002211, 9.99143 
3.550994e+2, 2.448068e+2, -580481.1, -661471.56, -22025.62, 0.00442929, -0.0320874, -574878.7, -33988.254, 0.0, 10.001583, 9.990861 
3.5509425e+2, 2.547977e+2, -491533.6, -567726.5, -21791.31, 0.005317974, -0.029487638, -485741.53, -42761.832, 0.0, 10.000955, 9.990869 
3.5508934e+2, 2.6478806e+2, -410521.78, -489906.75, -19739.713, 0.0026645989, -0.027458647, -405884.28, -60810.027, 0.0, 10.000303, 9.989798 
3.5508463e+2, 2.7477786e+2, -322267.84, -396505.6, -19811.598, -0.00385226, -0.027195793, -317311.66, -70137.664, 0.0, 9.999627, 9.989803 
3.5508066e+2, 2.847672e+2, -239393.83, -314541.78, -14273.585, -0.0055330927, -0.032906152, -236774.03, -87495.93, 0.0, 9.998961, 9.989019 
3.5507748e+2, 2.947561e+2, -150696.83, -220780.02, -13493.808, -0.0019573031, -0.04642736, -148188.5, -96802.14, 0.0, 9.998307, 9.989037 
3.5507515e+2, 3.0474818e+2, -69310.82, -88855.19, -6180.8267, -0.0000024653662, -0.04309525, -67520.21, -67520.21, 0.0, 9.99763, 9.995042 
3.550738e+2, 3.1474343e+2, -79455.36, -93514.78, -6219.369, 0.00012568479, -0.02238088, -77099.05, -77099.05, 0.0, 9.996923, 9.995062 
3.6515817e+2, 1.2489001e+2, -1599422.8, -1718260.3, -958.68787, 0.04425603, -0.020335997, -1599415.0, 116661.45, 0.0, 10.0104475, 9.994689 
3.6515597e+2, 1.348848e+2, -1512757.5, -1626046.9, -2215.0007, 0.040968258, -0.0084892595, -1512714.1, 105413.484, 0.0, 10.009689, 9.994668 
3.651531e+2, 1.4487936e+2, -1427834.6, -1537364.9, -7903.311, 0.036885265, -0.007823597, -1427267.3, 92913.85, 0.0, 10.008928, 9.994406 
3.651496e+2, 1.548737e+2, -1341059.9, -1444830.3, -8132.922, 0.034684077, -0.013401274, -1340426.3, 81809.78, 0.0, 10.008164, 9.994408 
3.651456e+2, 1.6486777e+2, -1257483.4, -1359124.3, -11965.958, 0.03127374, -0.023196992, -1256093.6, 68200.01, 0.0, 10.007411, 9.993938 
3.6514118e+2, 1.7486157e+2, -1170372.0, -1266407.4, -12604.63, 0.026594233, -0.038333252, -1168745.1, 57608.344, 0.0, 10.006669, 9.99394 
3.651362e+2, 1.8485501e+2, -1089951.9, -1187455.1, -17150.377, 0.022772934, -0.040655553, -1087023.1, 41394.223, 0.0, 10.005924, 9.993004 
3.6513066e+2, 1.9484814e+2, -1002897.6, -1094806.3, -17494.441, 0.01984209, -0.030323727, -999680.25, 30804.959, 0.0, 10.005178, 9.993 
3.651249e+2, 2.0484069e+2, -923114.5, -1016881.44, -19520.984, 0.015184425, -0.025124295, -919212.9, 13345.558, 0.0, 10.004419, 9.991999 
3.6511886e+2, 2.1483268e+2, -836415.4, -924385.56, -19536.898, 0.008696567, -0.026185827, -832271.7, 2365.4365, 0.0, 10.003647, 9.991995 
3.651128e+2, 2.2482434e+2, -753639.3, -840450.0, -19665.223, 0.00520222, -0.027988054, -749392.3, -12673.517, 0.0, 10.002893, 9.991397 
3.6510685e+2, 2.3481572e+2, -666278.4, -747537.94, -19709.604, 0.004932955, -0.03162371, -661750.1, -22946.912, 0.0, 10.00216, 9.9914 
3.6510092e+2, 2.4480687e+2, -582522.44, -662043.2, -19080.3, 0.0053087156, -0.03025207, -578181.3, -37291.414, 0.0, 10.001425, 9.990897 
3.6509508e+2, 2.5479785e+2, -495174.1, -569060.0, -19045.299, 0.0063691046, -0.02435102, -490553.78, -47575.297, 0.0, 10.000687, 9.990906 
3.6508948e+2, 2.6478824e+2, -414586.47, -491261.22, -16726.54, 0.0029380536, -0.023206642, -411096.44, -66023.78, 0.0, 9.999999, 9.989852 
3.650841e+2, 2.7477804e+2, -325711.75, -397559.66, -16247.16, -0.005389771, -0.028365443, -322208.56, -75036.21, 0.0, 9.999365, 9.989857 
3.6507946e+2, 2.8476748e+2, -242936.83, -315105.1, -10927.734, -0.0076728663, -0.033081435, -241318.45, -92042.84, 0.0, 9.998669, 9.989121 
3.6507556e+2, 2.9475656e+2, -155830.31, -222099.2, -10801.665, -0.0033708005, -0.038599335, -154114.11, -102731.914, 0.0, 9.997906, 9.98914 
3.6507252e+2, 3.047487e+2, -76748.4, -91367.75, -3721.156, -0.0015101543, -0.035523403, -75855.734, -75855.734, 0.0, 9.997073, 9.995137 
3.650703e+2, 3.14744e+2, -89877.016, -97473.17, -2782.4473, -0.0023796207, -0.024168285, -88966.87, -88966.87, 0.0, 9.996163, 9.995157 
3.7516868e+2, 1.24891914e+2, -1601585.1, -1722764.9, -3747.2078, 0.049115933, -0.019343851, -1601469.3, 114588.5, 0.0, 10.01045, 9.994381 
3.7516567e+2, 1.3488638e+2, -1514906.9, -1630556.1, -4999.072, 0.040955964, -0.009154204, -1514691.1, 103421.15, 0.0, 10.009693, 9.994359 
3.75162e+2, 1.4488074e+2, -1428203.6, -1538225.8, -10707.948, 0.034264166, -0.008093739, -1427171.1, 92996.49, 0.0, 10.008933, 9.994345 
3.751577e+2, 1.5487507e+2, -1341414.0, -1445658.3, -10952.22, 0.031893842, -0.011169167, -1340275.8, 81947.13, 0.0, 10.008169, 9.994349 
3.75153e+2, 1.6486906e+2, -1258623.9, -1361551.6, -14711.747, 0.029935744, -0.019454077, -1256562.4, 67718.96, 0.0, 10.007415, 9.993772 
3.7514785e+2, 1.7486267e+2, -1171547.4, -1268871.3, -15344.512, 0.028414063, -0.034105744, -1169185.4, 57157.516, 0.0, 10.006671, 9.993772 
3.7514216e+2, 1.8485598e+2, -1090543.1, -1188699.3, -19901.79, 0.025316859, -0.037307717, -1086661.5, 41746.688, 0.0, 10.005925, 9.992919 
3.7513587e+2, 1.9484898e+2, -1003478.25, -1096031.9, -20245.807, 0.020537766, -0.029314721, -999243.3, 31233.652, 0.0, 10.005179, 9.992916 
3.7512934e+2, 2.048415e+2, -923112.06, -1016902.1, -22373.678, 0.014806062, -0.024244593, -918048.25, 14502.423, 0.0, 10.00442, 9.991996 
3.751225e+2, 2.1483351e+2, -836410.56, -924395.06, -22393.76, 0.008072561, -0.023079216, -831038.9, 3590.2869, 0.0, 10.003648, 9.991994 
3.7511572e+2, 2.2482517e+2, -753708.56, -840605.9, -22377.729, 0.0041598873, -0.024890384, -748284.44, -11573.605, 0.0, 10.002893, 9.991385 
3.75109e+2, 2.348165e+2, -666355.3, -747702.2, -22419.723, 0.0032765395, -0.03092735, -660585.5, -21789.898, 0.0, 10.002161, 9.991388 
3.751023e+2, 2.4480768e+2, -582439.75, -661869.56, -21811.746, 0.0037305823, -0.028779386, -576844.3, -35962.094, 0.0, 10.001425, 9.990909 
3.7509575e+2, 2.547987e+2, -495096.1, -568887.94, -21779.465, 0.0056141256, -0.018684963, -489147.5, -46177.082, 0.0, 10.000687, 9.990918 
3.7508947e+2, 2.6478916e+2, -413730.84, -489451.22, -19075.117, 0.0032972195, -0.018757034, -409197.0, -64132.992, 0.0, 9.999997, 9.989976 
3.750835e+2, 2.7477902e+2, -324870.5, -395734.22, -18587.258, -0.003599464, -0.031002082, -320291.06, -73128.055, 0.0, 9.999361, 9.989984 
3.7507814e+2, 2.8476852e+2, -242852.53, -314829.97, -13743.979, -0.006000232, -0.03406986, -240317.42, -91052.01, 0.0, 9.998665, 9.989142 
3.7507346e+2, 2.9475775e+2, -155762.55, -221862.14, -13631.406, -0.0035069631, -0.028378764, -153061.77, -101690.79, 0.0, 9.997902, 9.989158 
3.7506956e+2, 3.0475003e+2, -75253.2, -88177.14, -7084.6494, -0.004326375, -0.026380422, -72126.16, -72126.16, 0.0, 9.997069, 9.9953575 
3.7506643e+2, 3.1474537e+2, -88340.914, -94211.79, -6160.6934, -0.008823308, -0.02967798, -84452.06, -84452.06, 0.0, 9.9961605, 9.995382 
3.851795e+2, 1.2489458e+2, -1592605.8, -1720596.3, -1157.9303, 0.05089492, -0.016109938, -1592595.3, 123436.56, 0.0, 10.011157, 9.994184 
3.8517573e+2, 1.3488881e+2, -1505799.0, -1628336.4, -1627.1014, 0.042013116, -0.010632665, -1505777.4, 112311.21, 0.0, 10.010409, 9.994162 
3.851713e+2, 1.4488298e+2, -1419273.9, -1535836.0, -7491.4385, 0.034852255, -0.009627536, -1418794.4, 101351.48, 0.0, 10.009625, 9.99417 
3.8516623e+2, 1.5487719e+2, -1333332.3, -1443689.9, -8578.104, 0.032334562, -0.00799485, -1332669.5, 89532.91, 0.0, 10.008804, 9.994173 
3.8516068e+2, 1.6487102e+2, -1251594.4, -1359414.0, -12673.578, 0.030251635, -0.014841588, -1250124.8, 74137.47, 0.0, 10.007949, 9.993656 
3.8515472e+2, 1.7486452e+2, -1166682.5, -1267788.3, -12913.477, 0.028634097, -0.031473186, -1165059.3, 61265.83, 0.0, 10.007057, 9.993656 
3.8514823e+2, 1.8485773e+2, -1086782.9, -1187699.5, -17033.44, 0.025409875, -0.035872914, -1083985.4, 44405.91, 0.0, 10.006217, 9.992845 
3.8514116e+2, 1.9485065e+2, -1000296.3, -1095311.8, -17296.867, 0.02046865, -0.028269608, -997245.5, 33215.406, 0.0, 10.005432, 9.992842 
3.8513386e+2, 2.0484312e+2, -920255.25, -1015661.8, -19571.236, 0.014893279, -0.022752536, -916396.56, 16138.405, 0.0, 10.0046215, 9.991982 
3.8512623e+2, 2.1483512e+2, -834489.8, -923602.6, -19674.125, 0.008653923, -0.020251475, -830339.5, 4273.933, 0.0, 10.003784, 9.991981 
3.8511866e+2, 2.248268e+2, -752693.3, -840147.7, -19532.477, 0.0048706294, -0.021953197, -748529.1, -11833.937, 0.0, 10.002964, 9.991382 
3.8511115e+2, 2.3481812e+2, -666352.7, -747736.6, -19510.402, 0.0037226265, -0.02918002, -661917.1, -23136.979, 0.0, 10.002162, 9.9913845 
3.851037e+2, 2.4480928e+2, -583348.44, -662159.6, -18889.807, 0.003005729, -0.026859177, -579054.75, -38188.03, 0.0, 10.001356, 9.990922 
3.8509634e+2, 2.5480035e+2, -497048.22, -569682.9, -18846.623, 0.0027486545, -0.015138237, -492449.25, -49494.566, 0.0, 10.0005455, 9.990931 
3.8508934e+2, 2.6479086e+2, -416950.72, -489107.03, -15947.324, 0.001152402, -0.015222875, -413583.3, -68535.94, 0.0, 9.999695, 9.990145 
3.8508257e+2, 2.7478087e+2, -331877.84, -397186.72, -15120.574, -0.0019252042, -0.029262815, -328546.94, -81402.125, 0.0, 9.998797, 9.990155 
3.8507646e+2, 2.8477055e+2, -252862.6, -319186.28, -10033.054, -0.0030733699, -0.03216103, -251378.08, -102131.914, 0.0, 9.997958, 9.989184 
3.85071e+2, 2.947598e+2, -165997.73, -226361.16, -9765.951, -0.0021298914, -0.024119504, -164457.06, -113105.82, 0.0, 9.997181, 9.989196 
3.8506624e+2, 3.0475223e+2, -83298.73, -89157.086, -3311.2327, -0.005449213, -0.022589196, -81807.01, -81807.01, 0.0, 9.996392, 9.995616 
3.8506225e+2, 3.147478e+2, -94783.12, -94362.26, -2109.8025, -0.013471448, -0.029523643, -92452.42, -92452.42, 0.0, 9.99559, 9.9956455 
3.9519066e+2, 1.2489799e+2, -1593212.9, -1721951.8, -3916.2056, 0.049790043, -0.010805138, -1593093.9, 122904.79, 0.0, 10.011162, 9.994089 
3.9518616e+2, 1.3489205e+2, -1506455.9, -1629719.3, -4392.6455, 0.044074148, -0.0128576765, -1506299.5, 111757.51, 0.0, 10.010411, 9.994066 
3.9518097e+2, 1.4488602e+2, -1421296.0, -1539987.1, -10525.026, 0.03844817, -0.01232515, -1420370.0, 99746.1, 0.0, 10.009625, 9.993888 
3.9517504e+2, 1.5488e+2, -1335376.3, -1447883.9, -11606.4, 0.035808627, -0.0039308653, -1334191.4, 87983.555, 0.0, 10.008804, 9.993888 
3.9516866e+2, 1.6487369e+2, -1252059.6, -1360369.5, -15960.596, 0.032121945, -0.00941417, -1249756.6, 74479.69, 0.0, 10.007949, 9.993591 
3.9516175e+2, 1.7486708e+2, -1167117.9, -1268708.6, -16204.289, 0.027345223, -0.030340936, -1164595.8, 61704.414, 0.0, 10.007059, 9.993593 
3.9515442e+2, 1.848602e+2, -1087218.8, -1188619.6, -19932.166, 0.02318881, -0.0362354, -1083441.5, 44925.727, 0.0, 10.006218, 9.992781 
3.9514658e+2, 1.9485307e+2, -1000753.75, -1096248.9, -20192.416, 0.019676562, -0.027181268, -996659.6, 33777.652, 0.0, 10.005432, 9.992778 
3.9513847e+2, 2.0484552e+2, -920437.8, -1016014.8, -22663.383, 0.0154225025, -0.02067358, -915336.1, 17175.553, 0.0, 10.004621, 9.991959 
3.9513004e+2, 2.148375e+2, -834674.3, -923952.8, -22771.852, 0.010381329, -0.017683258, -829201.44, 5388.9346, 0.0, 10.003783, 9.991957 
3.9512163e+2, 2.2482917e+2, -752688.44, -840094.75, -22503.6, 0.0072532464, -0.019161792, -747234.94, -10562.683, 0.0, 10.002962, 9.991386 
3.9511332e+2, 2.3482049e+2, -666357.94, -747687.5, -22480.063, 0.0061792596, -0.026421813, -660557.94, -21800.795, 0.0, 10.002159, 9.991389 
3.9510506e+2, 2.4481165e+2, -583283.2, -661962.1, -21888.918, 0.0030948673, -0.024506424, -577603.56, -36759.91, 0.0, 10.001353, 9.990936 
3.9509687e+2, 2.5480273e+2, -496977.28, -569483.94, -21846.074, -0.0021528911, -0.013629198, -490903.84, -47972.28, 0.0, 10.000544, 9.990945 
3.9508897e+2, 2.6479337e+2, -415475.66, -486004.63, -19271.613, -0.00340982, -0.012566935, -410553.34, -65530.254, 0.0, 9.999693, 9.990357 
3.9508143e+2, 2.7478364e+2, -330377.2, -394031.03, -18457.92, -0.00036535424, -0.023284774, -325412.16, -78294.1, 0.0, 9.9987955, 9.990371 
3.950745e+2, 2.847734e+2, -252448.36, -318273.16, -12928.71, 0.0010635046, -0.027444575, -250000.08, -100781.92, 0.0, 9.997956, 9.989247 
3.9506823e+2, 2.947627e+2, -165622.9, -225510.55, -12650.184, 0.0007104458, -0.025654871, -163060.42, -111737.14, 0.0, 9.997178, 9.989256 
3.9506266e+2, 3.0475527e+2, -81273.38, -84865.67, -6280.837, -0.004935744, -0.023999754, -76536.914, -76536.914, 0.0, 9.996388, 9.995912 
3.950578e+2, 3.147512e+2, -92726.98, -89993.625, -5089.176, -0.016392656, -0.02384047, -86090.81, -86090.81, 0.0, 9.995586, 9.995947 
4.052022e+2, 1.2490208e+2, -1581720.5, -1717469.8, -2049.3784, 0.04813187, -0.007951072, -1581689.5, 134269.38, 0.0, 10.011992, 9.993989 
4.051969e+2, 1.3489604e+2, -1498395.6, -1626917.5, -2580.7905, 0.04600832, -0.008864488, -1498343.9, 119674.266, 0.0, 10.011008, 9.993965 
4.0519083e+2, 1.4488986e+2, -1416262.9, -1539853.4, -8423.057, 0.042458862, -0.009020508, -1415691.5, 104387.2, 0.0, 10.010068, 9.993681 
4.051841e+2, 1.5488361e+2, -1331410.0, -1448294.0, -8958.517, 0.040330134, -0.003350091, -1330727.4, 91412.47, 0.0, 10.009175, 9.993679 
4.0517682e+2, 1.6487715e+2, -1247463.0, -1358755.6, -13104.025, 0.034993067, -0.009326031, -1245940.9, 78261.75, 0.0, 10.008289, 9.993535 
4.0516898e+2, 1.748705e+2, -1162359.0, -1267007.5, -13286.849, 0.026306199, -0.028418649, -1160698.4, 65568.445, 0.0, 10.007409, 9.993537 
4.0516073e+2, 1.8486357e+2, -1083429.3, -1187581.6, -16893.389, 0.021172848, -0.034003858, -1080757.8, 47576.668, 0.0, 10.006511, 9.992708 
4.051521e+2, 1.9485636e+2, -998880.9, -1096152.8, -17212.146, 0.019775828, -0.026251152, -995925.0, 34480.3, 0.0, 10.005594, 9.992704 
4.0514314e+2, 2.0484874e+2, -919826.8, -1016099.25, -19840.736, 0.01681123, -0.019625053, -915898.2, 16582.074, 0.0, 10.004678, 9.991924 
4.051338e+2, 2.1484071e+2, -835197.5, -924584.75, -20023.521, 0.012189996, -0.015020649, -830917.06, 3642.199, 0.0, 10.003763, 9.991922 
4.0512457e+2, 2.2483237e+2, -754282.4, -840637.56, -19692.271, 0.009064804, -0.015851568, -750003.8, -13362.687, 0.0, 10.002843, 9.9914055 
4.051154e+2, 2.348237e+2, -669750.0, -749096.25, -19547.277, 0.0075337403, -0.02347536, -665195.8, -26470.033, 0.0, 10.001917, 9.991409 
4.0510628e+2, 2.448149e+2, -587504.4, -663438.8, -18586.965, 0.0033599853, -0.023027545, -583198.8, -42386.754, 0.0, 10.0010395, 9.990986 
4.0509722e+2, 2.5480598e+2, -501414.38, -571060.94, -18273.688, -0.003659873, -0.014819732, -496910.94, -54011.203, 0.0, 10.000215, 9.990994 
4.0508848e+2, 2.6479676e+2, -419556.6, -486243.0, -16137.755, -0.0056739138, -0.012318053, -415856.63, -70866.44, 0.0, 9.999337, 9.990511 
4.0508e+2, 2.7478722e+2, -334995.53, -394508.2, -15774.86, -0.0022597245, -0.017146036, -331072.72, -83989.555, 0.0, 9.998403, 9.990527 
4.0507218e+2, 2.8477716e+2, -258391.61, -319411.84, -9904.492, -0.000832211, -0.021312363, -256824.22, -107642.45, 0.0, 9.997474, 9.989401 
4.0506506e+2, 2.9476652e+2, -173703.66, -227684.17, -8923.583, -0.0016049441, -0.025951022, -172266.73, -120980.77, 0.0, 9.99655, 9.9894085 
4.0505865e+2, 3.0475926e+2, -90874.266, -87358.02, -2571.1116, -0.006404049, -0.02388666, -86001.4, -86001.4, 0.0, 9.995638, 9.996101 
4.05053e+2, 3.147555e+2, -103721.086, -93150.805, -2200.8582, -0.015601824, -0.015823314, -92710.87, -92710.87, 0.0, 9.99474, 9.996138 
4.1521418e+2, 1.2490681e+2, -1582461.9, -1719025.1, -5667.8765, 0.045972656, -0.007362548, -1582227.0, 133685.78, 0.0, 10.011993, 9.993882 
4.1520792e+2, 1.3490076e+2, -1499118.8, -1628465.4, -6219.836, 0.047822896, 0.0009087362, -1498820.4, 119151.766, 0.0, 10.011011, 9.993858 
4.1520095e+2, 1.4489444e+2, -1417196.6, -1541839.5, -11720.185, 0.046847343, -0.00014397058, -1416104.3, 103929.77, 0.0, 10.010071, 9.993544 
4.1519332e+2, 1.5488794e+2, -1332361.9, -1450300.8, -12241.341, 0.04582184, -0.006015031, -1331104.8, 90992.734, 0.0, 10.009177, 9.993541 
4.1518512e+2, 1.6488136e+2, -1247779.8, -1359436.0, -16338.514, 0.038793582, -0.014205597, -1245438.0, 78723.305, 0.0, 10.00829, 9.993487 
4.151764e+2, 1.7487475e+2, -1162687.0, -1267691.8, -16531.506, 0.025500275, -0.025739064, -1160145.9, 66079.54, 0.0, 10.00741, 9.99349 
4.1516724e+2, 1.8486777e+2, -1083999.5, -1188753.9, -20281.508, 0.01935158, -0.029330133, -1080209.9, 48083.52, 0.0, 10.006511, 9.992628 
4.151577e+2, 1.9486044e+2, -999460.0, -1097340.8, -20597.035, 0.020714942, -0.025466464, -995302.4, 35063.066, 0.0, 10.005594, 9.992623 
4.1514784e+2, 2.0485276e+2, -920139.25, -1016742.0, -23220.19, 0.019009719, -0.019542651, -914847.75, 17593.342, 0.0, 10.004678, 9.991879 
4.151376e+2, 2.1484472e+2, -835501.8, -925222.0, -23406.184, 0.014070083, -0.012262567, -829762.7, 4757.568, 0.0, 10.003763, 9.9918785 
4.151274e+2, 2.2483636e+2, -754022.0, -840110.25, -23120.764, 0.010326082, -0.012042623, -748205.44, -11603.313, 0.0, 10.002843, 9.991441 
4.1511732e+2, 2.3482773e+2, -669487.56, -748559.8, -22981.057, 0.007831, -0.020342385, -663293.6, -24607.193, 0.0, 10.001917, 9.991446 
4.151073e+2, 2.4481897e+2, -586918.25, -662203.2, -21645.992, 0.003792546, -0.022382414, -581138.3, -40365.992, 0.0, 10.001039, 9.99107 
4.1509745e+2, 2.548101e+2, -500856.1, -569831.6, -21325.807, -0.0019039008, -0.018601773, -494795.16, -51935.65, 0.0, 10.000212, 9.991079 
4.150878e+2, 2.6480097e+2, -418915.47, -484830.28, -19602.186, -0.0057307896, -0.014379992, -413526.63, -68577.67, 0.0, 9.999334, 9.990609 
4.1507834e+2, 2.7479163e+2, -334343.78, -393093.8, -19253.719, -0.0075105415, -0.01084217, -328596.2, -81555.81, 0.0, 9.998401, 9.990624 
4.1506958e+2, 2.8478172e+2, -256714.2, -315878.84, -13348.959, -0.008592977, -0.013802846, -253841.81, -104704.54, 0.0, 9.997472, 9.989643 
4.1506156e+2, 2.9477128e+2, -172008.8, -224111.92, -12371.253, -0.00894697, -0.02503891, -169220.61, -117981.03, 0.0, 9.996547, 9.989654 
4.1505426e+2, 3.047642e+2, -90297.05, -86099.89, -5916.3247, -0.009808616, -0.022279527, -81920.98, -81920.98, 0.0, 9.995635, 9.996189 
4.1504776e+2, 3.1476063e+2, -103181.31, -91958.76, -5545.0444, -0.0111913355, -0.005516702, -89681.18, -89681.18, 0.0, 9.994737, 9.99622 
4.2522657e+2, 1.24912456e+2, -1573388.6, -1716554.1, -2712.0398, 0.049405213, -0.0074251276, -1573337.3, 142520.38, 0.0, 10.012695, 9.993707 
4.2521927e+2, 1.3490628e+2, -1490259.1, -1626103.3, -3754.8376, 0.04885657, 0.005218658, -1490155.4, 127762.95, 0.0, 10.011698, 9.993684 
4.2521134e+2, 1.4489985e+2, -1408329.8, -1538177.8, -9052.508, 0.04717626, 0.004130443, -1407701.8, 112279.56, 0.0, 10.010703, 9.9934845 
4.252028e+2, 1.5489323e+2, -1324944.5, -1447345.0, -9011.072, 0.047141984, -0.006612079, -1324284.6, 97761.13, 0.0, 10.00971, 9.993482 
4.2519367e+2, 1.6488656e+2, -1242215.4, -1357960.3, -13006.508, 0.040141705, -0.015057386, -1240771.9, 83338.664, 0.0, 10.008722, 9.993377 
4.2518395e+2, 1.7487988e+2, -1158657.1, -1266978.4, -13657.523, 0.025876777, -0.022006737, -1156961.6, 69213.625, 0.0, 10.007737, 9.993378 
4.2517385e+2, 1.8487285e+2, -1080600.8, -1187380.9, -17507.045, 0.019004948, -0.024617095, -1077803.8, 50440.195, 0.0, 10.006754, 9.992602 
4.251634e+2, 1.9486547e+2, -997007.1, -1096422.3, -17413.803, 0.019911064, -0.02357335, -994045.1, 36271.277, 0.0, 10.005772, 9.992598 
4.2515257e+2, 2.0485772e+2, -918522.75, -1016541.06, -19766.387, 0.018132044, -0.018940693, -914686.75, 17705.758, 0.0, 10.004812, 9.991826 
4.2514142e+2, 2.1484962e+2, -834206.6, -925186.75, -20013.35, 0.013529441, -0.011332523, -829998.8, 4473.412, 0.0, 10.003877, 9.991824 
4.2513028e+2, 2.2484128e+2, -752799.06, -839237.6, -19923.318, 0.008932202, -0.010150879, -748427.94, -11873.801, 0.0, 10.002913, 9.991465 
4.2511916e+2, 2.3483269e+2, -669211.25, -748137.9, -19861.729, 0.004306385, -0.016837189, -664494.9, -25856.76, 0.0, 10.001923, 9.991469 
4.2510825e+2, 2.4482399e+2, -588347.44, -661501.0, -18438.621, 0.0005717754, -0.019573757, -583962.7, -43239.383, 0.0, 10.000879, 9.991193 
4.2509744e+2, 2.548152e+2, -506233.13, -571025.4, -17822.217, -0.0022190693, -0.018931456, -501654.4, -58844.9, 0.0, 9.999783, 9.991204 
4.2508686e+2, 2.6480618e+2, -426641.4, -488073.88, -15958.653, -0.0053147674, -0.014869749, -422743.1, -77844.98, 0.0, 9.998783, 9.990652 
4.2507648e+2, 2.747969e+2, -341492.4, -396077.56, -16018.476, -0.00871187, -0.008271802, -337138.88, -90149.88, 0.0, 9.9978895, 9.990665 
4.2506677e+2, 2.8478715e+2, -262548.94, -316149.97, -10499.335, -0.0113381455, -0.009950572, -260565.72, -111481.21, 0.0, 9.996962, 9.98987 
4.2505777e+2, 2.9477692e+2, -178438.6, -224627.19, -9635.207, -0.013134811, -0.02186719, -176509.22, -125324.64, 0.0, 9.995994, 9.989883 
4.2504957e+2, 3.0477002e+2, -98449.445, -88791.0, -3121.3235, -0.01324186, -0.018979095, -87870.086, -87870.086, 0.0, 9.995022, 9.996299 
4.2504215e+2, 3.1476653e+2, -112524.195, -95263.29, -2573.5356, -0.011444468, -0.0011744958, -94887.75, -94887.75, 0.0, 9.994043, 9.996326 
4.3523934e+2, 1.24918975e+2, -1575107.1, -1720052.9, -6343.163, 0.057958726, -0.008058815, -1574830.1, 140963.72, 0.0, 10.012693, 9.993469 
4.35231e+2, 1.3491255e+2, -1491927.5, -1629579.0, -7386.5396, 0.04916308, 0.0045032348, -1491532.3, 126324.77, 0.0, 10.0117, 9.993445 
4.3522203e+2, 1.4490601e+2, -1408187.5, -1537966.1, -12674.604, 0.04376362, 0.004176963, -1406961.3, 112959.77, 0.0, 10.010706, 9.993496 
4.3521246e+2, 1.5489943e+2, -1324791.6, -1447112.0, -12653.913, 0.04460449, -0.005271053, -1323496.4, 98488.836, 0.0, 10.009714, 9.993495 
4.3520236e+2, 1.6489272e+2, -1243390.6, -1360422.1, -16630.848, 0.03921962, -0.012158452, -1241073.1, 82977.33, 0.0, 10.008724, 9.993208 
4.3519172e+2, 1.7488588e+2, -1159898.0, -1269500.4, -17279.578, 0.027358778, -0.01729037, -1157238.4, 68878.61, 0.0, 10.007736, 9.993207 
4.3518063e+2, 1.8487877e+2, -1080446.0, -1187007.0, -21123.393, 0.020030292, -0.019861475, -1076411.5, 51774.832, 0.0, 10.006751, 9.992628 
4.3516913e+2, 1.9487138e+2, -996816.56, -1096007.4, -21036.26, 0.017464101, -0.0206306, -992539.6, 37718.984, 0.0, 10.005771, 9.992626 
4.3515736e+2, 2.0486362e+2, -918957.94, -1017424.56, -23222.303, 0.014354461, -0.017842304, -913756.0, 18578.992, 0.0, 10.004811, 9.991766 
4.3514526e+2, 2.1485543e+2, -834662.75, -926097.75, -23464.572, 0.010697647, -0.012124935, -828992.75, 5422.731, 0.0, 10.003875, 9.991762 
4.3513316e+2, 2.2484708e+2, -752724.6, -839036.56, -23584.605, 0.0050105928, -0.010068265, -746700.6, -10203.043, 0.0, 10.002912, 9.991479 
4.3512103e+2, 2.3483853e+2, -669141.06, -747931.06, -23534.404, -0.002870537, -0.01296535, -662646.7, -24065.57, 0.0, 10.00192, 9.991485 
4.3510905e+2, 2.4482992e+2, -587236.06, -659143.9, -22513.541, -0.0061491043, -0.014681687, -580768.94, -40103.563, 0.0, 10.000876, 9.991355 
4.350972e+2, 2.548213e+2, -505097.75, -568637.5, -21910.105, -0.004527039, -0.015932448, -498275.16, -55525.14, 0.0, 9.999781, 9.991367 
4.3508562e+2, 2.6481232e+2, -426726.16, -488214.56, -19293.42, -0.004442205, -0.013841756, -421173.78, -76335.734, 0.0, 9.998781, 9.990643 
4.3507436e+2, 2.74803e+2, -341612.53, -396275.94, -19337.246, -0.0059866677, -0.009320859, -335463.63, -88534.37, 0.0, 9.997888, 9.990652 
4.3506375e+2, 2.8479338e+2, -261095.44, -313072.0, -14092.5625, -0.009211623, -0.009640202, -257520.38, -108496.63, 0.0, 9.996959, 9.990081 
4.3505374e+2, 2.947834e+2, -176962.19, -221490.2, -13241.217, -0.014253012, -0.016474307, -173322.23, -122200.984, 0.0, 9.995991, 9.990099 
4.3504456e+2, 3.0477667e+2, -97561.77, -86872.914, -6764.24, -0.016720425, -0.014028637, -83596.56, -83596.56, 0.0, 9.995019, 9.996431 
4.3503615e+2, 3.1477326e+2, -111656.56, -93386.055, -6217.595, -0.016307276, -0.0026965723, -91470.914, -91470.914, 0.0, 9.9940405, 9.996456 
4.452524e+2, 1.2492667e+2, -1567419.5, -1718549.6, -1573.2522, 0.06300295, -0.007299715, -1567403.0, 148315.45, 0.0, 10.013313, 9.993268 
4.4524303e+2, 1.3492003e+2, -1483446.0, -1627692.0, -2359.9792, 0.05118071, 0.0029315762, -1483407.4, 134376.5, 0.0, 10.012374, 9.993244 
4.4523308e+2, 1.4491335e+2, -1399030.0, -1534660.3, -8132.1006, 0.044004455, 0.0038854838, -1398544.1, 121305.2, 0.0, 10.011379, 9.993392 
4.4522247e+2, 1.549067e+2, -1316497.1, -1444226.3, -8936.274, 0.044229884, -0.0010169583, -1315875.0, 106039.18, 0.0, 10.010328, 9.993391 
4.4521132e+2, 1.6489987e+2, -1237393.5, -1359039.9, -13517.781, 0.039534286, -0.006857354, -1235909.5, 88071.17, 0.0, 10.009198, 9.99307 
4.4519958e+2, 1.7489287e+2, -1157195.0, -1269730.4, -13930.626, 0.029735232, -0.014561668, -1155496.1, 70552.51, 0.0, 10.007986, 9.993068 
4.4518748e+2, 1.8488568e+2, -1078378.5, -1186027.8, -17278.314, 0.022091284, -0.017640458, -1075673.3, 52445.605, 0.0, 10.006892, 9.992624 
4.4517496e+2, 1.9487832e+2, -994569.56, -1094925.9, -17393.713, 0.016710004, -0.016768703, -991640.4, 38550.543, 0.0, 10.005923, 9.992623 
4.451622e+2, 2.0487055e+2, -917436.75, -1016758.7, -19558.516, 0.0130354, -0.01404882, -913724.06, 18543.287, 0.0, 10.004917, 9.991757 
4.4514915e+2, 2.1486233e+2, -834731.0, -926207.25, -19401.914, 0.011180437, -0.010203316, -830786.0, 3562.033, 0.0, 10.003872, 9.991754 
4.45136e+2, 2.2485396e+2, -754538.75, -840141.0, -19665.682, 0.006128462, -0.008856761, -750237.0, -13806.656, 0.0, 10.002795, 9.991457 
4.4512284e+2, 2.348454e+2, -672686.25, -749879.25, -19875.938, -0.0023490882, -0.011218012, -667869.1, -29354.99, 0.0, 10.001685, 9.991462 
4.4510978e+2, 2.4483685e+2, -590541.9, -659393.5, -19265.744, -0.0068164854, -0.011306833, -585517.7, -44919.87, 0.0, 10.000591, 9.991474 
4.4509682e+2, 2.5482836e+2, -508116.34, -568730.94, -18968.342, -0.006995094, -0.009791957, -502669.88, -59988.875, 0.0, 9.999514, 9.9914875 
4.450842e+2, 2.6481944e+2, -430936.7, -489400.97, -15751.992, -0.0070048566, -0.009281189, -426962.75, -82194.6, 0.0, 9.998455, 9.990717 
4.4507203e+2, 2.748102e+2, -347922.75, -398489.25, -15141.9795, -0.006839211, -0.010975699, -343735.28, -96876.12, 0.0, 9.997418, 9.990725 
4.450604e+2, 2.8480065e+2, -268941.34, -315163.2, -10053.534, -0.009465887, -0.011658036, -266849.3, -117896.74, 0.0, 9.996346, 9.990231 
4.4504935e+2, 2.947909e+2, -186853.81, -224551.63, -9679.047, -0.015103199, -0.012542904, -184513.92, -133465.83, 0.0, 9.995238, 9.990251 
4.4503912e+2, 3.0478436e+2, -108076.266, -89237.914, -2870.688, -0.017949585, -0.010261607, -88810.17, -88810.17, 0.0, 9.99418, 9.996672 
4.4502977e+2, 3.147811e+2, -122545.42, -95921.1, -1483.1781, -0.017664535, -0.005765342, -95838.734, -95838.734, 0.0, 9.9931755, 9.996696 
4.5526573e+2, 1.2493548e+2, -1568484.3, -1720945.4, -4999.441, 0.06487769, -0.005247401, -1568320.5, 147311.88, 0.0000000000000015724761, 10.013323, 9.9931 
4.5525545e+2, 1.3492863e+2, -1484600.5, -1630130.5, -5787.6797, 0.05476751, 0.0006112594, -1484370.6, 133329.14, 0.0000000000000010224964, 10.012377, 9.993076 
4.5524448e+2, 1.4492178e+2, -1400532.6, -1537741.8, -11978.219, 0.047587536, 0.003324518, -1399494.8, 120272.27, 0.0000000000000005526617, 10.011378, 9.993181 
4.5523283e+2, 1.5491499e+2, -1318006.4, -1447320.3, -12781.996, 0.045837898, 0.005934111, -1316755.0, 105078.25, 0.0000000000000002353943, 10.010327, 9.99318 
4.5522055e+2, 1.64908e+2, -1238159.3, -1360620.3, -17964.72, 0.04098672, 0.00065895135, -1235578.3, 88323.05, 0.000000000000000075687536, 10.009198, 9.992961 
4.5520762e+2, 1.7490083e+2, -1157929.5, -1271286.5, -18379.307, 0.03293413, -0.013667195, -1155024.0, 70946.95, 0.000000000000000017917764, 10.007987, 9.99296 
4.5519438e+2, 1.8489356e+2, -1078567.5, -1186447.9, -20826.2, 0.02510878, -0.017753463, -1074686.6, 53355.215, 0.0000000000000000030919298, 10.006893, 9.992595 
4.551809e+2, 1.9488624e+2, -994793.2, -1095354.6, -20946.21, 0.01753453, -0.012030279, -990604.75, 39509.137, 0.00000000000000000038783219, 10.005922, 9.992595 
4.551671e+2, 2.0487846e+2, -917163.1, -1016133.56, -23408.084, 0.014023738, -0.007716483, -911906.0, 20284.053, 0.000000000000000000035343967, 10.004914, 9.9918 
4.5515305e+2, 2.1487029e+2, -834448.4, -925567.75, -23261.959, 0.014786268, -0.0057108346, -828853.3, 5417.098, 0.0000000000000000000023400566, 10.00387, 9.991797 
4.551389e+2, 2.2486188e+2, -754947.8, -840933.9, -23771.752, 0.012020799, -0.0065683248, -748813.5, -12460.488, 0.00000000000000000000011256742, 10.002793, 9.991404 
4.5512462e+2, 2.3485324e+2, -673104.4, -750695.7, -23985.742, 0.0055057146, -0.011488787, -666288.44, -27850.838, 0.0, 10.001683, 9.991406 
4.551104e+2, 2.4484473e+2, -589998.06, -658226.5, -23262.387, -0.0017061436, -0.009363921, -582821.6, -42300.68, 0.0, 10.000589, 9.991553 
4.550963e+2, 2.5483638e+2, -507563.2, -567549.06, -22974.002, -0.009636436, -0.0006087754, -499775.44, -57172.67, 0.0, 9.999512, 9.991569 
4.5508265e+2, 2.648276e+2, -429846.84, -487104.9, -19615.223, -0.012894698, -0.0013058052, -423771.72, -79082.914, 0.0, 9.998453, 9.990873 
4.550694e+2, 2.748184e+2, -346830.34, -396179.03, -19004.25, -0.011171864, -0.013220077, -340360.1, -93581.11, 0.0, 9.997416, 9.990883 
4.550567e+2, 2.8480896e+2, -268325.34, -313834.2, -14183.992, -0.012042356, -0.015934596, -264266.53, -115395.24, 0.0, 9.996345, 9.990322 
4.550446e+2, 2.9479936e+2, -186251.86, -223248.9, -13820.029, -0.01569119, -0.010029017, -181659.5, -130694.09, 0.0, 9.995235, 9.99034 
4.5503333e+2, 3.0479303e+2, -105665.36, -84179.72, -6622.2876, -0.016974045, -0.007651791, -82302.6, -82302.6, 0.0, 9.994178, 9.997019 
4.5502296e+2, 3.1479007e+2, -120106.266, -90797.766, -5231.5327, -0.015579932, -0.010359014, -89891.94, -89891.94, 0.0, 9.993173, 9.997048 
4.6527955e+2, 1.2494548e+2, -1554641.3, -1716190.4, -902.488, 0.06273284, 0.0015609643, -1554636.3, 160898.63, 0.00000000000004572398, 10.01435, 9.992921 
4.6526822e+2, 1.3493842e+2, -1475268.4, -1627580.3, -1767.7329, 0.056508914, 0.0049533015, -1475247.9, 142356.38, 0.00000000000002972191, 10.013098, 9.992897 
4.6525615e+2, 1.4493139e+2, -1394021.5, -1536531.4, -7831.8247, 0.050814576, 0.0077364002, -1393592.4, 126080.84, 0.000000000000016059906, 10.011906, 9.993005 
4.652434e+2, 1.5492445e+2, -1312631.0, -1446669.8, -8386.057, 0.047849737, 0.012464161, -1312108.4, 109632.66, 0.0000000000000068385315, 10.010777, 9.993003 
4.6522996e+2, 1.6491735e+2, -1232413.3, -1358466.4, -13687.271, 0.04175757, 0.006568704, -1230944.1, 92866.18, 0.0000000000000021982491, 10.009615, 9.992902 
4.6521583e+2, 1.7491008e+2, -1151963.0, -1269019.9, -13744.437, 0.032469243, -0.01119692, -1150370.8, 75509.945, 0.00000000000000052026124, 10.00842, 9.992901 
4.6520144e+2, 1.8490273e+2, -1074225.0, -1185409.9, -15763.197, 0.024618898, -0.016122721, -1072033.4, 55919.016, 0.00000000000000008975727, 10.007235, 9.9924965 
4.651869e+2, 1.9489531e+2, -993435.75, -1095771.0, -16352.648, 0.018259171, -0.008549072, -990886.25, 39139.043, 0.000000000000000011256537, 10.00606, 9.9924965 
4.6517205e+2, 2.0488752e+2, -916925.75, -1015745.4, -19128.287, 0.015245997, -0.0028489546, -913352.4, 18749.39, 0.0000000000000000010256434, 10.004917, 9.991823 
4.6515688e+2, 2.1487938e+2, -835113.5, -925601.4, -19112.338, 0.015765103, 0.000037428897, -831242.3, 2939.4644, 0.00000000000000000006789288, 10.00381, 9.991821 
4.651416e+2, 2.2487096e+2, -756582.3, -841562.0, -19679.518, 0.0128059285, -0.0017948257, -752246.2, -15981.978, 0.0000000000000000000032653106, 10.002672, 9.991416 
4.651262e+2, 2.3486231e+2, -675610.0, -751755.0, -19392.912, 0.006159818, -0.009579145, -670955.5, -32606.52, 0.0, 10.001503, 9.991418 
4.6511087e+2, 2.4485382e+2, -593336.3, -659835.7, -18546.756, -0.0019356224, -0.007430783, -588513.4, -48081.117, 0.0, 10.000359, 9.991551 
4.6509567e+2, 2.548455e+2, -511515.56, -569464.25, -18849.584, -0.011577821, 0.0043385723, -505923.72, -63409.84, 0.0, 9.999239, 9.991566 
4.6508092e+2, 2.6483682e+2, -433399.47, -486486.78, -15583.978, -0.015057657, 0.004108787, -429162.84, -84563.97, 0.0, 9.998108, 9.991079 
4.6506658e+2, 2.7482778e+2, -351933.4, -396274.72, -14580.919, -0.011960401, -0.010047357, -347568.4, -100881.3, 0.0, 9.996963, 9.991093 
4.6505278e+2, 2.8481847e+2, -275807.13, -316628.97, -9845.268, -0.012358034, -0.014403499, -273556.75, -124778.59, 0.0, 9.995795, 9.990393 
4.650395e+2, 2.9480892e+2, -194967.67, -226668.02, -9632.528, -0.016479243, -0.009446732, -192270.25, -141398.53, 0.0, 9.994603, 9.990408 
4.650271e+2, 3.0480283e+2, -114463.9, -85113.96, -2437.0986, -0.019244554, -0.0063605686, -84912.98, -84912.98, 0.0, 9.99343, 9.997313 
4.6501562e+2, 3.1480017e+2, -131047.5, -92721.14, -1442.8816, -0.020408155, -0.0066424357, -92666.9, -92666.9, 0.0, 9.992277, 9.997346 
4.7529382e+2, 1.249566e+2, -1555962.3, -1718957.5, -5504.8887, 0.05704453, 0.012744576, -1555776.5, 159650.1, 0.0000000000010213847, 10.014353, 9.992731 
4.752813e+2, 1.3494936e+2, -1476591.9, -1630344.0, -6354.9785, 0.056588702, 0.015328954, -1476329.6, 141168.22, 0.0000000000006637269, 10.013099, 9.992707 
4.752681e+2, 1.4494213e+2, -1395040.5, -1538640.0, -11948.891, 0.05371229, 0.016658574, -1394053.0, 125515.484, 0.00000000000035854373, 10.011906, 9.992861 
4.752542e+2, 1.5493503e+2, -1313678.6, -1448791.0, -12499.266, 0.050227385, 0.018619943, -1312532.0, 109106.04, 0.00000000000015263993, 10.010776, 9.992859 
4.7523957e+2, 1.6492783e+2, -1232513.6, -1358640.5, -18060.166, 0.041897334, 0.011040062, -1229978.5, 93729.67, 0.000000000000049056144, 10.009614, 9.992889 
4.752242e+2, 1.7492053e+2, -1152026.8, -1269168.6, -18127.078, 0.028628979, -0.007249202, -1149285.9, 76492.8, 0.000000000000011607833, 10.00842, 9.992889 
4.7520864e+2, 1.849131e+2, -1075324.3, -1187707.6, -20074.027, 0.020894852, -0.012865997, -1071846.3, 56004.98, 0.0000000000000020022832, 10.007236, 9.992338 
4.7519296e+2, 1.949055e+2, -994554.44, -1098092.6, -20662.396, 0.018892238, -0.0062256213, -990583.3, 39342.406, 0.00000000000000025107502, 10.00606, 9.992336 
4.7517696e+2, 2.0489766e+2, -916873.4, -1015648.0, -23191.895, 0.016670752, 0.0006716144, -911699.06, 20303.783, 0.000000000000000022873987, 10.004917, 9.991828 
4.751607e+2, 2.1488956e+2, -835045.75, -925478.7, -23185.582, 0.014260695, 0.006985358, -829447.8, 4634.757, 0.0000000000000000015139686, 10.00381, 9.991828 
4.7514427e+2, 2.248812e+2, -756009.1, -840399.4, -23997.635, 0.008749575, 0.005339823, -749662.4, -13497.806, 0.000000000000000000072804, 10.002673, 9.991493 
4.7512767e+2, 2.348726e+2, -675033.4, -750589.1, -23726.568, -0.00004703729, -0.0055823303, -668200.5, -29951.816, 0.0, 10.001504, 9.991496 
4.751112e+2, 2.4486408e+2, -593870.25, -660949.5, -22700.875, -0.00726466, -0.005503929, -586910.0, -46577.824, 0.0, 10.000359, 9.991474 
4.7509488e+2, 2.5485566e+2, -512089.5, -570628.06, -22999.684, -0.012835688, 0.005214481, -504134.1, -61719.36, 0.0, 9.999238, 9.991486 
4.75079e+2, 2.6484707e+2, -431607.97, -482731.2, -19840.951, -0.013619305, 0.007080633, -424811.28, -80312.58, 0.0, 9.998106, 9.991336 
4.7506356e+2, 2.7483836e+2, -350118.06, -392456.75, -18855.01, -0.009306764, -0.0015736033, -342938.63, -96354.8, 0.0, 9.99696, 9.991353 
4.7504857e+2, 2.848292e+2, -275461.78, -315857.0, -14300.465, -0.010476325, -0.0072029596, -270911.75, -122238.336, 0.0, 9.995792, 9.990446 
4.750341e+2, 2.9481962e+2, -194645.4, -225949.58, -14092.301, -0.017477596, -0.010776077, -189236.13, -138468.88, 0.0, 9.9946, 9.990458 
4.7502047e+2, 3.0481365e+2, -112784.22, -81582.72, -6748.817, -0.024740776, -0.0063371435, -80185.53, -80185.53, 0.0, 9.993428, 9.997554 
4.7500777e+2, 3.1481138e+2, -129350.61, -89149.21, -5757.7607, -0.032127127, 0.0053602173, -88340.83, -88340.83, 0.0, 9.992275, 9.997591 
4.853086e+2, 1.2496891e+2, -1545045.9, -1715145.3, -1659.9757, 0.058676135, 0.020598494, -1545029.8, 170276.97, 0.000000000016416356, 10.015159, 9.992594 
4.8529476e+2, 1.3496153e+2, -1467111.3, -1627229.4, -2120.4875, 0.057652395, 0.023819264, -1467083.1, 150296.05, 0.000000000010664758, 10.013808, 9.992571 
4.852803e+2, 1.4495417e+2, -1387282.1, -1536218.9, -7085.789, 0.054579347, 0.024340296, -1386945.8, 132505.42, 0.000000000005759613, 10.012491, 9.992737 
4.852652e+2, 1.5494691e+2, -1308141.0, -1447461.9, -7479.2505, 0.050897807, 0.02339523, -1307740.6, 113781.586, 0.0000000000024514607, 10.0112095, 9.992734 
4.852494e+2, 1.6493964e+2, -1227319.5, -1356476.6, -12945.173, 0.04256175, 0.015814159, -1226034.8, 97558.266, 0.0000000000007877123, 10.009981, 9.992854 
4.8523283e+2, 1.7493235e+2, -1146546.0, -1266865.9, -13157.012, 0.029494967, 0.0005226958, -1145124.0, 80539.52, 0.00000000000018636007, 10.008807, 9.992855 
4.8521605e+2, 1.8492483e+2, -1070845.1, -1186610.4, -15115.71, 0.021583477, -0.00562402, -1068903.9, 58832.836, 0.00000000000003214101, 10.007586, 9.992239 
4.8519915e+2, 1.9491708e+2, -991488.56, -1097690.8, -15259.188, 0.019030022, -0.003200344, -989339.56, 40473.01, 0.0000000000000040297288, 10.006313, 9.992237 
4.85182e+2, 2.0490916e+2, -914383.06, -1014820.1, -17343.174, 0.0159575, 0.0026492537, -911472.7, 20417.852, 0.00000000000000036708134, 10.005101, 9.991791 
4.8516455e+2, 2.1490104e+2, -833180.9, -924951.25, -17623.059, 0.012356083, 0.011211325, -829913.0, 4057.4385, 0.00000000000000002429372, 10.003951, 9.991792 
4.8514694e+2, 2.248927e+2, -754248.25, -839219.2, -18966.32, 0.00647024, 0.01136616, -750207.0, -14154.686, 0.0000000000000000011681062, 10.002777, 9.99152 
4.8512915e+2, 2.3488414e+2, -673729.56, -749629.56, -19050.586, -0.0018366873, 0.0017883461, -669216.3, -31080.291, 0.0, 10.001576, 9.991522 
4.851115e+2, 2.4487562e+2, -594102.4, -660704.8, -17922.473, -0.008098777, -0.000047754493, -589585.8, -49366.402, 0.0, 10.000324, 9.991504 
4.85094e+2, 2.548672e+2, -515039.75, -571707.9, -17407.012, -0.0122092115, 0.005333901, -510119.88, -67817.76, 0.0, 9.999019, 9.991513 
4.8507693e+2, 2.6485866e+2, -436595.53, -484120.6, -14466.946, -0.013114278, 0.008385629, -432538.1, -88152.65, 0.0, 9.997718, 9.991425 
4.8506024e+2, 2.7485013e+2, -357297.0, -394895.28, -14738.108, -0.010614486, 0.0078047225, -352208.5, -105739.44, 0.0, 9.996422, 9.991443 
4.8504406e+2, 2.848411e+2, -283481.38, -317936.13, -10369.664, -0.012306979, 0.0022878975, -280601.25, -132043.84, 0.0, 9.995164, 9.990603 
4.8502836e+2, 2.948316e+2, -203038.14, -228198.0, -9330.3, -0.018471127, -0.009631909, -199955.72, -149305.36, 0.0, 9.993946, 9.990616 
4.8501354e+2, 3.0482575e+2, -121944.36, -84857.36, -1934.5175, -0.026803507, -0.0054011396, -84756.73, -84756.73, 0.0, 9.992748, 9.997654 
4.8499963e+2, 3.1482363e+2, -138861.38, -92610.78, -2042.8119, -0.03727693, 0.014807722, -92520.73, -92520.73, 0.0, 9.991572, 9.997689 
4.9532387e+2, 1.24982335e+2, -1545745.4, -1716478.5, -6530.653, 0.06687465, 0.025672382, -1545495.9, 169679.78, 0.00000000020008109, 10.015154, 9.992504 
4.953086e+2, 1.3497488e+2, -1467739.4, -1628505.5, -7000.4434, 0.05957869, 0.030651191, -1467435.1, 149813.81, 0.00000000012995033, 10.013806, 9.992483 
4.9529278e+2, 1.4496744e+2, -1387989.9, -1537701.4, -11722.587, 0.053626407, 0.030934952, -1387077.5, 132244.25, 0.00000000007016628, 10.012492, 9.992635 
4.952764e+2, 1.5496004e+2, -1308854.4, -1448960.0, -12123.585, 0.050019618, 0.026943933, -1307813.0, 113581.06, 0.00000000002985943, 10.01121, 9.99263 
4.9525937e+2, 1.649527e+2, -1227698.8, -1357245.8, -17208.035, 0.043708146, 0.020894894, -1225451.9, 98013.664, 0.00000000000959314, 10.00998, 9.992801 
4.9524167e+2, 1.749454e+2, -1146980.6, -1267666.6, -17445.047, 0.03467211, 0.011824599, -1144509.5, 81026.625, 0.0000000000022693275, 10.008802, 9.992801 
4.952237e+2, 1.8493783e+2, -1071190.0, -1187224.9, -19784.975, 0.026311863, 0.0052939504, -1067909.3, 59700.563, 0.00000000000039134033, 10.007581, 9.992198 
4.9520546e+2, 1.9492999e+2, -991786.75, -1098281.1, -19931.936, 0.018691475, 0.00048347467, -988178.5, 41508.13, 0.00000000000004905919, 10.006311, 9.992196 
4.9518704e+2, 2.0492198e+2, -914893.1, -1015874.2, -21564.771, 0.013253978, 0.0032105383, -910480.75, 21284.574, 0.00000000000000446859, 10.005101, 9.991718 
4.9516848e+2, 2.149138e+2, -833706.4, -926020.3, -21848.492, 0.01007612, 0.012909788, -828796.5, 5049.4116, 0.00000000000000029572006, 10.00395, 9.991717 
4.9514973e+2, 2.2490545e+2, -754407.25, -839495.0, -23392.654, 0.0058708033, 0.016382435, -748400.1, -12472.164, 0.000000000000000014218145, 10.002774, 9.991501 
4.9513078e+2, 2.3489691e+2, -673918.5, -749922.44, -23488.12, 0.0005722984, 0.012393829, -667245.6, -29234.203, 0.0, 10.001572, 9.991503 
4.9511188e+2, 2.4488844e+2, -593202.3, -658746.3, -22766.854, -0.0046468945, 0.008783902, -586070.25, -45975.945, 0.0, 10.00032, 9.991638 
4.9509308e+2, 2.5488004e+2, -514110.53, -569723.3, -22266.414, -0.009781758, 0.004719504, -506294.06, -64117.586, 0.0, 9.999016, 9.991649 
4.9507466e+2, 2.6487157e+2, -437117.3, -485170.4, -19300.898, -0.013529898, 0.008096804, -430325.03, -86065.57, 0.0, 9.997716, 9.991352 
4.950566e+2, 2.7486303e+2, -357828.16, -395986.63, -19579.07, -0.0157998, 0.01808966, -349569.53, -103226.51, 0.0, 9.996421, 9.991367 
4.9503917e+2, 2.848541e+2, -281623.25, -314069.94, -14926.005, -0.017772662, 0.0140371155, -275801.6, -127371.234, 0.0, 9.995163, 9.990867 
4.9502227e+2, 2.948448e+2, -201159.17, -224268.3, -13890.476, -0.019451115, -0.0060399384, -194645.72, -144124.45, 0.0, 9.993944, 9.990884 
4.9500632e+2, 3.0483907e+2, -122248.91, -85449.89, -6340.627, -0.025456525, -0.0035603766, -84388.016, -84388.016, 0.0, 9.992747, 9.997613 
4.9499124e+2, 3.1483698e+2, -139209.34, -93290.43, -6453.3716, -0.035885192, 0.02171004, -92400.72, -92400.72, 0.0, 9.99157, 9.9976425 
5.053394e+2, 1.2499745e+2, -1537943.5, -1714834.8, 741.6617, 0.070140816, 0.026003169, -1537940.4, 177087.61, 0.0000000018834205, 10.015777, 9.992308 
5.053227e+2, 1.3498986e+2, -1459599.9, -1626657.0, -393.05862, 0.060876317, 0.036127735, -1459598.9, 157503.8, 0.0000000012230419, 10.01445, 9.9922905 
5.053056e+2, 1.4498226e+2, -1379534.6, -1534699.6, -5376.86, 0.053560033, 0.037434075, -1379348.5, 139828.44, 0.0000000006602698, 10.013113, 9.992531 
5.052879e+2, 1.5497473e+2, -1301381.1, -1446449.8, -5757.4272, 0.048758082, 0.029610984, -1301153.0, 120097.59, 0.00000000028093763, 10.011766, 9.992526 
5.052696e+2, 1.6496725e+2, -1222736.5, -1356677.8, -11118.216, 0.04370453, 0.024215186, -1221819.9, 101503.46, 0.00000000009024813, 10.010395, 9.992633 
5.0525063e+2, 1.7495985e+2, -1145177.9, -1268645.3, -12133.482, 0.038412917, 0.02036298, -1143996.8, 81398.51, 0.000000000021347108, 10.009003, 9.992632 
5.052314e+2, 1.8495221e+2, -1069271.8, -1186162.5, -14492.492, 0.03039304, 0.01459478, -1067501.6, 59967.973, 0.000000000003680985, 10.007703, 9.992207 
5.052119e+2, 1.9494434e+2, -988947.8, -1096765.6, -14263.499, 0.019632785, 0.0059487456, -987092.75, 42453.8, 0.0000000000004614206, 10.006496, 9.992205 
5.051922e+2, 2.0493628e+2, -912865.8, -1015554.94, -15536.259, 0.012614823, 0.0076225568, -910566.75, 21058.867, 0.00000000000004202637, 10.005265, 9.991655 
5.0517243e+2, 2.1492806e+2, -833247.3, -926472.56, -15719.2, 0.009454015, 0.01912425, -830668.1, 3038.5566, 0.0000000000000027810874, 10.004007, 9.991653 
5.0515246e+2, 2.2491966e+2, -756095.4, -840594.44, -17653.496, 0.006044065, 0.022656664, -752555.5, -16766.299, 0.00000000000000013370836, 10.002667, 9.991471 
5.051322e+2, 2.3491108e+2, -678867.9, -752603.2, -17792.104, 0.0023666036, 0.01697951, -674799.25, -36926.137, 0.0, 10.001243, 9.991474 
5.0511205e+2, 2.4490266e+2, -598470.5, -660003.8, -17030.516, -0.0016496975, 0.013414968, -594071.44, -54115.89, 0.0, 9.999901, 9.99175 
5.050919e+2, 2.548944e+2, -518658.53, -570627.9, -16675.908, -0.006044462, 0.0111334, -513767.84, -71731.4, 0.0, 9.998646, 9.991761 
5.0507224e+2, 2.6488596e+2, -441619.03, -487849.66, -13527.404, -0.011990011, 0.014144547, -437951.72, -93832.58, 0.0, 9.997426, 9.991303 
5.050529e+2, 2.7487734e+2, -360682.25, -397892.6, -13593.141, -0.01951741, 0.021612663, -356245.6, -110042.08, 0.0, 9.996244, 9.991317 
5.0503415e+2, 2.848685e+2, -283214.16, -312414.8, -9318.087, -0.023064723, 0.018188104, -280494.06, -132204.08, 0.0, 9.994946, 9.991079 
5.0501597e+2, 2.9485944e+2, -205702.23, -223998.6, -8654.467, -0.022439273, 0.0019703996, -202257.2, -151878.84, 0.0, 9.993524, 9.9911 
5.049987e+2, 3.0485386e+2, -132166.56, -89395.484, -1066.6365, -0.025535572, 0.0039094733, -89368.9, -89368.9, 0.0, 9.992028, 9.9976845 
5.049823e+2, 3.1485173e+2, -154962.13, -100083.6, -295.61346, -0.03241374, 0.02403255, -100082.01, -100082.01, 0.0, 9.990454, 9.99771 
5.153551e+2, 1.2501413e+2, -1539933.5, -1718981.1, -4114.012, 0.06892366, 0.022085544, -1539839.0, 175025.88, 0.000000014146236, 10.015779, 9.992023 
5.153372e+2, 1.3500634e+2, -1461598.9, -1630774.4, -5211.868, 0.061631616, 0.040464148, -1461438.5, 155503.19, 0.000000009184966, 10.01445, 9.992009 
5.1531875e+2, 1.4499858e+2, -1380244.6, -1536143.5, -10271.725, 0.054279808, 0.04386872, -1379570.8, 139446.88, 0.0000000049579723, 10.013112, 9.992432 
5.152996e+2, 1.549909e+2, -1302091.4, -1447906.1, -10655.735, 0.047149576, 0.031519692, -1301316.9, 119775.71, 0.0000000021093194, 10.0117655, 9.992426 
5.1527995e+2, 1.6498323e+2, -1224614.6, -1360583.1, -16192.237, 0.042662967, 0.02598504, -1222712.9, 100454.28, 0.00000000067754047, 10.010396, 9.992365 
5.152596e+2, 1.749756e+2, -1147015.3, -1272542.3, -17206.385, 0.04084333, 0.02641657, -1144699.5, 80542.016, 0.00000000016025786, 10.009007, 9.992363 
5.152391e+2, 1.8496788e+2, -1068792.5, -1185267.8, -18878.08, 0.033878963, 0.022451889, -1065809.3, 61507.62, 0.000000000027633043, 10.007707, 9.992264 
5.152184e+2, 1.9496006e+2, -988524.9, -1095888.1, -18676.365, 0.021749377, 0.013095675, -985368.8, 44024.383, 0.000000000003463708, 10.006495, 9.992263 
5.151975e+2, 2.0495202e+2, -913242.4, -1016273.25, -20161.291, 0.013883763, 0.015640557, -909437.7, 22034.406, 0.00000000000031546386, 10.005262, 9.991606 
5.151765e+2, 2.1494375e+2, -833638.56, -927206.7, -20353.623, 0.010377621, 0.029583149, -829402.8, 4150.6445, 0.000000000000020875178, 10.0040045, 9.991603 
5.151551e+2, 2.249353e+2, -756344.2, -841073.4, -22925.973, 0.006937677, 0.030105228, -750538.7, -14902.029, 0.000000000000001003612, 10.0026655, 9.991438 
5.1513344e+2, 2.349266e+2, -679066.1, -753059.6, -23067.47, 0.0035697175, 0.015844358, -672463.94, -34742.37, 0.0, 10.001244, 9.99144 
5.151119e+2, 2.4491821e+2, -597755.8, -658584.7, -21685.705, 0.0009156033, 0.014090445, -590816.44, -51012.816, 0.0, 9.999903, 9.991843 
5.1509064e+2, 2.5491017e+2, -517975.28, -569231.75, -21348.02, -0.0010420532, 0.024378585, -510248.72, -68366.29, 0.0, 9.998646, 9.991855 
5.150697e+2, 2.6490176e+2, -441767.6, -488139.5, -17934.186, -0.008562494, 0.026303476, -435641.03, -91676.18, 0.0, 9.997425, 9.991282 
5.1504916e+2, 2.74893e+2, -360855.44, -398204.0, -18001.209, -0.021814572, 0.018480362, -353591.88, -107541.086, 0.0, 9.996243, 9.991295 
5.150291e+2, 2.848842e+2, -282061.8, -309973.5, -14636.595, -0.028204534, 0.014916522, -275794.0, -127657.44, 0.0, 9.994943, 9.991246 
5.1500946e+2, 2.9487544e+2, -204532.1, -221529.08, -13994.092, -0.02743698, 0.014430423, -196658.08, -146436.17, 0.0, 9.993522, 9.991268 
5.1499075e+2, 3.0487007e+2, -130866.39, -86653.47, -6974.4956, -0.027028054, 0.016970098, -85579.35, -85579.35, 0.0, 9.992025, 9.997871 
5.149728e+2, 3.14868e+2, -153676.23, -97354.02, -6215.561, -0.026843106, 0.02170269, -96676.25, -96676.25, 0.0, 9.99045, 9.997897 
5.2537125e+2, 1.2503238e+2, -1529357.6, -1716299.8, 904.9899, 0.06916909, 0.0324669, -1529353.3, 185333.36, 0.00000008689103, 10.016602, 9.991799 
5.25352e+2, 1.3502432e+2, -1453144.5, -1629089.9, 249.0537, 0.06280557, 0.04551758, -1453144.1, 163621.9, 0.000000056410585, 10.015127, 9.991789 
5.253321e+2, 1.4501642e+2, -1372295.3, -1533070.6, -4416.597, 0.05545257, 0.048113193, -1372174.1, 146669.4, 0.000000030446795, 10.013685, 9.992356 
5.2531165e+2, 1.5500869e+2, -1295097.8, -1445304.0, -4605.435, 0.047237784, 0.0392089, -1294956.8, 125962.09, 0.000000012952071, 10.012273, 9.99235 
5.252906e+2, 1.6500087e+2, -1218683.1, -1360022.1, -9766.232, 0.04203628, 0.0331106, -1218011.5, 104983.414, 0.0000000041601202, 10.010898, 9.992153 
5.252689e+2, 1.7499298e+2, -1140315.6, -1271616.0, -10349.969, 0.039870445, 0.0290243, -1139504.8, 85566.96, 0.000000000983967, 10.009561, 9.99215 
5.252471e+2, 1.8498513e+2, -1062255.5, -1182574.8, -12043.028, 0.033639845, 0.025173336, -1061061.9, 66086.46, 0.00000000016966079, 10.008169, 9.992215 
5.2522504e+2, 1.9497731e+2, -985463.56, -1094884.8, -12557.116, 0.023329342, 0.02056206, -984041.0, 45183.734, 0.00000000002126587, 10.0067215, 9.992215 
5.252028e+2, 2.0496924e+2, -912735.2, -1016480.94, -14311.662, 0.016134415, 0.024938894, -910797.06, 20506.877, 0.0000000000019367906, 10.005312, 9.991561 
5.2518046e+2, 2.1496093e+2, -834784.44, -928215.6, -14433.507, 0.012126344, 0.037720624, -832605.5, 780.3895, 0.0000000000001281611, 10.003942, 9.991559 
5.2515775e+2, 2.2495244e+2, -756172.4, -840211.44, -16640.645, 0.007149282, 0.03621393, -752997.3, -17528.145, 0.000000000000006161526, 10.002639, 9.991503 
5.2513474e+2, 2.3494379e+2, -676095.94, -750845.1, -16033.243, 0.001223805, 0.019088704, -672802.06, -35248.4, 0.0, 10.00141, 9.991505 
5.251119e+2, 2.4493541e+2, -595572.4, -658199.3, -14923.832, -0.0018518645, 0.018624736, -592197.9, -52562.35, 0.0, 10.000077, 9.991778 
5.250892e+2, 2.5492737e+2, -518441.44, -570150.1, -15727.472, -0.0020728204, 0.034439623, -514033.6, -72319.0, 0.0, 9.998639, 9.991788 
5.2506703e+2, 2.6491898e+2, -444280.53, -487797.22, -12243.835, -0.008224186, 0.035564948, -441072.16, -97275.42, 0.0, 9.997182, 9.991417 
5.250451e+2, 2.7491024e+2, -367686.22, -399931.47, -11105.494, -0.020498324, 0.0204129, -364231.53, -118349.664, 0.0, 9.995703, 9.99143 
5.250237e+2, 2.849016e+2, -290966.06, -313227.78, -7621.236, -0.026583655, 0.016051369, -288606.94, -140640.31, 0.0, 9.994285, 9.991335 
5.2500266e+2, 2.94893e+2, -212471.9, -224323.06, -7553.168, -0.026221752, 0.021642268, -208797.34, -158746.7, 0.0, 9.9929285, 9.991356 
5.249825e+2, 3.0488774e+2, -136700.25, -87032.695, -1220.1267, -0.027294777, 0.02527186, -87002.734, -87002.734, 0.0, 9.991516, 9.998085 
5.24963e+2, 3.1488585e+2, -158005.45, -96999.81, -243.27058, -0.029662631, 0.025700338, -96998.84, -96998.84, 0.0, 9.990044, 9.998111 
5.3538793e+2, 1.2505211e+2, -1530753.0, -1718835.3, -4528.9272, 0.07069826, 0.055298906, -1530644.1, 183850.08, 0.0000004413472, 10.016587, 9.991632 
5.3536713e+2, 1.3504371e+2, -1454435.5, -1631557.5, -5134.1646, 0.064346224, 0.05115791, -1454286.8, 162289.95, 0.00000028649674, 10.015119, 9.991623 
5.3534585e+2, 1.4503565e+2, -1372706.0, -1533798.9, -9561.7705, 0.057025876, 0.050501876, -1372140.4, 146515.05, 0.00000015461846, 10.0136795, 9.992307 
5.353239e+2, 1.55028e+2, -1295506.3, -1446042.3, -9782.86, 0.048832454, 0.05210455, -1294873.1, 125857.17, 0.00000006576992, 10.012268, 9.9923 
5.3530145e+2, 1.6502006e+2, -1219825.5, -1362302.1, -14661.016, 0.04175903, 0.04502162, -1218332.5, 104474.89, 0.000000021123915, 10.010894, 9.991997 
5.3527844e+2, 1.750119e+2, -1141433.8, -1273883.3, -15222.975, 0.03581318, 0.028520899, -1139706.6, 85180.17, 0.0000000049962234, 10.009559, 9.991995 
5.352552e+2, 1.8500389e+2, -1063235.4, -1184585.3, -17331.422, 0.030035004, 0.023293367, -1060808.6, 66156.375, 0.0000000008614687, 10.008168, 9.992077 
5.3523177e+2, 1.9499601e+2, -986428.44, -1096895.8, -17858.291, 0.024430763, 0.028377665, -983613.2, 45428.77, 0.00000000010797912, 10.0067215, 9.992076 
5.352081e+2, 2.0498788e+2, -912958.1, -1016962.75, -19337.256, 0.019284368, 0.035427902, -909479.1, 21642.684, 0.000000000009834148, 10.005312, 9.991526 
5.3518444e+2, 2.1497951e+2, -835019.44, -928698.25, -19471.543, 0.014634722, 0.043703657, -831133.44, 2071.1223, 0.00000000000065073695, 10.003941, 9.991524 
5.351604e+2, 2.2497107e+2, -755020.9, -837802.75, -21177.945, 0.0066973646, 0.041111328, -749917.56, -14630.302, 0.000000000000031284996, 10.002638, 9.991666 
5.351361e+2, 2.349626e+2, -674966.3, -748446.3, -20592.541, -0.0045078755, 0.026527882, -669588.9, -32218.996, 0.0, 10.001406, 9.991668 
5.351119e+2, 2.4495421e+2, -597094.8, -661293.06, -20275.992, -0.009727361, 0.02683914, -591227.25, -51775.28, 0.0, 10.000073, 9.991567 
5.350878e+2, 2.5494593e+2, -519957.94, -573274.56, -21080.469, -0.008932254, 0.041422613, -512630.22, -71096.92, 0.0, 9.998638, 9.991573 
5.3506416e+2, 2.6493758e+2, -442206.03, -483489.94, -17760.324, -0.010861077, 0.042059775, -435617.13, -92002.05, 0.0, 9.997181, 9.99171 
5.350409e+2, 2.7492917e+2, -365601.94, -395586.88, -16643.889, -0.015603643, 0.02735147, -358193.66, -112496.57, 0.0, 9.995701, 9.991726 
5.350181e+2, 2.8492063e+2, -290860.0, -312978.2, -12713.734, -0.018284375, 0.021505263, -285068.5, -137288.08, 0.0, 9.994283, 9.99135 
5.3499573e+2, 2.94912e+2, -212387.55, -224112.88, -12649.373, -0.018820891, 0.02358239, -204308.27, -154443.5, 0.0, 9.992927, 9.991369 
5.34974e+2, 3.0490693e+2, -134990.53, -83450.69, -6749.0527, -0.026391407, 0.028845927, -82581.57, -82581.57, 0.0, 9.991514, 9.998329 
5.3495294e+2, 3.1490538e+2, -156275.92, -93387.68, -5777.0293, -0.04106315, 0.036167625, -92861.39, -92861.39, 0.0, 9.990043, 9.998357 
5.4540473e+2, 1.2507305e+2, -1524455.4, -1715816.9, -300.52844, 0.07349473, 0.06436831, -1524454.9, 189834.75, 0.0000018527055, 10.017014, 9.991624 
5.453825e+2, 1.3506459e+2, -1447429.6, -1628176.3, 180.8596, 0.06600342, 0.05573458, -1447429.5, 168943.17, 0.000001202543, 10.015593, 9.991615 
5.4535973e+2, 1.4505647e+2, -1366813.9, -1532432.1, -4013.5693, 0.057941116, 0.05549765, -1366716.6, 151735.39, 0.0000006489456, 10.014141, 9.992168 
5.453364e+2, 1.5504873e+2, -1290643.8, -1445171.8, -4814.7407, 0.04941314, 0.062414274, -1290493.9, 130033.98, 0.00000027602783, 10.012659, 9.992162 
5.453126e+2, 1.6504073e+2, -1214710.1, -1359810.6, -9066.294, 0.042261213, 0.055170316, -1214145.9, 108459.82, 0.000000088651575, 10.011238, 9.991993 
5.4528815e+2, 1.750325e+2, -1136707.6, -1271596.0, -8559.155, 0.036443975, 0.033127226, -1136166.8, 88518.79, 0.000000020967494, 10.009877, 9.991988 
5.452635e+2, 1.850244e+2, -1059596.4, -1184128.3, -10444.024, 0.030868033, 0.026664285, -1058726.6, 68037.82, 0.0000000036152847, 10.008469, 9.991954 
5.452387e+2, 1.9501644e+2, -982932.2, -1096527.3, -10817.788, 0.025587149, 0.034808412, -981911.2, 46931.207, 0.00000000045315504, 10.007013, 9.991951 
5.452136e+2, 2.0500824e+2, -909670.94, -1015697.56, -12111.912, 0.019499099, 0.041786756, -908304.94, 22618.135, 0.00000000004127097, 10.005546, 9.99149 
5.451884e+2, 2.1499977e+2, -833293.75, -928193.94, -12206.768, 0.012620429, 0.04675878, -831748.75, 1257.6517, 0.0000000000027309194, 10.004067, 9.991488 
5.4516304e+2, 2.2499135e+2, -755100.0, -837769.2, -14068.558, 0.0053121876, 0.045872394, -752771.44, -17682.266, 0.00000000000013129217, 10.002624, 9.991667 
5.4513747e+2, 2.3498294e+2, -677625.44, -749665.5, -14616.187, -0.002434982, 0.03812645, -674772.94, -37601.727, 0.0, 10.001216, 9.991669 
5.451119e+2, 2.4497455e+2, -600332.8, -662959.0, -14350.481, -0.007076687, 0.037763342, -597201.1, -57947.72, 0.0, 9.999851, 9.991553 
5.4508644e+2, 2.5496617e+2, -521530.97, -574148.8, -13650.157, -0.008564061, 0.044008065, -518200.6, -76865.01, 0.0, 9.99853, 9.991557 
5.450613e+2, 2.6495785e+2, -442824.63, -482266.38, -10774.331, -0.011574191, 0.043989733, -440073.3, -96656.44, 0.0, 9.997067, 9.99184 
5.4503644e+2, 2.7494964e+2, -368076.4, -395258.4, -10855.547, -0.016144613, 0.036479518, -364273.2, -118776.25, 0.0, 9.9954605, 9.991857 
5.450121e+2, 2.8494123e+2, -295825.72, -314351.16, -6867.127, -0.018263562, 0.03127214, -293557.8, -145978.66, 0.0, 9.993894, 9.991437 
5.4498833e+2, 2.9493263e+2, -219868.27, -226703.95, -6217.266, -0.01792022, 0.027306687, -216191.31, -166528.1, 0.0, 9.992366, 9.991455 
5.449652e+2, 3.0492765e+2, -142905.11, -85710.43, -418.72537, -0.026321316, 0.032377265, -85707.37, -85707.37, 0.0, 9.9909, 9.998464 
5.449427e+2, 3.1492627e+2, -163179.44, -95155.12, -275.49368, -0.043599997, 0.045439657, -95154.0, -95154.0, 0.0, 9.989497, 9.998492 
5.554218e+2, 1.2509514e+2, -1523445.4, -1713826.9, -5281.7813, 0.077373885, 0.06179256, -1523299.0, 190774.72, 0.000006431494, 10.017016, 9.991755 
5.553981e+2, 1.3508686e+2, -1446493.6, -1626239.1, -4908.87, 0.067749985, 0.05950507, -1446359.6, 169795.11, 0.000004174149, 10.015592, 9.991745 
5.5537385e+2, 1.4507875e+2, -1368355.4, -1535523.5, -9374.236, 0.058280554, 0.06279478, -1367831.4, 150402.98, 0.0000022524252, 10.014137, 9.991958 
5.5534905e+2, 1.5507078e+2, -1292191.9, -1448246.0, -10169.878, 0.04909588, 0.07044762, -1291531.9, 128780.43, 0.0000009580398, 10.012653, 9.991953 
5.553238e+2, 1.6506276e+2, -1213831.3, -1357853.8, -13985.775, 0.04347196, 0.06380739, -1212485.6, 109904.81, 0.00000030768845, 10.011231, 9.992126 
5.552981e+2, 1.7505467e+2, -1135863.0, -1269672.1, -13525.245, 0.0412874, 0.04237343, -1134509.6, 89959.164, 0.00000007277281, 10.009869, 9.992121 
5.5527204e+2, 1.8504658e+2, -1060405.3, -1185635.4, -15787.834, 0.03567948, 0.034781903, -1058445.5, 68102.055, 0.000000012547858, 10.00846, 9.991853 
5.5524564e+2, 1.950385e+2, -983699.7, -1098026.1, -16165.2705, 0.0267663, 0.039979164, -981457.94, 47168.934, 0.0000000015728465, 10.007009, 9.991849 
5.552191e+2, 2.050302e+2, -909874.3, -1016098.44, -17554.451, 0.017000008, 0.044382874, -907048.5, 23659.973, 0.00000000014324925, 10.005545, 9.991461 
5.551924e+2, 2.1502168e+2, -833459.06, -928574.06, -17663.232, 0.006393654, 0.047130253, -830284.9, 2507.388, 0.0000000000094788795, 10.004068, 9.991459 
5.5516565e+2, 2.250132e+2, -756094.75, -839859.9, -19275.879, 0.003104662, 0.050564956, -751871.9, -16996.402, 0.0000000000004557092, 10.0026245, 9.991521 
5.551387e+2, 2.3500477e+2, -678658.06, -751786.7, -19831.451, 0.007079267, 0.053716257, -673626.3, -36668.176, 0.0, 10.001215, 9.991522 
5.551119e+2, 2.4499637e+2, -599046.1, -660253.56, -19253.55, 0.0056156134, 0.05124705, -593493.44, -54453.117, 0.0, 9.999848, 9.991736 
5.55085e+2, 2.54988e+2, -520255.66, -571446.44, -18568.973, -0.0012426985, 0.042301252, -514229.34, -73107.445, 0.0, 9.998527, 9.991741 
5.5505836e+2, 2.649798e+2, -443012.94, -482594.25, -16787.73, -0.010464645, 0.041520864, -436851.78, -93649.31, 0.0, 9.997064, 9.9918165 
5.5503184e+2, 2.749717e+2, -368265.97, -395610.4, -16883.547, -0.02209051, 0.04782214, -360213.03, -114931.33, 0.0, 9.995458, 9.991831 
5.5500597e+2, 2.8496337e+2, -294678.22, -311937.03, -12611.091, -0.026465055, 0.045313533, -288026.72, -140663.72, 0.0, 9.993891, 9.9916 
5.5498064e+2, 2.9495487e+2, -218721.16, -224281.77, -11970.881, -0.023529906, 0.032804333, -209211.95, -159765.83, 0.0, 9.992363, 9.991619 
5.5495614e+2, 3.0494994e+2, -142728.19, -85307.02, -5698.8975, -0.027041381, 0.035864484, -84746.89, -84746.89, 0.0, 9.990898, 9.998489 
5.5493224e+2, 3.1494865e+2, -162999.17, -94759.25, -5558.285, -0.037052978, 0.0535049, -94309.48, -94309.48, 0.0, 9.989495, 9.998517 
5.654392e+2, 1.2511936e+2, -1512042.6, -1710247.5, 4232.063, 0.07485753, 0.056174975, -1511952.4, 201884.11, 0.000018659946, 10.017875, 9.9915695 
5.654141e+2, 1.35111e+2, -1437863.0, -1623985.9, 2551.052, 0.06682555, 0.06409025, -1437828.0, 178090.47, 0.000012109841, 10.016259, 9.991565 
5.6538826e+2, 1.4510277e+2, -1361685.6, -1533686.6, -2726.5752, 0.058357008, 0.070150755, -1361642.5, 156356.95, 0.0000065343575, 10.014647, 9.991825 
5.653619e+2, 1.5509464e+2, -1287352.0, -1447285.1, -2947.7769, 0.04968549, 0.073470406, -1287297.6, 132781.53, 0.00000277926, 10.013039, 9.991822 
5.6533515e+2, 1.6508654e+2, -1210000.8, -1355967.8, -6497.867, 0.044927727, 0.066609375, -1209712.1, 112445.945, 0.0000008925991, 10.011485, 9.992122 
5.6530803e+2, 1.7507848e+2, -1134015.1, -1268757.9, -6946.051, 0.04390968, 0.0489781, -1133658.0, 90578.016, 0.00000021111464, 10.009988, 9.992116 
5.6528056e+2, 1.8507038e+2, -1059523.8, -1185672.6, -9438.8545, 0.03835887, 0.042601764, -1058821.4, 67493.55, 0.000000036402227, 10.008534, 9.991805 
5.652527e+2, 1.9506222e+2, -982196.8, -1097781.5, -9403.89, 0.028424408, 0.0463968, -981436.75, 46958.207, 0.0000000045630957, 10.007126, 9.991799 
5.652247e+2, 2.0505388e+2, -907406.5, -1015132.44, -10604.522, 0.017470077, 0.050474174, -906372.5, 24104.387, 0.0000000004156036, 10.005716, 9.991434 
5.651966e+2, 2.1504535e+2, -830019.44, -927140.0, -10658.418, 0.0055218004, 0.05395968, -828863.5, 3697.3433, 0.000000000027501411, 10.004308, 9.991432 
5.651683e+2, 2.250368e+2, -754126.4, -840172.94, -12344.114, 0.0022673514, 0.05702812, -752390.5, -17745.68, 0.0000000000013221885, 10.002808, 9.991402 
5.6513995e+2, 2.3502822e+2, -679276.9, -753352.56, -12661.17, 0.007646972, 0.05880556, -677172.6, -40443.813, 0.0, 10.001221, 9.991403 
5.6511164e+2, 2.4501984e+2, -600518.1, -659361.8, -11802.892, 0.0074269143, 0.055706833, -598238.94, -59428.02, 0.0, 9.999673, 9.991873 
5.650834e+2, 2.5501162e+2, -524486.44, -571892.44, -11422.274, 0.0015809577, 0.04676094, -521877.84, -80986.7, 0.0, 9.998162, 9.991878 
5.6505525e+2, 2.6500344e+2, -449228.66, -485967.44, -10376.786, -0.008279623, 0.047061887, -446500.34, -103529.23, 0.0, 9.996648, 9.991777 
5.650272e+2, 2.7499533e+2, -373194.5, -398369.28, -10537.997, -0.022152396, 0.055615153, -369365.7, -124315.02, 0.0, 9.995131, 9.991792 
5.649997e+2, 2.8498706e+2, -297808.94, -312086.9, -6323.0527, -0.028389385, 0.05327822, -295411.38, -148279.77, 0.0, 9.993611, 9.991716 
5.649728e+2, 2.9497865e+2, -221759.86, -224382.4, -6014.511, -0.026919177, 0.03880013, -216915.34, -167701.69, 0.0, 9.992089, 9.991736 
5.649467e+2, 3.049738e+2, -148385.66, -87314.62, 114.53055, -0.030101212, 0.041187607, -87314.41, -87314.41, 0.0, 9.990473, 9.9985485 
5.649214e+2, 3.1497258e+2, -173185.7, -98955.5, 531.6862, -0.037952594, 0.059485115, -98951.69, -98951.69, 0.0, 9.988761, 9.998576 
5.7545704e+2, 1.2514554e+2, -1515258.6, -1716747.0, -1683.8915, 0.066957384, 0.04811218, -1515244.5, 198335.44, 0.000046085992, 10.017869, 9.991127 
5.754302e+2, 1.3513689e+2, -1441027.8, -1630392.0, -3314.1904, 0.06364914, 0.069457375, -1440969.8, 174695.6, 0.000029907374, 10.016253, 9.991128 
5.754029e+2, 1.4512841e+2, -1362137.0, -1534516.3, -8551.065, 0.058212828, 0.0775558, -1361713.8, 156034.72, 0.000016137335, 10.014642, 9.991768 
5.7537496e+2, 1.5512013e+2, -1287791.3, -1448107.9, -8786.58, 0.051065333, 0.072158344, -1287311.1, 132518.44, 0.0000068636546, 10.013034, 9.991765 
5.753467e+2, 1.6511194e+2, -1210847.9, -1357676.9, -11933.178, 0.046573058, 0.0643676, -1209884.3, 112025.14, 0.000002204381, 10.011483, 9.992003 
5.7531804e+2, 1.7510384e+2, -1134821.4, -1270444.4, -12386.87, 0.0445314, 0.053299177, -1133699.4, 90288.71, 0.0000005213838, 10.009988, 9.991998 
5.7528913e+2, 1.850957e+2, -1059440.8, -1185524.1, -14571.782, 0.039129063, 0.050193865, -1057778.5, 68288.76, 0.00000008990404, 10.008535, 9.991812 
5.7525986e+2, 1.9508755e+2, -982158.25, -1097673.8, -14573.705, 0.030524142, 0.0539829, -980348.0, 47799.297, 0.00000001127004, 10.007124, 9.991804 
5.752305e+2, 2.0507923e+2, -907574.2, -1015381.75, -15798.501, 0.020670295, 0.059815113, -905306.75, 24922.447, 0.0000000010265058, 10.005712, 9.991416 
5.752009e+2, 2.1507071e+2, -830239.44, -927425.0, -15870.384, 0.009616412, 0.066809654, -827713.44, 4599.4985, 0.0000000000679289, 10.004299, 9.991413 
5.751711e+2, 2.2506206e+2, -754803.06, -841446.75, -18230.906, 0.0026384213, 0.06508714, -751123.3, -16725.504, 0.0000000000032659164, 10.002801, 9.991315 
5.7514113e+2, 2.3505327e+2, -679860.9, -754562.25, -18543.654, -0.0003200368, 0.053896174, -675510.94, -39027.176, 0.0, 10.00122, 9.991318 
5.751112e+2, 2.4504489e+2, -599775.4, -657863.75, -17415.037, -0.0011319628, 0.051656008, -594954.4, -56388.688, 0.0, 9.999673, 9.991972 
5.750815e+2, 2.5503692e+2, -523772.63, -570428.7, -17065.463, 0.000091189315, 0.0573138, -518196.9, -77553.21, 0.0, 9.998161, 9.991975 
5.750519e+2, 2.650288e+2, -449540.38, -486603.88, -16062.602, -0.005015229, 0.060372747, -443548.0, -100824.766, 0.0, 9.996646, 9.991732 
5.7502234e+2, 2.7502054e+2, -373524.56, -399025.38, -16231.892, -0.016371181, 0.05983008, -365634.06, -120829.92, 0.0, 9.995129, 9.991744 
5.749934e+2, 2.8501227e+2, -297287.38, -310970.66, -12050.2, -0.024084318, 0.05522793, -290272.06, -143386.92, 0.0, 9.993609, 9.991791 
5.7496494e+2, 2.9500398e+2, -221238.1, -223272.06, -11752.311, -0.028116334, 0.04534767, -210458.84, -161492.86, 0.0, 9.992087, 9.99181 
5.749371e+2, 3.0499923e+2, -147696.5, -85849.086, -6344.8613, -0.03559646, 0.048352893, -85204.88, -85204.88, 0.0, 9.99047, 9.998647 
5.7491004e+2, 3.1499806e+2, -172521.88, -97508.95, -5928.6655, -0.04656224, 0.06326005, -97043.27, -97043.27, 0.0, 9.988757, 9.998673 
5.854752e+2, 1.2517348e+2, -1506898.5, -1715461.9, 3265.1418, 0.068418026, 0.060585365, -1506847.5, 206459.39, 0.00009866781, 10.018553, 9.990873 
5.854468e+2, 1.351645e+2, -1434171.5, -1629803.0, 2896.0132, 0.06363988, 0.07494366, -1434128.6, 181266.63, 0.00006402827, 10.016833, 9.990877 
5.854178e+2, 1.4515585e+2, -1355244.5, -1531866.8, -1651.6702, 0.057469398, 0.08071393, -1355229.0, 162251.2, 0.000034547615, 10.015135, 9.991698 
5.853882e+2, 1.5514752e+2, -1281908.6, -1445948.5, -1926.8103, 0.05029986, 0.077267796, -1281886.0, 137675.73, 0.000014694032, 10.013458, 9.991695 
5.853583e+2, 1.6513926e+2, -1205485.0, -1355923.8, -4376.6655, 0.045395184, 0.069667265, -1205357.8, 116284.53, 0.0000047192957, 10.011879, 9.9919195 
5.8532816e+2, 1.7513104e+2, -1129329.4, -1268638.8, -4545.489, 0.04250186, 0.057291694, -1129181.3, 94540.5, 0.0000011162407, 10.010393, 9.991914 
5.8529776e+2, 1.8512283e+2, -1054974.1, -1184384.6, -6898.3735, 0.03743722, 0.05403068, -1054607.4, 71194.62, 0.00000019248259, 10.008877, 9.991713 
5.8526707e+2, 1.951146e+2, -979626.9, -1097473.1, -7589.34, 0.030342136, 0.058598068, -979140.1, 48742.754, 0.000000024129646, 10.007334, 9.991706 
5.852362e+2, 2.0510621e+2, -907041.6, -1015180.56, -9287.202, 0.02212415, 0.06594449, -906249.8, 23715.387, 0.0000000021978634, 10.005743, 9.991405 
5.852052e+2, 2.1509771e+2, -832975.8, -928809.56, -9280.717, 0.012823918, 0.0751964, -832085.4, -36.41327, 0.00000000014544804, 10.004107, 9.991402 
5.851739e+2, 2.2508906e+2, -756731.44, -841780.44, -10773.898, 0.004848188, 0.071583405, -755387.9, -21254.078, 0.000000000006993124, 10.002635, 9.991362 
5.851423e+2, 2.3508026e+2, -677830.1, -752973.75, -10079.115, -0.0018243246, 0.05447618, -676501.7, -40281.965, 0.0, 10.001325, 9.991364 
5.8511096e+2, 2.4507187e+2, -597263.75, -657347.0, -9468.547, -0.004181219, 0.052971058, -595806.94, -57505.22, 0.0, 9.999867, 9.991902 
5.850797e+2, 2.5506392e+2, -522549.6, -570539.1, -10306.748, -0.002334251, 0.06591903, -520429.66, -80049.84, 0.0, 9.998268, 9.991905 
5.850485e+2, 2.6505578e+2, -449594.34, -486545.1, -9844.017, -0.006979467, 0.0702698, -447135.44, -104675.83, 0.0, 9.996631, 9.991734 
5.850173e+2, 2.7504748e+2, -375843.8, -400069.25, -9611.853, -0.01800416, 0.065050006, -372493.47, -127952.54, 0.0, 9.994958, 9.991745 
5.8498675e+2, 2.8503922e+2, -301437.0, -312059.3, -5254.9224, -0.024925867, 0.059317958, -299276.72, -152655.06, 0.0, 9.993278, 9.991866 
5.8495677e+2, 2.9503104e+2, -227846.97, -225554.72, -4911.946, -0.027819216, 0.051894434, -221656.95, -172955.44, 0.0, 9.991589, 9.991884 
5.849274e+2, 3.0502635e+2, -154885.02, -88062.28, 245.3203, -0.036915343, 0.054152813, -88061.38, -88061.38, 0.0, 9.989916, 9.998752 
5.848985e+2, 3.1502527e+2, -178894.97, -99320.16, 744.4684, -0.05214834, 0.06619403, -99313.195, -99313.195, 0.0, 9.988258, 9.998779 
5.954939e+2, 1.2520307e+2, -1507848.6, -1716930.9, -3060.0266, 0.07762847, 0.09010753, -1507803.9, 205214.22, 0.00018586693, 10.018533, 9.990779 
5.954637e+2, 1.3519375e+2, -1435025.6, -1631199.3, -3385.317, 0.06626009, 0.08046621, -1434967.3, 180142.28, 0.00012061172, 10.016817, 9.990785 
5.9543294e+2, 1.4518496e+2, -1355900.4, -1532980.8, -7767.6465, 0.056201596, 0.08040725, -1355560.4, 161635.25, 0.000065077686, 10.015124, 9.991623 
5.954016e+2, 1.5517667e+2, -1282476.3, -1447011.6, -8054.972, 0.047671594, 0.08804524, -1282082.9, 137193.94, 0.000027679429, 10.013453, 9.991621 
5.953702e+2, 1.6516834e+2, -1205818.9, -1356553.8, -9805.623, 0.041757092, 0.08153471, -1205183.8, 116173.945, 0.000008889962, 10.011875, 9.991875 
5.953386e+2, 1.7516002e+2, -1129696.9, -1269307.4, -9985.583, 0.038137585, 0.06098942, -1128986.3, 94452.0, 0.0000021027645, 10.010388, 9.991867 
5.9530663e+2, 1.8515165e+2, -1056331.4, -1187093.8, -12543.043, 0.03355417, 0.054572962, -1055139.1, 70380.78, 0.00000036260752, 10.008872, 9.991527 
5.952744e+2, 1.9514324e+2, -980945.94, -1100134.1, -13224.289, 0.028106445, 0.06057057, -979496.3, 48106.22, 0.000000045458084, 10.00733, 9.991523 
5.9524196e+2, 2.051348e+2, -907025.6, -1015134.0, -15285.924, 0.021987533, 0.06916124, -904905.9, 24779.805, 0.0000000041407118, 10.005741, 9.9914055 
5.952093e+2, 2.1512629e+2, -832906.25, -928720.06, -15299.237, 0.015207519, 0.07948652, -830522.6, 1246.7775, 0.000000000274028, 10.004107, 9.991404 
5.951766e+2, 2.2511776e+2, -755414.56, -839090.56, -15612.83, 0.008798357, 0.07669476, -752596.3, -18743.066, 0.000000000013175632, 10.002636, 9.991542 
5.9514374e+2, 2.3510914e+2, -676599.06, -750357.56, -14958.889, 0.002808064, 0.060309846, -673680.75, -37743.47, 0.0, 10.001321, 9.991541 
5.9511083e+2, 2.4510072e+2, -598871.56, -660582.5, -15443.439, -0.0020148633, 0.05938664, -595222.5, -57203.03, 0.0, 9.999862, 9.99168 
5.9507793e+2, 2.5509253e+2, -524122.53, -573750.8, -16290.738, -0.005723836, 0.07259879, -519252.84, -79152.93, 0.0, 9.998264, 9.991684 
5.950451e+2, 2.6508433e+2, -449205.5, -485707.8, -16113.241, -0.014094444, 0.076863326, -443110.38, -100929.82, 0.0, 9.996628, 9.991788 
5.950122e+2, 2.750761e+2, -375462.72, -399239.97, -15894.295, -0.027020613, 0.071303695, -367502.72, -123241.445, 0.0, 9.994955, 9.991798 
5.9498e+2, 2.8506786e+2, -300859.66, -310816.75, -11624.324, -0.030889416, 0.06553713, -293192.63, -146851.34, 0.0, 9.993275, 9.991948 
5.9494835e+2, 2.9505977e+2, -227284.08, -224330.31, -11280.871, -0.02594815, 0.05841497, -214430.06, -166009.73, 0.0, 9.991585, 9.991965 
5.949173e+2, 3.0505517e+2, -154059.73, -86292.46, -6003.074, -0.033957172, 0.058533207, -85764.79, -85764.79, 0.0, 9.989912, 9.998871 
5.948867e+2, 3.1505424e+2, -178035.03, -97508.93, -5470.068, -0.05452278, 0.07246172, -97139.05, -97139.05, 0.0, 9.988256, 9.9989 
6.055126e+2, 1.2523405e+2, -1501561.1, -1713116.6, 1684.8939, 0.08171938, 0.103934094, -1501547.8, 211167.7, 0.00031258538, 10.018922, 9.990839 
6.054807e+2, 1.3522474e+2, -1429224.4, -1627658.6, 2385.8496, 0.06694208, 0.08951142, -1429195.6, 185610.88, 0.0002028387, 10.017175, 9.990842 
6.054482e+2, 1.4521591e+2, -1351301.9, -1531937.6, -1335.5547, 0.05624066, 0.08721765, -1351292.0, 165601.06, 0.00010944399, 10.015481, 9.991509 
6.054153e+2, 1.552075e+2, -1277389.6, -1445699.4, -1839.9052, 0.049604136, 0.09509271, -1277369.5, 141605.77, 0.000046549958, 10.013841, 9.991511 
6.0538226e+2, 1.6519913e+2, -1200580.3, -1354057.5, -3136.2185, 0.043392375, 0.08859839, -1200516.3, 120540.445, 0.0000149509415, 10.012226, 9.991863 
6.0534906e+2, 1.7519078e+2, -1125990.4, -1267574.3, -3056.7273, 0.037451394, 0.06792236, -1125924.4, 97213.02, 0.0000035364694, 10.010635, 9.991854 
6.0531557e+2, 1.8518238e+2, -1053623.1, -1186045.1, -4950.4844, 0.032655343, 0.059651338, -1053438.3, 71781.08, 0.0000006098572, 10.00906, 9.991496 
6.052819e+2, 1.9517389e+2, -978509.5, -1099238.1, -4526.98, 0.028960468, 0.062120195, -978340.0, 48962.54, 0.00000007645667, 10.0075, 9.991488 
6.052478e+2, 2.0516537e+2, -904418.56, -1014794.8, -6465.987, 0.022426503, 0.07056818, -904041.06, 25345.275, 0.000000006964563, 10.00595, 9.991314 
6.052136e+2, 2.1515682e+2, -828898.25, -927668.2, -7060.874, 0.013253603, 0.08379965, -828396.0, 3074.78, 0.0000000004609252, 10.004411, 9.991316 
6.0517925e+2, 2.2514828e+2, -752312.9, -837146.9, -7787.98, 0.00775044, 0.08361267, -751603.9, -18049.127, 0.00000000002216265, 10.00282, 9.991573 
6.0514504e+2, 2.3513971e+2, -678251.2, -750714.9, -8150.008, 0.0056843166, 0.069770165, -677345.9, -41707.668, 0.0, 10.00118, 9.991573 
6.0511065e+2, 2.4513128e+2, -602776.1, -663181.1, -8776.997, 0.00057829317, 0.06882478, -601526.7, -63806.06, 0.0, 9.999617, 9.99161 
6.0507613e+2, 2.5512302e+2, -526439.8, -575582.9, -8472.099, -0.0073977183, 0.079387896, -525020.25, -85218.24, 0.0, 9.998127, 9.991612 
6.050416e+2, 2.6511478e+2, -450041.8, -485478.3, -8237.974, -0.016648574, 0.0819216, -448220.34, -106337.43, 0.0, 9.996533, 9.991837 
6.050071e+2, 2.7510655e+2, -376583.97, -399149.1, -8006.1826, -0.027214602, 0.075628735, -374031.97, -130068.77, 0.0, 9.994842, 9.991847 
6.049732e+2, 2.8509843e+2, -302563.16, -311050.66, -3997.3938, -0.030313581, 0.07134407, -300976.94, -154934.34, 0.0, 9.993123, 9.991993 
6.049399e+2, 2.950904e+2, -229803.38, -224954.73, -3896.4219, -0.026071098, 0.06783193, -222790.0, -174669.11, 0.0, 9.991377, 9.99201 
6.04907e+2, 3.0508584e+2, -158379.28, -87067.11, 995.52747, -0.03486674, 0.06365972, -87053.21, -87053.21, 0.0, 9.989551, 9.9989805 
6.048746e+2, 3.15085e+2, -185973.63, -99952.89, 1532.4181, -0.056196187, 0.07789831, -99925.6, -99925.6, 0.0, 9.987644, 9.999017 
6.1553156e+2, 1.252664e+2, -1500304.8, -1710320.3, -4486.382, 0.08158668, 0.105002, -1500209.0, 212190.38, 0.00047706228, 10.018914, 9.991027 
6.154978e+2, 1.3525738e+2, -1428084.3, -1625005.5, -3904.1814, 0.06602213, 0.10169821, -1428006.9, 186480.58, 0.00030956758, 10.017161, 9.991023 
6.154637e+2, 1.4524856e+2, -1352492.0, -1534047.3, -7273.342, 0.057410605, 0.10002755, -1352201.0, 164372.61, 0.0001670315, 10.015466, 9.991369 
6.154292e+2, 1.5523992e+2, -1278534.6, -1447729.8, -7757.8813, 0.055454683, 0.098936796, -1278179.8, 140478.4, 0.00007104461, 10.013825, 9.991376 
6.1539453e+2, 1.652315e+2, -1200570.0, -1353744.9, -8881.6045, 0.049562175, 0.09162598, -1200056.8, 120683.44, 0.000022818607, 10.012213, 9.991887 
6.153597e+2, 1.7522323e+2, -1125938.5, -1267232.9, -8833.002, 0.03994988, 0.07778046, -1125388.5, 97431.45, 0.000005397622, 10.010624, 9.991878 
6.153246e+2, 1.8521489e+2, -1052904.0, -1184386.6, -10639.254, 0.034383353, 0.0687352, -1052048.8, 72852.5, 0.0000009308349, 10.00905, 9.991609 
6.152894e+2, 1.9520645e+2, -977794.06, -1097646.4, -10255.055, 0.03257139, 0.06329989, -976922.94, 50060.95, 0.000000116700015, 10.007494, 9.991595 
6.152538e+2, 2.0519789e+2, -905609.0, -1017175.0, -12133.552, 0.023333672, 0.070397064, -904304.6, 24763.531, 0.000000010630762, 10.005945, 9.99115 
6.152179e+2, 2.1518922e+2, -830055.94, -930004.75, -12748.599, 0.0072607207, 0.088173635, -828455.44, 2698.4805, 0.0000000007035924, 10.004407, 9.991154 
6.15182e+2, 2.2518057e+2, -753006.1, -838535.5, -13861.379, 0.002069467, 0.092251, -750815.75, -17576.9, 0.000000000033832243, 10.002816, 9.991476 
6.1514616e+2, 2.3517197e+2, -678909.94, -752047.1, -14223.035, 0.0069225137, 0.082701206, -676241.4, -40918.4, 0.0, 10.001177, 9.99148 
6.151103e+2, 2.4516353e+2, -602181.2, -661931.06, -14311.467, 0.0035715266, 0.08115024, -598930.2, -61524.707, 0.0, 9.999615, 9.991692 
6.150743e+2, 2.551553e+2, -525852.3, -574337.8, -14038.974, -0.0074131093, 0.08626404, -522080.72, -82594.26, 0.0, 9.998125, 9.991694 
6.150382e+2, 2.6514706e+2, -449681.06, -484683.28, -14584.739, -0.014689209, 0.08547527, -444400.53, -102833.54, 0.0, 9.99653, 9.991888 
6.1500204e+2, 2.7513888e+2, -376226.63, -398366.94, -14368.632, -0.018590523, 0.07802614, -369158.25, -125511.35, 0.0, 9.994838, 9.991898 
6.149664e+2, 2.8513083e+2, -302453.06, -310777.88, -10581.597, -0.023229538, 0.076753564, -295244.63, -149518.92, 0.0, 9.993119, 9.992008 
6.149312e+2, 2.951229e+2, -229687.55, -224678.11, -10478.709, -0.028331954, 0.080231234, -216408.92, -168605.66, 0.0, 9.991374, 9.992026 
6.148965e+2, 3.0511832e+2, -157629.38, -85460.945, -6202.62, -0.039756883, 0.06949017, -84931.734, -84931.734, 0.0, 9.989547, 9.999087 
6.148623e+2, 3.151176e+2, -185182.1, -98220.81, -5581.05, -0.05692636, 0.08406586, -97864.09, -97864.09, 0.0, 9.987638, 9.999133 
6.255508e+2, 1.25301e+2, -1491822.6, -1707226.1, 4740.3164, 0.08443274, 0.10185689, -1491718.4, 220342.13, 0.0006720426, 10.019531, 9.990922 
6.255152e+2, 1.3529201e+2, -1422662.8, -1623369.4, 3496.3545, 0.06717525, 0.10991357, -1422601.9, 191546.83, 0.00043609072, 10.017566, 9.990924 
6.254793e+2, 1.4528315e+2, -1348877.5, -1532677.9, 253.7943, 0.059142187, 0.110769324, -1348877.1, 167358.28, 0.00023530037, 10.015719, 9.991325 
6.254431e+2, 1.5527442e+2, -1276327.3, -1447027.6, 467.3244, 0.05975498, 0.10435232, -1276325.9, 141994.83, 0.00010008327, 10.013982, 9.991334 
6.254068e+2, 1.6526593e+2, -1199031.9, -1353087.5, -108.967705, 0.053462945, 0.09473819, -1199031.8, 121371.46, 0.00003214609, 10.012311, 9.99187 
6.253704e+2, 1.7525765e+2, -1124722.6, -1266725.6, -280.17087, 0.040788773, 0.08144695, -1124722.0, 97761.125, 0.0000076041797, 10.0107, 9.991861 
6.253337e+2, 1.8524934e+2, -1051379.1, -1183180.0, -2254.54, 0.034214582, 0.07471529, -1051340.6, 73223.56, 0.0000013113984, 10.009124, 9.991642 
6.2529695e+2, 1.9524096e+2, -976068.0, -1096391.1, -2376.4082, 0.03321098, 0.07296839, -976021.06, 50625.16, 0.00000016441675, 10.007583, 9.991625 
6.2525976e+2, 2.0523237e+2, -905021.2, -1018273.2, -4330.953, 0.024531044, 0.08003685, -904855.75, 23875.26, 0.000000014977998, 10.006034, 9.991018 
6.252223e+2, 2.1522352e+2, -829651.5, -931140.6, -4675.858, 0.00880463, 0.094403766, -829436.56, 1381.835, 0.0000000009913477, 10.004482, 9.991027 
6.251849e+2, 2.2521481e+2, -751935.9, -838038.7, -5646.734, 0.0027921137, 0.097622424, -751567.1, -18663.104, 0.000000000047670683, 10.002879, 9.991465 
6.251474e+2, 2.3520619e+2, -677931.3, -751593.0, -5332.3438, 0.005755709, 0.089750215, -677547.3, -42559.184, 0.0, 10.001234, 9.991468 
6.2510985e+2, 2.451978e+2, -601455.8, -660830.1, -4764.823, 0.0022115507, 0.08823175, -601075.9, -64005.44, 0.0, 9.999621, 9.991749 
6.250723e+2, 2.5518957e+2, -526505.25, -573907.9, -4631.3076, -0.007400717, 0.091634914, -526057.0, -86905.98, 0.0, 9.998037, 9.991752 
6.2503463e+2, 2.651814e+2, -452504.0, -485800.94, -6223.315, -0.013509645, 0.09130583, -451378.88, -110147.69, 0.0, 9.996315, 9.9919 
6.249967e+2, 2.7517328e+2, -381337.44, -400590.66, -6212.9863, -0.016418127, 0.08641908, -379506.63, -136195.8, 0.0, 9.994467, 9.99191 
6.2495935e+2, 2.8516522e+2, -307955.25, -313193.7, -2283.4124, -0.021654438, 0.087300435, -307099.66, -161710.31, 0.0, 9.992722, 9.992021 
6.249224e+2, 2.951573e+2, -233872.27, -226450.11, -2166.5605, -0.028907113, 0.092656136, -225863.97, -178397.4, 0.0, 9.991066, 9.992039 
6.2488586e+2, 3.0515274e+2, -161021.31, -85872.75, 1206.5529, -0.041215017, 0.07255663, -85853.38, -85853.38, 0.0, 9.98925, 9.999187 
6.2484974e+2, 3.1515214e+2, -189375.6, -98881.46, 1907.1747, -0.057751194, 0.08985277, -98841.29, -98841.29, 0.0, 9.987281, 9.999246 
6.3557035e+2, 1.253377e+2, -1494439.8, -1712166.0, -2280.5176, 0.089645475, 0.09545484, -1494415.9, 217285.16, 0.0008878133, 10.019514, 9.990588 
6.355328e+2, 1.3532847e+2, -1425031.6, -1628046.9, -3516.7134, 0.07000894, 0.114959545, -1424970.8, 188821.08, 0.0005761072, 10.017557, 9.990603 
6.3549507e+2, 1.4531952e+2, -1348546.1, -1531955.9, -5962.268, 0.06130675, 0.11986366, -1348352.5, 167527.08, 0.0003108517, 10.0157175, 9.99137 
6.3545716e+2, 1.5531081e+2, -1275949.4, -1446294.4, -5796.3403, 0.06269803, 0.11118064, -1275752.4, 142212.2, 0.00013222048, 10.013983, 9.991378 
6.3541913e+2, 1.6530229e+2, -1199269.3, -1353629.4, -5938.2715, 0.055395998, 0.09794021, -1199041.1, 121006.21, 0.00004246922, 10.012312, 9.991827 
6.3538104e+2, 1.7529394e+2, -1124993.1, -1267284.9, -6112.796, 0.040176574, 0.07977111, -1124731.0, 97397.23, 0.000010046375, 10.010698, 9.991819 
6.3534284e+2, 1.8528563e+2, -1051569.3, -1183547.8, -7853.798, 0.032363895, 0.078144565, -1051103.5, 73105.67, 0.0000017326252, 10.009122, 9.991612 
6.353045e+2, 1.9527738e+2, -976291.25, -1096819.9, -8026.4253, 0.031185253, 0.09034301, -975759.06, 50531.33, 0.00000021723568, 10.00758, 9.991592 
6.352658e+2, 2.0526871e+2, -905686.4, -1019582.3, -10026.27, 0.026041726, 0.09849155, -904810.5, 23565.264, 0.000000019790296, 10.00603, 9.990927 
6.352269e+2, 2.1525967e+2, -830292.7, -932359.4, -10377.708, 0.017306423, 0.10229452, -829248.2, 1216.6124, 0.0000000013098915, 10.004476, 9.990942 
6.351878e+2, 2.252509e+2, -751391.5, -836844.3, -11704.644, 0.009369241, 0.09996775, -749817.3, -17266.396, 0.000000000062990176, 10.002874, 9.991544 
6.351486e+2, 2.3524235e+2, -677341.25, -750384.25, -11420.444, 0.0022250006, 0.09123821, -675597.25, -40962.977, 0.0, 10.001232, 9.991547 
6.351094e+2, 2.4523403e+2, -601126.06, -660139.8, -10651.061, -0.0032815505, 0.09033601, -599262.56, -62546.586, 0.0, 9.9996195, 9.991792 
6.350704e+2, 2.5522587e+2, -526216.3, -573244.94, -10576.134, -0.0073294956, 0.09560824, -523947.34, -85151.34, 0.0, 9.998034, 9.991794 
6.350309e+2, 2.6521775e+2, -452609.22, -485960.34, -13165.345, -0.013164472, 0.09943749, -448038.6, -107162.83, 0.0, 9.99631, 9.991886 
6.3499117e+2, 2.7520967e+2, -381445.97, -400758.47, -13150.757, -0.02076368, 0.100848176, -374787.03, -131831.88, 0.0, 9.994462, 9.991896 
6.34952e+2, 2.8520167e+2, -307827.66, -312867.53, -8522.671, -0.025606018, 0.102998205, -301460.2, -156426.64, 0.0, 9.992718, 9.99204 
6.349135e+2, 2.9519373e+2, -233729.66, -226101.94, -8426.685, -0.027680647, 0.10500536, -220666.23, -173555.42, 0.0, 9.991062, 9.99206 
6.348752e+2, 3.0518904e+2, -160296.77, -84324.29, -6198.5303, -0.039137818, 0.07272808, -83821.875, -83821.875, 0.0, 9.989246, 9.9992895 
6.34837e+2, 3.1518865e+2, -188494.73, -97026.164, -5361.284, -0.058659595, 0.100792125, -96713.0, -96713.0, 0.0, 9.987278, 9.999369 
6.455901e+2, 1.2537676e+2, -1490149.0, -1713306.8, 6328.6353, 0.09168387, 0.1001404, -1489969.8, 221349.02, 0.0011141651, 10.019938, 9.990288 
6.455506e+2, 1.3536723e+2, -1420005.4, -1628723.1, 5392.9873, 0.070552714, 0.11820269, -1419866.1, 193546.5, 0.00072298996, 10.018025, 9.990314 
6.45511e+2, 1.453581e+2, -1341754.9, -1529458.0, 3389.9553, 0.06103547, 0.12328769, -1341693.8, 173808.47, 0.00039010815, 10.016204, 9.991287 
6.454714e+2, 1.553493e+2, -1269180.4, -1443754.1, 2789.8916, 0.062092394, 0.11620882, -1269135.8, 148452.05, 0.00016593373, 10.014464, 9.991301 
6.4543164e+2, 1.6534077e+2, -1192742.9, -1350263.1, 2739.6514, 0.054415833, 0.104023226, -1192695.3, 126975.586, 0.000053298674, 10.012736, 9.991836 
6.453919e+2, 1.7533243e+2, -1120042.5, -1264750.6, 2958.4587, 0.03885004, 0.08644156, -1119982.0, 101769.65, 0.000012608397, 10.011018, 9.991821 
6.4535207e+2, 1.8532409e+2, -1048698.6, -1183504.1, 1430.3815, 0.031494565, 0.08669179, -1048683.4, 75149.805, 0.0000021745282, 10.009363, 9.991483 
6.4531213e+2, 1.9531572e+2, -974169.5, -1097081.8, 613.7607, 0.031369507, 0.10183699, -974166.44, 51749.035, 0.00000027264858, 10.007769, 9.991468 
6.452719e+2, 2.05307e+2, -903402.2, -1017477.9, -1176.3593, 0.027194008, 0.10795382, -903390.06, 24611.102, 0.000000024838991, 10.00613, 9.991006 
6.4523137e+2, 2.1529798e+2, -829735.25, -931092.1, -273.0048, 0.019506171, 0.10534861, -829734.5, 355.40497, 0.0000000016440835, 10.004458, 9.99102 
6.451907e+2, 2.2528924e+2, -750854.6, -836407.9, -1015.3577, 0.009669748, 0.102143265, -750842.6, -18666.973, 0.00000000007906257, 10.002892, 9.991549 
6.451498e+2, 2.3528077e+2, -674288.2, -748693.2, -1195.1357, -0.0021107632, 0.097408056, -674269.0, -40010.293, 0.0, 10.00142, 9.991554 
6.4510906e+2, 2.4527246e+2, -599316.5, -658946.6, -1417.1814, -0.0072773388, 0.098945215, -599282.8, -62942.76, 0.0, 9.999716, 9.99181 
6.450683e+2, 2.5526434e+2, -529181.56, -574390.8, -1446.8822, -0.0065128454, 0.10530259, -529135.3, -90715.42, 0.0, 9.997806, 9.991809 
6.4502716e+2, 2.6525617e+2, -455551.97, -488525.5, -4020.9429, -0.012676172, 0.10931785, -455068.72, -114568.54, 0.0, 9.996145, 9.991775 
6.449857e+2, 2.7524796e+2, -378259.44, -400325.38, -4690.4126, -0.02520923, 0.11014253, -377303.8, -134723.05, 0.0, 9.994715, 9.991788 
6.449448e+2, 2.8523993e+2, -303736.44, -310011.13, -1011.4019, -0.030828124, 0.11394956, -303577.44, -158918.27, 0.0, 9.992947, 9.992109 
6.449045e+2, 2.9523212e+2, -235807.94, -226238.3, -500.78516, -0.029923059, 0.11959077, -226212.16, -179476.78, 0.0, 9.9908695, 9.992127 
6.448642e+2, 3.0522743e+2, -165403.19, -86210.15, 1321.4221, -0.040275708, 0.07617229, -86188.11, -86188.11, 0.0, 9.988858, 9.999331 
6.448241e+2, 3.1522715e+2, -193282.66, -98451.42, 1868.258, -0.060438003, 0.11259768, -98414.63, -98414.63, 0.0, 9.986899, 9.999437 
6.5561e+2, 1.2541796e+2, -1492176.1, -1717153.8, -747.15125, 0.091124006, 0.11369367, -1492173.6, 218742.03, 0.0013392536, 10.019927, 9.9900255 
6.555686e+2, 1.3540804e+2, -1421951.0, -1632461.0, -1576.458, 0.069239154, 0.11998053, -1421939.1, 191073.92, 0.0008690532, 10.018015, 9.990058 
6.555272e+2, 1.4539868e+2, -1343137.3, -1532065.3, -2898.934, 0.058754437, 0.12218102, -1343092.9, 172012.17, 0.00046892275, 10.016193, 9.991109 
6.5548575e+2, 1.5538977e+2, -1270480.0, -1446203.1, -3481.6313, 0.058509253, 0.11985326, -1270411.1, 146780.9, 0.00019945936, 10.014453, 9.991134 
6.554444e+2, 1.6538122e+2, -1192428.9, -1349394.8, -3475.853, 0.050984103, 0.11268043, -1192352.0, 126923.14, 0.00006406798, 10.012725, 9.991894 
6.554029e+2, 1.75373e+2, -1119799.6, -1264043.3, -3302.0432, 0.03692006, 0.10040725, -1119724.0, 101630.82, 0.000015156219, 10.011007, 9.991869 
6.553615e+2, 1.8536454e+2, -1050254.0, -1186537.0, -4380.443, 0.03147166, 0.09964888, -1050113.4, 73324.04, 0.000002613987, 10.009354, 9.991276 
6.553199e+2, 1.953559e+2, -975592.94, -1099874.6, -5185.278, 0.03350284, 0.10805914, -975376.94, 50145.367, 0.0000003277555, 10.00776, 9.991277 
6.552781e+2, 2.0534718e+2, -901707.56, -1013880.5, -7272.958, 0.02794916, 0.109408714, -901237.94, 26370.063, 0.000000029859788, 10.006124, 9.991248 
6.552358e+2, 2.153384e+2, -828044.9, -927567.6, -6413.039, 0.015863424, 0.10406336, -827633.3, 2061.1797, 0.0000000019764235, 10.004455, 9.991257 
6.5519357e+2, 2.2532977e+2, -751202.8, -837090.5, -6459.045, 0.004177129, 0.10424959, -750719.8, -18940.762, 0.00000000009504615, 10.002889, 9.991498 
6.5515125e+2, 2.3532131e+2, -674649.44, -749341.5, -6706.954, -0.0071667386, 0.108088344, -674052.0, -40189.984, 0.0, 10.001414, 9.991508 
6.5510875e+2, 2.4531303e+2, -599279.25, -658789.4, -8562.052, -0.009861937, 0.11381583, -598071.9, -62128.637, 0.0, 9.99971, 9.991817 
6.550661e+2, 2.5530493e+2, -529152.25, -574320.5, -8564.318, -0.0049952012, 0.120547555, -527582.94, -89559.91, 0.0, 9.997802, 9.991809 
6.5502334e+2, 2.6529664e+2, -456921.34, -491358.97, -9390.051, -0.012068138, 0.12083726, -454527.4, -114422.73, 0.0, 9.996144, 9.991576 
6.5498036e+2, 2.7528813e+2, -379568.7, -403019.94, -10131.606, -0.029782679, 0.11421214, -375797.88, -133609.98, 0.0, 9.994713, 9.991599 
6.549377e+2, 2.852801e+2, -302820.22, -308071.0, -8857.277, -0.03739843, 0.120131835, -296207.44, -151941.1, 0.0, 9.992942, 9.992238 
6.5489525e+2, 2.9527253e+2, -234947.02, -224370.47, -8314.779, -0.035789803, 0.13654041, -219804.75, -173464.47, 0.0, 9.990864, 9.992251 
6.5485305e+2, 3.0526778e+2, -165497.33, -86321.7, -6045.6675, -0.044769805, 0.083020516, -85862.73, -85862.73, 0.0, 9.9888525, 9.99932 
6.5481097e+2, 3.1526762e+2, -193093.4, -98019.65, -5303.754, -0.062971175, 0.13118605, -97724.69, -97724.69, 0.0, 9.986896, 9.999462 
6.6563016e+2, 1.2546091e+2, -1485762.3, -1714061.3, 4120.7163, 0.09207132, 0.13375577, -1485687.9, 224807.94, 0.0015468692, 10.020356, 9.990013 
6.6558677e+2, 1.3545088e+2, -1416714.8, -1629968.8, 4916.8535, 0.071781896, 0.12940443, -1416601.5, 195992.8, 0.0010037742, 10.018362, 9.990043 
6.655435e+2, 1.4544143e+2, -1339416.9, -1530951.5, 5369.7935, 0.061460912, 0.12704447, -1339266.5, 175420.38, 0.0005416151, 10.016463, 9.991036 
6.6550034e+2, 1.5543243e+2, -1267813.1, -1445571.4, 5533.159, 0.06006056, 0.12530032, -1267641.1, 149133.4, 0.00023038001, 10.014649, 9.991063 
6.654571e+2, 1.6542386e+2, -1190583.9, -1349020.9, 5628.7593, 0.05232113, 0.120692916, -1190384.1, 128473.86, 0.00007400025, 10.012858, 9.9918375 
6.65414e+2, 1.7541562e+2, -1118710.3, -1264023.8, 5109.4165, 0.03894163, 0.11272512, -1118530.9, 102407.17, 0.000017505956, 10.011088, 9.991814 
6.653708e+2, 1.8540713e+2, -1049187.3, -1185797.6, 5048.228, 0.032997932, 0.10974225, -1049001.0, 74019.97, 0.0000030192607, 10.009403, 9.991285 
6.6532767e+2, 1.9539842e+2, -974777.4, -1099246.5, 5764.886, 0.033503577, 0.11028781, -974510.94, 50595.45, 0.00000037857205, 10.0077915, 9.991285 
6.6528416e+2, 2.0538972e+2, -900375.3, -1012823.2, 3527.6426, 0.026850415, 0.11185012, -900264.75, 26927.152, 0.00000003448964, 10.006183, 9.991273 
6.652403e+2, 2.1538101e+2, -825716.9, -926018.56, 2956.1973, 0.014022127, 0.11357785, -825629.8, 3647.6323, 0.0000000022829079, 10.004581, 9.991284 
6.651965e+2, 2.253724e+2, -750433.44, -836999.25, 2524.4006, 0.005024601, 0.11502322, -750359.9, -18997.97, 0.000000000109786645, 10.002939, 9.991463 
6.6515267e+2, 2.3536387e+2, -676832.5, -750665.1, 2416.0957, -0.0007212607, 0.1152706, -676753.5, -43307.86, 0.0, 10.001262, 9.991474 
6.6510844e+2, 2.4535559e+2, -599961.9, -659375.44, 8.7321205, -0.006666931, 0.12236916, -599961.9, -64434.695, 0.0, 9.99966, 9.991785 
6.6506404e+2, 2.553475e+2, -524375.0, -572265.94, -233.52254, -0.012606288, 0.13462418, -524373.9, -86767.086, 0.0, 9.998125, 9.991777 
6.6501945e+2, 2.6533914e+2, -453324.22, -489260.7, -204.60402, -0.019117234, 0.13176939, -453323.03, -113634.31, 0.0, 9.99636, 9.991597 
6.649749e+2, 2.753306e+2, -383849.06, -404730.8, 761.8638, -0.026534325, 0.11453877, -383821.28, -142048.69, 0.0, 9.9943905, 9.991618 
6.649304e+2, 2.853226e+2, -308392.38, -310676.47, 1523.3632, -0.03331383, 0.12260484, -307630.5, -163779.73, 0.0, 9.992541, 9.992232 
6.6488606e+2, 2.9531512e+2, -235726.56, -224683.97, 1100.7931, -0.039021254, 0.15234569, -224575.31, -178651.72, 0.0, 9.990792, 9.992245 
6.6484183e+2, 3.0531022e+2, -165292.66, -87073.78, 2287.9897, -0.049067903, 0.08642128, -87006.914, -87006.914, 0.0, 9.988888, 9.999232 
6.647978e+2, 3.1531e+2, -193831.19, -98608.99, 2694.9717, -0.06337803, 0.14037707, -98532.77, -98532.77, 0.0, 9.98684, 9.999431 
6.756506e+2, 1.2550552e+2, -1484876.8, -1711439.0, -3061.146, 0.09416653, 0.15888494, -1484835.5, 225224.64, 0.0017162573, 10.020322, 9.990199 
6.7560524e+2, 1.3549559e+2, -1415875.0, -1627443.6, -2312.001, 0.07741585, 0.14500967, -1415849.8, 196307.52, 0.0011136882, 10.018327, 9.990223 
6.7556006e+2, 1.4548616e+2, -1339632.6, -1530732.3, -1239.4373, 0.06820693, 0.1368207, -1339624.5, 174624.73, 0.00060092146, 10.016434, 9.991059 
6.7551506e+2, 1.5547717e+2, -1267921.1, -1445346.1, -1083.1848, 0.065826796, 0.13228108, -1267914.5, 148422.34, 0.0002556064, 10.014628, 9.991082 
6.754701e+2, 1.6546854e+2, -1191762.3, -1351142.8, -808.88403, 0.057629194, 0.1282366, -1191758.1, 126662.79, 0.00008210332, 10.012842, 9.991694 
6.754251e+2, 1.7546019e+2, -1119723.3, -1265903.0, -1274.1863, 0.044297095, 0.123679794, -1119712.1, 100789.945, 0.000019422932, 10.011077, 9.991685 
6.7538023e+2, 1.854517e+2, -1047736.25, -1182704.1, -781.719, 0.035804205, 0.11738769, -1047731.7, 74853.086, 0.0000033498757, 10.009397, 9.991493 
6.753355e+2, 1.9544311e+2, -973363.4, -1096321.6, -142.38097, 0.031563785, 0.109072395, -973363.2, 51305.72, 0.00000042002267, 10.007789, 9.99148 
6.7529035e+2, 2.0543447e+2, -901445.9, -1015039.8, -2370.1523, 0.024103554, 0.11537855, -901396.44, 25357.389, 0.000000038266112, 10.006181, 9.991117 
6.7524487e+2, 2.1542577e+2, -826753.8, -928137.1, -2959.188, 0.013855719, 0.13308382, -826667.56, 2172.0474, 0.0000000025329292, 10.004578, 9.991135 
6.7519945e+2, 2.2541708e+2, -750505.25, -837105.5, -3678.077, 0.01179852, 0.1337119, -750349.3, -19424.314, 0.00000000012181196, 10.002934, 9.991451 
6.7515403e+2, 2.354084e+2, -676897.6, -750754.25, -3788.3599, 0.016575277, 0.119051106, -676703.8, -43693.64, 0.0, 10.001258, 9.991464 
6.751082e+2, 2.4540006e+2, -600390.5, -660231.2, -5692.3154, 0.0018453079, 0.124959044, -599853.9, -64761.688, 0.0, 9.999657, 9.991722 
6.7506194e+2, 2.55392e+2, -524734.25, -572972.1, -6015.152, -0.029301696, 0.14764231, -523995.5, -86824.0, 0.0, 9.998121, 9.991724 
6.750157e+2, 2.6538372e+2, -451553.25, -485522.94, -7612.147, -0.03357068, 0.14208405, -449925.47, -110672.89, 0.0, 9.996354, 9.991849 
6.7496943e+2, 2.7537528e+2, -382185.47, -401188.9, -6624.4736, -0.015222228, 0.11102471, -380104.2, -138769.13, 0.0, 9.994383, 9.991857 
6.749232e+2, 2.8536737e+2, -309312.53, -312477.2, -5048.387, -0.018418662, 0.12127236, -305604.3, -162191.83, 0.0, 9.992536, 9.9921055 
6.748768e+2, 2.9535997e+2, -236595.31, -226462.08, -5492.115, -0.039637603, 0.16694853, -224056.48, -178571.28, 0.0, 9.990789, 9.992118 
6.748307e+2, 3.0535474e+2, -166328.13, -89265.46, -5395.3447, -0.053172182, 0.08608351, -88889.555, -88889.555, 0.0, 9.988888, 9.999074 
6.7478466e+2, 3.1535444e+2, -194249.34, -99548.32, -4736.1533, -0.061364044, 0.14795968, -99312.05, -99312.05, 0.0, 9.986841, 9.999358 
6.85671e+2, 1.2555209e+2, -1483453.5, -1709714.1, 4481.788, 0.09709647, 0.16269729, -1483364.8, 226239.9, 0.0018267931, 10.020359, 9.990278 
6.856235e+2, 1.355423e+2, -1416216.6, -1626570.6, 4673.645, 0.08205735, 0.15609127, -1416112.8, 195587.56, 0.0011854128, 10.018243, 9.990305 
6.855765e+2, 1.4553295e+2, -1340420.5, -1530470.8, 6646.54, 0.07311428, 0.14907092, -1340188.4, 173603.23, 0.0006396205, 10.0163355, 9.991107 
6.855297e+2, 1.5552397e+2, -1267609.5, -1444520.6, 7006.75, 0.06979126, 0.14097361, -1267332.5, 148546.44, 0.00027206627, 10.014604, 9.991133 
6.85483e+2, 1.6551535e+2, -1190808.8, -1350145.6, 8130.4663, 0.060410593, 0.13448742, -1190394.9, 127567.88, 0.00008738985, 10.012868, 9.991731 
6.854362e+2, 1.7550704e+2, -1118299.8, -1264682.9, 8944.025, 0.04577936, 0.12845631, -1117755.4, 102288.44, 0.000020673382, 10.011134, 9.99172 
6.853897e+2, 1.8549861e+2, -1045491.6, -1181095.9, 10071.64, 0.0366823, 0.12390628, -1044747.7, 77378.34, 0.0000035655155, 10.009511, 9.991528 
6.853434e+2, 1.9549009e+2, -970058.9, -1094264.9, 9584.488, 0.032290183, 0.11984132, -969323.6, 54885.773, 0.00000044705845, 10.007979, 9.991509 
6.8529665e+2, 2.054814e+2, -899086.44, -1014884.5, 6858.583, 0.024315475, 0.12544547, -898681.6, 27613.092, 0.00000004072911, 10.006368, 9.991018 
6.852495e+2, 2.1547256e+2, -825274.06, -928286.5, 6725.6743, 0.013373815, 0.13838525, -824836.8, 3545.046, 0.000000002695966, 10.0047, 9.991047 
6.852025e+2, 2.2546385e+2, -748459.44, -835189.4, 6406.337, 0.011079391, 0.13845405, -747988.8, -17521.508, 0.0000000001296529, 10.003018, 9.991523 
6.8515533e+2, 2.3545526e+2, -675133.44, -749039.56, 6974.0483, 0.015996167, 0.12671912, -674481.06, -41929.523, 0.0, 10.001325, 9.9915285 
6.851079e+2, 2.4544692e+2, -600188.6, -660913.25, 5770.4526, 0.0024142768, 0.13309583, -599645.1, -65011.47, 0.0, 9.999687, 9.99164 
6.8506014e+2, 2.5543877e+2, -525297.44, -573900.75, 5332.3228, -0.026916029, 0.15418714, -524719.3, -88005.3, 0.0, 9.998095, 9.991653 
6.850121e+2, 2.6543054e+2, -450204.44, -483097.72, 2054.3545, -0.031639244, 0.1480548, -450076.63, -111281.93, 0.0, 9.996352, 9.991995 
6.849639e+2, 2.7542225e+2, -379371.84, -398167.88, 2364.3696, -0.0154346395, 0.11729049, -379079.0, -138203.31, 0.0, 9.994486, 9.991994 
6.849157e+2, 2.8541437e+2, -307693.75, -312868.88, 4227.0957, -0.019184634, 0.13158917, -305325.13, -162372.45, 0.0, 9.992681, 9.991989 
6.848677e+2, 2.9540688e+2, -235310.25, -226999.33, 3853.234, -0.039771456, 0.18455361, -225487.75, -180461.88, 0.0, 9.990911, 9.9920025 
6.848196e+2, 3.0540138e+2, -165876.03, -89372.07, 3173.324, -0.051867045, 0.083626576, -89240.67, -89240.67, 0.0, 9.9889145, 9.999033 
6.847715e+2, 3.1540117e+2, -195238.31, -99220.49, 5029.188, -0.059271805, 0.15343845, -98957.8, -98957.8, 0.0, 9.986722, 9.999416 
6.9569135e+2, 1.2560047e+2, -1483470.8, -1709575.1, -2868.0317, 0.10055806, 0.15029426, -1483434.4, 225696.4, 0.0018644687, 10.0203495, 9.990284 
6.9564176e+2, 1.355909e+2, -1416120.8, -1626296.6, -2727.107, 0.08585699, 0.16379249, -1416085.4, 195139.33, 0.0012098617, 10.018236, 9.990317 
6.955928e+2, 1.4558165e+2, -1339953.4, -1529319.6, 557.29956, 0.07650238, 0.16328551, -1339951.8, 173363.19, 0.0006528119, 10.016325, 9.991182 
6.955443e+2, 1.5557273e+2, -1267234.1, -1443300.3, 870.91815, 0.07224175, 0.15108076, -1267229.9, 148172.05, 0.000277676, 10.014583, 9.991219 
6.9549584e+2, 1.655642e+2, -1189592.3, -1347279.4, 1931.0536, 0.06105248, 0.1396654, -1189568.6, 127916.22, 0.0000891909, 10.01285, 9.991927 
6.954473e+2, 1.7555602e+2, -1116992.3, -1261936.6, 2685.3516, 0.043953765, 0.12806772, -1116942.5, 102621.93, 0.000021099135, 10.011129, 9.991902 
6.953992e+2, 1.8554768e+2, -1046212.44, -1182529.3, 4478.312, 0.035924524, 0.12972932, -1046065.5, 75580.336, 0.0000036389126, 10.009507, 9.9914255 
6.9535136e+2, 1.9553924e+2, -970897.25, -1095745.5, 3927.516, 0.035381604, 0.14130008, -970773.8, 52955.035, 0.00000045626177, 10.007966, 9.991408 
6.95303e+2, 2.055304e+2, -899464.44, -1015420.2, 742.3933, 0.02711409, 0.1411143, -899459.7, 26355.639, 0.000000041567343, 10.006354, 9.990982 
6.952542e+2, 2.1552129e+2, -825453.7, -928538.56, 624.4109, 0.012521115, 0.13062282, -825449.9, 2454.9358, 0.0000000027514138, 10.004692, 9.991027 
6.952054e+2, 2.2551267e+2, -747292.9, -832787.0, 172.24677, 0.0032683413, 0.13061471, -747292.5, -17303.006, 0.00000000013231836, 10.0030155, 9.991681 
6.951565e+2, 2.3550442e+2, -673976.56, -746759.4, 706.7416, -0.0015124825, 0.13829865, -673969.7, -41899.242, 0.0, 10.001327, 9.991676 
6.9510746e+2, 2.4549612e+2, -600746.75, -662101.8, -174.35754, -0.0042712367, 0.14640261, -600746.25, -66594.055, 0.0, 9.999687, 9.991552 
6.950584e+2, 2.5548777e+2, -525841.9, -574949.06, -683.6769, -0.0056107165, 0.15428834, -525832.4, -89597.73, 0.0, 9.99809, 9.991577 
6.9500864e+2, 2.6547953e+2, -449823.5, -482242.13, -4961.5747, -0.01383698, 0.14991686, -449081.16, -110765.805, 0.0, 9.9963455, 9.992048 
6.949582e+2, 2.7547145e+2, -379046.75, -397415.28, -4616.608, -0.027701361, 0.13364184, -377951.75, -137557.13, 0.0, 9.994479, 9.992041 
6.9490826e+2, 2.854636e+2, -308330.38, -314158.25, -2437.8958, -0.035899974, 0.1537936, -307445.06, -164973.72, 0.0, 9.992677, 9.991895 
6.948586e+2, 2.9545602e+2, -235862.83, -228169.69, -2859.0298, -0.039177604, 0.20514943, -227223.55, -182678.05, 0.0, 9.99091, 9.991916 
6.948086e+2, 3.0545026e+2, -165148.7, -87877.65, -5050.7676, -0.04484564, 0.07888224, -87548.914, -87548.914, 0.0, 9.988912, 9.999127 
6.9475824e+2, 3.1545025e+2, -193625.13, -95871.6, -2825.6965, -0.05709865, 0.16224317, -95789.99, -95789.99, 0.0, 9.986718, 9.999639 
7.057118e+2, 1.2565182e+2, -1480375.3, -1709718.0, 8452.677, 0.10140729, 0.15397851, -1480064.3, 228563.81, 0.0018240295, 10.020614, 9.990119 
7.0566016e+2, 1.3564208e+2, -1412742.9, -1626054.8, 7723.975, 0.08555358, 0.16644776, -1412463.6, 198260.1, 0.0011836183, 10.018509, 9.990176 
7.0560926e+2, 1.4563282e+2, -1336760.5, -1526567.4, 11582.7295, 0.07710263, 0.16504708, -1336056.4, 176757.81, 0.0006386476, 10.016473, 9.991274 
7.055589e+2, 1.5562396e+2, -1267481.5, -1442250.8, 12150.201, 0.07539063, 0.15217265, -1266640.9, 148259.48, 0.00027164782, 10.014496, 9.991307 
7.0550865e+2, 1.6561551e+2, -1190301.6, -1347679.3, 13534.76, 0.06418103, 0.14406033, -1189146.0, 127836.586, 0.000087253444, 10.012786, 9.991909 
7.054586e+2, 1.7560735e+2, -1114387.5, -1260760.1, 12944.817, 0.045131348, 0.13880312, -1113251.6, 105810.42, 0.000020640544, 10.011294, 9.991882 
7.054088e+2, 1.85599e+2, -1044649.8, -1182640.5, 13978.14, 0.03651812, 0.14242722, -1043248.06, 77895.79, 0.0000035597755, 10.009633, 9.991337 
7.0535934e+2, 1.9559044e+2, -972877.0, -1097398.0, 13586.966, 0.03636789, 0.1525165, -971411.7, 51816.23, 0.00000044633444, 10.007843, 9.991336 
7.0530933e+2, 2.0558167e+2, -899954.56, -1013398.6, 11721.047, 0.028258571, 0.1492193, -898756.2, 26557.785, 0.000000040662268, 10.006206, 9.991171 
7.052589e+2, 2.1557269e+2, -823750.75, -925591.7, 13245.345, 0.013683716, 0.1342326, -822056.25, 5345.6426, 0.0000000026914477, 10.004699, 9.991201 
7.052085e+2, 2.255641e+2, -744331.9, -832534.06, 12632.681, 0.0025265678, 0.13567443, -742558.25, -13072.051, 0.00000000012943363, 10.003251, 9.991562 
7.05158e+2, 2.355558e+2, -666735.06, -744284.06, 11218.477, -0.0058010863, 0.14966801, -665144.75, -33576.94, 0.0, 10.001848, 9.991573 
7.0510733e+2, 2.4554749e+2, -594986.0, -658615.94, 8871.007, -0.006272034, 0.15802535, -593772.44, -60122.637, 0.0, 10.0000305, 9.991603 
7.050564e+2, 2.5553912e+2, -528223.1, -575484.7, 9509.611, -0.00033833727, 0.16115312, -526381.44, -90649.27, 0.0, 9.99788, 9.99162 
7.0500493e+2, 2.6553085e+2, -452149.84, -484802.16, 6094.8184, -0.009858704, 0.15693544, -451049.3, -113235.91, 0.0, 9.99623, 9.991908 
7.049529e+2, 2.7552265e+2, -372300.34, -395495.06, 4965.844, -0.0323381, 0.14503267, -371281.9, -131388.17, 0.0, 9.994981, 9.99191 
7.049011e+2, 2.8551477e+2, -300770.4, -310227.6, 5282.1167, -0.04054977, 0.168418, -298409.53, -156438.84, 0.0, 9.993162, 9.991909 
7.0484954e+2, 2.9550722e+2, -235914.61, -227953.61, 5751.4272, -0.036567904, 0.22182293, -224939.6, -180895.22, 0.0, 9.990876, 9.991924 
7.0479757e+2, 3.0550122e+2, -165792.83, -88985.94, 3319.705, -0.0409876, 0.07354665, -88842.72, -88842.72, 0.0, 9.988883, 9.999043 
7.047451e+2, 3.155013e+2, -186876.92, -91573.89, 4540.653, -0.05960401, 0.17424622, -91358.05, -91358.05, 0.0, 9.987117, 9.999722 
7.157324e+2, 1.2570578e+2, -1482969.8, -1713944.5, 686.41205, 0.10022104, 0.16982177, -1482967.8, 225132.11, 0.0017072218, 10.020559, 9.989848 
7.1567863e+2, 1.3569559e+2, -1414888.3, -1629683.6, 172.11664, 0.08202811, 0.16506808, -1414888.1, 195311.61, 0.001107819, 10.01847, 9.989938 
7.1562564e+2, 1.4568622e+2, -1336091.1, -1524804.1, 4502.774, 0.075514324, 0.15708101, -1335983.8, 176307.45, 0.0005977432, 10.016452, 9.991395 
7.1557343e+2, 1.5567751e+2, -1266626.1, -1440565.3, 5063.135, 0.079099424, 0.14613265, -1266478.9, 147897.19, 0.00025424492, 10.014496, 9.991413 
7.1552145e+2, 1.656691e+2, -1191505.3, -1350221.3, 8131.5728, 0.06930955, 0.14809231, -1191089.6, 125368.32, 0.0000816623, 10.012787, 9.991729 
7.154699e+2, 1.7566095e+2, -1115773.9, -1263323.8, 7463.3, 0.048805926, 0.15907289, -1115397.3, 103140.57, 0.000019317698, 10.011279, 9.991708 
7.1541846e+2, 1.8565245e+2, -1045259.06, -1183611.6, 7466.044, 0.038210414, 0.16081034, -1044857.3, 75763.86, 0.0000033315764, 10.009617, 9.991271 
7.1536714e+2, 1.9564366e+2, -973081.75, -1097803.1, 7137.2954, 0.035454314, 0.1546999, -972674.6, 50032.77, 0.0000004177132, 10.007838, 9.9913025 
7.1531546e+2, 2.0563507e+2, -897043.1, -1007417.4, 6232.292, 0.027945023, 0.15096739, -896692.4, 28099.082, 0.00000003805374, 10.006205, 9.991572 
7.1526366e+2, 2.1562661e+2, -821202.5, -920262.7, 7680.898, 0.016696302, 0.14841516, -820610.5, 6263.6113, 0.0000000025187055, 10.004693, 9.99156 
7.152118e+2, 2.2561803e+2, -746940.3, -837758.3, 7417.1333, 0.008365778, 0.15248364, -746338.56, -17380.123, 0.00000000012112517, 10.003242, 9.991202 
7.1515995e+2, 2.3560932e+2, -669149.75, -749011.4, 5870.375, 0.0023708865, 0.1607279, -668720.56, -37676.277, 0.0, 10.001835, 9.99125 
7.1510744e+2, 2.4560095e+2, -593665.2, -655723.06, 837.1904, -0.004096225, 0.1681939, -593653.9, -60527.11, 0.0, 10.000018, 9.991798 
7.150542e+2, 2.5559282e+2, -527011.6, -572980.7, 1645.36, -0.011010248, 0.17473768, -526952.8, -91746.02, 0.0, 9.997875, 9.991785 
7.150011e+2, 2.6558444e+2, -454366.97, -489402.34, 1407.6061, -0.019363187, 0.16894092, -454310.5, -117021.4, 0.0, 9.996231, 9.991587 
7.1494794e+2, 2.7557588e+2, -374334.22, -399735.34, 64.20224, -0.028975956, 0.15124145, -374334.06, -134960.81, 0.0, 9.994982, 9.991613 
7.1489435e+2, 2.8556794e+2, -299767.47, -308131.7, -3362.6187, -0.032886095, 0.17521888, -298583.28, -157132.52, 0.0, 9.993156, 9.992045 
7.148405e+2, 2.9556057e+2, -235124.39, -226199.89, -2726.9854, -0.031987097, 0.23434977, -225432.6, -181910.19, 0.0, 9.990867, 9.99204 
7.1478635e+2, 3.0555433e+2, -167575.42, -92679.51, -3272.7039, -0.04059561, 0.067675665, -92536.77, -92536.77, 0.0, 9.988882, 9.998782 
7.1473217e+2, 3.155544e+2, -187017.81, -92177.62, -1711.2106, -0.067342535, 0.19696343, -92146.75, -92146.75, 0.0, 9.987129, 9.999665 
7.257528e+2, 1.2576157e+2, -1487416.9, -1713782.0, 6414.187, 0.10268165, 0.18643102, -1487235.3, 220318.83, 0.0015216906, 10.020129, 9.990048 
7.2569704e+2, 1.3575149e+2, -1417614.6, -1628839.1, 8867.388, 0.086778544, 0.17178312, -1417243.1, 192409.78, 0.0009874186, 10.018167, 9.990119 
7.2564214e+2, 1.4574216e+2, -1337280.3, -1525882.6, 14690.516, 0.078224845, 0.1633619, -1336142.9, 175600.95, 0.00053277105, 10.016372, 9.991336 
7.25588e+2, 1.5573347e+2, -1263414.4, -1439464.5, 14230.881, 0.07669081, 0.15906489, -1262271.4, 151557.19, 0.00022660519, 10.014715, 9.991359 
7.255344e+2, 1.65725e+2, -1189119.8, -1349919.6, 17700.389, 0.06776391, 0.16207851, -1187194.4, 128716.805, 0.00007278266, 10.012967, 9.99164 
7.2548115e+2, 1.7571673e+2, -1117701.3, -1264972.9, 17703.523, 0.052624915, 0.16997734, -1115603.0, 102389.35, 0.000017216631, 10.011159, 9.9916315 
7.2542804e+2, 1.8570821e+2, -1045637.06, -1182554.9, 18801.287, 0.041017573, 0.16915062, -1043102.25, 76973.47, 0.000002969113, 10.009518, 9.991367 
7.25375e+2, 1.956995e+2, -969441.8, -1094818.0, 19633.428, 0.03237529, 0.16070451, -966439.2, 55721.94, 0.00000037225252, 10.008015, 9.991396 
7.2532177e+2, 2.0569098e+2, -893526.25, -1005605.06, 17915.35, 0.024993367, 0.15998459, -890732.2, 33512.242, 0.00000003391115, 10.006419, 9.991569 
7.2526836e+2, 2.156826e+2, -819803.0, -919396.25, 16672.852, 0.018510034, 0.16476737, -817085.94, 9240.529, 0.0000000022444646, 10.004761, 9.991568 
7.25215e+2, 2.2567403e+2, -748696.0, -838024.0, 16912.29, 0.012782007, 0.1662656, -745601.25, -17190.541, 0.000000000107934, 10.003077, 9.991245 
7.251616e+2, 2.3566525e+2, -675290.75, -751473.94, 18235.803, 0.0076327007, 0.16417053, -671150.7, -40653.613, 0.0, 10.001372, 9.9912815 
7.2510743e+2, 2.4565685e+2, -594348.5, -656948.5, 13112.488, -0.0043610027, 0.17287692, -591712.8, -59133.04, 0.0, 9.9999895, 9.991704 
7.250525e+2, 2.5564873e+2, -512897.75, -567017.3, 11868.582, -0.02168156, 0.18961808, -510409.34, -75749.53, 0.0, 9.998857, 9.991696 
7.249977e+2, 2.6564023e+2, -441976.13, -484325.0, 11267.095, -0.026153957, 0.18177192, -439165.06, -102421.88, 0.0, 9.997097, 9.991493 
7.249429e+2, 2.7563143e+2, -376727.38, -401758.56, 11699.821, -0.020847168, 0.15261276, -372110.38, -133281.06, 0.0, 9.994834, 9.991521 
7.2488743e+2, 2.8562346e+2, -302612.44, -310012.9, 7561.1333, -0.025703456, 0.18022075, -297894.7, -156987.52, 0.0, 9.992962, 9.991984 
7.2483146e+2, 2.956162e+2, -227741.05, -223283.45, 6741.856, -0.037997965, 0.25451612, -218411.53, -175433.6, 0.0, 9.991378, 9.991968 
7.247755e+2, 3.0560952e+2, -161087.28, -92514.98, 5280.859, -0.04509481, 0.064638585, -92110.67, -92110.67, 0.0, 9.989433, 9.998503 
7.2471935e+2, 3.1560948e+2, -185819.28, -91635.04, 7146.6997, -0.06338416, 0.20633474, -91095.836, -91095.836, 0.0, 9.987194, 9.999648 
7.3577297e+2, 1.2581913e+2, -1483646.6, -1705592.1, -545.6252, 0.107823715, 0.20361689, -1483645.3, 223346.22, 0.0012805624, 10.0201025, 9.990607 
7.3571527e+2, 1.3580956e+2, -1414312.4, -1621461.9, 1712.0632, 0.09788525, 0.18483567, -1414298.1, 194786.72, 0.0008309406, 10.018136, 9.990624 
7.356586e+2, 1.4580041e+2, -1338891.3, -1528627.4, 8585.8955, 0.084117614, 0.18097153, -1338503.5, 172670.5, 0.00044833313, 10.016343, 9.991155 
7.356027e+2, 1.5579164e+2, -1264839.8, -1441918.6, 8163.926, 0.06925671, 0.18728755, -1264464.1, 148795.52, 0.00019068683, 10.014691, 9.991195 
7.3554724e+2, 1.6578303e+2, -1189362.5, -1349966.9, 11182.363, 0.060885567, 0.1839564, -1188587.8, 126755.945, 0.00006124398, 10.012944, 9.991639 
7.3549235e+2, 1.7577456e+2, -1117760.4, -1264683.3, 11277.008, 0.056614447, 0.17293191, -1116899.9, 100526.53, 0.000014486428, 10.011137, 9.9916525 
7.354376e+2, 1.8576618e+2, -1044031.44, -1178909.6, 13416.112, 0.044661816, 0.16928902, -1042709.9, 76798.62, 0.000002498124, 10.0095005, 9.991616 
7.35383e+2, 1.957578e+2, -968068.1, -1091714.8, 14085.279, 0.027347788, 0.17028733, -966483.94, 55106.586, 0.00000031318194, 10.008, 9.991607 
7.3532814e+2, 2.0574927e+2, -896072.7, -1010662.1, 11823.228, 0.019746987, 0.17541225, -894865.5, 28808.664, 0.00000002852883, 10.006407, 9.991222 
7.352731e+2, 2.1574058e+2, -821895.2, -923593.8, 10621.712, 0.019292243, 0.18304585, -820797.7, 4961.7866, 0.0000000018882058, 10.004751, 9.991279 
7.3521817e+2, 2.2573201e+2, -745682.75, -831813.0, 10656.855, 0.015867984, 0.17721814, -744383.8, -16540.363, 0.00000000009079736, 10.003073, 9.991662 
7.3516303e+2, 2.3572351e+2, -672533.6, -745931.44, 12041.822, 0.010099756, 0.16042008, -670608.5, -40681.67, 0.0, 10.001375, 9.991651 
7.3510736e+2, 2.4571511e+2, -596768.5, -662042.94, 8898.822, -0.0069787367, 0.1724531, -595577.1, -63567.75, 0.0, 9.999993, 9.991347 
7.350512e+2, 2.5570682e+2, -515157.78, -571629.5, 7386.18, -0.032350156, 0.2058922, -514207.7, -80116.195, 0.0, 9.998854, 9.991376 
7.349947e+2, 2.6569822e+2, -440970.63, -482108.28, 2734.7588, -0.030211873, 0.19532824, -440789.63, -104613.805, 0.0, 9.997085, 9.99164 
7.3493785e+2, 2.7568942e+2, -375902.6, -399859.97, 3354.2302, -0.0077959783, 0.14897265, -375441.8, -137179.89, 0.0, 9.99482, 9.991648 
7.348805e+2, 2.8568143e+2, -304393.47, -313587.53, 1662.4775, -0.019184599, 0.18352365, -304102.1, -163762.28, 0.0, 9.992956, 9.9917345 
7.348227e+2, 2.956742e+2, -229383.1, -226834.28, 720.95746, -0.05556326, 0.28291833, -226644.48, -184233.73, 0.0, 9.991383, 9.9917145 
7.347648e+2, 3.0566692e+2, -162891.6, -96449.91, -3168.2437, -0.05472611, 0.06443723, -96299.17, -96299.17, 0.0, 9.989438, 9.99822 
7.347067e+2, 3.1566665e+2, -185444.25, -90823.4, -867.42725, -0.04589942, 0.20842254, -90815.445, -90815.445, 0.0, 9.987189, 9.999695 
7.457929e+2, 1.2587899e+2, -1485737.4, -1705421.6, 8328.068, 0.10870587, 0.21371493, -1485422.1, 220983.95, 0.0010030863, 10.01988, 9.9907 
7.457332e+2, 1.3586955e+2, -1417969.9, -1621945.5, 7962.735, 0.09981755, 0.20055467, -1417659.5, 190838.52, 0.00065088406, 10.017804, 9.990731 
7.456747e+2, 1.4586052e+2, -1342697.6, -1528935.5, 16240.245, 0.08712778, 0.19529724, -1341292.0, 169294.0, 0.00035117503, 10.015995, 9.991282 
7.456172e+2, 1.5585181e+2, -1267869.5, -1441732.5, 17737.795, 0.073476225, 0.19531052, -1266078.4, 146592.66, 0.00014935696, 10.014392, 9.99133 
7.455601e+2, 1.6584337e+2, -1191494.4, -1348697.9, 21846.23, 0.06448382, 0.1913882, -1188514.9, 126238.5, 0.00004796718, 10.012676, 9.99183 
7.4550337e+2, 1.7583513e+2, -1119546.8, -1263392.0, 23347.57, 0.05835755, 0.18366233, -1115852.0, 100981.98, 0.000011345212, 10.0109, 9.991829 
7.45447e+2, 1.8582682e+2, -1046452.56, -1179984.4, 26267.15, 0.045000453, 0.18124047, -1041471.4, 77443.87, 0.0000019562929, 10.00931, 9.991611 
7.453909e+2, 1.9581845e+2, -969658.5, -1092296.8, 25292.742, 0.026580479, 0.18214816, -964646.94, 56350.22, 0.00000024523627, 10.007862, 9.9916115 
7.453345e+2, 2.0580989e+2, -896157.25, -1010318.44, 23452.078, 0.020195495, 0.18397233, -891527.25, 31553.668, 0.000000022337804, 10.006362, 9.991243 
7.45278e+2, 2.1580116e+2, -820056.6, -922306.4, 24874.53, 0.022542961, 0.18598841, -814326.5, 10840.0625, 0.0000000014783464, 10.004837, 9.991297 
7.452214e+2, 2.2579262e+2, -739860.25, -829083.1, 24670.844, 0.016289594, 0.18184334, -733493.0, -6242.6455, 0.000000000071084194, 10.003452, 9.991638 
7.4516475e+2, 2.3578414e+2, -660727.4, -740329.9, 23023.18, 0.003741579, 0.17192832, -654548.1, -25214.89, 0.0, 10.002165, 9.991629 
7.451076e+2, 2.457757e+2, -589705.9, -659988.3, 19327.043, -0.009273499, 0.1835465, -584741.75, -53325.152, 0.0, 10.000512, 9.991215 
7.450501e+2, 2.5576717e+2, -519605.9, -575038.5, 19445.975, -0.022846851, 0.21126136, -513464.6, -79963.96, 0.0, 9.998581, 9.99125 
7.4499184e+2, 2.657585e+2, -443035.66, -483178.03, 13711.54, -0.022574585, 0.19951692, -438799.25, -103213.53, 0.0, 9.9969225, 9.991619 
7.44933e+2, 2.7574968e+2, -366275.84, -395438.72, 13164.34, -0.011875348, 0.15540749, -361212.5, -123540.64, 0.0, 9.995464, 9.991614 
7.4487376e+2, 2.8574166e+2, -293546.5, -310575.75, 11539.128, -0.02510798, 0.19488329, -287720.63, -147970.11, 0.0, 9.993772, 9.991522 
7.4481434e+2, 2.9573426e+2, -223227.84, -226121.77, 10795.201, -0.056219175, 0.3010746, -213783.06, -171960.22, 0.0, 9.9918785, 9.991499 
7.447545e+2, 3.057265e+2, -159405.7, -97573.64, 5255.905, -0.05098419, 0.055681933, -97130.055, -97130.055, 0.0, 9.989773, 9.997954 
7.446941e+2, 3.1572616e+2, -179638.66, -86506.56, 8200.68, -0.044664893, 0.21881858, -85789.97, -85789.97, 0.0, 9.987497, 9.999815 
7.5581276e+2, 1.2594092e+2, -1487843.3, -1708992.4, 870.803, 0.106374346, 0.21889587, -1487839.8, 217960.19, 0.00071827474, 10.019838, 9.990467 
7.5575095e+2, 1.3593139e+2, -1419436.0, -1624540.1, 849.2839, 0.094709195, 0.21841949, -1419432.5, 188460.44, 0.0004660779, 10.017779, 9.990555 
7.5569075e+2, 1.4592241e+2, -1340323.5, -1523462.6, 10803.596, 0.088044785, 0.20682487, -1339688.4, 170291.97, 0.00025146003, 10.015966, 9.991659 
7.556317e+2, 1.5591387e+2, -1265730.0, -1436288.0, 12070.36, 0.08703486, 0.1872175, -1264880.0, 147183.4, 0.00010694164, 10.014344, 9.991714 
7.5557286e+2, 1.6590586e+2, -1189405.5, -1343549.0, 15459.55, 0.07630867, 0.1876102, -1187870.3, 126271.48, 0.000034342676, 10.012635, 9.992191 
7.5551426e+2, 1.758982e+2, -1117418.3, -1258748.5, 16878.145, 0.05804537, 0.20121524, -1115430.6, 100786.44, 0.000008122055, 10.010884, 9.992144 
7.554563e+2, 1.8588997e+2, -1047904.3, -1182886.9, 20934.49, 0.04264335, 0.20305529, -1044732.1, 73565.38, 0.000001400401, 10.009303, 9.991408 
7.553988e+2, 1.958813e+2, -970814.5, -1094465.4, 19997.744, 0.029591048, 0.19583577, -967660.75, 52721.38, 0.00000017553856, 10.00785, 9.991462 
7.5534093e+2, 2.0587277e+2, -893689.75, -1005057.75, 17886.723, 0.02559794, 0.18640366, -890887.5, 31578.002, 0.000000015987586, 10.006351, 9.991599 
7.552829e+2, 2.1586426e+2, -817889.3, -917815.94, 19300.438, 0.027871288, 0.1751488, -814291.06, 10257.612, 0.0000000010579333, 10.004833, 9.991597 
7.5522476e+2, 2.2585572e+2, -742739.7, -835007.06, 19884.979, 0.014098366, 0.18111233, -738636.6, -12004.317, 0.000000000050865492, 10.003449, 9.991228 
7.5516677e+2, 2.3584713e+2, -663382.3, -745673.8, 18077.096, -0.010898542, 0.19807361, -659586.4, -30869.406, 0.0, 10.002156, 9.991261 
7.551081e+2, 2.4583851e+2, -589121.7, -658612.75, 12111.234, -0.010848736, 0.20526974, -587071.4, -56269.46, 0.0, 10.0005, 9.991305 
7.550489e+2, 2.558298e+2, -519105.94, -573911.44, 12348.229, 0.0066848597, 0.20561568, -516452.25, -83564.76, 0.0, 9.998572, 9.9913225 
7.549889e+2, 2.658211e+2, -444244.97, -485645.13, 8235.875, -0.0037779657, 0.194709, -442666.75, -107693.61, 0.0, 9.99692, 9.991444 
7.5492823e+2, 2.7581233e+2, -367505.78, -397983.0, 7616.7114, -0.03409102, 0.1724494, -365708.28, -128649.16, 0.0, 9.995463, 9.991433 
7.548674e+2, 2.8580415e+2, -294568.72, -312781.28, 4415.6587, -0.04364618, 0.21430069, -293554.6, -154415.39, 0.0, 9.9937725, 9.991361 
7.548064e+2, 2.9579645e+2, -224285.08, -228373.13, 3589.746, -0.03818412, 0.30794594, -222198.2, -180984.06, 0.0, 9.9918785, 9.991335 
7.5474447e+2, 3.0578825e+2, -160920.53, -100720.64, -3269.538, -0.033074897, 0.037984837, -100543.59, -100543.59, 0.0, 9.989768, 9.997728 
7.546814e+2, 3.1578815e+2, -177982.97, -83096.19, 228.81645, -0.06258907, 0.24500774, -83095.63, -83095.63, 0.0, 9.987494, 10.000039 
7.658323e+2, 1.2600513e+2, -1493854.6, -1708486.1, 9234.245, 0.10665699, 0.22827268, -1493458.1, 211713.33, 0.00046275684, 10.019251, 9.990759 
7.657685e+2, 1.3599578e+2, -1422774.6, -1622730.3, 12517.052, 0.09568801, 0.21718827, -1421994.1, 185268.39, 0.00030027682, 10.017376, 9.990842 
7.657065e+2, 1.4598706e+2, -1345437.0, -1523194.5, 24074.418, 0.09094836, 0.20578086, -1342234.3, 167113.17, 0.00016200186, 10.015473, 9.991885 
7.6564574e+2, 1.5597883e+2, -1275035.4, -1438249.6, 24596.758, 0.093115315, 0.19339651, -1271409.3, 140018.42, 0.000068892645, 10.013574, 9.991924 
7.6558524e+2, 1.6597095e+2, -1198314.9, -1348197.9, 27139.611, 0.08003935, 0.19943376, -1193552.0, 119952.9, 0.000022122193, 10.012018, 9.992148 
7.6552504e+2, 1.7596327e+2, -1119444.0, -1259742.8, 26065.943, 0.055515368, 0.2176783, -1114757.8, 100822.56, 0.0000052314717, 10.010724, 9.992132 
7.654655e+2, 1.8595512e+2, -1046372.44, -1179877.1, 30726.336, 0.040405363, 0.21688479, -1039640.2, 78019.805, 0.000000901916, 10.009287, 9.9916 
7.654066e+2, 1.9594657e+2, -970488.3, -1092182.4, 32444.229, 0.032259855, 0.2021364, -962378.94, 57364.41, 0.00000011304063, 10.007756, 9.991637 
7.6534736e+2, 2.0593813e+2, -892928.6, -1004553.06, 30461.092, 0.028035177, 0.19319922, -885157.2, 36668.62, 0.000000010294251, 10.006373, 9.991598 
7.652878e+2, 2.1592967e+2, -813484.3, -915591.4, 29530.8, 0.026344776, 0.18767992, -805558.8, 18349.605, 0.0000000006811173, 10.005107, 9.991596 
7.652284e+2, 2.2592106e+2, -739697.75, -834885.4, 30173.076, 0.013746271, 0.1921737, -730939.2, -4946.363, 0.000000000032745175, 10.003692, 9.991098 
7.6516896e+2, 2.3591228e+2, -663737.06, -747062.4, 30271.117, -0.006480564, 0.20313846, -653901.0, -25821.66, 0.0, 10.002161, 9.991139 
7.651087e+2, 2.4590358e+2, -587062.5, -657835.56, 23601.033, -0.0069124186, 0.21078557, -579914.2, -49749.22, 0.0, 10.000624, 9.991272 
7.650477e+2, 2.558949e+2, -511371.56, -570536.9, 23135.584, 0.0067383735, 0.21537611, -503399.06, -71148.62, 0.0, 9.999091, 9.991277 
7.6498616e+2, 2.6588604e+2, -434740.3, -483569.34, 19455.186, -0.0051807226, 0.20518026, -427936.7, -93599.16, 0.0, 9.997655, 9.991206 
7.6492405e+2, 2.7587703e+2, -357087.03, -395265.72, 18270.408, -0.035789423, 0.18186659, -349752.7, -113326.64, 0.0, 9.996252, 9.991214 
7.6486146e+2, 2.8586873e+2, -286265.44, -308903.16, 13158.868, -0.044112034, 0.22663385, -280227.1, -141720.17, 0.0, 9.994319, 9.991335 
7.6479834e+2, 2.958611e+2, -222474.58, -228110.98, 13498.409, -0.03560158, 0.32535514, -211503.31, -170921.83, 0.0, 9.9920025, 9.991263 
7.6473445e+2, 3.0585232e+2, -157707.97, -104384.87, 6581.0703, -0.029699607, 0.028644398, -103584.65, -103584.65, 0.0, 9.990189, 9.997247 
7.6466936e+2, 3.15852e+2, -159593.84, -73386.95, 8542.444, -0.0704129, 0.25974417, -72548.62, -72548.62, 0.0, 9.988694, 10.000102 
7.7585155e+2, 1.2607141e+2, -1489279.4, -1698355.3, 2773.985, 0.10882598, 0.24034847, -1489242.6, 215279.78, 0.00026577854, 10.019213, 9.991454 
7.75786e+2, 1.3606249e+2, -1418685.1, -1613357.5, 5688.6245, 0.10121159, 0.20162049, -1418519.1, 188090.0, 0.00017245945, 10.017329, 9.991489 
7.7572197e+2, 1.460542e+2, -1344855.1, -1521279.6, 17061.36, 0.09517714, 0.19579807, -1343220.4, 165469.45, 0.00009304, 10.015436, 9.992023 
7.756593e+2, 1.5604638e+2, -1274423.1, -1436814.3, 17718.684, 0.09312492, 0.21125026, -1272512.3, 138254.1, 0.000039563634, 10.013561, 9.992018 
7.755972e+2, 1.6603841e+2, -1200752.0, -1353204.5, 22460.7, 0.07728807, 0.22355253, -1197511.8, 115332.99, 0.000012703393, 10.012015, 9.991801 
7.755357e+2, 1.7603031e+2, -1121310.8, -1263419.4, 21427.158, 0.05121345, 0.23300727, -1118150.3, 96774.3, 0.0000030038798, 10.010715, 9.9918785 
7.754748e+2, 1.8602227e+2, -1042772.7, -1172125.4, 25240.129, 0.03825339, 0.2240484, -1038022.2, 78981.03, 0.0000005178104, 10.009268, 9.992128 
7.7541435e+2, 1.9601417e+2, -967454.6, -1085540.4, 26845.227, 0.034566104, 0.20227958, -961638.2, 57443.637, 0.00000006488773, 10.007736, 9.992091 
7.7535367e+2, 2.0600587e+2, -895169.75, -1008925.2, 25757.197, 0.027757248, 0.20424435, -889609.44, 31553.463, 0.0000000059083582, 10.00636, 9.9913 
7.752929e+2, 2.1599734e+2, -815312.5, -919251.94, 24817.756, 0.01874132, 0.2212963, -809690.8, 13555.593, 0.0000000003908952, 10.005098, 9.991343 
7.752321e+2, 2.2598857e+2, -738805.06, -832912.5, 24534.22, 0.015460495, 0.2133666, -732792.94, -7460.5938, 0.00000000001879051, 10.003682, 9.991229 
7.7517134e+2, 2.3597956e+2, -662974.25, -745336.3, 24586.328, 0.01589532, 0.18804608, -656193.1, -28772.383, 0.0, 10.002151, 9.991254 
7.7510935e+2, 2.4597089e+2, -588021.44, -659781.44, 17877.094, 0.0015458162, 0.20146069, -583814.44, -54308.44, 0.0, 10.000619, 9.991133 
7.750465e+2, 2.5596243e+2, -512385.03, -572639.44, 17503.746, -0.022662532, 0.24078985, -507669.3, -76079.53, 0.0, 9.999088, 9.991126 
7.7498364e+2, 2.6595333e+2, -436727.75, -487655.03, 14200.617, -0.026103562, 0.23055358, -433035.72, -99356.58, 0.0, 9.997652, 9.990919 
7.7492046e+2, 2.759438e+2, -358739.1, -398712.03, 12700.389, -0.015700096, 0.18309404, -355045.22, -119272.43, 0.0, 9.996252, 9.99097 
7.748559e+2, 2.8593552e+2, -285331.1, -306878.6, 4390.7427, -0.026188394, 0.23190428, -284470.72, -146617.17, 0.0, 9.994309, 9.9914665 
7.747902e+2, 2.959282e+2, -222259.94, -227412.52, 5162.701, -0.050462943, 0.35433656, -219066.42, -179141.9, 0.0, 9.991986, 9.991307 
7.7472454e+2, 3.0591875e+2, -162908.22, -115241.18, 1112.068, -0.042077534, 0.02815249, -115215.25, -115215.25, 0.0, 9.990193, 9.99649 
7.7465814e+2, 3.159178e+2, -159804.48, -74573.43, 3335.7334, -0.0660765, 0.26700577, -74443.08, -74443.08, 0.0, 9.988728, 9.999995 
7.858704e+2, 1.2614016e+2, -1498164.3, -1700192.0, 13246.454, 0.10635233, 0.23959208, -1497299.5, 206549.83, 0.00013517398, 10.018471, 9.991658 
7.858029e+2, 1.3613158e+2, -1429469.8, -1616125.3, 13421.221, 0.10545001, 0.21606591, -1428509.6, 177422.95, 0.000087712935, 10.0164585, 9.991698 
7.857371e+2, 1.4612348e+2, -1353889.0, -1524348.3, 24600.201, 0.098486476, 0.21259226, -1350409.8, 157601.84, 0.000047318455, 10.014737, 9.992132 
7.8567266e+2, 1.5611573e+2, -1277864.5, -1437050.3, 25247.357, 0.09081061, 0.22233005, -1273956.1, 136131.56, 0.000020119835, 10.01324, 9.992136 
7.856091e+2, 1.6610783e+2, -1202178.5, -1352260.9, 33091.574, 0.07438907, 0.22915295, -1195206.1, 116959.07, 0.0000064595174, 10.011824, 9.991936 
7.855463e+2, 1.760998e+2, -1123351.6, -1262826.6, 35068.176, 0.051157765, 0.2330787, -1115030.9, 99213.31, 0.0000015272209, 10.010483, 9.992003 
7.8548396e+2, 1.8609187e+2, -1045774.75, -1173189.0, 37548.445, 0.039776698, 0.22812201, -1035532.6, 80789.17, 0.00000026322422, 10.00902, 9.99215 
7.8542197e+2, 1.960839e+2, -970295.0, -1086443.4, 36051.613, 0.036630582, 0.21667683, -960014.75, 58384.555, 0.00000003298002, 10.007495, 9.9921255 
7.8536e+2, 2.0607562e+2, -896145.44, -1009057.0, 36267.453, 0.028455423, 0.21752119, -885499.94, 34980.246, 0.000000003002544, 10.006254, 9.9913225 
7.85298e+2, 2.1606705e+2, -813058.3, -917625.0, 37422.406, 0.016863408, 0.22616944, -801045.56, 21518.654, 0.00000000019861872, 10.005205, 9.991379 
7.852358e+2, 2.2605835e+2, -734482.4, -829369.1, 36789.066, 0.0143270595, 0.21819776, -721889.9, 2759.494, 0.000000000009546281, 10.003889, 9.991345 
7.851736e+2, 2.360495e+2, -658360.75, -741995.7, 36909.832, 0.017810885, 0.19771403, -644401.56, -17665.4, 0.0, 10.002392, 9.99134 
7.851103e+2, 2.4604076e+2, -580961.4, -658860.3, 30610.732, 0.0004258969, 0.21259037, -570372.2, -41549.977, 0.0, 10.001184, 9.990897 
7.850461e+2, 2.5603205e+2, -497846.8, -567882.8, 29451.543, -0.0311507, 0.251777, -487108.34, -56200.094, 0.0, 10.000155, 9.9909115 
7.849816e+2, 2.6602277e+2, -426010.94, -483737.0, 24778.387, -0.02944361, 0.23864345, -416833.97, -83834.484, 0.0, 9.998412, 9.990792 
7.849168e+2, 2.7601308e+2, -360181.2, -400642.6, 24628.334, -0.0051623546, 0.18620679, -348539.7, -113444.83, 0.0, 9.996179, 9.990843 
7.848505e+2, 2.860047e+2, -280911.25, -306226.63, 15820.644, -0.021976117, 0.24106924, -273307.9, -136131.5, 0.0, 9.99465, 9.991316 
7.8478277e+2, 2.9599738e+2, -200355.03, -218768.36, 14458.707, -0.06625916, 0.37660882, -192420.61, -153173.06, 0.0, 9.993542, 9.991122 
7.847153e+2, 3.0598727e+2, -147510.39, -113865.2, 9221.943, -0.049429417, 0.023477405, -111503.33, -111503.33, 0.0, 9.991481, 9.9959345 
7.84647e+2, 3.1598592e+2, -157746.47, -71416.29, 13497.91, -0.05901791, 0.27772334, -69355.08, -69355.08, 0.0, 9.98875, 10.000169 
7.958888e+2, 1.2621112e+2, -1499767.4, -1702264.4, 5598.483, 0.100521185, 0.23062207, -1499612.6, 203541.94, 0.00005999335, 10.018412, 9.991534 
7.958194e+2, 1.362029e+2, -1430549.3, -1617591.1, 6110.526, 0.108785234, 0.25332788, -1430349.9, 174885.27, 0.000038930248, 10.016421, 9.991605 
7.957518e+2, 1.4619482e+2, -1353556.6, -1522977.3, 19235.377, 0.101013295, 0.2490996, -1351400.1, 155913.94, 0.00002100099, 10.014704, 9.992232 
7.956858e+2, 1.5618683e+2, -1277222.4, -1434874.4, 19995.799, 0.08658747, 0.22774705, -1274725.8, 134666.13, 0.000008928838, 10.013199, 9.992294 
7.956209e+2, 1.6617915e+2, -1198889.9, -1344650.4, 28343.451, 0.07141542, 0.22023393, -1193572.4, 117894.53, 0.0000028661957, 10.011785, 9.992465 
7.9555684e+2, 1.7617163e+2, -1120649.8, -1256545.9, 30017.219, 0.054594357, 0.22103208, -1114314.8, 99226.02, 0.00000067750926, 10.010448, 9.992439 
7.9549307e+2, 1.8616381e+2, -1048702.5, -1178836.5, 31918.82, 0.0442513, 0.23009595, -1041295.2, 74322.13, 0.00000011675234, 10.008998, 9.991768 
7.954295e+2, 1.9615571e+2, -972371.8, -1090765.5, 30731.49, 0.038436484, 0.2433341, -964870.1, 52826.363, 0.000000014626452, 10.007492, 9.991824 
7.953663e+2, 2.0614737e+2, -893907.06, -1004452.4, 32567.154, 0.030097535, 0.23207644, -885026.1, 34751.984, 0.0000000013313739, 10.006253, 9.99163 
7.953032e+2, 2.1613874e+2, -811067.6, -913235.06, 33480.06, 0.020040734, 0.20515564, -801073.8, 20788.455, 0.00000000008805029, 10.005191, 9.991678 
7.952397e+2, 2.2613035e+2, -733763.25, -827653.4, 31238.063, 0.010165234, 0.20906569, -724319.9, -375.5716, 0.0000000000042311337, 10.003874, 9.991461 
7.9517585e+2, 2.3612204e+2, -657826.4, -740890.8, 31532.463, 0.00040652737, 0.23114914, -647212.44, -21186.15, 0.0, 10.002387, 9.991409 
7.951114e+2, 2.4611312e+2, -583159.2, -663380.4, 26793.594, -0.009202598, 0.24257617, -575033.3, -46919.27, 0.0, 10.001183, 9.9905815 
7.950463e+2, 2.5610375e+2, -499750.75, -571689.1, 25172.348, -0.018674098, 0.2480355, -491817.44, -61611.25, 0.0, 10.000148, 9.990647 
7.9498017e+2, 2.6609436e+2, -425722.56, -482960.44, 16311.638, -0.015707055, 0.22977589, -421400.47, -89101.805, 0.0, 9.998397, 9.990841 
7.9491293e+2, 2.760848e+2, -360290.44, -400572.66, 16724.154, -0.0050490485, 0.19161157, -354252.16, -119859.95, 0.0, 9.996159, 9.990846 
7.94845e+2, 2.8607634e+2, -283901.1, -312383.88, 11808.411, -0.032125358, 0.25409085, -279642.34, -143166.98, 0.0, 9.99465, 9.990886 
7.947762e+2, 2.9606858e+2, -202874.84, -224581.11, 9860.471, -0.08291132, 0.39155522, -199064.44, -160513.78, 0.0, 9.993568, 9.990703 
7.947067e+2, 3.060579e+2, -149341.55, -118047.46, -1228.5316, -0.051293094, 0.014709005, -117999.305, -117999.305, 0.0, 9.991489, 9.995628 
7.9463583e+2, 3.1605658e+2, -154401.77, -63852.824, 3661.0132, -0.04914442, 0.29756388, -63705.043, -63705.043, 0.0, 9.988716, 10.0006895 
8.059066e+2, 1.262838e+2, -1515040.1, -1706619.0, 9359.315, 0.1040949, 0.25254405, -1514584.0, 187859.53, 0.00002263058, 10.017208, 9.991804 
8.0583537e+2, 1.3627566e+2, -1441970.6, -1619780.9, 12302.209, 0.11381174, 0.25767007, -1441123.5, 163399.42, 0.000014685748, 10.015469, 9.991895 
8.057661e+2, 1.462679e+2, -1363196.3, -1523134.6, 28710.8, 0.10375681, 0.25089437, -1358198.5, 148400.2, 0.000007921933, 10.0138235, 9.992624 
8.0569863e+2, 1.5626036e+2, -1287599.0, -1435653.1, 31392.893, 0.08517115, 0.23562483, -1281217.6, 127454.53, 0.000003367728, 10.0122795, 9.9926605 
8.0563223e+2, 1.6625299e+2, -1209813.9, -1348286.9, 39954.277, 0.071163684, 0.2329493, -1199112.8, 111631.63, 0.0000010808867, 10.010941, 9.992602 
8.0556697e+2, 1.7624563e+2, -1129419.6, -1259122.5, 39207.953, 0.058727127, 0.23773637, -1118488.8, 94327.77, 0.0000002554507, 10.00975, 9.992582 
8.055018e+2, 1.8623789e+2, -1053043.6, -1180108.5, 42028.41, 0.046671633, 0.2419468, -1040400.25, 74492.15, 0.0000000440119, 10.008638, 9.991835 
8.05437e+2, 1.9622976e+2, -969780.7, -1088421.8, 43868.914, 0.035341334, 0.24528918, -955321.8, 61650.023, 0.000000005512555, 10.007595, 9.991908 
8.0537254e+2, 2.0622154e+2, -890024.1, -1000386.4, 46711.465, 0.027190218, 0.23475645, -872907.8, 46144.133, 0.0000000005016647, 10.006398, 9.99181 
8.0530834e+2, 2.1621315e+2, -810808.75, -911250.44, 46826.46, 0.020811692, 0.21474133, -792364.8, 28768.924, 0.00000000003316926, 10.005101, 9.991831 
8.052436e+2, 2.2620481e+2, -733036.3, -828691.44, 42940.004, 0.009858637, 0.22138008, -716588.56, 6627.1045, 0.0000000000015935799, 10.003958, 9.991326 
8.051784e+2, 2.3619637e+2, -650558.44, -738329.06, 41573.84, -0.00398577, 0.2440599, -633992.94, -8694.046, 0.0, 10.002898, 9.991316 
8.0511266e+2, 2.4618746e+2, -577451.8, -659216.44, 37826.55, -0.010419735, 0.25325787, -562636.6, -35250.13, 0.0, 10.001486, 9.990696 
8.050464e+2, 2.5617817e+2, -503266.5, -572323.2, 39320.89, -0.011939376, 0.25429714, -485465.7, -55987.81, 0.0, 9.999835, 9.9907255 
8.049787e+2, 2.6616868e+2, -422935.72, -483622.63, 29798.746, -0.012250342, 0.23440443, -410750.47, -79179.33, 0.0, 9.998646, 9.9906435 
8.049098e+2, 2.7615893e+2, -338297.38, -391822.28, 28510.287, -0.012205564, 0.19676553, -325956.56, -92290.03, 0.0, 9.997716, 9.9906645 
8.0484027e+2, 2.8615028e+2, -264959.6, -305580.25, 23660.367, -0.03739097, 0.26369026, -254087.83, -118336.59, 0.0, 9.996019, 9.990661 
8.047699e+2, 2.9614237e+2, -200789.86, -226453.1, 23179.553, -0.07820953, 0.40737116, -187127.3, -149299.05, 0.0, 9.993807, 9.990426 
8.046985e+2, 3.0613098e+2, -146751.95, -123851.63, 8883.452, -0.04151311, 0.0085548265, -120809.66, -120809.66, 0.0, 9.99194, 9.994977 
8.0462515e+2, 3.1612927e+2, -129797.98, -48518.06, 11437.591, -0.05671411, 0.31158483, -46939.246, -46939.246, 0.0, 9.990222, 10.000985 
8.1592387e+2, 1.2635812e+2, -1512123.8, -1698823.5, 3341.1794, 0.11423773, 0.29527876, -1512064.0, 189652.34, 0.0000070453325, 10.017126, 9.992361 
8.158509e+2, 1.363499e+2, -1438704.8, -1611526.0, 6290.3506, 0.119785644, 0.23734508, -1438476.1, 165319.81, 0.000004572202, 10.015398, 9.992477 
8.1578e+2, 1.4634272e+2, -1359302.4, -1514158.8, 23227.576, 0.1065355, 0.2276506, -1355893.5, 149972.48, 0.0000024662966, 10.013777, 9.993248 
8.157109e+2, 1.5633616e+2, -1283933.9, -1427838.4, 25717.25, 0.085935675, 0.24619436, -1279476.1, 128454.234, 0.0000010483263, 10.012263, 9.993191 
8.156432e+2, 1.6632912e+2, -1210959.3, -1350497.1, 35487.613, 0.0730023, 0.2629249, -1202452.5, 107546.945, 0.00000033641254, 10.010931, 9.99245 
8.1557673e+2, 1.7632172e+2, -1130091.6, -1260173.4, 34918.05, 0.06327874, 0.27756986, -1121311.3, 90761.12, 0.000000079492956, 10.009732, 9.992512 
8.155105e+2, 1.8631399e+2, -1050108.5, -1173593.5, 38317.6, 0.047285374, 0.26121855, -1039184.9, 74962.984, 0.000000013692771, 10.0086155, 9.992283 
8.154446e+2, 1.9630593e+2, -967132.1, -1082388.9, 40005.063, 0.028033732, 0.22603907, -954607.56, 61618.54, 0.0000000017145234, 10.007567, 9.992326 
8.153789e+2, 2.0629807e+2, -889623.5, -999155.1, 41931.094, 0.020326901, 0.22817057, -875414.56, 42888.15, 0.00000000015598509, 10.006375, 9.991898 
8.1531346e+2, 2.162902e+2, -810580.75, -910691.5, 42126.473, 0.019450668, 0.252055, -795213.06, 25166.793, 0.0000000000103108225, 10.005094, 9.991866 
8.152476e+2, 2.2628161e+2, -735521.75, -833729.25, 39045.414, 0.013251609, 0.25225356, -721890.1, 574.01086, 0.00000000000049527916, 10.003951, 9.990978 
8.151814e+2, 2.3627245e+2, -652275.8, -741598.6, 37492.156, 0.0038809236, 0.23719756, -638625.1, -14070.9, 0.0, 10.002883, 9.991093 
8.151142e+2, 2.4626376e+2, -573743.06, -651377.56, 31666.578, -0.0039661843, 0.24622738, -562464.9, -35825.21, 0.0, 10.001472, 9.991228 
8.1504625e+2, 2.562552e+2, -500249.28, -566074.06, 33499.56, -0.011182711, 0.2709902, -486199.5, -57475.965, 0.0, 9.999829, 9.991145 
8.149773e+2, 2.662457e+2, -425877.2, -489732.84, 26355.836, -0.01912265, 0.25234684, -416404.34, -85587.19, 0.0, 9.998648, 9.990217 
8.1490743e+2, 2.762354e+2, -340613.7, -396832.2, 24574.19, -0.02693652, 0.20146576, -331386.34, -98468.4, 0.0, 9.9977255, 9.990309 
8.148363e+2, 2.8622663e+2, -264716.4, -305199.1, 15235.788, -0.037215695, 0.26982448, -259623.16, -124619.26, 0.0, 9.996017, 9.990674 
8.1476396e+2, 2.9621884e+2, -201704.4, -227919.63, 15206.976, -0.04984204, 0.42393184, -194735.63, -157655.86, 0.0, 9.993782, 9.990324 
8.146907e+2, 3.062066e+2, -153989.33, -138648.48, 2677.9722, -0.019318653, 0.0050548953, -138194.44, -138194.44, 0.0, 9.99193, 9.993955 
8.1461513e+2, 3.162041e+2, -128905.99, -47432.066, 5258.8296, -0.086162746, 0.32389513, -47094.03, -47094.03, 0.0, 9.990254, 10.001032 
8.259402e+2, 1.2643424e+2, -1531968.6, -1700455.1, 12918.178, 0.12024121, 0.28856003, -1530984.0, 169987.1, 0.0000017711932, 10.015399, 9.993059 
8.258655e+2, 1.3642688e+2, -1456612.0, -1613129.5, 16895.746, 0.119437024, 0.24724168, -1454808.9, 148233.53, 0.0000011495188, 10.013843, 9.9930935 
8.2579315e+2, 1.4642005e+2, -1376156.1, -1521929.5, 33311.113, 0.1052078, 0.24389915, -1368904.9, 136204.34, 0.00000062004744, 10.012583, 9.993276 
8.2572275e+2, 1.5641351e+2, -1293623.0, -1431601.3, 32280.799, 0.087267496, 0.2631311, -1286444.3, 120729.07, 0.00000026353325, 10.011535, 9.993271 
8.2565385e+2, 1.6640665e+2, -1216743.4, -1350148.1, 42701.176, 0.073195465, 0.2759506, -1204246.0, 104994.88, 0.00000008455549, 10.010371, 9.992729 
8.255862e+2, 1.7639945e+2, -1135801.5, -1259507.6, 44901.84, 0.060041778, 0.284164, -1121221.8, 90089.836, 0.000000019975722, 10.009166, 9.992812 
8.255188e+2, 1.8639208e+2, -1055118.4, -1171480.9, 49737.68, 0.04510645, 0.26902115, -1036756.1, 76627.24, 0.0000000034399419, 10.00805, 9.99268 
8.2545185e+2, 1.9638447e+2, -972464.44, -1080984.8, 51139.156, 0.029467374, 0.23926109, -952163.4, 63293.918, 0.00000000043059778, 10.007003, 9.992675 
8.2538515e+2, 2.0637679e+2, -893954.44, -1001636.6, 52371.004, 0.021995148, 0.24424444, -872685.06, 44847.33, 0.000000000039164463, 10.00607, 9.991856 
8.253186e+2, 2.163689e+2, -808617.6, -909670.7, 51784.41, 0.01940675, 0.26981035, -786793.94, 32815.9, 0.0000000000025881799, 10.005198, 9.991866 
8.2525164e+2, 2.2636038e+2, -732092.6, -829849.94, 50366.79, 0.014922674, 0.26490203, -710786.25, 10907.184, 0.00000000000012428871, 10.004062, 9.991166 
8.251843e+2, 2.363513e+2, -652517.75, -739781.25, 52627.508, 0.009307804, 0.24052083, -627787.4, -4004.937, 0.0, 10.002756, 9.991248 
8.251159e+2, 2.4634264e+2, -568622.3, -649493.9, 45581.863, -0.0026725023, 0.25161016, -548125.7, -22258.305, 0.0, 10.0018215, 9.9911585 
8.2504666e+2, 2.5633413e+2, -481806.34, -557634.4, 43164.12, -0.018468114, 0.28522998, -462269.4, -34318.4, 0.0, 10.001084, 9.991096 
8.2497644e+2, 2.6632452e+2, -410094.3, -483040.56, 35463.55, -0.022776173, 0.26541185, -395695.53, -65650.13, 0.0, 9.999738, 9.990127 
8.2490534e+2, 2.7631408e+2, -336623.03, -395753.78, 36043.074, -0.02025661, 0.20768121, -319570.66, -87423.01, 0.0, 9.998005, 9.990222 
8.2483256e+2, 2.8630522e+2, -258539.17, -303838.16, 25023.686, -0.03245183, 0.27859727, -247436.86, -113202.34, 0.0, 9.996478, 9.990515 
8.2475835e+2, 2.9629734e+2, -184550.69, -222141.08, 23870.914, -0.053153932, 0.43993422, -172963.66, -136652.36, 0.0, 9.995031, 9.990089 
8.246834e+2, 3.0628437e+2, -138827.92, -140566.17, 11759.741, -0.012326548, 0.004556529, -127905.24, -127905.24, 0.0, 9.993335, 9.993116 
8.246059e+2, 3.1628123e+2, -109778.19, -34710.523, 15583.27, -0.09022251, 0.33323282, -31604.143, -31604.143, 0.0, 9.991384, 10.0013275 
8.359556e+2, 1.2651205e+2, -1526862.4, -1688668.4, 7338.645, 0.12293418, 0.24889979, -1526530.1, 173678.52, 0.00000035550408, 10.01534, 9.993878 
8.3587927e+2, 1.3650623e+2, -1451800.6, -1603420.3, 11016.959, 0.114430055, 0.2803266, -1451004.4, 151261.4, 0.00000023073896, 10.013847, 9.99374 
8.3580565e+2, 1.4649957e+2, -1378953.5, -1527621.1, 29325.816, 0.10090628, 0.28897503, -1373377.9, 130953.234, 0.00000012445682, 10.012578, 9.992884 
8.357343e+2, 1.5649243e+2, -1295942.4, -1435288.5, 28579.254, 0.08892183, 0.2843053, -1290308.6, 116092.734, 0.000000052892922, 10.011485, 9.993036 
8.356642e+2, 1.664856e+2, -1213045.4, -1341330.8, 38628.54, 0.07187995, 0.27541694, -1202311.9, 106156.49, 0.000000016968157, 10.010315, 9.993349 
8.355952e+2, 1.7647883e+2, -1132032.3, -1250903.4, 40741.7, 0.05049781, 0.26412964, -1119409.0, 91125.46, 0.000000004007573, 10.009125, 9.99341 
8.355268e+2, 1.8647213e+2, -1052761.0, -1166186.0, 45997.805, 0.04081277, 0.26840484, -1036452.2, 76147.72, 0.0000000006899253, 10.008027, 9.993045 
8.3545893e+2, 1.9646528e+2, -970360.6, -1076585.1, 47407.33, 0.0382873, 0.2803745, -952280.4, 62386.227, 0.000000000086334336, 10.006996, 9.992971 
8.353913e+2, 2.064576e+2, -894952.2, -1003592.6, 49233.777, 0.03081237, 0.2788996, -875960.4, 40781.535, 0.00000000000785028, 10.0060625, 9.99172 
8.353238e+2, 2.1644923e+2, -808835.7, -909774.0, 48533.45, 0.020468555, 0.2696678, -789286.06, 29537.785, 0.00000000000051866644, 10.005179, 9.991862 
8.352557e+2, 2.2644107e+2, -727341.0, -819846.75, 45571.203, 0.014983221, 0.26179418, -708662.6, 12241.033, 0.000000000000024898073, 10.004049, 9.991847 
8.351871e+2, 2.3643284e+2, -648816.4, -732267.06, 48085.305, 0.012149729, 0.25394735, -626876.94, -3892.725, 0.0, 10.002758, 9.991753 
8.351177e+2, 2.464241e+2, -572880.6, -658423.3, 42840.664, -0.006501442, 0.2685429, -555115.1, -30044.889, 0.0, 10.001827, 9.9905405 
8.3504754e+2, 2.5641492e+2, -485254.22, -564715.3, 39972.566, -0.033632588, 0.29679656, -468625.9, -41465.293, 0.0, 10.001081, 9.990606 
8.349762e+2, 2.6640522e+2, -408359.6, -479324.88, 28888.973, -0.022832695, 0.2738423, -398086.47, -68830.57, 0.0, 9.999726, 9.9903755 
8.349036e+2, 2.7639502e+2, -335402.3, -392984.13, 29703.2, 0.0089030685, 0.21558107, -322826.6, -91470.98, 0.0, 9.997989, 9.990408 
8.3482915e+2, 2.8638604e+2, -260967.84, -308674.16, 19643.637, -0.023654396, 0.2900208, -253920.42, -120477.32, 0.0, 9.996468, 9.990179 
8.34753e+2, 2.9637787e+2, -186930.08, -227296.28, 18452.92, -0.092453994, 0.45572874, -179766.02, -144243.11, 0.0, 9.995039, 9.989723 
8.346767e+2, 3.063643e+2, -142896.4, -149379.81, 4417.231, -0.021944761, 0.008124541, -140659.02, -140659.02, 0.0, 9.993348, 9.992492 
8.345975e+2, 3.1636065e+2, -105640.79, -26141.5, 7744.2803, -0.064727046, 0.34090474, -25394.13, -25394.13, 0.0, 9.991381, 10.001903 
8.4597003e+2, 1.2659203e+2, -1552742.4, -1700753.9, 15170.902, 0.12619092, 0.2558971, -1551203.4, 148222.52, 0.00000005667537, 10.013533, 9.993914 
8.458925e+2, 1.3658637e+2, -1465503.0, -1608499.3, 14233.293, 0.10481816, 0.29984266, -1464100.0, 137381.66, 0.000000036786826, 10.012823, 9.99388 
8.458177e+2, 1.4658007e+2, -1389139.1, -1526375.0, 33945.246, 0.09359137, 0.30575025, -1381201.9, 122341.7, 0.000000019841863, 10.011588, 9.993434 
8.4574515e+2, 1.5657336e+2, -1311906.1, -1437040.9, 38955.496, 0.0921325, 0.28974777, -1300770.0, 104839.44, 0.000000008431724, 10.01011, 9.993559 
8.456739e+2, 1.6656695e+2, -1229217.1, -1344673.5, 51169.03, 0.07653386, 0.28036743, -1209803.9, 97868.12, 0.0000000027043812, 10.008988, 9.99374 
8.456038e+2, 1.7656064e+2, -1144022.0, -1252462.0, 52034.777, 0.051579207, 0.274346, -1123092.6, 86641.14, 0.00000000063855143, 10.008096, 9.993781 
8.455345e+2, 1.8655422e+2, -1060790.4, -1167977.4, 56809.945, 0.03951857, 0.280958, -1036283.75, 75512.63, 0.00000000010989673, 10.007362, 9.993226 
8.454658e+2, 1.965476e+2, -972401.8, -1075141.9, 57105.664, 0.035526525, 0.2942558, -946960.75, 66900.48, 0.000000000013747503, 10.006726, 9.993183 
8.4539723e+2, 2.0654014e+2, -895526.4, -1000055.94, 60130.457, 0.031279452, 0.28907916, -868121.4, 47812.688, 0.0000000000012496037, 10.005832, 9.992052 
8.4532887e+2, 2.1653202e+2, -811735.94, -907437.56, 62685.47, 0.026392465, 0.2729827, -780725.06, 37288.24, 0.000000000000082530106, 10.004792, 9.992183 
8.452598e+2, 2.2652416e+2, -725413.4, -816698.9, 58878.973, 0.01662541, 0.26843846, -696557.8, 23532.553, 0.0000000000000039603136, 10.004059, 9.992032 
8.4519005e+2, 2.3651621e+2, -636739.06, -724482.25, 58137.47, 0.004528221, 0.2699324, -607777.4, 14390.866, 0.0, 10.003472, 9.99192 
8.451198e+2, 2.465075e+2, -564200.5, -654427.75, 53846.863, -0.010654477, 0.28271326, -539066.56, -14812.727, 0.0, 10.002402, 9.990513 
8.4504867e+2, 2.564982e+2, -485933.63, -565001.9, 55182.465, -0.027692702, 0.3025882, -457585.13, -31239.865, 0.0, 10.001004, 9.990594 
8.44976e+2, 2.6648855e+2, -404824.53, -476290.9, 44087.383, -0.018008476, 0.27913412, -383807.75, -55367.7, 0.0, 9.999881, 9.990474 
8.449021e+2, 2.764785e+2, -320779.0, -384736.06, 43913.293, 0.0071101612, 0.22519389, -298434.38, -67896.04, 0.0, 9.998906, 9.990498 
8.4482616e+2, 2.864695e+2, -242240.06, -301105.56, 34472.438, -0.03191445, 0.29848313, -226344.73, -93718.47, 0.0, 9.997779, 9.990031 
8.447487e+2, 2.9646114e+2, -165818.88, -219474.64, 34589.02, -0.108214326, 0.4592995, -148873.08, -114165.03, 0.0, 9.996551, 9.989494 
8.4467083e+2, 3.0644697e+2, -126804.2, -151256.28, 17483.803, -0.013156356, 0.015521263, -117695.78, -117695.78, 0.0, 9.994826, 9.991611 
8.445896e+2, 3.164426e+2, -83127.875, -11144.345, 17889.484, -0.065306365, 0.3531231, -6943.563, -6943.563, 0.0, 9.992706, 10.002256 
8.559836e+2, 1.266738e+2, -1556359.3, -1707816.0, 12286.635, 0.12949169, 0.29451677, -1555369.0, 143256.58, 0.000000007137847, 10.013518, 9.993435 
8.5590523e+2, 1.366674e+2, -1468332.3, -1611838.1, 11445.578, 0.091801114, 0.30874398, -1467425.1, 133263.7, 0.000000004633175, 10.012715, 9.993697 
8.558292e+2, 1.4666164e+2, -1381728.1, -1508749.3, 28806.79, 0.08417968, 0.3018757, -1375500.4, 127244.945, 0.0000000024990043, 10.011477, 9.994678 
8.5575527e+2, 1.5665613e+2, -1304771.6, -1421259.8, 33735.824, 0.096625715, 0.28379914, -1295706.9, 109092.15, 0.0000000010618183, 10.010056, 9.994651 
8.5568297e+2, 1.666505e+2, -1227764.3, -1341302.5, 47726.57, 0.08582135, 0.29030308, -1210367.6, 96486.47, 0.00000000034048644, 10.008968, 9.993974 
8.55612e+2, 1.7664465e+2, -1142549.9, -1249383.3, 48723.336, 0.06096871, 0.30896673, -1123666.5, 85245.125, 0.00000000008037033, 10.00809, 9.993988 
8.555418e+2, 1.8663825e+2, -1060553.8, -1167228.1, 54472.47, 0.040297687, 0.30345526, -1037653.8, 73320.414, 0.000000000013827629, 10.007349, 9.993279 
8.554723e+2, 1.9663133e+2, -971597.7, -1072784.8, 54669.83, 0.022992922, 0.28481653, -947703.0, 65338.355, 0.000000000001729205, 10.006694, 9.993355 
8.55403e+2, 2.0662439e+2, -890508.56, -989188.0, 56343.016, 0.024866719, 0.27897716, -864955.4, 50153.69, 0.0000000000001571108, 10.005805, 9.992801 
8.5533375e+2, 2.166172e+2, -807408.7, -898461.8, 59125.03, 0.036408167, 0.27996475, -778313.3, 38866.04, 0.0000000000000103708, 10.0047865, 9.992792 
8.552638e+2, 2.2660953e+2, -727002.2, -820062.44, 56729.555, 0.019224968, 0.28378057, -700161.4, 19093.19, 0.0000000000000004974632, 10.004062, 9.9917965 
8.5519344e+2, 2.3660138e+2, -637522.3, -726052.3, 55690.664, -0.0126815485, 0.28806338, -610647.75, 10687.041, 0.0, 10.003469, 9.99181 
8.551221e+2, 2.4659288e+2, -560386.1, -646424.9, 48614.273, -0.014495378, 0.29425266, -538490.06, -15071.83, 0.0, 10.002392, 9.9910555 
8.550499e+2, 2.5658402e+2, -482721.03, -558256.1, 50169.508, -0.0010891219, 0.30288193, -457692.34, -32187.213, 0.0, 10.000995, 9.99105 
8.54976e+2, 2.6657456e+2, -405012.1, -476628.78, 40430.473, -0.0093331365, 0.2814146, -386812.47, -59214.55, 0.0, 9.999877, 9.990444 
8.5490066e+2, 2.7656454e+2, -320595.7, -384430.84, 40182.746, -0.027813805, 0.23678486, -301196.75, -71501.02, 0.0, 9.998908, 9.99051 
8.548237e+2, 2.8655553e+2, -241598.34, -299996.28, 29918.482, -0.057736717, 0.3037175, -228991.86, -97208.17, 0.0, 9.997786, 9.990094 
8.547453e+2, 2.9654706e+2, -166161.33, -220431.2, 29791.24, -0.09660428, 0.44889316, -152999.58, -119133.234, 0.0, 9.996558, 9.989416 
8.5466594e+2, 3.0653247e+2, -134655.17, -167603.75, 9652.4795, 0.015931485, 0.027196798, -132035.67, -132035.67, 0.0, 9.9948225, 9.990478 
8.545819e+2, 3.1652713e+2, -82493.414, -9519.848, 8661.565, -0.10250251, 0.37052295, -8505.857, -8505.857, 0.0, 9.992683, 10.002362 
8.659962e+2, 1.2675607e+2, -1577190.5, -1709632.3, 13328.306, 0.12119416, 0.31657484, -1575862.5, 121958.05, 0.0000000007039517, 10.011716, 9.994179 
8.6591667e+2, 1.3675018e+2, -1499061.4, -1618661.0, 19404.752, 0.09542425, 0.30883503, -1495991.9, 103886.69, 0.00000000045696566, 10.010246, 9.99441 
8.6583954e+2, 1.4674504e+2, -1409826.0, -1516079.1, 37197.9, 0.08990217, 0.30339488, -1398098.0, 103830.78, 0.0000000002464687, 10.009265, 9.995233 
8.6576456e+2, 1.5674023e+2, -1322335.3, -1423952.0, 38275.79, 0.0994889, 0.29893795, -1309531.3, 94444.45, 0.000000000104710476, 10.008582, 9.99517 
8.656914e+2, 1.6673498e+2, -1240249.3, -1344475.6, 51976.65, 0.08492147, 0.30718338, -1218759.8, 87267.46, 0.00000000003356905, 10.007972, 9.994233 
8.656197e+2, 1.7672937e+2, -1150181.0, -1249636.8, 53111.324, 0.05617241, 0.32160524, -1127151.3, 80931.23, 0.0000000000079214005, 10.0074, 9.994296 
8.655488e+2, 1.8672337e+2, -1067831.0, -1164664.3, 60704.625, 0.038915746, 0.31339025, -1038599.5, 71541.36, 0.000000000001362367, 10.006566, 9.99382 
8.654786e+2, 1.96717e+2, -983352.0, -1072441.6, 64138.402, 0.02836325, 0.2926289, -949807.25, 62395.645, 0.00000000000017029635, 10.005607, 9.993887 
8.6540836e+2, 2.0671056e+2, -898560.2, -987218.0, 66270.03, 0.02798256, 0.28652757, -863159.75, 51105.8, 0.000000000000015465456, 10.004978, 9.993318 
8.653383e+2, 2.167039e+2, -807399.2, -892942.75, 67812.15, 0.032833934, 0.2887404, -769996.7, 46333.848, 0.0000000000000010203557, 10.004525, 9.99328 
8.652678e+2, 2.2669661e+2, -726539.5, -816730.5, 67489.625, 0.01768358, 0.29454783, -690465.7, 27936.377, 0.000000000000000048919577, 10.003935, 9.992067 
8.6519676e+2, 2.3668875e+2, -638013.7, -722795.75, 69910.16, -0.007815696, 0.30087298, -598646.4, 21833.19, 0.0, 10.003258, 9.992111 
8.651246e+2, 2.4668057e+2, -555529.6, -639946.1, 61767.69, -0.011734873, 0.30470517, -522926.2, -366.38428, 0.0, 10.002515, 9.991411 
8.650512e+2, 2.5667202e+2, -469770.16, -548165.0, 62242.496, -0.004533368, 0.3088791, -435411.03, -10767.493, 0.0, 10.001684, 9.991384 
8.6497617e+2, 2.666628e+2, -391947.5, -468436.16, 52933.605, -0.014677873, 0.29054794, -364887.97, -38154.223, 0.0, 10.000659, 9.990601 
8.648997e+2, 2.7665305e+2, -311190.16, -377646.44, 53893.145, -0.033273883, 0.2533038, -281104.94, -52275.547, 0.0, 9.999423, 9.990696 
8.648217e+2, 2.8664425e+2, -232700.47, -292359.03, 45220.637, -0.061757464, 0.31648326, -208356.95, -77441.62, 0.0, 9.998215, 9.990379 
8.6474216e+2, 2.9663593e+2, -155610.55, -214457.55, 46780.688, -0.09738352, 0.45101345, -129769.46, -96773.06, 0.0, 9.997205, 9.989479 
8.646619e+2, 3.0662063e+2, -118501.2, -178159.61, 24696.41, 0.03209391, 0.046837673, -109604.52, -109604.52, 0.0, 9.996676, 9.98883 
8.6457616e+2, 3.166137e+2, -27179.78, 18226.06, 18088.162, -0.12600172, 0.38134286, 24550.785, 24550.785, 0.0, 9.9963875, 10.002458 
8.760077e+2, 1.2683898e+2, -1567387.8, -1687053.9, 8312.895, 0.1052977, 0.3269758, -1566813.0, 130196.0, 0.000000000053497436, 10.011604, 9.995757 
8.759271e+2, 1.3683449e+2, -1490334.3, -1599388.5, 14259.422, 0.1110311, 0.30305618, -1488500.5, 110552.23, 0.000000000034731263, 10.010183, 9.995742 
8.7584895e+2, 1.4683008e+2, -1409788.9, -1515197.8, 34524.3, 0.10615886, 0.30946285, -1399487.9, 101608.25, 0.000000000018731868, 10.009228, 9.995306 
8.757732e+2, 1.5682557e+2, -1321968.5, -1422543.5, 35822.535, 0.100681, 0.3300687, -1310514.0, 92626.55, 0.00000000000795693, 10.008553, 9.9952755 
8.756993e+2, 1.6682045e+2, -1238634.4, -1340442.0, 50045.766, 0.07600611, 0.32875282, -1218153.5, 87037.32, 0.0000000000025503011, 10.007939, 9.994519 
8.75627e+2, 1.7681487e+2, -1147803.4, -1243912.0, 51005.934, 0.040273, 0.31647256, -1125780.5, 81465.1, 0.00000000000060161717, 10.007361, 9.9947 
8.755553e+2, 1.8680964e+2, -1061434.1, -1150906.3, 57273.2, 0.03622983, 0.3138519, -1033496.06, 75800.29, 0.00000000000010342613, 10.0065365, 9.994767 
8.7548435e+2, 1.9680443e+2, -977467.06, -1060203.8, 60862.848, 0.048594933, 0.31543183, -945244.44, 66102.57, 0.000000000000012921329, 10.005597, 9.99472 
8.7541354e+2, 2.0679854e+2, -895960.9, -982013.9, 64562.824, 0.038524892, 0.30891192, -861401.06, 52003.336, 0.0000000000000011728642, 10.004983, 9.993667 
8.753427e+2, 2.1679209e+2, -804289.6, -886730.2, 66036.08, 0.017261501, 0.29872003, -767664.7, 47802.496, 0.00000000000000007734498, 10.004533, 9.993698 
8.752717e+2, 2.267854e+2, -721216.0, -805733.4, 64961.37, 0.013123623, 0.30122298, -685977.75, 31555.28, 0.0000000000000000037059015, 10.003932, 9.992815 
8.7520033e+2, 2.3677829e+2, -633220.5, -712671.1, 67404.54, 0.017298363, 0.30906647, -594706.0, 24896.979, 0.0, 10.003245, 9.992805 
8.751272e+2, 2.4677056e+2, -554094.2, -636948.75, 58629.16, -0.003960378, 0.3144315, -523732.88, -2053.9507, 0.0, 10.002511, 9.9916115 
8.750526e+2, 2.567622e+2, -468001.7, -544668.8, 59130.06, -0.037886344, 0.32044965, -435866.63, -12106.049, 0.0, 10.001689, 9.991613 
8.749767e+2, 2.6675335e+2, -389366.06, -463171.72, 48299.727, -0.03298404, 0.30660298, -365485.0, -39637.496, 0.0, 10.000661, 9.99095 
8.748994e+2, 2.76744e+2, -308482.06, -372085.44, 48906.438, -0.007318562, 0.2750865, -281946.9, -54007.676, 0.0, 9.999424, 9.991065 
8.7482005e+2, 2.8673565e+2, -229000.38, -284584.0, 41368.066, -0.043428708, 0.33756068, -206955.44, -76934.6, 0.0, 9.998204, 9.99091 
8.7473917e+2, 2.967278e+2, -154149.95, -211259.03, 43494.742, -0.114219315, 0.46779558, -130674.17, -98576.7, 0.0, 9.997193, 9.9896965 
8.746586e+2, 3.0671152e+2, -133918.48, -210461.0, 23891.021, 0.032440767, 0.076660156, -127073.555, -127073.555, 0.0, 9.99669, 9.98661 
8.745727e+2, 3.167025e+2, -25492.734, 20721.473, 15091.226, -0.12086701, 0.40673313, 25212.98, 25212.98, 0.0, 9.996426, 10.002607 
8.860179e+2, 1.2692317e+2, -1602169.8, -1696078.6, 13433.672, 0.11109997, 0.32478783, -1600285.9, 95898.76, 0.0000000000031115464, 10.008876, 9.99645 
8.8593614e+2, 1.3691948e+2, -1515087.4, -1603962.5, 14770.878, 0.10717144, 0.31178284, -1512696.8, 85523.71, 0.0000000000020203344, 10.008157, 9.996407 
8.858573e+2, 1.469156e+2, -1430593.5, -1521058.8, 36116.316, 0.09981226, 0.3212097, -1417943.8, 82314.96, 0.0000000000010895873, 10.007613, 9.995687 
8.8578093e+2, 1.5691149e+2, -1339319.8, -1426252.9, 39268.65, 0.095255755, 0.34114859, -1324208.5, 78091.016, 0.0000000000004627473, 10.007152, 9.995694 
8.8570654e+2, 1.6690688e+2, -1253497.0, -1340477.4, 55499.94, 0.07693443, 0.3361647, -1226477.4, 77867.46, 0.00000000000014827314, 10.006601, 9.995152 
8.856337e+2, 1.7690186e+2, -1163306.1, -1244569.0, 58505.426, 0.050109558, 0.3187034, -1132706.9, 73686.8, 0.000000000000034964233, 10.005992, 9.995303 
8.8556135e+2, 1.8689722e+2, -1073991.9, -1151021.5, 63326.54, 0.04261404, 0.31752256, -1038387.56, 70051.445, 0.0000000000000060084816, 10.005404, 9.995293 
8.854896e+2, 1.9689256e+2, -984520.94, -1057599.5, 64652.54, 0.045728937, 0.32425103, -946796.7, 63687.508, 0.0000000000000007503389, 10.004839, 9.995255 
8.854182e+2, 2.0688732e+2, -899792.25, -976688.3, 69771.61, 0.035499718, 0.32163066, -858576.44, 53959.09, 0.0000000000000000680702, 10.004396, 9.994306 
8.85347e+2, 2.1688154e+2, -807333.8, -880878.06, 73004.73, 0.018208632, 0.31421834, -762363.1, 52228.71, 0.0000000000000000044860263, 10.00399, 9.994348 
8.8527524e+2, 2.2687553e+2, -725314.94, -798482.44, 71663.67, 0.014199262, 0.31281462, -681437.2, 35213.535, 0.00000000000000000021481201, 10.00323, 9.993636 
8.8520306e+2, 2.3686919e+2, -640864.5, -707113.2, 75135.45, 0.017077789, 0.31376782, -591875.75, 26837.42, 0.0, 10.002297, 9.993629 
8.851294e+2, 2.4686229e+2, -555814.9, -628555.7, 70621.38, -0.0035899119, 0.3218095, -512748.6, 8032.222, 0.0, 10.001966, 9.992433 
8.850544e+2, 2.5685486e+2, -458043.63, -530768.5, 75314.85, -0.036551815, 0.3351517, -410772.6, 12081.149, 0.0, 10.001941, 9.992421 
8.849773e+2, 2.6684663e+2, -386674.5, -455810.1, 62325.16, -0.031070475, 0.31691435, -349972.7, -25038.188, 0.0, 10.000533, 9.991481 
8.8489825e+2, 2.768377e+2, -321895.53, -371950.0, 64934.863, -0.0044661527, 0.27554166, -277331.8, -50309.973, 0.0, 9.998164, 9.99165 
8.8481855e+2, 2.8682956e+2, -222194.97, -285355.88, 64722.074, -0.042328186, 0.34583044, -181759.64, -52658.246, 0.0, 9.998805, 9.990555 
8.8473856e+2, 2.968215e+2, -93118.21, -188870.4, 59013.855, -0.11569219, 0.49424267, -65002.492, -33822.367, 0.0, 10.001654, 9.989075 
8.8465774e+2, 3.0680314e+2, -85561.68, -217679.14, 27816.963, 0.05016735, 0.07250994, -79943.78, -79943.78, 0.0, 10.001297, 9.98388 
8.8457054e+2, 3.1679174e+2, 13153.799, 39246.484, 14180.064, -0.11141863, 0.41373312, 45468.805, 45468.805, 0.0, 9.999084, 10.002575 
8.9602697e+2, 1.2700842e+2, -1602550.5, -1694967.5, 10705.925, 0.13073501, 0.31501684, -1601326.5, 94023.08, 0.00000000000011140596, 10.008791, 9.996562 
8.959442e+2, 1.3700514e+2, -1513924.0, -1600919.0, 12551.087, 0.08901442, 0.33086494, -1512149.5, 85232.336, 0.00000000000007234178, 10.008127, 9.996623 
8.9586467e+2, 1.4700168e+2, -1426529.4, -1512265.8, 34696.555, 0.077428795, 0.33633447, -1414247.5, 85168.5, 0.000000000000039009415, 10.007592, 9.996291 
8.95788e+2, 1.5699798e+2, -1334987.1, -1416717.6, 37688.383, 0.08529103, 0.33684915, -1320261.1, 81191.38, 0.000000000000016562538, 10.007123, 9.996353 
8.9571327e+2, 1.6699418e+2, -1247392.5, -1327208.6, 53287.42, 0.08574758, 0.33319083, -1220725.8, 82763.97, 0.0000000000000053049267, 10.006569, 9.996068 
8.9564e+2, 1.7699018e+2, -1158284.8, -1233548.0, 56159.41, 0.080099046, 0.32717973, -1128314.5, 77214.24, 0.0000000000000012503547, 10.0059595, 9.996065 
8.955668e+2, 1.8698592e+2, -1072695.8, -1147971.5, 61172.563, 0.055458836, 0.32355368, -1038509.56, 69060.63, 0.00000000000000021478846, 10.005385, 9.995506 
8.9549416e+2, 1.9698143e+2, -982267.75, -1052924.5, 62805.473, 0.023423005, 0.32124373, -945536.3, 64077.99, 0.000000000000000026813963, 10.004836, 9.995573 
8.954224e+2, 2.069769e+2, -893442.25, -963450.8, 68405.42, 0.021711871, 0.32651284, -851605.1, 60053.477, 0.0000000000000000024309943, 10.00439, 9.995208 
8.953511e+2, 2.1697219e+2, -801451.75, -868309.94, 71201.06, 0.0336591, 0.335004, -756222.75, 57481.957, 0.00000000000000000016007526, 10.003971, 9.995212 
8.952786e+2, 2.26967e+2, -718893.0, -785122.1, 68160.83, 0.01929735, 0.3287523, -676228.44, 39527.01, 0.000000000000000000007660548, 10.00322, 9.994548 
8.9520514e+2, 2.3696142e+2, -633692.3, -692758.44, 72260.51, -0.0068401294, 0.3149901, -585162.7, 32647.521, 0.0, 10.002314, 9.994597 
8.9513135e+2, 2.469558e+2, -545449.3, -607407.2, 70651.9, -0.0090387985, 0.32710558, -499283.03, 20582.324, 0.0, 10.001981, 9.993871 
8.950567e+2, 2.5694993e+2, -448323.56, -510553.66, 74466.36, -0.0006699703, 0.35332313, -398733.06, 23189.941, 0.0, 10.001937, 9.993804 
8.9497805e+2, 2.6694256e+2, -381626.3, -445200.22, 53247.31, -0.010013911, 0.3211766, -351399.66, -27404.88, 0.0, 10.000516, 9.992197 
8.9489615e+2, 2.7693412e+2, -316304.47, -360157.47, 57490.516, -0.027070679, 0.25338966, -276701.03, -50623.71, 0.0, 9.998148, 9.992449 
8.948172e+2, 2.8692597e+2, -230693.94, -303395.9, 75920.32, -0.059080716, 0.340382, -182870.77, -54713.773, 0.0, 9.998837, 9.989325 
8.9474046e+2, 2.9691705e+2, -102617.586, -209691.48, 67273.18, -0.09884478, 0.5295934, -70178.46, -39934.227, 0.0, 10.001711, 9.987637 
8.946594e+2, 3.068955e+2, -107760.664, -263415.75, 19093.21, 0.08854599, 0.02610195, -105452.84, -105452.84, 0.0, 10.001249, 9.980769 
8.9456964e+2, 3.168822e+2, 11480.529, 38829.746, 5416.9077, -0.09683933, 0.45640248, 39863.563, 39863.563, 0.0, 9.99892, 10.002619 
9.0603447e+2, 1.2709403e+2, -1635985.8, -1704320.8, 10816.706, 0.13381296, 0.32847413, -1634314.4, 60197.043, 0.000000000000003841555, 10.006211, 9.99718 
9.059514e+2, 1.3709132e+2, -1536139.3, -1605035.6, 15423.556, 0.0881862, 0.33891916, -1532844.1, 63694.08, 0.0000000000000024944868, 10.00632, 9.997213 
9.058715e+2, 1.4708833e+2, -1444875.1, -1515822.1, 37365.453, 0.076159924, 0.33983234, -1428826.4, 69741.3, 0.0000000000000013449747, 10.006106, 9.99676 
9.0579444e+2, 1.5708505e+2, -1352334.9, -1419512.4, 39568.633, 0.0855073, 0.33609194, -1334021.0, 66578.87, 0.00000000000000057093075, 10.0056925, 9.996849 
9.057191e+2, 1.6708188e+2, -1263041.6, -1327750.5, 53229.49, 0.08518692, 0.3379615, -1233104.9, 69526.1, 0.00000000000000018281752, 10.00519, 9.996694 
9.0564525e+2, 1.7707862e+2, -1173447.5, -1234073.9, 54570.945, 0.078041345, 0.34211946, -1141335.8, 63327.332, 0.00000000000000004307454, 10.004624, 9.996674 
9.0557164e+2, 1.87075e+2, -1085026.9, -1146694.6, 61338.926, 0.05474796, 0.33953357, -1047208.06, 59490.44, 0.000000000000000007396207, 10.004226, 9.99615 
9.0549856e+2, 1.9707109e+2, -991619.25, -1050188.8, 65682.24, 0.02496918, 0.3337991, -948989.1, 59747.586, 0.0000000000000000009228663, 10.003879, 9.996213 
9.0542626e+2, 2.0706728e+2, -903819.44, -958895.25, 71441.04, 0.023964066, 0.33648163, -854792.6, 55981.38, 0.000000000000000000083620735, 10.00326, 9.996055 
9.053544e+2, 2.170634e+2, -816805.75, -866194.6, 74034.08, 0.036040492, 0.34317705, -763456.25, 49355.72, 0.0000000000000000000055027003, 10.002501, 9.9960575 
9.052812e+2, 2.2705922e+2, -727295.8, -776759.94, 71912.93, 0.018610068, 0.3397882, -675980.9, 38871.992, 0.00000000000000000000026315398, 10.002097, 9.995651 
9.0520716e+2, 2.370548e+2, -632589.94, -679742.3, 77359.29, -0.012023161, 0.33088732, -575294.06, 41602.297, 0.0, 10.001837, 9.995705 
9.051327e+2, 2.4705046e+2, -551506.8, -592301.44, 76052.24, -0.009683836, 0.337847, -493164.1, 25774.6, 0.0, 10.000771, 9.995474 
9.050574e+2, 2.570461e+2, -475484.5, -505313.38, 81299.8, 0.0072474307, 0.35397613, -407742.44, 13239.116, 0.0, 9.999262, 9.995439 
9.049778e+2, 2.6704085e+2, -388367.94, -422307.25, 66423.914, -0.006626691, 0.33301133, -336780.28, -13747.574, 0.0, 9.998889, 9.994522 
9.0489477e+2, 2.7703494e+2, -284730.97, -319357.34, 82258.38, -0.03278265, 0.2876386, -217983.53, 7106.773, 0.0, 9.9991455, 9.9947195 
9.048122e+2, 2.870295e+2, -311920.34, -297726.66, 107414.445, -0.0652264, 0.33755052, -197174.88, -70031.61, 0.0, 9.9912, 9.993298 
9.1604066e+2, 1.2717994e+2, -1629469.5, -1690329.4, 11275.773, 0.12584881, 0.3566298, -1627447.5, 66223.31, 0.0, 10.006187, 9.998142 
9.1595775e+2, 1.3717788e+2, -1530800.1, -1592889.4, 15366.35, 0.09977374, 0.338973, -1527205.3, 68485.39, 0.0, 10.00627, 9.998062 
9.1587776e+2, 1.4717543e+2, -1442976.4, -1510505.0, 35608.094, 0.08979148, 0.3355064, -1427669.6, 70045.18, 0.0, 10.006043, 9.99715 
9.1580015e+2, 1.571726e+2, -1350433.9, -1414258.0, 37885.902, 0.092805974, 0.338412, -1332810.9, 66931.75, 0.0, 10.005632, 9.997233 
9.1572416e+2, 1.6716993e+2, -1260535.4, -1321861.9, 51065.863, 0.0768732, 0.34875166, -1231633.9, 70135.39, 0.0, 10.005156, 9.997108 
9.156496e+2, 1.7716716e+2, -1169834.3, -1226617.4, 52717.984, 0.05074275, 0.36204308, -1138348.8, 65447.832, 0.0, 10.0046215, 9.99718 
9.1557574e+2, 1.8716438e+2, -1077951.9, -1132021.8, 60061.94, 0.044007912, 0.3635972, -1039120.9, 66703.05, 0.0, 10.004222, 9.9971485 
9.155026e+2, 1.9716147e+2, -985398.8, -1036912.5, 64058.07, 0.04652545, 0.3594367, -942113.3, 65738.9, 0.0, 10.003859, 9.997125 
9.1542965e+2, 2.0715839e+2, -898097.75, -946916.75, 68471.055, 0.038976144, 0.35054365, -849815.4, 60067.008, 0.0, 10.003248, 9.996873 
9.153568e+2, 2.1715516e+2, -810572.9, -853649.1, 71542.5, 0.026602566, 0.3401705, -757396.75, 54517.11, 0.0, 10.002512, 9.996904 
9.1528326e+2, 2.2715215e+2, -717975.1, -757643.6, 70996.12, 0.013413582, 0.34697795, -664094.75, 49848.484, 0.0, 10.002106, 9.99695 
9.152091e+2, 2.3714925e+2, -623924.4, -661502.7, 75690.07, 0.00056298217, 0.3606094, -564726.2, 51245.684, 0.0, 10.001822, 9.996955 
9.151335e+2, 2.4714626e+2, -539010.4, -566260.7, 70318.21, -0.0067718104, 0.3530645, -481009.44, 36991.62, 0.0, 10.000754, 9.997252 
9.150564e+2, 2.5714338e+2, -461999.44, -477520.2, 76607.01, -0.014085251, 0.3373589, -392760.75, 27268.732, 0.0, 9.999261, 9.997332 
9.149765e+2, 2.671415e+2, -360452.0, -364685.22, 67789.05, -0.020860635, 0.35420388, -294746.53, 27301.588, 0.0, 9.998905, 9.99846 
9.1489404e+2, 2.771402e+2, -258404.7, -264919.34, 80819.836, -0.019422134, 0.38125512, -180776.58, 43283.97, 0.0, 9.999152, 9.998443 
9.148033e+2, 2.8714013e+2, -248140.06, -163956.66, 50824.01, -0.061207663, 0.3347587, -140057.52, -13996.549, 0.0, 9.99107, 10.002392 
9.260457e+2, 1.272653e+2, -1654826.1, -1696947.1, 9467.839, 0.11825498, 0.36095446, -1652795.9, 40039.45, 0.0, 10.004218, 9.998655 
9.2596304e+2, 1.3726391e+2, -1555119.5, -1598760.0, 10778.973, 0.10285211, 0.35728028, -1552602.3, 42246.55, 0.0, 10.004361, 9.998602 
9.258829e+2, 1.4726204e+2, -1465443.1, -1514991.5, 29305.375, 0.09342671, 0.35637045, -1451843.3, 45023.965, 0.0, 10.004239, 9.997727 
9.258049e+2, 1.5725978e+2, -1371627.5, -1418334.9, 32845.605, 0.092315525, 0.35699347, -1354679.5, 44210.082, 0.0, 10.003924, 9.997788 
9.257286e+2, 1.6725759e+2, -1276397.3, -1323144.6, 47082.2, 0.07392347, 0.36234453, -1247206.1, 53705.047, 0.0, 10.003804, 9.997676 
9.256537e+2, 1.7725536e+2, -1179210.0, -1224527.6, 49557.074, 0.04631386, 0.36971635, -1147377.3, 55556.145, 0.0, 10.003701, 9.9977665 
9.255795e+2, 1.8725327e+2, -1086806.3, -1127447.4, 55597.777, 0.043488912, 0.37208584, -1047931.9, 57022.047, 0.0, 10.00324, 9.997935 
9.2550594e+2, 1.9725119e+2, -998476.5, -1034725.25, 58352.094, 0.05224321, 0.37186995, -955498.8, 51475.375, 0.0, 10.002602, 9.997884 
9.2543244e+2, 2.072489e+2, -907361.3, -941873.5, 62374.07, 0.041870702, 0.36522618, -859900.4, 49096.105, 0.0, 10.002209, 9.997722 
9.2535895e+2, 2.1724653e+2, -813869.4, -845526.75, 65558.93, 0.022596147, 0.35585377, -762255.4, 48764.21, 0.0, 10.001872, 9.997768 
9.2528486e+2, 2.2724457e+2, -724388.56, -746832.8, 64231.832, 0.011262364, 0.3603798, -670405.9, 42632.85, 0.0, 10.001073, 9.998187 
9.2521006e+2, 2.3724286e+2, -641613.9, -656530.4, 68302.984, 0.0044973535, 0.3711777, -580363.1, 34692.453, 0.0, 10.000036, 9.9981575 
9.251336e+2, 2.4724129e+2, -547615.56, -552966.9, 60894.375, -0.0053719548, 0.3668351, -489338.13, 27733.02, 0.0, 9.999422, 9.998803 
9.250555e+2, 2.5724e+2, -455310.2, -456142.94, 65387.203, -0.020144418, 0.35517383, -390338.03, 28745.96, 0.0, 9.998951, 9.998944 
9.2497456e+2, 2.672402e+2, -364958.25, -337061.28, 50386.305, -0.02919323, 0.36898655, -298728.4, 22353.408, 0.0, 9.997344, 10.00111 
9.248911e+2, 2.772416e+2, -300098.3, -256308.44, 53355.605, -0.024250474, 0.39500874, -220530.08, 2538.4116, 0.0, 9.995114, 10.000992 
9.247979e+2, 2.8724432e+2, -129723.586, -74122.01, -15327.981, -0.054866333, 0.36171588, -70176.445, 54865.254, 0.0, 9.997918, 10.005278 
9.360499e+2, 1.2735021e+2, -1653901.1, -1694290.3, 10054.411, 0.11082033, 0.350239, -1651536.6, 40467.43, 0.0, 10.004185, 9.998853 
9.359674e+2, 1.3734946e+2, -1553657.5, -1594541.8, 11418.429, 0.09990741, 0.3884973, -1550684.6, 43327.39, 0.0, 10.004308, 9.998915 
9.358871e+2, 1.4734821e+2, -1460764.9, -1504824.9, 28260.492, 0.08982981, 0.39456606, -1446962.3, 49062.14, 0.0, 10.004213, 9.998429 
9.358088e+2, 1.5734656e+2, -1366513.5, -1408244.8, 32059.54, 0.08609728, 0.38700515, -1349127.5, 48913.09, 0.0, 10.003942, 9.998465 
9.357325e+2, 1.6734491e+2, -1271633.0, -1313059.1, 46715.72, 0.075391, 0.37756616, -1241244.4, 58812.406, 0.0, 10.003793, 9.998366 
9.3565756e+2, 1.7734317e+2, -1175501.9, -1215437.5, 48741.625, 0.059761524, 0.3676129, -1142796.5, 59277.082, 0.0, 10.003639, 9.998414 
9.3558276e+2, 1.8734168e+2, -1083052.8, -1118693.5, 53081.33, 0.050441347, 0.36819932, -1044880.3, 59207.977, 0.0, 10.003192, 9.99855 
9.3550843e+2, 1.9734026e+2, -994015.75, -1025445.1, 56261.336, 0.04453184, 0.37344187, -951315.6, 54786.492, 0.0, 10.002596, 9.998516 
9.354346e+2, 2.0733888e+2, -901208.8, -929131.3, 61122.527, 0.03496649, 0.38069037, -852473.3, 55642.48, 0.0, 10.002208, 9.998589 
9.3536085e+2, 2.1733755e+2, -807885.6, -832802.1, 63849.12, 0.023518521, 0.38781875, -755290.7, 54838.285, 0.0, 10.001856, 9.998642 
9.3528587e+2, 2.2733647e+2, -716275.4, -729874.1, 60265.996, 0.011436854, 0.3786275, -662426.44, 49713.035, 0.0, 10.00106, 9.999346 
9.352101e+2, 2.3733567e+2, -633394.44, -639714.25, 64919.137, -0.00030847653, 0.3641829, -571558.4, 42588.918, 0.0, 10.000041, 9.999298 
9.35133e+2, 2.4733552e+2, -538171.06, -533579.3, 59253.24, -0.0051791477, 0.38042954, -476577.5, 39571.4, 0.0, 9.999432, 10.00012 
9.350545e+2, 2.573359e+2, -445990.8, -436716.25, 62713.316, -0.010078215, 0.40630257, -378469.0, 39676.32, 0.0, 9.998945, 10.000271 
9.3497187e+2, 2.6733702e+2, -355454.63, -317098.84, 41727.137, -0.032095104, 0.37425476, -290353.5, 29780.74, 0.0, 9.99732, 10.002474 
9.348859e+2, 2.7733898e+2, -290274.1, -235760.05, 46806.33, -0.05153957, 0.32529327, -208852.72, 13261.827, 0.0, 9.995099, 10.002396 
9.34796e+2, 2.873422e+2, -152131.38, -121791.26, 11247.161, -0.04504934, 0.4279213, -118076.69, 6007.333, 0.0, 9.997994, 10.002022 
9.460532e+2, 1.2743475e+2, -1674368.4, -1699273.8, 5242.5825, 0.110456094, 0.36873585, -1673309.8, 17867.014, 0.0, 10.002584, 9.999302 
9.459709e+2, 1.374343e+2, -1574297.8, -1599599.5, 8162.611, 0.0993694, 0.39544305, -1571893.0, 21288.463, 0.0, 10.002697, 9.999361 
9.4589067e+2, 1.4743349e+2, -1475314.6, -1506650.6, 23757.813, 0.087211356, 0.39841744, -1462523.5, 32666.059, 0.0, 10.003011, 9.998891 
9.4581234e+2, 1.5743232e+2, -1373576.4, -1406318.3, 25854.912, 0.08131095, 0.39128932, -1359345.3, 37855.79, 0.0, 10.003243, 9.9989395 
9.457357e+2, 1.6743122e+2, -1282960.3, -1312036.3, 37891.844, 0.07444447, 0.3849871, -1256913.3, 42298.52, 0.0, 10.002752, 9.998943 
9.4566035e+2, 1.774301e+2, -1196791.3, -1219436.9, 39597.633, 0.0646851, 0.37894678, -1166929.4, 34293.25, 0.0, 10.001927, 9.998976 
9.4558525e+2, 1.874292e+2, -1099719.0, -1119918.1, 44433.598, 0.052815676, 0.38032985, -1064251.6, 38979.938, 0.0, 10.001776, 9.999159 
9.455106e+2, 1.9742839e+2, -1000619.2, -1021640.75, 47412.305, 0.041147478, 0.3849724, -962566.56, 42673.004, 0.0, 10.00186, 9.999137 
9.454364e+2, 2.0742771e+2, -906250.94, -922597.1, 51083.234, 0.03418093, 0.3905063, -862691.06, 44555.3, 0.0, 10.001491, 9.999386 
9.4536227e+2, 2.1742715e+2, -816495.56, -828065.44, 53103.35, 0.028550662, 0.39599285, -768863.0, 40388.906, 0.0, 10.000898, 9.9994335 
9.452867e+2, 2.2742693e+2, -718962.5, -721203.75, 47373.83, 0.014232243, 0.38857794, -672696.06, 38557.98, 0.0, 10.000463, 10.000233 
9.452101e+2, 2.3742703e+2, -627036.0, -626501.6, 50153.137, -0.002826188, 0.37658557, -576614.94, 36637.953, 0.0, 10.00006, 10.0002 
9.4513243e+2, 2.4742784e+2, -532547.1, -519470.16, 42536.54, -0.0036597827, 0.39157087, -482972.5, 32272.686, 0.0, 9.999353, 10.001133 
9.4505334e+2, 2.5742924e+2, -446186.38, -426013.38, 43134.074, -0.0010867673, 0.41573688, -391802.2, 25429.744, 0.0, 9.998504, 10.001226 
9.449697e+2, 2.6743093e+2, -336846.25, -304691.16, 16453.393, -0.037064455, 0.383295, -297764.3, 21450.547, 0.0, 9.998495, 10.002777 
9.448828e+2, 2.774332e+2, -229161.25, -202717.36, 14473.96, -0.077892944, 0.33277422, -196335.34, 24856.871, 0.0, 9.999196, 10.002718 
9.447954e+2, 2.8743586e+2, -126536.72, -126649.55, 450.19333, -0.02670417, 0.43730286, -126139.42, -2972.266, 0.0, 10.000554, 10.000533 
9.560558e+2, 1.2751877e+2, -1671511.5, -1691169.1, 5723.5503, 0.11474049, 0.40582436, -1669966.5, 20388.004, 0.0, 10.002486, 9.999902 
9.559736e+2, 1.3751847e+2, -1570590.5, -1592012.6, 9161.8545, 0.100194104, 0.38537875, -1567206.8, 25150.72, 0.0, 10.002698, 9.999878 
9.558937e+2, 1.4751792e+2, -1473384.5, -1502419.1, 24713.262, 0.08518438, 0.37862778, -1459240.0, 35122.684, 0.0, 10.003001, 9.999185 
9.5581555e+2, 1.5751709e+2, -1372138.0, -1401971.0, 25965.125, 0.07765952, 0.37749752, -1357109.8, 39260.918, 0.0, 10.003183, 9.999264 
9.557384e+2, 1.6751657e+2, -1279897.5, -1305034.1, 34626.55, 0.071540326, 0.38737324, -1255628.9, 42747.023, 0.0, 10.002717, 9.9994335 
9.5566225e+2, 1.7751615e+2, -1192885.9, -1211978.9, 37287.33, 0.06283527, 0.40123063, -1163942.4, 36437.96, 0.0, 10.001949, 9.999471 
9.55587e+2, 1.8751581e+2, -1095227.1, -1111046.4, 44714.895, 0.051744845, 0.40525627, -1057727.6, 44656.01, 0.0, 10.001796, 9.999754 
9.5551246e+2, 1.9751556e+2, -996567.7, -1012892.75, 47185.035, 0.041342936, 0.40472814, -956844.4, 47541.88, 0.0, 10.001844, 9.99974 
9.554379e+2, 2.0751537e+2, -901473.3, -912248.56, 48755.35, 0.038333893, 0.39544365, -857808.8, 48579.113, 0.0, 10.001468, 10.0001 
9.553632e+2, 2.1751536e+2, -811710.5, -817925.25, 51046.66, 0.03694942, 0.38367352, -763676.7, 44711.254, 0.0, 10.000886, 10.000128 
9.5528716e+2, 2.2751595e+2, -714630.4, -712067.3, 45846.176, 0.01930222, 0.39186853, -667484.75, 42897.49, 0.0, 10.000456, 10.000856 
9.5521015e+2, 2.3751695e+2, -622425.94, -616688.5, 48321.543, -0.0032661306, 0.40657905, -571150.6, 41221.938, 0.0, 10.000049, 10.000873 
9.5513177e+2, 2.4751824e+2, -527823.9, -509437.38, 39319.617, -0.001073683, 0.399125, -478250.6, 36109.457, 0.0, 9.999339, 10.001821 
9.550519e+2, 2.575199e+2, -442197.0, -417664.97, 40163.25, 0.006178035, 0.38500834, -387936.44, 28407.256, 0.0, 9.998497, 10.001796 
9.5496815e+2, 2.6752195e+2, -342238.6, -315877.03, 19164.904, -0.044278864, 0.39933723, -305797.84, 12525.685, 0.0, 9.998496, 10.002016 
9.548818e+2, 2.7752417e+2, -234542.81, -214123.11, 16999.906, -0.10259951, 0.420155, -204502.73, 15798.804, 0.0, 9.999206, 10.001938 
9.5479625e+2, 2.8752506e+2, -124840.19, -123272.46, 8200.003, -0.00023238553, 0.3765734, -115818.94, 6473.916, 0.0, 10.000563, 10.000777 
9.660576e+2, 1.2760161e+2, -1691179.8, -1696898.4, 1837.1058, 0.121679224, 0.40630394, -1690640.5, -1097.0653, 0.0, 10.000998, 10.00025 
9.659759e+2, 1.3760172e+2, -1578183.5, -1592280.9, 3389.9128, 0.089278385, 0.39256114, -1577410.8, 14131.65, 0.0, 10.002049, 10.00019 
9.658962e+2, 1.4760146e+2, -1483888.5, -1504752.5, 15491.237, 0.07983448, 0.38926968, -1475644.3, 17900.635, 0.0, 10.002185, 9.999432 
9.658181e+2, 1.5760091e+2, -1390683.3, -1408197.5, 16313.428, 0.08625891, 0.3902659, -1380925.1, 14625.184, 0.0, 10.001819, 9.999513 
9.657407e+2, 1.6760063e+2, -1292012.5, -1307325.8, 23202.834, 0.07486186, 0.3967758, -1275235.6, 22317.47, 0.0, 10.001755, 9.999753 
9.656641e+2, 1.7760049e+2, -1193397.8, -1208252.5, 25006.896, 0.054327596, 0.40557075, -1174738.5, 24816.293, 0.0, 10.001763, 9.999825 
9.655887e+2, 1.8760058e+2, -1095979.9, -1105529.9, 32124.217, 0.047719844, 0.40727824, -1068277.8, 33276.234, 0.0, 10.001512, 10.000278 
9.6551406e+2, 1.9760084e+2, -1003676.25, -1010360.8, 33868.07, 0.047446534, 0.40581292, -972986.0, 30565.396, 0.0, 10.001123, 10.000274 
9.654391e+2, 2.0760128e+2, -907244.2, -908078.94, 33951.992, 0.041290175, 0.39942446, -873707.0, 31840.04, 0.0, 10.000794, 10.000721 
9.6536386e+2, 2.1760191e+2, -813703.25, -812041.6, 35715.063, 0.032146245, 0.3914284, -777147.75, 30392.928, 0.0, 10.000479, 10.000739 
9.6528745e+2, 2.2760308e+2, -714592.6, -705744.06, 30187.377, 0.016559187, 0.39838052, -679658.44, 29870.861, 0.0, 10.000214, 10.001418 
9.6521014e+2, 2.3760462e+2, -620191.2, -609041.75, 31647.283, -0.00038789702, 0.41043383, -582481.94, 29032.348, 0.0, 9.999947, 10.001458 
9.651312e+2, 2.4760638e+2, -522464.63, -502244.75, 20405.656, 0.00022695064, 0.40143546, -489581.88, 23915.004, 0.0, 9.999538, 10.002231 
9.650507e+2, 2.5760847e+2, -430090.56, -407712.34, 19874.713, 0.0031417313, 0.38576773, -396093.56, 19383.012, 0.0, 9.999184, 10.002164 
9.649673e+2, 2.676106e+2, -325383.2, -310546.84, 5603.136, -0.046439532, 0.40579548, -308668.56, 8786.735, 0.0, 9.999809, 10.001775 
9.6488184e+2, 2.7761263e+2, -212527.39, -206921.23, 5835.1714, -0.10133527, 0.43423072, -203250.8, 16184.194, 0.0, 10.000896, 10.001635 
9.6479684e+2, 2.87613e+2, -126903.305, -124675.77, -1843.0519, 0.0060294424, 0.35666016, -123636.09, -2205.0645, 0.0, 10.000462, 10.000753 
9.760587e+2, 1.2768333e+2, -1691266.5, -1695309.1, 5800.5723, 0.1297887, 0.38268414, -1687145.1, 1598.0276, 0.0, 10.000926, 10.0004 
9.759777e+2, 1.37684e+2, -1577672.6, -1590475.9, 6511.023, 0.07031417, 0.41116282, -1574943.3, 15793.648, 0.0, 10.00202, 10.000332 
9.758983e+2, 1.4768404e+2, -1482779.6, -1501928.9, 14098.895, 0.07248281, 0.42008445, -1475311.6, 17425.201, 0.0, 10.002157, 9.999636 
9.7582006e+2, 1.576837e+2, -1389670.8, -1405696.5, 15494.712, 0.10363808, 0.4209182, -1380239.6, 14500.819, 0.0, 10.001798, 9.999692 
9.757425e+2, 1.6768341e+2, -1290930.5, -1304859.6, 23398.063, 0.08238491, 0.40976477, -1273482.5, 23260.766, 0.0, 10.001745, 9.999925 
9.756656e+2, 1.776832e+2, -1191896.9, -1204967.5, 24949.895, 0.04046072, 0.3945926, -1172640.6, 26104.688, 0.0, 10.001756, 10.0000515 
9.755901e+2, 1.876836e+2, -1092884.8, -1098984.6, 30705.145, 0.041454412, 0.39022213, -1065078.5, 35662.92, 0.0, 10.001503, 10.000727 
9.7551525e+2, 1.9768433e+2, -1000461.3, -1003645.8, 32458.338, 0.058372807, 0.39081857, -969556.25, 33178.008, 0.0, 10.001118, 10.000732 
9.754399e+2, 2.0768543e+2, -903617.5, -900357.75, 32671.209, 0.04304999, 0.40214708, -869275.75, 35447.63, 0.0, 10.000784, 10.001251 
9.7536415e+2, 2.1768682e+2, -810259.1, -804459.9, 34557.445, 0.015861332, 0.41617838, -772680.6, 34029.16, 0.0, 10.000458, 10.001265 
9.752876e+2, 2.2768831e+2, -711473.94, -698909.6, 29181.686, 0.00707914, 0.40683427, -675341.56, 33353.45, 0.0, 10.000197, 10.001892 
9.7521013e+2, 2.3769005e+2, -616991.0, -602224.3, 30239.43, 0.0053901975, 0.39028183, -578479.9, 32197.953, 0.0, 9.999937, 10.001926 
9.751308e+2, 2.476923e+2, -521518.9, -500155.78, 18893.582, -0.00019695237, 0.39969933, -489133.38, 23522.238, 0.0, 9.99953, 10.002377 
9.7504973e+2, 2.576948e+2, -428874.84, -405096.22, 19404.951, -0.010144959, 0.41648155, -394227.94, 20402.69, 0.0, 9.999179, 10.002345 
9.749671e+2, 2.6769683e+2, -323489.6, -306699.28, 10103.721, -0.042528708, 0.3996724, -301958.1, 14652.288, 0.0, 9.999819, 10.002042 
9.748831e+2, 2.776986e+2, -211157.95, -204172.4, 7546.7593, -0.07254899, 0.37279445, -199349.34, 19243.29, 0.0, 10.000899, 10.001826 
9.7479707e+2, 2.876998e+2, -129506.18, -129278.22, -5098.7295, -0.013072341, 0.387388, -124292.195, -3711.538, 0.0, 10.000408, 10.000464 
9.860592e+2, 1.2776461e+2, -1700059.4, -1697238.6, 4768.396, 0.12226154, 0.3970392, -1693676.4, -5728.4663, 0.0, 10.000245, 10.000614 
9.8597956e+2, 1.3776545e+2, -1583897.6, -1591590.3, 4422.521, 0.07724726, 0.42121944, -1581882.9, 8057.0757, 0.0, 10.001529, 10.000507 
9.859003e+2, 1.4776564e+2, -1488977.9, -1504398.5, 6492.554, 0.07721605, 0.43382668, -1486608.4, 5329.9077, 0.0, 10.001722, 9.999684 
9.8582166e+2, 1.5776542e+2, -1394951.1, -1407842.4, 7202.0503, 0.100218646, 0.44165686, -1391731.6, 2209.0774, 0.0, 10.001435, 9.999729 
9.8574406e+2, 1.6776526e+2, -1295353.1, -1306285.3, 14927.195, 0.083249815, 0.43963534, -1284922.6, 11019.517, 0.0, 10.001433, 9.999988 
9.8566735e+2, 1.7776519e+2, -1196541.1, -1207170.8, 15147.638, 0.04955864, 0.43356562, -1185803.0, 12139.87, 0.0, 10.00146, 10.000052 
9.8559153e+2, 1.8776563e+2, -1097071.3, -1100908.4, 17185.7, 0.048450787, 0.43519768, -1081697.4, 18241.303, 0.0, 10.001237, 10.000734 
9.8551625e+2, 1.9776642e+2, -1003388.9, -1003901.5, 16041.421, 0.059995364, 0.4393968, -987601.75, 14329.32, 0.0, 10.000894, 10.000837 
9.8544055e+2, 2.0776777e+2, -905015.44, -895192.0, 14984.142, 0.046591952, 0.44210294, -884335.1, 19582.387, 0.0, 10.000463, 10.001776 
9.8536444e+2, 2.1776958e+2, -813523.56, -799907.3, 17058.611, 0.023345053, 0.4440087, -788348.44, 17551.256, 0.0, 9.999996, 10.001816 
9.8528767e+2, 2.2777167e+2, -712781.8, -692197.25, 13279.428, 0.0130842235, 0.43216708, -685688.5, 22190.607, 0.0, 9.999819, 10.00255 
9.8521e+2, 2.3777404e+2, -615437.6, -594463.6, 15388.814, 0.008005776, 0.41558266, -586328.25, 23527.324, 0.0, 9.999767, 10.002553 
9.8513037e+2, 2.4777673e+2, -516554.66, -493391.84, 5605.531, -0.0043581557, 0.41908404, -492106.6, 19722.334, 0.0, 9.999703, 10.002769 
9.8504907e+2, 2.577796e+2, -418570.25, -395271.72, 8118.837, -0.020635406, 0.4286174, -392721.66, 21078.963, 0.0, 9.999696, 10.00278 
9.8496693e+2, 2.6778197e+2, -326369.6, -304058.94, 2355.5833, -0.02755029, 0.40666226, -303812.94, 11963.807, 0.0, 9.999469, 10.002406 
9.848836e+2, 2.7778405e+2, -231620.84, -209929.48, 449.19492, -0.026667416, 0.37634888, -209920.19, 7835.5864, 0.0, 9.999337, 10.002197 
9.847975e+2, 2.8778574e+2, -117099.71, -120865.32, -7593.546, -0.047498528, 0.40727073, -111159.03, 8580.208, 0.0, 10.001171, 10.000687 
9.9605954e+2, 1.2784573e+2, -1694583.9, -1692103.3, -2252.901, 0.12583552, 0.48009795, -1690771.8, -3616.7385, 0.0, 10.000525, 10.000854 
9.959813e+2, 1.3784626e+2, -1579294.5, -1587643.4, -3460.529, 0.096653536, 0.45056096, -1578046.6, 11102.784, 0.0, 10.0017805, 10.000677 
9.95902e+2, 1.4784616e+2, -1487151.8, -1504986.0, -5718.667, 0.077671394, 0.43313912, -1485475.6, 5674.7075, 0.0, 10.001916, 9.999568 
9.958228e+2, 1.5784566e+2, -1393950.6, -1408789.9, -3911.1096, 0.07021355, 0.42658547, -1392982.9, 172.02077, 0.0, 10.001572, 9.999616 
9.957454e+2, 1.678455e+2, -1293962.6, -1306372.9, 5178.1196, 0.070587054, 0.43146282, -1292085.9, 3070.6729, 0.0, 10.001569, 9.999931 
9.95669e+2, 1.7784555e+2, -1195970.4, -1209367.8, 5815.8833, 0.0690311, 0.44509774, -1193798.0, 3358.409, 0.0, 10.001613, 9.999844 
9.9559283e+2, 1.8784574e+2, -1097400.1, -1105155.1, 7695.295, 0.056184918, 0.4557237, -1092660.6, 6494.252, 0.0, 10.001396, 10.000379 
9.9551696e+2, 1.9784625e+2, -1002563.7, -1005781.56, 7470.2554, 0.042942684, 0.4660714, -996531.06, 4619.08, 0.0, 10.001053, 10.000642 
9.954409e+2, 2.0784761e+2, -898860.3, -886476.2, 7009.581, 0.042015318, 0.4451195, -883315.4, 19821.033, 0.0, 10.000637, 10.002294 
9.953646e+2, 2.1784964e+2, -806728.6, -790260.2, 10450.375, 0.043031767, 0.4173249, -785189.75, 19926.09, 0.0, 10.000189, 10.002388 
9.952876e+2, 2.278527e+2, -703730.44, -678331.94, 8944.742, 0.026159588, 0.4313471, -675498.0, 31587.64, 0.0, 10.000031, 10.003402 
9.9520975e+2, 2.3785636e+2, -606773.75, -581368.0, 11848.76, 0.003442724, 0.4567061, -576699.75, 32350.31, 0.0, 9.999978, 10.003351 
9.9512994e+2, 2.4785958e+2, -509301.78, -483013.9, 3496.36, -0.014513134, 0.44509247, -482556.84, 28461.105, 0.0, 9.999904, 10.003388 
9.950487e+2, 2.5786275e+2, -411938.3, -384603.97, 6492.0244, -0.029959181, 0.41969162, -383140.44, 29846.201, 0.0, 9.999826, 10.003451 
9.949666e+2, 2.67866e+2, -322796.3, -297129.34, 1164.8329, -0.002711462, 0.42871776, -297076.6, 17877.62, 0.0, 9.999487, 10.002872 
9.9488354e+2, 2.7786905e+2, -227681.92, -201694.5, 2039.2012, 0.035138585, 0.44708002, -201535.47, 15388.631, 0.0, 9.999337, 10.002766 
9.947982e+2, 2.8787076e+2, -111353.96, -109931.62, 2866.7202, -0.09812402, 0.4125335, -107689.17, 11217.719, 0.0, 10.001233, 10.001422 
