coord_x,coord_y,stress_xx,stress_yy,tau_xy,velocity_x,velocity_y,stress_1,eps,damage,lx,ly
4.9973044e+0, 1.2407156e+2, -1776688.9, -1718103.5, -537.39215, -0.0017569159, 0.02367815, -1718098.6, 5999.087, 0.0, 9.994643, 10.002401 
4.997638e+0, 1.3407159e+2, -1684015.0, -1644868.5, -1658.5895, 0.0016479591, -0.024367522, -1644798.4, -18701.83, 0.0, 9.995242, 10.000425 
4.9980798e+0, 1.4407097e+2, -1585134.0, -1564860.6, -798.8211, 0.0030304198, -0.048497032, -1564829.1, -36726.938, 0.0, 9.9960985, 9.998781 
4.9987102e+0, 1.5406989e+2, -1469204.8, -1458621.4, 245.33342, 0.0042100344, -0.032971453, -1458615.8, -28502.566, 0.0, 9.997335, 9.998736 
4.9992138e+0, 1.640679e+2, -1367387.1, -1377298.4, -671.7706, 0.0014819829, -0.022712544, -1367341.9, -35209.234, 0.0, 9.998397, 9.997083 
4.999538e+0, 1.74065e+2, -1257560.3, -1273832.6, -2527.3672, -0.006848272, -0.020305824, -1257176.8, -23015.83, 0.0, 9.999212, 9.997056 
4.999948e+0, 1.840607e+2, -1167030.1, -1210670.0, -3514.2568, -0.0078471145, -0.022499701, -1166749.0, -30546.047, 0.0, 10.000052, 9.994273 
5.000485e+0, 1.9405474e+2, -1057083.4, -1108484.1, -3639.852, 0.0017631364, -0.034127735, -1056827.0, -18565.525, 0.0, 10.000934, 9.994127 
5.001038e+0, 2.0404786e+2, -959097.94, -1034376.8, -2495.341, 0.005567743, -0.031428855, -959015.3, -18686.383, 0.0, 10.001964, 9.991997 
5.0016135e+0, 2.1404e+2, -843409.2, -928683.06, -992.6165, 0.00097512436, -0.010299194, -843397.6, -991.2341, 0.0, 10.003207, 9.991915 
5.002105e+0, 2.2403097e+2, -745662.1, -854587.2, -1147.3317, -0.00024248246, -0.0017615795, -745650.0, -1155.0526, 0.0, 10.004214, 9.989794 
5.002474e+0, 2.3402058e+2, -638466.4, -752998.75, -1325.3883, 0.0034998166, -0.014508346, -638451.06, 8145.6113, 0.0, 10.004878, 9.989714 
5.0028706e+0, 2.4400914e+2, -544728.6, -682323.06, -528.7376, 0.003326673, -0.021270657, -544726.56, 3981.9949, 0.0, 10.005674, 9.98746 
5.003307e+0, 2.539965e+2, -432893.3, -578639.94, 187.29999, -0.0024663291, -0.021835564, -432893.06, 17939.24, 0.0, 10.006662, 9.987367 
5.003795e+0, 2.63983e+2, -332216.47, -498514.2, -159.06752, -0.0039650416, -0.024479222, -332216.34, 20748.164, 0.0, 10.007669, 9.985655 
5.0043577e+0, 2.7396855e+2, -219306.25, -393501.44, -2223.1611, 0.0008765073, -0.03435691, -219277.89, 35827.887, 0.0, 10.008698, 9.985635 
5.00484e+0, 2.8395268e+2, -129545.13, -334443.94, -3224.3232, 0.0021964824, -0.03360975, -129494.41, 27766.59, 0.0, 10.009635, 9.982516 
5.005195e+0, 2.939352e+2, -21102.428, -233179.58, -1740.4309, -0.0017963754, -0.020787198, -21088.146, 38344.906, 0.0, 10.010426, 9.982354 
5.005629e+0, 3.0392107e+2, 89407.05, -76547.3, -1989.6803, -0.002091402, -0.009818373, 89430.9, 89430.9, 0.0, 10.011299, 9.989307 
5.006177e+0, 3.1391057e+2, 104820.2, -67464.516, -5849.545, 0.0031681177, -0.0049656993, 105018.586, 105018.586, 0.0, 10.012289, 9.989454 
1.4991912e+1, 1.24070495e+2, -1778581.1, -1721979.8, 1842.8119, -0.005505062, -0.03805316, -1721919.8, 2187.243, 0.0, 9.994643, 10.002137 
1.4992914e+1, 1.3407095e+2, -1686014.0, -1648973.9, 605.03143, 0.004853187, -0.014892956, -1648964.0, -22861.217, 0.0, 9.995242, 10.000146 
1.4994238e+1, 1.4407057e+2, -1583701.6, -1561911.5, 3632.806, 0.009060833, -0.008202265, -1561321.9, -33215.184, 0.0, 9.9960985, 9.998982 
1.4996131e+1, 1.540695e+2, -1467440.3, -1454987.3, 4936.3813, 0.012637609, -0.014467894, -1453267.9, -23150.895, 0.0, 9.997335, 9.998983 
1.499764e+1, 1.6406737e+2, -1370283.3, -1383255.6, 2539.1863, 0.0043942006, -0.016257258, -1369803.9, -37665.906, 0.0, 9.998397, 9.996678 
1.4998613e+1, 1.7406401e+2, -1260953.8, -1280817.3, 559.4066, -0.02058721, -0.011075861, -1260938.0, -26767.02, 0.0, 9.999212, 9.99658 
1.4999844e+1, 1.8405944e+2, -1167559.3, -1211739.6, -219.50597, -0.023539307, -0.011001265, -1167558.1, -31342.428, 0.0, 10.0000515, 9.994201 
1.5001455e+1, 1.9405347e+2, -1057329.6, -1108974.9, -298.82428, 0.0052561774, -0.02022258, -1057327.9, -19053.672, 0.0, 10.000934, 9.994094 
1.5003113e+1, 2.0404667e+2, -956648.8, -1029300.44, 2067.0676, 0.01666789, -0.023734923, -956590.06, -16249.284, 0.0, 10.001963, 9.992343 
1.500484e+1, 2.14039e+2, -840695.1, -923062.4, 3716.4897, 0.0029088482, -0.020239301, -840527.75, 1887.9733, 0.0, 10.003206, 9.992298 
1.5006316e+1, 2.2403014e+2, -745509.1, -854236.6, 1557.1727, -0.00076020183, -0.01954604, -745486.9, -984.1362, 0.0, 10.004213, 9.989819 
1.5007423e+1, 2.3401979e+2, -638610.44, -753272.1, 1176.0227, 0.0104431715, -0.024503058, -638598.4, 8005.6587, 0.0, 10.004877, 9.9896965 
1.5008612e+1, 2.4400848e+2, -543610.3, -679986.2, 3081.3923, 0.009981488, -0.025092766, -543540.75, 5174.173, 0.0, 10.005673, 9.98762 
1.5009919e+1, 2.5399607e+2, -431650.66, -576040.06, 3933.4194, -0.0074023157, -0.020815117, -431543.6, 19292.918, 0.0, 10.00666, 9.987546 
1.5011387e+1, 2.639825e+2, -335541.22, -505388.5, 3714.9402, -0.011944782, -0.016870152, -335460.0, 17509.303, 0.0, 10.0076685, 9.985187 
1.5013073e+1, 2.7396765e+2, -223185.94, -401535.88, 1671.543, 0.0026050194, -0.015492134, -223170.28, 31944.98, 0.0, 10.0086975, 9.9850855 
1.5014519e+1, 2.8395164e+2, -127330.05, -329798.16, -142.62674, 0.0065719467, -0.015445762, -127329.945, 29942.13, 0.0, 10.009633, 9.982836 
1.5015584e+1, 2.9393435e+2, -18197.068, -227117.58, 1248.8312, -0.005366327, -0.019402796, -18189.604, 41251.5, 0.0, 10.010425, 9.98277 
1.5016888e+1, 3.039199e+2, 83271.37, -89304.07, 1683.7474, -0.0063048806, -0.025086293, 83287.79, 83287.79, 0.0, 10.011299, 9.988433 
1.5018532e+1, 3.1390822e+2, 97534.59, -82566.37, -2089.272, 0.009453899, -0.03575325, 97558.83, 97558.83, 0.0, 10.012287, 9.98842 
2.4986406e+1, 1.2406867e+2, -1785229.1, -1727024.8, -2697.203, -0.0016760578, -0.058359094, -1726900.0, -2775.6543, 0.0, 9.994269, 10.001977 
2.4988475e+1, 1.3406922e+2, -1677309.5, -1646628.1, -3150.859, 0.0032552476, -0.009529169, -1646307.9, -20188.104, 0.0, 9.995914, 9.999977 
2.4990696e+1, 1.4406887e+2, -1571017.9, -1555437.8, -1695.8993, 0.0026660399, 0.006910752, -1555255.3, -27131.615, 0.0, 9.996947, 9.999008 
2.4993306e+1, 1.5406772e+2, -1470319.0, -1455854.8, -2039.5421, 0.0077846358, -0.011093018, -1455572.8, -25438.156, 0.0, 9.997117, 9.99903 
2.4995726e+1, 1.6406547e+2, -1380658.4, -1390309.6, -3142.5032, 0.0042899833, -0.019352209, -1379725.4, -47568.652, 0.0, 9.997778, 9.996499 
2.499789e+1, 1.7406191e+2, -1263219.5, -1284182.9, -2932.8645, -0.0113211945, -0.013072044, -1262816.9, -28625.256, 0.0, 9.999156, 9.996378 
2.5000164e+1, 1.840573e+2, -1162119.5, -1208403.5, -2591.2156, -0.013547473, -0.009691244, -1161974.9, -25737.95, 0.0, 10.000392, 9.994263 
2.5002614e+1, 1.9405147e+2, -1049499.5, -1104166.8, -1786.0684, 0.0032949254, -0.012793456, -1049441.3, -11147.214, 0.0, 10.001423, 9.994184 
2.500509e+1, 2.0404474e+2, -953830.9, -1027060.1, -599.72394, 0.010313531, -0.017073998, -953826.0, -13466.248, 0.0, 10.002117, 9.99242 
2.500761e+1, 2.1403705e+2, -852984.44, -928152.5, -1336.5112, 0.002965959, -0.02457282, -852960.7, -10525.912, 0.0, 10.002329, 9.992375 
2.5009996e+1, 2.2402817e+2, -761624.2, -862164.75, -3436.181, 0.00064856245, -0.027894044, -761506.9, -16985.164, 0.0, 10.003117, 9.989808 
2.5012183e+1, 2.3401786e+2, -640766.56, -754550.25, -3699.4785, 0.0056340126, -0.02676677, -640646.44, 5976.384, 0.0, 10.00474, 9.989675 
2.5014424e+1, 2.4400663e+2, -537402.2, -675677.0, -2746.504, 0.0055881552, -0.023087934, -537347.7, 11385.275, 0.0, 10.006042, 9.987736 
2.5016737e+1, 2.5399438e+2, -427723.06, -572670.06, -2363.083, -0.0019839893, -0.017593054, -427684.56, 23168.584, 0.0, 10.006867, 9.987676 
2.5019145e+1, 2.6398084e+2, -336538.3, -507935.38, -1717.8428, -0.0039911414, -0.012605923, -336521.1, 16464.89, 0.0, 10.0076885, 9.9850025 
2.5021672e+1, 2.7396572e+2, -227463.08, -406063.06, -1300.1469, 0.0020840773, -0.010658954, -227453.61, 27680.531, 0.0, 10.00851, 9.984866 
2.5024042e+1, 2.8394964e+2, -128666.266, -329014.03, -2136.9382, 0.003277282, -0.012088128, -128643.48, 28648.246, 0.0, 10.0094795, 9.982962 
2.5026152e+1, 2.939325e+2, -13525.809, -222970.19, -2597.8079, -0.0030160914, -0.020580089, -13493.592, 45965.72, 0.0, 10.010664, 9.982938 
2.502845e+1, 3.0391794e+2, 86830.4, -92439.84, -1766.7368, -0.002884827, -0.028796634, 86847.805, 86847.805, 0.0, 10.011752, 9.988 
2.503099e+1, 3.1390578e+2, 99709.65, -87176.625, -1620.4724, 0.0072509344, -0.039259654, 99723.695, 99723.695, 0.0, 10.01268, 9.987915 
3.4980783e+1, 1.2406609e+2, -1785641.0, -1727866.9, 3433.1409, 0.00821906, -0.037213415, -1727663.6, -3513.7732, 0.0, 9.994269, 10.00192 
3.4984326e+1, 1.3406639e+2, -1677717.1, -1647492.9, 3062.7346, -0.0034628864, -0.007941811, -1647185.6, -21038.178, 0.0, 9.995916, 9.999917 
3.4987453e+1, 1.4406581e+2, -1572026.3, -1557534.4, -575.2702, -0.016758893, -0.003528761, -1557511.6, -29358.281, 0.0, 9.996947, 9.998865 
3.499024e+1, 1.5406452e+2, -1471422.0, -1458121.1, -1408.4408, -0.011237549, -0.022864295, -1457973.6, -27807.764, 0.0, 9.997116, 9.998877 
3.499347e+1, 1.6406216e+2, -1380304.4, -1389589.0, 1643.1849, 0.0002631549, -0.0320102, -1380022.1, -47833.53, 0.0, 9.997778, 9.996547 
3.4997368e+1, 1.7405869e+2, -1262696.9, -1283137.1, 2303.8257, 0.020395245, -0.026159342, -1262440.5, -28217.537, 0.0, 9.999157, 9.9964485 
3.500091e+1, 1.8405424e+2, -1160678.8, -1205463.1, 1411.3015, 0.021451943, -0.018736908, -1160634.4, -24367.752, 0.0, 10.000393, 9.994462 
3.500396e+1, 1.9404872e+2, -1047989.75, -1101052.5, 2117.002, -0.0047952174, -0.011720908, -1047905.4, -9584.567, 0.0, 10.001424, 9.994395 
3.500696e+1, 2.0404208e+2, -955166.4, -1029812.06, 477.23877, -0.014389164, -0.011658403, -955163.3, -14777.428, 0.0, 10.002116, 9.992233 
3.5009918e+1, 2.1403413e+2, -854596.5, -931515.5, -544.4867, 0.00051889033, -0.02320337, -854592.7, -12129.113, 0.0, 10.002331, 9.992146 
3.5013142e+1, 2.2402509e+2, -761903.9, -862788.94, 2183.8274, 0.0033184127, -0.026899228, -761856.6, -17304.625, 0.0, 10.0031185, 9.989764 
3.5016754e+1, 2.3401481e+2, -640919.3, -754877.7, 2467.8835, -0.011576807, -0.021235004, -640865.9, 5787.0537, 0.0, 10.004741, 9.989651 
3.5020307e+1, 2.4400362e+2, -536916.4, -674637.6, 641.9906, -0.010797517, -0.015478607, -536913.4, 11849.321, 0.0, 10.00604, 9.987807 
3.5023758e+1, 2.5399143e+2, -427155.6, -571472.7, 724.4422, 0.013232159, -0.011845071, -427151.97, 23730.232, 0.0, 10.0068655, 9.987758 
3.502707e+1, 2.6397792e+2, -335801.88, -506404.63, 1368.1486, 0.019309781, -0.011764596, -335790.9, 17223.643, 0.0, 10.0076885, 9.985106 
3.503015e+1, 2.7396283e+2, -226712.97, -404476.16, 1799.0815, -0.0012478564, -0.019767813, -226694.77, 28467.713, 0.0, 10.008508, 9.984975 
3.5033408e+1, 2.8394675e+2, -129130.29, -329922.4, 2192.6196, -0.008369309, -0.02366716, -129106.35, 28213.607, 0.0, 10.009477, 9.982901 
3.5036895e+1, 2.9392964e+2, -14107.331, -224156.58, 1864.1885, 0.004711548, -0.024216115, -14090.788, 45396.918, 0.0, 10.010663, 9.982857 
3.5040307e+1, 3.039151e+2, 86913.984, -92235.93, 1820.2709, 0.0077025476, -0.02134013, 86932.48, 86932.48, 0.0, 10.011751, 9.988014 
3.504356e+1, 3.139031e+2, 99848.24, -86819.586, 1859.9673, -0.004525128, -0.015667805, 99866.77, 99866.77, 0.0, 10.012676, 9.98794 
4.4975168e+1, 1.2406203e+2, -1780180.8, -1722257.3, -4105.8857, 0.0082047, -0.016426597, -1721967.8, 2222.1948, 0.0, 9.994511, 10.002181 
4.4979703e+1, 1.340623e+2, -1692383.8, -1651442.4, -2009.8472, -0.00089486944, -0.018427923, -1651343.9, -25156.543, 0.0, 9.9947815, 10.000202 
4.498377e+1, 1.4406177e+2, -1590544.0, -1566419.0, -3583.3052, -0.016347313, -0.025283588, -1565898.0, -37705.418, 0.0, 9.995685, 9.998876 
4.4987515e+1, 1.5406062e+2, -1465785.9, -1455572.8, -3357.452, -0.014561495, -0.02709845, -1454567.9, -24364.188, 0.0, 9.997508, 9.9988575 
4.4991696e+1, 1.6405836e+2, -1365543.3, -1381971.8, -55.720284, -0.0036627515, -0.028653132, -1365543.0, -33317.184, 0.0, 9.998762, 9.996586 
4.4996548e+1, 1.7405486e+2, -1261648.4, -1282136.4, 377.11578, 0.020264622, -0.02954392, -1261641.4, -27381.152, 0.0, 9.999207, 9.996491 
4.5001042e+1, 1.8405046e+2, -1168121.5, -1208003.4, -764.80743, 0.022986146, -0.024868354, -1168106.8, -31803.303, 0.0, 9.99984, 9.994556 
4.5005047e+1, 1.9404508e+2, -1057020.3, -1104308.1, -897.09766, -0.0049881735, -0.014689804, -1057003.3, -18646.781, 0.0, 10.000759, 9.994494 
4.5009005e+1, 2.040384e+2, -958725.56, -1034097.7, -3242.449, -0.014939669, -0.01207748, -958586.4, -18164.463, 0.0, 10.001985, 9.992003 
4.5012915e+1, 2.1403019e+2, -837094.06, -925969.3, -4531.616, 0.001288137, -0.021957465, -836863.56, 5638.5537, 0.0, 10.003654, 9.991882 
4.501707e+1, 2.2402106e+2, -738195.94, -850643.5, -1737.9951, 0.0049598175, -0.024587007, -738169.06, 6422.5645, 0.0, 10.00471, 9.989821 
4.5021585e+1, 2.3401086e+2, -638224.4, -752538.6, -643.3178, -0.009723137, -0.018728727, -638220.75, 8470.858, 0.0, 10.004879, 9.989743 
4.502607e+1, 2.4399965e+2, -546152.2, -680535.56, -2225.0593, -0.009917966, -0.0146965645, -546115.4, 2686.1829, 0.0, 10.005469, 9.9876795 
4.50305e+1, 2.5398725e+2, -430986.44, -575029.1, -3835.7803, 0.0107973935, -0.015537148, -430884.38, 20038.58, 0.0, 10.006677, 9.987605 
4.503474e+1, 2.6397374e+2, -333965.34, -503075.56, -4528.418, 0.016456027, -0.017230742, -333844.16, 19211.152, 0.0, 10.0077095, 9.985323 
4.503865e+1, 2.7395895e+2, -225421.11, -400970.78, -3145.1025, -0.00024629143, -0.022827512, -225364.78, 29835.666, 0.0, 10.008472, 9.98523 
4.5042893e+1, 2.8394297e+2, -130957.45, -332539.16, -994.0851, -0.0048648324, -0.024267448, -130952.55, 26404.473, 0.0, 10.009425, 9.982746 
4.5047593e+1, 2.9392564e+2, -15654.736, -227192.61, -2057.3787, 0.0084352335, -0.022511268, -15634.729, 43892.008, 0.0, 10.010654, 9.982653 
4.505205e+1, 3.0391115e+2, 88120.695, -88687.46, -2953.9255, 0.008973342, -0.01663396, 88170.03, 88170.03, 0.0, 10.011706, 9.988277 
4.505608e+1, 3.1389955e+2, 99195.46, -83552.57, -933.9309, -0.009937126, -0.0068193264, 99200.234, 99200.234, 0.0, 10.012478, 9.988259 
5.496957e+1, 1.2405647e+2, -1775914.8, -1713641.9, -2942.521, -0.0042598597, 0.004327439, -1713503.1, 10741.747, 0.0, 9.994516, 10.002764 
5.49746e+1, 1.3405691e+2, -1687935.1, -1642250.5, -1030.2664, 0.0105073275, -0.041152187, -1642227.3, -15987.588, 0.0, 9.994779, 10.000827 
5.497966e+1, 1.4405672e+2, -1589359.9, -1563934.3, 2772.4712, 0.0034106711, -0.058239404, -1563635.5, -35393.93, 0.0, 9.995682, 9.999045 
5.498514e+1, 1.5405604e+2, -1464868.5, -1453753.8, 3596.2473, -0.0034630243, -0.023750776, -1452691.6, -22443.16, 0.0, 9.99751, 9.9989805 
5.499041e+1, 1.6405404e+2, -1365267.9, -1381537.3, 2070.0247, -0.009153092, -0.00917996, -1365008.6, -32740.162, 0.0, 9.998769, 9.996612 
5.4995424e+1, 1.7405042e+2, -1261521.4, -1281893.8, 2033.1992, -0.012688579, -0.02321253, -1261320.4, -27016.672, 0.0, 9.9992075, 9.996508 
5.5000556e+1, 1.8404593e+2, -1168197.6, -1208162.3, 2533.0027, -0.010082385, -0.027987827, -1168037.8, -31690.037, 0.0, 9.99984, 9.994546 
5.500587e+1, 1.9404048e+2, -1057100.0, -1104510.3, 2589.518, 0.0015054325, -0.021656217, -1056959.0, -18557.777, 0.0, 10.00076, 9.99448 
5.501121e+1, 2.0403369e+2, -960589.9, -1037993.9, 2785.588, 0.0071621076, -0.01832487, -960489.75, -20021.945, 0.0, 10.0019865, 9.991737 
5.50166e+1, 2.1402527e+2, -839203.0, -930298.0, 1784.5063, 0.0042307423, -0.020964514, -839168.06, 3382.5095, 0.0, 10.003652, 9.991588 
5.502178e+1, 2.2401606e+2, -737118.44, -848354.7, -582.47205, 0.004606458, -0.021007191, -737115.4, 7525.402, 0.0, 10.004708, 9.989978 
5.502666e+1, 2.3400603e+2, -636768.06, -749530.44, -31.112776, 0.010047463, -0.01921256, -636768.06, 9970.839, 0.0, 10.00488, 9.989947 
5.5031705e+1, 2.4399474e+2, -548390.0, -685210.94, 1957.0681, 0.0065802955, -0.020721184, -548362.0, 487.55157, 0.0, 10.00547, 9.987359 
5.5036974e+1, 2.539819e+2, -433673.44, -580601.44, 756.7014, -0.0099144075, -0.028886938, -433669.56, 17305.895, 0.0, 10.006678, 9.987223 
5.5042154e+1, 2.6396832e+2, -331726.16, -498383.72, -1486.6532, -0.013049125, -0.029020568, -331712.9, 21395.422, 0.0, 10.007707, 9.985644 
5.5047166e+1, 2.7395406e+2, -222537.3, -395067.5, -274.95413, 0.0037862805, -0.020074466, -222536.86, 32711.232, 0.0, 10.008476, 9.985633 
5.5052495e+1, 2.8393826e+2, -132602.08, -336064.56, 3461.412, 0.0121801235, -0.0141783655, -132543.22, 24859.713, 0.0, 10.00943, 9.982503 
5.505824e+1, 2.939206e+2, -17933.656, -231885.47, 2596.626, 0.007722559, -0.015472537, -17902.146, 41674.17, 0.0, 10.010653, 9.982331 
5.506367e+1, 3.0390614e+2, 91588.24, -81322.93, 143.21048, 0.00020054082, -0.01460343, 91588.37, 91588.37, 0.0, 10.0117, 9.988786 
5.506855e+1, 3.1389502e+2, 103418.69, -74709.34, 1943.5981, -0.011487727, -0.012889503, 103439.9, 103439.9, 0.0, 10.012476, 9.988866 
6.496391e+1, 1.240507e+2, -1779504.5, -1715941.8, 1003.41345, -0.009689161, -0.0070035686, -1715925.9, 8375.489, 0.0, 9.994296, 10.002715 
6.496978e+1, 1.3405123e+2, -1675474.5, -1636741.1, -2334.1213, 0.008004345, -0.03804418, -1636601.0, -10305.603, 0.0, 9.995648, 10.000776 
6.497579e+1, 1.4405106e+2, -1576060.8, -1557739.1, -946.28064, 0.0039073364, -0.04845679, -1557690.4, -29393.346, 0.0, 9.996596, 9.99902 
6.498247e+1, 1.5405035e+2, -1472765.3, -1457869.3, -1142.0173, 0.0047835717, -0.01604219, -1457782.3, -27477.807, 0.0, 9.9969845, 9.998954 
6.498877e+1, 1.6404831e+2, -1379428.5, -1388407.9, -3934.082, -0.0020797532, -0.0040822644, -1377948.8, -45624.023, 0.0, 9.997805, 9.996612 
6.499459e+1, 1.7404465e+2, -1260708.9, -1281459.0, -4133.0674, -0.019632323, -0.021636367, -1259915.9, -25555.549, 0.0, 9.999261, 9.99651 
6.5000594e+1, 1.8404011e+2, -1159455.5, -1204304.9, -4031.6292, -0.020302298, -0.028802052, -1159096.0, -22691.348, 0.0, 10.000451, 9.99451 
6.5006906e+1, 1.9403462e+2, -1050002.6, -1101496.6, -4182.676, 0.0031363682, -0.02305575, -1049665.0, -11206.59, 0.0, 10.001263, 9.99444 
6.5013254e+1, 2.0402783e+2, -960599.9, -1037723.3, -2213.2878, 0.012529964, -0.019500574, -960536.4, -20011.188, 0.0, 10.001973, 9.99176 
6.501968e+1, 2.1401943e+2, -855139.0, -937698.0, -684.9188, 0.0014629719, -0.02072423, -855133.3, -12525.706, 0.0, 10.002548, 9.991615 
6.502581e+1, 2.2401032e+2, -755047.25, -855972.1, -3155.6023, 0.0002137041, -0.019359129, -754948.7, -10251.493, 0.0, 10.003436, 9.990073 
6.503152e+1, 2.3400041e+2, -637550.25, -748753.44, -3497.5718, 0.013250187, -0.01624703, -637440.4, 9353.739, 0.0, 10.004776, 9.990049 
6.503743e+1, 2.4398912e+2, -543361.9, -683502.75, -438.63284, 0.012791552, -0.018786635, -543360.5, 5544.0396, 0.0, 10.005846, 9.987293 
6.504359e+1, 2.5397614e+2, -436618.66, -582967.06, 609.37933, -0.0074991747, -0.031348474, -436616.1, 14415.515, 0.0, 10.006515, 9.98714 
6.504979e+1, 2.639625e+2, -334518.06, -500760.7, -926.1503, -0.012696614, -0.033111602, -334512.9, 18652.574, 0.0, 10.00756, 9.985552 
6.505599e+1, 2.7394816e+2, -213339.44, -391657.0, -3280.1563, 0.004540777, -0.02170821, -213279.11, 42026.875, 0.0, 10.0091505, 9.985539 
6.506228e+1, 2.8393233e+2, -121842.93, -330379.88, -2407.7366, 0.011545475, -0.01444493, -121815.13, 35645.895, 0.0, 10.010148, 9.982544 
6.506863e+1, 2.9391474e+2, -23478.002, -233919.28, -750.6689, 0.002796955, -0.015933137, -23475.324, 36158.555, 0.0, 10.010243, 9.982388 
6.507494e+1, 3.039003e+2, 80493.84, -85854.79, -1383.1896, -0.0029522874, -0.017174564, 80505.34, 80505.34, 0.0, 10.0109, 9.988859 
6.508107e+1, 3.1388924e+2, 102904.664, -74140.87, -3311.108, -0.0036090356, -0.020343516, 102966.57, 102966.57, 0.0, 10.0124035, 9.988938 
7.4958223e+1, 1.2404471e+2, -1784419.6, -1726040.3, 6172.146, -0.009595173, -0.05072941, -1725394.9, -1035.3881, 0.0, 9.994298, 10.0020275 
7.496526e+1, 1.3404526e+2, -1680688.6, -1647498.3, 2788.5493, -0.009302681, -0.008999594, -1647265.5, -20910.957, 0.0, 9.99565, 10.000044 
7.49722e+1, 1.440448e+2, -1577614.9, -1561028.3, 824.0557, -0.01604273, 0.0044440124, -1560987.5, -32628.182, 0.0, 9.996601, 9.998794 
7.49795e+1, 1.5404353e+2, -1474008.3, -1460430.1, 307.064, 0.008911699, -0.0036693858, -1460423.3, -30051.273, 0.0, 9.996985, 9.998779 
7.498676e+1, 1.6404113e+2, -1379606.8, -1388764.6, 1183.0841, 0.016358167, -0.013309507, -1379456.4, -47061.207, 0.0, 9.997804, 9.996588 
7.499404e+1, 1.7403753e+2, -1260765.8, -1281587.6, 1398.8466, -0.0013344232, -0.024870338, -1260672.3, -26242.037, 0.0, 9.999261, 9.9965 
7.500117e+1, 1.8403302e+2, -1159821.9, -1205108.9, -754.67926, -0.008641855, -0.027286846, -1159809.3, -23334.941, 0.0, 10.000454, 9.994452 
7.5008124e+1, 1.940275e+2, -1050426.3, -1102386.5, -1119.9346, -0.0008714238, -0.018988581, -1050402.1, -11873.582, 0.0, 10.001263, 9.994378 
7.5015104e+1, 2.040208e+2, -958353.2, -1033107.9, 31.575106, 0.00039785643, -0.015600929, -958353.1, -17758.984, 0.0, 10.001974, 9.992074 
7.502213e+1, 2.1401273e+2, -852594.0, -932494.94, 1481.883, -0.007874172, -0.021258596, -852566.5, -9893.1, 0.0, 10.002551, 9.991969 
7.502915e+1, 2.240038e+2, -754771.75, -855457.5, 1619.2864, -0.009260701, -0.019790178, -754745.7, -9984.795, 0.0, 10.003438, 9.990106 
7.503616e+1, 2.3399396e+2, -637540.75, -748747.94, 1560.0833, -0.00063498365, -0.010053825, -637518.8, 9338.464, 0.0, 10.004777, 9.990049 
7.5043225e+1, 2.439828e+2, -542009.2, -680725.2, 2302.101, 0.008006104, -0.009154626, -541971.0, 6995.578, 0.0, 10.005847, 9.987482 
7.5050354e+1, 2.5397003e+2, -435087.8, -579871.1, 3098.1301, 0.016674377, -0.023258312, -435021.53, 16070.107, 0.0, 10.006518, 9.987349 
7.505764e+1, 2.6395622e+2, -338003.9, -508003.94, 4724.899, 0.015987575, -0.029811407, -337872.7, 15354.277, 0.0, 10.00756, 9.985056 
7.506511e+1, 2.739412e+2, -217543.48, -400176.84, 2754.9497, 0.0014524756, -0.027586235, -217501.94, 37872.21, 0.0, 10.009141, 9.984961 
7.507224e+1, 2.8392518e+2, -119750.06, -325776.16, -1473.6779, -0.007337754, -0.024843637, -119739.52, 37791.793, 0.0, 10.010137, 9.982863 
7.507878e+1, 2.93908e+2, -20429.375, -227656.47, -436.9741, -0.007245281, -0.023919873, -20428.453, 39271.035, 0.0, 10.010247, 9.982815 
7.5085855e+1, 3.0389366e+2, 78191.01, -90897.18, 3729.952, -0.0017851532, -0.024243891, 78273.24, 78273.24, 0.0, 10.010911, 9.988506 
7.5093627e+1, 3.138821e+2, 99760.164, -80652.54, 2396.1702, 0.011512002, -0.029133936, 99791.984, 99791.984, 0.0, 10.012401, 9.988492 
8.495255e+1, 1.2403755e+2, -1786905.5, -1730108.0, -1501.6327, -0.0033406916, -0.045907315, -1730068.4, -5638.763, 0.0, 9.99425, 10.001772 
8.4960866e+1, 1.3403784e+2, -1684997.8, -1652638.4, -1478.9307, -0.0053076153, -0.0027514205, -1652571.0, -26143.61, 0.0, 9.995488, 9.999772 
8.496878e+1, 1.4403717e+2, -1577937.8, -1561919.0, -3103.833, -0.01854374, 0.0064366055, -1561338.6, -32904.426, 0.0, 9.99661, 9.998727 
8.497667e+1, 1.5403573e+2, -1465585.3, -1456841.1, -2850.4788, -0.0020314243, -0.0110815875, -1455994.0, -25545.963, 0.0, 9.99758, 9.998733 
8.4984785e+1, 1.6403332e+2, -1370453.8, -1384340.4, -18.47601, 0.00747025, -0.022462681, -1370453.8, -37982.074, 0.0, 9.998426, 9.996584 
8.49933e+1, 1.7402981e+2, -1263052.1, -1282699.3, 411.11746, 0.00708979, -0.024640374, -1263043.5, -28537.576, 0.0, 9.9991045, 9.996499 
8.500151e+1, 1.840253e+2, -1167538.0, -1209742.0, -2109.4414, 0.0044993516, -0.023036039, -1167432.9, -30882.758, 0.0, 9.999966, 9.994373 
8.50093e+1, 1.9401965e+2, -1053466.6, -1104868.4, -2721.9102, -0.0013335815, -0.018362435, -1053322.9, -14717.392, 0.0, 10.001099, 9.9942875 
8.50171e+1, 2.0401296e+2, -955072.8, -1029750.6, -3079.7998, -0.0047539854, -0.016709024, -954946.0, -14274.948, 0.0, 10.002121, 9.992229 
8.5024935e+1, 2.1400507e+2, -844991.56, -926768.75, -3005.298, -0.0047206343, -0.021036247, -844881.25, -2132.923, 0.0, 10.002982, 9.992148 
8.503288e+1, 2.2399619e+2, -748333.9, -853718.5, -2379.9988, -0.0047026454, -0.020711245, -748280.2, -3444.7002, 0.0, 10.003937, 9.989982 
8.504102e+1, 2.3398612e+2, -634888.2, -749249.44, -3446.2732, -0.005018472, -0.015617791, -634784.44, 12149.486, 0.0, 10.005034, 9.989887 
8.5049117e+1, 2.4397492e+2, -537814.6, -677638.6, -4993.467, 0.0003814437, -0.013600416, -537636.5, 11407.165, 0.0, 10.006088, 9.987574 
8.505713e+1, 2.5396237e+2, -426132.6, -574188.75, -5024.247, 0.0141711775, -0.018065026, -425962.28, 25204.428, 0.0, 10.007073, 9.987466 
8.5065275e+1, 2.6394868e+2, -335565.38, -506581.63, -1928.3732, 0.016371598, -0.020424685, -335543.63, 17757.346, 0.0, 10.007715, 9.985076 
8.50736e+1, 2.7393362e+2, -236302.97, -409147.5, 415.46564, 0.0010789412, -0.02238649, -236301.97, 19146.504, 0.0, 10.00785, 9.984968 
8.5081667e+1, 2.8391758e+2, -140118.72, -335400.97, -1679.5713, -0.007579086, -0.023877874, -140104.28, 17501.592, 0.0, 10.008728, 9.9828825 
8.508928e+1, 2.9390037e+2, -13445.98, -224060.88, -3564.595, -0.006149253, -0.02721168, -13385.668, 46388.434, 0.0, 10.010716, 9.982833 
8.5097337e+1, 3.0388603e+2, 93773.3, -84390.414, -808.9751, -0.00062862545, -0.027911844, 93776.97, 93776.97, 0.0, 10.012025, 9.988416 
8.510597e+1, 3.1387442e+2, 97317.93, -83035.805, 259.49316, 0.0109226955, -0.027294768, 97318.3, 97318.3, 0.0, 10.012284, 9.988383 
9.494692e+1, 1.240292e+2, -1785585.4, -1727405.8, 3165.168, 0.0072740577, 0.008657827, -1727234.0, -2721.8318, 0.0, 9.994251, 10.001954 
9.495661e+1, 1.3402896e+2, -1683614.0, -1649735.8, 3158.132, 0.01992728, -0.019477194, -1649443.9, -22929.79, 0.0, 9.995485, 9.9999695 
9.4965535e+1, 1.4402813e+2, -1577257.5, -1560477.3, 641.87396, -0.0036730873, -0.042921484, -1560452.8, -31930.768, 0.0, 9.996608, 9.998825 
9.497398e+1, 1.54027e+2, -1464939.9, -1455542.9, 839.34845, -0.028735187, -0.03869343, -1455468.5, -24935.41, 0.0, 9.997581, 9.99882 
9.498285e+1, 1.6402481e+2, -1370314.5, -1384109.8, 2642.308, -0.02974246, -0.031663522, -1369825.8, -37271.27, 0.0, 9.998429, 9.996598 
9.499239e+1, 1.7402144e+2, -1262989.3, -1282591.1, 2979.6729, 0.004793645, -0.020989243, -1262546.3, -27958.46, 0.0, 9.999105, 9.996506 
9.500162e+1, 1.8401693e+2, -1168269.0, -1211264.3, 2000.3394, 0.018403154, -0.015886828, -1168176.1, -31543.928, 0.0, 9.999966, 9.994268 
9.501043e+1, 1.9401105e+2, -1054303.3, -1106585.8, 1576.8038, 0.0010156676, -0.02127847, -1054255.6, -15565.98, 0.0, 10.001098, 9.99417 
9.5019233e+1, 2.0400427e+2, -955094.94, -1029770.56, 258.13293, -0.00381634, -0.02283934, -955094.06, -14337.904, 0.0, 10.00212, 9.9922285 
9.502806e+1, 2.1399646e+2, -844897.25, -926586.2, 241.3282, 0.009996987, -0.020157417, -844896.56, -2064.0552, 0.0, 10.002982, 9.992161 
9.5037e+1, 2.2398743e+2, -750312.8, -857842.25, 1660.5974, 0.012762997, -0.022028632, -750287.2, -5366.211, 0.0, 10.003939, 9.989698 
9.5046103e+1, 2.3397692e+2, -637160.94, -753886.5, 705.0331, -0.00092510984, -0.032756303, -637156.7, 9867.38, 0.0, 10.005032, 9.989572 
9.50551e+1, 2.4396554e+2, -537912.6, -677714.7, -1241.102, -0.0108203925, -0.03185569, -537901.6, 11234.134, 0.0, 10.006083, 9.987571 
9.506391e+1, 2.539532e+2, -425967.4, -573743.75, -1307.4021, -0.014824745, -0.01564633, -425955.84, 25301.0, 0.0, 10.007069, 9.987498 
9.5072716e+1, 2.639399e+2, -331827.0, -498866.9, -1119.0094, -0.011761736, -0.005282318, -331819.5, 21568.004, 0.0, 10.007718, 9.985601 
9.508146e+1, 2.7392542e+2, -232043.34, -400553.7, 855.56824, 0.0019612636, -0.0064585134, -232039.0, 23490.148, 0.0, 10.007861, 9.98555 
9.509056e+1, 2.8390953e+2, -141896.55, -339317.1, 5038.097, 0.009018687, -0.011866642, -141768.05, 15916.82, 0.0, 10.008738, 9.982609 
9.510011e+1, 2.9389185e+2, -16191.636, -229624.77, 3928.1377, 0.0056735585, -0.025985628, -16119.364, 43738.43, 0.0, 10.010709, 9.982455 
9.5109373e+1, 3.0387732e+2, 94790.42, -82045.21, 827.3835, 0.00041264915, -0.028280383, 94794.3, 94794.3, 0.0, 10.012016, 9.98858 
9.511808e+1, 3.1386608e+2, 98981.28, -79637.51, 1179.2683, -0.007311704, -0.015104828, 98989.07, 98989.07, 0.0, 10.012288, 9.988614 
1.04941666e+2, 1.2401941e+2, -1768347.9, -1717187.4, -1192.6342, 0.0031239986, 0.010667792, -1717159.6, 7448.415, 0.0, 9.995339, 10.002115 
1.0495202e+2, 1.3401923e+2, -1684411.3, -1648188.9, -1657.989, 0.01923386, -0.029492907, -1648113.1, -21503.928, 0.0, 9.995345, 10.000141 
1.0496183e+2, 1.4401847e+2, -1587155.3, -1564837.0, -2554.815, -0.000886608, -0.055947468, -1564548.3, -35931.883, 0.0, 9.995914, 9.998864 
1.0497153e+2, 1.540175e+2, -1468650.4, -1457076.1, -2633.5774, -0.01942405, -0.039579205, -1456505.0, -25878.898, 0.0, 9.997315, 9.998842 
1.0498139e+2, 1.640154e+2, -1369144.0, -1383404.3, -2523.3938, -0.021880247, -0.025242858, -1368710.6, -36063.785, 0.0, 9.998502, 9.996608 
1.0499157e+2, 1.7401204e+2, -1258919.6, -1280509.5, -2316.613, -0.0007967317, -0.014552545, -1258673.9, -23993.795, 0.0, 9.999377, 9.996512 
1.0500159e+2, 1.8400748e+2, -1164915.8, -1209793.6, -2391.8398, 0.008066648, -0.012266497, -1164788.6, -28063.836, 0.0, 10.0002, 9.994252 
1.05011426e+2, 1.9400153e+2, -1056504.9, -1107867.4, -2025.6152, -0.0012853276, -0.024540678, -1056425.1, -17642.068, 0.0, 10.000957, 9.994149 
1.0502125e+2, 2.0399469e+2, -958378.94, -1031652.25, -2642.3884, -0.0027544904, -0.028199732, -958283.8, -17433.9, 0.0, 10.001908, 9.9922 
1.05031095e+2, 2.139869e+2, -842679.4, -925822.8, -2914.474, 0.0072840406, -0.020698905, -842577.3, 348.772, 0.0, 10.003146, 9.99213 
1.0504097e+2, 2.2397783e+2, -749575.06, -858997.75, -2166.3015, 0.010391384, -0.020057831, -749532.2, -4517.087, 0.0, 10.004053, 9.989562 
1.050509e+2, 2.3396716e+2, -646335.8, -760005.9, -2014.6782, 0.0030789517, -0.03194025, -646300.1, 819.7185, 0.0, 10.004476, 9.989421 
1.050608e+2, 2.4395569e+2, -549994.2, -682666.4, -1794.1447, -0.00520607, -0.032964062, -549969.94, -737.77374, 0.0, 10.005216, 9.987649 
1.05070665e+2, 2.5394344e+2, -434487.06, -576682.3, -1186.1876, -0.014930918, -0.019937979, -434477.2, 16875.29, 0.0, 10.0064335, 9.987602 
1.0508041e+2, 2.6393014e+2, -332214.38, -499669.22, -3762.6177, -0.013751127, -0.009968759, -332129.88, 21352.953, 0.0, 10.007716, 9.985546 
1.05089955e+2, 2.7391565e+2, -214672.86, -393006.06, -6767.743, 0.0036923615, -0.0070647513, -214416.39, 41208.45, 0.0, 10.0090885, 9.985472 
1.0509997e+2, 2.8389975e+2, -123150.14, -329842.97, -3095.624, 0.012469562, -0.009373389, -123103.79, 34676.785, 0.0, 10.010004, 9.982644 
1.051106e+2, 2.9388213e+2, -22764.203, -232251.0, -962.3306, 0.0077502155, -0.022095736, -22759.783, 37193.184, 0.0, 10.010232, 9.982502 
1.0512086e+2, 3.0386767e+2, 79641.53, -88460.59, -3372.8435, 0.0021953648, -0.025525142, 79709.17, 79709.17, 0.0, 10.010932, 9.988659 
1.0513043e+2, 3.1385645e+2, 100553.32, -77944.516, -4267.342, -0.0043426445, -0.01729492, 100655.28, 100655.28, 0.0, 10.012353, 9.988697 
1.1493682e+2, 1.2400816e+2, -1767307.0, -1715164.8, -845.8683, -0.017179921, -0.041340977, -1715151.0, 9566.412, 0.0, 9.995345, 10.00225 
1.14947096e+2, 1.340086e+2, -1683424.6, -1646125.9, -1681.9069, -0.00828573, -0.032976914, -1646050.3, -19337.084, 0.0, 9.995345, 10.00028 
1.1495763e+2, 1.4400817e+2, -1587390.5, -1565208.1, 2217.524, -0.011209031, -0.032234922, -1564988.6, -36271.105, 0.0, 9.995909, 9.998841 
1.1496929e+2, 1.5400718e+2, -1468990.1, -1457720.4, 2697.8247, 0.025693413, -0.013294368, -1457107.9, -26380.227, 0.0, 9.997313, 9.998799 
1.1498042e+2, 1.6400504e+2, -1369052.9, -1383232.5, 962.46515, 0.030854233, -0.0028849167, -1368987.9, -36238.973, 0.0, 9.998502, 9.996618 
1.1499086e+2, 1.7400156e+2, -1258805.5, -1280290.8, 997.6413, -0.010116241, -0.005305077, -1258759.4, -23976.328, 0.0, 9.999377, 9.996527 
1.1500144e+2, 1.8399695e+2, -1164392.8, -1208720.1, 506.6979, -0.02729958, -0.012332873, -1164386.9, -27558.883, 0.0, 10.0002, 9.994325 
1.1501231e+2, 1.9399104e+2, -1055936.8, -1106711.1, 842.85706, -0.008998338, -0.028215816, -1055922.8, -17036.969, 0.0, 10.0009575, 9.994226 
1.1502317e+2, 2.039842e+2, -958743.0, -1032415.8, 1848.0034, -0.002370992, -0.032851618, -958696.7, -17744.068, 0.0, 10.001908, 9.992147 
1.15034044e+2, 2.1397638e+2, -843182.9, -926819.8, 1761.7406, -0.013173932, -0.022654941, -843145.75, -116.342026, 0.0, 10.003144, 9.992063 
1.150448e+2, 2.2396734e+2, -749523.3, -858885.06, -301.94547, -0.012340907, -0.014970791, -749522.44, -4404.2725, 0.0, 10.004054, 9.989569 
1.15055405e+2, 2.339568e+2, -646155.75, -759749.6, -449.1006, 0.0060339253, -0.013501141, -646154.0, 1067.537, 0.0, 10.004481, 9.989435 
1.1506623e+2, 2.439454e+2, -548744.3, -680254.1, 2472.6624, 0.015816964, -0.017173015, -548697.9, 635.27216, 0.0, 10.005223, 9.987809 
1.1507737e+2, 2.5393307e+2, -433230.66, -574075.0, 3388.4368, 0.012534161, -0.030669676, -433149.2, 18304.613, 0.0, 10.006433, 9.98778 
1.15088366e+2, 2.6391947e+2, -336664.44, -508778.16, 1326.1838, 0.008990815, -0.033750594, -336654.22, 16932.762, 0.0, 10.007711, 9.984924 
1.15099065e+2, 2.7390432e+2, -219821.05, -403513.9, -1577.091, 0.005328753, -0.023840113, -219807.5, 35927.973, 0.0, 10.00908, 9.984756 
1.15109876e+2, 2.8388828e+2, -120834.96, -324911.7, -1792.2255, 0.0021281887, -0.01624332, -120819.22, 37073.598, 0.0, 10.01, 9.982983 
1.1512076e+2, 2.9387128e+2, -19434.828, -225395.14, -160.12454, -0.00013840303, -0.015172297, -19434.703, 40624.805, 0.0, 10.010237, 9.982968 
1.1513181e+2, 3.0385706e+2, 79673.16, -88513.11, 1470.9415, 0.0036649688, -0.019409774, 79686.016, 79686.016, 0.0, 10.010937, 9.988652 
1.15143e+2, 3.1384555e+2, 100018.57, -78984.516, 1094.1854, 0.016860006, -0.03390058, 100025.26, 100025.26, 0.0, 10.01235, 9.988626 
1.249314e+2, 1.2399664e+2, -1790865.8, -1728214.4, -2156.2458, -0.016553113, -0.055831246, -1728140.3, -3310.0813, 0.0, 9.993814, 10.002108 
1.2494256e+2, 1.3399717e+2, -1679416.4, -1645943.3, -5463.84, -0.012994833, -0.02210667, -1645074.0, -18248.516, 0.0, 9.995692, 10.000121 
1.24954015e+2, 1.4399673e+2, -1571598.9, -1557712.1, -2813.3376, -0.017378727, -0.013318614, -1557163.8, -28333.754, 0.0, 9.996988, 9.998821 
1.24966666e+2, 1.539956e+2, -1467139.5, -1456851.6, -2060.571, 0.025713416, -0.0076775854, -1456454.3, -25612.992, 0.0, 9.9974375, 9.998795 
1.24978736e+2, 1.6399337e+2, -1374873.8, -1385374.4, -3547.2874, 0.033628713, -0.007383807, -1373787.8, -40924.645, 0.0, 9.9980755, 9.996677 
1.2499006e+2, 1.7398989e+2, -1263760.4, -1281945.0, -3138.3044, -0.009557515, -0.01504086, -1263234.0, -28337.064, 0.0, 9.999007, 9.996591 
1.2500155e+2, 1.8398535e+2, -1167372.4, -1210167.0, -3607.8977, -0.026948744, -0.020409591, -1167070.3, -30128.795, 0.0, 9.999997, 9.994322 
1.2501335e+2, 1.9397953e+2, -1054318.3, -1106020.4, -3912.5037, -0.0063655977, -0.024565313, -1054023.9, -15025.453, 0.0, 10.001071, 9.994216 
1.2502518e+2, 2.0397273e+2, -957438.5, -1032394.75, -2956.0479, 0.0013908251, -0.02415349, -957322.1, -16256.948, 0.0, 10.002023, 9.99209 
1.2503704e+2, 2.139648e+2, -848706.2, -930189.44, -2959.5303, -0.010034063, -0.018825138, -848598.8, -5455.7437, 0.0, 10.002796, 9.991998 
1.2504876e+2, 2.239558e+2, -751127.5, -857373.94, -4516.8213, -0.01163798, -0.0132575855, -750935.8, -5704.2993, 0.0, 10.003844, 9.98977 
1.2506025e+2, 2.339455e+2, -632509.4, -750532.2, -3086.663, 0.0012326958, -0.009693615, -632428.7, 14903.566, 0.0, 10.005301, 9.989665 
1.2507196e+2, 2.4393418e+2, -533633.44, -674304.44, -752.48254, 0.011200305, -0.012225577, -533629.4, 15813.627, 0.0, 10.006315, 9.987685 
1.2508397e+2, 2.539217e+2, -430931.3, -574830.06, -2437.1829, 0.016493423, -0.025865184, -430890.06, 20675.303, 0.0, 10.00667, 9.98761 
1.2509592e+2, 2.639079e+2, -342836.4, -512266.7, -2484.3152, 0.014726882, -0.034091715, -342800.0, 10900.095, 0.0, 10.007308, 9.984878 
1.2510777e+2, 2.738926e+2, -230138.27, -408866.72, -251.73102, 0.0022060785, -0.036790837, -230137.9, 25712.047, 0.0, 10.008387, 9.984722 
1.2511954e+2, 2.8387654e+2, -129095.91, -329398.66, -891.2174, -0.004454623, -0.031117024, -129091.945, 28915.87, 0.0, 10.009454, 9.982938 
1.251311e+2, 2.938596e+2, -16076.792, -224295.69, -3240.596, -0.002102952, -0.015087902, -16026.37, 44147.35, 0.0, 10.0104885, 9.982921 
1.2514299e+2, 3.0384544e+2, 86365.11, -85211.72, -2226.4873, 0.0048639225, -0.013245624, 86393.99, 86393.99, 0.0, 10.011394, 9.988657 
1.2515524e+2, 3.1383383e+2, 96380.32, -80624.57, -1882.9502, 0.018908883, -0.03550248, 96400.35, 96400.35, 0.0, 10.012093, 9.988635 
1.3492541e+2, 1.2398482e+2, -1794121.9, -1734536.3, 4945.0176, 0.003698594, -0.0315095, -1734128.6, -9182.074, 0.0, 9.993798, 10.001685 
1.3493845e+2, 1.3398491e+2, -1682776.3, -1652794.8, 1662.0378, 0.00510609, 0.0036282009, -1652702.9, -25756.482, 0.0, 9.99569, 9.999656 
1.34951e+2, 1.4398408e+2, -1571616.4, -1557837.6, -634.04254, -0.019835552, 0.00058229035, -1557808.5, -28853.998, 0.0, 9.996992, 9.99881 
1.3496365e+2, 1.539827e+2, -1466878.3, -1456317.8, -399.05957, -0.02049889, -0.022952998, -1456302.8, -25335.182, 0.0, 9.9974375, 9.99883 
1.3497633e+2, 1.6398038e+2, -1374097.8, -1383760.1, -215.12788, -0.014980107, -0.03895267, -1374093.0, -41103.063, 0.0, 9.998075, 9.996787 
1.3498917e+2, 1.7397705e+2, -1262920.8, -1280223.8, 402.12064, 0.00018732164, -0.043854408, -1262911.4, -27889.033, 0.0, 9.999007, 9.996707 
1.350019e+2, 1.8397266e+2, -1167863.3, -1211198.8, 391.3598, 0.008302135, -0.036521006, -1167859.6, -30794.154, 0.0, 9.999997, 9.994251 
1.3501456e+2, 1.9396703e+2, -1054992.1, -1107413.4, 155.32114, 0.0056587686, -0.013620158, -1054991.6, -15870.439, 0.0, 10.00107, 9.99412 
1.3502727e+2, 2.0396025e+2, -957825.75, -1033206.75, 61.200855, 0.0072625983, -0.0021336647, -957825.7, -16637.846, 0.0, 10.002023, 9.992034 
1.350401e+2, 2.1395214e+2, -849060.6, -930957.5, -36.455494, 0.015532874, -0.00928814, -849060.6, -5793.224, 0.0, 10.002797, 9.991944 
1.3505284e+2, 2.2394316e+2, -748335.5, -851578.4, 707.78235, 0.011229163, -0.014868307, -748330.7, -2975.4087, 0.0, 10.003842, 9.990165 
1.3506542e+2, 2.3393323e+2, -629486.75, -744055.6, 2382.7722, -0.0118053965, -0.020008754, -629437.2, 18015.098, 0.0, 10.005291, 9.990111 
1.3507797e+2, 2.4392204e+2, -536589.0, -680195.5, 929.55145, -0.019301908, -0.017773831, -536582.94, 12979.029, 0.0, 10.006307, 9.987287 
1.3509044e+2, 2.5390926e+2, -434464.56, -582148.7, -1163.8389, -0.0030378054, -0.006224998, -434455.4, 17231.824, 0.0, 10.00667, 9.98711 
1.3510312e+2, 2.6389548e+2, -339191.8, -504866.97, 1247.5038, 0.003027562, -0.011621523, -339182.4, 14639.851, 0.0, 10.007316, 9.985378 
1.3511607e+2, 2.7388048e+2, -225762.75, -399753.97, 3747.585, -0.0064854096, -0.04573161, -225682.06, 30286.496, 0.0, 10.008385, 9.985345 
1.3512895e+2, 2.8386444e+2, -132042.69, -335409.53, 2931.637, -0.008507468, -0.053245038, -132000.44, 26125.4, 0.0, 10.009448, 9.982528 
1.3514163e+2, 2.9384714e+2, -19879.99, -232203.3, 602.9504, 0.0011988056, -0.02195993, -19878.28, 40417.49, 0.0, 10.0104885, 9.982378 
1.3515438e+2, 3.038328e+2, 86547.97, -84935.06, 504.3617, 0.005329764, -0.0074773575, 86549.45, 86549.45, 0.0, 10.011398, 9.988672 
1.3516717e+2, 3.1382135e+2, 97137.766, -79267.125, 674.6931, 0.0009103314, -0.022381922, 97140.34, 97140.34, 0.0, 10.012102, 9.988722 
1.4491983e+2, 1.2397139e+2, -1772657.5, -1721594.5, -2382.274, -0.0005091558, -0.016412994, -1721483.6, 3595.0063, 0.0, 9.995142, 10.001904 
1.449341e+2, 1.3397157e+2, -1685108.6, -1651423.4, -681.1194, 0.014893349, 0.005545002, -1651409.6, -24332.41, 0.0, 9.9954195, 9.999878 
1.4494762e+2, 1.4397079e+2, -1585153.5, -1564243.3, -906.3066, -0.009370348, -0.0063760397, -1564204.1, -35119.434, 0.0, 9.996063, 9.998826 
1.4496092e+2, 1.5396939e+2, -1469461.3, -1457680.8, -1104.6708, -0.027935028, -0.029979615, -1457578.1, -26480.35, 0.0, 9.997266, 9.998819 
1.4497443e+2, 1.6396703e+2, -1370836.4, -1383898.0, -1594.329, -0.026945991, -0.04311608, -1370644.5, -37523.973, 0.0, 9.998369, 9.996632 
1.4498836e+2, 1.7396359e+2, -1259431.8, -1280449.6, -3107.8562, 0.0032922404, -0.041047733, -1258981.9, -23827.61, 0.0, 9.999326, 9.996533 
1.4500213e+2, 1.8395917e+2, -1163300.8, -1208259.9, -3643.022, 0.017365677, -0.031605005, -1163007.5, -25809.549, 0.0, 10.000276, 9.994311 
1.450157e+2, 1.9395356e+2, -1052130.1, -1105001.1, -2481.8286, 0.0070516085, -0.0139816515, -1052013.9, -12760.717, 0.0, 10.001221, 9.994208 
1.4502928e+2, 2.0394683e+2, -956508.5, -1032094.3, -2275.0183, 0.0039807432, -0.006132574, -956440.1, -15120.798, 0.0, 10.002091, 9.992074 
1.450429e+2, 2.1393874e+2, -847961.1, -930033.6, -1825.397, 0.01206078, -0.014259603, -847920.56, -4522.0435, 0.0, 10.002855, 9.991977 
1.4505652e+2, 2.2392969e+2, -753635.56, -855838.4, -1646.4241, 0.010169642, -0.021534935, -753609.06, -8122.0654, 0.0, 10.003552, 9.990012 
1.450702e+2, 2.3391956e+2, -647299.56, -754643.25, -4437.7676, -0.006754646, -0.029564917, -647116.44, 469.70752, 0.0, 10.004156, 9.989932 
1.4508374e+2, 2.4390829e+2, -553346.56, -688098.44, -7199.804, -0.014473618, -0.025959037, -552962.94, -3266.239, 0.0, 10.005149, 9.987302 
1.4509708e+2, 2.5389564e+2, -433309.63, -581132.7, -5389.7817, -0.008480882, -0.0066779545, -433113.38, 18707.654, 0.0, 10.006729, 9.987147 
1.4511064e+2, 2.6388198e+2, -329871.66, -498890.44, -2570.594, -0.004667128, -0.0036866493, -329832.6, 24122.049, 0.0, 10.00789, 9.985507 
1.4512448e+2, 2.7386725e+2, -224402.13, -397513.56, -3646.9773, -0.0042364444, -0.0285894, -224325.33, 31773.41, 0.0, 10.0084095, 9.985482 
1.4513834e+2, 2.838512e+2, -136102.08, -337949.47, -4127.038, -0.001906111, -0.038676806, -136017.73, 22237.97, 0.0, 10.009192, 9.982473 
1.4515208e+2, 2.938336e+2, -21807.94, -234000.11, -3017.4868, 0.003194875, -0.02814215, -21765.037, 38663.164, 0.0, 10.010391, 9.982299 
1.4516586e+2, 3.038191e+2, 87704.18, -86602.8, -2577.4307, 0.0036940973, -0.018263137, 87742.29, 87742.29, 0.0, 10.011571, 9.988472 
1.4517954e+2, 3.1380764e+2, 104389.414, -78182.13, -4678.3037, -0.002569536, -0.012255408, 104509.21, 104509.21, 0.0, 10.012704, 9.988504 
1.5491469e+2, 1.239563e+2, -1766239.5, -1708620.9, -1096.2646, -0.03155862, -0.010818158, -1708600.0, 16627.014, 0.0, 9.9951515, 10.002779 
1.5492952e+2, 1.3395712e+2, -1678543.4, -1637843.5, 277.22708, 0.015482059, -0.016959984, -1637841.6, -10623.231, 0.0, 9.995417, 10.000801 
1.5494391e+2, 1.4395681e+2, -1584950.8, -1563644.6, 3291.288, 0.013365529, -0.034611978, -1563147.8, -33926.777, 0.0, 9.996056, 9.998869 
1.549585e+2, 1.5395565e+2, -1469907.5, -1458543.3, 3489.8083, 0.0030029647, -0.028805789, -1457557.3, -26324.926, 0.0, 9.997263, 9.99876 
1.5497306e+2, 1.6395329e+2, -1373822.1, -1390072.0, 2110.67, -0.0027466896, -0.019611655, -1373552.5, -40296.92, 0.0, 9.998371, 9.996209 
1.5498766e+2, 1.7394951e+2, -1262730.6, -1287266.4, 505.88177, -0.00083968823, -0.0064431657, -1262720.3, -27427.236, 0.0, 9.999328, 9.996068 
1.5500222e+2, 1.8394482e+2, -1161878.1, -1205344.3, -85.88251, -0.00066101353, -0.0054916595, -1161877.9, -24538.871, 0.0, 10.000276, 9.994509 
1.5501682e+2, 1.9393912e+2, -1050150.3, -1100955.9, 1087.991, -0.0032137153, -0.025424814, -1050126.9, -10732.425, 0.0, 10.001222, 9.994482 
1.5503125e+2, 2.039324e+2, -955519.06, -1030069.44, 642.1395, -0.009361822, -0.035806168, -955513.5, -14053.617, 0.0, 10.002092, 9.99221 
1.5504542e+2, 2.1392454e+2, -847106.25, -928269.1, 1014.04724, -0.020554818, -0.033417057, -847093.56, -3556.7332, 0.0, 10.002854, 9.992096 
1.5505981e+2, 2.2391532e+2, -758415.94, -865809.6, 655.24133, -0.015387382, -0.03314792, -758411.94, -12784.901, 0.0, 10.003556, 9.989329 
1.5507457e+2, 2.3390445e+2, -652709.56, -766016.5, -2148.7375, 0.014815839, -0.038419172, -652668.9, -4935.035, 0.0, 10.004164, 9.989151 
1.5508927e+2, 2.4389291e+2, -550288.0, -681931.9, -1613.624, 0.023510395, -0.036555022, -550268.25, -421.07407, 0.0, 10.005156, 9.987718 
1.5510388e+2, 2.5388074e+2, -429383.94, -572909.0, 580.8975, -0.00087144156, -0.026155474, -429381.56, 22585.238, 0.0, 10.006724, 9.987709 
1.551185e+2, 2.6386747e+2, -331533.16, -502166.75, -239.24014, -0.009273822, -0.009726586, -331532.8, 22564.398, 0.0, 10.007882, 9.985286 
1.5513301e+2, 2.7385285e+2, -226627.9, -402194.53, -1747.4916, 0.007441155, 0.0131579265, -226610.52, 29629.97, 0.0, 10.008412, 9.98516 
1.5514769e+2, 2.838368e+2, -134008.86, -333745.4, 55.560368, 0.013795177, 0.010739155, -134008.84, 24388.527, 0.0, 10.009198, 9.982757 
1.5516247e+2, 2.9381907e+2, -19301.84, -228747.11, 1448.7701, 0.0036447993, -0.033394694, -19291.818, 41279.195, 0.0, 10.010389, 9.982657 
1.551774e+2, 3.0380434e+2, 84785.52, -92453.586, 1674.5359, -0.0002847887, -0.044493776, 84801.34, 84801.34, 0.0, 10.011561, 9.988074 
1.5519233e+2, 3.1379277e+2, 100682.06, -85610.2, -334.72562, 0.005999836, -0.0053837225, 100682.664, 100682.664, 0.0, 10.012692, 9.987998 
1.6490942e+2, 1.2394129e+2, -1780301.3, -1715486.9, 3051.4358, -0.025138024, -0.013149452, -1715343.5, 10030.576, 0.0, 9.994196, 10.002779 
1.6492486e+2, 1.3394205e+2, -1678664.6, -1638231.5, -3090.116, 0.009117678, -0.022426337, -1637996.8, -10630.771, 0.0, 9.99542, 10.000771 
1.6494012e+2, 1.4394169e+2, -1578864.9, -1561880.3, -3496.4753, 0.00622908, -0.039291512, -1561188.6, -31819.543, 0.0, 9.996518, 9.998759 
1.6495593e+2, 1.5394048e+2, -1468155.1, -1459044.0, -3703.2708, 0.011712598, -0.02465975, -1457728.6, -26347.678, 0.0, 9.997438, 9.998636 
1.6497152e+2, 1.639381e+2, -1374321.3, -1390050.3, -4416.0503, 0.009661495, -0.0113385245, -1373166.3, -39761.75, 0.0, 9.998323, 9.99623 
1.6498686e+2, 1.7393433e+2, -1264799.6, -1287829.4, -2311.823, -0.0032768112, -0.001152514, -1264569.8, -29127.965, 0.0, 9.999166, 9.996105 
1.6500227e+2, 1.839296e+2, -1165922.1, -1207614.3, -1527.8062, -0.0093166325, -0.0042790887, -1165866.1, -28378.076, 0.0, 10.000012, 9.99448 
1.6501786e+2, 1.9392382e+2, -1055614.3, -1104024.1, -2690.044, -0.0051744217, -0.02963673, -1055465.3, -15920.815, 0.0, 10.000866, 9.994442 
1.6503324e+2, 2.0391701e+2, -960005.06, -1033521.06, -5053.5547, -0.0073930086, -0.041468274, -959659.25, -18048.67, 0.0, 10.00184, 9.992092 
1.6504836e+2, 2.1390906e+2, -845975.7, -929119.6, -6488.485, -0.019133138, -0.034734398, -845472.4, -1783.8823, 0.0, 10.002992, 9.991967 
1.6506368e+2, 2.2389986e+2, -749580.06, -860918.8, -5728.911, -0.014275623, -0.03014095, -749286.06, -3507.2314, 0.0, 10.004133, 9.989379 
1.6507928e+2, 2.3388909e+2, -636099.1, -757121.3, -2316.95, 0.01542324, -0.031037794, -636054.8, 11829.749, 0.0, 10.005262, 9.989225 
1.6509493e+2, 2.4387754e+2, -536550.56, -675469.3, 702.40924, 0.024728527, -0.03154573, -536547.0, 13450.659, 0.0, 10.006103, 9.9876995 
1.6511053e+2, 2.538652e+2, -432740.72, -574871.94, -1371.2885, 0.002929217, -0.033642698, -432727.47, 19391.123, 0.0, 10.006507, 9.987678 
1.6512612e+2, 2.6385185e+2, -340758.84, -507253.97, -4205.5454, -0.0050012274, -0.023287935, -340652.7, 13597.251, 0.0, 10.007276, 9.985227 
1.6514154e+2, 2.738372e+2, -224155.03, -401679.38, -3866.049, 0.008363446, 0.0036997625, -224070.88, 32322.691, 0.0, 10.00861, 9.985098 
1.6515712e+2, 2.838212e+2, -126883.64, -330447.28, -1942.7146, 0.012702527, 0.0073381425, -126865.1, 31685.314, 0.0, 10.009692, 9.98274 
1.6517285e+2, 2.938035e+2, -19584.848, -228963.02, -3219.2183, 0.0027140754, -0.027706522, -19535.363, 41188.043, 0.0, 10.01037, 9.982648 
1.6518871e+2, 3.037889e+2, 80233.234, -91815.305, -2165.634, -0.00117631, -0.03844096, 80260.49, 80260.49, 0.0, 10.011123, 9.988325 
1.6520464e+2, 3.1377748e+2, 92774.734, -86181.02, 1408.2258, 0.004777562, -0.01310328, 92785.81, 92785.81, 0.0, 10.012002, 9.988291 
1.7490406e+2, 1.2392634e+2, -1787044.0, -1728968.5, 7904.265, 0.018682662, -0.02397685, -1727912.0, -2392.0728, 0.0, 9.994182, 10.001869 
1.7492016e+2, 1.3392632e+2, -1685992.4, -1653153.3, 1560.6593, -0.004725218, -0.010516572, -1653079.3, -25559.182, 0.0, 9.995416, 9.999758 
1.7493626e+2, 1.4392535e+2, -1580797.5, -1565852.1, 42.47534, -0.032170128, -0.01984055, -1565852.1, -36322.523, 0.0, 9.996518, 9.998487 
1.7495324e+2, 1.5392384e+2, -1469500.1, -1461771.8, -253.26424, -0.003069957, -0.017292103, -1461763.5, -30219.086, 0.0, 9.997437, 9.99845 
1.7496984e+2, 1.6392143e+2, -1370954.6, -1383128.0, -1218.183, 0.00891108, -0.018304322, -1370834.0, -37265.984, 0.0, 9.998323, 9.996698 
1.7498602e+2, 1.7391801e+2, -1260882.0, -1279781.0, 880.8927, -0.0047468883, -0.025290215, -1260841.1, -25239.87, 0.0, 9.9991665, 9.996651 
1.7500229e+2, 1.8391348e+2, -1167716.5, -1211324.8, 1689.5775, -0.009285593, -0.027974773, -1167651.1, -30005.625, 0.0, 10.000012, 9.994226 
1.7501879e+2, 1.939076e+2, -1058084.1, -1109163.6, 544.4266, 0.0002013023, -0.02682278, -1058078.3, -18375.168, 0.0, 10.000868, 9.99409 
1.7503524e+2, 2.039006e+2, -962553.94, -1038830.6, -843.0109, 0.008472515, -0.02336338, -962544.6, -20772.873, 0.0, 10.001842, 9.991729 
1.750517e+2, 2.1389227e+2, -848601.56, -934505.44, -2124.3252, 0.014816589, -0.018454805, -848549.06, -4695.356, 0.0, 10.002989, 9.991599 
1.7506807e+2, 2.2388321e+2, -744215.3, -849731.94, -1464.7163, 0.011890576, -0.012734434, -744195.0, 1747.6329, 0.0, 10.0041275, 9.990143 
1.7508435e+2, 2.338734e+2, -629819.2, -743954.1, 1893.1616, -0.00506236, -0.0078613525, -629787.8, 18250.951, 0.0, 10.005254, 9.990127 
1.7510068e+2, 2.4386214e+2, -539706.94, -681839.4, 2419.5325, -0.01049707, -0.011329853, -539665.75, 10483.062, 0.0, 10.006096, 9.987267 
1.7511705e+2, 2.5384906e+2, -436984.47, -583669.3, 88.12925, 0.0023042196, -0.029707856, -436984.4, 15292.308, 0.0, 10.006507, 9.987076 
1.7513351e+2, 2.638351e+2, -340038.38, -505812.34, 405.75534, 0.0068844995, -0.04382203, -340037.4, 14375.506, 0.0, 10.0072775, 9.985322 
1.7515005e+2, 2.738203e+2, -222980.0, -399004.1, 1134.02, -0.0017788723, -0.054086793, -222972.69, 33585.332, 0.0, 10.008599, 9.985283 
1.7516664e+2, 2.8380436e+2, -129163.6, -334808.8, 830.245, -0.005273022, -0.04605096, -129160.25, 29554.566, 0.0, 10.009676, 9.98245 
1.7518319e+2, 2.9378697e+2, -22179.922, -234225.27, -698.70966, -0.00032048355, -0.0121101225, -22177.62, 38707.883, 0.0, 10.0103655, 9.982289 
1.7519987e+2, 3.0377278e+2, 86201.22, -79404.46, 1016.47174, -0.00006996028, -0.00230612, 86207.46, 86207.46, 0.0, 10.011124, 9.989175 
1.7521656e+2, 3.1376174e+2, 99871.81, -71380.21, 4586.2, -0.0074536623, -0.033764157, 99994.55, 99994.55, 0.0, 10.012003, 9.989304 
1.8489867e+2, 1.23909734e+2, -1777930.1, -1728878.4, -1027.3788, 0.023878995, -0.028173065, -1728856.8, -3174.7107, 0.0, 9.994985, 10.001478 
1.849158e+2, 1.339093e+2, -1682155.0, -1656386.6, -3408.265, -0.004229423, -0.010661191, -1655943.5, -28256.832, 0.0, 9.9958935, 9.999301 
1.8493289e+2, 1.4390807e+2, -1577366.8, -1564712.5, -2438.6345, -0.033831127, -0.019384649, -1564258.8, -34559.957, 0.0, 9.996772, 9.998439 
1.8495071e+2, 1.5390652e+2, -1466802.3, -1460448.8, -1399.9048, -0.0064151594, -0.020728292, -1460154.0, -28439.963, 0.0, 9.997617, 9.99845 
1.8496823e+2, 1.6390415e+2, -1367463.6, -1379794.5, -2673.402, 0.0070312684, -0.024780137, -1366909.0, -33171.74, 0.0, 9.998487, 9.996843 
1.8498535e+2, 1.7390087e+2, -1256175.9, -1275692.0, -3492.5027, -0.00071426923, -0.033369582, -1255569.6, -19800.705, 0.0, 9.999406, 9.996809 
1.8500252e+2, 1.8389638e+2, -1164894.0, -1212181.4, -4196.862, -0.0031795793, -0.03283095, -1164524.4, -26711.414, 0.0, 10.000299, 9.994023 
1.850198e+2, 1.9389035e+2, -1055505.4, -1110634.8, -4558.9595, 0.0022570675, -0.021329291, -1055130.9, -15258.605, 0.0, 10.001159, 9.993844 
1.8503717e+2, 2.0388328e+2, -959771.7, -1036926.4, -3667.2512, 0.009779212, -0.015058735, -959597.75, -17655.84, 0.0, 10.002006, 9.9917755 
1.8505466e+2, 2.1387492e+2, -850139.7, -934301.44, -1586.7711, 0.020241875, -0.018691873, -850109.8, -6086.005, 0.0, 10.002842, 9.991682 
1.85072e+2, 2.2386591e+2, -750501.0, -852016.75, -1406.2014, 0.015962653, -0.015904639, -750481.5, -4369.324, 0.0, 10.003664, 9.990209 
1.8508914e+2, 2.338562e+2, -640848.94, -748580.56, -4187.907, -0.010779889, -0.005170284, -640686.4, 7520.778, 0.0, 10.004467, 9.990186 
1.8510635e+2, 2.43845e+2, -549784.56, -687239.1, -6340.159, -0.018382002, -0.0059553483, -549492.75, 824.14923, 0.0, 10.005426, 9.987216 
1.8512362e+2, 2.538318e+2, -435701.5, -583768.9, -4888.702, 0.0035321892, -0.026788203, -435540.25, 16905.402, 0.0, 10.006626, 9.987006 
1.8514097e+2, 2.6381785e+2, -335830.78, -503543.53, -2252.789, 0.010163142, -0.04360173, -335800.53, 18781.803, 0.0, 10.007553, 9.985341 
1.8515831e+2, 2.73803e+2, -230507.44, -402314.88, -2611.1755, -0.00743992, -0.056720197, -230467.77, 26259.645, 0.0, 10.008066, 9.98531 
1.851758e+2, 2.8378707e+2, -141132.1, -340220.72, -2413.4973, -0.012485047, -0.04938933, -141102.84, 17781.096, 0.0, 10.008835, 9.982481 
1.851934e+2, 2.9376978e+2, -26962.28, -236191.67, -1164.0289, 0.0022617145, -0.012854675, -26955.805, 34098.31, 0.0, 10.010018, 9.98232 
1.8521102e+2, 3.0375564e+2, 86647.5, -77122.266, -278.5391, 0.0058096186, -0.0029436143, 86647.98, 86647.98, 0.0, 10.011063, 9.989358 
1.8522845e+2, 3.1374478e+2, 99322.5, -69347.18, -2496.8967, -0.008763199, -0.037957195, 99359.45, 99359.45, 0.0, 10.011863, 9.989506 
1.9489332e+2, 1.2389142e+2, -1776864.4, -1726715.4, 2503.2053, -0.013493152, -0.025624394, -1726590.8, -729.38416, 0.0, 9.994986, 10.001622 
1.9491185e+2, 1.3389094e+2, -1681356.6, -1654684.0, -46.904484, 0.010116931, -0.023068376, -1654683.9, -26817.846, 0.0, 9.995892, 9.999415 
1.9493002e+2, 1.438898e+2, -1576084.0, -1562021.1, 754.8045, 0.0015340557, -0.038434442, -1561980.8, -32103.318, 0.0, 9.996769, 9.998621 
1.9494842e+2, 1.5388848e+2, -1465459.4, -1457653.8, 1808.6003, 0.0013013857, -0.03523718, -1457255.0, -25364.564, 0.0, 9.997615, 9.998639 
1.9496667e+2, 1.638862e+2, -1368759.4, -1382491.4, 761.9537, 0.0027414323, -0.03081528, -1368717.3, -34804.53, 0.0, 9.99849, 9.996656 
1.9498485e+2, 1.7388284e+2, -1257805.6, -1279074.9, -17.479038, 0.007870676, -0.025326936, -1257805.6, -21860.041, 0.0, 9.999409, 9.996575 
1.9500293e+2, 1.8387821e+2, -1165899.3, -1214277.1, -940.5199, 0.007932215, -0.018682847, -1165881.0, -27889.975, 0.0, 10.0003, 9.993878 
1.9502094e+2, 1.9387199e+2, -1056471.3, -1112635.3, -1309.7657, 0.00002873368, -0.013104493, -1056440.6, -16388.36, 0.0, 10.00116, 9.993707 
1.9503905e+2, 2.0386495e+2, -956562.8, -1030330.06, -530.3796, -0.004308463, -0.016354393, -956559.0, -14437.471, 0.0, 10.002007, 9.992222 
1.9505727e+2, 2.1385697e+2, -846404.6, -926618.06, 1535.4938, -0.0030654254, -0.035084836, -846375.25, -2175.9756, 0.0, 10.002842, 9.992204 
1.9507548e+2, 2.238479e+2, -754725.5, -860797.5, 1595.8276, -0.0026301777, -0.039040383, -754701.5, -8413.604, 0.0, 10.003666, 9.989608 
1.9509369e+2, 2.3383753e+2, -646105.94, -759499.2, -1168.8425, -0.0034178293, -0.022167498, -646093.9, 2295.9602, 0.0, 10.004469, 9.989438 
1.9511196e+2, 2.4382612e+2, -547561.06, -682627.1, -2007.7969, -0.0011835702, -0.014944966, -547531.2, 2970.6248, 0.0, 10.005426, 9.98753 
1.9513026e+2, 2.538135e+2, -432604.2, -577202.0, -389.87698, 0.005817942, -0.024867954, -432603.16, 20022.418, 0.0, 10.0066185, 9.987457 
1.9514845e+2, 2.6379994e+2, -336258.75, -504351.3, -104.25383, 0.004373661, -0.023684219, -336258.7, 18499.848, 0.0, 10.00755, 9.985287 
1.9516636e+2, 2.737853e+2, -231226.16, -404048.75, -780.38873, -0.010026806, -0.0077790045, -231222.64, 25679.527, 0.0, 10.008077, 9.985185 
1.9518468e+2, 2.8376934e+2, -138548.88, -335203.72, 1618.3427, -0.010983474, -0.0057074893, -138535.56, 20522.693, 0.0, 10.00885, 9.982815 
1.9520351e+2, 2.9375184e+2, -24144.14, -230379.72, 3168.6208, 0.009657144, -0.028400788, -24095.47, 37134.06, 0.0, 10.01002, 9.982715 
1.9522218e+2, 3.0373755e+2, 83561.7, -83426.414, 2763.0122, 0.015619841, -0.037789777, 83607.414, 83607.414, 0.0, 10.011058, 9.988927 
1.9524041e+2, 3.1372663e+2, 95502.24, -77329.8, 377.98047, -0.002404839, -0.027658498, 95503.07, 95503.07, 0.0, 10.011865, 9.9889555 
2.0488833e+2, 1.23872004e+2, -1770283.3, -1720222.0, -2698.637, -0.02303188, -0.029460963, -1720076.9, 5974.6475, 0.0, 9.995284, 10.001914 
2.0490766e+2, 1.3387178e+2, -1682963.0, -1652407.5, -4426.4824, 0.014027069, -0.029648397, -1651779.1, -23725.383, 0.0, 9.9956455, 9.999688 
2.0492662e+2, 1.4387082e+2, -1583424.4, -1565009.1, -2482.9624, 0.01134586, -0.042628847, -1564680.3, -34617.066, 0.0, 9.996243, 9.998672 
2.0494583e+2, 1.5386961e+2, -1471190.9, -1460199.4, -2603.6978, 0.0015176032, -0.03015916, -1459613.9, -27538.598, 0.0, 9.997211, 9.998658 
2.0496497e+2, 1.638673e+2, -1374937.6, -1387934.4, -4395.5444, -0.0015282705, -0.022828083, -1373590.6, -39492.477, 0.0, 9.998173, 9.996437 
2.049841e+2, 1.7386362e+2, -1263782.8, -1284754.6, -5308.1616, 0.0066354577, -0.024532292, -1262515.8, -26381.73, 0.0, 9.999118, 9.9963255 
2.0500313e+2, 1.8385887e+2, -1167542.8, -1213216.3, -5173.1807, 0.008536212, -0.022835344, -1166964.1, -28783.563, 0.0, 10.000106, 9.9940405 
2.0502211e+2, 1.9385284e+2, -1054969.3, -1109480.0, -2927.219, 0.00033719034, -0.018449996, -1054812.5, -14572.604, 0.0, 10.001155, 9.99392 
2.050411e+2, 2.0384593e+2, -954412.25, -1028997.8, -2351.281, -0.0066174227, -0.020026678, -954338.2, -12030.617, 0.0, 10.002139, 9.992246 
2.0506012e+2, 2.1383801e+2, -843729.7, -925346.0, -4197.475, -0.011602477, -0.032666314, -843514.4, 870.4186, 0.0, 10.003025, 9.992197 
2.050792e+2, 2.2382884e+2, -753018.2, -862425.56, -5209.726, -0.009296933, -0.037791852, -752770.7, -6296.132, 0.0, 10.003887, 9.989385 
2.0509836e+2, 2.3381808e+2, -644168.75, -761343.5, -4373.8574, 0.0040480196, -0.033728935, -644005.7, 4574.4746, 0.0, 10.004721, 9.989187 
2.0511755e+2, 2.4380659e+2, -544645.94, -679666.7, -3052.631, 0.0097010685, -0.028191565, -544576.94, 6116.191, 0.0, 10.005556, 9.987666 
2.0513675e+2, 2.5379428e+2, -434358.22, -575953.8, -3247.0679, 0.003017503, -0.02212237, -434283.8, 18529.902, 0.0, 10.006405, 9.987641 
2.0515588e+2, 2.6378086e+2, -339042.53, -506904.34, -4584.699, -0.00056407735, -0.012159362, -338917.4, 16028.032, 0.0, 10.00741, 9.985175 
2.0517485e+2, 2.7376604e+2, -223707.48, -402069.38, -5492.6465, 0.0011153815, 0.00060940953, -223538.5, 33552.355, 0.0, 10.008661, 9.985034 
2.0519404e+2, 2.8375003e+2, -126254.73, -327809.72, -4026.192, 0.0029579746, -0.0018503515, -126174.336, 33073.27, 0.0, 10.00963, 9.98294 
2.0521353e+2, 2.9373264e+2, -21288.57, -227123.34, -4161.6704, 0.00467144, -0.030752098, -21204.463, 40213.207, 0.0, 10.010135, 9.982877 
2.0523305e+2, 3.037183e+2, 78618.52, -89431.72, -4668.608, 0.0069166766, -0.04185141, 78748.125, 78748.125, 0.0, 10.010869, 9.988601 
2.0525244e+2, 3.13707e+2, 94616.27, -82201.555, -5964.6343, 0.010158411, -0.026676802, 94817.25, 94817.25, 0.0, 10.011991, 9.988557 
2.1488382e+2, 1.2385145e+2, -1767205.3, -1713771.8, -1052.3608, -0.005155825, -0.03989531, -1713751.0, 12502.075, 0.0, 9.995279, 10.002354 
2.1490324e+2, 1.3385175e+2, -1680031.0, -1646185.9, -3128.915, 0.006417557, -0.030403957, -1645899.0, -17648.826, 0.0, 9.995638, 10.000113 
2.1492268e+2, 1.4385112e+2, -1584152.9, -1566292.5, 902.8471, -0.006327613, -0.031565495, -1566247.0, -35990.363, 0.0, 9.996233, 9.998587 
2.1494296e+2, 1.538499e+2, -1472356.0, -1462453.0, 1085.3062, -0.007103136, -0.004988947, -1462335.5, -30066.553, 0.0, 9.997206, 9.998507 
2.149631e+2, 1.6384736e+2, -1376733.8, -1391592.1, -808.5101, -0.007061261, -0.00042338957, -1376689.9, -42395.875, 0.0, 9.998172, 9.996186 
2.149831e+2, 1.7384313e+2, -1265680.9, -1288651.8, -1714.745, -0.005203858, -0.030855393, -1265553.6, -29218.564, 0.0, 9.999119, 9.9960575 
2.1500315e+2, 1.8383828e+2, -1164193.0, -1206306.0, -1267.7255, -0.0024240236, -0.045286674, -1164154.9, -25772.6, 0.0, 10.000105, 9.99451 
2.1502328e+2, 1.9383284e+2, -1050906.9, -1101148.5, 1035.318, 0.0018992429, -0.037357423, -1050885.5, -10450.13, 0.0, 10.001156, 9.994485 
2.1504332e+2, 2.038262e+2, -957136.0, -1034680.3, 1016.25964, 0.0013399067, -0.026011987, -957122.7, -14622.205, 0.0, 10.002143, 9.991855 
2.1506318e+2, 2.1381806e+2, -847397.0, -932905.5, -881.9848, -0.0068205064, -0.011766436, -847387.94, -2807.2795, 0.0, 10.003023, 9.991681 
2.1508314e+2, 2.238087e+2, -752014.6, -860314.56, -2061.5095, -0.005473, -0.012667763, -751975.4, -5303.0337, 0.0, 10.003885, 9.989528 
2.1510315e+2, 2.3379785e+2, -642549.0, -757969.0, -1247.4104, 0.0108954, -0.039743807, -642535.5, 6242.8726, 0.0, 10.004719, 9.989417 
2.1512315e+2, 2.4378635e+2, -544827.9, -680099.56, 104.83354, 0.0136044305, -0.045280375, -544827.8, 6063.2715, 0.0, 10.005559, 9.987633 
2.1514308e+2, 2.537742e+2, -434784.28, -576902.75, -84.81469, -0.005451641, -0.018428216, -434784.25, 18226.123, 0.0, 10.006408, 9.987575 
2.1516326e+2, 2.637607e+2, -340153.06, -509180.72, -89.9733, -0.0057595153, -0.008304457, -340153.0, 14990.097, 0.0, 10.007408, 9.985019 
2.1518375e+2, 2.7374536e+2, -225147.66, -404690.9, -761.0639, 0.024057165, -0.028531726, -225144.44, 32148.908, 0.0, 10.008646, 9.98486 
2.1520394e+2, 2.837292e+2, -126961.0, -328849.53, -1799.4474, 0.027263967, -0.035143215, -126944.96, 32506.809, 0.0, 10.009612, 9.982877 
2.1522349e+2, 2.9371217e+2, -21565.045, -227794.95, -2317.8445, -0.012308449, -0.021458918, -21538.998, 40079.47, 0.0, 10.010139, 9.982826 
2.1524365e+2, 3.0369782e+2, 77205.44, -92702.836, -768.6754, -0.019648692, -0.017711902, 77208.914, 77208.914, 0.0, 10.010884, 9.988366 
2.1526462e+2, 3.1368598e+2, 92721.21, -86067.34, -1655.021, 0.026213353, -0.033608764, 92736.53, 92736.53, 0.0, 10.011988, 9.98829 
2.248784e+2, 1.2383062e+2, -1787722.4, -1723778.4, -569.5936, -0.004392509, -0.033698503, -1723773.3, 2684.3115, 0.0, 9.993886, 10.002351 
2.2489877e+2, 1.3383088e+2, -1681333.0, -1647374.3, -6476.5244, 0.00053537067, -0.02356323, -1646181.0, -17725.938, 0.0, 9.99557, 10.000061 
2.249192e+2, 1.4383024e+2, -1573304.3, -1559912.1, -4216.8164, -0.010564662, -0.025148524, -1558695.0, -28233.691, 0.0, 9.996919, 9.998681 
2.2494046e+2, 1.5382908e+2, -1463447.1, -1456829.1, -2145.8132, -0.0038273882, -0.004705932, -1456194.3, -23721.361, 0.0, 9.997753, 9.998618 
2.2496152e+2, 1.6382654e+2, -1370877.9, -1389420.8, -2262.501, -0.0024297696, -0.0030970918, -1370605.8, -36107.92, 0.0, 9.998595, 9.996125 
2.2498237e+2, 1.7382225e+2, -1261099.4, -1287388.1, -1826.8267, -0.008909529, -0.031161226, -1260973.0, -24433.473, 0.0, 9.999468, 9.995973 
2.2500327e+2, 1.8381736e+2, -1161805.4, -1205458.1, -2319.7139, -0.008958906, -0.04444324, -1161682.5, -23095.225, 0.0, 10.000278, 9.99448 
2.2502436e+2, 1.938119e+2, -1053417.3, -1102614.9, -4404.9434, 0.0008028231, -0.03743367, -1053026.0, -12385.344, 0.0, 10.000994, 9.994459 
2.2504534e+2, 2.0380516e+2, -963110.3, -1039234.06, -5939.554, 0.0057133636, -0.027290903, -962649.7, -19943.053, 0.0, 10.001802, 9.991704 
2.2506617e+2, 2.1379681e+2, -852257.44, -937143.44, -5287.3433, 0.0027323961, -0.014973791, -851929.4, -7140.594, 0.0, 10.00277, 9.991509 
2.2508705e+2, 2.2378747e+2, -751670.3, -857605.0, -4572.348, 0.003540599, -0.014047209, -751473.4, -4593.0347, 0.0, 10.003797, 9.989751 
2.2510795e+2, 2.3377699e+2, -637676.8, -752480.6, -3381.6729, 0.010069626, -0.032798372, -637577.3, 11405.516, 0.0, 10.004914, 9.989694 
2.2512883e+2, 2.437656e+2, -540549.25, -679598.3, -2639.566, 0.007962813, -0.037738696, -540499.2, 10595.27, 0.0, 10.005917, 9.987491 
2.2514963e+2, 2.5375313e+2, -431341.84, -577494.25, -3875.144, -0.00796055, -0.022918312, -431239.16, 21977.627, 0.0, 10.006739, 9.98737 
2.2517066e+2, 2.6373944e+2, -338948.9, -507488.28, -3490.8994, -0.0071743163, -0.019767016, -338876.63, 16474.225, 0.0, 10.00744, 9.985114 
2.25192e+2, 2.737243e+2, -234248.23, -407525.56, -1972.7539, 0.020314384, -0.038009673, -234225.78, 23273.762, 0.0, 10.007951, 9.984999 
2.2521313e+2, 2.8370813e+2, -139583.52, -337008.6, -1618.8623, 0.024538832, -0.041065708, -139570.23, 20087.465, 0.0, 10.008829, 9.982694 
2.2523375e+2, 2.9369095e+2, -20666.518, -229948.7, -3326.9707, -0.008807026, -0.021777073, -20613.64, 41212.65, 0.0, 10.010307, 9.982596 
2.2525483e+2, 3.0367658e+2, 85312.91, -87724.8, -2347.18, -0.015700568, -0.013392651, 85344.734, 85344.734, 0.0, 10.011393, 9.9884615 
2.2527644e+2, 3.1366488e+2, 91271.36, -85161.63, -597.48535, 0.020747768, -0.025700253, 91273.38, 91273.38, 0.0, 10.011815, 9.988436 
2.3487209e+2, 1.2380949e+2, -1791442.9, -1730723.1, 5770.0195, -0.02449673, -0.009432976, -1730179.6, -3514.4602, 0.0, 9.993855, 10.001891 
2.348943e+2, 1.3380912e+2, -1685413.8, -1655480.6, -90.17924, -0.0042555737, -0.008437957, -1655480.4, -26811.59, 0.0, 9.995558, 9.999513 
2.3491623e+2, 1.4380817e+2, -1571323.1, -1555823.9, -764.19257, -0.0014312343, -0.023384491, -1555786.3, -25108.479, 0.0, 9.996918, 9.998958 
2.3493837e+2, 1.5380712e+2, -1460695.5, -1451157.6, 972.7771, 0.0100235725, -0.029876504, -1451059.4, -18371.578, 0.0, 9.997752, 9.999002 
2.3496026e+2, 1.6380481e+2, -1369921.9, -1387503.9, 1012.1863, 0.010437201, -0.03146599, -1369863.8, -35153.543, 0.0, 9.998598, 9.996252 
2.3498188e+2, 1.7380095e+2, -1260416.5, -1286003.9, 1492.7646, -0.005502127, -0.025674975, -1260329.8, -23581.549, 0.0, 9.99947, 9.996063 
2.3500352e+2, 1.8379606e+2, -1165496.0, -1213066.4, 453.49274, -0.012135383, -0.020265147, -1165491.6, -26695.527, 0.0, 10.000279, 9.993961 
2.350253e+2, 1.9378994e+2, -1057680.4, -1111451.4, -1686.0725, -0.0039973827, -0.018743582, -1057627.6, -16771.605, 0.0, 10.000996, 9.9938545 
2.3504713e+2, 2.0378277e+2, -962462.7, -1038018.2, -2407.7542, 0.0052507827, -0.023871876, -962386.06, -19459.736, 0.0, 10.001808, 9.991781 
2.350691e+2, 2.1377428e+2, -851004.6, -934603.94, -1616.7632, 0.016076516, -0.04157776, -850973.3, -5963.961, 0.0, 10.002772, 9.99168 
2.3509099e+2, 2.2376516e+2, -749533.6, -853151.9, -421.83768, 0.016717928, -0.041118827, -749531.9, -2433.2566, 0.0, 10.003794, 9.990054 
2.3511279e+2, 2.3375547e+2, -635512.5, -747816.5, 802.87366, 0.0009265591, -0.01367646, -635506.75, 13687.123, 0.0, 10.004906, 9.990014 
2.351346e+2, 2.4374425e+2, -542483.7, -683323.2, 499.37308, -0.008128619, -0.0065718163, -542481.94, 8821.786, 0.0, 10.005905, 9.98724 
2.3515639e+2, 2.5373104e+2, -433867.47, -582415.3, -825.6296, -0.0057844617, -0.034895733, -433862.88, 19570.305, 0.0, 10.006725, 9.987038 
2.3517811e+2, 2.6371717e+2, -336723.06, -502708.06, -1478.1606, -0.0054794988, -0.045501422, -336709.9, 18858.95, 0.0, 10.007433, 9.985443 
2.3519966e+2, 2.7370277e+2, -231089.77, -401245.75, -178.64868, -0.008761362, -0.029500443, -231089.58, 26620.629, 0.0, 10.007964, 9.98542 
2.3522167e+2, 2.8368685e+2, -141391.03, -341107.44, 3336.5369, -0.004555234, -0.021653652, -141335.3, 18530.977, 0.0, 10.008843, 9.982404 
2.3524427e+2, 2.93669e+2, -23663.35, -235841.66, 2207.0796, 0.012639846, -0.030484384, -23640.395, 38401.156, 0.0, 10.010292, 9.982198 
2.3526655e+2, 3.0365452e+2, 87714.93, -82177.66, -283.9946, 0.015746133, -0.027053634, 87715.4, 87715.4, 0.0, 10.011371, 9.98885 
2.3528802e+2, 3.1364363e+2, 94937.94, -77708.984, 846.1845, -0.005366603, -0.0053853956, 94942.086, 94942.086, 0.0, 10.011826, 9.988938 
2.4486661e+2, 1.2378704e+2, -1772306.8, -1721584.5, 1830.6517, -0.02161537, -0.007218065, -1721518.5, 5366.5454, 0.0, 9.995153, 10.001873 
2.4488996e+2, 1.3378653e+2, -1682855.4, -1655025.4, -577.6925, -0.002976866, -0.011811608, -1655013.4, -26123.537, 0.0, 9.99576, 9.999442 
2.4491294e+2, 1.4378548e+2, -1579183.5, -1561270.8, -1712.9968, 0.00058857055, -0.028385114, -1561108.4, -30208.463, 0.0, 9.996451, 9.998812 
2.4493586e+2, 1.5378423e+2, -1468561.9, -1456752.0, -4207.228, 0.0073766825, -0.038711295, -1455406.5, -22494.678, 0.0, 9.997291, 9.998841 
2.4495864e+2, 1.6378187e+2, -1375119.0, -1389659.9, -6336.0347, 0.008351283, -0.038223345, -1372745.6, -37810.695, 0.0, 9.998224, 9.996281 
2.4498132e+2, 1.7377816e+2, -1262299.3, -1286284.5, -6154.194, 0.0011262568, -0.02138865, -1260812.4, -23840.914, 0.0, 9.9993105, 9.996115 
2.4500394e+2, 1.8377331e+2, -1164532.1, -1213233.4, -6214.516, -0.0021255533, -0.011873573, -1163751.6, -24732.518, 0.0, 10.00037, 9.993899 
2.4502653e+2, 1.9376706e+2, -1052469.6, -1109723.1, -4451.028, 0.00029893202, -0.01723977, -1052125.6, -11045.315, 0.0, 10.001383, 9.99378 
2.4504916e+2, 2.0375985e+2, -954510.44, -1032961.25, -2834.946, 0.0036240034, -0.026574448, -954408.1, -11257.218, 0.0, 10.0022955, 9.991887 
2.4507193e+2, 2.1375148e+2, -845835.7, -930639.75, -2367.9465, 0.008135623, -0.044026207, -845769.6, -536.9456, 0.0, 10.003059, 9.991809 
2.4509466e+2, 2.237424e+2, -751146.2, -855546.44, -2813.824, 0.0065415176, -0.0427693, -751070.4, -3748.6501, 0.0, 10.003751, 9.989908 
2.4511734e+2, 2.337325e+2, -645112.6, -754550.0, -5271.101, -0.0049525043, -0.014108121, -644859.4, 4559.353, 0.0, 10.004335, 9.989823 
2.4514008e+2, 2.4372122e+2, -554360.75, -688426.06, -6519.7305, -0.00815193, -0.0070105973, -554044.44, -2515.015, 0.0, 10.00506, 9.987293 
2.4516283e+2, 2.5370806e+2, -443542.88, -586071.56, -4850.8257, 0.001793576, -0.03707903, -443377.97, 10280.237, 0.0, 10.006015, 9.987126 
2.4518548e+2, 2.636943e+2, -340714.6, -504517.03, -4416.2485, 0.0024135131, -0.045421366, -340595.6, 15197.559, 0.0, 10.007151, 9.985452 
2.452079e+2, 2.7367997e+2, -222085.02, -396912.6, -6049.947, -0.012445605, -0.021173168, -221875.9, 36057.9, 0.0, 10.008578, 9.9854145 
2.452308e+2, 2.836641e+2, -130158.19, -334370.97, -3530.8767, -0.011051087, -0.013004067, -130097.16, 29992.24, 0.0, 10.009556, 9.982515 
2.4525437e+2, 2.9364622e+2, -29994.102, -237387.84, -1083.8125, 0.01746969, -0.034161553, -29988.438, 32276.059, 0.0, 10.0097885, 9.98233 
2.4527751e+2, 3.0363184e+2, 75322.92, -86986.71, -1884.5583, 0.022008814, -0.034599062, 75344.8, 75344.8, 0.0, 10.010462, 9.9889555 
2.4529977e+2, 3.136212e+2, 96538.19, -75841.69, -3489.8752, -0.014044309, -0.0026564838, 96608.81, 96608.81, 0.0, 10.011883, 9.989036 
2.5486204e+2, 1.2376322e+2, -1769111.3, -1715166.1, 4128.518, 0.0029512534, -0.028295074, -1714852.0, 12265.838, 0.0, 9.995162, 10.002303 
2.548858e+2, 1.337631e+2, -1680025.3, -1648997.1, 1595.2052, 0.0036962556, -0.0348118, -1648915.4, -19796.67, 0.0, 9.995752, 9.999853 
2.549093e+2, 1.4376213e+2, -1583472.0, -1569769.8, 1341.0376, -0.005686212, -0.040697232, -1569639.8, -38511.566, 0.0, 9.996439, 9.998239 
2.5493294e+2, 1.5376039e+2, -1473758.1, -1467236.0, -1021.9287, -0.013394681, -0.030763788, -1467079.6, -33934.24, 0.0, 9.997282, 9.998131 
2.549567e+2, 1.6375768e+2, -1375694.0, -1390773.8, -2358.7634, -0.01065866, -0.022768892, -1375333.6, -40161.4, 0.0, 9.998221, 9.996203 
2.5498074e+2, 1.7375384e+2, -1262243.6, -1286123.3, -2026.8824, 0.010040747, -0.018257242, -1262072.8, -24862.855, 0.0, 9.999309, 9.996123 
2.5500453e+2, 1.8374908e+2, -1161669.4, -1207343.6, -2347.2932, 0.01999647, -0.019342864, -1161549.0, -22292.367, 0.0, 10.00037, 9.994297 
2.5502804e+2, 1.937432e+2, -1049238.1, -1103039.0, -613.7173, 0.012293795, -0.03278203, -1049231.1, -7917.061, 0.0, 10.001381, 9.994234 
2.5505143e+2, 2.0373635e+2, -953590.4, -1031036.8, 132.45209, -0.0006099891, -0.035595067, -953590.2, -10209.164, 0.0, 10.0022955, 9.992016 
2.5507468e+2, 2.1372838e+2, -845248.75, -929390.9, 468.40378, -0.021591887, -0.023261918, -845246.1, 213.07947, 0.0, 10.0030575, 9.991892 
2.5509807e+2, 2.237191e+2, -755196.2, -863904.44, -578.92255, -0.027491475, -0.019685835, -755193.1, -7643.034, 0.0, 10.003751, 9.989336 
2.5512165e+2, 2.3370814e+2, -649755.3, -764298.7, -3056.0276, -0.0087140845, -0.03298156, -649673.9, -16.415382, 0.0, 10.004343, 9.989153 
2.5514528e+2, 2.436965e+2, -551809.25, -683385.7, -3072.1467, 0.005990604, -0.03781439, -551737.56, 34.043415, 0.0, 10.005071, 9.987631 
2.5516897e+2, 2.536842e+2, -439966.3, -578879.2, -1268.0559, 0.013654731, -0.03031499, -439954.75, 13937.54, 0.0, 10.006024, 9.987611 
2.5519276e+2, 2.6367074e+2, -342670.44, -508603.06, 678.0529, 0.015031643, -0.021089785, -342667.66, 13356.524, 0.0, 10.007152, 9.985169 
2.552167e+2, 2.7365586e+2, -225194.14, -402892.2, -651.0838, 0.0064400584, -0.012764444, -225191.77, 32978.582, 0.0, 10.008557, 9.985013 
2.552405e+2, 2.8363985e+2, -127139.414, -327528.25, -2106.1626, 0.0024690973, -0.013946264, -127117.28, 33209.69, 0.0, 10.009532, 9.982992 
2.5526404e+2, 2.936226e+2, -25674.59, -228405.73, -411.68137, 0.006774437, -0.03336984, -25673.754, 36821.887, 0.0, 10.00979, 9.982942 
2.5528783e+2, 3.0360848e+2, 74471.19, -89077.516, 2643.188, 0.0045256466, -0.036584314, 74513.89, 74513.89, 0.0, 10.010475, 9.988802 
2.5531173e+2, 3.1359747e+2, 94722.234, -79760.18, 1770.3346, -0.009026664, -0.015182618, 94740.195, 94740.195, 0.0, 10.0118885, 9.98876 
2.6485702e+2, 1.2373857e+2, -1775563.8, -1718302.0, -229.11522, 0.009944149, -0.037417002, -1718301.0, 9058.227, 0.0, 9.994719, 10.002302 
2.6488143e+2, 1.3373849e+2, -1682310.4, -1650585.3, -6382.39, 0.0019514087, -0.03581118, -1649349.4, -19989.58, 0.0, 9.995613, 9.999807 
2.6490584e+2, 1.4373755e+2, -1580582.6, -1569108.1, -5817.2993, -0.007427974, -0.033876624, -1566674.9, -35305.77, 0.0, 9.996662, 9.998167 
2.6493058e+2, 1.5373567e+2, -1464163.6, -1463366.4, -3280.1145, -0.012149722, -0.028940776, -1460460.8, -27073.178, 0.0, 9.997966, 9.998056 
2.6495525e+2, 1.637329e+2, -1364370.8, -1384420.3, -2357.2817, -0.009992559, -0.025426038, -1364097.4, -28682.426, 0.0, 9.998951, 9.99628 
2.6498005e+2, 1.7372915e+2, -1259723.6, -1283814.3, -1540.7642, 0.004103291, -0.023669017, -1259625.5, -22173.658, 0.0, 9.999429, 9.996222 
2.6500463e+2, 1.8372443e+2, -1166530.4, -1209832.5, -2324.5417, 0.011607906, -0.025131537, -1166406.0, -26907.854, 0.0, 10.00004, 9.994287 
2.650291e+2, 1.9371854e+2, -1056654.6, -1106990.5, -4139.531, 0.0080108, -0.03528214, -1056316.5, -14760.858, 0.0, 10.000887, 9.9942 
2.6505348e+2, 2.0371166e+2, -962293.7, -1036732.9, -6577.0845, -0.0006193095, -0.033738554, -961717.06, -18094.074, 0.0, 10.0017605, 9.991881 
2.6507762e+2, 2.137036e+2, -851836.56, -934271.2, -8031.91, -0.0173089, -0.015304378, -851061.3, -5359.1406, 0.0, 10.002677, 9.991737 
2.6510188e+2, 2.2369426e+2, -755372.5, -863108.4, -7805.0537, -0.01987891, -0.012651313, -754810.0, -7016.353, 0.0, 10.003696, 9.989409 
2.6512635e+2, 2.3368329e+2, -641037.3, -758797.56, -4613.8765, -0.000004211247, -0.038185194, -640856.8, 9044.182, 0.0, 10.00488, 9.989265 
2.6515082e+2, 2.4367167e+2, -539492.1, -677413.2, -2543.8826, 0.0119390935, -0.046054427, -539445.2, 12569.514, 0.0, 10.00591, 9.987631 
2.6517528e+2, 2.5365946e+2, -430360.47, -574434.7, -4303.5327, 0.010281461, -0.026550515, -430232.03, 23902.518, 0.0, 10.006687, 9.987591 
2.6519996e+2, 2.6364607e+2, -339421.72, -506415.22, -3140.2068, 0.010046741, -0.014158671, -339362.7, 16903.361, 0.0, 10.007343, 9.985221 
2.652249e+2, 2.7363113e+2, -235614.08, -407176.22, -1208.0768, 0.012672063, -0.017367959, -235605.56, 22806.996, 0.0, 10.007805, 9.98508 
2.6524958e+2, 2.836151e+2, -142210.03, -335924.25, -3111.3748, 0.0085059805, -0.021616513, -142160.06, 18409.408, 0.0, 10.008541, 9.982894 
2.6527366e+2, 2.9359788e+2, -27314.346, -230651.1, -6620.647, -0.007234944, -0.029558701, -27099.006, 35639.406, 0.0, 10.009736, 9.982809 
2.6529834e+2, 3.035837e+2, 81659.38, -84004.6, -3930.5095, -0.009425786, -0.03202301, 81752.586, 81752.586, 0.0, 10.010895, 9.988941 
2.6532385e+2, 3.135727e+2, 97539.04, -76273.36, -1457.3467, 0.011519655, -0.028159006, 97551.26, 97551.26, 0.0, 10.011984, 9.98895 
2.7485162e+2, 1.2371308e+2, -1779141.5, -1725206.8, 3037.059, -0.0040233107, -0.0332525, -1725036.3, 2573.0806, 0.0, 9.994703, 10.001837 
2.7487695e+2, 1.3371266e+2, -1686313.3, -1658441.4, -3099.2188, -0.009422783, -0.013664591, -1658100.9, -28487.219, 0.0, 9.995599, 9.999277 
2.7490252e+2, 1.4371166e+2, -1577538.6, -1562644.1, -1162.9128, -0.005554873, -0.007136329, -1562553.9, -30930.361, 0.0, 9.996653, 9.998609 
2.7492878e+2, 1.5371004e+2, -1460036.3, -1454814.5, 1652.3796, 0.009996141, -0.033394787, -1454335.6, -20696.768, 0.0, 9.997961, 9.998638 
2.749544e+2, 1.6370752e+2, -1362696.1, -1381023.8, -187.74326, 0.009037856, -0.0465926, -1362694.3, -27031.096, 0.0, 9.998954, 9.996507 
2.7497923e+2, 1.7370403e+2, -1258492.6, -1281219.5, 252.83304, -0.017414613, -0.0377127, -1258489.9, -20792.322, 0.0, 9.999428, 9.996396 
2.750043e+2, 1.8369932e+2, -1169536.0, -1215993.5, 715.44714, -0.028380243, -0.029151563, -1169525.0, -29781.148, 0.0, 10.000039, 9.993865 
2.7502978e+2, 1.9369307e+2, -1060254.0, -1114444.6, -899.8453, -0.013633049, -0.025136769, -1060239.1, -18433.861, 0.0, 10.000888, 9.99369 
2.7505523e+2, 2.0368576e+2, -965025.0, -1042477.3, -3123.9897, 0.0020809881, -0.021280017, -964899.2, -21022.092, 0.0, 10.001766, 9.991485 
2.7508065e+2, 2.1367714e+2, -854416.25, -939767.7, -4505.707, 0.018757474, -0.01978945, -854179.06, -8217.345, 0.0, 10.002685, 9.991356 
2.7510604e+2, 2.2366785e+2, -750403.75, -852923.3, -3415.967, 0.026588341, -0.021379152, -750290.06, -2237.3196, 0.0, 10.0037, 9.9901 
2.7513143e+2, 2.3365788e+2, -635083.94, -746311.2, -178.21893, 0.019684542, -0.030500716, -635083.7, 15066.357, 0.0, 10.004871, 9.990119 
2.751567e+2, 2.4364668e+2, -541857.75, -682009.5, 481.83618, 0.008767369, -0.032653257, -541856.06, 10403.541, 0.0, 10.0058975, 9.987321 
2.751818e+2, 2.5363386e+2, -434000.56, -581697.9, -1423.9655, -0.008165128, -0.025574844, -433986.8, 20398.596, 0.0, 10.006676, 9.987097 
2.752071e+2, 2.6362023e+2, -337023.06, -501231.1, -1310.7616, -0.011992586, -0.023702437, -337012.6, 19506.518, 0.0, 10.007336, 9.985577 
2.7523264e+2, 2.736057e+2, -232172.52, -399979.34, 361.68347, 0.0063299946, -0.034020327, -232171.73, 26489.48, 0.0, 10.007805, 9.98557 
2.752581e+2, 2.8358972e+2, -146462.88, -344854.6, 832.91144, 0.006467038, -0.035077818, -146459.38, 14358.269, 0.0, 10.008545, 9.982279 
2.7528325e+2, 2.935719e+2, -32715.713, -242182.28, -2110.504, -0.024636734, -0.02299778, -32694.45, 30298.459, 0.0, 10.009748, 9.982011 
2.7530915e+2, 3.035575e+2, 84519.72, -78217.98, 250.14401, -0.0205433, -0.021673974, 84520.1, 84520.1, 0.0, 10.010902, 9.989331 
2.7533618e+2, 3.135468e+2, 101253.7, -67873.42, 2494.6353, 0.04413234, -0.04161534, 101290.49, 101290.49, 0.0, 10.011956, 9.989535 
2.8484657e+2, 1.2368694e+2, -1772071.5, -1723083.4, 1564.5936, -0.004432456, -0.025809057, -1723033.4, 4832.0522, 0.0, 9.995231, 10.001721 
2.848729e+2, 1.336863e+2, -1677123.9, -1655580.5, -1655.0024, -0.009353004, -0.01365428, -1655454.1, -25582.203, 0.0, 9.996286, 9.999136 
2.8489938e+2, 1.4368525e+2, -1572176.1, -1559675.1, -226.81079, -0.0016998912, -0.0052283756, -1559671.0, -27788.707, 0.0, 9.996996, 9.998642 
2.8492633e+2, 1.536837e+2, -1471553.4, -1459798.3, -1518.0535, 0.010516275, -0.031996865, -1459605.4, -25708.297, 0.0, 9.997147, 9.998692 
2.849528e+2, 1.6368118e+2, -1380034.8, -1390191.1, -5767.6816, 0.008088382, -0.045099944, -1377428.3, -41506.87, 0.0, 9.997802, 9.996437 
2.8497863e+2, 1.7367761e+2, -1260840.8, -1283318.3, -7261.7837, -0.016364962, -0.03542997, -1258698.8, -20742.275, 0.0, 9.999305, 9.996306 
2.8500462e+2, 1.8367282e+2, -1162299.8, -1213136.3, -7288.7065, -0.025894359, -0.026532289, -1161275.4, -21271.91, 0.0, 10.000556, 9.993801 
2.8503093e+2, 1.936665e+2, -1053467.9, -1111786.3, -5630.892, -0.011511293, -0.022827545, -1052929.1, -10863.628, 0.0, 10.001374, 9.9936285 
2.8505725e+2, 2.0365916e+2, -957408.5, -1037585.0, -3992.944, 0.0039010718, -0.02223258, -957210.1, -13072.567, 0.0, 10.002229, 9.991591 
2.850836e+2, 2.136506e+2, -846395.2, -934404.8, -1580.6781, 0.020175837, -0.028513487, -846366.8, -145.33064, 0.0, 10.003163, 9.991489 
2.8510988e+2, 2.2364135e+2, -747356.7, -852537.44, -1092.2053, 0.026198912, -0.030235775, -747345.4, 966.83997, 0.0, 10.00395, 9.990005 
2.8513604e+2, 2.3363137e+2, -641535.56, -750971.25, -5022.076, 0.015318129, -0.026855404, -641305.56, 9104.206, 0.0, 10.004492, 9.989979 
2.8516218e+2, 2.4362014e+2, -552349.0, -687062.4, -7461.2656, 0.0028300574, -0.023771374, -551937.0, 582.76166, 0.0, 10.005173, 9.987319 
2.8518814e+2, 2.5360727e+2, -442259.94, -585434.75, -5793.6016, -0.011874356, -0.023849405, -442025.88, 12620.111, 0.0, 10.006094, 9.987118 
2.8521422e+2, 2.6359358e+2, -342432.97, -504109.47, -5403.726, -0.014128259, -0.027777003, -342252.56, 14527.5205, 0.0, 10.00697, 9.985553 
2.852404e+2, 2.7357897e+2, -232879.73, -400709.25, -7471.2334, 0.004112193, -0.04103525, -232547.8, 26374.94, 0.0, 10.007769, 9.985531 
2.8526676e+2, 2.8356305e+2, -142899.17, -342497.1, -5016.666, 0.0077038775, -0.040602874, -142773.17, 18305.828, 0.0, 10.008758, 9.982329 
2.8529325e+2, 2.9354534e+2, -27334.506, -238752.88, -1693.1515, -0.013620763, -0.019589623, -27320.947, 35931.855, 0.0, 10.0100765, 9.982085 
2.8532016e+2, 3.0353093e+2, 84696.65, -79464.35, 374.86017, -0.010646535, -0.01718195, 84697.51, 84697.51, 0.0, 10.010967, 9.989213 
2.8534758e+2, 3.1352e+2, 87914.445, -76034.04, -2749.034, 0.03332952, -0.049658228, 87960.53, 87960.53, 0.0, 10.011107, 9.989379 
2.9484195e+2, 1.2366017e+2, -1770605.8, -1719754.1, 5328.795, 0.006511971, -0.014368461, -1719201.6, 8925.96, 0.0, 9.995218, 10.001949 
2.948693e+2, 1.3365944e+2, -1675452.8, -1651904.3, 2302.4143, 0.0021376107, -0.036929652, -1651681.3, -21546.584, 0.0, 9.996276, 9.999387 
2.9489645e+2, 1.4365835e+2, -1575124.6, -1565513.0, 739.71106, 0.003760791, -0.02947432, -1565456.4, -33311.047, 0.0, 9.996989, 9.998247 
2.9492325e+2, 1.5365662e+2, -1475273.5, -1467112.5, -1017.45, -0.0123370495, -0.024711061, -1466987.5, -32824.96, 0.0, 9.997134, 9.9981985 
2.9495034e+2, 1.6365384e+2, -1382852.5, -1395704.5, -756.7162, -0.015178794, -0.020381829, -1382808.1, -46618.215, 0.0, 9.997788, 9.996066 
2.9497814e+2, 1.7364985e+2, -1263480.6, -1288565.1, -1507.601, 0.006277047, -0.016711133, -1263390.4, -25161.238, 0.0, 9.999294, 9.995951 
2.9500562e+2, 1.8364489e+2, -1160247.0, -1208833.6, -3841.1038, 0.018150294, -0.017207196, -1159945.3, -19667.625, 0.0, 10.000553, 9.994093 
2.9503256e+2, 1.9363882e+2, -1050662.5, -1106001.3, -2525.364, 0.012958244, -0.028233435, -1050547.5, -8210.602, 0.0, 10.001374, 9.994021 
2.950595e+2, 2.0363186e+2, -953148.56, -1028862.7, -528.8917, 0.0034613693, -0.036393907, -953144.9, -8740.175, 0.0, 10.002233, 9.992181 
2.950864e+2, 2.1362393e+2, -842030.25, -925308.7, 1905.0984, -0.012719553, -0.041448586, -841986.7, 4495.522, 0.0, 10.00316, 9.992107 
2.9511335e+2, 2.2361471e+2, -753480.0, -864988.25, 1071.3658, -0.02036532, -0.039172936, -753469.7, -4896.9805, 0.0, 10.0039425, 9.989157 
2.9514027e+2, 2.3360375e+2, -649215.06, -766791.5, -2979.7131, -0.013115607, -0.027153777, -649139.56, 1541.0, 0.0, 10.00449, 9.988898 
2.9516727e+2, 2.4359207e+2, -550301.56, -682907.8, -4145.273, -0.0069357, -0.019205237, -550172.1, 2623.1711, 0.0, 10.0051775, 9.9875965 
2.9519433e+2, 2.5357968e+2, -438736.5, -578097.75, -2310.3337, -0.002885716, -0.021427361, -438698.22, 16218.445, 0.0, 10.006093, 9.987617 
2.9522136e+2, 2.635661e+2, -345024.3, -509471.5, -2390.5037, 0.0010262496, -0.026581934, -344989.56, 12059.949, 0.0, 10.006971, 9.985184 
2.952482e+2, 2.73551e+2, -236227.36, -408080.75, -4481.993, 0.00463733, -0.039400417, -236110.55, 23086.693, 0.0, 10.007788, 9.985015 
2.9527557e+2, 2.8353503e+2, -138097.33, -332898.72, -378.03607, 0.010773151, -0.03913038, -138096.6, 23257.078, 0.0, 10.008773, 9.982975 
2.9530367e+2, 2.9351816e+2, -21790.223, -226604.38, 3112.2673, 0.021851957, -0.018935079, -21742.94, 41776.137, 0.0, 10.01005, 9.982924 
2.9533142e+2, 3.03504e+2, 80301.16, -87861.78, 1292.8445, 0.017068854, -0.017801037, 80311.09, 80311.09, 0.0, 10.010939, 9.988648 
2.953582e+2, 3.134922e+2, 82802.82, -87541.55, -2327.9512, -0.016864173, -0.05296304, 82834.625, 82834.625, 0.0, 10.011149, 9.988567 
3.0483705e+2, 1.23632036e+2, -1772395.0, -1719181.5, -370.0823, 0.0071191234, -0.022821097, -1719179.0, 9223.951, 0.0, 9.995027, 10.002077 
3.0486524e+2, 1.3363142e+2, -1683217.9, -1653873.0, -4037.982, 0.00060731627, -0.049676795, -1653327.5, -22918.764, 0.0, 9.995663, 9.999547 
3.0489326e+2, 1.4363039e+2, -1582099.8, -1571714.4, -5640.133, 0.0039523873, -0.034389522, -1569240.5, -36821.51, 0.0, 9.996632, 9.9979925 
3.0492085e+2, 1.5362841e+2, -1462352.4, -1464362.8, -6130.197, -0.017676165, -0.022558605, -1457145.5, -22706.574, 0.0, 9.998162, 9.997879 
3.0494884e+2, 1.6362548e+2, -1361116.5, -1385009.5, -3554.8254, -0.019948678, -0.016057668, -1360598.9, -24130.861, 0.0, 9.999256, 9.996075 
3.0497766e+2, 1.7362149e+2, -1258259.6, -1285308.6, -1183.1272, 0.011820513, -0.017577376, -1258208.0, -19701.088, 0.0, 9.999614, 9.996014 
3.050061e+2, 1.836165e+2, -1166271.3, -1212458.9, -3064.9316, 0.027222117, -0.02177812, -1166068.8, -25513.219, 0.0, 10.000168, 9.994031 
3.050338e+2, 1.9361034e+2, -1055482.5, -1109296.6, -5326.116, 0.014090296, -0.033794593, -1054960.4, -12344.518, 0.0, 10.001082, 9.993934 
3.050615e+2, 2.036034e+2, -957705.94, -1030010.0, -7346.193, -0.00054696534, -0.03956169, -956967.1, -12283.534, 0.0, 10.001869, 9.992272 
3.0508918e+2, 2.1359566e+2, -851644.0, -928610.5, -8657.359, -0.01710398, -0.036889408, -850682.2, -3923.0352, 0.0, 10.0024395, 9.992224 
3.051169e+2, 2.2358647e+2, -764565.25, -871600.6, -8853.465, -0.024176234, -0.032754853, -763837.9, -14988.535, 0.0, 10.003233, 9.98904 
3.051447e+2, 2.3357527e+2, -651427.25, -769527.25, -6176.248, -0.015706003, -0.02916094, -651105.1, -145.57207, 0.0, 10.004407, 9.988748 
3.0517256e+2, 2.4356353e+2, -545796.44, -679101.25, -4048.0718, -0.0059488514, -0.025435338, -545673.6, 7401.189, 0.0, 10.005409, 9.987743 
3.052005e+2, 2.5355136e+2, -436880.78, -575050.56, -4383.0215, 0.0055963905, -0.024227206, -436741.88, 18452.057, 0.0, 10.006122, 9.987807 
3.0522844e+2, 2.6353782e+2, -344903.66, -511916.9, -4272.807, 0.01016343, -0.026145939, -344794.4, 12531.952, 0.0, 10.007082, 9.984958 
3.052563e+2, 2.7352247e+2, -228212.47, -407482.94, -4696.0728, 0.002597568, -0.036480606, -228089.53, 31387.303, 0.0, 10.0084715, 9.984723 
3.052846e+2, 2.8350636e+2, -128612.78, -326596.84, -2811.1926, 0.005979488, -0.03784611, -128572.87, 33061.594, 0.0, 10.009345, 9.983127 
3.053134e+2, 2.9348966e+2, -30924.566, -228450.39, -3807.3032, 0.028836353, -0.026143204, -30851.209, 32947.098, 0.0, 10.009307, 9.9831505 
3.0534196e+2, 3.034756e+2, 65726.31, -95402.08, -4961.38, 0.025787171, -0.02348247, 65878.94, 65878.94, 0.0, 10.009951, 9.9886 
3.0536962e+2, 3.1346393e+2, 91857.24, -84219.8, -3576.4048, -0.02413482, -0.04009042, 91929.85, 91929.85, 0.0, 10.011811, 9.988473 
3.1483197e+2, 1.23602524e+2, -1772713.6, -1719387.1, 1570.7655, -0.0063360934, -0.05177899, -1719340.9, 9350.437, 0.0000000000000806617, 9.995013, 10.002066 
3.1486076e+2, 1.3360222e+2, -1683305.0, -1653431.3, -1776.3523, -0.0154619925, -0.051444065, -1653326.0, -22631.447, 0.00000000000005243424, 9.99564, 9.999584 
3.1488982e+2, 1.4360133e+2, -1583158.1, -1573431.1, -371.25473, -0.002696286, -0.019112429, -1573417.0, -40713.43, 0.000000000000028332263, 9.996612, 9.997882 
3.149191e+2, 1.5359902e+2, -1463375.4, -1466342.1, -315.31876, -0.006505127, -0.025552887, -1463342.1, -28615.576, 0.000000000000012064798, 9.998155, 9.997745 
3.149482e+2, 1.6359605e+2, -1358276.4, -1379233.1, -1676.5071, -0.0073686517, -0.032487582, -1358143.1, -21387.229, 0.000000000000003878589, 9.999261, 9.996463 
3.1497714e+2, 1.735925e+2, -1254894.6, -1278315.4, 111.58744, -0.00084857753, -0.038231105, -1254894.1, -16103.808, 0.0000000000000009180906, 9.999613, 9.996489 
3.1500596e+2, 1.8358763e+2, -1169233.6, -1218493.8, 122.04336, 0.00013283968, -0.040257804, -1169233.4, -28395.586, 0.00000000000000015841597, 10.000165, 9.99362 
3.1503466e+2, 1.9358104e+2, -1059494.4, -1117489.1, -1796.61, -0.008826795, -0.03967555, -1059438.8, -16535.926, 0.000000000000000019869674, 10.001079, 9.993376 
3.150633e+2, 2.0357375e+2, -960501.0, -1035781.4, -4946.7524, -0.009434215, -0.032278623, -960177.4, -15202.831, 0.0000000000000000018107616, 10.001871, 9.991876 
3.1509185e+2, 2.1356578e+2, -854090.44, -933891.25, -6438.3335, 0.004826392, -0.015611559, -853574.4, -6521.692, 0.0000000000000000001198895, 10.002451, 9.991855 
3.151205e+2, 2.2355662e+2, -760250.94, -862939.06, -4700.255, 0.011571466, -0.011775915, -760036.25, -10893.882, 0.0000000000000000000057675156, 10.003243, 9.989623 
3.1514934e+2, 2.3354591e+2, -646200.44, -758725.75, -1713.5581, 0.0049009463, -0.032771066, -646174.4, 5072.888, 0.0, 10.004406, 9.989481 
3.1517807e+2, 2.4353448e+2, -545710.6, -678815.44, -1184.5742, 0.0037336277, -0.041761745, -545700.06, 7659.1284, 0.0, 10.005406, 9.9877615 
3.152067e+2, 2.5352228e+2, -437580.7, -576494.25, -1823.4327, 0.012744856, -0.032005478, -437556.75, 17921.754, 0.0, 10.006124, 9.987705 
3.1523556e+2, 2.6350874e+2, -345636.88, -513307.34, 469.25403, 0.012784718, -0.026626043, -345635.56, 11975.755, 0.0, 10.007076, 9.984862 
3.1526473e+2, 2.7349332e+2, -229286.56, -409061.38, 484.95538, -0.0030651817, -0.032561712, -229285.25, 30477.266, 0.0, 10.008443, 9.984625 
3.152938e+2, 2.83477e+2, -131022.125, -330940.13, -2292.8997, -0.0072929496, -0.036635358, -130995.83, 30926.428, 0.0, 10.00932, 9.982841 
3.1532258e+2, 2.934598e+2, -32811.613, -232905.52, -4102.119, 0.009987327, -0.040195514, -32727.55, 31363.078, 0.0, 10.009335, 9.98283 
3.153518e+2, 3.0344576e+2, 69019.42, -89380.76, 889.99786, 0.01654191, -0.033931676, 69024.42, 69024.42, 0.0, 10.009985, 9.988992 
3.153817e+2, 3.13435e+2, 95078.88, -76813.734, 3326.1487, 0.0024751301, -0.013063397, 95143.22, 95143.22, 0.0, 10.01178, 9.988991 
3.2482687e+2, 1.23572335e+2, -1775044.0, -1722920.4, -2940.2922, -0.012138834, -0.05068927, -1722755.0, 6232.134, 0.0000000000023454196, 9.994952, 10.00185 
3.248565e+2, 1.3357182e+2, -1678784.9, -1652948.1, -7463.853, -0.024256611, -0.055447504, -1650947.0, -19954.53, 0.0000000000015241749, 9.996016, 9.999427 
3.2488656e+2, 1.43571e+2, -1576089.0, -1567043.8, -4774.0234, -0.0039324216, -0.019232044, -1564990.3, -31989.396, 0.0000000000008233425, 9.996955, 9.998143 
3.2491714e+2, 1.5356898e+2, -1467602.8, -1464663.5, -1084.8224, 0.0052556656, -0.028655974, -1464306.5, -29285.725, 0.00000000000035051592, 9.997698, 9.998077 
3.249472e+2, 1.6356614e+2, -1370660.9, -1386217.3, -3837.9548, 0.0052200947, -0.037891556, -1369765.6, -32716.947, 0.00000000000011265747, 9.998454, 9.996378 
3.249765e+2, 1.7356242e+2, -1261169.6, -1283124.1, -7127.229, -0.008190805, -0.044533875, -1259058.8, -19974.037, 0.000000000000026661206, 9.999256, 9.996329 
3.2500595e+2, 1.835575e+2, -1170061.8, -1219019.0, -7470.462, -0.015862253, -0.043636654, -1168947.3, -27814.174, 0.000000000000004599458, 10.000108, 9.993604 
3.2503566e+2, 1.9355099e+2, -1059819.5, -1117516.0, -5051.988, -0.0141663905, -0.033699606, -1059380.5, -16183.213, 0.0000000000000005767878, 10.001045, 9.993384 
3.2506528e+2, 2.0354365e+2, -959231.6, -1037407.3, -5402.3076, -0.0067329966, -0.024262598, -958860.06, -13590.435, 0.000000000000000052554126, 10.002048, 9.991677 
3.250947e+2, 2.1353534e+2, -845253.8, -932240.25, -5958.6147, 0.010070954, -0.018146375, -844847.5, 2503.4778, 0.0000000000000000034789587, 10.003161, 9.991622 
3.251242e+2, 2.2352609e+2, -746606.44, -853849.06, -4809.9385, 0.018435337, -0.019152608, -746391.1, 3050.3547, 0.00000000000000000016733108, 10.004064, 9.989843 
3.2515386e+2, 2.3351572e+2, -641244.0, -753020.75, -4999.1113, 0.012194724, -0.03466424, -641020.9, 10521.932, 0.0, 10.004596, 9.989775 
3.2518345e+2, 2.435044e+2, -548836.56, -682226.94, -6906.174, 0.0077672857, -0.041142654, -548479.94, 5173.622, 0.0, 10.005268, 9.987589 
3.252128e+2, 2.5349194e+2, -438222.97, -579595.4, -8611.128, 0.006624511, -0.03467974, -437700.38, 18075.313, 0.0, 10.006193, 9.987453 
3.252425e+2, 2.634783e+2, -346183.78, -512079.16, -5847.3926, 0.0045850934, -0.029092379, -345977.94, 11931.518, 0.0, 10.006968, 9.984992 
3.252727e+2, 2.7346313e+2, -242002.03, -412985.72, -3792.5522, 0.00076617586, -0.028211627, -241917.95, 18140.242, 0.0, 10.007468, 9.984821 
3.2530263e+2, 2.834469e+2, -146709.02, -340141.03, -5504.988, -0.0021408983, -0.030929262, -146552.47, 15664.849, 0.0, 10.0083065, 9.982696 
3.2533196e+2, 2.934294e+2, -28328.963, -233014.0, -6602.431, -0.0032464156, -0.042881854, -28116.213, 36272.223, 0.0, 10.009732, 9.982629 
3.2536206e+2, 3.0341533e+2, 81139.46, -82610.38, -1102.4882, 0.002366651, -0.038565975, 81146.88, 81146.88, 0.0, 10.010771, 9.989075 
3.2539332e+2, 3.1340477e+2, 86286.375, -79536.14, -1146.5577, 0.018901695, -0.007944758, 86294.305, 86294.305, 0.0, 10.011097, 9.989128 
3.3482185e+2, 1.2354148e+2, -1778649.6, -1729643.0, 407.32758, -0.01258846, -0.016993519, -1729639.6, -349.3395, 0.00000000005167391, 9.994926, 10.001402 
3.348525e+2, 1.3354021e+2, -1681652.1, -1658353.9, -3558.3245, -0.02615071, -0.06145153, -1657822.6, -26519.78, 0.00000000003357157, 9.9959955, 9.999065 
3.3488357e+2, 1.4353934e+2, -1571686.8, -1557695.5, -1958.9514, -0.0005246338, -0.03552446, -1557426.4, -24115.12, 0.000000000018130754, 9.996943, 9.99878 
3.3491498e+2, 1.5353827e+2, -1462027.0, -1452806.3, 1638.9883, 0.01660988, -0.03190797, -1452523.6, -17202.088, 0.000000000007717037, 9.997682, 9.998889 
3.3494577e+2, 1.6353573e+2, -1374877.9, -1394629.8, -859.64545, 0.016461167, -0.031833164, -1374840.5, -37494.16, 0.0000000000024798213, 9.998444, 9.995808 
3.3497575e+2, 1.7353123e+2, -1267013.6, -1294970.5, -4080.696, -0.011040429, -0.036362223, -1266430.1, -27039.559, 0.00000000000058676854, 9.999249, 9.995523 
3.3500597e+2, 1.8352605e+2, -1167452.4, -1213530.8, -3992.0815, -0.021761466, -0.031996682, -1167109.1, -25667.383, 0.00000000000010121049, 10.000103, 9.993977 
3.3503684e+2, 1.9352017e+2, -1055753.8, -1109090.9, -1447.6078, -0.0033928298, -0.016050497, -1055714.5, -12214.939, 0.000000000000012690283, 10.001042, 9.993957 
3.3506748e+2, 2.0351304e+2, -959327.6, -1037580.2, -1248.275, 0.0057945927, -0.015366846, -959307.75, -13738.403, 0.0000000000000011561161, 10.002048, 9.991662 
3.3509776e+2, 2.135043e+2, -846139.75, -933932.5, -1719.7072, -0.001733165, -0.043468323, -846106.06, 1548.6947, 0.000000000000000076521916, 10.003156, 9.991507 
3.3512804e+2, 2.2349484e+2, -747629.2, -855730.06, -2500.0103, -0.0035680372, -0.05366293, -747571.4, 2175.8792, 0.0000000000000000036800285, 10.004055, 9.989717 
3.351584e+2, 2.3348469e+2, -642211.25, -754895.9, -3018.1477, 0.0056244847, -0.03492539, -642130.5, 9716.332, 0.0, 10.004593, 9.989646 
3.351887e+2, 2.434733e+2, -551320.25, -687289.94, -3652.143, 0.0051318714, -0.024540516, -551222.2, 2736.1514, 0.0, 10.005266, 9.987241 
3.3521882e+2, 2.5346032e+2, -440981.25, -585238.75, -5095.8027, -0.012870528, -0.032713167, -440801.47, 15284.269, 0.0, 10.006191, 9.987065 
3.3524927e+2, 2.6344654e+2, -343862.0, -507243.22, -3737.731, -0.015149043, -0.03341785, -343776.56, 14444.43, 0.0, 10.0069685, 9.985319 
3.3528027e+2, 2.7343193e+2, -238710.88, -406250.25, -1947.164, 0.011353592, -0.023638068, -238688.25, 21676.232, 0.0, 10.007475, 9.985275 
3.3531114e+2, 2.8341597e+2, -146759.45, -340268.88, -712.9823, 0.01785931, -0.021360885, -146756.83, 15763.764, 0.0, 10.008307, 9.982682 
3.353416e+2, 2.9339838e+2, -29148.371, -234521.64, -1313.5879, -0.012048203, -0.03581473, -29139.969, 35552.918, 0.0, 10.009726, 9.982524 
3.3537266e+2, 3.0338404e+2, 79638.78, -85491.5, 606.6337, -0.017234972, -0.03825444, 79641.01, 79641.01, 0.0, 10.010765, 9.988876 
3.354045e+2, 3.1337312e+2, 84821.62, -82592.33, 61.580967, 0.02287141, -0.021495013, 84821.64, 84821.64, 0.0, 10.011103, 9.988913 
3.448168e+2, 1.2350968e+2, -1779425.9, -1730399.4, -800.84296, -0.004940226, -0.0061625163, -1730386.4, -784.03033, 0.00000000081250584, 9.994878, 10.001373 
3.448486e+2, 1.3350844e+2, -1678042.5, -1655416.9, -753.495, -0.019550366, -0.056456313, -1655391.9, -23777.607, 0.00000000052773436, 9.99618, 9.999176 
3.4488067e+2, 1.4350763e+2, -1568560.0, -1556853.3, -1353.9647, 0.0036910824, -0.02922105, -1556698.8, -23076.697, 0.00000000028494548, 9.997179, 9.998722 
3.449125e+2, 1.535064e+2, -1463150.3, -1454367.0, -4906.7417, 0.004893298, -0.033853382, -1452173.6, -16539.693, 0.0000000001212577, 9.997644, 9.998794 
3.4494403e+2, 1.6350372e+2, -1376338.5, -1396421.3, -8494.188, 0.0008864043, -0.036978677, -1373227.8, -35567.824, 0.00000000003895854, 9.998384, 9.995707 
3.449752e+2, 1.7349921e+2, -1261914.0, -1293575.3, -6328.967, -0.008813983, -0.03476436, -1260695.8, -20991.057, 0.000000000009216846, 9.999636, 9.995426 
3.4500647e+2, 1.8349403e+2, -1158557.9, -1207617.9, -4857.085, -0.008886478, -0.02791866, -1158081.6, -16326.153, 0.0000000000015895714, 10.000634, 9.994119 
3.4503803e+2, 1.9348828e+2, -1052406.3, -1105431.1, -5376.1147, 0.0063927067, -0.017209817, -1051866.6, -8054.73, 0.00000000000019928297, 10.001177, 9.994136 
3.4506944e+2, 2.0348123e+2, -963183.6, -1039715.2, -6279.7866, 0.010563354, -0.019467361, -962671.8, -16790.885, 0.0000000000000181529, 10.001788, 9.991636 
3.4510055e+2, 2.1347243e+2, -855470.0, -939173.7, -6299.2285, -0.005098467, -0.046279047, -854998.6, -7031.667, 0.0000000000000012013685, 10.0025425, 9.99144 
3.451317e+2, 2.2346294e+2, -758434.94, -861732.3, -7377.021, -0.011100332, -0.053624928, -757910.75, -7850.843, 0.00000000000000005776772, 10.003343, 9.989648 
3.4516275e+2, 2.3345275e+2, -648182.1, -758552.56, -7622.562, 0.00031583195, -0.030022923, -647658.2, 4501.5957, 0.0, 10.00421, 9.989576 
3.451939e+2, 2.4344127e+2, -554280.6, -690375.0, -6538.3667, 0.0020957936, -0.020070301, -553967.2, 305.13043, 0.0, 10.005127, 9.987094 
3.4522495e+2, 2.53428e+2, -443032.66, -588072.06, -6306.1587, -0.013525627, -0.03764305, -442759.0, 13643.215, 0.0, 10.006121, 9.986902 
3.4525627e+2, 2.634142e+2, -341560.1, -502740.97, -5409.0513, -0.013390853, -0.042030744, -341378.78, 17158.625, 0.0, 10.006972, 9.985623 
3.4528783e+2, 2.7340007e+2, -234579.83, -399886.28, -4296.2314, 0.01484653, -0.025553567, -234468.23, 26208.117, 0.0, 10.007564, 9.985666 
3.453195e+2, 2.833843e+2, -147779.78, -343393.53, -1619.3523, 0.021704147, -0.018043526, -147766.38, 15064.321, 0.0, 10.008342, 9.982448 
3.4535122e+2, 2.933664e+2, -35333.395, -241486.16, -3553.8857, -0.010205475, -0.030136377, -35272.15, 29734.18, 0.0, 10.00946, 9.98217 
3.4538314e+2, 3.0335194e+2, 75329.73, -84178.445, -4142.9917, -0.017732305, -0.036577757, 75437.266, 75437.266, 0.0, 10.010315, 9.989179 
3.454153e+2, 3.133413e+2, 81495.35, -79326.29, -1003.945, 0.019115726, -0.035328697, 81501.62, 81501.62, 0.0, 10.010658, 9.989349 
3.5481182e+2, 1.23476975e+2, -1777146.8, -1725056.9, 3220.9075, 0.00867117, -0.02025218, -1724858.5, 5064.418, 0.000000009469599, 9.994852, 10.001743 
3.5484493e+2, 1.334766e+2, -1674283.4, -1647109.9, 4172.5137, -0.0047486885, -0.039958682, -1646483.6, -14557.185, 0.0000000061492664, 9.996154, 9.999747 
3.548779e+2, 1.434759e+2, -1574468.5, -1568620.9, 809.91266, 0.007696951, 0.0008047488, -1568510.8, -34577.74, 0.0000000033196064, 9.997166, 9.997926 
3.5490978e+2, 1.5347335e+2, -1470753.9, -1469666.6, -3272.0476, -0.031615086, -0.03445536, -1466893.4, -30935.393, 0.0000000014124153, 9.997632, 9.997757 
3.5494196e+2, 1.6347007e+2, -1373844.9, -1391045.8, -4303.6284, -0.04378199, -0.053499453, -1372828.3, -34838.414, 0.0000000004537274, 9.998373, 9.996074 
3.549749e+2, 1.7346627e+2, -1257630.8, -1284566.6, -1575.6936, -0.0031144628, -0.039916255, -1257538.9, -17511.533, 0.00000000010733056, 9.999627, 9.996039 
3.550074e+2, 1.8346144e+2, -1159236.4, -1208889.4, -2401.3118, 0.021333935, -0.031285524, -1159120.5, -17045.77, 0.00000000001850869, 10.000629, 9.994032 
3.550393e+2, 1.9345532e+2, -1053918.0, -1108495.1, -3287.242, 0.014152812, -0.03676943, -1053720.6, -9586.21, 0.0000000000023202033, 10.001176, 9.993926 
3.5507116e+2, 2.0344815e+2, -963428.1, -1040322.6, -3501.7473, 0.0061448384, -0.03642414, -963269.0, -17064.291, 0.00000000000021133044, 10.001794, 9.99159 
3.5510314e+2, 2.1343969e+2, -855493.44, -939360.2, -3390.9626, -0.0017270457, -0.027636241, -855356.56, -7068.518, 0.000000000000013984623, 10.00255, 9.991421 
3.5513508e+2, 2.234303e+2, -758480.7, -861886.75, -4142.2476, -0.00635473, -0.020560743, -758315.06, -7934.9966, 0.0000000000000006723836, 10.003345, 9.989634 
3.5516694e+2, 2.334199e+2, -648228.44, -758706.7, -4303.3223, -0.0051983455, -0.02016577, -648061.06, 4421.0293, 0.0, 10.004213, 9.989562 
3.5519895e+2, 2.4340825e+2, -554059.9, -689910.06, -2847.314, -0.0028381194, -0.026824787, -554000.2, 595.82635, 0.0, 10.005127, 9.987122 
3.5523123e+2, 2.53395e+2, -442960.25, -587661.4, -2542.988, 0.0019070177, -0.04878026, -442915.56, 13810.366, 0.0, 10.006111, 9.986932 
3.5526347e+2, 2.633813e+2, -339725.0, -498665.0, -3032.8325, 0.0065166927, -0.05447857, -339667.16, 19192.637, 0.0, 10.006962, 9.985904 
3.552954e+2, 2.7336752e+2, -232085.08, -394940.75, -2293.2742, 0.010635143, -0.033394706, -232052.8, 28942.094, 0.0, 10.007576, 9.985994 
3.5532776e+2, 2.8335184e+2, -150608.0, -349586.5, 2011.4741, 0.009347395, -0.020283423, -150587.67, 12560.907, 0.0, 10.008357, 9.982013 
3.5536078e+2, 2.933334e+2, -39706.89, -250135.03, 603.48553, -0.00054027844, -0.025717454, -39705.16, 25624.396, 0.0, 10.009443, 9.981582 
3.5539365e+2, 3.033189e+2, 80101.805, -73706.3, -2433.9749, -0.0031836436, -0.03387932, 80140.31, 80140.31, 0.0, 10.010296, 9.989903 
3.5542583e+2, 3.1330904e+2, 88932.555, -64638.5, -120.66582, 0.0060056923, -0.04927371, 88932.65, 88932.65, 0.0, 10.010696, 9.990335 
3.64807e+2, 1.23443544e+2, -1766806.8, -1721163.5, 26.66987, 0.007810375, -0.026637737, -1721163.5, 9086.683, 0.00000008268434, 9.995597, 10.001639 
3.64841e+2, 1.3344324e+2, -1675510.8, -1646870.3, -2171.9626, -0.0060132756, -0.045913268, -1646706.5, -14453.392, 0.00000005368276, 9.996028, 9.999816 
3.6487484e+2, 1.4344257e+2, -1582276.3, -1574377.1, -6087.7437, 0.009517593, -0.00033192628, -1571070.0, -36810.336, 0.000000028975498, 9.996713, 9.997748 
3.6490756e+2, 1.534398e+2, -1468810.8, -1471136.5, -4123.2676, -0.02868571, -0.03353818, -1465689.5, -29402.797, 0.000000012326782, 9.997861, 9.997544 
3.6494058e+2, 1.6343643e+2, -1367358.1, -1387857.6, -2347.793, -0.04001106, -0.050613627, -1367092.8, -28773.104, 0.000000003959453, 9.998806, 9.996079 
3.6497444e+2, 1.7343268e+2, -1260925.8, -1285728.5, -3855.0908, 0.00020908924, -0.035373386, -1260340.4, -19983.797, 0.0000000009365381, 9.999375, 9.9960785 
3.6500782e+2, 1.8342784e+2, -1166554.8, -1212625.9, -7320.5396, 0.021463417, -0.029342907, -1165419.6, -23015.621, 0.0000000001614897, 10.000132, 9.994013 
3.6504042e+2, 1.9342159e+2, -1053069.6, -1108364.0, -6996.4385, 0.0067432476, -0.04506677, -1052198.1, -7733.3325, 0.000000000020242613, 10.00124, 9.993898 
3.6507306e+2, 2.0341437e+2, -958400.94, -1038538.1, -6980.405, -0.0024124754, -0.04684324, -957797.44, -11261.919, 0.0000000000018436379, 10.002157, 9.991531 
3.651058e+2, 2.1340595e+2, -853234.8, -939032.44, -7367.007, -0.00029965394, -0.02562991, -852606.9, -3988.2803, 0.00000000000012199398, 10.002729, 9.991352 
3.6513853e+2, 2.2339658e+2, -756805.0, -860906.06, -7379.38, -0.00008653571, -0.014305948, -756284.5, -5573.8955, 0.0000000000000058651187, 10.003446, 9.989646 
3.6517125e+2, 2.333861e+2, -644767.56, -756687.06, -7089.1943, -0.0037755761, -0.024353135, -644320.3, 8493.002, 0.0, 10.004428, 9.989591 
3.6520416e+2, 2.4337451e+2, -551061.8, -686856.56, -5637.427, -0.0012649168, -0.032603335, -550828.2, 4098.459, 0.0, 10.005255, 9.987265 
3.6523727e+2, 2.5336155e+2, -446361.4, -587494.5, -4519.544, 0.012428422, -0.03998382, -446216.8, 10836.847, 0.0, 10.005793, 9.987094 
3.652703e+2, 2.633479e+2, -346874.28, -504859.88, -5334.18, 0.016310826, -0.04182566, -346694.4, 12492.843, 0.0, 10.006584, 9.985658 
3.6530298e+2, 2.733336e+2, -230389.14, -397727.28, -8987.944, 0.0015704227, -0.036968146, -229907.77, 31419.07, 0.0, 10.00784, 9.985669 
3.6533615e+2, 2.8331774e+2, -144138.3, -344121.72, -6634.235, -0.00419614, -0.032747187, -143918.45, 19563.832, 0.0, 10.008692, 9.982218 
3.6536998e+2, 2.9329967e+2, -47058.7, -250148.78, -2283.9587, 0.0080331275, -0.03269064, -47033.02, 18626.715, 0.0, 10.008779, 9.981898 
3.6540365e+2, 3.032854e+2, 67576.51, -80161.18, -2075.0237, 0.0128088165, -0.03573314, 67605.64, 67605.64, 0.0, 10.009441, 9.98987 
3.6543673e+2, 3.132755e+2, 95699.59, -62614.23, -6606.571, 0.00060664956, -0.047639847, 95974.81, 95974.81, 0.0, 10.011206, 9.990221 
3.7480247e+2, 1.2340942e+2, -1771601.4, -1730470.8, 784.8623, -0.011055605, -0.024662606, -1730455.8, 128.18521, 0.0000005532481, 9.99558, 10.001012 
3.7483686e+2, 1.3340832e+2, -1679263.5, -1653855.8, -774.32324, -0.024959808, -0.07550022, -1653832.3, -21237.492, 0.00000035914545, 9.996001, 9.9993515 
3.7487155e+2, 1.4340754e+2, -1579353.0, -1567734.0, -2324.5137, 0.0072912537, -0.03454885, -1567286.3, -32683.598, 0.00000019382824, 9.996685, 9.998209 
3.7490585e+2, 1.5340574e+2, -1464507.1, -1461885.1, 216.79999, 0.013634169, -0.031494476, -1461867.3, -25247.055, 0.00000008245099, 9.997844, 9.998178 
3.7493992e+2, 1.634028e+2, -1370082.9, -1393274.1, 76.50617, 0.012493389, -0.02793834, -1370082.6, -31433.396, 0.000000026481976, 9.998799, 9.995711 
3.749738e+2, 1.7339842e+2, -1264983.8, -1293898.8, -1755.6365, 0.00066505565, -0.02110669, -1264877.6, -24185.133, 0.0000000062635124, 9.999371, 9.995522 
3.7500763e+2, 1.8339321e+2, -1166308.3, -1211978.4, -3473.7644, -0.009586986, -0.022174964, -1166045.5, -23301.975, 0.0000000010799891, 10.000125, 9.994057 
3.7504146e+2, 1.9338706e+2, -1052009.6, -1106066.8, -2726.5552, -0.016954003, -0.04227816, -1051872.5, -7069.309, 0.00000000013537126, 10.001234, 9.994054 
3.7507507e+2, 2.0337982e+2, -958987.9, -1039689.56, -4471.1216, -0.016693885, -0.05065321, -958740.94, -11867.046, 0.000000000012328863, 10.002156, 9.99145 
3.751085e+2, 2.1337119e+2, -854099.25, -940862.25, -5167.9155, -0.0021595638, -0.03931683, -853792.56, -4833.5444, 0.0000000000008157841, 10.002733, 9.991223 
3.7514207e+2, 2.2336172e+2, -756459.06, -860295.44, -3857.1929, 0.006038339, -0.03345211, -756316.0, -5263.8745, 0.00000000000003921943, 10.00345, 9.989682 
3.7517574e+2, 2.333513e+2, -644314.5, -755671.44, -3324.8904, 0.0023365105, -0.04147312, -644215.3, 8938.696, 0.000000000000000000006929764, 10.004424, 9.989659 
3.7520948e+2, 2.4333999e+2, -549446.75, -683325.4, -3386.3704, 0.004224309, -0.03726589, -549361.2, 5903.7046, 0.0000000000000000000002423796, 10.005249, 9.987506 
3.7524313e+2, 2.533276e+2, -444388.38, -583431.0, -2612.9407, 0.016974574, -0.013203874, -444339.3, 13047.168, 0.0, 10.0057955, 9.987367 
3.752769e+2, 2.633139e+2, -351891.0, -515290.06, -1125.5337, 0.015167519, -0.0062951907, -351883.25, 7637.472, 0.0, 10.006586, 9.984941 
3.753107e+2, 2.732984e+2, -237114.97, -411190.97, -4175.2954, -0.013785183, -0.03650814, -237014.88, 24657.488, 0.0, 10.007819, 9.984754 
3.7534466e+2, 2.8328207e+2, -139077.75, -333090.63, -5588.399, -0.020917358, -0.05422363, -138916.92, 24914.934, 0.0, 10.008674, 9.982978 
3.7537882e+2, 2.9326513e+2, -39015.94, -233909.63, -2248.4612, 0.014732397, -0.04935172, -38990.008, 27007.998, 0.0, 10.008805, 9.982993 
3.7541327e+2, 3.032513e+2, 63378.55, -89793.58, 3220.5913, 0.028724281, -0.041681167, 63446.24, 63446.24, 0.0, 10.009482, 9.989183 
3.7544796e+2, 3.1324056e+2, 88364.086, -77859.66, -12.279251, -0.0016021702, -0.033001956, 88364.086, 88364.086, 0.0, 10.011205, 9.98917 
3.8479772e+2, 1.23374246e+2, -1781718.1, -1738820.6, -3674.6506, -0.0123978555, -0.028543254, -1738508.1, -7579.759, 0.0000029192024, 9.995031, 10.00071 
3.84833e+2, 1.3337304e+2, -1673052.9, -1651928.9, -1837.7555, -0.030768484, -0.07985838, -1651770.3, -18829.79, 0.0000018948215, 9.996459, 9.999258 
3.8486865e+2, 1.4337221e+2, -1564850.3, -1559867.3, -3157.5881, 0.004241295, -0.038084373, -1558336.6, -23388.023, 0.0000010225369, 9.997627, 9.9982815 
3.84904e+2, 1.5337057e+2, -1456981.8, -1457067.5, -4630.507, 0.022623848, -0.031645104, -1452394.0, -15429.072, 0.0000004349407, 9.998299, 9.998276 
3.849389e+2, 1.6336767e+2, -1367803.8, -1392511.0, -7010.829, 0.023906976, -0.027841639, -1365953.0, -26959.533, 0.00000013969013, 9.998961, 9.995677 
3.849733e+2, 1.733632e+2, -1260930.1, -1292545.9, -5419.727, -0.0021173384, -0.02472809, -1260026.9, -18989.398, 0.000000033038678, 9.999664, 9.995467 
3.8500774e+2, 1.8335786e+2, -1165189.4, -1213582.3, -5183.2236, -0.01846238, -0.025731625, -1164640.5, -21550.766, 0.0000000056966374, 10.000287, 9.993865 
3.8504243e+2, 1.9335158e+2, -1060362.0, -1112563.5, -7147.4653, -0.017721036, -0.03914889, -1059401.0, -14249.955, 0.0000000007140435, 10.000761, 9.993835 
3.8507697e+2, 2.0334433e+2, -967089.7, -1041438.9, -9318.927, -0.012222385, -0.044607032, -965939.44, -18717.426, 0.00000000006503118, 10.001502, 9.991642 
3.851113e+2, 2.133359e+2, -851991.9, -936772.9, -7079.1226, 0.0011814085, -0.037911512, -851404.9, -2100.1199, 0.000000000004303039, 10.002738, 9.991495 
3.851457e+2, 2.233265e+2, -752747.2, -859663.1, -4897.1074, 0.009379367, -0.035444565, -752523.3, -1126.4376, 0.00000000000020687176, 10.003746, 9.98958 
3.8518018e+2, 2.3331591e+2, -646875.75, -758957.7, -6234.1196, 0.007638894, -0.044671115, -646530.06, 6970.5986, 0.00000000000000000020104626, 10.00433, 9.989475 
3.8521463e+2, 2.433045e+2, -552590.25, -684563.1, -8126.854, 0.006347565, -0.040589057, -552091.7, 3520.8347, 0.000000000000000000007029948, 10.0050125, 9.987531 
3.8524887e+2, 2.532922e+2, -442353.78, -581719.9, -8913.173, 0.006118646, -0.014114252, -441786.06, 15947.209, 0.0, 10.005895, 9.98743 
3.8528338e+2, 2.632785e+2, -351242.13, -516141.4, -5905.832, 0.003111775, -0.007037934, -351030.88, 8836.725, 0.0, 10.00667, 9.984837 
3.853183e+2, 2.7326283e+2, -246456.78, -417238.16, -3570.2964, -0.004906847, -0.040990856, -246382.17, 15638.83, 0.0, 10.007234, 9.984623 
3.8535315e+2, 2.832465e+2, -148072.78, -336156.53, -4392.0635, -0.0047274055, -0.057590958, -147970.28, 16210.408, 0.0, 10.007994, 9.983096 
3.8538775e+2, 2.932298e+2, -33330.594, -229308.4, -7428.6616, 0.01119527, -0.042354133, -33049.406, 33294.785, 0.0, 10.009107, 9.983159 
3.8542297e+2, 3.0321598e+2, 71091.55, -88981.2, -2492.5627, 0.018288685, -0.032480888, 71130.35, 71130.35, 0.0, 10.010128, 9.98892 
3.854591e+2, 3.1320477e+2, 82446.734, -84571.39, -790.174, 0.006513918, -0.038623147, 82450.48, 82450.48, 0.0, 10.010951, 9.988827 
3.947929e+2, 1.2333804e+2, -1782360.3, -1738962.6, 472.85925, 0.001244983, -0.039046183, -1738957.5, -7674.392, 0.000012531762, 9.994983, 10.000718 
3.9482957e+2, 1.333374e+2, -1671563.5, -1648201.1, 3552.103, -0.023577806, -0.057160873, -1647673.0, -14383.125, 0.0000081336, 9.996431, 9.999518 
3.9486623e+2, 1.4333665e+2, -1567428.1, -1564878.5, -346.99515, -0.0010231845, -0.008872825, -1564832.1, -29534.793, 0.0000043890395, 9.997617, 9.997942 
3.9490205e+2, 1.5333426e+2, -1460386.6, -1463763.9, -2290.9155, -0.004069519, -0.033643045, -1459229.3, -21908.482, 0.0000018668253, 9.998287, 9.997823 
3.9493757e+2, 1.63331e+2, -1365791.0, -1388172.6, -4540.5635, -0.00837647, -0.050378866, -1364905.0, -25552.525, 0.0000005995586, 9.998956, 9.995971 
3.949729e+2, 1.7332697e+2, -1257860.4, -1286062.6, -2806.0059, -0.010013664, -0.046584073, -1257583.9, -16191.912, 0.00000014180438, 9.99966, 9.995907 
3.9500815e+2, 1.8332179e+2, -1168252.0, -1219761.6, -3279.2253, -0.007211141, -0.040409952, -1168044.1, -24601.264, 0.000000024450705, 10.000283, 9.993444 
3.950434e+2, 1.933151e+2, -1064558.1, -1121225.5, -5292.0522, 0.0026324175, -0.03577259, -1064068.1, -18559.43, 0.0000000030648393, 10.000764, 9.993241 
3.950787e+2, 2.0330782e+2, -963810.56, -1034778.44, -5039.2603, 0.008802181, -0.028942848, -963454.56, -15874.184, 0.00000000027913746, 10.001507, 9.992089 
3.951141e+2, 2.1330005e+2, -847301.1, -927068.75, -2330.9158, 0.008129851, -0.021671517, -847233.1, 2423.241, 0.00000000001847093, 10.002735, 9.992153 
3.951494e+2, 2.2329092e+2, -754523.06, -863186.94, -2329.0642, 0.0083478885, -0.020798286, -754473.2, -2727.5913, 0.0000000000008880364, 10.00374, 9.989339 
3.9518455e+2, 2.3327985e+2, -649932.4, -765179.06, -4043.0967, 0.010391079, -0.034780093, -649790.7, 4063.1892, 0.000000000000000004402075, 10.004326, 9.989051 
3.952196e+2, 2.4326803e+2, -553943.5, -687283.2, -4962.69, 0.0035440095, -0.042119455, -553759.06, 2210.9443, 0.00000000000000000015389045, 10.005011, 9.987342 
3.9525452e+2, 2.5325534e+2, -443390.25, -583746.7, -5543.615, -0.01968767, -0.039825406, -443171.63, 14922.556, 0.0, 10.005892, 9.987289 
3.9528984e+2, 2.6324168e+2, -348178.06, -509702.7, -3633.5977, -0.020385692, -0.040237192, -348096.38, 12131.797, 0.0, 10.006667, 9.985274 
3.953258e+2, 2.7322674e+2, -242472.1, -409079.88, -1613.2255, 0.023033934, -0.050097674, -242456.47, 19917.764, 0.0, 10.00724, 9.985173 
3.953616e+2, 2.8321078e+2, -151026.89, -342533.97, -743.5051, 0.038470395, -0.04531911, -151024.02, 13506.802, 0.0, 10.008005, 9.98265 
3.9539674e+2, 2.931936e+2, -37714.184, -238706.9, -3381.9153, -0.0016108825, -0.015008663, -37657.297, 29042.023, 0.0, 10.009121, 9.982503 
3.9543277e+2, 3.0317938e+2, 71766.6, -87590.65, 678.0384, -0.016538579, -0.0101016555, 71769.49, 71769.49, 0.0, 10.010132, 9.989008 
3.954702e+2, 3.1316793e+2, 83574.74, -81231.98, 2242.749, 0.018586358, -0.060507968, 83605.26, 83605.26, 0.0, 10.010913, 9.98907 
4.047885e+2, 1.2330113e+2, -1765763.4, -1732646.6, -2598.9854, 0.004184473, -0.04107056, -1732443.9, -798.96155, 0.00004485904, 9.996177, 10.00056 
4.0482605e+2, 1.3330063e+2, -1670482.6, -1646959.3, -246.1219, -0.018411752, -0.049387783, -1646956.8, -13306.476, 0.00002911354, 9.996465, 9.99958 
4.0486354e+2, 1.4329985e+2, -1577591.4, -1571066.3, -4696.8706, 0.00021179362, -0.0035418433, -1568610.0, -32952.008, 0.000015709626, 9.996973, 9.997829 
4.049e+2, 1.5329726e+2, -1467087.6, -1468579.8, -4442.901, -0.013993127, -0.034509398, -1463328.6, -25645.252, 0.000006681798, 9.9978895, 9.997685 
4.0493628e+2, 1.6329393e+2, -1368279.3, -1388632.9, -6269.8237, -0.020959364, -0.05501727, -1366502.9, -26787.08, 0.0000021459712, 9.998746, 9.996038 
4.0497246e+2, 1.7328998e+2, -1259701.9, -1285790.6, -7146.948, -0.009509189, -0.05101805, -1257872.3, -16118.025, 0.00000050756734, 9.999476, 9.996009 
4.0500855e+2, 1.8328488e+2, -1167307.3, -1219571.3, -7622.489, 0.0019113343, -0.042260967, -1166218.3, -22413.871, 0.00000008752133, 10.000352, 9.993418 
4.0504462e+2, 1.9327821e+2, -1053972.4, -1116666.8, -5715.548, 0.011360288, -0.030800136, -1053455.5, -7585.244, 0.000000010971236, 10.001505, 9.99319 
4.0508065e+2, 2.0327085e+2, -952059.56, -1030144.75, -5077.584, 0.013459547, -0.02314643, -951730.8, -3788.241, 0.0000000009993062, 10.002346, 9.991997 
4.051167e+2, 2.1326289e+2, -850010.0, -929590.5, -7978.8013, 0.0021002276, -0.026516056, -849217.94, 802.4975, 0.00000000006613187, 10.002594, 9.9920435 
4.051527e+2, 2.2325367e+2, -764079.2, -867595.1, -10387.331, -0.001745348, -0.029179798, -763047.1, -10936.619, 0.0000000000031798247, 10.00307, 9.989354 
4.0518868e+2, 2.3324275e+2, -654317.7, -766807.1, -8849.971, 0.008741729, -0.032752745, -653625.7, 591.84515, 0.0000000000000000688154, 10.003997, 9.989093 
4.0522462e+2, 2.4323094e+2, -555442.4, -688094.75, -6898.025, 0.0071200863, -0.03735272, -555084.6, 1248.5693, 0.0000000000000000024051838, 10.004902, 9.987336 
4.0526035e+2, 2.5321814e+2, -445558.56, -584993.44, -6560.924, -0.018369535, -0.047460314, -445250.53, 13208.084, 0.0, 10.00574, 9.987275 
4.0529647e+2, 2.6320446e+2, -348655.03, -508753.78, -5552.8154, -0.019169042, -0.04981706, -348462.7, 12129.747, 0.0, 10.0065775, 9.985379 
4.053332e+2, 2.7318987e+2, -239146.02, -406028.56, -6558.0034, 0.027853027, -0.04119092, -238888.7, 23847.02, 0.0, 10.007399, 9.9853 
4.053698e+2, 2.8317395e+2, -148359.33, -343594.3, -5578.085, 0.042567063, -0.030726245, -148200.08, 16691.908, 0.0, 10.008278, 9.98244 
4.0540588e+2, 2.9315627e+2, -37400.07, -241708.16, -5540.3027, -0.006150168, -0.020360697, -37249.94, 29815.08, 0.0, 10.009266, 9.982224 
4.054427e+2, 3.0314198e+2, 70420.2, -85073.89, -1727.1855, -0.022909706, -0.020819338, 70439.38, 70439.38, 0.0, 10.0098915, 9.989297 
4.0548056e+2, 3.1313118e+2, 70025.03, -83196.79, 309.78644, 0.023288703, -0.045781262, 70025.66, 70025.66, 0.0, 10.009774, 9.989483 
4.1478458e+2, 1.2326358e+2, -1768519.4, -1737842.1, -2377.8542, -0.007644269, -0.032625042, -1737658.9, -5645.7773, 0.0001357749, 9.996163, 10.000211 
4.1482252e+2, 1.3326274e+2, -1672028.9, -1649429.0, 566.609, -0.016584327, -0.057201978, -1649414.9, -15393.321, 0.00008811505, 9.996442, 9.999419 
4.1486058e+2, 1.4326179e+2, -1577192.4, -1569456.5, -1828.074, 0.006916427, -0.023791097, -1569046.4, -33015.44, 0.000047546542, 9.99694, 9.997951 
4.1489795e+2, 1.5325956e+2, -1466159.5, -1466040.9, -1044.4031, -0.007911338, -0.03473956, -1465054.1, -27001.486, 0.000020223571, 9.997863, 9.997868 
4.1493508e+2, 1.632564e+2, -1369738.0, -1391241.3, -3510.3918, -0.01479619, -0.041693557, -1369179.4, -29095.828, 0.0000064954993, 9.998732, 9.995864 
4.14972e+2, 1.7325222e+2, -1261556.5, -1289401.3, -4448.132, -0.0015491385, -0.037929483, -1260863.1, -18738.553, 0.0000015364569, 9.999471, 9.995762 
4.1500896e+2, 1.8324712e+2, -1164829.4, -1214343.6, -3593.3813, 0.0076002064, -0.031022558, -1164569.9, -20395.14, 0.00000026496838, 10.000346, 9.9937725 
4.150461e+2, 1.9324087e+2, -1050647.5, -1109687.3, -1302.9666, 0.0071744937, -0.0241039, -1050618.8, -4382.5923, 0.000000033220672, 10.001499, 9.993664 
4.1508287e+2, 2.0323344e+2, -956556.7, -1039320.1, -3550.9187, 0.00027885765, -0.026742969, -956404.56, -8095.624, 0.0000000030265355, 10.002344, 9.99137 
4.151191e+2, 2.132244e+2, -855988.0, -942071.2, -6985.4307, -0.018094724, -0.051094543, -855424.9, -5027.692, 0.00000000020034616, 10.002603, 9.991187 
4.1515562e+2, 2.2321472e+2, -762156.56, -863848.94, -7227.874, -0.022395926, -0.059148226, -761645.4, -9153.566, 0.000000000009636878, 10.003081, 9.9896 
4.151926e+2, 2.3320453e+2, -650780.2, -759640.7, -5261.8213, 0.0011099443, -0.03808022, -650526.44, 4065.6577, 0.0000000000000007946489, 10.004003, 9.989575 
4.152296e+2, 2.4319324e+2, -554307.1, -685744.56, -3704.648, 0.0141636375, -0.02656399, -554202.8, 2500.036, 0.000000000000000027769294, 10.004904, 9.987492 
4.1526634e+2, 2.5318047e+2, -445076.0, -583790.5, -3455.215, 0.005838074, -0.03851223, -444989.97, 13837.631, 0.0, 10.005733, 9.987357 
4.1530326e+2, 2.6316684e+2, -350187.1, -511648.34, -2515.15, 0.0027961512, -0.03785827, -350147.9, 10813.618, 0.0, 10.006567, 9.985182 
4.1534042e+2, 2.731521e+2, -241072.66, -409833.47, -3541.121, 0.010522561, -0.016162645, -240998.39, 22107.852, 0.0, 10.007392, 9.98504 
4.1537774e+2, 2.8313592e+2, -148568.14, -343794.97, -2065.3345, 0.010124405, -0.013374078, -148546.3, 16718.502, 0.0, 10.008269, 9.982426 
4.1541517e+2, 2.9311782e+2, -37552.98, -241298.3, -1862.8822, -0.0052879816, -0.05283787, -37535.95, 29905.982, 0.0, 10.009237, 9.982262 
4.1545278e+2, 3.0310363e+2, 73154.64, -78913.78, -1491.2068, -0.0064247753, -0.059847325, 73169.266, 73169.266, 0.0, 10.009879, 9.989721 
4.1549033e+2, 3.1309417e+2, 74575.664, -75094.75, -490.7539, 0.019055653, -0.002104998, 74577.27, 74577.27, 0.0, 10.009843, 9.990002 
4.2478043e+2, 1.2322506e+2, -1777837.4, -1742920.4, -6577.418, -0.007359827, -0.027831227, -1741722.5, -9331.627, 0.00035082738, 9.995546, 10.000162 
4.2481914e+2, 1.3322431e+2, -1664595.5, -1644225.9, -851.71875, -0.017706266, -0.056374278, -1644190.4, -9792.165, 0.00022768496, 9.996864, 9.999565 
4.248579e+2, 1.4322332e+2, -1564956.9, -1564646.8, -3433.2893, 0.0033998487, -0.03300086, -1561365.0, -24957.06, 0.0001228659, 9.997812, 9.99785 
4.2489594e+2, 1.5322103e+2, -1464937.8, -1467211.8, -5342.4395, -0.004469523, -0.034541056, -1460612.6, -22182.258, 0.000052266085, 9.998016, 9.997707 
4.2493382e+2, 1.632178e+2, -1372547.0, -1393324.5, -7621.486, -0.008387375, -0.035689715, -1370051.1, -29588.99, 0.00001678997, 9.998561, 9.995799 
4.2497167e+2, 1.7321356e+2, -1256324.1, -1287314.4, -6873.568, -0.0005301306, -0.033663545, -1254868.0, -12364.428, 0.000003972505, 9.999835, 9.995722 
4.250095e+2, 1.832084e+2, -1158148.3, -1210379.1, -7086.427, 0.004554238, -0.030231327, -1157203.9, -12649.838, 0.00000068530704, 10.000761, 9.993836 
4.2504728e+2, 1.9320218e+2, -1057390.5, -1112011.9, -7943.0083, 0.0025458953, -0.029854188, -1056258.9, -9643.899, 0.00000008596078, 10.000988, 9.993747 
4.2508474e+2, 2.0319475e+2, -969414.4, -1046204.56, -10257.018, -0.0024316285, -0.03438745, -968067.94, -19380.227, 0.000000007836224, 10.001485, 9.99131 
4.2512172e+2, 2.131857e+2, -857232.2, -943665.25, -8241.257, -0.012961407, -0.05144491, -856453.4, -5677.1406, 0.0000000005191636, 10.002553, 9.9911 
4.2515898e+2, 2.2317599e+2, -756116.56, -861705.1, -5563.002, -0.015060517, -0.055635933, -755824.3, -2952.8984, 0.000000000025000514, 10.003517, 9.989536 
4.251967e+2, 2.3316568e+2, -647333.2, -758818.9, -7357.8403, -0.0012722865, -0.038218796, -646849.7, 8122.992, 0.0000000000000068380394, 10.004267, 9.989499 
4.2523447e+2, 2.4315438e+2, -552672.94, -683858.7, -8679.218, 0.0099036675, -0.02826595, -552101.2, 4982.449, 0.00000000000000023892724, 10.004956, 9.98759 
4.2527208e+2, 2.531418e+2, -446626.7, -583071.5, -8302.337, 0.015179838, -0.037088484, -446123.34, 13083.45, 0.0, 10.005553, 9.987488 
4.2530978e+2, 2.6312822e+2, -354345.75, -513509.7, -5947.268, 0.013916875, -0.035942428, -354123.8, 7215.9775, 0.0, 10.006263, 9.985198 
4.253476e+2, 2.7311343e+2, -243934.52, -411415.6, -5170.2397, -0.0010338268, -0.018895863, -243775.06, 19709.977, 0.0, 10.007192, 9.985025 
4.2538565e+2, 2.830973e+2, -151728.14, -343604.4, -2787.455, -0.008873168, -0.018764408, -151687.66, 13955.627, 0.0, 10.00797, 9.982581 
4.25424e+2, 2.930794e+2, -48378.79, -244348.48, -1818.8921, -0.0004393825, -0.05601498, -48361.906, 19456.389, 0.0, 10.008389, 9.982461 
4.2546242e+2, 3.0306533e+2, 62803.523, -83653.47, -1682.6433, 0.008115891, -0.06110459, 62822.855, 62822.855, 0.0, 10.009149, 9.989745 
4.2550048e+2, 3.130559e+2, 85236.44, -70150.766, -4150.8354, 0.012499738, -0.0040422683, 85347.234, 85347.234, 0.0, 10.010578, 9.989981 
4.3477604e+2, 1.2318559e+2, -1776882.3, -1739473.1, -2667.124, 0.0016155425, -0.02890262, -1739283.9, -6505.961, 0.00078514614, 9.995483, 10.000422 
4.3481597e+2, 1.3318536e+2, -1661949.9, -1637962.6, 4037.4805, -0.023284514, -0.04599664, -1637301.3, -2521.4534, 0.00050963036, 9.99683, 10.000001 
4.3485555e+2, 1.4318442e+2, -1567536.6, -1569589.8, -2179.86, -0.012708227, -0.029888257, -1566153.8, -29364.645, 0.00027507497, 9.997802, 9.997516 
4.348939e+2, 1.5318163e+2, -1468758.3, -1474697.3, -4833.743, -0.006160885, -0.033474103, -1466054.8, -27238.09, 0.00011705333, 9.998006, 9.9972 
4.349324e+2, 1.6317809e+2, -1372484.0, -1392851.5, -3714.1619, -0.004355337, -0.036959037, -1371827.8, -30976.377, 0.000037619757, 9.998547, 9.995833 
4.3497142e+2, 1.7317396e+2, -1255309.1, -1285008.3, -2072.2388, -0.007926919, -0.03802504, -1255165.3, -12273.724, 0.000008906541, 9.9998255, 9.995878 
4.3501014e+2, 1.8316877e+2, -1159781.1, -1213633.9, -5626.4893, -0.008673057, -0.0395865, -1159199.6, -14257.276, 0.0000015378395, 10.000759, 9.993612 
4.3504822e+2, 1.9316214e+2, -1059494.6, -1116401.1, -7116.5005, -0.0044076536, -0.04762104, -1058618.1, -11611.082, 0.00000019312868, 10.000994, 9.993442 
4.350863e+2, 2.031548e+2, -965889.1, -1039076.3, -6765.45, 0.0023551686, -0.04607507, -965268.94, -16189.805, 0.000000017634331, 10.0014925, 9.991788 
4.3512458e+2, 2.1314673e+2, -852497.6, -934020.5, -4108.908, 0.014398263, -0.029043932, -852291.06, -1132.6671, 0.0000000011708853, 10.002558, 9.991751 
4.351628e+2, 2.231374e+2, -758611.6, -866976.06, -2522.3223, 0.01689646, -0.020292621, -758552.94, -5302.868, 0.000000000056553692, 10.003524, 9.98917 
4.3520102e+2, 2.3312621e+2, -651568.7, -767553.25, -4461.197, -0.00018713008, -0.03281357, -651397.3, 3962.479, 0.000000000000044721503, 10.004266, 9.988901 
4.3523926e+2, 2.4311437e+2, -552581.6, -683570.0, -6268.727, -0.006524379, -0.040863585, -552282.3, 5193.4673, 0.000000000000001562477, 10.004955, 9.987607 
4.3527755e+2, 2.53102e+2, -445557.97, -580707.94, -6086.5522, 0.009972852, -0.042314637, -445284.4, 14312.276, 0.0, 10.005549, 9.987648 
4.3531603e+2, 2.6308858e+2, -353103.84, -510669.63, -2798.128, 0.013678605, -0.04235347, -353054.2, 8673.726, 0.0, 10.006253, 9.985392 
4.353547e+2, 2.730738e+2, -242861.81, -408641.0, -1808.896, -0.009859671, -0.04551493, -242842.06, 21030.89, 0.0, 10.00717, 9.985221 
4.3539354e+2, 2.8305793e+2, -150073.03, -339600.72, -1086.5431, -0.018315176, -0.043953452, -150066.81, 15961.959, 0.0, 10.007948, 9.982862 
4.354325e+2, 2.9304078e+2, -46119.62, -239854.22, -733.7121, 0.0068376493, -0.03481108, -46116.844, 22079.818, 0.0, 10.008403, 9.982758 
4.3547168e+2, 3.0302688e+2, 60993.44, -87880.445, 2530.0376, 0.018940203, -0.030411327, 61036.426, 61036.426, 0.0, 10.009171, 9.989438 
4.3551096e+2, 3.130163e+2, 81722.86, -76890.71, 1074.6482, -0.0007147745, -0.041760787, 81730.14, 81730.14, 0.0, 10.010553, 9.989526 
4.4477177e+2, 1.2314547e+2, -1768464.4, -1736540.3, -4373.594, -0.0027789478, -0.02856386, -1735951.9, -2780.5955, 0.0015538043, 9.996096, 10.000319 
4.4481266e+2, 1.3314529e+2, -1666996.1, -1640744.9, -634.49756, -0.018922472, -0.039111886, -1640729.6, -5556.868, 0.0010089569, 9.996492, 9.9999695 
4.4485313e+2, 1.4314422e+2, -1575678.6, -1572852.8, -8243.513, -0.008864163, -0.033406664, -1565902.0, -28719.08, 0.0005448942, 9.9972105, 9.997574 
4.4489223e+2, 1.5314156e+2, -1459718.3, -1469373.6, -6688.412, -0.0032093427, -0.033250738, -1456297.3, -17087.996, 0.00023205215, 9.99857, 9.997284 
4.4493142e+2, 1.6313803e+2, -1359329.6, -1387910.9, -3811.6865, -0.0024582625, -0.03520949, -1358830.0, -17586.191, 0.00007466019, 9.999497, 9.995705 
4.4497114e+2, 1.731337e+2, -1260803.1, -1289683.6, -4742.633, -0.0066183773, -0.039434314, -1260044.3, -16758.303, 0.000017702305, 9.999531, 9.9957 
4.4501045e+2, 1.8312834e+2, -1172416.8, -1220373.8, -9215.671, -0.008460082, -0.043295752, -1170706.8, -25368.523, 0.000003062777, 9.999917, 9.993557 
4.450492e+2, 1.931217e+2, -1058480.6, -1116175.6, -8775.202, -0.007094356, -0.05186805, -1057175.4, -9772.131, 0.0000003857046, 10.001066, 9.993419 
4.4508803e+2, 2.0311435e+2, -957358.44, -1035050.2, -8166.7266, -0.0006885064, -0.049156856, -956509.25, -7033.812, 0.00000003535121, 10.00207, 9.991778 
4.4512722e+2, 2.131063e+2, -849651.44, -932787.0, -10212.073, 0.015908679, -0.027620783, -848415.4, 3139.054, 0.000000002359298, 10.002749, 9.9917345 
4.4516632e+2, 2.2309704e+2, -759100.75, -865515.06, -10537.813, 0.02121015, -0.016818821, -758067.25, -4421.7617, 0.000000000114745775, 10.003407, 9.989318 
4.452052e+2, 2.3308602e+2, -652925.56, -766060.9, -7109.602, 0.002522368, -0.032479074, -652480.5, 3273.0762, 0.00000000000022836846, 10.00407, 9.989095 
4.452441e+2, 2.430742e+2, -556898.7, -687718.94, -6281.2764, -0.006819404, -0.042220287, -556597.75, 1271.4857, 0.0000000000000079783024, 10.00474, 9.987427 
4.4528297e+2, 2.530616e+2, -449375.38, -585666.0, -9062.872, 0.0032950114, -0.04191363, -448775.34, 11217.379, 0.0, 10.005412, 9.987372 
4.4532216e+2, 2.6304808e+2, -354718.6, -509596.94, -7256.634, 0.007297585, -0.04198638, -354379.3, 7745.6147, 0.0, 10.006052, 9.985558 
4.4536167e+2, 2.730335e+2, -248868.05, -408569.3, -5829.196, -0.0024036234, -0.04906131, -248655.56, 15612.062, 0.0, 10.0066185, 9.985487 
4.454013e+2, 2.8301775e+2, -158784.2, -344202.6, -5477.639, -0.0053713783, -0.047809083, -158622.52, 7799.393, 0.0, 10.007356, 9.982828 
4.454409e+2, 2.9300058e+2, -46769.94, -241442.63, -7808.377, 0.0069192215, -0.03243325, -46457.246, 22133.18, 0.0, 10.008401, 9.982642 
4.4548085e+2, 3.0298668e+2, 65209.457, -83245.53, -3992.103, 0.011937637, -0.028262231, 65316.73, 65316.73, 0.0, 10.009332, 9.989673 
4.4552118e+2, 3.1297633e+2, 75376.97, -76314.58, -512.81134, -0.0013963302, -0.05198981, 75378.7, 75378.7, 0.0, 10.009942, 9.989859 
4.5476764e+2, 1.2310477e+2, -1772666.1, -1744154.8, -3594.149, -0.026467117, -0.025421217, -1743708.8, -10138.675, 0.0027803245, 9.996057, 9.999818 
4.5480928e+2, 1.3310406e+2, -1671547.3, -1649021.0, 488.54355, -0.005895539, -0.03571005, -1649010.4, -13433.555, 0.0018069525, 9.996451, 9.999422 
4.5485055e+2, 1.431027e+2, -1572883.9, -1566235.1, -4065.943, 0.014741428, -0.044336736, -1564307.5, -26717.686, 0.0009770269, 9.997173, 9.9980345 
4.548909e+2, 1.5310082e+2, -1454995.4, -1459259.4, -1620.1141, 0.003011642, -0.034376714, -1454449.6, -14841.223, 0.00041677037, 9.998553, 9.997973 
4.549309e+2, 1.6309763e+2, -1361466.4, -1392173.4, -3009.1106, -0.0049032136, -0.030610606, -1361174.4, -19534.871, 0.00013439546, 9.999496, 9.995412 
4.5497078e+2, 1.7309277e+2, -1264644.4, -1297434.5, -4844.1504, 0.001698128, -0.037923206, -1263943.6, -20256.594, 0.000031964762, 9.99953, 9.99517 
4.550105e+2, 1.8308714e+2, -1171738.6, -1218818.8, -5774.982, 0.0032111914, -0.041606717, -1171040.6, -25298.521, 0.000005553748, 9.999912, 9.993661 
4.5505026e+2, 1.930808e+2, -1056699.1, -1112517.0, -4363.589, -0.0075694276, -0.04332497, -1056360.1, -8555.914, 0.00000070340104, 10.001069, 9.993661 
4.5509e+2, 2.0307337e+2, -960746.75, -1042036.75, -5288.7217, -0.013615954, -0.043626267, -960404.1, -10527.164, 0.000000064967765, 10.002072, 9.991299 
4.5512977e+2, 2.1306446e+2, -854325.25, -942390.3, -7556.7666, -0.008419076, -0.045051616, -853681.5, -1717.129, 0.0000000043809485, 10.002748, 9.991077 
4.551695e+2, 2.2305496e+2, -754773.75, -856497.94, -7961.444, -0.0023164053, -0.042711798, -754154.4, -96.8034, 0.00000000021602262, 10.003407, 9.989928 
4.5520929e+2, 2.3304503e+2, -646476.25, -752584.5, -4645.371, 0.0045336266, -0.037001666, -646273.25, 9881.585, 0.0000000000009414817, 10.0040655, 9.990013 
4.5524898e+2, 2.4303377e+2, -559451.44, -692816.4, -3873.627, 0.0054454408, -0.032999434, -559339.0, -1073.8141, 0.000000000000032891313, 10.004733, 9.987079 
4.552883e+2, 2.530205e+2, -454067.5, -595374.44, -6517.9165, -0.005872341, -0.035945155, -453767.5, 6628.166, 0.0, 10.005411, 9.986707 
4.5532808e+2, 2.6300666e+2, -353688.63, -507720.66, -5017.3896, -0.006132814, -0.035322458, -353525.38, 9006.03, 0.0, 10.006065, 9.985676 
4.5536846e+2, 2.7299246e+2, -246437.19, -403922.44, -3867.7498, 0.016755963, -0.03231499, -246342.27, 18327.8, 0.0, 10.0066395, 9.98579 
4.5540896e+2, 2.8297678e+2, -160723.06, -348451.16, -2173.2158, 0.024339467, -0.032507528, -160697.9, 6125.81, 0.0, 10.007365, 9.982529 
4.5544922e+2, 2.9295886e+2, -50137.86, -248165.75, -3994.7417, 0.00003079163, -0.04497686, -50057.305, 18942.035, 0.0, 10.008389, 9.982183 
4.5549e+2, 3.029449e+2, 69443.555, -74002.03, -1473.9794, -0.011341991, -0.049654882, 69458.7, 69458.7, 0.0, 10.009315, 9.990311 
4.5553118e+2, 3.1293574e+2, 82030.88, -62756.156, 1058.8629, 0.0047524357, -0.0392632, 82038.625, 82038.625, 0.0, 10.009956, 9.990778 
4.6476388e+2, 1.2306353e+2, -1769111.5, -1744393.1, -4638.274, -0.022200406, -0.031381555, -1743551.4, -9577.466, 0.004589857, 9.996375, 9.999645 
4.6480605e+2, 1.3306266e+2, -1664712.8, -1648524.8, 1788.3395, -0.0007465722, -0.032349892, -1648329.5, -12347.276, 0.0029879087, 9.997026, 9.999179 
4.6484795e+2, 1.4306106e+2, -1565695.5, -1563729.3, -1584.4164, 0.013589422, -0.051130284, -1562847.6, -24849.643, 0.0016192476, 9.997693, 9.997953 
4.6488935e+2, 1.5305912e+2, -1457864.1, -1461308.0, -4381.738, 0.0018878047, -0.038192816, -1454878.1, -14861.32, 0.00069287396, 9.998375, 9.997915 
4.649302e+2, 1.6305591e+2, -1367897.8, -1396113.0, -10545.668, -0.0053536203, -0.032088727, -1364391.9, -22343.63, 0.00022437889, 9.999084, 9.9953375 
4.6497047e+2, 1.7305097e+2, -1259985.0, -1296087.9, -9675.078, 0.0021479488, -0.03937741, -1257555.6, -13458.906, 0.000053673917, 9.999878, 9.995088 
4.6501076e+2, 1.8304527e+2, -1161507.0, -1214680.1, -7524.824, 0.0054701944, -0.041198894, -1160462.6, -14310.221, 0.000009398119, 10.000631, 9.99359 
4.650515e+2, 1.9303893e+2, -1053343.5, -1111772.4, -8096.8853, -0.0018182873, -0.036996037, -1052242.3, -4027.5667, 0.0000012027082, 10.001321, 9.993586 
4.6509206e+2, 2.0303144e+2, -962891.9, -1043384.25, -10300.335, -0.008134741, -0.03667741, -961594.7, -11306.749, 0.00000011262272, 10.001927, 9.991272 
4.6513227e+2, 2.130224e+2, -859551.7, -945128.75, -8357.8125, -0.012548715, -0.049195305, -858743.06, -6366.7095, 0.000000007732489, 10.00239, 9.991063 
4.651726e+2, 2.2301283e+2, -761951.0, -860122.75, -7420.0796, -0.010879385, -0.053682327, -761393.4, -6923.169, 0.00000000039024706, 10.002912, 9.989922 
4.652131e+2, 2.3300292e+2, -653618.8, -756385.0, -10543.02, 0.002366221, -0.044122513, -652548.3, 4019.0205, 0.0000000000032348013, 10.003582, 9.989981 
4.6525356e+2, 2.4299175e+2, -563240.4, -693112.6, -11689.714, 0.008419385, -0.035162736, -562196.56, -3519.6807, 0.00000000000011301746, 10.004395, 9.987213 
4.652938e+2, 2.5297868e+2, -451494.7, -592346.4, -8670.025, -0.0013326094, -0.03249369, -450963.0, 9842.319, 0.0, 10.0055, 9.986867 
4.6533436e+2, 2.6296487e+2, -348977.0, -507033.34, -5347.075, -0.0016438913, -0.030921184, -348796.3, 14144.287, 0.0, 10.006445, 9.985539 
4.653753e+2, 2.729504e+2, -242256.98, -404435.97, -7861.481, 0.016876087, -0.036753796, -241876.8, 23205.385, 0.0, 10.007021, 9.985569 
4.6541643e+2, 2.8293458e+2, -156997.58, -345971.4, -6697.3096, 0.023238277, -0.03968069, -156760.52, 10476.657, 0.0, 10.007584, 9.982587 
4.654575e+2, 2.929169e+2, -53843.402, -248463.3, -4774.121, 0.0052918275, -0.040696733, -53726.36, 15684.116, 0.0, 10.0080595, 9.982321 
4.6549907e+2, 3.0290297e+2, 60644.973, -79993.27, -1332.805, -0.004289197, -0.042205885, 60657.6, 60657.6, 0.0, 10.0087805, 9.990151 
4.6554106e+2, 3.128934e+2, 79552.195, -66639.05, -6008.575, 0.0010726434, -0.048511345, 79798.734, 79798.734, 0.0, 10.009902, 9.990521 
4.7476056e+2, 1.23021804e+2, -1768623.5, -1742135.8, -2685.9744, 0.0071059135, -0.047567032, -1741866.1, -7483.821, 0.007113215, 9.9963255, 9.999817 
4.7480303e+2, 1.3302119e+2, -1664820.0, -1647963.5, 4062.5562, -0.005379388, -0.02894778, -1647035.5, -10647.318, 0.004643645, 9.996999, 9.999224 
4.7484538e+2, 1.4301929e+2, -1570767.1, -1573571.6, 668.3201, -0.01564922, -0.052801397, -1570616.0, -32209.082, 0.0025262511, 9.997672, 9.997291 
4.748876e+2, 1.530165e+2, -1464225.1, -1473868.4, -2055.6047, -0.010163462, -0.04426311, -1463805.1, -23370.813, 0.0010866441, 9.998357, 9.997065 
4.7492927e+2, 1.630128e+2, -1367070.8, -1394022.4, -7942.7627, -0.007652401, -0.03967968, -1364904.1, -22433.594, 0.00035438547, 9.999069, 9.995482 
4.7497025e+2, 1.7300825e+2, -1257298.6, -1290436.0, -6795.082, -0.007949414, -0.043844834, -1255959.4, -11444.136, 0.000085576154, 9.999876, 9.995468 
4.7501132e+2, 1.8300274e+2, -1163204.6, -1218164.5, -5001.7046, -0.0042020725, -0.041960016, -1162753.1, -16183.822, 0.000015172572, 10.000633, 9.993348 
4.7505295e+2, 1.9299605e+2, -1056120.4, -1117626.1, -5505.0854, 0.007950471, -0.031996362, -1055631.5, -6996.616, 0.0000019737136, 10.00133, 9.993176 
4.750942e+2, 2.0298852e+2, -959946.5, -1037369.0, -8473.592, 0.012487455, -0.027983397, -959029.94, -8321.291, 0.00000018875323, 10.001932, 9.991675 
4.751348e+2, 2.1298008e+2, -855201.7, -936261.6, -6598.7407, 0.00028099283, -0.041179664, -854668.06, -1876.8458, 0.000000013307983, 10.002397, 9.991662 
4.7517553e+2, 2.2297056e+2, -765932.4, -868571.0, -5039.5435, -0.007613563, -0.05040661, -765685.5, -10801.469, 0.00000000069387657, 10.002923, 9.989336 
4.7521663e+2, 2.3295967e+2, -659731.2, -769395.7, -7853.1987, -0.005096082, -0.052954983, -659171.7, -2180.6938, 0.000000000009472845, 10.003598, 9.989082 
4.752579e+2, 2.4294813e+2, -559392.1, -685323.94, -7742.951, 0.00081308896, -0.047426313, -558917.8, 186.3319, 0.00000000000033105902, 10.004402, 9.987736 
4.7529945e+2, 2.5293607e+2, -445596.9, -579581.2, -4572.744, 0.013318296, -0.031384483, -445441.03, 15781.729, 0.000000000000000004361499, 10.005475, 9.987745 
4.75341e+2, 2.6292267e+2, -352011.28, -512371.6, -2986.345, 0.01675106, -0.028424365, -351955.7, 11398.197, 0.000000000000000025260425, 10.006406, 9.985189 
4.7538218e+2, 2.729073e+2, -247430.6, -414650.3, -5832.1084, -0.0010568715, -0.059623808, -247227.44, 18277.121, 0.00000000000000010669206, 10.007002, 9.984877 
4.7542372e+2, 2.8289115e+2, -154572.27, -340874.34, -4893.196, -0.006560998, -0.06604192, -154443.84, 13218.885, 0.00000000000000033199385, 10.007583, 9.982932 
4.754657e+2, 2.9287452e+2, -49380.7, -239602.1, -3413.9688, 0.018773638, -0.021832623, -49319.445, 20506.553, 0.00000000000000078039946, 10.008081, 9.982911 
4.7550818e+2, 3.028607e+2, 55544.836, -91191.98, 2018.718, 0.026168166, -0.0107621215, 55572.6, 55572.6, 0.0000000000000014474501, 10.00881, 9.989362 
4.7555086e+2, 3.1284955e+2, 71417.13, -83502.055, -1816.7137, -0.012773239, -0.067467615, 71438.44, 71438.44, 0.0000000000000022339833, 10.009905, 9.989357 
4.8475704e+2, 1.22978956e+2, -1764653.3, -1739952.4, -7989.3223, 0.013517063, -0.05863737, -1737593.5, -2791.5732, 0.01049777, 9.996572, 9.999838 
4.8480028e+2, 1.3297838e+2, -1658747.4, -1647079.1, -3053.4045, -0.0039250487, -0.022438109, -1646328.4, -9520.6455, 0.0068823104, 9.997489, 9.999037 
4.848432e+2, 1.4297624e+2, -1564532.9, -1572576.0, -7251.7505, -0.022439606, -0.048877478, -1560262.1, -21433.443, 0.0037656925, 9.9981785, 9.997101 
4.8488593e+2, 1.5297319e+2, -1465264.6, -1476433.6, -5479.421, -0.010932466, -0.04703874, -1463025.4, -22166.848, 0.0016323061, 9.998368, 9.9968815 
4.8492825e+2, 1.6296937e+2, -1369919.1, -1395550.4, -7048.922, -0.004862563, -0.04497946, -1368108.5, -25212.357, 0.00053782034, 9.998874, 9.995472 
4.849702e+2, 1.729649e+2, -1254026.8, -1288555.1, -8054.779, -0.0070528677, -0.04279827, -1252240.1, -7300.2275, 0.00013162919, 10.000073, 9.995498 
4.8501214e+2, 1.829594e+2, -1158538.9, -1216616.8, -9171.742, -0.004227378, -0.038987145, -1157124.9, -10130.993, 0.000023746588, 10.000976, 9.993282 
4.8505422e+2, 1.9295254e+2, -1058223.0, -1119647.6, -7916.0957, 0.0075794533, -0.03752966, -1057219.3, -8158.0986, 0.0000031577385, 10.001222, 9.993091 
4.8509598e+2, 2.0294493e+2, -964365.44, -1039742.25, -10204.139, 0.012661493, -0.036273357, -963008.44, -11872.754, 0.00000031029586, 10.001633, 9.991656 
4.8513725e+2, 2.1293657e+2, -854283.0, -935981.25, -12566.131, 0.0033700175, -0.03844962, -852393.9, 823.5614, 0.000000022599854, 10.002457, 9.991645 
4.8517865e+2, 2.2292711e+2, -761327.0, -867058.9, -12037.095, -0.0032972938, -0.041958064, -759973.94, -4663.826, 0.000000001223376, 10.003257, 9.98927 
4.8522043e+2, 2.3291603e+2, -653962.2, -767667.06, -9262.313, -0.004418387, -0.051702123, -653212.6, 4205.978, 0.000000000023981296, 10.004028, 9.98899 
4.852624e+2, 2.4290442e+2, -555557.56, -682758.9, -7157.395, -0.0002980855, -0.05195136, -555156.06, 4376.3853, 0.0000000000008389532, 10.004624, 9.987804 
4.8530462e+2, 2.528924e+2, -453456.22, -582424.8, -9281.767, 0.013170196, -0.03810281, -452791.66, 8858.601, 0.0000000000000001261701, 10.004885, 9.987831 
4.8534688e+2, 2.6287913e+2, -366069.3, -518412.97, -9201.903, 0.017051015, -0.034535084, -365515.5, -1735.0156, 0.00000000000000073087254, 10.005396, 9.985258 
4.8538888e+2, 2.7286386e+2, -254916.03, -417892.53, -7230.736, -0.0012526461, -0.05648827, -254595.86, 11334.248, 0.0000000000000030875687, 10.006457, 9.984916 
4.8543125e+2, 2.828478e+2, -156381.56, -342672.63, -4836.0864, -0.008359179, -0.05642887, -156256.11, 11831.649, 0.000000000000009609587, 10.007487, 9.982854 
4.854738e+2, 2.9283094e+2, -46791.76, -239963.84, -8151.0093, 0.011505588, -0.020463256, -46448.438, 23804.441, 0.000000000000022592925, 10.008318, 9.982767 
4.8551708e+2, 3.0281687e+2, 59307.81, -90112.34, -3340.189, 0.021784347, -0.02849372, 59382.44, 59382.44, 0.00000000000004190963, 10.009082, 9.989302 
4.855608e+2, 3.1280598e+2, 66230.86, -86209.73, -557.47144, 0.0076907855, -0.052655138, 66232.9, 66232.9, 0.000000000000064683685, 10.009533, 9.989355 
4.947534e+2, 1.2293502e+2, -1766727.1, -1742763.4, -4996.858, -0.011337172, -0.062632725, -1741763.1, -6530.5996, 0.014911252, 9.996512, 9.99967 
4.9479786e+2, 1.3293415e+2, -1662509.0, -1653956.3, -98.870384, 0.001622291, -0.012648387, -1653955.1, -16713.723, 0.009830928, 9.997458, 9.998576 
4.9484155e+2, 1.4293186e+2, -1562554.6, -1567988.4, -6477.835, -0.007365745, -0.03991808, -1558247.0, -18983.025, 0.0054196375, 9.99816, 9.9974165 
4.948844e+2, 1.5292922e+2, -1461878.1, -1469069.4, -5102.437, -0.0025451637, -0.04717549, -1459231.6, -17942.088, 0.0023727028, 9.998358, 9.997383 
4.949272e+2, 1.6292559e+2, -1371231.0, -1397974.3, -3485.4429, -0.00008121014, -0.0482487, -1370784.1, -27459.19, 0.00079196517, 9.998864, 9.995305 
4.949704e+2, 1.729209e+2, -1256544.6, -1293622.4, -3658.3389, 0.0026138541, -0.035949677, -1256187.0, -10816.052, 0.00019707251, 10.000072, 9.995147 
4.9501318e+2, 1.8291523e+2, -1157829.4, -1215007.8, -7741.437, 0.0023973293, -0.032450452, -1156799.9, -9373.116, 0.000036298647, 10.000974, 9.993389 
4.9505532e+2, 1.9290836e+2, -1056561.6, -1116309.8, -7150.7026, -0.005712386, -0.05411088, -1055717.8, -6223.8657, 0.0000049503406, 10.001231, 9.99331 
4.950974e+2, 2.029006e+2, -967181.44, -1045761.3, -7643.2773, -0.010310788, -0.061667, -966444.9, -14875.248, 0.00000050112493, 10.001644, 9.991237 
4.9513966e+2, 2.128919e+2, -858327.3, -944592.5, -9321.177, -0.005429305, -0.040321287, -857331.6, -3676.4368, 0.000000037748414, 10.00247, 9.991046 
4.9518195e+2, 2.2288239e+2, -758514.1, -861312.8, -9047.392, -0.0006540672, -0.02804288, -757723.9, -1975.2361, 0.0000000021194788, 10.003261, 9.989656 
4.952245e+2, 2.328719e+2, -649502.6, -758312.2, -6345.224, 0.0020783166, -0.041290145, -649133.8, 8717.346, 0.00000000005330912, 10.004023, 9.989628 
4.9526706e+2, 2.4286047e+2, -557970.3, -687575.7, -5886.4033, 0.0028848054, -0.049271155, -557703.5, 2259.531, 0.000000000001871645, 10.00462, 9.987474 
4.9530935e+2, 2.5284773e+2, -457696.06, -591298.7, -8325.54, -0.0010164862, -0.051142305, -457179.25, 4908.7217, 0.000000000000009575241, 10.0048895, 9.987222 
4.9535212e+2, 2.6283422e+2, -363136.2, -512547.28, -5810.5513, -0.000028106308, -0.04792838, -362910.56, 1309.7526, 0.000000000000055453838, 10.005404, 9.98565 
4.9539548e+2, 2.7281997e+2, -250638.78, -408700.78, -3395.175, 0.011694329, -0.031628232, -250565.89, 15794.663, 0.0000000000002341752, 10.006444, 9.985545 
4.9543893e+2, 2.8280425e+2, -159740.8, -348986.0, -1798.25, 0.011389128, -0.01571801, -159723.7, 8790.855, 0.0000000000007286158, 10.007458, 9.982432 
4.954819e+2, 2.9278618e+2, -52260.887, -250900.13, -5125.801, -0.014151281, -0.031237438, -52128.707, 18562.516, 0.0000000000017125554, 10.008301, 9.982022 
4.9552584e+2, 3.0277136e+2, 62558.06, -83111.44, -1190.3339, -0.0133858975, -0.08865687, 62567.785, 62567.785, 0.0000000000031753393, 10.009078, 9.989778 
4.955708e+2, 3.127623e+2, 72183.41, -73126.69, 655.6268, 0.05171895, -0.007835885, 72186.37, 72186.37, 0.000000000004897224, 10.009508, 9.990259 
5.0474995e+2, 1.2289055e+2, -1760871.9, -1737638.0, -6212.0513, -0.020503886, -0.05469026, -1736081.4, -412.75336, 0.020533854, 9.9968, 9.999874 
5.0479525e+2, 1.3288948e+2, -1665396.6, -1657026.1, 710.8603, 0.006020252, -0.015073591, -1656966.1, -19287.004, 0.013628187, 9.997319, 9.998438 
5.048397e+2, 1.4288704e+2, -1564697.0, -1569329.6, -5587.572, -0.0012425751, -0.048029322, -1560964.6, -21261.563, 0.0075791995, 9.998014, 9.997399 
5.0488317e+2, 1.528845e+2, -1451034.5, -1463908.5, -8146.1133, 0.00085644785, -0.04559504, -1447089.1, -5361.2705, 0.0033562193, 9.999088, 9.9973755 
5.0492656e+2, 1.6288085e+2, -1357452.6, -1392355.1, -8805.693, 0.0013564837, -0.04240187, -1355356.9, -11593.516, 0.0011366707, 9.999837, 9.995209 
5.049704e+2, 1.7287597e+2, -1260083.8, -1296746.1, -7441.5605, 0.0028342574, -0.03904168, -1258630.9, -12819.618, 0.00028802847, 9.999881, 9.995021 
5.0501376e+2, 1.8287016e+2, -1169077.3, -1220453.3, -10799.462, 0.0018852276, -0.03965009, -1166899.5, -19031.447, 0.000054231128, 10.000194, 9.993394 
5.0505656e+2, 1.9286342e+2, -1056594.6, -1116019.3, -11560.088, -0.0066420375, -0.053269405, -1054425.0, -4490.856, 0.0000075890043, 10.001202, 9.99334 
5.0509924e+2, 2.028557e+2, -961604.1, -1043737.0, -11908.634, -0.010902666, -0.05684135, -959912.3, -7902.6377, 0.00000079091893, 10.002041, 9.9911785 
5.051421e+2, 2.1284685e+2, -858205.3, -945622.3, -10122.044, -0.005242146, -0.042558923, -857048.56, -2951.8203, 0.00000006148999, 10.002512, 9.990956 
5.0518507e+2, 2.2283727e+2, -762423.44, -862999.0, -8811.575, 0.0010479472, -0.033141874, -761657.25, -5466.3154, 0.0000000035684378, 10.0029745, 9.98968 
5.0522834e+2, 2.328269e+2, -656482.44, -761308.3, -10121.638, 0.006337566, -0.037687168, -655514.06, 2778.2153, 0.000000000106601436, 10.003517, 9.989663 
5.052715e+2, 2.4281552e+2, -564902.1, -691726.06, -11659.971, 0.0068897842, -0.040596753, -563839.06, -3435.4578, 0.0000000000037957758, 10.004166, 9.987406 
5.0531435e+2, 2.5280258e+2, -455730.03, -591928.9, -10999.589, -0.004260502, -0.048994433, -454847.4, 7682.9043, 0.0000000000002126687, 10.00508, 9.987084 
5.053577e+2, 2.6278898e+2, -356164.25, -507969.13, -6946.5293, -0.0061302697, -0.053320862, -355847.03, 8816.601, 0.0000000000012317329, 10.00582, 9.985759 
5.054018e+2, 2.7277485e+2, -253564.58, -408436.9, -7539.896, 0.012477898, -0.040986724, -253198.36, 13604.418, 0.0000000000052015844, 10.006161, 9.985693 
5.054461e+2, 2.827594e+2, -169003.8, -351554.63, -5374.907, 0.01767937, -0.016974991, -168845.67, 108.61621, 0.000000000016184465, 10.006724, 9.982606 
5.0549e+2, 2.9274163e+2, -58807.91, -252554.78, -2980.092, -0.006745129, -0.014341271, -58762.086, 12365.621, 0.000000000038037778, 10.007768, 9.98217 
5.0553477e+2, 3.027266e+2, 58285.773, -84079.99, 2063.01, -0.010929761, -0.1079883, 58315.66, 58315.66, 0.000000000070511263, 10.008719, 9.989892 
5.0557995e+2, 3.1271783e+2, 67866.77, -72092.25, -1560.7131, 0.04163265, -0.0074230707, 67884.18, 67884.18, 0.0000000001086931, 10.009057, 9.990554 
5.147468e+2, 1.22845635e+2, -1757450.3, -1729410.6, -4543.223, -0.0207031, -0.033027433, -1728692.9, 7416.308, 0.027554031, 9.996748, 10.000464 
5.147926e+2, 1.3284442e+2, -1664973.1, -1654897.6, 2218.687, 0.007177568, -0.029855575, -1654430.8, -16310.227, 0.018419899, 9.997276, 9.998595 
5.148376e+2, 1.4284182e+2, -1568020.5, -1575168.9, -2260.1711, -0.0066804136, -0.07376516, -1567365.9, -27219.967, 0.010340942, 9.997975, 9.997015 
5.148822e+2, 1.5283903e+2, -1455144.6, -1472004.4, -4309.349, -0.0041472153, -0.042034466, -1454107.0, -11933.727, 0.0046347342, 9.999075, 9.996825 
5.149263e+2, 1.6283517e+2, -1357670.4, -1392788.1, -8252.031, -0.0051201484, -0.02704459, -1355828.0, -11616.714, 0.0015935765, 9.999844, 9.995171 
5.149702e+2, 1.7283008e+2, -1259220.9, -1295083.9, -7664.33, -0.0097640725, -0.05234352, -1257651.5, -11390.701, 0.00041132476, 9.999894, 9.995124 
5.150139e+2, 1.8282422e+2, -1169561.3, -1221608.3, -7983.9937, -0.009407572, -0.06096148, -1168364.1, -20045.916, 0.00007915646, 10.000202, 9.993306 
5.1505786e+2, 1.9281772e+2, -1057410.9, -1117976.8, -7763.443, 0.0014072363, -0.034927547, -1056431.5, -6049.377, 0.0000113579035, 10.001215, 9.993194 
5.151015e+2, 2.028102e+2, -959588.5, -1039739.5, -9854.623, 0.0074139554, -0.022072444, -958394.6, -5938.5435, 0.0000012170423, 10.00205, 9.991443 
5.151447e+2, 2.1280134e+2, -855425.94, -940107.3, -8411.865, 0.0016104996, -0.044980887, -854598.44, -55.696148, 0.000000097492624, 10.002525, 9.991322 
5.1518804e+2, 2.2279164e+2, -764393.25, -867270.4, -6882.973, -0.00045191424, -0.05637024, -763934.75, -7297.132, 0.0000000058393734, 10.002985, 9.98938 
5.1523185e+2, 2.3278101e+2, -659831.94, -768463.3, -7877.2974, 0.0067571914, -0.04064134, -659263.75, -521.64636, 0.00000000019841896, 10.003528, 9.989167 
5.152757e+2, 2.4276954e+2, -564104.94, -690052.3, -8447.679, 0.009083336, -0.026740704, -563540.9, -2686.4163, 0.000000000007634904, 10.004165, 9.987517 
5.1531947e+2, 2.5275686e+2, -454080.1, -588148.5, -7497.9136, -0.00007125626, -0.03331948, -453662.06, 9316.321, 0.0000000000039886605, 10.005064, 9.987347 
5.153635e+2, 2.6274326e+2, -357266.3, -509842.0, -5320.383, -0.004857886, -0.052264612, -357081.03, 8030.697, 0.000000000023101169, 10.005805, 9.985635 
5.1540786e+2, 2.7272844e+2, -255451.63, -412240.88, -6363.409, 0.0008899325, -0.07957047, -255193.78, 12063.069, 0.00000000009755803, 10.006156, 9.985434 
5.1545274e+2, 2.8271317e+2, -164539.16, -342174.44, -2169.485, 0.0101660015, -0.05229413, -164512.66, 4894.155, 0.000000000303523, 10.00672, 9.983245 
5.154981e+2, 2.92697e+2, -53653.516, -240691.64, 525.2266, 0.025951428, 0.026952283, -53652.043, 17912.936, 0.00000000071315065, 10.007719, 9.982998 
5.155438e+2, 3.0268207e+2, 55842.992, -87850.62, 3502.7012, 0.021009732, -0.094464466, 55928.324, 55928.324, 0.0000000013213384, 10.008674, 9.989647 
5.155885e+2, 3.1267247e+2, 67014.414, -74813.39, -1020.9871, -0.013003196, -0.03011328, 67021.76, 67021.76, 0.0000000020352628, 10.009116, 9.990328 
5.2474374e+2, 1.22800134e+2, -1749644.8, -1723970.5, -4446.6494, -0.016699664, -0.032884903, -1723222.1, 13332.888, 0.036176804, 9.99718, 10.000646 
5.247901e+2, 1.3279872e+2, -1660147.9, -1655744.5, -1196.9545, 0.011385555, -0.02904229, -1655440.1, -16871.832, 0.024365017, 9.997727, 9.998317 
5.2483577e+2, 1.4279582e+2, -1564159.3, -1575397.5, -6255.679, -0.007513866, -0.074839525, -1561369.6, -20773.29, 0.013811107, 9.998323, 9.99682 
5.248812e+2, 1.5279287e+2, -1458112.9, -1475235.6, -5415.095, -0.005536577, -0.04437927, -1456544.0, -13918.58, 0.0062664114, 9.998944, 9.996663 
5.24926e+2, 1.6278888e+2, -1361953.3, -1395414.6, -9149.516, -0.0061229724, -0.029590216, -1359614.9, -14950.14, 0.002187711, 9.999567, 9.995127 
5.2497023e+2, 1.727838e+2, -1254280.1, -1292983.0, -9985.463, -0.009648154, -0.052364882, -1251855.8, -5141.5796, 0.0005752219, 10.000232, 9.995103 
5.250144e+2, 1.8277791e+2, -1161136.4, -1218679.5, -9902.421, -0.008305322, -0.059530526, -1159480.0, -10707.942, 0.00011314291, 10.000821, 9.9932 
5.250591e+2, 1.9277127e+2, -1057253.8, -1119305.9, -9253.312, 0.0018102555, -0.035245903, -1055903.3, -5065.9443, 0.000016648359, 10.001279, 9.993068 
5.251034e+2, 2.0276368e+2, -963424.9, -1041167.4, -12562.953, 0.0074954657, -0.022926873, -961445.1, -8533.165, 0.0000018353236, 10.00176, 9.991483 
5.251472e+2, 2.1275494e+2, -856574.3, -939804.75, -13406.799, 0.0029021334, -0.04292074, -854468.06, 529.4005, 0.00000015174481, 10.002397, 9.991402 
5.2519107e+2, 2.2274525e+2, -764545.8, -867629.6, -12611.555, 0.00055252353, -0.05520348, -763025.3, -5933.2764, 0.000000009413526, 10.002972, 9.989359 
5.2523535e+2, 2.3273449e+2, -660588.75, -769589.4, -10686.156, 0.0039293393, -0.048339363, -659551.0, -353.09564, 0.00000000035784709, 10.003494, 9.989106 
5.2527976e+2, 2.42723e+2, -565830.56, -690807.2, -8893.602, 0.0069044316, -0.034215268, -565200.8, -3890.2668, 0.00000000002014928, 10.004029, 9.987532 
5.253244e+2, 2.5271052e+2, -459168.88, -590522.2, -9341.106, 0.007069724, -0.023937084, -458507.9, 4924.9375, 0.000000000054994186, 10.004699, 9.987359 
5.253692e+2, 2.6269692e+2, -362812.53, -511875.0, -8316.762, 0.005379846, -0.04238838, -362349.94, 3215.68, 0.00000000031851738, 10.005379, 9.9857025 
5.2541393e+2, 2.7268192e+2, -255507.61, -411974.2, -7693.128, -0.0015993111, -0.09624976, -255130.27, 12582.426, 0.000000001345189, 10.006119, 9.985475 
5.2545935e+2, 2.826667e+2, -164431.6, -341551.97, -3756.3464, 0.0017291573, -0.06624244, -164351.97, 5509.6597, 0.0000000041848507, 10.006689, 9.983301 
5.255053e+2, 2.92651e+2, -67352.86, -247336.98, -6318.5156, 0.026690766, 0.055058103, -67131.31, 4884.471, 0.000000009829297, 10.006767, 9.982994 
5.2555186e+2, 3.026356e+2, 39627.133, -95340.35, -3666.2532, 0.02256091, -0.10888143, 39726.65, 39726.65, 0.000000018203474, 10.007529, 9.98967 
5.2559775e+2, 3.1262615e+2, 75102.02, -64439.477, -4698.934, -0.013449663, -0.0383998, 75260.07, 75260.07, 0.00000002802278, 10.009378, 9.990904 
5.34741e+2, 1.2275418e+2, -1753041.0, -1729215.8, -3654.786, -0.015522713, -0.055414326, -1728667.8, 8337.239, 0.046640746, 9.997117, 10.000308 
5.347879e+2, 1.327524e+2, -1666615.8, -1667858.4, 380.1584, 0.016681017, -0.011754727, -1666508.8, -27486.574, 0.031651113, 9.997687, 9.997506 
5.348341e+2, 1.4274909e+2, -1564465.6, -1575304.6, -4504.24, -0.005382117, -0.05053183, -1562838.3, -21783.639, 0.018118156, 9.998301, 9.99683 
5.348801e+2, 1.5274605e+2, -1456630.8, -1471627.5, -3498.3364, -0.006326025, -0.052779634, -1455854.9, -12770.544, 0.008324205, 9.998925, 9.996912 
5.349256e+2, 1.6274205e+2, -1362539.1, -1396488.5, -6983.4067, -0.0059013804, -0.050134514, -1361158.8, -16035.34, 0.002952043, 9.999567, 9.995047 
5.349706e+2, 1.7273715e+2, -1255508.9, -1295534.1, -7769.692, 0.0011713995, -0.038949735, -1254053.5, -6882.066, 0.0007912693, 10.000238, 9.99492 
5.3501534e+2, 1.8273118e+2, -1161814.4, -1220291.8, -8356.524, 0.002965577, -0.03565584, -1160643.6, -11413.666, 0.00015928308, 10.000835, 9.993079 
5.350603e+2, 1.9272402e+2, -1057763.8, -1120702.6, -7760.372, -0.008828314, -0.05463114, -1056821.0, -5520.784, 0.000024088198, 10.001301, 9.992957 
5.3510493e+2, 2.027161e+2, -964436.7, -1043520.2, -10489.003, -0.014749906, -0.05969346, -963069.1, -9691.402, 0.0000027417923, 10.001774, 9.991312 
5.351495e+2, 2.1270758e+2, -857588.6, -942349.6, -10965.195, -0.0049120625, -0.037948094, -856193.06, -731.71265, 0.00000023528659, 10.00242, 9.991211 
5.3519404e+2, 2.2269808e+2, -762973.25, -864490.7, -10572.386, 0.0006415914, -0.031558946, -761883.9, -4329.26, 0.000000015275884, 10.002976, 9.989568 
5.3523874e+2, 2.3268725e+2, -658147.94, -764770.75, -8654.077, -0.0039448086, -0.059588082, -657450.1, 2210.4314, 0.0000000006877151, 10.003506, 9.989427 
5.352837e+2, 2.426758e+2, -566218.25, -691764.94, -6594.3564, -0.0017038978, -0.060994357, -565872.9, -4100.068, 0.00000000013052304, 10.004034, 9.987461 
5.3532916e+2, 2.526634e+2, -460810.63, -593635.25, -6763.47, 0.0153755965, -0.020287266, -460467.1, 3427.31, 0.000000000612615, 10.004683, 9.987152 
5.3537476e+2, 2.6264995e+2, -361818.38, -509369.94, -5702.9272, 0.021190917, -0.024300301, -361598.28, 4428.074, 0.0000000034131882, 10.005359, 9.985881 
5.354201e+2, 2.72635e+2, -254070.42, -408456.8, -5144.0513, 0.0018488104, -0.09446548, -253899.22, 14273.216, 0.000000014339296, 10.006094, 9.9857235 
5.3546596e+2, 2.8261983e+2, -167466.84, -347585.72, -3302.2068, -0.008579208, -0.063479066, -167406.33, 2914.6218, 0.00000004456666, 10.006679, 9.982892 
5.3551185e+2, 2.9260364e+2, -71598.13, -256917.88, -6204.404, -0.0006733771, 0.07227965, -71390.64, 1089.4661, 0.00000010462058, 10.0068035, 9.982318 
5.355591e+2, 3.025873e+2, 41660.29, -91959.94, 2128.806, -0.003780437, -0.14565136, 41694.195, 41694.195, 0.00000019365781, 10.007573, 9.98987 
5.356075e+2, 3.1257907e+2, 82717.24, -46624.258, 1677.671, 0.024169093, -0.005559617, 82739.0, 82739.0, 0.0000002979929, 10.009299, 9.992152 
5.4473823e+2, 1.22707285e+2, -1751556.0, -1731471.5, -9010.929, -0.008207475, -0.06033819, -1728021.4, 9442.874, 0.05923043, 9.997339, 10.000049 
5.447859e+2, 1.3270521e+2, -1659800.4, -1668503.3, -1033.0679, 0.015733749, -0.014186631, -1659679.4, -20194.787, 0.04050611, 9.99831, 9.997155 
5.448328e+2, 1.4270167e+2, -1553047.1, -1570435.4, -5230.401, -0.0051980377, -0.050110076, -1551595.1, -10075.807, 0.023422668, 9.999092, 9.996778 
5.448792e+2, 1.5269864e+2, -1451250.5, -1468803.3, -6319.9805, -0.0052691693, -0.054478195, -1449211.8, -5662.9844, 0.010902844, 9.999271, 9.996934 
5.449252e+2, 1.6269457e+2, -1362826.6, -1398021.0, -10170.989, -0.0037845175, -0.052375026, -1360098.8, -14510.285, 0.003931351, 9.999597, 9.994925 
5.4497087e+2, 1.7268957e+2, -1254694.8, -1297032.3, -10701.997, 0.0031193474, -0.037855104, -1252143.3, -4505.5415, 0.0010759312, 10.000368, 9.994749 
5.450162e+2, 1.8268345e+2, -1159994.6, -1220331.1, -12107.757, 0.0045111803, -0.03379551, -1157655.6, -7957.9697, 0.0002222064, 10.000989, 9.992997 
5.450616e+2, 1.926762e+2, -1057326.5, -1121194.0, -11587.498, -0.00908922, -0.056825206, -1055289.3, -3520.6143, 0.00003466305, 10.001348, 9.992899 
5.451067e+2, 2.0266822e+2, -965846.9, -1044791.4, -13462.44, -0.016003037, -0.06316359, -963614.25, -9767.403, 0.0000040952546, 10.001693, 9.9912615 
5.4515177e+2, 2.1265969e+2, -861725.6, -944834.3, -12833.492, -0.0063851792, -0.039027642, -859789.06, -3858.3887, 0.00000036843403, 10.002148, 9.991171 
5.4519683e+2, 2.2265014e+2, -767526.0, -866804.4, -12173.083, 0.00026716274, -0.03231317, -766055.2, -8030.9565, 0.000000026361263, 10.00266, 9.989561 
5.452423e+2, 2.3263933e+2, -658188.4, -764846.44, -12362.212, -0.0020223414, -0.06121807, -656774.3, 3355.8914, 0.0000000023307902, 10.003491, 9.989425 
5.4528785e+2, 2.4262792e+2, -564090.6, -690180.1, -11968.63, 0.00048593356, -0.06002135, -562964.6, -722.7095, 0.0000000015642249, 10.004137, 9.987518 
5.4533374e+2, 2.5261563e+2, -462441.6, -593903.0, -10474.802, 0.012301169, -0.014433762, -461612.2, 2750.394, 0.000000005562811, 10.004529, 9.987208 
5.453798e+2, 2.6260218e+2, -367464.94, -512144.47, -8020.528, 0.016871164, -0.022381397, -367021.66, -527.2485, 0.000000028366085, 10.004961, 9.985881 
5.45426e+2, 2.7258703e+2, -261001.23, -412374.38, -9164.907, 0.007892474, -0.10759189, -260448.36, 8194.124, 0.00000011761462, 10.005638, 9.985666 
5.454726e+2, 2.8257197e+2, -171081.34, -348685.53, -7748.083, 0.0024853903, -0.069485694, -170743.97, 46.088383, 0.0000003647328, 10.006388, 9.982953 
5.455189e+2, 2.925561e+2, -64285.797, -253368.13, -6454.078, -0.0032595228, 0.09996035, -64065.754, 8879.906, 0.00000085578625, 10.007276, 9.982344 
5.455669e+2, 3.0253905e+2, 46282.125, -96113.39, 3816.9146, -0.018572086, -0.16897678, 46384.363, 46384.363, 0.0000015835924, 10.008119, 9.989341 
5.456162e+2, 3.125304e+2, 68291.734, -50037.11, -4578.77, 0.028346222, -0.012838861, 68468.65, 68468.65, 0.0000024360013, 10.008099, 9.99251 
5.5473566e+2, 1.22659564e+2, -1754366.5, -1735113.8, -7855.9497, -0.0011898068, -0.04510257, -1732315.0, 5616.7173, 0.07429232, 9.997255, 9.999828 
5.547841e+2, 1.326572e+2, -1659845.5, -1667132.1, 2166.7068, 0.0058529433, -0.03643428, -1659249.9, -19295.055, 0.051209517, 9.998254, 9.997267 
5.5483186e+2, 1.4265364e+2, -1554740.8, -1572929.9, -4361.6514, -0.009183251, -0.07430227, -1553748.9, -11759.147, 0.02992419, 9.999059, 9.996617 
5.548785e+2, 1.5265068e+2, -1453279.8, -1472347.6, -6254.189, -0.005884461, -0.049655043, -1451411.4, -7392.642, 0.014122313, 9.999252, 9.996696 
5.549248e+2, 1.626465e+2, -1364077.5, -1400441.8, -8276.682, -0.004779773, -0.035997037, -1362282.4, -16222.71, 0.005183735, 9.999597, 9.994752 
5.549712e+2, 1.7264108e+2, -1255662.8, -1299122.0, -8125.9375, -0.0069481083, -0.049515337, -1254193.0, -6080.148, 0.0014511821, 10.000379, 9.994595 
5.550172e+2, 1.8263476e+2, -1160155.0, -1220935.4, -10778.292, -0.007108874, -0.054397777, -1158300.3, -8125.3, 0.0003083134, 10.001007, 9.992942 
5.5506307e+2, 1.9262783e+2, -1057173.4, -1121347.8, -10519.854, -0.0023759112, -0.041648664, -1055493.0, -3250.186, 0.000049822887, 10.001374, 9.992869 
5.5510855e+2, 2.0261998e+2, -965040.2, -1043651.25, -12074.283, 0.00011531059, -0.033098664, -963227.44, -8907.713, 0.000006177535, 10.0017185, 9.9913225 
5.5515397e+2, 2.1261118e+2, -860745.7, -943283.2, -11240.7, -0.0038400728, -0.04509081, -859242.2, -2836.338, 0.00000062156136, 10.0021715, 9.9912615 
5.5519944e+2, 2.2260144e+2, -768888.94, -869781.06, -9508.8, -0.003981944, -0.056239747, -768000.6, -9499.243, 0.0000000784953, 10.002665, 9.989353 
5.5524594e+2, 2.3259062e+2, -660262.6, -769255.25, -9024.21, 0.005629411, -0.05522107, -659520.5, 1086.9615, 0.000000033049396, 10.003497, 9.989117 
5.5529207e+2, 2.4257928e+2, -563065.25, -688004.1, -10097.188, 0.008967196, -0.035011835, -562254.5, 464.20627, 0.00000003053741, 10.004135, 9.987665 
5.5533814e+2, 2.5256708e+2, -460651.94, -589966.4, -9037.331, -0.003579325, -0.006040721, -460023.4, 4814.867, 0.00000005386784, 10.004521, 9.987478 
5.553846e+2, 2.6255357e+2, -368752.94, -514359.6, -6008.3843, -0.008117431, -0.035743766, -368505.44, -1534.6545, 0.00000019406193, 10.004936, 9.985741 
5.554317e+2, 2.7253798e+2, -263177.1, -416663.6, -6674.8945, 0.012523521, -0.13435301, -262887.34, 6235.8076, 0.00000074942295, 10.005619, 9.985383 
5.554792e+2, 2.825231e+2, -168191.22, -342533.13, -4772.179, 0.027323013, -0.080846414, -168060.69, 3208.1719, 0.0000022942224, 10.006381, 9.983372 
5.555263e+2, 2.9250824e+2, -61423.03, -246256.4, -3273.4749, 0.011447416, 0.13675672, -61365.074, 12049.423, 0.0000053700915, 10.007226, 9.982847 
5.555749e+2, 3.0249044e+2, 36459.93, -114992.02, 4514.3994, -0.02576657, -0.18279228, 36594.375, 36594.375, 0.000009930988, 10.008063, 9.988065 
5.5562407e+2, 3.1248018e+2, 65510.133, -56052.145, -5335.0845, 0.0031144132, -0.026755083, 65743.83, 65743.83, 0.000015272311, 10.00813, 9.992071 
5.647332e+2, 1.2261091e+2, -1744454.5, -1730795.8, -8531.567, 0.00223481, -0.04820527, -1726696.8, 11711.633, 0.092263974, 9.997933, 9.999825 
5.6478226e+2, 1.3260868e+2, -1656781.1, -1663333.3, 1211.6188, -0.0017652261, -0.045820598, -1656564.3, -16133.99, 0.06411256, 9.99835, 9.997476 
5.6483084e+2, 1.4260541e+2, -1559001.0, -1576374.8, -5435.206, -0.006721992, -0.062866755, -1557440.9, -14978.341, 0.037873123, 9.9988165, 9.996501 
5.648779e+2, 1.5260214e+2, -1449868.9, -1473386.4, -7686.6226, -0.0020653505, -0.046891022, -1447579.4, -3084.9937, 0.018134005, 9.999595, 9.996456 
5.649247e+2, 1.6259769e+2, -1355819.1, -1398223.8, -9771.085, -0.0016495466, -0.03943829, -1353675.9, -7137.9136, 0.0067838547, 10.000231, 9.994591 
5.6497157e+2, 1.7259216e+2, -1255324.6, -1300562.9, -9737.853, -0.008770374, -0.05096419, -1253317.5, -4725.2007, 0.0019465192, 10.0004635, 9.9944515 
5.65018e+2, 1.8258573e+2, -1163057.9, -1222531.5, -12140.506, -0.010140296, -0.05438908, -1160675.0, -10019.673, 0.0004271751, 10.0008135, 9.992923 
5.6506455e+2, 1.9257882e+2, -1053870.6, -1119503.3, -11556.6045, 0.000580041, -0.04303264, -1051895.3, 827.7201, 0.00007248392, 10.001587, 9.9928875 
5.6511056e+2, 2.025709e+2, -959861.5, -1043144.56, -14555.511, 0.0061262934, -0.034764595, -957390.94, -2590.25, 0.000010126858, 10.002154, 9.991141 
5.6515634e+2, 2.1256194e+2, -859401.0, -945331.75, -16356.871, -0.0023071489, -0.04183109, -856392.75, 495.80493, 0.0000016724213, 10.002373, 9.991019 
5.652021e+2, 2.2255203e+2, -769534.94, -870300.44, -14612.739, -0.005157527, -0.051660445, -767458.56, -8472.98, 0.00000068287227, 10.002613, 9.989339 
5.6524926e+2, 2.325412e+2, -663209.44, -770109.2, -11438.533, 0.0063345986, -0.059525978, -661999.2, -907.34106, 0.00000051860127, 10.00325, 9.989178 
5.65296e+2, 2.4252985e+2, -568955.5, -690768.44, -12543.822, 0.0117212515, -0.042200148, -567677.2, -4474.357, 0.00000047300682, 10.003714, 9.987681 
5.653425e+2, 2.5251773e+2, -466554.78, -592913.56, -13459.939, -0.0014312279, -0.005279442, -465136.94, 184.82962, 0.00000055618574, 10.0041065, 9.987477 
5.6538934e+2, 2.6250422e+2, -373695.9, -517440.13, -9896.156, -0.007224035, -0.035728633, -373017.8, -5563.5234, 0.0000011869142, 10.004599, 9.985696 
5.654373e+2, 2.7248845e+2, -262673.28, -417682.22, -8666.072, 0.010634421, -0.14355852, -262190.3, 7418.619, 0.0000037901987, 10.005678, 9.98529 
5.6548566e+2, 2.8247377e+2, -164727.5, -338076.78, -7546.9116, 0.02712345, -0.077523634, -164399.56, 7352.8877, 0.000011143965, 10.0064535, 9.983656 
5.655333e+2, 2.9245946e+2, -69750.305, -247961.03, -7974.691, 0.021494918, 0.16873443, -69394.164, 4498.4663, 0.00002588088, 10.006528, 9.98307 
5.655826e+2, 3.0244085e+2, 18889.35, -133246.5, 1099.3188, -0.021541538, -0.20299625, 18897.293, 18897.293, 0.000047783215, 10.007277, 9.987177 
5.656325e+2, 3.1242982e+2, 76207.95, -45006.832, -5749.5776, 0.0012434323, -0.031539537, 76480.06, 76480.06, 0.00007346192, 10.008599, 9.9925995 
5.747311e+2, 1.2256153e+2, -1744616.4, -1728828.1, -5361.0845, -0.0037369903, -0.068528384, -1727179.8, 11712.424, 0.11375035, 9.99781, 10.000038 
5.747806e+2, 1.3255982e+2, -1656334.9, -1659898.1, 1564.8868, -0.0085056005, -0.043055363, -1655745.3, -14835.874, 0.07970576, 9.998249, 9.997752 
5.748297e+2, 1.4255711e+2, -1560869.5, -1578477.9, -3584.653, 0.00010097292, -0.014182485, -1560167.8, -17231.652, 0.04762608, 9.998748, 9.996384 
5.748776e+2, 1.5255316e+2, -1452213.9, -1477470.5, -5300.5356, 0.0027792084, -0.045552764, -1451146.6, -6171.927, 0.023162274, 9.999569, 9.996183 
5.7492507e+2, 1.6254818e+2, -1357091.1, -1400805.3, -9033.002, 0.0011842409, -0.06271576, -1355298.1, -8274.962, 0.008851887, 10.00024, 9.994403 
5.749721e+2, 1.7254283e+2, -1256350.6, -1302703.3, -9470.813, -0.004353885, -0.0417255, -1254490.3, -5414.444, 0.0026185028, 10.000477, 9.994291 
5.750189e+2, 1.8253641e+2, -1162815.4, -1222303.5, -10248.674, -0.0071542575, -0.03328987, -1161099.3, -9960.508, 0.0006049601, 10.000832, 9.992923 
5.750661e+2, 1.9252917e+2, -1053241.5, -1118710.1, -8961.428, -0.0043643364, -0.061584312, -1052037.1, 1172.3424, 0.00011675058, 10.001616, 9.99292 
5.751126e+2, 2.0252094e+2, -962420.94, -1048827.9, -13635.234, -0.0030989135, -0.06912562, -960320.3, -5030.2466, 0.000025390495, 10.002178, 9.990738 
5.7515866e+2, 2.1251188e+2, -862769.94, -953124.94, -15705.025, -0.006429305, -0.031599846, -860118.0, -2738.9136, 0.000010757624, 10.002417, 9.990461 
5.7520473e+2, 2.2250189e+2, -768105.5, -868021.3, -12746.168, -0.008269113, -0.02084638, -766505.1, -7027.795, 0.0000077366185, 10.002642, 9.989477 
5.752524e+2, 2.3249097e+2, -660652.1, -764525.4, -8943.936, -0.0027046998, -0.0721577, -659887.6, 1696.1681, 0.000006522971, 10.00324, 9.98956 
5.752997e+2, 2.424796e+2, -570407.94, -692827.6, -10969.198, 0.005422214, -0.07834711, -569432.8, -5737.904, 0.000005941919, 10.003668, 9.987564 
5.7534677e+2, 2.524675e+2, -468498.94, -596910.44, -11873.543, 0.012809575, -0.012014746, -467410.28, -1596.5768, 0.000005930573, 10.004099, 9.987208 
5.753941e+2, 2.62454e+2, -373522.5, -517552.1, -6622.5933, 0.011151513, -0.023687992, -373218.63, -5272.512, 0.000007746674, 10.004616, 9.985677 
5.754429e+2, 2.7243817e+2, -262652.94, -417293.3, -4663.587, -0.0008474595, -0.13774914, -262512.44, 7589.1724, 0.000016548, 10.005664, 9.985316 
5.754919e+2, 2.8242373e+2, -164643.34, -336609.84, -6959.3213, 0.0022490039, -0.064828485, -164362.17, 7881.1265, 0.000042830554, 10.0063925, 9.983787 
5.755398e+2, 2.924096e+2, -70109.21, -248046.23, -7709.4624, 0.022579126, 0.19422197, -69775.805, 4605.9614, 0.000096663134, 10.006496, 9.983079 
5.7558995e+2, 3.0239022e+2, 14432.79, -141808.0, 5596.469, -0.0135686165, -0.22577646, 14632.996, 14632.996, 0.00017732779, 10.007255, 9.986589 
5.7564116e+2, 3.1237915e+2, 84224.63, -26295.9, -1019.7109, 0.012819091, -0.0036382773, 84234.04, 84234.04, 0.00027223537, 10.008527, 9.993904 
5.84729e+2, 1.2251211e+2, -1739818.9, -1730969.8, -1948.684, -0.011024418, -0.059654627, -1730559.6, 8816.921, 0.13972634, 9.998309, 9.999651 
5.84779e+2, 1.3251013e+2, -1649730.1, -1657733.9, -577.1918, -0.004900674, -0.050534774, -1649688.6, -8292.348, 0.09881995, 9.998738, 9.997656 
5.848287e+2, 1.4250745e+2, -1554097.3, -1575769.6, -6594.5864, 0.0020454542, -0.01013675, -1552248.4, -8825.415, 0.05983596, 9.999233, 9.996322 
5.8487725e+2, 1.5250345e+2, -1448524.8, -1475889.6, -6687.479, 0.0038223122, -0.04274563, -1446977.9, -1516.0608, 0.029672418, 9.999825, 9.9961605 
5.8492535e+2, 1.6249843e+2, -1355516.3, -1400783.0, -9794.897, 0.0027766353, -0.061884448, -1353487.8, -5976.8677, 0.011691614, 10.000373, 9.994339 
5.8497286e+2, 1.7249298e+2, -1249620.4, -1300591.1, -10252.401, -0.0025283403, -0.041805763, -1247635.5, 1928.8364, 0.0036588176, 10.000981, 9.994188 
5.8502e+2, 1.824864e+2, -1155793.8, -1221076.9, -11632.246, -0.00586478, -0.033341482, -1153783.0, -2154.279, 0.0009683537, 10.001398, 9.992729 
5.8506763e+2, 1.9247898e+2, -1057277.8, -1123425.0, -12646.612, -0.0046477276, -0.057968833, -1054942.3, -1240.9812, 0.00027478443, 10.001454, 9.992671 
5.8511454e+2, 2.0247059e+2, -969417.0, -1052652.6, -17266.852, -0.003590702, -0.063430116, -965977.2, -10193.552, 0.00012467508, 10.001704, 9.9907055 
5.851612e+2, 2.1246153e+2, -858977.56, -950925.56, -15340.507, -0.0065453704, -0.031112954, -856485.7, 1386.8892, 0.0000877705, 10.002648, 9.9905 
5.8520764e+2, 2.2245139e+2, -761873.3, -867740.44, -12290.654, -0.0070990673, -0.02435771, -760465.1, -493.02457, 0.00007200422, 10.003189, 9.989229 
5.852556e+2, 2.3244022e+2, -665281.1, -770056.7, -13568.559, 0.00240808, -0.07217781, -663552.5, -1471.2869, 0.00006284414, 10.003064, 9.989262 
5.853031e+2, 2.4242869e+2, -578753.9, -696788.4, -16961.273, 0.012513283, -0.07430663, -576364.94, -12171.069, 0.00005789635, 10.003071, 9.987581 
5.853508e+2, 2.5241673e+2, -466393.53, -594270.75, -14510.706, 0.014263943, -0.008488519, -464767.63, 1543.6108, 0.000055242694, 10.00415, 9.987365 
5.853988e+2, 2.6240325e+2, -370982.72, -517604.03, -8110.3228, 0.0074322885, -0.024801148, -370535.47, -2092.1636, 0.000055795954, 10.004809, 9.98559 
5.8544827e+2, 2.7238718e+2, -270775.5, -423320.6, -7164.3525, -0.005278425, -0.1452796, -270439.75, 161.5183, 0.00007332081, 10.00516, 9.985155 
5.854978e+2, 2.8237292e+2, -175054.52, -337695.28, -10630.581, 0.0018160125, -0.065326974, -174362.63, -1621.3795, 0.0001400374, 10.005494, 9.984145 
5.855462e+2, 2.9235935e+2, -71848.19, -244941.06, -8873.087, 0.027092673, 0.21102874, -71394.52, 3479.7556, 0.00028783004, 10.00617, 9.983462 
5.855972e+2, 3.023394e+2, 7815.6357, -157831.98, 7169.747, -0.018644432, -0.23915064, 8125.3857, 8125.3857, 0.00051568105, 10.007297, 9.985487 
5.856497e+2, 3.1232727e+2, 86962.87, -16668.807, -5072.33, 0.020328633, 0.007877622, 87210.55, 87210.55, 0.00078684813, 10.008299, 9.994683 
5.9472716e+2, 1.2246303e+2, -1750615.1, -1747742.4, -812.5065, -0.028021654, -0.02415379, -1747528.5, -7670.908, 0.17203067, 9.998134, 9.998499 
5.947779e+2, 1.3245994e+2, -1655306.9, -1667009.5, -425.9329, 0.007463929, -0.06605864, -1655291.4, -13403.35, 0.12317733, 9.9986515, 9.997062 
5.948279e+2, 1.4245656e+2, -1554959.5, -1576326.0, -5621.855, -0.004296643, -0.052207332, -1553570.6, -9649.274, 0.0760359, 9.999191, 9.996294 
5.9487706e+2, 1.524532e+2, -1447604.1, -1472786.1, -5568.323, -0.0019409163, -0.040232718, -1446427.8, -473.4735, 0.038946632, 9.999782, 9.996383 
5.949257e+2, 1.6244854e+2, -1355570.5, -1400368.4, -8467.988, -0.0017880767, -0.036971632, -1354023.3, -6023.508, 0.016318014, 10.000358, 9.994366 
5.949738e+2, 1.724427e+2, -1250284.6, -1301741.3, -8667.163, -0.0074243555, -0.05174738, -1248864.0, 1192.7264, 0.0058532357, 10.000981, 9.994102 
5.9502137e+2, 1.8243578e+2, -1158730.6, -1227283.0, -11541.393, -0.010062315, -0.05555158, -1156839.8, -4715.111, 0.002137039, 10.001417, 9.99229 
5.9506917e+2, 1.9242829e+2, -1060837.0, -1131297.0, -12939.2, -0.0035861728, -0.03307075, -1058536.0, -4337.689, 0.001055166, 10.001491, 9.992109 
5.951163e+2, 2.0241983e+2, -967098.94, -1048423.7, -14970.103, -0.0003948514, -0.017982172, -964430.8, -8149.382, 0.00073918933, 10.001733, 9.990973 
5.951639e+2, 2.1241078e+2, -854892.3, -942811.8, -12119.453, -0.006786312, -0.03893533, -853252.25, 5117.395, 0.00060496945, 10.002666, 9.991037 
5.9521085e+2, 2.2240044e+2, -765995.0, -876211.5, -12114.81, -0.006167424, -0.06020402, -764679.1, -4208.2246, 0.0005205493, 10.00319, 9.98865 
5.9525883e+2, 2.3238885e+2, -671389.0, -783337.8, -14087.993, 0.014534235, -0.06216055, -669643.3, -7058.697, 0.0004661713, 10.003096, 9.988338 
5.953063e+2, 2.4237704e+2, -577788.2, -695321.4, -14032.083, 0.0253116, -0.03511907, -576136.1, -11435.613, 0.0004356508, 10.003094, 9.987667 
5.953549e+2, 2.5236526e+2, -463047.94, -586978.94, -10391.056, 0.0015741696, 0.0031941633, -462182.75, 4632.942, 0.0004130641, 10.004134, 9.9878645 
5.954034e+2, 2.623518e+2, -373225.66, -520822.13, -6877.0244, -0.018758357, -0.039473604, -372905.9, -3958.5159, 0.00038235346, 10.004733, 9.985413 
5.9545344e+2, 2.723353e+2, -273711.47, -429129.03, -6060.8574, -0.008274216, -0.16422036, -273475.47, -2365.9602, 0.00036756825, 10.005139, 9.984772 
5.955034e+2, 2.8232118e+2, -171585.77, -330064.53, -8960.801, 0.016182287, -0.07543206, -171080.7, 2167.132, 0.00045654777, 10.005456, 9.984691 
5.9555244e+2, 2.923084e+2, -68856.86, -236676.06, -6474.396, 0.03161275, 0.2177692, -68607.45, 6765.6167, 0.0007430319, 10.006071, 9.984075 
5.9560424e+2, 3.02288e+2, -5876.664, -182766.61, 10581.876, -0.039473243, -0.2474378, -5245.886, -5245.886, 0.0012328605, 10.007142, 9.983848 
5.956578e+2, 3.122741e+2, 86754.19, -13254.919, -1631.7642, 0.007483261, 0.027619755, 86780.805, 86780.805, 0.0018376576, 10.008149, 9.99498 
6.047254e+2, 1.2241258e+2, -1745814.0, -1745385.1, -5662.807, -0.024847819, -0.022932539, -1739932.8, 419.57153, 0.214152, 9.9984665, 9.998492 
6.0477674e+2, 1.3240941e+2, -1652316.1, -1664387.6, 1888.8611, 0.025729928, -0.07726807, -1652027.5, -9644.319, 0.15643857, 9.998795, 9.997172 
6.0482705e+2, 1.4240621e+2, -1553981.5, -1577398.9, 929.3112, -0.008254499, -0.053119894, -1553944.8, -9530.139, 0.09991464, 9.99931, 9.996173 
6.0487694e+2, 1.5240254e+2, -1445359.6, -1475448.6, -2884.3933, -0.005171455, -0.04323744, -1445085.6, 1364.9445, 0.054502863, 10.000095, 9.99605 
6.049263e+2, 1.6239765e+2, -1349116.6, -1397453.4, -9776.533, -0.002750633, -0.04132287, -1347214.0, 1284.2548, 0.025911747, 10.000804, 9.994344 
6.0497487e+2, 1.7239188e+2, -1247710.6, -1300019.3, -10131.908, -0.0028177083, -0.054011326, -1245816.8, 4737.995, 0.011987488, 10.001134, 9.994142 
6.0502297e+2, 1.823849e+2, -1158421.1, -1229325.9, -12289.231, -0.0033353518, -0.058160648, -1156351.6, -3728.4, 0.0065416535, 10.001524, 9.992098 
6.0507095e+2, 1.9237709e+2, -1052790.9, -1130603.1, -12150.96, -0.006470067, -0.04252143, -1050937.6, 3762.431, 0.0046063922, 10.0021715, 9.991828 
6.051184e+2, 2.0236835e+2, -955900.94, -1043818.56, -14154.729, -0.007578664, -0.031374972, -953678.25, 3107.6272, 0.0037910414, 10.0025425, 9.990887 
6.0516644e+2, 2.1235937e+2, -859682.4, -945135.4, -15651.422, -0.0007296026, -0.045452647, -856905.94, 1967.3728, 0.003294016, 10.002343, 9.991025 
6.052138e+2, 2.2234902e+2, -777282.44, -882700.75, -16406.893, 0.005933388, -0.061360143, -774787.94, -13813.321, 0.0029299043, 10.002449, 9.988562 
6.0526216e+2, 2.3233736e+2, -664053.5, -781038.6, -13049.473, 0.008009254, -0.064769775, -662615.5, 473.74597, 0.0026845648, 10.003642, 9.988233 
6.0530984e+2, 2.4232525e+2, -564486.25, -694202.3, -11870.499, 0.009171687, -0.03749181, -563408.94, 1799.2961, 0.0025410713, 10.004231, 9.987193 
6.0535896e+2, 2.5231302e+2, -467777.9, -594585.25, -14874.062, 0.0032978412, 0.004054644, -466056.6, 1271.1925, 0.0024159902, 10.004025, 9.987395 
6.054077e+2, 2.6229918e+2, -387604.47, -528513.4, -14543.664, -0.0052570603, -0.039118737, -386119.03, -16656.266, 0.0021913543, 10.003745, 9.985368 
6.054585e+2, 2.7228275e+2, -274171.0, -426944.22, -9235.459, -0.002919031, -0.17216755, -273614.75, -1990.6444, 0.0018755151, 10.004945, 9.985034 
6.055089e+2, 2.8226888e+2, -169989.77, -330178.9, -12695.613, 0.017560445, -0.08683018, -168989.83, 4770.354, 0.0017067166, 10.005548, 9.984662 
6.055584e+2, 2.922558e+2, -73477.39, -243481.55, -15510.209, 0.034493435, 0.20921375, -72073.914, 3814.5967, 0.0019738742, 10.005911, 9.983691 
6.056111e+2, 3.0223465e+2, -18953.938, -200179.25, 1031.0284, -0.049841467, -0.26138777, -18948.07, -18948.07, 0.00273566, 10.006717, 9.98284 
6.056658e+2, 3.122197e+2, 87725.59, 5696.9663, -4697.5225, 0.020888956, 0.0024767737, 87993.734, 87993.734, 0.0038015225, 10.007432, 9.996615 
6.1472404e+2, 1.2236119e+2, -1738284.9, -1729396.0, -9285.166, -0.010153183, -0.050270196, -1723546.4, 17309.797, 0.27198067, 9.998426, 9.999896 
6.1477584e+2, 1.3235906e+2, -1646286.4, -1650835.3, 1914.0065, 0.051684637, -0.087628454, -1645588.3, -2711.5476, 0.20546661, 9.998758, 9.998098 
6.148264e+2, 1.4235695e+2, -1556736.6, -1582004.3, 2171.5105, -0.010681441, -0.010478894, -1556551.4, -11654.433, 0.13911296, 9.999272, 9.995868 
6.14877e+2, 1.5235196e+2, -1453305.6, -1490590.4, -942.3931, -0.009249949, -0.048577294, -1453281.9, -6335.9614, 0.08438501, 10.000046, 9.995034 
6.1492705e+2, 1.623461e+2, -1351160.4, -1400377.6, -9306.495, -0.0034033014, -0.072331265, -1349459.4, -456.20917, 0.048496593, 10.000753, 9.994161 
6.1497617e+2, 1.7234075e+2, -1247799.8, -1299068.1, -10010.509, 0.010705434, -0.048008367, -1245914.5, 5141.2373, 0.02976512, 10.001103, 9.994213 
6.150247e+2, 1.823339e+2, -1158631.5, -1229332.4, -10877.061, 0.012893294, -0.039612968, -1156996.0, -3873.2798, 0.021445168, 10.001515, 9.992092 
6.150731e+2, 1.9232547e+2, -1053201.1, -1131304.8, -10289.872, -0.015799325, -0.08499912, -1051868.3, 3337.2244, 0.017750558, 10.002183, 9.991764 
6.151207e+2, 2.0231621e+2, -959232.6, -1050445.1, -14668.519, -0.028553016, -0.1025548, -956931.75, 364.62888, 0.015685128, 10.002539, 9.990433 
6.1516887e+2, 2.1230736e+2, -863149.0, -953053.3, -16751.213, 0.0062095593, -0.052320734, -860129.25, -746.22186, 0.014165093, 10.002386, 9.99046 
6.1521643e+2, 2.222971e+2, -774405.3, -877678.2, -13508.501, 0.022890957, -0.030338295, -772667.6, -11184.17, 0.012958546, 10.002492, 9.988877 
6.1526555e+2, 2.3228563e+2, -660339.3, -772453.6, -8880.707, -0.016578961, -0.07815441, -659640.25, 3955.513, 0.012107187, 10.003609, 9.988828 
6.153136e+2, 2.4227317e+2, -573065.0, -709394.7, -11526.381, -0.03450897, -0.07749829, -572097.3, -6379.441, 0.0115695195, 10.004131, 9.986197 
6.153631e+2, 2.5225985e+2, -477534.97, -615009.4, -15994.266, 0.008439335, -0.007280167, -475698.66, -7850.2607, 0.011032614, 10.00405, 9.98598 
6.154118e+2, 2.6224536e+2, -387428.66, -529141.06, -12112.96, 0.02843279, -0.026891256, -386400.75, -16409.979, 0.0100008305, 10.003761, 9.985325 
6.154635e+2, 2.7222928e+2, -269222.0, -417470.03, -4939.4146, -0.0016973503, -0.17350091, -269057.6, 3090.5151, 0.008357119, 10.004967, 9.985667 
6.155143e+2, 2.8221554e+2, -174623.2, -338881.5, -12578.994, -0.00060536445, -0.1055606, -173665.48, 617.1946, 0.006757369, 10.00547, 9.984122 
6.155642e+2, 2.9220125e+2, -82804.54, -261988.05, -13982.762, 0.02716114, 0.18170813, -81719.945, -5296.7925, 0.006111137, 10.005835, 9.982478 
6.1561763e+2, 3.021793e+2, -24089.283, -207904.77, 4143.641, -0.05869602, -0.27437234, -23995.922, -23995.922, 0.0067206235, 10.006569, 9.98239 
6.1567336e+2, 3.1216404e+2, 100494.89, 41172.535, -1803.8209, 0.04347685, -0.038718972, 100549.69, 100549.69, 0.008187073, 10.007073, 9.999247 
6.247214e+2, 1.22309476e+2, -1763760.0, -1752656.1, 3229.1826, -0.05661945, -0.013796936, -1751785.4, -10422.729, 0.3541072, 9.997159, 9.998618 
6.247751e+2, 1.3230732e+2, -1628662.1, -1638388.6, 87.960236, 0.02976218, -0.072249405, -1628661.4, 14722.134, 0.28109142, 10.0001955, 9.998368 
6.248266e+2, 1.4230518e+2, -1526297.5, -1563505.0, -7909.9927, -0.025698716, -0.011130453, -1524685.8, 20718.555, 0.20657134, 10.001632, 9.995975 
6.2487745e+2, 1.5230045e+2, -1439895.0, -1480093.9, -4802.678, -0.0074691526, -0.046350442, -1439329.1, 8121.387, 0.1432552, 10.00089, 9.995339 
6.249279e+2, 1.6229475e+2, -1353942.9, -1404375.5, -5318.2393, 0.005590301, -0.06941863, -1353388.1, -3881.781, 0.09987318, 10.000663, 9.993938 
6.2497735e+2, 1.7228886e+2, -1246590.3, -1303858.6, -9934.002, 0.003409153, -0.05234517, -1244916.0, 6648.131, 0.075513154, 10.001443, 9.993718 
6.2502617e+2, 1.8228193e+2, -1150136.6, -1220212.0, -14011.095, -0.0018044566, -0.042477358, -1147439.0, 6193.2964, 0.06323491, 10.001896, 9.992533 
6.2507486e+2, 1.9227445e+2, -1059871.3, -1126914.5, -9566.654, -0.007903362, -0.058179315, -1058532.9, -2827.331, 0.056682963, 10.001377, 9.992463 
6.2512296e+2, 2.022656e+2, -976319.94, -1062857.5, -8015.111, -0.008342313, -0.0614062, -975583.9, -17791.77, 0.052283235, 10.0015335, 9.990085 
6.251717e+2, 2.1225575e+2, -854138.1, -957333.9, -10986.201, -0.0016564558, -0.042560194, -852981.5, 6907.162, 0.048651624, 10.0034, 9.989678 
6.2521964e+2, 2.2224459e+2, -750724.56, -870484.7, -13615.136, 0.0012844017, -0.041999936, -749196.25, 12801.826, 0.04555987, 10.0043545, 9.988461 
6.2526923e+2, 2.3223303e+2, -666451.0, -778172.25, -16836.072, 0.0041622333, -0.07352641, -663968.94, 142.10564, 0.043225635, 10.003308, 9.988571 
6.253175e+2, 2.4222036e+2, -592360.5, -720801.25, -18787.803, 0.011199625, -0.065886095, -589668.7, -23433.477, 0.04156095, 10.002848, 9.986054 
6.2536734e+2, 2.5220686e+2, -473740.13, -614139.3, -14612.113, 0.014081585, -0.0141338855, -472235.5, -3867.7375, 0.0396842, 10.004297, 9.9859495 
6.254159e+2, 2.6219183e+2, -376481.66, -532973.44, -7004.103, 0.0039946213, -0.035379503, -376168.8, -5653.7793, 0.036110222, 10.004901, 9.984515 
6.254686e+2, 2.7217534e+2, -263994.03, -421962.63, -7687.8496, -0.017498758, -0.14998586, -263620.78, 9055.759, 0.03034892, 10.005633, 9.985038 
6.2551963e+2, 2.821613e+2, -176664.98, -343341.44, -22055.578, -0.0053887884, -0.07284446, -173795.86, 1018.40497, 0.024075575, 10.005449, 9.983826 
6.2557065e+2, 2.921465e+2, -67333.62, -258081.72, -15976.499, 0.031310137, 0.19522427, -66004.73, 10954.6875, 0.019858927, 10.007038, 9.98217 
6.2562466e+2, 3.0212453e+2, -22964.61, -222484.61, -1522.2856, -0.05686657, -0.2070188, -22952.996, -22952.996, 0.01879957, 10.007202, 9.981132 
6.2567943e+2, 3.1210724e+2, 75215.63, 36585.266, -18235.26, 0.03876791, -0.011394899, 82463.6, 82463.6, 0.02010451, 10.004888, 10.000075 
6.3477516e+2, 1.3225468e+2, -1670269.9, -1668533.6, 5853.6978, 0.027325626, -0.064050555, -1663484.0, -19584.832, 0.3986437, 9.997392, 9.997525 
6.348285e+2, 1.4225125e+2, -1554850.8, -1574493.3, -14901.942, -0.0012868636, -0.06682783, -1546824.8, -891.7067, 0.32109898, 9.999117, 9.996429 
6.348786e+2, 1.5224844e+2, -1441672.4, -1462803.5, -9897.631, 0.01545037, -0.048292253, -1437760.6, 10199.742, 0.25318962, 10.0001135, 9.99692 
6.349287e+2, 1.6224407e+2, -1356609.4, -1408743.8, -5378.7383, 0.02194756, -0.03652921, -1356060.3, -6057.1006, 0.20482565, 10.000625, 9.993648 
6.3497853e+2, 1.722367e+2, -1254506.8, -1320314.6, -8026.28, -0.030428426, -0.07119997, -1253541.9, -1466.2612, 0.1758956, 10.001419, 9.992596 
6.350276e+2, 1.8222924e+2, -1147292.8, -1210177.1, -15405.596, -0.056956474, -0.068235755, -1143721.4, 10427.52, 0.15969306, 10.001856, 9.993232 
6.3507646e+2, 1.9222416e+2, -1051549.1, -1107627.8, -12109.493, 0.007550855, 0.031406872, -1049045.9, 7152.7163, 0.14982603, 10.001411, 9.9937525 
6.35125e+2, 2.0221661e+2, -977489.56, -1066928.9, -3507.8872, 0.039295185, 0.08584269, -977352.2, -19079.688, 0.14231765, 10.0016165, 9.989752 
6.351749e+2, 2.1220466e+2, -860030.25, -971412.2, -3771.463, -0.032580115, -0.019436754, -859902.7, 486.73608, 0.13550727, 10.003462, 9.988675 
6.3522345e+2, 2.221916e+2, -758904.25, -887705.06, -14418.373, -0.06407269, -0.09320388, -757309.94, 5207.3267, 0.12921391, 10.004399, 9.987257 
6.352731e+2, 2.3217966e+2, -672707.44, -793342.44, -20733.508, 0.053746372, -0.05686224, -669243.44, -4608.8076, 0.12399557, 10.003425, 9.9874735 
6.3532156e+2, 2.4216679e+2, -588768.25, -714268.0, -15327.293, 0.122964464, -0.010082134, -586923.44, -20162.818, 0.119694375, 10.002892, 9.98647 
6.353717e+2, 2.521537e+2, -467649.28, -599365.56, -10721.365, 0.012795046, -0.019571275, -466782.28, 2106.2424, 0.11434341, 10.004223, 9.986987 
6.3542e+2, 2.621384e+2, -390193.03, -556436.9, -6107.3086, -0.076409794, -0.059482474, -389968.97, -18930.654, 0.10449226, 10.004655, 9.983042 
6.35474e+2, 2.7212083e+2, -277217.44, -448307.78, -6373.611, -0.056358475, -0.10216998, -276980.34, -3769.8032, 0.088948324, 10.005536, 9.983292 
6.3552517e+2, 2.8210592e+2, -178933.36, -347540.88, -20475.227, -0.01020341, 0.0027073345, -176482.53, -1126.1793, 0.07142298, 10.005364, 9.983606 
6.3557774e+2, 2.9209104e+2, -67082.76, -254336.28, -10035.513, 0.03524258, 0.2313945, -66546.46, 10955.742, 0.057965375, 10.006889, 9.982511 
6.356315e+2, 3.0206975e+2, -39794.426, -250588.69, -9223.491, -0.06545964, -0.084700815, -39391.613, -39391.613, 0.051588252, 10.006861, 9.979408 
6.356833e+2, 3.1204936e+2, 60842.34, 19562.758, -24183.787, -0.030876916, 0.07818246, 71996.52, 71996.52, 0.050905637, 10.00445, 9.999164 
6.4492816e+2, 1.6218925e+2, -1325394.8, -1320373.3, -3451.1482, -0.06736166, -0.023836982, -1318616.3, 31924.37, 0.39385006, 10.000189, 10.001136 
6.449803e+2, 1.7218499e+2, -1256002.9, -1285551.9, -2064.8625, 0.08750584, -0.10534342, -1255859.3, -3277.155, 0.3631605, 9.99979, 9.99576 
6.450286e+2, 1.821803e+2, -1191051.3, -1239292.0, 11738.843, -0.0018764694, 0.0017919467, -1188346.4, -33718.504, 0.34433386, 9.999035, 9.992641 
6.450785e+2, 1.9217153e+2, -1042419.9, -1121883.4, -3819.6614, -0.030851314, -0.09600332, -1042236.7, 14476.807, 0.33186242, 10.003364, 9.991824 
6.45128e+2, 2.0216167e+2, -926076.3, -1029312.4, -14121.453, -0.049539834, -0.16425419, -924179.5, 34630.516, 0.32141975, 10.006018, 9.990168 
6.4517885e+2, 2.1215285e+2, -854814.3, -952046.1, -4711.4194, 0.025519734, -0.08115045, -854586.56, 6309.9478, 0.31100234, 10.003336, 9.990056 
6.4522797e+2, 2.2214226e+2, -789814.2, -897059.5, 3604.9023, 0.06557349, -0.01965187, -789693.2, -26692.842, 0.30041274, 10.001979, 9.987807 
6.452763e+2, 2.3212954e+2, -659366.2, -786041.4, 8545.334, -0.029207228, -0.072727434, -658792.4, 6332.6396, 0.29071084, 10.004523, 9.987476 
6.453241e+2, 2.4211463e+2, -562754.9, -735254.1, 6584.8613, -0.085846074, -0.091943495, -562503.9, 4767.454, 0.2817394, 10.006298, 9.983419 
6.4537644e+2, 2.5209886e+2, -470819.0, -637518.06, -23849.443, 0.0057797926, -0.016444912, -467474.0, 1952.314, 0.2697429, 10.0056, 9.983735 
6.4542603e+2, 2.620812e+2, -407988.78, -592429.44, -36016.12, 0.06628246, -0.005069869, -401205.3, -29605.936, 0.24780114, 10.004622, 9.980552 
6.454802e+2, 2.7206033e+2, -292150.66, -477937.28, -40177.406, 0.028925056, -0.16549611, -283834.34, -10031.006, 0.21365827, 10.005461, 9.981255 
6.455306e+2, 2.8204328e+2, -176190.94, -330744.97, -51509.113, 0.01860781, -0.20155399, -160597.47, 15372.768, 0.1746534, 10.005149, 9.984819 
6.455853e+2, 2.920295e+2, -39646.137, -214354.0, -19516.875, 0.04953663, -0.06246199, -37492.426, 40612.375, 0.14277616, 10.008153, 9.984606 
6.45639e+2, 3.0201104e+2, -29430.484, -230467.0, -23888.021, -0.027986214, -0.2968775, -26630.99, -26630.99, 0.12436103, 10.006979, 9.9807005 
6.4568865e+2, 3.1199038e+2, 48694.676, 35039.34, -14959.174, 0.08598936, -0.22877568, 58310.668, 58310.668, 0.11729145, 10.002964, 10.00115 
6.5553516e+2, 2.8197998e+2, -179776.58, -300844.72, -19450.926, -0.056787293, -0.03463885, -176728.33, -138.38771, 0.35783437, 10.003254, 9.987807 
6.5559334e+2, 2.9196998e+2, -51132.348, -170225.05, 13866.136, 0.02740638, 0.0371516, -49539.203, 29149.012, 0.29645565, 10.005692, 9.988841 
6.556459e+2, 3.0195725e+2, -52153.59, -195708.25, -23838.512, 0.008616738, -0.05522418, -48298.523, -48298.523, 0.25641766, 10.003332, 9.984943 
6.556896e+2, 3.1194076e+2, 1917.3462, 46017.297, -3603.3484, -0.013569587, 0.023870155, 46309.785, 46309.785, 0.23491265, 9.997232, 10.005437 
7.128285e+2, 1.716153e+2, -1258594.8, -1225660.0, 17217.9, 0.11106787, -0.2544217, -1218302.4, 39851.555, 0.39580005, 9.963874, 9.970049 
7.120244e+2, 1.8158452e+2, -1162489.9, -1168305.8, 10010.144, 0.092798546, -0.17794745, -1154973.9, 5481.6294, 0.36749697, 9.966577, 9.965497 
7.1122533e+2, 1.9154868e+2, -1030839.2, -1068893.3, -1053.4968, 0.091587506, -0.1680875, -1030810.06, 31996.78, 0.33911413, 9.971076, 9.963855 
7.1042675e+2, 2.0151222e+2, -916207.25, -982139.4, -9192.991, 0.06563362, -0.14790492, -914949.44, 50214.44, 0.3085183, 9.973605, 9.962234 
7.096293e+2, 2.1147299e+2, -870726.06, -935939.2, 4319.7197, 0.032899637, -0.18568061, -870441.1, -2893.2468, 0.27875048, 9.969406, 9.96052 
7.0883316e+2, 2.214337e+2, -808904.8, -833150.3, 3205.208, 0.009166817, -0.21497427, -808488.25, -38555.86, 0.25780714, 9.965752, 9.962425 
7.080331e+2, 2.313975e+2, -673162.3, -704226.94, -10495.355, -0.058503676, -0.1922834, -669948.8, 2337.598, 0.25598282, 9.96785, 9.9636755 
7.072345e+2, 2.4136084e+2, -558733.75, -612542.9, -18656.637, -0.12993145, -0.20254454, -552898.0, 21746.824, 0.28118628, 9.970176, 9.962437 
7.064371e+2, 2.5132045e+2, -469264.9, -542183.4, -8137.6553, 0.015498705, -0.34864396, -468367.78, 8673.103, 0.33645314, 9.970549, 9.9603615 
7.2598666e+2, 1.3256536e+2, -1611202.9, -1627669.0, -5426.069, 0.08225728, -0.1848288, -1609575.6, 31271.521, 0.38657025, 9.96981, 9.966487 
7.2518736e+2, 1.425325e+2, -1510162.1, -1533715.8, -1282.8895, 0.32063943, -0.07870671, -1510092.4, 33077.066, 0.32062596, 9.9709215, 9.966309 
7.2439355e+2, 1.5249838e+2, -1493806.3, -1483320.6, 11135.0, 0.18979104, -0.13666612, -1476255.9, -30753.365, 0.26370573, 9.9646845, 9.96594 
7.235964e+2, 1.6246226e+2, -1389980.1, -1404378.1, 6750.164, 0.02835506, -0.2042558, -1387310.5, -39455.36, 0.2228128, 9.965348, 9.963391 
7.2279364e+2, 1.724263e+2, -1251381.6, -1289835.8, -7148.5723, 0.08336879, -0.122094825, -1250095.8, 111.84529, 0.1965221, 9.968115, 9.963101 
7.2199255e+2, 1.8238872e+2, -1149677.1, -1220173.3, 8216.884, 0.11488548, -0.090282954, -1148732.1, 3843.8442, 0.17812835, 9.97018, 9.960573 
7.2119606e+2, 1.9234784e+2, -1063581.6, -1141276.1, 13485.802, 0.06751955, -0.15719844, -1061307.4, -6330.8516, 0.16184242, 9.970118, 9.959436 
7.203988e+2, 2.0230785e+2, -943534.5, -1000041.94, -7416.135, 0.015066143, -0.18968523, -942577.44, 14790.958, 0.14482762, 9.970116, 9.962344 
7.19598e+2, 2.1227133e+2, -852293.56, -896506.75, -9621.284, -0.003681733, -0.17042273, -850290.6, 9434.943, 0.12795141, 9.969169, 9.963102 
7.1879923e+2, 2.2223373e+2, -788309.7, -837200.3, -2172.3274, 0.008614354, -0.1559438, -788213.4, -26119.672, 0.11533596, 9.967788, 9.961246 
7.180023e+2, 2.3219448e+2, -688221.94, -749430.25, -2156.6245, 0.046491243, -0.15600146, -688146.06, -23667.328, 0.112783045, 9.968645, 9.96032 
7.1720594e+2, 2.4215525e+2, -564774.9, -627118.44, -17947.486, -0.0043037743, -0.13867491, -559977.3, 6886.06, 0.12528619, 9.9697485, 9.961604 
7.1640605e+2, 2.5211734e+2, -465582.25, -529889.5, -11028.267, -0.14471893, -0.11846802, -463743.56, 5491.236, 0.15640259, 9.970071, 9.961417 
7.156106e+2, 2.6207727e+2, -388039.4, -472912.94, -18732.893, -0.1406873, -0.12562133, -384088.7, -12461.355, 0.2077192, 9.969608, 9.958728 
7.1481127e+2, 2.720368e+2, -285232.47, -369961.53, -12405.873, -0.095642105, -0.03363712, -283453.38, -9429.385, 0.27761784, 9.9699955, 9.958983 
7.1401584e+2, 2.8199768e+2, -128515.24, -177487.39, -46662.03, -0.091144405, -0.11857198, -100304.89, 76102.97, 0.35634196, 9.973043, 9.965545 
7.36754e+2, 1.2340407e+2, -1778876.6, -1726480.4, 4521.3916, 0.29441273, -0.14814009, -1726093.1, 4534.9688, 0.32493475, 9.962782, 9.969916 
7.359545e+2, 1.333678e+2, -1647149.1, -1686998.9, 7391.434, 0.11807694, -0.11836484, -1645822.3, -12838.536, 0.25898266, 9.968473, 9.962981 
7.351569e+2, 1.4333211e+2, -1496505.8, -1534670.8, 6725.051, 0.10812653, -0.07098544, -1495355.5, 39978.383, 0.19368057, 9.97178, 9.965263 
7.343614e+2, 1.5329745e+2, -1430887.6, -1454817.9, 3909.61, 0.10167151, -0.1047238, -1430265.1, 7407.748, 0.13986363, 9.969072, 9.965449 
7.335642e+2, 1.6326155e+2, -1357538.0, -1395322.6, -13616.432, 0.08896117, -0.12019629, -1353142.5, -13118.132, 0.103883736, 9.968199, 9.96315 
7.327641e+2, 1.732245e+2, -1211452.4, -1277921.6, -15908.142, 0.07392613, -0.11706746, -1207841.3, 34545.93, 0.083562806, 9.971837, 9.96267 
7.319644e+2, 1.8318644e+2, -1103178.3, -1191486.8, -9449.224, 0.06967086, -0.11467257, -1102178.4, 42581.383, 0.072091475, 9.973358, 9.961185 
7.311662e+2, 1.9314699e+2, -1048140.6, -1123935.0, -450.4114, 0.070102535, -0.13959168, -1048137.94, -991.6195, 0.063845985, 9.970667, 9.960311 
7.303682e+2, 2.031073e+2, -958046.0, -1019601.0, -3368.4824, 0.047652952, -0.15012366, -957862.25, -8326.885, 0.056054864, 9.969583, 9.961214 
7.2956896e+2, 2.1306922e+2, -820868.06, -899989.75, -10861.771, 0.005925302, -0.1266396, -819404.06, 32504.572, 0.048503775, 9.972311, 9.961545 
7.287705e+2, 2.2303034e+2, -711439.9, -807792.2, -16856.158, -0.0042613894, -0.115405, -708576.1, 45713.207, 0.042786885, 9.973593, 9.960644 
7.2797245e+2, 2.3299056e+2, -646310.56, -735328.0, -8353.685, 0.027936492, -0.13370968, -645533.44, 11145.712, 0.041462824, 9.971739, 9.959815 
7.2717565e+2, 2.4295029e+2, -565534.9, -644057.2, -12821.448, -0.013364447, -0.118730344, -563494.4, -4420.464, 0.04709461, 9.970245, 9.960112 
7.263762e+2, 2.5291136e+2, -458741.44, -541985.2, -14067.97, -0.16939497, -0.066308714, -456428.28, 5027.177, 0.06231504, 9.970956, 9.960336 
7.255808e+2, 2.6286995e+2, -369931.72, -482063.6, -28313.326, -0.15519339, -0.10851315, -363188.16, 672.1723, 0.08985528, 9.971319, 9.957749 
7.2478515e+2, 2.7282512e+2, -250549.63, -371291.72, -23411.943, 0.11930286, -0.34654304, -246168.97, 20129.81, 0.1310179, 9.9730015, 9.957982 
7.2399026e+2, 2.82781e+2, -189475.45, -348154.53, -14375.359, -0.0009860549, -0.34376603, -188183.64, -19453.3, 0.1817598, 9.972448, 9.953454 
7.2319037e+2, 2.9273805e+2, -64263.227, -219864.2, -12543.468, -0.5584954, 0.017685842, -63258.547, 7893.1177, 0.23163402, 9.973828, 9.95484 
7.2240955e+2, 3.0268595e+2, -101951.66, -327832.66, 43636.047, 0.13678016, -0.3634957, -93815.07, -93815.07, 0.27017316, 9.972466, 9.9450445 
7.2161627e+2, 3.1263012e+2, 13757.459, 14380.539, 22465.7, -0.11379504, -0.15920512, 36536.86, 36536.86, 0.2950283, 9.967164, 9.966913 
7.4671966e+2, 1.2420082e+2, -1708281.0, -1714592.1, -2174.8616, 0.21725558, -0.052205756, -1707604.1, 15217.931, 0.23778631, 9.969405, 9.968358 
7.459238e+2, 1.3416508e+2, -1636661.3, -1669305.1, -5832.281, 0.18649426, -0.15279394, -1635650.5, -10478.486, 0.17853287, 9.968812, 9.964548 
7.451277e+2, 1.4412922e+2, -1538021.9, -1568871.3, -2370.0078, 0.17644022, -0.16347787, -1537840.9, -10317.262, 0.120985776, 9.968768, 9.964579 
7.443314e+2, 1.5409441e+2, -1425854.9, -1465114.9, -5351.671, 0.18079992, -0.11557192, -1425138.4, 4726.3213, 0.0749508, 9.9698305, 9.964439 
7.4353385e+2, 1.6405825e+2, -1330140.6, -1381201.3, -9460.604, 0.15426244, -0.102302596, -1328444.0, 3774.6743, 0.045711238, 9.970175, 9.963248 
7.427355e+2, 1.740211e+2, -1229510.8, -1286932.8, -7314.2676, 0.075660326, -0.13232604, -1228593.8, 5988.793, 0.030768666, 9.97059, 9.962744 
7.4193656e+2, 1.8398319e+2, -1126918.6, -1195496.0, -15572.4795, 0.04012342, -0.14078891, -1123548.1, 13405.521, 0.023860537, 9.971099, 9.961962 
7.4113697e+2, 1.9394518e+2, -1030538.3, -1102741.8, -14649.199, 0.073549956, -0.13053037, -1027679.4, 11646.487, 0.020094702, 9.971211, 9.961521 
7.403385e+2, 2.0390593e+2, -947525.3, -1030527.3, -4890.947, 0.07085474, -0.11563791, -947238.1, -5527.56, 0.017162554, 9.971149, 9.95991 
7.3954123e+2, 2.1386588e+2, -846146.4, -937354.5, -4149.287, 0.00965182, -0.09905119, -845958.0, -1854.1708, 0.014533656, 9.971762, 9.959378 
7.387435e+2, 2.2382568e+2, -729333.44, -815643.6, -22715.566, -0.031654302, -0.09605281, -723720.1, 22777.49, 0.012613619, 9.972106, 9.960779 
7.3794335e+2, 2.3378637e+2, -641285.8, -725956.44, -20337.514, -0.04302695, -0.123552814, -636654.2, 12227.706, 0.0122674545, 9.97163, 9.960505 
7.371454e+2, 2.4374557e+2, -566762.7, -664943.56, -18746.195, -0.067804985, -0.13544096, -563305.1, -12023.739, 0.014566295, 9.971105, 9.958382 
7.36348e+2, 2.5370377e+2, -464048.78, -569758.4, -18197.695, -0.09903165, -0.14089894, -461003.78, -7313.1284, 0.020993948, 9.97177, 9.958144 
7.3555315e+2, 2.6366118e+2, -365830.88, -489455.03, -28977.193, -0.07060788, -0.14474687, -359375.75, -3267.536, 0.033569843, 9.972223, 9.956889 
7.3475707e+2, 2.7361798e+2, -244342.0, -372730.8, -23397.96, 0.008548074, -0.16822675, -240210.81, 18320.295, 0.053950455, 9.973651, 9.957593 
7.3396116e+2, 2.8357413e+2, -187129.17, -339980.6, -20572.04, -0.11768642, -0.13993318, -184408.83, -23448.117, 0.08130324, 9.97244, 9.953792 
7.3316246e+2, 2.935291e+2, -111164.91, -243437.9, -15139.55, -0.4105492, -0.02211335, -109454.2, -46051.37, 0.11147689, 9.970484, 9.95463 
7.32378e+2, 3.034817e+2, -97634.19, -238296.31, 36517.14, 0.06947156, -0.18248692, -88719.055, -88719.055, 0.13933387, 9.969452, 9.952553 
7.315828e+2, 3.1343696e+2, 142385.05, 183911.36, -75167.91, -0.5090753, 0.049375128, 241131.03, 241131.03, 0.16231836, 9.972344, 9.979454 
7.5668937e+2, 1.24993026e+2, -1692808.5, -1714555.8, -13662.838, 0.15630604, -0.054002717, -1686220.5, 28840.715, 0.17498739, 9.970585, 9.967532 
7.5589347e+2, 1.3495989e+2, -1600123.0, -1626634.6, -11319.628, 0.17871295, -0.09947596, -1595947.5, 21437.893, 0.1261487, 9.970412, 9.96673 
7.550975e+2, 1.4492528e+2, -1513706.6, -1557025.4, -4128.9004, 0.17706256, -0.10222471, -1513316.6, 6407.964, 0.079539225, 9.970599, 9.96462 
7.54302e+2, 1.5489016e+2, -1402769.8, -1456405.9, -5425.6772, 0.14980236, -0.07106649, -1402226.4, 19842.66, 0.04321595, 9.971646, 9.964259 
7.5350475e+2, 1.6485415e+2, -1302753.9, -1361451.3, -13731.942, 0.12693852, -0.06611335, -1299700.3, 24721.584, 0.02111174, 9.971735, 9.963888 
7.5270647e+2, 1.7481765e+2, -1216816.5, -1274762.9, -11801.774, 0.10218301, -0.09157984, -1214505.0, 12273.772, 0.0106813945, 9.971139, 9.963338 
7.5190794e+2, 1.8477987e+2, -1123998.8, -1199403.3, -12906.131, 0.07256933, -0.09837498, -1121850.9, 7297.8916, 0.0066066408, 9.971583, 9.961569 
7.511092e+2, 1.9474149e+2, -1003124.8, -1094596.1, -14209.592, 0.05004834, -0.08682755, -1000968.25, 30556.563, 0.0049766186, 9.973343, 9.961207 
7.503108e+2, 2.0470214e+2, -911207.06, -1009815.44, -12181.087, 0.036563627, -0.08560616, -909724.6, 24185.635, 0.004049206, 9.973339, 9.96033 
7.495128e+2, 2.1466218e+2, -845607.5, -934167.06, -5824.892, 0.020550048, -0.096915714, -845226.0, -8924.448, 0.0033386433, 9.971444, 9.959681 
7.487149e+2, 2.2462152e+2, -751893.4, -841658.9, -12657.206, -0.009700857, -0.097194456, -750142.8, -11442.789, 0.0028641059, 9.9711075, 9.959461 
7.479157e+2, 2.3458108e+2, -627395.9, -734273.3, -16357.6875, -0.05102294, -0.09762165, -624948.3, 16147.688, 0.002846263, 9.973093, 9.959329 
7.471182e+2, 2.4453928e+2, -532263.25, -660331.56, -16434.576, -0.073781334, -0.10996419, -530187.9, 13317.354, 0.0036514853, 9.9737835, 9.957517 
7.4632114e+2, 2.5449637e+2, -443743.97, -570729.94, -9157.838, -0.060421962, -0.1412041, -443086.94, 2838.2449, 0.0059301113, 9.973327, 9.957236 
7.45526e+2, 2.6445332e+2, -361664.38, -490894.34, -9762.695, -0.045710813, -0.1262925, -360931.0, -12583.864, 0.010720008, 9.972379, 9.956547 
7.4472946e+2, 2.7441072e+2, -263631.9, -387140.5, -6908.122, -0.06639861, -0.058194716, -263246.72, -12482.222, 0.019138975, 9.972122, 9.957152 
7.43933e+2, 2.8436694e+2, -182801.28, -327791.44, -8764.2705, -0.15857854, -0.039063882, -182273.42, -29079.678, 0.0315634, 9.972022, 9.9545765 
7.4313533e+2, 2.9432094e+2, -77348.34, -224913.73, -3534.316, -0.23805742, -0.08772985, -77263.74, -21618.516, 0.04701781, 9.972462, 9.954652 
7.4234754e+2, 3.0427605e+2, -52079.55, -174474.5, 42520.99, 0.034060426, -0.13155235, -38757.46, -38757.46, 0.06350068, 9.970884, 9.9560995 
7.415565e+2, 3.1423205e+2, -10418.561, -46374.234, -78171.63, -0.30023706, -0.18554544, 51815.86, 51815.86, 0.07917367, 9.968392, 9.963989 
7.6665914e+2, 1.2578721e+2, -1708688.6, -1720468.4, -4592.716, 0.17526062, -0.067636244, -1707109.6, 170.37581, 0.12768447, 9.969161, 9.967623 
7.6586396e+2, 1.3575518e+2, -1588529.6, -1616059.5, -7797.634, 0.17190105, -0.02578265, -1586474.4, 23119.031, 0.0897246, 9.97104, 9.967129 
7.6506823e+2, 1.4572117e+2, -1497889.9, -1543377.5, -5130.096, 0.15525839, -0.020266563, -1497318.5, 14608.277, 0.054136056, 9.971486, 9.965139 
7.642728e+2, 1.5568607e+2, -1411578.5, -1456445.8, -3836.1458, 0.115513936, -0.032205608, -1411252.9, 3018.2908, 0.02707615, 9.970844, 9.9646015 
7.6347584e+2, 1.6565011e+2, -1312343.4, -1364686.6, -13728.445, 0.1032007, -0.038513362, -1308961.3, 7661.937, 0.011202649, 9.971017, 9.963997 
7.626779e+2, 1.7561395e+2, -1206123.6, -1267530.3, -16053.454, 0.11658245, -0.05182079, -1202180.0, 16797.197, 0.0041621407, 9.971792, 9.9635725 
7.618799e+2, 1.8557625e+2, -1116225.3, -1198394.4, -12158.341, 0.08900962, -0.05205693, -1114463.9, 6882.6333, 0.0017368137, 9.972372, 9.961381 
7.6108223e+2, 1.9553763e+2, -1011912.06, -1101856.5, -12057.701, 0.024980266, -0.042617045, -1010323.7, 13401.492, 0.0010035197, 9.972997, 9.96096 
7.602837e+2, 2.0549835e+2, -908066.56, -1000898.3, -21440.69, 0.009359582, -0.05663925, -903353.8, 22755.754, 0.00073338376, 9.973145, 9.96104 
7.594845e+2, 2.1545893e+2, -819594.2, -913400.3, -19521.67, 0.035552118, -0.09548084, -815693.8, 12801.24, 0.0005798089, 9.972786, 9.960514 
7.5868666e+2, 2.2541799e+2, -740577.0, -854864.8, -13735.158, 0.01682074, -0.09009007, -738949.44, -8053.2607, 0.0004929841, 9.972883, 9.957909 
7.578891e+2, 2.3537624e+2, -630289.1, -754412.0, -15381.401, -0.042794734, -0.056308843, -628411.44, 4894.5415, 0.00051259453, 9.97389, 9.957706 
7.570921e+2, 2.4533388e+2, -525486.94, -653544.8, -21535.328, -0.06559217, -0.05801808, -521962.38, 13758.433, 0.00074032473, 9.974141, 9.957829 
7.5629467e+2, 2.5529134e+2, -433513.3, -560948.25, -16366.1875, -0.053027082, -0.09173225, -431445.0, 6691.957, 0.0013958075, 9.973847, 9.957642 
7.554983e+2, 2.6524833e+2, -355158.22, -488481.7, -14512.868, -0.061984748, -0.08623641, -353596.72, -13038.441, 0.0028808024, 9.973003, 9.956381 
7.5470126e+2, 2.7520508e+2, -262217.66, -390411.53, -11136.304, -0.1007053, -0.05621308, -261257.42, -18275.014, 0.0057491907, 9.97253, 9.956666 
7.539056e+2, 2.8516117e+2, -166745.7, -303937.22, -3732.1128, -0.14123403, -0.07796818, -166644.25, -21231.588, 0.01049272, 9.972755, 9.955793 
7.531098e+2, 2.9511645e+2, -48198.05, -195316.39, 5126.4043, -0.16525382, -0.1265272, -48019.637, -169.19005, 0.017175974, 9.974107, 9.955765 
7.523175e+2, 3.050725e+2, -46137.156, -182361.86, 25178.14, -0.12921941, -0.048175555, -41632.492, -41632.492, 0.025187906, 9.971666, 9.954727 
7.5152665e+2, 3.150283e+2, 4876.695, 32776.195, -9539.263, 0.025659956, 0.007374236, 35725.945, 35725.945, 0.033518355, 9.9673, 9.970896 
7.766296e+2, 1.265819e+2, -1682731.4, -1710330.5, 1894.8363, 0.19460757, -0.059877247, -1682602.0, 16891.426, 0.09095766, 9.971236, 9.967373 
7.758358e+2, 1.3654959e+2, -1570590.0, -1609625.1, -1608.0907, 0.16649657, -0.020186476, -1570523.9, 31285.941, 0.06282223, 9.972385, 9.9669485 
7.7504015e+2, 1.4651586e+2, -1477429.3, -1524022.5, -5763.9355, 0.14543982, -0.025937205, -1476726.8, 27413.445, 0.036900293, 9.972334, 9.966016 
7.742441e+2, 1.5648143e+2, -1394270.8, -1440313.0, -4510.448, 0.122963116, -0.055682573, -1393833.0, 12644.135, 0.017632606, 9.971554, 9.965326 
7.7344733e+2, 1.6644558e+2, -1303593.1, -1367084.9, -7223.082, 0.10443602, -0.055931423, -1302781.8, 6046.8066, 0.0066743675, 9.971876, 9.963468 
7.726502e+2, 1.7640913e+2, -1191410.8, -1266029.0, -10211.451, 0.09311409, -0.045897726, -1190038.6, 21147.246, 0.0020335538, 9.97299, 9.96315 
7.7185285e+2, 1.863715e+2, -1097610.4, -1185051.4, -9199.673, 0.077648714, -0.043422528, -1096653.0, 16901.545, 0.00056177605, 9.973323, 9.961838 
7.7105546e+2, 1.9633321e+2, -1004438.9, -1094722.4, -7862.82, 0.0517917, -0.043849353, -1003759.25, 12170.541, 0.00019363446, 9.973199, 9.961324 
7.7025735e+2, 2.0629376e+2, -903642.5, -1009599.56, -13707.079, 0.022520827, -0.04532858, -901898.0, 16418.227, 0.00010600254, 9.973841, 9.960156 
7.6945865e+2, 2.1625382e+2, -788877.5, -908290.4, -16638.605, 0.0035070344, -0.05519862, -786602.5, 34104.76, 0.00007633705, 9.975196, 9.95982 
7.686609e+2, 2.2621255e+2, -706270.44, -840284.1, -13899.536, -0.0076843053, -0.05327771, -704844.0, 18267.83, 0.00006413999, 9.975094, 9.957909 
7.6786345e+2, 2.3617049e+2, -624445.44, -753270.94, -10294.233, -0.025088752, -0.04018292, -623628.06, 1896.1785, 0.00007191332, 9.9741, 9.957646 
7.670662e+2, 2.4612802e+2, -532650.75, -660204.75, -13360.042, -0.049641374, -0.042222083, -531266.44, -3326.1445, 0.00012194279, 9.973572, 9.957601 
7.6626843e+2, 2.5608546e+2, -434602.06, -564548.3, -12910.344, -0.06866342, -0.059159003, -433331.8, -2975.1516, 0.00027121173, 9.973667, 9.9574795 
7.654714e+2, 2.6604226e+2, -349970.22, -488584.94, -13937.9375, -0.08862595, -0.05423762, -348582.63, -15802.845, 0.0006411147, 9.973313, 9.956228 
7.6467395e+2, 2.7599862e+2, -257169.44, -392125.8, -12364.274, -0.11346559, -0.048430618, -256046.0, -20838.105, 0.0014441488, 9.972924, 9.956384 
7.638784e+2, 2.8595465e+2, -164942.17, -297618.4, -6799.383, -0.13363464, -0.086005665, -164594.63, -26956.332, 0.002953914, 9.972643, 9.95641 
7.630832e+2, 2.9591078e+2, -73223.96, -207473.25, -7004.5405, -0.15521653, -0.12533116, -72859.484, -32792.035, 0.005340147, 9.972438, 9.956017 
7.622882e+2, 3.058664e+2, -62740.668, -206431.2, -8886.636, -0.18160191, -0.0075451415, -62193.156, -62193.156, 0.008457805, 9.971159, 9.953361 
7.614921e+2, 3.158193e+2, 21035.918, 27147.32, 10503.415, -0.26986003, -0.1030859, 35030.496, 35030.496, 0.011881067, 9.9696, 9.970232 
7.866011e+2, 1.2737678e+2, -1678964.4, -1705811.9, -1353.1863, 0.22520138, -0.00940837, -1678896.4, 12808.742, 0.06232195, 9.971421, 9.967715 
7.858076e+2, 1.3734396e+2, -1577646.0, -1611269.3, -3836.2864, 0.1559307, -0.049790055, -1577213.9, 16812.537, 0.042461146, 9.971818, 9.967175 
7.850121e+2, 1.4731047e+2, -1478704.4, -1521868.0, -11455.026, 0.13888985, -0.055441454, -1475852.8, 20501.367, 0.024464397, 9.972111, 9.966354 
7.8421617e+2, 1.5727672e+2, -1378625.4, -1430205.3, -13384.761, 0.14095995, -0.059383344, -1375358.9, 23325.656, 0.011363006, 9.9725485, 9.965683 
7.834197e+2, 1.6724108e+2, -1288286.9, -1361096.4, -10696.711, 0.115289934, -0.052269503, -1286747.9, 14285.966, 0.004107627, 9.973104, 9.963449 
7.8262335e+2, 1.7720461e+2, -1181706.8, -1262439.0, -11500.544, 0.079486035, -0.03786395, -1180100.4, 23291.408, 0.0011430016, 9.9738, 9.963098 
7.8182626e+2, 1.8716712e+2, -1086420.1, -1176338.6, -14404.406, 0.07134059, -0.03788129, -1084169.0, 21589.994, 0.00025201778, 9.97397, 9.962201 
7.810291e+2, 1.9712916e+2, -992878.25, -1087523.5, -15058.761, 0.074381635, -0.047442056, -990540.0, 17590.861, 0.000051052622, 9.973956, 9.961578 
7.8023136e+2, 2.0708956e+2, -904622.2, -1019637.06, -15072.611, 0.027514474, -0.032871455, -902679.75, 7839.501, 0.000014643549, 9.97433, 9.959385 
7.794335e+2, 2.1704912e+2, -797336.94, -920205.3, -16683.584, -0.04086132, -0.011092998, -795111.9, 17803.807, 0.000007888838, 9.975062, 9.959148 
7.786357e+2, 2.270077e+2, -702284.75, -833294.44, -19639.803, -0.037259873, -0.01850104, -699403.9, 15917.544, 0.0000063581574, 9.975134, 9.958357 
7.778378e+2, 2.3696578e+2, -612362.8, -743178.25, -16747.943, -0.0033069574, -0.041259985, -610252.6, 7479.559, 0.0000079545425, 9.974739, 9.958019 
7.7704006e+2, 2.4692321e+2, -525794.9, -662339.4, -16152.566, -0.040264126, -0.04108642, -523910.13, -3760.9922, 0.000016361515, 9.974386, 9.957081 
7.7624184e+2, 2.5688034e+2, -431512.88, -569366.94, -15934.368, -0.10796544, -0.034051068, -429695.0, -7126.25, 0.000043105636, 9.974249, 9.956867 
7.754444e+2, 2.668367e+2, -347002.25, -489954.8, -17306.262, -0.12566689, -0.024879733, -344936.94, -19940.385, 0.000117532625, 9.973756, 9.955864 
7.7464694e+2, 2.7679262e+2, -257916.88, -397231.25, -14206.464, -0.12044828, -0.023533255, -256482.94, -29054.082, 0.00030280242, 9.973205, 9.955833 
7.738512e+2, 2.867481e+2, -168133.55, -305525.94, -8202.344, -0.13491873, -0.04121613, -167645.61, -37781.414, 0.00069729827, 9.972867, 9.955659 
7.730556e+2, 2.9670364e+2, -81813.68, -225287.66, -9659.588, -0.16621995, -0.051366154, -81166.26, -48867.375, 0.001379841, 9.97259, 9.954631 
7.722604e+2, 3.0665663e+2, -62672.215, -214032.38, -16036.64, -0.108263776, -0.066935435, -60991.785, -60991.785, 0.0023227285, 9.971625, 9.952448 
7.7146095e+2, 3.1660923e+2, 38076.26, 49025.926, -10132.775, -0.39884776, -0.13967805, 55068.34, 55068.34, 0.003392249, 9.969861, 9.97127 
7.965737e+2, 1.2817127e+2, -1656767.6, -1690231.8, 5004.6055, 0.26053667, 0.037327606, -1656035.3, 27885.547, 0.04048696, 9.972645, 9.968142 
7.9577976e+2, 1.3813819e+2, -1559382.1, -1599320.3, 1517.6631, 0.13153811, -0.06964407, -1559324.5, 26919.455, 0.027255554, 9.972811, 9.967459 
7.949847e+2, 1.4810495e+2, -1466254.6, -1517884.6, -4491.2, 0.12554315, -0.052131187, -1465866.9, 22702.97, 0.015450949, 9.97292, 9.966215 
7.9418945e+2, 1.5807156e+2, -1365736.6, -1424513.9, -6269.313, 0.1587144, -0.0062823994, -1365075.4, 25822.002, 0.0070204227, 9.973326, 9.965681 
7.933936e+2, 1.6803622e+2, -1271577.4, -1347216.4, -2683.222, 0.1369325, -0.005081214, -1271482.3, 21761.664, 0.0024614362, 9.973871, 9.96402 
7.925978e+2, 1.7800002e+2, -1168708.3, -1253065.9, -3934.4387, 0.09564042, -0.014620119, -1168525.1, 27073.781, 0.00065384543, 9.974404, 9.963416 
7.9180056e+2, 1.879624e+2, -1079624.6, -1178543.6, -8219.189, 0.064809956, -0.015002059, -1078946.3, 19021.133, 0.00013178977, 9.974482, 9.961793 
7.910032e+2, 1.9792415e+2, -983017.0, -1085952.6, -10572.018, 0.043764994, -0.01626252, -981942.4, 18399.684, 0.000020838193, 9.9745655, 9.9614105 
7.9020584e+2, 2.0788452e+2, -897519.5, -1013070.5, -9005.128, 0.022183372, -0.02073403, -896821.94, 5908.3677, 0.0000030700135, 9.9744835, 9.959749 
7.894084e+2, 2.1784417e+2, -802891.5, -920455.25, -7480.584, -0.008176359, -0.021127708, -802417.4, 2708.0857, 0.0000007635748, 9.974365, 9.959405 
7.8861076e+2, 2.27803e+2, -704508.9, -834844.44, -8997.385, -0.025442982, -0.013341313, -703890.7, 3638.2725, 0.0000004937044, 9.974832, 9.958338 
7.87813e+2, 2.377613e+2, -599225.6, -738728.44, -9203.499, -0.027277045, -0.012769733, -598621.06, 11316.719, 0.0000007039306, 9.975529, 9.957905 
7.8701496e+2, 2.4771827e+2, -512938.6, -662179.1, -11605.974, -0.055087067, -0.022259308, -512041.44, 317.78745, 0.0000017882693, 9.975337, 9.956588 
7.862166e+2, 2.576748e+2, -423102.75, -570134.44, -12342.86, -0.101126276, -0.029674938, -422073.8, -7289.017, 0.0000056133936, 9.974826, 9.956509 
7.854186e+2, 2.6763114e+2, -335184.63, -483662.34, -13747.882, -0.1179164, -0.013708747, -333922.4, -16709.438, 0.00001793459, 9.974371, 9.955926 
7.846206e+2, 2.775871e+2, -246738.28, -394851.8, -9047.658, -0.11503439, -0.002075612, -246187.64, -26543.227, 0.00005323985, 9.97396, 9.955539 
7.838244e+2, 2.8754205e+2, -163898.53, -310458.44, -5995.8623, -0.12035259, -0.016529657, -163653.66, -41568.37, 0.00013652543, 9.973362, 9.95497 
7.8302824e+2, 2.9749694e+2, -87742.8, -233101.6, -8191.718, -0.13932705, -0.021111095, -87282.61, -62756.24, 0.00028982802, 9.972272, 9.954135 
7.8223157e+2, 3.0744994e+2, -60314.047, -194352.31, -1547.986, -0.10894375, -0.09568975, -60296.17, -60296.17, 0.00050883036, 9.970688, 9.953827 
7.814323e+2, 3.1740537e+2, 31828.9, 34512.395, 1600.6792, -0.2075928, 0.0053667724, 35259.297, 35259.297, 0.00076198165, 9.969218, 9.969676 
8.065462e+2, 1.2896508e+2, -1645554.5, -1681217.0, -2264.1616, 0.23401015, 0.020095203, -1645411.4, 30732.193, 0.024554512, 9.973319, 9.968561 
8.057528e+2, 1.3893306e+2, -1550913.9, -1592920.6, -7083.4673, 0.13714592, -0.021008482, -1549751.5, 28704.88, 0.016354568, 9.973351, 9.967768 
8.049578e+2, 1.4890005e+2, -1456670.6, -1512256.0, -10068.379, 0.12827167, -0.0043523777, -1454903.1, 25877.049, 0.009139995, 9.973618, 9.966406 
8.0416304e+2, 1.5886673e+2, -1354272.0, -1417268.8, -10399.167, 0.15517813, 0.031682782, -1352599.8, 30507.488, 0.0040751924, 9.974118, 9.965898 
8.033675e+2, 1.6883172e+2, -1263677.1, -1338500.5, -7159.9404, 0.13449737, 0.02749999, -1262998.1, 22452.145, 0.0013936987, 9.974265, 9.964547 
8.025721e+2, 1.7879596e+2, -1167613.3, -1250035.5, -9713.23, 0.096253105, 0.010171245, -1166484.1, 21316.725, 0.0003581768, 9.974427, 9.963744 
8.017751e+2, 1.887584e+2, -1073645.3, -1177852.6, -11186.41, 0.056251585, 0.013269453, -1072458.0, 17710.662, 0.00006886962, 9.975045, 9.961657 
8.009778e+2, 1.9872007e+2, -967440.06, -1078558.5, -11712.169, 0.018599587, 0.017764572, -966219.0, 26325.314, 0.000009974997, 9.975678, 9.961401 
8.001806e+2, 2.0868054e+2, -877826.75, -997949.0, -11430.727, 0.024078442, -0.007962073, -876748.7, 18182.332, 0.0000011239558, 9.975615, 9.96025 
7.993834e+2, 2.1864042e+2, -785749.5, -908423.8, -10017.943, 0.03475765, -0.037130482, -784936.8, 12386.84, 0.00000012109513, 9.97543, 9.959754 
7.9858595e+2, 2.2859953e+2, -694885.25, -831513.4, -9384.068, -0.014867642, -0.0068397783, -694243.75, 5480.765, 0.000000033641566, 9.975666, 9.958222 
7.9778814e+2, 2.3855801e+2, -595934.75, -740887.4, -10581.59, -0.07336576, 0.029171467, -595166.3, 6965.5576, 0.000000050275645, 9.976006, 9.9575615 
7.9699016e+2, 2.4851426e+2, -511749.2, -667372.1, -14970.082, -0.07272328, 0.00029104718, -510322.25, -5762.088, 0.00000016087417, 9.975717, 9.956019 
7.961918e+2, 2.5846994e+2, -420799.03, -572394.0, -14864.003, -0.06390155, -0.03988555, -419355.34, -12361.107, 0.00000061731293, 9.975195, 9.956126 
7.9539347e+2, 2.6842624e+2, -331229.53, -479444.75, -16183.277, -0.07890117, -0.016517509, -329483.1, -20060.791, 0.0000023565913, 9.974645, 9.956009 
7.945948e+2, 2.7838236e+2, -248645.52, -399943.7, -10671.789, -0.094878405, 0.011438213, -247896.48, -36043.99, 0.000008004878, 9.974118, 9.955047 
7.93798e+2, 2.883361e+2, -171092.03, -325616.66, -10622.2, -0.101091176, -0.023535071, -170365.27, -56059.656, 0.000022351418, 9.973454, 9.953792 
7.930008e+2, 2.9828995e+2, -78573.55, -216637.44, -14194.597, -0.12681045, -0.046503194, -77129.28, -60371.902, 0.000049806462, 9.972439, 9.955069 
7.922013e+2, 3.0824813e+2, -16009.849, -105574.016, -5446.4043, -0.21990924, -0.008829888, -15679.868, -15679.868, 0.00008980386, 9.97088, 9.959576 
7.914017e+2, 3.182073e+2, -13447.571, -62442.64, 4792.5283, -0.20459777, 0.08571928, -12983.185, -12983.185, 0.0001364833, 9.969442, 9.962738 
8.165197e+2, 1.2975849e+2, -1627085.1, -1668202.3, 4859.761, 0.18755564, -0.005653862, -1626518.5, 41851.637, 0.013656359, 9.974227, 9.968907 
8.1572694e+2, 1.3972794e+2, -1539006.9, -1584138.8, 254.02625, 0.17753592, 0.068121865, -1539005.4, 31664.184, 0.00901513, 9.973855, 9.9680195 
8.1493187e+2, 1.496949e+2, -1445606.6, -1502962.9, 162.38582, 0.14197068, 0.052085, -1445606.1, 27387.264, 0.0049783196, 9.974046, 9.96678 
8.141371e+2, 1.5966138e+2, -1344276.3, -1408984.0, -1367.6578, 0.12029983, 0.030627662, -1344247.4, 31074.67, 0.0021846793, 9.974471, 9.9662285 
8.1334156e+2, 1.6962674e+2, -1256387.6, -1332505.3, 1076.6122, 0.095056534, 0.034224942, -1256372.4, 21288.982, 0.0007317571, 9.974439, 9.964816 
8.125463e+2, 1.7959148e+2, -1160718.4, -1242486.6, -531.2975, 0.066529825, 0.038024805, -1160714.9, 19291.963, 0.0001830531, 9.974522, 9.964176 
8.117505e+2, 1.8955457e+2, -1061628.6, -1164534.5, 1832.0564, 0.06150388, 0.04160407, -1061596.0, 20772.62, 0.000033989887, 9.975402, 9.962363 
8.1095445e+2, 1.9951682e+2, -952077.25, -1066374.5, 697.67413, 0.053804524, 0.043313015, -952073.0, 32665.396, 0.000004694803, 9.976331, 9.961832 
8.1015694e+2, 2.0947757e+2, -863105.3, -990463.1, -1484.8287, 0.03038711, 0.02857183, -863088.0, 24034.559, 0.0000004859856, 9.976368, 9.9603 
8.093594e+2, 2.1943757e+2, -769640.06, -901271.56, -962.7455, 0.010389621, 0.009453981, -769633.0, 19880.88, 0.0000000389255, 9.976332, 9.959739 
8.0856204e+2, 2.293964e+2, -683919.9, -827764.25, -923.5032, -0.021145362, 0.019589292, -683913.94, 8003.436, 0.0000000035159562, 9.976268, 9.958132 
8.077645e+2, 2.3935461e+2, -591630.1, -739654.75, -2872.5576, -0.05860378, 0.03721302, -591574.4, 2752.8364, 0.0000000031308374, 9.9761095, 9.9575405 
8.0696625e+2, 2.4931104e+2, -503971.7, -662758.0, -6278.756, -0.060346004, 0.02040363, -503723.78, -6969.8433, 0.000000013322, 9.976013, 9.95607 
8.061676e+2, 2.5926682e+2, -407952.13, -566432.8, -4262.982, -0.054038923, -0.0057576443, -407837.56, -8650.518, 0.000000066729854, 9.97589, 9.956018 
8.053685e+2, 2.6922292e+2, -318852.38, -474547.22, -8304.142, -0.08108574, 0.011900249, -318410.72, -16793.451, 0.00000031028577, 9.975343, 9.955825 
8.04569e+2, 2.7917868e+2, -241642.7, -399818.7, -5087.049, -0.10433425, 0.029933505, -241479.27, -37428.855, 0.0000011864553, 9.974538, 9.954713 
8.037712e+2, 2.891319e+2, -180363.13, -334014.5, -3170.4885, -0.09854126, -0.012786639, -180297.73, -73788.86, 0.0000035283217, 9.972749, 9.953267 
8.029725e+2, 2.9908556e+2, -89307.125, -206374.23, -2467.3982, -0.12691884, -0.03205246, -89255.14, -80292.38, 0.000008120273, 9.970847, 9.956182 
8.021713e+2, 3.090474e+2, 12530.935, -48548.203, -10044.799, -0.29016843, 0.0713373, 14140.444, 14140.444, 0.000014887808, 9.970862, 9.963463 
8.0137134e+2, 3.1900558e+2, -62846.02, -197171.34, -8216.918, -0.2100575, -0.057754338, -62345.246, -62345.246, 0.000022823542, 9.970669, 9.953195 
8.264943e+2, 1.3055347e+2, -1613331.1, -1660099.4, -2590.8433, 0.19411664, 0.06742058, -1613188.0, 47394.33, 0.006829297, 9.975139, 9.969065 
8.2570106e+2, 1.4052245e+2, -1528712.1, -1575964.9, -8103.674, 0.18619613, 0.07639545, -1527361.0, 35524.832, 0.0044781193, 9.974469, 9.968355 
8.2490593e+2, 1.5049003e+2, -1438819.5, -1493387.6, -3987.3757, 0.14560425, 0.06880018, -1438529.8, 26673.764, 0.0024504783, 9.974309, 9.967414 
8.241114e+2, 1.6045709e+2, -1340764.4, -1402972.3, -4851.8887, 0.11081133, 0.04864246, -1340388.3, 27138.021, 0.0010623109, 9.974594, 9.966655 
8.233161e+2, 1.7042276e+2, -1244362.6, -1323668.8, -1968.297, 0.07901157, 0.048910286, -1244313.8, 25548.611, 0.00035011073, 9.975189, 9.965137 
8.2252103e+2, 1.803879e+2, -1141991.1, -1228283.0, -3251.7036, 0.052258573, 0.056279104, -1141868.8, 30335.049, 0.00008574844, 9.975641, 9.964683 
8.2172596e+2, 1.903517e+2, -1055644.6, -1153583.3, 78.85979, 0.06860537, 0.06233006, -1055644.6, 18913.953, 0.00001549313, 9.97555, 9.963148 
8.2093084e+2, 2.0031469e+2, -960065.9, -1065998.3, -2809.5962, 0.080792755, 0.0651869, -959991.44, 16929.963, 0.0000020664204, 9.975658, 9.962287 
8.2013315e+2, 2.1027578e+2, -865643.94, -991234.06, -5010.1416, 0.026881015, 0.06557425, -865444.4, 13857.902, 0.00000020419301, 9.976214, 9.960395 
8.193354e+2, 2.2023599e+2, -765600.06, -900202.8, -3385.2312, -0.026407346, 0.06134363, -765514.94, 16176.961, 0.00000001503368, 9.9766865, 9.959688 
8.185383e+2, 2.3019448e+2, -677923.56, -825763.56, -3005.5564, -0.025149003, 0.044954035, -677862.5, 6236.179, 0.0000000008642144, 9.976756, 9.958039 
8.1774104e+2, 2.4015231e+2, -584385.75, -735067.56, -4018.9438, -0.02336394, 0.03260248, -584278.6, 2233.301, 0.0000000003154453, 9.976605, 9.957602 
8.169426e+2, 2.5010926e+2, -497128.38, -655629.94, -7259.0273, -0.04315263, 0.04604074, -496796.63, -7862.87, 0.0000000026819775, 9.976389, 9.95634 
8.161434e+2, 2.6006562e+2, -405884.6, -565701.5, -5633.722, -0.07027065, 0.057745025, -405686.25, -14324.512, 0.00000001985557, 9.976108, 9.955916 
8.1534344e+2, 2.7002117e+2, -320729.16, -480304.28, -11458.706, -0.12248799, 0.06451263, -319910.53, -26113.332, 0.000000111869994, 9.975484, 9.955279 
8.1454307e+2, 2.7997625e+2, -242100.22, -399598.44, -9734.904, -0.15776177, 0.061114527, -241500.8, -45263.625, 0.00000046760314, 9.974515, 9.954629 
8.1374365e+2, 2.8993e+2, -176951.77, -323034.72, -11564.437, -0.11673327, 0.023330048, -176041.95, -77351.08, 0.0000014492455, 9.972557, 9.953927 
8.1294334e+2, 2.9988444e+2, -90043.1, -204994.61, -3127.4353, -0.11555042, 0.02211215, -89958.08, -88820.85, 0.0000034017298, 9.970822, 9.956153 
8.1214327e+2, 3.098451e+2, 9226.61, -68442.04, -10676.129, -0.22812434, 0.12971279, 10667.3955, 10667.3955, 0.0000063008024, 9.971679, 9.961733 
8.113431e+2, 3.198022e+2, -14565.731, -122122.01, -18810.166, -0.19247325, -0.026960934, -11370.977, -11370.977, 0.000009704377, 9.971722, 9.957773 
8.364698e+2, 1.3134894e+2, -1607984.9, -1657484.6, 4679.148, 0.21540196, 0.15968505, -1607546.5, 45243.016, 0.0030089617, 9.975281, 9.969009 
8.356755e+2, 1.4131655e+2, -1521357.5, -1567599.4, -429.25638, 0.16435705, 0.023178713, -1521353.5, 33752.27, 0.0019641386, 9.974552, 9.968728 
8.348804e+2, 1.5128532e+2, -1429892.0, -1480616.6, 6459.9766, 0.14652862, 0.06971292, -1429082.3, 28329.463, 0.0010681495, 9.974358, 9.968168 
8.340864e+2, 1.6125356e+2, -1334707.6, -1395270.0, 6532.474, 0.13825662, 0.10313126, -1334011.0, 25711.902, 0.00045917454, 9.974633, 9.967081 
8.332917e+2, 1.7121921e+2, -1237811.9, -1317112.3, 10906.7295, 0.10381768, 0.07105474, -1236339.1, 25719.688, 0.00014963388, 9.975338, 9.965455 
8.324971e+2, 1.811844e+2, -1133460.3, -1219390.5, 6059.5356, 0.06714373, 0.04856793, -1133035.1, 31364.414, 0.00003610315, 9.975782, 9.965129 
8.317013e+2, 1.9114883e+2, -1053136.0, -1146639.3, 7614.8286, 0.05664842, 0.06406513, -1052520.0, 14228.199, 0.0000063962675, 9.97519, 9.963707 
8.309057e+2, 2.0111239e+2, -965166.94, -1064167.3, 7168.8535, 0.049856704, 0.074909694, -964650.5, 4454.655, 0.00000083170164, 9.974901, 9.962733 
8.3010906e+2, 2.110738e+2, -865861.5, -987383.1, 7796.3643, 0.016218819, 0.06569126, -865363.4, 6119.7754, 0.00000007956064, 9.975859, 9.960804 
8.293123e+2, 2.2103438e+2, -758135.6, -892926.44, 8811.355, -0.020107107, 0.060354557, -757562.06, 16307.347, 0.00000000562028, 9.976836, 9.960058 
8.285154e+2, 2.3099346e+2, -665322.2, -815863.6, 8598.138, -0.029955577, 0.06792803, -664832.7, 11437.949, 0.00000000032876676, 9.977231, 9.958382 
8.27718e+2, 2.4095173e+2, -567648.94, -723888.75, 7575.8447, -0.034396455, 0.069349594, -567282.5, 11397.259, 0.00000000052061366, 9.977375, 9.957856 
8.2691926e+2, 2.509088e+2, -482516.13, -645862.56, 2543.0967, -0.053439938, 0.068209104, -482476.53, -1375.8073, 0.0000000056568963, 9.977027, 9.956555 
8.261196e+2, 2.6086524e+2, -395168.06, -559730.1, 3397.424, -0.08165363, 0.07567642, -395097.94, -11570.559, 0.000000045125944, 9.976558, 9.9559765 
8.2531905e+2, 2.708208e+2, -312111.06, -478012.38, -2496.0588, -0.13377555, 0.095049985, -312073.53, -26110.436, 0.00000026190514, 9.975909, 9.955034 
8.245178e+2, 2.8077567e+2, -228541.33, -393324.72, -963.418, -0.16762318, 0.09506999, -228535.7, -40130.297, 0.0000011084345, 9.975189, 9.954507 
8.237169e+2, 2.9072937e+2, -146541.53, -305254.16, -9297.397, -0.11851808, 0.04402482, -145998.75, -55139.3, 0.0000034541345, 9.974208, 9.954151 
8.2291496e+2, 3.0068415e+2, -61879.05, -193160.13, -245.60986, -0.10358344, 0.04789012, -61878.59, -61878.59, 0.000008127427, 9.972595, 9.956019 
8.221149e+2, 3.106442e+2, -26450.111, -101800.26, -1438.2065, -0.17132144, 0.19772948, -26422.67, -26422.67, 0.000015077901, 9.969764, 9.960191 
8.2131284e+2, 3.2060114e+2, -8870.443, -37938.63, -18229.473, -0.26517382, -0.0057800286, -90.30167, -90.30167, 0.00002323972, 9.96832, 9.964971 
8.4644544e+2, 1.3214478e+2, -1592133.8, -1646665.1, 933.65826, 0.21121301, 0.13057064, -1592117.8, 52873.84, 0.0011421927, 9.976235, 9.969198 
8.456502e+2, 1.4211321e+2, -1509293.6, -1557864.4, -1503.0555, 0.16269413, 0.057101853, -1509247.3, 38053.15, 0.0007435361, 9.975256, 9.968965 
8.448551e+2, 1.5208226e+2, -1412404.8, -1467107.9, 6789.464, 0.14157997, 0.09598635, -1411574.8, 38028.973, 0.00040280866, 9.975404, 9.968589 
8.440614e+2, 1.6205087e+2, -1318958.1, -1383401.9, 4856.582, 0.13997334, 0.1281278, -1318594.1, 33316.867, 0.00017225166, 9.975589, 9.967467 
8.432671e+2, 1.720169e+2, -1235601.6, -1311069.4, 10922.405, 0.11500228, 0.08887138, -1234052.6, 20190.701, 0.00005573453, 9.975335, 9.965912 
8.424728e+2, 1.8198246e+2, -1136536.4, -1215425.5, 4667.7344, 0.078748904, 0.05689017, -1136261.1, 20319.127, 0.000013319515, 9.975355, 9.965613 
8.4167653e+2, 1.9194742e+2, -1039013.44, -1133879.3, 5922.4673, 0.046468355, 0.07388188, -1038645.1, 20278.424, 0.00000232996, 9.975903, 9.964237 
8.4088075e+2, 2.0191148e+2, -941709.3, -1047976.3, 8298.268, 0.022890775, 0.08516963, -941065.25, 20210.438, 0.00000029792903, 9.976357, 9.963166 
8.4008515e+2, 2.1187323e+2, -849239.0, -973924.5, 10951.013, 0.0112612145, 0.064270295, -848284.5, 15365.849, 0.000000027884646, 9.976861, 9.961276 
8.392894e+2, 2.2183423e+2, -748939.3, -883499.7, 10850.709, -0.0077545983, 0.05640086, -748069.94, 17962.678, 0.0000000019195512, 9.97732, 9.960485 
8.3849263e+2, 2.3179409e+2, -659385.7, -807703.56, 9336.311, -0.039418142, 0.09624478, -658800.3, 9626.332, 0.00000000019847272, 9.977466, 9.958821 
8.376951e+2, 2.4175292e+2, -564669.2, -719426.1, 7029.0435, -0.064889185, 0.118309036, -564350.6, 6479.676, 0.0000000015404589, 9.977483, 9.958087 
8.3689606e+2, 2.5170976e+2, -479208.9, -642448.75, 916.84143, -0.07545127, 0.08176134, -479203.75, -5950.692, 0.000000016923646, 9.977204, 9.956647 
8.360961e+2, 2.6166603e+2, -392338.47, -556985.9, 1943.7654, -0.090031385, 0.063578166, -392315.53, -16634.193, 0.00000013514877, 9.976728, 9.956018 
8.3529514e+2, 2.7162185e+2, -310783.1, -476664.44, -5195.2876, -0.11409061, 0.11092942, -310620.56, -32506.25, 0.0000007845687, 9.976007, 9.95499 
8.344934e+2, 2.815767e+2, -230778.4, -398229.03, -3074.8, -0.13034385, 0.12664667, -230721.97, -50164.855, 0.0000033203219, 9.975266, 9.954049 
8.3369136e+2, 2.9152942e+2, -147145.34, -311969.94, -13497.378, -0.11500363, 0.041321803, -146047.36, -63026.676, 0.000010345891, 9.974517, 9.953446 
8.328877e+2, 3.0148366e+2, -55617.04, -188984.97, -13012.967, -0.13024615, 0.036197986, -54359.203, -54359.203, 0.000024337305, 9.972882, 9.956021 
8.320839e+2, 3.1144428e+2, -42412.367, -110725.82, -19814.121, -0.15488303, 0.24349758, -37081.355, -37081.355, 0.000045135635, 9.968517, 9.95993 
8.312808e+2, 3.213997e+2, -34592.535, -68934.734, -2241.237, -0.22459483, -0.015217993, -34446.883, -34446.883, 0.00006957833, 9.967964, 9.963247 
8.5642153e+2, 1.329414e+2, -1593167.6, -1642083.8, 4806.5225, 0.20348862, 0.0760227, -1592699.9, 44485.62, 0.00036341642, 9.975714, 9.969596 
8.5562557e+2, 1.4291166e+2, -1510386.1, -1556190.5, 6441.3643, 0.17615154, 0.15818815, -1509497.5, 29979.76, 0.00023620963, 9.974916, 9.969113 
8.548303e+2, 1.5288012e+2, -1412147.9, -1465321.1, 18130.855, 0.12329054, 0.12548739, -1406554.1, 35232.21, 0.00012768328, 9.975198, 9.968735 
8.540366e+2, 1.628485e+2, -1316184.4, -1376776.3, 13450.178, 0.105802916, 0.10964343, -1313332.9, 30763.266, 0.000054433065, 9.97533, 9.967928 
8.5324216e+2, 1.7281558e+2, -1233546.8, -1302331.8, 19912.668, 0.10464806, 0.11204398, -1228198.1, 18220.207, 0.00001753889, 9.974899, 9.966608 
8.5244805e+2, 1.8278207e+2, -1135745.8, -1208395.3, 17451.78, 0.08821381, 0.10789179, -1131770.9, 16975.432, 0.000004167791, 9.974948, 9.966206 
8.5165286e+2, 1.9274738e+2, -1030588.6, -1123412.3, 21161.785, 0.06523999, 0.105293326, -1025991.9, 25094.068, 0.00000072355056, 9.97606, 9.964808 
8.508579e+2, 2.0271188e+2, -925402.6, -1033569.56, 21919.92, 0.042823616, 0.10508128, -921129.44, 32304.426, 0.00000009158835, 9.976995, 9.963744 
8.500625e+2, 2.1267447e+2, -834773.94, -959017.1, 24452.31, 0.017966552, 0.10106205, -830134.7, 25665.785, 0.000000008458324, 9.977284, 9.961978 
8.492669e+2, 2.2263615e+2, -739312.0, -872378.75, 24245.4, -0.006163787, 0.09911856, -735032.06, 23143.941, 0.00000000058265287, 9.977452, 9.961051 
8.4847015e+2, 2.3259628e+2, -652213.0, -798315.56, 22558.025, -0.032052983, 0.11468556, -648809.4, 11757.599, 0.00000000027731323, 9.977444, 9.959324 
8.476727e+2, 2.4255547e+2, -557781.9, -711415.5, 21227.785, -0.05674291, 0.12355762, -554902.75, 8064.3423, 0.000000003769357, 9.977495, 9.95848 
8.468736e+2, 2.5251272e+2, -463671.72, -631182.6, 15178.135, -0.074573494, 0.09761704, -462307.53, 3078.2263, 0.000000041425338, 9.977847, 9.956934 
8.4607357e+2, 2.624692e+2, -368923.44, -544472.6, 15583.109, -0.091930486, 0.08371665, -367550.9, 260.76236, 0.00000033075668, 9.978001, 9.956067 
8.4527194e+2, 2.724249e+2, -284911.0, -464486.8, 5851.5264, -0.11068594, 0.12219887, -284720.53, -14474.468, 0.0000019196302, 9.977498, 9.954901 
8.444693e+2, 2.8237957e+2, -210403.7, -389407.06, 6692.5273, -0.11608065, 0.13250585, -210153.83, -37463.184, 0.000008122087, 9.976364, 9.953899 
8.4366566e+2, 2.9233205e+2, -150910.56, -316315.7, -2163.5178, -0.1145089, 0.04746454, -150882.27, -75725.85, 0.000025306737, 9.974002, 9.953081 
8.428599e+2, 3.0228612e+2, -64159.6, -194656.56, -4879.417, -0.14839838, 0.054673478, -63977.41, -63977.41, 0.000059529088, 9.971898, 9.955723 
8.420529e+2, 3.122464e+2, -13724.159, -101840.055, -20711.324, -0.14717539, 0.2724894, -9098.828, -9098.828, 0.000110368164, 9.9701395, 9.959426 
8.412499e+2, 3.2220045e+2, -29078.352, -88792.914, 35749.605, -0.19351809, -0.0075455257, -12357.831, -12357.831, 0.00017012689, 9.969534, 9.961172 
8.6639696e+2, 1.3373901e+2, -1585618.0, -1629826.8, -6391.6445, 0.19055974, 0.10026013, -1584712.5, 44657.844, 0.00009383463, 9.975849, 9.970395 
8.656004e+2, 1.437098e+2, -1505042.9, -1550645.9, 1424.8707, 0.16776948, 0.17957635, -1504998.4, 26658.785, 0.00006094004, 9.97525, 9.969405 
8.6480576e+2, 1.5367848e+2, -1401208.0, -1457316.8, 16048.181, 0.122091286, 0.13768393, -1396942.3, 37021.9, 0.00003290037, 9.975926, 9.96904 
8.6401224e+2, 1.636472e+2, -1299327.3, -1362299.0, 7793.5254, 0.10508836, 0.11458909, -1298377.1, 37893.54, 0.000014001087, 9.976221, 9.968543 
8.632174e+2, 1.7361523e+2, -1213136.5, -1284379.0, 14773.383, 0.10374343, 0.13748842, -1210194.4, 28389.297, 0.0000045003767, 9.975942, 9.967398 
8.624234e+2, 1.8358257e+2, -1117891.9, -1193334.3, 15732.321, 0.09180465, 0.14686723, -1114742.6, 26160.934, 0.0000010659371, 9.975964, 9.966845 
8.616291e+2, 1.9354841e+2, -1021585.4, -1112262.9, 21002.96, 0.075908, 0.12980434, -1016956.9, 26281.08, 0.00000018424288, 9.976478, 9.965489 
8.6083496e+2, 2.0351355e+2, -923782.9, -1025382.25, 19487.566, 0.05620058, 0.1259091, -920173.25, 25406.389, 0.000000023185766, 9.976827, 9.964473 
8.600397e+2, 2.1347718e+2, -835767.75, -950519.06, 22219.63, 0.021161087, 0.14242712, -831615.56, 16320.746, 0.0000000021246724, 9.976863, 9.962828 
8.592443e+2, 2.2343968e+2, -740573.56, -865521.56, 22586.207, -0.0073066144, 0.14440301, -736616.1, 13687.639, 0.00000000016612903, 9.977069, 9.96175 
8.5844773e+2, 2.3340012e+2, -647697.25, -788892.0, 21795.025, -0.019652339, 0.12367138, -644409.5, 8281.574, 0.00000000051179117, 9.977463, 9.959966 
8.5765046e+2, 2.433597e+2, -552136.5, -703292.9, 22713.621, -0.03835885, 0.11542265, -548797.2, 6289.895, 0.000000007637945, 9.977703, 9.958936 
8.5685164e+2, 2.5331765e+2, -460163.8, -624836.06, 16707.145, -0.06651128, 0.121311724, -458485.84, -986.94745, 0.000000083945466, 9.977956, 9.957292 
8.560515e+2, 2.632745e+2, -369755.22, -544788.2, 15642.123, -0.097169906, 0.1207138, -368368.34, -8446.714, 0.0000006702643, 9.977986, 9.956 
8.5524935e+2, 2.7322957e+2, -286760.53, -467297.47, 4090.7212, -0.12974891, 0.12083328, -286667.9, -24306.164, 0.000003889783, 9.977492, 9.954625 
8.544455e+2, 2.831839e+2, -209828.0, -386522.97, -819.32275, -0.13489136, 0.11420845, -209824.2, -45014.547, 0.000016460805, 9.976237, 9.954015 
8.5363954e+2, 2.931371e+2, -153348.19, -314388.13, -12514.101, -0.107960455, 0.08069473, -152381.55, -85113.15, 0.000051319832, 9.973619, 9.953222 
8.528316e+2, 3.030911e+2, -74070.46, -212114.39, -9850.385, -0.15415303, 0.11240424, -73371.11, -73371.11, 0.000120814846, 9.971819, 9.954489 
8.520233e+2, 3.130486e+2, -11171.783, -121277.81, -27537.047, -0.20733863, 0.23636034, -4668.9424, -4668.9424, 0.00022411745, 9.971283, 9.957508 
8.5121995e+2, 3.230028e+2, -22162.576, -75078.54, 14751.703, -0.1445025, 0.06858304, -18328.025, -18328.025, 0.00034556063, 9.969458, 9.961896 
8.763723e+2, 1.3453703e+2, -1589684.4, -1620637.3, -3633.858, 0.17016865, 0.13414124, -1589263.5, 32288.229, 0.000019043677, 9.974883, 9.971329 
8.7557524e+2, 1.4450768e+2, -1508610.6, -1549009.6, 11537.034, 0.14786345, 0.14223565, -1505548.1, 18291.387, 0.000012362725, 9.974791, 9.969655 
8.7478185e+2, 1.544771e+2, -1403810.4, -1455275.1, 27957.102, 0.14875145, 0.149005, -1391546.0, 34593.145, 0.0000066696857, 9.975528, 9.969326 
8.739888e+2, 1.644465e+2, -1298721.6, -1354946.5, 14720.826, 0.14774168, 0.14975081, -1295100.6, 33338.484, 0.000002835376, 9.97578, 9.969156 
8.7319344e+2, 1.7441502e+2, -1209904.3, -1274557.1, 22708.098, 0.11300313, 0.15282571, -1202725.6, 28021.844, 0.0000009100635, 9.975629, 9.968138 
8.723992e+2, 1.8438289e+2, -1114857.3, -1186015.3, 24847.564, 0.07444179, 0.15085395, -1107039.6, 26022.566, 0.00000021513608, 9.975756, 9.967387 
8.7160516e+2, 1.9434938e+2, -1020659.8, -1104847.1, 30511.953, 0.04613391, 0.13789819, -1010764.5, 24625.813, 0.000000037089958, 9.976071, 9.966149 
8.708111e+2, 2.043153e+2, -925623.1, -1016575.44, 26804.94, 0.029914828, 0.13856286, -918311.2, 19413.018, 0.0000000046516857, 9.976051, 9.965382 
8.7001586e+2, 2.1427995e+2, -840893.3, -941795.0, 30188.242, 0.014933027, 0.15780877, -832551.1, 7519.6104, 0.0000000004243601, 9.975787, 9.963875 
8.692208e+2, 2.242436e+2, -742271.9, -851929.1, 35590.074, -0.0062065315, 0.15914461, -731733.56, 10693.365, 0.000000000071721434, 9.976151, 9.963071 
8.68425e+2, 2.3420538e+2, -638465.1, -769056.75, 37287.87, -0.027766652, 0.13477689, -628568.3, 16232.714, 0.0000000009082265, 9.977234, 9.961336 
8.6762816e+2, 2.441661e+2, -538522.1, -685766.94, 39051.15, -0.04757254, 0.12564132, -528806.3, 18379.465, 0.000000013717135, 9.977898, 9.959889 
8.668295e+2, 2.5412503e+2, -447832.53, -608966.9, 34685.215, -0.07021519, 0.13818341, -440683.5, 8905.1045, 0.00000015076724, 9.97807, 9.958113 
8.6602944e+2, 2.6408273e+2, -358617.78, -529550.4, 36081.97, -0.09461758, 0.14175467, -351313.4, 689.5343, 0.0000012040975, 9.977964, 9.956761 
8.652268e+2, 2.7403826e+2, -276265.13, -454753.75, 28759.438, -0.12310922, 0.13082083, -271745.63, -17307.21, 0.000006992764, 9.977499, 9.955052 
8.644221e+2, 2.839928e+2, -188653.58, -372805.9, 24158.082, -0.13074024, 0.123698406, -185537.13, -28653.137, 0.000029645516, 9.977095, 9.953999 
8.6361414e+2, 2.939462e+2, -108255.625, -291592.72, 8474.374, -0.10913336, 0.124546535, -107864.75, -48523.83, 0.00009271142, 9.97621, 9.953004 
8.628041e+2, 3.038994e+2, -43054.094, -207680.55, 11512.583, -0.1695936, 0.15353514, -42252.902, -42252.902, 0.00021904535, 9.973961, 9.95325 
8.6199373e+2, 3.1385434e+2, -31003.875, -148763.95, -1636.5406, -0.257145, 0.17664573, -30981.135, -30981.135, 0.0004076256, 9.970238, 9.955541 
8.611893e+2, 3.2380977e+2, -40718.27, -62097.89, 29515.012, -0.06385938, 0.18853322, -20016.873, -20016.873, 0.00062983576, 9.966548, 9.963353 
8.8634825e+2, 1.3533536e+2, -1575054.9, -1615969.5, -2624.818, 0.23310013, 0.18346168, -1574887.1, 38843.19, 0.000002958578, 9.976199, 9.97116 
8.855507e+2, 1.4530592e+2, -1470528.5, -1521537.8, 2353.2002, 0.10321025, 0.14709954, -1470420.3, 45598.45, 0.0000019202917, 9.9770155, 9.9705515 
8.847575e+2, 1.552764e+2, -1395756.9, -1442632.9, 24316.496, 0.15861316, 0.16576369, -1385421.6, 32886.17, 0.0000010355539, 9.975722, 9.97016 
8.8396454e+2, 1.6524647e+2, -1301359.3, -1351270.6, 11868.229, 0.16737989, 0.17425905, -1298680.9, 21920.127, 0.0000004399312, 9.975415, 9.969633 
8.8316905e+2, 1.7521551e+2, -1200214.0, -1263300.4, 19351.469, 0.1048549, 0.16898176, -1194751.0, 28153.46, 0.00000014107277, 9.976046, 9.968802 
8.823749e+2, 1.85184e+2, -1105511.3, -1174305.5, 20839.873, 0.05516718, 0.16215292, -1099690.6, 25522.49, 0.00000003330806, 9.976107, 9.9681015 
8.8158095e+2, 1.9515134e+2, -1019536.9, -1095511.8, 28394.096, 0.028098203, 0.1526799, -1010097.8, 17435.156, 0.0000000057331504, 9.975793, 9.966984 
8.80787e+2, 2.0511816e+2, -919141.8, -1002299.8, 24843.16, 0.014271687, 0.1538626, -912285.3, 17572.557, 0.00000000071752804, 9.976023, 9.966406 
8.7999177e+2, 2.1508388e+2, -819969.5, -918737.06, 28750.695, 0.010614889, 0.16627385, -812209.94, 19983.936, 0.00000000006547386, 9.976669, 9.965048 
8.7919706e+2, 2.2504883e+2, -721211.2, -825083.25, 37548.73, -0.010037607, 0.16677868, -709059.3, 25477.914, 0.0000000000751049, 9.976962, 9.964585 
8.784021e+2, 2.3501231e+2, -629680.4, -746629.94, 38260.742, -0.044642054, 0.14954469, -618275.4, 18619.334, 0.0000000014740116, 9.977145, 9.962998 
8.7760586e+2, 2.449745e+2, -537460.56, -671477.1, 37927.992, -0.06715452, 0.14324445, -527471.1, 11794.265, 0.000000022289091, 9.977407, 9.961155 
8.768075e+2, 2.549346e+2, -445441.25, -594314.1, 34383.813, -0.0794062, 0.14926593, -437883.6, 3773.0283, 0.00000024496487, 9.977689, 9.9593 
8.760075e+2, 2.648937e+2, -351790.84, -509057.28, 35177.41, -0.08591716, 0.15447679, -344280.97, -223.55571, 0.0000019576619, 9.977708, 9.958256 
8.752046e+2, 2.748507e+2, -269134.44, -436450.5, 26807.662, -0.08912707, 0.15741251, -264944.22, -18465.584, 0.000011400731, 9.97737, 9.956296 
8.7439954e+2, 2.848061e+2, -188056.48, -372412.56, 23519.777, -0.10984707, 0.16276681, -185103.19, -36187.273, 0.000048632028, 9.977235, 9.953865 
8.7359047e+2, 2.9475906e+2, -105227.62, -294663.38, 7063.731, -0.14276455, 0.1711703, -104964.586, -53588.08, 0.00015357247, 9.976698, 9.952465 
8.727781e+2, 3.047112e+2, -38399.844, -208228.69, -4935.9053, -0.20774378, 0.1730353, -38256.508, -38256.508, 0.00036699965, 9.974207, 9.952846 
8.7196356e+2, 3.146652e+2, -43633.117, -161205.89, -16659.684, -0.2375872, 0.12871169, -41318.08, -41318.08, 0.00068988913, 9.969406, 9.954794 
8.7115395e+2, 3.2462257e+2, -44947.99, -22456.457, 18911.703, -0.08345834, 0.16676146, -11699.501, -11699.501, 0.001073521, 9.964049, 9.966926 
8.963248e+2, 1.3613363e+2, -1589518.9, -1630484.9, 14739.539, 0.29351792, 0.2440511, -1584766.9, 21143.012, 0.00000034527207, 9.975735, 9.970452 
8.9552665e+2, 1.4610426e+2, -1474614.5, -1508211.8, 2470.2644, 0.0416278, 0.17942567, -1474433.9, 33763.285, 0.00000022408217, 9.975884, 9.971865 
8.947327e+2, 1.5607588e+2, -1397459.1, -1429956.5, 26224.771, 0.14793812, 0.17917354, -1382857.3, 27617.328, 0.00000012080618, 9.974843, 9.971346 
8.9393955e+2, 1.6604652e+2, -1308829.6, -1353835.0, 19666.72, 0.1555658, 0.18660116, -1301446.8, 11315.736, 0.000000051297388, 9.974811, 9.969723 
8.931446e+2, 1.7601587e+2, -1203918.6, -1261611.8, 27222.695, 0.06910039, 0.1944532, -1193101.6, 21961.531, 0.00000001643881, 9.975587, 9.969129 
8.923507e+2, 1.8598513e+2, -1105515.1, -1162714.1, 23429.242, 0.046313986, 0.19571616, -1097143.5, 20220.697, 0.000000003877973, 9.975432, 9.969149 
8.915567e+2, 1.9595367e+2, -1023090.0, -1083984.4, 32574.584, 0.0745303, 0.1930246, -1008948.7, 10723.614, 0.00000000066676814, 9.974816, 9.968177 
8.907631e+2, 2.0592152e+2, -918409.75, -988761.1, 36484.984, 0.054843474, 0.1789911, -902905.25, 19081.813, 0.00000000008333369, 9.975471, 9.967591 
8.8996875e+2, 2.1588822e+2, -805308.44, -896542.8, 40865.99, 0.0046317023, 0.16123725, -789680.56, 34632.344, 0.000000000010516922, 9.976962, 9.966402 
8.89174e+2, 2.2585435e+2, -712302.3, -809749.94, 41792.766, -0.024391893, 0.16718566, -696833.9, 29810.834, 0.000000000098867345, 9.976848, 9.96561 
8.8837844e+2, 2.3581934e+2, -638566.7, -737063.2, 41683.445, -0.04229402, 0.18232055, -623294.4, 5693.664, 0.0000000020481026, 9.975663, 9.964326 
8.8758206e+2, 2.4578355e+2, -547756.56, -648448.94, 47927.816, -0.056396034, 0.18550096, -528591.5, 2747.403, 0.0000000309748, 9.975259, 9.963729 
8.86784e+2, 2.5574616e+2, -455593.94, -570465.75, 50248.96, -0.06698884, 0.18229406, -436715.75, -3010.435, 0.0000003404844, 9.975445, 9.961865 
8.8598436e+2, 2.6570758e+2, -351265.88, -482972.88, 59334.31, -0.083039165, 0.18166587, -328478.28, 7605.169, 0.0000027257568, 9.976273, 9.960548 
8.8518196e+2, 2.756669e+2, -243015.14, -399270.44, 54897.813, -0.097720586, 0.18564144, -225656.14, 12826.031, 0.000015971164, 9.9776125, 9.958423 
8.843764e+2, 2.8562433e+2, -166721.63, -336484.72, 55562.79, -0.11830541, 0.19188198, -150153.19, -9254.109, 0.000069086105, 9.976905, 9.955925 
8.835661e+2, 2.9557878e+2, -110353.516, -284684.16, 58922.69, -0.16248554, 0.19625096, -92306.305, -48961.145, 0.00022324533, 9.974955, 9.953258 
8.8275206e+2, 3.0553105e+2, -30277.738, -200452.2, 48825.61, -0.20497122, 0.17986864, -17264.117, -17264.117, 0.0005485991, 9.973489, 9.952557 
8.8193476e+2, 3.1548306e+2, -13269.9, -165589.73, 26231.373, -0.1649957, 0.10529273, -8879.102, -8879.102, 0.0010574318, 9.971567, 9.952237 
8.811185e+2, 3.2543966e+2, 16648.193, 28717.846, 18946.316, -0.16423562, 0.16950051, 42567.234, 42567.234, 0.001674894, 9.966695, 9.968321 
9.06301e+2, 1.3693166e+2, -1562097.1, -1613795.9, 7156.814, 0.25023603, 0.23655416, -1561124.8, 36965.465, 0.000000029867618, 9.977347, 9.97072 
9.0550244e+2, 1.469029e+2, -1473910.6, -1502012.1, -233.07048, 0.058847867, 0.190804, -1473908.6, 26463.457, 0.000000019382966, 9.975694, 9.972393 
9.0470815e+2, 1.5687531e+2, -1371184.8, -1411088.0, 18647.227, 0.13967521, 0.2033294, -1363827.4, 38814.79, 0.000000010447276, 9.976382, 9.972019 
9.039147e+2, 1.6684662e+2, -1288303.9, -1335798.4, 14311.431, 0.14263394, 0.20796415, -1284324.9, 20598.305, 0.000000004434464, 9.97588, 9.970537 
9.031199e+2, 1.7681679e+2, -1204064.0, -1252491.0, 27490.932, 0.060106996, 0.21294409, -1191643.6, 15572.395, 0.0000000014203173, 9.975212, 9.969946 
9.0232617e+2, 1.8678695e+2, -1096071.4, -1147795.5, 22963.508, 0.053604618, 0.21957281, -1087347.8, 22160.7, 0.00000000033482794, 9.975644, 9.9700575 
9.0153235e+2, 1.967566e+2, -991724.0, -1056272.3, 31129.719, 0.10980461, 0.22414246, -979157.56, 32647.955, 0.000000000057520166, 9.976438, 9.9693165 
9.007391e+2, 2.067255e+2, -901557.0, -967881.56, 36694.71, 0.0787819, 0.20185573, -885259.8, 28850.092, 0.0000000000071813653, 9.976165, 9.968776 
8.999454e+2, 2.1669334e+2, -814477.4, -886129.06, 39371.71, -0.0075566936, 0.16169333, -797071.44, 19352.842, 0.00000000000428494, 9.975773, 9.967802 
8.9915043e+2, 2.266608e+2, -719643.2, -801307.1, 35340.977, -0.03667824, 0.17682631, -706473.0, 12270.628, 0.00000000010849106, 9.975776, 9.96673 
8.983541e+2, 2.3662739e+2, -625951.06, -713001.6, 37210.62, -0.032009277, 0.2213076, -612213.1, 8858.686, 0.000000002258234, 9.975703, 9.965936 
8.975576e+2, 2.4659407e+2, -521936.1, -601614.1, 46953.715, -0.03627812, 0.23353674, -500197.53, 23200.748, 0.000000034158017, 9.975596, 9.966813 
8.967597e+2, 2.5655997e+2, -431781.97, -522520.56, 47999.6, -0.046943102, 0.22477128, -411103.28, 14629.134, 0.00000037566133, 9.975565, 9.965165 
8.9596057e+2, 2.6652429e+2, -332202.2, -440297.88, 62571.797, -0.09560624, 0.21654125, -303567.5, 24514.186, 0.00000301649, 9.976283, 9.963606 
8.9515907e+2, 2.7648664e+2, -224333.34, -356472.06, 55865.87, -0.15656173, 0.21157694, -203880.13, 26570.486, 0.000017853601, 9.977594, 9.961411 
8.9435303e+2, 2.8644747e+2, -133473.8, -267826.38, 43728.293, -0.15016463, 0.20187293, -120495.125, 12338.921, 0.000079075995, 9.976876, 9.96044 
8.935412e+2, 2.9640576e+2, -86569.18, -234454.83, 57119.848, -0.13380228, 0.18470936, -67076.37, -31833.773, 0.00026623905, 9.974817, 9.956724 
8.92726e+2, 3.063619e+2, -20334.756, -169274.25, 47305.0, -0.11048413, 0.16527286, -6580.3228, -6580.3228, 0.00069019, 9.972794, 9.9548435 
8.919078e+2, 3.1631315e+2, -36935.84, -210517.83, 27126.744, 0.016151475, 0.10225289, -32795.336, -32795.336, 0.0014013384, 9.971156, 9.948964 
8.9108324e+2, 3.2626233e+2, -38684.336, -81116.47, -14117.017, -0.31693035, 0.19446242, -34416.848, -34416.848, 0.0023083058, 9.965924, 9.960541 
9.162772e+2, 1.3772957e+2, -1583423.3, -1616889.8, -5662.1875, 0.22324517, 0.19408858, -1582491.3, 7779.8594, 0.000000001903787, 9.9752655, 9.971341 
9.154784e+2, 1.4770143e+2, -1487449.9, -1510807.1, 4930.3926, 0.122164324, 0.19326885, -1486451.8, 6096.286, 0.0000000012354053, 9.9749155, 9.972181 
9.1468406e+2, 1.5767404e+2, -1379666.4, -1413548.4, 22152.701, 0.12098513, 0.24519856, -1368719.4, 26097.281, 0.00000000066574474, 9.975746, 9.972161 
9.1389024e+2, 1.6764624e+2, -1285998.8, -1316610.6, 12129.956, 0.1399583, 0.23747002, -1281775.0, 15313.99, 0.0000000002824927, 9.975155, 9.972129 
9.1309524e+2, 1.7761774e+2, -1205278.3, -1236757.6, 28594.39, 0.11229863, 0.21259965, -1188377.9, 10990.127, 0.00000000009044054, 9.974378, 9.9713745 
9.1230184e+2, 1.8758862e+2, -1099609.8, -1144549.3, 30674.473, 0.07430074, 0.21153565, -1084055.6, 17597.746, 0.000000000021308946, 9.975274, 9.970491 
9.1150874e+2, 1.9755886e+2, -984446.7, -1045846.1, 35287.883, 0.06479562, 0.21891803, -968373.5, 35571.45, 0.000000000003658245, 9.97666, 9.969942 
9.107146e+2, 2.0752871e+2, -906412.4, -963328.56, 29953.023, 0.040605977, 0.23230475, -893554.06, 12686.671, 0.00000000000045636807, 9.975356, 9.969422 
9.099195e+2, 2.1749787e+2, -842281.3, -887180.9, 33735.645, -0.008145044, 0.23774484, -824208.44, -15665.204, 0.0000000000030655227, 9.973206, 9.968976 
9.091249e+2, 2.2746667e+2, -737426.56, -787487.3, 39884.082, -0.03292361, 0.22338574, -715369.2, -4520.7744, 0.0000000000903565, 9.973647, 9.968771 
9.083294e+2, 2.3743491e+2, -621688.9, -687195.4, 43039.137, -0.039448563, 0.2138768, -600357.56, 12801.8545, 0.0000000018811002, 9.974976, 9.968043 
9.075328e+2, 2.4740313e+2, -521669.9, -587921.1, 45806.26, -0.04578078, 0.22473273, -498266.6, 17204.164, 0.000000028451819, 9.974933, 9.96812 
9.067346e+2, 2.57371e+2, -434269.75, -500670.0, 39511.19, -0.054630015, 0.2348797, -415861.9, 1923.8374, 0.00000031314025, 9.974269, 9.967491 
9.0593517e+2, 2.673382e+2, -356166.97, -416390.97, 53197.848, -0.09184441, 0.22252302, -325150.06, -5043.191, 0.0000025239594, 9.972921, 9.96713 
9.051333e+2, 2.7730447e+2, -288772.66, -341287.63, 51630.67, -0.14770795, 0.20585741, -257106.22, -34669.07, 0.000015124688, 9.970888, 9.965906 
9.0432805e+2, 2.8727043e+2, -147521.42, -218445.75, 52050.49, -0.14353116, 0.20881592, -120000.9, 4770.081, 0.00006901787, 9.973127, 9.965899 
9.035152e+2, 2.972354e+2, -45525.77, -132157.38, 62826.54, -0.111266494, 0.21306688, -12530.154, 14583.578, 0.00024569064, 9.97319, 9.964295 
9.262526e+2, 1.3852777e+2, -1571372.9, -1604803.0, -483.9144, 0.22618455, 0.21279122, -1571365.9, 11084.894, 0.00000000008526822, 9.975995, 9.9719305 
9.2545426e+2, 1.4850049e+2, -1455059.8, -1488239.8, 5871.633, 0.12862524, 0.22905941, -1454051.4, 30667.758, 0.00000000005532455, 9.976818, 9.972771 
9.2465985e+2, 1.5847339e+2, -1372597.5, -1405488.9, 27030.475, 0.11554052, 0.26309398, -1357403.0, 29582.215, 0.000000000029806633, 9.9760275, 9.972453 
9.238658e+2, 1.6844594e+2, -1268082.9, -1301412.9, 10184.811, 0.14269394, 0.25485134, -1265217.0, 24036.87, 0.000000000012643394, 9.976084, 9.972716 
9.230706e+2, 1.7841826e+2, -1170469.5, -1210803.9, 20239.27, 0.13814877, 0.22640386, -1162064.9, 29459.846, 0.0000000000040459667, 9.976375, 9.972344 
9.222773e+2, 1.8838997e+2, -1089477.9, -1131207.1, 26401.77, 0.075707, 0.21855727, -1076691.6, 17110.352, 0.000000000000952743, 9.9756775, 9.971373 
9.214844e+2, 1.983611e+2, -1002129.4, -1045035.06, 31971.365, 0.021364808, 0.22162166, -985080.4, 11004.562, 0.00000000000016345195, 9.975079, 9.97083 
9.2068946e+2, 2.0833203e+2, -901953.2, -952599.94, 23604.016, 0.010182229, 0.265857, -892658.3, 5712.3525, 0.000000000000020373985, 9.975193, 9.9701805 
9.198932e+2, 2.1830253e+2, -803800.75, -853858.44, 32315.674, -0.002288529, 0.31295064, -787954.8, 12705.791, 0.0000000000018606304, 9.975177, 9.970224 
9.19099e+2, 2.2827269e+2, -703418.4, -747675.6, 43515.95, -0.029258812, 0.26225534, -676727.8, 26223.885, 0.000000000055557395, 9.975101, 9.970842 
9.183043e+2, 2.3824255e+2, -606742.0, -658348.5, 41668.375, -0.053513195, 0.18836509, -583534.44, 21710.875, 0.0000000011563022, 9.975167, 9.970011 
9.175076e+2, 2.4821188e+2, -518750.0, -579297.56, 40821.152, -0.067076266, 0.20004776, -498201.88, 9344.2, 0.000000017486771, 9.9748335, 9.968796 
9.167085e+2, 2.5818112e+2, -420182.97, -471324.3, 34256.95, -0.07472263, 0.23037198, -403005.56, 6842.323, 0.00000019261098, 9.974259, 9.969489 
9.159083e+2, 2.681511e+2, -329204.7, -363069.4, 44256.68, -0.06655686, 0.20666984, -298751.84, 13389.988, 0.000001557747, 9.97298, 9.970687 
9.15105e+2, 2.7812183e+2, -245861.02, -256685.23, 47436.668, -0.06899984, 0.17336248, -203528.72, 10899.476, 0.000009437413, 9.971113, 9.971575 
9.1430175e+2, 2.8809404e+2, -102916.71, -133452.56, 74787.76, -0.11664322, 0.22778548, -41854.313, 74846.23, 0.00004425717, 9.973899, 9.971642 
9.134884e+2, 2.9806814e+2, 19801.172, -9644.641, 50820.906, -0.18137214, 0.33172846, 57988.836, 76943.305, 0.00016661992, 9.974289, 9.971635 
9.362282e+2, 1.3932604e+2, -1579732.1, -1600597.5, 13205.934, 0.20621929, 0.28176993, -1573335.3, 1295.6016, 0.0000000000029415736, 9.975447, 9.972686 
9.3543047e+2, 1.4929968e+2, -1460528.5, -1477441.3, 1169.9287, 0.103295274, 0.2774877, -1460448.0, 16441.387, 0.0000000000019083366, 9.975839, 9.973975 
9.346358e+2, 1.5927286e+2, -1381597.3, -1408151.4, 23959.732, 0.1314615, 0.24662645, -1367481.9, 11670.068, 0.0000000000010279229, 9.975377, 9.9725895 
9.3384176e+2, 1.692449e+2, -1282322.9, -1320399.9, 9793.913, 0.1371556, 0.26466474, -1279951.5, 1474.7996, 0.0000000000004359048, 9.975753, 9.9716425 
9.3304676e+2, 1.792169e+2, -1172251.1, -1210726.5, 15268.821, 0.10011869, 0.2789114, -1166928.1, 16773.031, 0.0000000000001394446, 9.976277, 9.972458 
9.3225247e+2, 1.891897e+2, -1088924.6, -1113853.6, 15499.184, 0.05667204, 0.26760024, -1081499.8, 4467.828, 0.00000000000003282296, 9.974921, 9.972924 
9.3145853e+2, 1.9916227e+2, -1014149.56, -1032953.56, 26290.35, 0.03091502, 0.25597316, -995630.6, -7394.6694, 0.0000000000000056283993, 9.973539, 9.972436 
9.3066466e+2, 2.0913441e+2, -897858.75, -933238.3, 27045.143, 0.019637296, 0.26721522, -883231.9, 7277.2544, 0.00000000000000070118843, 9.9749565, 9.971705 
9.298697e+2, 2.1910615e+2, -774969.6, -826595.44, 32921.406, 0.0019207144, 0.28587797, -758948.06, 33838.188, 0.00000000000083497646, 9.976738, 9.971351 
9.290749e+2, 2.2907707e+2, -693259.0, -740866.0, 33156.367, -0.015631558, 0.2676951, -676246.44, 18824.1, 0.0000000000249549, 9.975761, 9.97102 
9.2827916e+2, 2.3904781e+2, -618772.1, -655739.94, 25237.035, -0.031861216, 0.23237865, -605974.06, -8617.706, 0.00000000051935445, 9.974084, 9.970875 
9.274818e+2, 2.490181e+2, -533073.75, -573293.0, 25913.35, -0.05773812, 0.23362757, -520382.44, -20734.877, 0.0000000078541085, 9.973496, 9.970034 
9.266822e+2, 2.5898868e+2, -429740.38, -457611.06, 18188.75, -0.08020307, 0.24911648, -420762.3, -18826.074, 0.00000008654337, 9.973067, 9.971148 
9.2588127e+2, 2.6896036e+2, -322481.44, -345315.6, 18501.676, -0.07702863, 0.24894083, -312157.75, -7944.3857, 0.0000007013428, 9.973181, 9.972114 
9.250773e+2, 2.7893326e+2, -204897.47, -214013.13, 3279.7598, -0.07250732, 0.22790812, -203840.08, 2638.5874, 0.0000042783217, 9.973567, 9.973965 
9.242757e+2, 2.8890738e+2, -110224.03, -119730.87, 10901.959, -0.107566305, 0.24779102, -103084.27, 5647.81, 0.00002042177, 9.973748, 9.974001 
9.2346454e+2, 2.9888317e+2, 55439.703, 13016.856, -49241.625, -0.22667922, 0.23611775, 87844.16, 98813.38, 0.00007993033, 9.978631, 9.973172 
9.4620484e+2, 1.4012168e+2, -1558227.4, -1582702.3, 12797.571, 0.25921506, 0.2600823, -1552757.9, 14078.302, 0.0, 9.976721, 9.973527 
9.454062e+2, 1.5009728e+2, -1442871.8, -1459146.5, -10076.245, 0.06427755, 0.3415266, -1438057.4, 31018.191, 0.0, 9.976581, 9.975078 
9.4461167e+2, 1.6007093e+2, -1364346.4, -1393244.8, 12809.563, 0.14853156, 0.25808546, -1359485.9, 11847.33, 0.0, 9.976253, 9.973378 
9.4381756e+2, 1.7004359e+2, -1277064.0, -1313144.9, 13171.02, 0.13933735, 0.28324124, -1272767.6, 833.88556, 0.0, 9.975941, 9.97203 
9.430226e+2, 1.8001613e+2, -1173077.1, -1203254.6, 25387.232, 0.07679048, 0.31716946, -1158633.1, 17238.14, 0.0, 9.9758625, 9.97291 
9.422275e+2, 1.8998964e+2, -1070412.1, -1094020.9, 18054.973, 0.047774557, 0.3114782, -1060645.0, 17485.68, 0.0, 9.975637, 9.97374 
9.414328e+2, 1.999632e+2, -979750.6, -1002856.94, 27273.637, 0.045539033, 0.29412055, -961684.1, 18705.406, 0.0, 9.975329, 9.973597 
9.406399e+2, 2.0993622e+2, -883894.6, -911401.25, 30387.203, 0.029645907, 0.26895642, -864293.25, 18359.883, 0.0, 9.975418, 9.973091 
9.398462e+2, 2.1990897e+2, -785394.94, -823115.94, 28819.797, 0.0040622572, 0.25256142, -769812.75, 15106.804, 0.00000000000028468902, 9.975717, 9.972184 
9.390507e+2, 2.2988047e+2, -701072.2, -746333.2, 25682.156, -0.0007860294, 0.27977616, -689472.4, -2273.3223, 0.000000000008157955, 9.975229, 9.970878 
9.382536e+2, 2.3985179e+2, -609879.7, -645361.44, 21936.658, -0.0028591047, 0.30060592, -599407.9, -9927.558, 0.00000000016979894, 9.974405, 9.971351 
9.3745553e+2, 2.4982288e+2, -515008.28, -550214.25, 25317.693, -0.040762145, 0.28570712, -501775.4, -10011.488, 0.0000000025679472, 9.974157, 9.971252 
9.366553e+2, 2.5979456e+2, -414400.28, -439847.84, 16693.115, -0.08397068, 0.28153864, -406134.66, -12092.549, 0.000000028296595, 9.973733, 9.972013 
9.358541e+2, 2.6976687e+2, -320750.25, -348816.72, 19701.004, -0.12623635, 0.34161064, -310595.44, -14282.482, 0.00000022950282, 9.973591, 9.971696 
9.3505013e+2, 2.7973926e+2, -217780.23, -241330.22, 3359.9746, -0.1572899, 0.35601267, -217310.23, -18727.082, 0.0000014045202, 9.973713, 9.972028 
9.342497e+2, 2.8970894e+2, -133262.94, -167246.66, 8699.963, -0.09035335, 0.22085789, -131165.2, -30285.91, 0.000006759484, 9.97381, 9.970774 
9.3344367e+2, 2.9967993e+2, 40185.02, -12902.021, -6549.7188, -0.17655057, 0.16839881, 40981.164, 44144.5, 0.000026932837, 9.978843, 9.972217 
9.5618117e+2, 1.409162e+2, -1564232.3, -1578981.1, 12992.612, 0.25147536, 0.27992165, -1556667.1, 2385.7024, 0.0, 9.976156, 9.974113 
9.553821e+2, 1.5089302e+2, -1448608.4, -1455538.0, -14843.092, 0.015959023, 0.41999254, -1436831.1, 24449.229, 0.0, 9.976009, 9.975663 
9.54588e+2, 1.6086718e+2, -1359336.9, -1372164.8, 5535.871, 0.16881475, 0.30161747, -1357278.3, 6254.84, 0.0, 9.975902, 9.97502 
9.537936e+2, 1.7084205e+2, -1264190.0, -1275816.8, 7486.6563, 0.16041629, 0.30292282, -1260524.6, 5254.16, 0.0, 9.975595, 9.9747715 
9.529984e+2, 1.8081668e+2, -1173846.4, -1192661.6, 21797.46, 0.09041437, 0.31859872, -1159513.1, 8514.263, 0.0, 9.97549, 9.973809 
9.5220345e+2, 1.9079007e+2, -1075610.0, -1104075.5, 14595.301, 0.05840051, 0.3384772, -1069456.6, 831.91644, 0.0, 9.975803, 9.97301 
9.5140886e+2, 2.0076331e+2, -973825.3, -1003331.25, 18880.588, 0.053755354, 0.3468901, -964617.4, 7933.543, 0.0, 9.976048, 9.973276 
9.506152e+2, 2.1073616e+2, -889742.7, -914458.8, 16618.035, 0.031097583, 0.3165608, -881391.3, -6575.1787, 0.0, 9.97517, 9.973112 
9.498209e+2, 2.2070909e+2, -803801.9, -823904.44, 12852.966, -0.002231617, 0.28895888, -797536.7, -20456.0, 0.000000000000067652664, 9.974312, 9.972996 
9.490253e+2, 2.3068164e+2, -704759.2, -734530.4, 13451.947, -0.017092898, 0.30561355, -699581.44, -20231.65, 0.0000000000019384904, 9.974666, 9.972106 
9.482283e+2, 2.4065405e+2, -596692.25, -629855.8, 12461.725, -0.023301864, 0.32591024, -592531.56, -10911.08, 0.000000000040347756, 9.975245, 9.97209 
9.4743085e+2, 2.5062567e+2, -490485.13, -534364.44, 13198.091, -0.037261028, 0.3217089, -486821.3, -2922.0588, 0.0000000006101943, 9.976072, 9.971541 
9.466309e+2, 2.6059753e+2, -379213.8, -424175.16, -3171.2485, -0.063371435, 0.31912613, -378991.25, 7184.0596, 0.000000006724211, 9.976655, 9.971858 
9.4582903e+2, 2.7056915e+2, -293010.9, -341416.94, -3892.1387, -0.13194889, 0.35557774, -292699.94, -4246.63, 0.000000054552586, 9.976283, 9.971112 
9.450251e+2, 2.8054038e+2, -194234.73, -247526.27, -16770.334, -0.18353286, 0.3594133, -189396.53, 1338.4384, 0.0000003341785, 9.97678, 9.970346 
9.442265e+2, 2.9050758e+2, -89814.36, -174778.23, -3517.301, -0.032605182, 0.21038415, -89669.0, 3386.3818, 0.0000016125001, 9.978868, 9.967846 
9.4342333e+2, 3.0047774e+2, 54305.47, 152.45409, 5512.636, -0.18814835, 0.38551047, 54860.94, 54860.94, 0.0000064614287, 9.980272, 9.972745 
9.661569e+2, 1.4171386e+2, -1542057.8, -1554356.9, 12402.341, 0.17488377, 0.34000292, -1534364.0, 16874.129, 0.0, 9.976604, 9.97497 
9.653582e+2, 1.5168983e+2, -1448471.0, -1455647.8, 6678.3066, 0.039212197, 0.4121135, -1444478.0, 8995.58, 0.0, 9.976027, 9.975291 
9.645642e+2, 1.6166423e+2, -1343474.5, -1355448.6, 18160.674, 0.1720726, 0.32315508, -1330339.5, 25384.89, 0.0, 9.976567, 9.975542 
9.637694e+2, 1.7164014e+2, -1245739.3, -1250494.4, 8896.251, 0.15848207, 0.32040536, -1238908.4, 19051.422, 0.0, 9.976121, 9.976192 
9.62974e+2, 1.8161587e+2, -1165108.6, -1183632.3, 16818.66, 0.088539, 0.3245653, -1155170.3, 5026.7686, 0.0, 9.975886, 9.974341 
9.6217936e+2, 1.9158928e+2, -1074028.6, -1106122.5, 16389.717, 0.06444101, 0.3515889, -1067138.1, -4679.9063, 0.0, 9.976063, 9.972766 
9.613851e+2, 2.0156242e+2, -970798.0, -1003109.0, 23164.197, 0.061499458, 0.37334657, -958712.06, 6009.8823, 0.0, 9.976294, 9.973056 
9.6059066e+2, 2.1153511e+2, -875257.3, -908515.9, 21306.174, 0.028784467, 0.35099512, -864859.06, 2129.705, 0.0, 9.976152, 9.972855 
9.597954e+2, 2.2150807e+2, -776446.0, -802214.5, 20299.262, -0.013355441, 0.32507637, -765287.3, 3965.7668, 0.0000000000000117120025, 9.975823, 9.973569 
9.5899993e+2, 2.3148145e+2, -680968.06, -709000.6, 19520.197, -0.042026184, 0.3243698, -670953.25, 560.741, 0.0000000000003355644, 9.975741, 9.973255 
9.582034e+2, 2.4145469e+2, -585936.9, -619810.75, 16740.283, -0.05509356, 0.3324285, -579060.0, -5283.756, 0.0000000000069838328, 9.975855, 9.972462 
9.5740706e+2, 2.5142646e+2, -489665.38, -535491.56, 18362.443, -0.03377269, 0.3499547, -483215.4, -7161.9453, 0.00000000010561558, 9.97629, 9.971341 
9.5660794e+2, 2.6139787e+2, -385393.6, -436201.63, -1136.0624, -0.028054954, 0.3501571, -385368.2, -7034.104, 0.0000000011640542, 9.976644, 9.970977 
9.558056e+2, 2.713676e+2, -297683.2, -353590.2, -3589.1064, -0.105683245, 0.29897735, -297453.72, -16823.281, 0.000000009444971, 9.976384, 9.970155 
9.550022e+2, 2.8133747e+2, -198931.95, -259002.72, -8901.009, -0.1551337, 0.26508465, -197640.8, -14715.078, 0.000000057857413, 9.976947, 9.969565 
9.542064e+2, 2.913062e+2, -92686.766, -183260.94, 7715.3667, 0.05591077, 0.313733, -92034.25, -6802.1646, 0.00000027926637, 9.979073, 9.96726 
9.534023e+2, 3.0127433e+2, 20957.523, -40982.563, -23436.834, -0.21360368, 0.3869362, 28825.975, 28825.975, 0.0000011202083, 9.978106, 9.970603 
9.761338e+2, 1.4251219e+2, -1551081.3, -1548284.3, -19021.889, 0.2678776, 0.32204244, -1530609.5, 12806.727, 0.0, 9.975166, 9.975964 
9.753349e+2, 1.5248747e+2, -1454624.3, -1464562.3, 3146.5908, 0.09760668, 0.35247323, -1453711.8, -8053.73, 0.0, 9.976075, 9.97482 
9.745406e+2, 1.6246216e+2, -1350165.9, -1364597.6, 9881.615, 0.14529292, 0.33705506, -1345146.0, 2760.0525, 0.0, 9.976531, 9.9749975 
9.7374517e+2, 1.724376e+2, -1252439.6, -1261198.1, -697.52856, 0.12204016, 0.35277808, -1252384.4, -2237.248, 0.0, 9.976153, 9.975523 
9.729496e+2, 1.8241304e+2, -1161844.6, -1175963.6, 6620.562, 0.05182256, 0.35540056, -1159225.9, -6838.2954, 0.0, 9.97607, 9.974887 
9.7215545e+2, 1.9238706e+2, -1065395.1, -1088285.1, 7872.401, 0.053744663, 0.33520615, -1062949.0, -8307.087, 0.0, 9.976313, 9.973963 
9.713617e+2, 2.0236099e+2, -961376.75, -987456.2, 17083.918, 0.07048515, 0.32538423, -952924.75, 3972.2502, 0.0, 9.976744, 9.973962 
9.705676e+2, 2.1233462e+2, -856138.94, -890954.6, 17459.37, 0.021894105, 0.3296983, -848891.94, 10263.141, 0.0, 9.977407, 9.973455 
9.697724e+2, 2.2230822e+2, -751340.8, -790223.3, 15442.955, -0.033173077, 0.33458465, -745953.7, 15460.087, 0.0000000000000014914695, 9.977834, 9.973378 
9.6897686e+2, 2.322812e+2, -659653.6, -702321.2, 10050.3, -0.04666491, 0.33930874, -657404.8, 6274.058, 0.000000000000042732568, 9.977648, 9.972821 
9.681802e+2, 2.4225414e+2, -566186.0, -608398.94, 3823.8735, -0.05298536, 0.34043446, -565842.4, 101.73328, 0.00000000000088938075, 9.977447, 9.972576 
9.6738356e+2, 2.5222602e+2, -479192.22, -527187.8, 6844.4336, -0.058871295, 0.34782094, -478235.22, -10015.348, 0.000000000013450299, 9.977215, 9.971538 
9.6658444e+2, 2.6219767e+2, -377709.9, -428716.22, -7722.4946, -0.0670423, 0.35883167, -376566.34, -6068.493, 0.0000000001482496, 9.977392, 9.971141 
9.6578306e+2, 2.7216792e+2, -267833.03, -337698.03, -1960.0615, -0.11480823, 0.35290402, -267778.06, 5011.387, 0.0000000012029147, 9.978789, 9.969922 
9.649808e+2, 2.821375e+2, -161802.58, -241783.55, 1391.4211, -0.14501074, 0.34119716, -161778.39, 13308.663, 0.0000000073681794, 9.979904, 9.969055 
9.6418524e+2, 2.9210618e+2, -99346.13, -181529.03, 21413.84, 0.03535647, 0.40544257, -94101.2, -16707.2, 0.000000035559857, 9.978685, 9.967198 
9.633792e+2, 3.0207214e+2, 27079.17, -54833.71, -30069.633, -0.31330022, 0.33833098, 36932.305, 36932.305, 0.00000014260962, 9.978842, 9.968563 
9.861073e+2, 1.4330965e+2, -1537568.3, -1529984.6, -7939.2134, 0.092858374, 0.47360405, -1524978.3, 10624.915, 0.0, 9.975943, 9.977228 
9.85312e+2, 1.5328422e+2, -1436323.0, -1448967.5, 4714.3604, 0.16007315, 0.34505713, -1434758.9, 3092.686, 0.0, 9.9770565, 9.975509 
9.845171e+2, 1.6325971e+2, -1336855.4, -1361866.1, 11849.964, 0.10654398, 0.38899732, -1332132.8, 7958.88, 0.0, 9.977577, 9.97459 
9.837215e+2, 1.7323472e+2, -1245361.5, -1264122.4, 2570.4788, 0.12065349, 0.4231852, -1245015.8, -2677.9917, 0.0, 9.976887, 9.974862 
9.8292595e+2, 1.8320988e+2, -1149811.3, -1163678.1, 12147.608, 0.06119229, 0.42136955, -1142757.6, 1823.6263, 0.0, 9.976635, 9.975354 
9.8213196e+2, 1.9318435e+2, -1048892.5, -1069357.3, 11878.657, 0.050320882, 0.36700264, -1043446.7, 3383.545, 0.0, 9.97701, 9.974871 
9.813386e+2, 2.0315887e+2, -948367.5, -974514.4, 18817.092, 0.06778757, 0.3346935, -938528.1, 10550.892, 0.0, 9.977413, 9.974542 
9.80545e+2, 2.1313316e+2, -850258.6, -882672.4, 15840.05, 0.01543031, 0.35383436, -843803.44, 7527.78, 0.0, 9.977644, 9.974001 
9.7975004e+2, 2.2310716e+2, -755911.44, -795759.94, 11092.984, -0.0449179, 0.37270832, -753031.5, 554.86365, 0.00000000000000014322901, 9.977684, 9.973143 
9.789545e+2, 2.3307961e+2, -666619.9, -712878.3, 9580.854, -0.045094155, 0.3804443, -664714.06, -8857.294, 0.0000000000000041040377, 9.977496, 9.972154 
9.7815764e+2, 2.430521e+2, -563249.2, -604132.1, 5951.1895, -0.050092634, 0.3690869, -562400.5, -4273.8975, 0.000000000000085429954, 9.977539, 9.972752 
9.773603e+2, 2.5302398e+2, -469937.2, -518780.8, 8682.233, -0.10748349, 0.34703037, -468439.78, -8037.7246, 0.000000000001292103, 9.977679, 9.971821 
9.765611e+2, 2.6299638e+2, -364767.5, -411772.25, -2000.7145, -0.14672585, 0.3727877, -364682.5, -2010.2129, 0.0000000000142405965, 9.9779, 9.972058 
9.757616e+2, 2.7296895e+2, -261152.55, -323021.75, 4593.696, -0.14576425, 0.4951231, -260813.33, 4127.596, 0.00000000011554544, 9.978857, 9.970931 
9.7496027e+2, 2.8293967e+2, -161541.77, -235950.25, 1835.0425, -0.17104045, 0.5257073, -161496.53, 5730.8965, 0.0000000007077114, 9.979573, 9.969591 
9.741617e+2, 2.9290703e+2, -99264.04, -167770.84, 15692.034, -0.14242265, 0.37221217, -95840.71, -26294.469, 0.000000003414842, 9.977884, 9.968445 
9.7335964e+2, 3.0287454e+2, 52281.86, -21888.469, -1966.0913, -0.2423577, 0.3256576, 52333.94, 52333.94, 0.000000013690085, 9.980118, 9.970365 
9.960848e+2, 1.4410365e+2, -1514086.1, -1498438.8, -403.72125, 0.18187222, 0.41663402, -1498428.4, 29395.1, 0.0, 9.976993, 9.978969 
9.9529e+2, 1.5407959e+2, -1425800.9, -1428532.3, 5336.936, 0.23358339, 0.27417466, -1421657.6, 8401.178, 0.0, 9.9772625, 9.97692 
9.944945e+2, 1.6405629e+2, -1336254.5, -1365765.5, 4703.771, 0.056899562, 0.38055846, -1335522.9, -3235.435, 0.0, 9.9778805, 9.974222 
9.936993e+2, 1.7403093e+2, -1244597.9, -1268586.4, -5422.5376, 0.17656937, 0.42931798, -1243429.1, -8892.079, 0.0, 9.977222, 9.9744425 
9.9290407e+2, 1.8400599e+2, -1143196.6, -1156511.8, 7374.9375, 0.1719731, 0.42493048, -1139918.8, -3137.1106, 0.0, 9.977076, 9.9756975 
9.9210966e+2, 1.9398107e+2, -1041099.2, -1061916.1, 7444.651, 0.0773445, 0.39458236, -1038710.8, 314.40994, 0.0, 9.977572, 9.975199 
9.913162e+2, 2.0395587e+2, -946690.4, -981185.0, 11625.265, 0.03986659, 0.3979327, -943138.25, -1866.6947, 0.0, 9.978028, 9.973903 
9.905232e+2, 2.1392946e+2, -851563.5, -891237.06, 4501.9478, 0.045833692, 0.42007202, -851059.06, -7528.499, 0.0, 9.978059, 9.9733715 
9.8972857e+2, 2.239035e+2, -747857.75, -780292.06, -1847.9138, 0.029483749, 0.42190564, -747752.8, -1967.8563, 0.000000000000000010837507, 9.977873, 9.974253 
9.889325e+2, 2.3387724e+2, -657020.06, -693604.8, 2988.0806, -0.0022463677, 0.42791495, -656777.6, -8735.38, 0.00000000000000031058006, 9.977679, 9.973432 
9.8813593e+2, 2.4385096e+2, -549984.4, -587361.06, 7694.9507, -0.016974756, 0.43392658, -548462.1, 1837.4639, 0.0000000000000064639003, 9.97823, 9.973554 
9.873401e+2, 2.5382352e+2, -437642.75, -492377.44, 13539.981, -0.015095717, 0.40147397, -434476.47, 18091.865, 0.000000000000097753626, 9.979645, 9.972606 
9.865417e+2, 2.637955e+2, -334768.84, -396864.2, -2108.2424, -0.017160824, 0.35488442, -334697.34, 20145.39, 0.0000000000010773522, 9.980057, 9.971953 
9.8574144e+2, 2.7376643e+2, -266773.47, -322378.97, -2738.4302, -0.027938452, 0.3073261, -266638.94, -9511.784, 0.000000000008741193, 9.978394, 9.971243 
9.849395e+2, 2.8373706e+2, -185241.23, -237077.39, -8624.994, -0.09514747, 0.26913744, -183843.8, -24429.654, 0.00000000005353408, 9.977457, 9.970699 
9.841394e+2, 2.9370677e+2, -104567.414, -163673.7, 1924.9204, -0.100806005, 0.24812236, -104504.8, -42794.93, 0.00000000025827646, 9.977084, 9.969194 
9.8334026e+2, 3.0367675e+2, 6384.5405, -37793.41, 5809.5576, -0.055429865, 0.3913473, 7135.744, 7135.744, 0.0000000010352618, 9.977154, 9.971196 
1.0060618e+3, 1.4490166e+2, -1515101.9, -1528522.5, 2478.5847, 0.17616713, 0.3815306, -1514658.8, 5345.0576, 0.0, 9.97766, 9.975794 
1.0052654e+3, 1.5487763e+2, -1446403.4, -1459412.8, 3385.368, 0.10721944, 0.5027006, -1445575.1, -23334.936, 0.0, 9.976822, 9.975064 
1.0044716e+3, 1.6485307e+2, -1335567.5, -1342924.3, -674.1263, 0.05593938, 0.47438073, -1335506.3, -11024.928, 0.0, 9.977105, 9.976256 
1.003676e+3, 1.7482883e+2, -1211028.4, -1228743.8, 9851.265, 0.09862707, 0.42248952, -1206638.1, 20080.973, 0.0, 9.978674, 9.976079 
1.0028807e+3, 1.8480392e+2, -1122110.0, -1161291.3, 21888.617, 0.07335686, 0.43573776, -1112325.5, 16637.877, 0.0, 9.979441, 9.973844 
1.0020874e+3, 1.947779e+2, -1024814.0, -1063962.9, 1895.6106, 0.06192069, 0.45012602, -1024722.44, 6495.8647, 0.0, 9.979423, 9.9741745 
1.0012944e+3, 2.0475274e+2, -924173.75, -958576.3, 6202.658, 0.049524695, 0.45132568, -923089.6, 10375.273, 0.0, 9.979395, 9.974738 
1.00050114e+3, 2.1472692e+2, -834491.75, -872432.44, 20118.924, 0.03415208, 0.4683819, -825809.9, 9908.079, 0.0, 9.979106, 9.973654 
9.997057e+2, 2.247008e+2, -739254.7, -762286.75, 13479.7, -0.029000305, 0.4255672, -733041.6, 4932.3335, 0.0000000000000000006820092, 9.978148, 9.9747715 
9.989088e+2, 2.3467493e+2, -661676.0, -680101.0, 9263.58, -0.102398224, 0.3994116, -657823.9, -17597.174, 0.00000000000000001954189, 9.976968, 9.974376 
9.98113e+2, 2.4464923e+2, -557557.8, -584961.44, 7170.2896, -0.11421454, 0.41207558, -555795.06, -13316.853, 0.00000000000000040645458, 9.977851, 9.973951 
9.973193e+2, 2.5462365e+2, -437377.47, -482030.03, 2174.3074, -0.04382495, 0.48187298, -437271.84, 7456.9985, 0.0000000000000061445223, 9.979545, 9.973646 
9.9652034e+2, 2.645961e+2, -336977.2, -393219.8, 2733.2075, -0.124986656, 0.41365498, -336844.66, 10153.639, 0.00000000000006771698, 9.97968, 9.972114 
9.9571884e+2, 2.7456725e+2, -254197.28, -320260.13, 29451.324, -0.1114577, 0.4489611, -242974.27, 6305.764, 0.0000000000005493915, 9.979323, 9.970049 
9.9491733e+2, 2.8453732e+2, -150185.98, -214133.8, 1658.8137, -0.04863168, 0.4110363, -150142.98, 1430.0073, 0.0000000000033642223, 9.979715, 9.97095 
9.9411654e+2, 2.945081e+2, -21673.088, -127502.734, -18419.467, -0.1241384, 0.48004353, -18558.854, 35300.13, 0.000000000016230134, 9.983078, 9.969073 
9.9331594e+2, 3.0447468e+2, 43015.535, -47322.43, -2879.618, -0.18040736, 0.3793382, 43107.234, 43107.234, 0.00000000006506301, 9.980932, 9.969021 
