coord_x,coord_y,stress_xx,stress_yy,tau_xy,velocity_x,velocity_y,stress_1,eps,damage,lx,ly
4.9962482e+0, 1.2354599e+2, -1807366.4, -1731579.4, -2207.6016, -0.00015219353, -0.033331607, -1731515.1, -2268.6624, 0.0, 9.992499, 10.002532 
4.9968132e+0, 1.3354723e+2, -1703285.3, -1646860.4, -2285.001, 0.0006266302, -0.02331121, -1646768.0, -15533.6875, 0.0, 9.993614, 10.001083 
4.9973807e+0, 1.4354739e+2, -1601374.8, -1567166.3, -2155.6553, 0.0003768657, -0.028860498, -1567030.9, -33798.1, 0.0, 9.994753, 9.999281 
4.9979687e+0, 1.5354656e+2, -1486363.3, -1461705.0, -1821.836, -0.00025132264, -0.03478135, -1461571.1, -26330.205, 0.0, 9.995941, 9.999205 
4.998541e+0, 1.6354463e+2, -1387859.4, -1389304.8, -2015.3278, -0.0006004162, -0.035289694, -1386441.0, -49181.383, 0.0, 9.997093, 9.996901 
4.999091e+0, 1.7354155e+2, -1274309.5, -1284744.8, -2707.3472, -0.0005266382, -0.02670396, -1273648.9, -34358.89, 0.0, 9.998192, 9.996809 
4.999651e+0, 1.835372e+2, -1177719.5, -1215407.9, -2742.2688, -0.00017020514, -0.022104068, -1177521.0, -36188.41, 0.0, 9.999305, 9.994314 
5.000231e+0, 1.9353136e+2, -1063820.5, -1111111.9, -1876.8035, 0.0007710168, -0.027963184, -1063746.1, -20356.229, 0.0, 10.000447, 9.9941845 
5.000795e+0, 2.0352444e+2, -964760.44, -1037033.06, -1609.1108, 0.00083302724, -0.031388037, -964724.6, -19267.09, 0.0, 10.001574, 9.992005 
5.0013316e+0, 2.1351637e+2, -851121.4, -932301.1, -2233.387, -0.0005993081, -0.032888994, -851060.0, -3523.3599, 0.0, 10.002675, 9.991926 
5.001888e+0, 2.2350715e+2, -753586.06, -861313.1, -2576.1516, -0.0010994402, -0.03194421, -753524.5, -3897.622, 0.0, 10.003798, 9.989537 
5.0024784e+0, 2.334966e+2, -639418.8, -756732.75, -2714.5554, 0.000049147635, -0.030336069, -639356.0, 12374.222, 0.0, 10.004954, 9.989422 
5.0030506e+0, 2.434849e+2, -542233.0, -686753.0, -2645.691, 0.00060379005, -0.027718686, -542184.6, 11660.583, 0.0, 10.006088, 9.986958 
5.0035906e+0, 2.5347176e+2, -429175.9, -582857.8, -1963.6577, 0.00021215802, -0.026625318, -429150.8, 26823.213, 0.0, 10.007176, 9.986831 
5.0041497e+0, 2.6345754e+2, -329594.2, -507719.9, -1685.5098, -0.00013533785, -0.025997622, -329578.22, 28534.85, 0.0, 10.008301, 9.984722 
5.0047386e+0, 2.734422e+2, -214650.44, -402073.9, -2689.627, -0.00038063625, -0.03102033, -214611.84, 45651.742, 0.0, 10.009484, 9.98467 
5.0053144e+0, 2.834254e+2, -121924.08, -341784.78, -2969.0315, -0.00025385208, -0.032575753, -121883.99, 40544.418, 0.0, 10.0106325, 9.981534 
5.0058585e+0, 2.9340672e+2, -9608.685, -239016.88, -1513.372, 0.0005244149, -0.03223696, -9598.702, 55012.414, 0.0, 10.011705, 9.981339 
5.006427e+0, 3.0339143e+2, 103830.87, -82360.1, -1138.0652, 0.00057056156, -0.03032799, 103837.82, 103837.82, 0.0, 10.012842, 9.988167 
5.0070345e+0, 3.133798e+2, 123144.77, -70956.375, -3678.0027, -0.0007610947, -0.029619299, 123214.445, 123214.445, 0.0, 10.014083, 9.988353 
1.4988744e+1, 1.23544924e+2, -1807667.0, -1732192.6, 1850.1372, -0.0007052671, -0.028011568, -1732147.3, -2890.3943, 0.0, 9.992499, 10.00249 
1.499044e+1, 1.3354602e+2, -1703564.6, -1647439.1, 1946.8976, 0.0017950849, -0.028350184, -1647371.6, -16125.485, 0.0, 9.993614, 10.001044 
1.499214e+1, 1.4354616e+2, -1600897.1, -1566176.4, 2270.7517, 0.0010933133, -0.03512856, -1566028.5, -32783.754, 0.0, 9.994753, 9.999348 
1.4993906e+1, 1.5354556e+2, -1485771.8, -1460482.3, 2679.8118, -0.00075504, -0.026109599, -1460201.5, -24950.766, 0.0, 9.995941, 9.999289 
1.4995623e+1, 1.6354367e+2, -1388849.0, -1391339.9, 2166.7212, -0.0018496991, -0.023596853, -1387595.3, -50326.023, 0.0, 9.997093, 9.996762 
1.4997274e+1, 1.7354022e+2, -1275596.1, -1287390.9, 1454.6682, -0.0016150664, -0.032281123, -1275419.4, -36116.465, 0.0, 9.998192, 9.996629 
1.4998953e+1, 1.8353578e+2, -1176492.0, -1212858.9, 1536.0392, -0.0005110386, -0.03539591, -1176427.3, -35080.855, 0.0, 9.999304, 9.994488 
1.5000695e+1, 1.9353026e+2, -1062183.9, -1107713.5, 2449.6775, 0.002280067, -0.030828625, -1062052.5, -18651.867, 0.0, 10.000445, 9.994416 
1.5002386e+1, 2.0352352e+2, -965522.44, -1038577.25, 2560.8145, 0.0024711303, -0.027437385, -965432.8, -19966.092, 0.0, 10.001572, 9.9919 
1.5003996e+1, 2.1351527e+2, -852301.5, -934733.2, 1935.6198, -0.0018010075, -0.027790565, -852256.1, -4708.7036, 0.0, 10.002675, 9.99176 
1.5005665e+1, 2.2350594e+2, -753962.9, -862070.06, 1760.8154, -0.0033381865, -0.027614703, -753934.25, -4295.3696, 0.0, 10.003797, 9.989486 
1.5007433e+1, 2.3349534e+2, -639691.7, -757272.06, 1667.6217, 0.000091871414, -0.028268889, -639668.0, 12074.765, 0.0, 10.004953, 9.989387 
1.5009151e+1, 2.4348363e+2, -541127.25, -684422.75, 1497.6497, 0.0018134282, -0.029583924, -541111.6, 12745.978, 0.0, 10.006086, 9.987118 
1.5010771e+1, 2.534706e+2, -427831.1, -580041.9, 2156.4421, 0.0006313888, -0.03387124, -427800.53, 28184.465, 0.0, 10.0071745, 9.987024 
1.5012448e+1, 2.6345646e+2, -330993.44, -510596.78, 2732.9084, -0.00045539733, -0.033476908, -330951.84, 27171.924, 0.0, 10.0083, 9.984526 
1.5014215e+1, 2.7344093e+2, -216595.0, -406091.5, 1794.4543, -0.0011703988, -0.02710407, -216578.0, 43698.05, 0.0, 10.009483, 9.984396 
1.5015942e+1, 2.8342414e+2, -119805.516, -337332.03, 1147.1831, -0.00077218545, -0.02405014, -119799.47, 42641.32, 0.0, 10.010631, 9.98184 
1.5017575e+1, 2.9340583e+2, -6757.7324, -233055.81, 2539.1086, 0.0015817375, -0.029558085, -6729.2466, 57890.742, 0.0, 10.011704, 9.981749 
1.5019281e+1, 3.033905e+2, 100230.17, -89815.83, 3451.353, 0.0017158225, -0.03125805, 100292.836, 100292.836, 0.0, 10.012841, 9.987657 
1.5021104e+1, 3.133782e+2, 118239.39, -81067.04, 1035.4138, -0.0022814546, -0.028738312, 118244.77, 118244.77, 0.0, 10.014079, 9.987661 
2.4981205e+1, 1.2354264e+2, -1808851.9, -1732616.6, -2641.5369, -0.000051218853, -0.027870214, -1732525.3, -3245.8867, 0.0, 9.992411, 10.002504 
2.4984095e+1, 1.3354373e+2, -1702161.3, -1646600.5, -1984.5546, 0.0015314339, -0.028721856, -1646529.8, -15261.186, 0.0, 9.993702, 10.001058 
2.498695e+1, 1.4354387e+2, -1599179.0, -1565780.6, -2114.2935, 0.000023213017, -0.03518239, -1565647.3, -32380.107, 0.0, 9.994888, 9.999308 
2.498983e+1, 1.5354323e+2, -1486708.0, -1461466.1, -2738.3352, -0.00027907582, -0.025043942, -1461172.5, -25898.986, 0.0, 9.9959, 9.99924 
2.4992672e+1, 1.6354132e+2, -1390342.3, -1391824.8, -3127.5098, -0.00061015884, -0.022344708, -1387869.4, -50577.12, 0.0, 9.996981, 9.996783 
2.4995472e+1, 1.7353791e+2, -1275328.0, -1286884.4, -2224.4387, -0.00087460084, -0.032715656, -1274914.5, -35588.836, 0.0, 9.998194, 9.996662 
2.4998283e+1, 1.8353346e+2, -1175738.1, -1212551.0, -1917.8057, -0.00037338954, -0.03656005, -1175638.5, -34269.4, 0.0, 9.999357, 9.994482 
2.5001127e+1, 1.9352794e+2, -1062337.3, -1107914.1, -2822.6614, 0.0013279185, -0.03133561, -1062163.1, -18739.77, 0.0, 10.000441, 9.994405 
2.500394e+1, 2.0352118e+2, -965826.2, -1038803.4, -3357.0608, 0.0015500757, -0.027165646, -965672.06, -20182.564, 0.0, 10.0015545, 9.991893 
2.5006706e+1, 2.1351296e+2, -851605.5, -934452.06, -2806.8137, -0.0009380842, -0.026939064, -851510.56, -3940.3542, 0.0, 10.002725, 9.991755 
2.50095e+1, 2.2350362e+2, -753245.75, -861817.8, -2247.0532, -0.0017576502, -0.026859742, -753199.25, -3537.5386, 0.0, 10.00385, 9.989477 
2.501236e+1, 2.3349299e+2, -640585.5, -757817.25, -2159.6167, 0.00028242337, -0.028888261, -640545.7, 11220.169, 0.0, 10.004897, 9.989375 
2.5015193e+1, 2.4348126e+2, -542208.2, -684795.2, -2485.3738, 0.0013180621, -0.030522747, -542164.9, 11715.794, 0.0, 10.006005, 9.987131 
2.5017965e+1, 2.534683e+2, -427039.4, -579461.4, -3128.9512, 0.00033562677, -0.033606015, -426975.22, 29032.633, 0.0, 10.007221, 9.9870405 
2.502078e+1, 2.6345414e+2, -330116.78, -510308.6, -2869.211, -0.00028567802, -0.032854725, -330071.13, 28075.418, 0.0, 10.008365, 9.984514 
2.5023654e+1, 2.7343857e+2, -218254.92, -407083.8, -1957.8081, -0.00039743126, -0.028125646, -218234.63, 42064.504, 0.0, 10.009377, 9.984379 
2.5026515e+1, 2.8342175e+2, -121586.04, -338013.97, -2039.6804, -0.000010282287, -0.02523963, -121566.82, 40897.098, 0.0, 10.010501, 9.981855 
2.5029328e+1, 2.934035e+2, -4950.462, -231927.97, -3476.264, 0.0010210036, -0.028330052, -4897.234, 59745.46, 0.0, 10.011817, 9.9817705 
2.5032198e+1, 3.033882e+2, 102505.18, -88953.55, -2995.5676, 0.00096865784, -0.02923482, 102552.04, 102552.04, 0.0, 10.013006, 9.987636 
2.5035128e+1, 3.1337586e+2, 116062.69, -82431.4, -636.1067, -0.00080917473, -0.02941839, 116064.73, 116064.73, 0.0, 10.013941, 9.987634 
3.4973624e+1, 1.23539105e+2, -1808335.4, -1731569.3, 2040.508, 0.0002274912, -0.03324243, -1731515.1, -2201.2083, 0.0, 9.992411, 10.002575 
3.497778e+1, 1.3354038e+2, -1701673.8, -1645623.0, 2902.7, -0.0004995889, -0.024075804, -1645473.0, -14171.579, 0.0, 9.993703, 10.001122 
3.4981808e+1, 1.4354052e+2, -1600179.6, -1567844.1, 1836.2332, -0.0034453885, -0.029300822, -1567740.1, -34439.98, 0.0, 9.994888, 9.999167 
3.4985742e+1, 1.5353957e+2, -1487991.9, -1464101.3, 1090.2261, 0.00027796518, -0.031564314, -1464051.6, -28742.139, 0.0, 9.995899, 9.999062 
3.4989685e+1, 1.6353759e+2, -1389025.1, -1389129.5, 1337.6544, 0.002192769, -0.03162896, -1387738.8, -50410.02, 0.0, 9.996982, 9.996965 
3.499369e+1, 1.7353456e+2, -1273554.0, -1283264.5, 2376.9753, 0.0011260575, -0.02786698, -1273003.4, -33644.887, 0.0, 9.998195, 9.996907 
3.4997642e+1, 1.8353024e+2, -1177003.6, -1215184.5, 2225.758, -0.0004872567, -0.025751516, -1176874.4, -35473.688, 0.0, 9.999358, 9.994302 
3.5001528e+1, 1.9352439e+2, -1064149.8, -1111648.3, 1277.4672, -0.0028396153, -0.029365826, -1064115.4, -20657.156, 0.0, 10.000441, 9.99415 
3.5005456e+1, 2.0351747e+2, -965171.2, -1037438.94, 1008.55304, -0.0028934632, -0.030780206, -965157.1, -19631.162, 0.0, 10.001554, 9.991986 
3.5009453e+1, 2.135094e+2, -850530.6, -932215.7, 1622.1481, 0.0013203586, -0.0301773, -850498.44, -2893.3943, 0.0, 10.002724, 9.991907 
3.5013402e+1, 2.2350016e+2, -752998.5, -861285.3, 1753.11, 0.0028811796, -0.029741881, -752970.1, -3274.6213, 0.0, 10.003849, 9.989513 
3.5017258e+1, 2.3348954e+2, -640458.8, -757564.44, 1797.4866, -0.00012579134, -0.03207448, -640431.25, 11368.279, 0.0, 10.004897, 9.989391 
3.5021168e+1, 2.434778e+2, -543146.75, -686728.06, 1993.9752, -0.0019179076, -0.0307819, -543119.06, 10795.529, 0.0, 10.006004, 9.9869995 
3.5025173e+1, 2.5346476e+2, -428169.9, -581786.7, 1459.926, -0.0011788196, -0.025510205, -428156.03, 27886.516, 0.0, 10.00722, 9.986881 
3.5029152e+1, 2.634506e+2, -328881.56, -507721.97, 1053.9753, -0.00018305737, -0.024372524, -328875.34, 29306.023, 0.0, 10.008364, 9.984691 
3.503305e+1, 2.7343512e+2, -216576.95, -403582.34, 1851.3087, 0.0012940752, -0.034034226, -216558.63, 43774.21, 0.0, 10.009377, 9.984617 
3.5037032e+1, 2.8341827e+2, -123502.34, -341952.47, 2748.9192, 0.0012338975, -0.036355317, -123467.76, 39030.05, 0.0, 10.010498, 9.981586 
3.5041124e+1, 2.9339978e+2, -7541.59, -237260.25, 1503.5621, -0.0017196756, -0.02846422, -7531.749, 57147.48, 0.0, 10.011815, 9.981406 
3.5045174e+1, 3.033845e+2, 105776.61, -82060.87, 740.31555, -0.002181211, -0.024671556, 105779.53, 105779.53, 0.0, 10.013002, 9.98811 
3.5049108e+1, 3.133727e+2, 120485.79, -73192.695, 2836.0444, 0.0022751833, -0.031524774, 120527.31, 120527.31, 0.0, 10.01394, 9.988268 
4.4966114e+1, 1.23534486e+2, -1806120.1, -1730718.9, -2395.9224, 0.0004364054, -0.033715155, -1730642.9, -1283.6593, 0.0, 9.992571, 10.002554 
4.497144e+1, 1.3353574e+2, -1703331.1, -1646697.0, -2143.389, 0.00019492424, -0.02352717, -1646616.0, -15269.028, 0.0, 9.993601, 10.001099 
4.4976607e+1, 1.4353585e+2, -1602510.6, -1568650.8, -3141.8796, -0.0034031924, -0.029192587, -1568361.6, -35015.945, 0.0, 9.994716, 9.999196 
4.4981685e+1, 1.5353495e+2, -1486425.3, -1462923.1, -2287.8884, 0.0005750233, -0.032907084, -1462702.4, -27347.686, 0.0, 9.995988, 9.999097 
4.498676e+1, 1.6353297e+2, -1386501.4, -1388238.9, -1847.8359, 0.002604341, -0.033194784, -1385328.3, -47954.305, 0.0, 9.997167, 9.996935 
4.4991887e+1, 1.7352992e+2, -1273860.4, -1283893.9, -2962.2092, 0.0013031827, -0.027398556, -1273051.1, -33647.133, 0.0, 9.998194, 9.996863 
4.499696e+1, 1.8352559e+2, -1178321.5, -1215915.6, -3783.5032, -0.00024003952, -0.02430172, -1177944.5, -36498.133, 0.0, 9.999272, 9.994292 
4.500198e+1, 1.935197e+2, -1064005.1, -1111610.6, -2894.0283, -0.002440767, -0.02875709, -1063829.8, -20325.758, 0.0, 10.000451, 9.994145 
4.5007026e+1, 2.0351279e+2, -964608.1, -1037059.75, -2372.3362, -0.0023672439, -0.031056473, -964530.56, -18958.723, 0.0, 10.001587, 9.991994 
4.5012146e+1, 2.1350472e+2, -851469.25, -932537.44, -2808.3276, 0.0016537982, -0.031344213, -851372.06, -3721.1777, 0.0, 10.002653, 9.991918 
4.5017213e+1, 2.2349548e+2, -754185.9, -861845.06, -3359.9587, 0.0030859257, -0.030912839, -754081.1, -4339.834, 0.0, 10.003766, 9.989513 
4.5022187e+1, 2.3348488e+2, -639514.56, -757118.6, -3485.9644, -0.000045224522, -0.03172035, -639411.4, 12433.842, 0.0, 10.004962, 9.989389 
4.502722e+1, 2.4347314e+2, -541853.1, -686278.4, -2972.0933, -0.0015968868, -0.029783478, -541792.0, 12168.271, 0.0, 10.006101, 9.986982 
4.5032352e+1, 2.5346008e+2, -429568.84, -582676.25, -2479.6868, -0.0007002963, -0.025484215, -429528.7, 26559.842, 0.0, 10.007133, 9.986862 
4.503746e+1, 2.6344588e+2, -330481.28, -508307.4, -2727.5823, 0.00035191007, -0.02470724, -330439.44, 27787.992, 0.0, 10.008245, 9.984707 
4.5042488e+1, 2.7343044e+2, -214653.7, -402421.4, -3578.7693, 0.0014730723, -0.033400357, -214585.52, 45793.09, 0.0, 10.009498, 9.984637 
4.50476e+1, 2.8341362e+2, -121525.3, -341181.2, -2818.8386, 0.0011825582, -0.035691656, -121489.125, 41054.41, 0.0, 10.010641, 9.98157 
4.5052812e+1, 2.9339507e+2, -11195.518, -239300.63, -1598.4199, -0.0019005189, -0.029735096, -11184.317, 53541.05, 0.0, 10.011574, 9.981381 
4.505802e+1, 3.033798e+2, 101550.85, -83594.93, -1959.5209, -0.0019531151, -0.02648007, 101571.586, 101571.586, 0.0, 10.012691, 9.988153 
4.506315e+1, 3.1336808e+2, 123619.9, -71054.28, -4069.6392, 0.0034289316, -0.031139899, 123704.94, 123704.94, 0.0, 10.014129, 9.988322 
5.495868e+1, 1.2352875e+2, -1806868.4, -1732379.9, 1390.6725, -0.0019409766, -0.028890524, -1732354.0, -2938.5208, 0.0, 9.992576, 10.002439 
5.4965067e+1, 1.335298e+2, -1704214.1, -1648474.1, 1729.4276, 0.003092787, -0.02720353, -1648420.5, -17015.348, 0.0, 9.993599, 10.000978 
5.4971355e+1, 1.4352992e+2, -1601068.4, -1565680.6, 1526.9392, -0.000502873, -0.03470548, -1565614.9, -32210.998, 0.0, 9.994715, 9.999397 
5.497767e+1, 1.5352935e+2, -1484541.0, -1459123.0, 2563.0764, -0.00080960506, -0.029004678, -1458867.1, -23457.658, 0.0, 9.995991, 9.999353 
5.4983896e+1, 1.6352744e+2, -1388180.4, -1391812.0, 2135.987, -0.001209269, -0.026993847, -1387192.8, -49764.664, 0.0, 9.997172, 9.996689 
5.4990053e+1, 1.7352396e+2, -1276229.4, -1288783.3, 910.9224, -0.0013783079, -0.03131964, -1276163.6, -36701.336, 0.0, 9.998195, 9.996531 
5.499623e+1, 1.8351947e+2, -1177178.3, -1213558.6, 577.5585, -0.0008155533, -0.03213706, -1177169.1, -35662.727, 0.0, 9.999271, 9.994452 
5.5002475e+1, 1.935139e+2, -1062249.3, -1108011.5, 1574.1875, 0.0012304027, -0.029485619, -1062195.3, -18634.277, 0.0, 10.000452, 9.9943905 
5.500866e+1, 2.0350713e+2, -965087.2, -1038096.2, 1695.3336, 0.0015403725, -0.028018184, -965047.8, -19420.55, 0.0, 10.00159, 9.991921 
5.501478e+1, 2.134989e+2, -852368.0, -934413.2, 1210.8871, -0.0011001705, -0.030544393, -852350.1, -4642.2856, 0.0, 10.002654, 9.991789 
5.502093e+1, 2.234896e+2, -754431.2, -862351.94, 1067.0527, -0.0022564821, -0.03041903, -754420.6, -4621.495, 0.0, 10.003766, 9.989478 
5.5027145e+1, 2.33479e+2, -639657.8, -757403.6, 1034.2561, -0.00057572924, -0.02785114, -639648.75, 12254.204, 0.0, 10.004961, 9.98937 
5.503335e+1, 2.4346727e+2, -541132.8, -684779.1, 1000.175, 0.0005761642, -0.027613314, -541125.8, 12892.008, 0.0, 10.0061, 9.987084 
5.503951e+1, 2.534542e+2, -428695.7, -580888.5, 1400.1649, 0.0008407688, -0.03372779, -428682.8, 27463.018, 0.0, 10.007134, 9.986982 
5.5045706e+1, 2.6344004e+2, -331537.78, -510461.75, 1849.0682, 0.0004002265, -0.033881646, -331518.66, 26766.086, 0.0, 10.008244, 9.98456 
5.5051965e+1, 2.7342457e+2, -216052.05, -405292.25, 1158.1902, -0.0011359954, -0.026490534, -216044.97, 44391.496, 0.0, 10.009496, 9.984441 
5.505822e+1, 2.8340778e+2, -119890.99, -337763.03, 878.0042, -0.0016678892, -0.023579778, -119887.45, 42713.613, 0.0, 10.01064, 9.981803 
5.506441e+1, 2.9338938e+2, -8960.643, -234700.5, 1883.5204, -0.00026680544, -0.03205539, -8944.928, 55836.133, 0.0, 10.011577, 9.981694 
5.507074e+1, 3.0337408e+2, 98928.914, -89065.1, 3153.566, 0.00047189664, -0.034558877, 98981.805, 98981.805, 0.0, 10.012691, 9.987778 
5.507725e+1, 3.1336197e+2, 119972.02, -78524.06, 1392.508, -0.00001358967, -0.02881603, 119981.79, 119981.79, 0.0, 10.014123, 9.987811 
6.4951223e+1, 1.23521864e+2, -1807658.1, -1733003.0, -2844.115, -0.002074898, -0.028547464, -1732894.9, -3411.9795, 0.0, 9.992532, 10.002416 
6.495876e+1, 1.3352287e+2, -1702296.0, -1647838.6, -1760.0372, 0.004474508, -0.02755072, -1647781.8, -16308.862, 0.0, 9.993742, 10.00095 
6.4966154e+1, 1.4352298e+2, -1598756.6, -1564795.6, -2146.5283, 0.00007554364, -0.035466418, -1564660.5, -31188.55, 0.0, 9.994881, 9.999374 
6.4973617e+1, 1.535224e+2, -1485758.0, -1459972.9, -3178.7668, -0.00097618497, -0.028366167, -1459586.8, -24109.158, 0.0, 9.995918, 9.99933 
6.498099e+1, 1.6352049e+2, -1390510.1, -1393006.5, -4179.516, -0.0016164638, -0.025893614, -1387396.4, -49900.117, 0.0, 9.997016, 9.996681 
6.4988273e+1, 1.7351697e+2, -1275642.1, -1288531.1, -2985.0117, -0.0012493927, -0.031733993, -1274984.4, -35453.65, 0.0, 9.998236, 9.996525 
6.499557e+1, 1.8351248e+2, -1175405.8, -1212612.6, -2382.9285, -0.00014784872, -0.033394534, -1175253.8, -33678.84, 0.0, 9.999388, 9.994459 
6.5002924e+1, 1.9350691e+2, -1062433.0, -1107997.6, -3119.6067, 0.0019491321, -0.030223977, -1062220.4, -18591.049, 0.0, 10.000434, 9.994398 
6.5010226e+1, 2.0350015e+2, -966163.8, -1038884.2, -3819.171, 0.0020217197, -0.028161023, -965963.8, -20268.178, 0.0, 10.001526, 9.991897 
6.501745e+1, 2.134919e+2, -851798.2, -934492.7, -3582.8943, -0.0014093001, -0.029912006, -851643.25, -3866.7666, 0.0, 10.0027075, 9.9917555 
6.502473e+1, 2.2348258e+2, -753313.8, -861805.8, -3185.5269, -0.0026772046, -0.029482782, -753220.3, -3352.385, 0.0, 10.003841, 9.989477 
6.5032077e+1, 2.3347197e+2, -640632.1, -757818.94, -3040.7622, -0.00032148472, -0.027531045, -640553.25, 11418.5205, 0.0, 10.004891, 9.989374 
6.5039396e+1, 2.4346025e+2, -542711.3, -685459.2, -3292.2153, 0.0012810446, -0.027925195, -542635.4, 11451.252, 0.0, 10.005988, 9.98709 
6.504666e+1, 2.5344718e+2, -428136.38, -580537.8, -3763.4636, 0.0013897407, -0.034518696, -428043.5, 28171.13, 0.0, 10.007168, 9.986988 
6.505399e+1, 2.63433e+2, -330735.66, -510143.66, -3212.9993, 0.0006102872, -0.03454804, -330678.13, 27675.406, 0.0, 10.008301, 9.984551 
6.506137e+1, 2.7341753e+2, -218411.03, -406532.38, -2546.5188, -0.0017443543, -0.026010616, -218376.58, 42128.676, 0.0, 10.009336, 9.984431 
6.506877e+1, 2.8340074e+2, -122239.61, -338799.3, -2768.8975, -0.0018640371, -0.022678101, -122204.21, 40465.63, 0.0, 10.010474, 9.981811 
6.50761e+1, 2.9338235e+2, -5880.8364, -233104.61, -4004.669, 0.0017800265, -0.031835094, -5810.279, 59039.535, 0.0, 10.011783, 9.981702 
6.5083575e+1, 3.0336708e+2, 102471.8, -87510.76, -2805.1694, 0.002482592, -0.034661315, 102513.21, 102513.21, 0.0, 10.0129385, 9.987763 
6.5091187e+1, 3.133549e+2, 115164.06, -81077.72, -1070.442, -0.001999122, -0.028435377, 115169.91, 115169.91, 0.0, 10.0138, 9.98779 
7.494377e+1, 1.23513825e+2, -1807076.8, -1731866.0, 1638.4875, -0.0017449413, -0.032409575, -1731830.3, -2268.654, 0.0, 9.992535, 10.00249 
7.495249e+1, 1.3351497e+2, -1701785.1, -1646809.0, 2816.5154, 0.0035096589, -0.02462363, -1646665.1, -15114.768, 0.0, 9.993742, 10.0010195 
7.496101e+1, 1.4351502e+2, -1600512.3, -1568462.0, 1840.1626, -0.002777566, -0.031428527, -1568356.8, -34806.79, 0.0, 9.994884, 9.999124 
7.4969536e+1, 1.5351406e+2, -1487951.9, -1464495.5, 734.16565, -0.0012211914, -0.030800754, -1464472.6, -28913.254, 0.0, 9.995918, 9.999021 
7.497803e+1, 1.6351207e+2, -1388818.1, -1389543.1, 308.21698, 0.000010098412, -0.02981366, -1388704.8, -51125.9, 0.0, 9.997016, 9.996916 
7.4986535e+1, 1.7350894e+2, -1273284.8, -1283697.9, 1640.1381, 0.00084140577, -0.028673166, -1273032.5, -33423.043, 0.0, 9.998236, 9.996853 
7.4994963e+1, 1.835046e+2, -1176381.9, -1214673.8, 1646.5051, 0.00069083134, -0.028040303, -1176311.1, -34659.14, 0.0, 9.999391, 9.994317 
7.5003326e+1, 1.9349875e+2, -1064022.3, -1111287.4, 833.82184, -0.0012387185, -0.031031443, -1064007.5, -20298.223, 0.0, 10.000435, 9.994173 
7.501171e+1, 2.0349184e+2, -965990.4, -1038530.25, 555.6264, -0.0019038019, -0.03147275, -965986.1, -20209.074, 0.0, 10.001526, 9.9919195 
7.502017e+1, 2.134837e+2, -851313.9, -933503.8, 881.53955, -0.0003010351, -0.029484618, -851304.4, -3447.519, 0.0, 10.0027075, 9.991822 
7.5028604e+1, 2.2347443e+2, -753070.0, -861315.1, 830.7802, 0.00052571093, -0.028222984, -753063.6, -3115.8928, 0.0, 10.003842, 9.98951 
7.503697e+1, 2.3346381e+2, -640444.1, -757415.25, 901.5299, -0.00015796904, -0.030887948, -640437.2, 11614.539, 0.0, 10.00489, 9.989401 
7.504537e+1, 2.4345207e+2, -543309.56, -686687.3, 1069.6672, -0.0004947852, -0.030835835, -543301.56, 10865.191, 0.0, 10.005987, 9.987005 
7.505382e+1, 2.53439e+2, -428877.5, -582060.25, 693.59717, -0.00006356596, -0.028167108, -428874.38, 27420.582, 0.0, 10.007167, 9.986884 
7.506228e+1, 2.6342484e+2, -329827.63, -508240.2, 768.7964, -0.00019324612, -0.027016798, -329824.3, 28609.463, 0.0, 10.0083, 9.984681 
7.5070715e+1, 2.734094e+2, -217193.98, -404014.88, 1334.0258, -0.0012410855, -0.031779747, -217184.45, 43400.527, 0.0, 10.009337, 9.984603 
7.507926e+1, 2.8339258e+2, -123746.11, -341901.66, 1979.0046, -0.0005917276, -0.03271878, -123728.16, 39021.703, 0.0, 10.010472, 9.981598 
7.5087905e+1, 2.9337403e+2, -7938.778, -237287.38, 943.0944, 0.0030965374, -0.029398967, -7934.8994, 56996.656, 0.0, 10.011778, 9.981417 
7.509652e+1, 3.0335876e+2, 104762.57, -82685.56, 699.56116, 0.0028467919, -0.027027652, 104765.18, 104765.18, 0.0, 10.012938, 9.988093 
7.5104976e+1, 3.1334695e+2, 118374.484, -74450.49, 2102.8325, -0.004796735, -0.029987052, 118397.414, 118397.414, 0.0, 10.013802, 9.988244 
8.493631e+1, 1.2350459e+2, -1806904.0, -1731570.9, -3207.7092, -0.0010721665, -0.033362355, -1731434.5, -1782.37, 0.0, 9.992535, 10.002508 
8.494622e+1, 1.3350576e+2, -1701919.6, -1646737.1, -2480.055, 0.0036467253, -0.023952112, -1646625.9, -14985.244, 0.0, 9.993725, 10.00103 
8.495589e+1, 1.435058e+2, -1600693.5, -1568956.0, -3398.0674, -0.0040024812, -0.03102806, -1568596.4, -34955.99, 0.0, 9.994887, 9.999085 
8.496551e+1, 1.5350477e+2, -1486762.5, -1464443.4, -2614.775, -0.0007068122, -0.031482585, -1464141.1, -28490.826, 0.0, 9.996021, 9.998972 
8.4975106e+1, 1.6350277e+2, -1387039.3, -1388476.0, -2409.9614, 0.0013048602, -0.030749185, -1385242.9, -47572.797, 0.0, 9.997127, 9.996933 
8.498475e+1, 1.7349967e+2, -1273716.0, -1283611.8, -3286.259, 0.0011680438, -0.028190922, -1272724.1, -33023.836, 0.0, 9.998193, 9.996878 
8.499431e+1, 1.8349533e+2, -1177937.3, -1215826.6, -4335.0117, 0.00037392176, -0.026974091, -1177447.5, -35704.75, 0.0, 9.999301, 9.994279 
8.500378e+1, 1.9348945e+2, -1063521.5, -1111594.1, -3873.2896, -0.0015953766, -0.030616939, -1063211.4, -19410.787, 0.0, 10.000491, 9.994122 
8.501328e+1, 2.034825e+2, -964489.8, -1037696.2, -3470.5344, -0.0019449425, -0.03153194, -964325.6, -18456.941, 0.0, 10.001623, 9.991927 
8.5022855e+1, 2.1347436e+2, -852021.6, -933653.25, -3506.533, 0.00039238695, -0.029446132, -851871.3, -3922.9387, 0.0, 10.00265, 9.9918375 
8.503239e+1, 2.2346509e+2, -754767.4, -862160.5, -3852.016, 0.0015693989, -0.028476128, -754629.4, -4590.2295, 0.0, 10.003726, 9.989506 
8.504187e+1, 2.3345447e+2, -640457.75, -757515.1, -4056.9844, 0.0003847745, -0.03194294, -640317.3, 11826.001, 0.0, 10.004892, 9.98939 
8.505138e+1, 2.4344271e+2, -542658.25, -686416.6, -3689.4705, -0.000532576, -0.031669777, -542563.6, 11694.782, 0.0, 10.006032, 9.9869995 
8.5060954e+1, 2.5342965e+2, -429580.2, -582469.8, -3352.5627, -0.0009757463, -0.026916264, -429506.7, 26879.795, 0.0, 10.007121, 9.986876 
8.507054e+1, 2.634155e+2, -330767.97, -508668.6, -3341.818, -0.00061448157, -0.025454234, -330705.22, 27820.12, 0.0, 10.008233, 9.984682 
8.50801e+1, 2.7340004e+2, -216442.1, -403639.25, -4048.5598, 0.0007948794, -0.033230785, -216354.58, 44322.223, 0.0, 10.009387, 9.984601 
8.508976e+1, 2.833832e+2, -123284.21, -341583.2, -3210.7668, 0.0013935247, -0.035121653, -123236.99, 39604.742, 0.0, 10.010499, 9.981605 
8.5099524e+1, 2.9336467e+2, -11663.923, -238989.95, -2159.0024, 0.0003599395, -0.029011533, -11643.42, 53379.707, 0.0, 10.011517, 9.981424 
8.510928e+1, 3.0334944e+2, 100890.96, -84413.86, -2198.965, -0.0003570991, -0.02544997, 100917.05, 100917.05, 0.0, 10.012662, 9.988106 
8.511894e+1, 3.1333765e+2, 121882.88, -72672.83, -3962.4968, -0.0005144353, -0.030233536, 121963.555, 121963.555, 0.0, 10.014039, 9.988248 
9.492884e+1, 1.2349412e+2, -1807185.3, -1732166.6, 1282.633, -0.0021804578, -0.03126636, -1732144.6, -2389.8635, 0.0, 9.992535, 10.002466 
9.493996e+1, 1.3349521e+2, -1702275.9, -1647414.0, 1978.3944, 0.0045122146, -0.02555221, -1647342.8, -15598.726, 0.0, 9.993723, 10.000983 
9.495078e+1, 1.4349528e+2, -1599410.9, -1566282.9, 885.09686, -0.0040493025, -0.034076575, -1566259.3, -32515.871, 0.0, 9.994885, 9.999267 
9.496154e+1, 1.5349452e+2, -1485179.4, -1461199.5, 1691.3317, -0.00015536252, -0.030593358, -1461080.9, -25330.064, 0.0, 9.996021, 9.999192 
9.4972235e+1, 1.6349256e+2, -1388475.0, -1391471.0, 1649.1682, 0.0013129045, -0.028740253, -1387745.1, -49975.035, 0.0, 9.9971285, 9.996727 
9.4982916e+1, 1.7348915e+2, -1275701.9, -1287715.3, 748.2521, -0.0010982923, -0.030316418, -1275655.5, -35852.027, 0.0, 9.998193, 9.996597 
9.499359e+1, 1.8348466e+2, -1177449.9, -1214836.3, 82.52231, -0.0019076302, -0.030048305, -1177449.6, -35602.26, 0.0, 9.999301, 9.994346 
9.5004296e+1, 1.9347894e+2, -1062620.9, -1109726.3, 641.1296, 0.000039631454, -0.02911583, -1062612.3, -18708.668, 0.0, 10.00049, 9.994248 
9.5014936e+1, 2.0347208e+2, -964558.1, -1037808.25, 482.91473, 0.0009151752, -0.028397337, -964554.94, -18584.195, 0.0, 10.001621, 9.9919195 
9.5025504e+1, 2.1346389e+2, -852247.3, -934115.1, 364.42462, -0.00018044777, -0.02985022, -852245.7, -4194.6826, 0.0, 10.002649, 9.991806 
9.50361e+1, 2.2345458e+2, -755039.0, -862747.25, 451.8034, -0.0006006728, -0.03013753, -755037.1, -4894.7905, 0.0, 10.003727, 9.989464 
9.504676e+1, 2.3344393e+2, -640768.1, -758143.8, 344.16492, 0.0002656492, -0.030755121, -640767.1, 11479.486, 0.0, 10.004891, 9.9893465 
9.505743e+1, 2.434322e+2, -542178.94, -685402.75, 428.23798, 0.00009064696, -0.030367712, -542177.6, 12184.034, 0.0, 10.006031, 9.987068 
9.506806e+1, 2.5341916e+2, -428960.56, -581165.75, 719.1701, -0.0018890786, -0.030562032, -428957.16, 27532.146, 0.0, 10.00712, 9.986964 
9.5078766e+1, 2.6340497e+2, -331619.8, -510434.75, 940.3234, -0.0016588568, -0.02986894, -331614.88, 27013.36, 0.0, 10.008233, 9.98456 
9.5089513e+1, 2.7338943e+2, -217612.4, -406025.4, 298.59918, 0.0028267289, -0.030562116, -217611.94, 43168.746, 0.0, 10.009385, 9.984438 
9.5100284e+1, 2.833726e+2, -121802.95, -338437.0, 676.54193, 0.0025992224, -0.030136326, -121800.84, 41144.61, 0.0, 10.010496, 9.98182 
9.511097e+1, 2.9335433e+2, -9638.289, -234789.45, 1604.2325, -0.0064882985, -0.030683683, -9626.859, 55497.727, 0.0, 10.011517, 9.98171 
9.5121884e+1, 3.033391e+2, 98904.53, -88591.4, 2716.0237, -0.007322679, -0.029762095, 98943.87, 98943.87, 0.0, 10.012665, 9.987817 
9.5133066e+1, 3.1332695e+2, 118999.34, -78575.16, 1266.1406, 0.0076073953, -0.029200459, 119007.45, 119007.45, 0.0, 10.014034, 9.987844 
1.04921505e+2, 1.2348262e+2, -1803901.0, -1731133.9, -2256.9995, -0.0016642875, -0.030805482, -1731064.0, -1196.5143, 0.0, 9.99278, 10.002415 
1.04933694e+2, 1.3348365e+2, -1702469.9, -1648204.9, -1871.934, 0.0050743497, -0.0257761, -1648140.4, -16283.012, 0.0, 9.993737, 10.00092 
1.0494559e+2, 1.4348368e+2, -1600668.6, -1566505.9, -3187.1294, -0.0049413457, -0.03492536, -1566211.0, -32354.021, 0.0, 9.9947815, 9.999299 
1.0495755e+2, 1.5348299e+2, -1485168.8, -1460647.3, -3620.1633, 0.00016295667, -0.029760951, -1460123.9, -24260.137, 0.0, 9.995996, 9.999237 
1.049694e+2, 1.6348101e+2, -1388296.3, -1392074.1, -4257.873, 0.002160716, -0.027553512, -1385527.1, -47644.133, 0.0, 9.997169, 9.996663 
1.0498115e+2, 1.7347753e+2, -1275077.8, -1288340.8, -3750.957, -0.0013028515, -0.03128609, -1274090.4, -34173.02, 0.0, 9.998274, 9.996512 
1.0499291e+2, 1.8347299e+2, -1176391.5, -1214058.0, -3553.2737, -0.0023446819, -0.031759467, -1176059.3, -34097.418, 0.0, 9.999359, 9.994368 
1.0500475e+2, 1.9346732e+2, -1063354.9, -1109638.0, -3614.798, 0.000630259, -0.029070782, -1063074.3, -19056.764, 0.0, 10.000421, 9.994286 
1.05016515e+2, 2.0346048e+2, -966187.5, -1038738.6, -4251.374, 0.0019077515, -0.027685957, -965939.2, -19854.766, 0.0, 10.001515, 9.991904 
1.0502817e+2, 2.1345223e+2, -852002.7, -934265.1, -4343.001, -0.00006114987, -0.03055129, -851774.06, -3608.941, 0.0, 10.002677, 9.991778 
1.0503987e+2, 2.234429e+2, -753852.6, -862281.6, -4008.98, -0.0009611759, -0.030898409, -753704.56, -3447.9797, 0.0, 10.003811, 9.989452 
1.0505165e+2, 2.3343226e+2, -640688.3, -758213.7, -3858.716, -0.00010664127, -0.029382875, -640561.75, 11799.068, 0.0, 10.004901, 9.989334 
1.0506343e+2, 2.4342053e+2, -542824.56, -685678.6, -3955.6157, 0.00021269686, -0.0286907, -542715.1, 11760.787, 0.0, 10.005984, 9.987069 
1.05075166e+2, 2.5340748e+2, -429768.47, -581517.6, -4322.371, -0.0005590691, -0.03200211, -429645.44, 26958.387, 0.0, 10.007062, 9.986965 
1.05086975e+2, 2.6339328e+2, -332616.7, -510826.13, -3854.9033, -0.00036384328, -0.03207608, -332533.34, 26209.422, 0.0, 10.008159, 9.984567 
1.05098836e+2, 2.7337778e+2, -218929.77, -406577.4, -3274.5403, 0.0015195818, -0.028946662, -218872.64, 42022.195, 0.0, 10.00929, 9.984444 
1.0511073e+2, 2.83361e+2, -122691.82, -338972.3, -2957.07, 0.0010201334, -0.027162002, -122651.4, 40408.094, 0.0, 10.010437, 9.98181 
1.0512256e+2, 2.9334265e+2, -8380.747, -234355.06, -4190.041, -0.004073987, -0.031083398, -8303.082, 56936.0, 0.0, 10.011609, 9.981692 
1.0513461e+2, 3.0332738e+2, 100050.13, -87567.07, -3065.7869, -0.0041247196, -0.031894002, 100100.22, 100100.22, 0.0, 10.01272, 9.987858 
1.0514691e+2, 3.1331533e+2, 114659.87, -80077.29, -1344.3214, 0.005074409, -0.02987288, 114669.14, 114669.14, 0.0, 10.013706, 9.987897 
1.149143e+2, 1.2347007e+2, -1804368.6, -1732090.3, 1544.2594, -0.0007947284, -0.03201442, -1732057.4, -2066.952, 0.0, 9.99278, 10.002348 
1.14927426e+2, 1.3347104e+2, -1703106.8, -1649470.5, 1713.8151, 0.0048290114, -0.02472065, -1649415.8, -17434.78, 0.0, 9.993735, 10.000834 
1.1494035e+2, 1.4347097e+2, -1601564.0, -1568284.9, 1234.0446, -0.007500781, -0.033645537, -1568239.1, -34257.547, 0.0, 9.994778, 9.99918 
1.1495355e+2, 1.5347016e+2, -1486108.0, -1462546.4, 986.19543, -0.00033661776, -0.028856054, -1462505.1, -26515.443, 0.0, 9.995995, 9.999108 
1.1496658e+2, 1.6346814e+2, -1387686.1, -1390834.9, -45.444603, 0.0030662778, -0.027012434, -1387685.4, -49676.105, 0.0, 9.9971695, 9.996746 
1.1497944e+2, 1.7346475e+2, -1274223.8, -1286594.8, 435.10513, -0.000050624072, -0.031120837, -1274208.4, -34165.86, 0.0, 9.998274, 9.99663 
1.1499228e+2, 1.8346027e+2, -1176545.9, -1214375.8, 474.8631, -0.0017596546, -0.032235313, -1176540.0, -34453.52, 0.0, 9.999359, 9.994344 
1.15005165e+2, 1.9345455e+2, -1063699.8, -1110346.6, 404.40063, -0.00063096854, -0.030518161, -1063696.3, -19553.611, 0.0, 10.00042, 9.994236 
1.1501802e+2, 2.0344767e+2, -966331.75, -1039040.56, 66.328354, 0.000049854643, -0.029413288, -966331.7, -20121.688, 0.0, 10.001515, 9.991882 
1.15030855e+2, 2.134394e+2, -852132.5, -934514.56, 39.023586, 0.00009824533, -0.031546917, -852132.5, -3841.6895, 0.0, 10.002675, 9.991761 
1.1504369e+2, 2.2343008e+2, -753723.44, -862007.06, 109.9471, -0.00040303447, -0.03084642, -753723.3, -3341.109, 0.0, 10.003811, 9.98947 
1.15056545e+2, 2.334195e+2, -640539.8, -757870.9, 226.63626, -0.001747596, -0.027753005, -640539.4, 11946.7, 0.0, 10.004899, 9.989358 
1.15069404e+2, 2.4340774e+2, -543272.8, -686584.9, 70.550255, -0.0013171106, -0.026533496, -543272.75, 11328.492, 0.0, 10.005983, 9.987006 
1.1508226e+2, 2.533946e+2, -430349.25, -582677.6, -287.27606, 0.0023613037, -0.031282585, -430348.72, 26381.373, 0.0, 10.007059, 9.986886 
1.1509516e+2, 2.633804e+2, -331727.03, -508959.34, 344.3029, 0.0023918308, -0.031988, -331726.34, 27142.672, 0.0, 10.008158, 9.984693 
1.1510807e+2, 2.7336508e+2, -217762.72, -404128.1, 938.4097, -0.0041282238, -0.02851889, -217758.0, 43261.41, 0.0, 10.009288, 9.984611 
1.1512111e+2, 2.833483e+2, -124232.65, -342137.34, 1355.2888, -0.004619617, -0.02631298, -124224.22, 38959.71, 0.0, 10.010435, 9.981592 
1.1513428e+2, 2.9332966e+2, -10503.01, -238681.58, 194.68526, 0.0064259428, -0.029801205, -10502.844, 54863.56, 0.0, 10.011605, 9.981397 
1.1514746e+2, 3.0331436e+2, 102432.22, -82530.28, 741.1614, 0.007643886, -0.031640515, 102435.19, 102435.19, 0.0, 10.012716, 9.988203 
1.1516048e+2, 3.1330273e+2, 117998.664, -73171.34, 2288.9475, -0.009685148, -0.033026148, 118026.07, 118026.07, 0.0, 10.013709, 9.988368 
1.2490698e+2, 1.2345632e+2, -1806732.4, -1733286.1, -3299.3262, -0.001990156, -0.03249816, -1733138.3, -3013.0955, 0.0, 9.9926195, 10.002341 
1.24921255e+2, 1.3345727e+2, -1700802.6, -1648571.5, -2925.885, 0.0064493916, -0.02371997, -1648408.1, -16292.274, 0.0, 9.993899, 10.000812 
1.24935284e+2, 1.4345717e+2, -1597792.4, -1567146.1, -2987.9675, -0.0063910703, -0.033271905, -1566857.5, -32740.7, 0.0, 9.995063, 9.999114 
1.2494955e+2, 1.5345626e+2, -1485961.1, -1463276.0, -2827.051, -0.0009887816, -0.029792972, -1462929.0, -26803.23, 0.0, 9.996037, 9.999035 
1.2496369e+2, 1.6345422e+2, -1388794.8, -1391064.6, -3649.9333, 0.0020108712, -0.028032959, -1386107.4, -47961.613, 0.0, 9.997079, 9.996771 
1.24977715e+2, 1.7345089e+2, -1274194.4, -1286093.4, -3716.374, 0.0007819023, -0.030196453, -1273129.0, -32950.617, 0.0, 9.998254, 9.99667 
1.2499168e+2, 1.8344642e+2, -1176290.3, -1214683.9, -4279.2124, -0.00010978157, -0.030728977, -1175819.1, -33596.934, 0.0, 9.999394, 9.994303 
1.2500562e+2, 1.9344062e+2, -1063274.3, -1110753.4, -4444.346, -0.0005204826, -0.030871632, -1062861.8, -18582.703, 0.0, 10.000474, 9.994178 
1.2501955e+2, 2.034337e+2, -965601.7, -1038747.5, -4512.1904, -0.0005933851, -0.0303713, -965324.44, -18977.559, 0.0, 10.001566, 9.991874 
1.2503353e+2, 2.1342546e+2, -851952.9, -934413.1, -4357.073, 0.0000075750077, -0.030723223, -851723.3, -3295.7817, 0.0, 10.002686, 9.991759 
1.2504749e+2, 2.2341613e+2, -754312.9, -862323.3, -4516.8394, 0.00006816261, -0.029778363, -754124.3, -3605.3672, 0.0, 10.00377, 9.989464 
1.250614e+2, 2.334055e+2, -642118.0, -758711.8, -4682.709, -0.0010639834, -0.029200066, -641930.25, 10692.881, 0.0, 10.004793, 9.989347 
1.2507534e+2, 2.4339375e+2, -544792.9, -687277.5, -4469.969, -0.00066702307, -0.028531464, -544652.75, 10085.619, 0.0, 10.005876, 9.987007 
1.2508932e+2, 2.5338063e+2, -430116.38, -582528.8, -4203.814, 0.0022187538, -0.030092549, -430000.53, 26866.408, 0.0, 10.007072, 9.986885 
1.2510335e+2, 2.6336646e+2, -330882.1, -508543.44, -3746.4258, 0.0021190678, -0.029839642, -330803.13, 28202.64, 0.0, 10.008213, 9.984691 
1.2511735e+2, 2.7335107e+2, -218230.45, -404396.5, -4413.747, -0.0037322047, -0.029380076, -218125.88, 43030.605, 0.0, 10.009256, 9.984604 
1.251315e+2, 2.8333429e+2, -125763.68, -342753.44, -3838.2925, -0.0038588205, -0.028577598, -125695.805, 37625.33, 0.0, 10.010324, 9.9816 
1.251458e+2, 2.933157e+2, -12932.835, -239707.94, -2838.547, 0.006602759, -0.029882902, -12897.311, 52606.01, 0.0, 10.01143, 9.981408 
1.251601e+2, 3.033004e+2, 100459.72, -83432.84, -2085.858, 0.007743708, -0.03031955, 100483.375, 100483.375, 0.0, 10.012576, 9.988205 
1.2517424e+2, 3.1328878e+2, 119188.9, -72609.46, -3899.2825, -0.008576146, -0.031647068, 119268.14, 119268.14, 0.0, 10.013788, 9.988364 
1.3489956e+2, 1.2344132e+2, -1806393.5, -1732466.0, 1739.8739, -0.0073854304, -0.032118257, -1732425.0, -2152.9026, 0.0, 9.992614, 10.002398 
1.3491519e+2, 1.3344233e+2, -1700501.3, -1647914.4, 1873.4983, 0.009389951, -0.022648687, -1647847.8, -15585.466, 0.0, 9.993897, 10.000855 
1.3493039e+2, 1.4344223e+2, -1597787.0, -1567146.9, 827.79333, -0.002247464, -0.034020506, -1567124.5, -32861.363, 0.0, 9.995063, 9.999113 
1.3494557e+2, 1.5344128e+2, -1486066.8, -1463487.1, 846.4493, -0.0026357756, -0.03262939, -1463455.5, -27183.0, 0.0, 9.996037, 9.99902 
1.3496074e+2, 1.6343923e+2, -1389015.5, -1391512.9, 666.12524, -0.0020531025, -0.030650564, -1388849.0, -50556.336, 0.0, 9.997078, 9.996739 
1.3497597e+2, 1.734359e+2, -1274443.0, -1286615.4, 742.2956, 0.00058911665, -0.028507184, -1274398.0, -34072.645, 0.0, 9.998254, 9.996633 
1.349911e+2, 1.8343142e+2, -1176662.1, -1215467.6, -157.62064, 0.0016538866, -0.027206955, -1176661.5, -34292.13, 0.0, 9.999394, 9.994248 
1.3500609e+2, 1.934255e+2, -1063713.3, -1111650.0, -364.01862, -0.00015412486, -0.030056646, -1063710.5, -19283.354, 0.0, 10.000473, 9.994116 
1.3502112e+2, 2.0341855e+2, -965524.44, -1038585.94, -329.9905, -0.0013407608, -0.030461561, -965522.94, -19027.68, 0.0, 10.001565, 9.991884 
1.3503622e+2, 2.1341036e+2, -851793.8, -934089.94, -131.47757, -0.0011882938, -0.02811457, -851793.6, -3218.1467, 0.0, 10.002686, 9.99178 
1.3505125e+2, 2.2340104e+2, -754479.94, -862669.6, -635.8371, -0.0005996881, -0.027725585, -754476.2, -3809.2874, 0.0, 10.00377, 9.989439 
1.3506621e+2, 2.333903e+2, -642380.3, -759228.4, -853.84985, 0.00095661654, -0.033473566, -642374.1, 10397.912, 0.0, 10.004791, 9.989311 
1.3508123e+2, 2.4337853e+2, -544339.3, -686325.75, -104.41941, 0.0010151014, -0.034428135, -544339.2, 10548.144, 0.0, 10.005875, 9.987071 
1.3509636e+2, 2.5336558e+2, -429576.56, -581341.06, 272.83322, -0.0016164046, -0.0285887, -429576.06, 27438.355, 0.0, 10.007069, 9.986967 
1.3511151e+2, 2.6335144e+2, -331791.63, -510378.4, 204.62582, -0.0022469324, -0.025548305, -331791.4, 27361.654, 0.0, 10.008211, 9.984565 
1.3512667e+2, 2.733358e+2, -219451.86, -406860.03, -535.44684, 0.0012605444, -0.031196844, -219450.33, 41855.64, 0.0, 10.009253, 9.984435 
1.3514188e+2, 2.83319e+2, -124224.4, -339504.16, 239.43129, 0.0017821066, -0.033397578, -124224.13, 39246.816, 0.0, 10.010321, 9.981822 
1.3515712e+2, 2.9330072e+2, -10823.558, -235342.08, 1246.8608, -0.0033811314, -0.03172485, -10816.634, 54833.32, 0.0, 10.011431, 9.981705 
1.3517256e+2, 3.0328554e+2, 98256.65, -88010.85, 2322.3057, -0.003919618, -0.028395582, 98285.59, 98285.59, 0.0, 10.012576, 9.98789 
1.3518818e+2, 3.132735e+2, 115993.33, -79103.31, 659.8456, 0.0049227527, -0.025381519, 115995.56, 115995.56, 0.0, 10.013782, 9.987921 
1.4489232e+2, 1.23425275e+2, -1801924.5, -1730335.8, -1700.3876, -0.0070595294, -0.03264991, -1730295.4, 133.98447, 0.0, 9.992915, 10.002393 
1.4490905e+2, 1.3342625e+2, -1701817.9, -1648907.6, -2568.8308, 0.009654754, -0.022819955, -1648783.1, -16363.381, 0.0, 9.99382, 10.000823 
1.4492534e+2, 1.4342614e+2, -1601012.0, -1568816.5, -3888.9514, -0.0027010313, -0.034992445, -1568353.5, -33932.5, 0.0, 9.994845, 9.999101 
1.4494167e+2, 1.5342519e+2, -1484905.4, -1463017.8, -3833.8276, -0.0019905046, -0.032312304, -1462365.6, -25935.375, 0.0, 9.996118, 9.999008 
1.4495793e+2, 1.634231e+2, -1386121.1, -1390517.6, -4135.736, -0.0010352081, -0.029888906, -1383635.8, -45185.117, 0.0, 9.997291, 9.996699 
1.4497423e+2, 1.7341973e+2, -1274224.6, -1286992.8, -4152.3545, 0.00044148584, -0.028938383, -1272993.0, -32509.17, 0.0, 9.998286, 9.996587 
1.4499044e+2, 1.8341519e+2, -1177488.3, -1215973.0, -4816.0054, 0.0011440115, -0.027991477, -1176894.8, -34366.586, 0.0, 9.999341, 9.994235 
1.450066e+2, 1.9340931e+2, -1063181.1, -1111434.8, -4582.954, 0.0001953683, -0.029727235, -1062749.8, -18163.793, 0.0, 10.000509, 9.994109 
1.450227e+2, 2.0340234e+2, -964956.75, -1038465.9, -4598.056, -0.0005294492, -0.029874856, -964670.25, -18016.074, 0.0, 10.001609, 9.991867 
1.4503884e+2, 2.1339412e+2, -853375.1, -935063.0, -4751.8735, -0.00066322956, -0.028942745, -853099.6, -4364.9185, 0.0, 10.002585, 9.991757 
1.4505497e+2, 2.2338477e+2, -756184.56, -863440.1, -5064.0996, -0.000114979324, -0.02882294, -755946.0, -5119.677, 0.0, 10.00365, 9.98944 
1.4507104e+2, 2.3337407e+2, -640994.6, -758464.75, -4922.344, 0.0014870317, -0.032725643, -640788.75, 12142.4795, 0.0, 10.00488, 9.989316 
1.4508718e+2, 2.433623e+2, -542346.7, -685538.44, -4368.983, 0.0012692072, -0.03311203, -542213.5, 12833.003, 0.0, 10.006017, 9.987052 
1.4510338e+2, 2.5334927e+2, -431049.7, -582323.0, -4799.236, -0.0024804322, -0.02913587, -430897.6, 26276.459, 0.0, 10.006978, 9.986939 
1.451196e+2, 2.633351e+2, -334674.0, -511557.88, -4771.944, -0.002821029, -0.026914498, -334545.38, 24767.469, 0.0, 10.008002, 9.984581 
1.4513588e+2, 2.7331954e+2, -220717.84, -407163.94, -4149.848, 0.003171737, -0.031550452, -220625.52, 40839.91, 0.0, 10.0091505, 9.98446 
1.4515221e+2, 2.8330272e+2, -124534.62, -339652.47, -3095.567, 0.0038779946, -0.033010524, -124490.08, 39140.11, 0.0, 10.010297, 9.981819 
1.4516853e+2, 2.9328445e+2, -10785.427, -235408.84, -4245.5166, -0.0055486043, -0.0310581, -10705.213, 55104.063, 0.0, 10.011434, 9.981694 
1.4518508e+2, 3.032693e+2, 97982.57, -87750.51, -3424.2476, -0.006805974, -0.028056566, 98045.68, 98045.68, 0.0, 10.012537, 9.987922 
1.4520186e+2, 3.1325728e+2, 113135.41, -79987.44, -1769.9863, 0.007940274, -0.026472064, 113151.625, 113151.625, 0.0, 10.01356, 9.987963 
1.5488528e+2, 1.2340815e+2, -1802457.0, -1731425.8, 2119.918, -0.0025171135, -0.0341916, -1731362.5, -765.3822, 0.0, 9.992915, 10.002316 
1.5490285e+2, 1.3340901e+2, -1702713.0, -1650631.8, 765.55304, 0.0065252027, -0.024346357, -1650620.5, -18031.861, 0.0, 9.993815, 10.000706 
1.5492013e+2, 1.4340882e+2, -1601231.0, -1569159.5, 671.1856, -0.008844618, -0.036071677, -1569145.4, -34554.793, 0.0, 9.994841, 9.999078 
1.549378e+2, 1.5340792e+2, -1484950.3, -1463085.5, 994.5813, -0.0000701021, -0.028847907, -1463040.3, -26440.746, 0.0, 9.996116, 9.999002 
1.5495528e+2, 1.6340582e+2, -1386409.9, -1391154.5, -233.75204, 0.003981462, -0.025694951, -1386398.4, -47778.406, 0.0, 9.9972925, 9.996653 
1.5497252e+2, 1.7340231e+2, -1274595.4, -1287779.6, -402.5684, -0.00045345162, -0.031432144, -1274583.1, -33928.723, 0.0, 9.998288, 9.996531 
1.5498976e+2, 1.8339776e+2, -1177222.5, -1215434.6, -518.0173, -0.002656991, -0.033062868, -1177215.5, -34516.348, 0.0, 9.99934, 9.99427 
1.550071e+2, 1.9339195e+2, -1062786.1, -1110659.1, -158.86417, -0.00065231987, -0.02986763, -1062785.6, -18029.69, 0.0, 10.00051, 9.99416 
1.5502433e+2, 2.0338501e+2, -965223.7, -1039035.75, -836.7068, 0.0006228199, -0.0285283, -965214.2, -18390.273, 0.0, 10.00161, 9.991826 
1.5504144e+2, 2.1337667e+2, -853797.5, -935924.7, -1100.152, 0.0007702747, -0.03300539, -853782.75, -4877.187, 0.0, 10.0025835, 9.991698 
1.5505862e+2, 2.233673e+2, -755943.06, -862948.75, -596.2872, 0.00041627017, -0.033017144, -755939.75, -4942.3857, 0.0, 10.003649, 9.989472 
1.5507591e+2, 2.3335674e+2, -640684.9, -757757.94, -292.8928, -0.0005159912, -0.02717763, -640684.1, 12416.757, 0.0, 10.004877, 9.989365 
1.5509318e+2, 2.43345e+2, -543067.3, -686946.25, -652.2318, -0.001160397, -0.024701783, -543064.4, 12151.709, 0.0, 10.006013, 9.986956 
1.5511037e+2, 2.5333178e+2, -431946.28, -584152.0, -1222.0728, -0.0012237695, -0.031342495, -431936.47, 25409.318, 0.0, 10.006976, 9.986814 
1.5512764e+2, 2.6331756e+2, -333571.28, -509270.4, -607.7867, -0.00067887286, -0.033611078, -333569.16, 25915.893, 0.0, 10.008002, 9.9847355 
1.55145e+2, 2.7330226e+2, -219259.3, -404108.9, 109.1134, 0.0010351714, -0.030677985, -219259.23, 42375.695, 0.0, 10.00915, 9.984668 
1.5516248e+2, 2.8328553e+2, -126038.91, -342702.13, 1082.1707, 0.0013547995, -0.027774034, -126033.5, 37765.434, 0.0, 10.010293, 9.981611 
1.5518002e+2, 2.9326695e+2, -12938.759, -239760.7, -8.602048, -0.0009609177, -0.027923642, -12938.758, 53042.36, 0.0, 10.011429, 9.981397 
1.5519768e+2, 3.0325168e+2, 100395.734, -82581.93, 460.3859, -0.001987105, -0.029032076, 100396.9, 100396.9, 0.0, 10.01253, 9.988278 
1.5521535e+2, 3.1324008e+2, 116578.01, -72852.664, 1984.1735, -0.0004124591, -0.034739934, 116598.79, 116598.79, 0.0, 10.013563, 9.988449 
1.6487817e+2, 1.2338991e+2, -1804025.1, -1732506.4, -2272.2168, -0.00065245916, -0.03350245, -1732434.3, -1658.282, 0.0, 9.992819, 10.002285 
1.6489676e+2, 1.333907e+2, -1700057.9, -1650182.1, -3842.609, 0.006099955, -0.023373328, -1649887.9, -17119.596, 0.0, 9.994029, 10.0006275 
1.649151e+2, 1.4339045e+2, -1596817.9, -1567130.4, -3470.6563, -0.009962175, -0.03609313, -1566730.1, -31959.318, 0.0, 9.995142, 9.999064 
1.6493392e+2, 1.5338953e+2, -1485042.0, -1463163.8, -3107.2117, 0.00025972674, -0.029421711, -1462731.0, -25951.238, 0.0, 9.996107, 9.998997 
1.649525e+2, 1.6338742e+2, -1388763.1, -1392708.4, -4401.1704, 0.0050793877, -0.026333302, -1385912.8, -47112.28, 0.0, 9.997147, 9.996614 
1.6497083e+2, 1.7338386e+2, -1274173.9, -1288086.1, -4530.3286, -0.00019804898, -0.03132101, -1272828.8, -31993.492, 0.0, 9.998336, 9.996482 
1.6498914e+2, 1.8337928e+2, -1175462.8, -1214569.1, -4738.5596, -0.002769935, -0.03284487, -1174896.8, -32016.555, 0.0, 9.999457, 9.994267 
1.6500756e+2, 1.9337346e+2, -1063595.6, -1110974.8, -4744.1563, -0.00048186403, -0.03071933, -1063125.3, -18188.17, 0.0, 10.000449, 9.994163 
1.6502589e+2, 2.0336652e+2, -966706.6, -1039914.44, -5503.0923, 0.0010633109, -0.02949168, -966295.25, -19290.137, 0.0, 10.0015135, 9.991808 
1.650441e+2, 2.1335818e+2, -852082.8, -935318.06, -5490.54, 0.0012270631, -0.032257337, -851722.25, -2635.3718, 0.0, 10.002708, 9.991673 
1.6506235e+2, 2.233488e+2, -753645.9, -861999.0, -4978.262, 0.00067121786, -0.031677023, -753417.6, -2238.8464, 0.0, 10.003811, 9.989453 
1.650807e+2, 2.333382e+2, -642704.5, -758923.44, -5169.943, -0.0013753131, -0.027266636, -642475.0, 10807.709, 0.0, 10.004745, 9.989344 
1.6509905e+2, 2.4332644e+2, -546599.3, -688398.9, -5468.429, -0.0017987159, -0.025609622, -546388.75, 9009.219, 0.0, 10.005758, 9.986975 
1.6511734e+2, 2.5331324e+2, -432449.28, -584067.0, -4975.4233, 0.0008311339, -0.03163475, -432286.2, 25241.164, 0.0, 10.006926, 9.986839 
1.651357e+2, 2.6329905e+2, -332705.47, -509002.94, -4028.7852, 0.0017790231, -0.033355556, -332613.44, 27053.055, 0.0, 10.008065, 9.984718 
1.6515414e+2, 2.7328372e+2, -219340.25, -404436.97, -4928.0293, -0.00094786123, -0.029788468, -219209.14, 42607.457, 0.0, 10.009153, 9.984638 
1.651727e+2, 2.8326696e+2, -127084.62, -343118.97, -4423.3, -0.001454966, -0.02694363, -126994.086, 36986.684, 0.0, 10.010215, 9.981614 
1.6519137e+2, 2.932484e+2, -15850.104, -240996.98, -3444.8093, 0.0022822719, -0.028589927, -15797.41, 50365.555, 0.0, 10.011217, 9.98141 
1.6521013e+2, 3.0323315e+2, 97486.22, -83560.99, -2323.7424, 0.0026686732, -0.030287126, 97516.04, 97516.04, 0.0, 10.012308, 9.988315 
1.6522889e+2, 3.1322157e+2, 117061.445, -72166.27, -3864.2776, -0.0034939724, -0.034767386, 117140.33, 117140.33, 0.0, 10.01357, 9.988489 
1.7487097e+2, 1.2337048e+2, -1803986.6, -1732258.8, 2686.6382, -0.0034574086, -0.0305098, -1732158.3, -1191.8798, 0.0, 9.992811, 10.002303 
1.748908e+2, 1.3337125e+2, -1700339.0, -1650697.0, 684.66675, 0.007874712, -0.019846352, -1650687.6, -17728.705, 0.0, 9.994026, 10.000592 
1.7491029e+2, 1.4337094e+2, -1596845.3, -1567190.9, 265.47443, -0.006645667, -0.035003476, -1567188.5, -32226.633, 0.0, 9.995142, 9.999059 
1.7493e+2, 1.5336996e+2, -1485087.8, -1463206.5, 517.4453, -0.0019562375, -0.03401995, -1463194.3, -26222.826, 0.0, 9.996105, 9.998993 
1.7494962e+2, 1.6336782e+2, -1388970.3, -1393119.3, -46.176773, 0.00080726144, -0.031823646, -1388969.6, -49977.44, 0.0, 9.997147, 9.996584 
1.7496918e+2, 1.7336434e+2, -1274419.1, -1288602.4, -9.092921, 0.00043277163, -0.02864694, -1274419.1, -33392.492, 0.0, 9.998336, 9.996445 
1.7498864e+2, 1.8335973e+2, -1175731.3, -1215132.6, -881.7871, 0.00004894495, -0.02720244, -1175711.5, -32639.719, 0.0, 9.999457, 9.994227 
1.7500803e+2, 1.933538e+2, -1063875.0, -1111579.6, -998.45374, -0.00029852142, -0.03226209, -1063854.0, -18724.334, 0.0, 10.00045, 9.994119 
1.750274e+2, 2.0334683e+2, -966622.44, -1039774.25, -1138.1793, -0.00045325284, -0.03274121, -966604.75, -19406.594, 0.0, 10.001514, 9.991815 
1.750468e+2, 2.133386e+2, -851989.06, -935085.06, -985.5828, -0.00015922438, -0.026764942, -851977.4, -2698.4497, 0.0, 10.002707, 9.991689 
1.7506616e+2, 2.233292e+2, -754118.3, -862930.2, -1340.4099, -0.0006147731, -0.024750166, -754101.75, -2730.9119, 0.0, 10.003808, 9.989389 
1.7508546e+2, 2.333184e+2, -643294.06, -760135.9, -1689.7877, -0.0022567103, -0.03273227, -643269.7, 10207.034, 0.0, 10.004744, 9.98926 
1.7510483e+2, 2.433066e+2, -545672.94, -686472.9, -1264.3091, -0.0017499415, -0.035391558, -545661.6, 9930.714, 0.0, 10.005757, 9.987104 
1.7512429e+2, 2.5329366e+2, -431258.84, -581531.1, -625.3593, 0.0029230192, -0.030263504, -431256.25, 26462.746, 0.0, 10.006921, 9.987013 
1.7514378e+2, 2.6327956e+2, -333974.7, -511563.44, 33.442772, 0.0034813695, -0.026438711, -333974.7, 25882.623, 0.0, 10.008062, 9.984543 
1.7516327e+2, 2.7326396e+2, -221138.97, -408066.3, -888.7934, -0.0039239908, -0.028898897, -221134.73, 40875.688, 0.0, 10.009149, 9.98439 
1.751829e+2, 2.832471e+2, -125716.93, -340149.38, -658.0368, -0.0057359375, -0.03031811, -125714.914, 38460.67, 0.0, 10.010209, 9.981818 
1.7520261e+2, 2.932288e+2, -13754.655, -236651.69, 210.98482, 0.0034046664, -0.032867406, -13754.455, 52600.48, 0.0, 10.011218, 9.981706 
1.7522249e+2, 3.0321366e+2, 95725.76, -87264.95, 2125.0105, 0.00609291, -0.031946268, 95750.43, 95750.43, 0.0, 10.012309, 9.988057 
1.7524247e+2, 3.132018e+2, 114337.484, -77689.06, 856.5433, -0.0040634056, -0.027055446, 114341.305, 114341.305, 0.0, 10.013564, 9.98811 
1.848639e+2, 1.23349994e+2, -1800087.0, -1729967.5, -833.7878, -0.0035435697, -0.030568713, -1729957.5, 1209.7467, 0.0, 9.993054, 10.002336 
1.8488482e+2, 1.3335073e+2, -1701390.5, -1651537.8, -3380.3057, 0.008218391, -0.020249644, -1651309.6, -18149.518, 0.0, 9.993965, 10.000561 
1.8490537e+2, 1.433504e+2, -1599557.1, -1569129.4, -3769.4863, -0.004633585, -0.035115015, -1568669.4, -33506.01, 0.0, 9.994982, 9.999001 
1.8492617e+2, 1.5334934e+2, -1483700.9, -1463237.9, -3964.2463, -0.0018858181, -0.033477202, -1462496.8, -25323.207, 0.0, 9.996226, 9.998926 
1.8494686e+2, 1.6334717e+2, -1385421.1, -1391414.4, -4750.9404, 0.000058515903, -0.031208172, -1382800.8, -43605.945, 0.0, 9.997385, 9.996579 
1.8496753e+2, 1.7334366e+2, -1273610.6, -1288137.1, -4438.7695, 0.00054253003, -0.02898552, -1272361.8, -31132.504, 0.0, 9.998384, 9.996448 
1.8498808e+2, 1.8333903e+2, -1176640.3, -1216051.1, -5286.462, 0.0007856052, -0.027660608, -1175943.4, -32668.916, 0.0, 9.9994135, 9.994181 
1.8500851e+2, 1.9333309e+2, -1063324.3, -1111901.4, -5510.6494, 0.00030564578, -0.031114204, -1062707.0, -17374.12, 0.0, 10.00051, 9.994063 
1.8502894e+2, 2.0332606e+2, -965691.8, -1039316.9, -5529.49, -0.00016257858, -0.031297714, -965278.8, -17877.248, 0.0, 10.0015745, 9.991812 
1.8504944e+2, 2.1331781e+2, -853658.0, -935808.9, -5433.3774, -0.0008264159, -0.027529385, -853300.2, -3817.6646, 0.0, 10.002586, 9.991692 
1.8506987e+2, 2.2330843e+2, -756647.44, -864190.5, -5841.279, -0.0010453779, -0.02652044, -756331.1, -4756.5444, 0.0, 10.003635, 9.989382 
1.8509021e+2, 2.3329762e+2, -643144.2, -760134.2, -5696.826, -0.0004592201, -0.033037208, -642867.44, 10812.946, 0.0, 10.004755, 9.989249 
1.8511064e+2, 2.432858e+2, -544300.1, -685933.75, -5077.029, 0.0004134223, -0.03475483, -544118.4, 11677.644, 0.0, 10.005854, 9.98709 
1.8513118e+2, 2.5327286e+2, -431524.4, -581862.9, -5762.8296, 0.0015379281, -0.030013353, -431303.84, 26619.096, 0.0, 10.00691, 9.986989 
1.8515177e+2, 2.6325876e+2, -335415.5, -512010.6, -5484.479, 0.0011675453, -0.026616283, -335245.34, 24816.03, 0.0, 10.007949, 9.984562 
1.8517233e+2, 2.7324313e+2, -223550.86, -408931.16, -4553.17, -0.0020963007, -0.029325323, -223439.1, 38775.156, 0.0, 10.008967, 9.984414 
1.8519303e+2, 2.832263e+2, -128020.58, -341223.47, -3564.56, -0.0026789098, -0.03086711, -127961.0, 36418.258, 0.0, 10.010045, 9.98182 
1.852138e+2, 2.93208e+2, -13401.602, -236560.3, -4736.986, 0.0014419364, -0.032989733, -13301.095, 53257.56, 0.0, 10.011242, 9.981695 
1.8523479e+2, 3.0319288e+2, 96608.29, -86710.52, -3302.2761, 0.0030658206, -0.03152875, 96667.75, 96667.75, 0.0, 10.012361, 9.988065 
1.8525591e+2, 3.1318107e+2, 110805.56, -79235.33, -1992.2961, -0.0003103882, -0.02614012, 110826.445, 110826.445, 0.0, 10.013311, 9.988121 
1.9485697e+2, 1.2332837e+2, -1799811.8, -1729312.9, 3051.5603, -0.0029784164, -0.034161903, -1729181.0, 2198.085, 0.0, 9.99305, 10.00238 
1.9487876e+2, 1.3332906e+2, -1701710.3, -1652022.3, -34.704327, 0.006345548, -0.024673076, -1652022.3, -18650.107, 0.0, 9.993958, 10.000528 
1.9490035e+2, 1.433287e+2, -1600408.4, -1570730.5, 696.60626, -0.0048672934, -0.036471415, -1570714.3, -35338.367, 0.0, 9.994974, 9.998894 
1.949224e+2, 1.533276e+2, -1484630.5, -1465093.6, 767.1437, -0.000302464, -0.027704341, -1465063.5, -27676.904, 0.0, 9.996223, 9.998799 
1.9494428e+2, 1.6332538e+2, -1385249.5, -1391111.1, -852.81165, 0.0015594859, -0.024269305, -1385127.9, -45719.445, 0.0, 9.997388, 9.996595 
1.9496591e+2, 1.7332181e+2, -1273263.6, -1287446.6, -678.22406, -0.000852566, -0.032273144, -1273231.3, -31787.922, 0.0, 9.998386, 9.996491 
1.9498748e+2, 1.8331715e+2, -1176935.6, -1216676.1, -1219.1454, -0.0017582051, -0.034176707, -1176898.3, -33409.41, 0.0, 9.9994135, 9.994136 
1.9500904e+2, 1.9331124e+2, -1063784.1, -1112845.9, -1364.1764, 0.00020651243, -0.027365692, -1063746.1, -18199.234, 0.0, 10.000509, 9.993998 
1.9503054e+2, 2.0330422e+2, -965785.4, -1039510.06, -1696.6539, 0.000702921, -0.025171803, -965746.4, -18130.518, 0.0, 10.0015745, 9.9917965 
1.9505201e+2, 2.1329582e+2, -853688.9, -935867.56, -1641.8969, -0.0017201238, -0.03438747, -853656.06, -3958.0688, 0.0, 10.002585, 9.991687 
1.950735e+2, 2.232864e+2, -756243.6, -863348.0, -1715.9673, -0.0017410647, -0.036754154, -756216.2, -4426.0093, 0.0, 10.0036335, 9.989438 
1.9509502e+2, 2.3327582e+2, -642689.0, -759153.0, -1504.294, 0.0028412398, -0.028327668, -642669.56, 11224.393, 0.0, 10.004753, 9.989315 
1.9511653e+2, 2.4326405e+2, -545393.0, -688129.94, -1127.5763, 0.0032818185, -0.024153858, -545384.1, 10625.184, 0.0, 10.005851, 9.986939 
1.9513804e+2, 2.532508e+2, -432989.2, -584776.3, -1820.6663, -0.0040261233, -0.030734722, -432967.38, 25171.852, 0.0, 10.006904, 9.986792 
1.9515966e+2, 2.6323658e+2, -334080.06, -509136.34, -1686.4211, -0.0059692133, -0.03329963, -334063.84, 26214.682, 0.0, 10.007944, 9.984758 
1.9518137e+2, 2.732213e+2, -221611.27, -404865.0, -813.0132, 0.0029796513, -0.031160327, -221607.66, 40820.56, 0.0, 10.0089655, 9.984691 
1.9520317e+2, 2.832046e+2, -129294.95, -343847.72, 688.2052, 0.005711268, -0.028835852, -129292.74, 35299.223, 0.0, 10.010043, 9.98164 
1.95225e+2, 2.9318604e+2, -15449.464, -240697.2, -293.303, -0.0038266708, -0.029231776, -15449.082, 51324.93, 0.0, 10.011236, 9.981412 
1.9524705e+2, 3.031708e+2, 98211.78, -83201.17, 372.54822, -0.0065264925, -0.029265763, 98212.55, 98212.55, 0.0, 10.012353, 9.988307 
1.952693e+2, 3.1315926e+2, 113233.21, -74053.05, 1461.5308, 0.0047246814, -0.031680916, 113244.62, 113244.62, 0.0, 10.013305, 9.988478 
2.0484999e+2, 1.2330573e+2, -1800744.3, -1730070.1, -527.4668, -0.002375534, -0.03456838, -1730066.3, 1534.63, 0.0, 9.992993, 10.002352 
2.0487283e+2, 1.3330632e+2, -1698468.5, -1651685.1, -4713.5684, 0.005324613, -0.02605116, -1651215.0, -17619.875, 0.0, 9.9942255, 10.000417 
2.0489553e+2, 1.4330588e+2, -1595173.9, -1568671.6, -4071.8616, -0.0033316533, -0.0361949, -1568060.1, -32460.654, 0.0, 9.995347, 9.998846 
2.0491865e+2, 1.5330476e+2, -1484117.5, -1465219.6, -3338.9478, -0.00005973509, -0.027522076, -1464647.0, -27036.395, 0.0, 9.99627, 9.998763 
2.0494159e+2, 1.633025e+2, -1387401.1, -1392451.1, -4800.452, 0.0012831056, -0.024110002, -1384502.1, -44869.324, 0.0, 9.99725, 9.996567 
2.0496428e+2, 1.732989e+2, -1273857.1, -1288022.6, -5188.7085, -0.00044686667, -0.032038428, -1272159.9, -30491.889, 0.0, 9.998354, 9.996463 
2.0498693e+2, 1.8329422e+2, -1176363.0, -1216505.9, -5799.8267, -0.0010691532, -0.034135107, -1175541.9, -31828.207, 0.0, 9.9994545, 9.994122 
2.0500955e+2, 1.9328828e+2, -1063388.8, -1112763.5, -5544.1865, -0.000044743923, -0.028225405, -1062773.9, -17001.975, 0.0, 10.000538, 9.993982 
2.0503213e+2, 2.0328124e+2, -965538.94, -1039592.4, -5858.1313, 0.00039832434, -0.026284551, -965078.4, -17237.31, 0.0, 10.001596, 9.991775 
2.0505463e+2, 2.1327282e+2, -853453.4, -936017.0, -6004.3643, -0.00035244226, -0.034240145, -853019.0, -3095.6147, 0.0, 10.00261, 9.991658 
2.0507716e+2, 2.2326341e+2, -756075.44, -863274.56, -6056.9873, -0.000074020485, -0.03583111, -755734.25, -3718.66, 0.0, 10.003643, 9.989433 
2.0509973e+2, 2.3325281e+2, -643125.1, -759350.6, -6261.064, 0.0018223875, -0.028058954, -642788.8, 11330.685, 0.0, 10.00472, 9.989311 
2.0512234e+2, 2.4324104e+2, -546568.06, -688753.5, -5946.2715, 0.0014981745, -0.024402238, -546319.9, 9915.083, 0.0, 10.005769, 9.986931 
2.0514488e+2, 2.5322777e+2, -434907.3, -585807.2, -5371.924, -0.003171099, -0.030939672, -434716.3, 23648.652, 0.0, 10.006774, 9.986779 
2.0516755e+2, 2.6321357e+2, -335838.25, -509778.0, -4797.855, -0.003923865, -0.03351014, -335706.0, 24798.25, 0.0, 10.007812, 9.984773 
2.051903e+2, 2.7319828e+2, -222034.03, -404797.16, -5668.373, 0.0028435488, -0.03186268, -221858.39, 40795.42, 0.0, 10.008921, 9.984711 
2.0521317e+2, 2.8318158e+2, -129743.414, -344068.06, -4543.1978, 0.0048483512, -0.02946161, -129647.15, 35170.293, 0.0, 10.01001, 9.981634 
2.0523615e+2, 2.9316303e+2, -18194.795, -242099.42, -3663.2747, -0.002545365, -0.02870145, -18134.877, 48864.633, 0.0, 10.011047, 9.981401 
2.052593e+2, 3.0314782e+2, 95136.72, -84084.14, -2607.286, -0.004660122, -0.028594097, 95174.64, 95174.64, 0.0, 10.012111, 9.988359 
2.0528255e+2, 3.131363e+2, 112652.27, -73628.086, -3595.1956, 0.0034967512, -0.032850705, 112721.63, 112721.63, 0.0, 10.013229, 9.988538 
2.1484298e+2, 1.2328205e+2, -1801693.6, -1731733.3, 4334.162, -0.0036857713, -0.031378128, -1731465.8, 367.1115, 0.0, 9.99298, 10.002243 
2.1486706e+2, 1.3328242e+2, -1700005.8, -1654715.6, -103.06302, 0.0041919462, -0.024370074, -1654715.4, -20886.025, 0.0, 9.994221, 10.000211 
2.148909e+2, 1.4328188e+2, -1595061.3, -1568400.6, -460.84354, -0.001143485, -0.034195505, -1568392.8, -32558.01, 0.0, 9.995345, 9.998862 
2.1491492e+2, 1.5328074e+2, -1483723.0, -1464331.5, 120.05121, -0.002329812, -0.032971166, -1464330.8, -26484.795, 0.0, 9.996267, 9.998822 
2.1493882e+2, 1.6327846e+2, -1387913.0, -1393471.8, -742.92834, -0.0022769745, -0.030882906, -1387815.4, -47947.254, 0.0, 9.997249, 9.996495 
2.1496266e+2, 1.7327487e+2, -1274579.1, -1289499.0, -987.41113, 0.00092532544, -0.028264232, -1274514.1, -32610.717, 0.0, 9.998354, 9.99636 
2.149864e+2, 1.8327017e+2, -1176215.5, -1216189.3, -1704.4838, 0.0018248257, -0.027464658, -1176142.9, -32193.559, 0.0, 9.999453, 9.994142 
2.1501008e+2, 1.9326416e+2, -1063034.0, -1112078.0, -1446.6388, -0.0016619713, -0.033685103, -1062991.4, -16983.035, 0.0, 10.00054, 9.994026 
2.150337e+2, 2.032571e+2, -965671.1, -1039940.7, -2027.1553, -0.0024791218, -0.03449396, -965615.9, -17538.34, 0.0, 10.0016, 9.991746 
2.1505727e+2, 2.1324879e+2, -853742.2, -936626.0, -2210.6665, 0.002030542, -0.027126782, -853683.25, -3524.3694, 0.0, 10.00261, 9.991615 
2.1508084e+2, 2.2323938e+2, -756508.7, -864138.8, -2068.5356, 0.0027072255, -0.023880959, -756468.94, -4217.774, 0.0, 10.003641, 9.989372 
2.151044e+2, 2.3322856e+2, -643643.7, -760312.25, -2228.2153, -0.0041441177, -0.03174128, -643601.1, 10756.0, 0.0, 10.004714, 9.989246 
2.1512802e+2, 2.4321674e+2, -545731.7, -686917.44, -2175.9622, -0.005833238, -0.034819942, -545698.2, 10774.839, 0.0, 10.005764, 9.987056 
2.1515171e+2, 2.5320375e+2, -433775.13, -583394.75, -1655.341, 0.002791474, -0.030521456, -433756.8, 24843.623, 0.0, 10.00677, 9.986943 
2.1517546e+2, 2.631896e+2, -336865.66, -511872.47, -776.2848, 0.0056954897, -0.027559511, -336862.22, 23876.615, 0.0, 10.00781, 9.984629 
2.1519917e+2, 2.7317408e+2, -223603.06, -407956.66, -1543.9583, -0.0031030546, -0.031269293, -223590.13, 39300.863, 0.0, 10.008917, 9.984494 
2.152231e+2, 2.831573e+2, -128712.73, -341772.38, -678.06494, -0.0060837516, -0.032494377, -128710.57, 36345.027, 0.0, 10.010002, 9.981792 
2.1524727e+2, 2.9313895e+2, -16599.21, -238647.19, 120.326996, 0.0037673763, -0.0313078, -16599.146, 50636.137, 0.0, 10.011042, 9.981638 
2.1527153e+2, 3.0312386e+2, 94236.695, -85851.586, 1393.8717, 0.0065640844, -0.02940949, 94247.484, 94247.484, 0.0, 10.012106, 9.988237 
2.152957e+2, 3.131122e+2, 111151.51, -76653.15, 542.27734, -0.005503749, -0.029654399, 111153.07, 111153.07, 0.0, 10.013226, 9.98833 
2.248361e+2, 1.2325715e+2, -1798045.9, -1729907.0, -524.99426, -0.0012884301, -0.030556815, -1729903.0, 2173.9275, 0.0, 9.993222, 10.002241 
2.2486122e+2, 1.3325745e+2, -1700876.1, -1655780.4, -4104.724, 0.0015174755, -0.025360968, -1655409.8, -21335.719, 0.0, 9.9941845, 10.000151 
2.2488616e+2, 1.432569e+2, -1597199.0, -1569664.9, -4102.6655, -0.0008876299, -0.031578347, -1569066.5, -32987.043, 0.0, 9.995206, 9.998839 
2.2491123e+2, 1.5325569e+2, -1482533.0, -1463936.6, -4175.949, -0.0012574755, -0.033536818, -1463042.0, -24950.71, 0.0, 9.996352, 9.998802 
2.2493617e+2, 1.6325338e+2, -1384994.0, -1392495.9, -5173.4766, -0.0011101684, -0.03296764, -1382354.8, -42240.953, 0.0, 9.997461, 9.996452 
2.2496107e+2, 1.7324975e+2, -1272630.3, -1289088.6, -5034.328, 0.00077342574, -0.028381435, -1271212.4, -29063.02, 0.0, 9.998505, 9.996309 
2.2498588e+2, 1.8324505e+2, -1175368.3, -1216029.3, -5776.369, 0.0013585634, -0.02649604, -1174563.6, -30367.947, 0.0, 9.999518, 9.994115 
2.2501059e+2, 1.93239e+2, -1063987.3, -1112758.1, -6024.2817, -0.00096276717, -0.033232506, -1063254.1, -16999.23, 0.0, 10.000481, 9.994003 
2.2503525e+2, 2.0323192e+2, -967276.1, -1040796.0, -6695.1846, -0.0014286665, -0.034234617, -966671.4, -18347.068, 0.0, 10.00149, 9.991736 
2.2505987e+2, 2.132236e+2, -853897.5, -936800.75, -6617.1865, 0.0014385047, -0.026819706, -853372.6, -2966.8655, 0.0, 10.002601, 9.991602 
2.2508447e+2, 2.2321418e+2, -756302.5, -864243.8, -6329.1016, 0.0017509406, -0.023898704, -755932.7, -3434.3972, 0.0, 10.00366, 9.98935 
2.2510907e+2, 2.3320332e+2, -645062.1, -761264.2, -6240.843, -0.0032216785, -0.032245655, -644727.94, 9876.619, 0.0, 10.004624, 9.989219 
2.2513375e+2, 2.4319148e+2, -547335.1, -687329.9, -6143.832, -0.004075755, -0.035392642, -547066.0, 9654.429, 0.0, 10.005635, 9.987084 
2.2515848e+2, 2.5317854e+2, -433861.72, -582978.4, -6497.5166, 0.0028601626, -0.03056968, -433579.13, 25268.32, 0.0, 10.006741, 9.9869795 
2.2518326e+2, 2.6316443e+2, -336865.8, -512157.5, -5770.4453, 0.0049356692, -0.027322726, -336676.06, 24309.678, 0.0, 10.007818, 9.984598 
2.2520804e+2, 2.7314883e+2, -225040.81, -409134.0, -5371.855, -0.0026974927, -0.030688878, -224884.2, 38254.13, 0.0, 10.008835, 9.9844475 
2.2523302e+2, 2.8313202e+2, -130757.43, -342527.1, -4255.1406, -0.005234788, -0.032043643, -130671.96, 34631.16, 0.0, 10.009847, 9.981811 
2.252582e+2, 2.931137e+2, -18982.36, -239411.92, -4881.8555, 0.0027624913, -0.03188529, -18874.295, 48608.293, 0.0, 10.010855, 9.98167 
2.2528352e+2, 3.0309865e+2, 91984.41, -86221.56, -3542.219, 0.005485038, -0.030482905, 92054.79, 92054.79, 0.0, 10.011915, 9.988297 
2.2530887e+2, 3.1308708e+2, 109423.75, -76703.55, -2494.909, -0.00281343, -0.029997023, 109457.19, 109457.19, 0.0, 10.013067, 9.988398 
2.3482937e+2, 1.2323099e+2, -1797243.0, -1728093.9, 3034.3755, 0.002121344, -0.03168259, -1727961.0, 4372.4946, 0.0, 9.993216, 10.002365 
2.3485537e+2, 1.3323136e+2, -1700326.1, -1654426.4, -542.8979, -0.0033945173, -0.02887496, -1654420.0, -20090.111, 0.0, 9.994176, 10.000243 
2.3488134e+2, 1.432309e+2, -1597754.4, -1570610.9, 73.68858, -0.0032658638, -0.02836745, -1570610.8, -34276.367, 0.0, 9.995196, 9.998777 
2.3490761e+2, 1.5322961e+2, -1483289.3, -1465397.6, 169.79773, 0.0015556042, -0.029191898, -1465396.1, -27049.133, 0.0, 9.996346, 9.998703 
2.3493369e+2, 1.6322722e+2, -1385060.3, -1392666.3, -1183.2225, 0.0027253984, -0.030297356, -1384880.4, -44510.117, 0.0, 9.997463, 9.996437 
2.3495956e+2, 1.7322353e+2, -1272587.3, -1289013.5, -1083.6409, -0.0020346125, -0.03246377, -1272516.0, -30109.56, 0.0, 9.998506, 9.99631 
2.3498535e+2, 1.8321878e+2, -1175824.9, -1216966.4, -2089.2588, -0.0036828043, -0.031271137, -1175719.0, -31265.97, 0.0, 9.999517, 9.994049 
2.3501109e+2, 1.9321275e+2, -1064563.1, -1113957.1, -2377.9739, 0.00082357693, -0.026908219, -1064449.0, -17936.855, 0.0, 10.000481, 9.993919 
2.3503678e+2, 2.0320565e+2, -967184.56, -1040670.75, -2625.198, 0.0021693131, -0.02563157, -967090.9, -18509.143, 0.0, 10.0014925, 9.991739 
2.3506242e+2, 2.1319722e+2, -853729.7, -936439.94, -2430.2146, -0.0028714868, -0.03314535, -853658.3, -2993.982, 0.0, 10.002599, 9.991624 
2.3508808e+2, 2.2318774e+2, -756210.1, -864008.75, -2625.473, -0.0038858326, -0.0354647, -756146.25, -3389.1348, 0.0, 10.003658, 9.989365 
2.3511377e+2, 2.3317705e+2, -644990.75, -761090.25, -2633.2, 0.003102564, -0.02983034, -644931.06, 9930.891, 0.0, 10.004622, 9.989229 
2.3513946e+2, 2.4316525e+2, -547789.5, -688251.3, -2125.5012, 0.004990263, -0.026538288, -547757.3, 9220.189, 0.0, 10.005634, 9.987019 
2.3516515e+2, 2.5315213e+2, -434488.75, -584163.7, -2367.5063, -0.003407711, -0.030950831, -434451.3, 24654.885, 0.0, 10.006735, 9.986898 
2.3519096e+2, 2.6313797e+2, -336414.78, -511053.9, -1952.4475, -0.006261645, -0.03222065, -336392.97, 24852.072, 0.0, 10.007811, 9.984675 
2.3521693e+2, 2.7312255e+2, -224341.53, -407562.34, -1630.0194, 0.0026121647, -0.03022957, -224327.03, 39069.03, 0.0, 10.008829, 9.984555 
2.3524298e+2, 2.8310576e+2, -131500.44, -343996.72, -572.91547, 0.0050854604, -0.02844505, -131498.89, 34061.44, 0.0, 10.009843, 9.9817095 
2.3526898e+2, 2.930873e+2, -20078.285, -241632.0, -1172.7883, -0.0053528864, -0.030412814, -20072.076, 47669.39, 0.0, 10.010853, 9.981516 
2.3529533e+2, 3.0307224e+2, 93550.91, -82891.6, 605.3802, -0.007326585, -0.031630754, 93552.984, 93552.984, 0.0, 10.011912, 9.988524 
2.3532206e+2, 3.130609e+2, 111575.77, -72165.38, 1700.9069, 0.008258551, -0.03419017, 111591.516, 111591.516, 0.0, 10.013066, 9.988706 
2.4482256e+2, 1.23203896e+2, -1797931.9, -1728431.6, -295.14285, 0.003334297, -0.030041175, -1728430.4, 4168.5654, 0.0, 9.993161, 10.002364 
2.4484959e+2, 1.332042e+2, -1697867.0, -1653235.3, -4562.4043, -0.005086392, -0.032578837, -1652773.6, -18177.754, 0.0, 9.994336, 10.00024 
2.448767e+2, 1.4320378e+2, -1594171.5, -1569389.9, -4348.8335, -0.0009270512, -0.026768222, -1568648.9, -32048.748, 0.0, 9.995458, 9.998726 
2.4490403e+2, 1.5320243e+2, -1481920.3, -1465399.6, -3994.9807, 0.0019572088, -0.027808418, -1464484.3, -25870.89, 0.0, 9.996465, 9.998639 
2.4493113e+2, 1.6319998e+2, -1385272.5, -1393116.8, -5445.123, 0.0020769474, -0.029421553, -1382484.0, -41846.7, 0.0, 9.997458, 9.996403 
2.4495804e+2, 1.7319624e+2, -1273640.9, -1289839.0, -5682.06, -0.0019344841, -0.03237695, -1271846.5, -29172.678, 0.0, 9.998443, 9.996279 
2.4498485e+2, 1.8319146e+2, -1176671.4, -1217517.0, -6624.1494, -0.0029659334, -0.03161146, -1175623.9, -30903.24, 0.0, 9.999462, 9.994032 
2.4501161e+2, 1.9318542e+2, -1063524.4, -1113577.3, -6380.935, 0.0011476156, -0.027220177, -1062723.6, -15943.82, 0.0, 10.000552, 9.993904 
2.4503833e+2, 2.0317832e+2, -965655.75, -1040116.25, -6326.2354, 0.0023659072, -0.025939725, -965122.06, -16272.429, 0.0, 10.0016, 9.99172 
2.4506502e+2, 2.1316984e+2, -854243.25, -936923.94, -6482.096, -0.0023233884, -0.033422302, -853738.2, -2805.661, 0.0, 10.002569, 9.9916 
2.450917e+2, 2.2316037e+2, -757452.44, -864569.94, -6956.661, -0.0031592646, -0.035576355, -757002.56, -3977.1868, 0.0, 10.003567, 9.989365 
2.451184e+2, 2.3314968e+2, -644828.44, -760943.4, -7022.9844, 0.0032110172, -0.0297838, -644405.25, 10724.985, 0.0, 10.004627, 9.989231 
2.4514511e+2, 2.4313788e+2, -547749.56, -688666.8, -6396.332, 0.004891424, -0.026371345, -547459.9, 9786.035, 0.0, 10.0056505, 9.986977 
2.4517183e+2, 2.5312468e+2, -436676.63, -585807.4, -6454.9106, -0.0031048846, -0.03070503, -436397.75, 22977.35, 0.0, 10.006606, 9.986842 
2.4519868e+2, 2.6311052e+2, -339032.8, -511775.97, -5890.916, -0.0056334524, -0.032014523, -338832.16, 22681.953, 0.0, 10.007603, 9.98472 
2.452257e+2, 2.7309516e+2, -225851.17, -407501.84, -5835.482, 0.002813224, -0.030702064, -225663.9, 38000.633, 0.0, 10.008686, 9.984622 
2.4525277e+2, 2.8307843e+2, -132829.89, -344797.06, -4782.814, 0.0052830013, -0.029371789, -132722.03, 33106.465, 0.0, 10.009755, 9.98169 
2.452798e+2, 2.9305992e+2, -21252.195, -242588.83, -4633.3516, -0.0041598463, -0.030947393, -21155.244, 46854.727, 0.0, 10.010784, 9.981479 
2.4530719e+2, 3.0304483e+2, 92316.0, -83467.12, -2730.8235, -0.006076131, -0.031663537, 92358.414, 92358.414, 0.0, 10.01182, 9.988524 
2.4533501e+2, 3.1303352e+2, 108934.57, -73348.26, -3637.4841, 0.0070934733, -0.033558607, 109007.13, 109007.13, 0.0, 10.012873, 9.988711 
2.548157e+2, 1.2317585e+2, -1799207.0, -1730723.6, 3685.3674, -0.00078721636, -0.025395459, -1730525.9, 2347.96, 0.0, 9.993148, 10.002212 
2.5484395e+2, 1.3317595e+2, -1698855.4, -1655002.5, -151.74852, -0.004498892, -0.036750536, -1655002.0, -20129.238, 0.0, 9.994326, 10.000122 
2.5487223e+2, 1.431755e+2, -1594493.3, -1569896.4, -500.68695, 0.0053052283, -0.026988428, -1569886.1, -33008.805, 0.0, 9.995451, 9.998692 
2.5490046e+2, 1.531741e+2, -1482092.1, -1465642.0, -213.41818, -0.0014225771, -0.02930941, -1465639.3, -26748.346, 0.0, 9.996459, 9.998623 
2.5492853e+2, 1.6317163e+2, -1385691.5, -1393950.3, -1727.5352, -0.0049584643, -0.030331813, -1385344.8, -44429.586, 0.0, 9.9974575, 9.996344 
2.549565e+2, 1.7316788e+2, -1274151.1, -1290851.4, -1947.4006, 0.00015467222, -0.02821678, -1273927.0, -30975.162, 0.0, 9.998442, 9.996207 
2.5498438e+2, 1.8316308e+2, -1176393.4, -1216949.8, -2567.6155, 0.0024450389, -0.02757091, -1176231.5, -31232.53, 0.0, 9.999462, 9.994068 
2.5501215e+2, 1.9315699e+2, -1063088.4, -1112680.1, -2238.4058, -0.0013222015, -0.03411248, -1062987.6, -15928.993, 0.0, 10.000551, 9.993963 
2.550399e+2, 2.0314986e+2, -965960.6, -1040756.7, -2603.3357, -0.00251655, -0.03525851, -965870.1, -16741.723, 0.0, 10.001601, 9.9916725 
2.5506762e+2, 2.1314147e+2, -854721.56, -937916.4, -2837.1055, 0.0016123004, -0.028005036, -854624.9, -3414.248, 0.0, 10.00257, 9.991529 
2.5509533e+2, 2.23132e+2, -757530.44, -864687.4, -3045.864, 0.0024875614, -0.024587309, -757443.9, -4140.433, 0.0, 10.003565, 9.989354 
2.5512296e+2, 2.3312117e+2, -644857.44, -760928.7, -3046.518, -0.0034121422, -0.0319647, -644777.56, 10631.98, 0.0, 10.004623, 9.98923 
2.5515068e+2, 2.431093e+2, -547944.3, -688977.56, -2782.7344, -0.0051265815, -0.034694847, -547889.44, 9636.399, 0.0, 10.005647, 9.986955 
2.5517848e+2, 2.5309616e+2, -436893.7, -586216.2, -2902.8403, 0.0023226216, -0.029925033, -436837.28, 22817.178, 0.0, 10.006604, 9.986813 
2.5520638e+2, 2.6308203e+2, -338899.5, -511467.3, -1969.1233, 0.005006407, -0.026943063, -338877.03, 22916.125, 0.0, 10.007601, 9.984739 
2.5523433e+2, 2.7306664e+2, -225750.02, -407126.16, -1832.2977, -0.0023722574, -0.031889606, -225731.52, 38212.41, 0.0, 10.008679, 9.984648 
2.5526243e+2, 2.8304988e+2, -132515.0, -343936.72, -988.5372, -0.00474276, -0.034099225, -132510.38, 33597.43, 0.0, 10.009746, 9.9817505 
2.552907e+2, 2.9303145e+2, -20820.521, -241618.75, -896.6172, 0.004444531, -0.033338115, -20816.879, 47471.53, 0.0, 10.010781, 9.981543 
2.5531915e+2, 3.030164e+2, 90911.41, -86375.65, 1064.9215, 0.0067320573, -0.030822549, 90917.805, 90917.805, 0.0, 10.01182, 9.988321 
2.5534776e+2, 3.1300485e+2, 106954.82, -77272.914, 278.1247, -0.0064254794, -0.028436208, 106955.24, 106955.24, 0.0, 10.012865, 9.988442 
2.648089e+2, 1.2314666e+2, -1797828.4, -1731521.8, -971.24304, -0.0004799139, -0.024411673, -1731507.5, 1652.3577, 0.0, 9.993299, 10.002077 
2.648383e+2, 1.3314667e+2, -1696847.1, -1654366.8, -3674.8867, -0.0055974843, -0.040260397, -1654051.1, -18891.467, 0.0, 9.99447, 10.000089 
2.6486772e+2, 1.4314623e+2, -1592913.8, -1569582.8, -4324.638, 0.007611511, -0.025179282, -1568806.9, -31642.803, 0.0, 9.995572, 9.998649 
2.6489693e+2, 1.5314476e+2, -1481627.3, -1465948.9, -4467.0137, -0.0011888148, -0.029290052, -1464765.5, -25587.162, 0.0, 9.99651, 9.99857 
2.64926e+2, 1.6314226e+2, -1385282.3, -1393863.9, -5814.7417, -0.0056931116, -0.031510245, -1382346.6, -41143.547, 0.0, 9.997485, 9.99633 
2.64955e+2, 1.731385e+2, -1272363.4, -1290017.3, -5568.4385, 0.0007996663, -0.028740827, -1270753.8, -27513.898, 0.0, 9.998559, 9.9962015 
2.6498392e+2, 1.8313368e+2, -1174656.4, -1216501.1, -6122.099, 0.0037766746, -0.027598625, -1173779.1, -28492.031, 0.0, 9.999592, 9.99403 
2.6501268e+2, 1.9312753e+2, -1063408.0, -1113362.0, -6587.4385, -0.0013946432, -0.03393456, -1062554.0, -15206.844, 0.0, 10.000548, 9.993911 
2.6504144e+2, 2.0312038e+2, -967347.6, -1041709.56, -7481.5806, -0.0031256836, -0.034942217, -966602.4, -17185.016, 0.0, 10.001513, 9.991645 
2.6507017e+2, 2.1311197e+2, -855783.9, -938703.94, -7438.2227, 0.002022897, -0.027639082, -855121.94, -3622.1, 0.0, 10.002503, 9.991502 
2.6509887e+2, 2.2310248e+2, -758329.0, -865070.6, -7225.651, 0.0034506267, -0.024177784, -757842.06, -4249.2607, 0.0, 10.003505, 9.989351 
2.6512754e+2, 2.3309164e+2, -646238.5, -761555.0, -7164.851, -0.0031900317, -0.031493083, -645795.0, 9903.8545, 0.0, 10.004521, 9.989231 
2.6515624e+2, 2.4307977e+2, -549088.44, -689367.8, -6842.0317, -0.0050278855, -0.03459427, -548755.5, 9059.644, 0.0, 10.005556, 9.986965 
2.651851e+2, 2.5306666e+2, -436420.78, -585814.94, -6677.7813, 0.0027146742, -0.031163802, -436122.9, 23820.879, 0.0, 10.006623, 9.986825 
2.6521403e+2, 2.630525e+2, -338546.1, -511513.84, -5758.5684, 0.005363892, -0.028432816, -338354.6, 23727.887, 0.0, 10.007629, 9.984716 
2.6524293e+2, 2.730371e+2, -228431.64, -408746.22, -6051.5933, -0.0026343467, -0.03126066, -228228.77, 36004.63, 0.0, 10.008504, 9.984615 
2.6527202e+2, 2.8302035e+2, -136201.39, -345600.66, -5094.152, -0.004782682, -0.032471437, -136077.55, 30319.809, 0.0, 10.009481, 9.981758 
2.6530144e+2, 2.9300192e+2, -22052.258, -242020.88, -5233.725, 0.00541742, -0.033081263, -21927.8, 46650.156, 0.0, 10.010682, 9.981557 
2.6533094e+2, 3.029869e+2, 90525.664, -85834.5, -3341.9707, 0.007603776, -0.031122746, 90588.97, 90588.97, 0.0, 10.011756, 9.988384 
2.6536044e+2, 3.1297544e+2, 102954.4, -78324.79, -2048.2813, -0.0076500154, -0.027238647, 102977.54, 102977.54, 0.0, 10.012545, 9.988521 
2.7480224e+2, 1.2311627e+2, -1798837.8, -1733351.9, 2566.109, 0.0019493385, -0.027042823, -1733251.5, 206.03409, 0.0, 9.993291, 10.001952 
2.7483276e+2, 1.3311632e+2, -1696654.3, -1653684.8, 735.2656, -0.009226146, -0.04292418, -1653672.3, -18215.086, 0.0, 9.994458, 10.000136 
2.748633e+2, 1.4311594e+2, -1593443.3, -1570451.6, -679.9865, 0.0046410603, -0.02136934, -1570431.6, -32970.71, 0.0, 9.995563, 9.998591 
2.7489346e+2, 1.5311438e+2, -1482312.0, -1467208.8, -963.3306, 0.0010825908, -0.027861312, -1467147.5, -27671.361, 0.0, 9.996502, 9.998486 
2.7492353e+2, 1.631118e+2, -1385066.3, -1393370.1, -1882.0077, -0.0018708062, -0.032977153, -1384659.6, -43158.137, 0.0, 9.997482, 9.996362 
2.7495354e+2, 1.7310806e+2, -1271999.1, -1289173.5, -1483.4756, -0.0009102533, -0.033964187, -1271872.0, -28333.95, 0.0, 9.998555, 9.996258 
2.7498347e+2, 1.8310323e+2, -1175462.3, -1218115.0, -2417.1113, -0.00022629341, -0.031653047, -1175325.6, -29740.416, 0.0, 9.99959, 9.993917 
2.7501324e+2, 1.9309705e+2, -1064483.8, -1115568.9, -2956.9158, -0.0003746314, -0.026988227, -1064313.1, -16667.248, 0.0, 10.000546, 9.993759 
2.7504298e+2, 2.0308983e+2, -967402.25, -1041861.9, -3760.288, -0.00081828295, -0.025265122, -967212.9, -17496.047, 0.0, 10.001515, 9.99163 
2.7507263e+2, 2.1308129e+2, -855600.2, -938400.75, -3686.3396, -0.0019813739, -0.032235283, -855436.4, -3635.9548, 0.0, 10.002507, 9.991517 
2.7510232e+2, 2.2307177e+2, -758254.9, -864955.06, -3424.2085, -0.0015780155, -0.034196526, -758145.06, -4251.3154, 0.0, 10.003507, 9.989355 
2.7513212e+2, 2.3306106e+2, -646249.2, -761523.0, -3351.0532, 0.0022617253, -0.028532103, -646151.9, 9846.755, 0.0, 10.004519, 9.989231 
2.751619e+2, 2.4304926e+2, -548809.25, -688689.3, -2901.194, 0.0030816006, -0.026285572, -548749.1, 9365.073, 0.0, 10.005551, 9.987011 
2.751917e+2, 2.5303608e+2, -436140.3, -585068.4, -2702.429, -0.0024125045, -0.034350645, -436091.3, 24152.082, 0.0, 10.006618, 9.986876 
2.7522153e+2, 2.630219e+2, -339055.22, -512378.47, -2421.6848, -0.004661734, -0.03637479, -339021.4, 23361.063, 0.0, 10.007622, 9.984658 
2.7525148e+2, 2.730065e+2, -229039.16, -409967.3, -2857.7559, 0.00040866082, -0.029161494, -228994.03, 35539.26, 0.0, 10.008503, 9.9845295 
2.752816e+2, 2.8298974e+2, -136431.75, -346082.8, -918.20184, 0.0028264131, -0.024753911, -136427.73, 30269.676, 0.0, 10.00948, 9.981722 
2.7531204e+2, 2.9297125e+2, -22365.135, -242455.42, -776.8937, -0.0007790626, -0.030324746, -22362.393, 46516.4, 0.0, 10.010673, 9.981528 
2.7534258e+2, 3.0295622e+2, 92384.945, -81661.83, -196.87775, -0.0025029187, -0.03246638, 92385.164, 92385.164, 0.0, 10.011744, 9.988673 
2.7537307e+2, 3.1294516e+2, 105583.25, -72923.66, 689.2326, -0.000013527949, -0.029587938, 105585.914, 105585.914, 0.0, 10.01255, 9.988885 
2.8479564e+2, 1.2308488e+2, -1796276.9, -1733770.3, -1903.874, 0.0042591305, -0.026842985, -1733712.4, 52.85366, 0.0, 9.993527, 10.001803 
2.8482723e+2, 1.3308497e+2, -1694626.5, -1651954.1, -2868.0952, -0.010298583, -0.04378123, -1651762.3, -15997.795, 0.0, 9.9945545, 10.000201 
2.8485885e+2, 1.4308463e+2, -1593018.5, -1570454.0, -4562.3457, 0.0035236317, -0.019786907, -1569566.5, -31798.781, 0.0, 9.995594, 9.9985695 
2.8489006e+2, 1.5308301e+2, -1480749.5, -1466919.4, -4682.17, 0.0023337735, -0.02798552, -1465483.4, -25699.79, 0.0, 9.996623, 9.998441 
2.8492108e+2, 1.6308036e+2, -1383387.6, -1393231.5, -5641.268, 0.000006820616, -0.033932827, -1380823.0, -39013.56, 0.0, 9.997621, 9.996298 
2.8495207e+2, 1.7307657e+2, -1272344.0, -1290094.8, -6218.292, -0.0020606506, -0.033959746, -1270382.4, -26535.791, 0.0, 9.998558, 9.996187 
2.84983e+2, 1.8307172e+2, -1176500.5, -1218742.6, -7487.0435, -0.0021856495, -0.030987479, -1175212.8, -29318.523, 0.0, 9.999518, 9.993903 
2.850138e+2, 1.9306554e+2, -1064574.4, -1115630.5, -6952.8857, 0.000892121, -0.026290445, -1063644.5, -15689.612, 0.0, 10.000537, 9.9937525 
2.8504452e+2, 2.0305829e+2, -966816.8, -1041645.44, -6983.043, 0.0017748504, -0.025054023, -966170.7, -16144.767, 0.0, 10.001552, 9.991621 
2.8507516e+2, 2.1304971e+2, -854662.3, -938070.75, -7090.599, -0.002386615, -0.033214953, -854063.9, -1954.063, 0.0, 10.00257, 9.991503 
2.8510582e+2, 2.2304016e+2, -757625.4, -865068.4, -7171.009, -0.0030918147, -0.03565888, -757148.9, -2945.495, 0.0, 10.003561, 9.989315 
2.8513664e+2, 2.3302943e+2, -646833.3, -762327.9, -7490.3984, 0.0031463173, -0.029132111, -646349.56, 9959.121, 0.0, 10.004496, 9.9891815 
2.8516743e+2, 2.4301761e+2, -550482.06, -689422.44, -7258.278, 0.0049496833, -0.025789427, -550103.94, 8320.494, 0.0, 10.005427, 9.987015 
2.8519815e+2, 2.5300446e+2, -439666.97, -586588.06, -7317.6973, -0.0025627797, -0.032300804, -439303.38, 21249.969, 0.0, 10.006361, 9.986889 
2.8522903e+2, 2.6299027e+2, -342546.2, -513895.94, -6863.568, -0.0052749407, -0.03440188, -342271.7, 20420.605, 0.0, 10.007368, 9.984671 
2.8526e+2, 2.7297485e+2, -228515.39, -409589.3, -6622.3413, 0.0020192738, -0.03044751, -228273.52, 36569.8, 0.0, 10.008527, 9.984538 
2.8529114e+2, 2.8295812e+2, -135170.92, -345303.88, -4293.8315, 0.004491176, -0.027278833, -135083.22, 31924.219, 0.0, 10.009555, 9.981733 
2.8532252e+2, 2.9293966e+2, -27564.525, -244788.06, -3941.6924, -0.0033393807, -0.029380566, -27493.023, 41695.36, 0.0, 10.010301, 9.981542 
2.8535405e+2, 3.0292472e+2, 85643.875, -84089.18, -3372.2769, -0.0053538405, -0.030388698, 85710.85, 85710.85, 0.0, 10.011238, 9.988743 
2.8538567e+2, 3.1291363e+2, 106823.31, -71361.59, -4264.5234, 0.0044611185, -0.031725306, 106925.32, 106925.32, 0.0, 10.012587, 9.988967 
2.947892e+2, 1.2305245e+2, -1797905.1, -1736700.6, 990.9051, 0.0028166228, -0.024263613, -1736684.5, -2601.4194, 0.0, 9.993512, 10.001609 
2.948218e+2, 1.3305256e+2, -1694329.9, -1650929.5, 986.17206, -0.009315567, -0.04288469, -1650907.0, -14824.992, 0.0, 9.994537, 10.000276 
2.9485446e+2, 1.4305227e+2, -1593122.9, -1570327.4, -728.683, 0.0036348433, -0.020778978, -1570304.0, -32219.125, 0.0, 9.99558, 9.998582 
2.9488665e+2, 1.5305063e+2, -1480910.1, -1467020.9, -813.4666, 0.0011477369, -0.029616691, -1466973.4, -26872.54, 0.0, 9.996613, 9.998436 
2.9491872e+2, 1.6304792e+2, -1384586.5, -1395587.6, -2065.9023, -0.0019709, -0.034297418, -1384211.4, -42084.047, 0.0, 9.997616, 9.996137 
2.9495066e+2, 1.73044e+2, -1273851.9, -1293054.6, -2668.7593, -0.003551173, -0.02875468, -1273487.9, -29321.924, 0.0, 9.998551, 9.995986 
2.9498252e+2, 1.8303905e+2, -1175948.9, -1217530.6, -3684.5513, -0.003129306, -0.025504457, -1175624.9, -29410.42, 0.0, 9.999516, 9.993983 
2.9501435e+2, 1.9303289e+2, -1063493.9, -1113408.6, -3067.5066, 0.0010511694, -0.03179073, -1063306.1, -15031.456, 0.0, 10.000536, 9.993902 
2.9504612e+2, 2.030257e+2, -966766.56, -1041639.75, -3127.83, 0.0028447057, -0.034298975, -966636.1, -16291.034, 0.0, 10.001556, 9.991615 
2.9507777e+2, 2.1301721e+2, -854942.5, -938680.3, -3239.5005, -0.0004521155, -0.030829525, -854817.3, -2389.029, 0.0, 10.002572, 9.991457 
2.951094e+2, 2.2300765e+2, -758253.25, -866295.9, -3609.7805, -0.0024752251, -0.028783193, -758132.8, -3610.6848, 0.0, 10.003558, 9.989229 
2.9514107e+2, 2.329967e+2, -647554.4, -763733.1, -3980.6306, -0.001410569, -0.033113558, -647418.2, 9211.184, 0.0, 10.004492, 9.989084 
2.9517278e+2, 2.4298479e+2, -550719.8, -689899.06, -3773.3853, -0.0003380187, -0.03271522, -550617.56, 8128.539, 0.0, 10.005427, 9.986978 
2.9520455e+2, 2.5297174e+2, -439802.72, -586840.3, -3832.5645, 0.0008188359, -0.025485013, -439702.9, 21171.156, 0.0, 10.006361, 9.986868 
2.9523644e+2, 2.629576e+2, -342049.97, -512760.97, -2747.1292, 0.0015157484, -0.023023268, -342005.75, 21006.611, 0.0, 10.007363, 9.984746 
2.952685e+2, 2.7294213e+2, -227944.92, -408209.6, -2336.955, 0.0011646254, -0.03478368, -227914.64, 37249.223, 0.0, 10.008518, 9.9846325 
2.9530066e+2, 2.8292543e+2, -134911.13, -344535.53, -1336.2421, -0.00036176556, -0.039202586, -134902.61, 32425.234, 0.0, 10.009546, 9.981787 
2.953328e+2, 2.9290712e+2, -27274.402, -244133.78, -1331.2781, -0.0036454983, -0.030139284, -27266.23, 42241.09, 0.0, 10.010301, 9.981583 
2.9536533e+2, 3.0289218e+2, 84855.81, -85755.64, 1079.2059, -0.0032230222, -0.025191944, 84862.64, 84862.64, 0.0, 10.011239, 9.988624 
2.953983e+2, 3.128809e+2, 105575.62, -73773.86, 743.8554, 0.004008303, -0.03358799, 105578.7, 105578.7, 0.0, 10.012579, 9.9888 
3.0478278e+2, 1.2301902e+2, -1796601.6, -1738337.8, -2906.0168, 0.00245124, -0.025278794, -1738193.3, -3782.6047, 0.0, 9.9936905, 10.001406 
3.0481645e+2, 1.3301918e+2, -1691105.3, -1648956.9, -2512.3584, -0.007126405, -0.040998995, -1648807.6, -12398.522, 0.0, 9.99473, 10.000311 
3.048501e+2, 1.4301886e+2, -1590869.0, -1569528.0, -4804.3354, 0.0033508544, -0.022692133, -1568496.4, -30084.072, 0.0, 9.99574, 9.998551 
3.0488327e+2, 1.530172e+2, -1480438.3, -1467296.0, -5318.729, 0.00041738962, -0.029598769, -1465413.3, -24984.75, 0.0, 9.996662, 9.998385 
3.049163e+2, 1.6301447e+2, -1384666.9, -1395895.3, -6340.0356, -0.002205423, -0.033216882, -1381812.5, -39357.28, 0.0, 9.997615, 9.996109 
3.0494925e+2, 1.730105e+2, -1272373.3, -1292564.6, -5683.5215, -0.0018166228, -0.028343588, -1270883.4, -26389.158, 0.0, 9.998656, 9.995962 
3.0498213e+2, 1.8300551e+2, -1174210.5, -1217208.5, -6355.908, -0.0009915315, -0.025968777, -1173290.6, -26747.547, 0.0, 9.99965, 9.993935 
3.0501488e+2, 1.929993e+2, -1063549.5, -1114058.3, -7266.6377, -0.00022873968, -0.03324093, -1062524.8, -13920.897, 0.0, 10.000553, 9.993842 
3.050476e+2, 2.0299207e+2, -967951.7, -1042411.3, -8193.008, 0.00050908537, -0.03544157, -967060.8, -16386.063, 0.0, 10.001476, 9.991595 
3.050803e+2, 2.1298358e+2, -856668.75, -939639.9, -8080.461, 0.0009655066, -0.02933851, -855889.1, -3131.2053, 0.0, 10.002452, 9.991444 
3.0511296e+2, 2.2297402e+2, -759913.25, -867100.4, -8111.1787, 0.0005297371, -0.026251998, -759302.9, -4451.178, 0.0, 10.003438, 9.989225 
3.0514553e+2, 2.3296304e+2, -648234.9, -764065.6, -7822.239, -0.0020926162, -0.03299413, -647709.0, 9250.207, 0.0, 10.00444, 9.989079 
3.051782e+2, 2.429511e+2, -550725.0, -690132.5, -7166.5044, -0.0024795493, -0.034326468, -550357.56, 8718.65, 0.0, 10.005429, 9.986957 
3.0521095e+2, 2.5293803e+2, -439320.94, -586948.6, -7324.6343, 0.0019114101, -0.027254384, -438958.44, 22246.016, 0.0, 10.006401, 9.9868355 
3.0524385e+2, 2.629239e+2, -342050.16, -512566.84, -6196.0923, 0.003996319, -0.02403401, -341825.3, 21517.525, 0.0, 10.007349, 9.98476 
3.052769e+2, 2.7290848e+2, -231606.22, -409642.9, -6210.1885, 0.0006372543, -0.03299561, -231389.86, 34103.98, 0.0, 10.0082445, 9.98466 
3.0531e+2, 2.8289175e+2, -139924.9, -347055.1, -5959.4155, -0.0017897327, -0.036698394, -139753.6, 27904.041, 0.0, 10.009199, 9.981775 
3.0534312e+2, 2.9287338e+2, -27787.477, -244617.84, -6502.135, -0.0015420644, -0.03167556, -27592.67, 42245.008, 0.0, 10.010269, 9.981559 
3.0537662e+2, 3.0285847e+2, 85865.52, -85000.82, -3299.7837, -0.0000040661275, -0.028412975, 85929.23, 85929.23, 0.0, 10.011289, 9.988645 
3.0541065e+2, 3.1284723e+2, 100337.04, -75897.82, -2219.6948, 0.0025394016, -0.03339158, 100364.984, 100364.984, 0.0, 10.012194, 9.988833 
3.1477645e+2, 1.2298463e+2, -1798493.9, -1741890.6, 238.32623, -0.00028394343, -0.029968422, -1741889.6, -7142.1504, 0.0000000000000806617, 9.993681, 10.001164 
3.1481123e+2, 1.329848e+2, -1691575.9, -1649534.0, 1371.3109, -0.0045129345, -0.037876032, -1649489.3, -12743.352, 0.00000000000005243424, 9.994715, 10.000274 
3.1484583e+2, 1.4298438e+2, -1591588.4, -1570715.9, -1327.0435, 0.0013199621, -0.02580969, -1570631.8, -31881.605, 0.000000000000028332263, 9.995728, 9.998473 
3.1487995e+2, 1.5298268e+2, -1481223.8, -1468650.1, -1894.142, -0.0012649846, -0.027951453, -1468371.0, -27604.14, 0.000000000000012064798, 9.99665, 9.998296 
3.149139e+2, 1.6297995e+2, -1383989.1, -1394363.4, -2540.4297, -0.0025401893, -0.030583972, -1383400.5, -40606.895, 0.000000000000003878589, 9.997609, 9.996213 
3.1494796e+2, 1.7297606e+2, -1271355.9, -1290345.5, -1732.0134, 0.0018573513, -0.032779943, -1271199.3, -26367.56, 0.0000000000000009180906, 9.998651, 9.996113 
3.1498182e+2, 1.8297108e+2, -1175493.0, -1219780.9, -2830.493, 0.002952716, -0.032403085, -1175312.9, -28432.35, 0.00000000000000015841597, 9.999647, 9.993758 
3.150154e+2, 1.9296469e+2, -1065441.0, -1117885.4, -3815.9392, -0.0038591595, -0.03081561, -1065164.8, -16221.654, 0.000000000000000019869674, 10.000549, 9.993581 
3.1504902e+2, 2.0295732e+2, -968240.1, -1042974.5, -4513.978, -0.006437621, -0.028801482, -967968.44, -16953.074, 0.0000000000000000018107616, 10.001475, 9.991553 
3.1508273e+2, 2.1294878e+2, -856516.44, -939370.56, -4350.6396, 0.0008247812, -0.028721845, -856288.56, -3189.5923, 0.0000000000000000001198895, 10.002455, 9.991457 
3.1511644e+2, 2.2293922e+2, -759324.3, -865888.4, -4361.104, 0.00434475, -0.028119022, -759146.2, -3953.5527, 0.0000000000000000000057675156, 10.003438, 9.9893055 
3.1515e+2, 2.3292841e+2, -647623.44, -762707.0, -4044.5488, -0.00059623487, -0.029213766, -647481.44, 9817.15, 0.0, 10.004436, 9.989171 
3.151836e+2, 2.4291652e+2, -550903.3, -690371.06, -3531.5947, -0.003215169, -0.030849975, -550813.94, 8601.172, 0.0, 10.0054245, 9.986938 
3.1521735e+2, 2.5290325e+2, -439723.16, -587655.7, -3727.0166, -0.00006182277, -0.036908, -439629.3, 21915.668, 0.0, 10.006396, 9.986786 
3.1525117e+2, 2.6288906e+2, -342377.66, -513131.34, -2857.7607, 0.0014221107, -0.036619097, -342329.84, 21354.273, 0.0, 10.007344, 9.98472 
3.1528512e+2, 2.7287382e+2, -231908.39, -410166.63, -2914.9778, -0.00107556, -0.026049213, -231860.73, 33973.066, 0.0, 10.008242, 9.984622 
3.153192e+2, 2.8285712e+2, -140467.36, -348057.84, -2171.7454, -0.0019400088, -0.021266747, -140444.64, 27552.736, 0.0, 10.009194, 9.981705 
3.1535342e+2, 2.928385e+2, -28314.896, -245757.8, -2565.033, 0.001805387, -0.03369147, -28284.643, 41895.14, 0.0, 10.010272, 9.981474 
3.1538793e+2, 3.0282345e+2, 86899.15, -82923.03, 100.33012, 0.0029877964, -0.039068148, 86899.21, 86899.21, 0.0, 10.011292, 9.988781 
3.154228e+2, 3.1281257e+2, 101511.164, -73074.75, 1041.5139, -0.0030901444, -0.031248711, 101517.375, 101517.375, 0.0, 10.012178, 9.989031 
3.247703e+2, 1.2294935e+2, -1793680.5, -1741093.0, -3547.7737, -0.0013563813, -0.031917702, -1740854.8, -5761.4316, 0.0000000000023454196, 9.994067, 10.001024 
3.2480603e+2, 1.3294955e+2, -1689844.8, -1649050.0, -2094.5288, -0.0008753487, -0.032617427, -1648942.8, -11851.239, 0.0000000000015241749, 9.994842, 10.000238 
3.2484153e+2, 1.4294897e+2, -1592220.9, -1571664.6, -4500.3745, -0.00030186106, -0.030448705, -1570722.6, -31625.443, 0.0000000000008233425, 9.995703, 9.998415 
3.2487664e+2, 1.5294723e+2, -1479542.6, -1468567.4, -4849.403, -0.0014247418, -0.029005885, -1466731.8, -25617.629, 0.00000000000035051592, 9.996788, 9.998229 
3.2491162e+2, 1.6294447e+2, -1381415.5, -1393543.6, -6033.612, -0.0018141678, -0.029529596, -1378925.1, -35783.992, 0.00000000000011265747, 9.997795, 9.996172 
3.2494658e+2, 1.7294054e+2, -1271617.0, -1290858.0, -6730.222, 0.0015764276, -0.033298418, -1269496.6, -24316.809, 0.000000000000026661206, 9.998641, 9.996075 
3.2498142e+2, 1.829355e+2, -1176931.5, -1220829.8, -8155.2554, 0.0025396866, -0.03333396, -1175465.4, -28236.404, 0.000000000000004599458, 9.999557, 9.993723 
3.25016e+2, 1.929291e+2, -1064324.4, -1117718.1, -7491.824, -0.0027816908, -0.02958893, -1063293.1, -14001.369, 0.0000000000000005767878, 10.000636, 9.993543 
3.2505056e+2, 2.029217e+2, -966004.7, -1042376.2, -7401.0073, -0.0048305006, -0.02726139, -965294.06, -13929.679, 0.000000000000000052554126, 10.00164, 9.991509 
3.250852e+2, 2.1291308e+2, -856297.2, -939817.2, -7750.6025, 0.0002736753, -0.03063076, -855584.0, -2135.2188, 0.0000000000000000034789587, 10.002485, 9.991406 
3.2511982e+2, 2.2290349e+2, -760295.5, -866312.94, -8060.6445, 0.0031244066, -0.031121673, -759686.1, -4143.3364, 0.00000000000000000016733108, 10.003363, 9.989306 
3.251544e+2, 2.3289272e+2, -649164.4, -763284.2, -8272.574, 0.0007636448, -0.028332738, -648567.8, 9080.543, 0.0, 10.004315, 9.989183 
3.25189e+2, 2.4288085e+2, -552935.75, -691395.75, -8018.7017, -0.000746088, -0.028069954, -552472.94, 7291.709, 0.0, 10.00528, 9.986931 
3.2522365e+2, 2.5286755e+2, -441527.47, -588632.6, -7940.3555, -0.0003434575, -0.0367969, -441100.1, 20794.754, 0.0, 10.006269, 9.9867735 
3.2525843e+2, 2.6285332e+2, -343997.38, -513819.16, -7021.3696, -0.00021794284, -0.03825325, -343707.56, 20326.607, 0.0, 10.007222, 9.984726 
3.2529327e+2, 2.7283812e+2, -234056.89, -411089.28, -6891.909, -0.0012508514, -0.026972905, -233789.0, 32394.725, 0.0, 10.008081, 9.984631 
3.2532832e+2, 2.8282142e+2, -142779.44, -349124.25, -5010.4316, -0.00072142424, -0.021465266, -142657.84, 25689.316, 0.0, 10.009025, 9.981708 
3.2536364e+2, 2.9280278e+2, -29877.38, -246478.56, -4646.6245, 0.0038815439, -0.032808393, -29777.744, 40751.742, 0.0, 10.010154, 9.981478 
3.2539916e+2, 3.027878e+2, 85341.1, -82990.875, -2839.5732, 0.0047915084, -0.037412398, 85388.99, 85388.99, 0.0, 10.011147, 9.988843 
3.2543474e+2, 3.1277698e+2, 96960.51, -74394.86, -3059.8074, -0.00439307, -0.029737482, 97015.125, 97015.125, 0.0, 10.011817, 9.98911 
3.3476436e+2, 1.22913145e+2, -1794181.0, -1741671.1, -742.40265, -0.0034892238, -0.031182978, -1741660.6, -6212.427, 0.00000000005167391, 9.994051, 10.000988 
3.348009e+2, 1.3291338e+2, -1690395.6, -1649648.0, 657.2937, 0.0030393433, -0.024920948, -1649637.4, -12191.424, 0.00000000003357157, 9.994821, 10.000204 
3.3483723e+2, 1.4291263e+2, -1592778.3, -1572373.5, -729.62, -0.0026329432, -0.03669152, -1572347.5, -32894.19, 0.000000000018130754, 9.995685, 9.998372 
3.3487344e+2, 1.5291087e+2, -1480039.4, -1469278.1, -758.6354, -0.0011175624, -0.03276495, -1469224.9, -27754.47, 0.000000000007717037, 9.996775, 9.998183 
3.349094e+2, 1.6290803e+2, -1382870.6, -1396402.9, -2717.5361, -0.0013771132, -0.029907014, -1382345.3, -38847.11, 0.0000000000024798213, 9.99779, 9.995976 
3.349452e+2, 1.729039e+2, -1273379.8, -1294317.5, -3564.1404, -0.0035752794, -0.029856157, -1272789.8, -27250.895, 0.00000000000058676854, 9.998634, 9.995839 
3.349809e+2, 1.8289879e+2, -1176249.0, -1219290.0, -4247.1147, -0.0033091786, -0.02872325, -1175834.0, -28245.02, 0.00000000000010121049, 9.999551, 9.993827 
3.350167e+2, 1.9289254e+2, -1062989.8, -1114893.4, -3338.0168, 0.0016735051, -0.029524514, -1062775.9, -13125.643, 0.000000000000012690283, 10.000631, 9.993734 
3.350523e+2, 2.0288518e+2, -966364.4, -1043114.94, -4001.1316, 0.003467473, -0.030751435, -966156.3, -14434.151, 0.0000000000000011561161, 10.001641, 9.991455 
3.350877e+2, 2.1287645e+2, -857115.44, -941521.94, -4550.4067, -0.0018426481, -0.035059974, -856870.8, -3063.0527, 0.000000000000000076521916, 10.002487, 9.991285 
3.3512312e+2, 2.2286676e+2, -760814.06, -867370.75, -4549.5444, -0.004259369, -0.035118148, -760620.2, -4717.4272, 0.0000000000000000036800285, 10.003363, 9.98923 
3.351587e+2, 2.3285595e+2, -649617.06, -764204.4, -4672.569, 0.0006746089, -0.029882073, -649426.9, 8581.956, 0.0, 10.004315, 9.989118 
3.3519435e+2, 2.4284407e+2, -552916.44, -691283.0, -4356.3003, 0.003154802, -0.025841713, -552779.44, 7345.756, 0.0, 10.005278, 9.986936 
3.3522996e+2, 2.5283086e+2, -441429.03, -588277.6, -4246.7373, -0.00032251488, -0.028013239, -441306.34, 20948.295, 0.0, 10.006264, 9.986796 
3.3526564e+2, 2.6281667e+2, -343794.1, -513218.2, -3760.9297, -0.0026679356, -0.029852264, -343710.66, 20683.006, 0.0, 10.007215, 9.984767 
3.3530137e+2, 2.728013e+2, -233733.6, -410407.88, -3766.1577, -0.0017494253, -0.034848392, -233653.34, 32890.832, 0.0, 10.008082, 9.984673 
3.3533737e+2, 2.8278464e+2, -142258.14, -348028.44, -1132.5966, 0.000011279085, -0.03556975, -142251.92, 26455.693, 0.0, 10.009025, 9.981778 
3.3537382e+2, 2.9276627e+2, -29561.443, -245451.47, -538.14124, 0.0041338773, -0.029798012, -29560.102, 41327.62, 0.0, 10.010139, 9.981549 
3.354103e+2, 3.0275136e+2, 84990.56, -83310.21, -146.9441, 0.00424762, -0.025364077, 84990.69, 84990.69, 0.0, 10.011133, 9.988823 
3.354466e+2, 3.1274042e+2, 96985.54, -74821.875, -739.18866, -0.005896126, -0.028635383, 96988.73, 96988.73, 0.0, 10.011841, 9.989064 
3.4475842e+2, 1.22876026e+2, -1792947.0, -1740824.3, -3487.5427, -0.0035248704, -0.033242434, -1740592.0, -4779.931, 0.00000000081250584, 9.994111, 10.001014 
3.4479588e+2, 1.3287622e+2, -1687720.3, -1649821.1, -3424.3608, 0.0064762505, -0.019012097, -1649514.3, -11704.183, 0.00000000052773436, 9.995056, 10.0000725 
3.44833e+2, 1.4287527e+2, -1589107.0, -1571331.3, -4979.6836, -0.005762079, -0.039607443, -1570031.3, -30211.951, 0.00000000028494548, 9.995959, 9.9983015 
3.4487024e+2, 1.5287349e+2, -1479208.1, -1469433.6, -5020.491, -0.0006905084, -0.033580706, -1467314.4, -25477.62, 0.0000000001212577, 9.996848, 9.998129 
3.4490722e+2, 1.628706e+2, -1383457.9, -1397498.5, -6841.9487, 0.0009607232, -0.02927623, -1380675.4, -36810.27, 0.00000000003895854, 9.997777, 9.995902 
3.449439e+2, 1.7286637e+2, -1271187.3, -1294137.6, -6651.647, -0.003709209, -0.02945666, -1269398.8, -23492.268, 0.000000000009216846, 9.998814, 9.995759 
3.4498057e+2, 1.8286121e+2, -1173114.8, -1218091.6, -7064.7183, -0.004490017, -0.02885767, -1172031.1, -24073.938, 0.0000000000015895714, 9.999771, 9.993795 
3.4501728e+2, 1.9285491e+2, -1064212.5, -1115709.0, -7747.484, 0.0023741305, -0.030562654, -1063072.1, -13053.2705, 0.00000000000019928297, 10.00055, 9.993711 
3.4505385e+2, 2.0284756e+2, -969664.2, -1044735.25, -9172.297, 0.0051494674, -0.03165654, -968559.75, -16468.836, 0.0000000000000181529, 10.001409, 9.991449 
3.4509015e+2, 2.1283884e+2, -857325.7, -941638.1, -8884.708, -0.0016909137, -0.033880737, -856399.6, -2223.2336, 0.0000000000000012013685, 10.002465, 9.991281 
3.4512654e+2, 2.2282912e+2, -759533.1, -867262.5, -8388.955, -0.0048341756, -0.03358071, -758883.8, -2612.3005, 0.00000000000000005776772, 10.003464, 9.989183 
3.45163e+2, 2.328182e+2, -649893.9, -765011.4, -8531.144, 0.0005642801, -0.032083377, -649265.06, 9113.44, 0.0, 10.004317, 9.989056 
3.4519956e+2, 2.428063e+2, -554044.56, -691576.1, -7989.594, 0.0033783028, -0.029148733, -553581.94, 6913.3076, 0.0, 10.00518, 9.986958 
3.4523612e+2, 2.527932e+2, -443814.78, -588957.56, -7766.0723, 0.00003504925, -0.02604902, -443400.44, 19223.412, 0.0, 10.00607, 9.986838 
3.4527278e+2, 2.6277906e+2, -346627.78, -514538.47, -7200.349, -0.0015826994, -0.025609732, -346319.6, 18442.824, 0.0, 10.007009, 9.984771 
3.4530944e+2, 2.727636e+2, -234118.77, -410687.6, -7526.4077, 0.00057332654, -0.035554472, -233798.53, 33114.91, 0.0, 10.008051, 9.984662 
3.4534636e+2, 2.827469e+2, -142421.06, -347792.03, -5361.1353, 0.0016008499, -0.03870003, -142281.2, 26795.838, 0.0, 10.008992, 9.981804 
3.4538367e+2, 2.9272863e+2, -35770.195, -248020.58, -5135.816, 0.00037990438, -0.029115077, -35645.996, 35610.484, 0.0, 10.009684, 9.981586 
3.454211e+2, 3.0271384e+2, 77507.164, -85924.52, -4148.3022, 0.00003914793, -0.022978388, 77612.38, 77612.38, 0.0, 10.010566, 9.98891 
3.4545854e+2, 3.1270292e+2, 98425.85, -72959.14, -3688.1428, 0.0004970807, -0.029636484, 98505.19, 98505.19, 0.0, 10.011881, 9.989167 
3.5475257e+2, 1.22838035e+2, -1792918.8, -1740124.6, 775.9924, -0.003833339, -0.03689519, -1740113.3, -3928.931, 0.000000009469599, 9.994086, 10.001067 
3.5479096e+2, 1.3283807e+2, -1689933.5, -1653824.5, -76.9047, 0.008552961, -0.015017115, -1653824.4, -15640.453, 0.0000000061492664, 9.995034, 9.999806 
3.548289e+2, 1.4283688e+2, -1590095.5, -1573005.0, -1739.4757, -0.011074498, -0.039101053, -1572829.8, -32634.195, 0.0000000033196064, 9.995945, 9.998191 
3.548671e+2, 1.5283506e+2, -1479878.6, -1470480.6, -1756.3556, -0.0013623657, -0.03153072, -1470163.1, -27949.518, 0.0000000014124153, 9.996835, 9.998061 
3.5490507e+2, 1.6283214e+2, -1383242.0, -1396821.4, -3124.783, 0.003688387, -0.027490253, -1382557.5, -38315.44, 0.0000000004537274, 9.997767, 9.995949 
3.5494274e+2, 1.7282794e+2, -1270741.3, -1293038.8, -2722.428, -0.000119786135, -0.03217961, -1270413.6, -24130.572, 0.00000000010733056, 9.998806, 9.995833 
3.5498035e+2, 1.8282272e+2, -1174374.0, -1220559.5, -3909.4128, -0.0024627983, -0.033790912, -1174045.5, -25711.23, 0.00000000001850869, 9.999765, 9.993628 
3.5501778e+2, 1.9281623e+2, -1065919.6, -1119155.6, -4758.8027, -0.0018453969, -0.03271932, -1065497.6, -15099.697, 0.0000000000023202033, 10.000547, 9.993475 
3.550552e+2, 2.0280878e+2, -969373.44, -1044172.06, -5350.778, -0.0013178622, -0.030009491, -968992.6, -16521.643, 0.00000000000021133044, 10.0014105, 9.991483 
3.550926e+2, 2.128002e+2, -856508.1, -939993.3, -4829.6123, -0.0007296927, -0.027170861, -856229.7, -1674.669, 0.000000000000013984623, 10.002467, 9.991388 
3.5513005e+2, 2.2279055e+2, -759679.7, -867514.2, -5011.8784, -0.0005088758, -0.02667885, -759447.25, -2797.7288, 0.0000000000000006723836, 10.003461, 9.989164 
3.5516733e+2, 2.3277949e+2, -650326.4, -765838.2, -5308.3286, -0.0010607996, -0.034972575, -650082.94, 8674.916, 0.0, 10.004313, 9.988997 
3.5520467e+2, 2.427675e+2, -553859.8, -691119.9, -4681.446, -0.0013168784, -0.037520185, -553700.3, 7174.9756, 0.0, 10.005178, 9.986985 
3.552422e+2, 2.5275448e+2, -443522.88, -588237.5, -4464.7114, -0.00039091567, -0.030141981, -443385.25, 19617.822, 0.0, 10.006067, 9.986885 
3.5527977e+2, 2.6274037e+2, -346899.28, -514941.9, -3517.2627, 0.0010746525, -0.02514776, -346825.7, 18315.393, 0.0, 10.007002, 9.984742 
3.5531753e+2, 2.72725e+2, -234606.3, -411491.16, -3680.9788, 0.003727464, -0.0301523, -234529.73, 32762.488, 0.0, 10.008042, 9.984607 
3.5535538e+2, 2.8270826e+2, -142627.52, -348032.75, -2607.0798, 0.0021173945, -0.032142848, -142594.42, 26861.74, 0.0, 10.0089855, 9.981786 
3.553933e+2, 2.9268986e+2, -35708.418, -248013.95, -2716.2673, -0.008081308, -0.030310243, -35673.67, 35962.676, 0.0, 10.009693, 9.981578 
3.5543162e+2, 3.0267507e+2, 78905.484, -83209.7, 117.63688, -0.009072561, -0.028984988, 78905.57, 78905.57, 0.0, 10.010575, 9.989086 
3.554705e+2, 3.1266442e+2, 99875.945, -69662.195, 1077.162, 0.010230037, -0.03242701, 99882.79, 99882.79, 0.0, 10.011869, 9.989393 
3.6474678e+2, 1.2279915e+2, -1787092.9, -1735901.0, -1655.6549, -0.0048591034, -0.037869263, -1735847.5, 717.8833, 0.00000008268434, 9.994412, 10.001186 
3.6478606e+2, 1.3279895e+2, -1689577.4, -1656887.9, -3986.4485, 0.011313527, -0.0155611215, -1656408.8, -17841.385, 0.00000005368276, 9.995193, 9.999515 
3.6482486e+2, 1.4279754e+2, -1589835.9, -1573956.6, -5388.2173, -0.011808425, -0.039041795, -1572301.0, -31719.889, 0.000000028975498, 9.995999, 9.998094 
3.64864e+2, 1.5279566e+2, -1477353.8, -1469734.4, -5149.429, -0.002123329, -0.031285733, -1467138.6, -24539.033, 0.000000012326782, 9.997017, 9.998016 
3.649029e+2, 1.6279271e+2, -1380143.1, -1395633.4, -6700.12, 0.003601835, -0.027306935, -1377647.3, -33018.863, 0.000000003959453, 9.997983, 9.995917 
3.649416e+2, 1.7278849e+2, -1270480.8, -1293224.9, -7165.5547, 0.0014056019, -0.03254734, -1268411.5, -21741.713, 0.0000000009365381, 9.998829, 9.995802 
3.649801e+2, 1.8278322e+2, -1175514.6, -1221720.9, -8776.796, -0.0005944054, -0.034403015, -1173903.6, -25182.262, 0.0000000001614897, 9.999706, 9.993569 
3.6501837e+2, 1.9277665e+2, -1064451.3, -1119142.4, -8491.066, -0.0028615813, -0.033173766, -1063163.3, -12377.574, 0.000000000020242613, 10.00067, 9.993409 
3.6505666e+2, 2.0276916e+2, -966922.2, -1043267.2, -8297.503, -0.003281985, -0.030316139, -966030.75, -13171.572, 0.0000000000018436379, 10.00158, 9.991457 
3.6509505e+2, 2.1276057e+2, -857884.3, -940875.7, -8668.499, 0.00047871357, -0.027422378, -856988.56, -2045.1471, 0.00000000000012199398, 10.002374, 9.991367 
3.651334e+2, 2.2275092e+2, -762932.44, -868958.8, -9332.403, 0.0022289532, -0.026507465, -762117.25, -5079.2524, 0.0000000000000058651187, 10.003225, 9.989172 
3.6517158e+2, 2.3273988e+2, -651516.25, -766213.8, -9146.127, -0.00086675223, -0.033297364, -650791.5, 8354.583, 0.0, 10.004216, 9.989012 
3.6520985e+2, 2.427279e+2, -554020.0, -691292.94, -8443.642, -0.0023913349, -0.036104955, -553502.6, 7760.8623, 0.0, 10.005162, 9.986976 
3.652482e+2, 2.527148e+2, -444555.4, -588955.06, -8724.352, -0.00014194407, -0.033507597, -444030.2, 19361.625, 0.0, 10.005997, 9.986863 
3.652867e+2, 2.627007e+2, -348815.5, -515626.56, -7538.973, 0.002034037, -0.030124025, -348475.47, 17054.553, 0.0, 10.006853, 9.984759 
3.6532542e+2, 2.7268535e+2, -238371.05, -412924.84, -7102.7686, 0.0033563206, -0.028654248, -238082.52, 29597.83, 0.0, 10.007759, 9.984639 
3.653642e+2, 2.826687e+2, -146932.83, -350092.44, -5991.5317, 0.0016542275, -0.027724247, -146756.28, 23087.543, 0.0, 10.008679, 9.981788 
3.6540297e+2, 2.9265025e+2, -36730.77, -248585.8, -6222.421, -0.006118042, -0.031833038, -36548.168, 35476.395, 0.0, 10.009616, 9.981571 
3.6544216e+2, 3.0263543e+2, 78788.92, -83091.97, -2931.5369, -0.0063552796, -0.033417217, 78841.99, 78841.99, 0.0, 10.010549, 9.989101 
3.6548215e+2, 3.1262484e+2, 94367.82, -72112.97, -3138.0842, 0.008627165, -0.032504566, 94426.95, 94426.95, 0.0, 10.011471, 9.989409 
3.7474117e+2, 1.2275938e+2, -1786205.4, -1733324.5, 2514.8, -0.008347126, -0.034277752, -1733205.1, 3749.9568, 0.0000005532481, 9.994382, 10.00137 
3.747813e+2, 1.3275883e+2, -1692251.1, -1661745.3, -1415.9857, 0.014062857, -0.02122054, -1661679.8, -22719.158, 0.00000035914545, 9.995169, 9.999192 
3.748209e+2, 1.4275724e+2, -1590739.1, -1575323.3, -1929.8389, -0.00908324, -0.03957844, -1575085.3, -34109.254, 0.00000019382824, 9.995979, 9.998006 
3.74861e+2, 1.527553e+2, -1477721.5, -1470092.5, -1351.0149, -0.0040658703, -0.033023015, -1469860.4, -26865.434, 0.00000008245099, 9.997001, 9.997995 
3.7490085e+2, 1.627523e+2, -1381103.8, -1397388.8, -3461.079, -0.0007820514, -0.028964257, -1380398.8, -35374.434, 0.000000026481976, 9.997975, 9.995798 
3.749404e+2, 1.7274797e+2, -1271629.9, -1295400.8, -4023.0964, -0.00024381363, -0.030720968, -1270967.5, -23900.611, 0.0000000062635124, 9.998822, 9.995653 
3.749798e+2, 1.8274266e+2, -1175190.9, -1220915.4, -5268.4106, -0.00015685125, -0.03069042, -1174591.8, -25472.787, 0.0000000010799891, 9.9997, 9.993624 
3.7501907e+2, 1.9273618e+2, -1063696.3, -1117526.3, -4774.7017, -0.0019837806, -0.03183912, -1063276.0, -12093.631, 0.00000000013537126, 10.000668, 9.993516 
3.750583e+2, 2.0272867e+2, -967545.56, -1044583.44, -5126.7603, -0.0025597387, -0.032401703, -967205.9, -13949.986, 0.000000000012328863, 10.001583, 9.991363 
3.7509745e+2, 2.1271989e+2, -858939.4, -943085.25, -5645.3594, 0.0005290741, -0.034273673, -858562.4, -3220.3271, 0.0000000000008157841, 10.002376, 9.991212 
3.751366e+2, 2.2271016e+2, -762674.6, -868430.4, -5736.6104, 0.0018332895, -0.032751974, -762364.4, -4927.0063, 0.00000000000003921943, 10.003226, 9.989203 
3.751758e+2, 2.3269932e+2, -650972.0, -764976.1, -5377.6865, -0.0008051727, -0.027164059, -650718.9, 8824.73, 0.000000000000000000006929764, 10.00421, 9.989096 
3.7521502e+2, 2.4268742e+2, -554468.6, -691999.44, -5196.744, -0.0023534398, -0.025224574, -554272.5, 7387.734, 0.0000000000000000000002423796, 10.005154, 9.986928 
3.752542e+2, 2.526741e+2, -445232.03, -590237.6, -5627.719, -0.00087152247, -0.036101516, -445013.97, 18776.658, 0.0, 10.005993, 9.9867735 
3.7529355e+2, 2.626599e+2, -348424.06, -514770.97, -4255.9873, -0.00038607183, -0.03978988, -348315.25, 17614.514, 0.0, 10.006852, 9.984814 
3.7533313e+2, 2.7264476e+2, -237777.78, -411492.4, -3785.1787, -0.0021257598, -0.030595109, -237695.34, 30383.133, 0.0, 10.007751, 9.9847355 
3.7537286e+2, 2.8262818e+2, -146904.06, -349775.06, -2651.123, -0.0019991754, -0.025258098, -146869.42, 23371.451, 0.0, 10.00867, 9.98181 
3.754127e+2, 2.926097e+2, -36723.992, -248617.9, -2877.1758, 0.0036617534, -0.033534016, -36684.934, 35737.06, 0.0, 10.009621, 9.981561 
3.7545288e+2, 3.0259478e+2, 78020.99, -84883.17, 361.5202, 0.005104016, -0.036648776, 78021.8, 78021.8, 0.0, 10.01056, 9.988967 
3.754935e+2, 3.1258407e+2, 93037.42, -74579.54, 226.58234, -0.0056535522, -0.030383155, 93037.73, 93037.73, 0.0, 10.01146, 9.98924 
3.8473552e+2, 1.227185e+2, -1785188.3, -1730909.6, -526.592, -0.008052299, -0.03186656, -1730904.5, 6451.167, 0.0000029192024, 9.994352, 10.001542 
3.847766e+2, 1.3271771e+2, -1690131.9, -1662854.9, -5385.935, 0.013783278, -0.027397504, -1661830.0, -22466.568, 0.0000018948215, 9.995393, 9.999002 
3.8481703e+2, 1.4271607e+2, -1586120.6, -1574240.5, -5242.037, -0.0069790445, -0.036447875, -1572258.3, -30878.723, 0.0000010225369, 9.996335, 9.9979 
3.848581e+2, 1.5271401e+2, -1475435.6, -1469841.1, -5036.708, -0.0032046207, -0.03284358, -1466877.0, -23477.559, 0.0000004349407, 9.997186, 9.997915 
3.8489887e+2, 1.6271092e+2, -1380670.9, -1397868.5, -7541.599, -0.0010186885, -0.030901164, -1377832.3, -32402.375, 0.00000013969013, 9.998025, 9.995734 
3.8493925e+2, 1.7270654e+2, -1271000.9, -1295750.9, -7617.2734, -0.0007769705, -0.030637952, -1268844.4, -21371.541, 0.000000033038678, 9.998883, 9.995594 
3.8497952e+2, 1.827012e+2, -1174395.9, -1220729.9, -8437.616, -0.0002556726, -0.029209044, -1172907.1, -23381.97, 0.0000000056966374, 9.999754, 9.993604 
3.8501975e+2, 1.9269471e+2, -1063797.6, -1117656.9, -8799.042, -0.0006076679, -0.030859375, -1062396.5, -10807.721, 0.0000000007140435, 10.000653, 9.993507 
3.8505983e+2, 2.0268717e+2, -968228.5, -1045260.44, -9852.0625, -0.000662488, -0.032211997, -966988.44, -13325.944, 0.00000000006503118, 10.001543, 9.991328 
3.8509983e+2, 2.1267833e+2, -858598.8, -943385.8, -9684.638, -0.000118350086, -0.03597243, -857506.7, -1757.459, 0.000000000004303039, 10.002411, 9.991167 
3.8513982e+2, 2.2266857e+2, -762112.0, -868101.2, -9128.767, 0.0002653081, -0.03519906, -761331.5, -3486.6372, 0.00000000000020687176, 10.003252, 9.989208 
3.8517994e+2, 2.3265776e+2, -653137.6, -765869.44, -9229.682, 0.00006388069, -0.027905932, -652386.94, 7563.8975, 0.00000000000000000020104626, 10.004047, 9.989106 
3.8522005e+2, 2.4264589e+2, -558037.44, -693715.44, -9124.692, -0.00003004899, -0.024604484, -557426.5, 4640.794, 0.000000000000000000007029948, 10.004898, 9.986927 
3.8526016e+2, 2.526326e+2, -446677.94, -590997.25, -9035.563, 0.000069983835, -0.03415343, -446114.44, 18083.182, 0.0, 10.005885, 9.986768 
3.853004e+2, 2.6261836e+2, -348763.0, -514573.7, -7600.2534, -0.00059257034, -0.03769268, -348415.34, 17921.322, 0.0, 10.006803, 9.984847 
3.8534075e+2, 2.7260324e+2, -240532.92, -412345.72, -7575.785, -0.0033556698, -0.031349786, -240199.53, 28285.664, 0.0, 10.007531, 9.984779 
3.8538137e+2, 2.8258666e+2, -150949.58, -351712.75, -5961.042, -0.002896669, -0.027592655, -150772.75, 19874.707, 0.0, 10.008382, 9.981809 
3.8542226e+2, 2.925682e+2, -38172.95, -249460.25, -6084.8403, 0.006462254, -0.033687867, -37997.86, 34830.664, 0.0, 10.009516, 9.981548 
3.8546342e+2, 3.0255336e+2, 77430.06, -84201.87, -3375.5142, 0.009123808, -0.03528384, 77500.52, 77500.52, 0.0, 10.0104685, 9.989052 
3.8550466e+2, 3.1254277e+2, 86394.664, -76391.29, -2039.1409, -0.0076187584, -0.030205322, 86420.2, 86420.2, 0.0, 10.010933, 9.989367 
3.9472988e+2, 1.2267656e+2, -1784971.3, -1729493.0, 4296.053, -0.0068444596, -0.029694214, -1729162.4, 8604.399, 0.000012531762, 9.994312, 10.001652 
3.947719e+2, 1.3267563e+2, -1691126.1, -1664172.0, -1799.4246, 0.009057134, -0.033809535, -1664052.4, -24276.51, 0.0000081336, 9.995364, 9.998921 
3.948134e+2, 1.4267401e+2, -1587309.4, -1576236.8, -2126.8433, -0.0073406063, -0.029238693, -1575842.4, -34050.67, 0.0000043890395, 9.996317, 9.997768 
3.9485532e+2, 1.5267178e+2, -1476646.4, -1471966.3, -1966.6619, -0.00097412645, -0.030556982, -1471249.5, -27436.047, 0.0000018668253, 9.99717, 9.997774 
3.9489692e+2, 1.6266856e+2, -1380872.9, -1398066.3, -4451.3286, 0.0015912512, -0.03263669, -1379788.8, -33943.652, 0.0000005995586, 9.998017, 9.99572 
3.9493814e+2, 1.7266418e+2, -1270932.6, -1295417.9, -4412.925, -0.0016093471, -0.032436363, -1270161.5, -22273.625, 0.00000014180438, 9.998877, 9.995616 
3.9497927e+2, 1.8265882e+2, -1175144.8, -1222106.9, -5099.9736, -0.0028843405, -0.03031915, -1174597.3, -24656.88, 0.000000024450705, 9.999746, 9.993509 
3.9502043e+2, 1.9265223e+2, -1064773.1, -1119562.3, -5339.514, -0.00023449116, -0.030218927, -1064257.6, -12252.44, 0.0000000030648393, 10.000649, 9.993376 
3.9506143e+2, 2.0264465e+2, -968078.2, -1044895.56, -6508.555, 0.00052873674, -0.029710056, -967530.6, -13451.239, 0.00000000027913746, 10.001541, 9.99135 
3.9510223e+2, 2.1263587e+2, -858081.1, -942339.9, -6342.231, -0.0029672843, -0.032321442, -857606.44, -1441.0669, 0.00000000001847093, 10.002412, 9.991234 
3.9514306e+2, 2.2262613e+2, -762264.56, -868474.25, -6045.9194, -0.004231735, -0.03354128, -761921.5, -3660.693, 0.0000000000008880364, 10.003255, 9.989178 
3.9518398e+2, 2.3261517e+2, -653539.75, -766719.9, -6207.128, -0.0001611596, -0.03486441, -653200.3, 7167.8145, 0.000000000000000004402075, 10.004047, 9.989045 
3.95225e+2, 2.4260326e+2, -557841.3, -693247.06, -5582.818, 0.0023755694, -0.033175968, -557611.5, 4873.4897, 0.00000000000000000015389045, 10.004896, 9.986956 
3.9526606e+2, 2.5259012e+2, -446386.03, -590199.44, -5337.104, 0.0013636312, -0.028240634, -446188.22, 18425.361, 0.0, 10.005878, 9.98682 
3.9530718e+2, 2.6257604e+2, -348798.22, -514385.25, -4742.8657, -0.00031310527, -0.024833255, -348662.47, 18089.168, 0.0, 10.006792, 9.98486 
3.953483e+2, 2.725608e+2, -240590.77, -412399.03, -4982.4453, -0.002923656, -0.030942297, -240446.4, 28454.86, 0.0, 10.00753, 9.984772 
3.9538977e+2, 2.8254414e+2, -151148.44, -352075.66, -2191.035, -0.0033919397, -0.03416869, -151124.55, 19939.74, 0.0, 10.00838, 9.98178 
3.9543176e+2, 2.925257e+2, -38695.465, -250047.28, -1953.0154, 0.0024334963, -0.03254405, -38677.42, 34567.652, 0.0, 10.009496, 9.981511 
3.9547384e+2, 3.0251098e+2, 78975.945, -80408.32, -1249.7208, 0.0048211995, -0.029960549, 78985.74, 78985.74, 0.0, 10.0104475, 9.989317 
3.9551565e+2, 3.125007e+2, 89321.98, -70886.02, -670.53107, -0.004131721, -0.031291727, 89324.78, 89324.78, 0.0, 10.010963, 9.989724 
4.0472436e+2, 1.2263351e+2, -1782285.9, -1729753.9, 985.00146, -0.0030216565, -0.028557321, -1729735.4, 8453.221, 0.00004485904, 9.994551, 10.001509 
4.0476733e+2, 1.3263248e+2, -1687802.8, -1662760.3, -5839.5156, 0.0036725195, -0.039099, -1661465.5, -21266.87, 0.00002911354, 9.995589, 9.9988985 
4.048098e+2, 1.4263093e+2, -1584302.3, -1575302.8, -6290.3887, -0.0055604726, -0.024471732, -1572068.4, -29854.54, 0.000015709626, 9.996535, 9.997718 
4.0485254e+2, 1.5262863e+2, -1474791.8, -1471621.1, -5691.988, 0.00020682334, -0.028945394, -1467297.9, -23061.377, 0.000006681798, 9.997311, 9.997724 
4.0489498e+2, 1.6262533e+2, -1379590.8, -1397927.0, -7660.846, 0.0020608793, -0.033410646, -1376811.4, -30542.62, 0.0000021459712, 9.998116, 9.995676 
4.0493706e+2, 1.726209e+2, -1268986.8, -1294999.5, -8138.152, -0.0015010908, -0.03302768, -1266650.5, -18338.541, 0.00000050756734, 9.9990225, 9.995565 
4.0497905e+2, 1.826155e+2, -1173331.1, -1221677.4, -9248.002, -0.0028514625, -0.030886637, -1171622.5, -21257.514, 0.00000008752133, 9.999882, 9.993465 
4.05021e+2, 1.9260886e+2, -1065451.8, -1120375.6, -9023.943, -0.00012662682, -0.031354014, -1064007.1, -11576.967, 0.000000010971236, 10.000617, 9.993329 
4.0506288e+2, 2.0260125e+2, -969999.8, -1045826.25, -9666.818, 0.0009321129, -0.0304332, -968786.8, -14282.126, 0.0000000009993062, 10.0014, 9.991349 
4.0510458e+2, 2.1259251e+2, -859344.94, -942848.2, -9909.897, -0.0020015335, -0.030369246, -858184.94, -1594.6326, 0.00000000006613187, 10.002311, 9.991242 
4.051463e+2, 2.2258276e+2, -763052.56, -869133.0, -10102.371, -0.0030873436, -0.030799804, -762099.06, -3413.2761, 0.0000000000031798247, 10.003203, 9.989151 
4.0518802e+2, 2.3257174e+2, -653813.7, -767291.1, -10204.711, -0.00029621331, -0.03620108, -652903.3, 7890.505, 0.0000000000000000688154, 10.004039, 9.989004 
4.0522987e+2, 2.4255979e+2, -558038.5, -693017.06, -9213.147, 0.0014971024, -0.03654434, -557412.5, 5498.4995, 0.0000000000000000024051838, 10.004858, 9.986984 
4.052718e+2, 2.5254673e+2, -449336.78, -591085.75, -8978.348, 0.00050292915, -0.028267141, -448770.38, 16268.4795, 0.0, 10.005641, 9.98687 
4.0531385e+2, 2.625327e+2, -353110.16, -516445.5, -8441.331, 0.000076379, -0.02335329, -352675.06, 14501.389, 0.0, 10.006487, 9.98486 
4.0535584e+2, 2.7251738e+2, -241476.48, -412996.28, -8831.891, 0.0007933144, -0.032506395, -241022.9, 28303.607, 0.0, 10.007466, 9.984755 
4.0539813e+2, 2.8250074e+2, -151412.05, -351707.94, -5941.5537, 0.0004821909, -0.036739387, -151235.95, 20253.613, 0.0, 10.008329, 9.981825 
4.054409e+2, 2.924824e+2, -46948.887, -253310.66, -5105.697, -0.001432312, -0.030937696, -46822.64, 26846.729, 0.0, 10.008885, 9.981578 
4.0548384e+2, 3.0246776e+2, 68848.43, -84248.875, -3833.0266, -0.00088450825, -0.026820231, 68944.336, 68944.336, 0.0, 10.009692, 9.989413 
4.0552676e+2, 3.1245753e+2, 92368.0, -68324.37, -4811.6777, 0.0032026866, -0.033287227, 92511.945, 92511.945, 0.0, 10.011113, 9.989821 
4.1471896e+2, 1.22589365e+2, -1786119.0, -1736612.9, 4752.5825, 0.0014300259, -0.02841778, -1736160.8, 2460.3032, 0.0001357749, 9.994509, 10.001058 
4.1476285e+2, 1.3258828e+2, -1687925.0, -1662321.5, -2208.743, -0.003632607, -0.04297484, -1662132.4, -21500.553, 0.00008811505, 9.995563, 9.998935 
4.148064e+2, 1.4258683e+2, -1584319.8, -1574837.3, -3394.7427, -0.0028447846, -0.022499206, -1573747.3, -31101.158, 0.000047546542, 9.996514, 9.997755 
4.1484985e+2, 1.5258454e+2, -1474787.9, -1471119.0, -2929.755, -0.001086945, -0.028328627, -1469496.8, -24828.299, 0.000020223571, 9.997291, 9.997763 
4.1489306e+2, 1.6258122e+2, -1380406.6, -1399251.9, -4495.4336, -0.0014174484, -0.0335508, -1379389.1, -32688.213, 0.0000064954993, 9.998102, 9.995587 
4.149361e+2, 1.725767e+2, -1269990.6, -1296869.4, -4750.5044, -0.0016939061, -0.032497827, -1269175.8, -20430.451, 0.0000015364569, 9.999017, 9.995437 
4.1497898e+2, 1.8257122e+2, -1173342.8, -1221606.6, -6388.5195, -0.0016336746, -0.0306597, -1172511.4, -21712.402, 0.00000026496838, 9.999878, 9.993468 
4.1502163e+2, 1.9256456e+2, -1065171.1, -1119770.0, -6213.7246, -0.0019123164, -0.034197498, -1064472.9, -11608.685, 0.000000033220672, 10.000617, 9.993366 
4.1506428e+2, 2.0255697e+2, -970229.94, -1046337.1, -6338.599, -0.0015450029, -0.034269016, -969705.6, -14766.921, 0.0000000030265355, 10.001403, 9.991309 
4.1510692e+2, 2.125482e+2, -859731.06, -943717.2, -6389.437, 0.0007649568, -0.029792337, -859247.75, -2223.1917, 0.00000000020034616, 10.002314, 9.991178 
4.1514957e+2, 2.2253844e+2, -763219.06, -869468.0, -6874.4653, 0.001365948, -0.026844429, -762776.1, -3655.8342, 0.000000000009636878, 10.003204, 9.989123 
4.1519204e+2, 2.3252739e+2, -653926.4, -767488.94, -7032.2295, -0.0021776208, -0.032258563, -653492.6, 7735.8667, 0.0000000000000007946489, 10.004037, 9.988987 
4.1523466e+2, 2.4251541e+2, -557907.6, -692644.44, -6219.6084, -0.0046563167, -0.034703135, -557621.1, 5724.671, 0.000000000000000027769294, 10.004855, 9.987006 
4.152774e+2, 2.5250235e+2, -449184.88, -590607.1, -6059.581, -0.0037837839, -0.033172447, -448925.72, 16548.164, 0.0, 10.005635, 9.986901 
4.153203e+2, 2.6248828e+2, -353342.16, -516719.5, -4987.7554, -0.0012008388, -0.03153374, -353190.03, 14421.602, 0.0, 10.006479, 9.98484 
4.1536334e+2, 2.7247298e+2, -241945.0, -413623.8, -5226.6655, 0.004957513, -0.035629548, -241786.02, 27975.64, 0.0, 10.007453, 9.984714 
4.1540653e+2, 2.824564e+2, -150821.55, -350221.47, -3667.0928, 0.0056810305, -0.035401016, -150754.13, 21170.098, 0.0, 10.008321, 9.981925 
4.1544974e+2, 2.924382e+2, -45714.61, -251007.25, -3315.4875, -0.006408174, -0.028495293, -45661.08, 28441.41, 0.0, 10.008901, 9.981723 
4.1549346e+2, 3.0242363e+2, 68676.945, -85006.64, 496.2858, -0.009249472, -0.02548509, 68678.55, 68678.55, 0.0, 10.009712, 9.989344 
4.1553798e+2, 3.124132e+2, 91088.04, -70412.23, 398.6382, 0.010283934, -0.036781043, 91089.02, 91089.02, 0.0, 10.011092, 9.98968 
4.2471373e+2, 1.2254428e+2, -1781137.9, -1738844.1, 1303.3566, 0.004722376, -0.02717963, -1738804.0, 258.91766, 0.00035082738, 9.995039, 10.00064 
4.2475846e+2, 1.325433e+2, -1683238.6, -1657870.5, -4678.838, -0.01024888, -0.044170614, -1657035.0, -15962.359, 0.00022768496, 9.995772, 9.999131 
4.24803e+2, 1.4254194e+2, -1583858.8, -1574911.8, -5629.7607, 0.0037865848, -0.02377413, -1572194.5, -29108.68, 0.0001228659, 9.996549, 9.997728 
4.248472e+2, 1.5253958e+2, -1473400.4, -1471542.5, -6237.2324, 0.00016084225, -0.028741006, -1466165.4, -21056.3, 0.000052266085, 9.997424, 9.997662 
4.248912e+2, 1.6253619e+2, -1378246.3, -1398787.9, -8314.409, -0.0036837065, -0.03329901, -1375302.8, -28160.383, 0.00001678997, 9.998264, 9.995534 
4.2493516e+2, 1.7253162e+2, -1269675.6, -1297147.5, -8027.0283, -0.0012170009, -0.03235708, -1267502.1, -18315.107, 0.000003972505, 9.999044, 9.9953985 
4.2497885e+2, 1.825261e+2, -1173915.4, -1222302.3, -9547.514, 0.00073829293, -0.030559829, -1172099.6, -20858.443, 0.00000068530704, 9.999846, 9.993431 
4.250223e+2, 1.9251941e+2, -1063763.9, -1119513.1, -10033.375, -0.0011944929, -0.0339509, -1062013.0, -8706.414, 0.00000008596078, 10.00072, 9.993328 
4.2506573e+2, 2.0251176e+2, -968154.94, -1045589.0, -10459.242, -0.0018577602, -0.034354977, -966767.0, -11385.519, 0.000000007836224, 10.001544, 9.991285 
4.251092e+2, 2.1250297e+2, -860415.4, -944315.44, -10251.257, 0.0006863161, -0.03139755, -859180.94, -1713.1919, 0.0000000005191636, 10.00227, 9.991152 
4.251527e+2, 2.224932e+2, -765604.3, -870559.56, -10339.716, 0.0018194645, -0.02857158, -764595.4, -5031.8203, 0.000000000025000514, 10.003028, 9.989128 
4.2519602e+2, 2.324822e+2, -655982.4, -768421.06, -10346.291, -0.0011385697, -0.030333204, -655038.25, 6633.139, 0.0000000000000068380394, 10.003884, 9.988991 
4.2523947e+2, 2.4247023e+2, -559689.94, -693507.56, -9630.026, -0.0031812596, -0.031541623, -559000.44, 4788.1367, 0.00000000000000023892724, 10.004721, 9.987008 
4.2528298e+2, 2.524571e+2, -450903.1, -591560.4, -9866.858, -0.0032210057, -0.035344396, -450214.34, 15702.866, 0.0, 10.005512, 9.98689 
4.253267e+2, 2.6244304e+2, -355276.6, -517040.16, -8406.0205, -0.0012926214, -0.035980925, -354840.94, 13214.046, 0.0, 10.006307, 9.984897 
4.253706e+2, 2.7242786e+2, -246282.52, -414911.94, -7784.748, 0.0040375437, -0.03383887, -245923.89, 24279.871, 0.0, 10.007107, 9.984788 
4.2541468e+2, 2.8241134e+2, -155734.98, -352676.94, -6202.887, 0.0048123323, -0.031101719, -155539.81, 16825.86, 0.0, 10.0079775, 9.981917 
4.2545867e+2, 2.9239306e+2, -44924.293, -251050.3, -7234.2363, -0.0044918475, -0.031549767, -44670.71, 29874.217, 0.0, 10.008963, 9.981685 
4.2550325e+2, 3.0237845e+2, 70957.11, -83419.52, -3393.0513, -0.006023653, -0.031423263, 71031.65, 71031.65, 0.0, 10.009839, 9.989385 
4.255487e+2, 3.1236812e+2, 81691.734, -74098.48, -2108.632, 0.008933651, -0.033649564, 81720.27, 81720.27, 0.0, 10.0104, 9.989753 
4.3470877e+2, 1.2249826e+2, -1784481.1, -1744911.9, 3181.418, 0.0016496741, -0.027591545, -1744657.6, -5143.6714, 0.00078514614, 9.995008, 10.000238 
4.3475416e+2, 1.3249755e+2, -1681328.1, -1653084.4, -2155.8804, -0.01766926, -0.041871484, -1652920.8, -11399.711, 0.00050963036, 9.99574, 9.999467 
4.347996e+2, 1.424963e+2, -1584941.1, -1576445.1, -2678.668, 0.012837634, -0.02797055, -1575671.1, -32138.016, 0.00027507497, 9.996522, 9.997632 
4.3484467e+2, 1.5249375e+2, -1475362.6, -1475140.0, -3061.2468, 0.0017832435, -0.029965779, -1472188.0, -26629.783, 0.00011705333, 9.997408, 9.997419 
4.3488947e+2, 1.6249022e+2, -1378566.1, -1399192.8, -5497.16, -0.0074779573, -0.032392055, -1377192.5, -29599.617, 0.000037619757, 9.998255, 9.995506 
4.3493417e+2, 1.7248568e+2, -1269456.8, -1296499.8, -5178.1714, -0.001575052, -0.0323258, -1268499.1, -18861.785, 0.000008906541, 9.999039, 9.9954405 
4.3497872e+2, 1.8248014e+2, -1174545.9, -1223467.9, -6411.3394, 0.0027736854, -0.030365007, -1173719.6, -22028.129, 0.0000015378395, 9.999843, 9.993349 
4.3502304e+2, 1.9247337e+2, -1064601.0, -1121215.0, -6700.231, 0.00013094144, -0.030519111, -1063818.9, -10060.98, 0.00000019312868, 10.00072, 9.993208 
4.350673e+2, 2.0246565e+2, -968192.5, -1045689.6, -7594.096, -0.0025777938, -0.030588664, -967455.4, -11621.877, 0.000000017634331, 10.001547, 9.991272 
4.3511146e+2, 2.1245681e+2, -860175.56, -943915.3, -7434.5127, -0.0038697254, -0.035047427, -859520.6, -1600.451, 0.0000000011708853, 10.0022745, 9.991173 
4.3515566e+2, 2.2244702e+2, -765325.75, -870120.56, -7162.494, -0.0035051417, -0.03551549, -764838.5, -4822.485, 0.000000000056553692, 10.003035, 9.989151 
4.3519992e+2, 2.324361e+2, -655828.8, -768093.4, -7045.962, 0.00080110255, -0.02990707, -655388.4, 6734.666, 0.000000000000044721503, 10.003883, 9.98901 
4.3524426e+2, 2.4242419e+2, -560012.6, -694070.5, -6617.991, 0.0032289713, -0.02671359, -559686.7, 4553.1436, 0.000000000000001562477, 10.004718, 9.986966 
4.3528855e+2, 2.5241095e+2, -451425.03, -592471.7, -6934.8887, 0.0004843768, -0.03490546, -451084.88, 15284.625, 0.0, 10.005506, 9.986826 
4.35333e+2, 2.6239687e+2, -354558.06, -515356.38, -5497.567, -0.0019918573, -0.036731806, -354370.3, 14137.052, 0.0, 10.0063, 9.98501 
4.3537766e+2, 2.7238193e+2, -245172.63, -412410.47, -4942.658, -0.0034614503, -0.027673585, -245026.67, 25627.172, 0.0, 10.007101, 9.984957 
4.3542257e+2, 2.823655e+2, -156678.16, -354349.72, -2875.6992, -0.0034992166, -0.02406208, -156636.33, 16178.648, 0.0, 10.007965, 9.981804 
4.3546772e+2, 2.9234686e+2, -46641.12, -254285.88, -3757.9004, 0.0019651833, -0.039063983, -46573.133, 28424.488, 0.0, 10.008949, 9.981464 
4.3551326e+2, 3.023321e+2, 71750.195, -81512.04, -1132.7058, 0.0047109015, -0.043639157, 71758.57, 71758.57, 0.0, 10.009832, 9.989512 
4.35559e+2, 3.1232226e+2, 83537.77, -70314.65, -332.72952, -0.0039533284, -0.02443546, 83538.49, 83538.49, 0.0, 10.010405, 9.9900055 
4.447039e+2, 1.2245156e+2, -1783449.0, -1747862.3, 807.4844, 0.0055977227, -0.029965846, -1747844.0, -7872.2886, 0.0015538043, 9.995219, 9.999932 
4.4474995e+2, 1.32451e+2, -1676680.9, -1649703.5, -5257.5234, -0.022956932, -0.03437609, -1648715.1, -6737.9526, 0.0010089569, 9.995996, 9.999565 
4.447963e+2, 1.424497e+2, -1580992.6, -1575012.0, -6693.4683, 0.014975006, -0.030905712, -1570671.3, -26681.469, 0.0005448942, 9.996802, 9.997585 
4.448422e+2, 1.5244707e+2, -1472694.9, -1474902.8, -6024.9473, 0.0037622983, -0.030811565, -1467673.6, -21657.96, 0.00023205215, 9.997624, 9.997325 
4.448878e+2, 1.6244346e+2, -1376359.4, -1398765.0, -8154.501, -0.006343883, -0.031787515, -1373705.9, -25654.924, 0.00007466019, 9.998425, 9.995446 
4.449333e+2, 1.7243887e+2, -1267712.9, -1296186.8, -8640.128, -0.0017292039, -0.032734867, -1265296.3, -15200.245, 0.000017702305, 9.999171, 9.995391 
4.449786e+2, 1.8243329e+2, -1173627.0, -1223433.8, -10087.633, 0.0021696687, -0.031027038, -1171661.5, -19510.814, 0.000003062777, 9.999913, 9.99331 
4.4502375e+2, 1.924265e+2, -1065477.9, -1122028.9, -9838.258, 0.000627412, -0.029464645, -1063815.3, -9598.009, 0.0000003857046, 10.000668, 9.993172 
4.4506878e+2, 2.0241876e+2, -969997.94, -1047010.94, -10630.313, -0.0012593316, -0.028863797, -968557.56, -12264.426, 0.00000003535121, 10.001433, 9.991232 
4.4511372e+2, 2.1240984e+2, -861068.56, -944873.5, -11098.766, -0.0029796662, -0.034981262, -859623.56, -1243.172, 0.000000002359298, 10.002226, 9.991125 
4.451587e+2, 2.2240002e+2, -765505.75, -869952.0, -11032.563, -0.0027724386, -0.03667206, -764353.1, -3876.57, 0.000000000114745775, 10.003, 9.989173 
4.4520372e+2, 2.3238915e+2, -657189.3, -768249.8, -10681.1, 0.00058862235, -0.032116875, -656171.44, 6411.8125, 0.00000000000022836846, 10.0037565, 9.989056 
4.4524887e+2, 2.4237725e+2, -562554.4, -695360.3, -9964.158, 0.0027767112, -0.028809333, -561810.94, 2888.8452, 0.0000000000000079783024, 10.004537, 9.986959 
4.4529396e+2, 2.5236404e+2, -453481.4, -593791.3, -10053.431, 0.0015976583, -0.03271007, -452764.72, 14064.605, 0.0, 10.005367, 9.986797 
4.4533926e+2, 2.6234996e+2, -355911.7, -515779.2, -8686.077, -0.00003183639, -0.032809038, -355441.16, 13525.965, 0.0, 10.006185, 9.985032 
4.4538468e+2, 2.72335e+2, -247079.34, -413013.28, -9134.181, -0.0035343766, -0.02967883, -246578.06, 24535.768, 0.0, 10.006944, 9.984985 
4.454304e+2, 2.8231856e+2, -159897.98, -355678.97, -6922.4473, -0.004384633, -0.02867723, -159653.53, 13621.404, 0.0, 10.007722, 9.981824 
4.4547644e+2, 2.923e+2, -52713.18, -257062.78, -6272.1016, 0.0034835048, -0.03687403, -52520.85, 22935.95, 0.0, 10.0085125, 9.98148 
4.4552281e+2, 3.022853e+2, 65511.29, -83649.88, -3129.364, 0.0070815724, -0.038500674, 65576.914, 65576.914, 0.0, 10.009348, 9.989597 
4.4556928e+2, 3.1227547e+2, 81758.21, -70063.94, -3559.7676, -0.005238828, -0.027886203, 81841.63, 81841.63, 0.0, 10.010217, 9.990112 
4.546992e+2, 1.2240423e+2, -1785533.3, -1750907.8, 2377.0881, 0.011425542, -0.034455843, -1750745.3, -10309.821, 0.0027803245, 9.995169, 9.999745 
4.5474592e+2, 1.3240369e+2, -1678457.6, -1652510.0, -2485.3884, -0.027440006, -0.020895312, -1652274.1, -9833.08, 0.0018069525, 9.995964, 9.999384 
4.5479304e+2, 1.4240211e+2, -1581288.0, -1575089.4, -3963.492, 0.008006554, -0.032805115, -1573157.3, -28700.95, 0.0009770269, 9.996782, 9.997583 
4.5483983e+2, 1.5239955e+2, -1472532.8, -1474136.6, -3116.129, 0.0041745272, -0.031626076, -1470117.0, -23635.668, 0.00041677037, 9.997608, 9.997378 
4.5488626e+2, 1.6239595e+2, -1377160.4, -1400116.8, -5478.954, -0.0021818585, -0.03172869, -1375919.8, -27403.22, 0.00013439546, 9.998414, 9.995355 
4.5493242e+2, 1.7239119e+2, -1268891.1, -1298417.5, -5951.014, -0.0032973506, -0.033655874, -1267736.8, -17173.625, 0.000031964762, 9.999166, 9.995236 
4.5497847e+2, 1.8238552e+2, -1173686.9, -1223401.1, -7401.8687, -0.0031777085, -0.032666054, -1172608.3, -19989.45, 0.000005553748, 9.999909, 9.993309 
4.5502442e+2, 1.9237877e+2, -1065123.4, -1121321.4, -6987.608, -0.0018599128, -0.03113183, -1064267.6, -9582.605, 0.00000070340104, 10.000671, 9.993213 
4.5507026e+2, 2.0237103e+2, -970481.6, -1048029.44, -7676.5454, -0.000584221, -0.029158149, -969729.06, -12968.291, 0.000000064967765, 10.001435, 9.991157 
4.55116e+2, 2.1236205e+2, -861903.1, -946636.5, -8020.799, 0.0015736383, -0.03070105, -861150.56, -2301.706, 0.0000000043809485, 10.002228, 9.991 
4.5516175e+2, 2.2235216e+2, -765321.06, -869654.2, -8123.1963, 0.0019389115, -0.031646293, -764692.44, -3746.7263, 0.00000000021602262, 10.003006, 9.989186 
4.5520747e+2, 2.3234124e+2, -656672.7, -767216.2, -7810.06, -0.0034037705, -0.036521334, -656123.6, 6928.9277, 0.0000000000009414817, 10.003759, 9.9891205 
4.5525333e+2, 2.4232937e+2, -562385.4, -694897.44, -6926.9966, -0.00622097, -0.036899187, -562024.25, 3144.631, 0.000000000000032891313, 10.004533, 9.986989 
4.5529932e+2, 2.523163e+2, -453592.66, -593764.7, -6934.132, -0.0010902553, -0.028624361, -453250.47, 14046.794, 0.0, 10.005356, 9.986801 
4.5534548e+2, 2.6230225e+2, -356580.75, -516884.56, -5812.799, 0.002625673, -0.024258249, -356370.25, 13064.617, 0.0, 10.006175, 9.984957 
4.5539168e+2, 2.7228698e+2, -247975.03, -414665.3, -6400.136, 0.0005003261, -0.038122926, -247729.66, 23854.6, 0.0, 10.006938, 9.98487 
4.5543817e+2, 2.822705e+2, -159111.58, -353815.06, -4183.524, -0.0015485197, -0.04268707, -159021.73, 14724.3955, 0.0, 10.007712, 9.981952 
4.5548493e+2, 2.9225236e+2, -51305.95, -253978.98, -3562.608, -0.0002672314, -0.026398288, -51243.344, 24680.414, 0.0, 10.008508, 9.9816885 
4.5553213e+2, 3.0223793e+2, 65551.95, -83442.555, -168.91153, 0.0010640156, -0.01850058, 65552.15, 65552.15, 0.0, 10.009344, 9.989608 
4.5557955e+2, 3.122277e+2, 81236.51, -70991.11, -658.2699, -0.00064872304, -0.040141653, 81239.35, 81239.35, 0.0, 10.010211, 9.990046 
4.646945e+2, 1.2235624e+2, -1780698.0, -1747896.8, -576.04486, 0.012266749, -0.036887776, -1747886.6, -6980.8335, 0.004589857, 9.99546, 9.9998045 
4.6474203e+2, 1.3235562e+2, -1675482.5, -1653301.6, -3961.186, -0.022566665, -0.014014353, -1652615.4, -9703.466, 0.0029879087, 9.996249, 9.999188 
4.6478993e+2, 1.4235377e+2, -1577682.6, -1574379.3, -6109.5923, 0.0063923947, -0.038564812, -1569702.0, -24771.967, 0.0016192476, 9.99706, 9.997493 
4.648375e+2, 1.5235119e+2, -1470421.8, -1473809.8, -6259.062, 0.0040322645, -0.033720195, -1465631.5, -18676.127, 0.00069287396, 9.99777, 9.997317 
4.6488473e+2, 1.6234757e+2, -1376437.8, -1400547.6, -9198.214, -0.0010179566, -0.03040512, -1373329.3, -24338.469, 0.00022437889, 9.998485, 9.995285 
4.6493167e+2, 1.7234273e+2, -1267951.9, -1298871.9, -9220.344, -0.0021835556, -0.032133393, -1265411.1, -14372.931, 0.000053673917, 9.999257, 9.995155 
4.6497843e+2, 1.8233697e+2, -1172339.9, -1223233.6, -10534.984, -0.0020380255, -0.032058585, -1170245.3, -17150.719, 0.000009398119, 10.000008, 9.993268 
4.6502513e+2, 1.9233015e+2, -1064424.0, -1121426.3, -10795.72, -0.001171856, -0.033612665, -1062448.0, -7286.6226, 0.0000012027082, 10.000723, 9.9931755 
4.6507168e+2, 2.0232241e+2, -970161.75, -1047788.9, -11598.703, 0.00007484675, -0.032552734, -968465.75, -11228.409, 0.00000011262272, 10.001441, 9.991165 
4.6511823e+2, 2.1231346e+2, -861997.75, -946485.6, -10952.911, 0.0017539056, -0.030104417, -860600.9, -1275.9999, 0.000000007732489, 10.002202, 9.991018 
4.651647e+2, 2.223036e+2, -766478.94, -870789.25, -10677.235, 0.001985143, -0.029032657, -765397.2, -3975.6177, 0.00000000039024706, 10.002939, 9.989137 
4.6521118e+2, 2.3229259e+2, -659016.75, -769429.2, -11489.05, -0.0024841852, -0.03549447, -657833.94, 5695.6016, 0.0000000000032348013, 10.003635, 9.989023 
4.652578e+2, 2.4228068e+2, -564415.0, -695167.8, -10970.917, -0.004769309, -0.037135553, -563500.9, 2145.34, 0.00000000000011301746, 10.004349, 9.987054 
4.6530452e+2, 2.5226766e+2, -456077.63, -593883.25, -10326.778, -0.0015491553, -0.030829642, -455308.06, 12465.742, 0.0, 10.005127, 9.986897 
4.653515e+2, 2.622537e+2, -360146.4, -518416.25, -8571.743, 0.0015418056, -0.02704366, -359683.53, 10227.235, 0.0, 10.005909, 9.984976 
4.6539846e+2, 2.7223846e+2, -251793.3, -416748.38, -8576.421, 0.0019859106, -0.03678363, -251348.6, 20711.338, 0.0, 10.00667, 9.984855 
4.6544576e+2, 2.8222194e+2, -162237.53, -354833.94, -5910.978, 0.0012178074, -0.039257903, -162056.3, 12165.252, 0.0, 10.007467, 9.981996 
4.6549332e+2, 2.9220384e+2, -54266.95, -254726.86, -6332.6563, -0.0003214176, -0.027723653, -54067.094, 22331.934, 0.0, 10.008262, 9.9817505 
4.6554136e+2, 3.0218944e+2, 62481.973, -84073.07, -3217.5515, -0.00007623793, -0.022808403, 62552.58, 62552.58, 0.0, 10.009092, 9.989677 
4.655896e+2, 3.1217936e+2, 76659.18, -72302.9, -2914.8457, 0.0005643595, -0.040144436, 76716.195, 76716.195, 0.0, 10.009858, 9.990115 
4.746898e+2, 1.2230766e+2, -1779001.0, -1743190.9, 183.9558, -0.001311532, -0.035880826, -1743189.9, -1807.893, 0.007113215, 9.995413, 10.000142 
4.7473842e+2, 1.3230686e+2, -1677734.8, -1656998.9, -1021.9541, -0.009064218, -0.014254866, -1656948.6, -13558.962, 0.004643645, 9.996215, 9.998947 
4.7478703e+2, 1.4230469e+2, -1579461.5, -1577381.0, -3654.1853, 0.008897635, -0.047859054, -1574621.9, -29211.049, 0.0025262511, 9.997035, 9.997296 
4.7483525e+2, 1.5230197e+2, -1472063.8, -1476753.8, -3821.794, 0.00030064504, -0.036742788, -1469924.9, -22487.318, 0.0010866441, 9.997756, 9.997118 
4.7488314e+2, 1.6229826e+2, -1376910.0, -1401207.5, -6662.725, -0.007137759, -0.027644144, -1375203.0, -25729.016, 0.00035438547, 9.998474, 9.99524 
4.7493094e+2, 1.7229344e+2, -1267973.0, -1298777.9, -6425.6553, -0.0011667011, -0.028083954, -1266686.4, -15165.176, 0.000085576154, 9.999254, 9.995158 
4.749785e+2, 1.8228766e+2, -1172922.9, -1224416.8, -7926.2227, 0.003170895, -0.029035402, -1171730.5, -18152.557, 0.000015172572, 10.00001, 9.993182 
4.7502586e+2, 1.9228065e+2, -1065246.0, -1123257.0, -8121.9985, 0.0007937278, -0.036004286, -1064130.4, -8483.984, 0.0000019737136, 10.000733, 9.993041 
4.7507313e+2, 2.0227282e+2, -969434.8, -1046375.3, -8862.639, -0.0018424954, -0.03843753, -968427.1, -10703.914, 0.00000018875323, 10.001446, 9.991255 
4.7512037e+2, 2.1226405e+2, -860796.75, -944034.4, -8014.337, -0.0044243527, -0.03335069, -860032.1, -223.13132, 0.000000013307983, 10.002203, 9.99118 
4.751676e+2, 2.222543e+2, -767259.75, -872407.9, -7960.0464, -0.0048298007, -0.028620772, -766660.56, -4755.89, 0.00000000069387657, 10.002941, 9.98902 
4.7521484e+2, 2.3224312e+2, -660643.8, -772884.2, -8774.298, 0.0010965366, -0.029107198, -659962.06, 4052.2793, 0.000000000009472845, 10.003639, 9.988782 
4.7526222e+2, 2.4223109e+2, -563971.25, -694257.75, -8091.1577, 0.004127141, -0.02988239, -563470.7, 2661.5923, 0.00000000000033105902, 10.004351, 9.98711 
4.753097e+2, 2.5221807e+2, -455027.47, -591490.9, -7434.513, -0.0017661281, -0.038410176, -454623.63, 13636.042, 0.000000000000000004361499, 10.005118, 9.987061 
4.7535735e+2, 2.622042e+2, -359612.88, -516964.66, -5801.7744, -0.0049603735, -0.039934337, -359399.25, 10996.35, 0.000000000000000025260425, 10.005895, 9.985077 
4.7540513e+2, 2.7218923e+2, -251565.94, -416024.63, -5895.4224, -0.00082663476, -0.02775, -251354.88, 21187.299, 0.00000000000000010669206, 10.006661, 9.984903 
4.7545326e+2, 2.821729e+2, -162601.73, -355337.97, -3147.8928, 0.0016041993, -0.020768605, -162550.34, 12152.341, 0.00000000000000033199385, 10.007457, 9.981961 
4.755016e+2, 2.9215443e+2, -55139.4, -256189.8, -3667.6553, 0.001127609, -0.03750094, -55072.516, 21811.1, 0.00000000000000078039946, 10.008249, 9.98165 
4.7555044e+2, 3.0213982e+2, 63208.492, -82219.03, -556.8753, 0.00090642425, -0.047163006, 63210.625, 63210.625, 0.0000000000000014474501, 10.009082, 9.989802 
4.7559944e+2, 3.1213033e+2, 78178.734, -69104.81, -393.45367, -0.003616982, -0.023481615, 78179.79, 78179.79, 0.0000000000000022339833, 10.009863, 9.990326 
4.846852e+2, 1.2225828e+2, -1775759.6, -1739114.4, -3612.9744, -0.0060933284, -0.036797438, -1738761.6, 3104.1646, 0.01049777, 9.995512, 10.000368 
4.847349e+2, 1.3225725e+2, -1675830.8, -1659448.6, -3133.0767, 0.0034158917, -0.017637402, -1658869.9, -14994.086, 0.0068823104, 9.996475, 9.998649 
4.847842e+2, 1.4225489e+2, -1574648.5, -1576632.0, -6817.6616, 0.0035469818, -0.04627632, -1568750.8, -22851.838, 0.0037656925, 9.997423, 9.99715 
4.8483312e+2, 1.5225206e+2, -1468133.4, -1475843.1, -6656.4873, -0.0009920539, -0.035443723, -1464296.1, -16369.509, 0.0016323061, 9.998057, 9.997028 
4.8488176e+2, 1.6224825e+2, -1374008.1, -1400554.9, -8881.078, -0.004927081, -0.02728087, -1371311.1, -21347.129, 0.00053782034, 9.998695, 9.995172 
4.8493028e+2, 1.7224336e+2, -1266301.8, -1298705.9, -9118.021, -0.00009001076, -0.02964412, -1263912.3, -11900.372, 0.00013162919, 9.999388, 9.995094 
4.8497856e+2, 1.822375e+2, -1172289.8, -1224631.8, -11129.883, 0.0038394658, -0.030973952, -1170021.4, -15952.094, 0.000023746588, 10.000068, 9.993134 
4.850266e+2, 1.922305e+2, -1065558.5, -1123902.9, -10839.379, 0.0019452716, -0.03460782, -1063609.9, -7471.9443, 0.0000031577385, 10.000722, 9.992998 
4.8507455e+2, 2.0222263e+2, -970605.25, -1047500.75, -11492.641, -0.00051725184, -0.03570053, -968924.3, -10709.277, 0.00000031029586, 10.001381, 9.991204 
4.851225e+2, 2.1221377e+2, -862861.1, -945772.1, -12245.762, -0.0038026778, -0.034449834, -861090.25, -788.51385, 0.000000022599854, 10.002083, 9.991114 
4.8517048e+2, 2.2220398e+2, -769000.25, -872745.3, -12890.804, -0.004319133, -0.031914517, -767422.5, -5024.6646, 0.000000001223376, 10.002788, 9.989066 
4.8521844e+2, 2.3219287e+2, -661454.8, -772574.3, -11673.536, 0.0017058902, -0.030052615, -660241.7, 4264.9707, 0.000000000023981296, 10.003542, 9.988846 
4.8526654e+2, 2.4218091e+2, -565210.56, -695068.94, -9783.446, 0.0049983026, -0.028437637, -564477.6, 2146.4338, 0.0000000000008389532, 10.004264, 9.987094 
4.853147e+2, 2.5216785e+2, -457978.16, -593700.3, -10573.041, -0.0013921349, -0.035505425, -457159.44, 11592.441, 0.0000000000000001261701, 10.004938, 9.986992 
4.8536313e+2, 2.6215395e+2, -362448.03, -517387.25, -9703.463, -0.0047562947, -0.03862563, -361842.7, 9045.3125, 0.00000000000000073087254, 10.005645, 9.985164 
4.8541167e+2, 2.7213907e+2, -253866.4, -415925.6, -9449.187, -0.0004424945, -0.03272437, -253317.31, 19716.762, 0.0000000000000030875687, 10.006436, 9.985014 
4.8546058e+2, 2.8212276e+2, -165817.73, -356707.88, -6408.9497, 0.0020632362, -0.02436829, -165602.8, 9590.791, 0.000000000000009609587, 10.007216, 9.981977 
4.8550963e+2, 2.921044e+2, -61051.133, -259616.44, -6697.325, 0.0006700765, -0.02811528, -60825.496, 16548.166, 0.000000000000022592925, 10.007856, 9.981601 
4.8555928e+2, 3.0208972e+2, 57608.383, -83597.375, -2802.5166, 0.00021453384, -0.050149284, 57663.98, 57663.98, 0.00000000000004190963, 10.00862, 9.989928 
4.8560914e+2, 3.1208044e+2, 74655.26, -68479.67, -3109.4832, -0.00002538598, -0.025192082, 74722.77, 74722.77, 0.000000000000064683685, 10.009496, 9.990544 
4.9468076e+2, 1.22208215e+2, -1776211.4, -1738575.0, -2821.4019, -0.0065058926, -0.037164286, -1738364.6, 3991.7617, 0.014911252, 9.995453, 10.00043 
4.9473146e+2, 1.3220678e+2, -1679203.1, -1665399.1, 449.75824, 0.012830528, -0.024880387, -1665384.5, -21014.05, 0.009830928, 9.996439, 9.998254 
4.9478143e+2, 1.4220433e+2, -1575594.5, -1577985.1, -4419.685, -0.012591526, -0.033824604, -1572211.4, -25816.885, 0.0054196375, 9.997401, 9.997063 
4.9483117e+2, 1.5220144e+2, -1468200.9, -1475625.8, -4580.992, -0.002731531, -0.030245965, -1466017.0, -17594.256, 0.0023727028, 9.998046, 9.997042 
4.9488056e+2, 1.6219755e+2, -1374737.9, -1401899.9, -6591.5913, 0.0027575789, -0.02964457, -1373222.8, -22761.912, 0.00079196517, 9.9986925, 9.995075 
4.9492967e+2, 1.7219245e+2, -1267387.5, -1300876.4, -6724.9634, -0.0011325133, -0.03664506, -1266087.5, -13576.844, 0.00019707251, 9.999391, 9.994939 
4.9497855e+2, 1.821865e+2, -1172391.9, -1224694.4, -8819.187, -0.003310404, -0.038310416, -1170944.9, -16375.723, 0.000036298647, 10.000064, 9.993126 
4.950273e+2, 1.9217964e+2, -1065186.6, -1123189.1, -8446.79, -0.0010966193, -0.030534236, -1063981.6, -7345.2515, 0.0000049503406, 10.000728, 9.993039 
4.9507597e+2, 2.0217179e+2, -971781.94, -1050066.5, -9008.526, 0.0004286309, -0.02522692, -970758.7, -12045.33, 0.00000050112493, 10.0013895, 9.991021 
4.9512464e+2, 2.1216258e+2, -864695.75, -949806.1, -9528.034, 0.0006952642, -0.032825317, -863642.1, -2838.6155, 0.000000037748414, 10.002096, 9.990827 
4.951733e+2, 2.2215259e+2, -767695.3, -870166.7, -10087.304, 0.00051405915, -0.03788338, -766711.75, -3810.2793, 0.0000000021194788, 10.002794, 9.989234 
4.9522194e+2, 2.3214178e+2, -659028.7, -767581.3, -8814.409, -0.0018784311, -0.037734587, -658317.6, 6689.675, 0.00000000005330912, 10.003542, 9.989182 
4.9527073e+2, 2.4213006e+2, -565768.3, -696143.06, -7246.236, -0.0032279151, -0.032327358, -565366.8, 1755.5298, 0.000000000001871645, 10.004262, 9.987017 
4.9531963e+2, 2.5211692e+2, -460010.47, -597655.8, -8053.4175, -0.0017957285, -0.023133833, -459540.88, 9710.246, 0.000000000000009575241, 10.004926, 9.986725 
4.953688e+2, 2.621029e+2, -362320.56, -516805.66, -6856.356, -0.00007225822, -0.024238938, -362016.88, 9371.679, 0.000000000000055453838, 10.005631, 9.985206 
4.9541813e+2, 2.720878e+2, -253104.95, -414046.38, -6615.063, 0.0009572178, -0.04949465, -252833.53, 20702.746, 0.0000000000002341752, 10.006425, 9.985143 
4.9546778e+2, 2.820716e+2, -165502.2, -355800.9, -4089.135, 0.000016924345, -0.04647434, -165414.38, 10280.692, 0.0000000000007286158, 10.007205, 9.98204 
4.9551746e+2, 2.920537e+2, -61126.09, -259601.67, -4580.5195, -0.0031058511, -0.001732937, -61020.434, 16850.057, 0.0000000000017125554, 10.007852, 9.981599 
4.9556786e+2, 3.020389e+2, 58135.81, -82351.27, 135.05737, -0.0037849508, -0.037393287, 58135.938, 58135.938, 0.0000000000031753393, 10.008618, 9.990006 
4.956187e+2, 3.1202948e+2, 75821.29, -65545.375, -399.65085, 0.006211383, -0.037174642, 75822.42, 75822.42, 0.000000000004897224, 10.009477, 9.990748 
5.0467646e+2, 1.221572e+2, -1769365.9, -1738116.1, -6621.6235, -0.0072934446, -0.033477027, -1736770.9, 6085.306, 0.020533854, 9.996029, 10.000177 
5.047282e+2, 1.3215551e+2, -1673122.5, -1664007.5, -1452.6979, 0.021987751, -0.03470296, -1663781.5, -18908.535, 0.013628187, 9.996902, 9.998118 
5.047789e+2, 1.4215308e+2, -1572302.5, -1577540.6, -6183.3345, -0.019387573, -0.026795322, -1568206.4, -21309.719, 0.0075791995, 9.99766, 9.996965 
5.048293e+2, 1.5215005e+2, -1466387.4, -1475920.3, -7640.852, -0.0032082023, -0.02924242, -1462148.3, -13221.872, 0.0033562193, 9.998208, 9.99694 
5.0487936e+2, 1.6214602e+2, -1374006.4, -1402464.3, -10010.078, 0.0074040755, -0.033222646, -1370838.0, -19872.086, 0.0011366707, 9.99877, 9.994995 
5.049291e+2, 1.7214087e+2, -1267013.6, -1301610.3, -9563.471, 0.0008371808, -0.037231818, -1264546.0, -11529.831, 0.00028802847, 9.999444, 9.994858 
5.0497866e+2, 1.8213484e+2, -1171863.8, -1225283.9, -11491.626, -0.003332473, -0.03695325, -1169496.6, -14421.325, 0.000054231128, 10.000123, 9.993053 
5.050281e+2, 1.921279e+2, -1063640.5, -1123385.3, -11997.388, -0.0014313922, -0.031143127, -1061321.4, -4178.0146, 0.0000075890043, 10.000859, 9.992957 
5.050774e+2, 2.0211998e+2, -969751.94, -1049508.3, -13057.748, 0.00044224414, -0.026565876, -967668.5, -8447.455, 0.00000079091893, 10.001532, 9.990985 
5.051267e+2, 2.1211076e+2, -865162.5, -950453.5, -12031.831, 0.0019423201, -0.03141831, -863497.7, -2186.439, 0.00000006148999, 10.0020685, 9.990794 
5.05176e+2, 2.2210075e+2, -770116.56, -871452.0, -11716.3955, 0.0023858196, -0.03582831, -768779.56, -5370.1533, 0.0000000035684378, 10.002622, 9.989227 
5.052254e+2, 2.320899e+2, -662102.56, -769260.8, -12576.976, -0.0022750671, -0.040026054, -660646.2, 4869.49, 0.000000000106601436, 10.003328, 9.989166 
5.052749e+2, 2.4207819e+2, -568591.9, -696814.44, -12376.198, -0.00444441, -0.035235118, -567408.25, 222.29843, 0.0000000000037957758, 10.004024, 9.987081 
5.053245e+2, 2.5206518e+2, -462584.63, -598405.06, -11226.693, -0.0006439051, -0.019744296, -461662.9, 8095.325, 0.0000000000002126687, 10.004715, 9.986772 
5.053744e+2, 2.6205117e+2, -365230.63, -518046.5, -8387.8955, 0.002443148, -0.021227246, -364771.6, 7123.666, 0.0000000000012317329, 10.005414, 9.985221 
5.054244e+2, 2.72036e+2, -257352.39, -416385.4, -8955.747, 0.0014741695, -0.057249542, -256849.64, 17194.574, 0.0000000000052015844, 10.006134, 9.985117 
5.054748e+2, 2.8201985e+2, -169603.27, -356542.22, -7068.797, -0.00016483442, -0.049611814, -169336.34, 6865.807, 0.000000000016184465, 10.006855, 9.982156 
5.055252e+2, 2.9200232e+2, -64810.09, -260133.47, -7080.281, -0.0015072842, 0.01665981, -64553.773, 13820.468, 0.000000000038037778, 10.007526, 9.981718 
5.055764e+2, 3.019872e+2, 54203.313, -84988.41, -1407.8494, -0.0031715746, -0.05381144, 54217.55, 54217.55, 0.000000000070511263, 10.00836, 9.98995 
5.0562805e+2, 3.1197786e+2, 72611.14, -66334.76, -3719.491, 0.005501334, -0.033995945, 72710.63, 72710.63, 0.0000000001086931, 10.0092, 9.990828 
5.146724e+2, 1.2210531e+2, -1774849.6, -1747980.5, -2723.0151, -0.015646085, -0.02630257, -1747707.4, -4342.5405, 0.027554031, 9.995979, 9.999515 
5.1472515e+2, 1.3210343e+2, -1672859.6, -1662490.5, 1171.7887, 0.028312624, -0.046595335, -1662359.8, -16976.504, 0.018419899, 9.99687, 9.998227 
5.147765e+2, 1.4210118e+2, -1573609.6, -1579435.5, -4242.8877, -0.01804021, -0.024946848, -1571376.0, -23970.7, 0.010340942, 9.997631, 9.996844 
5.148275e+2, 1.5209788e+2, -1468315.5, -1479433.9, -5936.365, -0.005377472, -0.032296024, -1465741.8, -16304.196, 0.0046347342, 9.998194, 9.996702 
5.1487803e+2, 1.6209362e+2, -1374602.4, -1403476.9, -7961.5503, 0.0041816994, -0.038216442, -1372552.8, -21073.432, 0.0015935765, 9.998766, 9.994922 
5.149286e+2, 1.720886e+2, -1266970.8, -1301577.1, -7259.4683, 0.0024069296, -0.031771164, -1265509.6, -11981.004, 0.00041132476, 9.999452, 9.99485 
5.149788e+2, 1.8208255e+2, -1172671.5, -1227093.5, -9016.024, 0.0003126435, -0.026860015, -1171216.8, -15628.941, 0.00007915646, 10.000131, 9.992921 
5.15029e+2, 1.9207528e+2, -1064793.9, -1126050.9, -9303.071, -0.0019228287, -0.035263922, -1063412.3, -5753.248, 0.0000113579035, 10.0008745, 9.992763 
5.150789e+2, 2.0206718e+2, -968997.0, -1048129.56, -10973.622, -0.0032226245, -0.03877326, -967503.44, -7765.068, 0.0000012170423, 10.001542, 9.991071 
5.151288e+2, 2.1205829e+2, -863637.94, -947548.56, -10040.509, -0.0019188465, -0.030669175, -862453.25, -627.66156, 0.000000097492624, 10.002082, 9.990981 
5.151786e+2, 2.2204842e+2, -771079.25, -873654.1, -9259.431, -0.0010026281, -0.026709799, -770250.06, -6327.7964, 0.0000000058393734, 10.002632, 9.989068 
5.1522875e+2, 2.320372e+2, -664243.8, -773843.6, -9700.655, -0.0016870116, -0.037479218, -663391.8, 2640.3691, 0.00000000019841896, 10.003335, 9.988846 
5.1527894e+2, 2.420253e+2, -567665.7, -694773.7, -9724.803, -0.0018757532, -0.037247203, -566926.0, 1222.9528, 0.000000000007634904, 10.004019, 9.987218 
5.1532924e+2, 2.5201255e+2, -460553.63, -593942.94, -8635.747, -0.0002203622, -0.023940763, -459996.84, 10277.014, 0.0000000000039886605, 10.0047035, 9.987078 
5.153798e+2, 2.6199874e+2, -365350.53, -518018.7, -5847.9937, 0.0006226332, -0.029122738, -365126.88, 7282.294, 0.000000000023101169, 10.005403, 9.985224 
5.1543057e+2, 2.7198344e+2, -258659.89, -418729.53, -6368.8965, -0.0010698343, -0.058140993, -258406.88, 16152.087, 0.00000000009755803, 10.006117, 9.984962 
5.1548165e+2, 2.8196746e+2, -168867.95, -354651.5, -4702.451, -0.0010111243, -0.03504472, -168749.0, 7966.77, 0.000000000303523, 10.00684, 9.982287 
5.155328e+2, 2.919501e+2, -63790.266, -257646.6, -4859.4478, 0.002866247, 0.031232854, -63668.527, 15217.311, 0.00000000071315065, 10.007513, 9.981889 
5.1558477e+2, 3.0193445e+2, 52493.043, -88270.72, 1509.6124, -0.0007010001, -0.09488629, 52509.23, 52509.23, 0.0000000013213384, 10.008357, 9.989717 
5.156372e+2, 3.1192547e+2, 72502.23, -66619.56, -1040.0227, -0.0031378334, -0.008211887, 72510.01, 72510.01, 0.0000000020352628, 10.009218, 9.990787 
5.2466875e+2, 1.2205243e+2, -1766978.5, -1751999.8, -4238.6284, -0.017200712, -0.022874271, -1750883.5, -7000.5244, 0.036176804, 9.996835, 9.99882 
5.247223e+2, 1.3205053e+2, -1665816.5, -1656615.6, -2725.3281, 0.03446353, -0.055673074, -1655868.9, -9967.228, 0.024365017, 9.997227, 9.99845 
5.247742e+2, 1.4204851e+2, -1574172.8, -1580114.0, -7038.141, -0.018415699, -0.021977525, -1569504.0, -21582.727, 0.013811107, 9.997604, 9.996804 
5.2482575e+2, 1.5204507e+2, -1466255.1, -1480046.3, -8053.24, -0.0054558716, -0.031930435, -1462548.6, -12593.56, 0.0062664114, 9.998397, 9.996555 
5.24877e+2, 1.6204065e+2, -1369608.1, -1402329.8, -9867.11, 0.0049021286, -0.039662305, -1366863.0, -14864.649, 0.002187711, 9.99915, 9.994809 
5.2492815e+2, 1.7203555e+2, -1263064.3, -1300978.1, -10076.206, 0.002452018, -0.030902477, -1260552.8, -6504.2104, 0.0005752219, 9.999761, 9.994738 
5.2497905e+2, 1.820294e+2, -1170520.3, -1227012.4, -12493.482, 0.0005409425, -0.02495553, -1167880.6, -11771.851, 0.00011314291, 10.000313, 9.992831 
5.250298e+2, 1.9202204e+2, -1066587.4, -1127749.1, -12027.626, 0.000025454485, -0.035888847, -1064307.1, -6126.37, 0.000016648359, 10.000781, 9.992687 
5.250804e+2, 2.0201387e+2, -972657.9, -1050020.6, -13350.346, -0.00040960548, -0.040473554, -970418.8, -10157.987, 0.0000018353236, 10.001286, 9.991062 
5.2513087e+2, 2.12005e+2, -864042.94, -947680.75, -13676.63, -0.0012208998, -0.030033352, -861863.3, 484.44693, 0.00000015174481, 10.002037, 9.990991 
5.251813e+2, 2.2199515e+2, -769920.06, -873337.9, -13695.649, -0.001680783, -0.025573824, -768137.06, -3692.6873, 0.000000009413526, 10.002706, 9.98905 
5.25232e+2, 2.3198387e+2, -666285.25, -775420.94, -12435.134, -0.0007416759, -0.038388677, -664886.3, 1668.6146, 0.00000000035784709, 10.003205, 9.9888 
5.2528286e+2, 2.4197195e+2, -571571.3, -696352.6, -11144.661, 0.0005638294, -0.036744956, -570583.75, -1912.1241, 0.00000000002014928, 10.003723, 9.987252 
5.253338e+2, 2.519593e+2, -463795.06, -595092.9, -11586.576, 0.00041097426, -0.019611657, -462780.44, 8015.3584, 0.000000000054994186, 10.00445, 9.987118 
5.25385e+2, 2.6194552e+2, -367978.25, -518428.66, -9675.323, -0.00022047918, -0.029313065, -367358.6, 5572.1436, 0.00000000031851738, 10.005166, 9.985308 
5.2543646e+2, 2.719302e+2, -261736.02, -419783.13, -9018.058, -0.0027701352, -0.06997408, -261223.11, 13858.119, 0.000000001345189, 10.005865, 9.985013 
5.254883e+2, 2.8191432e+2, -172218.8, -355532.03, -6709.859, -0.0014629036, -0.037104003, -171973.52, 5262.8037, 0.0000000041848507, 10.006564, 9.982358 
5.255401e+2, 2.918973e+2, -68508.016, -259838.28, -7840.7314, 0.0070002065, 0.05962924, -68187.24, 11215.898, 0.000000009829297, 10.007172, 9.981898 
5.25593e+2, 3.0188107e+2, 46539.477, -93351.28, -1046.0879, 0.001236747, -0.11479384, 46547.297, 46547.297, 0.000000018203474, 10.008028, 9.989519 
5.2564627e+2, 3.1187204e+2, 70423.555, -64402.555, -3446.9272, -0.0039259526, -0.01578578, 70511.62, 70511.62, 0.00000002802278, 10.008922, 9.991075 
5.3466564e+2, 1.2199865e+2, -1773460.5, -1763890.5, 195.91432, -0.01863192, -0.022231864, -1763886.5, -19476.523, 0.046640746, 9.996777, 9.998032 
5.347195e+2, 1.3199681e+2, -1664373.4, -1652502.9, -2561.6326, 0.0382277, -0.0615804, -1651973.6, -5545.584, 0.031651113, 9.997189, 9.99874 
5.3477174e+2, 1.4199509e+2, -1574260.1, -1579380.1, -5131.7383, -0.022727164, -0.019005166, -1571085.3, -22640.428, 0.018118156, 9.997573, 9.9968605 
5.3482413e+2, 1.5199164e+2, -1466843.9, -1480757.6, -5344.615, -0.0066428855, -0.028265368, -1465027.9, -14549.149, 0.008324205, 9.99838, 9.996509 
5.348762e+2, 1.6198711e+2, -1370840.5, -1404873.0, -7692.2295, 0.0053714975, -0.0365734, -1369182.6, -16659.566, 0.002952043, 9.999157, 9.994626 
5.349279e+2, 1.719817e+2, -1264780.3, -1304559.0, -8132.062, -0.001102177, -0.034148864, -1263182.0, -8605.9375, 0.0007912693, 9.999768, 9.994484 
5.349793e+2, 1.8197533e+2, -1170629.3, -1227457.0, -10936.296, -0.005162638, -0.031923544, -1168597.3, -11958.795, 0.00015928308, 10.000327, 9.992788 
5.3503066e+2, 1.919681e+2, -1066016.6, -1126926.3, -10502.923, 0.00037719833, -0.034684237, -1064256.4, -5546.9624, 0.000024088198, 10.000802, 9.992726 
5.3508174e+2, 2.0195997e+2, -973106.6, -1051250.0, -11008.994, 0.0038414663, -0.033317346, -971585.25, -10796.143, 0.0000027417923, 10.001301, 9.990966 
5.3513294e+2, 2.1195088e+2, -864825.44, -949783.3, -10785.332, 0.00010578054, -0.030095693, -863477.6, -599.53687, 0.00000023528659, 10.002061, 9.990829 
5.35184e+2, 2.2194089e+2, -769206.4, -871972.7, -11577.02, -0.0031680183, -0.032211147, -767918.3, -2942.1973, 0.000000015275884, 10.00271, 9.989138 
5.352352e+2, 2.3192981e+2, -664837.0, -772567.7, -10524.467, -0.0016601906, -0.042165503, -663818.44, 3266.227, 0.0000000006877151, 10.003213, 9.988987 
5.3528655e+2, 2.4191807e+2, -571954.94, -697151.25, -8731.086, 0.00032460887, -0.034214195, -571348.94, -2149.3, 0.00000000013052304, 10.003722, 9.987196 
5.353382e+2, 2.5190532e+2, -465374.44, -597982.25, -8757.489, -0.00013011153, -0.0078508975, -464798.6, 6526.1025, 0.000000000612615, 10.00443, 9.986928 
5.353902e+2, 2.6189145e+2, -367523.53, -517030.22, -7103.2227, -0.0024525328, -0.021949941, -367186.8, 6273.9233, 0.0000000034131882, 10.005145, 9.98541 
5.354423e+2, 2.7187598e+2, -260686.38, -417208.63, -6595.9897, -0.0056431363, -0.09084888, -260408.9, 15203.306, 0.000000014339296, 10.005846, 9.985194 
5.3549486e+2, 2.8186035e+2, -172167.47, -355101.28, -4701.546, -0.0031052507, -0.054617625, -172046.7, 5718.673, 0.00000004456666, 10.006549, 9.982391 
5.355473e+2, 2.918438e+2, -69472.4, -261513.05, -5768.264, 0.008685054, 0.09837733, -69299.29, 10628.377, 0.00000010462058, 10.007158, 9.981786 
5.3560096e+2, 3.0182695e+2, 44969.44, -96295.63, 2277.1594, -0.00006935951, -0.11702511, 45006.137, 45006.137, 0.00000019365781, 10.008025, 9.989307 
5.356552e+2, 3.1181777e+2, 74200.31, -55922.59, -616.4544, -0.0028209668, -0.018752769, 74203.234, 74203.234, 0.0000002979929, 10.008905, 9.991653 
5.4466265e+2, 1.21944435e+2, -1768351.4, -1765743.9, 2058.2798, -0.014768459, -0.02173098, -1764611.1, -19669.986, 0.05923043, 9.997299, 9.997649 
5.4471684e+2, 1.319426e+2, -1657972.9, -1648422.8, -4874.0166, 0.03632534, -0.06372164, -1646374.5, 584.85626, 0.04050611, 9.997571, 9.998832 
5.4476947e+2, 1.4194095e+2, -1569627.0, -1577770.5, -7450.423, -0.02258213, -0.016713973, -1565208.3, -16232.913, 0.023422668, 9.997901, 9.996809 
5.4482263e+2, 1.5193738e+2, -1464615.0, -1481224.6, -7875.562, -0.005461082, -0.026384093, -1461474.5, -10464.152, 0.010902844, 9.998585, 9.996372 
5.4487544e+2, 1.619327e+2, -1369965.8, -1405622.1, -11066.547, 0.0074849003, -0.036294963, -1366810.3, -13754.046, 0.003931351, 9.999255, 9.994522 
5.449277e+2, 1.719272e+2, -1263824.0, -1305117.9, -10650.105, -0.00006273986, -0.03585287, -1261239.0, -6128.8423, 0.0010759312, 9.999869, 9.9943905 
5.449797e+2, 1.8192074e+2, -1169461.9, -1227593.8, -12988.103, -0.0046406225, -0.034495454, -1166692.0, -9518.496, 0.0002222064, 10.000426, 9.992728 
5.450315e+2, 1.9191349e+2, -1063724.9, -1126487.3, -13481.901, 0.0005860192, -0.034546807, -1060951.5, -1706.7307, 0.00003466305, 10.000974, 9.992671 
5.4508305e+2, 2.0190531e+2, -971141.75, -1051189.0, -14298.389, 0.004079967, -0.030605264, -968664.4, -7339.5566, 0.0000040952546, 10.001463, 9.990887 
5.4513496e+2, 2.1189614e+2, -867162.4, -951871.2, -13520.077, 0.00072147424, -0.028390521, -865056.8, -1642.1322, 0.00000036843403, 10.001931, 9.990746 
5.451866e+2, 2.2188605e+2, -773789.94, -874223.3, -14444.512, -0.0017170697, -0.03312814, -771753.8, -6240.3228, 0.000000026361263, 10.002387, 9.989137 
5.452383e+2, 2.3187497e+2, -666966.94, -773305.44, -14534.51, -0.00090862514, -0.045963086, -665016.1, 2605.919, 0.0000000023307902, 10.00304, 9.989017 
5.4529023e+2, 2.418633e+2, -573061.3, -697410.9, -13207.8125, 0.0008569066, -0.0360044, -571673.94, -1937.4825, 0.0000000015642249, 10.003614, 9.987227 
5.453425e+2, 2.5185063e+2, -468885.28, -599692.1, -11813.935, 0.0013069493, -0.00048650213, -467826.84, 4033.701, 0.000000005562811, 10.004169, 9.986937 
5.4539514e+2, 2.618368e+2, -373026.75, -519453.5, -8968.49, -0.00094792305, -0.015989216, -372479.5, 1516.9297, 0.000000028366085, 10.004745, 9.985435 
5.45448e+2, 2.718211e+2, -265260.97, -419463.03, -9436.149, -0.0053619505, -0.10385478, -264685.7, 11464.166, 0.00000011761462, 10.005528, 9.985185 
5.455013e+2, 2.8180563e+2, -174746.14, -354077.66, -8237.032, -0.0020717615, -0.063012995, -174368.6, 3932.902, 0.0000003647328, 10.006258, 9.982597 
5.4555434e+2, 2.9178965e+2, -72799.805, -261103.36, -7606.3467, 0.010698173, 0.12595665, -72493.055, 7965.271, 0.00000085578625, 10.006813, 9.981987 
5.4560876e+2, 3.0177224e+2, 37602.695, -104668.09, 2289.01, -0.003375172, -0.13768393, 37639.516, 37639.516, 0.0000015835924, 10.007676, 9.988916 
5.4566395e+2, 3.1176284e+2, 72823.69, -51650.28, -3622.5715, 0.00043376395, -0.018671451, 72929.03, 72929.03, 0.0000024360013, 10.008541, 9.992139 
5.5466e+2, 1.2188993e+2, -1768833.9, -1764904.8, 3478.8357, -0.011519116, -0.024884624, -1762874.1, -17398.734, 0.07429232, 9.997225, 9.997736 
5.547144e+2, 1.3188802e+2, -1660068.9, -1651227.8, -4792.4463, 0.02570596, -0.060241695, -1649128.5, -1634.2689, 0.051209517, 9.997518, 9.998658 
5.547674e+2, 1.4188617e+2, -1571869.9, -1581195.1, -5912.975, -0.019716252, -0.013870077, -1569002.4, -19490.057, 0.02992419, 9.997857, 9.99659 
5.5482125e+2, 1.5188234e+2, -1466813.0, -1485008.9, -5715.7886, -0.0053035994, -0.026425805, -1465166.5, -13616.653, 0.014122313, 9.998558, 9.99612 
5.548747e+2, 1.6187744e+2, -1370163.6, -1405881.0, -9175.911, 0.0060091405, -0.03952431, -1367944.3, -14346.405, 0.005183735, 9.999255, 9.994497 
5.549276e+2, 1.7187202e+2, -1263136.6, -1303810.5, -8753.705, 0.0023842086, -0.036817398, -1261332.8, -5681.8604, 0.0014511821, 9.999881, 9.994467 
5.5498016e+2, 1.818656e+2, -1169876.6, -1228724.4, -11226.311, -0.0011454509, -0.032833647, -1167807.8, -10093.923, 0.0003083134, 10.000443, 9.992637 
5.550325e+2, 1.9185819e+2, -1064628.6, -1128773.4, -11673.282, -0.0021561258, -0.034212064, -1062570.4, -2783.7769, 0.000049822887, 10.000998, 9.992497 
5.5508447e+2, 2.0184985e+2, -971309.4, -1051951.3, -12703.862, -0.0025113102, -0.030922303, -969355.4, -7487.136, 0.000006177535, 10.001483, 9.990821 
5.5513686e+2, 2.118407e+2, -866997.94, -951942.0, -11872.156, -0.0016074743, -0.024951465, -865369.9, -1411.9036, 0.00000062156136, 10.001953, 9.9907255 
5.5518895e+2, 2.2183058e+2, -774267.2, -875402.56, -12291.86, -0.0009860249, -0.029039595, -772794.7, -6737.5537, 0.0000000784953, 10.002395, 9.989051 
5.552414e+2, 2.318193e+2, -667719.7, -775058.56, -11878.211, -0.0016855366, -0.05032349, -666420.94, 1746.6299, 0.000000033049396, 10.00305, 9.988888 
5.552938e+2, 2.4180757e+2, -572390.7, -696049.9, -11000.644, -0.0015668783, -0.042503882, -571419.75, -1137.0985, 0.00000003053741, 10.003615, 9.987317 
5.553467e+2, 2.5179514e+2, -467775.22, -597258.9, -9733.495, 0.0012933875, 0.0032815035, -467047.63, 5356.6646, 0.00000005386784, 10.004165, 9.987102 
5.553999e+2, 2.617814e+2, -373529.06, -520052.34, -6523.314, 0.0005275284, -0.012734625, -373239.2, 1299.8368, 0.00000019406193, 10.004719, 9.985405 
5.5545354e+2, 2.717655e+2, -266666.72, -421746.97, -6532.153, -0.0057629347, -0.111373834, -266392.06, 10302.946, 0.00000074942295, 10.00549, 9.985046 
5.5550754e+2, 2.8175017e+2, -172898.44, -349564.8, -6114.642, -0.0028071809, -0.061630357, -172687.06, 6157.9194, 0.0000022942224, 10.006229, 9.982914 
5.555612e+2, 2.9173478e+2, -70729.03, -255935.95, -5686.3774, 0.009955374, 0.14556867, -70554.61, 10441.577, 0.0000053700915, 10.006778, 9.982351 
5.556164e+2, 3.0171672e+2, 32069.22, -115117.6, 5272.475, -0.010523122, -0.17473562, 32257.848, 32257.848, 0.000009930988, 10.00764, 9.988207 
5.556725e+2, 3.1170702e+2, 74767.51, -46918.547, -1195.3768, 0.001580168, 0.0074494774, 74779.25, 74779.25, 0.000015272311, 10.008528, 9.992456 
5.646572e+2, 1.21834844e+2, -1765979.6, -1758843.3, 3364.32, -0.007472559, -0.026478482, -1757507.3, -11492.253, 0.092263974, 9.997208, 9.998153 
5.647119e+2, 1.3183275e+2, -1658142.8, -1654329.8, -7211.605, 0.015807364, -0.0593278, -1648777.0, -741.07825, 0.06411256, 9.997814, 9.998301 
5.647656e+2, 1.418306e+2, -1564692.1, -1579203.9, -8385.22, -0.011967195, -0.014653586, -1560859.4, -10802.428, 0.037873123, 9.998398, 9.996458 
5.6482e+2, 1.518267e+2, -1460208.8, -1482438.4, -6633.4233, -0.0028330763, -0.02836557, -1458379.9, -6284.7397, 0.018134005, 9.999027, 9.996062 
5.648741e+2, 1.6182174e+2, -1365302.8, -1404316.6, -9848.169, 0.00405341, -0.041151427, -1362957.8, -8813.926, 0.0067838547, 9.999614, 9.994425 
5.6492764e+2, 1.7181629e+2, -1261731.9, -1304095.4, -10976.442, 0.00277409, -0.035289522, -1259056.8, -2859.577, 0.0019465192, 10.0000105, 9.994379 
5.649806e+2, 1.8180977e+2, -1170813.0, -1230119.3, -14157.633, 0.0014445633, -0.02976226, -1167606.6, -9345.533, 0.0004271751, 10.000416, 9.992548 
5.650335e+2, 1.9180223e+2, -1064867.4, -1129850.5, -14046.417, -0.0016875239, -0.035005353, -1061961.1, -1626.2302, 0.00007248392, 10.0010195, 9.992406 
5.65086e+2, 2.0179377e+2, -970939.0, -1052620.8, -15300.489, -0.0031666476, -0.034249157, -968167.0, -5749.1387, 0.000010126858, 10.00154, 9.990742 
5.651389e+2, 2.117846e+2, -866712.44, -952575.25, -15014.59, 0.00016536996, -0.024328854, -864162.6, 345.09387, 0.0000016724213, 10.001996, 9.990657 
5.651914e+2, 2.2177443e+2, -774650.4, -876269.44, -15458.172, 0.002139168, -0.026327549, -772350.94, -5743.5396, 0.00000068287227, 10.00238, 9.988996 
5.652444e+2, 2.3176308e+2, -669963.25, -776872.7, -14584.896, -0.0012912815, -0.051297836, -668009.25, 709.41315, 0.00000051860127, 10.002908, 9.988832 
5.652973e+2, 2.417513e+2, -576376.6, -698039.56, -13935.718, -0.0020530177, -0.043108366, -574800.8, -3966.7625, 0.00000047300682, 10.003329, 9.987319 
5.653508e+2, 2.5173894e+2, -471465.88, -598874.7, -13525.351, 0.0026468143, 0.007247904, -470045.88, 2909.2637, 0.00000055618574, 10.003888, 9.9871235 
5.654045e+2, 2.6172522e+2, -377382.7, -521596.34, -10224.465, 0.0027600613, -0.013522004, -376661.4, -1571.6075, 0.0000011869142, 10.004413, 9.985451 
5.6545883e+2, 2.7170917e+2, -270773.7, -423736.16, -8843.774, -0.0051094266, -0.12424011, -270264.06, 6982.9224, 0.0000037901987, 10.005179, 9.985065 
5.655136e+2, 2.8169414e+2, -176296.83, -348617.3, -8508.19, -0.00143134, -0.06277941, -175877.77, 3516.357, 0.000011143965, 10.005839, 9.983181 
5.6556773e+2, 2.9167926e+2, -76405.56, -257053.94, -9302.587, 0.0143936705, 0.17706494, -75927.79, 5612.402, 0.00002588088, 10.00629, 9.982512 
5.6562376e+2, 3.016604e+2, 21002.863, -129454.64, 2724.327, -0.013589613, -0.19277309, 21052.176, 21052.176, 0.000047783215, 10.007264, 9.987388 
5.656811e+2, 3.1165e+2, 78420.57, -38045.535, -4470.501, 0.006118348, 0.0008694276, 78591.914, 78591.914, 0.00007346192, 10.008458, 9.993088 
5.7465446e+2, 1.2177946e+2, -1762460.0, -1748250.5, 5358.17, -0.0076251, -0.02374287, -1746456.6, 101.28084, 0.11375035, 9.997065, 9.998935 
5.747096e+2, 1.3177691e+2, -1663956.4, -1663792.0, -5839.195, 0.005124136, -0.062346566, -1658034.4, -9451.569, 0.07970576, 9.997713, 9.997701 
5.747641e+2, 1.4177431e+2, -1566102.1, -1580722.9, -6871.032, -0.0015458702, -0.020592634, -1563380.0, -12771.555, 0.04762608, 9.998344, 9.996373 
5.748191e+2, 1.5177055e+2, -1459672.4, -1480687.3, -4893.338, -0.0015941195, -0.032245886, -1458588.8, -5943.532, 0.023162274, 9.999006, 9.996183 
5.748737e+2, 1.6176564e+2, -1366359.4, -1406417.4, -8684.796, -0.0029981146, -0.040298235, -1364557.5, -9864.053, 0.008851887, 9.999621, 9.994269 
5.7492757e+2, 1.7175998e+2, -1263648.8, -1308050.1, -10075.782, -0.0010058483, -0.030382495, -1261469.3, -4720.3423, 0.0026185028, 10.000022, 9.994096 
5.7498103e+2, 1.8175322e+2, -1171308.4, -1231389.9, -12682.498, 0.00039503837, -0.024933197, -1168741.0, -9925.723, 0.0006049601, 10.000433, 9.992446 
5.7503456e+2, 1.917456e+2, -1064686.1, -1130051.1, -12092.808, -0.0025893773, -0.038431108, -1062520.6, -1630.6635, 0.00011675058, 10.001052, 9.992369 
5.750876e+2, 2.0173702e+2, -971137.7, -1053563.1, -13786.499, -0.0036663064, -0.042454336, -968892.9, -5918.9136, 0.000025390495, 10.001568, 9.990658 
5.751409e+2, 2.117278e+2, -867046.44, -954006.1, -13463.538, 0.0012366486, -0.02757511, -865009.7, 54.644585, 0.000010757624, 10.002035, 9.990535 
5.7519376e+2, 2.2171757e+2, -774709.6, -876804.4, -13778.452, 0.0026027763, -0.025288267, -772882.8, -5718.077, 0.0000077366185, 10.0023985, 9.988948 
5.752472e+2, 2.317062e+2, -670086.8, -776889.56, -12542.134, -0.0034401978, -0.048825014, -668633.75, 642.1964, 0.000006522971, 10.002899, 9.9888315 
5.753006e+2, 2.4169442e+2, -577534.5, -699729.1, -11919.996, -0.0046071117, -0.03857235, -576382.56, -4991.084, 0.000005941919, 10.003293, 9.987222 
5.7535464e+2, 2.5168192e+2, -472576.1, -600952.56, -11254.973, 0.0018218333, 0.011012968, -471596.84, 1917.0646, 0.000005930573, 10.003872, 9.986989 
5.754089e+2, 2.616681e+2, -376946.38, -520761.9, -7759.818, 0.0006164394, -0.017015165, -376528.9, -879.2545, 0.000007746674, 10.004414, 9.985503 
5.7546407e+2, 2.7165198e+2, -270049.22, -422074.78, -6128.6523, -0.00812956, -0.14132467, -269802.56, 8004.8096, 0.000016548, 10.005175, 9.985174 
5.7551944e+2, 2.816373e+2, -175514.61, -346233.75, -7161.453, -0.0022876528, -0.06913127, -175214.72, 4736.6133, 0.000042830554, 10.005799, 9.983363 
5.7557404e+2, 2.916229e+2, -76622.76, -257021.64, -7675.6987, 0.018045256, 0.21499471, -76296.76, 5795.9414, 0.000096663134, 10.006265, 9.982525 
5.7563096e+2, 3.016032e+2, 14170.043, -142785.86, 6987.514, -0.018724969, -0.19291963, 14480.506, 14480.506, 0.00017732779, 10.007236, 9.986476 
5.756895e+2, 3.1159186e+2, 83173.24, -25366.502, -143.50221, 0.00832108, -0.0048788493, 83173.43, 83173.43, 0.00027223537, 10.008352, 9.993994 
5.846516e+2, 1.217232e+2, -1757545.1, -1743186.6, 1663.1056, -0.0017965733, -0.024050312, -1742996.5, 4112.7075, 0.13972634, 9.997244, 9.999233 
5.847073e+2, 1.317206e+2, -1660560.0, -1664410.8, -5047.7485, -0.004099717, -0.06023287, -1657082.9, -7948.111, 0.09881995, 9.998035, 9.997498 
5.8476275e+2, 1.4171772e+2, -1557733.6, -1578474.6, -5397.7007, 0.0035010974, -0.024262508, -1556413.0, -5249.9053, 0.05983596, 9.998991, 9.996205 
5.8481824e+2, 1.5171388e+2, -1455697.0, -1480089.0, -5931.4307, 0.00064230984, -0.031709448, -1454331.1, -1130.4084, 0.029672418, 9.99933, 9.996062 
5.848733e+2, 1.6170886e+2, -1366607.4, -1407488.8, -10832.899, -0.0027512687, -0.037923753, -1363914.3, -8664.404, 0.011691614, 9.999638, 9.994185 
5.849277e+2, 1.717031e+2, -1261270.1, -1307878.1, -11125.692, -0.0016783503, -0.031403914, -1258750.5, -1444.1377, 0.0036588176, 10.000221, 9.994007 
5.849816e+2, 1.8169622e+2, -1166948.1, -1230095.4, -12851.92, -0.00044012684, -0.028073156, -1164432.6, -5058.8613, 0.0009683537, 10.000758, 9.992374 
5.850357e+2, 1.9168857e+2, -1062537.0, -1130028.6, -12809.211, -0.00050224067, -0.037673295, -1060187.6, 1261.1378, 0.00027478443, 10.001236, 9.992278 
5.850892e+2, 2.016799e+2, -970702.5, -1054879.1, -15372.517, 0.00074451155, -0.038416937, -967983.0, -4449.316, 0.00012467508, 10.001649, 9.99053 
5.8514297e+2, 2.1167053e+2, -867128.94, -955838.75, -15693.181, 0.0019882568, -0.026511373, -864434.56, 1191.0148, 0.0000877705, 10.002095, 9.990379 
5.8519614e+2, 2.2166006e+2, -775402.8, -878476.4, -16832.727, 0.00091361103, -0.028223066, -772723.56, -4995.4155, 0.00007200422, 10.002411, 9.98882 
5.8525014e+2, 2.3164864e+2, -672017.94, -778404.9, -16212.767, -0.0021264, -0.054050643, -669602.1, 238.08498, 0.00006284414, 10.0027895, 9.988774 
5.853038e+2, 2.416368e+2, -581227.6, -702303.25, -15585.975, -0.00054054055, -0.04167108, -579253.44, -7297.2363, 0.00005789635, 10.003051, 9.9871645 
5.8535844e+2, 2.5162438e+2, -474728.22, -602514.8, -13939.949, 0.004185576, 0.018417895, -473225.22, 852.7937, 0.000055242694, 10.003723, 9.986956 
5.8541316e+2, 2.6161048e+2, -380759.7, -523827.8, -10291.606, -0.000053902717, -0.008007279, -380023.16, -3809.1218, 0.000055795954, 10.0041685, 9.98542 
5.85469e+2, 2.7159408e+2, -275563.6, -426060.2, -9628.459, -0.012978244, -0.1509112, -274950.1, 3424.6304, 0.00007332081, 10.004815, 9.985081 
5.8552504e+2, 2.815795e+2, -179605.66, -345184.38, -11794.401, -0.004866739, -0.07975868, -178769.75, 1747.8488, 0.0001400374, 10.005372, 9.983638 
5.8558035e+2, 2.9156563e+2, -76925.5, -254676.0, -10498.88, 0.025632402, 0.23005377, -76307.52, 6346.4863, 0.00028783004, 10.006098, 9.982776 
5.856382e+2, 3.0154535e+2, 6357.7734, -158448.1, 5892.478, -0.018666176, -0.20597276, 6568.1846, 6568.1846, 0.00051568105, 10.0071535, 9.985454 
5.8569765e+2, 3.115329e+2, 80638.44, -16460.916, -4014.2505, 0.010972071, -0.010222304, 80804.12, 80804.12, 0.00078684813, 10.007684, 9.994938 
5.946489e+2, 1.2166638e+2, -1762932.1, -1749411.5, -2800.6792, 0.0057686046, -0.031582016, -1748854.3, -1188.2297, 0.17203067, 9.997074, 9.998846 
5.947053e+2, 1.3166407e+2, -1660948.5, -1662854.9, -2205.5974, -0.014310461, -0.05032642, -1659499.0, -9810.259, 0.12317733, 9.997935, 9.997642 
5.947618e+2, 1.4166106e+2, -1560262.4, -1582577.8, -4252.955, -0.00054942624, -0.023449432, -1559479.4, -7761.057, 0.0760359, 9.998955, 9.9959345 
5.9481764e+2, 1.5165687e+2, -1459219.3, -1486182.9, -5950.484, 0.0009640691, -0.02759426, -1457964.5, -4205.0254, 0.038946632, 9.999291, 9.995657 
5.94873e+2, 1.6165155e+2, -1367262.3, -1408278.5, -9943.516, 0.00014135963, -0.034888208, -1364978.8, -9167.249, 0.016318014, 9.999622, 9.994131 
5.949279e+2, 1.7164576e+2, -1260797.6, -1306669.5, -9570.337, -0.0032628125, -0.039362658, -1258881.1, -1012.91254, 0.0058532357, 10.00022, 9.9940815 
5.949824e+2, 1.8163885e+2, -1167470.8, -1231296.3, -11524.702, -0.0049145706, -0.040132806, -1165453.5, -5517.619, 0.002137039, 10.000774, 9.992275 
5.95037e+2, 1.916312e+2, -1063531.9, -1132492.3, -11485.286, 0.0013257248, -0.03268324, -1061669.4, 341.69916, 0.001055166, 10.001266, 9.992086 
5.950909e+2, 2.0162244e+2, -971939.7, -1057834.6, -14168.212, 0.005161695, -0.021495856, -969663.0, -5566.0034, 0.00073918933, 10.001672, 9.990312 
5.9514505e+2, 2.1161275e+2, -868434.06, -959104.94, -14413.722, -0.0014735984, -0.021144202, -866197.94, -5.992327, 0.00060496945, 10.002126, 9.990135 
5.951986e+2, 2.2160189e+2, -776454.2, -881039.25, -15558.335, -0.0069651357, -0.035137698, -774188.8, -5890.545, 0.0005205493, 10.002429, 9.988634 
5.9525293e+2, 2.3159029e+2, -672597.9, -779959.2, -14787.064, -0.0034428558, -0.066877335, -670598.44, -186.5195, 0.0004661713, 10.002806, 9.988657 
5.953069e+2, 2.4157834e+2, -581819.3, -703284.8, -13589.687, 0.0029177282, -0.052362736, -580317.44, -7788.4434, 0.0004356508, 10.003041, 9.987099 
5.9536225e+2, 2.515661e+2, -474762.1, -602179.0, -11450.527, 0.0059788716, 0.027515985, -473741.25, 907.55023, 0.0004130641, 10.003708, 9.986981 
5.954173e+2, 2.6155227e+2, -383105.72, -527735.94, -8393.421, -0.002847966, 0.009173143, -382620.25, -5835.5806, 0.00038235346, 10.004111, 9.985187 
5.954737e+2, 2.7153534e+2, -277974.34, -430948.06, -7310.459, -0.023420643, -0.15425698, -277625.75, 1324.8713, 0.00036756825, 10.0048, 9.9847555 
5.955303e+2, 2.815207e+2, -177525.25, -340376.75, -9806.751, -0.014422958, -0.0921642, -176936.83, 4157.1934, 0.00045654777, 10.005331, 9.983991 
5.955865e+2, 2.9150724e+2, -75699.31, -249930.69, -7709.3853, 0.0332204, 0.22415756, -75358.85, 7867.0703, 0.0007430319, 10.005992, 9.9831505 
5.956453e+2, 3.014865e+2, -4533.3306, -177595.42, 8394.191, -0.01996068, -0.23149683, -4127.133, -4127.133, 0.0012328605, 10.007003, 9.98421 
5.9570515e+2, 3.1147298e+2, 85607.63, -3841.8137, -2790.5022, -0.0030036413, 0.0053024474, 85694.6, 85694.6, 0.0018376576, 10.007604, 9.995833 
6.046463e+2, 1.21609084e+2, -1756156.9, -1750744.1, -4375.182, 0.010327398, -0.033583514, -1748305.9, -78.30732, 0.214152, 9.997741, 9.998426 
6.0470337e+2, 1.3160664e+2, -1653647.9, -1660940.1, -1984.8844, -0.01792299, -0.04117586, -1653142.6, -2891.0864, 0.15643857, 9.99849, 9.997496 
6.0476077e+2, 1.4160344e+2, -1558285.1, -1581836.4, -5990.3877, 0.0035491295, -0.029172387, -1556849.1, -4566.125, 0.09991464, 9.9990835, 9.995921 
6.04817e+2, 1.5159918e+2, -1458230.6, -1486991.4, -6678.1084, 0.0029932316, -0.03171808, -1456755.8, -2430.9592, 0.054502863, 9.999408, 9.995545 
6.048727e+2, 1.6159385e+2, -1363877.4, -1406293.0, -8576.078, -0.0006057458, -0.035369743, -1362209.0, -5831.952, 0.025911747, 9.999831, 9.9941635 
6.049282e+2, 1.7158815e+2, -1256869.0, -1304333.6, -8595.115, -0.0029770727, -0.036585342, -1255360.5, 3072.4087, 0.011987488, 10.000464, 9.99412 
6.0498327e+2, 1.815812e+2, -1164504.1, -1231647.5, -11677.892, -0.0033888603, -0.036819242, -1162531.0, -2029.9929, 0.0065416535, 10.001044, 9.992119 
6.0503834e+2, 1.9157326e+2, -1062423.0, -1134788.4, -12732.025, 0.0002069676, -0.03623423, -1060248.3, 2330.6365, 0.0046063922, 10.001455, 9.991836 
6.0509264e+2, 2.0156421e+2, -970912.44, -1058681.8, -15801.239, 0.0023313235, -0.02939935, -968154.44, -3486.7725, 0.0037910414, 10.001808, 9.990176 
6.051473e+2, 2.1155454e+2, -866851.44, -958906.56, -15337.349, 0.0007454892, -0.021050824, -864363.3, 2398.9817, 0.003294016, 10.002262, 9.990074 
6.052011e+2, 2.2154361e+2, -774824.6, -882853.56, -16112.821, -0.0010448, -0.028394192, -772472.56, -3603.1865, 0.0029299043, 10.002639, 9.98841 
6.0525584e+2, 2.3153174e+2, -671945.9, -783150.0, -16991.768, -0.004482178, -0.061288465, -669407.5, 1578.1992, 0.0026845648, 10.002994, 9.988347 
6.0530996e+2, 2.4151942e+2, -582440.7, -706055.9, -17123.932, -0.0021553356, -0.048551694, -580112.44, -7006.0557, 0.0025410713, 10.003102, 9.986872 
6.053659e+2, 2.5150707e+2, -478056.9, -604196.5, -15470.987, 0.008936766, 0.023483863, -476187.13, -959.49493, 0.0024159902, 10.003484, 9.986947 
6.0542125e+2, 2.61493e+2, -391378.63, -534685.4, -12176.289, 0.0060411827, -0.0007871284, -390351.4, -12986.187, 0.0021913543, 10.003636, 9.984948 
6.054785e+2, 2.714759e+2, -278722.7, -433776.97, -9611.722, -0.017049154, -0.1540988, -278129.13, 1403.5581, 0.0018755151, 10.004794, 9.984584 
6.055357e+2, 2.8146145e+2, -175096.05, -337870.06, -13973.779, -0.0069240546, -0.08060482, -173905.14, 7769.3574, 0.0017067166, 10.0053835, 9.984158 
6.055925e+2, 2.9144806e+2, -78438.01, -250926.17, -13171.179, 0.044275343, 0.23432072, -77438.055, 6367.653, 0.0019738742, 10.005749, 9.983207 
6.056521e+2, 3.0142668e+2, -20371.463, -201559.0, 3167.0671, -0.024362233, -0.22791633, -20316.121, -20316.121, 0.00273566, 10.006611, 9.982741 
6.0571295e+2, 3.1141147e+2, 93389.44, 9090.567, -9873.164, 0.003355925, 0.009812197, 94530.35, 94530.35, 0.0038015225, 10.007756, 9.99663 
6.1464393e+2, 1.21551834e+2, -1759350.9, -1755895.3, -4898.6416, -0.0032791428, -0.021723136, -1752428.6, -3639.9492, 0.27198067, 9.997696, 9.998084 
6.14702e+2, 1.3154879e+2, -1657022.5, -1666885.9, -1089.1682, -0.013359083, -0.03528889, -1656903.6, -6085.099, 0.20546661, 9.998461, 9.997094 
6.1476e+2, 1.4154531e+2, -1557593.5, -1579365.8, -5917.6895, 0.015449642, -0.04274045, -1556089.0, -3236.4192, 0.13911296, 9.999048, 9.996096 
6.148164e+2, 1.5154128e+2, -1458227.0, -1485623.3, -6647.9336, 0.0033717037, -0.041901894, -1456699.0, -1806.8743, 0.08438501, 9.99936, 9.995651 
6.1487246e+2, 1.6153611e+2, -1364527.9, -1406244.4, -7705.542, -0.008640647, -0.035816085, -1363150.1, -6207.4233, 0.048496593, 9.999779, 9.994184 
6.149288e+2, 1.7153049e+2, -1258138.6, -1305943.1, -7196.077, -0.0015273157, -0.021947606, -1257078.9, 1919.1428, 0.02976512, 10.000431, 9.994017 
6.1498445e+2, 1.8152343e+2, -1166611.3, -1235567.6, -10571.51, 0.0026535394, -0.016587578, -1165027.0, -3959.6687, 0.021445168, 10.001036, 9.991847 
6.150397e+2, 1.9151485e+2, -1064768.0, -1139748.5, -11858.14, -0.006481446, -0.04825292, -1062937.4, 214.00702, 0.017750558, 10.001474, 9.991477 
6.1509436e+2, 2.0150527e+2, -971456.56, -1059913.4, -14733.449, -0.01147053, -0.06257973, -969067.1, -3822.0635, 0.015685128, 10.001818, 9.990082 
6.151496e+2, 2.1149595e+2, -865997.4, -957585.2, -13844.2705, 0.0033078138, -0.026976045, -863950.44, 3386.0637, 0.014165093, 10.002292, 9.990144 
6.152039e+2, 2.2148518e+2, -776684.8, -886966.75, -14974.075, 0.011953028, -0.009190131, -774687.75, -5245.8457, 0.012958546, 10.002656, 9.988116 
6.152588e+2, 2.3147294e+2, -675787.9, -790699.75, -16046.063, -0.0067961547, -0.03922644, -673589.3, -2027.3312, 0.012107187, 10.002981, 9.987834 
6.153129e+2, 2.4146e+2, -586269.75, -712393.75, -15645.261, -0.016499156, -0.03228276, -584358.0, -10669.094, 0.0115695195, 10.003044, 9.98646 
6.153693e+2, 2.5144708e+2, -479195.53, -606685.1, -14278.0, 0.0042367396, 0.0062809265, -477616.06, -1800.7219, 0.011032614, 10.003503, 9.986758 
6.15425e+2, 2.614326e+2, -393881.9, -539955.94, -9720.653, 0.010900645, -0.03462884, -393237.88, -15280.617, 0.010000831, 10.003612, 9.984607 
6.154835e+2, 2.714156e+2, -280052.8, -436858.4, -5555.6294, -0.008381129, -0.1543333, -279856.25, 267.79388, 0.00835712, 10.004792, 9.98437 
6.155412e+2, 2.8140134e+2, -176353.1, -339314.56, -13615.863, 0.005545701, -0.05642496, -175223.28, 7040.557, 0.0067573697, 10.005299, 9.9841175 
6.155982e+2, 2.9138768e+2, -80826.55, -255063.05, -11940.154, 0.049418367, 0.25002167, -80012.11, 4385.6797, 0.006111138, 10.005677, 9.982974 
6.156585e+2, 3.013657e+2, -33176.55, -225467.23, 6904.947, -0.038136885, -0.19676529, -32928.92, -32928.92, 0.0067206244, 10.006472, 9.981179 
6.157207e+2, 3.1134844e+2, 92283.984, 16487.412, -4328.037, 0.013843636, 0.023607738, 92530.32, 92530.32, 0.008187074, 10.007362, 9.997333 
6.2464285e+2, 1.2149264e+2, -1749065.6, -1778000.1, -7723.3916, 0.025561487, -0.054764424, -1747133.1, 2235.9465, 0.3541072, 9.999642, 9.995639 
6.247008e+2, 1.3149041e+2, -1638825.8, -1649233.3, 1182.9465, -0.033721223, -0.013160554, -1638693.0, 12697.954, 0.28109142, 9.999699, 9.997749 
6.247594e+2, 1.41487e+2, -1544675.0, -1572099.8, -3287.3928, 0.0018947686, -0.044931605, -1544286.4, 9137.619, 0.20657134, 10.00009, 9.996087 
6.2481606e+2, 1.5148295e+2, -1448700.1, -1480774.5, -6145.4644, -0.0016602083, -0.03933566, -1447563.0, 7900.634, 0.1432552, 10.000095, 9.995631 
6.2487245e+2, 1.614778e+2, -1356999.9, -1403632.4, -7941.7974, -0.008413173, -0.030635461, -1355684.5, 1829.7808, 0.09987318, 10.000339, 9.994089 
6.249291e+2, 1.7147192e+2, -1261116.6, -1309269.0, -8943.852, -0.0012101557, -0.026600827, -1259509.1, 62.874905, 0.075513154, 10.0002985, 9.993851 
6.249851e+2, 1.8146485e+2, -1172958.9, -1234873.3, -10097.26, 0.0032116228, -0.02641498, -1171353.8, -9712.3955, 0.06323491, 10.00042, 9.992198 
6.2504125e+2, 1.914569e+2, -1061897.5, -1133308.8, -5621.856, -0.0010657862, -0.03965802, -1061457.8, 2261.4812, 0.056682963, 10.001445, 9.991942 
6.250966e+2, 2.0144765e+2, -963363.75, -1059263.6, -5835.402, -0.0017668012, -0.042454123, -963009.94, 2799.8435, 0.052283235, 10.002509, 9.989804 
6.251523e+2, 2.1143755e+2, -860175.5, -962505.75, -10812.949, 0.0037431195, -0.025317814, -859045.4, 8863.463, 0.048651624, 10.003056, 9.989439 
6.2520677e+2, 2.2142595e+2, -771169.4, -888510.9, -17477.357, 0.004063928, -0.023548352, -768621.56, 1400.861, 0.04555987, 10.003227, 9.987723 
6.252619e+2, 2.3141357e+2, -674446.8, -791522.1, -17984.508, -0.0023040054, -0.050191008, -671746.4, 397.25528, 0.043225635, 10.00314, 9.987697 
6.253161e+2, 2.4140036e+2, -587209.9, -718337.1, -14581.444, -0.0011970571, -0.039816707, -585607.94, -11334.769, 0.04156095, 10.003163, 9.986023 
6.25373e+2, 2.513871e+2, -478646.2, -613028.4, -15718.787, 0.008600218, 0.010920259, -476832.03, -428.73322, 0.039684203, 10.003771, 9.986221 
6.254286e+2, 2.61372e+2, -394755.4, -547662.56, -12638.9375, 0.0034743205, -0.01372732, -393717.75, -15166.696, 0.036110234, 10.00386, 9.98395 
6.254882e+2, 2.7135453e+2, -278583.88, -438748.97, -8352.788, -0.022568345, -0.14142999, -278149.44, 2572.9075, 0.030348934, 10.004993, 9.984139 
6.255463e+2, 2.813398e+2, -180438.28, -345140.13, -19453.936, -0.009446423, -0.07367399, -178171.66, 4695.129, 0.024075592, 10.005156, 9.98379 
6.256045e+2, 2.9132536e+2, -66097.34, -253586.9, -17430.756, 0.045067765, 0.20091778, -64490.59, 20517.848, 0.019858941, 10.006931, 9.982468 
6.256654e+2, 3.0130333e+2, -26349.484, -231844.06, -3439.216, -0.039747305, -0.1984281, -26291.941, -26291.941, 0.018799579, 10.007259, 9.9804 
6.2572706e+2, 3.112848e+2, 68326.1, 21589.73, -9648.338, 0.020419478, -0.016908633, 70239.58, 70239.58, 0.020104516, 10.004873, 9.9989805 
6.3470066e+2, 1.3143195e+2, -1665231.8, -1649382.5, 988.75073, -0.008144627, -0.010484239, -1649321.1, 2642.8906, 0.3986437, 9.996908, 9.999134 
6.347596e+2, 1.4142905e+2, -1581865.3, -1594556.4, -8880.513, 0.01389968, -0.043253135, -1577296.1, -23304.127, 0.32109898, 9.997547, 9.995789 
6.3481617e+2, 1.5142469e+2, -1460971.4, -1490430.0, -9048.763, 0.0023288305, -0.03475545, -1458413.9, -2379.2668, 0.25318962, 9.999307, 9.995351 
6.348729e+2, 1.6141935e+2, -1359270.0, -1407559.4, -9270.015, -0.002512264, -0.024526503, -1357551.6, 535.7281, 0.20482565, 10.000313, 9.993821 
6.3492936e+2, 1.7141286e+2, -1263472.8, -1313291.4, -10480.95, -0.007925654, -0.055587452, -1261357.5, -1206.8148, 0.1758956, 10.000282, 9.993571 
6.3498545e+2, 1.8140578e+2, -1168180.5, -1223528.4, -8792.922, -0.011414844, -0.06767959, -1166817.3, -4597.267, 0.15969306, 10.000363, 9.992986 
6.3504285e+2, 1.913996e+2, -1055439.0, -1116776.4, -2032.2106, 0.0077584637, -0.015015546, -1055371.8, 8908.762, 0.14982603, 10.001447, 9.993051 
6.3509935e+2, 2.0139137e+2, -967027.06, -1066960.9, -3249.4048, 0.018121984, 0.027572647, -966921.5, -560.36487, 0.14231765, 10.002514, 9.989264 
6.3515526e+2, 2.113794e+2, -869018.06, -983111.0, -9075.807, -0.0075507984, -0.019436788, -868300.6, 177.96019, 0.13550727, 10.00313, 9.9879875 
6.3520974e+2, 2.2136603e+2, -774043.2, -896764.25, -16712.146, -0.03127891, -0.06884972, -771808.0, -1198.3685, 0.12921391, 10.003337, 9.9871 
6.3526505e+2, 2.3135367e+2, -672690.7, -789041.44, -18140.639, -0.0029470122, -0.09424384, -669927.94, 2802.6113, 0.12399558, 10.003237, 9.987809 
6.353196e+2, 2.4134044e+2, -592139.9, -727796.56, -13295.491, 0.026845165, -0.07024366, -590849.06, -15988.785, 0.1196944, 10.003139, 9.985381 
6.353768e+2, 2.5132683e+2, -486120.97, -627372.4, -14988.081, 0.012374237, 0.029979024, -484548.13, -7554.2056, 0.11434348, 10.003719, 9.985263 
6.354323e+2, 2.6131105e+2, -403351.16, -563009.56, -10682.766, -0.02087613, 0.055557344, -402639.53, -23490.879, 0.10449241, 10.003721, 9.982979 
6.354929e+2, 2.712927e+2, -280038.75, -443092.4, -5864.919, -0.063751526, -0.111979954, -279828.06, 1500.3208, 0.088948555, 10.005029, 9.98383 
6.3555104e+2, 2.8127682e+2, -184024.86, -354958.03, -18476.654, -0.057565305, -0.12140519, -182050.47, 1433.1718, 0.07142324, 10.005196, 9.983124 
6.356112e+2, 2.91261e+2, -74194.41, -266609.2, -11914.922, 0.02371649, 0.09236353, -73459.41, 12179.416, 0.05796561, 10.006745, 9.981677 
6.3567245e+2, 3.012394e+2, -34638.28, -237023.25, -12163.905, -0.050837103, -0.23045489, -33909.82, -33909.82, 0.051588424, 10.006696, 9.98035 
6.357311e+2, 3.112205e+2, 68995.8, 42832.38, -19124.875, -0.020441039, -0.08527887, 79085.016, 79085.016, 0.050905757, 10.00412, 10.000957 
6.448729e+2, 1.613581e+2, -1363407.4, -1392246.1, 4532.2427, 0.022075599, -0.04769515, -1362711.9, -4024.882, 0.39385006, 9.99927, 9.995306 
6.449291e+2, 1.7135403e+2, -1250231.4, -1281052.3, -8814.283, -0.07491621, -0.0068328255, -1247888.6, 12838.73, 0.3631605, 10.000658, 9.995613 
6.4498645e+2, 1.8134803e+2, -1167761.9, -1228241.4, -2040.7686, 0.03965235, -0.01927303, -1167693.1, -4906.8696, 0.34433386, 10.000593, 9.99256 
6.450441e+2, 1.9133987e+2, -1070364.5, -1139303.0, -11574.343, 0.013555962, -0.048026457, -1068473.1, -3607.0017, 0.33186242, 10.000946, 9.991734 
6.451009e+2, 2.013304e+2, -974656.25, -1058006.3, -21182.11, -0.031162988, -0.07179561, -969582.06, -2623.2102, 0.32141975, 10.001455, 9.990337 
6.451584e+2, 2.1132147e+2, -860657.25, -948668.0, -1656.7224, 0.008292375, -0.03952731, -860626.06, 8420.088, 0.31100234, 10.002716, 9.990536 
6.452142e+2, 2.2131073e+2, -766736.0, -891225.9, 9167.304, 0.038871832, -0.008431282, -766064.5, 5086.772, 0.30041274, 10.003944, 9.987218 
6.452688e+2, 2.3129731e+2, -672299.44, -807120.56, -967.8233, -0.0062257727, -0.020513004, -672292.5, 990.49854, 0.29071093, 10.004049, 9.986215 
6.453226e+2, 2.4128152e+2, -593901.2, -757301.06, -8319.141, -0.042594057, -0.022484967, -593478.75, -18040.822, 0.2817397, 10.004266, 9.982827 
6.453812e+2, 2.512647e+2, -474335.72, -640169.2, -20795.803, -0.0059856432, -0.02528222, -471767.66, 5835.1797, 0.26974383, 10.005484, 9.983559 
6.454376e+2, 2.6124603e+2, -393724.16, -600677.94, -23257.494, 0.023382124, -0.0566682, -391142.7, -11357.049, 0.24780308, 10.006205, 9.979178 
6.455001e+2, 2.712245e+2, -276889.0, -490267.4, -45832.824, 0.032271013, -0.09944175, -267460.88, 14535.782, 0.2136612, 10.007633, 9.979295 
6.455583e+2, 2.8120688e+2, -159587.08, -331861.53, -75353.07, 0.05827672, -0.020526402, -131279.1, 52890.05, 0.17465666, 10.007197, 9.983738 
6.4561886e+2, 2.9119286e+2, -52279.594, -226880.13, -44380.332, 0.08441053, 0.16182408, -41646.465, 44660.164, 0.14277904, 10.007541, 9.9839735 
6.45678e+2, 3.0117446e+2, -72334.28, -246105.02, -47592.53, -0.013580474, -0.035300024, -60153.43, -60153.43, 0.12436324, 10.003777, 9.981088 
6.457333e+2, 3.1115493e+2, -5395.506, 17101.242, -49430.67, 0.031585146, 0.067592755, 56547.22, 56547.22, 0.11729313, 9.998543, 10.001938 
6.555644e+2, 2.8112838e+2, -218033.3, -338704.94, 11111.985, -0.051437885, -0.07056659, -217018.58, -32079.97, 0.3578687, 10.001436, 9.986098 
6.556256e+2, 2.9111883e+2, -38922.723, -153332.23, 35159.73, -0.0016807321, 0.014213031, -28981.438, 58050.633, 0.2964861, 10.006911, 9.989542 
6.5568197e+2, 3.0110568e+2, -3742.465, -191424.2, 7286.5137, 0.010978212, -0.113469124, -3460.0002, -3460.0002, 0.25644243, 10.007457, 9.983261 
6.5573055e+2, 3.1108636e+2, 26437.23, 32956.98, 23006.535, -0.029418215, -0.047096286, 52933.44, 52933.44, 0.2349337, 10.000812, 10.002546 
7.1467644e+2, 1.6817771e+2, -1299140.1, -1293486.8, 10639.915, 0.047840513, -0.14439067, -1285304.5, 6540.7944, 0.39580005, 9.93053, 9.931188 
7.135328e+2, 1.7810833e+2, -1196076.6, -1215086.8, -1793.071, 0.071962655, -0.13428153, -1195909.0, -1384.1405, 0.36749697, 9.931957, 9.929615 
7.123906e+2, 1.8803719e+2, -1094711.3, -1129530.3, 926.6743, 0.09637249, -0.14316341, -1094686.6, 2535.5781, 0.33911413, 9.933127, 9.928333 
7.112483e+2, 1.9796485e+2, -990089.44, -1037985.9, -855.3763, 0.041160326, -0.15861337, -990074.2, 9856.809, 0.30851847, 9.934218, 9.927284 
7.101046e+2, 2.0789154e+2, -893615.7, -947234.94, 1229.4103, -0.016056262, -0.17881173, -893587.5, 9061.513, 0.27875233, 9.934363, 9.926605 
7.0896244e+2, 2.1781817e+2, -798999.2, -846774.0, 2485.6838, -0.027125617, -0.18029314, -798870.2, 6497.4824, 0.25782213, 9.933804, 9.927023 
7.0781994e+2, 2.2774617e+2, -704204.6, -742705.6, -441.51477, 0.020976448, -0.14610767, -704199.56, 3873.7505, 0.25607178, 9.933306, 9.927812 
7.066786e+2, 2.3767482e+2, -602643.4, -637997.6, -13699.337, 0.029786728, -0.103397794, -597956.44, 12815.965, 0.2815824, 9.933521, 9.928424 
7.055331e+2, 2.4760132e+2, -493424.7, -549772.2, -15665.45, -0.07812433, -0.21485956, -489362.34, 24130.285, 0.33780062, 9.935716, 9.926961 
7.291702e+2, 1.2960352e+2, -1650683.8, -1669134.6, -1329.3292, 0.0962293, -0.13955839, -1650588.4, 19285.771, 0.38657025, 9.934654, 9.930889 
7.280284e+2, 1.3953401e+2, -1560990.4, -1578703.0, -3868.558, 0.13087258, -0.13771608, -1560182.4, 12372.414, 0.32062596, 9.934159, 9.931137 
7.2689015e+2, 1.494659e+2, -1504852.8, -1501796.8, -2555.3037, 0.10526312, -0.12651141, -1500347.4, -25125.342, 0.26370573, 9.930983, 9.931508 
7.257508e+2, 1.5939598e+2, -1394692.8, -1419396.6, 6140.551, 0.08464984, -0.1488745, -1393250.6, -15343.526, 0.2228128, 9.932247, 9.929078 
7.2460824e+2, 1.6932449e+2, -1292250.8, -1330071.8, 583.8172, 0.07967685, -0.14025532, -1292241.8, -11634.42, 0.1965221, 9.932928, 9.927969 
7.234651e+2, 1.7925207e+2, -1181360.9, -1226508.8, 1672.7133, 0.034714706, -0.154347, -1181299.0, 2017.9159, 0.17812835, 9.933936, 9.927924 
7.2232354e+2, 1.8918055e+2, -1084836.4, -1126031.5, 4102.6885, 0.050579812, -0.13536017, -1084431.8, 1586.2926, 0.16184242, 9.933894, 9.928197 
7.2118235e+2, 1.9910869e+2, -992927.0, -1038852.3, -2210.5425, 0.04630967, -0.097025245, -992820.9, -4098.114, 0.14482777, 9.933699, 9.927529 
7.200389e+2, 2.0903613e+2, -893402.44, -943464.56, -4040.012, -0.004273159, -0.09886165, -893078.5, -1645.0371, 0.12795308, 9.93393, 9.927166 
7.1889627e+2, 2.1896283e+2, -800201.3, -853874.2, -6873.4624, -0.02183483, -0.11567204, -799335.06, -5183.943, 0.11534935, 9.933774, 9.9266615 
7.177535e+2, 2.288887e+2, -712516.3, -770126.5, -5844.8447, 0.044970352, -0.16527666, -711929.3, -15051.858, 0.11286214, 9.93368, 9.92587 
7.166124e+2, 2.3881415e+2, -613566.7, -675429.2, -14309.349, 0.038941115, -0.17736697, -610417.2, -10809.141, 0.12563485, 9.933906, 9.925789 
7.1546847e+2, 2.4874087e+2, -495179.25, -567664.44, -11844.483, -0.1312445, -0.10516479, -493292.88, 9033.632, 0.15757434, 9.935715, 9.925817 
7.1432936e+2, 2.5866553e+2, -399631.56, -492654.6, -11338.654, -0.1560277, -0.112529024, -398269.44, 6795.34, 0.21082063, 9.936453, 9.923844 
7.13193e+2, 2.685882e+2, -343412.47, -409263.5, 16066.566, 0.13517536, -0.24308366, -339701.6, -31878.826, 0.28447664, 9.933516, 9.9243355 
7.1205324e+2, 2.785176e+2, -199681.52, -208795.97, -54142.523, -0.13084738, -0.076478995, -149904.77, 60610.168, 0.37004906, 9.93308, 9.932613 
7.402422e+2, 1.2081476e+2, -1782782.4, -1794518.6, 5143.8667, 0.16935098, -0.13073751, -1780847.0, -24841.92, 0.32493475, 9.9327345, 9.931054 
7.391023e+2, 1.3074674e+2, -1660255.8, -1671703.4, 4706.678, 0.07947383, -0.05045453, -1658569.1, 102.49402, 0.25898266, 9.933274, 9.931661 
7.379628e+2, 1.4067739e+2, -1545989.4, -1571333.1, 9267.205, 0.082859606, -0.1166002, -1542962.3, 18388.262, 0.19368057, 9.935019, 9.930991 
7.368239e+2, 1.5060818e+2, -1453399.1, -1484953.0, 4132.689, 0.053177346, -0.10470765, -1452866.9, 11162.162, 0.13986363, 9.934985, 9.930343 
7.3568416e+2, 1.6053809e+2, -1366012.5, -1406744.5, -9735.777, 0.05290875, -0.06878968, -1363805.1, 2910.9866, 0.103883736, 9.934639, 9.929073 
7.345426e+2, 1.7046681e+2, -1254403.9, -1304631.6, -7962.9204, 0.058271766, -0.09769579, -1253171.6, 16242.543, 0.083562806, 9.935706, 9.928688 
7.3340076e+2, 1.8039472e+2, -1148934.4, -1210997.5, -7126.406, 0.05309664, -0.1240963, -1148126.6, 23993.564, 0.072091475, 9.936518, 9.927912 
7.322587e+2, 1.903227e+2, -1061219.9, -1122196.4, -7517.6665, 0.050859842, -0.113253824, -1060306.6, 14519.633, 0.06384599, 9.935999, 9.927582 
7.3111683e+2, 2.0025003e+2, -975190.06, -1037983.75, -13015.538, 0.039897114, -0.09250477, -972599.2, 4939.4, 0.05605498, 9.935386, 9.926959 
7.2997385e+2, 2.1017696e+2, -871797.8, -941329.94, -14571.941, 0.0049249716, -0.0937647, -868867.44, 11387.091, 0.048505012, 9.935988, 9.926676 
7.288317e+2, 2.2010306e+2, -767113.75, -847734.56, -21257.043, -0.0059551634, -0.10627936, -761852.4, 21126.076, 0.04279683, 9.93673, 9.926042 
7.276891e+2, 2.3002864e+2, -667914.25, -756563.75, -17194.955, 0.038751245, -0.14165229, -664695.9, 21011.672, 0.041521534, 9.937217, 9.925426 
7.265478e+2, 2.3995335e+2, -575850.75, -669803.94, -17121.053, 0.0183034, -0.14763118, -572828.06, 15617.324, 0.047353227, 9.937036, 9.924772 
7.2540456e+2, 2.4987933e+2, -484586.25, -574785.9, -11265.494, -0.12499084, -0.05824076, -483200.53, 7970.138, 0.06319039, 9.936644, 9.925023 
7.242659e+2, 2.5980422e+2, -399922.72, -495771.75, -17687.564, -0.114452735, -0.01771002, -396762.9, -2856.1714, 0.09225254, 9.93591, 9.9241905 
7.231283e+2, 2.6972678e+2, -300181.88, -392575.16, -9401.1875, 0.15607661, -0.19767651, -299235.0, -2569.3662, 0.13675316, 9.936069, 9.924739 
7.219896e+2, 2.796498e+2, -224905.25, -327352.63, -31726.324, 0.06758038, -0.22112454, -215875.92, -16456.021, 0.19445835, 9.934452, 9.923111 
7.2083455e+2, 2.8957814e+2, -34516.633, -122526.79, -36114.133, -0.547296, 0.0846422, -21594.764, 80527.4, 0.25736958, 9.939642, 9.927488 
7.19703e+2, 2.9949883e+2, -76391.27, -312009.03, 88064.836, -0.014066016, -0.124716766, -47113.965, -42214.684, 0.31586152, 9.941472, 9.912012 
7.185861e+2, 3.0940834e+2, -16200.397, -6568.5835, -23362.895, -0.13731372, -0.027807182, 12469.603, 12469.603, 0.365158, 9.933463, 9.935618 
7.5017506e+2, 1.21954285e+2, -1738943.1, -1736821.5, 15645.939, 0.11751397, -0.07731127, -1722200.5, 22638.783, 0.23778631, 9.934375, 9.93439 
7.490369e+2, 1.3188703e+2, -1640371.0, -1653324.9, -3883.1304, 0.14648896, -0.08946666, -1639296.1, 8201.883, 0.17853287, 9.93458, 9.932655 
7.4789834e+2, 1.4181785e+2, -1554511.8, -1585569.4, -2846.159, 0.16479732, -0.16252926, -1554253.0, -4077.4207, 0.120985776, 9.934733, 9.930552 
7.467595e+2, 1.517484e+2, -1456637.8, -1495193.0, -923.7068, 0.1073612, -0.12413027, -1456615.6, -3759.309, 0.0749508, 9.93508, 9.929751 
7.456193e+2, 1.6167809e+2, -1351854.4, -1396134.6, -7982.7773, 0.066417746, -0.083750255, -1350459.3, 5086.1816, 0.045711238, 9.935492, 9.929371 
7.4447834e+2, 1.7160748e+2, -1249756.5, -1297166.0, -8422.261, 0.060559276, -0.09813894, -1248304.8, 9932.047, 0.030768666, 9.935817, 9.929262 
7.4333704e+2, 1.815358e+2, -1157097.4, -1217818.3, -13376.028, 0.057080977, -0.114017054, -1154281.4, 6657.647, 0.023860537, 9.936009, 9.927844 
7.4219465e+2, 1.9146338e+2, -1057776.6, -1126026.3, -13890.243, 0.045415156, -0.114322826, -1055057.9, 8590.868, 0.020094706, 9.936416, 9.927208 
7.410524e+2, 2.0139009e+2, -963776.06, -1039681.25, -16391.94, 0.028218288, -0.10778697, -960387.44, 5979.5317, 0.01716262, 9.936528, 9.92637 
7.3991007e+2, 2.1131629e+2, -869176.25, -949705.6, -14743.5205, 0.0069600516, -0.11354763, -866561.9, 2528.5103, 0.014534381, 9.936684, 9.925841 
7.387686e+2, 2.2124173e+2, -768120.44, -853109.25, -22065.44, -0.00005648547, -0.11336551, -762733.1, 9087.741, 0.012619459, 9.936899, 9.925653 
7.37626e+2, 2.3116782e+2, -666017.94, -755233.44, -20021.955, 0.011974388, -0.095634855, -661730.56, 12814.709, 0.012302139, 9.937348, 9.925534 
7.3648447e+2, 2.4109288e+2, -573411.06, -671448.7, -24285.395, -0.016738938, -0.079229765, -567725.0, 9554.595, 0.014721392, 9.937322, 9.924584 
7.3534155e+2, 2.510171e+2, -482168.22, -582149.0, -20213.613, -0.09460763, -0.10224768, -478236.2, 1785.6012, 0.02153942, 9.937204, 9.924314 
7.342022e+2, 2.6094058e+2, -397058.44, -502414.3, -25139.955, -0.07461028, -0.12349788, -391367.0, -8595.69, 0.035189275, 9.936596, 9.923503 
7.330631e+2, 2.7086425e+2, -299351.7, -393410.94, -17162.295, 0.06384598, -0.155561, -296318.06, -10798.839, 0.058303732, 9.936221, 9.924581 
7.319231e+2, 2.8078765e+2, -227366.52, -338859.84, -29796.258, -0.02983249, -0.13871829, -219903.16, -31633.354, 0.09198856, 9.935124, 9.922018 
7.3077524e+2, 2.90711e+2, -54520.598, -179124.38, -48700.277, -0.3434193, -0.09702237, -37745.04, 53275.83, 0.13433108, 9.939437, 9.924599 
7.296457e+2, 3.0063128e+2, -44006.45, -241758.73, 37178.5, 0.22100388, -0.38599917, -37247.69, -37247.69, 0.1805317, 9.941494, 9.917761 
7.285228e+2, 3.1054702e+2, 50404.56, 72040.54, -30378.102, 0.088486806, -0.26616234, 93469.375, 93469.375, 0.22554147, 9.935881, 9.938414 
7.601098e+2, 1.230919e+2, -1735304.8, -1753841.9, -8741.099, 0.08319025, -0.12087978, -1731833.1, 1858.7795, 0.17498739, 9.934928, 9.932579 
7.589724e+2, 1.3302538e+2, -1620858.4, -1650310.9, -7751.2026, 0.13308467, -0.04022821, -1618943.0, 17400.904, 0.1261487, 9.9363365, 9.932213 
7.578331e+2, 1.4295633e+2, -1524803.6, -1564315.3, -7370.7246, 0.06708298, -0.08823762, -1523473.5, 15546.782, 0.079539225, 9.936679, 9.931151 
7.5669533e+2, 1.528873e+2, -1427511.4, -1470724.1, -3690.4778, 0.093230605, -0.100768164, -1427198.5, 14497.736, 0.04321595, 9.93674, 9.930691 
7.5555587e+2, 1.6281724e+2, -1331722.8, -1385530.0, -10120.479, 0.09402361, -0.09905762, -1329882.3, 14500.266, 0.02111174, 9.93685, 9.92955 
7.5441486e+2, 1.7274682e+2, -1234063.5, -1291980.9, -11859.868, 0.06282017, -0.09039488, -1231729.0, 15343.478, 0.0106813945, 9.936992, 9.929155 
7.532735e+2, 1.8267517e+2, -1140850.1, -1211598.3, -14751.871, 0.04456678, -0.08854641, -1137897.4, 11877.14, 0.006606641, 9.937229, 9.927808 
7.52132e+2, 1.926028e+2, -1032837.94, -1114060.6, -13526.491, 0.041130383, -0.09298146, -1030644.5, 21839.355, 0.0049766204, 9.938149, 9.927308 
7.509902e+2, 2.025294e+2, -933971.94, -1027393.4, -16740.104, 0.02921191, -0.09467311, -931062.9, 24140.14, 0.004049235, 9.938572, 9.926274 
7.4984777e+2, 2.1245551e+2, -844461.25, -939465.8, -14189.862, 0.00817851, -0.10109017, -842387.1, 15539.989, 0.0033389647, 9.938273, 9.925747 
7.48706e+2, 2.2238071e+2, -754542.7, -852638.0, -16600.965, -0.0016946751, -0.10081521, -751809.44, 8850.618, 0.00286671, 9.937912, 9.925142 
7.475637e+2, 2.3230615e+2, -654264.2, -756392.7, -15540.526, -0.0022670433, -0.08452613, -651951.8, 11439.035, 0.0028619803, 9.938226, 9.925018 
7.464223e+2, 2.4223061e+2, -562445.94, -675691.3, -20123.22, -0.026097285, -0.074132554, -558976.4, 7154.6733, 0.0037244845, 9.938211, 9.923923 
7.452799e+2, 2.5215393e+2, -465738.5, -582743.2, -15353.468, -0.063895024, -0.11849447, -463757.34, 5124.5635, 0.00620779, 9.938339, 9.92366 
7.4413985e+2, 2.620769e+2, -375779.25, -496121.2, -16307.2295, -0.05233352, -0.145819, -373608.66, -1972.3239, 0.011652999, 9.937825, 9.92327 
7.429993e+2, 2.720012e+2, -274398.94, -385575.22, -15416.75, -0.007885567, -0.10412783, -272300.7, 2077.487, 0.021993797, 9.937573, 9.924425 
7.418586e+2, 2.8192446e+2, -207723.52, -350128.7, -18832.598, -0.083538964, -0.062316794, -205275.08, -28144.994, 0.03919401, 9.937256, 9.920387 
7.4071574e+2, 2.918443e+2, -87020.75, -247143.33, -22362.277, -0.21902381, -0.047500584, -83956.336, -4040.8452, 0.06393269, 9.93903, 9.920044 
7.3958427e+2, 3.0176622e+2, -29215.303, -162300.13, 35277.79, 0.015505036, -0.06341609, -20442.28, -20442.28, 0.09425777, 9.939347, 9.923701 
7.384545e+2, 3.116896e+2, -21189.488, -48988.875, -62872.082, -0.32418445, -0.13180797, 29301.037, 29301.037, 0.12634127, 9.9346485, 9.930196 
7.700457e+2, 1.24229476e+2, -1712170.6, -1708671.6, 3335.9192, 0.18422519, -0.028287582, -1706654.3, 15890.577, 0.12768447, 9.935495, 9.935856 
7.6890826e+2, 1.3416277e+2, -1618542.1, -1645815.8, -5742.3384, 0.10318431, -0.016510088, -1617382.4, 7816.0825, 0.0897246, 9.936334, 9.932617 
7.677697e+2, 1.4409453e+2, -1515315.6, -1552451.4, -7360.107, 0.048064332, -0.034847625, -1513910.0, 13956.84, 0.054136056, 9.937024, 9.9318 
7.6663196e+2, 1.5402597e+2, -1417298.5, -1459330.8, -7926.4854, 0.07567079, -0.06568553, -1415853.4, 14684.875, 0.02707615, 9.937202, 9.931326 
7.654927e+2, 1.6395615e+2, -1325431.4, -1382793.6, -14813.263, 0.08400042, -0.07866367, -1321831.9, 11390.395, 0.011202649, 9.937376, 9.929649 
7.643521e+2, 1.7388579e+2, -1220669.9, -1286288.4, -15855.525, 0.056990143, -0.06997494, -1217039.5, 18872.303, 0.0041621407, 9.938022, 9.929177 
7.63211e+2, 1.8381426e+2, -1126385.5, -1203846.5, -17512.326, 0.038394675, -0.06273079, -1122610.4, 16002.591, 0.0017368137, 9.938306, 9.92795 
7.620702e+2, 1.9374205e+2, -1030637.25, -1112080.1, -16872.932, 0.03791334, -0.06884285, -1027280.0, 14040.41, 0.0010035203, 9.938392, 9.927478 
7.6092863e+2, 2.036688e+2, -935172.0, -1026883.56, -22922.07, 0.029851072, -0.07308976, -929762.06, 14276.03, 0.0007333931, 9.938496, 9.926478 
7.5978607e+2, 2.1359515e+2, -836471.7, -933405.25, -21684.148, 0.008746474, -0.07970921, -831842.0, 14917.696, 0.0005799141, 9.9387665, 9.926035 
7.58644e+2, 2.2352038e+2, -746334.5, -853956.1, -22293.1, -0.006926324, -0.0820188, -741899.4, 7592.941, 0.00049384794, 9.938817, 9.924767 
7.5750196e+2, 2.33445e+2, -648343.7, -760787.6, -21046.531, -0.014829759, -0.08857843, -644533.44, 7697.5625, 0.0005179761, 9.939066, 9.924434 
7.5636065e+2, 2.4336894e+2, -554188.56, -674227.7, -24526.549, -0.024696538, -0.08884801, -549370.6, 5605.935, 0.00076709304, 9.9390135, 9.923726 
7.5521857e+2, 2.5329268e+2, -456670.03, -578173.9, -20489.098, -0.0376816, -0.086382896, -453308.0, 4415.5986, 0.001510471, 9.939062, 9.923642 
7.54078e+2, 2.632158e+2, -371663.38, -500955.47, -19527.598, -0.04787391, -0.07576549, -368778.4, -8301.864, 0.0033258887, 9.938614, 9.92256 
7.5293684e+2, 2.7313864e+2, -271891.72, -398592.8, -19899.783, -0.060741186, -0.06644013, -268839.75, -5607.1255, 0.007276033, 9.938551, 9.923071 
7.5179684e+2, 2.830605e+2, -187864.73, -336358.8, -17338.785, -0.08290896, -0.08784467, -185867.06, -19868.611, 0.014830229, 9.9387665, 9.920641 
7.506565e+2, 2.9298064e+2, -75558.195, -233553.45, -8823.429, -0.10213681, -0.108189106, -75066.97, -6286.29, 0.027017841, 9.939795, 9.920361 
7.4952173e+2, 3.029034e+2, -38965.555, -158654.42, 34106.117, -0.10412389, -0.009977996, -29929.05, -29929.05, 0.043197114, 9.938324, 9.923524 
7.483913e+2, 3.128284e+2, 20572.863, 62517.754, 4623.817, -0.057347346, 0.04857753, 63021.414, 63021.414, 0.061147027, 9.934535, 9.93969 
7.799815e+2, 1.2536529e+2, -1694129.6, -1717789.0, -1003.39374, 0.115282446, -0.06725533, -1694087.1, 17327.855, 0.09095766, 9.937301, 9.934078 
7.788454e+2, 1.3529918e+2, -1594198.3, -1625285.3, -1365.6697, 0.1124986, -0.068921335, -1594138.4, 19924.115, 0.06282223, 9.937637, 9.9333935 
7.7770776e+2, 1.4523166e+2, -1499852.3, -1544220.3, -4636.4067, 0.09612049, -0.06295415, -1499373.0, 17351.01, 0.036900293, 9.93794, 9.931944 
7.765697e+2, 1.551636e+2, -1401998.3, -1451616.9, -6577.767, 0.07777246, -0.054389767, -1401141.1, 18249.594, 0.017632606, 9.938109, 9.931425 
7.754305e+2, 1.65094e+2, -1309235.1, -1374060.9, -10540.444, 0.06750664, -0.056255743, -1307564.4, 14508.223, 0.0066743675, 9.9383745, 9.929815 
7.7429086e+2, 1.7502365e+2, -1202799.4, -1276784.9, -11373.062, 0.057323594, -0.064269155, -1201090.5, 23671.38, 0.0020335538, 9.939117, 9.929343 
7.7315e+2, 1.8495214e+2, -1110426.5, -1196708.9, -15610.598, 0.045548685, -0.06544575, -1107689.0, 19773.756, 0.00056177605, 9.939234, 9.927996 
7.720089e+2, 1.9488004e+2, -1018909.3, -1106810.3, -15669.026, 0.03666059, -0.066173464, -1016199.7, 13969.691, 0.00019363461, 9.9389925, 9.927546 
7.708674e+2, 2.048069e+2, -925493.2, -1023166.94, -18218.994, 0.025424648, -0.06564325, -922205.5, 10680.566, 0.00010600476, 9.939064, 9.926509 
7.697255e+2, 2.1473332e+2, -819923.9, -926222.1, -17648.447, 0.009982562, -0.06563215, -817070.3, 18536.686, 0.00007636231, 9.939774, 9.9261 
7.6858366e+2, 2.2465847e+2, -729099.4, -850962.25, -19075.96, -0.0034795268, -0.06276985, -726183.06, 12157.288, 0.0000643526, 9.940005, 9.924465 
7.6744175e+2, 2.3458286e+2, -634242.8, -758650.25, -17744.51, -0.011703025, -0.06555157, -631761.4, 9320.175, 0.00007331319, 9.939954, 9.924176 
7.6630026e+2, 2.4450658e+2, -542566.5, -670997.3, -20418.242, -0.021502918, -0.07183916, -539398.5, 4430.5024, 0.00012967376, 9.9396515, 9.923658 
7.651582e+2, 2.5443032e+2, -446706.16, -575560.7, -19092.15, -0.032630183, -0.06663152, -443936.8, 2639.4053, 0.00030950192, 9.939568, 9.923618 
7.6401705e+2, 2.643534e+2, -363157.0, -502452.44, -17226.26, -0.048700254, -0.04512849, -361058.3, -11728.384, 0.0008111033, 9.9392805, 9.92213 
7.628757e+2, 2.7427542e+2, -268632.4, -407215.03, -14702.976, -0.07109928, -0.04982543, -267089.66, -14996.138, 0.0020784137, 9.939098, 9.922085 
7.617358e+2, 2.8419647e+2, -179039.45, -323276.06, -9331.891, -0.077878974, -0.1091276, -178438.2, -23571.406, 0.0048280107, 9.939, 9.921255 
7.605962e+2, 2.941172e+2, -84175.984, -229337.77, -4593.457, -0.0706681, -0.16386516, -84030.78, -26387.2, 0.009656735, 9.938949, 9.920989 
7.594596e+2, 3.040401e+2, -47116.805, -169789.16, 15131.242, -0.11630752, -0.027590241, -45277.977, -45277.977, 0.016395131, 9.93809, 9.922548 
7.583243e+2, 3.1396222e+2, -15150.185, -34503.066, -5183.412, -0.2577175, -0.11585608, -13849.318, -13849.318, 0.024075368, 9.935369, 9.932878 
7.899187e+2, 1.2650183e+2, -1689456.1, -1711682.3, -4703.592, 0.11093612, -0.047311205, -1688501.8, 11775.97, 0.06232195, 9.937528, 9.93453 
7.887834e+2, 1.3643594e+2, -1585927.0, -1618049.9, -7082.923, 0.12764265, -0.07413567, -1584434.6, 18488.684, 0.042461146, 9.938182, 9.933793 
7.8764606e+2, 1.4636868e+2, -1490439.0, -1538465.9, -10403.456, 0.11204232, -0.07160044, -1488282.3, 17299.889, 0.024464397, 9.938646, 9.932197 
7.8650826e+2, 1.5630098e+2, -1387545.6, -1443252.1, -12392.752, 0.07997958, -0.053657256, -1384913.1, 23332.527, 0.011363006, 9.939143, 9.931661 
7.853692e+2, 1.6623174e+2, -1294278.0, -1363983.6, -14689.43, 0.06615483, -0.049693793, -1291308.9, 19615.145, 0.004107627, 9.939406, 9.930175 
7.842301e+2, 1.761617e+2, -1194824.9, -1270580.3, -15726.67, 0.06222893, -0.059513602, -1191689.8, 21920.494, 0.0011430016, 9.939679, 9.929644 
7.8308946e+2, 1.860904e+2, -1101069.8, -1191212.3, -20639.752, 0.049523093, -0.062277824, -1096568.6, 19740.36, 0.00025201778, 9.9399, 9.928166 
7.819482e+2, 1.9601847e+2, -1001838.0, -1097283.8, -20814.064, 0.03207816, -0.0626349, -997496.5, 21517.373, 0.000051052644, 9.940158, 9.92772 
7.8080684e+2, 2.0594548e+2, -908446.56, -1015617.5, -20868.863, 0.019316508, -0.057690002, -904526.3, 17202.938, 0.00001464393, 9.940411, 9.926519 
7.796655e+2, 2.1587199e+2, -807572.2, -921231.75, -21537.043, 0.0075826827, -0.052393634, -803628.0, 20821.467, 0.000007893305, 9.940793, 9.926102 
7.7852386e+2, 2.2579719e+2, -720011.6, -847924.3, -24090.041, -0.0010339407, -0.041661542, -715625.1, 11557.456, 0.000006397419, 9.940768, 9.924403 
7.773819e+2, 2.3572163e+2, -625954.2, -755502.75, -22339.582, -0.006619699, -0.032241024, -622210.1, 7712.947, 0.0000082366905, 9.940632, 9.924107 
7.7624e+2, 2.456451e+2, -535680.9, -670368.56, -23921.965, -0.024747651, -0.046906315, -531558.3, 1114.4241, 0.00001814768, 9.940364, 9.923377 
7.7509767e+2, 2.555682e+2, -442060.1, -577015.25, -22453.428, -0.051921505, -0.07526143, -438422.4, -2996.2168, 0.000053336917, 9.940163, 9.923229 
7.739564e+2, 2.6549113e+2, -354768.13, -493853.75, -19414.672, -0.053944424, -0.05858791, -352108.94, -13927.617, 0.00016790527, 9.93982, 9.922395 
7.7281517e+2, 2.754137e+2, -262589.75, -400508.0, -14179.796, -0.04217044, -0.032507863, -261146.98, -20207.504, 0.0005011862, 9.939506, 9.922232 
7.7167505e+2, 2.8533536e+2, -168857.17, -305666.03, -5609.4487, -0.07496129, -0.07924415, -168627.56, -24920.465, 0.0012973788, 9.939323, 9.922074 
7.705347e+2, 2.952566e+2, -79168.695, -221149.11, 1762.3953, -0.13363355, -0.14373256, -79146.82, -32668.516, 0.0027747462, 9.939213, 9.921151 
7.6939857e+2, 3.0517775e+2, -60703.69, -209261.63, 11945.845, -0.07591262, -0.0183666, -59749.234, -59749.234, 0.0048958003, 9.93866, 9.919242 
7.682634e+2, 3.1509656e+2, 38310.613, 30565.588, -15728.479, 0.0014622994, -0.14633755, 50636.293, 50636.293, 0.0073510357, 9.937321, 9.936215 
7.9985714e+2, 1.2763795e+2, -1666870.5, -1698042.8, 1613.4, 0.12504485, -0.026225911, -1666787.1, 22357.553, 0.04048696, 9.938834, 9.934826 
7.9872215e+2, 1.375726e+2, -1564780.3, -1605545.6, -1059.3656, 0.123046376, -0.025123667, -1564752.8, 27032.363, 0.027255554, 9.939378, 9.934026 
7.9758507e+2, 1.4750549e+2, -1473066.4, -1526834.0, -3206.135, 0.09917738, -0.03459973, -1472875.9, 21566.758, 0.015450949, 9.939524, 9.932535 
7.9644775e+2, 1.5743783e+2, -1373081.9, -1433199.6, -5591.6333, 0.07163301, -0.044858582, -1372566.3, 24539.309, 0.0070204227, 9.939805, 9.931977 
7.9530907e+2, 1.6736893e+2, -1280929.8, -1354244.5, -7883.17, 0.06678747, -0.04161404, -1280091.8, 19689.166, 0.0024614362, 9.939964, 9.930532 
7.941702e+2, 1.7729938e+2, -1182462.1, -1261336.4, -9612.679, 0.067696564, -0.037929147, -1181307.5, 21155.03, 0.00065384543, 9.940152, 9.9299965 
7.930298e+2, 1.8722841e+2, -1089126.9, -1183501.8, -12538.603, 0.04937785, -0.036288854, -1087489.5, 17668.549, 0.00013178977, 9.940427, 9.928426 
7.918889e+2, 1.9715674e+2, -986448.0, -1088938.4, -12973.957, 0.026123848, -0.036273357, -984831.2, 23029.219, 0.000020838195, 9.9409485, 9.927886 
7.9074794e+2, 2.0708358e+2, -895345.44, -1013786.3, -13782.874, 0.01578402, -0.034521222, -893762.7, 16814.49, 0.0000030700608, 9.941263, 9.926219 
7.896069e+2, 2.1700981e+2, -795842.75, -918555.4, -16165.004, 0.009565468, -0.032059107, -793749.06, 19551.219, 0.0000007641628, 9.941444, 9.92597 
7.884651e+2, 2.2693504e+2, -707224.94, -839095.44, -19350.303, -0.0015024884, -0.03408871, -704444.2, 11588.716, 0.0000004992505, 9.941243, 9.92475 
7.873229e+2, 2.3685966e+2, -614988.5, -748641.7, -17330.225, -0.012160174, -0.036583092, -612777.94, 5993.4, 0.0000007489757, 9.941035, 9.924323 
7.861808e+2, 2.4678321e+2, -525487.6, -667557.6, -18031.566, -0.02768563, -0.043168284, -523234.8, -1714.5033, 0.0000021193673, 9.940944, 9.923215 
7.850384e+2, 2.567062e+2, -428813.56, -572794.2, -16987.848, -0.048766576, -0.063126996, -426836.38, -2561.6572, 0.000007753641, 9.940939, 9.923059 
7.838967e+2, 2.6662907e+2, -341859.0, -486045.78, -18081.256, -0.051998544, -0.051102005, -339626.16, -12595.671, 0.000029227222, 9.940438, 9.9225645 
7.82755e+2, 2.7655193e+2, -255022.03, -394694.75, -15133.471, -0.03681687, -0.021589559, -253401.13, -23615.035, 0.00009915975, 9.939781, 9.922531 
7.816144e+2, 2.8647414e+2, -161171.58, -296285.7, -12708.649, -0.073509105, -0.05857941, -159986.61, -27438.588, 0.00027728057, 9.939536, 9.922751 
7.8047353e+2, 2.9639617e+2, -82205.24, -224967.94, -8297.381, -0.14816412, -0.11868849, -81724.62, -46412.996, 0.0006187515, 9.939055, 9.921238 
7.7933675e+2, 3.0631638e+2, -78215.28, -240529.63, 8709.094, -0.07885726, 0.025851034, -77749.33, -77749.33, 0.0011168768, 9.938126, 9.917275 
7.781999e+2, 3.1623244e+2, 33252.723, 17442.494, 4084.817, -0.08517219, -0.15804921, 34245.73, 34245.73, 0.0016984316, 9.937077, 9.935067 
8.0979633e+2, 1.2877351e+2, -1651110.1, -1684913.6, -3471.1528, 0.12405689, -0.028389717, -1650757.4, 27259.816, 0.024554512, 9.939869, 9.935436 
8.086618e+2, 1.3870892e+2, -1547988.9, -1592622.8, -7455.566, 0.10492075, -0.009297948, -1546776.4, 33873.785, 0.016354568, 9.9404745, 9.934541 
8.0752486e+2, 1.4864244e+2, -1456852.5, -1513534.6, -9252.832, 0.08615, -0.0116615975, -1455380.3, 27921.453, 0.009139995, 9.940514, 9.933123 
8.0638784e+2, 1.5857528e+2, -1360605.1, -1423101.9, -11292.999, 0.072931044, -0.025297826, -1358627.1, 27332.654, 0.0040751924, 9.940591, 9.932415 
8.052493e+2, 1.6850671e+2, -1268264.8, -1345341.9, -12510.062, 0.067680575, -0.023983972, -1266285.1, 22346.764, 0.0013936987, 9.940822, 9.930885 
8.0411065e+2, 1.7843758e+2, -1167125.9, -1250825.9, -15172.526, 0.06437489, -0.017892336, -1164460.4, 26849.23, 0.0003581768, 9.94116, 9.930382 
8.0297047e+2, 1.8836702e+2, -1073427.6, -1172872.0, -16347.381, 0.045061562, -0.014744407, -1070809.3, 23191.84, 0.00006886962, 9.941494, 9.928809 
8.0183005e+2, 1.982957e+2, -973294.06, -1081458.6, -16760.78, 0.02057405, -0.013704137, -970756.44, 25943.58, 0.000009974997, 9.941909, 9.928082 
8.006893e+2, 2.0822255e+2, -887729.3, -1011803.4, -16398.182, 0.013452388, -0.012909521, -885598.7, 13818.157, 0.00000112396, 9.941942, 9.926103 
7.9954845e+2, 2.1814859e+2, -790112.1, -915815.2, -17836.78, 0.0108643, -0.015214193, -787630.2, 14511.427, 0.0000001211537, 9.941905, 9.92594 
7.9840636e+2, 2.2807385e+2, -696617.8, -829908.5, -21642.516, -0.0052147442, -0.034119375, -693191.75, 11681.879, 0.000000034255585, 9.941864, 9.925073 
7.972639e+2, 2.3799856e+2, -604087.8, -741335.7, -19876.08, -0.025277363, -0.057601232, -601267.4, 6343.487, 0.000000056047934, 9.941766, 9.924477 
7.961219e+2, 2.4792232e+2, -518376.5, -665222.1, -19788.074, -0.028102571, -0.0392274, -515756.72, -5398.6333, 0.00000020945565, 9.941589, 9.9230585 
7.9497963e+2, 2.5784552e+2, -425173.97, -573450.06, -18938.777, -0.030151054, -0.017367387, -422793.22, -9682.546, 0.0000009594775, 9.941395, 9.922762 
7.938371e+2, 2.6776764e+2, -342907.34, -491001.22, -22135.555, -0.054038823, -0.033083033, -339669.53, -23795.945, 0.0000042393676, 9.94063, 9.92203 
7.9269433e+2, 2.7768943e+2, -261567.25, -406124.1, -17953.78, -0.07556459, -0.054630604, -259370.78, -40730.91, 0.00001579998, 9.939802, 9.921684 
7.91554e+2, 2.8761098e+2, -170182.11, -315122.72, -17659.32, -0.08382359, -0.034326497, -168061.56, -46653.24, 0.000046418936, 9.939732, 9.921384 
7.904134e+2, 2.9753274e+2, -78911.42, -227675.16, -17323.096, -0.109728545, -0.0018928074, -76920.836, -52745.77, 0.000106217405, 9.939676, 9.920883 
7.892753e+2, 3.074532e+2, -42910.17, -176024.31, 1247.7795, -0.078520484, -0.05454399, -42898.477, -42898.477, 0.0001942458, 9.938604, 9.921215 
7.8813475e+2, 3.1737614e+2, 52244.05, 68291.07, -4722.9395, -0.25517648, 0.075405344, 69577.93, 69577.93, 0.00029744089, 9.936195, 9.938258 
8.197369e+2, 1.2990907e+2, -1625127.9, -1665850.4, 7593.461, 0.11692245, -0.029598769, -1623758.1, 43131.656, 0.013656359, 9.94117, 9.935931 
8.186025e+2, 1.3984482e+2, -1535647.9, -1581190.0, 1188.7003, 0.092707284, -0.024685346, -1535616.9, 33902.527, 0.00901513, 9.940834, 9.934981 
8.1746566e+2, 1.4977899e+2, -1444859.6, -1501318.6, -440.0602, 0.08478773, -0.011925745, -1444856.3, 27308.434, 0.0049783196, 9.940782, 9.933724 
8.163288e+2, 1.5971261e+2, -1349423.5, -1413081.9, -3072.0627, 0.08580321, -0.0050154724, -1349275.6, 25539.799, 0.0021846793, 9.940881, 9.932858 
8.151904e+2, 1.6964433e+2, -1259383.0, -1338541.5, -2503.146, 0.069475085, -0.006795251, -1259303.9, 18180.748, 0.0007317571, 9.941065, 9.931169 
8.140519e+2, 1.795754e+2, -1157192.1, -1242899.4, -5757.8887, 0.049957465, -0.008756388, -1156807.0, 23353.164, 0.0001830531, 9.941433, 9.930718 
8.129122e+2, 1.8950516e+2, -1062463.4, -1163879.6, -6100.626, 0.03842951, -0.011442357, -1062097.8, 20750.61, 0.000033989887, 9.941829, 9.929208 
8.117724e+2, 1.994342e+2, -961407.9, -1070918.0, -7833.553, 0.026202785, -0.013983152, -960850.3, 24693.154, 0.000004694803, 9.942217, 9.928576 
8.1063145e+2, 2.0936166e+2, -876449.4, -999531.75, -7399.5005, 0.014613044, -0.013397105, -876006.1, 12248.325, 0.0000004859859, 9.942089, 9.9267435 
8.094905e+2, 2.1928827e+2, -782114.7, -907961.6, -6746.134, 0.0051979846, -0.013842697, -781754.1, 9219.635, 0.000000038930015, 9.941968, 9.926272 
8.0834866e+2, 2.292137e+2, -686313.06, -825717.4, -9824.209, -0.007144578, -0.019029975, -685624.1, 8080.1157, 0.0000000035702583, 9.942344, 9.924988 
8.072064e+2, 2.3913847e+2, -586191.56, -734279.9, -10667.221, -0.021832928, -0.02982802, -585427.1, 11014.022, 0.0000000037212624, 9.942775, 9.924367 
8.0606407e+2, 2.4906199e+2, -501525.6, -659244.56, -13600.361, -0.02730607, -0.018662352, -500361.4, -1170.7327, 0.00000001883256, 9.942557, 9.922886 
8.049215e+2, 2.5898498e+2, -411882.6, -569826.4, -13969.296, -0.02970387, 0.0015341518, -410656.6, -8711.457, 0.00000010770616, 9.942161, 9.922552 
8.037784e+2, 2.6890677e+2, -320773.9, -483140.88, -18329.006, -0.05860238, -0.026400793, -318730.53, -14018.95, 0.0000005412499, 9.942, 9.921765 
8.026348e+2, 2.7882797e+2, -235431.73, -399756.28, -12287.091, -0.09070987, -0.06894399, -234518.06, -27034.684, 0.0000021522576, 9.941616, 9.921094 
8.014939e+2, 2.887492e+2, -165599.14, -323089.5, -8828.332, -0.0848696, 0.0057489467, -165105.8, -54850.313, 0.0000065224895, 9.940229, 9.920278 
8.00353e+2, 2.9867062e+2, -83973.23, -222022.27, -4883.0806, -0.08255397, 0.101439185, -83800.72, -70775.35, 0.000015151092, 9.938754, 9.921305 
7.992135e+2, 3.0859116e+2, -20820.5, -114499.914, 1685.3654, -0.06763957, -0.23235142, -20790.19, -20790.19, 0.00002791706, 9.937651, 9.925559 
7.9807144e+2, 3.1851637e+2, -29200.994, -97260.234, -23465.984, -0.14746673, -0.10117708, -21894.584, -21894.584, 0.000042913598, 9.935402, 9.9272 
8.2967865e+2, 1.3104625e+2, -1607734.8, -1655795.8, 971.1216, 0.12481434, -0.00016010948, -1607715.1, 48031.758, 0.006829297, 9.942328, 9.936044 
8.285435e+2, 1.4098194e+2, -1527135.3, -1575943.0, -5587.8667, 0.09561586, -0.009847474, -1526503.8, 31873.38, 0.0044781193, 9.94146, 9.93508 
8.274067e+2, 1.5091632e+2, -1431626.9, -1491681.4, -4342.7725, 0.08307806, -0.0020831672, -1431314.5, 29705.836, 0.0024504783, 9.941686, 9.934104 
8.2627016e+2, 1.608504e+2, -1329292.8, -1398634.4, -9145.97, 0.08466515, 0.0065042907, -1328106.6, 35559.85, 0.0010623109, 9.9421625, 9.933377 
8.2513183e+2, 1.7078272e+2, -1239650.9, -1323156.3, -6408.085, 0.064145125, 0.0049968627, -1239162.0, 27167.82, 0.00035011073, 9.942267, 9.931771 
8.2399356e+2, 1.807143e+2, -1142247.6, -1230830.9, -8623.559, 0.040032107, 0.0006822813, -1141416.0, 27584.213, 0.00008574844, 9.942335, 9.931186 
8.2285416e+2, 1.9064447e+2, -1052971.6, -1154817.9, -7795.4585, 0.037797045, -0.0053332495, -1052378.4, 19305.818, 0.00001549313, 9.942383, 9.92965 
8.217147e+2, 2.0057395e+2, -954323.3, -1062169.9, -10643.772, 0.03396314, -0.011667513, -953282.9, 21092.215, 0.0000020664204, 9.942534, 9.929095 
8.205737e+2, 2.1050203e+2, -862464.6, -985748.5, -11688.647, 0.013497017, -0.012345726, -861366.25, 15713.666, 0.00000020419303, 9.942786, 9.927445 
8.1943256e+2, 2.2042929e+2, -767054.25, -897855.5, -10533.225, -0.004457375, -0.010547647, -766211.44, 13581.353, 0.000000015033956, 9.942946, 9.926615 
8.182911e+2, 2.3035498e+2, -676912.0, -822680.7, -11164.1875, -0.007830505, 0.0070296996, -676061.9, 6459.176, 0.00000000086806806, 9.943168, 9.92489 
8.1714934e+2, 2.4027978e+2, -581505.6, -735110.5, -11967.414, -0.014316227, 0.017630111, -580578.8, 4679.099, 0.00000000036270859, 9.943308, 9.924085 
8.1600666e+2, 2.502027e+2, -498795.6, -661112.1, -16205.377, -0.033294685, -0.00038621327, -497193.5, -9180.237, 0.0000000031545135, 9.9429245, 9.922535 
8.148635e+2, 2.60125e+2, -410442.53, -572097.94, -14856.161, -0.050591424, -0.013194554, -409088.6, -18314.365, 0.000000023482801, 9.942469, 9.922202 
8.137206e+2, 2.7004674e+2, -318833.3, -483967.7, -19148.572, -0.055802573, -0.011785187, -316641.97, -23101.227, 0.00000013258845, 9.942339, 9.9214735 
8.1257695e+2, 2.7996802e+2, -231178.42, -396960.0, -15193.385, -0.06444615, -0.021402905, -229797.5, -33485.47, 0.0000005547123, 9.941941, 9.921015 
8.114341e+2, 2.8988883e+2, -163170.4, -316697.94, -15994.481, -0.089369446, -0.0030300324, -161521.81, -62433.83, 0.0000017199717, 9.940131, 9.920492 
8.10291e+2, 2.9980993e+2, -87078.45, -216719.63, -5351.458, -0.119409785, 0.034201887, -86857.92, -84996.96, 0.000004038273, 9.938304, 9.921609 
8.0915123e+2, 3.09732e+2, -18027.617, -108784.87, -5394.64, -0.05534433, -0.17085296, -17708.082, -17708.082, 0.000007480979, 9.937775, 9.925819 
8.0800885e+2, 3.1965858e+2, -12256.811, -106146.76, -22796.38, -0.06237516, 0.1249301, -7014.568, -7014.568, 0.00001152495, 9.937504, 9.925577 
8.3962107e+2, 1.3218375e+2, -1606764.0, -1654562.1, 5285.151, 0.133002, 0.02929905, -1606186.6, 38414.42, 0.0030089617, 9.942035, 9.936131 
8.384851e+2, 1.4211954e+2, -1515100.3, -1569177.3, 1416.5696, 0.094792806, 0.023870548, -1515063.3, 32167.252, 0.0019641386, 9.941961, 9.935141 
8.3734846e+2, 1.5205395e+2, -1423462.5, -1485381.4, 7643.3853, 0.07396491, 0.01786526, -1422533.0, 27340.088, 0.0010681495, 9.941906, 9.934335 
8.362123e+2, 1.6198823e+2, -1321713.9, -1388605.6, 1194.1, 0.07063297, 0.015002763, -1321692.6, 30824.367, 0.00045917454, 9.942124, 9.933943 
8.3507407e+2, 1.7192133e+2, -1230512.0, -1309872.8, 4231.7856, 0.054389007, 0.015754543, -1230287.0, 24885.627, 0.00014963388, 9.942219, 9.932586 
8.33936e+2, 1.8185368e+2, -1134243.9, -1220528.1, 936.24164, 0.037343346, 0.015098636, -1134233.8, 23601.65, 0.00003610315, 9.942279, 9.931785 
8.3279675e+2, 1.9178441e+2, -1046389.4, -1146361.8, 2602.491, 0.045716237, 0.012569953, -1046321.6, 14192.513, 0.0000063962675, 9.942275, 9.930168 
8.3165747e+2, 2.0171435e+2, -949206.94, -1057112.5, 508.40265, 0.046050172, 0.009931657, -949204.56, 13996.024, 0.00000083170164, 9.942468, 9.929378 
8.3051676e+2, 2.1164265e+2, -852811.94, -979702.56, -661.4901, 0.012567268, 0.011977731, -852808.5, 13094.676, 0.00000007956064, 9.943108, 9.927658 
8.2937604e+2, 2.215702e+2, -749343.3, -886041.94, -1551.1754, -0.013555274, 0.013144786, -749325.7, 19287.594, 0.000000005620293, 9.94371, 9.927032 
8.2823485e+2, 2.3149621e+2, -658406.5, -809575.94, -2314.1694, -0.012073886, 0.017531341, -658371.06, 12967.014, 0.00000000032898315, 9.943939, 9.925351 
8.270932e+2, 2.4142133e+2, -565056.0, -725172.94, -2863.702, -0.012782685, 0.022122817, -565004.75, 9067.185, 0.0000000005235038, 9.944006, 9.924317 
8.2595015e+2, 2.513444e+2, -479483.03, -650469.1, -7076.6924, -0.033215534, 0.006806951, -479190.63, -2365.0806, 0.0000000056870197, 9.943836, 9.92264 
8.248066e+2, 2.6126674e+2, -389208.5, -561707.0, -3649.109, -0.0524256, -0.008665901, -389131.34, -9544.996, 0.000000045361332, 9.94358, 9.922156 
8.236633e+2, 2.7118844e+2, -306332.03, -479213.1, -8769.737, -0.049956355, 0.006195011, -305888.3, -23535.127, 0.00000026325955, 9.942927, 9.921248 
8.225192e+2, 2.811097e+2, -221934.5, -391610.1, -7221.69, -0.049145363, 0.012189679, -221627.69, -36502.85, 0.0000011141466, 9.942147, 9.920984 
8.213743e+2, 2.9103005e+2, -145982.3, -305073.72, -13902.972, -0.09769262, -0.026194073, -144776.47, -56871.598, 0.0000034719149, 9.9407015, 9.920675 
8.202292e+2, 3.0095097e+2, -71163.71, -207648.2, -842.20197, -0.14333802, -0.029618423, -71158.516, -71158.516, 0.000008169273, 9.9389925, 9.921696 
8.190891e+2, 3.1087518e+2, -24700.658, -118026.55, -1388.8756, -0.026479427, 0.008397786, -24679.994, -24679.994, 0.000015155521, 9.937287, 9.925223 
8.1794554e+2, 3.2079998e+2, 28453.438, -3320.3035, -4308.562, -0.1437686, 0.0043583927, 29027.32, 29027.32, 0.00002335952, 9.936882, 9.932899 
8.495634e+2, 1.3332063e+2, -1590582.1, -1643755.9, 2492.6646, 0.12549695, 0.025657877, -1590465.6, 42995.34, 0.0011421927, 9.943304, 9.936476 
8.484278e+2, 1.4325717e+2, -1485125.1, -1547391.9, -6864.1123, 0.074109554, 0.047881752, -1484377.4, 51705.637, 0.0007435361, 9.9438, 9.935842 
8.472909e+2, 1.5319236e+2, -1398667.0, -1464476.3, 3025.4026, 0.06739777, 0.034159265, -1398528.1, 40189.824, 0.00040280866, 9.943299, 9.935188 
8.4615475e+2, 1.6312732e+2, -1305882.9, -1374426.4, -2494.8054, 0.072709575, 0.025170587, -1305792.3, 35562.99, 0.00017225166, 9.942997, 9.93453 
8.4501654e+2, 1.7306101e+2, -1217162.8, -1296744.5, 724.3697, 0.058087308, 0.02745678, -1217156.1, 26848.646, 0.00005573453, 9.942917, 9.933254 
8.4387857e+2, 1.8299404e+2, -1120853.8, -1208562.5, -3778.2703, 0.041051142, 0.02952218, -1120691.3, 25969.836, 0.000013319515, 9.943019, 9.932372 
8.427394e+2, 1.9292541e+2, -1026951.75, -1131089.4, -855.2385, 0.046147034, 0.030407835, -1026944.7, 22388.95, 0.00000232996, 9.943417, 9.930791 
8.416003e+2, 2.0285593e+2, -930694.6, -1044853.7, -1346.9962, 0.04564049, 0.031818055, -930678.75, 21335.916, 0.00000029792903, 9.943674, 9.929748 
8.4046006e+2, 2.1278454e+2, -841354.9, -971499.06, 189.22014, 0.009368465, 0.03606963, -841354.6, 13359.4375, 0.000000027884646, 9.943875, 9.927912 
8.3931977e+2, 2.2271235e+2, -741667.94, -877482.56, -473.14355, -0.020393029, 0.03426151, -741666.3, 15755.089, 0.0000000019195514, 9.944093, 9.927449 
8.381788e+2, 2.3263867e+2, -651773.75, -800440.56, -2208.7698, -0.01705509, 0.017556949, -651740.94, 8402.17, 0.00000000019847783, 9.944194, 9.925855 
8.370372e+2, 2.4256407e+2, -560287.9, -719043.5, -3314.5476, -0.015849125, 0.009516202, -560218.7, 2655.1719, 0.000000001540536, 9.944205, 9.924626 
8.3589405e+2, 2.5248766e+2, -474642.84, -644368.0, -7858.0986, -0.027416913, 0.016554138, -474279.8, -8657.207, 0.000000016924494, 9.944044, 9.922897 
8.347503e+2, 2.6241028e+2, -387608.3, -560134.0, -4650.459, -0.042763922, 0.015283753, -387483.06, -19102.479, 0.00000013515553, 9.943689, 9.9221325 
8.336061e+2, 2.7233163e+2, -307717.0, -481162.47, -11904.953, -0.054023918, 0.010910979, -306903.66, -35752.61, 0.00000078460795, 9.942904, 9.9210005 
8.3246106e+2, 2.822525e+2, -226191.17, -396518.78, -10564.789, -0.064017914, 0.009957633, -225538.39, -51611.91, 0.0000033204878, 9.942027, 9.920586 
8.313152e+2, 2.9217267e+2, -145456.28, -309024.47, -20462.957, -0.093759336, 0.0011334509, -142935.16, -66226.6, 0.000010346408, 9.940972, 9.920139 
8.301689e+2, 3.0209315e+2, -67198.49, -212896.4, -11793.139, -0.12417859, 0.006182438, -66250.1, -66250.1, 0.000024338526, 9.939556, 9.920977 
8.290261e+2, 3.120162e+2, -40145.53, -137531.94, -19063.602, -0.01787638, 0.02935843, -36546.777, -36546.777, 0.000045138244, 9.936659, 9.92409 
8.278806e+2, 3.21939e+2, -1088.9106, -12430.442, -17327.771, -0.20025238, -0.11299864, 11472.417, 11472.417, 0.00006958406, 9.935072, 9.933676 
8.5950696e+2, 1.3445793e+2, -1576338.5, -1631473.4, 15235.9, 0.11356361, 0.031851564, -1572408.4, 49908.49, 0.00036341642, 9.943941, 9.936853 
8.583712e+2, 1.4439507e+2, -1489018.4, -1538768.6, 629.19885, 0.054935526, 0.06020412, -1489010.4, 35922.55, 0.00023620963, 9.942777, 9.936672 
8.5723406e+2, 1.543312e+2, -1394259.3, -1450501.6, 12396.386, 0.06867525, 0.043838795, -1391648.1, 35910.297, 0.00012768328, 9.942785, 9.9362335 
8.5609776e+2, 1.6426694e+2, -1302903.8, -1367881.0, 6067.8755, 0.087516904, 0.03503162, -1302342.0, 27846.152, 0.000054433065, 9.942675, 9.934982 
8.549596e+2, 1.7420109e+2, -1214125.5, -1290344.0, 10779.546, 0.075865954, 0.03836746, -1212630.3, 20203.129, 0.00001753889, 9.9426155, 9.933724 
8.5382164e+2, 1.841346e+2, -1115539.0, -1200082.4, 7315.718, 0.04772353, 0.041466534, -1114910.6, 20574.295, 0.000004167791, 9.942862, 9.93293 
8.526827e+2, 1.9406661e+2, -1018066.9, -1119897.8, 11273.474, 0.022357717, 0.044813685, -1016833.75, 21317.303, 0.00000072355056, 9.943471, 9.931455 
8.5154396e+2, 2.0399784e+2, -917495.7, -1028896.94, 9296.4375, 0.016353868, 0.042550724, -916725.25, 24099.79, 0.00000009158835, 9.94384, 9.930639 
8.504042e+2, 2.1392731e+2, -828870.8, -954716.06, 12280.16, 0.014875508, 0.03523965, -827683.7, 15832.203, 0.000000008458324, 9.943924, 9.928884 
8.492641e+2, 2.238559e+2, -733793.1, -867427.25, 12778.871, 0.0006174684, 0.03234151, -732582.1, 13633.531, 0.00000000058265287, 9.944005, 9.927995 
8.481231e+2, 2.337828e+2, -644603.7, -791876.0, 10761.751, -0.014904334, 0.028884524, -643821.44, 5110.4854, 0.0000000002773134, 9.9440975, 9.926297 
8.469814e+2, 2.4370874e+2, -549281.7, -706675.75, 10593.209, -0.022598386, 0.025009777, -548571.94, 3085.4436, 0.0000000037693595, 9.944286, 9.925251 
8.458384e+2, 2.5363293e+2, -455079.88, -627547.2, 6465.7236, -0.027463788, 0.029356092, -454837.8, -437.7509, 0.000000041425366, 9.944678, 9.923507 
8.446946e+2, 2.63556e+2, -362810.63, -545908.9, 9605.879, -0.038408093, 0.029761195, -362308.06, -5154.2227, 0.0000003307569, 9.944862, 9.922262 
8.435496e+2, 2.7347723e+2, -280335.22, -467696.13, 1013.0718, -0.058459036, 0.018959844, -280329.72, -20404.336, 0.0000019196316, 9.9443, 9.920903 
8.424036e+2, 2.833979e+2, -200248.84, -385360.88, 2804.477, -0.07022544, 0.017095517, -200206.36, -37503.688, 0.000008122093, 9.943367, 9.920318 
8.4125656e+2, 2.9331797e+2, -129293.26, -304576.28, -7578.0947, -0.08443464, 0.033881888, -128966.234, -63480.2, 0.000025306756, 9.941698, 9.919632 
8.401086e+2, 3.0323777e+2, -59625.99, -217422.2, -664.45526, -0.105469935, 0.04349537, -59623.19, -59623.19, 0.00005952913, 9.939783, 9.920001 
8.3896244e+2, 3.131589e+2, -34197.727, -145895.97, -10679.363, -0.022984298, -0.0073980833, -33185.85, -33185.85, 0.000110368244, 9.936799, 9.922778 
8.37816e+2, 3.2308173e+2, -20193.813, -49946.35, 11091.367, -0.16205598, 0.032327995, -16514.17, -16514.17, 0.00017012702, 9.934713, 9.930793 
8.694516e+2, 1.3559666e+2, -1547018.6, -1600534.8, -2894.2078, 0.12815349, 0.08090544, -1546862.6, 64296.105, 0.00009383463, 9.944904, 9.938266 
8.683138e+2, 1.4553405e+2, -1485668.3, -1530454.6, -1509.8418, 0.062533446, 0.045267813, -1485617.5, 28154.287, 0.00006094004, 9.942861, 9.937192 
8.671772e+2, 1.5547109e+2, -1379171.3, -1435678.5, 11930.871, 0.07343093, 0.052126393, -1376755.5, 39633.25, 0.00003290037, 9.943642, 9.936934 
8.66041e+2, 1.6540748e+2, -1281750.9, -1352379.9, 1691.0526, 0.088613965, 0.052741777, -1281710.4, 37301.44, 0.000014001087, 9.943951, 9.9354925 
8.649028e+2, 1.7534219e+2, -1190482.8, -1272486.5, 8476.855, 0.07306784, 0.05270578, -1189615.6, 32036.004, 0.0000045003767, 9.9440155, 9.934349 
8.637649e+2, 1.8527631e+2, -1096550.6, -1183624.5, 5909.0044, 0.04199492, 0.053375885, -1096151.4, 28145.695, 0.0000010659371, 9.943916, 9.933602 
8.6262614e+2, 1.9520906e+2, -1007893.9, -1106767.9, 11455.054, 0.006823134, 0.054721158, -1006584.1, 20372.06, 0.00000018424288, 9.943895, 9.932212 
8.614877e+2, 2.0514108e+2, -909326.1, -1014554.0, 7986.536, 0.0022301548, 0.04896137, -908723.44, 20898.803, 0.000000023185766, 9.943989, 9.931593 
8.603483e+2, 2.1507151e+2, -817582.6, -937453.44, 10601.959, 0.02489156, 0.032684922, -816652.1, 15651.349, 0.0000000021246724, 9.944229, 9.929981 
8.592083e+2, 2.2500098e+2, -725991.75, -857691.4, 11278.214, 0.017765677, 0.032997396, -725032.94, 9961.774, 0.00000000016612903, 9.944314, 9.928575 
8.5806715e+2, 2.3492864e+2, -637895.56, -782874.0, 10186.7705, -0.016223136, 0.04897656, -637183.25, 520.57965, 0.00000000051179117, 9.944336, 9.926818 
8.5692567e+2, 2.4485528e+2, -541654.2, -693843.7, 12403.681, -0.033603545, 0.050274365, -540649.94, -227.46872, 0.000000007637945, 9.944489, 9.926053 
8.5578316e+2, 2.547801e+2, -449125.38, -615680.9, 7935.2495, -0.033989735, 0.03854456, -448748.16, -5589.247, 0.000000083945466, 9.9447775, 9.924257 
8.546395e+2, 2.6470357e+2, -362509.53, -544179.8, 9615.291, -0.043741077, 0.03601878, -362002.03, -16093.392, 0.0000006702643, 9.944859, 9.922328 
8.534939e+2, 2.7462494e+2, -279372.8, -467002.03, -1015.4164, -0.062409643, 0.041359514, -279367.3, -30688.135, 0.000003889783, 9.944386, 9.92081 
8.5234714e+2, 2.8454545e+2, -198491.8, -384964.94, -2319.3948, -0.07129355, 0.039193776, -198462.95, -47004.8, 0.000016460805, 9.943511, 9.920129 
8.5119843e+2, 2.9446504e+2, -129575.11, -306498.9, -15283.819, -0.07871991, 0.03430525, -128264.5, -74018.7, 0.000051319832, 9.941744, 9.919293 
8.5004866e+2, 3.043844e+2, -55169.5, -217544.39, -8220.14, -0.11296382, 0.03876665, -54754.42, -54754.42, 0.000120814846, 9.940195, 9.919609 
8.488998e+2, 3.1430513e+2, -15495.142, -140746.52, -19044.438, -0.064769246, -0.0012235173, -12663.459, -12663.459, 0.00022411745, 9.9382, 9.922151 
8.477502e+2, 3.2422844e+2, -27275.545, -44668.35, -5073.342, -0.15544814, 0.106267884, -25903.87, -25903.87, 0.00034556063, 9.933548, 9.930892 
8.7939584e+2, 1.3673595e+2, -1558582.0, -1591617.0, -5065.464, 0.14208943, 0.094277084, -1557822.8, 42172.098, 0.000019043677, 9.942957, 9.939396 
8.782567e+2, 1.4667378e+2, -1480175.8, -1522254.9, 8807.482, 0.07238217, 0.034371614, -1478406.8, 24196.787, 0.000012362725, 9.94287, 9.937606 
8.7712073e+2, 1.5661155e+2, -1378235.9, -1430027.8, 23691.537, 0.07466354, 0.066903755, -1369033.5, 36179.848, 0.0000066696857, 9.943348, 9.937393 
8.7598467e+2, 1.6654849e+2, -1281498.5, -1345655.5, 9653.815, 0.07753884, 0.07492694, -1280077.3, 27753.924, 0.000002835376, 9.943455, 9.93606 
8.748464e+2, 1.7648381e+2, -1188375.4, -1263387.8, 17628.617, 0.046849083, 0.06958941, -1184439.0, 26026.031, 0.0000009100635, 9.9435835, 9.935076 
8.7370855e+2, 1.8641861e+2, -1092977.1, -1172719.4, 13760.942, 0.03087888, 0.061460357, -1090669.3, 22434.607, 0.00000021513608, 9.94348, 9.934431 
8.7257016e+2, 1.9635215e+2, -1004476.9, -1094521.0, 20457.145, 0.032397237, 0.053163562, -1000047.1, 15707.638, 0.000000037089958, 9.943383, 9.933175 
8.714317e+2, 2.062851e+2, -906980.8, -1004925.9, 18587.883, 0.022602797, 0.05631038, -903571.9, 14839.917, 0.0000000046516857, 9.943521, 9.932376 
8.702922e+2, 2.1621661e+2, -812356.5, -925414.0, 21190.568, 0.008445007, 0.060670633, -808515.2, 12567.72, 0.0000000004243601, 9.9438925, 9.930879 
8.691525e+2, 2.2614707e+2, -715881.7, -840124.56, 22274.33, -0.00033302075, 0.05910615, -712009.06, 11755.426, 0.000000000071721434, 9.944134, 9.92975 
8.6801153e+2, 2.3607576e+2, -624009.5, -762781.06, 23385.375, -0.013152004, 0.05981305, -620174.6, 6288.5303, 0.0000000009082265, 9.944351, 9.928012 
8.668702e+2, 2.4600348e+2, -527091.06, -675217.8, 28047.736, -0.0281017, 0.058349594, -521958.13, 7213.2173, 0.000000013717135, 9.9446, 9.92709 
8.657278e+2, 2.5592938e+2, -435405.16, -597867.9, 23749.783, -0.038882084, 0.04975208, -432004.47, -107.16911, 0.00000015076724, 9.944791, 9.925258 
8.645842e+2, 2.6585388e+2, -347566.25, -525631.1, 28026.053, -0.046757948, 0.04907304, -343259.34, -8622.479, 0.0000012040975, 9.94487, 9.923297 
8.6343855e+2, 2.7577606e+2, -259488.89, -448415.2, 21482.547, -0.059588682, 0.05870077, -257076.92, -19677.408, 0.000006992764, 9.94477, 9.921423 
8.6229104e+2, 2.8569686e+2, -173344.73, -368948.25, 21500.086, -0.068478495, 0.05200744, -171009.4, -30834.045, 0.000029645516, 9.944393, 9.920129 
8.611406e+2, 2.9561603e+2, -102952.59, -293606.44, 8345.842, -0.073995516, 0.030161181, -102587.95, -59621.01, 0.00009271142, 9.942878, 9.918876 
8.5998875e+2, 3.055349e+2, -41470.707, -208618.61, 13635.375, -0.1185167, 0.035347305, -40365.684, -40365.684, 0.00021904535, 9.940307, 9.919318 
8.5883695e+2, 3.1545544e+2, -30407.645, -148876.95, 2631.674, -0.10979029, 0.011018081, -30349.213, -30349.213, 0.0004076256, 9.936425, 9.921548 
8.576829e+2, 3.2537875e+2, -26495.746, -23936.535, -7497.807, -0.15369527, 0.07113508, -17609.926, -17609.926, 0.00062983576, 9.931371, 9.9322 
8.893391e+2, 1.3787636e+2, -1544648.5, -1589497.1, 2446.9255, 0.12565267, 0.06907009, -1544515.4, 44304.26, 0.000002958578, 9.944485, 9.938892 
8.882007e+2, 1.4781481e+2, -1446209.0, -1501702.1, 5265.5664, 0.0723422, 0.07554354, -1445713.8, 45708.883, 0.0000019202917, 9.945074, 9.937948 
8.8706464e+2, 1.577527e+2, -1354167.8, -1413830.6, 21437.549, 0.06634078, 0.080065206, -1347263.9, 46767.3, 0.0000010355539, 9.944854, 9.937841 
8.859285e+2, 1.6769013e+2, -1261925.5, -1328692.3, 6758.5366, 0.07147513, 0.08176806, -1261248.3, 35395.938, 0.0000004399312, 9.944517, 9.9367485 
8.8479024e+2, 1.7762625e+2, -1171175.6, -1245880.5, 15832.898, 0.04169228, 0.07714001, -1167958.5, 31311.586, 0.00000014107277, 9.944406, 9.935923 
8.8365227e+2, 1.875619e+2, -1076788.6, -1155296.4, 11476.239, 0.03182699, 0.06999798, -1075145.4, 26755.115, 0.00000003330806, 9.944194, 9.935306 
8.8251394e+2, 1.9749643e+2, -987141.8, -1075426.9, 18932.654, 0.0510778, 0.05963938, -983253.06, 21288.904, 0.0000000057331504, 9.944135, 9.934162 
8.813755e+2, 2.0743033e+2, -892609.1, -988908.1, 18115.414, 0.030577634, 0.07058812, -889314.06, 17875.785, 0.00000000071752804, 9.944175, 9.933217 
8.8023597e+2, 2.1736293e+2, -799811.25, -908224.4, 20853.531, -0.0143518755, 0.089985654, -795938.4, 13912.107, 0.00000000006547386, 9.944329, 9.931899 
8.7909645e+2, 2.2729449e+2, -703538.7, -819065.44, 21852.861, -0.01881393, 0.082521364, -699543.2, 12977.76, 0.0000000000751049, 9.944377, 9.931125 
8.77956e+2, 2.3722446e+2, -613553.6, -742263.4, 22834.008, -0.0047012083, 0.06307253, -609622.75, 5584.349, 0.0000000014740116, 9.944454, 9.929416 
8.7681496e+2, 2.4715342e+2, -519926.06, -658502.75, 28105.357, -0.021131042, 0.06215697, -514442.84, 3460.1204, 0.000000022289091, 9.944573, 9.928305 
8.7567246e+2, 2.5708064e+2, -429685.9, -581458.4, 23283.36, -0.04799591, 0.06628816, -426194.34, -5578.4917, 0.00000024496487, 9.944643, 9.92647 
8.745291e+2, 2.670067e+2, -339335.44, -502259.8, 28322.213, -0.04883061, 0.06383671, -334552.4, -11211.891, 0.0000019576619, 9.944646, 9.925005 
8.7338346e+2, 2.7693027e+2, -251114.3, -427612.75, 21875.422, -0.044865455, 0.06150411, -248443.45, -22354.25, 0.000011400731, 9.944685, 9.92283 
8.722355e+2, 2.8685212e+2, -168366.7, -358911.03, 18442.645, -0.069851495, 0.0511041, -166598.08, -37743.164, 0.000048632028, 9.944451, 9.920603 
8.7108344e+2, 2.967715e+2, -97551.375, -287096.8, 5058.373, -0.09870797, 0.034456298, -97416.48, -65771.44, 0.00015357247, 9.943103, 9.918998 
8.69929e+2, 3.0669075e+2, -38043.05, -194668.95, -1860.0876, -0.10357843, 0.072379656, -38020.965, -38020.965, 0.00036699965, 9.939746, 9.9200115 
8.687726e+2, 3.1661242e+2, -50581.938, -151363.8, -9591.212, -0.047816, 0.08794134, -49677.28, -49677.28, 0.00068988913, 9.934416, 9.921691 
8.6761403e+2, 3.265341e+2, -30539.875, -35552.113, -9092.072, -0.15163347, 0.00095122197, -23614.854, -23614.854, 0.001073521, 9.931306, 9.93115 
8.992834e+2, 1.390172e+2, -1554908.8, -1598542.5, 12131.543, 0.11719249, 0.09046535, -1551762.6, 25877.563, 0.00000034527207, 9.944145, 9.938612 
8.981453e+2, 1.4895605e+2, -1454040.1, -1500777.3, 7512.9727, 0.06761084, 0.117691934, -1452862.1, 27377.629, 0.00000022408217, 9.944183, 9.938378 
8.970091e+2, 1.5889399e+2, -1360027.8, -1411686.5, 26097.33, 0.05399481, 0.08437301, -1349138.9, 33708.7, 0.00000012080618, 9.944072, 9.93829 
8.958729e+2, 1.6883193e+2, -1263941.3, -1321216.8, 11778.057, 0.075000584, 0.078449585, -1261613.9, 23841.75, 0.000000051297388, 9.943856, 9.937487 
8.947346e+2, 1.7876892e+2, -1170706.8, -1235527.9, 21206.477, 0.061887927, 0.07745817, -1164385.5, 23687.309, 0.00000001643881, 9.943827, 9.936826 
8.9359635e+2, 1.8870561e+2, -1075537.5, -1144501.1, 17116.322, 0.037638918, 0.085053526, -1071523.0, 19170.283, 0.000000003877973, 9.943663, 9.936214 
8.924578e+2, 1.9864129e+2, -984480.8, -1063378.9, 25525.912, 0.035677582, 0.090775, -976942.6, 16381.032, 0.00000000066676814, 9.943681, 9.93513 
8.9131945e+2, 2.0857587e+2, -889931.2, -977427.5, 25120.244, 0.023182716, 0.08453483, -883232.06, 12732.364, 0.00000000008333369, 9.943735, 9.934137 
8.901802e+2, 2.185093e+2, -796289.4, -893541.6, 28369.213, -0.006619938, 0.08121123, -788618.8, 9997.976, 0.000000000010516922, 9.943801, 9.93307 
8.890406e+2, 2.2844222e+2, -699785.2, -801911.75, 29896.984, -0.014069423, 0.0817231, -691676.75, 9597.434, 0.000000000098867345, 9.9437275, 9.93252 
8.879e+2, 2.3837383e+2, -609964.06, -723521.06, 31849.547, -0.0077062687, 0.077452525, -601641.2, 2303.0242, 0.0000000020481026, 9.943682, 9.93097 
8.86759e+2, 2.483044e+2, -516052.8, -637105.94, 39752.79, -0.023634834, 0.07566907, -504165.63, 2458.7998, 0.0000000309748, 9.943654, 9.930069 
8.856165e+2, 2.5823343e+2, -426810.22, -559330.8, 38180.82, -0.04922981, 0.07650909, -416596.97, -7277.212, 0.0000003404844, 9.943508, 9.928305 
8.844729e+2, 2.6816157e+2, -333935.0, -472426.6, 46230.605, -0.049410906, 0.07406911, -319920.7, -7896.705, 0.0000027257568, 9.943269, 9.927494 
8.833271e+2, 2.7808765e+2, -249182.33, -400241.34, 43632.633, -0.04157374, 0.07000179, -237485.03, -22737.04, 0.000015971164, 9.942934, 9.925241 
8.821788e+2, 2.8801206e+2, -161949.45, -324340.22, 46149.215, -0.07532699, 0.060422476, -149750.83, -32262.01, 0.000069086105, 9.942549, 9.923297 
8.8102555e+2, 2.9793367e+2, -82322.77, -257115.67, 49796.867, -0.12359887, 0.045841515, -69131.62, -48874.617, 0.00022324533, 9.941812, 9.920866 
8.798686e+2, 3.0785474e+2, -10564.474, -169380.63, 38940.184, -0.09267102, 0.1172297, -1530.5886, -1530.5886, 0.0005485991, 9.939294, 9.92058 
8.787086e+2, 3.1777596e+2, -21975.512, -154957.72, 18181.875, 0.028974798, 0.18130964, -19534.42, -19534.42, 0.0010574318, 9.935871, 9.919484 
8.7754613e+2, 3.2769322e+2, 3088.94, -33790.38, 15758.529, -0.20038591, -0.08042369, 8905.255, 8905.255, 0.001674894, 9.933751, 9.929131 
9.092283e+2, 1.4015615e+2, -1525626.4, -1577976.8, 7946.549, 0.10482134, 0.09850441, -1524446.6, 42033.004, 0.000000029867618, 9.946042, 9.939332 
9.080902e+2, 1.50096e+2, -1426608.0, -1472136.9, 668.52734, 0.07886716, 0.0961479, -1426598.3, 42470.848, 0.000000019382966, 9.945395, 9.93985 
9.0695363e+2, 1.6003561e+2, -1339592.8, -1390542.8, 22774.479, 0.06708724, 0.09628279, -1330896.8, 40763.824, 0.000000010447276, 9.94499, 9.939325 
9.0581703e+2, 1.6997442e+2, -1246972.9, -1303443.5, 9970.52, 0.08260972, 0.09146071, -1245264.3, 28996.033, 0.000000004434464, 9.94463, 9.938344 
9.046787e+2, 1.7991234e+2, -1154739.3, -1217560.0, 19749.605, 0.063420564, 0.087358825, -1149046.3, 27822.162, 0.0000000014203173, 9.944496, 9.937747 
9.035402e+2, 1.8984991e+2, -1059298.3, -1126759.8, 15466.291, 0.032689404, 0.099006414, -1055921.4, 23558.719, 0.00000000033482794, 9.944379, 9.937119 
9.0240157e+2, 1.9978666e+2, -967385.9, -1043848.25, 23973.322, 0.022383446, 0.110860966, -960491.2, 21608.82, 0.000000000057520166, 9.944402, 9.936171 
9.012633e+2, 2.0972216e+2, -875005.7, -958336.1, 24340.299, 0.020195462, 0.092821576, -868417.0, 16314.858, 0.0000000000071813653, 9.944287, 9.935199 
9.001242e+2, 2.1965662e+2, -781803.4, -871811.3, 28023.408, 0.005874986, 0.07051781, -773791.6, 13582.423, 0.00000000000428494, 9.944195, 9.934366 
8.9898443e+2, 2.2959097e+2, -684867.3, -778676.3, 28973.615, -0.01005944, 0.08343378, -676640.1, 13377.154, 0.00000000010849106, 9.9441, 9.933947 
8.978437e+2, 2.3952441e+2, -593459.75, -695839.7, 30242.027, -0.017568413, 0.097679816, -585193.94, 7475.604, 0.000000002258234, 9.944013, 9.93274 
8.967026e+2, 2.4945688e+2, -499396.44, -605125.8, 37486.02, -0.028508078, 0.09009903, -487454.66, 7876.606, 0.000000034158017, 9.943822, 9.932228 
8.9556e+2, 2.593881e+2, -411443.16, -526792.06, 35122.887, -0.045033023, 0.07906262, -401590.13, -3585.0037, 0.00000037566133, 9.943532, 9.930571 
8.944161e+2, 2.693187e+2, -315671.56, -431574.94, 44081.04, -0.05991257, 0.082892, -300811.63, -126.55585, 0.00000301649, 9.94319, 9.930426 
8.9326996e+2, 2.7924788e+2, -230344.16, -358777.78, 40764.49, -0.06746464, 0.09064035, -218498.22, -15119.353, 0.000017853601, 9.942939, 9.928115 
8.9212155e+2, 2.8917593e+2, -126264.83, -255233.97, 38938.195, -0.07316559, 0.09247469, -115420.5, -9336.488, 0.000079075995, 9.942864, 9.9277525 
8.9096767e+2, 2.9910165e+2, -51923.066, -200999.13, 46248.016, -0.107851036, 0.072962336, -38741.105, -29929.328, 0.00026623905, 9.942026, 9.924701 
8.8980645e+2, 3.0902508e+2, -9209.328, -155910.05, 20283.727, -0.19031948, 0.028234249, -6456.436, -6456.436, 0.00069019, 9.9383, 9.921803 
8.886422e+2, 3.189439e+2, -52820.887, -205202.03, 4719.3306, -0.13462391, 0.018358752, -52674.863, -52674.863, 0.0014013384, 9.93496, 9.91633 
8.874804e+2, 3.2886335e+2, 16501.428, -3890.6885, 4167.812, -0.11862255, 0.22007252, 17320.371, 17320.371, 0.0023083058, 9.9334955, 9.930595 
9.1917396e+2, 1.4129505e+2, -1527503.8, -1564944.5, 11722.523, 0.10652761, 0.10196154, -1524136.4, 31183.047, 0.000000001903787, 9.94514, 9.940321 
9.180352e+2, 1.5123594e+2, -1432184.9, -1457346.8, 5753.6777, 0.0923416, 0.06778311, -1430931.6, 26967.002, 0.0000000012354053, 9.944196, 9.941281 
9.1689855e+2, 1.6117741e+2, -1340661.0, -1379366.4, 24928.941, 0.089299016, 0.120337486, -1328454.5, 32017.418, 0.00000000066574474, 9.944345, 9.940324 
9.157615e+2, 1.7111702e+2, -1248751.4, -1294184.9, 11624.95, 0.085625336, 0.11613011, -1245949.6, 17113.955, 0.0000000002824927, 9.944032, 9.939212 
9.146228e+2, 1.810558e+2, -1156000.8, -1208629.0, 21418.797, 0.041714646, 0.10530938, -1148385.5, 17278.07, 0.00000000009044054, 9.943957, 9.938579 
9.1348433e+2, 1.9099392e+2, -1060668.9, -1119441.6, 17561.86, 0.020589313, 0.10107362, -1055821.1, 12448.777, 0.000000000021308946, 9.943905, 9.937831 
9.123459e+2, 2.0093147e+2, -965417.25, -1030381.3, 25734.613, 0.025039183, 0.102636464, -956458.4, 14423.475, 0.000000000003658245, 9.943954, 9.937291 
9.112075e+2, 2.1086842e+2, -872169.94, -941622.7, 26198.426, 0.025620582, 0.10443879, -863396.0, 10103.525, 0.00000000000045636807, 9.943769, 9.936549 
9.1006815e+2, 2.2080444e+2, -780777.56, -856603.5, 30739.957, 0.009760615, 0.099549316, -769881.3, 6245.1216, 0.0000000000030655227, 9.943583, 9.935645 
9.089283e+2, 2.3073976e+2, -684613.7, -766247.0, 31918.508, -0.012772689, 0.10026317, -673615.4, 5144.941, 0.0000000000903565, 9.9435625, 9.935025 
9.0778744e+2, 2.4067438e+2, -591647.2, -679292.4, 31496.496, -0.025183417, 0.10492909, -581502.7, -101.64603, 0.0000000018811002, 9.943403, 9.934142 
9.06646e+2, 2.506083e+2, -502827.28, -590307.25, 35941.855, -0.024406636, 0.10347192, -489954.5, -5906.0845, 0.000000028451819, 9.9427805, 9.933781 
9.055029e+2, 2.6054144e+2, -416262.22, -506694.38, 32560.982, -0.03292334, 0.09531294, -405758.38, -19054.938, 0.00000031314025, 9.942142, 9.932713 
9.0435857e+2, 2.7047408e+2, -314724.28, -407382.53, 41779.098, -0.06765252, 0.09169553, -298668.47, -9305.095, 0.0000025239594, 9.942138, 9.932741 
9.0321165e+2, 2.8040612e+2, -231421.67, -328070.0, 35886.176, -0.0898323, 0.099794306, -219554.13, -27524.775, 0.000015124688, 9.941306, 9.931205 
9.020636e+2, 2.9033756e+2, -130557.63, -222852.6, 32145.9, -0.0509003, 0.11338124, -120465.016, -25763.81, 0.00006901787, 9.940821, 9.931526 
9.0090823e+2, 3.002685e+2, -49601.355, -128707.32, 28759.479, -0.07215134, 0.0918831, -40250.902, -40250.902, 0.00024569064, 9.938408, 9.931649 
9.291188e+2, 1.4243864e+2, -1509354.1, -1539756.3, -13355.721, 0.09314119, 0.22939545, -1504320.4, 39792.984, 0.00000000008526822, 9.944652, 9.941457 
9.2797935e+2, 1.5237801e+2, -1418702.8, -1449454.6, 16468.102, 0.056478996, 0.040260002, -1411548.3, 35158.867, 0.00000000005532455, 9.945173, 9.941205 
9.268436e+2, 1.6232018e+2, -1316128.6, -1363328.9, 27066.428, 0.08859142, 0.1549391, -1303818.4, 45455.457, 0.000000000029806633, 9.945833, 9.940591 
9.257059e+2, 1.7226018e+2, -1227093.8, -1274516.0, 12743.083, 0.08686448, 0.13478222, -1223886.5, 27975.34, 0.000000000012643394, 9.945092, 9.939948 
9.2456686e+2, 1.8219963e+2, -1140214.0, -1191522.9, 22943.695, 0.03361941, 0.11225542, -1131451.0, 23004.158, 0.0000000000040459667, 9.944628, 9.939345 
9.234284e+2, 1.9213843e+2, -1045388.75, -1102971.9, 20504.697, 0.016137065, 0.10514166, -1038833.56, 18221.217, 0.000000000000952743, 9.944591, 9.93855 
9.2229e+2, 2.0207682e+2, -947873.8, -1009233.9, 27775.63, 0.02922287, 0.103232555, -937168.44, 22489.857, 0.00000000000016345195, 9.944637, 9.938329 
9.211515e+2, 2.1201506e+2, -853052.8, -918139.4, 25810.18, 0.028763112, 0.11992863, -844060.2, 18203.47, 0.000000000000020373985, 9.944481, 9.93779 
9.2001194e+2, 2.2195253e+2, -762804.75, -834579.56, 29410.791, 0.009130313, 0.12833023, -752292.8, 12583.596, 0.0000000000018606304, 9.944283, 9.936828 
9.1887194e+2, 2.3188873e+2, -670679.8, -747188.6, 31081.021, -0.018542226, 0.11480891, -659645.0, 7856.547, 0.000000000055557395, 9.944043, 9.936104 
9.1773075e+2, 2.4182448e+2, -578102.4, -658060.5, 29478.078, -0.03036335, 0.107079595, -568409.7, 1721.526, 0.0000000011563022, 9.943731, 9.935408 
9.1658884e+2, 2.5175974e+2, -488101.94, -568513.2, 33064.75, -0.014722004, 0.12136904, -476252.1, -3486.445, 0.000000017486771, 9.9431715, 9.935048 
9.154453e+2, 2.6169473e+2, -395277.28, -471728.3, 30945.455, -0.016883973, 0.121618964, -384321.38, -8918.809, 0.00000019261098, 9.942612, 9.9348755 
9.1430074e+2, 2.7162918e+2, -294563.7, -373368.66, 39612.25, -0.07412689, 0.094345815, -278094.13, -49.535133, 0.000001557747, 9.942624, 9.934837 
9.1315293e+2, 2.81564e+2, -204403.83, -278783.66, 30063.166, -0.10395804, 0.08762651, -193772.38, -13089.206, 0.000009437413, 9.941597, 9.934346 
9.120048e+2, 2.914978e+2, -118931.4, -198613.22, 39373.53, -0.011342368, 0.112986945, -102758.266, -19426.492, 0.00004425717, 9.940903, 9.933328 
9.108471e+2, 3.014337e+2, -360.77927, -37847.37, 38095.71, -0.08551037, 0.15707166, 23352.895, 23352.895, 0.00016661992, 9.940074, 9.936813 
9.390629e+2, 1.4358023e+2, -1525276.1, -1540067.6, -20976.076, 0.14409277, 0.113385595, -1510430.1, 22496.47, 0.0000000000029415736, 9.94319, 9.942208 
9.379239e+2, 1.5352045e+2, -1429201.1, -1459254.4, 18499.545, 0.0063439114, 0.031058509, -1420394.3, 15117.956, 0.0000000000019083366, 9.94487, 9.940848 
9.367891e+2, 1.6346292e+2, -1325136.8, -1364862.6, 22564.35, 0.08370159, 0.19208238, -1314938.3, 23137.559, 0.0000000000010279229, 9.945127, 9.9408455 
9.356509e+2, 1.734032e+2, -1230877.8, -1268325.8, 8405.491, 0.09339408, 0.14382327, -1229077.6, 11583.555, 0.0000000000004359048, 9.944515, 9.940648 
9.345115e+2, 1.8334335e+2, -1140418.9, -1181377.4, 20658.988, 0.040450938, 0.11001943, -1131808.8, 11438.965, 0.0000000000001394446, 9.944263, 9.940232 
9.33373e+2, 1.9328319e+2, -1044752.75, -1092772.3, 19072.424, 0.020480178, 0.12104768, -1038099.4, 7737.9175, 0.00000000000003282296, 9.944324, 9.939396 
9.3223476e+2, 2.0322245e+2, -947894.5, -1001750.06, 25979.268, 0.03166559, 0.12654705, -937405.3, 11027.041, 0.0000000000000056283993, 9.944436, 9.938954 
9.31096e+2, 2.13161e+2, -851956.75, -910958.7, 22555.793, 0.022424864, 0.12421718, -844321.9, 6712.533, 0.00000000000000070118843, 9.944402, 9.938363 
9.2995626e+2, 2.2309922e+2, -758360.7, -820816.6, 23746.047, -0.0009311175, 0.12528129, -750357.8, 3282.1792, 0.00000000000083497646, 9.944214, 9.93786 
9.2881596e+2, 2.3303661e+2, -669385.1, -734440.5, 24849.75, -0.013413058, 0.12562424, -660979.2, -4725.691, 0.0000000000249549, 9.9437685, 9.9371605 
9.2767453e+2, 2.429736e+2, -576070.56, -641629.5, 23465.973, -0.018156389, 0.122475214, -568536.94, -9666.232, 0.00000000051935445, 9.943445, 9.936713 
9.265323e+2, 2.529099e+2, -478467.78, -550391.7, 27431.635, -0.01732845, 0.12506199, -469199.7, -7704.5674, 0.0000000078541085, 9.943571, 9.936104 
9.253883e+2, 2.6284617e+2, -380119.97, -447350.0, 22984.111, -0.02848492, 0.12772024, -373013.5, -8893.918, 0.00000008654337, 9.943331, 9.936194 
9.2424345e+2, 2.7278182e+2, -292889.75, -359911.13, 27591.285, -0.083425656, 0.11602136, -282992.53, -16242.616, 0.0000007013428, 9.942782, 9.935774 
9.230952e+2, 2.8271788e+2, -188750.83, -252481.56, 3891.2986, -0.10505769, 0.104585744, -188514.11, -19137.95, 0.0000042783217, 9.94268, 9.935818 
9.2194694e+2, 2.926527e+2, -98967.42, -180141.7, 10872.452, 0.021587403, 0.13198532, -97536.4, -25521.453, 0.00002042177, 9.94317, 9.933952 
9.207905e+2, 3.0258843e+2, 58283.48, -12892.865, 15271.022, -0.157706, 0.091470785, 61421.555, 61421.555, 0.00007993033, 9.94748, 9.936439 
9.490083e+2, 1.4472228e+2, -1474916.6, -1498141.3, 5228.1943, 0.17153873, 0.17961729, -1473794.0, 47941.496, 0.0, 9.946679, 9.943839 
9.478695e+2, 1.5466252e+2, -1409155.0, -1450856.3, 18071.174, 0.012011032, 0.08695314, -1402413.6, 21907.297, 0.0, 9.946267, 9.940819 
9.467344e+2, 1.6460468e+2, -1314030.0, -1351753.0, 19527.025, 0.1021628, 0.18668674, -1305742.6, 21145.17, 0.0, 9.945451, 9.941537 
9.4559556e+2, 1.7454578e+2, -1215284.0, -1251007.5, 8614.446, 0.095115826, 0.14099123, -1213315.1, 16149.794, 0.0, 9.945116, 9.941514 
9.44456e+2, 1.8448694e+2, -1121170.3, -1161981.9, 22118.27, 0.03455039, 0.116236694, -1111482.6, 20559.025, 0.0, 9.945147, 9.941096 
9.4331765e+2, 1.9442773e+2, -1025877.6, -1073900.9, 20994.074, 0.019436797, 0.14222138, -1017994.0, 16627.902, 0.0, 9.945212, 9.940237 
9.421794e+2, 2.0436777e+2, -932723.75, -987396.4, 27438.02, 0.032257505, 0.14892365, -921328.7, 15880.805, 0.0, 9.945179, 9.939525 
9.4104046e+2, 2.1430665e+2, -839675.6, -898246.2, 25455.842, 0.0141627835, 0.12890491, -830158.44, 9649.7295, 0.0, 9.944967, 9.938874 
9.3990046e+2, 2.242455e+2, -743849.5, -802658.25, 25399.768, -0.009463604, 0.12345631, -734398.2, 8009.1963, 0.00000000000028468902, 9.944719, 9.938734 
9.387599e+2, 2.3418394e+2, -652685.7, -714865.75, 25740.215, -0.0037249906, 0.14052762, -643413.0, 1597.4749, 0.000000000008157955, 9.944414, 9.93809 
9.376183e+2, 2.4412207e+2, -557888.8, -618396.5, 25176.727, -0.0059259087, 0.13879158, -548783.25, -1166.5919, 0.00000000016979894, 9.944139, 9.937905 
9.364758e+2, 2.540592e+2, -463823.0, -530079.94, 28929.48, -0.035860837, 0.115559176, -452969.56, -2736.9148, 0.0000000025679472, 9.944088, 9.9372 
9.3533134e+2, 2.6399654e+2, -369729.38, -432933.53, 21236.271, -0.060011946, 0.12485795, -363256.9, -10410.286, 0.000000028296595, 9.943651, 9.936929 
9.341862e+2, 2.7393323e+2, -289165.88, -354919.06, 26667.488, -0.086388044, 0.17256905, -279710.16, -24242.725, 0.00000022950282, 9.942924, 9.93601 
9.3303794e+2, 2.8386962e+2, -184289.25, -241505.27, 7110.72, -0.09328223, 0.15701382, -183418.78, -25328.352, 0.0000014045202, 9.942778, 9.936502 
9.3189067e+2, 2.938047e+2, -82301.15, -162018.63, 21262.012, 0.010960117, 0.12634335, -76984.76, -16258.402, 0.000006759484, 9.944072, 9.934712 
9.3073696e+2, 3.0373847e+2, 24746.855, -53572.57, 27643.98, -0.17091231, 0.06397325, 33521.188, 33521.188, 0.000026932837, 9.945538, 9.93476 
9.5895404e+2, 1.4586264e+2, -1492280.8, -1504526.3, -1394.1418, 0.12330385, 0.13982828, -1492124.0, 18437.299, 0.0, 9.945568, 9.944136 
9.578159e+2, 1.558037e+2, -1418447.4, -1455140.4, 10964.702, 0.043939624, 0.13318755, -1415420.6, -2281.8289, 0.0, 9.945723, 9.940892 
9.5668e+2, 1.6574565e+2, -1314094.3, -1341457.0, 12147.902, 0.11749441, 0.16391394, -1309479.5, 6227.9517, 0.0, 9.945141, 9.942408 
9.555406e+2, 1.7568783e+2, -1213740.5, -1239273.9, 3219.1016, 0.08563615, 0.13849068, -1213340.9, 4933.0195, 0.0, 9.944941, 9.942479 
9.544011e+2, 1.8563008e+2, -1118950.1, -1151888.3, 16991.473, 0.018491779, 0.13309757, -1111756.1, 9083.795, 0.0, 9.945147, 9.941874 
9.532629e+2, 1.9557168e+2, -1021794.7, -1063234.3, 15731.608, 0.013504274, 0.16403408, -1016499.25, 6913.193, 0.0, 9.945371, 9.940988 
9.5212483e+2, 2.0551252e+2, -926501.56, -974057.8, 20163.105, 0.030784829, 0.1719947, -919103.56, 6888.491, 0.0, 9.945391, 9.940396 
9.5098567e+2, 2.154523e+2, -832747.1, -884012.5, 19023.633, 0.012080069, 0.15292045, -826459.06, 2122.9219, 0.0, 9.945229, 9.939769 
9.498455e+2, 2.2539185e+2, -735756.75, -790568.9, 19243.658, -0.013310692, 0.14079617, -729675.4, 1498.9396, 0.000000000000067652664, 9.945233, 9.939356 
9.4870496e+2, 2.353307e+2, -638208.9, -700578.3, 18670.184, -0.011280706, 0.1442322, -633047.2, 726.1629, 0.0000000000019384904, 9.94545, 9.938635 
9.475632e+2, 2.452694e+2, -540648.7, -602788.4, 14457.756, -0.013418725, 0.14336087, -537449.56, -1075.6376, 0.000000000040347756, 9.945388, 9.938467 
9.4642055e+2, 2.5520715e+2, -451594.22, -517641.28, 14877.194, -0.040174782, 0.12918036, -448397.8, -9413.905, 0.0000000006101943, 9.945101, 9.937732 
9.452758e+2, 2.6514518e+2, -352738.8, -414900.1, 3788.2798, -0.057124984, 0.13440484, -352508.8, -10917.701, 0.000000006724211, 9.944917, 9.937711 
9.441303e+2, 2.7508244e+2, -265495.5, -335041.66, 12246.904, -0.064350665, 0.17357853, -263401.88, -19195.465, 0.000000054552586, 9.9447975, 9.936508 
9.4298226e+2, 2.85019e+2, -154866.53, -219930.95, -2628.2212, -0.07637038, 0.14918764, -154760.53, -7932.8857, 0.0000003341785, 9.945309, 9.936832 
9.418357e+2, 2.9495415e+2, -66165.65, -149394.48, 8666.597, -0.010411958, 0.09008231, -65272.777, -15809.604, 0.0000016125001, 9.945968, 9.934852 
9.406828e+2, 3.0488864e+2, 45907.625, -45064.35, -344.9908, -0.1640685, 0.22110026, 45908.934, 45908.934, 0.0000064614287, 9.946933, 9.934717 
9.689001e+2, 1.4700155e+2, -1474952.8, -1504486.6, 19390.23, 0.06699277, 0.2064718, -1465346.6, 34054.75, 0.0, 9.947717, 9.943688 
9.677622e+2, 1.5694372e+2, -1394957.5, -1425743.8, 9325.53, 0.0737023, 0.13697855, -1392353.0, 9614.889, 0.0, 9.946368, 9.942507 
9.66625e+2, 1.6688696e+2, -1301362.3, -1326995.9, 15554.316, 0.09384291, 0.18630081, -1294024.5, 10499.43, 0.0, 9.945611, 9.943034 
9.6548563e+2, 1.7682976e+2, -1196523.0, -1222290.4, 7920.676, 0.06436521, 0.15740284, -1194283.0, 12801.488, 0.0, 9.945738, 9.9431715 
9.6434635e+2, 1.8677261e+2, -1103507.8, -1136339.5, 20428.734, 0.011157358, 0.14452901, -1093716.5, 15927.8125, 0.0, 9.945842, 9.942517 
9.6320844e+2, 1.967148e+2, -1011987.8, -1050513.0, 19504.955, 0.017850244, 0.16947348, -1003837.06, 8373.936, 0.0, 9.9456835, 9.941644 
9.620703e+2, 2.0665637e+2, -915483.56, -959246.8, 22631.906, 0.03496256, 0.17870353, -905884.9, 8898.534, 0.0, 9.945703, 9.941181 
9.60931e+2, 2.1659704e+2, -818696.6, -867984.25, 21489.135, 0.011649529, 0.16660884, -810643.4, 6721.5073, 0.0, 9.94577, 9.94055 
9.597908e+2, 2.2653718e+2, -723148.94, -778158.75, 22438.389, -0.018073814, 0.15123415, -715157.4, 4793.703, 0.0000000000000117120025, 9.945832, 9.93986 
9.586504e+2, 2.3647633e+2, -628230.56, -690804.1, 22575.326, -0.024762528, 0.13996397, -620936.1, 1611.2375, 0.0000000000003355644, 9.945928, 9.939004 
9.575085e+2, 2.4641538e+2, -534732.56, -597555.0, 16723.67, -0.023240075, 0.14678988, -530558.06, -5413.2754, 0.0000000000069838328, 9.945648, 9.938577 
9.563657e+2, 2.563535e+2, -446518.13, -511821.9, 17849.648, -0.030141123, 0.15918258, -441957.72, -14206.178, 0.00000000010561558, 9.945277, 9.937931 
9.5522094e+2, 2.662918e+2, -343599.94, -399478.28, 6547.8965, -0.02959526, 0.13533626, -342842.9, -12487.385, 0.0000000011640542, 9.945056, 9.938594 
9.540756e+2, 2.762291e+2, -257271.08, -320694.25, 14652.453, -0.026180932, 0.09191104, -254049.6, -21080.152, 0.000000009444971, 9.944924, 9.937349 
9.529275e+2, 2.8616634e+2, -157312.66, -222725.25, -836.6883, -0.07002936, 0.10174964, -157301.95, -21716.994, 0.000000057857413, 9.945169, 9.936756 
9.5178056e+2, 2.9610273e+2, -77176.02, -155066.88, 9207.633, -0.062842116, 0.16055568, -76102.37, -37893.387, 0.00000027926637, 9.945124, 9.934951 
9.5063096e+2, 3.0603638e+2, 58683.574, -35643.547, 6687.5093, -0.09772611, 0.15613504, 59155.34, 59155.34, 0.0000011202083, 9.9475355, 9.935135 
9.788484e+2, 1.4813858e+2, -1469542.6, -1482557.1, 576.3306, 0.1366066, 0.16276968, -1469517.3, 18742.879, 0.0, 9.947017, 9.945247 
9.7770864e+2, 1.5808332e+2, -1386691.4, -1399807.8, -924.8272, 0.09061648, 0.14260739, -1386626.5, 4174.899, 0.0, 9.946046, 9.944477 
9.7657025e+2, 1.680282e+2, -1299148.4, -1319405.0, 8333.194, 0.045968246, 0.2377044, -1296160.9, -2819.4387, 0.0, 9.9457445, 9.943598 
9.754313e+2, 1.7797141e+2, -1192657.0, -1213166.8, 1651.0054, 0.03991992, 0.19222276, -1192525.0, 3372.7373, 0.0, 9.9459915, 9.9438095 
9.7429246e+2, 1.8791462e+2, -1098706.0, -1126606.3, 11477.606, 0.01386319, 0.15192121, -1094591.3, 3862.6453, 0.0, 9.946131, 9.943138 
9.7315454e+2, 1.9785725e+2, -1006533.94, -1040518.2, 10759.437, 0.036298074, 0.15535559, -1003413.94, -2397.6897, 0.0, 9.946048, 9.9422655 
9.720165e+2, 2.0779942e+2, -907414.2, -947383.8, 14145.238, 0.053807992, 0.1608334, -902914.7, 668.02356, 0.0, 9.946276, 9.941845 
9.708774e+2, 2.1774076e+2, -806733.9, -854487.4, 12750.599, 0.018462656, 0.15413529, -803542.6, 2614.977, 0.0, 9.946648, 9.9412 
9.6973735e+2, 2.2768189e+2, -706903.56, -761262.1, 13024.348, -0.018527571, 0.16519877, -703944.0, 4790.3374, 0.0000000000000014914695, 9.946951, 9.940613 
9.685971e+2, 2.3762201e+2, -609582.94, -672698.5, 13247.063, -0.01873141, 0.17999466, -606915.3, 4405.629, 0.000000000000042732568, 9.947209, 9.939725 
9.6745497e+2, 2.475618e+2, -512587.16, -576264.94, 7888.2524, -0.01761534, 0.18514073, -511624.53, 2286.4753, 0.00000000000088938075, 9.947079, 9.939351 
9.663118e+2, 2.5750044e+2, -422737.38, -492553.56, 12919.879, -0.03813374, 0.19027448, -420423.2, -3910.7937, 0.000000000013450299, 9.946973, 9.938354 
9.6516687e+2, 2.674388e+2, -319438.63, -387095.25, -1382.6592, -0.04358071, 0.16568322, -319410.38, -294.3659, 0.0000000001482496, 9.947087, 9.938496 
9.6402156e+2, 2.7737623e+2, -228235.22, -305000.38, 1130.7336, -0.03331576, 0.12605943, -228218.58, -6489.6963, 0.0000000012029147, 9.947275, 9.937517 
9.628736e+2, 2.87314e+2, -124081.414, -205485.56, -11889.793, -0.09436819, 0.17217673, -122380.35, 1958.8276, 0.0000000073681794, 9.94774, 9.936889 
9.617261e+2, 2.9725108e+2, -37756.547, -128629.97, 2877.0403, -0.12844668, 0.2657074, -37665.55, -10708.685, 0.000000035559857, 9.947782, 9.935543 
9.605791e+2, 3.0718368e+2, 63553.543, -30055.49, 1220.6819, -0.057842854, 0.100245975, 63569.457, 63569.457, 0.00000014260962, 9.947959, 9.935436 
9.887948e+2, 1.4927772e+2, -1467364.1, -1478576.8, 14157.765, 0.11193815, 0.23652035, -1457743.0, 19354.727, 0.0, 9.9471035, 9.945521 
9.876547e+2, 1.5922263e+2, -1376580.8, -1385976.4, -2568.234, 0.09584369, 0.17782584, -1375924.5, 3712.764, 0.0, 9.946234, 9.945297 
9.8651594e+2, 1.6916832e+2, -1280354.0, -1301626.4, 10708.507, 0.007509319, 0.26934874, -1275897.1, 6272.299, 0.0, 9.946686, 9.944338 
9.853779e+2, 1.7911205e+2, -1174074.9, -1197245.6, 5050.7197, 0.06508623, 0.20263192, -1173021.9, 11698.989, 0.0, 9.9469795, 9.94438 
9.84239e+2, 1.8905586e+2, -1088142.1, -1116370.4, 11870.967, 0.035948206, 0.17872396, -1083813.8, 3457.3938, 0.0, 9.946593, 9.943561 
9.8310053e+2, 1.9899908e+2, -998404.75, -1029489.56, 12034.9795, 0.029499168, 0.19796406, -994289.94, -4462.604, 0.0, 9.946303, 9.94288 
9.8196274e+2, 2.0894197e+2, -896466.94, -932582.4, 19002.969, 0.04199814, 0.19899508, -888310.25, 4076.5737, 0.0, 9.946667, 9.942589 
9.8082405e+2, 2.1888384e+2, -797455.25, -842834.06, 19154.797, 0.010310885, 0.18294539, -790450.94, 4505.4985, 0.0, 9.947025, 9.941683 
9.7968435e+2, 2.2882555e+2, -698277.4, -749013.8, 17531.115, -0.019707257, 0.20202193, -692809.2, 4718.3765, 0.00000000000000014322901, 9.947234, 9.94122 
9.785444e+2, 2.3876657e+2, -601368.0, -659755.06, 15745.806, -0.011022428, 0.24158825, -597392.4, 2713.037, 0.0000000000000041040377, 9.947405, 9.94046 
9.77402e+2, 2.4870726e+2, -504351.56, -559585.6, 8218.161, -0.017615965, 0.23999755, -503154.72, -468.28207, 0.000000000000085429954, 9.947073, 9.940448 
9.7625846e+2, 2.586466e+2, -420410.8, -487734.66, 13614.771, -0.06648127, 0.22847204, -417761.78, -12481.0625, 0.000000000001292103, 9.946963, 9.93867 
9.7511345e+2, 2.685848e+2, -325441.88, -402244.84, 331.64423, -0.09248196, 0.23881637, -325440.44, -17553.97, 0.0000000000142405965, 9.947203, 9.937409 
9.7396827e+2, 2.7852213e+2, -230350.45, -308767.16, 3019.1602, -0.0872881, 0.28060892, -230234.38, -19733.82, 0.00000000011554544, 9.947264, 9.937297 
9.7282106e+2, 2.8845987e+2, -118930.58, -195424.8, -10027.411, -0.1279673, 0.27708322, -117637.95, -4527.678, 0.0000000007077114, 9.94774, 9.937646 
9.71674e+2, 2.9839635e+2, -32494.895, -120969.16, 349.45416, -0.1419287, 0.22120519, -32493.516, -16761.023, 0.000000003414842, 9.947857, 9.936089 
9.705263e+2, 3.083296e+2, 54379.58, -35910.29, -10214.98, -0.09618865, 0.13966507, 55520.83, 55520.83, 0.000000013690085, 9.94719, 9.935484 
9.9874294e+2, 1.5041547e+2, -1451977.1, -1462743.1, 1096.8955, 0.15435083, 0.19673698, -1451866.5, 14082.341, 0.0, 9.9476795, 9.946182 
9.976012e+2, 1.603606e+2, -1373386.5, -1378687.0, -4107.2583, 0.11246412, 0.13115482, -1371148.6, -2662.42, 0.0, 9.946307, 9.945819 
9.9646264e+2, 1.7030688e+2, -1271039.0, -1287717.6, 8335.6455, -0.02943732, 0.20088455, -1267587.4, 3425.4106, 0.0, 9.947135, 9.945148 
9.9532586e+2, 1.8025088e+2, -1167446.9, -1189417.8, -821.139, 0.12735525, 0.09940272, -1167416.3, 6144.9585, 0.0, 9.947401, 9.944807 
9.9418634e+2, 1.9019552e+2, -1083760.9, -1111349.9, 3004.9548, 0.08594217, 0.13074943, -1083437.4, -7333.43, 0.0, 9.946903, 9.943831 
9.930467e+2, 2.0013995e+2, -988438.4, -1013658.1, 6243.081, -0.019409088, 0.22731102, -986977.5, -8329.275, 0.0, 9.946739, 9.943873 
9.919089e+2, 2.1008453e+2, -879531.06, -905676.25, 15629.122, -0.05107037, 0.24560596, -872228.1, 8962.819, 0.0, 9.9472885, 9.944215 
9.90771e+2, 2.2002746e+2, -786167.4, -829621.0, 16349.997, -0.04082043, 0.20719208, -780702.75, 3047.2986, 0.0, 9.947722, 9.942269 
9.8963225e+2, 2.2996846e+2, -689129.9, -742219.4, 14122.474, -0.0021373439, 0.13478547, -685606.9, 721.08057, 0.000000000000000010837507, 9.948005, 9.941337 
9.8849255e+2, 2.3990895e+2, -590600.5, -649830.2, 10574.316, 0.014263399, 0.097759865, -588769.25, 141.81735, 0.00000000000000031058006, 9.94813, 9.940829 
9.873494e+2, 2.4985003e+2, -499336.7, -551921.6, -1183.5028, -0.00675491, 0.09347869, -499310.06, -7821.88, 0.0000000000000064639003, 9.947309, 9.940946 
9.86206e+2, 2.5979018e+2, -417448.63, -478214.13, 6373.845, -0.01567583, 0.09379539, -416787.25, -22712.842, 0.000000000000097753626, 9.94699, 9.939495 
9.850625e+2, 2.6972932e+2, -298462.13, -382306.94, 5341.0156, -0.0073102647, 0.13105679, -298123.28, -1452.0459, 0.0000000000010773522, 9.9490185, 9.937916 
9.8391765e+2, 2.796665e+2, -186052.9, -279400.2, 12433.876, -0.011873297, 0.118443176, -184425.1, 14861.637, 0.000000000008741193, 9.950049, 9.937637 
9.827693e+2, 2.8960386e+2, -119284.45, -185674.33, -10092.052, -0.06098557, 0.02876299, -117784.24, -15884.088, 0.00000000005353408, 9.947065, 9.938422 
9.8162144e+2, 2.995417e+2, -85291.26, -145533.78, -1357.4784, -0.011929561, 0.050198104, -85260.69, -80752.5, 0.00000000025827646, 9.943933, 9.93614 
9.804716e+2, 3.0947715e+2, 88.125725, -66079.02, -5645.208, -0.08365726, 0.24525134, 566.3044, 566.3044, 0.0000000010352618, 9.943386, 9.934904 
1.0086889e+3, 1.5155749e+2, -1452941.5, -1460626.4, -9641.186, 0.094158895, 0.23323072, -1446405.3, 8353.269, 0.0, 9.946436, 9.945609 
1.0075473e+3, 1.6150233e+2, -1361912.0, -1378080.0, 10734.827, 0.08108269, 0.2552981, -1356557.8, 741.36816, 0.0, 9.947383, 9.945073 
1.00641035e+3, 1.7144811e+2, -1255818.5, -1272239.9, 12227.815, 0.018895613, 0.29464847, -1249300.5, 10530.161, 0.0, 9.947989, 9.945621 
1.0052721e+3, 1.8139392e+2, -1160131.3, -1171073.0, 4376.423, 0.05768673, 0.28885186, -1158596.1, 3765.222, 0.0, 9.947376, 9.94575 
1.0041321e+3, 1.9133843e+2, -1078291.4, -1097481.3, 13925.453, 0.01767155, 0.23231463, -1070975.4, -6070.894, 0.0, 9.947003, 9.944211 
1.0029936e+3, 2.0128174e+2, -983961.94, -1017566.0, 14496.736, 0.009021422, 0.22428176, -978572.44, -11112.653, 0.0, 9.947707, 9.94285 
1.00185744e+3, 2.1122487e+2, -867941.4, -907430.5, -6705.133, 0.060348507, 0.19357234, -866833.94, 3183.083, 0.0, 9.948858, 9.943923 
1.00071944e+3, 2.2116905e+2, -761574.4, -804883.56, -17153.006, 0.019926319, 0.21056843, -755603.8, 16959.834, 0.0, 9.949254, 9.9440975 
9.9957985e+2, 2.3111291e+2, -665599.44, -717146.3, 2132.8037, -0.050182432, 0.247422, -665511.4, 9602.04, 0.0000000000000000006820092, 9.949444, 9.942583 
9.984404e+2, 2.410546e+2, -566589.56, -625808.0, 12058.401, -0.013942175, 0.24082245, -564228.3, 13456.257, 0.00000000000000001954189, 9.949573, 9.941471 
9.9729675e+2, 2.5099593e+2, -464658.97, -526671.8, 10937.0625, 0.00858307, 0.24369656, -462786.56, 17472.914, 0.00000000000000040645458, 9.949617, 9.940929 
9.9615216e+2, 2.6093668e+2, -384157.53, -451055.6, 19976.604, -0.09029426, 0.27606207, -378646.28, 4193.941, 0.0000000000000061445223, 9.949227, 9.939949 
9.9501103e+2, 2.7087566e+2, -253729.42, -337713.2, -18770.334, -0.055730633, 0.16379091, -249725.19, 35713.01, 0.00000000000006771698, 9.95156, 9.940695 
9.9386656e+2, 2.8081602e+2, -194423.67, -281179.8, 23872.834, -0.1152467, 0.25356686, -188288.42, -265.4715, 0.0000000000005493915, 9.949129, 9.93751 
9.927157e+2, 2.9075322e+2, -104682.336, -193778.44, -18781.291, -0.05583573, 0.3124403, -100885.11, -10246.779, 0.0000000000033642223, 9.948277, 9.936804 
9.915637e+2, 3.0068922e+2, -12092.279, -104730.8, -27576.23, -0.112181515, 0.24708511, -4504.9316, -4504.9316, 0.000000000016230134, 9.948983, 9.936896 
9.9041486e+2, 3.10624e+2, 76475.9, -11593.045, -5923.88, -0.13133317, 0.16543569, 76872.58, 76872.58, 0.00000000006506301, 9.948238, 9.936563 
