coord_x,coord_y,stress_xx,stress_yy,tau_xy,velocity_x,velocity_y,stress_1,eps,damage,lx,ly
5.0036496e+0, 1.24334924e+2, -1638616.8, -1725841.6, 407.8503, 0.000980256, -0.088301755, -1638614.9, 82894.99, 0.0, 10.007279, 9.995716 
5.003346e+0, 1.3433021e+2, -1554395.4, -1642607.3, 797.40674, 0.000008571892, -0.061538406, -1554388.3, 69167.82, 0.0, 10.006693, 9.995001 
5.003046e+0, 1.4432465e+2, -1467182.3, -1553430.1, 956.53503, -0.0011540276, -0.0995759, -1467171.6, 58439.074, 0.0, 10.006114, 9.994683 
5.0027645e+0, 1.543196e+2, -1376988.6, -1458614.6, 636.69836, -0.0013877654, -0.07959157, -1376983.6, 50676.543, 0.0, 10.005556, 9.994739 
5.002476e+0, 1.6431391e+2, -1294406.8, -1378879.9, 468.80414, -0.0010368727, -0.07215053, -1294404.1, 35311.715, 0.0, 10.0049715, 9.99378 
5.0021815e+0, 1.7430763e+2, -1205264.4, -1285047.6, 742.5053, 0.000084570216, -0.08086324, -1205257.5, 26520.012, 0.0, 10.004361, 9.993792 
5.001862e+0, 1.8430105e+2, -1121554.0, -1201661.8, 752.3823, 0.00030635527, -0.08246102, -1121547.0, 12295.138, 0.0, 10.003718, 9.993108 
5.001512e+0, 1.9429424e+2, -1033295.56, -1108036.3, 704.02374, -0.0006510491, -0.076211326, -1033288.94, 2619.8809, 0.0, 10.0030365, 9.993138 
5.0011665e+0, 2.0428705e+2, -950395.7, -1025447.5, 688.53827, -0.0010876867, -0.072863914, -950389.4, -12409.888, 0.0, 10.002354, 9.992416 
5.000828e+0, 2.142795e+2, -862140.0, -931843.6, 719.52997, -0.00083559135, -0.07414496, -862132.56, -22078.922, 0.0, 10.001672, 9.992443 
5.000484e+0, 2.2427157e+2, -779034.44, -848754.56, 724.52344, -0.0008164951, -0.074621744, -779026.9, -36895.56, 0.0, 10.000984, 9.9917555 
5.000133e+0, 2.3426335e+2, -690926.06, -755164.94, 751.198, -0.0011063347, -0.07524651, -690917.3, -46705.37, 0.0, 10.000289, 9.991786 
4.999792e+0, 2.442548e+2, -607694.3, -672014.06, 788.9614, -0.0011806875, -0.074353695, -607684.6, -61388.645, 0.0, 9.999608, 9.991096 
4.999462e+0, 2.5424594e+2, -519059.4, -578099.5, 706.2167, -0.0009696448, -0.072452515, -519050.94, -70668.18, 0.0, 9.998944, 9.991132 
4.9991232e+0, 2.642367e+2, -436295.25, -495984.7, 596.11273, -0.00090499717, -0.06989493, -436289.28, -85815.84, 0.0, 9.998264, 9.990367 
4.998769e+0, 2.7422714e+2, -348216.44, -402270.5, 604.9625, -0.0010336228, -0.06781193, -348209.7, -95642.36, 0.0, 9.997558, 9.990407 
4.998425e+0, 2.8421703e+2, -266827.06, -323016.88, 742.80536, -0.0013370865, -0.067769095, -266817.22, -112150.92, 0.0, 9.996877, 9.989446 
4.998092e+0, 2.9420647e+2, -177969.25, -228902.84, 816.51624, -0.001879209, -0.07186106, -177956.16, -121186.32, 0.0, 9.996222, 9.989486 
4.9977857e+0, 3.0419943e+2, -88935.125, -82693.16, 1091.5526, -0.0020114037, -0.06999801, -82507.77, -82507.77, 0.0, 9.995611, 9.996437 
4.9975094e+0, 3.1419605e+2, -96387.56, -85138.64, 1232.9758, -0.0015796085, -0.061622947, -85005.08, -85005.08, 0.0, 9.995051, 9.996539 
1.5010948e+1, 1.2433528e+2, -1637790.6, -1724139.1, -1670.2877, 0.0029361448, -0.0907937, -1637758.3, 83748.16, 0.0, 10.007279, 9.995832 
1.501004e+1, 1.3433078e+2, -1553527.5, -1640824.5, -1414.9764, 0.00002471324, -0.05622487, -1553504.5, 70046.13, 0.0, 10.006693, 9.995122 
1.5009136e+1, 1.4432524e+2, -1467709.1, -1554516.3, -1166.7231, -0.003462149, -0.0935085, -1467693.5, 57911.445, 0.0, 10.006114, 9.99461 
1.5008292e+1, 1.5432002e+2, -1377619.8, -1459913.6, -1463.7075, -0.004163481, -0.08175421, -1377593.8, 50062.348, 0.0, 10.005556, 9.99465 
1.5007427e+1, 1.6431431e+2, -1293964.5, -1377968.4, -1830.0105, -0.0031103098, -0.07572448, -1293924.6, 35787.42, 0.0, 10.0049715, 9.993842 
1.5006545e+1, 1.7430818e+2, -1204744.0, -1283973.4, -1557.882, 0.00025378834, -0.076955155, -1204713.4, 27058.938, 0.0, 10.004361, 9.993865 
1.5005587e+1, 1.8430164e+2, -1121593.4, -1201740.6, -1807.1038, 0.0009192389, -0.0767436, -1121552.6, 12283.751, 0.0, 10.003718, 9.993102 
1.5004535e+1, 1.9429478e+2, -1033379.0, -1108207.3, -1866.6385, -0.0019534302, -0.076097995, -1033332.5, 2571.1946, 0.0, 10.0030365, 9.993127 
1.5003498e+1, 2.0428756e+2, -950351.06, -1025354.7, -1889.0293, -0.0032628935, -0.07590378, -950303.5, -12328.811, 0.0, 10.002354, 9.992422 
1.5002483e+1, 2.1428e+2, -862085.7, -931730.9, -1854.2042, -0.0025070875, -0.07707908, -862036.4, -21987.678, 0.0, 10.001672, 9.992451 
1.5001452e+1, 2.242721e+2, -778979.94, -848641.56, -1898.8547, -0.002449477, -0.07606974, -778928.25, -36802.07, 0.0, 10.000984, 9.991763 
1.50004e+1, 2.3426391e+2, -690872.94, -755054.56, -1876.5438, -0.0033192448, -0.07339083, -690818.1, -46611.707, 0.0, 10.000289, 9.991794 
1.4999376e+1, 2.4425535e+2, -607838.06, -672310.7, -1724.2915, -0.003542254, -0.071323946, -607792.0, -61501.547, 0.0, 9.999608, 9.9910755 
1.4998387e+1, 2.5424647e+2, -519220.0, -578431.06, -1802.6216, -0.0029089123, -0.071064994, -519165.16, -70787.59, 0.0, 9.998943, 9.991109 
1.4997369e+1, 2.6423723e+2, -436273.0, -495937.44, -2053.792, -0.0027153397, -0.07067461, -436202.4, -85733.84, 0.0, 9.998264, 9.990371 
1.4996305e+1, 2.742276e+2, -348180.63, -402195.13, -2065.7583, -0.0031009254, -0.07143455, -348101.75, -95539.09, 0.0, 9.997558, 9.990413 
1.4995275e+1, 2.8421757e+2, -266699.8, -322751.44, -1737.1454, -0.0040115537, -0.069205, -266646.03, -111984.69, 0.0, 9.996877, 9.989464 
1.4994276e+1, 2.942071e+2, -177834.45, -228621.58, -1661.5114, -0.0056375964, -0.06432869, -177780.14, -121016.24, 0.0, 9.996222, 9.989505 
1.4993356e+1, 3.0420008e+2, -88689.125, -82180.84, -1036.2736, -0.006035496, -0.061844826, -82019.83, -82019.83, 0.0, 9.995611, 9.996471 
1.4992529e+1, 3.1419662e+2, -96135.98, -84613.414, -883.31946, -0.004740005, -0.06419816, -84546.09, -84546.09, 0.0, 9.99505, 9.996575 
2.5018185e+1, 1.24336295e+2, -1638931.4, -1724199.1, 1226.6978, 0.0037170108, -0.08978014, -1638913.6, 82582.95, 0.0, 10.00718, 9.995876 
2.5016773e+1, 1.3433185e+2, -1551997.8, -1639545.1, 812.69574, 0.0002164165, -0.054013163, -1551990.1, 71550.09, 0.0, 10.006773, 9.99517 
2.5015315e+1, 1.4432633e+2, -1465827.3, -1554089.1, 507.21274, -0.0043026223, -0.091193795, -1465824.4, 59770.05, 0.0, 10.006263, 9.994566 
2.5013885e+1, 1.5432104e+2, -1376911.8, -1460135.9, 483.01932, -0.0042336322, -0.08098712, -1376909.0, 50737.254, 0.0, 10.005629, 9.994599 
2.5012392e+1, 1.6431531e+2, -1293797.4, -1377539.9, -33.607285, -0.0034938892, -0.075547345, -1293797.4, 35904.992, 0.0, 10.004969, 9.993873 
2.5010845e+1, 1.7430922e+2, -1205650.8, -1284002.4, -35.209953, -0.0018285355, -0.07612733, -1205650.8, 26111.451, 0.0, 10.004282, 9.993901 
2.5009233e+1, 1.843027e+2, -1123016.9, -1202457.8, -435.0413, -0.0016021862, -0.07543037, -1123014.5, 10811.558, 0.0, 10.003622, 9.9931 
2.5007543e+1, 1.9429585e+2, -1033916.2, -1108529.8, -440.5871, -0.0032800552, -0.07452321, -1033913.6, 1979.7856, 0.0, 10.003003, 9.993121 
2.500584e+1, 2.042886e+2, -950302.8, -1025212.3, -551.2521, -0.004121465, -0.0748872, -950298.75, -12334.329, 0.0, 10.002352, 9.992433 
2.5004137e+1, 2.1428104e+2, -862146.0, -931630.06, -491.9972, -0.003852121, -0.077697605, -862142.56, -22104.094, 0.0, 10.001662, 9.992462 
2.5002417e+1, 2.2427315e+2, -779182.8, -848942.25, -606.88666, -0.004096783, -0.076645955, -779177.5, -37061.58, 0.0, 10.000979, 9.991745 
2.500068e+1, 2.3426497e+2, -690778.4, -755239.7, -795.48254, -0.0050268285, -0.071704194, -690768.56, -46572.336, 0.0, 10.000305, 9.991773 
2.499896e+1, 2.442564e+2, -607946.94, -672334.44, -752.18353, -0.0053757727, -0.06901019, -607938.2, -61657.91, 0.0, 9.9995985, 9.991078 
2.4997263e+1, 2.5424752e+2, -520590.84, -579047.1, -639.0045, -0.004953386, -0.0703064, -520583.88, -72216.38, 0.0, 9.998848, 9.991113 
2.4995556e+1, 2.642382e+2, -437833.47, -496693.06, -620.2346, -0.0051625813, -0.0708343, -437826.94, -87368.42, 0.0, 9.9981575, 9.99037 
2.4993823e+1, 2.7422863e+2, -348415.47, -402316.63, -670.9995, -0.006205653, -0.07164806, -348407.1, -95854.45, 0.0, 9.997542, 9.990412 
2.4992138e+1, 2.842186e+2, -266119.94, -322338.5, -367.24927, -0.0071692355, -0.068587825, -266117.53, -111466.305, 0.0, 9.996911, 9.989475 
2.4990489e+1, 2.942082e+2, -177338.02, -228240.08, -353.62366, -0.008039672, -0.061689902, -177335.55, -120582.07, 0.0, 9.996249, 9.989518 
2.4988922e+1, 3.042012e+2, -89144.37, -82170.14, 284.3152, -0.008520023, -0.059037514, -82158.57, -82158.57, 0.0, 9.99557, 9.996492 
2.4987446e+1, 3.1419772e+2, -98832.88, -85679.26, 310.84457, -0.0084173735, -0.06374636, -85671.914, -85671.914, 0.0, 9.994856, 9.996595 
3.502536e+1, 1.2433796e+2, -1639109.3, -1724588.1, -193.60095, 0.003324714, -0.08528279, -1639108.8, 82371.68, 0.0, 10.007181, 9.99585 
3.5023552e+1, 1.3433343e+2, -1552183.0, -1639924.3, -711.54034, 0.0005825619, -0.054887418, -1552177.3, 71347.53, 0.0, 10.006773, 9.995144 
3.5021588e+1, 1.4432788e+2, -1465931.9, -1554291.3, -1835.7277, -0.0036845943, -0.092612624, -1465893.8, 59685.523, 0.0, 10.006263, 9.994553 
3.5019538e+1, 1.5432264e+2, -1377008.8, -1460327.1, -1902.7166, -0.0016113548, -0.07729983, -1376965.4, 50665.375, 0.0, 10.005629, 9.994587 
3.5017377e+1, 1.6431691e+2, -1293800.0, -1377541.6, -2613.2246, -0.0021964607, -0.071637146, -1293718.5, 35968.4, 0.0, 10.004968, 9.993873 
3.5015082e+1, 1.7431074e+2, -1205647.1, -1283996.8, -2617.536, -0.0061578625, -0.07837027, -1205559.8, 26187.45, 0.0, 10.004282, 9.993902 
3.50128e+1, 1.8430422e+2, -1123009.3, -1202444.6, -2791.5261, -0.0072508804, -0.0785088, -1122911.4, 10899.796, 0.0, 10.003622, 9.993101 
3.5010532e+1, 1.9429743e+2, -1033911.9, -1108520.4, -2771.5789, -0.0046316213, -0.07148774, -1033809.06, 2068.885, 0.0, 10.003003, 9.993121 
3.50082e+1, 2.0429023e+2, -950198.56, -1024995.2, -3136.356, -0.0036683555, -0.069823354, -950067.25, -12118.518, 0.0, 10.002352, 9.992448 
3.500579e+1, 2.1428263e+2, -862037.25, -931403.75, -3093.4321, -0.004872874, -0.0760042, -861899.6, -21876.674, 0.0, 10.001662, 9.992477 
3.500338e+1, 2.2427472e+2, -779494.7, -849584.75, -3154.6765, -0.0057606227, -0.07635205, -779353.0, -37252.332, 0.0, 10.000979, 9.991701 
3.5000974e+1, 2.342665e+2, -691124.8, -755954.25, -3339.5088, -0.0062305583, -0.070186555, -690953.25, -46771.96, 0.0, 10.000305, 9.991724 
3.4998548e+1, 2.4425794e+2, -607768.44, -671962.9, -3564.1323, -0.0066833035, -0.067413114, -607571.1, -61305.668, 0.0, 9.9995985, 9.991103 
3.499609e+1, 2.5424907e+2, -520373.38, -578593.8, -3477.1587, -0.0071057496, -0.070177734, -520166.44, -71813.91, 0.0, 9.998848, 9.991143 
3.4993684e+1, 2.642398e+2, -437860.4, -496745.44, -2974.3328, -0.0082486, -0.07037312, -437710.53, -87267.164, 0.0, 9.9981575, 9.990366 
3.4991324e+1, 2.742302e+2, -348464.72, -402415.06, -2994.9043, -0.010352264, -0.068445385, -348298.97, -95761.65, 0.0, 9.997542, 9.990405 
3.498901e+1, 2.8422016e+2, -266083.66, -322260.0, -2842.6824, -0.010814822, -0.06591425, -265940.2, -111304.23, 0.0, 9.99691, 9.989481 
3.4986728e+1, 2.9420972e+2, -177298.58, -228154.53, -2855.2793, -0.009082844, -0.0639604, -177138.77, -120400.18, 0.0, 9.996249, 9.989524 
3.498448e+1, 3.042027e+2, -89106.77, -82085.99, -2382.2913, -0.009460127, -0.06159539, -81353.96, -81353.96, 0.0, 9.995569, 9.996498 
3.4982258e+1, 3.141993e+2, -98800.84, -85601.83, -2389.2576, -0.01262064, -0.0602541, -85182.64, -85182.64, 0.0, 9.994855, 9.996601 
4.503279e+1, 1.2434025e+2, -1632613.6, -1722402.8, 2322.3796, 0.0039391993, -0.081494816, -1632553.6, 88904.56, 0.0, 10.007666, 9.995762 
4.5030367e+1, 1.3433559e+2, -1551654.0, -1640651.5, 1207.288, 0.0010976336, -0.05590681, -1551637.6, 71866.26, 0.0, 10.006852, 9.995056 
4.5027775e+1, 1.4433e+2, -1467660.8, -1554873.1, -43.318172, -0.0045122923, -0.09400079, -1467660.8, 57897.883, 0.0, 10.006134, 9.9945755 
4.5025113e+1, 1.5432483e+2, -1377967.6, -1460449.3, 229.50092, -0.0030968888, -0.0739895, -1377966.9, 49642.49, 0.0, 10.005548, 9.994617 
4.5022327e+1, 1.6431911e+2, -1293969.4, -1377909.1, -459.13388, -0.0038032145, -0.06735338, -1293966.9, 35698.59, 0.0, 10.004969, 9.993847 
4.5019418e+1, 1.7431287e+2, -1204058.8, -1283561.9, -681.71545, -0.007169941, -0.077950284, -1204052.9, 27673.514, 0.0, 10.004405, 9.993872 
4.501648e+1, 1.8430634e+2, -1120978.8, -1201484.8, -1191.0675, -0.00818309, -0.07937772, -1120961.1, 12829.484, 0.0, 10.003762, 9.993098 
4.5013526e+1, 1.9429956e+2, -1033652.94, -1108402.3, -1187.4124, -0.0061563766, -0.07026918, -1033634.1, 2223.185, 0.0, 10.00302, 9.99312 
4.5010507e+1, 2.0429236e+2, -950986.5, -1025500.5, -1671.2875, -0.005690921, -0.06714978, -950949.0, -13021.02, 0.0, 10.002303, 9.992436 
4.5007408e+1, 2.1428478e+2, -862729.44, -931876.94, -1833.1232, -0.0072688935, -0.072716154, -862680.9, -22678.615, 0.0, 10.001621, 9.992465 
4.500431e+1, 2.2427683e+2, -780272.0, -849983.4, -1878.4048, -0.008098987, -0.073578335, -780221.44, -38141.31, 0.0, 10.000927, 9.991698 
4.5001218e+1, 2.342686e+2, -692415.6, -756597.75, -1709.8218, -0.007944978, -0.06940776, -692370.1, -48209.156, 0.0, 10.000217, 9.991722 
4.4998103e+1, 2.4426003e+2, -608466.25, -672193.06, -1776.8064, -0.008342365, -0.06731955, -608416.75, -62171.62, 0.0, 9.999546, 9.991113 
4.499495e+1, 2.5425115e+2, -519190.78, -577909.06, -1849.3597, -0.009468987, -0.06902871, -519132.6, -70800.59, 0.0, 9.998923, 9.991154 
4.4991848e+1, 2.642419e+2, -436731.7, -496127.53, -1444.4613, -0.011049437, -0.068126135, -436696.6, -86273.9, 0.0, 9.998231, 9.990373 
4.4988787e+1, 2.7423236e+2, -349906.9, -403048.3, -1385.072, -0.013226834, -0.065058246, -349870.84, -97354.37, 0.0, 9.99744, 9.99041 
4.4985798e+1, 2.8422233e+2, -268783.88, -323372.8, -945.6719, -0.0137279695, -0.06366779, -268767.5, -114152.41, 0.0, 9.996717, 9.989497 
4.498286e+1, 2.9421183e+2, -179673.5, -229105.81, -869.0961, -0.011997396, -0.06592466, -179658.22, -122940.336, 0.0, 9.9960785, 9.989541 
4.4979993e+1, 3.042048e+2, -90040.08, -82732.98, -218.25752, -0.012693545, -0.06377383, -82726.46, -82726.46, 0.0, 9.995514, 9.99648 
4.497717e+1, 3.1420144e+2, -96234.52, -84602.69, -427.2378, -0.016585343, -0.057213046, -84587.016, -84587.016, 0.0, 9.995041, 9.99658 
5.504047e+1, 1.2434316e+2, -1633688.5, -1724585.5, -568.1472, 0.005537636, -0.07839342, -1633684.9, 87745.016, 0.0, 10.007664, 9.995614 
5.503723e+1, 1.343383e+2, -1552718.9, -1642845.9, -1847.1113, 0.0017592539, -0.057067554, -1552681.1, 70796.34, 0.0, 10.006852, 9.994906 
5.5033886e+1, 1.4433266e+2, -1467223.3, -1553991.4, -2304.7578, -0.0067733345, -0.09535667, -1467162.1, 58370.72, 0.0, 10.006134, 9.994635 
5.503061e+1, 1.543276e+2, -1377434.5, -1459360.9, -1963.0662, -0.008659225, -0.0710539, -1377387.5, 50194.875, 0.0, 10.0055485, 9.994691 
5.5027246e+1, 1.6432191e+2, -1294331.4, -1378653.8, -2591.8074, -0.008292397, -0.06269602, -1294251.8, 35386.395, 0.0, 10.004969, 9.993796 
5.5023843e+1, 1.7431562e+2, -1204495.4, -1284451.1, -2796.931, -0.0048883697, -0.07488612, -1204397.8, 27302.213, 0.0, 10.004404, 9.993811 
5.502028e+1, 1.8430902e+2, -1121026.3, -1201571.1, -3939.5085, -0.004432236, -0.07805132, -1120834.0, 12930.589, 0.0, 10.003761, 9.993093 
5.5016536e+1, 1.9430222e+2, -1033670.1, -1108432.9, -3975.7043, -0.007858529, -0.07086234, -1033459.3, 2372.1238, 0.0, 10.00302, 9.993118 
5.501276e+1, 2.04295e+2, -951248.5, -1026039.7, -4259.146, -0.010183236, -0.06685404, -951006.75, -13104.514, 0.0, 10.002303, 9.992399 
5.500899e+1, 2.1428742e+2, -863014.0, -932462.7, -4402.165, -0.011040797, -0.067837074, -862736.06, -22759.521, 0.0, 10.001621, 9.992425 
5.5005205e+1, 2.2427948e+2, -779990.94, -849400.06, -4544.327, -0.0111159375, -0.068331145, -779694.7, -37640.29, 0.0, 10.000927, 9.991738 
5.5001414e+1, 2.3427124e+2, -692095.7, -755933.3, -4384.997, -0.010170919, -0.06937078, -691795.9, -47660.74, 0.0, 10.000217, 9.991767 
5.499763e+1, 2.4426267e+2, -608513.44, -672286.56, -4145.4688, -0.010356526, -0.068730466, -608245.06, -62025.8, 0.0, 9.999546, 9.991106 
5.4993844e+1, 2.5425383e+2, -519270.8, -578070.9, -4198.5923, -0.012048116, -0.06685695, -518972.53, -70666.555, 0.0, 9.998923, 9.991142 
5.4990053e+1, 2.642446e+2, -436618.7, -495888.88, -4378.1636, -0.013568536, -0.0640907, -436297.0, -85900.54, 0.0, 9.998231, 9.990389 
5.4986215e+1, 2.7423507e+2, -349785.3, -402787.84, -4375.0527, -0.014826927, -0.06148758, -349426.63, -96936.516, 0.0, 9.99744, 9.990428 
5.498249e+1, 2.8422505e+2, -268589.9, -322958.53, -3391.9753, -0.015909256, -0.061853483, -268379.13, -113790.5, 0.0, 9.9967165, 9.989526 
5.4978895e+1, 2.9421455e+2, -179479.3, -228689.58, -3283.0576, -0.016796848, -0.06758507, -179261.23, -122569.83, 0.0, 9.996078, 9.98957 
5.497545e+1, 3.0420753e+2, -90337.55, -83340.586, -2031.9767, -0.018238347, -0.065574385, -82793.29, -82793.29, 0.0, 9.995514, 9.996439 
5.497217e+1, 3.1420416e+2, -96573.16, -85306.14, -2207.4443, -0.020325726, -0.054630112, -84889.09, -84889.09, 0.0, 9.995041, 9.9965315 
6.504813e+1, 1.24346554e+2, -1634781.4, -1725841.9, 977.09674, 0.007026705, -0.07774594, -1634770.9, 86625.8, 0.0, 10.007621, 9.995549 
6.5044194e+1, 1.3434167e+2, -1549656.1, -1642047.4, 208.38945, 0.001757409, -0.053140678, -1549655.8, 73788.87, 0.0, 10.007091, 9.994844 
6.504018e+1, 1.44336e+2, -1462257.5, -1551771.4, -87.4941, -0.008542048, -0.091035105, -1462257.4, 63242.883, 0.0, 10.006481, 9.9946165 
6.503625e+1, 1.5433088e+2, -1374162.3, -1457942.8, -389.3103, -0.010345506, -0.070695214, -1374160.5, 53389.97, 0.0, 10.005778, 9.994675 
6.5032244e+1, 1.6432518e+2, -1293224.8, -1378299.8, -1314.3322, -0.00986435, -0.06250498, -1293204.4, 36401.957, 0.0, 10.005052, 9.993779 
6.5028185e+1, 1.7431891e+2, -1206128.6, -1285437.3, -1188.1926, -0.0062753465, -0.06994286, -1206110.9, 25556.992, 0.0, 10.004301, 9.9937935 
6.5023947e+1, 1.8431231e+2, -1123183.0, -1202423.5, -2159.186, -0.006025097, -0.072512634, -1123124.3, 10608.319, 0.0, 10.003606, 9.993109 
6.501952e+1, 1.9430548e+2, -1034018.0, -1108386.6, -2032.4646, -0.010187698, -0.070152916, -1033962.44, 1837.0822, 0.0, 10.002987, 9.993136 
6.501506e+1, 2.0429826e+2, -950967.1, -1026107.6, -2216.0918, -0.012598459, -0.06737802, -950901.8, -13031.349, 0.0, 10.002332, 9.992381 
6.5010595e+1, 2.142907e+2, -863059.6, -932727.6, -2219.5225, -0.012682337, -0.06487114, -862989.0, -23044.264, 0.0, 10.001628, 9.992403 
6.5006113e+1, 2.2428276e+2, -779989.25, -849175.56, -2433.4817, -0.012759025, -0.06431513, -779903.75, -37881.254, 0.0, 10.000917, 9.991757 
6.5001595e+1, 2.3427452e+2, -692242.8, -755752.25, -2450.5464, -0.012835222, -0.06754704, -692148.44, -48045.19, 0.0, 10.000196, 9.991789 
6.49971e+1, 2.4426596e+2, -609730.75, -672925.4, -2185.8184, -0.013376661, -0.067356765, -609655.25, -63467.99, 0.0, 9.999465, 9.991101 
6.499264e+1, 2.542571e+2, -522327.94, -579631.4, -2206.1316, -0.014545942, -0.06359933, -522243.13, -73969.234, 0.0, 9.998718, 9.991135 
6.4988166e+1, 2.6424792e+2, -439275.6, -497038.5, -2386.4417, -0.015801126, -0.06069227, -439177.16, -88812.78, 0.0, 9.998043, 9.9904 
6.498364e+1, 2.7423838e+2, -349400.78, -402458.13, -2430.5193, -0.017134387, -0.060280442, -349289.7, -96831.61, 0.0, 9.99746, 9.99044 
6.4979243e+1, 2.8422832e+2, -266892.4, -322048.53, -1470.7816, -0.018488802, -0.06067156, -266853.22, -112296.73, 0.0, 9.996829, 9.989533 
6.497496e+1, 2.9421785e+2, -178713.84, -228242.92, -1534.5511, -0.01992121, -0.06351441, -178666.34, -122007.42, 0.0, 9.996126, 9.989575 
6.497088e+1, 3.0421087e+2, -91606.05, -83731.7, 104.75513, -0.021620842, -0.061543718, -83730.31, -83730.31, 0.0, 9.995417, 9.996458 
6.4967e+1, 3.142075e+2, -101567.56, -87492.33, 446.16885, -0.023556735, -0.05459409, -87478.2, -87478.2, 0.0, 9.994689, 9.996551 
7.5055766e+1, 1.24350466e+2, -1634642.1, -1725578.4, -887.655, 0.008400013, -0.07950451, -1634633.5, 86725.27, 0.0, 10.007622, 9.995566 
7.5051284e+1, 1.3434573e+2, -1549489.1, -1641696.9, -1771.6411, 0.0010960337, -0.04420177, -1549455.1, 73950.266, 0.0, 10.00709, 9.994868 
7.5046647e+1, 1.4434001e+2, -1462946.1, -1553165.4, -2686.6877, -0.009829197, -0.08112548, -1462866.1, 62595.164, 0.0, 10.00648, 9.994522 
7.504205e+1, 1.5433466e+2, -1374917.8, -1459477.9, -3016.9836, -0.008210225, -0.07288236, -1374810.3, 52703.344, 0.0, 10.005777, 9.994571 
7.5037307e+1, 1.643289e+2, -1293107.1, -1378046.0, -4124.507, -0.008562267, -0.06672017, -1292907.4, 36662.75, 0.0, 10.005052, 9.993796 
7.503243e+1, 1.7432277e+2, -1205944.6, -1285057.5, -4001.3806, -0.011299815, -0.06313214, -1205742.8, 25887.662, 0.0, 10.004301, 9.993819 
7.5027484e+1, 1.8431623e+2, -1122895.8, -1201833.6, -4515.801, -0.012915794, -0.06280229, -1122638.3, 11056.267, 0.0, 10.003606, 9.993149 
7.502247e+1, 1.9430937e+2, -1033735.06, -1107799.6, -4349.299, -0.013140938, -0.0681532, -1033480.56, 2281.2383, 0.0, 10.002987, 9.993176 
7.5017387e+1, 2.0430212e+2, -950969.1, -1026105.6, -4840.288, -0.012952242, -0.0687206, -950658.6, -12825.874, 0.0, 10.002331, 9.992381 
7.501223e+1, 2.1429458e+2, -863087.75, -932780.2, -4864.3857, -0.012204394, -0.063811876, -862749.9, -22843.023, 0.0, 10.001628, 9.992399 
7.500703e+1, 2.2428666e+2, -779991.6, -849175.6, -5142.1978, -0.013036798, -0.061527696, -779611.5, -37627.008, 0.0, 10.0009165, 9.991757 
7.500175e+1, 2.3427844e+2, -692248.94, -755759.7, -5165.9595, -0.015944345, -0.063936986, -691831.5, -47766.305, 0.0, 10.000196, 9.991788 
7.499653e+1, 2.4426988e+2, -609753.7, -672965.2, -4993.098, -0.017407667, -0.063198514, -609361.75, -63212.543, 0.0, 9.999465, 9.991098 
7.499134e+1, 2.5426105e+2, -522360.38, -579687.7, -5025.583, -0.016961887, -0.059257165, -521923.13, -73687.31, 0.0, 9.998717, 9.991131 
7.498619e+1, 2.642518e+2, -439230.2, -496932.0, -4623.139, -0.017746897, -0.057937346, -438862.13, -88535.69, 0.0, 9.998042, 9.990408 
7.498107e+1, 2.7424222e+2, -349351.6, -402349.06, -4628.688, -0.020160766, -0.0614583, -348950.38, -96529.96, 0.0, 9.997459, 9.990447 
7.497604e+1, 2.842322e+2, -266984.72, -322235.44, -4079.2751, -0.02147863, -0.06012377, -266685.16, -112166.48, 0.0, 9.996828, 9.989521 
7.497108e+1, 2.9422182e+2, -178825.03, -228466.67, -4189.2876, -0.021359982, -0.05365505, -178473.97, -121853.516, 0.0, 9.996126, 9.98956 
7.496629e+1, 3.0421486e+2, -91046.234, -82553.13, -2620.238, -0.022821762, -0.05162656, -81809.81, -81809.81, 0.0, 9.995416, 9.996539 
7.496167e+1, 3.1421146e+2, -100971.77, -86219.375, -2300.307, -0.02627525, -0.057152774, -85869.01, -85869.01, 0.0, 9.994687, 9.996638 
8.506358e+1, 1.2435502e+2, -1628817.0, -1722815.9, 1207.6653, 0.0077393516, -0.07631305, -1628801.5, 92512.87, 0.0, 10.008021, 9.995559 
8.505844e+1, 1.3435028e+2, -1547390.9, -1640677.5, 12.416975, 0.0006035402, -0.04049959, -1547390.9, 75970.13, 0.0, 10.007233, 9.994867 
8.505311e+1, 1.4434455e+2, -1463405.6, -1553864.1, -1011.49744, -0.010625132, -0.0769728, -1463394.3, 62022.81, 0.0, 10.006469, 9.994479 
8.504781e+1, 1.5433916e+2, -1375715.0, -1460387.1, -912.6604, -0.007747276, -0.06938189, -1375705.1, 51764.734, 0.0, 10.005746, 9.994524 
8.504236e+1, 1.6433337e+2, -1292955.1, -1377770.9, -1748.3142, -0.008632717, -0.06410427, -1292919.1, 36607.582, 0.0, 10.005053, 9.9938135 
8.503676e+1, 1.7432724e+2, -1204258.8, -1283996.6, -1640.773, -0.014202537, -0.06166853, -1204225.0, 27361.814, 0.0, 10.004405, 9.99384 
8.503111e+1, 1.8432073e+2, -1121144.4, -1200826.8, -2191.7427, -0.016573388, -0.060864814, -1121084.3, 12566.476, 0.0, 10.003718, 9.993162 
8.5025436e+1, 1.943139e+2, -1033688.44, -1107639.0, -2217.2783, -0.014854633, -0.063650295, -1033622.06, 2095.617, 0.0, 10.002984, 9.993188 
8.5019666e+1, 2.0430669e+2, -951986.5, -1026429.3, -2897.5603, -0.013979884, -0.06380481, -951873.9, -14085.387, 0.0, 10.0022545, 9.992395 
8.5013795e+1, 2.1429911e+2, -864391.3, -933250.1, -2791.6777, -0.01419388, -0.061278064, -864278.3, -24415.646, 0.0, 10.001532, 9.992413 
8.500788e+1, 2.242912e+2, -781191.5, -849931.44, -2945.424, -0.015573705, -0.059505474, -781065.56, -39125.207, 0.0, 10.000842, 9.991741 
8.500193e+1, 2.3428297e+2, -692374.5, -756030.25, -3096.3718, -0.018484583, -0.059955735, -692224.25, -48203.188, 0.0, 10.000196, 9.991769 
8.4995997e+1, 2.4427441e+2, -608911.4, -672436.2, -3133.0479, -0.0197855, -0.0586197, -608757.25, -62652.184, 0.0, 9.9995165, 9.991108 
8.499007e+1, 2.5426558e+2, -521199.94, -578990.1, -3063.7405, -0.018953972, -0.055897128, -521037.97, -72846.28, 0.0, 9.998791, 9.991142 
8.4984213e+1, 2.6425636e+2, -439241.5, -496923.1, -2425.44, -0.01979971, -0.055123027, -439139.7, -88857.42, 0.0, 9.998041, 9.990408 
8.49784e+1, 2.7424675e+2, -352324.3, -403790.6, -2483.5754, -0.02287182, -0.058284014, -352204.75, -99828.51, 0.0, 9.997256, 9.990446 
8.497269e+1, 2.8423676e+2, -270992.47, -323929.78, -1763.5723, -0.024143454, -0.056785483, -270933.78, -116459.39, 0.0, 9.996544, 9.989541 
8.4967077e+1, 2.942264e+2, -181656.58, -229584.22, -1597.2261, -0.023040103, -0.050406117, -181603.4, -125027.43, 0.0, 9.995921, 9.989582 
8.496162e+1, 3.0421948e+2, -92311.81, -82539.32, 0.9193913, -0.0245702, -0.04862311, -82539.32, -82539.32, 0.0, 9.995302, 9.996594 
8.495631e+1, 3.142161e+2, -100693.22, -85443.57, 68.281006, -0.029490251, -0.054631356, -85443.266, -85443.266, 0.0, 9.9946785, 9.9966955 
9.507157e+1, 1.2436021e+2, -1629051.6, -1723279.9, -1581.2428, 0.005086141, -0.06830816, -1629025.1, 92238.805, 0.0, 10.00802, 9.995527 
9.5065665e+1, 1.3435535e+2, -1547577.8, -1641041.3, -2928.339, 0.00027764894, -0.041931413, -1547486.0, 75825.56, 0.0, 10.007232, 9.994843 
9.505958e+1, 1.4434962e+2, -1463352.4, -1553739.3, -3733.003, -0.010942966, -0.07845204, -1463198.4, 62169.355, 0.0, 10.006468, 9.994488 
9.5053554e+1, 1.5434435e+2, -1375646.9, -1460240.8, -3607.349, -0.008934399, -0.06028374, -1375493.4, 51926.125, 0.0, 10.005745, 9.994534 
9.50474e+1, 1.6433856e+2, -1292828.1, -1377505.8, -4190.0444, -0.010054421, -0.054779712, -1292621.4, 36854.797, 0.0, 10.005053, 9.993832 
9.5041156e+1, 1.7433232e+2, -1204142.0, -1283747.6, -4055.7622, -0.0150120845, -0.06549729, -1203935.9, 27601.314, 0.0, 10.004405, 9.993856 
9.503482e+1, 1.843258e+2, -1121237.5, -1201008.9, -4923.5728, -0.017041303, -0.0665962, -1120934.8, 12666.5, 0.0, 10.003717, 9.99315 
9.502842e+1, 1.9431907e+2, -1033799.94, -1107863.3, -4966.675, -0.015344663, -0.05665654, -1033468.4, 2198.9177, 0.0, 10.002984, 9.993173 
9.5021904e+1, 2.043119e+2, -951775.1, -1025990.8, -5613.183, -0.015680354, -0.052682795, -951353.0, -13615.269, 0.0, 10.002254, 9.992425 
9.5015275e+1, 2.1430431e+2, -864162.56, -932777.2, -5503.6084, -0.018643523, -0.05728711, -863723.94, -23911.75, 0.0, 10.001532, 9.992445 
9.500868e+1, 2.2429638e+2, -781414.8, -850389.56, -5391.512, -0.020362642, -0.058245957, -780995.94, -39105.844, 0.0, 10.000842, 9.99171 
9.50021e+1, 2.3428813e+2, -692640.9, -756574.06, -5524.418, -0.020455226, -0.055603445, -692167.0, -48196.098, 0.0, 10.000196, 9.991732 
9.4995505e+1, 2.4427958e+2, -608745.4, -672084.3, -5843.731, -0.020513024, -0.053622402, -608210.75, -62155.766, 0.0, 9.9995165, 9.991132 
9.4988847e+1, 2.5427073e+2, -521008.3, -578583.9, -5801.123, -0.020527415, -0.05352807, -520429.63, -72288.055, 0.0, 9.99879, 9.991169 
9.498223e+1, 2.6426154e+2, -439284.88, -497000.9, -5364.5776, -0.021964004, -0.052247647, -438790.5, -88558.53, 0.0, 9.99804, 9.990403 
9.497563e+1, 2.74252e+2, -352399.75, -403924.34, -5446.488, -0.025265116, -0.0507177, -351830.3, -99504.766, 0.0, 9.997255, 9.9904375 
9.4969213e+1, 2.8424197e+2, -270617.0, -323122.9, -4145.244, -0.02648085, -0.050641913, -270291.75, -115868.125, 0.0, 9.996542, 9.989597 
9.4962984e+1, 2.942316e+2, -181252.78, -228720.05, -3941.8423, -0.024965895, -0.053871106, -180927.67, -124402.21, 0.0, 9.99592, 9.989641 
9.495691e+1, 3.042247e+2, -92116.36, -82111.766, -2329.743, -0.026879154, -0.052628294, -81595.85, -81595.85, 0.0, 9.995301, 9.996624 
9.4950956e+1, 3.1422147e+2, -100517.53, -85066.63, -2276.3887, -0.033225078, -0.046930674, -84738.234, -84738.234, 0.0, 9.994678, 9.996721 
1.0507968e+2, 1.2436614e+2, -1626552.6, -1722658.1, 1202.8708, 0.004395537, -0.06397955, -1626537.5, 94668.555, 0.0, 10.008216, 9.995474 
1.0507297e+2, 1.3436121e+2, -1545952.4, -1640768.6, -452.1124, 0.00019040832, -0.0404873, -1545950.3, 77304.26, 0.0, 10.007364, 9.994796 
1.0506608e+2, 1.4435545e+2, -1461748.8, -1552952.9, -989.61523, -0.012069174, -0.07644706, -1461738.0, 63572.863, 0.0, 10.006577, 9.994487 
1.0505934e+2, 1.5435022e+2, -1373666.1, -1459249.4, -881.20074, -0.011229496, -0.05460611, -1373657.0, 53705.254, 0.0, 10.005878, 9.994535 
1.0505249e+2, 1.6434444e+2, -1291055.8, -1376477.1, -1433.3499, -0.012226067, -0.048650313, -1291031.6, 38387.11, 0.0, 10.005166, 9.993845 
1.0504557e+2, 1.7433818e+2, -1203527.0, -1283286.0, -1301.7102, -0.015369496, -0.063091226, -1203505.8, 27974.393, 0.0, 10.004439, 9.99387 
1.0503854e+2, 1.8433166e+2, -1121468.8, -1201346.6, -2361.7126, -0.017245194, -0.0650763, -1121399.0, 12145.151, 0.0, 10.003712, 9.993129 
1.0503138e+2, 1.9432494e+2, -1033940.2, -1108194.3, -2468.633, -0.017550308, -0.052320823, -1033858.25, 1752.0579, 0.0, 10.002985, 9.993148 
1.05024144e+2, 2.0431776e+2, -951177.56, -1025555.5, -3067.1477, -0.018808864, -0.047359884, -951051.3, -13370.594, 0.0, 10.002288, 9.992436 
1.0501683e+2, 2.1431017e+2, -862602.06, -931855.9, -3072.7954, -0.02129298, -0.0533922, -862466.0, -22710.873, 0.0, 10.001631, 9.992458 
1.05009526e+2, 2.2430223e+2, -780368.0, -849706.9, -3005.144, -0.022428447, -0.05496971, -780238.0, -38405.04, 0.0, 10.000906, 9.991724 
1.0500223e+2, 2.3429403e+2, -694049.1, -757092.94, -2757.8892, -0.021794999, -0.051870976, -693928.75, -50015.117, 0.0, 10.0000925, 9.991745 
1.04994915e+2, 2.4428546e+2, -611209.25, -673188.1, -2800.5994, -0.021895584, -0.049641915, -611083.0, -65085.438, 0.0, 9.999344, 9.991139 
1.04987554e+2, 2.5427663e+2, -522589.22, -579277.3, -2913.0923, -0.022974063, -0.04959267, -522439.94, -74355.82, 0.0, 9.998678, 9.991175 
1.0498022e+2, 2.6426744e+2, -439747.44, -497015.25, -2642.126, -0.024680395, -0.047999736, -439625.78, -89451.43, 0.0, 9.997999, 9.99042 
1.04972884e+2, 2.7425793e+2, -351649.25, -403354.75, -2540.1025, -0.027188582, -0.0456659, -351524.78, -99257.05, 0.0, 9.997297, 9.990455 
1.04965754e+2, 2.8424796e+2, -269890.4, -322361.66, -994.66144, -0.028256912, -0.04606651, -269871.56, -115506.01, 0.0, 9.996573, 9.989633 
1.04958825e+2, 2.9423758e+2, -182487.8, -228903.97, -959.98, -0.027470708, -0.051502727, -182467.95, -126000.734, 0.0, 9.995817, 9.989677 
1.0495208e+2, 3.042307e+2, -95041.48, -83455.15, 620.9593, -0.029585734, -0.050278295, -83421.97, -83421.97, 0.0, 9.995097, 9.996629 
1.0494548e+2, 3.1422752e+2, -104276.77, -86855.21, 485.8572, -0.035408046, -0.041625377, -86841.67, -86841.67, 0.0, 9.994418, 9.996722 
1.1508791e+2, 1.243728e+2, -1627125.8, -1723777.1, -1821.0457, 0.00560063, -0.06322023, -1627091.5, 94049.72, 0.0, 10.008213, 9.9953985 
1.1508033e+2, 1.3436782e+2, -1546449.6, -1641773.4, -3621.7441, 0.0003311469, -0.036235884, -1546312.3, 76877.83, 0.0, 10.007363, 9.994728 
1.15072645e+2, 1.4436205e+2, -1461804.9, -1553067.8, -3626.422, -0.013987482, -0.07105242, -1461661.0, 63585.67, 0.0, 10.006577, 9.994479 
1.1506519e+2, 1.5435678e+2, -1373712.6, -1459332.0, -3472.2803, -0.014613129, -0.05228253, -1373572.1, 53726.336, 0.0, 10.0058775, 9.99453 
1.15057625e+2, 1.6435102e+2, -1290983.8, -1376311.4, -4139.7607, -0.015134255, -0.045642044, -1290783.4, 38571.39, 0.0, 10.005165, 9.993856 
1.1505001e+2, 1.7434482e+2, -1203452.8, -1283117.6, -4010.5322, -0.0152823385, -0.054543387, -1203251.4, 28164.176, 0.0, 10.004438, 9.993881 
1.1504225e+2, 1.8433829e+2, -1121673.6, -1201758.6, -5079.0205, -0.017193945, -0.0564308, -1121352.9, 12126.853, 0.0, 10.003711, 9.9931 
1.1503433e+2, 1.9433147e+2, -1034168.4, -1108661.0, -5180.9697, -0.021457044, -0.05062993, -1033809.75, 1736.9796, 0.0, 10.002985, 9.993116 
1.1502639e+2, 2.0432425e+2, -951206.94, -1025612.7, -5544.549, -0.023350867, -0.047777817, -950796.0, -13178.498, 0.0, 10.002288, 9.992433 
1.1501846e+2, 2.143167e+2, -862627.44, -931899.6, -5532.234, -0.022154002, -0.04958227, -862188.4, -22496.775, 0.0, 10.001631, 9.992455 
1.1501044e+2, 2.243088e+2, -779931.7, -848795.56, -6019.0674, -0.021789558, -0.049690604, -779409.56, -37640.527, 0.0, 10.000905, 9.991786 
1.1500232e+2, 2.3430063e+2, -693587.5, -756128.5, -5816.4536, -0.022508126, -0.04876583, -693051.1, -49201.938, 0.0, 10.000092, 9.991811 
1.1499425e+2, 2.442921e+2, -611278.5, -673317.1, -5337.4253, -0.023935871, -0.046680983, -610822.6, -64889.78, 0.0, 9.999343, 9.99113 
1.14986196e+2, 2.542833e+2, -522708.34, -579506.94, -5414.6924, -0.026302153, -0.04408013, -522196.78, -74177.41, 0.0, 9.998678, 9.9911585 
1.1497819e+2, 2.6427412e+2, -439457.53, -496398.4, -5269.7427, -0.027956693, -0.042376745, -438973.94, -88864.42, 0.0, 9.997998, 9.990462 
1.1497017e+2, 2.7426457e+2, -351333.94, -402689.44, -5183.5117, -0.028642392, -0.043167908, -350816.0, -98613.27, 0.0, 9.997296, 9.9905 
1.1496232e+2, 2.8425467e+2, -269778.16, -322115.66, -3822.248, -0.029474199, -0.043077882, -269500.47, -115200.31, 0.0, 9.996573, 9.989649 
1.1495461e+2, 2.9424435e+2, -182408.97, -228715.22, -3812.5945, -0.03056912, -0.043199662, -182097.17, -125695.945, 0.0, 9.995816, 9.98969 
1.1494714e+2, 3.0423748e+2, -95197.12, -83741.73, -1939.41, -0.03269699, -0.041473527, -83422.29, -83422.29, 0.0, 9.995095, 9.99661 
1.149399e+2, 3.142342e+2, -104467.58, -87206.49, -2064.612, -0.036011476, -0.038788125, -86962.98, -86962.98, 0.0, 9.994416, 9.996699 
1.2509613e+2, 1.24380216e+2, -1626472.8, -1724157.9, 956.3248, 0.0029101945, -0.061621986, -1626463.4, 94605.39, 0.0, 10.008286, 9.995336 
1.250878e+2, 1.3437524e+2, -1543616.5, -1640996.1, -866.9637, -0.0009700391, -0.029259542, -1543608.8, 79509.016, 0.0, 10.007582, 9.994673 
1.2507933e+2, 1.4436945e+2, -1458258.8, -1551518.0, -779.532, -0.014862579, -0.06328854, -1458252.3, 66922.46, 0.0, 10.0068245, 9.994462 
1.2507112e+2, 1.543641e+2, -1371879.3, -1458613.1, -681.61774, -0.014442232, -0.050858237, -1371874.0, 55353.188, 0.0, 10.006009, 9.994513 
1.2506281e+2, 1.643583e+2, -1290465.1, -1376394.0, -1498.0256, -0.015322109, -0.045101523, -1290439.0, 38844.8, 0.0, 10.005215, 9.993826 
1.2505443e+2, 1.7435212e+2, -1203518.6, -1283513.3, -1680.3091, -0.017588904, -0.04787388, -1203483.4, 27861.018, 0.0, 10.004449, 9.993848 
1.2504594e+2, 1.843456e+2, -1121354.0, -1201374.8, -2597.966, -0.02021952, -0.048384707, -1121269.8, 12138.752, 0.0, 10.003722, 9.993119 
1.2503733e+2, 1.9433874e+2, -1033085.1, -1107882.5, -2276.2292, -0.023427373, -0.047356963, -1033015.9, 2459.814, 0.0, 10.003048, 9.993137 
1.2502868e+2, 2.0433155e+2, -950541.75, -1025049.4, -2417.6973, -0.024601083, -0.046025734, -950463.44, -12916.989, 0.0, 10.002323, 9.992453 
1.2502003e+2, 2.1432404e+2, -863892.1, -932287.3, -2231.7737, -0.02310547, -0.045096427, -863819.4, -24199.318, 0.0, 10.0015335, 9.992474 
1.2501128e+2, 2.2431618e+2, -781280.6, -849211.44, -2807.3284, -0.023053942, -0.04417922, -781164.8, -39467.566, 0.0, 10.000802, 9.991805 
1.2500241e+2, 2.34308e+2, -692644.2, -755445.5, -2948.6377, -0.024886966, -0.044478174, -692506.06, -48728.68, 0.0, 10.000146, 9.991829 
1.249936e+2, 2.442995e+2, -610012.4, -672434.75, -2570.3142, -0.026759245, -0.04272847, -609906.7, -64045.875, 0.0, 9.999417, 9.991153 
1.2498481e+2, 2.542907e+2, -523787.13, -579771.2, -2362.6035, -0.028692245, -0.03927488, -523687.6, -75740.56, 0.0, 9.998592, 9.99118 
1.2497608e+2, 2.6428154e+2, -441744.3, -497236.22, -1938.9282, -0.02990251, -0.037605792, -441676.66, -91639.695, 0.0, 9.99783, 9.990485 
1.24967374e+2, 2.7427205e+2, -353361.9, -403415.22, -2017.94, -0.030131144, -0.039607085, -353280.7, -101150.63, 0.0, 9.997147, 9.990521 
1.2495881e+2, 2.8426212e+2, -271452.2, -322995.56, -938.8756, -0.030882094, -0.039110888, -271435.1, -117207.67, 0.0, 9.996461, 9.989642 
1.2495039e+2, 2.9425183e+2, -183167.6, -229194.48, -1128.0725, -0.032403525, -0.036668584, -183139.95, -126811.6, 0.0, 9.995769, 9.989679 
1.2494217e+2, 3.04245e+2, -96028.97, -83621.57, 772.28516, -0.03516266, -0.03469862, -83573.69, -83573.69, 0.0, 9.995015, 9.996655 
1.2493416e+2, 3.1424174e+2, -107627.914, -88176.0, 1173.1957, -0.03934943, -0.03488534, -88105.49, -88105.49, 0.0, 9.994175, 9.996748 
1.3510436e+2, 1.2438839e+2, -1626868.4, -1724913.6, -1552.4807, -0.0035374793, -0.059262298, -1626843.8, 94145.36, 0.0, 10.008285, 9.995285 
1.3509534e+2, 1.3438344e+2, -1543952.4, -1641612.3, -3482.5378, -0.0036652, -0.019639388, -1543828.3, 79209.63, 0.0, 10.007578, 9.994632 
1.3508616e+2, 1.443776e+2, -1458472.8, -1551891.5, -3790.9697, -0.014724643, -0.05323497, -1458319.1, 66776.04, 0.0, 10.006822, 9.994437 
1.3507718e+2, 1.5437213e+2, -1372081.0, -1458994.5, -3712.314, -0.010808396, -0.050320283, -1371922.8, 55225.94, 0.0, 10.006008, 9.994487 
1.3506806e+2, 1.6436628e+2, -1290978.1, -1377438.0, -4359.1577, -0.012866952, -0.04696713, -1290758.9, 38447.137, 0.0, 10.005214, 9.993754 
1.3505884e+2, 1.743601e+2, -1204059.4, -1284622.9, -4521.2954, -0.022252651, -0.043041445, -1203806.5, 27460.25, 0.0, 10.004449, 9.993772 
1.350496e+2, 1.8435358e+2, -1120874.6, -1200382.9, -5129.663, -0.026262365, -0.040921863, -1120545.1, 12785.645, 0.0, 10.003722, 9.993186 
1.3504037e+2, 1.9434679e+2, -1032551.4, -1106770.5, -4785.995, -0.02348294, -0.04252382, -1032244.06, 3153.377, 0.0, 10.003047, 9.993213 
1.3503101e+2, 2.0433962e+2, -950220.3, -1024374.6, -5340.455, -0.022606073, -0.04213269, -949837.7, -12370.086, 0.0, 10.002322, 9.992497 
1.3502155e+2, 2.1433218e+2, -863591.4, -931660.6, -5184.3105, -0.024155213, -0.03994899, -863198.8, -23658.078, 0.0, 10.0015335, 9.992516 
1.3501206e+2, 2.2432435e+2, -781426.1, -849505.94, -5296.025, -0.026216488, -0.038439207, -781016.6, -39398.95, 0.0, 10.000802, 9.991785 
1.3500252e+2, 2.3431613e+2, -692833.1, -755825.25, -5406.1885, -0.028937167, -0.03901042, -692372.56, -48674.41, 0.0, 10.000146, 9.991803 
1.3499299e+2, 2.4430765e+2, -609620.44, -671608.7, -5626.4937, -0.030372202, -0.03778646, -609113.9, -63332.348, 0.0, 9.999417, 9.991209 
1.3498339e+2, 2.542989e+2, -523367.1, -578879.06, -5467.972, -0.030136231, -0.035190873, -522833.63, -74966.445, 0.0, 9.998591, 9.991241 
1.3497391e+2, 2.6428977e+2, -441726.9, -497173.25, -4540.897, -0.030507078, -0.03369814, -441357.5, -91400.734, 0.0, 9.9978285, 9.990489 
1.3496451e+2, 2.742803e+2, -353385.34, -403435.25, -4587.7866, -0.03165972, -0.034971595, -352968.28, -100918.48, 0.0, 9.997145, 9.9905205 
1.3495526e+2, 2.8427035e+2, -271685.28, -323450.56, -3533.8967, -0.032485396, -0.034157686, -271445.13, -117297.85, 0.0, 9.99646, 9.989611 
1.3494615e+2, 2.9426e+2, -183422.78, -229702.95, -3734.1567, -0.032955654, -0.031950768, -183123.42, -126874.78, 0.0, 9.995767, 9.989644 
1.3493717e+2, 3.042532e+2, -95248.58, -81974.805, -2336.0393, -0.036983065, -0.029995563, -81575.69, -81575.69, 0.0, 9.995013, 9.996768 
1.3492827e+2, 3.1425005e+2, -106791.51, -86388.375, -1983.1616, -0.045505293, -0.029893959, -86197.4, -86197.4, 0.0, 9.994173, 9.996871 
1.451127e+2, 1.2439723e+2, -1624541.5, -1723728.4, 413.48712, -0.0066327527, -0.054525044, -1624539.8, 96363.1, 0.0, 10.008439, 9.995289 
1.451029e+2, 1.3439229e+2, -1543703.8, -1641299.4, -1208.7726, -0.005524358, -0.016666736, -1543688.8, 79262.89, 0.0, 10.007586, 9.994648 
1.4509295e+2, 1.4438646e+2, -1459035.8, -1552353.9, -1214.7051, -0.016367061, -0.049476117, -1459020.0, 65988.9, 0.0, 10.006791, 9.99442 
1.450832e+2, 1.5438098e+2, -1371221.9, -1458812.8, -1092.244, -0.011850528, -0.044208605, -1371208.3, 55854.035, 0.0, 10.006076, 9.994465 
1.4507332e+2, 1.6437513e+2, -1289078.9, -1376542.0, -1467.2806, -0.013758703, -0.040919587, -1289054.3, 40065.598, 0.0, 10.005343, 9.993751 
1.4506334e+2, 1.743689e+2, -1201961.5, -1283634.1, -1083.5723, -0.023552245, -0.04009784, -1201947.1, 29233.783, 0.0, 10.004593, 9.993768 
1.4505336e+2, 1.8436238e+2, -1119269.6, -1199397.3, -1496.4417, -0.027505558, -0.038476944, -1119241.6, 14003.2, 0.0, 10.003822, 9.993203 
1.450434e+2, 1.9435564e+2, -1032676.4, -1106622.6, -1562.933, -0.02406564, -0.03727435, -1032643.4, 2667.7646, 0.0, 10.003029, 9.99323 
1.4503331e+2, 2.043485e+2, -950647.3, -1024194.4, -2421.4502, -0.023445161, -0.036120184, -950567.7, -13186.723, 0.0, 10.002275, 9.992531 
1.450231e+2, 2.1434107e+2, -862733.7, -930859.44, -2326.43, -0.026441898, -0.035793323, -862654.3, -23200.39, 0.0, 10.0015745, 9.992549 
1.4501284e+2, 2.2433326e+2, -780822.94, -849010.9, -2264.1914, -0.028876053, -0.034705367, -780747.8, -39217.13, 0.0, 10.000834, 9.991801 
1.4500259e+2, 2.3432508e+2, -694241.7, -756332.44, -2053.985, -0.030577483, -0.033843856, -694173.8, -50562.9, 0.0, 10.000041, 9.9918165 
1.4499232e+2, 2.4431661e+2, -611167.8, -672154.7, -2323.6304, -0.031435803, -0.032312095, -611079.44, -65385.31, 0.0, 9.999302, 9.991225 
1.44982e+2, 2.5430787e+2, -522679.44, -578357.2, -2507.3538, -0.031196468, -0.030880496, -522566.75, -74787.04, 0.0, 9.99863, 9.991257 
1.4497176e+2, 2.6429877e+2, -440491.7, -496437.75, -1688.2314, -0.03176067, -0.029610472, -440440.8, -90571.61, 0.0, 9.997907, 9.9905 
1.4496163e+2, 2.7428928e+2, -353747.25, -403490.84, -1651.6422, -0.03336922, -0.029868942, -353692.47, -101730.45, 0.0, 9.997114, 9.990529 
1.4495163e+2, 2.8427938e+2, -273364.34, -323664.44, -287.05536, -0.034255147, -0.029350704, -273362.72, -119303.47, 0.0, 9.996318, 9.989662 
1.4494178e+2, 2.9426908e+2, -186734.72, -230686.58, 176.87964, -0.034266725, -0.02917411, -186734.02, -130573.734, 0.0, 9.995513, 9.989697 
1.4493202e+2, 3.0426234e+2, -98808.32, -82953.84, 1621.2535, -0.038858414, -0.0270456, -82789.75, -82789.75, 0.0, 9.994737, 9.996833 
1.4492232e+2, 3.142593e+2, -108939.195, -86697.79, 1501.6658, -0.04928926, -0.023848081, -86596.86, -86596.86, 0.0, 9.993993, 9.996934 
1.5512112e+2, 1.2440673e+2, -1624233.4, -1722944.4, -2620.2712, -0.006529143, -0.04755067, -1624163.8, 96646.42, 0.0, 10.008432, 9.995344 
1.5511048e+2, 1.3440175e+2, -1543238.9, -1640263.5, -4362.647, -0.0065855654, -0.020110816, -1543043.0, 79816.21, 0.0, 10.007582, 9.9947195 
1.550997e+2, 1.4439596e+2, -1459133.0, -1552513.6, -3885.9255, -0.01973548, -0.05176449, -1458971.6, 65944.42, 0.0, 10.006789, 9.994409 
1.5508921e+2, 1.5439062e+2, -1371367.3, -1459075.5, -3728.6892, -0.01743658, -0.03266491, -1371209.0, 55759.51, 0.0, 10.006074, 9.994447 
1.5507862e+2, 1.643848e+2, -1288646.1, -1375615.3, -4243.7217, -0.017894525, -0.027200883, -1288439.5, 40586.105, 0.0, 10.005342, 9.9938135 
1.5506797e+2, 1.7437851e+2, -1201502.5, -1282650.5, -3867.1707, -0.02155786, -0.039027374, -1201318.6, 29768.477, 0.0, 10.004591, 9.9938345 
1.550572e+2, 1.84372e+2, -1119503.1, -1199848.6, -4439.38, -0.024065716, -0.040941082, -1119258.5, 13892.544, 0.0, 10.00382, 9.993172 
1.5504642e+2, 1.9436528e+2, -1032954.3, -1107182.6, -4515.1416, -0.025182799, -0.03160245, -1032680.7, 2536.3696, 0.0, 10.003029, 9.993191 
1.5503556e+2, 2.0435818e+2, -950486.44, -1023857.06, -5054.0454, -0.027080797, -0.028024264, -950139.94, -12853.171, 0.0, 10.002275, 9.992553 
1.5502463e+2, 2.1435072e+2, -862555.1, -930482.94, -4937.925, -0.029956693, -0.032630026, -862198.06, -22838.111, 0.0, 10.0015745, 9.992574 
1.5501365e+2, 2.2434291e+2, -780432.8, -848193.44, -5207.0254, -0.031036334, -0.0329667, -780035.0, -38598.59, 0.0, 10.0008335, 9.991857 
1.5500264e+2, 2.3433483e+2, -693848.06, -755504.25, -5023.5903, -0.029803678, -0.028978027, -693441.44, -49925.63, 0.0, 10.000041, 9.991873 
1.5499164e+2, 2.4432638e+2, -611327.2, -672466.2, -4869.179, -0.029949032, -0.026312305, -610941.8, -65343.133, 0.0, 9.999301, 9.991203 
1.549806e+2, 2.543176e+2, -522889.13, -578772.8, -5027.426, -0.031885557, -0.026347967, -522440.47, -74755.695, 0.0, 9.998629, 9.991228 
1.5496965e+2, 2.6430848e+2, -440362.3, -496151.38, -4632.4644, -0.033680785, -0.02534361, -439980.28, -90205.96, 0.0, 9.997906, 9.99052 
1.5495871e+2, 2.7429906e+2, -353606.97, -403175.16, -4632.6084, -0.035268046, -0.024290739, -353177.72, -101310.914, 0.0, 9.997113, 9.990551 
1.5494794e+2, 2.842892e+2, -272411.1, -321650.13, -3305.7935, -0.036199275, -0.024702927, -272190.13, -118226.79, 0.0, 9.996317, 9.9898 
1.5493727e+2, 2.94279e+2, -185741.97, -228572.92, -2847.405, -0.03635428, -0.028406568, -185553.5, -129490.234, 0.0, 9.99551, 9.989842 
1.5492675e+2, 3.0427235e+2, -98732.625, -82737.41, -1165.2556, -0.04078582, -0.025905818, -82652.97, -82652.97, 0.0, 9.994734, 9.996848 
1.5491629e+2, 3.1426936e+2, -108939.15, -86654.23, -1276.4064, -0.0506385, -0.016711397, -86581.36, -86581.36, 0.0, 9.993991, 9.996938 
1.6512947e+2, 1.2441714e+2, -1625316.9, -1723270.6, 1483.4285, -0.010812806, -0.043584093, -1625294.4, 95414.13, 0.0, 10.008348, 9.995361 
1.6511807e+2, 1.3441218e+2, -1541818.0, -1639199.1, -632.3723, -0.008633228, -0.016822446, -1541813.9, 80943.445, 0.0, 10.007661, 9.994752 
1.6510655e+2, 1.4440642e+2, -1457119.4, -1551849.1, -264.5501, -0.021382466, -0.0477069, -1457118.6, 67695.36, 0.0, 10.006939, 9.994379 
1.6509531e+2, 1.5440105e+2, -1370100.4, -1458840.9, -216.68163, -0.019536374, -0.027736915, -1370099.9, 56766.914, 0.0, 10.006176, 9.994411 
1.6508397e+2, 1.6439521e+2, -1287777.6, -1374700.5, -1067.4669, -0.019438844, -0.021925876, -1287764.5, 41159.31, 0.0, 10.005379, 9.993855 
1.6507253e+2, 1.7438899e+2, -1201877.8, -1282301.0, -843.31714, -0.021226041, -0.03412312, -1201868.9, 29115.95, 0.0, 10.004541, 9.99388 
1.6506101e+2, 1.8438247e+2, -1120598.4, -1200645.3, -1326.9354, -0.023940763, -0.036532413, -1120576.4, 12472.426, 0.0, 10.0037565, 9.993147 
1.6504942e+2, 1.9437572e+2, -1032967.4, -1107521.6, -1325.4487, -0.027939662, -0.027791895, -1032943.8, 2171.2751, 0.0, 10.003041, 9.993159 
1.6503781e+2, 2.043686e+2, -949705.44, -1023179.06, -1697.5443, -0.030619623, -0.024272434, -949666.2, -12481.308, 0.0, 10.0023155, 9.992578 
1.6502619e+2, 2.1436118e+2, -862309.75, -930039.4, -1543.0181, -0.03158656, -0.028283253, -862274.56, -23016.832, 0.0, 10.001576, 9.9926 
1.6501448e+2, 2.243534e+2, -780327.9, -847737.3, -2090.5962, -0.03177561, -0.028620169, -780263.1, -38929.188, 0.0, 10.000822, 9.991891 
1.6500269e+2, 2.3434535e+2, -693471.56, -754926.5, -2080.8276, -0.030960111, -0.02536928, -693401.2, -49988.18, 0.0, 10.000049, 9.991906 
1.649909e+2, 2.4433695e+2, -611605.75, -672407.75, -1668.0582, -0.031640906, -0.02271174, -611560.0, -66064.36, 0.0, 9.999272, 9.9912195 
1.6497916e+2, 2.543282e+2, -524759.44, -579515.4, -1489.1035, -0.03427489, -0.02182881, -524719.0, -77137.46, 0.0, 9.998493, 9.9912405 
1.6496745e+2, 2.643191e+2, -442567.7, -496674.75, -966.9528, -0.035861235, -0.020772662, -442550.4, -92879.62, 0.0, 9.99773, 9.990566 
1.6495575e+2, 2.743097e+2, -355089.2, -403338.72, -775.8869, -0.03605834, -0.020776143, -355076.72, -103313.79, 0.0, 9.996987, 9.990598 
1.649442e+2, 2.842999e+2, -273405.72, -321682.84, 224.56609, -0.03687412, -0.021015862, -273404.7, -119545.67, 0.0, 9.996228, 9.989839 
1.6493273e+2, 2.9428977e+2, -186414.36, -228475.28, -152.85999, -0.038575817, -0.02295273, -186413.81, -130455.38, 0.0, 9.995445, 9.989879 
1.6492139e+2, 3.042831e+2, -99973.51, -82910.94, 1144.9857, -0.043710425, -0.020569555, -82834.445, -82834.445, 0.0, 9.99463, 9.996885 
1.6491014e+2, 3.1428015e+2, -111946.87, -87701.35, 1261.4955, -0.053134, -0.01395453, -87635.89, -87635.89, 0.0, 9.993767, 9.996972 
1.7513774e+2, 1.24428436e+2, -1625526.4, -1723582.8, -973.7425, -0.019268826, -0.04247217, -1625516.8, 95081.516, 0.0, 10.008344, 9.995341 
1.751257e+2, 1.3442357e+2, -1541923.9, -1639298.5, -3162.272, -0.01161751, -0.0070689227, -1541821.3, 80825.05, 0.0, 10.007656, 9.994746 
1.751135e+2, 1.444178e+2, -1457515.5, -1552559.5, -3065.6023, -0.021377694, -0.037591234, -1457416.8, 67286.44, 0.0, 10.006934, 9.994332 
1.7510152e+2, 1.5441222e+2, -1370511.1, -1459611.1, -3027.5515, -0.01827414, -0.029226784, -1370408.4, 56349.176, 0.0, 10.006173, 9.99436 
1.7508936e+2, 1.6440639e+2, -1287628.8, -1374350.3, -4152.992, -0.018485501, -0.024793696, -1287430.4, 41384.527, 0.0, 10.005377, 9.993879 
1.7507705e+2, 1.7440028e+2, -1201688.9, -1281900.4, -3949.456, -0.022521079, -0.02545668, -1201494.9, 29379.643, 0.0, 10.00454, 9.993907 
1.7506473e+2, 1.843938e+2, -1120720.8, -1200897.4, -4009.2942, -0.027048836, -0.02543627, -1120520.8, 12417.399, 0.0, 10.0037565, 9.993129 
1.7505243e+2, 1.9438693e+2, -1033128.75, -1107843.4, -3978.647, -0.03230399, -0.025836552, -1032917.44, 2088.0798, 0.0, 10.00304, 9.993137 
1.750401e+2, 2.0437981e+2, -949502.3, -1022742.94, -4439.094, -0.034061447, -0.024789922, -949234.25, -12158.72, 0.0, 10.002315, 9.992607 
1.7502776e+2, 2.1437247e+2, -862093.7, -929575.5, -4292.6377, -0.03135057, -0.022753077, -861821.7, -22674.176, 0.0, 10.001575, 9.992632 
1.750153e+2, 2.2436474e+2, -780223.56, -847505.3, -4971.1235, -0.031120509, -0.02169567, -779858.25, -38634.9, 0.0, 10.000822, 9.991906 
1.750027e+2, 2.3435666e+2, -693386.06, -754732.6, -4972.88, -0.03406107, -0.02303248, -692985.56, -49682.9, 0.0, 10.000048, 9.991919 
1.7499015e+2, 2.4434826e+2, -611226.4, -671599.56, -4583.9106, -0.036523033, -0.021514345, -610880.3, -65495.203, 0.0, 9.999271, 9.991274 
1.749776e+2, 2.543396e+2, -524374.9, -578686.94, -4411.779, -0.03837421, -0.017322442, -524018.84, -76548.73, 0.0, 9.998492, 9.991297 
1.7496514e+2, 2.6433057e+2, -442047.44, -495559.66, -3759.6887, -0.038299643, -0.015909433, -441784.56, -92225.86, 0.0, 9.997729, 9.990643 
1.7495275e+2, 2.743212e+2, -354570.28, -402226.84, -3562.0088, -0.03572138, -0.01938579, -354305.53, -102655.086, 0.0, 9.996985, 9.990674 
1.7494044e+2, 2.8431144e+2, -273860.22, -322590.75, -2696.2324, -0.036266737, -0.018306876, -273711.5, -119965.18, 0.0, 9.996226, 9.989777 
1.7492814e+2, 2.943013e+2, -186949.98, -229556.45, -3092.9695, -0.0409505, -0.0126659665, -186726.63, -130880.84, 0.0, 9.995443, 9.989804 
1.7491598e+2, 3.0429465e+2, -99572.53, -82042.66, -2070.8704, -0.04767325, -0.010925594, -81801.336, -81801.336, 0.0, 9.994628, 9.996944 
1.7490388e+2, 3.1429163e+2, -111501.44, -86720.555, -1980.1019, -0.056825045, -0.015775297, -86563.336, -86563.336, 0.0, 9.993764, 9.99704 
1.851461e+2, 1.2444059e+2, -1624164.5, -1723313.5, 2228.3699, -0.024124771, -0.036947776, -1624114.5, 96365.15, 0.0, 10.008451, 9.995305 
1.8513335e+2, 1.3443568e+2, -1541833.8, -1639469.5, -135.06236, -0.01392659, -0.0026239601, -1541833.6, 80694.32, 0.0, 10.007669, 9.994726 
1.8512039e+2, 1.444299e+2, -1457773.0, -1552482.0, 73.74159, -0.02266101, -0.033381753, -1457773.0, 66811.83, 0.0, 10.0069065, 9.994349 
1.8510768e+2, 1.5442434e+2, -1370420.8, -1459360.8, 618.557, -0.019225862, -0.026212305, -1370416.5, 56222.668, 0.0, 10.006168, 9.994376 
1.8509474e+2, 1.6441849e+2, -1287209.6, -1374757.8, -640.71564, -0.02003568, -0.021656306, -1287204.9, 41491.754, 0.0, 10.005431, 9.993823 
1.8508163e+2, 1.7441235e+2, -1199840.1, -1281682.0, -1086.7542, -0.025809256, -0.020486984, -1199825.8, 30931.025, 0.0, 10.004695, 9.993845 
1.8506853e+2, 1.8440583e+2, -1118212.1, -1199484.9, -1322.1593, -0.030091567, -0.020358883, -1118190.6, 14630.042, 0.0, 10.003919, 9.993144 
1.8505548e+2, 1.9439897e+2, -1032222.6, -1107171.6, -969.60986, -0.032620013, -0.022879183, -1032210.1, 2677.8684, 0.0, 10.003092, 9.9931555 
1.850424e+2, 2.0439187e+2, -950101.5, -1022891.9, -1352.1311, -0.03376116, -0.022230169, -950076.4, -13118.589, 0.0, 10.002267, 9.992618 
1.8502925e+2, 2.1438454e+2, -863926.06, -930345.44, -1361.5315, -0.033083044, -0.018365098, -863898.1, -24868.568, 0.0, 10.001445, 9.9926405 
1.8501602e+2, 2.2437683e+2, -782092.3, -848020.94, -1903.1697, -0.033911306, -0.017027041, -782037.44, -40932.29, 0.0, 10.000676, 9.991939 
1.8500268e+2, 2.3436876e+2, -694177.44, -754724.3, -1729.8854, -0.036696702, -0.020084195, -694128.06, -50943.723, 0.0, 9.999976, 9.991952 
1.8498936e+2, 2.4436042e+2, -611462.5, -670956.56, -1435.9099, -0.03868693, -0.019293556, -611427.9, -66161.57, 0.0, 9.999222, 9.99134 
1.8497603e+2, 2.5435182e+2, -525242.6, -578341.5, -1193.3231, -0.03964984, -0.014540134, -525215.9, -77865.23, 0.0, 9.998399, 9.991364 
1.8496281e+2, 2.6434284e+2, -443532.16, -495949.3, -447.35706, -0.039469462, -0.012355357, -443528.34, -94089.664, 0.0, 9.997612, 9.990669 
1.8494967e+2, 2.7433354e+2, -356028.44, -402650.2, -628.89606, -0.037787903, -0.014813561, -356019.94, -104489.836, 0.0, 9.996873, 9.990697 
1.8493657e+2, 2.8432375e+2, -275483.78, -323071.66, 144.72931, -0.038319748, -0.013622619, -275483.34, -121857.586, 0.0, 9.996101, 9.989802 
1.849235e+2, 2.9431367e+2, -189056.05, -230289.64, 475.55203, -0.04182848, -0.009013159, -189050.56, -133325.5, 0.0, 9.995286, 9.989828 
1.849105e+2, 3.0430704e+2, -101909.94, -82722.78, 1579.8368, -0.04854277, -0.007757848, -82593.57, -82593.57, 0.0, 9.994447, 9.996983 
1.8489753e+2, 3.1430405e+2, -113996.38, -87487.55, 1419.3739, -0.0591676, -0.012437112, -87411.766, -87411.766, 0.0, 9.993572, 9.997077 
1.9515452e+2, 1.2445356e+2, -1624688.3, -1724142.3, -595.6876, -0.025599437, -0.027347375, -1624684.6, 95668.31, 0.0, 10.008441, 9.995254 
1.95141e+2, 1.3444851e+2, -1542163.3, -1640009.0, -3014.4238, -0.015601476, -0.00325389, -1542070.5, 80332.05, 0.0, 10.007664, 9.994692 
1.9512728e+2, 1.4444274e+2, -1457250.3, -1551332.0, -2653.2168, -0.025177225, -0.034779686, -1457175.5, 67283.77, 0.0, 10.006903, 9.994428 
1.9511381e+2, 1.5443736e+2, -1369852.3, -1458132.6, -2109.152, -0.022306897, -0.01884308, -1369801.9, 56710.086, 0.0, 10.006166, 9.99446 
1.9510013e+2, 1.644315e+2, -1288184.3, -1376711.1, -3368.079, -0.024001675, -0.012762294, -1288056.4, 40513.184, 0.0, 10.005428, 9.9936905 
1.9508629e+2, 1.7442514e+2, -1200922.8, -1283852.3, -3801.3928, -0.031035494, -0.01912751, -1200748.8, 29883.0, 0.0, 10.004693, 9.993697 
1.9507241e+2, 1.8441854e+2, -1117879.6, -1198746.9, -4364.549, -0.033067714, -0.021113377, -1117644.8, 15051.687, 0.0, 10.003916, 9.993195 
1.9505861e+2, 1.9441178e+2, -1031800.94, -1106269.9, -4036.699, -0.02896525, -0.018920042, -1031582.75, 3179.8533, 0.0, 10.00309, 9.9932165 
1.950447e+2, 2.0440473e+2, -950147.06, -1022968.25, -4407.5923, -0.029801168, -0.01666223, -949881.25, -13049.246, 0.0, 10.002266, 9.992612 
1.9503066e+2, 2.1439737e+2, -864009.1, -930505.9, -4418.089, -0.036781374, -0.015123101, -863716.9, -24812.775, 0.0, 10.001444, 9.992629 
1.9501664e+2, 2.2438967e+2, -781721.4, -847241.8, -4533.7715, -0.040113106, -0.014592937, -781409.1, -40429.563, 0.0, 10.000676, 9.991991 
1.9500265e+2, 2.3438166e+2, -693790.25, -753906.5, -4336.3823, -0.038856965, -0.016519396, -693479.06, -50420.984, 0.0, 9.999975, 9.992007 
1.949886e+2, 2.4437338e+2, -610916.8, -669803.2, -4485.232, -0.0381287, -0.016062928, -610577.2, -65437.7, 0.0, 9.999221, 9.991418 
1.9497444e+2, 2.5436485e+2, -524704.0, -577192.75, -4277.954, -0.03808274, -0.013515265, -524357.6, -77134.44, 0.0, 9.998397, 9.991441 
1.9496042e+2, 2.6435593e+2, -443692.44, -496244.25, -3235.874, -0.039371237, -0.010121087, -443493.94, -94183.125, 0.0, 9.997611, 9.990649 
1.9494648e+2, 2.7434662e+2, -356248.13, -403066.63, -3402.5837, -0.04232571, -0.0069800965, -356002.16, -104600.086, 0.0, 9.996871, 9.990668 
1.9493264e+2, 2.8433692e+2, -274680.34, -321362.63, -2892.5745, -0.043096833, -0.006947552, -274501.78, -121004.38, 0.0, 9.9960985, 9.989919 
1.949188e+2, 2.943268e+2, -188195.03, -228456.92, -2578.1946, -0.04115418, -0.0122424, -188030.61, -132434.23, 0.0, 9.995284, 9.989953 
1.9490498e+2, 3.0432025e+2, -101813.43, -82470.875, -1668.8889, -0.0462228, -0.011274177, -82327.945, -82327.945, 0.0, 9.994444, 9.997 
1.9489108e+2, 3.143174e+2, -113971.02, -87383.43, -1846.9546, -0.060138594, -0.0036881606, -87255.74, -87255.74, 0.0, 9.993569, 9.997085 
2.0516287e+2, 1.2446723e+2, -1626587.6, -1724803.4, 2277.6714, -0.026808973, -0.022071915, -1626534.9, 93684.51, 0.0, 10.008299, 9.9952755 
2.0514865e+2, 1.3446218e+2, -1541156.0, -1639031.6, 377.05655, -0.018284783, -0.0029655672, -1541154.5, 81114.445, 0.0, 10.0077095, 9.994734 
2.0513421e+2, 1.444564e+2, -1455439.9, -1550855.4, 391.80408, -0.028783558, -0.033987425, -1455438.3, 68887.3, 0.0, 10.007043, 9.99439 
2.0512001e+2, 1.5445104e+2, -1368454.5, -1457931.3, 0.5648112, -0.025296265, -0.013003553, -1368454.5, 57923.695, 0.0, 10.006281, 9.994416 
2.0510556e+2, 1.6444516e+2, -1287353.0, -1376210.9, -1416.3158, -0.026127575, -0.0060812966, -1287330.4, 41105.566, 0.0, 10.00548, 9.993697 
2.0509093e+2, 1.7443876e+2, -1201718.6, -1284134.6, -710.39484, -0.031973194, -0.016837593, -1201712.5, 28786.01, 0.0, 10.004632, 9.993705 
2.0507628e+2, 1.8443218e+2, -1119313.4, -1199256.6, -849.1812, -0.03384793, -0.020035654, -1119304.4, 13258.726, 0.0, 10.003809, 9.993209 
2.0506164e+2, 1.9442546e+2, -1032758.06, -1106563.0, -863.8397, -0.030855216, -0.015069438, -1032747.94, 1881.0305, 0.0, 10.003016, 9.99323 
2.0504692e+2, 2.044184e+2, -950393.8, -1022910.0, -1265.8333, -0.032324746, -0.012477934, -950371.7, -13673.545, 0.0, 10.00224, 9.992625 
2.0503211e+2, 2.1441104e+2, -863291.3, -929998.6, -1081.7958, -0.03937919, -0.013672911, -863273.75, -24503.379, 0.0, 10.001485, 9.9926405 
2.0501728e+2, 2.2440338e+2, -781393.3, -846526.9, -1124.084, -0.042505916, -0.013517154, -781373.9, -40528.305, 0.0, 10.000673, 9.992039 
2.050025e+2, 2.3439544e+2, -696144.4, -754481.56, -965.0895, -0.040668566, -0.012845777, -696128.44, -53205.023, 0.0, 9.999789, 9.992055 
2.0498767e+2, 2.443872e+2, -614146.9, -671185.0, -1229.5464, -0.039744724, -0.011782434, -614120.4, -69115.96, 0.0, 9.998991, 9.991432 
2.0497277e+2, 2.5437865e+2, -525992.2, -577675.44, -1513.212, -0.040003482, -0.011156007, -525947.9, -78859.72, 0.0, 9.9983015, 9.991452 
2.0495799e+2, 2.6436976e+2, -444023.2, -496010.44, -560.933, -0.041350827, -0.008465362, -444017.16, -94841.484, 0.0, 9.99757, 9.990683 
2.0494328e+2, 2.7436048e+2, -357277.0, -403170.28, -254.46368, -0.04406641, -0.004449463, -357275.6, -106009.1, 0.0, 9.996782, 9.990702 
2.0492864e+2, 2.8435084e+2, -276097.53, -320954.94, 137.30365, -0.04490555, -0.004273683, -276097.13, -122735.92, 0.0, 9.995954, 9.990014 
2.0491394e+2, 2.9434082e+2, -190576.8, -228485.75, 227.4998, -0.04338612, -0.010413604, -190575.44, -135116.14, 0.0, 9.995071, 9.990051 
2.048993e+2, 3.0433434e+2, -104795.38, -83446.484, 1122.3564, -0.047879193, -0.0089826565, -83387.64, -83387.64, 0.0, 9.994218, 9.99704 
2.0488457e+2, 3.1433156e+2, -116162.42, -88050.73, 1138.8755, -0.059931785, 0.000819892, -88004.664, -88004.664, 0.0, 9.993401, 9.997118 
2.1517116e+2, 1.24481566e+2, -1625979.6, -1723454.4, 155.55907, -0.027784783, -0.020841978, -1625979.4, 94099.76, 0.0, 10.008294, 9.995368 
2.1515633e+2, 1.3447662e+2, -1540418.5, -1637370.3, -1777.2181, -0.02192828, -0.0017894683, -1540386.0, 81741.55, 0.0, 10.007703, 9.994848 
2.151412e+2, 1.4447087e+2, -1456597.1, -1553074.1, -2385.126, -0.03342844, -0.031125369, -1456538.3, 67645.836, 0.0, 10.007035, 9.994242 
2.1512625e+2, 1.5446536e+2, -1369716.9, -1460390.6, -2794.1846, -0.02820132, -0.008625742, -1369630.8, 56607.53, 0.0, 10.006274, 9.994251 
2.1511103e+2, 1.6445945e+2, -1286392.8, -1374126.3, -4516.801, -0.026481038, -0.0015047753, -1286160.9, 42135.355, 0.0, 10.005475, 9.99384 
2.150956e+2, 1.744532e+2, -1200623.5, -1281808.1, -3839.3955, -0.028760938, -0.01364333, -1200442.4, 29914.969, 0.0, 10.004629, 9.993863 
2.150801e+2, 1.8444669e+2, -1119471.3, -1199536.9, -3794.325, -0.032524027, -0.017194387, -1119291.9, 13129.316, 0.0, 10.003807, 9.99319 
2.1506459e+2, 1.9443996e+2, -1032996.44, -1107021.9, -3797.8845, -0.038188227, -0.011333298, -1032802.1, 1685.1576, 0.0, 10.003015, 9.993198 
2.1504907e+2, 2.0443289e+2, -950153.0, -1022384.4, -4069.1003, -0.041189577, -0.009653904, -949924.5, -13367.942, 0.0, 10.002239, 9.9926605 
2.1503358e+2, 2.1442553e+2, -863035.56, -929440.8, -3880.6824, -0.040871587, -0.013999338, -862809.56, -24180.898, 0.0, 10.001484, 9.992678 
2.1501797e+2, 2.2441791e+2, -781085.7, -845865.9, -4389.204, -0.041139655, -0.0137925325, -780789.6, -40086.203, 0.0, 10.000671, 9.992083 
2.1500227e+2, 2.3441006e+2, -695843.1, -753835.1, -4261.504, -0.042143807, -0.009064416, -695531.6, -52751.168, 0.0, 9.999787, 9.992099 
2.1498664e+2, 2.4440183e+2, -614501.2, -671889.25, -3836.874, -0.043546755, -0.00645137, -614245.8, -69384.52, 0.0, 9.99899, 9.991383 
2.1497102e+2, 2.543932e+2, -526401.56, -578489.56, -4084.405, -0.045458242, -0.007448961, -526083.25, -79137.43, 0.0, 9.998301, 9.991396 
2.1495552e+2, 2.6438427e+2, -443402.56, -494691.53, -3486.017, -0.045431588, -0.0074178367, -443166.72, -94133.34, 0.0, 9.997568, 9.990772 
2.1494009e+2, 2.7437508e+2, -356601.6, -401733.88, -3204.9814, -0.042938963, -0.007368919, -356375.13, -105251.56, 0.0, 9.99678, 9.9908 
2.149246e+2, 2.8436553e+2, -275591.88, -319857.22, -3150.277, -0.043697994, -0.0056888335, -275368.8, -122151.52, 0.0, 9.995951, 9.990089 
2.1490897e+2, 2.943557e+2, -190104.94, -227443.6, -3084.0735, -0.048653785, -0.0033214828, -189851.9, -134537.97, 0.0, 9.995068, 9.990123 
2.1489346e+2, 3.043493e+2, -104380.61, -82523.125, -1943.8356, -0.05365633, -0.0006983155, -82351.6, -82351.6, 0.0, 9.994215, 9.997104 
2.14878e+2, 3.143465e+2, -115754.34, -87162.11, -1908.4059, -0.058493763, 0.00083837897, -87035.3, -87035.3, 0.0, 9.993399, 9.997178 
2.2517958e+2, 1.2449679e+2, -1621808.6, -1721866.4, 3975.008, -0.030529346, -0.020201454, -1621651.0, 98279.2, 0.0, 10.008595, 9.995327 
2.2516406e+2, 1.3449188e+2, -1539271.8, -1637034.6, 1047.3785, -0.02328943, 0.0033610503, -1539260.5, 82717.89, 0.0, 10.007789, 9.994827 
2.2514819e+2, 1.4448611e+2, -1457237.1, -1553244.3, 180.30356, -0.035105612, -0.025516786, -1457236.8, 66798.17, 0.0, 10.006984, 9.994252 
2.2513245e+2, 1.5448055e+2, -1370975.9, -1460869.5, 1033.7085, -0.03160659, -0.009698433, -1370964.0, 55125.703, 0.0, 10.006181, 9.994261 
2.2511643e+2, 1.6447465e+2, -1287550.0, -1374310.5, -545.0077, -0.03011835, -0.003613428, -1287546.6, 40600.883, 0.0, 10.005378, 9.993872 
2.2510017e+2, 1.7446849e+2, -1201157.9, -1281697.8, -796.1949, -0.03078485, -0.009873807, -1201150.0, 29057.803, 0.0, 10.004575, 9.993895 
2.2508387e+2, 1.8446203e+2, -1119886.6, -1199703.0, -1055.2478, -0.034344748, -0.011592759, -1119872.8, 12398.573, 0.0, 10.003776, 9.993191 
2.2506756e+2, 1.9445525e+2, -1033481.7, -1107260.8, -828.28314, -0.04157256, -0.00887083, -1033472.4, 865.3122, 0.0, 10.00298, 9.993196 
2.2505122e+2, 2.0444818e+2, -951389.5, -1022851.7, -1149.3174, -0.044846248, -0.008037224, -951371.06, -14964.027, 0.0, 10.002147, 9.99267 
2.2503492e+2, 2.1444084e+2, -866100.75, -930805.4, -1167.4314, -0.04315111, -0.010407038, -866079.7, -27600.813, 0.0, 10.001267, 9.992687 
2.2501853e+2, 2.2443324e+2, -783738.75, -846803.6, -1719.8718, -0.04289163, -0.009926937, -783691.9, -43138.438, 0.0, 10.000474, 9.992112 
2.2500205e+2, 2.344254e+2, -695612.8, -753378.44, -1688.4308, -0.04447536, -0.007008049, -695563.5, -52933.195, 0.0, 9.999787, 9.992127 
2.2498561e+2, 2.4441718e+2, -613791.94, -671442.7, -1034.333, -0.04600288, -0.004849021, -613773.4, -69062.43, 0.0, 9.999032, 9.99139 
2.2496925e+2, 2.544086e+2, -527905.25, -579146.3, -806.05743, -0.04746125, -0.004639364, -527892.56, -81097.23, 0.0, 9.998193, 9.9914 
2.2495295e+2, 2.6439968e+2, -445990.7, -494892.28, -158.98709, -0.047164924, -0.0048759333, -445990.16, -97107.69, 0.0, 9.997344, 9.990864 
2.249367e+2, 2.743906e+2, -360221.72, -402388.13, 100.26388, -0.04460901, -0.0069424724, -360221.47, -109249.59, 0.0, 9.996484, 9.990895 
2.2492039e+2, 2.843811e+2, -279240.84, -321346.25, 50.5558, -0.045589183, -0.0050958116, -279240.78, -126175.82, 0.0, 9.9956875, 9.990111 
2.2490396e+2, 2.9437128e+2, -191352.55, -227845.4, -296.88016, -0.051159155, 0.00035756826, -191350.14, -136188.9, 0.0, 9.994972, 9.990139 
2.2488762e+2, 3.0436492e+2, -104656.81, -82024.555, 354.66348, -0.055606227, 0.003050092, -82018.99, -82018.99, 0.0, 9.994166, 9.997158 
2.2487131e+2, 3.1436214e+2, -117538.13, -87385.7, 331.4683, -0.05833127, 0.0007375487, -87382.055, -87382.055, 0.0, 9.993247, 9.997234 
2.3518813e+2, 1.2451286e+2, -1623135.0, -1724368.8, 1029.5924, -0.034909423, -0.020077076, -1623124.5, 96648.484, 0.0, 10.008586, 9.99516 
2.3517185e+2, 1.3450788e+2, -1540463.1, -1639276.1, -1904.797, -0.02249322, 0.012269144, -1540426.4, 81395.51, 0.0, 10.00778, 9.994678 
2.351552e+2, 1.445021e+2, -1456168.5, -1550870.8, -2757.976, -0.033993766, -0.017339213, -1456088.3, 67790.26, 0.0, 10.006976, 9.994416 
2.351386e+2, 1.5449657e+2, -1369776.8, -1458270.5, -1920.0623, -0.035504892, -0.015992973, -1369735.1, 56197.58, 0.0, 10.006175, 9.994439 
2.3512174e+2, 1.6449073e+2, -1288132.6, -1375419.1, -3509.2268, -0.03690361, -0.0120881265, -1287991.8, 39998.35, 0.0, 10.005374, 9.993796 
2.351047e+2, 1.7448461e+2, -1201826.4, -1283021.4, -3755.3584, -0.03785353, -0.005512949, -1201653.0, 28397.223, 0.0, 10.004573, 9.993804 
2.350876e+2, 1.8447812e+2, -1119740.0, -1199359.8, -3989.7922, -0.039182723, -0.0033282952, -1119540.6, 12573.195, 0.0, 10.003774, 9.993214 
2.3507054e+2, 1.9447131e+2, -1033305.4, -1106850.0, -3765.9905, -0.04108852, -0.0076685203, -1033113.06, 1067.5282, 0.0, 10.002978, 9.993223 
2.3505339e+2, 2.0446423e+2, -951502.44, -1023046.94, -4392.439, -0.043428294, -0.0075860335, -951233.8, -14983.94, 0.0, 10.002146, 9.992657 
2.3503616e+2, 2.1445696e+2, -866229.6, -931052.6, -4429.7515, -0.04622712, -0.002926851, -865928.3, -27607.076, 0.0, 10.001267, 9.992669 
2.3501895e+2, 2.2444935e+2, -783630.3, -846566.5, -4298.799, -0.04772463, -0.0019743294, -783338.06, -42942.26, 0.0, 10.000474, 9.992127 
2.350018e+2, 2.3444147e+2, -695506.0, -753138.8, -4230.927, -0.047660556, -0.006701623, -695197.06, -52723.895, 0.0, 9.999786, 9.992143 
2.3498464e+2, 2.4443325e+2, -613335.94, -670474.75, -4128.6035, -0.04711217, -0.006984824, -613039.1, -68485.5, 0.0, 9.999031, 9.991455 
2.3496746e+2, 2.5442478e+2, -527445.2, -578157.3, -3940.0396, -0.045972146, -0.0027323118, -527140.9, -80503.93, 0.0, 9.998192, 9.9914665 
2.3495032e+2, 2.6441598e+2, -445345.25, -493500.94, -3372.5786, -0.04653319, -0.0008154853, -445110.2, -96387.07, 0.0, 9.997342, 9.990958 
2.3493314e+2, 2.7440694e+2, -359588.75, -401003.9, -3120.7976, -0.049169276, -0.0030913767, -359354.9, -108543.31, 0.0, 9.996481, 9.99099 
2.3491603e+2, 2.8439748e+2, -279492.53, -321800.5, -2650.5789, -0.050657135, -0.0024686803, -279327.13, -126422.68, 0.0, 9.995685, 9.990081 
2.3489892e+2, 2.9438764e+2, -191647.77, -228428.81, -2967.5623, -0.050786782, 0.00046563757, -191409.88, -136408.53, 0.0, 9.994971, 9.990099 
2.3488182e+2, 3.0438125e+2, -104328.55, -81328.31, -3049.0476, -0.053602125, 0.0020816673, -80930.98, -80930.98, 0.0, 9.994165, 9.997205 
2.3486455e+2, 3.143785e+2, -117200.64, -86647.23, -3119.321, -0.059560083, 0.0005338851, -86332.016, -86332.016, 0.0, 9.993245, 9.997284 
2.4519679e+2, 1.2452979e+2, -1621623.0, -1724147.3, 3735.3872, -0.03182949, -0.014653225, -1621487.0, 98120.33, 0.0, 10.008709, 9.995113 
2.4517962e+2, 1.3452472e+2, -1540188.6, -1639418.3, 1665.732, -0.024112653, 0.011243122, -1540160.6, 81496.46, 0.0, 10.007808, 9.994652 
2.4516211e+2, 1.4451896e+2, -1455991.6, -1550178.4, 1113.6633, -0.038188044, -0.01831438, -1455978.5, 67735.02, 0.0, 10.00696, 9.994468 
2.4514472e+2, 1.5451352e+2, -1369367.0, -1457439.4, 1075.4249, -0.039446745, -0.011972716, -1369353.9, 56412.973, 0.0, 10.006174, 9.9944935 
2.4512708e+2, 1.645077e+2, -1287978.0, -1375734.3, -798.54425, -0.04080798, -0.006746007, -1287970.8, 39853.227, 0.0, 10.0054, 9.99376 
2.4510926e+2, 1.7450151e+2, -1201113.1, -1283133.4, -693.9931, -0.041966636, -0.00316466, -1201107.3, 28777.555, 0.0, 10.00464, 9.993761 
2.4509135e+2, 1.84495e+2, -1119158.9, -1198935.1, -1070.0836, -0.04224942, -0.0019360981, -1119144.5, 12804.102, 0.0, 10.003805, 9.993224 
2.4507347e+2, 1.9448823e+2, -1034591.5, -1107315.6, -966.51886, -0.041564893, -0.0048400536, -1034578.7, -563.5217, 0.0, 10.002882, 9.993236 
2.4505548e+2, 2.0448115e+2, -953129.3, -1023843.94, -1451.2482, -0.043570153, -0.00436036, -953099.56, -17015.215, 0.0, 10.002033, 9.992654 
2.450374e+2, 2.1447386e+2, -866089.7, -931018.06, -1377.8053, -0.0488163, -0.00052358187, -866060.5, -27904.607, 0.0, 10.001276, 9.992663 
2.4501939e+2, 2.2446626e+2, -783405.75, -846192.44, -997.6636, -0.051091082, -0.000004542371, -783389.9, -43159.543, 0.0, 10.000476, 9.992148 
2.4500148e+2, 2.3445839e+2, -697730.0, -753952.7, -864.51337, -0.04974017, -0.0047368356, -697716.7, -55409.23, 0.0, 9.999621, 9.992164 
2.4498354e+2, 2.4445023e+2, -616394.44, -671257.7, -927.81976, -0.04804343, -0.0051894584, -616378.75, -71991.18, 0.0, 9.998791, 9.991515 
2.4496554e+2, 2.544418e+2, -529942.06, -578656.4, -781.133, -0.045931898, -0.0012774358, -529929.56, -83459.21, 0.0, 9.997988, 9.991528 
2.4494758e+2, 2.6443306e+2, -446690.16, -493791.56, -310.1667, -0.04697171, 0.0010860831, -446688.13, -98132.15, 0.0, 9.997232, 9.990988 
2.4492961e+2, 2.7442408e+2, -358585.2, -400197.97, -559.16785, -0.051901955, 0.00022660015, -358577.66, -107933.58, 0.0, 9.996533, 9.991016 
2.4491172e+2, 2.8441465e+2, -278488.84, -320418.22, -182.34213, -0.053089887, 0.00060360244, -278488.06, -125751.63, 0.0, 9.995712, 9.990159 
2.448938e+2, 2.9440483e+2, -194404.2, -228846.05, 410.5627, -0.049649507, 0.0012084184, -194399.31, -139566.58, 0.0, 9.9947405, 9.990178 
2.4487585e+2, 3.043985e+2, -108432.0, -83650.83, 665.3311, -0.05188189, 0.002387382, -83632.98, -83632.98, 0.0, 9.9938965, 9.997172 
2.4485776e+2, 3.1439576e+2, -117883.14, -87424.375, -95.67238, -0.06101941, 0.002790176, -87424.08, -87424.08, 0.0, 9.993215, 9.997243 
2.552056e+2, 1.2454754e+2, -1621333.3, -1723281.6, 430.13422, -0.021904262, -0.004478573, -1621331.4, 98102.29, 0.0, 10.008697, 9.995176 
2.551874e+2, 1.3454235e+2, -1539642.4, -1638143.1, -1653.9583, -0.028032893, 0.0008857283, -1539614.6, 81869.76, 0.0, 10.007801, 9.99474 
2.55169e+2, 1.4453661e+2, -1456431.9, -1550969.9, -1797.7098, -0.047341727, -0.027797097, -1456397.8, 67142.8, 0.0, 10.006955, 9.994415 
2.5515085e+2, 1.5453136e+2, -1369894.3, -1458372.8, -1816.2238, -0.043405812, 0.0019011176, -1369856.9, 55735.406, 0.0, 10.006167, 9.9944315 
2.5513247e+2, 1.6452555e+2, -1288059.0, -1375746.3, -3595.71, -0.041972943, 0.011689198, -1287911.9, 39737.58, 0.0, 10.005393, 9.993761 
2.5511387e+2, 1.7451918e+2, -1201166.1, -1283109.5, -3482.9937, -0.04325346, -0.0028207987, -1201018.3, 28693.59, 0.0, 10.004634, 9.993764 
2.5509515e+2, 1.8451262e+2, -1119207.6, -1198942.9, -4449.8955, -0.043623403, -0.0071405317, -1118960.1, 12816.069, 0.0, 10.003801, 9.993224 
2.5507632e+2, 1.9450593e+2, -1034612.56, -1107327.3, -4380.3296, -0.04298137, -0.0003882166, -1034349.6, -507.85602, 0.0, 10.00288, 9.993234 
2.5505748e+2, 2.0449889e+2, -953058.3, -1023687.56, -4268.751, -0.045225795, 0.0015459547, -952801.25, -16890.467, 0.0, 10.002032, 9.992662 
2.5503865e+2, 2.1449152e+2, -866032.0, -930876.5, -4167.812, -0.050929423, -0.0031605344, -865765.2, -27782.21, 0.0, 10.001275, 9.992672 
2.5501984e+2, 2.2448394e+2, -783202.75, -845747.56, -4143.599, -0.05301967, -0.0039365417, -782929.44, -42872.023, 0.0, 10.000475, 9.992177 
2.550011e+2, 2.3447616e+2, -697530.06, -753515.06, -4034.5083, -0.0507206, -0.0010797371, -697240.8, -55107.2, 0.0, 9.99962, 9.992192 
2.5498232e+2, 2.4446805e+2, -616008.56, -670425.0, -3915.5051, -0.048802376, 0.0005356529, -615728.25, -71515.19, 0.0, 9.998789, 9.991571 
2.5496352e+2, 2.5445962e+2, -529561.94, -577824.0, -3765.3015, -0.047366414, -0.0003101302, -529269.94, -82974.27, 0.0, 9.997987, 9.991584 
2.549448e+2, 2.644509e+2, -446953.94, -494298.47, -2929.5046, -0.048496317, 0.0007883783, -446773.34, -98392.06, 0.0, 9.997231, 9.9909525 
2.5492615e+2, 2.744419e+2, -358879.88, -400797.97, -3164.4453, -0.052767508, 0.0030110185, -358642.3, -108172.72, 0.0, 9.996533, 9.990974 
2.5490743e+2, 2.8443256e+2, -277127.75, -317579.28, -3780.3108, -0.05283135, 0.0041437135, -276777.5, -124216.3, 0.0, 9.995711, 9.990352 
2.5488856e+2, 2.9442295e+2, -192988.94, -225840.95, -3235.6228, -0.04772508, 0.0025980773, -192673.3, -138017.72, 0.0, 9.994738, 9.990383 
2.5486976e+2, 3.0441666e+2, -109278.164, -85344.67, -1920.2035, -0.050459582, 0.0040108953, -85191.586, -85191.586, 0.0, 9.993895, 9.997056 
2.5485095e+2, 3.144138e+2, -118827.6, -89409.695, -2619.6423, -0.06275722, 0.0076295296, -89178.24, -89178.24, 0.0, 9.9932165, 9.997105 
2.6521438e+2, 1.2456609e+2, -1619699.8, -1722382.1, 3685.12, -0.01976615, -0.002242516, -1619567.8, 99684.4, 0.0, 10.0088005, 9.995184 
2.6519528e+2, 1.3456094e+2, -1535847.3, -1635922.4, 1209.3579, -0.030312477, 0.0037771657, -1535832.6, 85469.78, 0.0, 10.00804, 9.994771 
2.65176e+2, 1.4455523e+2, -1453557.4, -1550138.4, 611.5923, -0.051050592, -0.023669241, -1453553.5, 69805.04, 0.0, 10.007173, 9.994363 
2.65157e+2, 1.545499e+2, -1370159.5, -1459137.9, 601.6345, -0.044973925, 0.0051645637, -1370155.5, 55255.523, 0.0, 10.006174, 9.994373 
2.651378e+2, 1.6454406e+2, -1289563.6, -1375816.4, -583.86426, -0.04250103, 0.0141927665, -1289559.8, 37908.46, 0.0, 10.0052595, 9.993817 
2.6511842e+2, 1.7453775e+2, -1203473.0, -1283526.5, -23.262907, -0.044071183, -0.0010789334, -1203473.0, 26057.082, 0.0, 10.004444, 9.993824 
2.6509884e+2, 1.8453124e+2, -1121122.0, -1199824.1, -888.40717, -0.04544645, -0.0053460156, -1121112.0, 10482.044, 0.0, 10.003667, 9.993225 
2.650792e+2, 1.9452456e+2, -1033777.56, -1106921.0, -823.4838, -0.046661433, 0.0025182674, -1033768.25, -108.68189, 0.0, 10.002935, 9.993231 
2.6505953e+2, 2.0451751e+2, -951620.56, -1022759.3, -717.5426, -0.04839227, 0.0044158995, -951613.4, -15884.825, 0.0, 10.002119, 9.992681 
2.650399e+2, 2.1451014e+2, -866965.8, -931103.2, -539.2145, -0.050739247, -0.0017528503, -866961.25, -29160.604, 0.0, 10.0012, 9.992689 
2.6502025e+2, 2.2450256e+2, -785129.3, -846619.75, -505.0088, -0.0515236, -0.0023433056, -785125.2, -45250.24, 0.0, 10.000339, 9.99218 
2.6500067e+2, 2.3449482e+2, -698548.6, -753971.2, -594.5184, -0.05039561, 0.0027392118, -698542.25, -56591.3, 0.0, 9.999547, 9.992193 
2.6498112e+2, 2.4448673e+2, -615735.4, -669772.4, -418.05215, -0.04966749, 0.004350661, -615732.1, -71701.91, 0.0, 9.998783, 9.991615 
2.649615e+2, 2.5447834e+2, -528232.25, -576648.94, -327.20883, -0.049448133, 0.00075453485, -528230.06, -82117.47, 0.0, 9.998053, 9.991629 
2.6494202e+2, 2.6446962e+2, -446827.1, -494103.6, 475.5656, -0.050075028, 0.00095857045, -446822.3, -98624.33, 0.0, 9.9972315, 9.990962 
2.649226e+2, 2.7446064e+2, -362163.2, -402290.66, 611.74817, -0.051732656, 0.0045745634, -362153.84, -111867.71, 0.0, 9.996303, 9.99098 
2.64903e+2, 2.8445137e+2, -280071.25, -318250.44, -363.21484, -0.05181293, 0.006624569, -280067.78, -127690.48, 0.0, 9.995475, 9.990417 
2.648833e+2, 2.9444176e+2, -191905.11, -224544.8, -875.64557, -0.04996884, 0.0053824685, -191881.63, -137410.66, 0.0, 9.994776, 9.990451 
2.6486367e+2, 3.0443555e+2, -108010.86, -84616.47, 472.6853, -0.051969137, 0.0060692723, -84606.92, -84606.92, 0.0, 9.993973, 9.997066 
2.6484412e+2, 3.1443265e+2, -121235.45, -90511.914, 870.4189, -0.058572434, 0.007734876, -90487.27, -90487.27, 0.0, 9.993046, 9.9971075 
2.752231e+2, 1.2458541e+2, -1620090.3, -1723046.5, 879.06116, -0.024741525, -0.007127017, -1620082.8, 98980.17, 0.0, 10.008795, 9.99514 
2.7520335e+2, 1.3458045e+2, -1536191.6, -1636312.3, -1573.1724, -0.03103352, 0.019064255, -1536167.0, 84944.74, 0.0, 10.008027, 9.99475 
2.751832e+2, 1.445747e+2, -1454132.9, -1550985.9, -3026.8345, -0.04969639, -0.0069372733, -1454038.4, 69129.61, 0.0, 10.007158, 9.99431 
2.7516317e+2, 1.5456909e+2, -1370669.1, -1459992.4, -3062.2102, -0.04431002, -0.0016679819, -1370564.4, 54658.754, 0.0, 10.0061655, 9.994317 
2.7514303e+2, 1.6456324e+2, -1288817.9, -1374184.3, -3585.48, -0.04242425, 0.0016873633, -1288667.6, 38612.902, 0.0, 10.005255, 9.993929 
2.7512282e+2, 1.745572e+2, -1202659.1, -1281797.0, -3011.9072, -0.04443798, 0.0020870608, -1202544.6, 26795.213, 0.0, 10.004441, 9.993941 
2.751025e+2, 1.8455078e+2, -1121101.3, -1199740.0, -3583.7178, -0.04771371, 0.003140424, -1120938.3, 10464.467, 0.0, 10.003665, 9.99323 
2.7508208e+2, 1.9454402e+2, -1033814.2, -1106939.4, -3506.5789, -0.052556105, 0.0038844906, -1033646.44, -177.44975, 0.0, 10.002933, 9.993229 
2.750616e+2, 2.0453699e+2, -951438.25, -1022331.94, -4079.799, -0.053025868, 0.004357893, -951204.2, -15666.267, 0.0, 10.002116, 9.992709 
2.750411e+2, 2.1452971e+2, -866765.1, -930666.6, -3939.2217, -0.04826381, 0.0036704158, -866523.25, -28913.928, 0.0, 10.001199, 9.992718 
2.7502066e+2, 2.2452216e+2, -785277.44, -846916.1, -3448.0544, -0.046641637, 0.0046985405, -785085.2, -45401.793, 0.0, 10.000339, 9.992158 
2.7500024e+2, 2.3451434e+2, -698730.1, -754326.94, -3517.9736, -0.04878136, 0.006687367, -698508.44, -56748.453, 0.0, 9.999547, 9.992167 
2.7497986e+2, 2.4450624e+2, -615498.6, -669263.3, -3127.7427, -0.050654978, 0.006253082, -615317.25, -71477.89, 0.0, 9.998782, 9.991649 
2.7495953e+2, 2.5449786e+2, -527983.4, -576115.7, -3032.9797, -0.05221072, 0.0019313566, -527793.0, -81871.67, 0.0, 9.998052, 9.991664 
2.7493924e+2, 2.644892e+2, -446430.06, -493249.75, -2959.7932, -0.051712718, 0.0015938625, -446243.72, -98237.41, 0.0, 9.997231, 9.991019 
2.749189e+2, 2.7448025e+2, -361789.53, -401449.6, -2863.2905, -0.048723985, 0.0048543434, -361583.88, -111489.945, 0.0, 9.9963, 9.991036 
2.7489853e+2, 2.8447098e+2, -280579.3, -319245.2, -3007.6697, -0.050030094, 0.008003359, -280346.75, -128161.73, 0.0, 9.995473, 9.990348 
2.74878e+2, 2.9446137e+2, -192426.83, -225644.2, -3479.794, -0.05662312, 0.009652255, -192066.2, -137787.0, 0.0, 9.994777, 9.990374 
2.748576e+2, 3.0445513e+2, -106970.58, -82501.016, -2969.3862, -0.056548648, 0.008576209, -82145.83, -82145.83, 0.0, 9.993975, 9.997208 
2.748373e+2, 3.1445232e+2, -120152.695, -88249.26, -2600.384, -0.0480704, 0.002782241, -88038.695, -88038.695, 0.0, 9.993045, 9.997261 
2.8523213e+2, 1.246057e+2, -1614528.8, -1721430.0, 3700.2585, -0.026558604, -0.008020949, -1614400.8, 104463.49, 0.0, 10.009217, 9.99504 
2.8521132e+2, 1.3460071e+2, -1537447.4, -1637759.6, 883.02826, -0.030896809, 0.023930185, -1537439.6, 83473.73, 0.0, 10.007974, 9.994674 
2.8519025e+2, 1.4459498e+2, -1456601.4, -1551136.1, 159.0051, -0.04974059, -0.00097349926, -1456601.0, 66368.43, 0.0, 10.006941, 9.994402 
2.851693e+2, 1.5458938e+2, -1370144.0, -1458634.4, 1230.8516, -0.047328588, -0.0033939006, -1370126.9, 54897.426, 0.0, 10.00615, 9.994412 
2.8514832e+2, 1.6458356e+2, -1287197.0, -1373450.9, 1212.1128, -0.046410453, -0.001679053, -1287179.9, 39901.438, 0.0, 10.005365, 9.99392 
2.851273e+2, 1.7457756e+2, -1200610.3, -1280922.1, 856.83466, -0.047037452, 0.0043378603, -1200601.1, 28539.225, 0.0, 10.004583, 9.993928 
2.851062e+2, 1.8457116e+2, -1119728.1, -1198891.0, -241.45256, -0.048763603, 0.007780204, -1119727.4, 11475.615, 0.0, 10.003748, 9.993244 
2.8508496e+2, 1.9456442e+2, -1034903.9, -1107284.8, -44.869263, -0.05187043, 0.007001373, -1034903.9, -1634.4817, 0.0, 10.002848, 9.993242 
2.8506365e+2, 2.0455739e+2, -953165.5, -1023164.0, -796.8655, -0.05200954, 0.0070589157, -953156.44, -17818.09, 0.0, 10.001996, 9.992706 
2.8504232e+2, 2.1455011e+2, -866708.4, -930654.94, -897.63513, -0.048536513, 0.007343477, -866695.8, -29286.162, 0.0, 10.001201, 9.992714 
2.8502104e+2, 2.2454256e+2, -783971.56, -846209.8, -140.47563, -0.047356777, 0.008308331, -783971.25, -44487.52, 0.0, 10.000422, 9.992162 
2.8499985e+2, 2.3453473e+2, -696974.75, -753413.94, 26.737608, -0.048978377, 0.008941737, -696974.75, -55414.34, 0.0, 9.999661, 9.99217 
2.849787e+2, 2.4452664e+2, -614214.4, -668405.06, 428.15298, -0.049825627, 0.00847177, -614211.0, -70571.3, 0.0, 9.9988575, 9.991667 
2.849576e+2, 2.545183e+2, -528507.6, -576139.25, 405.74823, -0.049747683, 0.0057293265, -528504.1, -82782.81, 0.0, 9.998004, 9.991681 
2.8493646e+2, 2.6450965e+2, -447182.75, -493222.03, 15.183107, -0.04945475, 0.005235367, -447182.75, -99376.71, 0.0, 9.997159, 9.991052 
2.849152e+2, 2.7450073e+2, -361093.94, -400725.8, -81.07899, -0.048844997, 0.006227912, -361093.78, -111200.266, 0.0, 9.996327, 9.991069 
2.8489402e+2, 2.8449148e+2, -279708.9, -318156.6, 587.9226, -0.05058438, 0.008693646, -279699.9, -127715.71, 0.0, 9.995501, 9.990405 
2.8487274e+2, 2.9448196e+2, -193328.95, -225418.78, 1174.3921, -0.05531755, 0.011591619, -193286.03, -139208.33, 0.0, 9.994683, 9.990429 
2.8485152e+2, 3.0447575e+2, -108880.26, -82508.17, 1314.8307, -0.053916812, 0.009395264, -82442.78, -82442.78, 0.0, 9.993801, 9.997287 
2.8483027e+2, 3.1447303e+2, -122476.836, -88457.5, 1081.3655, -0.044676986, -0.00039463758, -88423.16, -88423.16, 0.0, 9.992843, 9.99734 
2.9524133e+2, 1.2462688e+2, -1615971.8, -1723804.6, -915.571, -0.025493735, -0.0053624734, -1615964.0, 102692.64, 0.0, 10.009191, 9.994889 
2.952193e+2, 1.3462171e+2, -1538545.8, -1639700.0, -3681.8418, -0.02997846, 0.01913693, -1538412.0, 82295.8, 0.0, 10.007959, 9.994546 
2.951972e+2, 1.4461602e+2, -1455069.4, -1547819.9, -2763.822, -0.051090386, -0.0049165003, -1454987.0, 67776.38, 0.0, 10.006934, 9.994629 
2.9517537e+2, 1.5461074e+2, -1368522.9, -1455140.4, -1671.7504, -0.05381377, -0.00026245887, -1368490.6, 56324.473, 0.0, 10.006144, 9.994652 
2.951536e+2, 1.6460499e+2, -1288137.3, -1375239.8, -1666.9589, -0.054227613, 0.0035217572, -1288105.4, 38766.027, 0.0, 10.00536, 9.9938 
2.9513186e+2, 1.7459881e+2, -1201653.8, -1282940.5, -2009.6371, -0.051761076, 0.0056759804, -1201604.1, 27328.076, 0.0, 10.004579, 9.993791 
2.9510996e+2, 1.8459238e+2, -1119603.4, -1198536.0, -3533.4668, -0.048623543, 0.0087758005, -1119445.5, 11550.033, 0.0, 10.003744, 9.993268 
2.950879e+2, 1.9458568e+2, -1034701.06, -1106823.0, -3362.4956, -0.044788904, 0.011842921, -1034544.6, -1483.4099, 0.0, 10.002846, 9.993273 
2.9506573e+2, 2.0457865e+2, -953375.44, -1023589.4, -3736.048, -0.045531955, 0.012420998, -953177.2, -18047.072, 0.0, 10.001996, 9.992676 
2.950435e+2, 2.1457133e+2, -866940.56, -931134.56, -3820.233, -0.051571585, 0.009279215, -866714.0, -29511.895, 0.0, 10.001201, 9.992679 
2.9502138e+2, 2.2456373e+2, -783739.25, -845723.75, -2941.1292, -0.053615946, 0.008536946, -783600.0, -44323.62, 0.0, 10.0004225, 9.992193 
2.9499948e+2, 2.3455596e+2, -696736.4, -752904.2, -2774.1316, -0.050974272, 0.009513176, -696599.7, -55247.09, 0.0, 9.999661, 9.992203 
2.9497758e+2, 2.445479e+2, -614178.9, -668311.6, -2716.366, -0.047153763, 0.011017797, -614042.94, -70611.36, 0.0, 9.9988575, 9.991672 
2.949557e+2, 2.545396e+2, -528497.94, -576088.94, -2762.2234, -0.04195504, 0.012200169, -528338.1, -82825.23, 0.0, 9.998002, 9.991683 
2.9493368e+2, 2.64531e+2, -447133.16, -493084.53, -3082.6646, -0.04324965, 0.011945372, -446927.28, -99329.76, 0.0, 9.997158, 9.99106 
2.949115e+2, 2.74522e+2, -361035.94, -400592.3, -3179.3596, -0.05226222, 0.00873259, -360782.03, -111096.85, 0.0, 9.996327, 9.991076 
2.9488948e+2, 2.8451285e+2, -278352.13, -315346.0, -2468.8704, -0.05353334, 0.008668908, -278188.1, -126413.01, 0.0, 9.9955015, 9.990595 
2.9486752e+2, 2.9450348e+2, -191924.88, -222498.55, -1864.5831, -0.045599747, 0.011056056, -191811.58, -137944.89, 0.0, 9.994683, 9.990627 
2.9484543e+2, 3.0449742e+2, -108793.93, -82309.62, -2228.2183, -0.04374435, 0.008416553, -82123.46, -82123.46, 0.0, 9.9938, 9.997298 
2.9482305e+2, 3.1449467e+2, -122470.82, -88428.23, -2485.9573, -0.04898602, -0.0016682824, -88247.65, -88247.65, 0.0, 9.992842, 9.997341 
3.0525038e+2, 1.2464899e+2, -1619325.6, -1724778.8, 1753.6632, -0.026422475, -0.0050398456, -1619296.5, 99143.58, 0.0, 10.008929, 9.9949465 
3.0522725e+2, 1.3464384e+2, -1536801.3, -1637889.4, 522.0685, -0.03417415, 0.01562302, -1536798.5, 83692.23, 0.0, 10.008033, 9.994629 
3.0520415e+2, 1.446382e+2, -1452237.3, -1546912.0, 2097.7869, -0.055646658, -0.006430564, -1452190.9, 70355.27, 0.0, 10.007144, 9.994583 
3.051816e+2, 1.5463293e+2, -1367145.6, -1455009.1, 1146.2545, -0.056020595, 0.003358901, -1367130.8, 57467.168, 0.0, 10.006258, 9.994601 
3.0515897e+2, 1.6462718e+2, -1287662.6, -1374869.1, 592.7347, -0.05519309, 0.008919622, -1287658.6, 38995.582, 0.0, 10.005383, 9.993811 
3.051364e+2, 1.7462099e+2, -1202411.3, -1283151.1, 1318.9009, -0.05273907, 0.008912266, -1202389.8, 26325.361, 0.0, 10.004517, 9.993802 
3.0511364e+2, 1.8461452e+2, -1120629.4, -1199257.6, 101.9017, -0.04956825, 0.010364565, -1120629.3, 10149.464, 0.0, 10.003681, 9.993245 
3.0509076e+2, 1.9460781e+2, -1034346.25, -1106895.3, -128.6275, -0.04562991, 0.012459829, -1034346.0, -1501.3414, 0.0, 10.002878, 9.993249 
3.0506778e+2, 2.0460078e+2, -951317.6, -1022097.06, -116.26034, -0.045959666, 0.013437583, -951317.44, -16403.945, 0.0, 10.002112, 9.992717 
3.050448e+2, 2.145935e+2, -863839.2, -929119.56, 396.57385, -0.05130084, 0.01222319, -863836.8, -26851.895, 0.0, 10.001388, 9.992722 
3.050219e+2, 2.2458594e+2, -781269.5, -844708.9, 1198.8324, -0.052857764, 0.0117486045, -781246.9, -42187.816, 0.0, 10.000596, 9.992174 
3.0499917e+2, 2.3457812e+2, -695929.75, -752735.8, 944.88055, -0.049900938, 0.011090764, -695914.06, -54778.395, 0.0, 9.999723, 9.99218 
3.0497643e+2, 2.4457005e+2, -614224.0, -668283.9, 607.4402, -0.04584347, 0.012832274, -614217.2, -71002.5, 0.0, 9.998849, 9.9916725 
3.0495366e+2, 2.5456178e+2, -528833.56, -576203.1, 565.81323, -0.040519558, 0.016455825, -528826.8, -83530.984, 0.0, 9.997974, 9.991685 
3.0493084e+2, 2.645532e+2, -446458.2, -491567.78, 845.355, -0.04190971, 0.015621985, -446442.38, -99062.43, 0.0, 9.997149, 9.991163 
3.0490786e+2, 2.745443e+2, -359370.4, -398560.13, 1533.3733, -0.051316876, 0.008248726, -359310.5, -109843.67, 0.0, 9.996386, 9.991182 
3.04885e+2, 2.8453517e+2, -277949.56, -315249.06, 1578.8213, -0.051862054, 0.0071951095, -277882.88, -126326.56, 0.0, 9.995529, 9.990583 
3.0486217e+2, 2.9452586e+2, -193656.05, -223502.53, 529.34357, -0.041790668, 0.0123372935, -193646.66, -139998.78, 0.0, 9.994569, 9.99061 
3.0483922e+2, 3.0451977e+2, -109584.88, -82478.6, -440.25638, -0.040716957, 0.012227807, -82471.45, -82471.45, 0.0, 9.993733, 9.997316 
3.0481598e+2, 3.1451705e+2, -119206.06, -86638.79, -545.6833, -0.050366703, 0.0044480413, -86629.65, -86629.65, 0.0, 9.9930525, 9.997359 
3.1525928e+2, 1.2467194e+2, -1617853.3, -1721272.9, -1622.4485, -0.029163282, -0.0067541027, -1617827.8, 100387.305, 0.0000000000000806617, 10.008909, 9.995193 
3.152352e+2, 1.3466707e+2, -1535055.5, -1633914.5, -2812.833, -0.043080207, 0.013282204, -1534975.5, 85287.54, 0.00000000000005243424, 10.008016, 9.9949045 
3.152112e+2, 1.4466147e+2, -1454564.8, -1551368.3, -1187.6111, -0.06312878, -0.005718337, -1454550.1, 67768.02, 0.000000000000028332263, 10.00713, 9.994286 
3.1518784e+2, 1.5465589e+2, -1369609.0, -1459774.3, -2105.0205, -0.054199617, 0.007458634, -1369559.9, 54813.098, 0.000000000000012064798, 10.006245, 9.994282 
3.151644e+2, 1.6465007e+2, -1286826.6, -1372911.5, -2565.6165, -0.04973795, 0.014544194, -1286750.3, 39680.04, 0.000000000000003878589, 10.005372, 9.993947 
3.1514093e+2, 1.7464401e+2, -1201400.5, -1280925.6, -1864.5107, -0.05018614, 0.013951894, -1201356.8, 27132.89, 0.0000000000000009180906, 10.004511, 9.993955 
3.151173e+2, 1.8463758e+2, -1121138.3, -1200235.4, -2856.5156, -0.05159716, 0.012483457, -1121035.3, 9517.738, 0.00000000000000015841597, 10.003678, 9.993177 
3.1509355e+2, 1.9463073e+2, -1034891.2, -1107993.1, -3068.4597, -0.054162107, 0.008984281, -1034762.6, -2142.4595, 0.000000000000000019869674, 10.002877, 9.993172 
3.1506982e+2, 2.0462371e+2, -950503.4, -1020401.5, -2769.6636, -0.053054456, 0.010272669, -950393.75, -15704.981, 0.0000000000000000018107616, 10.002112, 9.99283 
3.150462e+2, 2.1461663e+2, -862984.94, -927329.8, -2257.574, -0.047731634, 0.01618745, -862905.8, -26147.36, 0.0000000000000000001198895, 10.001388, 9.992842 
3.150226e+2, 2.2460912e+2, -781755.0, -845687.2, -1998.5437, -0.04518254, 0.017895242, -781692.56, -42860.445, 0.0000000000000000000057675156, 10.000595, 9.9921055 
3.1499895e+2, 2.3460118e+2, -696471.5, -753837.56, -2275.5762, -0.045793608, 0.013660344, -696381.4, -55471.508, 0.0, 9.9997225, 9.992103 
3.1497532e+2, 2.4459308e+2, -614222.56, -668256.94, -2623.1348, -0.045949485, 0.01390842, -614095.5, -71106.14, 0.0, 9.998848, 9.9916725 
3.149516e+2, 2.5458482e+2, -528820.5, -576146.4, -2670.424, -0.04559713, 0.0184581, -528670.25, -83599.875, 0.0, 9.997973, 9.991687 
3.1492794e+2, 2.645763e+2, -445019.66, -488568.97, -2000.7025, -0.0455185, 0.01618432, -444927.94, -97774.29, 0.0, 9.997149, 9.991366 
3.149043e+2, 2.745676e+2, -357862.47, -395442.28, -1291.6587, -0.0458104, 0.004648298, -357818.13, -108579.37, 0.0, 9.996386, 9.991393 
3.148806e+2, 2.8455845e+2, -279499.9, -318471.4, -1983.1838, -0.045446094, 0.0042102383, -279399.25, -128071.09, 0.0, 9.99553, 9.990361 
3.148567e+2, 2.9454896e+2, -195368.77, -227038.52, -3083.463, -0.044288967, 0.015574458, -195071.34, -141649.67, 0.0, 9.994568, 9.990366 
3.1483293e+2, 3.045428e+2, -109375.625, -82085.914, -3031.841, -0.045239925, 0.021185026, -81753.14, -81753.14, 0.0, 9.993735, 9.99734 
3.1480908e+2, 3.1454018e+2, -118815.47, -86026.77, -3077.2405, -0.04859969, 0.018543236, -85740.47, -85740.47, 0.0, 9.993062, 9.997395 
3.2526803e+2, 1.2469583e+2, -1617974.0, -1721339.9, 1648.1732, -0.04129827, -0.0080440445, -1617947.8, 100033.18, 0.0000000000023454196, 10.008897, 9.99519 
3.2524318e+2, 1.3469101e+2, -1534768.6, -1633483.5, -1225.3562, -0.048332166, 0.01566421, -1534753.4, 85275.07, 0.0000000000015241749, 10.0080185, 9.994929 
3.2521832e+2, 1.4468542e+2, -1455225.1, -1551946.1, 235.26268, -0.06314585, -0.001482152, -1455224.6, 66858.74, 0.0000000000008233425, 10.0070915, 9.994261 
3.2519403e+2, 1.5467978e+2, -1371823.0, -1461141.5, 1370.2615, -0.05163894, 0.0076789386, -1371802.0, 52336.832, 0.00000000000035051592, 10.006103, 9.994253 
3.251697e+2, 1.6467392e+2, -1289127.9, -1374296.4, 1902.899, -0.047602292, 0.013610216, -1289085.4, 37111.063, 0.00000000000011265747, 10.005223, 9.993919 
3.2514542e+2, 1.7466788e+2, -1202187.6, -1281580.1, 1324.921, -0.051893614, 0.015070985, -1202165.5, 26090.45, 0.000000000000026661206, 10.004466, 9.993928 
3.25121e+2, 1.8466145e+2, -1119783.1, -1198654.8, 371.8988, -0.055530015, 0.013538336, -1119781.4, 10537.672, 0.000000000000004599458, 10.003727, 9.9932575 
3.2509643e+2, 1.9465464e+2, -1032300.94, -1105784.5, 1325.8511, -0.058507793, 0.0075910906, -1032277.0, 108.63443, 0.0000000000000005767878, 10.00301, 9.993254 
3.2507196e+2, 2.0464769e+2, -949674.1, -1020608.3, 1367.9327, -0.055595934, 0.009892267, -949647.75, -15193.687, 0.000000000000000052554126, 10.002192, 9.992773 
3.2504755e+2, 2.1464057e+2, -865262.44, -929101.4, 518.813, -0.04588314, 0.020771297, -865258.2, -28734.166, 0.0000000000000000034789587, 10.001258, 9.99278 
3.250231e+2, 2.2463308e+2, -784442.1, -846261.4, 490.9662, -0.041306745, 0.023773901, -784438.25, -45840.594, 0.00000000000000000016733108, 10.000377, 9.992167 
3.2499862e+2, 2.3462519e+2, -698350.4, -753978.7, 1291.7275, -0.042650033, 0.016631577, -698320.4, -57645.473, 0.0, 9.9995575, 9.992168 
3.2497412e+2, 2.4461707e+2, -614749.44, -668277.94, 1807.9707, -0.04491487, 0.014278558, -614688.44, -71934.21, 0.0, 9.998798, 9.991691 
3.2494962e+2, 2.546088e+2, -526650.2, -574897.06, 1878.1517, -0.04825596, 0.016567808, -526577.2, -81741.93, 0.0, 9.99811, 9.991701 
3.2492515e+2, 2.6460037e+2, -442633.22, -486730.88, 1739.1058, -0.04774063, 0.016179271, -442564.72, -95646.734, 0.0, 9.997279, 9.991425 
3.2490066e+2, 2.7459177e+2, -358817.63, -395207.6, 1296.3458, -0.04273972, 0.011347568, -358771.5, -109769.555, 0.0, 9.996287, 9.991453 
3.2487613e+2, 2.8458264e+2, -280990.44, -319932.47, 848.6998, -0.041636217, 0.010342328, -280971.94, -129880.57, 0.0, 9.995456, 9.990293 
3.2485142e+2, 2.9457298e+2, -192181.88, -226313.77, 1067.5269, -0.045175187, 0.012688931, -192148.52, -138962.19, 0.0, 9.994818, 9.990291 
3.2482678e+2, 3.0456674e+2, -105460.84, -81282.25, 1359.217, -0.047402095, 0.017138412, -81206.08, -81206.08, 0.0, 9.994046, 9.997241 
3.2480216e+2, 3.1456408e+2, -118521.58, -86985.95, 276.31796, -0.04790832, 0.022526275, -86983.53, -86983.53, 0.0, 9.993125, 9.997294 
3.3527672e+2, 1.247206e+2, -1620027.1, -1724878.5, -1751.2509, -0.061720114, -0.008777128, -1619997.9, 97740.28, 0.00000000005167391, 10.008867, 9.994961 
3.3525115e+2, 1.3471565e+2, -1536589.5, -1636660.5, -4464.388, -0.05017317, 0.022414675, -1536390.8, 83396.32, 0.00000000003357157, 10.007994, 9.994723 
3.352255e+2, 1.4471008e+2, -1453829.9, -1548671.8, -3387.5166, -0.05635137, 0.005972602, -1453709.0, 68132.88, 0.000000000018130754, 10.007074, 9.99449 
3.3520016e+2, 1.5470457e+2, -1370204.8, -1457613.0, -2306.4246, -0.048438355, 0.004234354, -1370143.9, 53751.973, 0.000000000007717037, 10.006094, 9.994494 
3.3517492e+2, 1.6469872e+2, -1290460.4, -1376942.5, -916.4529, -0.04858237, 0.006543264, -1290450.8, 35502.727, 0.0000000000024798213, 10.00522, 9.993739 
3.3514982e+2, 1.7469251e+2, -1203626.9, -1284442.5, -1449.1866, -0.0576354, 0.012533171, -1203600.9, 24413.572, 0.00000000000058676854, 10.004462, 9.993732 
3.3512464e+2, 1.8468612e+2, -1118252.8, -1195392.5, -2246.2434, -0.061245706, 0.01362844, -1118187.4, 11889.903, 0.00000000000010121049, 10.003723, 9.993479 
3.3509946e+2, 1.9467956e+2, -1030681.25, -1102333.3, -1306.6556, -0.05879382, 0.008214781, -1030657.44, 1484.1604, 0.000000000000012690283, 10.003006, 9.993488 
3.3507416e+2, 2.0467262e+2, -951303.25, -1023891.2, -2055.872, -0.053762205, 0.012201364, -951245.06, -17035.209, 0.0000000000000011561161, 10.002189, 9.992548 
3.350488e+2, 2.146653e+2, -866966.94, -932600.0, -2922.502, -0.045769695, 0.025975462, -866837.06, -30555.021, 0.000000000000000076521916, 10.001257, 9.992538 
3.350235e+2, 2.2465777e+2, -783043.06, -843370.7, -2528.6975, -0.04117824, 0.029423727, -782937.25, -44581.375, 0.0000000000000000036800285, 10.000378, 9.992362 
3.349982e+2, 2.3465008e+2, -696854.56, -750875.56, -1717.3728, -0.04045071, 0.020015907, -696800.06, -56368.816, 0.0, 9.9995575, 9.992378 
3.3497295e+2, 2.4464206e+2, -614482.7, -667715.44, -726.71533, -0.042728398, 0.0139039, -614472.75, -71963.2, 0.0, 9.998799, 9.991726 
3.3494774e+2, 2.5463375e+2, -526424.4, -574436.06, -642.4134, -0.048460927, 0.010673425, -526415.8, -81824.984, 0.0, 9.998111, 9.99173 
3.3492243e+2, 2.6462534e+2, -443258.16, -488023.4, -1918.0669, -0.04857753, 0.015664829, -443176.13, -96502.75, 0.0, 9.997279, 9.991333 
3.3489698e+2, 2.746168e+2, -359506.97, -396600.0, -2418.611, -0.042226765, 0.028846461, -359349.94, -110593.125, 0.0, 9.996285, 9.991356 
3.3487162e+2, 2.8460768e+2, -280295.97, -318499.8, -1569.6711, -0.040544786, 0.025947249, -280231.6, -129385.23, 0.0, 9.995458, 9.990388 
3.3484626e+2, 2.9459783e+2, -191342.17, -224718.55, -1278.4103, -0.04436442, 0.003190739, -191293.28, -138351.05, 0.0, 9.994825, 9.990395 
3.3482084e+2, 3.0459148e+2, -106946.5, -84573.375, -2049.048, -0.047102857, -0.0008158898, -84387.26, -84387.26, 0.0, 9.994056, 9.997008 
3.347953e+2, 3.145887e+2, -120148.375, -90516.445, -3188.3008, -0.048427526, 0.0156375, -90177.28, -90177.28, 0.0, 9.993133, 9.997046 
3.4528545e+2, 1.2474601e+2, -1622872.9, -1726033.8, -628.65045, -0.068408616, -0.006930636, -1622869.0, 94619.97, 0.00000000081250584, 10.008659, 9.994981 
3.45259e+2, 1.3474104e+2, -1539397.5, -1637519.6, -1487.9462, -0.051515277, 0.017590031, -1539374.9, 80163.22, 0.00000000052773436, 10.007776, 9.994767 
3.452325e+2, 1.4473552e+2, -1454878.9, -1548615.0, -17.229284, -0.05670538, 0.002012156, -1454878.9, 66713.44, 0.00000000028494548, 10.006974, 9.994537 
3.452063e+2, 1.547301e+2, -1367466.4, -1455713.1, -325.35745, -0.05395843, 0.005087056, -1367465.1, 56180.32, 0.0000000001212577, 10.006251, 9.994543 
3.4518018e+2, 1.6472429e+2, -1286789.1, -1374900.0, 1162.8773, -0.055729166, 0.0071900967, -1286773.9, 38928.91, 0.00000000003895854, 10.005455, 9.99376 
3.451543e+2, 1.7471805e+2, -1201837.3, -1283335.3, 2152.2104, -0.06246657, 0.007492311, -1201780.4, 25983.686, 0.000000000009216846, 10.00457, 9.993752 
3.4512833e+2, 1.847117e+2, -1118530.8, -1194999.9, 1568.9917, -0.06293639, 0.010323904, -1118498.5, 11327.971, 0.0000000000015895714, 10.003678, 9.993523 
3.4510237e+2, 1.947053e+2, -1033643.75, -1103240.5, 1119.7874, -0.056416575, 0.014874991, -1033625.75, -1736.1196, 0.00000000000019928297, 10.002777, 9.993533 
3.4507626e+2, 2.0469838e+2, -954306.44, -1025270.2, 483.05072, -0.05127817, 0.01955896, -954303.1, -20345.57, 0.0000000000000181529, 10.001977, 9.992553 
3.4505004e+2, 2.1469098e+2, -866404.94, -932269.7, 1417.0137, -0.04765035, 0.023683166, -866374.44, -30343.857, 0.0000000000000012013685, 10.001289, 9.99254 
3.450239e+2, 2.2468346e+2, -780172.5, -841352.56, 2207.2178, -0.045601707, 0.025490552, -780093.0, -41988.62, 0.00000000000000005776772, 10.000543, 9.992414 
3.449978e+2, 2.3467587e+2, -693894.8, -748804.9, 1850.1946, -0.045322698, 0.023440026, -693832.56, -53654.04, 0.0, 9.999729, 9.992432 
3.4497178e+2, 2.4466793e+2, -612888.44, -666333.2, 2398.2053, -0.045484, 0.019317219, -612781.06, -70524.875, 0.0, 9.9988785, 9.991778 
3.449458e+2, 2.5465965e+2, -527806.9, -574499.4, 2670.1504, -0.046223518, 0.012011231, -527654.7, -83317.49, 0.0, 9.997987, 9.991781 
3.4491965e+2, 2.6465118e+2, -446276.6, -491029.9, 911.507, -0.045155313, 0.015996465, -446258.03, -99837.75, 0.0, 9.997135, 9.991193 
3.4489328e+2, 2.7464256e+2, -359775.13, -398362.44, 24.183878, -0.04195174, 0.03173132, -359775.13, -111270.11, 0.0, 9.996333, 9.991208 
3.4486705e+2, 2.8463343e+2, -278298.72, -315147.34, 1603.856, -0.041035376, 0.028761903, -278229.03, -127634.79, 0.0, 9.995487, 9.990599 
3.4484097e+2, 2.946238e+2, -193051.06, -223007.5, 2852.7344, -0.04287047, 0.002782175, -192781.81, -140093.84, 0.0, 9.994595, 9.990618 
3.4481478e+2, 3.0461746e+2, -111551.23, -87078.04, 2962.7532, -0.043441467, -0.0058672386, -86724.48, -86724.48, 0.0, 9.993748, 9.99698 
3.447884e+2, 3.146146e+2, -122853.26, -92232.65, 3428.0361, -0.042436022, 0.00445865, -91853.57, -91853.57, 0.0, 9.99296, 9.997005 
3.5529414e+2, 1.2477205e+2, -1621786.0, -1722781.9, -4044.878, -0.062848315, -0.00271722, -1621624.3, 95609.22, 0.000000009469599, 10.0086155, 9.99522 
3.5526678e+2, 1.3476714e+2, -1537839.9, -1633728.4, -4775.2534, -0.052491248, 0.0021830427, -1537602.6, 81679.1, 0.0000000061492664, 10.0077505, 9.995034 
3.5523942e+2, 1.4476171e+2, -1455945.6, -1550448.5, -2693.7173, -0.06360128, -0.012265636, -1455868.9, 65466.258, 0.0000000033196064, 10.006959, 9.994418 
3.552124e+2, 1.5475638e+2, -1368578.8, -1457690.5, -2976.3652, -0.06754665, 0.010063512, -1368479.4, 54908.586, 0.0000000014124153, 10.006239, 9.994412 
3.551855e+2, 1.647506e+2, -1285451.0, -1371865.6, -2067.6445, -0.068585396, 0.014991434, -1285401.5, 40043.19, 0.0000000004537274, 10.005444, 9.99397 
3.551588e+2, 1.7474443e+2, -1200408.8, -1280152.6, -1120.6534, -0.066399775, 0.000009935847, -1200393.1, 27112.271, 0.00000000010733056, 10.0045595, 9.99397 
3.55132e+2, 1.8473816e+2, -1119526.3, -1196878.4, -1757.3667, -0.06081377, 0.0038627745, -1119486.4, 10080.825, 0.00000000001850869, 10.003671, 9.993396 
3.551052e+2, 1.947318e+2, -1034661.94, -1105248.4, -2198.6252, -0.051487006, 0.02744477, -1034593.5, -2963.4058, 0.0000000000023202033, 10.002773, 9.993396 
3.5507828e+2, 2.0472492e+2, -952677.94, -1021875.3, -2042.8845, -0.048180975, 0.031756837, -952617.7, -18919.955, 0.00000000000021133044, 10.001976, 9.992782 
3.550513e+2, 2.1471752e+2, -864687.6, -928707.06, -1090.7874, -0.051516227, 0.0139350705, -864669.06, -28898.879, 0.000000000000013984623, 10.001289, 9.992781 
3.5502437e+2, 2.2471006e+2, -780797.4, -842630.1, -768.33936, -0.054570418, 0.01212295, -780787.9, -42944.38, 0.0000000000000006723836, 10.000543, 9.992325 
3.549974e+2, 2.3470254e+2, -694597.56, -750247.44, -1137.5713, -0.057303593, 0.026991045, -694574.3, -54657.043, 0.0, 9.999729, 9.992331 
3.5497054e+2, 2.4469467e+2, -612387.25, -665284.7, -876.9646, -0.053188536, 0.030615143, -612372.75, -70378.28, 0.0, 9.9988785, 9.991847 
3.549438e+2, 2.5468644e+2, -527279.9, -573379.0, -621.44025, -0.041434772, 0.020749839, -527271.5, -83196.586, 0.0, 9.997986, 9.991856 
3.5491687e+2, 2.6467782e+2, -447641.38, -493824.56, -2075.5364, -0.037377622, 0.017084831, -447548.28, -101389.12, 0.0, 9.997135, 9.991 
3.5488963e+2, 2.7466884e+2, -361170.03, -401273.38, -2960.3015, -0.041987702, 0.019272745, -360952.72, -112705.62, 0.0, 9.996335, 9.991006 
3.548625e+2, 2.846598e+2, -275901.56, -310215.5, -1738.2587, -0.04320052, 0.018288773, -275813.72, -125478.19, 0.0, 9.995489, 9.990932 
3.548356e+2, 2.946507e+2, -190563.98, -217831.02, -488.69876, -0.040628187, 0.012224443, -190555.23, -138131.34, 0.0, 9.994595, 9.99097 
3.548086e+2, 3.0464467e+2, -110189.41, -84240.6, 34.779972, -0.036145132, 0.002812034, -84240.555, -84240.555, 0.0, 9.993748, 9.997171 
3.547815e+2, 3.146417e+2, -121468.16, -89446.664, 563.94135, -0.029417155, -0.011537689, -89436.734, -89436.734, 0.0, 9.992965, 9.997191 
3.6530235e+2, 1.2479876e+2, -1629136.6, -1724379.6, -828.1213, -0.06874981, -0.011064985, -1629129.5, 87841.92, 0.00000008268434, 10.008024, 9.995397 
3.6527437e+2, 1.3479409e+2, -1538718.3, -1631902.4, -1891.9031, -0.058112554, -0.002967503, -1538679.9, 80337.51, 0.00000005368276, 10.007588, 9.995234 
3.6524633e+2, 1.4478879e+2, -1455330.4, -1550049.6, -10.093196, -0.06703798, -0.014707894, -1455330.4, 65739.21, 0.000000028975498, 10.006992, 9.994425 
3.6521864e+2, 1.5478341e+2, -1368900.8, -1457803.9, 600.4949, -0.06831829, 0.0054431153, -1368896.8, 54225.965, 0.000000012326782, 10.00621, 9.994414 
3.6519092e+2, 1.6477773e+2, -1286190.8, -1371088.8, 949.42944, -0.067919746, 0.012036423, -1286180.1, 38998.816, 0.000000003959453, 10.00534, 9.994068 
3.6516327e+2, 1.7477171e+2, -1202467.6, -1279990.4, 1020.3366, -0.065547444, 0.0027811993, -1202454.3, 24783.844, 0.0000000009365381, 10.004365, 9.994071 
3.6513558e+2, 1.8476547e+2, -1122409.0, -1198447.0, 653.7526, -0.06109801, 0.0072744344, -1122403.4, 6896.09, 0.0000000001614897, 10.003477, 9.993379 
3.651079e+2, 1.9475904e+2, -1036050.56, -1106126.8, 1057.4875, -0.054423176, 0.026060961, -1036034.6, -4671.5728, 0.000000000020242613, 10.002684, 9.993375 
3.650802e+2, 2.0475224e+2, -951934.25, -1019465.0, 2031.8174, -0.051684067, 0.02911193, -951873.2, -18443.162, 0.0000000000018436379, 10.001935, 9.992961 
3.6505255e+2, 2.1474506e+2, -864129.44, -926328.25, 2585.435, -0.053330798, 0.013762865, -864022.1, -28521.795, 0.00000000000012199398, 10.001233, 9.992966 
3.6502486e+2, 2.2473767e+2, -782166.9, -844064.56, 2329.9238, -0.055149667, 0.012976094, -782079.3, -44506.324, 0.0000000000000058651187, 10.000479, 9.992253 
3.649971e+2, 2.3473006e+2, -695980.75, -751770.06, 2112.8472, -0.05711533, 0.027435593, -695900.9, -56253.17, 0.0, 9.999667, 9.992251 
3.649694e+2, 2.4472217e+2, -613862.0, -665645.9, 1790.0919, -0.05269617, 0.03219424, -613800.2, -72075.16, 0.0, 9.998757, 9.991876 
3.6494172e+2, 2.5471398e+2, -530559.56, -574580.44, 1716.6527, -0.041100953, 0.025125923, -530492.7, -86687.8, 0.0, 9.997741, 9.991887 
3.649139e+2, 2.647054e+2, -450478.47, -494792.5, 1881.5001, -0.037699834, 0.018496586, -450398.72, -104509.71, 0.0, 9.99692, 9.991033 
3.6488593e+2, 2.7469635e+2, -361091.4, -400837.22, 2842.5325, -0.04359431, 0.011201473, -360889.16, -112911.8, 0.0, 9.99632, 9.991037 
3.6485803e+2, 2.846873e+2, -274666.03, -309783.2, 2962.1338, -0.045248076, 0.009764828, -274417.9, -124352.15, 0.0, 9.995576, 9.990914 
3.648302e+2, 2.9467827e+2, -189395.31, -217446.11, 1350.7485, -0.04211266, 0.013608665, -189330.42, -137176.88, 0.0, 9.994678, 9.9909525 
3.6480236e+2, 3.0467233e+2, -109181.69, -82756.805, 202.41278, -0.03607931, 0.008777432, -82755.26, -82755.26, 0.0, 9.993769, 9.997261 
3.647744e+2, 3.1466946e+2, -122280.85, -88786.59, 32.3403, -0.026738891, -0.0072871693, -88786.56, -88786.56, 0.0, 9.992859, 9.997287 
3.7531024e+2, 1.2482612e+2, -1628480.0, -1722723.0, -2575.3682, -0.08458217, -0.029914666, -1628409.8, 88292.89, 0.0000005532481, 10.008013, 9.995512 
3.7528187e+2, 1.3482182e+2, -1538040.5, -1630010.1, -3487.547, -0.067863055, 0.0013151176, -1537908.4, 80836.836, 0.00000035914545, 10.007569, 9.99537 
3.7525332e+2, 1.448167e+2, -1454831.1, -1548423.0, -2878.9734, -0.06728225, -0.00652619, -1454742.6, 66053.23, 0.00000019382824, 10.006968, 9.994545 
3.7522495e+2, 1.5481122e+2, -1368386.0, -1456163.3, -2304.936, -0.057267256, -0.008156204, -1368325.6, 54524.35, 0.00000008245099, 10.0061865, 9.9945345 
3.7519637e+2, 1.6480559e+2, -1286504.4, -1371278.0, -2650.8696, -0.05477728, -0.0007291868, -1286421.5, 38484.074, 0.000000026481976, 10.005321, 9.994061 
3.751677e+2, 1.7479981e+2, -1202670.1, -1280164.6, -2594.727, -0.06026753, 0.015366089, -1202583.4, 24379.236, 0.0000000062635124, 10.0043545, 9.994061 
3.7513903e+2, 1.8479362e+2, -1121833.5, -1197157.8, -2275.4731, -0.06370361, 0.01988785, -1121764.9, 7258.866, 0.0000000010799891, 10.003474, 9.993465 
3.7511048e+2, 1.9478701e+2, -1035414.94, -1104775.8, -1855.5206, -0.06494498, 0.011122858, -1035365.4, -4276.556, 0.00000000013537126, 10.002683, 9.993464 
3.7508205e+2, 2.0478031e+2, -950998.4, -1017507.06, -535.61395, -0.061521858, 0.012287059, -950994.06, -17839.217, 0.000000000012328863, 10.001935, 9.993093 
3.750538e+2, 2.1477352e+2, -863200.7, -924372.0, 17.464539, -0.053076353, 0.023186887, -863200.7, -27979.096, 0.0000000000008157841, 10.001232, 9.993096 
3.7502542e+2, 2.2476621e+2, -782543.25, -844813.94, -641.6286, -0.04740294, 0.02780203, -782536.6, -45243.293, 0.00000000000003921943, 10.000479, 9.992199 
3.749969e+2, 2.3475838e+2, -696363.56, -752563.56, -861.65686, -0.044729024, 0.024639111, -696350.4, -56980.145, 0.000000000000000000006929764, 9.999668, 9.992194 
3.7496823e+2, 2.447504e+2, -613946.8, -665796.7, -1951.7098, -0.044025496, 0.023991166, -613873.44, -72425.016, 0.0000000000000000000002423796, 9.998757, 9.991862 
3.7493938e+2, 2.5474226e+2, -530658.56, -574732.2, -2051.111, -0.04543832, 0.025110466, -530563.4, -87035.66, 0.0, 9.997739, 9.991875 
3.7491074e+2, 2.6473382e+2, -448568.8, -490807.78, -357.00043, -0.04635281, 0.020288408, -448565.78, -102955.49, 0.0, 9.99692, 9.9913025 
3.748822e+2, 2.7472502e+2, -359083.34, -396710.0, 658.91, -0.046804488, 0.0077216853, -359071.8, -111375.66, 0.0, 9.996323, 9.991316 
3.748536e+2, 2.847159e+2, -277378.03, -315483.38, -354.509, -0.047239564, 0.0031968274, -277374.75, -127589.4, 0.0, 9.995581, 9.99052 
3.7482482e+2, 2.9470646e+2, -192222.8, -223433.66, -2044.1964, -0.047651146, 0.0063148784, -192089.48, -140211.81, 0.0, 9.994683, 9.990537 
3.7479606e+2, 3.0470037e+2, -109235.99, -83021.55, -3296.32, -0.043882824, 0.0120371375, -82613.414, -82613.414, 0.0, 9.993776, 9.997236 
3.747672e+2, 3.146977e+2, -122247.05, -88870.266, -3483.1863, -0.03541261, 0.01929654, -88510.64, -88510.64, 0.0, 9.992866, 9.997274 
3.853183e+2, 1.2485454e+2, -1621838.5, -1719474.1, 1486.1123, -0.102006204, -0.034363978, -1621815.9, 94607.93, 0.0000029192024, 10.008459, 9.995511 
3.8528934e+2, 1.3485026e+2, -1537453.8, -1629521.4, -115.69612, -0.07776289, -0.0017666129, -1537453.6, 81012.58, 0.0000018948215, 10.007595, 9.995386 
3.852601e+2, 1.4484525e+2, -1458052.0, -1548630.5, -749.1185, -0.070764415, -0.006393502, -1458045.8, 62470.063, 0.0000010225369, 10.006684, 9.994665 
3.8523087e+2, 1.548399e+2, -1374363.4, -1457687.9, -209.93733, -0.057415377, -0.008118344, -1374362.9, 48205.926, 0.0000004349407, 10.005714, 9.994657 
3.8520148e+2, 1.6483434e+2, -1292545.1, -1373915.4, -218.48706, -0.05463458, -0.0006543849, -1292544.5, 32079.184, 0.00000013969013, 10.00489, 9.994087 
3.8517195e+2, 1.748286e+2, -1204435.0, -1280745.5, 42.578953, -0.06311626, 0.01587075, -1204435.0, 22245.547, 0.000000033038678, 10.004217, 9.994084 
3.8514248e+2, 1.8482248e+2, -1119785.5, -1194340.8, 995.9608, -0.068465084, 0.018587627, -1119772.1, 8968.705, 0.0000000056966374, 10.0035305, 9.993626 
3.8511315e+2, 1.9481598e+2, -1032114.3, -1101326.3, 1932.668, -0.07049201, 0.0053859744, -1032060.4, -1255.7141, 0.0000000007140435, 10.002824, 9.993626 
3.8508394e+2, 2.0480935e+2, -950426.0, -1017405.25, 2599.79, -0.06619979, 0.007886632, -950325.2, -17455.346, 0.00000000006503118, 10.001977, 9.993073 
3.8505486e+2, 2.1480262e+2, -867009.75, -926427.7, 2001.4398, -0.05503908, 0.026578419, -866942.4, -32006.164, 0.000000000004303039, 10.000977, 9.993076 
3.8502568e+2, 2.2479537e+2, -788619.7, -846641.5, 1239.9785, -0.04693531, 0.03181708, -788593.2, -51585.6, 0.00000000000020687176, 10.0000105, 9.992297 
3.849963e+2, 2.3478755e+2, -704155.3, -755188.3, 2202.7317, -0.04215553, 0.021343434, -704060.4, -64976.324, 0.00000000000000000020104626, 9.999082, 9.992294 
3.849668e+2, 2.4477957e+2, -619856.94, -669163.6, 2030.3629, -0.044216014, 0.01787383, -619773.5, -78611.24, 0.000000000000000000007029948, 9.99837, 9.991815 
3.8493714e+2, 2.5477144e+2, -528674.44, -574317.94, 1650.7233, -0.053741537, 0.021171175, -528614.8, -85372.99, 0.0, 9.997893, 9.991823 
3.849077e+2, 2.64763e+2, -444549.47, -488109.28, 2243.5095, -0.05452578, 0.019002665, -444434.22, -99110.06, 0.0, 9.997157, 9.991368 
3.8487846e+2, 2.7475432e+2, -361132.03, -396895.22, 1676.0679, -0.045793805, 0.0095732305, -361053.66, -113644.64, 0.0, 9.996142, 9.991386 
3.8484907e+2, 2.8474516e+2, -283020.0, -319609.28, 769.6351, -0.042392604, 0.00488928, -283003.8, -133505.31, 0.0, 9.99525, 9.990394 
3.8481945e+2, 2.9473552e+2, -195826.56, -226640.7, 1273.1094, -0.044853404, 0.00423645, -195774.05, -144181.52, 0.0, 9.994494, 9.990403 
3.8478985e+2, 3.047293e+2, -109789.19, -85353.49, 813.42896, -0.043691386, 0.009941679, -85326.445, -85326.445, 0.0, 9.993822, 9.997049 
3.8476023e+2, 3.147265e+2, -117897.97, -88849.13, -710.46063, -0.03845268, 0.02141882, -88831.766, -88831.766, 0.0, 9.993248, 9.997088 
3.9532655e+2, 1.2488399e+2, -1623406.9, -1721419.6, -1940.3029, -0.12053656, -0.025762016, -1623368.5, 92766.65, 0.000012531762, 10.008405, 9.995402 
3.9529684e+2, 1.3487943e+2, -1538714.5, -1631161.1, -3336.674, -0.08778427, -0.011570163, -1538594.3, 79586.05, 0.0000081336, 10.007555, 9.995292 
3.952667e+2, 1.4487445e+2, -1457569.3, -1547039.0, -4329.6455, -0.07722369, -0.013319323, -1457360.3, 62869.395, 0.0000043890395, 10.006659, 9.994782 
3.952365e+2, 1.5486942e+2, -1373622.9, -1455937.8, -3817.1233, -0.06783777, 0.0045847036, -1373446.3, 48833.34, 0.0000018668253, 10.005705, 9.994777 
3.9520624e+2, 1.6486394e+2, -1292219.1, -1373149.4, -2702.5603, -0.066453606, 0.011105534, -1292128.9, 32204.803, 0.0000005995586, 10.004889, 9.994138 
3.9517605e+2, 1.7485802e+2, -1204162.5, -1280014.6, -2420.3445, -0.07352775, 0.004903344, -1204085.4, 22306.658, 0.00000014180438, 10.004211, 9.994134 
3.9514595e+2, 1.84852e+2, -1118264.5, -1191003.0, -1584.7994, -0.07522865, 0.0043513766, -1118230.0, 10221.29, 0.000000024450705, 10.003523, 9.993854 
3.9511597e+2, 1.948459e+2, -1030576.0, -1097958.3, -673.1964, -0.071254164, 0.008641662, -1030569.25, -58.132782, 0.0000000030648393, 10.002816, 9.993855 
3.950859e+2, 2.0483935e+2, -951666.75, -1019833.94, -1087.9884, -0.06596598, 0.015360704, -951649.4, -19073.74, 0.00000000027913746, 10.001971, 9.992908 
3.9505583e+2, 2.1483235e+2, -868225.25, -928908.25, -1692.7723, -0.05923519, 0.023938887, -868178.06, -33533.324, 0.00000000001847093, 10.000977, 9.992905 
3.950256e+2, 2.2482508e+2, -786829.3, -842952.2, -2184.349, -0.053690024, 0.02524393, -786744.44, -50028.258, 0.0000000000008880364, 10.000011, 9.992545 
3.949953e+2, 2.3481756e+2, -702315.25, -751381.6, -1209.7672, -0.04940995, 0.01764731, -702285.44, -63495.75, 0.000000000000000004402075, 9.999083, 9.99255 
3.9496508e+2, 2.4480966e+2, -620444.4, -670376.75, 296.09607, -0.053336814, 0.013819737, -620442.6, -79575.72, 0.00000000000000000015389045, 9.998373, 9.991728 
3.949349e+2, 2.548014e+2, -529272.8, -575606.25, -55.008816, -0.06609786, 0.013150206, -529272.75, -86324.94, 0.0, 9.997898, 9.991731 
3.9490476e+2, 2.647929e+2, -445559.0, -490247.47, -1511.9047, -0.062200066, 0.014612121, -445507.9, -100476.75, 0.0, 9.99716, 9.991218 
3.9487466e+2, 2.7478415e+2, -362197.53, -399073.13, -2157.9514, -0.04033834, 0.017139498, -362071.7, -114955.05, 0.0, 9.996142, 9.991235 
3.9484444e+2, 2.84775e+2, -281893.66, -317237.78, -2108.782, -0.03029364, 0.015356936, -281768.3, -132562.4, 0.0, 9.995249, 9.990553 
3.9481404e+2, 2.947655e+2, -194583.53, -224117.6, -1549.1104, -0.033108532, 0.007713427, -194502.5, -143203.83, 0.0, 9.994498, 9.990572 
3.947838e+2, 3.0475906e+2, -112217.28, -90624.125, -1334.9613, -0.03486592, 0.0018361484, -90541.91, -90541.91, 0.0, 9.993834, 9.996679 
3.9475352e+2, 3.147557e+2, -120254.38, -94230.83, -2869.2349, -0.035407618, -0.0034661342, -93918.234, -93918.234, 0.0, 9.993271, 9.996705 
4.0533462e+2, 1.2491404e+2, -1632185.5, -1724583.5, -165.16595, -0.120015204, -0.019579787, -1632185.1, 83655.586, 0.00004485904, 10.007753, 9.9955015 
4.0530407e+2, 1.3490951e+2, -1544894.5, -1632937.6, -19.740997, -0.091572255, -0.0132529065, -1544894.5, 72990.875, 0.00002911354, 10.007074, 9.9954 
4.0527323e+2, 1.4490458e+2, -1459731.0, -1547614.8, -429.52313, -0.08393448, -0.015973218, -1459728.9, 60205.18, 0.000015709626, 10.006485, 9.9948225 
4.052422e+2, 1.5489961e+2, -1369203.8, -1453307.1, -520.6727, -0.07850284, 0.0028312218, -1369200.6, 52782.914, 0.000006681798, 10.00598, 9.994818 
4.052112e+2, 1.6489421e+2, -1285831.3, -1368330.5, 255.59875, -0.07678352, 0.00845317, -1285830.5, 38206.316, 0.0000021459712, 10.005244, 9.9942875 
4.0518025e+2, 1.7488842e+2, -1202271.5, -1277375.3, 1233.2524, -0.07900541, -0.0007117893, -1202251.3, 23842.625, 0.00000050756734, 10.004261, 9.994285 
4.0514934e+2, 1.8488249e+2, -1121269.9, -1192215.3, 1718.8789, -0.07641434, -0.000031530282, -1121228.3, 6923.8193, 0.00000008752133, 10.003303, 9.993873 
4.0511858e+2, 1.9487648e+2, -1036976.44, -1100827.6, 1071.7439, -0.06874255, 0.010088297, -1036958.44, -6747.185, 0.000000010971236, 10.002364, 9.9938755 
4.050877e+2, 2.0486994e+2, -957289.5, -1022377.7, 561.72595, -0.06528539, 0.01577204, -957284.6, -25008.953, 0.0000000009993062, 10.001575, 9.992923 
4.0505672e+2, 2.1486287e+2, -868552.3, -928876.25, 1318.87, -0.06621101, 0.015951404, -868523.5, -34178.14, 0.00000000006613187, 10.00094, 9.992919 
4.0502563e+2, 2.2485565e+2, -782605.8, -839842.0, 849.9355, -0.06545233, 0.016696718, -782593.2, -46176.918, 0.0000000000031798247, 10.000249, 9.992638 
4.0499446e+2, 2.3484829e+2, -695477.5, -746982.9, 586.5307, -0.06293342, 0.016920244, -695470.9, -56982.7, 0.0000000000000000688154, 9.999497, 9.992645 
4.0496346e+2, 2.4484046e+2, -617210.7, -668960.3, 2010.6735, -0.062352657, 0.0144118965, -617132.7, -76567.82, 0.0000000000000000024051838, 9.998595, 9.991714 
4.0493265e+2, 2.5483212e+2, -534601.8, -578338.4, 2256.146, -0.06397133, 0.008141519, -534485.75, -91839.336, 0.0, 9.997536, 9.991715 
4.049017e+2, 2.6482353e+2, -453798.34, -495697.13, 840.4651, -0.058018375, 0.008682411, -453781.5, -109050.9, 0.0, 9.9966545, 9.991085 
4.0487066e+2, 2.7481467e+2, -365623.38, -402214.4, 340.18942, -0.043706283, 0.015342247, -365620.22, -118803.055, 0.0, 9.995966, 9.9911 
4.048396e+2, 2.8480557e+2, -281590.88, -315827.97, 528.6915, -0.03580046, 0.016521472, -281582.72, -132676.39, 0.0, 9.99521, 9.9906645 
4.0480846e+2, 2.947962e+2, -195273.13, -223120.9, 714.7205, -0.03500759, 0.010494817, -195254.78, -144256.98, 0.0, 9.994389, 9.990689 
4.0477744e+2, 3.0478978e+2, -117208.81, -92622.39, 2257.6843, -0.032761566, -0.00011206803, -92416.79, -92416.79, 0.0, 9.993468, 9.996715 
4.0474647e+2, 3.1478634e+2, -131891.56, -99458.09, 3958.5605, -0.028940767, -0.01703254, -98981.93, -98981.93, 0.0, 9.992451, 9.996735 
4.1534257e+2, 1.2494472e+2, -1630774.5, -1720747.3, -2855.1492, -0.102367595, -0.014264773, -1630684.0, 84856.21, 0.0001357749, 10.007714, 9.995777 
4.153112e+2, 1.3494049e+2, -1543296.0, -1628906.8, -2574.202, -0.08991132, -0.0076208124, -1543218.8, 74363.16, 0.00008811505, 10.007045, 9.995686 
4.1527963e+2, 1.4493564e+2, -1460380.3, -1548280.8, -2310.3323, -0.0908745, -0.014942814, -1460319.5, 59310.03, 0.000047546542, 10.006459, 9.994787 
4.1524807e+2, 1.5493047e+2, -1369876.1, -1453996.8, -2368.824, -0.0894281, -0.012184302, -1369809.5, 51871.26, 0.000020223571, 10.005952, 9.9947815 
4.1521636e+2, 1.6492517e+2, -1284463.0, -1364917.0, -3361.6814, -0.08575799, -0.0072355582, -1284322.8, 39410.258, 0.0000064954993, 10.0052185, 9.994529 
4.1518447e+2, 1.7491977e+2, -1200741.8, -1273860.8, -2435.526, -0.07986933, -0.0011609776, -1200660.8, 25125.506, 0.0000015364569, 10.004246, 9.994527 
4.151527e+2, 1.8491392e+2, -1122653.6, -1194885.8, -1769.9646, -0.07235132, 0.0047819694, -1122610.3, 5233.493, 0.00000026496838, 10.003295, 9.9936905 
4.15121e+2, 1.9490767e+2, -1038301.75, -1103506.5, -2400.8315, -0.06310177, 0.009749619, -1038213.44, -8308.139, 0.000000033220672, 10.002363, 9.9936905 
4.150893e+2, 2.0490108e+2, -955918.8, -1019542.25, -1762.625, -0.06419202, 0.009429037, -955870.06, -23899.797, 0.0000000030265355, 10.001576, 9.993112 
4.1505757e+2, 2.1489412e+2, -867157.44, -925970.94, -996.8806, -0.075959966, 0.0027548599, -867140.56, -33102.15, 0.00000000020034616, 10.000941, 9.9931135 
4.1502568e+2, 2.24887e+2, -783061.75, -840769.44, -1902.1022, -0.08222568, 0.006241487, -782999.1, -46890.695, 0.000000000009636878, 10.00025, 9.99257 
4.1499376e+2, 2.3487972e+2, -695928.1, -747942.56, -2158.8582, -0.08279136, 0.019242309, -695838.7, -57658.656, 0.0000000000000007946489, 9.9995, 9.992576 
4.1496196e+2, 2.4487188e+2, -616777.0, -668079.06, -1896.9192, -0.07116103, 0.019742025, -616707.0, -76450.36, 0.000000000000000027769294, 9.998596, 9.99177 
4.1493037e+2, 2.5486353e+2, -534185.44, -577419.7, -1675.8789, -0.046856426, 0.0062439716, -534120.56, -91782.44, 0.0, 9.997534, 9.9917755 
4.148985e+2, 2.6485485e+2, -454655.56, -497393.25, -1724.6345, -0.041716844, 0.0010966832, -454586.1, -110163.02, 0.0, 9.996653, 9.990967 
4.148665e+2, 2.7484587e+2, -366435.44, -403905.84, -2215.6277, -0.056568187, 0.003606441, -366304.88, -119793.65, 0.0, 9.995968, 9.99098 
4.148346e+2, 2.8483674e+2, -281127.16, -314948.84, -2568.9539, -0.06004142, 0.007860867, -280933.13, -132332.55, 0.0, 9.995214, 9.990719 
4.148027e+2, 2.9482755e+2, -194771.23, -222189.69, -2407.7742, -0.05159293, 0.012656137, -194561.4, -143870.67, 0.0, 9.994394, 9.9907465 
4.1477087e+2, 3.048214e+2, -113808.38, -85596.984, -1623.2965, -0.037902992, 0.004740494, -85503.89, -85503.89, 0.0, 9.99347, 9.997191 
4.1473898e+2, 3.148184e+2, -128556.336, -92355.875, 150.31998, -0.018633708, -0.018081143, -92355.25, -92355.25, 0.0, 9.992444, 9.997221 
4.2535013e+2, 1.2497619e+2, -1631881.3, -1719658.0, 1009.9856, -0.10817692, -0.017417146, -1631869.6, 83362.19, 0.00035082738, 10.007564, 9.99592 
4.253181e+2, 1.3497213e+2, -1543780.5, -1627468.6, 428.6281, -0.0962454, -0.008801729, -1543778.4, 73493.38, 0.00022768496, 10.006934, 9.995833 
4.252859e+2, 1.4496744e+2, -1462523.4, -1547584.6, 861.81586, -0.09390534, -0.014506508, -1462514.6, 56803.125, 0.0001228659, 10.006232, 9.994941 
4.2525378e+2, 1.5496238e+2, -1376060.6, -1455261.0, 2096.5232, -0.088345915, -0.0165972, -1376005.1, 45362.64, 0.000052266085, 10.005449, 9.994935 
4.2522135e+2, 1.6495715e+2, -1292045.9, -1368323.6, 199.79027, -0.0831543, -0.011981738, -1292045.4, 31373.842, 0.00001678997, 10.004684, 9.994551 
4.251886e+2, 1.7495182e+2, -1205076.9, -1275677.8, -475.81854, -0.07825159, -0.0014909535, -1205073.8, 20398.158, 0.000003972505, 10.003932, 9.994552 
4.2515594e+2, 1.8494599e+2, -1124252.1, -1195952.4, 67.392075, -0.072706744, 0.0045118853, -1124252.0, 3277.3225, 0.00000068530704, 10.003193, 9.993664 
4.251234e+2, 1.9493967e+2, -1036934.5, -1103128.5, 545.988, -0.06650093, 0.0050204853, -1036930.0, -7338.4927, 0.00000008596078, 10.002463, 9.993663 
4.2509085e+2, 2.0493306e+2, -954543.3, -1017880.1, 1492.6472, -0.0668984, 0.0026458842, -954508.2, -22851.893, 0.000000007836224, 10.001622, 9.993198 
4.2505834e+2, 2.1492621e+2, -870507.56, -926573.8, 1456.131, -0.074168816, -0.0036128317, -870469.75, -36746.33, 0.0000000005191636, 10.000663, 9.993203 
4.2502576e+2, 2.2491907e+2, -791379.9, -846290.9, -189.24162, -0.077372886, 0.00077080406, -791379.25, -55585.67, 0.000000000025000514, 9.999741, 9.992436 
4.24993e+2, 2.3491167e+2, -706197.5, -754411.6, -960.1269, -0.07636125, 0.015200814, -706178.4, -68311.89, 0.0000000000000068380394, 9.9988575, 9.992441 
4.249603e+2, 2.4490382e+2, -625491.0, -671225.4, -1506.3817, -0.06548626, 0.017047305, -625441.44, -85498.25, 0.00000000000000023892724, 9.997949, 9.991865 
4.2492765e+2, 2.548956e+2, -541032.9, -579615.8, -1003.19214, -0.04418275, 0.0048245317, -541006.8, -98983.21, 0.0, 9.997011, 9.991874 
4.2489505e+2, 2.6488695e+2, -458465.63, -498998.13, 1492.5944, -0.042077105, -0.0034585372, -458410.75, -114302.555, 0.0, 9.996377, 9.990987 
4.2486247e+2, 2.7487788e+2, -364885.66, -402917.44, 2106.5889, -0.06028132, -0.008693149, -364769.3, -118572.53, 0.0, 9.996059, 9.991 
4.2482987e+2, 2.8486878e+2, -277765.1, -313967.16, 584.8845, -0.065641336, -0.002701696, -277755.66, -129469.32, 0.0, 9.995466, 9.99066 
4.2479715e+2, 2.9485962e+2, -192131.52, -221559.25, -150.50623, -0.05733982, 0.013715585, -192130.75, -141754.42, 0.0, 9.9945965, 9.990688 
4.247644e+2, 3.0485365e+2, -107829.41, -80441.74, -1078.6305, -0.04447798, 0.01223773, -80399.33, -80399.33, 0.0, 9.993775, 9.9973955 
4.2473164e+2, 3.1485084e+2, -118649.57, -85238.336, -1452.558, -0.026749004, -0.009471618, -85175.305, -85175.305, 0.0, 9.993015, 9.997434 
4.3535742e+2, 1.2500843e+2, -1632106.0, -1719585.3, -1403.527, -0.13424735, -0.028307393, -1632083.5, 82831.91, 0.00078514614, 10.007545, 9.995931 
4.3532488e+2, 1.3500443e+2, -1543981.4, -1627291.5, -1875.5353, -0.10951924, -0.015908876, -1543939.1, 73015.82, 0.00050963036, 10.006912, 9.995853 
4.3529218e+2, 1.4499998e+2, -1460520.0, -1542965.4, -2019.0995, -0.09338162, -0.014414453, -1460470.5, 58528.113, 0.00027507497, 10.006213, 9.995261 
4.3525934e+2, 1.5499529e+2, -1373911.0, -1450553.4, -843.08075, -0.076294236, -0.01131382, -1373901.8, 47143.273, 0.00011705333, 10.00544, 9.995256 
4.3522614e+2, 1.6499014e+2, -1293404.8, -1371002.4, -2619.5889, -0.06997576, -0.0068023554, -1293316.4, 29779.4, 0.000037619757, 10.004681, 9.994368 
4.3519256e+2, 1.7498456e+2, -1206356.0, -1278312.0, -3266.2083, -0.07439375, -0.0017583137, -1206208.0, 18942.85, 0.000008906541, 10.003934, 9.994369 
4.351591e+2, 1.8497865e+2, -1123366.0, -1194169.4, -2616.75, -0.0772775, -0.00046475625, -1123269.4, 3939.6077, 0.0000015378395, 10.003197, 9.99378 
4.3512574e+2, 1.949724e+2, -1036034.1, -1101310.6, -2154.3083, -0.07860003, -0.0038731217, -1035963.1, -6692.9434, 0.00000019312868, 10.002466, 9.993782 
4.3509242e+2, 2.0496586e+2, -954615.6, -1018067.25, -2059.4307, -0.073159546, -0.0044995276, -954548.8, -23214.676, 0.000000017634331, 10.001625, 9.99318 
4.3505916e+2, 2.1495907e+2, -870562.7, -926747.5, -2098.0024, -0.060957145, -0.003226268, -870484.44, -37083.62, 0.0000000011708853, 10.000667, 9.993185 
4.3502575e+2, 2.2495182e+2, -792769.1, -849222.75, -3451.5571, -0.051073648, 0.0001600774, -792558.9, -57086.72, 0.000000000056553692, 9.999744, 9.992231 
4.349922e+2, 2.349441e+2, -707591.75, -757333.6, -4206.6494, -0.043538455, 0.0046974747, -707238.5, -69690.484, 0.000000000000044721503, 9.99886, 9.992237 
4.3495846e+2, 2.4493623e+2, -624566.5, -669282.94, -4966.236, -0.04539052, 0.0063045947, -624021.56, -84396.41, 0.000000000000001562477, 9.997948, 9.991994 
4.3492454e+2, 2.5492823e+2, -540115.7, -577641.44, -4470.219, -0.056654565, 0.0040008635, -539590.5, -97887.086, 0.0, 9.997008, 9.992006 
4.3489122e+2, 2.649197e+2, -457310.28, -496605.63, 346.30463, -0.059550636, -0.004862777, -457307.22, -113520.625, 0.0, 9.99638, 9.991146 
4.3485862e+2, 2.7491072e+2, -363622.56, -400441.7, 963.5171, -0.054106977, -0.02157777, -363597.38, -117722.91, 0.0, 9.996068, 9.991162 
4.3482548e+2, 2.849016e+2, -278909.66, -316569.1, -2686.0051, -0.051444136, -0.015253429, -278719.06, -130754.85, 0.0, 9.995478, 9.990473 
4.347918e+2, 2.9489237e+2, -193255.23, -224179.1, -3462.5752, -0.051475294, 0.013582808, -192872.27, -142816.88, 0.0, 9.994611, 9.990499 
4.3475813e+2, 3.048863e+2, -108266.6, -81805.12, -4017.7222, -0.05283585, 0.022704296, -81208.54, -81208.54, 0.0, 9.993797, 9.997288 
4.347244e+2, 3.148835e+2, -118906.61, -86508.734, -4451.085, -0.05555074, 0.009973787, -85908.336, -85908.336, 0.0, 9.993049, 9.997327 
4.4536513e+2, 1.2504187e+2, -1624539.0, -1715966.6, 3832.1902, -0.14038473, -0.03296852, -1624378.6, 90208.89, 0.0015538043, 10.008064, 9.995917 
4.453319e+2, 1.3503788e+2, -1540490.8, -1625487.9, 3403.458, -0.110025704, -0.018443035, -1540354.6, 76272.19, 0.0010089569, 10.007142, 9.995857 
4.4529846e+2, 1.4503351e+2, -1457895.6, -1540933.5, 2557.3162, -0.09183181, -0.015242872, -1457816.9, 60853.094, 0.0005448942, 10.006354, 9.995324 
4.452649e+2, 1.5502885e+2, -1369673.6, -1447753.5, 1902.0624, -0.078733616, -0.014302049, -1369627.3, 51088.574, 0.00023205215, 10.005691, 9.995321 
4.45231e+2, 1.6502373e+2, -1288119.9, -1368595.8, -89.85698, -0.0728977, -0.009397641, -1288119.8, 34646.59, 0.00007466019, 10.005042, 9.994351 
4.4519672e+2, 1.7501818e+2, -1199443.6, -1275124.6, 409.01578, -0.074450724, -0.0015967377, -1199441.5, 25379.906, 0.000017702305, 10.004406, 9.994351 
4.4516253e+2, 1.8501222e+2, -1116372.3, -1190792.9, 835.1472, -0.07495271, -0.002326852, -1116362.9, 10516.878, 0.000003062777, 10.003669, 9.993776 
4.451284e+2, 1.9500591e+2, -1030697.8, -1098719.6, 392.22882, -0.07436852, -0.012318149, -1030695.56, -1754.1718, 0.0000003857046, 10.002824, 9.99378 
4.4509423e+2, 2.0499934e+2, -950560.44, -1016969.8, -802.8327, -0.0694275, -0.0117356405, -950550.75, -19545.129, 0.00000003535121, 10.001932, 9.993102 
4.4505998e+2, 2.1499257e+2, -866247.7, -925505.1, -1323.3213, -0.05991455, -0.0015397441, -866218.2, -33145.91, 0.000000002359298, 10.000992, 9.993109 
4.4502565e+2, 2.2498521e+2, -787707.5, -847310.0, -1990.9263, -0.050964843, -0.00028213236, -787641.06, -52496.715, 0.000000000114745775, 10.000108, 9.992182 
4.4499126e+2, 2.3497732e+2, -701694.9, -754994.3, -1586.3168, -0.042708267, -0.008979314, -701647.7, -64425.97, 0.00000000000022836846, 9.99928, 9.992189 
4.449567e+2, 2.4496938e+2, -615331.4, -665655.9, -2065.7556, -0.048126485, -0.008435765, -615246.75, -75947.1, 0.0000000000000079783024, 9.99861, 9.991917 
4.4492197e+2, 2.549614e+2, -524591.6, -570958.6, -3156.9297, -0.06748484, 0.00050488155, -524377.7, -82999.89, 0.0, 9.998099, 9.991933 
4.4488788e+2, 2.6495302e+2, -446525.03, -488779.63, 150.68475, -0.066054635, -0.0029299445, -446524.47, -103064.71, 0.0, 9.996998, 9.99138 
4.448544e+2, 2.7494425e+2, -373041.53, -402338.28, 1353.5681, -0.043437302, -0.020133613, -372979.13, -127433.83, 0.0, 9.995302, 9.991399 
4.448205e+2, 2.8493512e+2, -298615.5, -327919.7, -773.6064, -0.03413012, -0.017490696, -298595.1, -150960.08, 0.0, 9.994202, 9.990309 
4.447861e+2, 2.949257e+2, -207435.14, -232860.8, -1329.2075, -0.038370587, 0.00440653, -207365.84, -157637.33, 0.0, 9.993712, 9.9903345 
4.4475168e+2, 3.049196e+2, -117098.88, -85978.5, -1268.6976, -0.045787264, 0.016010761, -85926.86, -85926.86, 0.0, 9.993181, 9.997295 
4.447172e+2, 3.1491694e+2, -125025.56, -89373.98, -806.4161, -0.05650164, 0.01548256, -89355.74, -89355.74, 0.0, 9.992619, 9.997334 
4.5537332e+2, 1.2507647e+2, -1625766.9, -1716674.8, 188.18088, -0.12971103, -0.031595316, -1625766.5, 88482.1, 0.0027803245, 10.007996, 9.995898 
4.5533913e+2, 1.3507248e+2, -1541214.0, -1625892.3, -93.84095, -0.099386826, -0.017000908, -1541213.9, 75073.89, 0.0018069525, 10.007102, 9.995846 
4.5530483e+2, 1.4506797e+2, -1459474.8, -1543544.4, 52.473007, -0.08950373, -0.016951937, -1459474.6, 58857.37, 0.0009770269, 10.006331, 9.995155 
4.552704e+2, 1.5506306e+2, -1371159.3, -1450350.9, -534.1376, -0.09441389, -0.024713363, -1371155.6, 49224.68, 0.00041677037, 10.005673, 9.995149 
4.5523584e+2, 1.6505793e+2, -1287336.5, -1366672.1, -2415.0352, -0.09046374, -0.018900868, -1287263.1, 35167.824, 0.00013439546, 10.005032, 9.994484 
4.5520112e+2, 1.750526e+2, -1198602.9, -1273206.4, -1947.6102, -0.07805481, -0.00094556564, -1198552.1, 25931.47, 0.000031964762, 10.0044, 9.994481 
4.5516628e+2, 1.8504666e+2, -1117233.6, -1192515.6, -2310.3013, -0.06609742, -0.0012974313, -1117162.9, 9379.027, 0.000005553748, 10.003668, 9.993655 
4.5513144e+2, 1.9504014e+2, -1031470.44, -1100409.5, -2735.5073, -0.054530114, -0.020325255, -1031362.06, -2756.6528, 0.00000070340104, 10.0028305, 9.993658 
4.5509627e+2, 2.0503345e+2, -951431.8, -1018930.2, -4290.28, -0.0562944, -0.018975096, -951160.2, -20489.322, 0.000000064967765, 10.001941, 9.99296 
4.5506087e+2, 2.1502663e+2, -867117.9, -927469.56, -4807.607, -0.071016096, 0.0014769605, -866737.25, -33999.22, 0.0000000043809485, 10.001, 9.992967 
4.5502555e+2, 2.2501923e+2, -786862.8, -845688.06, -5039.894, -0.07687501, -0.0005714797, -786434.1, -51623.586, 0.00000000021602262, 10.000114, 9.992286 
4.5499024e+2, 2.3501128e+2, -700872.5, -753368.1, -4619.812, -0.07402397, -0.02585777, -700469.0, -63580.965, 0.0000000000009414817, 9.999285, 9.992294 
4.5495504e+2, 2.4500322e+2, -617299.7, -669856.0, -3879.5696, -0.073849894, -0.027204689, -617014.9, -78047.766, 0.000000000000032891313, 9.998618, 9.991623 
4.5492e+2, 2.5499508e+2, -526479.56, -575112.5, -4984.6523, -0.07648015, -0.005691415, -525973.94, -84926.555, 0.0, 9.998113, 9.991639 
4.5488492e+2, 2.649868e+2, -444259.44, -484221.9, -6279.962, -0.061258692, 0.0026388182, -443295.8, -100167.34, 0.0, 9.997003, 9.991683 
4.5484984e+2, 2.7497846e+2, -370992.16, -397858.0, -5116.3423, -0.028089143, -0.003424676, -370050.78, -124840.695, 0.0, 9.995292, 9.991705 
4.5481488e+2, 2.8496933e+2, -299849.44, -330130.38, -2669.2717, -0.013426807, -0.008881538, -299615.94, -152316.31, 0.0, 9.99419, 9.990161 
4.5478004e+2, 2.949595e+2, -208546.42, -234981.95, -3219.8718, -0.017375417, -0.014747314, -208159.89, -158763.19, 0.0, 9.993708, 9.990189 
4.547451e+2, 3.049533e+2, -116187.65, -84085.08, -3460.3782, -0.021659525, -0.009504753, -83716.31, -83716.31, 0.0, 9.993184, 9.99742 
4.5471016e+2, 3.1495088e+2, -124000.32, -87422.72, -2979.229, -0.026317438, 0.005471058, -87181.65, -87181.65, 0.0, 9.99263, 9.997458 
4.653811e+2, 1.2511185e+2, -1634976.5, -1720810.4, 2780.4836, -0.117749006, -0.017648377, -1634886.5, 79015.6, 0.004589857, 10.007357, 9.995926 
4.6534616e+2, 1.3510776e+2, -1543550.8, -1626650.1, 2799.926, -0.09674607, -0.017094703, -1543456.6, 72485.57, 0.0029879087, 10.006927, 9.995875 
4.6531117e+2, 1.4510328e+2, -1457956.4, -1541799.0, 3920.787, -0.0908923, -0.021033507, -1457773.4, 60212.69, 0.0016192476, 10.006388, 9.995241 
4.652761e+2, 1.5509847e+2, -1369574.4, -1448667.8, 5082.5366, -0.096063524, -0.025172194, -1369249.1, 50783.957, 0.00069287396, 10.005736, 9.995227 
4.652409e+2, 1.650933e+2, -1287178.9, -1367929.5, 3210.1055, -0.0898103, -0.020350147, -1287051.5, 35032.46, 0.00022437889, 10.005094, 9.994362 
4.6520558e+2, 1.750878e+2, -1198572.1, -1274542.5, 1870.7225, -0.07249949, -0.0076947766, -1198526.0, 25612.086, 0.000053673917, 10.004455, 9.994359 
4.6517012e+2, 1.8508178e+2, -1114638.4, -1191301.9, 702.6675, -0.060177874, -0.008676043, -1114631.9, 11565.121, 0.000009398119, 10.00384, 9.9936495 
4.651345e+2, 1.950753e+2, -1025362.1, -1097562.4, 1067.1191, -0.052552264, -0.023860235, -1025346.4, 2913.9133, 0.0000012027082, 10.003245, 9.993646 
4.6509856e+2, 2.0506847e+2, -943720.0, -1018123.8, -992.11865, -0.05563039, -0.023461172, -943706.75, -13379.556, 0.00000011262272, 10.002587, 9.992697 
4.6506235e+2, 2.1506132e+2, -856184.7, -925111.1, -2440.4006, -0.0693379, -0.008590172, -856098.4, -23700.883, 0.000000007732489, 10.001866, 9.992703 
4.650261e+2, 2.2505382e+2, -772955.5, -838532.1, -3607.1663, -0.07475416, -0.009734807, -772757.7, -38286.703, 0.00000000039024706, 10.0010395, 9.992322 
4.6498996e+2, 2.3504597e+2, -688534.44, -747017.56, -3737.1309, -0.071951576, -0.027821887, -688296.6, -51749.242, 0.0000000000032348013, 10.000104, 9.992328 
4.6495393e+2, 2.450378e+2, -614071.5, -670780.6, -3271.273, -0.06618668, -0.030662665, -613883.44, -75255.97, 0.00000000000011301746, 9.998939, 9.991402 
4.64918e+2, 2.5502935e+2, -536155.75, -582281.25, -3841.3928, -0.057523284, -0.019101424, -535838.0, -95127.11, 0.0, 9.997551, 9.991417 
4.6488184e+2, 2.6502103e+2, -450419.78, -487154.84, -6802.164, -0.0477982, -0.0060804645, -449200.7, -106407.85, 0.0, 9.996571, 9.991689 
4.648454e+2, 2.7501285e+2, -360616.84, -392788.2, -7938.028, -0.036675446, 0.006917186, -358764.8, -113891.88, 0.0, 9.99599, 9.991714 
4.648094e+2, 2.8500387e+2, -283349.22, -318450.47, -3346.4385, -0.02907799, -0.00041349523, -283033.03, -136072.14, 0.0, 9.9951515, 9.990495 
4.6477383e+2, 2.9499412e+2, -200832.89, -227537.14, -174.91534, -0.02535275, -0.028975816, -200831.73, -151775.47, 0.0, 9.994068, 9.99052 
4.6473828e+2, 3.0498803e+2, -116545.96, -85208.39, 1223.2028, -0.023211785, -0.029452091, -85160.72, -85160.72, 0.0, 9.993194, 9.997334 
4.6470276e+2, 3.1498566e+2, -125861.62, -89273.27, 70.8434, -0.022626447, -0.0031865286, -89273.14, -89273.14, 0.0, 9.992537, 9.997374 
4.753886e+2, 1.2514804e+2, -1635310.4, -1720223.3, 1116.1255, -0.10466002, 0.0072973324, -1635295.8, 78252.36, 0.007113215, 10.007323, 9.995979 
4.7535306e+2, 1.3514374e+2, -1543800.9, -1626000.1, 1220.0083, -0.1012123, -0.018551137, -1543782.8, 71806.94, 0.004643645, 10.00689, 9.9959345 
4.753175e+2, 1.451394e+2, -1456334.3, -1537485.0, 1470.3568, -0.09544695, -0.026991403, -1456307.6, 61324.445, 0.0025262511, 10.006353, 9.995547 
4.7528195e+2, 1.5513504e+2, -1367894.9, -1444493.8, 2581.212, -0.08496668, -0.01661134, -1367808.0, 51866.605, 0.0010866441, 10.00571, 9.99552 
4.752462e+2, 1.6512981e+2, -1289945.8, -1373224.8, 758.4058, -0.0726578, -0.014648791, -1289938.8, 31787.02, 0.00035438547, 10.005079, 9.994005 
4.7521016e+2, 1.7512375e+2, -1201120.8, -1279718.1, -488.24023, -0.05857146, -0.021346543, -1201117.6, 22667.516, 0.000085576154, 10.004455, 9.994003 
4.7517398e+2, 1.851176e+2, -1113874.0, -1189800.8, -1495.05, -0.05716439, -0.023696419, -1113844.5, 12000.819, 0.000015172572, 10.003847, 9.993745 
4.751376e+2, 1.9511136e+2, -1024652.56, -1096203.0, -1164.6696, -0.06769901, -0.023015924, -1024633.6, 3272.6565, 0.0000019737136, 10.003253, 9.9937315 
4.7510105e+2, 2.0510434e+2, -946382.7, -1023694.5, -3690.404, -0.06674115, -0.025462586, -946206.94, -16231.973, 0.00000018875323, 10.002593, 9.992311 
4.7506437e+2, 2.1509661e+2, -858857.56, -930690.3, -5111.5947, -0.054981057, -0.031555675, -858495.6, -26444.715, 0.000000013307983, 10.001872, 9.992317 
4.7502747e+2, 2.2508894e+2, -773131.06, -838975.0, -7064.3066, -0.044903457, -0.027377322, -772381.7, -38255.637, 0.00000000069387657, 10.001044, 9.992285 
4.7499043e+2, 2.3508137e+2, -688738.5, -747558.6, -7189.3496, -0.03639872, -0.014537099, -687872.5, -51672.406, 0.000000000009472845, 10.000111, 9.992283 
4.7495326e+2, 2.4507308e+2, -615115.94, -672992.44, -8447.97, -0.024666445, -0.018761797, -613908.06, -75626.73, 0.00000000000033105848, 9.99894, 9.991244 
4.7491604e+2, 2.5506413e+2, -537320.8, -584576.3, -9014.57, -0.009774968, -0.040175, -535659.56, -95290.516, 0.0, 9.997546, 9.991258 
4.7487864e+2, 2.6505554e+2, -452676.16, -491787.9, -8913.348, -0.02559589, -0.029628262, -450740.63, -108286.9, 0.0, 9.9965725, 9.991367 
4.7484106e+2, 2.7504733e+2, -362616.97, -397307.53, -10132.185, -0.07106738, 0.010659251, -359874.44, -115339.48, 0.0, 9.996009, 9.991392 
4.74804e+2, 2.8503868e+2, -276989.5, -305847.34, -7558.9683, -0.08390048, 0.008033432, -275129.4, -128509.516, 0.0, 9.995178, 9.99134 
4.747675e+2, 2.9502958e+2, -194594.5, -215036.25, -4341.873, -0.064945854, -0.03777267, -193710.5, -145002.52, 0.0, 9.994088, 9.991361 
4.7473118e+2, 3.0502367e+2, -118593.53, -89855.34, -1328.1783, -0.05325253, -0.043309357, -89794.086, -89794.086, 0.0, 9.993214, 9.997002 
4.7469503e+2, 3.1502113e+2, -127887.266, -93909.03, -2552.1326, -0.04852912, -0.0026415943, -93718.41, -93718.41, 0.0, 9.992558, 9.997041 
4.8539597e+2, 1.2518495e+2, -1631228.5, -1716882.5, 6615.966, -0.10677468, 0.001618834, -1630720.5, 82465.32, 0.01049777, 10.007563, 9.996083 
4.8535988e+2, 1.3518076e+2, -1543729.8, -1624701.6, 7118.1323, -0.106449634, -0.025542691, -1543108.9, 72117.73, 0.0068823104, 10.006847, 9.9960375 
4.853237e+2, 1.4517646e+2, -1459761.8, -1539841.3, 5872.323, -0.10172591, -0.03046414, -1459333.5, 57935.004, 0.0037656925, 10.006148, 9.9954815 
4.8528746e+2, 1.5517211e+2, -1371989.8, -1447228.5, 4419.0386, -0.09089491, -0.013192516, -1371731.0, 47579.902, 0.0016323061, 10.005458, 9.995453 
4.8525113e+2, 1.6516681e+2, -1291141.0, -1373479.5, 3485.2024, -0.07998335, -0.016159488, -1290993.8, 30368.936, 0.00053782034, 10.004978, 9.994034 
4.8521462e+2, 1.7516062e+2, -1197461.1, -1277731.6, 4897.5244, -0.069094166, -0.038840648, -1197163.4, 26259.563, 0.00013162919, 10.004689, 9.994019 
4.851779e+2, 1.8515433e+2, -1110552.4, -1191441.8, 3088.4495, -0.067267634, -0.04025802, -1110434.6, 15049.806, 0.000023746588, 10.004208, 9.993452 
4.8514092e+2, 1.9514796e+2, -1022401.44, -1098392.4, 594.8194, -0.074044555, -0.022776417, -1022396.8, 5150.0923, 0.0000031577385, 10.003542, 9.993439 
4.8510364e+2, 2.0514074e+2, -946934.7, -1025550.56, -3604.3162, -0.06789591, -0.023826944, -946769.75, -17152.13, 0.00000031029586, 10.002616, 9.992169 
4.8506606e+2, 2.1513274e+2, -866031.56, -935835.44, -3275.8293, -0.04930998, -0.043108337, -865878.2, -34182.074, 0.000000022599854, 10.001446, 9.992167 
4.8502827e+2, 2.2512484e+2, -785608.1, -848747.5, -5661.6113, -0.03540023, -0.03903921, -785104.5, -51330.855, 0.000000001223376, 10.000344, 9.991953 
4.8499024e+2, 2.3511705e+2, -702675.6, -758038.06, -8057.712, -0.026029445, -0.013731256, -701526.7, -65676.68, 0.000000000023981294, 9.999311, 9.991953 
4.8495203e+2, 2.4510863e+2, -622527.4, -676033.25, -10036.037, -0.01563162, -0.017943114, -620706.9, -82774.41, 0.00000000000083893737, 9.998402, 9.991296 
4.8491368e+2, 2.550996e+2, -536012.3, -583474.25, -9062.192, -0.0041672406, -0.051428635, -534340.9, -94320.36, 0.0, 9.997606, 9.991301 
4.8487532e+2, 2.6509085e+2, -451526.5, -494048.63, -6494.6396, -0.022737317, -0.046881855, -450556.7, -108449.914, 0.0, 9.996764, 9.991117 
4.84837e+2, 2.750824e+2, -366122.94, -401802.72, -7185.35, -0.0705882, -0.0066650514, -364730.28, -120539.54, 0.0, 9.995882, 9.991142 
4.847991e+2, 2.850739e+2, -276743.66, -300630.6, -6980.178, -0.08730762, -0.00095512293, -274853.5, -128579.56, 0.0, 9.9949665, 9.991796 
4.8476148e+2, 2.9506543e+2, -192294.58, -208911.88, -6771.177, -0.073307015, -0.030365814, -189884.9, -141528.95, 0.0, 9.99402, 9.991813 
4.847243e+2, 3.0505964e+2, -119963.04, -90991.82, -3038.4993, -0.0579855, -0.047678404, -90676.57, -90676.57, 0.0, 9.993132, 9.9969635 
4.8468757e+2, 3.15057e+2, -131654.69, -96064.04, -2046.9681, -0.040615484, -0.011145644, -95946.695, -95946.695, 0.0, 9.992306, 9.997013 
4.9540338e+2, 1.2522265e+2, -1631286.4, -1715058.1, 3869.547, -0.12187475, -0.02987237, -1631108.0, 81707.28, 0.014911252, 10.007513, 9.996226 
4.9536663e+2, 1.352188e+2, -1543748.5, -1623050.4, 4351.628, -0.11224812, -0.037148, -1543510.4, 71342.42, 0.009830928, 10.006796, 9.99617 
4.9532974e+2, 1.4521447e+2, -1463325.3, -1545960.4, 3187.797, -0.10968835, -0.031799022, -1463202.5, 53692.836, 0.0054196375, 10.006105, 9.995083 
4.952927e+2, 1.5520972e+2, -1375202.3, -1453109.3, 1853.7451, -0.11220948, -0.014288264, -1375158.3, 43783.754, 0.0023727028, 10.005432, 9.995062 
4.952558e+2, 1.6520435e+2, -1288723.0, -1368094.4, 2394.1052, -0.10952721, -0.024046775, -1288650.8, 32343.477, 0.00079196517, 10.004966, 9.994403 
4.95219e+2, 1.7519839e+2, -1195109.5, -1272654.8, 3744.3926, -0.10213753, -0.059863538, -1194929.1, 28122.527, 0.00019707251, 10.0046835, 9.994364 
4.9518192e+2, 1.8519197e+2, -1115296.9, -1201071.8, 530.2048, -0.08942355, -0.058236457, -1115293.6, 9820.9, 0.000036298647, 10.004204, 9.992795 
4.951445e+2, 1.9518512e+2, -1027040.4, -1107900.9, -1956.0719, -0.07188042, -0.022986745, -1026993.1, 189.15607, 0.0000049503406, 10.003542, 9.992787 
4.9510634e+2, 2.0517768e+2, -946222.4, -1024188.4, -7999.5527, -0.0597152, -0.01852676, -945410.06, -16154.712, 0.00000050112493, 10.002622, 9.992255 
4.9506748e+2, 2.151697e+2, -865316.9, -934647.7, -7656.4927, -0.052337773, -0.04344696, -864481.4, -33148.09, 0.000000037748414, 10.001459, 9.992237 
4.950285e+2, 2.2516143e+2, -789889.0, -857862.2, -9525.748, -0.046115436, -0.044967633, -788579.3, -55165.137, 0.0000000021194788, 10.000358, 9.991321 
4.9498937e+2, 2.3515297e+2, -706995.44, -767083.44, -11892.759, -0.041016653, -0.02559429, -704727.2, -69229.66, 0.000000000053309013, 9.999318, 9.991328 
4.949502e+2, 2.4514438e+2, -620712.3, -672285.2, -12942.589, -0.03985707, -0.02811891, -617646.5, -80064.92, 0.0000000000018704428, 9.998404, 9.991547 
4.949109e+2, 2.551357e+2, -534260.25, -579866.3, -11977.419, -0.042361226, -0.052246038, -531306.0, -91640.09, 0.0000000000000000000017017642, 9.997609, 9.991542 
4.948719e+2, 2.6512685e+2, -452759.63, -496698.47, -9797.315, -0.039658144, -0.0578198, -450674.06, -108921.43, 0.000000000000000000000059654236, 9.99677, 9.990929 
4.948333e+2, 2.7511793e+2, -367358.16, -404441.34, -10546.245, -0.032434653, -0.046727724, -364568.72, -120727.62, 0.0, 9.995888, 9.990954 
4.9479455e+2, 2.851095e+2, -276469.28, -300186.03, -10602.884, -0.035462625, -0.028396703, -272420.38, -126496.24, 0.0, 9.994973, 9.991817 
4.9475577e+2, 2.9510155e+2, -191970.42, -208519.55, -10519.017, -0.047710635, -0.0048323967, -186861.48, -138859.97, 0.0, 9.994035, 9.991828 
4.947177e+2, 3.050957e+2, -117812.98, -86914.65, -6402.816, -0.03454818, -0.04190017, -85640.39, -85640.39, 0.0, 9.993151, 9.99723 
4.9468032e+2, 3.150931e+2, -129076.0, -91084.17, -5417.1978, 0.0063256617, -0.02784414, -90326.84, -90326.84, 0.0, 9.992324, 9.997342 
5.0541085e+2, 1.2526157e+2, -1631639.5, -1717420.6, 8440.973, -0.12821583, -0.04771206, -1630816.9, 81615.91, 0.020533854, 10.007616, 9.99601 
5.053732e+2, 1.3525763e+2, -1549357.8, -1628071.0, 6612.2715, -0.1194039, -0.04156244, -1548806.1, 65665.14, 0.013628187, 10.006521, 9.995958 
5.053356e+2, 1.452531e+2, -1469551.3, -1550743.4, 6348.8135, -0.11720924, -0.035083212, -1469057.9, 47457.773, 0.0075791995, 10.005756, 9.994924 
5.0529796e+2, 1.552481e+2, -1378504.3, -1456511.3, 6644.5737, -0.12023327, -0.028451027, -1377942.3, 40622.55, 0.0033562193, 10.005281, 9.994899 
5.0526065e+2, 1.6524267e+2, -1289667.3, -1368220.3, 7642.866, -0.119466566, -0.03781347, -1288930.6, 31687.172, 0.0011366707, 10.004883, 9.99443 
5.0522345e+2, 1.7523687e+2, -1197000.4, -1273445.6, 6536.4883, -0.11526548, -0.06293037, -1196445.5, 26228.29, 0.00028802847, 10.004543, 9.994375 
5.0518584e+2, 1.8523018e+2, -1122318.9, -1209883.9, 1176.089, -0.103095636, -0.061934154, -1122303.1, 2436.0396, 0.000054231128, 10.003952, 9.992314 
5.051477e+2, 1.9522275e+2, -1036371.56, -1117808.1, -109.413864, -0.08349945, -0.037648875, -1036371.44, -9558.662, 0.0000075890043, 10.003131, 9.992308 
5.0510883e+2, 2.0521502e+2, -947221.0, -1025933.75, -6180.911, -0.0734219, -0.031150164, -946738.56, -17849.93, 0.00000079091893, 10.002601, 9.992143 
5.050692e+2, 2.1520707e+2, -853149.44, -930123.7, -7362.579, -0.07213847, -0.042127468, -852451.5, -21485.098, 0.00000006148999, 10.002342, 9.992117 
5.050294e+2, 2.2519857e+2, -771058.06, -852846.75, -9698.784, -0.06898118, -0.045795888, -769923.6, -36873.71, 0.0000000035684378, 10.001812, 9.990956 
5.049893e+2, 2.3518954e+2, -684348.7, -760197.7, -10142.706, -0.06408422, -0.043449104, -683015.8, -47877.35, 0.000000000106599, 10.001032, 9.990964 
5.0494915e+2, 2.451808e+2, -597921.25, -661551.7, -11906.452, -0.061488375, -0.042384095, -595766.3, -58542.22, 0.0000000000037690797, 9.999965, 9.991521 
5.049088e+2, 2.551723e+2, -519250.84, -572948.7, -13078.399, -0.06118313, -0.04372451, -516234.94, -76928.28, 0.000000000000000000049289046, 9.99864, 9.991514 
5.048687e+2, 2.651634e+2, -449787.53, -496058.3, -12714.311, -0.048243735, -0.053218875, -446524.06, -105130.01, 0.0000000000000000000017269324, 9.996996, 9.990862 
5.048289e+2, 2.751541e+2, -379783.06, -411242.22, -12522.652, -0.023248645, -0.07113049, -375407.0, -131921.47, 0.0, 9.99506, 9.990887 
5.04789e+2, 2.8514567e+2, -298640.47, -311279.4, -11249.859, -0.01734542, -0.048161432, -292056.63, -146488.02, 0.0, 9.993463, 9.991786 
5.0474906e+2, 2.9513806e+2, -219094.64, -222028.22, -11585.428, -0.02961159, 0.011873935, -208883.52, -161240.22, 0.0, 9.992186, 9.991794 
5.0471e+2, 3.051321e+2, -145132.08, -96536.234, -6509.7188, -0.014863459, -0.053458527, -95679.33, -95679.33, 0.0, 9.9911175, 9.997549 
5.0467193e+2, 3.1512976e+2, -156238.8, -99301.195, -5149.584, 0.03277191, -0.042761564, -98839.195, -98839.195, 0.0, 9.990245, 9.997779 
5.154185e+2, 1.2530169e+2, -1636990.5, -1725680.5, 3920.353, -0.12729952, -0.053925563, -1636817.5, 75221.0, 0.027554031, 10.007539, 9.9954815 
5.1537967e+2, 1.352973e+2, -1554117.6, -1636008.9, 2404.5764, -0.1278109, -0.03964871, -1554047.1, 60034.637, 0.018419899, 10.006464, 9.995441 
5.153412e+2, 1.4529248e+2, -1469914.3, -1550346.6, 4447.3306, -0.12420186, -0.040072817, -1469669.1, 46459.85, 0.010340942, 10.005723, 9.994963 
5.1530325e+2, 1.5528731e+2, -1378629.8, -1456194.5, 4782.3237, -0.1163157, -0.054397482, -1378336.0, 39843.414, 0.0046347342, 10.005265, 9.994924 
5.152656e+2, 1.652818e+2, -1291846.9, -1372417.0, 6264.0996, -0.11174144, -0.05661666, -1291362.8, 28870.361, 0.0015935765, 10.004875, 9.994144 
5.152281e+2, 1.7527603e+2, -1199223.0, -1277802.3, 5120.9463, -0.11017775, -0.049164984, -1198890.8, 23398.688, 0.00041132476, 10.0045395, 9.994078 
5.1518977e+2, 1.85269e+2, -1124569.5, -1214580.9, -1965.0458, -0.10913073, -0.05254944, -1124526.6, -168.24542, 0.00007915646, 10.003957, 9.991988 
5.1515055e+2, 1.9526085e+2, -1038381.5, -1122420.0, -3150.9595, -0.10834358, -0.066242516, -1038263.5, -11825.1455, 0.0000113579035, 10.003154, 9.991979 
5.151111e+2, 2.0525281e+2, -949051.4, -1030232.6, -7125.02, -0.108032525, -0.060686518, -948430.75, -19913.238, 0.0000012170423, 10.002627, 9.991834 
5.1507115e+2, 2.1524486e+2, -855099.7, -934516.06, -8352.024, -0.10827143, -0.03887899, -854230.9, -23635.193, 0.000000097492624, 10.002362, 9.991804 
5.150308e+2, 2.2523615e+2, -771655.3, -854332.75, -12587.788, -0.103908986, -0.041619245, -769781.3, -37100.098, 0.0000000058393703, 10.001826, 9.990844 
5.1499003e+2, 2.3522674e+2, -684978.2, -761757.25, -13063.424, -0.095363274, -0.06740746, -682816.44, -48043.24, 0.00000000019837329, 10.001046, 9.990847 
5.149489e+2, 2.4521782e+2, -600006.06, -666065.8, -16815.416, -0.08045471, -0.060650434, -595972.06, -59111.457, 0.000000000007134189, 9.999973, 9.991203 
5.149075e+2, 2.552094e+2, -521335.13, -577437.8, -18066.81, -0.05983913, -0.025347482, -516020.5, -77077.07, 0.000000000000000013828485, 9.998649, 9.991199 
5.148657e+2, 2.6520035e+2, -449432.97, -495351.7, -20097.707, -0.04849523, -0.032196194, -441879.22, -100847.34, 0.0000000000000000008730735, 9.996996, 9.990904 
5.148237e+2, 2.7519083e+2, -379652.8, -410671.16, -19925.236, -0.045458242, -0.07867683, -369912.25, -126787.266, 0.000000000000000000039538807, 9.995046, 9.990927 
5.1478225e+2, 2.851823e+2, -299712.94, -312944.8, -16236.953, -0.035580494, -0.059766054, -288795.78, -143587.2, 0.0000000000000000000014097545, 9.99344, 9.991678 
5.1474136e+2, 2.951748e+2, -220300.75, -223752.11, -16609.455, -0.019562878, 0.018457819, -205327.58, -158044.81, 0.0, 9.992153, 9.991686 
5.1470125e+2, 3.0516854e+2, -143125.7, -91463.01, -10046.135, 0.00023506864, -0.08417966, -89578.234, -89578.234, 0.0, 9.991081, 9.99791 
5.1466215e+2, 3.151669e+2, -152894.83, -91356.09, -8682.99, 0.036312573, -0.044360787, -90154.41, -90154.41, 0.0, 9.990205, 9.998339 
5.25426e+2, 1.2534165e+2, -1640612.0, -1726134.9, -54.004936, -0.11789569, -0.05479148, -1640612.0, 71034.08, 0.0361768, 10.007273, 9.995581 
5.2538604e+2, 1.353373e+2, -1555803.5, -1635755.0, 2495.608, -0.12146861, -0.0488965, -1555725.6, 57963.324, 0.024365017, 10.006321, 9.995526 
5.2534705e+2, 1.4533241e+2, -1470346.3, -1550974.4, 8369.171, -0.11998526, -0.056545045, -1469486.8, 46249.87, 0.013811106, 10.005719, 9.994919 
5.2530867e+2, 1.5532713e+2, -1376976.5, -1456015.1, 8114.0063, -0.11340497, -0.077360176, -1376152.1, 41635.848, 0.006266411, 10.005404, 9.994864 
5.252705e+2, 1.6532148e+2, -1293257.8, -1377035.8, 8687.484, -0.108891204, -0.07204284, -1292366.4, 27476.832, 0.002187711, 10.004945, 9.9937935 
5.2523255e+2, 1.7531556e+2, -1204465.4, -1284287.4, 7024.336, -0.10639995, -0.044617284, -1203852.0, 18049.621, 0.0005752219, 10.004346, 9.993728 
5.251938e+2, 1.8530834e+2, -1122670.3, -1213581.8, 1275.6284, -0.10727878, -0.04935973, -1122652.4, 1320.0925, 0.00011314291, 10.004077, 9.991995 
5.2515423e+2, 1.953e+2, -1024456.1, -1115810.3, 2382.6306, -0.111044854, -0.08340309, -1024394.0, 1659.9786, 0.000016648359, 10.004104, 9.991962 
5.251142e+2, 2.052917e+2, -937425.7, -1029881.7, -1865.441, -0.109605946, -0.07792893, -937388.06, -9252.427, 0.0000018353236, 10.003642, 9.99136 
5.2507377e+2, 2.1528347e+2, -852630.0, -938557.6, -4368.323, -0.103623256, -0.03812542, -852408.5, -22191.344, 0.00000015174481, 10.002749, 9.991336 
5.250327e+2, 2.2527449e+2, -773413.6, -856330.25, -10481.605, -0.09497199, -0.03825787, -772109.1, -39803.88, 0.000000009413484, 10.001745, 9.990743 
5.2499104e+2, 2.3526487e+2, -691421.6, -766177.75, -10989.071, -0.08383496, -0.07521074, -689839.75, -55440.664, 0.0000000003572173, 10.000651, 9.990732 
5.249488e+2, 2.4525563e+2, -610931.9, -677589.2, -16960.082, -0.06824464, -0.06739133, -606864.75, -70375.016, 0.000000000013245786, 9.999483, 9.990649 
5.2490604e+2, 2.5524676e+2, -530788.3, -588069.2, -20075.096, -0.048481815, -0.019924263, -524453.25, -85876.09, 0.00000000000000038532895, 9.998251, 9.990664 
5.2486277e+2, 2.6523754e+2, -447064.7, -492440.06, -23402.975, -0.04558463, -0.028068557, -437157.4, -96490.03, 0.000000000000000024719012, 9.997067, 9.991067 
5.24819e+2, 2.7522802e+2, -365388.06, -402124.5, -22327.566, -0.058070853, -0.08805213, -354844.16, -112084.4, 0.0000000000000000011415998, 9.995936, 9.991078 
5.24776e+2, 2.852195e+2, -285852.44, -308916.84, -18555.557, -0.05363785, -0.06839984, -275537.44, -130693.98, 0.000000000000000000040680988, 9.994489, 9.991445 
5.2473366e+2, 2.9521185e+2, -212923.83, -222805.42, -19835.186, -0.033499416, 0.023161257, -197423.34, -150504.69, 0.0, 9.992757, 9.991459 
5.246924e+2, 3.052052e+2, -134190.1, -85332.484, -11769.923, -0.01688815, -0.118023045, -82644.914, -82644.914, 0.0, 9.991605, 9.998079 
5.2465254e+2, 3.1520405e+2, -138157.64, -78872.14, -11876.092, 0.015032025, -0.044723723, -76581.62, -76581.62, 0.0, 9.990972, 9.998828 
5.354334e+2, 1.253817e+2, -1639432.5, -1718262.6, -3718.3916, -0.10128203, -0.05102246, -1639257.5, 71995.695, 0.046640735, 10.007114, 9.996188 
5.353926e+2, 1.3537772e+2, -1553485.1, -1627865.8, -1118.2325, -0.10242341, -0.067898214, -1553468.4, 59823.574, 0.031651106, 10.006234, 9.9960985 
5.353529e+2, 1.4537297e+2, -1471943.3, -1552998.1, 7016.685, -0.10616663, -0.08283954, -1471340.4, 43997.6, 0.018118152, 10.005685, 9.994794 
5.353141e+2, 1.5536763e+2, -1378163.1, -1458102.4, 6852.7197, -0.11155273, -0.097353175, -1377579.9, 39809.984, 0.008324203, 10.005402, 9.99472 
5.3527546e+2, 1.6536178e+2, -1296027.9, -1383042.3, 6426.4287, -0.110412024, -0.08438278, -1295555.8, 23891.826, 0.0029520425, 10.004964, 9.993371 
5.3523695e+2, 1.753555e+2, -1206848.9, -1289932.9, 4871.1636, -0.103797, -0.04852482, -1206564.3, 14945.709, 0.0007912691, 10.004383, 9.99332 
5.351979e+2, 1.8534826e+2, -1119902.4, -1208720.8, 1427.928, -0.09800806, -0.0516285, -1119879.4, 3701.7314, 0.00015928305, 10.00412, 9.992301 
5.351585e+2, 1.9534019e+2, -1022053.25, -1111554.8, 2393.4426, -0.0928671, -0.08952817, -1021989.25, 3670.3877, 0.00002408819, 10.004141, 9.99223 
5.3511816e+2, 2.0533168e+2, -941524.1, -1038947.4, -5214.258, -0.079654396, -0.08351739, -941245.8, -13502.499, 0.0000027417857, 10.003671, 9.990724 
5.35077e+2, 2.1532285e+2, -856631.75, -947441.8, -7749.0547, -0.05941201, -0.03990402, -855975.25, -26144.127, 0.00000023527792, 10.002779, 9.990711 
5.3503495e+2, 2.2531357e+2, -773790.7, -857587.0, -14567.278, -0.042869024, -0.035453223, -771330.56, -39408.137, 0.000000015261845, 10.001767, 9.990641 
5.349923e+2, 2.353039e+2, -692111.75, -767860.6, -15094.046, -0.02954178, -0.066563055, -689214.8, -55198.35, 0.0000000006616947, 10.000664, 9.990605 
5.349487e+2, 2.4529414e+2, -616629.8, -689352.56, -21547.906, -0.02464802, -0.06259782, -610724.6, -74612.55, 0.000000000033713653, 9.999483, 9.989841 
5.3490454e+2, 2.5528434e+2, -536354.6, -599439.25, -24697.82, -0.027122445, -0.028145513, -527835.75, -89627.04, 0.0000000000031642748, 9.998244, 9.989884 
5.348599e+2, 2.6527485e+2, -445100.88, -488416.53, -27628.992, -0.039391052, -0.041510973, -431652.8, -91351.19, 0.0000000000008864168, 9.99707, 9.991336 
5.3481495e+2, 2.752656e+2, -363268.8, -398233.63, -26671.459, -0.06055356, -0.09913555, -348860.75, -106469.85, 0.00000000000019408578, 9.995958, 9.991329 
5.347703e+2, 2.85257e+2, -288091.06, -314294.7, -25278.367, -0.07203159, -0.073844194, -272720.9, -128246.3, 0.000000000000033338932, 9.994519, 9.991056 
5.34726e+2, 2.952491e+2, -215168.61, -228145.31, -26516.338, -0.074466094, 0.025600307, -194358.34, -147805.73, 0.000000000000004584393, 9.992785, 9.991074 
5.346835e+2, 3.0524182e+2, -134055.73, -85980.34, -14436.267, -0.07039227, -0.15504606, -81978.484, -81978.484, 0.00000000000000052424637, 9.991649, 9.99801 
5.3464305e+2, 3.1524128e+2, -134401.08, -72405.625, -14576.54, -0.033993978, -0.01772987, -69149.375, -69149.375, 0.00000000000000005213434, 9.991033, 9.999238 
5.454398e+2, 1.2542228e+2, -1660948.0, -1723443.1, 505.73322, -0.08304836, -0.060558233, -1660944.0, 49910.79, 0.059230268, 10.005381, 9.996677 
5.453985e+2, 1.354188e+2, -1560359.1, -1625815.6, 2398.2517, -0.09748988, -0.076270506, -1560271.4, 52617.17, 0.040506, 10.005548, 9.99657 
5.4535866e+2, 1.4541441e+2, -1469642.1, -1549451.6, 12414.867, -0.10117022, -0.088091224, -1467755.5, 47175.625, 0.02342261, 10.005757, 9.994997 
5.453199e+2, 1.5540932e+2, -1368598.1, -1451398.3, 14404.773, -0.09546761, -0.097554445, -1366163.6, 50817.08, 0.01090282, 10.005979, 9.994891 
5.4528105e+2, 1.6540338e+2, -1282864.8, -1379575.4, 14314.834, -0.096689336, -0.08624676, -1280790.4, 38249.07, 0.003931343, 10.005989, 9.993101 
5.452421e+2, 1.7539677e+2, -1187665.5, -1283482.4, 13822.802, -0.10358933, -0.057972193, -1185711.3, 35394.14, 0.001075929, 10.005812, 9.993057 
5.452028e+2, 1.8538953e+2, -1097976.8, -1196189.3, 11031.422, -0.09616569, -0.056264468, -1096753.0, 26423.744, 0.00022220585, 10.005529, 9.992462 
5.4516333e+2, 1.9538178e+2, -1006137.94, -1102384.8, 10854.611, -0.07666783, -0.0785277, -1004928.94, 20323.256, 0.000034662826, 10.005158, 9.992354 
5.4512256e+2, 2.0537302e+2, -930665.25, -1040302.3, 970.09125, -0.05693322, -0.0732817, -930656.7, -3318.2747, 0.0000040950754, 10.004689, 9.990129 
5.4508066e+2, 2.1536343e+2, -840561.6, -946193.3, -1362.3787, -0.036751308, -0.0447795, -840544.06, -11110.609, 0.0000003681918, 10.004149, 9.990125 
5.450378e+2, 2.2535373e+2, -752433.06, -850410.0, -9992.304, -0.020726044, -0.038893353, -751424.4, -19895.566, 0.000000025976838, 10.003351, 9.990356 
5.4499394e+2, 2.3534393e+2, -669407.5, -760201.94, -12027.806, -0.00838104, -0.054024905, -667841.2, -34217.08, 0.0000000017321877, 10.002347, 9.990308 
5.449491e+2, 2.4533366e+2, -599950.8, -688125.75, -20072.764, -0.006282873, -0.055061955, -595596.3, -59871.797, 0.00000000030243935, 10.000903, 9.989232 
5.4490334e+2, 2.5532302e+2, -527856.6, -602030.75, -21806.31, -0.013316037, -0.044137433, -521920.8, -84091.85, 0.00000000009114137, 9.9991, 9.989286 
5.448571e+2, 2.6531306e+2, -448879.8, -493144.13, -27148.031, -0.025019238, -0.060495123, -435985.56, -96059.336, 0.000000000025565636, 9.996921, 9.991078 
5.4481035e+2, 2.7530375e+2, -387071.28, -412493.66, -30129.637, -0.04096389, -0.10273315, -367081.25, -125064.54, 0.00000000000559841, 9.994433, 9.991089 
5.447641e+2, 2.8529513e+2, -313844.3, -325863.3, -27306.742, -0.058546048, -0.07220416, -291893.63, -147793.2, 0.0000000000009613527, 9.992705, 9.991138 
5.447182e+2, 2.9528725e+2, -231311.83, -235308.48, -24826.965, -0.077190064, 0.022920992, -208402.9, -162225.42, 0.00000000000013212425, 9.991639, 9.991131 
5.446746e+2, 3.0527928e+2, -150593.17, -98407.086, -9962.763, -0.085213006, -0.20749319, -96569.79, -96569.79, 0.000000000000015104163, 9.990697, 9.997611 
5.446334e+2, 3.1527883e+2, -149719.13, -76689.71, -12571.277, -0.04877721, -0.022039263, -74586.28, -74586.28, 0.0000000000000015015223, 9.9898405, 9.9995165 
5.554453e+2, 1.2546355e+2, -1659877.6, -1718165.4, 823.36615, -0.06375135, -0.08084872, -1659866.0, 50583.477, 0.074290514, 10.005337, 9.997053 
5.5540395e+2, 1.3546064e+2, -1559177.5, -1620689.8, 2771.1787, -0.10485407, -0.07514449, -1559053.0, 53424.84, 0.051208347, 10.005498, 9.996939 
5.553644e+2, 1.4545682e+2, -1467371.9, -1542759.4, 12886.301, -0.10367513, -0.0749324, -1465230.0, 49285.375, 0.029923556, 10.005711, 9.995472 
5.5532616e+2, 1.5545222e+2, -1366293.1, -1445216.9, 14818.023, -0.066718884, -0.08026245, -1363602.8, 52957.594, 0.014122041, 10.005941, 9.995327 
5.5528736e+2, 1.6544633e+2, -1284093.9, -1381606.1, 13376.206, -0.069695435, -0.07885063, -1282292.3, 36326.543, 0.0051836427, 10.005978, 9.992965 
5.5524784e+2, 1.7543934e+2, -1188309.6, -1285250.3, 12982.857, -0.105924286, -0.072599754, -1186601.0, 34087.133, 0.0014511556, 10.005838, 9.99292 
5.552083e+2, 1.8543214e+2, -1097136.4, -1195418.8, 9561.373, -0.10125741, -0.06283947, -1096214.8, 26544.51, 0.00030830485, 10.005577, 9.992487 
5.551686e+2, 1.9542474e+2, -1005413.44, -1102112.9, 9338.096, -0.06237324, -0.05123377, -1004519.94, 20311.896, 0.000049818387, 10.005218, 9.99234 
5.5512744e+2, 2.0541565e+2, -933790.56, -1048015.0, -1087.7582, -0.041332006, -0.04813132, -933780.25, -6859.057, 0.000006173213, 10.004748, 9.989571 
5.550848e+2, 2.1540518e+2, -843752.2, -953922.7, -3477.166, -0.035204407, -0.05279955, -843642.56, -14618.246, 0.0000006149874, 10.004203, 9.989568 
5.55041e+2, 2.2539495e+2, -755278.56, -857025.2, -13739.481, -0.02827435, -0.04831461, -753455.9, -22331.174, 0.00000006754479, 10.003385, 9.989883 
5.5499613e+2, 2.3538496e+2, -672542.3, -767004.94, -15916.72, -0.02070019, -0.03738681, -669932.5, -36710.098, 0.00000001663576, 10.002362, 9.989831 
5.549499e+2, 2.4537416e+2, -602812.56, -694149.94, -26794.324, -0.013701341, -0.044774003, -595532.56, -60205.1, 0.000000006685587, 10.000906, 9.988813 
5.549025e+2, 2.5536275e+2, -530831.9, -608209.3, -28642.838, -0.0073331837, -0.06834549, -521382.97, -83944.47, 0.0000000024045708, 9.999099, 9.988858 
5.548542e+2, 2.6535213e+2, -454802.75, -505226.0, -36636.438, -0.0018952802, -0.085206136, -435541.3, -95999.336, 0.00000000069823514, 9.996907, 9.990252 
5.548052e+2, 2.7534232e+2, -392962.06, -424025.5, -39568.086, 0.0025772653, -0.09803026, -365986.53, -124348.125, 0.00000000016244843, 9.9944, 9.99031 
5.5475724e+2, 2.853337e+2, -310207.13, -317592.34, -31473.479, -0.010046815, -0.06287286, -282210.38, -138488.17, 0.000000000030859263, 9.992675, 9.9917145 
5.547102e+2, 2.9532617e+2, -227790.66, -227651.47, -28861.041, -0.03734358, 0.014255153, -198859.94, -153065.53, 0.000000000004940359, 9.991625, 9.991657 
5.546655e+2, 3.0531746e+2, -156153.0, -109770.4, -13432.556, -0.0564643, -0.27729845, -106161.14, -106161.14, 0.0000000000006949388, 9.990693, 9.996829 
5.546234e+2, 3.153168e+2, -148921.86, -74693.79, -16053.447, -0.023193242, -0.033504833, -71370.66, -71370.66, 0.00000000000008921752, 9.989828, 9.999655 
5.654505e+2, 1.2550561e+2, -1646681.3, -1708193.5, 6573.7656, -0.12109481, -0.103290565, -1645986.6, 64049.547, 0.09224954, 10.006277, 9.99728 
5.654095e+2, 1.3550305e+2, -1553761.4, -1615159.9, 7731.637, -0.1147522, -0.08674971, -1552802.8, 59258.844, 0.064103186, 10.005832, 9.997153 
5.653701e+2, 1.454995e+2, -1468968.9, -1541731.5, 16861.967, -0.09596245, -0.074512765, -1465251.3, 48845.523, 0.037868038, 10.005549, 9.995622 
5.653319e+2, 1.554952e+2, -1373642.6, -1447120.1, 16692.512, -0.06530652, -0.06704748, -1370028.3, 46111.168, 0.01813179, 10.00537, 9.995476 
5.652932e+2, 1.654895e+2, -1284812.5, -1378099.1, 17253.26, -0.06958932, -0.06932707, -1281723.9, 36471.973, 0.0067830742, 10.005764, 9.993307 
5.652541e+2, 1.7548269e+2, -1174578.1, -1275063.3, 19967.281, -0.10322937, -0.080337636, -1170755.9, 49507.28, 0.0019462637, 10.006624, 9.993229 
5.6521463e+2, 1.8547565e+2, -1074965.3, -1185405.9, 16016.909, -0.09807803, -0.06487658, -1072689.3, 49643.594, 0.00042706984, 10.007118, 9.992416 
5.6517494e+2, 1.9546841e+2, -975296.9, -1088497.3, 14954.017, -0.060413126, -0.028549042, -973354.75, 51049.4, 0.000072417504, 10.007312, 9.992249 
5.651335e+2, 2.0545915e+2, -895722.44, -1031308.94, 5185.757, -0.044445973, -0.03112046, -895524.4, 30970.734, 0.000010057684, 10.007417, 9.989411 
5.650906e+2, 2.1544822e+2, -797099.4, -933388.5, 5391.6104, -0.046764743, -0.06671666, -796886.44, 31715.627, 0.0000015629702, 10.007473, 9.989376 
5.6504595e+2, 2.2543749e+2, -711421.25, -843479.94, -7979.7705, -0.04317337, -0.06542522, -710940.8, 19766.262, 0.00000049777555, 10.006702, 9.989192 
5.649999e+2, 2.35427e+2, -634653.7, -756308.44, -11975.77, -0.034579743, -0.03445089, -633485.94, -675.97736, 0.00000024256158, 10.005269, 9.989147 
5.64952e+2, 2.4541566e+2, -566394.5, -681657.3, -25925.088, -0.028710067, -0.040220693, -560831.9, -25911.488, 0.000000109369346, 10.003599, 9.988357 
5.649027e+2, 2.5540367e+2, -494873.75, -596004.94, -28290.762, -0.024998022, -0.07788638, -487497.6, -50460.906, 0.000000040127215, 10.001762, 9.988398 
5.6485206e+2, 2.653924e+2, -424986.25, -499048.0, -39342.383, -0.024999084, -0.10027881, -407988.34, -68841.8, 0.000000011776685, 9.999279, 9.989519 
5.648002e+2, 2.7538183e+2, -370079.03, -420706.03, -41460.38, -0.027994845, -0.110802814, -346815.4, -105564.99, 0.0000000027833769, 9.996275, 9.989621 
5.6474984e+2, 2.853732e+2, -306169.28, -312021.53, -33055.227, -0.023079857, -0.061133947, -275910.9, -132576.42, 0.0000000005406261, 9.992774, 9.99204 
5.647007e+2, 2.9536626e+2, -265899.66, -242670.98, -32077.54, -0.012148773, 0.039510846, -220169.9, -174768.86, 0.00000000008898772, 9.988853, 9.991961 
5.6465447e+2, 3.0535704e+2, -222126.19, -143107.81, -10441.554, -0.012379439, -0.31114766, -141751.34, -141751.34, 0.000000000012900772, 9.986231, 9.996691 
5.646113e+2, 3.1535634e+2, -216965.13, -96122.84, -7876.3516, 0.03379047, -0.0574952, -95611.63, -95611.63, 0.000000000001703585, 9.984671, 10.000662 
5.7545555e+2, 1.255486e+2, -1651899.0, -1709151.4, 4098.032, -0.24188343, -0.12768552, -1651607.1, 58006.406, 0.11366636, 10.005952, 9.99736 
5.754152e+2, 1.3554615e+2, -1557017.0, -1615664.4, 5491.115, -0.12611414, -0.109170966, -1556507.3, 55131.316, 0.0796511, 10.005637, 9.997207 
5.7537574e+2, 1.4554265e+2, -1472027.1, -1544600.0, 15564.98, -0.079967685, -0.08478244, -1468829.8, 44843.98, 0.047596246, 10.005438, 9.995477 
5.75337e+2, 1.5553841e+2, -1375642.4, -1449183.4, 15779.078, -0.08834807, -0.05719625, -1372399.8, 43316.445, 0.023148991, 10.005305, 9.995363 
5.752987e+2, 1.6553307e+2, -1280300.5, -1367346.0, 20160.598, -0.093145266, -0.05775413, -1275857.9, 41911.19, 0.008846853, 10.005723, 9.994057 
5.752608e+2, 1.7552687e+2, -1170436.3, -1265190.6, 22836.168, -0.095827155, -0.08160801, -1165219.8, 54610.004, 0.0026165275, 10.006582, 9.993919 
5.752219e+2, 1.855201e+2, -1076702.9, -1188083.4, 16555.924, -0.08775622, -0.06259342, -1074294.0, 47602.88, 0.0006039394, 10.007089, 9.992245 
5.7518214e+2, 1.9551286e+2, -976624.1, -1090975.9, 15441.802, -0.07037342, -0.010101355, -974575.56, 49393.23, 0.00011601525, 10.00731, 9.992077 
5.751407e+2, 2.0550351e+2, -894145.5, -1028149.44, 5324.077, -0.06550624, -0.021756612, -893934.3, 32125.795, 0.000024560595, 10.007428, 9.989618 
5.7509786e+2, 2.1549247e+2, -795812.3, -931048.06, 5248.5674, -0.0712748, -0.086291514, -795608.94, 32557.793, 0.000009378063, 10.007494, 9.989522 
5.7505244e+2, 2.254813e+2, -717599.94, -856644.3, -13375.586, -0.06555203, -0.09010249, -716324.94, 13951.222, 0.000005358217, 10.006719, 9.98828 
5.7500494e+2, 2.3547003e+2, -640752.94, -769280.94, -17481.797, -0.05024591, -0.045239486, -638417.56, -6030.2173, 0.0000029587688, 10.005284, 9.988249 
5.749554e+2, 2.454581e+2, -569852.44, -688996.44, -32714.416, -0.05195401, -0.041210055, -561460.8, -26957.053, 0.0000013638933, 10.003605, 9.987846 
5.74904e+2, 2.5544566e+2, -498166.9, -603259.25, -35358.215, -0.06784111, -0.07179226, -487378.22, -50754.16, 0.0000005061717, 10.001779, 9.987888 
5.748506e+2, 2.6543373e+2, -429114.94, -508251.88, -50694.656, -0.09783787, -0.10533214, -404374.7, -65633.99, 0.00000015046433, 9.999299, 9.988872 
5.747954e+2, 2.7542225e+2, -373841.16, -429305.06, -53002.42, -0.13937004, -0.14272222, -341754.06, -100900.3, 0.000000036182776, 9.996302, 9.989013 
5.7474184e+2, 2.8541356e+2, -305871.56, -311423.7, -48338.617, -0.10356926, -0.067225, -260229.36, -117290.91, 0.0000000071860238, 9.9927635, 9.992076 
5.746896e+2, 2.9540738e+2, -266680.88, -242460.92, -46976.066, -0.0029831915, 0.10326179, -206059.02, -161060.47, 0.0000000012132544, 9.988764, 9.992008 
5.746412e+2, 3.0539793e+2, -219924.27, -135395.67, -16732.457, 0.0492098, -0.30393687, -132203.98, -132203.98, 0.00000000018041325, 9.986095, 9.997278 
5.7459676e+2, 3.1539768e+2, -205285.28, -67759.19, -13748.266, 0.12763795, -0.069822036, -66398.266, -66398.266, 0.000000000024354489, 9.984491, 10.0026865 
5.854597e+2, 1.2559113e+2, -1702592.1, -1732120.3, 4121.9917, -0.20199697, -0.13373765, -1702027.5, 7168.8896, 0.13937056, 10.001868, 9.997795 
5.854195e+2, 1.3558927e+2, -1589218.9, -1628121.0, 7218.8384, -0.1267237, -0.09737643, -1587922.5, 23293.088, 0.09858784, 10.003098, 9.997604 
5.853802e+2, 1.4558598e+2, -1493677.4, -1554296.0, 17805.596, -0.09846858, -0.07802363, -1488834.3, 24414.469, 0.05970789, 10.003859, 9.995589 
5.853415e+2, 1.5558162e+2, -1390263.3, -1454824.3, 19528.117, -0.1073839, -0.072925165, -1384816.0, 30475.824, 0.029613163, 10.004229, 9.995504 
5.8530366e+2, 1.6557679e+2, -1293139.6, -1363586.0, 26079.49, -0.10635131, -0.0761296, -1284535.8, 32803.715, 0.011666405, 10.00441, 9.994951 
5.8526623e+2, 1.755716e+2, -1196415.1, -1268802.4, 29638.416, -0.09765776, -0.087363824, -1185828.3, 33561.863, 0.0036465498, 10.004414, 9.994724 
5.852278e+2, 1.8556498e+2, -1112328.5, -1209210.0, 23242.832, -0.09142607, -0.07060805, -1107040.9, 14414.645, 0.0009607307, 10.004818, 9.991908 
5.851884e+2, 1.9555728e+2, -1004491.2, -1107991.5, 20620.69, -0.08701013, -0.032044522, -1000534.2, 22997.904, 0.00026871046, 10.005553, 9.99177 
5.8514726e+2, 2.05548e+2, -911729.6, -1031137.06, 9841.017, -0.075877845, -0.047700234, -910924.0, 14698.443, 0.0001171729, 10.00598, 9.990116 
5.851048e+2, 2.1553752e+2, -811850.25, -934263.5, 11458.697, -0.059807636, -0.108115785, -810786.9, 16936.586, 0.00007455317, 10.006192, 9.98993 
5.8505917e+2, 2.2552606e+2, -728738.3, -872193.8, -8802.7705, -0.05186188, -0.10971543, -728200.2, 1635.3751, 0.000048728765, 10.006382, 9.987379 
5.8501095e+2, 2.3551391e+2, -627274.75, -772528.25, -13409.037, -0.049991686, -0.064569436, -626047.25, 5908.7646, 0.000027718637, 10.006615, 9.98738 
5.8495986e+2, 2.4550147e+2, -548937.7, -681505.2, -33635.402, -0.045770176, -0.05745875, -540891.94, -6814.44, 0.000012950185, 10.005127, 9.987614 
5.849064e+2, 2.5548884e+2, -492144.84, -603173.75, -34357.52, -0.04043869, -0.08210546, -482373.03, -46173.625, 0.00000486449, 10.00229, 9.987635 
5.8485043e+2, 2.654764e+2, -426785.88, -514394.7, -49782.926, -0.07183999, -0.12059018, -404279.16, -65958.16, 0.0000014661243, 9.999746, 9.988222 
5.847924e+2, 2.7546412e+2, -360547.0, -429651.53, -52325.664, -0.13316026, -0.17225225, -332394.94, -91952.99, 0.00000035851775, 9.997477, 9.988407 
5.8473504e+2, 2.8545538e+2, -286339.94, -302150.97, -53380.617, -0.11724387, -0.07592279, -240282.63, -97754.58, 0.00000007259017, 9.994075, 9.992061 
5.8467853e+2, 2.9544967e+2, -252099.66, -235519.25, -51999.85, -0.035346236, 0.14391914, -191152.9, -146568.36, 0.000000012502795, 9.989734, 9.992 
5.846268e+2, 3.0543998e+2, -224302.55, -133937.66, -18196.555, 0.018449161, -0.30227625, -130411.086, -130411.086, 0.0000000018934927, 9.985621, 9.997596 
5.845798e+2, 3.154401e+2, -232424.39, -57921.24, -16887.285, 0.12468762, -0.06808865, -56302.023, -56302.023, 0.00000000025939195, 9.981629, 10.004734 
5.9546334e+2, 1.2563363e+2, -1701527.1, -1723527.8, 6665.1704, -0.030056609, -0.12363827, -1699665.4, 9114.811, 0.17092742, 10.001656, 9.998489 
5.954227e+2, 1.3563278e+2, -1587921.1, -1619812.8, 9545.656, -0.12001247, -0.056329697, -1585282.3, 25507.281, 0.12245496, 10.002936, 9.998259 
5.953835e+2, 1.4562973e+2, -1493764.9, -1550776.6, 17676.262, -0.14649656, -0.05714301, -1488729.1, 24090.16, 0.0756299, 10.003742, 9.995884 
5.9534556e+2, 1.5562508e+2, -1389322.6, -1450487.4, 19784.016, -0.12298286, -0.1112137, -1383481.3, 31382.875, 0.0387461, 10.004163, 9.995831 
5.95308e+2, 1.6562085e+2, -1286860.9, -1349142.8, 25106.799, -0.11104119, -0.12052421, -1278000.4, 38904.86, 0.016217567, 10.004373, 9.99595 
5.952706e+2, 1.7561704e+2, -1190516.0, -1255887.4, 28806.264, -0.10824411, -0.09719293, -1179633.9, 39309.09, 0.00579265, 10.004399, 9.995607 
5.952325e+2, 1.8561046e+2, -1116089.9, -1216764.1, 25340.057, -0.108153485, -0.088840365, -1110071.5, 10936.251, 0.002093993, 10.004822, 9.991389 
5.9519374e+2, 1.956018e+2, -1007648.7, -1114589.4, 22927.393, -0.110360146, -0.09190618, -1002940.5, 20152.475, 0.0010176249, 10.005569, 9.99131 
5.951533e+2, 2.0559272e+2, -905958.2, -1019842.6, 10536.535, -0.076331355, -0.10640367, -904991.56, 20189.912, 0.0006874915, 10.006017, 9.990864 
5.951114e+2, 2.1558332e+2, -806543.7, -924477.2, 12031.947, -0.013755424, -0.13162768, -805328.6, 21943.414, 0.0005077528, 10.006253, 9.990564 
5.9506595e+2, 2.2557178e+2, -734547.2, -885176.94, -7930.615, -0.0034926825, -0.124532156, -734130.8, -4745.3545, 0.00034556037, 10.006431, 9.986467 
5.950177e+2, 2.3555858e+2, -632971.44, -784834.3, -13233.979, -0.034717318, -0.092511654, -631826.8, -310.4038, 0.00020022751, 10.006643, 9.986524 
5.949653e+2, 2.4554572e+2, -548797.7, -681054.1, -44244.598, -0.009655157, -0.089146025, -535361.3, -1719.1765, 0.000094887626, 10.005112, 9.987642 
5.9490967e+2, 2.5553316e+2, -492259.94, -603222.9, -44979.57, 0.060118392, -0.10947149, -476317.63, -40554.254, 0.000036132446, 10.002274, 9.987631 
5.9485143e+2, 2.655204e+2, -431376.56, -523957.66, -58274.906, 0.05908138, -0.14648193, -403244.13, -65355.934, 0.000011043549, 9.9997425, 9.987564 
5.947912e+2, 2.7550745e+2, -364430.72, -438313.75, -61270.22, 0.0004802044, -0.19891843, -329827.03, -89811.43, 0.0000027393278, 9.997497, 9.987799 
5.947297e+2, 2.8549853e+2, -286372.34, -303005.1, -69916.09, -0.05868555, -0.08772532, -224279.77, -82175.61, 0.00000056221995, 9.994094, 9.9919815 
5.946675e+2, 2.9549298e+2, -252164.25, -236474.06, -68338.27, -0.11638465, 0.15808529, -175532.06, -131371.75, 0.000000097968645, 9.989756, 9.991912 
5.9461105e+2, 3.0548307e+2, -224367.4, -133884.44, -33912.746, -0.11915689, -0.3060298, -122585.08, -122585.08, 0.000000014970949, 9.985601, 9.997598 
5.945602e+2, 3.1548375e+2, -219521.97, -28714.791, -32066.326, 0.0074948138, -0.024990704, -23470.012, -23470.012, 0.0000000020634752, 9.981511, 10.006785 
6.0546315e+2, 1.2567386e+2, -1720974.0, -1729262.4, -888.2943, -0.12393086, -0.10009136, -1720879.9, -12494.155, 0.21160838, 10.00002, 9.998908 
6.054248e+2, 1.3567306e+2, -1605294.6, -1624132.4, 59.642456, -0.11160511, -0.07007622, -1605294.4, 5099.541, 0.15476458, 10.001372, 9.998731 
6.0538673e+2, 1.4567079e+2, -1502724.1, -1539698.1, 8036.3535, -0.12771407, -0.09058088, -1501052.9, 11362.625, 0.0989441, 10.002411, 9.997293 
6.053488e+2, 1.5566747e+2, -1395023.1, -1438896.9, 16896.418, -0.16217498, -0.1516481, -1389270.4, 25176.395, 0.05397194, 10.003159, 9.997118 
6.0531145e+2, 1.656639e+2, -1298968.5, -1356235.5, 19299.178, -0.16063735, -0.15042628, -1293071.8, 23409.799, 0.02558783, 10.003592, 9.995856 
6.0527444e+2, 1.7566024e+2, -1199795.6, -1260722.3, 15093.18, -0.13261597, -0.10226376, -1196261.6, 22256.63, 0.011753809, 10.003778, 9.995597 
6.052367e+2, 1.856543e+2, -1115981.9, -1201261.3, 17290.752, -0.13206924, -0.10259075, -1112609.5, 7967.121, 0.0063593467, 10.004157, 9.992784 
6.0519844e+2, 1.9564669e+2, -1011585.8, -1102250.6, 27955.395, -0.15232135, -0.14086784, -1003659.1, 18991.857, 0.0044307504, 10.004684, 9.992582 
6.051588e+2, 2.056383e+2, -904626.3, -1017590.2, 20751.742, -0.12827234, -0.14968626, -900934.8, 23797.635, 0.0035154643, 10.006038, 9.99101 
6.051181e+2, 2.1562944e+2, -779291.75, -910319.9, 17121.658, -0.06955843, -0.13713111, -777091.44, 49727.09, 0.0027396905, 10.0080805, 9.990652 
6.0507315e+2, 2.2561763e+2, -705903.6, -877350.5, -7837.0166, -0.042523965, -0.12980697, -705546.1, 23388.387, 0.001911355, 10.008642, 9.985937 
6.0502505e+2, 2.356036e+2, -614450.75, -781372.8, -11405.597, -0.04141397, -0.12697186, -613675.06, 17398.297, 0.0011273274, 10.008136, 9.986039 
6.04971e+2, 2.4559075e+2, -530958.6, -669956.3, -50062.76, -0.0043139583, -0.114604466, -514804.88, 18394.516, 0.00054264994, 10.006198, 9.987869 
6.0491246e+2, 2.555788e+2, -476296.66, -592930.2, -49638.1, 0.06264025, -0.096284755, -458031.53, -22716.412, 0.00020965181, 10.003226, 9.9878645 
6.04851e+2, 2.6556623e+2, -442634.25, -525241.44, -61336.332, 0.09044001, -0.14283475, -409991.03, -72553.63, 0.00006490211, 9.998758, 9.987932 
6.047874e+2, 2.755532e+2, -424494.97, -463285.28, -56327.51, 0.08506297, -0.2418319, -384316.97, -144752.28, 0.000016257576, 9.993181, 9.988144 
6.0472244e+2, 2.855444e+2, -352298.06, -334499.25, -58891.348, 0.021493357, -0.13531753, -283838.7, -142186.56, 0.0000033560273, 9.989539, 9.991988 
6.046564e+2, 2.955391e+2, -285705.28, -252450.4, -56514.836, -0.08815888, 0.13729464, -210167.77, -166461.02, 0.0000005857596, 9.987422, 9.991906 
6.0459584e+2, 3.0552924e+2, -241142.28, -141339.42, -24244.65, -0.13711569, -0.3232138, -135761.53, -135761.53, 0.00000008938933, 9.984398, 9.997629 
6.045407e+2, 3.1553036e+2, -216535.45, -1063.3805, -21527.912, -0.04655351, -0.008172923, 1066.431, 1066.431, 0.000000012284171, 9.980559, 10.009106 
6.1546004e+2, 1.2571266e+2, -1723024.1, -1728773.1, 1399.9174, -0.43548208, -0.06703903, -1722701.4, -14696.314, 0.26748, 9.999836, 9.999029 
6.154263e+2, 1.3571104e+2, -1605230.1, -1620894.8, 2838.5105, -0.09888354, -0.13028194, -1604731.6, 5288.4575, 0.20248263, 10.001289, 9.998991 
6.1538994e+2, 1.4570995e+2, -1489508.4, -1506737.0, 7932.6724, -0.05264259, -0.16944918, -1486412.3, 25617.354, 0.1372932, 10.002354, 9.999612 
6.153514e+2, 1.5570931e+2, -1382902.6, -1409469.0, 16483.13, -0.22247516, -0.19390835, -1375016.6, 39017.938, 0.08323744, 10.003099, 9.999181 
6.153142e+2, 1.657063e+2, -1308628.9, -1373593.1, 18411.266, -0.24921755, -0.16764173, -1303773.9, 12290.293, 0.04764406, 10.003496, 9.994717 
6.152778e+2, 1.7570171e+2, -1208225.9, -1274422.8, 15257.203, -0.16929542, -0.10156834, -1204878.6, 13232.471, 0.029067744, 10.003644, 9.994725 
6.152405e+2, 1.8569691e+2, -1096032.3, -1156836.4, 18745.574, -0.16288847, -0.110374555, -1090717.6, 29440.55, 0.020861352, 10.004072, 9.99585 
6.1520255e+2, 1.9569205e+2, -992255.5, -1061147.1, 29359.598, -0.21134073, -0.17918968, -981441.0, 40763.523, 0.017112555, 10.004689, 9.995383 
6.1516386e+2, 2.0568481e+2, -907653.75, -1024053.56, 27881.623, -0.22903168, -0.17841879, -901319.8, 22954.982, 0.014524592, 10.006084, 9.990549 
6.1512464e+2, 2.1567589e+2, -782525.2, -916881.25, 23625.412, -0.22369675, -0.12521578, -778491.94, 47870.42, 0.011680463, 10.008127, 9.990184 
6.150806e+2, 2.2566366e+2, -707039.3, -880077.1, -9747.944, -0.16621158, -0.12581147, -706491.9, 21990.63, 0.008318526, 10.008675, 9.985731 
6.150329e+2, 2.3564899e+2, -615208.3, -783397.6, -14056.763, -0.06936199, -0.16800016, -614041.56, 16585.537, 0.004990753, 10.008163, 9.985884 
6.1497694e+2, 2.456365e+2, -528390.3, -664209.06, -61090.13, -0.031508293, -0.13315096, -504955.94, 27793.867, 0.0024400158, 10.006174, 9.988265 
6.1491466e+2, 2.556257e+2, -472978.44, -586020.4, -61544.69, -0.038118843, -0.040499106, -445938.84, -11083.4795, 0.0009558225, 10.003214, 9.988333 
6.14849e+2, 2.6561388e+2, -432868.97, -504226.4, -82735.766, 0.016162394, -0.108420335, -378446.78, -41477.656, 0.0002989604, 9.998701, 9.989381 
6.1478084e+2, 2.7560136e+2, -416241.34, -443688.06, -76825.25, 0.116588704, -0.30307359, -351923.38, -112834.11, 0.000075235905, 9.993052, 9.98953 
6.147129e+2, 2.8559306e+2, -353039.88, -333221.75, -66527.07, 0.12688304, -0.22276254, -275869.8, -134698.36, 0.000015498474, 9.989413, 9.992128 
6.1464524e+2, 2.9558817e+2, -285774.22, -250998.9, -64234.2, 0.06590679, 0.07672101, -201840.61, -158617.75, 0.000002683712, 9.987348, 9.992033 
6.145814e+2, 3.0557868e+2, -240860.55, -139852.06, -38391.516, -0.016522594, -0.35522005, -126916.67, -126916.67, 0.00000040496255, 9.984345, 9.997744 
6.1452144e+2, 3.1558046e+2, -198439.67, 37112.797, -35108.363, -0.027388973, 0.0014682602, 42234.24, 42234.24, 0.000000054999564, 9.9805155, 10.011737 
6.254634e+2, 1.2574705e+2, -1712471.6, -1705654.0, -10697.004, -0.06899281, -0.11552713, -1697835.8, 9831.617, 0.34770593, 9.999785, 10.000878 
6.254276e+2, 1.3574757e+2, -1603694.4, -1603213.4, -581.6197, -0.059481233, -0.14933045, -1602824.5, 6836.3784, 0.27678776, 10.000636, 10.0006895 
6.253913e+2, 1.4574756e+2, -1498564.6, -1509662.0, 420.08853, -0.1113245, -0.16473442, -1498548.8, 13111.064, 0.20372976, 10.001652, 9.999756 
6.253544e+2, 1.557473e+2, -1385649.5, -1406888.6, -5863.4063, -0.21171424, -0.16618685, -1384138.4, 29523.027, 0.14113179, 10.002863, 9.999538 
6.253171e+2, 1.6574596e+2, -1310653.4, -1342529.1, -5109.931, -0.2281402, -0.14846118, -1309854.3, 5820.6147, 0.09802421, 10.001958, 9.997598 
6.252792e+2, 1.7574383e+2, -1250783.0, -1265726.4, 19638.61, -0.18063816, -0.116793, -1237242.8, -19545.914, 0.07388312, 9.999424, 9.997359 
6.252426e+2, 1.8574043e+2, -1145991.5, -1176977.0, 35937.883, -0.17993024, -0.12824616, -1122349.1, -2619.1167, 0.061775677, 10.000433, 9.996243 
6.252069e+2, 1.957362e+2, -999524.94, -1060157.3, 26460.3, -0.21502513, -0.17445579, -989601.6, 32168.707, 0.054800972, 10.00408, 9.995776 
6.2517023e+2, 2.0572944e+2, -899520.0, -1015040.7, 19111.662, -0.21930593, -0.16673194, -896440.3, 27395.752, 0.04829824, 10.006508, 9.990986 
6.25133e+2, 2.157209e+2, -781674.56, -911244.8, 20041.195, -0.20075859, -0.11838873, -778645.5, 47274.555, 0.03969167, 10.008078, 9.990612 
6.2509006e+2, 2.2570923e+2, -683987.44, -858574.44, -9163.174, -0.14665148, -0.13096884, -683507.8, 44526.344, 0.02870562, 10.009896, 9.98662 
6.250431e+2, 2.3569524e+2, -553557.44, -743497.56, -7157.9736, -0.06435906, -0.19078916, -553288.06, 76882.54, 0.017453494, 10.012056, 9.986727 
6.249857e+2, 2.4568327e+2, -448840.3, -621638.25, -63016.54, -0.03328189, -0.16098908, -428300.7, 103987.266, 0.008642462, 10.011483, 9.9886055 
6.2492067e+2, 2.5567287e+2, -385278.38, -537807.0, -64958.35, -0.042419545, -0.06309515, -361363.7, 73026.58, 0.0034235034, 10.00896, 9.988846 
6.248502e+2, 2.6566288e+2, -329787.75, -423496.6, -91530.16, -0.011208498, -0.122616865, -273816.56, 62670.008, 0.0010784973, 10.004381, 9.992133 
6.247758e+2, 2.7565312e+2, -320181.0, -367714.16, -75466.945, 0.05397403, -0.3081586, -264826.72, -26247.77, 0.00027151598, 9.998299, 9.992143 
6.247027e+2, 2.856464e+2, -323385.22, -307265.3, -54684.79, 0.09083964, -0.24497569, -260049.7, -119404.26, 0.000055490607, 9.990893, 9.993127 
6.246307e+2, 2.9564217e+2, -349434.75, -271280.1, -45187.01, 0.10292024, 0.017647056, -250617.13, -207926.36, 0.000009464297, 9.982508, 9.992909 
6.245623e+2, 3.0563325e+2, -367132.22, -203357.61, -16721.248, 0.048782572, -0.3841857, -201667.81, -201667.81, 0.0000014012888, 9.975801, 9.997452 
6.2449753e+2, 3.1563503e+2, -330711.06, 25.80635, -15988.381, 0.019757599, -0.008392293, 796.91394, 796.91394, 0.00000018674099, 9.970303, 10.014059 
6.354287e+2, 1.3578303e+2, -1624837.4, -1592241.4, -1201.2871, -0.00917197, -0.1885593, -1592197.3, 17115.244, 0.39329657, 9.997732, 10.003426 
6.353914e+2, 1.4578421e+2, -1546953.3, -1554955.0, 2066.3357, -0.25918415, -0.11223862, -1546451.3, -35150.965, 0.31713673, 9.999047, 9.997908 
6.353581e+2, 1.5578243e+2, -1405326.4, -1429832.5, -1687.6504, -0.1342916, -0.082332596, -1405210.6, 8106.927, 0.2496891, 10.001995, 9.99832 
6.353202e+2, 1.657836e+2, -1275455.4, -1262980.5, -11502.649, -0.11410215, -0.09703742, -1256133.0, 59172.824, 0.20145357, 10.001924, 10.00392 
6.352787e+2, 1.7578693e+2, -1208887.8, -1187358.3, 7392.219, -0.17129569, -0.15087888, -1185064.4, 32208.188, 0.17280336, 9.999655, 10.003004 
6.35243e+2, 1.8578503e+2, -1158687.0, -1206668.3, 46547.336, -0.18555394, -0.15907645, -1130311.6, -11020.586, 0.1566733, 10.000613, 9.994139 
6.352114e+2, 1.9577943e+2, -1015740.9, -1088643.0, 37256.754, -0.17078914, -0.13106921, -1000069.5, 21276.107, 0.14501944, 10.004005, 9.993894 
6.351779e+2, 2.0577247e+2, -895734.3, -998551.5, 23774.451, -0.10875643, -0.11775461, -890503.1, 32910.27, 0.13066417, 10.006443, 9.992152 
6.351429e+2, 2.1576461e+2, -776404.2, -893248.44, 24827.49, -0.010895961, -0.116863556, -771347.56, 54142.402, 0.10858898, 10.008173, 9.991806 
6.351015e+2, 2.2575435e+2, -672561.4, -830235.1, -727.74115, 0.008336135, -0.14451341, -672558.06, 55030.98, 0.07898693, 10.010013, 9.988498 
6.350555e+2, 2.3574233e+2, -543220.6, -717078.5, -550.11487, -0.029951472, -0.19541456, -543218.9, 86485.44, 0.0482744, 10.012125, 9.988499 
6.349974e+2, 2.4573098e+2, -448720.38, -618208.06, -71513.36, -0.009715423, -0.19927864, -422578.34, 109236.484, 0.024064021, 10.011466, 9.988856 
6.349307e+2, 2.557202e+2, -381224.56, -529521.8, -75236.734, 0.052660216, -0.1672521, -349738.97, 84182.26, 0.009598113, 10.008993, 9.989394 
6.3485485e+2, 2.6571307e+2, -299767.9, -362614.84, -114158.81, 0.0076537724, -0.18626149, -212786.69, 123203.91, 0.0030358196, 10.004424, 9.996272 
6.3477254e+2, 2.7570868e+2, -290584.72, -308713.34, -98688.16, -0.11469036, -0.25007352, -200545.48, 37487.305, 0.0007625615, 9.998372, 9.996128 
6.3469166e+2, 2.8570482e+2, -308800.2, -277367.66, -86831.93, -0.104018405, -0.1950554, -204841.16, -64769.496, 0.000154207, 9.990864, 9.995159 
6.34612e+2, 2.9570153e+2, -339623.66, -246085.94, -76023.766, 0.0052560144, -0.040618602, -203597.08, -161490.39, 0.000025824105, 9.982255, 9.994724 
6.345377e+2, 3.056934e+2, -377438.25, -215662.84, -37111.05, 0.050012976, -0.40856227, -207555.88, -207555.88, 0.000003737345, 9.975388, 9.996788 
6.3446814e+2, 3.156949e+2, -324708.4, 24641.129, -35743.625, 0.100507535, -0.012764046, 28260.729, 28260.729, 0.0000004866626, 9.969751, 10.015996 
6.4532197e+2, 1.6582611e+2, -1347694.0, -1421417.0, 53750.676, -0.12863396, -0.35441974, -1319379.5, -4495.2114, 0.3885222, 10.002064, 9.992096 
6.4528406e+2, 1.758203e+2, -1173063.3, -1269536.6, -39182.22, -0.07846997, -0.16009879, -1159154.8, 57790.04, 0.3581483, 10.008941, 9.9927845 
6.4524865e+2, 1.858166e+2, -1063848.3, -1107424.0, -39674.82, -0.009342517, -0.123712674, -1040372.4, 78609.48, 0.33872157, 10.006977, 9.998604 
6.452151e+2, 1.9581434e+2, -1062534.6, -1063797.8, -18396.934, 0.072728656, -0.20535606, -1044758.44, -23755.607, 0.32048097, 9.998494, 9.998265 
6.451819e+2, 2.0581156e+2, -953739.6, -977339.3, 28147.172, -0.025051039, -0.22347908, -935019.0, -11991.158, 0.29101813, 9.999963, 9.996743 
6.45149e+2, 2.158085e+2, -757088.44, -833062.1, 41712.09, -0.251093, -0.19723597, -738658.1, 86396.44, 0.24104801, 10.008627, 9.995985 
6.451115e+2, 2.2580029e+2, -624689.8, -794236.1, 19135.477, -0.21275255, -0.23108591, -622556.94, 104574.15, 0.17379808, 10.014256, 9.98892 
6.4507097e+2, 2.3578845e+2, -467289.6, -664568.25, 6930.4927, 0.012275098, -0.30949152, -467046.4, 162196.48, 0.10547115, 10.017979, 9.989268 
6.450109e+2, 2.4577968e+2, -400999.03, -544603.75, -80961.38, 0.10919113, -0.33056986, -364587.13, 166740.97, 0.052476186, 10.01292, 9.993244 
6.449367e+2, 2.5577307e+2, -455262.53, -517554.94, -55924.285, 0.11770919, -0.3099812, -422396.16, 10998.395, 0.020963645, 10.001758, 9.993608 
6.448549e+2, 2.657702e+2, -413616.75, -379495.8, -78379.61, 0.04120583, -0.27994624, -316341.4, 19083.514, 0.0066382065, 9.994907, 9.999586 
6.447675e+2, 2.7577007e+2, -370353.53, -310013.7, -69073.45, -0.10096964, -0.24887496, -264808.78, -27380.334, 0.0016621638, 9.991248, 9.999369 
6.446807e+2, 2.857691e+2, -340209.06, -265226.8, -63057.707, -0.12200276, -0.18238968, -229356.77, -89916.27, 0.0003328343, 9.987473, 9.997516 
6.445943e+2, 2.957676e+2, -304080.3, -204278.17, -49603.89, -0.04858984, -0.079188675, -183818.3, -142360.67, 0.00005481813, 9.983553, 9.99684 
6.4451337e+2, 3.05761e+2, -358205.72, -206936.05, -10370.584, 0.014556176, -0.3839696, -206228.39, -206228.39, 0.0000077649, 9.976657, 9.99665 
6.444367e+2, 3.157619e+2, -340143.53, 42220.383, -4035.4204, 0.090288825, -0.047614187, 42262.97, 42262.97, 0.0000009885403, 9.96756, 10.018136 
6.551201e+2, 2.2584699e+2, -634074.75, -801280.44, 30933.787, -0.78807735, -0.3879437, -628535.4, 98126.03, 0.3048361, 10.015484, 9.987922 
6.5508956e+2, 2.3583354e+2, -479721.53, -665596.06, 15167.433, 0.06642621, -0.5301685, -478492.0, 150294.97, 0.18142392, 10.0181675, 9.989122 
6.5502584e+2, 2.4582933e+2, -352092.7, -429259.4, -114756.61, 0.3199276, -0.55329424, -269606.84, 261221.2, 0.08937039, 10.012776, 10.001766 
6.5493864e+2, 2.5583166e+2, -402288.94, -403290.16, -93499.58, 0.14840037, -0.4910913, -309288.63, 123520.734, 0.035588257, 10.001593, 10.001629 
6.5485024e+2, 2.6583442e+2, -397476.94, -342578.3, -91461.68, 0.09242448, -0.4056994, -274535.72, 60252.004, 0.011258041, 9.994741, 10.002204 
6.547608e+2, 2.7583754e+2, -354491.75, -273111.16, -82244.88, 0.114833966, -0.31033918, -222041.33, 14722.115, 0.0028113003, 9.991056, 10.001974 
6.546698e+2, 2.8583962e+2, -321525.63, -223913.4, -76229.414, 0.056741845, -0.21048278, -182204.55, -43456.684, 0.00055914593, 9.987344, 10.000387 
6.5457785e+2, 2.9584116e+2, -284642.72, -165191.72, -64001.746, -0.0543136, -0.09315791, -137376.61, -96639.78, 0.000091049755, 9.983584, 9.999477 
6.544893e+2, 3.0583706e+2, -352900.28, -196602.69, -43714.01, -0.06642329, -0.30101585, -185207.38, -185207.38, 0.000012701334, 9.976627, 9.997327 
6.544029e+2, 3.158376e+2, -325439.7, 76150.96, -35992.566, -0.034342617, -0.08191055, 79351.29, 79351.29, 0.0000015905589, 9.967351, 10.020526 
6.6511595e+2, 2.3589788e+2, -313447.94, -573308.25, 43229.547, 0.06232198, -0.65290004, -306445.13, 321704.5, 0.24436317, 10.034394, 9.988518 
6.650344e+2, 2.4589762e+2, -382612.94, -375294.63, -29775.643, 0.178651, -0.6288287, -348954.16, 181199.28, 0.118759, 10.00734, 10.008529 
6.649387e+2, 2.559069e+2, -378706.94, -322068.2, -12760.894, 0.072134644, -0.54390913, -319325.9, 112741.11, 0.047022905, 9.999985, 10.007903 
6.6484404e+2, 2.659134e+2, -404350.44, -328421.1, -4240.119, 0.06894269, -0.44358078, -328185.06, 5825.1636, 0.014843493, 9.99344, 10.00352 
6.6475034e+2, 2.7591798e+2, -394949.44, -275512.6, -3427.6865, 0.14044484, -0.33881673, -275414.3, -39440.87, 0.0037003139, 9.987482, 10.003296 
6.646551e+2, 2.859213e+2, -383908.13, -236751.23, -5601.664, 0.09326131, -0.24563986, -236538.31, -98591.78, 0.000733863, 9.982273, 10.001743 
6.645587e+2, 2.9592407e+2, -361519.7, -186263.56, -5655.159, -0.03905636, -0.14154518, -186081.27, -146157.27, 0.00011897592, 9.97758, 10.000747 
6.644637e+2, 3.0592206e+2, -417815.94, -220780.13, -3439.4092, -0.05768973, -0.22367473, -220720.11, -220720.11, 0.000016499538, 9.971804, 9.997817 
6.6436875e+2, 3.1592193e+2, -343634.1, 85499.77, 2909.4053, -0.08212689, -0.12809859, 85519.5, 85519.5, 0.0000020542077, 9.965239, 10.022007 
6.75149e+2, 2.359807e+2, -329457.56, -583634.4, -95659.35, -0.022408588, -0.6779493, -297479.4, 329859.22, 0.25776935, 10.033226, 9.987995 
6.7503685e+2, 2.4598429e+2, -349936.06, -305733.03, -53073.777, -0.30734143, -0.5586199, -270342.78, 258964.1, 0.12396193, 10.007236, 10.014064 
6.7493683e+2, 2.5599918e+2, -346247.44, -253791.38, -37803.574, -0.11027409, -0.46494225, -240302.23, 190862.86, 0.04878201, 9.999884, 10.012855 
6.748364e+2, 2.660078e+2, -402338.97, -323171.06, -25670.11, -0.03833778, -0.3891423, -315576.16, 17510.023, 0.015344357, 9.993347, 10.003896 
6.7473584e+2, 2.7601227e+2, -394447.72, -271609.44, -23872.422, -0.04705385, -0.3322942, -267133.2, -32083.965, 0.0038181168, 9.987319, 10.003602 
6.7463595e+2, 2.8601524e+2, -386787.72, -238060.84, -21383.68, -0.028685587, -0.2895312, -235047.39, -98021.78, 0.0007570789, 9.982045, 10.001727 
6.7453647e+2, 2.9601753e+2, -365676.72, -188055.95, -21984.434, 0.0051195933, -0.23084165, -185375.36, -146367.63, 0.00012294645, 9.977258, 10.000741 
6.7443633e+2, 3.060174e+2, -418064.78, -214590.78, -24955.48, 0.06070615, -0.15278472, -211574.77, -211574.77, 0.000017104032, 9.971476, 9.998351 
6.743344e+2, 3.160172e+2, -342832.75, 90648.125, -19050.225, -0.029557394, -0.12152224, 91483.71, 91483.71, 0.000002140193, 9.965045, 10.022406 
6.85333e+2, 2.2611e+2, -601604.7, -778304.06, -18934.63, 1.115236, -0.7018041, -599598.44, 124476.97, 0.3800128, 10.019361, 9.986213 
6.851726e+2, 2.3609821e+2, -514523.9, -676843.44, 7084.561, -0.018293252, -0.5090069, -514215.28, 111979.95, 0.21624221, 10.014331, 9.988796 
6.85044e+2, 2.4609964e+2, -358058.22, -343040.66, 105447.375, -0.35412166, -0.41666076, -244835.05, 283349.44, 0.103377394, 10.007908, 10.009868 
6.849362e+2, 2.5610986e+2, -367126.22, -297618.34, 68374.49, -0.15089616, -0.39084184, -255672.17, 174414.67, 0.04038184, 9.999781, 10.009246 
6.848297e+2, 2.6611614e+2, -397529.66, -328840.28, 60297.24, -0.073208906, -0.33410773, -293792.5, 38236.54, 0.012613931, 9.993929, 10.002937 
6.847238e+2, 2.7611974e+2, -367122.7, -266339.44, 53635.6, -0.08113138, -0.26938325, -243136.95, -9138.341, 0.0031239158, 9.989437, 10.002667 
6.8461937e+2, 2.861213e+2, -341471.66, -222958.34, 52438.203, -0.04861093, -0.2770353, -203087.78, -67100.66, 0.0006189313, 9.985353, 10.000915 
6.8451583e+2, 2.96122e+2, -307125.63, -166000.03, 44872.188, 0.013475427, -0.29753357, -152940.94, -114957.17, 0.00010091804, 9.981439, 9.999994 
6.844097e+2, 3.0612278e+2, -372412.9, -192098.69, 26271.082, 0.10344944, -0.08751482, -188349.06, -188349.06, 0.000014155943, 9.974455, 9.998205 
6.8429965e+2, 3.1612134e+2, -341301.75, 78795.75, 25812.418, -0.03498131, -0.1655761, 80375.82, 80375.82, 0.0000017925771, 9.965579, 10.021103 
6.955143e+2, 2.1626267e+2, -760535.06, -870603.8, -124817.12, 0.6730461, -0.50831854, -679157.94, 141436.36, 0.38750786, 10.011065, 9.992148 
6.9534284e+2, 2.2625688e+2, -553876.6, -711270.44, -33278.426, 0.15785353, -0.24018952, -547129.6, 175524.13, 0.2597733, 10.019123, 9.991061 
6.951881e+2, 2.362487e+2, -486984.94, -633919.0, -8530.749, 0.09960468, -0.1618287, -486491.34, 138245.02, 0.1483215, 10.014309, 9.991682 
6.9505554e+2, 2.4624294e+2, -436537.88, -510986.75, 81509.72, 0.018926546, -0.2068205, -384154.88, 142638.73, 0.07046137, 10.007778, 9.997085 
6.949369e+2, 2.5623903e+2, -446267.13, -459498.2, 42608.465, -0.05645896, -0.32420754, -409763.7, 19068.043, 0.027195297, 9.999648, 9.997778 
6.9482404e+2, 2.6623908e+2, -410975.44, -356153.66, 45035.785, -0.028990438, -0.27681893, -330842.8, -10.5795765, 0.008380639, 9.993882, 10.00102 
6.9471467e+2, 2.7624145e+2, -379598.63, -292859.1, 39260.3, 0.057155844, -0.14252998, -277728.38, -44917.117, 0.0020522075, 9.989439, 10.000806 
6.9460577e+2, 2.8624097e+2, -349067.97, -241143.7, 40662.113, 0.044252988, -0.20057167, -227538.69, -92721.02, 0.00040412036, 9.985439, 9.999585 
6.94497e+2, 2.9623917e+2, -313069.4, -182510.5, 30937.553, -0.026169755, -0.33777633, -175550.5, -138714.06, 0.00006593558, 9.981591, 9.998742 
6.9438374e+2, 3.0623996e+2, -375020.25, -200133.05, -4209.933, 0.05175674, -0.032476265, -200031.77, -200031.77, 0.000009313444, 9.974495, 9.99756 
6.942645e+2, 3.1623694e+2, -364437.78, 31644.527, -5816.2764, -0.1054525, -0.19053179, 31729.918, 31729.918, 0.000001193677, 9.965473, 10.017833 
7.061874e+2, 1.764334e+2, -1188321.4, -1185841.0, -4478.117, 0.30317345, -0.035644412, -1182434.5, 28508.582, 0.39469835, 10.000845, 10.001379 
7.060222e+2, 1.8643163e+2, -1112893.9, -1144876.3, -12379.323, 0.19685248, -0.06816569, -1108662.1, 4295.0313, 0.36483684, 10.000871, 9.996433 
7.058579e+2, 1.9642623e+2, -1008685.75, -1048596.6, -14451.8125, 0.14920212, -0.24579911, -1004002.3, 11002.5205, 0.33050793, 10.001719, 9.995908 
7.056881e+2, 2.0642088e+2, -899406.06, -969880.5, -37483.426, 0.014969629, -0.23627456, -883197.5, 33858.035, 0.28323063, 10.003911, 9.993626 
7.0551515e+2, 2.1641566e+2, -762485.2, -854628.1, -31749.836, -0.17227432, -0.11631359, -752604.6, 66502.49, 0.2198777, 10.007232, 9.9932 
7.053554e+2, 2.2640817e+2, -625913.0, -761309.0, 4716.691, -0.08129702, -0.061484583, -625748.9, 95432.59, 0.14853178, 10.011092, 9.991085 
7.0520353e+2, 2.3639943e+2, -470515.7, -638645.75, 5518.1377, 0.18029118, -0.04822023, -470334.75, 152933.58, 0.084736004, 10.015016, 9.990971 
7.050671e+2, 2.4638903e+2, -416061.9, -581621.3, 87442.78, 0.16469245, -0.11469694, -378430.97, 146939.27, 0.039806686, 10.0123825, 9.989742 
7.049398e+2, 2.5637776e+2, -408313.13, -516382.63, 87446.945, -0.017905653, -0.22718729, -359553.3, 67926.85, 0.015082468, 10.005394, 9.990861 
7.048209e+2, 2.663729e+2, -346490.13, -358671.6, 107881.125, -0.016202386, -0.19265321, -244527.94, 84999.5, 0.0045496766, 9.999662, 9.997813 
7.0470697e+2, 2.7637187e+2, -324738.7, -298709.6, 93179.8, 0.09499997, -0.08156505, -217639.86, 13897.618, 0.0010921286, 9.994489, 9.997741 
7.0459265e+2, 2.863683e+2, -322379.4, -252601.23, 84676.48, 0.054616656, -0.17957662, -195907.83, -62335.445, 0.0002118556, 9.988213, 9.997256 
7.0447797e+2, 2.9636377e+2, -329047.47, -210146.9, 66361.1, -0.07521936, -0.36133814, -180500.98, -144884.1, 0.00003429552, 9.981256, 9.996825 
7.04358e+2, 3.0636474e+2, -367401.78, -191185.3, 26141.465, 0.019757826, 0.022720652, -187389.03, -187389.03, 0.000004841763, 9.974655, 9.997874 
7.042307e+2, 3.163609e+2, -343752.28, 6073.8022, 30045.451, -0.15625513, -0.21778473, 8635.552, 8635.552, 0.0000006241888, 9.968271, 10.014475 
7.168478e+2, 1.3660568e+2, -1570776.6, -1577750.6, -2186.9043, 0.35926604, -0.24937758, -1570147.6, 31106.115, 0.38652608, 10.0022335, 10.000625 
7.16685e+2, 1.466047e+2, -1471499.0, -1501939.1, -4649.768, 0.4097147, -0.22608128, -1470804.6, 32458.092, 0.32051206, 10.003505, 9.997482 
7.1651983e+2, 1.5660276e+2, -1381015.3, -1414805.9, 11127.184, 0.3311163, -0.1584196, -1377680.3, 27602.168, 0.26347062, 10.002749, 9.997031 
7.1635425e+2, 1.6659942e+2, -1296721.5, -1337629.1, 5350.385, 0.32371816, -0.1274323, -1296033.4, 11282.268, 0.22242808, 10.001902, 9.995996 
7.161887e+2, 1.7659557e+2, -1209689.5, -1245315.6, -12688.394, 0.34962752, -0.121660374, -1205632.5, 3721.6094, 0.19594836, 10.000969, 9.996152 
7.160243e+2, 1.865918e+2, -1107587.1, -1140695.8, -10650.721, 0.3098205, -0.1374143, -1104456.9, 6932.092, 0.17698015, 10.001115, 9.996598 
7.158605e+2, 1.9658798e+2, -1004233.0, -1047969.2, -13580.717, 0.23842499, -0.17121255, -1000359.1, 13063.886, 0.15849073, 10.001892, 9.995858 
7.1569455e+2, 2.0658195e+2, -896931.8, -982972.06, -30787.082, 0.25697893, -0.1625578, -887050.4, 28430.951, 0.135088, 10.004198, 9.992502 
7.1552736e+2, 2.1657474e+2, -760200.56, -874912.94, -23937.047, 0.31760448, -0.12839435, -755406.0, 62146.934, 0.10472866, 10.007545, 9.991594 
7.1537024e+2, 2.2656366e+2, -642687.7, -819884.0, 18681.117, 0.2821474, -0.12866104, -640739.6, 78922.21, 0.070625424, 10.011251, 9.987033 
7.152189e+2, 2.3655054e+2, -489497.44, -693960.4, 15289.994, 0.20282646, -0.14972512, -488360.34, 133430.3, 0.039985843, 10.014999, 9.987205 
7.150787e+2, 2.4653822e+2, -428328.72, -610186.6, 62609.613, 0.095076844, -0.13221572, -408858.25, 115053.84, 0.018488757, 10.012199, 9.987757 
7.14945e+2, 2.5652647e+2, -423438.53, -548195.2, 63439.426, -0.031580392, -0.094712056, -396847.1, 29181.564, 0.0068486584, 10.005306, 9.988647 
7.148204e+2, 2.6651803e+2, -374957.75, -419198.13, 89640.04, -0.040516034, -0.083870925, -304748.97, 23361.059, 0.002012139, 9.99968, 9.993594 
7.1470076e+2, 2.7651155e+2, -351886.56, -357217.63, 74239.695, 0.017535742, -0.09767054, -280264.56, -50093.207, 0.0004701991, 9.994542, 9.993652 
7.1458006e+2, 2.8650415e+2, -344292.47, -298872.2, 59520.867, -0.028604489, -0.22030129, -257876.1, -125632.586, 0.000089020745, 9.988185, 9.994036 
7.144586e+2, 2.9649687e+2, -347269.84, -245682.69, 41536.79, -0.13265522, -0.36210853, -230861.53, -196545.9, 0.000014141366, 9.981097, 9.994404 
7.143325e+2, 3.0649835e+2, -355156.03, -164727.72, 5596.8335, 0.012835644, 0.07377982, -164563.38, -164563.38, 0.0000019726779, 9.974561, 9.999664 
7.14199e+2, 3.1649598e+2, -362352.2, -35987.523, 7431.746, -0.16725281, -0.1607988, -35818.38, -35818.38, 0.00000025307432, 9.968371, 10.011461 
7.270087e+2, 1.2677056e+2, -1679092.8, -1692161.4, 3094.3057, 0.42514467, -0.031855077, -1678397.1, 19247.19, 0.3249284, 10.001611, 9.999014 
7.2684765e+2, 1.3677071e+2, -1608304.1, -1608579.5, 2797.5212, 0.31784725, 0.0819147, -1605641.0, -6001.522, 0.25896254, 9.999121, 9.999054 
7.266841e+2, 1.4676996e+2, -1515709.1, -1506273.8, -11646.479, 0.2657271, 0.06640101, -1498425.8, 3219.364, 0.19362733, 9.9984, 9.999703 
7.265194e+2, 1.5676865e+2, -1420436.8, -1421768.3, -15349.73, 0.24635895, -0.024907961, -1405738.4, -2081.1936, 0.13975078, 9.99874, 9.998592 
7.263547e+2, 1.6676386e+2, -1333055.5, -1384643.0, -16609.96, 0.27055869, -0.07093321, -1328170.1, -22465.064, 0.10369576, 10.000413, 9.993651 
7.261904e+2, 1.7675729e+2, -1199988.8, -1266709.4, -16670.574, 0.31789657, -0.09417762, -1196055.4, 11715.819, 0.08329363, 10.002766, 9.993873 
7.260266e+2, 1.8675175e+2, -1083686.6, -1144151.1, -14810.472, 0.304305, -0.113895275, -1080253.8, 29570.55, 0.071629986, 10.003439, 9.995278 
7.2586334e+2, 1.9674684e+2, -992151.3, -1057288.1, -24291.912, 0.25884417, -0.13019691, -984089.7, 27780.434, 0.0626571, 10.003292, 9.994631 
7.257003e+2, 2.0673972e+2, -875368.94, -984779.7, -32892.254, 0.31816146, -0.12331308, -866241.94, 47697.387, 0.05271279, 10.006095, 9.991567 
7.2553754e+2, 2.1673137e+2, -723187.7, -871731.5, -27127.455, 0.43200427, -0.107366554, -718388.6, 97633.05, 0.04049893, 10.010467, 9.990508 
7.2538185e+2, 2.2671871e+2, -657956.56, -847238.6, 16283.733, 0.34531814, -0.12993143, -656565.9, 61579.633, 0.02707442, 10.010662, 9.985495 
7.2523004e+2, 2.3670377e+2, -590791.3, -764165.75, 26927.896, 0.1510784, -0.17262787, -586705.25, 33586.13, 0.015145454, 10.008476, 9.985541 
7.250875e+2, 2.4669e+2, -521400.84, -675158.9, 64070.02, 0.04797583, -0.12995529, -498203.13, 24224.34, 0.00688251, 10.00642, 9.986016 
7.2495e+2, 2.56677e+2, -451149.34, -583120.1, 66440.74, -0.0068548922, -0.04050077, -423494.78, 1062.264, 0.002492954, 10.004217, 9.986702 
7.248205e+2, 2.666657e+2, -388924.4, -464051.06, 94803.51, -0.026590476, -0.038876615, -324513.7, 2152.8518, 0.0007133133, 10.000257, 9.990148 
7.246952e+2, 2.7665532e+2, -364095.44, -398671.28, 84772.79, -0.02576032, -0.097686924, -294865.75, -66100.24, 0.00016188902, 9.995129, 9.990416 
7.2456855e+2, 2.8664553e+2, -331755.1, -314321.78, 74845.91, -0.077039525, -0.2047537, -247686.66, -116825.69, 0.000029733326, 9.989846, 9.992023 
7.24441e+2, 2.966368e+2, -305811.38, -240670.28, 66947.12, -0.15481505, -0.2959954, -198791.13, -165843.03, 0.0000045894453, 9.984454, 9.992941 
7.2431e+2, 3.0663794e+2, -259531.06, -105184.51, 35960.78, 0.034860607, 0.10138956, -97217.36, -97217.36, 0.000000625104, 9.980406, 10.000734 
7.2417164e+2, 3.1663617e+2, -258706.95, -24600.545, 28844.256, -0.14516498, -0.13701844, -21099.016, -21099.016, 0.00000007886788, 9.976982, 10.007904 
7.3701024e+2, 1.2693313e+2, -1675627.0, -1686908.9, -3964.817, 0.42154247, 0.048133228, -1674373.0, 21679.895, 0.23778392, 10.001428, 9.999452 
7.368471e+2, 1.3693061e+2, -1597256.9, -1600465.0, -5775.9434, 0.3462698, -0.14671238, -1592866.4, 5207.0396, 0.1785252, 9.999779, 9.999297 
7.366832e+2, 1.4692947e+2, -1506455.6, -1508468.5, -12929.308, 0.32177258, -0.17316668, -1494493.6, 5588.893, 0.12096511, 9.999358, 9.999084 
7.36519e+2, 1.5692899e+2, -1411452.3, -1424286.8, -15872.833, 0.32431, -0.121655166, -1400748.6, 1337.9503, 0.07490623, 9.999677, 9.997981 
7.363554e+2, 1.6692488e+2, -1325045.1, -1383041.5, -10467.579, 0.2869302, -0.05809262, -1323213.6, -19084.973, 0.04563615, 10.001106, 9.993448 
7.3619235e+2, 1.7691895e+2, -1198861.1, -1272612.5, -11845.475, 0.23219217, 0.006425073, -1197005.3, 9184.715, 0.030663857, 10.0031, 9.993323 
7.3602915e+2, 1.8691169e+2, -1094141.1, -1175465.9, -17523.85, 0.21987222, -0.032382317, -1090525.9, 17735.09, 0.023701452, 10.00372, 9.993 
7.358663e+2, 1.9690381e+2, -999700.0, -1084463.8, -23404.932, 0.22717735, -0.11879048, -993666.8, 16669.3, 0.019736366, 10.003703, 9.992571 
7.357056e+2, 2.068953e+2, -876858.9, -996516.2, -17275.55, 0.23067553, -0.110363595, -874414.6, 38003.93, 0.01620391, 10.006399, 9.990634 
7.3554605e+2, 2.1688639e+2, -726445.8, -882849.56, -15259.938, 0.2332602, -0.05822702, -724970.9, 89534.84, 0.012252126, 10.010471, 9.989756 
7.3539054e+2, 2.2687376e+2, -654346.4, -840173.06, 7786.855, 0.15580702, -0.07380123, -654020.6, 62608.06, 0.008081527, 10.010566, 9.985993 
7.3523736e+2, 2.368592e+2, -589146.25, -761698.0, 18984.184, 0.037804518, -0.12334849, -587082.3, 31687.78, 0.0044581834, 10.00848, 9.98568 
7.350937e+2, 2.468443e+2, -531359.44, -696373.2, 55672.56, 0.022806507, -0.112421885, -514333.28, 6583.833, 0.0019931206, 10.006432, 9.9845295 
7.3495483e+2, 2.5682932e+2, -462695.03, -606727.0, 56871.555, 0.056964695, -0.069119036, -442946.78, -19880.98, 0.0007080672, 10.004195, 9.985066 
7.348212e+2, 2.6681596e+2, -407554.3, -501743.56, 75432.3, 0.027836476, -0.0585232, -365722.38, -40525.84, 0.00019798262, 10.000173, 9.987558 
7.346902e+2, 2.768034e+2, -379886.06, -430491.78, 65530.277, -0.030732935, -0.07622987, -334943.25, -107625.51, 0.00004372333, 9.995046, 9.988227 
7.3455834e+2, 2.8679308e+2, -334507.8, -320325.78, 55613.895, -0.08441645, -0.12251328, -271352.66, -141933.27, 0.00000777973, 9.989815, 9.99157 
7.344258e+2, 2.9678458e+2, -304862.1, -241888.69, 49925.984, -0.13377416, -0.14860897, -214349.83, -182845.19, 0.0000011600459, 9.984552, 9.992753 
7.342914e+2, 3.0678433e+2, -251374.83, -97165.53, 26623.154, 0.09321214, 0.09329801, -92698.625, -92698.625, 0.00000015282394, 9.980778, 10.001058 
7.3415005e+2, 3.1678274e+2, -273791.94, -71711.164, 14562.375, -0.06700678, -0.119708166, -70667.16, -70667.16, 0.000000018750402, 9.977642, 10.004296 
7.470113e+2, 1.2709515e+2, -1674984.9, -1693764.6, 283.87115, 0.37852088, 0.04836433, -1674980.5, 19485.656, 0.17498668, 10.001682, 9.998679 
7.46849e+2, 1.3709201e+2, -1555200.4, -1588555.9, -6464.7827, 0.34732243, -0.13183638, -1553991.3, 42502.473, 0.12614638, 10.00343, 9.998404 
7.466856e+2, 1.4708948e+2, -1447306.3, -1495227.6, -17165.078, 0.34177122, -0.17210259, -1441792.3, 56724.426, 0.07953289, 10.004396, 9.997591 
7.46522e+2, 1.5708734e+2, -1342915.3, -1403074.4, -24408.123, 0.3506709, -0.14085826, -1334258.0, 66278.54, 0.043202173, 10.005068, 9.996895 
7.46359e+2, 1.6708334e+2, -1262605.9, -1346486.6, -17791.22, 0.30689046, -0.05825288, -1258988.4, 43589.637, 0.021088429, 10.005153, 9.99404 
7.461965e+2, 1.770783e+2, -1170266.6, -1257681.0, -15476.622, 0.23732911, 0.042377133, -1167607.4, 37023.426, 0.010649498, 10.004991, 9.993476 
7.460341e+2, 1.8707035e+2, -1072932.4, -1183189.5, -17510.545, 0.21065746, 0.022461258, -1070218.3, 36491.17, 0.006562636, 10.005911, 9.991447 
7.4587184e+2, 1.9706103e+2, -955484.6, -1078074.1, -18676.818, 0.2060306, -0.054446477, -952702.3, 56097.684, 0.0048899045, 10.00735, 9.991261 
7.457123e+2, 2.0705178e+2, -857492.2, -990044.7, -5077.5317, 0.17630398, -0.054311816, -857298.0, 53591.37, 0.0038310855, 10.007808, 9.990404 
7.4555415e+2, 2.1704245e+2, -767486.8, -907644.06, -425.14102, 0.13363832, -0.01793021, -767485.56, 45493.98, 0.0028255505, 10.00777, 9.989365 
7.453992e+2, 2.270292e+2, -692442.6, -865535.06, 10691.908, 0.08495075, -0.03945325, -691784.7, 23323.49, 0.001831323, 10.008165, 9.9854145 
7.4524593e+2, 2.3701411e+2, -589018.7, -767427.94, 14020.168, 0.0337122, -0.08937478, -587923.6, 29331.533, 0.0009953121, 10.008677, 9.985213 
7.451008e+2, 2.4699889e+2, -517374.97, -692387.44, 48758.04, 0.03783697, -0.08051553, -504707.9, 14697.239, 0.00043852392, 10.00744, 9.98431 
7.4495965e+2, 2.5698358e+2, -451215.6, -606159.44, 57184.137, 0.06918125, -0.04397358, -432396.7, -10840.111, 0.00015334149, 10.00512, 9.984618 
7.4482185e+2, 2.6696914e+2, -405218.72, -515487.22, 75484.95, 0.03692522, -0.042029034, -366876.97, -43179.01, 0.000042087406, 10.000863, 9.986194 
7.4468553e+2, 2.769552e+2, -378689.94, -442614.97, 75186.31, -0.02646785, -0.06305038, -328954.3, -103120.695, 0.000009082788, 9.995565, 9.987025 
7.445489e+2, 2.869446e+2, -317469.88, -316822.4, 69572.97, -0.06998227, -0.0611731, -247572.42, -119634.07, 0.0000015695316, 9.991081, 9.991066 
7.444118e+2, 2.969362e+2, -270024.84, -228440.84, 65144.066, -0.10185882, -0.023347568, -180851.16, -150829.17, 0.00000022586467, 9.98698, 9.9923725 
7.44274e+2, 3.0693385e+2, -199461.28, -76503.77, 44642.707, 0.11370472, 0.03977985, -62004.84, -62004.84, 0.000000028628612, 9.984444, 10.000605 
7.4412996e+2, 3.1693244e+2, -220357.48, -76219.695, 23296.793, -0.0652547, -0.080836624, -72547.81, -72547.81, 0.0000000033861756, 9.982507, 10.001541 
7.5701237e+2, 1.2725733e+2, -1680793.0, -1713787.6, 2947.8643, 0.3161677, 0.017192338, -1680531.8, 12345.904, 0.12768431, 10.001877, 9.997237 
7.568523e+2, 1.3725449e+2, -1562530.0, -1609999.5, -4269.7964, 0.33503398, 0.01269839, -1562149.0, 32754.838, 0.089724064, 10.003551, 9.996826 
7.566901e+2, 1.4724998e+2, -1458623.4, -1523378.9, -16871.775, 0.3420388, -0.04351141, -1454491.1, 42455.465, 0.054134592, 10.004452, 9.995635 
7.565271e+2, 1.5724492e+2, -1350799.8, -1422208.0, -23453.98, 0.3473924, -0.1158712, -1343785.4, 55209.74, 0.027072946, 10.005111, 9.995558 
7.563644e+2, 1.6724068e+2, -1253574.5, -1331009.8, -19243.527, 0.33053333, -0.064884946, -1249056.0, 51982.586, 0.011197228, 10.005266, 9.995033 
7.562022e+2, 1.772366e+2, -1163195.6, -1248469.3, -16461.914, 0.30034858, 0.037129246, -1160128.0, 42953.695, 0.0041548423, 10.0052185, 9.993994 
7.5604033e+2, 1.8722862e+2, -1078276.1, -1198189.6, -13304.246, 0.2492498, 0.06223506, -1076817.8, 28343.947, 0.0017274636, 10.006103, 9.990342 
7.558791e+2, 1.9721887e+2, -960269.75, -1089249.0, -14844.133, 0.19163302, 0.05027895, -958583.4, 48674.957, 0.0009872697, 10.007419, 9.99047 
7.5571984e+2, 2.0720932e+2, -854794.0, -985359.56, -5976.7607, 0.14994158, 0.033142753, -854521.0, 54829.215, 0.0006952538, 10.007849, 9.990696 
7.5556177e+2, 2.1719967e+2, -767620.25, -909434.44, -850.49854, 0.11585342, 0.014307851, -767615.2, 43826.977, 0.000491256, 10.007847, 9.989201 
7.554077e+2, 2.2718523e+2, -702512.2, -887513.9, 12183.533, 0.11555576, -0.023361402, -701713.25, 11869.372, 0.0003108793, 10.008243, 9.983873 
7.552556e+2, 2.371687e+2, -595908.4, -782092.2, 14436.915, 0.1275746, -0.068954945, -594795.56, 20949.148, 0.00016613609, 10.008717, 9.984182 
7.551087e+2, 2.4715386e+2, -511201.4, -679135.6, 40301.402, 0.08716044, -0.033196434, -502030.56, 15859.959, 0.00007218656, 10.007411, 9.985196 
7.549643e+2, 2.5713977e+2, -446225.5, -595428.44, 46621.805, 0.0258858, 0.036714133, -432855.53, -12826.234, 0.000024907118, 10.005087, 9.985332 
7.5482225e+2, 2.671253e+2, -405919.1, -515867.53, 55363.34, 0.000038696387, 0.010963518, -382872.38, -60701.93, 0.0000067362394, 10.000766, 9.986157 
7.546812e+2, 2.7711084e+2, -379592.53, -443469.25, 56468.45, -0.009934052, -0.061016303, -346656.06, -122344.54, 0.000001427032, 9.995475, 9.986955 
7.545404e+2, 2.871003e+2, -320350.8, -323006.38, 54762.14, -0.03068857, -0.025508173, -266900.34, -140485.05, 0.0000002405203, 9.991063, 9.990602 
7.5439936e+2, 2.9709205e+2, -272336.34, -235506.47, 52445.746, -0.057971813, 0.0728385, -198336.64, -169839.77, 0.00000003348717, 9.987057, 9.991806 
7.542584e+2, 3.070866e+2, -205719.38, -94830.88, 38857.27, 0.08078756, -0.06947251, -82570.24, -82570.24, 0.00000000407939, 9.984678, 9.999205 
7.5411177e+2, 3.170852e+2, -221398.22, -86774.08, 13068.06, -0.16871691, -0.04660725, -85517.28, -85517.28, 0.00000000046259258, 9.982861, 10.000607 
7.670149e+2, 1.2741749e+2, -1669433.1, -1712103.1, 2499.8809, 0.3213493, 0.0027868755, -1669287.1, 22021.377, 0.09095763, 10.002849, 9.996929 
7.66856e+2, 1.3741466e+2, -1557687.0, -1614007.9, -1228.0121, 0.3196265, 0.03349664, -1557660.3, 35675.55, 0.06282214, 10.004071, 9.996327 
7.6669425e+2, 1.4740968e+2, -1461181.3, -1535531.9, -11230.862, 0.3085332, 0.0074831718, -1459521.9, 35862.207, 0.03690004, 10.0046425, 9.994716 
7.665317e+2, 1.5740392e+2, -1355357.0, -1433264.5, -13288.572, 0.29850623, -0.043352995, -1353152.8, 44287.453, 0.017632058, 10.005101, 9.99479 
7.6636964e+2, 1.6739897e+2, -1247076.1, -1330008.8, -11971.662, 0.29754925, -0.022872325, -1245382.5, 54107.688, 0.0066734417, 10.005752, 9.9948635 
7.6620805e+2, 1.7739426e+2, -1145152.3, -1241839.0, -14883.414, 0.29599965, 0.029863644, -1142913.1, 58625.652, 0.0020323233, 10.006504, 9.993848 
7.660469e+2, 1.8738636e+2, -1067258.6, -1194118.4, -8798.943, 0.24789579, 0.074783064, -1066651.3, 36966.87, 0.0005602856, 10.006877, 9.990265 
7.6588625e+2, 1.9737698e+2, -966295.1, -1095283.9, -5263.7544, 0.18154863, 0.11102438, -966080.7, 39631.316, 0.00019131931, 10.007104, 9.99021 
7.657274e+2, 2.0736669e+2, -864924.9, -999630.06, -1241.4014, 0.1430949, 0.07787676, -864913.44, 42897.934, 0.000100953774, 10.007519, 9.989891 
7.655697e+2, 2.1735583e+2, -769684.3, -917856.6, -2577.0579, 0.11742716, 0.017577479, -769639.56, 40275.215, 0.00006473305, 10.007987, 9.988595 
7.6541597e+2, 2.2734147e+2, -701898.7, -885889.9, 15455.292, 0.120480806, 0.0025318402, -700609.44, 11445.69, 0.00003941543, 10.008193, 9.98402 
7.6526403e+2, 2.3732555e+2, -601812.9, -781588.44, 26346.205, 0.13518283, 0.0040771505, -598031.4, 16180.811, 0.000020604368, 10.008123, 9.984468 
7.651153e+2, 2.4731128e+2, -525701.8, -675826.06, 46301.777, 0.08341422, 0.029948413, -512569.97, 3781.7554, 0.0000088166535, 10.005895, 9.986088 
7.64968e+2, 2.5729772e+2, -475665.13, -601932.2, 52230.82, 0.0031037515, 0.067122415, -456860.25, -38376.313, 0.000003004373, 10.002656, 9.985993 
7.648227e+2, 2.6728326e+2, -415412.5, -522261.66, 56612.58, -0.0020837118, 0.025869684, -390996.4, -70371.39, 0.0000008026563, 10.0001, 9.98597 
7.646781e+2, 2.7726856e+2, -346885.7, -428197.2, 56646.242, 0.026135383, -0.0525031, -317815.63, -95046.97, 0.0000001675421, 9.997642, 9.986883 
7.645333e+2, 2.872583e+2, -274786.6, -300534.44, 56600.887, 0.0068923333, 0.012023692, -229614.0, -104744.97, 0.000000027667905, 9.994065, 9.990608 
7.64388e+2, 2.9725036e+2, -231542.83, -220446.8, 58958.035, -0.03647997, 0.14452095, -166776.31, -139829.44, 0.0000000037429646, 9.989956, 9.991346 
7.642433e+2, 3.0724177e+2, -200492.1, -116611.195, 45685.32, 0.03761366, -0.15832174, -96534.31, -96534.31, 0.0000000004392428, 9.986006, 9.997003 
7.6409376e+2, 3.1724e+2, -229246.8, -87900.04, 13049.622, -0.22932233, 0.01991558, -86705.35, -86705.35, 0.00000000004767963, 9.982131, 10.000823 
7.770182e+2, 1.2757733e+2, -1654230.1, -1702272.1, 5991.2666, 0.35744575, -0.005563003, -1653494.3, 36248.383, 0.062321946, 10.003831, 9.997124 
7.7685994e+2, 1.3757432e+2, -1552722.8, -1611577.1, 739.8333, 0.30132383, -0.010001727, -1552713.5, 39058.92, 0.042461134, 10.004384, 9.996343 
7.766984e+2, 1.4756964e+2, -1461749.3, -1540344.5, -10604.506, 0.25692573, 0.019115971, -1460343.6, 33475.344, 0.024464365, 10.004776, 9.994324 
7.7653605e+2, 1.5756434e+2, -1356640.9, -1439475.3, -12073.914, 0.22407211, 0.056392897, -1354916.9, 40955.02, 0.011362938, 10.005251, 9.994294 
7.7637476e+2, 1.6755834e+2, -1252430.1, -1342404.5, -9633.89, 0.23116757, 0.04512404, -1251410.1, 46521.445, 0.0041075116, 10.00582, 9.993988 
7.762142e+2, 1.77552e+2, -1149711.5, -1250167.4, -12966.144, 0.24965097, 0.019647352, -1148064.9, 51929.7, 0.0011428499, 10.006475, 9.993295 
7.7605355e+2, 1.875443e+2, -1063359.5, -1185740.9, -8463.48, 0.22110511, 0.06865874, -1062777.0, 39295.043, 0.00025184164, 10.006879, 9.990831 
7.7589333e+2, 1.9753575e+2, -965276.1, -1094446.1, -4703.9077, 0.17502066, 0.13992494, -965105.06, 39052.613, 0.000050804138, 10.007178, 9.990229 
7.75735e+2, 2.0752424e+2, -876126.3, -1023860.56, 271.55438, 0.15054421, 0.090067856, -876125.8, 30143.541, 0.000014139577, 10.007589, 9.988201 
7.755779e+2, 2.1751148e+2, -776139.2, -931580.4, -582.1707, 0.13370997, -0.0022748865, -776137.0, 32255.338, 0.0000067355963, 10.008028, 9.987632 
7.7542394e+2, 2.2749823e+2, -691831.3, -863984.6, 15880.854, 0.100692526, 0.038608097, -690378.56, 20144.168, 0.0000037612238, 10.008167, 9.985513 
7.752715e+2, 2.3748463e+2, -592942.25, -761342.44, 24011.686, 0.06311529, 0.12560643, -589585.44, 23072.24, 0.000001898841, 10.008053, 9.985867 
7.751207e+2, 2.4747102e+2, -519820.47, -662474.25, 34038.85, 0.03176147, 0.10510764, -512114.66, 2675.115, 0.00000079641234, 10.005816, 9.986998 
7.749706e+2, 2.5745735e+2, -471655.94, -592877.94, 41039.29, 0.0029090918, 0.04469543, -459069.16, -42147.84, 0.0000002676511, 10.002602, 9.986601 
7.748231e+2, 2.674429e+2, -418136.63, -527226.0, 47655.465, 0.03166451, 0.0023631302, -400250.88, -81188.56, 0.0000000706858, 10.000062, 9.985616 
7.746764e+2, 2.7742827e+2, -346515.13, -428336.75, 46302.05, 0.08288674, -0.035011467, -325639.4, -104433.78, 0.000000014572112, 9.997667, 9.986825 
7.745278e+2, 2.874186e+2, -269262.3, -291051.72, 41124.42, 0.040950775, 0.049780153, -237613.95, -114314.18, 0.0000000023665063, 9.99412, 9.991181 
7.74378e+2, 2.9741114e+2, -232032.61, -224032.77, 43788.688, -0.04414189, 0.1845067, -184061.69, -158690.02, 0.000000000312487, 9.990033, 9.991015 
7.7422875e+2, 3.0739948e+2, -223136.56, -163566.0, 30003.607, -0.016112436, -0.21107659, -151073.88, -151073.88, 0.000000000035478558, 9.9859705, 9.993758 
7.740756e+2, 3.173958e+2, -218190.86, -60413.695, -1649.7256, -0.23271489, 0.039034855, -60396.45, -60396.45, 0.0000000000036933265, 9.981908, 10.002771 
7.870246e+2, 1.2773804e+2, -1604069.8, -1679632.9, 9601.673, 0.39884123, 0.005879274, -1602868.8, 85300.47, 0.04048696, 10.007365, 9.996938 
7.8686506e+2, 1.3773485e+2, -1539697.4, -1607079.4, 3771.1167, 0.3157479, 0.002813912, -1539487.0, 50713.816, 0.027255554, 10.005277, 9.9962 
7.867034e+2, 1.4773014e+2, -1457486.6, -1537897.6, -1605.4989, 0.2691353, 0.031773213, -1457454.6, 34793.176, 0.015450946, 10.0049925, 9.994379 
7.865417e+2, 1.577249e+2, -1353190.0, -1440045.9, -1372.8206, 0.2423269, 0.07116122, -1353168.3, 41132.24, 0.007020416, 10.005532, 9.994103 
7.863805e+2, 1.6771832e+2, -1261299.9, -1356404.8, 1027.254, 0.24417867, 0.06276847, -1261288.8, 35076.855, 0.0024614257, 10.005585, 9.993134 
7.8622013e+2, 1.7771116e+2, -1166933.0, -1265119.8, -1889.9995, 0.25382847, 0.03709244, -1166896.6, 31539.88, 0.0006538318, 10.005542, 9.992715 
7.860601e+2, 1.8770325e+2, -1070795.4, -1186636.1, 2471.6455, 0.22751, 0.07266835, -1070742.8, 29772.674, 0.00013177443, 10.006217, 9.991085 
7.8590065e+2, 1.976948e+2, -964723.1, -1093572.8, 4327.655, 0.18895143, 0.1282373, -964577.94, 38022.0, 0.000020818212, 10.007152, 9.990301 
7.857428e+2, 2.0768318e+2, -879880.1, -1030869.25, 12820.093, 0.16690609, 0.09411557, -878799.4, 25913.926, 0.0000030321032, 10.007517, 9.987736 
7.855859e+2, 2.1767023e+2, -782139.1, -934616.1, 18354.162, 0.14969265, 0.028340083, -779960.9, 26878.13, 0.0000006762998, 10.007579, 9.987588 
7.854312e+2, 2.2765788e+2, -707848.5, -856280.1, 32646.877, 0.10396407, 0.07640488, -700985.3, 7975.4185, 0.00000028079964, 10.006346, 9.98685 
7.852776e+2, 2.376456e+2, -635073.75, -769398.3, 39164.184, 0.048786335, 0.1635417, -624488.94, -13406.484, 0.0000001311521, 10.004575, 9.986932 
7.8512526e+2, 2.4763227e+2, -551873.25, -676132.7, 41510.56, 0.026797455, 0.122225426, -539282.0, -26070.55, 0.000000053340777, 10.00347, 9.987141 
7.8497326e+2, 2.5761846e+2, -470162.78, -589714.2, 43137.957, 0.018805984, 0.03326733, -456222.7, -40878.87, 0.000000017601208, 10.002526, 9.986816 
7.848235e+2, 2.676045e+2, -409912.3, -519863.0, 50330.96, 0.044156734, 0.011066248, -390352.47, -72871.914, 0.0000000045892183, 10.000404, 9.985904 
7.8467405e+2, 2.7759054e+2, -341683.5, -421437.66, 52709.965, 0.083071426, 0.011223326, -315465.78, -95847.96, 0.0000000009352054, 9.997723, 9.9872 
7.845222e+2, 2.8758106e+2, -257515.03, -280787.8, 44023.44, 0.042814605, 0.07457425, -223616.06, -101906.664, 0.00000000014977485, 9.994636, 9.991553 
7.8436863e+2, 2.9757345e+2, -215766.84, -221300.78, 45057.26, -0.03808309, 0.16612673, -173391.67, -149609.81, 0.000000000019389386, 9.991273, 9.990529 
7.842153e+2, 3.0755997e+2, -218216.05, -193538.1, 32125.352, -0.04166885, -0.20803744, -171463.58, -171463.58, 0.0000000000021405046, 9.987601, 9.990837 
7.8405875e+2, 3.175545e+2, -170522.77, -11654.642, 6056.716, -0.20534621, 0.086101264, -11424.068, -11424.068, 0.00000000000021449644, 9.983981, 10.005028 
7.9703236e+2, 1.2789994e+2, -1604354.4, -1684198.6, 1117.3606, 0.44121084, 0.028364128, -1604338.8, 82246.05, 0.024554512, 10.007407, 9.996563 
7.9687065e+2, 1.378966e+2, -1535580.8, -1607566.1, -2565.7207, 0.34603196, 0.04456444, -1535489.5, 53128.316, 0.016354568, 10.005614, 9.995982 
7.96709e+2, 1.478917e+2, -1449991.0, -1530933.3, -315.43088, 0.3154222, 0.04349685, -1449989.8, 40676.492, 0.009139995, 10.005368, 9.994671 
7.9654795e+2, 1.5788624e+2, -1349508.8, -1438546.9, -1158.5901, 0.31261787, 0.037910696, -1349493.6, 43226.81, 0.004075192, 10.005806, 9.994072 
7.963868e+2, 1.6787933e+2, -1264039.8, -1367097.8, 295.7745, 0.3030491, 0.053220194, -1264039.0, 30749.799, 0.001393698, 10.005811, 9.992292 
7.962261e+2, 1.7787181e+2, -1168199.3, -1272383.5, -766.12573, 0.28842738, 0.073289864, -1168193.6, 28669.73, 0.00035817592, 10.005758, 9.992109 
7.9606664e+2, 1.8786344e+2, -1069528.5, -1185590.5, 6556.4414, 0.25539902, 0.08156691, -1069159.4, 29787.07, 0.000068868634, 10.006312, 9.991108 
7.959081e+2, 1.9785449e+2, -964911.1, -1092133.8, 7624.7163, 0.21704522, 0.08688855, -964455.8, 36579.13, 0.000009973807, 10.007098, 9.990422 
7.9575056e+2, 2.0784363e+2, -878755.4, -1025218.44, 13696.798, 0.18969119, 0.09457508, -877485.5, 25656.309, 0.0000011218369, 10.00739, 9.9881735 
7.9559356e+2, 2.1783186e+2, -779514.9, -925484.2, 17488.648, 0.16540152, 0.10055669, -777448.8, 27808.307, 0.000000116113824, 10.007428, 9.988271 
7.954378e+2, 2.2782022e+2, -700217.1, -838274.44, 26014.516, 0.12796497, 0.11222911, -695477.8, 11893.525, 0.000000020049852, 10.006239, 9.988105 
7.9528254e+2, 2.3780836e+2, -629733.8, -757930.75, 33560.82, 0.086670585, 0.12446119, -621479.4, -11991.901, 0.000000006880379, 10.004552, 9.987703 
7.9512906e+2, 2.47795e+2, -555884.75, -684438.4, 38114.184, 0.06471527, 0.08721252, -545434.06, -33816.89, 0.0000000026125506, 10.003479, 9.98655 
7.949761e+2, 2.5778103e+2, -471225.88, -591770.8, 38197.14, 0.04919364, 0.035334036, -460141.56, -46389.418, 0.00000000083223745, 10.002522, 9.986655 
7.948237e+2, 2.6776803e+2, -403385.88, -505772.56, 40110.723, 0.031649306, 0.054161754, -389543.63, -73663.46, 0.0000000002114835, 10.000363, 9.986851 
7.9467106e+2, 2.7775538e+2, -336246.75, -409241.53, 42150.496, 0.01784192, 0.08924406, -316988.2, -98982.92, 0.00000000004226285, 9.997664, 9.988026 
7.9451644e+2, 2.8774557e+2, -256813.34, -278543.66, 31503.33, 0.008395442, 0.080939904, -234354.16, -114255.234, 0.000000000007495629, 9.994579, 9.991692 
7.9436016e+2, 2.9773703e+2, -219868.97, -229889.66, 31932.28, -0.012688388, 0.07437882, -192556.36, -170376.66, 0.0000000000032051109, 9.991251, 9.989909 
7.9420304e+2, 3.0772355e+2, -234539.28, -228189.55, 17732.57, -0.028741335, -0.120752946, -213349.88, -213349.88, 0.0000000000045765006, 9.987605, 9.98842 
7.940434e+2, 3.1771576e+2, -152914.8, 22068.996, -1375.811, -0.15572435, 0.11443288, 22079.813, 22079.813, 0.0000000000069694727, 9.984099, 10.007253 
8.070395e+2, 1.2806284e+2, -1606431.3, -1687943.0, 5569.996, 0.41813922, 0.06713824, -1606052.4, 78938.97, 0.013656359, 10.007249, 9.996353 
8.068769e+2, 1.3805921e+2, -1521105.5, -1602648.0, 3530.8647, 0.3434167, 0.07841343, -1520952.9, 66073.875, 0.00901513, 10.00662, 9.995798 
8.067151e+2, 1.4805418e+2, -1433517.1, -1523373.4, 9082.11, 0.32002878, 0.07203258, -1432608.4, 56468.047, 0.0049783196, 10.006464, 9.99464 
8.065543e+2, 1.5804863e+2, -1337193.3, -1432290.0, 6266.0005, 0.31980753, 0.059725158, -1336782.3, 54348.84, 0.0021846793, 10.006588, 9.994112 
8.0639315e+2, 1.6804184e+2, -1250533.5, -1358464.0, 10752.531, 0.30687702, 0.069910124, -1249472.8, 43725.297, 0.0007317571, 10.006595, 9.992478 
8.062323e+2, 1.7803445e+2, -1154011.6, -1263934.8, 15005.407, 0.2866022, 0.08731416, -1152000.1, 43270.875, 0.00018305305, 10.006611, 9.9922285 
8.0607295e+2, 1.8802607e+2, -1070066.4, -1185236.4, 23984.668, 0.25916657, 0.08971442, -1065271.1, 32082.596, 0.000033989843, 10.006203, 9.991138 
8.059145e+2, 1.980171e+2, -983907.56, -1098982.4, 25034.313, 0.2298411, 0.08681466, -978697.25, 20744.904, 0.0000046947516, 10.0056505, 9.990608 
8.0575675e+2, 2.0800677e+2, -907408.56, -1032136.94, 30965.645, 0.19994698, 0.10360925, -900144.0, 1399.9271, 0.00000048589453, 10.005078, 9.988767 
8.055996e+2, 2.1799576e+2, -817220.25, -937059.9, 35224.07, 0.16978021, 0.1256939, -807633.8, -3981.4963, 0.000000038701, 10.004507, 9.988836 
8.054431e+2, 2.2798441e+2, -725458.75, -845246.2, 38079.31, 0.14065973, 0.118734375, -714378.6, -8615.557, 0.0000000028083083, 10.004226, 9.988553 
8.0528706e+2, 2.3797272e+2, -634795.06, -755841.8, 40511.438, 0.11191925, 0.09977165, -622488.1, -14611.086, 0.00000000033168313, 10.003949, 9.988108 
8.051324e+2, 2.479597e+2, -565451.1, -687344.94, 46269.516, 0.08341934, 0.07385605, -549877.5, -39873.785, 0.00000000010113248, 10.002688, 9.986691 
8.049779e+2, 2.579462e+2, -490244.13, -596985.8, 50427.676, 0.054530583, 0.050638836, -470188.84, -58053.477, 0.000000000030657234, 10.000982, 9.986978 
8.0482316e+2, 2.6793405e+2, -419841.25, -504866.13, 48892.09, 0.020354895, 0.09585072, -397563.7, -83308.45, 0.000000000009150685, 9.998775, 9.987602 
8.046679e+2, 2.779223e+2, -350079.78, -410504.63, 50350.402, -0.010926167, 0.15008126, -321572.94, -105201.38, 0.0000000000082909166, 9.996407, 9.988478 
8.045114e+2, 2.8791168e+2, -245324.02, -279845.84, 36330.29, -0.0012381513, 0.07988077, -222362.69, -103889.55, 0.000000000021540677, 9.995593, 9.991067 
8.043535e+2, 2.9790175e+2, -168970.4, -213327.94, 29112.541, 0.009448333, 0.00024481444, -154550.84, -133983.89, 0.000000000050361472, 9.995002, 9.989204 
8.0419266e+2, 3.0788958e+2, -180795.28, -211369.13, 17387.555, -0.009984251, 0.01471646, -172930.16, -172930.16, 0.00000000009362468, 9.991572, 9.987577 
8.040296e+2, 3.178798e+2, -93817.695, 63125.156, 15921.545, -0.10148641, 0.1039285, 64724.08, 64724.08, 0.0000000001447681, 9.987537, 10.008316 
8.170463e+2, 1.2822703e+2, -1604726.1, -1688620.0, 2145.927, 0.36567858, 0.11308299, -1604671.4, 78714.52, 0.006829297, 10.007394, 9.996224 
8.168833e+2, 1.382231e+2, -1519714.6, -1603813.5, 400.69183, 0.32505476, 0.10801115, -1519712.8, 65711.4, 0.0044781193, 10.006781, 9.99563 
8.167214e+2, 1.4821795e+2, -1434378.3, -1526023.4, 9083.5625, 0.301888, 0.11020524, -1433486.5, 53988.063, 0.0024504783, 10.006505, 9.994436 
8.165607e+2, 1.5821238e+2, -1337997.1, -1431446.9, 6532.521, 0.29109356, 0.11223497, -1337542.8, 51986.523, 0.0010623109, 10.006488, 9.99421 
8.163994e+2, 1.6820592e+2, -1246670.6, -1347527.5, 10959.085, 0.27830902, 0.10059272, -1245493.5, 46098.824, 0.00035011073, 10.006476, 9.993274 
8.162387e+2, 1.7819898e+2, -1151476.4, -1256152.5, 14233.166, 0.26224655, 0.08701869, -1149575.6, 44084.473, 0.00008574844, 10.00651, 9.992802 
8.16079e+2, 1.8819094e+2, -1070483.8, -1184613.4, 21805.76, 0.24708591, 0.09899802, -1066459.4, 29279.871, 0.000015493128, 10.006141, 9.9912 
8.159202e+2, 1.9818227e+2, -982067.1, -1094908.5, 23139.07, 0.23164806, 0.11649378, -977506.56, 20318.191, 0.0000020664195, 10.005641, 9.990879 
8.157619e+2, 2.0817237e+2, -901536.2, -1020731.5, 28788.502, 0.20031811, 0.11714401, -894947.3, 4974.8613, 0.00000020419225, 10.005114, 9.989515 
8.1560403e+2, 2.1816179e+2, -812881.9, -929475.9, 33572.223, 0.16469803, 0.11232656, -803906.06, -1880.1061, 0.000000015030302, 10.004574, 9.989311 
8.154474e+2, 2.2815044e+2, -726441.5, -848034.56, 37236.01, 0.14362726, 0.1021788, -715944.7, -11808.229, 0.00000000083403645, 10.0042715, 9.98833 
8.1529117e+2, 2.3813863e+2, -633924.9, -753994.44, 38426.082, 0.12560116, 0.0892156, -622680.3, -16428.928, 0.000000000020535176, 10.003955, 9.988217 
8.15135e+2, 2.4812636e+2, -559674.2, -675145.0, 40045.664, 0.08322679, 0.08081718, -547145.56, -38774.22, 0.0000000000018006883, 10.002669, 9.987508 
8.149787e+2, 2.581139e+2, -484751.88, -585260.06, 43410.77, 0.03434717, 0.078870386, -468598.38, -58104.51, 0.0000000000042918807, 10.0009575, 9.987764 
8.1482184e+2, 2.681025e+2, -416526.88, -496641.5, 39421.457, 0.012099656, 0.1351004, -400382.4, -87776.11, 0.000000000024361912, 9.998699, 9.988167 
8.1466436e+2, 2.7809128e+2, -351015.88, -410691.28, 43753.656, 0.0025507666, 0.19112499, -327894.44, -113176.93, 0.000000000103356906, 9.996327, 9.988477 
8.145072e+2, 2.880792e+2, -255787.64, -302227.66, 35059.145, 0.016765028, 0.0723012, -236956.34, -120122.29, 0.0000000003230801, 9.995646, 9.989495 
8.143488e+2, 2.980674e+2, -171212.9, -222359.89, 22670.564, 0.025923548, -0.049408276, -162611.0, -143664.05, 0.00000000076235457, 9.9951935, 9.98847 
8.141847e+2, 3.0805823e+2, -168269.81, -190455.81, 517.32043, 0.017896578, 0.20932046, -168257.77, -168257.77, 0.0000000014165321, 9.991753, 9.988867 
8.1401783e+2, 3.1804729e+2, -98287.35, 47530.082, 10621.808, -0.0620654, 0.08723078, 48299.746, 48299.746, 0.0000000021878257, 9.987817, 10.007076 
8.2705337e+2, 1.283917e+2, -1611982.6, -1694767.5, 7644.227, 0.35312593, 0.15263388, -1611282.8, 70492.23, 0.0030089617, 10.0069475, 9.996004 
8.2688993e+2, 1.3838743e+2, -1522276.1, -1604734.9, 5185.86, 0.3178421, 0.13037293, -1521951.3, 61865.273, 0.0019641386, 10.006535, 9.995669 
8.267274e+2, 1.4838268e+2, -1440467.9, -1522927.1, 17243.82, 0.29390994, 0.134832, -1437007.1, 48855.84, 0.0010681495, 10.005772, 9.99498 
8.265663e+2, 1.583777e+2, -1354572.0, -1434091.0, 18429.125, 0.27984425, 0.1446417, -1350508.6, 37403.016, 0.00045917454, 10.005073, 9.994681 
8.264049e+2, 1.6837163e+2, -1265589.4, -1352286.4, 23683.43, 0.2622476, 0.13085794, -1259541.5, 30429.113, 0.00014963388, 10.004949, 9.993665 
8.262442e+2, 1.7836504e+2, -1168925.6, -1259818.3, 24621.826, 0.24176854, 0.1113863, -1162684.4, 29350.426, 0.00003610315, 10.005064, 9.993233 
8.2608443e+2, 1.8835743e+2, -1081876.5, -1184690.4, 32700.533, 0.22970459, 0.11829205, -1072357.3, 21752.271, 0.0000063962675, 10.005075, 9.991685 
8.259254e+2, 1.9834918e+2, -986235.06, -1091683.1, 36317.99, 0.22011119, 0.13203955, -974937.06, 21253.498, 0.00000083170164, 10.005077, 9.991337 
8.25767e+2, 2.0833969e+2, -897381.0, -1013790.7, 40960.832, 0.19632934, 0.13105242, -884412.9, 13870.822, 0.000000079560614, 10.005135, 9.989945 
8.256089e+2, 2.1832953e+2, -800803.75, -919056.9, 43836.87, 0.16777635, 0.12415658, -786325.8, 14057.567, 0.0000000056185607, 10.005151, 9.989717 
8.2545185e+2, 2.283185e+2, -719432.7, -841638.7, 48344.09, 0.14545631, 0.1126813, -702620.8, -130.02908, 0.0000000002943134, 10.004568, 9.988586 
8.252949e+2, 2.3830694e+2, -633546.3, -749235.9, 51660.285, 0.12484748, 0.09975219, -613835.94, -9232.89, 0.000000000004798692, 10.003725, 9.988603 
8.251377e+2, 2.4829529e+2, -555354.2, -665702.4, 50394.914, 0.087467045, 0.095265195, -535803.25, -29085.84, 0.000000000005937854, 10.002581, 9.98814 
8.249799e+2, 2.5828347e+2, -474792.13, -573986.8, 52190.168, 0.044800077, 0.099036865, -452391.47, -43557.914, 0.000000000046155885, 10.001288, 9.988323 
8.248213e+2, 2.6827252e+2, -395169.2, -483579.13, 44476.7, 0.025948174, 0.1593837, -376666.47, -65724.53, 0.0000000002685291, 9.999967, 9.988402 
8.246619e+2, 2.7826148e+2, -318638.5, -396425.94, 47856.215, 0.018211735, 0.21557999, -295864.25, -82813.24, 0.0000000011390144, 9.998531, 9.988356 
8.245033e+2, 2.8824842e+2, -249409.5, -311583.4, 42948.406, 0.015623537, 0.07312411, -227477.92, -112300.07, 0.000000003557858, 9.996556, 9.988378 
8.2434344e+2, 2.9823548e+2, -183241.56, -229328.98, 31561.516, 0.005737571, -0.06399581, -167206.61, -149903.94, 0.000000008389778, 9.994346, 9.98834 
8.241767e+2, 3.0822912e+2, -146207.6, -157989.84, 8371.857, 0.01647871, 0.3522702, -141861.86, -141861.86, 0.000000015578262, 9.992227, 9.990761 
8.240068e+2, 3.182174e+2, -81381.05, 23395.564, 28848.213, -0.064898886, 0.038948953, 30813.229, 30813.229, 0.00000002403868, 9.9903, 10.004131 
8.370604e+2, 1.2855734e+2, -1606783.1, -1694785.0, 5134.3203, 0.35863107, 0.18823789, -1606484.6, 73669.57, 0.0011421927, 10.007415, 9.995767 
8.368965e+2, 1.3855274e+2, -1517316.4, -1600140.8, 2219.9211, 0.31596652, 0.14901908, -1517256.9, 64942.133, 0.0007435361, 10.006781, 9.995849 
8.367332e+2, 1.4854868e+2, -1430481.9, -1507527.8, 13824.266, 0.29160702, 0.15253553, -1428076.5, 56162.156, 0.00040280866, 10.005994, 9.995909 
8.3657134e+2, 1.5854461e+2, -1346077.0, -1422437.0, 15491.426, 0.278272, 0.16631445, -1343053.9, 43224.293, 0.00017225166, 10.00533, 9.995343 
8.364098e+2, 1.6853897e+2, -1261274.0, -1348308.0, 23410.918, 0.25325575, 0.16168402, -1255376.4, 32956.72, 0.00005573453, 10.005174, 9.993825 
8.362492e+2, 1.7853266e+2, -1164032.1, -1253260.1, 24539.541, 0.22352782, 0.15114638, -1157728.6, 32666.057, 0.000013319515, 10.005228, 9.993597 
8.360893e+2, 1.8852553e+2, -1074923.4, -1172606.4, 32339.691, 0.20853955, 0.14327818, -1065187.3, 27277.11, 0.00000232996, 10.005183, 9.992453 
8.359303e+2, 1.9851783e+2, -981260.1, -1082703.5, 36079.99, 0.19904622, 0.1375122, -969736.7, 24803.008, 0.00000029792903, 10.005144, 9.991913 
8.3577204e+2, 2.0850876e+2, -895583.2, -1010573.6, 41005.29, 0.189606, 0.14626193, -882458.75, 14169.903, 0.000000027884644, 10.005168, 9.990144 
8.3561414e+2, 2.1849899e+2, -798183.9, -913508.7, 43252.87, 0.17749202, 0.15644564, -783764.6, 14960.016, 0.0000000019146795, 10.005154, 9.990086 
8.3545643e+2, 2.2848853e+2, -714810.1, -831910.6, 45305.68, 0.14555643, 0.14579281, -699328.4, 1498.1035, 0.00000000009700172, 10.00456, 9.98924 
8.3529854e+2, 2.384776e+2, -629042.8, -739955.5, 48208.496, 0.110673435, 0.12896381, -611018.06, -8085.248, 0.0000000000050375047, 10.003726, 9.989221 
8.351404e+2, 2.4846639e+2, -551829.1, -658502.5, 45528.016, 0.09699729, 0.11612253, -535040.2, -29997.516, 0.000000000046280917, 10.002581, 9.988611 
8.349816e+2, 2.5845492e+2, -472533.38, -569193.44, 47427.14, 0.08662649, 0.11046096, -453149.84, -45994.69, 0.00000000036993675, 10.001281, 9.988634 
8.348216e+2, 2.6844397e+2, -395960.16, -485419.13, 39132.477, 0.06221306, 0.16749547, -381258.38, -71995.09, 0.0000000021510107, 9.999973, 9.988251 
8.3466065e+2, 2.7843273e+2, -319753.4, -399694.75, 41539.94, 0.035049465, 0.2216045, -302076.7, -90702.75, 0.0000000091177546, 9.998568, 9.988092 
8.344996e+2, 2.8841925e+2, -253906.66, -320333.38, 33748.277, -0.009757972, 0.08643677, -239769.48, -126263.98, 0.000000028463063, 9.996516, 9.987767 
8.34337e+2, 2.984061e+2, -180964.47, -221048.8, 23116.455, -0.06267783, -0.03429887, -170411.56, -154777.86, 0.000000067084336, 9.994182, 9.9889555 
8.3416843e+2, 3.0840212e+2, -127660.95, -118109.81, 1257.8956, -0.026257174, 0.41262943, -117946.92, -117946.92, 0.00000012452045, 9.992169, 9.993482 
8.3399653e+2, 3.1839144e+2, -116667.08, -53213.16, 25094.43, -0.13577503, 0.06708065, -44488.54, -44488.54, 0.00000019202673, 9.990467, 9.99876 
8.4706825e+2, 1.287232e+2, -1598944.0, -1687649.9, 7628.6714, 0.36434674, 0.20132267, -1598292.8, 80238.33, 0.00036341642, 10.007757, 9.996064 
8.4690326e+2, 1.3871904e+2, -1516746.1, -1595469.3, 6977.47, 0.31546095, 0.17623995, -1516132.4, 64439.15, 0.00023620963, 10.006582, 9.996234 
8.467393e+2, 1.4871544e+2, -1425899.3, -1499741.1, 19257.688, 0.2945724, 0.17880802, -1421178.6, 61428.016, 0.00012768328, 10.006021, 9.99641 
8.465771e+2, 1.5871185e+2, -1335342.0, -1411188.3, 19364.81, 0.28653422, 0.18770649, -1330683.9, 53957.844, 0.000054433065, 10.005756, 9.995895 
8.4641534e+2, 1.6870682e+2, -1250041.0, -1335907.1, 29925.348, 0.26191646, 0.18380311, -1240640.8, 46049.832, 0.00001753889, 10.005596, 9.994457 
8.4625465e+2, 1.7870115e+2, -1155206.9, -1242378.9, 32933.465, 0.23057945, 0.17596193, -1144163.6, 44582.207, 0.000004167791, 10.005501, 9.994189 
8.460946e+2, 1.886946e+2, -1068895.9, -1163414.5, 39972.047, 0.20737153, 0.1682396, -1054258.5, 36551.313, 0.00000072355056, 10.005278, 9.993019 
8.459353e+2, 1.9868745e+2, -977386.4, -1073520.1, 42985.168, 0.1881909, 0.16121973, -960969.56, 31909.95, 0.00000009158835, 10.005048, 9.992577 
8.457769e+2, 2.0867917e+2, -893548.56, -1000442.25, 50577.438, 0.17147818, 0.16965626, -873411.1, 21549.646, 0.000000008458323, 10.004867, 9.99096 
8.4561884e+2, 2.1867019e+2, -799643.06, -906412.94, 55743.21, 0.15449168, 0.18067673, -775844.75, 21204.15, 0.0000000005707687, 10.004667, 9.990771 
8.454606e+2, 2.286603e+2, -715244.3, -827052.4, 55929.613, 0.12485856, 0.17327677, -692070.0, 7075.4863, 0.000000000029800315, 10.004256, 9.98968 
8.4530205e+2, 2.3864986e+2, -624598.44, -732294.3, 57347.91, 0.09422441, 0.16004375, -599780.06, 1467.3112, 0.000000000024622481, 10.003733, 9.989709 
8.451432e+2, 2.4863914e+2, -539997.1, -647315.4, 53149.574, 0.09310147, 0.14720908, -518130.25, -14777.948, 0.00000000026941654, 10.003092, 9.989095 
8.449835e+2, 2.586281e+2, -454124.44, -556223.9, 54790.1, 0.09670835, 0.13908686, -430287.38, -24827.146, 0.0000000021538553, 10.002299, 9.988996 
8.448222e+2, 2.6861715e+2, -379070.1, -476651.34, 46543.645, 0.068574384, 0.18056077, -360430.5, -52862.58, 0.000000012516905, 10.001032, 9.988298 
8.446597e+2, 2.7860576e+2, -305181.84, -393392.75, 48899.715, 0.0324707, 0.21862327, -283435.38, -73755.83, 0.00000005302891, 9.999514, 9.988018 
8.44496e+2, 2.8859225e+2, -253545.88, -325547.84, 38529.887, -0.028020391, 0.11028488, -236815.25, -125002.984, 0.0000001654434, 9.996671, 9.987275 
8.4433055e+2, 2.9857916e+2, -183138.6, -215782.86, 31202.426, -0.097420365, 0.024452176, -164247.05, -150306.27, 0.00000038973667, 9.99367, 9.989505 
8.4416133e+2, 3.0857635e+2, -91702.195, -76630.03, 10034.018, -0.02478046, 0.4232592, -71617.25, -71617.25, 0.00000072339316, 9.9935255, 9.99564 
8.439883e+2, 3.185668e+2, -101007.64, -97604.54, 28931.053, -0.16266578, 0.09097715, -70325.05, -70325.05, 0.0000011153049, 9.993695, 9.994127 
8.5707605e+2, 1.2888989e+2, -1594362.3, -1679091.3, 3232.526, 0.37023267, 0.20568834, -1594239.1, 82660.58, 0.00009383463, 10.007791, 9.996611 
8.569099e+2, 1.3888654e+2, -1512896.3, -1588111.9, 3524.1956, 0.31541163, 0.20796236, -1512731.5, 66200.78, 0.00006094004, 10.006606, 9.996704 
8.567454e+2, 1.4888325e+2, -1423803.5, -1495594.0, 18571.95, 0.3001122, 0.20897844, -1419283.5, 61680.74, 0.00003290037, 10.006034, 9.996677 
8.5658294e+2, 1.5887988e+2, -1331923.5, -1403889.1, 18702.15, 0.3002039, 0.20848502, -1327353.5, 55643.953, 0.000014001087, 10.005752, 9.996386 
8.564211e+2, 1.6887558e+2, -1243693.6, -1322788.5, 29675.713, 0.28092873, 0.20063, -1233797.6, 51241.57, 0.0000045003767, 10.005602, 9.995342 
8.562603e+2, 1.7887074e+2, -1149958.1, -1231849.6, 32143.932, 0.2530351, 0.19182488, -1138848.3, 48237.926, 0.0000010659371, 10.00552, 9.994893 
8.5609996e+2, 1.888648e+2, -1065222.4, -1156782.0, 38975.91, 0.21887699, 0.19392551, -1050878.0, 38266.27, 0.00000018424288, 10.005322, 9.9934435 
8.559403e+2, 1.9885825e+2, -971205.56, -1062159.9, 42307.324, 0.18396936, 0.19769591, -954569.25, 36639.04, 0.000000023185766, 10.005113, 9.993314 
8.557815e+2, 2.0885098e+2, -884241.7, -981561.25, 49749.707, 0.14388728, 0.19845042, -863311.2, 29968.096, 0.0000000021246724, 10.004887, 9.992232 
8.55623e+2, 2.188431e+2, -793494.6, -893079.44, 54500.547, 0.104982734, 0.19844027, -769465.7, 25890.766, 0.00000000014221531, 10.004644, 9.991685 
8.5546446e+2, 2.2883373e+2, -713669.7, -823033.25, 53807.07, 0.087520756, 0.19643743, -691635.75, 5812.432, 0.0000000000137561395, 10.004226, 9.98996 
8.553057e+2, 2.388237e+2, -622218.8, -726811.1, 55384.324, 0.07631192, 0.19296773, -598342.06, 1204.7322, 0.000000000103638015, 10.003712, 9.990083 
8.5514605e+2, 2.4881351e+2, -536725.9, -640300.0, 50358.33, 0.07552526, 0.1884775, -516278.16, -14631.722, 0.0000000011397725, 10.003084, 9.989562 
8.549856e+2, 2.58803e+2, -451329.63, -550391.0, 51108.13, 0.07366715, 0.185303, -429689.2, -25939.945, 0.000000009108622, 10.002296, 9.989379 
8.5482293e+2, 2.6879203e+2, -377323.0, -473098.3, 41060.934, 0.043051396, 0.19803734, -362129.53, -56272.89, 0.000000052918637, 10.001029, 9.988523 
8.5465896e+2, 2.7878055e+2, -304429.03, -391660.63, 40932.09, 0.008265396, 0.20536348, -288230.34, -80261.34, 0.00000022418048, 9.99949, 9.988122 
8.5449255e+2, 2.8876737e+2, -257201.03, -331383.75, 25674.93, -0.03594255, 0.14835323, -249181.73, -139082.94, 0.00000069940614, 9.996559, 9.986891 
8.543242e+2, 2.9875457e+2, -182578.34, -211617.63, 24318.697, -0.08615781, 0.1186277, -168774.52, -156549.89, 0.0000016478218, 9.993533, 9.989831 
8.5415554e+2, 3.0875123e+2, -82421.984, -57952.316, 12194.232, 0.0362386, 0.36078498, -52913.168, -52913.168, 0.0000030605775, 9.993592, 9.996884 
8.539825e+2, 3.1874323e+2, -118606.66, -137396.84, 17144.23, -0.122813195, 0.13741946, -108452.01, -108452.01, 0.0000047208505, 9.993827, 9.991299 
8.6708313e+2, 1.2905799e+2, -1611241.8, -1678476.3, 7384.853, 0.3770723, 0.23741531, -1610440.3, 64814.355, 0.000019043677, 10.006216, 9.997385 
8.669158e+2, 1.3905515e+2, -1527641.5, -1588285.1, 9578.248, 0.31554726, 0.21789257, -1526164.6, 51117.113, 0.000012362725, 10.005258, 9.997313 
8.667507e+2, 1.4905232e+2, -1439024.6, -1499677.1, 27348.455, 0.293365, 0.22506794, -1428514.4, 50794.965, 0.0000066696857, 10.00482, 9.996961 
8.66588e+2, 1.5904936e+2, -1345463.6, -1405985.5, 27774.45, 0.28725335, 0.23509355, -1334649.8, 46688.99, 0.000002835376, 10.0046015, 9.996773 
8.664261e+2, 1.6904557e+2, -1253409.1, -1320974.5, 38384.195, 0.26683787, 0.22698286, -1236058.5, 47317.09, 0.0000009100635, 10.004625, 9.99592 
8.662653e+2, 1.790413e+2, -1156574.4, -1228174.5, 39401.086, 0.2399115, 0.21608423, -1139138.3, 46278.848, 0.00000021513608, 10.004737, 9.995509 
8.66105e+2, 1.8903603e+2, -1066276.5, -1149323.5, 47178.082, 0.2134185, 0.21925525, -1044951.2, 42517.313, 0.000000037089958, 10.00487, 9.994154 
8.659454e+2, 1.990302e+2, -967667.4, -1052030.6, 51157.684, 0.18630013, 0.22422536, -943543.7, 45981.82, 0.0000000046516857, 10.004951, 9.99406 
8.6578614e+2, 2.090237e+2, -885215.06, -972443.3, 55612.99, 0.14614296, 0.21769784, -858153.9, 33435.12, 0.0000000004243601, 10.004358, 9.993092 
8.656271e+2, 2.190166e+2, -801901.8, -887713.0, 58449.047, 0.10456288, 0.21035212, -772301.0, 21357.262, 0.0000000000291812, 10.0036125, 9.992543 
8.654681e+2, 2.290082e+2, -724384.75, -819043.9, 59841.137, 0.085857056, 0.2196587, -695418.5, 322.517, 0.000000000022398576, 10.003044, 9.9907875 
8.653087e+2, 2.389991e+2, -633223.25, -723183.44, 65006.91, 0.07366326, 0.22996163, -599152.06, -1321.3513, 0.0000000003184574, 10.002516, 9.99088 
8.651484e+2, 2.4898961e+2, -547401.94, -638120.56, 61055.98, 0.06090569, 0.2230384, -516700.06, -16776.559, 0.0000000035016936, 10.001976, 9.990208 
8.6498713e+2, 2.5897968e+2, -459932.03, -547789.2, 63040.0, 0.046535682, 0.21475801, -427024.66, -25004.172, 0.000000027979837, 10.001351, 9.98997 
8.6482376e+2, 2.689692e+2, -375005.88, -465998.34, 54025.88, 0.025507173, 0.22350538, -349871.38, -45748.39, 0.00000016263608, 10.00086, 9.989035 
8.646587e+2, 2.789582e+2, -289572.94, -377341.8, 53764.41, 0.005391025, 0.2259548, -264056.7, -57826.047, 0.0000006900673, 10.000114, 9.9887295 
8.6449003e+2, 2.889458e+2, -223731.55, -306681.75, 42292.742, -0.027713835, 0.17814964, -205971.02, -97618.305, 0.0000021586502, 9.99837, 9.987603 
8.643195e+2, 2.9893374e+2, -131904.27, -185658.97, 52836.29, -0.066567644, 0.16108863, -99502.06, -89030.664, 0.000005101919, 9.99684, 9.9899 
8.6415136e+2, 3.089287e+2, -39521.78, -58808.703, 31145.88, 0.079840705, 0.35242108, -16560.607, -16560.607, 0.000009502716, 9.997404, 9.994967 
8.639785e+2, 3.1891978e+2, -59365.754, -113511.61, 6831.739, -0.10924559, 0.19410686, -58517.074, -58517.074, 0.00001468652, 9.997996, 9.990942 
8.770894e+2, 1.2922727e+2, -1605258.5, -1665409.3, 4359.265, 0.3836163, 0.27936, -1604944.1, 68653.56, 0.000002958578, 10.006179, 9.998273 
8.7692106e+2, 1.3922486e+2, -1521789.1, -1577627.4, 6692.248, 0.31574804, 0.21689206, -1520998.4, 54621.95, 0.0000019202917, 10.005318, 9.997995 
8.767554e+2, 1.4922258e+2, -1435908.8, -1494584.4, 26458.016, 0.2801076, 0.23486365, -1425740.4, 51902.35, 0.0000010355539, 10.004882, 9.997271 
8.7659234e+2, 1.5922013e+2, -1342558.6, -1400667.4, 27417.914, 0.2594894, 0.26540235, -1331664.3, 48002.965, 0.0000004399312, 10.004637, 9.997112 
8.764304e+2, 1.6921674e+2, -1251121.4, -1315174.8, 38973.33, 0.23344617, 0.25876647, -1232703.8, 48996.605, 0.00000014107277, 10.004587, 9.99633 
8.762697e+2, 1.7921287e+2, -1154054.3, -1220354.3, 40017.348, 0.20524955, 0.24514447, -1135239.8, 48498.203, 0.00000003330806, 10.004633, 9.996089 
8.761097e+2, 1.8920837e+2, -1061603.8, -1136787.3, 47794.22, 0.19772929, 0.24406895, -1038389.06, 47392.953, 0.0000000057331504, 10.004755, 9.995062 
8.7595046e+2, 1.9920337e+2, -964098.44, -1041923.44, 50262.164, 0.19379319, 0.2439631, -939446.25, 48384.6, 0.00000000071752804, 10.004836, 9.9948 
8.757907e+2, 2.0919739e+2, -881777.5, -964370.6, 52667.383, 0.17119375, 0.23010093, -856146.75, 33742.277, 0.00000000006528123, 10.004311, 9.993656 
8.756311e+2, 2.1919085e+2, -795510.75, -875183.0, 56022.996, 0.14299934, 0.21768989, -766604.7, 25348.014, 0.0000000000065724813, 10.003638, 9.993377 
8.7547135e+2, 2.2918375e+2, -714769.2, -799999.6, 57810.453, 0.11299599, 0.24322544, -685564.44, 8458.49, 0.000000000047171517, 10.003079, 9.992062 
8.753113e+2, 2.3917606e+2, -624595.56, -705895.6, 63268.492, 0.08305717, 0.2707384, -590043.7, 6055.3364, 0.00000000071077794, 10.002541, 9.992042 
8.751503e+2, 2.491674e+2, -541378.5, -625908.44, 58616.75, 0.048113294, 0.25076005, -511378.3, -13194.643, 0.000000007814062, 10.001989, 9.991024 
8.7498814e+2, 2.5915813e+2, -454020.13, -535776.94, 61187.13, 0.015345855, 0.22763003, -421312.47, -21038.34, 0.000000062466036, 10.001366, 9.990773 
8.748245e+2, 2.691487e+2, -369001.6, -453703.34, 51823.246, 0.017374905, 0.25950685, -344425.28, -42058.574, 0.00000036397861, 10.000876, 9.989852 
8.7465906e+2, 2.7913883e+2, -280613.8, -359178.34, 48902.05, 0.02717591, 0.2848872, -257170.44, -52706.645, 0.0000015534528, 10.000132, 9.989941 
8.744887e+2, 2.891277e+2, -208431.06, -276312.63, 36424.406, -0.00080127455, 0.19358715, -192585.16, -86012.625, 0.0000049067735, 9.998412, 9.989638 
8.743168e+2, 2.9911688e+2, -132497.53, -190754.22, 51473.34, -0.040355563, 0.13883418, -102482.28, -93803.41, 0.000011728757, 9.997007, 9.989457 
8.741491e+2, 3.0910885e+2, -79644.78, -146617.22, 34376.94, 0.09647856, 0.43566728, -65140.363, -65140.363, 0.000022053671, 9.997623, 9.988852 
8.739765e+2, 3.1909472e+2, -29430.84, -53214.03, -1773.667, -0.11828044, 0.17821814, -29299.293, -29299.293, 0.000034311128, 9.99805, 9.995043 
8.8709456e+2, 1.2939747e+2, -1632988.0, -1675877.0, 9939.053, 0.38430527, 0.2932804, -1630796.6, 41134.91, 0.00000034527207, 10.004139, 9.998526 
8.869258e+2, 1.3939542e+2, -1538434.9, -1581252.0, 9937.34, 0.3257326, 0.23905966, -1536241.0, 37709.668, 0.00000022408217, 10.003969, 9.998387 
8.867599e+2, 1.493936e+2, -1448416.1, -1495246.9, 30715.512, 0.28955925, 0.25463793, -1433208.6, 42760.086, 0.00000012080618, 10.003774, 9.997748 
8.865965e+2, 1.5939157e+2, -1354569.1, -1401286.3, 32414.111, 0.2659223, 0.28106222, -1337974.0, 40014.957, 0.000000051297388, 10.003571, 9.997569 
8.864343e+2, 1.6938864e+2, -1267796.6, -1317773.0, 44501.273, 0.23888588, 0.27465984, -1241747.8, 38269.793, 0.00000001643881, 10.00319, 9.996811 
8.8627344e+2, 1.793853e+2, -1176606.5, -1225201.3, 46388.527, 0.20931222, 0.26318812, -1148537.3, 33513.008, 0.000000003877973, 10.002809, 9.996624 
8.861134e+2, 1.893815e+2, -1085262.5, -1140219.3, 54039.656, 0.1934443, 0.26913065, -1052116.3, 31971.307, 0.00000000066676814, 10.002772, 9.995775 
8.859541e+2, 1.9937727e+2, -988329.94, -1045884.25, 55320.824, 0.18263152, 0.2751483, -954749.06, 31379.979, 0.00000000008333369, 10.002821, 9.995496 
8.857944e+2, 2.09372e+2, -894326.3, -961613.1, 58052.43, 0.16960417, 0.25723085, -860873.0, 27307.47, 0.000000000007568592, 10.003043, 9.994444 
8.8563466e+2, 2.1936622e+2, -793970.1, -863581.4, 62354.53, 0.15388238, 0.23996945, -757364.9, 32871.727, 0.0000000000041539354, 10.003242, 9.994342 
8.8547456e+2, 2.2936037e+2, -706556.6, -780958.7, 63898.754, 0.12833856, 0.26805985, -669818.7, 22475.994, 0.00000000007615155, 10.00295, 9.993403 
8.8531405e+2, 2.3935403e+2, -615941.3, -687736.9, 69699.92, 0.09912061, 0.29830363, -573438.0, 20919.48, 0.0000000011519491, 10.0024805, 9.99329 
8.851522e+2, 2.4934646e+2, -537249.75, -611183.44, 65792.086, 0.056366373, 0.27073553, -498750.4, -2318.9993, 0.000000012666578, 10.001659, 9.992166 
8.8498926e+2, 2.5933832e+2, -451536.75, -519962.34, 71727.695, 0.015557162, 0.24204543, -406280.2, -7769.2993, 0.00000010143311, 10.000832, 9.992086 
8.848249e+2, 2.6933044e+2, -375147.16, -441625.16, 64527.8, 0.024334751, 0.29446802, -335800.56, -35212.316, 0.00000059457784, 9.9997225, 9.991183 
8.8465834e+2, 2.7932212e+2, -297900.16, -349538.8, 64139.004, 0.0416476, 0.3358433, -254578.69, -51908.14, 0.0000025729971, 9.998072, 9.991528 
8.844873e+2, 2.8931198e+2, -196058.47, -259347.5, 55500.445, -0.004255684, 0.20430724, -163815.0, -59045.652, 0.000008317356, 9.998697, 9.990636 
8.843156e+2, 2.9930153e+2, -81671.055, -179267.31, 63301.65, -0.05797908, 0.13209029, -50541.992, -43670.656, 0.000020445008, 10.0009985, 9.988311 
8.841482e+2, 3.0929086e+2, -87293.45, -214736.27, 43341.06, 0.12283281, 0.57149637, -73950.83, -73950.83, 0.000039407863, 9.999847, 9.983067 
8.83974e+2, 3.1927127e+2, -14360.632, 14136.529, -2137.058, -0.12013388, 0.14130352, 14295.9, 14295.9, 0.00006239628, 9.996448, 10.000326 
8.970987e+2, 1.2956843e+2, -1631703.5, -1675283.8, 8949.758, 0.3831537, 0.29620638, -1629937.1, 40320.594, 0.000000029867618, 10.004233, 9.998516 
8.969299e+2, 1.3956672e+2, -1536049.6, -1576861.6, 9477.529, 0.34042224, 0.27315205, -1533956.1, 38317.723, 0.000000019382966, 10.003996, 9.998665 
8.9676386e+2, 1.4956532e+2, -1443260.8, -1486247.8, 30275.334, 0.31070554, 0.27876055, -1427625.3, 46662.547, 0.000000010447276, 10.003846, 9.998321 
8.9660037e+2, 1.5956368e+2, -1348926.3, -1392546.3, 31383.357, 0.29131183, 0.2881459, -1332518.5, 43785.395, 0.000000004434464, 10.003696, 9.998097 
8.964378e+2, 1.6956128e+2, -1261446.5, -1308533.0, 42844.9, 0.266966, 0.28152886, -1236102.4, 42225.094, 0.0000000014203173, 10.003356, 9.997354 
8.9627653e+2, 1.7955852e+2, -1170125.0, -1216185.9, 45488.0, 0.23658155, 0.27505186, -1142169.6, 38185.02, 0.00000000033482794, 10.002999, 9.997142 
8.961162e+2, 1.8955542e+2, -1079231.0, -1130422.8, 54150.85, 0.19535252, 0.29487407, -1044931.44, 37453.945, 0.000000000057520166, 10.002893, 9.996382 
8.9595664e+2, 1.9955194e+2, -982846.9, -1035466.2, 55948.35, 0.15794204, 0.31425104, -947330.9, 37089.023, 0.0000000000071813653, 10.002869, 9.996181 
8.9579725e+2, 2.095475e+2, -887751.1, -947434.06, 59117.285, 0.14839517, 0.29517782, -851370.5, 35092.727, 0.00000000000065138487, 10.003029, 9.995417 
8.956378e+2, 2.195427e+2, -787300.1, -848179.5, 62371.97, 0.14318374, 0.27395308, -748336.4, 40173.71, 0.000000000004345299, 10.003179, 9.99542 
8.954776e+2, 2.2953802e+2, -697161.2, -760362.75, 62346.543, 0.13451652, 0.29342616, -658864.1, 31692.041, 0.00000000008960781, 10.002899, 9.994827 
8.953167e+2, 2.3953299e+2, -606771.2, -668300.5, 67288.05, 0.12196761, 0.313855, -563548.4, 29057.434, 0.0000000013556982, 10.002457, 9.99462 
8.951542e+2, 2.4952677e+2, -527037.1, -589942.0, 62548.832, 0.08516007, 0.28383946, -488478.03, 6188.615, 0.00000001491582, 10.001646, 9.993613 
8.9499044e+2, 2.5952017e+2, -438777.88, -493363.28, 69303.47, 0.047002118, 0.25843406, -391586.6, 5144.3594, 0.00000011982068, 10.000818, 9.993903 
8.948248e+2, 2.6951444e+2, -362142.88, -414267.7, 58187.484, 0.046024844, 0.3281696, -324447.7, -25659.953, 0.00000070951444, 9.999702, 9.993035 
8.9465636e+2, 2.7950802e+2, -284457.4, -320784.1, 58694.703, 0.045489293, 0.37773737, -241179.94, -40328.91, 0.0000031439724, 9.9980345, 9.993486 
8.9448553e+2, 2.8949854e+2, -196542.42, -260623.08, 65457.324, -0.046279833, 0.20945697, -155704.47, -52761.043, 0.000010590981, 9.998726, 9.990574 
8.943159e+2, 2.9948777e+2, -92583.67, -203109.1, 67488.35, -0.1305136, 0.14310104, -60618.836, -55570.395, 0.000027468179, 10.001044, 9.986679 
8.9414823e+2, 3.0947533e+2, -125184.19, -287631.5, 32196.725, 0.16689226, 0.77890265, -119035.586, -119035.586, 0.000055776036, 9.99954, 9.978202 
8.939696e+2, 3.1945053e+2, 22392.572, 108821.45, -25778.398, -0.1322914, 0.08579753, 115926.13, 115926.13, 0.00009185297, 9.995535, 10.007205 
9.071022e+2, 1.2973928e+2, -1651828.9, -1677935.3, 8109.466, 0.39596072, 0.30617994, -1649515.0, 19070.078, 0.000000001903787, 10.002548, 9.999156 
9.069332e+2, 1.3973844e+2, -1554503.9, -1579704.0, 11921.75, 0.33624253, 0.30480862, -1549757.9, 20835.477, 0.0000000012354053, 10.00247, 9.999205 
9.067672e+2, 1.4973739e+2, -1455517.4, -1487853.5, 33020.973, 0.3106099, 0.3030656, -1434918.8, 37684.84, 0.00000000066574474, 10.002826, 9.998699 
9.066039e+2, 1.5973601e+2, -1354087.9, -1390678.3, 32831.426, 0.2982641, 0.30154333, -1334798.3, 39818.746, 0.0000000002824927, 10.003156, 9.998483 
9.064412e+2, 1.697341e+2, -1259232.6, -1302149.9, 43168.266, 0.274531, 0.30115843, -1232483.6, 44152.195, 0.00000000009044054, 10.003274, 9.997825 
9.062798e+2, 1.7973192e+2, -1162144.5, -1205753.3, 45273.773, 0.24427596, 0.30221343, -1133698.0, 44959.484, 0.000000000021308946, 10.003256, 9.997724 
9.061192e+2, 1.897295e+2, -1075262.5, -1118965.5, 54459.332, 0.20817141, 0.31491524, -1038434.3, 42247.32, 0.000000000003658245, 10.002746, 9.997225 
9.0595937e+2, 1.9972678e+2, -988036.94, -1028971.2, 57856.332, 0.17403547, 0.32761934, -947134.2, 35574.457, 0.00000000000045636807, 10.002118, 9.996973 
9.0579957e+2, 2.0972332e+2, -902457.2, -943721.75, 61377.707, 0.15523157, 0.3210678, -858336.75, 26405.84, 0.00000000000004135605, 10.001549, 9.996373 
9.056398e+2, 2.1971962e+2, -811733.75, -848473.6, 64499.203, 0.14000346, 0.3126114, -763039.5, 23739.416, 0.000000000003679787, 10.001, 9.996443 
9.054793e+2, 2.2971606e+2, -719284.6, -755545.0, 63818.21, 0.12848532, 0.32254094, -671071.25, 17742.69, 0.00000000007657119, 10.000701, 9.99621 
9.053181e+2, 2.3971228e+2, -627515.06, -664161.25, 67972.805, 0.11640496, 0.3315672, -575439.0, 15412.217, 0.0000000011584531, 10.000404, 9.995889 
9.0515494e+2, 2.4970753e+2, -540864.0, -578662.9, 62456.727, 0.089356504, 0.3092826, -494509.8, -1612.1954, 0.000000012755497, 9.999893, 9.995223 
9.0499055e+2, 2.5970274e+2, -448623.34, -476225.38, 70010.39, 0.06079519, 0.29205975, -391066.66, 3877.9832, 0.00000010285623, 9.999156, 9.99587 
9.048237e+2, 2.6969936e+2, -365640.2, -383272.44, 61204.83, 0.05390109, 0.34662893, -312619.78, -15641.99, 0.0000006166406, 9.997979, 9.995967 
9.046539e+2, 2.796957e+2, -278634.6, -290418.25, 71048.69, 0.04420464, 0.38406938, -213233.84, -14219.619, 0.0000028151514, 9.997133, 9.995978 
9.0448064e+2, 2.8968954e+2, -266482.16, -251604.95, 79799.86, -0.061921682, 0.24798639, -178897.73, -77823.734, 0.000010026655, 9.991862, 9.994406 
9.1710496e+2, 1.2991023e+2, -1643729.1, -1663588.9, 7907.7603, 0.41319674, 0.31922537, -1640965.1, 25946.61, 0.00000000008526822, 10.002647, 10.000079 
9.169355e+2, 1.399104e+2, -1547476.5, -1569012.4, 12470.243, 0.32235253, 0.33506888, -1541768.6, 27141.53, 0.00000000005532455, 10.002639, 9.999851 
9.1677e+2, 1.4990969e+2, -1452429.0, -1483041.8, 34243.805, 0.29963404, 0.32742855, -1430226.4, 40690.703, 0.000000000029806633, 10.002903, 9.998991 
9.16607e+2, 1.5990853e+2, -1352346.4, -1386279.1, 33741.508, 0.29482928, 0.31879467, -1331545.8, 41382.56, 0.000000000012643394, 10.003128, 9.9987955 
9.164445e+2, 1.6990712e+2, -1257312.1, -1296330.5, 43459.203, 0.26984295, 0.32860392, -1229184.0, 45758.594, 0.0000000000040459667, 10.003199, 9.998255 
9.16283e+2, 1.7990549e+2, -1159032.6, -1197065.4, 44528.555, 0.24040155, 0.3383754, -1129629.9, 47329.008, 0.000000000000952743, 10.003159, 9.998358 
9.1612214e+2, 1.8990374e+2, -1068476.6, -1104269.3, 52012.043, 0.22931063, 0.3304315, -1031368.1, 47608.03, 0.00000000000016345195, 10.00271, 9.998236 
9.159619e+2, 1.999018e+2, -981300.0, -1015846.75, 55453.137, 0.21836327, 0.32357228, -940492.25, 40502.973, 0.000000000000020373985, 10.002149, 9.997848 
9.158014e+2, 2.0989946e+2, -894824.8, -929168.0, 58976.707, 0.18160196, 0.33927587, -850570.7, 32447.918, 0.0000000000000018444884, 10.001598, 9.997335 
9.156409e+2, 2.1989696e+2, -803900.4, -833584.4, 62877.777, 0.14171094, 0.35526493, -754136.6, 30906.844, 0.0000000000022816527, 10.001058, 9.997425 
9.1547984e+2, 2.2989449e+2, -709213.7, -735277.75, 62723.246, 0.1113946, 0.35457858, -658182.94, 28885.055, 0.00000000004750775, 10.00073, 9.997575 
9.153182e+2, 2.398919e+2, -618961.0, -646415.56, 66729.32, 0.08549822, 0.35147065, -564561.6, 24531.89, 0.00000000071877954, 10.000405, 9.997094 
9.1515464e+2, 2.4988876e+2, -528418.1, -552974.4, 60069.992, 0.07060659, 0.34684214, -479384.28, 11740.075, 0.000000007919502, 9.999898, 9.996965 
9.1498965e+2, 2.598859e+2, -434037.84, -446060.44, 66155.36, 0.05562953, 0.34209803, -373621.25, 19531.21, 0.000000064069, 9.999154, 9.997919 
9.1482157e+2, 2.698851e+2, -338209.7, -326041.97, 57083.496, 0.046390954, 0.3469397, -274719.06, 20440.887, 0.00000038831317, 9.997951, 9.999888 
9.14651e+2, 2.7988473e+2, -259842.42, -250795.06, 70656.05, 0.039158106, 0.35157907, -184518.03, 12645.237, 0.0000018216402, 9.997113, 9.998702 
9.144727e+2, 2.898844e+2, -214219.39, -143853.47, 37573.44, -0.042945206, 0.3332735, -127562.125, -28395.158, 0.0000068581026, 9.991889, 10.001575 
9.271069e+2, 1.3008113e+2, -1661879.6, -1667914.0, 7901.098, 0.41220686, 0.3363006, -1656439.3, 8799.6045, 0.0000000000029415736, 10.001231, 10.000479 
9.269378e+2, 1.400818e+2, -1556664.9, -1568688.8, 10282.877, 0.32311258, 0.35789788, -1550765.4, 16467.352, 0.0000000000019083366, 10.00182, 10.000285 
9.267724e+2, 1.5008152e+2, -1464169.0, -1484206.0, 30992.072, 0.2969778, 0.35254398, -1441616.4, 27619.117, 0.0000000000010279229, 10.001923, 9.999394 
9.266094e+2, 1.6008078e+2, -1369149.4, -1389685.6, 30950.049, 0.28829935, 0.34510505, -1346808.6, 24434.059, 0.0000000000004359048, 10.001794, 9.999216 
9.264468e+2, 1.7007983e+2, -1276140.3, -1299258.8, 40815.313, 0.26167744, 0.3535321, -1245278.9, 27973.46, 0.0000000000001394446, 10.001664, 9.998798 
9.262852e+2, 1.8007873e+2, -1179711.0, -1201247.9, 42205.918, 0.23181254, 0.36219186, -1146921.5, 28342.074, 0.00000000000003282296, 10.001513, 9.998869 
9.261242e+2, 1.9007754e+2, -1080737.5, -1103156.3, 47510.758, 0.224534, 0.35584724, -1043131.75, 34143.465, 0.0000000000000056283993, 10.001586, 9.99886 
9.259638e+2, 2.0007627e+2, -984411.7, -1009312.2, 48670.086, 0.21845861, 0.3494864, -946624.6, 32663.176, 0.00000000000000070118843, 10.001605, 9.998568 
9.258028e+2, 2.1007477e+2, -892304.56, -916558.6, 51453.805, 0.1850258, 0.3609351, -851568.0, 29734.857, 0.000000000000000063441855, 10.001293, 9.998352 
9.2564183e+2, 2.2007325e+2, -800539.0, -820986.3, 55418.395, 0.1467858, 0.37394142, -754409.1, 28909.002, 0.0000000000010276332, 10.000829, 9.998404 
9.2548025e+2, 2.300719e+2, -711315.7, -722356.0, 53984.2, 0.11429152, 0.3747288, -662570.1, 22761.629, 0.000000000021395776, 10.000002, 9.9988165 
9.2531794e+2, 2.4007057e+2, -629421.6, -637583.4, 57701.008, 0.08510573, 0.37446502, -575657.4, 11687.548, 0.0000000003236999, 9.999116, 9.99833 
9.2515385e+2, 2.5006902e+2, -535735.44, -537196.25, 51014.906, 0.066902936, 0.38173747, -485445.7, 3914.6726, 0.0000000035679824, 9.998598, 9.998676 
9.2498815e+2, 2.6006794e+2, -439173.38, -431073.97, 55155.758, 0.04963164, 0.3850966, -379819.44, 11551.966, 0.000000028923647, 9.998091, 9.99946 
9.2481923e+2, 2.7006868e+2, -333271.22, -299717.2, 35192.02, 0.041648086, 0.36339995, -277507.72, 15856.03, 0.0000001764978, 9.997326, 10.002022 
9.246476e+2, 2.8007022e+2, -260276.4, -228982.27, 39314.23, 0.038828637, 0.34947935, -202315.75, -6967.6816, 0.00000084269607, 9.99626, 10.0006695 
9.244679e+2, 2.9007256e+2, -106862.336, -65112.09, -20553.307, -0.03524898, 0.39321727, -56692.008, 40633.473, 0.0000032972616, 9.99837, 10.003901 
9.371081e+2, 1.3025182e+2, -1658856.5, -1664787.3, 10260.224, 0.40363625, 0.35588744, -1651141.8, 12426.174, 0.0, 10.001371, 10.00063 
9.369397e+2, 1.4025268e+2, -1553131.6, -1563413.9, 12042.604, 0.33089727, 0.37740183, -1545178.6, 20381.51, 0.0, 10.00191, 10.000605 
9.367743e+2, 1.502529e+2, -1459691.4, -1476974.9, 30428.143, 0.2981082, 0.37835264, -1436701.6, 30856.553, 0.0, 10.002008, 9.999844 
9.3661106e+2, 1.6025268e+2, -1364389.1, -1382006.4, 30380.844, 0.28003567, 0.37624174, -1341565.6, 27994.834, 0.0, 10.001886, 9.999693 
9.3644834e+2, 1.702522e+2, -1270348.5, -1289425.8, 39849.594, 0.2516225, 0.37652746, -1238911.9, 32653.652, 0.0, 10.001757, 9.999421 
9.362866e+2, 1.802516e+2, -1175487.5, -1194372.5, 41970.742, 0.21983069, 0.37865594, -1141910.3, 31661.51, 0.0, 10.0015955, 9.999296 
9.3612564e+2, 1.9025093e+2, -1077947.1, -1097710.9, 47683.926, 0.2018861, 0.38845277, -1039131.94, 36446.73, 0.0, 10.001607, 9.999219 
9.3596506e+2, 2.0025021e+2, -980622.6, -1000603.06, 48274.36, 0.18798973, 0.39544222, -941315.6, 36270.434, 0.0, 10.001571, 9.999174 
9.35804e+2, 2.1024936e+2, -885349.7, -901507.7, 49897.93, 0.17271581, 0.38339585, -842880.94, 36713.477, 0.00000000000001172248, 10.001265, 9.999387 
9.356428e+2, 2.2024862e+2, -794014.94, -807132.75, 53125.395, 0.1552972, 0.37336123, -747045.1, 34556.53, 0.00000000000033603255, 10.000811, 9.99935 
9.354804e+2, 2.3024836e+2, -703407.8, -706192.44, 50357.453, 0.13431366, 0.38566127, -654423.44, 29181.008, 0.000000000006995279, 10.000005, 9.999907 
9.3531734e+2, 2.4024834e+2, -620221.06, -619125.3, 55239.1, 0.11086489, 0.40063873, -564431.4, 21173.88, 0.00000000010582102, 9.999141, 9.99957 
9.351526e+2, 2.5024834e+2, -523731.2, -512669.53, 49196.867, 0.07613286, 0.41394112, -468693.56, 18912.074, 0.0000000011666762, 9.998618, 10.000334 
9.3498623e+2, 2.6024878e+2, -432084.72, -416451.1, 53343.85, 0.043364722, 0.4210878, -370354.38, 19247.455, 0.000000009466443, 9.998098, 10.000447 
9.3481654e+2, 2.7024993e+2, -330948.63, -295366.47, 31209.37, 0.04032675, 0.39795285, -277233.38, 14356.54, 0.000000057937125, 9.99735, 10.002289 
9.34644e+2, 2.8025198e+2, -249524.19, -208363.9, 34911.19, 0.039506137, 0.3804669, -188418.34, 5151.1294, 0.00000027886526, 9.996335, 10.0020275 
9.3446624e+2, 2.902542e+2, -121957.91, -96959.17, -200.13055, -0.044060912, 0.4177649, -96957.57, -1409.115, 0.000001111083, 9.9984045, 10.001785 
9.471089e+2, 1.3042177e+2, -1670795.9, -1667941.6, 6815.161, 0.39583787, 0.37708127, -1662405.8, -500.6494, 0.0, 10.000472, 10.000876 
9.4694114e+2, 1.4042285e+2, -1563718.8, -1566154.9, 8207.334, 0.31988466, 0.3983988, -1556639.6, 7255.355, 0.0, 10.001113, 10.000826 
9.46776e+2, 1.5042327e+2, -1467572.6, -1478358.4, 23355.547, 0.29553935, 0.39838043, -1448995.4, 16895.63, 0.0, 10.001396, 10.00006 
9.466128e+2, 1.6042331e+2, -1369435.6, -1380386.9, 22415.367, 0.28483105, 0.3966844, -1351836.8, 16054.022, 0.0, 10.001398, 10.000059 
9.4645e+2, 1.7042339e+2, -1271965.1, -1283760.9, 31080.146, 0.25683832, 0.4010938, -1246228.3, 23662.217, 0.0, 10.001402, 9.999994 
9.4628817e+2, 1.8042336e+2, -1176859.0, -1189434.8, 32922.03, 0.22401206, 0.40655684, -1149629.8, 22261.115, 0.0, 10.001295, 9.999794 
9.461268e+2, 1.9042319e+2, -1084859.8, -1094983.0, 38946.96, 0.20140587, 0.41520223, -1050646.9, 23246.152, 0.0, 10.000908, 9.999754 
9.4596606e+2, 2.00423e+2, -992874.3, -999916.06, 40341.01, 0.18332523, 0.42183188, -955900.8, 19994.275, 0.0, 10.000485, 9.999754 
9.4580483e+2, 2.1042289e+2, -894467.8, -897274.25, 40296.9, 0.1705965, 0.41356075, -855549.7, 22346.703, 0.0000000000000027837643, 10.000307, 10.00015 
9.4564325e+2, 2.2042292e+2, -799255.2, -800858.56, 41484.36, 0.15702914, 0.40519625, -758564.75, 21331.15, 0.000000000000079789406, 10.000114, 10.000132 
9.454804e+2, 2.3042347e+2, -699606.5, -694154.4, 36714.57, 0.13827807, 0.41162017, -660064.8, 21826.0, 0.0000000000016608658, 9.999869, 10.000811 
9.4531673e+2, 2.404243e+2, -608296.06, -602149.5, 40244.11, 0.11637297, 0.4211552, -564861.5, 19021.379, 0.000000000025123133, 9.999527, 10.000564 
9.451514e+2, 2.5042537e+2, -512332.56, -494411.63, 30913.67, 0.079667255, 0.43195254, -471186.0, 14686.85, 0.00000000027699354, 9.998916, 10.001467 
9.4498444e+2, 2.6042685e+2, -423883.66, -402723.9, 32363.193, 0.043452624, 0.43894744, -379255.13, 8603.534, 0.0000000022481352, 9.998326, 10.00131 
9.4481444e+2, 2.7042857e+2, -312157.38, -284565.5, 11803.866, 0.0330462, 0.4259828, -280204.94, 9636.689, 0.000000013770957, 9.998675, 10.002419 
9.4464177e+2, 2.8043088e+2, -202191.06, -180629.75, 11900.695, 0.026062956, 0.4156312, -175352.72, 16466.006, 0.00000006645202, 9.999504, 10.00243 
9.444658e+2, 2.9043257e+2, -96515.16, -98608.96, -10019.959, -0.047872998, 0.43651408, -87487.555, 6314.9434, 0.00000026632884, 10.000871, 10.000604 
9.571094e+2, 1.3059095e+2, -1665808.1, -1662747.1, 9585.222, 0.3876019, 0.39831948, -1654571.0, 5679.029, 0.0, 10.000695, 10.001128 
9.569421e+2, 1.4059223e+2, -1560414.8, -1563106.9, 10757.588, 0.30035755, 0.4192771, -1550919.4, 11318.269, 0.0, 10.001279, 10.000959 
9.567774e+2, 1.505927e+2, -1465468.5, -1476332.3, 23658.615, 0.2918756, 0.4150475, -1446626.1, 17607.12, 0.0, 10.001496, 10.000148 
9.566143e+2, 1.6059287e+2, -1366501.9, -1375665.3, 22871.086, 0.29682213, 0.41168883, -1347758.1, 18473.744, 0.0, 10.001456, 10.000351 
9.5645154e+2, 1.705935e+2, -1267460.6, -1275677.3, 31011.137, 0.2707874, 0.42738092, -1240286.9, 27938.975, 0.0, 10.001456, 10.000516 
9.562896e+2, 1.805941e+2, -1172339.4, -1181255.9, 32105.143, 0.23832215, 0.4417569, -1144384.4, 25835.83, 0.0, 10.001345, 10.000324 
9.5612794e+2, 1.9059439e+2, -1079395.5, -1085157.0, 37097.734, 0.21576457, 0.43815318, -1045066.9, 27150.79, 0.0, 10.000967, 10.000389 
9.5596665e+2, 2.0059472e+2, -988031.1, -991496.5, 39286.07, 0.19623618, 0.43608838, -950439.56, 23774.98, 0.0, 10.000555, 10.000291 
9.558051e+2, 2.1059534e+2, -890152.0, -889231.4, 39517.047, 0.1751769, 0.45160437, -850171.94, 26036.826, 0.0000000000000004814415, 10.000349, 10.000674 
9.556433e+2, 2.2059615e+2, -794622.8, -791573.75, 40757.75, 0.1528669, 0.4631223, -752312.06, 25889.068, 0.0000000000000137965506, 10.000132, 10.000752 
9.5548016e+2, 2.3059717e+2, -694497.94, -683599.94, 35581.992, 0.1286065, 0.4493697, -653052.1, 27138.705, 0.0000000000002871783, 9.999875, 10.001523 
9.553161e+2, 2.4059848e+2, -603089.06, -591164.0, 38479.37, 0.104320474, 0.4356791, -558187.94, 23989.775, 0.0000000000043439176, 9.999519, 10.00131 
9.5515025e+2, 2.5060013e+2, -508182.97, -485717.9, 28408.023, 0.078549266, 0.4361244, -466402.34, 17759.453, 0.000000000047890174, 9.99891, 10.002054 
9.549828e+2, 2.606022e+2, -418318.25, -391311.25, 30945.438, 0.0491515, 0.43968225, -371051.4, 15090.206, 0.0000000003886807, 9.998335, 10.00208 
9.54813e+2, 2.706046e+2, -311487.84, -283398.66, 15623.49, 0.01825159, 0.44868788, -276435.06, 11682.913, 0.0000000023809572, 9.9986925, 10.002505 
9.54641e+2, 2.8060699e+2, -206479.45, -189472.47, 14149.921, -0.0027504286, 0.4546225, -181467.48, 8627.024, 0.000000011493604, 9.999499, 10.001834 
9.544667e+2, 2.9060775e+2, -100211.89, -105510.37, -1270.8037, -0.045267306, 0.44551405, -99922.86, -7835.0586, 0.000000046121695, 10.000837, 10.000186 
9.671102e+2, 1.3075976e+2, -1663248.1, -1659797.9, 5205.855, 0.3893778, 0.45751208, -1656038.8, 2559.5596, 0.0, 10.000827, 10.001285 
9.6694344e+2, 1.4076102e+2, -1561115.9, -1562652.3, 5501.877, 0.3031077, 0.46137083, -1556328.8, 4257.2275, 0.0, 10.00123, 10.001035 
9.667788e+2, 1.507615e+2, -1469053.1, -1477821.0, 15738.75, 0.29145983, 0.45783255, -1457099.1, 5482.259, 0.0, 10.00128, 10.000162 
9.666157e+2, 1.6076171e+2, -1371095.0, -1376432.1, 14824.071, 0.29509547, 0.4544183, -1358701.3, 5878.3433, 0.0, 10.001122, 10.000473 
9.664529e+2, 1.7076246e+2, -1270387.6, -1273864.4, 21521.418, 0.2706519, 0.4589996, -1250534.5, 16037.883, 0.0, 10.001165, 10.000796 
9.662909e+2, 1.8076326e+2, -1173647.8, -1178338.0, 20822.39, 0.23961084, 0.46304113, -1155038.9, 13525.949, 0.0, 10.001151, 10.000636 
9.6612895e+2, 1.907639e+2, -1075967.5, -1078415.5, 23892.479, 0.21744853, 0.45677015, -1053267.8, 17290.998, 0.0, 10.001032, 10.000839 
9.659674e+2, 2.0076467e+2, -981328.4, -982944.06, 25212.7, 0.19730365, 0.45265248, -956910.56, 15640.754, 0.0, 10.000836, 10.000763 
9.6580553e+2, 2.1076578e+2, -884764.1, -880288.6, 25234.986, 0.17160301, 0.46564883, -857192.4, 17348.328, 0.00000000000000006123343, 10.0005, 10.001234 
9.6564335e+2, 2.2076714e+2, -791180.1, -783368.5, 26680.436, 0.14485627, 0.47604892, -760309.5, 16218.093, 0.0000000000000017547352, 10.000143, 10.001329 
9.6547997e+2, 2.3076874e+2, -690968.8, -675368.6, 20536.195, 0.12044121, 0.4626969, -661201.06, 17310.475, 0.000000000000036525274, 9.999898, 10.002098 
9.6531564e+2, 2.4077067e+2, -597253.94, -580983.4, 22108.674, 0.09735019, 0.44922426, -565560.7, 14931.726, 0.0000000000005524877, 9.999667, 10.001961 
9.6514946e+2, 2.507729e+2, -496397.72, -474788.13, 11302.111, 0.076311685, 0.45088434, -469957.03, 12513.578, 0.0000000000060908344, 9.999562, 10.002516 
9.6498173e+2, 2.6077545e+2, -398514.03, -376095.2, 12891.051, 0.0507696, 0.4545931, -370221.56, 14223.982, 0.00000000004943236, 9.999525, 10.002581 
9.6481216e+2, 2.707781e+2, -298638.56, -276963.9, -454.95602, 0.015412766, 0.45951506, -276954.34, 9465.234, 0.00000000030278186, 9.999641, 10.002545 
9.646408e+2, 2.807805e+2, -196945.36, -184947.28, -874.73804, -0.0098129455, 0.46284112, -184883.84, 3512.1274, 0.000000001461481, 10.00023, 10.001847 
9.6446806e+2, 2.907814e+2, -83969.21, -94909.89, -4242.332, -0.04314493, 0.45839125, -82516.98, 7870.2773, 0.0000000058645764, 10.001905, 10.000451 
9.7711116e+2, 1.3092789e+2, -1662431.1, -1658570.5, 7355.4126, 0.39669046, 0.5348744, -1652896.4, 4057.0022, 0.0, 10.000846, 10.001364 
9.7694474e+2, 1.4092897e+2, -1561312.6, -1562659.3, 7506.9063, 0.31562907, 0.5145292, -1554448.9, 4493.5938, 0.0, 10.00121, 10.001048 
9.767801e+2, 1.5092947e+2, -1469238.1, -1478398.6, 16224.789, 0.29123977, 0.5140654, -1456959.5, 3978.4617, 0.0, 10.001284, 10.000114 
9.766166e+2, 1.6092962e+2, -1370569.5, -1376119.4, 16528.527, 0.28520957, 0.5105732, -1356584.6, 6351.8696, 0.0, 10.001155, 10.000473 
9.7645396e+2, 1.7093019e+2, -1269079.6, -1271983.6, 23274.736, 0.26201817, 0.49091616, -1247211.6, 17719.258, 0.0, 10.001201, 10.000899 
9.7629195e+2, 1.8093088e+2, -1172122.5, -1175954.5, 22304.19, 0.23233612, 0.47307485, -1151652.3, 15272.113, 0.0, 10.001184, 10.000775 
9.761299e+2, 1.9093178e+2, -1073180.6, -1073700.5, 24669.969, 0.21028902, 0.47008595, -1048769.3, 20146.518, 0.0, 10.001076, 10.00113 
9.759681e+2, 2.0093288e+2, -977632.0, -976548.6, 25407.734, 0.18974742, 0.46711266, -951676.8, 19228.422, 0.0, 10.000888, 10.001165 
9.75806e+2, 2.1093428e+2, -879903.75, -871462.8, 24634.988, 0.16190034, 0.45808712, -850689.4, 22202.098, 0.000000000000000005872876, 10.00055, 10.001804 
9.7564346e+2, 2.2093603e+2, -786847.7, -775340.44, 26147.008, 0.13377424, 0.45187384, -754321.5, 20552.865, 0.0000000000000001683191, 10.000183, 10.001852 
9.754798e+2, 2.3093829e+2, -687750.7, -668980.56, 19908.73, 0.11347182, 0.45566896, -656355.7, 20496.602, 0.0000000000000035036726, 9.99991, 10.002523 
9.753153e+2, 2.4094085e+2, -593421.94, -573065.06, 21370.018, 0.09430211, 0.4624854, -559573.3, 19253.58, 0.000000000000052997818, 9.999669, 10.002497 
9.7514904e+2, 2.5094366e+2, -493905.3, -469691.6, 11304.547, 0.07235473, 0.47584665, -465234.38, 15564.823, 0.0000000000005842758, 9.999567, 10.002862 
9.7498125e+2, 2.6094657e+2, -396985.53, -372810.75, 12364.724, 0.048567344, 0.48193762, -367606.78, 15163.791, 0.0000000000047418445, 9.999519, 10.002807 
9.748119e+2, 2.7094895e+2, -299287.47, -277913.1, 1058.0425, 0.026839467, 0.4549601, -277860.84, 6886.0967, 0.000000000029042851, 9.999622, 10.002498 
9.746412e+2, 2.809513e+2, -192234.28, -174614.86, 3011.72, 0.0077569964, 0.43774953, -174114.28, 12609.069, 0.00000000014016743, 10.000214, 10.002578 
9.7446996e+2, 2.9095381e+2, -75306.93, -77819.375, 4228.415, -0.045574963, 0.47979152, -72152.08, 16546.64, 0.0000000005623089, 10.001961, 10.001625 
9.871118e+2, 1.310942e+2, -1664149.3, -1658331.4, 7286.809, 0.3824262, 0.4250829, -1653394.4, 1931.0598, 0.0, 10.000693, 10.001457 
9.869459e+2, 1.410955e+2, -1564031.3, -1560177.5, 8015.8975, 0.3253717, 0.41138154, -1553860.1, 3452.043, 0.0, 10.0008745, 10.001382 
9.867812e+2, 1.510967e+2, -1468781.9, -1472587.5, 17474.04, 0.28416696, 0.4345623, -1453107.4, 6193.634, 0.0, 10.00109, 10.000587 
9.8661757e+2, 1.6109754e+2, -1368960.3, -1372394.1, 20415.4, 0.256569, 0.45873415, -1350189.8, 11103.328, 0.0, 10.001162, 10.000697 
9.86455e+2, 1.7109853e+2, -1267687.5, -1269834.0, 27039.926, 0.24442981, 0.47009504, -1241699.5, 21583.83, 0.0, 10.001263, 10.000984 
9.8629314e+2, 1.8109956e+2, -1171137.5, -1175323.4, 25858.205, 0.22952491, 0.48334375, -1147287.6, 17985.629, 0.0, 10.001282, 10.000737 
9.861312e+2, 1.9110073e+2, -1069482.0, -1071105.8, 26616.86, 0.21521562, 0.51177007, -1043664.6, 23597.393, 0.0, 10.001337, 10.001149 
9.859694e+2, 2.0110211e+2, -971462.1, -973002.7, 25373.742, 0.20139636, 0.53486264, -946847.0, 22401.846, 0.0, 10.001333, 10.0011635 
9.85807e+2, 2.1110368e+2, -870432.75, -864561.2, 21633.072, 0.17980462, 0.53392786, -845665.6, 25567.932, 0.0000000000000000004438203, 10.001147, 10.001964 
9.8564416e+2, 2.2110559e+2, -776969.44, -769049.8, 20496.047, 0.155581, 0.52964115, -752134.56, 21080.293, 0.000000000000000012719565, 10.000845, 10.001946 
9.854801e+2, 2.3110785e+2, -681808.6, -664488.9, 12118.934, 0.13021424, 0.5262757, -658253.7, 16939.018, 0.00000000000000026474655, 10.0003, 10.002636 
9.8531514e+2, 2.4111046e+2, -588938.5, -567687.0, 12756.166, 0.10459545, 0.5214935, -561710.75, 15456.211, 0.0000000000000040044745, 9.999893, 10.00276 
9.851489e+2, 2.5111336e+2, -484936.75, -462565.25, 2970.9844, 0.077015474, 0.51479346, -462177.44, 16960.934, 0.00000000000004414758, 10.000116, 10.0031 
9.849812e+2, 2.6111636e+2, -382963.66, -363091.7, 2425.3555, 0.04965156, 0.5055129, -362799.94, 18308.691, 0.00000000000035828575, 10.0004, 10.003066 
9.848119e+2, 2.7111894e+2, -288371.34, -272032.25, -6958.2163, 0.031007785, 0.4844539, -269470.63, 13612.219, 0.000000000002194212, 10.000383, 10.002559 
9.8464173e+2, 2.8112143e+2, -184156.8, -169431.34, -2980.1501, 0.013932015, 0.47081575, -168851.08, 16206.947, 0.000000000010588524, 10.00076, 10.0027075 
9.8447216e+2, 2.9112387e+2, -69673.76, -74520.22, -6087.536, -0.045513723, 0.4935505, -65544.875, 21488.68, 0.00000000004247506, 10.002371, 10.001745 
9.971126e+2, 1.3126299e+2, -1650908.8, -1652851.1, 5608.198, 0.38599038, 0.5698915, -1646188.3, 7484.6885, 0.0, 10.001659, 10.001357 
9.9694663e+2, 1.4126411e+2, -1554939.3, -1552345.8, 438.62863, 0.30903932, 0.5358804, -1552273.5, 3387.874, 0.0, 10.001378, 10.001696 
9.967825e+2, 1.5126574e+2, -1461482.0, -1463242.4, -1593.5819, 0.29883006, 0.5525669, -1460541.6, -2895.7388, 0.0, 10.001379, 10.001143 
9.96619e+2, 1.6126698e+2, -1366999.9, -1369621.6, -7236.5864, 0.28131518, 0.56657475, -1360956.4, -1321.9932, 0.0, 10.00127, 10.000929 
9.9645644e+2, 1.7126778e+2, -1266030.6, -1269477.3, -7141.5015, 0.2529499, 0.5537237, -1260407.4, 1219.2886, 0.0, 10.001454, 10.001032 
9.9629444e+2, 1.8126865e+2, -1169061.0, -1176777.0, -11555.682, 0.23036455, 0.5487715, -1160736.3, 2882.055, 0.0, 10.001592, 10.000618 
9.9613243e+2, 1.9126925e+2, -1068162.5, -1072340.5, -10152.409, 0.20571673, 0.53362083, -1059886.4, 5726.359, 0.0, 10.001569, 10.00108 
9.9597067e+2, 2.0127037e+2, -971696.94, -976243.1, -9097.722, 0.18921106, 0.54133236, -964592.6, 3009.3713, 0.0, 10.001506, 10.000976 
9.9580806e+2, 2.1127173e+2, -866721.7, -863786.75, -7791.858, 0.16716842, 0.53340614, -857325.4, 12263.365, 0.000000000000000000027862545, 10.001489, 10.001948 
9.95645e+2, 2.2127376e+2, -771575.1, -768608.4, -3907.6313, 0.15139414, 0.54672015, -765912.0, 5656.9507, 0.00000000000000000079847574, 10.001339, 10.001811 
9.954803e+2, 2.3127592e+2, -672846.7, -660940.44, -6293.578, 0.12281632, 0.5427575, -658230.5, 15317.394, 0.000000000000000016619501, 10.000968, 10.002608 
9.95315e+2, 2.4127866e+2, -578215.3, -561540.4, 1853.0017, 0.10108108, 0.5484548, -561336.94, 14184.114, 0.000000000000000251395, 10.000606, 10.002871 
9.951491e+2, 2.512817e+2, -475515.6, -456391.9, -473.0942, 0.08167194, 0.54109323, -456380.22, 21110.428, 0.0000000000000027717923, 10.000707, 10.00326 
9.9498165e+2, 2.6128483e+2, -378562.0, -357748.22, 1194.01, 0.051748823, 0.52305245, -357679.94, 21779.854, 0.000000000000022495242, 10.000565, 10.003359 
9.9481225e+2, 2.712882e+2, -286819.5, -269442.44, -6880.7017, 0.025043001, 0.5531714, -267047.88, 14378.724, 0.00000000000013774646, 10.000409, 10.0027275 
9.946424e+2, 2.8129083e+2, -188418.5, -179083.14, 610.40515, 0.0051040445, 0.56743616, -179043.4, 4356.71, 0.00000000000066465594, 10.00081, 10.002033 
9.944746e+2, 2.9129118e+2, -78572.016, -94118.64, 329.92017, -0.039233983, 0.49300677, -78565.016, 6831.211, 0.0000000000026667993, 10.002443, 10.000387 
