coord_x,coord_y,stress_xx,stress_yy,tau_xy,velocity_x,velocity_y,stress_1,eps,damage,lx,ly
4.998405e+0, 1.2421244e+2, -1756949.9, -1728429.4, -2125.3462, -0.0019301057, -0.031436138, -1728271.9, -5556.5347, 0.0, 9.996848, 10.000625 
4.998713e+0, 1.3421194e+2, -1661005.4, -1645845.5, -834.4248, 0.004658691, -0.01944527, -1645799.8, -21079.63, 0.0, 9.997333, 9.99934 
4.9990755e+0, 1.4421062e+2, -1561352.9, -1560222.5, 37.554577, 0.006796882, -0.02623396, -1560221.3, -33488.41, 0.0, 9.998015, 9.998163 
4.9995273e+0, 1.5420863e+2, -1449272.3, -1455384.8, -1355.265, 0.0041687656, -0.041893233, -1448985.3, -20233.674, 0.0, 9.998971, 9.99816 
4.9999022e+0, 1.6420548e+2, -1358249.1, -1389602.9, -2143.46, 0.0030024236, -0.051201206, -1358103.3, -27320.951, 0.0, 9.999744, 9.995591 
5.0001764e+0, 1.7420095e+2, -1253207.0, -1289437.1, -316.22964, 0.0038338606, -0.05176639, -1253204.3, -20377.803, 0.0, 10.000276, 9.995477 
5.0005335e+0, 1.8419565e+2, -1156432.6, -1211174.8, 588.7198, 0.0024025147, -0.04654937, -1156426.4, -21547.846, 0.0, 10.0010195, 9.99377 
5.0010073e+0, 1.941895e+2, -1043497.8, -1106373.5, -1861.6794, -0.0020445068, -0.035939924, -1043442.75, -6503.971, 0.0, 10.002054, 9.993728 
5.001358e+0, 2.0418209e+2, -952431.75, -1039185.7, -4076.9646, -0.0025187056, -0.032149415, -952240.56, -13229.134, 0.0, 10.002767, 9.991281 
5.001544e+0, 2.141732e+2, -851194.44, -940816.3, -2824.536, 0.002488469, -0.039402686, -851105.5, -10006.905, 0.0, 10.0030365, 9.991171 
5.001813e+0, 2.2416358e+2, -756537.0, -861539.06, -1214.455, 0.0041159214, -0.044383362, -756522.94, -13329.938, 0.0, 10.003544, 9.989644 
5.0021994e+0, 2.3415315e+2, -646468.56, -757974.25, -1564.9924, 0.0010046152, -0.048353944, -646446.6, -1151.5287, 0.0, 10.004378, 9.989616 
5.002453e+0, 2.4414189e+2, -553487.3, -683096.75, -2511.939, -0.0009817325, -0.0462056, -553438.7, -6033.0537, 0.0, 10.004925, 9.987769 
5.002521e+0, 2.541297e+2, -453704.2, -584804.7, -1432.502, -0.001275144, -0.0375916, -453688.53, -4163.0635, 0.0, 10.005069, 9.987716 
5.0027525e+0, 2.641171e+2, -355273.94, -496001.44, -950.2804, 0.0002671273, -0.027261788, -355267.53, -3618.3018, 0.0, 10.005501, 9.986874 
5.0032103e+0, 2.741041e+2, -244659.55, -391258.44, -4287.265, 0.0043598763, -0.017977674, -244534.27, 9241.6, 0.0, 10.006334, 9.986927 
5.0036067e+0, 2.8408933e+2, -158793.61, -336306.8, -4793.384, 0.0057110707, -0.031129532, -158664.27, -2744.021, 0.0, 10.007099, 9.98361 
5.00391e+0, 2.940723e+2, -52338.938, -236099.23, -459.93704, 0.0031721122, -0.07853201, -52337.785, 5748.8286, 0.0, 10.007756, 9.9834385 
5.004311e+0, 3.0405897e+2, 54844.113, -85273.586, 2206.4014, 0.0020938045, -0.08319987, 54878.848, 54878.848, 0.0, 10.008579, 9.990017 
5.0048465e+0, 3.140496e+2, 70737.68, -76619.27, 750.4341, 0.0031130312, -0.02946833, 70741.51, 70741.51, 0.0, 10.00963, 9.990106 
1.4995213e+1, 1.24211684e+2, -1754732.1, -1723880.8, -501.05948, -0.00598692, -0.028470911, -1723872.6, -1149.94, 0.0, 9.996848, 10.000933 
1.4996138e+1, 1.3421135e+2, -1658740.5, -1641200.8, 1009.53455, 0.013900773, -0.032261066, -1641142.9, -16417.29, 0.0, 9.997333, 9.999655 
1.4997226e+1, 1.4421004e+2, -1563754.9, -1565146.4, 3492.8271, 0.020373631, -0.0399797, -1560889.1, -34150.992, 0.0, 9.998014, 9.997829 
1.4998583e+1, 1.5420786e+2, -1452074.9, -1461136.3, 2267.9023, 0.012517462, -0.036344003, -1451539.0, -22779.613, 0.0, 9.998971, 9.997769 
1.4999707e+1, 1.642048e+2, -1355143.9, -1383214.4, -23.928362, 0.008971116, -0.03393731, -1355143.8, -24354.639, 0.0, 9.999744, 9.996026 
1.500053e+1, 1.742008e+2, -1249613.9, -1282044.9, 1695.7557, 0.011461526, -0.03298907, -1249525.4, -16697.334, 0.0, 10.000277, 9.99598 
1.5001601e+1, 1.841954e+2, -1160546.8, -1219650.9, 4338.668, 0.0072362567, -0.03782082, -1160230.0, -25349.135, 0.0, 10.0010195, 9.993193 
1.5003021e+1, 1.9418833e+2, -1048289.8, -1116250.9, 2064.255, -0.006148098, -0.052231207, -1048227.2, -11276.991, 0.0, 10.002054, 9.993055 
1.5004075e+1, 2.0418061e+2, -950416.94, -1035016.8, -2837.7385, -0.0075748046, -0.05527491, -950321.8, -11296.08, 0.0, 10.002766, 9.991565 
1.500463e+1, 2.1417227e+2, -848580.56, -935428.7, -1809.99, 0.0074736453, -0.043856952, -848542.9, -7435.285, 0.0, 10.003037, 9.991537 
1.500544e+1, 2.2416294e+2, -757062.7, -862631.94, 1764.6392, 0.0123289125, -0.036077183, -757033.2, -13833.921, 0.0, 10.003544, 9.98957 
1.5006599e+1, 2.3415247e+2, -647302.94, -759686.7, 1600.5214, 0.0029783433, -0.03487784, -647280.1, -1977.9272, 0.0, 10.004377, 9.9895 
1.5007359e+1, 2.4414127e+2, -551488.5, -678939.94, -1757.301, -0.00294034, -0.032217465, -551464.3, -4052.314, 0.0, 10.004925, 9.988053 
1.5007564e+1, 2.5412935e+2, -451441.78, -580111.5, -895.6288, -0.0038281882, -0.02881027, -451435.56, -1906.799, 0.0, 10.005068, 9.988037 
1.5008259e+1, 2.6411638e+2, -360944.06, -507772.25, 1986.1343, 0.0007769804, -0.03572998, -360917.22, -9261.282, 0.0, 10.005502, 9.986069 
1.5009633e+1, 2.7410215e+2, -251126.84, -404669.28, -1115.911, 0.013064624, -0.05881279, -251118.73, 2676.3274, 0.0, 10.006333, 9.986011 
1.501082e+1, 2.8408745e+2, -151903.61, -321967.84, -2238.1208, 0.017112754, -0.05657429, -151874.16, 4064.6006, 0.0, 10.007098, 9.9845915 
1.501173e+1, 2.9407245e+2, -44136.48, -219035.53, 2021.4348, 0.009514664, -0.020426497, -44113.12, 13972.699, 0.0, 10.007755, 9.984607 
1.5012933e+1, 3.0405962e+2, 53054.395, -88999.086, 6050.4194, 0.006286154, -0.021345837, 53311.63, 53311.63, 0.0, 10.00858, 9.989761 
1.501454e+1, 3.140488e+2, 67876.875, -82548.875, 4728.9507, 0.009276817, -0.07755908, 68025.39, 68025.39, 0.0, 10.009629, 9.989699 
2.4991994e+1, 1.2420999e+2, -1760166.0, -1726126.8, -4739.6465, 0.0064992835, -0.024071265, -1725479.1, -2739.8923, 0.0, 9.996462, 10.000969 
2.49937e+1, 1.342096e+2, -1652829.9, -1637919.4, -5085.239, 0.017594168, -0.036542367, -1636350.3, -11607.675, 0.0, 9.997716, 9.999691 
2.4995498e+1, 1.442083e+2, -1556107.6, -1561568.5, -3571.3582, 0.019997425, -0.045756686, -1554342.5, -27587.432, 0.0, 9.998541, 9.997815 
2.49975e+1, 1.5420616e+2, -1454878.1, -1462682.1, -2059.8997, 0.016409276, -0.035864316, -1454367.8, -25591.818, 0.0, 9.998788, 9.997753 
2.4999362e+1, 1.6420309e+2, -1359294.3, -1385627.1, -3364.63, 0.013496778, -0.031032681, -1358871.1, -28065.27, 0.0, 9.999478, 9.995991 
2.500106e+1, 1.7419903e+2, -1242490.9, -1278997.8, -5595.314, 0.011712835, -0.032990247, -1241652.6, -8807.198, 0.0, 10.000779, 9.995943 
2.5002903e+1, 1.841936e+2, -1152215.5, -1215389.5, -4267.1675, 0.0076267584, -0.038821343, -1151928.5, -17030.168, 0.0, 10.001577, 9.993212 
2.500496e+1, 1.9418657e+2, -1053403.9, -1118464.8, -1420.8567, 0.00026468377, -0.05181252, -1053372.9, -16405.566, 0.0, 10.001694, 9.993078 
2.5006667e+1, 2.041789e+2, -957105.3, -1037907.56, -3666.6763, -0.001094791, -0.05472692, -956939.25, -17896.643, 0.0, 10.002295, 9.991596 
2.5007913e+1, 2.1417056e+2, -840680.6, -931224.56, -5074.972, 0.005698989, -0.04523195, -840397.06, 727.28784, 0.0, 10.003561, 9.99157 
2.500927e+1, 2.2416127e+2, -747124.94, -857382.25, -4064.0007, 0.0076780664, -0.036499303, -746975.3, -3759.7188, 0.0, 10.004205, 9.989608 
2.5010782e+1, 2.3415087e+2, -652677.1, -761863.4, -3229.0847, 0.0028881195, -0.030424777, -652581.7, -7263.9697, 0.0, 10.003992, 9.989537 
2.5012037e+1, 2.4413976e+2, -558780.25, -681358.6, -5278.465, -0.00005482168, -0.028373444, -558553.4, -11126.495, 0.0, 10.004377, 9.9881525 
2.501293e+1, 2.5412786e+2, -443004.28, -574857.75, -5928.214, -0.00045201596, -0.033489868, -442738.28, 6804.977, 0.0, 10.005596, 9.988139 
2.501419e+1, 2.641148e+2, -351127.66, -505438.22, -2943.7979, 0.004754205, -0.043057915, -351071.5, 599.59186, 0.0, 10.006277, 9.985853 
2.5015944e+1, 2.741004e+2, -254768.83, -409187.25, -1140.5111, 0.017571967, -0.060668327, -254760.4, -948.04645, 0.0, 10.006203, 9.9857645 
2.501772e+1, 2.8408575e+2, -157152.5, -321489.84, -206.68852, 0.021901418, -0.05293526, -157152.23, -1196.471, 0.0, 10.006608, 9.984859 
2.50195e+1, 2.940711e+2, -42830.133, -214807.11, -2133.3032, 0.01412017, -0.011449724, -42803.676, 15295.426, 0.0, 10.00769, 9.984927 
2.5021628e+1, 3.040584e+2, 54312.76, -89275.97, -610.5902, 0.011571631, -0.014263992, 54315.355, 54315.355, 0.0, 10.008704, 9.989682 
2.502423e+1, 3.1404734e+2, 66606.02, -84517.555, 197.81004, 0.016729273, -0.08279939, 66606.28, 66606.28, 0.0, 10.0096, 9.989578 
3.498874e+1, 1.24207355e+2, -1761873.3, -1729620.0, -321.43945, 0.034609906, -0.018406244, -1729616.9, -6851.599, 0.0, 9.996461, 10.000732 
3.4991398e+1, 1.3420671e+2, -1654592.0, -1641533.8, -336.756, 0.015575987, -0.032022387, -1641525.1, -16754.012, 0.0, 9.997716, 9.999445 
3.4993896e+1, 1.4420538e+2, -1553868.3, -1556966.8, -2359.7805, 0.005310436, -0.04378208, -1552594.6, -25810.855, 0.0, 9.99854, 9.998128 
3.499628e+1, 1.5420353e+2, -1452316.9, -1457419.0, -1121.5197, 0.015268042, -0.040500145, -1452081.3, -23279.8, 0.0, 9.998788, 9.998111 
3.499887e+1, 1.6420037e+2, -1362877.8, -1393017.4, 1237.6006, 0.015995987, -0.04254736, -1362827.0, -31994.678, 0.0, 9.999479, 9.995487 
3.5001767e+1, 1.7419566e+2, -1246595.1, -1287468.3, -657.47833, 0.004177999, -0.051672876, -1246584.5, -13706.106, 0.0, 10.00078, 9.995365 
3.5004437e+1, 1.8419027e+2, -1147808.5, -1206331.5, -3487.061, 0.0030502265, -0.049701404, -1147601.5, -12670.402, 0.0, 10.001578, 9.993828 
3.500682e+1, 1.9418423e+2, -1048259.8, -1107886.6, -988.9792, 0.016648417, -0.034616154, -1048243.44, -11253.157, 0.0, 10.001696, 9.993798 
3.500914e+1, 2.0417693e+2, -958631.25, -1041079.75, 764.53674, 0.016236741, -0.030759916, -958624.2, -19562.092, 0.0, 10.002295, 9.99138 
3.5011384e+1, 2.1416807e+2, -842826.1, -935648.0, -271.5384, -0.003287462, -0.04345949, -842825.3, -1676.4144, 0.0, 10.00356, 9.991269 
3.5013294e+1, 2.2415857e+2, -746057.1, -855169.2, -4428.6685, -0.0102698635, -0.04562858, -745877.7, -2635.579, 0.0, 10.004205, 9.9897585 
3.5014752e+1, 2.3414843e+2, -651285.94, -759025.1, -4050.6233, 0.00022001068, -0.03480347, -651133.9, -5792.198, 0.0, 10.003994, 9.98973 
3.5016492e+1, 2.4413735e+2, -559350.25, -682594.25, -1131.2322, 0.0069912467, -0.034758426, -559339.9, -11889.573, 0.0, 10.004379, 9.988067 
3.5018617e+1, 2.541252e+2, -443819.84, -576507.94, -1309.1493, 0.008547312, -0.051261555, -443806.94, 5762.056, 0.0, 10.005594, 9.988028 
3.502054e+1, 2.6411235e+2, -348518.34, -499983.44, -2816.591, 0.011806763, -0.049315892, -348466.0, 3228.796, 0.0, 10.006275, 9.986227 
3.5022148e+1, 2.740988e+2, -251775.17, -403014.56, -1447.9583, 0.017510872, -0.02375293, -251761.3, 2066.5754, 0.0, 10.006205, 9.986186 
3.5024306e+1, 2.8408417e+2, -160198.92, -327863.22, 3499.0842, 0.01970625, -0.020521423, -160125.94, -4154.584, 0.0, 10.00661, 9.984423 
3.5027218e+1, 2.9406828e+2, -46526.137, -222469.7, 1966.7737, 0.016747897, -0.051221862, -46504.156, 11622.29, 0.0, 10.007689, 9.984403 
3.5030395e+1, 3.040553e+2, 54988.03, -87824.23, 2845.257, 0.017741827, -0.06185935, 55044.695, 55044.695, 0.0, 10.008702, 9.989782 
3.503391e+1, 3.140452e+2, 67762.5, -82102.36, 3576.6917, 0.024743484, -0.04561471, 67847.81, 67847.81, 0.0, 10.0096, 9.989743 
4.4985512e+1, 1.2420375e+2, -1753082.4, -1725984.6, -4326.3945, 0.034672372, -0.02319787, -1725310.6, -2510.3213, 0.0, 9.997085, 10.000674 
4.4988954e+1, 1.3420312e+2, -1662065.8, -1645872.1, -2768.6106, 0.023444705, -0.029835738, -1645411.9, -20605.627, 0.0, 9.997238, 9.999383 
4.4992217e+1, 1.4420179e+2, -1563219.5, -1561582.8, -4798.188, 0.015177226, -0.03911037, -1557533.6, -30714.535, 0.0, 9.997908, 9.998122 
4.4995376e+1, 1.5419988e+2, -1445055.3, -1453907.8, -6225.18, 0.021424346, -0.040857323, -1441843.1, -13005.87, 0.0, 9.999283, 9.998108 
4.499875e+1, 1.6419667e+2, -1352768.4, -1388683.0, -3844.8313, 0.020235002, -0.04515752, -1352361.4, -21492.803, 0.0, 10.000192, 9.995435 
4.5002443e+1, 1.741919e+2, -1251458.6, -1290469.9, -1843.3092, 0.008975963, -0.052588195, -1251371.8, -18456.57, 0.0, 10.000476, 9.995308 
4.5005786e+1, 1.8418658e+2, -1154520.8, -1207869.5, -5024.3003, 0.0069750706, -0.049783207, -1154051.8, -19084.42, 0.0, 10.001047, 9.99398 
4.5008683e+1, 1.9418071e+2, -1042335.4, -1103088.5, -6706.9927, 0.017516896, -0.03504969, -1041603.75, -4578.8564, 0.0, 10.002016, 9.993968 
4.5011628e+1, 2.0417354e+2, -952313.2, -1036806.0, -5341.9717, 0.01675381, -0.030428162, -951976.8, -12881.574, 0.0, 10.002674, 9.991486 
4.5014656e+1, 2.1416481e+2, -851626.9, -938766.6, -3313.1821, 0.00037967775, -0.04081952, -851501.06, -10320.222, 0.0, 10.00291, 9.991371 
4.5017192e+1, 2.241554e+2, -755871.5, -859151.7, -7180.3975, -0.00583616, -0.044347286, -755374.7, -12101.437, 0.0, 10.003501, 9.989827 
4.5019057e+1, 2.3414524e+2, -642206.1, -753892.44, -7848.0244, 0.0020887232, -0.040088575, -641657.4, 3715.3613, 0.0, 10.004584, 9.989794 
4.5021266e+1, 2.4413417e+2, -548254.06, -677365.94, -4876.981, 0.008541574, -0.04110363, -548070.06, -588.90106, 0.0, 10.005145, 9.988053 
4.5023945e+1, 2.5412208e+2, -452868.7, -581119.7, -4366.037, 0.012481058, -0.05098142, -452720.25, -3120.6147, 0.0, 10.004984, 9.988007 
4.5026425e+1, 2.641094e+2, -359212.66, -502517.84, -5656.6567, 0.015319093, -0.044434693, -358989.72, -7265.6826, 0.0, 10.005429, 9.986462 
4.5028603e+1, 2.7409613e+2, -242425.23, -395598.22, -5498.1475, 0.016730996, -0.016923359, -242228.14, 11626.08, 0.0, 10.0067215, 9.9864435 
4.5031387e+1, 2.840814e+2, -149477.05, -326922.22, -1068.8138, 0.020587722, -0.01920833, -149470.61, 6527.8467, 0.0, 10.007527, 9.984045 
4.5034984e+1, 2.9406488e+2, -50426.26, -229321.84, -2014.4368, 0.027560953, -0.06590834, -50403.58, 7755.956, 0.0, 10.007635, 9.98396 
4.503896e+1, 3.0405176e+2, 48884.363, -88949.125, 1047.9447, 0.0291627, -0.074806176, 48892.332, 48892.332, 0.0, 10.0082035, 9.989945 
4.504341e+1, 3.1404215e+2, 66807.46, -80045.91, 2353.258, 0.023195904, -0.031468768, 66845.164, 66845.164, 0.0, 10.009424, 9.989968 
5.4982305e+1, 1.241992e+2, -1752202.6, -1724236.9, -3897.6116, 0.005027695, -0.038137197, -1723703.8, -859.0926, 0.0, 9.9970875, 10.000792 
5.4986364e+1, 1.3419881e+2, -1661241.3, -1644163.1, -2191.5378, 0.040821873, -0.03006777, -1643886.4, -19038.16, 0.0, 9.997237, 9.999499 
5.4990464e+1, 1.4419748e+2, -1565526.3, -1566318.0, 31.09472, 0.049232498, -0.03158287, -1565525.1, -38663.73, 0.0, 9.997908, 9.9978 
5.499479e+1, 1.5419519e+2, -1447625.6, -1459203.5, -997.3358, 0.03404491, -0.036863, -1447540.3, -18656.686, 0.0, 9.999283, 9.997747 
5.4998994e+1, 1.6419199e+2, -1349908.5, -1382849.9, -2467.9631, 0.025179083, -0.038750827, -1349724.6, -18809.846, 0.0, 10.000195, 9.99583 
5.500309e+1, 1.741878e+2, -1248153.8, -1283687.9, -776.32623, 0.025372395, -0.035720434, -1248136.9, -15181.143, 0.0, 10.000477, 9.9957695 
5.500696e+1, 1.8418251e+2, -1156690.6, -1212382.6, -1569.8217, 0.018544963, -0.03901833, -1156646.4, -21639.086, 0.0, 10.001049, 9.993671 
5.501055e+1, 1.9417597e+2, -1044987.75, -1108602.1, -3028.6868, 0.0021637448, -0.053018335, -1044843.9, -7772.656, 0.0, 10.002018, 9.993591 
5.5014133e+1, 2.0416875e+2, -949203.06, -1030461.2, -4242.0405, -0.00049815816, -0.053691756, -948982.25, -9840.095, 0.0, 10.002678, 9.991916 
5.501772e+1, 2.1416079e+2, -848017.3, -931369.3, -2439.5466, 0.015820233, -0.03737615, -847945.94, -6725.706, 0.0, 10.0029125, 9.991874 
5.502096e+1, 2.2415172e+2, -755928.6, -859302.8, -3363.8723, 0.020176383, -0.032796, -755819.25, -12510.013, 0.0, 10.003502, 9.989816 
5.50237e+1, 2.3414132e+2, -642633.3, -754762.9, -3751.252, 0.007909466, -0.046209313, -642507.94, 2903.0867, 0.0, 10.004583, 9.989735 
5.5026364e+1, 2.4413025e+2, -547827.44, -676508.56, -5107.288, 0.003621068, -0.047385894, -547625.06, -105.406006, 0.0, 10.005147, 9.988111 
5.502891e+1, 2.5411847e+2, -452328.44, -580085.25, -4999.543, 0.010652916, -0.03309195, -452133.1, -2497.8435, 0.0, 10.004989, 9.988074 
5.503185e+1, 2.6410583e+2, -358515.97, -501121.3, -1256.8573, 0.01474072, -0.028469797, -358504.9, -6745.937, 0.0, 10.005431, 9.986556 
5.5035305e+1, 2.740923e+2, -241751.34, -394177.5, -604.5497, 0.014601148, -0.03994618, -241748.94, 12142.456, 0.0, 10.00672, 9.986541 
5.5038947e+1, 2.840774e+2, -151741.33, -331611.5, -276.35703, 0.02372155, -0.04879597, -151740.9, 4296.173, 0.0, 10.007527, 9.983724 
5.504281e+1, 2.9406092e+2, -52917.145, -234582.95, -1634.3986, 0.046151802, -0.055858366, -52902.44, 5295.98, 0.0, 10.007639, 9.983598 
5.504733e+1, 3.040478e+2, 50480.797, -85705.125, 5292.135, 0.045216884, -0.053566683, 50686.137, 50686.137, 0.0, 10.008206, 9.990165 
5.505271e+1, 3.140382e+2, 68687.53, -76005.31, 6977.671, 0.010732277, -0.040260803, 69023.24, 69023.24, 0.0, 10.009419, 9.990247 
6.497904e+1, 1.2419402e+2, -1763490.4, -1729087.1, -6353.8516, 0.010034499, -0.040711377, -1727951.1, -5055.7935, 0.0, 9.996293, 10.000849 
6.498402e+1, 1.341937e+2, -1649754.5, -1637938.9, -4864.289, 0.044474658, -0.031953473, -1636194.0, -11295.671, 0.0, 9.997991, 9.999554 
6.498896e+1, 1.4419235e+2, -1549987.8, -1560359.8, -2819.891, 0.051657896, -0.031310927, -1549270.6, -22359.125, 0.0, 9.999032, 9.997656 
6.4994067e+1, 1.5418991e+2, -1450072.0, -1462216.8, -2403.3745, 0.038058296, -0.03544785, -1449613.6, -20678.266, 0.0, 9.999195, 9.997584 
6.499896e+1, 1.6418669e+2, -1356825.8, -1384390.9, -4573.367, 0.030440897, -0.0365697, -1356086.9, -25120.125, 0.0, 9.999645, 9.995992 
6.5003633e+1, 1.741827e+2, -1246492.9, -1280744.5, -4972.97, 0.03142542, -0.03352695, -1245785.4, -12779.734, 0.0, 10.000498, 9.995958 
6.500817e+1, 1.8417747e+2, -1153790.8, -1212103.1, -5165.297, 0.023363467, -0.037198458, -1153336.8, -18279.986, 0.0, 10.001295, 9.99357 
6.501258e+1, 1.9417079e+2, -1045788.9, -1110413.5, -4670.4185, 0.0027479134, -0.05192221, -1045453.06, -8330.978, 0.0, 10.002026, 9.9934635 
6.501678e+1, 2.0416357e+2, -948765.9, -1028564.5, -7594.347, -0.0013942197, -0.05338842, -948049.56, -8856.486, 0.0, 10.002634, 9.992065 
6.502073e+1, 2.1415576e+2, -844302.8, -927624.4, -8394.926, 0.017145388, -0.037883338, -843465.44, -2195.9175, 0.0, 10.003082, 9.992045 
6.5024513e+1, 2.2414687e+2, -753900.4, -856459.1, -8442.472, 0.022545706, -0.0334358, -753210.0, -9853.208, 0.0, 10.003561, 9.989981 
6.5028054e+1, 2.3413664e+2, -648719.44, -755861.5, -7027.229, 0.009494449, -0.04600582, -648260.5, -2803.5603, 0.0, 10.0040865, 9.989899 
6.5031314e+1, 2.4412571e+2, -553549.9, -678737.4, -9145.312, 0.004469316, -0.044601735, -552885.3, -5321.113, 0.0, 10.004733, 9.988158 
6.503418e+1, 2.5411403e+2, -444009.47, -575643.06, -9433.108, 0.010828424, -0.025206551, -443336.9, 6342.038, 0.0, 10.005541, 9.9881115 
6.503767e+1, 2.641013e+2, -349184.13, -498169.72, -4987.659, 0.01770007, -0.025770154, -349017.34, 2786.1677, 0.0, 10.006138, 9.986415 
6.5041983e+1, 2.7408737e+2, -247046.23, -398498.06, -6095.767, 0.025056278, -0.056863695, -246801.28, 7137.952, 0.0, 10.006433, 9.9863825 
6.5046334e+1, 2.8407243e+2, -158257.63, -334267.8, -6210.131, 0.03311027, -0.06477256, -158038.8, -1953.2781, 0.0, 10.007059, 9.983767 
6.505067e+1, 2.9405633e+2, -45028.14, -230063.11, -4505.5796, 0.042123355, -0.041623417, -44918.496, 13325.143, 0.0, 10.008151, 9.98366 
6.5055716e+1, 3.040433e+2, 58181.617, -81419.95, 3252.7434, 0.038434684, -0.0333171, 58257.367, 58257.367, 0.0, 10.008711, 9.990216 
6.506173e+1, 3.1403345e+2, 55730.797, -81713.27, 3171.882, 0.016744308, -0.04879148, 55803.957, 55803.957, 0.0, 10.008504, 9.990295 
7.497573e+1, 1.241882e+2, -1763484.8, -1729080.4, -315.09293, 0.048661623, -0.030643262, -1729077.5, -6125.155, 0.0, 9.996294, 10.000848 
7.4981904e+1, 1.3418776e+2, -1649774.1, -1637972.4, 1561.1329, 0.033883564, -0.035505697, -1637769.4, -12812.843, 0.0, 9.99799, 9.999551 
7.498769e+1, 1.4418638e+2, -1549728.3, -1559864.4, -1767.6056, 0.021726277, -0.038369197, -1549428.9, -22458.955, 0.0, 9.999034, 9.997688 
7.499321e+1, 1.5418401e+2, -1449802.0, -1461697.1, -1792.3492, 0.032563716, -0.036531277, -1449537.9, -20544.97, 0.0, 9.999197, 9.997619 
7.4998665e+1, 1.6418079e+2, -1357301.4, -1385410.5, -1565.0004, 0.03516788, -0.038547873, -1357214.5, -26190.084, 0.0, 9.999647, 9.99592 
7.500408e+1, 1.741766e+2, -1247051.4, -1281910.1, -1737.3202, 0.026521787, -0.045981042, -1246965.0, -13899.709, 0.0, 10.000499, 9.995878 
7.500945e+1, 1.8417145e+2, -1152999.8, -1210519.6, -2387.2625, 0.02067552, -0.04425891, -1152900.9, -17784.941, 0.0, 10.001297, 9.993676 
7.5014764e+1, 1.9416516e+2, -1044908.5, -1108603.9, -1909.2631, 0.018625036, -0.031931188, -1044851.3, -7673.675, 0.0, 10.002026, 9.993587 
7.501957e+1, 2.0415798e+2, -949668.7, -1030438.06, -5821.6826, 0.013445552, -0.029543683, -949251.25, -10002.999, 0.0, 10.002636, 9.991937 
7.502368e+1, 2.1414974e+2, -845353.0, -929832.06, -6702.7676, 0.0038741988, -0.04229354, -844824.5, -3495.7878, 0.0, 10.003084, 9.991894 
7.5027853e+1, 2.2414082e+2, -751484.75, -851496.0, -6487.406, 0.0007513821, -0.046266764, -751065.7, -7649.6514, 0.0, 10.003562, 9.990317 
7.5032115e+1, 2.3413119e+2, -646000.6, -750229.9, -5049.911, 0.0064675333, -0.03971352, -645756.5, -245.94981, 0.0, 10.0040865, 9.990283 
7.503611e+1, 2.4412052e+2, -553265.44, -678133.8, -6190.826, 0.010629052, -0.032890014, -552959.25, -5344.2793, 0.0, 10.004732, 9.988199 
7.5039744e+1, 2.5410873e+2, -443950.8, -575525.9, -6377.865, 0.0125270905, -0.027281117, -443642.38, 6088.3604, 0.0, 10.005541, 9.988119 
7.5043863e+1, 2.6409572e+2, -351793.88, -503601.13, -3709.1406, 0.02351529, -0.03630817, -351703.28, 154.4153, 0.0, 10.006139, 9.986044 
7.5048643e+1, 2.7408138e+2, -249909.22, -404492.7, -4984.5864, 0.047393452, -0.067784876, -249748.66, 4249.094, 0.0, 10.006434, 9.985971 
7.505354e+1, 2.840665e+2, -155427.97, -328409.88, -2345.5657, 0.04799653, -0.067272715, -155396.17, 747.6271, 0.0, 10.00706, 9.984166 
7.505855e+1, 2.9405108e+2, -41715.9, -223056.25, -378.04648, 0.015426286, -0.023276245, -41715.11, 16580.156, 0.0, 10.008145, 9.984141 
7.5064135e+1, 3.040383e+2, 57309.65, -83153.04, 2908.66, 0.008710706, -0.013952146, 57369.85, 57369.85, 0.0, 10.008708, 9.990098 
7.507047e+1, 3.14028e+2, 54521.727, -84326.05, 2353.9072, 0.039594803, -0.057092886, 54561.62, 54561.62, 0.0, 10.008508, 9.990114 
8.497244e+1, 1.2418144e+2, -1751677.1, -1724106.8, -3569.4705, 0.049129337, -0.027100066, -1723652.1, -633.4218, 0.0, 9.997127, 10.000778 
8.4979624e+1, 1.3418087e+2, -1658682.3, -1643168.8, -2030.4171, 0.035634622, -0.036227174, -1642907.4, -17883.355, 0.0, 9.99742, 9.999475 
8.498628e+1, 1.4417951e+2, -1562474.5, -1564708.0, -6404.633, 0.023363244, -0.03998076, -1557090.0, -30052.621, 0.0, 9.998109, 9.997808 
8.49925e+1, 1.5417728e+2, -1446666.5, -1458637.5, -5750.168, 0.03468644, -0.038562544, -1444351.9, -15292.939, 0.0, 9.999344, 9.997753 
8.499862e+1, 1.6417404e+2, -1349474.5, -1383562.3, -5569.418, 0.03553716, -0.0402497, -1348587.6, -17496.95, 0.0, 10.000263, 9.995746 
8.500467e+1, 1.7416966e+2, -1244708.3, -1283067.6, -6677.74, 0.022116395, -0.046079896, -1243579.0, -10445.538, 0.0, 10.000757, 9.995672 
8.501065e+1, 1.8416452e+2, -1152830.0, -1207637.0, -7801.287, 0.016897991, -0.042717177, -1151741.1, -16557.186, 0.0, 10.001187, 9.993924 
8.5016584e+1, 1.9415854e+2, -1050008.0, -1107848.0, -6121.921, 0.022902464, -0.028573154, -1049367.1, -12124.523, 0.0, 10.001538, 9.993874 
8.5021996e+1, 2.0415153e+2, -957276.6, -1033632.06, -8391.877, 0.019562759, -0.026199548, -956365.2, -17053.691, 0.0, 10.002094, 9.991981 
8.502669e+1, 2.1414329e+2, -847331.75, -930562.2, -7960.1665, 0.0031594767, -0.041244097, -846577.3, -5185.276, 0.0, 10.002939, 9.991913 
8.503139e+1, 2.2413442e+2, -751080.2, -850458.3, -8762.825, -0.0016268749, -0.045652594, -750313.44, -6834.4766, 0.0, 10.003554, 9.990392 
8.503611e+1, 2.3412488e+2, -648965.6, -750784.94, -9673.707, 0.009569522, -0.03694341, -648054.75, -2482.279, 0.0, 10.003846, 9.99036 
8.504075e+1, 2.4411426e+2, -557196.25, -679174.9, -10233.448, 0.016427403, -0.03370791, -556343.7, -8667.332, 0.0, 10.004426, 9.988275 
8.504526e+1, 2.541024e+2, -445367.56, -575372.56, -9782.725, 0.01701034, -0.039789904, -444635.53, 5156.8154, 0.0, 10.005408, 9.988192 
8.505006e+1, 2.6408947e+2, -351479.2, -504283.22, -7525.1987, 0.026098233, -0.045741186, -351109.5, 809.502, 0.0, 10.006197, 9.985969 
8.5055214e+1, 2.740753e+2, -246577.42, -403885.38, -6594.5054, 0.047151353, -0.05356373, -246301.47, 7756.4688, 0.0, 10.006707, 9.985881 
8.506063e+1, 2.840604e+2, -154024.16, -326808.63, -2765.8955, 0.047876846, -0.050186176, -153979.89, 2224.0085, 0.0, 10.007116, 9.984248 
8.5066354e+1, 2.940448e+2, -52158.46, -226988.88, -3557.5215, 0.019537665, -0.033153925, -52086.1, 6270.6616, 0.0, 10.00738, 9.98424 
8.5072494e+1, 3.0403203e+2, 46271.625, -88438.94, -2326.2036, 0.012032744, -0.030156597, 46311.78, 46311.78, 0.0, 10.007947, 9.990101 
8.5079145e+1, 3.1402192e+2, 60776.777, -81396.87, -1714.1965, 0.03497498, -0.049590763, 60797.44, 60797.44, 0.0, 10.008943, 9.990105 
9.4969183e+1, 1.241737e+2, -1752683.1, -1726212.8, -2586.2368, 0.009626614, -0.0301248, -1725962.4, -2867.9426, 0.0, 9.997129, 10.000633 
9.497719e+1, 1.3417304e+2, -1659790.8, -1645398.5, -941.3639, 0.049415525, -0.034165118, -1645337.1, -20236.166, 0.0, 9.997419, 9.999323 
9.498473e+1, 1.4417168e+2, -1561008.3, -1561632.4, -2032.8112, 0.056406043, -0.035954237, -1559263.6, -32149.615, 0.0, 9.998106, 9.998018 
9.4991946e+1, 1.5416963e+2, -1444965.3, -1455104.9, -1053.8969, 0.044021927, -0.041622106, -1444856.9, -15722.904, 0.0, 9.999342, 9.997994 
9.499884e+1, 1.641664e+2, -1351485.6, -1387715.4, -3481.8823, 0.030993965, -0.041686907, -1351154.0, -19988.547, 0.0, 10.000265, 9.995461 
9.500539e+1, 1.7416185e+2, -1247048.4, -1287907.0, -4807.1143, 0.017644629, -0.034017287, -1246490.4, -13279.885, 0.0, 10.000758, 9.995342 
9.501179e+1, 1.8415667e+2, -1150039.4, -1201926.3, -6436.4404, 0.011505629, -0.03256659, -1149252.9, -13991.647, 0.0, 10.001189, 9.994311 
9.5018053e+1, 1.9415092e+2, -1046765.1, -1101177.4, -4793.9277, 0.015140486, -0.041825626, -1046346.0, -9028.625, 0.0, 10.001538, 9.994327 
9.5024055e+1, 2.0414421e+2, -955776.0, -1030527.1, -5365.114, 0.016427455, -0.043249793, -955392.9, -16009.819, 0.0, 10.002094, 9.992191 
9.502974e+1, 2.141364e+2, -845994.5, -927781.5, -4763.582, 0.014293456, -0.034949295, -845718.0, -4258.322, 0.0, 10.002938, 9.992103 
9.503511e+1, 2.2412762e+2, -752400.25, -853189.06, -7492.514, 0.014566703, -0.031759366, -751846.3, -8300.526, 0.0, 10.003554, 9.990205 
9.504004e+1, 2.341177e+2, -650504.06, -754015.9, -8573.715, 0.018148182, -0.03762793, -649798.75, -4156.0615, 0.0, 10.003849, 9.990138 
9.5045227e+1, 2.441069e+2, -556406.4, -677580.94, -6752.433, 0.0213335, -0.046904813, -556031.3, -8282.913, 0.0, 10.004427, 9.988382 
9.5050734e+1, 2.540951e+2, -444411.88, -573342.94, -6069.4214, 0.023911042, -0.06247675, -444126.78, 5737.1, 0.0, 10.005405, 9.988331 
9.505624e+1, 2.6408246e+2, -349967.0, -501098.25, -5451.595, 0.024974095, -0.05428734, -349770.63, 2216.9114, 0.0, 10.006195, 9.986186 
9.506169e+1, 2.7406898e+2, -244976.06, -400578.1, -4689.1616, 0.02405616, -0.01471687, -244834.89, 9285.157, 0.0, 10.006708, 9.986106 
9.5067596e+1, 2.8405407e+2, -155600.0, -330129.16, -1714.9784, 0.03231122, -0.013788084, -155583.14, 682.8879, 0.0, 10.007118, 9.984019 
9.5074075e+1, 2.9403746e+2, -54080.25, -231030.14, -2591.9949, 0.05354793, -0.07056865, -54042.293, 4385.887, 0.0, 10.007381, 9.983962 
9.508079e+1, 3.0402446e+2, 47148.63, -86647.96, 1178.0981, 0.04753995, -0.08115791, 47159.0, 47159.0, 0.0, 10.007948, 9.990222 
9.5087767e+1, 3.1401527e+2, 61905.797, -79002.27, 2061.0247, 0.0022060422, -0.026700629, 61935.938, 61935.938, 0.0, 10.00894, 9.99027 
1.049662e+2, 1.2416546e+2, -1756108.1, -1728186.9, -3775.2783, 0.009634204, -0.036338992, -1727685.4, -4510.324, 0.0, 9.996908, 10.000607 
1.0497491e+2, 1.3416481e+2, -1651916.0, -1641943.8, -1128.4764, 0.05245011, -0.03484636, -1641817.8, -16636.217, 0.0, 9.997969, 9.9992895 
1.0498318e+2, 1.4416346e+2, -1551951.4, -1558454.0, -2266.4067, 0.058025725, -0.03143244, -1551239.4, -24044.572, 0.0, 9.998774, 9.997908 
1.049912e+2, 1.5416129e+2, -1447454.5, -1457663.8, -3946.885, 0.041211702, -0.036842126, -1446106.6, -16890.564, 0.0, 9.99923, 9.997872 
1.0499883e+2, 1.6415808e+2, -1358272.8, -1389525.3, -7478.563, 0.028959997, -0.03596654, -1356575.3, -25327.62, 0.0, 9.999738, 9.995593 
1.0500598e+2, 1.7415367e+2, -1252277.3, -1288707.3, -5264.751, 0.023458404, -0.026635204, -1251531.6, -18240.664, 0.0, 10.000327, 9.995496 
1.05012886e+2, 1.841486e+2, -1154466.1, -1203854.9, -6572.882, 0.018307764, -0.026931554, -1153606.4, -18265.45, 0.0, 10.000878, 9.994331 
1.05019495e+2, 1.9414276e+2, -1049018.9, -1102208.5, -8309.164, 0.013282554, -0.042589247, -1047751.0, -10353.419, 0.0, 10.001383, 9.994331 
1.0502601e+2, 2.0413613e+2, -957102.06, -1028803.44, -9771.91, 0.011839542, -0.045297045, -955794.1, -16331.691, 0.0, 10.001902, 9.9924 
1.0503244e+2, 2.1412861e+2, -851593.4, -927932.06, -8806.786, 0.015219037, -0.031248081, -850590.56, -9054.32, 0.0, 10.002445, 9.99233 
1.05038494e+2, 2.2411999e+2, -758056.56, -855510.75, -10884.861, 0.01777533, -0.026111001, -756855.6, -13234.84, 0.0, 10.00315, 9.990241 
1.05044015e+2, 2.3411006e+2, -646985.4, -752117.3, -10221.262, 0.018931173, -0.035472266, -646000.8, -283.005, 0.0, 10.004082, 9.990154 
1.0504981e+2, 2.4409924e+2, -551976.4, -675663.6, -7816.366, 0.022140812, -0.045434017, -551484.4, -3660.8005, 0.0, 10.004741, 9.98836 
1.05055995e+2, 2.5408742e+2, -450281.28, -576467.56, -8350.994, 0.028167471, -0.057824343, -449731.0, 207.97472, 0.0, 10.005016, 9.988304 
1.05062194e+2, 2.6407486e+2, -357368.9, -503177.13, -8075.107, 0.029173011, -0.05101294, -356923.03, -4860.79, 0.0, 10.005622, 9.98632 
1.05068386e+2, 2.7406144e+2, -244042.3, -398463.72, -7847.2764, 0.023049382, -0.019147169, -243644.53, 10549.424, 0.0, 10.0067, 9.986254 
1.05074875e+2, 2.8404653e+2, -151892.98, -330213.63, -6770.986, 0.031436846, -0.019158881, -151636.27, 4703.7173, 0.0, 10.007453, 9.983851 
1.0508169e+2, 2.940298e+2, -50359.395, -231489.88, -7277.6274, 0.060481492, -0.06710272, -50067.457, 8435.8955, 0.0, 10.007734, 9.98376 
1.0508885e+2, 3.0401677e+2, 49680.324, -83824.71, -1689.9589, 0.05356111, -0.07563271, 49701.715, 49701.715, 0.0, 10.008052, 9.990365 
1.0509638e+2, 3.140077e+2, 55674.08, -79992.47, -588.20245, -0.00548079, -0.029286705, 55676.63, 55676.63, 0.0, 10.008423, 9.990449 
1.1496351e+2, 1.2415671e+2, -1755550.9, -1726957.8, 57.434162, 0.04906192, -0.04556664, -1726957.6, -3696.8645, 0.0, 9.996905, 10.00069 
1.149728e+2, 1.341562e+2, -1651358.1, -1640778.0, 2898.02, 0.044574495, -0.03840729, -1640036.3, -14770.364, 0.0, 9.997968, 9.999368 
1.1498165e+2, 1.4415477e+2, -1555063.1, -1564834.4, -371.80234, 0.027592868, -0.026547495, -1555049.0, -27768.912, 0.0, 9.998774, 9.997475 
1.1499027e+2, 1.541522e+2, -1450914.8, -1464759.5, -2220.4983, 0.025880007, -0.024094779, -1450567.3, -21261.682, 0.0, 9.99923, 9.99739 
1.14998564e+2, 1.6414897e+2, -1354360.5, -1381482.8, -5300.1045, 0.029027708, -0.022946801, -1353361.6, -22024.148, 0.0, 9.999739, 9.99614 
1.1500647e+2, 1.7414512e+2, -1247711.3, -1279305.6, -3030.8682, 0.039121732, -0.023857387, -1247423.1, -14047.866, 0.0, 10.000326, 9.996136 
1.1501396e+2, 1.8414019e+2, -1156925.3, -1208932.3, -4644.7686, 0.03670815, -0.025867032, -1156513.6, -21090.246, 0.0, 10.000879, 9.993984 
1.15020916e+2, 1.9413404e+2, -1052120.0, -1108633.6, -6389.1294, 0.016830737, -0.031095734, -1051406.8, -13923.008, 0.0, 10.001384, 9.993893 
1.15027845e+2, 2.0412728e+2, -955610.5, -1025761.7, -7728.226, 0.005319936, -0.032579977, -954769.2, -15219.235, 0.0, 10.001904, 9.992606 
1.1503479e+2, 2.141199e+2, -849695.1, -924009.0, -6752.8315, 0.005708317, -0.030190889, -849086.5, -7464.4385, 0.0, 10.002445, 9.992597 
1.1504154e+2, 2.2411151e+2, -756253.7, -851765.56, -7506.496, 0.0075734756, -0.028744819, -755667.3, -11963.119, 0.0, 10.003149, 9.990496 
1.1504802e+2, 2.341019e+2, -645230.56, -748424.4, -6711.1626, 0.011386414, -0.030498242, -644795.94, 1002.1822, 0.0, 10.004078, 9.990407 
1.1505452e+2, 2.4409127e+2, -553027.75, -677816.6, -6583.8555, 0.018262472, -0.029558307, -552681.3, -4779.155, 0.0, 10.00474, 9.988214 
1.1506102e+2, 2.5407943e+2, -451566.84, -579174.8, -7331.6167, 0.02949352, -0.02648466, -451147.0, -1129.0422, 0.0, 10.005018, 9.988118 
1.1506791e+2, 2.6406658e+2, -356978.5, -502441.3, -4288.3125, 0.038053177, -0.03597407, -356852.2, -4708.856, 0.0, 10.005626, 9.986367 
1.1507529e+2, 2.7405265e+2, -243568.63, -397429.63, -3789.59, 0.042847022, -0.06577054, -243475.34, 10804.409, 0.0, 10.006698, 9.986324 
1.1508246e+2, 2.840377e+2, -152670.81, -331760.94, -5474.0225, 0.04423091, -0.06548666, -152503.66, 3922.1555, 0.0, 10.007451, 9.983746 
1.1508924e+2, 2.940218e+2, -51197.79, -233280.0, -6258.557, 0.040935047, -0.02382017, -50982.926, 7599.584, 0.0, 10.007737, 9.983635 
1.1509668e+2, 3.040089e+2, 50870.754, -81434.086, -342.3803, 0.030408444, -0.014989176, 50871.64, 50871.64, 0.0, 10.008056, 9.990527 
1.1510495e+2, 3.1399915e+2, 56995.504, -77241.2, 766.9587, 0.009570318, -0.056553613, 56999.887, 56999.887, 0.0, 10.008423, 9.990638 
1.2496038e+2, 1.24147184e+2, -1757552.3, -1727933.8, -3060.1377, 0.05334203, -0.03774432, -1727620.9, -4266.5894, 0.0, 9.996768, 10.000689 
1.2497074e+2, 1.3414657e+2, -1650822.6, -1640561.8, -686.97394, 0.040454794, -0.040237762, -1640516.0, -15155.627, 0.0, 9.998005, 9.999362 
1.2498039e+2, 1.4414515e+2, -1553810.4, -1564245.4, -5460.2153, 0.020784028, -0.028789971, -1551475.6, -24101.031, 0.0, 9.998859, 9.997471 
1.24989495e+2, 1.5414262e+2, -1451632.4, -1465145.9, -3961.9539, 0.027264861, -0.020455094, -1450556.5, -21156.695, 0.0, 9.999182, 9.997386 
1.2499826e+2, 1.6413946e+2, -1355592.6, -1380496.4, -5883.3027, 0.03197707, -0.018589307, -1354272.8, -22841.736, 0.0, 9.999586, 9.99628 
1.2500663e+2, 1.7413568e+2, -1249811.8, -1278608.8, -7199.559, 0.034252178, -0.025995437, -1248112.1, -14644.231, 0.0, 10.00011, 9.996286 
1.2501465e+2, 1.8413089e+2, -1159873.1, -1209716.5, -9484.437, 0.030018643, -0.02605471, -1158129.4, -22614.469, 0.0, 10.00065, 9.9940405 
1.250222e+2, 1.9412492e+2, -1054226.5, -1109113.3, -7612.684, 0.016685111, -0.017606795, -1053190.3, -15616.616, 0.0, 10.001217, 9.993939 
1.250297e+2, 2.0411822e+2, -957912.75, -1026853.4, -7752.3, 0.008049747, -0.016520282, -957051.75, -17412.39, 0.0, 10.001745, 9.992607 
1.2503712e+2, 2.1411072e+2, -853021.25, -925662.5, -8784.25, 0.00604649, -0.027141307, -851974.06, -10261.47, 0.0, 10.00222, 9.992591 
1.2504452e+2, 2.2410232e+2, -760232.6, -852096.56, -9856.549, 0.008476304, -0.031173613, -759186.94, -15392.37, 0.0, 10.002808, 9.990637 
1.250519e+2, 2.3409292e+2, -651747.06, -749844.06, -9693.011, 0.016900687, -0.027767653, -650798.5, -4911.9663, 0.0, 10.003558, 9.99056 
1.2505916e+2, 2.440824e+2, -557914.2, -680225.25, -10165.554, 0.02492422, -0.023543814, -557075.06, -9085.671, 0.0, 10.004407, 9.988208 
1.2506625e+2, 2.5407055e+2, -446164.4, -576807.6, -9782.671, 0.032133058, -0.019936763, -445435.94, 4669.3877, 0.0, 10.0054, 9.988094 
1.2507379e+2, 2.640576e+2, -350986.44, -500994.84, -6523.3364, 0.039193638, -0.032045186, -350703.3, 1528.3503, 0.0, 10.006099, 9.986237 
1.2508185e+2, 2.7404347e+2, -249121.61, -401710.72, -7592.166, 0.04591959, -0.068691164, -248744.8, 5625.3027, 0.0, 10.006385, 9.98618 
1.2508968e+2, 2.840285e+2, -159317.17, -334085.16, -9645.382, 0.045223966, -0.068304814, -158786.45, -2269.9268, 0.0, 10.006957, 9.983823 
1.25097e+2, 2.9401276e+2, -47558.047, -230383.13, -8811.085, 0.03386193, -0.016335476, -47134.387, 11536.885, 0.0, 10.007937, 9.983736 
1.2510486e+2, 3.0399987e+2, 55285.992, -80750.586, -4910.4727, 0.025771314, -0.0068306047, 55463.016, 55463.016, 0.0, 10.008422, 9.9903965 
1.2511338e+2, 3.1398982e+2, 52231.49, -81292.82, -6540.178, 0.022796791, -0.06140875, 52551.066, 52551.066, 0.0, 10.008171, 9.990479 
1.3495684e+2, 1.2413685e+2, -1758244.5, -1729238.4, 1407.3301, 0.020808589, -0.012473732, -1729170.3, -5713.9917, 0.0, 9.996763, 10.000602 
1.3496874e+2, 1.341359e+2, -1651503.1, -1641878.5, 3982.0151, 0.03967337, -0.040153995, -1640444.6, -14979.146, 0.0, 9.998001, 9.999273 
1.3497941e+2, 1.441345e+2, -1550746.5, -1557906.8, -3958.0508, 0.03737312, -0.03835295, -1548989.6, -21510.674, 0.0, 9.9988575, 9.997902 
1.3498886e+2, 1.541325e+2, -1448241.3, -1458154.8, -2737.8933, 0.045051858, -0.026020782, -1447535.4, -18036.463, 0.0, 9.999182, 9.997862 
1.3499789e+2, 1.641295e+2, -1357466.0, -1384348.1, -3966.741, 0.037404682, -0.02292205, -1356892.9, -25364.248, 0.0, 9.999586, 9.996017 
1.3500649e+2, 1.7412537e+2, -1252177.1, -1283496.6, -5206.094, 0.008613006, -0.033026513, -1251334.4, -17765.06, 0.0, 10.000111, 9.995953 
1.3501498e+2, 1.8412067e+2, -1156598.5, -1203002.9, -7358.1294, -0.0022299215, -0.027514592, -1155459.6, -19843.934, 0.0, 10.000651, 9.994496 
1.3502339e+2, 1.9411539e+2, -1050441.9, -1101321.5, -5466.5225, 0.012193606, -0.002062991, -1049861.1, -12193.559, 0.0, 10.001218, 9.99447 
1.3503155e+2, 2.0410892e+2, -959300.94, -1029733.06, -5939.6235, 0.019198475, 0.002891625, -958803.56, -19072.496, 0.0, 10.001746, 9.992411 
1.3503945e+2, 2.14101e+2, -854904.6, -929589.0, -6976.5645, 0.015573511, -0.022129763, -854258.5, -12450.243, 0.0, 10.002222, 9.992322 
1.3504745e+2, 2.2409241e+2, -759980.94, -851626.2, -7107.166, 0.01962827, -0.033501357, -759433.0, -15540.813, 0.0, 10.0028105, 9.990666 
1.3505563e+2, 2.340831e+2, -651305.75, -748961.44, -6848.106, 0.034733757, -0.02717223, -650827.9, -4844.7046, 0.0, 10.003559, 9.990619 
1.3506374e+2, 2.4407263e+2, -556960.06, -678262.8, -6508.273, 0.04124474, -0.027077274, -556611.9, -8526.463, 0.0, 10.004408, 9.98834 
1.3507168e+2, 2.5406078e+2, -445239.03, -574796.56, -6036.8174, 0.03555984, -0.037496924, -444958.34, 5242.942, 0.0, 10.005395, 9.988234 
1.3507982e+2, 2.640479e+2, -353160.72, -505477.28, -5208.921, 0.032126106, -0.038841117, -352982.78, -655.4343, 0.0, 10.006098, 9.9859295 
1.350881e+2, 2.740338e+2, -251552.2, -406841.47, -6508.5244, 0.0322038, -0.029269475, -251279.9, 3185.3296, 0.0, 10.00639, 9.985827 
1.350965e+2, 2.8401878e+2, -157453.19, -330307.97, -6166.212, 0.034080606, -0.028666768, -157233.5, -621.1293, 0.0, 10.00696, 9.984079 
1.35105e+2, 2.940027e+2, -45363.613, -225742.47, -5094.416, 0.038482904, -0.04333725, -45219.848, 13549.873, 0.0, 10.007935, 9.984054 
1.3511342e+2, 3.0398965e+2, 52384.613, -86714.16, -5400.7173, 0.03873041, -0.04951647, 52593.99, 52593.99, 0.0, 10.008419, 9.989988 
1.3512166e+2, 3.1397972e+2, 48955.2, -88345.75, -7466.953, 0.033162046, -0.044996213, 49360.09, 49360.09, 0.0, 10.008183, 9.98999 
1.4495417e+2, 1.2412589e+2, -1741392.3, -1721692.1, 253.7731, 0.022170259, -0.011032627, -1721688.9, 1875.2341, 0.0, 9.997933, 10.000543 
1.4496662e+2, 1.3412493e+2, -1656502.1, -1645025.3, 2998.3213, 0.04187338, -0.03251135, -1644289.1, -18715.738, 0.0, 9.997691, 9.99921 
1.4497781e+2, 1.4412366e+2, -1562418.0, -1560996.0, -5024.2144, 0.036762808, -0.028028907, -1556632.6, -29046.684, 0.0, 9.997951, 9.998132 
1.4498785e+2, 1.5412182e+2, -1450248.3, -1456258.5, -5428.4224, 0.039917223, -0.024737619, -1447048.6, -17444.44, 0.0, 9.9989195, 9.998116 
1.4499743e+2, 1.6411898e+2, -1356685.9, -1383159.8, -7265.1147, 0.032353994, -0.022055747, -1354823.3, -23190.88, 0.0, 9.999603, 9.996088 
1.4500651e+2, 1.74115e+2, -1255069.0, -1284284.1, -5688.987, 0.01007981, -0.020447478, -1254000.3, -20328.707, 0.0, 9.999886, 9.996008 
1.4501551e+2, 1.841104e+2, -1160526.1, -1203238.0, -6611.1274, 0.0018216609, -0.014572655, -1159526.1, -23809.25, 0.0, 10.000312, 9.994644 
1.4502448e+2, 1.9410513e+2, -1053364.5, -1100976.9, -7431.36, 0.0130586, -0.004784688, -1052231.6, -14462.947, 0.0, 10.000942, 9.994625 
1.4503324e+2, 2.0409876e+2, -961141.44, -1029499.75, -8566.924, 0.020146187, -0.0037080343, -960084.1, -20253.057, 0.0, 10.001572, 9.992509 
1.4504172e+2, 2.1409105e+2, -854529.1, -928356.06, -6960.9727, 0.021314312, -0.01583563, -853878.5, -11972.295, 0.0, 10.002202, 9.992414 
1.4505038e+2, 2.2408251e+2, -759127.5, -852159.7, -5205.57, 0.02525831, -0.02228387, -758837.1, -14847.526, 0.0, 10.00291, 9.9905815 
1.4505926e+2, 2.3407304e+2, -649578.06, -749278.44, -6061.451, 0.033013217, -0.022460962, -649210.94, -3128.7842, 0.0, 10.003727, 9.990515 
1.4506814e+2, 2.4406248e+2, -555828.25, -677205.7, -6600.142, 0.03901781, -0.02701832, -555470.44, -7285.238, 0.0, 10.004463, 9.988385 
1.4507699e+2, 2.5405067e+2, -449391.25, -576145.9, -6727.519, 0.04250516, -0.039455235, -449035.2, 1265.4636, 0.0, 10.005082, 9.98829 
1.4508586e+2, 2.6403785e+2, -357433.34, -508170.9, -5990.0405, 0.040850874, -0.03676102, -357195.7, -4769.3755, 0.0, 10.005832, 9.985873 
1.4509468e+2, 2.7402383e+2, -246429.97, -405133.1, -5299.5044, 0.031812586, -0.0147248125, -246253.2, 8310.581, 0.0, 10.006773, 9.985758 
1.4510366e+2, 2.8400877e+2, -151246.98, -327386.94, -4894.907, 0.03170488, -0.014774097, -151111.06, 5600.3145, 0.0, 10.007389, 9.984072 
1.4511278e+2, 2.9399246e+2, -51277.063, -228616.78, -6202.8643, 0.044517938, -0.04904266, -51060.367, 7810.047, 0.0, 10.007528, 9.984052 
1.4512171e+2, 3.0397934e+2, 45572.555, -90953.01, -7405.1636, 0.0462042, -0.058578845, 45973.04, 45973.04, 0.0, 10.007992, 9.9899025 
1.451302e+2, 3.1396952e+2, 59123.473, -84495.66, -6724.651, 0.031783104, -0.033554766, 59437.652, 59437.652, 0.0, 10.008926, 9.989896 
1.5495248e+2, 1.24114275e+2, -1741647.8, -1722244.1, -532.59454, 0.0570487, -0.03390941, -1722229.6, 1448.4495, 0.0, 9.997937, 10.000503 
1.5496436e+2, 1.3411365e+2, -1656856.4, -1645662.1, 2052.7393, 0.046746902, -0.017419016, -1645297.6, -19613.06, 0.0, 9.997688, 9.999167 
1.549756e+2, 1.4411251e+2, -1562287.3, -1560622.6, -1754.1637, 0.018270712, 0.0023338, -1559513.4, -31817.377, 0.0, 9.997947, 9.998158 
1.549865e+2, 1.5411049e+2, -1450048.1, -1455790.6, -1739.1548, 0.011217891, -0.016491963, -1449562.5, -19846.436, 0.0, 9.998917, 9.998148 
1.5499689e+2, 1.6410783e+2, -1353801.0, -1377228.8, -5973.054, 0.016089376, -0.015980154, -1352366.0, -20623.635, 0.0, 9.999604, 9.99649 
1.5500666e+2, 1.7410456e+2, -1251914.0, -1277822.3, -4625.2476, 0.03788755, 0.011572498, -1251113.1, -17338.271, 0.0, 9.999888, 9.996446 
1.550162e+2, 1.8410006e+2, -1161587.4, -1205461.0, -4354.935, 0.041363582, 0.012786538, -1161159.4, -25340.486, 0.0, 10.000313, 9.994492 
1.5502547e+2, 1.9409412e+2, -1054840.4, -1104068.6, -5032.1025, 0.018640948, -0.025433138, -1054331.3, -16454.328, 0.0, 10.000944, 9.994412 
1.5503472e+2, 2.0408767e+2, -958362.25, -1023794.2, -6191.4097, 0.010294435, -0.035979845, -957781.56, -17841.768, 0.0, 10.001574, 9.992896 
1.5504393e+2, 2.1408083e+2, -851344.9, -921778.25, -4592.31, 0.022813989, -0.008345556, -851046.75, -9039.815, 0.0, 10.002202, 9.992863 
1.5505327e+2, 2.2407262e+2, -760511.7, -855017.56, -2191.3933, 0.02478991, 0.0022449302, -760460.9, -16373.662, 0.0, 10.002909, 9.990386 
1.5506278e+2, 2.3406273e+2, -651477.6, -753143.44, -2961.0989, 0.011687553, -0.013601154, -651391.5, -5207.61, 0.0, 10.003724, 9.990252 
1.550724e+2, 2.4405196e+2, -556142.2, -677804.9, -4193.3906, 0.018016253, -0.023456234, -555997.8, -7708.7554, 0.0, 10.004461, 9.988344 
1.5508218e+2, 2.540402e+2, -449480.72, -576389.4, -4386.334, 0.052349888, -0.02616967, -449329.3, 1074.4857, 0.0, 10.005085, 9.988272 
1.5509194e+2, 2.6402745e+2, -356068.28, -505426.88, -2558.8928, 0.064306855, -0.026000584, -356024.44, -3495.5757, 0.0, 10.005836, 9.986058 
1.5510158e+2, 2.7401343e+2, -245036.45, -402166.97, -1753.6681, 0.043714233, -0.024043582, -245016.89, 9649.239, 0.0, 10.00677, 9.985961 
1.5511112e+2, 2.839983e+2, -153118.75, -331191.44, -4104.0205, 0.037230358, -0.02570563, -153024.22, 3789.6973, 0.0, 10.007386, 9.983812 
1.5512039e+2, 2.93982e+2, -53380.734, -233127.77, -5683.855, 0.051701244, -0.03448685, -53201.18, 5772.6113, 0.0, 10.007535, 9.983739 
1.5512972e+2, 3.0396888e+2, 47247.703, -87677.52, -4152.884, 0.04820279, -0.035458684, 47375.402, 47375.402, 0.0, 10.007999, 9.990123 
1.5513901e+2, 3.1395915e+2, 61098.324, -80426.79, -3199.1975, 0.018263437, -0.026817579, 61170.605, 61170.605, 0.0, 10.008928, 9.990173 
1.6495001e+2, 1.2410256e+2, -1753703.6, -1727770.3, -2128.1074, 0.059376825, -0.02874345, -1727596.8, -3803.434, 0.0, 9.997103, 10.000534 
1.6496223e+2, 1.3410194e+2, -1651036.0, -1642450.1, 930.31805, 0.048238713, -0.014722697, -1642350.5, -16550.742, 0.0, 9.998067, 9.999201 
1.6497384e+2, 1.441009e+2, -1551561.8, -1554149.6, -1868.757, 0.016872495, 0.008116508, -1550582.8, -22772.398, 0.0, 9.99862, 9.99827 
1.649852e+2, 1.5409903e+2, -1453972.8, -1456408.0, -1208.7604, 0.007401274, -0.0069396175, -1453474.8, -23645.715, 0.0, 9.998593, 9.998263 
1.649961e+2, 1.6409649e+2, -1363129.6, -1380273.6, -5782.5396, 0.012953491, -0.006688686, -1361361.5, -29507.36, 0.0, 9.998904, 9.996623 
1.6500649e+2, 1.7409329e+2, -1253679.5, -1277190.0, -6701.9434, 0.039514303, 0.014763177, -1251903.3, -18017.395, 0.0, 9.999702, 9.996577 
1.6501658e+2, 1.8408893e+2, -1160913.3, -1204043.4, -7041.771, 0.046228845, 0.015785081, -1159792.6, -23863.902, 0.0, 10.000311, 9.994587 
1.6502632e+2, 1.9408314e+2, -1058570.0, -1104831.4, -5500.8745, 0.0246776, -0.0141652785, -1057924.9, -19939.67, 0.0, 10.000644, 9.994505 
1.6503614e+2, 2.0407683e+2, -962990.56, -1024964.2, -5415.319, 0.014892762, -0.022088822, -962520.94, -22474.049, 0.0, 10.00121, 9.992991 
1.6504608e+2, 2.1407e+2, -852016.25, -921042.0, -6329.1523, 0.02202072, -0.00013687226, -851440.75, -9327.126, 0.0, 10.0021105, 9.992955 
1.6505615e+2, 2.2406183e+2, -761295.9, -855027.8, -4999.29, 0.024634227, 0.007487667, -761029.94, -16836.438, 0.0, 10.002839, 9.990417 
1.6506639e+2, 2.3405197e+2, -657081.0, -755576.06, -3720.1807, 0.02061571, -0.007262712, -656940.7, -10650.872, 0.0, 10.003328, 9.990275 
1.6507679e+2, 2.440412e+2, -561768.4, -681622.0, -3004.158, 0.027994415, -0.01509225, -561693.1, -13298.026, 0.0, 10.004123, 9.988246 
1.6508739e+2, 2.5402936e+2, -446261.03, -576080.25, -3789.4993, 0.051632136, -0.014413959, -446150.53, 4360.168, 0.0, 10.005358, 9.988159 
1.650979e+2, 2.6401657e+2, -349918.56, -500992.84, -3681.4573, 0.059225865, -0.016352778, -349828.9, 2807.1143, 0.0, 10.006194, 9.986186 
1.6510819e+2, 2.7400258e+2, -248638.86, -402170.38, -3362.0474, 0.043486528, -0.024265328, -248565.28, 6207.363, 0.0, 10.006447, 9.986115 
1.6511834e+2, 2.8398755e+2, -159419.61, -335412.97, -5425.5664, 0.039940767, -0.024884313, -159252.5, -2332.532, 0.0, 10.007004, 9.983706 
1.6512817e+2, 2.9397124e+2, -47497.453, -231776.78, -5761.866, 0.054322146, -0.016668046, -47317.473, 11762.193, 0.0, 10.008002, 9.983606 
1.6513811e+2, 3.0395806e+2, 56728.855, -83535.05, -4448.3237, 0.053361803, -0.016457058, 56869.79, 56869.79, 0.0, 10.008669, 9.990084 
1.6514799e+2, 3.139481e+2, 59689.938, -81413.81, -5711.3, 0.029898198, -0.030376349, 59920.73, 59920.73, 0.0, 10.0088415, 9.990147 
1.7494681e+2, 1.24090716e+2, -1753133.8, -1726366.4, 1518.0194, 0.027012449, 0.0051485384, -1726280.5, -2370.2573, 0.0, 9.997092, 10.000633 
1.7496029e+2, 1.3408977e+2, -1650296.9, -1640829.0, 4600.183, 0.04580874, -0.024390673, -1638962.0, -13042.505, 0.0, 9.998061, 9.999312 
1.7497262e+2, 1.4408879e+2, -1550210.6, -1551359.0, -1637.3306, 0.03229316, -0.010966116, -1549049.8, -21120.357, 0.0, 9.99862, 9.998459 
1.7498401e+2, 1.5408741e+2, -1452593.8, -1453528.9, -1316.0546, 0.027950896, 0.0037931525, -1451664.6, -21721.316, 0.0, 9.998592, 9.998459 
1.749951e+2, 1.6408493e+2, -1364108.3, -1382275.8, -3031.9795, 0.022181189, 0.0059125307, -1363615.6, -31647.648, 0.0, 9.998904, 9.996486 
1.7500594e+2, 1.7408119e+2, -1254895.4, -1279698.1, -3654.9688, 0.014677213, -0.010600955, -1254368.0, -20363.127, 0.0, 9.999703, 9.996406 
1.7501658e+2, 1.8407692e+2, -1158472.8, -1199046.0, -5613.478, 0.016129257, -0.005480426, -1157710.5, -21663.453, 0.0, 10.000313, 9.9949255 
1.7502704e+2, 1.9407216e+2, -1055740.5, -1099071.5, -4230.252, 0.030386478, 0.028365256, -1055331.4, -17237.441, 0.0, 10.000648, 9.994895 
1.7503753e+2, 2.0406613e+2, -964296.5, -1027734.7, -2215.8892, 0.032910638, 0.037354257, -964219.2, -24066.258, 0.0, 10.001214, 9.992801 
1.7504816e+2, 2.1405856e+2, -853816.1, -924735.8, -2907.4482, 0.018502481, 0.009009569, -853697.1, -11470.487, 0.0, 10.002109, 9.992703 
1.7505899e+2, 2.2405013e+2, -759500.75, -851328.25, -2998.789, 0.023944391, -0.0061058514, -759402.9, -15094.137, 0.0, 10.00284, 9.990668 
1.7507009e+2, 2.3404075e+2, -654851.94, -751111.5, -1875.9211, 0.058169078, -0.003478902, -654815.4, -8415.064, 0.0, 10.003335, 9.990576 
1.7508131e+2, 2.4403016e+2, -562778.25, -683838.56, 1384.4521, 0.06745721, -0.0019990297, -562762.44, -14258.656, 0.0, 10.0041275, 9.988091 
1.7509264e+2, 2.540181e+2, -447768.7, -579083.9, 902.1565, 0.040409002, -0.0041547813, -447762.5, 2859.291, 0.0, 10.005352, 9.987957 
1.7510375e+2, 2.640052e+2, -349464.06, -499909.6, -2352.4116, 0.026160296, -0.0077635404, -349427.28, 3320.8423, 0.0, 10.006188, 9.986261 
1.7511451e+2, 2.7399138e+2, -247878.19, -400604.13, -2420.6597, 0.031009812, -0.015881384, -247839.83, 7043.9185, 0.0, 10.006449, 9.98622 
1.7512533e+2, 2.8397644e+2, -159077.42, -334785.06, -1937.6969, 0.039230675, -0.012899078, -159056.05, -2026.052, 0.0, 10.007008, 9.983747 
1.7513616e+2, 2.9396024e+2, -47222.89, -231286.14, -1981.3069, 0.052116793, 0.0042858026, -47201.566, 11986.988, 0.0, 10.008005, 9.983637 
1.7514685e+2, 3.039469e+2, 54859.633, -87579.93, -3478.1814, 0.060929544, -0.0012800442, 54944.51, 54944.51, 0.0, 10.008677, 9.989802 
1.7515719e+2, 3.1393632e+2, 57621.688, -86001.58, -5059.229, 0.06378461, -0.043239787, 57799.684, 57799.684, 0.0, 10.008856, 9.989824 
1.8494414e+2, 1.2407831e+2, -1745871.4, -1721795.9, 941.7598, 0.029548861, 0.014842678, -1721759.0, 2273.5144, 0.0, 9.997538, 10.000725 
1.8495801e+2, 1.340774e+2, -1657348.9, -1643147.0, 3760.955, 0.038622797, -0.02177372, -1642212.5, -16171.048, 0.0, 9.997534, 9.999412 
1.8497075e+2, 1.4407653e+2, -1561688.0, -1555916.3, -3443.2996, 0.023252534, -0.0070534856, -1554309.5, -26259.164, 0.0, 9.997794, 9.99855 
1.8498255e+2, 1.5407526e+2, -1454087.8, -1453265.1, -4002.706, 0.031809498, 0.011814781, -1449652.8, -19589.621, 0.0, 9.998446, 9.998547 
1.8499413e+2, 1.6407295e+2, -1361019.0, -1378373.5, -3914.4385, 0.028873976, 0.014971965, -1360176.9, -28090.738, 0.0, 9.999009, 9.996699 
1.8500546e+2, 1.7406939e+2, -1257107.4, -1278246.1, -1477.6412, 0.009432431, -0.0046359804, -1257004.6, -22883.488, 0.0, 9.999442, 9.996631 
1.8501665e+2, 1.8406531e+2, -1162127.9, -1199184.4, -2759.982, 0.0073311813, -0.0007204125, -1161923.5, -25762.12, 0.0, 9.999993, 9.995071 
1.850277e+2, 1.940607e+2, -1053726.5, -1096555.8, -3293.3083, 0.029807098, 0.03453916, -1053474.8, -15267.922, 0.0, 10.000718, 9.995032 
1.8503888e+2, 2.0405471e+2, -962683.06, -1027763.8, -1309.3066, 0.03850038, 0.043440476, -962656.75, -22391.387, 0.0, 10.001358, 9.992727 
1.8505025e+2, 2.1404704e+2, -857777.0, -927733.06, -821.85486, 0.02720007, 0.013172259, -857767.4, -15427.18, 0.0, 10.001884, 9.992606 
1.8506186e+2, 2.2403854e+2, -761006.2, -852265.2, -436.6965, 0.031951763, -0.0027254682, -761004.1, -16581.115, 0.0, 10.002746, 9.990649 
1.8507382e+2, 2.3402914e+2, -643853.1, -745906.7, -1544.0134, 0.05974013, 0.00068670645, -643829.75, 2684.9329, 0.0, 10.004091, 9.990564 
1.8508583e+2, 2.440186e+2, -550437.0, -677087.25, 323.41714, 0.06670215, 0.0032150652, -550436.2, -1818.3187, 0.0, 10.004938, 9.988159 
1.8509787e+2, 2.5400662e+2, -451598.9, -580108.75, 1753.1992, 0.04348128, 0.0024105369, -451575.0, -839.91406, 0.0, 10.005054, 9.988029 
1.8510963e+2, 2.6399374e+2, -360326.1, -506158.9, -1177.9192, 0.030110637, 0.00063648995, -360316.56, -7455.273, 0.0, 10.005486, 9.986175 
1.8512093e+2, 2.7397978e+2, -249501.13, -402623.88, -2866.7627, 0.031221326, -0.0048240097, -249447.47, 5550.332, 0.0, 10.00639, 9.986111 
1.8513247e+2, 2.8396487e+2, -153911.72, -330582.4, -1673.7961, 0.038654227, -0.0019387003, -153895.86, 3248.1284, 0.0, 10.007286, 9.983899 
1.8514428e+2, 2.9394886e+2, -43597.973, -227516.8, -502.14877, 0.055132058, 0.011229646, -43596.6, 15704.462, 0.0, 10.008165, 9.983817 
1.8515573e+2, 3.039355e+2, 56857.145, -89165.555, -3132.517, 0.069036834, 0.004395305, 56924.316, 56924.316, 0.0, 10.008923, 9.989575 
1.8516652e+2, 3.1392464e+2, 64903.715, -85583.55, -4668.22, 0.078969784, -0.034636192, 65048.387, 65048.387, 0.0, 10.009489, 9.989549 
1.9494204e+2, 1.240653e+2, -1745425.0, -1720741.6, 1133.1356, 0.06657031, -0.0007964577, -1720689.6, 3470.9292, 0.0, 9.997533, 10.000799 
1.9495541e+2, 1.3406478e+2, -1656891.6, -1641989.0, 3708.4353, 0.026250372, -0.006750106, -1641117.3, -14951.153, 0.0, 9.997524, 9.999495 
1.949682e+2, 1.4406407e+2, -1561837.8, -1556068.8, -1198.8131, -0.011178061, 0.02027277, -1555829.6, -27656.117, 0.0, 9.997788, 9.998542 
1.9498087e+2, 1.5406257e+2, -1454258.4, -1453547.5, -1505.0339, 0.018256936, 0.017194731, -1452356.5, -22167.93, 0.0, 9.998444, 9.998528 
1.9499318e+2, 1.640605e+2, -1357014.4, -1370152.1, -2199.8167, 0.031963676, 0.020332586, -1356655.8, -24446.607, 0.0, 9.999011, 9.997256 
1.9500503e+2, 1.7405787e+2, -1252686.3, -1269162.0, 161.59695, 0.02295264, 0.03236704, -1252684.6, -18449.732, 0.0, 9.999444, 9.997247 
1.9501677e+2, 1.8405405e+2, -1162409.6, -1199813.9, -134.67348, 0.018982466, 0.030175429, -1162409.1, -26136.734, 0.0, 9.999995, 9.995027 
1.9502835e+2, 1.9404872e+2, -1054503.0, -1098213.9, -546.29596, 0.022402339, 0.0050665126, -1054496.1, -16171.928, 0.0, 10.000721, 9.994917 
1.9504018e+2, 2.0404252e+2, -962363.4, -1027182.2, 729.7359, 0.03105899, -0.0030488877, -962355.1, -21970.518, 0.0, 10.001363, 9.9927635 
1.9505233e+2, 2.1403536e+2, -857338.25, -926922.4, 1158.7721, 0.047154866, 0.012238634, -857319.0, -14864.209, 0.0, 10.001888, 9.99266 
1.9506475e+2, 2.2402696e+2, -762939.8, -856317.1, 4369.708, 0.04779339, 0.017270688, -762735.8, -18199.04, 0.0, 10.002748, 9.990371 
1.9507757e+2, 2.340171e+2, -646178.0, -750559.6, 3595.0364, 0.025839554, 0.00531577, -646054.3, 578.96106, 0.0, 10.004085, 9.990249 
1.9509038e+2, 2.4400644e+2, -548579.8, -673034.56, 1223.8987, 0.02617131, 0.0006750119, -548567.8, 169.95462, 0.0, 10.00493, 9.988439 
1.951031e+2, 2.5399488e+2, -449184.5, -575080.1, 2182.798, 0.05949218, 0.005434921, -449146.66, 1704.3687, 0.0, 10.0050535, 9.988372 
1.951155e+2, 2.6398212e+2, -362019.6, -509810.25, 1952.7063, 0.068925194, 0.009086263, -361993.8, -9017.781, 0.0, 10.005491, 9.985921 
1.9512744e+2, 2.739679e+2, -251672.58, -407274.7, 602.51355, 0.04293873, 0.008642087, -251670.25, 3445.0833, 0.0, 10.006396, 9.985788 
1.9513975e+2, 2.839529e+2, -152016.42, -326742.28, 1677.4502, 0.03741047, 0.007978233, -152000.31, 5262.1245, 0.0, 10.00729, 9.984159 
1.9515252e+2, 2.93937e+2, -41316.07, -222756.75, 2807.0583, 0.062850304, 0.005002241, -41272.652, 18145.01, 0.0, 10.008165, 9.984142 
1.9516475e+2, 3.0392376e+2, 55595.668, -91784.05, -889.23444, 0.07744779, 0.0011138378, 55601.03, 55601.03, 0.0, 10.008923, 9.989395 
1.9517598e+2, 3.1391302e+2, 63364.16, -89042.555, -2519.8374, 0.07523061, -0.006104032, 63405.813, 63405.813, 0.0, 10.0095005, 9.989305 
2.0493941e+2, 1.2405229e+2, -1749954.5, -1722664.5, -149.13077, 0.06542607, 0.00491286, -1722663.6, 1625.4358, 0.0, 9.9972105, 10.000826 
2.049528e+2, 1.3405192e+2, -1659680.3, -1642941.9, 1755.4873, 0.02339216, 0.0113575, -1642759.8, -16466.598, 0.0, 9.997316, 9.999531 
2.0496577e+2, 1.4405139e+2, -1564191.8, -1554594.0, -978.17004, -0.01797254, 0.04295228, -1554495.3, -26196.43, 0.0, 9.997513, 9.9987755 
2.0497891e+2, 1.5405001e+2, -1461207.4, -1454097.4, 881.9315, 0.007994009, 0.02491931, -1453989.6, -23676.896, 0.0, 9.997848, 9.998781 
2.0499177e+2, 1.640481e+2, -1365360.4, -1371804.9, 408.43158, 0.02511192, 0.022686208, -1365334.6, -33003.32, 0.0, 9.998337, 9.997471 
2.0500435e+2, 1.7404577e+2, -1256874.5, -1268841.4, -252.60727, 0.029154943, 0.04320123, -1256869.1, -22515.059, 0.0, 9.999055, 9.9974575 
2.0501679e+2, 1.8404204e+2, -1165117.8, -1201718.9, -1479.9735, 0.03003153, 0.042174082, -1165058.0, -28667.49, 0.0, 9.999835, 9.994973 
2.050291e+2, 1.9403654e+2, -1055397.6, -1099567.3, -1610.9879, 0.026315324, 0.0077236015, -1055339.0, -16895.043, 0.0, 10.000698, 9.994834 
2.0504165e+2, 2.0403029e+2, -959182.9, -1025052.8, -515.2559, 0.032979164, -0.0049412935, -959178.8, -18673.904, 0.0, 10.001554, 9.992815 
2.0505455e+2, 2.1402319e+2, -849434.3, -922372.06, -50.92291, 0.054485545, 0.012527218, -849434.25, -6860.0503, 0.0, 10.002397, 9.992722 
2.0506771e+2, 2.240149e+2, -759233.94, -854154.6, 4537.6587, 0.055017702, 0.021155518, -759017.5, -14362.064, 0.0, 10.002983, 9.990402 
2.0508121e+2, 2.3400512e+2, -658833.25, -756381.25, 6308.6333, 0.024951534, 0.014869522, -658426.94, -11675.669, 0.0, 10.003204, 9.990276 
2.0509472e+2, 2.439945e+2, -564173.2, -680152.8, 4247.549, 0.023062827, 0.012292659, -564017.9, -15162.521, 0.0, 10.003843, 9.988478 
2.0510818e+2, 2.5398293e+2, -448270.0, -574209.25, 2950.062, 0.06234836, 0.013770638, -448200.94, 2767.6736, 0.0, 10.005096, 9.98841 
2.0512138e+2, 2.6397023e+2, -352424.0, -504653.7, 2841.676, 0.075725816, 0.016250808, -352371.0, 722.3184, 0.0, 10.006126, 9.985966 
2.0513412e+2, 2.739561e+2, -245163.58, -403589.97, 4179.5864, 0.050800208, 0.017550029, -245053.39, 10178.558, 0.0, 10.006818, 9.985837 
2.051472e+2, 2.83941e+2, -150249.1, -327548.3, 5253.7837, 0.042970195, 0.014863503, -150093.55, 7286.086, 0.0, 10.007483, 9.984011 
2.0516063e+2, 2.9392487e+2, -43354.168, -225670.89, 2764.8223, 0.0608772, 0.004291713, -43312.246, 16225.087, 0.0, 10.008107, 9.983969 
2.0517361e+2, 3.0391163e+2, 55212.652, -91208.8, -2057.7559, 0.07529319, 0.00539239, 55241.566, 55241.566, 0.0, 10.008862, 9.989463 
2.0518571e+2, 3.1390122e+2, 68515.77, -85495.61, -1312.8989, 0.08422062, 0.022019614, 68526.97, 68526.97, 0.0, 10.009807, 9.989401 
2.149362e+2, 1.2403927e+2, -1750347.9, -1723165.8, 533.5453, 0.023818694, 0.032787148, -1723155.4, 1262.7943, 0.0, 9.997198, 10.000797 
2.1495017e+2, 1.3403882e+2, -1659926.9, -1643237.4, 2148.618, 0.029459884, 0.032518152, -1642965.1, -16542.059, 0.0, 9.997308, 9.999515 
2.149635e+2, 1.4403845e+2, -1560906.4, -1547702.5, 203.94698, 0.0026489613, 0.060877774, -1547699.3, -19272.426, 0.0, 9.997508, 9.999246 
2.1497668e+2, 1.5403749e+2, -1457549.9, -1446464.8, 2164.6724, 0.000413127, 0.03504512, -1446057.0, -15621.122, 0.0, 9.997843, 9.999302 
2.1498995e+2, 1.6403572e+2, -1366275.6, -1373663.5, 3001.5808, 0.0072660404, 0.0222125, -1365209.9, -32756.941, 0.0, 9.998338, 9.997343 
2.1500339e+2, 1.7403306e+2, -1258270.9, -1271723.1, 2485.2307, 0.027482053, 0.028098363, -1257826.5, -23347.412, 0.0, 9.999057, 9.997259 
2.1501672e+2, 1.8402927e+2, -1165540.1, -1202605.3, 1728.471, 0.039810497, 0.035282403, -1165459.6, -28943.553, 0.0, 9.999836, 9.994911 
2.1502995e+2, 1.9402415e+2, -1055709.5, -1100266.9, 1676.4098, 0.04063373, 0.04179056, -1055646.5, -17080.037, 0.0, 10.000701, 9.994783 
2.150433e+2, 2.0401797e+2, -958701.1, -1024109.6, 2676.9358, 0.043337557, 0.037037667, -958591.75, -17964.992, 0.0, 10.001556, 9.992876 
2.1505688e+2, 2.1401052e+2, -848911.5, -921269.3, 3140.441, 0.04885159, 0.014198192, -848775.44, -6076.4775, 0.0, 10.002396, 9.992797 
2.1507066e+2, 2.2400229e+2, -756888.94, -849310.3, 5595.298, 0.05303264, 0.009384677, -756551.44, -11771.981, 0.0, 10.002985, 9.990731 
2.1508472e+2, 2.3399313e+2, -656246.2, -751120.7, 7116.692, 0.055365007, 0.029297248, -655715.3, -8846.012, 0.0, 10.00321, 9.990632 
2.1509889e+2, 2.4398275e+2, -565459.9, -682946.06, 8573.838, 0.055464048, 0.037748482, -564837.44, -15866.141, 0.0, 10.003848, 9.988284 
2.151132e+2, 2.539708e+2, -450058.5, -577950.56, 7695.7407, 0.052123796, 0.027330259, -449597.1, 1491.2642, 0.0, 10.005097, 9.988153 
2.1512727e+2, 2.63958e+2, -350096.75, -499800.66, 5652.043, 0.05130341, 0.022072967, -349883.66, 3330.0322, 0.0, 10.006125, 9.986297 
2.15141e+2, 2.7394426e+2, -242455.17, -397832.34, 6740.985, 0.054409094, 0.02229816, -242163.27, 13185.109, 0.0, 10.006813, 9.986232 
2.151548e+2, 2.8392914e+2, -154049.55, -335361.44, 7592.679, 0.05422257, 0.019065412, -153732.14, 3764.1782, 0.0, 10.00748, 9.983478 
2.1516864e+2, 2.9391238e+2, -47725.02, -235013.84, 5157.329, 0.049248174, 0.008645814, -47583.11, 12077.556, 0.0, 10.008119, 9.983323 
2.1518236e+2, 3.0389896e+2, 57521.86, -86797.34, 1437.8608, 0.062628604, 0.016544688, 57536.184, 57536.184, 0.0, 10.008879, 9.989756 
2.1519575e+2, 3.138891e+2, 71462.66, -79522.73, 2253.3977, 0.10383812, 0.049983565, 71496.27, 71496.27, 0.0, 10.009814, 9.989805 
2.249328e+2, 1.2402589e+2, -1762451.5, -1726633.8, -439.2067, 0.009543855, 0.048329588, -1726628.4, -2078.2139, 0.0, 9.996272, 10.001012 
2.2494705e+2, 1.3402556e+2, -1670609.6, -1645671.9, 2801.7354, 0.028012285, 0.03582648, -1645360.9, -18807.17, 0.0, 9.996462, 9.999762 
2.249607e+2, 1.4402539e+2, -1569697.6, -1550184.6, 2082.662, 0.0058504147, 0.063220866, -1549964.9, -21409.39, 0.0, 9.996831, 9.999407 
2.2497433e+2, 1.5402465e+2, -1461985.8, -1446965.6, 1342.358, 0.00050390424, 0.043444764, -1446846.5, -16284.28, 0.0, 9.997469, 9.999448 
2.2498818e+2, 1.640229e+2, -1369548.9, -1376756.8, 1555.2788, 0.0050152894, 0.029652504, -1369227.6, -36648.46, 0.0, 9.998178, 9.99721 
2.2500238e+2, 1.7401995e+2, -1260313.0, -1274576.0, 1344.8943, 0.023827601, 0.024484824, -1260187.3, -25579.43, 0.0, 9.998996, 9.997093 
2.2501649e+2, 1.8401611e+2, -1165938.4, -1201396.8, 1328.6434, 0.03788711, 0.030029276, -1165888.6, -29243.293, 0.0, 9.999747, 9.995035 
2.2503053e+2, 1.9401124e+2, -1059011.9, -1100123.4, 2786.5415, 0.044858556, 0.04867529, -1058823.9, -20130.828, 0.0, 10.000399, 9.994939 
2.2504471e+2, 2.040052e+2, -965008.44, -1027231.4, 4697.215, 0.048779245, 0.049540773, -964655.8, -23903.777, 0.0, 10.001126, 9.992871 
2.2505906e+2, 2.1399772e+2, -855285.0, -924646.1, 4460.8223, 0.0481255, 0.022686344, -854999.25, -12174.359, 0.0, 10.001972, 9.99277 
2.2507358e+2, 2.2398946e+2, -758399.94, -849200.4, 4724.272, 0.053680867, 0.013706382, -758154.8, -13249.236, 0.0, 10.002844, 9.990806 
2.2508833e+2, 2.3398034e+2, -647609.0, -745995.75, 4128.1587, 0.06818156, 0.02923486, -647436.1, -441.1962, 0.0, 10.003758, 9.990715 
2.2510326e+2, 2.4396998e+2, -554414.44, -677782.1, 6546.8506, 0.069087274, 0.036160775, -554068.0, -4971.345, 0.0, 10.00461, 9.988265 
2.251184e+2, 2.5395802e+2, -446249.63, -576440.2, 7460.477, 0.049816456, 0.02857492, -445823.5, 5390.3286, 0.0, 10.005371, 9.988121 
2.2513327e+2, 2.639453e+2, -350531.53, -497992.8, 4365.32, 0.044453915, 0.025810113, -350402.44, 2935.9795, 0.0, 10.006007, 9.986476 
2.2514768e+2, 2.739318e+2, -246187.48, -397370.72, 3879.1704, 0.060013846, 0.028253, -246088.02, 9382.968, 0.0, 10.006457, 9.986433 
2.2516228e+2, 2.8391677e+2, -157208.05, -337500.75, 7077.404, 0.06539095, 0.027827345, -156930.66, 687.21436, 0.0, 10.007286, 9.983422 
2.251771e+2, 2.9389995e+2, -40039.656, -232260.16, 8805.473, 0.055314828, 0.021051496, -39637.13, 20145.586, 0.0, 10.008685, 9.98324 
2.2519164e+2, 3.0388647e+2, 68725.01, -81585.06, 4950.9736, 0.06430941, 0.025414135, 68887.91, 68887.91, 0.0, 10.009656, 9.989739 
2.252056e+2, 3.1387645e+2, 73625.15, -78582.875, 2656.8706, 0.10226352, 0.044431046, 73671.51, 73671.51, 0.0, 10.009964, 9.989798 
2.3492919e+2, 1.2401212e+2, -1759374.1, -1719862.0, 583.11523, 0.021672973, 0.0514351, -1719853.4, 4832.0215, 0.0, 9.996253, 10.00148 
2.3494342e+2, 1.3401213e+2, -1667127.0, -1638197.3, 3513.6006, 0.018586097, 0.021197686, -1637776.6, -11091.139, 0.0, 9.9964485, 10.000275 
2.3495738e+2, 1.4401218e+2, -1570939.4, -1552518.4, 4340.0444, -0.009069371, 0.04979132, -1551547.1, -22862.209, 0.0, 9.996822, 9.999251 
2.3497188e+2, 1.5401141e+2, -1463707.4, -1450373.8, 3778.7388, 0.007270513, 0.049920205, -1449377.4, -18685.082, 0.0, 9.997463, 9.999218 
2.3498648e+2, 1.6400956e+2, -1370613.4, -1378916.8, 4584.175, 0.017132781, 0.044937737, -1368580.3, -35869.92, 0.0, 9.998177, 9.997062 
2.3500131e+2, 1.7400639e+2, -1261299.4, -1276591.9, 4460.509, 0.01738731, 0.03222085, -1260093.5, -25352.379, 0.0, 9.998996, 9.996955 
2.350161e+2, 1.840025e+2, -1163703.3, -1196819.8, 3866.0747, 0.023558237, 0.026531123, -1163257.9, -26479.057, 0.0, 9.999748, 9.995345 
2.3503089e+2, 1.9399783e+2, -1056406.5, -1094840.3, 5266.561, 0.03843938, 0.028870814, -1055697.9, -16873.697, 0.0, 10.000402, 9.995296 
2.3504584e+2, 2.03992e+2, -965441.4, -1028251.4, 7799.341, 0.048538644, 0.03287432, -964487.4, -23606.146, 0.0, 10.001132, 9.992798 
2.3506106e+2, 2.1398471e+2, -856120.06, -926419.1, 7648.5337, 0.05155136, 0.037705038, -855297.5, -12344.922, 0.0, 10.001974, 9.992647 
2.3507646e+2, 2.2397634e+2, -759612.2, -851752.44, 8145.382, 0.05628958, 0.03381856, -758897.7, -13863.404, 0.0, 10.002846, 9.990629 
2.3509206e+2, 2.3396671e+2, -648887.44, -748659.06, 7591.0767, 0.06348555, 0.015162608, -648313.2, -1184.7861, 0.0, 10.003759, 9.990531 
2.3510782e+2, 2.4395616e+2, -553395.25, -675637.1, 9460.646, 0.0638877, 0.008496616, -552667.4, -3435.785, 0.0, 10.004609, 9.988411 
2.3512381e+2, 2.5394458e+2, -445074.13, -573799.0, 10319.733, 0.054429203, 0.018105417, -444252.03, 7093.437, 0.0, 10.0053625, 9.988305 
2.3513937e+2, 2.639321e+2, -350406.56, -497548.38, 6165.4673, 0.053942148, 0.027897192, -350148.66, 3319.2612, 0.0, 10.006, 9.986508 
2.3515421e+2, 2.7391863e+2, -246000.36, -397103.84, 5540.447, 0.066978924, 0.035288166, -245797.48, 9802.746, 0.0, 10.006464, 9.986447 
2.3516968e+2, 2.839039e+2, -154335.08, -331689.8, 11915.439, 0.07559338, 0.0406483, -153538.14, 4206.7285, 0.0, 10.007293, 9.983815 
2.3518601e+2, 2.938876e+2, -37154.227, -225966.8, 14017.811, 0.077643245, 0.040999964, -36119.188, 23785.303, 0.0, 10.008672, 9.983675 
2.3520146e+2, 3.0387405e+2, 66442.79, -86036.13, 6477.19, 0.07933697, 0.032317016, 66717.445, 66717.445, 0.0, 10.0096445, 9.989438 
2.3521537e+2, 3.1386322e+2, 71159.62, -84185.195, 3754.147, 0.080183595, 0.007649103, 71250.29, 71250.29, 0.0, 10.009987, 9.9894 
2.4492502e+2, 1.239981e+2, -1771214.6, -1723897.6, 284.28598, 0.023580771, 0.052214846, -1723895.9, 927.23773, 0.0, 9.995371, 10.001637 
2.4493945e+2, 1.3399827e+2, -1675162.4, -1640097.0, 280.5325, 0.00887108, 0.022043345, -1640094.8, -13273.37, 0.0, 9.995813, 10.000454 
2.4495386e+2, 1.4399844e+2, -1577417.0, -1556160.4, 1457.702, -0.021678172, 0.052835423, -1556060.9, -27241.057, 0.0, 9.996402, 9.999207 
2.4496922e+2, 1.5399757e+2, -1467833.3, -1453169.3, 2222.9775, 0.008039084, 0.049755998, -1452839.8, -22011.467, 0.0, 9.997215, 9.999147 
2.449846e+2, 1.6399573e+2, -1372874.8, -1379050.4, 4569.471, 0.022837792, 0.04643831, -1370447.6, -37601.426, 0.0, 9.997978, 9.997148 
2.4500012e+2, 1.7399275e+2, -1265278.8, -1277372.5, 6239.1294, 0.015369279, 0.042754143, -1262637.1, -27762.205, 0.0, 9.9986725, 9.997058 
2.4501567e+2, 1.8398887e+2, -1167762.4, -1199528.0, 5658.652, 0.01904469, 0.03540808, -1166784.5, -29872.113, 0.0, 9.999502, 9.995279 
2.4503136e+2, 1.9398394e+2, -1055135.3, -1095187.5, 3775.1064, 0.03906354, 0.020192137, -1054782.5, -15822.431, 0.0, 10.000529, 9.995209 
2.4504718e+2, 2.0397799e+2, -961034.7, -1026584.1, 4460.218, 0.054033637, 0.018302707, -960732.56, -19714.328, 0.0, 10.0014515, 9.992754 
2.4506326e+2, 2.1397077e+2, -852774.5, -925238.8, 4878.467, 0.061337292, 0.03451717, -852447.56, -9358.565, 0.0, 10.002219, 9.992606 
2.4507949e+2, 2.2396238e+2, -757776.94, -852125.8, 6232.8374, 0.06472558, 0.03552455, -757367.0, -12196.045, 0.0, 10.003023, 9.990516 
2.4509585e+2, 2.3395257e+2, -647823.1, -749511.94, 6151.942, 0.062194187, 0.012133963, -647452.25, -185.52745, 0.0, 10.003889, 9.990408 
2.4511234e+2, 2.4394204e+2, -553239.4, -673196.0, 7214.3574, 0.05986266, 0.0037209452, -552807.06, -3437.1812, 0.0, 10.004516, 9.988621 
2.4512891e+2, 2.5393072e+2, -451589.72, -574172.06, 8385.844, 0.057821047, 0.01585562, -451018.72, 462.34277, 0.0, 10.004795, 9.988552 
2.4514517e+2, 2.639184e+2, -358066.3, -501446.2, 5636.865, 0.06025396, 0.027247483, -357845.03, -4242.97, 0.0, 10.005481, 9.986491 
2.4516086e+2, 2.739049e+2, -241699.1, -395576.16, 4685.28, 0.06927414, 0.034685407, -241556.56, 14178.322, 0.0, 10.00678, 9.986398 
2.4517718e+2, 2.838902e+2, -146839.03, -325526.94, 10117.494, 0.0772594, 0.03866676, -146267.98, 11610.922, 0.0, 10.007695, 9.98404 
2.451944e+2, 2.9387408e+2, -44692.438, -226700.08, 10932.186, 0.083807126, 0.035667732, -44038.152, 15998.12, 0.0, 10.008026, 9.9839325 
2.4521077e+2, 3.038607e+2, 55063.71, -92787.23, 3990.8582, 0.083676025, 0.02776025, 55171.355, 55171.355, 0.0, 10.008912, 9.9893265 
2.4522561e+2, 3.1384975e+2, 79664.0, -81882.65, 2956.9302, 0.07304531, 0.0102547845, 79718.11, 79718.11, 0.0, 10.010645, 9.989242 
2.5492027e+2, 1.239838e+2, -1772788.9, -1726663.6, 2247.4302, 0.013171608, 0.05033984, -1726554.4, -1590.9957, 0.0, 9.995352, 10.001457 
2.5493515e+2, 1.33984e+2, -1676636.9, -1642735.0, 1909.4801, -0.001858772, 0.03842202, -1642627.8, -15665.956, 0.0, 9.995798, 10.000281 
2.5495014e+2, 1.4398411e+2, -1577118.1, -1555263.1, 4366.8135, -0.032503996, 0.07263958, -1554422.9, -25462.318, 0.0, 9.99639, 9.999272 
2.5496638e+2, 1.5398307e+2, -1467276.5, -1451845.9, 5318.0146, 0.0020436095, 0.043103974, -1450190.6, -19220.215, 0.0, 9.997207, 9.99924 
2.5498256e+2, 1.6398136e+2, -1370666.5, -1374450.6, 7243.8223, 0.021064341, 0.034087803, -1365071.8, -32084.861, 0.0, 9.997976, 9.99746 
2.5499883e+2, 1.7397898e+2, -1262893.0, -1272436.4, 8880.058, 0.01711625, 0.055954266, -1257583.8, -22573.945, 0.0, 9.9986725, 9.997393 
2.5501522e+2, 1.8397518e+2, -1170876.3, -1205962.0, 9420.333, 0.023628585, 0.056511316, -1168507.0, -31460.342, 0.0, 9.999503, 9.99484 
2.5503194e+2, 1.9396953e+2, -1058857.6, -1102891.9, 7679.512, 0.04580114, 0.022395818, -1057556.8, -18455.625, 0.0, 10.00053, 9.994682 
2.5504872e+2, 2.0396312e+2, -961114.06, -1026803.2, 7456.9717, 0.06407242, 0.0056899274, -960278.2, -19114.73, 0.0, 10.001454, 9.992736 
2.5506565e+2, 2.1395585e+2, -852435.25, -924616.3, 7761.8647, 0.07637571, 0.013667059, -851610.0, -8375.612, 0.0, 10.002223, 9.992645 
2.5508264e+2, 2.2394753e+2, -758109.94, -852857.94, 9427.792, 0.07795146, 0.019372938, -757181.0, -11864.987, 0.0, 10.003026, 9.990462 
2.5509977e+2, 2.3393787e+2, -648366.06, -750481.7, 9399.869, 0.063642934, 0.019581886, -647508.0, -97.47787, 0.0, 10.003883, 9.990343 
2.5511682e+2, 2.4392752e+2, -551448.5, -669282.1, 8444.806, 0.056177918, 0.020729035, -550846.3, -1334.2865, 0.0, 10.004508, 9.988891 
2.5513375e+2, 2.5391638e+2, -449364.7, -569609.0, 9346.71, 0.05935228, 0.02155627, -448642.5, 2978.6135, 0.0, 10.004798, 9.988861 
2.5515068e+2, 2.6390415e+2, -358432.97, -502368.0, 10026.026, 0.062926136, 0.024127368, -357737.97, -3996.5781, 0.0, 10.005488, 9.986423 
2.551676e+2, 2.7389044e+2, -242547.9, -397279.38, 9501.326, 0.06691727, 0.02692649, -241966.66, 13908.841, 0.0, 10.006778, 9.98628 
2.5518483e+2, 2.8387564e+2, -146395.06, -324507.28, 11614.916, 0.07067746, 0.023005351, -145640.84, 12379.654, 0.0, 10.007692, 9.984111 
2.5520235e+2, 2.9385954e+2, -43953.234, -225291.27, 11983.558, 0.07443244, 0.007011099, -43164.74, 17013.57, 0.0, 10.008033, 9.984025 
2.552196e+2, 3.038463e+2, 55496.24, -91975.22, 9775.564, 0.0773488, 0.012500915, 56141.414, 56141.414, 0.0, 10.008916, 9.989377 
2.5523633e+2, 3.1383598e+2, 79765.94, -81319.445, 9390.22, 0.0786733, 0.04891598, 80311.48, 80311.48, 0.0, 10.010631, 9.9892845 
2.649151e+2, 1.2396859e+2, -1781768.9, -1729085.6, -2758.9307, -0.0058584367, 0.05137605, -1728941.6, -3829.181, 0.0, 9.994657, 10.00163 
2.6493064e+2, 1.33969e+2, -1684138.3, -1643997.0, -594.3743, -0.0021985201, 0.040458146, -1643988.1, -16879.48, 0.0, 9.995183, 10.000494 
2.649463e+2, 1.4396927e+2, -1585562.5, -1559099.4, 4414.59, -0.026391415, 0.07663613, -1558382.4, -29276.49, 0.0, 9.995802, 9.999297 
2.6496327e+2, 1.539682e+2, -1476553.3, -1456365.5, 4777.051, 0.00043099097, 0.04315213, -1455292.1, -24176.094, 0.0, 9.996575, 9.999238 
2.6498026e+2, 1.6396637e+2, -1379055.4, -1379885.3, 5090.453, 0.017437408, 0.029210532, -1374363.0, -41229.664, 0.0, 9.997462, 9.997338 
2.6499742e+2, 1.739638e+2, -1265997.1, -1275475.4, 3162.8633, 0.020092621, 0.04494536, -1265038.6, -29880.58, 0.0, 9.998525, 9.997253 
2.650148e+2, 1.8395986e+2, -1171323.9, -1207856.1, 3110.8042, 0.0295736, 0.046059884, -1171060.9, -33864.65, 0.0, 9.999542, 9.994687 
2.650325e+2, 1.9395417e+2, -1060400.4, -1105351.6, 4169.1714, 0.048936427, 0.022596633, -1060016.9, -20765.648, 0.0, 10.000497, 9.994527 
2.650502e+2, 2.0394759e+2, -962190.56, -1029516.8, 4545.356, 0.064916335, 0.007873113, -961885.1, -20569.992, 0.0, 10.001472, 9.99254 
2.65068e+2, 2.1394002e+2, -850074.6, -925755.06, 3038.656, 0.07570237, 0.0047876984, -849952.9, -6563.737, 0.0, 10.0024805, 9.992439 
2.650857e+2, 2.2393161e+2, -755579.5, -849773.94, 3000.8284, 0.077157736, 0.007898397, -755484.0, -10012.696, 0.0, 10.003117, 9.990626 
2.651033e+2, 2.3392227e+2, -656890.25, -752275.75, 4783.9126, 0.06464468, 0.018226322, -656650.94, -9088.07, 0.0, 10.003197, 9.99055 
2.6512098e+2, 2.4391204e+2, -562963.2, -675402.56, 4973.916, 0.058166407, 0.022819683, -562743.6, -13080.484, 0.0, 10.003741, 9.988841 
2.6513866e+2, 2.5390077e+2, -447108.84, -569420.2, 3206.357, 0.06064431, 0.017061943, -447024.84, 4748.6475, 0.0, 10.004989, 9.988778 
2.6515648e+2, 2.6388842e+2, -350202.47, -497629.03, 3474.757, 0.06639045, 0.014454714, -350120.63, 3773.6597, 0.0, 10.006016, 9.986487 
2.6517445e+2, 2.7387482e+2, -243011.63, -396542.06, 4459.631, 0.07704394, 0.014198256, -242882.2, 13145.519, 0.0, 10.0067005, 9.986364 
2.6519245e+2, 2.8386e+2, -150841.42, -328069.88, 5470.804, 0.0775422, 0.008341294, -150672.7, 7500.264, 0.0, 10.007445, 9.983982 
2.652104e+2, 2.938437e+2, -41331.63, -225756.72, 3951.893, 0.06228977, -0.007921239, -41246.984, 19085.57, 0.0, 10.008285, 9.983868 
2.6522845e+2, 3.0383065e+2, 60706.02, -84887.9, 3982.7588, 0.06267178, 0.0032881598, 60814.887, 60814.887, 0.0, 10.009072, 9.989784 
2.6524657e+2, 3.1382093e+2, 70838.125, -80224.58, 6918.372, 0.087486066, 0.054644093, 71154.305, 71154.305, 0.0, 10.009779, 9.989766 
2.7490947e+2, 1.23952456e+2, -1778240.5, -1721350.5, -481.66733, -0.035186063, 0.05612155, -1721346.5, 3923.9343, 0.0, 9.994637, 10.002162 
2.7492595e+2, 1.3395327e+2, -1680061.5, -1635205.1, 1341.6023, 0.0076431413, 0.02809445, -1635165.0, -7902.717, 0.0, 9.995166, 10.001098 
2.7494234e+2, 1.4395389e+2, -1585931.9, -1559545.0, 7217.0386, -0.00353501, 0.06441501, -1557700.1, -28443.965, 0.0, 9.995789, 9.999271 
2.7495983e+2, 1.539529e+2, -1477418.6, -1457900.9, 7706.959, 0.0023917172, 0.049749132, -1455224.6, -23959.326, 0.0, 9.996565, 9.999138 
2.7497765e+2, 1.6395073e+2, -1383141.5, -1388156.6, 8993.125, 0.010789257, 0.031902425, -1376313.0, -43027.094, 0.0, 9.997457, 9.996777 
2.74996e+2, 1.7394717e+2, -1270439.5, -1284516.4, 7215.2407, 0.023615396, 0.009822725, -1267398.4, -32078.31, 0.0, 9.998521, 9.996638 
2.7501443e+2, 1.8394287e+2, -1170389.0, -1205910.5, 6772.278, 0.03611361, 0.004245983, -1169141.6, -31780.107, 0.0, 9.999541, 9.994818 
2.75033e+2, 1.939378e+2, -1058838.9, -1102156.9, 7790.82, 0.047835745, 0.02065848, -1057480.4, -18069.371, 0.0, 10.000498, 9.994743 
2.750516e+2, 2.0393136e+2, -964805.5, -1034949.7, 8334.481, 0.056046877, 0.024462335, -963828.75, -22355.072, 0.0, 10.001474, 9.9921665 
2.750703e+2, 2.139232e+2, -853238.06, -932227.9, 6858.3325, 0.05909088, 0.007404848, -852647.0, -9093.552, 0.0, 10.002479, 9.991998 
2.750887e+2, 2.2391462e+2, -752990.5, -844347.7, 3645.7366, 0.061846126, 0.0009237997, -752845.25, -7207.9956, 0.0, 10.003115, 9.990996 
2.7510652e+2, 2.3390573e+2, -653479.9, -745360.8, 4995.0005, 0.06437369, 0.0085847555, -653209.1, -5484.8936, 0.0, 10.003204, 9.991017 
2.751248e+2, 2.4389559e+2, -565299.06, -680454.9, 9116.348, 0.06452332, 0.010828688, -564581.8, -14758.363, 0.0, 10.003751, 9.988489 
2.7514365e+2, 2.5388384e+2, -450347.8, -576048.2, 7869.0586, 0.061113823, 0.0027415003, -449857.13, 2081.2698, 0.0, 10.004986, 9.988324 
2.7516255e+2, 2.638713e+2, -349017.47, -494896.06, 6200.5874, 0.070114985, -0.001757125, -348754.38, 5306.5664, 0.0, 10.006005, 9.986677 
2.7518135e+2, 2.7385795e+2, -241216.14, -392613.13, 6896.408, 0.09801127, -0.0032557284, -240902.66, 15289.173, 0.0, 10.006693, 9.986634 
2.752001e+2, 2.8384316e+2, -153044.31, -332545.56, 8411.051, 0.09595311, -0.005304572, -152651.05, 5685.5986, 0.0, 10.0074415, 9.983677 
2.7521855e+2, 2.9382664e+2, -43982.184, -231308.23, 7012.283, 0.04748813, -0.0102799805, -43720.055, 16779.135, 0.0, 10.008287, 9.983484 
2.7523732e+2, 3.0381367e+2, 65861.02, -74193.57, 6565.808, 0.040298887, -0.00046841515, 66168.164, 66168.164, 0.0, 10.009075, 9.990515 
2.752565e+2, 3.138046e+2, 76842.25, -67477.414, 9304.324, 0.09785881, 0.030425483, 77439.63, 77439.63, 0.0, 10.009769, 9.990643 
2.849034e+2, 1.2393575e+2, -1796545.5, -1730150.3, 5.8929067, -0.040874023, 0.04764121, -1730150.3, -4716.8926, 0.0, 9.993384, 10.002176 
2.849208e+2, 1.3393658e+2, -1687601.4, -1638469.5, -2858.7805, 0.00623107, 0.016586918, -1638303.6, -10878.621, 0.0, 9.994633, 10.001133 
2.8493813e+2, 1.439372e+2, -1586158.3, -1560618.3, 524.83636, -0.0026652794, 0.05466548, -1560607.4, -31188.518, 0.0, 9.995811, 9.999183 
2.8495663e+2, 1.5393613e+2, -1473094.8, -1456958.9, 956.8581, 0.0070032454, 0.042920657, -1456902.4, -25473.559, 0.0, 9.996906, 9.999031 
2.8497538e+2, 1.6393374e+2, -1379235.8, -1389907.5, 2968.468, 0.01680694, 0.02428537, -1378465.5, -45014.188, 0.0, 9.997877, 9.996449 
2.8499463e+2, 1.7392977e+2, -1270690.4, -1288584.8, 3106.8677, 0.027284449, -0.0038390087, -1270166.3, -34676.78, 0.0, 9.998671, 9.996285 
2.8501394e+2, 1.8392524e+2, -1171072.4, -1206807.5, 3184.5872, 0.036901366, -0.010910955, -1170790.8, -33257.504, 0.0, 9.9995165, 9.994766 
2.850334e+2, 1.939202e+2, -1059694.0, -1102767.4, 2485.2463, 0.044989374, 0.010731136, -1059551.1, -19968.586, 0.0, 10.000445, 9.994722 
2.8505287e+2, 2.0391375e+2, -969809.4, -1038261.8, 2272.358, 0.051369686, 0.01766362, -969734.06, -28088.55, 0.0, 10.001167, 9.992086 
2.850723e+2, 2.139055e+2, -866805.44, -939783.5, 3299.4958, 0.05503011, 0.0007903323, -866656.56, -22930.523, 0.0, 10.001591, 9.99191 
2.8509137e+2, 2.2389679e+2, -764949.75, -851878.8, -178.78845, 0.059409283, -0.0074303956, -764949.4, -19138.254, 0.0, 10.002369, 9.99084 
2.8510997e+2, 2.3388769e+2, -647583.5, -744350.4, -3421.037, 0.064815015, -0.004304047, -647462.75, 437.31525, 0.0, 10.003685, 9.990849 
2.8512895e+2, 2.4387738e+2, -553319.8, -674904.5, -688.521, 0.06506061, -0.0059302724, -553315.9, -3315.3057, 0.0, 10.004578, 9.988462 
2.851485e+2, 2.538656e+2, -452590.22, -577190.9, 1267.7716, 0.057531044, -0.016972646, -452577.3, -461.51013, 0.0, 10.00483, 9.9883175 
2.8516814e+2, 2.638531e+2, -358176.5, -498998.47, 1223.3615, 0.06550531, -0.020965284, -358165.88, -3927.6887, 0.0, 10.005359, 9.986706 
2.8518787e+2, 2.738398e+2, -246418.42, -394780.75, 281.6759, 0.09714734, -0.016389636, -246417.89, 9950.365, 0.0, 10.006318, 9.986663 
2.8520745e+2, 2.838251e+2, -155650.75, -333639.63, 2019.7551, 0.09808708, -0.0129301185, -155627.83, 2884.557, 0.0, 10.007252, 9.983688 
2.8522676e+2, 2.9380864e+2, -45908.637, -232098.83, 3401.1792, 0.051502, -0.013491472, -45846.527, 14827.892, 0.0, 10.008145, 9.983496 
2.8524628e+2, 3.037957e+2, 63963.34, -73184.7, 1720.0557, 0.040664613, -0.010539451, 63984.91, 63984.91, 0.0, 10.008859, 9.9906845 
2.8526586e+2, 3.1378657e+2, 71167.3, -68054.41, -445.16275, 0.08557676, -0.0039553647, 71168.72, 71168.72, 0.0, 10.009282, 9.990832 
2.9489696e+2, 1.2391849e+2, -1800964.9, -1738387.9, 4885.1904, -0.023484122, 0.025108406, -1738008.9, -12407.646, 0.0, 9.99335, 10.001631 
2.949153e+2, 1.3391888e+2, -1691955.6, -1646811.3, 1779.0577, -0.0069932723, 0.005721333, -1646741.3, -19143.861, 0.0, 9.994607, 10.000577 
2.9493374e+2, 1.4391914e+2, -1587490.6, -1562988.3, 4647.602, -0.024838645, 0.047565468, -1562136.3, -32541.717, 0.0, 9.995796, 9.999027 
2.949536e+2, 1.5391783e+2, -1474022.5, -1458623.1, 5065.634, 0.013591251, 0.02271692, -1457106.1, -25499.336, 0.0, 9.996895, 9.998921 
2.9497346e+2, 1.6391538e+2, -1379968.1, -1391298.6, 6059.1465, 0.03486811, 0.006377318, -1377338.4, -43708.09, 0.0, 9.997872, 9.996355 
2.9499334e+2, 1.7391156e+2, -1271427.1, -1289995.4, 6119.2754, 0.030612543, 0.0039362423, -1269591.9, -33924.85, 0.0, 9.998667, 9.99619 
2.9501343e+2, 1.8390693e+2, -1172735.9, -1210207.0, 6661.8794, 0.0312894, 0.00070704694, -1171586.8, -33874.777, 0.0, 9.999516, 9.994534 
2.950338e+2, 1.9390132e+2, -1061429.1, -1106360.3, 6024.4966, 0.03957953, -0.0069612307, -1060635.4, -20869.006, 0.0, 10.000445, 9.994475 
2.9505402e+2, 2.0389472e+2, -968273.25, -1035234.2, 4056.7107, 0.049629025, -0.012103075, -968028.4, -26197.645, 0.0, 10.001176, 9.992287 
2.95074e+2, 2.1388686e+2, -864871.3, -935991.6, 4840.4253, 0.062236756, -0.014802345, -864543.4, -20636.031, 0.0, 10.001601, 9.992162 
2.9509383e+2, 2.2387806e+2, -769555.56, -861510.56, 4372.8906, 0.06857261, -0.01702644, -769348.1, -23354.756, 0.0, 10.002374, 9.990179 
2.9511365e+2, 2.338681e+2, -653160.94, -755710.4, 1535.9197, 0.06542219, -0.020511989, -653137.94, -5047.3584, 0.0, 10.003676, 9.990075 
2.9513347e+2, 2.4385746e+2, -551477.25, -670824.3, 640.70776, 0.05940592, -0.027386492, -551473.8, -1279.1971, 0.0, 10.004568, 9.988744 
2.9515326e+2, 2.5384605e+2, -449706.6, -571110.4, 2085.6865, 0.049411733, -0.04170492, -449670.78, 2635.2407, 0.0, 10.004828, 9.988732 
2.951734e+2, 2.6383373e+2, -359022.3, -500761.53, 4363.6953, 0.052348804, -0.042826757, -358888.1, -4461.743, 0.0, 10.005361, 9.986582 
2.9519397e+2, 2.738204e+2, -247690.05, -397556.7, 3731.2983, 0.075240485, -0.025690416, -247597.2, 8960.06, 0.0, 10.006325, 9.986467 
2.9521456e+2, 2.838058e+2, -153475.33, -329158.94, 5196.255, 0.08436919, -0.015197436, -153321.77, 5378.713, 0.0, 10.007255, 9.983992 
2.9523513e+2, 2.9378965e+2, -43607.38, -226832.11, 6516.8687, 0.07209154, -0.017434305, -43375.883, 17482.951, 0.0, 10.008125, 9.983863 
2.9525536e+2, 3.0377665e+2, 61413.832, -78181.93, 3259.6526, 0.061104547, -0.02629851, 61489.906, 61489.906, 0.0, 10.008848, 9.990345 
2.9527485e+2, 3.137668e+2, 68834.9, -74023.51, 861.6846, 0.051530577, -0.047511034, 68840.09, 68840.09, 0.0, 10.009333, 9.9903965 
3.0489022e+2, 1.23899415e+2, -1801899.8, -1737994.6, -5229.254, -0.02569568, 0.022770971, -1737569.5, -11782.457, 0.0, 9.993242, 10.001703 
3.0490988e+2, 1.3389976e+2, -1691967.1, -1645563.0, -3626.4385, -0.00509024, -0.011212335, -1645281.3, -17498.082, 0.0, 9.994547, 10.000687 
3.0492952e+2, 1.4389992e+2, -1589834.4, -1567112.9, 1063.175, -0.021502845, 0.024907097, -1567063.1, -37281.832, 0.0, 9.995762, 9.99876 
3.049505e+2, 1.5389833e+2, -1476679.8, -1463473.0, -158.22284, 0.017735207, 0.0032754515, -1463471.0, -31674.494, 0.0, 9.996865, 9.998601 
3.0497137e+2, 1.6389573e+2, -1379640.3, -1391697.4, -648.91705, 0.0381707, -0.008579821, -1379605.4, -45783.77, 0.0, 9.997915, 9.996302 
3.0499214e+2, 1.7389193e+2, -1268136.3, -1288593.8, -176.33289, 0.030692969, -0.004590909, -1268134.8, -32276.748, 0.0, 9.998896, 9.996169 
3.0501303e+2, 1.8388712e+2, -1172474.8, -1214363.8, -256.97235, 0.030253246, -0.006251283, -1172473.3, -34568.53, 0.0, 9.999715, 9.994148 
3.0503422e+2, 1.9388106e+2, -1066585.1, -1113663.6, -2304.7236, 0.04043493, -0.019420886, -1066472.6, -26508.662, 0.0, 10.0002985, 9.994043 
3.0505517e+2, 2.0387419e+2, -969159.1, -1035332.7, -5510.379, 0.05052423, -0.02670783, -968703.44, -26672.563, 0.0, 10.001097, 9.992312 
3.0507585e+2, 2.1386644e+2, -855040.2, -930264.8, -5946.1255, 0.060225286, -0.026611893, -854573.06, -10466.736, 0.0, 10.002226, 9.992243 
3.050965e+2, 2.238576e+2, -762155.5, -860445.2, -5790.544, 0.065699995, -0.028330974, -761815.56, -15622.73, 0.0, 10.002985, 9.98995 
3.0511707e+2, 2.3384735e+2, -662409.6, -763143.7, -4960.9727, 0.06467205, -0.034881297, -662165.94, -13872.885, 0.0, 10.003168, 9.989809 
3.0513757e+2, 2.4383655e+2, -565408.4, -678091.25, -5298.915, 0.060605668, -0.039464407, -565159.7, -14761.09, 0.0, 10.003633, 9.988697 
3.0515796e+2, 2.5382522e+2, -453959.88, -573394.3, -7014.3516, 0.05201699, -0.04314539, -453549.34, -1040.0992, 0.0, 10.004542, 9.9887085 
3.0517882e+2, 2.638129e+2, -357171.4, -500470.78, -4831.0244, 0.05400079, -0.043024927, -357008.72, -2378.9229, 0.0, 10.005509, 9.986524 
3.0520037e+2, 2.7379936e+2, -244621.98, -396704.84, -4305.367, 0.072375335, -0.039645836, -244500.19, 12262.222, 0.0, 10.0065565, 9.986408 
3.052218e+2, 2.8378472e+2, -151940.34, -325987.75, -4271.7705, 0.08211345, -0.037022334, -151835.56, 7070.009, 0.0, 10.007251, 9.984204 
3.0524293e+2, 2.9376885e+2, -52635.867, -228355.06, -3998.63, 0.07813014, -0.037480816, -52544.92, 8516.208, 0.0, 10.00738, 9.984113 
3.05264e+2, 3.0375588e+2, 52329.8, -85208.51, -4266.9277, 0.06841498, -0.04461352, 52462.05, 52462.05, 0.0, 10.00833, 9.990106 
3.052848e+2, 3.137458e+2, 85205.64, -69535.836, -5320.6704, 0.049162693, -0.06461769, 85388.375, 85388.375, 0.0, 10.0106, 9.990088 
3.1488323e+2, 1.2387852e+2, -1797191.0, -1727796.0, -270.83173, -0.05026138, 0.043059114, -1727795.0, -1803.8799, 0.0000000000000806617, 9.993221, 10.002401 
3.149046e+2, 1.3387923e+2, -1686617.1, -1634093.8, 1168.4116, 0.011775977, -0.03404822, -1634067.8, -6084.814, 0.00000000000005243424, 9.994526, 10.001472 
3.149256e+2, 1.4387949e+2, -1592794.4, -1572842.9, 5223.262, 0.007422612, -0.0138168, -1571558.3, -41578.6, 0.000000000000028332263, 9.995748, 9.998375 
3.149474e+2, 1.5387756e+2, -1480672.3, -1471361.1, 3958.3232, 0.01883025, -0.015528472, -1469905.9, -37907.55, 0.000000000000012064798, 9.996852, 9.998069 
3.1496915e+2, 1.6387473e+2, -1379827.1, -1391899.1, 3072.7822, 0.02555686, -0.020402335, -1379090.0, -45064.195, 0.000000000000003878589, 9.997908, 9.99629 
3.14991e+2, 1.7387086e+2, -1267823.1, -1287842.0, 3545.9412, 0.026623622, -0.029318167, -1267213.5, -31150.639, 0.0000000000000009180906, 9.998891, 9.99622 
3.1501275e+2, 1.8386585e+2, -1176286.1, -1222174.4, 2120.3345, 0.032947067, -0.03171005, -1176188.4, -38076.59, 0.00000000000000015841597, 9.999713, 9.993616 
3.1503457e+2, 1.9385934e+2, -1070906.8, -1122567.4, -67.10335, 0.046893913, -0.026824642, -1070906.6, -30730.955, 0.000000000000000019869674, 10.0002985, 9.993436 
3.150563e+2, 2.0385216e+2, -970142.06, -1037407.5, -1412.1207, 0.053509865, -0.02643279, -970112.44, -27866.389, 0.0000000000000000018107616, 10.0011, 9.9921665 
3.1507796e+2, 2.1384424e+2, -855627.5, -931463.06, -1630.0353, 0.048814714, -0.034801755, -855592.5, -11269.307, 0.0000000000000000001198895, 10.002226, 9.992158 
3.1509933e+2, 2.2383538e+2, -760812.0, -857616.56, -4719.0996, 0.05029049, -0.04152635, -760582.5, -14172.727, 0.0000000000000000000057675156, 10.002984, 9.990142 
3.1512022e+2, 2.3382534e+2, -660746.4, -759802.1, -4315.838, 0.06164382, -0.047546763, -660558.7, -12050.913, 0.0, 10.003174, 9.990033 
3.151413e+2, 2.4381462e+2, -567806.8, -683267.2, -2223.751, 0.06725763, -0.042667665, -567764.0, -17151.066, 0.0, 10.003643, 9.988336 
3.1516263e+2, 2.538031e+2, -456955.22, -579724.3, -3618.0715, 0.06401529, -0.02289062, -456848.66, -4122.851, 0.0, 10.004549, 9.98827 
3.151845e+2, 2.6379052e+2, -357100.56, -500318.38, -1016.96423, 0.06877087, -0.02321805, -357093.34, -2244.6404, 0.0, 10.005509, 9.986531 
3.1520706e+2, 2.7377665e+2, -244249.72, -395741.88, -464.16525, 0.08615693, -0.05795218, -244248.3, 12735.478, 0.0, 10.006549, 9.986475 
3.1522912e+2, 2.837619e+2, -151050.56, -324031.7, -3592.1133, 0.08939307, -0.07685117, -150976.0, 8151.6567, 0.0, 10.00725, 9.984336 
3.1525025e+2, 2.937462e+2, -51280.1, -226070.47, -3849.169, 0.07045239, -0.0721472, -51195.38, 10085.809, 0.0, 10.007405, 9.984254 
3.1527227e+2, 3.0373344e+2, 51625.29, -87173.49, 2969.6926, 0.06290648, -0.0654534, 51688.8, 51688.8, 0.0, 10.00835, 9.989958 
3.1529567e+2, 3.137234e+2, 83443.04, -72488.445, 2971.808, 0.072974846, -0.058084447, 83499.66, 83499.66, 0.0, 10.010567, 9.989898 
3.2487634e+2, 1.2385624e+2, -1798119.1, -1727560.9, -1822.4087, -0.055286217, 0.02078687, -1727513.9, -1306.1868, 0.0000000000023454196, 9.993122, 10.002461 
3.2489932e+2, 1.338571e+2, -1683057.4, -1631252.9, -5914.1514, 0.022313492, -0.050272074, -1630586.3, -2388.0867, 0.0000000000015241749, 9.994714, 10.001566 
3.2492164e+2, 1.4385736e+2, -1588891.3, -1572920.1, -5342.311, 0.02180599, -0.026602617, -1571297.9, -41103.04, 0.0000000000008233425, 9.996092, 9.998195 
3.2494444e+2, 1.538552e+2, -1477384.9, -1472168.0, -4419.8086, 0.022918392, -0.030270865, -1469644.3, -37428.395, 0.00000000000035051592, 9.997173, 9.99785 
3.2496715e+2, 1.6385219e+2, -1377861.0, -1391777.8, -5159.8306, 0.025098259, -0.036820102, -1376156.6, -41911.49, 0.00000000000011265747, 9.998073, 9.996212 
3.249898e+2, 1.7384827e+2, -1270896.3, -1289961.3, -5682.1113, 0.03037429, -0.04622238, -1269331.3, -33048.21, 0.000000000000026661206, 9.998703, 9.9961605 
3.2501242e+2, 1.8384315e+2, -1180309.3, -1225885.4, -6256.1777, 0.038257167, -0.04756529, -1179466.1, -41133.133, 0.000000000000004599458, 9.999512, 9.993455 
3.2503504e+2, 1.9383651e+2, -1067737.3, -1122949.8, -5202.127, 0.04948176, -0.039457418, -1067251.4, -26853.123, 0.0000000000000005767878, 10.000594, 9.993261 
3.2505757e+2, 2.038292e+2, -966620.4, -1037362.6, -4985.8516, 0.05325463, -0.036505602, -966270.7, -23800.508, 0.000000000000000052554126, 10.001406, 9.992019 
3.2507995e+2, 2.1382114e+2, -862812.6, -936577.8, -5690.948, 0.045472816, -0.043047532, -862376.1, -17827.326, 0.0000000000000000034789587, 10.001801, 9.992013 
3.2510203e+2, 2.2381222e+2, -768572.75, -861270.5, -10098.288, 0.047431596, -0.046555758, -767485.44, -20849.406, 0.00000000000000000016733108, 10.002445, 9.9901495 
3.2512358e+2, 2.3380229e+2, -656103.4, -757227.9, -11192.508, 0.064835906, -0.047595482, -654879.4, -6146.0186, 0.0, 10.003474, 9.990059 
3.2514536e+2, 2.4379149e+2, -558780.44, -680739.8, -8791.588, 0.07440653, -0.043585595, -558149.94, -7310.778, 0.0, 10.004335, 9.98817 
3.2516745e+2, 2.5377968e+2, -452538.72, -579698.5, -8329.757, 0.07149398, -0.033925787, -451995.38, 959.2943, 0.0, 10.004937, 9.988082 
3.2519013e+2, 2.6376688e+2, -357650.6, -502652.53, -4998.941, 0.07664121, -0.03805952, -357478.47, -2398.7695, 0.0, 10.005556, 9.986345 
3.2521352e+2, 2.737529e+2, -250558.53, -400867.28, -6212.3066, 0.094643645, -0.06596282, -250302.22, 6913.762, 0.0, 10.006201, 9.986287 
3.2523632e+2, 2.8373802e+2, -155906.83, -328245.2, -12035.409, 0.096538626, -0.0815257, -155070.38, 4290.9067, 0.0, 10.006991, 9.984167 
3.25258e+2, 2.937221e+2, -43667.85, -224234.0, -14527.706, 0.07301338, -0.07955548, -42506.473, 19010.17, 0.0, 10.008002, 9.984086 
3.2528093e+2, 3.037092e+2, 59974.945, -83025.234, -5539.2114, 0.06571096, -0.07472181, 60189.19, 60189.19, 0.0, 10.008912, 9.989964 
3.2530585e+2, 3.1369922e+2, 70648.44, -78236.06, -3593.0051, 0.08362953, -0.06799254, 70735.09, 70735.09, 0.0, 10.00966, 9.989933 
3.348696e+2, 1.2383252e+2, -1803025.5, -1736817.3, 4200.702, -0.041316193, -0.04701998, -1736551.8, -10114.543, 0.00000000005167391, 9.993089, 10.001845 
3.3489406e+2, 1.3383335e+2, -1687863.4, -1640497.1, -82.52899, 0.025983103, -0.05976318, -1640497.0, -12067.659, 0.00000000003357157, 9.994687, 10.000948 
3.3491772e+2, 1.4383352e+2, -1588904.9, -1572576.6, -1218.2466, 0.020402135, -0.012270327, -1572486.1, -42058.582, 0.000000000018130754, 9.996077, 9.998222 
3.349417e+2, 1.5383123e+2, -1476786.6, -1470620.4, -429.81305, 0.02945899, -0.04043398, -1470590.6, -38140.914, 0.000000000007717037, 9.99716, 9.99796 
3.3496532e+2, 1.6382809e+2, -1378960.0, -1393867.5, -2636.1199, 0.036410797, -0.057654176, -1378507.6, -44027.58, 0.0000000000024798213, 9.998067, 9.996071 
3.3498865e+2, 1.7382412e+2, -1272206.4, -1292518.1, -3304.9312, 0.041490678, -0.05532463, -1271682.3, -35163.434, 0.00000000000058676854, 9.998699, 9.995986 
3.3501202e+2, 1.8381901e+2, -1178850.4, -1222777.0, -2338.9385, 0.045634184, -0.05384482, -1178726.1, -40157.598, 0.00000000000010121049, 9.999506, 9.993667 
3.3503562e+2, 1.9381253e+2, -1065926.3, -1119134.9, -1052.5385, 0.047660764, -0.05712874, -1065905.4, -25273.258, 0.000000000000012690283, 10.000589, 9.993522 
3.3505893e+2, 2.0380525e+2, -967723.2, -1039639.0, -3176.0417, 0.048818402, -0.056629494, -967583.2, -24879.576, 0.0000000000000011561161, 10.001408, 9.99186 
3.350818e+2, 2.1379712e+2, -864240.25, -939633.7, -4194.287, 0.049041267, -0.0513307, -864007.6, -19223.9, 0.000000000000000076521916, 10.001808, 9.991798 
3.3510455e+2, 2.2378811e+2, -769704.06, -863708.44, -6471.904, 0.05588617, -0.043669347, -769260.56, -22388.45, 0.0000000000000000036800285, 10.00245, 9.989978 
3.3512715e+2, 2.337781e+2, -657241.0, -759606.56, -7297.056, 0.07335548, -0.03534927, -656723.44, -7753.3384, 0.0, 10.003475, 9.989894 
3.3514974e+2, 2.4376711e+2, -558620.25, -680426.56, -6377.8467, 0.081261225, -0.04189437, -558287.25, -7209.691, 0.0, 10.004338, 9.988187 
3.351724e+2, 2.537549e+2, -452146.56, -578995.6, -6130.4224, 0.0739054, -0.074088775, -451851.0, 1345.2202, 0.0, 10.004944, 9.988124 
3.351957e+2, 2.637419e+2, -360076.7, -507933.3, -2675.4211, 0.07690416, -0.085296705, -360028.28, -4705.102, 0.0, 10.005568, 9.985976 
3.3521977e+2, 2.7372798e+2, -253208.95, -406904.97, -3844.5413, 0.09685533, -0.06482853, -253112.84, 4346.7354, 0.0, 10.006226, 9.98586 
3.3524337e+2, 2.8371292e+2, -158562.52, -334386.9, -8432.963, 0.102250405, -0.054238882, -158158.97, 1448.0083, 0.0, 10.007019, 9.983731 
3.352661e+2, 2.936965e+2, -46544.81, -230530.9, -10707.354, 0.08443663, -0.062498312, -45923.773, 15843.835, 0.0, 10.008018, 9.9836445 
3.3528998e+2, 3.0368322e+2, 60975.98, -80964.98, -2620.3335, 0.07532738, -0.07374688, 61024.336, 61024.336, 0.0, 10.008916, 9.9901 
3.353155e+2, 3.1367323e+2, 72102.625, -74957.94, -890.3212, 0.0798613, -0.092189215, 72108.016, 72108.016, 0.0, 10.009651, 9.990159 
3.4486368e+2, 1.2380797e+2, -1781184.8, -1733922.9, 452.34607, -0.030809654, -0.088095106, -1733918.6, -7242.881, 0.00000000081250584, 9.994895, 10.001158 
3.4488913e+2, 1.3380839e+2, -1682931.1, -1646021.1, -5066.359, 0.032043185, -0.06928319, -1645338.3, -16665.957, 0.00000000052773436, 9.9953575, 10.000241 
3.4491378e+2, 1.4380828e+2, -1589676.0, -1573028.3, -6690.271, 0.023764316, -0.0121516725, -1570672.9, -39999.035, 0.00000000028494548, 9.996021, 9.998213 
3.4493884e+2, 1.5380584e+2, -1477903.4, -1470226.0, -6147.7983, 0.036973428, -0.061686486, -1466816.9, -34119.88, 0.0000000001212577, 9.997038, 9.998039 
3.4496346e+2, 1.6380267e+2, -1379436.4, -1395511.5, -9060.536, 0.044267163, -0.08257344, -1375362.1, -40634.277, 0.00000000003895854, 9.99809, 9.995942 
3.449876e+2, 1.7379878e+2, -1265833.4, -1291140.5, -9729.538, 0.043699503, -0.054989364, -1262525.3, -25758.955, 0.000000000009216846, 9.999201, 9.9958315 
3.4501174e+2, 1.8379372e+2, -1170682.0, -1217792.9, -9643.382, 0.0446492, -0.045859516, -1168784.5, -29968.426, 0.0000000000015895714, 10.000014, 9.993753 
3.4503606e+2, 1.9378714e+2, -1068407.8, -1118983.0, -9499.287, 0.047352392, -0.06985849, -1066682.4, -25802.055, 0.00000000000019928297, 10.000357, 9.993638 
3.4506008e+2, 2.037799e+2, -973923.6, -1041723.3, -11502.158, 0.050039917, -0.074526794, -972025.44, -29074.176, 0.0000000000000181529, 10.000939, 9.99194 
3.4508368e+2, 2.1377204e+2, -862102.75, -937713.2, -10393.297, 0.052726373, -0.049537025, -860700.1, -15670.994, 0.0000000000000012013685, 10.00191, 9.991876 
3.4510723e+2, 2.2376311e+2, -765362.25, -862985.9, -10624.619, 0.06197546, -0.035021022, -764219.3, -17102.195, 0.00000000000000005776772, 10.0028, 9.989855 
3.451307e+2, 2.337528e+2, -657120.06, -761250.75, -11268.045, 0.08160362, -0.0407318, -655914.7, -6696.8647, 0.0, 10.0035515, 9.98974 
3.451542e+2, 2.4374163e+2, -558790.94, -681293.25, -11004.663, 0.09057569, -0.052761268, -557810.2, -6483.369, 0.0, 10.0043545, 9.988116 
3.4517762e+2, 2.5372946e+2, -448131.03, -577707.9, -11582.826, 0.08257499, -0.07606028, -447103.8, 6341.556, 0.0, 10.005241, 9.988065 
3.452016e+2, 2.637164e+2, -352053.44, -505640.9, -7490.8833, 0.08058448, -0.08360901, -351688.97, 3884.007, 0.0, 10.006179, 9.985835 
3.4522638e+2, 2.7370226e+2, -239971.77, -402228.13, -6652.686, 0.08827644, -0.06883638, -239699.45, 18011.906, 0.0, 10.007201, 9.985707 
3.452508e+2, 2.8368708e+2, -145383.48, -330227.38, -9796.248, 0.090981804, -0.05675938, -144865.75, 14994.55, 0.0, 10.008014, 9.983535 
3.4527436e+2, 2.9367056e+2, -41294.664, -230243.97, -10543.914, 0.08615776, -0.050975252, -40708.105, 21313.525, 0.0, 10.008469, 9.983447 
3.4529892e+2, 3.036571e+2, 57938.492, -83766.375, -3378.8723, 0.08658551, -0.06709443, 58019.01, 58019.01, 0.0, 10.008759, 9.989984 
3.453248e+2, 3.136466e+2, 58906.62, -82529.6, -4051.899, 0.09458029, -0.12211058, 59022.605, 59022.605, 0.0, 10.008791, 9.990051 
3.5485864e+2, 1.2378264e+2, -1786923.9, -1745599.5, 2511.982, -0.02615234, -0.099919416, -1745447.4, -18524.61, 0.000000009469599, 9.994895, 10.000361 
3.548846e+2, 1.3378227e+2, -1689062.5, -1658161.4, -3554.2788, 0.039880857, -0.0785423, -1657757.9, -28830.639, 0.0000000061492664, 9.995342, 9.999422 
3.5490993e+2, 1.4378162e+2, -1590348.8, -1573945.4, -3243.5635, 0.031129098, -0.026716482, -1573327.3, -42393.344, 0.0000000033196064, 9.996002, 9.998157 
3.5493597e+2, 1.5377904e+2, -1477801.3, -1469597.1, -2387.7112, 0.04485156, -0.09433925, -1468952.9, -35994.734, 0.0000000014124153, 9.997021, 9.998088 
3.549616e+2, 1.6377588e+2, -1380403.0, -1397237.0, -4963.268, 0.04785556, -0.111537464, -1379048.6, -44059.72, 0.0000000004537274, 9.998078, 9.995827 
3.5498673e+2, 1.7377225e+2, -1266909.8, -1293182.9, -5527.298, 0.036045484, -0.0452772, -1265794.3, -28768.271, 0.00000000010733056, 9.999194, 9.995692 
3.550117e+2, 1.8376723e+2, -1170969.1, -1218290.4, -7991.9717, 0.034144614, -0.023644986, -1169655.9, -30579.932, 0.00000000001850869, 10.000011, 9.993719 
3.5503644e+2, 1.9376032e+2, -1068532.5, -1119249.3, -8146.0913, 0.047567755, -0.077590115, -1067256.1, -26113.184, 0.0000000000023202033, 10.000359, 9.993618 
3.5506108e+2, 2.0375313e+2, -971613.9, -1037127.3, -8033.333, 0.05586665, -0.09023451, -970643.2, -27429.77, 0.00000000000021133044, 10.000948, 9.992246 
3.5508564e+2, 2.1374588e+2, -859453.4, -932411.25, -6672.4165, 0.055894025, -0.037900623, -858848.1, -13562.708, 0.000000000000013984623, 10.001918, 9.99223 
3.5511008e+2, 2.2373714e+2, -765822.3, -864030.6, -7696.474, 0.06487749, -0.020571226, -765222.8, -17851.225, 0.0000000000000006723836, 10.002805, 9.989779 
3.5513434e+2, 2.3372635e+2, -658009.25, -763229.8, -8390.338, 0.08847617, -0.06269107, -657344.44, -7867.6396, 0.0, 10.003557, 9.9896 
3.5515866e+2, 2.4371502e+2, -559836.3, -683589.2, -7670.447, 0.10120514, -0.07561326, -559362.7, -7775.245, 0.0, 10.004361, 9.987953 
3.5518298e+2, 2.5370324e+2, -449324.47, -580119.25, -8234.525, 0.09632149, -0.04261692, -448808.06, 4894.819, 0.0, 10.00524, 9.987897 
3.5520783e+2, 2.6369023e+2, -351752.9, -504697.7, -3776.204, 0.08646535, -0.036337506, -351659.75, 4170.246, 0.0, 10.006165, 9.985904 
3.552334e+2, 2.7367565e+2, -239634.27, -400923.13, -2828.1736, 0.06891184, -0.07717777, -239584.7, 18387.406, 0.0, 10.007175, 9.9858055 
3.5525855e+2, 2.8366032e+2, -145681.98, -330217.9, -7866.5547, 0.06321108, -0.08637496, -145347.25, 14774.923, 0.0, 10.007989, 9.983544 
3.5528278e+2, 2.9364416e+2, -41386.926, -230241.27, -8999.766, 0.07808941, -0.04454311, -40959.016, 21321.195, 0.0, 10.008463, 9.983447 
3.553078e+2, 3.0363062e+2, 55829.695, -88552.23, -3222.815, 0.09779038, -0.055212475, 55901.598, 55901.598, 0.0, 10.00878, 9.989642 
3.5533392e+2, 3.1361926e+2, 56718.625, -87996.96, -3981.2617, 0.123317845, -0.15660626, 56828.07, 56828.07, 0.0, 10.008834, 9.989655 
3.6485365e+2, 1.2375594e+2, -1792730.8, -1752010.1, -6877.252, -0.004395781, -0.07006621, -1750880.0, -23695.502, 0.00000008268434, 9.994651, 10.000035 
3.6488044e+2, 1.3375482e+2, -1678176.8, -1656263.1, -9502.736, 0.04846393, -0.0923469, -1652716.4, -23520.813, 0.00000005368276, 9.996223, 9.999114 
3.6490658e+2, 1.4375384e+2, -1568583.3, -1562306.8, -7042.4395, 0.028932784, -0.059347454, -1557735.0, -26530.03, 0.000000028975498, 9.997428, 9.998249 
3.6493346e+2, 1.537516e+2, -1460950.4, -1459711.3, -5476.951, 0.040164348, -0.107841656, -1454819.0, -21592.898, 0.000000012326782, 9.998085, 9.9982395 
3.6495993e+2, 1.6374852e+2, -1374239.5, -1397322.8, -8472.531, 0.045373615, -0.11384985, -1371463.5, -36207.11, 0.000000003959453, 9.998625, 9.995552 
3.649859e+2, 1.7374456e+2, -1272155.0, -1299532.6, -10657.85, 0.04298708, -0.04943872, -1268495.3, -31198.086, 0.0000000009365381, 9.998996, 9.995353 
3.650116e+2, 1.837395e+2, -1173780.6, -1215253.6, -12773.151, 0.044386923, -0.026907723, -1170162.4, -30814.846, 0.0000000001614897, 9.999624, 9.99411 
3.65037e+2, 1.9373314e+2, -1060340.8, -1109677.0, -9176.489, 0.05086273, -0.0754313, -1058689.1, -17279.924, 0.000000000020242613, 10.00067, 9.994117 
3.6506236e+2, 2.0372619e+2, -963437.0, -1035067.6, -8001.8486, 0.055023912, -0.08596669, -962554.0, -19076.521, 0.0000000000018436379, 10.00158, 9.992079 
3.6508775e+2, 2.1371864e+2, -856091.8, -933809.3, -11159.269, 0.055637382, -0.036722492, -854521.2, -8968.78, 0.00000000000012199398, 10.002272, 9.99196 
3.6511302e+2, 2.2370985e+2, -759719.7, -857735.6, -13460.955, 0.06430896, -0.022325668, -757904.6, -10265.584, 0.0000000000000058651187, 10.003072, 9.990073 
3.651381e+2, 2.336994e+2, -648094.4, -754157.2, -10453.197, 0.0861496, -0.06711714, -647074.0, 2666.7854, 0.0, 10.0040455, 9.989981 
3.6516324e+2, 2.4368818e+2, -555278.25, -684632.4, -8719.111, 0.10147948, -0.07662616, -554693.2, -2842.9128, 0.0, 10.0048065, 9.987666 
3.6518833e+2, 2.5367618e+2, -452249.66, -585921.06, -10957.616, 0.105960354, -0.030471256, -451357.34, 2611.2358, 0.0, 10.005222, 9.987508 
3.6521384e+2, 2.6366305e+2, -358002.03, -505619.25, -6757.0303, 0.099385455, -0.022038434, -357693.38, -1596.4214, 0.0, 10.005644, 9.986088 
3.6524007e+2, 2.736486e+2, -253638.81, -404555.13, -4592.982, 0.07459821, -0.0785286, -253499.16, 4738.39, 0.0, 10.006076, 9.986085 
3.6526594e+2, 2.836332e+2, -164381.83, -341562.56, -9104.88, 0.066976056, -0.096191384, -163915.17, -3527.5723, 0.0, 10.006798, 9.983341 
3.652911e+2, 2.9361686e+2, -50244.695, -237688.5, -12106.789, 0.08873901, -0.050975252, -49465.97, 13082.36, 0.0, 10.007985, 9.983164 
3.6531678e+2, 3.0360326e+2, 59404.426, -85814.61, -7719.7036, 0.10703289, -0.05095008, 59813.645, 59813.645, 0.0, 10.008975, 9.989735 
3.6534312e+2, 3.1359228e+2, 69519.59, -80129.4, -5064.9624, 0.116765976, -0.13007435, 69690.83, 69690.83, 0.0, 10.009637, 9.989808 
3.7484866e+2, 1.2372782e+2, -1792084.3, -1749604.5, -1007.59717, 0.03440643, 0.005044225, -1749580.6, -22119.223, 0.0000005532481, 9.994604, 10.0002165 
3.7487674e+2, 1.3372602e+2, -1676775.6, -1652851.3, -3738.7117, 0.05742181, -0.11042524, -1652280.6, -22803.082, 0.00000035914545, 9.996201, 9.999352 
3.749039e+2, 1.4372493e+2, -1566901.3, -1558665.9, -4325.839, 0.015737645, -0.110801116, -1556811.3, -25324.166, 0.00000019382824, 9.997421, 9.998496 
3.7493137e+2, 1.5372352e+2, -1459278.5, -1456007.3, -3127.2285, 0.02200458, -0.101964444, -1454113.8, -20612.771, 0.00000008245099, 9.9980755, 9.998493 
3.7495846e+2, 1.637206e+2, -1377501.0, -1403854.4, -7020.259, 0.035968643, -0.08871602, -1375747.5, -40217.246, 0.000000026481976, 9.99862, 9.995108 
3.749851e+2, 1.7371564e+2, -1276132.5, -1307588.8, -9288.253, 0.063718796, -0.06728652, -1273594.6, -36014.445, 0.0000000062635124, 9.998993, 9.994802 
3.7501153e+2, 1.8371053e+2, -1168104.4, -1203433.5, -9154.694, 0.07450887, -0.055699237, -1165873.0, -26241.977, 0.0000000010799891, 9.999618, 9.994915 
3.7503773e+2, 1.9370554e+2, -1053204.4, -1094880.3, -5157.6597, 0.056486167, -0.063638836, -1052575.5, -10895.979, 0.00000000013537126, 10.000667, 9.995123 
3.7506387e+2, 2.0369902e+2, -967957.0, -1044379.4, -5186.3076, 0.04653079, -0.06173158, -967606.6, -23862.74, 0.000000000012328863, 10.001582, 9.991442 
3.7508997e+2, 2.136903e+2, -862420.1, -946764.2, -8454.949, 0.050983388, -0.04532266, -861580.94, -15750.511, 0.0000000000008157841, 10.002268, 9.991076 
3.7511602e+2, 2.2368118e+2, -755285.75, -848382.44, -9811.606, 0.059361026, -0.039770864, -754262.9, -6342.871, 0.00000000000003921943, 10.003064, 9.990712 
3.7514207e+2, 2.3367187e+2, -642055.75, -741455.5, -6748.33, 0.07400099, -0.054814078, -641599.7, 8410.892, 0.000000000000000000006929764, 10.004036, 9.9908495 
3.7516794e+2, 2.4366108e+2, -558227.0, -690619.2, -6910.8335, 0.09070064, -0.056369483, -557867.25, -5750.933, 0.0000000000000000000002423796, 10.004804, 9.987256 
3.7519357e+2, 2.536482e+2, -456464.4, -594753.5, -9351.543, 0.11069312, -0.037826035, -455834.9, -1591.7524, 0.0, 10.005229, 9.986898 
3.752197e+2, 2.6363477e+2, -355813.13, -501325.34, -5074.666, 0.11725202, -0.038231876, -355636.34, 738.19336, 0.0, 10.005656, 9.986373 
3.7524644e+2, 2.736209e+2, -250522.63, -398202.13, -3000.338, 0.101443276, -0.07362098, -250461.7, 8047.173, 0.0, 10.006083, 9.986513 
3.7527308e+2, 2.8360566e+2, -167189.97, -347311.34, -5072.243, 0.097825296, -0.088034034, -167047.23, -6389.2856, 0.0, 10.006796, 9.982945 
3.7529933e+2, 2.935885e+2, -54176.566, -245534.36, -7601.125, 0.115649134, -0.068552814, -53875.11, 8951.604, 0.0, 10.007973, 9.98263 
3.7532583e+2, 3.0357495e+2, 62430.844, -79272.2, -4968.1787, 0.114063025, -0.053826217, 62604.816, 62604.816, 0.0, 10.008968, 9.990183 
3.7535238e+2, 3.135654e+2, 73994.93, -70989.52, -2788.6655, 0.077612914, -0.05061341, 74048.55, 74048.55, 0.0, 10.009647, 9.990426 
3.8484374e+2, 1.2369731e+2, -1782991.0, -1738036.5, -8088.349, 0.07008067, 0.01562199, -1736625.5, -8865.14, 0.0000029192024, 9.9949, 10.000848 
3.8487303e+2, 1.3369595e+2, -1671059.0, -1641833.8, -7638.7104, 0.06673869, -0.12958346, -1639957.6, -10185.821, 0.0000018948215, 9.99622, 10.000086 
3.849012e+2, 1.436953e+2, -1569072.8, -1558976.5, -9592.279, 0.012583339, -0.12914798, -1553185.1, -21407.996, 0.0000010225369, 9.997236, 9.998561 
3.849294e+2, 1.5369436e+2, -1463522.8, -1458423.3, -10962.7295, 0.02944773, -0.07059382, -1449717.6, -15930.222, 0.0000004349407, 9.997798, 9.998456 
3.8495708e+2, 1.6369161e+2, -1379072.1, -1401791.6, -14132.599, 0.04625995, -0.048762184, -1372299.8, -36484.492, 0.00000013969013, 9.998384, 9.9953575 
3.849841e+2, 1.7368636e+2, -1273225.1, -1302892.0, -10231.708, 0.06376972, -0.08571136, -1270038.6, -32171.662, 0.000000033038678, 9.999042, 9.995099 
3.8501117e+2, 1.8368128e+2, -1165962.1, -1201487.8, -7676.958, 0.07136263, -0.091293015, -1164374.1, -24456.91, 0.0000000056966374, 9.999719, 9.994997 
3.8503832e+2, 1.9367687e+2, -1056242.3, -1095751.6, -10594.278, 0.061913732, -0.047851883, -1053580.6, -11619.668, 0.0000000007140435, 10.000426, 9.995175 
3.850653e+2, 2.0367062e+2, -974736.1, -1045468.0, -13109.4795, 0.05851959, -0.029450933, -972384.56, -28361.668, 0.00000000006503118, 10.001018, 9.991635 
3.8509196e+2, 2.1366169e+2, -873170.2, -949582.25, -8616.3955, 0.0653686, -0.055519924, -872210.6, -26099.92, 0.000000000004303039, 10.001425, 9.991292 
3.8511875e+2, 2.2365256e+2, -768510.56, -854576.8, -5461.366, 0.07132134, -0.06407997, -768165.44, -19965.25, 0.00000000000020687176, 10.002144, 9.990736 
3.8514578e+2, 2.3364359e+2, -651476.25, -746135.06, -8381.441, 0.07545459, -0.045277096, -650739.9, -451.82397, 0.00000000000000000020104626, 10.00339, 9.990839 
3.8517255e+2, 2.4363294e+2, -560980.2, -690296.5, -11787.452, 0.08312463, -0.036532737, -559914.5, -7522.127, 0.000000000000000000007029948, 10.004537, 9.987404 
3.8519883e+2, 2.5361994e+2, -451170.3, -590308.06, -9065.994, 0.09663515, -0.04730555, -450582.1, 3937.8806, 0.0, 10.005504, 9.98707 
3.8522545e+2, 2.6360652e+2, -348919.03, -498777.2, -4071.9822, 0.10189727, -0.053942934, -348808.47, 7842.793, 0.0, 10.006154, 9.986309 
3.8525254e+2, 2.735929e+2, -248242.03, -398295.25, -5878.913, 0.09322166, -0.056247257, -248012.05, 10771.9375, 0.0, 10.006284, 9.98641 
3.8527974e+2, 2.8357765e+2, -169392.42, -348688.72, -6661.9224, 0.09721759, -0.0617193, -169145.23, -8212.02, 0.0, 10.006651, 9.982919 
3.853071e+2, 2.9356015e+2, -62198.164, -249588.27, -5400.6035, 0.12366234, -0.07491337, -62042.645, 1062.3741, 0.0, 10.007421, 9.982618 
3.8533446e+2, 3.0354658e+2, 52570.74, -84412.16, -2446.82, 0.11789945, -0.061540958, 52614.43, 52614.43, 0.0, 10.0083, 9.990152 
3.8536164e+2, 3.135375e+2, 69424.16, -73547.48, -4640.1245, 0.054834515, -0.005888056, 69574.59, 69574.59, 0.0, 10.00934, 9.990396 
3.9483896e+2, 1.2366434e+2, -1775682.8, -1722177.5, -3190.3403, 0.09977328, -0.04263835, -1721988.0, 6093.976, 0.000012531762, 9.994863, 10.001938 
3.9486936e+2, 1.3366456e+2, -1662769.4, -1623980.5, -2940.219, 0.07561531, -0.15007325, -1623758.9, 6319.637, 0.0000081336, 9.996184, 10.001311 
3.9489847e+2, 1.4366493e+2, -1570303.6, -1560903.5, -7323.8364, 0.018462561, -0.1127596, -1556901.4, -24826.334, 0.0000043890395, 9.997212, 9.998438 
3.949275e+2, 1.536641e+2, -1466149.1, -1463334.4, -9015.76, 0.06189271, -0.012812073, -1455616.9, -21531.191, 0.0000018668253, 9.997779, 9.998129 
3.9495575e+2, 1.6366154e+2, -1372482.6, -1387953.5, -11822.212, 0.075889096, 0.006874289, -1366090.0, -29978.281, 0.0000005995586, 9.998375, 9.9963 
3.9498293e+2, 1.7365666e+2, -1265214.5, -1286243.3, -7782.3926, 0.042254686, -0.10458502, -1262647.6, -24489.871, 0.00000014180438, 9.999037, 9.996231 
3.950105e+2, 1.8365172e+2, -1170457.8, -1210662.4, -5038.658, 0.033279296, -0.13383816, -1169835.9, -29629.768, 0.000000024450705, 9.999716, 9.994372 
3.9503878e+2, 1.9364706e+2, -1062577.8, -1108789.6, -7843.8506, 0.065704644, -0.028215783, -1061282.6, -19028.717, 0.0000000030648393, 10.000426, 9.994285 
3.9506662e+2, 2.0364095e+2, -967643.1, -1030922.3, -11367.09, 0.089198, 0.010768221, -965663.2, -21348.25, 0.00000000027913746, 10.001024, 9.9926195 
3.9509368e+2, 2.1363273e+2, -863946.0, -930791.1, -7022.9927, 0.097048156, -0.066641755, -863216.1, -16822.008, 0.00000000001847093, 10.001438, 9.992564 
3.9512116e+2, 2.2362392e+2, -772323.75, -862701.56, -1117.7803, 0.09834263, -0.09432511, -772309.94, -23829.719, 0.0000000000008880364, 10.002153, 9.990174 
3.951493e+2, 2.3361449e+2, -657495.56, -758539.4, -3546.1785, 0.08865244, -0.038297642, -657371.25, -6797.6943, 0.000000000000000004402075, 10.0033865, 9.989992 
3.9517704e+2, 2.4360377e+2, -556648.7, -680984.6, -7929.96, 0.07750728, -0.016910883, -556145.0, -3465.998, 0.00000000000000000015389045, 10.004522, 9.988043 
3.95204e+2, 2.535913e+2, -445307.56, -577641.6, -5458.877, 0.06467791, -0.05857114, -445082.78, 9717.513, 0.0, 10.005482, 9.987942 
3.9523113e+2, 2.6357818e+2, -351893.9, -504486.03, -3277.7288, 0.05539146, -0.06892912, -351823.53, 5105.0596, 0.0, 10.006137, 9.985926 
3.952584e+2, 2.7356443e+2, -252431.6, -406915.3, -5479.11, 0.052266847, -0.027590413, -252237.52, 6826.565, 0.0, 10.006284, 9.985819 
3.9528614e+2, 2.8354907e+2, -167193.55, -344456.3, -4104.9116, 0.067370355, -0.01922736, -167098.55, -5883.8833, 0.0, 10.006667, 9.983197 
3.9531446e+2, 2.9353163e+2, -58744.723, -243103.6, -2494.4932, 0.11397555, -0.071059845, -58710.977, 4674.3193, 0.0, 10.007453, 9.983043 
3.953428e+2, 3.0351794e+2, 49994.188, -90567.1, 1366.5135, 0.11744539, -0.07306899, 50007.47, 50007.47, 0.0, 10.008337, 9.989708 
3.9537087e+2, 3.1350857e+2, 65367.707, -82112.875, -680.9651, 0.043768782, 0.009232586, 65370.848, 65370.848, 0.0, 10.009348, 9.9897995 
4.048346e+2, 1.23633e+2, -1743857.0, -1706502.6, 12692.052, 0.07242473, -0.114017196, -1702598.3, 25789.299, 0.00004485904, 9.997007, 10.001969 
4.0486577e+2, 1.336341e+2, -1658509.9, -1621467.6, 3293.1187, 0.0876836, -0.13708529, -1621177.1, 9199.571, 0.00002911354, 9.996449, 10.001358 
4.0489557e+2, 1.4363463e+2, -1585486.8, -1573516.0, -6305.3477, 0.04853044, -0.06812041, -1570807.5, -38434.836, 0.000015709626, 9.996401, 9.997977 
4.0492517e+2, 1.5363283e+2, -1477620.4, -1475069.5, -9604.377, 0.07798615, -0.01063269, -1466656.3, -32263.344, 0.000006681798, 9.997258, 9.997584 
4.0495414e+2, 1.636302e+2, -1366287.3, -1373712.4, -12266.497, 0.079653956, -0.009697432, -1357183.9, -20764.416, 0.0000021459712, 9.9983015, 9.997302 
4.0498224e+2, 1.7362678e+2, -1247338.3, -1263567.1, -7317.0576, 0.037816133, -0.09849932, -1244526.4, -6075.475, 0.00000050756734, 9.999641, 9.9974785 
4.0501055e+2, 1.8362242e+2, -1161725.5, -1212463.0, -5656.496, 0.025194848, -0.117242604, -1161102.5, -20609.025, 0.00000008752133, 10.000567, 9.993835 
4.0503934e+2, 1.9361687e+2, -1063009.6, -1118265.3, -8325.646, 0.060885493, -0.02239033, -1061782.4, -19231.865, 0.000000010971236, 10.000793, 9.993461 
4.0506768e+2, 2.036105e+2, -959196.06, -1019309.5, -11933.949, 0.08353754, 0.010275458, -956913.56, -12299.622, 0.0000000009993062, 10.001269, 9.993292 
4.0509537e+2, 2.136032e+2, -846488.7, -912125.75, -10220.781, 0.08360903, -0.06574143, -844934.0, 1749.7329, 0.00000000006613187, 10.002182, 9.993474 
4.0512356e+2, 2.2359481e+2, -763330.44, -860896.5, -4499.6113, 0.085105516, -0.09080113, -763123.4, -14358.106, 0.0000000000031798247, 10.002872, 9.989946 
4.051526e+2, 2.3358503e+2, -663333.9, -766006.94, -3790.103, 0.08933677, -0.03029319, -663194.1, -12331.7295, 0.0000000000000000688154, 10.0031805, 9.98958 
4.051812e+2, 2.4357416e+2, -567083.25, -683009.25, -7101.0996, 0.086796895, -0.01255458, -566649.9, -13680.514, 0.0000000000000000024051838, 10.00367, 9.988317 
4.0520903e+2, 2.5356188e+2, -457421.16, -579236.3, -8055.4307, 0.07255768, -0.07192729, -456890.75, -1802.5526, 0.0, 10.004459, 9.988324 
4.0523684e+2, 2.635489e+2, -365353.13, -512331.88, -8300.007, 0.057964593, -0.08456637, -364885.9, -7670.787, 0.0, 10.005268, 9.985805 
4.052645e+2, 2.7353522e+2, -256643.23, -411195.13, -8085.3896, 0.042596865, -0.018524675, -256221.39, 3129.4966, 0.0, 10.006085, 9.98562 
4.0529278e+2, 2.835201e+2, -157980.2, -334248.8, -2740.0042, 0.046736993, 0.0012270682, -157937.63, 3562.0125, 0.0, 10.007042, 9.983715 
4.0532202e+2, 2.9350314e+2, -42703.082, -228232.2, 640.2958, 0.08520501, -0.06334531, -42700.875, 20963.99, 0.0, 10.008239, 9.983684 
4.0535128e+2, 3.034896e+2, 57019.508, -91917.65, 3795.4976, 0.098620504, -0.07142276, 57116.168, 57116.168, 0.0, 10.009014, 9.989294 
4.0538028e+2, 3.134797e+2, 56678.06, -93130.0, 1241.9149, 0.066059865, 0.017953364, 56688.35, 56688.35, 0.0, 10.009035, 9.989199 
4.148307e+2, 1.2360346e+2, -1752073.1, -1723158.6, 11356.941, -0.018257616, -0.19796176, -1719231.3, 9443.813, 0.0001357749, 9.997005, 10.000837 
4.1486236e+2, 1.3360469e+2, -1667592.8, -1639499.3, 932.722, 0.101767, -0.08881807, -1639468.3, -8802.908, 0.00008811505, 9.996431, 10.000139 
4.1489252e+2, 1.4360441e+2, -1591916.8, -1585940.9, -3919.2075, 0.10305433, 0.0065702638, -1584000.6, -51330.727, 0.000047546542, 9.996369, 9.997145 
4.1492242e+2, 1.5360056e+2, -1483546.6, -1486617.4, -6395.8745, 0.076678164, -0.064973645, -1478504.4, -43795.49, 0.000020223571, 9.9972315, 9.996809 
4.149522e+2, 1.6359757e+2, -1359073.1, -1358486.4, -7563.07, 0.0558691, -0.10052637, -1351211.0, -14472.287, 0.0000064954993, 9.998285, 9.998341 
4.14982e+2, 1.7359668e+2, -1237837.8, -1243790.3, -2311.2334, 0.049261916, -0.0683288, -1237045.8, 1700.9111, 0.0000015364569, 9.999633, 9.998824 
4.1501135e+2, 1.8359335e+2, -1165028.8, -1219134.1, -4301.6265, 0.04604439, -0.04107436, -1164689.0, -23909.37, 0.00000026496838, 10.000563, 9.9933815 
4.1504002e+2, 1.9358623e+2, -1068445.1, -1129418.8, -7439.1284, 0.046846807, -0.029367112, -1067550.6, -24699.564, 0.000000033220672, 10.000793, 9.9927 
4.1506854e+2, 2.0357922e+2, -956672.7, -1014148.4, -8723.963, 0.041292116, -0.030125612, -955377.7, -10457.359, 0.0000000030265355, 10.001272, 9.993639 
4.15097e+2, 2.1357298e+2, -842553.7, -904118.4, -6665.978, 0.025418384, -0.05347326, -841840.25, 5139.946, 0.00000000020034616, 10.002188, 9.994016 
4.151259e+2, 2.235652e+2, -762634.2, -859599.4, -3032.6694, 0.03193579, -0.054770473, -762539.44, -13483.379, 0.000000000009636878, 10.00288, 9.990028 
4.1515565e+2, 2.3355514e+2, -663278.1, -765973.56, -2615.1006, 0.07689131, -0.020863818, -663211.56, -12056.14, 0.0000000000000007946489, 10.003186, 9.989577 
4.151851e+2, 2.4354406e+2, -567642.8, -684057.6, -4308.5386, 0.10840544, -0.02215792, -567483.56, -14219.313, 0.000000000000000027769294, 10.003667, 9.988243 
4.1521394e+2, 2.5353163e+2, -458221.44, -580528.2, -4947.9585, 0.11581558, -0.087005705, -458021.6, -2637.1995, 0.0, 10.004445, 9.988241 
4.1524258e+2, 2.635187e+2, -364886.72, -510860.94, -5103.078, 0.10428277, -0.100364126, -364708.56, -7197.1455, 0.0, 10.005248, 9.985911 
4.1527075e+2, 2.7350515e+2, -256037.06, -409328.34, -5014.238, 0.059944827, -0.026688179, -255873.22, 3772.173, 0.0, 10.006061, 9.985756 
4.1529968e+2, 2.8349054e+2, -153330.7, -323865.25, 1383.4215, 0.033230215, 0.002298202, -153319.48, 8470.132, 0.0, 10.007012, 9.984436 
4.153298e+2, 2.934745e+2, -37450.594, -216429.97, 4828.017, 0.039087318, -0.051845897, -37320.45, 26625.313, 0.0, 10.008203, 9.984505 
4.1535994e+2, 3.0346125e+2, 53692.41, -98220.52, 4188.275, 0.062656686, -0.05796082, 53807.797, 53807.797, 0.0, 10.008993, 9.988868 
4.1538984e+2, 3.1345063e+2, 52183.473, -102510.664, 1173.4503, 0.11509346, 0.020632992, 52192.375, 52192.375, 0.0, 10.009045, 9.988546 
4.248281e+2, 1.2357414e+2, -1744273.4, -1731282.6, 4738.3203, -0.030727651, -0.17202277, -1729738.0, -774.4684, 0.00035082738, 9.998048, 9.999774 
4.2485946e+2, 1.3357425e+2, -1650835.8, -1643852.6, -5926.74, 0.08768451, -0.0638427, -1640465.5, -9500.474, 0.00022768496, 9.998104, 9.999028 
4.2488965e+2, 1.4357321e+2, -1561930.6, -1569916.6, -3996.787, 0.082653515, 0.012936154, -1560274.0, -27297.313, 0.0001228659, 9.998338, 9.997275 
4.249202e+2, 1.535693e+2, -1456258.9, -1469601.9, 2429.002, 0.04849638, -0.09624632, -1455830.5, -20815.393, 0.000052266085, 9.9989195, 9.997149 
4.2495072e+2, 1.6356638e+2, -1348294.3, -1356819.4, 1028.8987, 0.036630135, -0.12975962, -1348171.9, -11127.913, 0.00001678997, 9.9991665, 9.998033 
4.2498142e+2, 1.7356578e+2, -1252095.0, -1255449.9, -7059.7095, 0.06675828, -0.02868021, -1246516.1, -7465.419, 0.000003972505, 9.998858, 9.998404 
4.250115e+2, 1.8356256e+2, -1184808.1, -1224101.8, -13740.096, 0.08026182, 0.015495401, -1180480.3, -39397.16, 0.00000068530704, 9.999008, 9.993791 
4.250405e+2, 1.9355524e+2, -1076618.0, -1127221.9, -7365.137, 0.06270263, -0.045420654, -1075567.9, -32413.102, 0.00000008596078, 9.999962, 9.993253 
4.250697e+2, 2.0354824e+2, -962169.44, -1018605.6, -3380.376, 0.044154942, -0.07245872, -961967.7, -16744.338, 0.000000007836224, 10.000965, 9.993487 
4.250991e+2, 2.1354228e+2, -846304.44, -909024.9, -6944.062, 0.02478543, -0.040856894, -845544.8, 1736.5132, 0.0000000005191636, 10.002057, 9.993741 
4.251287e+2, 2.2353457e+2, -762285.75, -858153.2, -8983.637, 0.026342353, -0.022033516, -761451.2, -12094.489, 0.000000000025000514, 10.002842, 9.990143 
4.2515865e+2, 2.335243e+2, -663224.44, -764063.5, -7827.036, 0.063339986, -0.029646957, -662620.5, -11162.624, 0.0000000000000068380394, 10.003102, 9.989746 
4.2518854e+2, 2.4351333e+2, -568005.56, -679727.75, -6185.7744, 0.096355475, -0.042957067, -567664.1, -14099.076, 0.00000000000000023892724, 10.003438, 9.988649 
4.2521816e+2, 2.5350177e+2, -462555.6, -577664.44, -2981.4175, 0.12159509, -0.06742776, -462478.4, -6801.0347, 0.0, 10.003926, 9.988688 
4.252476e+2, 2.6348907e+2, -377318.28, -518886.34, -1478.6359, 0.12320487, -0.07188493, -377302.84, -19501.084, 0.0, 10.004472, 9.985742 
4.2527655e+2, 2.734748e+2, -271901.44, -420342.7, -4268.0376, 0.08322693, -0.045861, -271778.84, -11836.344, 0.0, 10.005107, 9.985465 
4.253063e+2, 2.8345993e+2, -168326.86, -329590.5, 34.20607, 0.050965987, -0.030192427, -168326.84, -6237.9795, 0.0, 10.005909, 9.984571 
4.253373e+2, 2.934446e+2, -53684.914, -221816.73, -534.12885, 0.03414202, -0.035442665, -53683.22, 10555.401, 0.0, 10.006971, 9.984722 
4.2536825e+2, 3.0343178e+2, 41447.29, -98422.164, -3276.3677, 0.049790416, -0.033629704, 41523.992, 41523.992, 0.0, 10.0079, 9.989373 
4.2539868e+2, 3.13421e+2, 48946.91, -97752.29, 1293.9626, 0.1204365, -0.02257593, 48958.324, 48958.324, 0.0, 10.008545, 9.989113 
4.3482688e+2, 1.23545125e+2, -1751923.6, -1746194.8, 5239.0806, 0.03825963, -0.027335852, -1743088.1, -13836.353, 0.00078514614, 9.99802, 9.998773 
4.348572e+2, 1.3354279e+2, -1658337.4, -1658914.0, -5998.6055, 0.043836232, -0.061942887, -1652620.1, -21344.594, 0.00050963036, 9.998097, 9.998005 
4.34887e+2, 1.4354096e+2, -1554021.9, -1553543.9, -2361.374, -0.01739012, -0.0521571, -1551409.4, -18116.002, 0.00027507497, 9.998336, 9.9983835 
4.3491855e+2, 1.5353906e+2, -1445775.1, -1447879.5, 4514.8887, -0.009742692, -0.10425134, -1442191.5, -6880.393, 0.00011705333, 9.998915, 9.998625 
4.349497e+2, 1.635367e+2, -1360389.1, -1381524.5, 196.46864, 0.019835377, -0.0952914, -1360387.3, -23052.621, 0.000037619757, 9.999164, 9.996352 
4.349805e+2, 1.735341e+2, -1267924.6, -1287887.1, -8336.687, 0.08899503, 0.021250967, -1264901.0, -25537.898, 0.000008906541, 9.9988575, 9.996195 
4.3501094e+2, 1.8353e+2, -1175964.6, -1205787.1, -10874.274, 0.12641288, 0.052686237, -1172420.8, -31016.488, 0.0000015378395, 9.999005, 9.995035 
4.3504095e+2, 1.9352387e+2, -1063560.9, -1100288.3, -3707.8606, 0.10653609, -0.07016714, -1063190.3, -19728.264, 0.00000019312868, 9.999961, 9.995084 
4.3507114e+2, 2.0351744e+2, -966674.06, -1027856.8, 687.71246, 0.089116514, -0.11641704, -966666.4, -21142.578, 0.000000017634331, 10.000964, 9.992854 
4.351017e+2, 2.1351103e+2, -853937.06, -924492.9, -2685.6033, 0.07815762, -0.0279693, -853835.0, -6247.3267, 0.0000000011708853, 10.002045, 9.992689 
4.3513197e+2, 2.2350296e+2, -761580.3, -856352.06, -7435.0557, 0.06521861, 0.0078271115, -761000.56, -11333.211, 0.000000000056553692, 10.00283, 9.990269 
4.3516162e+2, 2.3349242e+2, -660896.2, -759286.25, -6742.218, 0.048215255, -0.05506245, -660436.3, -8666.254, 0.000000000000044721503, 10.003106, 9.990068 
4.3519154e+2, 2.4348195e+2, -561932.5, -667573.4, -4452.5117, 0.05192424, -0.07421021, -561745.1, -7872.7017, 0.000000000000001562477, 10.003459, 9.989467 
4.352218e+2, 2.5347212e+2, -455724.03, -564087.7, -1326.2727, 0.09222713, -0.016297283, -455707.78, 261.09454, 0.0, 10.003953, 9.9896 
4.35252e+2, 2.6345992e+2, -379848.9, -524898.1, 546.7428, 0.116282895, -0.0026036904, -379846.84, -21758.629, 0.0, 10.004507, 9.985311 
4.3528196e+2, 2.7344406e+2, -276178.16, -430054.9, -1990.4744, 0.11042352, -0.07426891, -276152.4, -15908.874, 0.0, 10.005146, 9.984778 
4.353127e+2, 2.8342825e+2, -170845.22, -335264.94, 3816.7205, 0.095081605, -0.09280825, -170756.67, -8358.457, 0.0, 10.005928, 9.984171 
4.353446e+2, 2.934134e+2, -56457.516, -226934.45, 3408.7021, 0.06446703, -0.015239877, -56389.383, 8154.8037, 0.0, 10.006946, 9.984381 
4.3537623e+2, 3.0340105e+2, 50025.895, -79440.4, -712.9767, 0.056084663, 0.00050960097, 50029.82, 50029.82, 0.0, 10.007855, 9.990692 
4.354069e+2, 3.133908e+2, 60012.93, -74256.28, 3532.8167, 0.08607966, -0.10333029, 60105.82, 60105.82, 0.0, 10.008529, 9.990728 
4.4482413e+2, 1.235131e+2, -1783410.5, -1760208.1, -7326.3247, 0.07137122, 0.03554854, -1758088.4, -28519.926, 0.0015538043, 9.995817, 9.998882 
4.44855e+2, 1.3351043e+2, -1663494.6, -1659070.1, -9578.962, 0.04216222, -0.053512167, -1651451.3, -19856.69, 0.0010089569, 9.997636, 9.998215 
4.4488543e+2, 1.4350875e+2, -1542814.9, -1541744.6, -4297.4834, -0.03136974, -0.065186955, -1537949.0, -4338.853, 0.0005448942, 9.9988165, 9.99895 
4.4491753e+2, 1.5350783e+2, -1441359.3, -1438678.3, -4050.1904, 0.0005312884, -0.081105, -1435752.5, -134.63333, 0.00023205215, 9.998903, 9.99925 
4.4494894e+2, 1.6350561e+2, -1368221.9, -1393896.3, -10557.341, 0.033977956, -0.06013713, -1364438.3, -26798.412, 0.00007466019, 9.998999, 9.9955845 
4.449793e+2, 1.7350173e+2, -1270842.6, -1300532.8, -10451.134, 0.07118678, 0.026523486, -1267532.8, -27851.654, 0.000017702305, 9.999142, 9.995197 
4.4500983e+2, 1.8349726e+2, -1163149.4, -1189887.0, -6129.5254, 0.09304804, 0.042308155, -1161811.3, -20085.656, 0.000003062777, 9.999454, 9.995903 
4.4504076e+2, 1.934924e+2, -1053329.8, -1081968.9, -3224.481, 0.087571755, -0.07080311, -1052971.3, -9200.96, 0.0000003857046, 10.000074, 9.996276 
4.4507188e+2, 2.0348647e+2, -977949.9, -1039588.5, -2350.3428, 0.09168991, -0.112204246, -977860.4, -32033.545, 0.00000003535121, 10.00046, 9.992297 
4.4510326e+2, 2.1347919e+2, -883748.94, -948719.25, -4724.9644, 0.11375886, -0.027852269, -883407.1, -35507.41, 0.000000002359298, 10.000424, 9.991821 
4.451343e+2, 2.2347064e+2, -786164.5, -865404.25, -6719.4214, 0.10937174, 0.0005211315, -785598.75, -35614.777, 0.000000000114745775, 10.001018, 9.990528 
4.4516462e+2, 2.334604e+2, -662855.25, -755117.25, -4756.3823, 0.056651, -0.07611871, -662610.7, -10527.55, 0.00000000000022836846, 10.002742, 9.990529 
4.4519517e+2, 2.4345018e+2, -551967.3, -664031.75, -5695.3657, 0.032262336, -0.09217503, -551678.56, 2504.4077, 0.0000000000000079783024, 10.004189, 9.989354 
4.45226e+2, 2.5344047e+2, -440374.84, -559160.06, -10640.448, 0.0591684, -0.00051852036, -439429.22, 16849.94, 0.0, 10.005103, 9.989374 
4.452569e+2, 2.6342848e+2, -356937.03, -509128.53, -11248.6455, 0.083717845, 0.02488375, -356110.13, 2287.0352, 0.0, 10.005867, 9.9857235 
4.4528762e+2, 2.7341282e+2, -254534.88, -413659.34, -5679.569, 0.102475025, -0.07523924, -254332.42, 6216.749, 0.0, 10.006366, 9.98531 
4.45319e+2, 2.8339702e+2, -164080.0, -334890.5, 4436.773, 0.10417873, -0.11123268, -163964.83, -1261.8334, 0.0, 10.006509, 9.98392 
4.4535115e+2, 2.9338184e+2, -72888.75, -239406.06, 3513.5498, 0.076449975, -0.030670585, -72814.65, -7961.902, 0.0, 10.006004, 9.983983 
4.453833e+2, 3.0336973e+2, 34374.414, -74224.25, 1493.6738, 0.062113285, -0.018690286, 34394.957, 34394.957, 0.0, 10.006214, 9.991842 
4.454148e+2, 3.133607e+2, 57941.35, -59108.207, 4863.662, 0.07083886, -0.13869761, 58143.1, 58143.1, 0.0, 10.007672, 9.992184 
4.548198e+2, 1.2347793e+2, -1775435.4, -1741559.5, -1008.4308, 0.06180756, 0.010885864, -1741529.5, -11614.721, 0.0027803245, 9.995716, 10.000192 
4.5485303e+2, 1.3347712e+2, -1653450.3, -1637280.1, -2946.168, 0.08309872, -0.038749333, -1636760.1, -4838.084, 0.0018069525, 9.997586, 9.999712 
4.54885e+2, 1.4347658e+2, -1543049.1, -1541691.3, -3344.0432, 0.044041462, -0.024177788, -1538957.9, -5031.2075, 0.0009770269, 9.998798, 9.998959 
4.5491725e+2, 1.5347557e+2, -1443412.9, -1442426.1, -4038.4746, 0.080435686, -0.026020383, -1438851.0, -2915.3367, 0.00041677037, 9.998888, 9.999 
4.549484e+2, 1.634731e+2, -1367343.1, -1391741.0, -10278.061, 0.07872237, -0.023983942, -1363590.5, -25630.5, 0.00013439546, 9.998988, 9.995733 
4.5497787e+2, 1.7346865e+2, -1269451.6, -1297511.4, -10019.374, 0.012412331, -0.012843618, -1266241.3, -26236.27, 0.000031964762, 9.99914, 9.995401 
4.5500815e+2, 1.8346432e+2, -1159643.6, -1182601.8, -4199.579, -0.020923806, -0.016081452, -1158899.5, -16852.102, 0.000005553748, 9.999454, 9.996396 
4.5504004e+2, 1.934608e+2, -1049224.8, -1073740.3, -880.79504, 0.0050643715, -0.048752703, -1049193.1, -5113.154, 0.00000070340104, 10.000088, 9.996827 
4.5507193e+2, 2.0345527e+2, -981217.3, -1046761.3, -2177.683, 0.05103342, -0.060777172, -981145.0, -35011.996, 0.000000064967765, 10.000482, 9.991796 
4.5510387e+2, 2.1344668e+2, -888346.0, -958871.0, -4814.439, 0.13111638, -0.03881399, -888018.9, -39800.773, 0.0000000043809485, 10.000456, 9.991113 
4.551358e+2, 2.2343756e+2, -783128.8, -859740.1, -1124.8154, 0.15747222, -0.04181979, -783112.3, -32805.004, 0.00000000021602262, 10.001043, 9.990898 
4.5516765e+2, 2.3342815e+2, -658769.7, -746632.8, 1842.2722, 0.08605695, -0.093455315, -658731.06, -6332.9063, 0.0000000000009414817, 10.002737, 9.991106 
4.5519936e+2, 2.4341796e+2, -559152.75, -678233.44, -1791.8372, 0.03446606, -0.097296186, -559125.8, -4628.2197, 0.000000000000032891313, 10.00416, 9.988395 
4.5523074e+2, 2.5340694e+2, -449799.7, -577764.56, -7157.1025, 0.021995278, -0.01655363, -449400.66, 7207.0806, 0.0, 10.005063, 9.98812 
4.552622e+2, 2.6339474e+2, -349406.4, -492585.94, -9111.133, 0.027099404, 0.014285227, -348828.94, 9898.943, 0.0, 10.005829, 9.986869 
4.552936e+2, 2.73381e+2, -243743.8, -390568.38, -4058.9639, 0.06181672, -0.051856294, -243631.67, 17229.064, 0.0, 10.006339, 9.986897 
4.5532525e+2, 2.8336605e+2, -165083.23, -336667.56, 2658.2954, 0.080621265, -0.08935712, -165042.06, -2036.4135, 0.0, 10.0065, 9.983801 
4.553571e+2, 2.9334977e+2, -75812.84, -245857.6, 1156.4329, 0.07132461, -0.076022275, -75804.98, -10639.121, 0.0, 10.006026, 9.983529 
4.5538956e+2, 3.0333757e+2, 41552.156, -60039.613, 5393.4404, 0.06684655, -0.08405744, 41837.688, 41837.688, 0.0, 10.0062475, 9.992795 
4.554225e+2, 3.1333044e+2, 67025.05, -40798.926, 9237.845, 0.069376804, -0.1350459, 67810.77, 67810.77, 0.0, 10.007698, 9.993422 
4.6481648e+2, 1.23443566e+2, -1734651.5, -1715773.6, 7036.5137, 0.03584394, -0.012956249, -1713439.5, 16812.307, 0.004589857, 9.998218, 10.000736 
4.6485022e+2, 1.3344379e+2, -1663263.5, -1634815.3, -2121.2385, 0.09198933, -0.025552418, -1634657.9, -2408.5793, 0.0029879087, 9.996595, 10.000367 
4.648825e+2, 1.4344373e+2, -1589990.6, -1565217.6, -6432.9375, 0.073294625, 0.004360994, -1563646.9, -29397.537, 0.0016192476, 9.99563, 9.998904 
4.649149e+2, 1.5344249e+2, -1488386.3, -1466431.4, -6738.9634, 0.10206868, -0.0052715368, -1464527.9, -28267.137, 0.00069287396, 9.995914, 9.998816 
4.6494654e+2, 1.6343988e+2, -1392155.3, -1398547.5, -7812.9336, 0.090140656, -0.025083516, -1386910.0, -48624.227, 0.00022437889, 9.997063, 9.996206 
4.649773e+2, 1.7343557e+2, -1256546.5, -1284708.6, -4025.099, 0.009708682, -0.059537195, -1255982.5, -15654.424, 0.000053673917, 9.999724, 9.995989 
4.6500856e+2, 1.8343134e+2, -1132510.5, -1175651.8, -2983.1616, -0.032554496, -0.064771354, -1132305.3, 10064.218, 0.000009398119, 10.001562, 9.995848 
4.650409e+2, 1.9342783e+2, -1028203.4, -1072127.0, -9967.956, -0.006994165, -0.021867493, -1026047.1, 18356.4, 0.0000012027082, 10.001883, 9.99606 
4.6507305e+2, 2.0342219e+2, -955034.06, -1032503.7, -15965.306, 0.031834308, -0.0051383753, -951872.9, -5414.534, 0.00000011262272, 10.0021925, 9.991929 
4.65105e+2, 2.134133e+2, -855417.3, -939597.0, -11654.486, 0.09204052, -0.04087229, -853833.56, -5288.387, 0.000000007732489, 10.002555, 9.991406 
4.6513733e+2, 2.2340417e+2, -757680.56, -845591.9, -2537.1155, 0.12224193, -0.07021887, -757607.44, -6973.4844, 0.00000000039024706, 10.002694, 9.991062 
4.6517038e+2, 2.3339522e+2, -661691.4, -746611.5, -2308.6685, 0.09834156, -0.08798807, -661628.6, -8908.404, 0.0000000000032348013, 10.002467, 9.991234 
4.6520317e+2, 2.4338499e+2, -584953.8, -696277.94, -5883.7207, 0.07425071, -0.08484731, -584643.7, -29823.564, 0.00000000000011301746, 10.002623, 9.987903 
4.652353e+2, 2.533729e+2, -477324.03, -598197.7, -6888.846, 0.05068112, -0.048619073, -476932.7, -19992.322, 0.0, 10.003476, 9.98749 
4.6526745e+2, 2.6336038e+2, -367121.53, -495434.97, -8599.32, 0.04474856, -0.032284454, -366547.78, -7484.5005, 0.0, 10.004357, 9.987385 
4.6529943e+2, 2.7334774e+2, -254351.83, -387569.63, -9500.324, 0.06951826, -0.056862798, -253677.72, 7507.5527, 0.0, 10.005247, 9.987626 
4.6533152e+2, 2.8333348e+2, -172830.36, -340425.47, -8258.908, 0.0814314, -0.07633389, -172424.36, -9099.926, 0.0, 10.005965, 9.983795 
4.653633e+2, 2.9331675e+2, -72936.15, -246137.23, -8416.224, 0.070676364, -0.08951124, -72528.15, -7039.491, 0.0, 10.006289, 9.983379 
4.6539614e+2, 3.0330426e+2, 47087.64, -63203.51, -2825.4521, 0.06854041, -0.09534233, 47159.977, 47159.977, 0.0, 10.006874, 9.992265 
4.6543038e+2, 3.132971e+2, 65480.35, -48238.625, -10241.111, 0.08008904, -0.09032908, 66395.266, 66395.266, 0.0, 10.007878, 9.9928 
4.7481427e+2, 1.2341019e+2, -1736953.5, -1720278.6, 1672.4009, -0.01212344, -0.03688339, -1720112.5, 10465.505, 0.007113215, 9.998219, 10.000428 
4.7484654e+2, 1.334105e+2, -1665938.8, -1639097.0, -8817.856, 0.06582622, -0.013768638, -1636459.5, -3883.8171, 0.004643645, 9.996557, 10.000093 
4.7487792e+2, 1.4341027e+2, -1592013.3, -1567788.8, -6760.0776, 0.053358927, 0.02044138, -1566030.0, -31452.252, 0.0025262511, 9.995568, 9.998756 
4.7491038e+2, 1.5340859e+2, -1489980.5, -1468674.0, -5732.2056, 0.061200384, -0.019618899, -1467229.8, -30636.66, 0.0010866441, 9.995875, 9.998677 
4.7494334e+2, 1.6340597e+2, -1386831.1, -1386899.8, 676.5034, 0.06346551, -0.06450455, -1386188.0, -47570.7, 0.00035438547, 9.997028, 9.997008 
4.7497752e+2, 1.7340246e+2, -1249734.5, -1270440.5, 6051.688, 0.060430378, -0.1139755, -1248095.5, -7445.07, 0.000085576154, 9.99971, 9.99696 
4.75011e+2, 1.8339829e+2, -1143819.0, -1198887.9, -557.0507, 0.056427967, -0.10374433, -1143813.4, -1121.9403, 0.000015172572, 10.001562, 9.994262 
4.7504336e+2, 1.9339347e+2, -1043030.44, -1102540.8, -8856.411, 0.049305484, 0.010534885, -1041740.4, 3000.5771, 0.0000019737136, 10.001881, 9.993985 
4.7507527e+2, 2.0338722e+2, -949880.94, -1021645.94, -14682.833, 0.0325778, 0.05491436, -946993.1, -190.2756, 0.00000018875323, 10.002185, 9.99267 
4.7510663e+2, 2.1337901e+2, -846452.7, -921045.0, -10204.947, -0.0015595902, -0.034816924, -845081.75, 3799.7603, 0.000000013307983, 10.002555, 9.992669 
4.7513887e+2, 2.2337039e+2, -757668.94, -845848.56, -3038.103, 0.0063429694, -0.08538239, -757564.4, -6599.9053, 0.00000000069387657, 10.00271, 9.991035 
4.751728e+2, 2.333616e+2, -663309.0, -750583.44, -3136.0513, 0.092794925, -0.060976766, -663196.44, -10146.719, 0.000000000009472845, 10.002498, 9.990947 
4.7520652e+2, 2.4335118e+2, -585234.06, -697555.75, -3335.6985, 0.14690328, -0.055961527, -585135.06, -29983.777, 0.00000000000033105902, 10.002654, 9.987797 
4.7523963e+2, 2.5333825e+2, -477656.34, -599244.7, -3710.5571, 0.13781364, -0.09490441, -477543.22, -20264.992, 0.000000000000000004361499, 10.003491, 9.987408 
4.7527266e+2, 2.6332533e+2, -367347.63, -496025.72, -5388.2427, 0.1282806, -0.11117621, -367122.4, -7718.057, 0.000000000000000025260425, 10.004364, 9.987337 
4.753052e+2, 2.7331316e+2, -254727.11, -388296.06, -6485.8887, 0.11928695, -0.08773066, -254412.9, 7110.225, 0.00000000000000010669206, 10.005247, 9.987572 
4.7533768e+2, 2.8329924e+2, -172157.55, -339136.9, -7189.128, 0.102395765, -0.071473174, -171848.61, -8189.1553, 0.00000000000000033199385, 10.005971, 9.983877 
4.753696e+2, 2.932827e+2, -71701.93, -244606.8, -8013.1357, 0.07294121, -0.07466059, -71331.36, -5509.1675, 0.00000000000000078039946, 10.006337, 9.983458 
4.75403e+2, 3.0326974e+2, 35882.89, -88238.67, -171.10571, 0.0662582, -0.060218062, 35883.125, 35883.125, 0.0000000000000014474501, 10.006955, 9.990502 
4.7543848e+2, 3.1326094e+2, 51506.137, -78850.51, -6888.851, 0.09922245, -0.0038436295, 51869.176, 51869.176, 0.0000000000000022339833, 10.007953, 9.990656 
4.8481128e+2, 1.2337677e+2, -1789783.9, -1752164.8, 3058.3433, 0.03336963, -0.041902535, -1751917.8, -21013.174, 0.01049777, 9.994895, 9.999882 
4.8484352e+2, 1.333765e+2, -1651648.3, -1638226.4, -9727.225, 0.05143607, -0.023860442, -1633119.8, -211.40202, 0.0068823104, 9.997783, 9.999555 
4.8487502e+2, 1.43376e+2, -1527555.9, -1534559.6, -8453.403, -0.0034177445, 0.0065251845, -1521907.8, 13005.892, 0.0037656925, 9.999865, 9.998921 
4.8490784e+2, 1.5337475e+2, -1421049.5, -1431780.5, -4393.858, -0.00305424, -0.018787041, -1419480.0, 17444.979, 0.0016323061, 10.000412, 9.9989805 
4.849414e+2, 1.6337241e+2, -1342022.1, -1365639.6, 1237.8364, 0.019337386, -0.05254762, -1341957.5, -3010.8826, 0.00053782034, 10.000094, 9.9969635 
4.8497674e+2, 1.7336883e+2, -1271871.3, -1282578.5, -1587.7587, 0.08505791, -0.098558195, -1271640.8, -30660.793, 0.00013162919, 9.998253, 9.996837 
4.8501113e+2, 1.8336418e+2, -1209454.8, -1238797.1, -9440.989, 0.12080316, -0.09580565, -1206679.6, -63654.516, 0.000023746588, 9.997432, 9.993543 
4.8504406e+2, 1.9335826e+2, -1097345.4, -1138208.3, -8510.041, 0.09805658, -0.009053971, -1095644.0, -50558.793, 0.0000031577385, 9.998571, 9.993163 
4.8507667e+2, 2.0335154e+2, -981373.8, -1033769.0, -9602.198, 0.0660225, 0.021881854, -979669.5, -32517.703, 0.00000031029586, 9.999893, 9.992956 
4.8510885e+2, 2.1334395e+2, -858364.06, -921313.5, -10535.96, 0.019834159, -0.05358255, -856647.44, -7423.108, 0.000000022599854, 10.001493, 9.993163 
4.851417e+2, 2.233357e+2, -758129.6, -848363.7, -9701.346, 0.013802877, -0.088957176, -757098.44, -5794.406, 0.000000001223376, 10.002769, 9.990831 
4.8517567e+2, 2.333267e+2, -651496.1, -748900.1, -10785.178, 0.080429174, -0.04988702, -650316.2, 3075.5823, 0.000000000023981296, 10.003472, 9.990586 
4.8520964e+2, 2.4331608e+2, -565515.4, -688514.5, -10034.271, 0.12794809, -0.041977312, -564702.1, -9206.743, 0.0000000000008389532, 10.004017, 9.98775 
4.8524356e+2, 2.5330296e+2, -465270.63, -593271.7, -9602.804, 0.13773012, -0.09953099, -464554.22, -6930.9653, 0.0000000000000001261701, 10.004331, 9.987406 
4.852773e+2, 2.632898e+2, -364900.8, -499399.06, -11476.709, 0.13847418, -0.12682825, -363928.53, -4176.903, 0.00000000000000073087254, 10.004716, 9.986933 
4.853105e+2, 2.7327716e+2, -258485.38, -395856.34, -15631.994, 0.1231094, -0.09832416, -256729.0, 5146.296, 0.0000000000000030875687, 10.005225, 9.987059 
4.853437e+2, 2.8326288e+2, -173237.98, -343016.38, -18633.932, 0.10403456, -0.0743521, -171216.89, -7201.6587, 0.000000000000009609587, 10.006032, 9.983571 
4.8537654e+2, 2.9324612e+2, -59267.902, -241841.1, -21796.65, 0.08000591, -0.07057417, -56701.758, 9478.125, 0.000000000000022592925, 10.007319, 9.983161 
4.8541078e+2, 3.0323246e+2, 51546.875, -90456.164, -12880.009, 0.069210246, -0.07450086, 52705.668, 52705.668, 0.00000000000004190963, 10.008435, 9.989628 
4.8544684e+2, 3.132227e+2, 60911.33, -85132.47, -12467.598, 0.08146846, -0.018029884, 61968.027, 61968.027, 0.000000000000064683685, 10.009042, 9.9897 
4.948075e+2, 1.2334345e+2, -1797823.8, -1765461.4, 12906.446, 0.17606583, -0.024879834, -1760944.6, -29714.117, 0.014911252, 9.994755, 9.99904 
4.948413e+2, 1.3334185e+2, -1658183.4, -1650813.0, 1149.4282, 0.048812985, -0.05672459, -1650637.9, -17390.854, 0.009830928, 9.997745, 9.99871 
4.94874e+2, 1.433409e+2, -1523811.3, -1527302.0, -5345.884, -0.100106075, -0.04014123, -1519933.1, 15323.83, 0.0054196375, 9.999889, 9.999399 
4.9490738e+2, 1.53341e+2, -1415421.8, -1420689.8, -2714.1536, -0.093748644, -0.0036119493, -1414273.6, 22982.617, 0.0023727028, 10.00044, 9.999719 
4.949409e+2, 1.633392e+2, -1348249.0, -1378752.8, -4653.726, -0.04501428, 0.011468907, -1347554.8, -8281.346, 0.00079196517, 10.000119, 9.996058 
4.9497497e+2, 1.7333463e+2, -1280701.9, -1300770.4, -8951.362, 0.08159152, -0.012727701, -1277289.4, -35972.62, 0.00019707251, 9.998268, 9.995591 
4.9500895e+2, 1.83329e+2, -1208479.9, -1236742.3, -7098.1914, 0.15808849, -0.04086861, -1206797.4, -63426.65, 0.000036298647, 9.997433, 9.993678 
4.9504304e+2, 1.9332221e+2, -1094203.6, -1132125.4, -4117.492, 0.13655141, -0.07971739, -1093761.6, -48324.89, 0.0000049503406, 9.99859, 9.993562 
4.950772e+2, 2.0331511e+2, -982084.2, -1035698.7, -3878.71, 0.1280348, -0.10261169, -981805.06, -34299.223, 0.00000050112493, 9.999912, 9.99281 
4.9511167e+2, 2.133081e+2, -859941.3, -924920.4, -4405.9976, 0.14887406, -0.09646703, -859643.9, -10069.786, 0.000000037748414, 10.001509, 9.992904 
4.9514568e+2, 2.2330002e+2, -760786.7, -854016.56, -6526.5396, 0.13726915, -0.08111355, -760332.0, -8678.998, 0.0000000021194788, 10.002776, 9.99044 
4.9517897e+2, 2.332905e+2, -654331.9, -755098.25, -8176.86, 0.062111203, -0.053458057, -653672.7, 74.10021, 0.00000000005330912, 10.003487, 9.990154 
4.9521264e+2, 2.4327968e+2, -565062.25, -688104.25, -8685.559, 0.023564324, -0.042054743, -564452.2, -8599.469, 0.000000000001871645, 10.004042, 9.987763 
4.9524707e+2, 2.5326696e+2, -464347.53, -591918.0, -8437.588, 0.057377115, -0.06643723, -463791.88, -5815.7285, 0.000000000000009575241, 10.0043545, 9.987486 
4.9528146e+2, 2.6325363e+2, -369611.5, -509989.78, -9638.527, 0.081770465, -0.08499679, -368952.8, -8846.937, 0.000000000000055453838, 10.004753, 9.986189 
4.953153e+2, 2.732397e+2, -264375.72, -409250.3, -13712.619, 0.084485896, -0.09075563, -263089.22, -847.2239, 0.0000000000002341752, 10.005278, 9.9861145 
4.953496e+2, 2.832245e+2, -176752.52, -351702.78, -14168.73, 0.086360745, -0.083663076, -175612.45, -11221.207, 0.0000000000007286158, 10.00609, 9.982945 
4.9538395e+2, 2.932072e+2, -62570.844, -250020.55, -16684.434, 0.08975721, -0.07446282, -61097.387, 5463.0103, 0.0000000000017125554, 10.007376, 9.982569 
4.954193e+2, 3.0319256e+2, 51299.777, -92166.98, -9692.7295, 0.0759383, -0.13224025, 51951.664, 51951.664, 0.0000000000031753393, 10.008492, 9.989477 
4.9545538e+2, 3.1318238e+2, 61446.09, -84509.53, -10147.458, 0.030814813, -0.112430766, 62148.203, 62148.203, 0.000000000004897224, 10.009069, 9.989725 
5.04803e+2, 1.233094e+2, -1771474.0, -1754925.1, 14054.204, 0.15434821, -0.01775843, -1746890.4, -15326.699, 0.020533854, 9.996629, 9.998837 
5.048385e+2, 1.3330731e+2, -1675855.9, -1661378.6, 7832.1807, 0.051837023, -0.08151135, -1657952.3, -24367.81, 0.013628187, 9.996615, 9.998546 
5.048726e+2, 1.4330593e+2, -1571195.1, -1556960.1, -1497.7628, -0.07693013, -0.07407514, -1556804.3, -21205.693, 0.0075791995, 9.996937, 9.998823 
5.049069e+2, 1.5330581e+2, -1457413.5, -1448795.3, -10019.816, -0.056726657, 0.0068644136, -1442197.3, -4596.036, 0.0033562193, 9.997901, 9.999034 
5.0494075e+2, 1.6330367e+2, -1367420.0, -1392834.8, -20120.086, -0.016026452, 0.046815246, -1356330.4, -16707.904, 0.0011366707, 9.999014, 9.995629 
5.0497407e+2, 1.7329858e+2, -1252179.9, -1291138.5, -18765.018, 0.06127511, 0.00841845, -1244611.6, -2940.971, 0.00028802847, 10.000388, 9.995212 
5.0500786e+2, 1.8329269e+2, -1148141.8, -1203217.6, -9371.977, 0.11114861, -0.039356597, -1146590.6, -2863.998, 0.000054231128, 10.001349, 9.994057 
5.050428e+2, 1.9328618e+2, -1046769.0, -1103218.8, -4806.9214, 0.107989654, -0.1046433, -1046362.56, -573.4754, 0.0000075890043, 10.001556, 9.994093 
5.0507796e+2, 2.0327917e+2, -956770.3, -1027751.06, -3875.525, 0.11850604, -0.13228329, -956559.3, -8702.579, 0.00000079091893, 10.001812, 9.992432 
5.051136e+2, 2.1327195e+2, -853321.56, -928243.0, -6574.2915, 0.15712757, -0.09258625, -852749.0, -2821.0217, 0.00000006148999, 10.002227, 9.992328 
5.051487e+2, 2.2326349e+2, -763445.1, -860798.5, -10983.25, 0.15385719, -0.062256083, -762221.44, -10210.143, 0.0000000035684378, 10.002823, 9.989949 
5.051827e+2, 2.3325329e+2, -652938.25, -759852.9, -13020.766, 0.07007291, -0.054736774, -651375.4, 2736.3462, 0.000000000106601436, 10.003806, 9.98967 
5.05217e+2, 2.4324222e+2, -553482.7, -679105.75, -13981.938, 0.026946483, -0.052719586, -551945.3, 4274.575, 0.0000000000037957758, 10.004676, 9.988069 
5.05252e+2, 2.5323004e+2, -446706.4, -578552.25, -11453.564, 0.06237203, -0.067121975, -445718.84, 12619.1045, 0.0000000000002126687, 10.005345, 9.987919 
5.052869e+2, 2.6321676e+2, -353819.25, -507273.72, -9769.3, 0.08549113, -0.086148426, -353199.8, 7267.0073, 0.0000000000012317329, 10.006038, 9.985754 
5.053213e+2, 2.732021e+2, -246695.23, -407948.22, -11679.37, 0.08114026, -0.10852386, -245853.7, 16757.078, 0.0000000000052015844, 10.006792, 9.985475 
5.0535643e+2, 2.8318647e+2, -154192.38, -341378.78, -7604.6787, 0.084340304, -0.0992902, -153883.94, 10879.595, 0.000000000016184465, 10.0076475, 9.982907 
5.0539213e+2, 2.931695e+2, -43510.65, -240392.86, -5676.5376, 0.10518919, -0.06423837, -43347.117, 23582.146, 0.000000000038037778, 10.008649, 9.982626 
5.0542843e+2, 3.0315444e+2, 63477.42, -89024.38, 1082.3119, 0.093746014, -0.15918168, 63485.1, 63485.1, 0.000000000070511263, 10.00943, 9.989259 
5.054646e+2, 3.13144e+2, 66833.19, -83288.49, -2067.6372, 0.02729985, -0.1375381, 66861.66, 66861.66, 0.0000000001086931, 10.009478, 9.989631 
5.1479757e+2, 1.23274684e+2, -1768587.9, -1748281.3, 13097.538, -0.053552844, -0.022447772, -1741862.5, -9958.545, 0.027554031, 9.996609, 9.999292 
5.148351e+2, 1.3327299e+2, -1673032.8, -1653991.9, 7199.2437, 0.05753334, -0.09747501, -1651576.3, -17656.86, 0.018419899, 9.996558, 9.999069 
5.1487106e+2, 1.4327118e+2, -1584467.9, -1582419.1, 1279.6469, 0.070983306, -0.09371983, -1581804.4, -45866.715, 0.010340942, 9.996865, 9.997123 
5.1490647e+2, 1.532692e+2, -1473611.4, -1480982.3, -6609.63, 0.11056392, 0.01288314, -1469729.1, -31769.219, 0.0046347342, 9.997858, 9.996861 
5.14941e+2, 1.6326581e+2, -1367330.1, -1392170.8, -15499.026, 0.10617865, 0.052771136, -1359888.9, -19894.635, 0.0015935765, 9.998996, 9.995677 
5.149741e+2, 1.7326067e+2, -1248434.3, -1283585.0, -13778.748, 0.022463694, -0.035909865, -1243676.9, -1634.8909, 0.00041132476, 10.000398, 9.995714 
5.1500785e+2, 1.8325527e+2, -1143420.4, -1193776.1, -8146.624, -0.022116508, -0.09212199, -1142135.3, 1957.8982, 0.00007915646, 10.001366, 9.994688 
5.150434e+2, 1.932501e+2, -1041798.06, -1093371.1, -4211.433, 0.011306368, -0.08502558, -1041456.44, 4686.162, 0.0000113579035, 10.001579, 9.994748 
5.1507896e+2, 2.0324367e+2, -960936.9, -1036694.9, -2644.4194, 0.038283955, -0.06943302, -960844.7, -12639.485, 0.0000012170423, 10.00183, 9.991811 
5.151147e+2, 2.1323542e+2, -859339.2, -941223.9, -5015.745, 0.049012307, -0.043662976, -859033.1, -8746.486, 0.000000097492624, 10.002256, 9.991425 
5.151506e+2, 2.2322601e+2, -767268.3, -868966.0, -7589.4814, 0.06680576, -0.033259477, -766705.0, -14325.773, 0.0000000058393734, 10.002833, 9.989385 
5.1518685e+2, 2.33215e+2, -656911.44, -767473.2, -8935.594, 0.0995705, -0.05399054, -656193.94, -1707.1204, 0.00000000019841896, 10.003779, 9.98916 
5.152227e+2, 2.4320365e+2, -550540.8, -671708.4, -10989.143, 0.12724538, -0.073231086, -549552.25, 7045.109, 0.000000000007634904, 10.004621, 9.988598 
5.152582e+2, 2.531921e+2, -442002.88, -567969.25, -8804.197, 0.14314578, -0.09802595, -441390.5, 17318.723, 0.0000000000039886605, 10.005309, 9.988657 
5.1529354e+2, 2.6317912e+2, -355077.22, -509592.47, -7036.814, 0.14186929, -0.12646946, -354757.4, 6077.875, 0.000000000023101169, 10.006026, 9.985598 
5.153284e+2, 2.7316406e+2, -249613.31, -413629.78, -8927.199, 0.107602425, -0.14923982, -249128.84, 13854.308, 0.00000000009755803, 10.006774, 9.985093 
5.1536417e+2, 2.8314865e+2, -151420.36, -335185.47, -4225.025, 0.09452078, -0.11877692, -151323.28, 13810.9795, 0.000000000303523, 10.007629, 9.9833355 
5.15401e+2, 2.9313266e+2, -40199.41, -232603.05, -2350.64, 0.12431991, -0.039621238, -40170.7, 27119.475, 0.00000000071315065, 10.008611, 9.983172 
5.1543814e+2, 3.0311748e+2, 60443.824, -94458.99, 1536.108, 0.11930446, -0.16103193, 60459.06, 60459.06, 0.0000000013213384, 10.009405, 9.98889 
5.154745e+2, 3.1310698e+2, 65090.168, -86744.7, -2661.45, 0.061166395, -0.09345381, 65136.805, 65136.805, 0.0000000020352628, 10.009491, 9.989377 
5.24795e+2, 1.2323868e+2, -1724468.3, -1723453.5, 1631.0411, -0.110470414, -0.021338498, -1722252.8, 10004.3545, 0.036176804, 9.999458, 9.999609 
5.248325e+2, 1.3323757e+2, -1643102.1, -1635361.5, -5563.1177, 0.041322887, -0.07726733, -1632454.9, 1811.7003, 0.024365017, 9.998405, 9.9994335 
5.248684e+2, 1.4323552e+2, -1577124.3, -1588842.9, -6067.161, 0.0772197, -0.07996512, -1574549.0, -38262.496, 0.013811107, 9.997792, 9.996227 
5.2490455e+2, 1.5323207e+2, -1479434.6, -1496799.0, -5750.366, 0.1204992, -0.0077017937, -1477703.0, -39380.098, 0.0062664114, 9.998019, 9.9957075 
5.2493995e+2, 1.6322787e+2, -1370781.1, -1391987.5, -7181.6226, 0.115669854, 0.013119719, -1368577.9, -28212.896, 0.002187711, 9.99867, 9.9958515 
5.2497435e+2, 1.732233e+2, -1249118.4, -1278901.6, -5311.6294, 0.02445088, -0.06445724, -1248199.4, -5791.703, 0.0005752219, 10.000119, 9.996174 
5.250092e+2, 1.832182e+2, -1147167.8, -1199318.8, -6331.4517, -0.024364268, -0.100488596, -1146410.0, -1954.0498, 0.00011314291, 10.001266, 9.99436 
5.250451e+2, 1.9321294e+2, -1041424.56, -1098838.0, -11625.671, 0.008556914, -0.05761776, -1039159.8, 7347.693, 0.000016648359, 10.001843, 9.994242 
5.2508104e+2, 2.0320621e+2, -955642.8, -1037812.1, -14135.205, 0.03571501, -0.027846536, -953279.2, -4705.7056, 0.0000018353236, 10.002344, 9.991475 
5.2511734e+2, 2.1319738e+2, -852995.56, -941448.6, -12278.918, 0.04859951, -0.02986049, -851322.6, -662.63934, 0.00000015174481, 10.00282, 9.991133 
5.251535e+2, 2.2318773e+2, -764254.9, -863043.4, -10796.078, 0.07336274, -0.042946838, -763088.8, -10334.332, 0.000000009413526, 10.002836, 9.989788 
5.2518994e+2, 2.3317714e+2, -678464.94, -771800.94, -4920.625, 0.12154567, -0.07558956, -678206.2, -23348.633, 0.00000000035784709, 10.002031, 9.989718 
5.2522635e+2, 2.4316613e+2, -587143.1, -690273.0, -113.83989, 0.15523265, -0.090686284, -587143.0, -30178.344, 0.00000000002014928, 10.002137, 9.988541 
5.252631e+2, 2.5315467e+2, -460171.72, -579367.6, -3563.3496, 0.1594625, -0.08479993, -460065.28, -988.9791, 0.000000000054994186, 10.004162, 9.988435 
5.252995e+2, 2.6314163e+2, -360791.38, -515999.94, -8220.53, 0.14871839, -0.098889664, -360357.2, 846.7275, 0.00000000031851738, 10.0057745, 9.985283 
5.253351e+2, 2.7312607e+2, -255897.67, -421143.25, -10733.982, 0.10923015, -0.13251247, -255203.34, 8153.36, 0.000000001345189, 10.006518, 9.984706 
5.253717e+2, 2.831105e+2, -157553.61, -338322.38, -7114.91, 0.09758531, -0.094852604, -157274.02, 8235.257, 0.0000000041848507, 10.007202, 9.983325 
5.254093e+2, 2.9309475e+2, -52670.01, -238401.78, -8657.592, 0.14079796, 0.0058798688, -52267.324, 15395.352, 0.000000009829297, 10.007733, 9.983191 
5.254472e+2, 3.0307898e+2, 44047.25, -105217.76, -7694.792, 0.13729243, -0.1655523, 44442.875, 44442.875, 0.000000018203474, 10.008387, 9.988635 
5.254837e+2, 3.1306848e+2, 57030.813, -88466.02, -11361.37, 0.07061957, -0.06972178, 57912.637, 57912.637, 0.00000002802278, 10.008831, 9.98957 
5.347955e+2, 1.2320148e+2, -1723965.6, -1721912.4, -3005.5925, -0.008097723, -0.01214416, -1719762.9, 12859.923, 0.046640746, 9.999455, 9.999724 
5.348305e+2, 1.3320102e+2, -1642298.9, -1633167.3, -10250.393, 0.0021298258, -0.018905982, -1626511.8, 8113.931, 0.031651113, 9.998397, 9.999592 
5.348647e+2, 1.4319894e+2, -1577772.4, -1589590.0, -6613.62, -0.06654179, -0.031386938, -1574812.5, -38167.223, 0.018118156, 9.997778, 9.996178 
5.34901e+2, 1.5319444e+2, -1480412.8, -1498350.1, -5229.7563, -0.035395835, -0.055551212, -1478999.4, -40309.215, 0.008324205, 9.998007, 9.995603 
5.349375e+2, 1.631899e+2, -1368858.5, -1387801.6, -2763.1108, 0.0050104745, -0.07323959, -1368463.8, -27728.902, 0.002952043, 9.998664, 9.996133 
5.3497493e+2, 1.7318644e+2, -1246490.1, -1273412.3, -55.860237, 0.06418291, -0.0772345, -1246490.0, -3722.3093, 0.0007912693, 10.000119, 9.99654 
5.350117e+2, 1.8318151e+2, -1156139.5, -1217942.3, -3907.192, 0.10212958, -0.06466098, -1155893.4, -11077.866, 0.00015928308, 10.001277, 9.993082 
5.350478e+2, 1.9317462e+2, -1052941.3, -1122809.4, -9703.746, 0.09514188, -0.02367093, -1051618.5, -4734.3687, 0.000024088198, 10.00186, 9.992596 
5.3508407e+2, 2.0316674e+2, -955959.44, -1038542.8, -12412.079, 0.10424492, -0.008339824, -954134.25, -5172.5093, 0.000002741792, 10.002351, 9.991418 
5.3512114e+2, 2.1315777e+2, -850828.94, -937073.25, -10334.628, 0.1476823, -0.050561674, -849607.8, 1440.5331, 0.00000023528644, 10.0028305, 9.99142 
5.3515726e+2, 2.2314854e+2, -754974.1, -843998.25, -12888.733, 0.16643818, -0.0899669, -753145.7, -7.9541883, 0.00000001527579, 10.002847, 9.991082 
5.351921e+2, 2.3313951e+2, -666744.2, -749037.1, -8022.1978, 0.13549483, -0.1175292, -665969.44, -10743.836, 0.0000000006876729, 10.002102, 9.991238 
5.352281e+2, 2.4312946e+2, -590074.3, -698449.25, 5358.1685, 0.11489648, -0.10546017, -589810.0, -32485.998, 0.00000000013050928, 10.002223, 9.987938 
5.3526676e+2, 2.531176e+2, -467358.72, -595207.56, 4076.17, 0.116350986, -0.032096192, -467228.88, -7787.8438, 0.00000000061261174, 10.004195, 9.987332 
5.3530484e+2, 2.6310405e+2, -364271.5, -523407.22, -4797.216, 0.10942169, -0.010334965, -364127.0, -2552.6277, 0.0000000034131877, 10.005781, 9.984771 
5.353414e+2, 2.7308786e+2, -259023.11, -427441.6, -8055.0083, 0.087211005, -0.065276995, -258638.73, 5094.743, 0.000000014339295, 10.006508, 9.984278 
5.353788e+2, 2.8307185e+2, -160538.56, -343962.84, -4860.9004, 0.09334518, -0.03451938, -160409.84, 5480.5825, 0.00000004456666, 10.007177, 9.982949 
5.354172e+2, 2.930557e+2, -56167.492, -244694.14, -6328.48, 0.15296438, 0.068803795, -55955.297, 12092.051, 0.00000010462058, 10.007691, 9.982778 
5.354557e+2, 3.030389e+2, 42213.043, -108105.76, -5059.7036, 0.14694944, -0.17161436, 42383.16, 42383.16, 0.00000019365781, 10.008361, 9.9884405 
5.354924e+2, 3.1302875e+2, 60920.055, -79704.93, -9073.793, 0.05727292, -0.0320881, 61503.12, 61503.12, 0.0000002979929, 10.008818, 9.990169 
5.447935e+2, 1.2316318e+2, -1770729.8, -1742252.6, -8753.448, 0.007238942, -0.01581543, -1739777.1, -6778.9863, 0.05923043, 9.996151, 9.999918 
5.448286e+2, 1.3316305e+2, -1646249.1, -1632166.1, -14293.52, -0.0069605545, -0.015736165, -1623273.8, 11723.821, 0.04050611, 9.997992, 9.9998665 
5.448631e+2, 1.4316112e+2, -1551421.4, -1575218.9, -9554.502, -0.09365862, -0.035893727, -1548060.1, -11044.566, 0.023422668, 9.99949, 9.99632 
5.448999e+2, 1.5315656e+2, -1447137.4, -1481161.8, -6731.789, -0.05159247, -0.0757954, -1445854.0, -6793.745, 0.010902844, 10.000216, 9.995697 
5.44937e+2, 1.631519e+2, -1345423.8, -1381240.9, -5946.2637, 0.003322701, -0.09242023, -1344462.4, -3356.4578, 0.003931351, 10.000459, 9.995705 
5.4497504e+2, 1.7314826e+2, -1254743.8, -1283510.0, -10124.734, 0.079923026, -0.06306933, -1251537.5, -8395.912, 0.0010759312, 9.999814, 9.995992 
5.4501235e+2, 1.83143e+2, -1184477.6, -1235046.4, -14800.696, 0.12579659, -0.03644417, -1180464.1, -35271.035, 0.0002222064, 9.999481, 9.992781 
5.450489e+2, 1.9313563e+2, -1083049.9, -1140187.4, -10439.497, 0.110172585, -0.01972629, -1081202.3, -33935.906, 0.000034663048, 9.999914, 9.992357 
5.4508555e+2, 2.0312761e+2, -980635.5, -1045341.44, -5217.166, 0.1140513, -0.02347719, -980217.56, -30872.33, 0.0000040952496, 10.000432, 9.991894 
5.451233e+2, 2.1311921e+2, -870194.06, -939378.7, -522.80884, 0.15926051, -0.07374443, -870190.1, -18764.096, 0.0000003684296, 10.001188, 9.992071 
5.4516e+2, 2.2311038e+2, -762625.56, -849308.2, -5626.024, 0.17163658, -0.10629877, -762261.94, -8750.393, 0.000000026358547, 10.002381, 9.990953 
5.4519534e+2, 2.3310143e+2, -632678.6, -736219.06, -13601.562, 0.11717717, -0.09662529, -630921.7, 24677.822, 0.000000002329573, 10.004575, 9.990913 
5.45232e+2, 2.4309114e+2, -538957.4, -680582.75, -7433.3267, 0.08531749, -0.064053275, -538568.3, 19132.367, 0.0000000015638275, 10.0060005, 9.987321 
5.4527175e+2, 2.530784e+2, -444844.03, -592162.1, -5712.1064, 0.099901706, -0.009969441, -444622.88, 15203.195, 0.0000000055627165, 10.006056, 9.986635 
5.453108e+2, 2.6306444e+2, -355658.66, -513555.9, -11423.557, 0.110008, -0.010096213, -354836.47, 7126.68, 0.000000028366069, 10.006114, 9.985279 
5.4534805e+2, 2.730488e+2, -255874.3, -417294.8, -6974.425, 0.11177647, -0.082192354, -255573.52, 8543.078, 0.00000011761462, 10.006348, 9.985048 
5.453859e+2, 2.8303343e+2, -167440.5, -344669.16, 2577.5938, 0.11883388, -0.04597606, -167403.02, -1135.8596, 0.0000003647328, 10.0065775, 9.9832 
5.454241e+2, 2.930177e+2, -68918.41, -250538.9, 4156.207, 0.12854828, 0.0886351, -68823.34, -402.87634, 0.00000085578625, 10.006778, 9.982839 
5.454631e+2, 3.030006e+2, 32049.428, -107632.195, 10103.585, 0.100158446, -0.20111138, 32776.465, 32776.465, 0.0000015835924, 10.007384, 9.9889765 
5.455011e+2, 3.1299144e+2, 64237.37, -59901.348, 10381.472, 0.07202039, -0.034062557, 65099.566, 65099.566, 0.0000024360013, 10.008207, 9.991865 
5.547887e+2, 1.23123884e+2, -1771449.1, -1739879.0, -4148.0176, -0.0804898, -0.03376345, -1739343.1, -5961.293, 0.07429232, 9.995989, 10.000149 
5.548268e+2, 1.3312377e+2, -1644784.4, -1627458.4, -7732.3745, 0.012900181, -0.06994484, -1624509.5, 10871.935, 0.051209517, 9.99791, 10.000227 
5.548635e+2, 1.4312209e+2, -1549728.4, -1570947.9, -6566.8657, 0.00043998237, -0.09582575, -1547860.5, -10463.584, 0.02992419, 9.999462, 9.996615 
5.549014e+2, 1.531185e+2, -1445327.8, -1477151.4, -4565.445, 0.0747335, -0.068160005, -1444685.8, -5253.031, 0.014122313, 10.000209, 9.995966 
5.549386e+2, 1.6311394e+2, -1353461.9, -1397901.8, -8016.083, 0.11114232, -0.042862028, -1352060.1, -10582.077, 0.0051837345, 10.000476, 9.994558 
5.5497473e+2, 1.7310877e+2, -1264966.6, -1304793.9, -13070.362, 0.07020997, -0.02206204, -1261060.4, -17531.166, 0.001451182, 9.999837, 9.994528 
5.5501103e+2, 1.8310271e+2, -1179510.9, -1225274.1, -14277.136, 0.04418556, -0.015928425, -1175422.0, -29833.133, 0.00030831332, 9.999508, 9.993427 
5.550482e+2, 1.93096e+2, -1074557.4, -1123331.1, -8977.403, 0.052587498, -0.044116516, -1072957.5, -25303.1, 0.000049822782, 9.999949, 9.993483 
5.5508554e+2, 2.0308878e+2, -973210.06, -1030721.4, -2827.7449, 0.06572696, -0.0712, -973071.4, -23346.963, 0.000006177423, 10.000464, 9.99287 
5.5512375e+2, 2.1308155e+2, -862682.7, -924983.8, 2103.466, 0.085775666, -0.09923567, -862611.75, -10817.397, 0.0000006214687, 10.001241, 9.993022 
5.5516154e+2, 2.2307307e+2, -772485.5, -870518.44, 1383.2045, 0.090957895, -0.094437115, -772465.94, -18588.463, 0.00000007843842, 10.002412, 9.989489 
5.551993e+2, 2.3306279e+2, -647340.94, -766183.06, -5209.945, 0.06602507, -0.018898418, -647113.0, 8866.99, 0.000000033023888, 10.004555, 9.988872 
5.552377e+2, 2.4305117e+2, -544370.56, -690319.1, -5766.7305, 0.06257933, 0.027759146, -544143.06, 13951.475, 0.000000030529083, 10.005938, 9.986685 
5.552778e+2, 2.530371e+2, -448056.3, -597362.9, -5233.4956, 0.104451776, -0.014330558, -447873.1, 12357.775, 0.000000053865865, 10.005996, 9.986308 
5.553173e+2, 2.630228e+2, -346592.66, -493323.28, -10366.073, 0.14287387, -0.08940168, -345863.94, 16506.01, 0.00000019406158, 10.006049, 9.986693 
5.5535495e+2, 2.7300882e+2, -243911.58, -390992.13, -6034.357, 0.17396681, -0.1735932, -243664.42, 20842.623, 0.0000007494229, 10.006276, 9.986884 
5.55393e+2, 2.8299507e+2, -162796.16, -333973.7, 2976.175, 0.16707535, -0.11729393, -162744.42, 3897.001, 0.0000022942224, 10.006536, 9.983949 
5.5543035e+2, 2.9298034e+2, -66469.805, -245330.67, 4482.1772, 0.0711792, 0.07241882, -66357.555, 2428.2715, 0.0000053700915, 10.006775, 9.983192 
5.5546945e+2, 3.0296344e+2, 38594.9, -93863.45, 12215.961, 0.0038355386, -0.25169924, 39712.094, 39712.094, 0.000009930988, 10.007389, 9.989907 
5.555096e+2, 3.1295592e+2, 79608.53, -24824.248, 11556.055, 0.10570063, -0.043121092, 80871.984, 80871.984, 0.000015272311, 10.008093, 9.994313 
5.6478596e+2, 1.2308466e+2, -1734909.0, -1725319.1, 1083.2352, -0.07819849, -0.06368494, -1725198.3, 8566.323, 0.092263974, 9.998564, 9.999947 
5.648252e+2, 1.3308465e+2, -1635969.1, -1624680.9, -4675.779, 0.036807068, -0.077685, -1622995.8, 12768.044, 0.06411256, 9.998552, 10.000122 
5.648628e+2, 1.4308292e+2, -1564111.5, -1580904.0, -9189.919, 0.025188116, -0.09342575, -1560059.8, -22279.35, 0.037873123, 9.998601, 9.996358 
5.64901e+2, 1.5307902e+2, -1469091.5, -1492463.3, -12289.73, 0.08610396, -0.06508598, -1463818.6, -23999.502, 0.018134005, 9.998751, 9.995626 
5.649385e+2, 1.6307414e+2, -1372104.5, -1408789.9, -16090.865, 0.10963516, -0.042672843, -1366047.0, -24179.447, 0.0067838538, 9.999281, 9.994391 
5.6497484e+2, 1.7306878e+2, -1255020.6, -1301268.9, -11511.879, 0.059057955, -0.03158911, -1252313.6, -8392.998, 0.0019465181, 10.000566, 9.994416 
5.650114e+2, 1.8306272e+2, -1147435.6, -1204557.5, -7335.3325, 0.029355422, -0.035480477, -1146508.6, -528.5737, 0.0004271738, 10.00147, 9.99389 
5.6504893e+2, 1.930565e+2, -1045562.8, -1102639.9, -5969.6904, 0.042538937, -0.07341242, -1044945.1, 3095.2522, 0.000072482326, 10.001638, 9.994074 
5.650867e+2, 2.0304956e+2, -950769.56, -1023300.8, -3914.5513, 0.053451132, -0.09294863, -950558.9, -451.04175, 0.000010125155, 10.002141, 9.992557 
5.651259e+2, 2.1304227e+2, -832563.75, -916264.75, -9058.506, 0.057262808, -0.07852981, -831594.6, 20584.93, 0.0000016710115, 10.003543, 9.992485 
5.651646e+2, 2.2303334e+2, -752694.4, -869798.94, -15938.703, 0.068346106, -0.052175798, -750563.75, 3703.94, 0.00000068200717, 10.004133, 9.9886875 
5.6520355e+2, 2.3302199e+2, -671844.44, -787695.3, -14861.118, 0.094924755, 0.00028485578, -669968.5, -13587.951, 0.0000005182133, 10.003279, 9.988015 
5.652426e+2, 2.4300994e+2, -583770.06, -700451.4, -6929.491, 0.11035671, 0.021075726, -583360.0, -24861.053, 0.00000047288023, 10.00284, 9.987494 
5.652826e+2, 2.529967e+2, -472782.6, -595722.1, 4322.206, 0.098748684, -0.05322575, -472630.8, -12005.017, 0.00000055615567, 10.0037, 9.987543 
5.6532216e+2, 2.629832e+2, -368513.53, -500879.03, 2185.1465, 0.110439114, -0.13790524, -368477.47, -5720.7705, 0.000001186909, 10.004391, 9.987001 
5.653606e+2, 2.7296972e+2, -263280.5, -400347.06, -5304.936, 0.17683494, -0.17401657, -263075.47, 1814.3281, 0.0000037901978, 10.004924, 9.986907 
5.653992e+2, 2.8295657e+2, -173925.86, -337396.3, -3911.976, 0.1815496, -0.07612452, -173832.3, -6812.793, 0.000011143964, 10.005645, 9.984154 
5.654369e+2, 2.9294187e+2, -64202.203, -243487.22, -3765.9417, 0.040561687, 0.106542565, -64123.133, 5040.44, 0.000025880878, 10.006874, 9.983268 
5.654764e+2, 3.029242e+2, 37653.254, -99571.18, -3946.7473, -0.04573122, -0.27313548, 37766.67, 37766.67, 0.000047783207, 10.007548, 9.989423 
5.6551695e+2, 3.1291708e+2, 57263.453, -23519.707, -17507.85, 0.13314746, 0.022209343, 60894.65, 60894.65, 0.00007346191, 10.006023, 9.995377 
5.7478553e+2, 1.2304579e+2, -1741243.0, -1735625.5, -926.12286, 0.018815547, -0.10468775, -1735476.8, -1333.2434, 0.11375035, 9.998495, 9.999216 
5.7482404e+2, 1.3304596e+2, -1641842.4, -1634117.6, -5707.5566, 0.06536093, -0.03742676, -1631088.4, 5054.282, 0.07970575, 9.998467, 9.999488 
5.7486093e+2, 1.4304374e+2, -1571544.0, -1594331.9, -9513.264, -0.024011409, -0.025850113, -1568094.6, -29929.943, 0.047626078, 9.998532, 9.995474 
5.7489866e+2, 1.5303822e+2, -1476791.0, -1507186.4, -12413.583, -0.024737325, -0.065846674, -1472365.6, -32146.947, 0.023162264, 9.9987135, 9.994638 
5.7493657e+2, 1.6303255e+2, -1366674.4, -1397201.4, -12644.3125, -0.008254991, -0.09227506, -1362117.3, -19843.338, 0.0088518765, 9.99927, 9.995174 
5.7497525e+2, 1.7302828e+2, -1246247.3, -1283173.5, -7089.533, 0.043822363, -0.091379076, -1244932.9, -617.2945, 0.0026184905, 10.000572, 9.995634 
5.7501334e+2, 1.8302304e+2, -1145342.4, -1200475.3, -6473.246, 0.07910947, -0.09476967, -1144592.5, 1774.2476, 0.0006049456, 10.001488, 9.994153 
5.750509e+2, 1.9301713e+2, -1044984.25, -1102027.6, -5846.046, 0.075435415, -0.109369725, -1044391.3, 4033.4836, 0.000116732954, 10.001674, 9.994092 
5.7508904e+2, 2.0300993e+2, -961355.94, -1045643.8, 50.077198, 0.07134038, -0.09191982, -961355.94, -10860.099, 0.00002537169, 10.002165, 9.991017 
5.751295e+2, 2.1300139e+2, -846317.44, -944569.94, -3806.583, 0.06790766, -0.015696928, -846170.2, 6411.27, 0.000010742057, 10.003542, 9.990548 
5.751691e+2, 2.2299129e+2, -754416.06, -872735.4, -17688.49, 0.09626299, 0.018479213, -751828.25, 2853.273, 0.000007727067, 10.00411, 9.988498 
5.752078e+2, 2.3297909e+2, -669932.5, -783946.2, -17983.635, 0.19380625, -0.033362355, -667163.2, -10362.614, 0.000006518689, 10.003297, 9.988261 
5.752465e+2, 2.4296738e+2, -568530.94, -669795.3, -4868.5054, 0.21891992, -0.075516075, -568297.44, -9383.217, 0.0000059405215, 10.002872, 9.989572 
5.7528615e+2, 2.5295693e+2, -454257.7, -557997.9, 7361.8574, 0.081954345, -0.12377004, -453737.88, 7275.8105, 0.000005930241, 10.003721, 9.990109 
5.753256e+2, 2.6294523e+2, -373167.84, -511209.44, 3344.166, 0.016542219, -0.15916397, -373086.88, -9959.1, 0.000007746616, 10.004418, 9.986279 
5.75365e+2, 2.7293122e+2, -273331.13, -423003.1, -4220.8975, 0.12381527, -0.09594468, -273212.2, -7943.8115, 0.000016547985, 10.005004, 9.985314 
5.7540464e+2, 2.829176e+2, -175404.88, -341592.63, -834.1917, 0.162811, 0.058742724, -175400.69, -7996.7207, 0.000042830536, 10.005683, 9.983848 
5.754437e+2, 2.9290217e+2, -66827.57, -246108.27, 838.00385, 0.027518472, 0.18131737, -66823.65, 2731.243, 0.00009666308, 10.006742, 9.983151 
5.7548386e+2, 3.0288303e+2, 23763.129, -124510.484, -7024.612, -0.060210273, -0.26777634, 24095.184, 24095.184, 0.0001773277, 10.0074, 9.987777 
5.7552314e+2, 3.1287554e+2, 58832.984, -22793.262, -23669.783, 0.15206122, 0.17389677, 65200.043, 65200.043, 0.00027223525, 10.006163, 9.995351 
5.84783e+2, 1.2300542e+2, -1771389.3, -1754774.0, -9074.756, 0.013123567, -0.13298555, -1750778.5, -16240.977, 0.13972634, 9.996629, 9.998822 
5.848226e+2, 1.3300537e+2, -1642537.0, -1639629.8, -10625.276, 0.068619356, -0.04292846, -1630359.1, 6180.4814, 0.09881993, 9.998653, 9.999016 
5.848603e+2, 1.4300303e+2, -1543291.3, -1580129.9, -12785.271, -0.024015713, -0.01477244, -1539288.9, -725.68756, 0.05983592, 10.000432, 9.995505 
5.848984e+2, 1.529974e+2, -1436663.1, -1485776.4, -7845.216, -0.045207825, -0.08101338, -1435440.5, 5177.177, 0.029672349, 10.0013685, 9.994803 
5.8493674e+2, 1.629917e+2, -1330309.9, -1378819.9, -5799.718, -0.033273347, -0.1226208, -1329626.1, 13046.882, 0.011691527, 10.001723, 9.99524 
5.849761e+2, 1.729876e+2, -1239373.0, -1279663.4, -9396.437, 0.043479696, -0.1086825, -1237289.4, 7423.862, 0.0036587194, 10.001031, 9.995647 
5.850146e+2, 1.8298239e+2, -1158882.1, -1210476.5, -16016.432, 0.09253106, -0.09659198, -1154314.5, -7550.066, 0.00096823776, 10.000707, 9.993843 
5.850525e+2, 1.9297627e+2, -1053003.3, -1110470.6, -18841.12, 0.080393106, -0.09338116, -1047376.94, 1448.1693, 0.00027464316, 10.001318, 9.993676 
5.8509094e+2, 2.0296869e+2, -974710.2, -1057583.6, -12085.053, 0.075095646, -0.068615764, -972983.8, -22083.566, 0.0001245244, 10.001477, 9.990528 
5.851319e+2, 2.129595e+2, -889622.6, -971232.06, -5940.271, 0.08625722, -0.007789903, -889192.5, -36200.72, 0.00008764575, 10.000818, 9.990052 
5.851719e+2, 2.2294897e+2, -796199.4, -889810.06, -10716.151, 0.11960489, 0.0045514517, -794988.3, -39892.645, 0.00007192766, 10.001117, 9.988786 
5.852114e+2, 2.32937e+2, -658944.75, -772710.3, -8684.254, 0.20089386, -0.07805738, -658285.6, -1073.5448, 0.00006280981, 10.003786, 9.988797 
5.852507e+2, 2.4292555e+2, -534608.94, -655825.4, -3711.2593, 0.22252414, -0.11541101, -534495.44, 24827.688, 0.000057885147, 10.0052805, 9.989371 
5.8529073e+2, 2.529155e+2, -441292.3, -555970.94, -11832.406, 0.110182315, -0.08849437, -440084.2, 21335.83, 0.00005524003, 10.004772, 9.989728 
5.853305e+2, 2.6290366e+2, -370690.25, -515363.63, -23926.975, 0.043821447, -0.096233, -366835.75, -3299.5396, 0.000055795477, 10.004782, 9.985803 
5.853706e+2, 2.728884e+2, -250401.53, -417383.78, -23110.486, 0.09307095, -0.10617501, -247262.05, 18426.352, 0.000073320676, 10.006772, 9.984837 
5.854107e+2, 2.8287467e+2, -145852.27, -315997.94, -18495.809, 0.117165856, 0.018445127, -143864.89, 23959.715, 0.00014003717, 10.007214, 9.984853 
5.854495e+2, 2.92861e+2, -90091.09, -243336.4, -8916.778, 0.05731077, 0.194793, -89574.01, -19616.105, 0.00028782955, 10.004512, 9.984427 
5.854901e+2, 3.0284172e+2, -31139.406, -170903.4, -2417.4316, -0.023435112, -0.27081382, -31097.605, -31097.605, 0.00051568006, 10.004431, 9.986044 
5.8553034e+2, 3.1283182e+2, 101029.34, -5461.2046, -21018.656, 0.09303493, 0.15208673, 105027.79, 105027.79, 0.0007868467, 10.009139, 9.995123 
5.9477836e+2, 1.2296386e+2, -1775448.4, -1757848.1, -5621.1733, -0.106303394, -0.14592472, -1756206.0, -21262.494, 0.17203061, 9.996406, 9.998713 
5.94821e+2, 1.3296312e+2, -1646465.6, -1645385.3, -4229.6323, 0.04105138, -0.09487926, -1641661.4, -4709.029, 0.1231772, 9.998546, 9.99864 
5.9486127e+2, 1.4296097e+2, -1537181.1, -1565979.1, -9376.294, 0.024478968, -0.061577838, -1534397.4, 4576.8013, 0.07603565, 10.000401, 9.996472 
5.9490055e+2, 1.5295678e+2, -1427884.9, -1466235.6, -5392.698, 0.02564757, -0.1128202, -1427141.1, 13873.104, 0.038946234, 10.001349, 9.996132 
5.9493923e+2, 1.629518e+2, -1335312.1, -1388951.5, -8194.535, 0.03408812, -0.13441126, -1334088.3, 8974.392, 0.01631751, 10.001729, 9.994542 
5.9497726e+2, 1.729469e+2, -1248175.6, -1297754.9, -12883.064, 0.0555744, -0.08443267, -1245027.9, 84.07107, 0.0058526634, 10.001043, 9.994405 
5.9501505e+2, 1.8294086e+2, -1165288.0, -1223950.6, -15258.893, 0.06643943, -0.042370975, -1161556.3, -14383.884, 0.0021363639, 10.00073, 9.992907 
5.950536e+2, 1.9293399e+2, -1058716.0, -1122792.4, -16901.59, 0.055428833, -0.026160588, -1054531.1, -5290.37, 0.0010543439, 10.001353, 9.992811 
5.950923e+2, 2.0292588e+2, -970782.2, -1050029.6, -14189.774, 0.0620887, -0.021863036, -968318.06, -16997.234, 0.0007383126, 10.001511, 9.991024 
5.9513295e+2, 2.1291661e+2, -882926.3, -958650.9, -8921.558, 0.10796075, -0.050995495, -881889.4, -28478.574, 0.00060424325, 10.000885, 9.990873 
5.951732e+2, 2.2290632e+2, -790224.06, -878607.8, -3267.1846, 0.13519971, -0.08926395, -790103.44, -34592.387, 0.0005201035, 10.00116, 9.989524 
5.952144e+2, 2.328955e+2, -653191.56, -761354.4, 1495.1472, 0.1196316, -0.13407882, -653170.9, 4446.151, 0.00046597136, 10.0038, 9.989559 
5.9525496e+2, 2.4288425e+2, -550892.5, -689113.5, -3648.9148, 0.124636754, -0.10524578, -550796.25, 8931.367, 0.00043558553, 10.005265, 9.987105 
5.9529614e+2, 2.5287244e+2, -463341.5, -600289.2, -13791.207, 0.1737894, 0.03924713, -461966.47, -122.0463, 0.00041304855, 10.004721, 9.986726 
5.953366e+2, 2.6285875e+2, -374571.8, -520658.34, -18230.174, 0.17496487, 0.039728038, -372331.22, -8351.67, 0.00038235064, 10.004643, 9.985512 
5.9537727e+2, 2.7284163e+2, -248699.78, -411525.72, -14832.005, 0.078907445, -0.19111915, -247359.75, 18786.97, 0.00036756735, 10.006653, 9.985294 
5.954172e+2, 2.828281e+2, -132232.75, -285587.0, -25299.436, 0.04326052, -0.1704911, -128166.805, 40111.984, 0.000456546, 10.007116, 9.986991 
5.9545463e+2, 2.928183e+2, -74805.26, -209340.3, -19744.428, 0.11952926, 0.15284488, -71967.42, -1593.1401, 0.0007430279, 10.004421, 9.986805 
5.954952e+2, 3.0279994e+2, -46398.414, -199769.22, 9294.58, 0.051919956, -0.2821534, -45837.195, -45837.195, 0.0012328529, 10.004297, 9.984122 
5.955381e+2, 3.1278595e+2, 96224.02, -12973.916, -3533.3923, -0.04392935, 0.012329482, 96338.24, 96338.24, 0.0018376461, 10.009034, 9.994638 
6.047775e+2, 1.2292415e+2, -1710932.6, -1729457.4, 10341.8545, -0.073347375, -0.14705665, -1706311.8, 29019.627, 0.21415175, 10.001435, 9.998313 
6.0482025e+2, 1.329223e+2, -1630468.5, -1649076.3, 8221.818, 0.03525037, -0.10579233, -1627356.3, 9994.916, 0.15643801, 10.000249, 9.997592 
6.048611e+2, 1.4291942e+2, -1551005.0, -1571916.6, -1525.0975, 0.015709318, -0.089662924, -1550894.3, -11514.048, 0.09991355, 9.999386, 9.99657 
6.049012e+2, 1.529157e+2, -1450559.1, -1474195.1, -5480.6597, 0.040606692, -0.12403204, -1449350.1, -7934.241, 0.05450116, 9.9996195, 9.99643 
6.049405e+2, 1.629108e+2, -1358049.1, -1406032.6, -13118.315, 0.057279833, -0.13447425, -1354696.9, -11233.119, 0.025909595, 10.0004225, 9.99401 
6.0497886e+2, 1.729051e+2, -1235592.3, -1300400.9, -15215.3545, 0.055127475, -0.088543855, -1232197.9, 13322.978, 0.011985053, 10.002285, 9.993619 
6.0501695e+2, 1.8289824e+2, -1133772.3, -1217785.4, -17648.436, 0.059577577, -0.04781089, -1130215.4, 17374.25, 0.0065387874, 10.003279, 9.992089 
6.050557e+2, 1.9289064e+2, -1049841.1, -1127918.5, -20018.56, 0.07879248, -0.02419917, -1045007.75, 4657.5825, 0.0046029044, 10.002364, 9.991972 
6.0509425e+2, 2.0288216e+2, -960958.1, -1038620.0, -16484.438, 0.08649913, -0.026021013, -957604.0, -5855.077, 0.0037873234, 10.001903, 9.991603 
6.0513437e+2, 2.1287349e+2, -849704.56, -931628.0, -10618.275, 0.06839637, -0.09058178, -848350.7, 5481.7056, 0.0032909357, 10.0026865, 9.9918375 
6.0517484e+2, 2.2286369e+2, -754665.75, -861165.56, -1003.2882, 0.06575388, -0.13527562, -754656.3, 1271.2742, 0.0029280127, 10.003567, 9.989544 
6.052186e+2, 2.3285328e+2, -639961.56, -757550.56, -1832.5342, 0.099585205, -0.12232752, -639933.06, 18097.531, 0.0026837164, 10.004809, 9.989318 
6.0526013e+2, 2.4284182e+2, -562675.2, -703586.56, -17403.906, 0.13469495, -0.060604334, -560557.5, -413.6113, 0.0025407942, 10.004841, 9.986311 
6.0529983e+2, 2.5282893e+2, -494809.7, -624401.6, -15590.921, 0.1626492, 0.05452809, -492960.38, -30688.557, 0.0024159243, 10.002946, 9.985947 
6.0533947e+2, 2.6281446e+2, -414802.38, -541336.4, 5.0797253, 0.14385428, 0.029578801, -414802.38, -50388.074, 0.0021913422, 10.001906, 9.98545 
6.053823e+2, 2.7279744e+2, -279959.47, -424473.25, 5410.492, 0.038688894, -0.20760788, -279757.2, -13177.431, 0.0018755103, 10.004357, 9.985551 
6.05423e+2, 2.8278428e+2, -158333.8, -298074.78, -25580.576, 0.010701373, -0.17685717, -153798.3, 14909.42, 0.0017067064, 10.00527, 9.987065 
6.0545874e+2, 2.9277465e+2, -85946.44, -217409.2, -39593.64, 0.12191875, 0.18103798, -74942.75, -4141.0957, 0.0019738504, 10.003744, 9.986592 
6.054996e+2, 3.0275533e+2, -55249.727, -223143.36, 1729.8251, 0.050145622, -0.26594692, -55231.906, -55231.906, 0.002735616, 10.004494, 9.982395 
6.055472e+2, 3.127384e+2, 106967.09, -958.56055, -307.78607, -0.069523595, -0.07236536, 106967.97, 106967.97, 0.0038014548, 10.009472, 9.995223 
6.14781e+2, 1.2288697e+2, -1715857.8, -1737753.8, 7772.307, 0.11591695, -0.13705082, -1713379.4, 22314.686, 0.27197987, 10.001496, 9.997652 
6.148207e+2, 1.3288358e+2, -1641631.3, -1674927.0, 2026.4525, 0.055186234, -0.075539365, -1641508.4, -3779.0024, 0.20546477, 10.000267, 9.995805 
6.148598e+2, 1.4287893e+2, -1558231.5, -1585509.8, -3257.1438, -0.053116072, -0.0987682, -1557848.0, -18071.957, 0.13910942, 9.999344, 9.995659 
6.1490035e+2, 1.5287463e+2, -1457770.3, -1487183.0, -5598.242, -0.0057977834, -0.11128695, -1456740.8, -14922.788, 0.084379554, 9.999551, 9.995572 
6.149407e+2, 1.6286905e+2, -1362491.5, -1413411.6, -8437.031, 0.03182136, -0.118748724, -1361130.0, -17257.164, 0.04848977, 10.000351, 9.993533 
6.1498106e+2, 1.7286246e+2, -1239204.1, -1306704.1, -9061.667, 0.0414798, -0.11945583, -1238008.9, 7928.9063, 0.029757468, 10.002248, 9.9931965 
6.150204e+2, 1.8285473e+2, -1139373.3, -1228602.3, -19704.799, 0.070894524, -0.1108988, -1135215.5, 12798.83, 0.0214362, 10.003275, 9.991349 
6.150587e+2, 1.9284631e+2, -1055881.9, -1140327.5, -24309.395, 0.14631642, -0.086664915, -1049383.9, 713.9283, 0.017739663, 10.002382, 9.991111 
6.1509675e+2, 2.0283759e+2, -956680.1, -1029567.5, -15322.06, 0.14408371, -0.081372954, -953590.2, -1406.2046, 0.015673518, 10.001898, 9.992217 
6.15136e+2, 2.1283011e+2, -842680.8, -916337.44, -7744.7217, -0.031922124, -0.12806262, -841875.3, 12381.064, 0.014155475, 10.002671, 9.992881 
6.1517686e+2, 2.2282103e+2, -760030.75, -871097.1, 3051.7356, -0.08819727, -0.1369036, -759946.94, -3601.5046, 0.01295264, 10.003519, 9.988883 
6.152237e+2, 2.328103e+2, -649286.7, -775132.8, 2685.8196, 0.13234103, -0.049192317, -649229.4, 9223.179, 0.012104538, 10.004744, 9.988143 
6.15266e+2, 2.4279827e+2, -559863.1, -696746.4, -21959.975, 0.24187048, 0.015537431, -556426.44, 4145.5293, 0.011568654, 10.004817, 9.986785 
6.15302e+2, 2.527848e+2, -484457.5, -607075.0, -23569.197, 0.078928076, -0.03049805, -480083.13, -17379.33, 0.011032408, 10.003147, 9.987026 
6.153395e+2, 2.627704e+2, -411335.66, -539586.4, 4055.535, -0.043026824, -0.11060061, -411207.53, -46362.95, 0.010000791, 10.00211, 9.9854765 
6.15386e+2, 2.7275503e+2, -279787.75, -425719.6, 13877.034, -0.035879195, -0.1701437, -278479.84, -11484.766, 0.008357098, 10.004405, 9.985437 
6.154282e+2, 2.827423e+2, -172167.36, -324742.34, -30674.389, 0.0061528515, -0.033578645, -166231.38, 2888.7415, 0.006757323, 10.00515, 9.985319 
6.154619e+2, 2.9272974e+2, -102293.27, -252672.77, -46002.48, 0.06664017, 0.26312232, -89336.97, -18093.426, 0.006111034, 10.00377, 9.984189 
6.155033e+2, 3.0270803e+2, -65935.58, -245202.7, 15786.55, -0.023070483, -0.22186331, -64556.008, -64556.008, 0.006720436, 10.004456, 9.9809065 
6.15557e+2, 3.1268921e+2, 108908.12, 16079.226, 19893.393, -0.017378278, -0.093592204, 112991.67, 112991.67, 0.0081867855, 10.008925, 9.9966545 
6.247776e+2, 1.228422e+2, -1802964.1, -1785574.6, -18686.988, -0.062116086, -0.18506296, -1773658.6, -37526.78, 0.35410506, 9.995139, 9.997395 
6.248198e+2, 1.3284056e+2, -1646537.5, -1659551.3, -17511.43, -0.011346278, -0.09230814, -1634363.1, 3786.582, 0.28108662, 9.99922, 9.997366 
6.248606e+2, 1.4283654e+2, -1525791.5, -1575624.6, -9115.348, -0.044725273, -0.11413693, -1524176.5, 16013.555, 0.20656236, 10.002148, 9.994966 
6.249018e+2, 1.5283138e+2, -1407224.9, -1473125.1, -13585.939, -0.0269382, -0.098853365, -1404533.9, 37707.336, 0.14324167, 10.003956, 9.994392 
6.249427e+2, 1.6282517e+2, -1307218.9, -1387006.4, -21363.61, 0.0016157947, -0.09128435, -1301858.8, 42443.742, 0.099856615, 10.004504, 9.993318 
6.2498325e+2, 1.728184e+2, -1244929.5, -1309312.8, -21829.988, 0.060317427, -0.10771713, -1238225.8, 8142.7246, 0.07549486, 10.001878, 9.993192 
6.250225e+2, 1.8281072e+2, -1181430.3, -1242005.9, -26681.727, 0.109115615, -0.11889943, -1171353.9, -22909.852, 0.06321367, 10.000065, 9.991999 
6.2505996e+2, 1.9280283e+2, -1080452.3, -1143841.8, -20063.164, 0.13391954, -0.1200054, -1074635.8, -24113.13, 0.056657266, 10.000325, 9.991886 
6.250977e+2, 2.0279463e+2, -977587.9, -1038456.5, -4261.6587, 0.12480019, -0.11290997, -977290.94, -24686.828, 0.052255884, 10.000407, 9.99235 
6.2513804e+2, 2.1278778e+2, -885038.3, -937948.75, -4609.167, 0.043844156, -0.0949353, -884639.8, -29968.086, 0.04862897, 9.999812, 9.992794 
6.251797e+2, 2.2277875e+2, -812991.94, -899698.94, 7440.001, 0.020335063, -0.078336656, -812358.1, -55596.902, 0.045545958, 10.000028, 9.988615 
6.2522733e+2, 2.3276709e+2, -681519.1, -794334.2, 13500.402, 0.12930572, -0.057284545, -679926.06, -21048.287, 0.043219395, 10.002676, 9.987832 
6.2527055e+2, 2.4275409e+2, -555898.56, -704855.94, -14723.779, 0.18250111, -0.030204777, -554457.1, 6549.2607, 0.04155891, 10.005488, 9.985938 
6.2530804e+2, 2.5274011e+2, -416007.94, -584560.44, -31990.227, 0.09904269, -0.032463744, -410140.63, 53001.957, 0.039683703, 10.008423, 9.986042 
6.253458e+2, 2.627249e+2, -321419.66, -505669.72, -19963.633, 0.02655027, -0.07833833, -319281.4, 46009.45, 0.036110107, 10.008836, 9.984526 
6.2539154e+2, 2.7270883e+2, -259042.02, -420454.66, -13769.455, -0.0015435036, -0.14931948, -257875.83, 9572.564, 0.03034883, 10.006043, 9.984988 
6.2543267e+2, 2.826954e+2, -196157.47, -344019.47, -54918.297, 0.0077931755, -0.03567234, -177991.7, -8411.704, 0.024075394, 10.003813, 9.9846325 
6.254671e+2, 2.9268187e+2, -64815.16, -244468.3, -56917.016, 0.05201336, 0.24970824, -48300.957, 23412.271, 0.01985857, 10.00679, 9.983291 
6.255092e+2, 3.026601e+2, -24244.596, -231616.81, 11307.987, -0.04494287, -0.17936565, -23629.795, -23629.795, 0.018798957, 10.007496, 9.980413 
6.255636e+2, 3.1264025e+2, 50406.83, 8957.6455, 19946.926, -0.0041214707, -0.10604166, 58446.598, 58446.598, 0.020103596, 10.00383, 9.9987 
6.34818e+2, 1.3279343e+2, -1653015.0, -1619858.5, -6148.595, -0.10139645, -0.19757558, -1618755.0, 19855.586, 0.39863333, 9.99635, 10.002265 
6.3486415e+2, 1.4279273e+2, -1562458.5, -1600745.3, -7201.7505, 0.09860527, -0.14727722, -1561148.6, -20530.557, 0.32108024, 9.999614, 9.994471 
6.34906e+2, 1.5278636e+2, -1428863.0, -1502194.0, -10234.557, -0.0055938647, -0.09808265, -1427461.4, 15220.063, 0.2531624, 10.003197, 9.992767 
6.3494694e+2, 1.6277955e+2, -1312284.4, -1387226.9, -27645.166, -0.035681017, -0.057148144, -1303190.1, 41558.535, 0.20479342, 10.004515, 9.993343 
6.349857e+2, 1.7277332e+2, -1244750.0, -1304147.9, -32441.979, 0.10584833, -0.05885897, -1230465.9, 16343.422, 0.17586088, 10.001886, 9.993567 
6.350231e+2, 1.8276657e+2, -1168437.8, -1214630.0, -29085.42, 0.16612397, -0.07458895, -1154393.8, -5518.0327, 0.1596533, 10.000051, 9.993861 
6.350593e+2, 1.9276036e+2, -1064484.5, -1111057.5, -19409.063, 0.03717589, -0.12700707, -1057456.5, -6518.532, 0.14977825, 10.000345, 9.994098 
6.350971e+2, 2.0275334e+2, -979316.9, -1043564.75, -5957.0254, 0.020194309, -0.121883504, -978769.2, -25760.564, 0.1422669, 10.000492, 9.99195 
6.351402e+2, 2.127465e+2, -891365.2, -954104.9, -7137.591, 0.2734599, 0.0012068903, -890563.4, -35485.305, 0.13546526, 9.999961, 9.991612 
6.351833e+2, 2.2273688e+2, -810160.44, -898536.75, 14765.532, 0.3674736, 0.03702608, -807758.75, -50584.215, 0.12918812, 10.000236, 9.98858 
6.3522965e+2, 2.3272361e+2, -675362.4, -786748.25, 23559.152, 0.086897515, -0.14030129, -670584.3, -11278.31, 0.12398398, 10.0029, 9.988224 
6.352739e+2, 2.4270925e+2, -569759.2, -736087.75, -3848.5398, -0.040569983, -0.18786822, -569670.2, -8222.559, 0.11969053, 10.0055685, 9.983756 
6.353175e+2, 2.5269473e+2, -440282.38, -628592.06, -21700.508, 0.20021105, 0.033433937, -437814.0, 25775.693, 0.11434233, 10.008248, 9.983109 
6.353576e+2, 2.6267797e+2, -341542.4, -535271.75, -25835.379, 0.31560522, 0.10693885, -338156.22, 27596.943, 0.104491696, 10.008421, 9.982725 
6.353989e+2, 2.7265918e+2, -267691.06, -433388.28, -24336.496, 0.120252326, -0.13646287, -264190.63, 3745.2617, 0.0889476, 10.005823, 9.98423 
6.354365e+2, 2.8264406e+2, -197570.33, -343815.72, -50957.758, 0.0041594887, -0.15993077, -181566.03, -11483.094, 0.07142195, 10.003615, 9.984768 
6.3547397e+2, 2.9263106e+2, -65989.195, -241488.36, -44015.684, 0.062297728, 0.14511, -55568.676, 16642.213, 0.057964, 10.006545, 9.983626 
6.355165e+2, 3.0261123e+2, -26919.564, -228548.27, 1527.5857, -0.041129466, -0.1479912, -26907.99, -26907.99, 0.051586427, 10.007086, 9.980855 
6.355665e+2, 3.125913e+2, 54391.617, 33785.668, 7698.512, -0.06392483, -0.1012758, 56950.152, 56950.152, 0.05090325, 10.003195, 10.0008545 
6.4495313e+2, 1.6273524e+2, -1293769.3, -1328238.8, -2662.1685, 0.09153792, -0.27828714, -1293564.9, 51614.56, 0.39379722, 10.005328, 9.997666 
6.4498794e+2, 1.7273155e+2, -1236480.5, -1287782.9, -3696.6257, 0.122722976, -0.1583074, -1236215.5, 11000.037, 0.36310527, 10.002237, 9.99452 
6.450222e+2, 1.8272434e+2, -1165524.0, -1217733.1, 5138.267, 0.050061684, -0.25524008, -1165023.1, -15736.054, 0.34427175, 10.000433, 9.993499 
6.4506066e+2, 1.9271919e+2, -1046662.8, -1108114.9, -3155.531, 0.05082808, -0.14621729, -1046501.25, 4838.9272, 0.33178842, 10.002015, 9.993494 
6.4509904e+2, 2.0271243e+2, -941769.1, -1026343.1, -4570.3315, 0.007306888, -0.06560985, -941522.9, 11886.595, 0.3213414, 10.003612, 9.991595 
6.4513886e+2, 2.1270412e+2, -830116.94, -922293.75, -1324.6919, -0.11801376, -0.05945515, -830097.94, 25396.174, 0.31093755, 10.005068, 9.99131 
6.451818e+2, 2.2269405e+2, -728887.5, -861378.75, 26476.123, -0.15971568, -0.022203412, -723792.6, 33802.973, 0.30037293, 10.007111, 9.987821 
6.452355e+2, 2.3268266e+2, -602029.3, -752469.25, 27048.74, 0.0039526215, 0.087858856, -597313.8, 62395.75, 0.29069278, 10.010144, 9.987107 
6.4528394e+2, 2.4266861e+2, -509054.97, -692571.6, -7690.342, 0.13032907, 0.15191367, -508733.25, 53115.234, 0.28173268, 10.010985, 9.984108 
6.453243e+2, 2.526523e+2, -451410.66, -614259.9, -5706.4717, 0.13557173, 0.07117584, -451210.94, 12795.699, 0.2697389, 10.006749, 9.984865 
6.453609e+2, 2.626336e+2, -446636.22, -629416.06, 5655.0444, 0.10471226, -0.03543532, -446461.44, -80273.13, 0.24779549, 10.002836, 9.979029 
6.454017e+2, 2.7261072e+2, -362890.03, -540851.5, -24735.273, 0.03375346, -0.16421005, -359515.97, -91104.195, 0.21364993, 10.001931, 9.97878 
6.4543873e+2, 2.8259277e+2, -232203.67, -355377.6, -58252.004, 0.010204711, -0.14871621, -209018.89, -38431.332, 0.17464368, 10.001024, 9.985199 
6.4548016e+2, 2.9258078e+2, -55510.367, -209953.27, -25691.908, 0.050736137, 0.0499299, -51348.61, 21356.977, 0.14276683, 10.006323, 9.985884 
6.4552337e+2, 3.0256414e+2, -34307.5, -213583.66, -2123.989, -0.0133040985, -0.14509858, -34282.34, -34282.34, 0.12435283, 10.005844, 9.982473 
6.4556956e+2, 3.1254545e+2, 3616.4253, 32322.488, 6529.4834, 0.12123618, -0.07736305, 33737.895, 33737.895, 0.117284045, 9.998546, 10.003122 
6.554396e+2, 2.8254175e+2, -230635.6, -342931.72, -52911.98, -0.02160566, 0.07483847, -209632.63, -38541.9, 0.35773358, 10.0005865, 9.986263 
6.55486e+2, 2.9253218e+2, -38432.305, -146628.6, -14140.651, -0.007103234, 0.08387031, -36614.73, 36571.074, 0.29636878, 10.006132, 9.990297 
6.5552896e+2, 3.0252054e+2, -14066.27, -171115.56, -46944.277, -0.012321007, -0.01485352, -1103.8379, -1103.8379, 0.25635406, 10.005725, 9.985501 
6.555697e+2, 3.125053e+2, 10337.933, 50529.69, -29294.701, 0.36251724, 0.18005712, 65958.79, 65958.79, 0.23486929, 9.9980955, 10.005458 
7.117016e+2, 1.7322178e+2, -1314425.5, -1307398.4, 1395.9857, 0.3319053, -0.3281874, -1307131.1, -64729.59, 0.39540654, 9.978966, 9.979837 
7.1112335e+2, 1.8320109e+2, -1187378.3, -1204545.1, 1994.6816, 0.15680681, -0.33077344, -1187149.5, -42543.715, 0.36718783, 9.981275, 9.978994 
7.105454e+2, 1.9317971e+2, -1062940.8, -1098536.4, 18891.246, 0.0950043, -0.34575284, -1054784.0, -7968.238, 0.33893126, 9.9833355, 9.978242 
7.0996624e+2, 2.0315944e+2, -927363.2, -936787.2, 576.47577, 0.0689085, -0.33949506, -927328.06, 21687.646, 0.30843562, 9.984249, 9.982381 
7.0938414e+2, 2.1314315e+2, -826036.8, -826599.94, -23625.654, 0.18536076, -0.3412759, -802691.06, 48487.332, 0.2787066, 9.983869, 9.984111 
7.088063e+2, 2.2312662e+2, -755178.9, -780538.44, -7004.459, 0.14170524, -0.27663156, -753372.8, -29.938768, 0.25768614, 9.983803, 9.980574 
7.082319e+2, 2.3310862e+2, -681459.94, -712342.6, 19425.996, -0.3680855, -0.01399821, -672085.9, -16564.445, 0.25540316, 9.983179, 9.978697 
7.0766e+2, 2.430884e+2, -576352.25, -604427.06, -1435.5851, -0.57390153, 0.08079873, -576279.06, -18559.078, 0.27892607, 9.982933, 9.979234 
7.070905e+2, 2.5306368e+2, -460149.0, -502124.28, -4324.557, 0.13996707, -0.31040895, -459708.06, 248.66042, 0.32960632, 9.98443, 9.978914 
7.2399676e+2, 1.3388768e+2, -1616243.8, -1620759.3, 4087.7104, 0.38426483, -0.22835408, -1613831.8, 14048.218, 0.3865402, 9.984034, 9.98297 
7.2341627e+2, 1.4386693e+2, -1510419.9, -1572395.5, 1977.4941, 0.18405755, -0.3137822, -1510356.9, 19724.436, 0.3205506, 9.987043, 9.977517 
7.228361e+2, 1.5384491e+2, -1417112.6, -1483015.1, 879.89294, 0.28523672, -0.24398188, -1417100.9, 15198.003, 0.26355705, 9.98656, 9.977162 
7.2225714e+2, 1.6382252e+2, -1337554.8, -1384136.8, 14494.965, 0.30526397, -0.24443531, -1333412.6, 1107.2025, 0.22259246, 9.984759, 9.97833 
7.216809e+2, 1.7380182e+2, -1256412.3, -1294447.6, 13647.784, 0.20981973, -0.16333637, -1252021.9, -15298.156, 0.19628097, 9.983696, 9.978337 
7.2110504e+2, 1.8378204e+2, -1142123.4, -1147799.3, 9308.389, 0.1427703, -0.1291028, -1135229.9, 3688.3315, 0.17793313, 9.98299, 9.98202 
7.2052884e+2, 1.937641e+2, -1048553.8, -1050917.1, 14623.743, 0.117947556, -0.1595132, -1035064.06, 6029.8555, 0.16172495, 9.982702, 9.981995 
7.199501e+2, 2.0374402e+2, -972095.0, -1022174.56, -10319.415, 0.056253023, -0.11657293, -970051.94, -26759.701, 0.14477374, 9.983358, 9.976783 
7.19366e+2, 2.1372183e+2, -848437.1, -919658.9, -28401.365, -0.04740436, 0.03227435, -838498.3, 7015.471, 0.12791908, 9.985549, 9.976242 
7.187888e+2, 2.2370048e+2, -716623.8, -744596.0, -615.49506, -0.022057004, 0.030804653, -716610.3, 31113.615, 0.1152308, 9.98604, 9.981829 
7.182204e+2, 2.3368055e+2, -648696.8, -661296.7, 12057.564, 0.14702621, -0.1973507, -641392.5, 8522.239, 0.11227302, 9.983952, 9.98184 
7.176498e+2, 2.4365965e+2, -585438.2, -621012.7, -8940.702, 0.10783656, -0.29096574, -583317.56, -31201.32, 0.12332352, 9.982865, 9.978293 
7.170725e+2, 2.5363803e+2, -479661.66, -530125.1, -7426.556, -0.115067095, -0.23620138, -478591.4, -24265.12, 0.15061651, 9.983991, 9.97734 
7.164993e+2, 2.6361462e+2, -378069.47, -432601.2, -25093.838, -0.21130031, -0.28250164, -368279.6, -11726.602, 0.19471757, 9.984008, 9.977443 
7.159208e+2, 2.735911e+2, -281741.38, -326657.75, -27095.045, -0.44931284, -0.4207595, -269007.06, -10226.446, 0.25531024, 9.983769, 9.978257 
7.153495e+2, 2.8357026e+2, -189014.75, -238011.11, -37688.016, -0.58673054, -0.32456338, -168562.44, -7577.643, 0.3264023, 9.98336, 9.978285 
7.1478456e+2, 2.9355338e+2, -25012.271, -78794.57, -50657.2, 0.35387245, 0.09447771, 5448.8765, 68605.0, 0.3910014, 9.989179, 9.980652 
7.3455286e+2, 1.24480866e+2, -1750351.8, -1709682.5, 1306.558, 0.44973224, -0.12384475, -1709640.5, 10433.705, 0.3249303, 9.980059, 9.986038 
7.339786e+2, 1.3446319e+2, -1645005.1, -1640770.9, -2851.6938, 0.41797933, -0.18415442, -1639336.4, -17093.73, 0.2589689, 9.982052, 9.982593 
7.3340183e+2, 1.4444394e+2, -1530342.4, -1568335.0, -12576.381, 0.33156866, -0.20929554, -1526556.5, -2126.6484, 0.19364516, 9.984457, 9.979508 
7.3282254e+2, 1.5442382e+2, -1393014.9, -1455383.5, -10011.559, 0.21968476, -0.14680605, -1391447.3, 35182.707, 0.13979182, 9.98781, 9.978793 
7.322441e+2, 1.6440253e+2, -1280003.1, -1354172.8, -1660.5876, 0.18675101, -0.111925736, -1279966.0, 48874.54, 0.103773825, 9.989138, 9.978337 
7.3166746e+2, 1.7438081e+2, -1203119.3, -1270409.3, 541.7416, 0.21816778, -0.11675602, -1203114.9, 27939.404, 0.0834387, 9.98762, 9.978097 
7.3109e+2, 1.8436047e+2, -1106448.3, -1134106.0, -4687.749, 0.17155577, -0.11500756, -1105675.3, 27578.336, 0.07198857, 9.985695, 9.981655 
7.3051125e+2, 1.9434229e+2, -1037163.44, -1051700.5, -7334.93, 0.051304657, -0.122688904, -1034105.6, 1324.8528, 0.06378318, 9.983683, 9.981612 
7.299332e+2, 2.0432119e+2, -963029.8, -1032876.9, -12474.602, -0.018117242, -0.10196729, -960868.75, -23231.002, 0.056025576, 9.984864, 9.975678 
7.2935456e+2, 2.1429712e+2, -791742.25, -907278.5, -10655.129, -0.042119905, -0.032497637, -790767.8, 49108.867, 0.048483443, 9.990456, 9.974841 
7.287786e+2, 2.2427335e+2, -648397.75, -742833.4, -4118.8926, -0.01816034, -0.057446867, -648218.44, 93891.22, 0.042710483, 9.991974, 9.978871 
7.282061e+2, 2.3425084e+2, -612414.9, -676581.8, -13790.542, 0.10205624, -0.24667118, -609576.6, 34749.715, 0.041088887, 9.987666, 9.979108 
7.276333e+2, 2.4422844e+2, -566057.56, -626779.0, -33980.117, 0.077503875, -0.29653427, -550850.5, -4307.173, 0.04567083, 9.984723, 9.977383 
7.2705597e+2, 2.5420725e+2, -474916.34, -539017.94, -26600.234, -0.17702116, -0.14351438, -465315.9, -16564.86, 0.0582059, 9.98463, 9.976807 
7.264845e+2, 2.6418313e+2, -375633.4, -458137.4, -32074.105, -0.13559861, -0.14577974, -364631.44, -13645.748, 0.08086616, 9.985086, 9.97555 
7.259148e+2, 2.7415675e+2, -233061.08, -329845.78, -27115.535, 0.32462382, -0.3637751, -225982.08, 27258.969, 0.11591589, 9.988088, 9.976329 
7.2534376e+2, 2.8413144e+2, -142758.64, -275957.88, -25019.662, 0.18602918, -0.39054647, -138214.08, 17274.123, 0.16143158, 9.9889765, 9.973266 
7.247639e+2, 2.9410645e+2, -22991.346, -148215.75, -38557.188, -0.67831284, -0.23686129, -12071.619, 45664.47, 0.2077385, 9.990285, 9.974937 
7.242107e+2, 3.0407292e+2, -88173.445, -297564.47, 54850.844, -0.21185239, -0.6280983, -74675.195, -74675.195, 0.24291371, 9.988771, 9.962978 
7.236619e+2, 3.140415e+2, 49056.484, 63414.207, -31420.154, -0.43715608, 0.044659715, 88465.18, 88465.18, 0.26303545, 9.985364, 9.989334 
7.445345e+2, 1.2505654e+2, -1703785.0, -1707780.3, 7627.848, 0.40768856, -0.017704394, -1697897.5, 16537.836, 0.23778464, 9.984484, 9.98359 
7.4396193e+2, 1.3503787e+2, -1603785.0, -1613019.6, 6147.32, 0.41889957, -0.23795058, -1600714.1, 15900.248, 0.17852762, 9.98481, 9.983131 
7.433868e+2, 1.4501886e+2, -1524861.0, -1561944.4, -5569.7646, 0.36523134, -0.26770946, -1524042.5, -5242.397, 0.12097202, 9.984794, 9.979819 
7.428094e+2, 1.550001e+2, -1424500.3, -1466367.8, -7341.7705, 0.22752103, -0.119478874, -1423250.1, -2263.447, 0.07492237, 9.985133, 9.979469 
7.4223167e+2, 1.6497967e+2, -1324811.6, -1375131.4, -12590.919, 0.17570911, -0.063985355, -1321837.0, 1351.8914, 0.045666836, 9.985501, 9.978767 
7.416544e+2, 1.7495795e+2, -1230221.9, -1283414.6, -11292.89, 0.22810315, -0.10426145, -1227923.8, -2521.11, 0.030717533, 9.985481, 9.978323 
7.410756e+2, 1.849371e+2, -1113024.1, -1149618.9, -18959.75, 0.17123641, -0.12410677, -1104972.5, 22633.66, 0.023817478, 9.985578, 9.980749 
7.4049485e+2, 1.9491786e+2, -1012533.4, -1053597.3, -24568.314, -0.009732894, -0.12610872, -1001047.1, 28745.264, 0.02006817, 9.985927, 9.980536 
7.3991835e+2, 2.0489563e+2, -935810.3, -1022735.56, -8084.6875, -0.06603451, -0.14605533, -935064.75, -3055.0803, 0.017149951, 9.9871435, 9.97558 
7.393456e+2, 2.148706e+2, -805610.94, -915413.06, -4835.573, 0.0127164675, -0.19111398, -805398.44, 28857.805, 0.014523326, 9.989708, 9.974964 
7.3877007e+2, 2.2484522e+2, -699344.8, -813298.2, -28030.549, -0.015084448, -0.21165957, -692823.0, 43681.93, 0.012569656, 9.989932, 9.975096 
7.3819107e+2, 2.3482029e+2, -641933.75, -739744.56, -33645.56, -0.1484635, -0.22074915, -631477.9, 7269.3384, 0.012050572, 9.987409, 9.974848 
7.376156e+2, 2.4479645e+2, -555744.5, -625971.94, -37891.51, -0.1719135, -0.17816974, -539198.4, 1782.2856, 0.013745183, 9.985609, 9.977013 
7.3704153e+2, 2.547745e+2, -464292.94, -534569.6, -33603.98, -0.091819935, -0.07658907, -450811.0, -7613.879, 0.018649941, 9.985402, 9.976785 
7.364707e+2, 2.647502e+2, -367760.53, -460668.63, -29113.135, -0.05046156, -0.08151586, -359391.66, -13957.219, 0.028487917, 9.986156, 9.974973 
7.358994e+2, 2.74724e+2, -226756.33, -334465.7, -23927.2, -0.03842775, -0.21460083, -221680.22, 26007.725, 0.045354404, 9.988916, 9.975677 
7.353294e+2, 2.8469723e+2, -154262.6, -316790.5, -23118.313, -0.16557395, -0.1928132, -151038.17, -1088.4409, 0.06921832, 9.989778, 9.969978 
7.347573e+2, 2.9466906e+2, -30686.66, -194779.2, -30698.258, -0.41580972, -0.020955281, -25131.713, 27096.662, 0.09586533, 9.991243, 9.971092 
7.342038e+2, 3.0463642e+2, -35327.316, -227099.81, 53723.746, 0.059408456, -0.22509772, -21302.63, -21302.63, 0.11926498, 9.990754, 9.966386 
7.3364705e+2, 3.1460494e+2, 109354.73, 154065.47, -63985.773, -0.55703825, -0.056290947, 199488.72, 199488.72, 0.13646784, 9.986739, 9.994219 
7.5451964e+2, 1.256317e+2, -1685463.4, -1706857.0, 7733.595, 0.36506823, -0.08346677, -1682960.5, 25840.695, 0.1749869, 9.986298, 9.982717 
7.5394684e+2, 1.3561402e+2, -1585180.6, -1613643.5, 2526.782, 0.31746387, -0.12044637, -1584958.0, 26015.127, 0.1261471, 9.986628, 9.982225 
7.533718e+2, 1.4559476e+2, -1505851.1, -1554609.6, -12111.366, 0.30524307, -0.11916482, -1503008.5, 10153.792, 0.07953501, 9.986243, 9.979666 
7.527953e+2, 1.5557481e+2, -1416245.0, -1464347.1, -13288.5625, 0.30065387, -0.07516391, -1412818.0, 2541.1235, 0.04320715, 9.985762, 9.979355 
7.522174e+2, 1.6555409e+2, -1323301.5, -1373522.8, -16864.92, 0.23252386, -0.05142927, -1318163.6, -600.4596, 0.021097858, 9.985539, 9.978951 
7.516388e+2, 1.755329e+2, -1226615.0, -1280452.5, -16622.793, 0.13917664, -0.055655427, -1221896.3, -2125.1394, 0.010665256, 9.985654, 9.978538 
7.510613e+2, 1.8551089e+2, -1110269.6, -1176098.9, -18311.793, 0.112712495, -0.087658696, -1105518.8, 16467.277, 0.006592947, 9.987023, 9.97842 
7.504843e+2, 1.9548889e+2, -979345.3, -1066063.5, -26583.354, 0.11061018, -0.13638644, -971844.94, 52354.906, 0.004968135, 9.989466, 9.978196 
7.499086e+2, 2.0546567e+2, -893697.2, -1005577.56, -19384.658, 0.057037238, -0.13023584, -890433.75, 35993.957, 0.004045089, 9.990085, 9.975522 
7.493344e+2, 2.1544144e+2, -815703.1, -922729.06, -18093.537, -0.0065674554, -0.09700276, -812727.0, 15939.711, 0.003334585, 9.988954, 9.975054 
7.4875844e+2, 2.254162e+2, -725857.94, -834182.6, -35987.48, -0.041702613, -0.08943296, -714992.2, 15922.09, 0.0028449323, 9.988259, 9.974626 
7.4817973e+2, 2.353907e+2, -625080.25, -739872.9, -29805.896, -0.08578283, -0.09372956, -617802.56, 15360.832, 0.002750996, 9.988697, 9.974168 
7.476034e+2, 2.4536522e+2, -530490.3, -638065.6, -27661.045, -0.11667792, -0.07377972, -523794.56, 11618.154, 0.0032907762, 9.988152, 9.974868 
7.4702805e+2, 2.553406e+2, -449471.7, -549610.5, -30273.928, -0.093050286, -0.036639437, -441030.78, -3375.884, 0.0048988364, 9.987066, 9.974954 
7.464571e+2, 2.6531455e+2, -363612.75, -477802.44, -19513.93, -0.10316661, -0.05650651, -360370.1, -20461.242, 0.008455922, 9.987129, 9.973518 
7.4588686e+2, 2.7528748e+2, -240276.63, -362087.25, -23902.264, -0.19152458, -0.13949451, -235754.31, 6416.6855, 0.015145826, 9.98862, 9.974177 
7.4531835e+2, 2.852601e+2, -156349.72, -316192.22, -19610.107, -0.25149673, -0.111560374, -153979.03, -9540.303, 0.025414879, 9.989501, 9.970261 
7.447504e+2, 2.9523173e+2, -42881.434, -209445.36, -6706.6475, -0.20937867, 0.031209158, -42611.83, 4107.659, 0.037974287, 9.990535, 9.970232 
7.4419355e+2, 3.0520183e+2, -37458.188, -183990.61, 62736.93, 0.07225733, 0.012945181, -14267.878, -14267.878, 0.050442353, 9.988407, 9.96998 
7.4363446e+2, 3.151698e+2, -50026.734, -96371.39, -51140.54, -0.32982054, -0.21110289, -17053.611, -17053.611, 0.061154906, 9.982666, 9.977099 
7.6450557e+2, 1.2620561e+2, -1698459.3, -1723810.5, -3064.7383, 0.37570667, -0.0891104, -1698094.1, 5086.009, 0.12768435, 9.985576, 9.982117 
7.6393265e+2, 1.3618861e+2, -1592719.6, -1627096.5, -7067.946, 0.26070783, 0.006301594, -1591323.1, 14023.67, 0.08972423, 9.9863615, 9.981611 
7.63358e+2, 1.4616933e+2, -1487404.3, -1542622.0, -18673.873, 0.26018643, 0.017778933, -1481682.0, 25854.082, 0.05413508, 9.987454, 9.980026 
7.6278245e+2, 1.5614887e+2, -1371223.8, -1440618.5, -18756.396, 0.3276863, -0.024658917, -1366478.6, 43258.74, 0.0270741, 9.988866, 9.97955 
7.622042e+2, 1.6612774e+2, -1280535.1, -1358013.1, -26337.287, 0.24936844, -0.025598375, -1272430.1, 39514.645, 0.011199405, 9.988721, 9.978587 
7.616245e+2, 1.7610656e+2, -1196570.1, -1271107.1, -30318.422, 0.07308892, -0.004643692, -1185795.4, 28357.227, 0.004158356, 9.987951, 9.978269 
7.610483e+2, 1.8608348e+2, -1112146.6, -1198871.8, -23334.828, 0.08344272, -0.03984484, -1106266.8, 10111.424, 0.001733594, 9.987958, 9.976641 
7.604747e+2, 1.9605932e+2, -1008536.6, -1102197.1, -25511.875, 0.2202045, -0.11722457, -1002038.4, 16575.6, 0.0010015195, 9.988526, 9.976316 
7.5989944e+2, 2.0603552e+2, -906291.4, -1012045.3, -24888.484, 0.15268022, -0.07579089, -900726.8, 20121.05, 0.0007323866, 9.989196, 9.975528 
7.59323e+2, 2.1601221e+2, -805739.7, -916468.8, -24825.623, -0.051904008, 0.04594282, -800428.5, 22650.125, 0.00057860906, 9.989525, 9.975198 
7.5874674e+2, 2.2598766e+2, -708044.25, -819780.75, -37301.52, -0.049888115, 0.083020836, -696736.1, 28583.955, 0.000486808, 9.989278, 9.975152 
7.581703e+2, 2.3596242e+2, -613166.9, -729719.2, -32819.082, 0.082581185, 0.05413425, -604561.06, 23006.332, 0.00048168446, 9.98936, 9.974579 
7.57593e+2, 2.4593541e+2, -534035.06, -666202.8, -35035.426, 0.016772872, 0.02113403, -525322.1, 4509.275, 0.0006226314, 9.989044, 9.972519 
7.570145e+2, 2.559077e+2, -446195.72, -574143.56, -36848.78, -0.16804697, -0.01142684, -436342.16, -4240.3965, 0.0010544909, 9.988433, 9.972601 
7.5644344e+2, 2.6587924e+2, -364038.44, -499766.0, -15445.386, -0.20674229, -0.053572845, -362303.0, -27924.227, 0.0021029075, 9.98827, 9.971452 
7.558758e+2, 2.758502e+2, -251723.47, -389689.16, -19492.691, -0.16814253, -0.11982208, -249022.3, -12361.74, 0.004259301, 9.989002, 9.972056 
7.553091e+2, 2.8582248e+2, -135174.52, -274513.66, -14822.87, -0.15172096, -0.15399596, -133615.11, 5316.8545, 0.007873378, 9.989888, 9.972828 
7.547421e+2, 2.957955e+2, -20667.605, -168443.52, -439.31653, -0.12392086, -0.12941852, -20666.299, 20531.627, 0.012751509, 9.9910555, 9.972689 
7.541789e+2, 3.0577028e+2, -13229.752, -133331.22, 43021.855, -0.22688968, 0.05069172, 590.8241, 590.8241, 0.018172149, 9.988307, 9.973124 
7.536164e+2, 3.1574598e+2, -6955.611, -6659.6304, -9386.958, -0.40213904, 0.29723138, 2580.5044, 2580.5044, 0.023383345, 9.983206, 9.983145 
7.744929e+2, 1.267779e+2, -1673844.8, -1712773.8, -750.4936, 0.44679457, -0.002651971, -1673830.3, 23745.098, 0.090957634, 9.98741, 9.982001 
7.739199e+2, 1.3675992e+2, -1574474.5, -1618976.6, -4187.123, 0.2727855, 0.0068528815, -1574083.9, 25667.613, 0.06282217, 9.987638, 9.981567 
7.73346e+2, 1.467408e+2, -1463008.8, -1524753.8, -10242.486, 0.22982152, 0.0029198297, -1461354.0, 40584.85, 0.036900125, 9.988909, 9.980604 
7.7277195e+2, 1.567211e+2, -1342316.8, -1425317.8, -13055.382, 0.2570363, -0.0147236055, -1340311.8, 63820.055, 0.017632255, 9.990783, 9.979718 
7.721942e+2, 1.66699e+2, -1264382.1, -1372129.1, -30098.717, 0.2359104, -0.011755272, -1256544.3, 49804.887, 0.006673812, 9.99063, 9.976731 
7.7161485e+2, 1.7667596e+2, -1178754.0, -1280295.0, -36048.84, 0.1745168, 0.0026723559, -1167257.6, 41318.617, 0.002032905, 9.989795, 9.976831 
7.710372e+2, 1.8665303e+2, -1094294.0, -1189099.6, -27682.916, 0.10512407, 0.024784908, -1086802.6, 23998.992, 0.00056122354, 9.9889765, 9.976881 
7.7046114e+2, 1.9662996e+2, -1012196.25, -1102627.8, -24049.326, 0.05864758, 0.03835079, -1006198.4, 6829.419, 0.00019329057, 9.988073, 9.976524 
7.698871e+2, 2.066058e+2, -906936.5, -1010149.94, -13231.306, 0.027307123, 0.018581199, -905267.3, 9996.775, 0.000105825035, 9.989019, 9.975765 
7.6931363e+2, 2.1658133e+2, -783206.0, -901980.0, -14501.152, -0.022822667, 0.0017911291, -781461.2, 36042.37, 0.000076073564, 9.990815, 9.975549 
7.687374e+2, 2.265571e+2, -682907.8, -804235.25, -30526.338, -0.020274667, 0.032369852, -675660.25, 44080.785, 0.00006268656, 9.990661, 9.975496 
7.681597e+2, 2.3653287e+2, -601483.3, -724707.4, -25616.225, 0.033759397, 0.06917596, -596370.3, 25608.588, 0.00006457829, 9.989971, 9.97459 
7.6758265e+2, 2.4650493e+2, -523527.5, -682401.2, -22702.047, -0.027820393, 0.05046028, -520347.2, 3905.4832, 0.00009368111, 9.990541, 9.970672 
7.670052e+2, 2.5647524e+2, -405028.75, -572675.2, -23596.85, -0.17297989, 0.004195207, -401770.72, 24772.629, 0.00018679188, 9.99189, 9.970967 
7.6643306e+2, 2.6644638e+2, -332585.03, -482010.7, -3481.1257, -0.19976541, -0.012617241, -332503.97, -3679.1902, 0.00043514857, 9.990096, 9.971495 
7.6586384e+2, 2.7641767e+2, -288819.1, -408446.72, 5486.5483, -0.14679313, -0.031764008, -288568.0, -57463.99, 0.000997908, 9.986318, 9.971613 
7.652964e+2, 2.8638914e+2, -212285.5, -310918.94, 10322.163, -0.13634492, -0.09969221, -211216.84, -77833.69, 0.0020411513, 9.984508, 9.972575 
7.647293e+2, 2.963613e+2, -121356.125, -212006.44, 4239.4863, -0.15189098, -0.16163373, -121158.29, -85502.06, 0.0036037595, 9.983866, 9.973103 
7.641625e+2, 3.0633834e+2, -81638.12, -132055.31, 19369.521, -0.39464122, 0.06609368, -75055.96, -75055.96, 0.0055198264, 9.981987, 9.976116 
7.635973e+2, 3.1631348e+2, -34518.86, 31323.283, 23260.938, -0.49847043, -0.05062414, 38711.863, 38711.863, 0.007514051, 9.979723, 9.987943 
7.844818e+2, 1.2735012e+2, -1631960.5, -1698735.3, -3825.9297, 0.45110428, 0.045890845, -1631742.0, 60228.742, 0.062321946, 9.990712, 9.981352 
7.8390837e+2, 1.3733101e+2, -1546087.4, -1609195.4, -11370.79, 0.2778506, -0.0035705676, -1544101.1, 50057.45, 0.04246114, 9.98982, 9.981245 
7.833345e+2, 1.47312e+2, -1467158.1, -1523421.3, -16601.514, 0.2088518, -0.010035892, -1462624.8, 33719.586, 0.024464376, 9.988471, 9.981048 
7.827608e+2, 1.5729299e+2, -1390692.3, -1449100.5, -20926.986, 0.19670355, -0.00054142723, -1383968.5, 14561.538, 0.011362962, 9.987463, 9.979861 
7.8218406e+2, 1.6727053e+2, -1292204.5, -1394721.4, -29985.467, 0.22442546, 0.005266633, -1284078.1, 16673.1, 0.0041075577, 9.989154, 9.975939 
7.81606e+2, 1.7724647e+2, -1156538.5, -1277243.3, -27014.262, 0.2569448, 0.011402401, -1150768.4, 52220.336, 0.0011429207, 9.991665, 9.975988 
7.810269e+2, 1.8722361e+2, -1060412.8, -1172969.4, -24699.334, 0.114299595, 0.085764095, -1055231.3, 49983.008, 0.0002519489, 9.991253, 9.976729 
7.804481e+2, 1.9720133e+2, -985849.94, -1088157.5, -24892.184, -0.09720103, 0.18013091, -980115.0, 27319.219, 0.000051009643, 9.989789, 9.976643 
7.798751e+2, 2.0717667e+2, -900688.7, -1004725.6, -10893.914, -0.08290538, 0.08923525, -899560.25, 10113.751, 0.000014620333, 9.989452, 9.975998 
7.7930474e+2, 2.1715099e+2, -799427.9, -906032.4, -17529.277, 0.026005646, -0.07788019, -796619.5, 15303.05, 0.000007846091, 9.989605, 9.975952 
7.78728e+2, 2.271271e+2, -692447.75, -805212.6, -40579.746, -0.0058796993, -0.05674959, -679362.94, 34792.53, 0.0000061088585, 9.989861, 9.97591 
7.781484e+2, 2.3710388e+2, -598355.7, -725245.4, -36245.21, -0.09338709, 0.043591484, -588732.3, 27650.756, 0.0000066826165, 9.990311, 9.974513 
7.775724e+2, 2.4707532e+2, -528666.3, -701056.25, -23965.06, -0.12147056, 0.053886212, -525396.75, -6732.636, 0.000011354388, 9.991045, 9.969248 
7.7699757e+2, 2.5704432e+2, -412173.0, -586012.25, -23119.625, -0.13422841, 0.020790447, -409150.78, 11818.372, 0.000027350894, 9.991945, 9.970023 
7.764236e+2, 2.6701638e+2, -321827.38, -460367.9, -18690.025, -0.14164732, 0.053987537, -319350.28, 3892.157, 0.000074834155, 9.99004, 9.97284 
7.758501e+2, 2.7698964e+2, -280312.28, -396788.75, -7249.7334, -0.13857865, 0.10339027, -279862.78, -54359.465, 0.0001951624, 9.986534, 9.972171 
7.7528036e+2, 2.8696e+2, -226483.61, -343235.13, 6957.7705, -0.20208041, 0.05215557, -226070.42, -98277.63, 0.0004440387, 9.98476, 9.970146 
7.747117e+2, 2.9692966e+2, -133324.7, -235282.58, 1040.1659, -0.29929987, -0.022723561, -133314.1, -103224.67, 0.00085481326, 9.983919, 9.971366 
7.7414477e+2, 3.0690485e+2, -69474.734, -101596.945, 7242.7217, -0.33899015, -0.021439977, -67917.21, -67917.21, 0.0013981377, 9.981812, 9.978082 
7.735785e+2, 3.1688058e+2, -81068.57, -50460.78, 15542.276, -0.30115917, -0.21321626, -43952.49, -43952.49, 0.00199486, 9.9790535, 9.98262 
7.944727e+2, 1.2792183e+2, -1620193.5, -1709547.8, -1897.1578, 0.38917947, 0.044090386, -1620153.3, 66217.61, 0.04048696, 9.9919815, 9.9799385 
7.93899e+2, 1.3790174e+2, -1533920.1, -1613770.5, -12038.041, 0.28102162, 0.030108714, -1532144.8, 56424.426, 0.027255554, 9.990881, 9.98035 
7.933231e+2, 1.4788264e+2, -1457792.1, -1518046.5, -19495.738, 0.20504834, 0.036731467, -1452034.4, 38721.684, 0.015450947, 9.988824, 9.9811735 
7.927473e+2, 1.5786384e+2, -1391540.9, -1443396.8, -18641.502, 0.15648426, 0.049733244, -1385535.1, 7404.3755, 0.0070204185, 9.9869795, 9.980462 
7.9217273e+2, 1.6784295e+2, -1272594.8, -1359702.9, -7355.5015, 0.17467143, 0.050728586, -1271978.0, 23166.258, 0.00246143, 9.98948, 9.97822 
7.915984e+2, 1.7782089e+2, -1124865.8, -1248532.3, -4976.9976, 0.20990545, 0.049233086, -1124665.8, 72695.164, 0.0006538381, 9.993243, 9.977107 
7.910199e+2, 1.877969e+2, -1047837.2, -1188448.3, -17581.17, 0.1576864, 0.09186582, -1045672.3, 53925.45, 0.00013178353, 9.992797, 9.974761 
7.9044056e+2, 1.9777238e+2, -973586.9, -1099541.5, -19797.984, 0.061299574, 0.14976537, -970548.25, 31291.816, 0.00002083429, 9.991136, 9.975108 
7.898656e+2, 2.0774713e+2, -904984.5, -1017366.75, -8902.855, 0.011470204, 0.11087622, -904283.6, -197.31573, 0.0000030677775, 9.98937, 9.975105 
7.892926e+2, 2.1772142e+2, -835301.94, -934393.7, -16779.941, -0.00065120007, 0.02405577, -832537.56, -26201.707, 0.00000075846754, 9.987395, 9.975086 
7.887165e+2, 2.2769588e+2, -726044.2, -838655.2, -35334.543, -0.03282953, -0.005928826, -715875.4, -7290.783, 0.0000004625228, 9.988241, 9.974562 
7.881389e+2, 2.3767051e+2, -602271.0, -736249.94, -39192.914, -0.08436833, 0.0012960563, -591648.1, 19183.855, 0.0000005421817, 9.990353, 9.973983 
7.875635e+2, 2.4764314e+2, -518641.84, -674540.06, -25217.293, -0.11057236, 0.02424667, -514664.3, -1563.5021, 0.0000011271336, 9.990673, 9.971324 
7.8698874e+2, 2.5761452e+2, -425648.5, -576489.9, -12546.608, -0.11945358, 0.04220847, -424612.03, -9229.725, 0.0000033511783, 9.990175, 9.971417 
7.864136e+2, 2.67587e+2, -322485.2, -461844.0, -14937.553, -0.13600284, 0.07360451, -320902.06, -3250.3596, 0.000010877153, 9.98985, 9.972687 
7.858382e+2, 2.7756e+2, -235903.81, -380475.94, -11681.72, -0.15401082, 0.108597286, -234966.0, -15050.338, 0.000032483065, 9.989631, 9.971779 
7.852667e+2, 2.8752977e+2, -183321.89, -333576.72, 2457.3323, -0.2125294, 0.07738919, -183281.72, -61069.9, 0.00008210564, 9.988074, 9.969127 
7.846962e+2, 2.9749867e+2, -112327.984, -228536.34, 5415.914, -0.30288434, 0.03330307, -112076.12, -87560.2, 0.00017064645, 9.985392, 9.970908 
7.8412783e+2, 3.074741e+2, -35060.395, -68831.13, 7871.8013, -0.2750576, -0.014227272, -33315.656, -33315.656, 0.00029402197, 9.983246, 9.979446 
7.83557e+2, 3.1745285e+2, -75157.695, -100051.05, 10171.339, -0.45181403, 0.040322352, -71530.3, -71530.3, 0.00043422793, 9.9812765, 9.9780445 
8.0446285e+2, 1.2849335e+2, -1654097.4, -1721912.0, -13605.926, 0.34448385, 0.06451825, -1651469.4, 29304.67, 0.024554512, 9.989354, 9.980518 
8.0388933e+2, 1.3847423e+2, -1544329.5, -1615613.6, -12315.978, 0.2815101, 0.10985202, -1542261.6, 40701.684, 0.016354568, 9.989966, 9.980575 
8.0331254e+2, 1.4845516e+2, -1434273.5, -1505384.3, -17937.117, 0.22006087, 0.10902693, -1430005.3, 55144.254, 0.009139995, 9.990343, 9.98117 
8.0273575e+2, 1.5843618e+2, -1335084.9, -1411536.6, -14409.236, 0.16355035, 0.09892612, -1332459.3, 54874.996, 0.0040751924, 9.990681, 9.980756 
8.0216235e+2, 1.6841605e+2, -1249834.4, -1334063.0, -3590.0486, 0.1417419, 0.085375026, -1249681.6, 39848.777, 0.0013936984, 9.990565, 9.979593 
8.015901e+2, 1.7839526e+2, -1159658.0, -1259741.6, -16372.688, 0.14288431, 0.07310791, -1157047.6, 34685.793, 0.00035817633, 9.990716, 9.977852 
8.010125e+2, 1.8837053e+2, -1074947.6, -1216267.6, -31967.135, 0.18547532, 0.08826135, -1068052.9, 25924.777, 0.0000688692, 9.9915495, 9.973608 
8.004335e+2, 1.9834441e+2, -963704.1, -1107919.9, -25953.861, 0.21989338, 0.10994367, -959175.5, 37060.492, 0.000009974739, 9.992337, 9.973951 
7.9985625e+2, 2.0831884e+2, -883239.75, -1017351.8, -15606.759, 0.10274307, 0.1382405, -881447.5, 17038.695, 0.0000011237968, 9.99122, 9.974136 
7.9928e+2, 2.1829315e+2, -812584.75, -936544.1, -18671.512, -0.04604935, 0.15514272, -809833.4, -9096.635, 0.00000012064648, 9.989492, 9.973863 
7.98705e+2, 2.2826536e+2, -713880.44, -853207.3, -23931.725, -0.054562308, 0.06612552, -709884.4, -6877.4663, 0.00000003078955, 9.990124, 9.972641 
7.981301e+2, 2.382371e+2, -590601.7, -735345.4, -28673.14, -0.029442322, -0.043417316, -585128.6, 20153.256, 0.000000035069014, 9.991488, 9.97343 
7.975546e+2, 2.4821159e+2, -492502.94, -626737.2, -25893.275, -0.07059536, -0.0060209814, -487681.4, 19849.887, 0.00000009465789, 9.990987, 9.9743595 
7.9697883e+2, 2.5818646e+2, -414461.47, -549341.1, -17190.596, -0.12752911, 0.06827184, -412304.97, -2527.21, 0.00000036136618, 9.9900675, 9.973312 
7.964033e+2, 2.6815844e+2, -333442.78, -479387.25, -18945.137, -0.16156007, 0.05551172, -331023.6, -18971.924, 0.0000014203141, 9.989733, 9.971525 
7.9582757e+2, 2.7812946e+2, -246324.97, -397116.63, -14888.422, -0.18348745, 0.015667208, -244869.02, -30534.096, 0.000004867388, 9.989511, 9.970649 
7.9525524e+2, 2.8809875e+2, -184939.8, -334127.9, -7444.6675, -0.1653062, -0.004282116, -184569.22, -67932.36, 0.000013505621, 9.987947, 9.969012 
7.946832e+2, 2.980683e+2, -105493.81, -218012.36, -3309.3076, -0.1643499, 0.010746044, -105396.56, -86460.07, 0.000029796942, 9.985557, 9.971415 
7.9411155e+2, 3.080467e+2, -26749.645, -58516.67, -193.65526, -0.25118402, 0.19453764, -26748.463, -26748.463, 0.000053258143, 9.983581, 9.979864 
7.9353833e+2, 3.180242e+2, -70703.26, -97728.92, -1256.4027, -0.4783517, 0.13188025, -70644.97, -70644.97, 0.000080434096, 9.981548, 9.977941 
8.144524e+2, 1.2906453e+2, -1620840.4, -1673603.1, -3749.9312, 0.31543955, 0.11570297, -1620575.1, 54606.773, 0.013656359, 9.990154, 9.983347 
8.1387955e+2, 1.3904878e+2, -1522950.0, -1584853.4, -1651.1636, 0.2792365, 0.23732734, -1522906.0, 54432.016, 0.00901513, 9.99044, 9.982351 
8.133042e+2, 1.4902996e+2, -1420980.1, -1498036.9, -3853.0386, 0.28608683, 0.19893503, -1420787.9, 58732.766, 0.0049783196, 9.991117, 9.981237 
8.1272876e+2, 1.5901028e+2, -1319562.3, -1412389.9, -3377.0293, 0.28931397, 0.12904449, -1319439.6, 62271.273, 0.0021846793, 9.99196, 9.979996 
8.1215334e+2, 1.6898818e+2, -1257674.4, -1359692.3, -2001.5665, 0.16130781, 0.07771353, -1257635.0, 26290.42, 0.0007317571, 9.990727, 9.977711 
8.115786e+2, 1.7896558e+2, -1182632.4, -1277964.9, -15537.263, 0.031429827, 0.04184689, -1180164.0, 5981.855, 0.00018305307, 9.989272, 9.977363 
8.110024e+2, 1.8894224e+2, -1069992.1, -1194444.8, -18019.938, 0.06797787, 0.08802271, -1067435.5, 20940.959, 0.00003398987, 9.991019, 9.975428 
8.104258e+2, 1.9891806e+2, -939006.5, -1085061.4, -10862.04, 0.13200818, 0.14299294, -938203.1, 52412.67, 0.0000046947907, 9.993444, 9.974925 
8.0984867e+2, 2.0889229e+2, -856946.0, -1009580.2, -7076.422, 0.08266095, 0.14841726, -856618.6, 36249.676, 0.00000048597724, 9.992985, 9.97366 
8.0927175e+2, 2.1886589e+2, -775983.7, -922944.0, -4851.5356, -0.00051922246, 0.1453425, -775823.7, 19302.389, 0.000000038896548, 9.991975, 9.973431 
8.0869704e+2, 2.288384e+2, -680173.94, -839827.75, 158.70567, -0.026837073, 0.12266422, -680173.75, 17220.941, 0.0000000033243455, 9.992452, 9.972236 
8.081226e+2, 2.3881033e+2, -570369.4, -730053.9, -3764.3005, -0.03355615, 0.08223917, -570280.7, 29387.973, 0.000000002060517, 9.992897, 9.972811 
8.075456e+2, 2.4878359e+2, -494674.28, -635909.7, -18368.354, -0.078810364, 0.07373225, -492324.5, 9605.538, 0.000000008175108, 9.990946, 9.9735365 
8.0696803e+2, 2.5875717e+2, -436549.28, -566042.3, -22478.637, -0.13535683, 0.08500246, -432758.22, -28570.244, 0.00000004353171, 9.988625, 9.972901 
8.063919e+2, 2.6872885e+2, -360792.06, -496122.8, -22985.514, -0.166382, 0.06618725, -356994.6, -50530.12, 0.00000021170918, 9.987888, 9.971342 
8.058159e+2, 2.7869973e+2, -272833.22, -405872.44, -16221.39, -0.18613878, 0.025195159, -270883.9, -62135.05, 0.0000008234988, 9.987385, 9.971079 
8.052418e+2, 2.8867033e+2, -200131.14, -320906.9, -3535.0938, -0.1870065, -0.0022871557, -200027.77, -88989.89, 0.0000024585554, 9.985814, 9.970726 
8.046677e+2, 2.986414e+2, -121284.836, -217174.77, 11954.694, -0.1897297, 0.025650844, -119816.91, -106494.83, 0.0000056556337, 9.983948, 9.971883 
8.040947e+2, 3.0861944e+2, -51328.668, -90279.47, 1227.8788, -0.24613464, 0.2882858, -51290.0, -51290.0, 0.000010353285, 9.982617, 9.977975 
8.0352074e+2, 3.1859288e+2, -53734.445, -76897.95, -6391.6685, -0.40182382, -0.037440803, -52087.805, -52087.805, 0.000015850017, 9.98209, 9.979196 
8.244425e+2, 1.2963833e+2, -1609647.9, -1663404.1, 7620.7876, 0.29532087, 0.1534292, -1608588.4, 60973.207, 0.006829297, 9.990765, 9.983569 
8.238702e+2, 1.3962309e+2, -1512618.3, -1576841.8, -7923.584, 0.2772276, 0.2855597, -1511655.1, 60058.07, 0.0044781193, 9.991073, 9.982684 
8.23296e+2, 1.4960429e+2, -1409618.1, -1493194.4, -10739.734, 0.3263596, 0.23727143, -1408260.1, 65635.11, 0.0024504783, 9.992003, 9.98133 
8.2272184e+2, 1.595844e+2, -1309769.5, -1414181.8, -15187.176, 0.36792377, 0.14996867, -1307605.4, 68481.875, 0.0010623109, 9.992927, 9.979557 
8.221444e+2, 1.6956128e+2, -1253432.9, -1370276.6, -11066.622, 0.1790172, 0.08245608, -1252394.0, 25917.51, 0.00035011073, 9.991485, 9.976609 
8.2156736e+2, 1.7953755e+2, -1171997.0, -1273095.8, -10700.366, -0.032724194, 0.033267144, -1170876.9, 9665.412, 0.00008574844, 9.990024, 9.977237 
8.209926e+2, 1.8951552e+2, -1058752.8, -1170562.4, -7492.7036, -0.022272376, 0.102111995, -1058252.9, 24507.146, 0.00001549313, 9.991143, 9.977033 
8.204182e+2, 1.9949308e+2, -944382.0, -1077676.5, -10737.966, 0.03488357, 0.18024576, -943522.5, 41459.574, 0.00000206642, 9.992721, 9.975857 
8.198414e+2, 2.094671e+2, -859280.9, -1012956.6, -13486.774, 0.058608405, 0.14931844, -858106.2, 29130.4, 0.00000020419269, 9.992892, 9.973481 
8.192645e+2, 2.194402e+2, -766608.75, -918803.9, -6495.014, 0.06069081, 0.111515425, -766332.1, 23167.736, 0.00000001503231, 9.992649, 9.973383 
8.1868976e+2, 2.2941378e+2, -683605.4, -839053.7, 2047.8418, 0.000518891, 0.1837331, -683578.44, 8181.0366, 0.0000000008546758, 9.992182, 9.972412 
8.1811494e+2, 2.3938681e+2, -593110.25, -748498.25, -5992.76, -0.06405852, 0.25330982, -592879.5, 1144.761, 0.00000000025790967, 9.991665, 9.972094 
8.175361e+2, 2.4935764e+2, -516355.47, -670722.3, -23971.688, -0.103532806, 0.1789558, -512718.6, -16409.283, 0.0000000023643407, 9.990442, 9.97125 
8.169566e+2, 2.593281e+2, -441054.38, -583298.0, -22184.992, -0.14086053, 0.092601, -437674.63, -39076.953, 0.000000018171763, 9.988963, 9.971401 
8.1637996e+2, 2.6929957e+2, -355469.88, -492488.16, -20934.654, -0.15870067, 0.1057158, -352342.7, -51466.73, 0.000000103816774, 9.988282, 9.971275 
8.1580335e+2, 2.7927125e+2, -260291.16, -382041.2, -17457.104, -0.18057014, 0.11861968, -257837.52, -54685.25, 0.0000004361087, 9.987533, 9.972528 
8.152266e+2, 2.8924438e+2, -176100.98, -269775.84, -10930.412, -0.29222232, 0.06295241, -174842.47, -69428.13, 0.0000013540074, 9.985764, 9.974116 
8.146496e+2, 2.9921776e+2, -120932.86, -215828.0, 7218.0815, -0.3961183, 0.044901658, -120386.96, -112712.49, 0.0000031800391, 9.983962, 9.97186 
8.140777e+2, 3.0919096e+2, -85763.68, -164769.13, -5419.943, -0.22196347, 0.1934719, -85393.59, -85393.59, 0.000005891326, 9.982812, 9.972693 
8.1350344e+2, 3.1916246e+2, -5685.4443, 9756.336, 10480.952, -0.39858827, -0.0062161735, 15053.223, 15053.223, 0.000009073555, 9.982994, 9.984807 
8.3443344e+2, 1.302143e+2, -1622196.9, -1698341.1, 18392.795, 0.2830251, 0.15789093, -1617986.9, 45929.82, 0.0030089617, 9.991061, 9.980966 
8.338614e+2, 1.4019597e+2, -1518112.0, -1596486.3, 2377.5637, 0.2677402, 0.21363473, -1518040.0, 48059.2, 0.0019641386, 9.991338, 9.981155 
8.33288e+2, 1.5017685e+2, -1406853.0, -1496290.6, 2650.5173, 0.2990855, 0.2003791, -1406774.5, 61511.54, 0.0010681495, 9.992312, 9.980962 
8.327147e+2, 1.6015732e+2, -1301509.8, -1405491.8, -9012.581, 0.33145583, 0.1700021, -1300734.4, 69741.59, 0.00045917454, 9.993114, 9.980004 
8.321366e+2, 1.7013578e+2, -1238792.4, -1346569.3, -7047.141, 0.22943644, 0.1420575, -1238333.5, 34351.35, 0.00014963388, 9.991505, 9.97808 
8.31559e+2, 1.8011357e+2, -1163036.3, -1261598.9, 2530.2517, 0.103103146, 0.11954371, -1162971.4, 11929.625, 0.00003610315, 9.99014, 9.977816 
8.309844e+2, 1.9009107e+2, -1063170.8, -1175830.1, 9566.6455, 0.0614745, 0.15146175, -1062364.1, 14758.354, 0.0000063962675, 9.990868, 9.976745 
8.3041036e+2, 2.0006806e+2, -954846.25, -1081185.4, 1641.7241, 0.048671484, 0.18664373, -954824.9, 24524.47, 0.00000083170164, 9.991804, 9.976039 
8.298341e+2, 2.1004263e+2, -856209.6, -1004645.2, -839.2262, 0.05896621, 0.15934046, -856204.9, 25393.262, 0.00000007956063, 9.992664, 9.974112 
8.2925755e+2, 2.2001639e+2, -751640.9, -904809.1, 3841.1084, 0.059721097, 0.12794743, -751544.6, 32310.033, 0.0000000056202314, 9.99317, 9.973975 
8.2868105e+2, 2.299901e+2, -693461.3, -837761.4, 7815.5728, -0.018073592, 0.15848124, -693039.25, -6926.697, 0.00000000032840852, 9.990959, 9.972914 
8.281044e+2, 2.3996338e+2, -629021.94, -758452.25, 6170.5615, -0.09574258, 0.20144176, -628728.44, -40353.7, 0.00000000051819127, 9.98867, 9.97268 
8.2752585e+2, 2.4993537e+2, -523824.72, -667536.44, 2659.9587, -0.108663715, 0.19365884, -523775.5, -33126.21, 0.0000000056411533, 9.989508, 9.971605 
8.269468e+2, 2.599065e+2, -413395.03, -570043.75, 14970.319, -0.11717389, 0.1656178, -411977.22, -19044.916, 0.000000045029733, 9.990713, 9.97097 
8.263696e+2, 2.6987696e+2, -328462.3, -485664.7, 13815.276, -0.13598981, 0.16201738, -327257.44, -32036.625, 0.00000026140623, 9.990231, 9.970262 
8.257919e+2, 2.7984765e+2, -234707.27, -369146.94, 11269.103, -0.16580349, 0.15956399, -233769.2, -36262.7, 0.0000011064126, 9.989058, 9.972172 
8.2521254e+2, 2.8982097e+2, -159458.25, -256383.08, -3958.5298, -0.30436254, 0.11460858, -159296.84, -59530.66, 0.0000034479315, 9.986412, 9.9744425 
8.2463306e+2, 2.9979432e+2, -131482.14, -238806.06, 816.7618, -0.43124208, 0.088619046, -131475.92, -129449.97, 0.000008112904, 9.983819, 9.970405 
8.2406145e+2, 3.0976313e+2, -103762.45, -218159.08, -3917.6377, -0.15327114, 0.12139801, -103628.445, -103628.445, 0.000015051014, 9.983363, 9.968728 
8.2348496e+2, 3.1973466e+2, 22507.865, 96763.56, 19809.059, -0.50385356, 0.07704621, 101717.49, 101717.49, 0.000023198249, 9.981667, 9.991345 
8.4442556e+2, 1.3078755e+2, -1593546.3, -1680314.8, -12316.244, 0.31207246, 0.14590636, -1591831.9, 66469.08, 0.0011421927, 9.992866, 9.9817095 
8.4385276e+2, 1.4076973e+2, -1514300.0, -1592734.9, -7039.536, 0.2677065, 0.20744763, -1513673.1, 46804.863, 0.0007435361, 9.991558, 9.981397 
8.432794e+2, 1.50751e+2, -1425502.3, -1503603.3, 3747.107, 0.26415902, 0.21254772, -1425322.9, 37338.95, 0.00040280866, 9.9910345, 9.981122 
8.427065e+2, 1.6073197e+2, -1324958.8, -1409658.0, -7860.659, 0.2802582, 0.20955263, -1324235.4, 40612.508, 0.00017225166, 9.991223, 9.980601 
8.4212893e+2, 1.707117e+2, -1208009.3, -1317193.0, -10285.099, 0.26660764, 0.19919364, -1207048.9, 59995.79, 0.00005573453, 9.992967, 9.979374 
8.4155166e+2, 1.8069074e+2, -1101677.9, -1226573.1, -2059.105, 0.22412746, 0.19144589, -1101644.0, 67604.555, 0.000013319515, 9.994108, 9.978333 
8.409766e+2, 1.9066791e+2, -1036842.06, -1165859.9, 8551.205, 0.13533705, 0.19296941, -1036277.75, 35194.85, 0.00000232996, 9.992817, 9.97652 
8.4040236e+2, 2.006444e+2, -954206.9, -1078363.5, 3169.7168, 0.062650815, 0.19301382, -954126.0, 19577.373, 0.00000029792903, 9.991787, 9.976258 
8.3982664e+2, 2.1061969e+2, -858019.8, -997513.56, 946.4615, 0.05587614, 0.17913826, -858013.4, 17931.39, 0.000000027884646, 9.992267, 9.974827 
8.3925045e+2, 2.2059427e+2, -753488.75, -897792.0, -1432.5316, 0.041235685, 0.15544125, -753474.56, 24718.518, 0.000000001919551, 9.992677, 9.974692 
8.3867174e+2, 2.3056786e+2, -678273.06, -823244.25, -3741.5947, -0.04338711, 0.107663706, -678176.56, 2274.3774, 0.00000000019846984, 9.99158, 9.973546 
8.3809304e+2, 2.4054131e+2, -598071.1, -730091.06, 2146.7366, -0.120299414, 0.08792727, -598036.25, -15325.509, 0.0000000015404152, 9.990224, 9.97386 
8.3751565e+2, 2.5051594e+2, -502745.1, -639109.56, 3403.957, -0.10375517, 0.19037384, -502660.2, -17699.457, 0.000000016923169, 9.990298, 9.973227 
8.3693784e+2, 2.6048937e+2, -413242.97, -566861.0, 11812.949, -0.08449908, 0.2715955, -412339.9, -25117.875, 0.00000013514494, 9.990681, 9.971252 
8.3636004e+2, 2.7045867e+2, -337578.84, -500430.16, 7593.151, -0.10788739, 0.214762, -337225.56, -47703.496, 0.0000007845466, 9.990079, 9.969295 
8.3578116e+2, 2.8042775e+2, -246600.95, -390644.53, 3273.1082, -0.14019702, 0.1564538, -246526.61, -54702.887, 0.0000033202282, 9.988902, 9.97069 
8.351998e+2, 2.9039958e+2, -176795.25, -290726.34, -15795.441, -0.21584582, 0.17013855, -174645.92, -80547.25, 0.000010345599, 9.9862795, 9.972024 
8.3461845e+2, 3.0037063e+2, -148743.53, -276740.0, -4916.76, -0.2840195, 0.18184733, -148554.95, -148554.95, 0.000024336618, 9.98394, 9.96769 
8.340456e+2, 3.103354e+2, -118265.625, -249669.22, -7621.76, -0.08001271, 0.051675335, -117825.016, -117825.016, 0.000045134355, 9.9835005, 9.96646 
8.334656e+2, 3.203072e+2, 30904.506, 134505.83, -16485.697, -0.533155, 0.08579528, 137065.88, 137065.88, 0.00006957635, 9.980367, 9.994262 
8.544192e+2, 1.3135773e+2, -1567394.1, -1623317.0, -9299.434, 0.38901517, 0.13064371, -1565888.3, 86829.875, 0.00036341642, 9.992552, 9.985611 
8.538443e+2, 1.4134441e+2, -1501929.9, -1561731.8, -2763.569, 0.27959013, 0.3086582, -1501802.5, 53047.18, 0.00023620963, 9.991142, 9.983583 
8.532696e+2, 1.5132697e+2, -1424549.4, -1489483.9, 11988.985, 0.21772861, 0.3051837, -1422406.5, 34614.098, 0.00012768328, 9.990347, 9.982319 
8.5269636e+2, 1.6130869e+2, -1330342.6, -1405752.5, 8976.593, 0.19836015, 0.27792665, -1329288.8, 29910.707, 0.000054433065, 9.9905205, 9.9811535 
8.521221e+2, 1.712883e+2, -1196761.1, -1308540.6, 12449.599, 0.23648418, 0.22466427, -1195391.4, 66006.08, 0.00001753889, 9.99363, 9.979659 
8.515474e+2, 1.8126737e+2, -1071432.4, -1207127.8, 6067.3633, 0.23705962, 0.18890461, -1071161.6, 92439.26, 0.000004167791, 9.995791, 9.978778 
8.5097e+2, 1.912453e+2, -1020218.75, -1151284.3, 9590.148, 0.12576275, 0.20998818, -1019520.75, 46296.582, 0.00000072355056, 9.993361, 9.977106 
8.503935e+2, 2.0122246e+2, -957264.25, -1076252.9, 12210.784, 0.03227102, 0.22868557, -956024.1, 12017.222, 0.00000009158835, 9.99121, 9.976567 
8.4981805e+2, 2.1119814e+2, -867068.56, -999313.75, 13727.7, 0.02566752, 0.22984529, -865658.6, 4620.941, 0.000000008458324, 9.9913845, 9.975068 
8.492424e+2, 2.2117318e+2, -758634.2, -893750.9, 10415.575, 0.022814589, 0.21708703, -757836.0, 14687.447, 0.00000000058265287, 9.991888, 9.975305 
8.4866476e+2, 2.311474e+2, -650625.4, -802355.7, 7583.611, 0.00046546265, 0.16240628, -650247.3, 24527.305, 0.00000000027731312, 9.99299, 9.974234 
8.480863e+2, 2.4112123e+2, -545016.56, -703127.8, 9185.469, -0.038359094, 0.12625928, -544484.75, 32545.24, 0.000000003769355, 9.993588, 9.974021 
8.4750706e+2, 2.5109535e+2, -477303.75, -630137.6, 301.89124, -0.095626555, 0.1922798, -477303.16, 1980.7424, 0.00000004142532, 9.991945, 9.973085 
8.469279e+2, 2.610687e+2, -412576.5, -562292.94, 3956.9067, -0.13244048, 0.24931592, -412472.0, -30926.203, 0.00000033075654, 9.990336, 9.971884 
8.4634954e+2, 2.7103886e+2, -336586.25, -491151.16, 4565.5703, -0.13060685, 0.18702438, -336451.53, -52614.15, 0.0000019196295, 9.98956, 9.970224 
8.457699e+2, 2.810087e+2, -245444.97, -389364.22, 7255.67, -0.1375098, 0.13636819, -245080.11, -58947.977, 0.000008122084, 9.988708, 9.970784 
8.4518707e+2, 2.909805e+2, -153165.47, -289642.94, -3949.6335, -0.20008591, 0.21298851, -153051.27, -64643.465, 0.000025306728, 9.988079, 9.970974 
8.4460413e+2, 3.0095065e+2, -108078.195, -264820.56, 18701.379, -0.24670331, 0.25518098, -105877.766, -105877.766, 0.000059529066, 9.986794, 9.966694 
8.440287e+2, 3.109136e+2, -129883.26, -254883.52, 29442.484, -0.07064885, -0.00318521, -123295.58, -123295.58, 0.00011036812, 9.982377, 9.965939 
8.434448e+2, 3.2088745e+2, 16644.82, 147025.23, 4337.11, -0.529788, 0.19388781, 147169.34, 147169.34, 0.00017012683, 9.977892, 9.995358 
8.644129e+2, 1.3193426e+2, -1520943.6, -1591790.3, 13850.736, 0.3876814, 0.23131202, -1518332.0, 128740.46, 0.00009383463, 9.995287, 9.985895 
8.638363e+2, 1.4192082e+2, -1467352.1, -1535821.5, -201.60748, 0.28563187, 0.34871826, -1467351.5, 81852.234, 0.00006094004, 9.993065, 9.984214 
8.6326027e+2, 1.5190408e+2, -1401298.6, -1468099.5, 12209.459, 0.21066983, 0.33988282, -1399137.0, 52230.508, 0.00003290037, 9.991468, 9.983148 
8.6268663e+2, 1.6188638e+2, -1328991.5, -1402642.1, 12896.614, 0.17200658, 0.31054503, -1326798.5, 26742.084, 0.000014001087, 9.990596, 9.981357 
8.621146e+2, 1.71866e+2, -1234883.5, -1326383.3, 19308.143, 0.20496675, 0.2510865, -1230976.0, 24763.197, 0.0000045003767, 9.99116, 9.979754 
8.615416e+2, 1.8184528e+2, -1123003.9, -1225011.3, 943.15265, 0.21242608, 0.20683125, -1122995.3, 34945.902, 0.0000010659371, 9.991948, 9.979457 
8.609628e+2, 1.9182418e+2, -1025326.6, -1143020.9, 2319.3857, 0.111806184, 0.23375621, -1025280.94, 34866.492, 0.00000018424288, 9.992449, 9.97806 
8.6038494e+2, 2.0180222e+2, -933520.9, -1058673.5, 13196.47, 0.020069396, 0.26388633, -932144.56, 30217.941, 0.000000023185766, 9.992552, 9.977059 
8.5980946e+2, 2.117784e+2, -850322.0, -986804.0, 20224.633, 0.0039584795, 0.27892298, -847388.06, 17208.418, 0.0000000021246724, 9.992371, 9.975362 
8.592343e+2, 2.2175395e+2, -749219.5, -882386.56, 19697.695, 0.010276603, 0.28098413, -746367.0, 20468.9, 0.00000000016612903, 9.9923, 9.975797 
8.586583e+2, 2.3172891e+2, -651370.6, -795562.56, 15137.8, 0.060675588, 0.24535203, -649798.56, 19281.035, 0.00000000051179117, 9.992715, 9.97479 
8.5808074e+2, 2.4170297e+2, -557729.9, -713340.94, 8872.339, 0.06054251, 0.20745115, -557225.6, 14106.529, 0.000000007637945, 9.992881, 9.973595 
8.574988e+2, 2.5167528e+2, -486264.56, -645522.94, -2608.0356, -0.10081075, 0.18406568, -486221.84, -12619.526, 0.000000083945466, 9.991744, 9.971989 
8.569173e+2, 2.6164728e+2, -405041.88, -549801.56, 5510.213, -0.22074106, 0.16278543, -404832.44, -28956.61, 0.0000006702643, 9.9904785, 9.972538 
8.563386e+2, 2.716191e+2, -326539.53, -466449.6, 3790.7966, -0.17894006, 0.11975115, -326436.9, -48285.56, 0.000003889783, 9.989423, 9.971874 
8.557584e+2, 2.815908e+2, -240857.13, -374960.78, 5370.1694, -0.15969072, 0.11006704, -240642.4, -60213.895, 0.000016460805, 9.988541, 9.971776 
8.5517454e+2, 2.9156366e+2, -151080.02, -284184.94, -6288.4165, -0.2666377, 0.24133316, -150783.6, -68088.71, 0.000051319832, 9.988088, 9.971273 
8.5459e+2, 3.0153462e+2, -95163.12, -238331.73, 7511.9043, -0.33926332, 0.30225214, -94770.055, -94770.055, 0.000120814846, 9.986714, 9.9684 
8.5401016e+2, 3.1149969e+2, -112730.164, -211906.83, 12592.677, -0.12733954, -0.014057045, -111156.22, -111156.22, 0.00022411745, 9.981846, 9.968872 
8.534225e+2, 3.214765e+2, -10518.222, 101661.1, -5956.745, -0.50084066, 0.31506968, 101976.516, 101976.516, 0.00034556063, 9.977364, 9.992225 
8.744071e+2, 1.3251716e+2, -1552484.0, -1641513.9, 15132.211, 0.3038149, 0.4317845, -1549982.4, 91381.09, 0.000019043677, 9.994444, 9.982766 
8.7382936e+2, 1.424987e+2, -1479134.9, -1549904.1, 1839.17, 0.29949677, 0.27655846, -1479087.0, 64455.594, 0.000012362725, 9.992429, 9.983409 
8.7325245e+2, 1.5248193e+2, -1405311.4, -1468289.3, 16704.682, 0.29495487, 0.2658714, -1401154.9, 44550.49, 0.0000066696857, 9.990935, 9.983273 
8.7267786e+2, 1.6246444e+2, -1340267.9, -1413417.8, 19212.473, 0.26634178, 0.2732122, -1335528.9, 12347.1875, 0.000002835376, 9.989911, 9.980863 
8.72104e+2, 1.7244446e+2, -1261672.8, -1344554.6, 26516.219, 0.15556398, 0.3046556, -1253915.5, -3842.3052, 0.0000009100635, 9.989422, 9.979298 
8.715306e+2, 1.8242446e+2, -1147472.5, -1221775.5, 13183.692, 0.09503038, 0.31089333, -1145202.6, 7066.9146, 0.00000021513608, 9.989554, 9.980811 
8.70955e+2, 1.924047e+2, -1021377.94, -1118304.5, 20133.943, 0.13838613, 0.28049907, -1017362.0, 37099.664, 0.000000037089958, 9.991701, 9.980074 
8.703793e+2, 2.023842e+2, -908527.8, -1026272.8, 27863.45, 0.14106554, 0.26508516, -902267.06, 54394.594, 0.0000000046516857, 9.993246, 9.97881 
8.698029e+2, 2.1236202e+2, -828638.4, -956137.2, 36535.543, 0.06556654, 0.27532482, -818911.06, 39967.543, 0.0000000004243601, 9.992794, 9.977044 
8.6922663e+2, 2.2233878e+2, -745700.44, -877483.75, 39644.72, 0.009737985, 0.28564575, -734693.4, 26412.838, 0.000000000071721434, 9.992212, 9.975928 
8.686498e+2, 2.3231375e+2, -666757.5, -806171.4, 33816.61, 0.003491478, 0.28751913, -658987.9, 4363.6694, 0.0000000009082265, 9.991603, 9.974386 
8.6807185e+2, 2.4228807e+2, -571726.3, -709613.1, 29290.45, -0.013167747, 0.27165538, -565762.3, -159.79504, 0.000000013717135, 9.991265, 9.974413 
8.674906e+2, 2.522612e+2, -473719.75, -625714.75, 26961.36, -0.09998497, 0.22132158, -469078.97, -1214.8131, 0.00000015076724, 9.991791, 9.972945 
8.6690885e+2, 2.622337e+2, -379687.34, -530698.44, 38959.883, -0.17654069, 0.18307391, -370228.44, -96.44803, 0.0000012040975, 9.991632, 9.972782 
8.66328e+2, 2.7220586e+2, -322267.8, -461161.0, 28688.848, -0.16895075, 0.17647125, -316575.34, -44170.996, 0.000006992764, 9.989247, 9.971867 
8.6574584e+2, 2.8217784e+2, -258908.75, -381663.97, 26832.838, -0.17600863, 0.18655498, -253299.7, -78620.52, 0.000029645516, 9.986939, 9.971749 
8.6516106e+2, 2.9215002e+2, -187431.23, -302680.34, 11985.092, -0.28164893, 0.2720382, -186198.06, -109246.54, 0.00009271142, 9.985389, 9.971038 
8.645752e+2, 3.021212e+2, -115678.23, -223718.66, 17146.197, -0.3549026, 0.30529624, -113022.38, -113022.38, 0.00021904535, 9.983892, 9.970473 
8.6399156e+2, 3.1208965e+2, -86518.12, -166200.36, 18670.316, -0.16563505, 0.036168687, -82360.42, -82360.42, 0.0004076256, 9.981776, 9.9717 
8.6340106e+2, 3.2206747e+2, -21369.73, 42671.938, -1851.5848, -0.4546229, 0.40390614, 42725.426, 42725.426, 0.00062983576, 9.978546, 9.987327 
8.844006e+2, 1.3309778e+2, -1580918.5, -1670097.5, 5058.7, 0.28518075, 0.44645038, -1580632.5, 55042.188, 0.000002958578, 9.993175, 9.981549 
8.838222e+2, 1.4307795e+2, -1457362.1, -1545335.3, -2009.162, 0.27754024, 0.25657377, -1457316.4, 80551.164, 0.0000019202917, 9.994168, 9.982847 
8.832453e+2, 1.5306081e+2, -1353293.4, -1446580.5, 10282.015, 0.34389475, 0.24028116, -1352173.6, 87860.12, 0.0000010355539, 9.994623, 9.98301 
8.826701e+2, 1.6304344e+2, -1273113.9, -1376996.0, 12771.105, 0.3359923, 0.26403064, -1271566.9, 70636.484, 0.0000004399312, 9.99429, 9.981237 
8.820944e+2, 1.7302458e+2, -1211378.9, -1313458.6, 31046.777, 0.1375412, 0.35226953, -1202677.9, 41712.793, 0.00000014107277, 9.992523, 9.97977 
8.8152015e+2, 1.8300563e+2, -1111287.9, -1189073.4, 28570.816, 0.034020413, 0.3907916, -1101921.5, 44656.043, 0.00000003330806, 9.991432, 9.981975 
8.8094723e+2, 1.9298692e+2, -1007029.3, -1092823.5, 31250.967, 0.16771626, 0.32125035, -996853.0, 51906.105, 0.0000000057331504, 9.991996, 9.981659 
8.803733e+2, 2.0296773e+2, -907572.8, -1005843.56, 26377.506, 0.23300669, 0.26964054, -900940.25, 50005.188, 0.00000000071752804, 9.992459, 9.980611 
8.797961e+2, 2.1294735e+2, -821842.56, -930362.56, 30859.89, 0.118212566, 0.26467407, -813680.8, 39462.844, 0.00000000006547386, 9.992269, 9.979098 
8.792187e+2, 2.2292553e+2, -748107.8, -875668.0, 34357.81, 0.004492791, 0.27927634, -739442.4, 15915.051, 0.0000000000751049, 9.991896, 9.976236 
8.786404e+2, 2.3290078e+2, -671557.44, -810402.4, 33915.15, -0.08399021, 0.32125235, -663715.94, -6114.084, 0.0000000014740116, 9.991337, 9.974167 
8.7806195e+2, 2.4287587e+2, -562333.3, -685301.44, 35485.023, -0.12552358, 0.3314537, -552828.1, 7018.5596, 0.000000022289091, 9.991094, 9.976086 
8.774826e+2, 2.5285107e+2, -462111.16, -595644.5, 31050.87, -0.080294706, 0.27938554, -455243.97, 6843.687, 0.00000024496487, 9.991592, 9.975056 
8.7690145e+2, 2.6282516e+2, -381386.44, -528896.0, 33938.09, -0.073581174, 0.25919947, -373952.78, -9612.886, 0.0000019576619, 9.991351, 9.972967 
8.763175e+2, 2.7279744e+2, -325043.72, -469065.7, 19553.436, -0.13508287, 0.31062827, -322436.22, -55824.01, 0.000011400731, 9.989247, 9.971202 
8.757327e+2, 2.827689e+2, -260376.31, -388494.53, 21335.336, -0.18553466, 0.32901716, -256916.8, -88024.92, 0.000048632028, 9.987095, 9.971096 
8.751469e+2, 2.9273897e+2, -192831.25, -314176.63, 6816.185, -0.2385734, 0.2883499, -192449.56, -121266.164, 0.00015357247, 9.985403, 9.970163 
8.7455964e+2, 3.0270988e+2, -98522.87, -185707.5, 8906.64, -0.29247215, 0.27128702, -97622.28, -97622.28, 0.00036699965, 9.98375, 9.973047 
8.7397283e+2, 3.1268382e+2, -67053.78, -122719.336, 10979.869, -0.2041509, 0.21039274, -64966.316, -64966.316, 0.00068988913, 9.981581, 9.974668 
8.7337995e+2, 3.2265845e+2, -74842.016, -61370.105, -19484.953, -0.39147928, 0.31286132, -47489.645, -47489.645, 0.001073521, 9.977978, 9.980371 
8.943937e+2, 1.3367617e+2, -1592059.1, -1666905.8, 17450.861, 0.31874824, 0.29587212, -1588190.4, 41814.594, 0.00000034527207, 9.992113, 9.982283 
8.9381546e+2, 1.4365876e+2, -1471259.6, -1561047.5, 6799.3228, 0.18919306, 0.33824822, -1470747.8, 61428.965, 0.00000022408217, 9.993613, 9.982022 
8.9324003e+2, 1.536403e+2, -1359666.6, -1462941.9, 19304.234, 0.31448928, 0.306724, -1356176.3, 78181.29, 0.00000012080618, 9.994763, 9.981831 
8.926655e+2, 1.6362314e+2, -1244635.9, -1332399.6, 13219.915, 0.3706335, 0.30301988, -1242687.8, 93838.09, 0.000000051297388, 9.994745, 9.983964 
8.9208883e+2, 1.7360727e+2, -1177843.9, -1257417.0, 34617.332, 0.2627943, 0.34928435, -1164892.1, 73789.625, 0.00000001643881, 9.992902, 9.983236 
8.9151317e+2, 1.8359016e+2, -1107545.0, -1187492.9, 39421.555, 0.15691625, 0.3769543, -1091376.5, 49473.223, 0.000000003877973, 9.991583, 9.981847 
8.909383e+2, 1.9357125e+2, -1020345.75, -1106262.8, 40619.195, 0.11044092, 0.35904777, -1004182.75, 38852.11, 0.00000000066676814, 9.991296, 9.980989 
8.9036345e+2, 2.0355214e+2, -921787.9, -1004628.0, 32061.03, 0.09333, 0.32354355, -910829.2, 34392.125, 0.00000000008333369, 9.991026, 9.981345 
8.8978714e+2, 2.135324e+2, -830598.1, -921152.06, 34891.824, 0.07241412, 0.2733217, -818713.56, 28699.244, 0.000000000010516922, 9.990971, 9.980349 
8.8921016e+2, 2.2351219e+2, -745081.75, -845100.25, 38786.598, 0.034067888, 0.27121043, -731803.3, 17807.09, 0.000000000098867345, 9.990683, 9.9788685 
8.886317e+2, 2.334907e+2, -665090.9, -773145.0, 48792.77, -0.017706769, 0.3419213, -646319.2, 5503.6074, 0.0000000020481026, 9.990117, 9.977101 
8.88053e+2, 2.4346825e+2, -566673.7, -669649.7, 61110.938, -0.0628548, 0.37083235, -538252.0, 15791.528, 0.0000000309748, 9.98986, 9.977474 
8.8747334e+2, 2.5344464e+2, -472358.6, -586085.6, 55364.11, -0.0756899, 0.3265247, -449858.13, 6415.5146, 0.0000003404844, 9.990054, 9.976222 
8.8689196e+2, 2.6342002e+2, -380344.8, -511597.06, 58899.836, -0.09591624, 0.30751404, -357789.44, 724.37524, 0.0000027257568, 9.990394, 9.974365 
8.8630736e+2, 2.7339342e+2, -286836.88, -435578.9, 53643.258, -0.15454409, 0.34437755, -269509.22, -8734.731, 0.000015971164, 9.990817, 9.972286 
8.8572097e+2, 2.8336596e+2, -207575.39, -342772.03, 62385.98, -0.18646154, 0.35256863, -183187.06, -20144.184, 0.000069086105, 9.98929, 9.972472 
8.851328e+2, 2.9333666e+2, -179538.58, -299990.84, 66697.61, -0.18260013, 0.2893175, -149899.48, -84571.67, 0.00022324533, 9.98534, 9.970331 
8.84544e+2, 3.033073e+2, -87773.33, -180893.97, 70843.72, -0.23876546, 0.25755268, -49559.27, -49559.27, 0.0005485991, 9.983949, 9.97249 
8.839552e+2, 3.1328028e+2, -31000.97, -126688.46, 31654.906, -0.26890734, 0.25131872, -21476.98, -21476.98, 0.0010574318, 9.984666, 9.972585 
8.8336235e+2, 3.2325014e+2, 28834.418, -50546.07, -11078.636, -0.32563287, 0.17469811, 30351.598, 30351.598, 0.001674894, 9.98669, 9.976652 
9.0438706e+2, 1.3425457e+2, -1546238.4, -1632254.3, 7840.7715, 0.32635728, 0.2598524, -1545529.5, 78808.12, 0.000000029867618, 9.994793, 9.983566 
9.038091e+2, 1.4423896e+2, -1463679.1, -1551961.8, 53.70117, 0.18318322, 0.3891797, -1463679.1, 62813.16, 0.000000019382966, 9.993913, 9.98258 
9.032337e+2, 1.5422098e+2, -1386711.4, -1473666.9, 27211.049, 0.28269115, 0.36908847, -1378898.3, 49771.656, 0.000000010447276, 9.992851, 9.981935 
9.026592e+2, 1.6420457e+2, -1261077.4, -1316234.8, 17337.744, 0.3582155, 0.34804767, -1256080.4, 74750.52, 0.000000004434464, 9.992533, 9.98599 
9.020824e+2, 1.7419052e+2, -1158215.6, -1219758.0, 24680.607, 0.33922118, 0.34077442, -1149540.6, 83426.71, 0.0000000014203173, 9.99297, 9.985825 
9.015059e+2, 1.8417488e+2, -1094512.6, -1179948.4, 27582.895, 0.23667717, 0.35826597, -1086381.4, 48739.125, 0.00000000033482794, 9.992385, 9.982085 
9.009288e+2, 1.9415653e+2, -1025571.7, -1109343.4, 39653.984, 0.044597443, 0.39519846, -1009778.56, 27522.783, 0.000000000057520166, 9.990937, 9.980918 
9.00353e+2, 2.0413782e+2, -928080.9, -999142.56, 37413.746, -0.03363865, 0.3785798, -912014.94, 27469.705, 0.0000000000071813653, 9.990232, 9.982009 
8.997776e+2, 2.141186e+2, -830400.56, -908968.6, 38898.47, 0.03418153, 0.29099137, -814400.56, 27270.611, 0.00000000000428494, 9.990475, 9.981359 
8.9920115e+2, 2.2410026e+2, -725295.4, -797916.6, 38782.59, 0.075783946, 0.27425444, -708478.3, 35371.91, 0.00000000010849106, 9.990396, 9.982183 
8.986229e+2, 2.3408273e+2, -636862.3, -714556.3, 45534.21, 0.08684699, 0.35900456, -615855.75, 30167.053, 0.000000002258234, 9.990091, 9.981113 
8.980438e+2, 2.4406326e+2, -556273.6, -649279.0, 59541.785, 0.036575027, 0.39958796, -527226.8, 20987.22, 0.000000034158017, 9.98994, 9.978862 
8.974632e+2, 2.5404096e+2, -465811.13, -568637.8, 55876.715, -0.09468504, 0.36862695, -441293.3, 9138.9375, 0.00000037566133, 9.989922, 9.977483 
8.968816e+2, 2.6401803e+2, -366262.6, -474252.66, 62283.953, -0.17808788, 0.33558506, -337827.34, 14828.8955, 0.00000301649, 9.990097, 9.977075 
8.962978e+2, 2.739937e+2, -273386.44, -397267.56, 53385.414, -0.19964278, 0.308148, -253555.14, 1338.4552, 0.000017853601, 9.990436, 9.975057 
8.9571023e+2, 2.8396922e+2, -183290.19, -284938.44, 45990.926, -0.17958853, 0.29280186, -165570.48, -8438.943, 0.000079075995, 9.988843, 9.976451 
8.9511865e+2, 2.9394388e+2, -162827.3, -264505.38, 58090.133, -0.11744818, 0.28927937, -136471.31, -77094.56, 0.00026623905, 9.985113, 9.972795 
8.9452827e+2, 3.039144e+2, -119127.43, -243672.05, 75618.734, -0.19847548, 0.23520611, -83440.39, -83440.39, 0.00069019, 9.983791, 9.968296 
8.93939e+2, 3.1387797e+2, -92115.016, -255838.61, 32005.555, -0.355599, 0.031715233, -86080.8, -86080.8, 0.0014013384, 9.984745, 9.963714 
8.9335024e+2, 3.2384706e+2, 99106.17, 58784.996, 13315.387, -0.35368896, 0.22899057, 103106.48, 103106.48, 0.0023083058, 9.988785, 9.983139 
9.143816e+2, 1.3483201e+2, -1552477.8, -1617419.0, 9750.752, 0.35248917, 0.31400618, -1551045.3, 67636.97, 0.000000001903787, 9.993597, 9.985144 
9.138035e+2, 1.4481804e+2, -1459380.1, -1517553.5, -4439.238, 0.2952606, 0.38682413, -1459043.3, 61777.0, 0.0000000012354053, 9.992692, 9.985441 
9.132251e+2, 1.5480354e+2, -1386308.8, -1441454.9, 26436.04, 0.2254054, 0.4296687, -1375683.1, 47280.383, 0.00000000066574474, 9.991399, 9.9847355 
9.1264945e+2, 1.6478822e+2, -1286581.3, -1338216.0, 24822.658, 0.21918517, 0.41030347, -1276583.9, 48529.855, 0.0000000002824927, 9.991249, 9.985088 
9.12074e+2, 1.747724e+2, -1173269.0, -1238221.9, 28125.93, 0.22813275, 0.3345073, -1162782.8, 64485.008, 0.00000000009044054, 9.992477, 9.984858 
9.1149753e+2, 1.8475735e+2, -1080372.9, -1142311.1, 18561.56, 0.18294853, 0.33223394, -1075236.4, 54178.492, 0.000000000021308946, 9.9918785, 9.984877 
9.109194e+2, 1.9474243e+2, -1019555.4, -1071120.0, 36393.7, 0.08537852, 0.4017294, -1000736.94, 30824.547, 0.000000000003658245, 9.989677, 9.984025 
9.1034305e+2, 2.0472586e+2, -946791.7, -1002671.4, 46133.324, 0.047520686, 0.42142498, -920797.1, 12927.056, 0.00000000000045636807, 9.988706, 9.982408 
9.097676e+2, 2.1470754e+2, -847621.75, -910437.9, 47588.28, 0.08460616, 0.38168275, -822011.3, 13892.699, 0.0000000000030655227, 9.988987, 9.981889 
9.091909e+2, 2.2469035e+2, -730039.06, -776291.44, 44267.77, 0.08477531, 0.35368404, -703220.75, 34850.832, 0.0000000000903565, 9.988996, 9.984264 
9.0861195e+2, 2.3467432e+2, -636006.06, -685563.1, 46781.64, 0.047464594, 0.3544585, -607845.94, 32381.443, 0.0000000018811002, 9.988861, 9.983686 
9.0803266e+2, 2.4465701e+2, -559508.0, -624048.9, 59808.574, -0.0054027, 0.3654835, -523819.28, 18577.158, 0.000000028451819, 9.988475, 9.981302 
9.074519e+2, 2.546378e+2, -476974.2, -540937.56, 62558.62, -0.094088815, 0.37134123, -438696.28, 5888.4834, 0.00000031314025, 9.987604, 9.980401 
9.0686977e+2, 2.6461807e+2, -396092.6, -451318.03, 74766.67, -0.16229916, 0.35787475, -344002.63, 2775.3486, 0.0000025239594, 9.986248, 9.980326 
9.062849e+2, 2.7459744e+2, -330738.2, -377748.8, 72411.35, -0.19118749, 0.32374594, -278112.66, -29133.389, 0.000015124688, 9.984158, 9.979161 
9.056963e+2, 2.8457692e+2, -227691.34, -260954.77, 70842.64, -0.1673012, 0.30254406, -171554.28, -20375.963, 0.00006901787, 9.983338, 9.980457 
9.051009e+2, 2.945567e+2, -191274.5, -209256.66, 79418.03, -0.10959311, 0.3099341, -120340.22, -66966.48, 0.00024569064, 9.979279, 9.978818 
9.2437565e+2, 1.3541232e+2, -1528527.9, -1590212.1, 18750.988, 0.35179278, 0.39628205, -1523275.1, 89724.57, 0.00000000008526822, 9.9944105, 9.986227 
9.2379624e+2, 1.4539905e+2, -1457002.6, -1494304.9, 5661.5664, 0.34290144, 0.39426976, -1456162.3, 58967.516, 0.00000000005532455, 9.991856, 9.98722 
9.232162e+2, 1.5538664e+2, -1362585.8, -1408063.8, 27464.332, 0.18358752, 0.45961726, -1349668.8, 67583.0, 0.000000000029806633, 9.99203, 9.986623 
9.226399e+2, 1.6537204e+2, -1289879.9, -1346756.9, 28687.738, 0.13270652, 0.4504391, -1277923.6, 41471.395, 0.000000000012643394, 9.991348, 9.984424 
9.2206496e+2, 1.7535542e+2, -1208131.1, -1260254.4, 38052.832, 0.14387311, 0.3624191, -1188070.9, 33486.75, 0.0000000000040459667, 9.990348, 9.98426 
9.214884e+2, 1.8534112e+2, -1087687.9, -1116714.0, 20683.229, 0.14118393, 0.34359643, -1076933.9, 46763.19, 0.000000000000952743, 9.99005, 9.98735 
9.209097e+2, 1.9532883e+2, -988790.94, -1024431.56, 30301.84, 0.13729343, 0.40173572, -971457.8, 54359.152, 0.00000000000016345195, 9.990336, 9.986854 
9.203331e+2, 2.0531431e+2, -921233.8, -982068.44, 45748.82, 0.13345931, 0.45240718, -896713.3, 31246.664, 0.000000000000020373985, 9.990117, 9.983144 
9.1975725e+2, 2.152975e+2, -831377.0, -890844.1, 52888.535, 0.12979923, 0.48009473, -800437.0, 29689.846, 0.0000000000018606304, 9.98962, 9.982836 
9.191798e+2, 2.2528146e+2, -717407.8, -750750.94, 49194.734, 0.07213331, 0.43635374, -682136.5, 50146.38, 0.000000000055557395, 9.989032, 9.985893 
9.185999e+2, 2.352663e+2, -626231.7, -657068.8, 48612.406, -0.033048194, 0.33875817, -590651.25, 43776.926, 0.0000000011563022, 9.988523, 9.985744 
9.180203e+2, 2.4525115e+2, -545785.44, -583496.06, 58200.965, -0.07744959, 0.31996545, -503461.72, 33113.59, 0.000000017486771, 9.987939, 9.984288 
9.1743964e+2, 2.5523582e+2, -455985.3, -487009.44, 59330.566, -0.07284548, 0.36323833, -410172.5, 28553.44, 0.00000019261098, 9.987141, 9.9842615 
9.168565e+2, 2.6522017e+2, -371039.13, -396004.47, 68051.94, -0.103416346, 0.3815979, -314334.5, 26545.273, 0.000001557747, 9.986053, 9.984123 
9.162694e+2, 2.7520463e+2, -286805.4, -292119.13, 65579.61, -0.15512171, 0.37695843, -223828.86, 19202.697, 0.000009437413, 9.984339, 9.984859 
9.1567975e+2, 2.8518918e+2, -195334.77, -197736.23, 76449.95, -0.15911491, 0.36217564, -120076.12, 25105.85, 0.00004425717, 9.983605, 9.984701 
9.1507965e+2, 2.951755e+2, -120290.7, -61314.402, 45254.945, -0.16893324, 0.34179682, -36788.1, 10526.598, 0.00016661992, 9.979349, 9.98829 
9.3436867e+2, 1.3599584e+2, -1544817.4, -1587362.6, -715.7808, 0.29413173, 0.5129217, -1544805.4, 62481.348, 0.0000000000029415736, 9.992568, 9.987164 
9.337873e+2, 1.4598216e+2, -1469585.6, -1496282.6, 7346.6743, 0.3106944, 0.40600312, -1467697.5, 41721.793, 0.0000000000019083366, 9.990876, 9.987566 
9.3320835e+2, 1.559695e+2, -1369936.0, -1408836.3, 27227.063, 0.21089613, 0.41407493, -1355925.4, 55617.12, 0.0000000000010279229, 9.99147, 9.986849 
9.326313e+2, 1.65956e+2, -1295416.1, -1338557.1, 20593.22, 0.17898154, 0.4616984, -1287164.4, 26510.92, 0.0000000000004359048, 9.990438, 9.985364 
9.320543e+2, 1.7594182e+2, -1225042.9, -1255196.4, 33277.95, 0.15988415, 0.5169443, -1203585.6, 12230.327, 0.0000000000001394446, 9.988577, 9.985364 
9.314774e+2, 1.8592781e+2, -1108424.1, -1125157.6, 27396.803, 0.13890955, 0.4677835, -1088145.0, 29807.275, 0.00000000000003282296, 9.988707, 9.987427 
9.309003e+2, 1.959142e+2, -986141.56, -1017892.0, 31927.066, 0.13414192, 0.3711315, -966360.6, 53722.74, 0.0000000000000056283993, 9.990431, 9.98732 
9.303235e+2, 2.0590135e+2, -893304.7, -933181.4, 39233.617, 0.111821964, 0.40263116, -869233.75, 52975.68, 0.00000000000000070118843, 9.990505, 9.9862795 
9.2974627e+2, 2.1588847e+2, -812512.4, -845435.4, 51816.12, 0.07134399, 0.5065869, -774605.75, 49731.67, 0.00000000000083497646, 9.989352, 9.985957 
9.29168e+2, 2.2587427e+2, -730551.9, -754759.56, 48920.508, 0.034489498, 0.4938018, -692260.06, 34216.203, 0.0000000000249549, 9.988062, 9.985969 
9.2858773e+2, 2.3585945e+2, -647497.75, -659184.2, 43410.313, -0.0075190156, 0.39858273, -609539.2, 19080.168, 0.00000000051935445, 9.986766, 9.986388 
9.2800707e+2, 2.4584581e+2, -563991.9, -564290.0, 49677.703, -0.052907277, 0.37498924, -514463.0, 16288.88, 0.0000000078541085, 9.985563, 9.986734 
9.2742497e+2, 2.5583315e+2, -477428.3, -462721.06, 46396.36, -0.08899844, 0.406398, -423099.2, 9776.668, 0.00000008654337, 9.984289, 9.987324 
9.2684144e+2, 2.6582038e+2, -381028.66, -366881.9, 53900.883, -0.1113131, 0.41332236, -319592.28, 15408.65, 0.0000007013428, 9.984147, 9.987128 
9.262543e+2, 2.7580824e+2, -259565.23, -234988.95, 39401.24, -0.12678716, 0.40148404, -206004.14, 31115.102, 0.0000042783217, 9.984666, 9.988773 
9.2566353e+2, 2.8579658e+2, -186205.0, -163414.61, 38543.082, -0.14322704, 0.43214247, -134617.52, 4616.3633, 0.00002042177, 9.983483, 9.98739 
9.2506176e+2, 2.9578555e+2, -23877.623, 27629.545, -27212.43, -0.18620902, 0.3781576, 39342.793, 80684.836, 0.00007993033, 9.985307, 9.991977 
9.443607e+2, 1.365803e+2, -1564776.8, -1599055.3, 12598.45, 0.31466776, 0.5684077, -1560644.6, 40918.43, 0.0, 9.991258, 9.986775 
9.437784e+2, 1.4656626e+2, -1444118.4, -1483568.1, 16768.723, 0.2602257, 0.44364184, -1437953.8, 65745.17, 0.0, 9.99259, 9.98747 
9.432003e+2, 1.565531e+2, -1366812.4, -1405907.4, 31803.088, 0.25299975, 0.4109135, -1349029.8, 56796.594, 0.0, 9.991603, 9.986875 
9.4262236e+2, 1.6654056e+2, -1276858.6, -1314688.0, 23465.053, 0.23359331, 0.4871246, -1265634.1, 42316.0, 0.0, 9.990994, 9.986576 
9.420437e+2, 1.7652845e+2, -1183762.4, -1220637.3, 38449.24, 0.17645743, 0.6248516, -1159558.5, 50512.758, 0.0, 9.990706, 9.9865055 
9.4146657e+2, 1.8651457e+2, -1091213.4, -1119369.9, 39546.613, 0.13412006, 0.5562371, -1063313.9, 48892.563, 0.0, 9.990065, 9.987062 
9.408903e+2, 1.9649976e+2, -996559.2, -1018704.7, 40686.637, 0.118851274, 0.36325714, -965465.5, 48882.895, 0.0, 9.989602, 9.987593 
9.403131e+2, 2.064886e+2, -893850.8, -898348.06, 37447.223, 0.07479881, 0.3789143, -858584.75, 57872.492, 0.0, 9.98891, 9.989363 
9.3973464e+2, 2.1647936e+2, -810770.4, -811841.9, 44810.29, 0.0045990455, 0.52112097, -766492.6, 52056.13, 0.00000000000028468902, 9.988011, 9.988891 
9.391555e+2, 2.2646676e+2, -741093.9, -759264.2, 43506.383, 0.006152455, 0.54076964, -705734.2, 14938.339, 0.000000000008157955, 9.987286, 9.986019 
9.3857497e+2, 2.3645245e+2, -645328.56, -652160.5, 40995.766, 0.04946955, 0.48023206, -607606.7, 15206.106, 0.00000000016979894, 9.9866295, 9.986851 
9.379931e+2, 2.4644019e+2, -544265.2, -530688.6, 48112.53, -0.012283849, 0.4605258, -488887.84, 36044.375, 0.0000000025679472, 9.985854, 9.988807 
9.374089e+2, 2.5642952e+2, -452500.22, -423199.53, 43869.01, -0.13055436, 0.4684203, -391599.22, 35436.57, 0.000000028296595, 9.98481, 9.989707 
9.368254e+2, 2.6641878e+2, -361225.28, -331851.84, 56905.56, -0.14585426, 0.44556072, -287768.3, 41372.207, 0.00000022950282, 9.984504, 9.989355 
9.3623924e+2, 2.764085e+2, -247975.13, -207829.1, 38766.316, -0.099059224, 0.40446016, -184247.17, 46993.508, 0.0000014045202, 9.984611, 9.99063 
9.356471e+2, 2.863991e+2, -181575.22, -149500.27, 30718.88, -0.12948284, 0.5237256, -130884.46, 2449.3718, 0.000006759484, 9.983241, 9.98838 
9.350471e+2, 2.9638684e+2, -45740.21, -16890.016, 4601.7437, -0.18945007, 0.4767512, -16173.797, 19281.814, 0.000026932837, 9.985453, 9.989292 
9.5435226e+2, 1.3716578e+2, -1587221.9, -1626325.5, 25669.92, 0.3743941, 0.57921636, -1574505.9, 21322.22, 0.0, 9.990759, 9.9853525 
9.537702e+2, 1.4715165e+2, -1455346.5, -1494421.6, 9007.309, 0.1924155, 0.52910054, -1453370.3, 44595.93, 0.0, 9.992084, 9.986991 
9.5319223e+2, 1.5713808e+2, -1375677.1, -1409731.5, 22585.656, 0.31573236, 0.49819484, -1364419.4, 35678.664, 0.0, 9.991015, 9.986885 
9.52614e+2, 1.67126e+2, -1267013.5, -1287230.1, 21512.477, 0.2956019, 0.5036023, -1253352.9, 48863.27, 0.0, 9.990809, 9.988554 
9.5203507e+2, 1.7711481e+2, -1166547.4, -1195006.3, 35949.15, 0.18650769, 0.53656286, -1142113.9, 62212.555, 0.0, 9.991246, 9.987969 
9.514567e+2, 1.8710178e+2, -1096619.0, -1131783.1, 31110.174, 0.11932892, 0.5512425, -1078466.3, 27988.6, 0.0, 9.990156, 9.986111 
9.5087886e+2, 1.9708788e+2, -1016540.0, -1031195.94, 31143.354, 0.08862909, 0.5312138, -991874.06, 16717.02, 0.0, 9.988411, 9.987267 
9.503007e+2, 2.0707685e+2, -911666.3, -893012.06, 27155.299, 0.06278328, 0.4997508, -873626.75, 37071.18, 0.0, 9.987185, 9.990573 
9.4972163e+2, 2.1706742e+2, -827952.75, -804744.6, 29064.078, 0.026009552, 0.48939797, -785053.75, 27735.049, 0.000000000000067652664, 9.986283, 9.990296 
9.491421e+2, 2.2705631e+2, -748193.3, -743459.8, 31561.771, 0.013442935, 0.5015835, -714176.1, 721.598, 0.0000000000019384904, 9.986157, 9.987742 
9.485612e+2, 2.370444e+2, -638835.44, -629389.7, 32671.752, 0.022446683, 0.5093222, -601101.2, 15914.224, 0.000000000040347756, 9.986442, 9.988518 
9.4797933e+2, 2.4703373e+2, -527707.25, -510675.84, 37703.266, -0.030426176, 0.52202064, -480538.56, 38581.168, 0.0000000006101943, 9.98672, 9.989773 
9.47395e+2, 2.5702417e+2, -419111.16, -395424.63, 26587.668, -0.12158696, 0.5366763, -378161.75, 43051.254, 0.000000006724211, 9.986896, 9.990678 
9.468107e+2, 2.6701406e+2, -336742.3, -310220.6, 30198.947, -0.14914268, 0.49010053, -290499.25, 32811.97, 0.000000054552586, 9.986103, 9.99023 
9.4622386e+2, 2.7700418e+2, -238602.5, -197543.88, 3096.6724, -0.13110785, 0.41914332, -197311.64, 28095.66, 0.0000003341785, 9.985428, 9.991243 
9.456316e+2, 2.86996e+2, -139297.42, -117208.84, -8708.071, -0.13391767, 0.5625895, -114188.75, 13299.706, 0.0000016125001, 9.986156, 9.98953 
9.450344e+2, 2.9698443e+2, -5507.687, -8031.0273, 6065.402, -0.19882792, 0.57427984, -574.1242, 29029.732, 0.0000064614287, 9.9893265, 9.988643 
9.643442e+2, 1.3775034e+2, -1555636.9, -1616799.8, 20628.01, 0.3702975, 0.59085774, -1549330.1, 40771.39, 0.0, 9.993056, 9.984858 
9.637615e+2, 1.4773622e+2, -1475985.4, -1507125.5, 13362.998, 0.18311769, 0.5705924, -1471037.3, 21203.727, 0.0, 9.990762, 9.986721 
9.6318334e+2, 1.5772273e+2, -1366546.4, -1402546.4, 26261.66, 0.31040803, 0.5740588, -1352708.1, 41664.92, 0.0, 9.991485, 9.987036 
9.6260476e+2, 1.6771103e+2, -1259656.9, -1269156.4, 22406.635, 0.29349074, 0.5294475, -1241502.1, 54984.62, 0.0, 9.99068, 9.989826 
9.620257e+2, 1.7770031e+2, -1183366.3, -1192457.9, 29184.904, 0.18069091, 0.4765987, -1158375.3, 40215.363, 0.0, 9.989619, 9.988991 
9.614464e+2, 1.8768828e+2, -1111937.8, -1140800.4, 26970.346, 0.10636089, 0.56337893, -1095780.5, 4930.047, 0.0, 9.989116, 9.985957 
9.6086705e+2, 1.9767568e+2, -1010123.25, -1025628.06, 35366.617, 0.06507506, 0.688136, -981669.3, 21167.41, 0.0, 9.988677, 9.987334 
9.6028805e+2, 2.0766447e+2, -895745.4, -878511.1, 32366.41, 0.058541816, 0.60461235, -853634.4, 51310.08, 0.0, 9.987947, 9.99104 
9.5970845e+2, 2.1765421e+2, -807947.75, -784726.1, 30627.994, 0.056741767, 0.45278624, -763582.0, 43459.227, 0.0000000000000117120025, 9.987192, 9.991136 
9.591285e+2, 2.2764449e+2, -724809.6, -710999.94, 34162.39, 0.01690158, 0.46179926, -683051.56, 26084.959, 0.0000000000003355644, 9.986881, 9.989583 
9.585472e+2, 2.3763502e+2, -622927.0, -603273.44, 33806.313, -0.030011546, 0.5284394, -577894.6, 33335.977, 0.0000000000069838328, 9.986781, 9.99013 
9.5796573e+2, 2.4762563e+2, -525380.5, -503712.8, 38280.465, -0.05742852, 0.57176703, -474762.66, 38560.414, 0.00000000010561558, 9.986669, 9.990269 
9.5738226e+2, 2.5761655e+2, -423189.16, -396191.0, 25943.998, -0.08518927, 0.60238254, -380444.28, 34968.027, 0.0000000011640542, 9.986587, 9.990754 
9.5679677e+2, 2.6760614e+2, -341525.72, -314664.53, 25709.438, -0.14698312, 0.5377874, -299088.97, 18424.549, 0.000000009444971, 9.985824, 9.990007 
9.562086e+2, 2.775954e+2, -243980.06, -206719.17, 3821.74, -0.2061387, 0.43965235, -206331.23, 13286.19, 0.000000057857413, 9.985317, 9.990683 
9.556178e+2, 2.8758734e+2, -132081.63, -102540.42, -2871.2512, -0.13731715, 0.54667974, -102263.94, 19433.133, 0.00000027926637, 9.986204, 9.990588 
9.550235e+2, 2.9757687e+2, -9436.001, -14032.808, 24428.85, -0.22534035, 0.5483847, 12802.331, 36603.07, 0.0000011202083, 9.989328, 9.988483 
9.743371e+2, 1.3833378e+2, -1561443.8, -1612691.3, -17205.715, 0.4026042, 0.5741626, -1556203.0, 28181.832, 0.0, 9.991983, 9.985473 
9.737524e+2, 1.483201e+2, -1482378.5, -1509560.4, 12352.969, 0.21422146, 0.5614657, -1477603.4, 8918.625, 0.0, 9.990466, 9.986809 
9.7317326e+2, 1.5830755e+2, -1368065.6, -1402496.0, 19851.096, 0.14625531, 0.6482449, -1359004.8, 29642.22, 0.0, 9.991483, 9.987083 
9.72594e+2, 1.6829577e+2, -1268915.4, -1279196.6, 7600.13, 0.1647386, 0.62363875, -1264880.6, 25880.73, 0.0, 9.99034, 9.989324 
9.720143e+2, 1.7828472e+2, -1194633.1, -1193425.8, 12944.005, 0.1443369, 0.5699707, -1181071.4, 11796.733, 0.0, 9.988756, 9.989408 
9.7143507e+2, 1.8827413e+2, -1101449.6, -1104805.8, 18745.008, 0.10184714, 0.61420584, -1084307.6, 10665.214, 0.0, 9.988686, 9.988687 
9.708561e+2, 1.9826365e+2, -993823.25, -996736.5, 30790.105, 0.077070154, 0.69069195, -964455.3, 32622.074, 0.0, 9.989067, 9.989086 
9.7027653e+2, 2.0825288e+2, -892322.2, -887825.06, 25385.287, 0.05317974, 0.65589595, -864588.94, 34592.42, 0.0, 9.988838, 9.989941 
9.6969616e+2, 2.1824242e+2, -794298.94, -782480.2, 20053.813, 0.022573045, 0.5781177, -767483.2, 33798.25, 0.0000000000000014914695, 9.988519, 9.990668 
9.691159e+2, 2.2823301e+2, -700679.25, -687227.44, 20810.17, -0.010492012, 0.5752889, -672083.25, 31290.025, 0.000000000000042732568, 9.988233, 9.990616 
9.6853447e+2, 2.3822416e+2, -603475.9, -583255.9, 17031.828, -0.04377346, 0.60118216, -573559.44, 31901.115, 0.00000000000088938075, 9.987889, 9.991063 
9.6795267e+2, 2.4821505e+2, -517036.16, -495264.63, 19178.014, -0.059706505, 0.6104703, -484098.25, 23451.512, 0.000000000013450299, 9.98729, 9.990664 
9.6736896e+2, 2.58206e+2, -423641.88, -395588.38, 6476.5947, -0.07338151, 0.61976, -394165.3, 15472.651, 0.0000000001482496, 9.986776, 9.990833 
9.667829e+2, 2.68196e+2, -331622.63, -312009.3, 6093.7656, -0.158894, 0.6030998, -310270.22, 1465.6832, 0.0000000012029147, 9.986872, 9.989808 
9.661944e+2, 2.7818537e+2, -221120.19, -202763.28, -11658.456, -0.25432792, 0.55709124, -197103.83, 16735.928, 0.0000000073681794, 9.987476, 9.9900875 
9.656054e+2, 2.881763e+2, -100486.62, -87911.62, -19956.602, -0.11571575, 0.5887169, -73275.48, 42653.395, 0.000000035559857, 9.988722, 9.990661 
9.6501243e+2, 2.9816598e+2, -2685.0837, -21261.574, 6120.2373, -0.3206716, 0.58802956, -849.98395, 17180.37, 0.00000014260962, 9.990514, 9.987899 
9.843281e+2, 1.3891602e+2, -1591716.3, -1614540.1, -16021.021, 0.45616692, 0.562364, -1583458.3, -4775.7017, 0.0, 9.989411, 9.98671 
9.8374337e+2, 1.4890386e+2, -1453564.9, -1488962.9, 14206.814, 0.19635156, 0.6198296, -1448568.3, 32236.406, 0.0, 9.992142, 9.98739 
9.8316383e+2, 1.5889223e+2, -1378021.8, -1404786.0, 22339.39, 0.08949277, 0.7518289, -1365362.9, 17558.377, 0.0, 9.990673, 9.987216 
9.8258376e+2, 1.6888008e+2, -1276766.6, -1287745.3, 10400.704, 0.13005883, 0.71965444, -1270495.5, 14543.974, 0.0, 9.98996, 9.988782 
9.820033e+2, 1.7886852e+2, -1179144.3, -1180627.8, 18099.063, 0.14617012, 0.65551454, -1161771.8, 25379.39, 0.0, 9.9895525, 9.989739 
9.8142403e+2, 1.8885906e+2, -1080927.9, -1071269.4, 20665.23, 0.113573946, 0.667587, -1054876.6, 34367.336, 0.0, 9.9890995, 9.990753 
9.808453e+2, 1.9885018e+2, -991155.94, -981613.94, 23545.195, 0.09944006, 0.69744456, -962361.2, 28970.291, 0.0, 9.988674, 9.990398 
9.8026514e+2, 2.0883974e+2, -909968.44, -906819.6, 19920.527, 0.053610694, 0.70849925, -888411.4, 5021.7725, 0.0, 9.988084, 9.989045 
9.7968405e+2, 2.1882927e+2, -809195.75, -793040.44, 20813.646, -0.012302193, 0.7129947, -778791.94, 16742.771, 0.00000000000000014322901, 9.987655, 9.99032 
9.791038e+2, 2.2882019e+2, -698793.56, -678128.9, 22730.117, -0.03819344, 0.70894945, -663492.9, 34130.32, 0.0000000000000041040377, 9.988027, 9.991286 
9.7852236e+2, 2.3881157e+2, -592638.75, -571353.1, 17121.967, -0.048757747, 0.6919324, -561835.8, 37871.605, 0.000000000000085429954, 9.988349, 9.991609 
9.7793996e+2, 2.4880223e+2, -509188.25, -489479.78, 16957.877, -0.06323397, 0.6524622, -479720.88, 22076.88, 0.000000000001292103, 9.987723, 9.990816 
9.7735566e+2, 2.5879297e+2, -420194.84, -395035.94, 5460.285, -0.08168482, 0.6249717, -393902.0, 9985.499, 0.0000000000142405965, 9.987059, 9.990729 
9.767695e+2, 2.6878363e+2, -328854.16, -312092.0, 7979.051, -0.18242003, 0.6883361, -308901.22, -2921.6716, 0.00000000011554544, 9.98714, 9.989671 
9.7618157e+2, 2.787735e+2, -222731.16, -211344.69, -5927.6123, -0.28667146, 0.73378766, -208819.08, -739.45685, 0.0000000007077114, 9.987725, 9.989406 
9.755946e+2, 2.8876257e+2, -106846.12, -100725.44, -13787.369, -0.0772204, 0.6646489, -89662.84, 20524.182, 0.000000003414842, 9.988743, 9.989814 
9.7500277e+2, 2.9875097e+2, -5759.5806, -19970.137, 6711.833, -0.32568657, 0.6022147, -3090.7256, 9210.29, 0.000000013690085, 9.990113, 9.988215 
9.943178e+2, 1.394966e+2, -1568257.0, -1583803.4, 19730.7, 0.41452157, 0.50933576, -1554823.5, 18175.428, 0.0, 9.990789, 9.988498 
9.9373573e+2, 1.4948674e+2, -1441705.5, -1468409.8, 3058.821, 0.18942775, 0.65072346, -1441359.6, 33736.34, 0.0, 9.992264, 9.988733 
9.931563e+2, 1.594761e+2, -1376678.4, -1396566.9, 11477.816, 0.28448278, 0.7676348, -1371436.1, 5764.77, 0.0, 9.990424, 9.987885 
9.925753e+2, 1.6946337e+2, -1276438.4, -1287750.1, 6513.061, 0.284208, 0.6603421, -1273468.3, 5857.2485, 0.0, 9.990077, 9.988759 
9.919943e+2, 1.794512e+2, -1173234.1, -1178487.6, 12937.202, 0.24826919, 0.5343502, -1162659.6, 18784.324, 0.0, 9.990063, 9.989643 
9.9141425e+2, 1.8944138e+2, -1084300.0, -1082010.0, 9946.599, 0.20332783, 0.566046, -1073142.8, 10397.014, 0.0, 9.9893265, 9.989955 
9.908345e+2, 1.994321e+2, -995325.7, -982986.4, 7429.061, 0.16656241, 0.6058991, -979499.1, 6131.061, 0.0, 9.988434, 9.990541 
9.902536e+2, 2.0942172e+2, -909292.5, -892011.4, 6085.1997, 0.12655102, 0.5292225, -890083.6, -2352.4355, 0.0, 9.987574, 9.990386 
9.896722e+2, 2.1941188e+2, -811408.5, -781082.1, 15774.34, 0.07597248, 0.45996624, -774364.9, 15462.073, 0.000000000000000010837507, 9.987067, 9.991448 
9.890925e+2, 2.2940435e+2, -693800.4, -669512.0, 23379.838, 0.01831239, 0.5373987, -655310.44, 36589.94, 0.00000000000000031058006, 9.9883, 9.991782 
9.885118e+2, 2.3939708e+2, -575339.3, -562530.75, 13826.7295, -0.025249202, 0.6199887, -553697.1, 40273.88, 0.0000000000000064639003, 9.989671, 9.991593 
9.8792875e+2, 2.4938726e+2, -487643.34, -479394.3, 8724.283, -0.051010538, 0.54609644, -473868.72, 22197.598, 0.000000000000097753626, 9.989305, 9.990742 
9.8734367e+2, 2.593772e+2, -394690.06, -379569.88, -1173.3024, -0.07988458, 0.45664805, -379479.38, 18684.658, 0.0000000000010773522, 9.988781, 9.991 
9.867581e+2, 2.693684e+2, -290087.5, -279614.63, 8495.554, -0.16378528, 0.48187992, -274871.34, 25379.42, 0.000000000008741193, 9.989338, 9.9908285 
9.8617095e+2, 2.793594e+2, -185735.73, -187250.03, 1987.5361, -0.2493303, 0.54526764, -184366.02, 17973.947, 0.00000000005353408, 9.990065, 9.98983 
9.855838e+2, 2.8934935e+2, -113048.73, -113256.375, -5473.836, -0.027744107, 0.6120134, -107677.73, -3238.6067, 0.00000000025827646, 9.9887495, 9.98875 
9.8499155e+2, 2.9933783e+2, -37276.813, -29524.402, 15380.628, -0.32470095, 0.65308803, -17539.06, -10986.602, 0.0000000010352618, 9.987708, 9.988535 
1.0043064e+3, 1.4007485e+2, -1572694.8, -1533418.0, -13675.873, 0.31631035, 0.93937993, -1529125.3, 38214.613, 0.0, 9.988581, 9.99402 
1.0037251e+3, 1.5006706e+2, -1465483.8, -1425390.0, -29334.277, 0.10806612, 0.7421351, -1409907.0, 59506.234, 0.0, 9.988256, 9.993963 
1.00314535e+3, 1.6005848e+2, -1399691.1, -1383795.8, 8530.766, 0.27798623, 0.6302395, -1380084.1, -8589.18, 0.0, 9.98787, 9.989939 
1.0025637e+3, 1.7004794e+2, -1295515.3, -1307183.6, 3081.0044, 0.17124894, 0.7608381, -1294751.6, -21152.7, 0.0, 9.98942, 9.987782 
1.00198224e+3, 1.8003699e+2, -1166372.8, -1175004.8, -2687.5037, 0.03800682, 0.82154447, -1165604.5, 10102.308, 0.0, 9.990776, 9.989649 
1.0014027e+3, 1.9002657e+2, -1059062.5, -1058044.6, 6519.9385, 0.10268242, 0.72521937, -1052013.8, 25793.516, 0.0, 9.990756, 9.990751 
1.0008229e+3, 2.0001717e+2, -965400.1, -959629.5, 18616.39, 0.14494154, 0.6967129, -943676.1, 36221.75, 0.0, 9.990337, 9.990828 
1.00024074e+3, 2.1000884e+2, -873326.9, -864619.56, 7387.923, 0.042866003, 0.7902373, -860397.94, 21580.936, 0.0, 9.989896, 9.990896 
9.9965864e+2, 2.2000004e+2, -777882.0, -760795.2, 3104.1743, -0.026724743, 0.77680784, -760248.75, 23815.807, 0.0000000000000000006820092, 9.98955, 9.991656 
9.990804e+2, 2.2999069e+2, -703188.2, -674203.5, 2679.8418, -0.0014484002, 0.6727979, -673957.8, 12197.614, 0.00000000000000001954189, 9.988032, 9.991829 
9.985007e+2, 2.3998262e+2, -613196.25, -576176.25, -9991.432, -0.034484662, 0.6579677, -573651.8, 14582.079, 0.00000000000000040645458, 9.987165, 9.992141 
9.979172e+2, 2.4997494e+2, -497598.16, -479349.03, -1010.23035, -0.11209881, 0.7371821, -479293.28, 11015.702, 0.0000000000000061445223, 9.988621, 9.991067 
9.973318e+2, 2.5996545e+2, -374149.0, -362215.9, 4193.674, -0.14535193, 0.696005, -360889.53, 31512.127, 0.00000000000006771698, 9.990041, 9.991426 
9.967477e+2, 2.699578e+2, -288806.16, -264155.22, 2239.9014, -0.12281679, 0.7391171, -263953.34, 30523.158, 0.0000000000005493915, 9.988953, 9.992156 
9.961609e+2, 2.7994877e+2, -200009.89, -184466.1, -17041.393, -0.23012622, 0.64432293, -173508.03, 23057.443, 0.0000000000033642223, 9.988764, 9.990893 
9.9557006e+2, 2.899389e+2, -45178.13, -91523.49, -30178.963, -0.27928272, 0.73867846, -30301.592, 68361.38, 0.000000000016230134, 9.993851, 9.988009 
9.949797e+2, 2.9992554e+2, 20669.22, -1348.0875, 8932.562, -0.28594556, 0.6573567, 23837.348, 24631.8, 0.00000000006506301, 9.991699, 9.988672 
