coord_x,coord_y,stress_xx,stress_yy,tau_xy,velocity_x,velocity_y,stress_1,eps,damage,lx,ly
5.003177e+0, 1.24568604e+2, -1649628.5, -1727410.8, 22.419197, -0.0006261406, -0.08854539, -1649628.5, 69591.41, 0.0, 10.006366, 9.996056 
5.003075e+0, 1.345647e+2, -1556232.4, -1633736.4, 47.530956, 0.0003358503, -0.06798865, -1556232.3, 65025.992, 0.0, 10.006144, 9.995871 
5.002953e+0, 1.445598e+2, -1470062.1, -1554393.4, 116.80909, 0.0003708414, -0.086289465, -1470062.0, 53244.36, 0.0, 10.005898, 9.994722 
5.002816e+0, 1.5455464e+2, -1375949.0, -1458252.1, 398.9258, -0.00007274249, -0.07620209, -1375947.1, 49409.97, 0.0, 10.005632, 9.994726 
5.0026715e+0, 1.6454893e+2, -1288674.0, -1375727.0, 277.28867, -0.00022861443, -0.07295988, -1288673.1, 38739.844, 0.0, 10.005346, 9.993813 
5.00252e+0, 1.7454271e+2, -1195044.9, -1279690.0, -158.78784, -0.000035753244, -0.07849566, -1195044.6, 34429.1, 0.0, 10.005041, 9.993827 
5.0023663e+0, 1.8453594e+2, -1109902.9, -1201001.5, -368.1086, 0.00018823714, -0.0806867, -1109901.4, 21638.723, 0.0, 10.004729, 9.992662 
5.002211e+0, 1.9452861e+2, -1016510.06, -1105213.3, -252.38667, 0.00044701458, -0.079973966, -1016509.3, 17102.531, 0.0, 10.004413, 9.992663 
5.002041e+0, 2.045208e+2, -929785.0, -1022769.6, -292.56052, 0.00020337508, -0.08051328, -929784.1, 5904.1626, 0.0, 10.004078, 9.991763 
5.0018543e+0, 2.1451256e+2, -836849.8, -927045.2, -364.05014, -0.00064248464, -0.08341226, -836848.4, 920.6389, 0.0, 10.003722, 9.991777 
5.001673e+0, 2.245038e+2, -751901.6, -847700.7, -338.36584, -0.000704969, -0.081859015, -751900.44, -12045.534, 0.0, 10.003361, 9.990677 
5.001498e+0, 2.3449455e+2, -659196.8, -752182.44, -149.27757, 0.00018114693, -0.07603874, -659196.6, -17250.832, 0.0, 10.002992, 9.990682 
5.001322e+0, 2.4448478e+2, -572715.3, -669872.56, -57.18271, 0.0002913435, -0.074395455, -572715.25, -28673.781, 0.0, 10.002638, 9.989778 
5.001144e+0, 2.5447455e+2, -479465.8, -573921.94, -202.3409, -0.0005451765, -0.07882124, -479465.38, -33323.68, 0.0, 10.002298, 9.989797 
5.000988e+0, 2.6446375e+2, -393521.1, -493914.47, -142.4711, -0.000837549, -0.08201012, -393520.88, -45273.555, 0.0, 10.001993, 9.9887085 
5.0008595e+0, 2.7445245e+2, -299185.97, -397436.6, -124.39056, -0.00046114143, -0.084922135, -299185.8, -48827.723, 0.0, 10.001727, 9.988727 
5.000731e+0, 2.844406e+2, -213470.86, -318931.22, -150.82332, -0.0001449592, -0.08123309, -213470.64, -60996.33, 0.0, 10.001465, 9.987513 
5.000602e+0, 2.9442826e+2, -119054.33, -222361.52, -253.14185, 0.000093957104, -0.07073086, -119053.7, -64458.098, 0.0, 10.001202, 9.9875345 
5.000477e+0, 3.044189e+2, -29681.525, -83825.05, -261.2174, -0.000031196738, -0.07082241, -29680.266, -29680.266, 0.0, 10.000955, 9.993786 
5.000355e+0, 3.1441256e+2, -32723.55, -84747.26, -299.2853, -0.00060364284, -0.08558708, -32721.828, -32721.828, 0.0, 10.000722, 9.9938345 
1.5009528e+1, 1.24568805e+2, -1649548.6, -1727243.3, -769.7544, -0.0018823725, -0.08046358, -1649541.0, 69677.26, 0.0, 10.006365, 9.996067 
1.5009226e+1, 1.3456485e+2, -1556143.6, -1633553.5, -788.5173, 0.0010070599, -0.0652986, -1556135.6, 65121.4, 0.0, 10.006144, 9.995883 
1.500886e+1, 1.4455996e+2, -1469548.1, -1553337.5, -888.35486, 0.0011125252, -0.08633918, -1469538.6, 53766.156, 0.0, 10.005898, 9.994794 
1.5008447e+1, 1.5455489e+2, -1375415.4, -1457156.4, -603.36487, -0.00021843334, -0.075977616, -1375410.9, 49943.758, 0.0, 10.005633, 9.994801 
1.5008014e+1, 1.6454914e+2, -1289438.6, -1377303.6, -876.1032, -0.00068585575, -0.07348536, -1289429.9, 37980.8, 0.0, 10.005347, 9.993705 
1.5007561e+1, 1.745428e+2, -1195871.0, -1281393.4, -1310.3239, -0.00010736763, -0.0809607, -1195851.0, 33621.906, 0.0, 10.005041, 9.9937105 
1.50071e+1, 1.8453597e+2, -1109733.9, -1200654.0, -1565.9718, 0.0005648505, -0.08268118, -1109706.9, 21832.766, 0.0, 10.004729, 9.992686 
1.5006633e+1, 1.9452871e+2, -1016294.44, -1104767.9, -1446.8964, 0.0013408427, -0.07861844, -1016270.75, 17340.076, 0.0, 10.004413, 9.992694 
1.5006122e+1, 2.0452094e+2, -929899.0, -1023004.0, -1630.646, 0.00061009196, -0.07737225, -929870.5, 5816.564, 0.0, 10.004078, 9.991748 
1.5005563e+1, 2.1451268e+2, -836980.8, -927315.25, -1706.6, -0.001927711, -0.08035315, -836948.56, 819.42267, 0.0, 10.003722, 9.991759 
1.500502e+1, 2.245039e+2, -751566.25, -847007.7, -1727.1499, -0.0021149318, -0.08044485, -751535.0, -11681.121, 0.0, 10.003361, 9.990725 
1.5004493e+1, 2.3449467e+2, -658839.0, -751442.8, -1540.4209, 0.0005433207, -0.07814754, -658813.4, -16868.89, 0.0, 10.002992, 9.990732 
1.5003966e+1, 2.4448492e+2, -572957.94, -670375.3, -1341.3851, 0.00087383174, -0.077746406, -572939.44, -28899.256, 0.0, 10.002638, 9.989743 
1.5003431e+1, 2.5447464e+2, -479740.22, -574490.75, -1484.2302, -0.0016354712, -0.08061596, -479716.97, -33576.258, 0.0, 10.002298, 9.989758 
1.5002964e+1, 2.6446387e+2, -393510.06, -493891.56, -1156.2465, -0.0025129907, -0.08082549, -393496.75, -45250.445, 0.0, 10.001993, 9.988709 
1.5002577e+1, 2.744526e+2, -299160.28, -397382.38, -1129.4543, -0.0013835425, -0.079013705, -299147.3, -48790.71, 0.0, 10.001727, 9.98873 
1.5002193e+1, 2.8444073e+2, -213641.08, -319282.9, -1138.9725, -0.00043495593, -0.07751579, -213628.81, -61155.695, 0.0, 10.001465, 9.987489 
1.5001804e+1, 2.9442826e+2, -119237.86, -222741.3, -1250.0399, 0.000281856, -0.07775056, -119222.766, -64627.156, 0.0, 10.001201, 9.987509 
1.5001431e+1, 3.0441886e+2, -29755.209, -83976.93, -1132.6194, -0.000094672934, -0.07801345, -29731.56, -29731.56, 0.0, 10.000955, 9.993775 
1.5001065e+1, 3.1441265e+2, -32789.33, -84881.93, -1176.091, -0.0018122622, -0.0797255, -32762.79, -32762.79, 0.0, 10.000722, 9.993825 
2.501588e+1, 1.2456915e+2, -1650310.8, -1727679.0, -45.42445, -0.00097414607, -0.07571101, -1650310.8, 68904.33, 0.0, 10.006316, 9.996061 
2.5015387e+1, 1.3456516e+2, -1555810.0, -1633450.1, -236.50703, 0.0015719711, -0.06310951, -1555809.3, 65444.78, 0.0, 10.006169, 9.995878 
2.50148e+1, 1.4456028e+2, -1468117.6, -1552288.4, -788.8153, 0.0011667, -0.085944176, -1468110.3, 55191.66, 0.0, 10.0059805, 9.994825 
2.5014144e+1, 1.545552e+2, -1373445.4, -1455827.4, -815.6598, 0.00028608553, -0.07654082, -1373437.3, 51914.14, 0.0, 10.005751, 9.994833 
2.501343e+1, 1.6454947e+2, -1288155.1, -1377489.0, -1401.1398, 0.000095084135, -0.07416526, -1288133.1, 39274.527, 0.0, 10.005469, 9.993633 
2.5012654e+1, 1.7454304e+2, -1195111.3, -1281890.8, -1549.0123, 0.00075303396, -0.08074972, -1195083.6, 34386.844, 0.0, 10.005131, 9.993633 
2.5011858e+1, 1.8453617e+2, -1109040.5, -1200214.8, -1802.1516, 0.0012151857, -0.082345694, -1109004.9, 22532.83, 0.0, 10.004772, 9.992695 
2.5011036e+1, 1.9452894e+2, -1016485.44, -1104713.9, -1811.409, 0.0014320593, -0.079086915, -1016448.25, 17160.52, 0.0, 10.004394, 9.992707 
2.501018e+1, 2.0452116e+2, -930604.8, -1023467.5, -2033.5616, 0.00068905286, -0.07724059, -930560.3, 5124.5977, 0.0, 10.004035, 9.991736 
2.5009283e+1, 2.1451291e+2, -837354.9, -927632.5, -2058.6099, -0.0012054736, -0.07793116, -837307.94, 457.8564, 0.0, 10.003702, 9.991747 
2.500839e+1, 2.2450414e+2, -751167.5, -846339.4, -2105.5793, -0.0013612129, -0.07823347, -751120.94, -11269.338, 0.0, 10.003367, 9.990767 
2.5007504e+1, 2.3449494e+2, -657988.4, -750527.1, -1962.6481, 0.0005877297, -0.079177156, -657946.75, -16004.787, 0.0, 10.003029, 9.990777 
2.500663e+1, 2.4448515e+2, -572387.2, -670537.3, -1727.1503, 0.0006329031, -0.0798843, -572356.8, -28319.125, 0.0, 10.002696, 9.989704 
2.5005764e+1, 2.5447488e+2, -479028.03, -574635.44, -1904.7432, -0.0016457449, -0.08124765, -478990.1, -32851.535, 0.0, 10.002368, 9.989714 
2.5004974e+1, 2.6446408e+2, -392957.94, -493470.6, -1485.4148, -0.0024038577, -0.07998014, -392936.0, -44691.813, 0.0, 10.002025, 9.988724 
2.500427e+1, 2.744529e+2, -300057.0, -397627.75, -1363.0992, -0.0012872799, -0.07673776, -300037.94, -49683.77, 0.0, 10.0016575, 9.988747 
2.5003594e+1, 2.8444096e+2, -215322.36, -320077.1, -994.71094, -0.0007924864, -0.076138586, -215312.92, -62842.24, 0.0, 10.0013485, 9.987491 
2.5002944e+1, 2.9442847e+2, -120623.13, -223404.83, -902.47217, -0.0010787306, -0.08014745, -120615.21, -66021.72, 0.0, 10.001106, 9.987509 
2.5002357e+1, 3.0441907e+2, -30099.63, -84266.11, -331.47186, -0.0019238509, -0.08026915, -30097.604, -30097.604, 0.0, 10.0009365, 9.993764 
2.5001836e+1, 3.1441292e+2, -30998.445, -84150.7, -385.95383, -0.0034296224, -0.07693689, -30995.645, -30995.645, 0.0, 10.000851, 9.9938135 
3.5022223e+1, 1.2456963e+2, -1650469.9, -1728012.4, -563.964, 0.002078749, -0.07426568, -1650465.9, 68744.57, 0.0, 10.006316, 9.996038 
3.502156e+1, 1.3456562e+2, -1555973.0, -1633787.4, -789.7147, 0.0020306483, -0.061418023, -1555965.0, 65284.555, 0.0, 10.006169, 9.995855 
3.5020775e+1, 1.4456072e+2, -1468181.4, -1552418.6, -1650.1781, 0.00053556403, -0.08510649, -1468149.1, 55148.438, 0.0, 10.0059805, 9.994817 
3.5019904e+1, 1.5455563e+2, -1373507.5, -1455951.8, -1680.7673, 0.0014369201, -0.07788678, -1373473.3, 51874.008, 0.0, 10.005751, 9.994824 
3.5018918e+1, 1.6454987e+2, -1288423.0, -1378036.6, -2667.2534, 0.0021081844, -0.07499874, -1288343.6, 39060.063, 0.0, 10.005469, 9.993596 
3.5017803e+1, 1.7454344e+2, -1195388.0, -1282459.3, -2824.5767, 0.0025408333, -0.0778723, -1195296.4, 34170.227, 0.0, 10.005131, 9.993594 
3.501664e+1, 1.8453656e+2, -1109078.5, -1200293.9, -3228.4165, 0.0021365916, -0.079690285, -1108964.4, 22569.658, 0.0, 10.004772, 9.992689 
3.5015422e+1, 1.9452925e+2, -1016512.94, -1104773.6, -3239.5134, 0.00072288554, -0.08137242, -1016394.2, 17211.422, 0.0, 10.004394, 9.9927025 
3.501421e+1, 2.0452146e+2, -930643.2, -1023549.4, -3297.4653, 0.00044048915, -0.08010907, -930526.3, 5155.524, 0.0, 10.004035, 9.991731 
3.501301e+1, 2.1451326e+2, -837396.3, -927717.9, -3311.2725, 0.0015176858, -0.07614411, -837275.1, 487.34317, 0.0, 10.003702, 9.991741 
3.5011786e+1, 2.2450453e+2, -750903.44, -845791.7, -3381.4539, 0.0015492811, -0.0752275, -750783.06, -10935.098, 0.0, 10.003367, 9.990804 
3.501053e+1, 2.3449531e+2, -657711.44, -749951.9, -3241.0667, 0.00031436086, -0.07913087, -657597.7, -15659.474, 0.0, 10.003029, 9.990816 
3.5009316e+1, 2.4448553e+2, -572699.06, -671179.75, -2963.2861, -0.00043066408, -0.08081154, -572610.0, -28575.986, 0.0, 10.002695, 9.98966 
3.5008144e+1, 2.544752e+2, -479371.78, -575344.25, -3141.0012, -0.0005793262, -0.08071886, -479269.1, -33133.89, 0.0, 10.002368, 9.989665 
3.5007018e+1, 2.644644e+2, -392776.97, -493093.1, -2857.3262, -0.0005130374, -0.07947359, -392695.66, -44454.688, 0.0, 10.002025, 9.9887495 
3.500594e+1, 2.7445322e+2, -299848.16, -397193.2, -2749.2095, -0.00017497221, -0.07809043, -299770.56, -49419.715, 0.0, 10.0016575, 9.988776 
3.500494e+1, 2.8444138e+2, -215132.17, -319680.7, -1928.737, -0.0012194244, -0.07709833, -215096.6, -62629.566, 0.0, 10.0013485, 9.987517 
3.500402e+1, 2.9442888e+2, -120436.5, -223013.81, -1819.929, -0.0039866744, -0.077926, -120404.22, -65814.945, 0.0, 10.001105, 9.987535 
3.5003257e+1, 3.0441952e+2, -30184.977, -84437.68, -674.8115, -0.005516353, -0.07759563, -30176.586, -30176.586, 0.0, 10.000936, 9.9937525 
3.5002667e+1, 3.1441334e+2, -31104.855, -84363.29, -706.85144, -0.0054623703, -0.07722145, -31095.477, -31095.477, 0.0, 10.000851, 9.993798 
4.5028672e+1, 1.2457026e+2, -1647514.8, -1727131.1, 1.1196795, 0.0036840262, -0.0765104, -1647514.8, 71689.46, 0.0, 10.006542, 9.995988 
4.502781e+1, 1.3456622e+2, -1554314.0, -1633550.9, -473.5131, 0.0030132316, -0.06145996, -1554311.1, 66932.555, 0.0, 10.006307, 9.995804 
4.502679e+1, 1.4456128e+2, -1467610.0, -1552655.3, -1838.9498, 0.0011619665, -0.08446942, -1467570.3, 55721.88, 0.0, 10.0060425, 9.994771 
4.5025674e+1, 1.5455613e+2, -1373867.0, -1456642.4, -2152.297, 0.0031641861, -0.078339845, -1373811.1, 51531.363, 0.0, 10.005749, 9.994779 
4.5024392e+1, 1.6455035e+2, -1288622.1, -1377916.8, -3314.857, 0.003607412, -0.07496266, -1288499.3, 38899.77, 0.0, 10.005446, 9.993615 
4.5022935e+1, 1.7454398e+2, -1195131.5, -1282086.1, -3020.0427, 0.00224036, -0.075465545, -1195026.8, 34434.758, 0.0, 10.005137, 9.993617 
4.5021424e+1, 1.845371e+2, -1108481.0, -1200086.1, -3311.934, 0.0010911322, -0.077446826, -1108361.5, 23167.406, 0.0, 10.004817, 9.992682 
4.5019856e+1, 1.9452974e+2, -1015238.9, -1104257.1, -3359.9504, 0.00019090959, -0.08231938, -1015112.2, 18488.516, 0.0, 10.004485, 9.992693 
4.5018288e+1, 2.0452195e+2, -929513.25, -1023066.5, -3506.2144, 0.000495859, -0.08201559, -929382.0, 6295.1045, 0.0, 10.004115, 9.991725 
4.501672e+1, 2.1451375e+2, -837468.9, -927819.75, -3521.1497, 0.0022510742, -0.07631868, -837331.8, 425.80554, 0.0, 10.0037, 9.991735 
4.5015132e+1, 2.2450502e+2, -751909.5, -846503.56, -3718.2656, 0.0022749011, -0.074212, -751763.56, -11920.378, 0.0, 10.003308, 9.990784 
4.5013514e+1, 2.3449579e+2, -659105.44, -750862.4, -4026.8142, 0.0001997233, -0.07759074, -658929.06, -16995.453, 0.0, 10.002943, 9.990795 
4.5011953e+1, 2.44486e+2, -574065.56, -671550.5, -3674.2793, -0.0009340897, -0.0793651, -573927.3, -29897.904, 0.0, 10.002589, 9.989686 
4.5010448e+1, 2.544757e+2, -480938.97, -575787.0, -3276.9634, -0.0009193323, -0.08011599, -480825.88, -34695.508, 0.0, 10.002247, 9.989694 
4.5008996e+1, 2.6446494e+2, -393937.7, -493544.78, -2676.4507, -0.0009316158, -0.07971919, -393865.8, -45629.793, 0.0, 10.001941, 9.988759 
4.5007598e+1, 2.744537e+2, -299559.2, -396958.84, -2729.8872, -0.000970484, -0.07919647, -299482.72, -49136.797, 0.0, 10.001674, 9.988785 
4.5006302e+1, 2.844419e+2, -214398.4, -319123.06, -1870.6267, -0.0020828005, -0.07739357, -214365.0, -61903.094, 0.0, 10.00139, 9.987535 
4.5005107e+1, 2.9442948e+2, -120658.1, -222914.08, -1825.7996, -0.004537676, -0.075347245, -120625.51, -66041.81, 0.0, 10.001081, 9.987555 
4.500411e+1, 3.0442014e+2, -32184.582, -84920.53, -218.99864, -0.0060193907, -0.075192004, -32183.674, -32183.674, 0.0, 10.000778, 9.993795 
4.500332e+1, 3.1441393e+2, -36285.453, -86368.34, 193.60176, -0.006241122, -0.07880535, -36284.707, -36284.707, 0.0, 10.000474, 9.993842 
5.5035216e+1, 1.2457102e+2, -1648062.9, -1728261.6, -839.32086, 0.0038483262, -0.08239155, -1648054.1, 71142.59, 0.0, 10.006542, 9.995912 
5.503413e+1, 1.3456693e+2, -1554876.0, -1634709.5, -1355.845, 0.004512848, -0.06321661, -1554853.0, 66383.57, 0.0, 10.006307, 9.995726 
5.503285e+1, 1.4456193e+2, -1468199.1, -1553869.6, -2939.522, 0.0030327723, -0.08402949, -1468098.4, 55187.3, 0.0, 10.0060425, 9.994688 
5.503144e+1, 1.545567e+2, -1374459.4, -1457864.4, -3251.5408, 0.005460467, -0.07790889, -1374332.9, 51004.086, 0.0, 10.005749, 9.994696 
5.5029845e+1, 1.6455092e+2, -1288082.8, -1376809.3, -4478.532, 0.0045947144, -0.074063465, -1287857.3, 39536.207, 0.0, 10.005446, 9.9936905 
5.502805e+1, 1.7454463e+2, -1194542.9, -1280875.0, -4179.919, -0.0001336042, -0.07352761, -1194341.0, 35114.086, 0.0, 10.005137, 9.993699 
5.502621e+1, 1.845378e+2, -1108547.8, -1200223.5, -4562.0728, -0.0019070134, -0.075611785, -1108321.4, 23200.707, 0.0, 10.004817, 9.992673 
5.502434e+1, 1.9453043e+2, -1015340.25, -1104464.0, -4609.2554, -0.00016645029, -0.08193706, -1015102.5, 18491.645, 0.0, 10.004485, 9.99268 
5.5022407e+1, 2.045226e+2, -929557.3, -1023156.5, -5056.8, 0.000850813, -0.082964264, -929284.9, 6385.88, 0.0, 10.004115, 9.991719 
5.502041e+1, 2.1451439e+2, -837509.3, -927907.3, -5084.025, 0.0010042714, -0.078444906, -837224.3, 527.1362, 0.0, 10.0037, 9.991729 
5.5018425e+1, 2.2450563e+2, -752452.9, -847632.0, -5102.374, 0.00082606013, -0.07517679, -752180.1, -12342.795, 0.0, 10.003308, 9.990706 
5.501646e+1, 2.3449636e+2, -659676.8, -752047.7, -5401.4995, 0.00024172806, -0.074562855, -659362.0, -17433.771, 0.0, 10.002944, 9.990714 
5.501454e+1, 2.4448659e+2, -573389.8, -670153.0, -4966.161, -0.0008823144, -0.07555512, -573135.6, -29111.676, 0.0, 10.002589, 9.989781 
5.501268e+1, 2.5447634e+2, -480203.03, -574260.7, -4568.411, -0.0026621746, -0.0794402, -479981.66, -33857.57, 0.0, 10.002247, 9.989798 
5.501091e+1, 2.644656e+2, -393985.28, -493638.16, -3692.5125, -0.003653698, -0.08071654, -393848.66, -45619.29, 0.0, 10.00194, 9.988752 
5.5009246e+1, 2.7445439e+2, -299654.53, -397148.4, -3736.9, -0.0036711078, -0.08005637, -299511.53, -49172.113, 0.0, 10.001674, 9.988771 
5.500768e+1, 2.8444257e+2, -214340.44, -318993.22, -3019.4827, -0.0033845848, -0.07702665, -214253.39, -61798.082, 0.0, 10.0013895, 9.987545 
5.500621e+1, 2.9443017e+2, -120593.63, -222770.64, -2991.7883, -0.0027375526, -0.07241306, -120506.11, -65929.35, 0.0, 10.001081, 9.987564 
5.500491e+1, 3.0442086e+2, -31507.262, -83503.06, -1356.3163, -0.003440352, -0.07305994, -31471.906, -31471.906, 0.0, 10.000777, 9.993893 
5.50038e+1, 3.1441474e+2, -35576.324, -84883.07, -954.91504, -0.0057733506, -0.081689686, -35557.836, -35557.836, 0.0, 10.000473, 9.993945 
6.504189e+1, 1.2457193e+2, -1644938.6, -1727082.3, -937.34, 0.004997441, -0.08297084, -1644928.0, 74259.72, 0.0, 10.006769, 9.99588 
6.504054e+1, 1.3456784e+2, -1552381.8, -1633840.1, -1142.1865, 0.0056302557, -0.06375586, -1552365.8, 68862.2, 0.0, 10.006492, 9.995694 
6.5038973e+1, 1.445628e+2, -1466259.6, -1553435.4, -2578.0774, 0.0032460224, -0.08378326, -1466183.4, 57093.92, 0.0, 10.006196, 9.994642 
6.503726e+1, 1.5455753e+2, -1372766.5, -1457563.1, -2614.5803, 0.00494249, -0.076040365, -1372686.0, 52642.918, 0.0, 10.005887, 9.994649 
6.503535e+1, 1.6455175e+2, -1286221.9, -1375591.3, -3965.0344, 0.0041684266, -0.07243213, -1286046.3, 41339.38, 0.0, 10.00556, 9.993718 
6.5033233e+1, 1.7454545e+2, -1193169.8, -1279860.9, -4046.1482, 0.0005150037, -0.0743496, -1192981.3, 36465.8, 0.0, 10.005217, 9.99373 
6.503106e+1, 1.8453862e+2, -1108290.5, -1200561.4, -4857.7124, -0.0006009516, -0.07638957, -1108035.4, 23478.64, 0.0, 10.004854, 9.992631 
6.5028834e+1, 1.9453122e+2, -1015827.1, -1105205.8, -5136.411, 0.0012984931, -0.079684295, -1015532.9, 18053.523, 0.0, 10.004474, 9.992634 
6.502653e+1, 2.0452338e+2, -929428.75, -1022910.2, -5680.3154, 0.0015422987, -0.080476366, -929084.9, 6578.279, 0.0, 10.004116, 9.991735 
6.502414e+1, 2.1451515e+2, -836106.56, -927014.5, -5520.5874, -0.00019665547, -0.079091884, -835772.56, 1971.2972, 0.0, 10.003787, 9.991748 
6.5021783e+1, 2.2450638e+2, -751023.56, -847478.56, -5364.118, -0.00080665515, -0.07638523, -750726.2, -10896.284, 0.0, 10.003429, 9.990659 
6.5019447e+1, 2.3449709e+2, -658687.2, -752149.94, -5445.495, -0.000055896613, -0.0732106, -658371.0, -16449.842, 0.0, 10.0030365, 9.990663 
6.501716e+1, 2.4448732e+2, -572324.3, -668967.0, -5020.253, -0.0006362437, -0.073662825, -572064.25, -28047.426, 0.0, 10.002634, 9.989841 
6.501491e+1, 2.544771e+2, -480174.88, -573515.75, -4918.69, -0.002837782, -0.079480655, -479916.4, -33799.918, 0.0, 10.002217, 9.989862 
6.501279e+1, 2.6446643e+2, -395561.56, -494358.25, -3911.1294, -0.004228075, -0.08065909, -395406.97, -47185.598, 0.0, 10.00183, 9.988756 
6.501081e+1, 2.7445522e+2, -302540.28, -398543.75, -3852.0972, -0.004615266, -0.07739501, -302385.97, -52054.758, 0.0, 10.001475, 9.988771 
6.500895e+1, 2.844434e+2, -217347.38, -320088.03, -2886.4478, -0.0043060123, -0.074744254, -217266.34, -64819.344, 0.0, 10.001168, 9.9875765 
6.5007204e+1, 2.9443103e+2, -122780.49, -223454.16, -2686.7922, -0.0031528994, -0.074202344, -122708.836, -68140.375, 0.0, 10.000916, 9.987597 
6.5005636e+1, 3.0442178e+2, -32498.178, -83249.87, -1002.92456, -0.0037593804, -0.07544771, -32478.365, -32478.365, 0.0, 10.000678, 9.993958 
6.500426e+1, 3.1441575e+2, -35387.96, -84045.27, -875.88293, -0.006496952, -0.08033071, -35372.2, -35372.2, 0.0, 10.000454, 9.994011 
7.5048673e+1, 1.24573015e+2, -1644839.8, -1726869.1, -1927.0718, 0.007109535, -0.07833351, -1644794.5, 74382.75, 0.0, 10.006769, 9.995895 
7.504704e+1, 1.345689e+2, -1552266.5, -1633601.6, -2179.858, 0.00636883, -0.063095555, -1552208.1, 69009.53, 0.0, 10.006492, 9.99571 
7.5045156e+1, 1.4456384e+2, -1466321.5, -1553566.6, -3740.3994, 0.0018231043, -0.08372682, -1466161.4, 57105.72, 0.0, 10.006197, 9.994634 
7.504311e+1, 1.5455861e+2, -1372837.1, -1457715.8, -3772.789, 0.001646337, -0.0727505, -1372669.8, 52648.734, 0.0, 10.005887, 9.994638 
7.504089e+1, 1.645528e+2, -1286352.5, -1375868.5, -5255.762, 0.0023455466, -0.07007867, -1286044.9, 41330.49, 0.0, 10.00556, 9.993699 
7.503848e+1, 1.7454644e+2, -1193307.6, -1280151.6, -5336.07, 0.004149078, -0.077896595, -1192981.0, 36456.516, 0.0, 10.005217, 9.99371 
7.5035965e+1, 1.8453954e+2, -1108806.0, -1201630.5, -6288.2866, 0.004958534, -0.0797502, -1108382.0, 23122.967, 0.0, 10.004854, 9.9925585 
7.503334e+1, 1.9453216e+2, -1016361.44, -1106315.8, -6568.0444, 0.004563197, -0.07557937, -1015884.44, 17693.043, 0.0, 10.004474, 9.9925585 
7.5030655e+1, 2.0452432e+2, -929150.2, -1022339.75, -6926.502, 0.0025637203, -0.07458878, -928638.2, 7016.0454, 0.0, 10.004116, 9.991774 
7.502792e+1, 2.1451609e+2, -835798.3, -926374.8, -6756.0127, -0.0013539472, -0.07827224, -835297.2, 2437.7368, 0.0, 10.003787, 9.991792 
7.5025195e+1, 2.2450729e+2, -751165.06, -847763.5, -6832.8423, -0.002623636, -0.07783546, -750684.1, -10863.095, 0.0, 10.003429, 9.990639 
7.5022477e+1, 2.3449798e+2, -658855.0, -752488.4, -6925.5454, -0.00069300743, -0.07352276, -658345.56, -16433.137, 0.0, 10.0030365, 9.99064 
7.501979e+1, 2.4448822e+2, -572157.1, -668613.5, -6580.713, -0.0001983492, -0.0736765, -571710.25, -27702.195, 0.0, 10.002633, 9.989865 
7.5017136e+1, 2.5447807e+2, -479991.88, -573132.44, -6487.756, -0.0014558942, -0.08023428, -479542.16, -33434.613, 0.0, 10.002217, 9.989889 
7.501463e+1, 2.644674e+2, -395467.66, -494158.78, -5256.5317, -0.002666719, -0.07955099, -395188.47, -46976.402, 0.0, 10.00183, 9.98877 
7.501229e+1, 2.7445626e+2, -302456.78, -398362.22, -5190.6094, -0.0038126823, -0.07122658, -302176.7, -51855.34, 0.0, 10.001475, 9.988784 
7.501011e+1, 2.8444445e+2, -216971.13, -319295.16, -3853.1145, -0.004851905, -0.070554905, -216826.25, -64389.27, 0.0, 10.001168, 9.987631 
7.5008094e+1, 2.94432e+2, -122395.625, -222638.61, -3641.016, -0.005779788, -0.08070696, -122263.555, -67704.74, 0.0, 10.000915, 9.987654 
7.500629e+1, 3.044228e+2, -32278.324, -82773.02, -1842.3723, -0.006972362, -0.082344286, -32211.191, -32211.191, 0.0, 10.000677, 9.993991 
7.500469e+1, 3.1441694e+2, -35182.793, -83595.31, -1719.92, -0.008418036, -0.07473298, -35121.77, -35121.77, 0.0, 10.000453, 9.994042 
8.505552e+1, 1.2457439e+2, -1643050.9, -1726331.8, -514.0421, 0.007805735, -0.07532182, -1643047.8, 76116.164, 0.0, 10.006906, 9.995865 
8.505363e+1, 1.3457023e+2, -1550013.3, -1632832.6, -1148.2119, 0.0072879363, -0.061312057, -1549997.3, 71207.41, 0.0, 10.0066595, 9.995681 
8.5051453e+1, 1.4456515e+2, -1463724.4, -1552545.0, -3100.69, 0.0021640833, -0.08259034, -1463616.3, 59638.113, 0.0, 10.006384, 9.994612 
8.504909e+1, 1.545599e+2, -1370158.9, -1456657.4, -3215.1497, 0.001644096, -0.07170772, -1370039.6, 55266.395, 0.0, 10.006081, 9.9946165 
8.504654e+1, 1.6455403e+2, -1284153.9, -1375474.3, -5098.807, 0.0025216998, -0.06929443, -1283870.1, 43493.207, 0.0, 10.005739, 9.993638 
8.504379e+1, 1.7454761e+2, -1191680.9, -1280062.8, -5497.3643, 0.0051388647, -0.07756745, -1191340.3, 38085.875, 0.0, 10.005358, 9.993647 
8.504089e+1, 1.8454066e+2, -1107312.3, -1201390.4, -6571.059, 0.0058847186, -0.07939569, -1106855.5, 24638.564, 0.0, 10.004977, 9.992515 
8.5037875e+1, 1.9453323e+2, -1014794.44, -1106038.0, -6604.881, 0.004368418, -0.07460852, -1014318.8, 19248.121, 0.0, 10.0046015, 9.992515 
8.5034806e+1, 2.045254e+2, -927930.94, -1021639.56, -6970.5244, 0.002303821, -0.07326074, -927415.3, 8228.574, 0.0, 10.004194, 9.991783 
8.5031694e+1, 2.1451715e+2, -836240.5, -926458.25, -7037.114, -0.00041158512, -0.07691121, -835694.94, 2029.4966, 0.0, 10.003752, 9.991803 
8.502857e+1, 2.2450839e+2, -752551.44, -847994.25, -7115.6997, -0.001672582, -0.07681236, -752023.9, -12213.576, 0.0, 10.003315, 9.990678 
8.5025436e+1, 2.3449911e+2, -660732.4, -752947.75, -6740.8745, -0.0011675236, -0.07327284, -660242.2, -18340.875, 0.0, 10.002889, 9.990679 
8.5022354e+1, 2.4448937e+2, -574292.9, -670000.0, -6221.41, -0.0012213344, -0.07357998, -573890.1, -29893.186, 0.0, 10.002502, 9.989834 
8.5019326e+1, 2.5447917e+2, -481003.38, -574022.8, -6588.668, -0.0019641982, -0.07953595, -480539.0, -34442.273, 0.0, 10.002166, 9.989853 
8.501645e+1, 2.644685e+2, -395521.16, -493611.94, -5467.2017, -0.0027325288, -0.07863733, -395217.38, -47016.168, 0.0, 10.001802, 9.988821 
8.5013735e+1, 2.7445742e+2, -303128.4, -398066.72, -5086.7236, -0.0035256215, -0.07057351, -302856.63, -52546.695, 0.0, 10.001403, 9.988839 
8.501121e+1, 2.8444567e+2, -218572.75, -319476.28, -3285.7488, -0.0049991678, -0.06988, -218465.88, -66040.83, 0.0, 10.001033, 9.987683 
8.5008883e+1, 2.944333e+2, -125237.15, -223426.4, -3095.0122, -0.0073384037, -0.07966673, -125139.69, -70593.336, 0.0, 10.000694, 9.987705 
8.5006803e+1, 3.0442414e+2, -36168.035, -84391.04, -1126.6377, -0.008886689, -0.08088663, -36141.727, -36141.727, 0.0, 10.000399, 9.994014 
8.500498e+1, 3.144183e+2, -39449.8, -85423.195, -1085.7188, -0.009358411, -0.072779655, -39424.176, -39424.176, 0.0, 10.00015, 9.994063 
9.5062417e+1, 1.2457606e+2, -1643565.8, -1727408.8, -1392.2228, 0.0071058287, -0.0739, -1643542.6, 75605.04, 0.0, 10.0069065, 9.995791 
9.5060295e+1, 1.3457184e+2, -1550534.8, -1633919.0, -2067.7075, 0.008381624, -0.058425907, -1550483.5, 70705.46, 0.0, 10.0066595, 9.995607 
9.505785e+1, 1.4456671e+2, -1463963.8, -1553046.3, -4238.264, 0.004233557, -0.080396295, -1463762.6, 59476.695, 0.0, 10.006385, 9.994577 
9.5055205e+1, 1.5456137e+2, -1370394.0, -1457144.0, -4352.4697, 0.0048731267, -0.0728735, -1370176.1, 55115.28, 0.0, 10.006081, 9.994583 
9.50523e+1, 1.6455546e+2, -1284870.5, -1376952.9, -6524.663, 0.0046590874, -0.07004935, -1284410.5, 42938.89, 0.0, 10.005739, 9.993538 
9.5049125e+1, 1.7454898e+2, -1192419.0, -1281593.8, -6928.456, 0.0035239174, -0.07342524, -1191883.9, 37528.883, 0.0, 10.005359, 9.993543 
9.5045835e+1, 1.8454197e+2, -1107407.8, -1201597.6, -7986.8223, 0.0022454953, -0.075383246, -1106735.3, 24746.047, 0.0, 10.004978, 9.9925 
9.5042443e+1, 1.9453447e+2, -1014869.3, -1106196.1, -8013.123, 0.0007614488, -0.07673145, -1014171.56, 19383.293, 0.0, 10.004602, 9.992504 
9.5038986e+1, 2.045266e+2, -928067.2, -1021920.3, -8625.386, 0.0007787847, -0.07643114, -927281.06, 8350.934, 0.0, 10.004194, 9.991764 
9.5035475e+1, 2.145184e+2, -836383.2, -926751.2, -8703.25, 0.002605248, -0.07501429, -835552.6, 2159.707, 0.0, 10.003751, 9.991783 
9.5031923e+1, 2.2450969e+2, -751861.9, -846567.5, -8725.309, 0.0020145974, -0.073342346, -751064.7, -11266.986, 0.0, 10.003315, 9.990775 
9.502832e+1, 2.3450048e+2, -660005.7, -751444.9, -8349.78, -0.0014837419, -0.07246824, -659249.44, -17361.482, 0.0, 10.002889, 9.990782 
9.5024824e+1, 2.4449074e+2, -574908.6, -671271.25, -7504.864, -0.0036949995, -0.07337402, -574327.6, -30344.14, 0.0, 10.002502, 9.989747 
9.502147e+1, 2.5448045e+2, -481698.2, -575450.94, -7856.0703, -0.004350485, -0.07739576, -481044.44, -34960.32, 0.0, 10.002165, 9.989756 
9.501823e+1, 2.644698e+2, -394908.44, -492326.97, -6954.361, -0.0044165575, -0.077919, -394414.5, -46225.688, 0.0, 10.0018015, 9.988909 
9.501514e+1, 2.7445874e+2, -302449.9, -396643.1, -6592.7173, -0.0037532311, -0.07541012, -301990.72, -51693.68, 0.0, 10.001402, 9.988937 
9.501225e+1, 2.844471e+2, -218224.66, -318734.25, -4564.667, -0.004751771, -0.07270258, -218017.78, -65606.555, 0.0, 10.001032, 9.987735 
9.5009565e+1, 2.9443488e+2, -124914.78, -222733.02, -4369.2837, -0.007834272, -0.07110513, -124720.01, -70188.91, 0.0, 10.000693, 9.987753 
9.5007193e+1, 3.0442575e+2, -36098.152, -84216.945, -2071.6328, -0.0095080305, -0.07110317, -36009.13, -36009.13, 0.0, 10.000398, 9.994026 
9.5005137e+1, 3.1441978e+2, -39406.523, -85298.37, -2021.5422, -0.009325816, -0.07446883, -39317.645, -39317.645, 0.0, 10.000149, 9.994072 
1.0506951e+2, 1.2457796e+2, -1638629.0, -1726367.8, -667.1148, 0.006470033, -0.07401509, -1638624.0, 80505.12, 0.0, 10.007301, 9.99567 
1.0506713e+2, 1.3457364e+2, -1546678.5, -1633425.0, -1750.1844, 0.009110324, -0.057072673, -1546643.3, 74528.336, 0.0, 10.006982, 9.995483 
1.0506438e+2, 1.4456841e+2, -1460581.9, -1551824.5, -4347.0415, 0.005714928, -0.07891689, -1460375.3, 62847.35, 0.0, 10.006633, 9.994539 
1.05061404e+2, 1.5456304e+2, -1368101.6, -1456418.4, -4474.3877, 0.007544466, -0.072976, -1367875.5, 57399.715, 0.0, 10.006253, 9.994548 
1.0505813e+2, 1.6455705e+2, -1283337.3, -1377161.0, -6690.853, 0.006738528, -0.07001417, -1282862.5, 44471.285, 0.0, 10.005885, 9.993452 
1.05054565e+2, 1.745505e+2, -1190463.8, -1281629.4, -6970.052, 0.0029048957, -0.07119653, -1189934.0, 39463.918, 0.0, 10.005534, 9.993454 
1.0505087e+2, 1.8454349e+2, -1104831.0, -1199901.6, -7958.1504, 0.0005832952, -0.07306247, -1104169.5, 27297.254, 0.0, 10.005135, 9.992539 
1.0504708e+2, 1.94536e+2, -1013413.3, -1104984.6, -7572.758, 0.00003202326, -0.076849796, -1012791.3, 20748.63, 0.0, 10.00468, 9.992549 
1.0504319e+2, 2.0452812e+2, -928167.1, -1022615.94, -8257.894, 0.0006956328, -0.077012196, -927450.56, 8166.618, 0.0, 10.004216, 9.991706 
1.05039224e+2, 2.1451989e+2, -836953.1, -927736.9, -8662.0625, 0.002829928, -0.07366637, -836134.0, 1563.9802, 0.0, 10.003743, 9.991719 
1.0503523e+2, 2.2451118e+2, -751734.4, -846002.7, -8881.502, 0.0022830863, -0.0713525, -750904.9, -11121.441, 0.0, 10.003303, 9.99082 
1.05031215e+2, 2.34502e+2, -659470.6, -750628.9, -8893.426, -0.0015003772, -0.0714149, -658611.06, -16737.807, 0.0, 10.002901, 9.990831 
1.0502731e+2, 2.4449228e+2, -575272.25, -671420.56, -7870.596, -0.0040767114, -0.07242379, -574632.25, -30663.717, 0.0, 10.002477, 9.989749 
1.05023555e+2, 2.54482e+2, -483791.5, -576473.06, -7498.0615, -0.005189334, -0.07552525, -483188.84, -37119.742, 0.0, 10.002023, 9.989755 
1.0501992e+2, 2.6447135e+2, -397585.56, -493106.53, -6365.937, -0.0056541627, -0.07659134, -397163.16, -48989.55, 0.0, 10.0015955, 9.988955 
1.0501642e+2, 2.7446032e+2, -305054.1, -397365.88, -6383.1553, -0.0053158673, -0.07642718, -304614.78, -54333.207, 0.0, 10.001201, 9.988984 
1.0501316e+2, 2.8444874e+2, -220996.3, -319626.22, -4412.276, -0.00603387, -0.073212326, -220799.3, -68404.016, 0.0, 10.000823, 9.987774 
1.05010144e+2, 2.9443657e+2, -128013.47, -223795.14, -4285.4863, -0.008095937, -0.06756994, -127822.11, -73307.66, 0.0, 10.000463, 9.987792 
1.0500746e+2, 3.0442753e+2, -39317.824, -84900.19, -1487.8175, -0.009592554, -0.067231745, -39269.313, -39269.313, 0.0, 10.000139, 9.994103 
1.0500513e+2, 3.144216e+2, -43109.258, -86198.49, -906.086, -0.010279218, -0.074908, -43090.215, -43090.215, 0.0, 9.999856, 9.994151 
1.150768e+2, 1.2458008e+2, -1639835.0, -1728852.6, -1816.4966, 0.005893511, -0.07564219, -1639798.0, 79310.38, 0.0, 10.007301, 9.995501 
1.1507411e+2, 1.3457559e+2, -1547898.5, -1635948.0, -2937.8948, 0.009481543, -0.057214867, -1547800.6, 73351.82, 0.0, 10.006983, 9.995312 
1.1507102e+2, 1.4457026e+2, -1460866.1, -1552429.9, -5761.343, 0.0066200905, -0.07813381, -1460505.0, 62699.496, 0.0, 10.006634, 9.994497 
1.1506768e+2, 1.5456484e+2, -1368347.8, -1456947.9, -5892.3623, 0.009668372, -0.07203829, -1367957.6, 57299.82, 0.0, 10.006254, 9.994512 
1.1506404e+2, 1.6455883e+2, -1283824.1, -1378180.8, -8012.762, 0.008759327, -0.069208205, -1283148.6, 44167.906, 0.0, 10.005886, 9.993382 
1.15060106e+2, 1.745522e+2, -1190975.3, -1282684.8, -8277.32, 0.0032604034, -0.070843115, -1190234.1, 39147.33, 0.0, 10.005534, 9.993382 
1.15056016e+2, 1.8454517e+2, -1104175.6, -1198545.1, -9648.639, 0.000860212, -0.07240254, -1103199.3, 28250.943, 0.0, 10.005135, 9.992632 
1.15051776e+2, 1.9453782e+2, -1012706.6, -1103522.6, -9282.08, 0.002128101, -0.07499743, -1011767.6, 21754.604, 0.0, 10.00468, 9.992648 
1.1504742e+2, 2.0452994e+2, -928845.94, -1024018.1, -10034.783, 0.00202731, -0.07504846, -927799.4, 7800.01, 0.0, 10.004216, 9.991611 
1.1504295e+2, 2.1452157e+2, -837698.3, -929285.94, -10437.495, 0.00030004923, -0.07286007, -836523.9, 1157.5365, 0.0, 10.003743, 9.991613 
1.1503851e+2, 2.245128e+2, -751778.6, -846102.5, -10400.724, -0.00082231336, -0.07082409, -750645.4, -10877.897, 0.0, 10.003303, 9.990813 
1.1503412e+2, 2.3450364e+2, -659491.44, -750669.06, -10400.9, -0.0012213056, -0.07011384, -658320.0, -16462.748, 0.0, 10.002901, 9.9908285 
1.15029804e+2, 2.4449398e+2, -574637.56, -670096.4, -9566.643, -0.0023901486, -0.07073762, -573688.3, -29736.234, 0.0, 10.002476, 9.98984 
1.1502558e+2, 2.544838e+2, -483131.22, -575089.9, -9207.758, -0.004496538, -0.07392306, -482218.3, -36166.617, 0.0, 10.002022, 9.989849 
1.15021504e+2, 2.6447317e+2, -397570.13, -493055.16, -7861.156, -0.00645167, -0.07465934, -396927.25, -48771.574, 0.0, 10.0015955, 9.988958 
1.1501759e+2, 2.744622e+2, -305081.47, -397400.3, -7872.1113, -0.008207457, -0.07364903, -304415.0, -54151.43, 0.0, 10.0012, 9.988982 
1.1501396e+2, 2.844506e+2, -220813.23, -319219.13, -5768.2993, -0.008838825, -0.071425654, -220476.27, -68099.02, 0.0, 10.000821, 9.9878025 
1.15010604e+2, 2.9443845e+2, -127828.86, -223378.2, -5640.8022, -0.008125888, -0.06904317, -127497.01, -73000.586, 0.0, 10.000462, 9.987821 
1.1500761e+2, 3.0442944e+2, -38343.58, -82836.0, -2556.697, -0.009145849, -0.069252014, -38197.145, -38197.145, 0.0, 10.000137, 9.9942465 
1.1500496e+2, 3.144237e+2, -42097.53, -84048.28, -1968.571, -0.01222323, -0.07410218, -42005.355, -42005.355, 0.0, 9.999854, 9.9943 
1.2508431e+2, 1.24582395e+2, -1635094.1, -1727329.3, -1644.2625, 0.008337852, -0.07543469, -1635064.9, 84020.9, 0.0, 10.007658, 9.995431 
1.2508129e+2, 1.3457784e+2, -1543232.0, -1634466.5, -2064.587, 0.010743461, -0.056911353, -1543185.3, 77945.234, 0.0, 10.007335, 9.995241 
1.2507781e+2, 1.4457245e+2, -1456501.3, -1551302.6, -4922.818, 0.006198843, -0.07740114, -1456246.3, 66937.1, 0.0, 10.006974, 9.994409 
1.2507409e+2, 1.5456694e+2, -1364289.0, -1455993.0, -5456.1523, 0.00814692, -0.07068694, -1363965.5, 61271.68, 0.0, 10.006576, 9.99442 
1.2507004e+2, 1.6456087e+2, -1280171.1, -1376421.0, -7655.3423, 0.00767574, -0.06800389, -1279566.0, 47730.652, 0.0, 10.006136, 9.993381 
1.250657e+2, 1.7455423e+2, -1189237.3, -1281825.6, -7374.842, 0.0044373856, -0.070694156, -1188653.5, 40708.164, 0.0, 10.005652, 9.993383 
1.2506118e+2, 1.845472e+2, -1103787.1, -1198616.3, -9045.239, 0.0029963958, -0.07197749, -1102932.0, 28498.459, 0.0, 10.005173, 9.992608 
1.2505648e+2, 1.9453983e+2, -1012608.2, -1103756.9, -9606.421, 0.0036772697, -0.07270665, -1011606.75, 21895.922, 0.0, 10.004699, 9.992622 
1.2505166e+2, 2.0453194e+2, -928358.3, -1023950.9, -10460.554, 0.0023752544, -0.07251961, -927227.06, 8352.946, 0.0, 10.004256, 9.991595 
1.2504673e+2, 2.1452354e+2, -836183.7, -928725.56, -10185.081, -0.0012937635, -0.072038524, -835076.0, 2586.3262, 0.0, 10.003855, 9.991598 
1.2504184e+2, 2.2451474e+2, -750600.06, -845870.0, -9968.669, -0.0027096819, -0.0705816, -749568.1, -9819.47, 0.0, 10.003398, 9.990783 
1.25037e+2, 2.3450555e+2, -660080.94, -751309.8, -10187.586, -0.0014082326, -0.069085196, -658957.1, -17118.414, 0.0, 10.002876, 9.990796 
1.2503223e+2, 2.444959e+2, -575824.94, -669815.94, -9594.281, -0.0016606298, -0.06927179, -574855.56, -30922.313, 0.0, 10.002358, 9.989915 
1.2502752e+2, 2.5448582e+2, -485158.78, -575161.2, -9344.596, -0.0038073296, -0.07244352, -484198.8, -38166.727, 0.0, 10.001843, 9.98993 
1.25023e+2, 2.6447526e+2, -400577.13, -494409.88, -7707.267, -0.0063509285, -0.07282721, -399948.28, -51812.707, 0.0, 10.001385, 9.988967 
1.2501867e+2, 2.7446425e+2, -308094.38, -398811.16, -7660.886, -0.009367448, -0.07103955, -307452.0, -57208.61, 0.0, 10.000991, 9.988986 
1.2501465e+2, 2.844527e+2, -223497.95, -319379.25, -5247.739, -0.010504041, -0.06987874, -223211.6, -70854.945, 0.0, 10.000588, 9.987904 
1.2501091e+2, 2.9444063e+2, -131317.31, -223874.33, -4549.9453, -0.009360302, -0.07083583, -131094.17, -76619.13, 0.0, 10.000171, 9.9879265 
1.2500755e+2, 3.0443174e+2, -42869.223, -84008.5, -1087.3083, -0.010234346, -0.07119504, -42840.508, -42840.508, 0.0, 9.9997835, 9.994336 
1.2500459e+2, 3.1442612e+2, -47674.973, -85747.586, -946.72217, -0.013523577, -0.072206154, -47651.445, -47651.445, 0.0, 9.999429, 9.994388 
1.3509202e+2, 1.245849e+2, -1634901.9, -1726950.8, -2796.5522, 0.013696076, -0.0735099, -1634817.0, 84244.37, 0.0, 10.007659, 9.995456 
1.3508864e+2, 1.3458036e+2, -1543033.6, -1634064.5, -3262.0613, 0.012865281, -0.05617422, -1542916.9, 78189.03, 0.0, 10.007335, 9.995268 
1.3508478e+2, 1.4457493e+2, -1457470.5, -1553294.6, -6404.3677, 0.0044867103, -0.0767173, -1457044.4, 66114.91, 0.0, 10.006974, 9.994273 
1.3508059e+2, 1.5456927e+2, -1365318.5, -1458108.8, -6938.602, 0.0030785026, -0.06893429, -1364802.5, 60411.91, 0.0, 10.006576, 9.994276 
1.3507614e+2, 1.6456315e+2, -1279708.6, -1375472.4, -9450.517, 0.0035697964, -0.066411994, -1278784.9, 48489.465, 0.0, 10.006136, 9.993445 
1.3507138e+2, 1.7455658e+2, -1188707.1, -1280751.0, -9182.849, 0.006415861, -0.07074541, -1187799.9, 41538.832, 0.0, 10.005653, 9.993456 
1.350664e+2, 1.8454953e+2, -1104743.8, -1200614.3, -10826.358, 0.006944335, -0.07177938, -1103536.4, 27871.338, 0.0, 10.005174, 9.992472 
1.3506119e+2, 1.9454202e+2, -1013638.3, -1105909.8, -11380.682, 0.0046873945, -0.06998801, -1012255.4, 21225.893, 0.0, 10.0047, 9.9924755 
1.3505591e+2, 2.0453408e+2, -927894.25, -1023008.8, -11978.316, 0.0017570475, -0.06943772, -926408.94, 9150.032, 0.0, 10.004257, 9.991659 
1.3505057e+2, 2.1452576e+2, -835670.5, -927655.6, -11689.711, -0.001969593, -0.07120391, -834208.2, 3432.5537, 0.0, 10.003854, 9.991671 
1.3504523e+2, 2.2451696e+2, -750989.75, -846655.06, -11907.668, -0.0034010168, -0.07062101, -749529.8, -9802.822, 0.0, 10.003397, 9.990729 
1.3503987e+2, 2.3450772e+2, -660517.6, -752196.9, -12147.751, -0.0020574457, -0.0683275, -658935.3, -17117.68, 0.0, 10.002875, 9.990736 
1.3503459e+2, 2.4449806e+2, -575394.44, -668911.94, -11524.448, -0.001878355, -0.06802378, -573995.2, -30083.002, 0.0, 10.0023575, 9.989977 
1.3502938e+2, 2.5448805e+2, -484688.8, -574176.56, -11277.221, -0.00312293, -0.07108656, -483289.56, -37279.246, 0.0, 10.001843, 9.989997 
1.350244e+2, 2.6447752e+2, -400491.66, -494214.88, -9204.44, -0.0053613996, -0.071093924, -399596.25, -51482.926, 0.0, 10.001385, 9.98898 
1.3501967e+2, 2.7446654e+2, -308044.06, -398676.28, -9138.833, -0.008811355, -0.068596914, -307131.75, -56910.742, 0.0, 10.00099, 9.988996 
1.3501523e+2, 2.844551e+2, -222298.44, -316851.0, -6806.635, -0.011040587, -0.06857025, -221810.95, -69477.45, 0.0, 10.000587, 9.988077 
1.3501106e+2, 2.9444316e+2, -130064.34, -221227.3, -6122.1006, -0.01179734, -0.07295194, -129655.05, -75204.67, 0.0, 10.000169, 9.988109 
1.350073e+2, 3.0443436e+2, -42638.414, -83475.625, -2423.5037, -0.012854193, -0.07306276, -42495.094, -42495.094, 0.0, 9.999782, 9.994373 
1.3500401e+2, 3.1442884e+2, -47517.938, -85357.57, -2277.6084, -0.014187088, -0.06921897, -47381.34, -47381.34, 0.0, 9.999426, 9.994415 
1.4509991e+2, 1.2458787e+2, -1628954.0, -1724601.0, -921.25275, 0.015718633, -0.0700055, -1628945.1, 90087.41, 0.0, 10.008087, 9.995406 
1.4509615e+2, 1.3458326e+2, -1538608.0, -1632455.4, -1987.4862, 0.01426086, -0.053348716, -1538565.9, 82511.625, 0.0, 10.00766, 9.995219 
1.4509188e+2, 1.4457776e+2, -1454516.0, -1552854.0, -5446.76, 0.004949035, -0.07466374, -1454215.3, 68916.33, 0.0, 10.007219, 9.994184 
1.4508729e+2, 1.5457201e+2, -1363174.8, -1458096.9, -5602.312, 0.0033916996, -0.06803335, -1362845.3, 62342.555, 0.0, 10.006766, 9.9941845 
1.4508237e+2, 1.6456583e+2, -1277188.1, -1374502.0, -8349.277, 0.0037988827, -0.06558873, -1276477.0, 50771.32, 0.0, 10.006319, 9.993422 
1.4507715e+2, 1.7455924e+2, -1185500.4, -1279420.4, -8768.253, 0.0066573364, -0.06873933, -1184688.8, 44623.97, 0.0, 10.005882, 9.993435 
1.450717e+2, 1.8455213e+2, -1101767.8, -1200313.0, -10705.849, 0.0068728994, -0.06966713, -1100618.1, 30764.29, 0.0, 10.005426, 9.99237 
1.4506601e+2, 1.9454451e+2, -1010720.1, -1105689.0, -10958.18, 0.0038994737, -0.069033735, -1009472.1, 23984.932, 0.0, 10.004951, 9.992369 
1.4506024e+2, 2.0453654e+2, -925380.56, -1021315.4, -11613.361, 0.0013397188, -0.06879246, -923994.7, 11540.447, 0.0, 10.004409, 9.9917 
1.4505441e+2, 2.1452826e+2, -836295.25, -927414.44, -11510.85, -0.00071114354, -0.06987822, -834863.6, 2752.7163, 0.0, 10.003788, 9.991718 
1.4504856e+2, 2.2451949e+2, -753606.56, -848018.0, -11658.665, -0.00222961, -0.06895401, -752188.2, -12485.795, 0.0, 10.003222, 9.99072 
1.4504266e+2, 2.3451024e+2, -662827.5, -753452.25, -11539.942, -0.0030897406, -0.066714056, -661381.06, -19587.967, 0.0, 10.002724, 9.990723 
1.4503686e+2, 2.4450059e+2, -576881.7, -669268.4, -10754.869, -0.0038435534, -0.066699125, -575646.25, -31758.621, 0.0, 10.00224, 9.990009 
1.4503117e+2, 2.5449058e+2, -485451.22, -574166.4, -10756.475, -0.004483091, -0.07033861, -484165.66, -38180.22, 0.0, 10.001775, 9.99003 
1.4502572e+2, 2.644801e+2, -401755.72, -494147.47, -8599.345, -0.005681876, -0.07068973, -400962.16, -52874.113, 0.0, 10.001268, 9.98904 
1.4502054e+2, 2.744692e+2, -311709.2, -399762.97, -8151.874, -0.007568242, -0.06826076, -310960.88, -60765.715, 0.0, 10.00071, 9.989057 
1.4501564e+2, 2.844578e+2, -227234.22, -318370.72, -5758.6543, -0.009620506, -0.06734559, -226871.8, -74564.88, 0.0, 10.000212, 9.988153 
1.4501104e+2, 2.9444596e+2, -135117.61, -222802.22, -5858.9575, -0.011909533, -0.0696716, -134727.84, -80305.0, 0.0, 9.999785, 9.988185 
1.4500688e+2, 3.0443728e+2, -47817.215, -84873.26, -2172.8557, -0.014197471, -0.06987358, -47690.24, -47690.24, 0.0, 9.999378, 9.994472 
1.4500318e+2, 3.144318e+2, -53175.957, -86985.33, -1500.3695, -0.016375666, -0.06877219, -53109.504, -53109.504, 0.0, 9.99899, 9.9945135 
1.5510799e+2, 1.24591276e+2, -1629807.4, -1726378.8, -2462.7148, 0.014529649, -0.06497755, -1629744.6, 89254.76, 0.0, 10.008088, 9.995285 
1.5510382e+2, 1.3458656e+2, -1539462.1, -1634244.9, -3578.525, 0.014955978, -0.048510756, -1539327.1, 81718.43, 0.0, 10.007662, 9.995096 
1.5509912e+2, 1.4458093e+2, -1454808.6, -1553493.9, -7139.199, 0.007510544, -0.07128991, -1454294.8, 68805.76, 0.0, 10.00722, 9.994139 
1.550941e+2, 1.5457512e+2, -1363451.0, -1458702.4, -7290.4854, 0.008907289, -0.067955784, -1362896.1, 62261.25, 0.0, 10.006767, 9.994142 
1.5508872e+2, 1.6456886e+2, -1277935.9, -1376073.0, -9986.535, 0.008220701, -0.06550629, -1276929.9, 50288.75, 0.0, 10.00632, 9.993314 
1.5508303e+2, 1.7456222e+2, -1186278.3, -1281044.3, -10399.186, 0.005205856, -0.064734615, -1185150.5, 44133.305, 0.0, 10.005883, 9.993324 
1.5507708e+2, 1.8455501e+2, -1102249.5, -1201313.4, -12479.579, 0.0028904667, -0.065698184, -1100701.5, 30652.842, 0.0, 10.005426, 9.992301 
1.5507092e+2, 1.9454727e+2, -1011203.56, -1106676.5, -12730.311, 0.0013580869, -0.06980267, -1009535.25, 23894.83, 0.0, 10.004951, 9.992301 
1.5506466e+2, 2.0453925e+2, -925238.2, -1021010.56, -13911.451, 0.0011184464, -0.07052654, -923258.44, 12250.134, 0.0, 10.004408, 9.991721 
1.5505823e+2, 2.1453103e+2, -836120.06, -927056.2, -13836.207, 0.0024403685, -0.068069726, -834061.44, 3527.7466, 0.0, 10.003788, 9.991743 
1.550518e+2, 2.2452231e+2, -753350.7, -847495.44, -13549.479, 0.0007651308, -0.06561414, -751439.44, -11764.633, 0.0, 10.003223, 9.990755 
1.5504536e+2, 2.3451309e+2, -662580.6, -752938.6, -13409.717, -0.0045023835, -0.06425911, -660632.56, -18867.287, 0.0, 10.002724, 9.990758 
1.5503907e+2, 2.4450345e+2, -576868.2, -669226.5, -12502.352, -0.0075339708, -0.06530076, -575205.75, -31346.074, 0.0, 10.002239, 9.990012 
1.5503292e+2, 2.5449345e+2, -485464.38, -574167.75, -12500.307, -0.0078667095, -0.07019418, -483736.47, -37778.88, 0.0, 10.001774, 9.990031 
1.5502697e+2, 2.64483e+2, -401021.53, -492593.34, -10677.586, -0.0073010977, -0.07160564, -399792.97, -51733.195, 0.0, 10.001267, 9.989147 
1.5502125e+2, 2.744722e+2, -310943.3, -398139.75, -10253.729, -0.0056437324, -0.07001691, -309753.75, -59587.89, 0.0, 10.000708, 9.989168 
1.5501589e+2, 2.8446087e+2, -227396.69, -318665.22, -7379.0933, -0.0062579005, -0.06620294, -226803.94, -74527.03, 0.0, 10.00021, 9.988134 
1.5501083e+2, 2.944491e+2, -135346.13, -223222.4, -7458.372, -0.009709786, -0.061013438, -134717.6, -80325.06, 0.0, 9.999783, 9.988157 
1.5500626e+2, 3.0444047e+2, -46747.402, -82585.516, -3625.7178, -0.014273147, -0.06164818, -46384.27, -46384.27, 0.0, 9.999375, 9.99463 
1.5500215e+2, 3.1443506e+2, -52046.934, -84561.52, -2953.6965, -0.020095102, -0.07087418, -51780.793, -51780.793, 0.0, 9.998987, 9.994681 
1.6511634e+2, 1.2459506e+2, -1623834.8, -1725460.6, -1102.7905, 0.015118828, -0.06337424, -1623822.8, 95139.61, 0.0, 10.008581, 9.995107 
1.6511172e+2, 1.3459013e+2, -1533774.5, -1633489.0, -2682.3674, 0.015597395, -0.04838389, -1533702.4, 87308.18, 0.0, 10.008136, 9.994917 
1.6510658e+2, 1.4458442e+2, -1448542.4, -1550825.3, -6580.5825, 0.00825702, -0.07074648, -1448120.8, 74945.87, 0.0, 10.007664, 9.994104 
1.651011e+2, 1.545786e+2, -1357841.3, -1456297.0, -6636.8604, 0.010905352, -0.06522055, -1357395.9, 67727.65, 0.0, 10.007164, 9.994113 
1.6509522e+2, 1.6457227e+2, -1273973.5, -1375568.6, -9369.706, 0.010047956, -0.062370073, -1273116.6, 54068.914, 0.0, 10.006652, 9.993187 
1.6508903e+2, 1.7456546e+2, -1183603.8, -1281225.8, -9931.816, 0.0051811067, -0.063279, -1182603.6, 46648.582, 0.0, 10.006129, 9.993192 
1.6508257e+2, 1.8455818e+2, -1100111.8, -1200159.5, -12043.093, 0.0021921708, -0.064977735, -1098682.5, 32640.852, 0.0, 10.005568, 9.992311 
1.6507588e+2, 1.9455047e+2, -1010937.1, -1106369.5, -11687.912, 0.0013949578, -0.06871879, -1009526.56, 23872.352, 0.0, 10.004961, 9.992316 
1.6506904e+2, 2.0454246e+2, -925837.1, -1021679.0, -12880.836, 0.001355933, -0.068969294, -924136.1, 11341.242, 0.0, 10.004383, 9.991687 
1.6506204e+2, 2.1453421e+2, -835589.75, -927213.94, -13262.589, 0.0022461524, -0.065892115, -833708.6, 3849.7324, 0.0, 10.003842, 9.991705 
1.6505505e+2, 2.2452548e+2, -752126.4, -846416.0, -13031.854, 0.00054916897, -0.06348922, -750358.4, -10714.438, 0.0, 10.003285, 9.990798 
1.650481e+2, 2.345163e+2, -662445.3, -752354.06, -12801.127, -0.004268518, -0.0630013, -660658.2, -18924.17, 0.0, 10.00271, 9.990804 
1.6504125e+2, 2.4450669e+2, -578365.8, -669807.1, -11770.076, -0.007194113, -0.064406686, -576875.1, -33047.0, 0.0, 10.0021305, 9.990025 
1.6503456e+2, 2.544967e+2, -488725.34, -575631.3, -11693.959, -0.007826418, -0.06904764, -487179.3, -41253.33, 0.0, 10.001546, 9.990041 
1.650281e+2, 2.6448628e+2, -404539.2, -493414.63, -9989.389, -0.008083862, -0.07003561, -403430.22, -55402.5, 0.0, 10.000988, 9.989225 
1.6502182e+2, 2.7447554e+2, -313953.78, -398685.06, -9802.062, -0.0078746425, -0.067823604, -312834.63, -62701.668, 0.0, 10.000463, 9.989248 
1.6501594e+2, 2.844643e+2, -231128.34, -320194.63, -6633.9663, -0.008558555, -0.06380494, -230636.92, -78393.48, 0.0, 9.999942, 9.988158 
1.6501044e+2, 2.9445255e+2, -140420.83, -225447.61, -6347.8804, -0.010402411, -0.05889674, -139949.52, -85590.58, 0.0, 9.999425, 9.988177 
1.6500542e+2, 3.0444396e+2, -52044.34, -83476.27, -2166.8398, -0.01412262, -0.059836797, -51895.664, -51895.664, 0.0, 9.99894, 9.994778 
1.6500089e+2, 3.1443873e+2, -58194.96, -85791.055, -1590.7577, -0.020051023, -0.06943361, -58103.563, -58103.563, 0.0, 9.99849, 9.994836 
1.7512494e+2, 1.24599196e+2, -1625483.5, -1728870.1, -2716.8215, 0.01739795, -0.0650938, -1625412.3, 93509.63, 0.0, 10.008582, 9.994875 
1.7511986e+2, 1.3459401e+2, -1535435.8, -1636935.6, -4326.6978, 0.016183767, -0.052772786, -1535251.6, 85721.0, 0.0, 10.008138, 9.994681 
1.7511423e+2, 1.4458819e+2, -1448694.9, -1551177.8, -8428.823, 0.0072577614, -0.07291557, -1448006.3, 75023.55, 0.0, 10.007666, 9.99408 
1.7510822e+2, 1.5458241e+2, -1357934.9, -1456532.4, -8496.279, 0.009515704, -0.05992365, -1357208.1, 67878.22, 0.0, 10.007166, 9.994096 
1.7510188e+2, 1.6457602e+2, -1274991.3, -1377697.5, -11318.315, 0.009375554, -0.056295287, -1273758.8, 53390.117, 0.0, 10.006654, 9.993041 
1.7509517e+2, 1.7456898e+2, -1184687.1, -1283466.3, -11872.445, 0.0065370486, -0.064293884, -1183280.3, 45937.57, 0.0, 10.006129, 9.993039 
1.7508817e+2, 1.8456165e+2, -1099495.5, -1198889.3, -14291.148, 0.0046731546, -0.06740058, -1097481.5, 33808.004, 0.0, 10.005568, 9.992396 
1.7508087e+2, 1.9455409e+2, -1010245.75, -1104952.3, -13953.356, 0.0039327783, -0.06583138, -1008232.75, 25130.766, 0.0, 10.004961, 9.992413 
1.7507344e+2, 2.0454611e+2, -926449.4, -1022954.2, -14914.953, 0.002034305, -0.06421086, -924196.8, 11244.989, 0.0, 10.004384, 9.991599 
1.7506585e+2, 2.1453774e+2, -836273.5, -928632.9, -15282.055, -0.0012204631, -0.06335784, -833810.56, 3713.404, 0.0, 10.003842, 9.991608 
1.750583e+2, 2.2452897e+2, -751766.25, -845669.4, -15176.864, -0.0028085473, -0.06255469, -749374.3, -9764.324, 0.0, 10.003285, 9.990849 
1.7505081e+2, 2.3451982e+2, -662049.25, -751520.8, -14954.734, -0.0024162298, -0.06292121, -659615.8, -17916.344, 0.0, 10.002709, 9.990861 
1.7504343e+2, 2.4451026e+2, -578220.9, -669484.94, -13958.9795, -0.0028912518, -0.06400922, -576133.56, -32340.424, 0.0, 10.00213, 9.9900465 
1.7503615e+2, 2.545003e+2, -488602.16, -575349.7, -13887.634, -0.004410841, -0.06691493, -486433.1, -40542.348, 0.0, 10.001545, 9.99006 
1.7502908e+2, 2.6448995e+2, -404205.63, -492690.66, -11967.129, -0.008045388, -0.06600708, -402615.7, -54623.707, 0.0, 10.000987, 9.989275 
1.7502221e+2, 2.744793e+2, -313622.5, -397956.88, -11772.774, -0.014233744, -0.061715767, -312009.9, -61913.41, 0.0, 10.000461, 9.989299 
1.7501579e+2, 2.8446808e+2, -230685.84, -319223.5, -8568.553, -0.016488068, -0.0601696, -229864.22, -77657.62, 0.0, 9.99994, 9.988226 
1.7500983e+2, 2.944563e+2, -139989.22, -224485.94, -8286.077, -0.01397494, -0.06330432, -139184.33, -84862.19, 0.0, 9.999422, 9.988244 
1.7500436e+2, 3.0444786e+2, -51121.438, -81481.11, -3856.6687, -0.013746216, -0.064415514, -50639.176, -50639.176, 0.0, 9.998937, 9.994916 
1.7499942e+2, 3.144428e+2, -57259.145, -83754.08, -3274.1543, -0.01625135, -0.064442635, -56860.535, -56860.535, 0.0, 9.9984865, 9.994977 
1.8513379e+2, 1.2460373e+2, -1618861.1, -1727117.1, -1482.0249, 0.018037409, -0.065897025, -1618840.9, 100036.52, 0.0, 10.009096, 9.994743 
1.8512826e+2, 1.3459843e+2, -1529250.6, -1635401.3, -2384.353, 0.01728849, -0.053283393, -1529197.1, 91732.4, 0.0, 10.008622, 9.99455 
1.8512213e+2, 1.4459248e+2, -1442859.4, -1549664.5, -6633.232, 0.007667073, -0.072299756, -1442449.0, 80538.84, 0.0, 10.008121, 9.99396 
1.851156e+2, 1.5458661e+2, -1352566.1, -1455252.8, -7447.127, 0.008950501, -0.05774911, -1352028.9, 73016.49, 0.0, 10.007589, 9.993977 
1.851087e+2, 1.6458012e+2, -1270405.1, -1376109.3, -10646.008, 0.008831005, -0.053969655, -1269343.5, 57765.28, 0.0, 10.006993, 9.992983 
1.8510139e+2, 1.7457303e+2, -1182208.6, -1282887.8, -10500.685, 0.0071965344, -0.06349161, -1181125.0, 48053.34, 0.0, 10.006326, 9.992982 
1.850938e+2, 1.8456568e+2, -1097684.6, -1197968.3, -12861.819, 0.005681524, -0.06664087, -1096061.4, 35189.004, 0.0, 10.005689, 9.992399 
1.8508591e+2, 1.9455811e+2, -1008300.06, -1103946.8, -13188.991, 0.0042739734, -0.06334365, -1006514.75, 26809.465, 0.0, 10.005091, 9.992417 
1.8507786e+2, 2.0455013e+2, -925046.1, -1022690.94, -14189.328, 0.0018067698, -0.06131063, -923025.94, 12376.598, 0.0, 10.004498, 9.991562 
1.8506971e+2, 2.145417e+2, -835563.4, -928741.06, -14130.375, -0.0019084046, -0.06161722, -833467.6, 4017.623, 0.0, 10.003911, 9.991567 
1.8506159e+2, 2.2453292e+2, -751663.3, -845428.5, -14145.029, -0.0035001484, -0.06146796, -749575.94, -10004.469, 0.0, 10.003284, 9.990865 
1.8505348e+2, 2.3452379e+2, -663365.06, -751947.3, -14216.446, -0.0025459293, -0.061886847, -661139.4, -19478.61, 0.0, 10.00261, 9.990879 
1.8504548e+2, 2.4451427e+2, -580453.25, -670268.06, -13259.901, -0.0027868932, -0.062249575, -578536.5, -34782.348, 0.0, 10.001965, 9.990072 
1.850376e+2, 2.5450432e+2, -491249.03, -576339.44, -13139.578, -0.004482476, -0.06348502, -489266.25, -43414.85, 0.0, 10.00135, 9.990086 
1.8502995e+2, 2.6449406e+2, -407036.3, -493392.38, -10947.328, -0.008421153, -0.06255292, -405670.13, -57717.906, 0.0, 10.000764, 9.989334 
1.8502255e+2, 2.7448344e+2, -316878.5, -398856.72, -10674.234, -0.015076263, -0.06023999, -315511.4, -65455.125, 0.0, 10.000209, 9.989358 
1.8501556e+2, 2.844723e+2, -234217.34, -319407.7, -7257.838, -0.017627254, -0.060070228, -233603.44, -81437.88, 0.0, 9.999632, 9.98836 
1.8500903e+2, 2.9446062e+2, -144774.83, -225241.64, -6447.3896, -0.015183944, -0.06386332, -144261.52, -89981.734, 0.0, 9.999027, 9.988381 
1.8500304e+2, 3.044523e+2, -57783.313, -83695.305, -1734.141, -0.014866256, -0.0643616, -57667.773, -57667.773, 0.0, 9.998436, 9.995005 
1.8499757e+2, 3.1444737e+2, -65793.4, -86915.81, -1577.2147, -0.01708552, -0.062179465, -65676.27, -65676.27, 0.0, 9.997859, 9.995062 
1.9514287e+2, 1.2460868e+2, -1619084.3, -1727636.1, -3204.422, 0.01711918, -0.06587193, -1618989.8, 99839.38, 0.0, 10.009099, 9.994706 
1.9513689e+2, 1.3460337e+2, -1529477.3, -1635897.4, -4144.0034, 0.01888807, -0.050094552, -1529316.1, 91565.17, 0.0, 10.008624, 9.994514 
1.9513026e+2, 1.445973e+2, -1444346.5, -1552726.5, -8602.444, 0.009417885, -0.06902936, -1443668.0, 79272.77, 0.0, 10.008121, 9.9937525 
1.951232e+2, 1.5459117e+2, -1354125.0, -1458442.8, -9409.364, 0.009171415, -0.058567658, -1353283.0, 71717.734, 0.0, 10.007588, 9.993759 
1.9511569e+2, 1.6458458e+2, -1270217.1, -1375710.9, -13107.006, 0.008407275, -0.05523442, -1268613.0, 58452.285, 0.0, 10.006993, 9.9930105 
1.9510773e+2, 1.7457755e+2, -1181929.1, -1282336.0, -12985.803, 0.0071835835, -0.060934052, -1180276.9, 48857.32, 0.0, 10.006327, 9.993019 
1.9509949e+2, 1.845702e+2, -1098204.6, -1199079.1, -15100.591, 0.0052662315, -0.06281255, -1095992.6, 35213.53, 0.0, 10.005691, 9.992323 
1.9509098e+2, 1.9456254e+2, -1008867.8, -1105150.4, -15414.461, 0.0024870497, -0.061248124, -1006460.25, 26820.762, 0.0, 10.005093, 9.992334 
1.9508235e+2, 2.045545e+2, -924956.8, -1022520.3, -16380.115, 0.0007015539, -0.060215566, -922280.2, 13079.625, 0.0, 10.0044985, 9.991572 
1.9507365e+2, 2.145461e+2, -835469.06, -928530.56, -16319.266, 0.00010994324, -0.06065011, -832690.3, 4752.071, 0.0, 10.00391, 9.991581 
1.950649e+2, 2.2453731e+2, -751794.06, -845674.3, -16648.738, -0.0015956392, -0.0602336, -748929.0, -9400.476, 0.0, 10.0032835, 9.990849 
1.9505607e+2, 2.3452818e+2, -663507.2, -752226.8, -16736.54, -0.0046236315, -0.059919547, -660454.94, -18836.885, 0.0, 10.00261, 9.99086 
1.9504741e+2, 2.4451867e+2, -580246.3, -669824.9, -15561.999, -0.0068086367, -0.059155565, -577619.8, -33908.523, 0.0, 10.001964, 9.990103 
1.9503891e+2, 2.545088e+2, -491038.7, -575879.4, -15432.393, -0.00799161, -0.058777757, -488318.75, -42510.73, 0.0, 10.001349, 9.990117 
1.950307e+2, 2.6449853e+2, -406576.6, -492400.1, -13031.024, -0.009202619, -0.059673987, -404641.66, -56733.12, 0.0, 10.000763, 9.989402 
1.9502279e+2, 2.744879e+2, -316426.06, -397860.75, -12751.442, -0.010450472, -0.063363776, -314476.06, -64463.65, 0.0, 10.000206, 9.989428 
1.9501525e+2, 2.844769e+2, -232827.94, -316455.94, -9509.07, -0.0120325, -0.06348055, -231760.31, -79639.93, 0.0, 9.999629, 9.988564 
1.9500807e+2, 2.944655e+2, -143348.36, -222202.7, -8714.7705, -0.014048432, -0.06058359, -142396.72, -88164.79, 0.0, 9.999024, 9.988591 
1.9500144e+2, 3.0445734e+2, -57565.992, -83152.12, -3893.3328, -0.017487984, -0.05969725, -56986.68, -56986.68, 0.0, 9.998432, 9.995044 
1.9499537e+2, 3.1445238e+2, -65666.086, -86541.75, -3736.6526, -0.022569722, -0.062658794, -65017.4, -65017.4, 0.0, 9.997854, 9.99509 
2.051523e+2, 1.2461413e+2, -1609948.1, -1723940.6, -1854.8511, 0.017218975, -0.06128757, -1609918.0, 108858.15, 0.0, 10.009753, 9.994638 
2.0514576e+2, 1.3460875e+2, -1522619.3, -1633290.3, -3059.9497, 0.01943056, -0.04517523, -1522534.8, 98294.05, 0.0, 10.009122, 9.994449 
2.0513856e+2, 1.4460258e+2, -1439900.0, -1551748.6, -7446.5244, 0.0098850345, -0.0651377, -1439406.5, 83482.64, 0.0, 10.008474, 9.993646 
2.051309e+2, 1.5459631e+2, -1351629.8, -1458453.1, -7474.211, 0.00994172, -0.058090128, -1351109.3, 73841.266, 0.0, 10.007811, 9.9936495 
2.0512278e+2, 1.6458964e+2, -1267682.8, -1374890.8, -11086.539, 0.00916226, -0.055068754, -1266548.4, 60467.523, 0.0, 10.007183, 9.992972 
2.051142e+2, 1.7458263e+2, -1178161.6, -1280896.1, -11487.513, 0.0075617037, -0.057442263, -1176892.9, 52191.883, 0.0, 10.0066, 9.992983 
2.0510533e+2, 1.8457521e+2, -1094458.0, -1198141.5, -13890.721, 0.0053589544, -0.058907084, -1092629.4, 38527.895, 0.0, 10.005984, 9.992244 
2.0509619e+2, 1.9456746e+2, -1005953.1, -1104655.0, -14196.073, 0.0023969659, -0.060358293, -1003951.94, 29281.22, 0.0, 10.005331, 9.992251 
2.0508692e+2, 2.0455937e+2, -923079.4, -1021529.1, -15375.179, 0.0007561835, -0.060047865, -920734.06, 14578.337, 0.0, 10.004622, 9.991579 
2.0507753e+2, 2.1455099e+2, -836268.44, -928805.3, -15354.706, 0.0007106938, -0.05849335, -833787.2, 3607.5212, 0.0, 10.00385, 9.9915905 
2.0506811e+2, 2.245422e+2, -753845.4, -846764.25, -15549.692, -0.0011154083, -0.057276245, -751312.25, -11831.448, 0.0, 10.003147, 9.990839 
2.0505862e+2, 2.3453306e+2, -664802.9, -752971.7, -15568.7705, -0.0050801663, -0.057574637, -662134.5, -20564.064, 0.0, 10.002526, 9.990849 
2.0504932e+2, 2.4452356e+2, -580932.4, -669369.94, -14203.728, -0.007807361, -0.057247944, -578707.1, -35043.64, 0.0, 10.001883, 9.990172 
2.0504017e+2, 2.5451374e+2, -492548.75, -575792.0, -13767.975, -0.009048187, -0.057093196, -490330.72, -44571.21, 0.0, 10.001211, 9.990189 
2.0503132e+2, 2.6450357e+2, -409926.78, -493169.75, -11248.04, -0.009547065, -0.058422424, -408433.72, -60574.4, 0.0, 10.000496, 9.989477 
2.0502278e+2, 2.74493e+2, -322874.0, -400137.56, -10931.977, -0.009139764, -0.06281349, -321357.03, -71394.46, 0.0, 9.999728, 9.989501 
2.0501462e+2, 2.8448212e+2, -240384.39, -318783.94, -7681.7183, -0.010347228, -0.06224105, -239638.81, -87569.266, 0.0, 9.999054, 9.988681 
2.0500684e+2, 2.9447088e+2, -150244.33, -224195.92, -7558.4463, -0.013574384, -0.0569444, -149479.7, -95299.99, 0.0, 9.998493, 9.988709 
2.0499963e+2, 3.044628e+2, -63807.457, -84641.23, -2680.451, -0.018357277, -0.055896502, -63468.12, -63468.12, 0.0, 9.997938, 9.995179 
2.0499298e+2, 3.1445798e+2, -71532.74, -87857.336, -1720.7573, -0.024916966, -0.061458576, -71353.33, -71353.33, 0.0, 9.997386, 9.995224 
2.1516207e+2, 1.24620065e+2, -1610653.0, -1725381.9, -4130.9434, 0.018269852, -0.052443005, -1610504.4, 108213.945, 0.0, 10.009753, 9.99454 
2.1515489e+2, 1.3461456e+2, -1523281.8, -1634683.8, -5385.1846, 0.018968355, -0.03862376, -1523022.0, 97750.12, 0.0, 10.009124, 9.994353 
2.1514703e+2, 1.4460833e+2, -1439924.9, -1551861.8, -9900.206, 0.009134428, -0.060657363, -1439056.0, 83777.12, 0.0, 10.008477, 9.993636 
2.1513873e+2, 1.5460204e+2, -1351625.4, -1458529.3, -9935.267, 0.011231559, -0.056375396, -1350709.9, 74184.95, 0.0, 10.007814, 9.993642 
2.1512999e+2, 1.645953e+2, -1268337.1, -1376316.3, -13265.216, 0.011036145, -0.05353467, -1266731.4, 60229.258, 0.0, 10.007187, 9.992873 
2.151208e+2, 1.7458819e+2, -1178877.0, -1282409.5, -13650.225, 0.008310868, -0.053056553, -1177107.5, 51922.684, 0.0, 10.006602, 9.992879 
2.1511132e+2, 1.845807e+2, -1095029.0, -1199327.8, -16309.437, 0.0059393807, -0.054931693, -1092538.1, 38565.54, 0.0, 10.005984, 9.992162 
2.1510153e+2, 1.9457282e+2, -1006539.6, -1105853.6, -16621.082, 0.003942065, -0.06063371, -1003831.75, 29349.014, 0.0, 10.00533, 9.992169 
2.1509156e+2, 2.0456468e+2, -923062.94, -1021487.1, -18234.91, 0.0019277408, -0.06077451, -919793.2, 15467.29, 0.0, 10.004622, 9.991581 
2.1508138e+2, 2.1455634e+2, -836217.6, -928718.2, -18236.12, -0.0000695786, -0.055180196, -832752.3, 4590.105, 0.0, 10.003851, 9.991595 
2.1507125e+2, 2.2454758e+2, -753843.6, -846774.06, -17884.867, -0.0020214177, -0.052645627, -750520.44, -11092.113, 0.0, 10.003147, 9.990838 
2.1506117e+2, 2.345384e+2, -664830.94, -753011.25, -17878.129, -0.003950616, -0.054864455, -661344.1, -19825.916, 0.0, 10.002525, 9.990846 
2.1505122e+2, 2.4452895e+2, -580184.8, -667784.6, -16698.008, -0.005844985, -0.056508746, -577109.8, -33498.93, 0.0, 10.001881, 9.99028 
2.150414e+2, 2.5451922e+2, -491778.4, -574149.2, -16276.271, -0.0076961187, -0.058391426, -488678.9, -42972.977, 0.0, 10.001208, 9.990302 
2.1503183e+2, 2.6450914e+2, -409373.22, -491972.88, -14104.547, -0.009468224, -0.05877633, -407031.16, -59226.47, 0.0, 10.000494, 9.989559 
2.1502249e+2, 2.7449876e+2, -322338.84, -398979.5, -13810.432, -0.011121555, -0.058621343, -319926.2, -70019.36, 0.0, 9.999726, 9.989581 
2.1501364e+2, 2.8448787e+2, -240194.39, -318327.94, -9811.688, -0.012546888, -0.05639137, -238981.13, -86967.96, 0.0, 9.999052, 9.988713 
2.1500532e+2, 2.944767e+2, -150095.42, -223803.72, -9652.167, -0.013757738, -0.05295632, -148852.42, -94729.195, 0.0, 9.99849, 9.988738 
2.1499756e+2, 3.0446872e+2, -62240.223, -81285.78, -4734.5884, -0.017478663, -0.052958835, -61128.17, -61128.17, 0.0, 9.997934, 9.995411 
2.1499038e+2, 3.1446415e+2, -69908.05, -84363.836, -3777.627, -0.024137095, -0.058578264, -68980.39, -68980.39, 0.0, 9.997381, 9.995466 
2.2517207e+2, 1.24626696e+2, -1604348.1, -1723981.1, -1009.5613, 0.019517615, -0.049071435, -1604339.5, 114314.11, 0.0, 10.010254, 9.9943905 
2.251643e+2, 1.3462102e+2, -1516571.1, -1633075.0, -2679.8274, 0.019672459, -0.038195755, -1516509.5, 104199.59, 0.0, 10.009651, 9.9942045 
2.2515579e+2, 1.4461467e+2, -1432377.4, -1549044.1, -7769.9844, 0.00948345, -0.05993474, -1431862.1, 90909.1, 0.0, 10.0090275, 9.993559 
2.2514683e+2, 1.5460832e+2, -1343833.1, -1455578.5, -8298.5205, 0.01226312, -0.05268797, -1343220.3, 81613.13, 0.0, 10.008382, 9.9935665 
2.2513744e+2, 1.6460152e+2, -1261694.0, -1374131.0, -11929.19, 0.012018444, -0.04924085, -1260442.4, 66457.61, 0.0, 10.007685, 9.99278 
2.2512756e+2, 1.745943e+2, -1174738.6, -1281470.6, -12254.694, 0.008392343, -0.050877184, -1173349.6, 55621.055, 0.0, 10.00693, 9.992783 
2.2511739e+2, 1.8458672e+2, -1092703.6, -1198686.1, -14923.1455, 0.0058486694, -0.0537746, -1090642.4, 40402.523, 0.0, 10.006164, 9.992118 
2.251069e+2, 1.945788e+2, -1006038.5, -1106089.6, -14955.4, 0.004540061, -0.059231672, -1003850.8, 29271.59, 0.0, 10.005384, 9.9921255 
2.250962e+2, 2.0457064e+2, -922683.9, -1021475.0, -16498.775, 0.0024077152, -0.058728572, -920001.3, 15201.065, 0.0, 10.004655, 9.991565 
2.250853e+2, 2.1456228e+2, -834364.44, -927991.7, -16651.225, -0.0006652049, -0.052016817, -831491.25, 5793.1064, 0.0, 10.003984, 9.991579 
2.2507443e+2, 2.2455353e+2, -752192.5, -845565.3, -16264.596, -0.002645012, -0.04935503, -749440.5, -10070.277, 0.0, 10.003242, 9.990873 
2.2506365e+2, 2.3454438e+2, -666179.0, -753242.4, -15961.418, -0.003356623, -0.052618258, -663345.06, -21885.273, 0.0, 10.002414, 9.990882 
2.2505298e+2, 2.4453495e+2, -583610.9, -668759.75, -14765.362, -0.0047784583, -0.055481978, -581123.1, -37571.063, 0.0, 10.0016165, 9.99034 
2.2504243e+2, 2.545253e+2, -496525.22, -575762.8, -14730.77, -0.0070529254, -0.058797825, -493875.28, -48228.64, 0.0, 10.000854, 9.990361 
2.2503215e+2, 2.6451528e+2, -413831.78, -493523.13, -12755.416, -0.0098861735, -0.057721984, -411839.94, -64095.184, 0.0, 10.000162, 9.989613 
2.250221e+2, 2.7450496e+2, -324467.7, -399418.8, -12665.843, -0.013364399, -0.052615806, -322385.2, -72539.15, 0.0, 9.999554, 9.989633 
2.2501259e+2, 2.844942e+2, -241953.38, -317926.16, -8399.511, -0.015126513, -0.049993165, -241035.81, -89084.266, 0.0, 9.998877, 9.988824 
2.2500362e+2, 2.9448307e+2, -154796.64, -224803.39, -7601.79, -0.014864336, -0.051700983, -153980.69, -99919.75, 0.0, 9.998113, 9.98885 
2.2499521e+2, 3.0447522e+2, -69539.664, -83206.336, -2591.8462, -0.01762746, -0.052476354, -69064.64, -69064.64, 0.0, 9.997364, 9.995553 
2.2498739e+2, 3.1447083e+2, -79821.586, -87541.34, -2386.743, -0.023949586, -0.05352916, -79143.266, -79143.266, 0.0, 9.996632, 9.995608 
2.3518234e+2, 1.24633975e+2, -1605693.4, -1726862.9, -3198.7075, 0.020944003, -0.050845753, -1605609.0, 112973.266, 0.0, 10.01026, 9.994191 
2.3517396e+2, 1.3462807e+2, -1517937.9, -1635966.9, -4895.0205, 0.021470554, -0.043512575, -1517735.1, 102904.94, 0.0, 10.009655, 9.994005 
2.3516482e+2, 1.4462158e+2, -1433348.0, -1551093.3, -10148.452, 0.01086485, -0.06273548, -1432479.6, 90224.03, 0.0, 10.00903, 9.993418 
2.3515522e+2, 1.5461518e+2, -1344810.4, -1457620.4, -10683.267, 0.013046464, -0.047124233, -1343807.6, 80958.94, 0.0, 10.008383, 9.993426 
2.351451e+2, 1.6460827e+2, -1262315.0, -1375429.0, -14711.387, 0.012153964, -0.0423378, -1260432.9, 66401.16, 0.0, 10.007686, 9.99269 
2.351345e+2, 1.7460088e+2, -1175352.0, -1282755.8, -15047.493, 0.007837785, -0.050807178, -1173283.6, 55622.645, 0.0, 10.006931, 9.992694 
2.3512354e+2, 1.8459323e+2, -1092743.4, -1198793.9, -17808.63, 0.005115556, -0.055302132, -1089832.8, 41148.453, 0.0, 10.006165, 9.992109 
2.3511228e+2, 1.9458535e+2, -1006057.25, -1106162.0, -17846.262, 0.0042257695, -0.05621297, -1002970.9, 30087.44, 0.0, 10.005386, 9.99212 
2.3510085e+2, 2.045772e+2, -922907.3, -1021955.25, -19002.99, 0.0022188777, -0.054017156, -919386.56, 15751.725, 0.0, 10.004656, 9.991531 
2.3508926e+2, 2.1456881e+2, -834628.3, -928519.44, -19137.604, -0.0010830151, -0.049005195, -830877.44, 6343.427, 0.0, 10.0039835, 9.991543 
2.3507766e+2, 2.2456004e+2, -751694.44, -844506.94, -19322.52, -0.0029979832, -0.047367673, -747832.4, -8525.769, 0.0, 10.003241, 9.990946 
2.3506606e+2, 2.3455098e+2, -665647.44, -752125.9, -19050.254, -0.0032883766, -0.050827634, -661636.9, -20241.498, 0.0, 10.002414, 9.990958 
2.350546e+2, 2.445416e+2, -583524.25, -668564.5, -17620.47, -0.004590972, -0.054176584, -580017.8, -36530.58, 0.0, 10.001616, 9.990354 
2.3504329e+2, 2.5453192e+2, -496474.1, -575632.0, -17576.842, -0.0071080937, -0.05833043, -492746.7, -47164.832, 0.0, 10.000853, 9.990371 
2.350323e+2, 2.6452196e+2, -413678.6, -493162.97, -15044.223, -0.010797103, -0.05527971, -410926.44, -63246.766, 0.0, 10.00016, 9.989637 
2.3502164e+2, 2.7451172e+2, -324332.47, -399071.94, -14929.071, -0.015873581, -0.044815864, -321460.75, -71680.48, 0.0, 9.999552, 9.989657 
2.3501143e+2, 2.8450108e+2, -240663.73, -315168.53, -11223.47, -0.018095935, -0.043062244, -239009.73, -87124.9, 0.0, 9.998873, 9.989014 
2.3500171e+2, 2.9449e+2, -153465.98, -221947.0, -10460.219, -0.016900137, -0.053187322, -151903.86, -97910.875, 0.0, 9.998108, 9.989047 
2.3499255e+2, 3.044823e+2, -69242.4, -82476.75, -5328.094, -0.018808963, -0.05444949, -67363.95, -67363.95, 0.0, 9.997358, 9.9956045 
2.3498401e+2, 3.1447804e+2, -79606.78, -86956.75, -5121.426, -0.024366982, -0.046293247, -76978.234, -76978.234, 0.0, 9.996626, 9.995651 
2.4519302e+2, 1.24641955e+2, -1594962.1, -1723680.1, -773.09656, 0.020989913, -0.05110246, -1594957.5, 123546.72, 0.0, 10.011078, 9.994008 
2.4518396e+2, 1.346359e+2, -1509415.4, -1633854.5, -2386.7517, 0.022552894, -0.041199196, -1509369.6, 111194.016, 0.0, 10.010324, 9.993823 
2.4517415e+2, 1.4462924e+2, -1426688.3, -1549694.5, -7762.745, 0.01215424, -0.059442446, -1426200.3, 96428.586, 0.0, 10.0095625, 9.993253 
2.4516383e+2, 1.5462264e+2, -1339883.3, -1457074.1, -8481.656, 0.014259129, -0.045854215, -1339272.6, 85420.89, 0.0, 10.008799, 9.99326 
2.4515297e+2, 1.6461562e+2, -1257909.0, -1373967.6, -12775.835, 0.012951333, -0.041688837, -1256519.4, 70242.91, 0.0, 10.008015, 9.992628 
2.4514157e+2, 1.7460819e+2, -1171654.5, -1281604.8, -12901.465, 0.007843199, -0.049184933, -1170161.0, 58674.004, 0.0, 10.007211, 9.992636 
2.4512984e+2, 1.846005e+2, -1089293.8, -1197449.0, -15636.243, 0.0046642446, -0.052825976, -1087078.6, 43831.6, 0.0, 10.006413, 9.992079 
2.4511778e+2, 1.9459261e+2, -1002727.44, -1104875.4, -15843.45, 0.0037034685, -0.05299472, -1000326.56, 32661.031, 0.0, 10.005627, 9.992089 
2.4510558e+2, 2.045844e+2, -920851.94, -1021140.06, -16986.623, 0.0022456679, -0.050941307, -918052.9, 17014.92, 0.0, 10.004804, 9.991514 
2.4509324e+2, 2.1457599e+2, -835417.0, -929091.7, -16978.463, 0.00021421103, -0.047138873, -832434.6, 4716.015, 0.0, 10.003937, 9.991525 
2.4508086e+2, 2.2456725e+2, -753371.94, -844993.1, -17362.088, -0.0018508378, -0.045778096, -750192.2, -10955.791, 0.0, 10.003111, 9.990973 
2.4506842e+2, 2.3455821e+2, -666609.6, -752254.75, -17436.863, -0.0039553014, -0.048398644, -663195.7, -21870.852, 0.0, 10.002332, 9.990987 
2.4505617e+2, 2.4454886e+2, -584372.44, -668732.5, -16068.446, -0.006150107, -0.050941546, -581415.44, -37999.082, 0.0, 10.001546, 9.990375 
2.4504408e+2, 2.5453922e+2, -497799.06, -576048.25, -15941.97, -0.00847098, -0.05433763, -494675.8, -49165.082, 0.0, 10.0007515, 9.99039 
2.4503234e+2, 2.645293e+2, -416428.47, -493471.3, -12975.054, -0.011477296, -0.051930796, -414302.0, -66693.93, 0.0, 9.9999275, 9.989728 
2.4502096e+2, 2.7451915e+2, -330746.75, -401127.0, -12342.881, -0.01529743, -0.043774407, -328644.9, -78936.97, 0.0, 9.999066, 9.989749 
2.4501e+2, 2.845086e+2, -248670.1, -317526.03, -8635.448, -0.01738809, -0.042443868, -247603.61, -95792.2, 0.0, 9.998259, 9.989147 
2.4499951e+2, 2.9449767e+2, -161168.86, -224146.52, -8345.996, -0.01740762, -0.05074182, -160081.6, -106163.52, 0.0, 9.997514, 9.9891815 
2.4498962e+2, 3.044901e+2, -76434.055, -84627.83, -3018.3447, -0.019721806, -0.05217218, -75442.234, -75442.234, 0.0, 9.996808, 9.995722 
2.4498038e+2, 3.144859e+2, -85783.26, -88646.96, -2262.9714, -0.024686396, -0.046588577, -84537.195, -84537.195, 0.0, 9.996145, 9.995765 
2.5520408e+2, 1.24650605e+2, -1596137.3, -1726150.5, -3545.2139, 0.019761173, -0.049979754, -1596040.8, 122379.01, 0.0, 10.01108, 9.993838 
2.5519428e+2, 1.3464445e+2, -1510571.9, -1636296.6, -5186.408, 0.022968298, -0.03175543, -1510358.4, 110121.664, 0.0, 10.010326, 9.993655 
2.5518373e+2, 1.4463761e+2, -1427987.4, -1552430.0, -10595.703, 0.013356294, -0.05046638, -1427091.6, 95455.3, 0.0, 10.009565, 9.993065 
2.5517264e+2, 1.5463072e+2, -1341202.1, -1459841.6, -11301.2295, 0.015873037, -0.048634037, -1340135.3, 84479.266, 0.0, 10.0088005, 9.993071 
2.5516102e+2, 1.6462354e+2, -1258129.1, -1374462.0, -15739.902, 0.014369525, -0.046917662, -1256037.1, 70647.56, 0.0, 10.008017, 9.992593 
2.551488e+2, 1.7461619e+2, -1171845.6, -1282027.6, -15875.181, 0.008376094, -0.046074122, -1169604.0, 59152.96, 0.0, 10.007212, 9.992605 
2.5513625e+2, 1.8460847e+2, -1089640.3, -1198181.1, -18553.207, 0.004478019, -0.04654809, -1086556.5, 44275.785, 0.0, 10.006414, 9.992027 
2.551234e+2, 1.946005e+2, -1003094.6, -1105639.9, -18755.521, 0.002980018, -0.049594186, -999771.94, 33138.535, 0.0, 10.005628, 9.992036 
2.5511038e+2, 2.0459227e+2, -920849.6, -1021138.8, -20191.916, 0.0024801865, -0.049437787, -916936.9, 18054.215, 0.0, 10.004804, 9.991513 
2.550972e+2, 2.1458383e+2, -835403.8, -929072.44, -20199.592, 0.0031650895, -0.046377327, -831233.44, 5840.493, 0.0, 10.003938, 9.991526 
2.55084e+2, 2.2457507e+2, -753465.56, -845187.5, -20270.049, 0.0007415579, -0.044573054, -749185.7, -10025.958, 0.0, 10.003111, 9.990959 
2.5507075e+2, 2.3456606e+2, -666728.6, -752482.7, -20332.283, -0.005347282, -0.045347612, -662152.1, -20903.875, 0.0, 10.002332, 9.990971 
2.550577e+2, 2.4455671e+2, -584185.5, -668310.6, -19022.717, -0.0094232075, -0.045818664, -580083.94, -36744.38, 0.0, 10.001545, 9.990403 
2.550448e+2, 2.5454715e+2, -497615.0, -575618.1, -18900.908, -0.011124485, -0.046879884, -493276.44, -47843.004, 0.0, 10.00075, 9.990419 
2.5503227e+2, 2.6453727e+2, -415365.47, -491209.4, -16174.297, -0.011929589, -0.047707547, -412060.22, -64530.098, 0.0, 9.999925, 9.989882 
2.5502005e+2, 2.7452716e+2, -329657.88, -398801.72, -15557.932, -0.011660215, -0.049458627, -326318.5, -76689.305, 0.0, 9.9990635, 9.989909 
2.550083e+2, 2.8451672e+2, -248166.9, -316401.38, -11430.288, -0.013028769, -0.04809455, -246303.08, -94571.65, 0.0, 9.998255, 9.989225 
2.5499704e+2, 2.9450604e+2, -160716.06, -223107.48, -11123.161, -0.016395958, -0.04434567, -158792.34, -104955.98, 0.0, 9.99751, 9.989254 
2.5498644e+2, 3.0449855e+2, -75223.71, -81999.44, -5492.8438, -0.020372896, -0.04566493, -72157.98, -72157.98, 0.0, 9.996803, 9.995903 
2.549765e+2, 3.1449443e+2, -84551.734, -85960.23, -4724.24, -0.024928529, -0.054517843, -80479.54, -80479.54, 0.0, 9.99614, 9.995951 
2.6521555e+2, 1.2465987e+2, -1586899.1, -1723313.1, -1998.6305, 0.022118192, -0.047521945, -1586869.9, 131459.3, 0.0, 10.01178, 9.99369 
2.6520494e+2, 1.346536e+2, -1502168.6, -1633836.4, -3518.2124, 0.023503663, -0.027564622, -1502074.6, 118316.06, 0.0, 10.010968, 9.993508 
2.6519358e+2, 1.4464663e+2, -1420318.0, -1549853.3, -8655.052, 0.01260005, -0.046130944, -1419742.3, 102716.63, 0.0, 10.010138, 9.992961 
2.6518166e+2, 1.546396e+2, -1334788.8, -1457880.4, -8747.556, 0.014909039, -0.047471337, -1334170.3, 90357.45, 0.0, 10.009287, 9.992966 
2.6516923e+2, 1.6463234e+2, -1252786.9, -1372730.8, -13163.292, 0.013935857, -0.04622629, -1251359.3, 75239.48, 0.0, 10.008416, 9.992515 
2.6515615e+2, 1.746249e+2, -1167769.8, -1280917.4, -13645.772, 0.009326231, -0.042696863, -1166147.4, 62524.266, 0.0, 10.007526, 9.992526 
2.651428e+2, 1.8461718e+2, -1086484.3, -1197005.6, -16373.961, 0.006058962, -0.04231955, -1084109.4, 46637.99, 0.0, 10.006644, 9.991994 
2.6512912e+2, 1.9460914e+2, -1001164.06, -1105054.8, -16419.36, 0.0043140776, -0.046675056, -998630.9, 34195.176, 0.0, 10.005774, 9.992003 
2.6511523e+2, 2.0460086e+2, -919651.4, -1020889.5, -18034.906, 0.0030096185, -0.047463052, -916534.56, 18372.535, 0.0, 10.004898, 9.991482 
2.6510116e+2, 2.145924e+2, -834394.75, -928926.9, -18278.4, 0.00225671, -0.04490822, -830983.56, 6006.683, 0.0, 10.00402, 9.991493 
2.650871e+2, 2.2458364e+2, -753098.7, -844979.94, -18288.336, -0.0005306562, -0.042841736, -749592.3, -10516.145, 0.0, 10.003134, 9.990961 
2.6507303e+2, 2.3457462e+2, -668057.2, -753094.44, -18210.303, -0.005748508, -0.042451363, -664321.7, -23157.066, 0.0, 10.002238, 9.9909725 
2.650591e+2, 2.4456532e+2, -586777.7, -668941.5, -16776.62, -0.009079622, -0.04201357, -583484.1, -40228.535, 0.0, 10.001339, 9.990458 
2.650454e+2, 2.545558e+2, -501766.0, -576990.25, -16459.254, -0.010171404, -0.0424574, -498322.3, -52973.438, 0.0, 10.000437, 9.990475 
2.6503202e+2, 2.64546e+2, -419862.06, -491804.5, -13748.41, -0.011204019, -0.044489328, -417324.22, -69879.52, 0.0, 9.999548, 9.990023 
2.650189e+2, 2.74536e+2, -334325.94, -399449.3, -13262.559, -0.012142574, -0.04965154, -331728.56, -82185.97, 0.0, 9.998673, 9.990051 
2.650063e+2, 2.845257e+2, -253972.1, -318297.84, -8907.84, -0.014178385, -0.048509356, -252761.33, -101117.58, 0.0, 9.997817, 9.989305 
2.6499426e+2, 2.945151e+2, -167853.92, -225695.19, -8565.185, -0.017597955, -0.041101303, -166612.23, -112864.55, 0.0, 9.996983, 9.989329 
2.649829e+2, 3.0450782e+2, -83071.4, -83278.086, -2597.7422, -0.020962955, -0.041788444, -80574.945, -80574.945, 0.0, 9.996156, 9.996126 
2.6497227e+2, 3.1450388e+2, -94646.72, -88253.18, -1501.6663, -0.024080774, -0.05371561, -87918.05, -87918.05, 0.0, 9.995336, 9.99618 
2.752274e+2, 1.2466974e+2, -1587798.4, -1725219.4, -4939.323, 0.027764138, -0.043880742, -1587621.0, 130611.65, 0.0, 10.011783, 9.993558 
2.7521592e+2, 1.346633e+2, -1503046.8, -1635683.6, -6482.645, 0.024138069, -0.028244594, -1502730.8, 117565.16, 0.0, 10.01097, 9.9933815 
2.7520368e+2, 1.4465627e+2, -1420482.4, -1550221.8, -11770.414, 0.010023869, -0.04608442, -1419423.3, 102941.53, 0.0, 10.0101385, 9.992934 
2.7519095e+2, 1.5464924e+2, -1334942.0, -1458222.5, -11880.784, 0.01153985, -0.04260573, -1333807.5, 90625.96, 0.0, 10.009288, 9.992941 
2.751776e+2, 1.6464193e+2, -1253607.8, -1374455.4, -16452.207, 0.0117720505, -0.03999332, -1251408.0, 75097.07, 0.0, 10.008418, 9.992395 
2.751637e+2, 1.7463435e+2, -1168615.5, -1282712.0, -16932.965, 0.0106718745, -0.039085183, -1166155.5, 62423.773, 0.0, 10.007528, 9.992402 
2.7514946e+2, 1.8462652e+2, -1086557.4, -1197204.5, -19593.904, 0.009307803, -0.040031407, -1083190.0, 47465.87, 0.0, 10.006646, 9.991979 
2.7513492e+2, 1.9461848e+2, -1001230.75, -1105218.3, -19642.967, 0.007602931, -0.044208817, -997644.0, 35090.68, 0.0, 10.0057745, 9.991991 
2.7512014e+2, 2.0461018e+2, -920056.25, -1021737.7, -21291.553, 0.0038071454, -0.04503481, -915777.94, 19038.105, 0.0, 10.004899, 9.991424 
2.7510518e+2, 2.1460164e+2, -834825.06, -929822.25, -21534.592, -0.002377858, -0.04275884, -830171.44, 6728.383, 0.0, 10.004021, 9.991431 
2.750902e+2, 2.2459286e+2, -752973.1, -844715.06, -21608.701, -0.005531872, -0.040604442, -748138.25, -9152.274, 0.0, 10.003134, 9.990978 
2.7507526e+2, 2.3458387e+2, -667926.44, -752802.56, -21535.703, -0.0051783533, -0.039710123, -662774.9, -21700.703, 0.0, 10.002237, 9.990992 
2.7506047e+2, 2.4457464e+2, -586225.2, -667763.44, -20130.004, -0.0052060117, -0.039501067, -581526.3, -38361.617, 0.0, 10.001338, 9.990538 
2.750459e+2, 2.5456518e+2, -501211.72, -575796.3, -19817.803, -0.005680426, -0.041024394, -496272.97, -51015.695, 0.0, 10.000435, 9.990556 
2.750316e+2, 2.6455548e+2, -419008.9, -489979.9, -17008.645, -0.009333595, -0.0422544, -415143.25, -67791.26, 0.0, 9.999545, 9.990148 
2.7501756e+2, 2.7454564e+2, -333477.88, -397621.16, -16522.91, -0.016732767, -0.044385225, -329471.88, -80023.5, 0.0, 9.99867, 9.990177 
2.750041e+2, 2.8453544e+2, -253441.98, -317111.94, -12024.301, -0.020820133, -0.043729957, -251246.83, -99698.27, 0.0, 9.997813, 9.989387 
2.749912e+2, 2.9452488e+2, -167360.28, -224566.61, -11677.834, -0.02101564, -0.041039947, -165068.25, -111416.03, 0.0, 9.996979, 9.989408 
2.7497905e+2, 3.0451778e+2, -81288.734, -79454.67, -5651.1636, -0.021495122, -0.040533174, -74646.625, -74646.625, 0.0, 9.99615, 9.99639 
2.749676e+2, 3.1451416e+2, -92825.73, -84322.87, -4553.682, -0.022140995, -0.044063415, -82344.48, -82344.48, 0.0, 9.995329, 9.996451 
2.852395e+2, 1.2468059e+2, -1578107.9, -1721892.8, -1119.8374, 0.027455943, -0.03986858, -1578099.1, 140027.48, 0.0, 10.012502, 9.993432 
2.852272e+2, 1.3467398e+2, -1494922.9, -1633072.8, -2641.0288, 0.02424786, -0.029494064, -1494872.4, 125319.08, 0.0, 10.01158, 9.99326 
2.8521407e+2, 1.4466682e+2, -1413730.5, -1548291.3, -8311.281, 0.010656356, -0.04629522, -1413219.0, 109042.34, 0.0, 10.010655, 9.992811 
2.8520048e+2, 1.5465976e+2, -1329309.1, -1456856.5, -9123.935, 0.013041854, -0.036511265, -1328659.8, 95671.04, 0.0, 10.009729, 9.992817 
2.8518626e+2, 1.6465235e+2, -1248321.3, -1372731.8, -13942.721, 0.013188972, -0.03364918, -1246777.8, 79625.516, 0.0, 10.008814, 9.992318 
2.8517142e+2, 1.7464462e+2, -1163528.9, -1281087.1, -14080.608, 0.010943325, -0.039411593, -1161865.9, 66612.97, 0.0, 10.00791, 9.992325 
2.8515628e+2, 1.8463671e+2, -1082255.8, -1195860.0, -16857.076, 0.008855807, -0.041389477, -1079807.1, 50749.152, 0.0, 10.00697, 9.991911 
2.851408e+2, 1.9462864e+2, -998541.56, -1104666.5, -17308.219, 0.006895778, -0.040131293, -995790.0, 36845.258, 0.0, 10.005989, 9.991922 
2.8512514e+2, 2.0462032e+2, -918297.25, -1021143.4, -18967.967, 0.0032359622, -0.03956899, -914910.5, 19806.545, 0.0, 10.005029, 9.991399 
2.8510922e+2, 2.1461171e+2, -833882.6, -929620.44, -18923.88, -0.0023829543, -0.040571053, -830277.8, 6523.5283, 0.0, 10.004094, 9.991407 
2.8509334e+2, 2.2460294e+2, -752737.4, -844210.9, -18935.602, -0.005178542, -0.039385434, -748972.56, -10085.0625, 0.0, 10.003131, 9.991011 
2.8507745e+2, 2.3459399e+2, -669144.94, -752990.4, -18750.598, -0.0046603326, -0.036783807, -665142.7, -24167.504, 0.0, 10.002134, 9.991026 
2.8506175e+2, 2.445848e+2, -588470.06, -667956.2, -17276.748, -0.0051201116, -0.036756493, -584877.25, -41812.02, 0.0, 10.001144, 9.990616 
2.8504616e+2, 2.545754e+2, -504641.03, -576555.6, -16978.66, -0.00675083, -0.040661447, -500834.0, -55676.78, 0.0, 10.000159, 9.990635 
2.8503093e+2, 2.645658e+2, -423606.4, -491667.06, -14285.446, -0.0105504785, -0.041378338, -420729.6, -73478.31, 0.0, 9.999206, 9.990193 
2.8501603e+2, 2.7455604e+2, -338732.47, -399653.5, -14401.828, -0.016932312, -0.039588552, -335499.44, -86152.49, 0.0, 9.998287, 9.99022 
2.8500167e+2, 2.8454593e+2, -258883.14, -317808.5, -9874.812, -0.020479908, -0.03832136, -257272.33, -105826.27, 0.0, 9.997356, 9.989558 
2.8498793e+2, 2.9453552e+2, -174383.53, -225975.11, -8794.1, -0.020670068, -0.038981706, -172925.72, -119377.43, 0.0, 9.99641, 9.989583 
2.8497487e+2, 3.0452853e+2, -89705.695, -82117.93, -2677.1606, -0.022466764, -0.03790479, -81268.46, -81268.46, 0.0, 9.995511, 9.996513 
2.849626e+2, 3.1452516e+2, -101604.125, -87205.164, -2727.392, -0.026014835, -0.036084265, -86705.87, -86705.87, 0.0, 9.994667, 9.996572 
2.9525197e+2, 1.2469237e+2, -1578921.3, -1723636.4, -4487.5054, 0.021738715, -0.035565987, -1578782.3, 139229.13, 0.0, 10.012505, 9.993311 
2.9523876e+2, 1.3468558e+2, -1495701.1, -1634743.8, -6038.324, 0.023890836, -0.031257533, -1495439.4, 124638.5, 0.0, 10.011583, 9.993144 
2.9522476e+2, 1.4467828e+2, -1415187.3, -1551355.8, -11727.719, 0.014246431, -0.046722148, -1414184.6, 107964.67, 0.0, 10.010658, 9.9926 
2.9521024e+2, 1.5467109e+2, -1330799.9, -1459988.5, -12525.827, 0.019051483, -0.029272186, -1329596.6, 94623.56, 0.0, 10.009732, 9.992602 
2.951951e+2, 1.6466352e+2, -1248543.0, -1373244.4, -17264.3, 0.017921396, -0.02721745, -1246197.0, 80097.07, 0.0, 10.008816, 9.992282 
2.951793e+2, 1.7465568e+2, -1163722.5, -1281530.6, -17407.947, 0.010192309, -0.04343107, -1161204.1, 67166.72, 0.0, 10.007913, 9.992293 
2.951632e+2, 1.8464768e+2, -1083057.6, -1197550.5, -20475.426, 0.0049162023, -0.04615633, -1079506.1, 50942.92, 0.0, 10.006971, 9.991794 
2.9514673e+2, 1.9463961e+2, -999371.2, -1106414.8, -20931.834, 0.002401787, -0.03451195, -995423.7, 37104.62, 0.0, 10.00599, 9.991801 
2.9513013e+2, 2.0463122e+2, -918213.7, -1020985.8, -22423.43, 0.001373235, -0.031222112, -913534.3, 21076.09, 0.0, 10.00503, 9.991408 
2.9511335e+2, 2.1462259e+2, -833798.3, -929420.94, -22376.76, 0.0020595393, -0.038355637, -828821.0, 7874.1035, 0.0, 10.004093, 9.99142 
2.950965e+2, 2.2461382e+2, -752402.4, -843479.56, -22619.209, 0.00031675972, -0.039144512, -747094.2, -8313.082, 0.0, 10.003129, 9.99106 
2.950796e+2, 2.3460495e+2, -668803.6, -752253.4, -22448.432, -0.0042128908, -0.033676337, -663148.2, -22280.145, 0.0, 10.002133, 9.9910755 
2.9506284e+2, 2.4459583e+2, -587936.0, -666819.75, -20936.23, -0.008742266, -0.033793926, -582723.75, -39766.36, 0.0, 10.0011425, 9.990692 
2.9504627e+2, 2.5458646e+2, -504113.94, -575426.25, -20641.352, -0.01329131, -0.041358978, -498570.25, -53521.28, 0.0, 10.000158, 9.990711 
2.950301e+2, 2.6457688e+2, -423849.47, -492117.66, -17713.988, -0.014798531, -0.041845128, -419526.8, -72384.01, 0.0, 9.999204, 9.990163 
2.9501435e+2, 2.7456713e+2, -339029.1, -400196.53, -17822.604, -0.012754937, -0.03525376, -334214.97, -84976.43, 0.0, 9.998283, 9.990184 
2.949991e+2, 2.8455716e+2, -257094.0, -314008.38, -13394.523, -0.013182301, -0.032278653, -254099.25, -102762.77, 0.0, 9.997353, 9.989819 
2.9498437e+2, 2.94547e+2, -172520.55, -222002.5, -12322.287, -0.016559754, -0.034923922, -169621.78, -116185.67, 0.0, 9.996406, 9.989856 
2.9497036e+2, 3.0454016e+2, -89911.29, -82423.08, -5831.7124, -0.02390568, -0.03391082, -79237.016, -79237.016, 0.0, 9.995506, 9.996494 
2.9495716e+2, 3.1453675e+2, -101933.34, -87749.086, -5870.4087, -0.035822775, -0.029815882, -85634.695, -85634.695, 0.0, 9.994661, 9.996536 
3.0526483e+2, 1.2470507e+2, -1569100.6, -1720934.8, -1342.7451, 0.02122734, -0.033297416, -1569088.8, 148798.48, 0.0, 10.013262, 9.993123 
3.052507e+2, 1.3469811e+2, -1486991.5, -1632533.0, -3373.2612, 0.025122695, -0.027658395, -1486913.4, 133042.03, 0.0, 10.012262, 9.992961 
3.0523574e+2, 1.4469066e+2, -1407199.4, -1548894.4, -9032.29, 0.01593232, -0.042595048, -1406626.0, 115402.36, 0.0, 10.011263, 9.992472 
3.0522025e+2, 1.546833e+2, -1323884.8, -1458047.5, -9212.86, 0.019667704, -0.027571425, -1323255.1, 100845.55, 0.0, 10.010263, 9.992474 
3.0520412e+2, 1.6467562e+2, -1242548.0, -1371396.0, -13776.234, 0.017919272, -0.025933264, -1241091.5, 85084.15, 0.0, 10.009269, 9.992185 
3.051874e+2, 1.746677e+2, -1158957.5, -1280279.4, -14371.034, 0.0100669805, -0.040317133, -1157278.5, 70974.75, 0.0, 10.008281, 9.992196 
3.0517033e+2, 1.8465962e+2, -1079042.3, -1196277.0, -17700.646, 0.0047883214, -0.04261892, -1076428.0, 53904.125, 0.0, 10.007273, 9.991732 
3.0515286e+2, 1.9465147e+2, -996084.25, -1105494.1, -17730.668, 0.0024194417, -0.032079667, -993282.56, 39129.582, 0.0, 10.006242, 9.991739 
3.0513522e+2, 2.0464309e+2, -916113.8, -1019937.2, -19107.059, 0.0017256073, -0.02894176, -912709.1, 21785.45, 0.0, 10.005169, 9.991408 
3.0511743e+2, 2.1463445e+2, -834372.4, -929656.2, -19132.574, 0.0029867443, -0.03521261, -830674.2, 5904.9893, 0.0, 10.004049, 9.991422 
3.0509958e+2, 2.2462568e+2, -754224.0, -843982.3, -19354.145, 0.0012272643, -0.036223907, -750228.6, -11563.538, 0.0, 10.002986, 9.991093 
3.0508167e+2, 2.3461683e+2, -670659.6, -752773.2, -19300.82, -0.004037366, -0.03218912, -666349.2, -25597.434, 0.0, 10.001987, 9.991108 
3.050639e+2, 2.4460775e+2, -589810.94, -667152.94, -17934.732, -0.009396709, -0.032213945, -585854.44, -43013.68, 0.0, 10.000987, 9.990742 
3.0504632e+2, 2.5459844e+2, -506263.53, -575897.94, -17839.906, -0.014876537, -0.037932273, -501959.13, -57027.418, 0.0, 9.999985, 9.99076 
3.0502915e+2, 2.6458892e+2, -427058.25, -493010.22, -14690.666, -0.016309319, -0.03788911, -423933.94, -76908.94, 0.0, 9.998953, 9.990219 
3.0501243e+2, 2.7457923e+2, -344362.1, -402126.25, -14096.504, -0.012984514, -0.032285243, -341105.63, -91985.37, 0.0, 9.997889, 9.990239 
3.049962e+2, 2.8456932e+2, -263252.84, -315315.5, -9629.783, -0.0132242795, -0.029551093, -261528.75, -110311.51, 0.0, 9.996857, 9.989965 
3.049805e+2, 2.9455933e+2, -179356.19, -223602.58, -9482.392, -0.017744016, -0.031579405, -177409.66, -124094.336, 0.0, 9.995862, 9.9900055 
3.0496553e+2, 3.0455264e+2, -98634.59, -85019.63, -2823.7424, -0.02527778, -0.031079639, -84457.22, -84457.22, 0.0, 9.994837, 9.996636 
3.0495137e+2, 3.1454936e+2, -113861.25, -91914.25, -1531.798, -0.03625935, -0.02884157, -91807.85, -91807.85, 0.0, 9.993773, 9.9966755 
3.1527814e+2, 1.24718636e+2, -1570832.8, -1724549.0, -4992.7554, 0.025420396, -0.03282704, -1570670.8, 147083.8, 0.00000000000003562803, 10.013265, 9.992875 
3.15263e+2, 1.347115e+2, -1488661.9, -1636065.1, -7029.7837, 0.0277825, -0.019163802, -1488327.4, 131497.05, 0.000000000000023159, 10.012266, 9.992718 
3.15247e+2, 1.4470391e+2, -1407496.4, -1549624.9, -12693.708, 0.015864233, -0.03434357, -1406371.5, 115527.32, 0.000000000000012513097, 10.011268, 9.992418 
3.1523046e+2, 1.5469638e+2, -1324142.3, -1458702.4, -12878.954, 0.015314589, -0.03098612, -1322920.6, 101051.945, 0.0000000000000053281816, 10.010269, 9.992425 
3.1521338e+2, 1.6468862e+2, -1243568.3, -1373585.4, -17408.572, 0.013556556, -0.029357553, -1241277.6, 84770.945, 0.0000000000000017127927, 10.009273, 9.992032 
3.151957e+2, 1.7468065e+2, -1160056.0, -1282554.4, -18003.396, 0.010538231, -0.03052498, -1157464.9, 70661.72, 0.00000000000000040540109, 10.008282, 9.99204 
3.1517765e+2, 1.8467252e+2, -1079115.6, -1196399.4, -21495.092, 0.008227192, -0.031342804, -1075300.3, 54906.066, 0.00000000000000006994683, 10.007272, 9.991722 
3.1515914e+2, 1.9466424e+2, -996134.44, -1105563.4, -21529.576, 0.006690035, -0.032686222, -992050.94, 40236.37, 0.000000000000000008772688, 10.00624, 9.991734 
3.1514043e+2, 2.0465581e+2, -916159.56, -1020016.25, -23234.668, 0.004158753, -0.03239274, -911198.5, 23171.547, 0.0000000000000000007994166, 10.005168, 9.991402 
3.1512147e+2, 2.1464723e+2, -834398.75, -929736.1, -23278.436, 0.000531172, -0.031157376, -829018.5, 7435.535, 0.000000000000000000052924793, 10.00405, 9.991414 
3.1510255e+2, 2.2463849e+2, -754081.44, -843714.1, -23065.125, -0.0022641686, -0.030738268, -748494.3, -9954.588, 0.0000000000000000000025458743, 10.002987, 9.991109 
3.1508365e+2, 2.346296e+2, -670542.2, -752522.94, -22998.31, -0.004115755, -0.032287844, -664531.1, -23904.34, 0.0, 10.001987, 9.991123 
3.150649e+2, 2.4462055e+2, -589657.4, -666799.94, -21655.414, -0.007156443, -0.031963345, -583994.0, -41278.438, 0.0, 10.000986, 9.990766 
3.1504637e+2, 2.5461137e+2, -506130.25, -575565.44, -21566.33, -0.011596633, -0.030436521, -499977.1, -55171.383, 0.0, 9.999982, 9.990783 
3.1502813e+2, 2.6460192e+2, -426066.6, -490887.72, -18642.717, -0.01514474, -0.029583884, -421087.38, -74189.234, 0.0, 9.99895, 9.990365 
3.1501025e+2, 2.745923e+2, -343349.7, -399950.72, -18062.738, -0.017628998, -0.030705424, -338076.7, -89084.23, 0.0, 9.997885, 9.990388 
3.14993e+2, 2.845825e+2, -263067.16, -314839.03, -13344.758, -0.020614123, -0.030141257, -259829.83, -108741.18, 0.0, 9.996853, 9.989999 
3.1497627e+2, 2.9457253e+2, -179226.03, -223227.42, -13191.531, -0.024261598, -0.028939314, -175574.3, -122388.13, 0.0, 9.995857, 9.990032 
3.1496036e+2, 3.04566e+2, -96545.81, -80560.1, -6775.178, -0.026558964, -0.029436251, -78074.94, -78074.94, 0.0, 9.994831, 9.996943 
3.1494522e+2, 3.1456295e+2, -111712.34, -87295.625, -5489.861, -0.02713417, -0.033276305, -86118.08, -86118.08, 0.0, 9.993767, 9.996994 
3.252918e+2, 1.2473327e+2, -1561594.8, -1722790.9, -1102.6793, 0.02702716, -0.03121316, -1561587.3, 156024.13, 0.0000000000010358714, 10.01401, 9.992629 
3.2527563e+2, 1.3472593e+2, -1479559.6, -1634314.0, -3118.5842, 0.02829065, -0.01547072, -1479496.8, 140186.73, 0.0000000000006731371, 10.0130005, 9.992476 
3.2525864e+2, 1.4471817e+2, -1397665.1, -1545670.0, -8931.221, 0.015576462, -0.030233474, -1397128.1, 124631.36, 0.00000000000036360628, 10.011971, 9.992342 
3.2524106e+2, 1.5471053e+2, -1315053.5, -1455067.9, -9280.764, 0.014201201, -0.030697271, -1314441.0, 109393.13, 0.00000000000015478801, 10.01092, 9.9923525 
3.252229e+2, 1.6470265e+2, -1236962.0, -1372086.8, -14179.348, 0.012802537, -0.028902626, -1235490.1, 90421.08, 0.000000000000049746746, 10.009795, 9.991878 
3.2520416e+2, 1.7469458e+2, -1156645.4, -1282653.5, -14787.2705, 0.011510101, -0.025342915, -1154933.3, 73057.125, 0.000000000000011772195, 10.008588, 9.991881 
3.25185e+2, 1.8468638e+2, -1076713.6, -1195023.6, -18092.795, 0.010097318, -0.02555786, -1074008.6, 56062.234, 0.0000000000000020307534, 10.007423, 9.991738 
3.2516545e+2, 1.9467808e+2, -994926.56, -1104723.1, -17928.86, 0.008503364, -0.031039573, -992073.06, 40078.906, 0.00000000000000025464711, 10.006309, 9.991754 
3.2514563e+2, 2.0466962e+2, -915376.75, -1019996.25, -19619.42, 0.00492511, -0.03155023, -911818.5, 22416.33, 0.000000000000000023200793, 10.005235, 9.991367 
3.2512558e+2, 2.1466106e+2, -832314.75, -929114.4, -19866.158, -0.00089252106, -0.027268331, -828396.25, 7922.6797, 0.0000000000000000015357526, 10.004207, 9.991377 
3.2510555e+2, 2.2465232e+2, -751944.6, -842399.2, -19759.693, -0.0044521685, -0.02606459, -747816.5, -9411.852, 0.000000000000000000073862485, 10.0031185, 9.991131 
3.250856e+2, 2.3464343e+2, -670717.4, -752320.1, -19627.197, -0.0054020234, -0.029462421, -666242.06, -25750.414, 0.0, 10.001961, 9.991147 
3.250658e+2, 2.4463439e+2, -592282.8, -667941.0, -18320.398, -0.0071384828, -0.029095115, -588080.06, -45499.79, 0.0, 10.000798, 9.990774 
3.2504618e+2, 2.546252e+2, -511152.47, -577883.94, -18331.984, -0.0098282145, -0.025301732, -506448.1, -61777.91, 0.0, 9.999631, 9.99079 
3.2502687e+2, 2.6461586e+2, -431246.4, -491458.72, -15293.696, -0.013724282, -0.024592532, -427584.56, -80822.82, 0.0, 9.998509, 9.990535 
3.2500792e+2, 2.746064e+2, -348537.94, -400467.44, -14505.571, -0.0190098, -0.028695544, -344760.8, -95906.31, 0.0, 9.997441, 9.990563 
3.2498956e+2, 2.845967e+2, -269617.97, -316744.0, -9371.867, -0.02293056, -0.029785156, -267822.6, -116873.22, 0.0, 9.996347, 9.9901085 
3.249718e+2, 2.945869e+2, -187717.83, -226116.81, -8612.927, -0.025321541, -0.02863632, -185874.44, -132828.53, 0.0, 9.995221, 9.990137 
3.249548e+2, 3.045805e+2, -105610.016, -82466.69, -2312.7212, -0.026763804, -0.028785085, -82237.836, -82237.836, 0.0, 9.994101, 9.997161 
3.249386e+2, 3.1457767e+2, -121483.016, -89496.055, -1768.9597, -0.026922831, -0.031880327, -89398.52, -89398.52, 0.0, 9.992986, 9.997216 
3.353058e+2, 1.2474892e+2, -1563227.3, -1726322.8, -4812.762, 0.026354596, -0.028606713, -1563085.4, 154372.88, 0.00000000002291141, 10.014018, 9.992384 
3.352886e+2, 1.347413e+2, -1481188.6, -1637772.8, -6793.043, 0.026861701, -0.016111054, -1480894.5, 138638.58, 0.000000000014884578, 10.013005, 9.992238 
3.352706e+2, 1.4473338e+2, -1398326.1, -1547060.4, -12760.08, 0.015102154, -0.029840104, -1397239.4, 124371.14, 0.000000000008038314, 10.011972, 9.992245 
3.35252e+2, 1.5472567e+2, -1315746.8, -1456443.8, -13132.03, 0.016051326, -0.026997836, -1314531.5, 109154.28, 0.0000000000034212227, 10.010918, 9.992258 
3.3523273e+2, 1.647177e+2, -1238093.9, -1374374.3, -18602.477, 0.015348416, -0.024910552, -1235600.3, 90163.84, 0.0000000000010993369, 10.009792, 9.991721 
3.3521277e+2, 1.7470942e+2, -1157738.1, -1284955.3, -19204.074, 0.012929848, -0.02445033, -1154902.4, 72942.836, 0.00000000000026011032, 10.00859, 9.991722 
3.351924e+2, 1.8470116e+2, -1076351.5, -1194369.0, -22180.225, 0.010497422, -0.024855955, -1072320.6, 57605.613, 0.000000000000044863466, 10.007427, 9.991779 
3.3517173e+2, 1.9469295e+2, -994536.0, -1104003.0, -22038.91, 0.008003298, -0.027245542, -990265.5, 41741.133, 0.000000000000005624816, 10.006312, 9.991799 
3.3515084e+2, 2.046845e+2, -915759.9, -1020830.44, -23424.62, 0.0041202353, -0.026658773, -910774.1, 23315.275, 0.0000000000000005124068, 10.005237, 9.991308 
3.3512977e+2, 2.1467584e+2, -832774.1, -930032.3, -23653.434, -0.0013285188, -0.023552477, -827326.6, 8847.66, 0.000000000000000033914614, 10.004206, 9.991314 
3.3510867e+2, 2.2466709e+2, -751754.06, -841949.06, -24027.164, -0.005402458, -0.022155454, -745752.75, -7492.5635, 0.0000000000000000016309197, 10.003116, 9.991161 
3.3508754e+2, 2.3465827e+2, -670503.9, -751837.44, -23919.105, -0.007869278, -0.02379453, -663991.1, -23644.447, 0.0, 10.001959, 9.9911785 
3.350666e+2, 2.4464923e+2, -592316.9, -667973.06, -22651.14, -0.00928686, -0.023697056, -586053.75, -43618.57, 0.0, 10.000796, 9.990771 
3.350458e+2, 2.5464004e+2, -511207.53, -577953.06, -22666.85, -0.009544469, -0.02250876, -504237.7, -59712.285, 0.0, 9.999629, 9.990785 
3.350254e+2, 2.6463076e+2, -429882.8, -488575.9, -19272.05, -0.012044326, -0.022869043, -424120.5, -77504.39, 0.0, 9.9985075, 9.990731 
3.3500537e+2, 2.7462152e+2, -347142.03, -397500.1, -18478.234, -0.017135508, -0.026245914, -341089.2, -92382.49, 0.0, 9.997438, 9.990767 
3.3498594e+2, 2.84612e+2, -268333.7, -313990.8, -13559.33, -0.020167988, -0.028495487, -264610.44, -113810.695, 0.0, 9.996343, 9.990297 
3.3496708e+2, 2.946023e+2, -186459.56, -223399.27, -12811.659, -0.020873928, -0.030717501, -182451.11, -129556.34, 0.0, 9.995216, 9.990324 
3.3494893e+2, 3.045961e+2, -104783.45, -80626.04, -6461.6616, -0.025925564, -0.029126668, -79006.27, -79006.27, 0.0, 9.994095, 9.997288 
3.349315e+2, 3.145935e+2, -120692.414, -87712.055, -5920.1533, -0.03590673, -0.024476908, -86681.555, -86681.555, 0.0, 9.99298, 9.997339 
3.453203e+2, 1.24765664e+2, -1550609.9, -1721658.8, -1338.4, 0.027793946, -0.022627473, -1550599.4, 166695.19, 0.00000000036154446, 10.014938, 9.992249 
3.4530202e+2, 1.3475788e+2, -1470969.1, -1634197.0, -2529.1843, 0.026781665, -0.013994931, -1470930.0, 148440.92, 0.00000000023482252, 10.01376, 9.99211 
3.4528285e+2, 1.4474982e+2, -1391160.4, -1545483.9, -8588.87, 0.015359567, -0.027563319, -1390683.9, 130765.94, 0.0000000001267867, 10.012541, 9.992072 
3.4526312e+2, 1.5474196e+2, -1311642.1, -1456386.3, -9524.886, 0.0179702, -0.022762809, -1311018.0, 112508.69, 0.000000000053951767, 10.011278, 9.992083 
3.4524268e+2, 1.6473387e+2, -1233598.5, -1372134.0, -14693.374, 0.017165497, -0.020941237, -1232057.3, 93548.66, 0.000000000017333326, 10.010094, 9.991723 
3.4522155e+2, 1.7472559e+2, -1151678.6, -1281917.3, -14118.146, 0.012693521, -0.023245748, -1150165.8, 77521.414, 0.0000000000041005714, 10.008995, 9.991727 
3.4520006e+2, 1.8471724e+2, -1071007.5, -1193509.5, -17142.621, 0.009011721, -0.023616359, -1068653.8, 61115.105, 0.00000000000070716734, 10.007864, 9.991621 
3.4517822e+2, 1.947089e+2, -990023.0, -1103611.0, -18478.822, 0.0061546033, -0.022829749, -987092.4, 44758.285, 0.00000000000008865197, 10.006695, 9.991636 
3.451562e+2, 2.047004e+2, -912098.8, -1018617.06, -20381.8, 0.0030949384, -0.02150846, -908332.06, 25601.963, 0.000000000000008075022, 10.005465, 9.991344 
3.4513396e+2, 2.1469176e+2, -833018.9, -929661.0, -19842.43, -0.0001973821, -0.020415304, -829103.5, 6915.1475, 0.0000000000000005343911, 10.004165, 9.991354 
3.451117e+2, 2.2468302e+2, -754322.2, -843165.06, -19867.754, -0.0039058374, -0.019779325, -750081.6, -11977.232, 0.000000000000000025695059, 10.002935, 9.99116 
3.450894e+2, 2.346742e+2, -672944.2, -753019.1, -19999.266, -0.0080280965, -0.020751795, -668227.1, -28036.275, 0.0, 10.001788, 9.991176 
3.450673e+2, 2.446652e+2, -594246.3, -667904.8, -18638.154, -0.010377642, -0.020720925, -589798.8, -47519.84, 0.0, 10.000617, 9.990858 
3.4504533e+2, 2.5465608e+2, -513557.78, -578069.3, -17946.387, -0.010728602, -0.020455642, -508901.4, -64533.0, 0.0, 9.99942, 9.990872 
3.4502375e+2, 2.6464692e+2, -433592.88, -489041.7, -14409.473, -0.012725701, -0.021146335, -430071.88, -83613.734, 0.0, 9.998193, 9.990847 
3.4500256e+2, 2.746378e+2, -353698.7, -399343.63, -14259.042, -0.016647987, -0.024147231, -349610.47, -101062.875, 0.0, 9.996929, 9.990881 
3.4498197e+2, 2.8462842e+2, -276680.75, -316214.56, -9789.689, -0.019339297, -0.025317507, -274389.38, -123750.18, 0.0, 9.99569, 9.990456 
3.449619e+2, 2.946189e+2, -196025.92, -226202.45, -9243.165, -0.020651087, -0.025699187, -193419.78, -140687.25, 0.0, 9.99448, 9.990483 
3.4494263e+2, 3.0461285e+2, -114539.055, -83763.41, -2595.547, -0.026735252, -0.024097176, -83546.04, -83546.04, 0.0, 9.993356, 9.997425 
3.4492412e+2, 3.1461036e+2, -129134.93, -90240.86, -1952.3732, -0.038296092, -0.021453323, -90143.1, -90143.1, 0.0, 9.9923315, 9.997475 
3.5533527e+2, 1.24783434e+2, -1550852.1, -1722175.3, -5626.3975, 0.031144263, -0.013663938, -1550667.6, 166453.31, 0.000000004243829, 10.014939, 9.992211 
3.5531577e+2, 1.3477558e+2, -1471146.4, -1634580.0, -6821.928, 0.027897775, -0.0094242925, -1470862.1, 148335.67, 0.0000000027557892, 10.01376, 9.992082 
3.5529542e+2, 1.4476737e+2, -1392839.5, -1548989.0, -13198.302, 0.016267588, -0.023592176, -1391731.9, 129546.195, 0.0000000014876522, 10.012543, 9.991831 
3.552744e+2, 1.5475927e+2, -1313324.6, -1459966.3, -14129.599, 0.019938592, -0.018044807, -1311975.5, 111381.836, 0.0000000006329438, 10.011283, 9.991836 
3.5525277e+2, 1.6475113e+2, -1232448.8, -1369882.4, -18711.32, 0.018305302, -0.016989104, -1229946.9, 95490.29, 0.00000000020332144, 10.010098, 9.991872 
3.5523054e+2, 1.7474298e+2, -1150506.1, -1279551.5, -18166.121, 0.010928815, -0.02174172, -1147997.5, 79519.37, 0.000000000048094192, 10.008998, 9.991884 
3.552079e+2, 1.8473455e+2, -1073427.4, -1198496.0, -21458.287, 0.005782663, -0.021859583, -1069848.1, 59751.332, 0.000000000008293319, 10.007864, 9.99128 
3.5518488e+2, 1.9472587e+2, -992570.1, -1108822.8, -22764.932, 0.0030498144, -0.017826179, -988271.2, 43413.41, 0.0000000000010396058, 10.006693, 9.991281 
3.5516164e+2, 2.0471725e+2, -911190.25, -1016704.1, -25142.879, 0.0018694542, -0.016116854, -905505.3, 28263.844, 0.00000000000009468635, 10.005462, 9.991473 
3.5513815e+2, 2.1470875e+2, -831990.0, -927547.1, -24638.918, 0.002426276, -0.01782661, -826011.06, 9841.384, 0.000000000000006265389, 10.004165, 9.991496 
3.551147e+2, 2.2470005e+2, -754501.8, -843545.5, -24119.385, -0.00007239976, -0.018869588, -748388.3, -10450.586, 0.000000000000000301227, 10.002936, 9.991133 
3.550912e+2, 2.3469117e+2, -673197.56, -753506.94, -24234.615, -0.005963919, -0.020246124, -666451.1, -26426.549, 0.0, 10.001786, 9.991141 
3.550679e+2, 2.4468227e+2, -593019.3, -665309.94, -23064.021, -0.010455762, -0.020094445, -586287.7, -44175.64, 0.0, 10.000615, 9.9910345 
3.5504472e+2, 2.5467333e+2, -512292.47, -575391.6, -22390.6, -0.013369917, -0.019123679, -505154.66, -60955.094, 0.0, 9.999417, 9.991055 
3.550219e+2, 2.6466426e+2, -433363.0, -488499.84, -19104.283, -0.015744448, -0.019430423, -427390.53, -81102.35, 0.0, 9.998189, 9.990883 
3.5499948e+2, 2.746552e+2, -353524.3, -398903.66, -18967.672, -0.017546877, -0.022402013, -346640.44, -98262.99, 0.0, 9.996925, 9.990911 
3.5497764e+2, 2.8464594e+2, -275808.88, -314311.63, -14310.958, -0.020476371, -0.020215524, -271072.38, -120604.32, 0.0, 9.995686, 9.990585 
3.5495636e+2, 2.9463664e+2, -195148.25, -224267.88, -13761.963, -0.024728313, -0.013459633, -189673.6, -137114.17, 0.0, 9.994474, 9.990616 
3.5493597e+2, 3.0463067e+2, -113553.14, -81604.266, -6424.6772, -0.029198188, -0.013628555, -80360.71, -80360.71, 0.0, 9.993351, 9.997574 
3.549165e+2, 3.146282e+2, -128145.62, -88090.35, -5757.4683, -0.03388614, -0.022992548, -87279.21, -87279.21, 0.0, 9.992328, 9.9976225 
3.6535057e+2, 1.2480251e+2, -1540953.3, -1718820.1, -483.8729, 0.032600116, -0.011644944, -1540952.0, 175982.33, 0.0000000375052, 10.015674, 9.992077 
3.6532986e+2, 1.3479452e+2, -1462447.1, -1631724.4, -2310.702, 0.028966652, -0.0069978577, -1462415.5, 156596.84, 0.00000002435025, 10.014409, 9.991956 
3.6530825e+2, 1.447862e+2, -1384859.3, -1546895.3, -8837.914, 0.016960641, -0.019783998, -1384378.6, 136715.25, 0.000000013143021, 10.01316, 9.991668 
3.6528602e+2, 1.5477793e+2, -1304952.8, -1457712.3, -9187.4375, 0.01920135, -0.014652235, -1304402.1, 118772.81, 0.0000000055912026, 10.011929, 9.991669 
3.6526316e+2, 1.6476965e+2, -1224500.5, -1366935.9, -14060.287, 0.01729121, -0.013091856, -1223125.9, 102130.09, 0.0000000017958885, 10.010676, 9.991786 
3.652397e+2, 1.7476143e+2, -1145102.0, -1277828.5, -15198.57, 0.01088447, -0.01633327, -1143383.9, 83952.55, 0.00000000042477039, 10.009401, 9.991801 
3.6521587e+2, 1.8475293e+2, -1070321.8, -1197699.9, -18624.559, 0.006569213, -0.016564447, -1067654.5, 61765.19, 0.00000000007324182, 10.008102, 9.991214 
3.651916e+2, 1.9474417e+2, -991742.2, -1109145.3, -17868.018, 0.004519616, -0.014409704, -989083.0, 42422.684, 0.000000000009180585, 10.006777, 9.991212 
3.6516714e+2, 2.0473552e+2, -910367.0, -1016077.5, -19585.29, 0.0026882726, -0.013789494, -906855.0, 26735.508, 0.00000000000083611037, 10.005505, 9.991489 
3.6514238e+2, 2.1472701e+2, -829914.1, -926303.06, -19960.008, 0.001157256, -0.015744006, -825944.4, 9729.307, 0.000000000000055322612, 10.004292, 9.991513 
3.6511764e+2, 2.2471835e+2, -753068.4, -842296.94, -19641.854, -0.0014200177, -0.016680716, -748936.0, -11177.406, 0.0000000000000026596436, 10.003006, 9.9911785 
3.6509293e+2, 2.3470953e+2, -674955.1, -753808.6, -19150.31, -0.0052099493, -0.017550018, -670550.3, -30705.33, 0.0, 10.001638, 9.991186 
3.6506835e+2, 2.4470067e+2, -596742.44, -666441.5, -17956.25, -0.009387418, -0.017210815, -592388.44, -50456.51, 0.0, 10.000327, 9.99109 
3.6504394e+2, 2.5469178e+2, -516760.53, -576887.4, -18200.436, -0.013980641, -0.016403332, -511680.44, -67661.52, 0.0, 9.999079, 9.991111 
3.650199e+2, 2.646828e+2, -438081.66, -490160.06, -15430.545, -0.017146496, -0.015915787, -433853.03, -87746.05, 0.0, 9.997835, 9.990935 
3.6499622e+2, 2.7467376e+2, -357882.97, -400404.53, -15127.297, -0.018712988, -0.017018981, -353050.53, -104854.91, 0.0, 9.996596, 9.990962 
3.6497313e+2, 2.846646e+2, -279639.0, -314394.97, -10245.161, -0.021911344, -0.014641204, -276843.78, -126558.55, 0.0, 9.995343, 9.99074 
3.6495063e+2, 2.9465544e+2, -199814.67, -224727.16, -9503.782, -0.027029084, -0.009569168, -196603.13, -144227.92, 0.0, 9.994074, 9.990772 
3.6492896e+2, 3.0464968e+2, -122120.45, -83656.055, -2111.9438, -0.03036815, -0.00985502, -83540.445, -83540.445, 0.0, 9.99267, 9.997756 
3.6490825e+2, 3.1464744e+2, -144496.88, -93899.32, -1183.0371, -0.031614147, -0.017625667, -93871.67, -93871.67, 0.0, 9.991114, 9.997804 
3.7536627e+2, 1.24822795e+2, -1542371.5, -1721942.0, -5112.2314, 0.032506585, -0.015564146, -1542226.1, 174509.47, 0.00000025594747, 10.015682, 9.9918585 
3.753443e+2, 1.3481463e+2, -1463862.0, -1634765.9, -6906.534, 0.029998347, -0.006427435, -1463583.4, 155232.08, 0.00000016615125, 10.014414, 9.991744 
3.7532145e+2, 1.4480619e+2, -1385439.8, -1548179.1, -13322.015, 0.017448016, -0.016117634, -1384356.5, 136541.77, 0.00000008967033, 10.013164, 9.991576 
3.752979e+2, 1.5479782e+2, -1305531.4, -1458981.1, -13680.546, 0.016024832, -0.012440794, -1304321.3, 118659.15, 0.00000003814353, 10.011931, 9.991579 
3.752738e+2, 1.6478938e+2, -1226571.8, -1371248.3, -18710.438, 0.014349074, -0.009210914, -1224191.1, 100871.95, 0.000000012250882, 10.010678, 9.991489 
3.7524915e+2, 1.747809e+2, -1147243.6, -1282242.0, -19834.094, 0.012427831, -0.0073467386, -1144389.9, 82756.18, 0.0000000028975276, 10.009401, 9.991499 
3.7522402e+2, 1.8477234e+2, -1068956.3, -1194870.0, -23455.322, 0.01104826, -0.00804786, -1064729.0, 64500.992, 0.0000000004995924, 10.008101, 9.991405 
3.7519845e+2, 1.9476372e+2, -990285.75, -1106146.1, -22735.914, 0.010232212, -0.01248472, -985983.9, 45330.598, 0.000000000062618244, 10.006776, 9.991413 
3.7517267e+2, 2.047551e+2, -910976.7, -1017337.4, -24057.105, 0.005387286, -0.014308242, -905788.44, 27610.498, 0.0000000000057027083, 10.005504, 9.991401 
3.751466e+2, 2.1474652e+2, -830608.9, -927706.94, -24423.508, -0.0038303651, -0.014120725, -824811.6, 10671.206, 0.0000000000003773343, 10.00429, 9.991416 
3.7512058e+2, 2.2473788e+2, -752225.3, -840513.3, -24685.629, -0.0077016726, -0.013260455, -745791.94, -8224.39, 0.000000000000018140149, 10.003003, 9.991299 
3.7509456e+2, 2.347292e+2, -674067.75, -751947.2, -24222.182, -0.0057006413, -0.012735375, -667148.8, -27496.227, 0.0000000000000000000034113526, 10.0016365, 9.991311 
3.7506872e+2, 2.4472037e+2, -597161.25, -667280.4, -22598.314, -0.0072039226, -0.012132556, -590509.2, -48770.043, 0.00000000000000000000011930809, 10.000325, 9.991031 
3.7504303e+2, 2.5471142e+2, -517236.7, -577827.5, -22832.674, -0.012602966, -0.012319498, -509596.06, -65769.14, 0.0, 9.999077, 9.991045 
3.7501773e+2, 2.6470244e+2, -437604.28, -489109.75, -20034.088, -0.016964294, -0.010604765, -430729.28, -84814.43, 0.0, 9.997832, 9.991006 
3.749928e+2, 2.7469352e+2, -357392.13, -399314.06, -19738.104, -0.020169169, -0.007988439, -349561.53, -101559.055, 0.0, 9.996593, 9.991035 
3.7496844e+2, 2.8468448e+2, -278395.94, -311742.5, -14972.942, -0.023662722, -0.008639647, -272659.66, -122568.59, 0.0, 9.99534, 9.990921 
3.7494466e+2, 2.9467538e+2, -198554.63, -222042.75, -14239.975, -0.027533328, -0.01422979, -191840.63, -139660.45, 0.0, 9.99407, 9.990955 
3.7492162e+2, 3.0466983e+2, -120633.37, -80457.65, -7903.325, -0.030247064, -0.012886748, -78958.836, -78958.836, 0.0, 9.992664, 9.997976 
3.7489936e+2, 3.1466794e+2, -143074.89, -90734.12, -7009.9604, -0.03159445, -0.0050341194, -89811.55, -89811.55, 0.0, 9.991103, 9.998023 
3.853824e+2, 1.2484453e+2, -1529812.3, -1718399.1, -375.01126, 0.031209566, -0.012676988, -1529811.5, 186711.39, 0.0000013901233, 10.016645, 9.991624 
3.853591e+2, 1.3483614e+2, -1453640.0, -1632291.6, -2212.7654, 0.029823761, -0.004452349, -1453612.6, 164992.44, 0.0000009023199, 10.015215, 9.991517 
3.8533494e+2, 1.4482754e+2, -1376288.4, -1545000.8, -8481.571, 0.018166339, -0.012018936, -1375863.0, 144826.28, 0.00000048693533, 10.013838, 9.991458 
3.8531014e+2, 1.5481907e+2, -1297660.4, -1456422.0, -9007.797, 0.015962088, -0.006113898, -1297150.9, 125621.49, 0.00000020711816, 10.012519, 9.991462 
3.8528472e+2, 1.6481048e+2, -1220629.5, -1370047.5, -13899.636, 0.014297443, -0.0043243016, -1219347.5, 105509.086, 0.000000066519185, 10.011151, 9.991334 
3.8525873e+2, 1.748018e+2, -1143396.1, -1282095.9, -13992.005, 0.013274558, -0.007746248, -1141998.8, 84942.84, 0.000000015732429, 10.009733, 9.99134 
3.8523227e+2, 1.8479317e+2, -1064956.3, -1192425.4, -17551.852, 0.011740272, -0.00855363, -1062583.6, 66442.44, 0.0000000027125593, 10.0083475, 9.991444 
3.8520536e+2, 1.9478466e+2, -986631.75, -1103829.8, -17928.98, 0.00962739, -0.0076239607, -983950.3, 47159.383, 0.0000000003399902, 10.006997, 9.991457 
3.851782e+2, 2.0477603e+2, -909227.94, -1017060.2, -19501.143, 0.0047743656, -0.008470886, -905809.6, 27384.484, 0.000000000030963412, 10.005643, 9.991346 
3.851509e+2, 2.1476737e+2, -830998.2, -928510.25, -19564.346, -0.003110499, -0.011975779, -827219.4, 8059.6084, 0.000000000002048779, 10.004285, 9.991357 
3.8512355e+2, 2.2475871e+2, -752979.94, -840448.9, -20243.402, -0.0069655166, -0.010794287, -748522.06, -11158.313, 0.000000000000098494163, 10.002928, 9.991333 
3.8509616e+2, 2.3475012e+2, -674639.5, -751775.25, -20421.027, -0.0063035153, -0.0056065638, -669566.8, -30118.705, 0.00000000000000000009897081, 10.001573, 9.991347 
3.85069e+2, 2.4474132e+2, -598416.06, -667543.3, -18582.639, -0.008080211, -0.004694674, -593737.4, -52203.074, 0.000000000000000000003460465, 10.000219, 9.991058 
3.85042e+2, 2.5473234e+2, -519998.7, -578836.06, -18116.256, -0.012622848, -0.009345128, -514868.0, -71245.84, 0.0, 9.998868, 9.99107 
3.8501537e+2, 2.6472345e+2, -441697.7, -489618.94, -14857.125, -0.017053861, -0.009374488, -437465.3, -91755.805, 0.0, 9.997484, 9.991133 
3.8498914e+2, 2.7471462e+2, -364143.28, -401091.66, -14132.21, -0.021352435, -0.0054871654, -359357.75, -111562.016, 0.0, 9.996062, 9.991163 
3.8496345e+2, 2.8470576e+2, -287162.7, -313719.25, -9147.163, -0.024235267, -0.00610772, -284316.97, -134434.23, 0.0, 9.9946375, 9.9911175 
3.8493833e+2, 2.9469684e+2, -209629.31, -225123.47, -8291.5, -0.025586335, -0.013094711, -206028.88, -154058.86, 0.0, 9.99321, 9.991153 
3.8491392e+2, 3.0469146e+2, -131272.44, -84295.91, -2464.9082, -0.029475417, -0.011604541, -84166.92, -84166.92, 0.0, 9.991875, 9.998087 
3.8489017e+2, 3.146897e+2, -148934.56, -92309.164, -2426.0518, -0.036129463, -0.0018026487, -92205.414, -92205.414, 0.0, 9.990643, 9.998132 
3.9539903e+2, 1.2486762e+2, -1531612.6, -1722007.0, -5663.566, 0.029066354, -0.0037973505, -1531444.3, 184852.69, 0.0000061949854, 10.016641, 9.991379 
3.953743e+2, 1.3485894e+2, -1455276.5, -1635743.1, -7423.378, 0.028595952, -0.0012680778, -1454971.6, 163410.5, 0.000004020812, 10.015218, 9.991278 
3.953488e+2, 1.4485016e+2, -1377197.6, -1546977.0, -13271.737, 0.019096784, -0.0075062965, -1376166.4, 144301.7, 0.000002169706, 10.013843, 9.991319 
3.9532268e+2, 1.5484162e+2, -1298647.1, -1458433.8, -13797.281, 0.01867583, 0.0038892478, -1297464.5, 125087.53, 0.00000092285484, 10.012517, 9.9913225 
3.952959e+2, 1.6483289e+2, -1220810.9, -1370373.3, -19063.58, 0.016814949, 0.0014055321, -1218419.3, 106218.06, 0.00000029638335, 10.011148, 9.99131 
3.9526847e+2, 1.7482403e+2, -1143534.6, -1282397.5, -19172.668, 0.0134676965, -0.01668497, -1140936.1, 85787.76, 0.00000007009662, 10.009733, 9.991317 
3.9524058e+2, 1.8481535e+2, -1065585.0, -1193774.1, -22495.412, 0.0089510875, -0.017215766, -1061752.0, 67056.88, 0.000000012086099, 10.008349, 9.991348 
3.952123e+2, 1.948069e+2, -987278.0, -1105221.8, -22880.424, 0.003171081, 0.000027695163, -982994.9, 47897.133, 0.0000000015149382, 10.006999, 9.991359 
3.9518383e+2, 2.0479827e+2, -909333.56, -1017305.8, -24492.943, 0.0011193749, 0.0032674077, -904037.25, 28939.39, 0.00000000013797288, 10.005644, 9.991326 
3.9515525e+2, 2.1478948e+2, -831134.4, -928764.25, -24562.994, 0.0030359537, -0.009369955, -825302.8, 9759.772, 0.000000000009129497, 10.004283, 9.991338 
3.9512655e+2, 2.247808e+2, -753306.44, -841084.8, -25240.52, 0.0004079734, -0.009208214, -746566.1, -9418.308, 0.00000000000043891052, 10.002926, 9.991287 
3.9509776e+2, 2.3477222e+2, -674969.2, -752432.4, -25424.213, -0.0070609786, 0.0037794262, -667370.2, -28138.238, 0.0000000000000000022051636, 10.001572, 9.991301 
3.9506915e+2, 2.4476346e+2, -597613.8, -665843.7, -23581.916, -0.011929552, 0.0050216615, -590256.6, -48938.855, 0.000000000000000000077086764, 10.000217, 9.991172 
3.9504087e+2, 2.5475454e+2, -519188.94, -577096.4, -23128.238, -0.014013894, -0.0074848207, -511085.47, -67680.375, 0.0, 9.998865, 9.991187 
3.950129e+2, 2.6474574e+2, -440410.3, -486883.3, -20141.209, -0.017417854, -0.012213305, -432896.16, -87404.836, 0.0, 9.99748, 9.991319 
3.9498517e+2, 2.747371e+2, -362861.88, -398357.72, -19431.203, -0.022267919, -0.009553297, -354293.25, -106717.47, 0.0, 9.9960575, 9.991349 
3.9495808e+2, 2.8472847e+2, -285677.1, -310541.5, -14475.284, -0.02361433, -0.0070374147, -279028.06, -129367.52, 0.0, 9.994633, 9.991334 
3.9493158e+2, 2.9471985e+2, -208164.63, -221963.73, -13621.12, -0.021119988, -0.0059806188, -199795.3, -148050.31, 0.0, 9.993203, 9.991368 
3.949058e+2, 3.0471453e+2, -131311.47, -84275.36, -7051.464, -0.028075313, -0.005961771, -83240.98, -83240.98, 0.0, 9.99187, 9.998088 
3.9488074e+2, 3.1471264e+2, -148968.77, -92366.5, -6997.9707, -0.04549956, -0.008401381, -91514.15, -91514.15, 0.0, 9.990642, 9.998125 
4.05416e+2, 1.2489199e+2, -1522957.1, -1719508.1, -1304.8102, 0.030451378, -0.00000684842, -1522948.5, 193110.06, 0.000023150718, 10.0173, 9.991221 
4.053899e+2, 1.3488318e+2, -1445115.1, -1632445.3, -2395.083, 0.027049873, 0.004325772, -1445084.6, 173060.42, 0.000015024958, 10.015977, 9.991126 
4.0536296e+2, 1.4487427e+2, -1367704.4, -1543667.5, -8141.658, 0.018159464, -0.002071859, -1367328.4, 152903.88, 0.000008107452, 10.014541, 9.991197 
4.0533546e+2, 1.5486553e+2, -1292535.3, -1456788.8, -8543.792, 0.020255737, 0.0039911196, -1292092.1, 130225.74, 0.0000034483326, 10.012986, 9.9911995 
4.0530726e+2, 1.6485675e+2, -1215667.1, -1368197.1, -13628.849, 0.018681202, 0.0018736082, -1214459.0, 109944.875, 0.0000011074694, 10.011508, 9.991276 
4.0527838e+2, 1.7484792e+2, -1138113.5, -1280091.3, -13787.1455, 0.013268729, -0.009956956, -1136787.0, 89703.19, 0.00000026193112, 10.010112, 9.9912815 
4.0524912e+2, 1.8483916e+2, -1060922.9, -1192819.4, -17082.674, 0.00781421, -0.00985447, -1058746.4, 69829.57, 0.000000045164224, 10.008718, 9.991226 
4.0521944e+2, 1.9483052e+2, -983225.94, -1104596.9, -17622.074, 0.0022837871, 0.0022173265, -980719.1, 49941.637, 0.0000000056614566, 10.007328, 9.991234 
4.0518957e+2, 2.0482183e+2, -906017.06, -1015628.25, -19549.355, 0.00073172455, 0.004639018, -902634.75, 30111.318, 0.00000000051565396, 10.005861, 9.991327 
4.0515953e+2, 2.1481308e+2, -830562.2, -928408.44, -19443.586, 0.0034909223, -0.004308555, -826840.06, 7991.6406, 0.00000000003412329, 10.0043125, 9.99134 
4.0512946e+2, 2.2480439e+2, -754160.44, -841474.2, -19478.885, 0.0006290718, -0.0039563887, -750012.0, -13095.085, 0.0000000000016406979, 10.00286, 9.991284 
4.0509927e+2, 2.347958e+2, -675749.8, -752802.6, -19313.367, -0.008343435, 0.005548465, -671179.94, -32178.563, 0.000000000000000034841936, 10.001512, 9.991296 
4.050693e+2, 2.4478707e+2, -599242.3, -665604.6, -17796.332, -0.013106112, 0.006070291, -594771.1, -53684.26, 0.0000000000000000012177427, 10.000055, 9.991258 
4.0503955e+2, 2.5477824e+2, -524023.88, -578391.94, -17541.164, -0.013291681, -0.0042370246, -518855.72, -75682.59, 0.0, 9.998484, 9.991275 
4.050101e+2, 2.6476955e+2, -446097.22, -487686.88, -14483.683, -0.016285572, -0.008534047, -441550.34, -96292.305, 0.0, 9.997001, 9.991487 
4.0498102e+2, 2.7476108e+2, -367981.22, -398882.6, -13874.677, -0.022327336, -0.0073480424, -362665.8, -115324.82, 0.0, 9.995618, 9.991518 
4.049525e+2, 2.847526e+2, -291352.1, -312170.13, -9598.03, -0.02454003, -0.0036221722, -287602.38, -138178.02, 0.0, 9.99419, 9.991428 
4.0492454e+2, 2.947441e+2, -214530.92, -223953.47, -9677.14, -0.022556044, 0.0016420354, -208479.14, -156971.6, 0.0, 9.992715, 9.991461 
4.0489733e+2, 3.0473894e+2, -139032.38, -85572.63, -2445.0127, -0.0292759, -0.00015448706, -85461.04, -85461.04, 0.0, 9.991231, 9.998301 
4.048709e+2, 3.1473717e+2, -160575.13, -95515.4, -684.16187, -0.045668215, -0.01113194, -95508.21, -95508.21, 0.0, 9.989736, 9.998338 
4.1543338e+2, 1.2491758e+2, -1523423.8, -1720619.1, -6084.2173, 0.035146356, -0.00015248048, -1523236.3, 192571.9, 0.00007341361, 10.017306, 9.991138 
4.1540584e+2, 1.3490877e+2, -1445645.0, -1633508.6, -7130.587, 0.025209391, 0.012054444, -1445374.8, 172519.88, 0.000047644422, 10.015976, 9.991051 
4.1537747e+2, 1.4489976e+2, -1368464.5, -1545175.6, -13764.876, 0.015611373, 0.0041077016, -1367398.6, 152584.19, 0.000025708725, 10.014538, 9.991092 
4.1534844e+2, 1.5489076e+2, -1293230.3, -1458285.8, -14180.619, 0.020837706, -0.0046601994, -1292020.8, 130050.0, 0.00001093487, 10.012988, 9.991093 
4.1531876e+2, 1.6488196e+2, -1215860.6, -1368704.0, -18700.69, 0.019957345, -0.0021767688, -1213605.9, 110551.27, 0.0000035120408, 10.011512, 9.991237 
4.1528848e+2, 1.7487334e+2, -1138337.3, -1280621.5, -18893.43, 0.012713148, 0.0109867165, -1135871.1, 90370.51, 0.0000008307222, 10.010114, 9.991241 
4.152578e+2, 1.848645e+2, -1061910.0, -1194856.4, -22178.658, 0.008197768, 0.011925707, -1058307.8, 70020.53, 0.00000014325678, 10.008718, 9.991084 
4.1522682e+2, 1.9485547e+2, -984285.1, -1106697.4, -22703.084, 0.0065322234, -0.00073999667, -980210.1, 50206.543, 0.000000017960266, 10.007323, 9.99109 
4.1519547e+2, 2.0484665e+2, -905859.9, -1015236.2, -25225.443, 0.0033185638, -0.0035234531, -900322.44, 32180.58, 0.0000000016361793, 10.005857, 9.991352 
4.1516382e+2, 2.1483809e+2, -830334.75, -927970.5, -25147.04, -0.0014701474, 0.0031535032, -824238.56, 10348.37, 0.00000000010830399, 10.0043125, 9.991365 
4.1513222e+2, 2.2482945e+2, -753828.0, -840809.75, -24456.566, -0.0059213275, 0.004710877, -747423.2, -10751.573, 0.000000000005209276, 10.002861, 9.991326 
4.1510078e+2, 2.3482074e+2, -675477.5, -752176.7, -24289.248, -0.010095044, -0.00008287165, -668432.56, -29675.643, 0.0000000000000004098162, 10.001508, 9.991337 
4.1506937e+2, 2.4481206e+2, -598820.6, -664652.94, -23614.719, -0.011694629, -0.0012400242, -591225.94, -50383.844, 0.000000000000000014320932, 10.0000515, 9.991322 
4.1503805e+2, 2.5480342e+2, -523589.9, -577437.6, -23386.375, -0.01050688, 0.00046034713, -514851.22, -71924.48, 0.0, 9.99848, 9.991338 
4.1500714e+2, 2.647949e+2, -445012.72, -485383.13, -19642.258, -0.013679822, 0.0016400566, -437033.03, -92022.89, 0.0, 9.996998, 9.991642 
4.1497666e+2, 2.7478656e+2, -366903.7, -396582.34, -19027.19, -0.021543188, 0.00116576, -357613.38, -110521.63, 0.0, 9.995614, 9.991673 
4.1494665e+2, 2.8477815e+2, -291565.66, -312545.16, -15099.617, -0.027090983, 0.0041966243, -283669.72, -134495.17, 0.0, 9.994186, 9.991401 
4.1491717e+2, 2.9476961e+2, -214775.5, -224402.08, -15198.168, -0.030116374, 0.009781175, -203646.64, -152388.53, 0.0, 9.992711, 9.991428 
4.1488853e+2, 3.0476466e+2, -135976.63, -79169.164, -8033.0854, -0.033106584, 0.0058557745, -78055.06, -78055.06, 0.0, 9.991227, 9.998737 
4.1486076e+2, 3.1476328e+2, -157472.31, -88967.96, -6257.3286, -0.036101077, -0.009817396, -88401.09, -88401.09, 0.0, 9.98973, 9.998786 
4.2545113e+2, 1.2494501e+2, -1511136.0, -1716684.5, 932.27374, 0.033782158, 0.0032541587, -1511131.9, 204407.95, 0.00019948803, 10.018229, 9.990948 
4.2542216e+2, 1.34936e+2, -1437289.0, -1631432.0, -724.7312, 0.026665766, 0.015088421, -1437286.3, 180341.78, 0.00012946736, 10.016626, 9.990867 
4.253923e+2, 1.4492686e+2, -1360979.4, -1542353.0, -7797.7217, 0.018036982, 0.008418474, -1360644.8, 159072.78, 0.000069864094, 10.015078, 9.991013 
4.2536172e+2, 1.549178e+2, -1284904.3, -1455065.4, -8009.7144, 0.02020147, -0.0008506652, -1284528.1, 137278.13, 0.000029718896, 10.013585, 9.991013 
4.2533058e+2, 1.6490884e+2, -1208685.6, -1367257.6, -12678.047, 0.01819929, 0.0017453474, -1207678.4, 116215.56, 0.000009546601, 10.012083, 9.991048 
4.252988e+2, 1.7490005e+2, -1132847.6, -1280015.3, -13870.955, 0.011825889, 0.015839582, -1131551.8, 94428.55, 0.0000022586357, 10.010571, 9.991053 
4.2526668e+2, 1.8489112e+2, -1057599.1, -1192812.8, -17391.979, 0.00860982, 0.016676035, -1055397.9, 72669.984, 0.0000003896214, 10.0090065, 9.991075 
4.252342e+2, 1.9488207e+2, -983244.3, -1106239.5, -16942.639, 0.008705298, 0.0025656319, -980953.1, 49203.355, 0.000000048868017, 10.007389, 9.991079 
4.2520136e+2, 2.0487323e+2, -905357.06, -1015206.56, -18931.48, 0.0047327694, -0.00060715945, -902186.0, 30057.033, 0.0000000044544355, 10.005894, 9.991326 
4.2516822e+2, 2.1486464e+2, -827262.9, -926713.94, -19196.328, -0.0034877043, 0.007027681, -823686.2, 10640.866, 0.0000000002950837, 10.004525, 9.991339 
4.2513517e+2, 2.2485602e+2, -751430.44, -839047.9, -18942.113, -0.00782894, 0.008795295, -747510.7, -11099.034, 0.000000000014207993, 10.002991, 9.991373 
4.2510217e+2, 2.3484735e+2, -678328.4, -752957.4, -18696.15, -0.008124606, 0.0031947359, -673906.56, -35409.984, 0.0000000000000036301503, 10.00128, 9.991384 
4.2506924e+2, 2.448387e+2, -603270.06, -666091.25, -17847.73, -0.009661953, 0.0018337413, -598553.56, -57972.35, 0.00000000000000012683968, 9.999708, 9.991379 
4.250364e+2, 2.5483012e+2, -525853.94, -577825.06, -17630.336, -0.012451954, 0.0042176163, -520437.6, -77772.32, 0.0, 9.998287, 9.991395 
4.25004e+2, 2.6482168e+2, -447688.44, -485904.1, -14226.798, -0.016259778, 0.0064072376, -442973.78, -98225.79, 0.0, 9.996775, 9.991705 
4.2497203e+2, 2.7481344e+2, -372909.3, -398723.78, -14291.687, -0.021228585, 0.00714625, -366559.1, -119730.18, 0.0, 9.995163, 9.991735 
4.2494056e+2, 2.848051e+2, -299043.88, -314505.25, -10065.163, -0.02635458, 0.009569133, -294083.2, -145172.39, 0.0, 9.993596, 9.991543 
4.2490953e+2, 2.947967e+2, -222895.34, -226668.3, -8809.663, -0.031614978, 0.012589562, -215772.44, -164779.23, 0.0, 9.992077, 9.9915695 
4.2487937e+2, 3.047919e+2, -145090.11, -81341.62, -2134.8716, -0.03438465, 0.009416597, -81270.2, -81270.2, 0.0, 9.9904995, 9.99893 
4.2485008e+2, 3.147908e+2, -168701.56, -92154.16, -2306.0605, -0.034384057, -0.0018646694, -92084.74, -92084.74, 0.0, 9.988858, 9.9989805 
4.354693e+2, 1.2497411e+2, -1513170.5, -1720786.3, -4989.8267, 0.028026858, 0.010137588, -1513050.6, 202204.25, 0.00047116488, 10.0182295, 9.9906645 
4.3543884e+2, 1.3496475e+2, -1439250.8, -1635403.4, -6513.878, 0.030985875, 0.01409053, -1439034.8, 178311.98, 0.00030582483, 10.016625, 9.990593 
4.3540746e+2, 1.4495549e+2, -1361332.9, -1543074.9, -13191.633, 0.024683567, 0.011242101, -1360380.4, 159057.03, 0.00016506555, 10.015078, 9.990959 
4.3537527e+2, 1.5494649e+2, -1285209.4, -1455772.3, -13454.463, 0.018456757, 0.013922497, -1284154.6, 137370.92, 0.000070237315, 10.013588, 9.990959 
4.3534258e+2, 1.6493732e+2, -1210862.3, -1371814.3, -18190.102, 0.013791723, 0.012538878, -1208832.1, 114783.26, 0.000022572021, 10.012085, 9.990733 
4.3530935e+2, 1.74928e+2, -1135087.3, -1284628.8, -19321.781, 0.010661899, 0.0061964085, -1132631.1, 93075.59, 0.0000053434874, 10.01057, 9.990735 
4.352757e+2, 1.8491894e+2, -1056757.5, -1191076.5, -23243.986, 0.009028111, 0.0062347655, -1052848.8, 74946.51, 0.000000922514, 10.009006, 9.991189 
4.3524158e+2, 1.949102e+2, -982338.5, -1104445.3, -22861.525, 0.008960917, 0.0117666805, -978198.56, 51682.418, 0.00000011583371, 10.007391, 9.991197 
4.3520725e+2, 2.0490143e+2, -905787.2, -1016136.1, -23949.232, 0.005079022, 0.01246248, -900813.56, 31153.338, 0.000000010574354, 10.005895, 9.991259 
4.3517277e+2, 2.1489266e+2, -827796.56, -927731.44, -24203.746, -0.0027301416, 0.007443093, -822243.1, 11809.757, 0.0000000007019238, 10.004521, 9.991267 
4.3513817e+2, 2.2488402e+2, -751056.4, -838168.8, -25246.62, -0.0053479588, 0.008641492, -744268.4, -8130.7646, 0.000000000033890505, 10.002985, 9.991432 
4.351035e+2, 2.3487553e+2, -677907.44, -752050.2, -25038.094, -0.0025892823, 0.015141412, -670244.06, -32023.219, 0.000000000000024806087, 10.001277, 9.991444 
4.35069e+2, 2.4486695e+2, -602851.1, -665206.5, -23127.348, -0.007074784, 0.014934813, -595209.7, -54904.867, 0.0000000000000008666759, 9.999707, 9.991436 
4.3503463e+2, 2.5485834e+2, -525460.44, -576964.1, -22903.871, -0.019116506, 0.0069620754, -516748.6, -74359.34, 0.0, 9.998284, 9.991451 
4.350007e+2, 2.6484987e+2, -447882.56, -486236.9, -20220.4, -0.02399149, 0.0058062794, -439191.7, -94719.56, 0.0, 9.99677, 9.99168 
4.349672e+2, 2.7484164e+2, -373127.38, -399100.9, -20310.826, -0.021356761, 0.010608146, -362006.34, -115453.41, 0.0, 9.995159, 9.991708 
4.3493417e+2, 2.8483343e+2, -296802.13, -309783.53, -15745.826, -0.02223962, 0.01242878, -286261.66, -137628.22, 0.0, 9.993592, 9.991864 
4.3490168e+2, 2.948253e+2, -220615.17, -221868.39, -14479.649, -0.026825424, 0.009840442, -206748.58, -156035.48, 0.0, 9.992073, 9.991896 
4.348699e+2, 3.048207e+2, -145555.27, -82226.65, -8261.414, -0.033087622, 0.010481144, -81166.664, -81166.664, 0.0, 9.990496, 9.998867 
4.3483883e+2, 3.148196e+2, -169250.5, -93188.03, -8469.238, -0.04109543, 0.01323666, -92256.43, -92256.43, 0.0, 9.9888525, 9.998908 
4.4548795e+2, 1.250048e+2, -1502609.4, -1717511.1, -26.219423, 0.030541526, 0.016093891, -1502609.4, 212345.22, 0.0009844098, 10.0190325, 9.990487 
4.4545582e+2, 1.3499522e+2, -1430241.5, -1632751.8, -677.99585, 0.030866392, 0.015593367, -1430239.3, 186809.14, 0.0006391954, 10.017312, 9.990429 
4.4542286e+2, 1.449858e+2, -1353594.5, -1541672.4, -6878.438, 0.024475303, 0.014410167, -1353343.3, 165797.56, 0.0003451785, 10.015702, 9.99074 
4.4538918e+2, 1.5497662e+2, -1277588.3, -1454445.5, -8228.515, 0.018051164, 0.021572674, -1277206.3, 144024.5, 0.00014698524, 10.014204, 9.99074 
4.4535494e+2, 1.6496733e+2, -1202881.8, -1367772.5, -12805.115, 0.0139132, 0.019272693, -1201893.3, 121428.37, 0.000047284222, 10.012614, 9.990741 
4.4532013e+2, 1.7495795e+2, -1129527.3, -1281781.1, -11682.577, 0.012107216, 0.006413325, -1128636.1, 96777.31, 0.000011209171, 10.010934, 9.990739 
4.4528487e+2, 1.8494882e+2, -1052985.6, -1190720.1, -15249.554, 0.009798803, 0.0056201657, -1051317.5, 76185.25, 0.0000019388626, 10.009318, 9.991049 
4.4524914e+2, 1.9494e+2, -977623.1, -1103642.0, -16622.203, 0.0070132646, 0.016337086, -975467.44, 54121.926, 0.0000002440825, 10.007769, 9.991056 
4.4521326e+2, 2.0493118e+2, -901954.75, -1013975.9, -18160.857, 0.0036527298, 0.018358385, -899084.06, 32591.73, 0.000000022360794, 10.006135, 9.991279 
4.4517726e+2, 2.149224e+2, -829071.44, -928055.4, -17727.72, -0.00032697475, 0.010521447, -825992.25, 7769.5586, 0.0000000014914242, 10.004413, 9.991286 
4.4514108e+2, 2.2491375e+2, -754152.7, -840001.7, -19025.557, -0.002788289, 0.011171915, -750125.25, -14278.554, 0.00000000007247771, 10.002779, 9.991395 
4.4510475e+2, 2.3490523e+2, -678578.44, -752716.8, -19485.904, -0.003619487, 0.019593306, -673768.94, -35838.742, 0.00000000000013446346, 10.001237, 9.9914055 
4.4506866e+2, 2.448967e+2, -602654.06, -664025.94, -17361.135, -0.009128621, 0.020218838, -598083.3, -58069.46, 0.0000000000000046976735, 9.999665, 9.991527 
4.450328e+2, 2.5488815e+2, -527909.56, -577063.2, -16843.348, -0.019624993, 0.011831934, -522691.78, -80594.42, 0.0, 9.998061, 9.991541 
4.4499728e+2, 2.648798e+2, -452378.2, -487409.28, -14126.547, -0.024181113, 0.0096952, -447391.44, -103211.98, 0.0, 9.99641, 9.991762 
4.449621e+2, 2.7487162e+2, -378917.2, -400921.84, -13370.195, -0.022399787, 0.013003409, -372604.4, -126344.766, 0.0, 9.994712, 9.991787 
4.4492748e+2, 2.8486353e+2, -303042.8, -310445.88, -8475.683, -0.022964634, 0.014622381, -297495.63, -149156.88, 0.0, 9.993055, 9.992066 
4.4489342e+2, 2.9485562e+2, -228204.58, -223165.97, -8114.507, -0.026040148, 0.013110713, -217188.69, -166772.39, 0.0, 9.991444, 9.9921 
4.4486004e+2, 3.0485114e+2, -154556.38, -85329.85, -2005.3219, -0.03290986, 0.013890176, -85271.81, -85271.81, 0.0, 9.989817, 9.998971 
4.4482732e+2, 3.1485018e+2, -178296.81, -96356.69, -876.69495, -0.04378837, 0.015969135, -96347.305, -96347.305, 0.0, 9.9881735, 9.999007 
4.5550707e+2, 1.2503695e+2, -1503426.5, -1718672.4, -6270.8125, 0.039220307, 0.020907233, -1503243.9, 211395.88, 0.0018518177, 10.019025, 9.990407 
4.554731e+2, 1.3502732e+2, -1430660.4, -1633634.1, -6892.18, 0.026916007, 0.019253695, -1430426.6, 186307.72, 0.0012034134, 10.017321, 9.990359 
4.5543846e+2, 1.4501765e+2, -1356004.5, -1546781.8, -12260.453, 0.018497815, 0.017853124, -1355219.9, 163609.05, 0.0006506159, 10.015713, 9.990383 
4.554034e+2, 1.550081e+2, -1280163.9, -1459656.4, -13547.946, 0.01885444, 0.023044562, -1279147.0, 141775.58, 0.00027748905, 10.014201, 9.990383 
4.553676e+2, 1.6499881e+2, -1200832.9, -1363392.1, -18850.975, 0.01796622, 0.022573847, -1198675.4, 124338.22, 0.00008946152, 10.012607, 9.991037 
4.5533112e+2, 1.7498977e+2, -1127412.3, -1277374.6, -17851.707, 0.015836023, 0.015476929, -1125316.5, 99785.37, 0.000021270986, 10.010931, 9.991035 
4.552942e+2, 1.8498062e+2, -1055547.4, -1196005.4, -20954.621, 0.010848214, 0.013739006, -1052487.9, 74703.66, 0.0000036942304, 10.009317, 9.9906845 
4.5525688e+2, 1.9497134e+2, -980207.9, -1108962.0, -22265.057, 0.0030381205, 0.016607694, -976466.4, 52816.24, 0.00000046763495, 10.007768, 9.99069 
4.5521936e+2, 2.0496239e+2, -901158.7, -1012317.3, -24451.121, 0.0006219798, 0.017736124, -896018.0, 35352.414, 0.000000043160696, 10.006133, 9.991387 
4.551817e+2, 2.1495377e+2, -828256.75, -926383.9, -24065.234, 0.0036254413, 0.016175482, -822672.6, 10782.053, 0.0000000029076466, 10.004412, 9.991396 
4.551439e+2, 2.249451e+2, -754975.4, -841723.4, -24712.195, -0.00023333984, 0.016175242, -748429.44, -12889.786, 0.00000000014319634, 10.002779, 9.991273 
4.551059e+2, 2.349364e+2, -679426.3, -754471.1, -25169.92, -0.011018633, 0.016777793, -671766.25, -34141.15, 0.0000000000005942878, 10.001236, 9.991282 
4.5506826e+2, 2.4492787e+2, -601736.94, -662087.7, -23291.146, -0.015616163, 0.017992621, -593793.7, -54084.996, 0.000000000000020762136, 9.999662, 9.991655 
4.5503092e+2, 2.5491956e+2, -527006.94, -575128.06, -22799.354, -0.013981528, 0.018897178, -517920.53, -76130.42, 0.0, 9.998057, 9.991671 
4.5499378e+2, 2.6491135e+2, -451007.8, -484501.28, -20460.771, -0.016915316, 0.018031407, -441314.1, -97443.66, 0.0, 9.996407, 9.991959 
4.5495683e+2, 2.749033e+2, -377553.63, -398023.56, -19712.99, -0.024456184, 0.014260809, -365576.97, -119627.61, 0.0, 9.994707, 9.991982 
4.549205e+2, 2.848954e+2, -302454.22, -309158.66, -14497.212, -0.02866537, 0.016195009, -290926.72, -142899.66, 0.0, 9.993052, 9.992151 
4.5488486e+2, 2.9488763e+2, -227635.94, -221918.36, -14145.022, -0.029426755, 0.022729723, -210346.14, -160243.1, 0.0, 9.99144, 9.992183 
4.5484984e+2, 3.048833e+2, -152544.11, -81103.836, -8135.8716, -0.03387423, 0.019635687, -80189.016, -80189.016, 0.0, 9.989813, 9.999257 
4.548155e+2, 3.1488246e+2, -176245.95, -92093.18, -6985.3706, -0.04217001, 0.005309142, -91517.27, -91517.27, 0.0, 9.988172, 9.999295 
4.6552646e+2, 1.2507096e+2, -1495196.3, -1716914.9, 964.31146, 0.04054655, 0.021037858, -1495192.1, 219114.8, 0.0031915896, 10.019702, 9.990184 
4.6549082e+2, 1.3506114e+2, -1418999.1, -1630177.4, -509.51962, 0.025321698, 0.024389334, -1418997.9, 197405.13, 0.002077466, 10.01822, 9.990146 
4.654546e+2, 1.4505135e+2, -1344412.3, -1541982.1, -5857.459, 0.01746551, 0.023028074, -1344238.8, 174260.38, 0.0011256962, 10.016539, 9.990296 
4.6541783e+2, 1.5504162e+2, -1273883.4, -1457486.0, -5311.895, 0.020513127, 0.02153481, -1273729.8, 146864.48, 0.00048159398, 10.014661, 9.990293 
4.6538037e+2, 1.6503222e+2, -1197391.5, -1363338.0, -11030.603, 0.020090127, 0.022128616, -1196661.5, 126024.95, 0.00015591842, 10.012902, 9.990883 
4.653422e+2, 1.7502314e+2, -1123389.0, -1277021.5, -13041.312, 0.01622269, 0.023739515, -1122289.9, 102485.555, 0.00003728443, 10.011265, 9.990887 
4.6530366e+2, 1.850139e+2, -1050918.5, -1193807.0, -16197.699, 0.010719178, 0.022892062, -1049105.4, 77760.48, 0.0000065253835, 10.009625, 9.990674 
4.6526474e+2, 1.9500455e+2, -976939.6, -1107452.3, -15016.395, 0.0035814894, 0.018854327, -975234.2, 53723.414, 0.00000083457525, 10.007984, 9.990675 
4.6522558e+2, 2.0499553e+2, -898911.94, -1011885.1, -17012.244, 0.00085869303, 0.018644707, -896405.75, 34640.18, 0.00000007808947, 10.006304, 9.99132 
4.6518618e+2, 2.1498689e+2, -825952.4, -925939.1, -17847.617, 0.0026459678, 0.021362968, -822862.06, 10268.412, 0.0000000053561218, 10.004588, 9.991327 
4.651467e+2, 2.2497821e+2, -752515.5, -840139.6, -18034.49, -0.0017050027, 0.022084352, -748948.9, -13733.286, 0.000000000269977, 10.00292, 9.9913 
4.6510717e+2, 2.349695e+2, -678108.0, -753453.06, -17350.57, -0.012363245, 0.019785328, -674304.5, -37003.438, 0.0000000000021824825, 10.0013, 9.991306 
4.6506783e+2, 2.4496098e+2, -603212.6, -662455.25, -15931.721, -0.015793387, 0.019856097, -599200.0, -59815.52, 0.00000000000007625302, 9.999536, 9.991677 
4.650288e+2, 2.549527e+2, -532934.94, -577657.94, -16196.05, -0.011796384, 0.021479793, -527685.8, -86220.15, 0.0, 9.997627, 9.991693 
4.6498993e+2, 2.6494458e+2, -457396.06, -485913.78, -13963.797, -0.0151710855, 0.021718176, -451697.4, -108152.29, 0.0, 9.995887, 9.9921 
4.649513e+2, 2.7493668e+2, -382029.78, -398514.75, -13586.381, -0.026130311, 0.01930661, -374381.13, -128758.62, 0.0, 9.994319, 9.992125 
4.649133e+2, 2.849289e+2, -307744.47, -310133.97, -8715.066, -0.03103148, 0.021238567, -300142.66, -152443.78, 0.0, 9.992611, 9.992285 
4.6487594e+2, 2.9492128e+2, -236407.4, -224586.95, -7957.5317, -0.02965087, 0.026521234, -220584.9, -170811.25, 0.0, 9.990762, 9.992314 
4.6483925e+2, 3.0491713e+2, -162574.84, -83127.09, -1650.7747, -0.03350561, 0.022644116, -83092.805, -83092.805, 0.0, 9.988996, 9.999501 
4.6480325e+2, 3.149165e+2, -186881.17, -94406.55, -820.8707, -0.042721473, 0.007858075, -94399.266, -94399.266, 0.0, 9.987312, 9.999538 
4.7554612e+2, 1.2510665e+2, -1497740.3, -1721667.9, -4376.7383, 0.035994094, 0.01773139, -1497654.8, 216302.53, 0.00512697, 10.019717, 9.989849 
4.7550908e+2, 1.3509661e+2, -1421732.1, -1634998.5, -5755.004, 0.025765857, 0.03081608, -1421577.0, 194478.9, 0.003346698, 10.018207, 9.9898205 
4.754712e+2, 1.4508672e+2, -1343721.8, -1539914.5, -12609.37, 0.020570228, 0.029618753, -1342914.8, 175238.08, 0.0018204565, 10.016519, 9.99044 
4.7543252e+2, 1.5507704e+2, -1272870.9, -1455341.8, -12159.791, 0.02286096, 0.017495506, -1272064.1, 148183.31, 0.00078291685, 10.01466, 9.990434 
4.7539327e+2, 1.6506745e+2, -1201046.5, -1371060.6, -16983.871, 0.020518465, 0.018544473, -1199366.5, 122975.1, 0.0002552729, 10.012911, 9.990349 
4.7535345e+2, 1.7505792e+2, -1127046.0, -1284721.5, -18902.94, 0.013660359, 0.03133763, -1124811.5, 99623.51, 0.000061624436, 10.0112705, 9.990355 
4.7531328e+2, 1.8504861e+2, -1048637.0, -1189172.9, -22090.145, 0.009588088, 0.03296156, -1045246.56, 81279.73, 0.000010921682, 10.009627, 9.990983 
4.7527277e+2, 1.9503951e+2, -974737.44, -1102869.3, -21010.158, 0.008242944, 0.02290787, -971380.3, 57235.13, 0.0000014200169, 10.007981, 9.990983 
4.7523192e+2, 2.0503052e+2, -900510.5, -1015135.9, -23328.121, 0.0040007206, 0.020971393, -895944.75, 34758.7, 0.00000013571604, 10.006301, 9.991095 
4.751907e+2, 2.1502167e+2, -827518.5, -929182.06, -24151.898, -0.0030033584, 0.026115526, -822072.5, 10717.622, 0.000000009561392, 10.004587, 9.991101 
4.7514957e+2, 2.2501299e+2, -751237.5, -837476.2, -23991.91, -0.0068932003, 0.028906314, -745012.25, -10136.968, 0.0000000004980852, 10.002918, 9.991477 
4.7510853e+2, 2.3500447e+2, -676885.1, -750828.06, -23339.086, -0.007821842, 0.028428132, -670134.7, -33176.01, 0.0000000000067294096, 10.001294, 9.991483 
4.7506744e+2, 2.4499597e+2, -603775.56, -663527.06, -23032.273, -0.009930929, 0.025623342, -595928.06, -56886.152, 0.00000000000023519348, 9.99953, 9.991601 
4.750264e+2, 2.5498754e+2, -533484.5, -578735.0, -23308.455, -0.013125693, 0.019562881, -523626.13, -82501.58, 0.0, 9.9976225, 9.991615 
4.7498578e+2, 2.6497942e+2, -456732.2, -484481.88, -19808.906, -0.018915173, 0.020843575, -446422.25, -103218.37, 0.0, 9.995884, 9.992194 
4.749456e+2, 2.7497175e+2, -381373.4, -397104.38, -19443.244, -0.027372584, 0.028309029, -368264.97, -122985.48, 0.0, 9.994316, 9.992217 
4.749059e+2, 2.8496408e+2, -306408.5, -307306.34, -15647.178, -0.02996656, 0.029781375, -291203.8, -143849.33, 0.0, 9.992607, 9.992475 
4.7486672e+2, 2.9495654e+2, -235096.61, -221777.36, -14897.262, -0.026563475, 0.02410503, -212118.92, -162690.5, 0.0, 9.990756, 9.992503 
4.7482827e+2, 3.049526e+2, -161173.81, -80124.27, -7947.806, -0.03176105, 0.02291742, -79352.26, -79352.26, 0.0, 9.98899, 9.999704 
4.747905e+2, 3.1495237e+2, -185481.53, -91417.914, -7120.138, -0.045681816, 0.024846375, -90882.01, -90882.01, 0.0, 9.987308, 9.999741 
4.8556632e+2, 1.2514424e+2, -1483859.4, -1715962.4, 1361.2476, 0.031984784, 0.025970515, -1483851.4, 229737.88, 0.007793869, 10.020761, 9.989716 
4.855275e+2, 1.35134e+2, -1416429.9, -1633580.6, 1377.802, 0.028601756, 0.03088183, -1416421.1, 199268.63, 0.005109068, 10.01864, 9.989691 
4.8548788e+2, 1.4512399e+2, -1340335.9, -1539391.8, -5183.147, 0.024755688, 0.03031358, -1340201.0, 177586.8, 0.00279502, 10.016803, 9.990323 
4.8544747e+2, 1.5511428e+2, -1265051.0, -1452715.8, -6412.204, 0.022345932, 0.025788011, -1264832.1, 155050.75, 0.001211295, 10.01524, 9.990317 
4.854065e+2, 1.6510455e+2, -1191859.1, -1367905.6, -10610.196, 0.018088415, 0.026447775, -1191222.0, 130756.24, 0.00039899355, 10.013585, 9.990222 
4.85365e+2, 1.7509483e+2, -1119339.8, -1282315.6, -9736.665, 0.011971776, 0.031416457, -1118760.0, 105313.62, 0.00009761761, 10.011844, 9.990223 
4.8532313e+2, 1.850854e+2, -1042845.75, -1186987.1, -13071.4, 0.009234205, 0.032530367, -1041670.0, 84496.05, 0.00001760285, 10.010038, 9.990915 
4.8528084e+2, 1.9507629e+2, -972166.3, -1102234.5, -14517.353, 0.009835008, 0.028820042, -970565.7, 57689.535, 0.0000023394673, 10.008171, 9.990919 
4.8523828e+2, 2.0506726e+2, -899156.4, -1015102.0, -17228.447, 0.0051841573, 0.028183402, -896650.56, 33693.19, 0.00000022973848, 10.006409, 9.991031 
4.8519537e+2, 2.1505831e+2, -825399.8, -928795.8, -16873.32, -0.0045801587, 0.029853577, -822715.94, 9715.515, 0.00000001672032, 10.004747, 9.9910345 
4.8515248e+2, 2.250496e+2, -750492.9, -836629.94, -17027.447, -0.007908105, 0.031746324, -747249.06, -12732.232, 0.00000000090438557, 10.002935, 9.99151 
4.851097e+2, 2.3504114e+2, -681071.25, -752381.7, -17365.729, -0.004933356, 0.032858517, -677067.1, -40467.414, 0.000000000017616731, 10.000976, 9.991517 
4.8506683e+2, 2.450327e+2, -607891.56, -664767.8, -16846.275, -0.007755934, 0.030443834, -603276.3, -64593.934, 0.00000000000061639924, 9.999204, 9.99166 
4.8502398e+2, 2.550243e+2, -532889.6, -577712.5, -16080.289, -0.016280672, 0.02355813, -527717.6, -86952.98, 0.0, 9.99762, 9.991671 
4.849816e+2, 2.6501626e+2, -457048.88, -483936.34, -12358.5, -0.021939937, 0.024738418, -452231.53, -109388.12, 0.0, 9.99582, 9.992247 
4.849397e+2, 2.7500862e+2, -388203.72, -399719.94, -12256.386, -0.024838224, 0.03290606, -380420.22, -135501.75, 0.0, 9.993807, 9.992269 
4.848982e+2, 2.8500107e+2, -314604.16, -309430.16, -8654.2, -0.02729773, 0.034161944, -302984.56, -155992.08, 0.0, 9.991956, 9.992629 
4.848572e+2, 2.9499364e+2, -241000.95, -222804.36, -8145.614, -0.02912887, 0.027218038, -219690.78, -170625.77, 0.0, 9.990262, 9.992657 
4.8481697e+2, 3.0498987e+2, -168015.31, -82259.03, -1794.3217, -0.03456536, 0.02662867, -82221.5, -82221.5, 0.0, 9.98846, 9.9998 
4.8477748e+2, 3.1498975e+2, -195672.52, -95171.27, -1771.8837, -0.04379957, 0.031292308, -95140.05, -95140.05, 0.0, 9.986548, 9.999837 
4.9558705e+2, 1.251836e+2, -1484716.4, -1715542.9, -6177.4883, 0.028459486, 0.04345316, -1484551.3, 228652.97, 0.011346824, 10.020736, 9.989749 
4.9554616e+2, 1.3517316e+2, -1416497.1, -1632937.5, -6185.864, 0.033394374, 0.025637941, -1416320.5, 198985.78, 0.0074791596, 10.018645, 9.989725 
4.9550474e+2, 1.4516303e+2, -1342638.0, -1544019.6, -10731.354, 0.02974862, 0.026360722, -1342067.8, 175337.95, 0.004121859, 10.016818, 9.989995 
4.954627e+2, 1.5515321e+2, -1267382.6, -1457362.3, -11961.668, 0.019362524, 0.044639565, -1266632.5, 152869.58, 0.0018038069, 10.01524, 9.989995 
4.9542004e+2, 1.6514342e+2, -1190301.3, -1364509.9, -16866.887, 0.013253337, 0.04398307, -1188683.3, 132914.6, 0.00060176203, 10.013577, 9.990451 
4.9537683e+2, 1.7513368e+2, -1117800.1, -1279013.6, -16090.1875, 0.011074978, 0.024820114, -1116209.9, 107483.15, 0.00014964306, 10.011837, 9.990445 
4.9533316e+2, 1.8512414e+2, -1045596.4, -1192620.4, -19915.426, 0.009517667, 0.023015505, -1042946.44, 82840.055, 0.000027540607, 10.010035, 9.990527 
4.9528903e+2, 1.9511482e+2, -974805.56, -1107772.5, -21312.041, 0.008629212, 0.036544867, -971473.2, 56404.91, 0.0000037524558, 10.008173, 9.990535 
4.9524468e+2, 2.0510568e+2, -898437.1, -1013689.1, -23256.838, 0.0046314606, 0.03979933, -893921.06, 36046.65, 0.0000003794694, 10.00641, 9.99112 
4.9520013e+2, 2.1509674e+2, -824778.9, -927455.6, -22952.941, -0.0023409806, 0.03261042, -819881.44, 12173.805, 0.000000028553169, 10.004744, 9.991122 
4.9515545e+2, 2.2508799e+2, -751162.7, -837943.94, -24258.658, -0.005061985, 0.03085379, -744841.9, -10700.87, 0.0000000016014801, 10.002931, 9.991417 
4.9511066e+2, 2.3507944e+2, -681692.94, -753671.2, -24605.688, -0.0036905424, 0.033269208, -674085.5, -37860.746, 0.000000000040015505, 10.000974, 9.991424 
4.9506602e+2, 2.4507108e+2, -606460.75, -661807.56, -22701.498, -0.009161272, 0.0344352, -598340.6, -60033.992, 0.0000000000014047182, 9.999203, 9.991857 
4.9502155e+2, 2.5506294e+2, -531500.3, -574789.25, -21970.723, -0.021248186, 0.033482738, -522303.3, -81916.97, 0.00000000000000000000000030604155, 9.997617, 9.991866 
4.9497738e+2, 2.65055e+2, -456918.84, -483594.5, -19886.615, -0.024223486, 0.033325695, -446311.44, -103847.23, 0.000000000000000000000000010725535, 9.995814, 9.992267 
4.9493358e+2, 2.750473e+2, -388094.7, -399397.8, -19798.152, -0.018404575, 0.03289508, -373157.25, -128617.375, 0.0, 9.9938, 9.992287 
4.9489024e+2, 2.850398e+2, -313735.28, -307544.78, -14984.389, -0.023052996, 0.03433383, -295339.3, -148726.14, 0.0, 9.991951, 9.992754 
4.948474e+2, 2.9503262e+2, -240105.7, -220927.72, -14485.496, -0.037764825, 0.036289793, -213144.94, -164461.33, 0.0, 9.99026, 9.992781 
4.9480537e+2, 3.0502886e+2, -168081.78, -82390.67, -8976.505, -0.04215491, 0.03385608, -81460.445, -81460.445, 0.0, 9.988458, 9.999785 
4.947641e+2, 3.1502864e+2, -195760.03, -95291.125, -8963.298, -0.036399435, 0.029003642, -94497.734, -94497.734, 0.0, 9.986544, 9.999825 
5.05608e+2, 1.2522495e+2, -1479537.3, -1713395.5, 1651.2285, 0.03295151, 0.045131527, -1479525.6, 233273.72, 0.015960407, 10.021195, 9.989654 
5.055652e+2, 1.3521448e+2, -1405016.1, -1627890.8, 955.7859, 0.030776815, 0.032890055, -1405012.0, 209889.78, 0.010588404, 10.019506, 9.989633 
5.0552195e+2, 1.4520419e+2, -1331352.9, -1540593.1, -3076.0886, 0.025987832, 0.033241797, -1331307.8, 185694.95, 0.005885449, 10.017698, 9.989783 
5.054782e+2, 1.5519409e+2, -1260839.1, -1456342.0, -3485.6028, 0.019373657, 0.045244507, -1260777.0, 158324.72, 0.002604385, 10.0157795, 9.989785 
5.054338e+2, 1.6518418e+2, -1185369.8, -1362318.1, -8933.25, 0.015082448, 0.044798486, -1184919.9, 136278.8, 0.00088127615, 10.013914, 9.990419 
5.053888e+2, 1.7517449e+2, -1113908.6, -1277358.5, -9839.732, 0.012990498, 0.03152607, -1113318.4, 109975.22, 0.00022307679, 10.012101, 9.990415 
5.053433e+2, 1.8516488e+2, -1041938.25, -1192014.3, -13587.971, 0.010181464, 0.030386267, -1040717.94, 84669.77, 0.000041950563, 10.010322, 9.990414 
5.052974e+2, 1.951554e+2, -969447.2, -1106348.5, -13059.506, 0.006758694, 0.04000822, -968212.5, 59268.29, 0.0000058626283, 10.008576, 9.990418 
5.052512e+2, 2.0514618e+2, -893806.3, -1011551.3, -14489.269, 0.0033576204, 0.0417743, -892049.5, 37521.73, 0.0000006101489, 10.006718, 9.991097 
5.052049e+2, 2.1513723e+2, -824539.2, -927451.25, -14895.564, -0.000047491914, 0.035208322, -822426.56, 9232.377, 0.000000047372705, 10.004751, 9.9911 
5.0515836e+2, 2.2512844e+2, -751395.75, -837995.5, -16302.778, -0.0033832153, 0.03371766, -748428.4, -14683.645, 0.0000000027460336, 10.002898, 9.991411 
5.051117e+2, 2.3511991e+2, -678824.25, -752233.06, -15942.493, -0.0065970374, 0.036083706, -675511.44, -39682.78, 0.00000000008152767, 10.001154, 9.991415 
5.0506526e+2, 2.4511155e+2, -605139.3, -660930.06, -14194.334, -0.011679256, 0.03809948, -601735.7, -63825.223, 0.000000000002885659, 9.9992695, 9.991866 
5.05019e+2, 2.5510344e+2, -536508.6, -576962.75, -14787.244, -0.018686663, 0.038965784, -531679.8, -91689.914, 0.000000000000000000000008867205, 9.99725, 9.9918785 
5.04973e+2, 2.6509553e+2, -463412.03, -485986.06, -13635.42, -0.021724895, 0.038384654, -456998.16, -114930.7, 0.00000000000000000000000031060664, 9.995324, 9.992323 
5.0492716e+2, 2.7508786e+2, -391973.53, -400528.44, -13209.396, -0.020754952, 0.035217416, -382366.28, -138223.45, 0.0, 9.993489, 9.992343 
5.04882e+2, 2.8508046e+2, -317620.84, -307767.34, -7755.0166, -0.025709966, 0.037596665, -303506.4, -157291.39, 0.0, 9.9916, 9.992891 
5.048374e+2, 2.9507345e+2, -247675.03, -222946.86, -7121.985, -0.03655492, 0.044152714, -221042.33, -172758.63, 0.0, 9.989658, 9.992915 
5.0479347e+2, 3.0506977e+2, -177897.47, -85681.52, -1462.6807, -0.040675297, 0.034425765, -85658.33, -85658.33, 0.0, 9.98771, 9.999903 
5.0475025e+2, 3.1506968e+2, -206118.17, -98710.17, -351.0552, -0.03728663, 0.030420255, -98709.02, -98709.02, 0.0, 9.985754, 9.999952 
5.1562935e+2, 1.2526813e+2, -1481981.1, -1715971.4, -4216.4453, 0.043515623, 0.03465767, -1481905.1, 230471.31, 0.021824285, 10.02121, 9.989465 
5.1558465e+2, 1.3525775e+2, -1407151.3, -1630538.6, -4992.801, 0.02205212, 0.05050935, -1407039.8, 207438.42, 0.014581758, 10.019503, 9.989448 
5.155395e+2, 1.452473e+2, -1332598.8, -1542144.9, -9908.996, 0.015213291, 0.048703864, -1332131.3, 184449.45, 0.008180581, 10.01769, 9.9896755 
5.15494e+2, 1.5523678e+2, -1261740.8, -1457874.4, -10335.849, 0.021991564, 0.03042779, -1261197.5, 157485.94, 0.0036633164, 10.015778, 9.989675 
5.154478e+2, 1.6522673e+2, -1187043.8, -1365760.8, -15414.086, 0.022488687, 0.031847667, -1185724.0, 135058.05, 0.0012582594, 10.013916, 9.990177 
5.1540095e+2, 1.7521709e+2, -1115500.8, -1280715.6, -16339.494, 0.01727654, 0.05000903, -1113900.3, 108976.38, 0.00032438294, 10.012103, 9.990178 
5.153536e+2, 1.8520747e+2, -1040920.4, -1189957.6, -19871.703, 0.011158808, 0.052329954, -1038316.3, 86654.58, 0.00006234182, 10.010322, 9.990546 
5.1530594e+2, 1.9519791e+2, -968510.0, -1104373.8, -19418.105, 0.0042741126, 0.039481405, -965789.2, 61275.48, 0.0000089328105, 10.008574, 9.990547 
5.1525795e+2, 2.0518863e+2, -894583.06, -1013101.8, -21705.744, 0.001435234, 0.035148732, -890732.9, 38422.594, 0.0000009559219, 10.006713, 9.990987 
5.152097e+2, 2.1517964e+2, -825260.9, -928950.2, -22114.771, 0.0023005872, 0.037785176, -820741.25, 10502.206, 0.00000007649005, 10.004749, 9.990993 
5.1516134e+2, 2.2517091e+2, -750726.8, -836622.44, -22720.746, -0.0028470794, 0.040115483, -745087.1, -11758.102, 0.0000000045778927, 10.002896, 9.991498 
5.151128e+2, 2.3516244e+2, -678217.0, -750934.5, -22406.049, -0.013522923, 0.041195408, -671867.56, -36455.39, 0.00000000015488139, 10.00115, 9.991499 
5.150645e+2, 2.4515402e+2, -606285.5, -663223.1, -21710.014, -0.015184525, 0.04140439, -598952.1, -61457.582, 0.0000000000055784353, 9.999264, 9.991705 
5.150164e+2, 2.5514573e+2, -537630.7, -579210.56, -22315.836, -0.008556156, 0.040010978, -527921.2, -88345.336, 0.00000000000000000002829428, 9.997244, 9.99172 
5.149684e+2, 2.651378e+2, -462686.4, -484414.6, -20489.691, -0.014569234, 0.03997139, -450358.78, -108705.195, 0.000000000000000000000991636, 9.995319, 9.992426 
5.1492053e+2, 2.7513024e+2, -391235.38, -398948.3, -20079.463, -0.032321244, 0.040034615, -374645.4, -130917.766, 0.0, 9.993485, 9.992446 
5.1487345e+2, 2.8512302e+2, -316474.1, -305354.28, -15050.293, -0.035397246, 0.044043027, -294869.75, -149071.39, 0.0, 9.991596, 9.993052 
5.1482713e+2, 2.951162e+2, -246558.34, -220555.2, -14421.561, -0.024670962, 0.050646525, -214139.72, -166274.23, 0.0, 9.989653, 9.993074 
5.1478124e+2, 3.0511254e+2, -176013.6, -81669.914, -8777.676, -0.029629443, 0.027784213, -80860.195, -80860.195, 0.0, 9.987703, 10.000174 
5.147359e+2, 3.1511292e+2, -204033.36, -94287.66, -7524.6826, -0.047043275, 0.0422318, -93774.13, -93774.13, 0.0, 9.985747, 10.000252 
5.25651e+2, 1.2531365e+2, -1471244.8, -1712614.9, 3595.1135, 0.0407081, 0.04051122, -1471191.3, 240739.58, 0.02913137, 10.022195, 9.989195 
5.256045e+2, 1.3530298e+2, -1400553.9, -1629526.9, 2460.0508, 0.023280073, 0.05344696, -1400527.5, 213508.03, 0.019609716, 10.020141, 9.989188 
5.255575e+2, 1.4529237e+2, -1325777.8, -1538649.6, -2272.76, 0.017254554, 0.051715694, -1325753.5, 190385.73, 0.011108273, 10.018188, 9.989652 
5.255101e+2, 1.5528186e+2, -1253851.0, -1454098.3, -2070.0276, 0.02204339, 0.035549827, -1253829.6, 164412.45, 0.005035982, 10.016327, 9.989645 
5.25462e+2, 1.6527168e+2, -1180269.3, -1364540.4, -6505.6636, 0.0217685, 0.036504693, -1180039.9, 140302.0, 0.0017564618, 10.014461, 9.989975 
5.254133e+2, 1.7526183e+2, -1109455.0, -1279838.8, -7083.164, 0.016754275, 0.052374564, -1109161.0, 113277.69, 0.00046133346, 10.012591, 9.98998 
5.253642e+2, 1.852521e+2, -1035282.9, -1187277.3, -10922.313, 0.011268976, 0.054753784, -1034502.0, 90032.0, 0.0000906367, 10.0106945, 9.990527 
5.253146e+2, 1.9524252e+2, -965382.1, -1102915.6, -11438.438, 0.0054037613, 0.043666463, -964437.3, 62190.434, 0.000013321224, 10.008774, 9.99053 
5.252647e+2, 2.0523322e+2, -892548.6, -1012631.5, -14328.066, 0.002067874, 0.040128667, -890862.7, 37856.203, 0.0000014669869, 10.006858, 9.990929 
5.2521455e+2, 2.1522418e+2, -822428.06, -928100.25, -14296.775, 0.0011218768, 0.042951494, -820528.0, 10279.435, 0.00000012118741, 10.00495, 9.990933 
5.2516425e+2, 2.2521539e+2, -748867.75, -836085.25, -14819.198, -0.0038797061, 0.0453721, -746418.56, -13525.113, 0.000000007513603, 10.003024, 9.991454 
5.251139e+2, 2.3520687e+2, -679202.1, -751758.8, -15404.069, -0.012702992, 0.04634481, -676067.25, -41090.168, 0.0000000002843754, 10.001082, 9.991457 
5.2506363e+2, 2.4519847e+2, -608118.1, -663491.94, -14987.528, -0.014228143, 0.04634341, -604321.9, -67262.44, 0.000000000010553089, 9.999095, 9.991749 
5.250135e+2, 2.5519022e+2, -539584.56, -579555.0, -13998.377, -0.008866514, 0.04465319, -535169.7, -96029.375, 0.0000000000000000007464841, 9.997068, 9.99176 
5.249636e+2, 2.6518232e+2, -464908.47, -484645.3, -10919.702, -0.015165604, 0.042544503, -460058.7, -118840.945, 0.000000000000000000026149968, 9.995115, 9.992487 
5.249139e+2, 2.7517477e+2, -394214.06, -399537.0, -10766.857, -0.032566193, 0.038980413, -385784.6, -142493.1, 0.0, 9.993229, 9.992508 
5.2486485e+2, 2.8516766e+2, -321791.94, -306874.34, -6963.2544, -0.03537035, 0.04644807, -304129.2, -158767.98, 0.0, 9.991171, 9.993132 
5.2481645e+2, 2.95161e+2, -255877.39, -223994.19, -6873.3945, -0.024134783, 0.06300083, -222575.53, -175148.92, 0.0, 9.988954, 9.993156 
5.2476853e+2, 3.051573e+2, -185530.34, -84172.766, -1155.5632, -0.030033786, 0.022312192, -84159.59, -84159.59, 0.0, 9.986947, 10.000349 
5.247213e+2, 3.1515798e+2, -211142.06, -95052.0, -473.5562, -0.048429973, 0.050121874, -95050.07, -95050.07, 0.0, 9.985132, 10.000479 
5.356731e+2, 1.2536125e+2, -1475636.4, -1717267.6, -3509.776, 0.02775255, 0.05889152, -1475585.5, 235879.36, 0.038083483, 10.02219, 9.988873 
5.356247e+2, 1.3534997e+2, -1404022.1, -1633990.1, -4612.981, 0.03263639, 0.044465434, -1403929.6, 209645.66, 0.025832076, 10.020137, 9.988878 
5.355758e+2, 1.4533928e+2, -1326039.5, -1537755.6, -8732.049, 0.029437719, 0.04507815, -1325680.0, 190000.06, 0.014778471, 10.018187, 9.989705 
5.355264e+2, 1.5532912e+2, -1253716.1, -1453298.1, -8714.461, 0.01981176, 0.05743473, -1253336.4, 164443.25, 0.0067848936, 10.016328, 9.989691 
5.354764e+2, 1.6531885e+2, -1181365.5, -1366697.8, -13250.857, 0.014281838, 0.055563714, -1180422.9, 139457.28, 0.0024040467, 10.0144615, 9.98982 
5.3542584e+2, 1.7530851e+2, -1110485.4, -1281976.3, -13840.533, 0.012158586, 0.04067474, -1109375.5, 112605.76, 0.0006437254, 10.012591, 9.989826 
5.353749e+2, 1.8529864e+2, -1036194.94, -1189195.3, -17878.46, 0.010660902, 0.04054881, -1034133.56, 89944.73, 0.00012943393, 10.010694, 9.990389 
5.3532344e+2, 1.9528913e+2, -966257.06, -1104775.6, -18423.867, 0.00976904, 0.052320752, -963848.44, 62322.91, 0.000019549789, 10.008774, 9.990396 
5.352716e+2, 2.0527983e+2, -892476.6, -1012524.3, -21295.715, 0.0049204896, 0.055494267, -888810.8, 39451.715, 0.0000022222275, 10.006858, 9.990929 
5.3521943e+2, 2.1527073e+2, -822401.4, -928060.8, -21301.22, -0.003385851, 0.05041533, -818268.6, 12083.199, 0.00000019038683, 10.004948, 9.990929 
5.351672e+2, 2.2526182e+2, -749961.2, -838307.6, -21972.088, -0.006278147, 0.04959307, -744798.3, -12359.298, 0.000000012304308, 10.003019, 9.991296 
5.3511506e+2, 2.3525314e+2, -680256.5, -753858.56, -22579.834, -0.004377907, 0.051567834, -673881.56, -39357.426, 0.00000000051658605, 10.001077, 9.991308 
5.350628e+2, 2.4524482e+2, -606325.6, -659710.94, -22507.258, -0.009129354, 0.05291875, -598103.0, -61497.31, 0.00000000001995674, 9.999089, 9.992002 
5.3501046e+2, 2.5523683e+2, -537826.25, -575845.75, -21538.252, -0.0197628, 0.052903626, -528108.56, -89424.65, 0.000000000000000015153194, 9.997063, 9.992008 
5.349586e+2, 2.6522902e+2, -464651.75, -484060.16, -17966.232, -0.02337828, 0.046028547, -453936.44, -113176.11, 0.00000000000000000053060777, 9.995111, 9.992521 
5.349072e+2, 2.752214e+2, -393950.9, -398953.8, -17852.197, -0.020886762, 0.03179069, -378425.75, -135591.02, 0.0, 9.993225, 9.992542 
5.3485614e+2, 2.852144e+2, -321717.84, -306635.16, -15300.831, -0.025443183, 0.044734932, -297118.16, -152214.44, 0.0, 9.991164, 9.993142 
5.348053e+2, 2.9520792e+2, -255857.47, -223783.8, -15177.784, -0.03607511, 0.08168758, -217740.2, -170773.03, 0.0, 9.988943, 9.993167 
5.3475535e+2, 3.0520406e+2, -184997.06, -82945.016, -7941.3213, -0.042663977, 0.018000461, -82330.75, -82330.75, 0.0, 9.98694, 10.000428 
5.3470653e+2, 3.1520495e+2, -209903.55, -92502.94, -7103.758, -0.03970483, 0.060782474, -92074.66, -92074.66, 0.0, 9.985131, 10.000646 
5.4569566e+2, 1.2541088e+2, -1467832.3, -1712592.6, 3507.4038, 0.029539028, 0.062051654, -1467782.0, 243196.88, 0.0489226, 10.022951, 9.988799 
5.456452e+2, 1.3539955e+2, -1396294.9, -1630000.3, 4118.411, 0.03192022, 0.048747502, -1396222.4, 216867.53, 0.033439726, 10.020811, 9.988798 
5.455943e+2, 1.4538871e+2, -1319180.9, -1536101.1, 824.5411, 0.028384643, 0.04963361, -1319177.8, 196018.39, 0.01932358, 10.018803, 9.989495 
5.4554296e+2, 1.5537833e+2, -1246738.8, -1451805.0, -683.31934, 0.020008262, 0.062012665, -1246736.5, 170561.27, 0.008987024, 10.016909, 9.98949 
5.454911e+2, 1.6536793e+2, -1173969.0, -1363544.3, -5686.0166, 0.01474521, 0.060589947, -1173798.6, 145600.92, 0.0032369802, 10.014981, 9.989761 
5.4543865e+2, 1.7535757e+2, -1104193.0, -1279442.8, -5585.0923, 0.012157656, 0.046020024, -1104015.1, 117486.01, 0.0008846738, 10.01303, 9.989764 
5.453857e+2, 1.8534757e+2, -1031137.56, -1187929.9, -9281.048, 0.010543038, 0.04534608, -1030590.1, 93008.98, 0.000182396, 10.011074, 9.990268 
5.453324e+2, 1.9533795e+2, -961710.2, -1103742.6, -9636.994, 0.009859733, 0.056325417, -961059.3, 64634.137, 0.000028392338, 10.009118, 9.990276 
5.452786e+2, 2.0532857e+2, -888346.6, -1011027.9, -12627.721, 0.0049525704, 0.059760764, -887060.3, 40725.145, 0.000003344223, 10.007144, 9.9908695 
5.452245e+2, 2.153194e+2, -819380.4, -927072.6, -12976.522, -0.0037428336, 0.055554826, -817838.8, 12036.457, 0.00000029853047, 10.0051565, 9.990872 
5.451703e+2, 2.2531047e+2, -748421.9, -837140.4, -13421.845, -0.006097476, 0.05375148, -746435.8, -14473.112, 0.000000020207558, 10.003088, 9.99132 
5.4511607e+2, 2.353018e+2, -681587.1, -754096.0, -12630.749, -0.0027024373, 0.053249843, -679449.9, -45402.12, 0.0000000009317228, 10.000949, 9.991328 
5.450618e+2, 2.4529348e+2, -607906.56, -660215.1, -12453.009, -0.008329111, 0.05541321, -605093.2, -68964.04, 0.000000000037564098, 9.998952, 9.992009 
5.450075e+2, 2.5528553e+2, -537102.56, -575188.1, -13220.467, -0.022133501, 0.059052873, -532963.25, -94756.35, 0.00000000000000022289606, 9.997081, 9.9920225 
5.449536e+2, 2.6527777e+2, -466248.4, -483804.22, -10932.363, -0.024769377, 0.051676013, -461006.03, -120723.09, 0.000000000000000007801964, 9.994939, 9.9926 
5.449002e+2, 2.752702e+2, -402798.38, -402218.44, -10395.768, -0.017319359, 0.033187103, -392108.6, -149751.6, 0.0, 9.9925585, 9.992619 
5.44847e+2, 2.8526327e+2, -330301.2, -309942.3, -6881.9844, -0.02298664, 0.049896825, -307834.25, -163409.33, 0.0, 9.990523, 9.993203 
5.447941e+2, 2.95257e+2, -257331.83, -223679.95, -6345.5107, -0.04047378, 0.09798269, -222523.19, -176036.5, 0.0, 9.98879, 9.993226 
5.447421e+2, 3.0525294e+2, -188934.75, -83974.375, 306.58792, -0.047301494, 0.005776118, -83973.484, -83973.484, 0.0, 9.986615, 10.000492 
5.4469115e+2, 3.1525403e+2, -223935.88, -96796.15, 1304.3132, -0.036635775, 0.065946154, -96782.77, -96782.77, 0.0, 9.984048, 10.000852 
5.557188e+2, 1.2546238e+2, -1470369.9, -1710681.9, -3574.824, 0.042343736, 0.05400496, -1470316.8, 240157.81, 0.06195551, 10.022938, 9.988925 
5.556659e+2, 1.354514e+2, -1397457.1, -1628288.0, -3272.0227, 0.023069095, 0.06376835, -1397410.8, 215171.39, 0.042675115, 10.020817, 9.988902 
5.55613e+2, 1.4544038e+2, -1322864.8, -1541844.4, -5825.579, 0.016977858, 0.062846184, -1322709.9, 191980.17, 0.024913138, 10.018813, 9.989091 
5.555599e+2, 1.5542936e+2, -1249804.6, -1457341.0, -7330.8916, 0.022347182, 0.052273653, -1249546.0, 167251.92, 0.011742398, 10.0169115, 9.989102 
5.555061e+2, 1.6541885e+2, -1173813.0, -1362965.3, -12577.563, 0.021734053, 0.05442138, -1172980.4, 145920.77, 0.004302928, 10.014981, 9.989792 
5.5545175e+2, 1.7540875e+2, -1103932.3, -1278923.4, -12599.995, 0.015988214, 0.066145025, -1103029.6, 117970.37, 0.0012019469, 10.013032, 9.98979 
5.553968e+2, 1.8539874e+2, -1031708.4, -1189160.6, -16360.327, 0.01078234, 0.06624851, -1030026.4, 93071.734, 0.00025459658, 10.011074, 9.990175 
5.553414e+2, 1.9538882e+2, -962306.06, -1104978.8, -16749.205, 0.0061307247, 0.055987243, -960366.1, 64829.176, 0.000040943076, 10.009116, 9.990184 
5.552857e+2, 2.0537929e+2, -889043.2, -1012405.44, -19862.275, 0.0025378587, 0.054215934, -885924.06, 41364.633, 0.000005009349, 10.007138, 9.990769 
5.5522966e+2, 2.153701e+2, -820026.06, -928292.75, -20250.498, -0.00022351998, 0.058701716, -816362.4, 13016.334, 0.00000046669885, 10.005149, 9.990784 
5.551734e+2, 2.2536126e+2, -746958.5, -834031.9, -21298.514, -0.0036391725, 0.05782063, -742028.0, -10562.651, 0.000000033080436, 10.003081, 9.991526 
5.55117e+2, 2.3535272e+2, -680180.1, -751171.3, -20526.785, -0.0075011803, 0.051519003, -674672.25, -41123.344, 0.0000000016494084, 10.000945, 9.991521 
5.5506074e+2, 2.453444e+2, -609395.1, -663259.7, -19405.184, -0.0115476325, 0.05397209, -603132.4, -67501.914, 0.000000000069048205, 9.998948, 9.991794 
5.5500466e+2, 2.5533628e+2, -538519.3, -578057.4, -20257.766, -0.015869452, 0.06315022, -529983.06, -92273.06, 0.0000000000000024375497, 9.997075, 9.99182 
5.549486e+2, 2.6532856e+2, -465303.53, -481741.9, -19878.717, -0.019462874, 0.059635915, -452011.8, -112225.86, 0.00000000000000008529293, 9.994929, 9.992736 
5.548927e+2, 2.7532113e+2, -401917.63, -400204.8, -19274.826, -0.022388866, 0.04363067, -381767.38, -139908.88, 0.0, 9.992546, 9.992752 
5.5483747e+2, 2.8531435e+2, -329424.16, -308011.13, -13351.505, -0.028228777, 0.062197506, -301603.56, -157678.66, 0.0, 9.990518, 9.99333 
5.547829e+2, 2.953082e+2, -256323.39, -221715.4, -12887.652, -0.03654512, 0.111448236, -217443.5, -171458.31, 0.0, 9.988793, 9.99335 
5.5472875e+2, 3.0530387e+2, -188441.77, -82974.73, -9397.851, -0.043374203, -0.015017157, -82143.86, -82143.86, 0.0, 9.98661, 10.000551 
5.5467516e+2, 3.1530544e+2, -222166.7, -92691.414, -8070.939, -0.039434887, 0.08278012, -92190.24, -92190.24, 0.0, 9.984024, 10.001135 
5.65742e+2, 1.2551652e+2, -1466954.1, -1709478.9, 5482.2476, 0.04227044, 0.05611924, -1466830.3, 243114.13, 0.07754408, 10.02358, 9.988671 
5.656871e+2, 1.3550532e+2, -1390105.8, -1625768.3, 3884.818, 0.022767192, 0.069751725, -1390041.6, 222012.44, 0.05382754, 10.021617, 9.988662 
5.656322e+2, 1.4549416e+2, -1313394.5, -1537169.1, 1744.7686, 0.016620569, 0.069741055, -1313380.9, 200782.67, 0.031752106, 10.019589, 9.989009 
5.655771e+2, 1.5548305e+2, -1242021.8, -1454020.9, 2419.5068, 0.022365531, 0.057352334, -1241994.1, 174278.36, 0.0151735805, 10.017508, 9.989014 
5.6552136e+2, 1.6547239e+2, -1167435.6, -1361235.5, -2240.7424, 0.021909123, 0.05839693, -1167409.8, 150967.11, 0.005661017, 10.015478, 9.989641 
5.65465e+2, 1.7546214e+2, -1097757.8, -1277316.8, -3335.512, 0.015995778, 0.07001475, -1097695.8, 122781.39, 0.0016178155, 10.0135, 9.989647 
5.654081e+2, 1.8545204e+2, -1025928.0, -1186779.9, -7573.733, 0.011046019, 0.07016014, -1025572.2, 97004.08, 0.00035245178, 10.011469, 9.990121 
5.653507e+2, 1.9544207e+2, -958116.56, -1103349.8, -7636.0586, 0.006968329, 0.059648015, -957716.2, 66957.79, 0.000058596215, 10.009399, 9.990132 
5.6529295e+2, 2.0543247e+2, -886482.1, -1011031.4, -10371.64, 0.0039019266, 0.05729221, -885624.4, 41143.332, 0.0000074437708, 10.007287, 9.990764 
5.652348e+2, 2.154233e+2, -819724.75, -928021.4, -9996.645, 0.0017412719, 0.061217263, -818809.75, 10048.031, 0.00000072208286, 10.005144, 9.990778 
5.651765e+2, 2.2541443e+2, -746513.75, -834148.06, -11500.491, -0.003172714, 0.061369915, -745029.6, -14085.007, 0.000000053334034, 10.003105, 9.991479 
5.6511796e+2, 2.3540586e+2, -676930.2, -749873.6, -12454.242, -0.010433122, 0.057230398, -674862.4, -41833.97, 0.0000000028262686, 10.001159, 9.991482 
5.650597e+2, 2.4539757e+2, -608057.5, -661947.75, -11352.228, -0.013199756, 0.06012548, -605763.7, -70653.805, 0.0000000001219057, 9.99899, 9.991838 
5.6500155e+2, 2.5538948e+2, -544320.4, -580223.8, -10189.34, -0.01212275, 0.06847463, -541630.25, -104441.19, 0.000000000000019848652, 9.996631, 9.991859 
5.649434e+2, 2.6538175e+2, -470253.94, -483910.7, -9334.299, -0.017322067, 0.06217461, -465517.03, -126251.94, 0.00000000000000069433064, 9.99456, 9.992738 
5.6488526e+2, 2.753743e+2, -398690.3, -398365.3, -9653.712, -0.0279633, 0.041700117, -388872.72, -147534.67, 0.0, 9.992734, 9.992761 
5.6482786e+2, 2.8536764e+2, -329062.53, -306305.72, -4461.0757, -0.032057527, 0.06704024, -305462.44, -162059.31, 0.0, 9.990456, 9.993451 
5.647713e+2, 2.9536176e+2, -269766.47, -226735.61, -3962.255, -0.030363543, 0.13245352, -226373.81, -180913.16, 0.0, 9.987791, 9.9934635 
5.6471497e+2, 3.0535713e+2, -202679.56, -90155.51, -846.07385, -0.03894163, -0.03062141, -90149.15, -90149.15, 0.0, 9.98563, 10.000507 
5.6465906e+2, 3.1535885e+2, -221690.8, -89181.9, 33.044006, -0.046225503, 0.088099435, -89181.89, -89181.89, 0.0, 9.983895, 10.001413 
5.757655e+2, 1.2557296e+2, -1474660.4, -1716781.5, -881.9663, 0.03269875, 0.065731004, -1474657.3, 234734.3, 0.09609868, 10.023612, 9.988147 
5.757088e+2, 1.3556114e+2, -1396354.1, -1632773.9, -2526.85, 0.029279063, 0.068616174, -1396327.1, 215180.44, 0.06722469, 10.021618, 9.988174 
5.756519e+2, 1.4554988e+2, -1313831.9, -1534408.1, -5268.72, 0.024765186, 0.07197924, -1313706.1, 199912.03, 0.040072292, 10.019584, 9.989188 
5.755946e+2, 1.555391e+2, -1241442.9, -1451514.5, -4935.0225, 0.020357506, 0.07459629, -1241327.0, 174396.73, 0.019418983, 10.017516, 9.989169 
5.755368e+2, 1.6552831e+2, -1169420.3, -1365128.3, -9335.86, 0.016532531, 0.07040093, -1168976.0, 148853.31, 0.0073779747, 10.015489, 9.989362 
5.7547843e+2, 1.7551756e+2, -1099552.1, -1281042.6, -10433.47, 0.0128345955, 0.060024217, -1098954.4, 120980.0, 0.0021574334, 10.013504, 9.989381 
5.7541955e+2, 1.8550733e+2, -1025919.6, -1186765.4, -15000.226, 0.01137582, 0.059888877, -1024532.7, 97501.984, 0.00048322807, 10.011467, 9.990113 
5.753602e+2, 1.9549751e+2, -958099.94, -1103269.8, -15143.721, 0.011832015, 0.06709843, -956537.06, 67593.82, 0.00008293935, 10.009395, 9.990129 
5.753003e+2, 2.0548803e+2, -885758.06, -1009505.6, -18194.936, 0.008549311, 0.0679572, -883138.25, 43085.54, 0.000010907327, 10.007282, 9.99086 
5.7524e+2, 2.1547884e+2, -819067.8, -926698.0, -17847.355, 0.0021955245, 0.06306179, -816185.56, 12128.235, 0.0000010963355, 10.005141, 9.990859 
5.751796e+2, 2.2546989e+2, -748345.7, -837914.25, -18671.586, -0.0045366115, 0.06458394, -744609.25, -14207.715, 0.000000083827395, 10.003101, 9.991215 
5.7511914e+2, 2.3546116e+2, -678644.56, -753293.8, -19696.701, -0.011555763, 0.07017886, -673766.25, -41279.047, 0.0000000046527817, 10.00115, 9.991243 
5.7505864e+2, 2.4545291e+2, -605883.44, -657318.7, -20124.207, -0.013401434, 0.07360427, -598945.6, -64377.523, 0.00000000020556194, 9.99898, 9.992149 
5.7499814e+2, 2.554451e+2, -542255.75, -575837.7, -18918.43, -0.010973321, 0.07494457, -533751.56, -97106.945, 0.00000000000012116812, 9.996621, 9.992153 
5.7493794e+2, 2.654373e+2, -471038.28, -485475.9, -16146.621, -0.018401388, 0.059074786, -460570.25, -121849.54, 0.0000000000000042375678, 9.994556, 9.992623 
5.748779e+2, 2.7542964e+2, -399310.97, -399727.78, -16600.363, -0.03408652, 0.026778637, -382917.7, -142121.77, 0.0, 9.992735, 9.992658 
5.748184e+2, 2.8542313e+2, -328092.78, -304265.72, -14554.696, -0.034410544, 0.06417717, -297370.44, -154510.75, 0.0, 9.990448, 9.993582 
5.747591e+2, 2.954177e+2, -269143.94, -225001.64, -13888.4, -0.02171151, 0.16180497, -220995.53, -176082.6, 0.0, 9.987765, 9.993583 
5.747006e+2, 3.0541262e+2, -203830.88, -92221.4, -7235.016, -0.034010883, -0.040516112, -91754.35, -91754.35, 0.0, 9.985616, 10.000363 
5.7464284e+2, 3.1541446e+2, -219218.66, -84432.34, -6018.2246, -0.05690295, 0.1005362, -84164.16, -84164.16, 0.0, 9.983911, 10.001722 
5.857897e+2, 1.256318e+2, -1465934.9, -1710371.1, 6466.254, 0.030605992, 0.07212847, -1465764.0, 243051.42, 0.11808619, 10.024768, 9.987995 
5.857308e+2, 1.3561977e+2, -1391408.8, -1629814.4, 7382.4634, 0.029779036, 0.07035057, -1391180.4, 219753.0, 0.083228596, 10.022305, 9.988013 
5.856718e+2, 1.456083e+2, -1309407.9, -1533527.3, 5504.2, 0.02590563, 0.07362321, -1309272.8, 203773.17, 0.05012226, 10.020136, 9.988951 
5.856125e+2, 1.5559731e+2, -1233691.9, -1449478.5, 3599.7695, 0.020401623, 0.079972446, -1233631.8, 181521.69, 0.024623234, 10.018201, 9.98895 
5.8555263e+2, 1.6558643e+2, -1160027.1, -1360527.5, -1123.367, 0.016612569, 0.07646626, -1160020.9, 157239.3, 0.009522309, 10.016144, 9.98933 
5.8549225e+2, 1.7557564e+2, -1092205.6, -1277611.6, -535.03064, 0.013910338, 0.06406892, -1092204.1, 127161.64, 0.0028464543, 10.013999, 9.989346 
5.854312e+2, 1.8556534e+2, -1020698.1, -1184673.1, -4681.594, 0.012450435, 0.06316458, -1020564.56, 100901.984, 0.00065437343, 10.011822, 9.990053 
5.853697e+2, 1.9555546e+2, -954610.1, -1101998.9, -5060.1426, 0.012141709, 0.07095018, -954436.56, 69126.72, 0.00011562721, 10.009628, 9.990073 
5.8530766e+2, 2.0554595e+2, -882437.75, -1008323.56, -8593.936, 0.008075211, 0.07316989, -881853.8, 43802.887, 0.000015678868, 10.007504, 9.990805 
5.8524525e+2, 2.1553671e+2, -814559.06, -924886.44, -9215.331, 0.0008659651, 0.07003338, -813794.6, 13952.386, 0.0000016248742, 10.005443, 9.990809 
5.851827e+2, 2.2552773e+2, -745806.06, -836454.4, -9502.884, -0.0043917354, 0.07027292, -744820.6, -14985.498, 0.00000012793689, 10.003242, 9.991218 
5.8512026e+2, 2.3551898e+2, -681370.44, -754359.44, -8506.835, -0.008049887, 0.07230581, -680392.06, -48471.02, 0.000000007369414, 10.00093, 9.991245 
5.8505756e+2, 2.4551076e+2, -608049.56, -657765.25, -9229.534, -0.01162862, 0.07660675, -606391.44, -72389.73, 0.0000000003329113, 9.998781, 9.992183 
5.849948e+2, 2.55503e+2, -539306.7, -573764.75, -9944.632, -0.015004288, 0.08226344, -536642.6, -100565.13, 0.00000000000056124837, 9.996771, 9.992194 
5.8493245e+2, 2.6549527e+2, -470625.06, -484380.6, -7078.4814, -0.021290436, 0.06435915, -467633.25, -129480.05, 0.000000000000019624825, 9.994523, 9.992686 
5.8487034e+2, 2.7548757e+2, -407988.5, -403040.94, -6137.039, -0.03027415, 0.02484907, -398897.88, -158669.34, 0.0, 9.992081, 9.992717 
5.848085e+2, 2.8548118e+2, -336205.47, -307590.66, -4767.671, -0.031521574, 0.06865182, -306817.22, -164526.0, 0.0, 9.989843, 9.993615 
5.847469e+2, 2.9547596e+2, -268504.7, -224226.83, -4722.7764, -0.025791407, 0.18396467, -223728.69, -179386.28, 0.0, 9.987764, 9.993607 
5.846861e+2, 3.054704e+2, -207160.14, -95916.04, 2422.7134, -0.037549708, -0.059198577, -95863.305, -95863.305, 0.0, 9.9854555, 10.000159 
5.8462626e+2, 3.154723e+2, -229990.22, -84942.055, 3649.125, -0.055012904, 0.109589584, -84850.31, -84850.31, 0.0, 9.982952, 10.002123 
5.9581447e+2, 1.2569278e+2, -1472046.3, -1708197.5, -1091.5533, 0.033886664, 0.076304875, -1472041.3, 236177.05, 0.14401522, 10.024768, 9.988128 
5.957531e+2, 1.356809e+2, -1394672.1, -1628010.4, -669.59705, 0.02557244, 0.07443164, -1394670.3, 215664.55, 0.10222233, 10.022344, 9.988102 
5.9569186e+2, 1.4566915e+2, -1314876.8, -1541004.8, -1069.2074, 0.021718783, 0.07479422, -1314871.6, 197578.28, 0.062156945, 10.020179, 9.98841 
5.956307e+2, 1.5565756e+2, -1237914.8, -1456467.3, -3064.253, 0.022172434, 0.07589732, -1237871.8, 176691.7, 0.030930597, 10.018218, 9.988455 
5.955688e+2, 1.656466e+2, -1159003.4, -1357676.3, -8613.966, 0.021086369, 0.078050464, -1158630.6, 158040.34, 0.01216118, 10.016147, 9.9895115 
5.955063e+2, 1.7563613e+2, -1091029.9, -1275003.1, -8267.71, 0.018463165, 0.08001712, -1090659.1, 128114.33, 0.0037100248, 10.013997, 9.989512 
5.9544307e+2, 1.8562585e+2, -1021230.94, -1185766.1, -12643.856, 0.014058508, 0.077712245, -1020265.0, 100609.086, 0.00087334233, 10.011819, 9.989969 
5.953793e+2, 1.9561575e+2, -955105.56, -1103102.8, -13019.955, 0.008422768, 0.07148856, -953968.9, 69004.055, 0.00015838676, 10.009628, 9.989986 
5.953151e+2, 2.0560609e+2, -883625.0, -1010756.44, -16084.358, 0.0030996292, 0.07373849, -881621.6, 43445.973, 0.000022067554, 10.0075, 9.99063 
5.9525067e+2, 2.1559681e+2, -815671.75, -926991.4, -16762.85, -0.0020493001, 0.081835434, -813202.3, 13956.294, 0.0000023500538, 10.00543, 9.990661 
5.9518605e+2, 2.2558786e+2, -743944.1, -832426.2, -17996.154, -0.0028008395, 0.07806152, -740424.0, -11177.694, 0.00000019006481, 10.003229, 9.9914875 
5.951212e+2, 2.3557921e+2, -679608.56, -750644.25, -17008.389, -0.00009496828, 0.063932754, -675746.2, -44415.22, 0.000000011320178, 10.000921, 9.991491 
5.950564e+2, 2.45571e+2, -609537.94, -660789.2, -16699.68, -0.008068943, 0.06959279, -604576.75, -71165.29, 0.00000000052420235, 9.998776, 9.991968 
5.949915e+2, 2.555632e+2, -540623.56, -576414.9, -17530.557, -0.024370853, 0.0906403, -533467.8, -97979.69, 0.0000000000020111497, 9.996764, 9.992005 
5.9492695e+2, 2.6555553e+2, -468771.88, -480444.38, -16274.332, -0.025843903, 0.07834385, -457318.94, -119756.04, 0.0000000000000703147, 9.9945135, 9.992949 
5.948626e+2, 2.755481e+2, -406335.75, -399376.6, -15251.736, -0.015837671, 0.03666709, -387212.56, -147576.7, 0.0, 9.992065, 9.992963 
5.947984e+2, 2.855418e+2, -336620.38, -308255.2, -12503.248, -0.023347564, 0.08072889, -303530.72, -161833.16, 0.0, 9.989832, 9.993564 
5.9473443e+2, 2.9553655e+2, -268780.28, -224950.4, -12505.691, -0.044286355, 0.19781987, -221633.28, -177884.33, 0.0, 9.987768, 9.993544 
5.946714e+2, 3.055304e+2, -208797.97, -99397.734, -7073.6563, -0.05026125, -0.08737301, -98942.26, -98942.26, 0.0, 9.985455, 9.999908 
5.9460944e+2, 3.1553262e+2, -226417.61, -77052.76, -5349.6436, -0.037363227, 0.13491273, -76861.4, -76861.4, 0.0, 9.982926, 10.002665 
6.0583967e+2, 1.2575655e+2, -1472108.9, -1706885.9, 7711.7075, 0.035293452, 0.08085066, -1471855.8, 235738.08, 0.17432909, 10.025568, 9.987805 
6.05776e+2, 1.3574436e+2, -1386204.6, -1623583.9, 6400.438, 0.023613961, 0.0819131, -1386032.1, 223681.05, 0.124535166, 10.023532, 9.9878 
6.057126e+2, 1.4573239e+2, -1302825.9, -1534347.0, 6862.06, 0.020076206, 0.081176095, -1302622.6, 209207.86, 0.07639244, 10.021318, 9.988282 
6.056493e+2, 1.5572065e+2, -1229084.6, -1452566.4, 7707.7363, 0.023688702, 0.078210734, -1228819.1, 185126.48, 0.038462445, 10.018971, 9.988321 
6.055852e+2, 1.6570956e+2, -1152429.8, -1355335.3, 2371.1182, 0.023043135, 0.08015852, -1152402.1, 163652.33, 0.015351662, 10.016662, 9.9893875 
6.055204e+2, 1.75699e+2, -1085634.8, -1273331.6, 949.0785, 0.01877607, 0.08508674, -1085630.0, 132527.81, 0.004770264, 10.014396, 9.989403 
6.054551e+2, 1.8568867e+2, -1015572.75, -1182900.0, -3749.5366, 0.013785491, 0.08402247, -1015488.8, 104770.09, 0.0011470906, 10.012177, 9.989961 
6.053891e+2, 1.9567856e+2, -949079.44, -1100029.3, -3560.7727, 0.008314346, 0.07740532, -948995.5, 73362.35, 0.00021295964, 10.010008, 9.989982 
6.053228e+2, 2.056689e+2, -879799.0, -1008453.9, -5714.1465, 0.0039799544, 0.0778921, -879545.7, 44906.86, 0.00003041335, 10.007715, 9.990649 
6.05256e+2, 2.156596e+2, -816342.2, -926841.56, -4926.104, 0.00051006005, 0.083443165, -816123.0, 10420.663, 0.000003322695, 10.005338, 9.990681 
6.051892e+2, 2.256507e+2, -744570.5, -832095.44, -6201.193, -0.0015714831, 0.08020395, -744133.3, -15502.335, 0.00000027595493, 10.003132, 9.991522 
6.051222e+2, 2.356421e+2, -676710.5, -748596.3, -6751.2466, -0.0024277861, 0.06869013, -676081.94, -45366.836, 0.000000016989592, 10.001065, 9.991529 
6.0505515e+2, 2.4563392e+2, -608011.4, -660005.25, -6201.1597, -0.009956965, 0.07488711, -607282.0, -74486.586, 0.0000000008097939, 9.998852, 9.991953 
6.0498816e+2, 2.5562608e+2, -543717.75, -577823.8, -5452.544, -0.022941396, 0.09516059, -542867.25, -107994.92, 0.000000000005727752, 9.996523, 9.99199 
6.0492134e+2, 2.6561844e+2, -471807.47, -481242.56, -4999.1875, -0.024140947, 0.081104346, -469651.38, -132704.2, 0.00000000000020024172, 9.994249, 9.992986 
6.0485464e+2, 2.7561098e+2, -406214.84, -398604.25, -5532.681, -0.015872147, 0.03690175, -395694.6, -156674.56, 0.0, 9.992016, 9.993007 
6.047882e+2, 2.8560483e+2, -337560.7, -307819.53, -2554.9202, -0.024667997, 0.088354975, -307601.66, -166521.19, 0.0, 9.989703, 9.993624 
6.0472196e+2, 2.9559976e+2, -274568.22, -227188.38, -1665.097, -0.046970166, 0.22008099, -227129.94, -184000.08, 0.0, 9.987323, 9.993572 
6.0465664e+2, 3.0559298e+2, -218926.48, -108820.47, 2491.9834, -0.050613537, -0.10770816, -108764.1, -108764.1, 0.0, 9.98493, 9.999482 
6.0459214e+2, 3.1559512e+2, -227868.16, -71140.26, 3423.333, -0.036003526, 0.14517654, -71065.52, -71065.52, 0.0, 9.982517, 10.003237 
6.1586523e+2, 1.2582275e+2, -1484110.5, -1715093.1, 1785.276, 0.035300426, 0.0858699, -1484096.8, 222848.92, 0.20918737, 10.025681, 9.98717 
6.157995e+2, 1.3580999e+2, -1395354.1, -1631376.5, 180.5044, 0.023374274, 0.09202271, -1395353.9, 213716.88, 0.15028492, 10.023587, 9.987227 
6.1573386e+2, 1.4579786e+2, -1304744.6, -1531044.4, -754.7654, 0.02035448, 0.0915913, -1304742.1, 206447.39, 0.09290769, 10.021344, 9.988479 
6.156683e+2, 1.5578629e+2, -1229245.9, -1449886.8, -452.0291, 0.024964938, 0.08558411, -1229245.0, 184057.84, 0.04726634, 10.018991, 9.988481 
6.156019e+2, 1.6577502e+2, -1155135.0, -1360156.8, -5664.9307, 0.022931367, 0.08262487, -1154978.6, 160434.48, 0.019119274, 10.016675, 9.989039 
6.1553484e+2, 1.7576405e+2, -1087783.8, -1277715.1, -7088.621, 0.0155717805, 0.08115886, -1087519.5, 130001.1, 0.006038973, 10.014402, 9.989088 
6.1546725e+2, 1.8575364e+2, -1015042.8, -1181732.6, -11442.334, 0.012002313, 0.083664596, -1014261.0, 105361.43, 0.0014800878, 10.012173, 9.990029 
6.153991e+2, 1.9574372e+2, -948617.94, -1098766.6, -11396.271, 0.011381237, 0.08816549, -947757.94, 73961.74, 0.00028066905, 10.009991, 9.990063 
6.153305e+2, 2.0573418e+2, -878407.44, -1005302.7, -14340.089, 0.010007785, 0.085005656, -876807.1, 47006.094, 0.000041012714, 10.007698, 9.99086 
6.152615e+2, 2.1572495e+2, -814972.5, -923942.25, -13564.33, 0.007978233, 0.07566405, -813309.44, 12594.146, 0.0000045921674, 10.005329, 9.9908695 
6.151923e+2, 2.257161e+2, -745646.06, -834287.4, -13788.996, -0.00088743435, 0.0774758, -743550.56, -15560.125, 0.00000039166514, 10.003127, 9.991363 
6.1512315e+2, 2.3570755e+2, -677648.75, -750430.44, -14426.958, -0.014736596, 0.08628491, -674893.3, -44818.984, 0.000000024921842, 10.001057, 9.991396 
6.1505395e+2, 2.4569939e+2, -606615.44, -656989.8, -14866.222, -0.016891133, 0.09193439, -602555.4, -70401.195, 0.0000000012253589, 9.998841, 9.992151 
6.149848e+2, 2.556916e+2, -542459.3, -575107.6, -14134.069, -0.010453385, 0.09552328, -537190.7, -102960.08, 0.000000000013385987, 9.996512, 9.992167 
6.1491567e+2, 2.6568383e+2, -472995.16, -483587.94, -13373.237, -0.016433502, 0.07229799, -463907.7, -127601.37, 0.00000000000046794936, 9.994241, 9.992817 
6.1484647e+2, 2.7567622e+2, -407189.53, -400566.88, -13938.317, -0.03162817, 0.0249147, -389551.94, -151170.7, 0.0, 9.992009, 9.992864 
6.1477774e+2, 2.8567022e+2, -336101.75, -304736.72, -11526.704, -0.035805408, 0.09139568, -300956.28, -160516.4, 0.0, 9.9896965, 9.993825 
6.1470944e+2, 2.9566568e+2, -273573.97, -224936.13, -10569.194, -0.031599343, 0.25182623, -222738.69, -180254.11, 0.0, 9.98731, 9.993719 
6.1464167e+2, 3.056582e+2, -223208.78, -117481.445, -6522.074, -0.03748184, -0.11914608, -117080.63, -117080.63, 0.0, 9.984917, 9.998881 
6.145745e+2, 3.1566e+2, -223353.27, -61729.32, -5048.2573, -0.053703956, 0.15698288, -61571.793, -61571.793, 0.0, 9.982511, 10.003873 
6.2589186e+2, 1.2589163e+2, -1475655.1, -1705880.1, 8550.881, 0.031653542, 0.0930607, -1475338.0, 230933.14, 0.24810776, 10.027539, 9.986867 
6.2582374e+2, 1.358785e+2, -1388938.8, -1626460.1, 9493.148, 0.025040923, 0.0939578, -1388560.0, 219839.81, 0.17910606, 10.02482, 9.986931 
6.257557e+2, 1.4586614e+2, -1297902.0, -1527003.5, 8964.175, 0.023216924, 0.09316276, -1297551.8, 212969.13, 0.11146407, 10.022246, 9.988282 
6.2568766e+2, 1.5585439e+2, -1220862.4, -1446346.3, 7663.766, 0.02606986, 0.09029347, -1220602.3, 192033.53, 0.057215713, 10.019783, 9.988305 
6.256189e+2, 1.6584304e+2, -1145932.3, -1355367.4, 3222.1682, 0.023156678, 0.08798704, -1145882.6, 168864.28, 0.023412405, 10.017344, 9.989008 
6.255495e+2, 1.7583202e+2, -1079757.6, -1273732.9, 3961.1443, 0.015573937, 0.08529255, -1079676.8, 137178.08, 0.007500954, 10.01494, 9.989061 
6.254796e+2, 1.8582162e+2, -1009820.75, -1178235.1, 572.91235, 0.013027005, 0.086202584, -1009818.8, 109137.85, 0.0018694368, 10.012463, 9.990088 
6.254091e+2, 1.9581175e+2, -948189.9, -1097603.6, 720.8767, 0.014325532, 0.089098066, -948186.4, 72867.04, 0.00036128503, 10.009949, 9.990124 
6.253382e+2, 2.0580226e+2, -878378.9, -1004774.56, -2432.0278, 0.011633131, 0.087917745, -878332.1, 44814.273, 0.000053911688, 10.0076475, 9.990882 
6.2526685e+2, 2.1579309e+2, -811470.6, -921698.06, -2789.799, 0.0060008164, 0.082784176, -811400.06, 13836.078, 0.0000061771634, 10.005515, 9.990897 
6.2519556e+2, 2.2578424e+2, -742647.9, -832641.25, -2566.152, -0.002498027, 0.08401237, -742574.75, -15251.758, 0.0000005403878, 10.003294, 9.991358 
6.251242e+2, 2.3577566e+2, -677769.4, -750239.7, -2013.0082, -0.013320466, 0.08925363, -677713.5, -48306.24, 0.00000003545884, 10.001008, 9.991394 
6.2505275e+2, 2.4576753e+2, -607353.75, -656488.56, -2883.7869, -0.015163686, 0.09545745, -607185.1, -75698.29, 0.0000000017958106, 9.998724, 9.992204 
6.249813e+2, 2.557598e+2, -542525.75, -574312.56, -3051.6882, -0.009986945, 0.10206051, -542235.44, -108673.07, 0.000000000026447658, 9.996443, 9.992219 
6.249099e+2, 2.6575208e+2, -473400.16, -483914.56, -1830.4994, -0.017162845, 0.076817624, -473090.6, -137452.36, 0.0000000000009245422, 9.994189, 9.992783 
6.248384e+2, 2.7574432e+2, -407700.53, -400864.72, -1325.9163, -0.034027234, 0.024035465, -400616.56, -162902.5, 0.0, 9.991946, 9.992834 
6.2476736e+2, 2.8573844e+2, -337801.9, -304717.72, 40.40875, -0.03726787, 0.09696835, -304717.7, -164945.75, 0.0, 9.989513, 9.9938755 
6.246966e+2, 2.9573408e+2, -278531.22, -227069.86, -12.902035, -0.029532656, 0.27242225, -227069.86, -185255.19, 0.0, 9.98693, 9.993719 
6.2462646e+2, 3.057259e+2, -233239.86, -129299.5, 3752.0193, -0.033935476, -0.13574484, -129164.234, -129164.234, 0.0, 9.984502, 9.998236 
6.245568e+2, 3.1572732e+2, -221927.5, -51609.098, 5461.7856, -0.059395816, 0.16249067, -51434.13, -51434.13, 0.0, 9.982175, 10.004695 
6.3591933e+2, 1.2596287e+2, -1487158.4, -1705521.3, 1405.7361, 0.025452973, 0.10167203, -1487149.4, 218424.06, 0.28954446, 10.027648, 9.9868145 
6.358486e+2, 1.3594957e+2, -1396270.5, -1626766.3, 1474.935, 0.02816899, 0.08990977, -1396261.0, 211442.47, 0.20983002, 10.024913, 9.986843 
6.35778e+2, 1.459369e+2, -1304487.9, -1533194.3, 1147.1987, 0.027929233, 0.08837152, -1304482.1, 205345.47, 0.13129139, 10.022311, 9.987811 
6.3570744e+2, 1.5592477e+2, -1225097.9, -1451851.8, -527.18445, 0.02696803, 0.09310897, -1225096.8, 186849.78, 0.06788785, 10.019814, 9.9879 
6.356362e+2, 1.659134e+2, -1144902.5, -1351722.6, -5003.975, 0.023680007, 0.095753476, -1144781.5, 169276.27, 0.028045142, 10.017346, 9.98924 
6.3556445e+2, 1.7590265e+2, -1078508.4, -1270379.8, -4610.47, 0.018210238, 0.096072175, -1078397.8, 137765.39, 0.009092347, 10.014921, 9.9892845 
6.35492e+2, 1.8589234e+2, -1009443.8, -1177053.5, -8469.22, 0.016329413, 0.09100968, -1009017.0, 109246.99, 0.002298282, 10.012443, 9.990164 
6.354191e+2, 1.9588241e+2, -947678.6, -1096509.9, -8293.639, 0.017086793, 0.081520535, -947217.9, 73143.3, 0.00045143085, 10.009941, 9.990188 
6.353458e+2, 2.0587297e+2, -879123.06, -1006327.94, -10138.258, 0.009267579, 0.08754031, -878320.1, 44133.723, 0.00006860325, 10.007644, 9.990765 
6.3527226e+2, 2.158639e+2, -812114.25, -922912.44, -10568.548, -0.004571681, 0.10366233, -811115.2, 13427.749, 0.000008021335, 10.005506, 9.990806 
6.351988e+2, 2.2585502e+2, -741550.9, -830195.8, -10932.231, -0.0059337146, 0.09869997, -740222.56, -13592.73, 0.0000007175332, 10.003281, 9.991518 
6.3512534e+2, 2.3584634e+2, -676770.25, -748002.75, -10455.797, 0.0013953602, 0.077916585, -675267.2, -46552.355, 0.000000048332506, 10.000996, 9.99154 
6.3505155e+2, 2.4583827e+2, -607809.2, -657314.2, -11369.634, -0.0054011336, 0.08616077, -605322.9, -74528.96, 0.0000000025099562, 9.9987135, 9.992138 
6.349776e+2, 2.558307e+2, -542853.5, -574880.8, -11560.013, -0.022008475, 0.115226366, -539116.94, -106248.805, 0.000000000045132308, 9.996432, 9.992171 
6.349039e+2, 2.6582307e+2, -472456.88, -481872.75, -10238.962, -0.026182313, 0.09510972, -465895.34, -130952.266, 0.0000000000015776984, 9.994181, 9.992912 
6.3483053e+2, 2.758154e+2, -406855.88, -399039.56, -9805.076, -0.02185382, 0.034903504, -392392.47, -155374.2, 0.0, 9.991939, 9.992949 
6.34757e+2, 2.858095e+2, -338422.13, -305851.7, -9650.61, -0.028694822, 0.104966044, -303206.97, -164130.69, 0.0, 9.9895, 9.993789 
6.346834e+2, 2.9580504e+2, -279567.06, -228962.3, -9580.106, -0.042926136, 0.2801469, -227209.39, -186089.55, 0.0, 9.986913, 9.993583 
6.3461083e+2, 3.0579612e+2, -237986.88, -138943.44, -4926.3857, -0.04096182, -0.15766878, -138699.0, -138699.0, 0.0, 9.98449, 9.997566 
6.3453907e+2, 3.1579733e+2, -214383.55, -35940.996, -2683.2314, -0.049404398, 0.1803979, -35900.66, -35900.66, 0.0, 9.98217, 10.005759 
6.459479e+2, 1.260372e+2, -1483788.8, -1700446.9, 8290.123, 0.021195147, 0.10569931, -1483472.0, 221373.48, 0.3305379, 10.029406, 9.986408 
6.458743e+2, 1.3602354e+2, -1387944.3, -1620293.4, 7987.066, 0.02570152, 0.09660141, -1387670.1, 219309.2, 0.24021725, 10.026513, 9.986472 
6.45801e+2, 1.460106e+2, -1293314.3, -1525654.4, 9101.27, 0.027235618, 0.09419422, -1292958.3, 216147.55, 0.15090576, 10.023603, 9.987661 
6.4572775e+2, 1.5599827e+2, -1215632.9, -1446984.5, 10065.426, 0.027973896, 0.09586325, -1215195.8, 196030.69, 0.07845771, 10.020687, 9.987765 
6.4565384e+2, 1.6598687e+2, -1138169.8, -1347388.6, 6575.425, 0.025673723, 0.09762055, -1137963.3, 175374.97, 0.03264619, 10.017818, 9.989263 
6.4557946e+2, 1.7597614e+2, -1076523.3, -1268649.1, 6082.3433, 0.020782016, 0.0985148, -1076330.9, 139112.44, 0.010680747, 10.01501, 9.989318 
6.4550453e+2, 1.859659e+2, -1007747.44, -1175479.3, 2611.4648, 0.017780663, 0.09577796, -1007706.8, 109836.77, 0.0027296059, 10.012496, 9.990206 
6.4542913e+2, 1.9595604e+2, -942809.5, -1093391.5, 2738.2405, 0.016188858, 0.089570954, -942759.7, 76880.42, 0.0005430515, 10.010208, 9.990231 
6.4535356e+2, 2.0594661e+2, -874702.06, -1003715.0, 2030.0968, 0.0082085915, 0.09439293, -874670.1, 47062.49, 0.00008373124, 10.007893, 9.990782 
6.4527786e+2, 2.1593751e+2, -810396.4, -921543.06, 2627.8718, -0.0042841183, 0.106754854, -810334.3, 13487.582, 0.000009949219, 10.005567, 9.990827 
6.4520204e+2, 2.2592868e+2, -741545.56, -829434.6, 2016.4844, -0.0050427355, 0.10165764, -741499.3, -15590.883, 0.0000009058085, 10.003215, 9.991559 
6.451263e+2, 2.3592006e+2, -677931.8, -747828.56, 1884.5452, 0.0026337593, 0.08257311, -677881.06, -49888.184, 0.00000006225667, 10.000851, 9.99158 
6.450503e+2, 2.45912e+2, -608152.44, -657705.1, 1401.5077, -0.005181939, 0.09158618, -608112.8, -78040.92, 0.0000000032950485, 9.998668, 9.992093 
6.449741e+2, 2.5590438e+2, -539946.8, -573639.4, 1462.664, -0.024169153, 0.12136138, -539883.4, -107736.85, 0.0000000000673668, 9.996606, 9.992131 
6.448981e+2, 2.658967e+2, -470683.28, -481006.47, 1524.968, -0.027295874, 0.10036392, -470462.72, -136240.83, 0.0000000000023549513, 9.994268, 9.992888 
6.4482236e+2, 2.7588898e+2, -409321.16, -400120.03, 894.06146, -0.019041937, 0.038061168, -400033.97, -163736.44, 0.0, 9.991732, 9.992935 
6.4474636e+2, 2.8588313e+2, -340325.53, -305918.5, 903.2241, -0.027258283, 0.111741506, -305894.8, -167539.89, 0.0, 9.9893, 9.99384 
6.4467025e+2, 2.958788e+2, -279009.4, -228855.4, 2139.2412, -0.047081877, 0.29374933, -228764.31, -188366.92, 0.0, 9.986924, 9.993542 
6.445953e+2, 3.0586913e+2, -245151.9, -152361.0, 6134.4614, -0.040144555, -0.16531278, -151957.2, -151957.2, 0.0, 9.984397, 9.996651 
6.44521e+2, 3.158697e+2, -212685.77, -23250.063, 6967.7563, -0.04907805, 0.18640278, -22994.123, -22994.123, 0.0, 9.981745, 10.006799 
6.5597725e+2, 1.2611417e+2, -1497286.0, -1706544.3, 1375.9745, 0.018335693, 0.10698917, -1497277.0, 206814.64, 0.36669, 10.029497, 9.985784 
6.559008e+2, 1.3610002e+2, -1397334.5, -1627404.3, 216.29443, 0.019202895, 0.11124688, -1397334.4, 208895.95, 0.26695454, 10.0265875, 9.985928 
6.5582454e+2, 1.460869e+2, -1296337.4, -1523534.5, 360.6993, 0.022671347, 0.107712716, -1296336.8, 212021.89, 0.16812085, 10.023636, 9.987767 
6.557485e+2, 1.5607457e+2, -1216917.3, -1445464.4, 411.6185, 0.02913682, 0.09850713, -1216916.5, 193562.61, 0.08771252, 10.020672, 9.987855 
6.556717e+2, 1.6606309e+2, -1139743.4, -1348949.8, -3111.4487, 0.028763222, 0.09498866, -1139697.1, 172894.48, 0.03666826, 10.017796, 9.98915 
6.5559447e+2, 1.7605223e+2, -1077290.4, -1269821.9, -3651.6206, 0.023237286, 0.0943486, -1077221.1, 137476.75, 0.012069057, 10.014999, 9.989225 
6.55517e+2, 1.8604207e+2, -1007493.3, -1174808.4, -5418.054, 0.017622815, 0.10085663, -1007318.06, 109479.57, 0.003107308, 10.012487, 9.99024 
6.554393e+2, 1.960324e+2, -942549.4, -1092544.6, -5416.679, 0.012156356, 0.11112588, -942354.06, 76538.32, 0.00062362006, 10.010189, 9.990282 
6.553615e+2, 2.0602301e+2, -873712.3, -1001321.44, -6321.86, 0.008472864, 0.107094795, -873399.9, 47584.664, 0.00009711873, 10.007872, 9.99094 
6.5528345e+2, 2.160138e+2, -809460.56, -919315.06, -5832.089, 0.0058482173, 0.093537234, -809151.8, 13922.704, 0.000011668982, 10.005548, 9.9909725 
6.552053e+2, 2.2600508e+2, -741821.8, -829871.9, -6650.843, -0.00056155014, 0.09439745, -741322.25, -16162.164, 0.0000010753143, 10.003202, 9.99152 
6.55127e+2, 2.3599671e+2, -678080.4, -748127.2, -6724.8774, -0.00927688, 0.10298117, -677440.6, -50198.195, 0.000000074916784, 10.000844, 9.991548 
6.5504885e+2, 2.4598862e+2, -608063.8, -657483.8, -6243.868, -0.013920549, 0.11100772, -607287.2, -77965.516, 0.000000004015485, 9.998662, 9.992097 
6.5497077e+2, 2.559808e+2, -539962.8, -573602.0, -6398.1265, -0.016078763, 0.11996205, -538787.0, -107388.9, 0.000000000088660516, 9.996598, 9.992124 
6.5489244e+2, 2.6597297e+2, -471789.16, -483168.34, -8030.1694, -0.020626524, 0.09216205, -467637.25, -134162.31, 0.0000000000030993125, 9.994255, 9.992731 
6.54814e+2, 2.7596512e+2, -410212.6, -401737.13, -8574.974, -0.026645964, 0.03308964, -396409.88, -160858.02, 0.0, 9.991715, 9.992817 
6.547356e+2, 2.8595945e+2, -338737.13, -302442.5, -7969.695, -0.03332596, 0.11734234, -300769.6, -163162.0, 0.0, 9.989286, 9.994069 
6.5465724e+2, 2.9595548e+2, -278272.94, -227345.08, -6709.423, -0.040421948, 0.31420508, -226475.98, -186829.45, 0.0, 9.986919, 9.993631 
6.5457976e+2, 3.059451e+2, -253281.06, -169187.81, -3814.8054, -0.03062176, -0.15610978, -169015.11, -169015.11, 0.0, 9.984389, 9.995485 
6.5450263e+2, 3.159446e+2, -205744.48, -8563.698, -2570.8335, -0.05986583, 0.19502479, -8530.186, -8530.186, 0.0, 9.981725, 10.0078 
6.660077e+2, 1.2619409e+2, -1493485.0, -1700977.3, 6356.0537, 0.0394411, 0.11533103, -1493290.5, 210018.67, 0.3926924, 10.030919, 9.98553 
6.659282e+2, 1.3617961e+2, -1389949.9, -1621145.9, 7788.5884, 0.02928092, 0.11375853, -1389687.9, 215762.94, 0.28607574, 10.027855, 9.985696 
6.658487e+2, 1.4616635e+2, -1288766.6, -1517794.5, 8507.873, 0.028022619, 0.1100434, -1288451.1, 219129.4, 0.18034558, 10.024494, 9.987696 
6.657693e+2, 1.5615399e+2, -1213949.3, -1443411.8, 8831.33, 0.03386149, 0.10390279, -1213609.9, 196091.39, 0.094230935, 10.020963, 9.987807 
6.656896e+2, 1.6614252e+2, -1137163.9, -1346628.5, 7894.2876, 0.03168868, 0.10139835, -1136866.8, 174946.86, 0.03947639, 10.01794, 9.989192 
6.656096e+2, 1.761317e+2, -1072386.3, -1266553.0, 8812.589, 0.023703126, 0.100512214, -1071987.0, 141932.56, 0.013030206, 10.015274, 9.989266 
6.655296e+2, 1.8612154e+2, -1003982.94, -1172760.3, 8635.163, 0.01768345, 0.10529032, -1003542.3, 112476.984, 0.0033669428, 10.012678, 9.990238 
6.654495e+2, 1.9611186e+2, -942313.9, -1091936.1, 8639.554, 0.013098888, 0.11322272, -941816.6, 76297.6, 0.0006787213, 10.010147, 9.990296 
6.653693e+2, 2.061025e+2, -874539.44, -1000597.06, 7820.4785, 0.009824379, 0.11032614, -874056.1, 46149.695, 0.000106248866, 10.00773, 9.991012 
6.652889e+2, 2.1609344e+2, -810448.44, -918792.7, 7963.7754, 0.0074725393, 0.09954963, -809866.2, 12428.68, 0.000012840993, 10.0054, 9.991034 
6.652086e+2, 2.2608468e+2, -740553.56, -829848.4, 7455.9346, -0.0005960308, 0.100508235, -739935.25, -15554.699, 0.0000011909134, 10.00328, 9.991439 
6.6512805e+2, 2.360762e+2, -671247.06, -745293.0, 7207.0415, -0.012556802, 0.10813824, -670552.1, -44088.33, 0.00000008356153, 10.001296, 9.991478 
6.6504765e+2, 2.4606808e+2, -603094.06, -655043.06, 7108.956, -0.015729256, 0.11530992, -602138.8, -73595.305, 0.0000000045086033, 9.998963, 9.992072 
6.6496736e+2, 2.560602e+2, -542414.3, -574786.3, 6948.3643, -0.012937952, 0.12285219, -540985.94, -110365.62, 0.000000000103428335, 9.996394, 9.992095 
6.648867e+2, 2.6605234e+2, -473529.13, -484596.9, 5691.262, -0.018307185, 0.09585855, -471124.84, -138427.19, 0.0000000000036155668, 9.994125, 9.992649 
6.648058e+2, 2.7604443e+2, -405295.13, -399867.28, 5758.1177, -0.029272199, 0.039463997, -396215.56, -161440.39, 0.0, 9.992037, 9.992741 
6.6472495e+2, 2.8603867e+2, -334198.06, -300458.56, 4596.277, -0.036744867, 0.12303897, -299843.63, -163012.05, 0.0, 9.989569, 9.99402 
6.646441e+2, 2.9603463e+2, -279857.38, -229607.27, 3866.0457, -0.04151301, 0.31665158, -229311.56, -190440.23, 0.0, 9.986839, 9.993472 
6.6456413e+2, 3.0602366e+2, -262782.25, -185853.05, 5937.498, -0.025412194, -0.14660153, -185397.47, -185397.47, 0.0, 9.984223, 9.994382 
6.6448426e+2, 3.1602207e+2, -197815.17, 8774.776, 7957.214, -0.06507598, 0.1959523, 9080.811, 9080.811, 0.0, 9.981651, 10.008984 
6.759562e+2, 1.3626191e+2, -1392754.1, -1621228.4, -235.09962, 0.05084914, 0.10762403, -1392753.9, 211890.63, 0.29396585, 10.027767, 9.985704 
6.758733e+2, 1.4624856e+2, -1291570.6, -1520447.0, -1811.3448, 0.04044613, 0.1047113, -1291556.4, 215218.73, 0.18525621, 10.024416, 9.987526 
6.7579037e+2, 1.5623617e+2, -1215373.8, -1445040.0, -2290.919, 0.041084364, 0.11164379, -1215350.9, 193545.58, 0.096761964, 10.0209255, 9.987691 
6.757075e+2, 1.6622482e+2, -1136171.9, -1343774.4, -1054.1248, 0.03440481, 0.11483695, -1136166.5, 174841.19, 0.040523123, 10.017914, 9.989379 
6.756249e+2, 1.762142e+2, -1071563.4, -1264024.1, -486.11777, 0.022553617, 0.11490143, -1071562.1, 141549.52, 0.013372382, 10.015233, 9.98944 
6.7554224e+2, 1.8620402e+2, -1004258.7, -1172724.5, -334.96997, 0.018012937, 0.10890213, -1004258.0, 110953.5, 0.0034550366, 10.012644, 9.99024 
6.754597e+2, 1.9619416e+2, -942295.7, -1091622.5, -337.89154, 0.018260954, 0.09877778, -942294.94, 75013.16, 0.0006965577, 10.010126, 9.99031 
6.75377e+2, 2.0618494e+2, -874289.56, -1000032.6, -561.6185, 0.011871585, 0.10604395, -874287.06, 45111.44, 0.00010907892, 10.00772, 9.991037 
6.7529434e+2, 2.1617615e+2, -810202.2, -918349.1, -364.18008, 0.001318922, 0.12329568, -810200.94, 11283.826, 0.000013190617, 10.005396, 9.99105 
6.752118e+2, 2.261673e+2, -741106.5, -830972.25, 231.3156, -0.0045205695, 0.11835482, -741105.94, -17534.47, 0.000001224246, 10.003274, 9.991349 
6.751294e+2, 2.3615846e+2, -671796.56, -746246.6, -310.79382, -0.007452893, 0.09829544, -671795.3, -46137.27, 0.00000008597364, 10.001284, 9.991404 
6.750466e+2, 2.4615029e+2, -603281.44, -655249.5, -2476.7866, -0.011052759, 0.10526248, -603163.7, -75425.51, 0.0000000046431152, 9.998947, 9.992048 
6.749637e+2, 2.561426e+2, -542544.8, -574872.5, -2458.525, -0.015064295, 0.13053016, -542358.9, -112545.24, 0.000000000107120667, 9.996379, 9.992081 
6.748808e+2, 2.661348e+2, -473282.63, -483958.2, -2092.138, -0.020327184, 0.1119806, -472887.25, -140997.22, 0.0000000000037446352, 9.994116, 9.9926815 
6.747979e+2, 2.7612695e+2, -405195.66, -399696.13, -2231.667, -0.026439002, 0.05793743, -398904.5, -164937.52, 0.0, 9.992034, 9.992739 
6.7471457e+2, 2.861209e+2, -336360.3, -304930.6, -5646.454, -0.03756306, 0.12833565, -303946.97, -167920.61, 0.0, 9.98956, 9.993701 
6.746308e+2, 2.9611626e+2, -282739.56, -235375.11, -6253.68, -0.05173702, 0.2982369, -234563.33, -196491.72, 0.0, 9.986822, 9.993068 
6.745484e+2, 3.0610487e+2, -269817.1, -200259.77, -3642.1724, -0.025046516, -0.13588484, -200069.58, -200069.58, 0.0, 9.984211, 9.993384 
6.7446595e+2, 3.1610245e+2, -188037.75, 29004.434, -1406.3262, -0.06201119, 0.20955172, 29013.545, 29013.545, 0.0, 9.981646, 10.010359 
6.8606997e+2, 1.2636192e+2, -1493901.1, -1698693.9, 4496.3247, 0.08907064, 0.1327828, -1493802.5, 207863.11, 0.39677584, 10.030797, 9.9857025 
6.859839e+2, 1.3634744e+2, -1393859.4, -1621320.6, 6014.422, 0.06410944, 0.114905946, -1393700.4, 210106.52, 0.2886199, 10.027352, 9.985851 
6.858976e+2, 1.463342e+2, -1293310.6, -1521173.0, 6404.4014, 0.049149357, 0.11180832, -1293130.8, 212805.75, 0.18159331, 10.024086, 9.987584 
6.858113e+2, 1.5632185e+2, -1213132.6, -1443079.3, 8381.702, 0.04215781, 0.11726219, -1212827.6, 195229.86, 0.09464715, 10.020962, 9.987751 
6.8572545e+2, 1.6631052e+2, -1134746.9, -1342738.1, 11769.291, 0.034198035, 0.11992854, -1134083.0, 176085.33, 0.039530843, 10.017938, 9.989385 
6.8564004e+2, 1.7629991e+2, -1073878.0, -1264587.6, 11925.449, 0.024896134, 0.11997535, -1073135.1, 139137.13, 0.013002517, 10.014998, 9.989463 
6.855548e+2, 1.8628977e+2, -1006099.9, -1172807.6, 13500.412, 0.020478318, 0.114917554, -1005013.6, 109358.01, 0.0033468327, 10.012441, 9.990283 
6.8546987e+2, 1.9627997e+2, -941177.0, -1090430.3, 14023.187, 0.019421875, 0.10601988, -939870.9, 76596.81, 0.0006719116, 10.010134, 9.990336 
6.853848e+2, 2.062707e+2, -871633.06, -999940.7, 13992.602, 0.01129447, 0.112836465, -870124.8, 48433.965, 0.000104740306, 10.007914, 9.990901 
6.852999e+2, 2.1626174e+2, -804970.0, -916740.06, 13306.979, -0.001307171, 0.1290962, -803407.56, 17238.889, 0.000012604657, 10.0057535, 9.990938 
6.852152e+2, 2.2625287e+2, -737891.94, -829097.25, 14150.149, -0.0050227717, 0.1243206, -735747.06, -13013.487, 0.0000011639531, 10.003441, 9.991349 
6.8513054e+2, 2.3624402e+2, -674810.94, -747526.56, 14393.004, -0.003169754, 0.10460504, -672065.7, -47245.57, 0.00000008128996, 10.001031, 9.991389 
6.850456e+2, 2.4623574e+2, -604285.1, -656964.4, 11896.602, -0.008949134, 0.11066642, -601723.1, -74821.95, 0.0000000043687347, 9.998892, 9.991908 
6.8496025e+2, 2.562279e+2, -534803.75, -572252.9, 11226.93, -0.019491173, 0.13474284, -531695.94, -102717.83, 0.00000000009807312, 9.996917, 9.991951 
6.8487513e+2, 2.6622003e+2, -466660.0, -481698.0, 10498.391, -0.023160828, 0.11983643, -461265.75, -130210.445, 0.0000000000034283787, 9.99457, 9.99257 
6.8478996e+2, 2.7621213e+2, -405875.63, -400854.94, 9358.827, -0.022610893, 0.07228543, -393675.63, -160542.92, 0.0, 9.991984, 9.992639 
6.847042e+2, 2.862059e+2, -335041.9, -304771.28, 6216.063, -0.036435, 0.13255101, -303544.53, -168350.7, 0.0, 9.989631, 9.993629 
6.846179e+2, 2.96201e+2, -275102.9, -233806.33, 7477.153, -0.059163053, 0.28176978, -232494.22, -195252.34, 0.0, 9.987395, 9.992846 
6.8453276e+2, 3.0618927e+2, -271787.5, -213779.77, 8783.812, -0.023111261, -0.10802761, -212478.84, -212478.84, 0.0, 9.984575, 9.992229 
6.8444747e+2, 3.161855e+2, -183413.73, 44459.184, 9690.919, -0.063105084, 0.20133337, 44870.574, 44870.574, 0.0, 9.981353, 10.011513 
6.9610065e+2, 1.2644981e+2, -1486235.3, -1696735.1, -2905.657, 0.08525024, 0.13251944, -1486195.1, 214609.58, 0.3726433, 10.0305395, 9.985968 
6.960113e+2, 1.3643578e+2, -1388588.6, -1618195.1, -2785.704, 0.0717513, 0.13172698, -1388554.9, 214387.14, 0.27048734, 10.027165, 9.986126 
6.959218e+2, 1.4642279e+2, -1290021.1, -1518099.5, -2703.9456, 0.055027645, 0.1274995, -1289989.0, 215079.98, 0.16968286, 10.023946, 9.987837 
6.958322e+2, 1.5641057e+2, -1211405.8, -1440291.0, -1720.0956, 0.03862432, 0.12118487, -1211392.9, 195795.72, 0.08808866, 10.020852, 9.987969 
6.957433e+2, 1.6639924e+2, -1135574.0, -1344334.1, 1725.6691, 0.031900898, 0.11879729, -1135559.8, 173739.75, 0.03660275, 10.017866, 9.989288 
6.9565505e+2, 1.7638853e+2, -1074356.9, -1265369.9, 1894.4846, 0.030028747, 0.11789829, -1074338.0, 137066.45, 0.011962835, 10.014963, 9.989406 
6.9556725e+2, 1.8637854e+2, -1005340.0, -1171092.6, 5389.101, 0.024471303, 0.12338459, -1005164.94, 108337.5, 0.003055955, 10.0124235, 9.99039 
6.954799e+2, 1.96369e+2, -940758.8, -1089340.5, 5812.572, 0.017117634, 0.13171114, -940531.75, 75064.125, 0.00060820684, 10.010116, 9.990401 
6.953927e+2, 2.063595e+2, -873427.94, -1003412.4, 6233.411, 0.008584173, 0.128571, -873129.7, 44559.242, 0.00009389566, 10.007896, 9.990656 
6.953056e+2, 2.1635008e+2, -806374.75, -919380.56, 5421.085, -0.00072638004, 0.11848054, -806115.25, 13666.151, 0.000011180809, 10.005735, 9.99075 
6.9521856e+2, 2.2634125e+2, -737113.7, -827338.56, 5322.19, -0.0025147903, 0.120098956, -736800.9, -14932.8125, 0.0000010208998, 10.003427, 9.991459 
6.9513166e+2, 2.3633276e+2, -674217.9, -746287.9, 5695.0273, 0.00020220262, 0.12684636, -673770.6, -49819.51, 0.000000070413755, 10.001022, 9.991461 
6.9504446e+2, 2.4632439e+2, -605765.7, -660008.94, 4568.9785, -0.009404654, 0.13078953, -605383.5, -79350.25, 0.0000000037413357, 9.998887, 9.991687 
6.9495714e+2, 2.5631613e+2, -536254.1, -575205.8, 3587.07, -0.026335599, 0.13505016, -535926.56, -107812.31, 0.000000000078510295, 9.99691, 9.991736 
6.9486964e+2, 2.66308e+2, -468279.0, -484941.9, 729.699, -0.026862258, 0.11912805, -468247.13, -138053.44, 0.00000000000274454, 9.994556, 9.992336 
6.9478196e+2, 2.7629998e+2, -407138.44, -403187.9, -183.33476, -0.017671218, 0.08219875, -403179.4, -170907.13, 0.0, 9.991963, 9.992471 
6.946938e+2, 2.8629377e+2, -333317.34, -301086.84, -2020.6849, -0.033094976, 0.1356741, -300960.66, -166627.22, 0.0, 9.989622, 9.993868 
6.9460523e+2, 2.962889e+2, -274574.63, -233100.83, -1044.5428, -0.06340222, 0.26793742, -233074.53, -196693.67, 0.0, 9.987407, 9.99287 
6.945174e+2, 3.0627707e+2, -280702.2, -232436.6, -3224.1433, -0.019587044, -0.059752695, -232222.17, -232222.17, 0.0, 9.9845705, 9.990932 
6.944287e+2, 3.1627154e+2, -177907.7, 56425.42, -2504.175, -0.0679478, 0.18884788, 56452.18, 56452.18, 0.0, 9.981315, 10.012331 
7.061302e+2, 1.2654085e+2, -1488143.8, -1701068.9, 3002.0222, 0.087765045, 0.1347115, -1488101.5, 211811.5, 0.33492044, 10.028749, 9.986323 
7.0603764e+2, 1.3652723e+2, -1392640.0, -1621971.6, 4686.068, 0.070887506, 0.13883291, -1392544.3, 209502.19, 0.24230856, 10.025798, 9.986478 
7.059451e+2, 1.4651453e+2, -1296396.4, -1521520.8, 6454.859, 0.055868335, 0.1360834, -1296211.4, 207959.11, 0.15131733, 10.022857, 9.988077 
7.058526e+2, 1.5650256e+2, -1218868.6, -1442566.3, 8532.207, 0.04382137, 0.12902774, -1218543.6, 187744.13, 0.0780766, 10.019962, 9.988192 
7.05761e+2, 1.6649133e+2, -1141560.9, -1347264.8, 14054.189, 0.03575503, 0.12618048, -1140605.0, 167792.64, 0.032187168, 10.017316, 9.989303 
7.0566994e+2, 1.7648064e+2, -1075023.9, -1265359.6, 15465.3955, 0.02948504, 0.12509823, -1073775.4, 136727.16, 0.01041715, 10.014835, 9.989412 
7.055797e+2, 1.8647058e+2, -1004865.4, -1171686.3, 19818.123, 0.02347232, 0.13045835, -1002543.3, 110057.72, 0.0026303278, 10.012444, 9.990286 
7.0549005e+2, 1.9646095e+2, -940562.2, -1089826.5, 19188.451, 0.017709075, 0.13889296, -938134.9, 76560.516, 0.00051656715, 10.010111, 9.990321 
7.054006e+2, 2.064514e+2, -873401.8, -1003381.94, 20683.264, 0.009874916, 0.1345061, -870189.94, 46599.094, 0.00007856968, 10.007855, 9.990626 
7.053113e+2, 2.1644191e+2, -807046.8, -919817.5, 21485.813, 0.0009227315, 0.121958286, -803091.9, 15790.098, 0.000009204167, 10.005651, 9.990706 
7.0522213e+2, 2.2643298e+2, -735397.1, -828067.8, 20799.408, -0.0022671656, 0.1251533, -730942.9, -9973.3, 0.0000008257152, 10.003568, 9.991287 
7.051329e+2, 2.3642437e+2, -666755.25, -744033.75, 19449.637, -0.0020219763, 0.1363313, -662136.2, -39082.26, 0.000000055822266, 10.001548, 9.991311 
7.0504355e+2, 2.4641587e+2, -599276.6, -657757.2, 18414.355, -0.010678039, 0.13821256, -593961.44, -68823.945, 0.0000000029115543, 9.999327, 9.991579 
7.049541e+2, 2.564074e+2, -535252.4, -575628.75, 18362.648, -0.024766894, 0.13627996, -528150.5, -100930.375, 0.00000000005413553, 9.996975, 9.991624 
7.0486426e+2, 2.6639923e+2, -466152.1, -485387.38, 15440.354, -0.025898386, 0.12541656, -457579.0, -128278.586, 0.0000000000018924612, 9.994721, 9.99217 
7.0477426e+2, 2.7639118e+2, -399424.0, -400761.0, 15193.029, -0.0190482, 0.10001811, -384884.78, -153505.27, 0.0, 9.992504, 9.992319 
7.0468366e+2, 2.8638464e+2, -326042.03, -298249.44, 12110.326, -0.035003774, 0.13730225, -293712.97, -160269.6, 0.0, 9.990107, 9.993774 
7.045927e+2, 2.963794e+2, -272713.22, -234241.69, 10332.567, -0.06493349, 0.23837769, -231642.23, -196147.4, 0.0, 9.987579, 9.99266 
7.0450217e+2, 3.063678e+2, -283619.5, -243124.03, 6720.829, -0.01272812, -0.0041790293, -242037.73, -242037.73, 0.0, 9.984723, 9.990072 
7.044101e+2, 3.163608e+2, -166616.55, 71671.82, 10128.411, -0.0747473, 0.16748746, 72101.55, 72101.55, 0.0, 9.981617, 10.01317 
7.16159e+2, 1.266346e+2, -1473863.6, -1697031.4, -4085.6108, 0.094004676, 0.13835385, -1473788.9, 225205.84, 0.28901803, 10.028454, 9.98677 
7.160634e+2, 1.3662139e+2, -1382801.4, -1616763.9, -3436.5776, 0.06399512, 0.1393911, -1382750.9, 218373.31, 0.20811976, 10.025584, 9.98691 
7.159679e+2, 1.4660908e+2, -1290941.3, -1518364.8, -2304.0222, 0.053417157, 0.14007053, -1290918.0, 212326.77, 0.12913321, 10.022699, 9.988344 
7.158727e+2, 1.5659742e+2, -1215894.8, -1439202.4, -844.8028, 0.05547985, 0.13992153, -1215891.5, 189467.25, 0.06606083, 10.019851, 9.98845 
7.157784e+2, 1.6658643e+2, -1140536.6, -1345579.5, 5555.4873, 0.04389543, 0.1400089, -1140386.3, 167080.33, 0.026935484, 10.017242, 9.989431 
7.156847e+2, 1.7657585e+2, -1074604.9, -1264149.9, 6769.715, 0.024316309, 0.13952437, -1074363.4, 135206.69, 0.008600601, 10.014789, 9.989496 
7.155921e+2, 1.8656562e+2, -1006740.44, -1175136.6, 11525.032, 0.01864958, 0.13610029, -1005955.3, 105714.94, 0.0021375637, 10.012412, 9.990048 
7.155002e+2, 1.9655563e+2, -941849.06, -1092121.9, 10950.416, 0.020821977, 0.13057327, -941055.3, 72712.92, 0.00041235698, 10.010085, 9.990158 
7.154085e+2, 2.0654619e+2, -872085.7, -1000497.25, 12764.091, 0.014469217, 0.13271923, -870829.25, 45031.523, 0.00006149391, 10.00784, 9.990813 
7.1531695e+2, 2.1653704e+2, -806177.2, -918026.1, 13546.992, 0.003387712, 0.13843521, -804559.8, 13390.424, 0.000007050321, 10.005645, 9.990814 
7.1522564e+2, 2.2652791e+2, -738091.8, -833622.5, 13393.319, -0.0042143627, 0.13821784, -736249.6, -16209.776, 0.00000061789376, 10.003562, 9.990894 
7.151343e+2, 2.3651877e+2, -669011.2, -748578.4, 11868.566, -0.009632975, 0.13329542, -667278.56, -45149.023, 0.000000040650132, 10.001537, 9.990989 
7.150428e+2, 2.4651012e+2, -599031.44, -657101.0, 9647.628, -0.012516254, 0.13355485, -597470.5, -73256.16, 0.000000002066996, 9.999312, 9.991612 
7.1495116e+2, 2.5650176e+2, -535076.94, -575100.94, 9659.109, -0.014507024, 0.13881096, -532867.8, -106571.81, 0.00000000003168042, 9.996961, 9.99165 
7.1485907e+2, 2.6649368e+2, -466505.16, -485969.4, 7175.007, -0.020377846, 0.1390754, -464146.16, -135770.8, 0.0000000000011074602, 9.99471, 9.992119 
7.147667e+2, 2.7648568e+2, -400018.47, -402016.63, 6875.0146, -0.027711876, 0.12633441, -394070.3, -163616.58, 0.0, 9.992499, 9.992217 
7.146737e+2, 2.864786e+2, -328924.84, -304270.25, 2691.8015, -0.04271136, 0.13688833, -303979.78, -171456.73, 0.0, 9.990101, 9.993344 
7.1458024e+2, 2.9647243e+2, -275753.44, -240385.53, 671.80084, -0.06305338, 0.19058095, -240372.78, -205789.38, 0.0, 9.987564, 9.992227 
7.1448696e+2, 3.0646163e+2, -285605.53, -247085.31, -4667.831, -0.0020331694, 0.060465578, -246527.73, -246527.73, 0.0, 9.984705, 9.989786 
7.1439165e+2, 3.164538e+2, -160884.25, 83415.3, -1913.2252, -0.08259543, 0.17032456, 83430.28, 83430.28, 0.0, 9.981609, 10.013957 
7.261862e+2, 1.2673141e+2, -1479240.1, -1703269.5, 3705.818, 0.09391323, 0.1462322, -1479178.8, 218867.72, 0.2403476, 10.026236, 9.987316 
7.26088e+2, 1.3671872e+2, -1390081.0, -1620973.8, 5759.533, 0.06495179, 0.14479908, -1389937.4, 210233.6, 0.17198661, 10.023838, 9.987416 
7.259899e+2, 1.4670679e+2, -1300590.0, -1523678.1, 7923.9434, 0.054402407, 0.14585844, -1300308.9, 201979.08, 0.10580351, 10.021336, 9.98859 
7.2589195e+2, 1.5669541e+2, -1224875.9, -1442207.8, 10264.711, 0.05624361, 0.1477248, -1224392.1, 180007.38, 0.05351674, 10.018838, 9.988683 
7.257952e+2, 1.6668454e+2, -1148199.9, -1348743.9, 18122.34, 0.044826023, 0.14809649, -1146575.4, 159930.45, 0.021509185, 10.016546, 9.989502 
7.256993e+2, 1.7667404e+2, -1078910.8, -1265299.4, 19316.09, 0.025386171, 0.1469217, -1076930.0, 131678.61, 0.0067493515, 10.014381, 9.989564 
7.2560436e+2, 1.8666382e+2, -1009454.75, -1176556.8, 25113.547, 0.019833108, 0.14291841, -1005762.06, 104946.664, 0.0016440881, 10.012179, 9.990011 
7.255102e+2, 1.9665377e+2, -942966.94, -1092775.3, 26082.291, 0.02217364, 0.13660902, -938555.75, 74251.35, 0.00031018397, 10.009967, 9.990114 
7.2541636e+2, 2.0664424e+2, -871119.2, -1001137.2, 27795.453, 0.015107871, 0.13929348, -865426.3, 49474.16, 0.000045160534, 10.007909, 9.990683 
7.253228e+2, 2.1663499e+2, -801899.3, -916917.9, 26685.063, 0.0029086496, 0.14679945, -796009.8, 20981.209, 0.0000050465515, 10.005934, 9.990702 
7.252293e+2, 2.2662574e+2, -734108.9, -832734.44, 27083.328, -0.0044941683, 0.14643367, -727161.0, -8079.2915, 0.00000043027424, 10.003834, 9.990773 
7.25136e+2, 2.3661646e+2, -667199.5, -748701.56, 27562.03, -0.009247178, 0.1397253, -658753.9, -37581.1, 0.000000027388191, 10.001658, 9.990867 
7.250423e+2, 2.4660765e+2, -596076.94, -656929.5, 24905.176, -0.012471102, 0.13780183, -587183.7, -63924.54, 0.0000000013508806, 9.999522, 9.9914665 
7.249483e+2, 2.5659916e+2, -528820.44, -573287.7, 23828.95, -0.014923539, 0.14129631, -518463.34, -93120.99, 0.000000000015528396, 9.997395, 9.99151 
7.24854e+2, 2.6659098e+2, -459726.03, -484350.72, 20367.748, -0.020298263, 0.14959674, -448238.4, -120815.91, 0.0000000000005428366, 9.995199, 9.9919405 
7.2475934e+2, 2.7658296e+2, -393845.0, -400607.72, 19199.219, -0.027108992, 0.14948937, -377731.66, -148230.33, 0.0, 9.992944, 9.992049 
7.24664e+2, 2.8657544e+2, -321676.3, -302547.4, 15205.244, -0.04404394, 0.13533424, -294148.63, -162573.84, 0.0, 9.990626, 9.993154 
7.245681e+2, 2.9656863e+2, -266619.16, -238267.17, 14740.653, -0.067077056, 0.14631839, -231992.11, -198350.84, 0.0, 9.988241, 9.991984 
7.24472e+2, 3.0655876e+2, -277973.28, -246500.42, 7618.852, 0.0039522266, 0.13541377, -244753.1, -244753.1, 0.0, 9.985309, 9.989469 
7.243734e+2, 3.165497e+2, -153490.58, 88328.89, 8485.576, -0.08704461, 0.14620216, 88626.29, 88626.29, 0.0, 9.982004, 10.014038 
7.362124e+2, 1.2683089e+2, -1463814.8, -1695301.1, -2640.2043, 0.08985763, 0.1569843, -1463784.6, 233287.77, 0.1931594, 10.026048, 9.987953 
7.361119e+2, 1.368188e+2, -1379920.5, -1613514.0, -1474.5337, 0.071309984, 0.15334967, -1379911.3, 219279.61, 0.13713312, 10.02363, 9.987999 
7.360112e+2, 1.4680725e+2, -1295681.4, -1520590.9, -6.678261, 0.05744624, 0.15278576, -1295681.4, 205622.61, 0.083465315, 10.021173, 9.988855 
7.359108e+2, 1.5679611e+2, -1221928.6, -1438924.1, 2051.7603, 0.04896041, 0.15337317, -1221909.3, 181503.9, 0.041627847, 10.018747, 9.988927 
7.358117e+2, 1.6678539e+2, -1147581.3, -1348007.6, 10712.942, 0.04067507, 0.15203302, -1147010.3, 158508.0, 0.016435489, 10.016487, 9.98956 
7.3571366e+2, 1.7677492e+2, -1078576.9, -1264080.4, 11679.42, 0.031405788, 0.14906192, -1077844.4, 129776.27, 0.0050477497, 10.014331, 9.989652 
7.356166e+2, 1.867649e+2, -1008645.5, -1174311.4, 17199.521, 0.02554542, 0.15110473, -1006878.7, 102840.26, 0.0011997913, 10.012141, 9.990163 
7.355201e+2, 1.967551e+2, -942494.2, -1091513.6, 18202.229, 0.021879937, 0.15475212, -940303.06, 71511.836, 0.00022039577, 10.009946, 9.990192 
7.354243e+2, 2.0674534e+2, -873732.8, -1006355.1, 20649.082, 0.012384848, 0.15264398, -870592.2, 43318.277, 0.00003120016, 10.0078945, 9.990316 
7.353287e+2, 2.1673563e+2, -803842.25, -920709.9, 19452.002, -0.00009582996, 0.14770891, -800689.6, 15316.094, 0.0000033866813, 10.005918, 9.990434 
7.352331e+2, 2.2672638e+2, -733049.8, -830347.7, 19123.982, -0.0030721852, 0.15062708, -729425.94, -11329.708, 0.0000002801477, 10.003817, 9.990926 
7.351377e+2, 2.3671736e+2, -666536.3, -747204.25, 19576.393, -0.0012826553, 0.1554757, -662036.56, -41851.88, 0.000000017183508, 10.001645, 9.990957 
7.350418e+2, 2.467084e+2, -598052.7, -660916.6, 16968.908, -0.010999227, 0.15058258, -593764.75, -71492.2, 0.00000000082053964, 9.999511, 9.991181 
7.349456e+2, 2.566995e+2, -530740.25, -577134.56, 15841.002, -0.02653175, 0.14353374, -525847.44, -101487.85, 0.0000000000062856964, 9.997382, 9.991236 
7.348491e+2, 2.666911e+2, -461644.6, -488217.47, 11886.96, -0.025562892, 0.15678105, -457103.28, -130661.36, 0.00000000000021974207, 9.995188, 9.991663 
7.347524e+2, 2.766829e+2, -395221.22, -403362.25, 10719.219, -0.016006302, 0.16913947, -387825.66, -159303.5, 0.0, 9.992932, 9.991847 
7.346547e+2, 2.866752e+2, -320703.63, -300566.06, 6397.25, -0.038510762, 0.13277715, -298705.66, -168107.78, 0.0, 9.990622, 9.993272 
7.3455626e+2, 2.9666814e+2, -266176.47, -237597.1, 5605.433, -0.07854029, 0.10674373, -236536.98, -203870.13, 0.0, 9.988244, 9.992007 
7.344573e+2, 3.066593e+2, -279864.44, -250626.98, -4377.932, 0.0041869027, 0.22160007, -249985.53, -249985.53, 0.0, 9.985305, 9.9891615 
7.343554e+2, 3.1664896e+2, -159522.84, 75842.21, -5298.5503, -0.08505343, 0.13491702, 75961.43, 75961.43, 0.0, 9.981986, 10.013159 
7.462376e+2, 1.2693334e+2, -1467296.0, -1698379.1, 6355.9043, 0.08443178, 0.1612625, -1467121.3, 228947.73, 0.15017897, 10.024459, 9.988432 
7.461345e+2, 1.3692178e+2, -1392243.9, -1619096.5, 7701.5356, 0.07423472, 0.16191217, -1391982.8, 206199.61, 0.105631106, 10.021779, 9.988465 
7.4603164e+2, 1.4691062e+2, -1309087.8, -1525798.5, 11375.764, 0.060409226, 0.16125059, -1308492.3, 191799.4, 0.063488565, 10.019637, 9.989197 
7.4592894e+2, 1.5689981e+2, -1229963.1, -1440189.4, 14341.255, 0.047982197, 0.15963113, -1228989.3, 173408.36, 0.03114478, 10.017828, 9.989235 
7.4582785e+2, 1.6688925e+2, -1154759.8, -1350542.8, 23678.71, 0.039791744, 0.15835227, -1151936.6, 152564.31, 0.012040952, 10.015836, 9.989652 
7.457278e+2, 1.7687888e+2, -1085020.3, -1266001.8, 25081.602, 0.032763034, 0.15658198, -1081608.6, 124993.77, 0.0036052088, 10.013772, 9.989739 
7.456286e+2, 1.868689e+2, -1012884.2, -1176256.4, 30352.918, 0.026897786, 0.15918794, -1007427.2, 101273.086, 0.0008322924, 10.011796, 9.990148 
7.4553007e+2, 1.968591e+2, -942728.75, -1091427.1, 30542.938, 0.021885699, 0.16326971, -936699.6, 74096.76, 0.0001481291, 10.009873, 9.990185 
7.4543214e+2, 2.068493e+2, -873048.44, -1006501.44, 34307.37, 0.012501409, 0.15975802, -864745.44, 48146.914, 0.000020294803, 10.007915, 9.990247 
7.4533457e+2, 2.1683948e+2, -803151.7, -920811.25, 35128.727, 0.0009837025, 0.15227225, -793461.6, 21526.953, 0.000002131733, 10.005936, 9.990362 
7.4523705e+2, 2.2683015e+2, -731041.44, -830316.7, 34064.31, -0.001941132, 0.15667915, -720477.2, -3397.3088, 0.00000017065298, 10.003946, 9.99081 
7.451395e+2, 2.3682106e+2, -662007.0, -745900.06, 32909.99, -0.0005405837, 0.16526484, -650637.7, -31468.646, 0.00000001004812, 10.001945, 9.990851 
7.4504155e+2, 2.4681194e+2, -591691.3, -659420.06, 30428.94, -0.011648274, 0.15757021, -580028.6, -58770.14, 0.00000000046493367, 9.999967, 9.991013 
7.4494326e+2, 2.5680283e+2, -522340.97, -574580.75, 30216.602, -0.029255247, 0.14444214, -508519.75, -85171.98, 0.0000000000020633948, 9.997973, 9.991071 
7.448446e+2, 2.6679435e+2, -453949.16, -486080.28, 26307.91, -0.026150601, 0.16507329, -439189.28, -113758.26, 0.00000000000007213702, 9.995733, 9.991487 
7.447456e+2, 2.767861e+2, -389475.63, -402248.6, 26063.297, -0.0120178, 0.19087046, -369027.75, -141516.02, 0.0, 9.993348, 9.991661 
7.446456e+2, 2.867779e+2, -313880.28, -299660.47, 20273.74, -0.038069114, 0.13149504, -285286.06, -155694.22, 0.0, 9.991144, 9.993023 
7.445448e+2, 2.9677024e+2, -255548.95, -233780.28, 16269.415, -0.085888244, 0.06773245, -225090.08, -193423.2, 0.0, 9.988978, 9.991862 
7.4444306e+2, 3.0676275e+2, -263316.94, -237590.31, 6122.9014, 0.007330347, 0.2994267, -236207.4, -236207.4, 0.0, 9.986162, 9.9895735 
7.4433786e+2, 3.167516e+2, -152565.42, 67278.81, 8182.8066, -0.08539059, 0.102199316, 67582.96, 67582.96, 0.0, 9.982912, 10.012039 
7.562619e+2, 1.2703837e+2, -1456593.9, -1693458.8, -1584.5997, 0.0782524, 0.16171907, -1456583.3, 238456.98, 0.11281883, 10.0242815, 9.988838 
7.561563e+2, 1.370273e+2, -1384378.3, -1613309.9, -346.98093, 0.074776, 0.17078075, -1384377.8, 212771.19, 0.07853125, 10.02167, 9.988885 
7.5605124e+2, 1.4701658e+2, -1303757.3, -1519929.6, 5636.2954, 0.06326757, 0.17092803, -1303610.4, 195643.63, 0.046543546, 10.01955, 9.989616 
7.559468e+2, 1.5700614e+2, -1226898.4, -1434963.1, 7993.109, 0.051467586, 0.16638264, -1226591.8, 174764.4, 0.022414498, 10.017734, 9.989615 
7.558437e+2, 1.6699587e+2, -1154051.0, -1348616.8, 16424.912, 0.041114867, 0.16655926, -1152674.3, 150782.7, 0.00846377, 10.015759, 9.9897995 
7.5574154e+2, 1.7698568e+2, -1084501.0, -1264381.1, 17813.97, 0.030424574, 0.1682699, -1082753.9, 122802.79, 0.0024620276, 10.013728, 9.989851 
7.556404e+2, 1.8697563e+2, -1013985.3, -1178002.9, 23525.494, 0.024896407, 0.1669951, -1010677.7, 96977.32, 0.0005496039, 10.011764, 9.990026 
7.555399e+2, 1.9696563e+2, -943272.2, -1092015.1, 23693.537, 0.022229763, 0.16379091, -939589.25, 70163.7, 0.000094271134, 10.009843, 9.990142 
7.5544006e+2, 2.0695597e+2, -871743.5, -1003425.4, 27189.21, 0.015049221, 0.16191125, -866350.44, 45497.168, 0.00001242931, 10.007891, 9.990451 
7.553406e+2, 2.1694641e+2, -802340.1, -918929.8, 27905.756, 0.005533554, 0.16034415, -796005.06, 17936.197, 0.0000012566958, 10.005919, 9.990481 
7.55241e+2, 2.2693695e+2, -733333.3, -834932.56, 26691.852, -0.0013551237, 0.16430359, -726747.75, -10713.772, 0.000000096965735, 10.003933, 9.990484 
7.551414e+2, 2.369275e+2, -663793.44, -749504.06, 25590.018, -0.0066976096, 0.16922848, -656734.56, -38607.875, 0.0000000054442224, 10.001933, 9.990593 
7.550414e+2, 2.4691823e+2, -591853.6, -659644.7, 23036.104, -0.014002984, 0.15896317, -584766.6, -64549.11, 0.0000000002444871, 9.999955, 9.990985 
7.549413e+2, 2.5690907e+2, -522460.6, -574703.2, 22558.697, -0.022768201, 0.14415985, -514067.88, -91760.65, 0.0000000000005374663, 9.997961, 9.99105 
7.548404e+2, 2.6690063e+2, -454141.3, -486309.5, 17336.34, -0.022217, 0.17457908, -446577.0, -122187.3, 0.000000000000018790562, 9.995716, 9.991459 
7.5473887e+2, 2.768925e+2, -390462.1, -404071.06, 17441.568, -0.016302295, 0.21477124, -378544.7, -152075.28, 0.0, 9.993331, 9.991525 
7.5463665e+2, 2.8688365e+2, -318207.3, -308598.8, 12338.732, -0.043261632, 0.13174263, -300162.03, -171605.95, 0.0, 9.991138, 9.992394 
7.5453377e+2, 2.9687503e+2, -257304.5, -237658.08, 7634.9023, -0.08803863, 0.029733501, -235039.94, -204399.17, 0.0, 9.988982, 9.991574 
7.5442934e+2, 3.0686924e+2, -253441.97, -217524.36, -5499.047, 0.013747747, 0.3649654, -216701.3, -216701.3, 0.0, 9.986166, 9.990915 
7.5432074e+2, 3.168585e+2, -161958.52, 47263.414, -5950.477, -0.087810546, 0.09853339, 47432.516, 47432.516, 0.0, 9.982916, 10.010628 
7.6628536e+2, 1.2714645e+2, -1466343.6, -1698280.3, 8377.5, 0.081177205, 0.1711174, -1466041.4, 227940.4, 0.08157791, 10.022675, 9.989222 
7.661773e+2, 1.3713571e+2, -1391894.4, -1615352.0, 10188.42, 0.07041953, 0.17482018, -1391430.9, 204656.33, 0.056155656, 10.020503, 9.989258 
7.660702e+2, 1.4712532e+2, -1313516.9, -1522910.0, 17797.676, 0.059917398, 0.17611791, -1312014.9, 186174.17, 0.032789033, 10.018468, 9.98989 
7.65964e+2, 1.571152e+2, -1239597.1, -1438423.3, 19674.807, 0.05311955, 0.17550969, -1237669.0, 162619.22, 0.015483452, 10.016571, 9.989897 
7.65859e+2, 1.6710517e+2, -1164701.8, -1351297.1, 28570.3, 0.043259524, 0.17536572, -1160425.3, 141961.27, 0.0057010693, 10.014833, 9.990019 
7.6575494e+2, 1.7709519e+2, -1089853.8, -1264447.3, 30453.12, 0.030805869, 0.17498235, -1084694.4, 119789.84, 0.0016073568, 10.013195, 9.990056 
7.6565194e+2, 1.8708527e+2, -1017908.2, -1178815.4, 37095.563, 0.024939453, 0.17332123, -1009768.0, 96813.45, 0.00034574847, 10.011397, 9.990097 
7.655496e+2, 1.9707534e+2, -946311.25, -1092422.6, 38628.07, 0.022658944, 0.17033836, -936727.6, 71951.02, 0.00005687633, 10.00954, 9.990207 
7.654479e+2, 2.0706569e+2, -872808.44, -1003906.8, 41761.676, 0.016013278, 0.16927302, -860635.44, 50137.62, 0.0000071720206, 10.007767, 9.990425 
7.653466e+2, 2.1705613e+2, -799986.2, -917741.5, 41129.574, 0.0070897024, 0.16893642, -787043.06, 25823.736, 0.0000006932206, 10.006028, 9.99046 
7.652451e+2, 2.2704658e+2, -729096.6, -833830.4, 40324.48, -0.0011331041, 0.17218786, -715369.94, -409.72186, 0.000000051214368, 10.004213, 9.990373 
7.651435e+2, 2.3703699e+2, -657523.25, -747351.94, 40833.48, -0.008735132, 0.17538403, -641736.06, -24681.879, 0.0000000027061364, 10.00235, 9.990483 
7.6504165e+2, 2.4702759e+2, -585925.8, -658095.4, 37984.66, -0.014613495, 0.16441755, -569618.4, -50472.043, 0.00000000011791013, 10.000367, 9.990834 
7.649394e+2, 2.5701827e+2, -517453.1, -573510.4, 36711.23, -0.02010373, 0.1495595, -499293.88, -78056.35, 0.00000000000010866651, 9.998306, 9.99091 
7.648364e+2, 2.6700976e+2, -446255.72, -484139.1, 29875.277, -0.02075151, 0.1842211, -429823.4, -106502.33, 0.0000000000000037994794, 9.996276, 9.991282 
7.647326e+2, 2.770015e+2, -378042.16, -399991.16, 29085.322, -0.0183008, 0.23003268, -357929.75, -132527.77, 0.0, 9.994212, 9.991326 
7.646282e+2, 2.8699222e+2, -308497.3, -307463.3, 24911.627, -0.04581609, 0.1320948, -283063.3, -155570.44, 0.0, 9.991905, 9.992044 
7.6452297e+2, 2.9698303e+2, -249863.14, -234228.52, 22099.438, -0.089396134, 0.0088512115, -218604.52, -189021.64, 0.0, 9.989448, 9.99152 
7.64416e+2, 3.069787e+2, -230217.48, -191117.72, 7834.1934, 0.018592346, 0.41389635, -189606.44, -189606.44, 0.0, 9.987045, 9.992227 
7.6430446e+2, 3.1696826e+2, -152327.28, 28574.396, 3464.9854, -0.09001825, 0.0763495, 28640.74, 28640.74, 0.0, 9.984513, 10.008496 
7.763081e+2, 1.2725712e+2, -1458904.1, -1692929.4, 1426.0239, 0.08922222, 0.18593313, -1458895.4, 234002.63, 0.05639066, 10.022546, 9.989623 
7.7619773e+2, 1.3724662e+2, -1386630.5, -1610234.3, 2975.8967, 0.06268743, 0.1755891, -1386590.9, 208409.89, 0.03837522, 10.020404, 9.989629 
7.7608854e+2, 1.4723653e+2, -1310900.4, -1520078.9, 11473.255, 0.05253686, 0.1785271, -1310273.0, 186826.78, 0.022067718, 10.01839, 9.990099 
7.7598053e+2, 1.5722671e+2, -1237694.9, -1434991.9, 13349.681, 0.053509913, 0.1864605, -1236795.8, 162400.34, 0.010214072, 10.01651, 9.990139 
7.7587384e+2, 1.6721693e+2, -1162972.5, -1347132.8, 22984.53, 0.045952033, 0.18453854, -1160147.3, 141144.6, 0.0036652612, 10.014777, 9.990312 
7.7576816e+2, 1.7720719e+2, -1088292.4, -1260174.6, 24513.977, 0.033214815, 0.17797185, -1084864.6, 118522.7, 0.0010006143, 10.013139, 9.990356 
7.756633e+2, 1.8719757e+2, -1016604.6, -1175261.0, 30416.232, 0.026497321, 0.17878011, -1010973.3, 94508.13, 0.00020701386, 10.011351, 9.990344 
7.755591e+2, 1.9718795e+2, -945283.44, -1089842.4, 31991.082, 0.023037028, 0.18203025, -938520.2, 69055.516, 0.00003255148, 10.009512, 9.990378 
7.754557e+2, 2.0717826e+2, -874259.94, -1006582.6, 35467.777, 0.015558978, 0.18098018, -865352.75, 44317.863, 0.0000039052493, 10.007746, 9.990236 
7.7535254e+2, 2.1716847e+2, -800842.56, -919217.94, 34784.15, 0.006085799, 0.1777849, -791378.1, 20388.346, 0.00000035827247, 10.006009, 9.990353 
7.7524924e+2, 2.2715896e+2, -728388.9, -832123.9, 33515.555, -0.0010486926, 0.18028976, -718502.6, -4643.0054, 0.00000002512886, 10.004195, 9.99048 
7.751459e+2, 2.3714949e+2, -657182.7, -746444.8, 33869.18, -0.0069398065, 0.18376419, -645786.5, -29834.05, 0.0000000012215725, 10.002334, 9.990536 
7.75042e+2, 2.4713999e+2, -587599.8, -661389.4, 30281.162, -0.013787467, 0.17402884, -576764.4, -58718.758, 0.00000000005146541, 10.000351, 9.990599 
7.7493775e+2, 2.5713047e+2, -519123.16, -576788.7, 29081.055, -0.021508574, 0.16079572, -507004.28, -86865.305, 0.000000000000016733598, 9.99829, 9.990674 
7.7483267e+2, 2.6712164e+2, -448364.63, -488359.63, 22160.68, -0.021792091, 0.19367702, -438512.6, -116287.23, 0.0000000000000005851698, 9.996263, 9.99098 
7.7472687e+2, 2.7711308e+2, -379504.34, -403069.44, 21167.037, -0.017695777, 0.23562486, -367061.47, -142751.95, 0.0, 9.994207, 9.991097 
7.7462006e+2, 2.8710368e+2, -308294.4, -307035.25, 15693.27, -0.045406934, 0.13336995, -291958.94, -165557.38, 0.0, 9.991896, 9.992055 
7.745124e+2, 2.970945e+2, -248059.25, -230201.02, 13249.254, -0.090060115, 0.008614883, -223152.9, -194661.64, 0.0, 9.989427, 9.991781 
7.7440304e+2, 3.070913e+2, -220640.13, -171648.03, -643.73267, 0.021107258, 0.43876827, -171639.56, -171639.56, 0.0, 9.987058, 9.993527 
7.74289e+2, 3.170816e+2, -171765.69, -13294.547, -9282.223, -0.09062811, 0.08789504, -12752.707, -12752.707, 0.0, 9.984566, 10.005563 
7.8632975e+2, 1.2737021e+2, -1471578.8, -1696958.3, 10843.18, 0.08642275, 0.19030555, -1471058.3, 220732.19, 0.03687134, 10.021044, 9.99003 
7.8621745e+2, 1.3736019e+2, -1398790.9, -1612909.3, 12689.969, 0.06383384, 0.18564278, -1398041.4, 195847.28, 0.024810517, 10.019086, 9.990038 
7.861064e+2, 1.4735045e+2, -1322351.6, -1522217.6, 23087.904, 0.053030778, 0.18675625, -1319719.3, 176264.89, 0.014055273, 10.017257, 9.990456 
7.859965e+2, 1.5734093e+2, -1247387.1, -1435899.4, 25983.395, 0.05191696, 0.19018485, -1243871.3, 154206.05, 0.0063791573, 10.0155735, 9.99048 
7.858882e+2, 1.6733146e+2, -1172833.8, -1349137.6, 36348.246, 0.045598254, 0.18930653, -1165634.0, 134536.27, 0.0022320813, 10.013916, 9.990544 
7.857809e+2, 1.7732196e+2, -1097890.1, -1261932.4, 37594.293, 0.035318002, 0.18583478, -1089685.0, 112578.195, 0.000590305, 10.012304, 9.990593 
7.856744e+2, 1.8731254e+2, -1023223.9, -1176415.0, 43092.473, 0.027634721, 0.18699157, -1011934.06, 92421.305, 0.00011746579, 10.010759, 9.990506 
7.8556854e+2, 1.9730309e+2, -946999.1, -1088677.4, 44276.84, 0.021788044, 0.18966654, -934300.06, 72148.01, 0.000017638251, 10.009258, 9.990536 
7.8546333e+2, 2.0729348e+2, -874523.94, -1005950.75, 48656.24, 0.014868378, 0.18794405, -858471.3, 50070.742, 0.0000020076961, 10.007645, 9.990281 
7.853586e+2, 2.1728374e+2, -800091.75, -918099.56, 49573.965, 0.0071907854, 0.1839426, -782030.5, 28607.06, 0.00000017391163, 10.005977, 9.990393 
7.852535e+2, 2.2727422e+2, -726072.94, -831161.3, 47960.902, 0.00031865912, 0.18682972, -707475.44, 5255.251, 0.000000011489417, 10.00431, 9.990438 
7.851483e+2, 2.3726472e+2, -652251.7, -744282.9, 47390.688, -0.005961686, 0.19109984, -632211.94, -17388.063, 0.00000000049647025, 10.002628, 9.99049 
7.850426e+2, 2.4725512e+2, -580063.9, -659198.6, 43461.766, -0.013600833, 0.18154758, -560856.2, -43938.22, 0.00000000002012229, 10.000876, 9.990441 
7.849364e+2, 2.5724542e+2, -507980.78, -572709.9, 42990.707, -0.022251535, 0.16850485, -486533.94, -67521.02, 0.0000000000000019344242, 9.999056, 9.990529 
7.8482926e+2, 2.6723644e+2, -437283.03, -484782.9, 36432.91, -0.022433117, 0.1994879, -417542.56, -96441.48, 0.00000000000000006765784, 9.997045, 9.9907875 
7.8472143e+2, 2.7722764e+2, -369708.3, -400293.16, 36133.355, -0.017739011, 0.23833214, -345764.56, -122577.1, 0.0, 9.994908, 9.990888 
7.846123e+2, 2.87218e+2, -299797.56, -306082.88, 27839.703, -0.04548995, 0.14206389, -274923.72, -149642.14, 0.0, 9.992558, 9.991738 
7.8450215e+2, 2.9720867e+2, -237112.31, -223667.78, 23557.555, -0.09047337, 0.027482655, -205892.14, -178519.2, 0.0, 9.990068, 9.991864 
7.843907e+2, 3.0720618e+2, -191579.25, -140764.98, 11384.811, 0.021103615, 0.43236607, -138330.84, -138330.84, 0.0, 9.988272, 9.995 
7.842745e+2, 3.1719756e+2, -160621.58, -38855.848, -39.20674, -0.08965228, 0.09034567, -38855.836, -38855.836, 0.0, 9.986597, 10.002757 
7.963508e+2, 1.2748547e+2, -1465648.6, -1690519.8, 4500.771, 0.07731697, 0.188847, -1465558.6, 225102.75, 0.022471752, 10.020999, 9.990465 
7.962366e+2, 1.3747607e+2, -1394906.5, -1606551.5, 6121.44, 0.070865005, 0.20200974, -1394729.6, 198024.08, 0.014964371, 10.018978, 9.990499 
7.961237e+2, 1.4746676e+2, -1319161.1, -1515576.8, 17434.977, 0.058430545, 0.19870615, -1317625.5, 177219.27, 0.008360619, 10.01716, 9.990934 
7.960121e+2, 1.5745759e+2, -1244616.1, -1429682.5, 20093.186, 0.048693158, 0.18894961, -1242459.6, 154474.92, 0.0037260635, 10.0155115, 9.990914 
7.95902e+2, 1.6744846e+2, -1171702.6, -1346038.1, 30688.055, 0.0430859, 0.19130185, -1166458.5, 132565.67, 0.001273422, 10.013865, 9.990762 
7.9579324e+2, 1.7743929e+2, -1096794.9, -1258866.8, 31968.094, 0.037197877, 0.19752285, -1090717.3, 110396.84, 0.00032687097, 10.01226, 9.990806 
7.956851e+2, 1.8743002e+2, -1022763.6, -1174737.9, 37841.74, 0.028354123, 0.19718999, -1013862.3, 89342.53, 0.00006268314, 10.010721, 9.9906225 
7.9557776e+2, 1.9742063e+2, -946084.0, -1086159.6, 38879.582, 0.019205827, 0.19383162, -936016.1, 69280.82, 0.0000090016765, 10.009225, 9.990707 
7.9547095e+2, 2.0741126e+2, -872882.7, -1002079.5, 42667.45, 0.01407801, 0.1909566, -860063.6, 47325.08, 0.0000009725442, 10.007616, 9.990541 
7.9536456e+2, 2.1740176e+2, -798898.8, -915304.0, 43541.418, 0.010085278, 0.18798573, -784414.44, 25067.123, 0.00000007942034, 10.005955, 9.990578 
7.9525787e+2, 2.2739226e+2, -727172.3, -833233.94, 41803.8, 0.0026761936, 0.19214635, -712676.7, -1101.9906, 0.0000000049205897, 10.004294, 9.990288 
7.9515094e+2, 2.373826e+2, -652989.4, -745707.06, 41183.49, -0.0058265384, 0.19741957, -637338.4, -23669.14, 0.00000000018013649, 10.002618, 9.990382 
7.9504347e+2, 2.4737293e+2, -580413.7, -659797.8, 36702.625, -0.013961698, 0.18691179, -566045.2, -50281.098, 0.000000000007003254, 10.000864, 9.990388 
7.949354e+2, 2.573632e+2, -508157.84, -572922.25, 36025.42, -0.022362584, 0.17258185, -492100.0, -74240.4, 0.00000000000000016606671, 9.999042, 9.990503 
7.9482627e+2, 2.6735416e+2, -437525.4, -485132.75, 28426.654, -0.022762377, 0.20145549, -424252.28, -104304.11, 0.0000000000000000058093345, 9.997029, 9.99075 
7.947163e+2, 2.7734524e+2, -370894.28, -402539.1, 28051.49, -0.018646201, 0.23798726, -354510.56, -132475.27, 0.0, 9.99489, 9.990721 
7.9460484e+2, 2.8733537e+2, -304482.2, -315508.84, 18461.234, -0.0462383, 0.15980613, -290728.6, -166596.34, 0.0, 9.992536, 9.99108 
7.944922e+2, 2.9732567e+2, -237846.92, -225025.75, 15166.469, -0.09073989, 0.06930655, -214970.69, -188743.5, 0.0, 9.990054, 9.9917555 
7.94379e+2, 3.0732328e+2, -178787.94, -115142.94, 6031.132, 0.017667104, 0.38422707, -114576.46, -114576.46, 0.0, 9.988316, 9.996715 
7.942612e+2, 3.173167e+2, -175499.11, -71811.34, -10301.184, -0.08589579, 0.12038246, -70797.85, -70797.85, 0.0, 9.98668, 10.000426 
8.063711e+2, 1.2760347e+2, -1477386.0, -1692574.8, 13721.21, 0.073542684, 0.19699377, -1476514.6, 212991.06, 0.012536322, 10.019766, 9.99087 
8.0625474e+2, 1.375944e+2, -1412771.1, -1610972.6, 15831.511, 0.07190599, 0.2044908, -1411514.5, 180080.02, 0.008274921, 10.017388, 9.990917 
8.0614007e+2, 1.4758554e+2, -1336050.4, -1519558.3, 29452.344, 0.059670188, 0.20351481, -1331439.3, 162242.13, 0.0045689074, 10.015711, 9.991322 
8.06027e+2, 1.5757681e+2, -1257030.0, -1431235.3, 31598.756, 0.048505746, 0.19848706, -1251475.5, 144291.44, 0.0020046025, 10.014396, 9.991305 
8.059155e+2, 1.6756801e+2, -1181745.9, -1347142.1, 42550.313, 0.042976785, 0.19925627, -1171441.3, 126411.97, 0.000671242, 10.01296, 9.991082 
8.05805e+2, 1.7755911e+2, -1104584.1, -1258874.8, 44589.133, 0.03766246, 0.202012, -1092625.0, 107315.305, 0.00016783994, 10.011515, 9.991121 
8.0569553e+2, 1.8755013e+2, -1029174.2, -1175106.0, 51581.418, 0.028763633, 0.20180994, -1012783.1, 89245.37, 0.00003114175, 10.010116, 9.990844 
8.0558676e+2, 1.9754095e+2, -950530.7, -1085579.4, 53306.695, 0.019336378, 0.19967237, -932025.2, 72093.16, 0.0000042944494, 10.008753, 9.990927 
8.0547845e+2, 2.0753177e+2, -874790.94, -1001200.06, 56498.527, 0.014507725, 0.19803195, -853219.94, 52988.28, 0.0000004419976, 10.007358, 9.990679 
8.053705e+2, 2.1752243e+2, -797277.4, -912798.25, 56751.336, 0.011020695, 0.19634588, -774062.6, 34236.965, 0.00000003411467, 10.00594, 9.990709 
8.0526227e+2, 2.2751299e+2, -723280.94, -830883.56, 55587.918, 0.002765254, 0.19867462, -699722.06, 10670.137, 0.0000000019833712, 10.004489, 9.990305 
8.051537e+2, 2.3750332e+2, -646368.06, -742054.94, 56177.42, -0.0069266874, 0.20115562, -620421.94, -7935.029, 0.00000000005767016, 10.002998, 9.990395 
8.0504453e+2, 2.4749364e+2, -572985.94, -656818.9, 51349.79, -0.013664304, 0.19458424, -548616.7, -34034.94, 0.0000000000021566963, 10.001346, 9.990304 
8.0493474e+2, 2.574839e+2, -499640.97, -569383.8, 50553.324, -0.02001831, 0.18635504, -473098.6, -56421.09, 0.00000000000000001053288, 9.999596, 9.990421 
8.0482376e+2, 2.6747462e+2, -425332.8, -480811.03, 41664.16, -0.022776758, 0.20549779, -403018.34, -84250.12, 0.00000000000000000036854065, 9.997876, 9.990581 
8.0471176e+2, 2.774654e+2, -353722.88, -396205.8, 40030.863, -0.022132501, 0.22735353, -329646.9, -108788.48, 0.0, 9.996093, 9.99052 
8.04598e+2, 2.8745547e+2, -289849.03, -312912.66, 29446.47, -0.04625932, 0.17723295, -269756.84, -146800.89, 0.0, 9.993668, 9.990649 
8.044827e+2, 2.974458e+2, -223878.19, -218848.1, 29292.184, -0.08583865, 0.12666921, -191963.19, -166912.34, 0.0, 9.990978, 9.991668 
8.043678e+2, 3.074427e+2, -151999.9, -91316.76, 20210.29, 0.009789039, 0.31693062, -85201.96, -85201.96, 0.0, 9.989638, 9.997659 
8.042489e+2, 3.1743774e+2, -160673.52, -87541.8, -5895.565, -0.0818207, 0.15450054, -87069.57, -87069.57, 0.0, 9.98862, 9.998366 
8.163908e+2, 1.2772378e+2, -1475039.6, -1687201.4, 5371.6216, 0.07292473, 0.21062009, -1474903.8, 213423.44, 0.0062761833, 10.019611, 9.991286 
8.162721e+2, 1.3771495e+2, -1409259.6, -1604689.4, 8205.692, 0.0688054, 0.19820537, -1408915.6, 181498.1, 0.0041152225, 10.017354, 9.991337 
8.161558e+2, 1.4770654e+2, -1333420.9, -1514291.6, 25086.955, 0.058126546, 0.20429184, -1330005.8, 162490.52, 0.0022517387, 10.015682, 9.991676 
8.160414e+2, 1.5769833e+2, -1254991.6, -1425787.0, 26894.316, 0.05050074, 0.21563071, -1250856.9, 143720.02, 0.0009760604, 10.014326, 9.9916935 
8.159284e+2, 1.6768987e+2, -1179563.4, -1341316.8, 37526.336, 0.044478964, 0.21112882, -1171281.4, 125378.11, 0.0003216403, 10.012893, 9.991495 
8.158166e+2, 1.7768127e+2, -1102129.0, -1252898.6, 39532.68, 0.036940955, 0.20105211, -1092392.1, 106351.57, 0.00007875997, 10.011468, 9.991535 
8.1570566e+2, 1.8767267e+2, -1027188.6, -1170317.9, 46744.543, 0.028979234, 0.20240586, -1013274.9, 87553.164, 0.000014226408, 10.010079, 9.991174 
8.155955e+2, 1.9766389e+2, -948823.56, -1081489.3, 48390.992, 0.021627001, 0.20713484, -933048.4, 69865.74, 0.0000018966371, 10.008722, 9.991205 
8.1548584e+2, 2.076549e+2, -874591.75, -1000322.0, 51392.566, 0.015765496, 0.20863149, -856258.25, 48744.047, 0.00000018726082, 10.00733, 9.990737 
8.153764e+2, 2.1764565e+2, -796597.1, -911055.56, 51639.438, 0.010071996, 0.20831043, -776743.2, 30349.787, 0.000000013751109, 10.005919, 9.990824 
8.152667e+2, 2.2763631e+2, -721942.7, -827890.94, 50163.43, 0.0008376661, 0.20604216, -701960.5, 7223.8076, 0.0000000007543949, 10.004473, 9.990501 
8.1515676e+2, 2.3762679e+2, -645337.25, -739727.2, 50556.23, -0.009137719, 0.20249486, -623370.8, -12093.192, 0.000000000016037395, 10.002984, 9.990545 
8.150459e+2, 2.476172e+2, -573612.5, -657939.1, 44809.266, -0.012736938, 0.20495729, -554248.5, -40876.977, 0.00000000000058183086, 10.001329, 9.990217 
8.149344e+2, 2.576075e+2, -500421.44, -570862.7, 44129.715, -0.015298815, 0.21026506, -479180.38, -63713.49, 0.00000000000000000046171283, 9.999583, 9.99031 
8.1482166e+2, 2.6759785e+2, -427284.44, -484782.72, 35063.31, -0.02260666, 0.21130979, -410691.03, -93129.61, 0.000000000000000000016158303, 9.997868, 9.990294 
8.1470776e+2, 2.7758807e+2, -355029.6, -399029.2, 32681.777, -0.028673522, 0.20518066, -337632.84, -117975.84, 0.0, 9.99609, 9.990308 
8.145916e+2, 2.875784e+2, -290604.3, -314476.28, 19113.773, -0.04544528, 0.19486915, -280005.78, -158253.8, 0.0, 9.993652, 9.990522 
8.144738e+2, 2.975692e+2, -224242.9, -219476.44, 21208.662, -0.07467633, 0.2022846, -200517.52, -176675.23, 0.0, 9.990965, 9.991607 
8.1435734e+2, 3.0756438e+2, -151522.42, -91131.22, 17216.816, -0.004094502, 0.22472337, -86567.74, -86567.74, 0.0, 9.989686, 9.997632 
8.1423765e+2, 3.1756055e+2, -168715.8, -106105.08, -13992.931, -0.076390736, 0.19450682, -103120.1, -103120.1, 0.0, 9.988702, 9.99703 
8.2640934e+2, 1.2784623e+2, -1500655.3, -1694162.8, 13920.903, 0.079279914, 0.21503988, -1499658.9, 187468.95, 0.002764429, 10.017507, 9.991788 
8.2628876e+2, 1.3783793e+2, -1422787.6, -1605716.8, 17387.242, 0.061681893, 0.20735617, -1421149.6, 168059.48, 0.0018044716, 10.016105, 9.991825 
8.261708e+2, 1.4782992e+2, -1346805.1, -1516467.1, 35771.094, 0.053425875, 0.21132016, -1339571.6, 151716.06, 0.000981286, 10.014515, 9.992052 
8.2605505e+2, 1.5782206e+2, -1271281.5, -1428961.4, 37908.125, 0.053735826, 0.21897557, -1262641.4, 130723.46, 0.0004218151, 10.012955, 9.992099 
8.2594067e+2, 1.6781406e+2, -1193467.1, -1343254.8, 49428.195, 0.047597703, 0.21633929, -1178626.8, 116816.49, 0.00013745051, 10.011685, 9.991908 
8.258276e+2, 1.7780589e+2, -1111721.1, -1252917.9, 51484.4, 0.03702264, 0.20958139, -1094942.3, 102580.82, 0.000033160588, 10.010564, 9.991931 
8.257154e+2, 1.877976e+2, -1034326.2, -1170392.1, 58648.26, 0.028352207, 0.21043383, -1012536.56, 87067.72, 0.0000058742135, 10.009397, 9.99146 
8.2560396e+2, 1.977891e+2, -953155.2, -1080090.4, 60135.023, 0.021331105, 0.21359211, -929190.8, 72496.83, 0.0000007636851, 10.008225, 9.991503 
8.25493e+2, 2.0778038e+2, -876898.25, -998615.25, 63819.7, 0.015731068, 0.21471503, -849571.06, 54202.133, 0.00000007303491, 10.007002, 9.990971 
8.253823e+2, 2.1777135e+2, -796604.25, -908329.94, 65352.645, 0.010072858, 0.21450143, -766492.5, 39369.125, 0.0000000051552114, 10.005752, 9.991045 
8.252712e+2, 2.277622e+2, -719594.94, -825088.0, 63753.887, 0.00080366404, 0.21263328, -689596.4, 18354.916, 0.00000000026960928, 10.004512, 9.990627 
8.2515985e+2, 2.3775281e+2, -639847.06, -735474.06, 63632.22, -0.008962387, 0.20964998, -608066.6, 1976.6814, 0.000000000003812796, 10.00324, 9.990666 
8.250475e+2, 2.4774332e+2, -565777.8, -653723.6, 57529.902, -0.011906269, 0.21393196, -537340.06, -25203.672, 0.00000000000013560843, 10.001794, 9.990231 
8.249343e+2, 2.577336e+2, -489591.13, -565200.9, 57906.668, -0.013803585, 0.2211816, -458241.16, -44009.746, 0.00000000000000000001605613, 10.000251, 9.990323 
8.2481986e+2, 2.6772386e+2, -414820.44, -479679.84, 49947.99, -0.023713652, 0.21345097, -387697.75, -71370.44, 0.00000000000000000000056202056, 9.998705, 9.990183 
8.2470435e+2, 2.7771384e+2, -340182.28, -392863.28, 48157.0, -0.03304711, 0.19616756, -311632.72, -93207.62, 0.0, 9.99709, 9.990185 
8.245859e+2, 2.877043e+2, -272291.25, -308167.44, 31455.498, -0.04180501, 0.21736085, -254018.53, -133499.58, 0.0, 9.994949, 9.99026 
8.2446575e+2, 2.9769522e+2, -201425.88, -211526.88, 34402.45, -0.061333567, 0.26406172, -171705.17, -149097.27, 0.0, 9.992598, 9.991303 
8.243477e+2, 3.0768842e+2, -131722.72, -88534.01, 31010.78, -0.023558889, 0.13594209, -72339.68, -72339.68, 0.0, 9.991299, 9.996988 
8.242271e+2, 3.176854e+2, -148674.27, -99399.85, -8184.412, -0.06968154, 0.24734412, -98076.0, -98076.0, 0.0, 9.990143, 9.99675 
8.364269e+2, 1.2797058e+2, -1496939.9, -1685697.4, 9077.143, 0.08872172, 0.21488564, -1496504.4, 189405.52, 0.0010485069, 10.017441, 9.992377 
8.363047e+2, 1.3796306e+2, -1419957.9, -1597917.3, 12008.134, 0.052080885, 0.22644036, -1419151.3, 168832.39, 0.00068253983, 10.015999, 9.992388 
8.361852e+2, 1.4795545e+2, -1344915.4, -1510818.5, 30220.1, 0.04701732, 0.22201763, -1339582.0, 150476.13, 0.00036975817, 10.014423, 9.992463 
8.3606803e+2, 1.5794782e+2, -1268711.8, -1422622.9, 32732.527, 0.057641927, 0.21295442, -1262039.8, 130093.04, 0.00015811496, 10.012899, 9.99254 
8.359524e+2, 1.6794035e+2, -1190824.0, -1336971.8, 45568.69, 0.051601857, 0.21744853, -1177780.0, 116426.15, 0.000051158844, 10.011644, 9.992343 
8.3583814e+2, 1.7793277e+2, -1109312.3, -1247107.5, 47468.395, 0.03760725, 0.22530577, -1094543.1, 101737.445, 0.000012225507, 10.010523, 9.992334 
8.357247e+2, 1.8792479e+2, -1032790.7, -1166476.9, 54547.39, 0.026974069, 0.22388306, -1013358.56, 85000.16, 0.0000021384599, 10.009358, 9.991732 
8.356121e+2, 1.9791648e+2, -951080.4, -1075224.4, 55985.258, 0.018824233, 0.21900433, -929562.44, 70877.65, 0.00000027341952, 10.008195, 9.991837 
8.3549994e+2, 2.0790811e+2, -874192.3, -992647.4, 59339.75, 0.014663784, 0.21697064, -849580.06, 52941.97, 0.000000025587859, 10.006978, 9.991376 
8.35388e+2, 2.1789947e+2, -794288.6, -903325.6, 60896.17, 0.011018086, 0.21584198, -767072.1, 37534.543, 0.0000000017566957, 10.005735, 9.991382 
8.3527577e+2, 2.2789055e+2, -719061.6, -823772.94, 59129.53, 0.0024446007, 0.21896677, -692439.94, 14254.1, 0.00000000008872567, 10.004497, 9.99071 
8.3516306e+2, 2.378813e+2, -639069.0, -733663.75, 58803.64, -0.006937604, 0.22247463, -610901.75, -2117.0488, 0.0000000000007639526, 10.003224, 9.990783 
8.350493e+2, 2.478719e+2, -564797.1, -651556.4, 51765.227, -0.011419081, 0.2210522, -540638.4, -29761.463, 0.000000000000026872437, 10.0017805, 9.990369 
8.349346e+2, 2.5786224e+2, -488413.53, -562633.94, 52218.453, -0.015631195, 0.21856603, -461461.78, -48490.418, 0.0, 10.000238, 9.990487 
8.348186e+2, 2.6785263e+2, -414032.9, -477960.3, 43982.277, -0.026167054, 0.21255778, -391626.4, -76560.63, 0.0, 9.998695, 9.990287 
8.347014e+2, 2.778428e+2, -340139.28, -392698.1, 41609.27, -0.034954604, 0.20234531, -317205.5, -100043.375, 0.0, 9.99708, 9.990182 
8.3458096e+2, 2.8783318e+2, -274888.22, -313606.75, 22557.475, -0.03483469, 0.24425818, -264521.72, -145265.52, 0.0, 9.99494, 9.989868 
8.344585e+2, 2.9782388e+2, -205091.19, -219794.66, 27312.422, -0.04604699, 0.30873868, -184158.36, -162810.9, 0.0, 9.99262, 9.9907055 
8.3433867e+2, 3.0781475e+2, -140957.7, -108596.195, 27020.873, -0.05108815, 0.05644045, -93281.8, -93281.8, 0.0, 9.991346, 9.995573 
8.3421737e+2, 3.1781173e+2, -138367.83, -78264.48, -17413.64, -0.06486908, 0.27290335, -73583.77, -73583.77, 0.0, 9.990151, 9.998166 
8.464433e+2, 1.2809679e+2, -1520874.8, -1690381.5, 15946.852, 0.082193896, 0.22386894, -1519387.5, 165286.11, 0.0003334053, 10.015454, 9.992986 
8.463197e+2, 1.3808985e+2, -1444860.6, -1602940.5, 19021.342, 0.057310637, 0.23109198, -1442604.1, 144137.69, 0.0002167018, 10.013945, 9.993005 
8.461988e+2, 1.4808282e+2, -1366014.6, -1514869.5, 38705.074, 0.05021267, 0.22762169, -1356552.1, 132258.39, 0.00011713728, 10.012669, 9.993004 
8.460802e+2, 1.5807576e+2, -1283892.8, -1424024.0, 42151.504, 0.054919418, 0.22055602, -1272190.8, 118688.97, 0.000049936574, 10.01156, 9.993056 
8.459634e+2, 1.6806872e+2, -1203795.6, -1338505.6, 55908.605, 0.049771514, 0.22428276, -1183615.1, 109333.58, 0.000016089823, 10.010509, 9.992755 
8.4584814e+2, 1.7806154e+2, -1120424.8, -1247467.5, 57764.832, 0.03870675, 0.2309584, -1098087.3, 96931.82, 0.000003823368, 10.009501, 9.992769 
8.457337e+2, 1.8805401e+2, -1041481.44, -1165599.1, 65740.17, 0.027985971, 0.22934212, -1013135.25, 83957.72, 0.00000066373565, 10.0085, 9.992171 
8.4562e+2, 1.9804615e+2, -957228.2, -1073296.6, 68294.31, 0.018744726, 0.22457288, -925640.56, 73529.49, 0.00000008401309, 10.007517, 9.992256 
8.455067e+2, 2.0803815e+2, -877352.5, -990304.6, 71527.62, 0.013909581, 0.22424713, -842692.7, 58555.586, 0.000000007758291, 10.006549, 9.991704 
8.4539366e+2, 2.1802986e+2, -793438.9, -898894.1, 72744.91, 0.009968031, 0.22511935, -756322.06, 47007.457, 0.000000000523419, 10.005572, 9.991725 
8.4528023e+2, 2.2802123e+2, -717168.0, -819479.7, 71547.18, 0.0023601823, 0.22599651, -680369.8, 25044.184, 0.000000000025846523, 10.004432, 9.990993 
8.451663e+2, 2.3801225e+2, -636484.94, -729029.8, 72777.62, -0.0056801885, 0.22646867, -596515.1, 10986.998, 0.0000000000001268776, 10.003204, 9.991063 
8.450512e+2, 2.4800311e+2, -558571.7, -645760.75, 66185.695, -0.01017031, 0.22705321, -522913.25, -13321.602, 0.000000000000004439016, 10.002034, 9.990591 
8.449351e+2, 2.5799373e+2, -477703.4, -555045.0, 67277.516, -0.015320301, 0.22744958, -438774.63, -27090.902, 0.0, 10.0008135, 9.990676 
8.4481764e+2, 2.6798415e+2, -401773.2, -471277.22, 58356.656, -0.029103016, 0.21787536, -368604.66, -54827.17, 0.0, 9.999446, 9.990328 
8.4469885e+2, 2.7797434e+2, -325096.3, -384331.9, 55282.336, -0.039896775, 0.20321365, -291997.7, -76123.875, 0.0, 9.998002, 9.990257 
8.445767e+2, 2.8796488e+2, -252568.23, -303250.25, 36690.516, -0.02765457, 0.25625715, -233318.2, -115351.57, 0.0, 9.996417, 9.989801 
8.444523e+2, 2.9795554e+2, -176350.73, -211382.13, 44816.42, -0.028537635, 0.33385816, -145748.75, -125690.85, 0.0, 9.994757, 9.990185 
8.443306e+2, 3.0794457e+2, -128661.58, -122805.23, 43873.832, -0.07738878, 0.033318173, -81761.96, -81761.96, 0.0, 9.992998, 9.993743 
8.4420806e+2, 3.1794086e+2, -110717.03, -43630.418, -7199.051, -0.055111155, 0.3049892, -42866.586, -42866.586, 0.0, 9.991057, 10.00004 
8.564586e+2, 1.2822467e+2, -1517183.6, -1681253.4, 10779.978, 0.067359686, 0.23753257, -1516478.4, 166942.7, 0.000086075415, 10.015378, 9.993625 
8.563338e+2, 1.3821818e+2, -1441315.9, -1593514.9, 13916.063, 0.0717015, 0.22686626, -1440054.0, 145430.6, 0.000055900877, 10.0138445, 9.993676 
8.5621154e+2, 1.482119e+2, -1362438.4, -1505797.0, 34876.61, 0.058781534, 0.23062222, -1354403.9, 133142.3, 0.000030179655, 10.0125885, 9.993647 
8.560917e+2, 1.5820561e+2, -1280378.3, -1415649.8, 38276.59, 0.047549903, 0.23747675, -1270298.6, 119309.23, 0.000012843161, 10.011506, 9.99364 
8.559739e+2, 1.6819899e+2, -1201399.9, -1332583.4, 52390.484, 0.044124607, 0.23471253, -1183045.0, 108627.695, 0.000004128149, 10.010461, 9.99317 
8.558577e+2, 1.7819212e+2, -1117488.1, -1240510.8, 54229.363, 0.040214267, 0.22917505, -1096996.5, 96743.5, 0.0000009777615, 10.009458, 9.993254 
8.557422e+2, 1.8818517e+2, -1037618.5, -1156967.9, 62242.043, 0.030727832, 0.22910857, -1011065.94, 84742.3, 0.0000001689991, 10.008466, 9.992765 
8.556275e+2, 1.9817793e+2, -953805.94, -1065807.6, 64770.688, 0.020594876, 0.2305466, -924183.56, 73695.52, 0.000000021266919, 10.007493, 9.992768 
8.555132e+2, 2.0817038e+2, -875452.9, -986024.06, 68016.05, 0.013273832, 0.23589304, -843087.56, 56865.62, 0.0000000019487758, 10.006529, 9.991995 
8.553992e+2, 2.1816243e+2, -790899.94, -893316.4, 69066.72, 0.0067203827, 0.24126354, -756128.5, 45902.54, 0.00000000013013507, 10.005552, 9.992105 
8.5528463e+2, 2.281542e+2, -713747.44, -812209.4, 67000.875, 0.00059727515, 0.23325285, -679835.1, 24276.621, 0.000000000006340111, 10.0044155, 9.991484 
8.551695e+2, 2.3814557e+2, -633199.25, -722174.4, 68440.37, -0.0048000216, 0.22198653, -596058.2, 10137.961, 0.00000000000001706005, 10.003196, 9.991523 
8.550533e+2, 2.4813692e+2, -556194.56, -640779.06, 61658.87, -0.008054498, 0.23258957, -523717.5, -15436.496, 0.0000000000000005953698, 10.0020275, 9.99092 
8.549359e+2, 2.58128e+2, -476083.53, -551569.06, 62542.15, -0.013264598, 0.24861114, -440778.1, -30409.541, 0.0, 10.000804, 9.990904 
8.5481703e+2, 2.681184e+2, -401813.8, -471285.8, 52929.234, -0.032836787, 0.22942634, -373240.28, -60777.773, 0.0, 9.999437, 9.990315 
8.5469675e+2, 2.7810842e+2, -323675.0, -381410.0, 49745.797, -0.04862317, 0.19779411, -295027.47, -80467.24, 0.0, 9.997997, 9.990443 
8.545732e+2, 2.8809926e+2, -249797.78, -297975.6, 30642.434, -0.02058141, 0.25033638, -234909.33, -118259.42, 0.0, 9.996431, 9.990136 
8.5444736e+2, 2.9809028e+2, -178560.86, -217072.36, 38910.746, -0.007467657, 0.33551174, -154401.98, -135663.7, 0.0, 9.994797, 9.989756 
8.543234e+2, 3.080782e+2, -144839.9, -156466.02, 36515.66, -0.10145616, 0.087802425, -113677.49, -113677.49, 0.0, 9.992995, 9.991415 
8.541991e+2, 3.180721e+2, -93980.52, -7209.6963, -17282.037, -0.05266197, 0.28297195, -3894.3293, -3894.3293, 0.0, 9.990975, 10.002548 
8.6647284e+2, 1.2835409e+2, -1545901.8, -1688440.4, 16238.534, 0.067811295, 0.23909552, -1544075.3, 138078.1, 0.000017473883, 10.013086, 9.994213 
8.663465e+2, 1.3834825e+2, -1468361.5, -1599561.1, 19778.463, 0.0720391, 0.23446196, -1465444.8, 118765.68, 0.000011343667, 10.011654, 9.994294 
8.6622316e+2, 1.4834258e+2, -1385041.6, -1510148.4, 42333.05, 0.058172207, 0.23776315, -1372063.5, 114202.64, 0.000006119881, 10.010725, 9.994226 
8.661024e+2, 1.5833685e+2, -1298024.6, -1417656.3, 45388.965, 0.04585829, 0.24282558, -1282753.3, 105569.04, 0.0000026016337, 10.009983, 9.994215 
8.659837e+2, 1.6833077e+2, -1216606.6, -1333927.5, 59987.78, 0.04372162, 0.2403283, -1191364.9, 99016.87, 0.00000083503693, 10.009126, 9.993697 
8.6586654e+2, 1.7832443e+2, -1130753.8, -1240936.5, 62588.016, 0.041505758, 0.23543411, -1102464.5, 89979.37, 0.00000019739909, 10.008255, 9.993777 
8.6575013e+2, 1.8831801e+2, -1048022.44, -1156078.8, 70686.78, 0.03090142, 0.2365898, -1013080.56, 81426.33, 0.00000003403174, 10.007462, 9.993284 
8.6563456e+2, 1.9831133e+2, -961142.2, -1063328.4, 72933.92, 0.019260576, 0.23936027, -923185.5, 73387.02, 0.0000000042680797, 10.006693, 9.993299 
8.655194e+2, 2.0830427e+2, -880969.75, -982548.2, 77212.97, 0.012893626, 0.24228647, -839339.4, 59302.26, 0.00000000038935866, 10.005846, 9.992533 
8.654045e+2, 2.1829684e+2, -794933.0, -889031.06, 79892.52, 0.007587897, 0.24482566, -749265.1, 51449.37, 0.0000000000258476, 10.004964, 9.992647 
8.652888e+2, 2.2828917e+2, -714263.1, -806482.3, 78008.29, 0.0008006794, 0.24018137, -669756.0, 33033.652, 0.0000000000012495392, 10.004076, 9.9920025 
8.6517274e+2, 2.382811e+2, -628960.0, -714226.9, 79950.74, -0.0054144626, 0.23303348, -580985.9, 23882.736, 0.0000000000000018080276, 10.003181, 9.992037 
8.650554e+2, 2.4827284e+2, -550475.1, -633734.44, 73072.07, -0.0074957632, 0.2384447, -508006.28, -1056.6559, 0.00000000000000006302618, 10.002183, 9.991288 
8.649369e+2, 2.582642e+2, -468879.28, -543599.3, 74304.72, -0.011503368, 0.24859484, -423071.03, -14036.924, 0.0, 10.001049, 9.991291 
8.6481655e+2, 2.6825517e+2, -394268.6, -462704.2, 66289.55, -0.035246857, 0.24206318, -353886.38, -42763.563, 0.0, 9.999683, 9.990732 
8.6469483e+2, 2.7824575e+2, -317040.66, -372665.88, 66417.43, -0.05495171, 0.22406691, -272847.6, -59632.516, 0.0, 9.998154, 9.990906 
8.6457014e+2, 2.8823674e+2, -231686.89, -283152.56, 50326.227, -0.012485031, 0.23715276, -200896.2, -85592.62, 0.0, 9.997347, 9.99065 
8.644434e+2, 2.982277e+2, -148006.39, -204658.64, 59011.605, 0.014251694, 0.28128955, -110874.6, -93482.664, 0.0, 9.996918, 9.989521 
8.643171e+2, 3.082154e+2, -131005.52, -180058.55, 53332.434, -0.13006483, 0.18781994, -96830.266, -96830.266, 0.0, 9.995164, 9.988688 
8.6419135e+2, 3.182062e+2, -41443.28, 41579.473, -747.76245, -0.049540114, 0.2619272, 41586.207, 41586.207, 0.0, 9.993508, 10.0046215 
8.7648594e+2, 1.2848486e+2, -1543638.3, -1680599.0, 10910.907, 0.07589644, 0.23465794, -1542774.5, 138097.7, 0.0000027160115, 10.0129385, 9.994802 
8.7635803e+2, 1.3847981e+2, -1464719.4, -1590811.6, 15343.177, 0.063531116, 0.24945623, -1462879.3, 120042.53, 0.0000017628486, 10.011594, 9.9949045 
8.762338e+2, 1.4847466e+2, -1381659.5, -1502164.8, 39827.043, 0.05220718, 0.24708346, -1369686.3, 115285.91, 0.0000009506475, 10.010679, 9.994782 
8.7611234e+2, 1.584694e+2, -1294580.0, -1409317.9, 42585.54, 0.048017807, 0.24054968, -1280501.6, 106522.36, 0.00000040385973, 10.009926, 9.994801 
8.759928e+2, 1.6846399e+2, -1212746.8, -1324931.8, 56847.91, 0.046642393, 0.24313174, -1188976.6, 100100.375, 0.00000012950584, 10.009075, 9.994325 
8.7587476e+2, 1.7845836e+2, -1127112.1, -1232707.8, 59538.664, 0.042483483, 0.24769732, -1100333.3, 90799.04, 0.000000030577077, 10.00822, 9.994346 
8.757576e+2, 1.8845245e+2, -1044864.8, -1149007.4, 67954.43, 0.02905443, 0.24980123, -1011325.2, 81864.97, 0.0000000052630567, 10.007433, 9.993772 
8.756412e+2, 1.9844624e+2, -957325.25, -1054989.5, 70113.21, 0.015199138, 0.25034392, -920714.75, 74536.34, 0.00000000065868894, 10.006668, 9.99387 
8.755253e+2, 2.084398e+2, -875637.0, -971231.0, 74021.38, 0.012758456, 0.24417809, -835322.0, 61992.105, 0.000000000059927556, 10.005826, 9.993304 
8.754095e+2, 2.1843304e+2, -789941.6, -878610.4, 76659.36, 0.012258756, 0.23758163, -745719.8, 53660.48, 0.0000000000039643657, 10.004953, 9.993354 
8.752929e+2, 2.2842613e+2, -710185.0, -798017.75, 74686.92, 0.0026562978, 0.24754325, -667459.6, 33988.465, 0.00000000000019077685, 10.004069, 9.992575 
8.7517583e+2, 2.3841882e+2, -624829.94, -705599.2, 76688.04, -0.008135784, 0.25903177, -578542.94, 24976.914, 0.00000000000000014658613, 10.003173, 9.992621 
8.750576e+2, 2.4841085e+2, -547481.0, -627499.5, 68852.805, -0.008742197, 0.24375238, -507857.03, -2259.1982, 0.0000000000000000051062997, 10.002176, 9.991704 
8.7493795e+2, 2.584024e+2, -464742.13, -535098.75, 69937.89, -0.009849136, 0.22653377, -421633.63, -13953.101, 0.0, 10.001046, 9.99186 
8.7481624e+2, 2.683945e+2, -387920.44, -449521.06, 60457.965, -0.0361373, 0.25744966, -350869.25, -41111.277, 0.0, 9.999676, 9.991618 
8.746929e+2, 2.783864e+2, -311556.72, -361263.53, 61309.5, -0.05856037, 0.28629354, -270254.66, -58417.316, 0.0, 9.99815, 9.99167 
8.745676e+2, 2.883772e+2, -226383.06, -272675.06, 49357.367, -0.0036121854, 0.21295217, -195014.03, -81086.695, 0.0, 9.997373, 9.991348 
8.7444055e+2, 2.9836783e+2, -147149.14, -204094.61, 55593.97, 0.034200225, 0.15946952, -113160.8, -97141.65, 0.0, 9.996964, 9.989527 
8.743119e+2, 3.0835667e+2, -152714.81, -224967.84, 45046.563, -0.16437404, 0.35378614, -131097.78, -131097.78, 0.0, 9.9951315, 9.985614 
8.7418497e+2, 3.1834298e+2, -32034.559, 61468.203, 3893.7966, -0.04273879, 0.22428936, 61630.074, 61630.074, 0.0, 9.993516, 10.005987 
8.8649744e+2, 1.2861663e+2, -1579358.8, -1689400.0, 13375.239, 0.07706017, 0.24640481, -1577756.4, 101825.17, 0.00000031712938, 10.010109, 9.995561 
8.863686e+2, 1.3861227e+2, -1489386.5, -1594770.3, 18892.775, 0.0622485, 0.25391102, -1486101.9, 95522.555, 0.0000002058169, 10.009541, 9.99561 
8.862436e+2, 1.4860773e+2, -1403494.8, -1506841.5, 44111.91, 0.051441245, 0.25236273, -1387227.0, 96441.99, 0.00000011095893, 10.00891, 9.995304 
8.8612145e+2, 1.58603e+2, -1314655.3, -1412785.4, 46669.184, 0.0487693, 0.24837188, -1296004.8, 89710.54, 0.000000047115975, 10.008262, 9.995353 
8.8600117e+2, 1.6859819e+2, -1229327.4, -1325936.0, 60773.176, 0.045976486, 0.25075123, -1199999.9, 87762.56, 0.000000015098864, 10.007616, 9.994945 
8.858823e+2, 1.7859317e+2, -1140804.1, -1232356.5, 63635.387, 0.039810203, 0.25462377, -1108190.8, 81620.97, 0.0000000035618875, 10.006957, 9.994963 
8.857644e+2, 1.8858789e+2, -1056484.9, -1147099.3, 73035.53, 0.0279835, 0.25577158, -1015844.8, 76018.71, 0.00000000061242067, 10.006289, 9.994435 
8.856474e+2, 1.9858234e+2, -967701.06, -1052353.3, 76258.51, 0.016464312, 0.25552747, -922809.8, 71108.14, 0.00000000007654106, 10.005601, 9.994542 
8.8553065e+2, 2.0857665e+2, -883579.25, -966161.7, 80286.64, 0.013454433, 0.2505632, -834588.06, 61385.637, 0.0000000000069516615, 10.0048685, 9.994089 
8.85414e+2, 2.1857068e+2, -796177.94, -872947.06, 83264.555, 0.011846841, 0.24534893, -742876.25, 55155.855, 0.00000000000045886103, 10.00412, 9.994121 
8.8529664e+2, 2.2856456e+2, -713890.5, -790479.8, 82526.6, 0.002167199, 0.2557951, -661206.5, 38885.7, 0.000000000000022020454, 10.003376, 9.993398 
8.851787e+2, 2.3855807e+2, -626390.5, -696696.94, 86444.64, -0.008534649, 0.26762524, -568224.75, 33930.992, 0.000000000000000008994276, 10.002607, 9.993473 
8.8505954e+2, 2.4855095e+2, -545622.1, -616326.56, 81149.625, -0.008693295, 0.24748279, -492458.6, 11766.951, 0.0000000000000000003132397, 10.001808, 9.99261 
8.8493896e+2, 2.5854337e+2, -457698.16, -521504.53, 85557.57, -0.009182936, 0.2254041, -398289.2, 8010.6445, 0.0, 10.001024, 9.992758 
8.848158e+2, 2.6853642e+2, -385092.0, -440380.28, 72617.29, -0.03560043, 0.2729501, -335035.0, -26667.059, 0.0, 9.999457, 9.992299 
8.8469064e+2, 2.785292e+2, -317316.16, -354733.1, 73639.41, -0.058209658, 0.3179634, -260045.88, -49607.082, 0.0, 9.997273, 9.992498 
8.8456535e+2, 2.885199e+2, -214239.47, -266617.72, 71042.01, -0.0024555179, 0.18742341, -164713.1, -52183.5, 0.0, 9.99814, 9.9913845 
8.844395e+2, 2.9850996e+2, -94071.0, -187996.66, 68088.92, 0.034494534, 0.08807602, -58319.813, -43692.883, 0.0, 10.000968, 9.988691 
8.843093e+2, 3.0849877e+2, -109301.81, -246018.61, 40703.332, -0.18450435, 0.5400219, -98101.23, -98101.23, 0.0, 9.999861, 9.981868 
8.8418067e+2, 3.1847933e+2, 29545.951, 100258.0, 5336.9814, -0.019938773, 0.14183053, 100658.54, 100658.54, 0.0, 9.9973755, 10.006794 
8.965075e+2, 1.2874925e+2, -1574440.4, -1677238.6, 11396.284, 0.0745948, 0.2665189, -1573192.1, 105090.61, 0.000000027446088, 10.010019, 9.996424 
8.9637816e+2, 1.3874552e+2, -1484814.3, -1583847.0, 16672.627, 0.0652609, 0.25184053, -1482082.6, 98236.55, 0.000000017811443, 10.009474, 9.996379 
8.962525e+2, 1.4874163e+2, -1400690.6, -1499656.9, 41692.426, 0.053618055, 0.25557432, -1385468.0, 96889.27, 0.000000009600229, 10.008845, 9.995817 
8.961297e+2, 1.5873754e+2, -1311583.1, -1405129.8, 44368.043, 0.04848911, 0.2627951, -1293887.4, 90510.19, 0.000000004074928, 10.008201, 9.995896 
8.9600873e+2, 1.687333e+2, -1225385.0, -1316843.9, 58402.92, 0.04286168, 0.2612735, -1196938.5, 89500.73, 0.0000000013051643, 10.00757, 9.995579 
8.958892e+2, 1.7872883e+2, -1136388.0, -1222633.5, 61264.98, 0.034486037, 0.25763473, -1104591.0, 83891.8, 0.00000000030768252, 10.0069275, 9.995632 
8.9577067e+2, 1.887243e+2, -1050934.0, -1135120.1, 70516.38, 0.027610965, 0.25643614, -1010902.8, 79624.52, 0.000000000052856997, 10.006262, 9.995257 
8.95653e+2, 1.9871955e+2, -962463.56, -1041095.6, 73638.445, 0.021977555, 0.25631407, -918302.8, 74271.04, 0.0000000000065991917, 10.005577, 9.995315 
8.9553547e+2, 2.0871474e+2, -877818.06, -954020.5, 77483.69, 0.014594382, 0.2610589, -829574.44, 65046.6, 0.00000000000059858216, 10.004853, 9.994918 
8.9541805e+2, 2.187097e+2, -790230.75, -860533.44, 80544.16, 0.0066128178, 0.26610956, -737501.6, 59168.84, 0.00000000000003944767, 10.00411, 9.994965 
8.953e+2, 2.2870444e+2, -706229.9, -774607.5, 79706.04, -0.00046505025, 0.26421303, -653689.6, 45032.496, 0.0000000000000018893523, 10.00337, 9.994476 
8.9518136e+2, 2.3869888e+2, -618310.44, -680117.75, 83481.836, -0.0065401215, 0.25973585, -560195.8, 40580.684, 0.00000000000000000037991612, 10.002608, 9.9945965 
8.950613e+2, 2.4869314e+2, -535567.4, -595612.3, 78283.18, -0.0074139666, 0.25070643, -481747.13, 21085.6, 0.0000000000000000000132298015, 10.001805, 9.994019 
8.9494e+2, 2.586871e+2, -449128.28, -503635.94, 82475.65, -0.009699046, 0.24625826, -389520.13, 15371.807, 0.0, 10.001012, 9.993978 
8.9481527e+2, 2.6868084e+2, -381915.56, -433653.84, 64087.45, -0.03340499, 0.2872099, -338673.1, -31720.04, 0.0, 9.999441, 9.99274 
8.9468795e+2, 2.7867398e+2, -310912.25, -341461.3, 67208.7, -0.054157466, 0.31487823, -257264.2, -48243.74, 0.0, 9.997271, 9.993386 
8.945635e+2, 2.8866476e+2, -217966.02, -275126.06, 82610.33, -0.011313298, 0.1624508, -159131.6, -48021.19, 0.0, 9.998195, 9.99081 
8.944403e+2, 2.9865417e+2, -105200.195, -212204.45, 74386.88, 0.011777914, 0.07657131, -67073.26, -53859.094, 0.0, 10.0010195, 9.98703 
8.9430916e+2, 3.0864182e+2, -140232.88, -310125.63, 29209.76, -0.18268362, 0.74546194, -135351.1, -135351.1, 0.0, 9.999808, 9.977495 
8.9417815e+2, 3.1861588e+2, 29418.479, 101223.83, 2794.3955, 0.0031233784, 0.06947232, 101332.41, 101332.41, 0.0, 9.997311, 10.0068865 
9.0651625e+2, 1.2888204e+2, -1607931.3, -1685841.9, 12404.793, 0.07714669, 0.2705118, -1606003.9, 70978.32, 0.000000001750139, 10.007398, 9.997107 
9.063865e+2, 1.3887905e+2, -1511323.5, -1588955.5, 16604.396, 0.06364556, 0.2616723, -1507921.1, 71090.29, 0.0000000011356971, 10.007321, 9.997072 
9.062604e+2, 1.488758e+2, -1423557.1, -1503691.6, 41091.715, 0.05274274, 0.2637364, -1406231.8, 74811.414, 0.00000000061201283, 10.006972, 9.996445 
9.0613705e+2, 1.588723e+2, -1332135.9, -1408126.5, 44553.133, 0.049513914, 0.2681556, -1311576.6, 71500.81, 0.0000000002596931, 10.006489, 9.996513 
9.060155e+2, 1.6886869e+2, -1242497.1, -1317752.0, 58802.992, 0.04319187, 0.267227, -1210313.3, 74799.58, 0.00000000008314143, 10.006074, 9.996232 
9.058955e+2, 1.7886491e+2, -1150591.5, -1222007.3, 61670.06, 0.03345214, 0.26484084, -1115037.5, 72112.46, 0.000000000019589252, 10.005624, 9.996296 
9.057763e+2, 1.888611e+2, -1063391.6, -1132163.4, 70406.305, 0.027069451, 0.2640993, -1019422.94, 69764.38, 0.0000000000033630288, 10.0050125, 9.996053 
9.0565795e+2, 1.9885714e+2, -974894.8, -1038263.94, 73558.88, 0.02254297, 0.26405826, -926486.8, 64739.203, 0.00000000000041954187, 10.004335, 9.996098 
9.0553975e+2, 2.088532e+2, -887736.8, -948175.1, 77870.52, 0.014384415, 0.26789087, -834427.44, 58837.445, 0.00000000000003801913, 10.003703, 9.995861 
9.054216e+2, 2.188491e+2, -798872.6, -853988.7, 81681.05, 0.0051900386, 0.2722115, -740226.0, 55079.082, 0.0000000000000025027426, 10.003041, 9.995914 
9.053028e+2, 2.2884491e+2, -713468.6, -764233.9, 81513.18, -0.00017246227, 0.2699179, -653477.5, 43868.594, 0.00000000000000011971253, 10.002256, 9.9957075 
9.0518343e+2, 2.3884058e+2, -626553.4, -670238.06, 86357.39, -0.0042371904, 0.26510984, -559318.9, 40069.598, 0.000000000000000000013031279, 10.001423, 9.995828 
9.0506244e+2, 2.4883634e+2, -542537.5, -580042.56, 82048.39, -0.008735672, 0.25998175, -477125.9, 24304.13, 0.00000000000000000000045380934, 10.000483, 9.995702 
9.049401e+2, 2.58832e+2, -460326.9, -490594.13, 88415.695, -0.014755051, 0.2593563, -385759.0, 17713.47, 0.0, 9.999412, 9.995618 
9.048143e+2, 2.6882753e+2, -379051.84, -408307.75, 76606.23, -0.028066007, 0.28864878, -315689.47, -10173.04, 0.0, 9.998543, 9.994859 
9.046856e+2, 2.7882266e+2, -286506.0, -305601.56, 91793.44, -0.03747193, 0.30517054, -203765.13, 3798.9897, 0.0, 9.997805, 9.995514 
9.045572e+2, 2.888168e+2, -311208.63, -274701.3, 111916.29, -0.029092913, 0.18166213, -179559.86, -69938.59, 0.0, 9.989649, 9.994814 
9.1652364e+2, 1.2901498e+2, -1604884.3, -1677737.8, 12179.458, 0.081737265, 0.26618448, -1602902.0, 72777.93, 0.00000000007848368, 10.007319, 9.997694 
9.163938e+2, 1.390128e+2, -1507936.9, -1579943.3, 16208.009, 0.059164055, 0.27872345, -1504456.9, 73244.586, 0.000000000050922332, 10.007234, 9.9977255 
9.1626734e+2, 1.4901021e+2, -1419363.3, -1493719.8, 39329.94, 0.050086796, 0.27450013, -1402420.6, 77306.17, 0.000000000027434896, 10.00691, 9.997148 
9.1614354e+2, 1.5900728e+2, -1327687.8, -1398415.8, 42957.195, 0.051279467, 0.26762408, -1307410.6, 74344.76, 0.000000000011637366, 10.006462, 9.997183 
9.160216e+2, 1.6900438e+2, -1238132.1, -1307988.0, 57133.39, 0.045724668, 0.2704971, -1206096.0, 77687.875, 0.0000000000037240467, 10.00604, 9.996909 
9.1590106e+2, 1.7900133e+2, -1146494.1, -1212478.6, 59765.496, 0.035395224, 0.27521145, -1111219.1, 74594.58, 0.00000000000087694224, 10.005575, 9.9969635 
9.157813e+2, 1.8899828e+2, -1058133.5, -1120691.8, 67808.69, 0.026228847, 0.27704138, -1014737.25, 73106.445, 0.00000000000015044839, 10.004981, 9.996842 
9.156623e+2, 1.9899511e+2, -969216.8, -1026400.2, 71151.14, 0.019035261, 0.2772879, -921127.56, 68747.04, 0.000000000000018753225, 10.004326, 9.996905 
9.1554344e+2, 2.08992e+2, -880348.25, -932750.56, 75404.945, 0.013147581, 0.27150646, -826722.06, 65183.133, 0.0000000000000016977716, 10.003694, 9.996911 
9.154247e+2, 2.1898887e+2, -791521.4, -838609.7, 79027.06, 0.007094682, 0.26588476, -732605.8, 61330.156, 0.00000000000000011163072, 10.00303, 9.996963 
9.1530514e+2, 2.28986e+2, -703618.8, -743832.94, 78370.62, 0.002669504, 0.27390033, -642817.0, 53147.156, 0.0000000000000000053320732, 10.002251, 9.997095 
9.151848e+2, 2.3898318e+2, -617054.94, -650556.06, 83318.15, -0.0016310575, 0.283032, -548820.25, 49171.523, 0.0, 10.001417, 9.997167 
9.150629e+2, 2.4898054e+2, -528696.5, -551357.2, 78076.805, -0.012851644, 0.2745292, -461132.22, 38885.445, 0.0, 10.000477, 9.997654 
9.1493946e+2, 2.589781e+2, -445621.16, -460203.56, 84447.23, -0.02580058, 0.26417917, -368150.97, 33890.645, 0.0, 9.99941, 9.997685 
9.148129e+2, 2.6897642e+2, -351890.28, -352199.88, 74426.61, -0.019677164, 0.2765737, -277618.3, 26439.688, 0.0, 9.998547, 9.998692 
9.1468376e+2, 2.7897525e+2, -263223.7, -257313.11, 87020.07, -0.0059848083, 0.28917778, -173198.16, 32871.344, 0.0, 9.997792, 9.998816 
9.1454643e+2, 2.8897595e+2, -252846.02, -151082.3, 56415.555, -0.058939617, 0.25684026, -125992.59, -17930.291, 0.0, 9.98947, 10.003175 
9.265297e+2, 1.2914775e+2, -1634683.0, -1683783.3, 9991.199, 0.07777132, 0.27665433, -1632727.8, 41651.742, 0.0000000000027075462, 10.00493, 9.998451 
9.263999e+2, 1.3914628e+2, -1534503.8, -1585056.0, 14713.281, 0.062709756, 0.2857073, -1530533.4, 45860.62, 0.0000000000017565108, 10.005092, 9.998423 
9.262733e+2, 1.491443e+2, -1440749.1, -1497753.8, 36260.645, 0.05156134, 0.28228992, -1423129.8, 55283.555, 0.0000000000009461418, 10.005186, 9.99771 
9.261493e+2, 1.5914197e+2, -1343753.0, -1399678.1, 38967.87, 0.04942925, 0.27650756, -1323753.0, 56683.125, 0.00000000000040122468, 10.005093, 9.997763 
9.2602694e+2, 1.6913968e+2, -1253684.6, -1307856.1, 52115.99, 0.04471906, 0.27815554, -1222036.1, 60422.465, 0.00000000000012835104, 10.004654, 9.997589 
9.259059e+2, 1.791373e+2, -1163535.8, -1213138.4, 54996.574, 0.03588411, 0.28133342, -1128007.0, 56475.01, 0.00000000000003021189, 10.004091, 9.997637 
9.2578566e+2, 1.8913497e+2, -1071093.4, -1118041.4, 62959.24, 0.026273172, 0.2821523, -1027374.44, 59130.45, 0.0000000000000051806873, 10.003719, 9.997633 
9.256661e+2, 1.9913259e+2, -978402.4, -1021848.9, 66077.32, 0.01824274, 0.28197962, -930569.06, 57958.92, 0.00000000000000064541624, 10.003317, 9.997702 
9.255466e+2, 2.0913039e+2, -889120.44, -925816.56, 69393.91, 0.012565593, 0.27807415, -835689.94, 54859.723, 0.000000000000000058396225, 10.002617, 9.997903 
9.254271e+2, 2.1912825e+2, -802242.75, -832652.75, 72748.414, 0.007038584, 0.27403542, -743127.3, 49443.246, 0.0000000000000000038371, 10.001822, 9.9979515 
9.2530674e+2, 2.291265e+2, -710782.8, -732812.56, 71185.39, 0.0028170366, 0.27939197, -649765.2, 44822.703, 0.00000000000000000018315075, 10.001146, 9.99838 
9.2518574e+2, 2.3912494e+2, -623139.94, -639097.56, 75054.42, -0.0012128267, 0.2862572, -555641.44, 40961.66, 0.0, 10.000391, 9.998444 
9.250628e+2, 2.4912384e+2, -534337.94, -534699.06, 67672.59, -0.012856251, 0.28282857, -466845.7, 31768.176, 0.0, 9.9992695, 9.999373 
9.2493814e+2, 2.5912318e+2, -452972.88, -444087.1, 72593.88, -0.02690495, 0.27659506, -375800.28, 24820.229, 0.0, 9.998083, 9.999429 
9.2481077e+2, 2.691235e+2, -355927.06, -325151.6, 56722.53, -0.017988889, 0.27549836, -281766.66, 20850.363, 0.0, 9.997072, 10.0012665 
9.246806e+2, 2.791248e+2, -277578.34, -237278.77, 57885.67, 0.0011644327, 0.27909908, -196136.1, 8468.429, 0.0, 9.995727, 10.001202 
9.2453945e+2, 2.891285e+2, -131783.8, -61867.7, -10863.202, -0.06632, 0.29929537, -60218.723, 46349.316, 0.0, 9.996624, 10.005857 
9.365345e+2, 1.2928028e+2, -1629828.8, -1672067.0, 10570.013, 0.069638066, 0.29465362, -1627331.3, 45750.027, 0.0, 10.004853, 9.999287 
9.3640506e+2, 1.3927947e+2, -1530092.6, -1575062.9, 15381.446, 0.07096019, 0.28647032, -1525334.9, 49754.438, 0.0, 10.005053, 9.999125 
9.362786e+2, 1.4927809e+2, -1438085.4, -1491082.8, 35876.59, 0.055182356, 0.28841782, -1419982.4, 57120.523, 0.0, 10.005136, 9.998188 
9.3615437e+2, 1.5927632e+2, -1340958.3, -1392409.4, 38148.746, 0.04513562, 0.2913477, -1320671.5, 58448.73, 0.0, 10.005026, 9.998288 
9.360316e+2, 1.692746e+2, -1249292.3, -1297998.3, 49836.305, 0.041396145, 0.28832203, -1218177.0, 62960.03, 0.0, 10.004615, 9.998274 
9.3591e+2, 1.7927285e+2, -1158710.5, -1203137.1, 53227.69, 0.035238806, 0.28414366, -1123247.0, 59907.355, 0.0, 10.0040865, 9.998316 
9.3578935e+2, 1.892712e+2, -1065611.0, -1106484.5, 61427.688, 0.026862372, 0.28132814, -1021309.7, 63860.734, 0.0, 10.003708, 9.998422 
9.356694e+2, 1.9926961e+2, -973144.6, -1010453.8, 64028.563, 0.019510023, 0.28002435, -925108.5, 62077.453, 0.0, 10.003291, 9.9984865 
9.355492e+2, 2.0926838e+2, -882618.8, -912078.4, 66202.27, 0.012450003, 0.28729898, -829527.44, 59670.703, 0.0, 10.002599, 9.99884 
9.354289e+2, 2.1926728e+2, -795634.6, -818924.75, 70052.72, 0.0051600803, 0.29425463, -736265.7, 54943.203, 0.0, 10.001817, 9.998884 
9.353079e+2, 2.2926643e+2, -702517.7, -715613.3, 68440.37, 0.00044973043, 0.28547218, -640312.6, 52904.55, 0.0, 10.00114, 9.99955 
9.351861e+2, 2.392659e+2, -614642.75, -621402.1, 71645.14, -0.0033346342, 0.27604565, -546297.6, 48924.69, 0.0, 10.000382, 9.999648 
9.3506205e+2, 2.4926628e+2, -523832.0, -512906.78, 63022.426, -0.008723639, 0.28583848, -455110.66, 42107.906, 0.0, 9.999262, 10.0008545 
9.3493634e+2, 2.5926724e+2, -443021.13, -423345.34, 69022.98, -0.017084397, 0.29643068, -363462.7, 35746.605, 0.0, 9.9980755, 10.000841 
9.348077e+2, 2.6926884e+2, -346604.84, -305847.7, 52185.21, -0.024531132, 0.2855068, -270203.22, 30990.418, 0.0, 9.997073, 10.002572 
9.346761e+2, 2.7927133e+2, -266245.3, -214223.58, 50978.52, -0.022528397, 0.27490944, -183003.55, 20165.686, 0.0, 9.995736, 10.002756 
9.3453634e+2, 2.8927457e+2, -151219.56, -103119.64, 4632.35, -0.044289682, 0.3003819, -102677.57, 2460.1184, 0.0, 9.996656, 10.00307 
9.4653845e+2, 1.2941189e+2, -1654697.3, -1678613.1, 6470.5537, 0.072778456, 0.29450527, -1653058.9, 18733.432, 0.0, 10.002938, 9.999791 
9.4640934e+2, 1.3941158e+2, -1548915.5, -1578344.5, 9452.058, 0.06760336, 0.28758648, -1546141.3, 27653.969, 0.0, 10.003535, 9.99966 
9.46283e+2, 1.4941078e+2, -1455980.8, -1493395.1, 27884.299, 0.054743044, 0.29085925, -1441109.8, 34693.31, 0.0, 10.003662, 9.998758 
9.461586e+2, 1.5940961e+2, -1359892.0, -1395417.9, 30519.012, 0.0485615, 0.29560015, -1342343.0, 35471.71, 0.0, 10.0034895, 9.998839 
9.460355e+2, 1.6940847e+2, -1263376.8, -1298016.3, 41173.83, 0.04256557, 0.29498106, -1236028.1, 43797.516, 0.0, 10.003384, 9.998877 
9.459136e+2, 1.7940734e+2, -1167862.6, -1200856.5, 44048.297, 0.033509184, 0.2930935, -1137323.4, 44513.457, 0.0, 10.003196, 9.998912 
9.457926e+2, 1.8940635e+2, -1075006.4, -1103358.0, 51115.95, 0.027257368, 0.29205823, -1036137.0, 47709.547, 0.0, 10.002759, 9.999104 
9.4567215e+2, 1.9940546e+2, -984071.8, -1007917.5, 52906.344, 0.022658557, 0.29166532, -941761.5, 44093.766, 0.0, 10.002232, 9.999183 
9.455514e+2, 2.0940498e+2, -889307.0, -905951.25, 53776.29, 0.014091733, 0.2960141, -843212.7, 44647.504, 0.0, 10.001761, 9.999676 
9.454304e+2, 2.1940468e+2, -798388.6, -810735.25, 56841.277, 0.004594038, 0.30038768, -747386.44, 42476.508, 0.0, 10.001245, 9.999733 
9.4530874e+2, 2.2940478e+2, -704798.7, -705793.9, 53644.535, -0.0005918933, 0.29465947, -651649.44, 40212.563, 0.0, 10.000543, 10.000523 
9.451862e+2, 2.3940523e+2, -617373.9, -612319.25, 55102.234, -0.0042576366, 0.2877849, -559686.4, 34171.07, 0.0, 9.9997835, 10.000574 
9.450613e+2, 2.4940646e+2, -518545.75, -500155.53, 42638.656, -0.0066458904, 0.29232967, -465731.78, 30113.557, 0.0, 9.999229, 10.001764 
9.449347e+2, 2.594083e+2, -428721.06, -405227.0, 44306.477, -0.012303764, 0.29831395, -371136.75, 26690.629, 0.0, 9.998631, 10.0018425 
9.4480526e+2, 2.6941082e+2, -329857.84, -290470.06, 24591.527, -0.028849563, 0.2939302, -278658.53, 21144.21, 0.0, 9.997983, 10.003226 
9.4467276e+2, 2.7941403e+2, -230591.06, -190378.84, 18429.594, -0.036040265, 0.28865215, -183210.31, 18561.148, 0.0, 9.997994, 10.003352 
9.445351e+2, 2.8941667e+2, -102631.45, -96269.516, -10104.253, -0.03248171, 0.29776105, -88857.35, 14888.392, 0.0, 10.000802, 10.001662 
9.565414e+2, 1.2954263e+2, -1653427.0, -1674792.3, 8589.997, 0.08120218, 0.28484434, -1650401.8, 20109.896, 0.0, 10.002889, 10.000082 
9.564128e+2, 1.3954276e+2, -1546801.4, -1572725.5, 11405.825, 0.057275523, 0.28932795, -1542497.6, 30012.742, 0.0, 10.003483, 10.000073 
9.5628655e+2, 1.495425e+2, -1452065.6, -1484592.1, 27089.424, 0.052216012, 0.2912745, -1436732.5, 37780.434, 0.0, 10.003628, 9.9993725 
9.5616215e+2, 1.5954189e+2, -1356061.3, -1387348.1, 29935.145, 0.057032455, 0.29360577, -1337928.5, 38590.406, 0.0, 10.003481, 9.9993925 
9.56039e+2, 1.6954137e+2, -1259715.4, -1290124.1, 40281.844, 0.046513487, 0.30010933, -1231864.0, 46660.06, 0.0, 10.003369, 9.99942 
9.559168e+2, 1.7954086e+2, -1164465.1, -1193245.3, 42752.242, 0.030989107, 0.30705988, -1133746.1, 46782.96, 0.0, 10.003169, 9.999441 
9.5579535e+2, 1.8954048e+2, -1071064.4, -1094813.3, 48864.004, 0.027713342, 0.31182912, -1032652.7, 49880.117, 0.0, 10.002738, 9.999692 
9.556745e+2, 1.9954021e+2, -979813.44, -998943.3, 50973.957, 0.027169464, 0.31406885, -937514.8, 47020.652, 0.0, 10.002222, 9.999795 
9.555532e+2, 2.0954023e+2, -884315.2, -895478.7, 51751.3, 0.016944617, 0.30420187, -837845.5, 48689.594, 0.0, 10.001754, 10.000388 
9.5543164e+2, 2.1954054e+2, -793189.5, -799826.75, 54562.453, 0.004982486, 0.2950555, -741844.9, 46687.094, 0.0, 10.001236, 10.000477 
9.553093e+2, 2.2954158e+2, -699381.0, -694483.94, 50587.418, -0.0004930958, 0.30751154, -646285.8, 44236.047, 0.0, 10.000535, 10.001291 
9.5518595e+2, 2.3954298e+2, -612847.56, -602852.6, 52604.336, -0.004147958, 0.31937853, -555008.94, 37499.504, 0.0, 9.999778, 10.001216 
9.5506054e+2, 2.4954441e+2, -516314.66, -495487.1, 40667.42, -0.006907971, 0.30099714, -463921.28, 30572.844, 0.0, 9.9992285, 10.002077 
9.5493335e+2, 2.595464e+2, -424637.75, -396735.44, 40916.11, -0.013309756, 0.28268185, -367457.4, 29017.404, 0.0, 9.998625, 10.002418 
9.548032e+2, 2.695495e+2, -330142.44, -290698.75, 23812.473, -0.030463677, 0.3025794, -279501.6, 18942.662, 0.0, 9.997956, 10.003225 
9.546708e+2, 2.7955285e+2, -233981.25, -196801.33, 21692.148, -0.037685506, 0.32160556, -186823.2, 13588.19, 0.0, 9.997971, 10.0029335 
9.5453596e+2, 2.8955466e+2, -102595.69, -98195.98, 5990.058, -0.03579477, 0.28756985, -94014.6, 8379.109, 0.0, 10.000917, 10.001519 
9.6654373e+2, 1.2967248e+2, -1666815.0, -1676127.3, 1885.672, 0.0811201, 0.31192574, -1666447.8, 2792.0078, 0.0, 10.001779, 10.000557 
9.6641564e+2, 1.3967304e+2, -1561327.8, -1575486.3, 5036.9287, 0.054467782, 0.3137719, -1559718.8, 11515.525, 0.0, 10.002335, 10.000466 
9.662897e+2, 1.4967304e+2, -1464772.6, -1487153.0, 17192.955, 0.049109682, 0.30969077, -1455448.9, 17785.29, 0.0, 10.002636, 9.999697 
9.6616524e+2, 1.5967269e+2, -1366113.3, -1388532.9, 18396.385, 0.05531325, 0.30515864, -1355780.4, 19457.12, 0.0, 10.002668, 9.999728 
9.6604186e+2, 1.696725e+2, -1269836.0, -1290455.9, 27018.695, 0.044834703, 0.30615714, -1251227.0, 26012.607, 0.0, 10.002516, 9.999832 
9.6591944e+2, 1.7967236e+2, -1175011.4, -1193342.5, 28484.254, 0.028794546, 0.308244, -1154254.4, 24986.574, 0.0, 10.002268, 9.999894 
9.657977e+2, 1.8967247e+2, -1078040.9, -1091704.4, 33680.746, 0.02496989, 0.3085706, -1050506.0, 30733.92, 0.0, 10.002017, 10.000274 
9.6567637e+2, 1.9967276e+2, -983603.2, -994318.8, 35612.16, 0.024055442, 0.3080515, -952948.06, 30289.031, 0.0, 10.00172, 10.000375 
9.655547e+2, 2.0967343e+2, -886167.6, -889283.1, 35588.023, 0.014232414, 0.30254072, -852103.25, 33127.17, 0.0, 10.001361, 10.001022 
9.6543276e+2, 2.1967441e+2, -793386.06, -792921.75, 37531.895, 0.0028818576, 0.29747105, -755621.3, 31599.43, 0.0, 10.000961, 10.001102 
9.653098e+2, 2.2967602e+2, -695744.0, -686048.06, 31853.053, -0.0016461543, 0.30634284, -658676.1, 30528.84, 0.0, 10.000539, 10.001889 
9.6518594e+2, 2.39678e+2, -604150.56, -591440.44, 33011.008, -0.004595271, 0.3156791, -564178.3, 27007.387, 0.0, 10.000109, 10.0018635 
9.6506006e+2, 2.4968009e+2, -505339.78, -485239.4, 22479.617, -0.009021411, 0.30577195, -470665.66, 22499.563, 0.0, 9.999822, 10.002517 
9.649325e+2, 2.5968254e+2, -408110.3, -385086.75, 22293.613, -0.016371222, 0.29482135, -371508.2, 23633.004, 0.0, 9.999655, 10.002739 
9.6480215e+2, 2.6968554e+2, -305256.28, -282267.5, 4756.772, -0.027880827, 0.30724326, -281322.13, 15789.396, 0.0, 9.999869, 10.002925 
9.6467e+2, 2.7968854e+2, -202019.14, -185907.94, 3118.1213, -0.031422947, 0.31859177, -185325.52, 13756.833, 0.0, 10.000416, 10.002559 
9.645371e+2, 2.896901e+2, -96788.07, -97590.65, -3435.6785, -0.042179506, 0.2922925, -93730.33, 7336.4204, 0.0, 10.001478, 10.0013685 
9.7654545e+2, 1.2980138e+2, -1664159.6, -1668939.6, 4240.721, 0.077049874, 0.3581986, -1661681.8, 6295.49, 0.0, 10.001703, 10.001088 
9.7641796e+2, 1.3980232e+2, -1559775.9, -1571069.1, 7199.272, 0.05605887, 0.35002252, -1556273.0, 13694.977, 0.0, 10.002281, 10.000799 
9.7629225e+2, 1.4980242e+2, -1464394.0, -1485584.3, 17621.338, 0.045082044, 0.3374594, -1454427.9, 17539.22, 0.0, 10.002603, 9.99982 
9.761678e+2, 1.5980211e+2, -1365230.0, -1386195.3, 18827.768, 0.046630092, 0.3233544, -1354163.4, 19806.705, 0.0, 10.002645, 9.999897 
9.7604436e+2, 1.6980201e+2, -1267925.3, -1286274.1, 26631.305, 0.039319158, 0.3106294, -1248932.4, 27038.664, 0.0, 10.002502, 10.000119 
9.759217e+2, 1.7980203e+2, -1172426.9, -1187975.8, 28216.826, 0.026588427, 0.29825932, -1150933.0, 27037.783, 0.0, 10.002265, 10.0002575 
9.757997e+2, 1.898025e+2, -1074124.1, -1083651.4, 33022.36, 0.019446252, 0.28645423, -1045523.56, 34442.676, 0.0, 10.002017, 10.000819 
9.75678e+2, 1.9980323e+2, -979838.25, -986605.44, 34737.34, 0.014863057, 0.2787528, -948320.1, 33638.734, 0.0, 10.001722, 10.000896 
9.7555596e+2, 2.0980464e+2, -882257.0, -881205.9, 34269.797, 0.0072037303, 0.29231575, -847457.6, 36487.684, 0.0, 10.001359, 10.00157 
9.7543365e+2, 2.1980633e+2, -789873.5, -785545.75, 36112.973, -0.0011806159, 0.30552095, -751531.9, 34396.848, 0.0, 10.000955, 10.001605 
9.753103e+2, 2.2980817e+2, -692921.7, -680123.3, 30236.078, -0.003932715, 0.29145825, -655616.7, 32293.977, 0.0, 10.000533, 10.002293 
9.75186e+2, 2.3981038e+2, -599752.0, -582331.1, 31417.375, -0.00593045, 0.27978423, -558439.06, 31449.676, 0.0, 10.000108, 10.002483 
9.7505987e+2, 2.4981351e+2, -501390.9, -477003.56, 21794.041, -0.013263931, 0.30833828, -464223.9, 27634.373, 0.0, 9.999818, 10.003081 
9.749321e+2, 2.5981677e+2, -407843.16, -384419.6, 21765.516, -0.021558532, 0.33431673, -371414.9, 22411.566, 0.0, 9.999649, 10.002786 
9.748021e+2, 2.698189e+2, -309919.78, -292083.28, 6808.2217, -0.020152103, 0.30488598, -289781.6, 6023.5947, 0.0, 9.999877, 10.002255 
9.746706e+2, 2.798209e+2, -204170.2, -191092.95, 5272.061, -0.01617156, 0.27674544, -189232.28, 8553.327, 0.0, 10.000448, 10.002195 
9.7453845e+2, 2.8982297e+2, -98180.766, -100346.08, 1499.6426, -0.054755647, 0.31918547, -97413.805, 2351.6267, 0.0, 10.001474, 10.001199 
9.8654675e+2, 1.2992859e+2, -1673712.1, -1672626.9, 4492.7246, 0.07145367, 0.25306243, -1668644.1, -1912.9198, 0.0, 10.001026, 10.001175 
9.864201e+2, 1.3992988e+2, -1567640.1, -1572679.6, 5410.5615, 0.07768459, 0.26681334, -1564191.4, 4527.2397, 0.0, 10.001666, 10.001003 
9.8629475e+2, 1.4993055e+2, -1470437.3, -1485451.8, 14042.479, 0.0628007, 0.28639212, -1462021.3, 8690.763, 0.0, 10.002076, 10.000091 
9.861703e+2, 1.5993083e+2, -1369960.9, -1386033.4, 15292.039, 0.053179607, 0.306462, -1360722.1, 11987.118, 0.0, 10.002239, 10.000107 
9.860468e+2, 1.6993123e+2, -1271136.5, -1285512.0, 21530.014, 0.049048442, 0.3229458, -1255626.1, 19079.324, 0.0, 10.00221, 10.000312 
9.85924e+2, 1.7993167e+2, -1174889.5, -1187593.4, 22161.994, 0.041619066, 0.33654788, -1158187.1, 18513.826, 0.0, 10.002061, 10.000381 
9.8580176e+2, 1.8993245e+2, -1075594.4, -1081898.6, 24516.15, 0.034061074, 0.3419357, -1054028.5, 24664.72, 0.0, 10.001847, 10.001022 
9.856798e+2, 1.9993351e+2, -981138.1, -985058.94, 23970.639, 0.02843065, 0.34563595, -959047.8, 21634.94, 0.0, 10.001581, 10.001077 
9.8555744e+2, 2.0993511e+2, -881932.56, -877142.5, 21437.31, 0.021644358, 0.35487553, -857966.8, 24700.328, 0.0, 10.001255, 10.001907 
9.854348e+2, 2.1993709e+2, -788738.56, -781143.2, 22070.35, 0.013815915, 0.36056516, -762546.2, 22101.848, 0.0, 10.00091, 10.001941 
9.8531103e+2, 2.2993918e+2, -689142.9, -673859.56, 15950.733, 0.00786533, 0.3370965, -663814.5, 22812.85, 0.0, 10.000646, 10.002683 
9.8518634e+2, 2.3994169e+2, -593069.7, -574042.44, 16632.55, 0.0015111499, 0.31320083, -564394.9, 24207.81, 0.0, 10.000389, 10.002932 
9.850598e+2, 2.4994507e+2, -496075.28, -470340.94, 6008.7456, -0.011431121, 0.32577294, -469007.1, 21562.535, 0.0, 10.000043, 10.003457 
9.849318e+2, 2.5994858e+2, -401984.16, -378036.0, 6425.195, -0.02345553, 0.33947605, -376421.06, 16114.287, 0.0, 9.999936, 10.003119 
9.848025e+2, 2.6995093e+2, -296025.7, -284946.38, -789.90796, -0.01449257, 0.31373343, -284890.34, 9621.724, 0.0, 10.000851, 10.002304 
9.846718e+2, 2.7995306e+2, -185103.63, -179614.27, 463.9723, -0.0052548535, 0.2916654, -179575.31, 16915.965, 0.0, 10.001685, 10.002396 
9.8453945e+2, 2.899554e+2, -109186.31, -103132.42, -280.18576, -0.06512211, 0.33662045, -103119.484, -4651.063, 0.0, 10.000624, 10.00142 
9.96548e+2, 1.3005757e+2, -1667087.9, -1672492.5, -3384.7664, 0.08419523, 0.36182356, -1665459.0, 8.754785, 0.0, 10.001638, 10.000914 
9.964215e+2, 1.4005843e+2, -1564412.0, -1571032.6, -5087.0747, 0.050969638, 0.3508057, -1561653.0, 5806.416, 0.0, 10.001911, 10.001032 
9.962967e+2, 1.5005901e+2, -1470502.8, -1483410.4, -3152.818, 0.048934862, 0.3420469, -1469773.8, -320.04538, 0.0, 10.00201, 10.000307 
9.961725e+2, 1.6005935e+2, -1374352.0, -1387110.4, -6328.7915, 0.049675692, 0.34441057, -1371745.1, -294.53134, 0.0, 10.001923, 10.000246 
9.960489e+2, 1.7005949e+2, -1273962.6, -1286506.0, -3201.516, 0.043838814, 0.33015883, -1273192.8, 256.33774, 0.0, 10.002028, 10.000396 
9.95926e+2, 1.8005988e+2, -1175929.4, -1189416.9, -3433.3057, 0.036467742, 0.33139423, -1175105.6, 339.6098, 0.0, 10.002073, 10.000317 
9.958035e+2, 1.9006042e+2, -1075501.9, -1082649.3, 31.545261, 0.023524385, 0.32225674, -1075501.8, 1938.0519, 0.0, 10.001912, 10.001 
9.956813e+2, 2.0006147e+2, -980834.0, -986014.94, 1780.0073, 0.016278936, 0.32787356, -980281.4, -851.9398, 0.0, 10.00167, 10.001021 
9.9555856e+2, 2.1006289e+2, -877867.5, -873131.75, 2558.319, 0.008336187, 0.31157076, -872013.7, 9401.729, 0.0, 10.001462, 10.002126 
9.9543554e+2, 2.2006501e+2, -782915.5, -775978.0, 6937.03, 0.004535478, 0.3108454, -771690.8, 11703.817, 0.0, 10.001222, 10.002177 
9.9531156e+2, 2.3006785e+2, -680272.3, -664878.6, 4834.9824, 0.0011355495, 0.32683378, -663486.0, 21880.967, 0.0, 10.001061, 10.003121 
9.951867e+2, 2.4007116e+2, -584586.2, -566486.6, 8320.83, -0.0009007393, 0.34494635, -563242.75, 24091.79, 0.0, 10.000828, 10.003252 
9.950598e+2, 2.5007454e+2, -489232.66, -465261.78, 1304.4027, -0.010376991, 0.33128002, -465191.03, 24110.57, 0.0, 10.000436, 10.003625 
9.9493176e+2, 2.6007792e+2, -395279.22, -367959.25, 6404.7207, -0.024042197, 0.3061038, -366532.3, 24735.875, 0.0, 10.000105, 10.003736 
9.948034e+2, 2.700817e+2, -289674.38, -272888.7, 3539.663, -0.013057306, 0.33729106, -272172.78, 21058.904, 0.0, 10.000912, 10.003112 
9.9467355e+2, 2.8008515e+2, -178715.44, -167295.42, -614.5892, -0.0014688032, 0.36872935, -167262.44, 27935.646, 0.0, 10.001719, 10.003225 
9.945399e+2, 2.9008752e+2, -105443.414, -93986.54, -5013.6514, -0.07036909, 0.33847073, -92102.375, 5072.5493, 0.0, 10.000541, 10.002083 
