coord_x,coord_y,stress_xx,stress_yy,tau_xy,velocity_x,velocity_y,stress_1,eps,damage,lx,ly
4.9964103e+0, 1.237765e+2, -1800084.9, -1723729.0, -751.229, 0.0006805902, -0.026780818, -1723721.6, 3266.2642, 0.0, 9.9928055, 10.002915 
4.9969935e+0, 1.3377772e+2, -1697791.0, -1644549.8, -2203.4063, -0.0007633609, -0.018082086, -1644458.8, -15482.9375, 0.0, 9.994002, 10.001051 
4.997572e+0, 1.4377777e+2, -1596315.3, -1565914.6, -2827.7332, -0.00027488542, -0.028022597, -1565653.8, -34678.516, 0.0, 9.995149, 9.999172 
4.998123e+0, 1.537769e+2, -1482922.1, -1461303.9, -1759.8625, 0.0007687681, -0.025263172, -1461161.6, -28177.861, 0.0, 9.99623, 9.999091 
4.998668e+0, 1.6377498e+2, -1383599.5, -1385809.0, -1583.6184, 0.0007469257, -0.026056992, -1382773.4, -47770.805, 0.0, 9.997321, 9.997027 
4.999209e+0, 1.737719e+2, -1269566.5, -1280665.0, -3029.3818, -0.001020912, -0.0327757, -1268793.4, -31760.748, 0.0, 9.998438, 9.996967 
4.999756e+0, 1.837676e+2, -1174113.6, -1213269.4, -3571.9104, -0.0010863161, -0.033845738, -1173790.4, -34715.72, 0.0, 9.999534, 9.994349 
5.0003165e+0, 1.9376187e+2, -1061436.0, -1109705.8, -2450.4048, 0.0016821594, -0.029081998, -1061312.0, -20181.05, 0.0, 10.000599, 9.994206 
5.0008655e+0, 2.0375508e+2, -962665.1, -1035387.1, -1706.8965, 0.002048559, -0.024679678, -962625.06, -19427.57, 0.0, 10.001689, 9.992061 
5.001398e+0, 2.137471e+2, -848555.44, -930427.0, -1919.4429, -0.0014257891, -0.023371154, -848510.44, -3234.587, 0.0, 10.002823, 9.9919815 
5.0019413e+0, 2.2373793e+2, -751423.1, -859833.9, -2111.5378, -0.0022424895, -0.022774998, -751382.0, -4016.332, 0.0, 10.003927, 9.989575 
5.002502e+0, 2.3372737e+2, -638792.44, -756007.75, -1947.6205, 0.0012563226, -0.026549973, -638760.06, 10709.066, 0.0, 10.004979, 9.98946 
5.0030506e+0, 2.437158e+2, -539832.3, -681085.7, -2160.881, 0.0020707, -0.028423022, -539799.25, 11783.272, 0.0, 10.006059, 9.987359 
5.003575e+0, 2.537031e+2, -425920.56, -576136.1, -3345.2776, -0.001396461, -0.030258304, -425846.13, 27860.906, 0.0, 10.007177, 9.987289 
5.0041276e+0, 2.63689e+2, -331400.22, -511284.63, -3185.6638, -0.0019196183, -0.030274298, -331343.84, 24500.756, 0.0, 10.008293, 9.984482 
5.004722e+0, 2.7367336e+2, -218409.81, -407832.0, -839.8968, 0.0024267787, -0.031876683, -218406.08, 39592.297, 0.0, 10.009396, 9.984319 
5.005267e+0, 2.8365678e+2, -118109.516, -330335.25, -637.98175, 0.002629699, -0.028345468, -118107.6, 42053.547, 0.0, 10.010481, 9.98239 
5.0057226e+0, 2.936392e+2, -4817.1387, -224881.95, -3873.4355, -0.00409103, -0.020646725, -4748.982, 57583.74, 0.0, 10.011526, 9.982392 
5.0062734e+0, 3.0362427e+2, 97092.54, -91510.32, -4458.6045, -0.0043313964, -0.021488663, 97197.875, 97197.875, 0.0, 10.012632, 9.98764 
5.0069785e+0, 3.1361166e+2, 113877.04, -84365.555, -1345.6266, 0.0063329046, -0.040139828, 113886.17, 113886.17, 0.0, 10.013829, 9.9875555 
1.4989229e+1, 1.2377567e+2, -1802583.5, -1728846.4, 3867.986, 0.0018052149, -0.029686702, -1728644.0, -1648.2021, 0.0, 9.992806, 10.002567 
1.4990981e+1, 1.3377649e+2, -1700437.9, -1649983.4, 2319.0952, -0.0023774577, -0.02289341, -1649877.0, -20889.29, 0.0, 9.994002, 10.000682 
1.4992715e+1, 1.4377642e+2, -1594780.8, -1562755.9, 1282.2844, -0.0008609123, -0.0336771, -1562704.6, -31716.205, 0.0, 9.995149, 9.999388 
1.499437e+1, 1.5377584e+2, -1480823.8, -1456986.3, 2330.7737, 0.0023039689, -0.03040605, -1456760.5, -23766.531, 0.0, 9.99623, 9.999386 
1.4996006e+1, 1.63774e+2, -1385773.0, -1390278.4, 2604.5623, 0.0021936796, -0.026383216, -1384582.0, -49569.992, 0.0, 9.997321, 9.996723 
1.4997627e+1, 1.7377065e+2, -1272357.5, -1286407.3, 1204.6469, -0.0030969062, -0.020955583, -1272254.9, -35209.855, 0.0, 9.998438, 9.996576 
1.4999269e+1, 1.8376626e+2, -1172531.0, -1209989.1, 461.4936, -0.0032595634, -0.020154541, -1172525.4, -33437.207, 0.0, 9.999533, 9.994572 
1.500095e+1, 1.937607e+2, -1059263.9, -1105203.8, 1581.2206, 0.0050135944, -0.02882635, -1059209.5, -18067.004, 0.0, 10.000598, 9.9945135 
1.5002596e+1, 2.03754e+2, -962783.9, -1035605.2, 2533.3708, 0.0061180787, -0.03263431, -962695.9, -19487.793, 0.0, 10.001688, 9.992046 
1.5004194e+1, 2.1374595e+2, -849004.0, -931347.0, 2374.437, -0.0042786286, -0.029897213, -848935.56, -3648.6963, 0.0, 10.002823, 9.9919195 
1.5005824e+1, 2.237368e+2, -751136.75, -859217.94, 1895.8895, -0.0067689097, -0.028063275, -751103.5, -3726.7334, 0.0, 10.003925, 9.989618 
1.5007508e+1, 2.3372631e+2, -638433.56, -755243.06, 2032.7006, 0.0037131284, -0.029563053, -638398.2, 11081.324, 0.0, 10.004978, 9.989512 
1.500915e+1, 2.4371466e+2, -541752.75, -685027.4, 2032.2101, 0.0062137684, -0.028498208, -541723.94, 9869.616, 0.0, 10.006057, 9.987091 
1.5010725e+1, 2.537017e+2, -428180.84, -580789.06, 901.8025, -0.0041937353, -0.02494018, -428175.53, 25545.342, 0.0, 10.007175, 9.986973 
1.5012382e+1, 2.636877e+2, -327766.22, -503714.56, 993.1171, -0.005810314, -0.023120364, -327760.6, 28097.184, 0.0, 10.008292, 9.985 
1.5014167e+1, 2.7367264e+2, -213942.86, -398539.22, 3328.685, 0.007249765, -0.026462652, -213882.86, 44122.477, 0.0, 10.009395, 9.984955 
1.5015802e+1, 2.8365606e+2, -122767.29, -339970.84, 3331.3035, 0.007879724, -0.029029684, -122716.21, 37451.64, 0.0, 10.010479, 9.981733 
1.5017167e+1, 2.9363757e+2, -10895.894, -237492.84, 87.44984, -0.01226058, -0.0324248, -10895.859, 51453.234, 0.0, 10.011524, 9.981531 
1.501882e+1, 3.036224e+2, 101351.79, -82603.8, 1.6851127, -0.012997362, -0.031450644, 101351.79, 101351.79, 0.0, 10.01263, 9.988253 
1.5020937e+1, 3.1361088e+2, 119711.016, -72125.9, 3186.2192, 0.018992955, -0.026025923, 119763.92, 119763.92, 0.0, 10.013825, 9.988397 
2.4982166e+1, 1.2377349e+2, -1798606.5, -1727498.5, -2271.0205, 0.0003976996, -0.03131612, -1727426.0, -409.067, 0.0, 9.9931, 10.002516 
2.4984986e+1, 1.3377427e+2, -1700985.3, -1650879.8, -1620.4192, -0.0017184776, -0.024494471, -1650827.4, -21817.898, 0.0, 9.993992, 10.000626 
2.4987818e+1, 1.4377415e+2, -1596977.5, -1563910.4, -1711.4103, 0.0018045754, -0.03472752, -1563822.0, -32811.516, 0.0, 9.995004, 9.999379 
2.4990581e+1, 1.5377359e+2, -1481048.0, -1457091.3, -2802.2905, 0.0013317408, -0.031031184, -1456767.9, -23751.754, 0.0, 9.996215, 9.999385 
2.4993329e+1, 1.6377175e+2, -1385184.8, -1390058.5, -3000.448, 0.00026029767, -0.026677525, -1383756.3, -48722.12, 0.0, 9.997364, 9.996717 
2.499607e+1, 1.7376839e+2, -1272674.8, -1286633.1, -1565.6364, -0.0014746706, -0.021313883, -1272501.3, -35434.004, 0.0, 9.998419, 9.99657 
2.499881e+1, 1.83764e+2, -1172945.4, -1210242.1, -1346.9863, -0.0010381818, -0.020129543, -1172896.8, -33786.44, 0.0, 9.999506, 9.994567 
2.500155e+1, 1.9375844e+2, -1058486.1, -1104868.9, -2520.6885, 0.0027228803, -0.027971081, -1058349.6, -17184.887, 0.0, 10.000652, 9.99451 
2.5004283e+1, 2.0375173e+2, -962002.5, -1035358.56, -2971.4712, 0.0030576792, -0.03185055, -961882.3, -18651.947, 0.0, 10.001746, 9.992034 
2.5007004e+1, 2.1374366e+2, -850018.8, -931970.8, -2799.2197, -0.0022297513, -0.030992523, -849923.3, -4613.8574, 0.0, 10.002759, 9.991907 
2.500974e+1, 2.2373448e+2, -752255.7, -859531.5, -2956.0217, -0.0033447347, -0.02954315, -752174.3, -4775.03, 0.0, 10.0038395, 9.989637 
2.5012496e+1, 2.3372404e+2, -637477.2, -754507.9, -3012.602, 0.0022153861, -0.029099891, -637399.7, 12102.014, 0.0, 10.005032, 9.989535 
2.5015223e+1, 2.4371241e+2, -540605.8, -684764.7, -2538.3647, 0.0034562945, -0.027327389, -540561.1, 11054.555, 0.0, 10.006147, 9.987064 
2.5017896e+1, 2.536994e+2, -429013.94, -581567.2, -1619.9689, -0.0025580577, -0.025438193, -428996.75, 24746.713, 0.0, 10.007135, 9.986938 
2.5020644e+1, 2.6368544e+2, -328972.28, -503640.25, -1561.3802, -0.0031842894, -0.023618024, -328958.3, 26921.99, 0.0, 10.00818, 9.985059 
2.50235e+1, 2.7367043e+2, -214562.73, -398021.44, -3370.4976, 0.0049156165, -0.024603443, -214500.83, 43526.08, 0.0, 10.009316, 9.985027 
2.5026244e+1, 2.8365383e+2, -123755.336, -341475.56, -3987.7974, 0.005552813, -0.02728219, -123682.32, 36507.113, 0.0, 10.010456, 9.98164 
2.502878e+1, 2.9363522e+2, -10804.732, -238750.11, -1799.2489, -0.006456216, -0.035000414, -10790.531, 51581.723, 0.0, 10.011587, 9.981415 
2.503154e+1, 3.0361998e+2, 102550.55, -81509.055, -378.73947, -0.0070778956, -0.033655934, 102551.33, 102551.33, 0.0, 10.012691, 9.988298 
2.5034642e+1, 3.1360862e+2, 118840.79, -71729.43, -2828.2598, 0.011763079, -0.020416444, 118882.76, 118882.76, 0.0, 10.013729, 9.98847 
3.497522e+1, 1.2376997e+2, -1796826.3, -1723878.0, 1241.4161, -0.0051197815, -0.03194841, -1723856.9, 3194.6846, 0.0, 9.993101, 10.002761 
3.4979007e+1, 1.3377103e+2, -1699124.6, -1647085.9, 1735.6173, 0.00089250004, -0.022538744, -1647028.1, -17986.871, 0.0, 9.993994, 10.000882 
3.4982875e+1, 1.4377096e+2, -1598586.8, -1567216.6, 2710.386, 0.007146096, -0.031460352, -1566984.3, -35942.49, 0.0, 9.995003, 9.999155 
3.4986755e+1, 1.5377012e+2, -1483162.1, -1461431.6, 1800.7908, -0.0030469464, -0.027090978, -1461283.5, -28233.365, 0.0, 9.996214, 9.99909 
3.4990636e+1, 1.637682e+2, -1383073.4, -1385732.8, 1045.4521, -0.0059883897, -0.02699761, -1382711.6, -47642.7, 0.0, 9.997364, 9.99701 
3.4994543e+1, 1.737651e+2, -1269963.8, -1281086.3, 2428.2341, 0.0032755355, -0.03371505, -1269456.8, -32357.463, 0.0, 9.998421, 9.996945 
3.4998378e+1, 1.8376079e+2, -1174556.6, -1213587.5, 2925.7327, 0.00485794, -0.03395032, -1174338.6, -35197.176, 0.0, 9.999507, 9.994339 
3.500212e+1, 1.9375508e+2, -1060727.4, -1109486.5, 1823.8077, -0.005932835, -0.026414586, -1060659.3, -19461.713, 0.0, 10.000652, 9.994195 
3.500592e+1, 2.0374826e+2, -962056.6, -1035458.3, 904.2402, -0.008091429, -0.02254913, -962045.5, -18781.086, 0.0, 10.001745, 9.992028 
3.500983e+1, 2.1374018e+2, -849766.4, -931438.6, 1026.5573, 0.004043442, -0.026518395, -849753.5, -4409.9165, 0.0, 10.002758, 9.991943 
3.5013688e+1, 2.2373101e+2, -752257.8, -859520.1, 1448.443, 0.0072642686, -0.027293922, -752238.25, -4804.897, 0.0, 10.003839, 9.989638 
3.5017473e+1, 2.3372059e+2, -637502.4, -754557.0, 1506.502, -0.0039565815, -0.025065316, -637482.94, 12052.675, 0.0, 10.005032, 9.9895315 
3.502127e+1, 2.4370903e+2, -539099.6, -681621.06, 1267.017, -0.0072153048, -0.025144102, -539088.4, 12560.448, 0.0, 10.0061455, 9.98728 
3.502509e+1, 2.5369617e+2, -427271.13, -577951.94, 2087.8035, 0.002971827, -0.031346086, -427242.22, 26532.592, 0.0, 10.007134, 9.987185 
3.502891e+1, 2.6368216e+2, -331724.4, -509350.88, 2646.093, 0.005375775, -0.031905875, -331685.0, 24227.2, 0.0, 10.008181, 9.984668 
3.503272e+1, 2.7366674e+2, -217997.3, -405119.22, 935.856, -0.0051392396, -0.026272595, -217992.63, 40070.477, 0.0, 10.0093155, 9.984542 
3.50366e+1, 2.8365016e+2, -120478.78, -334597.44, 286.36792, -0.005084311, -0.023408048, -120478.4, 39747.465, 0.0, 10.010452, 9.982111 
3.504056e+1, 2.9363215e+2, -6469.8867, -229708.11, 2451.2275, 0.012604804, -0.028381594, -6442.9746, 55959.293, 0.0, 10.011585, 9.982033 
3.504443e+1, 3.0361706e+2, 99017.07, -88828.625, 3564.7156, 0.012788538, -0.028547287, 99084.695, 99084.695, 0.0, 10.012689, 9.987797 
3.504809e+1, 3.1360492e+2, 114033.37, -81674.91, 1083.5913, -0.01643511, -0.023096524, 114039.37, 114039.37, 0.0, 10.013726, 9.987788 
4.4968194e+1, 1.2376549e+2, -1801529.8, -1726202.3, -1678.9734, -0.0015733561, -0.03174862, -1726164.9, 930.55835, 0.0, 9.992783, 10.002757 
4.4973052e+1, 1.3376655e+2, -1696864.0, -1646011.6, -3291.3438, -0.0015443614, -0.022241687, -1645799.5, -16714.451, 0.0, 9.994146, 10.000879 
4.4978017e+1, 1.437665e+2, -1593826.5, -1565090.6, -2950.366, 0.004491787, -0.031128533, -1564790.9, -33705.21, 0.0, 9.995334, 9.999136 
4.4982997e+1, 1.5376562e+2, -1482712.4, -1461440.6, -1840.44, -0.0022339122, -0.026114952, -1461282.6, -28188.4, 0.0, 9.996254, 9.999068 
4.4987968e+1, 1.6376369e+2, -1384367.9, -1386139.4, -2158.381, -0.003986936, -0.026476962, -1382920.6, -47807.473, 0.0, 9.997266, 9.997029 
4.4992965e+1, 1.737606e+2, -1269483.9, -1280580.5, -3382.267, 0.0026785228, -0.03526613, -1268534.3, -31390.871, 0.0, 9.998441, 9.996969 
4.49979e+1, 1.8375629e+2, -1173710.9, -1213328.6, -3713.944, 0.0035449609, -0.035683207, -1173365.6, -34180.19, 0.0, 9.999571, 9.994324 
4.500277e+1, 1.9375058e+2, -1061089.0, -1109881.5, -2654.0508, -0.005281152, -0.02528938, -1060945.0, -19703.42, 0.0, 10.000636, 9.994174 
4.5007667e+1, 2.0374376e+2, -962534.0, -1035910.44, -2470.2415, -0.006546916, -0.020509852, -962450.94, -19142.385, 0.0, 10.001722, 9.992006 
4.5012635e+1, 2.1373564e+2, -848554.06, -931066.9, -2777.9011, 0.004426806, -0.026671845, -848460.7, -3072.5403, 0.0, 10.00285, 9.991923 
4.5017558e+1, 2.2372645e+2, -751120.94, -858820.06, -2524.775, 0.0070522204, -0.02849409, -751061.75, -3583.6704, 0.0, 10.003909, 9.989651 
4.5022416e+1, 2.3371606e+2, -639907.6, -755525.9, -2341.7173, -0.0038896531, -0.02542452, -639860.25, 9719.864, 0.0, 10.004858, 9.989549 
4.5027316e+1, 2.4370451e+2, -542063.6, -683024.9, -2918.0144, -0.0065101827, -0.024933884, -542003.25, 9689.864, 0.0, 10.005941, 9.987281 
4.5032287e+1, 2.5369164e+2, -425721.56, -577202.9, -3896.3896, 0.00415323, -0.03104766, -425621.4, 28197.715, 0.0, 10.00724, 9.987184 
4.50372e+1, 2.6367763e+2, -328983.56, -508414.3, -3658.2727, 0.006102778, -0.032346196, -328909.0, 27047.73, 0.0, 10.008384, 9.9846325 
4.5041993e+1, 2.7366215e+2, -219041.73, -406098.16, -2230.7559, -0.0065366724, -0.028630225, -219015.14, 39093.117, 0.0, 10.009264, 9.984499 
4.5046958e+1, 2.8364557e+2, -121818.45, -334023.6, -1420.1846, -0.0067472705, -0.024975494, -121808.95, 38461.777, 0.0, 10.010306, 9.982221 
4.505217e+1, 2.9362774e+2, -5107.21, -227582.45, -2714.9597, 0.013568391, -0.024854815, -5074.083, 57371.273, 0.0, 10.011615, 9.982163 
4.5057184e+1, 3.036127e+2, 99823.44, -89262.3, -3066.047, 0.014558696, -0.024546238, 99873.14, 99873.14, 0.0, 10.012779, 9.987721 
4.506179e+1, 3.1360036e+2, 112663.39, -83545.625, -1552.0411, -0.017247446, -0.026282948, 112675.664, 112675.664, 0.0, 10.013684, 9.9876795 
5.496109e+1, 1.2376005e+2, -1803314.6, -1729951.4, 3447.0364, 0.008694154, -0.030354017, -1729789.8, -2641.0725, 0.0, 9.992786, 10.002501 
5.4967123e+1, 1.3376082e+2, -1698817.6, -1649993.6, 1844.5577, -0.0095934775, -0.023714012, -1649924.1, -20782.77, 0.0, 9.994145, 10.000609 
5.497324e+1, 1.4376068e+2, -1592428.4, -1562237.6, 708.10974, -0.00690151, -0.033534586, -1562221.0, -31078.375, 0.0, 9.995335, 9.99933 
5.4979306e+1, 1.5376008e+2, -1480815.6, -1457617.5, 1653.176, 0.0023637768, -0.028069481, -1457500.3, -24351.67, 0.0, 9.996257, 9.999327 
5.4985327e+1, 1.637582e+2, -1386131.6, -1389877.8, 2141.377, 0.0045056497, -0.025120556, -1385159.6, -49992.824, 0.0, 9.997271, 9.996773 
5.499134e+1, 1.7375486e+2, -1271832.1, -1285425.4, 1066.0028, -0.004284055, -0.025965353, -1271749.0, -34549.258, 0.0, 9.998441, 9.996639 
5.4997385e+1, 1.8375048e+2, -1172299.3, -1210421.0, 347.75635, -0.0061717345, -0.02521415, -1172296.1, -33053.414, 0.0, 9.999571, 9.994521 
5.50035e+1, 1.9374493e+2, -1059141.6, -1105888.4, 1374.0675, 0.0033651565, -0.02454509, -1059101.3, -17804.295, 0.0, 10.000637, 9.994445 
5.5009526e+1, 2.0373818e+2, -962718.0, -1036338.56, 1741.3049, 0.006099948, -0.025724078, -962676.8, -19313.83, 0.0, 10.001725, 9.991976 
5.501542e+1, 2.1372999e+2, -849076.75, -932158.94, 1479.3816, -0.0022021844, -0.031531423, -849050.4, -3607.123, 0.0, 10.002851, 9.991848 
5.502135e+1, 2.2372077e+2, -750947.94, -858460.06, 1119.9054, -0.005058152, -0.033148058, -750936.25, -3402.7322, 0.0, 10.003909, 9.989675 
5.502733e+1, 2.3371042e+2, -639630.44, -754965.8, 1231.0923, 0.0012601677, -0.030131869, -639617.3, 10017.856, 0.0, 10.004859, 9.989586 
5.503337e+1, 2.4369884e+2, -543491.0, -685999.4, 1811.9219, 0.0038166265, -0.026759926, -543468.0, 8280.653, 0.0, 10.005942, 9.987078 
5.5039495e+1, 2.536858e+2, -427439.44, -580746.94, 1022.71356, 0.00015497202, -0.024927882, -427432.63, 26443.746, 0.0, 10.00724, 9.98694 
5.504551e+1, 2.636718e+2, -326852.25, -503907.34, -157.74164, -0.0018224997, -0.025143567, -326852.13, 29161.807, 0.0, 10.00838, 9.9849415 
5.505132e+1, 2.736566e+2, -216260.56, -400340.78, 1063.3141, -0.00071735884, -0.031801805, -216254.42, 41908.016, 0.0, 10.009264, 9.984892 
5.505733e+1, 2.8364012e+2, -123501.34, -337567.84, 3292.9253, -0.0010592182, -0.032034915, -123450.7, 36873.348, 0.0, 10.010308, 9.9819765 
5.506361e+1, 2.9362205e+2, -7542.6953, -232611.02, 2228.4272, -0.0038734577, -0.024324419, -7520.634, 54980.773, 0.0, 10.011613, 9.981819 
5.506979e+1, 3.0360696e+2, 102164.71, -84287.92, 537.3154, -0.0025402033, -0.021639438, 102166.26, 102166.26, 0.0, 10.012775, 9.988065 
5.5075717e+1, 3.1359503e+2, 115823.72, -76956.24, 1821.7677, 0.0059845187, -0.030453162, 115840.93, 115840.93, 0.0, 10.013684, 9.988131 
6.495403e+1, 1.2375328e+2, -1798257.0, -1727105.8, -2647.9897, 0.008150251, -0.028632065, -1727007.4, 207.85178, 0.0, 9.993112, 10.002533 
6.496116e+1, 1.3375406e+2, -1701537.8, -1650880.8, -1989.9003, -0.009628156, -0.02295263, -1650802.8, -21595.252, 0.0, 9.993941, 10.000647 
6.49684e+1, 1.4375395e+2, -1597947.5, -1564820.5, -2316.7686, -0.0050197444, -0.033344686, -1564659.3, -33450.586, 0.0, 9.994954, 9.999337 
6.497558e+1, 1.5375334e+2, -1480431.8, -1457397.8, -3260.8203, 0.003071009, -0.028484631, -1456945.1, -23730.506, 0.0, 9.996282, 9.999328 
6.4982694e+1, 1.6375147e+2, -1383498.9, -1389117.4, -3338.258, 0.0044795186, -0.025009423, -1381945.1, -46712.07, 0.0, 9.997472, 9.996724 
6.498978e+1, 1.7374808e+2, -1272029.6, -1286125.0, -2384.8909, -0.004278401, -0.02384441, -1271637.0, -34370.79, 0.0, 9.998453, 9.996583 
6.499691e+1, 1.8374367e+2, -1173606.5, -1210913.3, -2490.952, -0.0057299435, -0.023593832, -1173441.0, -34131.477, 0.0, 9.999475, 9.994533 
6.500411e+1, 1.937381e+2, -1059846.3, -1105983.6, -3310.1445, 0.0043850755, -0.02725465, -1059610.0, -18246.057, 0.0, 10.000578, 9.994466 
6.501122e+1, 2.0373139e+2, -963246.25, -1036121.9, -3703.2673, 0.0068062665, -0.029289724, -963058.56, -19628.832, 0.0, 10.001667, 9.992017 
6.50182e+1, 2.1372329e+2, -850388.56, -932313.2, -3079.6348, -0.0032484788, -0.030267514, -850272.94, -4763.811, 0.0, 10.002739, 9.991889 
6.502523e+1, 2.2371408e+2, -751886.1, -859525.06, -3216.9504, -0.005995076, -0.03014551, -751790.06, -4190.812, 0.0, 10.00387, 9.989619 
6.503233e+1, 2.337036e+2, -636600.8, -754279.56, -3910.0293, 0.0030272643, -0.03055367, -636471.0, 13230.903, 0.0, 10.005098, 9.989515 
6.503944e+1, 2.4369198e+2, -540137.2, -683993.1, -3167.292, 0.00587991, -0.028790014, -540067.5, 11748.274, 0.0, 10.006155, 9.987109 
6.5046555e+1, 2.53679e+2, -431630.66, -582224.7, -1862.8003, -0.0015700497, -0.025383987, -431607.63, 22335.277, 0.0, 10.006928, 9.986989 
6.5053666e+1, 2.6366505e+2, -332820.47, -506723.47, -2282.769, -0.0036920477, -0.024247333, -332790.53, 23289.51, 0.0, 10.007967, 9.984946 
6.5060705e+1, 2.7364987e+2, -213733.19, -399126.0, -3889.414, 0.0031091117, -0.029946312, -213651.63, 44576.83, 0.0, 10.009437, 9.98489 
6.5067834e+1, 2.8363332e+2, -119338.766, -336214.9, -3308.6272, 0.0027912804, -0.031315755, -119288.305, 41102.117, 0.0, 10.010622, 9.981915 
6.507502e+1, 2.9361513e+2, -12325.688, -235705.16, -2517.1658, -0.009817229, -0.028053083, -12297.327, 50271.57, 0.0, 10.011318, 9.981748 
6.508228e+1, 3.0360007e+2, 96568.31, -85757.32, -2963.4949, -0.009089054, -0.02626853, 96616.47, 96616.47, 0.0, 10.012335, 9.988174 
6.5089583e+1, 3.1358832e+2, 119818.89, -73506.266, -3865.888, 0.014623122, -0.029777534, 119896.164, 119896.164, 0.0, 10.013891, 9.988266 
7.4947023e+1, 1.2374514e+2, -1795822.4, -1722213.9, 513.9522, -0.0052173724, -0.026185026, -1722210.4, 5084.86, 0.0, 9.993117, 10.002861 
7.495518e+1, 1.3374628e+2, -1699001.1, -1645673.0, 1128.7374, -0.0023825637, -0.0200138, -1645649.1, -16365.259, 0.0, 9.99394, 10.000999 
7.49635e+1, 1.4374627e+2, -1599221.5, -1567456.1, 2459.7695, 0.009258989, -0.030543074, -1567266.9, -35983.082, 0.0, 9.994955, 9.999157 
7.497182e+1, 1.5374541e+2, -1482262.8, -1461174.4, 1776.0077, -0.0014051414, -0.02713685, -1461025.9, -27733.436, 0.0, 9.996282, 9.99907 
7.4980074e+1, 1.6374342e+2, -1382302.3, -1386689.6, 503.06732, -0.0055244756, -0.026006393, -1382245.4, -46933.594, 0.0, 9.997473, 9.996888 
7.4988306e+1, 1.7374022e+2, -1270420.5, -1282834.6, 1320.2179, 0.0018296593, -0.028946206, -1270281.6, -32938.543, 0.0, 9.998454, 9.996806 
7.4996483e+1, 1.8373583e+2, -1174777.6, -1213373.9, 1605.7347, 0.003837168, -0.03081858, -1174711.0, -35324.957, 0.0, 9.999477, 9.994364 
7.5004625e+1, 1.9373007e+2, -1061443.1, -1109288.1, 868.98047, -0.0031345661, -0.03349504, -1061427.4, -19984.8, 0.0, 10.000578, 9.99424 
7.501278e+1, 2.0372331e+2, -962432.1, -1034447.2, 346.75183, -0.005380628, -0.03121287, -962430.5, -18921.684, 0.0, 10.001667, 9.99213 
7.5020987e+1, 2.1371545e+2, -849219.5, -929919.4, 963.4137, 0.0002191813, -0.022962486, -849208.0, -3622.1653, 0.0, 10.00274, 9.992051 
7.50292e+1, 2.2370633e+2, -752824.44, -861484.6, 1329.7189, 0.0029115977, -0.019663678, -752808.2, -5132.7563, 0.0, 10.003871, 9.989484 
7.50374e+1, 2.336956e+2, -637883.94, -756889.75, 723.3964, 0.0006113113, -0.026908323, -637879.5, 11900.897, 0.0, 10.005096, 9.989337 
7.5045526e+1, 2.4368395e+2, -538254.4, -680058.3, -51.405186, -0.0012382447, -0.031136679, -538254.3, 13640.265, 0.0, 10.006153, 9.987378 
7.5053483e+1, 2.5367126e+2, -429223.44, -577280.6, 1024.3405, -0.0020938439, -0.03245361, -429216.34, 24802.43, 0.0, 10.00693, 9.987326 
7.506166e+1, 2.6365736e+2, -334833.5, -510948.88, 2907.924, -0.0007631604, -0.02970749, -334785.5, 21369.59, 0.0, 10.00797, 9.984656 
7.507016e+1, 2.7364194e+2, -216500.86, -404814.44, 1672.2134, 0.004175934, -0.023194913, -216486.0, 41820.273, 0.0, 10.009434, 9.984502 
7.507847e+1, 2.8362525e+2, -118580.3, -334519.9, -324.3049, 0.0037295523, -0.022984132, -118579.81, 41890.004, 0.0, 10.010617, 9.982034 
7.508638e+1, 2.936071e+2, -10924.213, -232806.33, 61.95609, -0.005709665, -0.036128532, -10924.196, 51723.613, 0.0, 10.011318, 9.981945 
7.509464e+1, 3.0359203e+2, 95796.65, -87459.0, 2463.787, -0.006576394, -0.038237557, 95829.766, 95829.766, 0.0, 10.01234, 9.988054 
7.510341e+1, 3.135803e+2, 118590.31, -75987.34, 2015.2279, 0.006999413, -0.02452173, 118611.18, 118611.18, 0.0, 10.013886, 9.988097 
8.493996e+1, 1.2373621e+2, -1800463.3, -1724722.1, -984.9136, -0.0071568936, -0.027982935, -1724709.4, 2673.2058, 0.0, 9.99281, 10.00284 
8.4949255e+1, 1.3373736e+2, -1695523.5, -1644279.1, -3241.6074, -0.0011651915, -0.019887783, -1644074.9, -14703.579, 0.0, 9.994188, 10.000972 
8.49587e+1, 1.4373733e+2, -1593092.6, -1564772.5, -2972.242, 0.012648542, -0.029967563, -1564464.0, -33092.49, 0.0, 9.995382, 9.999128 
8.49681e+1, 1.5373641e+2, -1482236.8, -1461486.8, -1952.7448, -0.0023120127, -0.027636107, -1461304.6, -27924.08, 0.0, 9.996296, 9.99904 
8.497744e+1, 1.6373442e+2, -1384690.4, -1387781.0, -2913.4316, -0.007984869, -0.027067188, -1382937.8, -47537.77, 0.0, 9.997306, 9.996893 
8.4986776e+1, 1.7373122e+2, -1269885.0, -1282478.6, -3718.5452, 0.002303212, -0.029485699, -1268869.0, -31437.645, 0.0, 9.998486, 9.996813 
8.499604e+1, 1.8372685e+2, -1172927.8, -1212525.1, -3856.0054, 0.005432785, -0.030925272, -1172555.8, -33081.633, 0.0, 9.999604, 9.994357 
8.500522e+1, 1.9372107e+2, -1060716.0, -1109034.0, -2986.8953, -0.0033683737, -0.03312037, -1060532.0, -19001.266, 0.0, 10.000631, 9.994229 
8.501445e+1, 2.0371428e+2, -962345.25, -1034912.44, -2984.8633, -0.006108862, -0.030927144, -962222.6, -18625.412, 0.0, 10.001694, 9.992084 
8.502377e+1, 2.1370636e+2, -848420.9, -930128.6, -3942.7197, 0.0009895269, -0.023440143, -848231.06, -2556.1047, 0.0, 10.002819, 9.991996 
8.503307e+1, 2.2369722e+2, -752406.75, -860679.6, -3920.7065, 0.0039457693, -0.020319825, -752265.0, -4500.3965, 0.0, 10.003873, 9.989536 
8.5042346e+1, 2.3368658e+2, -641567.4, -757921.25, -2749.0945, -0.00023511487, -0.026584836, -641502.44, 8366.399, 0.0, 10.004811, 9.989402 
8.505154e+1, 2.4367495e+2, -542068.2, -682267.44, -3493.88, -0.0022869615, -0.030235004, -541981.2, 10001.601, 0.0, 10.005906, 9.987345 
8.506059e+1, 2.5366223e+2, -424762.4, -575689.1, -5272.0313, -0.0007608956, -0.031591356, -424578.47, 29529.002, 0.0, 10.007259, 9.987272 
8.5069853e+1, 2.6364827e+2, -328638.5, -507828.28, -3892.8372, 0.0008750076, -0.029504014, -328553.97, 27690.12, 0.0, 10.008387, 9.984665 
8.507942e+1, 2.7363285e+2, -220677.2, -406627.22, -2176.1333, 0.002217118, -0.02483005, -220651.75, 37743.535, 0.0, 10.009137, 9.984518 
8.508882e+1, 2.836162e+2, -125638.02, -337876.78, -2979.8684, 0.002508791, -0.02426923, -125596.195, 34962.473, 0.0, 10.010129, 9.982037 
8.509786e+1, 2.9359806e+2, -7984.6973, -231371.4, -4081.6885, 0.001036484, -0.03335072, -7910.1426, 54826.152, 0.0, 10.011519, 9.981945 
8.510725e+1, 3.0358297e+2, 101126.47, -85760.15, -1716.5302, -0.00014088476, -0.03519638, 101142.234, 101142.234, 0.0, 10.012741, 9.987975 
8.51171e+1, 3.1357107e+2, 114746.07, -78913.07, -1515.9149, -0.00096562837, -0.027823329, 114757.93, 114757.93, 0.0, 10.013667, 9.987999 
9.4932854e+1, 1.23726495e+2, -1803228.9, -1730364.0, 4081.8838, 0.0005373399, -0.034089647, -1730136.0, -2658.4941, 0.0, 9.992808, 10.002456 
9.494339e+1, 1.3372725e+2, -1698508.0, -1650370.6, 1955.3702, -0.0064345202, -0.022614915, -1650291.4, -20821.11, 0.0, 9.994186, 10.000557 
9.495401e+1, 1.4372706e+2, -1592172.5, -1562885.8, 655.3677, 0.0044855904, -0.031391267, -1562871.0, -31399.002, 0.0, 9.995382, 9.999256 
9.4964415e+1, 1.5372634e+2, -1480766.1, -1458471.4, 1499.7476, -0.0003755418, -0.030190937, -1458370.9, -24891.781, 0.0, 9.996296, 9.999244 
9.497479e+1, 1.637244e+2, -1385795.9, -1390080.8, 1417.0717, -0.0037560598, -0.028270697, -1385369.6, -49871.484, 0.0, 9.997307, 9.996736 
9.4985205e+1, 1.7372106e+2, -1271370.3, -1285551.1, 757.1164, -0.003669349, -0.025481539, -1271329.9, -33798.83, 0.0, 9.998486, 9.996603 
9.4995576e+1, 1.8371665e+2, -1171801.8, -1210225.1, 79.01886, -0.0017729864, -0.023728639, -1171801.6, -32227.45, 0.0, 9.999605, 9.994513 
9.500592e+1, 1.9371107e+2, -1059233.8, -1105972.5, 895.3232, 0.0028070388, -0.026258223, -1059216.6, -17587.875, 0.0, 10.00063, 9.994437 
9.501624e+1, 2.0370428e+2, -963817.0, -1037927.0, 1204.1758, 0.0036242271, -0.02846104, -963797.44, -20102.195, 0.0, 10.001693, 9.991878 
9.5026565e+1, 2.13696e+2, -850320.8, -934039.06, 313.16803, -0.0017384398, -0.03167061, -850319.6, -4543.1606, 0.0, 10.002818, 9.99173 
9.503687e+1, 2.2368677e+2, -750737.44, -857243.44, -311.12204, -0.0038789515, -0.03189209, -750736.5, -2869.6243, 0.0, 10.003874, 9.989768 
9.504716e+1, 2.3367651e+2, -639375.75, -753391.4, 768.92664, -0.0005828401, -0.029566241, -639370.56, 10596.863, 0.0, 10.004811, 9.989711 
9.505749e+1, 2.4366498e+2, -544407.6, -687108.8, 1375.8527, 0.001590883, -0.02607075, -544394.3, 7686.061, 0.0, 10.005906, 9.987013 
9.5067877e+1, 2.5365186e+2, -427826.47, -581984.7, -164.45421, 0.001872573, -0.022922102, -427826.28, 26382.691, 0.0, 10.0072565, 9.986842 
9.507824e+1, 2.6363778e+2, -326527.38, -503409.16, -785.6113, 0.00028391197, -0.023894355, -326523.88, 29823.154, 0.0, 10.008386, 9.984966 
9.50885e+1, 2.7362263e+2, -217754.73, -400558.34, 607.36456, -0.0041423724, -0.034610942, -217752.72, 40742.766, 0.0, 10.009138, 9.984932 
9.5098907e+1, 2.8360614e+2, -126391.766, -339437.63, 1896.6953, -0.0022674848, -0.034911685, -126374.88, 34282.14, 0.0, 10.010129, 9.981929 
9.5109475e+1, 2.9358804e+2, -9336.11, -234180.16, 1136.453, 0.010105448, -0.0202777, -9330.366, 53504.05, 0.0, 10.011518, 9.981752 
9.5120096e+1, 3.035729e+2, 100887.52, -86256.73, 1978.6902, 0.009788324, -0.017755209, 100908.445, 100908.445, 0.0, 10.012742, 9.98794 
9.5130676e+1, 3.1356066e+2, 114615.484, -79090.125, 1974.0238, -0.012095208, -0.039190497, 114635.6, 114635.6, 0.0, 10.013663, 9.9879875 
1.049259e+2, 1.2371542e+2, -1797919.4, -1728540.4, -2416.576, 0.0055615553, -0.033626337, -1728456.3, -870.3072, 0.0, 9.993199, 10.002386 
1.0493752e+2, 1.3371608e+2, -1699602.0, -1651785.3, -1944.6655, -0.009715482, -0.024169419, -1651706.4, -22126.701, 0.0, 9.994148, 10.000478 
1.04949236e+2, 1.4371584e+2, -1595422.4, -1564528.1, -2744.0293, -0.000007186067, -0.03341465, -1564286.4, -32704.402, 0.0, 9.995163, 9.9992485 
1.04960725e+2, 1.5371513e+2, -1480795.1, -1458455.6, -3481.6855, 0.0014607556, -0.030170329, -1457925.5, -24336.645, 0.0, 9.996292, 9.999244 
1.0497218e+2, 1.6371322e+2, -1384456.4, -1389425.9, -3557.252, 0.00061118795, -0.027435036, -1382602.0, -46994.176, 0.0, 9.997396, 9.996734 
1.0498369e+2, 1.7370984e+2, -1271535.9, -1285650.0, -2614.3018, -0.0032907068, -0.026013575, -1271067.3, -33426.32, 0.0, 9.998473, 9.996599 
1.0499515e+2, 1.8370543e+2, -1172595.8, -1211094.9, -3207.77, -0.0032269228, -0.024182504, -1172330.4, -32646.191, 0.0, 9.99957, 9.994468 
1.0500658e+2, 1.9369982e+2, -1058482.5, -1106194.4, -4358.2217, 0.002893211, -0.024253868, -1058087.8, -16348.671, 0.0, 10.000707, 9.994382 
1.0501798e+2, 2.0369299e+2, -962469.94, -1037074.56, -4531.658, 0.004509596, -0.026308468, -962195.7, -18389.83, 0.0, 10.001776, 9.991892 
1.0502935e+2, 2.136847e+2, -851268.25, -934200.75, -3284.8413, -0.0014020975, -0.033262372, -851138.4, -5251.2144, 0.0, 10.00274, 9.991754 
1.050407e+2, 2.2367546e+2, -752389.25, -858347.75, -3500.6038, -0.0037311784, -0.034857474, -752273.75, -4296.11, 0.0, 10.003772, 9.98974 
1.05052024e+2, 2.336652e+2, -637999.8, -753150.3, -4964.594, -0.00029388044, -0.030225027, -637786.1, 12292.171, 0.0, 10.004923, 9.98967 
1.0506345e+2, 2.4365366e+2, -542709.3, -686197.44, -4274.737, 0.0019336187, -0.025524363, -542582.06, 9609.3545, 0.0, 10.006017, 9.987019 
1.0507502e+2, 2.5364056e+2, -431158.38, -583445.06, -2536.3735, 0.0019505743, -0.02313068, -431116.16, 23203.818, 0.0, 10.007021, 9.986854 
1.0508647e+2, 2.6362646e+2, -331016.7, -505385.88, -2972.8838, 0.00048081996, -0.024545882, -330966.03, 25491.885, 0.0, 10.008068, 9.984983 
1.05097674e+2, 2.7361134e+2, -216894.52, -399960.53, -4612.706, -0.0034160363, -0.03483891, -216778.36, 41827.84, 0.0, 10.009187, 9.984946 
1.05109155e+2, 2.8359485e+2, -123006.59, -337629.8, -3323.213, -0.0020081012, -0.03492565, -122955.15, 37812.44, 0.0, 10.010351, 9.981942 
1.0512101e+2, 2.9357678e+2, -8234.416, -233499.78, -2399.122, 0.00804169, -0.020676823, -8208.867, 54736.04, 0.0, 10.011585, 9.981763 
1.0513276e+2, 3.0356166e+2, 99537.945, -86360.25, -2068.127, 0.008515888, -0.017360324, 99560.945, 99560.945, 0.0, 10.012623, 9.987988 
1.051442e+2, 3.1354952e+2, 109957.04, -80731.305, -1974.5961, -0.007431388, -0.03579722, 109977.484, 109977.484, 0.0, 10.013313, 9.988042 
1.14919126e+2, 1.2370298e+2, -1796105.8, -1724846.0, 1012.29004, 0.006504486, -0.026307037, -1724831.6, 2876.4912, 0.0, 9.9932, 10.002635 
1.1493166e+2, 1.3370381e+2, -1697776.0, -1647992.6, 1623.8837, -0.011475575, -0.024627931, -1647939.6, -18239.744, 0.0, 9.994146, 10.000735 
1.1494439e+2, 1.4370364e+2, -1596496.8, -1566664.0, 1418.4862, -0.0015478777, -0.036177658, -1566596.8, -34895.125, 0.0, 9.995159, 9.9991045 
1.14957035e+2, 1.5370278e+2, -1482282.0, -1461483.6, 797.2969, 0.002632149, -0.027424736, -1461453.1, -27743.102, 0.0, 9.99629, 9.999038 
1.1496962e+2, 1.637008e+2, -1383302.8, -1387073.5, 513.28357, 0.0043230397, -0.024325334, -1383234.1, -47504.81, 0.0, 9.997396, 9.996892 
1.14982225e+2, 1.7369758e+2, -1270027.6, -1282554.0, 1468.0444, 0.0028468654, -0.03110913, -1269857.9, -32096.86, 0.0, 9.998473, 9.996809 
1.1499476e+2, 1.8369313e+2, -1174335.4, -1214674.5, 1056.893, 0.0002856721, -0.03243866, -1174307.8, -34503.258, 0.0, 9.99957, 9.994223 
1.1500722e+2, 1.9368728e+2, -1060713.4, -1110786.0, -48.11078, -0.0038699994, -0.027152658, -1060713.3, -18851.236, 0.0, 10.000706, 9.994068 
1.1501968e+2, 2.0368043e+2, -960801.25, -1033634.4, -819.8835, -0.0044028256, -0.024509579, -960792.0, -16862.773, 0.0, 10.001776, 9.9921255 
1.1503212e+2, 2.1367246e+2, -849028.75, -929566.25, 339.12497, 0.0012929725, -0.028304545, -849027.3, -3020.2222, 0.0, 10.002739, 9.992068 
1.1504455e+2, 2.2366329e+2, -754394.94, -862503.3, 715.9232, 0.0034190607, -0.029401839, -754390.2, -6293.236, 0.0, 10.003773, 9.989455 
1.15056954e+2, 2.336526e+2, -640674.94, -758672.25, -628.4526, -0.00037942207, -0.028511526, -640671.6, 9530.113, 0.0, 10.004922, 9.989292 
1.15069434e+2, 2.4364094e+2, -540339.25, -681287.6, -450.114, -0.002325464, -0.028368268, -540337.8, 11978.082, 0.0, 10.006018, 9.987351 
1.1508201e+2, 2.5362822e+2, -428055.03, -576945.5, 1202.2745, -0.0010312925, -0.03193181, -428045.3, 26395.213, 0.0, 10.007017, 9.987298 
1.1509454e+2, 2.6361433e+2, -332886.4, -509205.56, 1137.7274, 0.0006126464, -0.031145854, -332879.06, 23697.8, 0.0, 10.008065, 9.984722 
1.15106925e+2, 2.7359894e+2, -219500.42, -405386.22, -426.92706, 0.0029763149, -0.026098028, -219499.44, 39228.086, 0.0, 10.009188, 9.984573 
1.1511955e+2, 2.8358233e+2, -122027.26, -335594.56, 1213.1783, 0.0017802189, -0.024871688, -122020.37, 38870.008, 0.0, 10.010351, 9.98208 
1.1513246e+2, 2.9356423e+2, -6851.823, -230373.97, 2201.759, -0.0053039696, -0.033382066, -6830.137, 56237.457, 0.0, 10.011575, 9.981981 
1.1514526e+2, 3.035493e+2, 100241.8, -84644.64, 757.78564, -0.0046037645, -0.03295013, 100244.9, 100244.9, 0.0, 10.012612, 9.98811 
1.151577e+2, 3.1353757e+2, 110846.65, -79140.54, 547.9594, 0.009876865, -0.01939975, 110848.23, 110848.23, 0.0, 10.013326, 9.988144 
1.2491223e+2, 1.2368958e+2, -1797974.0, -1725252.4, -2022.0587, 0.0048406613, -0.026202364, -1725196.1, 2643.415, 0.0, 9.993051, 10.002677 
1.2492584e+2, 1.3369046e+2, -1697189.1, -1647317.9, -2986.709, -0.009255469, -0.022463746, -1647139.6, -17308.846, 0.0, 9.994167, 10.000768 
1.2493965e+2, 1.4369029e+2, -1594622.6, -1566157.1, -3425.7468, 0.0021429427, -0.033549495, -1565750.6, -33918.242, 0.0, 9.995303, 9.999065 
1.249534e+2, 1.5368935e+2, -1479957.0, -1460889.6, -2837.6812, 0.0014185143, -0.027545119, -1460476.3, -26634.732, 0.0, 9.996469, 9.998988 
1.2496706e+2, 1.6368735e+2, -1381155.4, -1386276.3, -3489.7576, 0.0011168728, -0.025674623, -1379387.5, -43526.223, 0.0, 9.997553, 9.996867 
1.2498071e+2, 1.7368408e+2, -1269671.6, -1282607.9, -4338.625, 0.0024130628, -0.031229632, -1268351.3, -30458.1, 0.0, 9.998507, 9.996785 
1.249943e+2, 1.8367964e+2, -1175179.4, -1214981.0, -4588.249, 0.0014438343, -0.032520533, -1174657.4, -34720.72, 0.0, 9.999507, 9.994228 
1.2500788e+2, 1.9367376e+2, -1062295.1, -1111407.5, -3226.6604, -0.0034903558, -0.02921258, -1062084.0, -20089.715, 0.0, 10.000589, 9.994079 
1.2502141e+2, 2.0366691e+2, -962276.4, -1034560.3, -3657.6516, -0.0042024734, -0.026481597, -962091.8, -18030.293, 0.0, 10.001682, 9.992105 
1.2503488e+2, 2.1365896e+2, -848458.44, -929582.5, -5044.581, 0.0021316307, -0.026655238, -848145.94, -2006.5956, 0.0, 10.0027895, 9.992039 
1.2504838e+2, 2.2364978e+2, -752727.3, -861890.1, -4931.849, 0.004376576, -0.02628216, -752504.94, -4275.6074, 0.0, 10.003893, 9.989434 
1.250619e+2, 2.3363905e+2, -639722.7, -758420.0, -3626.5845, -0.0004412135, -0.027459579, -639612.0, 10722.509, 0.0, 10.004994, 9.98927 
1.2507544e+2, 2.436274e+2, -540006.0, -680531.06, -3413.2153, -0.002709424, -0.029399479, -539923.2, 12525.542, 0.0, 10.006013, 9.987403 
1.2508896e+2, 2.536147e+2, -429373.7, -576896.2, -4651.3066, -0.00085717096, -0.034910765, -429227.2, 25345.736, 0.0, 10.006897, 9.987356 
1.2510256e+2, 2.636008e+2, -334953.4, -510930.16, -4689.1885, 0.0014933975, -0.033446506, -334828.53, 21880.6, 0.0, 10.007953, 9.984654 
1.2511618e+2, 2.735854e+2, -218324.58, -405803.06, -4067.9763, 0.004312333, -0.023132768, -218236.34, 40623.914, 0.0, 10.009309, 9.984483 
1.2512991e+2, 2.8356877e+2, -121515.61, -334907.25, -2731.91, 0.0023456241, -0.02125924, -121480.64, 39542.777, 0.0, 10.010366, 9.982117 
1.2514366e+2, 2.9355067e+2, -16201.031, -234228.06, -3123.33, -0.00776226, -0.036510028, -16156.298, 47044.38, 0.0, 10.010901, 9.982038 
1.2515752e+2, 3.0353573e+2, 91548.79, -87817.055, -3701.597, -0.006896296, -0.038046677, 91625.15, 91625.15, 0.0, 10.011968, 9.988198 
1.2517138e+2, 3.135242e+2, 120574.734, -73397.6, -3733.749, 0.013137501, -0.01803244, 120646.58, 120646.58, 0.0, 10.0139475, 9.988235 
1.3490523e+2, 1.23675175e+2, -1799251.8, -1727758.1, 1972.2697, -0.0016317434, -0.033506617, -1727703.8, 276.8105, 0.0, 9.993046, 10.002508 
1.3492006e+2, 1.3367599e+2, -1698645.8, -1650245.9, 1230.6213, -0.0035464696, -0.01751813, -1650214.6, -20241.914, 0.0, 9.994164, 10.000568 
1.3493504e+2, 1.4367577e+2, -1594093.4, -1565055.9, 929.3485, 0.010484073, -0.025575923, -1565026.1, -33051.39, 0.0, 9.995301, 9.999139 
1.3494983e+2, 1.5367484e+2, -1479159.4, -1459252.4, 1580.1271, -0.0030428858, -0.030573161, -1459127.8, -25143.861, 0.0, 9.996469, 9.999098 
1.3496451e+2, 1.6367276e+2, -1382614.1, -1389294.0, 204.10933, -0.010104776, -0.03157273, -1382607.9, -46603.7, 0.0, 9.997553, 9.99666 
1.3497914e+2, 1.7366935e+2, -1271486.1, -1286362.1, -734.7589, -0.0052327523, -0.026368754, -1271449.9, -33412.35, 0.0, 9.9985075, 9.996528 
1.3499379e+2, 1.8366492e+2, -1173298.0, -1211123.0, -571.09686, -0.0007349742, -0.02436153, -1173289.4, -33208.36, 0.0, 9.999506, 9.99449 
1.3500853e+2, 1.9365929e+2, -1059893.8, -1106449.3, 873.7702, 0.0028638637, -0.030332519, -1059877.4, -17741.195, 0.0, 10.000588, 9.994415 
1.3502318e+2, 2.0365247e+2, -964166.8, -1038456.9, 489.20264, 0.0037595115, -0.032082886, -964163.56, -19960.648, 0.0, 10.001681, 9.9918375 
1.3503766e+2, 2.1364419e+2, -851011.44, -934870.56, -861.1178, 0.00032224882, -0.028280392, -851002.6, -4718.5283, 0.0, 10.0027895, 9.991677 
1.3505223e+2, 2.2363493e+2, -751011.4, -858351.25, -798.083, -0.0018033098, -0.025483398, -751005.44, -2630.5522, 0.0, 10.003894, 9.989674 
1.350669e+2, 2.3362455e+2, -637415.1, -753562.75, 498.4627, -0.0014199619, -0.026899489, -637413.0, 13063.762, 0.0, 10.004991, 9.989603 
1.3508148e+2, 2.4361297e+2, -541607.75, -683773.8, -32.80996, -0.00042546884, -0.028527332, -541607.75, 10982.225, 0.0, 10.00601, 9.987182 
1.3509588e+2, 2.536e+2, -431550.7, -581423.06, -1364.3447, 0.0016224852, -0.032396317, -431538.25, 23178.908, 0.0, 10.006897, 9.987045 
1.3511051e+2, 2.6358595e+2, -334083.72, -509195.13, 136.24828, 0.0019684462, -0.03142588, -334083.63, 22771.102, 0.0, 10.007956, 9.984769 
1.3512546e+2, 2.7357072e+2, -217125.78, -403155.4, 1018.3273, -0.00030584412, -0.025394589, -217120.2, 41884.188, 0.0, 10.009301, 9.984666 
1.3514024e+2, 2.8355414e+2, -121998.92, -335766.16, -357.3157, -0.001444656, -0.023413558, -121998.32, 39168.363, 0.0, 10.01036, 9.98206 
1.3515465e+2, 2.93536e+2, -16693.535, -235568.38, -1200.9473, -0.00042013644, -0.03108641, -16686.947, 46657.254, 0.0, 10.010917, 9.981937 
1.3516957e+2, 3.0352107e+2, 92175.87, -86824.78, 2939.7827, 0.00039806354, -0.03356757, 92224.13, 92224.13, 0.0, 10.01198, 9.988258 
1.3518521e+2, 3.1350943e+2, 120847.695, -72294.625, 3712.8813, 0.000977026, -0.029978883, 120919.05, 120919.05, 0.0, 10.013924, 9.98832 
1.4489831e+2, 1.2365972e+2, -1797849.1, -1727440.5, -2769.0815, -0.001808286, -0.032714132, -1727331.8, 800.3122, 0.0, 9.993153, 10.002474 
1.4491428e+2, 1.3366045e+2, -1696970.0, -1650092.4, -2262.693, -0.0035956907, -0.019309038, -1649983.4, -19858.363, 0.0, 9.994304, 10.000507 
1.4493039e+2, 1.4366019e+2, -1592889.8, -1564605.1, -2489.6394, 0.0106854355, -0.027591912, -1564387.8, -32260.19, 0.0, 9.995386, 9.9991255 
1.4494625e+2, 1.5365927e+2, -1480781.0, -1460135.4, -2784.1821, -0.002499838, -0.029347641, -1459766.5, -25630.127, 0.0, 9.99636, 9.999086 
1.4496198e+2, 1.6365717e+2, -1385074.8, -1391131.5, -4193.647, -0.009289217, -0.029078573, -1382930.4, -46773.46, 0.0, 9.997412, 9.9966 
1.449777e+2, 1.7365369e+2, -1270539.0, -1286633.5, -3724.7454, -0.0044423244, -0.026071282, -1269718.8, -31527.576, 0.0, 9.998601, 9.996461 
1.4499341e+2, 1.836492e+2, -1170339.4, -1209534.5, -3725.8347, 0.00008376882, -0.02507795, -1169988.4, -29753.285, 0.0, 9.999701, 9.9945 
1.4500916e+2, 1.936436e+2, -1058792.4, -1105640.4, -4643.813, 0.0035291135, -0.030054351, -1058336.5, -16046.6875, 0.0, 10.00065, 9.994436 
1.4502484e+2, 2.0363678e+2, -964467.7, -1038792.7, -5191.833, 0.003705533, -0.031683326, -964106.75, -19750.182, 0.0, 10.001668, 9.9918165 
1.4504045e+2, 2.1362849e+2, -850999.9, -935148.1, -4039.5447, -0.0012979908, -0.029363994, -850806.4, -4368.2144, 0.0, 10.002802, 9.991648 
1.4505607e+2, 2.2361921e+2, -751439.56, -858158.75, -3608.233, -0.0031026665, -0.027293384, -751317.75, -2788.6277, 0.0, 10.003845, 9.989707 
1.4507177e+2, 2.3360884e+2, -640749.4, -754686.44, -4477.4663, 0.00036919452, -0.028158557, -640573.7, 10056.775, 0.0, 10.00474, 9.989643 
1.450874e+2, 2.4359727e+2, -545492.4, -686831.1, -5456.6553, 0.0022406778, -0.028201677, -545282.0, 7461.825, 0.0, 10.005793, 9.987073 
1.4510289e+2, 2.535842e+2, -429246.4, -581782.6, -5461.855, 0.0011071124, -0.02874967, -429051.1, 25820.973, 0.0, 10.007116, 9.986911 
1.451186e+2, 2.6357013e+2, -329372.78, -505631.5, -3424.8386, -0.00012526219, -0.028169287, -329306.28, 27703.668, 0.0, 10.008222, 9.984881 
1.4513457e+2, 2.7355495e+2, -221138.23, -403360.63, -2818.606, -0.0014549562, -0.029082086, -221094.64, 38064.023, 0.0, 10.008949, 9.9848175 
1.4515042e+2, 2.8353846e+2, -127568.375, -339234.06, -4095.6252, -0.00059461896, -0.028420737, -127489.16, 33831.324, 0.0, 10.010009, 9.981988 
1.4516596e+2, 2.935203e+2, -6853.4146, -232031.25, -4995.9565, 0.0039211693, -0.027483197, -6742.625, 56755.723, 0.0, 10.0116415, 9.981827 
1.4518195e+2, 3.0350524e+2, 102872.35, -82572.71, -1496.4371, 0.003629026, -0.027884372, 102884.42, 102884.42, 0.0, 10.012753, 9.988174 
1.4519857e+2, 3.1349343e+2, 105911.555, -80366.29, -1968.4119, -0.004847784, -0.03372248, 105932.35, 105932.35, 0.0, 10.012929, 9.98824 
1.5489152e+2, 1.2364315e+2, -1797143.0, -1725941.5, 1274.3215, 0.002757782, -0.023420107, -1725918.8, 2375.729, 0.0, 9.993151, 10.002575 
1.5490854e+2, 1.3364378e+2, -1696444.0, -1648934.9, 2075.114, -0.010191854, -0.028064864, -1648844.4, -18556.146, 0.0, 9.9943, 10.0005865 
1.5492569e+2, 1.436435e+2, -1593661.3, -1566141.5, 1245.672, 0.0015554149, -0.03978234, -1566085.3, -33794.207, 0.0, 9.995384, 9.99902 
1.5494266e+2, 1.5364261e+2, -1481748.6, -1462087.0, 886.01636, 0.002062564, -0.023909774, -1462047.1, -27747.453, 0.0, 9.996358, 9.998954 
1.5495953e+2, 1.6364054e+2, -1384419.3, -1389789.4, 182.4352, 0.002578798, -0.018043982, -1384413.0, -48092.96, 0.0, 9.997412, 9.996689 
1.549764e+2, 1.73637e+2, -1269644.8, -1284811.6, 783.8897, 0.004062155, -0.03026242, -1269604.4, -31249.893, 0.0, 9.998601, 9.996582 
1.5499313e+2, 1.8363245e+2, -1171983.4, -1212940.1, -32.208412, 0.0029507044, -0.03467718, -1171983.3, -31584.11, 0.0, 9.999701, 9.9942665 
1.5500975e+2, 1.9362667e+2, -1060818.8, -1109868.0, -1057.3484, -0.0025946056, -0.028398024, -1060795.9, -18340.096, 0.0, 10.000652, 9.994145 
1.5502642e+2, 2.0361984e+2, -962848.5, -1035479.9, -1032.127, -0.005506973, -0.025245348, -962833.9, -18311.06, 0.0, 10.001668, 9.992041 
1.5504323e+2, 2.1361175e+2, -848862.7, -930692.1, 219.43192, -0.0035527518, -0.029758405, -848862.1, -2260.1685, 0.0, 10.002799, 9.991952 
1.5505995e+2, 2.2360255e+2, -752604.56, -860540.56, -154.06235, -0.0007111311, -0.03163461, -752604.4, -3912.1997, 0.0, 10.003844, 9.989544 
1.5507655e+2, 2.3359197e+2, -642434.06, -758174.75, -1138.1614, 0.0037703793, -0.031237824, -642422.9, 8372.932, 0.0, 10.00474, 9.989404 
1.5509322e+2, 2.435803e+2, -545459.2, -686773.8, -729.31146, 0.004010191, -0.028323554, -545455.44, 7454.8887, 0.0, 10.005793, 9.987075 
1.5510997e+2, 2.535673e+2, -429004.16, -581198.25, -475.6238, -0.0029770976, -0.023757339, -429002.66, 26035.043, 0.0, 10.0071125, 9.986951 
1.5512675e+2, 2.6355332e+2, -328632.0, -503991.4, -430.55173, -0.005609059, -0.023626015, -328630.94, 28543.93, 0.0, 10.008217, 9.984994 
1.5514353e+2, 2.7353814e+2, -220252.33, -401543.75, -178.76811, -0.00047412698, -0.03423428, -220252.16, 39071.01, 0.0, 10.008951, 9.98494 
1.5516047e+2, 2.8352162e+2, -128155.03, -340424.44, 1476.2417, 0.003448678, -0.036191016, -128144.766, 33340.07, 0.0, 10.010006, 9.981906 
1.5517762e+2, 2.935035e+2, -7909.348, -233873.25, 1132.3846, 0.0049772733, -0.02549243, -7903.6733, 55759.414, 0.0, 10.011626, 9.981707 
1.5519471e+2, 3.0348834e+2, 101168.02, -85775.445, -94.56632, 0.0025547897, -0.020964293, 101168.08, 101168.08, 0.0, 10.012738, 9.987961 
1.552115e+2, 3.1347626e+2, 104522.05, -83661.33, -1336.6249, -0.006540294, -0.03027478, 104531.54, 104531.54, 0.0, 10.012949, 9.988003 
1.6488472e+2, 1.2362545e+2, -1796231.6, -1725549.4, -2606.5093, 0.0046408316, -0.024656394, -1725453.4, 3014.546, 0.0, 9.993212, 10.002568 
1.6490285e+2, 1.3362606e+2, -1696035.5, -1649196.0, -2487.5774, -0.010703993, -0.027691577, -1649064.3, -18602.303, 0.0, 9.994345, 10.000543 
1.6492106e+2, 1.4362574e+2, -1593065.0, -1566240.0, -4084.6902, -0.00029197402, -0.038422477, -1565631.8, -33166.73, 0.0, 9.995439, 9.998982 
1.6493908e+2, 1.5362479e+2, -1480332.3, -1461820.3, -3838.5054, 0.0031201136, -0.025707904, -1461055.9, -26581.488, 0.0, 9.9964695, 9.998913 
1.64957e+2, 1.6362269e+2, -1382898.5, -1388695.4, -3971.3372, 0.00479562, -0.02089149, -1380880.4, -44385.508, 0.0, 9.997496, 9.996718 
1.6497496e+2, 1.7361923e+2, -1270457.4, -1284758.0, -3941.2954, 0.0041747983, -0.030460002, -1269443.1, -30914.365, 0.0, 9.998524, 9.996619 
1.6499276e+2, 1.8361467e+2, -1174058.9, -1214759.5, -4801.1396, 0.0019619332, -0.03355161, -1173500.3, -32926.734, 0.0, 9.999592, 9.994191 
1.6501044e+2, 1.9360878e+2, -1060343.4, -1110672.0, -4421.8135, -0.0031031815, -0.028313158, -1059957.8, -17326.617, 0.0, 10.000728, 9.99405 
1.6502815e+2, 2.036019e+2, -961153.4, -1034519.9, -4312.8, -0.0050251298, -0.025524806, -960900.7, -16202.019, 0.0, 10.001777, 9.992049 
1.6504598e+2, 2.1359384e+2, -850465.9, -931167.8, -5122.0234, -0.0015637723, -0.029130874, -850142.06, -3364.6033, 0.0, 10.002675, 9.991975 
1.6506374e+2, 2.2358462e+2, -755153.1, -862240.9, -6139.6563, 0.0010899573, -0.03086016, -754802.25, -5934.541, 0.0, 10.003689, 9.989497 
1.6508137e+2, 2.3357399e+2, -640370.56, -757790.44, -5791.4785, 0.0020642744, -0.03150837, -640085.6, 10886.481, 0.0, 10.004906, 9.989345 
1.650991e+2, 2.435623e+2, -541668.7, -683976.0, -4153.7476, 0.001549259, -0.029229218, -541547.56, 11539.033, 0.0, 10.006008, 9.987158 
1.65117e+2, 2.5354943e+2, -431108.22, -581010.1, -3412.7603, -0.0014016308, -0.024445776, -431030.56, 24182.385, 0.0, 10.006914, 9.987056 
1.6513485e+2, 2.6353547e+2, -333722.6, -507337.1, -4219.742, -0.0022971744, -0.024096636, -333620.1, 23729.713, 0.0, 10.007904, 9.984912 
1.6515252e+2, 2.7352017e+2, -219621.89, -402511.44, -5741.1924, -0.000044449123, -0.03411809, -219441.84, 40057.387, 0.0, 10.009047, 9.984823 
1.651705e+2, 2.8350362e+2, -126747.234, -339379.72, -3746.118, 0.0019280011, -0.03616318, -126681.25, 34980.2, 0.0, 10.010085, 9.981934 
1.6518888e+2, 2.934855e+2, -17588.266, -237900.05, -2754.2878, 0.003229899, -0.026979467, -17553.838, 46285.492, 0.0, 10.010929, 9.981762 
1.6520709e+2, 3.0347043e+2, 91729.28, -89241.63, -3339.9224, 0.0022186006, -0.02242253, 91790.91, 91790.91, 0.0, 10.012038, 9.988056 
1.652248e+2, 3.1345847e+2, 115039.8, -77428.17, -2416.858, -0.0027021845, -0.028908445, 115070.14, 115070.14, 0.0, 10.0136175, 9.988109 
1.7487791e+2, 1.2360656e+2, -1797139.4, -1727295.3, 1364.0519, 0.0016884209, -0.03707253, -1727268.6, 1384.2395, 0.0, 9.993207, 10.00245 
1.7489725e+2, 1.3360721e+2, -1697294.1, -1651679.3, 1788.776, -0.005510451, -0.017992936, -1651609.1, -20962.568, 0.0, 9.99434, 10.000374 
1.7491657e+2, 1.4360687e+2, -1592875.4, -1565804.6, -178.62242, 0.0046454147, -0.023010368, -1565803.5, -33153.43, 0.0, 9.995437, 9.999011 
1.7493552e+2, 1.5360573e+2, -1479934.5, -1460965.1, 51.34809, -0.0002942817, -0.03470754, -1460965.0, -26304.025, 0.0, 9.996468, 9.99897 
1.7495443e+2, 1.6360357e+2, -1383082.9, -1389089.1, -98.873955, -0.004143327, -0.03782037, -1383081.3, -46399.277, 0.0, 9.997498, 9.996689 
1.7497338e+2, 1.7360029e+2, -1270756.5, -1285384.3, -48.823997, -0.004943237, -0.026751198, -1270756.3, -32041.871, 0.0, 9.998525, 9.996574 
1.7499231e+2, 1.835958e+2, -1173468.4, -1213544.3, -570.2123, -0.0037040517, -0.02153024, -1173460.3, -32701.955, 0.0, 9.999591, 9.994272 
1.7501122e+2, 1.935899e+2, -1059619.3, -1109197.9, -120.80601, 0.000918416, -0.029741535, -1059619.0, -16802.758, 0.0, 10.000728, 9.994148 
1.7503001e+2, 2.0358291e+2, -962534.5, -1037403.3, -832.52563, 0.0038194887, -0.032441713, -962525.25, -17640.674, 0.0, 10.001778, 9.991851 
1.7504871e+2, 2.1357471e+2, -852220.0, -934792.25, -1751.4968, 0.0037434718, -0.027485024, -852182.9, -5217.811, 0.0, 10.002674, 9.991726 
1.7506742e+2, 2.2356543e+2, -754640.8, -861182.4, -1733.4119, 0.0010851136, -0.02494472, -754612.6, -5556.6377, 0.0, 10.003687, 9.989569 
1.750862e+2, 2.3355487e+2, -639542.5, -756031.94, -1210.4624, -0.005681138, -0.02901905, -639529.9, 11629.573, 0.0, 10.004903, 9.989465 
1.7510504e+2, 2.4354328e+2, -540576.56, -681627.9, -644.56287, -0.0060573346, -0.030728823, -540573.6, 12699.304, 0.0, 10.006005, 9.987317 
1.7512397e+2, 2.5353053e+2, -429975.6, -578565.56, -84.46259, 0.0048087575, -0.030644134, -429975.53, 25422.434, 0.0, 10.006908, 9.987224 
1.7514287e+2, 2.6351655e+2, -335597.16, -511172.78, -126.62158, 0.008356514, -0.029327642, -335597.06, 21937.865, 0.0, 10.007902, 9.984649 
1.7516157e+2, 2.7350104e+2, -222002.8, -407428.63, -1474.1941, -0.0012087869, -0.029142717, -221991.08, 37695.78, 0.0, 10.009046, 9.984485 
1.7518052e+2, 2.8348437e+2, -125797.07, -337395.75, -454.59628, -0.0059869117, -0.02887799, -125796.09, 36054.184, 0.0, 10.010084, 9.982068 
1.7519976e+2, 2.9346633e+2, -16024.203, -234724.63, 331.27966, -0.0019773464, -0.031718392, -16023.702, 48003.367, 0.0, 10.010933, 9.981976 
1.7521913e+2, 3.034515e+2, 94386.4, -83705.984, 2072.2441, 0.0015449201, -0.03175192, 94410.51, 94410.51, 0.0, 10.012037, 9.988434 
1.752385e+2, 3.1344005e+2, 117691.1, -71578.6, 3381.9778, 0.0039494913, -0.029248014, 117751.51, 117751.51, 0.0, 10.013603, 9.988514 
1.8487118e+2, 1.2358674e+2, -1794575.4, -1726312.3, -2904.5774, 0.0005005931, -0.037758287, -1726188.9, 2658.188, 0.0, 9.993388, 10.002423 
1.8489161e+2, 1.3358732e+2, -1697354.6, -1652441.5, -1542.7183, -0.0036144324, -0.02007541, -1652388.5, -21546.98, 0.0, 9.994364, 10.000306 
1.8491198e+2, 1.4358695e+2, -1593420.3, -1566327.0, -3103.9053, 0.005555095, -0.023119755, -1565975.9, -33130.637, 0.0, 9.995407, 9.998986 
1.8493202e+2, 1.5358579e+2, -1478512.4, -1460478.4, -3448.4153, -0.001020189, -0.034122143, -1459841.5, -24985.115, 0.0, 9.996571, 9.998949 
1.8495198e+2, 1.6358362e+2, -1380923.1, -1388520.1, -4301.8906, -0.005431661, -0.03715221, -1378982.8, -42105.043, 0.0, 9.997662, 9.996643 
1.8497197e+2, 1.7358024e+2, -1269400.9, -1285289.0, -4386.956, -0.0054292735, -0.02710804, -1268270.1, -29359.297, 0.0, 9.998638, 9.996521 
1.8499191e+2, 1.8357575e+2, -1172953.3, -1213214.6, -4944.8027, -0.0033520092, -0.022154383, -1172354.9, -31399.943, 0.0, 9.99962, 9.994275 
1.8501191e+2, 1.9356985e+2, -1060987.1, -1109682.8, -5087.6494, 0.0017996455, -0.02907391, -1060461.4, -17448.645, 0.0, 10.000624, 9.994161 
1.8503176e+2, 2.0356289e+2, -964288.75, -1038577.56, -5805.1567, 0.0045858733, -0.031563174, -963837.9, -18756.857, 0.0, 10.001669, 9.991817 
1.8505144e+2, 2.135546e+2, -850706.8, -934490.06, -5249.938, 0.0031216578, -0.028323924, -850379.1, -3217.033, 0.0, 10.002794, 9.991684 
1.8507119e+2, 2.235453e+2, -752167.75, -859917.56, -4299.5195, 0.00027223598, -0.026116537, -751996.44, -2743.1748, 0.0, 10.003852, 9.989571 
1.8509105e+2, 2.3353477e+2, -641037.6, -756621.75, -4532.4063, -0.004848908, -0.028005129, -640860.2, 10496.281, 0.0, 10.004793, 9.989472 
1.8511093e+2, 2.4352318e+2, -544353.06, -683753.44, -5373.9536, -0.004792722, -0.029517071, -544146.2, 9323.751, 0.0, 10.005756, 9.9872875 
1.851308e+2, 2.5351036e+2, -432376.9, -580160.6, -6386.8257, 0.0039579086, -0.032841843, -432101.4, 23494.32, 0.0, 10.0067625, 9.987179 
1.8515073e+2, 2.6349634e+2, -336183.38, -511137.13, -5616.163, 0.0072220466, -0.031861875, -336003.28, 21729.572, 0.0, 10.007844, 9.9846735 
1.8517064e+2, 2.7348092e+2, -221361.66, -406704.28, -4216.561, 0.0006926563, -0.026533952, -221265.78, 38618.266, 0.0, 10.0090685, 9.984519 
1.8519068e+2, 2.8346428e+2, -124304.6, -336487.84, -3004.4727, -0.0033643583, -0.02466039, -124262.07, 37784.984, 0.0, 10.010175, 9.982084 
1.8521075e+2, 2.9344624e+2, -13853.204, -233587.11, -3811.2156, -0.0032942304, -0.03183289, -13787.119, 50436.98, 0.0, 10.011075, 9.981981 
1.8523112e+2, 3.034314e+2, 94424.83, -83420.836, -2573.8823, -0.0005604311, -0.03427746, 94462.07, 94462.07, 0.0, 10.012025, 9.988454 
1.8525186e+2, 3.1341994e+2, 109995.914, -75025.16, -3764.3315, 0.006732417, -0.030871388, 110072.47, 110072.47, 0.0, 10.013059, 9.988532 
1.9486457e+2, 1.2356595e+2, -1794149.1, -1725331.6, 539.24786, -0.0012109698, -0.02619808, -1725327.4, 3723.5183, 0.0, 9.993383, 10.002491 
1.9488595e+2, 1.335663e+2, -1697195.5, -1651962.8, 2119.8481, -0.005847241, -0.034219526, -1651863.6, -20816.22, 0.0, 9.994358, 10.0003395 
1.9490737e+2, 1.435659e+2, -1594033.4, -1567471.4, 1169.0138, 0.0014119976, -0.03937028, -1567420.0, -34368.645, 0.0, 9.995401, 9.998909 
1.9492862e+2, 1.5356492e+2, -1479239.5, -1461918.5, 962.15924, 0.00016415186, -0.023871398, -1461865.3, -26804.158, 0.0, 9.996567, 9.998851 
1.949497e+2, 1.6356273e+2, -1381351.1, -1389440.4, -536.9164, -0.00028470994, -0.018413382, -1381315.6, -44233.2, 0.0, 9.9976635, 9.996577 
1.9497068e+2, 1.7355908e+2, -1269811.3, -1286161.4, -705.0667, 0.0018107613, -0.031394936, -1269780.9, -30662.691, 0.0, 9.99864, 9.996458 
1.9499159e+2, 1.8355443e+2, -1173403.8, -1214164.5, -1186.3717, 0.0019221178, -0.035410162, -1173369.3, -32205.459, 0.0, 9.999621, 9.994208 
1.950125e+2, 1.9354862e+2, -1061476.1, -1110693.4, -1297.827, -0.001487962, -0.026433084, -1061442.0, -18221.191, 0.0, 10.000624, 9.99409 
1.9503334e+2, 2.0354171e+2, -963361.06, -1036660.56, -1655.2632, -0.0038290622, -0.022943363, -963323.7, -18035.3, 0.0, 10.001669, 9.991946 
1.9505417e+2, 2.1353349e+2, -849562.2, -932101.75, -1026.1803, -0.004259882, -0.03156083, -849549.44, -2180.5012, 0.0, 10.002792, 9.991846 
1.95075e+2, 2.235242e+2, -752563.44, -860709.9, -696.8786, -0.0024563656, -0.034139894, -752558.94, -3099.098, 0.0, 10.00385, 9.989516 
1.9509591e+2, 2.3351365e+2, -641717.56, -757992.6, -1026.4221, 0.0031442128, -0.02833235, -641708.5, 9854.76, 0.0, 10.004791, 9.989378 
1.9511677e+2, 2.4350196e+2, -545847.44, -686817.06, -1675.9047, 0.0037045265, -0.025776839, -545827.5, 7850.333, 0.0, 10.005754, 9.987077 
1.9513749e+2, 2.5348887e+2, -434024.7, -583551.6, -2613.526, -0.0044126143, -0.03121555, -433979.03, 21827.152, 0.0, 10.00676, 9.986947 
1.9515844e+2, 2.6347485e+2, -334137.53, -506863.6, -1165.62, -0.0060758144, -0.031623792, -334129.66, 23813.871, 0.0, 10.007842, 9.984964 
1.9517975e+2, 2.7345982e+2, -218784.1, -401167.16, 316.82678, 0.004197067, -0.026259838, -218783.55, 41307.414, 0.0, 10.00906, 9.9848995 
1.9520096e+2, 2.834434e+2, -125075.46, -337860.4, 405.2451, 0.00756735, -0.023358665, -125074.695, 37177.34, 0.0, 10.010165, 9.981993 
1.9522184e+2, 2.9342517e+2, -15113.81, -236182.11, -547.7821, -0.001490764, -0.027668586, -15112.452, 49318.063, 0.0, 10.011074, 9.981802 
1.9524312e+2, 3.0341008e+2, 92308.91, -87889.59, 1173.7474, -0.004554294, -0.030646516, 92316.55, 92316.55, 0.0, 10.012027, 9.988145 
1.9526489e+2, 3.1339824e+2, 107581.67, -79932.09, 140.32272, 0.0034679347, -0.03395521, 107581.77, 107581.77, 0.0, 10.013052, 9.988196 
2.0485796e+2, 1.2354404e+2, -1794137.8, -1725464.6, -3498.9617, -0.0010516507, -0.023503307, -1725286.8, 3978.9392, 0.0, 9.993384, 10.002477 
2.0488042e+2, 1.3354431e+2, -1694663.1, -1651209.0, -2422.67, -0.0043304446, -0.034663633, -1651074.4, -19811.477, 0.0, 9.994544, 10.000296 
2.0490286e+2, 1.4354388e+2, -1591041.9, -1566464.1, -3681.6233, 0.00045797217, -0.037775602, -1565924.5, -32657.404, 0.0, 9.995621, 9.998865 
2.0492515e+2, 1.5354285e+2, -1479764.5, -1462652.1, -3533.2002, -0.00014445023, -0.023898842, -1461951.4, -26673.97, 0.0, 9.996549, 9.998805 
2.0494731e+2, 1.6354062e+2, -1383502.4, -1390887.3, -4743.9346, 0.00025455776, -0.019270902, -1381183.3, -43883.984, 0.0, 9.997531, 9.996539 
2.0496933e+2, 1.7353693e+2, -1270263.9, -1286773.8, -4739.863, 0.0030999833, -0.03145504, -1268999.9, -29664.617, 0.0, 9.998622, 9.996421 
2.0499125e+2, 1.8353224e+2, -1172556.4, -1213947.0, -5025.746, 0.0033079006, -0.03523253, -1171954.9, -30573.781, 0.0, 9.999684, 9.994187 
2.0501314e+2, 1.9352642e+2, -1060555.8, -1110438.9, -4787.1733, -0.0014216336, -0.02736743, -1060100.5, -16662.053, 0.0, 10.000692, 9.994069 
2.0503502e+2, 2.0351948e+2, -962947.56, -1036575.3, -5127.3384, -0.004465871, -0.02412788, -962592.25, -17086.016, 0.0, 10.001699, 9.991933 
2.0505692e+2, 2.1351126e+2, -850839.6, -932867.4, -5769.747, -0.00460396, -0.031169735, -850435.75, -2848.9744, 0.0, 10.002709, 9.991828 
2.050788e+2, 2.2350197e+2, -754465.1, -861661.3, -6313.3335, -0.0021587897, -0.033127736, -754094.6, -4416.813, 0.0, 10.003718, 9.989509 
2.0510069e+2, 2.3349139e+2, -642542.2, -758423.0, -6041.454, 0.0043948647, -0.028788228, -642228.06, 9553.35, 0.0, 10.004733, 9.98937 
2.0512256e+2, 2.434797e+2, -545447.94, -686827.44, -5408.7715, 0.00504198, -0.026489377, -545241.3, 8654.807, 0.0, 10.005788, 9.987056 
2.0514432e+2, 2.534666e+2, -431810.9, -582742.5, -4813.9014, -0.0048151626, -0.029879857, -431657.53, 24366.973, 0.0, 10.00692, 9.98692 
2.0516631e+2, 2.634526e+2, -332810.0, -506054.8, -3540.4194, -0.0074811406, -0.029981771, -332737.7, 25424.25, 0.0, 10.007923, 9.984976 
2.0518862e+2, 2.7343753e+2, -223785.8, -403346.9, -4639.9707, 0.0027087617, -0.027684487, -223665.97, 36643.47, 0.0, 10.008702, 9.984918 
2.0521088e+2, 2.8342107e+2, -132087.02, -341372.63, -5335.9443, 0.0074793105, -0.025954869, -131951.06, 30519.518, 0.0, 10.009686, 9.9819765 
2.0523295e+2, 2.9340285e+2, -15839.381, -236733.69, -5165.466, 0.0023353258, -0.028041644, -15718.656, 48930.465, 0.0, 10.01103, 9.981779 
2.0525527e+2, 3.033878e+2, 94702.19, -86748.86, -2553.7468, -0.0006095085, -0.02913505, 94738.12, 94738.12, 0.0, 10.012188, 9.988142 
2.0527788e+2, 3.1337598e+2, 106963.234, -80235.6, -1441.2096, 0.0002726867, -0.031215778, 106974.33, 106974.33, 0.0, 10.013005, 9.988195 
2.1485135e+2, 1.23520955e+2, -1795024.3, -1727028.1, 722.98785, -0.0010337139, -0.030248292, -1727020.4, 2471.525, 0.0, 9.993373, 10.002375 
2.1487501e+2, 1.335213e+2, -1695702.6, -1653197.3, 1937.8488, 0.00012115443, -0.021044135, -1653109.1, -21620.588, 0.0, 9.994538, 10.000161 
2.148985e+2, 1.4352088e+2, -1591126.4, -1566558.6, -108.25982, 0.001648521, -0.017523708, -1566558.1, -33065.29, 0.0, 9.995618, 9.9988575 
2.149217e+2, 1.5351953e+2, -1479720.6, -1462472.5, -47.172024, -0.003103322, -0.034222174, -1462472.4, -26966.55, 0.0, 9.996545, 9.9988165 
2.149448e+2, 1.6351719e+2, -1383549.4, -1390955.0, -712.29034, -0.005331151, -0.040189013, -1383481.5, -45952.93, 0.0, 9.99753, 9.9965315 
2.1496789e+2, 1.7351376e+2, -1270348.1, -1286939.5, -592.70996, -0.002453205, -0.027359905, -1270327.0, -30764.523, 0.0, 9.998622, 9.996407 
2.1499091e+2, 1.8350917e+2, -1172351.8, -1213516.3, -1187.1438, -0.0002958882, -0.021515362, -1172317.5, -30710.148, 0.0, 9.999683, 9.994215 
2.1501388e+2, 1.9350319e+2, -1060270.1, -1109902.4, -981.53326, 0.0006987326, -0.03183029, -1060250.8, -16584.828, 0.0, 10.000693, 9.9941025 
2.1503678e+2, 2.0349616e+2, -963964.94, -1038761.75, -1353.1755, 0.0011814233, -0.03491884, -963940.44, -18205.68, 0.0, 10.001703, 9.991779 
2.1505968e+2, 2.1348788e+2, -852145.44, -935574.5, -1978.0166, 0.0007732221, -0.027110694, -852098.56, -4282.7007, 0.0, 10.002708, 9.991642 
2.1508256e+2, 2.2347857e+2, -754179.1, -861029.56, -2511.364, -0.000072183975, -0.023178622, -754120.1, -4212.8555, 0.0, 10.003716, 9.989551 
2.1510535e+2, 2.3346797e+2, -642006.75, -757228.94, -2246.1648, -0.0016094348, -0.029092524, -641962.94, 10048.067, 0.0, 10.004729, 9.989452 
2.1512829e+2, 2.4345635e+2, -544372.9, -684515.6, -1273.6484, -0.0015680955, -0.031237004, -544361.3, 9763.655, 0.0, 10.005784, 9.987213 
2.151513e+2, 2.5344348e+2, -430699.3, -580283.6, -616.7153, 0.0013416775, -0.028634433, -430696.78, 25554.293, 0.0, 10.006912, 9.98709 
2.1517432e+2, 2.6342946e+2, -334562.9, -509566.9, -510.38797, 0.0012631853, -0.026925834, -334561.4, 23826.898, 0.0, 10.007918, 9.984736 
2.1519725e+2, 2.7341405e+2, -225987.67, -407960.06, -1772.5491, -0.0043716626, -0.030458897, -225970.4, 34569.055, 0.0, 10.008705, 9.984598 
2.1522047e+2, 2.833974e+2, -131654.14, -340521.13, -648.3285, -0.004282453, -0.032101706, -131652.13, 31050.414, 0.0, 10.009686, 9.982032 
2.1524402e+2, 2.933793e+2, -15111.311, -234996.73, -144.70798, 0.007090635, -0.032753326, -15111.216, 49768.645, 0.0, 10.01102, 9.9819 
2.1526757e+2, 3.033645e+2, 96413.805, -82881.445, 698.5003, 0.0094934115, -0.029604891, 96416.52, 96416.52, 0.0, 10.012176, 9.98841 
2.1529084e+2, 3.1335303e+2, 109013.4, -75931.195, 1462.6099, -0.0050753886, -0.022815656, 109024.96, 109024.96, 0.0, 10.013005, 9.988489 
2.2484478e+2, 1.2349686e+2, -1793070.4, -1726550.1, -3592.3315, -0.00019240816, -0.029993141, -1726356.6, 3371.4136, 0.0, 9.993524, 10.002327 
2.2486956e+2, 1.3349712e+2, -1695776.5, -1653710.1, -1767.8489, 0.0014810846, -0.02434924, -1653636.0, -21910.445, 0.0, 9.994549, 10.000115 
2.2489408e+2, 1.4349669e+2, -1591609.0, -1567052.6, -3740.8997, -0.000038432416, -0.016547779, -1566495.4, -32765.557, 0.0, 9.995591, 9.998832 
2.249183e+2, 1.5349531e+2, -1477898.4, -1461848.8, -4047.6814, -0.0021340617, -0.03339035, -1460885.8, -25142.719, 0.0, 9.996676, 9.998789 
2.2494243e+2, 1.6349295e+2, -1381116.3, -1390205.9, -4935.752, -0.003435668, -0.039715085, -1378951.5, -41185.395, 0.0, 9.997709, 9.9964905 
2.2496654e+2, 1.7348945e+2, -1270019.6, -1287283.8, -5088.899, -0.002962902, -0.027746856, -1268631.3, -28830.729, 0.0, 9.998661, 9.996359 
2.2499056e+2, 1.8348484e+2, -1172813.0, -1213733.1, -5852.4414, -0.0017462462, -0.022286534, -1171992.5, -30146.652, 0.0, 9.999648, 9.994211 
2.2501455e+2, 1.9347887e+2, -1060023.8, -1109703.4, -5848.977, 0.00042942935, -0.03173543, -1059344.5, -15440.216, 0.0, 10.000704, 9.994105 
2.250385e+2, 2.0347184e+2, -963781.8, -1038907.5, -6073.0923, 0.001918162, -0.034454077, -963294.0, -17320.867, 0.0, 10.001721, 9.9917555 
2.2506239e+2, 2.1346352e+2, -852711.9, -936185.4, -5592.618, 0.001930914, -0.027667172, -852338.9, -4284.2114, 0.0, 10.002682, 9.991608 
2.2508624e+2, 2.2345416e+2, -754964.5, -861701.94, -5502.7554, 0.0006493398, -0.02416151, -754681.56, -4535.1626, 0.0, 10.003672, 9.989521 
2.2511008e+2, 2.3344356e+2, -642233.2, -757657.0, -6016.8945, -0.0031564166, -0.028895423, -641920.4, 10330.0, 0.0, 10.004724, 9.98942 
2.2513402e+2, 2.4343191e+2, -544907.06, -684472.9, -5909.9346, -0.0032145057, -0.030618573, -544657.25, 9707.09, 0.0, 10.005731, 9.987236 
2.251581e+2, 2.5341907e+2, -434114.4, -581562.94, -6264.353, 0.0031698449, -0.029141758, -433848.75, 22641.523, 0.0, 10.006659, 9.987118 
2.2518215e+2, 2.6340505e+2, -338001.9, -511319.25, -6116.6777, 0.0043837447, -0.028277025, -337786.3, 20841.137, 0.0, 10.007683, 9.984724 
2.2520603e+2, 2.733896e+2, -223545.38, -406977.16, -5324.9116, -0.0038317337, -0.03160155, -223390.92, 37387.86, 0.0, 10.008878, 9.984577 
2.2523025e+2, 2.83373e+2, -128045.67, -338706.38, -2896.2754, -0.005600707, -0.032707613, -128005.86, 34936.04, 0.0, 10.009927, 9.982037 
2.2525485e+2, 2.933549e+2, -19475.75, -236988.47, -3127.905, 0.0046828776, -0.032242212, -19430.78, 45688.313, 0.0, 10.010708, 9.98191 
2.2527945e+2, 3.033401e+2, 89573.53, -85173.88, -3242.4434, 0.007828118, -0.028710026, 89633.67, 89633.67, 0.0, 10.011657, 9.988498 
2.2530381e+2, 3.1332877e+2, 108401.53, -75070.8, -3828.5188, -0.0025197286, -0.02276786, 108481.39, 108481.39, 0.0, 10.012908, 9.988589 
2.3483832e+2, 1.2347167e+2, -1793034.8, -1726266.8, 285.9907, -0.0014956761, -0.021560807, -1726265.6, 3709.1577, 0.0, 9.993514, 10.002348 
2.348641e+2, 1.334717e+2, -1695545.8, -1653023.5, 2043.1549, -0.0010197908, -0.04497951, -1652925.5, -20951.094, 0.0, 9.99454, 10.000163 
2.3488961e+2, 1.4347129e+2, -1592014.4, -1567724.3, 284.14127, -0.0053424435, -0.03585933, -1567720.9, -33742.43, 0.0, 9.9955845, 9.998787 
2.3491502e+2, 1.5347017e+2, -1478392.9, -1462784.0, 54.860046, 0.0011644101, -0.021385359, -1462783.8, -26794.28, 0.0, 9.996672, 9.998726 
2.3494022e+2, 1.6346784e+2, -1381638.6, -1391313.0, -1282.5879, 0.0039156275, -0.017328842, -1381471.4, -43458.953, 0.0, 9.997711, 9.996411 
2.3496523e+2, 1.7346397e+2, -1270583.5, -1288452.4, -1485.4685, 0.0005030645, -0.03255684, -1270460.9, -30410.727, 0.0, 9.998662, 9.996276 
2.3499022e+2, 1.8345919e+2, -1173004.9, -1214118.6, -1920.888, -0.0021630735, -0.037637137, -1172915.4, -30818.375, 0.0, 9.999647, 9.994183 
2.3501523e+2, 1.934534e+2, -1060156.8, -1109980.1, -1842.4656, -0.0033558796, -0.02717756, -1060088.8, -15934.947, 0.0, 10.000703, 9.994084 
2.3504017e+2, 2.0344648e+2, -963023.4, -1037390.75, -2429.9019, -0.0035343058, -0.022910597, -962944.06, -16722.375, 0.0, 10.001724, 9.991854 
2.3506503e+2, 2.1343812e+2, -851843.0, -934387.06, -1996.0951, -0.0018981675, -0.032710314, -851794.75, -3491.2754, 0.0, 10.002681, 9.991728 
2.350899e+2, 2.2342873e+2, -755654.1, -863103.6, -1619.5011, -0.0009802077, -0.035661023, -755629.7, -5234.2124, 0.0, 10.003671, 9.989424 
2.3511483e+2, 2.334181e+2, -643240.4, -759688.0, -2061.9202, -0.001586923, -0.028312666, -643203.9, 9295.87, 0.0, 10.004721, 9.989281 
2.3513977e+2, 2.4340639e+2, -545676.94, -686022.75, -2386.4602, -0.0014826574, -0.024834555, -545636.4, 8978.154, 0.0, 10.005729, 9.987128 
2.3516473e+2, 2.5339335e+2, -434824.13, -583005.75, -2796.5996, 0.000088893226, -0.031216312, -434771.38, 21970.832, 0.0, 10.006658, 9.987018 
2.3518981e+2, 2.6337937e+2, -336631.56, -508407.94, -1814.6742, 0.0015218749, -0.033550393, -336612.4, 22267.05, 0.0, 10.007679, 9.984922 
2.35215e+2, 2.7336422e+2, -221906.39, -403342.44, -896.49084, 0.0028293123, -0.031347677, -221901.97, 39125.79, 0.0, 10.008867, 9.984828 
2.3524025e+2, 2.8334776e+2, -128438.72, -339264.4, 133.56848, 0.0013659991, -0.028286966, -128438.63, 34750.51, 0.0, 10.009915, 9.982002 
2.3526548e+2, 2.933296e+2, -20122.13, -238330.55, -336.19022, -0.004708648, -0.02679882, -20121.613, 45245.54, 0.0, 10.010709, 9.981815 
2.3529099e+2, 3.0331466e+2, 89162.484, -86133.2, 1080.5367, -0.0050517665, -0.026402079, 89169.15, 89169.15, 0.0, 10.011661, 9.988426 
2.3531681e+2, 3.1330317e+2, 107884.37, -76098.47, 830.02026, 0.0051490176, -0.030825837, 107888.11, 107888.11, 0.0, 10.012907, 9.988515 
2.4483187e+2, 1.2344546e+2, -1791354.6, -1726475.0, -2759.1292, -0.0027046658, -0.02290176, -1726357.9, 3873.6377, 0.0, 9.993666, 10.002255 
2.4485873e+2, 1.334454e+2, -1693217.3, -1652315.6, -2030.8102, 0.00029607274, -0.04885178, -1652215.0, -19983.08, 0.0, 9.994711, 10.000123 
2.4488525e+2, 1.4344503e+2, -1590304.0, -1567192.0, -4223.8965, -0.0065208585, -0.034387086, -1566444.3, -32208.398, 0.0, 9.995709, 9.998756 
2.4491169e+2, 1.5344384e+2, -1478959.4, -1463366.4, -4235.5347, 0.001913892, -0.02217595, -1462290.3, -26042.72, 0.0, 9.996642, 9.998694 
2.4493791e+2, 1.6344148e+2, -1382639.5, -1391826.8, -5112.505, 0.005516868, -0.018929133, -1380360.1, -42089.39, 0.0, 9.99764, 9.996407 
2.4496394e+2, 1.7343765e+2, -1269077.8, -1287722.0, -4752.1177, 0.00066758797, -0.0316417, -1267936.4, -27628.182, 0.0, 9.99876, 9.996273 
2.4498993e+2, 1.8343285e+2, -1171450.1, -1214258.9, -5246.2456, -0.002465313, -0.035798736, -1170816.6, -28461.35, 0.0, 9.999788, 9.9941 
2.4501592e+2, 1.9342692e+2, -1061570.3, -1111752.5, -5784.6973, -0.0028202338, -0.027902124, -1060912.1, -16498.813, 0.0, 10.000649, 9.993984 
2.4504182e+2, 2.0341994e+2, -964952.5, -1038206.6, -6782.8394, -0.0028337697, -0.024436817, -964329.75, -17847.938, 0.0, 10.001583, 9.991861 
2.4506769e+2, 2.1341161e+2, -851947.6, -934123.44, -7044.333, -0.0025424396, -0.0315488, -851348.1, -2784.968, 0.0, 10.002656, 9.991752 
2.4509358e+2, 2.2340225e+2, -755277.6, -862839.3, -6756.8726, -0.0015591765, -0.033955257, -754854.8, -4199.8955, 0.0, 10.003689, 9.989427 
2.4511953e+2, 2.3339158e+2, -644228.56, -760155.75, -6205.892, 0.00024028415, -0.030316928, -643897.3, 8862.201, 0.0, 10.004648, 9.989278 
2.4514547e+2, 2.4337985e+2, -547017.56, -686975.7, -5690.22, 0.0007683809, -0.027828006, -546786.6, 8087.9116, 0.0, 10.005645, 9.987099 
2.451714e+2, 2.5336683e+2, -434153.34, -583073.3, -5656.819, -0.0012875622, -0.030099273, -433938.78, 23063.484, 0.0, 10.006717, 9.9869795 
2.4519746e+2, 2.633528e+2, -336083.06, -507888.88, -4884.615, -0.0008678236, -0.030544292, -335944.3, 23195.16, 0.0, 10.007701, 9.984942 
2.452237e+2, 2.7333766e+2, -226522.73, -405212.22, -5519.6973, 0.0039959755, -0.031099508, -226352.39, 34935.332, 0.0, 10.00853, 9.984858 
2.4524997e+2, 2.8332123e+2, -134576.83, -342282.84, -5284.0327, 0.0035974572, -0.029547187, -134442.48, 29006.611, 0.0, 10.009493, 9.981992 
2.4527615e+2, 2.9330307e+2, -20209.352, -238517.0, -5235.3506, -0.006210816, -0.026704472, -20083.871, 45543.246, 0.0, 10.010705, 9.981798 
2.453027e+2, 3.0328816e+2, 91714.38, -84597.49, -2985.591, -0.007287445, -0.026496863, 91764.93, 91764.93, 0.0, 10.011817, 9.988452 
2.4532965e+2, 3.1327662e+2, 105752.08, -76740.03, -2508.301, 0.0076244245, -0.034126922, 105786.555, 105786.555, 0.0, 10.012736, 9.988549 
2.5482553e+2, 1.2341815e+2, -1793141.1, -1729892.5, 1447.467, -0.0066793268, -0.03516244, -1729859.4, 639.62585, 0.0, 9.993655, 10.002025 
2.548535e+2, 1.3341822e+2, -1694401.8, -1654496.9, 1812.977, 0.0045282114, -0.03550355, -1654414.6, -21915.975, 0.0, 9.9947, 9.999976 
2.54881e+2, 1.4341784e+2, -1590490.5, -1567386.9, -702.26874, -0.0044326284, -0.011110022, -1567365.5, -32863.063, 0.0, 9.995701, 9.998744 
2.549083e+2, 1.534163e+2, -1478943.9, -1463197.6, -722.0216, -0.0012536264, -0.035750553, -1463164.6, -26647.3, 0.0, 9.996636, 9.998707 
2.549355e+2, 1.6341385e+2, -1382195.3, -1390869.0, -992.8375, -0.0005112091, -0.045176163, -1382083.0, -43541.734, 0.0, 9.997638, 9.9964695 
2.5496265e+2, 1.734104e+2, -1268572.0, -1286648.4, -486.21094, -0.0034346143, -0.025276514, -1268558.9, -27983.785, 0.0, 9.998758, 9.996344 
2.549897e+2, 1.8340571e+2, -1172380.5, -1216197.0, -1837.4396, -0.0038164237, -0.016725209, -1172303.5, -29682.41, 0.0, 9.999789, 9.993964 
2.550166e+2, 1.9339937e+2, -1062785.4, -1114279.0, -2524.8313, 0.00058076595, -0.033759397, -1062661.9, -17978.566, 0.0, 10.00065, 9.99381 
2.5504348e+2, 2.0339215e+2, -965522.5, -1039424.5, -2859.045, 0.0022602335, -0.039068192, -965412.06, -18658.05, 0.0, 10.001585, 9.991775 
2.5507036e+2, 2.1338399e+2, -852411.7, -935093.7, -2979.3728, -0.0013390405, -0.024577793, -852304.5, -3470.4211, 0.0, 10.002656, 9.991683 
2.5509727e+2, 2.2337471e+2, -754552.25, -861290.94, -3091.5256, -0.002399355, -0.019459022, -754462.75, -3537.6936, 0.0, 10.003686, 9.989531 
2.5512418e+2, 2.3336399e+2, -643297.6, -758180.9, -2621.744, 0.0014239111, -0.034741726, -643237.8, 9792.202, 0.0, 10.004646, 9.98941 
2.5515115e+2, 2.4335226e+2, -546758.75, -686352.9, -1789.3115, 0.0023395917, -0.039417718, -546735.8, 8408.906, 0.0, 10.005641, 9.987141 
2.5517812e+2, 2.533394e+2, -434088.44, -582769.25, -1680.9442, -0.00196199, -0.026072282, -434069.44, 23201.396, 0.0, 10.006709, 9.987001 
2.5520512e+2, 2.6332545e+2, -337164.75, -509973.63, -1718.4059, -0.0037902722, -0.019720666, -337147.66, 22260.234, 0.0, 10.007694, 9.9848 
2.552322e+2, 2.7331004e+2, -227737.64, -407767.7, -2490.7478, -0.00066444994, -0.030704467, -227703.19, 33855.7, 0.0, 10.008532, 9.984679 
2.5525942e+2, 2.832934e+2, -134366.63, -341957.13, -1031.41, 0.00052487483, -0.035649598, -134361.5, 29360.295, 0.0, 10.009497, 9.982009 
2.552869e+2, 2.932753e+2, -19906.55, -237731.94, -735.262, -0.0014786732, -0.03146576, -19904.07, 45995.008, 0.0, 10.010698, 9.981852 
2.553146e+2, 3.032605e+2, 92301.836, -83085.8, 522.84174, -0.0010012714, -0.028879704, 92303.4, 92303.4, 0.0, 10.011806, 9.988558 
2.5534236e+2, 3.132491e+2, 106532.79, -75013.28, 786.9682, 0.003861719, -0.033013206, 106536.2, 106536.2, 0.0, 10.012733, 9.988666 
2.6481923e+2, 1.2338983e+2, -1791484.5, -1730071.8, -3184.0315, -0.0070969495, -0.032757748, -1729907.1, 869.5374, 0.0, 9.993805, 10.001933 
2.6484823e+2, 1.3338989e+2, -1692735.5, -1653093.3, -1929.0995, 0.00745949, -0.03613239, -1652999.5, -20223.383, 0.0, 9.9947815, 10.000027 
2.6487672e+2, 1.4338954e+2, -1589933.3, -1567998.1, -3813.0886, -0.0043231254, -0.008475822, -1567354.3, -32574.525, 0.0, 9.995771, 9.998663 
2.64905e+2, 1.5338787e+2, -1477064.1, -1463497.5, -4782.0913, -0.0031010609, -0.03589822, -1461981.4, -25185.553, 0.0, 9.996813, 9.998593 
2.6493317e+2, 1.6338533e+2, -1380145.3, -1390123.4, -5886.1934, -0.0026406774, -0.04718441, -1377418.3, -38597.492, 0.0, 9.997783, 9.996443 
2.6496136e+2, 1.7338188e+2, -1270345.5, -1287596.8, -6060.232, -0.002907646, -0.027483067, -1268429.4, -27574.768, 0.0, 9.998636, 9.996332 
2.649894e+2, 1.8337718e+2, -1175018.6, -1217300.8, -7198.4614, -0.001753584, -0.018336594, -1173826.6, -30926.037, 0.0, 9.999597, 9.993976 
2.650173e+2, 1.9337088e+2, -1060881.4, -1113160.8, -6466.5425, 0.0013414207, -0.032891396, -1060093.4, -15130.978, 0.0, 10.000768, 9.993822 
2.6504517e+2, 2.0336366e+2, -962286.3, -1038419.7, -6026.3247, 0.0023529283, -0.037524316, -961812.25, -14779.0, 0.0, 10.001824, 9.991722 
2.6507303e+2, 2.133554e+2, -852574.9, -935927.3, -6170.3564, -0.0007111184, -0.025882743, -852120.56, -3006.355, 0.0, 10.002672, 9.991613 
2.651009e+2, 2.2334605e+2, -756115.25, -862220.3, -6522.4194, -0.0018456905, -0.021580175, -755715.8, -4510.0415, 0.0, 10.003582, 9.989512 
2.651288e+2, 2.3333536e+2, -643840.9, -758528.8, -7055.195, 0.00029106846, -0.03370716, -643408.5, 9902.078, 0.0, 10.004608, 9.9894 
2.6515675e+2, 2.4332365e+2, -547469.6, -686496.94, -6967.472, 0.0010829266, -0.037456427, -547121.3, 8303.883, 0.0, 10.005579, 9.987154 
2.651847e+2, 2.5331077e+2, -437692.9, -584274.4, -6907.6357, -0.0009989468, -0.02760931, -437368.1, 20183.299, 0.0, 10.006446, 9.987019 
2.6521274e+2, 2.6329678e+2, -340965.84, -512114.56, -6340.305, -0.0018959387, -0.022259595, -340731.28, 18957.287, 0.0, 10.0074415, 9.984769 
2.652408e+2, 2.7328137e+2, -225809.42, -407249.47, -6100.09, -0.0004946334, -0.029267905, -225604.56, 36235.07, 0.0, 10.008677, 9.984639 
2.6526904e+2, 2.8326473e+2, -130444.54, -339714.97, -4221.036, 0.00085391797, -0.033281542, -130359.44, 33643.137, 0.0, 10.009746, 9.982038 
2.6529753e+2, 2.9324666e+2, -22432.26, -238472.45, -4053.2888, 0.0019332414, -0.034071326, -22356.24, 43823.637, 0.0, 10.010497, 9.981893 
2.653262e+2, 3.0323184e+2, 86133.1, -86156.39, -2921.7627, 0.0020340492, -0.032746147, 86182.63, 86182.63, 0.0, 10.011378, 9.988547 
2.6535496e+2, 3.132205e+2, 103265.26, -76804.49, -3591.765, 0.000011072504, -0.03059523, 103336.875, 103336.875, 0.0, 10.01251, 9.988645 
2.748131e+2, 1.2336046e+2, -1791257.3, -1729354.4, 953.46875, -0.0059327837, -0.013838372, -1729339.6, 1724.9612, 0.0, 9.993795, 10.001982 
2.7484304e+2, 1.3336043e+2, -1691103.5, -1649452.1, 1627.9724, 0.008239567, -0.051165048, -1649388.6, -16323.781, 0.0, 9.994771, 10.000276 
2.7487248e+2, 1.4336011e+2, -1591184.6, -1570330.4, 31.866823, -0.007393165, -0.027860234, -1570330.3, -35262.375, 0.0, 9.995761, 9.9985075 
2.749018e+2, 1.5335853e+2, -1478832.4, -1467003.5, -857.25824, -0.0052550235, -0.0225945, -1466941.8, -29858.3, 0.0, 9.996806, 9.998356 
2.7493098e+2, 1.633559e+2, -1380984.1, -1391828.5, -2593.6963, -0.002740967, -0.024154866, -1380395.8, -41286.367, 0.0, 9.997783, 9.996325 
2.7496004e+2, 1.7335202e+2, -1271081.6, -1289010.6, -2839.6418, 0.0013627517, -0.03807023, -1270642.6, -29495.389, 0.0, 9.998632, 9.996235 
2.7498907e+2, 1.8334721e+2, -1173908.6, -1214949.4, -2950.4978, 0.0025938253, -0.040732745, -1173697.6, -30503.418, 0.0, 9.999594, 9.994135 
2.7501807e+2, 1.9334142e+2, -1059406.0, -1110087.1, -2006.1066, -0.0016926314, -0.025750091, -1059326.8, -14075.485, 0.0, 10.000765, 9.994031 
2.7504694e+2, 2.0333439e+2, -962419.9, -1038703.4, -2641.1821, -0.0038149026, -0.02015303, -962328.5, -15008.576, 0.0, 10.001825, 9.991699 
2.7507567e+2, 2.133258e+2, -853006.9, -936889.06, -2988.4875, -0.0017295773, -0.035198368, -852900.56, -3496.5303, 0.0, 10.002676, 9.991543 
2.751045e+2, 2.2331628e+2, -757023.44, -864143.7, -2781.4727, -0.0013365116, -0.03998227, -756951.25, -5453.855, 0.0, 10.003584, 9.989377 
2.7513337e+2, 2.3330566e+2, -644921.25, -760686.06, -3190.7666, -0.004190214, -0.02758658, -644833.4, 8768.123, 0.0, 10.004604, 9.989251 
2.7516225e+2, 2.4329397e+2, -547568.06, -686611.4, -3633.3296, -0.004447175, -0.022419265, -547473.2, 8242.984, 0.0, 10.005576, 9.987144 
2.7519116e+2, 2.532809e+2, -437544.16, -583998.75, -3675.4963, 0.0004928777, -0.034327198, -437451.97, 20392.203, 0.0, 10.006449, 9.987033 
2.7522022e+2, 2.6326683e+2, -340430.22, -510994.34, -1972.3607, 0.003593702, -0.03755177, -340407.4, 19574.299, 0.0, 10.007441, 9.984842 
2.752495e+2, 2.732517e+2, -225406.27, -406065.22, -1503.1327, 0.0030361204, -0.027119962, -225393.77, 36736.62, 0.0, 10.008661, 9.984724 
2.7527884e+2, 2.8323522e+2, -130405.875, -339185.22, -1228.1088, 0.0028565552, -0.022904538, -130398.65, 33893.277, 0.0, 10.009727, 9.98208 
2.7530807e+2, 2.9321703e+2, -22177.53, -237983.23, -1392.3545, 0.0036937955, -0.034586076, -22168.547, 44301.4, 0.0, 10.010501, 9.981922 
2.7533758e+2, 3.0320215e+2, 85491.23, -87736.46, 952.64105, 0.0018582499, -0.03799406, 85496.47, 85496.47, 0.0, 10.011389, 9.98843 
2.753674e+2, 3.1319076e+2, 102124.62, -79022.52, 614.52576, -0.005567917, -0.027226318, 102126.7, 102126.7, 0.0, 10.012505, 9.988491 
2.8480694e+2, 1.2332999e+2, -1789652.1, -1730436.4, -1765.3247, -0.00495028, -0.014053382, -1730383.8, 979.5041, 0.0, 9.993976, 10.001817 
2.8483787e+2, 1.3332994e+2, -1689618.0, -1648317.3, -3612.2258, 0.0087106805, -0.054248404, -1648003.8, -14640.154, 0.0, 9.994846, 10.000311 
2.848682e+2, 1.4332965e+2, -1590877.1, -1570094.4, -5210.333, -0.008554483, -0.029576313, -1568861.4, -33495.047, 0.0, 9.995772, 9.99851 
2.848986e+2, 1.533281e+2, -1478129.1, -1466670.1, -4304.5303, -0.0040196492, -0.021155208, -1465233.3, -27851.697, 0.0, 9.996848, 9.998352 
2.8492883e+2, 1.6332547e+2, -1379649.6, -1391829.0, -5273.9146, -0.0005576918, -0.02156443, -1377683.4, -38275.715, 0.0, 9.997896, 9.996264 
2.849588e+2, 1.7332149e+2, -1267766.9, -1288188.4, -5460.031, 0.0015063861, -0.03767613, -1266398.8, -24952.246, 0.0, 9.998887, 9.996162 
2.8498873e+2, 1.8331662e+2, -1170906.6, -1213840.3, -5847.052, 0.0016199076, -0.04159373, -1170124.6, -26630.54, 0.0, 9.999807, 9.994102 
2.8501874e+2, 1.9331078e+2, -1061854.0, -1111593.0, -6616.4453, -0.0023684208, -0.02637478, -1060988.9, -15437.5, 0.0, 10.0006075, 9.993998 
2.850486e+2, 2.0330375e+2, -966861.2, -1040802.1, -8177.4556, -0.003914225, -0.020876033, -965967.6, -18347.352, 0.0, 10.0015135, 9.9917 
2.8507838e+2, 2.1329516e+2, -853418.75, -936993.0, -7987.1294, -0.0012172069, -0.036126018, -852662.25, -2957.969, 0.0, 10.002638, 9.991548 
2.8510812e+2, 2.2328563e+2, -755912.8, -863884.44, -7290.734, -0.000089624555, -0.040470984, -755422.75, -3624.996, 0.0, 10.003666, 9.989349 
2.8513795e+2, 2.33275e+2, -646491.44, -761822.9, -6936.93, -0.0023394257, -0.026746524, -646075.7, 7826.3774, 0.0, 10.004507, 9.989215 
2.8516778e+2, 2.4326327e+2, -549439.3, -687689.2, -6640.8423, -0.0026627686, -0.02146653, -549121.06, 6895.9863, 0.0, 10.005448, 9.987127 
2.851977e+2, 2.5325018e+2, -435486.47, -583161.44, -6852.5527, 0.000795471, -0.035390224, -435169.16, 22976.164, 0.0, 10.00659, 9.987017 
2.8522772e+2, 2.632361e+2, -338148.94, -509306.06, -5551.489, 0.002877069, -0.040088087, -337969.06, 22313.79, 0.0, 10.0075655, 9.984893 
2.8525794e+2, 2.7322102e+2, -231296.53, -408213.56, -5305.881, 0.0019117106, -0.02987725, -231137.55, 31293.416, 0.0, 10.008221, 9.984783 
2.852882e+2, 2.832046e+2, -139724.94, -344123.4, -4926.6196, 0.0017726542, -0.024057848, -139606.27, 24985.951, 0.0, 10.0091, 9.982038 
2.8531852e+2, 2.9318637e+2, -23667.023, -239384.05, -5662.563, 0.0036761945, -0.030382503, -23518.484, 43251.938, 0.0, 10.010421, 9.981857 
2.8534907e+2, 3.0317152e+2, 88845.33, -84873.68, -3451.2424, 0.0032119115, -0.032981135, 88913.87, 88913.87, 0.0, 10.01156, 9.988538 
2.8537986e+2, 3.1316018e+2, 100626.34, -78079.14, -1918.4482, -0.0030036683, -0.030646186, 100646.94, 100646.94, 0.0, 10.012322, 9.988638 
2.9480094e+2, 1.23298354e+2, -1792900.3, -1736637.5, 2252.642, -0.007158055, -0.03603569, -1736547.5, -4874.5747, 0.0, 9.993957, 10.0014 
2.948327e+2, 1.332984e+2, -1691294.0, -1651344.6, -520.8696, 0.008156713, -0.0450806, -1651337.9, -17665.117, 0.0, 9.994829, 10.00011 
2.9486397e+2, 1.4329813e+2, -1589881.1, -1567703.5, -1370.0515, -0.008460008, -0.012699482, -1567619.1, -31943.95, 0.0, 9.995757, 9.998677 
2.948955e+2, 1.5329657e+2, -1476563.5, -1463202.5, -249.41454, -0.0006651817, -0.031653736, -1463197.9, -25507.184, 0.0, 9.996837, 9.99859 
2.9492676e+2, 1.6329397e+2, -1379709.0, -1391832.8, -1491.9255, 0.0022018228, -0.04009812, -1379528.1, -39812.08, 0.0, 9.99789, 9.9962635 
2.9495764e+2, 1.7329024e+2, -1268191.3, -1288937.9, -1695.1493, -0.0033631169, -0.026500944, -1268053.6, -26300.912, 0.0, 9.998881, 9.996111 
2.9498848e+2, 1.8328536e+2, -1172532.4, -1217134.3, -2696.732, -0.0057915845, -0.020649958, -1172369.9, -28569.264, 0.0, 9.999805, 9.9938755 
2.9501936e+2, 1.9327897e+2, -1063684.1, -1115398.3, -3567.9402, -0.0021361085, -0.034522943, -1063439.1, -17575.957, 0.0, 10.000608, 9.993735 
2.9505017e+2, 2.0327169e+2, -966606.25, -1040409.06, -4108.813, 0.0001955992, -0.03958175, -966378.2, -18443.76, 0.0, 10.00152, 9.99172 
2.9508102e+2, 2.1326342e+2, -852831.94, -935810.7, -3709.2778, -0.0002952291, -0.029188931, -852666.44, -2651.028, 0.0, 10.00264, 9.991624 
2.951118e+2, 2.2325405e+2, -755437.0, -862810.6, -3958.418, 0.0005467603, -0.023597045, -755291.3, -3184.1003, 0.0, 10.003662, 9.989421 
2.9514253e+2, 2.332433e+2, -646005.8, -760775.94, -3794.8953, 0.004282615, -0.030821817, -645880.5, 8332.263, 0.0, 10.004506, 9.9892845 
2.9517335e+2, 2.4323152e+2, -549595.1, -688020.2, -2573.6667, 0.0047999346, -0.033846278, -549547.25, 6780.8813, 0.0, 10.005449, 9.987101 
2.9520425e+2, 2.5321853e+2, -435927.8, -583851.6, -2579.718, -0.00089841086, -0.031350344, -435882.84, 22572.537, 0.0, 10.00658, 9.986971 
2.9523522e+2, 2.6320451e+2, -338119.22, -508948.44, -2885.2969, -0.00477172, -0.030589921, -338070.5, 22522.025, 0.0, 10.007554, 9.98492 
2.952661e+2, 2.731893e+2, -230917.25, -407565.13, -2978.609, -0.0046899496, -0.03703085, -230867.03, 31874.746, 0.0, 10.008228, 9.984821 
2.9529727e+2, 2.8317276e+2, -140379.75, -345724.25, -508.11377, -0.0032174133, -0.035832684, -140378.48, 24525.242, 0.0, 10.00911, 9.981919 
2.9532892e+2, 2.9315463e+2, -24945.977, -241680.0, -727.745, 0.0012044143, -0.022184301, -24943.533, 42138.156, 0.0, 10.010406, 9.981704 
2.9536065e+2, 3.0313987e+2, 90602.85, -80624.77, -323.5658, 0.004482363, -0.018793149, 90603.47, 90603.47, 0.0, 10.011537, 9.988837 
2.9539227e+2, 3.1312868e+2, 103475.4, -72202.12, 725.58136, 0.0042928117, -0.039702684, 103478.4, 103478.4, 0.0, 10.012327, 9.989036 
3.04795e+2, 1.232659e+2, -1791145.5, -1738560.5, -1123.3766, -0.0064086765, -0.03776039, -1738536.5, -6545.5854, 0.0, 9.994187, 10.001152 
3.0482766e+2, 1.3326594e+2, -1686789.8, -1649475.0, -3658.633, 0.007484089, -0.04108342, -1649119.6, -15128.9795, 0.0, 9.995141, 10.00008 
3.0485988e+2, 1.4326565e+2, -1585858.6, -1565570.4, -4117.303, -0.008675335, -0.012413059, -1564766.8, -28773.018, 0.0, 9.996017, 9.99869 
3.0489233e+2, 1.5326406e+2, -1476933.6, -1463142.3, -4642.2896, 0.00028306013, -0.03445492, -1461725.3, -23716.104, 0.0, 9.996797, 9.998607 
3.0492455e+2, 1.6326146e+2, -1382966.8, -1393742.9, -6636.671, 0.003445267, -0.043572318, -1379806.4, -39771.773, 0.0, 9.997677, 9.99623 
3.0495647e+2, 1.7325772e+2, -1270064.1, -1290316.0, -6815.4727, -0.0037817506, -0.026189761, -1267984.1, -25912.754, 0.0, 9.998768, 9.996064 
3.0498832e+2, 1.832528e+2, -1172375.5, -1217523.0, -7659.106, -0.0064123734, -0.01862351, -1171111.6, -26991.914, 0.0, 9.999831, 9.99383 
3.050201e+2, 1.9324635e+2, -1060478.3, -1114310.5, -7014.7676, -0.0006671565, -0.03428828, -1059579.1, -13396.373, 0.0, 10.000841, 9.9936905 
3.0505186e+2, 2.0323902e+2, -963040.56, -1039024.56, -6613.77, 0.002435727, -0.040049784, -962469.2, -14214.671, 0.0, 10.001771, 9.991689 
3.0508363e+2, 2.1323074e+2, -854189.44, -936819.5, -6976.296, -0.0001364018, -0.028811688, -853604.6, -3268.8652, 0.0, 10.002554, 9.991591 
3.0511534e+2, 2.2322138e+2, -758325.3, -864002.94, -7741.097, -0.0003835778, -0.023217747, -757761.25, -5333.6484, 0.0, 10.003449, 9.989436 
3.0514702e+2, 2.3321061e+2, -644930.1, -759962.1, -7887.9565, 0.0038288909, -0.031808417, -644391.75, 10141.292, 0.0, 10.004561, 9.9893055 
3.051788e+2, 2.4319884e+2, -548246.4, -687457.06, -6957.045, 0.004755601, -0.0348782, -547899.56, 8748.753, 0.0, 10.005538, 9.987091 
3.0521065e+2, 2.5318584e+2, -440707.5, -586385.06, -6854.401, -0.0008538513, -0.030108642, -440385.7, 18389.912, 0.0, 10.006256, 9.986949 
3.052426e+2, 2.6317185e+2, -343985.06, -511965.66, -6964.2803, -0.003908715, -0.028097881, -343696.84, 17216.045, 0.0, 10.0071535, 9.9849 
3.0527446e+2, 2.7315658e+2, -228260.45, -406440.2, -7402.347, -0.0019680718, -0.035144217, -227953.45, 35108.88, 0.0, 10.0084095, 9.984804 
3.0530658e+2, 2.8314003e+2, -134995.95, -342586.3, -4801.517, -0.00079789135, -0.03602109, -134884.95, 30339.4, 0.0, 10.00945, 9.981964 
3.053391e+2, 2.931219e+2, -29736.795, -243313.67, -3651.754, -0.0012602578, -0.027441407, -29674.375, 37727.813, 0.0, 10.01004, 9.981763 
3.053718e+2, 3.031072e+2, 81172.3, -84593.3, -2636.653, 0.0011050327, -0.023771944, 81214.22, 81214.22, 0.0, 10.010855, 9.988888 
3.054045e+2, 3.130962e+2, 101114.91, -72801.19, -3849.639, 0.007989602, -0.033738665, 101200.08, 101200.08, 0.0, 10.012135, 9.989079 
3.147892e+2, 1.23232655e+2, -1792003.1, -1739994.3, 3165.3008, -0.005241097, -0.016631018, -1739802.4, -7485.334, 0.0000000000000806617, 9.994177, 10.001055 
3.148228e+2, 1.332326e+2, -1686071.9, -1647669.1, -228.86877, 0.0057798177, -0.04217399, -1647667.8, -13350.049, 0.00000000000005243424, 9.995129, 10.000204 
3.1485587e+2, 1.4323214e+2, -1587066.6, -1567803.8, -1163.6761, -0.010514583, -0.03002264, -1567733.6, -31411.635, 0.000000000000028332263, 9.996007, 9.99854 
3.148891e+2, 1.5323056e+2, -1478569.4, -1466233.1, -1758.7411, -0.0026679342, -0.029547853, -1465987.4, -27649.934, 0.000000000000012064798, 9.996784, 9.9984 
3.149222e+2, 1.6322789e+2, -1383570.4, -1394808.1, -2759.522, 0.0012050946, -0.03133424, -1382929.3, -42565.668, 0.000000000000003878589, 9.997668, 9.996159 
3.1495526e+2, 1.7322388e+2, -1270463.8, -1290986.4, -2671.3936, -0.0010625573, -0.036689937, -1270121.8, -27718.746, 0.0000000000000009180906, 9.998761, 9.996018 
3.149882e+2, 1.8321891e+2, -1171432.4, -1215498.8, -3777.6033, -0.0014985453, -0.035696607, -1171110.9, -26659.314, 0.00000000000000015841597, 9.999826, 9.993966 
3.1502095e+2, 1.932129e+2, -1059281.9, -1111750.4, -3158.1125, 0.0011230964, -0.026059002, -1059092.5, -12581.79, 0.000000000000000019869674, 10.000836, 9.993864 
3.150536e+2, 2.0320572e+2, -963674.9, -1040272.06, -3478.0417, 0.0016033641, -0.022714164, -963517.3, -14936.41, 0.0000000000000000018107616, 10.00177, 9.991601 
3.1508616e+2, 2.1319707e+2, -855142.4, -938863.56, -3999.1816, -0.0017458537, -0.03464004, -854951.75, -4286.116, 0.0000000000000000001198895, 10.002559, 9.9914465 
3.1511876e+2, 2.231875e+2, -758509.0, -864449.2, -3765.9634, -0.004216904, -0.03890933, -758375.3, -5615.9033, 0.0000000000000000000057675156, 10.003452, 9.989402 
3.151515e+2, 2.331769e+2, -645098.06, -760171.3, -3669.7505, -0.0047184695, -0.030197827, -644981.1, 9882.226, 0.0, 10.004555, 9.989291 
3.1518427e+2, 2.431652e+2, -548366.9, -687512.7, -4041.0151, -0.003909493, -0.02521648, -548249.6, 8728.403, 0.0, 10.005531, 9.987086 
3.1521696e+2, 2.531521e+2, -440697.13, -586391.1, -4230.2705, -0.0002949108, -0.031424727, -440574.38, 18532.074, 0.0, 10.006259, 9.986943 
3.1524983e+2, 2.6313803e+2, -344326.06, -512744.88, -2655.7212, 0.0035825477, -0.032275267, -344284.2, 16960.14, 0.0, 10.007156, 9.984841 
3.1528297e+2, 2.7312285e+2, -228923.77, -407507.7, -2683.5588, 0.007696105, -0.02544173, -228883.45, 34509.695, 0.0, 10.008396, 9.984734 
3.1531614e+2, 2.8310636e+2, -133943.28, -339943.7, -2257.7383, 0.006513654, -0.025717292, -133918.53, 31636.15, 0.0, 10.009433, 9.98215 
3.1534913e+2, 2.930882e+2, -27880.002, -239659.6, -1667.3894, -0.004496721, -0.044207077, -27866.875, 39865.656, 0.0, 10.010052, 9.982003 
3.1538257e+2, 3.030735e+2, 80317.39, -86821.086, 1482.6714, -0.007437999, -0.045686807, 80330.54, 80330.54, 0.0, 10.010875, 9.988722 
3.1541666e+2, 3.130626e+2, 99066.195, -76670.6, 895.3303, 0.0052972115, -0.014984028, 99070.76, 99070.76, 0.0, 10.012117, 9.988818 
3.247834e+2, 1.23198226e+2, -1791205.1, -1739968.8, 122.55029, -0.0035515013, -0.017809892, -1739968.5, -7313.9907, 0.0000000000023454196, 9.994238, 10.0010195 
3.2481787e+2, 1.3319832e+2, -1685952.4, -1646185.8, -4200.384, 0.0048693107, -0.038107324, -1645747.0, -11093.48, 0.0000000000015241749, 9.9950695, 10.000328 
3.2485187e+2, 1.431978e+2, -1588208.6, -1569684.0, -4833.309, -0.008965764, -0.034524858, -1568498.8, -31840.348, 0.0000000000008233425, 9.995978, 9.998421 
3.2488605e+2, 1.5319611e+2, -1474906.9, -1466389.8, -5140.051, -0.0035183604, -0.029018134, -1463973.4, -25298.334, 0.00000000000035051592, 9.99711, 9.998225 
3.249201e+2, 1.6319335e+2, -1377007.3, -1392025.6, -5942.309, -0.0002229214, -0.028475884, -1374940.5, -34238.223, 0.00000000000011265747, 9.998126, 9.9961195 
3.249541e+2, 1.7318928e+2, -1268067.4, -1289913.4, -5665.681, 0.00042047777, -0.036641255, -1266685.5, -23943.459, 0.000000000000026661206, 9.99892, 9.99601 
3.2498798e+2, 1.8318431e+2, -1172486.5, -1215941.8, -7014.5596, 0.00091584417, -0.037388265, -1171382.3, -26591.57, 0.000000000000004599458, 9.999745, 9.99397 
3.2502165e+2, 1.9317828e+2, -1061981.3, -1113003.0, -7670.59, 0.00013761783, -0.027664592, -1060853.0, -14003.226, 0.0000000000000005767878, 10.000644, 9.993865 
3.2505527e+2, 2.0317112e+2, -966196.25, -1041691.7, -8607.713, -0.00064651726, -0.023787573, -965227.25, -16307.27, 0.000000000000000052554126, 10.001597, 9.991581 
3.2508877e+2, 2.1316247e+2, -853721.6, -938451.0, -8320.208, -0.0012737748, -0.033695642, -852912.3, -1907.4918, 0.0000000000000000034789587, 10.00266, 9.99142 
3.2512233e+2, 2.2315286e+2, -756365.75, -863869.06, -7632.0034, -0.0022049462, -0.037425354, -755826.6, -2727.736, 0.00000000000000000016733108, 10.003612, 9.989358 
3.2515597e+2, 2.3314218e+2, -648518.0, -762354.44, -7795.122, -0.00390708, -0.031860292, -647986.7, 7216.905, 0.0, 10.004336, 9.989243 
3.2518965e+2, 2.4313043e+2, -552925.56, -689630.4, -8105.3286, -0.0035607954, -0.028234283, -552446.7, 4871.9795, 0.0, 10.005208, 9.987092 
3.2522327e+2, 2.5311738e+2, -438584.4, -585140.0, -8084.9126, 0.00067222526, -0.031715162, -438139.75, 21306.934, 0.0, 10.006386, 9.986961 
3.252571e+2, 2.6310334e+2, -340860.56, -510859.75, -6276.967, 0.0045051025, -0.031149013, -340629.13, 20955.107, 0.0, 10.007378, 9.9848585 
3.252911e+2, 2.7308816e+2, -234809.38, -410176.84, -5813.9683, 0.0069206753, -0.025675807, -234616.84, 29116.203, 0.0, 10.0079775, 9.984748 
3.253252e+2, 2.830717e+2, -143085.95, -344412.5, -5361.143, 0.0055125663, -0.026121497, -142943.3, 22951.234, 0.0, 10.008799, 9.982144 
3.253592e+2, 2.9305354e+2, -27450.602, -239561.88, -6410.3506, -0.0027967016, -0.04178085, -27257.047, 40815.152, 0.0, 10.010077, 9.981992 
3.2539362e+2, 3.030388e+2, 84696.984, -84297.75, -3869.4407, -0.0048727724, -0.044067178, 84785.54, 84785.54, 0.0, 10.011148, 9.988756 
3.2542855e+2, 3.1302792e+2, 94475.33, -78317.63, -2581.2874, 0.004365327, -0.022237387, 94513.875, 94513.875, 0.0, 10.0117655, 9.988871 
3.3477768e+2, 1.2316256e+2, -1791380.4, -1739694.1, 3789.3057, -0.0037694115, -0.04419441, -1739417.8, -6414.0303, 0.00000000005167391, 9.994213, 10.001045 
3.3481294e+2, 1.3316311e+2, -1685428.6, -1644497.3, -1294.9409, 0.003925931, -0.02865794, -1644456.3, -9457.986, 0.00000000003357157, 9.995045, 10.000451 
3.348479e+2, 1.4316264e+2, -1589121.9, -1571120.9, -860.25745, -0.0049505266, -0.025014602, -1571079.9, -34076.867, 0.000000000018130754, 9.99596, 9.998328 
3.3488315e+2, 1.5316068e+2, -1476064.3, -1468502.4, -872.9766, -0.0032680694, -0.03275394, -1468402.9, -29380.61, 0.000000000007717037, 9.997098, 9.998083 
3.349182e+2, 1.6315779e+2, -1377117.3, -1392169.1, -2782.6943, -0.0022091717, -0.035190385, -1376619.4, -35568.688, 0.0000000000024798213, 9.998123, 9.996108 
3.3495304e+2, 1.7315392e+2, -1268008.9, -1289647.5, -2693.8647, -0.00021593105, -0.026048157, -1267678.5, -24589.943, 0.00000000000058676854, 9.998915, 9.996027 
3.3498773e+2, 1.8314894e+2, -1173461.4, -1217830.4, -3675.6462, -0.00014476848, -0.023490023, -1173158.9, -28021.572, 0.00000000000010121049, 9.99974, 9.993841 
3.3502227e+2, 1.931425e+2, -1063160.6, -1115389.4, -4202.519, -0.004790051, -0.0387975, -1062824.6, -15624.289, 0.000000000000012690283, 10.000642, 9.993701 
3.350568e+2, 2.0313518e+2, -965892.5, -1041094.0, -4655.389, -0.006055054, -0.0430674, -965605.44, -16333.323, 0.0000000000000011561161, 10.001599, 9.991617 
3.3509144e+2, 2.1312687e+2, -853136.4, -937214.7, -4265.055, -0.000090002424, -0.026527252, -852920.56, -1566.8195, 0.000000000000000076521916, 10.002659, 9.9915 
3.35126e+2, 2.231174e+2, -756771.3, -864618.06, -4679.1357, 0.004017297, -0.019366767, -756568.7, -3122.126, 0.0000000000000000036800285, 10.003609, 9.989305 
3.351604e+2, 2.331064e+2, -649075.06, -763554.75, -5083.491, 0.0044164713, -0.03610671, -648849.75, 6704.3774, 0.0, 10.004339, 9.989156 
3.3519492e+2, 2.4309452e+2, -552764.7, -689335.9, -4000.596, 0.0036829768, -0.04292655, -552647.6, 5022.979, 0.0, 10.00521, 9.987106 
3.3522967e+2, 2.5308165e+2, -438438.75, -584586.0, -3647.6936, 0.0008344504, -0.031380568, -438347.75, 21449.037, 0.0, 10.006375, 9.987 
3.352644e+2, 2.6306772e+2, -340517.25, -509793.72, -3705.6921, -0.0021163917, -0.025136463, -340436.2, 21497.08, 0.0, 10.007364, 9.984934 
3.35299e+2, 2.7305245e+2, -234139.77, -408883.88, -3711.5586, -0.0048161834, -0.0347543, -234060.97, 30021.736, 0.0, 10.007984, 9.984829 
3.353339e+2, 2.8303596e+2, -144092.55, -346738.53, -1176.2838, -0.004597308, -0.03621894, -144085.72, 22158.807, 0.0, 10.008809, 9.9819765 
3.3536935e+2, 2.9301786e+2, -29245.16, -242991.94, -1641.5684, 0.0023589318, -0.023157347, -29232.553, 39189.332, 0.0, 10.010066, 9.981757 
3.3540487e+2, 3.0300313e+2, 85767.59, -81603.59, -1181.9467, 0.006021623, -0.022160027, 85775.94, 85775.94, 0.0, 10.011132, 9.988944 
3.354403e+2, 3.12992e+2, 96818.91, -73842.8, -483.88452, 0.001221467, -0.05105485, 96820.28, 96820.28, 0.0, 10.011787, 9.989162 
3.4477204e+2, 1.231263e+2, -1787217.5, -1738405.1, 1531.4325, -0.002049272, -0.047867145, -1738357.1, -4998.108, 0.00000000081250584, 9.994514, 10.000984 
3.4480807e+2, 1.3312684e+2, -1682309.0, -1644128.4, -5975.0493, 0.0008225156, -0.023379484, -1643215.3, -7861.516, 0.00000000052773436, 9.9952965, 10.000348 
3.4484392e+2, 1.431262e+2, -1586712.4, -1569986.1, -5620.411, -0.0024852771, -0.030705856, -1568273.0, -30912.951, 0.00000000028494548, 9.996118, 9.998321 
3.4488022e+2, 1.531243e+2, -1476426.1, -1468472.3, -4367.774, -0.0023454644, -0.0338195, -1466542.1, -27163.375, 0.0000000001212577, 9.997058, 9.998098 
3.4491625e+2, 1.6312143e+2, -1379180.9, -1393660.6, -6237.088, -0.002486745, -0.033495463, -1376864.8, -35457.79, 0.00000000003895854, 9.997995, 9.996062 
3.4495196e+2, 1.7311747e+2, -1267918.0, -1290263.8, -6900.795, -0.00075192994, -0.026000567, -1265958.6, -22513.031, 0.000000000009216846, 9.998941, 9.995966 
3.449875e+2, 1.8311243e+2, -1171724.1, -1217731.1, -7908.0728, -0.00022231358, -0.024377804, -1170402.8, -24907.682, 0.0000000000015895714, 9.999884, 9.993771 
3.45023e+2, 1.9310592e+2, -1060926.5, -1115095.0, -7774.9956, -0.0033687411, -0.038477335, -1059832.6, -12273.872, 0.00000000000019928297, 10.000821, 9.993628 
3.450585e+2, 2.0309855e+2, -964161.4, -1040320.75, -7911.648, -0.004071279, -0.042431414, -963348.2, -13717.239, 0.0000000000000181529, 10.001712, 9.99161 
3.4509403e+2, 2.1309023e+2, -854954.8, -938049.2, -8064.0757, -0.00007017824, -0.028265644, -854179.44, -2466.7012, 0.0000000000000012013685, 10.002525, 9.991502 
3.451295e+2, 2.2308075e+2, -759557.3, -866068.9, -8802.398, 0.003152145, -0.0215058, -758834.8, -5029.1836, 0.00000000000000005776772, 10.003414, 9.989294 
3.451648e+2, 2.3306978e+2, -647366.4, -762877.56, -8771.488, 0.0045755757, -0.034083664, -646704.06, 9208.928, 0.0, 10.004455, 9.9891405 
3.4520024e+2, 2.4305792e+2, -550103.3, -687780.9, -7260.641, 0.0043411474, -0.039211176, -549721.5, 8307.812, 0.0, 10.005372, 9.987129 
3.4523588e+2, 2.5304502e+2, -443161.16, -586534.44, -7000.246, 0.00093429245, -0.031537462, -442820.16, 17335.371, 0.0, 10.006027, 9.98703 
3.452715e+2, 2.630311e+2, -347851.16, -513552.9, -7268.9683, -0.0021382424, -0.027960569, -347532.88, 14759.216, 0.0, 10.006861, 9.984916 
3.45307e+2, 2.730158e+2, -233016.55, -408709.84, -8035.228, -0.004807273, -0.037284516, -232649.83, 31792.012, 0.0, 10.008068, 9.984795 
3.4534287e+2, 2.829993e+2, -139909.55, -344752.75, -5495.553, -0.0036396848, -0.037442766, -139762.22, 26841.594, 0.0, 10.009089, 9.98197 
3.4537923e+2, 2.9298124e+2, -34471.88, -245451.25, -4470.361, 0.005869689, -0.021267943, -34377.203, 34403.695, 0.0, 10.009693, 9.981764 
3.454157e+2, 3.0296656e+2, 77118.19, -85208.9, -3202.1145, 0.0093149785, -0.018716546, 77181.33, 77181.33, 0.0, 10.010504, 9.988995 
3.4545207e+2, 3.1295547e+2, 96876.836, -73132.04, -3966.35, -0.0017866916, -0.048892543, 96969.32, 96969.32, 0.0, 10.011753, 9.989222 
3.5476658e+2, 1.2308954e+2, -1788893.8, -1741362.6, 4579.415, -0.0007693673, -0.025369631, -1740925.4, -7205.866, 0.000000009469599, 9.994498, 10.000786 
3.5480332e+2, 1.3308953e+2, -1685289.4, -1649723.1, -3203.3933, -0.005444702, -0.02218541, -1649436.9, -13717.219, 0.0000000061492664, 9.995276, 9.999973 
3.5484007e+2, 1.4308845e+2, -1586446.6, -1569038.3, -2336.6052, -0.0030048478, -0.052792873, -1568730.0, -30999.96, 0.0000000033196064, 9.996101, 9.998389 
3.548773e+2, 1.5308695e+2, -1475396.0, -1465989.9, -890.66547, -0.0019504584, -0.032537773, -1465906.3, -26161.406, 0.0000000014124153, 9.997043, 9.99827 
3.5491425e+2, 1.6308422e+2, -1379884.1, -1394858.8, -2742.1636, -0.002522835, -0.022893343, -1379397.8, -37626.29, 0.0000000004537274, 9.997986, 9.995982 
3.5495088e+2, 1.7307994e+2, -1269034.0, -1292369.1, -3330.2026, -0.0025297839, -0.036541134, -1268568.0, -24754.625, 0.00000000010733056, 9.998934, 9.995822 
3.549874e+2, 1.8307474e+2, -1171893.8, -1217939.6, -4348.1377, -0.00091393036, -0.04031906, -1171486.8, -25622.336, 0.00000000001850869, 9.999877, 9.993756 
3.550239e+2, 1.9306853e+2, -1060852.9, -1114849.3, -4169.587, 0.0030025465, -0.027082222, -1060532.8, -12607.449, 0.0000000000023202033, 10.000816, 9.993643 
3.550603e+2, 2.0306124e+2, -964532.3, -1041104.9, -4719.122, 0.0036008665, -0.022069544, -964242.56, -14245.672, 0.00000000000021133044, 10.001715, 9.991551 
3.5509655e+2, 2.1305253e+2, -855417.06, -939084.8, -4959.4272, -0.0023508912, -0.038118523, -855124.1, -3041.9016, 0.000000000000013984623, 10.00253, 9.9914255 
3.5513282e+2, 2.2304289e+2, -759337.9, -865610.0, -5020.121, -0.0060329703, -0.042969607, -759101.25, -4924.8335, 0.0000000000000006723836, 10.003413, 9.989323 
3.5516915e+2, 2.3303227e+2, -647078.0, -762128.4, -4802.4023, -0.0044755354, -0.026621623, -646877.9, 9402.83, 0.0, 10.004448, 9.989191 
3.5520554e+2, 2.4302056e+2, -550036.0, -687450.8, -4544.7305, -0.0026305276, -0.018341182, -549885.8, 8509.57, 0.0, 10.005365, 9.987151 
3.552419e+2, 2.530075e+2, -443056.8, -586329.44, -4621.0063, -0.00013045916, -0.03178267, -442907.94, 17615.545, 0.0, 10.006031, 9.987039 
3.552784e+2, 2.629934e+2, -348508.72, -514993.9, -3225.8184, 0.0021318975, -0.038771078, -348446.25, 14215.096, 0.0, 10.006864, 9.984811 
3.5531518e+2, 2.7297816e+2, -234094.03, -410712.66, -3501.68, 0.0039143017, -0.03430134, -234024.64, 30786.47, 0.0, 10.008059, 9.984657 
3.5535204e+2, 2.829616e+2, -139182.45, -342889.63, -2877.8005, 0.0052506244, -0.030733053, -139141.81, 27831.223, 0.0, 10.009077, 9.9821 
3.5538897e+2, 2.9294357e+2, -32946.15, -242450.97, -2410.6707, 0.006769386, -0.03359009, -32918.414, 36231.594, 0.0, 10.009705, 9.981959 
3.554262e+2, 3.0292895e+2, 76913.87, -85971.305, 828.9847, 0.0044293837, -0.03149501, 76918.086, 76918.086, 0.0, 10.010519, 9.98893 
3.5546377e+2, 3.1291816e+2, 95737.67, -75147.016, 651.85114, -0.007796185, -0.021155678, 95740.16, 95740.16, 0.0, 10.011739, 9.989085 
3.647611e+2, 1.2305164e+2, -1787583.4, -1740239.6, 1038.8948, 0.00051574036, -0.025582686, -1740216.9, -6125.8755, 0.00000008268434, 9.994558, 10.000826 
3.647986e+2, 1.330515e+2, -1683842.6, -1651426.9, -5509.208, -0.009729775, -0.015658362, -1650516.3, -14423.968, 0.00000005368276, 9.995473, 9.999757 
3.6483634e+2, 1.4305018e+2, -1582965.0, -1568299.0, -4206.122, 0.00045046562, -0.054469474, -1567178.3, -29073.223, 0.000000028975498, 9.99637, 9.998304 
3.6487445e+2, 1.5304863e+2, -1472478.6, -1465201.1, -4425.9463, -0.00008582277, -0.032597266, -1463110.1, -22989.924, 0.000000012326782, 9.997258, 9.998214 
3.6491233e+2, 1.6304588e+2, -1377558.4, -1394127.4, -7181.25, -0.0020659917, -0.022604067, -1374879.1, -32731.93, 0.000000003959453, 9.998153, 9.995943 
3.6494985e+2, 1.7304154e+2, -1267153.8, -1291821.1, -7073.1865, -0.0028185074, -0.038590025, -1265269.5, -21079.684, 0.0000000009365381, 9.999069, 9.995788 
3.6498734e+2, 1.830363e+2, -1170780.9, -1217699.6, -7828.38, -0.00143683, -0.042630475, -1169509.1, -23268.11, 0.0000000001614897, 9.999958, 9.993727 
3.650247e+2, 1.9303009e+2, -1061268.9, -1115354.1, -8044.5566, 0.0028406624, -0.02593467, -1060097.6, -11795.622, 0.000000000020242613, 10.000793, 9.993613 
3.6506197e+2, 2.0302278e+2, -965803.0, -1042134.6, -8868.161, 0.0039969934, -0.01939503, -964786.25, -14412.467, 0.0000000000018436379, 10.0016365, 9.991513 
3.6509907e+2, 2.1301399e+2, -856009.2, -939842.9, -8960.193, -0.0011476913, -0.037570734, -855062.25, -2602.5403, 0.00000000000012199398, 10.002501, 9.991383 
3.6513624e+2, 2.2300436e+2, -759865.56, -865518.25, -8577.846, -0.0047112843, -0.04398854, -759173.6, -4619.488, 0.0000000000000058651187, 10.003355, 9.98935 
3.6517346e+2, 2.3299375e+2, -650509.8, -763269.3, -8349.741, -0.004835506, -0.028385807, -649894.9, 6763.236, 0.0, 10.004183, 9.989235 
3.6521074e+2, 2.4298207e+2, -554266.1, -689900.4, -8456.725, -0.0035924818, -0.020117085, -553740.9, 5031.8066, 0.0, 10.005085, 9.987114 
3.6524796e+2, 2.5296894e+2, -441751.13, -586360.25, -9052.337, 0.00016602215, -0.031654194, -441186.66, 19714.502, 0.0, 10.00614, 9.986978 
3.652854e+2, 2.6295486e+2, -344832.13, -512527.2, -7231.5605, 0.0035786415, -0.036901783, -344520.84, 18518.197, 0.0, 10.00708, 9.984868 
3.653231e+2, 2.729397e+2, -237665.52, -411388.44, -6004.609, 0.0057849167, -0.031336345, -237458.22, 27729.621, 0.0, 10.00776, 9.984751 
3.6536086e+2, 2.8292322e+2, -146432.9, -346490.1, -4928.5737, 0.006030454, -0.028988207, -146311.56, 21037.762, 0.0, 10.008574, 9.982092 
3.6539862e+2, 2.929051e+2, -33520.445, -243121.88, -6008.605, 0.0028920353, -0.03758066, -33348.34, 36178.773, 0.0, 10.009672, 9.981924 
3.6543673e+2, 3.0289048e+2, 79069.27, -84297.3, -3223.9229, 0.0009315203, -0.036545493, 79132.87, 79132.87, 0.0, 10.01063, 9.988986 
3.654753e+2, 3.1287983e+2, 89584.83, -77224.945, -2092.5188, -0.00058513903, -0.01797614, 89611.07, 89611.07, 0.0, 10.011268, 9.989164 
3.7475565e+2, 1.230126e+2, -1785995.1, -1736106.8, 3892.554, -0.0006217184, -0.050195117, -1735804.8, -1331.5116, 0.0000005532481, 9.994524, 10.001118 
3.7479407e+2, 1.330128e+2, -1684570.1, -1652292.5, -2164.4624, -0.012561182, -0.0038804575, -1652148.0, -15676.572, 0.00000035914545, 9.995447, 9.999705 
3.7483275e+2, 1.4301145e+2, -1584982.0, -1572041.1, -966.0599, 0.0066976347, -0.03435107, -1571969.4, -33484.47, 0.00000019382824, 9.996354, 9.998054 
3.7487173e+2, 1.5300938e+2, -1474838.0, -1469672.6, -1152.8499, 0.0022098091, -0.03388748, -1469427.0, -28922.082, 0.00000008245099, 9.997243, 9.997912 
3.7491047e+2, 1.6300635e+2, -1377729.3, -1394243.5, -3837.5352, -0.0024678677, -0.033261955, -1376881.1, -34346.48, 0.000000026481976, 9.998143, 9.995936 
3.7494895e+2, 1.7300223e+2, -1266778.1, -1290865.6, -3639.028, -0.0026464427, -0.03237502, -1266240.4, -21665.33, 0.0000000062635124, 9.999063, 9.9958515 
3.7498727e+2, 1.8299708e+2, -1171129.0, -1218291.6, -4649.521, -0.002956697, -0.031098727, -1170675.0, -24049.455, 0.0000000010799891, 9.999952, 9.993687 
3.7502542e+2, 1.929906e+2, -1061785.3, -1116369.8, -4826.93, -0.004954399, -0.03458786, -1061361.8, -12672.69, 0.00000000013537126, 10.0007925, 9.993541 
3.7506354e+2, 2.0298317e+2, -965982.5, -1042533.44, -5572.8003, -0.0045283893, -0.034110747, -965578.94, -14817.031, 0.000000000012328863, 10.001638, 9.991482 
3.751016e+2, 2.1297461e+2, -856127.7, -940117.0, -5640.675, 0.0018430131, -0.02729489, -855750.56, -2904.782, 0.0000000000008157841, 10.002502, 9.99136 
3.7513968e+2, 2.2296505e+2, -759620.6, -865052.3, -5410.617, 0.0049699666, -0.025356375, -759343.7, -4404.243, 0.00000000000003921943, 10.003357, 9.989377 
3.7517774e+2, 2.329542e+2, -650226.2, -762684.06, -5217.577, 0.0011600369, -0.03811079, -649984.6, 7060.9395, 0.000000000000000000006929764, 10.004183, 9.989272 
3.7521586e+2, 2.4294238e+2, -554988.4, -691270.75, -4660.889, -0.0012062268, -0.04249426, -554829.2, 4332.268, 0.0000000000000000000002423796, 10.005079, 9.98702 
3.7525412e+2, 2.5292936e+2, -442806.84, -588289.75, -5066.5513, 0.0001271883, -0.031446807, -442630.63, 18658.559, 0.0, 10.006129, 9.986847 
3.7529245e+2, 2.629154e+2, -343595.53, -509676.28, -4448.855, 0.0006645898, -0.023474993, -343476.44, 19949.477, 0.0, 10.007069, 9.985064 
3.753308e+2, 2.729004e+2, -235758.84, -407264.53, -3609.5696, -0.00036264092, -0.0282269, -235682.9, 29890.05, 0.0, 10.007755, 9.98503 
3.7536937e+2, 2.82884e+2, -147329.0, -348232.25, -1311.9413, -0.0024874432, -0.03172069, -147320.44, 20413.309, 0.0, 10.00857, 9.98197 
3.754082e+2, 2.928657e+2, -35266.723, -246542.39, -1990.363, -0.006060254, -0.034444295, -35247.973, 34665.156, 0.0, 10.0096655, 9.981688 
3.7544733e+2, 3.02851e+2, 80005.22, -82211.67, -623.634, -0.002857557, -0.034984156, 80007.62, 80007.62, 0.0, 10.010629, 9.989124 
3.7548676e+2, 3.1284037e+2, 91463.11, -73515.016, 60.75107, 0.013976505, -0.034973815, 91463.13, 91463.13, 0.0, 10.011279, 9.9894085 
3.847502e+2, 1.2297283e+2, -1784718.5, -1733147.6, 448.34262, 0.0010204585, -0.053754643, -1733143.8, 1719.292, 0.0000029192024, 9.994496, 10.0013275 
3.847896e+2, 1.3297294e+2, -1682354.6, -1652928.1, -5816.0264, -0.0153421825, -0.005581078, -1651820.3, -14958.276, 0.0000018948215, 9.995659, 9.999554 
3.848293e+2, 1.4297144e+2, -1580699.4, -1571458.4, -5619.6636, 0.010786805, -0.035129115, -1568803.6, -29926.723, 0.0000010225369, 9.996701, 9.997917 
3.8486907e+2, 1.5296926e+2, -1472535.9, -1469984.6, -4760.376, 0.0022530733, -0.034726217, -1466332.0, -25433.686, 0.0000004349407, 9.997455, 9.997782 
3.8490862e+2, 1.6296613e+2, -1376762.8, -1394359.8, -6588.9634, -0.004595739, -0.033437196, -1374569.1, -31640.191, 0.00000013969013, 9.998225, 9.995883 
3.8494802e+2, 1.72962e+2, -1266534.4, -1291135.6, -7132.185, -0.0019390697, -0.029947245, -1264616.3, -19646.896, 0.000000033038678, 9.999085, 9.995817 
3.8498724e+2, 1.829568e+2, -1171381.9, -1218552.1, -8745.357, -0.0006516162, -0.028444605, -1169812.6, -22792.521, 0.0000000056966374, 9.999933, 9.993671 
3.850262e+2, 1.9295028e+2, -1062322.4, -1116704.4, -8616.746, -0.004582678, -0.036492053, -1060989.8, -11905.616, 0.0000000007140435, 10.000749, 9.993534 
3.8506517e+2, 2.0294282e+2, -966332.94, -1042703.3, -8759.619, -0.0052224174, -0.0377743, -965341.06, -14183.938, 0.00000000006503118, 10.001606, 9.99148 
3.8510412e+2, 2.129343e+2, -855210.2, -939693.0, -8613.176, 0.001241342, -0.027589561, -854341.0, -1100.2299, 0.000000000004303039, 10.002558, 9.991355 
3.851431e+2, 2.2292474e+2, -758339.94, -864940.3, -8788.128, 0.005137689, -0.023594555, -757620.3, -2285.7935, 0.00000000000020687176, 10.003457, 9.989331 
3.8518193e+2, 2.3291384e+2, -649570.5, -763051.44, -9408.637, 0.003096993, -0.036892705, -648795.7, 8645.563, 0.00000000000000000020104626, 10.004249, 9.989208 
3.8522094e+2, 2.4290197e+2, -555231.4, -691038.8, -8552.634, 0.0013991438, -0.042245947, -554694.9, 4862.6064, 0.000000000000000000007029948, 10.005037, 9.987049 
3.852601e+2, 2.5288898e+2, -446631.78, -589537.7, -7682.666, 0.00067445403, -0.032966148, -446219.97, 15464.8955, 0.0, 10.005831, 9.986901 
3.8529932e+2, 2.6287505e+2, -349385.84, -512421.16, -7128.0244, -0.000025847132, -0.025931474, -349074.78, 14746.517, 0.0, 10.006659, 9.98507 
3.8533843e+2, 2.7286008e+2, -238664.55, -408776.7, -8312.008, -0.0009505337, -0.029130604, -238259.36, 27708.941, 0.0, 10.007549, 9.985021 
3.853779e+2, 2.8284365e+2, -148752.58, -348483.53, -6146.551, -0.002125935, -0.031070516, -148563.61, 19565.275, 0.0, 10.008444, 9.982006 
3.8541773e+2, 2.9282543e+2, -39748.676, -248118.69, -4903.377, -0.0028953748, -0.032508004, -39633.35, 30674.3, 0.0, 10.00932, 9.981741 
3.8545778e+2, 3.0281076e+2, 74780.805, -83818.85, -3041.3796, 0.00042922364, -0.033582453, 74839.11, 74839.11, 0.0, 10.01022, 9.989206 
3.8549793e+2, 3.128002e+2, 90243.47, -73048.91, -3465.788, 0.010158449, -0.03845421, 90317.0, 90317.0, 0.0, 10.011139, 9.989503 
3.947447e+2, 1.22932434e+2, -1784688.6, -1732172.1, 3333.6025, 0.0011737284, -0.031329673, -1731961.4, 3297.7048, 0.000012531762, 9.994461, 10.001406 
3.9478523e+2, 1.329319e+2, -1684912.8, -1657428.0, -1486.4088, -0.019129172, -0.021227224, -1657347.9, -20083.854, 0.0000081336, 9.995629, 9.999257 
3.9482602e+2, 1.4293014e+2, -1581126.0, -1571884.6, -2690.2656, 0.010831136, -0.05828443, -1571158.5, -31877.111, 0.0000043890395, 9.996683, 9.997892 
3.9486653e+2, 1.529282e+2, -1472371.1, -1469298.9, -2072.4124, -0.0016162113, -0.035317164, -1468255.3, -26955.01, 0.0000018668253, 9.997441, 9.997831 
3.949068e+2, 1.6292518e+2, -1377616.6, -1395906.9, -3554.3271, -0.010010813, -0.02218168, -1376950.1, -33620.17, 0.0000005995586, 9.998219, 9.995777 
3.949471e+2, 1.729208e+2, -1267679.6, -1293295.3, -3912.1848, -0.002192179, -0.03131576, -1267095.4, -21722.246, 0.00000014180438, 9.999079, 9.995668 
3.9498723e+2, 1.8291546e+2, -1171394.4, -1218416.5, -5656.8315, 0.0034727482, -0.03515734, -1170723.5, -23298.193, 0.000000024450705, 9.999927, 9.99368 
3.95027e+2, 1.929091e+2, -1062009.6, -1115971.6, -5485.619, 0.0023456495, -0.031875353, -1061457.6, -11969.916, 0.0000000030648393, 10.000746, 9.993581 
3.950668e+2, 2.0290172e+2, -966140.1, -1042283.9, -5232.926, -0.000042275024, -0.03037528, -965782.2, -14222.209, 0.00000000027913746, 10.001606, 9.991505 
3.951066e+2, 2.1289304e+2, -855062.2, -939378.75, -4945.192, -0.0042208433, -0.037343673, -854773.2, -1128.1654, 0.00000000001847093, 10.002558, 9.991373 
3.9514646e+2, 2.2288339e+2, -759222.94, -866721.6, -5656.4263, -0.0055092904, -0.037575867, -758926.1, -3186.5586, 0.0000000000008880364, 10.003456, 9.989207 
3.951862e+2, 2.3287258e+2, -650729.75, -765402.75, -6386.7495, -0.000627439, -0.025749093, -650375.1, 7470.555, 0.000000000000000004402075, 10.004247, 9.989046 
3.9522597e+2, 2.4286078e+2, -554321.9, -689108.1, -5566.689, 0.0021844124, -0.020757753, -554092.4, 5869.019, 0.00000000000000000015389045, 10.005036, 9.987178 
3.9526594e+2, 2.5284776e+2, -445208.25, -586511.4, -4744.992, 0.00058807, -0.035721336, -445049.1, 17039.86, 0.0, 10.00583, 9.987103 
3.9530596e+2, 2.6283374e+2, -350548.56, -514724.4, -3961.8015, -0.00022735173, -0.04232728, -350453.03, 13772.94, 0.0, 10.006655, 9.984911 
3.9534605e+2, 2.728186e+2, -240517.34, -412599.88, -5023.1484, 0.001263267, -0.033693016, -240370.84, 26003.584, 0.0, 10.007549, 9.984755 
3.9538643e+2, 2.8280222e+2, -147600.6, -346085.75, -2924.9824, 0.0038186712, -0.027575688, -147557.48, 20977.822, 0.0, 10.008445, 9.982164 
3.954272e+2, 2.927842e+2, -37860.32, -244029.47, -1818.0996, 0.009542715, -0.03148689, -37844.29, 32867.42, 0.0, 10.009317, 9.982017 
3.954681e+2, 3.0276972e+2, 74910.2, -83273.82, 126.99132, 0.007882093, -0.032349896, 74910.305, 74910.305, 0.0, 10.010211, 9.989242 
3.955089e+2, 3.1275922e+2, 90024.984, -73485.37, -230.47739, -0.013020229, -0.030641368, 90025.31, 90025.31, 0.0, 10.011142, 9.989466 
4.0473932e+2, 1.2289087e+2, -1779938.3, -1729576.4, -1198.2421, 0.0054490273, -0.026165083, -1729547.9, 6118.5195, 0.00004485904, 9.994761, 10.00143 
4.0478086e+2, 1.3289005e+2, -1684205.4, -1659388.4, -3915.1313, -0.02209458, -0.02753242, -1658785.4, -21111.117, 0.00002911354, 9.995768, 9.999049 
4.0482274e+2, 1.4288822e+2, -1580301.3, -1571863.9, -5792.526, 0.009183288, -0.056500573, -1568916.6, -29224.547, 0.000015709626, 9.996747, 9.997856 
4.04864e+2, 1.5288629e+2, -1469960.3, -1467943.3, -5749.2334, -0.0008843094, -0.03535741, -1463114.8, -21403.59, 0.000006681798, 9.997586, 9.997847 
4.049051e+2, 1.6288324e+2, -1375326.0, -1395353.6, -7240.6777, -0.008106875, -0.023606542, -1372982.5, -29241.422, 0.0000021459712, 9.998389, 9.995726 
4.0494624e+2, 1.7287877e+2, -1267269.3, -1293899.5, -7125.9897, -0.0019671675, -0.03241808, -1265482.4, -19697.44, 0.00000050756734, 9.999133, 9.995595 
4.0498713e+2, 1.828734e+2, -1171447.8, -1218919.0, -8492.277, 0.0029724594, -0.035586633, -1169974.3, -22136.74, 0.00000008752133, 9.999935, 9.993636 
4.0502784e+2, 1.92867e+2, -1060376.0, -1115624.8, -8995.006, 0.0030816093, -0.03128066, -1058948.4, -9048.123, 0.000000010971236, 10.00087, 9.993538 
4.050685e+2, 2.0285958e+2, -964486.7, -1041640.94, -9539.847, 0.0013311066, -0.02961744, -963324.6, -11351.733, 0.0000000009993062, 10.001716, 9.991488 
4.051091e+2, 2.1285087e+2, -857797.75, -940825.5, -9619.449, -0.0038177925, -0.038121514, -856697.8, -2639.6455, 0.00000000006613187, 10.002366, 9.991361 
4.0514973e+2, 2.2284122e+2, -763993.44, -868904.7, -9812.132, -0.0057018436, -0.039044898, -763083.56, -6930.7847, 0.0000000000031798247, 10.003115, 9.989217 
4.0519035e+2, 2.3283044e+2, -652804.9, -766241.0, -9245.046, -0.0011179363, -0.026607463, -652056.4, 6202.404, 0.0000000000000000688154, 10.004088, 9.989059 
4.0523103e+2, 2.4281864e+2, -554724.5, -689268.56, -8299.402, 0.0018367062, -0.020912623, -554214.5, 6159.8286, 0.0000000000000000024051838, 10.004997, 9.987181 
4.052717e+2, 2.5280562e+2, -446318.4, -587077.6, -8998.897, 0.0007360704, -0.034248136, -445745.44, 16756.293, 0.0, 10.005743, 9.987102 
4.053126e+2, 2.6279163e+2, -351737.03, -515351.9, -8082.5967, 0.0006723684, -0.040447243, -351338.72, 13300.037, 0.0, 10.006567, 9.984903 
4.053536e+2, 2.7277645e+2, -240280.42, -412552.8, -7372.5566, 0.00270611, -0.034662284, -239965.48, 26822.072, 0.0, 10.007559, 9.984749 
4.0539482e+2, 2.8276005e+2, -147591.25, -345920.47, -5219.558, 0.004887763, -0.03008214, -147453.98, 21494.56, 0.0, 10.008427, 9.982182 
4.054363e+2, 2.9274207e+2, -42196.473, -245901.5, -5961.7124, 0.0082945535, -0.0320746, -42022.145, 29102.432, 0.0, 10.008998, 9.9820385 
4.0547803e+2, 3.0272767e+2, 68940.945, -85010.63, -3857.8435, 0.0066892467, -0.031619035, 69037.555, 69037.555, 0.0, 10.009737, 9.989346 
4.055199e+2, 3.1271726e+2, 86907.91, -73603.32, -3058.783, -0.008835441, -0.030013843, 86966.18, 86966.18, 0.0, 10.010856, 9.989591 
4.1473413e+2, 1.2284815e+2, -1780905.0, -1730647.6, 569.21405, 0.010750678, -0.038509034, -1730641.1, 5443.7246, 0.0001357749, 9.994725, 10.001369 
4.1477662e+2, 1.3284738e+2, -1685472.3, -1661252.1, -165.61115, -0.025198841, -0.02402988, -1661251.0, -23158.482, 0.00008811505, 9.995739, 9.99893 
4.1481942e+2, 1.428457e+2, -1580975.1, -1572674.6, -2672.2195, 0.004294301, -0.027967291, -1571888.8, -31779.764, 0.000047546542, 9.996723, 9.997808 
4.1486165e+2, 1.5284346e+2, -1470434.1, -1468417.3, -2722.3638, 0.0032133781, -0.034723744, -1466522.5, -24391.738, 0.000020223571, 9.997566, 9.99782 
4.1490358e+2, 1.6284026e+2, -1375565.6, -1395520.9, -4514.1055, -0.0002264557, -0.038626213, -1374592.0, -30429.717, 0.0000064954993, 9.998378, 9.995715 
4.1494533e+2, 1.728359e+2, -1267387.5, -1293950.6, -4380.302, -0.0023762337, -0.03353987, -1266683.9, -20479.03, 0.0000015364569, 9.999127, 9.995589 
4.14987e+2, 1.8283057e+2, -1172211.6, -1220379.4, -5167.222, -0.003652591, -0.029402344, -1171663.5, -23406.295, 0.00000026496838, 9.99993, 9.993535 
4.1502863e+2, 1.9282395e+2, -1061334.1, -1117539.8, -5393.7637, -0.0039519076, -0.034506872, -1060821.3, -10499.136, 0.000000033220672, 10.000867, 9.993404 
4.1507015e+2, 2.028164e+2, -964982.94, -1042660.7, -6820.431, -0.0031589442, -0.035409987, -964388.6, -11992.516, 0.0000000030265355, 10.001717, 9.991414 
4.151115e+2, 2.1280777e+2, -858085.3, -941556.3, -7116.044, 0.00029021528, -0.030218154, -857483.0, -3002.2778, 0.00000000020034616, 10.002373, 9.991304 
4.1515294e+2, 2.2279815e+2, -762955.6, -866887.44, -6371.4736, 0.0019604245, -0.02828348, -762566.5, -5991.6445, 0.000000000009636878, 10.003121, 9.9893465 
4.1519442e+2, 2.3278733e+2, -651520.9, -763542.25, -5527.017, -0.0004136005, -0.038197137, -651248.9, 7432.1743, 0.0000000000000007946489, 10.004086, 9.989241 
4.15236e+2, 2.4277551e+2, -555625.4, -690925.56, -5331.875, -0.0018115905, -0.040657967, -555415.56, 5381.062, 0.000000000000000027769294, 10.004991, 9.987067 
4.1527742e+2, 2.5276256e+2, -447787.0, -589979.25, -6220.6, -0.00039417917, -0.028957149, -447515.38, 15408.396, 0.0, 10.005738, 9.986902 
4.1531914e+2, 2.6274863e+2, -350959.03, -513622.06, -4578.365, 0.0008369768, -0.021856558, -350830.28, 14230.145, 0.0, 10.006563, 9.985018 
4.1536114e+2, 2.7273348e+2, -239094.2, -409661.9, -3745.335, 0.0011334482, -0.032059416, -239012.0, 28196.695, 0.0, 10.007542, 9.98495 
4.1540322e+2, 2.8271705e+2, -148608.2, -347561.47, -2967.8716, -0.00058854424, -0.037273407, -148563.94, 20805.758, 0.0, 10.0084095, 9.982073 
4.1544518e+2, 2.9269895e+2, -43495.66, -248710.72, -4054.5735, -0.0057131886, -0.033655934, -43415.582, 28131.53, 0.0, 10.0090065, 9.981837 
4.154877e+2, 3.026845e+2, 70168.27, -82881.0, -265.98856, -0.0034200293, -0.031243715, 70168.74, 70168.74, 0.0, 10.00976, 9.989474 
4.15531e+2, 3.1267422e+2, 88539.94, -70148.57, 881.46234, 0.01405649, -0.035953134, 88544.836, 88544.836, 0.0, 10.010858, 9.98982 
4.2472893e+2, 1.2280454e+2, -1778584.0, -1730780.6, -4398.101, 0.008442562, -0.03974663, -1730379.4, 6132.909, 0.00035082738, 9.994929, 10.001254 
4.2477247e+2, 1.3280374e+2, -1681355.8, -1658556.1, -2313.127, -0.022422157, -0.031890057, -1658323.9, -19803.67, 0.00022768496, 9.995974, 9.998994 
4.2481628e+2, 1.4280227e+2, -1578108.1, -1572150.9, -5076.425, 0.007532628, -0.016476123, -1569243.8, -28709.068, 0.0001228659, 9.996946, 9.997731 
4.2485926e+2, 1.5279981e+2, -1469706.6, -1469372.0, -6044.0454, 0.004137917, -0.03256614, -1463492.9, -20934.422, 0.000052266085, 9.997665, 9.997701 
4.24902e+2, 1.6279645e+2, -1375092.5, -1395697.5, -8228.881, -0.00090184325, -0.042621296, -1372209.5, -27618.088, 0.00001678997, 9.998417, 9.995678 
4.2494455e+2, 1.7279214e+2, -1264750.4, -1292828.8, -8255.008, -0.0026826854, -0.035164498, -1262503.3, -15869.338, 0.000003972505, 9.999303, 9.995575 
4.2498702e+2, 1.8278678e+2, -1169713.6, -1219730.4, -9095.383, -0.0034794854, -0.029444512, -1168111.0, -19424.588, 0.00000068530704, 10.000114, 9.993484 
4.2502946e+2, 1.9278008e+2, -1063132.3, -1119090.1, -8907.583, -0.004209104, -0.03511763, -1061748.5, -10996.504, 0.00000008596078, 10.000762, 9.993344 
4.2507178e+2, 2.0277248e+2, -968223.94, -1044564.6, -9829.674, -0.0030086567, -0.035910495, -966978.6, -14152.156, 0.000000007836224, 10.001499, 9.991385 
4.2511395e+2, 2.1276385e+2, -856694.44, -941168.25, -9895.41, 0.0022085682, -0.02912531, -855550.75, -639.6068, 0.0000000005191636, 10.002471, 9.991278 
4.2515618e+2, 2.2275423e+2, -759548.8, -865075.25, -9393.869, 0.004513728, -0.027009748, -758719.1, -1713.794, 0.000000000025000514, 10.003337, 9.989361 
4.2519847e+2, 2.3274338e+2, -653238.3, -764193.25, -9761.723, -0.00032545344, -0.039538637, -652386.06, 6725.4966, 0.0000000000000068380394, 10.003952, 9.989254 
4.2524078e+2, 2.4273159e+2, -560134.5, -693050.9, -9683.272, -0.0026515126, -0.04328689, -559432.75, 1794.3585, 0.00000000000000023892724, 10.004666, 9.987073 
4.2528313e+2, 2.5271863e+2, -449081.75, -590663.1, -9261.462, 0.00074962084, -0.030363666, -448478.5, 14875.727, 0.0, 10.005641, 9.9868965 
4.2532572e+2, 2.627047e+2, -351212.13, -513178.4, -7137.122, 0.0029456338, -0.022396503, -350898.22, 14592.368, 0.0, 10.006509, 9.985072 
4.2536843e+2, 2.7268967e+2, -244897.88, -411783.3, -7254.359, 0.0006818603, -0.0318949, -244583.13, 23055.059, 0.0, 10.007101, 9.985012 
4.254113e+2, 2.8267324e+2, -156765.6, -351754.25, -6535.8145, -0.0022589178, -0.037040357, -156546.77, 13252.134, 0.0, 10.007851, 9.982049 
4.2545417e+2, 2.9265508e+2, -44779.617, -249868.47, -6725.369, -0.0047943215, -0.0347283, -44559.313, 27417.58, 0.0, 10.00893, 9.98179 
4.2549753e+2, 3.026406e+2, 71980.09, -82381.44, -2656.4578, -0.00093849015, -0.032315765, 72025.8, 72025.8, 0.0, 10.0098915, 9.989439 
4.255417e+2, 3.1263036e+2, 83645.92, -72822.375, -3187.7478, 0.01354917, -0.034489777, 83710.84, 83710.84, 0.0, 10.010526, 9.989787 
4.347237e+2, 1.2276004e+2, -1780684.9, -1734076.1, -2505.51, -0.008112336, -0.02972181, -1733941.8, 3006.4453, 0.00078514614, 9.994889, 10.001045 
4.3476853e+2, 1.3275914e+2, -1680222.4, -1655341.9, 1554.5856, -0.014832657, -0.051498026, -1655245.1, -16288.015, 0.00050963036, 9.995937, 9.999224 
4.3481332e+2, 1.427579e+2, -1579236.0, -1573868.6, -2320.396, 0.017815493, -0.022903016, -1573004.6, -32035.21, 0.00027507497, 9.996923, 9.99762 
4.348569e+2, 1.5275535e+2, -1471433.4, -1472492.5, -3527.3635, -0.00046393558, -0.028756911, -1468396.1, -25401.762, 0.00011705333, 9.99765, 9.997491 
4.349003e+2, 1.6275187e+2, -1375766.9, -1396796.8, -5228.4424, -0.013320894, -0.0348399, -1374538.8, -29510.191, 0.000037619757, 9.998406, 9.995604 
4.3494385e+2, 1.727474e+2, -1265082.4, -1293323.1, -4975.2803, -0.0045328857, -0.036861345, -1264231.5, -17159.303, 0.000008906541, 9.999296, 9.99554 
4.3498722e+2, 1.8274197e+2, -1169795.1, -1219788.8, -6544.7944, 0.0020270422, -0.03555176, -1168952.5, -19827.176, 0.0000015378395, 10.000113, 9.993476 
4.3503028e+2, 1.9273537e+2, -1063058.1, -1118949.4, -6464.22, 0.00038879123, -0.033097535, -1062320.3, -11130.178, 0.00000019312868, 10.000765, 9.993349 
4.3507332e+2, 2.0272781e+2, -968082.6, -1044326.44, -6423.0396, -0.00082868594, -0.031018207, -967545.3, -14281.131, 0.000000017634331, 10.001503, 9.991395 
4.351164e+2, 2.1271908e+2, -856576.44, -940954.9, -6102.1313, 0.0003065941, -0.034419447, -856137.4, -787.65295, 0.0000000011708853, 10.002473, 9.991287 
4.3515947e+2, 2.2270942e+2, -760254.94, -866567.6, -6724.015, 0.00029156098, -0.0346588, -759831.4, -2386.8323, 0.000000000056553692, 10.00334, 9.989254 
4.352024e+2, 2.3269857e+2, -654201.25, -766235.9, -7410.875, -0.002569651, -0.03122372, -653713.2, 5837.5083, 0.000000000000044721503, 10.003955, 9.989111 
4.3524545e+2, 2.4268678e+2, -559457.6, -691682.3, -6317.9937, -0.00294909, -0.029670892, -559156.4, 2509.8782, 0.000000000000001562477, 10.004669, 9.987161 
4.3528882e+2, 2.5267377e+2, -448119.8, -588409.9, -5606.69, 0.0026974615, -0.037302822, -447896.1, 15897.608, 0.0, 10.0056305, 9.987051 
4.3533224e+2, 2.6265985e+2, -351471.94, -513329.84, -4714.4814, 0.005061007, -0.039457217, -351334.72, 14595.318, 0.0, 10.0064945, 9.985064 
4.3537554e+2, 2.7264488e+2, -245354.7, -412626.2, -5212.971, -0.0010345142, -0.033900443, -245192.39, 22884.465, 0.0, 10.007099, 9.984951 
4.354192e+2, 2.8262854e+2, -156501.72, -351229.6, -3042.1184, -0.0029502064, -0.030306894, -156454.2, 13782.879, 0.0, 10.007852, 9.9820795 
4.3546322e+2, 2.9261035e+2, -44406.39, -249044.05, -2883.5137, 0.007443227, -0.035269044, -44365.766, 28049.459, 0.0, 10.008929, 9.981841 
4.3550757e+2, 3.025958e+2, 70774.87, -84726.42, -147.93616, 0.010043895, -0.034862597, 70775.01, 70775.01, 0.0, 10.009889, 9.989274 
4.35552e+2, 3.125854e+2, 81734.8, -76297.09, -936.18646, -0.010465781, -0.026216015, 81740.34, 81740.34, 0.0, 10.010507, 9.989554 
4.4471884e+2, 1.2271485e+2, -1775805.3, -1736193.6, -4747.593, -0.007706298, -0.022954747, -1735632.5, 1758.5652, 0.0015538043, 9.995406, 10.000647 
4.4476464e+2, 1.3271372e+2, -1675032.6, -1652588.6, -932.24036, -0.010294934, -0.06462601, -1652550.0, -13147.953, 0.0010089569, 9.996269, 9.999243 
4.448103e+2, 1.4271258e+2, -1576770.1, -1573071.3, -6538.9565, 0.013750339, -0.024740351, -1568125.3, -26711.96, 0.0005448942, 9.9971, 9.997581 
4.448546e+2, 1.5271e+2, -1469223.5, -1472020.4, -6941.185, -0.0018918066, -0.028831193, -1463541.3, -20102.652, 0.00023205215, 9.997816, 9.9974375 
4.4489878e+2, 1.6270646e+2, -1374219.0, -1396849.5, -7632.7114, -0.01242674, -0.03416204, -1371885.3, -26411.93, 0.00007466019, 9.998538, 9.99553 
4.4494316e+2, 1.7270193e+2, -1265608.6, -1294460.5, -7658.1396, -0.0030054522, -0.03589574, -1263701.9, -16184.096, 0.000017702305, 9.9992895, 9.9954605 
4.449873e+2, 1.8269645e+2, -1170647.3, -1220556.5, -9807.902, 0.003925878, -0.0346211, -1168789.0, -19217.434, 0.000003062777, 10.000061, 9.9934435 
4.450311e+2, 1.926898e+2, -1061234.4, -1118280.0, -10095.385, 0.0018273317, -0.033488583, -1059500.5, -7863.848, 0.0000003857046, 10.00089, 9.993328 
4.450749e+2, 2.0268221e+2, -965715.56, -1043295.44, -10108.565, -0.00020085501, -0.03258987, -964420.06, -10709.062, 0.00000003535121, 10.00166, 9.991384 
4.4511878e+2, 2.1267347e+2, -859185.2, -942352.8, -10005.278, -0.00092728605, -0.035971135, -857998.44, -2201.7603, 0.000000002359298, 10.00229, 9.991274 
4.4516262e+2, 2.2266379e+2, -765436.6, -869467.56, -10650.3, -0.0009992913, -0.035374697, -764357.44, -6465.8794, 0.000000000114745775, 10.002991, 9.98922 
4.4520634e+2, 2.3265292e+2, -655171.44, -767187.75, -10639.309, -0.0010882989, -0.030657524, -654169.9, 5828.1436, 0.00000000000022836846, 10.003898, 9.989069 
4.4525018e+2, 2.426411e+2, -558185.2, -690821.75, -9096.828, -0.00036666944, -0.029087856, -557564.2, 4549.656, 0.0000000000000079783024, 10.004736, 9.987182 
4.4529432e+2, 2.5262812e+2, -451167.5, -589486.1, -9152.437, 0.0019130242, -0.038228046, -450564.53, 13676.504, 0.0, 10.005393, 9.987087 
4.4533852e+2, 2.6261422e+2, -356593.94, -515607.7, -8748.649, 0.0029900745, -0.04101593, -356114.06, 10263.032, 0.0, 10.006123, 9.985082 
4.4538262e+2, 2.7259928e+2, -246330.86, -413049.25, -8936.425, 0.0004228278, -0.034782354, -245853.22, 22670.58, 0.0, 10.007019, 9.984956 
4.454271e+2, 2.8258294e+2, -155097.63, -350022.9, -5754.629, 0.0003854876, -0.030369228, -154927.88, 15755.848, 0.0, 10.007913, 9.982128 
4.4547203e+2, 2.9256484e+2, -46445.223, -249396.48, -5408.508, 0.007915891, -0.034415204, -46301.19, 26560.031, 0.0, 10.008748, 9.981899 
4.455172e+2, 3.0255038e+2, 66234.89, -85240.69, -3051.8438, 0.009047426, -0.03465541, 66296.35, 66296.35, 0.0, 10.009488, 9.98943 
4.4556218e+2, 3.1254017e+2, 74733.1, -77645.38, -1830.5786, -0.008930582, -0.030198935, 74755.09, 74755.09, 0.0, 10.009921, 9.989746 
4.5471442e+2, 1.2266899e+2, -1780874.0, -1745538.4, -2642.5813, 0.007144071, -0.020346789, -1745341.9, -7501.47, 0.0027803245, 9.995363, 10.000028 
4.5476094e+2, 1.3266751e+2, -1677134.9, -1656097.6, 2104.4465, -0.010546366, -0.07044949, -1655889.3, -16034.309, 0.0018069525, 9.996238, 9.999013 
4.548072e+2, 1.4266634e+2, -1576866.3, -1572696.9, -4046.7668, -0.007471621, -0.021887649, -1570229.4, -28362.871, 0.0009770269, 9.997078, 9.997611 
4.548524e+2, 1.5266378e+2, -1468715.5, -1470536.0, -4449.525, -0.0020444389, -0.033275366, -1465084.0, -21192.535, 0.00041677037, 9.9978, 9.99754 
4.5489743e+2, 1.6266024e+2, -1374891.0, -1397928.0, -5042.3687, 0.0002528799, -0.041195158, -1373835.6, -27909.469, 0.00013439546, 9.998528, 9.995458 
4.5494246e+2, 1.7265569e+2, -1266674.3, -1296439.8, -4935.873, 0.00043447295, -0.032414235, -1265877.0, -17906.105, 0.000031964762, 9.999283, 9.995323 
4.5498735e+2, 1.8265013e+2, -1171160.5, -1221446.5, -6883.9624, 0.00015979874, -0.026677998, -1170235.1, -20209.814, 0.000005553748, 10.000056, 9.99338 
4.5503196e+2, 1.9264334e+2, -1061550.1, -1118942.6, -6951.014, -0.0019922336, -0.036511395, -1060720.3, -8628.38, 0.00000070340104, 10.000893, 9.993276 
4.5507652e+2, 2.0263565e+2, -965955.3, -1043819.06, -7572.2246, -0.003676373, -0.040489003, -965225.75, -11058.596, 0.000000064967765, 10.001663, 9.991342 
4.5512107e+2, 2.1262696e+2, -859439.0, -942943.56, -7573.284, -0.003044626, -0.033352148, -858757.7, -2505.408, 0.0000000043809485, 10.002294, 9.991229 
4.5516565e+2, 2.2261731e+2, -765171.0, -869015.2, -7453.393, -0.0013275187, -0.028790906, -764638.75, -6291.726, 0.00000000021602262, 10.002997, 9.989243 
4.5521027e+2, 2.3260637e+2, -654793.44, -766425.8, -7168.2954, 0.0019169389, -0.036923718, -654335.0, 6119.259, 0.0000000000009414817, 10.003899, 9.989116 
4.5525497e+2, 2.4259453e+2, -558459.3, -691278.4, -6418.4233, 0.0025915627, -0.040112384, -558149.9, 4420.3877, 0.000000000000032891313, 10.004732, 9.987148 
4.5529965e+2, 2.5258163e+2, -451760.34, -590506.9, -6709.453, -0.0026535143, -0.033580594, -451436.63, 13260.098, 0.0, 10.005384, 9.987018 
4.553446e+2, 2.625678e+2, -356543.0, -515277.75, -5623.9575, -0.004363333, -0.028459357, -356343.97, 10488.406, 0.0, 10.006114, 9.985104 
4.5538968e+2, 2.7255273e+2, -246119.88, -412440.06, -5663.752, 0.00228595, -0.034098625, -245927.23, 23052.568, 0.0, 10.007014, 9.984995 
4.5543507e+2, 2.8253642e+2, -154851.86, -349173.16, -2782.2437, 0.004595068, -0.035620637, -154812.03, 16327.749, 0.0, 10.007898, 9.982189 
4.5548072e+2, 2.9251844e+2, -46485.035, -248677.36, -2524.9016, -0.0025209936, -0.03200384, -46453.51, 26862.426, 0.0, 10.008716, 9.981959 
4.5552662e+2, 3.0250415e+2, 68425.41, -79945.62, -1319.6613, -0.003448997, -0.031584058, 68437.15, 68437.15, 0.0, 10.009459, 9.989803 
4.5557234e+2, 3.1249422e+2, 78685.695, -70379.414, -827.5389, 0.009522113, -0.042881988, 78690.29, 78690.29, 0.0, 10.009965, 9.990219 
4.6471012e+2, 1.22622214e+2, -1772846.5, -1745084.1, -6186.8013, 0.009404233, -0.021206219, -1743767.9, -5469.066, 0.004589857, 9.996048, 9.999719 
4.6475732e+2, 1.326207e+2, -1673686.4, -1654998.4, -226.67715, -0.004822597, -0.06580125, -1654995.6, -14682.036, 0.0029879087, 9.996484, 9.998965 
4.6480417e+2, 1.4261948e+2, -1577603.5, -1573719.5, -5363.608, -0.014204278, -0.018339513, -1569957.1, -27631.346, 0.0016192476, 9.997045, 9.997556 
4.648503e+2, 1.5261684e+2, -1466251.6, -1470091.9, -6901.2085, -0.0007596164, -0.032848924, -1461008.5, -16656.816, 0.00069287396, 9.997989, 9.997474 
4.6489617e+2, 1.626132e+2, -1370861.3, -1396954.6, -8873.049, 0.0061875144, -0.043012854, -1368129.9, -21742.654, 0.00022437889, 9.998833, 9.99537 
4.6494186e+2, 1.7260854e+2, -1265038.1, -1296800.3, -8746.977, 0.0012319229, -0.034425415, -1262788.6, -14355.698, 0.000053673917, 9.9994335, 9.99522 
4.6498737e+2, 1.8260293e+2, -1170935.8, -1221854.4, -10081.22, -0.0021398473, -0.028373757, -1169012.4, -18524.316, 0.000009398119, 10.000079, 9.993336 
4.6503285e+2, 1.925961e+2, -1061686.5, -1119411.3, -9974.456, -0.0022987528, -0.03633634, -1060011.6, -7456.842, 0.0000012027082, 10.000886, 9.993243 
4.6507818e+2, 2.025884e+2, -966426.5, -1044628.75, -11160.514, -0.002039606, -0.0392553, -964864.94, -10234.602, 0.00000011262272, 10.001644, 9.991292 
4.651234e+2, 2.1257964e+2, -859685.0, -943782.8, -11492.543, -0.0016931676, -0.034493268, -858142.75, -1426.5377, 0.000000007732489, 10.002297, 9.991164 
4.6516865e+2, 2.2256993e+2, -764970.5, -868550.4, -10767.872, -0.00027784597, -0.03171942, -763862.94, -5051.5815, 0.00000000039024706, 10.002983, 9.989276 
4.652141e+2, 2.3255906e+2, -656071.94, -766528.9, -10293.118, 0.0027482782, -0.037547063, -655120.94, 5796.971, 0.0000000000032348013, 10.003778, 9.9891615 
4.652596e+2, 2.4254727e+2, -561077.3, -692431.1, -9963.642, 0.003447246, -0.03852952, -560325.8, 2707.5234, 0.00000000000011301746, 10.004536, 9.987161 
4.6530497e+2, 2.5253436e+2, -454511.1, -592123.6, -10161.35, -0.002076819, -0.032562252, -453764.8, 11395.218, 0.0, 10.0051985, 9.986993 
4.653506e+2, 2.6252052e+2, -358788.84, -515828.34, -8019.951, -0.0036951993, -0.028423285, -358380.34, 8915.396, 0.0, 10.005924, 9.985154 
4.6539658e+2, 2.7250552e+2, -248568.17, -412915.25, -7671.6465, 0.0030415326, -0.03487537, -248210.84, 21231.709, 0.0, 10.006799, 9.985064 
4.6544278e+2, 2.8248927e+2, -159315.88, -350787.44, -5473.8657, 0.0048596077, -0.03684245, -159159.5, 12442.421, 0.0, 10.00756, 9.982236 
4.6548897e+2, 2.9247132e+2, -57451.32, -253547.28, -5825.866, -0.0040682117, -0.033091605, -57278.39, 16499.328, 0.0, 10.007933, 9.981999 
4.6553564e+2, 3.024571e+2, 58158.07, -83863.0, -3680.2354, -0.004539533, -0.032474402, 58253.37, 58253.37, 0.0, 10.008703, 9.989888 
4.6558252e+2, 3.1244728e+2, 85098.87, -66101.47, -5012.225, 0.012697657, -0.042975534, 85264.84, 85264.84, 0.0, 10.010355, 9.990311 
4.74706e+2, 1.2257451e+2, -1773156.3, -1744714.4, -3984.179, -0.009202668, -0.030448202, -1744166.9, -5400.3906, 0.007113215, 9.996009, 9.999758 
4.7475395e+2, 1.3257338e+2, -1673310.9, -1653332.5, 934.6858, 0.0054207053, -0.04915996, -1653288.9, -12511.249, 0.004643645, 9.996452, 9.999087 
4.748013e+2, 1.4257203e+2, -1579187.9, -1576167.8, -2573.9263, -0.0069376673, -0.013334295, -1574693.6, -31902.816, 0.0025262511, 9.997012, 9.997399 
4.7484833e+2, 1.5256917e+2, -1468344.1, -1473942.5, -3473.0505, -0.00081456226, -0.026854295, -1466682.8, -21863.846, 0.0010866441, 9.997972, 9.997214 
4.7489497e+2, 1.625653e+2, -1371699.1, -1398432.4, -6625.69, 0.0010146821, -0.039153334, -1370147.0, -23290.514, 0.00035438547, 9.998824, 9.995269 
4.7494125e+2, 1.7256048e+2, -1265486.6, -1297614.6, -6657.9546, -0.0034944322, -0.041859727, -1264161.5, -15257.637, 0.000085576154, 9.999433, 9.99516 
4.7498742e+2, 1.8255477e+2, -1171125.5, -1222220.4, -7366.2324, -0.005475978, -0.039749116, -1170084.6, -19124.836, 0.000015172572, 10.000081, 9.993306 
4.7503376e+2, 1.9254808e+2, -1061809.3, -1119784.3, -6924.98, -0.0010799152, -0.032351624, -1060993.5, -7968.067, 0.0000019737136, 10.000895, 9.993208 
4.750799e+2, 2.0254038e+2, -966754.75, -1045364.56, -8648.712, 0.0019554216, -0.028564928, -965814.5, -10713.666, 0.00000018875323, 10.001648, 9.991236 
4.751257e+2, 2.125314e+2, -860117.8, -944764.25, -8962.069, 0.00074668, -0.03935754, -859179.3, -1990.4994, 0.000000013307983, 10.002302, 9.991092 
4.7517163e+2, 2.225216e+2, -764629.25, -867961.6, -7832.796, -0.0002914629, -0.043524057, -764038.9, -4754.0264, 0.00000000069387657, 10.00299, 9.989308 
4.7521788e+2, 2.3251094e+2, -655698.7, -765766.75, -7191.43, -0.00008912831, -0.032722834, -655230.8, 6158.6094, 0.000000000009472845, 10.003778, 9.989209 
4.7526413e+2, 2.4249928e+2, -561051.9, -692188.25, -7374.3525, 0.00030181865, -0.025173005, -560638.5, 2865.2078, 0.00000000000033105902, 10.004529, 9.987176 
4.7531018e+2, 2.524862e+2, -454586.6, -592136.6, -7743.34, 0.0011176278, -0.034539625, -454152.06, 11479.66, 0.000000000000000004361499, 10.005193, 9.986991 
4.753566e+2, 2.6247233e+2, -358309.8, -514709.5, -5003.344, 0.0018783231, -0.039435063, -358149.9, 9617.965, 0.000000000000000025260425, 10.005919, 9.985228 
4.7540334e+2, 2.7245748e+2, -248281.48, -411888.0, -4525.147, 0.000875337, -0.037435, -248156.42, 21756.709, 0.00000000000000010669206, 10.006782, 9.985136 
4.7545028e+2, 2.8244135e+2, -159383.78, -350445.8, -3843.8826, -0.00056021305, -0.034429874, -159306.47, 12764.928, 0.00000000000000033199385, 10.007541, 9.9822645 
4.7549698e+2, 2.9242334e+2, -57214.734, -253564.31, -4872.3657, 0.00009392201, -0.03607455, -57093.902, 17153.938, 0.00000000000000078039946, 10.007959, 9.98198 
4.7554442e+2, 3.0240902e+2, 57778.133, -85420.14, 1100.0153, 0.0019716648, -0.03683804, 57786.582, 57786.582, 0.0000000000000014474501, 10.0087385, 9.989757 
4.7559276e+2, 3.1239927e+2, 83161.53, -68868.016, 1058.7367, 0.001159493, -0.025821859, 83168.91, 83168.91, 0.0000000000000022339833, 10.010302, 9.990137 
4.8470196e+2, 1.2252617e+2, -1771820.8, -1744941.8, -4438.2896, -0.015260421, -0.035490774, -1744227.9, -4987.6963, 0.01049777, 9.996123, 9.999681 
4.8475066e+2, 1.3252518e+2, -1667472.3, -1651163.0, -2944.9841, 0.015178961, -0.036545597, -1650647.5, -9397.48, 0.0068823104, 9.996866, 9.999029 
4.8479852e+2, 1.4252351e+2, -1572649.6, -1574323.1, -6591.577, -0.0074517885, -0.023042167, -1566841.9, -23575.635, 0.0037656925, 9.997507, 9.997275 
4.8484635e+2, 1.5252058e+2, -1467392.4, -1475093.6, -6603.2256, -0.0015908442, -0.029375039, -1463599.1, -18304.068, 0.0016323061, 9.998096, 9.997068 
4.8489374e+2, 1.6251667e+2, -1373083.5, -1400034.6, -9355.752, 0.00064130337, -0.036089443, -1370154.3, -22820.818, 0.00053782034, 9.998762, 9.995184 
4.8494077e+2, 1.7251176e+2, -1263019.6, -1297177.5, -9546.488, -0.0029491845, -0.04019907, -1260532.6, -11151.172, 0.00013162919, 9.999621, 9.995094 
4.8498768e+2, 1.8250597e+2, -1167065.8, -1220636.9, -10730.222, -0.003769951, -0.039219834, -1164996.4, -13558.235, 0.000023746588, 10.000366, 9.993269 
4.8503464e+2, 1.9249924e+2, -1062915.1, -1120632.8, -10426.387, 0.0005129589, -0.03264215, -1061089.5, -7585.362, 0.0000031577385, 10.000822, 9.993181 
4.8508143e+2, 2.0249152e+2, -970418.3, -1047423.25, -11637.812, 0.0033023139, -0.02924585, -968697.94, -13118.2, 0.00000031029586, 10.001401, 9.991209 
4.8512802e+2, 2.1248253e+2, -859696.94, -944958.56, -11596.624, 0.001954227, -0.03790999, -858147.8, -479.959, 0.000000022599854, 10.0023365, 9.991056 
4.851747e+2, 2.2247271e+2, -762545.56, -867052.44, -11036.748, 0.00051195925, -0.04106254, -761392.75, -1628.7618, 0.000000001223376, 10.003124, 9.989302 
4.8522153e+2, 2.3246199e+2, -659015.9, -767651.3, -11058.4795, -0.0016374224, -0.03363427, -657901.56, 3967.412, 0.000000000023981296, 10.003552, 9.989185 
4.852684e+2, 2.4245031e+2, -566782.1, -694719.25, -10846.209, -0.001544824, -0.028065082, -565869.1, -1885.5878, 0.0000000000008389532, 10.004115, 9.987197 
4.8531535e+2, 2.524373e+2, -455775.06, -592488.6, -10825.383, 0.0028384735, -0.03523053, -454923.2, 11187.917, 0.0000000000000001261701, 10.005089, 9.987011 
4.8536256e+2, 2.6242343e+2, -357480.47, -513611.88, -8414.406, 0.005193579, -0.04005212, -357028.3, 11218.483, 0.00000000000000073087254, 10.005932, 9.985292 
4.8540992e+2, 2.7240863e+2, -253512.48, -413949.28, -8357.819, 0.00017700411, -0.040795386, -253078.27, 17313.578, 0.0000000000000030875687, 10.006389, 9.985182 
4.8545754e+2, 2.8239256e+2, -166280.78, -353857.38, -7301.171, -0.0025467942, -0.034860324, -165997.02, 6552.514, 0.000000000000009609587, 10.007059, 9.982257 
4.855051e+2, 2.923746e+2, -53565.85, -252409.72, -8402.451, 0.0035838408, -0.028289897, -53211.426, 21514.145, 0.000000000000022592925, 10.008224, 9.981926 
4.8555344e+2, 3.0236012e+2, 64215.723, -82017.74, -2139.643, 0.006309359, -0.043827083, 64247.023, 64247.023, 0.00000000000004190963, 10.009149, 9.98979 
4.8560244e+2, 3.1235048e+2, 67694.96, -75457.54, -1311.3159, -0.003904371, -0.025400687, 67706.97, 67706.97, 0.000000000000064683685, 10.009176, 9.990227 
4.946981e+2, 1.2247727e+2, -1774468.5, -1748777.1, 389.90088, -0.0126235485, -0.035742663, -1748771.3, -9051.853, 0.014911252, 9.996055, 9.999447 
4.947476e+2, 1.3247609e+2, -1670001.8, -1655518.9, -895.9238, 0.022482004, -0.028148461, -1655463.6, -13732.835, 0.009830928, 9.996838, 9.99874 
4.9479592e+2, 1.4247386e+2, -1573552.0, -1575649.1, -4733.8184, -0.018573625, -0.0496473, -1569752.0, -25999.496, 0.0054196375, 9.997489, 9.997189 
4.9484438e+2, 1.5247104e+2, -1467842.6, -1475600.5, -4671.153, -0.00611072, -0.04188082, -1465649.9, -19869.512, 0.0023727028, 9.998083, 9.997035 
4.9489254e+2, 1.6246721e+2, -1373668.4, -1400994.6, -6600.498, 0.0019539932, -0.03427214, -1372157.5, -24339.648, 0.00079196517, 9.998755, 9.995116 
4.9494043e+2, 1.7246231e+2, -1263682.4, -1298464.1, -6491.2065, 0.00067751796, -0.029099537, -1262510.4, -12644.328, 0.00019707251, 9.999622, 9.994999 
4.9498808e+2, 1.8245645e+2, -1167370.4, -1221136.0, -8851.015, -0.00015625675, -0.026875678, -1165950.9, -14027.438, 0.000036298647, 10.000364, 9.993232 
4.9503547e+2, 1.9244954e+2, -1062993.4, -1120881.3, -8827.4375, -0.0007706754, -0.037832703, -1061677.1, -7686.053, 0.0000049503406, 10.000831, 9.9931555 
4.950828e+2, 2.0244172e+2, -970260.94, -1047262.8, -8654.277, -0.0013745517, -0.041750524, -969300.3, -13232.739, 0.00000050112493, 10.00141, 9.991211 
4.9513036e+2, 2.1243294e+2, -859587.75, -944874.94, -7965.3755, -0.00057988864, -0.030156432, -858850.2, -696.4047, 0.000000037748414, 10.002344, 9.991053 
4.9517784e+2, 2.2242318e+2, -762995.6, -867952.5, -8988.07, -0.0005450584, -0.024410637, -762231.5, -1982.1593, 0.0000000021194788, 10.003124, 9.989237 
4.9522504e+2, 2.3241216e+2, -659566.25, -768959.0, -9471.862, -0.0036174478, -0.039566062, -658752.2, 3605.1763, 0.00000000005330912, 10.003561, 9.989089 
4.9527252e+2, 2.4240033e+2, -566401.94, -694153.1, -7684.245, -0.0040025054, -0.04564134, -565941.44, -1468.1477, 0.000000000001871645, 10.004126, 9.9872265 
4.9532044e+2, 2.5238752e+2, -455638.13, -591857.3, -7084.395, 0.0021116042, -0.034601558, -455270.7, 11328.041, 0.000000000000009575241, 10.005072, 9.98706 
4.9536848e+2, 2.623738e+2, -357633.72, -513317.94, -6284.0737, 0.0051823626, -0.031058893, -357380.5, 11352.675, 0.000000000000055453838, 10.005907, 9.985321 
4.954163e+2, 2.723589e+2, -253631.05, -414104.6, -6885.9727, -0.0010657875, -0.044940904, -253336.11, 17543.477, 0.0000000000002341752, 10.006388, 9.9851675 
4.9546462e+2, 2.8234276e+2, -166406.38, -354234.94, -3771.6802, -0.004212807, -0.03751999, -166330.67, 6706.5996, 0.0000000000007286158, 10.007063, 9.982224 
4.9551338e+2, 2.92325e+2, -54503.848, -253626.34, -4131.2095, 0.0047690673, -0.010007912, -54418.17, 20793.623, 0.0000000000017125554, 10.008192, 9.981852 
4.9556258e+2, 3.023102e+2, 64473.13, -80468.29, -1036.9348, 0.0069493954, -0.054520752, 64480.547, 64480.547, 0.0000000000031753393, 10.009112, 9.989908 
4.956116e+2, 3.1230077e+2, 69843.52, -71242.47, -1885.8656, -0.007229362, -0.034350034, 69868.73, 69868.73, 0.000000000004897224, 10.009194, 9.990503 
5.046944e+2, 1.2242745e+2, -1767083.0, -1745637.4, -1381.8158, -0.010081759, -0.03783724, -1745548.8, -5341.0864, 0.020533854, 9.996563, 9.999405 
5.0474465e+2, 1.3242619e+2, -1668010.4, -1656593.1, -4266.3936, 0.030502984, -0.022162449, -1655175.0, -12955.221, 0.013628187, 9.997046, 9.998563 
5.047934e+2, 1.4242369e+2, -1572525.6, -1576082.5, -7208.555, -0.026224807, -0.057592064, -1566879.4, -22635.086, 0.0075791995, 9.997584, 9.99711 
5.0484264e+2, 1.5242086e+2, -1463407.1, -1474165.1, -7280.62, -0.00741812, -0.04305812, -1459734.0, -13462.061, 0.0033562193, 9.998404, 9.996973 
5.048915e+2, 1.6241704e+2, -1368189.9, -1398684.3, -9442.686, 0.005858457, -0.030867115, -1365502.8, -17193.076, 0.0011366707, 9.99913, 9.995087 
5.049401e+2, 1.7241208e+2, -1263770.6, -1298821.4, -8924.84, 0.0029824534, -0.028859932, -1261628.9, -11270.678, 0.00028802847, 9.9996195, 9.994972 
5.049884e+2, 1.8240614e+2, -1170611.8, -1223980.1, -11256.872, 0.00077830115, -0.029131616, -1168334.5, -15918.129, 0.000054231128, 10.000185, 9.993122 
5.050364e+2, 1.923991e+2, -1060744.5, -1121501.6, -12158.447, -0.00071069185, -0.03900364, -1058401.8, -3916.3105, 0.0000075890043, 10.001043, 9.993006 
5.050844e+2, 2.0239122e+2, -965079.3, -1044685.8, -12729.86, -0.0016180217, -0.041747663, -963093.2, -6530.602, 0.00000079091893, 10.001746, 9.9912195 
5.0513256e+2, 2.1238247e+2, -863078.94, -946078.56, -11845.337, -0.00063881074, -0.030824017, -861421.56, -2773.0818, 0.00000006148999, 10.00207, 9.9911 
5.0518066e+2, 2.2237273e+2, -771376.25, -872214.8, -12396.783, 0.0004387241, -0.026220685, -769874.56, -9130.729, 0.0000000035684378, 10.002549, 9.989219 
5.0522864e+2, 2.3236164e+2, -660085.94, -769823.06, -12404.021, -0.00047569777, -0.04123446, -658701.3, 4150.981, 0.000000000106601436, 10.00354, 9.989036 
5.052768e+2, 2.4234983e+2, -562236.94, -691618.1, -10484.05, -0.00040565635, -0.044784155, -561392.9, 3575.1372, 0.0000000000037957758, 10.004373, 9.987277 
5.053254e+2, 2.5233713e+2, -459311.97, -593257.9, -9968.01, 0.0005878859, -0.02973417, -458574.25, 8518.419, 0.0000000000002126687, 10.00479, 9.987096 
5.053741e+2, 2.6232344e+2, -365740.13, -517128.28, -9062.566, 0.0011245174, -0.028383672, -365199.53, 4027.4534, 0.0000000000012317329, 10.005336, 9.985331 
5.0542265e+2, 2.7230835e+2, -255513.81, -415300.88, -9684.155, -0.00028316455, -0.052605044, -254929.03, 16445.59, 0.0000000000052015844, 10.00626, 9.985141 
5.054717e+2, 2.8229237e+2, -165361.58, -352512.44, -5974.66, -0.0007340746, -0.04027706, -165171.03, 8360.363, 0.000000000016184465, 10.007067, 9.982339 
5.055212e+2, 2.922749e+2, -63950.02, -257000.92, -5248.279, 0.0026862659, 0.009052218, -63807.445, 11895.142, 0.000000000038037778, 10.007473, 9.981968 
5.055712e+2, 3.0225986e+2, 51403.156, -86704.17, -1688.2677, 0.0017711911, -0.07078059, 51423.793, 51423.793, 0.000000000070511263, 10.008191, 9.989924 
5.0562096e+2, 3.1225055e+2, 73629.82, -67494.76, -4424.1357, 0.00008777641, -0.034988903, 73768.375, 73768.375, 0.0000000001086931, 10.009351, 9.990688 
5.14691e+2, 1.2237678e+2, -1766663.3, -1743504.1, 1164.6223, -0.016146204, -0.038469456, -1743445.8, -2741.546, 0.027554031, 9.996515, 9.999564 
5.147418e+2, 1.3237552e+2, -1669301.8, -1658151.3, -3157.2305, 0.037007254, -0.01871385, -1657319.4, -14602.746, 0.018419899, 9.997011, 9.998466 
5.147909e+2, 1.4237301e+2, -1573622.1, -1577452.8, -4879.057, -0.032194875, -0.044583056, -1570295.9, -25554.766, 0.010340942, 9.997551, 9.997026 
5.14841e+2, 1.5237008e+2, -1464352.8, -1475683.6, -4432.5786, -0.008484831, -0.031582016, -1462824.8, -16054.963, 0.0046347342, 9.998388, 9.996871 
5.148907e+2, 1.6236612e+2, -1368195.0, -1398567.0, -7649.3926, 0.007891664, -0.025667235, -1366377.3, -17568.547, 0.0015935765, 9.999131, 9.995089 
5.149397e+2, 1.7236103e+2, -1263386.8, -1298104.8, -7404.5293, 0.0006147127, -0.039974205, -1261873.5, -11015.208, 0.00041132476, 9.999628, 9.995011 
5.1498854e+2, 1.82355e+2, -1171748.8, -1226456.4, -8608.755, -0.0045421985, -0.046379622, -1170426.1, -17508.713, 0.00007915646, 10.000193, 9.992945 
5.150374e+2, 1.9234791e+2, -1062407.0, -1125197.5, -8959.209, -0.0022919741, -0.035615675, -1061153.6, -6166.6157, 0.0000113579035, 10.001058, 9.992743 
5.150861e+2, 2.0233995e+2, -964971.8, -1044639.94, -11142.983, -0.0003627221, -0.02882946, -963442.6, -6377.509, 0.0000012170423, 10.001757, 9.991214 
5.1513463e+2, 2.1233106e+2, -862283.5, -944771.7, -10677.067, -0.00035808363, -0.03942092, -860923.9, -1771.7786, 0.000000097492624, 10.0020895, 9.991176 
5.151832e+2, 2.2232127e+2, -770885.94, -871525.8, -9304.876, 0.000870865, -0.045800235, -770032.9, -8784.985, 0.0000000058393734, 10.002564, 9.989255 
5.1523226e+2, 2.3231043e+2, -659990.56, -769684.06, -8423.87, 0.0054611424, -0.03949273, -659347.44, 4006.9543, 0.00000000019841896, 10.003541, 9.98904 
5.1528126e+2, 2.4229878e+2, -562253.9, -691325.9, -8398.077, 0.006154034, -0.027423227, -561709.75, 3758.834, 0.000000000007634904, 10.00436, 9.9873 
5.153301e+2, 2.52286e+2, -459373.53, -593146.8, -8484.479, -0.0037024552, -0.020742372, -458837.56, 8756.203, 0.0000000000039886605, 10.004782, 9.987104 
5.1537925e+2, 2.6227218e+2, -365804.28, -517117.2, -6163.749, -0.008914404, -0.03206389, -365553.6, 4175.4697, 0.000000000023101169, 10.00533, 9.98533 
5.154289e+2, 2.7225703e+2, -256013.34, -415890.75, -6228.6567, -0.00016249041, -0.0637921, -255771.06, 16106.684, 0.00000000009755803, 10.006238, 9.985107 
5.1547885e+2, 2.8224123e+2, -164182.97, -349546.72, -4144.153, 0.004921499, -0.04139146, -164090.36, 9942.365, 0.000000000303523, 10.007046, 9.982548 
5.1552856e+2, 2.922242e+2, -62488.016, -253740.2, -4105.7563, -0.003488252, 0.031057892, -62399.914, 13799.432, 0.00000000071315065, 10.007468, 9.982188 
5.155792e+2, 3.0220878e+2, 50557.56, -88464.59, 1831.3649, -0.010103291, -0.09263744, 50581.68, 50581.68, 0.0000000013213384, 10.0082, 9.98979 
5.156305e+2, 3.1219968e+2, 74379.51, -65926.59, -556.2987, 0.0128747085, -0.017921828, 74381.72, 74381.72, 0.0000000020352628, 10.009364, 9.990776 
5.246875e+2, 1.2232554e+2, -1763200.0, -1740840.8, 510.94498, -0.020593897, -0.04078496, -1740829.1, 377.19073, 0.036176804, 9.99669, 9.999661 
5.247389e+2, 1.3232413e+2, -1665736.0, -1658197.8, -5198.468, 0.040424112, -0.023946507, -1655545.8, -12325.656, 0.024365017, 9.997315, 9.998315 
5.247886e+2, 1.4232166e+2, -1568460.0, -1576035.5, -6812.645, -0.029281043, -0.03245646, -1564452.9, -19208.508, 0.013811107, 9.997943, 9.996926 
5.2483946e+2, 1.5231855e+2, -1462893.0, -1475856.0, -6215.1187, -0.0069501763, -0.030458398, -1460394.6, -13119.858, 0.0062664114, 9.998519, 9.996789 
5.248898e+2, 1.623144e+2, -1368877.5, -1400124.6, -9957.171, 0.008465707, -0.03226795, -1365974.4, -16659.021, 0.002187711, 9.999126, 9.994981 
5.249395e+2, 1.7230925e+2, -1260650.9, -1298267.3, -11185.417, -0.000112324684, -0.042203188, -1257576.1, -6210.448, 0.0005752219, 9.999866, 9.994881 
5.2498883e+2, 1.8230315e+2, -1167107.8, -1224362.5, -12826.162, -0.0052604876, -0.04496996, -1164365.8, -10940.261, 0.00011314291, 10.000509, 9.992926 
5.250385e+2, 1.9229609e+2, -1063930.4, -1125600.8, -11101.142, -0.000812445, -0.03452086, -1061992.9, -6498.08, 0.000016648359, 10.000932, 9.992771 
5.250878e+2, 2.022881e+2, -970329.06, -1048272.1, -12419.215, 0.0024447183, -0.028008139, -968398.06, -10824.955, 0.0000018353236, 10.001425, 9.991125 
5.251368e+2, 2.1227908e+2, -860766.9, -945681.5, -13588.9375, 0.0011965663, -0.038167708, -858645.2, 1016.18964, 0.00000015174481, 10.00225, 9.9910345 
5.25186e+2, 2.2226922e+2, -765165.25, -868618.1, -13206.724, 0.00089908857, -0.045231055, -763505.9, -1747.8453, 0.000000009413526, 10.002933, 9.989271 
5.2523565e+2, 2.322584e+2, -662871.06, -770486.75, -11950.49, 0.0038457331, -0.04099946, -661559.94, 2304.2744, 0.00000000035784709, 10.003303, 9.989098 
5.252853e+2, 2.4224682e+2, -570890.06, -695140.6, -11834.126, 0.004844537, -0.02762619, -569772.94, -3795.236, 0.00000000002014928, 10.003739, 9.987336 
5.253348e+2, 2.522341e+2, -463211.66, -594965.6, -11988.672, -0.0015128421, -0.016487671, -462129.66, 5972.71, 0.000000000054994186, 10.004504, 9.987111 
5.2538466e+2, 2.622203e+2, -365994.44, -516029.6, -8710.663, -0.0049463036, -0.032318052, -365490.4, 4747.0425, 0.00000000031851738, 10.005246, 9.985444 
5.25435e+2, 2.722051e+2, -259442.73, -416531.13, -7733.676, -0.00090317184, -0.07790049, -259062.92, 13323.536, 0.000000001345189, 10.005936, 9.985211 
5.2548563e+2, 2.821895e+2, -169665.97, -351452.6, -6147.583, 0.0028198692, -0.04658555, -169458.31, 5081.162, 0.0000000041848507, 10.006623, 9.982618 
5.2553594e+2, 2.9217282e+2, -66097.76, -255581.03, -7783.5254, 0.0012264688, 0.059064202, -65778.57, 10924.229, 0.000000009829297, 10.007212, 9.982182 
5.255874e+2, 3.0215684e+2, 47557.402, -92133.22, -981.3024, -0.007009516, -0.11072623, 47564.297, 47564.297, 0.000000018203474, 10.008074, 9.989591 
5.2563965e+2, 3.121477e+2, 72045.98, -63843.855, -3633.8572, 0.008354174, -0.022433858, 72143.086, 72143.086, 0.00000002802278, 10.009049, 9.99106 
5.346841e+2, 1.22273885e+2, -1764570.5, -1741816.9, 1802.5138, -0.028404599, -0.039735384, -1741674.9, 37.36609, 0.046640746, 9.996619, 9.999622 
5.347362e+2, 1.322721e+2, -1668406.1, -1662434.4, -3316.0916, 0.037868824, -0.039053354, -1660958.0, -17227.967, 0.031651113, 9.997271, 9.99804 
5.3478676e+2, 1.4226964e+2, -1569634.6, -1577759.5, -5089.9097, -0.018721044, -0.022452394, -1567184.8, -21430.65, 0.018118156, 9.997922, 9.996811 
5.34838e+2, 1.5226628e+2, -1463548.8, -1476711.4, -4466.1226, -0.005793765, -0.040522516, -1462176.4, -14389.536, 0.008324205, 9.998503, 9.996733 
5.348889e+2, 1.6226192e+2, -1370665.6, -1403700.9, -7653.9385, 0.0030873832, -0.050686035, -1368978.4, -19148.875, 0.002952043, 9.999128, 9.994729 
5.349393e+2, 1.722567e+2, -1262968.8, -1303053.3, -8683.931, -0.0013293038, -0.035213415, -1261168.3, -9287.489, 0.0007912693, 9.999871, 9.994545 
5.3498936e+2, 1.8225056e+2, -1165898.6, -1222091.6, -11278.919, -0.0037747303, -0.025167394, -1163719.3, -9778.088, 0.00015928308, 10.000524, 9.993068 
5.350394e+2, 1.9224358e+2, -1061405.0, -1120753.1, -9780.919, -0.00018746988, -0.03676168, -1059834.6, -3825.1243, 0.000024088198, 10.000954, 9.993084 
5.350892e+2, 2.0223562e+2, -971270.06, -1050520.3, -9906.134, 0.0019512994, -0.040434744, -970050.56, -11963.211, 0.0000027417923, 10.00144, 9.990959 
5.351391e+2, 2.122265e+2, -862927.1, -950598.8, -10407.684, 0.00023296755, -0.028699018, -861708.56, -1531.7039, 0.00000023528659, 10.002273, 9.990682 
5.351889e+2, 2.2221649e+2, -765280.8, -868928.7, -11383.1875, -0.0027211586, -0.02611012, -764045.4, -1770.3921, 0.000000015275884, 10.002936, 9.989246 
5.352388e+2, 2.3220553e+2, -662089.06, -769019.9, -10510.491, -0.00675945, -0.044745356, -661065.75, 3316.6746, 0.0000000006877151, 10.003311, 9.989191 
5.3528893e+2, 2.4219392e+2, -570496.56, -694378.0, -9382.911, -0.006178097, -0.04372542, -569789.94, -3293.863, 0.00000000013052304, 10.003739, 9.987386 
5.353393e+2, 2.5218135e+2, -463326.8, -594929.4, -8997.308, 0.0048021, -0.016556075, -462714.56, 5904.563, 0.000000000612615, 10.004489, 9.987119 
5.3539e+2, 2.621677e+2, -365028.34, -513704.72, -6174.4604, 0.008952307, -0.028854374, -364772.34, 5980.6597, 0.0000000034131882, 10.005232, 9.985606 
5.3544086e+2, 2.7215245e+2, -258475.1, -414071.25, -5417.521, -0.00403365, -0.09444505, -258286.69, 14615.582, 0.000000014339296, 10.005915, 9.985387 
5.354922e+2, 2.8213704e+2, -170182.17, -351999.56, -4276.016, -0.007340936, -0.056707434, -170081.66, 4971.772, 0.00000004456666, 10.006599, 9.98259 
5.3554326e+2, 2.9212064e+2, -67582.055, -258297.4, -5830.4624, 0.012281734, 0.09136804, -67403.98, 9810.28, 0.00000010462058, 10.007196, 9.9819975 
5.3559566e+2, 3.021039e+2, 45467.426, -96220.7, 2545.7437, 0.0055518607, -0.12516642, 45513.15, 45513.15, 0.00000019365781, 10.008073, 9.989301 
5.356485e+2, 3.1209478e+2, 75033.805, -56881.56, -451.54172, -0.013315074, -0.013609776, 75035.35, 75035.35, 0.0000002979929, 10.0090275, 9.991539 
5.446809e+2, 1.222215e+2, -1760388.5, -1740952.5, -89.89225, -0.021856299, -0.030658223, -1740952.1, 1273.4932, 0.05923043, 9.996939, 9.999525 
5.4473364e+2, 1.3221927e+2, -1662290.4, -1661155.1, -5194.184, 0.030296456, -0.060183246, -1656497.6, -12250.063, 0.04050611, 9.997747, 9.99789 
5.447849e+2, 1.4221689e+2, -1562894.3, -1576083.0, -7036.6787, -0.01517644, -0.021193942, -1559844.9, -13574.017, 0.023422668, 9.998434, 9.996675 
5.4483676e+2, 1.5221341e+2, -1458206.3, -1475805.1, -7357.7153, -0.004470133, -0.038322236, -1455535.5, -7230.47, 0.010902844, 9.998928, 9.996585 
5.448882e+2, 1.622089e+2, -1366983.0, -1402903.0, -10405.297, 0.0032392559, -0.048920248, -1364186.5, -13837.351, 0.003931351, 9.99941, 9.994643 
5.449392e+2, 1.7220363e+2, -1262306.8, -1303469.6, -9478.862, 0.000107671316, -0.033567734, -1260228.9, -7827.9307, 0.0010759312, 9.99994, 9.99448 
5.4498994e+2, 1.8219739e+2, -1167346.5, -1223834.8, -11742.88, -0.0014360145, -0.024606705, -1165002.6, -10540.468, 0.0002222064, 10.000459, 9.99298 
5.450404e+2, 1.9219029e+2, -1060084.5, -1121382.9, -13513.661, 0.0002839479, -0.03846638, -1057237.6, -705.94763, 0.00003466305, 10.001084, 9.992974 
5.4509073e+2, 2.0218225e+2, -968525.5, -1049475.1, -15130.856, 0.0013605583, -0.042110883, -965789.75, -7179.3813, 0.0000040952546, 10.001629, 9.9909315 
5.451413e+2, 2.1217318e+2, -865515.5, -951705.2, -13142.719, 0.00038238856, -0.027258633, -863556.0, -2856.5383, 0.00000036843403, 10.002078, 9.990696 
5.4519165e+2, 2.2216316e+2, -771682.5, -872553.7, -13058.512, -0.0013350003, -0.024777057, -770019.4, -7221.7646, 0.000000026361263, 10.00251, 9.989203 
5.452421e+2, 2.3215207e+2, -665136.94, -771345.25, -13420.698, -0.0055796094, -0.048357178, -663467.3, 1438.8516, 0.0000000023307902, 10.003125, 9.9891205 
5.452927e+2, 2.4214046e+2, -570659.6, -694218.7, -12581.064, -0.0049566226, -0.046793014, -569391.6, -2371.59, 0.0000000015642249, 10.003698, 9.987416 
5.4534376e+2, 2.5212803e+2, -464585.47, -595136.75, -11644.318, 0.006116271, -0.010706103, -463555.0, 5586.8354, 0.000000005562811, 10.004364, 9.9871645 
5.453951e+2, 2.6211438e+2, -368791.34, -515809.25, -9187.346, 0.009311754, -0.023957254, -368219.44, 3056.061, 0.000000028366085, 10.004972, 9.985583 
5.454466e+2, 2.720989e+2, -264381.1, -417872.56, -10167.333, -0.005605108, -0.10557798, -263710.53, 9716.642, 0.00000011761462, 10.005546, 9.985294 
5.4549855e+2, 2.820836e+2, -175102.05, -351912.63, -9292.365, -0.007823825, -0.06161796, -174615.02, 962.132, 0.0000003647328, 10.00614, 9.982811 
5.4555035e+2, 2.9206777e+2, -70967.39, -257273.83, -8131.732, 0.015556641, 0.11967294, -70613.13, 7119.0864, 0.00000085578625, 10.00682, 9.982255 
5.456035e+2, 3.020505e+2, 38722.637, -104403.04, 2589.981, 0.00505705, -0.14758798, 38769.49, 38769.49, 0.0000015835924, 10.0077715, 9.988899 
5.4565734e+2, 3.120411e+2, 72364.625, -53651.1, -3083.4817, -0.009304214, -0.016800951, 72440.03, 72440.03, 0.0000024360013, 10.008593, 9.991987 
5.54678e+2, 1.2216848e+2, -1763086.5, -1744344.1, 3420.9958, -0.007174995, -0.015213153, -1743739.3, -994.0943, 0.07429232, 9.996851, 9.999324 
5.5473125e+2, 1.3216577e+2, -1663499.3, -1662147.1, -3068.2402, 0.015129486, -0.08644602, -1659681.4, -14909.703, 0.051209517, 9.997691, 9.997842 
5.5478334e+2, 1.4216347e+2, -1564969.3, -1579254.4, -5454.966, -0.021429397, -0.028420396, -1563124.5, -16330.193, 0.02992419, 9.998395, 9.99647 
5.548356e+2, 1.5215996e+2, -1460439.1, -1479773.6, -6036.983, -0.0066983975, -0.02344078, -1458709.0, -9880.063, 0.014122313, 9.998907, 9.996318 
5.548876e+2, 1.6215536e+2, -1366411.1, -1401644.6, -8975.003, 0.0039009862, -0.02633287, -1364256.8, -13382.723, 0.005183735, 9.9994135, 9.9947195 
5.5493915e+2, 1.7215005e+2, -1260658.5, -1300191.8, -7876.6973, 0.0010647434, -0.037711065, -1259147.0, -6220.881, 0.0014511821, 9.999952, 9.99469 
5.5499035e+2, 1.8214364e+2, -1169467.8, -1228472.1, -9837.818, -0.0015646454, -0.043739516, -1167870.8, -12882.159, 0.0003083134, 10.000476, 9.99265 
5.550415e+2, 1.9213624e+2, -1063658.6, -1129172.3, -11372.119, -0.0022903464, -0.038832046, -1061740.8, -4679.4272, 0.000049822887, 10.001107, 9.992427 
5.5509233e+2, 2.0212798e+2, -967533.8, -1047840.0, -13495.397, -0.0022578107, -0.03197271, -965326.6, -6184.226, 0.000006177535, 10.001649, 9.991029 
5.5514336e+2, 2.1211906e+2, -862706.2, -946320.6, -11594.586, -0.00064036035, -0.032943644, -861128.2, 101.45105, 0.00000062156136, 10.0021, 9.991048 
5.5519414e+2, 2.2210914e+2, -771960.75, -873351.75, -11063.554, 0.0011790355, -0.04040898, -770767.56, -7440.9014, 0.0000000784953, 10.00252, 9.989141 
5.552453e+2, 2.3209798e+2, -666599.8, -774654.6, -10945.645, 0.0031476973, -0.052771997, -665502.2, -65.92394, 0.000000033049396, 10.0031395, 9.988884 
5.552964e+2, 2.4208632e+2, -570628.4, -694272.9, -10130.692, 0.0037123985, -0.039121736, -569803.8, -2253.3179, 0.00000003053741, 10.003703, 9.987408 
5.553481e+2, 2.5207397e+2, -464276.03, -594258.3, -9123.92, 0.00015907508, 0.0006905923, -463638.72, 6032.863, 0.00000005386784, 10.0043545, 9.987226 
5.5539995e+2, 2.6206028e+2, -370403.5, -518508.88, -7182.9233, -0.0052424157, -0.019253165, -370055.94, 1749.9662, 0.00000019406193, 10.00494, 9.9854145 
5.554521e+2, 2.7204436e+2, -266724.97, -422206.88, -8025.52, -0.009415647, -0.11322073, -266311.8, 7649.875, 0.00000074942295, 10.005513, 9.985014 
5.555047e+2, 2.820292e+2, -172484.81, -346124.66, -6919.168, -0.0041965675, -0.060065784, -172209.53, 3900.941, 0.0000022942224, 10.006125, 9.983209 
5.5555713e+2, 2.9201415e+2, -67670.61, -249718.94, -5644.4507, 0.009729618, 0.14561072, -67495.77, 10761.966, 0.0000053700915, 10.00679, 9.9827795 
5.5561113e+2, 3.0199635e+2, 33487.445, -114188.984, 5547.5303, -0.008292764, -0.17799516, 33695.55, 33695.55, 0.000009930988, 10.007733, 9.988236 
5.5566615e+2, 3.1198648e+2, 74161.28, -48847.67, -826.0182, 0.0104288785, -0.0052038645, 74166.83, 74166.83, 0.000015272311, 10.008564, 9.992318 
5.646753e+2, 1.22114465e+2, -1754149.6, -1744900.8, 1719.0825, -0.0012429099, -0.014849632, -1744591.6, -1317.1503, 0.092263974, 9.997663, 9.998884 
5.64729e+2, 1.3211168e+2, -1658178.5, -1659428.9, -5978.238, 0.008038529, -0.09004127, -1652792.9, -7491.0435, 0.06411256, 9.998036, 9.997854 
5.647817e+2, 1.4210948e+2, -1564212.1, -1579141.6, -7696.88, -0.01732682, -0.019753534, -1560954.8, -13631.442, 0.037873123, 9.9984455, 9.996451 
5.648346e+2, 1.5210585e+2, -1459069.8, -1479744.8, -6878.726, -0.0050713127, -0.023839701, -1456990.4, -7631.235, 0.018134005, 9.999022, 9.996262 
5.648871e+2, 1.6210112e+2, -1363978.8, -1401393.4, -9344.095, 0.0031650453, -0.033229806, -1361775.0, -10369.468, 0.0067838547, 9.999613, 9.994637 
5.649392e+2, 1.7209575e+2, -1257898.9, -1300008.4, -10678.076, 0.000062482926, -0.040469795, -1255346.0, -1887.9596, 0.0019465192, 10.000182, 9.994585 
5.6499094e+2, 1.8208928e+2, -1166897.4, -1228676.6, -13708.867, -0.0017713142, -0.042711012, -1163992.0, -8470.528, 0.0004271751, 10.00071, 9.992514 
5.650427e+2, 1.9208172e+2, -1062792.5, -1130341.4, -12508.044, -0.0012714376, -0.037913576, -1060550.9, -2955.2576, 0.00007248392, 10.001232, 9.992281 
5.6509405e+2, 2.020733e+2, -967701.1, -1049101.1, -13837.363, -0.00017107818, -0.031713422, -965413.25, -5735.0815, 0.000010126858, 10.001683, 9.990924 
5.651455e+2, 2.1206431e+2, -862458.44, -947205.1, -15110.495, 0.0015230362, -0.032337286, -859844.8, 1921.2703, 0.0000016724213, 10.0021515, 9.990958 
5.651967e+2, 2.2205432e+2, -771419.4, -873604.4, -16417.604, 0.0029928365, -0.040347233, -768846.44, -4982.415, 0.00000068287227, 10.002562, 9.9890995 
5.652485e+2, 2.3204309e+2, -666582.3, -775022.5, -15002.698, 0.003557493, -0.055657182, -664545.0, 1429.0769, 0.00000051860127, 10.003137, 9.988858 
5.653001e+2, 2.4203144e+2, -572778.6, -695736.6, -13728.805, 0.003996347, -0.040452875, -571264.4, -3175.9856, 0.00000047300682, 10.003558, 9.987376 
5.6535226e+2, 2.520191e+2, -469907.56, -597475.4, -13284.833, 0.0009417073, 0.006657815, -468538.78, 1670.4827, 0.00000055618574, 10.003974, 9.987187 
5.654046e+2, 2.620054e+2, -377162.53, -520915.97, -10637.229, -0.0039761006, -0.016798018, -376379.7, -4036.102, 0.0000011869142, 10.004412, 9.985509 
5.654575e+2, 2.7198943e+2, -269184.9, -422342.1, -8594.464, -0.007611211, -0.12698159, -268704.13, 5795.903, 0.0000037901987, 10.00527, 9.985129 
5.655108e+2, 2.8197455e+2, -172560.2, -344384.63, -6689.178, -0.0010802991, -0.06596643, -172300.19, 4345.727, 0.000011143965, 10.005998, 9.983407 
5.6556374e+2, 2.9195988e+2, -72498.99, -252039.92, -8353.985, 0.0122336, 0.1706067, -72111.12, 6678.3774, 0.00002588088, 10.006431, 9.982799 
5.656186e+2, 3.019412e+2, 22495.072, -127694.48, 2137.9063, -0.015287757, -0.20162046, 22525.498, 22525.498, 0.000047783215, 10.00733, 9.987487 
5.656746e+2, 3.1193084e+2, 75692.89, -39160.26, -4391.931, 0.013862736, -0.008053955, 75860.586, 75860.586, 0.00007346192, 10.008269, 9.9931135 
5.7467294e+2, 1.2205959e+2, -1761243.5, -1756770.3, 2276.7983, -0.01244758, -0.034581915, -1755815.4, -12003.279, 0.11375035, 9.997552, 9.998127 
5.7472706e+2, 1.3205715e+2, -1659309.5, -1659351.5, -5562.405, 0.008384825, -0.069499604, -1653768.1, -7931.67, 0.07970576, 9.99794, 9.9979 
5.7478034e+2, 1.4205506e+2, -1564206.5, -1577505.5, -6536.514, -0.004538048, 0.005463278, -1561531.8, -13674.918, 0.04762608, 9.998382, 9.996586 
5.748337e+2, 1.520512e+2, -1458508.1, -1477802.6, -5287.979, -0.0029592195, -0.0398709, -1457154.0, -7259.34, 0.023162274, 9.998994, 9.996399 
5.748867e+2, 1.6204622e+2, -1365984.1, -1405384.0, -7757.281, -0.0035965173, -0.07039353, -1364511.8, -12568.657, 0.008851887, 9.999618, 9.994354 
5.7493937e+2, 1.7204079e+2, -1261038.9, -1306472.3, -9068.593, -0.0050139655, -0.041545507, -1259295.6, -5299.1025, 0.0026185028, 10.000193, 9.994131 
5.7499164e+2, 1.8203424e+2, -1166387.8, -1227887.3, -12254.32, -0.004778277, -0.021050123, -1164035.9, -7975.0645, 0.0006049601, 10.000728, 9.992552 
5.750439e+2, 1.9202672e+2, -1060779.3, -1126767.8, -10923.04, -0.0012423698, -0.0369584, -1059018.1, -883.5375, 0.00011675058, 10.001265, 9.9925 
5.750958e+2, 2.020182e+2, -969345.3, -1053037.8, -12407.92, 0.0018531483, -0.043051746, -967544.56, -7326.4473, 0.000025390495, 10.001713, 9.990636 
5.751477e+2, 2.1200891e+2, -865560.06, -954369.8, -13477.448, 0.0021295098, -0.02725998, -863559.8, -1250.6492, 0.000010757624, 10.002191, 9.990445 
5.751993e+2, 2.2199865e+2, -771492.1, -874181.25, -14538.436, -0.0006362978, -0.02601424, -769473.5, -5063.517, 0.0000077366185, 10.00258, 9.989049 
5.752515e+2, 2.319874e+2, -665616.6, -772746.2, -12749.703, -0.007082253, -0.05647004, -664120.1, 2399.8643, 0.000006522971, 10.003126, 9.989014 
5.7530355e+2, 2.4197572e+2, -573777.4, -697034.6, -12058.535, -0.007101077, -0.049915, -572608.75, -3974.4014, 0.000005941919, 10.00352, 9.987306 
5.7535625e+2, 2.5196335e+2, -471142.5, -599833.2, -11578.33, 0.003990755, 0.007348251, -470109.1, 646.48206, 0.000005930573, 10.00396, 9.987034 
5.754091e+2, 2.619497e+2, -375222.72, -517046.63, -8073.2417, 0.005830971, -0.015553528, -374764.66, -1875.0176, 0.000007746674, 10.0044155, 9.985767 
5.754628e+2, 2.7193385e+2, -266335.63, -416377.22, -5609.8438, -0.005500186, -0.14555418, -266126.2, 8918.125, 0.000016548, 10.005269, 9.985531 
5.7551676e+2, 2.8191933e+2, -173079.34, -344762.53, -5482.2236, -0.0023455878, -0.08098215, -172904.47, 4281.9937, 0.000042830554, 10.005961, 9.983398 
5.755702e+2, 2.9190472e+2, -75669.06, -257782.47, -6847.338, 0.016424598, 0.19190681, -75411.97, 3917.8164, 0.000096663134, 10.006389, 9.982424 
5.7562584e+2, 3.0188507e+2, 15968.982, -139942.4, 5776.9653, -0.022344077, -0.21717186, 16182.742, 16182.742, 0.00017732779, 10.007282, 9.986659 
5.756827e+2, 3.118743e+2, 83026.92, -22100.604, -1185.6293, 0.00010836279, 0.0034943789, 83040.29, 83040.29, 0.00027223537, 10.008208, 9.9943 
5.8467066e+2, 1.22004405e+2, -1754822.5, -1756134.9, 1341.7764, -0.0071706814, -0.032223515, -1753985.1, -9632.147, 0.13972634, 9.998084, 9.997911 
5.84725e+2, 1.3200204e+2, -1653103.3, -1654686.1, -5202.013, 0.00091990194, -0.06878988, -1648632.8, -2256.5059, 0.09881995, 9.998285, 9.998048 
5.847789e+2, 1.4199997e+2, -1560230.3, -1576505.5, -5586.6274, 0.003913437, 0.00087560667, -1558497.1, -10100.404, 0.05983596, 9.9986925, 9.996497 
5.848329e+2, 1.5199602e+2, -1453920.4, -1477377.8, -6568.0264, -0.00076911395, -0.03801177, -1452206.6, -1771.2881, 0.029672418, 9.999379, 9.996234 
5.8488643e+2, 1.6199091e+2, -1361804.3, -1404958.9, -10698.732, -0.0052553853, -0.06474446, -1359297.5, -6812.36, 0.011691614, 9.999964, 9.994209 
5.849397e+2, 1.719853e+2, -1259088.3, -1307269.1, -10361.894, -0.0043399055, -0.03980354, -1256954.3, -2414.0107, 0.0036588176, 10.000396, 9.993975 
5.849924e+2, 1.819786e+2, -1165284.3, -1227743.4, -12465.73, -0.0027436498, -0.023222057, -1162888.3, -6282.0464, 0.0009683537, 10.000812, 9.992518 
5.850453e+2, 1.9197106e+2, -1059438.0, -1126204.0, -12926.864, -0.0012310744, -0.03958505, -1057022.5, 1657.3824, 0.00027478443, 10.001354, 9.992491 
5.8509755e+2, 2.019625e+2, -968429.5, -1054263.9, -15553.181, 0.0012139751, -0.04431082, -965698.2, -4934.223, 0.00012467508, 10.001832, 9.990493 
5.8514994e+2, 2.1195306e+2, -865140.25, -956513.75, -14911.548, 0.0028448647, -0.025305213, -862768.4, 88.14244, 0.0000877705, 10.002309, 9.990241 
5.852019e+2, 2.2194256e+2, -771896.8, -876188.6, -15360.661, 0.0012418901, -0.023255859, -769681.44, -4722.0566, 0.00007200422, 10.002632, 9.988881 
5.8525455e+2, 2.319312e+2, -668670.25, -775285.4, -15458.583, -0.0053044455, -0.05707271, -666474.1, 596.62555, 0.00006284414, 10.002961, 9.988915 
5.853069e+2, 2.4191941e+2, -578901.1, -700235.3, -15938.336, -0.0048717647, -0.05093513, -576842.4, -7656.379, 0.00005789635, 10.003178, 9.987255 
5.8536017e+2, 2.5190708e+2, -473045.63, -600953.1, -14328.978, 0.0064119073, 0.009970389, -471460.06, -153.06525, 0.000055242694, 10.003815, 9.987029 
5.854135e+2, 2.6189333e+2, -378017.16, -519985.5, -10507.935, 0.0068633594, -0.015013804, -377243.6, -3801.9946, 0.000055795954, 10.004256, 9.985652 
5.854679e+2, 2.7187726e+2, -270754.2, -420497.94, -10983.557, -0.008455236, -0.15492798, -269952.84, 5646.196, 0.00007332081, 10.005013, 9.985374 
5.855226e+2, 2.8186288e+2, -176312.48, -343040.63, -13835.298, -0.002869099, -0.08356324, -175172.22, 2567.5305, 0.0001400374, 10.005582, 9.983691 
5.855765e+2, 2.9184884e+2, -79296.11, -256379.25, -11125.629, 0.026095087, 0.21585752, -78599.86, 1277.6722, 0.00028783004, 10.005966, 9.982732 
5.85633e+2, 3.018286e+2, 3247.3044, -158777.98, 6041.0684, -0.019943284, -0.22339772, 3472.2317, 3472.2317, 0.00051568105, 10.006898, 9.985566 
5.85691e+2, 3.118165e+2, 87527.336, -11303.689, -5400.794, 0.006945001, -0.0042987545, 87821.6, 87821.6, 0.00078684813, 10.008087, 9.995108 
5.94669e+2, 1.21949285e+2, -1754773.3, -1752052.0, -306.29037, 0.015721804, -0.00501157, -1752017.9, -7124.6846, 0.17203067, 9.997918, 9.998264 
5.9472317e+2, 1.3194671e+2, -1653309.5, -1652881.1, -5541.457, -0.0181767, -0.087723844, -1647549.8, -631.4668, 0.12317733, 9.998197, 9.998207 
5.9477764e+2, 1.4194441e+2, -1563440.1, -1581816.8, -4421.836, 0.004408568, -0.034701973, -1562431.5, -13490.637, 0.0760359, 9.998648, 9.996148 
5.948323e+2, 1.5194051e+2, -1458194.4, -1484985.4, -5003.2695, -0.0014180762, -0.019044083, -1457290.5, -6311.131, 0.038946632, 9.999337, 9.995727 
5.948864e+2, 1.6193536e+2, -1362326.4, -1405567.5, -9788.3, -0.006622335, -0.01504683, -1360213.8, -7183.957, 0.016318014, 9.999951, 9.994165 
5.949401e+2, 1.7192943e+2, -1258339.3, -1305517.0, -9506.039, -0.001965802, -0.035397872, -1256495.9, -1407.9081, 0.0058532357, 10.000397, 9.994084 
5.9499335e+2, 1.819224e+2, -1166232.0, -1229813.1, -11154.687, 0.0005834121, -0.050140437, -1164331.9, -7175.109, 0.002137039, 10.000828, 9.992361 
5.9504664e+2, 1.9191484e+2, -1061058.8, -1129952.3, -11307.252, -0.0042864387, -0.045778107, -1059250.4, -19.446207, 0.001055166, 10.001383, 9.992212 
5.9509933e+2, 2.019062e+2, -968500.3, -1054820.1, -14183.526, -0.0067588477, -0.034770474, -966229.5, -4913.9053, 0.00073918933, 10.001855, 9.990438 
5.9515226e+2, 2.1189673e+2, -864498.4, -955773.1, -13559.596, -0.00039157676, -0.025979647, -862526.6, 881.8935, 0.00060496945, 10.00234, 9.990271 
5.952046e+2, 2.2188605e+2, -773431.7, -879770.7, -14264.791, 0.003959069, -0.0316558, -771551.4, -6038.192, 0.0005205493, 10.002651, 9.988626 
5.9525764e+2, 2.3187442e+2, -670838.3, -780120.5, -14256.204, 0.001944534, -0.058370367, -669009.2, -1382.1998, 0.0004661713, 10.002977, 9.988575 
5.9531015e+2, 2.4186243e+2, -579616.06, -701472.9, -14055.105, 0.0028127008, -0.045175303, -578015.94, -8271.591, 0.0004356508, 10.003168, 9.987172 
5.9536403e+2, 2.5185013e+2, -472458.03, -599527.94, -11994.44, 0.005103304, 0.013122294, -471335.75, 529.10535, 0.0004130641, 10.003808, 9.987125 
5.954177e+2, 2.6183623e+2, -381805.38, -527165.56, -8392.904, -0.0029746052, -0.01758037, -381322.4, -7321.4404, 0.00038235346, 10.00421, 9.9851885 
5.954728e+2, 2.718195e+2, -275815.78, -430616.25, -8105.5957, -0.019827237, -0.1569127, -275392.5, 772.67566, 0.00036756825, 10.004985, 9.984698 
5.9552807e+2, 2.8180513e+2, -173266.14, -335683.0, -12431.714, -0.008393793, -0.074521855, -172320.11, 5986.142, 0.00045654777, 10.005519, 9.98423 
5.955826e+2, 2.9179198e+2, -74739.164, -245356.92, -9725.251, 0.03702107, 0.2390535, -74186.61, 6248.26, 0.0007430319, 10.005891, 9.983523 
5.956399e+2, 3.0177137e+2, -8198.63, -180221.67, 9755.349, -0.01568695, -0.22442573, -7647.1763, -7647.1763, 0.0012328605, 10.006794, 9.984141 
5.95699e+2, 3.1175745e+2, 88328.414, -5729.926, -1349.0063, 0.012223889, -0.005711096, 88347.76, 88347.76, 0.0018376576, 10.007933, 9.995553 
6.0466707e+2, 1.2189394e+2, -1749841.5, -1748495.6, 4931.7104, 0.019860322, -0.015952984, -1744191.1, 1244.431, 0.214152, 9.998212, 9.998379 
6.047215e+2, 1.3189088e+2, -1648961.0, -1659531.1, -6088.308, -0.028278034, -0.08009716, -1646183.8, 1281.5399, 0.15643857, 9.9988785, 9.997423 
6.047766e+2, 1.418879e+2, -1554309.4, -1579186.9, -9018.666, 0.0086645745, -0.041307244, -1551383.9, -1889.4673, 0.09991464, 9.999331, 9.995989 
6.048316e+2, 1.5188396e+2, -1456507.8, -1484384.4, -6600.942, -0.00001726325, -0.028482148, -1455023.6, -3490.124, 0.054502863, 9.9994545, 9.995708 
6.0488623e+2, 1.6187884e+2, -1364529.6, -1405536.9, -8574.758, -0.008614497, -0.02424693, -1362808.9, -9225.084, 0.025911747, 9.999747, 9.9942665 
6.0494053e+2, 1.7187311e+2, -1256639.1, -1303690.3, -8748.311, -0.002125872, -0.03603866, -1255065.1, 574.8593, 0.011987488, 10.000463, 9.994176 
6.049943e+2, 1.8186614e+2, -1162754.3, -1229885.3, -10953.852, 0.002160612, -0.044335168, -1161012.1, -3303.9338, 0.0065416535, 10.001131, 9.992208 
6.050481e+2, 1.9185832e+2, -1059220.9, -1132041.1, -11484.635, -0.0052689402, -0.04255261, -1057452.6, 2332.29, 0.0046063922, 10.001629, 9.991949 
6.0510117e+2, 2.0184939e+2, -966886.8, -1056004.8, -15065.272, -0.00909776, -0.034837, -964408.94, -2536.4512, 0.0037910414, 10.002058, 9.990249 
6.0515475e+2, 2.1183975e+2, -862743.44, -956468.44, -16260.848, 0.0023738062, -0.027727852, -860002.4, 3964.3484, 0.003294016, 10.002531, 9.990119 
6.052074e+2, 2.2182886e+2, -770995.75, -880584.1, -18280.545, 0.010067769, -0.035202906, -768026.75, -1953.364, 0.0029299043, 10.002891, 9.98845 
6.0526067e+2, 2.3181708e+2, -669533.44, -781500.75, -17784.908, 0.0009784402, -0.064110324, -666776.4, 1412.4528, 0.0026845648, 10.003146, 9.988397 
6.053133e+2, 2.4180482e+2, -580525.0, -704671.75, -16824.994, -0.001834407, -0.050152484, -578285.2, -7976.3574, 0.0025410713, 10.003222, 9.98692 
6.053678e+2, 2.5179243e+2, -473332.63, -601566.06, -16053.602, 0.009174496, 0.013586409, -471353.4, 1077.0323, 0.0024159902, 10.003801, 9.986984 
6.0542184e+2, 2.6177835e+2, -385807.4, -531898.1, -13166.878, 0.0060154772, -0.015125766, -384630.2, -10061.97, 0.0021913543, 10.004022, 9.984962 
6.054777e+2, 2.717614e+2, -279215.84, -433906.6, -9145.833, -0.019271368, -0.15923682, -278677.0, -1942.2632, 0.0018755151, 10.004764, 9.984603 
6.0553336e+2, 2.8174704e+2, -177649.02, -337131.0, -13126.198, -0.0096193375, -0.078881145, -176575.88, 2299.2935, 0.0017067166, 10.005132, 9.984344 
6.055886e+2, 2.917339e+2, -72433.16, -245293.63, -14403.464, 0.04716152, 0.2331178, -71241.22, 9763.009, 0.0019738742, 10.006053, 9.983458 
6.0564685e+2, 3.0171254e+2, -12821.698, -198231.78, 2211.648, -0.019408096, -0.23513122, -12795.32, -12795.32, 0.00273566, 10.00715, 9.982719 
6.0570663e+2, 3.1169713e+2, 84654.46, 3206.3118, -8180.415, -0.0021474238, -0.011117879, 85467.95, 85467.95, 0.0038015225, 10.007232, 9.996488 
6.146649e+2, 1.21838905e+2, -1750973.6, -1749205.3, 4433.9243, -0.01571893, -0.06862012, -1745568.3, 406.62003, 0.27198067, 9.998155, 9.998338 
6.147204e+2, 1.3183509e+2, -1661905.5, -1685571.6, -5542.3604, -0.02727616, -0.045807105, -1660671.9, -12659.409, 0.20546661, 9.998854, 9.995652 
6.147761e+2, 1.4183095e+2, -1555045.9, -1579974.5, -9733.047, 0.015897626, -0.016356777, -1551696.0, -1642.8114, 0.13911296, 9.999311, 9.995935 
6.148311e+2, 1.518268e+2, -1454302.1, -1478523.6, -7409.04, 0.0000009050677, -0.064435735, -1452215.6, -121.84719, 0.08438501, 9.999409, 9.9961195 
6.148859e+2, 1.618217e+2, -1364308.0, -1403581.4, -7687.2114, -0.014635916, -0.091595456, -1362857.0, -8713.413, 0.048496593, 9.99969, 9.994418 
6.14941e+2, 1.7181656e+2, -1257408.6, -1304287.8, -6985.689, -0.0054878066, -0.04180181, -1256389.9, -195.93054, 0.02976512, 10.000427, 9.994143 
6.149954e+2, 1.8180993e+2, -1164410.6, -1232863.3, -9534.528, 0.00036868366, -0.004492968, -1163107.4, -4848.521, 0.021445168, 10.0011215, 9.992 
6.150497e+2, 1.9180161e+2, -1061148.8, -1136122.0, -10289.293, -0.007121098, -0.03011478, -1059762.3, 578.42487, 0.017750558, 10.001647, 9.991652 
6.151033e+2, 2.0179209e+2, -969276.06, -1061036.9, -13855.85, -0.0099041015, -0.045345068, -967229.5, -4795.5215, 0.015685128, 10.002068, 9.989895 
6.1515737e+2, 2.117822e+2, -864918.06, -961417.7, -14678.619, 0.006013514, -0.031308323, -862734.7, 1796.0804, 0.014165093, 10.002559, 9.989762 
6.152104e+2, 2.2177105e+2, -771754.44, -882394.75, -17270.5, 0.013699187, -0.03419324, -769121.25, -2481.2454, 0.012958546, 10.002907, 9.988315 
6.1526376e+2, 2.3175915e+2, -670068.7, -782335.56, -17234.32, -0.008972228, -0.07378827, -667482.56, 1273.9375, 0.012107187, 10.003141, 9.9883375 
6.1531633e+2, 2.4174654e+2, -584383.7, -711289.0, -15078.319, -0.019201739, -0.065314695, -582616.75, -11736.886, 0.0115695195, 10.003172, 9.986485 
6.153717e+2, 2.5173384e+2, -476592.78, -607981.8, -14054.889, 0.009120752, 0.009287582, -475106.13, -2101.406, 0.011032614, 10.0037985, 9.986537 
6.15426e+2, 2.617195e+2, -387373.88, -534348.0, -11445.433, 0.017158575, -0.009178514, -386487.9, -11342.676, 0.010000831, 10.003962, 9.984833 
6.1548257e+2, 2.7170256e+2, -277273.53, -430621.72, -6816.4097, -0.020238388, -0.16448785, -276971.13, 340.14307, 0.008357119, 10.004784, 9.984815 
6.155385e+2, 2.816882e+2, -179751.33, -341725.1, -11917.293, -0.016194448, -0.100565545, -178879.2, 572.328, 0.0067573693, 10.005103, 9.984061 
6.155947e+2, 2.916742e+2, -78981.49, -257638.7, -10705.885, 0.04790656, 0.19704139, -78342.234, 3246.828, 0.0061111376, 10.005958, 9.982673 
6.1565375e+2, 3.016521e+2, -25094.365, -219527.61, 4172.9116, -0.035842583, -0.24864568, -25004.848, -25004.848, 0.006720624, 10.006949, 9.981367 
6.1571324e+2, 3.116355e+2, 88612.8, 19495.797, -7021.622, -0.041833844, -0.0023197965, 89318.914, 89318.914, 0.008187074, 10.006913, 9.997772 
6.246638e+2, 1.2178114e+2, -1739610.9, -1727598.3, -3360.815, 0.059060186, -0.024939023, -1726721.9, 19819.512, 0.3541072, 9.99807, 10.000509 
6.2471956e+2, 1.3177837e+2, -1644411.6, -1666963.9, -2871.0454, -0.04308443, -0.012574786, -1644051.8, 4516.6484, 0.28109142, 9.999739, 9.996487 
6.247758e+2, 1.4177425e+2, -1538885.8, -1571285.6, -591.84015, -0.0041578067, -0.027287548, -1538875.0, 11734.059, 0.20657134, 10.000645, 9.99589 
6.2483096e+2, 1.5177022e+2, -1442763.5, -1474192.5, -3614.6575, -0.001522343, -0.043859042, -1442353.1, 10295.16, 0.1432552, 10.000386, 9.995952 
6.24886e+2, 1.6176516e+2, -1355643.5, -1401964.6, -6639.9404, -0.0046058963, -0.05140941, -1354710.5, -12.609687, 0.09987318, 10.000378, 9.994196 
6.2494135e+2, 1.7175937e+2, -1259303.9, -1308504.5, -8432.033, -0.005843238, -0.03856862, -1257898.9, -1144.5461, 0.075513154, 10.000433, 9.993848 
6.249963e+2, 1.8175235e+2, -1169579.3, -1233738.3, -10593.188, -0.006587059, -0.030339204, -1167875.5, -9052.409, 0.06323491, 10.000678, 9.992158 
6.2505144e+2, 1.917444e+2, -1059026.5, -1132578.8, -7870.938, -0.0012738539, -0.039537445, -1058193.6, 2707.4968, 0.056682963, 10.0016775, 9.991884 
6.2510586e+2, 2.0173515e+2, -960469.94, -1056975.4, -9047.546, 0.004749676, -0.041155454, -959629.06, 3362.755, 0.052283235, 10.002678, 9.989883 
6.2516016e+2, 2.1172512e+2, -857095.0, -959086.56, -9187.642, 0.003416092, -0.032040354, -856273.94, 8816.072, 0.048651624, 10.00319, 9.989619 
6.252134e+2, 2.217136e+2, -768579.7, -886916.4, -13113.48, -0.0015226036, -0.0361753, -767143.94, 58.7565, 0.04555987, 10.003392, 9.98777 
6.252671e+2, 2.3170124e+2, -669481.06, -789745.56, -18633.54, -0.004162845, -0.060218718, -666660.2, 2663.879, 0.043225635, 10.003524, 9.987643 
6.2531996e+2, 2.4168804e+2, -580334.1, -713883.25, -18775.879, 0.0011156822, -0.04638421, -577744.6, -6291.2246, 0.04156095, 10.003593, 9.986125 
6.253754e+2, 2.5167498e+2, -480273.8, -611689.7, -16787.598, 0.0136470115, 0.007237181, -478163.2, -4581.73, 0.0396842, 10.003576, 9.986417 
6.254295e+2, 2.6166016e+2, -400291.44, -546539.06, -11441.261, 0.008489326, -0.016448982, -399401.78, -23675.143, 0.036110226, 10.003327, 9.9843 
6.254875e+2, 2.7164307e+2, -271664.72, -430699.03, -8524.24, -0.025652276, -0.14609504, -271209.13, 6684.824, 0.030348927, 10.005286, 9.984562 
6.25544e+2, 2.8162858e+2, -169097.17, -340130.0, -19333.316, -0.015165076, -0.080190286, -166938.98, 13096.849, 0.024075583, 10.0059805, 9.9837475 
6.256012e+2, 2.9161385e+2, -67598.14, -257484.69, -15111.694, 0.056352824, 0.1906776, -66403.03, 15777.282, 0.019858934, 10.006964, 9.9822 
6.2566084e+2, 3.0159172e+2, -32725.707, -233487.66, -2542.9387, -0.020096876, -0.20528111, -32693.502, -32693.502, 0.018799573, 10.006771, 9.98054 
6.257201e+2, 3.1157383e+2, 75036.24, 28407.9, -12125.6875, 0.014024909, 0.003942541, 78001.016, 78001.016, 0.020104513, 10.0052, 9.999317 
6.347196e+2, 1.3172123e+2, -1660479.8, -1642509.3, -669.94226, -0.0037522342, -0.016900027, -1642484.4, 6644.689, 0.3986437, 9.996928, 9.999784 
6.347764e+2, 1.4171837e+2, -1573897.6, -1590924.0, -5589.5825, -0.00058262114, -0.08687045, -1572226.6, -21070.21, 0.32109898, 9.998109, 9.995782 
6.348314e+2, 1.5171479e+2, -1459113.0, -1493268.5, -7652.2197, 0.010006105, 0.023810126, -1457477.0, -4284.972, 0.25318962, 9.999606, 9.995029 
6.3488674e+2, 1.6170973e+2, -1360870.0, -1411859.8, -8166.3105, 0.019250602, 0.09674692, -1359594.0, -4352.323, 0.20482565, 10.000353, 9.993523 
6.349418e+2, 1.7170198e+2, -1264038.0, -1317419.3, -9449.388, -0.008915352, -0.02912165, -1262414.8, -5097.6436, 0.1758956, 10.000417, 9.993236 
6.349968e+2, 1.816937e+2, -1167973.0, -1228936.5, -9072.313, -0.028289119, -0.12271535, -1166651.5, -7253.9814, 0.15969306, 10.000622, 9.9925 
6.350532e+2, 1.9168693e+2, -1055705.4, -1123543.4, -4436.6885, 0.0037041078, -0.07448086, -1055416.4, 6047.4985, 0.14982603, 10.001677, 9.992484 
6.351087e+2, 2.0167866e+2, -959567.25, -1053557.1, -6515.317, 0.021851365, -0.02462372, -959117.75, 4427.264, 0.14231765, 10.002672, 9.990105 
6.3516325e+2, 2.1166857e+2, -856887.2, -957938.3, -7603.1807, -0.014832445, -0.033586454, -856318.3, 9325.683, 0.13550727, 10.00326, 9.989654 
6.352164e+2, 2.2165662e+2, -774353.4, -901239.75, -12322.705, -0.042345203, -0.04139839, -773167.7, -5406.522, 0.12921391, 10.0035095, 9.986728 
6.352708e+2, 2.3164333e+2, -677613.0, -808763.75, -17890.977, 0.0026220356, -0.02950461, -675216.25, -5324.5054, 0.12399558, 10.003622, 9.986288 
6.35324e+2, 2.4162921e+2, -584209.94, -721132.56, -18116.463, 0.04140962, 0.0013026142, -581853.5, -9823.255, 0.11969438, 10.00357, 9.985636 
6.35379e+2, 2.5161567e+2, -480399.0, -611281.3, -18504.592, 0.013884198, 0.0042122686, -477833.06, -3670.2744, 0.11434344, 10.00355, 9.986456 
6.354326e+2, 2.616002e+2, -408161.13, -560821.3, -8563.459, -0.023671469, -0.032956716, -407682.28, -31368.145, 0.10449233, 10.003205, 9.983391 
6.354927e+2, 2.7158287e+2, -276782.56, -441258.47, -2771.7246, -0.043323953, -0.10402305, -276735.88, 1747.8375, 0.088948436, 10.005247, 9.983861 
6.3554996e+2, 2.8156802e+2, -173349.03, -347705.4, -19311.85, -0.018966397, -0.02400198, -171235.64, 9393.993, 0.0714231, 10.005901, 9.983293 
6.356082e+2, 2.9155245e+2, -72046.33, -263219.34, -13276.818, 0.06126751, 0.19868141, -71128.664, 11653.227, 0.05796549, 10.006802, 9.981897 
6.356677e+2, 3.0153105e+2, -40769.492, -241217.66, -10760.363, 0.00012394693, -0.12373866, -40193.516, -40193.516, 0.05158834, 10.006338, 9.980251 
6.3572574e+2, 3.1151184e+2, 71663.055, 41033.742, -18290.729, 0.095203824, 0.020476298, 80203.99, 80203.99, 0.050905704, 10.004461, 10.000674 
6.4488435e+2, 1.6164596e+2, -1369817.6, -1344265.4, 19767.045, -0.048474647, -0.16262472, -1333505.0, 22359.697, 0.39385006, 9.996377, 10.000704 
6.449428e+2, 1.7164299e+2, -1245675.0, -1290523.3, -13941.402, -0.013675059, -0.015267508, -1241694.5, 16200.126, 0.3631605, 10.001622, 9.994511 
6.449988e+2, 1.8163669e+2, -1152707.9, -1214801.3, -10195.193, 0.05480965, 0.004571019, -1151076.8, 8880.193, 0.34433386, 10.0017605, 9.992914 
6.450545e+2, 1.9162954e+2, -1064854.9, -1123743.3, -8715.089, 0.011229547, -0.022599053, -1063592.1, -1565.4537, 0.33186242, 10.000775, 9.992896 
6.451096e+2, 2.0162086e+2, -990035.7, -1065061.4, -8354.016, -0.04250699, -0.0517524, -989116.75, -25005.06, 0.32141975, 10.000396, 9.990399 
6.451664e+2, 2.1161124e+2, -864639.4, -959252.75, -6971.321, 0.0032158492, -0.03964805, -864128.5, 2077.524, 0.31100234, 10.002566, 9.989885 
6.4522135e+2, 2.2159995e+2, -757225.44, -879596.56, -9430.45, 0.03879823, -0.03266816, -756502.94, 11813.672, 0.30041274, 10.004553, 9.987697 
6.452748e+2, 2.3158732e+2, -660214.25, -785724.3, 1066.1061, -0.0025331816, -0.07080576, -660205.2, 10234.831, 0.2907109, 10.004551, 9.987443 
6.453273e+2, 2.4157232e+2, -588512.4, -754303.4, 6686.5615, -0.03551355, -0.08001463, -588243.1, -15656.195, 0.28173953, 10.004629, 9.982895 
6.453834e+2, 2.5155565e+2, -474560.4, -648207.8, -21657.438, -0.0060612685, -0.01777866, -471900.03, 2850.7668, 0.26974332, 10.005731, 9.982911 
6.454376e+2, 2.6153702e+2, -393681.25, -598869.5, -31196.064, 0.017191406, -0.00629724, -389043.16, -12109.532, 0.24780202, 10.00614, 9.979333 
6.454993e+2, 2.7151525e+2, -284566.16, -488153.34, -47809.95, 0.031437974, -0.12531035, -273897.63, 5249.15, 0.21365964, 10.006648, 9.979913 
6.455564e+2, 2.814974e+2, -175477.94, -338676.1, -76312.734, 0.047557943, -0.12216522, -145353.95, 35967.832, 0.17465498, 10.005807, 9.983929 
6.456148e+2, 2.9148316e+2, -49717.207, -226388.88, -47806.633, 0.0037294237, 0.041042313, -37610.55, 45850.754, 0.1427776, 10.00777, 9.983909 
6.456721e+2, 3.0146453e+2, -50575.246, -235128.67, -52697.79, -0.1440325, -0.17464778, -36587.906, -36587.906, 0.12436221, 10.0052595, 9.98113 
6.457264e+2, 3.1144476e+2, 4609.549, 23055.127, -49967.05, -0.053080183, -0.10640286, 64643.418, 64643.418, 0.11729242, 9.999224, 10.002064 
6.5556145e+2, 2.8142142e+2, -189680.8, -324171.94, 12068.629, -0.045030825, -0.043513983, -188606.39, -6540.488, 0.35785136, 10.003346, 9.9861765 
6.556229e+2, 2.914111e+2, -35623.94, -161712.45, 39654.95, 0.02381711, 0.03440706, -24189.387, 59977.914, 0.29647148, 10.007622, 9.988641 
6.556792e+2, 3.0139765e+2, -14138.819, -191128.72, 8738.456, 0.063989736, -0.07296605, -13708.426, -13708.426, 0.25643152, 10.00652, 9.983743 
6.5572536e+2, 3.1137967e+2, 3281.4895, 33142.605, 24405.213, 0.0016469491, 0.009417526, 46822.113, 46822.113, 0.23492554, 9.998288, 10.003848 
7.139918e+2, 1.6950315e+2, -1272779.5, -1276922.4, 5156.446, 0.13870905, -0.27100915, -1269294.0, 9556.664, 0.39580005, 9.946185, 9.945212 
7.129729e+2, 1.7944857e+2, -1184655.3, -1211693.6, -4772.137, 0.05091498, -0.16408312, -1183837.8, -2451.902, 0.36749697, 9.946456, 9.94311 
7.1195453e+2, 1.8939066e+2, -1083841.4, -1128107.3, -1728.5421, 0.061989654, -0.17821772, -1083773.9, 179.19553, 0.33911413, 9.947355, 9.941526 
7.109357e+2, 1.9933133e+2, -977911.25, -1030641.94, 1303.3358, 0.02661849, -0.20730203, -977879.06, 8654.866, 0.30851838, 9.948369, 9.940796 
7.0991594e+2, 2.0927218e+2, -877379.3, -925332.9, -1464.8875, 0.025303716, -0.24110807, -877334.6, 11778.766, 0.27875146, 9.948398, 9.941326 
7.0889807e+2, 2.1921326e+2, -784648.6, -831663.25, -5916.342, 0.0897851, -0.2778921, -783915.5, 7774.521, 0.25781506, 9.9479265, 9.941452 
7.078784e+2, 2.2915487e+2, -699073.2, -750228.06, -2627.1365, 0.014710391, -0.22309077, -698938.6, -4676.0444, 0.25602996, 9.947487, 9.940565 
7.0685947e+2, 2.3909649e+2, -594966.06, -641458.94, -12693.785, -0.15610719, -0.14353025, -591726.1, 5109.2046, 0.28139707, 9.947559, 9.941255 
7.058392e+2, 2.4903661e+2, -473701.75, -530413.4, -18166.049, 0.00008466299, -0.2603718, -468381.78, 31039.9, 0.33717704, 9.950151, 9.941171 
7.280061e+2, 1.3074985e+2, -1631552.8, -1653406.8, 4844.6724, 0.17162023, -0.20780097, -1630526.9, 28109.273, 0.38657025, 9.949741, 9.944951 
7.269898e+2, 1.4069487e+2, -1565605.9, -1579855.4, -5145.9844, 0.16444515, -0.15540594, -1563941.9, -2766.7078, 0.32062596, 9.946788, 9.944929 
7.259739e+2, 1.5064016e+2, -1500587.5, -1500417.3, -9323.194, 0.12859541, -0.1518143, -1491178.8, -27467.822, 0.26370573, 9.944493, 9.944831 
7.249564e+2, 1.6058354e+2, -1370609.9, -1407710.3, 7396.4956, 0.10779641, -0.17095345, -1369189.6, -2924.2153, 0.2228128, 9.947288, 9.942403 
7.239378e+2, 1.7052577e+2, -1276834.5, -1317829.4, 6975.9805, 0.08498072, -0.15283848, -1275679.9, -6848.5313, 0.1965221, 9.947373, 9.941775 
7.2291934e+2, 1.8046737e+2, -1176740.5, -1214734.0, 3978.1467, 0.02869959, -0.16608378, -1176328.5, -4925.131, 0.17812835, 9.947352, 9.942254 
7.2190225e+2, 1.9040976e+2, -1074231.9, -1110498.6, 3559.839, 0.09509546, -0.20039473, -1073885.8, 81.61786, 0.16184242, 9.947584, 9.94258 
7.2088486e+2, 2.0035154e+2, -981922.25, -1032152.6, -2053.5525, 0.12765163, -0.21082716, -981838.44, -5300.9854, 0.1448277, 9.947805, 9.941062 
7.198639e+2, 2.1029261e+2, -887058.5, -946398.1, -4534.882, -0.00767563, -0.1520328, -886713.94, -7598.6387, 0.1279523, 9.948065, 9.94008 
7.188441e+2, 2.2023308e+2, -788122.3, -844563.6, -9279.027, -0.09087947, -0.111645535, -786636.0, -4937.0024, 0.11534306, 9.947925, 9.940522 
7.1782607e+2, 2.301731e+2, -696002.0, -750027.7, -5707.5713, 0.0244902, -0.19070283, -695405.6, -11119.423, 0.112825066, 9.9477825, 9.940448 
7.168092e+2, 2.4011259e+2, -602268.3, -666048.44, -12216.23, 0.042830512, -0.22867553, -600008.5, -13129.937, 0.12547272, 9.947928, 9.939523 
7.157885e+2, 2.500525e+2, -480472.4, -564622.0, -13652.969, -0.116110034, -0.15671146, -478312.7, 11154.645, 0.15704016, 9.95026, 9.938864 
7.1477294e+2, 2.599903e+2, -379087.3, -487641.1, -18266.98, -0.080205105, -0.16553357, -376095.84, 15981.214, 0.20947091, 9.951579, 9.936911 
7.137583e+2, 2.6992556e+2, -327582.56, -411167.4, -1109.079, 0.10958827, -0.3238647, -327567.88, -32856.055, 0.28176302, 9.948319, 9.937247 
7.1274155e+2, 2.798691e+2, -185216.19, -198063.22, -61605.223, -0.21257965, -0.06497099, -129700.5, 67565.63, 0.36538735, 9.947742, 9.947108 
7.389693e+2, 1.2182487e+2, -1767932.9, -1784226.1, -13444.145, 0.16847047, -0.08647466, -1760359.6, -14256.972, 0.32493475, 9.946393, 9.944614 
7.379519e+2, 1.3176857e+2, -1649377.8, -1666726.8, 4891.694, 0.055254582, -0.18855269, -1648093.6, 560.80505, 0.25898266, 9.947501, 9.945049 
7.369367e+2, 1.4171447e+2, -1546669.3, -1566159.3, 8980.05, 0.104314074, -0.08879319, -1543162.6, 8021.7046, 0.19368057, 9.947997, 9.945 
7.359215e+2, 1.516591e+2, -1440714.0, -1469019.1, 3742.4644, 0.08548571, -0.11611332, -1440227.6, 13499.264, 0.13986363, 9.948855, 9.944572 
7.3490494e+2, 1.6160259e+2, -1342205.3, -1391590.3, -7367.767, 0.090838246, -0.1227508, -1341129.5, 15151.158, 0.103883736, 9.949608, 9.942662 
7.338867e+2, 1.7154485e+2, -1244621.4, -1299766.1, -5546.406, 0.08982189, -0.1347669, -1244069.1, 14777.034, 0.083562806, 9.949782, 9.942062 
7.3286855e+2, 1.8148652e+2, -1148724.4, -1205087.5, -4543.9736, 0.07504661, -0.14436626, -1148360.4, 13057.027, 0.072091475, 9.949687, 9.941877 
7.318507e+2, 1.9142851e+2, -1053647.9, -1109238.5, -5443.892, 0.075490125, -0.15112738, -1053119.9, 10865.66, 0.06384599, 9.949574, 9.941853 
7.308329e+2, 2.0136978e+2, -962694.8, -1027286.25, -12667.016, 0.07007663, -0.1525669, -960299.5, 6261.2188, 0.056054924, 9.949469, 9.940807 
7.29813e+2, 2.1131052e+2, -860407.8, -935154.4, -11587.791, -0.001225004, -0.12798096, -858652.56, 10489.155, 0.04850443, 9.950139, 9.94007 
7.287939e+2, 2.2125033e+2, -755176.0, -838213.9, -14511.55, -0.050336108, -0.11051866, -752713.06, 19018.674, 0.042792164, 9.950818, 9.939648 
7.277757e+2, 2.3118955e+2, -656148.0, -742934.5, -13197.117, 0.030793807, -0.17308526, -654185.56, 20141.121, 0.04149413, 9.951136, 9.939498 
7.267587e+2, 2.41128e+2, -569030.3, -666060.3, -17818.172, 0.046074297, -0.20437446, -565861.75, 11067.615, 0.0472343, 9.950895, 9.9383 
7.257385e+2, 2.51067e+2, -476270.06, -578762.2, -11724.39, -0.15791291, -0.10955637, -474945.97, 4581.0225, 0.06280185, 9.950951, 9.937745 
7.247228e+2, 2.610043e+2, -388071.03, -506332.5, -17797.045, -0.20856138, -0.07361699, -385450.84, -3309.1687, 0.09126705, 9.950797, 9.93615 
7.2370845e+2, 2.7093852e+2, -276878.3, -401101.28, -11005.952, 0.09666272, -0.24959329, -275910.72, 8875.58, 0.13469256, 9.95193, 9.936303 
7.226938e+2, 2.8087276e+2, -210672.75, -360524.66, -17048.871, 0.037626382, -0.26961735, -208757.56, -21327.283, 0.19060124, 9.950955, 9.933036 
7.216704e+2, 2.908095e+2, -57339.836, -198543.45, -24120.885, -0.52878493, 0.006400812, -53333.117, 36716.34, 0.25056764, 9.954173, 9.935967 
7.206692e+2, 3.0073935e+2, -96635.25, -335845.22, 45868.16, 0.14072397, -0.27401972, -88141.68, -88141.68, 0.30472815, 9.95357, 9.92472 
7.1966016e+2, 3.106609e+2, -32868.402, -36410.754, 32633.514, -0.15916729, -0.14093448, -1958.0348, -1958.0348, 0.34870553, 9.944838, 9.943505 
7.489174e+2, 1.22839235e+2, -1738738.8, -1729835.4, 11565.82, 0.33595407, -0.12926327, -1721894.1, 14269.782, 0.23778631, 9.947261, 9.948478 
7.479002e+2, 1.3278556e+2, -1632002.4, -1644103.1, -3330.5544, 0.1086315, -0.18557945, -1631146.3, 7543.472, 0.17853287, 9.948338, 9.946496 
7.4688625e+2, 1.4273134e+2, -1539281.8, -1569950.3, -368.14822, 0.21914485, -0.1487335, -1539277.4, 1943.3359, 0.120985776, 9.948843, 9.9446 
7.458708e+2, 1.5267576e+2, -1446716.3, -1480219.8, -315.84576, 0.1444288, -0.14322849, -1446713.3, -2948.1575, 0.0749508, 9.948719, 9.9440365 
7.448542e+2, 1.6261922e+2, -1349690.0, -1392220.8, -9679.148, 0.09614789, -0.13895851, -1347590.9, -1271.6758, 0.045711238, 9.948875, 9.943076 
7.438365e+2, 1.7256218e+2, -1241649.1, -1293844.0, -9468.037, 0.1019702, -0.1405434, -1239984.8, 8893.112, 0.030768666, 9.949759, 9.942617 
7.4281853e+2, 1.8250415e+2, -1145291.9, -1208054.4, -10933.578, 0.09332369, -0.13705453, -1143441.8, 8004.528, 0.023860537, 9.950094, 9.941602 
7.4180007e+2, 1.9244581e+2, -1052229.3, -1116562.3, -10860.34, 0.043942016, -0.1260976, -1050445.4, 3572.539, 0.020094704, 9.949993, 9.941241 
7.4078184e+2, 2.0238666e+2, -957842.94, -1027801.75, -15867.817, 0.010600635, -0.1196128, -954412.06, 2185.3813, 0.017162587, 9.949979, 9.940625 
7.397635e+2, 2.1232697e+2, -855537.56, -933263.44, -14368.708, 0.021499524, -0.14289077, -852966.4, 6215.751, 0.01453404, 9.950589, 9.940127 
7.3874557e+2, 2.2226629e+2, -757861.6, -848623.25, -19505.809, 0.023326747, -0.15329592, -753847.1, 7929.591, 0.012616726, 9.951032, 9.9389925 
7.377265e+2, 2.3220526e+2, -661315.94, -758079.75, -18131.104, -0.00062914, -0.1463024, -658030.2, 6344.2085, 0.012286084, 9.951315, 9.938492 
7.3670876e+2, 2.4214327e+2, -568357.6, -672634.6, -23767.996, -0.044282947, -0.13797182, -563195.6, 3785.782, 0.014651491, 9.951264, 9.937745 
7.3569006e+2, 2.5208095e+2, -470439.34, -579547.44, -18400.393, -0.1078145, -0.13844192, -467419.78, 2172.657, 0.021308001, 9.95159, 9.937459 
7.346749e+2, 2.6201746e+2, -379769.66, -504383.38, -20480.818, -0.09031054, -0.14646138, -376489.88, -4275.437, 0.034577146, 9.951686, 9.935957 
7.336598e+2, 2.7195305e+2, -265997.6, -392150.6, -10913.886, 0.036439687, -0.19608647, -265060.38, 9784.942, 0.05690603, 9.952627, 9.936544 
7.3264414e+2, 2.8188816e+2, -195201.84, -344368.63, -12140.537, -0.06335383, -0.18725094, -194220.19, -16739.332, 0.08905003, 9.951878, 9.933383 
7.3162353e+2, 2.9182252e+2, -87531.305, -228357.31, -11374.838, -0.39759326, -0.109629124, -86618.45, -6494.4683, 0.12864488, 9.951848, 9.93467 
7.306191e+2, 3.0175447e+2, -83425.33, -234355.9, 50076.26, 0.09820333, -0.342318, -68322.18, -68322.18, 0.17077787, 9.950576, 9.932418 
7.2960705e+2, 3.1168878e+2, 122498.13, 167200.92, -61008.582, -0.31567374, -0.19420208, 209823.61, 209823.61, 0.21088944, 9.951133, 9.958672 
7.5886387e+2, 1.2385333e+2, -1721147.5, -1737756.0, -5607.7197, 0.14660625, -0.116932005, -1719431.4, 6796.1855, 0.17498739, 9.948933, 9.946728 
7.5784975e+2, 1.3380088e+2, -1607366.0, -1629361.4, -4464.1, 0.116421424, -0.08766599, -1606494.5, 22246.982, 0.1261487, 9.950158, 9.946796 
7.568356e+2, 1.4374636e+2, -1514887.8, -1553739.9, -6532.402, 0.16815768, -0.10629966, -1513818.9, 17456.352, 0.079539225, 9.9504795, 9.945005 
7.558203e+2, 1.5369108e+2, -1421861.3, -1463148.8, -5195.5615, 0.12823234, -0.12433515, -1421217.4, 12599.106, 0.04321595, 9.950245, 9.944516 
7.5480384e+2, 1.6363478e+2, -1328744.1, -1380639.9, -10379.414, 0.095115334, -0.1297507, -1326745.1, 9622.849, 0.02111174, 9.950306, 9.943294 
7.5378686e+2, 1.7357804e+2, -1223127.0, -1283968.3, -10682.536, 0.08758919, -0.12153819, -1221305.9, 17618.12, 0.0106813945, 9.951044, 9.942799 
7.5276923e+2, 1.8352003e+2, -1127548.5, -1202154.5, -14016.027, 0.07660364, -0.11874268, -1125002.3, 16490.03, 0.0066066408, 9.951407, 9.941474 
7.51751e+2, 1.9346137e+2, -1031032.25, -1109535.8, -13601.551, 0.04791419, -0.12253915, -1028742.44, 15324.399, 0.0049766195, 9.951522, 9.941062 
7.507329e+2, 2.0340185e+2, -936197.94, -1023090.6, -15805.955, 0.022223027, -0.12257937, -933412.1, 13237.935, 0.0040492215, 9.951659, 9.940228 
7.49715e+2, 2.1334195e+2, -835205.3, -928670.5, -15010.822, 0.019532736, -0.13188748, -832853.7, 16383.268, 0.0033388138, 9.9521055, 9.939831 
7.4869716e+2, 2.23281e+2, -742151.5, -847549.1, -19766.457, 0.016041996, -0.13629678, -738566.44, 13267.795, 0.0028654987, 9.952227, 9.938614 
7.4767834e+2, 2.3321961e+2, -645523.9, -756151.3, -16695.371, -0.015167585, -0.12516978, -643059.2, 11376.342, 0.0028548136, 9.952421, 9.938143 
7.466606e+2, 2.4315715e+2, -554409.6, -673931.8, -17750.727, -0.056141075, -0.118708454, -551829.1, 5218.174, 0.0036927187, 9.952329, 9.937169 
7.456428e+2, 2.5309402e+2, -457689.75, -579562.75, -12420.776, -0.06859799, -0.14583775, -456436.75, 3229.1736, 0.0060979933, 9.952407, 9.937017 
7.446274e+2, 2.6303032e+2, -371626.63, -500354.3, -10383.34, -0.042614754, -0.15703738, -370794.47, -8504.773, 0.011336022, 9.951926, 9.936122 
7.436117e+2, 2.7296695e+2, -269660.75, -393364.44, -6794.556, -0.023078429, -0.13843322, -269288.66, -4378.264, 0.021171428, 9.95189, 9.936862 
7.4259543e+2, 2.8290296e+2, -191745.27, -337107.5, -11003.665, -0.11396678, -0.1116751, -190917.02, -23379.457, 0.03724459, 9.951575, 9.934115 
7.4157673e+2, 2.928372e+2, -90588.01, -237886.31, -7853.5415, -0.23833348, -0.07190446, -90170.46, -19987.926, 0.059879076, 9.951756, 9.934072 
7.4056864e+2, 3.0277237e+2, -55577.77, -179694.47, 43382.934, 0.0155642135, -0.08162568, -41917.445, -41917.445, 0.08709371, 9.950853, 9.936027 
7.395588e+2, 3.127076e+2, 8998.771, -39247.35, -73327.53, -0.29226065, -0.19684824, 62069.293, 62069.293, 0.11548235, 9.950048, 9.943271 
7.688128e+2, 1.2486818e+2, -1713508.8, -1728772.8, -480.48605, 0.14246127, -0.049192827, -1713493.6, 2789.9438, 0.12768447, 9.949325, 9.947198 
7.677996e+2, 1.3481528e+2, -1612159.8, -1634967.5, -3646.6824, 0.1273549, -0.04077438, -1611590.9, 7211.0054, 0.0897246, 9.949835, 9.946625 
7.667853e+2, 1.4476101e+2, -1514472.6, -1547939.8, -8529.269, 0.12535134, -0.05513232, -1512424.3, 8909.177, 0.054136056, 9.950231, 9.945574 
7.657704e+2, 1.5470622e+2, -1411561.3, -1452656.8, -9101.964, 0.10697248, -0.08474739, -1409635.6, 14234.336, 0.02707615, 9.950756, 9.945059 
7.647543e+2, 1.6465013e+2, -1319086.8, -1375722.9, -13378.456, 0.087397635, -0.09702948, -1316085.5, 10333.683, 0.011202649, 9.951043, 9.9434 
7.637378e+2, 1.745935e+2, -1219470.5, -1281575.3, -14283.476, 0.07429228, -0.09293812, -1216343.0, 12631.127, 0.0041621407, 9.95135, 9.942954 
7.627205e+2, 1.8453555e+2, -1124167.6, -1201040.1, -18372.95, 0.06485122, -0.09453558, -1120002.1, 11539.581, 0.0017368137, 9.951737, 9.94152 
7.617028e+2, 1.9447681e+2, -1022241.25, -1106433.9, -18118.822, 0.055522576, -0.11056501, -1018507.56, 15609.547, 0.00100352, 9.952238, 9.941032 
7.6068485e+2, 2.0441712e+2, -928404.0, -1022605.9, -19099.06, 0.035569094, -0.11385551, -924679.06, 12022.807, 0.0007333887, 9.952419, 9.940007 
7.59667e+2, 2.1435715e+2, -831669.94, -929954.94, -18571.838, 0.0076503484, -0.10704377, -828277.7, 11011.899, 0.00057986495, 9.952569, 9.939611 
7.5864923e+2, 2.2429611e+2, -737647.1, -847048.2, -23805.693, -0.008522251, -0.10222443, -732691.44, 9196.178, 0.0004934505, 9.952703, 9.938506 
7.576308e+2, 2.3423448e+2, -637841.56, -753228.8, -21689.465, -0.017490963, -0.10803345, -633899.25, 10592.167, 0.0005155871, 9.953071, 9.938105 
7.566132e+2, 2.4417187e+2, -545729.56, -670785.3, -21890.955, -0.03604352, -0.11322169, -542008.3, 5096.4697, 0.0007560933, 9.953079, 9.937096 
7.555953e+2, 2.5410885e+2, -448986.8, -575453.9, -17781.436, -0.05874672, -0.122726426, -446534.28, 3187.9734, 0.0014693129, 9.953098, 9.936981 
7.5457925e+2, 2.6404533e+2, -366075.3, -499845.13, -14072.275, -0.06984481, -0.11109513, -364610.97, -12266.177, 0.0031908485, 9.95259, 9.935824 
7.5356305e+2, 2.7398142e+2, -269917.75, -400080.03, -11579.416, -0.081509344, -0.092086196, -268895.66, -13924.962, 0.0068729003, 9.952327, 9.93617 
7.5254744e+2, 2.8391677e+2, -179414.81, -320869.63, -11479.287, -0.110514626, -0.11727173, -178489.31, -20885.48, 0.013774034, 9.952266, 9.934913 
7.515306e+2, 2.9385132e+2, -66606.96, -214923.56, -4102.97, -0.14098024, -0.15115869, -66493.55, -6248.4272, 0.024710014, 9.953191, 9.934907 
7.50519e+2, 3.0378747e+2, -42688.098, -174828.84, 32312.205, -0.120035306, -0.05672487, -35210.03, -35210.03, 0.039040085, 9.9519005, 9.935439 
7.4951094e+2, 3.1372398e+2, 31784.7, 49301.805, 1084.2246, 0.01794079, 0.00485065, 49368.656, 49368.656, 0.05480973, 9.94934, 9.951212 
7.7876365e+2, 1.2588166e+2, -1690147.6, -1719126.4, 559.6013, 0.19548938, -0.07071902, -1690136.8, 16216.265, 0.09095766, 9.9510355, 9.94706 
7.7775043e+2, 1.3582847e+2, -1592877.5, -1626894.0, -953.51166, 0.14852285, -0.08352432, -1592850.8, 16023.449, 0.06282223, 9.951153, 9.946523 
7.767362e+2, 1.4577447e+2, -1495908.4, -1536473.4, -4204.2495, 0.12713142, -0.07826982, -1495477.3, 15925.762, 0.036900293, 9.951335, 9.945833 
7.757218e+2, 1.5572035e+2, -1395139.5, -1442767.0, -6206.4795, 0.11652517, -0.06586251, -1394344.0, 19589.21, 0.017632606, 9.951719, 9.945289 
7.74706e+2, 1.6566451e+2, -1304281.8, -1368712.9, -10490.214, 0.0970343, -0.06763888, -1302616.9, 13863.34, 0.0066743675, 9.951961, 9.943468 
7.736897e+2, 1.756078e+2, -1204144.8, -1274344.8, -11493.803, 0.07428545, -0.07726683, -1202310.8, 16724.861, 0.0020335538, 9.952279, 9.943026 
7.726728e+2, 1.8554994e+2, -1108560.5, -1193027.1, -13628.737, 0.06264632, -0.08109423, -1106415.9, 15186.595, 0.00056177605, 9.952689, 9.941655 
7.716557e+2, 1.9549143e+2, -1004461.25, -1097168.9, -13612.569, 0.0580093, -0.08599868, -1002503.8, 21671.781, 0.00019363454, 9.953299, 9.941182 
7.70638e+2, 2.0543177e+2, -913245.1, -1017742.56, -15518.036, 0.038150582, -0.08787064, -910989.4, 15770.705, 0.00010600371, 9.953375, 9.939874 
7.6962006e+2, 2.153716e+2, -820286.4, -926823.94, -14896.414, 0.0070971013, -0.086126864, -818242.75, 11107.044, 0.00007635061, 9.953236, 9.939479 
7.686023e+2, 2.253104e+2, -728502.2, -844951.25, -16887.87, -0.011684403, -0.08511529, -726102.5, 5846.901, 0.000064256754, 9.953246, 9.938388 
7.675843e+2, 2.3524864e+2, -627092.7, -749549.9, -15114.732, -0.017575603, -0.092007555, -625254.7, 9299.568, 0.00007271938, 9.953636, 9.938068 
7.6656675e+2, 2.4518594e+2, -536990.4, -670128.25, -16365.817, -0.03274037, -0.096611194, -535008.2, 2160.4502, 0.00012675358, 9.953588, 9.936889 
7.655488e+2, 2.5512284e+2, -441557.06, -575041.56, -15327.738, -0.05863976, -0.09600263, -439819.63, -32.78172, 0.00029722086, 9.953482, 9.936837 
7.64532e+2, 2.6505932e+2, -357181.72, -495378.1, -11827.166, -0.081340656, -0.08181861, -356176.8, -13767.56, 0.0007643975, 9.953019, 9.935883 
7.635154e+2, 2.7499524e+2, -267993.84, -402545.22, -7753.386, -0.0967915, -0.07495964, -267548.53, -22511.64, 0.0019207131, 9.952468, 9.935812 
7.6249975e+2, 2.8493035e+2, -174648.73, -311399.84, -6490.445, -0.107834525, -0.12517287, -174341.39, -26668.959, 0.0043845186, 9.952288, 9.935467 
7.6148355e+2, 2.9486516e+2, -74498.805, -214383.88, -4470.2173, -0.12303928, -0.19441201, -74356.1, -24045.674, 0.008656689, 9.952568, 9.935307 
7.6047015e+2, 3.0480126e+2, -50492.72, -186328.48, 13787.197, -0.16767927, -0.06702181, -49107.46, -49107.46, 0.014571926, 9.951787, 9.934521 
7.594579e+2, 3.1473538e+2, -12669.975, -51106.23, -2413.3018, -0.26630643, -0.12730083, -12519.043, -12519.043, 0.021283846, 9.949549, 9.944517 
7.887144e+2, 1.2689492e+2, -1686198.1, -1709523.5, -4295.267, 0.18669361, -0.05658888, -1685432.4, 10992.225, 0.06232195, 9.951047, 9.947894 
7.877019e+2, 1.368423e+2, -1579299.1, -1614382.3, -4363.9106, 0.15375257, -0.086856596, -1578764.5, 20175.607, 0.042461146, 9.951953, 9.947086 
7.8668797e+2, 1.4678851e+2, -1484093.4, -1531941.3, -7483.4404, 0.13382047, -0.08143351, -1482950.4, 18516.705, 0.024464397, 9.952275, 9.945781 
7.8567386e+2, 1.567345e+2, -1386288.9, -1438989.0, -10846.884, 0.12530048, -0.05706681, -1384143.6, 19852.605, 0.011363006, 9.952421, 9.945318 
7.8465825e+2, 1.6667886e+2, -1292852.9, -1360776.9, -13729.754, 0.1045551, -0.056025296, -1290182.6, 16358.629, 0.004107627, 9.952745, 9.943754 
7.8364235e+2, 1.7662236e+2, -1189789.9, -1265560.9, -14438.702, 0.07559865, -0.070679985, -1187131.8, 21962.883, 0.0011430016, 9.953276, 9.943237 
7.826257e+2, 1.8656471e+2, -1098120.6, -1186877.9, -16212.996, 0.06099841, -0.06950111, -1095251.8, 16407.629, 0.00025201778, 9.953453, 9.941813 
7.81609e+2, 1.965065e+2, -1000185.94, -1093788.8, -17320.203, 0.05548015, -0.064184405, -997083.8, 17145.941, 0.000051052633, 9.953623, 9.941366 
7.805914e+2, 2.0644696e+2, -907204.6, -1015433.7, -20349.404, 0.035566155, -0.06465368, -903505.0, 13308.201, 0.000014643751, 9.953883, 9.939881 
7.7957344e+2, 2.1638672e+2, -808117.9, -921425.4, -19879.52, 0.004959822, -0.06990409, -804731.3, 14672.156, 0.000007891268, 9.954138, 9.939488 
7.7855575e+2, 2.2632551e+2, -716124.1, -838876.4, -19740.365, -0.01352099, -0.07228024, -713027.7, 8975.2705, 0.0000063803336, 9.954201, 9.938436 
7.7753806e+2, 2.3626384e+2, -618327.75, -745630.7, -18598.756, -0.023151934, -0.07822215, -615666.2, 8940.935, 0.000008125181, 9.954355, 9.938061 
7.7652043e+2, 2.46201e+2, -531750.4, -671601.0, -20139.959, -0.040626176, -0.07573296, -528907.75, -1684.8323, 0.000017541395, 9.954233, 9.9365015 
7.755024e+2, 2.5613755e+2, -437267.9, -576748.4, -18664.81, -0.06534351, -0.06990721, -434813.44, -4968.655, 0.000050392326, 9.954044, 9.936441 
7.7448523e+2, 2.660739e+2, -347839.44, -483255.0, -15611.965, -0.078517966, -0.074067384, -346062.84, -13594.876, 0.00015504382, 9.953439, 9.936423 
7.734681e+2, 2.7601007e+2, -262894.7, -394483.63, -9393.615, -0.08387917, -0.092533186, -262227.5, -27134.53, 0.00045366073, 9.952683, 9.936141 
7.724523e+2, 2.8594568e+2, -172149.16, -309017.97, -2830.4202, -0.10587219, -0.09579999, -172090.64, -34366.844, 0.0011576399, 9.952646, 9.935324 
7.714363e+2, 2.9588112e+2, -72403.31, -217815.47, 284.937, -0.14057425, -0.07853216, -72402.76, -32046.674, 0.0024536739, 9.953138, 9.934655 
7.704227e+2, 3.0581477e+2, -49225.72, -189567.94, 7246.572, -0.12119563, -0.116393685, -48852.535, -48852.535, 0.004306253, 9.952054, 9.933822 
7.694084e+2, 3.1574807e+2, 45602.016, 66437.0, -21050.77, -0.1635099, -0.22136368, 79506.93, 79506.93, 0.006445829, 9.949289, 9.952158 
7.986661e+2, 1.2790783e+2, -1660968.6, -1688798.4, 4044.7573, 0.17440039, -0.039319932, -1660392.8, 26107.025, 0.04048696, 9.952337, 9.948649 
7.976544e+2, 1.3785633e+2, -1558817.4, -1598585.9, 1385.8143, 0.14507589, -0.031059828, -1558769.1, 30235.072, 0.027255554, 9.952972, 9.947651 
7.9664063e+2, 1.478026e+2, -1471435.5, -1527258.4, -2193.145, 0.12603834, -0.036345813, -1471349.5, 20181.004, 0.015450949, 9.953011, 9.945721 
7.9562664e+2, 1.5774824e+2, -1374048.3, -1433368.6, -4930.5303, 0.117496826, -0.04263694, -1373641.3, 20421.973, 0.0070204227, 9.953075, 9.945339 
7.9461145e+2, 1.6769274e+2, -1278621.4, -1350074.6, -5704.7964, 0.10198404, -0.050858356, -1278168.9, 18437.918, 0.0024614362, 9.953392, 9.944153 
7.935961e+2, 1.7763665e+2, -1176607.9, -1256247.5, -7250.708, 0.07979941, -0.062055957, -1175953.1, 23202.887, 0.00065384543, 9.953861, 9.943551 
7.925795e+2, 1.8757921e+2, -1088796.9, -1183001.6, -9815.039, 0.05779914, -0.05358121, -1087785.1, 13933.872, 0.00013178977, 9.953879, 9.941836 
7.9156274e+2, 1.9752112e+2, -992655.3, -1090295.0, -11000.965, 0.040413763, -0.040777624, -991431.2, 12857.252, 0.000020838195, 9.953904, 9.941442 
7.905456e+2, 2.0746164e+2, -897535.9, -1010293.94, -11662.259, 0.026931692, -0.044988517, -896342.3, 10528.869, 0.0000030700385, 9.954339, 9.940004 
7.895283e+2, 2.1740146e+2, -793020.9, -914130.44, -11834.293, 0.011037165, -0.05501581, -791875.3, 17585.33, 0.0000007639017, 9.95494, 9.939573 
7.885106e+2, 2.2734018e+2, -704270.06, -836909.75, -14025.282, -0.008768102, -0.055019453, -702803.25, 9257.901, 0.00000049697223, 9.954919, 9.938194 
7.874928e+2, 2.3727836e+2, -611554.7, -745342.8, -14994.369, -0.026833413, -0.054975484, -609894.75, 4772.1216, 0.00000073282047, 9.954698, 9.937924 
7.8647494e+2, 2.4721555e+2, -523264.9, -665649.25, -15785.115, -0.045306373, -0.05457217, -521535.9, -4253.838, 0.0000020190055, 9.954533, 9.936732 
7.854568e+2, 2.5715223e+2, -427660.63, -571226.7, -12543.482, -0.064040676, -0.053869575, -426572.9, -6670.354, 0.0000071888917, 9.954446, 9.936532 
7.844391e+2, 2.670885e+2, -334614.16, -477751.38, -15029.14, -0.07674247, -0.06478367, -333053.13, -10526.516, 0.000026478067, 9.954182, 9.936403 
7.834213e+2, 2.7702472e+2, -245280.28, -386974.13, -14143.673, -0.08362659, -0.09084052, -243882.28, -18730.924, 0.00008839254, 9.953767, 9.936256 
7.824052e+2, 2.869608e+2, -164135.56, -304702.7, -9628.992, -0.09702229, -0.057855554, -163479.03, -35701.715, 0.00024479034, 9.953114, 9.935549 
7.8138924e+2, 2.96897e+2, -85908.44, -225650.64, -5714.651, -0.11763825, 0.015020605, -85675.125, -55272.59, 0.0005433046, 9.952191, 9.934718 
7.8037417e+2, 3.0682954e+2, -48341.81, -180680.72, 2974.4648, -0.13385196, -0.18290077, -48274.99, -48274.99, 0.0009777434, 9.95135, 9.93462 
7.793573e+2, 3.1676468e+2, 24404.43, -13398.846, -5602.198, -0.22479329, -0.13214895, 25217.166, 25217.166, 0.0014843888, 9.950594, 9.945905 
8.086188e+2, 1.289208e+2, -1651678.6, -1685294.6, -879.553, 0.18252355, -0.0201475, -1651655.6, 24918.596, 0.024554512, 9.953159, 9.9486685 
8.076074e+2, 1.3886954e+2, -1550518.9, -1593624.0, -8035.126, 0.13567692, 0.0001422762, -1549069.9, 30006.746, 0.016354568, 9.95361, 9.947904 
8.065938e+2, 1.488163e+2, -1458773.9, -1515524.8, -10416.053, 0.11537662, -0.008765084, -1456922.5, 24675.586, 0.009139995, 9.953733, 9.946378 
8.0557996e+2, 1.5876235e+2, -1359655.1, -1422600.9, -10630.071, 0.10956139, -0.028054707, -1357908.5, 26218.014, 0.0040751924, 9.953991, 9.945758 
8.04565e+2, 1.6870722e+2, -1267172.4, -1342299.1, -10432.925, 0.09756826, -0.03285497, -1265750.4, 20916.148, 0.0013936987, 9.954179, 9.944464 
8.0355006e+2, 1.7865154e+2, -1168236.8, -1250028.5, -13775.102, 0.08004442, -0.03748684, -1165979.1, 23232.883, 0.0003581768, 9.954419, 9.943877 
8.025335e+2, 1.8859436e+2, -1076726.0, -1175588.6, -15190.653, 0.05447497, -0.031585768, -1074444.5, 17327.691, 0.00006886962, 9.954706, 9.942088 
8.0151683e+2, 1.9853647e+2, -976405.56, -1080968.8, -14762.791, 0.028412843, -0.021139143, -974361.25, 19978.494, 0.000009974997, 9.955025, 9.941646 
8.005001e+2, 2.084772e+2, -884590.06, -1001969.8, -13519.743, 0.021258948, -0.026942737, -883053.0, 13867.35, 0.0000011239581, 9.955246, 9.940241 
7.994835e+2, 2.1841721e+2, -786195.7, -910641.5, -14395.626, 0.017527545, -0.040067915, -784552.1, 14955.908, 0.00000012112886, 9.955491, 9.939628 
7.984656e+2, 2.283558e+2, -698953.9, -838061.44, -17400.68, -0.005242149, -0.034461733, -696810.3, 5299.696, 0.000000034023827, 9.955504, 9.9378605 
7.974475e+2, 2.382937e+2, -603574.6, -742982.44, -17324.742, -0.033434574, -0.027476046, -601453.9, 3264.632, 0.000000054198487, 9.955369, 9.937757 
7.964296e+2, 2.4823105e+2, -512425.7, -654850.2, -17558.088, -0.050319403, -0.033985026, -510293.06, -2960.9148, 0.00000019611787, 9.95513, 9.937161 
7.954113e+2, 2.5816795e+2, -422617.16, -568736.2, -14300.48, -0.06470193, -0.044104923, -421230.72, -11280.678, 0.0000008744322, 9.954892, 9.936459 
7.9439336e+2, 2.6810348e+2, -339630.22, -492616.66, -17727.957, -0.07862851, -0.049234714, -337602.8, -25021.021, 0.0000037938312, 9.954491, 9.935179 
7.9337513e+2, 2.780386e+2, -250740.9, -401431.97, -17503.043, -0.09103984, -0.059639122, -248734.61, -33517.094, 0.0000139938475, 9.954015, 9.935118 
7.923582e+2, 2.8797397e+2, -167259.19, -310430.03, -17961.703, -0.10884686, -0.023783889, -165040.16, -47189.426, 0.000040889794, 9.953147, 9.935085 
7.913411e+2, 2.9790974e+2, -85379.555, -219435.8, -13803.581, -0.13615456, 0.037106387, -83972.98, -63492.742, 0.00009330214, 9.952098, 9.935198 
7.903261e+2, 3.0784428e+2, -14335.196, -126137.195, -596.86896, -0.12403631, -0.17472546, -14332.01, -14332.01, 0.0001703714, 9.952301, 9.937853 
7.8930974e+2, 3.1778485e+2, 20968.85, -55144.453, -6801.853, -0.15383591, 0.20092826, 21571.918, 21571.918, 0.000260674, 9.952159, 9.942113 
8.1857264e+2, 1.2993346e+2, -1634526.8, -1678379.9, 7371.8223, 0.18709967, -0.001820314, -1633320.8, 33331.05, 0.013656359, 9.954211, 9.948549 
8.175614e+2, 1.398819e+2, -1539295.0, -1585719.4, 305.1811, 0.13121258, -0.003475802, -1539293.0, 29864.174, 0.00901513, 9.95405, 9.94809 
8.1654775e+2, 1.4982931e+2, -1444623.6, -1499150.3, -820.17444, 0.110890545, -0.009752257, -1444611.3, 27060.797, 0.0049783196, 9.9540615, 9.947246 
8.155342e+2, 1.5977627e+2, -1348537.4, -1411709.5, -1961.7795, 0.10675432, -0.01758346, -1348476.5, 25715.186, 0.0021846793, 9.954275, 9.946276 
8.145194e+2, 1.6972154e+2, -1260041.9, -1338505.3, -1170.5621, 0.09447258, -0.0027678336, -1260024.4, 16703.773, 0.0007317571, 9.954406, 9.944553 
8.135047e+2, 1.7966615e+2, -1159862.9, -1243614.8, -4955.0493, 0.076364085, 0.007945836, -1159570.8, 19700.389, 0.0001830531, 9.954636, 9.94415 
8.124886e+2, 1.8960918e+2, -1065249.9, -1164845.8, -4932.6807, 0.05969588, -0.009540225, -1065006.1, 16822.727, 0.000033989887, 9.955038, 9.942616 
8.114725e+2, 1.9955154e+2, -962862.0, -1070124.4, -5035.6006, 0.04194301, -0.024331173, -962626.1, 21767.326, 0.000004694803, 9.95551, 9.942084 
8.1045574e+2, 2.0949271e+2, -874070.94, -994680.1, -4601.783, 0.02374736, -0.018864373, -873895.6, 13074.288, 0.00000048598577, 9.955594, 9.940497 
8.09439e+2, 2.1943308e+2, -779125.7, -905687.44, -5590.1895, 0.008181158, -0.015643895, -778879.25, 10674.776, 0.00000003892823, 9.955638, 9.939824 
8.0842143e+2, 2.2937182e+2, -688040.3, -830931.44, -7250.135, -0.0124322325, -0.014796764, -687673.4, 4481.19, 0.0000000035518475, 9.955923, 9.938049 
8.074035e+2, 2.3930982e+2, -587156.6, -734529.9, -6747.726, -0.034874916, -0.012903975, -586848.3, 7913.885, 0.000000003551514, 9.9562, 9.93779 
8.063853e+2, 2.4924707e+2, -497819.6, -649794.1, -10948.382, -0.04751549, -0.016149497, -497034.94, 341.89932, 0.000000017426377, 9.95596, 9.936993 
8.053667e+2, 2.5918385e+2, -410869.38, -565957.1, -11330.583, -0.060134932, -0.02300236, -410045.94, -10050.105, 0.00000009789156, 9.9555855, 9.936298 
8.0434823e+2, 2.6911917e+2, -328485.3, -490813.0, -12289.378, -0.08046507, -0.026081482, -327560.2, -24930.305, 0.0000004874641, 9.95518, 9.934821 
8.0332935e+2, 2.7905384e+2, -241628.63, -401971.34, -7537.335, -0.096192956, -0.031245105, -241275.1, -36004.883, 0.0000019299252, 9.954615, 9.934513 
8.023113e+2, 2.8898856e+2, -161362.56, -311503.16, -9811.132, -0.12215834, -0.00091024383, -160724.16, -52814.355, 0.0000058363808, 9.953431, 9.9345045 
8.012929e+2, 2.9892385e+2, -76954.266, -205950.17, -3303.5867, -0.1582701, 0.047886696, -76869.71, -66325.9, 0.000013543041, 9.95209, 9.935819 
8.0027866e+2, 3.088605e+2, -5228.669, -90295.19, 4174.865, -0.07154342, -0.15587114, -5024.2676, -5024.2676, 0.00002494105, 9.951533, 9.940559 
7.9926056e+2, 3.1879956e+2, -26238.32, -124221.18, -19964.498, -0.22013186, -0.070398554, -22326.62, -22326.62, 0.000038326747, 9.950448, 9.938161 
8.285271e+2, 1.3094643e+2, -1615530.1, -1661268.6, -180.41064, 0.17185047, 0.015176849, -1615529.5, 41197.203, 0.006829297, 9.955244, 9.949288 
8.2751566e+2, 1.4089538e+2, -1528253.9, -1575026.8, -5352.9883, 0.13992445, 0.0056558233, -1527649.0, 31577.691, 0.0044781193, 9.954659, 9.948546 
8.26502e+2, 1.5084334e+2, -1432214.5, -1487807.1, -4271.035, 0.114949055, 0.0044665993, -1431888.4, 29848.283, 0.0024504783, 9.954792, 9.947789 
8.2548875e+2, 1.6079092e+2, -1333361.8, -1399640.8, -7973.442, 0.10657611, 0.0043030637, -1332416.0, 31834.002, 0.0010623109, 9.955199, 9.946791 
8.2447404e+2, 1.7073667e+2, -1245185.5, -1327022.8, -4702.8584, 0.09122163, 0.018858457, -1244916.1, 21865.682, 0.00035011073, 9.955318, 9.944999 
8.234595e+2, 1.8068169e+2, -1146174.9, -1232774.1, -6765.0176, 0.07261908, 0.03127927, -1145649.6, 23671.115, 0.00008574844, 9.955467, 9.944541 
8.224439e+2, 1.9062509e+2, -1053031.9, -1153921.4, -6198.548, 0.06397211, 0.005257726, -1052652.4, 19222.338, 0.00001549313, 9.95575, 9.943106 
8.2142824e+2, 2.0056781e+2, -953038.1, -1061480.3, -7780.6953, 0.05293418, -0.021386208, -952482.7, 21952.785, 0.0000020664204, 9.956082, 9.942491 
8.204115e+2, 2.105094e+2, -863165.2, -986753.1, -7738.472, 0.022885084, -0.005883254, -862682.56, 14325.347, 0.00000020419301, 9.956275, 9.940787 
8.193947e+2, 2.2045018e+2, -767543.5, -897611.25, -7805.866, -0.0064230915, 0.009662558, -767076.7, 12511.5625, 0.000000015033857, 9.956385, 9.9400835 
8.183774e+2, 2.3038915e+2, -678218.06, -822323.56, -8388.373, -0.021848297, 0.0023994462, -677731.44, 4454.9375, 0.0000000008669015, 9.956517, 9.938399 
8.1735975e+2, 2.403273e+2, -582982.3, -733526.06, -8372.824, -0.035393097, -0.0048174895, -582518.06, 2274.3352, 0.00000000035024814, 9.9565935, 9.93769 
8.1634134e+2, 2.5026417e+2, -497719.9, -656463.9, -13508.632, -0.041713033, 0.0022145484, -496578.56, -9167.535, 0.0000000030395235, 9.956305, 9.936335 
8.153224e+2, 2.6020053e+2, -408723.28, -566383.44, -12660.092, -0.054319985, 0.0074561215, -407713.13, -17678.316, 0.000000022632408, 9.955859, 9.936081 
8.1430334e+2, 2.7013612e+2, -323037.66, -481599.72, -14300.397, -0.0880512, 0.006515882, -321758.25, -29092.457, 0.00000012780599, 9.955349, 9.935263 
8.1328386e+2, 2.8007102e+2, -240889.42, -399698.44, -9329.271, -0.11393963, -0.0048813955, -240343.25, -45040.004, 0.0000005347298, 9.954651, 9.934518 
8.1226486e+2, 2.900049e+2, -162385.6, -314877.13, -14048.953, -0.12219316, -0.026139518, -161102.06, -63150.85, 0.0000016580259, 9.953535, 9.934025 
8.112454e+2, 2.9993948e+2, -74068.0, -205592.23, -5072.8286, -0.14641389, -0.009943318, -73872.63, -73280.32, 0.000003892787, 9.952416, 9.9355135 
8.102299e+2, 3.0987754e+2, -14175.176, -99915.15, -5128.1533, -0.075591594, -0.02316312, -13869.548, -13869.548, 0.0000072114967, 9.951219, 9.939974 
8.0921e+2, 3.1981567e+2, -13737.044, -93050.87, -20906.563, -0.29335764, 0.00048557925, -8563.664, -8563.664, 0.000011109301, 9.950477, 9.9403925 
8.3848244e+2, 1.3195984e+2, -1603335.3, -1645870.3, 7834.5444, 0.16082963, 0.033921536, -1601938.1, 44858.844, 0.0030089617, 9.95539, 9.95005 
8.374706e+2, 1.4190954e+2, -1519549.4, -1565956.0, 2537.3296, 0.15072155, 0.032776125, -1519411.1, 29878.701, 0.0019641386, 9.954793, 9.948927 
8.3645695e+2, 1.5185782e+2, -1425703.4, -1481556.3, 7462.264, 0.118079625, 0.036710765, -1424723.6, 27072.992, 0.0010681495, 9.9548855, 9.948078 
8.3544403e+2, 1.6180572e+2, -1325985.5, -1390092.1, 2232.5261, 0.10344867, 0.03516378, -1325907.9, 28398.918, 0.00045917454, 9.955196, 9.947327 
8.3442944e+2, 1.7175193e+2, -1236014.3, -1313777.1, 5986.696, 0.085964456, 0.023885667, -1235556.0, 21277.545, 0.00014963388, 9.955307, 9.945804 
8.334151e+2, 1.8169747e+2, -1138851.0, -1224221.5, 3850.121, 0.06566297, 0.01961172, -1138677.8, 20689.342, 0.00003610315, 9.9554825, 9.945006 
8.323997e+2, 1.916415e+2, -1046906.7, -1147980.8, 5247.704, 0.060078494, 0.021677589, -1046634.94, 15280.624, 0.0000063962675, 9.955774, 9.943418 
8.313845e+2, 2.0158476e+2, -946189.75, -1055025.3, 3118.2327, 0.051827583, 0.018105466, -946100.5, 18370.838, 0.00000083170164, 9.956139, 9.942825 
8.3036804e+2, 2.1152654e+2, -853418.75, -978822.9, 3146.9304, 0.021776078, 0.019713717, -853339.8, 13701.911, 0.00000007956064, 9.956527, 9.941133 
8.293515e+2, 2.2146755e+2, -753952.3, -887243.1, 2441.8547, -0.0077601303, 0.022769095, -753907.6, 15712.127, 0.0000000056202887, 9.956855, 9.940484 
8.283342e+2, 2.3140697e+2, -665119.7, -811527.94, 1108.0496, -0.024012504, 0.016700754, -665111.3, 7101.995, 0.0000000003289238, 9.956925, 9.938847 
8.2731664e+2, 2.4134548e+2, -572483.56, -727175.9, 946.86847, -0.035841554, 0.010313267, -572477.8, 2337.9272, 0.000000000522786, 9.956962, 9.937856 
8.262981e+2, 2.512823e+2, -483160.66, -650419.8, -3532.319, -0.042668995, 0.013405447, -483086.1, -5651.174, 0.000000005679894, 9.957048, 9.9362335 
8.252789e+2, 2.6121858e+2, -387465.7, -555828.75, -1660.6741, -0.056028698, 0.02061915, -387449.3, -7389.6646, 0.0000000453068, 9.956996, 9.936055 
8.2425916e+2, 2.711543e+2, -303146.84, -470377.72, -8240.955, -0.09711849, 0.031089075, -302741.72, -20052.867, 0.0000002629484, 9.956327, 9.935395 
8.232388e+2, 2.8108937e+2, -223948.77, -392424.03, -5830.4585, -0.1238309, 0.019883355, -223747.23, -38422.03, 0.0000011128388, 9.955532, 9.934486 
8.2221884e+2, 2.9102254e+2, -145920.5, -309688.34, -11527.759, -0.109354116, -0.051045872, -145113.03, -57133.26, 0.0000034678499, 9.954446, 9.933753 
8.211981e+2, 3.0095676e+2, -64254.875, -204799.97, -1349.9503, -0.12327973, -0.048146755, -64241.91, -64241.91, 0.000008159713, 9.95293, 9.935133 
8.201804e+2, 3.108963e+2, -28643.25, -117640.055, -4140.624, -0.11178353, 0.1652687, -28451.02, -28451.02, 0.0000151378, 9.95032, 9.938946 
8.191613e+2, 3.20833e+2, 14134.777, -8228.501, -238.54358, -0.20988438, -0.021206677, 14137.321, 14137.321, 0.000023332175, 9.949545, 9.946683 
8.4843844e+2, 1.3297449e+2, -1587459.0, -1637844.9, 1648.9065, 0.17819022, 0.061329402, -1587405.1, 49450.113, 0.0011421927, 9.956519, 9.950056 
8.474256e+2, 1.4292423e+2, -1502738.5, -1554017.3, -4455.578, 0.13007621, 0.052625842, -1502354.3, 36993.18, 0.0007435361, 9.955866, 9.949286 
8.4641224e+2, 1.5287305e+2, -1408191.4, -1467312.4, 4636.9844, 0.112127386, 0.056000866, -1407829.9, 34019.15, 0.00040280866, 9.955946, 9.948646 
8.453996e+2, 1.6282146e+2, -1310742.3, -1377734.1, -1621.3687, 0.106590204, 0.05331256, -1310703.0, 33651.34, 0.00017225166, 9.956098, 9.947805 
8.443851e+2, 1.7276819e+2, -1220883.5, -1300088.5, 1300.461, 0.08504105, 0.035638507, -1220862.3, 26013.787, 0.00005573453, 9.956131, 9.946479 
8.433708e+2, 1.8271433e+2, -1125035.3, -1212334.8, -1381.8295, 0.06139052, 0.026074406, -1125013.4, 24390.152, 0.000013319515, 9.956265, 9.94559 
8.423557e+2, 1.9265904e+2, -1033182.44, -1136277.5, 2809.5386, 0.054761034, 0.043039355, -1033105.94, 18839.41, 0.00000232996, 9.956565, 9.943947 
8.413408e+2, 2.0260292e+2, -934643.5, -1045148.0, 1850.9865, 0.046727892, 0.053099122, -934612.5, 19882.748, 0.00000029792903, 9.956805, 9.943251 
8.4032464e+2, 2.1254501e+2, -845044.06, -970414.75, 2870.3118, 0.020391142, 0.041667454, -844978.4, 12084.306, 0.000000027884646, 9.956975, 9.941541 
8.393084e+2, 2.224863e+2, -747239.9, -879598.44, 2142.8828, -0.007010975, 0.03313146, -747205.2, 12432.529, 0.0000000019195514, 9.957169, 9.940884 
8.382913e+2, 2.3242618e+2, -656840.56, -802821.8, 226.53343, -0.024697967, 0.03203981, -656840.2, 5386.4185, 0.00000000019847783, 9.957331, 9.939256 
8.372736e+2, 2.4236502e+2, -565907.9, -721699.2, 917.62634, -0.040009297, 0.027642727, -565902.5, -1076.8976, 0.000000001540536, 9.957371, 9.938038 
8.3625513e+2, 2.5230187e+2, -478794.63, -646284.1, -3421.5215, -0.050964776, 0.017754046, -478724.75, -11280.174, 0.000000016924494, 9.957329, 9.936342 
8.352358e+2, 2.6223803e+2, -387566.78, -558093.7, -2510.74, -0.069461115, 0.018445095, -387529.84, -17459.723, 0.00000013515553, 9.9571295, 9.935771 
8.342154e+2, 2.7217346e+2, -306056.16, -477212.53, -11642.651, -0.106176004, 0.0459168, -305267.8, -32564.83, 0.00000078460795, 9.9563875, 9.934801 
8.331944e+2, 2.8210807e+2, -225089.4, -395438.28, -9473.096, -0.120812304, 0.046224758, -224564.23, -49220.55, 0.0000033204878, 9.9556265, 9.934161 
8.3217376e+2, 2.9204106e+2, -143094.84, -309010.63, -17531.05, -0.082744725, -0.024023438, -141262.7, -63262.83, 0.000010346408, 9.9547415, 9.933555 
8.311514e+2, 3.01975e+2, -64016.36, -210531.36, -13460.082, -0.11469658, -0.01671914, -62790.066, -62790.066, 0.000024338526, 9.953121, 9.93451 
8.3012915e+2, 3.119134e+2, -46044.32, -138671.77, -22694.023, -0.2132604, 0.18168686, -40783.05, -40783.05, 0.0000451379, 9.949496, 9.937711 
8.2911e+2, 3.2184848e+2, -11705.323, -21402.979, -1201.0464, -0.18204072, -0.07678041, -11558.789, -11558.789, 0.000069582755, 9.948322, 9.946722 
8.58395e+2, 1.3398953e+2, -1590953.8, -1640384.0, 7418.297, 0.18736653, 0.0837102, -1589864.4, 37045.17, 0.00036341642, 9.95608, 9.94993 
8.573811e+2, 1.4393923e+2, -1498317.9, -1546378.4, 4035.2795, 0.09980268, 0.06213266, -1497981.5, 31420.912, 0.00023620963, 9.955709, 9.949704 
8.563681e+2, 1.538886e+2, -1403814.3, -1457683.5, 15704.562, 0.10772229, 0.062270753, -1399570.3, 32328.008, 0.00012768328, 9.955711, 9.949315 
8.553558e+2, 1.6383752e+2, -1309364.6, -1373905.1, 7489.6997, 0.11726089, 0.06320416, -1308506.9, 25891.563, 0.000054433065, 9.955799, 9.948087 
8.543412e+2, 1.7378473e+2, -1218617.1, -1295495.8, 11568.2705, 0.09066733, 0.063006565, -1216914.1, 20001.496, 0.00001753889, 9.955881, 9.946822 
8.533271e+2, 1.8373147e+2, -1118222.4, -1200315.5, 8963.076, 0.061016474, 0.059188653, -1117255.1, 22182.377, 0.000004167791, 9.956101, 9.946399 
8.5231227e+2, 1.936769e+2, -1024144.5, -1121638.5, 14344.769, 0.046968956, 0.05810794, -1022077.75, 19894.113, 0.00000072355056, 9.9564905, 9.944897 
8.5129756e+2, 2.0362152e+2, -926416.3, -1033575.2, 12786.953, 0.036378782, 0.058269955, -924911.56, 19602.965, 0.00000009158835, 9.956749, 9.943953 
8.502816e+2, 2.1356437e+2, -837479.4, -959000.5, 14543.635, 0.01878578, 0.053837046, -835763.06, 11311.3955, 0.000000008458324, 9.956852, 9.942256 
8.492657e+2, 2.2350633e+2, -739888.2, -870799.06, 15557.286, -0.0010135528, 0.050239883, -738064.75, 11578.306, 0.00000000058265287, 9.957161, 9.94137 
8.482489e+2, 2.3344664e+2, -643654.0, -791921.4, 13434.778, -0.018363923, 0.05117395, -642446.44, 9781.266, 0.0000000002773134, 9.9577465, 9.939676 
8.472315e+2, 2.43386e+2, -546185.8, -705305.2, 13619.859, -0.035399903, 0.04742082, -545028.44, 9793.402, 0.0000000037693595, 9.958088, 9.938666 
8.462128e+2, 2.5332344e+2, -458952.34, -629544.8, 9995.613, -0.052876085, 0.034174316, -458368.66, -933.9375, 0.000000041425366, 9.958021, 9.936939 
8.4519327e+2, 2.6325995e+2, -369348.94, -548331.6, 12705.552, -0.07542231, 0.032449763, -368451.5, -8394.661, 0.0000003307569, 9.957969, 9.935766 
8.441723e+2, 2.731951e+2, -282937.63, -468131.34, 3806.1533, -0.109635115, 0.06000434, -282859.44, -20167.158, 0.0000019196316, 9.957667, 9.934447 
8.431506e+2, 2.8312942e+2, -202163.72, -384243.66, 6209.0757, -0.111261226, 0.062941246, -201952.23, -36616.203, 0.000008122093, 9.956756, 9.9339695 
8.421287e+2, 2.9306242e+2, -136636.25, -305956.63, -3638.7637, -0.06282213, 0.0059228595, -136558.1, -68565.734, 0.000025306756, 9.9547205, 9.933324 
8.411042e+2, 3.0299598e+2, -65221.72, -217527.05, -3365.5244, -0.12760806, 0.020739969, -65147.387, -65147.387, 0.00005952913, 9.952705, 9.9337 
8.400775e+2, 3.1293258e+2, -31508.89, -142294.86, -14949.981, -0.3186758, 0.1513231, -29526.928, -29526.928, 0.000110368244, 9.950242, 9.936463 
8.3905935e+2, 3.2286757e+2, -20002.264, -41268.617, 33281.645, -0.09710374, 0.019017354, 4303.538, 4303.538, 0.00017012702, 9.948356, 9.944954 
8.683514e+2, 1.3500465e+2, -1568200.8, -1617231.4, 5134.0215, 0.17854324, 0.08075408, -1567669.0, 49293.727, 0.00009383463, 9.957308, 9.950999 
8.6733764e+2, 1.449552e+2, -1474843.6, -1531285.5, -1588.5854, 0.11016319, 0.08105643, -1474798.9, 44648.258, 0.00006094004, 9.957212, 9.950004 
8.6632425e+2, 1.5490495e+2, -1386664.0, -1444907.6, 11330.174, 0.10911453, 0.07957392, -1384537.6, 37401.773, 0.00003290037, 9.956755, 9.949782 
8.653118e+2, 1.6485444e+2, -1294363.8, -1360020.6, 2918.21, 0.11617182, 0.079526454, -1294234.3, 30200.13, 0.000014001087, 9.956596, 9.948734 
8.6429745e+2, 1.7480236e+2, -1201086.8, -1279624.0, 10987.406, 0.08943679, 0.08281279, -1199578.6, 27365.875, 0.0000045003767, 9.956824, 9.947495 
8.6328346e+2, 1.8474981e+2, -1102602.1, -1184139.8, 8312.38, 0.05920299, 0.08143571, -1101763.4, 27695.945, 0.0000010659371, 9.956847, 9.947161 
8.622688e+2, 1.9469602e+2, -1014331.0, -1107165.9, 13154.113, 0.04201856, 0.07096908, -1012503.1, 19483.008, 0.00000018424288, 9.956798, 9.945808 
8.612543e+2, 2.046414e+2, -918321.4, -1021935.6, 10677.953, 0.02991416, 0.06582163, -917232.4, 17288.867, 0.000000023185766, 9.95701, 9.944699 
8.602387e+2, 2.1458513e+2, -823500.1, -943344.6, 12994.754, 0.017887773, 0.06684136, -822107.3, 14965.239, 0.0000000021246724, 9.957467, 9.943095 
8.59223e+2, 2.2452784e+2, -729536.44, -859933.25, 16074.12, 0.0032289159, 0.068696655, -727584.2, 12049.673, 0.00000000016612903, 9.957688, 9.941923 
8.582068e+2, 2.3446868e+2, -640011.1, -784604.06, 15078.151, -0.011645266, 0.07061756, -638455.56, 3757.8665, 0.00000000051179117, 9.9578285, 9.940161 
8.5718966e+2, 2.4440871e+2, -541799.75, -693550.1, 14319.051, -0.030559551, 0.068882786, -540460.44, 4340.644, 0.000000007637945, 9.958002, 9.939498 
8.5617083e+2, 2.5434703e+2, -453141.84, -616998.44, 9747.338, -0.053210214, 0.060398538, -452564.03, -5158.8774, 0.000000083945466, 9.958026, 9.937753 
8.5515124e+2, 2.6428404e+2, -368329.84, -545369.75, 13402.452, -0.07952459, 0.05637267, -367320.97, -17298.758, 0.0000006702643, 9.957995, 9.935911 
8.541301e+2, 2.7421904e+2, -282042.66, -466941.5, 3020.148, -0.110057086, 0.06544877, -281993.34, -29334.031, 0.000003889783, 9.957754, 9.934396 
8.531074e+2, 2.8415313e+2, -202552.72, -384537.78, -163.33197, -0.11030779, 0.063027024, -202552.58, -47247.742, 0.000016460805, 9.956684, 9.933807 
8.520831e+2, 2.9408622e+2, -142755.16, -310329.28, -12971.441, -0.076610744, 0.035298903, -141757.03, -83796.69, 0.000051319832, 9.954288, 9.9330225 
8.510566e+2, 3.0401954e+2, -65865.914, -218750.05, -7710.371, -0.15441264, 0.053671543, -65478.043, -65478.043, 0.000120814846, 9.952779, 9.933441 
8.5002923e+2, 3.1395498e+2, -8736.649, -133862.45, -18728.102, -0.29458645, 0.107217036, -5993.6665, -5993.6665, 0.00022411745, 9.951976, 9.935977 
8.4900737e+2, 3.2389045e+2, -32154.877, -42717.81, 4487.3286, -0.05632892, 0.04501773, -30505.975, -30505.975, 0.00034556063, 9.946789, 9.944837 
8.7830853e+2, 1.3602036e+2, -1566138.3, -1603207.1, 14970.496, 0.17678627, 0.08296025, -1560847.5, 46162.574, 0.000019043677, 9.956819, 9.952097 
8.772947e+2, 1.4597172e+2, -1482042.5, -1531957.8, 2843.3098, 0.13216574, 0.10577802, -1481881.1, 27605.666, 0.000012362725, 9.956371, 9.950221 
8.762808e+2, 1.5592173e+2, -1390298.3, -1443373.0, 19346.365, 0.10653007, 0.10489613, -1383994.9, 27981.799, 0.0000066696857, 9.956147, 9.950069 
8.7526816e+2, 1.6587174e+2, -1291175.5, -1347443.6, 11702.719, 0.104931965, 0.09756391, -1288838.6, 25627.85, 0.000002835376, 9.95615, 9.94969 
8.742541e+2, 1.7582059e+2, -1196130.8, -1265132.5, 20998.822, 0.081492856, 0.08710477, -1190242.8, 26724.584, 0.0000009100635, 9.956454, 9.948569 
8.732402e+2, 1.857688e+2, -1101851.3, -1178241.4, 16153.426, 0.057804927, 0.087338746, -1098575.9, 20898.863, 0.00000021513608, 9.956402, 9.947662 
8.7222546e+2, 1.9571574e+2, -1013849.7, -1100017.3, 21781.258, 0.049833044, 0.09113367, -1008656.8, 13337.738, 0.000000037089958, 9.956276, 9.946455 
8.7121123e+2, 2.0566188e+2, -914154.6, -1010619.2, 22249.623, 0.03658419, 0.08901427, -909270.06, 15252.174, 0.0000000046516857, 9.9567, 9.945566 
8.701962e+2, 2.156065e+2, -812963.94, -927706.75, 25092.184, 0.013558969, 0.08493585, -807716.7, 19348.033, 0.0000000004243601, 9.95752, 9.944077 
8.6918074e+2, 2.2555025e+2, -716918.6, -839806.06, 26156.697, -0.0047949916, 0.08187968, -711582.9, 18032.793, 0.000000000071721434, 9.957613, 9.943195 
8.6816424e+2, 2.3549235e+2, -634510.94, -767367.5, 28049.14, -0.018548321, 0.07907849, -628831.9, 3351.072, 0.0000000009082265, 9.957219, 9.941428 
8.6714727e+2, 2.4543348e+2, -538189.56, -681002.8, 32076.377, -0.033660375, 0.08209388, -531315.94, 3443.8323, 0.000000013717135, 9.957462, 9.940424 
8.661289e+2, 2.5537285e+2, -438520.75, -599298.56, 27050.441, -0.052292828, 0.08600083, -434091.6, 3262.1218, 0.00000015076724, 9.958191, 9.938674 
8.651094e+2, 2.6531085e+2, -348873.28, -523946.4, 32076.48, -0.07701663, 0.079049736, -343181.34, -3220.1997, 0.0000012040975, 9.958345, 9.936924 
8.640879e+2, 2.7524647e+2, -266471.16, -449654.75, 25827.963, -0.107517935, 0.068579406, -262899.2, -20307.35, 0.000006992764, 9.957883, 9.935069 
8.6306447e+2, 2.85181e+2, -178951.58, -369512.5, 23077.44, -0.10899535, 0.068812504, -176196.66, -30963.414, 0.000029645516, 9.957536, 9.933793 
8.6203796e+2, 2.951141e+2, -104513.555, -291744.78, 9197.658, -0.08861359, 0.07081576, -104062.805, -56174.457, 0.00009271142, 9.956268, 9.932635 
8.6100966e+2, 3.050468e+2, -44025.4, -205657.47, 16089.216, -0.1593968, 0.0706114, -42439.402, -42439.402, 0.00021904535, 9.953604, 9.933239 
8.599811e+2, 3.1498113e+2, -33983.863, -147142.28, 5501.7793, -0.23465192, 0.03507212, -33716.992, -33716.992, 0.0004076256, 9.9497, 9.93545 
8.589524e+2, 3.249174e+2, -41358.44, -40972.555, -9553.199, -0.12325433, 0.06419666, -31610.352, -31610.352, 0.00062983576, 9.94436, 9.944936 
8.8826567e+2, 1.3703637e+2, -1552081.3, -1603050.9, 6469.387, 0.14808437, 0.11887147, -1551273.0, 45781.906, 0.000002958578, 9.958091, 9.951551 
8.8725144e+2, 1.46988e+2, -1461822.4, -1507986.0, -4309.1123, 0.14248374, 0.113635585, -1461423.6, 38105.31, 0.0000019202917, 9.957185, 9.951554 
8.8623726e+2, 1.5693931e+2, -1366571.1, -1419570.5, 18670.941, 0.099275455, 0.11535135, -1360654.3, 41351.613, 0.0000010355539, 9.957287, 9.951164 
8.852246e+2, 1.6689013e+2, -1273391.1, -1331324.8, 10652.724, 0.09708435, 0.112066425, -1271494.4, 32993.223, 0.0000004399312, 9.957079, 9.95033 
8.842106e+2, 1.768398e+2, -1185433.9, -1251052.9, 18703.045, 0.078079306, 0.10167078, -1180477.4, 26503.24, 0.00000014107277, 9.956845, 9.949411 
8.831967e+2, 1.8678872e+2, -1089178.8, -1165394.5, 13510.924, 0.05736318, 0.10302477, -1086854.5, 22626.498, 0.00000003330806, 9.957016, 9.948312 
8.821822e+2, 1.9673648e+2, -992136.7, -1081092.5, 20717.908, 0.054545637, 0.11203117, -987548.1, 24444.904, 0.0000000057331504, 9.957439, 9.947243 
8.811682e+2, 2.0668346e+2, -898367.3, -992600.4, 22751.668, 0.03867658, 0.11029571, -893161.7, 21350.643, 0.00000000071752804, 9.957407, 9.946517 
8.801536e+2, 2.1662907e+2, -808301.5, -912962.9, 25587.97, 0.0071491525, 0.10095131, -802380.6, 14664.293, 0.00000000006547386, 9.957368, 9.94521 
8.791381e+2, 2.265741e+2, -709461.56, -819842.2, 23495.684, -0.015826095, 0.09323094, -704668.44, 14915.059, 0.0000000000751049, 9.95741, 9.944689 
8.781213e+2, 2.3651773e+2, -621505.7, -744341.4, 25010.86, -0.030051017, 0.08464781, -616608.44, 5527.1855, 0.0000000014740116, 9.957391, 9.9429655 
8.7710476e+2, 2.4646017e+2, -530119.0, -665397.9, 33458.242, -0.041014813, 0.094444446, -522296.25, 2403.4622, 0.000000022289091, 9.95761, 9.941513 
8.760871e+2, 2.564008e+2, -434024.34, -584843.25, 28147.72, -0.05117917, 0.112350956, -428942.3, -1660.4178, 0.00000024496487, 9.958058, 9.939766 
8.750678e+2, 2.663402e+2, -340877.47, -500015.56, 30856.28, -0.072737396, 0.09924091, -335104.03, -5228.926, 0.0000019576619, 9.958033, 9.938688 
8.740458e+2, 2.7627724e+2, -258725.0, -428454.9, 24850.287, -0.102546975, 0.07208847, -255161.47, -22669.861, 0.000011400731, 9.957688, 9.936539 
8.7302214e+2, 2.8621292e+2, -173941.75, -360709.75, 22298.984, -0.108583026, 0.08113608, -171316.3, -36194.563, 0.000048632028, 9.957715, 9.934173 
8.719947e+2, 2.9614627e+2, -94609.945, -285798.84, 7652.643, -0.097513914, 0.10540232, -94304.125, -56529.563, 0.00015357247, 9.956974, 9.932536 
8.709634e+2, 3.0607834e+2, -39751.984, -197958.25, -3770.5002, -0.14975142, 0.07550755, -39662.17, -39662.17, 0.00036699965, 9.953319, 9.933452 
8.699297e+2, 3.1601244e+2, -63583.926, -158571.16, -13074.719, -0.17906043, -0.017773386, -61817.094, -61817.094, 0.00068988913, 9.947183, 9.935394 
8.688963e+2, 3.2594964e+2, -37260.746, -37976.434, -7570.228, -0.15936325, 0.06749749, -30039.908, -30039.908, 0.001073521, 9.944494, 9.944878 
8.982232e+2, 1.3805233e+2, -1565543.6, -1613780.9, 10622.201, 0.1421526, 0.1492882, -1563308.3, 23792.295, 0.00000034527207, 9.957162, 9.951035 
8.9720833e+2, 1.4800447e+2, -1461191.6, -1488766.9, 3259.8044, 0.1432401, 0.11344697, -1460811.5, 28757.785, 0.00000022408217, 9.956305, 9.953124 
8.961942e+2, 1.5795738e+2, -1366136.5, -1405051.4, 25445.145, 0.089304745, 0.117419645, -1353562.0, 38468.14, 0.00000012080618, 9.956585, 9.952415 
8.951814e+2, 1.67909e+2, -1277916.3, -1328936.6, 14852.868, 0.09406097, 0.12775113, -1273907.4, 20596.87, 0.000000051297388, 9.956412, 9.95073 
8.9416724e+2, 1.7785934e+2, -1187873.5, -1245943.5, 24196.113, 0.080135465, 0.1347046, -1179113.3, 17877.813, 0.00000001643881, 9.956261, 9.949979 
8.931536e+2, 1.878089e+2, -1087777.3, -1155541.6, 21434.303, 0.055151947, 0.13082123, -1081566.6, 17918.502, 0.000000003877973, 9.956627, 9.949137 
8.921396e+2, 1.9775744e+2, -986340.75, -1067287.4, 28452.371, 0.04684618, 0.12673008, -977340.56, 24648.766, 0.00000000066676814, 9.95724, 9.948233 
8.911254e+2, 2.0770535e+2, -895700.0, -979348.5, 27192.713, 0.033575553, 0.11941934, -887637.25, 16862.031, 0.00000000008333369, 9.956836, 9.94759 
8.901104e+2, 2.1765214e+2, -813886.4, -902271.8, 31729.299, 0.007135528, 0.11015659, -803675.56, 3344.8118, 0.000000000010516922, 9.956181, 9.946413 
8.89095e+2, 2.2759835e+2, -713464.9, -809815.0, 32779.383, -0.010827329, 0.11177588, -703370.5, 6176.8984, 0.000000000098867345, 9.956452, 9.945801 
8.880787e+2, 2.3754337e+2, -612931.94, -725138.94, 33097.188, -0.022198956, 0.11431204, -603896.94, 8189.164, 0.0000000020481026, 9.957103, 9.944402 
8.8706195e+2, 2.4748743e+2, -521907.9, -639797.3, 42270.68, -0.04024178, 0.11302321, -508317.88, 6316.431, 0.0000000309748, 9.956906, 9.943521 
8.860441e+2, 2.574299e+2, -440212.4, -564989.1, 41713.02, -0.05864507, 0.11522199, -427552.25, -10354.47, 0.0000003404844, 9.956237, 9.941816 
8.850246e+2, 2.6737168e+2, -345182.06, -474333.84, 48845.074, -0.07315239, 0.1102913, -328789.5, -9021.1045, 0.0000027257568, 9.956017, 9.94122 
8.8400257e+2, 2.773114e+2, -256226.83, -399491.8, 46831.496, -0.09193101, 0.0954453, -242276.6, -19918.105, 0.000015971164, 9.955992, 9.939055 
8.8297874e+2, 2.8724974e+2, -172523.36, -325835.8, 53462.26, -0.10561993, 0.1015233, -155721.63, -30759.348, 0.000069086105, 9.955489, 9.937043 
8.8195044e+2, 2.9718533e+2, -98314.086, -266830.0, 58201.305, -0.11506647, 0.1199224, -80166.984, -52573.582, 0.00022324533, 9.954654, 9.934095 
8.809165e+2, 3.0711815e+2, -21008.54, -184769.17, 41609.746, -0.14455508, 0.08846178, -11042.477, -11042.477, 0.0005485991, 9.952788, 9.933184 
8.7987846e+2, 3.1705058e+2, -21338.412, -156872.11, 18589.367, -0.11926439, -0.009652371, -18834.994, -18834.994, 0.0010574318, 9.949766, 9.932957 
8.788418e+2, 3.2698616e+2, 11358.16, -12521.777, 20134.264, -0.21228875, 0.102653235, 22826.553, 22826.553, 0.001674894, 9.94748, 9.944402 
9.0818155e+2, 1.390706e+2, -1536560.5, -1589068.8, 4278.9204, 0.18850482, 0.18277746, -1536214.1, 40908.863, 0.000000029867618, 9.958422, 9.951779 
9.0716493e+2, 1.4902294e+2, -1442806.1, -1475304.4, 7344.0454, 0.1281467, 0.12407777, -1441223.6, 38366.348, 0.000000019382966, 9.957418, 9.953378 
9.0615124e+2, 1.5897633e+2, -1350548.1, -1393493.4, 24897.176, 0.09876659, 0.14147879, -1339143.0, 42902.895, 0.000000010447276, 9.957526, 9.952771 
9.0513825e+2, 1.6892833e+2, -1260395.6, -1314695.3, 12303.6045, 0.10071629, 0.148909, -1257737.9, 26778.645, 0.000000004434464, 9.957378, 9.951265 
9.041239e+2, 1.788793e+2, -1167241.6, -1227736.8, 23173.68, 0.07553405, 0.15495697, -1159385.0, 27612.111, 0.0000000014203173, 9.957348, 9.950725 
9.031103e+2, 1.8882969e+2, -1073756.6, -1137723.0, 22457.64, 0.04940319, 0.14827508, -1066659.5, 22823.424, 0.00000000033482794, 9.957175, 9.950103 
9.0209675e+2, 1.9877923e+2, -980250.1, -1052143.0, 29360.002, 0.04165178, 0.13727959, -969783.7, 22193.629, 0.000000000057520166, 9.95717, 9.949289 
9.010822e+2, 2.0872816e+2, -883000.0, -961013.56, 25312.002, 0.030078491, 0.13045326, -875507.06, 18970.21, 0.0000000000071813653, 9.957162, 9.948654 
9.0006673e+2, 2.186762e+2, -792288.5, -878247.5, 30428.35, 0.008251826, 0.12247823, -782607.56, 14378.845, 0.00000000000428494, 9.9570875, 9.947619 
8.990518e+2, 2.2862358e+2, -697850.06, -790100.25, 34410.54, -0.0035817844, 0.13544604, -686428.56, 13073.45, 0.00000000010849106, 9.957096, 9.946883 
8.9803594e+2, 2.3857003e+2, -600307.4, -700741.1, 33287.086, -0.009572865, 0.14993978, -590276.7, 11749.982, 0.000000002258234, 9.957247, 9.946027 
8.9701885e+2, 2.4851596e+2, -504529.44, -603987.6, 38367.0, -0.04066947, 0.12726758, -491449.22, 13107.018, 0.000000034158017, 9.956908, 9.945978 
8.9600015e+2, 2.584608e+2, -422077.22, -527252.1, 37305.555, -0.07580409, 0.0989531, -410188.75, -3092.341, 0.00000037566133, 9.956237, 9.944429 
8.949806e+2, 2.6840547e+2, -326113.53, -431915.47, 47662.527, -0.07855892, 0.12247494, -307808.97, 1829.4879, 0.00000301649, 9.9559555, 9.944257 
8.939588e+2, 2.7834877e+2, -234974.14, -351924.6, 44356.676, -0.07621553, 0.15023714, -220054.1, -7860.2603, 0.000017853601, 9.955941, 9.942362 
8.9293426e+2, 2.8829107e+2, -133486.75, -243616.61, 45255.414, -0.10067178, 0.116585925, -117276.164, -2517.2346, 0.000079075995, 9.955472, 9.942499 
8.919044e+2, 2.982311e+2, -72121.71, -205429.19, 58527.883, -0.14088774, 0.07767846, -50072.383, -32726.268, 0.00026623905, 9.954289, 9.938481 
8.908687e+2, 3.0816883e+2, -17242.205, -168459.64, 36222.453, -0.1595402, 0.16514467, -9013.316, -9013.316, 0.00069019, 9.952102, 9.93438 
8.898289e+2, 3.1810066e+2, -40344.492, -212480.89, 16943.424, -0.08371446, 0.21107371, -38692.598, -38692.598, 0.0014013384, 9.95021, 9.928525 
8.8878876e+2, 3.280289e+2, 1444.7594, -30204.068, 2327.713, -0.23745959, 0.09693214, 1615.0422, 1615.0422, 0.0023083058, 9.947037, 9.942712 
9.1813904e+2, 1.4008917e+2, -1559318.4, -1587459.6, -4299.6567, 0.19740391, 0.18748382, -1558676.0, 8466.315, 0.000000001903787, 9.9561, 9.952955 
9.171218e+2, 1.5004197e+2, -1456109.9, -1483636.5, 9018.886, 0.11495323, 0.14589767, -1453418.1, 16186.904, 0.0000000012354053, 9.956586, 9.953236 
9.161087e+2, 1.599954e+2, -1360472.6, -1398383.9, 26925.012, 0.12204361, 0.17992528, -1346500.0, 25561.096, 0.00000000066574474, 9.956833, 9.952768 
9.150955e+2, 1.6994753e+2, -1264730.3, -1310296.4, 14013.229, 0.110359564, 0.16956279, -1260765.6, 13764.435, 0.0000000002824927, 9.956777, 9.951823 
9.140809e+2, 1.7989902e+2, -1167470.4, -1217172.0, 24959.11, 0.059697464, 0.15471862, -1157100.1, 19905.25, 0.00000000009044054, 9.95684, 9.951657 
9.130673e+2, 1.898505e+2, -1073207.8, -1124307.3, 23899.795, 0.04259871, 0.14914829, -1063771.9, 15708.59, 0.000000000021308946, 9.956585, 9.951261 
9.120536e+2, 1.998013e+2, -982938.1, -1041097.5, 31991.475, 0.04901026, 0.1460769, -968784.94, 13177.226, 0.000000000003658245, 9.956415, 9.950371 
9.110393e+2, 2.0975128e+2, -883332.75, -951218.1, 29524.783, 0.03406447, 0.15368414, -872288.56, 12163.8125, 0.00000000000045636807, 9.95672, 9.949519 
9.10024e+2, 2.1970043e+2, -784282.3, -861617.9, 33411.72, 0.006031366, 0.15702224, -771846.9, 15103.958, 0.0000000000030655227, 9.957057, 9.94874 
9.0900874e+2, 2.2964875e+2, -694643.56, -774803.7, 36635.94, -0.007959434, 0.15148205, -680422.56, 9034.453, 0.0000000000903565, 9.956662, 9.948076 
9.0799254e+2, 2.3959643e+2, -606456.2, -687320.44, 36199.29, -0.015905216, 0.15016904, -592619.06, -649.3515, 0.0000000018811002, 9.956052, 9.947442 
9.0697515e+2, 2.4954386e+2, -510392.9, -591486.94, 38653.688, -0.04425086, 0.14780924, -494920.56, -435.98587, 0.000000028451819, 9.955764, 9.947397 
9.059559e+2, 2.5949067e+2, -418357.22, -503379.94, 33187.195, -0.075525135, 0.13416582, -406937.1, -9931.534, 0.00000031314025, 9.955415, 9.946562 
9.0493584e+2, 2.6943728e+2, -328691.3, -409050.22, 41630.223, -0.070156336, 0.1374577, -311013.47, -11485.3, 0.0000025239594, 9.954585, 9.946681 
9.039134e+2, 2.7938357e+2, -249861.9, -326026.16, 36249.44, -0.06431146, 0.15811925, -235367.7, -33313.156, 0.000015124688, 9.953254, 9.945734 
9.028888e+2, 2.8932956e+2, -127558.6, -203205.17, 29579.283, -0.10361217, 0.12670892, -117365.91, -12782.507, 0.00006901787, 9.953942, 9.946817 
9.018573e+2, 2.992755e+2, -49302.777, -118732.71, 26752.621, -0.1458695, 0.080820955, -40190.45, -33077.3, 0.00024569064, 9.951806, 9.946278 
9.280943e+2, 1.4110573e+2, -1530346.9, -1547537.4, 4625.1177, 0.076950535, 0.13764094, -1529181.5, 28000.193, 0.00000000008526822, 9.957385, 9.95537 
9.2707914e+2, 1.5106034e+2, -1435507.8, -1470374.4, 5277.772, 0.13182296, 0.19500537, -1434726.4, 24900.006, 0.00000000005532455, 9.957854, 9.9536495 
9.260658e+2, 1.6101377e+2, -1342493.3, -1384233.4, 24077.984, 0.10702446, 0.18482976, -1331499.4, 30583.396, 0.000000000029806633, 9.957832, 9.953312 
9.2505246e+2, 1.7096674e+2, -1247548.3, -1291705.9, 13344.742, 0.10685993, 0.18183343, -1243828.8, 20714.674, 0.000000000012643394, 9.95752, 9.952743 
9.240379e+2, 1.8091922e+2, -1152360.9, -1198726.1, 25559.016, 0.05781446, 0.16907479, -1141037.0, 25971.951, 0.0000000000040459667, 9.957401, 9.95261 
9.2302406e+2, 1.908716e+2, -1055008.1, -1104561.5, 22762.785, 0.041378412, 0.16118976, -1046139.2, 23335.98, 0.000000000000952743, 9.957368, 9.952241 
9.220103e+2, 2.008235e+2, -962826.25, -1020354.9, 29930.146, 0.05287585, 0.1598031, -950079.1, 21867.04, 0.00000000000016345195, 9.957355, 9.951389 
9.209962e+2, 2.1077451e+2, -869473.4, -934227.94, 28918.75, 0.034904905, 0.17813943, -858438.9, 15987.649, 0.000000000000020373985, 9.957294, 9.950465 
9.1998106e+2, 2.207248e+2, -772983.0, -842853.56, 31809.705, 0.0020539814, 0.18832758, -760670.75, 16242.886, 0.0000000000018606304, 9.957303, 9.949925 
9.1896534e+2, 2.3067413e+2, -679985.6, -752892.5, 33478.402, -0.016898762, 0.16037752, -666945.06, 12464.779, 0.000000000055557395, 9.957029, 9.949389 
9.1794854e+2, 2.4062307e+2, -589955.8, -664490.4, 33583.773, -0.028527118, 0.14138821, -577056.2, 4853.7715, 0.0000000011563022, 9.956573, 9.948743 
9.16931e+2, 2.5057197e+2, -497062.97, -573496.3, 37253.16, -0.04663969, 0.18300748, -481910.06, 2501.019, 0.000000017486771, 9.95624, 9.948402 
9.159115e+2, 2.6052058e+2, -400543.0, -473278.63, 29735.28, -0.062178098, 0.20286992, -389934.2, -3019.4773, 0.00000019261098, 9.95575, 9.948437 
9.1489065e+2, 2.7046832e+2, -311452.94, -378274.56, 35286.54, -0.05397108, 0.13384295, -296269.28, -6843.3647, 0.000001557747, 9.954824, 9.948632 
9.138667e+2, 2.804167e+2, -230164.42, -290100.4, 31910.63, -0.063890606, 0.09970891, -216356.06, -24424.625, 0.000009437413, 9.953536, 9.948056 
9.128428e+2, 2.9036474e+2, -120987.33, -199483.84, 39339.33, -0.13457355, 0.18455805, -104665.734, -10225.265, 0.00004425717, 9.954641, 9.947113 
9.1180956e+2, 3.0031466e+2, -1446.1184, -32641.9, 9475.077, -0.16328809, 0.21492642, 1206.2317, 1206.2317, 0.00016661992, 9.953007, 9.951349 
9.380522e+2, 1.4212304e+2, -1526707.5, -1528084.0, 14498.663, 0.13783701, 0.1988949, -1512880.8, 34332.66, 0.0000000000029415736, 9.957177, 9.9568815 
9.3703675e+2, 1.5207799e+2, -1445451.5, -1470321.6, 4737.3633, 0.13839942, 0.23556902, -1444579.8, 5075.315, 0.0000000000019083366, 9.957021, 9.954079 
9.36023e+2, 1.6203132e+2, -1346208.4, -1377057.4, 22144.7, 0.06440762, 0.16479403, -1334645.8, 17466.443, 0.0000000000010279229, 9.957256, 9.954083 
9.3500984e+2, 1.7198566e+2, -1247078.5, -1278192.8, 10867.309, 0.10196403, 0.1945293, -1243658.8, 10901.174, 0.0000000000004359048, 9.957045, 9.953901 
9.3399537e+2, 1.8193948e+2, -1153477.9, -1190196.9, 23558.012, 0.07704539, 0.20829359, -1141970.1, 15042.076, 0.0000000000001394446, 9.957027, 9.953396 
9.3298143e+2, 1.9189228e+2, -1056923.1, -1100416.6, 20513.66, 0.04414347, 0.19275646, -1048774.5, 10699.946, 0.00000000000003282296, 9.957128, 9.952685 
9.319677e+2, 2.0184468e+2, -960991.0, -1011005.44, 26042.098, 0.042560223, 0.18279795, -949893.5, 12047.168, 0.0000000000000056283993, 9.957217, 9.952148 
9.309534e+2, 2.1179642e+2, -868654.25, -923294.56, 24092.904, 0.028470961, 0.18873645, -859548.3, 4865.233, 0.00000000000000070118843, 9.957004, 9.951411 
9.2993814e+2, 2.2174776e+2, -773826.44, -830211.56, 26629.299, -0.0009292837, 0.19332962, -763238.3, 3652.0715, 0.00000000000083497646, 9.9568205, 9.951091 
9.2892236e+2, 2.3169835e+2, -677515.4, -739204.44, 27544.375, -0.017907636, 0.18190815, -667006.8, 2367.352, 0.0000000000249549, 9.956834, 9.9505 
9.279053e+2, 2.416486e+2, -581478.3, -645849.4, 25853.844, -0.02726121, 0.17112271, -572380.3, -519.0968, 0.00000000051935445, 9.956737, 9.950014 
9.268875e+2, 2.5159836e+2, -489950.88, -558025.06, 29837.406, -0.03938818, 0.19216782, -478724.34, -4370.4023, 0.0000000078541085, 9.956488, 9.949379 
9.2586756e+2, 2.6154807e+2, -393324.94, -455222.7, 19890.62, -0.052107725, 0.20766903, -387484.28, -10637.414, 0.00000008654337, 9.955962, 9.949572 
9.248459e+2, 2.7149677e+2, -298924.6, -362884.75, 21122.123, -0.061853778, 0.15417519, -292578.84, -13230.004, 0.0000007013428, 9.955784, 9.949303 
9.238212e+2, 2.81446e+2, -201109.48, -264722.22, 8391.453, -0.08728086, 0.11729792, -200021.14, -18175.521, 0.0000042783217, 9.955856, 9.948878 
9.2279804e+2, 2.9139462e+2, -122079.66, -202026.66, 21132.15, -0.1397497, 0.25231284, -116837.58, -32487.977, 0.00002042177, 9.955945, 9.946579 
9.217658e+2, 3.013428e+2, 47212.742, -12739.053, -24831.857, -0.15641867, 0.13241856, 56162.1, 56162.1, 0.00007993033, 9.9589405, 9.950567 
9.480111e+2, 1.431402e+2, -1511781.0, -1531971.0, 2525.1663, 0.24819371, 0.19285895, -1511469.9, 25777.371, 0.0, 9.958234, 9.955847 
9.4699377e+2, 1.530956e+2, -1425578.5, -1452929.1, 9410.447, 0.09848035, 0.23701826, -1422653.5, 17030.768, 0.0, 9.958035, 9.954704 
9.4598067e+2, 1.6304976e+2, -1331904.0, -1362238.3, 25995.934, 0.08484882, 0.18887149, -1316974.1, 25159.234, 0.0, 9.95787, 9.9546585 
9.4496715e+2, 1.730047e+2, -1230316.9, -1260330.0, 14166.506, 0.10622662, 0.21297999, -1224686.4, 19888.615, 0.0, 9.957766, 9.954703 
9.439526e+2, 1.8295936e+2, -1136499.4, -1173725.3, 25319.645, 0.07278189, 0.22794898, -1123687.4, 23331.744, 0.0, 9.957837, 9.9540825 
9.4293875e+2, 1.9291279e+2, -1043565.56, -1087166.6, 24284.305, 0.040487856, 0.21879196, -1032731.94, 16743.563, 0.0, 9.957768, 9.953207 
9.419249e+2, 2.0286573e+2, -948280.6, -996035.4, 29478.162, 0.037312135, 0.20703837, -934222.6, 17713.467, 0.0, 9.95771, 9.952818 
9.4091046e+2, 2.1281809e+2, -853945.9, -906037.4, 27120.914, 0.023457712, 0.19916548, -842389.44, 12013.5, 0.0, 9.9575815, 9.9522085 
9.398951e+2, 2.2277027e+2, -757929.56, -810802.3, 29311.482, -0.003750215, 0.19819309, -744893.9, 11977.281, 0.00000000000028468902, 9.957435, 9.952028 
9.388793e+2, 2.32722e+2, -663497.75, -721046.44, 30067.021, -0.017258078, 0.21105334, -650654.94, 8688.939, 0.000000000008157955, 9.957354, 9.951423 
9.378622e+2, 2.4267338e+2, -567508.75, -625851.5, 26713.445, -0.021827225, 0.20728518, -557125.4, 4694.69, 0.00000000016979894, 9.957166, 9.9510975 
9.3684417e+2, 2.5262362e+2, -477022.88, -539398.75, 30049.498, -0.02967526, 0.17690183, -464901.94, -594.2816, 0.0000000025679472, 9.95688, 9.950393 
9.358236e+2, 2.6257414e+2, -383556.97, -442926.75, 18803.121, -0.05112525, 0.1780197, -378102.84, -11310.118, 0.000000028296595, 9.956344, 9.950151 
9.3480134e+2, 2.7252403e+2, -295787.2, -361893.22, 21998.168, -0.102771044, 0.22796963, -289136.03, -19852.064, 0.00000022950282, 9.956102, 9.949209 
9.3377674e+2, 2.824738e+2, -192527.36, -247804.56, 10037.775, -0.13010466, 0.22250555, -190761.03, -18985.516, 0.0000014045202, 9.956006, 9.949903 
9.3275505e+2, 2.9242247e+2, -108895.49, -177252.17, 29977.2, -0.04853512, 0.21576671, -97611.86, -23333.732, 0.000006759484, 9.95614, 9.947994 
9.317242e+2, 3.0236918e+2, 20043.455, -50394.984, -701.0541, -0.15683779, 0.08524591, 20050.432, 20050.432, 0.000026932837, 9.957654, 9.94868 
9.5796764e+2, 1.4415729e+2, -1534024.9, -1544562.4, -5900.2495, 0.1470949, 0.2453093, -1531383.4, -4101.2935, 0.0, 9.956851, 9.9557905 
9.569514e+2, 1.5411298e+2, -1428712.3, -1445904.3, 4175.0796, 0.07186041, 0.23952292, -1427751.9, 1964.0171, 0.0, 9.957602, 9.955518 
9.5593905e+2, 1.6406833e+2, -1334696.4, -1357961.3, 19155.014, 0.14117864, 0.24431928, -1323918.4, 8234.752, 0.0, 9.957599, 9.955143 
9.549249e+2, 1.7402333e+2, -1231681.0, -1254884.8, 9224.971, 0.10259043, 0.22621687, -1228460.4, 6133.5054, 0.0, 9.957601, 9.955244 
9.5391023e+2, 1.8397848e+2, -1133909.1, -1162541.0, 19521.197, 0.0383298, 0.21951592, -1124017.1, 13016.111, 0.0, 9.957781, 9.95494 
9.528966e+2, 1.93933e+2, -1039681.25, -1075076.1, 18776.668, 0.037473347, 0.23512764, -1031576.3, 7902.5225, 0.0, 9.957804, 9.954075 
9.5188296e+2, 2.0388688e+2, -944360.56, -985569.8, 23684.912, 0.049647648, 0.2373131, -933572.1, 8358.302, 0.0, 9.957836, 9.95351 
9.5086837e+2, 2.1383981e+2, -847519.06, -893989.0, 21616.465, 0.024335686, 0.21959633, -839018.6, 5372.8623, 0.0, 9.957888, 9.952928 
9.498528e+2, 2.2379264e+2, -749048.25, -797351.5, 22763.795, -0.007843304, 0.2079071, -740011.2, 6842.307, 0.000000000000067652664, 9.957926, 9.952747 
9.488371e+2, 2.3374492e+2, -654506.2, -708704.5, 22683.48, -0.017785328, 0.21202575, -646265.5, 3055.4827, 0.0000000000019384904, 9.957945, 9.952032 
9.478198e+2, 2.4369703e+2, -556556.2, -610761.4, 16919.684, -0.022584502, 0.21275832, -551708.44, 81.628006, 0.000000000040347756, 9.957847, 9.951856 
9.468016e+2, 2.536481e+2, -464711.63, -524628.8, 18595.32, -0.033968683, 0.19651286, -459409.72, -5140.3867, 0.0000000006101943, 9.9577675, 9.951043 
9.4578075e+2, 2.6359922e+2, -365110.66, -426365.16, 6064.8906, -0.055705752, 0.1976504, -364515.94, -7767.5737, 0.000000006724211, 9.957806, 9.950635 
9.447585e+2, 2.7354947e+2, -271133.94, -343607.6, 13317.982, -0.10927413, 0.24908787, -268764.06, -9527.827, 0.000000054552586, 9.958154, 9.949416 
9.4373405e+2, 2.8349945e+2, -160225.11, -221280.08, 133.05222, -0.125874, 0.23800753, -160224.81, 1501.657, 0.0000003341785, 9.958432, 9.950447 
9.427129e+2, 2.93448e+2, -91707.71, -158983.55, 12323.746, 0.027096767, 0.15089525, -89521.27, -25291.252, 0.0000016125001, 9.957689, 9.94857 
9.416811e+2, 3.0339652e+2, 33807.063, -46225.145, -17392.61, -0.27116647, 0.28827193, 37423.414, 37423.414, 0.0000064614287, 9.958928, 9.948624 
9.679245e+2, 1.4517297e+2, -1507932.4, -1515344.4, 19058.475, 0.07857878, 0.29746515, -1492222.9, 25106.986, 0.0, 9.95853, 9.957379 
9.669096e+2, 1.5512896e+2, -1409000.4, -1426686.1, 4752.7617, 0.09790735, 0.21979286, -1407804.0, 11956.906, 0.0, 9.958482, 9.956461 
9.6589684e+2, 1.650856e+2, -1318532.9, -1342533.6, 17663.273, 0.13265128, 0.2714848, -1309179.1, 13006.527, 0.0, 9.958327, 9.955841 
9.648825e+2, 1.7504118e+2, -1219522.9, -1240995.4, 10780.299, 0.09185345, 0.2429577, -1215044.5, 9575.995, 0.0, 9.958076, 9.955955 
9.6386796e+2, 1.8499693e+2, -1123636.0, -1149385.4, 20900.965, 0.028163968, 0.22306976, -1111962.6, 15091.303, 0.0, 9.958125, 9.955647 
9.6285456e+2, 1.9495222e+2, -1028571.25, -1061106.0, 19593.334, 0.04259292, 0.24365602, -1019372.44, 10119.555, 0.0, 9.958183, 9.95486 
9.61841e+2, 2.0490696e+2, -932621.3, -972011.06, 24418.498, 0.060028035, 0.25244263, -920945.0, 10990.486, 0.0, 9.958293, 9.954215 
9.6082634e+2, 2.1486057e+2, -834291.75, -879323.3, 23582.867, 0.024510095, 0.23459233, -824202.1, 10187.447, 0.0, 9.958441, 9.953645 
9.5981085e+2, 2.2481404e+2, -737605.06, -784237.25, 24806.305, -0.011418946, 0.21556534, -726877.2, 9968.172, 0.0000000000000117120025, 9.958378, 9.953371 
9.5879513e+2, 2.3476669e+2, -646770.06, -698657.3, 25732.727, -0.019247865, 0.20426866, -636172.7, 3136.5366, 0.0000000000003355644, 9.9582, 9.952522 
9.577776e+2, 2.4471942e+2, -549247.1, -600466.4, 19753.732, -0.027547175, 0.21313787, -542513.9, -741.5516, 0.0000000000069838328, 9.958049, 9.952362 
9.567592e+2, 2.546714e+2, -457645.78, -515394.1, 21986.45, -0.04712475, 0.24050966, -450227.78, -5984.874, 0.00000000010561558, 9.958005, 9.9514675 
9.557386e+2, 2.6462296e+2, -356916.0, -413749.34, 10316.829, -0.05854572, 0.23400165, -355101.2, -8383.532, 0.0000000011640542, 9.958033, 9.951313 
9.547171e+2, 2.7457306e+2, -262270.6, -328866.03, 17253.436, -0.07302412, 0.19193523, -258066.06, -8859.386, 0.000000009444971, 9.9583645, 9.950263 
9.536926e+2, 2.8452328e+2, -164706.08, -225899.0, -1949.3276, -0.09255047, 0.17399298, -164644.03, -12949.681, 0.000000057857413, 9.958068, 9.950276 
9.526695e+2, 2.9447284e+2, -105566.29, -169320.97, 8316.224, -0.015686927, 0.20128399, -104499.37, -50310.53, 0.00000027926637, 9.95666, 9.948361 
9.5164084e+2, 3.044208e+2, 42292.914, -36299.035, -2452.8816, -0.2127748, 0.25121662, 42369.395, 42369.395, 0.0000011202083, 9.959362, 9.949278 
9.7788423e+2, 1.4618704e+2, -1505444.4, -1509010.5, 3238.1687, 0.188396, 0.26059932, -1503530.8, 3862.6372, 0.0, 9.958363, 9.957776 
9.768683e+2, 1.5614398e+2, -1406283.6, -1415756.1, -864.0946, 0.1187199, 0.19164735, -1406205.4, 3609.8794, 0.0, 9.958428, 9.957348 
9.7585475e+2, 1.6610193e+2, -1315728.5, -1331897.9, 9201.801, 0.0821271, 0.29233816, -1311564.3, 662.9528, 0.0, 9.958317, 9.956641 
9.748407e+2, 1.7605852e+2, -1215001.9, -1229270.4, 3140.564, 0.09095373, 0.28012314, -1214341.1, 311.3914, 0.0, 9.95821, 9.956789 
9.7382647e+2, 1.8601476e+2, -1120745.8, -1143200.0, 12646.758, 0.045536228, 0.24859335, -1115061.6, 2019.5814, 0.0, 9.958399, 9.956045 
9.72813e+2, 1.9597018e+2, -1023866.6, -1053286.5, 10747.571, 0.04689156, 0.24071404, -1020358.7, -841.006, 0.0, 9.958566, 9.955343 
9.717997e+2, 2.0592564e+2, -922490.94, -956775.06, 15051.056, 0.06546365, 0.2517406, -916821.06, 5132.9404, 0.0, 9.958873, 9.955115 
9.707854e+2, 2.1588038e+2, -821141.56, -862853.6, 14129.824, 0.03402629, 0.26018333, -816805.8, 7591.4346, 0.0, 9.959258, 9.95452 
9.697697e+2, 2.2583504e+2, -722497.06, -765650.1, 13293.766, -0.012704011, 0.26610112, -718730.56, 8111.0757, 0.0000000000000014914695, 9.959242, 9.9543295 
9.6875364e+2, 2.3578878e+2, -632309.56, -680669.06, 15163.859, -0.0277764, 0.27079505, -627948.06, 1346.8452, 0.000000000000042732568, 9.959054, 9.953417 
9.6773624e+2, 2.4574217e+2, -530999.06, -580816.4, 11702.327, -0.032362863, 0.26178923, -528387.06, 3364.12, 0.00000000000088938075, 9.959229, 9.953195 
9.66718e+2, 2.5569454e+2, -432436.56, -493782.8, 15612.374, -0.056658946, 0.25575122, -428691.84, 5525.765, 0.000000000013450299, 9.959739, 9.952128 
9.6569735e+2, 2.6564664e+2, -333450.4, -395102.16, 2557.1594, -0.070618644, 0.25042033, -333344.53, 3342.4785, 0.0000000001482496, 9.959692, 9.951783 
9.6467596e+2, 2.7559742e+2, -250452.31, -316959.8, 7891.8193, -0.067236066, 0.2298392, -249528.7, -10359.176, 0.0000000012029147, 9.959291, 9.950666 
9.6365124e+2, 2.8554815e+2, -143825.03, -213379.3, -9553.999, -0.104054056, 0.23918746, -142536.56, -884.48804, 0.0000000073681794, 9.959652, 9.950345 
9.626266e+2, 2.9549825e+2, -56060.18, -138726.95, 6397.229, -0.10241698, 0.29800043, -55568.055, -11426.517, 0.000000035559857, 9.959932, 9.9486885 
9.616014e+2, 3.054452e+2, 47640.332, -31286.605, 5651.5234, -0.1409428, 0.22125697, 48042.953, 48042.953, 0.00000014260962, 9.960025, 9.949324 
9.8784214e+2, 1.472023e+2, -1493214.1, -1504706.6, 17561.77, 0.120651744, 0.31606382, -1480482.4, 16963.045, 0.0, 9.9594145, 9.957655 
9.86827e+2, 1.5715954e+2, -1397687.1, -1407700.9, -479.4795, 0.13629098, 0.2650413, -1397664.3, 2200.3623, 0.0, 9.958773, 9.957693 
9.858127e+2, 1.6711803e+2, -1303401.1, -1317678.9, 10612.215, 0.045692198, 0.36060107, -1297750.0, 4521.211, 0.0, 9.958793, 9.957322 
9.847992e+2, 1.7707491e+2, -1202097.5, -1215043.8, 5513.7627, 0.107320465, 0.30682197, -1200067.5, 4626.0967, 0.0, 9.958756, 9.957467 
9.8378515e+2, 1.8703173e+2, -1109926.3, -1131668.6, 15959.455, 0.064912185, 0.2797789, -1101487.1, 5629.213, 0.0, 9.95888, 9.956536 
9.827715e+2, 1.9698778e+2, -1012581.3, -1040876.94, 15928.413, 0.032871418, 0.28566352, -1005424.8, 4122.2705, 0.0, 9.959065, 9.955852 
9.817585e+2, 2.069439e+2, -912608.8, -941672.56, 21271.24, 0.05098345, 0.29410964, -901379.5, 10597.416, 0.0, 9.959143, 9.955885 
9.8074454e+2, 2.168994e+2, -817398.1, -851329.3, 20287.445, 0.03327261, 0.30486324, -807917.3, 6495.5596, 0.0, 9.959126, 9.955226 
9.797288e+2, 2.2685495e+2, -717906.6, -752896.1, 16996.727, -0.017829763, 0.32726982, -711009.7, 5838.755, 0.00000000000000014322901, 9.959101, 9.955141 
9.787125e+2, 2.3680976e+2, -624149.0, -666495.9, 18198.9, -0.041592553, 0.35843801, -617402.6, 1888.5553, 0.0000000000000041040377, 9.95919, 9.954244 
9.776954e+2, 2.4676384e+2, -522803.1, -565292.7, 15648.8955, -0.041655503, 0.32407865, -517661.75, 4079.0122, 0.000000000000085429954, 9.959345, 9.954153 
9.7667766e+2, 2.5671643e+2, -427328.6, -482171.63, 18565.27, -0.06858531, 0.25671086, -421635.03, 2569.5955, 0.000000000001292103, 9.959723, 9.952891 
9.7565675e+2, 2.6666924e+2, -331277.4, -391536.16, 2631.3433, -0.09314492, 0.27370593, -331162.72, -4495.9424, 0.0000000000142405965, 9.959677, 9.951985 
9.746349e+2, 2.7662137e+2, -249582.47, -311881.9, 8096.4585, -0.09509589, 0.36284542, -248547.44, -19411.088, 0.00000000011554544, 9.959094, 9.951071 
9.736103e+2, 2.86573e+2, -136913.69, -197717.72, -4025.6926, -0.16366369, 0.3786725, -136648.33, -5038.2114, 0.0000000007077114, 9.959622, 9.951482 
9.725859e+2, 2.9652318e+2, -41562.81, -118342.07, 8198.458, -0.21097243, 0.31046313, -40697.14, -6599.5317, 0.000000003414842, 9.96032, 9.9499035 
9.7156084e+2, 3.0646962e+2, 26884.639, -56278.227, -6702.7813, -0.14126568, 0.22942851, 27421.406, 27421.406, 0.000000013690085, 9.958908, 9.948063 
9.9780214e+2, 1.4821598e+2, -1488208.4, -1494845.0, 1172.2311, 0.12323914, 0.27464363, -1488007.5, -494.4135, 0.0, 9.9593725, 9.958397 
9.967863e+2, 1.5817414e+2, -1394980.4, -1403842.4, -4133.1934, 0.17570782, 0.2974449, -1393351.9, -3428.6243, 0.0, 9.958917, 9.957964 
9.9577147e+2, 1.6813283e+2, -1294914.9, -1306332.9, 5723.1045, 0.0056849173, 0.3554064, -1292540.1, -212.24542, 0.0, 9.9592085, 9.957965 
9.947586e+2, 1.7808932e+2, -1193594.3, -1203818.4, 238.16907, 0.13019651, 0.2061821, -1193588.6, 1165.0841, 0.0, 9.9592, 9.958118 
9.9374473e+2, 1.8804725e+2, -1100198.3, -1117382.6, 9971.416, 0.10077924, 0.212212, -1095627.9, 1538.2559, 0.0, 9.959318, 9.957387 
9.9273074e+2, 1.9800499e+2, -1001614.6, -1024464.4, 11006.1875, -0.00016123152, 0.30578807, -997175.56, 2404.3523, 0.0, 9.959541, 9.956826 
9.917172e+2, 2.0796202e+2, -900164.6, -921007.75, 16216.69, -0.02148938, 0.28443116, -891309.56, 10691.205, 0.0, 9.959541, 9.957132 
9.9070346e+2, 2.1791783e+2, -810120.3, -836794.1, 15968.034, -0.004647402, 0.21305063, -802652.1, 1781.4292, 0.0, 9.959327, 9.9560995 
9.8968834e+2, 2.278734e+2, -712104.06, -744646.06, 14598.432, 0.0043827244, 0.17857999, -706515.06, 353.83884, 0.000000000000000010837507, 9.959487, 9.955514 
9.8867255e+2, 2.3782836e+2, -610656.8, -650270.06, 16287.215, -0.0053385757, 0.17590736, -604820.2, 4489.87, 0.00000000000000031058006, 9.959919, 9.955014 
9.876551e+2, 2.4778414e+2, -513689.78, -548217.44, 12146.824, -0.028782252, 0.21371011, -509844.72, 1898.5118, 0.0000000000000064639003, 9.959573, 9.955175 
9.8663753e+2, 2.577387e+2, -428342.75, -469515.25, 17875.28, -0.034363672, 0.23602884, -421665.13, -7477.2505, 0.000000000000097753626, 9.959231, 9.953922 
9.856176e+2, 2.676922e+2, -314750.97, -370643.88, 8699.366, -0.024860004, 0.22873245, -313428.25, 3215.2454, 0.0000000000010773522, 9.960465, 9.952921 
9.845957e+2, 2.7764404e+2, -209558.9, -277937.7, 16541.996, -0.030004757, 0.19400685, -205767.36, 13348.1455, 0.000000000008741193, 9.961303, 9.952039 
9.8357046e+2, 2.875959e+2, -131399.0, -181459.83, -114.910065, -0.10790007, 0.1419663, -131398.73, -9811.682, 0.00000000005353408, 9.959292, 9.95254 
9.8254555e+2, 2.9754803e+2, -91128.98, -137230.48, 6543.1064, -0.10753853, 0.17587939, -90218.31, -66163.22, 0.00000000025827646, 9.956483, 9.950281 
9.815184e+2, 3.0749583e+2, -27141.889, -87544.97, -1125.5618, -0.07805119, 0.28412524, -27120.924, -27120.924, 0.0000000010352618, 9.955128, 9.94724 
1.0077599e+3, 1.4923143e+2, -1491190.5, -1464228.4, -9383.598, 0.14946619, 0.35054824, -1461284.1, 16279.219, 0.0, 9.957099, 9.960838 
1.0067449e+3, 1.591899e+2, -1367887.9, -1384563.3, 12149.02, 0.09148497, 0.2855723, -1361490.8, 18479.133, 0.0, 9.960652, 9.958234 
1.0057316e+3, 1.6914807e+2, -1276822.8, -1300937.3, 4152.0063, 0.060583834, 0.3522959, -1276127.9, 6252.0503, 0.0, 9.960665, 9.957511 
1.0047173e+3, 1.7910643e+2, -1186714.9, -1194345.5, -3495.0762, 0.10330283, 0.38154197, -1185356.0, -568.0101, 0.0, 9.959548, 9.95858 
1.00370325e+3, 1.8906452e+2, -1096047.6, -1106212.3, 6363.0874, 0.048856944, 0.32802704, -1092986.3, -5787.631, 0.0, 9.959467, 9.958068 
1.0026901e+3, 1.9902214e+2, -996447.8, -1015932.94, 4019.5076, 0.019540343, 0.33463502, -995651.25, -6037.5234, 0.0, 9.959959, 9.957278 
1.0016775e+3, 2.0897982e+2, -892034.2, -916689.3, -7797.714, 0.060634915, 0.35850078, -889775.0, 2253.3293, 0.0, 9.960443, 9.957448 
1.00066334e+3, 2.1893686e+2, -790290.8, -815435.0, -15557.793, 0.05015721, 0.3269133, -782860.4, 11588.526, 0.0, 9.960529, 9.957644 
9.9964756e+2, 2.2889502e+2, -687901.56, -719934.06, -2042.6267, -0.03239125, 0.39450788, -687771.9, 9086.482, 0.0000000000000000006820092, 9.961005, 9.956801 
9.986322e+2, 2.3885092e+2, -590177.6, -631219.94, 6223.642, -0.032527115, 0.38529208, -589254.6, 10035.516, 0.00000000000000001954189, 9.961297, 9.955738 
9.976147e+2, 2.488057e+2, -498943.75, -529256.06, -6296.3325, -0.010635466, 0.2448399, -497687.94, 4045.565, 0.00000000000000040645458, 9.960346, 9.956375 
9.965962e+2, 2.5876302e+2, -417284.56, -453018.6, 3779.6357, -0.065716885, 0.38827753, -416889.16, -12737.326, 0.0000000000000061445223, 9.959804, 9.955122 
9.9557734e+2, 2.6871747e+2, -284207.0, -336972.8, -18689.342, -0.08558905, 0.3379616, -278258.03, 28339.633, 0.00000000000006771698, 9.962021, 9.955358 
9.945554e+2, 2.786717e+2, -211674.3, -265288.25, 30938.889, -0.17758514, 0.32150966, -197544.38, 11501.065, 0.0000000000005493915, 9.960463, 9.95293 
9.9353e+2, 2.88624e+2, -106765.08, -174174.81, -3134.105, -0.04104748, 0.35398307, -106619.68, 4893.7124, 0.0000000000033642223, 9.960918, 9.951836 
9.9250203e+2, 2.9857504e+2, -13185.138, -90758.93, -21542.002, -0.046279386, 0.32464197, -7604.4653, 6388.65, 0.000000000016230134, 9.961518, 9.951281 
9.9147195e+2, 3.08525e+2, 62887.797, 2180.5212, 2116.8665, -0.24806416, 0.29578176, 62961.523, 62961.523, 0.00000000006506301, 9.959567, 9.95133 
