coord_x,coord_y,stress_xx,stress_yy,tau_xy,velocity_x,velocity_y,stress_1,eps,damage,lx,ly
4.9995297e+0, 1.24176264e+2, -1729094.4, -1721484.4, 302.63785, 0.0016302892, -0.0049314476, -1721472.4, 1600.1453, 0.0, 9.999026, 10.000033 
4.9995995e+0, 1.3417494e+2, -1640300.6, -1643431.4, 59.08792, 0.0063645444, -0.00892863, -1640299.5, -15214.313, 0.0, 9.999071, 9.998656 
4.9997276e+0, 1.4417303e+2, -1544967.1, -1557236.3, 539.49756, 0.005525984, -0.017865354, -1544943.4, -17839.639, 0.0, 9.999345, 9.997719 
4.9999562e+0, 1.5417087e+2, -1438026.1, -1454646.1, -97.49436, -0.0014623873, -0.0075095966, -1438025.5, -8900.746, 0.0, 9.999941, 9.997739 
5.0002056e+0, 1.641676e+2, -1347976.8, -1384872.0, -120.45, -0.002188303, -0.0039018965, -1347976.4, -16819.4, 0.0, 10.000455, 9.995567 
5.000487e+0, 1.7416304e+2, -1244566.3, -1285134.0, 1595.4502, 0.0056831166, -0.009655627, -1244503.6, -11301.912, 0.0, 10.00086, 9.995486 
5.000752e+0, 1.841579e+2, -1148341.1, -1202101.3, 2046.0562, 0.007808339, -0.009757843, -1148263.4, -13011.19, 0.0, 10.001348, 9.994228 
5.000998e+0, 1.9415218e+2, -1041404.06, -1099744.8, -104.14588, 0.0020470123, -0.0043581775, -1041403.9, -4095.806, 0.0, 10.001955, 9.994227 
5.0012743e+0, 2.0414534e+2, -950573.9, -1030036.1, -1071.0905, 0.0005793226, -0.004507227, -950559.44, -11184.318, 0.0, 10.002537, 9.992015 
5.001594e+0, 2.141372e+2, -845132.3, -929409.3, -122.59087, 0.005126809, -0.014176915, -845132.1, -3676.8506, 0.0, 10.003085, 9.991925 
5.0019443e+0, 2.2412819e+2, -750843.5, -855039.06, 1353.2452, 0.005836179, -0.011511593, -750825.94, -7282.3706, 0.0, 10.003772, 9.989978 
5.0023365e+0, 2.3411828e+2, -640407.5, -751726.1, 2193.2913, 0.0011167661, 0.0062328824, -640364.3, 5276.5938, 0.0, 10.00465, 9.989911 
5.002686e+0, 2.4410743e+2, -544499.06, -674769.25, 1416.0328, 0.000119058124, 0.014821699, -544483.7, 3264.019, 0.0, 10.005369, 9.988124 
5.002974e+0, 2.5409544e+2, -439622.84, -573947.3, -30.69432, 0.0044679875, 0.008384885, -439622.84, 10242.458, 0.0, 10.005858, 9.988075 
5.0032496e+0, 2.6408252e+2, -348088.4, -501516.47, -418.5868, 0.005959751, 0.006981437, -348087.28, 3904.686, 0.0, 10.00638, 9.986072 
5.003507e+0, 2.7406856e+2, -242167.5, -400294.44, 232.61394, 0.0033908202, 0.00954703, -242167.16, 11961.504, 0.0, 10.006947, 9.986014 
5.003708e+0, 2.840536e+2, -151526.69, -328078.94, 194.52896, 0.0010312401, 0.006818485, -151526.47, 4749.127, 0.0, 10.007395, 9.984031 
5.0038236e+0, 2.9403746e+2, -49734.875, -228626.94, 296.03125, -0.001021123, -0.0064229444, -49734.387, 8699.527, 0.0, 10.007668, 9.983993 
5.004051e+0, 3.0402488e+2, 52914.53, -77418.84, -571.65985, 0.0016247067, -0.0008473942, 52917.04, 52917.04, 0.0, 10.008069, 9.990802 
5.004434e+0, 3.1401607e+2, 62123.902, -71683.37, -4218.331, 0.0110481605, 0.029356405, 62256.754, 62256.754, 0.0, 10.008646, 9.990917 
1.4998588e+1, 1.2417644e+2, -1729553.4, -1722424.1, 392.33994, 0.0046961457, 0.005913338, -1722402.6, 668.56244, 0.0, 9.999026, 9.9999695 
1.4998798e+1, 1.3417508e+2, -1640834.0, -1644528.3, 238.20396, 0.019022277, 0.0053724614, -1640818.6, -15734.42, 0.0, 9.999072, 9.998582 
1.4999183e+1, 1.4417301e+2, -1546278.0, -1559921.6, 2602.2705, 0.0165606, -0.0070637693, -1545798.5, -18694.145, 0.0, 9.999345, 9.997537 
1.4999868e+1, 1.5417053e+2, -1439415.1, -1457494.1, 2168.0344, -0.00437458, -0.008970867, -1439158.8, -10030.392, 0.0, 9.999941, 9.997545 
1.5000618e+1, 1.6416733e+2, -1345035.8, -1378822.4, 1457.2616, -0.006601286, -0.007508093, -1344973.0, -13813.157, 0.0, 10.000455, 9.995979 
1.5001461e+1, 1.7416334e+2, -1241253.5, -1278314.4, 3134.357, 0.017015858, -0.0010922503, -1240990.3, -7791.4053, 0.0, 10.00086, 9.995951 
1.5002257e+1, 1.8415824e+2, -1151852.0, -1209329.5, 4263.39, 0.023448816, -0.00010597759, -1151537.5, -16288.549, 0.0, 10.001348, 9.993736 
1.5002994e+1, 1.941518e+2, -1045541.3, -1108276.6, 2200.8357, 0.0061278427, -0.008515772, -1045464.2, -8152.175, 0.0, 10.001955, 9.993647 
1.5003823e+1, 2.0414478e+2, -949242.0, -1027278.56, 1012.3221, 0.0017165565, -0.0056754015, -949228.9, -9847.713, 0.0, 10.002536, 9.992204 
1.5004782e+1, 2.1413715e+2, -843301.7, -925632.8, 1955.1409, 0.01538868, 0.0117435595, -843255.3, -1799.1676, 0.0, 10.003085, 9.992182 
1.5005833e+1, 2.2412837e+2, -749315.2, -851877.5, 4569.864, 0.017487383, 0.012515876, -749112.0, -5569.881, 0.0, 10.003771, 9.990193 
1.5007009e+1, 2.3411825e+2, -638931.06, -748657.94, 5524.8877, 0.0033112185, -0.011536403, -638653.56, 6987.4116, 0.0, 10.004649, 9.990121 
1.5008058e+1, 2.4410722e+2, -546725.25, -679361.1, 3394.9172, 0.00036576917, -0.015432639, -546638.44, 1110.7216, 0.0, 10.005368, 9.987811 
1.5008922e+1, 2.540952e+2, -442209.8, -579291.25, 1828.2737, 0.013404761, 0.00786524, -442185.44, 7682.234, 0.0, 10.005857, 9.987712 
1.500975e+1, 2.6408222e+2, -347181.03, -499634.7, 1707.5614, 0.017855883, 0.015598653, -347161.9, 4833.0903, 0.0, 10.006381, 9.9862 
1.5010521e+1, 2.7406827e+2, -240946.86, -397751.16, 2381.942, 0.010165614, -0.00078235683, -240910.69, 13221.298, 0.0, 10.006946, 9.986189 
1.5011124e+1, 2.8405347e+2, -151127.44, -327237.47, 1335.6804, 0.0030715137, 0.0049790414, -151117.31, 5159.638, 0.0, 10.007394, 9.984089 
1.5011472e+1, 2.9403788e+2, -49424.504, -227994.34, 1332.3848, -0.003057193, 0.040789906, -49414.563, 9015.497, 0.0, 10.0076685, 9.984036 
1.5012152e+1, 3.0402482e+2, 46768.723, -90222.82, 1526.4331, 0.004877037, 0.036425687, 46785.73, 46785.73, 0.0, 10.00807, 9.989923 
1.5013301e+1, 3.140141e+2, 55234.637, -85983.414, -2012.9875, 0.033087146, -0.028645804, 55263.324, 55263.324, 0.0, 10.008645, 9.989937 
2.4997386e+1, 1.24176174e+2, -1740375.6, -1727572.9, -784.3818, 0.018958462, 0.010190864, -1727525.0, -4451.05, 0.0, 9.998286, 9.999981 
2.4997976e+1, 1.3417484e+2, -1638669.4, -1643331.5, -141.73938, 0.022679033, 0.010578241, -1638665.0, -13578.119, 0.0, 9.999212, 9.998594 
2.4998724e+1, 1.4417277e+2, -1540679.8, -1557198.6, 2469.5017, 0.017233744, -0.0012161969, -1540318.5, -13211.542, 0.0, 9.999725, 9.997536 
2.4999782e+1, 1.5417029e+2, -1443287.5, -1459384.3, 3427.4148, 0.0060164733, -0.004670821, -1442588.0, -13456.995, 0.0, 9.999678, 9.997544 
2.500098e+1, 1.641671e+2, -1350792.0, -1380859.5, 3645.9146, 0.005598743, -0.004378698, -1350356.1, -19193.883, 0.0, 10.00003, 9.996047 
2.5002393e+1, 1.7416319e+2, -1239520.1, -1276640.5, 2520.104, 0.02016953, 0.0012978441, -1239349.8, -6149.206, 0.0, 10.000942, 9.996024 
2.5003737e+1, 1.8415812e+2, -1148248.8, -1207877.3, 2996.2998, 0.02399951, 0.002419935, -1148098.6, -12848.184, 0.0, 10.001606, 9.99371 
2.5005004e+1, 1.9415165e+2, -1046183.1, -1108983.6, 4963.693, 0.01285138, -0.004847452, -1045793.2, -8479.451, 0.0, 10.001927, 9.993611 
2.5006413e+1, 2.0414458e+2, -950518.44, -1028253.0, 6057.978, 0.01105288, -0.0023306946, -950049.1, -10665.954, 0.0, 10.002464, 9.992171 
2.5008044e+1, 2.1413688e+2, -840335.75, -924536.5, 4920.324, 0.022192579, 0.012438317, -840049.2, 1409.4581, 0.0, 10.003303, 9.992152 
2.5009748e+1, 2.241281e+2, -746679.6, -850431.2, 5427.243, 0.023211688, 0.012584172, -746396.5, -2851.706, 0.0, 10.003944, 9.990208 
2.5011557e+1, 2.3411804e+2, -643727.25, -750775.0, 4909.506, 0.009982849, -0.009274924, -643502.56, 2140.7417, 0.0, 10.0043125, 9.990139 
2.5013286e+1, 2.4410701e+2, -552669.3, -682445.9, 3559.805, 0.0062460494, -0.013841235, -552571.75, -4820.256, 0.0, 10.00497, 9.987792 
2.5014892e+1, 2.5409487e+2, -439780.47, -578367.4, 4587.294, 0.015830545, 0.0044176346, -439628.8, 10241.801, 0.0, 10.006036, 9.987688 
2.5016305e+1, 2.6408187e+2, -342861.88, -498062.03, 3745.0193, 0.019356102, 0.012110989, -342771.56, 9226.684, 0.0, 10.006699, 9.986155 
2.5017428e+1, 2.7406794e+2, -243587.03, -399571.34, 2598.0112, 0.014056769, 0.0026296, -243543.77, 10591.396, 0.0, 10.006788, 9.98614 
2.501854e+1, 2.8405312e+2, -152616.78, -328529.34, 1637.8956, 0.0091890525, 0.010229505, -152601.53, 3678.9084, 0.0, 10.007318, 9.984036 
2.5019622e+1, 2.9403743e+2, -38069.953, -223074.6, 1017.96326, 0.004914242, 0.04052191, -38064.35, 20370.053, 0.0, 10.008472, 9.983986 
2.5020745e+1, 3.0402416e+2, 57456.566, -88484.96, 450.06702, 0.0130207585, 0.032759603, 57457.957, 57457.957, 0.0, 10.008951, 9.989618 
2.5021902e+1, 3.1401312e+2, 49844.266, -92314.1, 1504.0972, 0.03918182, -0.032794062, 49860.176, 49860.176, 0.0, 10.008435, 9.989604 
3.4995922e+1, 1.2417547e+2, -1739751.3, -1726289.1, 2484.7837, 0.043439742, 0.0077218846, -1725845.1, -2764.0693, 0.0, 9.998285, 10.000069 
3.4997135e+1, 1.3417421e+2, -1637959.8, -1641877.9, 3364.933, 0.017147312, 0.006940703, -1636025.1, -10931.884, 0.0, 9.999212, 9.9986925 
3.499835e+1, 1.4417233e+2, -1539344.9, -1554454.9, 2574.0918, 0.0071889707, -0.00054402597, -1538918.4, -11806.894, 0.0, 9.999725, 9.997723 
3.4999695e+1, 1.5417014e+2, -1441918.0, -1456564.5, 3252.2585, 0.029147692, 0.005356801, -1441228.3, -12095.441, 0.0, 9.999678, 9.997736 
3.5001296e+1, 1.6416691e+2, -1352745.6, -1384892.4, 6793.7515, 0.03381591, 0.0054313126, -1351368.9, -20204.533, 0.0, 10.0000305, 9.995772 
3.5003284e+1, 1.7416255e+2, -1241761.6, -1281283.4, 5990.769, 0.014725208, -0.0024053345, -1240873.5, -7666.414, 0.0, 10.000943, 9.9957075 
3.5005197e+1, 1.841575e+2, -1145083.8, -1201380.6, 4387.5425, 0.008936802, -0.0023288345, -1144743.9, -9487.178, 0.0, 10.001607, 9.994151 
3.5007024e+1, 1.9415171e+2, -1042536.06, -1101485.9, 6182.055, 0.021701152, 0.00673716, -1041894.75, -4581.4443, 0.0, 10.001929, 9.994122 
3.5009053e+1, 2.0414478e+2, -952266.7, -1031882.56, 9055.695, 0.027896272, 0.005292602, -951249.7, -11868.309, 0.0, 10.002465, 9.991924 
3.5011375e+1, 2.1413645e+2, -842599.3, -929219.9, 8100.7485, 0.025056051, -0.011976505, -841848.25, -385.27267, 0.0, 10.003303, 9.991833 
3.5013688e+1, 2.241274e+2, -747986.3, -853135.9, 6963.0186, 0.02254799, -0.01124558, -747527.25, -3975.5469, 0.0, 10.003944, 9.990024 
3.5015976e+1, 2.3411761e+2, -644922.4, -753275.4, 6306.0054, 0.020602431, 0.013114028, -644556.56, 1091.2563, 0.0, 10.004313, 9.989968 
3.5018367e+1, 2.4410674e+2, -550699.06, -678412.75, 7356.37, 0.017069915, 0.019347811, -550276.7, -2521.9778, 0.0, 10.0049715, 9.988067 
3.5020885e+1, 2.5409454e+2, -437552.9, -573727.9, 8622.094, 0.011461071, -0.0016243596, -437009.16, 12864.999, 0.0, 10.006034, 9.988006 
3.502291e+1, 2.640815e+2, -344404.56, -501235.6, 4410.465, 0.010094732, -0.0034680362, -344280.63, 7721.1563, 0.0, 10.006697, 9.985939 
3.5024223e+1, 2.7406764e+2, -245468.86, -403507.5, 2932.096, 0.014703558, 0.019725567, -245414.48, 8723.812, 0.0, 10.006789, 9.98587 
3.5025954e+1, 2.8405255e+2, -153718.42, -330837.5, 5654.155, 0.01895701, 0.022354627, -153538.11, 2748.0417, 0.0, 10.007318, 9.983879 
3.502827e+1, 2.940361e+2, -39136.766, -225243.69, 5407.5938, 0.022561146, -0.0068944194, -38979.773, 19467.217, 0.0, 10.008471, 9.983838 
3.502983e+1, 3.040229e+2, 59355.668, -84506.58, -892.9612, 0.025784502, -0.011835618, 59361.21, 59361.21, 0.0, 10.00895, 9.989891 
3.5030234e+1, 3.1401312e+2, 52143.176, -87647.77, -465.60284, 0.028733466, 0.016545432, 52144.727, 52144.727, 0.0, 10.00844, 9.989921 
4.499431e+1, 1.24174364e+2, -1735684.4, -1722367.4, 682.27893, 0.04420494, 0.008120279, -1722332.5, 759.4914, 0.0, 9.998477, 10.000241 
4.4995978e+1, 1.3417329e+2, -1648940.0, -1645117.0, 2334.2192, 0.02223418, 0.007193678, -1644011.5, -18909.031, 0.0, 9.998375, 9.998881 
4.4997653e+1, 1.4417157e+2, -1552785.8, -1559716.8, 1958.3011, 0.013527639, 0.00045983383, -1552270.8, -25151.6, 0.0, 9.998756, 9.997837 
4.4999492e+1, 1.5416948e+2, -1439176.8, -1454033.3, 2033.9891, 0.034890566, 0.0062397816, -1438903.3, -9763.845, 0.0, 9.999813, 9.997843 
4.50016e+1, 1.6416632e+2, -1346195.1, -1381901.1, 6206.004, 0.038250286, 0.006466945, -1345147.3, -13976.75, 0.0, 10.000484, 9.995755 
4.5004094e+1, 1.7416193e+2, -1246516.5, -1283919.4, 7573.4277, 0.016917193, -0.000708818, -1245041.3, -11827.799, 0.0, 10.000633, 9.995679 
4.500659e+1, 1.841569e+2, -1151584.0, -1203885.6, 6267.3296, 0.011262808, -0.00009498146, -1150843.5, -15580.594, 0.0, 10.001136, 9.994209 
4.500911e+1, 1.9415118e+2, -1039020.44, -1099046.0, 4768.3364, 0.02715947, 0.009346043, -1038644.0, -1325.2126, 0.0, 10.002137, 9.994186 
4.5011747e+1, 2.0414425e+2, -947024.25, -1029415.25, 6268.558, 0.032793693, 0.0075506247, -946550.06, -7163.473, 0.0, 10.002827, 9.991916 
4.501456e+1, 2.141359e+2, -845858.06, -930942.75, 7552.0044, 0.02406364, -0.011035974, -845193.0, -3724.5752, 0.0, 10.003086, 9.991819 
4.5017484e+1, 2.2412682e+2, -752497.7, -856470.44, 8569.647, 0.020719117, -0.009605803, -751796.06, -8238.504, 0.0, 10.003686, 9.989922 
4.5020556e+1, 2.3411696e+2, -639159.94, -751734.8, 8418.586, 0.024983918, 0.018054117, -638533.9, 7120.7026, 0.0, 10.004763, 9.989856 
4.502365e+1, 2.4410604e+2, -542908.5, -673982.94, 8674.346, 0.02315383, 0.02502434, -542336.94, 5424.8193, 0.0, 10.005477, 9.988125 
4.5026752e+1, 2.540939e+2, -442164.72, -575124.5, 8080.6, 0.012414447, 0.0012366952, -441675.4, 8205.214, 0.0, 10.005682, 9.98808 
4.5029345e+1, 2.6408088e+2, -351592.28, -505258.7, 3213.0144, 0.007247453, -0.0019671428, -351525.13, 483.00833, 0.0, 10.006228, 9.985889 
4.5031202e+1, 2.7406695e+2, -239114.08, -401137.47, 3209.8708, 0.010061222, 0.022197094, -239050.52, 15094.566, 0.0, 10.007256, 9.985807 
4.5033535e+1, 2.8405172e+2, -146788.34, -329126.25, 6889.634, 0.01765356, 0.022408772, -146528.39, 9765.725, 0.0, 10.007863, 9.983733 
4.5036525e+1, 2.9403508e+2, -49139.5, -231821.55, 6599.191, 0.031724956, -0.014173454, -48901.42, 9555.803, 0.0, 10.007858, 9.983683 
4.503863e+1, 3.040219e+2, 52930.047, -86028.92, -537.3474, 0.03643524, -0.01579585, 52932.12, 52932.12, 0.0, 10.008441, 9.990032 
4.5039383e+1, 3.1401244e+2, 74108.375, -75125.39, -1293.2742, 0.027694458, 0.03136669, 74119.58, 74119.58, 0.0, 10.009868, 9.990094 
5.4992545e+1, 1.2417286e+2, -1733830.9, -1718610.1, 237.24672, 0.019707825, 0.011777093, -1718606.4, 4500.496, 0.0, 9.998479, 10.000496 
5.499451e+1, 1.3417205e+2, -1647003.5, -1641113.4, 1944.1268, 0.03759937, 0.011272433, -1640529.6, -15415.023, 0.0, 9.998373, 9.999154 
5.4996634e+1, 1.441705e+2, -1552472.3, -1559069.1, 5586.7725, 0.035835728, 0.0019491692, -1549282.9, -22152.975, 0.0, 9.998756, 9.997881 
5.4999185e+1, 1.5416832e+2, -1438994.5, -1453688.1, 6061.313, 0.022335012, -0.0019726611, -1436816.8, -7665.8184, 0.0, 9.999814, 9.997866 
5.500188e+1, 1.6416529e+2, -1344452.6, -1378379.5, 7031.043, 0.017833123, -0.0011573924, -1343053.3, -11872.549, 0.0, 10.000487, 9.995993 
5.5004823e+1, 1.741613e+2, -1244669.9, -1280134.8, 8132.53, 0.026025774, 0.0064513534, -1242893.9, -9674.23, 0.0, 10.000634, 9.995936 
5.5007917e+1, 1.8415628e+2, -1153883.9, -1208662.0, 9781.114, 0.030072972, 0.009175815, -1152189.9, -16920.777, 0.0, 10.001138, 9.993883 
5.501126e+1, 1.9415003e+2, -1041699.7, -1104608.6, 8570.772, 0.02842758, 0.0030148677, -1040552.94, -3222.5535, 0.0, 10.002139, 9.993807 
5.50145e+1, 2.0414303e+2, -945317.06, -1025948.5, 7477.1963, 0.024768842, 0.0044313823, -944629.56, -5230.6274, 0.0, 10.00283, 9.992151 
5.501759e+1, 2.1413527e+2, -843751.4, -926647.9, 8524.203, 0.018453922, 0.015104424, -842883.94, -1408.8007, 0.0, 10.003089, 9.992111 
5.5021137e+1, 2.2412634e+2, -752611.44, -856754.06, 12366.808, 0.017048523, 0.017258517, -751163.0, -7600.383, 0.0, 10.003688, 9.989901 
5.50253e+1, 2.3411605e+2, -639526.44, -752480.9, 12495.895, 0.022562869, 0.005705896, -638160.56, 7503.0435, 0.0, 10.004762, 9.989805 
5.502913e+1, 2.4410494e+2, -544011.9, -676264.6, 9727.157, 0.023485795, 0.003427576, -543300.3, 4472.2715, 0.0, 10.005477, 9.987969 
5.503249e+1, 2.5409293e+2, -443313.1, -577550.6, 8845.086, 0.017950013, 0.012652003, -442732.8, 7157.3594, 0.0, 10.005685, 9.987913 
5.503561e+1, 2.6407996e+2, -350780.6, -503603.8, 6818.5815, 0.01020031, 0.016462537, -350476.97, 1540.4417, 0.0, 10.006229, 9.986002 
5.503835e+1, 2.7406585e+2, -238116.02, -399065.06, 7109.797, -0.00054907816, 0.010073948, -237802.56, 16353.069, 0.0, 10.007256, 9.9859495 
5.5041265e+1, 2.840507e+2, -147696.64, -331043.3, 7233.7095, 0.0045044487, 0.010407505, -147411.69, 8892.773, 0.0, 10.007865, 9.983602 
5.504439e+1, 2.940343e+2, -50177.88, -234124.0, 6563.727, 0.03225081, 0.01827459, -49943.965, 8521.27, 0.0, 10.007865, 9.983521 
5.504715e+1, 3.0402106e+2, 53052.516, -85916.26, 4363.6064, 0.044520695, 0.02039631, 53189.4, 53189.4, 0.0, 10.008447, 9.990036 
5.504932e+1, 3.1401107e+2, 74221.04, -74828.086, 4115.0825, 0.034336716, 0.011849391, 74334.56, 74334.56, 0.0, 10.009865, 9.990114 
6.499046e+1, 1.2417121e+2, -1749167.5, -1725356.5, 947.40735, 0.017204959, 0.007922825, -1725318.9, -2195.937, 0.0, 9.997406, 10.000561 
6.4992833e+1, 1.3417052e+2, -1648192.1, -1640864.1, 1247.1261, 0.038575567, 0.011062617, -1640657.6, -15527.951, 0.0, 9.998258, 9.999227 
6.499546e+1, 1.4416903e+2, -1550448.5, -1557867.5, 5111.1636, 0.036465116, 0.0060746847, -1547842.5, -20698.28, 0.0, 9.998884, 9.9979 
6.499868e+1, 1.5416692e+2, -1447657.0, -1457761.5, 5611.0156, 0.020060543, 0.0043427264, -1445158.8, -15993.68, 0.0, 9.999219, 9.997878 
6.500201e+1, 1.6416393e+2, -1353437.1, -1381463.1, 5647.94, 0.015488954, 0.0048673293, -1352341.8, -21147.438, 0.0, 9.999821, 9.996107 
6.500555e+1, 1.7416003e+2, -1241306.8, -1277115.5, 5700.231, 0.027481329, 0.008561336, -1240421.3, -7188.912, 0.0, 10.000804, 9.996058 
6.500925e+1, 1.8415503e+2, -1149148.3, -1206996.6, 8005.583, 0.031868316, 0.009257171, -1148060.9, -12779.425, 0.0, 10.001488, 9.993826 
6.501318e+1, 1.9414872e+2, -1047627.1, -1108307.3, 9118.013, 0.025570707, 0.0038633582, -1046286.6, -8943.256, 0.0, 10.00177, 9.993733 
6.5017074e+1, 2.0414168e+2, -952187.56, -1029841.6, 8406.152, 0.022079948, 0.006853147, -951288.06, -11875.643, 0.0, 10.002384, 9.992102 
6.502091e+1, 2.1413387e+2, -838581.2, -924698.0, 6932.537, 0.022535924, 0.020229015, -838026.7, 3462.1467, 0.0, 10.003466, 9.992061 
6.5025085e+1, 2.2412492e+2, -745660.1, -853022.25, 9310.532, 0.020341357, 0.020626144, -744858.75, -1282.1396, 0.0, 10.004148, 9.989932 
6.5029734e+1, 2.3411457e+2, -646423.2, -755375.8, 10075.244, 0.014286899, 0.0012033678, -645499.4, 178.45146, 0.0, 10.004271, 9.989845 
6.503415e+1, 2.4410346e+2, -554831.0, -682588.9, 8027.886, 0.011845271, -0.0016945167, -554328.5, -6541.5015, 0.0, 10.004784, 9.987871 
6.503822e+1, 2.5409144e+2, -441728.97, -578020.94, 7566.752, 0.014537039, 0.017190356, -441310.16, 8594.687, 0.0, 10.005846, 9.9878025 
6.5042067e+1, 2.640784e+2, -344594.28, -500739.9, 5710.542, 0.012402138, 0.02181964, -344385.72, 7646.9565, 0.0, 10.0066595, 9.98599 
6.504557e+1, 2.7406418e+2, -240327.83, -400154.2, 4949.2817, 0.0033616573, 0.0036621133, -240174.72, 13997.199, 0.0, 10.007105, 9.985947 
6.50491e+1, 2.84049e+2, -148390.8, -331145.13, 4324.6963, 0.004239583, 0.003453099, -148288.52, 8032.138, 0.0, 10.007808, 9.983622 
6.5052634e+1, 2.940328e+2, -35329.58, -226710.38, 4905.5547, 0.019248167, 0.027010167, -35203.918, 23275.865, 0.0, 10.008874, 9.983542 
6.5056044e+1, 3.0401945e+2, 66802.875, -82979.87, 3114.5764, 0.033658072, 0.030778613, 66867.61, 66867.61, 0.0, 10.009551, 9.989707 
6.50592e+1, 3.1400892e+2, 68542.07, -81702.13, 27.241007, 0.047357064, 0.0034758977, 68542.08, 68542.08, 0.0, 10.009652, 9.989746 
7.498806e+1, 1.241694e+2, -1750043.5, -1727169.8, 3984.316, 0.03543058, -0.003304223, -1726495.6, -3355.255, 0.0, 9.997409, 10.000436 
7.499095e+1, 1.3416865e+2, -1649083.5, -1642689.5, 4469.9995, 0.024534259, 0.006520708, -1640390.9, -15242.916, 0.0, 9.998257, 9.999103 
7.4994135e+1, 1.4416721e+2, -1550487.6, -1557976.4, 6515.337, 0.014690855, 0.012774675, -1546717.4, -19554.945, 0.0, 9.998885, 9.997891 
7.4997973e+1, 1.5416524e+2, -1447638.1, -1457737.5, 6878.595, 0.02722459, 0.025300091, -1444154.8, -14972.705, 0.0, 9.999219, 9.997879 
7.5001985e+1, 1.6416223e+2, -1353485.1, -1381588.8, 9151.936, 0.030366354, 0.024598045, -1350767.5, -19556.178, 0.0, 9.999822, 9.996098 
7.5006294e+1, 1.741581e+2, -1241371.6, -1277261.0, 9429.906, 0.020647855, 0.005577598, -1239044.9, -5793.3213, 0.0, 10.000804, 9.996048 
7.501058e+1, 1.8415312e+2, -1147592.1, -1203838.1, 9273.112, 0.015934926, 0.00021180915, -1146102.8, -10802.645, 0.0, 10.001491, 9.99404 
7.5014883e+1, 1.9414721e+2, -1045941.0, -1104862.8, 10178.4795, 0.018075138, 0.011831059, -1044232.25, -6874.264, 0.0, 10.001772, 9.993967 
7.5019485e+1, 2.0414016e+2, -954525.94, -1034714.0, 12234.808, 0.024149561, 0.01486659, -952700.75, -13273.563, 0.0, 10.002387, 9.991768 
7.5024515e+1, 2.1413174e+2, -841305.0, -930353.2, 11035.324, 0.035583418, 0.0044662827, -839957.8, 1551.8114, 0.0, 10.003468, 9.991674 
7.502934e+1, 2.2412255e+2, -745065.44, -851806.75, 10072.537, 0.029801574, 0.00062054023, -744123.25, -523.7529, 0.0, 10.0041485, 9.990015 
7.503386e+1, 2.3411258e+2, -645482.3, -753485.8, 10517.696, -0.00016512486, 0.0043128645, -644467.6, 1229.7283, 0.0, 10.004273, 9.989972 
7.5038695e+1, 2.4410158e+2, -555038.94, -683101.5, 11733.616, -0.012032804, 0.009396422, -553972.7, -6167.4473, 0.0, 10.004787, 9.987835 
7.5043947e+1, 2.540894e+2, -442092.03, -578794.4, 11603.461, 0.0017277701, 0.014824246, -441114.13, 8810.743, 0.0, 10.005847, 9.987749 
7.5048745e+1, 2.640762e+2, -345554.47, -502716.0, 7609.227, 0.013164602, 0.014150192, -345186.9, 6867.1025, 0.0, 10.006659, 9.985855 
7.505286e+1, 2.7406192e+2, -241318.95, -402264.7, 6623.5015, 0.021151548, 0.0029166169, -241046.84, 13147.186, 0.0, 10.007107, 9.985802 
7.505703e+1, 2.840467e+2, -147156.45, -328651.44, 8137.04, 0.016045481, 0.0015829495, -146792.38, 9550.43, 0.0, 10.007811, 9.98379 
7.5061244e+1, 2.9403058e+2, -33924.945, -223774.02, 8931.283, -0.0077042193, 0.012386261, -33505.707, 24995.254, 0.0, 10.008873, 9.983744 
7.50653e+1, 3.0401704e+2, 62213.133, -92595.83, 3838.8499, 0.0035085669, 0.01579587, 62308.27, 62308.27, 0.0, 10.009555, 9.989045 
7.5069046e+1, 3.140059e+2, 63418.83, -92625.88, 397.3241, 0.06553198, 0.0060311253, 63419.84, 63419.84, 0.0, 10.009663, 9.988991 
8.498511e+1, 1.2416655e+2, -1759034.3, -1729949.4, -2080.4546, 0.033450104, -0.001549888, -1729801.4, -6633.008, 0.0, 9.996727, 10.000579 
8.49888e+1, 1.3416596e+2, -1658695.0, -1645591.9, 688.69336, 0.020279156, 0.008523024, -1645555.8, -20381.287, 0.0, 9.997526, 9.999262 
8.499268e+1, 1.4416465e+2, -1558319.9, -1560698.8, 3278.74, 0.010195362, 0.01502979, -1556021.5, -28833.951, 0.0, 9.998306, 9.997988 
8.499712e+1, 1.5416272e+2, -1449238.5, -1457512.5, 4233.7686, 0.027825171, 0.023791209, -1447456.1, -18249.553, 0.0, 9.999067, 9.997968 
8.500181e+1, 1.6415974e+2, -1354543.4, -1382486.9, 7662.501, 0.033412028, 0.022305714, -1352580.1, -21344.545, 0.0, 9.999766, 9.996063 
8.5006905e+1, 1.7415561e+2, -1247805.6, -1280925.3, 7746.9644, 0.022550793, 0.0068788417, -1246083.1, -12807.113, 0.0, 10.000389, 9.996 
8.5011894e+1, 1.8415064e+2, -1152499.5, -1205630.3, 6161.988, 0.016039962, 0.0023525269, -1151794.3, -16469.746, 0.0, 10.00113, 9.994092 
8.5016763e+1, 1.9414476e+2, -1041569.9, -1102074.6, 5704.7686, 0.015443184, 0.011086387, -1041036.7, -3654.7239, 0.0, 10.002041, 9.994025 
8.502201e+1, 2.0413767e+2, -949657.94, -1033127.7, 8520.696, 0.019900212, 0.011027292, -948797.0, -9345.64, 0.0, 10.002752, 9.991698 
8.5027796e+1, 2.1412914e+2, -845966.75, -933544.5, 9630.84, 0.031209713, -0.0024614595, -844920.1, -3385.188, 0.0, 10.003189, 9.9915905 
8.50333e+1, 2.2411989e+2, -749977.44, -855101.6, 8640.747, 0.026501141, -0.004626473, -749271.94, -5646.4385, 0.0, 10.003852, 9.989932 
8.5038406e+1, 2.3410991e+2, -637914.9, -750750.8, 7458.069, -0.000780352, 0.0073600896, -637424.06, 8299.33, 0.0, 10.004831, 9.989888 
8.504385e+1, 2.4409887e+2, -543753.1, -677140.44, 8575.192, -0.012899258, 0.012673072, -543204.1, 4627.446, 0.0, 10.005538, 9.987878 
8.504974e+1, 2.5408664e+2, -441526.0, -577904.06, 9276.071, -0.0036353585, 0.006900693, -440897.97, 9053.578, 0.0, 10.005859, 9.9878025 
8.5055214e+1, 2.6407343e+2, -349627.2, -505688.25, 5860.4785, 0.006448208, 0.0046086307, -349407.44, 2673.4685, 0.0, 10.006422, 9.985765 
8.5060036e+1, 2.7405915e+2, -238834.95, -402240.7, 5167.7324, 0.017405707, 0.0051559997, -238671.69, 15549.162, 0.0, 10.007328, 9.985696 
8.5065e+1, 2.840438e+2, -143146.27, -328586.13, 6478.7065, 0.014709844, 0.0027440197, -142920.2, 13450.842, 0.0, 10.008166, 9.983623 
8.507012e+1, 2.9402727e+2, -34830.34, -226161.38, 4534.9272, -0.007498332, -0.0061100083, -34722.91, 23809.785, 0.0, 10.008895, 9.983569 
8.5074943e+1, 3.0401364e+2, 65344.074, -91709.48, -929.828, 0.0004657788, -0.0025252101, 65349.582, 65349.582, 0.0, 10.009796, 9.988989 
8.507922e+1, 3.1400278e+2, 81707.37, -84309.91, 763.87494, 0.052443672, 0.016784739, 81710.88, 81710.88, 0.0, 10.010943, 9.988945 
9.4981605e+1, 1.24162614e+2, -1756126.1, -1723953.8, 763.5266, 0.009741565, 0.013287338, -1723935.6, -728.359, 0.0, 9.996727, 10.000986 
9.498638e+1, 1.341624e+2, -1655550.5, -1639079.3, 3697.8381, 0.025603015, 0.017069183, -1638287.3, -13077.798, 0.0, 9.997524, 9.999704 
9.499111e+1, 1.4416133e+2, -1556891.9, -1557712.1, 6152.796, 0.022776445, 0.013021497, -1551135.5, -23915.611, 0.0, 9.998303, 9.998192 
9.4996125e+1, 1.5415935e+2, -1447956.3, -1454860.4, 7132.2236, 0.021360675, -0.00031720672, -1443484.6, -14245.647, 0.0, 9.999065, 9.998149 
9.500149e+1, 1.6415645e+2, -1354988.5, -1383427.8, 10056.522, 0.023989506, -0.0020160226, -1351791.8, -20524.383, 0.0, 9.999767, 9.995998 
9.50074e+1, 1.7415251e+2, -1248413.9, -1282194.9, 10108.818, 0.032572165, 0.012352906, -1245619.9, -12313.914, 0.0, 10.00039, 9.995913 
9.5013183e+1, 1.8414752e+2, -1153268.9, -1207245.0, 9503.424, 0.03157038, 0.01567534, -1151644.5, -16289.627, 0.0, 10.001132, 9.99398 
9.501882e+1, 1.9414131e+2, -1042359.6, -1103716.4, 9152.797, 0.017110558, 0.0015489676, -1041023.4, -3607.8813, 0.0, 10.002042, 9.993913 
9.502465e+1, 2.0413418e+2, -948304.1, -1030349.1, 10304.101, 0.00880091, -0.0046020215, -947029.8, -7544.606, 0.0, 10.002753, 9.991886 
9.503076e+1, 2.1412604e+2, -844391.75, -930340.25, 11267.081, 0.009029209, -0.00075647683, -842939.3, -1374.2903, 0.0, 10.003191, 9.991808 
9.503699e+1, 2.2411688e+2, -751687.25, -858690.3, 12144.1, 0.009922146, 0.004676255, -750326.3, -6671.484, 0.0, 10.003855, 9.989686 
9.504337e+1, 2.3410656e+2, -639974.56, -754998.9, 11153.81, 0.011630398, 0.010353611, -638902.94, 6853.2583, 0.0, 10.00483, 9.989598 
9.5049596e+1, 2.4409534e+2, -542921.56, -675382.75, 9978.415, 0.008365467, 0.008249936, -542174.1, 5691.893, 0.0, 10.005536, 9.987999 
9.5055616e+1, 2.5408316e+2, -440374.4, -575542.7, 10448.805, -0.0019448414, -0.006379947, -439571.47, 10413.603, 0.0, 10.00586, 9.987964 
9.506149e+1, 2.6407003e+2, -349862.47, -506279.16, 9054.757, -0.008144976, -0.006922218, -349340.03, 2773.4648, 0.0, 10.006427, 9.985723 
9.506711e+1, 2.7405584e+2, -239215.56, -403147.0, 8571.932, -0.008290574, 0.010336491, -238768.56, 15484.011, 0.0, 10.007334, 9.985631 
9.5073026e+1, 2.8404024e+2, -146583.75, -335832.3, 9269.351, -0.0002730285, 0.006937515, -146130.83, 10274.654, 0.0, 10.008171, 9.983125 
9.5079285e+1, 2.9402292e+2, -38605.547, -234092.69, 7265.6753, 0.019255178, -0.02844561, -38335.875, 20239.176, 0.0, 10.008898, 9.983025 
9.508498e+1, 3.0400923e+2, 69171.945, -83827.05, 3247.9048, 0.023901451, -0.024125913, 69240.86, 69240.86, 0.0, 10.0098, 9.989528 
9.508972e+1, 3.139994e+2, 86310.73, -74750.78, 5075.388, 0.0070930156, 0.035684396, 86470.5, 86470.5, 0.0, 10.010944, 9.9896 
1.04977705e+2, 1.2415774e+2, -1768302.6, -1726699.8, -1842.5381, -0.0036040356, 0.010682834, -1726618.3, -3363.5754, 0.0, 9.99576, 10.00127 
1.0498353e+2, 1.3415785e+2, -1664594.9, -1639996.1, 223.67284, 0.026377488, 0.015287172, -1639994.1, -14740.402, 0.0, 9.9967575, 10.000015 
1.049892e+2, 1.4415698e+2, -1563804.5, -1559972.6, 1821.9147, 0.027373321, 0.010972514, -1559244.6, -31982.572, 0.0, 9.997786, 9.998289 
1.0499506e+2, 1.5415503e+2, -1450412.0, -1455203.6, 2016.3011, 0.01837765, -0.008492973, -1449676.4, -20395.52, 0.0, 9.998862, 9.998222 
1.05001174e+2, 1.6415216e+2, -1355055.0, -1383055.9, 3827.4302, 0.017228702, -0.011378894, -1354541.3, -23232.424, 0.0, 9.999745, 9.996033 
1.0500772e+2, 1.7414832e+2, -1248459.0, -1281864.3, 4681.5767, 0.027183088, 0.008384889, -1247815.3, -14468.594, 0.0, 10.000371, 9.995943 
1.0501427e+2, 1.841433e+2, -1154254.9, -1208869.0, 5589.4507, 0.028870417, 0.013488301, -1153688.6, -18292.98, 0.0, 10.001114, 9.993877 
1.0502087e+2, 1.9413695e+2, -1043424.7, -1105539.6, 5304.485, 0.018827533, -0.0038310788, -1042974.94, -5517.0605, 0.0, 10.002026, 9.993794 
1.0502747e+2, 2.0412977e+2, -946635.06, -1029243.56, 4735.2476, 0.009680894, -0.009115954, -946364.5, -6836.4937, 0.0, 10.002854, 9.991911 
1.05034076e+2, 2.1412173e+2, -838579.75, -927095.6, 4254.902, 0.0016867627, 0.0011631241, -838375.7, 3231.133, 0.0, 10.003571, 9.991844 
1.050409e+2, 2.241126e+2, -747426.8, -856809.25, 5581.0845, 0.00088741357, 0.006835512, -747142.75, -3446.2786, 0.0, 10.004153, 9.989668 
1.05048046e+2, 2.3410214e+2, -644139.4, -757280.2, 6599.5806, 0.00987849, 0.003964465, -643755.7, 2043.1683, 0.0, 10.004557, 9.9895735 
1.05054945e+2, 2.4409088e+2, -549060.4, -678843.0, 5585.2217, 0.009028275, -0.00076092326, -548820.44, -911.26733, 0.0, 10.005137, 9.987953 
1.05061494e+2, 2.5407872e+2, -439134.47, -575470.0, 4488.155, -0.0057998532, -0.009693902, -438986.88, 11041.318, 0.0, 10.005969, 9.987914 
1.050681e+2, 2.640656e+2, -342879.72, -503045.22, 3824.6392, -0.014079771, -0.008697435, -342788.44, 9368.373, 0.0, 10.006911, 9.985708 
1.0507474e+2, 2.7405134e+2, -229443.55, -398540.72, 3847.5942, -0.012913389, 0.004298107, -229356.05, 24940.387, 0.0, 10.008008, 9.98562 
1.0508151e+2, 2.8403568e+2, -137740.2, -333387.7, 4545.1626, -0.0027620282, 0.003295481, -137634.67, 18815.29, 0.0, 10.008856, 9.982961 
1.0508842e+2, 2.940183e+2, -33429.168, -233619.27, 5093.7783, 0.019969914, -0.020170743, -33299.64, 25320.63, 0.0, 10.00934, 9.982843 
1.0509484e+2, 3.040045e+2, 71837.32, -82091.664, 2212.1995, 0.022223571, -0.017985279, 71869.11, 71869.11, 0.0, 10.009963, 9.989568 
1.0510045e+2, 3.139945e+2, 84366.33, -74973.56, -206.07843, -0.0051382645, 0.019151941, 84366.59, 84366.59, 0.0, 10.010778, 9.989663 
1.1497344e+2, 1.24151915e+2, -1767272.8, -1724476.6, 1762.6642, -0.007168647, -0.009320672, -1724404.1, -1093.2513, 0.0, 9.995756, 10.001423 
1.1498025e+2, 1.3415228e+2, -1663399.0, -1637470.0, 3999.4172, 0.022303691, 0.002965064, -1636867.1, -11559.532, 0.0, 9.996755, 10.000188 
1.1498695e+2, 1.441516e+2, -1563925.0, -1560166.8, 5843.7744, 0.023419052, 0.008717898, -1555907.4, -28593.08, 0.0, 9.997783, 9.998277 
1.1499392e+2, 1.5414971e+2, -1450653.6, -1455664.8, 6089.475, 0.018596515, -0.0006026778, -1446574.4, -17241.68, 0.0, 9.99886, 9.998192 
1.15000874e+2, 1.6414689e+2, -1354067.4, -1381022.8, 6323.6255, 0.01280827, -0.005651236, -1352657.6, -21297.184, 0.0, 9.999745, 9.996171 
1.1500789e+2, 1.7414299e+2, -1247370.0, -1279632.4, 7053.835, 0.0060621514, -0.0049814647, -1245895.3, -12496.858, 0.0, 10.000372, 9.996095 
1.1501518e+2, 1.8413799e+2, -1154920.3, -1210266.5, 8936.825, 0.007443784, -0.0042373794, -1153513.0, -18065.623, 0.0, 10.001115, 9.993781 
1.1502292e+2, 1.9413166e+2, -1044260.4, -1107291.3, 8758.864, 0.020077229, -0.0051952163, -1043065.8, -5556.498, 0.0, 10.002027, 9.993674 
1.1503045e+2, 2.0412444e+2, -947589.9, -1031243.8, 7491.555, 0.021900525, -0.0027300746, -946924.25, -7344.144, 0.0, 10.002855, 9.991774 
1.1503771e+2, 2.1411622e+2, -839550.9, -929123.56, 6948.3057, 0.008641239, 0.003186752, -839015.06, 2645.6487, 0.0, 10.003571, 9.991705 
1.1504503e+2, 2.2410701e+2, -745918.3, -853749.9, 7176.165, -0.0012878719, 0.0018314283, -745442.8, -1692.096, 0.0, 10.004156, 9.989875 
1.1505244e+2, 2.3409669e+2, -642400.75, -753748.6, 8085.532, -0.0064338124, -0.011610246, -641816.7, 4034.9192, 0.0, 10.0045595, 9.989813 
1.1505988e+2, 2.4408549e+2, -550453.5, -681817.0, 8537.504, -0.011206563, -0.014270632, -549900.94, -1939.5979, 0.0, 10.005141, 9.987748 
1.1506737e+2, 2.5407326e+2, -440850.25, -579092.4, 7601.765, -0.015433439, -0.0033251992, -440433.5, 9647.547, 0.0, 10.005971, 9.987665 
1.1507504e+2, 2.6406002e+2, -342760.78, -502853.13, 7846.1797, -0.012046901, -0.0008150516, -342377.2, 9833.73, 0.0, 10.006914, 9.98572 
1.15082905e+2, 2.7404556e+2, -229197.58, -397990.2, 7943.8975, 0.0022972343, -0.012781465, -228824.53, 25527.982, 0.0, 10.008006, 9.985658 
1.1509046e+2, 2.8403005e+2, -136580.03, -330932.4, 6514.9814, 0.0061990316, -0.008165425, -136361.88, 20142.717, 0.0, 10.008854, 9.9831295 
1.1509751e+2, 2.9401338e+2, -32128.408, -230969.94, 6853.215, -0.004930242, 0.018185114, -31892.488, 26776.074, 0.0, 10.009343, 9.983023 
1.1510454e+2, 3.039994e+2, 68819.77, -88538.27, 5139.226, -0.0044482136, 0.015442745, 68987.44, 68987.44, 0.0, 10.00997, 9.989122 
1.15111426e+2, 3.1398806e+2, 80939.445, -82420.984, 2844.281, 0.013324532, -0.03190961, 80988.95, 80988.95, 0.0, 10.010792, 9.989145 
1.2496902e+2, 1.2414547e+2, -1771338.8, -1726795.6, 235.32347, -0.011407096, -0.020511275, -1726794.4, -3421.2505, 0.0, 9.995494, 10.001391 
1.2497687e+2, 1.3414575e+2, -1664550.9, -1638241.8, 1158.5885, 0.013520324, -0.01376051, -1638190.9, -12820.183, 0.0, 9.996685, 10.000168 
1.24984615e+2, 1.4414513e+2, -1564829.0, -1560157.5, 1810.428, 0.015549397, -0.0029266928, -1559538.0, -32161.072, 0.0, 9.997702, 9.998315 
1.24992624e+2, 1.5414344e+2, -1455889.3, -1457726.9, 2548.283, 0.022090264, 0.0025017192, -1454099.1, -24705.412, 0.0, 9.998482, 9.998234 
1.250005e+2, 1.6414063e+2, -1359805.1, -1384319.6, 2149.8057, 0.019405875, -0.00029996046, -1359618.0, -28196.723, 0.0, 9.999376, 9.996123 
1.2500827e+2, 1.7413652e+2, -1246840.8, -1279997.4, 1298.206, 0.0041764276, -0.014769441, -1246790.0, -13328.87, 0.0, 10.000435, 9.996037 
1.2501633e+2, 1.8413149e+2, -1151164.0, -1207278.6, 2810.9368, 0.0012726691, -0.018336367, -1151023.5, -15513.238, 0.0, 10.001321, 9.993882 
1.2502487e+2, 1.941254e+2, -1044239.9, -1105959.3, 4392.277, 0.0153718535, -0.0084791705, -1043928.8, -6358.6997, 0.0, 10.00197, 9.993791 
1.2503323e+2, 2.041182e+2, -949975.56, -1033713.1, 4374.8643, 0.01981634, -0.0037766397, -949747.56, -10106.977, 0.0, 10.002749, 9.991655 
1.2504138e+2, 2.1410975e+2, -838521.0, -930204.7, 3851.884, 0.010743566, -0.007725248, -838359.44, 3364.0889, 0.0, 10.00371, 9.991562 
1.2504938e+2, 2.2410041e+2, -741480.2, -852064.8, 1921.8794, 0.0012294719, -0.011758828, -741446.8, 2367.974, 0.0, 10.004479, 9.989831 
1.2505718e+2, 2.3409015e+2, -636444.2, -751245.75, 673.1339, -0.008967025, -0.017700445, -636440.25, 9475.008, 0.0, 10.004985, 9.989776 
1.2506524e+2, 2.4407893e+2, -543182.0, -678517.44, 2076.41, -0.015325265, -0.017163854, -543150.1, 4874.8384, 0.0, 10.005648, 9.987726 
1.2507361e+2, 2.5406668e+2, -432625.6, -575337.5, 2952.0674, -0.016447956, -0.009257062, -432564.53, 17580.637, 0.0, 10.006545, 9.987642 
1.2508214e+2, 2.6405334e+2, -338402.84, -501811.78, 3467.68, -0.010517534, -0.009129635, -338329.28, 13946.49, 0.0, 10.007257, 9.985622 
1.250908e+2, 2.7403876e+2, -234192.56, -401582.34, 2492.763, 0.00528834, -0.022272713, -234155.45, 20263.096, 0.0, 10.007714, 9.98555 
1.2509911e+2, 2.8402328e+2, -140799.89, -330502.6, 860.70245, 0.0059360135, -0.018196842, -140795.98, 15774.276, 0.0, 10.008458, 9.983347 
1.2510689e+2, 2.9400682e+2, -26418.215, -225364.94, 1716.3251, -0.015352035, 0.008803349, -26403.41, 32328.268, 0.0, 10.009613, 9.983274 
1.2511478e+2, 3.0399293e+2, 77546.45, -87689.59, 1123.6742, -0.0150657855, 0.0085582575, 77554.09, 77554.09, 0.0, 10.010715, 9.98882 
1.2512274e+2, 3.139813e+2, 91983.95, -81161.51, -23.225996, 0.017173836, -0.033333234, 91983.95, 91983.95, 0.0, 10.011726, 9.988781 
1.3496447e+2, 1.2413837e+2, -1772967.9, -1730002.0, 4579.6543, -0.01734858, -0.02265698, -1729519.3, -6077.3384, 0.0, 9.995489, 10.001176 
1.3497344e+2, 1.3413824e+2, -1666115.6, -1641380.8, 5656.1367, -0.0002954523, -0.034793187, -1640148.8, -14705.359, 0.0, 9.996682, 9.999954 
1.349822e+2, 1.4413755e+2, -1564189.5, -1558798.5, 4869.4536, 0.0033359115, -0.024187911, -1555928.4, -28477.934, 0.0, 9.9977, 9.998408 
1.3499118e+2, 1.5413615e+2, -1455072.3, -1456018.9, 5502.9297, 0.028421862, 0.00076414953, -1450022.4, -20558.047, 0.0, 9.998481, 9.99835 
1.3500005e+2, 1.6413337e+2, -1361451.3, -1387695.4, 6058.3706, 0.036496338, 0.004671608, -1360120.3, -28628.49, 0.0, 9.999375, 9.995894 
1.3500889e+2, 1.741289e+2, -1248719.0, -1283870.9, 5307.7554, 0.021073025, -0.021012314, -1247935.0, -14399.769, 0.0, 10.000435, 9.995772 
1.3501775e+2, 1.8412383e+2, -1148991.8, -1202835.5, 5381.0117, 0.0097276615, -0.02884863, -1148459.3, -12874.319, 0.0, 10.001322, 9.9941845 
1.3502674e+2, 1.9411813e+2, -1041699.56, -1100754.3, 6829.137, 0.004188477, -0.01354971, -1040920.1, -3279.5469, 0.0, 10.001972, 9.9941435 
1.3503581e+2, 2.0411105e+2, -950630.5, -1035103.75, 7865.963, 0.002871402, -0.01211501, -949904.25, -10194.484, 0.0, 10.002751, 9.991559 
1.3504507e+2, 2.141023e+2, -839503.7, -932259.94, 7464.1636, 0.007509317, -0.031373147, -838906.94, 2888.6118, 0.0, 10.003711, 9.991421 
1.3505392e+2, 2.2409278e+2, -743479.4, -856234.94, 3942.0723, 0.0076471153, -0.033890814, -743341.75, 546.9754, 0.0, 10.004482, 9.989546 
1.3506228e+2, 2.3408248e+2, -638531.06, -755631.0, 2548.635, 0.0014932011, -0.014448224, -638475.6, 7514.403, 0.0, 10.004988, 9.989474 
1.35071e+2, 2.4407122e+2, -542013.3, -676174.8, 5290.213, -0.0043632546, -0.009579095, -541805.06, 6295.1855, 0.0, 10.005652, 9.987884 
1.3508023e+2, 2.540589e+2, -431222.5, -572377.1, 6290.0264, -0.009616881, -0.027113212, -430942.75, 19277.902, 0.0, 10.006542, 9.987846 
1.350894e+2, 2.6404554e+2, -339807.56, -504738.63, 5268.294, -0.010230794, -0.033006053, -339639.47, 12712.038, 0.0, 10.007259, 9.985421 
1.350984e+2, 2.7403092e+2, -235785.38, -405082.13, 4152.6606, -0.0041002096, -0.024265012, -235683.58, 18810.982, 0.0, 10.007723, 9.985307 
1.3510749e+2, 2.840154e+2, -138772.2, -326528.6, 4913.463, -0.003857224, -0.026461365, -138643.72, 18003.205, 0.0, 10.008468, 9.983613 
1.3511653e+2, 2.9399878e+2, -24137.82, -220673.06, 5970.76, -0.012162491, -0.046662204, -23956.596, 34852.902, 0.0, 10.009615, 9.983594 
1.3512553e+2, 3.0398506e+2, 76390.61, -90027.24, 4866.421, -0.01054041, -0.037494246, 76532.8, 76532.8, 0.0, 10.010712, 9.988661 
1.3513435e+2, 3.139741e+2, 90474.195, -84293.375, 3694.9526, 0.005886272, 0.012741036, 90552.28, 90552.28, 0.0, 10.011725, 9.988566 
1.449598e+2, 1.241296e+2, -1776272.5, -1730534.6, -4107.6914, -0.016716674, -0.023335766, -1730168.6, -6641.268, 0.0, 9.995215, 10.00127 
1.4496991e+2, 1.3412958e+2, -1671603.8, -1642747.1, -474.50262, 0.0010992099, -0.03670799, -1642739.3, -17211.64, 0.0, 9.99625, 10.000071 
1.4497972e+2, 1.4412889e+2, -1569125.8, -1561647.3, -694.3836, 0.0016141877, -0.02938656, -1561583.3, -34048.832, 0.0, 9.997382, 9.998366 
1.4498967e+2, 1.5412733e+2, -1452931.1, -1455625.8, -1410.7119, 0.021381391, -0.01610519, -1452327.8, -22777.69, 0.0, 9.998653, 9.99829 
1.4499953e+2, 1.6412455e+2, -1356317.8, -1384478.8, -1045.9641, 0.030520698, -0.01277002, -1356279.0, -24701.463, 0.0, 9.999693, 9.995955 
1.4500934e+2, 1.7412029e+2, -1248459.9, -1282895.0, 695.74756, 0.025032628, -0.023457943, -1248445.9, -14826.826, 0.0, 10.000415, 9.995847 
1.4501907e+2, 1.8411525e+2, -1151393.0, -1205055.3, 403.36862, 0.016153675, -0.026967928, -1151389.9, -15721.57, 0.0, 10.001204, 9.994087 
1.4502874e+2, 1.9410934e+2, -1040730.1, -1101535.4, -1647.4344, 0.002511771, -0.022458004, -1040685.5, -2959.3132, 0.0, 10.002092, 9.994029 
1.4503859e+2, 2.0410222e+2, -947332.56, -1032091.3, -1476.9922, -0.0027764356, -0.023654412, -947306.8, -7511.102, 0.0, 10.002914, 9.991682 
1.450487e+2, 2.140937e+2, -839388.4, -930555.2, 258.50952, 0.0036715043, -0.033853024, -839387.6, 2491.5908, 0.0, 10.003647, 9.991565 
1.4505836e+2, 2.2408426e+2, -744360.44, -857352.0, -1801.1005, 0.0053988164, -0.03369399, -744331.75, -360.06363, 0.0, 10.004452, 9.989481 
1.4506742e+2, 2.3407379e+2, -633707.6, -754214.8, -1622.269, 0.00027826664, -0.020779317, -633685.75, 12388.624, 0.0, 10.005357, 9.98939 
1.4507686e+2, 2.4406242e+2, -536968.5, -674840.3, 906.1538, -0.0038969761, -0.01871464, -536962.56, 11223.221, 0.0, 10.006044, 9.9877825 
1.4508675e+2, 2.5405002e+2, -433678.56, -574713.1, -351.69714, -0.0067443172, -0.033669095, -433677.7, 16629.346, 0.0, 10.006423, 9.9877405 
1.4509666e+2, 2.640366e+2, -340906.72, -505591.94, -1050.4304, -0.00748049, -0.03788738, -340900.03, 11538.386, 0.0, 10.007196, 9.985391 
1.4510654e+2, 2.7402198e+2, -223985.89, -399614.06, -482.70276, -0.005150865, -0.02910844, -223984.56, 30597.082, 0.0, 10.008542, 9.985283 
1.4511642e+2, 2.8400633e+2, -126029.71, -322679.28, -1113.4949, -0.0054531936, -0.0326397, -126023.4, 30711.758, 0.0, 10.009441, 9.983406 
1.4512621e+2, 2.9398945e+2, -24664.076, -223478.78, -4104.3696, -0.00972883, -0.05603555, -24579.38, 34320.977, 0.0, 10.009687, 9.983364 
1.4513609e+2, 3.0397567e+2, 72908.85, -89602.35, -4559.4146, -0.010049966, -0.04729016, 73036.664, 73036.664, 0.0, 10.01038, 9.988846 
1.4514597e+2, 3.13965e+2, 92118.72, -80879.13, -2339.7224, -0.004202159, 0.006379445, 92150.36, 92150.36, 0.0, 10.011725, 9.988798 
1.5495509e+2, 1.24119125e+2, -1773429.5, -1724590.5, -334.76825, -0.010659388, -0.02255875, -1724588.1, -958.09247, 0.0, 9.995211, 10.001675 
1.5496632e+2, 1.341197e+2, -1668492.9, -1636230.9, 3404.9988, 0.017349862, -0.01937798, -1635875.4, -10251.231, 0.0, 9.996244, 10.000514 
1.5497719e+2, 1.4411913e+2, -1570430.0, -1564227.4, 4017.802, 0.009924228, -0.018322565, -1562253.1, -34623.543, 0.0, 9.997378, 9.998192 
1.5498811e+2, 1.541169e+2, -1454640.6, -1459092.5, 3401.203, 0.00043863384, -0.048111897, -1452801.8, -23150.496, 0.0, 9.9986515, 9.9980545 
1.5499893e+2, 1.6411406e+2, -1353780.9, -1379260.3, 1847.4639, 0.00083948084, -0.052674975, -1353647.5, -21968.453, 0.0, 9.999694, 9.996309 
1.5500966e+2, 1.7411064e+2, -1245513.5, -1276847.1, 3414.0496, 0.015500477, -0.022173941, -1245145.8, -11432.92, 0.0, 10.000416, 9.996256 
1.5502031e+2, 1.8410572e+2, -1154818.0, -1212141.8, 3685.1223, 0.019866278, -0.01270262, -1154582.1, -18820.996, 0.0, 10.0012045, 9.993605 
1.5503092e+2, 1.9409896e+2, -1044762.06, -1109912.0, 1715.32, 0.009500062, -0.03514208, -1044716.94, -6889.663, 0.0, 10.002094, 9.993456 
1.5504155e+2, 2.0409168e+2, -944896.9, -1027111.1, 1317.8607, 0.001976339, -0.03836316, -944875.75, -4977.099, 0.0, 10.002916, 9.992019 
1.5505229e+2, 2.1408392e+2, -836355.3, -924274.0, 2988.6208, -0.0012204337, -0.01559212, -836253.8, 5721.0806, 0.0, 10.003646, 9.991993 
1.5506272e+2, 2.2407483e+2, -743244.2, -855021.25, 1519.9374, -0.006000296, -0.011596024, -743223.5, 840.3891, 0.0, 10.00445, 9.98964 
1.5507266e+2, 2.3406412e+2, -632810.4, -752323.0, 1750.7373, -0.012853961, -0.036302123, -632784.75, 13383.874, 0.0, 10.005356, 9.989519 
1.5508279e+2, 2.4405254e+2, -539402.9, -679902.75, 2443.2322, -0.014331752, -0.04412422, -539360.4, 8921.427, 0.0, 10.006046, 9.987436 
1.5509315e+2, 2.5404006e+2, -436386.22, -580464.2, 1026.3762, -0.008148607, -0.029200664, -436378.9, 14025.469, 0.0, 10.00643, 9.987344 
1.5510389e+2, 2.6402658e+2, -339864.75, -503569.44, 3640.8071, -0.00285487, -0.02437881, -339783.84, 12752.736, 0.0, 10.007202, 9.985525 
1.5511514e+2, 2.7401194e+2, -222706.97, -396877.5, 4538.669, 0.0011573276, -0.036676437, -222588.77, 32091.104, 0.0, 10.008538, 9.985471 
1.5512592e+2, 2.839961e+2, -130684.25, -332267.84, 131.78397, 0.0001301612, -0.037006583, -130684.164, 26150.865, 0.0, 10.0094385, 9.982751 
1.5513591e+2, 2.9397887e+2, -29767.803, -234347.86, -3199.1023, -0.008196798, -0.02152846, -29717.791, 29286.38, 0.0, 10.0097, 9.982614 
1.5514643e+2, 3.0396482e+2, 76716.99, -81988.414, 123.793915, -0.013538497, -0.022346387, 76717.086, 76717.086, 0.0, 10.010392, 9.989361 
1.5515761e+2, 3.13954e+2, 96659.37, -71331.81, 2681.294, -0.014191528, -0.049573194, 96702.15, 96702.15, 0.0, 10.011722, 9.989453 
1.6495015e+2, 1.24107815e+2, -1776246.5, -1725673.5, -1425.8326, -0.014834165, -0.02770286, -1725633.3, -1892.8308, 0.0, 9.995005, 10.001699 
1.6496277e+2, 1.3410842e+2, -1662507.8, -1632814.8, -621.02423, 0.019762779, -0.025629992, -1632801.8, -7067.541, 0.0, 9.996627, 10.000556 
1.649748e+2, 1.441079e+2, -1564267.6, -1561374.4, -2563.8967, 0.0127470745, -0.023071613, -1559877.3, -32137.928, 0.0, 9.997801, 9.998177 
1.6498658e+2, 1.5410563e+2, -1459237.9, -1461599.5, -1767.37, -0.0014604796, -0.05279818, -1458293.1, -28531.996, 0.0, 9.998348, 9.998029 
1.6499828e+2, 1.6410282e+2, -1361383.3, -1381681.6, -3276.974, -0.004199796, -0.0580729, -1360867.4, -29078.71, 0.0, 9.999119, 9.996421 
1.6500992e+2, 1.740995e+2, -1247542.4, -1276425.6, -3836.7505, 0.0092555545, -0.029645035, -1247041.4, -13220.003, 0.0, 10.000216, 9.996379 
1.6502148e+2, 1.8409465e+2, -1154792.1, -1212194.1, -3246.014, 0.015811408, -0.020645792, -1154609.3, -18740.123, 0.0, 10.001208, 9.993595 
1.65033e+2, 1.940879e+2, -1045520.56, -1110501.9, -1142.0212, 0.0123855835, -0.04114332, -1045500.5, -7565.1836, 0.0, 10.002051, 9.993435 
1.6504444e+2, 2.040806e+2, -946361.5, -1027945.4, -1033.1581, 0.005375644, -0.043237265, -946348.4, -6341.595, 0.0, 10.002822, 9.992005 
1.650558e+2, 2.1407281e+2, -838776.5, -925577.25, -2658.255, -0.0065551307, -0.020716382, -838695.2, 3388.1045, 0.0, 10.003487, 9.991978 
1.6506702e+2, 2.2406375e+2, -745499.5, -855364.0, -5438.001, -0.01137419, -0.01709908, -745231.0, -1058.8827, 0.0, 10.004263, 9.989703 
1.65078e+2, 2.340531e+2, -634474.8, -752315.4, -5575.9985, -0.0061126184, -0.04219939, -634211.56, 12064.647, 0.0, 10.005206, 9.989589 
1.6508898e+2, 2.4404155e+2, -538854.75, -680497.2, -5215.5977, -0.0046900595, -0.04832278, -538663.0, 9726.242, 0.0, 10.006121, 9.987355 
1.6509986e+2, 2.54029e+2, -428812.25, -577835.25, -4538.0366, -0.008965704, -0.028737606, -428674.2, 21838.201, 0.0, 10.006993, 9.987249 
1.6511132e+2, 2.6401547e+2, -332373.5, -500056.5, -150.31427, -0.007502735, -0.023796188, -332373.34, 20271.838, 0.0, 10.00772, 9.985513 
1.6512354e+2, 2.7400076e+2, -226993.13, -398975.94, -502.25983, 0.0022467498, -0.042326197, -226991.66, 27797.47, 0.0, 10.008244, 9.985466 
1.6513522e+2, 2.839849e+2, -136363.05, -336484.47, -4308.745, 0.0036563596, -0.040801648, -136270.31, 20674.424, 0.0, 10.009111, 9.982617 
1.6514601e+2, 2.9396766e+2, -19511.607, -231010.95, -3376.6113, -0.0072705555, -0.011659733, -19457.713, 39656.38, 0.0, 10.010472, 9.98247 
1.6515729e+2, 3.0395347e+2, 89234.74, -77201.02, -126.5633, -0.013663945, -0.014236821, 89234.84, 89234.84, 0.0, 10.011306, 9.989249 
1.6516916e+2, 3.1394225e+2, 90674.03, -75435.375, -3088.159, -0.012903603, -0.06614237, 90731.43, 90731.43, 0.0, 10.011357, 9.989345 
1.7494501e+2, 1.2409564e+2, -1778974.4, -1731067.5, 4558.179, -0.030781938, -0.038896576, -1730637.6, -6778.7056, 0.0, 9.994996, 10.001336 
1.7495929e+2, 1.340957e+2, -1665154.9, -1638135.5, 5511.189, 0.007819733, -0.055741478, -1637054.6, -11196.414, 0.0, 9.996621, 10.000196 
1.7497256e+2, 1.4409512e+2, -1563293.0, -1559343.3, -169.1409, 0.009535298, -0.043953087, -1559336.0, -31472.115, 0.0, 9.997801, 9.998314 
1.7498511e+2, 1.5409349e+2, -1457946.0, -1458886.9, 278.88464, 0.015014119, -0.03016506, -1457869.6, -27989.531, 0.0, 9.998346, 9.998213 
1.7499758e+2, 1.6409078e+2, -1362279.0, -1383502.4, 684.9623, 0.014546745, -0.02881474, -1362257.0, -30350.422, 0.0, 9.999119, 9.996296 
1.750101e+2, 1.7408685e+2, -1248658.6, -1278725.8, 328.41318, 0.0058719437, -0.045722816, -1248655.0, -14709.98, 0.0, 10.000216, 9.996221 
1.7502257e+2, 1.8408199e+2, -1151504.9, -1205423.9, 18.875412, 0.003599015, -0.050646216, -1151504.9, -15512.187, 0.0, 10.001208, 9.994055 
1.7503504e+2, 1.9407605e+2, -1041789.9, -1102832.5, 2033.06, 0.01056343, -0.040684402, -1041722.2, -3671.4824, 0.0, 10.002053, 9.993956 
1.750473e+2, 2.0406893e+2, -948830.5, -1033083.4, 1500.2683, 0.006628528, -0.03835137, -948803.8, -8683.29, 0.0, 10.002824, 9.991654 
1.7505923e+2, 2.1406038e+2, -841903.3, -932052.94, -164.96594, -0.012901508, -0.048544362, -841903.0, 301.45316, 0.0, 10.003487, 9.991535 
1.7507127e+2, 2.2405101e+2, -745678.6, -855757.0, -1982.9425, -0.0117858155, -0.049544323, -745642.94, -1346.5123, 0.0, 10.004264, 9.9896755 
1.7508346e+2, 2.3404072e+2, -634394.25, -752121.9, -2016.2769, 0.019108623, -0.03891529, -634359.75, 12037.51, 0.0, 10.005205, 9.989601 
1.7509538e+2, 2.440294e+2, -537620.5, -677869.7, -1926.0212, 0.02378019, -0.03191609, -537594.06, 10914.172, 0.0, 10.006118, 9.987535 
1.7510684e+2, 2.5401685e+2, -427452.6, -574957.7, -1290.5007, -0.00960547, -0.03209734, -427441.3, 23189.969, 0.0, 10.0069895, 9.987447 
1.751189e+2, 2.6400328e+2, -333360.94, -502178.34, 1888.8119, -0.021611575, -0.035607938, -333339.8, 19424.62, 0.0, 10.007724, 9.985364 
1.7513174e+2, 2.7398846e+2, -228175.1, -401616.44, 1421.1982, -0.0021764669, -0.04625337, -228163.45, 26746.043, 0.0, 10.008252, 9.98528 
1.7514434e+2, 2.8397265e+2, -133751.11, -331152.34, 469.63712, 0.0046314155, -0.04402113, -133749.98, 23314.436, 0.0, 10.009114, 9.982979 
1.7515647e+2, 2.9395574e+2, -16711.73, -224926.08, 1673.5626, -0.0074422597, -0.025028357, -16698.28, 42532.184, 0.0, 10.010461, 9.98289 
1.7516862e+2, 3.039415e+2, 84229.39, -87428.03, 456.99783, -0.011317074, -0.022141661, 84230.61, 84230.61, 0.0, 10.011299, 9.98855 
1.7518061e+2, 3.1392977e+2, 85196.98, -87386.82, -2936.7769, -0.0026049153, -0.04566064, 85246.93, 85246.93, 0.0, 10.011383, 9.988512 
1.8494077e+2, 1.2408246e+2, -1761270.9, -1724844.3, -430.32175, -0.018813435, -0.044020206, -1724839.3, -851.51636, 0.0, 9.996298, 10.001121 
1.8495572e+2, 1.3408232e+2, -1670869.0, -1643184.9, 1599.6699, 0.0034401566, -0.06087644, -1643092.8, -17103.611, 0.0, 9.99633, 9.999992 
1.8496984e+2, 1.4408173e+2, -1574313.3, -1562840.5, -2630.113, -0.00061069295, -0.046699412, -1562266.3, -34271.26, 0.0, 9.996968, 9.998479 
1.8498355e+2, 1.5408027e+2, -1454419.0, -1454925.1, -1998.0685, 0.01756243, -0.03324073, -1452658.1, -22648.97, 0.0, 9.998487, 9.998411 
1.84997e+2, 1.6407761e+2, -1356617.8, -1382630.6, -2513.4263, 0.021168768, -0.031888142, -1356377.1, -24341.791, 0.0, 9.999583, 9.996127 
1.8501022e+2, 1.7407347e+2, -1252188.5, -1282772.1, -3355.9387, 0.0038800128, -0.04782074, -1251824.6, -17748.771, 0.0, 10.000074, 9.996012 
1.8502349e+2, 1.8406859e+2, -1156753.0, -1205752.9, -4373.842, -0.0023333495, -0.052476943, -1156365.6, -20241.867, 0.0, 10.000753, 9.994249 
1.850369e+2, 1.9406289e+2, -1045060.75, -1101744.8, -4427.953, 0.007236481, -0.043486744, -1044716.94, -6537.42, 0.0, 10.001712, 9.994191 
1.8505003e+2, 2.0405589e+2, -951390.44, -1034134.2, -5320.0483, 0.006501251, -0.041975234, -951049.8, -10801.801, 0.0, 10.00264, 9.991668 
1.8506278e+2, 2.1404731e+2, -841392.25, -931892.44, -3851.1184, -0.009230465, -0.05246282, -841228.7, 1103.5027, 0.0, 10.003526, 9.991525 
1.8507561e+2, 2.2403796e+2, -744600.75, -854932.2, -3578.452, -0.008253802, -0.05234261, -744484.75, -60.78482, 0.0, 10.004324, 9.9897 
1.8508855e+2, 2.3402774e+2, -637160.7, -753113.3, -3475.7793, 0.016674874, -0.038732506, -637056.6, 9467.646, 0.0, 10.005, 9.989631 
1.8510135e+2, 2.4401642e+2, -541798.9, -680207.44, -3383.1296, 0.02238768, -0.032575656, -541716.2, 6919.0894, 0.0, 10.005844, 9.987506 
1.851139e+2, 2.5400376e+2, -428552.7, -575928.5, -4397.5107, 0.00020849987, -0.039090734, -428421.6, 22337.734, 0.0, 10.006933, 9.987404 
1.8512684e+2, 2.6399013e+2, -330765.94, -501478.97, -2828.62, -0.010173341, -0.041755248, -330719.06, 22173.842, 0.0, 10.007924, 9.985313 
1.8514024e+2, 2.7397537e+2, -220919.64, -398708.75, -2487.6726, -0.0032736775, -0.04096702, -220884.84, 34152.742, 0.0, 10.008775, 9.985225 
1.8515356e+2, 2.8395963e+2, -128361.09, -327064.0, -3140.4175, -0.00032242012, -0.038931128, -128311.48, 28880.76, 0.0, 10.0094185, 9.98311 
1.8516663e+2, 2.939427e+2, -25824.775, -227643.4, -3799.5452, -0.0034772458, -0.037234943, -25753.268, 33604.992, 0.0, 10.00976, 9.983038 
1.8517968e+2, 3.0392846e+2, 74369.1, -93886.89, -3894.5393, -0.004024575, -0.034705047, 74459.195, 74459.195, 0.0, 10.010692, 9.988397 
1.851926e+2, 3.139168e+2, 100134.125, -82277.21, -2712.0588, -0.0006204838, -0.033119213, 100174.44, 100174.44, 0.0, 10.0125, 9.988324 
1.9493747e+2, 1.2406822e+2, -1761781.5, -1725902.0, -146.903, 0.020423224, -0.043479618, -1725901.4, -1774.1318, 0.0, 9.9963, 10.001047 
1.9495207e+2, 1.3406822e+2, -1671313.4, -1643914.3, 1647.3239, 0.006269869, -0.040600855, -1643815.6, -17688.273, 0.0, 9.996324, 9.999946 
1.9496664e+2, 1.4406766e+2, -1573017.0, -1559998.1, 2586.7815, -0.01843756, -0.030825695, -1559503.0, -31370.133, 0.0, 9.99696, 9.998674 
1.9498192e+2, 1.5406598e+2, -1452909.9, -1451739.3, 3780.5725, 0.005558279, -0.06203299, -1448499.0, -18350.244, 0.0, 9.998482, 9.998629 
1.9499654e+2, 1.6406326e+2, -1358155.5, -1385810.9, -306.44397, 0.014611314, -0.06754305, -1358152.1, -25976.857, 0.0, 9.999585, 9.995909 
1.9501029e+2, 1.7405935e+2, -1254040.3, -1286604.9, -1510.6465, 0.002493329, -0.036214788, -1253970.4, -19756.02, 0.0, 10.000076, 9.9957485 
1.9502425e+2, 1.8405443e+2, -1157138.5, -1206608.8, -925.96014, -0.0028174124, -0.02617443, -1157121.1, -20858.469, 0.0, 10.000756, 9.994189 
1.9503856e+2, 1.9404836e+2, -1045343.25, -1102352.6, -792.47614, 0.0017223022, -0.049405638, -1045332.25, -7010.3066, 0.0, 10.001714, 9.994147 
1.9505264e+2, 2.0404144e+2, -948776.44, -1028713.3, -1972.2439, 0.0041940277, -0.054098856, -948727.8, -8338.198, 0.0, 10.002639, 9.992037 
1.9506644e+2, 2.140336e+2, -838488.44, -925840.1, -539.48615, 0.00358373, -0.033230644, -838485.1, 3981.6753, 0.0, 10.003522, 9.991938 
1.9508e+2, 2.2402458e+2, -743991.75, -853679.3, -990.78516, -0.0014625911, -0.026215808, -743982.8, 572.46313, 0.0, 10.004325, 9.989784 
1.9509324e+2, 2.3401411e+2, -636752.9, -752380.9, -967.8373, -0.01307578, -0.041357633, -636744.75, 9912.809, 0.0, 10.005005, 9.989676 
1.951069e+2, 2.4400258e+2, -543348.2, -683531.75, 520.2445, -0.008729749, -0.049791, -543346.25, 5424.4067, 0.0, 10.005849, 9.987275 
1.9512103e+2, 2.5398973e+2, -430450.94, -579776.56, -306.04276, 0.019232837, -0.04959734, -430450.3, 20446.42, 0.0, 10.006928, 9.987143 
1.9513512e+2, 2.6397607e+2, -330628.22, -501022.72, 436.30328, 0.025077175, -0.042318035, -330627.1, 22403.693, 0.0, 10.007916, 9.985347 
1.9514905e+2, 2.739615e+2, -220551.75, -397787.56, 678.2654, -0.0018304042, -0.02709895, -220549.16, 34624.516, 0.0, 10.008768, 9.98529 
1.9516288e+2, 2.8394574e+2, -128940.73, -328235.1, -1736.8739, -0.011798349, -0.026071021, -128925.59, 28402.855, 0.0, 10.009418, 9.983029 
1.9517647e+2, 2.9392847e+2, -26349.898, -229002.3, -2582.8638, 0.0040977187, -0.04829421, -26316.984, 33180.48, 0.0, 10.009772, 9.982939 
1.9519049e+2, 3.0391428e+2, 76966.0, -88694.42, 2293.955, 0.007719575, -0.051555168, 76997.76, 76997.76, 0.0, 10.010699, 9.988747 
1.9520503e+2, 3.1390327e+2, 102742.016, -76499.45, 4023.1025, -0.0077382587, -0.028030537, 102832.27, 102832.27, 0.0, 10.012484, 9.988727 
2.0493373e+2, 1.2405349e+2, -1767421.8, -1731523.1, -1911.7053, 0.02979403, -0.038517404, -1731421.5, -7149.679, 0.0, 9.996038, 10.0007925 
2.049489e+2, 1.340532e+2, -1659841.4, -1641071.3, -1830.8442, 0.0127694765, -0.039767824, -1640894.4, -14619.737, 0.0, 9.997218, 9.9997015 
2.049641e+2, 1.4405249e+2, -1558416.6, -1553009.0, -1706.0576, -0.01825483, -0.029701853, -1552515.8, -24234.36, 0.0, 9.997954, 9.998662 
2.0498012e+2, 1.5405084e+2, -1459123.6, -1454653.3, -2046.8939, -0.0015710874, -0.060592458, -1453857.6, -23560.281, 0.0, 9.998053, 9.998636 
2.0499556e+2, 1.6404812e+2, -1371843.0, -1392203.9, -5877.392, 0.007080738, -0.066490896, -1370268.3, -37944.453, 0.0, 9.998641, 9.99593 
2.0501031e+2, 1.7404422e+2, -1255724.0, -1287144.9, -4909.8867, 0.0041949274, -0.03690032, -1254974.6, -20612.023, 0.0, 9.999948, 9.995771 
2.0502512e+2, 1.8403934e+2, -1154394.0, -1204647.5, -3368.16, 0.0014402474, -0.026519274, -1154169.3, -17758.678, 0.0, 10.000915, 9.994244 
2.0504007e+2, 1.9403335e+2, -1049750.6, -1103841.6, -2576.44, -0.001316782, -0.04618253, -1049628.3, -11159.101, 0.0, 10.001384, 9.994204 
2.0505494e+2, 2.0402652e+2, -956654.2, -1031771.6, -3539.3896, -0.0011908542, -0.049746245, -956487.8, -15951.695, 0.0, 10.002067, 9.992103 
2.0506972e+2, 2.1401872e+2, -844724.3, -928121.1, -4583.8735, 0.0030623123, -0.031465422, -844473.1, -1860.3375, 0.0, 10.003063, 9.992001 
2.0508428e+2, 2.2400975e+2, -745813.1, -853657.9, -6393.8477, 0.0019322634, -0.025859248, -745435.4, -734.72876, 0.0, 10.004159, 9.989862 
2.0509851e+2, 2.3399937e+2, -630375.06, -748396.44, -6127.959, -0.0071948264, -0.040617023, -630057.75, 16744.488, 0.0, 10.005401, 9.989754 
2.0511304e+2, 2.4398787e+2, -536252.7, -680230.56, -4397.789, -0.0029214981, -0.048579454, -536118.5, 12796.497, 0.0, 10.006338, 9.987261 
2.0512792e+2, 2.53975e+2, -431982.66, -580780.2, -3577.5588, 0.020708844, -0.047940355, -431896.7, 19144.502, 0.0, 10.006833, 9.987117 
2.0514281e+2, 2.6396137e+2, -336966.34, -503670.28, -1631.8418, 0.02493939, -0.03980541, -336950.38, 16224.799, 0.0, 10.0074625, 9.985382 
2.051576e+2, 2.7394688e+2, -227034.1, -400412.56, -1501.9941, 0.00066537404, -0.023371013, -227021.08, 28296.537, 0.0, 10.0083, 9.985333 
2.0517223e+2, 2.8393105e+2, -132340.42, -331233.94, -4516.1855, -0.008928052, -0.02126749, -132237.92, 25234.7, 0.0, 10.009242, 9.982905 
2.051865e+2, 2.9391363e+2, -19237.953, -227151.39, -5749.616, 0.0036012537, -0.042533174, -19079.074, 40563.844, 0.0, 10.010328, 9.982795 
2.0520143e+2, 3.038994e+2, 84780.484, -83629.09, -413.96606, 0.0070050517, -0.047433536, 84781.5, 84781.5, 0.0, 10.011178, 9.988862 
2.0521714e+2, 3.138885e+2, 92119.766, -80010.19, -345.66193, -0.0036922751, -0.029674174, 92120.46, 92120.46, 0.0, 10.011679, 9.988869 
2.1492954e+2, 1.2403824e+2, -1770834.4, -1738192.5, 2644.636, 0.0070450497, -0.028577726, -1737979.6, -13558.004, 0.0, 9.996023, 10.000345 
2.1494623e+2, 1.3403721e+2, -1663152.6, -1647746.3, 2633.0127, 0.022251885, -0.058803994, -1647308.6, -20877.176, 0.0, 9.997212, 9.9992485 
2.1496223e+2, 1.440362e+2, -1560060.1, -1556347.3, -985.9849, -0.00042729132, -0.043742187, -1556101.6, -27660.363, 0.0, 9.997954, 9.998434 
2.1497813e+2, 1.540348e+2, -1460635.0, -1457672.1, -1707.2092, -0.004457528, -0.028840521, -1456893.3, -26437.914, 0.0, 9.998051, 9.998431 
2.149941e+2, 1.6403216e+2, -1369968.0, -1388310.1, -1362.6381, -0.002481296, -0.028369347, -1369867.3, -37386.145, 0.0, 9.998639, 9.996193 
2.1501032e+2, 1.7402804e+2, -1253520.0, -1282583.0, 67.15699, 0.008402019, -0.04950059, -1253519.9, -18998.557, 0.0, 9.999947, 9.99608 
2.1502613e+2, 1.8402328e+2, -1153173.3, -1202123.0, -1304.5488, 0.009757002, -0.053359274, -1153138.5, -16570.537, 0.0, 10.000915, 9.994414 
2.1504144e+2, 1.9401784e+2, -1048560.3, -1101493.9, -813.8473, -0.0026676154, -0.03424623, -1048547.8, -9926.369, 0.0, 10.001389, 9.99436 
2.1505691e+2, 2.0401107e+2, -958177.75, -1035060.25, 12.358789, -0.010393569, -0.029164266, -958177.75, -17489.938, 0.0, 10.002073, 9.991874 
2.1507263e+2, 2.1400264e+2, -846635.56, -932089.1, -813.3582, -0.01116344, -0.046484377, -846627.8, -3857.5457, 0.0, 10.003063, 9.991729 
2.1508843e+2, 2.2399345e+2, -745362.5, -852638.94, -1777.392, 0.0010748004, -0.050516974, -745333.06, -472.79376, 0.0, 10.004155, 9.989932 
2.1510431e+2, 2.3398347e+2, -629719.56, -746846.4, -1423.171, 0.032307472, -0.036633104, -629702.25, 17256.17, 0.0, 10.005392, 9.9898615 
2.1511978e+2, 2.4397226e+2, -534975.94, -677432.44, -2259.4678, 0.037827834, -0.029579729, -534940.1, 14128.301, 0.0, 10.006332, 9.987453 
2.1513459e+2, 2.5395954e+2, -430545.22, -577831.0, -1727.4591, 0.005090375, -0.034566786, -430524.97, 20668.076, 0.0, 10.006835, 9.987317 
2.1514992e+2, 2.6394597e+2, -336559.5, -502968.06, 1375.441, -0.009523031, -0.034444924, -336548.13, 16778.27, 0.0, 10.007469, 9.985426 
2.1516593e+2, 2.7393135e+2, -226846.08, -400048.97, 1635.7372, 0.003452294, -0.029034745, -226830.63, 28639.025, 0.0, 10.008302, 9.985356 
2.1518162e+2, 2.8391552e+2, -133491.58, -333594.5, -540.13806, 0.0066761225, -0.023966357, -133490.13, 24134.916, 0.0, 10.00924, 9.982744 
2.1519676e+2, 2.938982e+2, -20512.287, -229845.33, -1629.3375, -0.0048891767, -0.021320792, -20499.605, 39295.44, 0.0, 10.01033, 9.982608 
2.1521248e+2, 3.0388382e+2, 84077.305, -85128.3, 1723.597, -0.00588006, -0.02397999, 84094.86, 84094.86, 0.0, 10.011181, 9.988756 
2.1522896e+2, 3.1387246e+2, 91325.96, -81475.74, 1540.402, 0.00936202, -0.037149247, 91339.695, 91339.695, 0.0, 10.011673, 9.9887705 
2.2492588e+2, 1.2402192e+2, -1763233.4, -1733639.6, -2677.7908, 0.01459295, -0.012382946, -1733399.3, -8817.108, 0.0, 9.996501, 10.000417 
2.2494338e+2, 1.3402076e+2, -1665038.3, -1647416.1, 1327.6356, 0.027866974, -0.06571483, -1647316.6, -20723.697, 0.0, 9.997028, 9.999359 
2.2496009e+2, 1.4401971e+2, -1564907.0, -1561026.6, -993.1233, 0.0007619268, -0.051900707, -1560787.3, -32184.082, 0.0, 9.997724, 9.998228 
2.2497647e+2, 1.5401828e+2, -1453137.4, -1456758.6, -2139.5635, -0.007134514, -0.014183875, -1452145.1, -21527.408, 0.0, 9.998677, 9.998186 
2.2499305e+2, 1.6401565e+2, -1358168.9, -1380546.5, -1341.0914, -0.0076512294, -0.008897535, -1358088.9, -25445.2, 0.0, 9.9993515, 9.996373 
2.2501002e+2, 1.7401153e+2, -1256684.5, -1281615.1, -496.9639, 0.0024517966, -0.051303223, -1256674.6, -21991.344, 0.0, 9.9996195, 9.996304 
2.2502667e+2, 1.840068e+2, -1163319.4, -1208273.4, -2940.1995, 0.006711996, -0.06098747, -1163127.9, -26398.191, 0.0, 10.000275, 9.994304 
2.2504294e+2, 1.9400138e+2, -1047996.6, -1102852.5, -4682.4756, 0.0024473057, -0.024960317, -1047599.8, -8816.566, 0.0, 10.001495, 9.994212 
2.2505926e+2, 2.039946e+2, -951881.75, -1030768.8, -4227.1533, -0.0028770897, -0.016852848, -951655.9, -10806.202, 0.0, 10.002447, 9.9919815 
2.2507568e+2, 2.1398613e+2, -846532.44, -930512.75, -2088.4812, -0.01003012, -0.051838662, -846480.56, -3548.326, 0.0, 10.003004, 9.991862 
2.2509237e+2, 2.23977e+2, -750921.5, -854935.7, -242.31152, -0.00072582386, -0.059761368, -750920.94, -5899.3423, 0.0, 10.003756, 9.989966 
2.251094e+2, 2.3396721e+2, -638092.7, -750645.1, -384.652, 0.03258548, -0.029244993, -638091.4, 9026.865, 0.0, 10.004806, 9.989884 
2.251259e+2, 2.4395615e+2, -540366.75, -678210.44, -2793.686, 0.038509473, -0.016244015, -540310.1, 8916.768, 0.0, 10.005882, 9.987616 
2.2514151e+2, 2.539435e+2, -426962.88, -574115.0, -2581.429, 0.003756963, -0.03135385, -426917.6, 24432.953, 0.0, 10.006994, 9.987492 
2.2515757e+2, 2.6392993e+2, -330894.47, -500620.4, -261.79703, -0.011451945, -0.037267163, -330894.06, 22589.473, 0.0, 10.007873, 9.98539 
2.2517428e+2, 2.739153e+2, -225714.7, -400200.03, -675.57355, 0.002851162, -0.03113088, -225712.08, 29915.266, 0.0, 10.008407, 9.985293 
2.2519085e+2, 2.838995e+2, -133210.38, -332374.72, -742.7019, 0.0060172705, -0.024661165, -133207.6, 24574.947, 0.0, 10.00921, 9.982841 
2.252071e+2, 2.9388225e+2, -18298.672, -227476.98, 474.45325, -0.0078009837, -0.019895645, -18297.596, 41653.695, 0.0, 10.010422, 9.982725 
2.2522362e+2, 3.0386794e+2, 82666.52, -87818.84, 1749.9238, -0.009100833, -0.018102936, 82684.484, 82684.484, 0.0, 10.0111685, 9.988578 
2.2524036e+2, 3.1385645e+2, 82863.5, -87995.51, 339.93805, 0.008782142, -0.022950143, 82864.18, 82864.18, 0.0, 10.011192, 9.988554 
2.3492277e+2, 1.2400447e+2, -1758984.3, -1724682.8, -520.1044, 0.051819097, 0.010390113, -1724674.9, 79.2297, 0.0, 9.996491, 10.001027 
2.3494044e+2, 1.3400383e+2, -1660275.9, -1637394.0, 3268.0999, 0.029285198, -0.059986554, -1636936.5, -10177.082, 0.0, 9.997019, 10.000043 
2.3495764e+2, 1.4400299e+2, -1566346.3, -1563803.3, 2451.1875, -0.015386487, -0.05386178, -1562313.4, -33546.133, 0.0, 9.997716, 9.998041 
2.3497511e+2, 1.5400128e+2, -1455223.8, -1460960.8, 1489.771, -0.010714337, -0.016799418, -1454860.0, -24075.232, 0.0, 9.998673, 9.997901 
2.3499238e+2, 1.6399854e+2, -1357509.1, -1379192.1, -77.49222, -0.009735349, -0.008368528, -1357508.9, -24697.262, 0.0, 9.999352, 9.996463 
2.3500949e+2, 1.7399466e+2, -1255713.4, -1279634.4, 526.1665, -0.014396065, -0.042633586, -1255701.8, -20852.703, 0.0, 9.999622, 9.996436 
2.350268e+2, 1.8398984e+2, -1166014.1, -1213877.4, 1341.9586, -0.008432867, -0.049488395, -1165976.5, -29080.291, 0.0, 10.000277, 9.99392 
2.3504455e+2, 1.9398393e+2, -1051130.4, -1109346.9, -16.924725, 0.0131676765, -0.018125145, -1051130.4, -12175.528, 0.0, 10.001496, 9.993768 
2.3506193e+2, 2.0397708e+2, -948767.56, -1024365.8, -1880.511, 0.020161295, -0.012843006, -948720.8, -7698.7715, 0.0, 10.002449, 9.992415 
2.3507884e+2, 2.1396913e+2, -842736.9, -922677.6, 1.9611804, 0.0054347487, -0.04791829, -842736.9, 362.18887, 0.0, 10.003004, 9.992395 
2.3509608e+2, 2.2396033e+2, -750903.0, -854930.1, 3533.3477, -0.0039017736, -0.05401317, -750783.1, -5597.875, 0.0, 10.003757, 9.9899645 
2.3511384e+2, 2.3395051e+2, -638547.06, -751579.4, 3578.001, -0.005188431, -0.0186469, -638433.94, 8848.261, 0.0, 10.004806, 9.989819 
2.351314e+2, 2.4393944e+2, -539495.6, -676333.94, 1333.0006, 0.0000033507167, -0.008349247, -539482.6, 9908.216, 0.0, 10.005879, 9.987743 
2.3514861e+2, 2.539268e+2, -426044.06, -571961.9, 1575.3232, 0.0150881335, -0.037669733, -426027.06, 25487.08, 0.0, 10.006983, 9.987642 
2.3516575e+2, 2.639132e+2, -331861.9, -502348.66, 1931.0447, 0.016961884, -0.047513224, -331840.03, 21806.994, 0.0, 10.007861, 9.985276 
2.3518264e+2, 2.7389857e+2, -226821.94, -402369.44, 1275.2639, -0.0012564103, -0.029962484, -226812.67, 28978.547, 0.0, 10.008403, 9.985146 
2.3519988e+2, 2.8388283e+2, -130958.95, -327512.8, 3474.0884, -0.010629726, -0.02359541, -130897.57, 27048.193, 0.0, 10.009201, 9.983175 
2.3521754e+2, 2.938658e+2, -15906.525, -221907.28, 4965.9346, -0.005958553, -0.036655862, -15786.885, 44325.46, 0.0, 10.010396, 9.983116 
2.3523484e+2, 3.0385166e+2, 80663.7, -91503.234, 2262.287, -0.0035486533, -0.028509442, 80693.43, 80693.43, 0.0, 10.01115, 9.988333 
2.3525146e+2, 3.1384027e+2, 80882.555, -92623.01, 434.48758, -0.005169925, 0.010390212, 80883.64, 80883.64, 0.0, 10.011218, 9.988223 
2.4491961e+2, 1.2398645e+2, -1746849.6, -1716045.4, -952.05383, 0.055273112, -0.0011816098, -1716016.0, 8914.823, 0.0, 9.997192, 10.001273 
2.4493751e+2, 1.339864e+2, -1655859.3, -1631935.8, -575.2606, 0.02856813, -0.0403179, -1631922.0, -4991.3706, 0.0, 9.997172, 10.000338 
2.4495523e+2, 1.4398575e+2, -1570548.3, -1567049.8, -635.471, -0.016791493, -0.027400952, -1566937.9, -38001.023, 0.0, 9.99748, 9.997932 
2.4497366e+2, 1.5398355e+2, -1461967.0, -1466000.1, -426.28217, -0.004524808, -0.023885002, -1461922.5, -30963.635, 0.0, 9.998289, 9.997744 
2.4499173e+2, 1.6398066e+2, -1359953.4, -1379773.3, -2526.7788, -0.0017419208, -0.02428134, -1359636.3, -26649.195, 0.0, 9.999158, 9.996517 
2.4500936e+2, 1.7397712e+2, -1247888.9, -1274951.1, -2480.3528, -0.01331786, -0.030554272, -1247663.4, -12642.06, 0.0, 10.000114, 9.996512 
2.4502735e+2, 1.8397233e+2, -1158997.5, -1212878.9, -610.379, -0.011277802, -0.028709965, -1158990.6, -21922.309, 0.0, 10.000857, 9.993703 
2.4504592e+2, 1.9396599e+2, -1055991.8, -1114512.5, -474.92322, 0.010670687, -0.017537152, -1055987.9, -16856.73, 0.0, 10.001285, 9.993517 
2.4506412e+2, 2.0395909e+2, -954122.7, -1023421.6, -2133.5579, 0.019519147, -0.017272092, -954057.06, -12858.328, 0.0, 10.001928, 9.99273 
2.4508183e+2, 2.139517e+2, -841590.3, -917848.1, -1410.8308, 0.008882165, -0.034638304, -841564.2, 1706.2532, 0.0, 10.002895, 9.992776 
2.4509992e+2, 2.2394304e+2, -750597.0, -856884.06, 1755.2208, -0.0025738631, -0.037473913, -750568.06, -5213.0327, 0.0, 10.003866, 9.989776 
2.4511856e+2, 2.3393278e+2, -639724.8, -755038.4, 495.06424, -0.015265479, -0.020576026, -639722.7, 7733.277, 0.0, 10.004847, 9.989559 
2.4513708e+2, 2.4392162e+2, -540327.4, -674246.4, -2604.6296, -0.0101270545, -0.01691823, -540276.75, 9288.898, 0.0, 10.0057125, 9.987963 
2.4515536e+2, 2.5390935e+2, -432439.38, -571936.1, -1517.8025, 0.021479452, -0.03500256, -432422.88, 19262.37, 0.0, 10.006408, 9.987918 
2.4517335e+2, 2.6389593e+2, -342382.6, -508611.06, -1155.2303, 0.027751619, -0.040595803, -342374.56, 11442.109, 0.0, 10.007188, 9.98517 
2.4519086e+2, 2.7388105e+2, -232224.95, -406698.66, -1936.5773, -0.0045701372, -0.029830197, -232203.47, 23759.447, 0.0, 10.008102, 9.984991 
2.4520881e+2, 2.8386527e+2, -134653.05, -326657.1, 197.65977, -0.019667966, -0.027003895, -134652.84, 23464.723, 0.0, 10.008832, 9.983408 
2.4522734e+2, 2.9384857e+2, -30191.418, -225609.63, 951.41846, -0.0077480706, -0.038228847, -30186.787, 30094.45, 0.0, 10.0092745, 9.983399 
2.4524549e+2, 3.0383468e+2, 68128.35, -95074.53, -566.2252, -0.0051799053, -0.0297589, 68130.31, 68130.31, 0.0, 10.010177, 9.988554 
2.4526282e+2, 3.138235e+2, 90725.66, -85503.57, 1355.8096, -0.01778999, 0.0067981197, 90736.086, 90736.086, 0.0, 10.011787, 9.988438 
2.549165e+2, 1.2396783e+2, -1748007.6, -1718276.9, -598.3917, 0.021882068, -0.048737537, -1718264.8, 6847.8726, 0.0, 9.997189, 10.0011215 
2.5493467e+2, 1.3396847e+2, -1656831.8, -1633687.1, -738.05, 0.024795635, -0.006869985, -1633663.6, -6556.6665, 0.0, 9.997164, 10.000221 
2.5495285e+2, 1.4396796e+2, -1570935.3, -1567586.1, 2069.9683, -0.0037785636, 0.028003192, -1566598.3, -37485.9, 0.0, 9.99747, 9.9979 
2.549721e+2, 1.5396507e+2, -1462259.8, -1466418.9, 2649.6936, 0.010861093, -0.03515579, -1460971.0, -29830.82, 0.0, 9.998281, 9.997718 
2.5499105e+2, 1.6396198e+2, -1359909.5, -1379619.9, 1041.2988, 0.015330324, -0.056686312, -1359854.6, -26684.158, 0.0, 9.999155, 9.996527 
2.5500965e+2, 1.7395893e+2, -1247794.3, -1274718.9, 1161.0068, 0.0049275113, -0.015248475, -1247744.3, -12543.658, 0.0, 10.0001135, 9.996528 
2.5502828e+2, 1.8395427e+2, -1159341.5, -1213619.9, 1216.0673, -0.002532759, 0.0012530601, -1159314.3, -22067.813, 0.0, 10.000859, 9.99365 
2.5504705e+2, 1.939475e+2, -1056367.5, -1115382.3, 1174.9177, -0.0055347946, -0.023099178, -1056344.1, -17031.412, 0.0, 10.001289, 9.993454 
2.550658e+2, 2.0394059e+2, -952627.56, -1020470.75, 1349.3538, -0.005350678, -0.030170517, -952600.7, -11220.348, 0.0, 10.001935, 9.992927 
2.5508463e+2, 2.1393377e+2, -839881.75, -914420.7, 2242.3381, -0.00031438714, -0.012395235, -839814.4, 3632.54, 0.0, 10.0029, 9.993006 
2.5510383e+2, 2.2392513e+2, -753168.4, -862224.25, 5409.013, 0.0021002851, -0.01039676, -752900.75, -7369.395, 0.0, 10.003868, 9.9894085 
2.5512356e+2, 2.3391402e+2, -642936.2, -761535.06, 4221.684, 0.0004144135, -0.034376267, -642786.06, 4853.7974, 0.0, 10.004841, 9.989117 
2.5514296e+2, 2.4390262e+2, -538295.4, -669819.5, 161.32616, 0.0060017337, -0.04136788, -538295.2, 11456.266, 0.0, 10.005703, 9.988268 
2.551618e+2, 2.538911e+2, -429670.1, -566121.0, 1059.0814, 0.022729099, -0.023959843, -429661.88, 22202.398, 0.0, 10.006405, 9.988316 
2.551805e+2, 2.63878e+2, -343049.97, -510028.53, 2130.725, 0.021359598, -0.017482003, -343022.78, 10970.19, 0.0, 10.00719, 9.98507 
2.5519893e+2, 2.738627e+2, -233402.86, -409118.6, 1534.96, -0.0076028914, -0.030572308, -233389.45, 22753.404, 0.0, 10.008102, 9.984824 
2.552176e+2, 2.8384683e+2, -133626.78, -324548.97, 2090.6138, -0.022013132, -0.034515418, -133603.89, 24694.45, 0.0, 10.008834, 9.98355 
2.5523657e+2, 2.938305e+2, -28766.373, -222853.34, 2539.5012, -0.013272378, -0.025901692, -28733.15, 31725.262, 0.0, 10.009285, 9.983582 
2.5525558e+2, 3.0381694e+2, 72616.89, -85775.41, 4855.231, -0.014024897, -0.022482365, 72765.58, 72765.58, 0.0, 10.010179, 9.989187 
2.552745e+2, 3.13806e+2, 95157.6, -75598.35, 7243.082, -0.030308379, -0.029943367, 95464.28, 95464.28, 0.0, 10.011759, 9.989127 
2.6491338e+2, 1.2394948e+2, -1754766.9, -1728820.0, 1613.9689, 0.0012026312, -0.070876494, -1728720.0, -3428.2034, 0.0, 9.997043, 10.000478 
2.6493222e+2, 1.3394976e+2, -1650343.8, -1637738.6, -2999.5999, 0.02865097, -0.0029071043, -1637061.3, -9770.486, 0.0, 9.997914, 9.999578 
2.6495093e+2, 1.4394906e+2, -1555217.0, -1558389.5, -1697.9426, 0.0092253415, 0.043163512, -1554479.6, -25181.48, 0.0, 9.998468, 9.998036 
2.6497054e+2, 1.5394627e+2, -1456543.9, -1461116.3, 724.0, 0.014830454, -0.033448216, -1456432.0, -25107.074, 0.0, 9.998559, 9.99794 
2.6499012e+2, 1.6394317e+2, -1364061.9, -1383748.0, 1073.9347, 0.016613938, -0.056825858, -1364003.5, -30648.615, 0.0, 9.998961, 9.996338 
2.6500973e+2, 1.7394005e+2, -1253351.6, -1280074.0, -551.04236, 0.013294204, 0.00043245737, -1253340.3, -17954.041, 0.0, 9.999846, 9.99629 
2.6502916e+2, 1.839354e+2, -1158613.9, -1209405.4, -1088.8947, 0.004809838, 0.016589625, -1158590.5, -21158.658, 0.0, 10.000738, 9.993994 
2.6504844e+2, 1.9392881e+2, -1048294.2, -1106850.0, 2241.1765, -0.011730991, -0.032435477, -1048208.5, -8712.651, 0.0, 10.001638, 9.993865 
2.650679e+2, 2.0392185e+2, -947961.5, -1023497.3, 2803.291, -0.016678268, -0.043573357, -947857.56, -6294.0474, 0.0, 10.002478, 9.992456 
2.6508763e+2, 2.1391475e+2, -839101.75, -920550.25, -2141.194, -0.0042051394, 0.0014927599, -839045.5, 4588.2, 0.0, 10.003231, 9.992423 
2.6510772e+2, 2.2390594e+2, -751565.3, -858930.3, -847.93524, 0.005825547, 0.00844947, -751558.6, -5838.6294, 0.0, 10.003865, 9.989631 
2.6512825e+2, 2.3389485e+2, -648190.4, -760487.44, 3387.4648, 0.011709106, -0.044767126, -648088.3, -260.69403, 0.0, 10.004323, 9.989437 
2.651484e+2, 2.4388348e+2, -548778.25, -677028.2, 1642.6295, 0.012406771, -0.060002964, -548757.2, 1181.6249, 0.0, 10.0050745, 9.988079 
2.6516795e+2, 2.5387195e+2, -433379.88, -570768.4, -1994.5433, 0.0050095716, -0.018382136, -433350.9, 18701.336, 0.0, 10.006269, 9.98806 
2.651875e+2, 2.6385894e+2, -338179.06, -502735.7, -2153.0818, -0.0036393963, -0.0032927562, -338150.9, 16028.85, 0.0, 10.007308, 9.985508 
2.6520696e+2, 2.7384403e+2, -229713.17, -401403.13, 2077.1968, -0.013788481, -0.032318857, -229688.05, 26637.572, 0.0, 10.008096, 9.985353 
2.652265e+2, 2.838283e+2, -135416.06, -329117.22, 3098.3562, -0.01861007, -0.04134956, -135366.52, 23113.418, 0.0, 10.008867, 9.983221 
2.65246e+2, 2.9381162e+2, -27059.83, -227011.6, -910.1839, -0.015364798, -0.020583292, -27055.688, 33587.645, 0.0, 10.009613, 9.983137 
2.652657e+2, 3.03798e+2, 75898.29, -79647.984, -547.3935, -0.017702943, -0.017249843, 75900.21, 75900.21, 0.0, 10.010203, 9.989593 
2.6528564e+2, 3.1378737e+2, 81353.97, -76434.68, 772.84784, -0.029080447, -0.044069607, 81357.75, 81357.75, 0.0, 10.010553, 9.989645 
2.7491033e+2, 1.2393147e+2, -1763340.9, -1746015.6, 5266.0776, -0.0077005303, -0.06568669, -1744540.5, -19072.41, 0.0, 9.997028, 9.999315 
2.7493027e+2, 1.3393024e+2, -1659001.3, -1655290.0, 269.90924, 0.039935846, -0.02866758, -1655270.5, -27788.543, 0.0, 9.997907, 9.998388 
2.7494952e+2, 1.4392902e+2, -1553137.9, -1554017.5, -1110.8796, 0.021644538, 0.017091906, -1552382.9, -22888.23, 0.0, 9.998466, 9.998333 
2.74969e+2, 1.5392707e+2, -1453239.4, -1454183.4, 1025.7656, 0.0063924333, -0.019066952, -1452582.3, -21069.082, 0.0, 9.998553, 9.998414 
2.7498892e+2, 1.6392426e+2, -1366907.0, -1389495.8, 4101.802, 0.0008804748, -0.024512893, -1366185.3, -32644.488, 0.0, 9.998957, 9.995948 
2.7500954e+2, 1.7392048e+2, -1256918.5, -1287332.5, 2844.3398, 0.0110948505, 0.016700791, -1256654.8, -21076.137, 0.0, 9.999844, 9.995795 
2.7502996e+2, 1.8391573e+2, -1153419.5, -1198692.0, 2321.429, 0.009918112, 0.01757019, -1153300.8, -15675.755, 0.0, 10.000738, 9.99472 
2.750501e+2, 1.9390987e+2, -1042040.7, -1093985.1, 5639.467, -0.008859141, -0.045615032, -1041435.44, -1754.3306, 0.0, 10.001638, 9.9947405 
2.750704e+2, 2.0390292e+2, -955882.3, -1039906.1, 5696.581, -0.015524975, -0.057544854, -955497.9, -13749.041, 0.0, 10.002481, 9.991335 
2.750909e+2, 2.1389464e+2, -848759.3, -940528.5, 744.135, -0.0036423681, 0.007218739, -848753.25, -4922.107, 0.0, 10.003233, 9.991058 
2.7511165e+2, 2.2388545e+2, -746019.7, -847501.8, 1029.4888, 0.0077269063, 0.019316731, -746009.25, -88.035385, 0.0, 10.003868, 9.990407 
2.7513266e+2, 2.3387523e+2, -640693.25, -745145.56, 5086.9663, 0.018126607, -0.051907863, -640446.06, 7573.7583, 0.0, 10.004332, 9.9904785 
2.7515343e+2, 2.4386407e+2, -553237.44, -686477.44, 5817.6846, 0.008659834, -0.07295534, -552983.9, -2855.3281, 0.0, 10.005084, 9.987427 
2.7517387e+2, 2.5385183e+2, -439491.22, -583438.7, 2554.652, -0.031095734, -0.017957622, -439445.88, 12803.685, 0.0, 10.00627, 9.987191 
2.7519438e+2, 2.638388e+2, -331720.34, -489137.2, 967.1408, -0.04648651, 0.0022547597, -331714.4, 22662.965, 0.0, 10.007299, 9.986439 
2.7521497e+2, 2.7382496e+2, -221717.97, -384444.53, 4836.5093, -0.02368367, -0.03514539, -221574.34, 34937.813, 0.0, 10.008081, 9.986518 
2.7523544e+2, 2.8380948e+2, -140981.98, -340252.47, 5659.4404, -0.010924586, -0.047396038, -140821.39, 17842.047, 0.0, 10.008849, 9.982467 
2.7525562e+2, 2.937919e+2, -34351.71, -241887.92, 1823.9617, -0.014596072, -0.021582842, -34335.68, 26500.838, 0.0, 10.009602, 9.982122 
2.7527595e+2, 3.0377784e+2, 77174.695, -76840.44, 965.44586, -0.016821865, -0.014136238, 77180.75, 77180.75, 0.0, 10.010199, 9.989785 
2.7529633e+2, 3.1376758e+2, 83849.586, -71172.27, 2058.8726, -0.016760617, -0.0381516, 83876.92, 83876.92, 0.0, 10.010553, 9.990004 
2.849078e+2, 1.239125e+2, -1756392.8, -1747125.5, -2036.2625, -0.00094829284, -0.024652207, -1746697.9, -21042.701, 0.0, 9.997687, 9.998915 
2.8492814e+2, 1.3391033e+2, -1661225.6, -1660671.1, -1464.157, 0.03523443, -0.042713467, -1659458.3, -31780.943, 0.0, 9.997938, 9.998007 
2.8494787e+2, 1.4390877e+2, -1552681.8, -1553275.0, -406.34546, 0.010098834, -0.012593016, -1552475.4, -22782.36, 0.0, 9.99847, 9.998382 
2.8496796e+2, 1.5390728e+2, -1439219.3, -1446262.8, -1087.6964, -0.000611505, -0.011935015, -1439055.1, -7348.0005, 0.0, 9.999456, 9.998511 
2.8498843e+2, 1.6390452e+2, -1351860.1, -1385658.6, 661.20935, -0.0030960862, -0.0057675787, -1351847.1, -18112.66, 0.0, 10.000129, 9.995637 
2.850096e+2, 1.739001e+2, -1252451.0, -1289214.3, 323.77228, 0.0074599506, 0.0085994275, -1252448.1, -16669.857, 0.0, 10.0003195, 9.995435 
2.8503072e+2, 1.8389517e+2, -1151895.9, -1196269.3, -453.68274, 0.011953726, 0.0037636613, -1151891.3, -14064.7295, 0.0, 10.000766, 9.994869 
2.8505188e+2, 1.9388975e+2, -1040917.44, -1091080.0, -1910.1858, 0.0068852347, -0.032539688, -1040844.8, -966.60266, 0.0, 10.001611, 9.994946 
2.85073e+2, 2.038828e+2, -960170.6, -1045823.8, -2725.3018, 0.004393095, -0.04084016, -960084.0, -18138.025, 0.0, 10.002351, 9.99099 
2.8509408e+2, 2.1387379e+2, -855971.9, -948645.25, -829.91925, 0.005554836, -0.008279525, -855964.44, -11929.264, 0.0, 10.002936, 9.990646 
2.851154e+2, 2.2386447e+2, -745938.44, -844214.0, 2190.9758, 0.0050172075, -0.0016566585, -745889.6, 237.01524, 0.0, 10.003729, 9.990698 
2.851371e+2, 2.3385496e+2, -630501.25, -735964.9, 1544.5642, 0.0018016136, -0.036721364, -630478.6, 17739.79, 0.0, 10.004842, 9.990855 
2.851587e+2, 2.43844e+2, -545182.25, -685433.0, 1199.7546, -0.008703804, -0.048363052, -545172.0, 5153.332, 0.0, 10.005754, 9.98717 
2.8518018e+2, 2.538311e+2, -440540.4, -587745.8, 1697.1569, -0.029949605, -0.026073279, -440520.84, 11931.606, 0.0, 10.006358, 9.986854 
2.852016e+2, 2.6381782e+2, -336731.84, -490917.0, -1316.4995, -0.034559246, -0.01698413, -336720.6, 17862.18, 0.0, 10.006924, 9.986497 
2.852228e+2, 2.7380428e+2, -230385.11, -387440.0, -4972.2754, -0.01384961, -0.030867297, -230227.84, 26486.615, 0.0, 10.007432, 9.98662 
2.85244e+2, 2.8378898e+2, -151285.19, -343987.66, -5035.314, -0.004502017, -0.038672067, -151153.7, 7710.555, 0.0, 10.008085, 9.982572 
2.852649e+2, 2.937712e+2, -42723.33, -244674.73, -1028.8397, -0.012975121, -0.03911681, -42718.086, 18320.371, 0.0, 10.008968, 9.982233 
2.852859e+2, 3.0375722e+2, 71492.164, -78029.6, 1170.2726, -0.019732002, -0.03684747, 71501.32, 71501.32, 0.0, 10.009738, 9.989924 
2.8530666e+2, 3.1374744e+2, 81481.21, -70693.625, 651.76886, -0.02419082, -0.03184384, 81484.01, 81484.01, 0.0, 10.010316, 9.99015 
2.949057e+2, 1.2389256e+2, -1753929.6, -1741706.6, -733.60645, 0.020685716, 0.05395838, -1741662.8, -15809.558, 0.0, 9.997675, 9.999286 
2.9492587e+2, 1.3389003e+2, -1658325.4, -1654278.9, -645.12506, 0.013892156, -0.044674434, -1654178.6, -26301.682, 0.0, 9.997921, 9.998447 
2.9494599e+2, 1.438883e+2, -1554387.4, -1556422.0, 3006.9824, -0.026471017, -0.045858096, -1552230.3, -22337.111, 0.0, 9.998456, 9.998173 
2.9496738e+2, 1.5388687e+2, -1441377.9, -1450502.8, 2660.212, -0.006944317, -0.011923932, -1440659.0, -8751.813, 0.0, 9.999448, 9.998225 
2.9498866e+2, 1.6388388e+2, -1353592.0, -1389143.5, 1684.4409, 0.00397583, -0.000352743, -1353512.4, -19575.92, 0.0, 10.000127, 9.995399 
2.9500985e+2, 1.7387888e+2, -1254162.3, -1292671.0, 1051.2401, 0.0019516778, -0.023670949, -1254133.5, -18147.848, 0.0, 10.000319, 9.995198 
2.950315e+2, 1.8387365e+2, -1154877.9, -1202440.6, 2509.5193, 0.010225822, -0.024755113, -1154745.8, -16708.994, 0.0, 10.000768, 9.994447 
2.9505378e+2, 1.9386847e+2, -1044007.7, -1097507.4, 1351.894, 0.034285877, 0.0059971344, -1043973.56, -3886.0896, 0.0, 10.001613, 9.994505 
2.9507574e+2, 2.0386152e+2, -957199.25, -1039844.5, -375.54062, 0.04145711, 0.0059715956, -957197.5, -15042.272, 0.0, 10.002359, 9.991391 
2.950972e+2, 2.138522e+2, -852263.7, -941193.8, 1393.6768, 0.022322241, -0.043915376, -852241.9, -7995.632, 0.0, 10.002947, 9.991147 
2.9511905e+2, 2.238429e+2, -747060.4, -846674.44, 6160.853, -0.0028273973, -0.053282976, -746680.8, -343.7974, 0.0, 10.003736, 9.990524 
2.9514155e+2, 2.3383403e+2, -632336.75, -739688.8, 5715.5474, -0.036630273, -0.00083381106, -632033.3, 16390.66, 0.0, 10.004838, 9.9906 
2.9516417e+2, 2.4382323e+2, -544509.9, -683859.6, 3602.4983, -0.039870016, 0.011660241, -544416.8, 6112.925, 0.0, 10.005748, 9.987279 
2.9518688e+2, 2.5380972e+2, -439593.1, -585558.06, 3886.7217, 0.0049473536, -0.04186408, -439489.66, 13171.97, 0.0, 10.00635, 9.987004 
2.9520914e+2, 2.6379594e+2, -342094.22, -501854.03, 572.37036, 0.027362458, -0.05912484, -342092.2, 12704.367, 0.0, 10.006918, 9.98575 
2.9523054e+2, 2.7378207e+2, -236427.97, -400050.53, -3072.127, 0.013444505, -0.020362673, -236370.31, 20562.12, 0.0, 10.007437, 9.985753 
2.952521e+2, 2.8376675e+2, -144962.1, -331016.06, -1914.5343, 0.00011695235, -0.016547045, -144942.39, 14139.804, 0.0, 10.008093, 9.983453 
2.9527393e+2, 2.9374957e+2, -34827.59, -228269.47, 2120.5063, -0.011099621, -0.071409605, -34804.348, 26445.416, 0.0, 10.00897, 9.983353 
2.9529557e+2, 3.0373612e+2, 72242.445, -76640.81, 3170.3833, -0.02678762, -0.08277746, 72309.93, 72309.93, 0.0, 10.0097475, 9.990012 
2.9531676e+2, 3.1372678e+2, 81635.98, -71214.016, 2404.4016, -0.050583888, -0.025266474, 81673.79, 81673.79, 0.0, 10.010354, 9.990093 
3.049023e+2, 1.2386988e+2, -1780834.0, -1741504.9, -13906.781, 0.03215526, 0.08724286, -1737084.3, -11007.461, 0.0, 9.995265, 10.000466 
3.0492344e+2, 1.3386843e+2, -1661589.5, -1640992.6, -7635.8135, 0.02236445, -0.034567554, -1638470.6, -10381.627, 0.0, 9.997048, 9.99977 
3.0494446e+2, 1.4386722e+2, -1557663.4, -1560954.3, -1165.5338, -0.018272556, -0.04551337, -1557292.4, -27192.8, 0.0, 9.998356, 9.99791 
3.049667e+2, 1.538654e+2, -1451977.9, -1460877.6, -2946.295, 0.0047619287, -0.0048548793, -1451090.9, -18973.197, 0.0, 9.99895, 9.997757 
3.0498868e+2, 1.6386215e+2, -1358494.5, -1390132.9, -4027.9126, 0.015251347, 0.0015243321, -1357989.8, -23840.328, 0.0, 9.999729, 9.995522 
3.0501047e+2, 1.7385711e+2, -1245406.8, -1286175.3, -1548.6217, 0.0068926653, -0.045034472, -1245348.0, -9149.724, 0.0, 10.000814, 9.995398 
3.0503264e+2, 1.8385178e+2, -1146525.5, -1203908.8, 1176.9095, 0.009876401, -0.047219433, -1146501.4, -8251.004, 0.0, 10.001573, 9.993955 
3.0505544e+2, 1.9384634e+2, -1044876.56, -1104434.9, -1043.434, 0.030003853, 0.016626691, -1044858.3, -4553.965, 0.0, 10.001832, 9.993924 
3.0507806e+2, 2.0383929e+2, -954192.5, -1034643.75, -2666.128, 0.03711972, 0.024208615, -954104.25, -11730.917, 0.0, 10.002398, 9.991724 
3.051004e+2, 2.138301e+2, -841667.1, -931020.6, -1187.317, 0.024169551, -0.057707135, -841651.3, 2810.939, 0.0, 10.0034485, 9.991596 
3.0512312e+2, 2.2382075e+2, -742743.6, -850044.25, 2176.1978, 0.0030378213, -0.07620285, -742699.5, 3853.8652, 0.0, 10.004262, 9.990036 
3.0514637e+2, 2.3381154e+2, -638578.8, -749554.06, -853.5657, -0.030640641, 0.0027939947, -638572.25, 10072.197, 0.0, 10.004703, 9.989986 
3.051697e+2, 2.4380057e+2, -550128.44, -683578.2, -4313.239, -0.031763572, 0.022987233, -549989.1, 762.72394, 0.0, 10.005228, 9.987544 
3.0519316e+2, 2.5378722e+2, -443498.2, -583165.9, -2483.0017, 0.017923888, -0.052387614, -443454.06, 9427.479, 0.0, 10.005893, 9.987384 
3.05216e+2, 2.637734e+2, -348888.38, -509381.47, -3521.3586, 0.037987184, -0.07665869, -348811.16, 6205.3433, 0.0, 10.006631, 9.985371 
3.0523795e+2, 2.7375925e+2, -239153.8, -406722.3, -4432.476, 0.010772048, -0.021422682, -239036.63, 18119.28, 0.0, 10.007475, 9.985278 
3.0526018e+2, 2.8374383e+2, -140075.03, -325455.66, -3133.6826, -0.009147591, -0.011354918, -140022.08, 19284.54, 0.0, 10.008286, 9.983738 
3.0528286e+2, 2.9372692e+2, -31067.107, -222080.78, -4069.4421, -0.016408626, -0.07655423, -30980.45, 30490.623, 0.0, 10.009035, 9.98374 
3.053054e+2, 3.0371356e+2, 73811.97, -78231.27, -6396.235, -0.028676037, -0.09164616, 74080.58, 74080.58, 0.0, 10.009951, 9.9897995 
3.053275e+2, 3.13704e+2, 90918.44, -70067.49, -8776.777, -0.05022577, -0.027403297, 91395.52, 91395.52, 0.0, 10.011132, 9.989789 
3.148975e+2, 1.2384439e+2, -1767098.4, -1712272.4, -7146.3896, 0.031242799, 0.073690355, -1711356.1, 14970.507, 0.0000000000000806617, 9.99522, 10.002467 
3.1492084e+2, 1.338455e+2, -1646086.9, -1608532.6, -983.17365, 0.060798623, -0.012178597, -1608506.9, 19806.902, 0.00000000000005243424, 9.99702, 10.001985 
3.1494337e+2, 1.438455e+2, -1560137.8, -1565707.1, 1485.1805, 0.035057995, -0.010692498, -1559766.4, -29453.77, 0.000000000000028332263, 9.998343, 9.99759 
3.149659e+2, 1.5384285e+2, -1456818.4, -1470497.3, -778.906, 0.03417209, 0.0095238, -1456774.1, -24434.973, 0.000000000000012064798, 9.998937, 9.9971075 
3.1498855e+2, 1.638393e+2, -1355201.3, -1383155.1, -162.12386, 0.029752834, -0.00012057699, -1355200.4, -20826.576, 0.000000000000003878589, 9.999721, 9.995997 
3.1501144e+2, 1.7383476e+2, -1241022.9, -1277031.4, 2577.6702, 0.021331664, -0.05558391, -1240839.3, -4422.7256, 0.0000000000000009180906, 10.00081, 9.996019 
3.1503424e+2, 1.8382949e+2, -1150518.5, -1212116.1, 2510.1194, 0.010230884, -0.06343296, -1150416.4, -11948.407, 0.00000000000000015841597, 10.001573, 9.993395 
3.1505695e+2, 1.9382335e+2, -1049891.0, -1114888.5, -32.722713, -0.0055987774, 0.00017722862, -1049891.0, -9361.768, 0.000000000000000019869674, 10.001838, 9.993209 
3.1508002e+2, 2.0381609e+2, -952179.25, -1030727.25, 1019.14667, -0.008040513, 0.014465197, -952166.06, -9565.488, 0.0000000000000000018107616, 10.002409, 9.991983 
3.1510374e+2, 2.1380742e+2, -838771.6, -925213.06, 2815.2688, 0.010887674, -0.050825648, -838680.06, 6003.8447, 0.0000000000000000001198895, 10.003456, 9.991985 
3.1512755e+2, 2.2379793e+2, -748252.9, -861486.8, 4068.9424, 0.020816272, -0.071635075, -748106.8, -1330.4197, 0.0000000000000000000057675156, 10.004265, 9.989253 
3.1515154e+2, 2.3378746e+2, -645256.5, -763374.94, 830.8651, 0.016239887, -0.023778059, -645250.7, 3629.2124, 0.0, 10.004704, 9.989041 
3.1517538e+2, 2.4377608e+2, -547218.94, -677610.2, -1873.4501, 0.0124794645, -0.011464316, -547192.0, 3799.604, 0.0, 10.005233, 9.9879465 
3.15199e+2, 2.537636e+2, -439216.8, -574475.6, -6.3475327, 0.010247125, -0.05836098, -439216.8, 13895.8545, 0.0, 10.005903, 9.98797 
3.152223e+2, 2.637502e+2, -348930.2, -509827.3, -486.79916, 0.00064061803, -0.07162054, -348928.72, 6314.716, 0.0, 10.006647, 9.98533 
3.1524512e+2, 2.7373573e+2, -239660.53, -408392.06, -1311.2163, -0.020358745, -0.03303651, -239650.34, 17735.465, 0.0, 10.007503, 9.985147 
3.1526828e+2, 2.8372017e+2, -141402.3, -328885.06, -376.05225, -0.032194257, -0.021783525, -141401.55, 18136.861, 0.0, 10.008317, 9.983486 
3.152918e+2, 2.937033e+2, -32669.79, -225826.66, -1409.181, -0.028755657, -0.05758097, -32659.508, 29043.41, 0.0, 10.009055, 9.983471 
3.1531537e+2, 3.036896e+2, 70443.766, -85182.15, -2334.0652, -0.026793836, -0.067490175, 70478.76, 70478.76, 0.0, 10.009949, 9.98932 
3.1533888e+2, 3.136792e+2, 86786.1, -77748.09, -4492.458, -0.028646098, -0.03688182, 86908.67, 86908.67, 0.0, 10.011092, 9.989279 
3.2489297e+2, 1.2381957e+2, -1756295.6, -1707046.6, 8381.058, 0.02034698, -0.0059186383, -1705659.5, 20907.928, 0.0000000000023454196, 9.995948, 10.002474 
3.2491776e+2, 1.3382147e+2, -1650034.1, -1609932.1, -2283.1057, 0.06384917, -0.015912225, -1609802.6, 18745.576, 0.0000000000015241749, 9.996723, 10.002029 
3.249414e+2, 1.4382188e+2, -1570564.9, -1569454.0, -9309.878, 0.045137096, 0.017807316, -1560683.0, -30138.926, 0.0000000000008233425, 9.997571, 9.9977045 
3.2496476e+2, 1.5381905e+2, -1461244.5, -1471257.4, -6112.738, 0.041543595, 0.009399631, -1458349.8, -25777.598, 0.00000000000035051592, 9.9985695, 9.997231 
3.2498825e+2, 1.6381559e+2, -1355906.5, -1380637.5, -2231.8887, 0.036234587, -0.010585331, -1355706.6, -21100.799, 0.00000000000011265747, 9.999542, 9.996252 
3.2501218e+2, 1.7381153e+2, -1243768.3, -1275297.0, -2029.3425, 0.02957855, -0.04671198, -1243638.3, -6994.1426, 0.000000000000026661206, 10.000483, 9.996291 
3.2503584e+2, 1.8380626e+2, -1153097.3, -1216472.6, -3630.0964, 0.015423505, -0.055271953, -1152890.0, -14194.844, 0.000000000000004599458, 10.001527, 9.993114 
3.2505918e+2, 1.9379945e+2, -1039288.56, -1113700.1, -3653.167, -0.011058948, -0.02406834, -1039109.6, 1653.208, 0.0000000000000005767878, 10.002728, 9.992853 
3.2508296e+2, 2.0379193e+2, -935271.56, -1022920.8, -2268.8574, -0.015127648, -0.013927988, -935212.9, 7623.782, 0.000000000000000052554126, 10.003574, 9.991948 
3.2510746e+2, 2.1378368e+2, -832599.06, -922137.9, -3287.4673, 0.016034216, -0.03861155, -832478.56, 12437.827, 0.0000000000000000034789587, 10.003869, 9.991991 
3.2513192e+2, 2.2377412e+2, -751409.4, -867475.0, -3047.0881, 0.03396226, -0.04832029, -751329.44, -4319.838, 0.00000000000000000016733108, 10.004238, 9.9888525 
3.251564e+2, 2.3376285e+2, -648033.94, -769815.9, -2885.9565, 0.030424777, -0.036655035, -647965.56, 1155.236, 0.0, 10.00473, 9.988586 
3.251808e+2, 2.4375117e+2, -543551.8, -673644.56, -3130.201, 0.020060053, -0.035604984, -543476.56, 7758.677, 0.0, 10.0053835, 9.988143 
3.2520497e+2, 2.5373924e+2, -431338.9, -567409.4, -3185.894, -0.0004146945, -0.053820733, -431264.34, 22086.602, 0.0, 10.006296, 9.98826 
3.2522908e+2, 2.637261e+2, -338860.72, -504831.88, -3866.663, -0.019172788, -0.060565382, -338770.7, 16708.707, 0.0, 10.007327, 9.985339 
3.2525298e+2, 2.737113e+2, -224845.38, -401589.78, -3946.7024, -0.03518185, -0.05108059, -224757.28, 32867.24, 0.0, 10.008529, 9.985114 
3.2527703e+2, 2.8369555e+2, -129223.99, -326995.25, -4951.9033, -0.03850391, -0.04187808, -129100.08, 30678.932, 0.0, 10.009319, 9.9831295 
3.253011e+2, 2.936787e+2, -29902.803, -229000.88, -7196.026, -0.020888092, -0.03543344, -29643.055, 32300.834, 0.0, 10.009435, 9.9830675 
3.253253e+2, 3.0366465e+2, 62737.867, -93748.75, -7494.948, -0.009661111, -0.04085829, 63096.02, 63096.02, 0.0, 10.009622, 9.988887 
3.253495e+2, 3.136532e+2, 67007.414, -92194.516, -9081.057, -0.010772884, -0.068642505, 67523.734, 67523.734, 0.0, 10.009935, 9.988842 
3.348887e+2, 1.23795465e+2, -1771678.3, -1738050.4, 11759.673, -0.0028305303, -0.15490821, -1734346.0, -7547.778, 0.00000000005167391, 9.995928, 10.000375 
3.3491412e+2, 1.3379635e+2, -1666182.3, -1642412.0, 474.6375, 0.030023057, -0.04670819, -1642402.5, -13610.419, 0.00000000003357157, 9.996697, 9.999833 
3.3493862e+2, 1.4379631e+2, -1566992.1, -1561597.8, -5770.3945, 0.0100719845, 0.040098283, -1557925.3, -27131.084, 0.000000000018130754, 9.997549, 9.998245 
3.3496317e+2, 1.5379402e+2, -1454966.8, -1457980.5, -2381.615, 0.025922108, -0.0051099034, -1453655.4, -20838.521, 0.000000000007717037, 9.998553, 9.998138 
3.3498776e+2, 1.6379102e+2, -1355782.1, -1380186.1, 1308.6566, 0.03406927, -0.029773286, -1355712.1, -20866.139, 0.0000000000024798213, 9.999535, 9.996284 
3.3501267e+2, 1.7378734e+2, -1244447.0, -1276551.5, 1524.8081, 0.031165771, -0.018654825, -1244374.8, -7493.5425, 0.00000000000058676854, 10.000478, 9.996206 
3.3503744e+2, 1.8378207e+2, -1153206.9, -1216549.6, 804.7355, 0.024662342, -0.022923833, -1153196.8, -14264.287, 0.00000000000010121049, 10.00152, 9.993111 
3.3506215e+2, 1.9377463e+2, -1039400.56, -1113713.9, 946.04016, 0.01206286, -0.05568495, -1039388.5, 1616.9592, 0.000000000000012690283, 10.002718, 9.992855 
3.3508682e+2, 2.0376681e+2, -937670.7, -1027711.44, -716.5165, 0.013737141, -0.060449235, -937665.0, 5416.98, 0.0000000000000011561161, 10.00357, 9.991622 
3.3511153e+2, 2.1375884e+2, -835167.25, -927487.75, -2158.2676, 0.038213976, -0.021439632, -835116.8, 10043.213, 0.000000000000000076521916, 10.003874, 9.991622 
3.3513626e+2, 2.237493e+2, -751556.5, -867974.94, -1253.4967, 0.04217886, -0.007060804, -751543.0, -4289.5547, 0.0000000000000000036800285, 10.004249, 9.9888115 
3.3516094e+2, 2.337376e+2, -647842.1, -769688.25, -972.5308, 0.013333381, -0.03617326, -647834.4, 1533.6394, 0.0, 10.004744, 9.988587 
3.351859e+2, 2.4372579e+2, -543366.1, -673471.8, 152.82257, -0.0075833513, -0.04983887, -543365.94, 8117.7256, 0.0, 10.005394, 9.988146 
3.3521113e+2, 2.5371414e+2, -431294.38, -567234.75, 238.65549, -0.014947279, -0.039751213, -431293.94, 22303.127, 0.0, 10.006294, 9.98827 
3.3523637e+2, 2.6370105e+2, -338847.03, -504244.9, 444.4155, -0.024140922, -0.043950506, -338845.8, 16879.197, 0.0, 10.007303, 9.985388 
3.3526152e+2, 2.736859e+2, -225239.34, -401193.13, 472.0048, -0.036531687, -0.07485203, -225238.08, 32634.69, 0.0, 10.008477, 9.985163 
3.3528644e+2, 2.8366995e+2, -133155.78, -333864.25, -4147.6855, -0.030982152, -0.070794515, -133070.1, 26959.064, 0.0, 10.009267, 9.982683 
3.353108e+2, 2.936531e+2, -33751.66, -236682.08, -6874.7495, 0.004506152, -0.010751827, -33519.027, 28675.646, 0.0, 10.009424, 9.982545 
3.3533522e+2, 3.036386e+2, 60330.586, -99429.11, -6359.7617, 0.020109495, -0.012115114, 60583.355, 60583.355, 0.0, 10.009655, 9.988478 
3.3535963e+2, 3.1362602e+2, 65269.945, -97343.32, -7633.215, 0.0011144909, -0.11944232, 65627.47, 65627.47, 0.0, 10.010005, 9.988452 
3.4488553e+2, 1.2377236e+2, -1747706.0, -1741901.8, 11847.381, -0.024647977, -0.17009999, -1732606.3, -5583.001, 0.00000000081250584, 9.998219, 9.998999 
3.4491146e+2, 1.3377179e+2, -1651203.1, -1651389.4, 5449.617, 0.009803787, -0.0649689, -1645845.9, -16813.947, 0.00000000052773436, 9.998413, 9.998392 
3.449366e+2, 1.437708e+2, -1549521.4, -1555363.8, 1352.4735, -0.008522336, 0.01674546, -1549223.4, -18179.938, 0.00000000028494548, 9.99883, 9.998049 
3.449621e+2, 1.5376842e+2, -1439264.1, -1450716.5, -2135.231, 0.012912039, -0.03250798, -1438879.0, -5812.341, 0.0000000001212577, 9.999634, 9.998104 
3.449876e+2, 1.6376539e+2, -1346059.6, -1378066.8, -4047.7031, 0.026950903, -0.04914867, -1345555.6, -10459.289, 0.00000000003895854, 10.000304, 9.99605 
3.4501326e+2, 1.7376173e+2, -1241865.4, -1278213.3, -5334.3774, 0.030538011, -0.010605737, -1241098.6, -3966.4163, 0.000000000009216846, 10.000773, 9.995944 
3.4503892e+2, 1.8375647e+2, -1156373.9, -1216484.0, -5958.2764, 0.033554032, -0.0044157514, -1155789.0, -16605.35, 0.0000000000015895714, 10.001229, 9.99325 
3.4506455e+2, 1.9374904e+2, -1053328.3, -1118277.6, -4403.9253, 0.03498785, -0.053771347, -1053031.0, -11775.01, 0.00000000000019928297, 10.001668, 9.993049 
3.4509006e+2, 2.0374118e+2, -955855.56, -1038806.94, -4974.5913, 0.03912129, -0.06605169, -955558.3, -12225.377, 0.0000000000000181529, 10.00242, 9.991419 
3.4511542e+2, 2.1373302e+2, -839738.06, -932594.6, -5596.3647, 0.047489204, -0.020266464, -839402.0, 6011.126, 0.0000000000000012013685, 10.00368, 9.9913645 
3.4514073e+2, 2.2372338e+2, -743589.3, -862185.56, -4296.9824, 0.03923336, -0.006963046, -743433.8, 4073.5217, 0.00000000000000005776772, 10.0047035, 9.988984 
3.4516594e+2, 2.3371181e+2, -637466.1, -762056.9, -2498.7656, 0.004427133, -0.04958937, -637416.06, 12204.467, 0.0, 10.005336, 9.98882 
3.4519145e+2, 2.4370001e+2, -538627.6, -674349.8, -1143.282, -0.014284224, -0.060689792, -538618.0, 13117.879, 0.0, 10.00585, 9.987865 
3.4521744e+2, 2.5368834e+2, -435380.56, -573220.3, -3642.5789, -0.006292153, -0.021744212, -435284.38, 18566.383, 0.0, 10.006181, 9.987913 
3.4524342e+2, 2.636751e+2, -351589.56, -510629.03, -4985.277, -0.0011796834, -0.017965654, -351433.47, 4546.8096, 0.0, 10.006432, 9.985369 
3.4526935e+2, 2.736597e+2, -252979.95, -414296.9, -5114.83, -0.0016496632, -0.07587832, -252817.94, 5311.8413, 0.0, 10.006555, 9.985189 
3.45295e+2, 2.836435e+2, -163632.45, -350440.4, -8028.5566, 0.0030674252, -0.08705832, -163288.05, -3000.192, 0.0, 10.007249, 9.982517 
3.4532008e+2, 2.9362655e+2, -43070.906, -243334.28, -8412.655, 0.016682783, -0.021786727, -42718.13, 19736.656, 0.0, 10.00887, 9.982355 
3.4534514e+2, 3.0361214e+2, 72232.19, -89025.89, -4899.288, 0.014956253, -0.019897556, 72380.9, 72380.9, 0.0, 10.010266, 9.988898 
3.453701e+2, 3.1360006e+2, 87219.17, -80974.3, -168.03558, -0.013335153, -0.12761031, 87219.34, 87219.34, 0.0, 10.011261, 9.988976 
3.5488355e+2, 1.23750396e+2, -1752508.3, -1751708.9, 13132.787, -0.04723428, -0.043114737, -1738969.6, -11728.658, 0.000000009469599, 9.998222, 9.998328 
3.549098e+2, 1.3374782e+2, -1656350.1, -1661708.8, 6068.5576, 0.0029286144, -0.069173105, -1652395.8, -23128.398, 0.0000000061492664, 9.998406, 9.997692 
3.5493544e+2, 1.4374535e+2, -1556581.8, -1569608.6, 4055.3523, -0.011047546, -0.053421073, -1555422.4, -24130.514, 0.0000000033196064, 9.99882, 9.997083 
3.5496163e+2, 1.5374227e+2, -1446573.4, -1465447.6, 849.22906, 0.002027787, -0.07329706, -1446535.3, -13213.52, 0.0000000014124153, 9.999621, 9.997107 
3.549878e+2, 1.6373865e+2, -1349787.6, -1385533.8, -2189.4148, 0.0140544735, -0.068434246, -1349654.0, -14296.755, 0.0000000004537274, 10.000298, 9.995543 
3.55014e+2, 1.7373464e+2, -1245056.6, -1284639.6, -3561.6938, 0.026677528, -0.022360712, -1244738.6, -7341.183, 0.00000000010733056, 10.00077, 9.995506 
3.5504022e+2, 1.8372941e+2, -1154404.9, -1212391.4, -4264.7676, 0.04090472, 0.00013449352, -1154092.9, -14643.937, 0.00000000001850869, 10.001229, 9.993526 
3.5506645e+2, 1.9372265e+2, -1050530.5, -1112639.9, -2690.2527, 0.056833576, -0.019405033, -1050414.1, -8899.233, 0.0000000000023202033, 10.001675, 9.993427 
3.5509267e+2, 2.0371497e+2, -956284.0, -1039966.5, -542.71515, 0.060300604, -0.031600703, -956280.5, -12690.487, 0.00000000000021133044, 10.002433, 9.99133 
3.5511905e+2, 2.1370618e+2, -840756.9, -934805.06, -746.73285, 0.04377406, -0.033785634, -840750.94, 4925.0654, 0.000000000000013984623, 10.003685, 9.991208 
3.5514528e+2, 2.2369637e+2, -741044.2, -856778.56, -1575.9438, 0.024622384, -0.045894608, -741022.7, 6748.998, 0.0000000000000006723836, 10.004698, 9.989353 
3.5517123e+2, 2.3368534e+2, -634451.06, -755567.06, -100.89894, 0.0019764719, -0.07627737, -634451.0, 15428.107, 0.0, 10.005325, 9.989266 
3.5519743e+2, 2.4367377e+2, -542626.1, -682454.56, 236.62308, -0.0024988656, -0.06827916, -542625.75, 9367.043, 0.0, 10.005845, 9.987312 
3.552239e+2, 2.5366166e+2, -440201.7, -583425.56, -2424.7166, 0.022916013, 0.00006338636, -440160.66, 13951.996, 0.0, 10.006193, 9.987207 
3.5525033e+2, 2.636481e+2, -351817.22, -511661.8, -4480.0303, 0.045983687, 0.016538061, -351691.75, 4553.9463, 0.0, 10.006458, 9.985284 
3.5527658e+2, 2.736326e+2, -252455.06, -413935.34, -4636.4424, 0.06458798, -0.056498196, -252322.05, 6074.2026, 0.0, 10.006589, 9.985196 
3.5530284e+2, 2.8361621e+2, -162687.36, -349095.84, -2561.2444, 0.05978983, -0.09166337, -162652.19, -2096.3545, 0.0, 10.007276, 9.982593 
3.5532892e+2, 2.9359895e+2, -42327.965, -241951.7, -2145.6104, 0.016477467, -0.06402946, -42304.906, 20420.096, 0.0, 10.008877, 9.982442 
3.5535508e+2, 3.035851e+2, 80064.12, -72503.97, -812.774, -0.022066448, -0.060091134, 80068.445, 80068.445, 0.0, 10.010258, 9.990031 
3.55381e+2, 3.1357497e+2, 95888.055, -62153.17, 3260.4563, -0.052740604, -0.09928009, 95955.3, 95955.3, 0.0, 10.011229, 9.990278 
3.6488068e+2, 1.2372369e+2, -1786243.5, -1761598.8, -16080.532, -0.029341405, 0.045427367, -1753662.1, -26156.459, 0.00000008268434, 9.995644, 9.99889 
3.6490777e+2, 1.337211e+2, -1668317.0, -1659908.3, -13346.348, 0.017043065, -0.0461265, -1650119.6, -20589.357, 0.00000005368276, 9.997259, 9.998358 
3.649342e+2, 1.4371867e+2, -1560517.1, -1571612.4, -6606.104, -0.00038311342, -0.06374362, -1557438.3, -25884.805, 0.000000028975498, 9.998549, 9.997071 
3.6496118e+2, 1.5371566e+2, -1451106.0, -1468790.8, -3047.6565, 0.009045427, -0.06756574, -1450595.5, -17013.084, 0.000000012326782, 9.999355, 9.997005 
3.6498803e+2, 1.6371183e+2, -1354643.5, -1392233.1, -2437.0188, 0.018345453, -0.061084665, -1354486.3, -18866.443, 0.000000003959453, 10.000149, 9.995159 
3.6501488e+2, 1.7370717e+2, -1245501.4, -1289673.0, -3843.1968, 0.029482821, -0.0371385, -1245169.5, -7503.3027, 0.0000000009365381, 10.000942, 9.995079 
3.6504167e+2, 1.8370165e+2, -1146303.0, -1208743.0, -5359.0205, 0.038347382, -0.020946937, -1145846.4, -6125.5713, 0.0000000001614897, 10.001788, 9.993502 
3.650685e+2, 1.9369511e+2, -1034853.2, -1104667.6, -6356.2817, 0.042472605, -0.020830862, -1034279.2, 7505.37, 0.000000000020242613, 10.002724, 9.993458 
3.6509547e+2, 2.0368758e+2, -940742.5, -1031066.1, -4680.48, 0.042373773, -0.024369322, -940500.6, 3357.6438, 0.0000000000018436379, 10.0034275, 9.991451 
3.651227e+2, 2.1367882e+2, -838532.5, -932227.4, -2826.52, 0.03607154, -0.03579341, -838447.3, 7496.7866, 0.00000000000012199398, 10.003765, 9.991343 
3.6514974e+2, 2.2366917e+2, -747102.06, -857264.8, -3637.074, 0.028400853, -0.049439758, -746982.06, 1056.2471, 0.0000000000000058651187, 10.004173, 9.989572 
3.6517638e+2, 2.336585e+2, -641968.06, -756639.5, -3815.4866, 0.018500179, -0.069027916, -641841.25, 8301.129, 0.0, 10.004695, 9.989494 
3.652032e+2, 2.436468e+2, -552058.6, -692969.94, -3688.9448, 0.014140228, -0.060629636, -551962.1, 294.83923, 0.0, 10.005448, 9.986783 
3.6523026e+2, 2.5363392e+2, -438952.25, -590096.6, -5881.4614, 0.018590858, -0.008994135, -438723.75, 15661.208, 0.0, 10.006585, 9.986561 
3.652571e+2, 2.636201e+2, -336562.22, -501403.72, -8582.481, 0.028122326, 0.009655153, -336116.6, 20404.002, 0.0, 10.007379, 9.985538 
3.6528352e+2, 2.7360532e+2, -235236.2, -401050.53, -6356.985, 0.046025787, -0.02915243, -234992.86, 23671.441, 0.0, 10.007571, 9.985603 
3.6531037e+2, 2.8358933e+2, -149613.88, -339790.72, 1529.5845, 0.046014618, -0.05972446, -149601.58, 11218.44, 0.0, 10.008036, 9.982864 
3.6533785e+2, 2.9357186e+2, -39033.02, -237635.72, 3606.437, 0.016587114, -0.0785144, -38967.55, 24023.236, 0.0, 10.008978, 9.982689 
3.6536524e+2, 3.0355817e+2, 73380.3, -73936.43, 725.851, -0.0011065918, -0.081636906, 73383.875, 73383.875, 0.0, 10.009713, 9.990197 
3.6539215e+2, 3.135488e+2, 80295.08, -68063.58, -3342.4695, -0.00023948825, -0.06039147, 80370.34, 80370.34, 0.0, 10.01008, 9.99042 
3.748769e+2, 1.2369205e+2, -1773810.8, -1734435.0, -10205.42, 0.030019093, 0.09271477, -1731947.1, -4127.837, 0.0000005532481, 9.995571, 10.000762 
3.749054e+2, 1.336916e+2, -1653845.6, -1629205.5, -7533.474, 0.05254061, 0.004698647, -1627084.8, 2737.124, 0.00000035914545, 9.997215, 10.000459 
3.7493297e+2, 1.4369076e+2, -1553811.5, -1557308.4, -3390.0425, 0.022628155, -0.012542546, -1551745.6, -19917.234, 0.00000019382824, 9.998528, 9.998049 
3.7496078e+2, 1.5368858e+2, -1445570.4, -1456950.6, -115.72268, 0.033491474, -0.014461518, -1445569.3, -11720.47, 0.00000008245099, 9.999337, 9.997816 
3.749884e+2, 1.6368492e+2, -1356717.8, -1396236.1, 496.7629, 0.039319802, -0.026601441, -1356711.5, -20827.434, 0.000000026481976, 10.000139, 9.994888 
3.7501594e+2, 1.7367932e+2, -1248676.9, -1296029.5, -861.07355, 0.03833444, -0.054703385, -1248661.3, -10722.427, 0.0000000062635124, 10.0009365, 9.994646 
3.7504336e+2, 1.8367311e+2, -1148691.6, -1213507.8, -1905.401, 0.025418418, -0.06707462, -1148635.6, -8636.292, 0.0000000010799891, 10.001781, 9.993178 
3.7507072e+2, 1.9366638e+2, -1037105.0, -1109167.4, -2712.6318, -0.0078019802, -0.056969795, -1037003.06, 5062.1563, 0.00000000013537126, 10.002717, 9.993152 
3.7509832e+2, 2.0365897e+2, -938575.6, -1026581.4, -3026.197, -0.014656301, -0.043515388, -938471.7, 5666.2603, 0.000000000012328863, 10.003429, 9.991754 
3.7512633e+2, 2.1365088e+2, -835611.44, -926326.4, -1518.016, 0.02319674, -0.026997894, -835586.06, 10631.931, 0.0000000000008157841, 10.003773, 9.991738 
3.751541e+2, 2.2364171e+2, -746408.3, -856044.06, -1773.6112, 0.048366375, -0.019440409, -746379.6, 1928.5145, 0.00000000000003921943, 10.004184, 9.989648 
3.7518144e+2, 2.3363115e+2, -641794.5, -756255.94, -1858.8066, 0.051513243, -0.029703556, -641764.3, 8646.733, 0.000000000000000000006929764, 10.004694, 9.989519 
3.7520888e+2, 2.4361908e+2, -555902.2, -700614.3, 318.3573, 0.034162987, -0.038148534, -555901.44, -3372.3718, 0.0000000000000000000002423796, 10.005436, 9.986264 
3.7523648e+2, 2.53605e+2, -443546.25, -599116.3, -1412.5345, -0.01709544, -0.045951393, -443533.44, 11134.712, 0.0, 10.006564, 9.985951 
3.752637e+2, 2.63591e+2, -332766.4, -493292.1, -7188.238, -0.049772363, -0.034884162, -332445.16, 24360.46, 0.0, 10.00737, 9.9860935 
3.7529013e+2, 2.7357775e+2, -229437.64, -389778.3, -5663.1934, -0.04982893, 0.0050273505, -229237.86, 29697.564, 0.0, 10.0076065, 9.986355 
3.7531763e+2, 2.835627e+2, -145808.36, -333003.72, 4516.5605, -0.03205906, 0.0044620587, -145699.44, 15383.237, 0.0, 10.008086, 9.9833 
3.7534684e+2, 2.9354504e+2, -36356.938, -232059.16, 6934.9336, 0.015885655, -0.06831248, -36111.5, 27143.076, 0.0, 10.00898, 9.983067 
3.7537566e+2, 3.0353114e+2, 68119.03, -84153.31, 2150.4731, 0.06900268, -0.086731665, 68149.4, 68149.4, 0.0, 10.009686, 9.989505 
3.7540352e+2, 3.1352141e+2, 73837.836, -80796.78, -2165.9253, 0.12859568, -0.012231602, 73868.164, 73868.164, 0.0, 10.010055, 9.989555 
3.848733e+2, 1.2366078e+2, -1745491.0, -1714458.1, 3544.9026, 0.03552093, 0.050546482, -1714058.4, 14066.917, 0.0000029192024, 9.997213, 10.001328 
3.849025e+2, 1.3366134e+2, -1651128.0, -1620729.4, -5677.72, 0.04967895, 0.0010234171, -1619703.5, 10414.494, 0.0000018948215, 9.99708, 10.001102 
3.849309e+2, 1.4366125e+2, -1568056.1, -1560212.3, -9381.016, 0.019832456, 0.0022975474, -1553966.4, -21848.586, 0.0000010225369, 9.997378, 9.998405 
3.8495976e+2, 1.5365933e+2, -1456109.1, -1458578.8, -9890.863, 0.038774915, -0.003429531, -1447376.3, -13240.535, 0.0000004349407, 9.998464, 9.99812 
3.849883e+2, 1.6365598e+2, -1363360.9, -1395239.4, -9632.138, 0.04777422, -0.018434606, -1360676.5, -24508.4, 0.00000013969013, 9.999496, 9.99526 
3.8501665e+2, 1.7365074e+2, -1252915.4, -1293733.5, -5019.57, 0.04196027, -0.04602224, -1252307.3, -14088.355, 0.000000033038678, 10.00045, 9.995035 
3.8504496e+2, 1.8364471e+2, -1154891.4, -1216160.9, -1522.1289, 0.028290898, -0.0656615, -1154853.6, -14576.053, 0.0000000056966374, 10.001337, 9.993213 
3.850732e+2, 1.9363774e+2, -1046006.94, -1113716.3, -280.98264, 0.00075468986, -0.07673092, -1046005.75, -3660.6187, 0.0000000007140435, 10.002112, 9.993136 
3.851016e+2, 2.0363021e+2, -947013.1, -1033224.4, -1752.4493, -0.005798701, -0.06677069, -946977.56, -2558.2847, 0.00000000006503118, 10.002956, 9.99153 
3.851302e+2, 2.1362212e+2, -835143.0, -929055.5, -5088.3267, 0.02235287, -0.023953853, -834868.1, 11631.769, 0.000000000004303039, 10.003927, 9.991475 
3.8515842e+2, 2.23613e+2, -740636.56, -852492.6, -9378.906, 0.042161293, 0.00043012179, -739855.6, 8734.436, 0.00000000000020687176, 10.00454, 9.989714 
3.8518602e+2, 2.3360254e+2, -642861.1, -755434.56, -9076.846, 0.047623493, -0.009868567, -642133.94, 8557.961, 0.00000000000000000020104626, 10.0045595, 9.989636 
3.8521406e+2, 2.4359056e+2, -561728.6, -700242.75, -1596.1249, 0.036443297, -0.029421253, -561710.25, -8901.33, 0.000000000000000000007029948, 10.004891, 9.98655 
3.852428e+2, 2.535765e+2, -452734.38, -600091.9, 3433.0269, -0.0020719944, -0.06570291, -452654.44, 2292.4675, 0.0, 10.005776, 9.986267 
3.85271e+2, 2.635626e+2, -338747.75, -496491.84, -479.80023, -0.033769187, -0.064348035, -338746.3, 18337.16, 0.0, 10.006964, 9.986075 
3.8529822e+2, 2.7354947e+2, -215029.17, -383720.13, -4635.1143, -0.05396191, -0.002343212, -214901.9, 44310.824, 0.0, 10.008625, 9.986279 
3.853263e+2, 2.8353465e+2, -125212.25, -321963.9, -1557.7289, -0.04424574, 0.019331096, -125199.92, 36158.71, 0.0, 10.009447, 9.983397 
3.8535574e+2, 2.9351732e+2, -37788.69, -231349.66, -1454.9928, 0.016984163, -0.031158935, -37777.754, 25749.893, 0.0, 10.008815, 9.983191 
3.853849e+2, 3.0350342e+2, 49523.74, -96741.46, -5119.6133, 0.0794798, -0.042052303, 49702.72, 49702.72, 0.0, 10.008557, 9.98918 
3.8541314e+2, 3.1349313e+2, 55366.586, -94125.96, -6174.9756, 0.14132422, 0.01315928, 55621.22, 55621.22, 0.0, 10.008967, 9.989162 
3.9486998e+2, 1.2363002e+2, -1751874.4, -1727174.3, 3728.936, -0.018878756, -0.085493624, -1726623.6, 1798.3586, 0.000012531762, 9.997203, 10.000467 
3.9489913e+2, 1.3363042e+2, -1658113.0, -1634298.6, -6460.658, 0.0059951874, -0.059113573, -1632658.8, -2240.6953, 0.0000081336, 9.997052, 10.000192 
3.9492798e+2, 1.4363006e+2, -1570615.4, -1564725.8, -6092.2695, -0.0109512685, -0.019998273, -1560903.9, -28481.979, 0.0000043890395, 9.997349, 9.99811 
3.9495805e+2, 1.5362786e+2, -1457848.9, -1461618.0, -5876.8813, 0.023350803, -0.035078235, -1453561.8, -19118.213, 0.0000018668253, 9.998441, 9.997921 
3.9498776e+2, 1.6362494e+2, -1356319.4, -1380466.8, -6088.738, 0.04260015, -0.036626883, -1354871.0, -18398.8, 0.0000005995586, 9.999485, 9.996265 
3.950171e+2, 1.7362143e+2, -1244479.5, -1276174.1, -1468.074, 0.03916995, -0.01179475, -1244411.6, -5904.926, 0.00000014180438, 10.000443, 9.996229 
3.9504644e+2, 1.8361638e+2, -1152245.5, -1210539.5, 1423.8405, 0.04470771, -0.017531408, -1152210.8, -11654.988, 0.000000024450705, 10.00133, 9.993595 
3.9507598e+2, 1.9360916e+2, -1044362.8, -1110050.1, 2639.7542, 0.06495036, -0.080106355, -1044256.9, -1631.867, 0.0000000030648393, 10.002101, 9.993388 
3.9510524e+2, 2.0360121e+2, -952430.75, -1044029.7, 1828.8998, 0.06547382, -0.09370208, -952394.25, -7691.4907, 0.00000000027913746, 10.002942, 9.990798 
3.951342e+2, 2.135925e+2, -841664.6, -942166.3, -1323.1681, 0.032326907, -0.02595514, -841647.2, 5142.9087, 0.00000000001847093, 10.003912, 9.990585 
3.9516267e+2, 2.2358301e+2, -740371.6, -851820.8, -8722.613, 0.010358967, 0.011235188, -739693.06, 9191.081, 0.0000000000008880364, 10.004537, 9.989759 
3.9519018e+2, 2.3357266e+2, -641129.0, -752328.25, -8934.813, 0.008313679, -0.007963194, -640415.7, 10569.47, 0.000000000000000004402075, 10.004581, 9.989837 
3.9521882e+2, 2.4356118e+2, -554258.75, -685341.4, 1327.9154, 0.020685375, -0.03323013, -554245.3, -1148.2606, 0.00000000000000000015389045, 10.004917, 9.987552 
3.952492e+2, 2.535482e+2, -445037.47, -583636.75, 6790.4736, 0.05773269, -0.069938466, -444705.56, 10517.558, 0.0, 10.005756, 9.987397 
3.95279e+2, 2.635346e+2, -343520.06, -504784.13, 5343.725, 0.06569485, -0.07961824, -343343.2, 14013.183, 0.0, 10.006893, 9.985539 
3.953076e+2, 2.735204e+2, -222250.67, -396385.56, 1603.8884, 0.0224814, -0.04613761, -222235.89, 37261.215, 0.0, 10.008524, 9.985457 
3.9533618e+2, 2.8350517e+2, -127913.41, -325704.3, -2817.0813, 0.0010434093, -0.009742884, -127873.29, 33774.87, 0.0, 10.009372, 9.983175 
3.9536458e+2, 2.9348862e+2, -38178.766, -232758.89, -4053.104, 0.019393818, 0.028865688, -38094.38, 25716.588, 0.0, 10.008847, 9.983077 
3.9539304e+2, 3.034749e+2, 51331.313, -95916.82, -4239.537, 0.037450306, 0.04587813, 51453.277, 51453.277, 0.0, 10.008689, 9.989169 
3.9542127e+2, 3.1346384e+2, 58249.58, -92654.41, -4747.9717, 0.052172277, 0.020085873, 58398.82, 58398.82, 0.0, 10.009167, 9.989163 
4.0486693e+2, 1.2360064e+2, -1763896.9, -1739728.6, 9426.202, -0.016275026, -0.123107165, -1736486.9, -7779.1475, 0.00004485904, 9.996671, 9.999879 
4.0489656e+2, 1.336006e+2, -1652852.5, -1638899.0, 617.88245, 0.008960646, -0.08021818, -1638871.6, -8162.601, 0.00002911354, 9.997715, 9.999561 
4.0492597e+2, 1.4359969e+2, -1554917.4, -1561981.8, 3254.0286, -0.0105205355, -0.03981784, -1553647.0, -20928.436, 0.000015709626, 9.998619, 9.997684 
4.0495685e+2, 1.5359698e+2, -1447518.6, -1461121.6, 2211.492, 0.016636863, -0.064618066, -1447168.1, -12422.968, 0.000006681798, 9.9993305, 9.997527 
4.0498737e+2, 1.6359389e+2, -1349233.1, -1377911.1, -2809.806, 0.030708922, -0.060429797, -1348960.5, -12184.511, 0.0000021459712, 9.999998, 9.996192 
4.050175e+2, 1.7359065e+2, -1242215.0, -1275461.6, -7494.1133, 0.025787186, -0.0036560495, -1240603.9, -1795.376, 0.00000050756734, 10.000608, 9.996192 
4.050475e+2, 1.8358596e+2, -1154151.4, -1206496.4, -11065.448, 0.035922896, 0.009456928, -1151908.4, -11053.873, 0.00000008752133, 10.00098, 9.994031 
4.0507755e+2, 1.9357921e+2, -1057421.4, -1110574.5, -8291.017, 0.07078383, -0.056801733, -1056158.1, -13239.227, 0.000000010971236, 10.000955, 9.9939 
4.0510756e+2, 2.0357135e+2, -976532.44, -1057610.5, -3915.1719, 0.077565566, -0.083996974, -976343.8, -31348.36, 0.0000000009993062, 10.00137, 9.990629 
4.0513748e+2, 2.1356206e+2, -863403.94, -955876.1, -2350.7334, 0.03662205, -0.046476103, -863344.2, -16256.342, 0.00000000006613187, 10.002555, 9.990305 
4.051668e+2, 2.2355233e+2, -749369.9, -855061.94, -8061.1265, 0.0064418344, -0.020687852, -748758.6, 425.46277, 0.0000000000031798247, 10.003867, 9.9898615 
4.0519503e+2, 2.3354235e+2, -628549.56, -744354.3, -8654.259, -0.004885624, -0.018492445, -627906.4, 23375.518, 0.0000000000000000688154, 10.005354, 9.990006 
4.0522408e+2, 2.4353147e+2, -533920.1, -666888.94, -2054.1606, 0.0062855566, -0.026613092, -533888.4, 19499.928, 0.0000000000000000024051838, 10.005932, 9.988321 
4.0525448e+2, 2.5351945e+2, -450655.9, -576632.1, 1049.7515, 0.05539588, -0.054911982, -450647.16, 4857.771, 0.0, 10.004946, 9.988266 
4.0528485e+2, 2.6350617e+2, -379663.25, -527179.94, 3242.0085, 0.08041959, -0.06550715, -379592.03, -21956.953, 0.0, 10.0046215, 9.985101 
4.0531495e+2, 2.7349114e+2, -271223.75, -427508.9, 1254.159, 0.063048966, -0.048484, -271213.7, -11429.922, 0.0, 10.005477, 9.984795 
4.053447e+2, 2.8347537e+2, -165003.42, -345491.8, -3240.033, 0.042419024, -0.019698886, -164945.27, -3005.2183, 0.0, 10.006896, 9.983014 
4.0537363e+2, 2.9345882e+2, -32733.658, -230988.58, -4350.903, 0.017368466, 0.02616692, -32638.22, 31464.896, 0.0, 10.009249, 9.983005 
4.0540275e+2, 3.0344507e+2, 89975.59, -78505.555, -4128.464, -0.0017543852, 0.04673284, 90076.7, 90076.7, 0.0, 10.011388, 9.989066 
4.0543184e+2, 3.1343386e+2, 114814.67, -66698.49, -5431.678, -0.011938063, 0.019267237, 114977.07, 114977.07, 0.0, 10.013106, 9.98905 
4.1486424e+2, 1.2357281e+2, -1767060.5, -1744894.4, 13667.333, 0.04421952, -0.0546121, -1738381.1, -9399.939, 0.0001357749, 9.996615, 9.999552 
4.148948e+2, 1.3357192e+2, -1655822.8, -1644340.5, 4481.2686, 0.059743118, -0.059780944, -1642798.6, -11808.547, 0.00008811505, 9.99769, 9.9992 
4.149249e+2, 1.4357017e+2, -1559270.0, -1570556.0, 5968.763, 0.021256527, -0.056953706, -1556699.0, -23691.918, 0.000047546542, 9.998607, 9.997104 
4.149562e+2, 1.5356678e+2, -1452152.3, -1470218.8, 4798.029, 0.018079951, -0.092127286, -1450957.1, -15916.975, 0.000020223571, 9.999313, 9.996914 
4.1498718e+2, 1.6356279e+2, -1357806.9, -1395233.9, -570.3323, 0.011183789, -0.08983968, -1357798.3, -20718.727, 0.0000064954993, 9.999988, 9.995015 
4.1501784e+2, 1.7355843e+2, -1251346.3, -1294058.3, -5230.3354, 0.0009903453, -0.021401629, -1250715.1, -11590.913, 0.0000015364569, 10.000603, 9.994925 
4.1504815e+2, 1.8355346e+2, -1150716.8, -1199386.3, -10870.04, 0.001431888, 0.015476522, -1148399.4, -7225.7354, 0.00000026496838, 10.000981, 9.994513 
4.15078e+2, 1.9354787e+2, -1051669.5, -1099078.6, -8363.912, 0.019086232, -0.008019692, -1050237.3, -7010.3223, 0.000000033220672, 10.000974, 9.994673 
4.1510847e+2, 2.0354058e+2, -973605.75, -1052168.3, -43.86901, 0.031067768, -0.03879323, -973605.75, -28308.154, 0.0000000030265355, 10.001397, 9.990983 
4.1514e+2, 2.1353075e+2, -861245.9, -951674.06, 2255.0476, 0.033545822, -0.08375491, -861189.7, -13795.961, 0.00000000020034616, 10.002565, 9.990583 
4.151709e+2, 2.235209e+2, -748485.44, -852881.2, -2512.1926, 0.027032696, -0.09256813, -748425.06, 1065.4258, 0.000000000009636878, 10.003851, 9.990014 
4.152005e+2, 2.3351157e+2, -628182.75, -742597.9, -3005.7488, 0.0049242456, -0.04066766, -628103.8, 23479.293, 0.0000000000000007946489, 10.00531, 9.990144 
4.152299e+2, 2.4350138e+2, -530531.75, -659073.7, -4582.641, -0.007857891, -0.010251725, -530368.6, 23314.936, 0.000000000000000027769294, 10.005903, 9.988868 
4.1525885e+2, 2.5349012e+2, -445580.75, -567229.56, -3057.5586, -0.0038666301, -0.022083698, -445503.94, 10289.192, 0.0, 10.005, 9.988882 
4.1528884e+2, 2.6347715e+2, -380630.72, -531621.44, 5121.712, 0.017711665, -0.02474148, -380457.2, -22536.605, 0.0, 10.004729, 9.984742 
4.153205e+2, 2.7346155e+2, -273690.03, -434693.16, 4400.0776, 0.069751844, -0.013894122, -273569.88, -13495.619, 0.0, 10.005568, 9.984257 
4.1535196e+2, 2.834451e+2, -165143.34, -346845.47, 4815.672, 0.078671865, -0.012021667, -165015.81, -2779.8945, 0.0, 10.00694, 9.982895 
4.153828e+2, 2.9342788e+2, -33621.285, -231868.03, 4578.587, 0.0106818965, -0.029674511, -33515.598, 30889.326, 0.0, 10.009205, 9.982959 
4.1541377e+2, 3.0341384e+2, 86848.33, -82332.75, 2824.964, -0.03957177, -0.02711938, 86895.484, 86895.484, 0.0, 10.011274, 9.9888525 
4.1544452e+2, 3.1340304e+2, 110827.83, -71265.7, 1298.1865, -0.05692898, 0.010753207, 110837.086, 110837.086, 0.0, 10.012949, 9.988805 
4.248607e+2, 1.2354155e+2, -1776467.0, -1749606.1, -5475.9785, 0.0628896, -0.01175157, -1748532.8, -19244.018, 0.00035082738, 9.995973, 9.999525 
4.2489228e+2, 1.3354047e+2, -1663131.4, -1647893.4, -12552.316, 0.06710615, -0.03601861, -1640828.8, -9529.389, 0.00022768496, 9.997181, 9.999191 
4.249233e+2, 1.4353867e+2, -1564633.6, -1570986.0, -8724.978, 0.024175238, -0.04571477, -1558524.8, -25208.172, 0.0001228659, 9.998139, 9.99729 
4.2495528e+2, 1.5353557e+2, -1459297.6, -1471120.5, -3838.8762, 0.025453076, -0.07191986, -1458160.6, -22814.441, 0.000052266085, 9.998711, 9.997138 
4.2498693e+2, 1.6353142e+2, -1370693.1, -1407102.0, -3182.0227, 0.021003349, -0.07870874, -1370417.1, -33030.38, 0.00001678997, 9.999346, 9.994518 
4.2501828e+2, 1.7352603e+2, -1262569.1, -1306461.3, -3022.484, 0.008773517, -0.05104856, -1262361.9, -22921.047, 0.000003972505, 10.000131, 9.994312 
4.250492e+2, 1.8352057e+2, -1147986.8, -1198590.9, -7440.834, -0.0007946612, -0.025339516, -1146915.4, -5420.2715, 0.00000068530704, 10.0011835, 9.994471 
4.2507955e+2, 1.9351545e+2, -1025999.7, -1085983.4, -10172.34, -0.00702871, -0.007890325, -1024321.56, 19223.172, 0.00000008596078, 10.002688, 9.994731 
4.2511058e+2, 2.0350863e+2, -939188.44, -1029297.25, -5667.471, -0.0027543174, -0.0182475, -938833.4, 6777.7285, 0.000000007836224, 10.003471, 9.991532 
4.2514268e+2, 2.1349925e+2, -850055.25, -939208.06, -1171.9514, 0.019753162, -0.079502575, -850039.8, -2337.8433, 0.0000000005191636, 10.003019, 9.991211 
4.2517427e+2, 2.2348961e+2, -763909.6, -861633.5, -3465.8792, 0.032170217, -0.10009368, -763786.8, -13990.395, 0.000000000025000514, 10.002843, 9.989903 
4.2520493e+2, 2.3348e+2, -660941.25, -761237.5, -6374.372, 0.026531797, -0.05155234, -660537.75, -8645.764, 0.0000000000000068380394, 10.0031805, 9.989897 
4.2523515e+2, 2.4346967e+2, -555002.44, -672370.2, -11811.122, 0.010769974, -0.015709791, -553825.6, 168.52238, 0.00000000000000023892724, 10.004281, 9.988738 
4.2526454e+2, 2.5345853e+2, -421436.97, -556822.3, -15407.138, -0.02283367, -0.0067414083, -419705.72, 36397.676, 0.0, 10.006701, 9.988761 
4.25295e+2, 2.6344573e+2, -325142.84, -498494.25, -8735.982, -0.022263588, -0.0054171504, -324703.72, 33525.055, 0.0, 10.00825, 9.985298 
4.2532712e+2, 2.7343056e+2, -230053.34, -406000.16, -1441.1597, 0.038528237, -0.02075582, -230041.53, 30335.809, 0.0, 10.008223, 9.984936 
4.2535934e+2, 2.834144e+2, -145815.31, -335902.06, 6858.5146, 0.05939276, -0.035425875, -145568.17, 16967.236, 0.0, 10.008189, 9.983041 
4.2539144e+2, 2.9339728e+2, -48393.055, -238452.02, 7605.5513, 0.008706418, -0.05059687, -48089.19, 16614.313, 0.0, 10.008157, 9.983014 
4.254237e+2, 3.0338338e+2, 48411.215, -96190.26, 8472.891, -0.020999998, -0.052214026, 48905.99, 48905.99, 0.0, 10.008421, 9.989275 
4.2545593e+2, 3.1337288e+2, 59783.902, -90363.03, 11757.872, -0.013123928, -0.03330853, 60699.074, 60699.074, 0.0, 10.009191, 9.989306 
4.3485636e+2, 1.2350673e+2, -1775184.1, -1745571.5, -1277.0261, 0.03384728, 0.00233536, -1745516.5, -15884.84, 0.00078514614, 9.9959135, 9.999823 
4.3488908e+2, 1.3350612e+2, -1661219.5, -1642896.6, -8444.829, 0.02794498, -0.008753274, -1639598.3, -7960.609, 0.00050963036, 9.997138, 9.999546 
4.3492115e+2, 1.4350508e+2, -1558015.3, -1556680.3, -6605.593, -0.0043739486, -0.005078937, -1550708.5, -17061.17, 0.00027507497, 9.998112, 9.99827 
4.349541e+2, 1.5350334e+2, -1451800.9, -1455176.8, -1912.1277, 0.036571003, -0.0030250445, -1450938.3, -15274.893, 0.00011705333, 9.998691, 9.998227 
4.3498665e+2, 1.6349974e+2, -1369595.9, -1404500.3, -521.06714, 0.058067214, -0.025956657, -1369588.0, -31890.21, 0.000037619757, 9.999332, 9.994698 
4.350188e+2, 1.7349346e+2, -1262537.0, -1306203.0, -127.212364, 0.047474474, -0.09164031, -1262536.6, -22777.824, 0.000008906541, 10.000124, 9.994329 
4.350507e+2, 1.834873e+2, -1152083.4, -1206777.8, -2191.0427, 0.027425889, -0.11165732, -1151995.8, -10176.736, 0.0000015378395, 10.001172, 9.993915 
4.3508226e+2, 1.9348195e+2, -1030865.1, -1095529.3, -4417.7188, -0.009527954, -0.054623548, -1030564.7, 13307.813, 0.00000019312868, 10.002666, 9.994087 
4.351138e+2, 2.0347549e+2, -934376.94, -1018797.1, -6335.756, -0.026058413, -0.02166035, -933904.06, 12032.149, 0.000000017634331, 10.003451, 9.992256 
4.3514544e+2, 2.1346752e+2, -843310.5, -925096.4, -2939.445, -0.0053362357, -0.03658743, -843205.0, 4808.4355, 0.0000000011708853, 10.003016, 9.992173 
4.35177e+2, 2.234584e+2, -766268.7, -866825.0, -2633.4626, 0.021352453, -0.04691829, -766199.8, -16096.996, 0.000000000056553692, 10.00286, 9.989539 
4.3520844e+2, 2.3344766e+2, -664734.1, -769849.5, -4978.322, 0.05741654, -0.051084235, -664498.9, -12290.092, 0.000000000000044721503, 10.003216, 9.98929 
4.352399e+2, 2.434364e+2, -560085.2, -683314.44, -3677.3293, 0.057713777, -0.04066336, -559975.56, -5655.5796, 0.000000000000001562477, 10.004296, 9.987978 
4.3527138e+2, 2.5342473e+2, -427917.03, -568699.6, -6012.1904, -0.0062568425, -0.007207574, -427660.75, 28774.217, 0.0, 10.00663, 9.987978 
4.3530303e+2, 2.6341206e+2, -317199.22, -479381.8, -7385.296, -0.0424706, -0.0048214295, -316863.63, 41695.234, 0.0, 10.008141, 9.986654 
4.353347e+2, 2.7339816e+2, -218834.33, -380949.53, -1802.3363, -0.026947264, -0.063702315, -218814.28, 41879.17, 0.0, 10.008152, 9.98668 
4.3536684e+2, 2.833831e+2, -143777.11, -330779.56, 6390.672, -0.010021562, -0.08614652, -143558.97, 19281.158, 0.0, 10.008154, 9.983406 
4.3539962e+2, 2.9336667e+2, -47677.574, -236916.3, 6976.534, 0.009425101, -0.042015724, -47420.727, 17580.977, 0.0, 10.008159, 9.983115 
4.354328e+2, 3.0335334e+2, 55588.863, -81968.48, 10296.495, 0.04347629, -0.03541213, 56355.313, 56355.313, 0.0, 10.008455, 9.990229 
4.354663e+2, 3.1334305e+2, 68266.75, -73754.18, 13911.631, 0.101344384, -0.10508509, 69616.625, 69616.625, 0.0, 10.009238, 9.990418 
4.4485357e+2, 1.2347256e+2, -1730505.5, -1726018.1, 9148.107, 0.010703628, -0.019631019, -1718842.6, 11123.572, 0.0015538043, 9.999036, 9.999637 
4.4488677e+2, 1.3347185e+2, -1639549.4, -1634763.9, -2873.2148, 0.010763494, -0.021705022, -1633417.6, -1444.354, 0.0010089569, 9.998708, 9.999339 
4.4491944e+2, 1.4347081e+2, -1549035.4, -1550615.6, -6025.11, -0.013028251, -0.011420919, -1543748.8, -9765.634, 0.0005448942, 9.998643, 9.998424 
4.4495296e+2, 1.5346949e+2, -1444003.1, -1448999.9, -7932.6924, 0.035923872, 0.009660552, -1438184.8, -2189.035, 0.00023205215, 9.99911, 9.998438 
4.4498616e+2, 1.6346622e+2, -1362384.5, -1395845.0, -9190.6455, 0.06200457, -0.009150874, -1360026.3, -21999.566, 0.00007466019, 9.999595, 9.995151 
4.4501895e+2, 1.734602e+2, -1259328.6, -1299037.5, -5314.844, 0.05073186, -0.0965453, -1258629.5, -18545.416, 0.000017702305, 10.000093, 9.994827 
4.4505155e+2, 1.8345408e+2, -1165762.3, -1217696.5, -4436.506, 0.03485684, -0.12544332, -1165386.0, -23242.188, 0.000003062777, 10.000418, 9.993534 
4.4508398e+2, 1.9344836e+2, -1067143.6, -1119133.5, -5872.1895, 0.010757762, -0.05437356, -1066488.6, -22286.918, 0.0000003857046, 10.000444, 9.993555 
4.451162e+2, 2.0344175e+2, -971246.7, -1034603.1, -10451.662, -0.002831724, -0.012548934, -969567.06, -23299.8, 0.00000003535121, 10.000839, 9.992442 
4.45148e+2, 2.1343409e+2, -857564.4, -928488.4, -12026.029, 0.0023938706, -0.02885537, -855580.7, -7239.2637, 0.000000002359298, 10.001884, 9.992484 
4.4517994e+2, 2.234252e+2, -761465.25, -861721.0, -10750.386, 0.017385447, -0.041942082, -760325.44, -9897.434, 0.000000000114745775, 10.003058, 9.989783 
4.452122e+2, 2.3341468e+2, -644626.5, -757451.5, -6840.096, 0.04827103, -0.05029666, -644213.4, 8318.393, 0.00000000000022836846, 10.004466, 9.98953 
4.452446e+2, 2.4340332e+2, -550359.56, -683135.9, -1230.9263, 0.05589391, -0.0468387, -550348.2, 4295.487, 0.0000000000000079783024, 10.005149, 9.987579 
4.452772e+2, 2.53391e+2, -462157.38, -591163.56, -1794.4778, 0.02177416, -0.025341418, -462132.4, -5367.5396, 0.0, 10.004529, 9.987461 
4.4530976e+2, 2.6337826e+2, -364112.1, -494667.03, -4431.4443, -0.0027688823, -0.02791506, -363961.84, -5072.4927, 0.0, 10.004596, 9.987322 
4.4534189e+2, 2.7336532e+2, -244939.73, -383676.84, -4798.231, -0.009682769, -0.07894282, -244773.98, 16240.472, 0.0, 10.005926, 9.987564 
4.453745e+2, 2.8335088e+2, -158801.27, -337511.53, -1768.9736, -0.006450595, -0.093333125, -158783.77, 4371.2603, 0.0, 10.007091, 9.983453 
4.454077e+2, 2.9333442e+2, -52480.094, -240634.7, -2915.4094, 0.015598024, -0.042016402, -52434.934, 12882.236, 0.0, 10.00788, 9.982988 
4.4544145e+2, 3.033213e+2, 64652.86, -71069.96, 281.26932, 0.04751706, -0.032224637, 64653.44, 64653.44, 0.0, 10.008781, 9.990813 
4.4547576e+2, 3.1331167e+2, 82528.984, -58701.15, 1562.4786, 0.09480866, -0.105222456, 82546.266, 82546.266, 0.0, 10.009848, 9.991152 
4.5485246e+2, 1.2343916e+2, -1735757.0, -1736579.4, 8383.929, -0.010397982, -0.07868195, -1727774.1, 2516.4475, 0.0027803245, 9.999032, 9.9989195 
4.5488557e+2, 1.3343768e+2, -1645692.0, -1646946.6, -4477.4424, 0.015073423, -0.07637575, -1641798.1, -9492.614, 0.0018069525, 9.998697, 9.998513 
4.5491818e+2, 1.4343585e+2, -1554399.4, -1561119.8, -5007.288, -0.0019280736, -0.06666574, -1551729.3, -17405.45, 0.0009770269, 9.998626, 9.997714 
4.5495197e+2, 1.5343395e+2, -1449136.8, -1459130.5, -6323.774, 0.022171227, -0.03522012, -1446073.9, -9730.624, 0.00041677037, 9.999097, 9.997751 
4.5498544e+2, 1.6343084e+2, -1357427.4, -1385345.1, -7550.5, 0.031153608, -0.02914355, -1355516.1, -17142.389, 0.00013439546, 9.999585, 9.995865 
4.550187e+2, 1.7342627e+2, -1252519.9, -1284866.6, -3568.8875, 0.017438298, -0.066839024, -1252130.8, -11713.614, 0.000031964762, 10.000091, 9.995789 
4.550518e+2, 1.834209e+2, -1167205.3, -1220688.4, -4233.388, 0.01993291, -0.06813776, -1166872.3, -24402.516, 0.000005553748, 10.000423, 9.993325 
4.5508483e+2, 1.9341464e+2, -1070018.8, -1125341.0, -5793.1377, 0.05083515, -0.008711666, -1069418.6, -24885.639, 0.00000070340104, 10.000463, 9.99312 
4.5511767e+2, 2.034074e+2, -973370.25, -1039268.5, -7032.9824, 0.06274821, 0.008998532, -972628.0, -26023.438, 0.000000064967765, 10.000853, 9.992114 
4.5515025e+2, 2.1339898e+2, -859569.1, -932903.0, -7838.4834, 0.040086426, -0.053201713, -858740.7, -10054.854, 0.0000000043809485, 10.001896, 9.992174 
4.55183e+2, 2.2339007e+2, -755682.1, -849924.2, -5486.673, 0.019032665, -0.08161072, -755363.75, -4591.759, 0.00000000021602262, 10.003065, 9.99058 
4.552162e+2, 2.3338094e+2, -637655.7, -742702.8, -1530.1437, 0.0014230503, -0.049633402, -637633.4, 15228.39, 0.0000000000009414817, 10.004451, 9.99054 
4.552493e+2, 2.4337025e+2, -550992.9, -684166.56, -2583.6523, 0.0076699792, -0.03544332, -550942.8, 4023.9785, 0.000000000000032891313, 10.005141, 9.987511 
4.5528212e+2, 2.5335723e+2, -463569.75, -595055.4, -4298.1313, 0.058217775, -0.058539614, -463429.4, -6334.792, 0.0, 10.004575, 9.987173 
4.553153e+2, 2.6334423e+2, -362755.16, -493550.44, -637.71027, 0.088430256, -0.07185585, -362752.03, -3530.3142, 0.0, 10.00467, 9.987358 
4.553487e+2, 2.733319e+2, -243508.6, -381780.1, -114.656296, 0.07802541, -0.06993451, -243508.5, 17833.08, 0.0, 10.005973, 9.987665 
4.5538223e+2, 2.8331766e+2, -160135.73, -340726.66, 858.3774, 0.05862955, -0.06192444, -160131.66, 3349.161, 0.0, 10.007111, 9.983219 
4.5541567e+2, 2.9330054e+2, -54568.906, -245123.9, -598.0653, 0.026017925, -0.048349697, -54567.03, 11082.497, 0.0, 10.007888, 9.982674 
4.554498e+2, 3.032873e+2, 66420.79, -67418.94, 3577.6619, 0.00030016404, -0.04057326, 66516.36, 66516.36, 0.0, 10.008784, 9.991057 
4.5548457e+2, 3.132787e+2, 85306.86, -53218.305, 4664.787, -0.014385844, -0.04546227, 85463.766, 85463.766, 0.0, 10.009863, 9.991515 
4.6485028e+2, 1.2340527e+2, -1773260.8, -1755054.4, 3207.1003, -0.0017354867, -0.0848285, -1754506.0, -23884.23, 0.004589857, 9.996486, 9.998902 
4.6488395e+2, 1.3340366e+2, -1661482.5, -1655127.0, -4397.095, 0.037344113, -0.093395784, -1652879.5, -20241.654, 0.0029879087, 9.997636, 9.998479 
4.6491706e+2, 1.4340138e+2, -1559154.0, -1572133.5, -888.0984, 0.020687154, -0.09376372, -1559093.5, -24432.898, 0.0016192476, 9.99867, 9.99695 
4.6495125e+2, 1.5339868e+2, -1449390.8, -1469539.4, -3680.3904, 0.019001177, -0.052009765, -1448739.5, -12050.991, 0.00069287396, 9.999515, 9.996843 
4.649852e+2, 1.633953e+2, -1345330.8, -1376724.5, -7703.527, 0.011373418, -0.031597476, -1343542.4, -4820.113, 0.00022437889, 10.00028, 9.996114 
4.6501902e+2, 1.7339137e+2, -1236912.9, -1272157.8, -7573.2227, -0.0019955074, -0.049664937, -1235354.5, 5405.0244, 0.000053673917, 10.000922, 9.996246 
4.6505257e+2, 1.8338628e+2, -1154206.0, -1215416.3, -11819.311, 0.0077183926, -0.04603846, -1152003.0, -9193.665, 0.000009398119, 10.001345, 9.993234 
4.6508583e+2, 1.9337963e+2, -1057735.6, -1121668.3, -12165.93, 0.05759579, -0.0068761096, -1055498.8, -10622.61, 0.0000012027082, 10.001389, 9.99292 
4.651191e+2, 2.0337227e+2, -958830.9, -1028872.9, -7725.2896, 0.075710446, -0.0021179467, -957988.94, -11040.124, 0.00000011262272, 10.001689, 9.992416 
4.651524e+2, 2.1336423e+2, -847731.4, -922689.4, -2950.9753, 0.034801025, -0.06431147, -847615.4, 1410.7457, 0.000000007732489, 10.0025015, 9.99258 
4.6518603e+2, 2.2335556e+2, -754858.9, -851335.7, -541.7803, 0.0068543074, -0.089570306, -754855.9, -3745.586, 0.00000000039024706, 10.00319, 9.990427 
4.6522027e+2, 2.3334625e+2, -651215.6, -752549.9, -5623.649, 0.004380972, -0.047920015, -650904.5, 2297.2646, 0.0000000000032348013, 10.003655, 9.990247 
4.652542e+2, 2.4333553e+2, -558688.94, -684990.75, -12420.154, 0.016890118, -0.03083038, -557479.1, -2172.1812, 0.00000000000011301746, 10.004479, 9.987767 
4.652874e+2, 2.5332275e+2, -440770.22, -580113.6, -10147.599, 0.05453309, -0.06476797, -440035.13, 17397.02, 0.0, 10.00596, 9.98752 
4.6532103e+2, 2.633097e+2, -333096.4, -486698.47, -4958.1123, 0.078845784, -0.07515849, -332936.53, 26623.21, 0.0, 10.007014, 9.986692 
4.653553e+2, 2.7329677e+2, -230807.03, -385482.22, -10763.441, 0.07735778, -0.04452791, -230061.63, 31624.443, 0.0, 10.007254, 9.986788 
4.6538967e+2, 2.8328207e+2, -153642.03, -337841.47, -13505.886, 0.06692383, -0.032993283, -152657.02, 11173.354, 0.0, 10.00756, 9.983187 
4.6542376e+2, 2.9326463e+2, -52577.957, -242544.31, -12250.661, 0.042726144, -0.06362773, -51791.188, 14210.127, 0.0, 10.007946, 9.982812 
4.6545866e+2, 3.0325124e+2, 63662.836, -69487.77, -5243.1724, 0.015981128, -0.0713041, 63868.98, 63868.98, 0.0, 10.008622, 9.99098 
4.654943e+2, 3.1324297e+2, 82920.18, -55581.688, -6827.4385, -0.01914717, -0.035466064, 83255.92, 83255.92, 0.0, 10.00975, 9.991388 
4.748471e+2, 1.23370945e+2, -1769602.8, -1745197.1, 7247.3545, 0.033145737, -0.035744965, -1743207.3, -12247.974, 0.007113215, 9.996387, 9.999614 
4.7488195e+2, 1.3336983e+2, -1656834.3, -1644224.9, -277.33694, 0.077006385, -0.0705903, -1644218.8, -11249.044, 0.004643645, 9.997581, 9.999239 
4.7491604e+2, 1.4336744e+2, -1565564.1, -1584553.0, 2199.0112, 0.05383285, -0.09112483, -1565312.8, -30319.6, 0.0025262511, 9.998641, 9.996116 
4.7495082e+2, 1.5336372e+2, -1457898.1, -1486611.1, -671.65784, 0.023946501, -0.039774384, -1457882.5, -20851.24, 0.0010866441, 9.999501, 9.995685 
4.7498536e+2, 1.633596e+2, -1347025.0, -1379932.1, -5460.582, -0.0007341984, -0.016009955, -1346142.5, -7070.3105, 0.00035438547, 10.000271, 9.995896 
4.7501987e+2, 1.7335552e+2, -1237225.1, -1272616.3, -5286.9023, -0.010209147, -0.044635378, -1236452.3, 4658.9536, 0.000085576154, 10.000918, 9.996212 
4.7505385e+2, 1.8335024e+2, -1154215.6, -1215236.6, -11415.506, -0.0036244546, -0.058201134, -1152150.0, -8987.357, 0.000015172572, 10.001341, 9.993244 
4.75087e+2, 1.9334333e+2, -1057559.4, -1121473.3, -12000.592, 0.03096837, -0.046452824, -1055380.4, -10148.897, 0.0000019737136, 10.001403, 9.992923 
4.751204e+2, 2.0333631e+2, -952164.6, -1015550.06, -5188.21, 0.03640618, -0.044242784, -951742.75, -4442.257, 0.00000018875323, 10.001709, 9.993312 
4.7515443e+2, 2.1332976e+2, -839772.9, -906755.94, 110.37826, -0.012799665, -0.06367706, -839772.7, 9590.948, 0.000000013307983, 10.002523, 9.993653 
4.7518897e+2, 2.233215e+2, -761868.0, -866312.2, 1300.8899, -0.020563738, -0.06766178, -761851.8, -10407.737, 0.00000000069387657, 10.003213, 9.989391 
4.752244e+2, 2.3331057e+2, -661557.0, -774124.7, -3791.7307, 0.05097296, -0.044539116, -661429.44, -7877.6846, 0.000000000009472845, 10.003665, 9.988768 
4.7525927e+2, 2.4329913e+2, -555309.75, -677650.7, -7323.829, 0.07710048, -0.03250907, -554872.9, 791.03064, 0.00000000000033105902, 10.004464, 9.988271 
4.7529295e+2, 2.532874e+2, -434832.94, -567079.0, -4570.13, 0.014432858, -0.047214396, -434675.2, 23103.076, 0.000000000000000004361499, 10.005926, 9.988422 
4.7532704e+2, 2.6327455e+2, -342439.63, -505409.1, -3381.841, -0.02112124, -0.04250515, -342369.47, 17534.922, 0.000000000000000025260425, 10.006989, 9.985423 
4.753618e+2, 2.7326e+2, -243072.53, -410853.3, -9788.358, -0.0019651172, -0.0050561973, -242503.4, 19544.13, 0.00000000000000010669206, 10.007255, 9.985049 
4.753968e+2, 2.832442e+2, -152377.33, -335655.16, -11842.146, 0.02407335, -0.0059090937, -151615.34, 12587.12, 0.00000000000000033199385, 10.007581, 9.983323 
4.7543192e+2, 2.9322672e+2, -48527.754, -234909.33, -10672.891, 0.06278997, -0.08545091, -47918.574, 18453.38, 0.00000000000000078039946, 10.007983, 9.983313 
4.7546792e+2, 3.0321327e+2, 62078.344, -73673.016, -1316.239, 0.08229147, -0.12068676, 62091.105, 62091.105, 0.0000000000000014474501, 10.008666, 9.990665 
4.7550488e+2, 3.1320477e+2, 79720.66, -62468.047, -2597.9446, 0.05990641, -0.05911134, 79768.11, 79768.11, 0.0000000000000022339833, 10.009768, 9.9909 
4.848447e+2, 1.23334825e+2, -1730820.0, -1727051.9, -536.914, 0.028803097, -0.02910991, -1726976.9, 4337.241, 0.01049777, 9.99904, 9.999547 
4.8488e+2, 1.3333386e+2, -1639554.3, -1636966.3, -14957.951, 0.06635899, -0.03849103, -1623246.5, 10076.632, 0.0068823104, 9.998796, 9.99913 
4.8491466e+2, 1.4333145e+2, -1561726.3, -1581210.4, -12657.743, 0.043317948, -0.06128856, -1555495.6, -20148.936, 0.0037656925, 9.998831, 9.996235 
4.8495024e+2, 1.5332757e+2, -1457708.1, -1484571.6, -5635.0605, 0.02498272, -0.039466158, -1456574.0, -19188.635, 0.0016323061, 9.999422, 9.995856 
4.849854e+2, 1.6332339e+2, -1356777.3, -1384979.5, -6151.465, 0.012974344, -0.030691557, -1355493.9, -16067.254, 0.00053782034, 9.999616, 9.9958725 
4.850201e+2, 1.733194e+2, -1265030.8, -1286804.3, -6562.6045, 0.017637119, -0.045944486, -1263205.8, -21740.574, 0.00013162919, 9.999046, 9.99616 
4.850544e+2, 1.8331417e+2, -1182316.5, -1226989.6, -9371.875, 0.021891195, -0.05788271, -1180430.0, -36913.965, 0.000023746588, 9.999337, 9.993418 
4.8508823e+2, 1.9330727e+2, -1058122.0, -1119408.0, -7944.441, 0.022410417, -0.067845516, -1057108.9, -11524.423, 0.0000031577385, 10.001252, 9.993139 
4.851224e+2, 2.0330031e+2, -937936.8, -1011371.75, -4456.0386, 0.013554031, -0.06285586, -937667.4, 9985.556, 0.00000031029586, 10.00279, 9.993071 
4.851575e+2, 2.1329391e+2, -826296.1, -904028.56, -9355.989, -0.011656422, -0.03284601, -825185.9, 24529.54, 0.000000022599854, 10.003598, 9.993309 
4.851927e+2, 2.2328556e+2, -751422.5, -863060.75, -13962.854, -0.007164512, -0.020071922, -749702.6, 2094.5706, 0.000000001223376, 10.003996, 9.9892235 
4.852281e+2, 2.33274e+2, -662218.0, -776099.2, -10346.555, 0.052162353, -0.0438719, -661285.56, -7375.3965, 0.000000000023981296, 10.003684, 9.988622 
4.8526338e+2, 2.4326234e+2, -562141.44, -678314.06, -5013.4097, 0.072039634, -0.05895787, -561925.5, -5901.218, 0.0000000000008389532, 10.003872, 9.988512 
4.8529842e+2, 2.5325105e+2, -444916.56, -568540.44, -5316.016, 0.015586465, -0.06086276, -444688.38, 13445.792, 0.0000000000000001261701, 10.005075, 9.9887295 
4.853337e+2, 2.6323822e+2, -356761.63, -517153.16, -6455.3877, -0.014876651, -0.051388927, -356502.25, 3757.411, 0.00000000000000073087254, 10.006202, 9.984999 
4.8536906e+2, 2.7322298e+2, -249238.95, -420709.47, -5915.734, 0.0054162936, -0.023731532, -249035.11, 13374.731, 0.0000000000000030875687, 10.007115, 9.984448 
4.8540464e+2, 2.832069e+2, -145933.83, -331243.3, -3639.9976, 0.02967552, -0.023708595, -145862.36, 18705.283, 0.000000000000009609587, 10.007958, 9.983451 
4.8544022e+2, 2.9318985e+2, -37663.08, -226858.98, -4100.495, 0.060573384, -0.087234944, -37574.25, 29158.451, 0.000000000000022592925, 10.008599, 9.983574 
4.8547685e+2, 3.0317613e+2, 64974.703, -80477.28, 3908.323, 0.07794589, -0.13183773, 65079.645, 65079.645, 0.00000000000004190963, 10.009199, 9.989951 
4.855146e+2, 3.1316683e+2, 70796.12, -77182.91, -683.65607, 0.067732394, -0.062238727, 70799.28, 70799.28, 0.000000000000064683685, 10.009577, 9.98999 
4.948433e+2, 1.2329688e+2, -1737612.5, -1740459.6, -1747.1239, -0.022173908, -0.06786977, -1736782.4, -5095.969, 0.014911252, 9.999027, 9.998636 
4.9487817e+2, 1.332957e+2, -1647192.0, -1652056.1, -16628.115, 0.0012457152, 0.0027244557, -1632819.0, 879.3449, 0.009830928, 9.99878, 9.998106 
4.9491292e+2, 1.432933e+2, -1554189.1, -1565086.0, -11460.489, -0.014369077, -0.0040760846, -1546947.9, -11225.998, 0.0054196375, 9.998809, 9.997335 
4.9494964e+2, 1.5329024e+2, -1447048.5, -1462206.0, -3654.6326, 0.019179223, -0.05174519, -1446213.4, -8462.139, 0.0023727028, 9.999408, 9.997377 
4.949854e+2, 1.6328669e+2, -1355578.0, -1382342.3, -7831.648, 0.04987935, -0.07621968, -1353454.8, -13669.128, 0.00079196517, 9.999617, 9.996048 
4.950198e+2, 1.73283e+2, -1265653.0, -1288169.0, -8997.431, 0.07919935, -0.0536226, -1262499.4, -20677.64, 0.00019707251, 9.99906, 9.996057 
4.9505436e+2, 1.8327804e+2, -1179928.8, -1222126.4, -3855.1394, 0.0809831, -0.045766722, -1179579.5, -35709.137, 0.000036298647, 9.99934, 9.993742 
4.9508953e+2, 1.9327137e+2, -1055142.5, -1113364.4, -714.06665, 0.028687691, -0.07260221, -1055133.8, -9197.837, 0.0000049503406, 10.001257, 9.993542 
4.9512511e+2, 2.0326416e+2, -947303.3, -1030539.5, -898.7208, 0.0033113265, -0.05988195, -947293.56, 713.2807, 0.00000050112493, 10.002785, 9.991763 
4.9516156e+2, 2.1325672e+2, -838476.2, -928610.44, -6246.516, 0.03281131, 0.026683275, -838045.3, 12036.044, 0.000000037748414, 10.003576, 9.991639 
4.951972e+2, 2.2324774e+2, -747510.0, -854318.3, -14310.228, 0.042736802, 0.05210966, -745625.94, 6543.485, 0.0000000021194788, 10.003972, 9.98983 
4.9523136e+2, 2.3323649e+2, -654278.1, -760252.56, -11437.761, 0.0115508195, -0.04538425, -653057.7, 1220.0991, 0.00000000005330912, 10.003713, 9.989688 
4.9526662e+2, 2.4322498e+2, -561181.06, -677592.06, -1368.3258, 0.0058206394, -0.10757606, -561165.0, -4775.9873, 0.000000000001871645, 10.003926, 9.988531 
4.9530387e+2, 2.5321358e+2, -446237.75, -571598.94, -705.6624, 0.051316082, -0.10173125, -446233.78, 12266.261, 0.000000000000009575241, 10.005086, 9.988513 
4.953409e+2, 2.632007e+2, -355045.94, -513232.63, -2968.8064, 0.083644636, -0.09599952, -354990.25, 5635.578, 0.000000000000055453838, 10.006186, 9.9852705 
4.9537697e+2, 2.731856e+2, -247213.6, -415919.47, -2811.526, 0.08662996, -0.09273687, -247166.75, 15608.185, 0.0000000000002341752, 10.0070915, 9.984783 
4.9541306e+2, 2.8316987e+2, -145334.36, -329632.38, -1447.0143, 0.07510073, -0.07984838, -145323.0, 19606.176, 0.0000000000007286158, 10.007943, 9.983565 
4.9544862e+2, 2.9315358e+2, -36830.05, -225884.95, -2267.7205, 0.038931962, -0.070851825, -36802.855, 30284.373, 0.0000000000017125554, 10.008635, 9.98362 
4.9548542e+2, 3.031395e+2, 58083.24, -96092.805, 5039.1475, 0.013705955, -0.112515725, 58247.766, 58247.766, 0.0000000000031753393, 10.009262, 9.988843 
4.955237e+2, 3.1312883e+2, 61586.883, -96011.65, 134.62708, 0.014479607, -0.04466262, 61586.996, 61586.996, 0.000000000004897224, 10.00957, 9.988696 
5.0484127e+2, 1.2325897e+2, -1772283.6, -1757118.1, -964.3598, -0.008184472, -0.062385377, -1757057.0, -24999.027, 0.020533854, 9.996652, 9.998665 
5.0487685e+2, 1.3325769e+2, -1649941.5, -1653446.0, -8193.254, -0.0009003865, -0.0044094245, -1643315.3, -9244.479, 0.013628187, 9.998582, 9.9981165 
5.049121e+2, 1.4325535e+2, -1537885.0, -1552613.8, -2965.1145, -0.023443086, -0.023057599, -1537310.5, -1216.881, 0.0075791995, 9.999708, 9.997758 
5.0494903e+2, 1.532529e+2, -1445214.8, -1456019.9, -3401.463, 0.022950789, -0.058958508, -1444233.1, -6116.051, 0.0033562193, 9.999292, 9.997859 
5.04985e+2, 1.6324969e+2, -1359723.0, -1385523.3, -12594.045, 0.055740517, -0.07210846, -1354594.8, -14446.435, 0.0011366707, 9.999376, 9.995947 
5.050194e+2, 1.7324586e+2, -1246117.4, -1281230.4, -14701.648, 0.06581727, -0.04139249, -1240774.8, 1411.2217, 0.00028802847, 10.000493, 9.99583 
5.0505453e+2, 1.8324077e+2, -1151224.6, -1209108.5, -8788.74, 0.06252433, -0.031177418, -1149919.6, -5683.625, 0.000054231128, 10.001323, 9.99366 
5.05091e+2, 1.9323395e+2, -1049822.0, -1111490.5, -8462.662, 0.03331899, -0.06603807, -1048681.8, -2379.5217, 0.0000075890043, 10.001635, 9.993478 
5.051276e+2, 2.0322646e+2, -965382.4, -1043441.3, -10683.45, 0.025668003, -0.06423128, -963946.6, -15570.829, 0.00000079091893, 10.001718, 9.991395 
5.051643e+2, 2.1321842e+2, -873063.5, -950266.8, -7948.312, 0.05985546, 0.0059947376, -872253.7, -21797.594, 0.00000006148999, 10.001413, 9.991213 
5.052004e+2, 2.2320935e+2, -772868.0, -860740.5, -8556.317, 0.06552594, 0.02391009, -772042.6, -19497.361, 0.0000000035684378, 10.001976, 9.990361 
5.052354e+2, 2.3319891e+2, -640779.1, -745664.0, -7346.0464, 0.014005177, -0.06278674, -640267.06, 14378.362, 0.000000000106601436, 10.004276, 9.990413 
5.052714e+2, 2.4318781e+2, -536819.0, -670571.4, -1688.8868, -0.0030940594, -0.10907203, -536797.7, 19955.012, 0.0000000000037957758, 10.005787, 9.988112 
5.053093e+2, 2.5317597e+2, -441581.47, -577386.44, -4739.497, 0.04693673, -0.08076075, -441416.25, 17452.676, 0.0000000000002126687, 10.005742, 9.987798 
5.053469e+2, 2.6316276e+2, -358407.6, -513534.75, -8668.382, 0.0819109, -0.0722534, -357924.72, 3073.672, 0.0000000000012317329, 10.005888, 9.985387 
5.0538373e+2, 2.7314758e+2, -253972.89, -416123.4, -8808.371, 0.084961876, -0.101540044, -253495.8, 9651.804, 0.0000000000052015844, 10.006485, 9.985054 
5.0542074e+2, 2.83132e+2, -152587.39, -333951.28, -6586.6357, 0.07359529, -0.08863055, -152348.5, 12951.772, 0.000000000016184465, 10.007465, 9.983495 
5.0545746e+2, 2.931161e+2, -30762.852, -225060.75, -8646.95, 0.036965646, -0.027304385, -30378.791, 37076.586, 0.000000000038037778, 10.009124, 9.983435 
5.0549513e+2, 3.0310136e+2, 66035.42, -98710.836, -5231.284, 0.016166795, -0.09726857, 66201.37, 66201.37, 0.000000000070511263, 10.010072, 9.988273 
5.055333e+2, 3.1308976e+2, 54040.117, -105071.125, -7209.321, 0.036792126, -0.05488134, 54366.105, 54366.105, 0.0000000001086931, 10.009266, 9.988228 
5.148387e+2, 1.2322123e+2, -1766724.0, -1743213.4, 5325.795, 0.06691591, -0.00876599, -1742063.3, -9635.86, 0.027554031, 9.996549, 9.999648 
5.14876e+2, 1.3321991e+2, -1643216.9, -1638290.0, -1096.4966, 0.061394367, -0.060707208, -1638057.0, -3617.695, 0.018419899, 9.9985285, 9.999162 
5.1491225e+2, 1.4321764e+2, -1540402.3, -1557166.0, -3373.9954, 0.016914384, -0.120694734, -1539748.6, -3287.5955, 0.010340942, 9.999691, 9.997452 
5.149484e+2, 1.5321556e+2, -1449746.5, -1464953.4, -5416.089, 0.034188047, -0.06149588, -1448014.6, -9532.06, 0.0046347342, 9.999286, 9.9972515 
5.149841e+2, 1.6321239e+2, -1362636.8, -1391283.0, -9683.626, 0.026964093, -0.018001825, -1359670.5, -19155.771, 0.0015935765, 9.999371, 9.995553 
5.1501906e+2, 1.7320801e+2, -1248499.8, -1286242.6, -10670.239, -0.024394672, -0.009496629, -1245692.0, -3133.9006, 0.00041132476, 10.000502, 9.995478 
5.150549e+2, 1.8320234e+2, -1154294.6, -1215731.6, -7371.1655, -0.035410367, -0.01442182, -1153422.6, -8809.299, 0.00007915646, 10.001339, 9.993197 
5.1509273e+2, 1.9319506e+2, -1053142.0, -1118603.0, -7364.293, 0.033022124, -0.047950443, -1052323.8, -5640.204, 0.0000113579035, 10.001652, 9.992981 
5.151298e+2, 2.0318718e+2, -961659.7, -1035926.56, -11478.985, 0.07714827, -0.07458535, -959925.9, -11166.222, 0.0000012170423, 10.00173, 9.9918995 
5.151658e+2, 2.13179e+2, -867392.75, -939442.75, -9090.4375, 0.069334164, -0.08936767, -866263.56, -15423.449, 0.000000097492624, 10.001459, 9.991927 
5.1520234e+2, 2.2317027e+2, -768873.0, -853432.94, -1607.6047, 0.060670182, -0.0979603, -768842.44, -15917.033, 0.0000000058393734, 10.002013, 9.990836 
5.152401e+2, 2.3316115e+2, -637908.94, -739561.94, 1435.0878, 0.05339377, -0.095638484, -637888.7, 17125.574, 0.00000000019841896, 10.004264, 9.990829 
5.1527756e+2, 2.4315071e+2, -543528.56, -683423.56, -640.1915, 0.03806523, -0.06855859, -543525.6, 13591.055, 0.000000000007634904, 10.005744, 9.987254 
5.153146e+2, 2.5313807e+2, -450383.5, -594748.1, -5129.3135, 0.006120123, -0.0049444376, -450201.47, 9040.568, 0.0000000000039886605, 10.005707, 9.986629 
5.1535195e+2, 2.6312423e+2, -358747.06, -513827.72, -6872.6704, -0.0092203645, 0.010516672, -358443.1, 2935.175, 0.000000000023101169, 10.005873, 9.985372 
5.1538944e+2, 2.7310887e+2, -252137.16, -412726.72, -6582.594, 0.009810057, -0.05888523, -251867.8, 11660.857, 0.00000000009755803, 10.006501, 9.985277 
5.1542777e+2, 2.8309324e+2, -153916.39, -337240.88, -1117.2212, 0.02989742, -0.055381324, -153909.58, 11771.646, 0.000000000303523, 10.007485, 9.983254 
5.1546675e+2, 2.930773e+2, -34644.41, -231467.95, -2308.7488, 0.04956609, 0.0412899, -34617.332, 33219.633, 0.00000000071315065, 10.00905, 9.983026 
5.1550573e+2, 3.0306166e+2, 63618.734, -101918.61, -6165.3804, 0.07213211, -0.08627339, 63848.043, 63848.043, 0.0000000013213384, 10.010008, 9.988076 
5.1554346e+2, 3.130496e+2, 56878.42, -101554.47, -10202.242, 0.11861905, -0.07595246, 57532.69, 57532.69, 0.0000000020352628, 10.009393, 9.9883995 
5.248361e+2, 1.23182915e+2, -1731868.5, -1722372.1, 10222.737, 0.05386834, -0.033029664, -1715848.6, 16953.16, 0.036176804, 9.998727, 10.00004 
5.248746e+2, 1.33182e+2, -1643858.1, -1634833.4, -1195.3892, 0.08493911, -0.07918466, -1634677.8, 131.95526, 0.024365017, 9.998307, 9.999507 
5.249116e+2, 1.4317973e+2, -1564352.5, -1575192.1, -9236.046, 0.0489247, -0.13504755, -1559063.5, -22231.766, 0.013811107, 9.998334, 9.996882 
5.249477e+2, 1.5317713e+2, -1455673.8, -1476486.4, -13112.064, 0.034336574, -0.054597408, -1449340.4, -10481.187, 0.0062664114, 9.999252, 9.996477 
5.249837e+2, 1.6317348e+2, -1351290.1, -1388621.1, -14955.992, 0.008412075, -0.0014539296, -1346037.4, -5141.038, 0.002187711, 10.000257, 9.995296 
5.250199e+2, 1.7316882e+2, -1236286.1, -1281912.6, -13907.486, -0.034602456, -0.0058379318, -1232381.3, 10561.035, 0.0005752219, 10.0013895, 9.995337 
5.2505654e+2, 1.8316308e+2, -1144297.9, -1208547.4, -11878.718, -0.032545492, -0.019132657, -1142172.0, 2826.204, 0.00011314291, 10.001916, 9.993403 
5.250944e+2, 1.9315608e+2, -1056273.4, -1116880.3, -7113.8286, 0.055267505, -0.051304325, -1055449.6, -8384.474, 0.000016648359, 10.001294, 9.993276 
5.251316e+2, 2.0314837e+2, -967546.0, -1038908.8, -7009.221, 0.09924706, -0.080189966, -966864.06, -17724.428, 0.0000018353236, 10.001327, 9.991897 
5.251678e+2, 2.1314001e+2, -848355.2, -931172.44, -9735.076, 0.053744283, -0.10434864, -847226.25, 3995.09, 0.00000015174481, 10.002788, 9.991848 
5.2520496e+2, 2.2313114e+2, -745238.94, -845561.7, -6551.09, 0.029754385, -0.11146728, -744812.94, 8495.376, 0.000000009413526, 10.003768, 9.99052 
5.2524406e+2, 2.3312186e+2, -646773.2, -748172.2, -8723.73, 0.053359795, -0.08669532, -646028.1, 9371.352, 0.00000000035784709, 10.003828, 9.990441 
5.252827e+2, 2.4311128e+2, -569405.25, -696939.75, -14648.608, 0.057269935, -0.046728443, -567744.4, -10240.639, 0.00000000002014928, 10.004004, 9.987162 
5.253198e+2, 2.530985e+2, -467594.4, -603505.56, -12131.766, 0.01858093, 0.007045251, -466520.0, -6889.5957, 0.000000000054994186, 10.004537, 9.986592 
5.2535754e+2, 2.6308456e+2, -364058.1, -514882.28, -5844.2456, -0.006949308, 0.00677887, -363832.0, -2064.6123, 0.00000000031851738, 10.005425, 9.9855175 
5.253961e+2, 2.7306914e+2, -242736.88, -406727.94, -5282.512, -0.0057996167, -0.07953317, -242566.89, 21350.771, 0.000000001345189, 10.007064, 9.985418 
5.254354e+2, 2.8305382e+2, -144170.88, -330744.5, -965.40265, 0.0130482735, -0.06525202, -144165.88, 21901.643, 0.0000000041848507, 10.008064, 9.983422 
5.254752e+2, 2.9303846e+2, -54041.848, -239511.53, 771.8576, 0.06490972, 0.0748802, -54038.633, 14179.7, 0.000000009829297, 10.00765, 9.983153 
5.25515e+2, 3.0302253e+2, 40588.23, -110041.23, 1854.7859, 0.08833575, -0.09891618, 40611.063, 40611.063, 0.000000018203474, 10.008281, 9.9883585 
5.2555317e+2, 3.1301078e+2, 80930.64, -80854.16, 282.59808, 0.08551915, -0.095360175, 80931.13, 80931.13, 0.00000002802278, 10.010641, 9.989227 
5.348337e+2, 1.2314412e+2, -1734585.8, -1727043.4, 8051.6006, -0.061089035, -0.13982375, -1721923.5, 11256.612, 0.046640746, 9.998701, 9.999726 
5.3487283e+2, 1.3314404e+2, -1647817.8, -1641625.5, -3531.8027, 0.06531371, -0.059363067, -1640024.9, -4843.449, 0.031651113, 9.998263, 9.999061 
5.349101e+2, 1.4314167e+2, -1571046.1, -1587781.8, -7108.4365, 0.070741266, -0.063666105, -1568434.4, -31229.006, 0.018118156, 9.998293, 9.996039 
5.3494686e+2, 1.5313762e+2, -1462662.3, -1490333.3, -9927.395, 0.020416113, -0.03747676, -1459469.1, -20222.371, 0.008324205, 9.999236, 9.995538 
5.349838e+2, 1.6313297e+2, -1352260.8, -1390496.5, -11154.68, -0.0039797057, -0.022173094, -1349244.5, -7951.2197, 0.002952043, 10.000256, 9.995162 
5.3502196e+2, 1.731283e+2, -1235994.4, -1281188.3, -9909.446, 0.031992186, -0.029939791, -1233917.0, 9421.624, 0.0007912693, 10.001389, 9.995379 
5.3505945e+2, 1.831229e+2, -1138154.8, -1195888.6, -13389.125, 0.0674107, -0.045263693, -1135200.8, 10190.24, 0.00015928308, 10.0019245, 9.994258 
5.350961e+2, 1.9311696e+2, -1048450.94, -1101334.6, -9864.242, 0.09641354, -0.07667107, -1046670.94, 777.1602, 0.000024088198, 10.00133, 9.994313 
5.351328e+2, 2.0310988e+2, -970395.0, -1045619.44, -3203.538, 0.08916699, -0.083292335, -970258.8, -20742.033, 0.0000027417923, 10.001364, 9.991417 
5.3517014e+2, 2.1310134e+2, -853901.9, -943135.44, -4177.474, 0.011291236, -0.0456955, -853706.75, -2105.8442, 0.00000023528659, 10.002811, 9.9910145 
5.352081e+2, 2.2309181e+2, -752801.44, -861081.25, -5449.2773, -0.02788938, -0.025047231, -752527.9, 1166.9512, 0.000000015275884, 10.003764, 9.989461 
5.3524756e+2, 2.3308104e+2, -654442.7, -764364.06, -8324.079, 0.015522197, -0.03876791, -653815.94, 1984.8707, 0.0000000006877151, 10.003845, 9.9893265 
5.352866e+2, 2.4306962e+2, -564884.0, -688099.25, -12726.241, 0.053901874, -0.041281715, -563583.3, -5670.431, 0.00000000013052304, 10.004025, 9.987754 
5.3532493e+2, 2.5305727e+2, -460648.3, -589235.56, -9840.273, 0.076002285, -0.03678553, -459899.63, 134.17351, 0.000000000612615, 10.004539, 9.987564 
5.3536385e+2, 2.6304373e+2, -362451.16, -511304.2, -368.6804, 0.07481986, -0.071519576, -362450.25, -283.96704, 0.0000000034131882, 10.005411, 9.9857645 
5.354035e+2, 2.7302837e+2, -243152.56, -406544.28, 1053.2592, 0.028496962, -0.15454523, -243145.78, 21169.963, 0.000000014339296, 10.007013, 9.985452 
5.3544354e+2, 2.8301355e+2, -141472.23, -323757.03, -1199.5677, 0.018134752, -0.11292051, -141464.34, 24996.557, 0.00000004456666, 10.008006, 9.983926 
5.35483e+2, 2.9299927e+2, -50684.734, -231482.33, -1342.011, 0.08070526, 0.078951366, -50674.773, 17927.219, 0.00000010462058, 10.007609, 9.983721 
5.355231e+2, 3.0298355e+2, 44588.54, -101058.96, 8456.985, 0.07049948, -0.13028912, 45077.945, 45077.945, 0.00000019365781, 10.008261, 9.988971 
5.355626e+2, 3.129729e+2, 90295.875, -60870.105, 8284.996, -0.04212716, -0.083085224, 90748.59, 90748.59, 0.0000002979929, 10.010627, 9.990592 
5.4483217e+2, 1.2310546e+2, -1747519.8, -1740575.6, 3659.3638, -0.057647914, -0.14287066, -1739003.3, -5443.9995, 0.05923043, 9.99813, 9.999058 
5.448714e+2, 1.331049e+2, -1638616.5, -1646557.6, -10969.184, 0.0497992, -0.030108264, -1630921.4, 4644.3657, 0.04050611, 9.999296, 9.998221 
5.4490906e+2, 1.4310199e+2, -1542674.6, -1575011.5, -13142.623, 0.041062824, -0.034264743, -1538006.9, -411.84415, 0.023422668, 10.000253, 9.995949 
5.449468e+2, 1.5309763e+2, -1439865.1, -1478434.6, -8341.903, 0.017540472, -0.044817727, -1438138.3, 1500.073, 0.010902844, 10.000741, 9.995616 
5.449846e+2, 1.6309279e+2, -1344825.6, -1386818.9, -6565.642, 0.016672432, -0.052750893, -1343823.0, -2136.9548, 0.003931351, 10.000751, 9.995178 
5.450229e+2, 1.7308821e+2, -1258424.1, -1292131.9, -6090.8228, 0.06499687, -0.054252587, -1257357.4, -13626.612, 0.0010759312, 9.999857, 9.995384 
5.4506063e+2, 1.8308282e+2, -1169780.4, -1213808.4, -11238.882, 0.096889034, -0.058278542, -1167077.4, -21294.107, 0.0002222064, 9.99987, 9.994038 
5.4509765e+2, 1.930768e+2, -1042712.8, -1101809.9, -16959.967, 0.091977894, -0.07009877, -1038191.44, 9650.256, 0.00003466305, 10.00185, 9.994022 
5.4513484e+2, 2.0306954e+2, -946884.8, -1037198.25, -16017.553, 0.06722286, -0.06580947, -944128.2, 5784.4087, 0.0000040952546, 10.003086, 9.991144 
5.45173e+2, 2.1306066e+2, -855054.56, -946593.2, -13208.491, 0.0052444437, -0.037033096, -853186.75, -1187.022, 0.00000036843397, 10.002847, 9.990753 
5.452115e+2, 2.2305085e+2, -766057.7, -869231.4, -9760.559, -0.024000647, -0.024434848, -765142.44, -11046.052, 0.000000026361255, 10.002922, 9.98931 
5.452514e+2, 2.3303993e+2, -654425.7, -765740.06, -5760.8457, 0.013609789, -0.03986841, -654128.3, 2075.5405, 0.0000000023307893, 10.003893, 9.989215 
5.452908e+2, 2.4302863e+2, -553362.44, -677795.44, -6993.094, 0.044096, -0.0422372, -552970.7, 5344.1113, 0.0000000015642247, 10.004594, 9.9881935 
5.453294e+2, 2.530168e+2, -451758.13, -578952.25, -6911.1963, 0.05434768, -0.03857419, -451383.7, 9046.493, 0.000000005562811, 10.004872, 9.988114 
5.4536897e+2, 2.6300365e+2, -362304.03, -507987.66, 3498.7932, 0.054152913, -0.07736094, -362220.03, 338.27734, 0.000000028366085, 10.005268, 9.986064 
5.4541016e+2, 2.729885e+2, -255278.2, -410151.75, 6629.085, 0.038218983, -0.16545257, -254994.97, 9711.439, 0.00000011761462, 10.006076, 9.985658 
5.4545105e+2, 2.8297386e+2, -163128.36, -337404.22, -1156.7764, 0.040374726, -0.110214576, -163120.69, 3729.354, 0.0000003647328, 10.006645, 9.983654 
5.4549e+2, 2.9295945e+2, -68000.9, -245377.14, -9109.173, 0.07165368, 0.11407105, -67534.33, 1458.5117, 0.00000085578625, 10.006636, 9.983244 
5.4553086e+2, 3.0294302e+2, 37457.9, -103053.14, 3892.2178, 0.048827607, -0.13944001, 37565.633, 37565.633, 0.0000015835924, 10.007654, 9.989131 
5.455733e+2, 3.1293318e+2, 95623.24, -43511.094, 2983.3545, -0.010010025, -0.051622987, 95687.19, 95687.19, 0.0000024360013, 10.010291, 9.991953 
5.5483156e+2, 1.23067155e+2, -1756756.4, -1757145.6, 6496.0103, 0.06562505, -0.03462483, -1750452.1, -16514.742, 0.07429232, 9.998034, 9.997973 
5.5487055e+2, 1.3306469e+2, -1648492.8, -1665635.5, -7271.1694, 0.03818708, 0.011373443, -1645824.1, -9862.468, 0.051209517, 9.999243, 9.996939 
5.5490845e+2, 1.430607e+2, -1538704.1, -1565835.6, -11393.759, -0.043962657, -0.047024988, -1534554.1, 3446.0737, 0.02992419, 10.000224, 9.996579 
5.5494756e+2, 1.5305719e+2, -1432493.1, -1462508.4, -7053.2334, 0.021939052, -0.07727508, -1430918.4, 9115.343, 0.014122313, 10.000724, 9.996701 
5.549858e+2, 1.6305296e+2, -1343662.9, -1384361.1, -9501.498, 0.06662551, -0.09377041, -1341553.9, 520.76666, 0.0051837345, 10.00076, 9.995337 
5.550228e+2, 1.7304853e+2, -1258521.9, -1292685.1, -9963.32, 0.06249177, -0.079520695, -1255828.5, -11709.875, 0.001451182, 9.999886, 9.995329 
5.5506e+2, 1.8304281e+2, -1178436.8, -1232272.4, -6107.9824, 0.054457635, -0.058814038, -1177752.4, -31577.352, 0.00030831338, 9.9999, 9.99276 
5.55099e+2, 1.9303566e+2, -1053580.9, -1124707.6, -9480.77, 0.04086865, -0.031972382, -1052338.9, -4093.0151, 0.000049822873, 10.001871, 9.992445 
5.551376e+2, 2.030274e+2, -947274.7, -1038264.9, -15528.235, 0.03126788, -0.027055258, -944697.6, 5628.9272, 0.000006177531, 10.003101, 9.991061 
5.551761e+2, 2.1301802e+2, -852755.9, -942299.25, -14215.724, 0.030629473, -0.07415711, -850553.2, 1864.1664, 0.00000062156033, 10.002873, 9.991031 
5.55215e+2, 2.2300822e+2, -761181.4, -859298.7, -6921.4316, 0.03357214, -0.10331322, -760695.5, -6182.525, 0.00000007849513, 10.002927, 9.989983 
5.552556e+2, 2.329984e+2, -649296.6, -754576.3, -1850.7886, 0.041821316, -0.086492255, -649264.06, 7345.894, 0.000000033049375, 10.003869, 9.9899845 
5.552953e+2, 2.4298805e+2, -552057.9, -673973.75, -5596.4004, 0.026044847, -0.050301112, -551801.5, 6910.278, 0.000000030537407, 10.004546, 9.988476 
5.553334e+2, 2.5297683e+2, -451173.53, -576978.4, -6156.6685, -0.03895908, -0.0036626605, -450872.94, 9949.177, 0.00000005386784, 10.004842, 9.988261 
5.5537313e+2, 2.6296413e+2, -360482.66, -503362.75, 5493.873, -0.058637537, -0.021881573, -360271.75, 2674.667, 0.00000019406193, 10.005225, 9.986401 
5.5541605e+2, 2.729492e+2, -253929.55, -405438.06, 9164.872, 0.023161916, -0.12254448, -253377.17, 11715.491, 0.00000074942295, 10.005983, 9.986025 
5.55458e+2, 2.829345e+2, -170893.3, -351746.75, -1105.9531, 0.07368714, -0.06299624, -170886.53, -3649.5134, 0.0000022942224, 10.006572, 9.982705 
5.5549634e+2, 2.929189e+2, -77377.695, -265712.38, -9211.436, 0.039790023, 0.17566411, -76928.234, -7536.597, 0.0000053700915, 10.006676, 9.981831 
5.5553824e+2, 3.0290085e+2, 35429.29, -108190.22, 12266.614, 0.020864855, -0.13241814, 36469.453, 36469.453, 0.000009930988, 10.007699, 9.988745 
5.5558515e+2, 3.1289163e+2, 100970.555, -26581.219, 12412.711, 0.14491381, 0.019737214, 102167.266, 102167.266, 0.000015272311, 10.010053, 9.993213 
5.6483054e+2, 1.2302635e+2, -1728703.6, -1741505.6, -3605.6707, 0.07639345, 0.0024514417, -1727758.0, 6580.1094, 0.092263974, 9.999897, 9.998118 
5.648702e+2, 1.3302371e+2, -1635428.9, -1656192.8, -5524.595, 0.041162487, 0.005882719, -1634050.5, 2312.6497, 0.06411256, 9.999999, 9.997214 
5.649084e+2, 1.4301975e+2, -1541951.5, -1564549.9, -5947.8022, -0.05111817, -0.07873179, -1540481.8, -2080.6248, 0.037873123, 9.999863, 9.996852 
5.6494766e+2, 1.5301669e+2, -1452518.0, -1469649.5, -8347.968, 0.03538273, -0.08937501, -1449123.0, -8692.991, 0.018134005, 9.999235, 9.99694 
5.6498617e+2, 1.6301268e+2, -1363385.5, -1396080.5, -13692.607, 0.0844263, -0.0893259, -1358408.6, -15939.663, 0.0067838538, 9.999504, 9.995145 
5.6502336e+2, 1.7300802e+2, -1234835.4, -1284538.6, -15720.811, 0.051029474, -0.069966145, -1230280.4, 14234.996, 0.0019465184, 10.00164, 9.995024 
5.650613e+2, 1.830019e+2, -1137140.8, -1218636.4, -10444.5, 0.028705135, -0.0472705, -1135823.5, 10752.55, 0.00042717464, 10.002989, 9.99218 
5.651012e+2, 1.9299407e+2, -1045859.7, -1128171.9, -7093.6665, 0.031963207, -0.023731356, -1045252.8, 3400.6357, 0.00007248372, 10.002707, 9.991802 
5.651404e+2, 2.0298544e+2, -954707.4, -1040038.75, -11165.292, 0.036468215, -0.024370188, -953270.6, -2532.598, 0.000010126792, 10.002513, 9.991229 
5.65179e+2, 2.1297635e+2, -851791.7, -937665.06, -9821.283, 0.041168995, -0.07984584, -850682.75, 2142.99, 0.0000016724057, 10.002754, 9.991411 
5.65218e+2, 2.2296667e+2, -764153.44, -861795.8, -3488.0005, 0.042862445, -0.11398705, -764029.0, -9109.193, 0.0000006828696, 10.002756, 9.9899025 
5.652588e+2, 2.3295668e+2, -670174.9, -767130.0, -5004.713, 0.0383712, -0.09594557, -669917.25, -12898.879, 0.0000005186009, 10.00253, 9.989778 
5.652988e+2, 2.4294616e+2, -581800.75, -691352.6, -13438.953, 0.017312014, -0.05527698, -580176.3, -21054.27, 0.0000004730068, 10.0026245, 9.988213 
5.6533766e+2, 2.529347e+2, -468751.1, -588574.0, -16509.447, -0.039353363, -0.0020452489, -466518.0, -5283.4663, 0.00000055618574, 10.003756, 9.987987 
5.65378e+2, 2.6292196e+2, -370569.3, -506448.4, -8254.088, -0.0521478, -0.018820453, -370069.75, -6710.3037, 0.0000011869142, 10.004432, 9.9865675 
5.6542134e+2, 2.7290726e+2, -274962.13, -412921.84, -5354.8887, 0.03166043, -0.11698967, -274754.6, -9251.016, 0.0000037901987, 10.004402, 9.98627 
5.6546384e+2, 2.8289294e+2, -189836.78, -357902.38, -9716.816, 0.075299986, -0.0512945, -189276.86, -21632.834, 0.000011143965, 10.005096, 9.983 
5.6550324e+2, 2.9287735e+2, -64554.316, -258075.9, -6760.1636, 0.014925205, 0.17097506, -64318.453, 5479.1655, 0.00002588088, 10.007464, 9.981979 
5.6554615e+2, 3.0285832e+2, 44365.477, -113953.88, 15985.229, -0.014033057, -0.20185661, 45963.35, 45963.35, 0.000047783215, 10.008747, 9.987844 
5.6559366e+2, 3.128489e+2, 54415.586, -43192.246, 7505.939, 0.17385627, 0.02624009, 54989.41, 54989.41, 0.00007346192, 10.006589, 9.993733 
5.7482934e+2, 1.2298315e+2, -1721101.1, -1722747.3, -4497.352, -0.038988706, -0.03419781, -1717352.1, 17408.514, 0.11375035, 9.999805, 9.999532 
5.7487035e+2, 1.3298215e+2, -1624210.3, -1629626.0, -5633.0605, 0.056891084, -0.05037052, -1620668.0, 16100.813, 0.07970575, 9.999912, 9.999096 
5.74909e+2, 1.429793e+2, -1543827.1, -1566810.6, -8486.155, 0.021352738, -0.13163714, -1541033.4, -2237.4395, 0.047626078, 9.999805, 9.996721 
5.749471e+2, 1.5297627e+2, -1457680.9, -1479438.5, -11403.126, 0.055487674, -0.081094876, -1452799.5, -11973.479, 0.023162264, 9.999213, 9.996281 
5.7498544e+2, 1.6297203e+2, -1367657.1, -1404581.5, -8186.4307, 0.06595097, -0.038439192, -1365923.6, -23055.354, 0.008851877, 9.999497, 9.99456 
5.7502484e+2, 1.7296675e+2, -1238908.4, -1292771.6, -7977.5674, 0.028722612, -0.025058, -1237751.8, 7168.923, 0.002618495, 10.0016365, 9.994453 
5.750641e+2, 1.8296011e+2, -1136573.1, -1217382.4, -10344.578, 0.016684342, -0.0233274, -1135269.9, 11716.326, 0.00060495513, 10.002994, 9.992257 
5.751042e+2, 1.9295205e+2, -1044004.25, -1124715.6, -8714.061, 0.05918058, -0.045334052, -1043074.2, 5990.8564, 0.00011674837, 10.002733, 9.99202 
5.751434e+2, 2.0294358e+2, -951431.75, -1033841.6, -11030.692, 0.07609656, -0.058347728, -949980.8, 1167.0887, 0.00002538977, 10.002544, 9.9916315 
5.751817e+2, 2.1293549e+2, -848138.44, -930754.3, -9189.938, 0.034452118, -0.058145575, -847128.5, 6097.854, 0.000010757452, 10.0027895, 9.99186 
5.7522035e+2, 2.2292604e+2, -769507.3, -873277.9, -4521.025, 0.0035299743, -0.06216477, -769310.7, -13992.171, 0.000007736589, 10.002777, 9.989109 
5.7526094e+2, 2.3291473e+2, -677741.8, -783124.75, -5985.9463, 0.0026096986, -0.07093368, -677402.9, -19973.04, 0.0000065229674, 10.00255, 9.988674 
5.7530135e+2, 2.4290296e+2, -587146.6, -702595.6, -10172.957, 0.012356632, -0.05717276, -586257.06, -26711.732, 0.0000059419185, 10.002625, 9.987445 
5.753422e+2, 2.528906e+2, -473373.47, -598292.6, -11724.736, 0.03782267, -0.02965642, -472282.53, -10616.063, 0.000005930573, 10.003753, 9.987324 
5.753835e+2, 2.6287732e+2, -370451.47, -506557.0, -7378.164, 0.053781718, -0.060514703, -370052.66, -6256.473, 0.000007746674, 10.004447, 9.986551 
5.75426e+2, 2.7286285e+2, -273347.6, -410659.06, -5512.8296, 0.056854147, -0.14317818, -273126.63, -7188.592, 0.000016548, 10.004454, 9.986396 
5.754686e+2, 2.8284925e+2, -180616.47, -339060.63, -3153.94, 0.046394493, -0.07174146, -180553.72, -12482.573, 0.000042830554, 10.005097, 9.984286 
5.7551044e+2, 2.928347e+2, -55867.098, -237651.86, 2059.231, -0.009104337, 0.109832525, -55843.773, 14369.21, 0.000096663134, 10.007348, 9.983428 
5.7555443e+2, 3.0281532e+2, 33615.31, -133648.98, 11266.498, -0.05784047, -0.33009154, 34370.777, 34370.777, 0.00017732779, 10.008655, 9.986532 
5.7559955e+2, 3.1280518e+2, 56012.715, -42616.06, -1414.8074, 0.09981795, 0.0069355345, 56033.004, 56033.004, 0.00027223537, 10.00674, 9.993693 
5.8482873e+2, 1.22941434e+2, -1727101.1, -1723713.5, 6857.396, -0.047658563, -0.07888228, -1718343.9, 16824.217, 0.13972634, 9.9992485, 9.999783 
5.848698e+2, 1.3294104e+2, -1636851.0, -1632649.0, -3572.7178, 0.06790415, -0.06914128, -1630605.3, 6565.4966, 0.09881993, 9.9988365, 9.999414 
5.849086e+2, 1.4293852e+2, -1553787.8, -1576408.6, -11908.074, 0.03360282, -0.11706189, -1548674.8, -9479.701, 0.05983592, 9.999333, 9.996291 
5.8494747e+2, 1.5293488e+2, -1428736.5, -1472027.4, -14273.216, 0.053300336, -0.06957929, -1424454.3, 16777.332, 0.02967235, 10.001505, 9.9956665 
5.849864e+2, 1.6293004e+2, -1325850.3, -1388817.3, -11787.183, 0.057487085, -0.033325855, -1323716.1, 19563.729, 0.01169154, 10.002555, 9.994142 
5.8502626e+2, 1.7292431e+2, -1247685.1, -1301345.3, -10791.29, 0.026967397, -0.027165469, -1245596.4, -259.8566, 0.0036587538, 10.00122, 9.994069 
5.8506596e+2, 1.8291743e+2, -1169977.3, -1230887.9, -11976.206, 0.019000094, -0.03442309, -1167707.0, -20302.88, 0.00096831424, 10.000592, 9.992502 
5.8510643e+2, 1.9290966e+2, -1055941.0, -1126196.5, -9336.393, 0.060510844, -0.06909215, -1054721.4, -5241.386, 0.0002747667, 10.001729, 9.992403 
5.8514595e+2, 2.0290124e+2, -954927.44, -1040380.25, -14410.683, 0.08241698, -0.0772665, -952562.7, -1000.62463, 0.00012466928, 10.002503, 9.991208 
5.8518463e+2, 2.1289298e+2, -856145.7, -941912.25, -20725.912, 0.057534795, -0.036603387, -851399.75, 2243.676, 0.00008776913, 10.002548, 9.991209 
5.852233e+2, 2.2288314e+2, -774554.5, -880180.56, -19979.92, 0.02906688, -0.022019425, -770901.5, -15161.451, 0.00007200399, 10.002628, 9.988692 
5.852638e+2, 2.3287122e+2, -670191.1, -782665.5, -16145.718, -0.002230143, -0.059155293, -667919.3, -10062.905, 0.00006284411, 10.003203, 9.988379 
5.8530426e+2, 2.4285913e+2, -571642.9, -692928.06, -12705.276, -0.0061274874, -0.06669409, -570326.25, -10351.861, 0.000057896348, 10.00357, 9.987652 
5.853461e+2, 2.5284702e+2, -465846.53, -590583.9, -6542.0938, 0.04325891, -0.045067817, -465504.34, -3412.1392, 0.000055242694, 10.004071, 9.987706 
5.85388e+2, 2.6283377e+2, -373945.7, -513852.5, -579.83527, 0.061498888, -0.083222, -373943.28, -9721.419, 0.000055795954, 10.004415, 9.986092 
5.8543044e+2, 2.7281854e+2, -266982.9, -415655.56, -4030.2727, 0.019435644, -0.17197749, -266873.75, -502.52524, 0.00007332081, 10.0052, 9.985712 
5.8547366e+2, 2.828049e+2, -168049.89, -327386.78, -4890.1455, 0.0026398308, -0.089526266, -167899.94, 604.8027, 0.0001400374, 10.005702, 9.984792 
5.8551735e+2, 2.927913e+2, -72314.38, -238214.72, -3560.4175, 0.021704493, 0.12199851, -72238.01, -1601.033, 0.00028783004, 10.005863, 9.984108 
5.855627e+2, 3.0277163e+2, 4231.5645, -158477.97, 1411.6301, -0.015293294, -0.34622177, 4243.8105, 4243.8105, 0.00051568105, 10.007039, 9.985613 
5.8560735e+2, 3.127604e+2, 101600.766, -10064.918, -8928.8, 0.060605265, -0.010039642, 102310.2, 102310.2, 0.00078684813, 10.009367, 9.994679 
5.94829e+2, 1.2290178e+2, -1736553.4, -1739417.5, 3232.481, 0.058013376, -0.13116693, -1734450.0, 1104.8767, 0.17203061, 9.999079, 9.998673 
5.9486866e+2, 1.3290077e+2, -1648541.5, -1653844.1, -6433.0923, 0.07252649, -0.04748353, -1644234.9, -6669.6084, 0.1231772, 9.998735, 9.997981 
5.9490746e+2, 1.428977e+2, -1560286.1, -1588136.5, -6560.072, -0.019693892, -0.029904693, -1558818.4, -19222.473, 0.07603565, 9.9992695, 9.995514 
5.9494865e+2, 1.5289272e+2, -1433448.4, -1480782.1, -6987.3447, 0.02537126, -0.055016004, -1432438.4, 9206.184, 0.038946252, 10.00146, 9.995078 
5.9498894e+2, 1.6288684e+2, -1328075.8, -1392896.4, -15173.586, 0.0548956, -0.075157665, -1324699.8, 19002.62, 0.016317574, 10.002554, 9.99386 
5.950276e+2, 1.7288084e+2, -1249353.3, -1304660.1, -16818.68, 0.041531425, -0.07679025, -1244640.4, 1121.1979, 0.005852864, 10.001234, 9.993833 
5.950667e+2, 1.8287396e+2, -1167271.6, -1225522.3, -10104.982, 0.03215669, -0.08078597, -1165568.5, -17739.416, 0.0021368093, 10.000611, 9.992849 
5.95108e+2, 1.9286688e+2, -1051905.1, -1118449.4, -5254.625, 0.0346153, -0.094892226, -1051492.8, -1594.7141, 0.0010550627, 10.001762, 9.992905 
5.951482e+2, 2.0285851e+2, -963032.0, -1058064.0, -13820.647, 0.052381713, -0.08071633, -961062.8, -9082.508, 0.00073915557, 10.002551, 9.989975 
5.9518766e+2, 2.1284886e+2, -867176.5, -966436.94, -20937.117, 0.10366382, -0.0149329165, -862940.94, -8864.489, 0.0006049614, 10.002632, 9.989491 
5.9522676e+2, 2.2283798e+2, -773879.25, -880463.25, -18344.193, 0.11035169, 0.007198907, -770810.4, -14626.684, 0.0005205479, 10.002701, 9.988636 
5.9526724e+2, 2.3282617e+2, -666933.7, -776172.7, -13827.522, 0.01608828, -0.059968386, -665210.56, -6912.7246, 0.00046617113, 10.003214, 9.988814 
5.953074e+2, 2.4281454e+2, -565179.25, -678235.9, -11053.254, -0.04194415, -0.08397038, -564108.75, -3698.5222, 0.0004356508, 10.003514, 9.988679 
5.9534967e+2, 2.528038e+2, -457336.44, -572315.5, -5267.113, -0.01651773, -0.051036626, -457095.66, 5418.9644, 0.0004130641, 10.0040455, 9.988962 
5.9539163e+2, 2.6279092e+2, -380475.0, -527048.4, 753.9471, -0.01849601, -0.0913107, -380471.13, -15830.9, 0.00038235346, 10.004384, 9.98521 
5.954347e+2, 2.7277407e+2, -276992.72, -436871.1, -1602.3158, -0.07506216, -0.20275362, -276976.66, -10170.782, 0.00036756825, 10.005207, 9.984261 
5.954787e+2, 2.8275976e+2, -168930.42, -329549.38, -4595.401, -0.05910265, -0.104486346, -168799.05, 147.40714, 0.00045654777, 10.005699, 9.984652 
5.9552395e+2, 2.9274702e+2, -72560.695, -238442.4, -3133.0837, 0.09364606, 0.19025102, -72501.54, -1430.0405, 0.0007430319, 10.005842, 9.984104 
5.9557074e+2, 3.0272698e+2, -1950.4447, -169744.25, 8457.465, 0.09198987, -0.27418053, -1525.2329, -1525.2329, 0.0012328605, 10.006967, 9.98487 
5.956164e+2, 3.1271443e+2, 111105.61, 13784.996, -1422.0613, 0.033400618, -0.0025139411, 111126.38, 111126.38, 0.0018376576, 10.009205, 9.996383 
6.04829e+2, 1.2286028e+2, -1727345.6, -1738362.8, -9047.214, 0.10837596, -0.11800026, -1722262.0, 13698.441, 0.21415175, 10.0000515, 9.998309 
6.0486865e+2, 1.3285802e+2, -1620934.9, -1653421.3, -17378.28, 0.0677226, -0.0403021, -1613390.6, 24593.277, 0.15643801, 10.0014715, 9.996716 
6.049078e+2, 1.4285414e+2, -1523068.1, -1568374.9, -15242.955, -0.036576442, -0.03141328, -1518417.3, 21605.316, 0.09991357, 10.0019045, 9.995579 
6.0494953e+2, 1.5284935e+2, -1445186.6, -1482773.0, -9860.329, 0.019351808, -0.07106447, -1442757.0, -688.02783, 0.05450123, 10.0004635, 9.995423 
6.0499007e+2, 1.6284378e+2, -1367740.8, -1408331.8, -14517.549, 0.057693813, -0.095873065, -1363083.0, -18959.572, 0.025909876, 9.999657, 9.994223 
6.0502845e+2, 1.7283827e+2, -1260491.6, -1306496.5, -13132.618, 0.049209964, -0.08284015, -1257006.8, -10828.577, 0.011985906, 10.000316, 9.994163 
6.050677e+2, 1.828317e+2, -1156689.6, -1219333.8, 272.82687, 0.033583123, -0.077980965, -1156688.4, -8445.576, 0.006540678, 10.001278, 9.992953 
6.0511e+2, 1.9282463e+2, -1035399.5, -1110211.6, 2856.3135, 0.0042085764, -0.09724217, -1035290.6, 15020.923, 0.004605954, 10.002872, 9.992929 
6.051512e+2, 2.028158e+2, -945702.2, -1061415.8, -10380.479, 0.012340296, -0.08708954, -944778.4, 7619.939, 0.0037908985, 10.0042515, 9.988917 
6.0519165e+2, 2.1280485e+2, -839226.7, -968066.2, -16487.8, 0.10623337, -0.019907031, -837150.2, 17357.338, 0.0032939822, 10.005205, 9.988133 
6.052309e+2, 2.2279295e+2, -739464.0, -867019.75, -16847.922, 0.13446115, -0.0033282836, -737276.25, 19348.758, 0.0029298984, 10.00519, 9.988357 
6.052704e+2, 2.3278096e+2, -665522.1, -775275.94, -16463.857, 0.008146625, -0.09244422, -663105.6, -4365.15, 0.002684564, 10.003299, 9.98884 
6.053101e+2, 2.4276905e+2, -589892.3, -696833.6, -15191.29, -0.061331, -0.11713443, -587776.25, -26920.771, 0.0025410713, 10.00211, 9.98808 
6.053536e+2, 2.5275812e+2, -470067.66, -585591.4, -20731.383, 0.0049095745, -0.038166102, -466459.97, -3497.814, 0.0024159902, 10.003465, 9.9883175 
6.053964e+2, 2.6274493e+2, -381080.63, -529956.06, -21243.637, 0.02060841, -0.05851311, -378108.63, -13017.755, 0.0021913543, 10.004421, 9.98498 
6.0544014e+2, 2.727276e+2, -269018.0, -433048.8, -13876.0, -0.07714934, -0.21149246, -267852.44, -591.51074, 0.0018755151, 10.0057, 9.98429 
6.054846e+2, 2.8271323e+2, -158181.7, -323983.72, -13060.832, -0.06989529, -0.13278951, -157159.17, 12242.7705, 0.0017067166, 10.006365, 9.984731 
6.0553086e+2, 2.9270068e+2, -56529.89, -232369.13, -11548.469, 0.14862444, 0.19143279, -55774.67, 15750.833, 0.0019738742, 10.006978, 9.98398 
6.055787e+2, 3.0267993e+2, -1036.6116, -190117.92, 632.1705, 0.14098251, -0.2630569, -1034.4979, -1034.4979, 0.00273566, 10.007916, 9.982999 
6.056246e+2, 3.12665e+2, 101851.7, 13542.824, -18500.74, -0.02646668, -0.013327768, 105570.98, 105570.98, 0.0038015225, 10.00839, 9.996731 
6.1482894e+2, 1.2281734e+2, -1725248.0, -1730974.4, -4110.8066, 0.088753864, -0.034796357, -1723101.5, 13279.466, 0.27197987, 9.999999, 9.998895 
6.148701e+2, 1.3281319e+2, -1628201.9, -1668368.6, -14747.567, 0.05283563, -0.04944519, -1623368.8, 15053.8, 0.20546477, 10.001472, 9.995663 
6.1491e+2, 1.4280824e+2, -1518792.1, -1555954.5, -19253.15, -0.015459256, -0.12611993, -1510616.1, 29855.326, 0.13910946, 10.001908, 9.99645 
6.149501e+2, 1.528052e+2, -1438134.4, -1465264.5, -16387.734, 0.032576196, -0.11657582, -1430425.9, 12074.733, 0.08437977, 10.000424, 9.996642 
6.149898e+2, 1.6280119e+2, -1362159.1, -1395372.8, -14865.917, 0.06254135, -0.092205025, -1356477.4, -11937.74, 0.048490662, 9.999602, 9.995123 
6.150288e+2, 1.7279682e+2, -1255402.1, -1295221.1, -11564.612, 0.049629312, -0.04483728, -1252287.1, -5703.0156, 0.029760148, 10.000291, 9.994933 
6.1506885e+2, 1.8279079e+2, -1158105.4, -1221950.8, 4682.621, 0.022382483, -0.025780894, -1157763.8, -9119.873, 0.021442115, 10.001271, 9.992768 
6.151125e+2, 1.9278295e+2, -1039119.44, -1117246.6, 8062.124, -0.033206567, -0.077216625, -1038296.2, 12423.466, 0.017749188, 10.002869, 9.99244 
6.15155e+2, 2.0277314e+2, -953088.0, -1075561.3, -7064.048, -0.04022968, -0.09721869, -952681.9, 133.89223, 0.015684681, 10.004204, 9.987971 
6.1519647e+2, 2.1276096e+2, -847753.0, -984155.3, -13257.334, 0.06444711, -0.05023207, -846476.44, 8460.399, 0.014164987, 10.005149, 9.987059 
6.1523587e+2, 2.22748e+2, -743897.94, -874850.2, -21872.977, 0.10112292, -0.050469022, -740341.1, 16723.35, 0.012958528, 10.005159, 9.987838 
6.1527336e+2, 2.3273553e+2, -667362.4, -780393.44, -24200.97, -0.025505167, -0.15340713, -662398.7, -3213.9785, 0.012107185, 10.003372, 9.988457 
6.1531216e+2, 2.4272263e+2, -603092.06, -726197.75, -12716.051, -0.06848678, -0.1649032, -601792.25, -40482.25, 0.011569519, 10.002206, 9.986022 
6.15358e+2, 2.527101e+2, -485860.28, -619755.06, -15212.575, 0.088047765, -0.011919859, -484153.63, -20720.25, 0.011032614, 10.003535, 9.985939 
6.154021e+2, 2.626959e+2, -379972.06, -527041.3, -16930.652, 0.14897424, 0.00782826, -378048.16, -12475.816, 0.0100008305, 10.004364, 9.985213 
6.1544657e+2, 2.7267903e+2, -261310.69, -416541.47, -9433.037, -0.011655553, -0.20421708, -260739.56, 6997.799, 0.008357118, 10.005668, 9.985432 
6.154913e+2, 2.82665e+2, -158209.67, -321920.1, -12452.761, -0.04588579, -0.17761803, -157267.86, 12606.258, 0.006757368, 10.006241, 9.984949 
6.155381e+2, 2.9265213e+2, -60428.406, -237447.83, -9835.354, 0.18190865, 0.13251208, -59883.62, 12117.535, 0.006111136, 10.006811, 9.983729 
6.155865e+2, 3.0263048e+2, -22331.418, -230514.92, 2403.449, 0.13692358, -0.2953403, -22303.674, -22303.674, 0.006720623, 10.0077305, 9.980332 
6.1563194e+2, 3.126125e+2, 94885.39, 2225.5198, -16209.171, -0.1226587, -0.021180483, 97639.055, 97639.055, 0.008187073, 10.008287, 9.996001 
6.248267e+2, 1.2277154e+2, -1741054.3, -1738085.0, 16063.621, -0.06604813, -0.19547907, -1723437.5, 13390.304, 0.35410506, 9.9986925, 9.999181 
6.248704e+2, 1.3276954e+2, -1633734.8, -1662054.9, 4609.2866, -0.010042416, -0.08237281, -1633003.5, 5845.6724, 0.28108662, 10.000591, 9.996516 
6.2491184e+2, 1.427656e+2, -1527358.6, -1560931.1, -2307.7378, 0.008085137, -0.102307215, -1527200.8, 13688.412, 0.20656246, 10.001338, 9.9963665 
6.249513e+2, 1.5276204e+2, -1425975.9, -1460933.4, -10222.302, 0.052116394, -0.122323506, -1423206.1, 19717.588, 0.14324221, 10.001498, 9.996432 
6.249905e+2, 1.627575e+2, -1333775.0, -1388089.6, -15835.995, 0.06725927, -0.11539126, -1329495.0, 15473.49, 0.099858776, 10.00194, 9.994489 
6.2503e+2, 1.7275253e+2, -1229798.6, -1291312.0, -23773.082, 0.024825264, -0.048766863, -1221682.0, 25337.447, 0.07550127, 10.002551, 9.994098 
6.250705e+2, 1.8274601e+2, -1141687.8, -1217858.3, -17521.105, -0.004238662, -0.014643448, -1137850.8, 11233.698, 0.063227676, 10.002601, 9.992387 
6.2511504e+2, 1.927379e+2, -1061608.1, -1131886.1, -14274.235, 0.005576379, -0.061650533, -1058819.6, -7657.047, 0.056679733, 10.001456, 9.992111 
6.251582e+2, 2.0272817e+2, -993962.7, -1085389.8, -21455.31, 0.027635146, -0.08506745, -989178.1, -35920.977, 0.05228218, 10.000967, 9.988854 
6.251999e+2, 2.12717e+2, -887802.1, -990011.1, -11629.275, 0.06699429, -0.056996197, -886495.6, -31128.459, 0.04865137, 10.001814, 9.98827 
6.2523955e+2, 2.2270444e+2, -780944.2, -902452.44, -13077.977, 0.0682719, -0.054779354, -779552.56, -22062.344, 0.045559824, 10.00303, 9.986988 
6.25278e+2, 2.3269117e+2, -646550.1, -786228.6, -23528.809, -0.009070742, -0.10364183, -642693.2, 16925.53, 0.043225627, 10.005548, 9.987005 
6.2531716e+2, 2.4267697e+2, -543609.8, -711000.2, -15764.277, -0.02609341, -0.101571515, -542138.1, 19618.758, 0.041560948, 10.006886, 9.984823 
6.253625e+2, 2.5266257e+2, -464799.56, -622285.4, -11377.901, 0.09010886, -0.029351806, -463981.78, -82.98685, 0.039684195, 10.005474, 9.984868 
6.254061e+2, 2.6264682e+2, -391880.44, -543832.5, -7843.928, 0.1281819, -0.046787214, -391476.6, -25423.031, 0.036110215, 10.004023, 9.984238 
6.25452e+2, 2.7262992e+2, -271059.75, -426635.84, -9697.847, -0.0092825685, -0.1945652, -270457.56, -2238.5027, 0.030348904, 10.005206, 9.984965 
6.254971e+2, 2.8261578e+2, -176706.63, -339873.13, -25012.676, -0.02655659, -0.13210079, -172958.4, -2600.7695, 0.024075557, 10.005324, 9.9841585 
6.2554497e+2, 2.9260176e+2, -71261.44, -254547.06, -25635.557, 0.20064652, 0.16522424, -67743.41, 4752.441, 0.01985891, 10.006555, 9.982669 
6.2559444e+2, 3.0257937e+2, -33328.875, -253814.52, -12492.236, 0.15192059, -0.22399284, -32623.352, -32623.352, 0.018799556, 10.007647, 9.978799 
6.2564135e+2, 3.1255862e+2, 117448.29, 20270.504, -20044.389, -0.098015524, -0.054050777, 121420.38, 121420.38, 0.020104503, 10.009493, 9.996749 
6.3487047e+2, 1.3272764e+2, -1655223.4, -1644942.6, 5957.2246, -0.052190725, -0.18047906, -1642214.6, -2956.35, 0.39863336, 9.997766, 9.99903 
6.349139e+2, 1.4272688e+2, -1569835.8, -1596408.9, -6517.478, 0.086263515, 0.03451464, -1568323.3, -27054.627, 0.32108045, 9.998783, 9.995191 
6.349532e+2, 1.5272042e+2, -1447376.0, -1492959.6, -13167.667, 0.093374215, -0.09755531, -1443845.6, -512.45593, 0.25316352, 10.000716, 9.994616 
6.349926e+2, 1.6271321e+2, -1348520.0, -1420506.3, -15913.148, 0.07016591, -0.1701854, -1345159.1, 246.33536, 0.20479763, 10.001906, 9.992283 
6.35032e+2, 1.7270589e+2, -1246855.6, -1327042.0, -22734.436, -0.030301182, -0.09868604, -1240858.5, 6621.061, 0.17587304, 10.002551, 9.991646 
6.3507265e+2, 1.826978e+2, -1147116.6, -1228053.9, -21227.654, -0.055545095, -0.045350786, -1141887.0, 7672.9272, 0.15967952, 10.002628, 9.991676 
6.3511753e+2, 1.9268979e+2, -1063520.1, -1135627.1, -18873.219, 0.107599735, -0.05408562, -1058879.0, -7242.317, 0.14982003, 10.00147, 9.991842 
6.3516086e+2, 2.0268111e+2, -975870.8, -1048000.25, -19371.857, 0.1978266, -0.053391576, -970997.4, -17277.297, 0.1423157, 10.00098, 9.991382 
6.3520217e+2, 2.1267302e+2, -861546.75, -939917.0, -8669.641, 0.10105725, -0.044634264, -860599.1, -4801.17, 0.13550681, 10.002001, 9.99158 
6.352422e+2, 2.2266218e+2, -785329.7, -918320.1, -5645.372, 0.027772896, -0.019977942, -785090.44, -27187.61, 0.12921384, 10.003329, 9.985748 
6.352841e+2, 2.3264769e+2, -662132.6, -821900.4, -13904.31, 0.041521505, 0.04083295, -660931.56, -887.7445, 0.12399556, 10.005632, 9.984514 
6.353248e+2, 2.4263187e+2, -551007.9, -721215.4, -17106.648, 0.048908256, 0.058232147, -549305.6, 12892.588, 0.11969435, 10.006757, 9.984185 
6.3536733e+2, 2.5261524e+2, -465073.56, -623158.1, -18587.678, 0.014995003, -0.08559257, -462917.4, 1444.0089, 0.114343345, 10.005514, 9.98479 
6.354086e+2, 2.6259744e+2, -405316.0, -573351.56, -7528.294, -0.027033366, -0.20203085, -404979.4, -38442.793, 0.10449211, 10.004064, 9.982214 
6.3545674e+2, 2.725802e+2, -284717.75, -454684.0, -5410.0854, -0.068933696, -0.17956933, -284545.72, -15838.732, 0.088948086, 10.005165, 9.983075 
6.3550264e+2, 2.8256541e+2, -191022.19, -366601.4, -22985.705, -0.021361772, -0.011802098, -188062.92, -17209.547, 0.07142269, 10.005136, 9.9824505 
6.355515e+2, 2.9254943e+2, -84680.02, -281060.4, -19352.79, 0.19836071, 0.26105973, -82791.02, -9780.232, 0.057965115, 10.006437, 9.98093 
6.35602e+2, 3.0252653e+2, -41585.25, -263975.94, -6169.435, 0.16309167, -0.07793, -41414.23, -41414.23, 0.05158806, 10.007283, 9.978307 
6.356512e+2, 3.1250343e+2, 110294.68, 34203.64, -9154.874, -0.022762327, -0.0941218, 111380.65, 111380.65, 0.050905515, 10.008452, 9.998323 
6.449933e+2, 1.6267492e+2, -1315542.6, -1368164.3, 15137.426, -0.1711134, 0.065260306, -1311498.9, 34284.89, 0.39380407, 10.004386, 9.994749 
6.450381e+2, 1.7266622e+2, -1217108.0, -1328517.4, 13279.546, 0.11692946, 0.158908, -1215547.0, 32324.04, 0.36312452, 10.006767, 9.989538 
6.4507943e+2, 1.8265498e+2, -1108338.4, -1198305.5, 3097.2722, 0.15469521, 0.032461844, -1108231.9, 41750.023, 0.34431255, 10.006639, 9.991792 
6.4511806e+2, 1.926476e+2, -1058415.5, -1122261.3, 9852.807, 0.017906534, -0.0027953424, -1056929.6, -4878.49, 0.331853, 10.001361, 9.992854 
6.4515877e+2, 2.0263855e+2, -1006845.6, -1080711.4, 25488.063, -0.047167633, -0.045145772, -998904.5, -44767.4, 0.32141668, 9.99964, 9.989821 
6.45207e+2, 2.1262759e+2, -821809.3, -940648.2, 2481.2803, 0.12543052, -0.092978254, -821757.56, 34484.566, 0.3110016, 10.006944, 9.98912 
6.452516e+2, 2.2261499e+2, -688822.8, -839836.44, -23594.578, 0.2112811, -0.15366495, -685222.25, 73141.086, 0.3004126, 10.011279, 9.987272 
6.4529055e+2, 2.3260131e+2, -633905.56, -773620.25, -6236.35, 0.04296777, -0.26314002, -633627.75, 26867.117, 0.29071075, 10.007057, 9.987137 
6.453293e+2, 2.4258544e+2, -595638.4, -774604.9, 12554.872, -0.0794669, -0.2837175, -594761.94, -32112.223, 0.2817391, 10.0049305, 9.981455 
6.453738e+2, 2.525684e+2, -446094.03, -650341.4, -14112.743, -0.056704767, -0.093144745, -445123.5, 19695.75, 0.26974195, 10.008985, 9.98129 
6.4541566e+2, 2.625499e+2, -341174.6, -566144.5, -24680.348, -0.04523038, 0.016071992, -338498.88, 28504.135, 0.24779908, 10.010328, 9.979671 
6.454624e+2, 2.72529e+2, -283893.47, -479565.5, -31178.352, -0.057797298, -0.097664185, -279045.63, -9836.825, 0.21365504, 10.006319, 9.980801 
6.455067e+2, 2.825116e+2, -216882.92, -368203.16, -34353.914, 0.0022396173, -0.08353628, -209448.84, -38068.652, 0.17464966, 10.0029, 9.983388 
6.455587e+2, 2.9249674e+2, -50086.95, -240848.98, 5854.5522, 0.19488122, 0.11363562, -49907.44, 23618.947, 0.14277282, 10.008138, 9.982865 
6.456098e+2, 3.0247667e+2, -28599.918, -240850.28, 14648.937, 0.19197632, -0.13390952, -27593.658, -27593.658, 0.12435859, 10.007509, 9.979798 
6.4565706e+2, 3.1245354e+2, -3516.9421, 3240.5151, 18278.863, 0.15364167, -0.25068504, 18450.295, 18450.295, 0.117289856, 9.999316, 10.000553 
6.5550953e+2, 2.824558e+2, -200079.55, -320172.28, -30506.855, -0.024170276, -0.15153335, -192774.34, -20850.096, 0.35779375, 10.002294, 9.986973 
6.555664e+2, 2.924456e+2, -31092.662, -162990.19, 15716.065, 0.14639707, -0.042383812, -29245.893, 44778.05, 0.2964201, 10.007751, 9.988374 
6.556168e+2, 3.024321e+2, -8250.592, -192766.81, -31086.469, 0.1684044, -0.12733425, -3154.0547, -3154.0547, 0.25639158, 10.007157, 9.983323 
6.5565604e+2, 3.1241196e+2, 2948.1812, 27760.432, -21946.32, 0.20808488, -0.19992064, 40564.48, 40564.48, 0.23489511, 9.998578, 10.003207 
7.118675e+2, 1.7299591e+2, -1246300.9, -1292729.0, 18051.06, 0.24453638, -0.25419128, -1240108.6, 4507.135, 0.39540657, 9.982795, 9.976011 
7.112596e+2, 1.829719e+2, -1149857.1, -1168116.4, 20077.701, 0.14381959, -0.3283921, -1136930.9, 9920.763, 0.36718786, 9.9815645, 9.978487 
7.106533e+2, 1.9295043e+2, -1065418.3, -1067302.1, 17092.29, 0.20809533, -0.41967005, -1049242.0, -180.34032, 0.33893153, 9.980024, 9.979395 
7.100468e+2, 2.029292e+2, -970112.3, -976337.06, 3069.5647, 0.19563788, -0.45599395, -968853.3, -17583.848, 0.30843756, 9.980018, 9.979088 
7.094369e+2, 2.1291012e+2, -827761.8, -853159.4, -11939.164, -0.0068787714, -0.29198033, -823030.6, 30426.867, 0.27872118, 9.983756, 9.979375 
7.0882815e+2, 2.2288938e+2, -737083.1, -807861.3, -23117.43, -0.13284002, -0.15188882, -730201.6, 25460.027, 0.25777575, 9.985109, 9.975182 
7.082204e+2, 2.328624e+2, -700228.8, -766080.44, 1410.0782, -0.041592587, -0.20532908, -700198.6, -42272.516, 0.25583395, 9.981522, 9.972647 
7.0761377e+2, 2.4283598e+2, -567556.9, -599359.1, -1124.1608, -0.0029499237, -0.26892012, -567517.2, -7333.024, 0.28053614, 9.981472, 9.977259 
7.070025e+2, 2.528143e+2, -378771.3, -435958.34, -20172.096, -0.063516565, -0.31644, -372371.94, 90022.06, 0.3342867, 9.989994, 9.979095 
7.2427905e+2, 1.3370053e+2, -1614150.9, -1660776.0, 9575.997, 0.3259605, -0.3212282, -1612260.8, 17450.373, 0.3865402, 9.984845, 9.977174 
7.2367287e+2, 1.4367694e+2, -1503643.3, -1560909.4, 8268.674, 0.19675338, -0.31910118, -1502473.3, 29469.168, 0.3205506, 9.985958, 9.976403 
7.230652e+2, 1.5365455e+2, -1418948.5, -1471260.0, 11527.76, 0.16067754, -0.22915383, -1416520.9, 17642.102, 0.26355705, 9.984366, 9.976548 
7.224566e+2, 1.636309e+2, -1338860.8, -1376964.0, 8250.466, 0.086868286, -0.26615638, -1337151.0, -755.6696, 0.22259246, 9.982392, 9.9772215 
7.218493e+2, 1.7360836e+2, -1245909.9, -1282283.8, 8204.643, 0.17934647, -0.2515234, -1244144.9, -5527.989, 0.19628097, 9.982148, 9.977085 
7.212417e+2, 1.8358628e+2, -1145896.3, -1177091.8, 7749.843, 0.20150249, -0.18109362, -1144077.0, -3242.4963, 0.17793316, 9.981983, 9.9776945 
7.2063255e+2, 1.9356595e+2, -1050686.6, -1081385.9, 3311.754, 0.08574567, 0.00029059284, -1050333.5, -7297.476, 0.16172512, 9.981897, 9.977635 
7.200258e+2, 2.035427e+2, -972155.25, -1021727.8, 6416.93, 0.035652418, 0.029176084, -971338.06, -26073.266, 0.1447753, 9.981965, 9.975184 
7.1942157e+2, 2.1351531e+2, -863574.2, -925396.9, 894.8354, 0.090408504, -0.19646908, -863561.25, -16029.113, 0.12793164, 9.983088, 9.974667 
7.188148e+2, 2.2349054e+2, -730617.0, -766525.9, -27789.111, 0.07419405, -0.30532274, -715486.75, 34286.45, 0.11530951, 9.983346, 9.9787035 
7.1820176e+2, 2.334702e+2, -650023.8, -677665.6, -18564.787, -0.050708663, -0.2452888, -640700.25, 11269.665, 0.11265151, 9.982103, 9.978432 
7.175941e+2, 2.4344559e+2, -596648.25, -683546.94, 9424.855, -0.15930593, -0.21065381, -595637.8, -41428.125, 0.1247194, 9.982879, 9.971202 
7.169913e+2, 2.5341576e+2, -431874.28, -567269.06, -688.2062, -0.2137796, -0.22550082, -431870.78, 24631.59, 0.15456301, 9.988686, 9.970086 
7.163862e+2, 2.633858e+2, -272803.56, -419205.47, -72386.5, -0.1357837, -0.28309909, -243057.03, 115739.336, 0.20321052, 9.992449, 9.971823 
7.1576726e+2, 2.7335697e+2, -171455.8, -307031.1, -59820.438, 0.087187804, -0.3835449, -148835.2, 112245.42, 0.26913208, 9.993159, 9.972263 
7.151594e+2, 2.8333682e+2, -197967.64, -215213.83, 5006.4976, -0.36990133, 0.12274799, -196619.63, -33339.086, 0.3435163, 9.980604, 9.979087 
7.3486394e+2, 1.2432771e+2, -1700886.5, -1702502.8, 1707.7395, 0.27507693, -0.17234793, -1699805.4, 21765.783, 0.3249303, 9.983217, 9.982825 
7.342606e+2, 1.3430591e+2, -1635996.3, -1671709.1, -3120.5337, 0.26831812, -0.17060567, -1635725.6, -11942.861, 0.2589689, 9.982475, 9.9777355 
7.3365533e+2, 1.4428401e+2, -1530442.9, -1556135.3, -9157.636, 0.23772198, -0.16991994, -1527512.9, -1516.0199, 0.19364516, 9.982218, 9.978838 
7.3304814e+2, 1.5426278e+2, -1425667.6, -1458389.6, -6545.7354, 0.19576019, -0.17561273, -1424406.8, 3799.1921, 0.13979182, 9.982899, 9.978378 
7.324403e+2, 1.6424045e+2, -1326397.8, -1371406.6, -6803.7417, 0.17352557, -0.17240952, -1325391.8, 5033.7734, 0.103773825, 9.9834585, 9.977264 
7.318324e+2, 1.742176e+2, -1224741.1, -1274274.5, -5923.4365, 0.18370742, -0.18157741, -1224042.6, 8607.0625, 0.0834387, 9.983849, 9.977001 
7.3122454e+2, 1.8419449e+2, -1122299.4, -1179815.1, -5304.119, 0.14926082, -0.1585724, -1121814.4, 13062.587, 0.071988575, 9.984418, 9.9765625 
7.3061633e+2, 1.9417179e+2, -1012544.7, -1079191.3, -8860.194, 0.04044272, -0.08517825, -1011386.94, 25714.182, 0.06378329, 9.985459, 9.976303 
7.300095e+2, 2.041476e+2, -926493.0, -1005199.9, -7570.7817, 0.00019231753, -0.051630896, -925771.4, 13567.854, 0.056026682, 9.98536, 9.974799 
7.294045e+2, 2.1412152e+2, -857366.5, -927927.7, -2216.2332, 0.0660242, -0.12037793, -857296.94, -15701.889, 0.04849255, 9.983684, 9.974181 
7.28798e+2, 2.2409594e+2, -736739.4, -790416.6, -24472.03, 0.07658575, -0.19037536, -727257.3, 16586.748, 0.042768106, 9.983743, 9.97681 
7.28187e+2, 2.3407291e+2, -593634.94, -670585.06, -35751.637, -0.010949742, -0.22205624, -579588.44, 66477.875, 0.04136601, 9.987002, 9.977005 
7.275798e+2, 2.4404718e+2, -542195.75, -665297.44, -20677.297, -0.11521538, -0.2067347, -538815.44, 9501.43, 0.04668163, 9.986837, 9.9709835 
7.2697586e+2, 2.5401777e+2, -532254.4, -625321.0, 6267.7134, -0.19710745, -0.16339204, -531834.2, -81227.96, 0.060998984, 9.981597, 9.969427 
7.2637105e+2, 2.6398695e+2, -435215.2, -514458.4, -39816.97, -0.15045986, -0.21200097, -418665.06, -65756.11, 0.08668922, 9.979807, 9.970822 
7.2575635e+2, 2.7395672e+2, -229746.2, -349987.53, -47066.977, 0.011994391, -0.38563466, -213513.78, 41691.105, 0.12507357, 9.986915, 9.9721775 
7.251478e+2, 2.839261e+2, -142881.03, -342598.1, -9501.063, -0.050608896, -0.35877684, -142430.06, 15074.5205, 0.17244461, 9.989925, 9.965156 
7.2454345e+2, 2.9389334e+2, -74850.805, -251181.6, -13520.966, -0.20999627, -0.10369704, -73820.055, -13995.719, 0.21827723, 9.987318, 9.966118 
7.239586e+2, 3.0385482e+2, -181455.31, -314757.1, 48080.516, 0.4494044, -0.52832687, -165923.02, -165923.02, 0.25157216, 9.979036, 9.963448 
7.233643e+2, 3.1382123e+2, -52901.063, 49073.086, -64050.695, -0.5669822, -0.2458385, 79952.81, 79952.81, 0.26991543, 9.973543, 9.991317 
7.448473e+2, 1.249319e+2, -1708610.9, -1730168.6, 2414.6492, 0.30498332, -0.053535204, -1708343.8, 7310.141, 0.23778464, 9.9832, 9.979966 
7.4424344e+2, 1.3491032e+2, -1612793.1, -1639983.6, 4588.9634, 0.28128558, -0.19476049, -1612039.6, 5823.7524, 0.17852762, 9.983248, 9.979345 
7.436382e+2, 1.4488912e+2, -1518488.0, -1545771.0, -5558.8247, 0.28603652, -0.2165695, -1517398.9, 2671.7715, 0.12097202, 9.982889, 9.979165 
7.43032e+2, 1.5486898e+2, -1424785.3, -1453100.1, -9486.736, 0.3019225, -0.14828768, -1421900.6, 368.89404, 0.07492237, 9.982737, 9.97889 
7.424245e+2, 1.6484725e+2, -1328615.1, -1371328.9, -12687.822, 0.25985506, -0.12743181, -1325130.5, -647.76074, 0.045666836, 9.983246, 9.97752 
7.418161e+2, 1.7482454e+2, -1219067.1, -1271994.4, -12293.509, 0.16385797, -0.14477155, -1216351.1, 10353.833, 0.030717533, 9.984255, 9.977102 
7.412085e+2, 1.8480048e+2, -1122013.9, -1190927.5, -8712.327, 0.088397905, -0.17502151, -1120929.5, 8011.437, 0.023817481, 9.984929, 9.975677 
7.406016e+2, 1.9477554e+2, -1019451.1, -1095210.6, -8877.553, 0.023470633, -0.2281769, -1018424.75, 12761.6, 0.020068228, 9.985485, 9.975262 
7.3999465e+2, 2.0475106e+2, -926533.0, -1002102.9, -15450.2705, -0.008383254, -0.18198422, -923496.2, 9931.412, 0.017150575, 9.985101, 9.97511 
7.393876e+2, 2.1472748e+2, -852278.2, -921644.06, -12059.444, 0.009429784, -0.041541647, -850241.4, -14581.173, 0.014528557, 9.983798, 9.974546 
7.3878145e+2, 2.2470129e+2, -755429.94, -836756.1, -17459.967, 0.032703836, -0.045762304, -751839.94, -13923.919, 0.012602996, 9.984189, 9.973546 
7.3817474e+2, 2.346733e+2, -621325.75, -726253.44, -23463.434, 0.04841537, -0.2012212, -616318.0, 23868.336, 0.012211071, 9.986959, 9.973256 
7.375675e+2, 2.4464655e+2, -519168.94, -619573.4, -37907.184, -0.0058078165, -0.22493595, -506464.75, 35982.363, 0.014326585, 9.986674, 9.974031 
7.3695815e+2, 2.5462145e+2, -481978.88, -556604.94, -21883.479, -0.11562969, -0.123431325, -476035.13, -31341.1, 0.020233296, 9.982829, 9.973444 
7.363517e+2, 2.6459283e+2, -420761.44, -528041.25, -28012.563, -0.114975534, -0.09613533, -413887.34, -66912.22, 0.031727493, 9.982128, 9.969014 
7.3574334e+2, 2.7456135e+2, -231200.75, -378614.1, -28364.412, -0.025885146, -0.1576696, -225931.39, 23352.129, 0.050359745, 9.988196, 9.969763 
7.3513675e+2, 2.8452882e+2, -140426.31, -347703.5, -12847.056, -0.16403429, -0.14278233, -139633.08, 11969.092, 0.07518295, 9.990416, 9.96441 
7.3453015e+2, 2.9449415e+2, -55185.66, -248065.9, -8680.694, -0.4324624, -0.04723506, -54795.77, -853.39764, 0.10165689, 9.989108, 9.965169 
7.339395e+2, 3.0445698e+2, -94602.336, -258883.63, 44856.51, 0.1303206, -0.26114118, -83152.42, -83152.42, 0.12433409, 9.9843645, 9.963825 
7.3334146e+2, 3.1442353e+2, -3020.7004, 101454.55, -86553.71, -0.4060224, -0.06829553, 150312.5, 150312.5, 0.14100897, 9.975705, 9.992116 
7.548322e+2, 1.2553608e+2, -1684946.0, -1712633.5, 788.66077, 0.38579106, -0.102357954, -1684923.5, 24811.914, 0.1749869, 9.984804, 9.9804125 
7.5422746e+2, 1.3551539e+2, -1588425.4, -1622161.3, -131.69444, 0.2617103, -0.20274721, -1588424.9, 23511.633, 0.1261471, 9.984845, 9.979833 
7.536214e+2, 1.4549449e+2, -1501990.8, -1546679.1, -11189.101, 0.21377118, -0.18161272, -1499345.8, 14796.176, 0.07953501, 9.984484, 9.978384 
7.530146e+2, 1.5547395e+2, -1409352.6, -1454763.9, -14488.26, 0.21780899, -0.072267465, -1405124.0, 11221.389, 0.04320715, 9.984203, 9.978127 
7.5240755e+2, 1.654517e+2, -1309661.4, -1363646.5, -13449.517, 0.16655107, -0.06578997, -1306496.3, 12067.447, 0.021097858, 9.984662, 9.977483 
7.518003e+2, 1.7542839e+2, -1199763.4, -1264507.8, -14444.349, 0.07042465, -0.13723375, -1196687.0, 24103.777, 0.010665256, 9.985685, 9.97705 
7.5119394e+2, 1.854046e+2, -1099964.1, -1178440.9, -11607.6, 0.056550495, -0.15194935, -1098283.3, 24740.877, 0.0065929485, 9.986345, 9.97594 
7.505885e+2, 1.9538061e+2, -999189.7, -1083792.6, -9537.3545, 0.10054809, -0.13376684, -998127.9, 27132.55, 0.0049681594, 9.986747, 9.975484 
7.499813e+2, 2.0535605e+2, -909563.2, -995251.3, -18999.95, 0.08648684, -0.10334854, -905539.2, 21962.691, 0.0040453575, 9.986171, 9.975056 
7.493724e+2, 2.1533158e+2, -830198.94, -912241.94, -16227.126, 0.039440617, -0.046253186, -827106.0, 2635.9766, 0.0033368617, 9.985173, 9.97454 
7.487661e+2, 2.2530498e+2, -740453.75, -837660.9, -4799.967, 0.007953126, -0.060793754, -740217.3, -8215.604, 0.0028595282, 9.985532, 9.972873 
7.48161e+2, 2.3527674e+2, -625015.9, -736786.4, -114.54163, -0.0111138355, -0.16118217, -625015.75, 9259.961, 0.0028213526, 9.986988, 9.972372 
7.475545e+2, 2.452487e+2, -510252.2, -634297.7, -23246.672, -0.038554437, -0.17689556, -506038.78, 30510.957, 0.003545014, 9.987852, 9.972294 
7.469452e+2, 2.5522184e+2, -393408.8, -527923.56, -30519.219, -0.077878915, -0.109837286, -386808.34, 52005.56, 0.005587351, 9.989193, 9.972494 
7.4633795e+2, 2.651932e+2, -326734.06, -481839.28, -32042.443, -0.08919784, -0.07376953, -320375.25, 20719.48, 0.009856285, 9.988367, 9.969508 
7.457304e+2, 2.7516267e+2, -254335.19, -393388.9, -20335.182, -0.081186555, -0.07713573, -251422.39, -8029.336, 0.017308343, 9.986479, 9.969709 
7.451244e+2, 2.8513032e+2, -199284.75, -366966.4, -2846.775, -0.21379372, -0.06980089, -199236.42, -53525.723, 0.028034307, 9.985752, 9.965231 
7.445179e+2, 2.950957e+2, -87531.66, -260297.7, 4783.196, -0.43977144, -0.050128102, -87399.336, -39348.098, 0.040659774, 9.986607, 9.965342 
7.439214e+2, 3.050615e+2, -63093.195, -214327.25, 43887.03, -0.11998311, -0.06704464, -51280.215, -51280.215, 0.05306769, 9.984834, 9.966099 
7.433217e+2, 3.150269e+2, -50377.055, -104170.07, -65186.84, -0.15252782, -0.15126215, -6755.8594, -6755.8594, 0.063863374, 9.980392, 9.973948 
7.648174e+2, 1.261414e+2, -1674532.1, -1710877.6, 306.58658, 0.4071159, -0.07841345, -1674529.5, 29278.246, 0.12768435, 9.985551, 9.980106 
7.642116e+2, 1.3612099e+2, -1597687.6, -1629516.9, -4173.8286, 0.23859203, -0.1251652, -1597149.4, 8856.61, 0.08972423, 9.984096, 9.979687 
7.6360524e+2, 1.4610024e+2, -1505832.4, -1548058.0, -9395.993, 0.17825435, -0.08914942, -1503835.9, 4374.066, 0.05413508, 9.984162, 9.978429 
7.629988e+2, 1.5607949e+2, -1395704.5, -1448883.6, -7414.388, 0.18122613, 0.004652229, -1394690.1, 15725.3125, 0.0270741, 9.985208, 9.977935 
7.623919e+2, 1.6605662e+2, -1300939.0, -1362813.5, -4754.1978, 0.11624966, -0.014540402, -1300575.9, 12063.477, 0.011199405, 9.985447, 9.977057 
7.617852e+2, 1.7603263e+2, -1206795.0, -1270066.6, -7869.2583, 0.01280227, -0.117121466, -1205830.9, 9041.916, 0.004158356, 9.985333, 9.976783 
7.611799e+2, 1.8600915e+2, -1105375.8, -1177643.8, -7493.977, 0.041850794, -0.10257346, -1104606.8, 12496.251, 0.0017335946, 9.98587, 9.976193 
7.6057583e+2, 1.9598618e+2, -998862.9, -1080286.1, -9017.389, 0.16065697, -0.011416558, -997876.2, 21453.328, 0.0010015271, 9.986641, 9.975767 
7.599683e+2, 2.0596135e+2, -901660.1, -993441.4, -24578.084, 0.16216713, -0.013635846, -895492.75, 26080.115, 0.0007324721, 9.986761, 9.974912 
7.593583e+2, 2.1593559e+2, -807568.56, -902211.56, -23989.34, 0.078030266, -0.0772549, -801835.25, 21989.203, 0.0005793407, 9.986754, 9.974519 
7.587517e+2, 2.2590911e+2, -720858.25, -825596.0, -8329.124, -0.015533582, -0.09440601, -720200.06, 5882.7847, 0.00049151963, 9.986869, 9.973199 
7.5814706e+2, 2.3588224e+2, -622782.9, -734744.2, -7345.107, -0.11198844, -0.096249186, -622303.06, 6041.9595, 0.0005044383, 9.987182, 9.972584 
7.575417e+2, 2.4585277e+2, -535881.25, -681733.9, -25323.898, -0.114763, -0.10607225, -531609.44, -975.7396, 0.00070490706, 9.987741, 9.969238 
7.569347e+2, 2.5582206e+2, -416899.53, -571487.4, -30069.635, -0.05580734, -0.11314564, -411256.53, 21679.135, 0.0012774945, 9.989069, 9.96959 
7.563264e+2, 2.6579267e+2, -312199.06, -452348.22, -39868.383, -0.081369236, -0.11109369, -301651.47, 33571.508, 0.0025585985, 9.988425, 9.971372 
7.5571597e+2, 2.7576393e+2, -239227.39, -368565.0, -28723.727, -0.16754247, -0.118089795, -233135.28, 4367.326, 0.004975225, 9.98681, 9.97113 
7.5511074e+2, 2.857325e+2, -183960.55, -341342.38, 408.13034, -0.17699547, -0.1348793, -183959.5, -44148.94, 0.008782794, 9.986301, 9.966634 
7.5450796e+2, 2.9569918e+2, -70859.06, -231982.22, 9517.443, -0.13835865, -0.13407466, -70298.82, -28159.287, 0.01378169, 9.987149, 9.9669075 
7.539057e+2, 3.056696e+2, -17336.209, -132844.88, 34413.848, -0.21787117, -0.010455742, -7860.5195, -7860.5195, 0.019335866, 9.985464, 9.97103 
7.5330275e+2, 3.156427e+2, 30820.502, 24532.432, -633.5375, -0.25743222, 0.1904875, 30883.697, 30883.697, 0.024754599, 9.982989, 9.981845 
7.7480364e+2, 1.2674771e+2, -1652450.5, -1706042.9, -5255.1924, 0.37377045, 0.062309008, -1651940.1, 45931.867, 0.090957634, 9.9871645, 9.979606 
7.7419615e+2, 1.3672622e+2, -1582751.0, -1625047.6, -7639.645, 0.22488257, -0.046046067, -1581413.4, 18667.559, 0.06282217, 9.985114, 9.979454 
7.7359045e+2, 1.4670563e+2, -1482149.6, -1523494.1, -1875.5522, 0.22602257, -0.051227912, -1482064.8, 20217.434, 0.036900125, 9.985252, 9.979598 
7.7298594e+2, 1.5668558e+2, -1371576.6, -1427453.5, 233.91429, 0.2975592, -0.0016350037, -1371575.6, 32903.203, 0.017632255, 9.986425, 9.978799 
7.723791e+2, 1.6666281e+2, -1289717.6, -1364382.8, -1309.9315, 0.22765842, -0.01164402, -1289694.6, 17006.746, 0.006673812, 9.986391, 9.976439 
7.7177155e+2, 1.7663874e+2, -1200514.1, -1272523.8, -2792.0586, 0.089389116, -0.062006935, -1200406.1, 8530.098, 0.002032905, 9.985877, 9.976301 
7.711659e+2, 1.8661496e+2, -1099033.6, -1176633.8, 2497.971, 0.03243366, -0.048419118, -1098953.4, 12215.8125, 0.00056122366, 9.986334, 9.97602 
7.7056146e+2, 1.9659145e+2, -991684.56, -1080369.6, -417.77975, 0.033411004, 0.005273796, -991682.6, 21717.738, 0.0001932923, 9.987187, 9.975477 
7.699549e+2, 2.0656559e+2, -891688.56, -1004172.2, -15644.259, 0.064049914, -0.011821406, -889553.3, 26100.586, 0.00010584494, 9.988043, 9.973578 
7.6934695e+2, 2.1653856e+2, -778526.3, -902851.44, -18665.547, 0.0912207, -0.07384101, -775784.44, 42133.84, 0.000076245175, 9.989275, 9.973315 
7.6874036e+2, 2.2651115e+2, -703045.75, -831349.2, -14372.969, 0.0424349, -0.06965903, -701455.3, 18731.389, 0.00006379591, 9.988463, 9.972112 
7.6813453e+2, 2.3648368e+2, -637103.75, -752666.56, -18706.309, -0.046159, -0.03294904, -634151.2, -11695.171, 0.00006994779, 9.986393, 9.971911 
7.6752836e+2, 2.4645466e+2, -561690.1, -684800.25, -22520.002, -0.09014826, -0.032449868, -557700.0, -32959.555, 0.00011314617, 9.985416, 9.970258 
7.6692146e+2, 2.5642455e+2, -462690.3, -586738.2, -12080.028, -0.09325233, -0.05302787, -461524.88, -34489.363, 0.00023984464, 9.985463, 9.970114 
7.6631343e+2, 2.66395e+2, -340326.13, -465837.13, -19764.984, -0.11880726, -0.07672693, -337287.2, -7963.4, 0.0005451831, 9.986404, 9.971194 
7.6570356e+2, 2.7636594e+2, -217317.75, -359401.25, -20696.063, -0.17319784, -0.111269906, -214364.52, 17241.521, 0.0011775581, 9.988288, 9.970988 
7.650982e+2, 2.8633496e+2, -153418.28, -315122.22, -3577.498, -0.13705038, -0.12629868, -153339.17, -19429.375, 0.0022895252, 9.987788, 9.967717 
7.644953e+2, 2.9630294e+2, -85591.13, -225871.67, -1.3740437, -0.033825707, -0.110045426, -85591.13, -49365.46, 0.0039269878, 9.985487, 9.968213 
7.6388955e+2, 3.0627516e+2, -28464.408, -112332.54, -405.76797, -0.28209487, 0.0015902716, -28462.445, -28462.445, 0.005943759, 9.983556, 9.973555 
7.6328367e+2, 3.1624606e+2, 9869.271, 5496.037, 10528.791, -0.4677041, -0.27603206, 18436.105, 18436.105, 0.0080681555, 9.982764, 9.98185 
7.847897e+2, 1.2735379e+2, -1675996.3, -1719756.0, -6381.647, 0.36880478, 0.11331892, -1675084.5, 16852.176, 0.062321946, 9.985389, 9.9795065 
7.841821e+2, 1.3733219e+2, -1557285.1, -1612730.9, -5773.5107, 0.24132508, 0.009121283, -1556690.4, 37457.035, 0.04246114, 9.986929, 9.979336 
7.835769e+2, 1.4731137e+2, -1451445.0, -1507940.1, -2457.1638, 0.26020902, -0.016306646, -1451338.4, 45012.074, 0.024464376, 9.987416, 9.9796715 
7.829733e+2, 1.5729117e+2, -1355175.9, -1418440.9, -10134.41, 0.34978223, -0.0023511348, -1353592.1, 44955.34, 0.011362962, 9.987541, 9.979067 
7.8236634e+2, 1.6726872e+2, -1274214.3, -1357001.0, -13250.374, 0.28352407, -0.0017538847, -1272145.1, 28621.34, 0.0041075577, 9.987457, 9.976574 
7.817584e+2, 1.7724511e+2, -1179151.5, -1262763.6, -8548.987, 0.14088967, -0.0110816015, -1178286.3, 24710.652, 0.0011429207, 9.987377, 9.976312 
7.811524e+2, 1.8722114e+2, -1085988.3, -1172658.4, 178.21928, 0.019165283, -0.010521734, -1085987.9, 19243.707, 0.0002519489, 9.98738, 9.975869 
7.805475e+2, 1.97197e+2, -992229.1, -1085362.3, -4244.6104, -0.085941225, -0.004118937, -992036.06, 15432.194, 0.000051009934, 9.987407, 9.975125 
7.7994204e+2, 2.0717034e+2, -901511.6, -1022328.75, -14582.565, -0.027405228, -0.01773945, -899776.44, 9953.464, 0.0000146237135, 9.988057, 9.972413 
7.7933633e+2, 2.171424e+2, -790056.25, -922353.6, -16455.8, 0.1005145, -0.04881346, -788040.1, 23963.906, 0.0000078753865, 9.989153, 9.972057 
7.7872944e+2, 2.2711392e+2, -706938.25, -846990.25, -18339.35, 0.11122442, -0.024866909, -704576.6, 9707.391, 0.000006298815, 9.988716, 9.970799 
7.781221e+2, 2.3708528e+2, -625313.44, -753114.8, -19786.775, 0.06318638, 0.02433056, -622320.06, -5754.2495, 0.0000076044057, 9.987406, 9.971222 
7.775144e+2, 2.4705751e+2, -526770.44, -640717.1, -19134.87, -0.047543075, 0.04283738, -523643.0, -4805.1206, 0.000014711, 9.98672, 9.972543 
7.7690625e+2, 2.5702992e+2, -435946.47, -553707.06, -12257.112, -0.17687914, 0.04138641, -434684.22, -13576.326, 0.000036601952, 9.986527, 9.971826 
7.7629954e+2, 2.6700005e+2, -341450.16, -479994.16, -14464.346, -0.16878006, -0.003484634, -339956.16, -16557.477, 0.000094576644, 9.987162, 9.969876 
7.756927e+2, 2.769693e+2, -224622.23, -376523.3, -16236.852, -0.10686292, -0.07122676, -222906.05, 2791.7188, 0.00022962714, 9.988591, 9.969657 
7.7508605e+2, 2.8693843e+2, -150629.45, -307372.88, -12077.714, -0.13075113, -0.03349599, -149704.28, -21703.72, 0.0004979726, 9.98774, 9.968112 
7.744793e+2, 2.9690748e+2, -85776.055, -226018.28, -7587.4556, -0.18614672, 0.06064978, -85366.75, -55061.934, 0.00093687244, 9.985526, 9.968026 
7.7387387e+2, 3.0687535e+2, -42240.15, -145595.61, -10084.818, -0.22512826, -0.10198184, -41265.33, -41265.33, 0.0015201732, 9.9838915, 9.970997 
7.7326864e+2, 3.168451e+2, -11763.67, -34659.32, -464.03787, -0.25355563, -0.24045368, -11754.269, -11754.269, 0.0021659231, 9.982556, 9.979284 
7.9477614e+2, 1.2795936e+2, -1654245.9, -1705909.5, 5323.6025, 0.39496675, 0.06724257, -1653703.0, 32301.084, 0.04048696, 9.986752, 9.979783 
7.941703e+2, 1.3793927e+2, -1539577.3, -1606714.3, 4413.547, 0.29246208, 0.09334957, -1539288.4, 48912.727, 0.027255554, 9.988201, 9.979113 
7.935649e+2, 1.4791735e+2, -1446330.3, -1525501.5, 2791.4004, 0.24385272, 0.07377392, -1446232.0, 44183.84, 0.015450947, 9.988477, 9.977944 
7.929603e+2, 1.5789513e+2, -1347223.3, -1425128.5, -7157.999, 0.23098654, 0.045580838, -1346571.0, 46062.113, 0.0070204185, 9.988393, 9.978206 
7.923534e+2, 1.678731e+2, -1250314.6, -1330707.3, -8785.14, 0.17966986, 0.031180024, -1249365.8, 45482.023, 0.00246143, 9.98832, 9.977952 
7.917462e+2, 1.7785075e+2, -1156045.5, -1242274.6, -2513.31, 0.10392186, 0.019100467, -1155972.3, 41092.99, 0.0006538381, 9.988413, 9.977183 
7.911407e+2, 1.8782653e+2, -1077426.6, -1175511.8, 4567.5796, 0.056435697, -0.0042264443, -1077214.4, 22087.73, 0.00013178353, 9.988083, 9.975313 
7.9053605e+2, 1.9780158e+2, -990228.6, -1089032.8, 13.549609, 0.0155943865, -0.025895506, -990228.6, 11317.749, 0.000020834326, 9.987561, 9.974799 
7.899304e+2, 2.077756e+2, -899852.6, -1017822.7, -3242.644, 0.01943292, 0.018563746, -899763.56, 4038.6702, 0.0000030681954, 9.9879, 9.972782 
7.8932464e+2, 2.1774884e+2, -792225.56, -918092.5, -1580.5305, 0.05280755, 0.07263192, -792205.7, 13860.278, 0.00000076210307, 9.988625, 9.972511 
7.887176e+2, 2.2772075e+2, -695399.94, -832028.44, 590.22015, 0.0378807, 0.069487706, -695397.4, 12944.421, 0.000000486163, 9.988921, 9.971488 
7.881102e+2, 2.3769203e+2, -593760.5, -731987.9, 6406.2773, 0.0013103543, 0.055733263, -593464.2, 17159.152, 0.00000065729967, 9.989131, 9.971471 
7.875026e+2, 2.4766386e+2, -492445.4, -629272.44, 3313.389, -0.0703425, 0.0694734, -492365.22, 20533.998, 0.0000015494635, 9.989158, 9.971855 
7.8689456e+2, 2.5763586e+2, -400276.72, -542203.06, -1944.8888, -0.16208868, 0.085265934, -400250.06, 14922.679, 0.0000045384913, 9.9890585, 9.971285 
7.8628737e+2, 2.676053e+2, -333598.03, -484484.4, -7407.83, -0.15827923, 0.03923012, -333235.22, -15764.339, 0.000013540665, 9.987933, 9.969112 
7.8568023e+2, 2.7757373e+2, -258668.4, -400492.03, -6966.705, -0.105520025, -0.03259693, -258327.0, -38548.035, 0.000037640413, 9.986485, 9.968911 
7.850726e+2, 2.8754306e+2, -169243.81, -310805.9, -7486.1514, -0.16203384, 0.043000568, -168849.03, -46769.76, 0.00009151296, 9.98613, 9.968466 
7.8446406e+2, 2.9751286e+2, -77348.03, -218461.55, -3255.4268, -0.27053952, 0.17424268, -77272.97, -52897.0, 0.0001871887, 9.985859, 9.968203 
7.838585e+2, 3.0747846e+2, -30065.66, -142441.22, 6509.915, -0.18660173, -0.19372995, -29689.797, -29689.797, 0.00032093655, 9.984658, 9.970479 
7.8325003e+2, 3.1745347e+2, 8441.81, -22819.59, 23932.508, -0.39300156, 0.26763284, 21395.785, 21395.785, 0.00047361729, 9.983405, 9.979102 
8.047635e+2, 1.285632e+2, -1628444.9, -1680565.4, -16247.96, 0.40543997, 0.047256205, -1623794.6, 56294.406, 0.024554512, 9.988035, 9.981261 
8.041582e+2, 1.38545e+2, -1544909.8, -1603654.4, -10872.825, 0.2943053, 0.13640165, -1542962.0, 39305.65, 0.016354568, 9.987603, 9.979853 
8.0355245e+2, 1.4852329e+2, -1471002.3, -1542840.9, -3859.0774, 0.21704943, 0.13389768, -1470795.6, 13685.608, 0.009139995, 9.986999, 9.977552 
8.029471e+2, 1.5850054e+2, -1374558.1, -1439360.0, -3697.3694, 0.15432666, 0.09798375, -1374347.9, 12356.806, 0.0040751924, 9.98657, 9.978033 
8.023406e+2, 1.6847888e+2, -1263258.3, -1327848.6, -6108.7207, 0.11916605, 0.0776153, -1262685.6, 26229.867, 0.0013936984, 9.98708, 9.978727 
8.0173427e+2, 1.7845726e+2, -1161300.8, -1240042.6, -6116.9023, 0.0909161, 0.059739515, -1160828.4, 30297.107, 0.00035817633, 9.987881, 9.977659 
8.011293e+2, 1.8843277e+2, -1076737.6, -1180072.4, -606.5304, 0.10124067, 0.018929923, -1076734.1, 16630.45, 0.0000688692, 9.988345, 9.974925 
8.005249e+2, 1.9840728e+2, -977551.6, -1084382.8, -2985.6125, 0.1188643, -0.020586113, -977468.25, 18145.652, 0.000009974742, 9.988502, 9.974686 
7.999189e+2, 2.083822e+2, -888750.56, -1004831.8, -3283.0676, 0.060884118, 0.07313426, -888657.8, 9203.869, 0.0000011238343, 9.988389, 9.973472 
7.9931253e+2, 2.1835689e+2, -789248.44, -905838.9, -2666.32, -0.014291901, 0.19535978, -789187.5, 10924.791, 0.00000012097443, 9.98842, 9.973486 
7.987055e+2, 2.283297e+2, -690097.0, -813851.4, -1894.1852, -0.06525081, 0.15580292, -690068.06, 12310.233, 0.000000032928632, 9.988677, 9.97288 
7.980982e+2, 2.3830153e+2, -593391.5, -726398.44, 3161.9683, -0.10799456, 0.072315685, -593316.4, 11336.548, 0.000000045541494, 9.988989, 9.971961 
7.974914e+2, 2.4827242e+2, -505005.75, -653156.1, -156.45328, -0.104133636, 0.078519896, -505005.6, 1932.223, 0.00000013358955, 9.989141, 9.97025 
7.9688436e+2, 2.582429e+2, -410696.97, -563055.6, -6148.8633, -0.09538107, 0.10554067, -410449.22, -1222.7125, 0.00000047473182, 9.989086, 9.969827 
7.9627556e+2, 2.6821148e+2, -336969.28, -491674.94, -14077.52, -0.12841862, 0.06576442, -335698.72, -24164.896, 0.0000016961917, 9.98797, 9.968513 
7.956662e+2, 2.781794e+2, -260957.92, -405832.3, -10363.225, -0.1654079, 0.007525446, -260220.38, -46373.004, 0.0000054820734, 9.986579, 9.968414 
7.950583e+2, 2.881488e+2, -166340.19, -306288.44, -7811.239, -0.22022465, 0.099752545, -165905.55, -49758.41, 0.000014818332, 9.986337, 9.9686 
7.9445e+2, 2.9811877e+2, -65321.33, -199909.0, -4846.8667, -0.29084763, 0.22382613, -65147.004, -46705.574, 0.00003237979, 9.986251, 9.9691925 
7.9384303e+2, 3.0808592e+2, -4504.3135, -95593.58, 1433.923, -0.21913964, -0.2180843, -4481.7466, -4481.7466, 0.000057708086, 9.984974, 9.973372 
7.932342e+2, 3.1806254e+2, -3529.5757, -50837.03, 24645.223, -0.33575594, 0.20719995, 6976.4077, 6976.4077, 0.00008710587, 9.983632, 9.976925 
8.1475204e+2, 1.2916467e+2, -1597816.5, -1641468.9, -11340.804, 0.3920952, 0.039223082, -1595046.0, 79151.57, 0.013656359, 9.988881, 9.983435 
8.1414545e+2, 1.3914816e+2, -1523436.6, -1572215.3, -6884.127, 0.2319176, 0.08888906, -1522483.8, 53874.895, 0.00901513, 9.987973, 9.981718 
8.1353927e+2, 1.4912865e+2, -1455717.3, -1515569.4, 1751.3773, 0.20081478, 0.13066065, -1455666.0, 22885.395, 0.0049783196, 9.986987, 9.979325 
8.1293386e+2, 1.591081e+2, -1369801.8, -1426931.1, 6086.456, 0.19890605, 0.15677023, -1369160.5, 11593.778, 0.0021846793, 9.986289, 9.978912 
8.1232804e+2, 1.6908641e+2, -1270602.3, -1339488.1, 7571.642, 0.1804251, 0.15126431, -1269779.9, 13186.864, 0.0007317571, 9.986813, 9.978018 
8.1172264e+2, 1.7906421e+2, -1164873.9, -1246764.1, 5521.983, 0.15282029, 0.13908845, -1164503.3, 20680.248, 0.00018305307, 9.987733, 9.977257 
8.1111795e+2, 1.8903999e+2, -1070813.6, -1175392.9, 10800.143, 0.112850085, 0.12727734, -1069710.0, 17709.848, 0.00003398987, 9.98854, 9.9751215 
8.105135e+2, 1.9901493e+2, -964084.1, -1074622.6, 7229.401, 0.077111654, 0.111192554, -963613.3, 26051.162, 0.000004694791, 9.989103, 9.974991 
8.09907e+2, 2.0898932e+2, -882109.8, -996854.8, 4342.394, 0.025435636, 0.11105525, -881945.75, 9969.992, 0.0000004859797, 9.988418, 9.973916 
8.0930036e+2, 2.1896346e+2, -793603.0, -900913.44, 5406.2036, -0.03163243, 0.12755544, -793331.3, 838.57495, 0.000000038918042, 9.98762, 9.974145 
8.0869365e+2, 2.289373e+2, -697048.6, -808551.1, 6370.883, -0.054833468, 0.114321254, -696685.8, -260.85617, 0.0000000034650554, 9.987673, 9.973708 
8.0808693e+2, 2.3891038e+2, -607174.6, -733875.3, 8782.041, -0.07438385, 0.08495571, -606568.8, -7881.3906, 0.0000000027556377, 9.987922, 9.971991 
8.074801e+2, 2.4888043e+2, -526195.0, -677728.1, 4400.5034, -0.09666279, 0.09232291, -526067.3, -25086.355, 0.000000010823079, 9.988179, 9.969049 
8.068728e+2, 2.5884974e+2, -424466.2, -576442.9, -1992.0746, -0.11035463, 0.1090793, -424440.1, -21157.783, 0.000000051723898, 9.988291, 9.96927 
8.0626357e+2, 2.6881877e+2, -330079.28, -480443.84, -7398.4946, -0.12808655, 0.08781429, -329716.13, -24130.842, 0.00000023418887, 9.98794, 9.9691515 
8.056532e+2, 2.787874e+2, -244799.02, -394995.94, 2275.2048, -0.15786521, 0.055919517, -244764.56, -36872.62, 0.00000088235, 9.987397, 9.968525 
8.0504394e+2, 2.8875643e+2, -179509.42, -315243.9, 2290.2961, -0.23850773, 0.13596128, -179470.78, -69275.28, 0.000002602386, 9.985376, 9.968209 
8.044344e+2, 2.9872587e+2, -106434.555, -217043.67, 1664.2777, -0.3219938, 0.23116033, -106409.52, -93914.59, 0.000005960929, 9.983193, 9.969336 
8.0382717e+2, 3.086938e+2, -23776.799, -95027.7, -7579.121, -0.20908724, -0.19690423, -22979.512, -22979.512, 0.000010897215, 9.983136, 9.974353 
8.03219e+2, 3.186693e+2, -26850.635, -95848.29, 7633.113, -0.20653728, 0.08260918, -26016.285, -26016.285, 0.000016676307, 9.983417, 9.974241 
8.2473993e+2, 1.2977096e+2, -1611934.9, -1643218.1, 2724.668, 0.374113, 0.14130102, -1611699.4, 56560.695, 0.006829297, 9.987674, 9.983546 
8.2413256e+2, 1.397537e+2, -1531905.6, -1568167.3, -5275.0107, 0.2042542, 0.082806215, -1531153.9, 39273.81, 0.0044781193, 9.987045, 9.982326 
8.235264e+2, 1.4973535e+2, -1435693.3, -1491312.9, -330.6539, 0.1963905, 0.14050767, -1435691.3, 36917.59, 0.0024504783, 9.987748, 9.980622 
8.229213e+2, 1.5971641e+2, -1331896.5, -1401755.0, 980.2198, 0.22688994, 0.2059257, -1331882.8, 42913.66, 0.0010623109, 9.988625, 9.979573 
8.2231605e+2, 1.6969478e+2, -1240805.5, -1329383.9, 7233.4688, 0.2204217, 0.21224375, -1240218.8, 36790.16, 0.00035011073, 9.989102, 9.977664 
8.2171136e+2, 1.796723e+2, -1140823.1, -1237002.1, 7801.7476, 0.19468835, 0.20859139, -1140194.4, 39034.92, 0.00008574844, 9.989515, 9.977073 
8.211067e+2, 1.8964845e+2, -1058328.1, -1165893.1, 12948.726, 0.113261, 0.21963648, -1056791.4, 24670.873, 0.00001549313, 9.989287, 9.975406 
8.205021e+2, 1.9962388e+2, -962644.44, -1070057.8, 7077.495, 0.029353887, 0.22161932, -962180.1, 21521.832, 0.00000206642, 9.989044, 9.975315 
8.1989527e+2, 2.0959774e+2, -869704.56, -987137.0, 1073.0519, -0.005775708, 0.13405122, -869694.75, 16262.23, 0.0000002041928, 9.989091, 9.9742365 
8.1928825e+2, 2.1957116e+2, -769851.5, -884510.56, 2028.0306, -0.02887406, 0.042568628, -769815.6, 18400.361, 0.00000001503333, 9.989044, 9.974591 
8.18682e+2, 2.2954582e+2, -677882.2, -794321.2, 1443.1746, -0.013006412, 0.06323229, -677864.3, 12598.001, 0.00000000086140883, 9.988824, 9.974196 
8.1807566e+2, 2.3951985e+2, -600170.9, -734679.3, 2487.308, -0.0030120157, 0.10073267, -600124.9, -7409.7163, 0.00000000029173847, 9.988647, 9.971689 
8.174685e+2, 2.4948901e+2, -528056.9, -690444.5, 1341.2312, -0.08595202, 0.104664475, -528045.8, -33027.566, 0.0000000024989188, 9.988644, 9.967987 
8.168606e+2, 2.594573e+2, -422114.53, -574955.1, -2811.5337, -0.1696089, 0.10354798, -422062.84, -24732.367, 0.000000018630166, 9.988507, 9.969229 
8.1625146e+2, 2.6942754e+2, -320670.94, -460326.66, -9535.846, -0.1352199, 0.111941665, -320022.84, -20401.47, 0.0000001052837, 9.987991, 9.970437 
8.156412e+2, 2.793976e+2, -243148.73, -389017.66, -2582.5989, -0.09984947, 0.11433212, -243103.02, -41189.027, 0.00000044058865, 9.987326, 9.96889 
8.1502944e+2, 2.893656e+2, -185716.92, -326009.63, -8223.681, -0.22788696, 0.1393063, -185236.52, -81008.695, 0.0000013660875, 9.985254, 9.9674 
8.144172e+2, 2.993335e+2, -116550.26, -235521.38, -2587.3367, -0.35954687, 0.17416126, -116494.016, -109951.91, 0.0000032069015, 9.983146, 9.968009 
8.1381124e+2, 3.0930144e+2, -38638.895, -128641.8, -8437.372, -0.12755062, -0.047784366, -37854.76, -37854.76, 0.0000059400763, 9.983429, 9.971882 
8.132019e+2, 3.1927487e+2, -21918.08, -88250.87, 856.45685, -0.27181348, 0.23694648, -21907.023, -21907.023, 0.000009148174, 9.983558, 9.974706 
8.3472764e+2, 1.303818e+2, -1618179.3, -1662656.5, 8570.029, 0.35870227, 0.35296035, -1616585.0, 45694.504, 0.0030089617, 9.987785, 9.982033 
8.341199e+2, 1.4036162e+2, -1533446.8, -1575693.0, 4734.791, 0.22560047, 0.1357198, -1532922.6, 31552.201, 0.0019641386, 9.987112, 9.981676 
8.335144e+2, 1.5034313e+2, -1427463.1, -1483095.8, 14874.044, 0.19623332, 0.17006366, -1423736.0, 42920.06, 0.0010681495, 9.988052, 9.980994 
8.3291024e+2, 1.6032451e+2, -1317956.1, -1390495.3, 13555.609, 0.19806986, 0.22920191, -1315505.8, 53333.547, 0.00045917454, 9.989278, 9.9799795 
8.3230555e+2, 1.7030339e+2, -1224375.8, -1315354.0, 19490.568, 0.18717688, 0.2378562, -1220376.1, 50670.477, 0.00014963388, 9.989829, 9.978207 
8.317012e+2, 1.8028137e+2, -1126149.4, -1224990.8, 18863.563, 0.16514193, 0.231471, -1122671.8, 50590.844, 0.00003610315, 9.990122, 9.977495 
8.310962e+2, 1.9025744e+2, -1051053.1, -1157550.8, 22529.65, 0.11932309, 0.19355375, -1046483.0, 29013.352, 0.0000063962675, 9.989342, 9.975825 
8.304914e+2, 2.0023295e+2, -963728.6, -1068936.8, 19855.867, 0.071072586, 0.16953541, -960106.0, 17629.662, 0.00000083170164, 9.9887085, 9.97545 
8.298853e+2, 2.102079e+2, -860762.3, -985118.1, 16572.588, 0.044281136, 0.2038541, -858591.6, 21389.934, 0.000000079560635, 9.989673, 9.97403 
8.29279e+2, 2.2018197e+2, -750004.5, -885102.3, 12848.011, 0.019457137, 0.21293855, -748793.5, 33441.93, 0.000000005620267, 9.990669, 9.973717 
8.28672e+2, 2.3015442e+2, -664806.3, -806553.25, 2930.6155, -0.005623428, 0.15174662, -664745.75, 19757.205, 0.00000000032864456, 9.9903145, 9.972669 
8.2806486e+2, 2.4012649e+2, -581950.7, -728190.6, -1113.7036, -0.02546995, 0.10728668, -581942.2, 4832.11, 0.0000000005194113, 9.98981, 9.971701 
8.2745785e+2, 2.5009698e+2, -502444.3, -661820.8, 3990.0046, -0.069202214, 0.12641786, -502344.47, -13280.71, 0.000000005646366, 9.989529, 9.969524 
8.268499e+2, 2.600668e+2, -405248.8, -554947.75, 6574.983, -0.12188097, 0.14420423, -404960.6, -13600.299, 0.000000045050065, 9.988952, 9.970248 
8.2623935e+2, 2.700375e+2, -319548.2, -454797.53, -4436.3145, -0.12792669, 0.1383314, -319402.8, -25756.62, 0.000000261483, 9.987657, 9.970861 
8.2562786e+2, 2.800078e+2, -253288.1, -394819.66, -1931.7439, -0.120117396, 0.13232876, -253261.73, -57325.44, 0.0000011066777, 9.986484, 9.96887 
8.2501537e+2, 2.8997532e+2, -170265.44, -323685.94, -9076.206, -0.20260829, 0.13858779, -169730.36, -71475.195, 0.0000034486932, 9.986333, 9.966981 
8.244022e+2, 2.9994276e+2, -73227.35, -213935.77, 3849.171, -0.2983727, 0.15247002, -73122.13, -72547.61, 0.000008114644, 9.985927, 9.968045 
8.2379556e+2, 3.0991215e+2, -21510.104, -120913.26, 16615.37, -0.09324457, 0.083135396, -18806.365, -18806.365, 0.000015054204, 9.984504, 9.971499 
8.231831e+2, 3.1988272e+2, -42753.96, -96283.97, 21331.918, -0.43263695, 0.15814066, -35293.008, -35293.008, 0.000023203154, 9.981665, 9.974409 
8.447167e+2, 1.3099153e+2, -1584752.8, -1666066.4, 4204.043, 0.3533, 0.33632937, -1584535.9, 71769.53, 0.0011421927, 9.99089, 9.980219 
8.4410816e+2, 1.4097075e+2, -1506752.0, -1569841.5, 954.13965, 0.24535826, 0.20307744, -1506737.5, 51771.04, 0.0007435361, 9.989267, 9.981017 
8.435025e+2, 1.5095192e+2, -1421500.3, -1478235.4, 13286.115, 0.1921714, 0.20249082, -1418543.0, 42149.465, 0.00040280866, 9.988436, 9.981207 
8.4289867e+2, 1.6093317e+2, -1333552.5, -1395158.1, 9813.827, 0.16765615, 0.22674677, -1332026.9, 30849.05, 0.00017225166, 9.988144, 9.980303 
8.422945e+2, 1.7091262e+2, -1242203.1, -1318707.6, 14667.538, 0.1554181, 0.24417552, -1239487.5, 25590.236, 0.00005573453, 9.988426, 9.978776 
8.416906e+2, 1.808912e+2, -1142611.1, -1228504.0, 10832.682, 0.13818237, 0.2420087, -1141266.0, 26022.08, 0.000013319515, 9.988811, 9.978001 
8.4108543e+2, 1.9086747e+2, -1051247.1, -1152777.6, 13075.831, 0.12543929, 0.17182225, -1049590.3, 19930.04, 0.00000232996, 9.989099, 9.976367 
8.404806e+2, 2.0084335e+2, -954386.56, -1061197.6, 14348.558, 0.11274116, 0.13466972, -952492.6, 19263.74, 0.00000029792903, 9.989237, 9.975824 
8.3987546e+2, 2.108197e+2, -864401.8, -986117.7, 19101.52, 0.09255094, 0.28938642, -861474.5, 12515.617, 0.000000027884646, 9.989474, 9.9741 
8.3926994e+2, 2.2079451e+2, -770195.9, -907094.06, 17259.33, 0.06033777, 0.4050258, -768053.44, 8184.856, 0.000000001919551, 9.989853, 9.972558 
8.3866215e+2, 2.3076421e+2, -681406.5, -836389.7, 9271.236, -0.016166551, 0.2524653, -680853.9, -2321.231, 0.00000000019847017, 9.990126, 9.970566 
8.3805424e+2, 2.4073382e+2, -575062.8, -720682.9, 8593.262, -0.07460506, 0.11194451, -574557.44, 6270.382, 0.0000000015404203, 9.99013, 9.971861 
8.374477e+2, 2.507063e+2, -484362.66, -626567.7, 9190.621, -0.039284535, 0.16070032, -483771.13, -674.2634, 0.000000016923224, 9.989662, 9.971711 
8.3683974e+2, 2.6067832e+2, -397910.66, -538690.0, 5708.091, -0.026820216, 0.20730817, -397679.6, -12308.663, 0.0000001351454, 9.988914, 9.971264 
8.3622694e+2, 2.706487e+2, -319210.94, -456447.28, -8781.758, -0.12902282, 0.1573939, -318651.28, -30991.402, 0.00000078454923, 9.987757, 9.970599 
8.356136e+2, 2.8061825e+2, -253995.08, -399006.03, -3277.457, -0.20101078, 0.11517891, -253921.05, -63964.2, 0.0000033202393, 9.98667, 9.968428 
8.350024e+2, 2.9058567e+2, -170534.03, -325983.8, -9411.254, -0.14491127, 0.1508022, -169966.33, -77689.71, 0.000010345633, 9.986521, 9.966668 
8.343901e+2, 3.0055368e+2, -54020.723, -180593.36, 867.6558, -0.13750556, 0.18590936, -54014.777, -54014.777, 0.000024336698, 9.986264, 9.970082 
8.3377916e+2, 3.105262e+2, 3805.4773, -68960.43, 10518.788, -0.18162967, 0.10405908, 5295.525, 5295.525, 0.000045134508, 9.984511, 9.974888 
8.331643e+2, 3.2049754e+2, -78127.25, -153878.53, -3742.9307, -0.42343336, 0.13823202, -77942.76, -77942.76, 0.00006957659, 9.980657, 9.970574 
8.547078e+2, 1.3160035e+2, -1602104.1, -1698586.4, 6567.1924, 0.35998583, 0.12277638, -1601659.1, 48677.0, 0.00036341642, 9.990553, 9.978029 
8.5409766e+2, 1.4158101e+2, -1513100.5, -1581710.8, 5363.8623, 0.26218057, 0.30658352, -1512683.6, 39845.28, 0.00023620963, 9.989031, 9.980194 
8.5349077e+2, 1.5156113e+2, -1425455.0, -1481893.0, 19781.268, 0.18549688, 0.22700666, -1419212.4, 35510.86, 0.00012768328, 9.988054, 9.981046 
8.5288614e+2, 1.615414e+2, -1341647.9, -1399602.4, 17853.781, 0.14319882, 0.16779658, -1336589.3, 20326.744, 0.000054433065, 9.987452, 9.980262 
8.5228217e+2, 1.7152113e+2, -1252072.1, -1322055.5, 24071.455, 0.14111702, 0.20380871, -1244592.0, 14523.586, 0.00001753889, 9.987543, 9.978937 
8.5167867e+2, 1.8150026e+2, -1153192.0, -1231549.4, 20315.545, 0.13052511, 0.23872826, -1148238.0, 13083.295, 0.000004167791, 9.987862, 9.978235 
8.510742e+2, 1.9147763e+2, -1053223.8, -1150493.5, 23110.258, 0.110215895, 0.24895705, -1048012.3, 15531.459, 0.00000072355056, 9.9887, 9.97672 
8.504697e+2, 2.0145465e+2, -940731.06, -1037605.8, 21621.342, 0.08742356, 0.25028834, -936124.44, 29644.953, 0.00000009158835, 9.989254, 9.977397 
8.49864e+2, 2.1143183e+2, -857707.4, -958371.56, 29517.799, 0.04533518, 0.27716053, -849690.4, 18302.738, 0.000000008458324, 9.988656, 9.976279 
8.492583e+2, 2.2140764e+2, -777964.1, -894186.6, 38069.785, 0.007080587, 0.30744007, -766604.3, 3625.6938, 0.00000000058265287, 9.9884405, 9.973939 
8.48652e+2, 2.3137939e+2, -676876.6, -822013.2, 42177.652, -0.023539595, 0.25983387, -665509.75, 6996.1733, 0.00000000027731314, 9.989783, 9.97137 
8.4804505e+2, 2.4135043e+2, -559025.6, -706368.5, 46770.48, -0.04934495, 0.20653468, -545433.4, 29355.285, 0.0000000037693555, 9.990751, 9.972023 
8.474376e+2, 2.5132257e+2, -474622.34, -619380.6, 38792.25, -0.030434968, 0.23088387, -464882.22, 12178.888, 0.000000041425324, 9.989983, 9.971584 
8.4682876e+2, 2.6129407e+2, -393831.75, -541876.6, 29374.283, -0.030701082, 0.25176984, -388216.44, -8876.58, 0.00000033075656, 9.9892, 9.970571 
8.4621537e+2, 2.712634e+2, -298928.75, -457603.34, 11149.032, -0.14329338, 0.20600028, -298149.22, -16509.85, 0.0000019196295, 9.989429, 9.969438 
8.4560126e+2, 2.8123203e+2, -217644.13, -384065.44, 11191.697, -0.22468868, 0.16614006, -216894.88, -32949.355, 0.000008122084, 9.989025, 9.968066 
8.449886e+2, 2.9119954e+2, -173906.77, -324292.53, 5770.06, -0.14798565, 0.20035073, -173685.7, -87421.6, 0.000025306728, 9.985865, 9.966774 
8.44375e+2, 3.011679e+2, -85473.06, -181846.4, 17857.822, -0.12589802, 0.22699448, -82270.46, -82270.46, 0.00005952907, 9.983259, 9.971143 
8.437618e+2, 3.111414e+2, -10459.785, -59238.875, 8555.733, -0.27738732, 0.10208286, -9002.658, -9002.658, 0.00011036813, 9.982527, 9.97647 
8.431467e+2, 3.2111362e+2, -56906.42, -158170.81, -17686.766, -0.29767734, 0.16132522, -53906.156, -53906.156, 0.00017012683, 9.982269, 9.969411 
8.6469656e+2, 1.3220723e+2, -1635438.1, -1693514.4, -27744.475, 0.3532183, 0.077169605, -1624314.5, 20075.688, 0.00009383463, 9.987459, 9.98044 
8.640865e+2, 1.421905e+2, -1502736.3, -1569697.4, -7035.188, 0.23570219, 0.3563203, -1502005.1, 44552.594, 0.00006094004, 9.989476, 9.980938 
8.634794e+2, 1.5217066e+2, -1401587.9, -1469814.5, 10646.634, 0.18120128, 0.25103462, -1399965.1, 48786.78, 0.00003290037, 9.989665, 9.981192 
8.628744e+2, 1.6215084e+2, -1310616.4, -1380952.9, 10689.049, 0.14782748, 0.16295606, -1309027.9, 41917.67, 0.000014001087, 9.98941, 9.980645 
8.622699e+2, 1.7213114e+2, -1236930.5, -1309268.5, 21544.773, 0.13597797, 0.20348848, -1230999.9, 22139.818, 0.0000045003767, 9.98834, 9.979442 
8.616664e+2, 1.8211092e+2, -1150233.9, -1224493.5, 23550.654, 0.11922172, 0.2576366, -1143394.9, 11944.371, 0.0000010659371, 9.9878645, 9.978703 
8.610627e+2, 1.9208938e+2, -1051579.5, -1143325.9, 30797.824, 0.09402864, 0.32645524, -1042200.06, 15351.629, 0.00000018424288, 9.988601, 9.977214 
8.604587e+2, 2.0206745e+2, -931636.4, -1015583.75, 24999.148, 0.05920021, 0.34807017, -924755.75, 35011.535, 0.000000023185766, 9.989112, 9.978897 
8.598522e+2, 2.1204515e+2, -837416.4, -925261.1, 23446.205, -0.0065309047, 0.23442505, -831550.2, 30433.28, 0.0000000021246724, 9.989018, 9.978403 
8.592463e+2, 2.2202216e+2, -756259.94, -862683.2, 31727.191, -0.05044552, 0.17332394, -747519.25, 16688.188, 0.00000000016612903, 9.989086, 9.975942 
8.5864186e+2, 2.3199731e+2, -664384.94, -794447.94, 37530.04, -0.021817349, 0.2645296, -654332.44, 12119.286, 0.00000000051179117, 9.989814, 9.973415 
8.5803616e+2, 2.4197103e+2, -563566.6, -704963.4, 37880.977, -0.007834624, 0.3263448, -554057.6, 14652.36, 0.000000007637945, 9.990308, 9.972455 
8.574274e+2, 2.5194237e+2, -481619.8, -629689.8, 29491.791, -0.042498156, 0.30354646, -475961.97, -4971.4824, 0.000000083945466, 9.989789, 9.971009 
8.5681736e+2, 2.619126e+2, -401981.44, -559458.4, 26253.988, -0.085703485, 0.28538975, -397719.78, -24438.564, 0.0000006702643, 9.9892845, 9.969346 
8.5620475e+2, 2.718809e+2, -309378.53, -479457.72, 11391.122, -0.15588827, 0.2808831, -308619.0, -33026.97, 0.000003889783, 9.989533, 9.967876 
8.5559034e+2, 2.8184873e+2, -218805.92, -384404.7, 3425.1555, -0.21646437, 0.27212563, -218735.11, -40828.387, 0.000016460805, 9.988892, 9.967997 
8.549734e+2, 2.9181653e+2, -171244.86, -314386.75, -7440.8125, -0.24168992, 0.27622998, -170859.13, -90637.914, 0.000051319832, 9.985557, 9.967438 
8.5435647e+2, 3.0178478e+2, -92986.695, -192961.42, 12602.014, -0.29084092, 0.26128203, -91422.66, -91422.66, 0.000120814846, 9.983085, 9.970392 
8.5374373e+2, 3.1175593e+2, -26794.854, -89927.88, 2326.8125, -0.31867775, 0.07970904, -26709.213, -26709.213, 0.00022411745, 9.982446, 9.974379 
8.5312986e+2, 3.217302e+2, -2332.4924, -60531.484, -10482.303, -0.26682788, 0.30750218, -502.07837, -502.07837, 0.00034556063, 9.983285, 9.975637 
8.7468344e+2, 1.3281174e+2, -1597498.1, -1601642.1, -8552.195, 0.31615317, 0.15473448, -1590770.5, 47700.887, 0.000019043677, 9.986956, 9.98691 
8.74075e+2, 1.4279857e+2, -1496335.5, -1545995.6, 3802.6301, 0.15578909, 0.3229552, -1496046.0, 44555.633, 0.000012362725, 9.988984, 9.98273 
8.7346923e+2, 1.5278007e+2, -1401710.8, -1466370.6, 19972.54, 0.195113, 0.30332726, -1396039.0, 46744.973, 0.0000066696857, 9.989424, 9.981503 
8.728646e+2, 1.6276155e+2, -1302050.9, -1364299.1, 14525.003, 0.21366382, 0.28354546, -1298828.4, 46137.543, 0.000002835376, 9.989277, 9.98175 
8.722583e+2, 1.7274301e+2, -1229937.0, -1290016.3, 25785.102, 0.1463261, 0.30572575, -1220388.0, 26759.588, 0.0000009100635, 9.9879265, 9.98084 
8.7165374e+2, 1.827238e+2, -1146029.3, -1205633.1, 35313.805, 0.09528824, 0.3211194, -1129622.8, 19713.371, 0.00000021513608, 9.987299, 9.980168 
8.7105095e+2, 1.927031e+2, -1047373.3, -1122938.6, 47113.367, 0.09289496, 0.31767812, -1024763.94, 26775.105, 0.000000037089958, 9.98799, 9.978787 
8.704477e+2, 2.0268165e+2, -941698.3, -1025915.7, 39879.098, 0.082595006, 0.30688614, -925811.44, 27937.762, 0.0000000046516857, 9.98852, 9.978356 
8.698418e+2, 2.126588e+2, -844047.7, -941778.3, 31119.418, 0.043151014, 0.253636, -834979.94, 20991.748, 0.0000000004243601, 9.988991, 9.977289 
8.6923623e+2, 2.2263573e+2, -745326.44, -850464.0, 31983.646, 0.0020717792, 0.22489426, -736361.25, 21835.746, 0.000000000071721434, 9.989369, 9.976751 
8.6863124e+2, 2.3261207e+2, -660784.94, -776824.2, 34237.38, -0.022881728, 0.28586847, -651436.4, 8992.876, 0.0000000009082265, 9.989188, 9.975078 
8.680253e+2, 2.4258712e+2, -570923.6, -697053.44, 33606.324, -0.042502232, 0.32570776, -562528.3, 145.84685, 0.000000013717135, 9.989102, 9.973768 
8.674167e+2, 2.525594e+2, -477080.5, -619228.94, 28716.668, -0.07563493, 0.2881487, -471498.4, -6553.111, 0.00000015076724, 9.989515, 9.971974 
8.668067e+2, 2.6253045e+2, -385531.84, -545161.9, 33313.348, -0.11591273, 0.2659611, -378858.63, -11630.313, 0.0000012040975, 9.989921, 9.970052 
8.661946e+2, 2.724995e+2, -292525.78, -467081.1, 27408.209, -0.16496935, 0.28681085, -288323.4, -18791.371, 0.000006992764, 9.990289, 9.968234 
8.6557984e+2, 2.8246778e+2, -198446.25, -373410.34, 18455.967, -0.19637412, 0.30437538, -196520.63, -24677.68, 0.000029645516, 9.9899025, 9.967965 
8.649605e+2, 2.9243553e+2, -127122.19, -293880.1, -1412.2241, -0.21097569, 0.31653064, -127110.23, -52952.105, 0.00009271142, 9.98825, 9.967313 
8.6434066e+2, 3.024033e+2, -59666.934, -185843.53, 15016.878, -0.2864443, 0.28438526, -57904.33, -57904.33, 0.00021904535, 9.985382, 9.969608 
8.6372495e+2, 3.1237257e+2, -72018.984, -133282.97, 7365.7017, -0.3371036, 0.06290733, -71145.85, -71145.85, 0.0004076256, 9.979878, 9.972425 
8.6311024e+2, 3.2234883e+2, -59148.76, -22251.191, 7834.859, -0.3136333, 0.41710633, -20656.457, -20656.457, 0.00062983576, 9.976495, 9.98151 
8.8467073e+2, 1.3342157e+2, -1554100.5, -1558610.6, 20785.637, 0.2499608, 0.283774, -1535448.0, 97052.51, 0.000002958578, 9.989065, 9.988404 
8.840634e+2, 1.4340837e+2, -1508592.9, -1543086.3, 5349.7627, 0.15817036, 0.32461408, -1507782.1, 26847.186, 0.0000019202917, 9.987794, 9.98345 
8.834577e+2, 1.5339102e+2, -1428976.3, -1471971.9, 25100.578, 0.1937794, 0.35624817, -1417425.6, 19375.037, 0.0000010355539, 9.987258, 9.982103 
8.8285315e+2, 1.6337353e+2, -1322828.8, -1364234.1, 17265.018, 0.22044554, 0.3735915, -1316574.5, 22398.143, 0.0000004399312, 9.987406, 9.982572 
8.822463e+2, 1.7335574e+2, -1216227.5, -1271292.8, 23748.36, 0.15077586, 0.37224048, -1207400.4, 33745.97, 0.00000014107277, 9.988313, 9.981914 
8.8164157e+2, 1.8333733e+2, -1115179.1, -1177791.4, 32224.68, 0.09195584, 0.35553, -1101557.5, 41768.645, 0.00000003330806, 9.988878, 9.981384 
8.8103926e+2, 1.933175e+2, -1023584.5, -1095766.5, 39963.55, 0.09556229, 0.30014557, -1005827.1, 39692.273, 0.0000000057331504, 9.988978, 9.980328 
8.8043654e+2, 2.0329665e+2, -940173.4, -1031811.4, 32134.895, 0.10293775, 0.27379853, -930027.8, 17695.42, 0.00000000071752804, 9.9889345, 9.977902 
8.798314e+2, 2.1327366e+2, -851959.9, -957637.94, 33763.203, 0.098202154, 0.29972008, -842093.94, 7854.4966, 0.00000000006547386, 9.989006, 9.976197 
8.7922615e+2, 2.2325052e+2, -743055.75, -841191.0, 38194.566, 0.059695024, 0.30974963, -729942.5, 22232.482, 0.0000000000751049, 9.989184, 9.977381 
8.786203e+2, 2.332273e+2, -651974.5, -758176.06, 36844.32, -0.033654865, 0.30065215, -640444.06, 13958.19, 0.0000000014740116, 9.989172, 9.976293 
8.780139e+2, 2.4320303e+2, -558580.1, -675231.56, 36654.633, -0.098894835, 0.2847261, -548018.6, 8620.83, 0.000000022289091, 9.989304, 9.975142 
8.774059e+2, 2.5317666e+2, -462854.7, -596628.56, 30932.791, -0.11255524, 0.24193151, -456048.34, 2848.7378, 0.00000024496487, 9.989869, 9.973328 
8.767965e+2, 2.631492e+2, -371412.2, -520229.88, 35787.414, -0.1347377, 0.22094639, -363253.38, -2087.6418, 0.0000019576619, 9.990179, 9.971619 
8.761848e+2, 2.7311984e+2, -282974.63, -444766.3, 28374.572, -0.17400067, 0.24718177, -278142.66, -14688.73, 0.000011400731, 9.990262, 9.969738 
8.755702e+2, 2.830891e+2, -202676.63, -379212.2, 13097.008, -0.15304056, 0.2809548, -201710.27, -35954.57, 0.000048632028, 9.989786, 9.967529 
8.749506e+2, 2.930561e+2, -134830.08, -310112.63, -7340.061, -0.03202969, 0.32801643, -134523.25, -66443.7, 0.00015357247, 9.9882555, 9.966111 
8.7432796e+2, 3.030227e+2, -64552.242, -195942.06, -6582.1953, -0.092843644, 0.30179542, -64223.316, -64223.316, 0.00036699965, 9.985144, 9.968861 
8.7370366e+2, 3.12991e+2, -93335.18, -158876.02, -18217.084, -0.37324864, 0.06742527, -88612.1, -88612.1, 0.00068988913, 9.978745, 9.971017 
8.730836e+2, 3.229668e+2, -76164.61, -7596.6655, 1734.6982, -0.42960808, 0.35817423, -7552.8076, -7552.8076, 0.001073521, 9.974257, 9.983594 
8.9465874e+2, 1.3403611e+2, -1594201.1, -1614992.0, 21556.932, 0.1987085, 0.47191477, -1580664.0, 45819.656, 0.00000034527207, 9.987828, 9.985072 
8.940516e+2, 1.4401971e+2, -1519827.4, -1541697.6, 6995.4043, 0.26140317, 0.36699185, -1517781.3, 10861.414, 0.00000022408217, 9.98661, 9.984018 
8.934436e+2, 1.5400358e+2, -1436273.8, -1460269.9, 30128.129, 0.13210161, 0.3908098, -1415842.6, 14958.015, 0.00000012080618, 9.985994, 9.983425 
8.9283884e+2, 1.639866e+2, -1337785.4, -1371007.4, 29186.621, 0.108278684, 0.3835426, -1320813.9, 12152.563, 0.000000051297388, 9.986363, 9.982579 
8.922347e+2, 1.7396818e+2, -1220986.0, -1273871.1, 35972.33, 0.16480882, 0.33230835, -1202783.1, 32362.18, 0.00000001643881, 9.9880085, 9.981881 
8.9163136e+2, 1.8394956e+2, -1115338.1, -1182109.9, 37111.297, 0.15619749, 0.312975, -1098805.5, 38521.957, 0.000000003877973, 9.988972, 9.981034 
8.9102834e+2, 1.9393018e+2, -1025830.75, -1099475.1, 40515.87, 0.09370093, 0.32703993, -1007904.4, 31613.633, 0.00000000066676814, 9.988838, 9.980185 
8.9042485e+2, 2.0391071e+2, -928517.3, -999680.7, 32259.564, 0.05901509, 0.3415878, -916070.5, 25638.57, 0.00000000008333369, 9.988455, 9.98035 
8.898194e+2, 2.1389057e+2, -842459.0, -920916.3, 44262.453, 0.04801096, 0.36887273, -822543.3, 21362.842, 0.000000000010516922, 9.988136, 9.979005 
8.892144e+2, 2.2386909e+2, -751548.0, -837444.4, 57133.715, 0.026656637, 0.36537394, -723020.25, 23096.104, 0.000000000098867345, 9.988139, 9.97794 
8.8860923e+2, 2.3384579e+2, -657278.06, -754810.5, 54681.074, -0.01615788, 0.31568095, -632776.56, 15567.482, 0.0000000020481026, 9.988398, 9.976712 
8.8800347e+2, 2.4382222e+2, -551309.06, -656695.06, 57592.12, -0.063153386, 0.29458326, -525941.8, 24632.637, 0.0000000309748, 9.989014, 9.976398 
8.873961e+2, 2.5379783e+2, -444428.0, -569872.9, 53908.668, -0.10233886, 0.30507502, -424444.66, 28368.893, 0.0000003404844, 9.990176, 9.97485 
8.867869e+2, 2.6377243e+2, -346197.03, -481774.22, 57834.19, -0.13254489, 0.30592585, -324878.47, 30183.943, 0.0000027257568, 9.990448, 9.973901 
8.861747e+2, 2.7374518e+2, -275587.8, -415075.94, 53866.887, -0.15633634, 0.30778992, -257207.67, 121.85575, 0.000015971164, 9.989225, 9.97195 
8.8555896e+2, 2.8371614e+2, -212402.77, -361134.56, 46100.41, -0.13452767, 0.31537485, -199272.75, -39658.805, 0.000069086105, 9.987634, 9.969328 
8.849382e+2, 2.9368404e+2, -136735.36, -301139.97, 48900.746, -0.033822868, 0.33350325, -123289.87, -61360.39, 0.00022324533, 9.987119, 9.966622 
8.843143e+2, 3.0365106e+2, -25495.834, -181804.11, 49991.914, -0.07302309, 0.3525909, -10874.647, -10874.647, 0.0005485991, 9.9872675, 9.96785 
8.836864e+2, 3.136183e+2, 1950.4614, -145094.55, 22541.227, -0.3037459, 0.26461154, 5328.3184, 5328.3184, 0.0010574318, 9.986124, 9.967432 
8.8306093e+2, 3.2358852e+2, 31441.74, 34312.39, 15962.726, -0.46787414, 0.2972937, 48904.19, 48904.19, 0.001674894, 9.981802, 9.982227 
9.0464664e+2, 1.3464785e+2, -1602291.8, -1636044.4, 5329.4204, 0.19971393, 0.49458003, -1601470.3, 19020.293, 0.000000029867618, 9.987954, 9.983697 
9.0403867e+2, 1.4463082e+2, -1503569.9, -1529835.8, 1162.5388, 0.2694663, 0.38818833, -1503518.5, 19137.871, 0.000000019382966, 9.987564, 9.984447 
9.034305e+2, 1.5461527e+2, -1389836.5, -1430926.9, 18925.025, 0.11347107, 0.40171403, -1382448.5, 42359.414, 0.000000010447276, 9.988896, 9.984214 
9.028261e+2, 1.6459873e+2, -1294695.6, -1348309.9, 18588.75, 0.082002036, 0.38104984, -1288881.3, 38087.69, 0.000000004434464, 9.989285, 9.98295 
9.022233e+2, 1.7458059e+2, -1204937.1, -1263270.6, 30173.82, 0.18281429, 0.31196085, -1192137.8, 37007.8, 0.0000000014203173, 9.989058, 9.982283 
9.0162057e+2, 1.8456239e+2, -1117572.4, -1180757.8, 32486.35, 0.18788631, 0.30269283, -1103849.9, 27473.865, 0.00000000033482794, 9.988712, 9.981305 
9.0101683e+2, 1.9454378e+2, -1034665.06, -1100432.0, 43926.4, 0.08449145, 0.3684706, -1012677.3, 20830.238, 0.000000000057520166, 9.988083, 9.980406 
9.0041274e+2, 2.0452586e+2, -918563.2, -965162.5, 35543.39, 0.018636562, 0.4113012, -899363.4, 36320.52, 0.0000000000071813653, 9.9878435, 9.982919 
8.998069e+2, 2.1450858e+2, -818414.75, -874117.4, 39384.22, -0.0077459817, 0.42736417, -798029.06, 39823.89, 0.00000000000428494, 9.988261, 9.982202 
8.992023e+2, 2.2448894e+2, -741918.7, -825851.5, 52195.168, -0.011391931, 0.40565625, -716911.1, 23133.732, 0.00000000010849106, 9.98853, 9.978649 
8.98598e+2, 2.3446609e+2, -649492.3, -742648.6, 54512.668, 0.015185045, 0.33100298, -624368.6, 17899.363, 0.000000002258234, 9.988596, 9.977468 
8.979931e+2, 2.4444388e+2, -541528.4, -633655.0, 63330.875, -0.004789569, 0.33108428, -509280.6, 35205.375, 0.000000034158017, 9.988981, 9.977992 
8.9738655e+2, 2.5442207e+2, -438702.47, -545026.4, 60039.09, -0.0793085, 0.41964325, -411671.63, 35029.734, 0.00000037566133, 9.989712, 9.976773 
8.9677733e+2, 2.643994e+2, -332974.94, -440660.66, 55966.215, -0.12093953, 0.45369178, -309156.53, 39767.523, 0.00000301649, 9.989821, 9.97698 
8.961642e+2, 2.7437502e+2, -256665.05, -371326.16, 46690.48, -0.12198501, 0.42805073, -240057.83, 11104.173, 0.000017853601, 9.988997, 9.97498 
8.955464e+2, 2.84349e+2, -178587.72, -293531.53, 39606.164, -0.16248618, 0.3840439, -166262.28, -12845.538, 0.000079075995, 9.987786, 9.973768 
8.9492315e+2, 2.9432014e+2, -112218.76, -254051.6, 53982.395, -0.2530633, 0.32172075, -94010.336, -38309.844, 0.00026623905, 9.987308, 9.969779 
8.943e+2, 3.0429086e+2, -25464.625, -181749.14, 52492.83, -0.22493413, 0.47194496, -9470.2295, -9470.2295, 0.00069019, 9.987154, 9.967869 
8.9367634e+2, 3.1425905e+2, -17198.3, -203162.77, 23945.91, 0.01434527, 0.7755753, -14164.377, -14164.377, 0.0014013384, 9.98682, 9.962968 
8.9304304e+2, 3.2421467e+2, -19073.848, -82968.85, -22347.936, -0.4813713, 0.1277272, -12033.233, -12033.233, 0.0023083058, 9.981809, 9.973673 
9.146338e+2, 1.3525693e+2, -1620389.1, -1639507.4, 1002.5548, 0.19204922, 0.37066004, -1620336.6, -5817.361, 0.000000001903787, 9.986381, 9.984158 
9.14025e+2, 1.452409e+2, -1520672.4, -1546776.6, 9517.458, 0.17350264, 0.38318413, -1517570.9, -893.8877, 0.0000000012354053, 9.986879, 9.983667 
9.1342074e+2, 1.5522432e+2, -1398391.6, -1444021.4, 25389.88, 0.22101633, 0.3709622, -1387072.0, 31767.924, 0.00000000066574474, 9.988799, 9.9834385 
9.1281694e+2, 1.6520806e+2, -1289186.6, -1336030.4, 14749.939, 0.21860264, 0.37359017, -1284929.3, 36070.418, 0.0000000002824927, 9.98919, 9.983845 
9.12212e+2, 1.7519167e+2, -1203507.8, -1250777.3, 26978.875, 0.1624758, 0.38027042, -1191275.3, 31885.328, 0.00000000009044054, 9.988596, 9.983371 
9.1160804e+2, 1.8517555e+2, -1111124.3, -1146720.8, 30160.871, 0.12020831, 0.3897567, -1093901.6, 31416.674, 0.000000000021308946, 9.987731, 9.984066 
9.1100407e+2, 1.9515938e+2, -1033306.44, -1067301.9, 46715.24, 0.087220296, 0.41324088, -1000592.6, 26884.107, 0.000000000003658245, 9.986685, 9.983227 
9.104003e+2, 2.051422e+2, -940818.25, -981806.06, 44322.426, 0.06197841, 0.41795316, -912481.0, 17164.285, 0.00000000000045636807, 9.9866, 9.982333 
9.097954e+2, 2.1512415e+2, -830836.7, -883051.44, 40211.355, 0.041253526, 0.40290615, -809000.9, 22821.457, 0.0000000000030655227, 9.987557, 9.982017 
9.0919083e+2, 2.2510596e+2, -729963.06, -788212.44, 48440.85, 0.017423721, 0.39277354, -702565.5, 31434.928, 0.0000000000903565, 9.987935, 9.981591 
9.08586e+2, 2.3508689e+2, -640290.3, -701613.2, 57976.223, 0.00093094324, 0.37590912, -605366.94, 30820.254, 0.0000000018811002, 9.987588, 9.980719 
9.079808e+2, 2.4506754e+2, -553392.75, -613705.8, 72565.734, -0.028456595, 0.39211136, -504966.8, 33410.344, 0.000000028451819, 9.986975, 9.9802 
9.073741e+2, 2.5504786e+2, -472475.47, -530293.8, 73166.75, -0.081543125, 0.45253134, -422713.72, 17857.248, 0.00000031314025, 9.985938, 9.979417 
9.067646e+2, 2.650273e+2, -380059.56, -438546.72, 71364.805, -0.124499835, 0.47022662, -332179.06, 10593.7705, 0.0000025239594, 9.9853525, 9.97911 
9.06151e+2, 2.7500558e+2, -284072.56, -349082.9, 61485.723, -0.14673328, 0.43974885, -247028.63, -2043.2203, 0.000015124688, 9.985292, 9.978145 
9.055331e+2, 2.8498334e+2, -168527.28, -242620.36, 59959.66, -0.18939185, 0.4082257, -135092.58, 12110.949, 0.00006901787, 9.986088, 9.978032 
9.049078e+2, 2.9496014e+2, -117849.016, -184518.3, 67938.29, -0.3034412, 0.3693028, -75507.98, -26076.994, 0.00024569064, 9.982998, 9.976347 
9.2462015e+2, 1.3586399e+2, -1602617.1, -1626790.5, -20037.742, 0.15526882, 0.3376334, -1591303.0, 17268.078, 0.00000000008526822, 9.987469, 9.984894 
9.2401236e+2, 1.4584935e+2, -1493204.4, -1522333.9, -1089.5901, 0.16026285, 0.3815154, -1493163.8, 17551.908, 0.00000000005532455, 9.988323, 9.984887 
9.234097e+2, 1.558337e+2, -1401936.1, -1437490.6, 28978.248, 0.26706377, 0.37005594, -1385716.8, 27152.672, 0.000000000029806633, 9.988257, 9.984163 
9.22806e+2, 1.6581841e+2, -1301630.4, -1332162.8, 18353.79, 0.2613829, 0.3971826, -1293023.6, 21997.072, 0.000000000012643394, 9.987885, 9.9846325 
9.2219985e+2, 1.7580342e+2, -1210574.1, -1240893.5, 29654.787, 0.1222688, 0.45416754, -1192428.8, 24740.373, 0.0000000000040459667, 9.987513, 9.984473 
9.215951e+2, 1.8578903e+2, -1100756.0, -1115843.8, 27545.857, 0.068871796, 0.4634309, -1079739.8, 39570.117, 0.000000000000952743, 9.987289, 9.986359 
9.20991e+2, 1.9577493e+2, -1008812.5, -1028924.7, 36723.297, 0.0973945, 0.4411959, -980793.3, 40653.004, 0.00000000000016345195, 9.987184, 9.985691 
9.2038745e+2, 2.0575826e+2, -939997.6, -988438.75, 40837.855, 0.10544368, 0.41100535, -916738.0, 6871.2954, 0.000000000000020373985, 9.98702, 9.981797 
9.197834e+2, 2.1573947e+2, -840002.5, -889407.6, 43744.402, 0.09320782, 0.36862686, -814467.75, 11326.206, 0.0000000000018606304, 9.987087, 9.981815 
9.191789e+2, 2.2572313e+2, -715390.75, -743947.8, 48310.08, 0.042857695, 0.38328093, -679293.3, 48661.234, 0.000000000055557395, 9.987336, 9.984882 
9.1857326e+2, 2.3570837e+2, -616354.4, -648251.7, 52785.715, -0.03248097, 0.43709713, -577160.56, 52938.96, 0.0000000011563022, 9.987435, 9.984488 
9.1796726e+2, 2.456921e+2, -536190.75, -576795.4, 63372.832, -0.07237918, 0.45044369, -489947.6, 42311.125, 0.000000017486771, 9.986893, 9.982821 
9.1735995e+2, 2.5567478e+2, -450051.7, -483031.72, 63587.344, -0.08897969, 0.43928182, -400851.0, 33577.074, 0.00000019261098, 9.985874, 9.982712 
9.167499e+2, 2.6565638e+2, -363639.16, -408450.06, 68611.125, -0.14352587, 0.4183734, -313867.8, 22741.24, 0.000001557747, 9.985602, 9.981088 
9.1613567e+2, 2.7563757e+2, -252090.8, -289688.56, 60722.746, -0.2161051, 0.38355714, -207323.56, 31470.064, 0.000009437413, 9.985669, 9.982043 
9.155193e+2, 2.8561997e+2, -137510.69, -182062.56, 68842.9, -0.18647945, 0.41563374, -87429.445, 53536.727, 0.00004425717, 9.986415, 9.982109 
9.1489255e+2, 2.956044e+2, -47753.89, -40148.684, 39403.47, -0.14657626, 0.4685506, -4364.759, 38753.363, 0.00016661992, 9.983246, 9.98552 
9.346073e+2, 1.3646805e+2, -1614354.9, -1624925.6, -12895.428, 0.15815145, 0.37122193, -1605703.8, -3048.127, 0.0000000000029415736, 9.986535, 9.985572 
9.34001e+2, 1.4645551e+2, -1480580.5, -1476727.3, -4413.87, 0.22260141, 0.39081413, -1473837.9, 30941.383, 0.0000000000019083366, 9.987486, 9.988419 
9.3339634e+2, 1.5644382e+2, -1393674.0, -1399399.0, 26269.281, 0.1498485, 0.4321732, -1370111.6, 36782.08, 0.0000000000010279229, 9.987365, 9.987173 
9.3279195e+2, 1.664303e+2, -1312061.0, -1328786.8, 16055.053, 0.13060342, 0.47032943, -1302321.3, 6706.0034, 0.0000000000004359048, 9.98683, 9.985344 
9.321863e+2, 1.7641592e+2, -1220471.4, -1235519.3, 27970.938, 0.08619666, 0.5080202, -1199030.1, 12139.4795, 0.0000000000001394446, 9.986434, 9.985332 
9.31582e+2, 1.8640155e+2, -1113837.8, -1123005.8, 26062.48, 0.07237575, 0.48230606, -1091959.3, 21350.686, 0.00000000000003282296, 9.986508, 9.986279 
9.3097824e+2, 1.9638714e+2, -1012167.0, -1028447.4, 29709.895, 0.100083865, 0.4225156, -989502.3, 25946.703, 0.0000000000000056283993, 9.986938, 9.985947 
9.30374e+2, 2.0637171e+2, -934712.25, -964664.1, 30774.357, 0.081418134, 0.40283194, -915463.4, 2136.5137, 0.00000000000000070118843, 9.986489, 9.983744 
9.297689e+2, 2.1635531e+2, -848271.75, -870434.6, 40017.99, 0.030416878, 0.39985034, -817829.25, 1931.7623, 0.00000000000083497646, 9.985578, 9.983825 
9.2916477e+2, 2.263404e+2, -737220.75, -748367.3, 46063.824, -0.00012600029, 0.43690974, -696394.3, 25513.705, 0.0000000000249549, 9.985703, 9.985414 
9.285601e+2, 2.3632659e+2, -628533.75, -642334.9, 39493.016, -0.024058145, 0.49918222, -595342.94, 28701.227, 0.00000000051935445, 9.98622, 9.985657 
9.2795366e+2, 2.463116e+2, -542382.56, -558772.3, 38652.14, -0.05902936, 0.47780776, -511066.1, 15124.209, 0.0000000078541085, 9.985643, 9.984898 
9.27345e+2, 2.5629613e+2, -456686.25, -459487.44, 33351.26, -0.09611156, 0.4107136, -424706.2, 3634.1128, 0.00000008654337, 9.984392, 9.985352 
9.2673504e+2, 2.6628038e+2, -363876.0, -381081.22, 43075.73, -0.14449982, 0.3975332, -328552.28, 1942.6792, 0.0000007013428, 9.984723, 9.983763 
9.261217e+2, 2.762651e+2, -232631.48, -243230.5, 28954.875, -0.19860125, 0.4033716, -208495.14, 24151.307, 0.0000042783217, 9.985856, 9.985496 
9.2550576e+2, 2.8625128e+2, -135851.02, -150428.03, 29234.17, -0.16254696, 0.49881876, -113010.48, 21771.33, 0.00002042177, 9.985858, 9.984989 
9.2487943e+2, 2.9623714e+2, 45353.438, 42075.28, -28610.658, -0.082866386, 0.3832391, 72371.93, 109290.74, 0.00007993033, 9.989428, 9.988848 
9.445948e+2, 1.3707615e+2, -1594734.9, -1602056.4, 15920.674, 0.21627197, 0.48139957, -1582059.5, 14641.797, 0.0, 9.987287, 9.986315 
9.4398785e+2, 1.4706421e+2, -1482571.9, -1458189.9, 13863.268, 0.20899355, 0.44016355, -1451919.9, 46898.434, 0.0, 9.986486, 9.989873 
9.4338256e+2, 1.5705428e+2, -1401647.4, -1386013.3, 27992.635, 0.094131656, 0.49612552, -1364766.8, 36148.113, 0.0, 9.986043, 9.988647 
9.427779e+2, 1.6704161e+2, -1318013.9, -1323152.8, 15598.288, 0.07708208, 0.5192101, -1304774.9, -1735.4081, 0.0, 9.986058, 9.986113 
9.4217265e+2, 1.7702778e+2, -1212934.4, -1223678.0, 27478.43, 0.07680042, 0.5266479, -1190307.6, 14868.243, 0.0, 9.9866, 9.986058 
9.415687e+2, 1.8701342e+2, -1109217.1, -1124191.8, 27247.889, 0.07627274, 0.4899089, -1088446.5, 18869.445, 0.0, 9.987014, 9.985974 
9.4096524e+2, 1.9699876e+2, -1005179.8, -1023155.06, 29290.309, 0.09389417, 0.42351946, -983529.25, 25928.842, 0.0, 9.987361, 9.9861145 
9.403603e+2, 2.0698477e+2, -912510.06, -929489.4, 26867.443, 0.04934248, 0.42022485, -892822.94, 18771.79, 0.0, 9.98692, 9.985919 
9.3975395e+2, 2.16971e+2, -824970.25, -836522.06, 36630.24, -0.035715293, 0.45096076, -793663.3, 20066.65, 0.00000000000028468902, 9.986188, 9.985838 
9.391502e+2, 2.2695698e+2, -733983.0, -747447.94, 47287.51, -0.040192023, 0.49846846, -692951.06, 22917.088, 0.000000000008157955, 9.986019, 9.985343 
9.3854654e+2, 2.3694313e+2, -629825.6, -638921.06, 40104.094, -0.0010778378, 0.5509241, -594012.25, 23992.844, 0.00000000016979894, 9.986008, 9.985973 
9.379395e+2, 2.469287e+2, -531489.25, -536496.75, 35280.54, -0.036558647, 0.49079847, -498623.75, 21521.412, 0.0000000025679472, 9.985638, 9.986368 
9.373293e+2, 2.5691444e+2, -436109.1, -428516.84, 30598.764, -0.10886905, 0.379931, -401479.63, 20802.93, 0.000000028296595, 9.984909, 9.987174 
9.367201e+2, 2.669012e+2, -342916.72, -344068.7, 48214.24, -0.1290194, 0.40221405, -295275.03, 29138.18, 0.00000022950282, 9.985139, 9.986119 
9.361084e+2, 2.7688882e+2, -220035.47, -214163.83, 31472.67, -0.12078214, 0.47784516, -185490.34, 41046.496, 0.0000014045202, 9.985855, 9.987473 
9.354917e+2, 2.8687721e+2, -128741.99, -132704.92, 27751.158, -0.1539156, 0.6364824, -102901.65, 25749.0, 0.000006759484, 9.985774, 9.98621 
9.348678e+2, 2.9686043e+2, 21779.547, -7690.2393, 11422.204, -0.21427733, 0.3661169, 25688.254, 56502.09, 0.000026932837, 9.9897785, 9.985791 
9.5458186e+2, 1.376886e+2, -1602292.8, -1592156.8, 5745.63, 0.24884076, 0.6708212, -1589563.4, 1142.2566, 0.0, 9.986128, 9.987548 
9.539732e+2, 1.4767574e+2, -1500725.1, -1476626.9, 8974.733, 0.12583825, 0.5368956, -1473651.8, 19178.541, 0.0, 9.98573, 9.989006 
9.533691e+2, 1.5766452e+2, -1418582.6, -1400712.4, 20049.621, 0.19228552, 0.5481265, -1387697.0, 7241.302, 0.0, 9.985244, 9.988049 
9.5276463e+2, 1.676514e+2, -1323214.0, -1316861.5, 12656.111, 0.18020606, 0.50795406, -1306989.1, -9923.579, 0.0, 9.985479, 9.9868965 
9.521595e+2, 1.7763777e+2, -1215078.4, -1218666.8, 23627.863, 0.11217842, 0.455717, -1193176.8, 6021.729, 0.0, 9.986357, 9.986587 
9.5155567e+2, 1.8762398e+2, -1116041.5, -1133077.9, 21604.885, 0.07231812, 0.48919475, -1101336.3, -1.7666243, 0.0, 9.986949, 9.985471 
9.5095235e+2, 1.9761011e+2, -1006696.2, -1021994.7, 21237.469, 0.06388919, 0.5381174, -991772.4, 11699.026, 0.0, 9.987324, 9.986275 
9.503475e+2, 2.0759729e+2, -899741.75, -902451.5, 16038.235, 0.061095703, 0.53070307, -885001.25, 20595.666, 0.0, 9.987017, 9.987777 
9.4974124e+2, 2.1758488e+2, -810028.6, -811739.44, 24138.783, 0.039846826, 0.51072586, -786730.06, 20987.795, 0.000000000000067652664, 9.986599, 9.987411 
9.4913673e+2, 2.275711e+2, -733572.56, -743510.75, 33721.51, -0.0008348866, 0.5034456, -704456.0, 5396.481, 0.0000000000019384904, 9.986047, 9.985677 
9.4853175e+2, 2.3755714e+2, -638746.6, -636715.2, 27047.33, -0.03202826, 0.5048839, -610664.5, 1324.6636, 0.000000000040347756, 9.98532, 9.986522 
9.4792485e+2, 2.4754386e+2, -526140.7, -524895.2, 23353.523, -0.07618619, 0.4889733, -502156.1, 11962.732, 0.0000000006101943, 9.985923, 9.987131 
9.4731516e+2, 2.5753117e+2, -403062.16, -401831.5, 12699.092, -0.13212782, 0.45386803, -389732.84, 26509.512, 0.000000006724211, 9.98707, 9.988108 
9.467058e+2, 2.6751915e+2, -313032.34, -310685.0, 22434.06, -0.15555483, 0.4623614, -289393.9, 28966.965, 0.000000054552586, 9.986757, 9.987819 
9.460941e+2, 2.775078e+2, -211827.28, -198790.42, 860.99817, -0.15418994, 0.49860132, -198733.8, 21739.89, 0.0000003341785, 9.986409, 9.98855 
9.4547856e+2, 2.8749698e+2, -105043.414, -116322.66, -6973.9263, -0.13325503, 0.65487635, -101714.15, 20865.94, 0.0000016125001, 9.987807, 9.986731 
9.4485795e+2, 2.9748046e+2, 23990.865, -24890.229, 8667.453, -0.25983256, 0.46336243, 25482.25, 50223.15, 0.0000064614287, 9.991405, 9.984538 
9.645679e+2, 1.3829987e+2, -1582976.4, -1585078.9, 16609.352, 0.17939658, 0.65700537, -1567385.0, 17332.105, 0.0, 9.987489, 9.98717 
9.639601e+2, 1.4828621e+2, -1475980.8, -1482638.8, 16063.376, 0.13885784, 0.56456876, -1462905.1, 23945.277, 0.0, 9.988195, 9.987358 
9.633561e+2, 1.5827347e+2, -1366371.8, -1385232.3, 18819.424, 0.20277835, 0.5725335, -1354752.0, 34221.82, 0.0, 9.98922, 9.987177 
9.627515e+2, 1.6826029e+2, -1273183.3, -1284345.4, 11913.453, 0.20427509, 0.5090315, -1265608.4, 25492.729, 0.0, 9.98855, 9.987658 
9.621465e+2, 1.7824711e+2, -1192659.9, -1202718.6, 22958.938, 0.1316721, 0.42857793, -1174185.9, 19042.402, 0.0, 9.987692, 9.987056 
9.615427e+2, 1.8823378e+2, -1112673.1, -1132690.5, 24912.127, 0.068903774, 0.5022332, -1095834.4, -473.50546, 0.0, 9.987257, 9.98532 
9.609393e+2, 1.9822057e+2, -1007898.6, -1017172.0, 27636.254, 0.037288856, 0.6230909, -984512.8, 12980.401, 0.0, 9.987016, 9.986642 
9.6033466e+2, 2.0820875e+2, -888361.7, -881132.4, 19481.213, 0.07877015, 0.61843973, -864933.3, 34675.566, 0.0, 9.987115, 9.989108 
9.597289e+2, 2.1819739e+2, -792164.06, -790802.25, 23116.676, 0.1240015, 0.56410676, -768356.44, 33362.844, 0.0000000000000117120025, 9.987295, 9.988484 
9.5912325e+2, 2.2818357e+2, -721885.8, -733265.7, 31542.406, 0.037386145, 0.4941638, -695524.25, 8328.711, 0.0000000000003355644, 9.986624, 9.986054 
9.5851666e+2, 2.3816939e+2, -630501.56, -627556.56, 28327.375, -0.079943195, 0.43432245, -600663.44, 5326.7705, 0.0000000000069838328, 9.985676, 9.986916 
9.5791036e+2, 2.4815722e+2, -525807.7, -520601.97, 29920.172, -0.126212, 0.4934175, -493171.66, 14938.603, 0.00000000010561558, 9.985869, 9.987436 
9.57302e+2, 2.5814584e+2, -409175.8, -401196.6, 16543.178, -0.15366955, 0.5736547, -388168.75, 22054.148, 0.0000000011640542, 9.986564, 9.98837 
9.56692e+2, 2.6813403e+2, -313815.4, -300472.34, 19567.072, -0.21092147, 0.53661984, -286470.72, 25868.383, 0.000000009444971, 9.986218, 9.988724 
9.560795e+2, 2.7812222e+2, -216880.6, -202232.33, 3276.2961, -0.25955382, 0.47254184, -201532.92, 12922.508, 0.000000057857413, 9.986112, 9.988496 
9.554671e+2, 2.881106e+2, -107034.07, -120253.28, 1135.6927, -0.07168267, 0.5704901, -106937.21, 9632.0205, 0.00000027926637, 9.987874, 9.986529 
9.548501e+2, 2.9809532e+2, 14882.679, -37153.977, 16258.339, -0.16581853, 0.4932371, 19544.752, 38264.19, 0.0000011202083, 9.99104, 9.984049 
9.7455513e+2, 1.3891019e+2, -1599424.5, -1612329.4, 8837.419, 0.15951869, 0.46044058, -1594934.6, -16201.764, 0.0, 9.987305, 9.985439 
9.739495e+2, 1.4889553e+2, -1495946.9, -1523861.3, 16670.91, 0.23586187, 0.5121333, -1488161.9, -7283.116, 0.0, 9.988413, 9.984593 
9.73344e+2, 1.5888086e+2, -1368611.3, -1402744.3, 12189.863, 0.009998016, 0.5752011, -1364705.0, 18319.184, 0.0, 9.989944, 9.985718 
9.727394e+2, 1.6886832e+2, -1260621.3, -1271482.3, -1655.9775, 0.06914715, 0.5803285, -1260374.4, 24771.834, 0.0, 9.989194, 9.988259 
9.7213453e+2, 1.788564e+2, -1183987.0, -1190006.0, 9088.7, 0.12221768, 0.563165, -1177422.5, 9839.216, 0.0, 9.9880295, 9.9878025 
9.715301e+2, 1.8884313e+2, -1103903.4, -1113095.3, 14220.404, 0.07254702, 0.5344791, -1093554.6, -4162.622, 0.0, 9.987341, 9.986653 
9.709261e+2, 1.9882993e+2, -1005445.8, -1004554.5, 20312.217, 0.03131927, 0.52750695, -984683.06, 6839.0684, 0.0, 9.986874, 9.987575 
9.7032166e+2, 2.0881897e+2, -888606.06, -884976.3, 13669.23, 0.047264855, 0.5969551, -873002.0, 20628.521, 0.0, 9.987526, 9.988711 
9.697163e+2, 2.1880847e+2, -777883.0, -781989.8, 10806.255, 0.06446269, 0.65798503, -768936.8, 26796.832, 0.0000000000000014914695, 9.98844, 9.988641 
9.691105e+2, 2.2879548e+2, -696979.25, -706267.9, 14698.204, 0.017529026, 0.58300245, -686209.06, 11649.936, 0.000000000000042732568, 9.987867, 9.9873495 
9.6850336e+2, 2.3878211e+2, -609627.2, -607314.94, 14525.153, -0.048140775, 0.48639068, -593900.0, 6087.99, 0.00000000000088938075, 9.986885, 9.987733 
9.678969e+2, 2.4877003e+2, -524478.44, -519475.72, 17682.006, -0.07194156, 0.5315858, -504119.0, -2011.9055, 0.000000000013450299, 9.986208, 9.987389 
9.6728855e+2, 2.587586e+2, -425354.25, -409820.63, 3282.6223, -0.08893956, 0.6150648, -409155.4, -4934.532, 0.0000000001482496, 9.985774, 9.988219 
9.666781e+2, 2.687469e+2, -325445.56, -308095.75, 1259.8009, -0.17842469, 0.60656273, -308004.75, -1668.9402, 0.0000000012029147, 9.985795, 9.98851 
9.6606547e+2, 2.787348e+2, -221511.97, -211499.72, -13246.473, -0.2683071, 0.5547256, -202344.97, 6109.636, 0.0000000073681794, 9.986441, 9.987964 
9.654561e+2, 2.8872222e+2, -87885.13, -110112.06, -8828.916, -0.03081818, 0.56562793, -84804.98, 25773.357, 0.000000035559857, 9.989579, 9.986723 
9.648412e+2, 2.9870865e+2, 45576.156, -16597.482, 1145.6559, -0.2573646, 0.62427044, 45597.26, 58309.035, 0.00000014260962, 9.993058, 9.984749 
9.845428e+2, 1.3951845e+2, -1622963.6, -1617042.6, -14604.426, 0.29214495, 0.50944465, -1605101.6, -32327.738, 0.0, 9.985448, 9.986521 
9.8393714e+2, 1.495041e+2, -1513535.6, -1534009.1, 17149.287, 0.21592462, 0.55019957, -1503800.1, -28883.316, 0.0, 9.9873495, 9.984532 
9.833328e+2, 1.594891e+2, -1405883.9, -1424031.9, 27351.984, -0.004506631, 0.61653936, -1386140.0, -9074.066, 0.0, 9.987573, 9.985187 
9.827281e+2, 1.6947643e+2, -1272837.3, -1279212.5, 8614.48, 0.061840285, 0.65542215, -1266839.5, 12350.108, 0.0, 9.988442, 9.987907 
9.8212296e+2, 1.7946476e+2, -1161849.5, -1175062.1, 11870.294, 0.13088499, 0.676746, -1154871.0, 26432.576, 0.0, 9.989342, 9.988085 
9.8151785e+2, 1.8945168e+2, -1075702.4, -1086897.1, 13481.343, 0.07143871, 0.5892338, -1066702.6, 16727.77, 0.0, 9.988709, 9.987723 
9.8091316e+2, 1.9943868e+2, -988039.1, -989981.44, 18031.135, 0.022582632, 0.4945699, -970953.0, 14603.91, 0.0, 9.987819, 9.988116 
9.803087e+2, 2.0942777e+2, -898328.94, -897748.2, 13412.068, 0.0049786353, 0.6039375, -884623.4, 3041.8801, 0.0, 9.987279, 9.9880085 
9.797036e+2, 2.1941759e+2, -796909.1, -789229.06, 9119.944, -0.01767456, 0.7442406, -783173.7, 6593.1006, 0.00000000000000014322901, 9.98709, 9.988828 
9.790978e+2, 2.2940579e+2, -696916.2, -690478.94, 10069.259, -0.015202002, 0.6860898, -683126.4, 8754.389, 0.0000000000000041040377, 9.987171, 9.988758 
9.7849065e+2, 2.393936e+2, -600085.4, -594296.5, 10224.535, -0.0044705058, 0.58182734, -586564.56, 7433.6045, 0.000000000000085429954, 9.987162, 9.988484 
9.778839e+2, 2.4938118e+2, -516753.2, -518364.34, 13460.01, 0.0031086209, 0.5861141, -504074.7, -7954.1025, 0.000000000001292103, 9.986837, 9.987169 
9.772753e+2, 2.593691e+2, -419023.47, -411959.1, 707.3083, 0.00031136727, 0.62784654, -411888.97, -13648.867, 0.0000000000142405965, 9.986432, 9.987781 
9.766646e+2, 2.6935747e+2, -322933.25, -315014.1, 619.4147, -0.107635975, 0.68561375, -314965.94, -14611.687, 0.00000000011554544, 9.986326, 9.987802 
9.760524e+2, 2.793452e+2, -220766.38, -219285.3, -5265.539, -0.22363178, 0.70649195, -214708.48, -12233.658, 0.0000000007077114, 9.986927, 9.98728 
9.7544587e+2, 2.893316e+2, -84974.73, -104565.88, 4843.183, -0.031054454, 0.61407894, -83842.82, 20766.172, 0.000000003414842, 9.989776, 9.987141 
9.7483337e+2, 2.9931846e+2, 65925.44, 31938.313, 1074.0042, -0.33620936, 0.6135993, 65959.34, 72697.49, 0.000000013690085, 9.992699, 9.988272 
9.945287e+2, 1.4012338e+2, -1592166.5, -1561784.8, -7337.297, 0.30781627, 0.691974, -1560105.5, 6747.6274, 0.0, 9.985978, 9.990205 
9.939237e+2, 1.5011132e+2, -1487703.3, -1479521.4, 12552.819, 0.13621859, 0.59049296, -1470409.8, -1439.5787, 0.0, 9.987352, 9.988292 
9.933238e+2, 1.6009864e+2, -1405761.8, -1413545.6, 24654.457, 0.36483023, 0.59082645, -1384694.0, -13600.176, 0.0, 9.987221, 9.986077 
9.9271894e+2, 1.7008422e+2, -1285653.0, -1305840.5, 11981.214, 0.28997904, 0.5684734, -1280080.4, -6845.6943, 0.0, 9.988653, 9.9860735 
9.921134e+2, 1.8007068e+2, -1155982.8, -1178884.1, 8002.055, 0.17004642, 0.5514007, -1153463.8, 21903.117, 0.0, 9.990159, 9.987483 
9.915074e+2, 1.9005902e+2, -1064275.8, -1080297.9, 2800.6548, 0.08535509, 0.60752106, -1063800.3, 13679.25, 0.0, 9.989503, 9.987821 
9.9090147e+2, 2.000473e+2, -982128.4, -991873.94, 4674.333, 0.019932501, 0.6383187, -980248.9, -655.8585, 0.0, 9.98849, 9.987719 
9.902957e+2, 2.1003361e+2, -908095.75, -910962.06, -1967.8529, -0.009907252, 0.5416951, -907094.5, -25366.654, 0.0, 9.987026, 9.987293 
9.896895e+2, 2.2002093e+2, -813354.0, -791991.4, -2214.3372, -0.038998213, 0.46409935, -791764.25, -7911.041, 0.000000000000000010837507, 9.985852, 9.98933 
9.89084e+2, 2.3001125e+2, -694790.94, -673919.56, 3846.997, -0.07785252, 0.49770743, -673233.06, 12715.184, 0.00000000000000031058006, 9.986837, 9.990181 
9.884776e+2, 2.4000165e+2, -584274.4, -583220.1, 2420.5767, -0.097012885, 0.5369898, -581269.94, 6772.74, 0.0000000000000064639003, 9.988281, 9.988831 
9.8787147e+2, 2.4998878e+2, -488736.53, -507486.03, 2862.3325, -0.05724551, 0.5104411, -488309.28, 1860.8395, 0.000000000000097753626, 9.989022, 9.986978 
9.8726326e+2, 2.5997558e+2, -378328.06, -395606.75, -10535.9795, -0.029536845, 0.47564408, -373342.25, 18958.393, 0.0000000000010773522, 9.989499, 9.987571 
9.8665273e+2, 2.6996344e+2, -272113.63, -290501.6, -8618.047, -0.1341646, 0.4763791, -268706.03, 25713.393, 0.000000000008741193, 9.989935, 9.987869 
9.8604107e+2, 2.7995113e+2, -175917.19, -203948.08, -10325.145, -0.24467887, 0.5016422, -172524.55, 24015.229, 0.00000000005353408, 9.990354, 9.986798 
9.854347e+2, 2.899376e+2, -127125.82, -143221.5, -12141.046, -0.024405653, 0.5357627, -120607.516, -21934.96, 0.00000000025827646, 9.987699, 9.985701 
9.8482305e+2, 2.9992488e+2, -21505.943, 908.5554, -26538.879, -0.30267534, 0.6515708, 18509.543, 19307.154, 0.0000000010352618, 9.986327, 9.989754 
1.0045166e+3, 1.4072414e+2, -1498765.4, -1495228.9, -17633.133, 0.26373714, 0.7560258, -1479275.6, 81696.8, 0.0, 9.991642, 9.992453 
1.0039107e+3, 1.5071516e+2, -1398078.9, -1405946.0, -22359.436, -0.09714255, 0.688693, -1379309.8, 83746.96, 0.0, 9.9922285, 9.991462 
1.0033118e+3, 1.6070576e+2, -1323593.5, -1350938.3, -10800.04, 0.27195492, 0.6975442, -1319842.5, 45303.71, 0.0, 9.991933, 9.98857 
1.0027074e+3, 1.7069279e+2, -1248073.9, -1281715.4, 1950.9993, 0.19613801, 0.68685865, -1247961.1, 19311.377, 0.0, 9.991184, 9.986652 
1.00210205e+3, 1.8067923e+2, -1154636.8, -1179159.9, 7642.5933, 0.027641034, 0.6553064, -1152450.0, 16954.406, 0.0, 9.990542, 9.987154 
1.0014964e+3, 1.9066592e+2, -1058163.8, -1074227.3, -3061.1228, 0.056077905, 0.5609969, -1057600.1, 13932.599, 0.0, 9.989987, 9.987882 
1.00089036e+3, 2.0065416e+2, -970319.7, -979084.3, 91.13381, 0.07078306, 0.5672201, -970318.7, 3327.4832, 0.0, 9.989193, 9.988067 
1.0002827e+3, 2.106421e+2, -899059.5, -899835.6, 8106.3916, -0.0037989232, 0.6065174, -891331.9, -15567.778, 0.0, 9.987581, 9.987328 
9.9967533e+2, 2.2062951e+2, -805471.7, -787446.6, 16465.395, -0.04479538, 0.566814, -777688.56, 199.35695, 0.0000000000000000006820092, 9.986715, 9.988741 
9.9907196e+2, 2.3061979e+2, -691184.5, -670650.8, 3423.6145, 0.03700433, 0.6362576, -670095.0, 9890.868, 0.00000000000000001954189, 9.987419, 9.990081 
9.984667e+2, 2.4061069e+2, -587799.1, -579672.94, -11877.689, -0.0007130165, 0.7173728, -571182.6, 10894.952, 0.00000000000000040645458, 9.98816, 9.989325 
9.9785966e+2, 2.5059935e+2, -489059.06, -502952.66, 3973.4568, -0.119270876, 0.7943253, -488002.97, -3811.7336, 0.0000000000000061445223, 9.989069, 9.987173 
9.972516e+2, 2.6058605e+2, -367686.44, -390903.88, 4482.475, -0.14193703, 0.7719161, -366851.06, 19471.92, 0.00000000000006771698, 9.990439, 9.987162 
9.966423e+2, 2.705739e+2, -266287.63, -289611.6, -6768.2188, -0.16555306, 0.8162954, -264465.9, 23974.703, 0.0000000000005493915, 9.990581, 9.98756 
9.960302e+2, 2.805596e+2, -184341.36, -220872.69, -25625.236, -0.34632954, 0.66572565, -171138.19, 19441.209, 0.0000000000033642223, 9.990389, 9.985743 
9.954194e+2, 2.9054335e+2, -73265.23, -155358.34, -41744.77, -0.31571507, 0.67321074, -55767.395, 36971.56, 0.000000000016230134, 9.992909, 9.982507 
9.9481094e+2, 3.0052653e+2, 20448.807, -10889.508, -12605.75, -0.1767181, 0.68403363, 24890.03, 24890.03, 0.00000000006506301, 9.990951, 9.987025 
