coord_x,coord_y,stress_xx,stress_yy,tau_xy,velocity_x,velocity_y,stress_1,eps,damage,lx,ly
4.9978033e+0, 1.2430463e+2, -1771611.3, -1728068.3, -410.41425, 0.0039201863, -0.016409284, -1728064.4, -6250.8677, 0.0, 9.995527, 10.001293 
4.997769e+0, 1.3430443e+2, -1683952.6, -1652929.6, 2397.305, -0.002985274, -0.012377064, -1652745.5, -28929.291, 0.0, 9.995598, 9.999704 
4.9978104e+0, 1.4430447e+2, -1581640.8, -1549955.8, 3551.2634, -0.0071493573, 0.013369579, -1549562.6, -23746.346, 0.0, 9.995764, 9.999958 
4.997943e+0, 1.5430462e+2, -1478460.6, -1448269.3, 1731.6833, -0.0088534, 0.022011358, -1448170.3, -20355.62, 0.0, 9.996063, 10.00006 
4.998088e+0, 1.6430376e+2, -1389030.0, -1372511.8, -1029.5419, -0.004298325, 0.00994008, -1372447.8, -42625.285, 0.0, 9.996262, 9.998447 
4.9982518e+0, 1.743018e+2, -1290142.3, -1274458.6, -4056.568, 0.008401865, -0.028743904, -1273471.5, -41630.69, 0.0, 9.996336, 9.998411 
4.9984995e+0, 1.8429878e+2, -1205644.9, -1214420.3, -2403.6577, 0.0112452675, -0.037517555, -1205029.6, -71159.26, 0.0, 9.996774, 9.99561 
4.9988574e+0, 1.9429457e+2, -1095016.9, -1111680.5, 2025.61, 0.0012225367, -0.009106274, -1094774.1, -58861.605, 0.0, 9.99769, 9.995483 
4.9990392e+0, 2.0428985e+2, -994987.1, -1019837.25, 1430.906, -0.0028311966, 0.0061796894, -994905.0, -56945.953, 0.0, 9.998135, 9.9948435 
4.99899e+0, 2.1428472e+2, -899252.56, -922514.7, -1318.0494, 0.0010458967, 0.0026343295, -899178.06, -59168.613, 0.0, 9.997959, 9.994878 
4.999001e+0, 2.2427848e+2, -818503.4, -860107.56, -609.89276, 0.0023927663, 0.0069950456, -818494.44, -76423.58, 0.0, 9.997954, 9.992448 
4.9990916e+0, 2.3427095e+2, -717884.25, -761952.44, 2885.2676, 0.00032824607, 0.019969698, -717696.2, -73551.32, 0.0, 9.998177, 9.992344 
4.9993005e+0, 2.4426302e+2, -615033.8, -663660.1, 3018.5435, 0.000388788, 0.004694673, -614847.1, -68624.89, 0.0, 9.998592, 9.992157 
4.999663e+0, 2.5425473e+2, -506662.8, -559747.8, -3012.1912, 0.0033371823, -0.049812965, -506492.44, -58190.18, 0.0, 9.999259, 9.992232 
4.999908e+0, 2.6424542e+2, -423132.34, -503666.78, -6096.195, 0.002277746, -0.052703798, -422673.47, -72280.41, 0.0, 9.99977, 9.989115 
4.9999928e+0, 2.7423504e+2, -321728.75, -405621.66, -3727.6401, -0.004080957, 0.010657762, -321563.47, -69067.14, 0.0, 10.000067, 9.988967 
5.000118e+0, 2.842234e+2, -231963.72, -331906.34, -1313.4752, -0.0068322653, 0.04224639, -231946.45, -77335.64, 0.0, 10.000372, 9.987152 
5.000293e+0, 2.942104e+2, -129520.86, -232012.92, 964.98956, -0.0047504515, 0.0285215, -129511.78, -72773.73, 0.0, 10.000681, 9.987124 
5.0004214e+0, 3.0420065e+2, -31006.797, -83917.34, 1950.2671, 0.00012864714, 0.0073913475, -30935.008, -30935.008, 0.0, 10.00084, 9.9938345 
5.0004804e+0, 3.1419423e+2, -31216.137, -83066.49, 2585.4321, 0.008740798, -0.025527647, -31087.537, -31087.537, 0.0, 10.000785, 9.993919 
1.499341e+1, 1.2430454e+2, -1766559.8, -1717715.1, -246.28766, 0.011593072, -0.011604528, -1717713.9, 4100.5884, 0.0, 9.995528, 10.001995 
1.4993306e+1, 1.3430499e+2, -1678704.3, -1642168.8, 2670.1582, -0.009040456, -0.016726546, -1641974.6, -18164.365, 0.0, 9.995598, 10.000435 
1.499343e+1, 1.443051e+2, -1584568.9, -1555961.0, 4605.433, -0.021466542, -0.0040480536, -1555237.9, -29428.629, 0.0, 9.995763, 9.99955 
1.4993829e+1, 1.5430458e+2, -1482002.4, -1455540.0, 2870.533, -0.026563559, -0.013489081, -1455232.3, -27418.059, 0.0, 9.996062, 9.999565 
1.4994264e+1, 1.6430318e+2, -1394565.0, -1383888.8, -700.7167, -0.012930051, -0.017256172, -1383843.0, -54015.1, 0.0, 9.996262, 9.997674 
1.4994757e+1, 1.7430086e+2, -1295824.1, -1286151.3, -3771.341, 0.025163874, -0.013011111, -1284854.6, -53003.8, 0.0, 9.996336, 9.997615 
1.4995497e+1, 1.8429801e+2, -1198420.6, -1199542.9, 833.80133, 0.03374498, -0.008950097, -1197976.8, -64097.965, 0.0, 9.996774, 9.996623 
1.4996572e+1, 1.9429466e+2, -1086843.5, -1094835.9, 5500.428, 0.003632671, -0.0068720803, -1084040.9, -48129.418, 0.0, 9.99769, 9.996632 
1.4997117e+1, 2.0429017e+2, -998986.06, -1028088.25, 1045.5002, -0.008519756, -0.007487563, -998948.56, -60992.957, 0.0, 9.998135, 9.994282 
1.499697e+1, 2.142843e+2, -904181.75, -932691.9, -1990.4355, 0.003127466, -0.012473736, -904043.44, -64030.348, 0.0, 9.997959, 9.994184 
1.4997002e+1, 2.2427803e+2, -812810.0, -848350.7, 126.77088, 0.0071492405, -0.011462118, -812809.5, -70734.82, 0.0, 9.997953, 9.99325 
1.4997275e+1, 2.3427136e+2, -711386.8, -748526.25, 3733.3997, 0.00094609713, -0.003969159, -711015.25, -66875.375, 0.0, 9.998177, 9.99326 
1.4997901e+1, 2.4426344e+2, -625172.9, -684627.5, 5423.4595, 0.0011657659, -0.0005979842, -624682.2, -78464.59, 0.0, 9.998592, 9.9907255 
1.4998989e+1, 2.5425404e+2, -518102.5, -583424.7, -483.30878, 0.009981412, -0.0038990164, -518098.9, -69788.85, 0.0, 9.999258, 9.990616 
1.4999723e+1, 2.6424414e+2, -419723.28, -496605.94, -4864.872, 0.0068116784, -0.0035421108, -419416.7, -69009.54, 0.0, 9.99977, 9.989597 
1.4999978e+1, 2.742338e+2, -317144.66, -396119.22, -2606.479, -0.012254912, 0.00012480465, -317058.72, -64550.39, 0.0, 10.000067, 9.989617 
1.5000352e+1, 2.8422245e+2, -227669.17, -322992.72, -134.58054, -0.020522526, -0.007416962, -227668.98, -73049.52, 0.0, 10.000371, 9.987762 
1.500088e+1, 2.9420993e+2, -125269.72, -223179.8, 2137.2742, -0.014260701, -0.031651534, -125223.086, -68481.49, 0.0, 10.000681, 9.987729 
1.5001264e+1, 3.0420083e+2, -29465.104, -80718.14, 1866.6924, 0.000357918, -0.028510263, -29397.205, -29397.205, 0.0, 10.00084, 9.994054 
1.500144e+1, 3.141953e+2, -29924.398, -80381.85, 2377.2612, 0.026182346, 0.009941857, -29812.643, -29812.643, 0.0, 10.000785, 9.9941025 
2.4988347e+1, 1.2430405e+2, -1778417.1, -1718822.4, -2271.2378, 0.0030695226, -0.0030610575, -1718736.0, 3083.734, 0.0, 9.99452, 10.002412 
2.4988787e+1, 1.3430482e+2, -1679986.4, -1638002.5, -1497.6951, -0.0060216268, -0.017379025, -1637949.1, -14137.517, 0.0, 9.995302, 10.000862 
2.4989326e+1, 1.4430498e+2, -1585540.8, -1559046.1, -890.5015, -0.010586427, -0.012336195, -1559016.3, -33206.254, 0.0, 9.9958105, 9.999317 
2.4989958e+1, 1.543041e+2, -1485451.5, -1460378.9, -1072.5382, -0.015124862, -0.027840352, -1460333.0, -32514.639, 0.0, 9.995966, 9.999284 
2.4990655e+1, 1.6430248e+2, -1394004.6, -1386800.1, -1164.0826, -0.008670442, -0.026128689, -1386616.6, -56782.1, 0.0, 9.996438, 9.99739 
2.499146e+1, 1.7430007e+2, -1283213.3, -1283209.0, -292.30194, 0.012318392, -0.0014080717, -1282918.9, -51060.047, 0.0, 9.997333, 9.997332 
2.4992451e+1, 1.8429728e+2, -1186239.4, -1190464.8, 2209.9033, 0.017168429, 0.00795938, -1185294.8, -51408.285, 0.0, 9.997466, 9.996905 
2.4993691e+1, 1.942941e+2, -1100456.3, -1097809.8, 561.5163, 0.0007190052, -0.00465951, -1097695.6, -61778.56, 0.0, 9.996606, 9.996955 
2.499453e+1, 2.0428966e+2, -1021675.0, -1039831.6, -3831.0396, -0.0049785646, -0.013493465, -1020899.75, -82939.39, 0.0, 9.99662, 9.994216 
2.4994849e+1, 2.142837e+2, -907323.6, -935284.0, -2242.8477, 0.0034779373, -0.018238746, -907144.9, -67126.15, 0.0, 9.997791, 9.994089 
2.4995314e+1, 2.242774e+2, -801105.3, -841072.8, -450.3723, 0.0064130696, -0.020575618, -801100.25, -59019.875, 0.0, 9.998684, 9.993393 
2.4995975e+1, 2.3427083e+2, -695193.9, -738879.94, -2560.4817, 0.0019974578, -0.02115546, -695044.3, -50899.727, 0.0, 9.999205, 9.993421 
2.4996908e+1, 2.4426284e+2, -616719.5, -686411.9, -1202.5364, 0.0013079189, -0.008200397, -616698.75, -70475.6, 0.0, 9.999423, 9.990202 
2.4998194e+1, 2.5425318e+2, -522446.63, -592015.0, 663.38776, 0.005458781, 0.021412607, -522440.3, -74121.37, 0.0, 9.999242, 9.990037 
2.4999204e+1, 2.642432e+2, -424008.03, -494221.7, 490.5607, 0.002307423, 0.025091872, -424004.6, -73587.55, 0.0, 9.999285, 9.989994 
2.4999839e+1, 2.7423298e+2, -320210.2, -392256.97, 1471.7839, -0.010657556, -0.0075213974, -320180.13, -67663.85, 0.0, 9.999627, 9.990093 
2.500055e+1, 2.8422174e+2, -233586.73, -324484.2, 1308.2937, -0.014514885, -0.033479016, -233567.9, -78942.21, 0.0, 9.9999075, 9.987884 
2.5001347e+1, 2.942094e+2, -133177.9, -225966.17, -323.5913, -0.0061535137, -0.05183753, -133176.77, -76430.32, 0.0, 10.000094, 9.987821 
2.5001997e+1, 3.042004e+2, -33966.855, -83649.59, -3150.2156, 0.0034577888, -0.037703745, -33767.906, -33767.906, 0.0, 10.000564, 9.993985 
2.5002423e+1, 3.1419498e+2, -21457.852, -77224.61, -4637.2256, 0.014852145, 0.018500062, -21074.879, -21074.879, 0.0, 10.001406, 9.99402 
3.4982613e+1, 1.2430312e+2, -1777513.9, -1716949.3, 478.42572, -0.022607889, 0.009244844, -1716945.5, 4883.6543, 0.0, 9.994519, 10.00254 
3.498421e+1, 1.3430393e+2, -1679129.6, -1636234.0, 1466.3257, 0.0059716473, -0.014129403, -1636184.0, -12363.527, 0.0, 9.995302, 10.000982 
3.4985498e+1, 1.443041e+2, -1585937.0, -1559849.1, -151.05211, 0.025382906, -0.01166515, -1559848.3, -34029.656, 0.0, 9.99581, 9.999263 
3.498633e+1, 1.5430322e+2, -1485945.0, -1461391.4, -477.1621, 0.02505974, -0.02101681, -1461382.1, -33554.813, 0.0, 9.995965, 9.999215 
3.4987262e+1, 1.6430168e+2, -1392509.1, -1383741.3, 2027.325, 0.008061563, -0.016623968, -1383295.1, -53452.43, 0.0, 9.996438, 9.997598 
3.4988368e+1, 1.7429948e+2, -1281556.9, -1279837.3, 3112.4277, -0.030542374, 0.0060873474, -1277468.0, -45603.242, 0.0, 9.997334, 9.99756 
3.4989357e+1, 1.8429655e+2, -1189432.9, -1197069.5, -592.7164, -0.039014947, 0.013107535, -1189387.1, -55493.61, 0.0, 9.997467, 9.996454 
3.4990212e+1, 1.9429286e+2, -1104023.3, -1105163.1, -2698.806, -0.007904603, -0.0023871008, -1101834.9, -65905.51, 0.0, 9.996606, 9.996453 
3.4991276e+1, 2.0428835e+2, -1018596.06, -1033488.06, 63.71083, 0.007364247, -0.01193476, -1018595.8, -80622.414, 0.0, 9.99662, 9.994648 
3.4992623e+1, 2.1428293e+2, -903738.7, -927897.2, 2206.3943, 0.0017183347, -0.0146121215, -903538.9, -63512.582, 0.0, 9.997791, 9.994592 
3.4993935e+1, 2.2427663e+2, -804751.6, -848628.5, 1687.82, -0.00014320083, -0.020291883, -804686.8, -62598.97, 0.0, 9.998685, 9.992876 
3.4995192e+1, 2.3426935e+2, -699391.44, -747581.94, -592.46265, 0.003096609, -0.031496473, -699384.1, -55225.1, 0.0, 9.999206, 9.992826 
3.4996328e+1, 2.4426123e+2, -613981.9, -680791.2, -1706.2405, 0.00028309377, -0.018163197, -613938.4, -67699.3, 0.0, 9.999425, 9.990584 
3.4997275e+1, 2.542522e+2, -519186.5, -585272.7, -37.96487, -0.0104112215, 0.026249351, -519186.47, -70857.58, 0.0, 9.999242, 9.990497 
3.499835e+1, 2.6424262e+2, -421797.75, -489643.4, 1644.0511, -0.011451608, 0.033091802, -421757.94, -71335.086, 0.0, 9.999285, 9.990308 
3.499958e+1, 2.7423254e+2, -318077.13, -387849.06, 2771.087, 0.00035765118, -0.012326387, -317967.25, -65447.01, 0.0, 9.999627, 9.990395 
3.5000715e+1, 2.8422132e+2, -236154.86, -329822.13, 2064.6785, 0.010845248, -0.036010038, -236109.38, -81479.8, 0.0, 9.9999075, 9.987518 
3.5001698e+1, 2.9420877e+2, -136133.72, -232112.25, 377.9462, 0.019365173, -0.03207465, -136132.23, -79379.58, 0.0, 10.000095, 9.9874 
3.5002622e+1, 3.041994e+2, -36454.457, -88825.03, -146.37805, 0.009269155, -0.02022559, -36454.047, -36454.047, 0.0, 10.000565, 9.99363 
3.5003427e+1, 3.1419328e+2, -23901.37, -82311.48, -1449.6696, -0.025785811, 0.0001807289, -23865.412, -23865.412, 0.0, 10.001407, 9.993671 
4.4977733e+1, 1.2430175e+2, -1762647.8, -1712546.3, -906.318, -0.01885009, 0.006167654, -1712529.9, 9312.437, 0.0, 9.99565, 10.002287 
4.497952e+1, 1.3430227e+2, -1680080.8, -1639861.8, -2852.012, 0.0030079526, -0.017208997, -1639660.5, -15823.803, 0.0, 9.995375, 10.000701 
4.4981143e+1, 1.4430237e+2, -1588722.0, -1560416.9, -4789.219, 0.020388957, -0.010219775, -1559628.5, -33792.74, 0.0, 9.995587, 9.999332 
4.49825e+1, 1.5430172e+2, -1478195.5, -1456548.9, -3804.1882, 0.021735983, -0.008080213, -1455899.9, -28057.373, 0.0, 9.996446, 9.99931 
4.4983828e+1, 1.6430038e+2, -1385933.0, -1376542.5, -1210.8202, 0.0071538864, -0.0040308097, -1376388.9, -46533.258, 0.0, 9.996712, 9.997953 
4.4985163e+1, 1.742984e+2, -1295409.1, -1282359.6, 903.13605, -0.027999599, 0.0029634016, -1282297.4, -50422.113, 0.0, 9.996209, 9.997934 
4.4986334e+1, 1.8429546e+2, -1207587.9, -1209703.9, -2103.4114, -0.0345894, 0.004227141, -1206291.4, -72387.266, 0.0, 9.996397, 9.996114 
4.4987306e+1, 1.9429144e+2, -1093737.1, -1104601.1, -3421.1936, -0.0038610557, -0.0038487017, -1092749.6, -56806.266, 0.0, 9.9974985, 9.996058 
4.498867e+1, 2.0428683e+2, -995495.2, -1020664.44, 407.88693, 0.009640918, -0.008678245, -995488.56, -57500.227, 0.0, 9.998125, 9.994791 
4.4990566e+1, 2.142816e+2, -897504.8, -922798.9, 276.7672, 0.00026400288, -0.010282473, -897501.8, -57462.465, 0.0, 9.998127, 9.994777 
4.4992352e+1, 2.242753e+2, -812948.25, -855658.25, -1284.9125, -0.0053858254, -0.013730459, -812909.6, -70808.63, 0.0, 9.998258, 9.992604 
4.4993988e+1, 2.3426774e+2, -711018.2, -756673.6, -1465.4647, -0.005928402, -0.02119553, -710971.25, -66796.23, 0.0, 9.998562, 9.992517 
4.4995388e+1, 2.4425967e+2, -618039.5, -675700.25, -1868.5944, -0.0066922433, -0.016299125, -617979.0, -71724.61, 0.0, 9.998844, 9.991213 
4.499647e+1, 2.5425106e+2, -516321.13, -576003.7, 1514.8243, -0.00799153, 0.0035022744, -516282.7, -67943.64, 0.0, 9.999098, 9.9911995 
4.4997704e+1, 2.6424173e+2, -423816.06, -493649.1, 2765.857, -0.004543714, 0.008562465, -423706.66, -73276.1, 0.0, 9.999277, 9.990037 
4.499912e+1, 2.7423164e+2, -324603.4, -394929.56, -975.33685, 0.0052859797, -0.007925629, -324589.9, -72060.61, 0.0, 9.99935, 9.990044 
4.5000583e+1, 2.842203e+2, -239218.95, -333244.16, -2462.8833, 0.0133353975, -0.013056041, -239154.48, -84514.55, 0.0, 9.999781, 9.987346 
4.5002082e+1, 2.9420763e+2, -128604.44, -230265.55, -2109.8828, 0.01877178, -0.0047987006, -128560.664, -71796.39, 0.0, 10.000688, 9.987241 
4.5003545e+1, 3.041981e+2, -25339.805, -83271.914, -272.92038, 0.007482707, -0.0038605612, -25338.518, -25338.518, 0.0, 10.001319, 9.993648 
4.50049e+1, 3.1419167e+2, -21399.588, -80744.32, 1271.369, -0.026322324, -0.014931495, -21372.363, -21372.363, 0.0, 10.001562, 9.993704 
5.4973716e+1, 1.24299936e+2, -1767214.1, -1721968.0, -2005.5754, 0.013464235, -0.012106531, -1721879.3, -19.837318, 0.0, 9.995653, 10.001646 
5.497471e+1, 1.3429986e+2, -1685048.6, -1650038.3, -3898.6633, -0.015237315, -0.02670773, -1649609.4, -25748.938, 0.0, 9.995374, 10.00001 
5.4976267e+1, 1.4429979e+2, -1587318.5, -1557518.8, -1840.2792, -0.02610867, -0.007924245, -1557405.6, -31544.115, 0.0, 9.995586, 9.99953 
5.497847e+1, 1.5429956e+2, -1476290.6, -1452665.6, -524.0915, -0.026094053, 0.010991786, -1452654.0, -24790.016, 0.0, 9.996447, 9.999573 
5.498035e+1, 1.6429858e+2, -1382304.3, -1369131.6, -2771.117, -0.012336929, 0.011727393, -1368572.4, -38698.805, 0.0, 9.996715, 9.998456 
5.498185e+1, 1.7429681e+2, -1291698.5, -1274709.9, -1003.2147, 0.019591868, -0.010839389, -1274650.9, -42760.492, 0.0, 9.996209, 9.998455 
5.498338e+1, 1.8429396e+2, -1209239.9, -1213098.9, 1652.0382, 0.03006014, -0.018704725, -1208629.3, -74711.04, 0.0, 9.996397, 9.995883 
5.498497e+1, 1.9428983e+2, -1095761.0, -1108819.6, 776.18195, 0.012370756, -0.009089095, -1095715.1, -59756.215, 0.0, 9.997501, 9.9957695 
5.4986715e+1, 2.042851e+2, -996483.44, -1022783.44, 694.94305, 0.0010950674, -0.003743024, -996465.1, -58459.684, 0.0, 9.998129, 9.994645 
5.498868e+1, 2.1427973e+2, -898435.7, -924767.2, 267.55588, -0.0015101155, -0.005286785, -898432.94, -58375.0, 0.0, 9.998129, 9.994641 
5.499057e+1, 2.2427343e+2, -813132.06, -856059.8, -228.06596, -0.009756612, -0.0008892378, -813130.8, -71010.93, 0.0, 9.998259, 9.992576 
5.4992354e+1, 2.3426604e+2, -711152.5, -756963.44, -317.12378, -0.025453681, 0.009777249, -711150.3, -66957.72, 0.0, 9.998563, 9.992497 
5.49941e+1, 2.4425818e+2, -611831.44, -662892.1, -900.1984, -0.020443993, -0.0025693532, -611815.56, -65546.32, 0.0, 9.998845, 9.992086 
5.4995775e+1, 2.5424987e+2, -509626.2, -562171.7, 2469.7185, 0.012120336, -0.04699277, -509510.38, -61160.92, 0.0, 9.9991, 9.992144 
5.4997253e+1, 2.642406e+2, -429844.75, -506142.34, 3089.1453, 0.022639621, -0.048477177, -429719.88, -79279.56, 0.0, 9.999277, 9.989183 
5.499845e+1, 2.7423018e+2, -331647.5, -409551.03, -701.19836, 0.0035774128, 0.0055757705, -331641.2, -79097.69, 0.0, 9.999351, 9.989043 
5.5000156e+1, 2.842187e+2, -239080.34, -332987.16, 736.0552, -0.0076871053, 0.035265528, -239074.58, -84417.766, 0.0, 9.999783, 9.987362 
5.5002505e+1, 2.94206e+2, -127875.52, -228771.06, 1326.3232, -0.008178996, 0.02994934, -127858.09, -71076.72, 0.0, 10.000689, 9.987342 
5.5004764e+1, 3.0419648e+2, -22605.248, -77601.66, 854.7936, -0.002430105, 0.011289308, -22591.965, -22591.965, 0.0, 10.001319, 9.994037 
5.500685e+1, 3.1419018e+2, -18509.232, -74741.97, 2176.352, 0.011902214, -0.02708834, -18425.129, -18425.129, 0.0, 10.001563, 9.994115 
6.4968896e+1, 1.24298036e+2, -1782332.8, -1731214.5, -2101.7246, 0.013611273, -0.022374736, -1731128.3, -9250.433, 0.0, 9.99471, 10.001478 
6.4970213e+1, 1.3429792e+2, -1681898.6, -1650703.6, -128.71269, -0.018124856, -0.021190682, -1650703.1, -26823.588, 0.0, 9.995684, 9.999813 
6.4972043e+1, 1.4429787e+2, -1579221.4, -1551558.6, 3421.4185, -0.030040843, 0.00030769288, -1551141.8, -25261.27, 0.0, 9.996049, 9.999709 
6.4974463e+1, 1.5429771e+2, -1486901.9, -1455507.5, 4296.584, -0.030363087, 0.0061261584, -1454930.1, -27048.14, 0.0, 9.9956255, 9.99978 
6.49766e+1, 1.6429673e+2, -1396429.1, -1377195.9, -265.0549, -0.013370322, 0.00101787, -1377192.3, -47300.867, 0.0, 9.995807, 9.998349 
6.4978415e+1, 1.7429487e+2, -1284096.8, -1272478.5, -3399.6482, 0.02653766, -0.018034883, -1271556.9, -39647.727, 0.0, 9.99679, 9.998324 
6.498039e+1, 1.8429199e+2, -1192831.4, -1204646.9, -706.8208, 0.03649641, -0.023307117, -1192789.3, -58851.996, 0.0, 9.997493, 9.995925 
6.498258e+1, 1.9428793e+2, -1090487.3, -1105629.6, 1143.8422, 0.0069897994, -0.012352778, -1090401.3, -54424.063, 0.0, 9.997833, 9.995825 
6.4984673e+1, 2.0428318e+2, -1000457.7, -1026628.3, -498.6974, -0.0070134616, -0.0053366376, -1000448.2, -62423.95, 0.0, 9.997941, 9.994474 
6.4986634e+1, 2.1427764e+2, -905344.5, -930244.2, -1539.2798, -0.00040985245, -0.0047003743, -905249.7, -65171.074, 0.0, 9.99775, 9.9944515 
6.4988625e+1, 2.2427137e+2, -819148.3, -855776.9, 8.9761715, -0.0023116309, 0.0024879465, -819148.3, -77008.26, 0.0, 9.99771, 9.99286 
6.499067e+1, 2.3426434e+2, -718976.8, -757139.3, 2583.5552, -0.015628273, 0.016686603, -718802.75, -74593.55, 0.0, 9.997872, 9.992819 
6.4992774e+1, 2.4425662e+2, -619645.1, -667224.4, 1304.0829, -0.011901645, 0.0029091968, -619609.44, -73325.01, 0.0, 9.998336, 9.992037 
6.4994943e+1, 2.5424817e+2, -508791.4, -562654.4, -2948.233, 0.014491327, -0.049429294, -508630.5, -60264.582, 0.0, 9.999195, 9.992064 
6.499688e+1, 2.6423866e+2, -421259.06, -505864.72, -5128.907, 0.019923419, -0.05503225, -420949.28, -70490.164, 0.0, 10.000032, 9.988837 
6.4998484e+1, 2.742279e+2, -312626.44, -404481.38, -4224.3696, -0.0026957002, -0.00006991006, -312432.56, -59866.62, 0.0, 10.000832, 9.988675 
6.500051e+1, 2.8421634e+2, -218517.67, -319345.03, -112.76444, -0.01315782, 0.028572584, -218517.55, -63837.727, 0.0, 10.001032, 9.987692 
6.500307e+1, 2.9420397e+2, -129035.9, -224966.9, 2542.8516, -0.0071931602, 0.01967931, -128968.54, -72167.73, 0.0, 10.0004225, 9.987731 
6.500555e+1, 3.041947e+2, -40399.43, -86204.43, 1935.1366, 0.005306056, 0.00403244, -40317.824, -40317.824, 0.0, 10.000099, 9.994034 
6.500786e+1, 3.141885e+2, -39140.098, -85100.47, -122.80553, 0.026785193, -0.022365304, -39139.77, -39139.77, 0.0, 10.000164, 9.994078 
7.496327e+1, 1.24296054e+2, -1780116.8, -1726622.1, 1392.9229, -0.019951774, -0.024644237, -1726586.0, -4688.4043, 0.0, 9.994708, 10.00179 
7.496602e+1, 1.3429648e+2, -1679711.8, -1646207.3, 3590.7542, -0.0057960856, -0.00060845015, -1645826.8, -21932.893, 0.0, 9.995684, 10.000118 
7.496848e+1, 1.4429659e+2, -1578058.9, -1549182.0, 2195.9124, 0.008736156, 0.014456934, -1549016.0, -23123.17, 0.0, 9.996049, 9.99987 
7.4970484e+1, 1.5429614e+2, -1485852.4, -1453321.3, 2715.7358, 0.008683446, -0.022755787, -1453096.0, -25199.492, 0.0, 9.995625, 9.999929 
7.497258e+1, 1.6429482e+2, -1401595.3, -1387793.0, 3109.0232, 0.0035480747, -0.03638018, -1387125.0, -57215.793, 0.0, 9.995806, 9.997629 
7.497487e+1, 1.7429255e+2, -1289688.4, -1284022.0, 350.5884, -0.007926007, -0.018616723, -1284000.4, -52068.65, 0.0, 9.996792, 9.997538 
7.4977356e+1, 1.8428954e+2, -1190491.9, -1199901.0, 732.3495, -0.016274327, -0.009452274, -1190435.3, -56473.938, 0.0, 9.997497, 9.996246 
7.498014e+1, 1.9428575e+2, -1087586.4, -1099681.5, 2428.7563, -0.020520233, -0.013619602, -1087116.9, -51118.348, 0.0, 9.997834, 9.99623 
7.498253e+1, 2.0428103e+2, -1001829.0, -1029483.5, -1080.687, -0.015094553, -0.013466131, -1001786.9, -63741.984, 0.0, 9.997943, 9.994278 
7.498442e+1, 2.142753e+2, -907050.56, -933788.06, -2262.7175, 0.0030339502, -0.008555125, -906860.44, -66759.02, 0.0, 9.997752, 9.994208 
7.498653e+1, 2.2426917e+2, -814904.94, -847015.2, 520.6758, 0.016405521, -0.0037068974, -814896.5, -72734.91, 0.0, 9.99771, 9.993458 
7.498894e+1, 2.3426268e+2, -714277.3, -747421.8, 3194.1526, 0.023356982, -0.00063276396, -713972.3, -69747.35, 0.0, 9.997872, 9.993483 
7.4991417e+1, 2.4425502e+2, -626526.56, -681463.3, 4365.0703, 0.018705627, 0.000012533121, -626181.9, -79881.914, 0.0, 9.998337, 9.991064 
7.499398e+1, 2.5424594e+2, -516577.53, -578796.0, 304.7122, -0.001351686, -0.0038358585, -516576.03, -68187.47, 0.0, 9.999196, 9.990961 
7.4996585e+1, 2.6423588e+2, -420100.38, -503488.4, -2096.6638, -0.013235201, -0.011136128, -420047.7, -69560.66, 0.0, 10.000033, 9.988999 
7.49992e+1, 2.742247e+2, -310751.13, -400617.2, -1212.4575, -0.014020362, -0.024806632, -310734.78, -58138.11, 0.0, 10.000833, 9.988939 
7.500164e+1, 2.8421322e+2, -213968.25, -309930.5, -2021.6621, -0.0037306612, -0.03295868, -213925.67, -59216.65, 0.0, 10.001034, 9.988336 
7.500378e+1, 2.942016e+2, -124271.59, -215095.6, 208.53377, 0.021379866, -0.03547588, -124271.12, -67448.43, 0.0, 10.000423, 9.988406 
7.5005907e+1, 3.0419275e+2, -43116.242, -91901.08, 1988.8535, 0.030325292, -0.025603285, -43035.293, -43035.293, 0.0, 10.000101, 9.993642 
7.5007933e+1, 3.1418657e+2, -42486.477, -92151.69, 124.915, 0.017268045, -0.00085125084, -42486.164, -42486.164, 0.0, 10.000168, 9.993592 
8.4958386e+1, 1.2429397e+2, -1763151.5, -1714704.1, 410.5501, -0.028624604, -0.011491788, -1714700.6, 7217.5044, 0.0, 9.995699, 10.002116 
8.4961545e+1, 1.3429454e+2, -1683394.3, -1644522.0, 2739.929, -0.001674804, -0.0036792383, -1644329.9, -20417.3, 0.0, 9.995282, 10.000429 
8.496432e+1, 1.4429466e+2, -1588884.6, -1556701.0, -159.829, 0.018941553, 0.004731408, -1556700.1, -30788.9, 0.0, 9.995412, 9.99967 
8.4966487e+1, 1.5429406e+2, -1478126.1, -1452256.4, -2593.6494, 0.014725948, -0.025416795, -1451998.9, -24082.057, 0.0, 9.996267, 9.999688 
8.4968877e+1, 1.6429254e+2, -1388553.8, -1384347.0, -903.37933, 0.0026508656, -0.03356149, -1384161.3, -54229.574, 0.0, 9.996818, 9.997371 
8.4971637e+1, 1.7429005e+2, -1288879.9, -1286555.8, 410.98044, -0.019275881, -0.012355997, -1286485.3, -54528.77, 0.0, 9.996973, 9.997277 
8.497446e+1, 1.8428695e+2, -1197594.3, -1201876.4, 395.8691, -0.028009534, -0.0035231574, -1197558.0, -63571.094, 0.0, 9.99695, 9.996377 
8.497742e+1, 1.9428325e+2, -1103183.4, -1105453.9, 120.19491, -0.019458672, -0.012801637, -1103177.0, -67154.016, 0.0, 9.996695, 9.996389 
8.498008e+1, 2.0427866e+2, -1014138.56, -1033982.75, -1710.5438, -0.009658573, -0.015808854, -1013992.2, -75924.195, 0.0, 9.997041, 9.99441 
8.498237e+1, 2.1427304e+2, -899852.7, -928861.8, 23.262972, 0.0017054916, -0.0114515275, -899852.7, -59729.535, 0.0, 9.998181, 9.994336 
8.498485e+1, 2.2426686e+2, -797392.1, -840455.56, 879.62354, 0.013563642, -0.010852699, -797374.2, -55190.38, 0.0, 9.99899, 9.993285 
8.498757e+1, 2.342601e+2, -693963.1, -739787.2, -2975.0945, 0.025919767, -0.016879125, -693770.75, -49520.85, 0.0, 9.999355, 9.993285 
8.499037e+1, 2.4425223e+2, -612001.6, -678351.4, -2788.9639, 0.022252556, -0.0090453895, -611884.56, -65557.53, 0.0, 9.999497, 9.990714 
8.4993243e+1, 2.5424308e+2, -516965.8, -583057.75, -1267.8352, -0.002720637, 0.015860504, -516941.5, -68524.44, 0.0, 9.999346, 9.990597 
8.4996146e+1, 2.6423308e+2, -429691.97, -502381.53, 205.71577, -0.015332036, 0.011551011, -429691.38, -79176.48, 0.0, 9.99913, 9.989511 
8.4999055e+1, 2.7422217e+2, -335904.56, -406224.03, 3464.2192, -0.011354786, -0.03379576, -335734.3, -83113.11, 0.0, 9.998828, 9.989523 
8.500179e+1, 2.8421086e+2, -241730.44, -324429.16, 1593.0332, 0.0011562088, -0.05301012, -241699.75, -86968.09, 0.0, 9.999178, 9.988238 
8.500423e+1, 2.9419926e+2, -125700.1, -217536.05, -2421.0483, 0.025033236, -0.038634874, -125636.32, -68790.94, 0.0, 10.000401, 9.988249 
8.500675e+1, 3.041902e+2, -24078.346, -87010.89, -2945.001, 0.03051876, -0.023529172, -23940.83, -23940.83, 0.0, 10.001593, 9.993258 
8.5009325e+1, 3.1418353e+2, -8017.3086, -80060.92, -4146.0117, 0.011167045, -0.0095651895, -7779.4966, -7779.4966, 0.0, 10.002729, 9.993188 
9.495425e+1, 1.24291785e+2, -1760713.0, -1709747.6, -1158.5452, -0.012891447, 0.017306205, -1709721.3, 12218.446, 0.0, 9.995703, 10.002451 
9.495678e+1, 1.3429211e+2, -1681185.4, -1639923.3, 1157.5485, -0.0060829935, -0.030743483, -1639890.8, -15955.055, 0.0, 9.99528, 10.000741 
9.495954e+1, 1.4429207e+2, -1592994.9, -1565036.5, 2755.5676, -0.000031950472, -0.02914146, -1564767.5, -38831.527, 0.0, 9.995407, 9.999105 
9.496248e+1, 1.542914e+2, -1482650.5, -1461558.9, 682.327, -0.013000425, -0.0016175157, -1461536.9, -33593.74, 0.0, 9.996267, 9.999056 
9.4965506e+1, 1.6428986e+2, -1387039.0, -1381299.3, -135.39058, -0.016669275, 0.010014094, -1381296.1, -51337.3, 0.0, 9.996821, 9.997576 
9.4968724e+1, 1.742873e+2, -1286940.8, -1282592.4, 1006.3311, -0.0076785544, 0.00074230705, -1282370.8, -50387.133, 0.0, 9.996975, 9.997545 
9.497171e+1, 1.8428418e+2, -1198037.3, -1202769.5, -452.5453, 0.0012940229, -0.005660199, -1197994.4, -63980.16, 0.0, 9.996949, 9.996317 
9.497441e+1, 1.9428046e+2, -1103819.8, -1106725.3, -834.7233, 0.010030505, -0.009911186, -1103597.0, -67546.43, 0.0, 9.996694, 9.996304 
9.49773e+1, 2.0427603e+2, -1010884.6, -1027247.06, 2239.7397, 0.009031699, -0.012369463, -1010583.56, -72489.79, 0.0, 9.99704, 9.994868 
9.498049e+1, 2.1427086e+2, -896266.75, -921498.06, 4363.5654, -0.004820359, -0.013483155, -895533.4, -55389.355, 0.0, 9.998182, 9.994838 
9.498359e+1, 2.2426444e+2, -804048.1, -854280.2, 2469.1013, -0.01149142, -0.019008616, -803927.06, -61720.324, 0.0, 9.998993, 9.99234 
9.498659e+1, 2.3425657e+2, -701424.25, -755275.7, -1607.0393, -0.008545642, -0.03199639, -701376.4, -57092.254, 0.0, 9.999358, 9.992226 
9.4989634e+1, 2.4424824e+2, -610043.56, -674355.6, -3245.9006, -0.0017447999, -0.024248887, -609880.1, -63514.3, 0.0, 9.9995, 9.990986 
9.4992715e+1, 2.5423956e+2, -514279.72, -577514.0, -1866.9078, 0.01012783, 0.009648154, -514224.66, -65773.11, 0.0, 9.999347, 9.990974 
9.499556e+1, 2.6423025e+2, -423592.38, -489763.22, -899.8903, 0.013249331, 0.012891791, -423580.13, -73037.3, 0.0, 9.999131, 9.990372 
9.499805e+1, 2.742203e+2, -329527.6, -393035.56, 2310.8806, 0.0047424915, -0.027062673, -329443.63, -76803.91, 0.0, 9.99883, 9.990423 
9.500097e+1, 2.842092e+2, -247611.11, -336653.56, 5767.1763, 0.0010184686, -0.031597856, -247239.13, -92491.25, 0.0, 9.99918, 9.987401 
9.5004416e+1, 2.941969e+2, -132634.86, -231931.13, 2202.5327, 0.003648195, 0.010047148, -132586.03, -75716.984, 0.0, 10.000401, 9.987264 
9.5008105e+1, 3.0418697e+2, -26730.207, -92498.19, 1390.7362, 0.0057812943, 0.010259184, -26700.813, -26700.813, 0.0, 10.001592, 9.992883 
9.501202e+1, 3.1417927e+2, -10295.998, -84787.45, 160.04907, 0.007434737, -0.048304453, -10295.654, -10295.654, 0.0, 10.002729, 9.992864 
1.049493e+2, 1.2428857e+2, -1783189.1, -1719911.0, -5051.0005, -0.000029787323, 0.009308427, -1719510.4, 2460.3772, 0.0, 9.994142, 10.002522 
1.0495197e+2, 1.342889e+2, -1680948.9, -1639406.5, -4746.596, -0.015061372, -0.04029571, -1638871.1, -14904.473, 0.0, 9.995277, 10.000778 
1.0495507e+2, 1.4428882e+2, -1585980.0, -1563843.5, -2494.5857, -0.01619817, -0.036298044, -1563565.9, -37598.332, 0.0, 9.99598, 9.998906 
1.0495861e+2, 1.5428804e+2, -1486416.1, -1465833.3, -1388.6458, -0.01856076, 0.00054763636, -1465740.0, -37763.973, 0.0, 9.996118, 9.998837 
1.0496208e+2, 1.6428652e+2, -1393043.5, -1380675.0, -1337.7844, -0.013680793, 0.0143627, -1380532.0, -50540.71, 0.0, 9.99626, 9.997891 
1.04965515e+2, 1.7428428e+2, -1292569.1, -1281329.3, 383.09134, 0.0010677004, -0.0022135798, -1281316.1, -49303.008, 0.0, 9.996419, 9.997901 
1.0496873e+2, 1.8428126e+2, -1199685.0, -1205016.1, -370.68958, 0.010963646, -0.010288104, -1199659.4, -65616.75, 0.0, 9.9969, 9.996187 
1.0497169e+2, 1.9427742e+2, -1088670.3, -1101245.0, -1307.2823, 0.014252181, -0.008821421, -1088535.8, -52455.504, 0.0, 9.9978075, 9.996136 
1.0497495e+2, 2.0427296e+2, -993736.25, -1018418.56, 306.0158, 0.011709981, -0.009562937, -993732.44, -55608.54, 0.0, 9.998187, 9.994912 
1.0497858e+2, 2.142678e+2, -900421.4, -922826.44, -867.64185, 0.0015051977, -0.014338674, -900387.9, -60214.016, 0.0, 9.9978695, 9.994898 
1.0498204e+2, 2.2426134e+2, -821347.3, -864258.25, -1749.5863, -0.010262352, -0.021116553, -821276.1, -79039.23, 0.0, 9.997882, 9.992197 
1.04985274e+2, 2.3425332e+2, -717532.4, -764862.06, 948.8305, -0.02419764, -0.032209694, -717513.4, -73197.695, 0.0, 9.998336, 9.992066 
1.0498855e+2, 2.4424498e+2, -620002.7, -676459.4, 1608.0896, -0.01939413, -0.029013364, -619956.94, -73559.42, 0.0, 9.998703, 9.991228 
1.0499187e+2, 2.5423643e+2, -518124.1, -576301.25, 2114.8452, 0.010402904, -0.008316216, -518047.34, -69565.64, 0.0, 9.998952, 9.991248 
1.0499501e+2, 2.642272e+2, -419186.94, -489914.22, 52.116333, 0.024637075, -0.0023080865, -419186.9, -68614.625, 0.0, 9.999531, 9.990169 
1.0499787e+2, 2.7421722e+2, -306130.38, -384468.44, -5283.93, 0.017958011, -0.017942695, -305775.56, -53106.04, 0.0, 10.00055, 9.990178 
1.05001196e+2, 2.8420612e+2, -220280.27, -324266.6, -3164.468, 0.010081195, -0.012716703, -220184.05, -65405.48, 0.0, 10.001086, 9.987328 
1.0500506e+2, 2.9419363e+2, -124825.516, -228823.38, 256.72693, 0.00059001805, 0.018805182, -124824.88, -67923.66, 0.0, 10.000964, 9.987205 
1.0500915e+2, 3.0418372e+2, -38911.08, -95803.16, 4375.6763, -0.0006884795, 0.012846519, -38576.504, -38576.504, 0.0, 10.000645, 9.993112 
1.0501343e+2, 3.1417626e+2, -47469.598, -99855.27, 7396.348, 0.009318233, -0.04637388, -46445.332, -46445.332, 0.0, 10.000053, 9.993119 
1.14943534e+2, 1.2428429e+2, -1784825.1, -1723009.0, -949.75616, 0.0093826875, -0.036044635, -1722994.4, -982.85657, 0.0, 9.994132, 10.002316 
1.1494711e+2, 1.3428493e+2, -1682799.0, -1643129.1, -426.5894, -0.02878088, -0.032111894, -1643124.6, -19118.967, 0.0, 9.995275, 10.000525 
1.1495092e+2, 1.442849e+2, -1584743.5, -1561291.8, -1738.2644, -0.029666021, -0.016368723, -1561163.6, -35157.4, 0.0, 9.99598, 9.99908 
1.14954896e+2, 1.5428393e+2, -1484982.3, -1462837.5, -867.7941, -0.0017982111, -0.019171285, -1462803.5, -34787.504, 0.0, 9.996116, 9.999042 
1.1495859e+2, 1.6428256e+2, -1390022.5, -1374400.0, -723.4242, 0.0117661785, -0.021026678, -1374366.5, -44337.156, 0.0, 9.996257, 9.998319 
1.1496199e+2, 1.7428091e+2, -1289425.5, -1274818.1, 1014.3884, 0.006642554, -0.0214619, -1274748.0, -42702.67, 0.0, 9.996417, 9.998345 
1.1496552e+2, 1.8427816e+2, -1201092.0, -1207910.3, 2886.193, 0.00035549715, -0.017523682, -1200034.3, -65962.0, 0.0, 9.9969, 9.99599 
1.1496929e+2, 1.9427414e+2, -1090388.9, -1104861.8, 2160.0562, -0.007435502, -0.009575294, -1090073.4, -53961.387, 0.0, 9.99781, 9.995887 
1.14973e+2, 2.042694e+2, -996344.0, -1023883.3, -574.83435, -0.0021479016, -0.0074426155, -996332.0, -58173.305, 0.0, 9.998191, 9.994538 
1.1497664e+2, 2.1426384e+2, -903145.5, -928458.56, -2095.7256, 0.020525083, -0.014085364, -902973.2, -62760.363, 0.0, 9.99787, 9.994513 
1.1498019e+2, 2.2425753e+2, -816642.9, -854513.3, -259.99496, 0.017011287, -0.017222706, -816641.1, -74366.55, 0.0, 9.997881, 9.992862 
1.1498364e+2, 2.3425034e+2, -712244.8, -753916.25, 2671.6523, -0.021371465, -0.017420547, -712074.2, -67729.48, 0.0, 9.998336, 9.992813 
1.1498714e+2, 2.4424241e+2, -618498.4, -673346.8, 2602.7393, -0.03101729, -0.023250232, -618375.1, -71952.9, 0.0, 9.998704, 9.99144 
1.1499069e+2, 2.5423372e+2, -516928.84, -573827.44, 3045.3735, -0.0021248506, -0.038125243, -516766.3, -68258.664, 0.0, 9.998952, 9.991417 
1.14994474e+2, 2.6422393e+2, -428141.16, -508480.34, 3680.6, 0.018455312, -0.034040146, -427972.88, -77369.54, 0.0, 9.999532, 9.988899 
1.1499852e+2, 2.7421302e+2, -315911.16, -404775.75, -1435.7886, 0.027707359, -0.0064288257, -315887.97, -63177.105, 0.0, 10.000551, 9.988789 
1.1500246e+2, 2.842015e+2, -215405.03, -314172.78, -3321.456, 0.02782651, 0.0035863856, -215293.47, -60469.56, 0.0, 10.001088, 9.988017 
1.1500618e+2, 2.9418942e+2, -118722.89, -216160.17, -243.86934, 0.015727598, -0.0121772755, -118722.27, -61780.17, 0.0, 10.000965, 9.9880705 
1.1500991e+2, 3.0418038e+2, -33043.277, -83645.88, 2276.4458, 0.010660681, -0.015720598, -32941.074, -32941.074, 0.0, 10.000647, 9.993945 
1.15013555e+2, 3.1417447e+2, -41580.242, -87743.33, 5133.351, 0.015495258, -0.0041706697, -41016.3, -41016.3, 0.0, 10.000059, 9.993946 
1.2493815e+2, 1.24280415e+2, -1767226.5, -1718159.8, 2173.7947, -0.009449356, -0.05450621, -1718063.6, 3985.4656, 0.0, 9.995487, 10.001985 
1.2494259e+2, 1.3428098e+2, -1681176.0, -1646643.1, 1815.9249, -0.022517884, -0.020291008, -1646547.9, -22503.336, 0.0, 9.995571, 10.000143 
1.2494692e+2, 1.4428098e+2, -1585096.1, -1556350.6, -508.238, -0.015016098, 0.00007953688, -1556341.6, -30296.965, 0.0, 9.995734, 9.999535 
1.2495097e+2, 1.5428029e+2, -1482940.5, -1456025.1, 2617.6758, -0.0006799641, -0.028343514, -1455773.0, -27721.6, 0.0, 9.996001, 9.99956 
1.2495484e+2, 1.6427907e+2, -1388912.9, -1374748.1, 2716.1208, 0.005587932, -0.039835192, -1374245.1, -44182.184, 0.0, 9.996371, 9.9982395 
1.2495858e+2, 1.7427742e+2, -1283556.4, -1273386.4, 193.10643, 0.0015725133, -0.028638622, -1273382.8, -41303.594, 0.0, 9.996879, 9.998218 
1.2496251e+2, 1.8427455e+2, -1198481.0, -1208657.0, 237.77002, -0.0040394454, -0.020370448, -1198475.4, -64368.215, 0.0, 9.997166, 9.99581 
1.2496673e+2, 1.942703e+2, -1101226.0, -1112192.1, 16.860895, -0.011863037, -0.017856177, -1101225.9, -65076.594, 0.0, 9.997162, 9.995702 
1.2497079e+2, 2.0426537e+2, -1007787.2, -1031390.9, -2541.0627, -0.007246199, -0.015076548, -1007516.75, -69318.85, 0.0, 9.997497, 9.994363 
1.24974646e+2, 2.1425973e+2, -898401.6, -928114.5, -2531.8792, 0.013944334, -0.012898095, -898187.44, -57934.336, 0.0, 9.99828, 9.994338 
1.2497848e+2, 2.242535e+2, -802825.1, -844108.8, -1266.8495, 0.01860532, -0.012288294, -802786.25, -60472.26, 0.0, 9.998665, 9.993192 
1.2498229e+2, 2.3424666e+2, -706989.94, -747224.06, -1200.3312, 0.0012055183, -0.015560124, -706954.1, -62573.387, 0.0, 9.998516, 9.993182 
1.24986105e+2, 2.4423896e+2, -617724.7, -672633.8, -2252.864, -0.007030025, -0.021590685, -617632.44, -71176.38, 0.0, 9.998742, 9.991468 
1.249899e+2, 2.5423026e+2, -509319.16, -570136.6, -2993.8296, -0.0030562582, -0.032760207, -509172.16, -60631.133, 0.0, 9.999474, 9.991416 
1.24994054e+2, 2.642203e+2, -425381.9, -511321.94, 187.95766, 0.0044707055, -0.032038238, -425381.5, -74742.875, 0.0, 9.999901, 9.988526 
1.2499865e+2, 2.7420887e+2, -327997.22, -415151.84, 2489.302, 0.016709834, -0.017274773, -327926.2, -75174.89, 0.0, 9.999919, 9.988384 
1.2500297e+2, 2.8419712e+2, -229849.95, -319341.53, 1144.4674, 0.022822164, -0.015706792, -229835.31, -74968.83, 0.0, 10.000021, 9.988178 
1.2500682e+2, 2.9418522e+2, -127917.65, -218250.16, -853.09625, 0.02056935, -0.03360615, -127909.59, -70926.8, 0.0, 10.000234, 9.988279 
1.2501061e+2, 3.0417642e+2, -32662.934, -82471.805, -3622.8281, 0.01720551, -0.028163841, -32400.809, -32400.809, 0.0, 10.000629, 9.994033 
1.2501419e+2, 3.141708e+2, -23441.844, -78160.63, -6442.998, 0.012728641, 0.0075599705, -22693.434, -22693.434, 0.0, 10.001268, 9.99402 
1.3493317e+2, 1.2427694e+2, -1770517.8, -1724967.8, 2493.212, -0.057844687, -0.04525792, -1724831.8, -2748.2217, 0.0, 9.995491, 10.001519 
1.3493843e+2, 1.3427705e+2, -1684929.8, -1654299.6, 2148.4932, 0.0038734213, -0.004683042, -1654149.6, -30066.08, 0.0, 9.99557, 9.999622 
1.3494308e+2, 1.442771e+2, -1579839.0, -1545455.9, 486.65866, 0.028084666, 0.012862972, -1545449.0, -19365.822, 0.0, 9.99573, 10.0002775 
1.3494682e+2, 1.5427712e+2, -1476990.8, -1443738.6, 3686.4978, -0.015697012, -0.026864754, -1443334.8, -15252.616, 0.0, 9.995999, 10.000397 
1.3495083e+2, 1.6427605e+2, -1393184.4, -1383504.3, 4617.858, -0.0329976, -0.04179228, -1381654.6, -51562.465, 0.0, 9.99637, 9.997644 
1.349553e+2, 1.7427374e+2, -1288586.6, -1283770.1, 2145.9944, -0.014601283, -0.023594266, -1282952.6, -50837.918, 0.0, 9.996881, 9.99751 
1.3495968e+2, 1.842704e+2, -1199619.9, -1211026.9, 353.32108, -0.0025618442, -0.018777685, -1199608.9, -65461.227, 0.0, 9.997167, 9.995647 
1.3496402e+2, 1.9426584e+2, -1102104.5, -1113970.9, 0.19732842, 0.0007006776, -0.033713438, -1102104.5, -65912.06, 0.0, 9.997161, 9.995581 
1.3496833e+2, 2.0426086e+2, -1007611.25, -1030994.4, 221.07082, -0.0038793983, -0.032540783, -1007609.2, -69367.45, 0.0, 9.997495, 9.9943905 
1.3497262e+2, 2.1425545e+2, -898091.56, -927524.1, 460.20816, -0.018791595, -0.010874091, -898084.4, -57789.42, 0.0, 9.9982815, 9.994376 
1.349769e+2, 2.2424929e+2, -802816.3, -844167.44, -1578.2068, -0.0061653466, -0.0064136176, -802756.2, -60400.72, 0.0, 9.998669, 9.993185 
1.3498123e+2, 2.3424226e+2, -707039.3, -747362.56, -1782.9275, 0.04327592, -0.026666269, -706960.6, -62536.676, 0.0, 9.998518, 9.993171 
1.3498545e+2, 2.4423456e+2, -618808.6, -674895.06, 244.02136, 0.05238356, -0.024096709, -618807.56, -72308.26, 0.0, 9.998744, 9.991313 
1.3498947e+2, 2.5422615e+2, -510504.06, -572585.44, -242.53337, 0.007263566, 0.007862624, -510503.13, -61921.113, 0.0, 9.999473, 9.991249 
1.3499373e+2, 2.6421627e+2, -421670.97, -503659.84, 437.49933, -0.017816134, 0.003951915, -421668.63, -70990.3, 0.0, 9.999903, 9.989048 
1.3499825e+2, 2.742047e+2, -323892.7, -406666.34, 2528.7717, -0.015460344, -0.050466042, -323815.5, -71024.48, 0.0, 9.999921, 9.988963 
1.350027e+2, 2.841929e+2, -232408.48, -324669.03, 1874.2891, -0.005369276, -0.07060353, -232370.42, -77463.87, 0.0, 10.000022, 9.987813 
1.3500701e+2, 2.9418096e+2, -131041.51, -224764.08, -68.53743, 0.014959084, -0.045586266, -131041.45, -74017.93, 0.0, 10.000236, 9.987833 
1.3501126e+2, 3.041718e+2, -37220.082, -91985.96, -1343.7479, 0.018800521, -0.024498535, -37187.133, -37187.133, 0.0, 10.000632, 9.993379 
1.3501534e+2, 3.141653e+2, -28127.434, -87973.266, -4030.064, 0.00020732032, -0.011117329, -27857.266, -27857.266, 0.0, 10.001272, 9.993345 
1.4492856e+2, 1.24273196e+2, -1773741.4, -1724996.6, -1455.02, -0.053025056, -0.017182503, -1724953.3, -2832.4207, 0.0, 9.995203, 10.001658 
1.4493367e+2, 1.3427305e+2, -1693011.3, -1657114.0, 2876.7546, -0.00030821946, -0.00967123, -1656884.9, -32762.357, 0.0, 9.994972, 9.999723 
1.4493845e+2, 1.4427298e+2, -1589570.1, -1552462.4, 2476.7283, 0.021235118, -0.002859731, -1552297.8, -26174.484, 0.0, 9.995168, 10.000075 
1.4494278e+2, 1.5427296e+2, -1479595.3, -1447558.3, -2216.2063, -0.016627824, -0.021420853, -1447405.6, -19282.994, 0.0, 9.995933, 10.000168 
1.4494728e+2, 1.6427171e+2, -1393289.8, -1386611.0, -4896.568, -0.030688142, -0.029169071, -1384023.5, -53888.984, 0.0, 9.996495, 9.997371 
1.4495216e+2, 1.7426902e+2, -1291874.4, -1288471.4, -4161.9526, -0.012740364, -0.022494508, -1285676.6, -53515.527, 0.0, 9.996791, 9.997232 
1.4495684e+2, 1.8426563e+2, -1198276.5, -1206863.8, -3354.4265, -0.000030352516, -0.02283661, -1197121.5, -62927.027, 0.0, 9.997107, 9.995959 
1.4496139e+2, 1.9426146e+2, -1095306.5, -1106643.9, -139.48819, 0.005461224, -0.03436913, -1095304.9, -59069.63, 0.0, 9.997451, 9.995939 
1.4496595e+2, 2.0425665e+2, -1004800.44, -1029633.44, 2905.1104, -0.0010566267, -0.03313485, -1004465.06, -66182.75, 0.0, 9.997687, 9.99439 
1.449706e+2, 2.1425119e+2, -905665.7, -931538.06, 2707.3213, -0.023412064, -0.01590739, -905385.44, -65049.082, 0.0, 9.997781, 9.994345 
1.449752e+2, 2.2424485e+2, -813159.4, -852737.5, -1352.7283, -0.0149726635, -0.012964088, -813113.2, -70714.52, 0.0, 9.9981165, 9.992867 
1.449798e+2, 2.342375e+2, -705659.1, -750522.25, -4105.075, 0.034412168, -0.030751936, -705286.56, -60816.152, 0.0, 9.998778, 9.992829 
1.449844e+2, 2.4422958e+2, -612425.44, -672855.1, -2530.979, 0.047963962, -0.026587319, -612319.6, -65771.66, 0.0, 9.999226, 9.991219 
1.4498897e+2, 2.5422108e+2, -512322.13, -574298.7, -2272.065, 0.013317628, 0.0056282086, -512238.97, -63607.637, 0.0, 9.999385, 9.991173 
1.449935e+2, 2.6421142e+2, -424800.2, -499961.6, -2966.335, -0.010372436, 0.002966202, -424683.3, -73957.516, 0.0, 9.999464, 9.989512 
1.449979e+2, 2.7420038e+2, -327367.66, -402629.72, -1551.0835, -0.018988466, -0.049019568, -327335.72, -74502.445, 0.0, 9.999437, 9.989472 
1.4500251e+2, 2.8418872e+2, -238113.1, -331530.28, -510.63052, -0.0151839685, -0.0653677, -238110.31, -83162.914, 0.0, 9.999808, 9.987447 
1.4500739e+2, 2.9417643e+2, -127123.63, -227849.78, -2264.8508, 0.005243247, -0.034809608, -127072.734, -70004.48, 0.0, 10.000718, 9.987389 
1.4501226e+2, 3.0416688e+2, -26345.758, -87875.46, -1718.5994, 0.015105761, -0.021184063, -26297.791, -26297.791, 0.0, 10.001427, 9.993278 
1.45017e+2, 3.1416005e+2, -20183.332, -84930.75, 90.44603, 0.01068502, -0.03303502, -20183.207, -20183.207, 0.0, 10.001851, 9.993276 
1.5492436e+2, 1.24269135e+2, -1768476.3, -1714020.0, -2280.5483, 0.005741924, 0.030440878, -1713924.6, 8236.769, 0.0, 9.995197, 10.002405 
1.5492828e+2, 1.34269e+2, -1687886.6, -1646391.6, 2031.1599, -0.035958305, -0.035778116, -1646292.4, -22130.693, 0.0, 9.994965, 10.000455 
1.5493305e+2, 1.4426857e+2, -1598060.5, -1569698.0, 5138.28, -0.03704128, -0.047794376, -1568795.9, -42630.457, 0.0, 9.99516, 9.998908 
1.5493885e+2, 1.542678e+2, -1489078.1, -1466945.6, 697.6825, -0.0035841363, -0.011933942, -1466923.6, -38750.523, 0.0, 9.995929, 9.998852 
1.5494421e+2, 1.6426605e+2, -1392918.9, -1385816.9, -3675.7307, 0.012956617, -0.0015822365, -1384257.0, -54066.54, 0.0, 9.996495, 9.997424 
1.5494914e+2, 1.7426321e+2, -1290735.8, -1286112.0, -3050.432, 0.0071273786, -0.025436485, -1284596.4, -52377.81, 0.0, 9.996791, 9.997393 
1.54954e+2, 1.842602e+2, -1192610.8, -1195197.5, -2056.7383, 0.003172614, -0.032693226, -1191474.5, -57226.457, 0.0, 9.997107, 9.996753 
1.549588e+2, 1.9425713e+2, -1089251.8, -1094226.9, 1195.3866, 0.0017407848, -0.019678243, -1088979.5, -52701.805, 0.0, 9.997454, 9.996783 
1.5496366e+2, 2.0425278e+2, -1004986.2, -1030068.2, 3331.643, 0.0005968213, -0.016595596, -1004551.2, -66231.17, 0.0, 9.997689, 9.994358 
1.549686e+2, 2.1424691e+2, -906404.3, -933030.6, 3061.4973, 0.000009505141, -0.02804101, -906056.9, -65679.33, 0.0, 9.997779, 9.994245 
1.549734e+2, 2.2424015e+2, -817653.7, -861996.8, 1003.908, -0.008066095, -0.03209173, -817631.0, -75187.04, 0.0, 9.998116, 9.992236 
1.5497796e+2, 2.3423237e+2, -710429.44, -760403.5, -1593.9924, -0.026089888, -0.027780274, -710378.6, -65858.125, 0.0, 9.998779, 9.992153 
1.5498292e+2, 2.4422401e+2, -612637.2, -673325.25, -1810.1221, -0.021189252, -0.029046612, -612583.25, -65980.95, 0.0, 9.999228, 9.991185 
1.5498836e+2, 2.542151e+2, -512166.16, -573996.75, -1691.789, 0.01460465, -0.039470877, -512119.9, -63430.656, 0.0, 9.999387, 9.991193 
1.5499333e+2, 2.6420572e+2, -421909.16, -494007.47, -3038.9026, 0.026450573, -0.035225935, -421781.28, -70999.99, 0.0, 9.999466, 9.989918 
1.5499757e+2, 2.7419585e+2, -324258.16, -396213.94, -1683.1537, 0.005711884, -0.013016904, -324218.78, -71340.54, 0.0, 9.999439, 9.989909 
1.5500242e+2, 2.8418455e+2, -240684.13, -336889.6, 2623.682, -0.0070360447, 0.000014984106, -240612.63, -85623.33, 0.0, 9.999809, 9.987079 
1.5500796e+2, 2.9417148e+2, -130217.86, -234285.83, 1165.9694, -0.008759269, -0.0013163803, -130204.8, -73087.56, 0.0, 10.000719, 9.986947 
1.5501359e+2, 3.041616e+2, -23208.277, -81347.72, 20.243217, 0.0059216633, -0.018229883, -23208.27, -23208.27, 0.0, 10.001427, 9.993726 
1.550192e+2, 3.1415504e+2, -16501.877, -77251.9, 1674.7886, 0.043354016, -0.05819286, -16455.742, -16455.742, 0.0, 10.001851, 9.993802 
1.6491926e+2, 1.2426355e+2, -1780192.8, -1716006.3, -6455.074, 0.023728183, 0.01679659, -1715363.5, 6852.2734, 0.0, 9.99424, 10.002737 
1.6492379e+2, 1.3426383e+2, -1669111.5, -1633867.5, -5308.816, -0.03719856, -0.03804965, -1633085.3, -8873.283, 0.0, 9.996091, 10.000755 
1.6492897e+2, 1.4426345e+2, -1575003.4, -1561591.5, -3464.5261, -0.04477532, -0.05032895, -1560749.4, -34534.156, 0.0, 9.9968605, 9.998629 
1.6493492e+2, 1.5426221e+2, -1487561.4, -1469866.5, -628.6616, -0.0007722348, -0.026617775, -1469844.3, -41616.746, 0.0, 9.99619, 9.998526 
1.6494055e+2, 1.6426037e+2, -1398242.4, -1386631.4, 771.08356, 0.018443407, -0.015408156, -1386580.4, -56334.55, 0.0, 9.996056, 9.997582 
1.6494584e+2, 1.7425792e+2, -1291481.1, -1284274.1, 1797.9812, 0.004768809, -0.020963795, -1283850.5, -51580.03, 0.0, 9.996645, 9.997589 
1.6495106e+2, 1.8425506e+2, -1192369.9, -1195075.6, -214.11371, -0.0028280895, -0.022138001, -1192353.0, -58054.652, 0.0, 9.997124, 9.996753 
1.6495621e+2, 1.9425187e+2, -1089423.6, -1094488.0, -3505.492, -0.002217349, -0.019625148, -1087631.5, -51302.35, 0.0, 9.99745, 9.996766 
1.6496138e+2, 2.0424749e+2, -1003799.44, -1028609.0, -5115.858, 0.002246364, -0.022698777, -1002785.94, -64414.258, 0.0, 9.997733, 9.994435 
1.649666e+2, 2.142417e+2, -903146.4, -930495.9, -4052.7717, 0.011857016, -0.034405544, -902558.5, -62130.184, 0.0, 9.997962, 9.994327 
1.649717e+2, 2.2423501e+2, -815645.9, -861363.44, -1909.446, 0.0021493388, -0.034374543, -815566.25, -73072.19, 0.0, 9.998268, 9.992205 
1.6497663e+2, 2.3422728e+2, -712139.0, -761687.9, 382.9295, -0.03351241, -0.020252164, -712136.06, -67565.8, 0.0, 9.998682, 9.992112 
1.6498184e+2, 2.4421886e+2, -617045.25, -675698.94, 1260.9926, -0.03679125, -0.025529407, -617018.1, -70365.445, 0.0, 9.998937, 9.991163 
1.6498743e+2, 2.542097e+2, -518361.44, -577226.9, 958.5837, 0.003482696, -0.05847431, -518345.84, -69604.125, 0.0, 9.998973, 9.991172 
1.6499278e+2, 2.6420018e+2, -423722.84, -496916.2, -1164.2418, 0.026503116, -0.05509075, -423704.34, -72869.54, 0.0, 9.999431, 9.989736 
1.6499773e+2, 2.7419043e+2, -310723.84, -391865.88, -4458.2593, 0.025890505, -0.0042016148, -310479.63, -57548.234, 0.0, 10.000461, 9.989714 
1.6500302e+2, 2.841792e+2, -223016.08, -325818.22, -1451.8329, 0.01775231, 0.015993167, -222995.58, -67953.68, 0.0, 10.000911, 9.987304 
1.6500868e+2, 2.9416618e+2, -130652.91, -231541.2, 2279.0579, -0.00072748854, -0.007717242, -130601.45, -73432.34, 0.0, 10.000562, 9.98721 
1.6501443e+2, 3.0415648e+2, -38015.484, -86324.11, 2741.9546, 0.0024901703, -0.029376682, -37860.35, -37860.35, 0.0, 10.000317, 9.993919 
1.6502014e+2, 3.1415027e+2, -38919.47, -85962.555, 1797.3425, 0.03601347, -0.049710754, -38850.9, -38850.9, 0.0, 10.000219, 9.993991 
1.7491324e+2, 1.2425637e+2, -1781165.9, -1717602.1, 301.77194, -0.0014738796, -0.060330305, -1717600.6, 4683.79, 0.0, 9.994224, 10.002636 
1.7492023e+2, 1.342575e+2, -1670124.6, -1635961.9, 1718.173, -0.0034398458, -0.015871836, -1635875.6, -11602.107, 0.0, 9.996092, 10.000611 
1.7492628e+2, 1.442575e+2, -1570381.9, -1552266.5, -5363.0356, -0.0007856379, -0.00923955, -1550797.9, -24524.615, 0.0, 9.996868, 9.999258 
1.7493103e+2, 1.5425617e+2, -1482658.0, -1459761.4, -3185.1367, -0.008829481, -0.066083625, -1459326.5, -31040.586, 0.0, 9.99619, 9.999212 
1.7493626e+2, 1.6425465e+2, -1396414.5, -1382765.5, 2713.871, -0.01570161, -0.07173974, -1382245.6, -51944.793, 0.0, 9.996052, 9.997847 
1.7494223e+2, 1.742531e+2, -1289851.1, -1280881.0, 4105.481, -0.020662436, -0.008994133, -1279285.8, -46968.734, 0.0, 9.996644, 9.997819 
1.74948e+2, 1.8425022e+2, -1198137.5, -1206946.1, 1125.5712, -0.01850404, 0.009255886, -1197995.9, -63650.168, 0.0, 9.997124, 9.995944 
1.7495361e+2, 1.9424565e+2, -1095778.3, -1107603.3, -2264.019, -0.0069161174, -0.03442831, -1095359.6, -58969.74, 0.0, 9.997451, 9.995872 
1.7495912e+2, 2.0424074e+2, -1002448.3, -1025857.7, -4249.439, 0.0032713714, -0.051830586, -1001700.8, -63262.99, 0.0, 9.997735, 9.994621 
1.7496455e+2, 2.1423551e+2, -901179.9, -926464.4, -3200.5251, 0.011534201, -0.03493589, -900781.06, -60291.992, 0.0, 9.997963, 9.994601 
1.7497009e+2, 2.2422938e+2, -811544.75, -852925.1, -401.19785, 0.014921777, -0.019603824, -811540.9, -68991.58, 0.0, 9.998269, 9.992779 
1.7497577e+2, 2.3422222e+2, -707890.8, -752928.2, 1956.9415, 0.011890738, -0.00815558, -707805.94, -63186.027, 0.0, 9.998684, 9.992709 
1.7498118e+2, 2.442141e+2, -617113.4, -675849.3, 1498.8882, 0.0010553948, -0.016008979, -617075.2, -70375.766, 0.0, 9.998938, 9.991152 
1.7498617e+2, 2.5420487e+2, -518807.94, -578126.2, 1080.0159, -0.020313082, -0.051344477, -518788.28, -69999.26, 0.0, 9.998972, 9.991111 
1.7499183e+2, 2.6419488e+2, -429144.2, -508169.9, 2430.8655, -0.010703102, -0.05645964, -429069.47, -78182.88, 0.0, 9.999432, 9.988965 
1.7499834e+2, 2.741841e+2, -316566.16, -404015.4, -571.03705, 0.04098531, -0.022586226, -316562.44, -63569.426, 0.0, 10.000463, 9.98888 
1.7500435e+2, 2.8417262e+2, -217235.81, -313852.97, -2391.2808, 0.058501333, -0.017467678, -217176.67, -62071.12, 0.0, 10.000913, 9.988121 
1.7500955e+2, 2.9416046e+2, -123846.766, -217438.72, 901.10144, 0.028951457, -0.053883623, -123838.09, -66613.89, 0.0, 10.000564, 9.988174 
1.7501476e+2, 3.0415148e+2, -38397.063, -87202.305, 2255.5283, 0.004492973, -0.054584175, -38293.043, -38293.043, 0.0, 10.000321, 9.993856 
1.7501989e+2, 3.1414577e+2, -39931.414, -88228.59, 1374.6968, -0.012408919, -0.00761497, -39892.316, -39892.316, 0.0, 10.000227, 9.993831 
1.849081e+2, 1.24250285e+2, -1756755.6, -1709630.8, 5693.1953, -0.026567945, -0.0841793, -1708952.8, 13390.41, 0.0, 9.996048, 10.002288 
1.849158e+2, 1.3425124e+2, -1691947.5, -1651198.1, 5076.474, 0.008530023, -0.017491084, -1650575.3, -26240.535, 0.0, 9.99481, 10.000202 
1.8492232e+2, 1.4425127e+2, -1598494.3, -1561869.3, -3615.6873, 0.019607872, -0.0028577286, -1561515.8, -35181.344, 0.0, 9.994782, 9.999622 
1.8492724e+2, 1.5425031e+2, -1476920.9, -1452210.5, -3413.136, -0.015377911, -0.06455462, -1451747.8, -23404.45, 0.0, 9.996373, 9.999637 
1.849327e+2, 1.6424899e+2, -1380317.5, -1374387.5, -545.2279, -0.030522019, -0.07457606, -1374337.9, -43981.74, 0.0, 9.997122, 9.997896 
1.8493895e+2, 1.7424744e+2, -1288295.8, -1279933.1, -887.0199, -0.018830232, -0.015519, -1279840.1, -47468.027, 0.0, 9.996741, 9.997836 
1.84945e+2, 1.8424438e+2, -1206740.5, -1214514.6, -2095.9617, -0.010603962, 0.0020076542, -1206211.5, -71809.234, 0.0, 9.996685, 9.995641 
1.8495087e+2, 1.9423954e+2, -1103715.8, -1115133.4, -1151.712, -0.007297473, -0.038251095, -1103600.8, -67151.19, 0.0, 9.997069, 9.9955435 
1.8495671e+2, 2.0423444e+2, -1005329.75, -1028070.7, -1406.5615, -0.0035921424, -0.053590823, -1005243.06, -66743.516, 0.0, 9.997574, 9.994548 
1.8496254e+2, 2.1422915e+2, -897521.75, -925283.6, -2798.171, 0.00066127774, -0.036535032, -897242.5, -56691.234, 0.0, 9.998239, 9.994547 
1.8496846e+2, 2.2422312e+2, -805319.94, -846977.4, -3460.4702, 0.011071488, -0.020668902, -805034.44, -62423.87, 0.0, 9.998569, 9.993038 
1.849745e+2, 2.3421626e+2, -709278.75, -750379.7, -3539.6462, 0.029668167, -0.008089777, -708976.1, -64297.887, 0.0, 9.99845, 9.992994 
1.8498023e+2, 2.4420829e+2, -620759.8, -678300.6, -4495.6567, 0.0240496, -0.011623671, -620410.7, -73654.516, 0.0, 9.998718, 9.99109 
1.8498547e+2, 2.5419906e+2, -511593.2, -575685.5, -5088.5254, -0.014344458, -0.038419187, -511191.7, -62345.64, 0.0, 9.999513, 9.9910145 
1.849914e+2, 2.6418903e+2, -422702.53, -504448.28, -1154.2242, -0.017598072, -0.046600536, -422686.25, -71742.11, 0.0, 9.999845, 9.989019 
1.8499821e+2, 2.7417812e+2, -329367.88, -409477.94, 2576.7798, 0.026991026, -0.031463295, -329285.1, -76233.76, 0.0, 9.999554, 9.988946 
1.850045e+2, 2.841666e+2, -235647.97, -323550.2, 710.37915, 0.044489328, -0.03381429, -235642.23, -80477.82, 0.0, 9.999685, 9.98805 
1.8500999e+2, 2.9415438e+2, -126846.26, -219851.9, -3923.4275, 0.024529798, -0.062019106, -126681.04, -69397.75, 0.0, 10.0004, 9.988088 
1.850155e+2, 3.0414543e+2, -27300.215, -82873.68, -6449.9175, 0.005567406, -0.055186246, -26561.451, -26561.451, 0.0, 10.001126, 9.993764 
1.8502094e+2, 3.1413966e+2, -16734.395, -78078.01, -6816.055, -0.011631393, -0.0018810894, -15986.17, -15986.17, 0.0, 10.001864, 9.993737 
1.9490391e+2, 1.2424532e+2, -1761103.6, -1718682.6, 1215.2579, -0.0526713, -0.053067677, -1718647.8, 3743.7834, 0.0, 9.996056, 10.00167 
1.949105e+2, 1.34245e+2, -1697203.3, -1661521.6, 335.8784, -0.0023047896, -0.0435803, -1661518.5, -37123.07, 0.0, 9.994792, 9.99951 
1.9491704e+2, 1.4424467e+2, -1598202.4, -1560709.6, 1708.3654, 0.015447467, -0.032305166, -1560631.9, -34232.883, 0.0, 9.994758, 9.999712 
1.9492356e+2, 1.542446e+2, -1475869.0, -1449960.5, 2730.0315, -0.020916823, -0.021065738, -1449676.0, -21276.096, 0.0, 9.996369, 9.99979 
1.9492987e+2, 1.6424337e+2, -1381485.6, -1376921.6, -1443.382, -0.026324932, -0.022495417, -1376503.5, -46091.74, 0.0, 9.997129, 9.99772 
1.9493599e+2, 1.7424083e+2, -1289757.4, -1282938.6, -2360.28, 0.0103530865, -0.040872034, -1282201.4, -49764.992, 0.0, 9.996742, 9.99763 
1.94942e+2, 1.8423757e+2, -1205260.0, -1211393.5, -848.9004, 0.02087845, -0.044681784, -1205144.8, -70676.37, 0.0, 9.996682, 9.995854 
1.9494797e+2, 1.942335e+2, -1101954.6, -1111494.5, 354.14032, -0.003939308, -0.030993566, -1101941.5, -65432.992, 0.0, 9.997069, 9.9957905 
1.9495413e+2, 2.0422857e+2, -1007721.6, -1033020.5, 1054.4984, -0.019143213, -0.02750334, -1007677.75, -69120.63, 0.0, 9.997576, 9.994209 
1.9496056e+2, 2.1422261e+2, -900245.8, -930942.2, -263.73877, -0.021360235, -0.03913654, -900243.5, -59628.168, 0.0, 9.9982395, 9.99416 
1.9496682e+2, 2.2421621e+2, -805658.25, -847751.4, -3683.0896, -0.010156038, -0.03767431, -805338.44, -62660.207, 0.0, 9.998572, 9.992984 
1.9497286e+2, 2.3420934e+2, -709444.3, -750755.06, -3999.6282, 0.018976774, -0.020107144, -709060.6, -64315.03, 0.0, 9.998453, 9.992968 
1.9497901e+2, 2.4420145e+2, -621568.0, -679982.2, -1782.9918, 0.03133836, -0.012506556, -621513.6, -74690.29, 0.0, 9.998719, 9.990973 
1.9498533e+2, 2.5419226e+2, -512478.47, -577504.56, -2095.64, 0.020938868, -0.019714352, -512411.0, -63497.813, 0.0, 9.999512, 9.9908905 
1.9499148e+2, 2.641826e+2, -416513.13, -491647.25, -1966.7344, 0.0055258875, -0.0253407, -416461.7, -65453.914, 0.0, 9.999847, 9.989893 
1.9499733e+2, 2.7417246e+2, -322557.2, -395403.97, 1432.8647, -0.0164734, -0.030888446, -322529.0, -69422.23, 0.0, 9.9995575, 9.989905 
1.950035e+2, 2.84161e+2, -242358.61, -337521.13, 3059.3367, -0.024815042, -0.0331171, -242260.36, -87041.46, 0.0, 9.999687, 9.987093 
1.9500999e+2, 2.9414797e+2, -134791.38, -236375.92, -1242.2142, -0.014159735, -0.032359276, -134776.17, -77429.44, 0.0, 10.000401, 9.986956 
1.9501664e+2, 3.0413824e+2, -28129.314, -84626.77, -3680.7622, 0.005288181, -0.031344026, -27890.525, -27890.525, 0.0, 10.001128, 9.993642 
1.950233e+2, 3.1413195e+2, -16887.35, -78463.38, -4036.5527, 0.036803823, -0.03213123, -16623.865, -16623.865, 0.0, 10.001868, 9.993709 
2.0489947e+2, 1.2423922e+2, -1780050.3, -1728101.1, -7513.8853, -0.03880438, -0.026596133, -1727036.1, -4584.4644, 0.0, 9.994777, 10.001654 
2.0490561e+2, 1.3423851e+2, -1682059.8, -1654828.9, -3692.4053, -0.021459624, -0.050324194, -1654337.1, -29878.098, 0.0, 9.995848, 9.99945 
2.0491226e+2, 1.4423801e+2, -1577838.6, -1552515.5, 1617.3231, -0.009568246, -0.046931297, -1552412.6, -25948.326, 0.0, 9.996214, 9.999558 
2.0491965e+2, 1.5423805e+2, -1487777.9, -1457574.4, 413.73975, -0.012964578, -0.005097978, -1457568.6, -29104.568, 0.0, 9.995638, 9.999628 
2.0492655e+2, 1.6423677e+2, -1400467.0, -1386181.6, -4819.5176, -0.0076398645, -0.003834181, -1384707.8, -54231.19, 0.0, 9.995839, 9.997716 
2.049329e+2, 1.742339e+2, -1284579.3, -1280311.5, -4150.1284, 0.009625791, -0.056952666, -1277778.8, -45274.875, 0.0, 9.997089, 9.99764 
2.0493917e+2, 1.842306e+2, -1187453.4, -1201842.3, -2831.9248, 0.012924617, -0.06825056, -1186916.0, -52379.953, 0.0, 9.997856, 9.995934 
2.0494549e+2, 1.9422692e+2, -1088226.6, -1103870.8, -2920.4746, -0.0025285138, -0.025393, -1087699.3, -51126.336, 0.0, 9.997963, 9.995875 
2.0495191e+2, 2.0422211e+2, -1003327.06, -1031254.2, -2049.3396, -0.012676432, -0.011056795, -1003177.5, -64557.125, 0.0, 9.997891, 9.994176 
2.0495853e+2, 2.1421598e+2, -910206.2, -936267.9, -803.23755, -0.015770238, -0.036738973, -910181.5, -69501.17, 0.0, 9.997583, 9.994115 
2.04965e+2, 2.2420943e+2, -817262.94, -853501.1, -1933.6353, -0.012127223, -0.046541337, -817160.06, -74415.695, 0.0, 9.9977865, 9.992972 
2.0497124e+2, 2.342025e+2, -706104.75, -749241.2, -2048.889, 0.00036950514, -0.0363367, -706007.6, -61195.414, 0.0, 9.998686, 9.992958 
2.0497777e+2, 2.4419452e+2, -616494.9, -679426.56, -144.68065, 0.012892882, -0.026611036, -616494.56, -69603.945, 0.0, 9.999147, 9.990805 
2.0498465e+2, 2.541853e+2, -521048.2, -583720.5, -925.7507, 0.025317019, -0.018969081, -521034.5, -72053.12, 0.0, 9.999015, 9.9907055 
2.0499116e+2, 2.6417568e+2, -423491.13, -492819.66, -3619.6953, 0.017973628, -0.018467566, -423302.66, -72226.97, 0.0, 9.999275, 9.9900875 
2.0499717e+2, 2.7416572e+2, -313276.97, -388321.47, -5749.438, -0.016175672, -0.030011496, -312839.03, -59666.285, 0.0, 10.000081, 9.990136 
2.0500353e+2, 2.841543e+2, -232045.42, -334859.3, -4410.194, -0.03054242, -0.03152994, -231856.6, -76572.125, 0.0, 10.000494, 9.986885 
2.0501034e+2, 2.941411e+2, -137124.9, -240273.63, -2090.178, -0.017671239, -0.020925343, -137082.56, -79668.53, 0.0, 10.0003605, 9.986708 
2.0501743e+2, 3.041313e+2, -36831.348, -87139.72, 1042.9736, 0.00583088, -0.0233761, -36809.734, -36809.734, 0.0, 10.000457, 9.993794 
2.0502473e+2, 3.1412497e+2, -29922.074, -82653.18, 2392.8835, 0.043997895, -0.04608034, -29813.709, -29813.709, 0.0, 10.00088, 9.993898 
2.1489479e+2, 1.2423193e+2, -1776127.4, -1719426.4, -3540.3533, 0.015892757, -0.004731532, -1719206.1, 3317.7976, 0.0, 9.994749, 10.0022545 
2.1490118e+2, 1.3423172e+2, -1677857.8, -1646175.8, 443.17825, -0.049572818, -0.037226196, -1646169.6, -21643.979, 0.0, 9.995847, 10.000037 
2.1490802e+2, 1.4423122e+2, -1580677.6, -1558465.8, -145.7857, -0.0566259, -0.04619953, -1558464.8, -31934.293, 0.0, 9.996221, 9.99915 
2.149155e+2, 1.5423065e+2, -1491455.9, -1464875.6, -1835.9065, 0.008256372, -0.017414104, -1464749.4, -36213.055, 0.0, 9.995628, 9.999136 
2.1492271e+2, 1.6422915e+2, -1399405.0, -1383708.1, -556.8288, 0.025310041, -0.019611398, -1383688.4, -53137.434, 0.0, 9.995828, 9.997889 
2.1492967e+2, 1.742266e+2, -1282930.4, -1276934.6, 661.06555, -0.022203648, -0.063675486, -1276862.6, -44287.406, 0.0, 9.997091, 9.997868 
2.1493657e+2, 1.8422344e+2, -1187747.4, -1202594.3, -2093.1174, -0.035977542, -0.06818529, -1187458.0, -52852.156, 0.0, 9.997863, 9.995878 
2.1494345e+2, 1.9421972e+2, -1088708.1, -1105001.0, -2508.2327, -0.0038069966, -0.021569958, -1088330.8, -51687.445, 0.0, 9.997971, 9.995794 
2.149501e+2, 2.0421502e+2, -1001326.6, -1027219.9, -3102.9734, 0.015540959, -0.004601189, -1000959.94, -62270.24, 0.0, 9.997897, 9.994448 
2.1495645e+2, 2.1420921e+2, -908069.44, -931822.5, -1968.967, 0.017230911, -0.029400392, -907907.3, -67160.79, 0.0, 9.9975815, 9.994418 
2.1496294e+2, 2.2420275e+2, -817073.94, -853062.9, 1152.7115, 0.0048518744, -0.047148164, -817037.06, -74227.734, 0.0, 9.997785, 9.993002 
2.1496965e+2, 2.3419563e+2, -706045.8, -749127.44, 1396.1162, -0.026581204, -0.056728337, -706000.56, -61122.098, 0.0, 9.998687, 9.992965 
2.1497647e+2, 2.4418749e+2, -618062.5, -682710.0, -351.259, -0.032039855, -0.054025136, -618060.6, -71102.22, 0.0, 9.99915, 9.990579 
2.1498339e+2, 2.5417814e+2, -522789.84, -587322.3, -1455.7009, -0.0018914796, -0.036136083, -522757.03, -73706.0, 0.0, 9.999015, 9.990459 
2.1499047e+2, 2.6416826e+2, -426879.9, -499845.4, -873.9767, 0.019149313, -0.026030835, -426869.44, -75721.22, 0.0, 9.999276, 9.989606 
2.1499768e+2, 2.7415788e+2, -316816.88, -395673.78, -2717.0667, 0.027353767, -0.028837843, -316723.38, -63473.71, 0.0, 10.000082, 9.989632 
2.1500461e+2, 2.8414643e+2, -228225.81, -326961.63, -4669.1865, 0.026566869, -0.029105974, -228005.5, -72643.93, 0.0, 10.000497, 9.987423 
2.1501102e+2, 2.9413378e+2, -132637.22, -230999.45, -2645.6816, 0.01363904, -0.027555047, -132566.11, -75080.46, 0.0, 10.000363, 9.98734 
2.150179e+2, 3.041245e+2, -33847.145, -81036.53, 2420.3018, 0.007047696, -0.031099515, -33723.336, -33723.336, 0.0, 10.000462, 9.994209 
2.1502529e+2, 3.1411868e+2, -27068.338, -76858.69, 3947.4294, 0.009424136, -0.04386695, -26757.324, -26757.324, 0.0, 10.000888, 9.994291 
2.2488943e+2, 1.2422402e+2, -1776515.6, -1716261.6, -1244.7394, 0.014771864, -0.02183506, -1716235.9, 6365.108, 0.0, 9.994576, 10.002553 
2.2489706e+2, 1.3422424e+2, -1677639.1, -1642978.6, 476.29315, -0.038963914, -0.03885087, -1642972.1, -18373.707, 0.0, 9.995726, 10.000312 
2.2490449e+2, 1.4422387e+2, -1576933.1, -1557581.3, -4704.1973, -0.046132043, -0.04751391, -1556498.4, -29896.314, 0.0, 9.996515, 9.999066 
2.2491167e+2, 1.5422304e+2, -1474824.1, -1458080.9, -3945.8179, 0.0056170276, -0.03276439, -1457197.5, -28587.135, 0.0, 9.996815, 9.99902 
2.2491895e+2, 1.6422144e+2, -1385422.3, -1378461.9, -15.770348, 0.016454315, -0.033289496, -1378461.9, -47835.625, 0.0, 9.996844, 9.997751 
2.2492643e+2, 1.7421897e+2, -1292255.1, -1283057.8, -1430.6655, -0.027882455, -0.054356642, -1282840.3, -50190.29, 0.0, 9.996524, 9.9977255 
2.249337e+2, 1.842159e+2, -1206395.3, -1208891.5, -5583.3984, -0.039253674, -0.05561823, -1201922.1, -67242.12, 0.0, 9.996474, 9.996123 
2.249408e+2, 1.942122e+2, -1104109.1, -1109352.9, -3389.089, -0.005925873, -0.03242874, -1102446.1, -65729.44, 0.0, 9.996786, 9.996073 
2.2494775e+2, 2.0420758e+2, -1008768.4, -1031283.25, -3064.0437, 0.014664456, -0.021025801, -1008358.8, -69596.57, 0.0, 9.997408, 9.994408 
2.2495447e+2, 2.1420187e+2, -895820.06, -926662.44, -4693.826, 0.017554795, -0.027194932, -895121.56, -54303.367, 0.0, 9.998452, 9.994347 
2.2496136e+2, 2.2419545e+2, -800356.2, -845010.56, -3417.6516, 0.009280048, -0.038782164, -800096.1, -57215.24, 0.0, 9.998928, 9.992996 
2.2496845e+2, 2.3418821e+2, -706778.94, -749474.4, -3256.9414, -0.014110126, -0.059304625, -706531.94, -61580.938, 0.0, 9.998635, 9.992964 
2.249755e+2, 2.4418007e+2, -623680.25, -684234.5, -4140.3545, -0.023516707, -0.06116275, -623398.5, -76367.76, 0.0, 9.998715, 9.9906845 
2.2498243e+2, 2.541709e+2, -517680.9, -583569.1, -2546.316, -0.013960133, -0.038898405, -517582.66, -68460.85, 0.0, 9.99931, 9.990572 
2.2498977e+2, 2.64161e+2, -422780.94, -499870.47, 1135.4277, 0.0052397638, -0.028598864, -422764.22, -71545.016, 0.0, 9.999642, 9.989428 
2.2499762e+2, 2.7415034e+2, -325069.63, -401969.1, 1596.3678, 0.037578844, -0.03681867, -325036.5, -71713.27, 0.0, 9.999616, 9.989428 
2.2500496e+2, 2.841389e+2, -235863.27, -327681.1, -628.5781, 0.046436317, -0.03915434, -235858.97, -80423.7, 0.0, 9.999845, 9.987689 
2.250115e+2, 2.941266e+2, -129504.94, -226036.72, -1102.4968, 0.022772592, -0.034908693, -129492.34, -71936.34, 0.0, 10.000428, 9.987649 
2.2501853e+2, 3.0411747e+2, -29307.906, -79879.54, 1055.704, 0.0063905227, -0.034072425, -29285.879, -29285.879, 0.0, 10.000816, 9.994118 
2.250261e+2, 3.1411156e+2, -27317.223, -78440.91, -1340.0999, 0.00051285286, -0.040214162, -27282.12, -27282.12, 0.0, 10.000932, 9.994161 
2.348834e+2, 1.2421547e+2, -1776912.9, -1716631.3, 2915.3132, -0.046487987, -0.07952909, -1716490.6, 6192.5205, 0.0, 9.994558, 10.002536 
2.3489329e+2, 1.3421606e+2, -1678198.6, -1643793.5, 4807.969, 0.011373824, -0.055661947, -1643134.3, -18456.639, 0.0, 9.995712, 10.000262 
2.3490171e+2, 1.4421588e+2, -1575239.6, -1553959.8, -3302.2446, 0.024042815, -0.050914083, -1553459.1, -26779.705, 0.0, 9.9965105, 9.999314 
2.3490824e+2, 1.5421519e+2, -1472813.3, -1454037.0, -2765.369, -0.022244617, -0.051459037, -1453638.3, -24951.605, 0.0, 9.996819, 9.999292 
2.3491529e+2, 1.6421358e+2, -1388648.6, -1385231.5, -1064.953, -0.0367492, -0.044943612, -1384926.8, -54224.016, 0.0, 9.996852, 9.997286 
2.3492314e+2, 1.7421095e+2, -1296083.5, -1290817.5, -2670.2878, -0.0076244776, -0.028658763, -1289700.4, -56971.65, 0.0, 9.996521, 9.997199 
2.349306e+2, 1.8420786e+2, -1202581.3, -1200822.0, -4562.4375, 0.0037382662, -0.030169433, -1197055.1, -62296.08, 0.0, 9.996466, 9.996676 
2.3493756e+2, 1.942043e+2, -1099591.3, -1099922.8, -2147.4944, -0.009295437, -0.058315493, -1097603.1, -60809.68, 0.0, 9.996781, 9.9967165 
2.3494484e+2, 2.0419972e+2, -1011348.44, -1036578.25, 710.5998, -0.016540272, -0.061001614, -1011328.44, -72490.1, 0.0, 9.997408, 9.994045 
2.3495258e+2, 2.1419394e+2, -898941.2, -933192.94, -703.73724, -0.015856588, -0.03018608, -898926.75, -58031.03, 0.0, 9.998456, 9.993899 
2.3496018e+2, 2.2418745e+2, -800574.9, -845608.94, -4135.156, 0.00034547618, -0.021184502, -800198.3, -57238.875, 0.0, 9.998936, 9.992951 
2.3496759e+2, 2.341802e+2, -706823.1, -749598.6, -4386.5586, 0.037638493, -0.04391645, -706377.94, -61347.754, 0.0, 9.998638, 9.992954 
2.3497482e+2, 2.4417222e+2, -620585.0, -677832.94, -2168.277, 0.038350016, -0.04779304, -620503.0, -73394.86, 0.0, 9.998716, 9.991119 
2.3498176e+2, 2.5416347e+2, -514301.5, -576574.3, -295.1143, -0.01125366, -0.02714151, -514300.13, -65105.902, 0.0, 9.9993105, 9.991049 
2.3498914e+2, 2.641538e+2, -421894.47, -498068.47, 1203.9896, -0.02409759, -0.02592641, -421875.44, -70586.41, 0.0, 9.999645, 9.989549 
2.34997e+2, 2.7414307e+2, -324405.75, -400641.47, 1459.4609, 0.0142019205, -0.05389453, -324377.8, -70983.81, 0.0, 9.9996195, 9.989515 
2.3500463e+2, 2.841316e+2, -235876.69, -327756.2, 1336.7571, 0.02857394, -0.061677236, -235857.23, -80351.16, 0.0, 9.999846, 9.987682 
2.3501182e+2, 2.9411942e+2, -129593.13, -226260.39, 1058.7017, 0.009512763, -0.042941753, -129581.54, -71955.86, 0.0, 10.00043, 9.987633 
2.3501933e+2, 3.041101e+2, -33413.008, -88500.94, 1595.5901, 0.0036216185, -0.032348696, -33366.832, -33366.832, 0.0, 10.000822, 9.993523 
2.3502721e+2, 3.141036e+2, -31778.271, -87895.16, -944.183, 0.016353507, -0.035355017, -31762.39, -31762.39, 0.0, 10.000942, 9.9935055 
2.4487841e+2, 1.2420723e+2, -1757075.4, -1707935.4, 1640.8741, -0.06842269, -0.08713979, -1707880.6, 14882.862, 0.0, 9.995943, 10.002452 
2.4488859e+2, 1.3420774e+2, -1692545.3, -1652180.9, 2854.3953, 0.015512547, -0.058542132, -1651980.0, -27221.332, 0.0, 9.994797, 10.000139 
2.4489741e+2, 1.4420755e+2, -1601260.3, -1565357.9, -3325.1626, 0.033794012, -0.055497397, -1565052.5, -38291.72, 0.0, 9.994687, 9.999428 
2.4490458e+2, 1.5420696e+2, -1484082.1, -1458043.5, -3648.1414, -0.029484928, -0.057967834, -1457542.0, -28775.145, 0.0, 9.995989, 9.999423 
2.44912e+2, 1.6420542e+2, -1389829.0, -1386227.0, -4243.124, -0.045891277, -0.050173648, -1383418.5, -52636.15, 0.0, 9.99679, 9.997249 
2.4491994e+2, 1.7420278e+2, -1290839.0, -1288845.0, -2553.235, 0.0016042939, -0.028399734, -1287101.0, -54292.406, 0.0, 9.996902, 9.997148 
2.449276e+2, 1.8419965e+2, -1191535.6, -1196008.9, -2516.7878, 0.018699132, -0.02900596, -1190405.3, -55565.867, 0.0, 9.997241, 9.996627 
2.4493493e+2, 1.94196e+2, -1083663.1, -1092743.3, -5193.89, -0.005831469, -0.062382136, -1081304.6, -44430.164, 0.0, 9.99789, 9.996666 
2.4494253e+2, 2.0419137e+2, -1001237.56, -1031158.94, -4398.3716, -0.021666477, -0.06794078, -1000604.44, -61684.793, 0.0, 9.998075, 9.99409 
2.4495053e+2, 2.1418566e+2, -910760.44, -938331.2, -2107.8293, -0.025567926, -0.036861807, -910600.25, -69623.73, 0.0, 9.997623, 9.993952 
2.4495842e+2, 2.2417912e+2, -820017.94, -857514.6, -4195.3384, -0.008633502, -0.024141429, -819554.25, -76513.47, 0.0, 9.997715, 9.99273 
2.4496618e+2, 2.341717e+2, -709781.9, -753791.56, -6221.408, 0.036564026, -0.03839531, -708919.3, -63805.855, 0.0, 9.998555, 9.992707 
2.449738e+2, 2.4416377e+2, -612911.56, -670434.6, -5074.7295, 0.046266574, -0.04083606, -612467.3, -65276.156, 0.0, 9.999082, 9.991447 
2.4498118e+2, 2.541553e+2, -513605.9, -571988.94, -3930.7437, 0.00695994, -0.028544042, -513342.44, -64068.508, 0.0, 9.999175, 9.991426 
2.4498875e+2, 2.6414582e+2, -426528.72, -500946.53, -4145.086, -0.011910981, -0.030029418, -426298.56, -74931.42, 0.0, 9.999354, 9.989492 
2.4499649e+2, 2.7413502e+2, -324453.56, -401756.66, -5372.9375, -0.0023024739, -0.05288698, -324081.9, -70609.164, 0.0, 9.999662, 9.989417 
2.4500433e+2, 2.8412354e+2, -232704.75, -325930.2, -4750.1016, 0.004313183, -0.058294483, -232463.34, -76878.25, 0.0, 10.0000515, 9.987707 
2.4501227e+2, 2.941114e+2, -127506.94, -224825.39, -4486.995, 0.006721532, -0.040977474, -127300.5, -69596.08, 0.0, 10.000554, 9.987669 
2.450203e+2, 3.0410203e+2, -32160.084, -88885.12, -3249.31, 0.012467045, -0.03235278, -31974.564, -31974.564, 0.0, 10.000949, 9.993435 
2.4502833e+2, 3.140954e+2, -28837.963, -87595.56, -1796.7115, 0.022799082, -0.0381108, -28783.074, -28783.074, 0.0, 10.001189, 9.993408 
2.5487456e+2, 1.2419934e+2, -1758287.3, -1710452.3, -2533.1282, -0.050329044, -0.04214819, -1710318.5, 12523.227, 0.0, 9.995948, 10.002277 
2.5488296e+2, 1.3419929e+2, -1694421.3, -1655485.4, -1594.9363, -0.028927337, -0.04698786, -1655420.1, -30578.266, 0.0, 9.994777, 9.999925 
2.5489154e+2, 1.441988e+2, -1601922.3, -1566006.8, 895.5589, -0.019986052, -0.06135912, -1565984.5, -39137.785, 0.0, 9.994657, 9.999397 
2.549007e+2, 1.5419832e+2, -1484416.8, -1458350.4, 1342.3174, -0.01611324, -0.051776867, -1458281.5, -29429.992, 0.0, 9.995972, 9.99941 
2.5490916e+2, 1.641969e+2, -1387046.8, -1380418.9, -3430.5193, -0.010103499, -0.048710734, -1378963.1, -48097.59, 0.0, 9.996787, 9.997643 
2.5491682e+2, 1.7419443e+2, -1287741.9, -1282497.3, -2077.134, -0.00087449583, -0.054411218, -1281774.3, -48884.387, 0.0, 9.996905, 9.997578 
2.5492468e+2, 1.8419124e+2, -1196231.0, -1205776.4, -174.86324, 0.0042687245, -0.052978538, -1196227.8, -61306.492, 0.0, 9.997246, 9.995959 
2.549329e+2, 1.9418724e+2, -1088981.5, -1103867.9, -2703.6978, 0.003853456, -0.04430083, -1088505.8, -51545.406, 0.0, 9.997898, 9.995904 
2.5494084e+2, 2.041825e+2, -997893.94, -1024411.4, -5793.3413, -0.0010604343, -0.041190494, -996683.5, -57676.875, 0.0, 9.998083, 9.994545 
2.549483e+2, 2.1417697e+2, -906780.56, -930083.2, -3825.597, -0.012049938, -0.04722801, -906168.56, -65107.55, 0.0, 9.997623, 9.9945135 
2.5495604e+2, 2.2417045e+2, -822893.75, -863373.2, -1361.5571, -0.018357025, -0.047981456, -822848.0, -79722.68, 0.0, 9.997713, 9.992331 
2.5496417e+2, 2.3416272e+2, -713198.7, -760871.2, -2988.1921, -0.018417967, -0.042985003, -713012.06, -67810.8, 0.0, 9.998557, 9.992222 
2.549724e+2, 2.4415466e+2, -611347.9, -667262.0, -4508.121, -0.0011702394, -0.040492103, -610986.75, -63706.457, 0.0, 9.999085, 9.991661 
2.5498068e+2, 2.5414634e+2, -511620.6, -567889.25, -3602.3704, 0.040090296, -0.043122035, -511390.9, -62029.406, 0.0, 9.999176, 9.991705 
2.5498864e+2, 2.641369e+2, -428201.97, -504427.3, -3078.3247, 0.04166554, -0.04085775, -428077.84, -76623.87, 0.0, 9.999357, 9.989252 
2.5499606e+2, 2.7412614e+2, -326486.88, -405974.38, -4243.995, -0.012181763, -0.03380667, -326260.9, -72700.86, 0.0, 9.999664, 9.989127 
2.5500408e+2, 2.8411463e+2, -232268.61, -325050.94, -2958.0317, -0.02681578, -0.028952612, -232174.39, -76501.48, 0.0, 10.000053, 9.987765 
2.550129e+2, 2.941024e+2, -126834.24, -223463.23, -2617.7202, 0.014065693, -0.02895871, -126763.375, -68970.555, 0.0, 10.000557, 9.98776 
2.5502145e+2, 3.0409315e+2, -29235.398, -82893.68, -2295.611, 0.03260721, -0.034045983, -29137.367, -29137.367, 0.0, 10.000955, 9.993842 
2.550295e+2, 3.1408685e+2, -25616.97, -81108.95, -945.1353, 0.019105127, -0.048388876, -25600.877, -25600.877, 0.0, 10.001201, 9.993846 
2.6487023e+2, 1.241908e+2, -1777650.9, -1721645.9, -4739.1763, -0.014095536, -0.02372492, -1721247.8, 1678.1312, 0.0, 9.994709, 10.002122 
2.6487836e+2, 1.3419046e+2, -1674026.3, -1647710.6, -3713.3994, -0.038622167, -0.039586727, -1647196.8, -22267.975, 0.0, 9.996253, 9.999732 
2.648871e+2, 1.4418976e+2, -1569066.3, -1550407.6, -407.37485, -0.04314994, -0.0630608, -1550398.8, -23463.318, 0.0, 9.996904, 9.999362 
2.6489693e+2, 1.5418926e+2, -1479218.1, -1456071.4, 8.633708, -0.0045227, -0.052881718, -1456071.4, -27131.121, 0.0, 9.996336, 9.999387 
2.649059e+2, 1.6418794e+2, -1391988.4, -1380085.3, -5119.013, 0.009002853, -0.049827203, -1378186.6, -47233.484, 0.0, 9.996331, 9.997888 
2.6491374e+2, 1.7418572e+2, -1282770.6, -1277090.5, -5038.4863, -0.011588378, -0.056146756, -1274146.8, -41171.914, 0.0, 9.997112, 9.997844 
2.6492184e+2, 1.8418252e+2, -1195411.4, -1209194.4, -3486.1177, -0.0155901415, -0.0545967, -1194579.8, -59573.438, 0.0, 9.997466, 9.995619 
2.649305e+2, 1.9417815e+2, -1101558.0, -1114391.9, -3315.9673, 0.0031169448, -0.044916943, -1100751.9, -63702.473, 0.0, 9.997232, 9.995509 
2.6493865e+2, 2.041733e+2, -1007059.94, -1026396.8, -6195.58, 0.01044533, -0.043093286, -1005245.2, -66148.26, 0.0, 9.997351, 9.994765 
2.6494622e+2, 2.1416798e+2, -899898.8, -923687.06, -6456.8975, 0.0020479173, -0.05339031, -898259.25, -57110.45, 0.0, 9.997961, 9.994785 
2.6495415e+2, 2.2416162e+2, -812683.56, -857625.75, -2078.251, -0.01106569, -0.05523113, -812587.7, -69376.4, 0.0, 9.998374, 9.992402 
2.649626e+2, 2.3415399e+2, -713423.44, -760394.6, 473.41885, -0.030890517, -0.04708984, -713418.7, -68132.13, 0.0, 9.998515, 9.992275 
2.6497114e+2, 2.4414589e+2, -618034.56, -672265.56, -1224.3042, -0.01948873, -0.044788655, -618006.94, -70640.89, 0.0, 9.998704, 9.991505 
2.6497972e+2, 2.5413734e+2, -515998.25, -571989.6, -3829.4656, 0.034898408, -0.052235212, -515737.53, -66288.17, 0.0, 9.998961, 9.9915285 
2.6498803e+2, 2.6412782e+2, -428969.16, -505272.63, -3661.383, 0.046362583, -0.049784385, -428793.88, -77250.89, 0.0, 9.999324, 9.98921 
2.649959e+2, 2.7411702e+2, -324174.28, -405187.28, -2806.6917, -0.0020482258, -0.035709236, -324077.2, -70428.36, 0.0, 9.999835, 9.989099 
2.6500425e+2, 2.8410554e+2, -232254.77, -325329.47, -1554.4109, -0.015667425, -0.029340755, -232228.81, -76466.97, 0.0, 10.000065, 9.9877405 
2.650132e+2, 2.940932e+2, -136554.19, -228429.86, -2166.1099, 0.01974876, -0.035560068, -136503.14, -78620.7, 0.0, 9.999901, 9.987737 
2.6502207e+2, 3.0408403e+2, -37763.348, -84033.73, -1124.8616, 0.034073006, -0.04193391, -37736.02, -37736.02, 0.0, 10.000238, 9.994109 
2.6503074e+2, 3.1407812e+2, -22155.49, -76137.74, -700.56696, 0.018304268, -0.05052101, -22146.398, -22146.398, 0.0, 10.001293, 9.9941435 
2.7486548e+2, 1.2418162e+2, -1779172.0, -1723988.5, 960.8361, 0.040088188, -0.03235708, -1723971.8, -955.9207, 0.0, 9.994678, 10.001976 
2.7487487e+2, 1.3418122e+2, -1675252.4, -1650249.9, 2218.9443, -0.012216144, -0.036464676, -1650054.5, -25035.152, 0.0, 9.996255, 9.9995575 
2.748841e+2, 1.4418039e+2, -1569193.0, -1550990.4, -2004.0686, -0.034633186, -0.060486138, -1550772.3, -23745.068, 0.0, 9.99692, 9.999314 
2.7489337e+2, 1.5417975e+2, -1479525.5, -1456598.1, -2238.1165, 0.00452345, -0.061653078, -1456381.8, -27348.277, 0.0, 9.996332, 9.999352 
2.7490225e+2, 1.6417849e+2, -1391542.8, -1378946.4, -2554.549, 0.009770492, -0.05366358, -1378448.0, -47402.38, 0.0, 9.996323, 9.997969 
2.7491066e+2, 1.7417665e+2, -1282151.3, -1275754.3, -2036.6947, -0.03143204, -0.032868896, -1275160.9, -42096.99, 0.0, 9.99711, 9.997934 
2.7491906e+2, 1.8417348e+2, -1195434.6, -1209253.9, -4075.192, -0.04162446, -0.033009637, -1194322.4, -59227.32, 0.0, 9.997468, 9.995613 
2.7492762e+2, 1.9416867e+2, -1101728.4, -1114634.1, -4188.915, -0.008947531, -0.0646825, -1100487.9, -63345.758, 0.0, 9.997229, 9.995495 
2.7493602e+2, 2.0416367e+2, -1007284.56, -1026781.7, -4068.609, 0.011933917, -0.07457033, -1006469.56, -67278.586, 0.0, 9.997349, 9.994739 
2.7494434e+2, 2.1415862e+2, -899997.3, -923988.25, -4073.6863, 0.016124915, -0.055505484, -899324.5, -58084.27, 0.0, 9.997966, 9.994761 
2.749528e+2, 2.2415262e+2, -808730.1, -849603.9, -1388.8735, 0.012756022, -0.045628935, -808683.0, -65383.86, 0.0, 9.998382, 9.992944 
2.749614e+2, 2.3414545e+2, -709188.25, -751665.25, 1021.5905, -0.00090387685, -0.050591078, -709163.75, -63794.066, 0.0, 9.998518, 9.992869 
2.7496994e+2, 2.4413738e+2, -621787.2, -680035.9, -258.11313, -0.009027379, -0.053734742, -621786.06, -74337.2, 0.0, 9.998706, 9.9909725 
2.7497825e+2, 2.5412825e+2, -520484.5, -581290.2, -2846.0217, -0.00943052, -0.05590622, -520351.6, -70813.52, 0.0, 9.998963, 9.990891 
2.7498692e+2, 2.6411837e+2, -427874.66, -503027.34, -1836.5839, 0.0012595131, -0.05692411, -427829.8, -76195.04, 0.0, 9.999327, 9.989361 
2.7499604e+2, 2.741077e+2, -322533.97, -401825.66, -901.5067, 0.027420528, -0.058676843, -322523.72, -68783.98, 0.0, 9.999838, 9.989326 
2.7500486e+2, 2.8409618e+2, -232964.03, -326880.16, -2007.0184, 0.037177503, -0.059415445, -232921.16, -77068.56, 0.0, 10.000071, 9.987632 
2.7501312e+2, 2.9408377e+2, -137469.19, -230447.53, -2853.4814, 0.023606533, -0.06064086, -137381.7, -79407.66, 0.0, 9.9999075, 9.987595 
2.7502212e+2, 3.040747e+2, -36807.566, -82205.06, 2385.943, 0.016747676, -0.055997964, -36682.516, -36682.516, 0.0, 10.000246, 9.994229 
2.7503204e+2, 3.1406912e+2, -21062.955, -73963.28, 3228.5066, 0.019500684, -0.044672653, -20866.648, -20866.648, 0.0, 10.001299, 9.9942875 
2.8486082e+2, 1.2417206e+2, -1758070.8, -1714431.3, 1613.126, 0.032885797, -0.051251385, -1714371.8, 8737.09, 0.0, 9.996135, 10.001915 
2.848711e+2, 1.3417172e+2, -1680343.9, -1653744.3, 3500.053, -0.0017026922, -0.040783994, -1653291.5, -28179.39, 0.0, 9.99595, 9.999469 
2.8488064e+2, 1.4417082e+2, -1584307.8, -1560094.3, -3753.567, -0.023305096, -0.059144843, -1559525.8, -32405.027, 0.0, 9.995968, 9.99916 
2.848896e+2, 1.5417002e+2, -1481620.0, -1459430.4, -5250.6836, -0.001088747, -0.059001483, -1458250.6, -29122.076, 0.0, 9.996268, 9.99919 
2.8489852e+2, 1.6416867e+2, -1389966.6, -1378337.5, -4568.852, -0.00000018541387, -0.05354415, -1376757.3, -45615.383, 0.0, 9.996436, 9.997954 
2.8490743e+2, 1.7416674e+2, -1292297.0, -1280682.3, -4629.8545, -0.027814269, -0.040527888, -1279062.5, -45901.785, 0.0, 9.996419, 9.997935 
2.8491622e+2, 1.8416366e+2, -1204926.9, -1211665.1, -6828.7134, -0.035508946, -0.039911382, -1200681.4, -65490.445, 0.0, 9.996726, 9.995809 
2.849249e+2, 1.941592e+2, -1096511.0, -1109721.5, -5287.3545, -0.015565257, -0.05884851, -1094655.4, -57420.49, 0.0, 9.997481, 9.995706 
2.849336e+2, 2.0415428e+2, -998570.0, -1023837.75, -4017.2734, 0.0016692562, -0.06605826, -997946.6, -58663.688, 0.0, 9.997996, 9.994626 
2.849424e+2, 2.1414898e+2, -897770.9, -924527.6, -4882.757, 0.014698957, -0.058383726, -896907.7, -55573.16, 0.0, 9.998186, 9.994617 
2.849512e+2, 2.2414292e+2, -808796.4, -848182.75, -5226.7744, 0.01942782, -0.051750828, -808114.56, -64720.67, 0.0, 9.998313, 9.993073 
2.8496e+2, 2.3413599e+2, -710470.8, -750564.3, -6256.9917, 0.012746916, -0.048392385, -709517.06, -64054.95, 0.0, 9.998355, 9.993021 
2.8496873e+2, 2.4412797e+2, -623278.8, -681824.06, -6570.266, 0.00079886935, -0.049471118, -622550.5, -75009.766, 0.0, 9.998648, 9.990877 
2.8497726e+2, 2.5411868e+2, -516464.8, -580680.06, -5137.872, -0.018403651, -0.058517687, -516056.3, -66424.55, 0.0, 9.999294, 9.990772 
2.8498623e+2, 2.6410884e+2, -422340.8, -497902.56, -2724.5205, -0.010585933, -0.060817953, -422242.7, -70514.445, 0.0, 9.999598, 9.98958 
2.8499573e+2, 2.7409846e+2, -326888.25, -401123.78, -1700.3362, 0.03484776, -0.055776242, -326849.3, -73019.21, 0.0, 9.999417, 9.989576 
2.8500488e+2, 2.8408706e+2, -237567.19, -329563.38, -1388.6566, 0.048362274, -0.05595138, -237546.23, -81604.55, 0.0, 9.999773, 9.987592 
2.8501347e+2, 2.9407454e+2, -123568.62, -224519.11, -1579.8651, 0.01673098, -0.06549739, -123543.9, -65479.418, 0.0, 10.000893, 9.987526 
2.8502274e+2, 3.0406526e+2, -25473.664, -79725.56, 1109.3547, 0.005927575, -0.064935885, -25450.988, -25450.988, 0.0, 10.001151, 9.993964 
2.8503284e+2, 3.1405938e+2, -39349.848, -85983.234, -1438.0233, 0.024781795, -0.051585864, -39305.547, -39305.547, 0.0, 10.000179, 9.994002 
2.9485622e+2, 1.2416212e+2, -1758084.8, -1714385.8, 862.5604, -0.040620383, -0.08124675, -1714368.8, 8835.945, 0.0, 9.996136, 10.001916 
2.9486698e+2, 1.3416196e+2, -1680750.9, -1654044.3, 2667.77, -0.008382706, -0.053014927, -1653780.4, -28573.486, 0.0, 9.99593, 9.999457 
2.9487675e+2, 1.4416106e+2, -1586638.6, -1564272.1, -2739.3232, -0.009358887, -0.058979716, -1563941.5, -36725.48, 0.0, 9.995943, 9.998887 
2.948857e+2, 1.5416011e+2, -1483915.4, -1463861.5, -4068.7578, -0.022401715, -0.04434942, -1463067.4, -33841.715, 0.0, 9.996257, 9.998895 
2.9489475e+2, 1.6415843e+2, -1390876.1, -1380089.5, -4559.531, -0.021450277, -0.049092393, -1378420.4, -47178.254, 0.0, 9.996432, 9.997836 
2.9490414e+2, 1.7415597e+2, -1293173.8, -1282229.5, -4707.218, -0.00046346488, -0.08015074, -1280483.4, -47217.42, 0.0, 9.996409, 9.997833 
2.9491332e+2, 1.8415305e+2, -1202194.1, -1205844.8, -4172.995, 0.0032974451, -0.076307826, -1199464.8, -64170.137, 0.0, 9.996719, 9.996207 
2.9492235e+2, 1.941497e+2, -1093303.0, -1103136.3, -2351.7705, -0.017163305, -0.026834676, -1092769.5, -55441.39, 0.0, 9.997482, 9.996153 
2.9493135e+2, 2.041451e+2, -999946.4, -1026838.1, -3078.6067, -0.021479677, -0.016452584, -999598.44, -60225.363, 0.0, 9.998006, 9.994415 
2.949404e+2, 2.1413903e+2, -899636.1, -928459.25, -4135.2534, -0.0032697949, -0.0619374, -899054.56, -57622.332, 0.0, 9.998192, 9.994346 
2.949494e+2, 2.2413248e+2, -810863.5, -852488.6, -4993.0547, 0.00789094, -0.073935926, -810272.94, -66776.74, 0.0, 9.998317, 9.992777 
2.9495832e+2, 2.3412555e+2, -712542.7, -754873.1, -6086.3965, 0.009186661, -0.04060028, -711684.94, -66120.32, 0.0, 9.998358, 9.992725 
2.9496744e+2, 2.4411763e+2, -620797.75, -676757.6, -4323.557, 0.009214039, -0.03190341, -620465.7, -72823.27, 0.0, 9.998652, 9.9912195 
2.9497683e+2, 2.5410855e+2, -513559.6, -574717.6, -2687.0586, 0.0076548704, -0.0600526, -513441.78, -63710.566, 0.0, 9.999298, 9.991177 
2.9498604e+2, 2.6409906e+2, -420312.53, -493737.06, -3174.0112, 0.010509913, -0.061470974, -420175.6, -68351.45, 0.0, 9.999601, 9.989862 
2.94995e+2, 2.7408925e+2, -324947.63, -397143.13, -2436.4653, 0.019546349, -0.027071552, -324865.5, -70944.805, 0.0, 9.999422, 9.989846 
2.9500437e+2, 2.840781e+2, -237354.72, -329162.88, 2344.1963, 0.017194225, -0.018912183, -237294.9, -81264.98, 0.0, 9.999776, 9.987616 
2.950142e+2, 2.9406533e+2, -123547.89, -224495.86, 2605.959, -0.001169524, -0.050095614, -123480.664, -65326.047, 0.0, 10.000895, 9.987525 
2.9502383e+2, 3.0405557e+2, -29969.375, -89199.12, -1915.1201, 0.0011105342, -0.06879116, -29907.516, -29907.516, 0.0, 10.001161, 9.993308 
2.950331e+2, 3.1404883e+2, -44148.582, -96357.96, -5197.91, 0.032750867, -0.07109118, -43636.113, -43636.113, 0.0, 10.000201, 9.9932785 
3.0485183e+2, 1.2415145e+2, -1767093.1, -1717516.6, -6625.3896, -0.05871831, -0.091508694, -1716646.5, 6662.244, 0.0, 9.995466, 10.00203 
3.0486262e+2, 1.3415144e+2, -1687592.0, -1656084.8, -4038.5676, -0.010988285, -0.058639012, -1655575.3, -30265.793, 0.0, 9.995406, 9.999574 
3.048726e+2, 1.4415067e+2, -1588521.0, -1563479.4, -4931.7393, -0.009014234, -0.06443198, -1562543.0, -35225.563, 0.0, 9.995739, 9.99904 
3.0488202e+2, 1.5414993e+2, -1477470.6, -1458975.1, -2621.7688, -0.029724138, -0.046020236, -1458610.6, -29285.45, 0.0, 9.996618, 9.99905 
3.0489147e+2, 1.6414827e+2, -1381007.3, -1377186.4, -3307.4705, -0.027384592, -0.04935621, -1375277.3, -43935.664, 0.0, 9.997184, 9.997668 
3.0490106e+2, 1.7414558e+2, -1281236.0, -1278649.6, -4407.378, 0.007425355, -0.082021475, -1275349.6, -41982.133, 0.0, 9.997316, 9.997637 
3.049105e+2, 1.8414257e+2, -1192105.0, -1200066.6, -4335.953, 0.016705846, -0.07976362, -1190199.6, -54802.695, 0.0, 9.997366, 9.996286 
3.0491984e+2, 1.9413933e+2, -1095114.5, -1102857.1, -5049.2354, -0.009837998, -0.03194004, -1092623.3, -55193.926, 0.0, 9.997308, 9.996256 
3.0492908e+2, 2.0413476e+2, -1009039.8, -1032161.7, -7065.901, -0.021650674, -0.021083584, -1007051.5, -67577.375, 0.0, 9.997423, 9.994334 
3.049383e+2, 2.1412861e+2, -906270.2, -932779.5, -6872.1045, -0.012877168, -0.06292899, -904594.6, -63060.547, 0.0, 9.997785, 9.994248 
3.049475e+2, 2.2412197e+2, -814112.0, -855447.9, -6631.4956, -0.0035688798, -0.07412196, -813074.1, -69475.12, 0.0, 9.998153, 9.992655 
3.0495673e+2, 2.3411489e+2, -710871.56, -755475.25, -6446.244, 0.0062059057, -0.044187363, -709958.6, -64289.62, 0.0, 9.998531, 9.9925995 
3.0496618e+2, 2.4410698e+2, -617948.44, -673113.1, -4066.6133, 0.013968911, -0.035843465, -617650.3, -69903.74, 0.0, 9.998747, 9.991424 
3.0497596e+2, 2.5409815e+2, -520072.78, -575246.2, -3672.5964, 0.01891762, -0.059992712, -519829.38, -69996.695, 0.0, 9.998737, 9.991411 
3.049854e+2, 2.6408878e+2, -429606.66, -498946.22, -6346.978, 0.016217249, -0.061841045, -429030.47, -77105.82, 0.0, 9.998994, 9.989799 
3.0499434e+2, 2.740788e+2, -322547.22, -397009.38, -8365.357, 0.002805524, -0.03424788, -321619.0, -67596.36, 0.0, 9.999627, 9.989756 
3.05004e+2, 2.8406766e+2, -235457.84, -327281.94, -4287.722, -0.00074350054, -0.025012216, -235258.06, -79126.14, 0.0, 9.999862, 9.987701 
3.050145e+2, 2.940551e+2, -142746.23, -232583.39, -3191.8745, 0.009885857, -0.043778434, -142632.97, -84378.3, 0.0, 9.999525, 9.98763 
3.0502462e+2, 3.040455e+2, -45720.273, -96031.234, -4779.9863, 0.01967654, -0.058154076, -45270.16, -45270.16, 0.0, 10.000043, 9.993379 
3.0503407e+2, 3.1403875e+2, -20474.975, -84209.18, -2200.8955, 0.027608465, -0.06816815, -20399.063, -20399.063, 0.0, 10.001791, 9.993348 
3.148477e+2, 1.24140054e+2, -1765994.9, -1714581.8, -6916.995, -0.019329675, -0.07941952, -1713667.4, 9753.657, 0.0000000000000806617, 9.995441, 10.002239 
3.14858e+2, 1.3414016e+2, -1686277.6, -1652789.6, -4353.6665, -0.009500807, -0.05708551, -1652232.9, -26812.648, 0.00000000000005243424, 9.995383, 9.999807 
3.1486818e+2, 1.4413968e+2, -1584552.0, -1554930.0, -1940.6599, -0.023591775, -0.07579768, -1554803.4, -27378.111, 0.000000000000028332263, 9.995723, 9.999626 
3.1487873e+2, 1.5413946e+2, -1473116.9, -1449816.5, 734.5466, -0.023043772, -0.06472105, -1449793.4, -20366.168, 0.000000000000012064798, 9.99661, 9.999676 
3.148888e+2, 1.6413818e+2, -1382597.3, -1380469.9, -2530.5095, -0.0178113, -0.054537788, -1378788.6, -47348.586, 0.000000000000003878589, 9.997187, 9.997443 
3.1489828e+2, 1.7413563e+2, -1283345.1, -1283086.6, -3856.736, -0.00551005, -0.044759985, -1279357.0, -45891.64, 0.0000000000000009180906, 9.997323, 9.997331 
3.1490776e+2, 1.8413228e+2, -1193872.6, -1203790.8, -4494.115, 0.003038557, -0.048830837, -1192139.3, -56641.063, 0.00000000000000015841597, 9.997372, 9.996029 
3.149173e+2, 1.9412802e+2, -1096937.4, -1106554.6, -5270.675, 0.006157418, -0.07508025, -1094611.4, -57071.945, 0.000000000000000019869674, 9.997307, 9.996004 
3.149267e+2, 2.0412317e+2, -1008772.56, -1031535.6, -5787.996, 0.0013950551, -0.081560835, -1007385.4, -67798.55, 0.0000000000000000018107616, 9.997422, 9.994376 
3.1493607e+2, 2.141177e+2, -905740.4, -931677.6, -5446.0537, -0.01437511, -0.06143341, -904643.3, -63002.777, 0.0000000000000000001198895, 9.9977865, 9.994321 
3.1494555e+2, 2.2411135e+2, -813702.1, -854640.8, -5167.097, -0.015766123, -0.05182869, -813060.06, -69357.05, 0.0000000000000000000057675156, 9.998156, 9.992707 
3.1495523e+2, 2.3410393e+2, -710487.75, -754726.9, -4960.552, 0.00309624, -0.059217904, -709938.4, -64162.55, 0.0, 9.998535, 9.992648 
3.1496495e+2, 2.4409598e+2, -617505.06, -672270.0, -3958.1262, 0.014274217, -0.061537955, -617220.5, -69366.664, 0.0, 9.998753, 9.991476 
3.1497467e+2, 2.5408748e+2, -519662.8, -574411.1, -3724.357, 0.014685519, -0.058377378, -519410.63, -69473.63, 0.0, 9.998741, 9.991466 
3.1498432e+2, 2.640779e+2, -432476.78, -504907.94, -4190.5664, 0.0057319594, -0.06197889, -432235.13, -80204.5, 0.0, 9.998997, 9.989389 
3.149938e+2, 2.7406704e+2, -325697.88, -403626.38, -5994.4893, -0.016323179, -0.077456936, -325239.47, -71102.63, 0.0, 9.999633, 9.989298 
3.150038e+2, 2.8405565e+2, -234363.94, -325127.34, -5314.79, -0.0064506913, -0.07437464, -234053.78, -77805.164, 0.0, 9.99987, 9.9878435 
3.1501442e+2, 2.9404378e+2, -141192.95, -229498.44, -4563.154, 0.049256686, -0.046592765, -140957.78, -82592.17, 0.0, 9.999535, 9.987836 
3.150251e+2, 3.0403492e+2, -40145.832, -84606.62, 998.54205, 0.060863152, -0.033173207, -40123.418, -40123.418, 0.0, 10.000051, 9.994156 
3.1503567e+2, 3.1402898e+2, -14546.47, -71944.33, 4312.312, 0.007835393, -0.042705327, -14224.294, -14224.294, 0.0, 10.001795, 9.994185 
3.2484326e+2, 1.24129385e+2, -1765217.6, -1714107.3, -56.209743, -0.008183357, -0.06603153, -1714107.3, 9419.045, 0.0000000000023454196, 9.995487, 10.002252 
3.2485378e+2, 1.3412948e+2, -1674259.9, -1646767.6, 785.2353, -0.009327729, -0.047919206, -1646745.3, -21219.912, 0.0000000000015241749, 9.99619, 9.999825 
3.2486424e+2, 1.4412892e+2, -1572481.5, -1548691.5, 493.96524, -0.028395193, -0.075538315, -1548681.3, -21150.53, 0.0000000000008233425, 9.996523, 9.999662 
3.2487524e+2, 1.5412867e+2, -1476508.0, -1451063.8, -1321.2618, -0.01839836, -0.07160265, -1450995.4, -21462.58, 0.00000000000035051592, 9.996359, 9.999713 
3.248856e+2, 1.6412735e+2, -1394516.9, -1387783.4, -7031.6753, -0.0140499845, -0.060647044, -1383354.0, -51808.21, 0.00000000000011265747, 9.996439, 9.997309 
3.2489526e+2, 1.7412478e+2, -1291005.5, -1288494.1, -7290.674, -0.017195877, -0.038899135, -1282351.8, -48780.15, 0.000000000000026661206, 9.996872, 9.997182 
3.2490492e+2, 1.8412134e+2, -1195828.1, -1204879.9, -7070.449, -0.0124384975, -0.041864723, -1191959.1, -56353.863, 0.000000000000004599458, 9.997243, 9.996017 
3.2491466e+2, 1.9411696e+2, -1093732.0, -1104989.0, -5999.07, 0.0030919507, -0.082022525, -1091134.4, -53486.75, 0.0000000000000005767878, 9.997524, 9.996005 
3.249244e+2, 2.0411202e+2, -1003200.2, -1029631.5, -4986.1533, 0.0073555345, -0.092679396, -1002290.9, -62595.246, 0.000000000000000052554126, 9.997833, 9.9943075 
3.2493415e+2, 2.1410659e+2, -900342.0, -929946.1, -5722.067, -0.0043435027, -0.06314658, -899274.5, -57525.203, 0.0000000000000000034789587, 9.998191, 9.994244 
3.249439e+2, 2.2410025e+2, -808885.44, -850684.0, -6308.371, -0.008125861, -0.05253033, -807954.06, -64142.67, 0.00000000000000000016733108, 9.998413, 9.992853 
3.2495368e+2, 2.3409289e+2, -710649.0, -752927.8, -5283.885, -0.00069999654, -0.07088015, -709998.6, -64115.215, 0.0, 9.998442, 9.992817 
3.2496354e+2, 2.4408497e+2, -620751.44, -675200.56, -4542.385, 0.0051387586, -0.073126875, -620375.06, -72414.06, 0.0, 9.998587, 9.991357 
3.249734e+2, 2.5407648e+2, -518225.88, -575380.75, -5848.623, 0.008869734, -0.05428016, -517633.53, -67589.11, 0.0, 9.998908, 9.991319 
3.249834e+2, 2.640669e+2, -429113.84, -502640.22, -4546.8467, 0.0060453657, -0.055854198, -428833.75, -76695.29, 0.0, 9.999197, 9.989448 
3.2499343e+2, 2.7405596e+2, -328053.56, -403881.47, -2243.4905, -0.0061479006, -0.088523, -327987.25, -73741.99, 0.0, 9.999432, 9.989379 
3.250037e+2, 2.840445e+2, -236501.84, -327124.8, -1378.1672, 0.0031579544, -0.092789695, -236480.89, -80123.33, 0.0, 9.999762, 9.9877615 
3.2501426e+2, 2.940326e+2, -131739.22, -226077.98, -3049.355, 0.043335285, -0.05824838, -131640.75, -73165.74, 0.0, 10.000229, 9.987737 
3.250252e+2, 3.0402383e+2, -34111.383, -79369.73, 1487.5255, 0.053162545, -0.03657815, -34062.547, -34062.547, 0.0, 10.0003605, 9.994367 
3.2503664e+2, 3.1401828e+2, -38657.87, -80836.27, 575.99023, 0.018420525, -0.035980403, -38650.004, -38650.004, 0.0, 10.000016, 9.9944315 
3.3483857e+2, 1.2411953e+2, -1767191.3, -1717460.4, 2560.5894, -0.028693022, -0.051305197, -1717328.9, 6294.5806, 0.00000000005167391, 9.9954605, 10.002035 
3.3484998e+2, 1.3411944e+2, -1676016.9, -1650060.6, 3493.6272, -0.01107435, -0.030614348, -1649598.6, -23974.336, 0.00000000003357157, 9.996179, 9.999604 
3.3486083e+2, 1.4411844e+2, -1576520.0, -1556864.5, 86.75286, -0.023526631, -0.0628786, -1556864.1, -29230.496, 0.000000000018130754, 9.996521, 9.999106 
3.3487162e+2, 1.5411755e+2, -1480911.4, -1459726.1, -2044.4181, -0.016221164, -0.065820284, -1459530.6, -29888.768, 0.000000000007717037, 9.996344, 9.99913 
3.3488205e+2, 1.6411577e+2, -1395091.1, -1388580.1, -5620.4844, -0.016784044, -0.06727251, -1385340.4, -53681.17, 0.0000000000024798213, 9.996425, 9.99726 
3.34892e+2, 1.7411298e+2, -1291133.3, -1288497.9, -5632.324, -0.027920133, -0.06555409, -1284031.3, -50344.293, 0.00000000000058676854, 9.996862, 9.997185 
3.34902e+2, 1.8410976e+2, -1194201.0, -1201400.8, -5935.8677, -0.03017057, -0.05997858, -1190858.6, -55139.973, 0.00000000000010121049, 9.997239, 9.996255 
3.3491194e+2, 1.9410612e+2, -1091852.8, -1101109.0, -4868.219, -0.020223256, -0.051760036, -1089763.9, -52009.707, 0.000000000000012690283, 9.997524, 9.996268 
3.349221e+2, 2.0410134e+2, -1004514.8, -1032434.7, -3593.7183, -0.0052615386, -0.05274849, -1004059.6, -64258.938, 0.0000000000000011561161, 9.997839, 9.994112 
3.3493257e+2, 2.140952e+2, -901975.3, -933426.94, -4305.9883, 0.016781036, -0.067941114, -901396.44, -59535.6, 0.000000000000000076521916, 9.998198, 9.994001 
3.349426e+2, 2.2408865e+2, -807151.9, -847212.06, -6044.368, 0.019235076, -0.07674735, -806259.75, -62334.88, 0.0000000000000000036800285, 9.99842, 9.993085 
3.349521e+2, 2.3408175e+2, -708602.75, -748745.06, -5136.1484, -0.005752134, -0.07888477, -707956.0, -61963.66, 0.0, 9.9984455, 9.993099 
3.3496192e+2, 2.4407394e+2, -622815.44, -679545.9, -3402.7288, -0.014328585, -0.07008061, -622612.06, -74543.266, 0.0, 9.998593, 9.991056 
3.3497226e+2, 2.5406513e+2, -520706.16, -580580.3, -4628.317, 0.000650065, -0.047726803, -520350.5, -70194.71, 0.0, 9.998914, 9.99096 
3.3498272e+2, 2.6405564e+2, -425398.16, -494975.22, -3668.179, 0.016104037, -0.04347865, -425205.3, -72956.24, 0.0, 9.9992, 9.989968 
3.3499324e+2, 2.7404538e+2, -323684.34, -394886.44, -1403.1272, 0.032182373, -0.067461066, -323656.72, -69307.87, 0.0, 9.999437, 9.98999 
3.3500373e+2, 2.8403404e+2, -238615.56, -331612.13, 232.03227, 0.027198136, -0.08024523, -238614.98, -82155.18, 0.0, 9.999769, 9.98745 
3.35014e+2, 2.940214e+2, -134520.19, -231997.03, -1366.7937, -0.007840767, -0.078565694, -134501.03, -75917.05, 0.0, 10.000237, 9.987326 
3.35025e+2, 3.0401215e+2, -36477.313, -84546.79, 372.281, -0.003924224, -0.06824845, -36474.43, -36474.43, 0.0, 10.000377, 9.994002 
3.3503708e+2, 3.1400642e+2, -40871.734, -85833.51, -833.72864, 0.056513704, -0.04779643, -40856.28, -40856.28, 0.0, 10.000037, 9.994077 
3.448344e+2, 1.2410858e+2, -1757815.9, -1715347.6, -2625.0134, -0.028566053, -0.050591666, -1715186.0, 8544.588, 0.00000000081250584, 9.996195, 10.0018215 
3.4484616e+2, 1.3410829e+2, -1674682.1, -1651871.4, -1828.5132, -0.017213913, -0.027594034, -1651725.8, -25992.617, 0.00000000052773436, 9.99637, 9.999389 
3.4485725e+2, 1.4410701e+2, -1579086.4, -1562033.3, -6246.5176, -0.033467, -0.061403047, -1559990.0, -32244.494, 0.00000000028494548, 9.996514, 9.998758 
3.4486806e+2, 1.5410578e+2, -1479294.1, -1462959.8, -6877.6235, -0.020427879, -0.063092045, -1460449.6, -30692.492, 0.0000000001212577, 9.996627, 9.998772 
3.4487867e+2, 1.6410385e+2, -1388075.0, -1383175.6, -7353.9507, -0.01582816, -0.06711889, -1377874.1, -46098.223, 0.00000000003895854, 9.996812, 9.997439 
3.4488904e+2, 1.7410123e+2, -1285806.6, -1283313.0, -5548.715, -0.02283631, -0.07292255, -1278872.8, -45070.957, 0.000000000009216846, 9.997109, 9.997418 
3.4489936e+2, 1.8409802e+2, -1192382.6, -1202877.4, -6511.4976, -0.025347408, -0.06732879, -1189267.4, -53434.07, 0.0000000000015895714, 9.997462, 9.996046 
3.4490964e+2, 1.9409424e+2, -1088243.6, -1102196.3, -9390.69, -0.021924198, -0.0486269, -1083521.5, -45651.09, 0.00000000000019928297, 9.99789, 9.996016 
3.4492e+2, 2.0408945e+2, -1000923.9, -1029287.3, -10284.713, -0.009254384, -0.044508263, -997587.1, -57669.766, 0.0000000000000181529, 9.998021, 9.994238 
3.449305e+2, 2.1408343e+2, -907565.44, -934306.0, -8089.4844, 0.01629467, -0.06233871, -905308.7, -63332.543, 0.0000000000000012013685, 9.997734, 9.994166 
3.4494072e+2, 2.2407694e+2, -816261.56, -852092.2, -8120.952, 0.020847296, -0.07308416, -814506.94, -70467.266, 0.00000000000000005776772, 9.997815, 9.993046 
3.4495053e+2, 2.3406996e+2, -709290.75, -749759.44, -9717.611, -0.0042140842, -0.076261535, -707078.25, -60970.527, 0.0, 9.9984255, 9.993039 
3.449606e+2, 2.440621e+2, -620144.25, -678308.7, -8960.377, -0.013383481, -0.070629306, -618795.2, -70610.4, 0.0, 9.998775, 9.991053 
3.449711e+2, 2.5405324e+2, -523032.8, -581695.0, -7544.478, 0.00034805664, -0.054239728, -522078.1, -71805.836, 0.0, 9.998751, 9.990963 
3.4498176e+2, 2.6404378e+2, -429948.13, -496601.16, -6236.442, 0.016912252, -0.0464539, -429369.63, -77004.63, 0.0, 9.99886, 9.990022 
3.449926e+2, 2.7403378e+2, -327149.8, -395908.13, -8080.273, 0.037214134, -0.053376842, -326213.0, -71750.13, 0.0, 9.999167, 9.990049 
3.4500346e+2, 2.8402257e+2, -239486.25, -330057.9, -6066.442, 0.03211373, -0.062174294, -239081.72, -82509.38, 0.0, 9.999621, 9.987626 
3.450142e+2, 2.9400998e+2, -132503.69, -228884.75, -3075.789, -0.009167166, -0.07534189, -132405.63, -73709.914, 0.0, 10.00028, 9.987518 
3.4502542e+2, 3.0400065e+2, -34974.984, -85523.25, -1139.1816, -0.009141449, -0.077015705, -34949.324, -34949.324, 0.0, 10.000549, 9.993854 
3.4503713e+2, 3.1399465e+2, -39149.89, -87091.586, -1433.6857, 0.05037834, -0.06426335, -39107.055, -39107.055, 0.0, 10.000243, 9.993894 
3.5483077e+2, 1.2409658e+2, -1759776.1, -1719063.1, -2161.837, -0.008065146, -0.06395839, -1718948.6, 4898.7026, 0.000000009469599, 9.996186, 10.001571 
3.5484242e+2, 1.3409607e+2, -1676699.0, -1655514.8, -1351.1305, -0.028540822, -0.039536715, -1655429.0, -29576.646, 0.0000000061492664, 9.996352, 9.999148 
3.5485348e+2, 1.440946e+2, -1580338.9, -1564202.4, -5918.4243, -0.060017843, -0.071628496, -1562264.4, -34397.832, 0.0000000033196064, 9.9965, 9.998616 
3.5486457e+2, 1.5409335e+2, -1480364.6, -1464886.0, -6517.59, -0.031958498, -0.06361023, -1462507.3, -32628.236, 0.0000000014124153, 9.996617, 9.998645 
3.548755e+2, 1.6409162e+2, -1385201.0, -1377143.6, -6333.078, -0.011720995, -0.05969364, -1373666.4, -41770.598, 0.0000000004537274, 9.99681, 9.997849 
3.5488635e+2, 1.7408949e+2, -1282532.8, -1276479.3, -4403.29, -0.0021968565, -0.060197867, -1274162.8, -40246.363, 0.00000000010733056, 9.9971075, 9.997883 
3.5489708e+2, 1.8408614e+2, -1197246.1, -1212825.0, -4895.5293, 0.0018751638, -0.0633966, -1195835.4, -59886.363, 0.00000000001850869, 9.997461, 9.995368 
3.5490775e+2, 1.9408129e+2, -1093839.3, -1113767.3, -7747.85, -0.0020043345, -0.07331691, -1091181.4, -53184.58, 0.0000000000023202033, 9.997893, 9.995225 
3.549181e+2, 2.0407626e+2, -997680.94, -1022698.5, -11136.134, -0.005108577, -0.06890662, -993442.1, -53395.79, 0.00000000000021133044, 9.998029, 9.994682 
3.5492805e+2, 2.1407124e+2, -903479.44, -925866.94, -9155.64, -0.0068916623, -0.04597691, -900212.0, -58116.215, 0.000000000000013984623, 9.997737, 9.99474 
3.549383e+2, 2.2406507e+2, -818550.8, -856781.25, -6068.6494, -0.0047587156, -0.04070014, -817610.6, -73454.37, 0.0000000000000006723836, 9.997814, 9.992725 
3.5494903e+2, 2.340575e+2, -712200.4, -755787.6, -7344.889, 0.003020017, -0.06268465, -710996.0, -64765.734, 0.0, 9.998426, 9.992626 
3.549596e+2, 2.4404936e+2, -618022.6, -674019.4, -8825.744, 0.0075108614, -0.07452985, -616664.5, -68354.78, 0.0, 9.998781, 9.991341 
3.5496992e+2, 2.540407e+2, -520437.53, -576380.06, -7646.8975, 0.0074730185, -0.07374489, -519411.1, -69016.45, 0.0, 9.998756, 9.991322 
3.5498053e+2, 2.640313e+2, -432871.16, -502710.22, -5231.454, 0.0075009884, -0.06479643, -432481.47, -79994.26, 0.0, 9.998864, 9.989601 
3.549915e+2, 2.7402103e+2, -330606.16, -403177.4, -6962.2036, 0.0078001516, -0.046400335, -329944.25, -75355.98, 0.0, 9.999174, 9.989548 
3.5500294e+2, 2.8401002e+2, -234766.7, -320382.34, -3793.3389, 0.016652388, -0.03870493, -234598.97, -77902.66, 0.0, 9.999628, 9.988282 
3.5501498e+2, 2.939982e+2, -126931.914, -217368.69, -680.1555, 0.03824271, -0.048747152, -126926.8, -68115.42, 0.0, 10.000285, 9.988302 
3.5502642e+2, 3.039892e+2, -34448.902, -84602.86, -2050.5337, 0.03628186, -0.0628925, -34365.207, -34365.207, 0.0, 10.000561, 9.99391 
3.5503688e+2, 3.1398284e+2, -39043.383, -87307.94, -2738.4644, -0.0011578222, -0.08481386, -38888.504, -38888.504, 0.0, 10.000265, 9.993867 
3.648267e+2, 1.24083854e+2, -1763157.6, -1719455.6, -6483.575, -0.01852666, -0.07964602, -1718514.1, 5457.1094, 0.00000008268434, 9.9959, 10.001682 
3.6483875e+2, 1.3408348e+2, -1677625.6, -1654224.9, -2666.519, -0.025972025, -0.055692967, -1653924.9, -27950.174, 0.00000005368276, 9.996212, 9.999303 
3.6485007e+2, 1.4408213e+2, -1579633.4, -1563789.5, -5061.098, -0.052488882, -0.08808556, -1562310.8, -34322.58, 0.000000028975498, 9.99654, 9.998627 
3.6486143e+2, 1.5408093e+2, -1476022.3, -1462839.1, -4728.8677, -0.02434099, -0.071860775, -1461318.3, -31318.207, 0.000000012326782, 9.996911, 9.998643 
3.6487255e+2, 1.640792e+2, -1380212.5, -1375949.4, -5866.363, -0.0057574045, -0.06237181, -1371839.4, -39822.332, 0.000000003959453, 9.997198, 9.997743 
3.648836e+2, 1.7407699e+2, -1279420.9, -1276310.4, -8444.146, -0.00047403295, -0.06099619, -1269279.5, -35240.96, 0.0000000009365381, 9.997374, 9.997765 
3.6489457e+2, 1.840736e+2, -1196820.3, -1212092.5, -9031.14, 0.0021671017, -0.0664087, -1192629.6, -56557.82, 0.0000000001614897, 9.997464, 9.995417 
3.6490545e+2, 1.9406871e+2, -1100102.6, -1116086.0, -5454.2466, 0.00088547607, -0.08429028, -1098418.8, -60299.117, 0.000000000020242613, 9.997434, 9.995292 
3.6491594e+2, 2.0406364e+2, -1004330.3, -1026999.25, -7503.672, -0.004543058, -0.08263403, -1002071.56, -61902.145, 0.0000000000018436379, 9.997618, 9.994591 
3.6492586e+2, 2.1405856e+2, -898758.06, -924823.56, -10760.082, -0.015755674, -0.055069204, -894890.1, -52670.563, 0.00000000000012199398, 9.99811, 9.994631 
3.649363e+2, 2.2405237e+2, -811592.44, -853985.7, -9261.641, -0.013435203, -0.043868795, -809657.4, -65376.914, 0.0000000000000058651187, 9.998312, 9.992675 
3.6494735e+2, 2.3404483e+2, -717314.0, -758773.06, -7759.7236, 0.0082367575, -0.05809868, -715909.25, -69554.93, 0.0, 9.998097, 9.992582 
3.649582e+2, 2.4403675e+2, -625743.1, -675881.75, -7986.0776, 0.017082594, -0.070726976, -624501.8, -76068.48, 0.0, 9.99817, 9.99151 
3.6496863e+2, 2.5402814e+2, -520364.0, -574193.2, -8074.843, 0.007412063, -0.083071284, -519178.78, -68661.516, 0.0, 9.998665, 9.991516 
3.649794e+2, 2.6401874e+2, -430698.38, -502319.38, -5037.4175, 0.0003816521, -0.07987706, -430345.8, -77736.31, 0.0, 9.999042, 9.989542 
3.649906e+2, 2.7400845e+2, -330309.06, -403946.8, -3621.5608, -0.0027561164, -0.056174748, -330131.38, -75420.38, 0.0, 9.999232, 9.989469 
3.6500227e+2, 2.8399748e+2, -240277.6, -322160.47, -931.5401, 0.010255826, -0.044475134, -240267.0, -83448.18, 0.0, 9.999208, 9.988365 
3.650146e+2, 2.9398578e+2, -146760.6, -225847.45, -2992.9878, 0.046823807, -0.052775014, -146647.48, -87714.67, 0.0, 9.998876, 9.988401 
3.650265e+2, 3.0397695e+2, -51382.613, -90663.88, -5122.1777, 0.04922286, -0.06304478, -50725.684, -50725.684, 0.0, 9.999302, 9.994101 
3.6503747e+2, 3.139709e+2, -28894.309, -80206.79, -3984.9358, 0.0005619993, -0.07802025, -28586.682, -28586.682, 0.0, 10.000863, 9.994066 
3.7482217e+2, 1.240704e+2, -1760166.0, -1712386.4, -5589.029, -0.0636016, -0.09718673, -1711741.4, 12360.7705, 0.0000005532481, 9.995864, 10.002178 
3.748351e+2, 1.3407058e+2, -1673888.8, -1645869.9, -1588.8312, -0.009197846, -0.076185316, -1645780.1, -19679.998, 0.00000035914545, 9.996186, 9.999882 
3.7484705e+2, 1.4406957e+2, -1578723.0, -1561492.5, -3722.2654, -0.009722501, -0.110959314, -1560722.8, -32612.719, 0.00000019382824, 9.996525, 9.998788 
3.7485862e+2, 1.5406857e+2, -1475321.0, -1461078.1, -3318.9868, 0.0029832127, -0.08820348, -1460342.6, -30222.545, 0.00000008245099, 9.9969, 9.998767 
3.7486985e+2, 1.6406666e+2, -1385002.1, -1385685.1, -5147.7227, 0.0016666919, -0.07556046, -1380184.6, -48045.332, 0.000000026481976, 9.997197, 9.997079 
3.7488082e+2, 1.740637e+2, -1284728.1, -1287159.5, -7810.404, -0.0191387, -0.075961694, -1278039.4, -43870.88, 0.0000000062635124, 9.997375, 9.997024 
3.7489176e+2, 1.8406028e+2, -1191232.4, -1200470.5, -9124.434, -0.026469814, -0.07660962, -1185624.5, -49422.62, 0.0000000010799891, 9.997461, 9.996208 
3.749027e+2, 1.9405647e+2, -1093407.8, -1102154.9, -5504.584, -0.014703596, -0.081007, -1090750.8, -52511.992, 0.00000000013537126, 9.99743, 9.996241 
3.749135e+2, 2.0405157e+2, -1009035.1, -1036651.8, -5705.003, -0.008722706, -0.08506739, -1007903.0, -67616.2, 0.000000000012328863, 9.997618, 9.993931 
3.7492403e+2, 2.1404535e+2, -904546.7, -936861.9, -8803.811, -0.010877189, -0.090014055, -902303.9, -59955.77, 0.0000000000008157841, 9.998116, 9.993806 
3.7493467e+2, 2.2403875e+2, -809914.75, -850687.94, -9807.579, -0.0056953584, -0.08338982, -807678.3, -63265.355, 0.00000000000003921943, 9.998322, 9.992893 
3.7494546e+2, 2.3403189e+2, -714939.94, -753903.75, -8534.009, 0.010354559, -0.062426362, -713152.75, -66672.21, 0.000000000000000000006929764, 9.9981, 9.992912 
3.7495634e+2, 2.4402417e+2, -625466.9, -675334.56, -6308.0635, 0.013852342, -0.05866729, -624681.3, -76125.1, 0.0000000000000000000002423796, 9.998174, 9.991544 
3.7496722e+2, 2.5401545e+2, -520270.2, -574052.0, -6174.6943, -0.0009991504, -0.08212051, -519570.38, -68929.305, 0.0, 9.99867, 9.991522 
3.749784e+2, 2.6400608e+2, -428486.16, -497811.72, -4237.443, -0.0057869726, -0.09137638, -428228.1, -75495.24, 0.0, 9.999046, 9.989847 
3.749899e+2, 2.7399597e+2, -327882.1, -398988.97, -2949.6077, 0.0043459986, -0.082493454, -327759.94, -72927.93, 0.0, 9.999238, 9.989803 
3.7500152e+2, 2.8398487e+2, -243678.97, -329360.8, -2093.0784, 0.012007598, -0.07948842, -243627.86, -86686.86, 0.0, 9.999219, 9.987866 
3.750132e+2, 2.939726e+2, -150761.17, -234354.61, -4376.375, 0.016274171, -0.08704375, -150532.69, -91471.47, 0.0, 9.998888, 9.987812 
3.750256e+2, 3.0396378e+2, -49004.676, -86043.6, -76.32429, 0.028886227, -0.0774157, -49004.52, -49004.52, 0.0, 9.999319, 9.994407 
3.750389e+2, 3.139586e+2, -25788.78, -74046.14, 1792.4902, 0.05296091, -0.044649098, -25722.29, -25722.29, 0.0, 10.000877, 9.994479 
3.8481823e+2, 1.24057285e+2, -1751274.0, -1708323.0, -2742.718, -0.072037645, -0.10310468, -1708148.5, 16081.579, 0.0000029192024, 9.996471, 10.002162 
3.8483152e+2, 1.3405755e+2, -1669843.8, -1643579.0, -3160.3342, -0.0008569731, -0.07610388, -1643204.0, -16976.744, 0.0000018948215, 9.99644, 9.999916 
3.848437e+2, 1.440566e+2, -1576214.6, -1559384.1, -6841.6855, -0.0012160914, -0.11131366, -1556953.9, -28717.154, 0.0000010225369, 9.996654, 9.998868 
3.8485557e+2, 1.5405568e+2, -1469686.6, -1457361.8, -6649.5337, -0.00532575, -0.08976671, -1454458.3, -24212.275, 0.0000004349407, 9.997238, 9.998853 
3.8486707e+2, 1.6405366e+2, -1381710.0, -1386790.5, -8713.706, -0.013322403, -0.07989437, -1375173.9, -42907.86, 0.00000013969013, 9.997534, 9.996841 
3.8487813e+2, 1.7405039e+2, -1285770.8, -1290731.3, -8044.6846, -0.025912568, -0.084671974, -1279832.6, -45534.3, 0.000000033038678, 9.997431, 9.996757 
3.8488916e+2, 1.8404688e+2, -1191942.0, -1200493.5, -10134.573, -0.02754426, -0.08336596, -1185218.1, -48885.184, 0.0000000056966374, 9.997396, 9.996239 
3.8490018e+2, 1.9404325e+2, -1092536.1, -1101022.9, -13294.713, -0.014251208, -0.07689036, -1082824.0, -44455.74, 0.0000000007140435, 9.997455, 9.996305 
3.8491115e+2, 2.040384e+2, -1008357.06, -1036344.8, -13422.05, -0.0062625115, -0.07974074, -1002960.75, -62545.03, 0.00000000006503118, 9.997661, 9.993931 
3.8492218e+2, 2.1403202e+2, -904978.5, -937176.56, -10247.634, -0.006037248, -0.097557954, -901993.75, -59515.535, 0.000000000004303039, 9.998087, 9.993798 
3.8493305e+2, 2.2402537e+2, -808907.8, -849956.44, -10321.023, -0.0026516712, -0.09710822, -806458.8, -61915.33, 0.00000000000020687176, 9.998377, 9.992918 
3.849437e+2, 2.3401856e+2, -709260.3, -750852.3, -11541.132, 0.0055628656, -0.07270369, -706272.5, -59661.98, 0.00000000000000000020104626, 9.998473, 9.992941 
3.849546e+2, 2.440109e+2, -620990.94, -674005.4, -9925.202, 0.007881646, -0.063241065, -619193.75, -70507.84, 0.000000000000000000007029948, 9.99851, 9.991473 
3.849658e+2, 2.5400218e+2, -523656.53, -576656.2, -10396.566, 0.0013564939, -0.077384084, -521690.06, -70919.17, 0.0, 9.998476, 9.991438 
3.8497722e+2, 2.6399285e+2, -435663.44, -499373.84, -9659.612, 0.0023466398, -0.08553102, -434231.06, -81368.79, 0.0, 9.998467, 9.99002 
3.8498887e+2, 2.7398285e+2, -337206.44, -401264.75, -9454.695, 0.014274235, -0.087615535, -335840.13, -80879.93, 0.0, 9.998499, 9.990005 
3.8500062e+2, 2.8397173e+2, -249089.97, -332982.97, -7143.171, 0.015541309, -0.09045997, -248486.1, -91417.195, 0.0, 9.998888, 9.987778 
3.8501242e+2, 2.9395938e+2, -138232.13, -229644.83, -5853.596, 0.0015274012, -0.09615595, -137858.81, -78668.64, 0.0, 9.9998, 9.987696 
3.8502517e+2, 3.0395058e+2, -35715.832, -78053.08, 722.271, 0.0131442575, -0.08475667, -35703.516, -35703.516, 0.0, 10.000159, 9.994551 
3.8503924e+2, 3.139456e+2, -41801.51, -79765.87, 945.34283, 0.061648976, -0.051018264, -41777.99, -41777.99, 0.0, 9.999687, 9.99466 
3.94815e+2, 1.2404466e+2, -1755946.8, -1717356.6, -2971.9277, -0.043090902, -0.09574295, -1717129.1, 7224.749, 0.000012531762, 9.996452, 10.001555 
3.9482793e+2, 1.340445e+2, -1674380.5, -1652285.6, -3430.7817, -0.0021348954, -0.053757597, -1651765.1, -25409.434, 0.0000081336, 9.996418, 9.999333 
3.948401e+2, 1.4404322e+2, -1576614.1, -1559750.4, -5008.2993, -0.03035933, -0.08731223, -1558375.1, -30006.777, 0.0000043890395, 9.996636, 9.998849 
3.9485237e+2, 1.5404226e+2, -1469536.4, -1456737.0, -4540.8457, -0.052345242, -0.07538336, -1455289.8, -24911.965, 0.0000018668253, 9.997227, 9.998899 
3.9486423e+2, 1.6404027e+2, -1380385.6, -1383926.9, -8962.939, -0.052874062, -0.074333556, -1373020.1, -40622.867, 0.0000005995586, 9.997531, 9.997035 
3.9487565e+2, 1.7403713e+2, -1284340.8, -1287640.8, -8440.491, -0.021345189, -0.08686327, -1277390.5, -42962.402, 0.00000014180438, 9.997429, 9.996965 
3.9488685e+2, 1.8403335e+2, -1197455.1, -1211709.1, -9931.757, -0.0012169076, -0.08663407, -1192357.8, -55892.664, 0.000000024450705, 9.997393, 9.995476 
3.948978e+2, 1.9402896e+2, -1098680.8, -1113665.3, -13071.896, 0.0019110006, -0.07170954, -1091106.3, -52597.68, 0.0000000030648393, 9.997457, 9.995442 
3.949089e+2, 2.0402402e+2, -1003543.5, -1026487.94, -11989.032, 0.0019009361, -0.06623361, -998422.06, -57865.055, 0.00000000027913746, 9.997667, 9.9945965 
3.9492032e+2, 2.1401855e+2, -899011.2, -924915.5, -8576.959, -0.0023445182, -0.07652797, -896428.8, -53818.5, 0.00000000001847093, 9.998092, 9.99463 
3.949314e+2, 2.240122e+2, -810130.0, -852596.9, -9759.452, -0.005550394, -0.08381307, -807994.5, -63322.15, 0.0000000000008880364, 9.9983835, 9.992734 
3.9494205e+2, 2.3400481e+2, -711224.0, -755055.56, -11109.241, -0.007345003, -0.088705376, -708569.1, -61824.38, 0.000000000000000004402075, 9.998481, 9.992649 
3.9495304e+2, 2.4399683e+2, -622243.44, -676770.7, -10006.573, -0.0019895716, -0.08438233, -620465.06, -71641.9, 0.00000000000000000015389045, 9.998521, 9.991278 
3.9496443e+2, 2.5398824e+2, -524907.7, -579317.2, -10532.116, 0.014030289, -0.068738356, -522940.16, -72032.45, 0.0, 9.998482, 9.991252 
3.9497593e+2, 2.63979e+2, -435391.8, -498853.44, -9607.85, 0.024309658, -0.06200474, -433969.13, -80970.336, 0.0, 9.998472, 9.990052 
3.949875e+2, 2.7396894e+2, -336728.78, -400351.3, -9399.276, 0.026038874, -0.07137299, -335369.25, -80272.625, 0.0, 9.998505, 9.990063 
3.9499953e+2, 2.83958e+2, -246824.08, -328396.53, -4122.377, 0.019775305, -0.077457696, -246616.28, -89412.54, 0.0, 9.998895, 9.988086 
3.950122e+2, 2.93946e+2, -135766.5, -224627.63, -2522.0667, 0.0018951737, -0.08021168, -135694.97, -76373.84, 0.0, 9.999806, 9.988034 
3.9502522e+2, 3.039372e+2, -35707.0, -78234.54, -675.28424, 0.0011773062, -0.08492667, -35696.28, -35696.28, 0.0, 10.000173, 9.994529 
3.950386e+2, 3.139317e+2, -41960.68, -80484.04, -1037.1589, 0.025364721, -0.09585988, -41932.773, -41932.773, 0.0, 9.999709, 9.994598 
4.048115e+2, 1.2403141e+2, -1759769.0, -1724241.5, -5262.2827, -0.0361909, -0.0978763, -1723478.4, 1005.0753, 0.00004485904, 9.996406, 10.001111 
4.048246e+2, 1.3403088e+2, -1665412.8, -1652538.5, -4357.862, -0.012646123, -0.05224826, -1651202.1, -24713.027, 0.00002911354, 9.997224, 9.998923 
4.0483698e+2, 1.4402926e+2, -1564796.6, -1556409.9, -6871.681, -0.047397375, -0.087285236, -1552553.1, -24048.127, 0.000015709626, 9.9975395, 9.998637 
4.0484953e+2, 1.5402809e+2, -1472002.1, -1460042.5, -8321.803, -0.05427745, -0.077493586, -1455774.9, -25258.531, 0.000006681798, 9.997145, 9.998715 
4.048616e+2, 1.6402604e+2, -1386493.4, -1385856.1, -13983.182, -0.04497902, -0.07706581, -1372188.0, -39651.605, 0.0000021459712, 9.9970665, 9.99713 
4.0487316e+2, 1.7402303e+2, -1283066.1, -1285642.9, -14197.978, -0.011590457, -0.088143185, -1270098.1, -35532.38, 0.00000050756734, 9.997453, 9.997089 
4.0488452e+2, 1.8401924e+2, -1191576.4, -1211076.0, -13691.886, 0.0056574303, -0.08894474, -1184517.6, -47914.543, 0.00000008752133, 9.997887, 9.995279 
4.0489566e+2, 1.9401458e+2, -1086707.4, -1110441.4, -12028.53, -0.0007619835, -0.07839651, -1081677.3, -43027.96, 0.000000010971236, 9.998382, 9.995214 
4.049069e+2, 2.0400953e+2, -992298.44, -1020517.2, -11763.34, -0.0023572806, -0.07079922, -988037.94, -47339.26, 0.0000000009993062, 9.998407, 9.994647 
4.0491828e+2, 2.1400428e+2, -903364.75, -926166.6, -14279.28, 0.003314804, -0.06970607, -896493.3, -53743.2, 0.00000000006613187, 9.997753, 9.99471 
4.0492943e+2, 2.2399798e+2, -822595.1, -858084.56, -16695.594, 0.0026455866, -0.076648474, -815975.56, -71164.12, 0.0000000000031798247, 9.997506, 9.992784 
4.0494022e+2, 2.3399049e+2, -719885.1, -758714.06, -15399.219, -0.0076997713, -0.09732761, -714519.44, -67634.734, 0.0000000000000000688154, 9.997863, 9.992699 
4.0495133e+2, 2.4398246e+2, -627739.25, -679801.6, -12817.923, -0.004383428, -0.097978435, -624754.56, -75791.17, 0.0000000000000000024051838, 9.9981575, 9.991247 
4.049629e+2, 2.5397396e+2, -526957.06, -580743.5, -12321.218, 0.019072806, -0.07135314, -524268.9, -73221.58, 0.0, 9.998356, 9.991217 
4.0497455e+2, 2.6396465e+2, -432596.56, -498161.6, -10355.661, 0.031061506, -0.060980354, -430999.8, -77861.27, 0.0, 9.99869, 9.989995 
4.0498635e+2, 2.739545e+2, -326630.25, -396130.5, -10949.877, 0.025718665, -0.07762992, -324945.9, -69708.266, 0.0, 9.999221, 9.990006 
4.0499863e+2, 2.8394356e+2, -240871.92, -324420.47, -7480.394, 0.019260801, -0.08388986, -240207.45, -82862.84, 0.0, 9.999249, 9.988189 
4.0501148e+2, 2.9393178e+2, -153536.28, -231888.77, -7620.8525, 0.011657054, -0.07636398, -152801.94, -93342.17, 0.0, 9.998528, 9.988153 
4.0502465e+2, 3.0392307e+2, -59489.492, -89128.336, -5725.109, 0.010194845, -0.08400723, -58422.063, -58422.063, 0.0, 9.9985075, 9.994586 
4.0503812e+2, 3.139174e+2, -43873.66, -80896.72, -5247.056, 0.016827453, -0.11743655, -43144.39, -43144.39, 0.0, 9.999549, 9.994649 
4.148077e+2, 1.2401761e+2, -1762397.3, -1728632.6, -2575.6228, -0.054285493, -0.10734007, -1728437.3, -3818.9949, 0.0001357749, 9.9963665, 10.00083 
4.1482165e+2, 1.3401674e+2, -1667282.9, -1655993.1, -1370.4084, -0.03376287, -0.07264724, -1655829.1, -29202.129, 0.00008811505, 9.997211, 9.998692 
4.148345e+2, 1.4401476e+2, -1567905.3, -1562631.5, -8124.543, -0.052444, -0.11285303, -1556726.6, -28080.041, 0.000047546542, 9.997537, 9.998215 
4.148471e+2, 1.540132e+2, -1475410.6, -1466558.5, -9998.451, -0.009360155, -0.09715199, -1460050.3, -29388.455, 0.000020223571, 9.997128, 9.998281 
4.1485924e+2, 1.6401097e+2, -1386954.0, -1386338.3, -12898.411, 0.012364418, -0.08844155, -1373744.0, -41060.434, 0.0000064954993, 9.99705, 9.997104 
4.1487077e+2, 1.740081e+2, -1283008.9, -1285343.9, -12778.714, 0.0029878072, -0.088506326, -1271344.5, -36632.746, 0.0000015364569, 9.997449, 9.997108 
4.148823e+2, 1.8400449e+2, -1188792.9, -1205342.6, -11892.691, -0.008918073, -0.089969635, -1182579.5, -45832.293, 0.00000026496838, 9.997888, 9.995667 
4.1489384e+2, 1.9400007e+2, -1083530.1, -1104087.6, -10060.443, -0.02415691, -0.09736402, -1079426.1, -40635.35, 0.000000033220672, 9.998392, 9.99564 
4.1490516e+2, 2.0399494e+2, -996441.44, -1029330.94, -13792.728, -0.020884443, -0.094085254, -991423.0, -50582.0, 0.0000000030265355, 9.998424, 9.994038 
4.149161e+2, 2.1398912e+2, -908422.06, -936661.06, -16782.824, 0.009719937, -0.07717234, -900609.3, -57711.01, 0.00000000020034616, 9.997759, 9.993991 
4.1492712e+2, 2.2398265e+2, -820559.44, -853862.8, -15713.304, 0.021100275, -0.07546277, -814316.0, -69354.38, 0.000000000009636878, 9.997508, 9.99307 
4.149382e+2, 2.3397553e+2, -717034.9, -752839.4, -13971.701, 0.003759889, -0.09832264, -712228.06, -65197.027, 0.0000000000000007946489, 9.997866, 9.993096 
4.1494957e+2, 2.4396774e+2, -626786.8, -677913.4, -11951.144, -0.00039132766, -0.103646256, -624131.1, -75023.85, 0.000000000000000027769294, 9.998164, 9.991371 
4.1496122e+2, 2.5395924e+2, -526223.94, -579275.94, -11541.173, 0.015366675, -0.08506411, -523822.0, -72631.33, 0.0, 9.99836, 9.991314 
4.1497317e+2, 2.6394987e+2, -433606.7, -500350.1, -8488.541, 0.021373432, -0.08221739, -432544.03, -79261.42, 0.0, 9.998696, 9.98984 
4.1498545e+2, 2.7393946e+2, -327849.72, -398766.63, -8990.773, 0.012027954, -0.106157266, -326727.63, -71343.26, 0.0, 9.9992285, 9.9898205 
4.1499782e+2, 2.8392836e+2, -241584.81, -326055.16, -9859.111, 0.012873866, -0.10951252, -240449.34, -82956.555, 0.0, 9.999261, 9.98807 
4.1501018e+2, 2.9391667e+2, -154156.4, -233352.19, -10525.683, 0.02998305, -0.08409377, -152781.34, -93173.89, 0.0, 9.99854, 9.988046 
4.1502348e+2, 3.0390802e+2, -58512.43, -87423.16, -2634.9092, 0.039092, -0.08180302, -58274.246, -58274.246, 0.0, 9.998525, 9.994691 
4.1503787e+2, 3.1390247e+2, -42651.78, -78768.17, -1469.8485, 0.03428751, -0.11667317, -42592.06, -42592.06, 0.0, 9.999572, 9.99478 
4.248044e+2, 1.2400313e+2, -1751894.3, -1723226.6, -6258.266, -0.058703005, -0.10383271, -1721920.0, 2840.0813, 0.00035082738, 9.997062, 10.000857 
4.2481893e+2, 1.3400228e+2, -1665136.8, -1653777.1, -2563.6882, -0.029996386, -0.0772607, -1653225.3, -26456.9, 0.00022768496, 9.997298, 9.998802 
4.2483214e+2, 1.4400032e+2, -1567667.1, -1562603.9, -8635.919, -0.043763645, -0.12155089, -1556136.1, -27348.438, 0.0001228659, 9.997552, 9.998211 
4.2484468e+2, 1.5399878e+2, -1465049.0, -1461702.1, -7529.2036, 0.0026564468, -0.1023897, -1455662.6, -24859.934, 0.000052266085, 9.997838, 9.998266 
4.2485684e+2, 1.6399649e+2, -1373571.6, -1381411.8, -8023.922, 0.022058869, -0.093514815, -1368561.4, -35736.234, 0.00001678997, 9.998024, 9.996968 
4.2486852e+2, 1.7399341e+2, -1274638.6, -1282961.5, -9162.52, 0.0021972433, -0.098512515, -1268736.8, -33881.67, 0.000003972505, 9.998085, 9.996965 
4.2488015e+2, 1.839897e+2, -1188017.4, -1205507.9, -11121.984, -0.013505981, -0.09982965, -1182614.3, -45722.695, 0.00000068530704, 9.997959, 9.995624 
4.2489183e+2, 1.9398533e+2, -1095872.0, -1110452.9, -12924.116, -0.023061963, -0.09935045, -1088323.9, -49389.2, 0.00000008596078, 9.997561, 9.995611 
4.2490312e+2, 2.0398018e+2, -1009703.1, -1036412.0, -17104.227, -0.018941034, -0.09603493, -1001357.44, -60372.15, 0.000000007836224, 9.997541, 9.993984 
4.24914e+2, 2.1397418e+2, -903858.94, -935103.9, -15162.546, 0.00501658, -0.09091227, -897710.7, -54666.484, 0.0000000005191636, 9.9980955, 9.993937 
4.2492506e+2, 2.2396764e+2, -807817.25, -848901.94, -11830.427, 0.016758138, -0.08865405, -804654.2, -59545.914, 0.000000000025000514, 9.998425, 9.992967 
4.249364e+2, 2.339606e+2, -709608.6, -750538.44, -13894.054, 0.010164019, -0.09237064, -705337.75, -58160.547, 0.0000000000000068380394, 9.998424, 9.992986 
4.249479e+2, 2.4395281e+2, -623345.8, -675556.75, -14744.236, 0.0069650696, -0.09491827, -619469.8, -70216.36, 0.00000000000000023892724, 9.998363, 9.991438 
4.2495945e+2, 2.5394416e+2, -527517.8, -579029.8, -14564.951, 0.00868049, -0.098214075, -523684.8, -72347.05, 0.0, 9.998229, 9.991395 
4.2497143e+2, 2.639348e+2, -442343.03, -504315.88, -10401.621, 0.011165213, -0.101790525, -440643.78, -87214.15, 0.0, 9.99808, 9.989869 
4.2498404e+2, 2.7392456e+2, -346846.66, -407742.22, -9300.548, 0.014127913, -0.10885134, -345457.88, -89928.1, 0.0, 9.997911, 9.989845 
4.2499664e+2, 2.8391355e+2, -256245.08, -333286.22, -8889.239, 0.01946343, -0.10709899, -255232.7, -97594.984, 0.0, 9.99826, 9.98806 
4.2500913e+2, 2.939017e+2, -142313.95, -227790.6, -8905.875, 0.02900129, -0.09473146, -141395.9, -81642.2, 0.0, 9.999353, 9.988037 
4.2502257e+2, 3.0389303e+2, -41084.0, -79486.01, -1136.8695, 0.03829087, -0.09308102, -41050.375, -41050.375, 0.0, 9.99974, 9.994651 
4.250373e+2, 3.138876e+2, -50639.844, -83049.72, -1309.3552, 0.04556767, -0.10996492, -50587.035, -50587.035, 0.0, 9.99904, 9.994742 
4.3480152e+2, 1.2398802e+2, -1749870.9, -1718355.8, -5780.808, -0.051697973, -0.087395124, -1717328.9, 7579.6655, 0.00078514614, 9.997035, 10.001199 
4.3481654e+2, 1.3398756e+2, -1662403.6, -1647394.1, -1922.4993, -0.00055108033, -0.06457617, -1647151.8, -20239.143, 0.00050963036, 9.997271, 9.999246 
4.348299e+2, 1.43986e+2, -1564940.3, -1556407.1, -7690.8345, -0.021205027, -0.11158101, -1551878.6, -22950.89, 0.00027507497, 9.997531, 9.99864 
4.348423e+2, 1.539849e+2, -1462066.8, -1455360.1, -6456.5664, -0.021874316, -0.09190925, -1451438.0, -20499.736, 0.00011705333, 9.997832, 9.998698 
4.3485445e+2, 1.6398264e+2, -1375412.5, -1385214.8, -7761.291, -0.020819785, -0.09146181, -1371134.4, -38174.164, 0.000037619757, 9.998028, 9.996706 
4.3486643e+2, 1.7397903e+2, -1277014.0, -1287865.4, -8930.945, -0.01621781, -0.11832269, -1271989.8, -36994.27, 0.000008906541, 9.998089, 9.996628 
4.3487817e+2, 1.8397492e+2, -1191616.4, -1212876.6, -12478.641, -0.008815148, -0.11873779, -1185853.9, -48817.89, 0.0000015378395, 9.997961, 9.99512 
4.3488964e+2, 1.9397037e+2, -1099658.5, -1118082.1, -14444.8, 0.0023942343, -0.08328309, -1091738.1, -52657.0, 0.00000019312868, 9.997558, 9.995092 
4.349009e+2, 2.0396522e+2, -1006108.6, -1028884.75, -15345.898, 0.002916082, -0.07541876, -998386.9, -57254.93, 0.000000017634331, 9.9975395, 9.994496 
4.3491194e+2, 2.1395943e+2, -899236.6, -925738.5, -12907.576, -0.01218082, -0.1111683, -893989.1, -50801.0, 0.0000000011708853, 9.998105, 9.994568 
4.349232e+2, 2.2395292e+2, -811275.0, -856368.06, -11515.894, -0.012181109, -0.11673485, -808504.3, -63252.547, 0.000000000056553692, 9.998442, 9.992448 
4.3493485e+2, 2.3394565e+2, -714065.9, -759967.25, -13820.693, 0.010351064, -0.07897749, -710225.8, -62902.152, 0.000000000000044721503, 9.998436, 9.992335 
4.3494636e+2, 2.439376e+2, -623365.7, -675775.6, -15185.227, 0.016668363, -0.07097621, -619283.9, -69881.125, 0.000000000000001562477, 9.998374, 9.991416 
4.3495756e+2, 2.5392866e+2, -527079.0, -578191.8, -15068.307, -0.0016299783, -0.11064579, -522967.5, -71477.84, 0.0, 9.998235, 9.991448 
4.3496943e+2, 2.6391932e+2, -440893.2, -501349.78, -11056.224, -0.00020221279, -0.11977953, -438934.7, -85353.91, 0.0, 9.998086, 9.9900675 
4.3498212e+2, 2.7390972e+2, -345227.63, -404481.44, -10007.817, 0.030992035, -0.08567152, -343582.97, -87907.86, 0.0, 9.99792, 9.990062 
4.3499509e+2, 2.8389895e+2, -255602.1, -332043.22, -5350.617, 0.037964545, -0.07655722, -255229.39, -97448.5, 0.0, 9.998263, 9.988141 
4.350083e+2, 2.9388675e+2, -141792.1, -226822.83, -4920.8037, 0.008300297, -0.10797902, -141508.27, -81608.125, 0.0, 9.999359, 9.988098 
4.3502203e+2, 3.038779e+2, -42162.324, -82003.99, -3241.6145, 0.0069470536, -0.11770356, -41900.3, -41900.3, 0.0, 9.999758, 9.994467 
4.350364e+2, 3.1387264e+2, -51854.715, -85981.25, -4180.95, 0.048283506, -0.09667243, -51349.96, -51349.96, 0.0, 9.9990635, 9.994528 
4.4479877e+2, 1.2397324e+2, -1745263.3, -1717408.5, 333.3632, -0.04800288, -0.09667963, -1717404.5, 7648.183, 0.0015538043, 9.997397, 10.001091 
4.4481406e+2, 1.339728e+2, -1657000.8, -1645430.5, 412.38123, 0.006467197, -0.070858, -1645415.8, -18358.768, 0.0010089569, 9.997661, 9.999192 
4.4482762e+2, 1.439712e+2, -1559995.6, -1554145.8, -9179.463, -0.018388331, -0.11568252, -1547436.5, -18364.209, 0.0005448942, 9.997869, 9.99863 
4.4484013e+2, 1.5397015e+2, -1459546.0, -1454200.5, -11359.9795, -0.031197073, -0.09211357, -1445203.1, -14120.481, 0.00023205215, 9.998001, 9.998695 
4.448524e+2, 1.6396783e+2, -1375292.4, -1387405.5, -14784.287, -0.033239376, -0.088392526, -1365372.3, -32266.912, 0.00007466019, 9.99813, 9.996507 
4.4486457e+2, 1.7396402e+2, -1276125.0, -1289916.1, -15206.966, -0.018455932, -0.112691395, -1266323.3, -31180.537, 0.000017702305, 9.998254, 9.996408 
4.4487634e+2, 1.8395977e+2, -1186607.4, -1210265.4, -17694.568, -0.0047735865, -0.114568196, -1177152.0, -39967.57, 0.000003062777, 9.998292, 9.995137 
4.4488758e+2, 1.939552e+2, -1089727.4, -1112732.6, -15565.99, 0.0068708854, -0.08648382, -1081875.1, -42645.62, 0.0000003857046, 9.998208, 9.995143 
4.448988e+2, 2.0394997e+2, -996963.3, -1025968.9, -14220.416, 0.005784698, -0.081754915, -991154.75, -49873.996, 0.00000003535121, 9.998224, 9.994365 
4.4491017e+2, 2.1394408e+2, -896087.2, -925943.7, -17561.836, -0.013987372, -0.113874905, -887966.1, -44627.938, 0.000000002359298, 9.998389, 9.994417 
4.4492155e+2, 2.239375e+2, -813150.0, -857912.94, -19853.156, -0.01602585, -0.11701579, -805613.56, -60210.855, 0.000000000114745775, 9.998335, 9.992395 
4.4493303e+2, 2.3393017e+2, -721196.1, -763913.2, -17829.258, 0.008088115, -0.07935218, -714732.56, -67257.48, 0.00000000000022836846, 9.997965, 9.992295 
4.449445e+2, 2.4392207e+2, -630692.0, -679973.0, -15653.636, 0.017452825, -0.071205996, -626140.2, -76585.58, 0.0000000000000079783024, 9.997898, 9.991362 
4.4495592e+2, 2.5391307e+2, -526509.56, -578558.1, -16236.261, 0.004261555, -0.10976264, -521860.1, -70218.05, 0.0, 9.998296, 9.991396 
4.4496775e+2, 2.6390377e+2, -435392.28, -498095.97, -14315.218, 0.0051862, -0.118466154, -432278.75, -78545.555, 0.0, 9.998431, 9.990125 
4.449801e+2, 2.7389422e+2, -341361.1, -401890.56, -14580.207, 0.027307712, -0.08523502, -338032.16, -82205.28, 0.0, 9.998149, 9.99013 
4.4499317e+2, 2.8388357e+2, -258069.19, -330574.2, -7391.578, 0.033144936, -0.07788538, -257323.31, -99391.97, 0.0, 9.997973, 9.988382 
4.4500703e+2, 2.938716e+2, -160312.11, -232848.11, -5169.27, 0.014706211, -0.11236632, -159945.56, -99897.19, 0.0, 9.997958, 9.988363 
4.4502112e+2, 3.03863e+2, -63042.36, -90835.375, -3350.151, 0.013640266, -0.11893665, -62644.24, -62644.24, 0.0, 9.9982605, 9.994588 
4.450353e+2, 3.1385797e+2, -51864.77, -84888.32, -2301.3574, 0.03813749, -0.08547521, -51705.164, -51705.164, 0.0, 9.999002, 9.994639 
4.5479614e+2, 1.2395899e+2, -1750212.1, -1726541.0, 1077.3513, -0.050700407, -0.13187064, -1726492.1, -1301.1318, 0.0027803245, 9.997357, 10.000487 
4.5481154e+2, 1.3395803e+2, -1661754.4, -1654542.9, 1257.6241, -0.01173254, -0.09731897, -1654329.9, -27129.29, 0.0018069525, 9.997639, 9.99858 
4.5482528e+2, 1.4395595e+2, -1563761.8, -1561433.9, -8857.416, -0.037536807, -0.13534182, -1553664.3, -24443.148, 0.0009770269, 9.997854, 9.998138 
4.5483816e+2, 1.5395449e+2, -1463168.3, -1461245.3, -11051.692, -0.025719495, -0.10399726, -1451113.3, -19877.568, 0.00041677037, 9.997988, 9.99822 
4.5485073e+2, 1.6395201e+2, -1376474.6, -1389537.9, -14526.224, -0.014819802, -0.08419888, -1367079.1, -33818.613, 0.00013439546, 9.99812, 9.996364 
4.5486298e+2, 1.7394836e+2, -1276984.8, -1291529.5, -14872.376, -0.0047092787, -0.0802062, -1267701.9, -32405.29, 0.000031964762, 9.998251, 9.996297 
4.5487466e+2, 1.8394426e+2, -1182632.0, -1202043.4, -18020.451, -0.0023342278, -0.085926294, -1171869.8, -34532.98, 0.000005553748, 9.998294, 9.995695 
4.548856e+2, 1.939398e+2, -1085081.0, -1103359.3, -15818.954, -0.011806899, -0.10996262, -1075950.9, -36571.16, 0.00000070340104, 9.998221, 9.995773 
4.5489684e+2, 2.0393445e+2, -1002547.1, -1037752.8, -13677.906, -0.012875101, -0.11641241, -997857.7, -56425.742, 0.000000064967765, 9.998239, 9.993553 
4.549087e+2, 2.1392809e+2, -902936.1, -940269.9, -16929.828, -0.0007923358, -0.09790291, -896402.4, -52907.492, 0.0000000043809485, 9.9984, 9.993434 
4.549201e+2, 2.2392128e+2, -810106.8, -851808.06, -21086.824, 0.0055082357, -0.087769136, -801302.7, -55740.703, 0.00000000021602262, 9.998347, 9.992804 
4.5493093e+2, 2.3391409e+2, -717004.56, -755350.3, -19216.805, 0.0026409028, -0.09375989, -709031.8, -61399.47, 0.0000000000009414817, 9.9979725, 9.992875 
4.549423e+2, 2.4390616e+2, -631254.06, -681210.4, -14389.216, 0.007874317, -0.09640373, -627405.9, -77695.89, 0.000000000000032891313, 9.997904, 9.991272 
4.5495442e+2, 2.5389743e+2, -527665.25, -581016.9, -14650.17, 0.025559347, -0.09521115, -523907.1, -72111.3, 0.0, 9.998301, 9.991224 
4.5496637e+2, 2.63888e+2, -436046.66, -499574.0, -15110.801, 0.026755946, -0.096916944, -432635.53, -78747.71, 0.0, 9.99844, 9.990018 
4.5497802e+2, 2.7387795e+2, -341967.94, -403322.97, -15741.605, 0.001865306, -0.10705796, -338164.9, -82178.64, 0.0, 9.99816, 9.990025 
4.5499083e+2, 2.8386727e+2, -255207.98, -324786.1, -7734.283, 0.0033258577, -0.11081255, -254358.63, -96267.984, 0.0, 9.997983, 9.988772 
4.5500532e+2, 2.9385614e+2, -157003.92, -226103.64, -5412.433, 0.04701704, -0.107820615, -156582.55, -96382.555, 0.0, 9.997967, 9.988818 
4.550198e+2, 3.0384812e+2, -60254.152, -85197.12, -1001.3099, 0.05738719, -0.096643165, -60214.02, -60214.02, 0.0, 9.99827, 9.994968 
4.5503408e+2, 3.1384334e+2, -49005.027, -79337.414, 224.05426, 0.0136100985, -0.0752823, -49003.37, -49003.37, 0.0, 9.9990225, 9.995008 
4.6479422e+2, 1.2394451e+2, -1729945.0, -1719799.1, -2292.8503, -0.04987402, -0.13930452, -1719305.1, 6027.1924, 0.004589857, 9.998864, 10.000214 
4.6480954e+2, 1.3394332e+2, -1650995.8, -1652309.9, 360.1786, -0.015447583, -0.100804485, -1650903.5, -23559.334, 0.0029879087, 9.998491, 9.998321 
4.6482334e+2, 1.4394091e+2, -1559564.9, -1563769.6, -7426.8696, -0.041822787, -0.14005248, -1553948.6, -24580.613, 0.0016192476, 9.998322, 9.997757 
4.6483642e+2, 1.5393901e+2, -1459142.4, -1463851.6, -9050.664, -0.022742627, -0.11498952, -1452145.1, -20757.986, 0.00069287396, 9.998453, 9.99782 
4.648491e+2, 1.6393629e+2, -1370702.5, -1387064.9, -12119.81, -0.008047509, -0.09470251, -1364261.1, -30846.867, 0.00022437889, 9.998522, 9.99634 
4.648614e+2, 1.7393278e+2, -1273038.0, -1289460.6, -11581.685, 0.00031054785, -0.08040748, -1267052.1, -31602.969, 0.000053673917, 9.998507, 9.996318 
4.648731e+2, 1.8392867e+2, -1179260.4, -1201256.8, -16464.652, -0.000050002993, -0.08477989, -1170458.4, -32969.086, 0.000009398119, 9.998552, 9.995626 
4.6488404e+2, 1.93924e+2, -1078591.9, -1101189.0, -19786.467, -0.013503446, -0.120758034, -1067105.4, -27571.232, 0.0000012027082, 9.998697, 9.995692 
4.6489522e+2, 2.039185e+2, -999789.94, -1039031.0, -19609.664, -0.014645421, -0.12789221, -991670.56, -50082.695, 0.00000011262272, 9.998532, 9.993326 
4.6490687e+2, 2.1391205e+2, -911694.44, -947370.5, -17483.574, 0.0028098829, -0.09347467, -904555.06, -60903.152, 0.000000007732489, 9.99792, 9.993185 
4.6491817e+2, 2.2390516e+2, -818916.2, -854676.7, -18806.67, 0.008874858, -0.08229182, -810846.6, -65126.887, 0.00000000039024706, 9.997681, 9.992934 
4.649289e+2, 2.3389795e+2, -714948.4, -752499.6, -19951.418, -0.0027590373, -0.10879517, -706327.25, -58537.242, 0.0000000000032348013, 9.998027, 9.993046 
4.6494022e+2, 2.4389008e+2, -629315.6, -680830.75, -16808.82, 0.002297372, -0.1141237, -624316.25, -74449.12, 0.00000000000011301746, 9.998052, 9.99123 
4.649524e+2, 2.5388148e+2, -538631.8, -587345.0, -16477.418, 0.03260477, -0.08920215, -533581.75, -81629.91, 0.0, 9.997589, 9.991138 
4.6496445e+2, 2.638721e+2, -450113.44, -506290.03, -15813.475, 0.03628837, -0.08400597, -445967.94, -91924.09, 0.0, 9.997467, 9.990032 
4.64976e+2, 2.7386189e+2, -345971.1, -405039.1, -15468.348, -0.0016597788, -0.11310208, -342165.5, -86021.81, 0.0, 9.997867, 9.990054 
4.6498874e+2, 2.838512e+2, -255765.83, -324893.8, -9177.885, -0.003315846, -0.1204561, -254568.06, -96319.92, 0.0, 9.997934, 9.9887905 
4.6500304e+2, 2.9384026e+2, -164769.75, -229678.77, -10385.05, 0.052565932, -0.09728262, -163148.69, -102793.086, 0.0, 9.997422, 9.988837 
4.6501774e+2, 3.0383247e+2, -69654.04, -85568.18, -4234.95, 0.06474576, -0.08315436, -68597.24, -68597.24, 0.0, 9.997445, 9.9953375 
4.6503264e+2, 3.1382787e+2, -57316.54, -78658.96, -2277.811, 0.006090249, -0.085771345, -57076.14, -57076.14, 0.0, 9.998252, 9.995421 
4.7479314e+2, 1.23929895e+2, -1729782.6, -1718871.5, -4012.576, -0.049499348, -0.116690956, -1717554.8, 7920.9688, 0.007113215, 9.998844, 10.000285 
4.7480816e+2, 1.3392879e+2, -1650658.4, -1651054.0, -1305.7871, -0.0046699536, -0.07929983, -1649535.5, -22048.87, 0.004643645, 9.998475, 9.99841 
4.7482178e+2, 1.439262e+2, -1561937.9, -1568099.1, -7322.732, -0.030601813, -0.12814668, -1557074.1, -27562.264, 0.0025262511, 9.998303, 9.997469 
4.7483486e+2, 1.5392375e+2, -1461741.6, -1468898.0, -8634.952, -0.024292218, -0.12465319, -1455972.9, -24436.805, 0.0010866441, 9.9984455, 9.997478 
4.7484756e+2, 1.6392072e+2, -1370056.3, -1385572.3, -12257.141, -0.016451923, -0.12068643, -1363308.3, -29742.48, 0.00035438547, 9.998519, 9.996442 
4.7485986e+2, 1.7391726e+2, -1271954.8, -1287203.9, -11654.646, -0.0060365456, -0.115169816, -1265652.1, -30052.354, 0.000085576154, 9.998509, 9.996468 
4.7487167e+2, 1.8391298e+2, -1184435.6, -1211995.9, -16000.195, 0.00047567763, -0.11266672, -1177099.5, -39457.543, 0.000015172572, 9.99856, 9.99489 
4.748829e+2, 1.939078e+2, -1084426.0, -1113498.3, -19219.691, 0.001265435, -0.1177408, -1074864.5, -35171.902, 0.0000019737136, 9.998714, 9.9948435 
4.7489393e+2, 2.0390208e+2, -996967.94, -1033509.3, -21748.148, -0.00005483637, -0.11456297, -986834.4, -45085.64, 0.00000018875323, 9.998549, 9.993693 
4.7490472e+2, 2.1389592e+2, -908019.94, -939873.6, -19787.734, -0.004480686, -0.101195335, -898545.6, -54736.06, 0.000000013307983, 9.997928, 9.993692 
4.7491568e+2, 2.2388913e+2, -820055.6, -857059.0, -17776.475, -0.007830393, -0.101537764, -812899.6, -67023.445, 0.00000000069387657, 9.9976845, 9.992768 
4.7492686e+2, 2.338817e+2, -716657.9, -756192.94, -18491.264, -0.009257741, -0.124205425, -709357.3, -61408.81, 0.000000000009472845, 9.998035, 9.992788 
4.7493827e+2, 2.4387372e+2, -629482.2, -681348.0, -18210.008, -0.00035515428, -0.123869374, -623727.25, -73700.48, 0.00000000000033105848, 9.998063, 9.991188 
4.7494993e+2, 2.5386518e+2, -538726.3, -587572.56, -18246.416, 0.024120336, -0.091858245, -532663.0, -80551.734, 0.0, 9.997594, 9.991119 
4.7496185e+2, 2.6385593e+2, -449182.4, -504380.97, -14645.114, 0.03256439, -0.080259405, -445537.5, -91335.07, 0.0, 9.997471, 9.990158 
4.7497407e+2, 2.7384588e+2, -344951.78, -403025.78, -13995.254, 0.015651368, -0.10384143, -341755.03, -85454.47, 0.0, 9.997875, 9.990185 
4.7498682e+2, 2.8383517e+2, -258247.08, -330164.56, -10841.337, 0.012082277, -0.10650043, -256648.31, -98242.85, 0.0, 9.997942, 9.988425 
4.7500023e+2, 2.9382384e+2, -167797.08, -236141.2, -12574.763, 0.030605052, -0.07972735, -165556.86, -105039.94, 0.0, 9.997434, 9.988389 
4.750149e+2, 3.038158e+2, -66880.9, -80102.36, -1949.2866, 0.034707025, -0.0781937, -66599.5, -66599.5, 0.0, 9.997462, 9.9957 
4.75031e+2, 3.138114e+2, -53791.46, -71647.336, 547.9194, 0.013735494, -0.10869916, -53774.664, -53774.664, 0.0, 9.998272, 9.995888 
4.8479167e+2, 1.23914495e+2, -1740357.1, -1724745.9, -7201.483, -0.044252817, -0.11706358, -1721931.3, 3695.274, 0.01049777, 9.998152, 10.000224 
4.8480678e+2, 1.3391334e+2, -1646848.1, -1649841.6, -5610.1343, -0.00320631, -0.07959656, -1642538.5, -14900.709, 0.0068823104, 9.998755, 9.998357 
4.8482046e+2, 1.4391072e+2, -1549969.5, -1562733.0, -11594.909, -0.029729238, -0.12795712, -1543116.1, -13452.695, 0.0037656925, 9.999133, 9.99743 
4.8483372e+2, 1.5390824e+2, -1451606.8, -1464449.8, -10747.319, -0.019251274, -0.1241124, -1445508.6, -13820.857, 0.0016323061, 9.99915, 9.997438 
4.8484638e+2, 1.6390513e+2, -1361558.6, -1381432.1, -14046.792, -0.013960418, -0.12383584, -1354289.3, -20571.248, 0.00053782034, 9.999092, 9.996446 
4.8485845e+2, 1.739016e+2, -1265785.1, -1284157.0, -14655.084, -0.016367896, -0.12790981, -1257675.0, -21922.455, 0.00013162919, 9.998921, 9.996478 
4.8487017e+2, 1.8389714e+2, -1184772.6, -1216416.9, -18347.232, -0.012260706, -0.12595978, -1176367.5, -38571.082, 0.000023746588, 9.998717, 9.994514 
4.848815e+2, 1.9389167e+2, -1090944.6, -1121462.1, -18445.977, 0.001679032, -0.11800534, -1082264.3, -42413.867, 0.0000031577385, 9.998472, 9.994423 
4.848925e+2, 2.0388582e+2, -997369.94, -1032612.8, -20415.04, 0.005008692, -0.11054468, -988023.06, -46115.023, 0.00000031029586, 9.998471, 9.993795 
4.8490307e+2, 2.1387973e+2, -893204.4, -930885.94, -21111.967, -0.0077188, -0.10619414, -883748.7, -39780.824, 0.000000022599854, 9.998854, 9.993859 
4.8491386e+2, 2.2387293e+2, -805529.8, -852465.5, -21069.516, -0.012239255, -0.10901791, -797459.4, -51424.76, 0.000000001223376, 9.998774, 9.992558 
4.849249e+2, 2.3386529e+2, -719077.06, -760489.8, -22005.26, -0.003898654, -0.124210395, -709567.75, -61458.793, 0.000000000023981294, 9.997999, 9.992516 
4.8493615e+2, 2.438572e+2, -635315.25, -683269.1, -21048.115, 0.0042193034, -0.12312712, -627387.4, -77199.055, 0.00000000000083893737, 9.997621, 9.991274 
4.8494753e+2, 2.538487e+2, -533510.94, -583708.1, -19966.766, 0.010899823, -0.100996345, -526537.56, -74265.19, 0.0, 9.997886, 9.991246 
4.8495942e+2, 2.638395e+2, -442507.56, -500881.84, -15650.008, 0.018121347, -0.09087827, -438576.56, -84213.83, 0.0, 9.997906, 9.990192 
4.8497185e+2, 2.738296e+2, -349923.16, -405534.1, -15996.268, 0.026003717, -0.10182462, -345650.22, -89190.336, 0.0, 9.997532, 9.990183 
4.8498464e+2, 2.8381893e+2, -266160.1, -334292.3, -12735.497, 0.0271909, -0.09852739, -263857.38, -105293.03, 0.0, 9.997408, 9.988403 
4.849977e+2, 2.938075e+2, -165087.4, -235351.06, -11512.939, 0.018518055, -0.07989414, -163249.08, -102572.445, 0.0, 9.997635, 9.98835 
4.8501223e+2, 3.0379924e+2, -64976.46, -78662.02, 618.85706, 0.019136606, -0.10056686, -64948.535, -64948.535, 0.0, 9.99756, 9.995758 
4.8502877e+2, 3.1379506e+2, -73158.234, -80030.82, -64.92849, 0.034227088, -0.11634005, -73157.62, -73157.62, 0.0, 9.996884, 9.995989 
4.947899e+2, 1.2389839e+2, -1743169.8, -1728732.6, -5581.9595, -0.03689649, -0.14177875, -1726826.1, -1042.2878, 0.014911252, 9.99808, 9.999983 
4.9480546e+2, 1.3389702e+2, -1649067.4, -1653458.8, -3635.0557, -0.013235518, -0.10328224, -1647016.4, -19219.074, 0.009830928, 9.99872, 9.998125 
4.9481952e+2, 1.4389446e+2, -1548589.6, -1559515.8, -11579.013, -0.041307975, -0.14116552, -1541249.6, -11427.167, 0.0054196375, 9.999123, 9.99765 
4.9483296e+2, 1.5389249e+2, -1449749.3, -1460450.1, -10881.88, -0.009012892, -0.113485694, -1442973.5, -11131.558, 0.0023727028, 9.999149, 9.997708 
4.948456e+2, 1.638896e+2, -1362340.9, -1382969.0, -14788.867, -0.0017540508, -0.10290165, -1354624.8, -20754.412, 0.00079196517, 9.999095, 9.996338 
4.9485725e+2, 1.738858e+2, -1266898.5, -1286465.8, -15476.747, -0.032444764, -0.11733845, -1258372.4, -22465.14, 0.00019707251, 9.998929, 9.996314 
4.9486864e+2, 1.8388116e+2, -1184795.4, -1216456.3, -19376.732, -0.04072067, -0.124109566, -1175604.6, -37651.875, 0.000036298647, 9.998722, 9.994508 
4.948798e+2, 1.9387564e+2, -1090797.1, -1121271.1, -19371.574, -0.014801175, -0.12230664, -1081388.1, -41380.816, 0.0000049503406, 9.998483, 9.994428 
4.948909e+2, 2.0386967e+2, -998447.6, -1035038.2, -19200.277, -0.0018200999, -0.11699182, -990221.8, -48155.84, 0.00000050112493, 9.998484, 9.993621 
4.9490196e+2, 2.1386345e+2, -894264.7, -933613.2, -19574.646, -0.008507096, -0.10809572, -886185.7, -42058.598, 0.000000037748414, 9.998881, 9.993657 
4.949127e+2, 2.2385646e+2, -807224.44, -856487.4, -23592.432, -0.0052499487, -0.10364286, -797748.56, -51553.03, 0.0000000021194788, 9.9988, 9.99227 
4.9492308e+2, 2.3384865e+2, -721126.1, -764892.2, -24998.172, 0.013041807, -0.10825621, -709786.0, -61513.746, 0.000000000053309013, 9.99801, 9.99221 
4.9493387e+2, 2.4384046e+2, -633738.75, -680045.06, -20448.012, 0.015227313, -0.11166041, -626001.94, -75649.23, 0.0000000000018704428, 9.997625, 9.991489 
4.9494523e+2, 2.5383195e+2, -531555.75, -579725.2, -18871.148, -0.00791218, -0.11644786, -525043.2, -72607.22, 0.0000000000000000000017017642, 9.9978895, 9.991515 
4.9495706e+2, 2.638228e+2, -443124.6, -502279.44, -16805.44, -0.007981835, -0.11571375, -438683.7, -84157.84, 0.000000000000000000000059654236, 9.997914, 9.990091 
4.9496943e+2, 2.738129e+2, -351016.3, -407968.06, -17538.752, 0.02801808, -0.107005894, -346048.44, -89425.336, 0.0, 9.997542, 9.99001 
4.949822e+2, 2.8380236e+2, -263774.47, -329561.88, -12275.5, 0.039907157, -0.09625044, -261558.58, -102832.12, 0.0, 9.997418, 9.98872 
4.9499527e+2, 2.937911e+2, -162398.97, -229935.17, -10828.097, 0.015066661, -0.09728864, -160705.36, -99868.89, 0.0, 9.997645, 9.988712 
4.950098e+2, 3.0378258e+2, -66785.56, -82636.63, -1655.6761, 0.017074725, -0.15110102, -66614.47, -66614.47, 0.0, 9.997575, 9.995475 
4.9502596e+2, 3.1377864e+2, -74933.95, -84043.23, -3107.4155, 0.06532279, -0.10561604, -73974.9, -73974.9, 0.0, 9.996905, 9.995701 
5.0478876e+2, 1.23883165e+2, -1717469.1, -1717775.0, 679.38916, -0.043235242, -0.14439823, -1716925.6, 9006.969, 0.020533854, 9.999896, 9.999859 
5.048045e+2, 1.3388163e+2, -1639406.8, -1650263.6, 3464.703, -0.013863033, -0.11259882, -1638395.3, -10447.515, 0.013628187, 9.999435, 9.997999 
5.048187e+2, 1.4387894e+2, -1548912.0, -1561029.9, -5615.469, -0.03971528, -0.15142836, -1546709.9, -16735.71, 0.0075791995, 9.99915, 9.99754 
5.04832e+2, 1.5387692e+2, -1450916.0, -1462480.5, -8087.1387, -0.0147095, -0.11655674, -1446756.6, -14762.386, 0.0033562193, 9.999125, 9.997588 
5.048446e+2, 1.638739e+2, -1363688.0, -1385693.1, -14393.36, -0.007841939, -0.103157, -1356573.6, -22549.824, 0.0011366707, 9.999086, 9.99616 
5.048563e+2, 1.738699e+2, -1266634.5, -1288539.0, -15411.633, -0.028570613, -0.12163859, -1258679.9, -22617.004, 0.00028802847, 9.999037, 9.996123 
5.048676e+2, 1.8386509e+2, -1179446.3, -1215043.6, -19273.822, -0.03476985, -0.12818022, -1171010.0, -32900.066, 0.000054231128, 9.999128, 9.99441 
5.0487876e+2, 1.9385956e+2, -1076947.0, -1115664.5, -20027.834, -0.01888797, -0.119454294, -1068451.1, -28286.469, 0.0000075890043, 9.999465, 9.994337 
5.048897e+2, 2.0385349e+2, -987255.8, -1031184.1, -21190.709, -0.008333323, -0.11488016, -978700.0, -36475.535, 0.00000079091893, 9.999305, 9.99349 
5.0490063e+2, 2.1384698e+2, -902198.2, -939174.4, -21324.7, -0.0055832397, -0.11866665, -892463.0, -48175.18, 0.00000006148999, 9.998404, 9.993515 
5.049112e+2, 2.2383977e+2, -821550.5, -866830.9, -25248.803, 0.0012676939, -0.11611617, -810277.9, -63919.3, 0.0000000035684378, 9.997963, 9.991973 
5.0492126e+2, 2.338318e+2, -719271.06, -767674.8, -26742.36, 0.013792114, -0.10559586, -707405.1, -58967.855, 0.000000000106599, 9.998288, 9.991889 
5.049318e+2, 2.4382348e+2, -624828.44, -675182.8, -22802.701, 0.0142292995, -0.104261555, -616037.2, -65518.46, 0.0000000000037690797, 9.9982, 9.991549 
5.0494295e+2, 2.5381494e+2, -536748.94, -581441.5, -22707.828, -0.0043839687, -0.1217592, -527236.1, -74634.13, 0.000000000000000000049289046, 9.997493, 9.991592 
5.049545e+2, 2.6380575e+2, -457148.78, -507832.16, -21298.602, -0.002944714, -0.130586, -449387.13, -94695.5, 0.0000000000000000000017269324, 9.996898, 9.990205 
5.0496644e+2, 2.73796e+2, -365516.63, -413808.38, -20035.21, 0.029844545, -0.124223396, -358286.8, -101498.72, 0.0, 9.996494, 9.990119 
5.049791e+2, 2.8378573e+2, -276764.13, -332396.7, -11359.029, 0.040569786, -0.1055463, -274534.22, -115645.586, 0.0, 9.996372, 9.989036 
5.049925e+2, 2.9377493e+2, -174564.11, -232351.58, -10040.928, 0.017509583, -0.08996513, -172869.16, -111875.375, 0.0, 9.996652, 9.989032 
5.05007e+2, 3.0376616e+2, -78403.94, -90762.016, -2795.176, 0.019067371, -0.17778505, -77801.125, -77801.125, 0.0, 9.996876, 9.995262 
5.050229e+2, 3.1376225e+2, -76880.28, -86310.586, -4358.0845, 0.06917681, -0.10457356, -75174.72, -75174.72, 0.0, 9.996817, 9.995597 
5.1478845e+2, 1.2386907e+2, -1718187.9, -1718442.6, -1457.3445, -0.06840049, -0.12329738, -1716852.4, 9218.194, 0.027554031, 9.999872, 9.999824 
5.14804e+2, 1.3386735e+2, -1640212.3, -1651032.8, 1479.7402, -0.005303689, -0.10616337, -1640013.5, -11926.406, 0.018419899, 9.999405, 9.997958 
5.1481795e+2, 1.4386429e+2, -1553001.9, -1568558.3, -6021.808, -0.024290934, -0.15801251, -1550943.3, -20826.158, 0.010340942, 9.999119, 9.997042 
5.1483095e+2, 1.538616e+2, -1455284.5, -1470939.4, -8322.688, -0.03876824, -0.13400567, -1451686.8, -19543.133, 0.0046347342, 9.999108, 9.997017 
5.1484346e+2, 1.6385809e+2, -1365688.4, -1389541.5, -14759.806, -0.03591303, -0.12618276, -1358638.8, -24460.658, 0.0015935765, 9.999082, 9.995898 
5.148555e+2, 1.7385389e+2, -1268168.9, -1291775.4, -15735.501, -0.0059694014, -0.14204194, -1260301.8, -24082.463, 0.00041132476, 9.999045, 9.995896 
5.148671e+2, 1.8384896e+2, -1180597.3, -1217739.6, -18258.201, 0.0055944724, -0.1385981, -1173125.1, -34857.508, 0.00007915646, 9.999146, 9.994215 
5.148783e+2, 1.9384344e+2, -1077929.6, -1118269.1, -18740.846, -0.0115359, -0.108628325, -1070566.9, -30244.545, 0.0000113579035, 9.9994955, 9.994142 
5.14889e+2, 2.0383722e+2, -987724.1, -1032682.06, -24183.729, -0.015760824, -0.10332008, -977185.6, -34802.16, 0.0000012170423, 9.999332, 9.993374 
5.1489913e+2, 2.138303e+2, -902785.0, -940701.0, -24806.57, 0.00014051229, -0.13827439, -890521.6, -46071.133, 0.000000097492624, 9.998424, 9.9934 
5.149092e+2, 2.2382279e+2, -823560.0, -871107.3, -24544.365, 0.006024681, -0.14747147, -813163.3, -66639.11, 0.0000000058393703, 9.997972, 9.991676 
5.149194e+2, 2.3381467e+2, -721410.25, -772373.0, -25340.262, -0.0036918684, -0.11681133, -710955.1, -62350.64, 0.00000000019837329, 9.998302, 9.991559 
5.1492983e+2, 2.4380626e+2, -625800.1, -677439.94, -25054.559, -0.0013542232, -0.101236366, -615642.3, -64955.086, 0.000000000007134189, 9.998215, 9.991386 
5.1494074e+2, 2.537976e+2, -537765.25, -583585.2, -25403.02, 0.020223241, -0.11650109, -526467.3, -73695.81, 0.000000000000000013828485, 9.997498, 9.991444 
5.1495177e+2, 2.637884e+2, -454774.06, -502922.28, -23002.54, 0.03263138, -0.13566336, -445551.3, -90690.05, 0.0000000000000000008730735, 9.996902, 9.990536 
5.14963e+2, 2.737787e+2, -362863.94, -408256.78, -21603.816, 0.030272022, -0.15377481, -354225.84, -97269.67, 0.000000000000000000039538807, 9.996493, 9.990499 
5.1497537e+2, 2.8376892e+2, -274703.38, -328166.1, -10742.031, 0.027728673, -0.12502195, -272625.78, -113573.55, 0.0000000000000000000014097545, 9.996376, 9.989322 
5.149892e+2, 2.937589e+2, -172872.8, -228928.31, -9143.984, 0.024485426, -0.056332316, -171418.9, -110268.7, 0.0, 9.996658, 9.989261 
5.15004e+2, 3.0374983e+2, -79639.88, -93585.07, -2966.421, 0.023659984, -0.1807594, -79035.09, -79035.09, 0.0, 9.996896, 9.995053 
5.150195e+2, 3.1374568e+2, -76135.82, -85385.88, -5057.0625, 0.04478381, -0.10089922, -73907.766, -73907.766, 0.0, 9.996859, 9.995633 
5.2478826e+2, 1.2385402e+2, -1721406.8, -1721253.9, -6724.0, -0.063856, -0.12967694, -1714605.9, 11611.687, 0.036176804, 9.999698, 9.9997225 
5.248035e+2, 1.3385227e+2, -1637167.1, -1651047.8, -4603.805, -0.0070958687, -0.10363257, -1635779.0, -7544.461, 0.024365017, 9.99967, 9.99783 
5.2481735e+2, 1.4384907e+2, -1545587.4, -1566449.9, -10405.254, -0.026442612, -0.1547543, -1541285.0, -11019.116, 0.013811107, 9.999686, 9.996908 
5.2483034e+2, 1.5384617e+2, -1447124.6, -1468497.3, -9441.001, -0.04097254, -0.13949455, -1443551.5, -11257.175, 0.0062664114, 9.999727, 9.996883 
5.2484286e+2, 1.6384245e+2, -1357454.9, -1388442.0, -14128.165, -0.037384424, -0.13412878, -1351980.4, -17649.438, 0.002187711, 9.999762, 9.9956455 
5.248549e+2, 1.7383805e+2, -1259248.8, -1290584.8, -15585.081, -0.005835649, -0.14278518, -1252817.4, -16443.217, 0.0005752219, 9.999782, 9.995624 
5.248666e+2, 1.8383293e+2, -1173127.8, -1215868.1, -17874.982, 0.0073056454, -0.13756149, -1166637.6, -28213.049, 0.00011314291, 9.999729, 9.994061 
5.2487785e+2, 1.9382721e+2, -1077345.0, -1119582.5, -17953.225, -0.008206485, -0.11413261, -1070745.1, -30264.242, 0.000016648359, 9.999599, 9.994004 
5.248884e+2, 2.0382068e+2, -990146.94, -1038779.1, -26764.47, -0.013140677, -0.1114823, -978302.1, -35757.25, 0.0000018353236, 9.999376, 9.99294 
5.248978e+2, 2.1381333e+2, -896697.6, -943116.3, -30516.723, -0.0015018034, -0.1431982, -881567.1, -36950.758, 0.00000015174481, 9.999063, 9.992929 
5.249075e+2, 2.238055e+2, -811635.94, -866404.6, -28688.033, 0.0027406425, -0.15271175, -799360.44, -52667.426, 0.000000009413484, 9.998821, 9.991589 
5.249179e+2, 2.337973e+2, -715022.94, -769837.0, -27067.201, -0.003922387, -0.12710236, -703910.1, -55136.113, 0.0000000003572173, 9.998752, 9.991521 
5.249281e+2, 2.4378876e+2, -627209.6, -681599.0, -29607.57, 0.0020609566, -0.1102011, -614202.8, -63344.8, 0.000000000013245786, 9.998258, 9.991088 
5.249381e+2, 2.5377983e+2, -545028.5, -591017.2, -31901.488, 0.027455598, -0.11647513, -528698.0, -75753.055, 0.00000000000000038532895, 9.997161, 9.991105 
5.249485e+2, 2.637705e+2, -459869.4, -504056.22, -28534.877, 0.036378417, -0.13962995, -445874.63, -90838.43, 0.000000000000000024719012, 9.996481, 9.990669 
5.249593e+2, 2.7376077e+2, -361282.28, -405793.66, -28471.773, 0.018757194, -0.17668149, -347399.94, -90268.89, 0.0000000000000000011415998, 9.996512, 9.990665 
5.249715e+2, 2.837512e+2, -277469.5, -328982.94, -19908.76, 0.0154346125, -0.13990079, -270672.16, -111447.13, 0.000000000000000000040680988, 9.996155, 9.989374 
5.249852e+2, 2.9374158e+2, -195564.73, -239935.84, -20160.809, 0.033665437, -0.034349162, -187772.67, -126453.164, 0.0, 9.995098, 9.989261 
5.2500004e+2, 3.0373213e+2, -104787.05, -102684.9, -9938.555, 0.033167742, -0.20409742, -93741.99, -93741.99, 0.0, 9.995035, 9.995323 
5.2501595e+2, 3.1372845e+2, -79129.0, -77722.016, -7572.7495, 0.03377353, -0.11104586, -70820.15, -70820.15, 0.0, 9.996255, 9.996448 
5.3478825e+2, 1.2383811e+2, -1724407.0, -1725177.0, -7705.634, -0.028990293, -0.1642098, -1717076.8, 9295.881, 0.046640746, 9.999613, 9.999493 
5.3480303e+2, 1.3383645e+2, -1639865.0, -1655159.8, -5175.6836, -0.020818077, -0.1056164, -1638278.3, -9888.814, 0.031651113, 9.999616, 9.997574 
5.348168e+2, 1.4383335e+2, -1544150.8, -1562712.8, -10660.285, -0.048839584, -0.1415058, -1539297.4, -8877.526, 0.018118156, 9.99966, 9.99717 
5.348303e+2, 1.5383074e+2, -1444988.0, -1463751.1, -9570.24, -0.021642203, -0.1323999, -1440968.0, -8522.31, 0.008324205, 9.999719, 9.997207 
5.348429e+2, 1.6382708e+2, -1359330.3, -1392302.5, -14218.808, -0.01212969, -0.1257807, -1354045.6, -19563.934, 0.002952043, 9.999769, 9.995376 
5.348545e+2, 1.7382245e+2, -1261604.8, -1295643.9, -15697.405, -0.030686207, -0.12259716, -1255471.0, -18943.973, 0.0007912693, 9.999798, 9.995268 
5.348659e+2, 1.8381698e+2, -1173654.6, -1217361.6, -18542.148, -0.03369114, -0.1247202, -1166848.3, -28267.818, 0.00015928308, 9.999753, 9.993945 
5.348774e+2, 1.9381084e+2, -1077644.5, -1120706.0, -18604.246, -0.011959539, -0.13769542, -1070720.3, -30079.568, 0.000024088196, 9.999629, 9.99391 
5.348878e+2, 2.0380384e+2, -995215.9, -1049766.1, -27928.148, -0.002898897, -0.14149408, -983453.7, -40744.57, 0.0000027417914, 9.999405, 9.992176 
5.348968e+2, 2.1379603e+2, -902211.56, -955315.94, -31705.145, -0.013872182, -0.1339233, -887408.75, -42623.098, 0.00000023528612, 9.999106, 9.992073 
5.3490627e+2, 2.2378789e+2, -810528.44, -864716.6, -29180.838, -0.011538938, -0.13118061, -797802.8, -50937.28, 0.000000015275191, 9.99885, 9.99169 
5.349168e+2, 2.3377962e+2, -713179.0, -766350.2, -27355.559, 0.012101746, -0.13554883, -701618.5, -52671.945, 0.0000000006807504, 9.998769, 9.991749 
5.349266e+2, 2.4377087e+2, -630288.9, -688026.8, -33378.754, 0.024001818, -0.13118848, -615026.7, -63994.598, 0.000000000056582492, 9.998263, 9.990646 
5.349352e+2, 2.5376156e+2, -548911.7, -598942.1, -36056.684, 0.016309422, -0.12217336, -530042.44, -76919.27, 0.000000000026362471, 9.997159, 9.990564 
5.349447e+2, 2.637519e+2, -460801.97, -505927.63, -29020.344, 0.0060728947, -0.14229703, -446605.28, -91387.58, 0.000000000020668576, 9.99648, 9.990541 
5.349556e+2, 2.7374196e+2, -361885.72, -407138.4, -28441.232, -0.0064559854, -0.19261196, -348168.47, -90853.87, 0.000000000014003383, 9.996517, 9.990571 
5.3496754e+2, 2.8373232e+2, -278622.38, -331539.16, -23640.244, 0.0024528627, -0.1510659, -269599.7, -110190.516, 0.000000000007715435, 9.996164, 9.989196 
5.3498036e+2, 2.937227e+2, -197106.78, -243280.42, -24372.813, 0.04349075, -0.024759332, -186622.25, -125118.38, 0.0000000000033919445, 9.995108, 9.989027 
5.3499526e+2, 3.037129e+2, -99430.086, -91671.484, -6379.394, 0.04651996, -0.24731022, -88084.484, -88084.484, 0.0000000000012133904, 9.995048, 9.996067 
5.350122e+2, 3.1371063e+2, -67720.72, -54038.668, -3419.8508, 0.034283202, -0.102195516, -53231.492, -53231.492, 0.00000000000036743045, 9.996263, 9.998062 
5.4478806e+2, 1.2382315e+2, -1719701.3, -1723487.6, -1365.9691, -0.02669445, -0.17442057, -1719260.0, 7258.7524, 0.05923043, 9.9999695, 9.999437 
5.448027e+2, 1.338214e+2, -1635429.8, -1654055.0, 2699.6218, -0.027656255, -0.11812303, -1635046.4, -6509.9297, 0.04050611, 9.99996, 9.997485 
5.448166e+2, 1.4381818e+2, -1539150.0, -1562082.4, -3164.584, -0.052876536, -0.15250145, -1538721.3, -8153.2183, 0.023422668, 10.000071, 9.99702 
5.4483026e+2, 1.5381551e+2, -1437339.4, -1462028.6, -5929.6265, -0.019676598, -0.13452514, -1435989.1, -3394.4988, 0.010902844, 10.0003195, 9.997035 
5.44843e+2, 1.6381165e+2, -1350515.0, -1390913.5, -13172.91, -0.010019958, -0.12386136, -1346599.1, -11966.834, 0.003931351, 10.000489, 9.995122 
5.4485464e+2, 1.7380674e+2, -1252361.0, -1294223.3, -14187.137, -0.037928917, -0.123927824, -1248006.0, -11325.495, 0.0010759311, 10.000558, 9.994996 
5.4486597e+2, 1.8380095e+2, -1165147.9, -1216756.1, -18164.719, -0.042291496, -0.13092317, -1159395.5, -20658.3, 0.00022220635, 10.000479, 9.993637 
5.4487747e+2, 1.9379441e+2, -1071120.4, -1121205.9, -20220.758, -0.009478212, -0.15077664, -1063975.9, -23175.012, 0.000034663008, 10.000225, 9.99359 
5.4488766e+2, 2.0378707e+2, -987456.3, -1050456.3, -28902.994, 0.0024986062, -0.15296295, -976205.44, -33332.707, 0.000004095229, 10.000117, 9.991787 
5.448964e+2, 2.1377903e+2, -887285.1, -952646.4, -29284.74, -0.01824399, -0.1308063, -876083.9, -31131.871, 0.00000036842087, 10.000312, 9.991677 
5.449056e+2, 2.2377053e+2, -796072.94, -861850.44, -28032.234, -0.017420698, -0.12652838, -785747.4, -38711.92, 0.000000026350442, 10.000006, 9.991331 
5.449158e+2, 2.3376171e+2, -711754.6, -769719.1, -30825.08, 0.017664904, -0.14928187, -698426.6, -49305.285, 0.0000000022684443, 9.99903, 9.991399 
5.449249e+2, 2.4375258e+2, -633102.8, -693677.3, -39860.97, 0.031269554, -0.1493825, -613327.94, -62117.285, 0.0000000009503938, 9.998244, 9.990277 
5.449326e+2, 2.5374305e+2, -540660.8, -599309.7, -41507.715, 0.009625328, -0.12476724, -519163.88, -65859.61, 0.0000000007526009, 9.997895, 9.990193 
5.449415e+2, 2.6373303e+2, -452293.22, -505989.66, -33811.46, -0.0030022927, -0.14102864, -435966.88, -80564.81, 0.000000000592202, 9.997234, 9.990177 
5.4495203e+2, 2.7372262e+2, -369752.0, -415199.38, -35253.965, 0.0014855284, -0.20339955, -350532.78, -93028.94, 0.00000000040219253, 9.996163, 9.99019 
5.4496336e+2, 2.8371292e+2, -290568.94, -334569.0, -31464.281, 0.016090265, -0.1581724, -274176.25, -114577.54, 0.00000000022185906, 9.995221, 9.989448 
5.4497516e+2, 2.9370376e+2, -203944.33, -243379.38, -28388.174, 0.042777974, -0.013876872, -189097.88, -127409.38, 0.00000000009757777, 9.994487, 9.989329 
5.4498965e+2, 3.0369356e+2, -114115.11, -99478.44, -6256.355, 0.034907103, -0.2909026, -97168.69, -97168.69, 0.000000000034918513, 9.994039, 9.996035 
5.450072e+2, 3.1369168e+2, -98776.24, -59180.21, -10510.772, 0.038175855, -0.10810608, -56563.105, -56563.105, 0.000000000010577204, 9.993668, 9.998979 
5.5478764e+2, 1.2380945e+2, -1720713.0, -1723104.4, -2153.758, -0.06419611, -0.15870494, -1719445.3, 7207.292, 0.07429232, 9.999871, 9.999513 
5.5480266e+2, 1.3380738e+2, -1636058.5, -1653669.4, 2332.874, -0.028457614, -0.14105521, -1635754.8, -7081.6553, 0.051209517, 9.999894, 9.9975395 
5.5481684e+2, 1.4380378e+2, -1544441.6, -1571807.1, -2545.56, -0.038071085, -0.18861721, -1544206.9, -13498.468, 0.02992419, 10.000029, 9.996374 
5.5483043e+2, 1.538006e+2, -1442945.1, -1472948.5, -5300.1987, -0.037741292, -0.14638256, -1442036.3, -9296.525, 0.014122312, 10.0003, 9.996298 
5.5484325e+2, 1.637963e+2, -1352265.6, -1394499.6, -13191.473, -0.03463026, -0.12882039, -1348483.9, -13701.764, 0.0051837335, 10.000497, 9.99487 
5.548553e+2, 1.7379102e+2, -1253493.6, -1296855.9, -14196.668, -0.028406888, -0.14821787, -1249259.1, -12425.194, 0.0014511807, 10.000579, 9.994803 
5.548667e+2, 1.8378486e+2, -1168517.8, -1224195.5, -19212.9, -0.018342942, -0.1570205, -1162531.5, -23637.086, 0.00030831216, 10.000507, 9.9931135 
5.5487776e+2, 1.93778e+2, -1074775.4, -1129357.1, -21362.793, -0.0018630835, -0.15231565, -1067408.5, -26447.098, 0.00004982198, 10.000259, 9.993015 
5.548878e+2, 2.0377043e+2, -987159.2, -1050440.9, -28481.764, 0.0016958554, -0.14404595, -976228.25, -33192.637, 0.000006177, 10.000147, 9.991772 
5.548968e+2, 2.1376233e+2, -886346.7, -951472.8, -28584.404, -0.015541794, -0.13370767, -875580.5, -30465.268, 0.00000062128834, 10.00035, 9.991735 
5.5490565e+2, 2.2375338e+2, -801579.25, -873939.6, -31305.992, -0.016091218, -0.13969032, -789915.2, -42712.184, 0.00000007832182, 10.000041, 9.99049 
5.549147e+2, 2.3374353e+2, -718290.3, -783702.9, -34575.99, 0.010158013, -0.16946395, -703402.44, -54103.62, 0.000000032547486, 9.999057, 9.99043 
5.549231e+2, 2.4373375e+2, -635331.5, -698408.5, -41501.906, 0.020478843, -0.16583636, -614744.3, -63349.73, 0.000000026500803, 9.998252, 9.989951 
5.549305e+2, 2.5372413e+2, -542229.06, -602765.8, -42789.703, 0.0049839313, -0.12326909, -520084.3, -66595.16, 0.000000023404008, 9.997907, 9.98995 
5.549388e+2, 2.637138e+2, -456458.5, -514836.8, -37782.754, 0.007456014, -0.13610509, -437903.1, -82312.49, 0.00000001948073, 9.997244, 9.989571 
5.549486e+2, 2.7370256e+2, -374461.4, -424872.3, -39438.85, 0.040805854, -0.20984869, -352861.53, -95161.42, 0.0000000139651215, 9.996156, 9.989536 
5.54959e+2, 2.836929e+2, -285928.53, -324975.63, -34566.652, 0.054465704, -0.15954907, -265752.94, -105958.17, 0.000000008194207, 9.995227, 9.990099 
5.5496955e+2, 2.9368466e+2, -198540.66, -232169.42, -31202.982, 0.029084735, -0.00050478417, -179910.02, -118035.02, 0.000000003918968, 9.994492, 9.990092 
5.5498326e+2, 3.0367386e+2, -120776.15, -113233.49, -7947.289, -0.0037086795, -0.33484584, -108208.1, -108208.1, 0.0000000015882468, 9.994045, 9.995084 
5.550009e+2, 3.1367138e+2, -98060.11, -57639.656, -12618.041, 0.04304363, -0.10055604, -54024.094, -54024.094, 0.00000000057982985, 9.993682, 9.999069 
5.647877e+2, 1.23794965e+2, -1717477.4, -1722482.6, -5158.3667, -0.060243282, -0.15649147, -1714246.6, 12547.991, 0.092263974, 10.000164, 9.999424 
5.6480265e+2, 1.3379285e+2, -1630038.9, -1652262.3, -2266.0337, -0.037162304, -0.13062903, -1629810.3, -994.9041, 0.06411256, 10.000364, 9.997407 
5.64817e+2, 1.4378911e+2, -1537870.1, -1569877.4, -6029.099, -0.044168808, -0.1808699, -1536772.1, -5920.033, 0.03787312, 10.000526, 9.996264 
5.648309e+2, 1.5378566e+2, -1439476.9, -1472660.1, -4265.8394, -0.0346362, -0.1558846, -1438937.3, -6051.3623, 0.018133994, 10.000596, 9.996174 
5.6484395e+2, 1.6378114e+2, -1350087.5, -1395006.3, -9506.129, -0.028133312, -0.14486209, -1348158.5, -13228.418, 0.006783837, 10.00071, 9.994735 
5.64856e+2, 1.7377584e+2, -1250372.9, -1297064.8, -10374.656, -0.027369477, -0.1542885, -1248171.5, -11189.154, 0.0019464984, 10.000864, 9.994653 
5.6486744e+2, 1.8376946e+2, -1163222.1, -1225113.8, -15015.511, -0.02036168, -0.1577386, -1159771.6, -20727.002, 0.0004271561, 10.001021, 9.992803 
5.6487846e+2, 1.9376229e+2, -1062625.3, -1127284.1, -15598.901, -0.003157923, -0.15491264, -1059058.8, -17943.646, 0.00007247014, 10.001255, 9.992675 
5.6488854e+2, 2.0375432e+2, -972944.0, -1047823.6, -23030.31, 0.0024183958, -0.14776535, -966427.75, -23234.613, 0.00001011873, 10.001303, 9.99139 
5.6489766e+2, 2.1374586e+2, -877238.6, -951413.06, -26529.623, -0.010860088, -0.13674705, -868726.7, -23450.383, 0.0000016682819, 10.001159, 9.991349 
5.649061e+2, 2.237364e+2, -794874.4, -877294.7, -33116.664, -0.011976385, -0.14315403, -783216.9, -35848.06, 0.00000068047075, 10.000774, 9.989911 
5.6491435e+2, 2.3372597e+2, -705408.94, -784423.8, -34220.47, 0.0066826763, -0.17522201, -692649.0, -43178.227, 0.00000051454026, 10.000225, 9.989824 
5.649219e+2, 2.4371563e+2, -620346.9, -697910.4, -39702.81, 0.016146619, -0.16775991, -603627.9, -52055.773, 0.00000045081197, 9.999552, 9.989366 
5.6492895e+2, 2.5370553e+2, -531240.75, -604097.1, -43382.54, 0.009701321, -0.11330729, -511020.4, -57349.1, 0.0000004053339, 9.99893, 9.989374 
5.649364e+2, 2.636947e+2, -452060.72, -516957.66, -42574.684, 0.018381549, -0.13067204, -430978.78, -75201.08, 0.0000003419105, 9.997702, 9.989221 
5.649446e+2, 2.736829e+2, -382820.94, -432907.22, -42165.035, 0.05401945, -0.229206, -358822.78, -100929.76, 0.0000002484929, 9.995727, 9.989214 
5.6495374e+2, 2.8367323e+2, -301399.8, -330197.84, -35235.434, 0.066119336, -0.1711604, -277734.8, -117747.586, 0.00000014828878, 9.994033, 9.990341 
5.649632e+2, 2.9366568e+2, -220632.23, -240626.2, -35432.543, 0.031613577, 0.030705014, -193813.39, -131752.55, 0.00000007256716, 9.992856, 9.990318 
5.6497633e+2, 3.0365425e+2, -151523.83, -133624.44, -11063.531, -0.010588381, -0.35182407, -128343.93, -128343.93, 0.000000030344594, 9.992186, 9.994577 
5.649938e+2, 3.136513e+2, -120380.11, -57062.813, -11390.229, 0.058172986, -0.11627551, -55076.145, -55076.145, 0.000000011523883, 9.991665, 10.000081 
5.7478833e+2, 1.23779915e+2, -1721591.0, -1727767.5, -5803.72, -0.01393657, -0.16716528, -1718105.0, 8837.627, 0.11375034, 10.000033, 9.999114 
5.7480294e+2, 1.3377802e+2, -1634039.5, -1658082.4, -2287.1582, -0.054528143, -0.08517561, -1633823.9, -4862.362, 0.07970573, 10.00027, 9.997053 
5.7481724e+2, 1.4377433e+2, -1535734.0, -1564026.3, -6431.984, -0.073829725, -0.12654677, -1534340.4, -3342.9104, 0.047626015, 10.000472, 9.996683 
5.748317e+2, 1.5377082e+2, -1436401.1, -1465496.4, -4567.6836, -0.011188597, -0.16221407, -1435701.0, -2669.6946, 0.023162143, 10.000568, 9.99667 
5.74845e+2, 1.6376632e+2, -1350575.8, -1395698.5, -9391.138, 0.009934691, -0.17181738, -1348699.3, -13624.393, 0.008851692, 10.000708, 9.994682 
5.7485676e+2, 1.7376131e+2, -1251217.3, -1298812.3, -10173.567, -0.036074545, -0.14072827, -1249133.9, -12009.391, 0.0026182737, 10.000875, 9.994521 
5.7486814e+2, 1.8375494e+2, -1163793.4, -1226667.3, -14532.225, -0.051333215, -0.13146275, -1160597.0, -21409.89, 0.0006047503, 10.001045, 9.992681 
5.7487965e+2, 1.9374733e+2, -1063055.4, -1129021.6, -14931.597, -0.016604727, -0.15956007, -1059833.0, -18571.574, 0.00011659846, 10.0013, 9.99253 
5.7488984e+2, 2.037388e+2, -977660.75, -1058479.1, -23584.393, 0.001907293, -0.16588064, -971281.8, -27936.936, 0.000025300775, 10.001349, 9.99064 
5.748988e+2, 2.1372965e+2, -882648.6, -963539.1, -27191.807, -0.007222087, -0.14096451, -874357.7, -28922.766, 0.000010711965, 10.001207, 9.990496 
5.7490695e+2, 2.2371967e+2, -796791.25, -882031.8, -35183.32, -0.008551663, -0.13699017, -784145.3, -36612.387, 0.000007710899, 10.000812, 9.98957 
5.7491463e+2, 2.3370898e+2, -706887.4, -787961.3, -36336.082, 0.0049715, -0.16542482, -692985.8, -43348.66, 0.0000064901624, 10.000252, 9.989568 
5.749215e+2, 2.4369815e+2, -626639.94, -710920.9, -42135.582, 0.016978452, -0.15421398, -609188.25, -57444.887, 0.0000058293726, 9.999551, 9.988481 
5.7492805e+2, 2.5368714e+2, -538002.7, -618223.2, -45765.797, 0.022489961, -0.095410846, -517257.84, -63406.33, 0.0000053234917, 9.998937, 9.988407 
5.749342e+2, 2.6367557e+2, -452924.63, -519045.16, -49717.83, 0.027322983, -0.12505454, -426278.6, -70313.766, 0.0000045537895, 9.997718, 9.989072 
5.7494026e+2, 2.7366334e+2, -382874.6, -433318.9, -49890.516, 0.037714615, -0.26119512, -352193.1, -94108.76, 0.0000033636004, 9.995748, 9.989175 
5.749476e+2, 2.8365368e+2, -303053.56, -333491.53, -40518.46, 0.047872704, -0.19518203, -274990.2, -114811.58, 0.0000020513505, 9.994021, 9.990127 
5.7495624e+2, 2.9364654e+2, -223020.47, -245569.95, -39871.168, 0.04720182, 0.07725447, -192860.56, -130611.625, 0.0000010347966, 9.992853, 9.9899845 
5.7496876e+2, 3.0363452e+2, -151826.47, -133892.03, -13290.467, 0.011831739, -0.3410172, -126826.55, -126826.55, 0.0000004507095, 9.992178, 9.99456 
5.749857e+2, 3.136315e+2, -107322.266, -28725.76, -13713.882, 0.08013958, -0.12569112, -26401.623, -26401.623, 0.00000017995232, 9.991625, 10.002039 
5.8478844e+2, 1.23765014e+2, -1715084.9, -1723312.8, -3612.5452, -0.020280018, -0.15762924, -1713723.9, 13364.902, 0.13972625, 10.000493, 9.999219 
5.8480316e+2, 1.3376303e+2, -1632101.8, -1656588.8, 2863.2195, -0.057480514, -0.093507886, -1631771.5, -2663.183, 0.09881971, 10.000373, 9.9971075 
5.8481777e+2, 1.4375937e+2, -1535118.4, -1561910.6, -382.33444, -0.06697466, -0.14029232, -1535112.9, -3969.1526, 0.059835408, 10.000435, 9.996846 
5.848324e+2, 1.5375616e+2, -1433938.9, -1462327.1, -1264.1174, 0.00028951676, -0.16356316, -1433882.8, -708.2198, 0.029671373, 10.00065, 9.996845 
5.8484596e+2, 1.6375174e+2, -1348106.4, -1396342.4, -7299.766, 0.018831491, -0.16896184, -1347025.9, -11808.289, 0.0116900485, 10.000955, 9.994519 
5.848579e+2, 1.7374644e+2, -1243768.1, -1297817.5, -9040.036, -0.04311851, -0.14517456, -1242296.1, -5026.1353, 0.0036569827, 10.001495, 9.994288 
5.848695e+2, 1.8373989e+2, -1151876.5, -1221650.0, -14425.555, -0.064822584, -0.13677397, -1149011.8, -9677.36, 0.00096667313, 10.001886, 9.992616 
5.848813e+2, 1.9373234e+2, -1052074.3, -1124431.4, -14635.874, -0.020427799, -0.15525946, -1049226.0, -7817.8022, 0.00027356547, 10.002079, 9.992465 
5.848916e+2, 2.0372362e+2, -968998.25, -1058437.0, -22987.064, 0.005048234, -0.15887006, -963436.1, -19942.734, 0.00012395605, 10.0021105, 9.990278 
5.849005e+2, 2.1371399e+2, -873946.1, -964074.06, -23726.18, -0.0018462436, -0.1426761, -868081.8, -22493.764, 0.0000874046, 10.001999, 9.990081 
5.8490825e+2, 2.2370341e+2, -787169.3, -884776.25, -31854.158, -0.0037012459, -0.14214773, -777693.6, -30001.857, 0.00007179994, 10.001791, 9.98891 
5.849155e+2, 2.3369215e+2, -691285.9, -787898.7, -36365.77, 0.005719901, -0.16407417, -679127.56, -29325.635, 0.000062611194, 10.001639, 9.988902 
5.849218e+2, 2.4368067e+2, -609606.06, -709723.5, -44696.16, 0.016814006, -0.15214555, -592555.75, -40641.215, 0.000057331577, 10.001004, 9.987868 
5.849275e+2, 2.5366896e+2, -526535.2, -619311.06, -45594.844, 0.02618001, -0.10507616, -507879.06, -53849.746, 0.00005309397, 9.999987, 9.987838 
5.8493227e+2, 2.636568e+2, -446835.72, -523109.38, -53250.2, 0.029149003, -0.1378793, -419474.47, -63325.863, 0.000046019173, 9.99841, 9.988478 
5.8493626e+2, 2.7364406e+2, -376006.4, -436632.63, -57923.9, 0.029618898, -0.26039702, -340943.22, -82670.164, 0.000034562967, 9.996479, 9.988611 
5.8494157e+2, 2.836343e+2, -301174.75, -332980.88, -50336.42, 0.04011175, -0.17869766, -264288.97, -103920.21, 0.000021582404, 9.994158, 9.990106 
5.849485e+2, 2.9362723e+2, -243182.61, -255958.1, -46919.113, 0.05312727, 0.1025918, -202218.4, -139779.84, 0.000011247286, 9.991482, 9.98995 
5.849596e+2, 3.0361465e+2, -192245.94, -157126.42, -16831.06, 0.010241027, -0.352194, -150362.75, -150362.75, 0.0000051050256, 9.98954, 9.994257 
5.849756e+2, 3.1361163e+2, -144986.94, -25970.885, -20262.756, 0.08223804, -0.114059255, -22615.69, -22615.69, 0.0000021350806, 9.988114, 10.003935 
5.947883e+2, 1.2375069e+2, -1715025.8, -1718921.9, -4885.7827, -0.08616343, -0.12735799, -1711714.0, 15514.616, 0.17203014, 10.000322, 9.99967 
5.9480363e+2, 1.3374822e+2, -1630677.5, -1651189.0, 1342.8885, -0.047357727, -0.15773886, -1630589.9, -1337.9661, 0.12317591, 10.000276, 9.997517 
5.948186e+2, 1.437445e+2, -1536998.3, -1564218.4, -579.1509, -0.023190515, -0.22560278, -1536986.0, -5697.879, 0.07603266, 10.0003805, 9.996708 
5.948331e+2, 1.5374196e+2, -1436030.9, -1465280.6, -1393.7272, -0.0024473146, -0.16107652, -1435964.6, -2651.5212, 0.038940538, 10.000605, 9.99666 
5.9484667e+2, 1.6373761e+2, -1350833.0, -1401282.3, -6198.3564, -0.0058978857, -0.13488622, -1350082.6, -14726.654, 0.016308887, 10.000936, 9.994186 
5.948593e+2, 1.7373137e+2, -1246611.1, -1303481.9, -7594.199, -0.050799556, -0.16865705, -1245614.5, -8197.251, 0.0058425493, 10.001498, 9.993896 
5.9487146e+2, 1.8372442e+2, -1152088.5, -1222371.8, -14026.495, -0.06159886, -0.17550969, -1149392.6, -9906.996, 0.0021272544, 10.001911, 9.992547 
5.9488344e+2, 1.9371736e+2, -1051766.4, -1124431.8, -14331.856, -0.015793746, -0.1414831, -1049041.9, -7487.3306, 0.0010480696, 10.002119, 9.992438 
5.948938e+2, 2.0370883e+2, -968576.06, -1058157.6, -23654.223, 0.010154485, -0.12460969, -962713.75, -19075.691, 0.0007350033, 10.002142, 9.990279 
5.949026e+2, 2.1369888e+2, -873566.9, -964028.4, -24488.904, 0.0033047535, -0.14174429, -867362.94, -21627.523, 0.0006028389, 10.002039, 9.990061 
5.949101e+2, 2.2368766e+2, -793651.56, -898822.56, -32453.857, 0.0005948991, -0.15944578, -784443.2, -36597.777, 0.0005193619, 10.00182, 9.987938 
5.949172e+2, 2.3367542e+2, -698613.94, -803764.25, -37021.695, 0.005387452, -0.17201903, -686887.06, -36921.555, 0.0004648644, 10.001673, 9.987803 
5.949227e+2, 2.436631e+2, -611912.8, -714763.4, -48377.355, 0.0120408395, -0.16271296, -592734.06, -40647.816, 0.00043297483, 10.0010195, 9.987517 
5.9492743e+2, 2.536509e+2, -527716.8, -622032.7, -49688.336, 0.018620338, -0.14315394, -506370.75, -52165.383, 0.0004056858, 10.000005, 9.987641 
5.949306e+2, 2.6363823e+2, -454594.53, -539365.1, -60689.758, 0.021589821, -0.17103367, -422954.44, -66624.34, 0.00035587657, 9.998408, 9.987377 
5.9493273e+2, 2.7362493e+2, -384210.66, -454049.6, -65598.34, 0.026386378, -0.22645603, -344816.5, -86355.64, 0.00027203356, 9.99649, 9.987423 
5.949357e+2, 2.8361493e+2, -300056.03, -330699.97, -60924.25, 0.039302103, -0.118906066, -252556.6, -91997.03, 0.00017443145, 9.994149, 9.990275 
5.949399e+2, 2.936075e+2, -242108.1, -252996.72, -57132.695, 0.046763837, 0.10568494, -190160.89, -127528.83, 0.000094247254, 9.991445, 9.990177 
5.949488e+2, 3.0359435e+2, -198220.38, -168010.94, -22945.072, -0.0189365, -0.38586396, -155645.16, -155645.16, 0.00004468713, 9.989479, 9.993543 
5.949634e+2, 3.1359154e+2, -134108.94, -1537.6633, -26144.326, 0.05129089, -0.05568899, 3431.9558, 3431.9558, 0.0000195787, 9.988046, 10.005643 
6.047888e+2, 1.2373628e+2, -1717431.8, -1721357.9, 1275.0988, -0.057720978, -0.14904681, -1717054.0, 10315.374, 0.21414967, 10.000231, 9.999547 
6.0480416e+2, 1.3373382e+2, -1628464.5, -1651530.0, 3741.3804, -0.03017353, -0.16388804, -1627872.8, 1519.8387, 0.15643243, 10.000503, 9.997388 
6.048191e+2, 1.4373e+2, -1533903.1, -1564640.4, -36.83749, -0.021853989, -0.2282263, -1533903.1, -2473.352, 0.0999007, 10.00067, 9.99654 
6.0483354e+2, 1.537273e+2, -1434043.4, -1466774.6, -1387.5737, -0.024304237, -0.16159673, -1433984.8, -528.1181, 0.05447676, 10.000843, 9.996444 
6.0484755e+2, 1.6372298e+2, -1344670.4, -1395104.4, -3546.692, -0.025929673, -0.13229896, -1344422.3, -8923.121, 0.025872825, 10.00121, 9.994476 
6.048612e+2, 1.737171e+2, -1239667.3, -1296504.5, 37.586014, -0.027195688, -0.162558, -1239667.1, -2110.7383, 0.011942044, 10.001809, 9.994223 
6.0487384e+2, 1.8371017e+2, -1150495.6, -1223775.8, -5749.4824, -0.024804475, -0.17546663, -1150047.3, -10422.9375, 0.006500113, 10.00211, 9.99236 
6.048855e+2, 1.9370267e+2, -1055943.0, -1129744.1, -8624.809, -0.01630705, -0.16195972, -1054948.5, -13250.555, 0.0045762835, 10.001971, 9.992152 
6.0489583e+2, 2.0369384e+2, -965942.56, -1057557.1, -17698.03, -0.01036156, -0.15387759, -962642.56, -18858.09, 0.0037732837, 10.002359, 9.990211 
6.049053e+2, 2.1368398e+2, -849950.8, -953035.6, -19105.807, -0.0076353415, -0.15990497, -846523.6, -642.7895, 0.0032849766, 10.003677, 9.990012 
6.049131e+2, 2.2367269e+2, -762082.7, -886543.06, -28666.232, -0.0017045469, -0.16868655, -755797.5, -7806.002, 0.0029248616, 10.004104, 9.987673 
6.049197e+2, 2.336602e+2, -677957.4, -797324.94, -28127.969, 0.008749473, -0.17640081, -671661.3, -21547.457, 0.0026790309, 10.00324, 9.987487 
6.049245e+2, 2.436473e+2, -598116.44, -718115.25, -38457.29, 0.015361092, -0.16297482, -586849.5, -34609.176, 0.002530262, 10.002398, 9.986622 
6.049285e+2, 2.5363424e+2, -502116.2, -619590.0, -45267.87, 0.014360314, -0.14164358, -486696.47, -32328.373, 0.00239068, 10.00218, 9.98676 
6.0493e+2, 2.636206e+2, -429308.5, -538960.5, -64915.844, 0.011555137, -0.17217034, -399164.2, -42661.742, 0.002118739, 10.000622, 9.986356 
6.0492975e+2, 2.7360624e+2, -370536.2, -458454.06, -68762.79, 0.012384673, -0.23509444, -332881.94, -74238.1, 0.0016495102, 9.997849, 9.986498 
6.0492975e+2, 2.8359568e+2, -303011.63, -334404.53, -69008.62, 0.032853268, -0.12838648, -247936.84, -87189.05, 0.0010885802, 9.993991, 9.990135 
6.0493046e+2, 2.935882e+2, -274301.9, -270518.03, -67701.21, 0.066367224, 0.101788774, -204682.33, -141861.53, 0.0006111851, 9.989275, 9.990064 
6.049366e+2, 3.0357474e+2, -256448.63, -201461.2, -27785.068, -0.010456222, -0.39270326, -189866.38, -189866.38, 0.000302907, 9.985716, 9.993081 
6.0494906e+2, 3.1357145e+2, -187158.56, -2975.212, -28075.568, 0.036579095, -0.07353607, 1209.3517, 1209.3517, 0.00013885302, 9.983344, 10.007835 
6.147902e+2, 1.2372238e+2, -1722745.9, -1730549.8, 1033.181, 0.062425695, -0.22234127, -1722611.5, 4893.51, 0.2719729, 10.000164, 9.998836 
6.148049e+2, 1.3372041e+2, -1633776.5, -1661912.8, 2916.6667, -0.0036938852, -0.110748746, -1633477.4, -3952.8135, 0.20544642, 10.000475, 9.996686 
6.148194e+2, 1.4371645e+2, -1536463.4, -1568908.9, -843.63837, -0.06590239, -0.14230375, -1536441.5, -4878.2085, 0.1390677, 10.000639, 9.996259 
6.1483395e+2, 1.5371262e+2, -1437309.1, -1472003.1, -1815.1426, -0.06920925, -0.16215497, -1437214.4, -3614.014, 0.08430133, 10.00079, 9.996108 
6.1484855e+2, 1.637082e+2, -1339483.3, -1382942.8, -2597.8445, -0.043035243, -0.16003604, -1339328.5, -3685.2434, 0.04837321, 10.001156, 9.995323 
6.148636e+2, 1.7370397e+2, -1233196.1, -1282023.3, 1394.5536, 0.029475901, -0.12492688, -1233156.4, 4527.896, 0.029622218, 10.001782, 9.9952135 
6.148766e+2, 1.8369746e+2, -1153339.3, -1229252.4, -6513.93, 0.04683743, -0.13375501, -1152784.4, -13036.581, 0.021315139, 10.002106, 9.991982 
6.148874e+2, 1.9368842e+2, -1060284.0, -1138673.5, -9712.71, -0.023979181, -0.21801737, -1059098.5, -17261.736, 0.017656492, 10.0019865, 9.9915285 
6.148977e+2, 2.0367873e+2, -967284.2, -1060219.0, -13766.454, -0.05920351, -0.24943922, -965287.8, -21356.148, 0.015629679, 10.002359, 9.9900255 
6.1490875e+2, 2.1366934e+2, -850367.4, -954506.9, -14222.643, -0.036780804, -0.1976536, -848459.9, -2436.3052, 0.014136865, 10.003709, 9.989892 
6.149171e+2, 2.2365852e+2, -758308.75, -879900.94, -31004.643, -0.012651877, -0.16900192, -750859.3, -2729.6833, 0.012942754, 10.004162, 9.988093 
6.1492306e+2, 2.3364656e+2, -674314.25, -790429.2, -31791.156, 0.014174852, -0.17773485, -666179.94, -15933.243, 0.0120895915, 10.003276, 9.987936 
6.14927e+2, 2.436333e+2, -608674.8, -739792.3, -39536.58, 0.025748905, -0.15379746, -597675.8, -45299.094, 0.01153437, 10.0024, 9.985136 
6.149307e+2, 2.536189e+2, -513372.16, -643830.4, -46592.44, 0.009192516, -0.10090605, -498440.84, -43922.61, 0.0109508075, 10.002237, 9.985068 
6.149305e+2, 2.636037e+2, -436081.8, -553723.8, -75234.32, -0.0077244965, -0.1390239, -399403.53, -42736.45, 0.009784224, 10.000631, 9.985355 
6.1492735e+2, 2.7358767e+2, -375298.84, -469811.22, -80000.58, -0.018290058, -0.2884363, -329639.8, -70815.61, 0.0077573447, 9.9979105, 9.985696 
6.149236e+2, 2.8357616e+2, -306646.75, -342199.88, -87638.5, 0.01743677, -0.21423702, -235000.1, -74063.22, 0.0052745016, 9.993972, 9.989638 
6.149201e+2, 2.9356888e+2, -278949.78, -279264.84, -85954.82, 0.10651428, 0.08480382, -193152.34, -130143.56, 0.003079236, 9.98921, 9.989521 
6.149225e+2, 3.0355546e+2, -259304.63, -204382.33, -38205.58, 0.02895107, -0.37258047, -184792.64, -184792.64, 0.001593913, 9.985561, 9.992975 
6.1493206e+2, 3.135512e+2, -172280.9, 32863.777, -37079.777, 0.024550896, -0.14781986, 39360.203, 39360.203, 0.0007633163, 9.983109, 10.010428 
6.247894e+2, 1.2370734e+2, -1711768.1, -1721247.0, -5097.1846, -0.078803524, -0.1625385, -1709547.4, 18105.041, 0.35408655, 10.0011835, 9.999205 
6.2480515e+2, 1.3370574e+2, -1621311.9, -1645838.6, 1222.8787, -0.05564584, -0.09183654, -1621251.1, 8417.136, 0.28103888, 10.001169, 9.997442 
6.2482035e+2, 1.4370207e+2, -1525791.6, -1560676.0, 4379.9404, -0.06235736, -0.14327249, -1525250.1, 6453.7617, 0.20645627, 10.001365, 9.996474 
6.2483567e+2, 1.5369831e+2, -1420490.4, -1460805.0, 6616.1753, -0.027476596, -0.17301764, -1419432.3, 14307.764, 0.14304748, 10.001993, 9.996296 
6.248506e+2, 1.6369368e+2, -1326642.4, -1380520.5, 3088.289, -0.008468118, -0.18643829, -1326465.9, 9318.944, 0.099573426, 10.002278, 9.9949465 
6.2486494e+2, 1.7368872e+2, -1237264.0, -1289785.1, -5045.7524, -0.013872718, -0.17681636, -1236783.6, 1049.77, 0.07517154, 10.001746, 9.994701 
6.248779e+2, 1.836825e+2, -1150672.5, -1216562.4, -14111.604, -0.020464718, -0.17454872, -1147777.4, -7883.0884, 0.06292693, 10.001777, 9.9930105 
6.2488973e+2, 1.9367537e+2, -1040742.06, -1115619.5, -4194.9873, -0.025481792, -0.18657538, -1040507.8, 1456.508, 0.056461062, 10.002723, 9.992751 
6.2490094e+2, 2.036669e+2, -949995.3, -1046171.5, 2329.1238, -0.020328151, -0.18786293, -949938.94, -5891.5107, 0.052152585, 10.003285, 9.99054 
6.2491256e+2, 2.1365751e+2, -856339.9, -953491.4, 5125.7866, -0.0004311172, -0.1763776, -856070.2, -9930.84, 0.048585102, 10.003129, 9.990247 
6.249212e+2, 2.2364627e+2, -769901.25, -892192.0, -13444.853, 0.0068536117, -0.1797153, -768440.56, -20191.139, 0.045522448, 10.003662, 9.987495 
6.249273e+2, 2.3363346e+2, -645063.44, -784631.7, -24210.932, -0.0038459739, -0.20336448, -640982.9, 9392.056, 0.043182526, 10.0056715, 9.987173 
6.24931e+2, 2.4361959e+2, -555462.9, -715869.5, -38066.516, -0.00044040056, -0.1859817, -546887.7, 5623.0796, 0.041468315, 10.006091, 9.985015 
6.2493384e+2, 2.536053e+2, -489271.44, -632957.25, -34532.098, 0.021656595, -0.12249469, -481403.2, -26752.086, 0.039447043, 10.003863, 9.985062 
6.249318e+2, 2.6358944e+2, -432720.47, -569414.94, -59351.7, 0.018129373, -0.14842516, -410547.16, -53740.707, 0.035451252, 10.001614, 9.983808 
6.2492687e+2, 2.7357194e+2, -338065.53, -467866.34, -69339.06, -0.01854026, -0.29186195, -307992.44, -49014.605, 0.028579697, 10.001141, 9.984277 
6.249188e+2, 2.8355926e+2, -272038.03, -334626.0, -98151.64, 0.0074168057, -0.22841887, -200312.31, -39210.504, 0.019996649, 9.996737, 9.988826 
6.2490886e+2, 2.935509e+2, -298884.6, -297978.47, -98822.695, 0.110235296, 0.04639159, -199607.8, -136423.89, 0.012117308, 9.988247, 9.988711 
6.2490565e+2, 3.0353764e+2, -336748.7, -241572.94, -44616.14, 0.035338774, -0.36098397, -223928.88, -223928.88, 0.006536327, 9.980241, 9.993024 
6.2491095e+2, 3.135332e+2, -291071.56, 4590.499, -40217.77, 0.047248878, -0.16838941, 9963.524, 9963.524, 0.0032656097, 9.97374, 10.013025 
6.348056e+2, 1.3369022e+2, -1645117.0, -1635935.4, -2413.447, -0.12191171, -0.14898586, -1635339.6, -5520.1323, 0.39853033, 9.998358, 9.999468 
6.348228e+2, 1.4368737e+2, -1556943.3, -1569044.9, 1607.4106, 0.047332767, -0.24964857, -1556733.4, -24887.012, 0.32085901, 9.998816, 9.997136 
6.348392e+2, 1.536849e+2, -1427551.6, -1457247.4, 6250.1455, 0.12187204, -0.20670119, -1426289.8, 7580.5527, 0.25277194, 10.001225, 9.996909 
6.3485384e+2, 1.6367997e+2, -1338333.6, -1405911.0, -106.95186, 0.07860969, -0.21630484, -1338333.4, -2414.703, 0.2042427, 10.002256, 9.993223 
6.3486516e+2, 1.7367171e+2, -1253191.0, -1321702.8, -8454.65, -0.16675083, -0.32677636, -1252163.0, -14162.858, 0.1752474, 10.001721, 9.992532 
6.348775e+2, 1.8366547e+2, -1135823.8, -1182498.0, -12017.023, -0.24105117, -0.30405936, -1132911.5, 7150.221, 0.1591168, 10.001746, 9.995342 
6.3489246e+2, 1.936638e+2, -1022500.44, -1071367.1, -1006.6285, -0.027944846, -0.06836935, -1022479.7, 19598.418, 0.14941336, 10.0027485, 9.995745 
6.3490546e+2, 2.0365857e+2, -941652.3, -1028915.8, 2045.2783, 0.10143705, 0.034039184, -941604.44, 2525.0603, 0.14207515, 10.003336, 9.991681 
6.349166e+2, 2.136486e+2, -850144.75, -941527.56, 4033.645, 0.09314348, -0.09816091, -849967.0, -3740.1345, 0.13538373, 10.003178, 9.99103 
6.3492537e+2, 2.2363605e+2, -781419.6, -916797.3, -6834.589, 0.049984735, -0.20222671, -781075.5, -32725.432, 0.12914358, 10.00371, 9.985786 
6.349326e+2, 2.3362091e+2, -657897.7, -813926.2, -16397.072, -0.0515402, -0.2554934, -656193.1, -5694.698, 0.123909354, 10.005762, 9.985122 
6.349364e+2, 2.4360615e+2, -549083.5, -699397.4, -43635.973, -0.06858889, -0.25885308, -537334.4, 15308.567, 0.119484864, 10.0061035, 9.986139 
6.34938e+2, 2.5359333e+2, -477766.47, -609503.56, -44696.633, 0.047172796, -0.21069428, -464033.16, -9264.875, 0.11372144, 10.003877, 9.98666 
6.349341e+2, 2.6357767e+2, -447209.16, -599636.44, -63134.523, 0.08706871, -0.20443329, -424455.7, -67533.93, 0.10259992, 10.001594, 9.9817705 
6.3492835e+2, 2.735589e+2, -352133.28, -498567.78, -72111.03, 0.006734516, -0.24542195, -322584.94, -63479.76, 0.08382991, 10.001185, 9.982169 
6.349155e+2, 2.8354484e+2, -279649.16, -351057.66, -129448.32, -0.00419414, -0.16922157, -181071.38, -19828.203, 0.060087454, 9.996713, 9.987752 
6.3489676e+2, 2.9353425e+2, -307161.53, -313965.7, -131375.13, 0.0736689, -0.016693607, -179144.45, -115797.805, 0.037613805, 9.98815, 9.987703 
6.348853e+2, 3.0352134e+2, -338451.03, -239715.8, -72364.58, 0.0017717258, -0.35755983, -201483.22, -201483.22, 0.021067685, 9.979957, 9.993329 
6.3488454e+2, 3.1351784e+2, -281145.7, 35982.95, -64504.043, 0.07600314, -0.10425093, 48601.03, 48601.03, 0.01096935, 9.9732065, 10.015509 
6.4485145e+2, 1.6366321e+2, -1362625.8, -1357879.1, -18946.857, -0.17127414, -0.11017159, -1341157.6, -5072.238, 0.39289808, 9.998017, 9.99853 
6.4487046e+2, 1.7366226e+2, -1202638.5, -1233029.1, 19039.576, 0.08452664, -0.018266372, -1193473.9, 44620.23, 0.36213353, 10.0040045, 9.997795 
6.448848e+2, 1.8365726e+2, -1112940.3, -1184402.8, 19372.145, 0.14775912, -0.09386399, -1108026.6, 32115.96, 0.34343618, 10.005106, 9.993668 
6.4489293e+2, 1.9364895e+2, -1104036.3, -1143736.3, -12141.416, -0.03723908, -0.25524408, -1100617.5, -58394.516, 0.33122408, 9.998298, 9.992976 
6.449038e+2, 2.036405e+2, -1022876.06, -1068257.5, -12717.484, -0.12627809, -0.3177377, -1019555.2, -75249.53, 0.3210453, 9.997752, 9.991691 
6.4492077e+2, 2.1363339e+2, -799905.9, -902279.6, -8280.872, -0.04400615, -0.20619039, -799240.4, 47135.992, 0.3108108, 10.007838, 9.991443 
6.449327e+2, 2.2362466e+2, -670336.0, -801811.8, -22906.234, 0.012483562, -0.1231087, -666459.44, 82003.1, 0.30029958, 10.011683, 9.989838 
6.449384e+2, 2.3361488e+2, -647274.6, -757738.7, 6752.2437, 0.022693714, -0.09729028, -646863.4, 3695.1558, 0.29055423, 10.004419, 9.989615 
6.449412e+2, 2.4360175e+2, -628337.0, -761161.56, 8912.984, 0.032762013, -0.08856419, -627741.56, -75054.73, 0.2812907, 10.001538, 9.984128 
6.449431e+2, 2.5358537e+2, -456419.5, -626367.75, -24582.877, 0.03798467, -0.12244021, -452935.03, 1911.6886, 0.26819497, 10.006552, 9.984245 
6.449384e+2, 2.635685e+2, -351155.0, -540656.8, -55665.85, 0.0271196, -0.16170101, -336013.16, 20998.662, 0.24274573, 10.008185, 9.982637 
6.4493126e+2, 2.7355087e+2, -289504.0, -455621.25, -43318.195, -0.00007956742, -0.20258372, -278886.6, -19702.357, 0.20004174, 10.004968, 9.9832535 
6.4491326e+2, 2.835362e+2, -259954.48, -358632.84, -110251.3, 0.0114086075, -0.1643193, -188505.83, -27178.15, 0.14574984, 9.998815, 9.986183 
6.448869e+2, 2.9352328e+2, -254625.92, -308359.4, -115814.88, 0.06436953, -0.075277425, -162602.33, -99148.66, 0.09355259, 9.992604, 9.985908 
6.4486486e+2, 3.0351108e+2, -343438.94, -227098.28, -82218.48, -0.0050292322, -0.30951983, -184552.84, -184552.84, 0.05415776, 9.979033, 9.994609 
6.448499e+2, 3.135084e+2, -504298.1, -36753.14, -65503.11, 0.08766359, -0.13145185, -27749.531, -27749.531, 0.029351022, 9.9565935, 10.018493 
6.5493584e+2, 2.735476e+2, -263782.6, -388894.1, -53871.3, -0.056075834, -0.16921563, -243783.27, 15433.3545, 0.39663282, 10.005134, 9.987812 
6.5491253e+2, 2.835335e+2, -271165.84, -384602.13, -137475.9, 0.041903246, -0.22236033, -179167.58, -17813.883, 0.291256, 9.998875, 9.98441 
6.548797e+2, 2.9351848e+2, -271087.28, -343591.8, -138574.25, 0.07569585, -0.13125554, -164101.81, -100601.7, 0.19025698, 9.992595, 9.983538 
6.5484375e+2, 3.0350783e+2, -328614.84, -189123.14, -164524.7, 0.012904808, -0.21039398, -80171.305, -80171.305, 0.11330147, 9.978606, 9.99748 
6.5480524e+2, 3.135067e+2, -494750.0, 2957.4524, -149226.08, 0.05058191, -0.2011086, 44270.23, 44270.23, 0.063748896, 9.955516, 10.021995 
6.6487557e+2, 2.935301e+2, -119231.58, -178929.63, -34785.996, 0.08371638, -0.23416393, -103243.61, -39858.625, 0.32146904, 9.999167, 9.991431 
6.648205e+2, 3.035279e+2, -347439.06, -123117.61, -93109.61, 0.035672933, -0.19574437, -89506.5, -89506.5, 0.19615902, 9.974011, 10.003915 
6.647481e+2, 3.1353232e+2, -846123.7, -101998.81, -61751.992, 0.03305544, -0.24047878, -96909.07, -96909.07, 0.11400509, 9.9289875, 10.027115 
6.7479414e+2, 3.035761e+2, -289949.03, -2122.4268, -226376.89, 0.05897274, -0.27619576, 122213.28, 122213.28, 0.28029838, 9.972979, 10.015179 
6.746751e+2, 3.1359297e+2, -821300.7, -16017.014, -224661.94, 0.013167281, -0.11481912, 42419.703, 42419.703, 0.16728508, 9.926797, 10.03453 
6.8477017e+2, 3.0370227e+2, -156367.47, 105350.96, 118944.945, 0.09379526, -0.24449582, 151330.75, 151330.75, 0.3203341, 9.978078, 10.019306 
6.8459487e+2, 3.137224e+2, -1007584.2, -73721.81, 125964.375, -0.008841349, -0.16639195, -57029.43, -57029.43, 0.19654508, 9.912193, 10.034679 
6.947475e+2, 3.0392057e+2, -162857.45, 118057.84, -82201.914, 0.13736169, -0.10376709, 140343.88, 140343.88, 0.2835548, 9.975615, 10.019657 
6.9450593e+2, 3.139393e+2, -1059304.8, -138401.86, -102677.66, 0.053957786, -0.24288337, -127092.52, -127092.52, 0.17986591, 9.909201, 10.030662 
7.0996034e+2, 1.7433053e+2, -1217135.5, -1253726.0, 6124.1304, 0.2724731, -0.22925258, -1216137.8, 15405.223, 0.39511505, 9.993868, 9.987585 
7.095386e+2, 1.8432029e+2, -1119721.8, -1126737.1, 3654.4075, 0.42594618, -0.14008345, -1118164.0, 15479.968, 0.3669111, 9.992191, 9.990687 
7.091133e+2, 1.9431055e+2, -1042776.06, -1037396.06, -6639.993, 0.23598626, -0.22207971, -1032921.9, 2816.4216, 0.33871084, 9.990201, 9.990991 
7.086899e+2, 2.0430005e+2, -957535.25, -976819.4, -13806.955, 0.16351682, -0.23902336, -950336.9, -12495.915, 0.308201, 9.99067, 9.988248 
7.0826805e+2, 2.1428867e+2, -817861.44, -860012.56, -8825.162, 0.28264007, -0.17220972, -816088.3, 23865.271, 0.2781239, 9.994397, 9.9877205 
7.078493e+2, 2.2427711e+2, -703236.75, -740426.3, 4716.488, 0.33281738, -0.14740336, -702647.94, 39419.45, 0.25591338, 9.995521, 9.988899 
7.0743257e+2, 2.3426561e+2, -634921.56, -663094.1, -2387.6882, 0.25708908, -0.2016248, -634720.6, 9459.067, 0.25088242, 9.993, 9.988842 
7.0701885e+2, 2.4425471e+2, -543931.06, -556589.94, -9817.276, 0.17291829, -0.23587976, -538579.75, 7706.231, 0.2690312, 9.991893, 9.990276 
7.06606e+2, 2.5424522e+2, -442120.16, -459477.63, -14149.342, 0.1257049, -0.22588277, -434199.97, 14178.662, 0.30815062, 9.992584, 9.990174 
7.062018e+2, 2.642354e+2, -334465.34, -359252.97, -7589.0894, 0.15792802, -0.20657267, -332326.4, 18148.066, 0.35098478, 9.993902, 9.990115 
7.058006e+2, 2.742255e+2, -213340.58, -242591.61, -15926.643, 0.23382074, -0.23282795, -206342.88, 46228.535, 0.36858684, 9.996431, 9.990886 
7.0541894e+2, 2.8421485e+2, -160257.33, -212999.78, 54497.08, 0.07971999, -0.2568953, -126086.23, 28589.824, 0.3397061, 9.994945, 9.988033 
7.0504856e+2, 2.9420382e+2, -113154.43, -123230.25, 24942.148, -0.23779888, -0.19302832, -92746.49, -35961.574, 0.27216333, 9.990116, 9.989772 
7.047211e+2, 3.042053e+2, -257782.7, 34008.605, 226599.16, 0.2378532, -0.13420399, 157617.53, 157617.53, 0.1936844, 9.969938, 10.010839 
7.04424e+2, 3.1421605e+2, -759916.94, -82735.53, 149532.92, -0.05080814, -0.19932625, -51186.05, -51186.05, 0.12692334, 9.930931, 10.019922 
7.216538e+2, 1.3479827e+2, -1600361.8, -1604472.4, -10801.048, 0.5015012, -0.1578309, -1591422.3, 27540.586, 0.38652638, 9.992568, 9.991796 
7.212279e+2, 1.4478816e+2, -1510664.8, -1526514.3, -17473.541, 0.3786918, -0.25453454, -1499402.9, 21658.139, 0.32051286, 9.992653, 9.990096 
7.208043e+2, 1.5477833e+2, -1411563.6, -1430356.8, -4525.0415, 0.3981868, -0.23170562, -1410530.8, 12625.319, 0.26347443, 9.992621, 9.989627 
7.203796e+2, 1.6476811e+2, -1313826.8, -1337972.3, -22.322775, 0.38374618, -0.18044901, -1313826.8, 11429.15, 0.22245312, 9.992746, 9.989069 
7.1995515e+2, 1.747571e+2, -1218482.8, -1244747.6, 380.06134, 0.40658262, -0.18092224, -1218477.3, 8886.684, 0.196103, 9.992666, 9.988768 
7.195302e+2, 1.8474524e+2, -1132862.9, -1167838.8, -5786.9805, 0.3810833, -0.1760505, -1131930.3, -2449.9167, 0.17775902, 9.992205, 9.987616 
7.19104e+2, 1.9473292e+2, -1047647.44, -1078935.8, -14654.057, 0.2697016, -0.16795178, -1041856.06, -10255.111, 0.16158377, 9.991514, 9.987421 
7.186814e+2, 2.047206e+2, -940221.06, -968420.1, -2451.4717, 0.21098666, -0.17474507, -940009.5, -6287.897, 0.14462167, 9.992003, 9.9882345 
7.1826196e+2, 2.1470854e+2, -818754.5, -861411.56, -1773.0446, 0.22495969, -0.19855097, -818680.94, 17158.373, 0.12753792, 9.994003, 9.98789 
7.178437e+2, 2.246951e+2, -730912.7, -801635.8, -6286.0938, 0.24298668, -0.1868566, -730358.25, 7613.1636, 0.11406057, 9.994541, 9.985159 
7.1742547e+2, 2.3468056e+2, -657491.1, -721873.7, -13171.395, 0.248311, -0.14909387, -654900.75, -14785.594, 0.10924326, 9.993172, 9.984705 
7.1701103e+2, 2.4466585e+2, -562153.7, -613301.56, -10208.183, 0.18792848, -0.13468254, -560191.6, -17932.072, 0.116529875, 9.992578, 9.986032 
7.1659815e+2, 2.5465193e+2, -462603.1, -518677.44, -16357.475, 0.079313435, -0.13882391, -458180.3, -13785.074, 0.13552432, 9.993003, 9.985807 
7.1619517e+2, 2.6463583e+2, -376234.34, -467402.5, -1690.0355, 0.1045586, -0.1507712, -376203.03, -29649.895, 0.15902261, 9.994185, 9.982566 
7.157971e+2, 2.7461824e+2, -242715.52, -344942.7, -16480.572, 0.23608631, -0.18822199, -240124.28, 8601.533, 0.17349151, 9.996677, 9.983354 
7.1541315e+2, 2.8460076e+2, -212742.16, -319429.5, 47838.75, 0.10182557, -0.14686432, -194433.23, -43536.57, 0.16680703, 9.994107, 9.980556 
7.150376e+2, 2.9458293e+2, -180269.42, -233889.81, 22327.693, -0.2170383, -0.009910251, -172189.63, -119118.56, 0.13921367, 9.988903, 9.982432 
7.1469194e+2, 3.0456933e+2, -355705.03, -143800.72, 133175.8, 0.39209035, -0.3759586, -79571.65, -79571.65, 0.102455154, 9.968498, 9.996261 
7.143555e+2, 3.1456748e+2, -801746.9, -196391.16, 11146.849, -0.08706155, -0.22641219, -196185.97, -196185.97, 0.06878545, 9.931033, 10.010778 
7.320701e+2, 1.2523445e+2, -1722263.8, -1730897.6, 4205.0938, 0.55525273, -0.16952732, -1720554.3, -7865.2114, 0.3249284, 9.991049, 9.989839 
7.3164475e+2, 1.3522574e+2, -1613276.3, -1630591.8, 7026.743, 0.43167013, -0.016353427, -1610783.5, 3991.0662, 0.25896257, 9.992031, 9.989476 
7.3121995e+2, 1.4521542e+2, -1511419.3, -1528188.4, 3837.1323, 0.37528896, 0.006624112, -1510582.9, 6292.6514, 0.19362748, 9.992214, 9.989702 
7.30796e+2, 1.5520425e+2, -1420290.5, -1437554.6, -4973.616, 0.39374605, -0.08380702, -1418960.3, 24.254805, 0.13975194, 9.9918165, 9.989459 
7.303716e+2, 1.651925e+2, -1325269.6, -1354834.4, -7985.2524, 0.3821154, -0.1301778, -1323250.6, -2151.4617, 0.10370437, 9.992256, 9.988266 
7.299472e+2, 1.7518067e+2, -1214742.6, -1253282.6, -10532.526, 0.3360297, -0.13892877, -1212052.1, 11163.064, 0.083347134, 9.993315, 9.988024 
7.295228e+2, 1.8516767e+2, -1115527.5, -1176902.8, -16331.596, 0.3073815, -0.1371346, -1111452.4, 13890.388, 0.071896814, 9.994297, 9.986129 
7.2909814e+2, 1.9515386e+2, -1003902.3, -1075583.3, -18925.613, 0.2890419, -0.12605059, -999212.3, 28265.879, 0.06370772, 9.99547, 9.985826 
7.28676e+2, 2.0513973e+2, -903944.06, -972875.7, -9596.007, 0.259682, -0.13381477, -902633.1, 26983.498, 0.055943485, 9.995547, 9.986297 
7.28256e+2, 2.1512575e+2, -825425.0, -888788.06, -16488.951, 0.2279352, -0.16412427, -821390.94, 10361.95, 0.04827547, 9.994364, 9.9860325 
7.278379e+2, 2.2511035e+2, -740271.9, -827961.1, -17742.55, 0.22154549, -0.16130637, -736818.0, -2914.0754, 0.04206415, 9.994794, 9.983403 
7.274204e+2, 2.3509404e+2, -619586.4, -725045.6, -15310.652, 0.23798461, -0.12719098, -617408.5, 18656.19, 0.039379034, 9.9967165, 9.982869 
7.270062e+2, 2.4507667e+2, -517985.0, -631857.7, -5802.6113, 0.189912, -0.10839605, -517690.06, 20545.205, 0.041692458, 9.997297, 9.98248 
7.2659326e+2, 2.5505918e+2, -431755.22, -544790.75, -6784.516, 0.08895381, -0.11173487, -431349.44, 9056.946, 0.048994042, 9.996754, 9.982164 
7.261905e+2, 2.6503897e+2, -375990.2, -516204.4, 29507.824, 0.11248682, -0.12965381, -370033.38, -27428.9, 0.058725137, 9.9961195, 9.978156 
7.257935e+2, 2.750169e+2, -280121.1, -412966.84, 34796.0, 0.23508729, -0.16570462, -271558.9, -26737.838, 0.065737106, 9.995755, 9.978809 
7.254058e+2, 2.849961e+2, -262146.6, -367242.6, 103095.23, 0.09355402, -0.10287077, -198979.78, -51955.168, 0.06491962, 9.991204, 9.977912 
7.250239e+2, 2.9497546e+2, -266491.94, -304963.94, 115319.805, -0.21719489, 0.040853, -168814.78, -119588.81, 0.05554514, 9.983646, 9.979021 
7.246616e+2, 3.049544e+2, -367046.03, -238209.86, 180280.94, 0.43581727, -0.43310705, -111183.67, -111183.67, 0.041713882, 9.970261, 9.98707 
7.2429436e+2, 3.1494606e+2, -463842.38, 39292.164, 57412.4, -0.11843825, -0.008496639, 45760.31, 45760.31, 0.028427763, 9.949037, 10.01567 
7.420603e+2, 1.2566021e+2, -1697090.1, -1707553.1, 2491.804, 0.41947055, -0.1573828, -1696527.0, 11990.108, 0.23778392, 9.992626, 9.9907255 
7.416375e+2, 1.3565065e+2, -1596873.9, -1614811.3, 3048.2302, 0.46852267, -0.17794012, -1596370.0, 14241.4, 0.17852521, 9.993016, 9.990135 
7.412134e+2, 1.4563933e+2, -1510351.1, -1551131.6, -2774.1743, 0.46767077, -0.17731534, -1510163.3, 2559.5215, 0.12096515, 9.993229, 9.987697 
7.407885e+2, 1.5562712e+2, -1411715.0, -1455046.8, -9243.803, 0.4313085, -0.17004816, -1409825.4, 5017.1963, 0.07490658, 9.993394, 9.987535 
7.40364e+2, 1.6561474e+2, -1308956.0, -1356139.1, -7574.9067, 0.35982126, -0.14864741, -1307769.8, 9194.123, 0.04563878, 9.99385, 9.987459 
7.3994e+2, 1.756025e+2, -1205056.3, -1259784.1, -11331.787, 0.2577108, -0.11662344, -1202802.8, 16280.934, 0.030679801, 9.994459, 9.987083 
7.395167e+2, 1.855886e+2, -1113758.8, -1187761.3, -16349.292, 0.24443588, -0.10286615, -1110307.8, 10912.449, 0.023779081, 9.994914, 9.985141 
7.390937e+2, 1.9557366e+2, -1010855.5, -1091445.1, -18148.334, 0.30223358, -0.10633854, -1006957.2, 16409.588, 0.02003629, 9.995463, 9.984787 
7.386719e+2, 2.0555778e+2, -918658.56, -1008135.5, -15528.555, 0.29736623, -0.11086438, -916040.25, 9481.844, 0.017114943, 9.9956045, 9.983855 
7.3825055e+2, 2.1554151e+2, -831189.44, -920153.4, -20238.22, 0.2417635, -0.12074775, -826801.9, 878.9881, 0.014433482, 9.995144, 9.983487 
7.378328e+2, 2.2552437e+2, -737370.1, -835326.1, -10953.988, 0.21764816, -0.12613656, -736160.1, -6311.1865, 0.012285881, 9.995443, 9.982623 
7.37417e+2, 2.3550694e+2, -628247.5, -738353.9, -10137.634, 0.21777536, -0.12626146, -627321.9, 4698.1157, 0.01127772, 9.996532, 9.982088 
7.370035e+2, 2.4548768e+2, -539501.44, -673008.6, -9145.87, 0.18561967, -0.12319781, -538877.8, -4668.8506, 0.011856614, 9.997074, 9.97977 
7.3659045e+2, 2.5546747e+2, -444871.72, -579852.0, -10265.773, 0.13081181, -0.12521501, -444095.4, -7688.7056, 0.014033238, 9.997063, 9.9796 
7.361871e+2, 2.654456e+2, -378637.7, -528160.7, 27807.732, 0.15158063, -0.13381816, -373633.6, -35012.65, 0.017072648, 9.996481, 9.97711 
7.35789e+2, 2.754227e+2, -286563.0, -425315.97, 31616.781, 0.21868591, -0.14936799, -279698.3, -38852.68, 0.019438885, 9.995767, 9.977875 
7.353965e+2, 2.8540254e+2, -243851.25, -323796.9, 77268.37, 0.058273368, -0.12322332, -196828.52, -53785.25, 0.019514302, 9.990911, 9.980715 
7.3500735e+2, 2.9538378e+2, -251112.3, -269787.0, 91602.99, -0.23221773, -0.06466325, -168372.0, -123145.62, 0.016934937, 9.98343, 9.981207 
7.346305e+2, 3.0536643e+2, -373766.63, -249336.78, 116474.484, 0.3283686, -0.19541185, -179502.47, -179502.47, 0.0128615545, 9.969669, 9.985966 
7.3424387e+2, 3.153574e+2, -438009.28, 57224.31, -25365.223, -0.18981104, 0.22028576, 58520.094, 58520.094, 0.008841697, 9.949909, 10.015568 
7.5205463e+2, 1.2608448e+2, -1672908.4, -1699723.9, -319.89157, 0.4624361, -0.121213086, -1672904.5, 31457.166, 0.17498668, 9.994684, 9.990366 
7.516317e+2, 1.3607466e+2, -1575011.5, -1609292.0, -3668.5828, 0.46906587, -0.13298371, -1574623.4, 31835.254, 0.12614638, 9.994869, 9.989706 
7.5120765e+2, 1.4606272e+2, -1489531.0, -1552497.1, -8346.617, 0.44291142, -0.11930417, -1488443.4, 20132.967, 0.07953291, 9.995301, 9.986699 
7.5078326e+2, 1.5604967e+2, -1381672.4, -1452071.5, -11866.812, 0.39316565, -0.09311194, -1379725.9, 30978.93, 0.043202266, 9.996046, 9.986527 
7.5035954e+2, 1.6603608e+2, -1278613.5, -1353890.1, -10693.629, 0.3581894, -0.09054187, -1277123.9, 35713.9, 0.021089088, 9.996469, 9.986414 
7.499365e+2, 1.7602237e+2, -1180959.1, -1260650.5, -15578.548, 0.32670227, -0.10125061, -1178022.0, 36949.51, 0.010653346, 9.996615, 9.986053 
7.495131e+2, 1.8600756e+2, -1093354.1, -1184254.0, -20051.227, 0.29585865, -0.10276081, -1089127.6, 27988.795, 0.006580735, 9.996536, 9.984658 
7.490895e+2, 1.9599216e+2, -1000165.9, -1093734.5, -19507.834, 0.27687258, -0.10230736, -996261.6, 23005.758, 0.004957941, 9.996447, 9.98421 
7.486679e+2, 2.0597535e+2, -906781.1, -1017785.9, -11928.909, 0.26104787, -0.10151557, -905513.7, 15918.11, 0.0040337862, 9.997025, 9.98254 
7.4824744e+2, 2.1595785e+2, -797819.06, -918961.2, -12232.765, 0.24045224, -0.10219089, -796596.1, 27006.844, 0.0033051015, 9.997989, 9.982182 
7.478295e+2, 2.2593959e+2, -713123.9, -835058.25, -3568.7708, 0.22397159, -0.1047045, -713019.56, 12762.366, 0.0027498256, 9.997453, 9.981609 
7.4741304e+2, 2.359211e+2, -642821.5, -756982.5, -1490.9318, 0.21205837, -0.110975035, -642802.06, -14838.995, 0.0024821605, 9.995868, 9.981083 
7.469998e+2, 2.4590054e+2, -564206.7, -701518.3, 10138.174, 0.17959066, -0.11239674, -563462.2, -33297.613, 0.0025934235, 9.995974, 9.978293 
7.465879e+2, 2.5587884e+2, -447154.63, -596202.44, 15934.257, 0.13842446, -0.11445289, -445470.16, -13092.687, 0.003082415, 9.997385, 9.978186 
7.461832e+2, 2.658565e+2, -385766.06, -528905.4, 50032.473, 0.1506919, -0.109353356, -370011.8, -35415.65, 0.0037860784, 9.995599, 9.977191 
7.4578243e+2, 2.7583382e+2, -341725.63, -449062.53, 59485.32, 0.18961503, -0.10543409, -315276.63, -78458.03, 0.00435749, 9.991578, 9.977889 
7.4538493e+2, 2.8581372e+2, -301636.6, -337870.53, 84167.95, 0.056442104, -0.11826802, -233657.88, -94642.445, 0.0044185617, 9.986019, 9.981637 
7.449894e+2, 2.957953e+2, -297640.25, -279360.44, 83637.086, -0.16745748, -0.13424723, -204365.34, -163169.61, 0.003867469, 9.979349, 9.982174 
7.4460036e+2, 3.057812e+2, -313036.3, -204481.38, 92290.3, 0.22113575, -0.040222373, -151690.9, -151690.9, 0.0029585045, 9.972538, 9.9871235 
7.442031e+2, 3.1576586e+2, -298011.72, -13965.717, -27265.506, 0.061297458, -0.33656436, -11372.188, -11372.188, 0.0020470452, 9.964799, 10.00277 
7.6204914e+2, 1.2650748e+2, -1688577.5, -1716946.5, -7378.29, 0.49154603, -0.094564535, -1686773.4, 13445.547, 0.12768431, 9.993698, 9.989753 
7.616266e+2, 1.3649757e+2, -1567454.5, -1614529.5, -11524.472, 0.45870957, -0.053824537, -1564784.6, 37532.105, 0.089724064, 9.995716, 9.989075 
7.6120293e+2, 1.4648527e+2, -1475183.1, -1550546.6, -13737.717, 0.4091499, -0.025205655, -1472757.0, 31681.008, 0.054134592, 9.996538, 9.986328 
7.6077914e+2, 1.5647176e+2, -1373344.0, -1454437.0, -13556.809, 0.34941134, -0.003980391, -1371137.6, 35433.613, 0.027072964, 9.996893, 9.986003 
7.60356e+2, 1.664571e+2, -1282302.9, -1366985.4, -12259.417, 0.35731843, -0.029417448, -1280563.8, 28150.705, 0.0111973565, 9.996676, 9.985432 
7.5993377e+2, 1.7644197e+2, -1193254.6, -1276768.4, -15706.052, 0.40278858, -0.08374401, -1190398.5, 20463.174, 0.004155564, 9.996195, 9.985153 
7.595101e+2, 1.8642645e+2, -1096913.1, -1189658.3, -19432.383, 0.34982258, -0.09738217, -1093006.3, 20007.092, 0.0017307227, 9.996455, 9.98432 
7.590857e+2, 1.9641078e+2, -994414.44, -1095807.4, -18990.02, 0.24029581, -0.090288445, -990974.5, 24192.332, 0.0009991154, 9.99706, 9.983771 
7.5866455e+2, 2.0639335e+2, -907830.2, -1027388.5, -8983.015, 0.21491423, -0.08792086, -907159.06, 10178.507, 0.00072969083, 9.997385, 9.981726 
7.5824535e+2, 2.1637502e+2, -808335.0, -932263.5, -9942.661, 0.23823656, -0.08847164, -807542.4, 11974.451, 0.0005714262, 9.997655, 9.98144 
7.57827e+2, 2.2635606e+2, -719184.94, -846922.1, -9440.381, 0.23274992, -0.08496064, -718491.0, 3211.485, 0.00046300524, 9.997382, 9.980798 
7.574089e+2, 2.3633684e+2, -637310.6, -762992.4, -6810.3486, 0.20912966, -0.08375089, -636942.7, -13051.892, 0.00041126565, 9.996594, 9.980295 
7.5699586e+2, 2.4631569e+2, -559075.6, -703242.7, 14881.978, 0.16988039, -0.085800774, -557555.44, -31457.148, 0.0004270279, 9.99661, 9.977877 
7.565852e+2, 2.5629354e+2, -450820.75, -600088.75, 18914.21, 0.12267728, -0.08820647, -448461.38, -20145.71, 0.00050814915, 9.997312, 9.977939 
7.5617844e+2, 2.6627192e+2, -382145.53, -514125.4, 35081.355, 0.12274484, -0.06360789, -373400.13, -42872.188, 0.0006273425, 9.99524, 9.978225 
7.557734e+2, 2.7625045e+2, -337255.16, -436166.44, 43501.695, 0.14713018, -0.03463185, -320845.34, -88107.375, 0.00072667096, 9.991372, 9.978712 
7.553711e+2, 2.8622994e+2, -306409.28, -344917.28, 59931.59, 0.08393958, -0.08966734, -262714.8, -127776.33, 0.00074158574, 9.985803, 9.981027 
7.5497e+2, 2.9621032e+2, -297478.0, -277045.44, 59856.395, -0.02550682, -0.16954629, -226539.72, -189409.45, 0.0006530343, 9.979169, 9.982183 
7.5457186e+2, 3.0619895e+2, -279594.03, -140937.56, 70117.95, 0.09481477, -0.02744756, -111660.875, -111660.875, 0.0005026703, 9.972732, 9.991112 
7.541683e+2, 3.1618744e+2, -295358.03, -48812.117, -23213.951, -0.058018524, -0.28970015, -46645.41, -46645.41, 0.00035015965, 9.96668, 9.999357 
7.7204317e+2, 1.2692776e+2, -1673799.1, -1718060.8, -569.0579, 0.45514828, -0.05667296, -1673791.8, 22311.34, 0.09095763, 9.995164, 9.989049 
7.716232e+2, 1.3691714e+2, -1546888.1, -1610723.0, -6858.394, 0.4390613, -0.018475097, -1546159.5, 52048.418, 0.06282214, 9.997419, 9.988584 
7.7120054e+2, 1.4690484e+2, -1445838.3, -1527601.8, -13977.851, 0.40886152, -0.016115667, -1443514.8, 56813.88, 0.03690004, 9.998137, 9.987158 
7.7077705e+2, 1.5689176e+2, -1348938.0, -1436068.4, -12587.958, 0.3716077, -0.030278632, -1347155.8, 55300.785, 0.01763206, 9.998208, 9.986631 
7.7035314e+2, 1.6687736e+2, -1271334.6, -1364750.5, -12431.636, 0.3529661, -0.04398214, -1269708.6, 34888.88, 0.006673461, 9.997436, 9.985194 
7.6992947e+2, 1.7686233e+2, -1190706.0, -1278830.6, -12225.936, 0.349339, -0.06267602, -1189041.3, 17703.098, 0.0020324262, 9.996399, 9.98488 
7.695065e+2, 1.8684667e+2, -1091313.5, -1192203.8, -7819.382, 0.32294822, -0.0528964, -1090711.1, 18186.633, 0.00056073064, 9.9970255, 9.983867 
7.69084e+2, 1.9683072e+2, -976509.9, -1092160.9, -8395.45, 0.27669477, -0.03060129, -975903.56, 35150.78, 0.00019287675, 9.998433, 9.983346 
7.686627e+2, 2.0681274e+2, -898475.25, -1026638.2, -2878.7656, 0.25219527, -0.043025926, -898410.6, 14819.42, 0.00010535429, 9.998057, 9.981385 
7.6824254e+2, 2.167938e+2, -821671.8, -943288.9, -268.8051, 0.24610841, -0.07107379, -821671.25, -6256.1123, 0.00007478476, 9.996807, 9.981017 
7.678242e+2, 2.2677413e+2, -727137.25, -861484.8, 5722.8086, 0.22653681, -0.06731186, -726893.9, -9285.94, 0.0000582694, 9.997199, 9.97983 
7.674066e+2, 2.367541e+2, -614091.1, -759808.9, 7545.6753, 0.19885537, -0.051942553, -613701.44, 6102.8647, 0.00005078276, 9.998393, 9.979578 
7.669928e+2, 2.4673297e+2, -547901.0, -691402.4, 25923.65, 0.1705304, -0.052867323, -543361.5, -21349.95, 0.00005233737, 9.996907, 9.9783945 
7.665809e+2, 2.5671127e+2, -493337.44, -614024.5, 34467.723, 0.14064756, -0.059654027, -484187.34, -59962.97, 0.000062174, 9.993922, 9.978422 
7.6617175e+2, 2.6669016e+2, -428124.78, -527530.25, 46560.33, 0.123032436, -0.039660662, -409722.97, -83291.59, 0.000076843724, 9.991501, 9.978861 
7.6576346e+2, 2.7666932e+2, -357814.34, -437477.28, 51557.16, 0.11545958, -0.014933174, -332494.56, -103859.04, 0.0000892777, 9.989376, 9.979343 
7.6535714e+2, 2.8664938e+2, -295441.38, -332691.13, 63559.28, 0.09689517, -0.06497696, -247834.33, -117003.875, 0.00009150969, 9.985987, 9.981423 
7.649514e+2, 2.966302e+2, -251939.27, -247716.6, 69558.39, 0.06774565, -0.13546102, -180237.5, -147219.61, 0.000081027414, 9.981696, 9.98254 
7.645452e+2, 3.066188e+2, -227288.53, -110937.69, 58688.71, 0.018413616, -0.019400306, -86476.89, -86476.89, 0.00006280653, 9.975836, 9.991382 
7.641374e+2, 3.1661177e+2, -262271.8, -52671.105, -22920.54, 0.03422833, 0.13712415, -50193.945, -50193.945, 0.00004412124, 9.969881, 9.997765 
7.820389e+2, 1.2734786e+2, -1645809.1, -1707538.0, -1300.4495, 0.44299987, -0.018528484, -1645781.8, 46207.34, 0.062321946, 9.997373, 9.988763 
7.8162026e+2, 1.3733672e+2, -1552958.0, -1616168.4, -5299.611, 0.41822627, -0.0018877876, -1552516.8, 41582.242, 0.042461134, 9.997051, 9.988417 
7.811983e+2, 1.4732455e+2, -1455711.4, -1524688.6, -15694.298, 0.40710402, -0.022632789, -1452308.4, 43909.35, 0.024464365, 9.997056, 9.987901 
7.8077525e+2, 1.5731199e+2, -1357296.3, -1433602.8, -17115.852, 0.40001053, -0.060287416, -1353632.9, 44707.0, 0.011362938, 9.997323, 9.987262 
7.8035045e+2, 1.6729806e+2, -1272486.5, -1364691.9, -18624.965, 0.34997347, -0.056716304, -1268866.5, 31609.73, 0.004107514, 9.9973, 9.985277 
7.799254e+2, 1.7728347e+2, -1179124.6, -1273691.9, -15009.977, 0.2848077, -0.03733398, -1176799.4, 25820.158, 0.001142861, 9.997204, 9.984844 
7.795034e+2, 1.8726778e+2, -1086746.0, -1194326.0, -4127.3374, 0.29251283, -0.0063076876, -1086588.0, 18185.66, 0.0002518874, 9.997588, 9.983483 
7.790829e+2, 1.9725156e+2, -982743.5, -1098575.6, -6654.7876, 0.32764187, 0.027359694, -982362.44, 24570.678, 0.000050957846, 9.998198, 9.9830475 
7.7866125e+2, 2.0723334e+2, -898148.9, -1026411.8, -7883.7734, 0.30035943, 0.00081738346, -897666.06, 11445.013, 0.000014560251, 9.998041, 9.981385 
7.782394e+2, 2.1721411e+2, -812971.06, -940979.94, -2765.528, 0.24803613, -0.052370988, -812911.3, -1612.7711, 0.000007675706, 9.997471, 9.980832 
7.7782136e+2, 2.2719386e+2, -728752.75, -871115.1, 10576.882, 0.2126975, -0.048110325, -727971.25, -14474.205, 0.000005500305, 9.997547, 9.979008 
7.7740484e+2, 2.3717317e+2, -623927.75, -768876.06, 10211.487, 0.1843829, -0.020886833, -623211.9, -7511.5366, 0.00000465826, 9.997958, 9.979148 
7.769897e+2, 2.4715252e+2, -545973.9, -677965.7, 15708.215, 0.17631063, -0.018887503, -544130.25, -26227.758, 0.000004751228, 9.996439, 9.979434 
7.765751e+2, 2.5713184e+2, -486490.34, -599394.75, 24403.207, 0.17370638, -0.027932594, -481441.6, -61336.74, 0.0000056177128, 9.993857, 9.979355 
7.7616334e+2, 2.6711112e+2, -423658.53, -519168.44, 38565.605, 0.1370453, -0.03410649, -410030.72, -87722.7, 0.000006925565, 9.991557, 9.979305 
7.7575254e+2, 2.770904e+2, -353212.97, -426690.6, 42569.813, 0.09057377, -0.0434013, -333720.75, -109209.69, 0.000008047148, 9.98933, 9.979995 
7.75343e+2, 2.8707215e+2, -286125.06, -311198.3, 47877.03, 0.09283928, -0.033896293, -249170.52, -122480.75, 0.000008273986, 9.985856, 9.982796 
7.749334e+2, 2.9705527e+2, -248482.05, -240201.5, 52412.434, 0.10434153, -0.004397339, -191766.06, -162910.94, 0.000007369043, 9.981625, 9.98292 
7.7452135e+2, 3.0703992e+2, -254972.25, -171218.75, 32933.332, 0.03435753, -0.0409362, -159820.13, -159820.13, 0.000005759996, 9.975843, 9.987043 
7.741073e+2, 3.170281e+2, -227608.14, 7377.713, -10674.723, -0.013671769, -0.00851097, 7861.638, 7861.638, 0.0000040906807, 9.970574, 10.001625 
7.920382e+2, 1.2776692e+2, -1612592.6, -1683325.5, -2112.4802, 0.50724703, -0.0014809057, -1612529.5, 75355.21, 0.04048696, 9.999157, 9.989509 
7.9161716e+2, 1.3775644e+2, -1539733.8, -1603449.5, -4010.7407, 0.38181552, 0.01003943, -1539482.3, 50505.324, 0.027255554, 9.997523, 9.988994 
7.911948e+2, 1.4774475e+2, -1453913.6, -1522416.3, -9153.716, 0.374657, 0.0065413304, -1452711.6, 39390.383, 0.015450946, 9.997004, 9.988062 
7.9077244e+2, 1.5773264e+2, -1356232.9, -1429897.1, -11646.424, 0.4091622, -0.0052893334, -1354435.5, 39785.094, 0.007020416, 9.997156, 9.987591 
7.9034823e+2, 1.6771933e+2, -1261253.9, -1350749.8, -10789.845, 0.37705684, -0.0020950134, -1259971.4, 36379.332, 0.002461426, 9.997617, 9.986071 
7.899237e+2, 1.7770535e+2, -1158725.8, -1258627.3, -5792.048, 0.31886265, 0.0066337697, -1158391.0, 40096.477, 0.0006538327, 9.9982815, 9.985324 
7.8950155e+2, 1.8768927e+2, -1079230.4, -1194691.9, 3885.119, 0.30458137, 0.0012198451, -1079099.8, 21545.174, 0.00013177797, 9.998148, 9.98315 
7.8908056e+2, 1.9767234e+2, -989150.7, -1103162.3, 2256.8855, 0.31106806, -0.006430729, -989106.06, 13704.877, 0.000020829584, 9.997694, 9.982942 
7.8865904e+2, 2.0765467e+2, -893701.06, -1018975.5, 4008.1528, 0.27797818, -0.0040432955, -893572.94, 11410.971, 0.0000030621693, 9.998007, 9.981859 
7.882375e+2, 2.1763639e+2, -792924.75, -928305.56, 10071.122, 0.22871158, -0.0046327747, -792179.6, 14983.144, 0.0000007418263, 9.99858, 9.981085 
7.8781885e+2, 2.2761606e+2, -730658.4, -874388.7, 21441.39, 0.20867433, -0.0021796394, -727527.94, -18165.74, 0.00000040005443, 9.997352, 9.978749 
7.8740144e+2, 2.3759493e+2, -659369.0, -785311.4, 23568.498, 0.198944, 0.0031594655, -655102.94, -43533.14, 0.00000031835086, 9.995336, 9.979137 
7.8698486e+2, 2.475746e+2, -573886.0, -683503.25, 27036.287, 0.18605465, -0.0013919807, -567580.44, -53811.89, 0.00000031928525, 9.994021, 9.980046 
7.865685e+2, 2.5755453e+2, -492408.84, -594686.94, 33809.53, 0.1739002, -0.010342991, -482243.03, -66278.48, 0.00000037428472, 9.992954, 9.979952 
7.861547e+2, 2.6753432e+2, -426419.56, -514538.34, 44754.0, 0.13886084, -0.014473789, -407676.5, -89513.74, 0.00000045857112, 9.99096, 9.979718 
7.857415e+2, 2.7751398e+2, -361028.5, -425036.66, 47930.17, 0.09594163, -0.025633067, -335399.6, -115037.64, 0.00000053179286, 9.988416, 9.980355 
7.8532875e+2, 2.8749594e+2, -282286.22, -307889.28, 42665.215, 0.08198252, -0.015935984, -250543.39, -128004.44, 0.0000005489155, 9.985904, 9.982845 
7.8491545e+2, 2.9747927e+2, -224477.88, -229527.06, 36338.727, 0.07703906, 0.026266323, -190576.14, -165873.97, 0.0000004941984, 9.983136, 9.98285 
7.844991e+2, 3.074631e+2, -208869.39, -163022.5, 25485.738, 0.06341449, -0.016852945, -151667.56, -151667.56, 0.0000003940638, 9.979321, 9.985698 
7.8407943e+2, 3.174491e+2, -148748.89, 59015.027, 24581.262, -0.08780867, -0.084872074, 61883.71, 61883.71, 0.00000028907198, 9.975358, 10.002664 
8.020382e+2, 1.2818852e+2, -1584944.1, -1667575.4, 6650.5317, 0.540475, 0.018308936, -1584412.3, 99343.04, 0.024554512, 10.000823, 9.989545 
8.0161464e+2, 1.3817808e+2, -1524634.4, -1593712.1, -120.97448, 0.355848, 0.024809856, -1524634.1, 61223.05, 0.016354568, 9.998383, 9.989077 
8.011917e+2, 1.4816658e+2, -1448007.9, -1518954.9, -1969.9326, 0.35176384, 0.038498003, -1447953.3, 40017.05, 0.009139995, 9.99738, 9.988024 
8.007695e+2, 1.581547e+2, -1355553.8, -1427161.0, -5421.4966, 0.40966552, 0.050638564, -1355145.6, 34941.69, 0.004075192, 9.99711, 9.987728 
8.00346e+2, 1.681418e+2, -1256487.9, -1341062.1, -5699.7144, 0.40046436, 0.052784212, -1256105.4, 36107.93, 0.0013936982, 9.997662, 9.986692 
7.9992247e+2, 1.7812832e+2, -1153465.0, -1251574.1, -5478.331, 0.3637549, 0.04790958, -1153160.0, 41185.01, 0.00035817598, 9.998475, 9.985726 
7.994998e+2, 1.8811186e+2, -1077773.8, -1195744.9, 1259.762, 0.3182472, 0.0027605612, -1077760.3, 18745.188, 0.00006886884, 9.998317, 9.982989 
7.990779e+2, 1.9809432e+2, -986290.75, -1100877.5, 2121.0676, 0.2743583, -0.04978314, -986251.5, 12425.016, 0.000009974428, 9.997857, 9.983002 
7.986567e+2, 2.0807746e+2, -891789.6, -1011305.2, 5605.3843, 0.23972794, -0.010047918, -891527.3, 9315.115, 0.0000011234129, 9.997889, 9.982447 
7.9823583e+2, 2.1806039e+2, -797485.75, -925700.06, 7884.7075, 0.20756276, 0.052994344, -797002.7, 6007.708, 0.00000011944032, 9.998081, 9.981514 
7.9781616e+2, 2.2804022e+2, -732002.56, -873326.5, 13772.906, 0.2111431, 0.049086194, -730672.9, -25464.598, 0.00000002597328, 9.997141, 9.978867 
7.97397e+2, 2.3801889e+2, -652389.6, -778371.8, 19129.264, 0.2229413, 0.023352368, -649549.06, -42131.785, 0.000000016044966, 9.995631, 9.979391 
7.96979e+2, 2.4799886e+2, -564965.9, -673642.1, 24020.31, 0.19285682, 0.008865601, -559893.5, -50280.484, 0.000000015501998, 9.994406, 9.980471 
7.965613e+2, 2.579792e+2, -485612.75, -585969.6, 28566.195, 0.15129447, -0.00011729108, -478051.25, -66246.23, 0.000000018105942, 9.993199, 9.9803705 
7.9614556e+2, 2.6795962e+2, -421980.13, -507106.47, 34615.164, 0.13550459, 0.018465716, -409681.38, -95684.375, 0.000000022974357, 9.991019, 9.980102 
7.957302e+2, 2.779399e+2, -360583.34, -423875.63, 38453.496, 0.123807326, 0.032890595, -342428.38, -126238.03, 0.000000030305337, 9.988397, 9.980347 
7.953144e+2, 2.8792045e+2, -290416.38, -324155.3, 32707.785, 0.05291832, -0.019592317, -270483.97, -152103.34, 0.00000004203578, 9.985875, 9.981641 
7.948976e+2, 2.9790196e+2, -224551.25, -231157.55, 24257.605, -0.029900583, -0.05352087, -203372.94, -182811.39, 0.00000006122884, 9.983174, 9.982601 
7.944792e+2, 3.07889e+2, -190901.05, -130306.79, 10416.416, 0.12125131, 0.10433083, -128566.164, -128566.164, 0.00000008877644, 9.979477, 9.987712 
7.940557e+2, 3.1787485e+2, -210281.56, -73402.445, 6501.761, -0.01071103, -0.027828304, -73094.305, -73094.305, 0.00000012154638, 9.975443, 9.993415 
8.120396e+2, 1.2861563e+2, -1572197.0, -1675488.6, 10855.447, 0.5054858, 0.055728152, -1571068.5, 108503.086, 0.013656359, 10.002033, 9.988198 
8.116139e+2, 1.386036e+2, -1518549.6, -1600766.6, 5338.4854, 0.39459407, 0.030127939, -1518204.4, 63484.6, 0.00901513, 9.999019, 9.988122 
8.1118953e+2, 1.4859153e+2, -1441976.8, -1517990.6, 9972.941, 0.36836985, 0.036187343, -1440690.1, 43117.293, 0.0049783196, 9.997733, 9.987802 
8.1076634e+2, 1.5857941e+2, -1355752.4, -1431331.1, 8348.326, 0.37836483, 0.048982248, -1354841.3, 31085.521, 0.0021846793, 9.997152, 9.987318 
8.1034356e+2, 1.6856593e+2, -1259586.9, -1350720.6, 10334.304, 0.3828853, 0.057390347, -1258429.8, 29629.215, 0.0007317571, 9.997723, 9.9859495 
8.0992115e+2, 1.7855188e+2, -1152460.5, -1254335.5, 5918.989, 0.37564793, 0.061201334, -1152117.8, 38078.91, 0.00018305305, 9.998581, 9.985453 
8.0949825e+2, 1.8853602e+2, -1070926.8, -1185391.1, 10202.573, 0.3185093, 0.042220347, -1070024.4, 22327.225, 0.00003398985, 9.998338, 9.983617 
8.090756e+2, 1.9851932e+2, -982668.75, -1095624.9, 13449.649, 0.2540486, 0.016513193, -981089.4, 13425.469, 0.0000046947775, 9.9978075, 9.983294 
8.086542e+2, 2.085021e+2, -902864.06, -1020681.4, 15581.889, 0.2399185, 0.03834665, -900838.1, -4154.319, 0.00000048595786, 9.997164, 9.982089 
8.082332e+2, 2.1848454e+2, -815521.94, -930181.06, 15424.486, 0.23653549, 0.07355173, -813483.25, -14626.742, 0.000000038831075, 9.996523, 9.981924 
8.07813e+2, 2.2846565e+2, -728144.2, -850607.94, 24747.8, 0.224167, 0.060407925, -723332.2, -22291.0, 0.000000003036451, 9.996361, 9.980696 
8.0739295e+2, 2.3844594e+2, -634277.4, -758434.3, 35840.2, 0.21141142, 0.03314665, -624674.25, -21440.467, 0.0000000006964356, 9.996238, 9.9802885 
8.069738e+2, 2.4842575e+2, -554559.7, -677379.2, 36152.98, 0.17550479, 0.029287957, -544708.0, -39276.285, 0.00000000078786694, 9.995355, 9.979596 
8.065548e+2, 2.5840548e+2, -472485.3, -582694.9, 33793.21, 0.13405429, 0.033145238, -462948.63, -55318.227, 0.0000000023191833, 9.994079, 9.98006 
8.0613697e+2, 2.6838624e+2, -404582.13, -492213.0, 34175.91, 0.13501702, 0.057265032, -392829.72, -83010.67, 0.000000010459106, 9.991736, 9.980645 
8.057191e+2, 2.7836704e+2, -346470.56, -412298.5, 38963.617, 0.14414972, 0.07432085, -328379.72, -116372.83, 0.00000004189838, 9.988975, 9.980724 
8.0530035e+2, 2.8834736e+2, -285655.28, -323118.28, 37883.543, 0.05769623, -0.004766341, -262125.31, -147926.08, 0.00000012886672, 9.98608, 9.9814005 
8.0488056e+2, 2.983283e+2, -223149.52, -231193.48, 35835.113, -0.050597046, -0.06635275, -191111.39, -174726.1, 0.00000030226394, 9.983144, 9.982336 
8.044603e+2, 3.0831602e+2, -149160.06, -111429.164, 11280.781, 0.15835948, 0.1792036, -108313.69, -108313.69, 0.0000005600859, 9.982247, 9.987533 
8.0403346e+2, 3.1829956e+2, -163146.38, -114477.9, -7642.535, -0.043967318, -0.07925062, -113305.99, -113305.99, 0.0000008622801, 9.9811125, 9.987781 
8.2204044e+2, 1.2904286e+2, -1605897.9, -1696094.5, -10575.218, 0.4783217, 0.09160418, -1604674.6, 70712.36, 0.006829297, 9.999789, 9.9879675 
8.2161325e+2, 1.3903025e+2, -1515808.5, -1603803.5, -4961.0044, 0.42959782, 0.04133315, -1515529.8, 61980.008, 0.0044781193, 9.999339, 9.987745 
8.2118773e+2, 1.4901784e+2, -1424447.6, -1512218.3, 5293.5747, 0.38359296, 0.04056514, -1424129.5, 55501.957, 0.0024504783, 9.999041, 9.987571 
8.207637e+2, 1.5900543e+2, -1333686.9, -1424635.4, 4356.7446, 0.35285833, 0.05051674, -1333478.6, 48274.7, 0.0010623109, 9.998846, 9.986976 
8.203413e+2, 1.689915e+2, -1252794.5, -1353896.6, 12669.065, 0.36379015, 0.061798237, -1251231.1, 32659.277, 0.00035011073, 9.998508, 9.985361 
8.199197e+2, 1.7897698e+2, -1157422.9, -1257648.1, 10123.776, 0.37481898, 0.07319472, -1156410.5, 29622.56, 0.00008574844, 9.998303, 9.985322 
8.194964e+2, 1.8896195e+2, -1069081.5, -1175236.5, 12180.368, 0.3143291, 0.08905116, -1067701.9, 20478.486, 0.000015493128, 9.998054, 9.984389 
8.190733e+2, 1.9894633e+2, -980440.75, -1090799.9, 14827.001, 0.24363917, 0.10114599, -978483.44, 11850.17, 0.0000020664195, 9.997789, 9.983579 
8.186515e+2, 2.0892853e+2, -901304.1, -1025294.56, 17599.217, 0.2525616, 0.09219222, -898854.5, -6346.482, 0.00000020419225, 9.997497, 9.981543 
8.182302e+2, 2.1891013e+2, -803163.94, -917643.06, 19281.592, 0.2745053, 0.0787404, -800003.6, -5315.153, 0.000000015030654, 9.997091, 9.982426 
8.1780946e+2, 2.288929e+2, -709425.5, -815445.3, 25365.951, 0.23479815, 0.059360668, -703669.06, -6812.766, 0.0000000008413565, 9.996541, 9.982972 
8.1738883e+2, 2.388753e+2, -631388.9, -746172.7, 31662.059, 0.18261251, 0.040210016, -623234.44, -24207.06, 0.0000000001313571, 9.99599, 9.981247 
8.1696886e+2, 2.4885468e+2, -567381.7, -698670.9, 30920.408, 0.14818487, 0.055989448, -560464.0, -59233.66, 0.0000000012207032, 9.995133, 9.978203 
8.165487e+2, 2.5883335e+2, -478324.47, -591836.94, 29294.723, 0.119482614, 0.079451084, -471210.13, -67769.62, 0.000000009745165, 9.993943, 9.979415 
8.161287e+2, 2.6881418e+2, -400929.25, -483708.6, 24861.818, 0.13453753, 0.09744523, -394036.25, -88408.17, 0.000000056615875, 9.991656, 9.981153 
8.157081e+2, 2.7879542e+2, -341284.78, -401488.06, 28987.375, 0.15653238, 0.100775704, -329596.75, -121785.1, 0.00000023978018, 9.988935, 9.9813795 
8.152869e+2, 2.8877652e+2, -280233.47, -311904.03, 25967.904, 0.09848068, 0.031439308, -265653.5, -155657.5, 0.00000074770037, 9.986045, 9.982076 
8.148644e+2, 2.9875815e+2, -225179.4, -236505.88, 28053.479, 0.016795125, -0.011765167, -202223.23, -190047.95, 0.0000017604058, 9.983196, 9.981863 
8.1444263e+2, 3.0874312e+2, -165051.25, -150458.52, 9984.341, 0.14193931, 0.16601726, -145388.64, -145388.64, 0.0000032669245, 9.982608, 9.984639 
8.14015e+2, 3.187252e+2, -120791.445, -37724.96, -24329.031, -0.046105165, -0.07646207, -31123.89, -31123.89, 0.0000050341396, 9.981489, 9.992719 
8.320395e+2, 1.2946787e+2, -1599146.4, -1666055.6, -3904.2993, 0.46205372, 0.11825632, -1598919.3, 72306.05, 0.0030089617, 9.999015, 9.990376 
8.316128e+2, 1.3945755e+2, -1503325.0, -1585958.6, 4341.3984, 0.42621157, 0.08822133, -1503097.5, 70227.664, 0.0019641386, 9.999598, 9.988778 
8.3118755e+2, 1.4944504e+2, -1416533.0, -1515032.5, 14920.736, 0.39858523, 0.09134731, -1414322.4, 61125.62, 0.0010681495, 9.999769, 9.986985 
8.3076376e+2, 1.5943217e+2, -1316219.0, -1414866.8, 11459.279, 0.38064364, 0.09917839, -1314905.4, 62669.164, 0.00045917454, 9.999858, 9.9871 
8.3034e+2, 1.6941892e+2, -1239008.8, -1335725.4, 20586.729, 0.3537248, 0.100025184, -1234809.1, 44895.445, 0.00014963388, 9.9987955, 9.986366 
8.2991713e+2, 1.7940523e+2, -1158188.6, -1247744.5, 23260.27, 0.32665506, 0.100348346, -1152507.6, 29330.746, 0.00003610315, 9.997659, 9.986182 
8.29494e+2, 1.8939087e+2, -1071095.1, -1167609.5, 28688.652, 0.3096515, 0.10611498, -1063211.4, 20767.639, 0.0000063962675, 9.997413, 9.985097 
8.290714e+2, 1.9937584e+2, -978682.4, -1082302.0, 32458.227, 0.28998607, 0.11164072, -969354.75, 16771.62, 0.00000083170164, 9.997449, 9.984197 
8.2864934e+2, 2.0935862e+2, -891097.5, -1013357.0, 38946.87, 0.26719517, 0.10329529, -879744.8, 8550.335, 0.000000079560614, 9.997767, 9.982061 
8.2822764e+2, 2.193406e+2, -788754.8, -910624.1, 41581.496, 0.24860536, 0.09105861, -775919.2, 14552.544, 0.0000000056200697, 9.997927, 9.98229 
8.2780594e+2, 2.2932272e+2, -714004.9, -828016.5, 35060.387, 0.22330911, 0.08444333, -704086.1, -11439.83, 0.00000000032575911, 9.996497, 9.982001 
8.273843e+2, 2.3930459e+2, -645454.5, -752102.5, 31989.06, 0.19289492, 0.07826706, -636595.3, -41771.957, 0.00000000048077403, 9.994831, 9.981399 
8.2696354e+2, 2.4928491e+2, -569899.7, -684194.7, 39273.344, 0.15884586, 0.08230998, -557705.75, -60689.12, 0.000000005239319, 9.994147, 9.979576 
8.265425e+2, 2.5926462e+2, -477267.47, -582284.25, 47770.51, 0.12745361, 0.0935895, -458788.88, -59572.77, 0.000000041851326, 9.993469, 9.980066 
8.2612044e+2, 2.692455e+2, -393538.34, -482246.4, 39505.496, 0.124741, 0.119322665, -378495.72, -77092.27, 0.0000002430437, 9.992084, 9.980789 
8.2569754e+2, 2.7922645e+2, -318513.47, -392646.38, 38525.953, 0.13253252, 0.12833588, -302118.06, -98528.164, 0.0000010289219, 9.990402, 9.981068 
8.252739e+2, 2.8920704e+2, -252992.13, -303231.72, 26003.814, 0.104868464, 0.04400735, -241956.66, -136176.92, 0.000003206874, 9.987888, 9.981638 
8.24849e+2, 2.9918835e+2, -194294.8, -223873.28, 25753.709, 0.057878144, 0.0016614037, -179385.97, -171423.69, 0.0000075463436, 9.985232, 9.981695 
8.2442546e+2, 3.0917364e+2, -152694.39, -149057.55, 26838.506, 0.12225132, 0.24171065, -123975.93, -123975.93, 0.000014001417, 9.983534, 9.984089 
8.239972e+2, 3.1915557e+2, -88484.04, 1642.8798, -6540.389, -0.01711823, 0.009422047, 2115.0334, 2115.0334, 0.000021580927, 9.982512, 9.994606 
8.4203887e+2, 1.2989484e+2, -1567453.5, -1632202.8, 4647.933, 0.4550737, 0.14371148, -1567121.5, 99922.71, 0.0011421927, 10.00042, 9.991895 
8.4161246e+2, 1.3988602e+2, -1494394.0, -1573746.8, 3004.1465, 0.4226047, 0.12983528, -1494280.4, 74848.61, 0.0007435361, 9.999897, 9.989455 
8.4118724e+2, 1.4987355e+2, -1426032.5, -1522435.9, 16106.27, 0.40848187, 0.1393665, -1423412.8, 47838.895, 0.00040280866, 9.99926, 9.98671 
8.407635e+2, 1.5986055e+2, -1328521.0, -1416170.8, 13710.018, 0.40179873, 0.14768162, -1326426.5, 46953.13, 0.00017225166, 9.998812, 9.9874525 
8.403386e+2, 1.6984807e+2, -1236728.6, -1321810.4, 19534.957, 0.34294793, 0.1370143, -1232457.8, 43043.645, 0.00005573453, 9.998363, 9.987468 
8.399144e+2, 1.7983533e+2, -1147648.0, -1232423.0, 21390.207, 0.28308773, 0.124435715, -1142556.6, 35068.85, 0.000013319515, 9.997921, 9.987075 
8.394915e+2, 1.8982151e+2, -1062299.8, -1156154.5, 26478.316, 0.30998713, 0.11602038, -1055345.0, 24415.44, 0.00000232996, 9.997713, 9.985749 
8.390694e+2, 1.9980703e+2, -971056.9, -1070042.4, 29186.354, 0.33905494, 0.10836976, -963092.06, 18810.115, 0.00000029792903, 9.997621, 9.984991 
8.3864725e+2, 2.0979083e+2, -885527.5, -999754.1, 36454.445, 0.2747795, 0.10702782, -874884.94, 9175.9795, 0.000000027884644, 9.99771, 9.983052 
8.382251e+2, 2.1977362e+2, -794951.25, -917546.25, 36730.566, 0.20487404, 0.10777899, -784788.8, 1440.707, 0.0000000019195052, 9.99767, 9.981951 
8.3780223e+2, 2.2975442e+2, -724513.56, -855176.0, 29180.594, 0.20852804, 0.12047267, -718292.9, -29874.717, 0.00000000019751621, 9.99669, 9.979996 
8.373794e+2, 2.3973487e+2, -635432.56, -745686.44, 31430.82, 0.2177978, 0.12847619, -627101.8, -36491.832, 0.0000000015260163, 9.995441, 9.9814625 
8.36958e+2, 2.4971683e+2, -548140.3, -643864.1, 37790.91, 0.1854952, 0.105383754, -535019.3, -42233.02, 0.000000016765284, 9.994373, 9.982168 
8.3653605e+2, 2.5969854e+2, -470917.53, -565200.3, 42499.7, 0.14416817, 0.087793134, -454588.2, -59623.38, 0.00000013388681, 9.99331, 9.981277 
8.361123e+2, 2.696795e+2, -400041.34, -493136.34, 32384.432, 0.104541324, 0.13188037, -389884.2, -92731.97, 0.0000007772567, 9.991964, 9.980048 
8.356874e+2, 2.7965975e+2, -325910.97, -407082.78, 30591.018, 0.076434284, 0.15853348, -315673.38, -116327.85, 0.0000032894218, 9.990345, 9.980034 
8.3526146e+2, 2.8963855e+2, -263230.72, -324453.16, 15216.23, 0.08001327, 0.031417567, -259657.44, -158104.13, 0.000010249668, 9.987851, 9.980108 
8.348344e+2, 2.996187e+2, -190015.67, -215879.02, 17521.684, 0.06943683, -0.022376075, -181170.34, -177422.45, 0.000024110983, 9.985254, 9.982153 
8.344088e+2, 3.096084e+2, -134070.4, -110661.375, 20651.334, 0.10248256, 0.45465305, -98628.3, -98628.3, 0.000044716184, 9.983556, 9.986618 
8.339796e+2, 3.195893e+2, -127580.055, -84329.21, 3623.9363, -0.04640583, 0.06462448, -84027.664, -84027.664, 0.00006893188, 9.98292, 9.9885235 
8.520398e+2, 1.3032487e+2, -1572817.9, -1646213.1, 13777.725, 0.4794792, 0.16345812, -1570316.8, 92514.586, 0.00036341642, 10.000446, 9.990805 
8.5161227e+2, 1.4031509e+2, -1498782.9, -1576161.0, 8257.968, 0.42407718, 0.1369716, -1497911.4, 67014.875, 0.00023620963, 9.999491, 9.989399 
8.5118586e+2, 1.5030348e+2, -1428514.1, -1511232.5, 24163.662, 0.38782182, 0.15624933, -1421972.6, 45067.47, 0.00012768328, 9.998423, 9.987783 
8.507612e+2, 1.6029155e+2, -1338581.0, -1412160.1, 25680.543, 0.3693804, 0.17189643, -1330504.5, 38652.887, 0.000054433065, 9.997617, 9.988192 
8.5033655e+2, 1.7027935e+2, -1242963.9, -1320237.4, 33007.566, 0.35169053, 0.14391635, -1230784.3, 40491.832, 0.00001753889, 9.997627, 9.9878435 
8.499127e+2, 1.8026674e+2, -1148597.5, -1233642.6, 32588.424, 0.32594082, 0.1177641, -1137546.1, 35852.957, 0.000004167791, 9.997771, 9.986993 
8.494893e+2, 1.9025277e+2, -1065256.0, -1162716.0, 34701.87, 0.31160682, 0.12883574, -1054162.8, 21373.549, 0.00000072355056, 9.99761, 9.9853115 
8.490666e+2, 2.0023826e+2, -969447.2, -1065331.8, 34871.12, 0.30274597, 0.13902923, -958106.6, 19572.068, 0.00000009158835, 9.997436, 9.985392 
8.4864455e+2, 2.1022296e+2, -884127.3, -986244.2, 41664.55, 0.26871568, 0.1312644, -869285.06, 10543.158, 0.000000008458323, 9.997118, 9.984252 
8.482225e+2, 2.2020681e+2, -798623.4, -909139.8, 43802.375, 0.22845949, 0.12695786, -783368.4, -1382.0619, 0.0000000005826384, 9.996845, 9.982903 
8.477993e+2, 2.3018849e+2, -709382.4, -840372.56, 45054.086, 0.20876709, 0.15200171, -695382.3, -11215.796, 0.00000000027701247, 9.997272, 9.9806 
8.473759e+2, 2.4016951e+2, -601945.56, -726026.4, 52635.473, 0.19796528, 0.17014763, -582625.6, 3727.4954, 0.0000000037648156, 9.997416, 9.981618 
8.4695286e+2, 2.501512e+2, -533531.25, -638185.06, 45686.71, 0.18849191, 0.13209297, -516393.2, -27861.174, 0.00000004137552, 9.995227, 9.981984 
8.4652936e+2, 2.601328e+2, -473383.2, -563360.0, 41712.824, 0.16936976, 0.10084749, -457020.8, -66309.305, 0.00000033035957, 9.992832, 9.981611 
8.461043e+2, 2.7011424e+2, -395351.2, -485775.72, 36112.867, 0.11799276, 0.1536524, -382699.06, -89805.78, 0.000001917329, 9.99191, 9.98052 
8.4567803e+2, 2.80095e+2, -311311.22, -397863.5, 39668.74, 0.07319655, 0.18711399, -295881.03, -100798.6, 0.00000811236, 9.991069, 9.980183 
8.452502e+2, 2.9007357e+2, -232402.83, -312887.34, 30473.326, 0.06636266, 0.055611625, -222166.73, -124874.484, 0.000025276431, 9.9899025, 9.979669 
8.4482104e+2, 3.0005315e+2, -146259.0, -203076.55, 36072.625, 0.056818057, 0.006835414, -128751.625, -128751.625, 0.000059457765, 9.988408, 9.981227 
8.443935e+2, 3.1004176e+2, -111918.33, -113243.36, 11043.752, 0.12475384, 0.48758477, -101517.234, -101517.234, 0.00011023596, 9.985415, 9.985553 
8.4396255e+2, 3.2002133e+2, -131988.2, -83748.88, 6.5837812, -0.0405632, 0.015559942, -83748.88, -83748.88, 0.0001699231, 9.982389, 9.988958 
8.6204046e+2, 1.3075621e+2, -1576273.5, -1660802.9, 12419.954, 0.4916324, 0.17333214, -1574486.4, 84118.945, 0.00009383463, 10.000771, 9.989592 
8.616118e+2, 1.4074561e+2, -1495410.6, -1573292.0, 6035.0337, 0.42173278, 0.15219621, -1494945.8, 65763.59, 0.00006094004, 9.999658, 9.989451 
8.611842e+2, 1.5073489e+2, -1411419.5, -1489309.6, 22521.78, 0.37020966, 0.1686832, -1405376.3, 57437.754, 0.00003290037, 9.99898, 9.988966 
8.607588e+2, 1.60724e+2, -1321264.4, -1395506.0, 24346.617, 0.34411228, 0.18200913, -1313992.5, 50928.258, 0.000014001087, 9.99844, 9.988903 
8.603344e+2, 1.7071214e+2, -1236557.3, -1313677.1, 32900.965, 0.3653593, 0.14829202, -1224428.5, 42607.746, 0.0000045003767, 9.997929, 9.988144 
8.599109e+2, 1.8069966e+2, -1151339.9, -1236371.3, 32347.496, 0.3710505, 0.11850885, -1140433.3, 28724.953, 0.0000010659371, 9.997654, 9.986859 
8.594869e+2, 1.906855e+2, -1064573.3, -1166766.3, 37967.527, 0.30537295, 0.14757475, -1052011.4, 19286.135, 0.00000018424288, 9.997852, 9.984874 
8.590636e+2, 2.0067091e+2, -959806.5, -1055757.5, 40022.56, 0.24983992, 0.17456996, -945304.4, 28136.584, 0.000000023185766, 9.997883, 9.985751 
8.586416e+2, 2.1065645e+2, -876534.0, -969990.06, 43721.652, 0.26472005, 0.15884587, -859269.1, 16313.322, 0.0000000021246724, 9.997089, 9.985313 
8.5821974e+2, 2.2064136e+2, -794499.06, -891604.9, 45944.184, 0.26999825, 0.14718994, -776207.0, 1523.1138, 0.00000000016612564, 9.996479, 9.98425 
8.5779655e+2, 2.3062469e+2, -702756.75, -818341.5, 48022.99, 0.208915, 0.18056546, -685408.2, -5514.2256, 0.0000000005117208, 9.996959, 9.982242 
8.573729e+2, 2.4060701e+2, -605375.9, -726748.06, 49440.81, 0.15828659, 0.20493297, -587785.56, -5717.8003, 0.000000007636883, 9.997125, 9.981666 
8.56948e+2, 2.505875e+2, -541532.75, -658349.1, 37037.895, 0.18155394, 0.16031261, -530779.4, -46520.86, 0.000000083933806, 9.99531, 9.980475 
8.5652244e+2, 2.6056796e+2, -467531.8, -560464.9, 37800.97, 0.19784187, 0.12516087, -454098.0, -67648.35, 0.0000006701713, 9.993213, 9.981549 
8.560966e+2, 2.7055028e+2, -386059.75, -468012.16, 33726.496, 0.15406983, 0.17953987, -373965.0, -85342.37, 0.000003889244, 9.992, 9.981638 
8.556695e+2, 2.8053212e+2, -304963.56, -382637.78, 35628.895, 0.10683755, 0.21388006, -291096.4, -100295.74, 0.000016458524, 9.990997, 9.98121 
8.5524e+2, 2.9051194e+2, -226787.47, -301559.5, 25251.006, 0.05496683, 0.119903386, -219058.88, -126061.08, 0.000051312716, 9.989929, 9.980372 
8.5480917e+2, 3.0049133e+2, -165825.86, -244115.0, 27157.152, 0.0184044, 0.0775068, -157327.94, -157327.94, 0.00012079808, 9.988393, 9.978355 
8.543798e+2, 3.1047145e+2, -154771.58, -201508.9, -4329.3066, 0.21231176, 0.24077515, -154373.94, -154373.94, 0.00022408634, 9.985312, 9.97948 
8.5394466e+2, 3.2045355e+2, -39884.03, 114964.0, -15054.105, -0.032532826, 0.08682506, 116413.96, 116413.96, 0.00034551264, 9.982, 10.002661 
8.720406e+2, 1.3118897e+2, -1596598.9, -1684157.8, 16950.924, 0.4663693, 0.1636399, -1593431.8, 60933.48, 0.000019043677, 9.999873, 9.988344 
8.71611e+2, 1.4117813e+2, -1503919.3, -1575426.0, 12286.432, 0.41651475, 0.20425154, -1501867.0, 54605.496, 0.000012362725, 9.998898, 9.989584 
8.7118334e+2, 1.5116774e+2, -1408063.4, -1476297.0, 31345.63, 0.3885571, 0.1677642, -1395849.9, 62723.875, 0.0000066696857, 9.998632, 9.989951 
8.707577e+2, 1.6115728e+2, -1317397.0, -1388340.9, 31084.217, 0.37638706, 0.14335074, -1305704.5, 54971.1, 0.000002835376, 9.998371, 9.9893465 
8.7033224e+2, 1.7114623e+2, -1240140.9, -1313923.4, 38929.09, 0.36661077, 0.17233144, -1223399.8, 39384.81, 0.0000009100635, 9.997502, 9.988263 
8.69908e+2, 1.8113457e+2, -1153820.8, -1227601.0, 42276.24, 0.3455235, 0.19269612, -1134602.4, 30296.768, 0.00000021513608, 9.996964, 9.987734 
8.694845e+2, 1.9112138e+2, -1055933.8, -1145643.8, 55121.164, 0.28731427, 0.18591662, -1029723.25, 37305.086, 0.000000037089958, 9.997637, 9.986319 
8.690615e+2, 2.0110764e+2, -952847.6, -1045542.1, 57106.58, 0.24336585, 0.1815242, -925647.44, 43515.582, 0.0000000046516857, 9.997931, 9.986248 
8.686384e+2, 2.1109334e+2, -883846.2, -973273.2, 55818.906, 0.26730028, 0.18075691, -857040.1, 14262.754, 0.0000000004243601, 9.996404, 9.985252 
8.682155e+2, 2.2107859e+2, -804649.2, -885945.3, 60765.813, 0.27858347, 0.17790055, -772189.5, 1257.9719, 0.00000000007172086, 9.995205, 9.98514 
8.677928e+2, 2.3106296e+2, -707940.6, -802805.0, 65686.54, 0.2105546, 0.17603478, -674351.0, 1249.4163, 0.00000000090821445, 9.99573, 9.983797 
8.673694e+2, 2.410463e+2, -611792.1, -723389.75, 65662.74, 0.15117948, 0.17848875, -581421.9, -3658.1055, 0.000000013716953, 9.996268, 9.982192 
8.669437e+2, 2.5102714e+2, -523430.44, -652344.94, 56130.082, 0.16082025, 0.17905132, -502416.5, -22464.615, 0.00000015076525, 9.996495, 9.980114 
8.66517e+2, 2.6100764e+2, -422247.66, -539027.06, 59193.86, 0.1730366, 0.17797029, -397491.28, -15348.065, 0.0000012040816, 9.996121, 9.981348 
8.6608934e+2, 2.7098942e+2, -362121.66, -457081.94, 47384.58, 0.15624751, 0.19522785, -342522.28, -58200.99, 0.000006992672, 9.993431, 9.981467 
8.656606e+2, 2.809708e+2, -304441.16, -384402.88, 46330.273, 0.12799002, 0.20176822, -283225.9, -96722.73, 0.000029645124, 9.990935, 9.980998 
8.652303e+2, 2.9095078e+2, -212286.2, -298365.2, 29905.06, 0.050707813, 0.1535004, -202916.63, -114217.74, 0.0000927102, 9.990931, 9.980105 
8.6479837e+2, 3.0093017e+2, -133762.48, -231827.48, 25018.41, -0.0016280193, 0.13463694, -127748.58, -127748.58, 0.00021904246, 9.990469, 9.978154 
8.643661e+2, 3.1090793e+2, -135770.64, -205676.98, 26420.168, 0.23392238, 0.13936487, -126908.87, -126908.87, 0.0004076202, 9.986869, 9.977943 
8.639273e+2, 3.2089245e+2, 17691.078, 185900.86, 14485.956, -0.06534465, 0.2251015, 187139.25, 187139.25, 0.00062982744, 9.983843, 10.006223 
8.8204026e+2, 1.316223e+2, -1596343.4, -1683629.6, 8210.517, 0.45220745, 0.16695964, -1595577.8, 54542.527, 0.000002958578, 9.999863, 9.988405 
8.8160986e+2, 1.4161204e+2, -1499649.8, -1566810.4, 13783.412, 0.41364914, 0.24887086, -1496931.0, 55291.3, 0.0000019202917, 9.998902, 9.9900875 
8.8118196e+2, 1.5160197e+2, -1409108.8, -1467809.4, 32861.973, 0.40626997, 0.17314345, -1394398.4, 59921.484, 0.0000010355539, 9.998175, 9.990715 
8.807561e+2, 1.6159192e+2, -1324043.0, -1386926.3, 29398.418, 0.40439808, 0.12376914, -1312440.0, 43977.715, 0.0000004399312, 9.997704, 9.989745 
8.8032967e+2, 1.7158166e+2, -1236973.5, -1309449.6, 38411.4, 0.359839, 0.20507863, -1220404.0, 38115.8, 0.00000014107277, 9.997571, 9.988496 
8.799047e+2, 1.8157087e+2, -1138328.0, -1207375.3, 45557.918, 0.31060624, 0.26543123, -1115690.5, 44935.965, 0.00000003330806, 9.997488, 9.988829 
8.79482e+2, 1.9155891e+2, -1045974.56, -1120810.5, 57399.176, 0.27510524, 0.22051392, -1014874.1, 47868.746, 0.0000000057331504, 9.997487, 9.988095 
8.7905943e+2, 2.0154625e+2, -956726.9, -1041246.8, 52376.277, 0.25252235, 0.18430573, -931687.7, 33178.664, 0.00000000071752804, 9.997375, 9.986813 
8.786348e+2, 2.1153216e+2, -878183.8, -971454.5, 50335.367, 0.26920056, 0.20261806, -856200.6, 10803.706, 0.00000000006547386, 9.996778, 9.985156 
8.7821084e+2, 2.215177e+2, -783498.7, -864931.1, 61870.51, 0.2719256, 0.20815812, -750148.94, 18996.982, 0.000000000075104825, 9.996196, 9.986073 
8.7778866e+2, 2.3150307e+2, -692919.25, -777768.2, 66789.89, 0.21303856, 0.15923384, -656219.0, 15069.718, 0.0000000014740101, 9.996033, 9.985374 
8.7736565e+2, 2.4148746e+2, -609662.75, -712394.0, 64837.84, 0.1559677, 0.13380685, -578309.7, -4868.441, 0.000000022289068, 9.996018, 9.9830885 
8.7693995e+2, 2.5146952e+2, -524334.9, -647384.75, 56070.555, 0.12965764, 0.19885561, -502617.88, -26999.854, 0.0000002449646, 9.996236, 9.980571 
8.765126e+2, 2.6145074e+2, -426634.8, -543109.44, 53546.215, 0.1173758, 0.24273893, -405759.66, -27957.057, 0.0000019576598, 9.995867, 9.981134 
8.7608254e+2, 2.714312e+2, -366220.44, -468668.47, 36177.227, 0.13815309, 0.19948961, -354733.28, -74739.9, 0.000011400719, 9.993481, 9.980554 
8.7565166e+2, 2.8141114e+2, -309729.6, -401508.8, 42825.742, 0.13995825, 0.16147321, -292850.56, -110661.055, 0.000048631977, 9.991223, 9.979632 
8.7522143e+2, 2.913899e+2, -222284.19, -320695.9, 31120.432, 0.05421029, 0.15782557, -213268.94, -128871.43, 0.00015357231, 9.991071, 9.9785 
8.7478864e+2, 3.0136967e+2, -110165.086, -182408.48, 14679.398, -0.012762837, 0.18789425, -107296.25, -107296.25, 0.00036699927, 9.990383, 9.9815035 
8.74352e+2, 3.1135342e+2, -101222.72, -130395.766, 13939.809, 0.15321943, 0.2659448, -95632.89, -95632.89, 0.00068988843, 9.986576, 9.983105 
8.739112e+2, 3.2133436e+2, -106232.195, -67027.91, 11041.801, -0.047792178, 0.14702722, -64131.926, -64131.926, 0.0010735199, 9.983628, 9.988931 
8.920397e+2, 1.3205531e+2, -1590557.9, -1641606.3, 9427.715, 0.4758508, 0.18342166, -1588872.4, 57007.31, 0.00000034527207, 9.998494, 9.991883 
8.9160824e+2, 1.420477e+2, -1506539.3, -1557327.5, 18033.775, 0.41242775, 0.26460063, -1500787.3, 47167.543, 0.00000022408217, 9.997798, 9.9911785 
8.911794e+2, 1.5203819e+2, -1426464.6, -1476727.6, 36757.375, 0.39768308, 0.23126325, -1407068.6, 42979.2, 0.00000012080618, 9.996932, 9.9906435 
8.907529e+2, 1.6202849e+2, -1337507.5, -1386816.0, 35561.35, 0.3905596, 0.20435399, -1318890.0, 33252.62, 0.000000051297388, 9.996447, 9.990321 
8.903268e+2, 1.7201857e+2, -1237865.6, -1298660.8, 48114.5, 0.34316748, 0.23255253, -1211350.9, 42889.414, 0.00000001643881, 9.996985, 9.989465 
8.899021e+2, 1.8200825e+2, -1136310.1, -1199331.0, 53652.023, 0.3032721, 0.25422606, -1105599.6, 50742.066, 0.000000003877973, 9.99725, 9.989414 
8.894792e+2, 1.91997e+2, -1056337.3, -1119362.3, 61452.46, 0.31138277, 0.2302912, -1018788.6, 39662.574, 0.00000000066676814, 9.99641, 9.988663 
8.8905644e+2, 2.0198518e+2, -970433.4, -1037466.6, 57838.008, 0.30738714, 0.20888594, -937102.4, 23464.254, 0.00000000008333369, 9.995923, 9.98776 
8.886317e+2, 2.1197212e+2, -865719.0, -951307.44, 61621.242, 0.2629424, 0.21300149, -833489.7, 29205.11, 0.000000000010516922, 9.996967, 9.986391 
8.882075e+2, 2.2195862e+2, -760225.44, -848744.25, 71754.99, 0.22820038, 0.22064792, -720177.8, 44649.45, 0.00000000009886734, 9.997463, 9.986465 
8.877846e+2, 2.3194465e+2, -693669.06, -776022.5, 69844.94, 0.21340807, 0.22472599, -653766.56, 13197.448, 0.0000000020481024, 9.995735, 9.985577 
8.8736105e+2, 2.4192996e+2, -621273.6, -699270.94, 69897.47, 0.19023381, 0.21926652, -580231.4, -11123.491, 0.000000030974796, 9.99428, 9.984813 
8.8693523e+2, 2.5191367e+2, -532782.8, -623758.06, 71647.57, 0.1497379, 0.21226175, -493402.9, -22135.482, 0.00000034048438, 9.994315, 9.983025 
8.8650775e+2, 2.6189655e+2, -430965.5, -529513.4, 78708.54, 0.11795865, 0.21491091, -387379.56, -13944.392, 0.0000027257565, 9.994691, 9.982442 
8.860769e+2, 2.7187806e+2, -327711.47, -443662.94, 68529.05, 0.119138844, 0.21238464, -295924.1, -20308.219, 0.000015971162, 9.995581, 9.980928 
8.8564444e+2, 2.8185838e+2, -257074.9, -375426.34, 78417.7, 0.12084026, 0.20092551, -218010.61, -40202.027, 0.0000690861, 9.994432, 9.979411 
8.8521177e+2, 2.9183623e+2, -253115.78, -348863.44, 77037.29, 0.078827746, 0.19182327, -210288.73, -130262.36, 0.00022324531, 9.989116, 9.977036 
8.8477796e+2, 3.0181542e+2, -137498.81, -180624.39, 64518.37, 0.016082605, 0.22311121, -91035.33, -91035.33, 0.0005485991, 9.987575, 9.982564 
8.8434094e+2, 3.1180036e+2, 8409.887, -69014.28, 31017.105, 0.061791927, 0.29446194, 19303.107, 19303.107, 0.0010574318, 9.993616, 9.983819 
8.8390154e+2, 3.2177624e+2, -5879.803, -171124.88, 13126.797, 0.007313842, 0.11142206, -4843.531, -4843.531, 0.0016748939, 9.997044, 9.975247 
9.020381e+2, 1.3248977e+2, -1577908.1, -1605780.0, 13015.814, 0.47885904, 0.22068246, -1572775.1, 68849.55, 0.000000029867618, 9.998068, 9.99445 
9.0160596e+2, 1.4248379e+2, -1501682.6, -1546410.8, 12465.697, 0.41074374, 0.2688053, -1498443.1, 45240.06, 0.000000019382966, 9.997743, 9.991958 
9.011763e+2, 1.5247492e+2, -1419213.1, -1472667.0, 32968.754, 0.3864817, 0.28450325, -1403498.8, 42271.773, 0.000000010447276, 9.997386, 9.990695 
9.007494e+2, 1.624657e+2, -1323120.1, -1373097.8, 35437.05, 0.37292525, 0.28210795, -1304747.4, 43113.742, 0.000000004434464, 9.99715, 9.990921 
9.003237e+2, 1.724561e+2, -1227883.6, -1283110.0, 46698.293, 0.33065748, 0.2518516, -1201245.4, 48709.367, 0.0000000014203173, 9.997232, 9.990449 
8.9989936e+2, 1.8244621e+2, -1134442.1, -1192417.8, 47292.47, 0.30645004, 0.23362018, -1107960.4, 44090.613, 0.00000000033482794, 9.997107, 9.989992 
8.99476e+2, 1.9243576e+2, -1053743.9, -1112640.3, 55421.227, 0.35244375, 0.2392038, -1020432.94, 33720.227, 0.000000000057520166, 9.996322, 9.98917 
8.990529e+2, 2.0242487e+2, -962625.0, -1020465.4, 58353.727, 0.35827038, 0.23803209, -926418.1, 29841.66, 0.0000000000071813653, 9.995916, 9.988942 
8.9862853e+2, 2.1241316e+2, -858719.94, -928809.75, 64371.254, 0.24831599, 0.22143874, -820472.25, 37902.527, 0.00000000000428494, 9.996679, 9.988101 
8.982044e+2, 2.224009e+2, -764983.75, -847912.25, 67737.14, 0.1778056, 0.23472564, -727027.56, 33467.824, 0.00000000010849106, 9.996975, 9.986742 
8.9778036e+2, 2.3238769e+2, -692349.3, -775677.9, 65585.67, 0.21757229, 0.32147646, -656312.94, 6312.9346, 0.000000002258234, 9.9957695, 9.98551 
8.9735585e+2, 2.4237408e+2, -598006.25, -660744.4, 72442.734, 0.23622559, 0.34573668, -550432.5, 14326.829, 0.000000034158017, 9.994694, 9.987181 
8.9693004e+2, 2.5235984e+2, -505239.28, -569310.6, 73912.836, 0.1937921, 0.21063444, -456718.2, 10178.678, 0.00000037566133, 9.994453, 9.986654 
8.9650273e+2, 2.6234522e+2, -414628.2, -493596.4, 82471.13, 0.14470677, 0.14098111, -362676.63, 6362.5537, 0.00000301649, 9.99466, 9.984933 
8.960723e+2, 2.7232978e+2, -316762.16, -418083.97, 69635.33, 0.09301939, 0.24214704, -281309.16, -10117.97, 0.000017853601, 9.995536, 9.982688 
8.9563835e+2, 2.823123e+2, -248685.9, -354194.6, 60094.703, 0.07968449, 0.29854578, -221475.3, -48112.605, 0.000079075995, 9.994137, 9.980855 
8.9520115e+2, 2.922903e+2, -258275.94, -356418.9, 62626.46, 0.12872359, 0.24686609, -227785.6, -152206.28, 0.00026623905, 9.988745, 9.976614 
8.9476615e+2, 3.0226862e+2, -148716.45, -203297.45, 82658.65, 0.08178536, 0.22981238, -88959.7, -88959.7, 0.00069019, 9.9876585, 9.981065 
8.943339e+2, 3.1224847e+2, -20029.658, -140372.42, 55611.438, -0.05147089, 0.17983116, 1733.247, 1733.247, 0.0014013384, 9.994404, 9.978675 
8.9390063e+2, 3.222213e+2, -13546.192, -214515.88, 6528.891, 0.104038134, 0.28215176, -13334.312, -13334.312, 0.0023083058, 9.99825, 9.971575 
9.120348e+2, 1.3292632e+2, -1605076.6, -1623433.4, 16952.855, 0.42807695, 0.30913356, -1594977.0, 42372.08, 0.000000001903787, 9.996409, 9.99402 
9.116032e+2, 1.4291888e+2, -1515911.8, -1549201.9, 12875.322, 0.41528812, 0.23019464, -1511513.3, 27907.54, 0.0000000012354053, 9.996587, 9.992327 
9.111734e+2, 1.5291102e+2, -1423718.4, -1467724.0, 34399.195, 0.38064083, 0.28228998, -1404887.0, 36611.316, 0.00000000066574474, 9.996762, 9.991324 
9.1074646e+2, 1.629024e+2, -1328396.4, -1376224.6, 36532.406, 0.36671287, 0.30480778, -1308647.0, 34936.1, 0.0000000002824927, 9.996805, 9.990862 
9.103209e+2, 1.7289251e+2, -1237805.6, -1289032.0, 45132.594, 0.34998304, 0.26252687, -1211524.9, 34154.6, 0.00000000009044054, 9.996592, 9.990369 
9.098962e+2, 1.8288289e+2, -1141904.6, -1186612.8, 42567.28, 0.33132866, 0.23784404, -1116178.8, 31594.84, 0.000000000021308946, 9.996147, 9.990875 
9.094717e+2, 1.9287372e+2, -1057158.1, -1100280.0, 51891.266, 0.33463028, 0.25366843, -1022526.75, 27336.715, 0.000000000003658245, 9.995434, 9.990445 
9.0904796e+2, 2.0286423e+2, -966773.1, -1007853.44, 59513.742, 0.31802654, 0.2664657, -924354.75, 27601.72, 0.00000000000045636807, 9.994994, 9.990252 
9.086242e+2, 2.1285418e+2, -871478.94, -917350.75, 65950.77, 0.23620813, 0.26862204, -824589.6, 29465.557, 0.0000000000030655227, 9.995041, 9.989689 
9.082003e+2, 2.2284354e+2, -778442.9, -831512.9, 69793.37, 0.18865344, 0.26999542, -730310.44, 25849.123, 0.0000000000903565, 9.995037, 9.988776 
9.077759e+2, 2.3283187e+2, -684974.1, -744135.75, 76460.58, 0.23138309, 0.28127888, -632571.75, 25702.434, 0.0000000018811002, 9.995017, 9.987892 
9.073507e+2, 2.428202e+2, -585107.56, -633176.3, 88578.35, 0.2476093, 0.28803694, -517360.8, 43027.62, 0.000000028451819, 9.99458, 9.988916 
9.069239e+2, 2.5280878e+2, -507520.53, -545719.6, 84030.08, 0.19489151, 0.25082085, -440446.75, 22052.914, 0.00000031314025, 9.993131, 9.988764 
9.0649587e+2, 2.627967e+2, -437877.47, -478584.84, 92986.11, 0.138183, 0.22282295, -363043.5, 1573.9214, 0.0000025239594, 9.991838, 9.987253 
9.0606534e+2, 2.7278343e+2, -357328.3, -401405.72, 87202.64, 0.07968793, 0.25896063, -289422.56, -22674.838, 0.000015124688, 9.991022, 9.985887 
9.056304e+2, 2.8276938e+2, -266702.44, -313203.9, 83227.375, 0.06881286, 0.29353827, -203539.08, -34653.1, 0.00006901787, 9.990354, 9.985208 
9.051879e+2, 2.9275346e+2, -257530.48, -280001.84, 104121.195, 0.1329174, 0.29669347, -164040.52, -92997.766, 0.00024569064, 9.98476, 9.982981 
9.220311e+2, 1.3336208e+2, -1600573.0, -1625514.4, 12311.092, 0.40709105, 0.34865543, -1595520.0, 37560.496, 0.00000000008526822, 9.996904, 9.993682 
9.2159975e+2, 1.4335416e+2, -1514048.8, -1543166.9, 10745.071, 0.41927856, 0.22103569, -1510513.0, 24644.018, 0.00000000005532455, 9.996498, 9.992817 
9.211702e+2, 1.5334707e+2, -1417463.8, -1457089.0, 32460.086, 0.37877187, 0.28026733, -1399247.5, 37979.203, 0.000000000029806633, 9.996873, 9.992027 
9.207433e+2, 1.6333903e+2, -1325477.0, -1372511.8, 35513.17, 0.36794952, 0.31178504, -1306400.4, 32905.293, 0.000000000012643394, 9.996904, 9.991066 
9.2031765e+2, 1.7332934e+2, -1238662.0, -1287261.3, 49514.96, 0.37227723, 0.2741987, -1207805.4, 33594.99, 0.0000000000040459667, 9.996435, 9.990492 
9.1989243e+2, 1.8332015e+2, -1136941.8, -1173372.8, 48646.266, 0.3510554, 0.25342077, -1103212.4, 40278.027, 0.000000000000952743, 9.996004, 9.991738 
9.1946685e+2, 1.9331212e+2, -1043165.0, -1078737.9, 55148.43, 0.30193722, 0.27176553, -1003005.7, 42563.66, 0.00000000000016345195, 9.995737, 9.991684 
9.1904247e+2, 2.03304e+2, -951406.5, -985849.5, 63101.38, 0.26339257, 0.29489756, -903218.75, 44430.566, 0.000000000000020373985, 9.995425, 9.991497 
9.1861916e+2, 2.1329556e+2, -860228.0, -894415.5, 68639.305, 0.23170087, 0.32288942, -806585.94, 43145.9, 0.0000000000018606304, 9.995073, 9.991197 
9.181956e+2, 2.2328666e+2, -763126.6, -793755.6, 71174.516, 0.21691251, 0.3005555, -705637.6, 46181.176, 0.000000000055557395, 9.994789, 9.991451 
9.17771e+2, 2.3327692e+2, -665650.06, -696073.4, 75134.46, 0.24415709, 0.18721895, -604202.8, 49710.02, 0.0000000011563022, 9.994687, 9.991338 
9.173452e+2, 2.4326773e+2, -579178.9, -613612.6, 82213.69, 0.24109069, 0.17227104, -512398.7, 43604.12, 0.000000017486771, 9.994239, 9.990416 
9.169167e+2, 2.5325963e+2, -495988.38, -521089.44, 76805.28, 0.1737585, 0.32993296, -430714.97, 27368.67, 0.00000019261098, 9.99306, 9.990451 
9.164875e+2, 2.6325032e+2, -417956.78, -439255.1, 89609.695, 0.113608375, 0.38207266, -338365.7, 21809.828, 0.000001557747, 9.991925, 9.989868 
9.160564e+2, 2.7323925e+2, -324196.5, -331839.44, 85561.734, 0.07801674, 0.24980424, -242370.95, 19912.512, 0.000009437413, 9.990991, 9.99063 
9.1562086e+2, 2.8323025e+2, -216560.11, -207072.89, 84141.23, 0.07661401, 0.21519113, -127541.67, 36829.676, 0.00004425717, 9.99028, 9.992493 
9.1517216e+2, 2.932263e+2, -159218.72, -76188.88, 63802.44, 0.08199911, 0.35331914, -41583.9, 24826.883, 0.00016661992, 9.984768, 9.99641 
9.32028e+2, 1.3379556e+2, -1618903.0, -1633895.3, 5140.888, 0.46142057, 0.29127353, -1617309.5, 11524.813, 0.0000000000029415736, 9.995615, 9.99375 
9.315957e+2, 1.4378946e+2, -1526139.6, -1542998.0, 8946.536, 0.41689092, 0.32285643, -1522276.9, 8617.081, 0.0000000000019083366, 9.995454, 9.993376 
9.311669e+2, 1.5378205e+2, -1424620.6, -1453527.5, 30307.082, 0.3957347, 0.28548396, -1405497.0, 27469.145, 0.0000000000010279229, 9.996136, 9.992663 
9.307401e+2, 1.637749e+2, -1321326.5, -1346858.0, 31602.922, 0.3911253, 0.27921674, -1300008.4, 35027.766, 0.0000000000004359048, 9.99618, 9.993162 
9.303136e+2, 1.737682e+2, -1234445.9, -1257846.3, 49913.848, 0.37420508, 0.30630735, -1194879.3, 42222.535, 0.0000000000001394446, 9.995551, 9.992857 
9.2988795e+2, 1.8376085e+2, -1145316.5, -1171402.4, 54598.574, 0.33945397, 0.31740555, -1102224.6, 36949.387, 0.00000000000003282296, 9.995215, 9.99217 
9.294624e+2, 1.9375281e+2, -1045123.2, -1075284.5, 59422.777, 0.29059574, 0.31203103, -998897.3, 42355.766, 0.0000000000000056283993, 9.995463, 9.991987 
9.290379e+2, 2.0374495e+2, -948133.4, -974191.25, 63109.637, 0.26037678, 0.3112024, -896721.8, 46608.402, 0.00000000000000070118843, 9.995236, 9.992321 
9.2861396e+2, 2.1373734e+2, -864931.3, -883013.6, 66789.94, 0.25207666, 0.3167734, -806573.4, 38831.297, 0.00000000000083497646, 9.994177, 9.99235 
9.2818975e+2, 2.2372971e+2, -777678.1, -787856.94, 67897.56, 0.23895803, 0.31087676, -714679.5, 32799.66, 0.0000000000249549, 9.99328, 9.992564 
9.277644e+2, 2.3372208e+2, -684401.5, -687995.06, 64070.004, 0.22608341, 0.27283135, -622103.06, 27450.516, 0.00000000051935445, 9.992725, 9.992897 
9.273379e+2, 2.437145e+2, -600386.94, -608096.25, 65167.69, 0.20367807, 0.26884776, -538960.0, 12667.742, 0.0000000078541085, 9.992179, 9.991896 
9.269089e+2, 2.5370738e+2, -504132.16, -503438.66, 58996.05, 0.1550619, 0.34699094, -444788.3, 8910.251, 0.00000008654337, 9.991657, 9.992425 
9.264788e+2, 2.6370028e+2, -415135.0, -402333.97, 70944.37, 0.11629026, 0.37378994, -337501.97, 18266.389, 0.0000007013428, 9.990699, 9.99304 
9.260465e+2, 2.7369335e+2, -330194.53, -287791.53, 62536.438, 0.107226714, 0.2812659, -242960.39, 14875.038, 0.0000042783217, 9.988758, 9.994756 
9.256098e+2, 2.8368816e+2, -242612.5, -182254.61, 50654.895, 0.0999216, 0.24922591, -153470.13, 6415.745, 0.00002042177, 9.987271, 9.995826 
9.251596e+2, 2.9368743e+2, -50803.844, 20499.03, -30211.502, 0.028757462, 0.34751025, 31578.307, 93471.695, 0.00007993033, 9.991106, 10.000546 
9.4202423e+2, 1.3422969e+2, -1609445.9, -1630267.5, 9739.207, 0.49804977, 0.28680554, -1605600.6, 18981.553, 0.0, 9.996272, 9.993605 
9.415914e+2, 1.4422467e+2, -1508357.8, -1527781.3, 16060.78, 0.40896836, 0.40770304, -1499300.8, 27331.309, 0.0, 9.996388, 9.993912 
9.4116306e+2, 1.5421717e+2, -1421917.1, -1445012.1, 36380.813, 0.40959346, 0.30038023, -1395295.1, 33409.62, 0.0, 9.996022, 9.993241 
9.407363e+2, 1.6421093e+2, -1314200.0, -1321340.0, 32307.834, 0.40875703, 0.26948944, -1285265.5, 45499.77, 0.0, 9.995694, 9.995102 
9.403091e+2, 1.7420691e+2, -1217297.5, -1224089.4, 43093.273, 0.36713183, 0.3456738, -1177466.5, 55338.324, 0.0, 9.995603, 9.995171 
9.39883e+2, 1.8420121e+2, -1139834.3, -1165179.1, 47814.24, 0.32142937, 0.3797468, -1103041.6, 31819.113, 0.0, 9.995453, 9.99256 
9.3945783e+2, 1.9419329e+2, -1044651.1, -1071633.3, 55312.934, 0.28496543, 0.35250804, -1001207.75, 35731.156, 0.0, 9.995369, 9.992331 
9.390332e+2, 2.0418571e+2, -944887.44, -963358.5, 56919.125, 0.27017304, 0.3251336, -896459.44, 42553.543, 0.0, 9.995038, 9.993169 
9.386084e+2, 2.1417877e+2, -855427.4, -866379.25, 59627.285, 0.27809927, 0.29843017, -801025.1, 40055.637, 0.00000000000028468902, 9.994282, 9.993438 
9.3818325e+2, 2.2417238e+2, -769768.6, -777702.7, 63599.1, 0.25425303, 0.32880762, -710012.94, 33130.85, 0.000000000008157955, 9.993548, 9.9931345 
9.3775684e+2, 2.3416674e+2, -676167.2, -675751.06, 60936.375, 0.19347793, 0.43078154, -615022.44, 30177.652, 0.00000000016979894, 9.992935, 9.993615 
9.373296e+2, 2.4416023e+2, -587969.3, -585956.8, 64121.83, 0.15504259, 0.4339595, -522833.34, 24430.705, 0.0000000025679472, 9.992345, 9.993301 
9.3690044e+2, 2.541528e+2, -489435.13, -475372.66, 58142.035, 0.14067677, 0.31284407, -423838.25, 25497.65, 0.000000028296595, 9.9917755, 9.994244 
9.3646973e+2, 2.641476e+2, -392021.84, -355012.0, 65973.31, 0.13647772, 0.28262866, -304997.5, 46388.426, 0.00000022950282, 9.990694, 9.996226 
9.360357e+2, 2.7414557e+2, -307304.44, -240867.08, 53382.01, 0.15702173, 0.3591249, -211211.92, 42193.63, 0.0000014045202, 9.988741, 9.997914 
9.3559736e+2, 2.8414205e+2, -246984.05, -193588.39, 49245.61, 0.12600672, 0.3566959, -164269.22, -8829.637, 0.000006759484, 9.987421, 9.994964 
9.351502e+2, 2.9413584e+2, -91962.29, -67390.805, -4267.654, -0.028464522, 0.2629959, -66670.695, -9170.124, 0.000026932837, 9.9913025, 9.994706 
9.520202e+2, 1.3466556e+2, -1622460.3, -1641476.9, 10524.886, 0.48774984, 0.36960784, -1617784.8, 2529.3665, 0.0, 9.995687, 9.993161 
9.5158756e+2, 1.4465992e+2, -1508703.6, -1520270.8, 11523.739, 0.38965595, 0.41898888, -1501593.6, 20776.398, 0.0, 9.996064, 9.994579 
9.5115864e+2, 1.5465374e+2, -1428764.3, -1440587.8, 29852.273, 0.39888623, 0.37898698, -1404244.0, 20185.932, 0.0, 9.995255, 9.993887 
9.5073134e+2, 1.6464776e+2, -1330922.4, -1333929.5, 27898.666, 0.39601246, 0.35567942, -1304486.8, 22001.36, 0.0, 9.994834, 9.994688 
9.5030427e+2, 1.7464264e+2, -1226884.0, -1232517.9, 32445.15, 0.34439456, 0.36391848, -1197133.8, 31404.129, 0.0, 9.995208, 9.994876 
9.498782e+2, 1.8463695e+2, -1138369.6, -1154445.8, 32290.455, 0.3019814, 0.3704787, -1113131.9, 17461.582, 0.0, 9.9952, 9.993527 
9.494528e+2, 1.9463038e+2, -1046529.56, -1059738.0, 40668.676, 0.28469965, 0.36538482, -1011932.4, 20725.385, 0.0, 9.994773, 9.99352 
9.4902796e+2, 2.0462398e+2, -950635.8, -959039.75, 42658.375, 0.2802793, 0.35898873, -911972.94, 22747.531, 0.0, 9.994433, 9.993843 
9.486028e+2, 2.1461792e+2, -852613.06, -856757.56, 42920.004, 0.28463808, 0.3502854, -811715.3, 25064.447, 0.000000000000067652664, 9.994219, 9.994224 
9.48177e+2, 2.2461234e+2, -758760.1, -758937.44, 46215.695, 0.25322753, 0.36194298, -712633.0, 26201.678, 0.0000000000019384904, 9.993832, 9.994377 
9.4774985e+2, 2.3460747e+2, -664083.6, -654932.56, 44521.543, 0.1824551, 0.4077375, -614752.06, 26130.918, 0.000000000040347756, 9.99324, 9.994958 
9.473222e+2, 2.4460244e+2, -571317.5, -556826.44, 49920.598, 0.15466581, 0.40334016, -513628.28, 29303.79, 0.0000000006101943, 9.992742, 9.995146 
9.4689286e+2, 2.5459725e+2, -469699.78, -444228.25, 43046.15, 0.17401402, 0.32069716, -412073.34, 32908.695, 0.000000006724211, 9.992403, 9.996099 
9.464612e+2, 2.6459348e+2, -376200.97, -340818.97, 39852.76, 0.16315866, 0.3057326, -314907.06, 32111.674, 0.000000054552586, 9.991715, 9.996781 
9.4602543e+2, 2.745918e+2, -274220.44, -223929.39, 10092.644, 0.13113777, 0.38796487, -221979.56, 27055.809, 0.0000003341785, 9.9912405, 9.998142 
9.4558686e+2, 2.8458887e+2, -181005.14, -155412.63, 7191.092, 0.09634456, 0.39108676, -153530.45, -2466.7102, 0.0000016125001, 9.9921, 9.995686 
9.4514376e+2, 2.945821e+2, -48815.05, -64719.67, -5785.205, -0.009635108, 0.27951288, -46933.348, 6196.1865, 0.0000064614287, 9.99545, 9.99322 
9.62016e+2, 1.3510019e+2, -1614137.9, -1636463.4, 6066.6826, 0.47649628, 0.43179178, -1612595.8, 3461.8826, 0.0, 9.996178, 9.993304 
9.6158326e+2, 1.4509434e+2, -1514339.6, -1514574.0, 11558.509, 0.37952533, 0.40869632, -1502897.8, 15217.968, 0.0, 9.995295, 9.99535 
9.611539e+2, 1.5508959e+2, -1413270.6, -1425241.3, 28094.14, 0.3903082, 0.44294447, -1390531.3, 29630.45, 0.0, 9.995945, 9.994573 
9.607263e+2, 1.6508365e+2, -1321708.6, -1337761.8, 29985.604, 0.3826632, 0.4300901, -1298693.9, 23525.56, 0.0, 9.995834, 9.993928 
9.602993e+2, 1.7507717e+2, -1228867.4, -1241023.4, 35236.59, 0.3257048, 0.37472212, -1199188.5, 25094.063, 0.0, 9.995416, 9.994168 
9.598733e+2, 1.850714e+2, -1130490.6, -1137991.1, 34300.76, 0.2911244, 0.35639998, -1099735.8, 26602.898, 0.0, 9.995186, 9.994613 
9.5944774e+2, 1.9506623e+2, -1033097.06, -1038979.0, 42376.64, 0.29174712, 0.37261087, -993559.5, 34829.426, 0.0, 9.995068, 9.994744 
9.590226e+2, 2.050609e+2, -942233.7, -949766.56, 45282.004, 0.2894232, 0.39235264, -900561.75, 29879.273, 0.0, 9.994788, 9.994257 
9.58597e+2, 2.150556e+2, -845709.25, -847236.1, 45312.527, 0.28083798, 0.41291684, -801153.7, 31339.54, 0.0000000000000117120025, 9.9944315, 9.994717 
9.581708e+2, 2.2505048e+2, -747969.8, -738737.7, 47099.84, 0.24535047, 0.38278508, -696028.25, 38514.934, 0.0000000000003355644, 9.993918, 9.995665 
9.577431e+2, 2.3504572e+2, -654159.94, -634673.2, 43529.89, 0.18359815, 0.3084228, -599809.56, 36779.42, 0.0000000000069838328, 9.993249, 9.996298 
9.573152e+2, 2.4504231e+2, -559924.06, -530923.0, 48241.09, 0.17910174, 0.30578318, -495050.25, 43571.86, 0.00000000010561558, 9.99265, 9.996951 
9.568859e+2, 2.5504023e+2, -461401.16, -422359.3, 39270.69, 0.23147705, 0.36549234, -398025.3, 42617.41, 0.0000000011640542, 9.99221, 9.997699 
9.564531e+2, 2.6503685e+2, -387955.16, -362614.0, 34048.645, 0.18348975, 0.3843748, -338954.8, 3721.379, 0.000000009444971, 9.991588, 9.995336 
9.560159e+2, 2.7503234e+2, -289502.2, -257353.11, 10792.496, 0.045752015, 0.37035382, -254066.11, -9344.629, 0.000000057857413, 9.991302, 9.995829 
9.5557845e+2, 2.850294e+2, -165025.94, -124542.26, 15273.321, 0.03772775, 0.38423547, -119426.52, 27323.592, 0.00000027926637, 9.992245, 9.997791 
9.551403e+2, 2.950265e+2, -28258.871, -24022.97, 11260.336, 0.09379352, 0.411299, -14683.135, 34094.473, 0.0000011202083, 9.9956045, 9.996106 
9.720121e+2, 1.3553272e+2, -1608537.0, -1615035.3, -18174.295, 0.4876886, 0.45292863, -1593323.6, 18496.71, 0.0, 9.995616, 9.995006 
9.7157824e+2, 1.4552738e+2, -1518661.0, -1508045.8, 10916.535, 0.38627228, 0.3557248, -1501214.9, 12657.59, 0.0, 9.994769, 9.996139 
9.711503e+2, 1.5552391e+2, -1405368.3, -1413349.5, 24313.592, 0.39452335, 0.43790257, -1384720.0, 31185.885, 0.0, 9.996277, 9.995278 
9.707227e+2, 1.6551845e+2, -1319564.6, -1342034.9, 19183.207, 0.39286652, 0.4664331, -1308568.6, 9390.712, 0.0, 9.996283, 9.993438 
9.702949e+2, 1.7551184e+2, -1233330.0, -1246605.8, 24463.734, 0.3433804, 0.44451576, -1214619.5, 5405.1504, 0.0, 9.995349, 9.993826 
9.698687e+2, 1.8550648e+2, -1124648.9, -1121371.0, 27814.41, 0.31858993, 0.42257425, -1095147.4, 26929.695, 0.0, 9.995128, 9.995799 
9.694435e+2, 1.9550224e+2, -1020376.8, -1018482.75, 35253.332, 0.33094472, 0.40791613, -984163.75, 39954.27, 0.0, 9.995462, 9.995967 
9.6901786e+2, 2.0549756e+2, -931230.3, -937331.0, 36456.004, 0.29919842, 0.40551066, -897697.25, 28466.418, 0.0, 9.995372, 9.9948225 
9.685913e+2, 2.1549274e+2, -834492.5, -833526.0, 36720.58, 0.22953403, 0.41428205, -797285.5, 30925.736, 0.0000000000000014914695, 9.99499, 9.995371 
9.681647e+2, 2.254884e+2, -739141.8, -729378.06, 35940.727, 0.2110006, 0.4093719, -697989.2, 32264.451, 0.000000000000042732568, 9.994451, 9.99604 
9.677371e+2, 2.354845e+2, -645384.8, -625155.8, 28430.443, 0.22667745, 0.38268873, -605094.25, 27196.76, 0.00000000000088938075, 9.993782, 9.996718 
9.6730834e+2, 2.4548122e+2, -558769.8, -534368.6, 26293.156, 0.21346584, 0.39068347, -517583.28, 16740.04, 0.000000000013450299, 9.993075, 9.996615 
9.668777e+2, 2.5547865e+2, -463555.63, -428943.5, 7637.1577, 0.18793212, 0.43625867, -427333.25, 9015.83, 0.0000000001482496, 9.992483, 9.997339 
9.664448e+2, 2.6547572e+2, -364284.78, -337881.34, 7207.923, 0.13191904, 0.4434208, -336041.8, 2336.7454, 0.0000000012029147, 9.992866, 9.996629 
9.6600866e+2, 2.7547187e+2, -245004.19, -230018.36, 1934.3358, 0.04141182, 0.41060978, -229772.7, 10644.101, 0.0000000073681794, 9.994329, 9.99633 
9.6557224e+2, 2.8546888e+2, -130064.34, -112120.03, 4437.527, 0.054141045, 0.41673815, -111082.63, 31363.623, 0.000000035559857, 9.995036, 9.997388 
9.65136e+2, 2.954661e+2, -35910.715, -24751.205, -9264.699, 0.1208062, 0.45908517, -19515.771, 24956.969, 0.00000014260962, 9.995155, 9.996655 
9.820067e+2, 1.359648e+2, -1632910.5, -1616056.9, -13448.312, 0.48520258, 0.46843448, -1608613.4, -1025.9663, 0.0, 9.993468, 9.995935 
9.815736e+2, 1.4595982e+2, -1493653.9, -1495955.1, 12231.498, 0.38929248, 0.36272016, -1482519.0, 27116.455, 0.0, 9.9965105, 9.99618 
9.8114663e+2, 1.5595645e+2, -1404892.5, -1413377.6, 15429.413, 0.4000476, 0.4435236, -1393133.0, 18534.646, 0.0, 9.99635, 9.995372 
9.8071885e+2, 1.659513e+2, -1326023.3, -1345433.5, 6857.1216, 0.40475303, 0.4928399, -1323845.3, -10126.692, 0.0, 9.995826, 9.993519 
9.8029035e+2, 1.7594509e+2, -1233062.4, -1245098.8, 18968.168, 0.35625133, 0.508276, -1219180.5, -3399.9153, 0.0, 9.995282, 9.993972 
9.79864e+2, 1.8594038e+2, -1118026.4, -1108466.3, 26780.248, 0.33654475, 0.4961649, -1086042.8, 31784.002, 0.0, 9.995187, 9.996677 
9.7943914e+2, 1.9593696e+2, -1016234.75, -1005832.7, 30165.865, 0.3600482, 0.46359843, -980422.75, 39436.96, 0.0, 9.995312, 9.996967 
9.790132e+2, 2.0593281e+2, -929498.25, -930285.1, 27991.582, 0.29966772, 0.4380784, -901897.4, 20002.72, 0.0, 9.995223, 9.995443 
9.7858566e+2, 2.1592842e+2, -830221.56, -824085.9, 28492.584, 0.17069578, 0.4225357, -798496.44, 25446.807, 0.00000000000000014322901, 9.994963, 9.996088 
9.781588e+2, 2.2592491e+2, -739227.2, -728908.3, 27665.705, 0.17649865, 0.46255562, -705925.06, 20052.623, 0.0000000000000041040377, 9.994413, 9.996135 
9.7773135e+2, 2.3592208e+2, -645577.6, -625918.3, 21282.531, 0.27900696, 0.53153, -612305.06, 15700.361, 0.000000000000085429954, 9.993785, 9.996694 
9.773016e+2, 2.4591811e+2, -565614.4, -551845.2, 22418.172, 0.23074637, 0.54281586, -535278.3, -5233.3228, 0.000000000001292103, 9.993201, 9.995354 
9.768691e+2, 2.5591344e+2, -468264.03, -444524.34, 8727.615, 0.0808397, 0.5085773, -441661.1, -9569.232, 0.0000000000142405965, 9.992724, 9.996119 
9.7643685e+2, 2.6591116e+2, -342963.84, -297000.47, 13519.073, 0.049673628, 0.4944475, -293319.0, 40794.97, 0.00000000011554544, 9.993057, 9.99934 
9.7600365e+2, 2.7591017e+2, -231274.7, -200299.11, 8074.8965, 0.10422262, 0.49372387, -198320.48, 37802.855, 0.0000000007077114, 9.994326, 9.998424 
9.755678e+2, 2.859065e+2, -148424.34, -148058.19, 2687.4863, 0.11243465, 0.46714747, -145547.55, -7388.472, 0.000000003414842, 9.994903, 9.994999 
9.751304e+2, 2.9590032e+2, -48529.33, -50035.01, -4182.5166, 0.04833397, 0.4034435, -45032.438, -4813.074, 0.000000013690085, 9.995124, 9.99499 
9.9199957e+2, 1.3639697e+2, -1642036.9, -1632247.8, 19911.03, 0.4256211, 0.43186456, -1616638.5, -13284.129, 0.0, 9.993796, 9.9948845 
9.915711e+2, 1.4639084e+2, -1502560.1, -1529664.4, 3190.5305, 0.42078966, 0.4035054, -1502189.6, 3224.9028, 0.0, 9.997181, 9.993614 
9.911431e+2, 1.563831e+2, -1421699.6, -1443718.1, -1424.475, 0.42353052, 0.29737693, -1421607.9, -14117.6875, 0.0, 9.996163, 9.993492 
9.907144e+2, 1.6637748e+2, -1314926.6, -1315392.4, -5889.6675, 0.38522753, 0.25380462, -1309265.3, 279.7176, 0.0, 9.995555, 9.995809 
9.902852e+2, 1.7637339e+2, -1218221.5, -1215489.4, 10424.507, 0.30727234, 0.25533202, -1206341.9, 5242.945, 0.0, 9.995372, 9.996002 
9.8985875e+2, 1.8636997e+2, -1123826.1, -1122272.3, 17644.352, 0.28184804, 0.3311499, -1105387.8, 8230.462, 0.0, 9.995336, 9.99573 
9.894338e+2, 1.9636714e+2, -1022955.3, -1016562.8, 15985.078, 0.29875493, 0.4337833, -1003457.56, 12188.065, 0.0, 9.995257, 9.996384 
9.8900837e+2, 2.0636342e+2, -929154.3, -926088.4, 9722.583, 0.29977715, 0.45346183, -917778.6, -96.4498, 0.0, 9.995141, 9.99592 
9.885816e+2, 2.1635942e+2, -828055.06, -817988.7, 8270.485, 0.27152947, 0.42031845, -813340.25, 6381.311, 0.000000000000000010837507, 9.99496, 9.996665 
9.8815376e+2, 2.2635564e+2, -734238.2, -719341.3, 7943.8193, 0.23245342, 0.36712864, -715900.1, 5858.655, 0.00000000000000031058006, 9.994513, 9.996898 
9.877247e+2, 2.3635244e+2, -634972.25, -612438.3, 3358.0352, 0.21513736, 0.32721168, -611948.5, 11841.796, 0.0000000000000064639003, 9.994218, 9.997546 
9.872951e+2, 2.4635e+2, -535084.0, -511923.63, 15486.579, 0.19996695, 0.32389882, -504166.4, 21647.938, 0.000000000000097753626, 9.994289, 9.99759 
9.868636e+2, 2.5634775e+2, -431156.22, -407181.47, 17347.38, 0.1589935, 0.3412718, -398082.63, 29754.408, 0.0000000000010773522, 9.994517, 9.997682 
9.864316e+2, 2.6634642e+2, -327282.78, -294514.56, 18801.758, 0.14433566, 0.38651434, -285959.84, 43889.8, 0.000000000008741193, 9.994448, 9.99874 
9.8599845e+2, 2.7634552e+2, -236453.22, -208282.14, -925.8876, 0.16151518, 0.44547954, -208251.73, 23606.447, 0.00000000005353408, 9.994293, 9.998007 
9.855628e+2, 2.863423e+2, -153680.14, -148866.5, -5386.6553, 0.1423878, 0.46728167, -145373.42, -11483.516, 0.00000000025827646, 9.994533, 9.995193 
9.851253e+2, 2.9633614e+2, -43611.793, -39714.96, 11538.613, 0.02665023, 0.40320358, -29961.416, 5988.6895, 0.0000000010352618, 9.995238, 9.995587 
1.0019954e+3, 1.3682346e+2, -1557951.0, -1566484.5, -18549.535, 0.47038704, 0.45663378, -1543183.9, 55994.38, 0.0, 9.998712, 9.997794 
1.00156814e+3, 1.4682223e+2, -1482225.0, -1498330.4, -17671.705, 0.41592795, 0.6750501, -1470857.6, 30332.707, 0.0, 9.997627, 9.995667 
1.00113854e+3, 1.5681621e+2, -1420083.6, -1427811.5, 25537.035, 0.3852834, 0.58418965, -1398119.9, 5129.691, 0.0, 9.995676, 9.994373 
1.0007101e+3, 1.6681132e+2, -1298280.4, -1300235.1, 21155.26, 0.39879587, 0.57855934, -1278079.9, 27216.662, 0.0, 9.996569, 9.995994 
1.00028194e+3, 1.7680804e+2, -1174944.1, -1191435.6, 7044.975, 0.3756205, 0.6168816, -1172344.5, 34982.67, 0.0, 9.998423, 9.99611 
9.998547e+2, 1.8680191e+2, -1109164.4, -1133669.1, -5735.2446, 0.3085226, 0.51786447, -1107888.5, 1498.2361, 0.0, 9.99733, 9.994089 
9.994284e+2, 1.9679594e+2, -1034011.25, -1032485.75, -13035.892, 0.24636059, 0.45602998, -1020190.3, -8745.11, 0.0, 9.995182, 9.995512 
9.9900293e+2, 2.0679286e+2, -916186.44, -900715.9, -1870.0297, 0.2510004, 0.47192502, -900493.06, 12982.497, 0.0, 9.99546, 9.997512 
9.9857694e+2, 2.167907e+2, -796118.6, -786768.6, 14392.094, 0.2958923, 0.4898684, -776311.25, 39185.695, 0.0000000000000000006820092, 9.996711, 9.997733 
9.981489e+2, 2.2678879e+2, -706934.9, -698052.9, 14733.983, 0.28255844, 0.55732024, -687105.1, 30410.943, 0.00000000000000001954189, 9.996276, 9.99727 
9.977186e+2, 2.367861e+2, -614202.9, -588688.5, 2704.118, 0.17155686, 0.5271823, -588405.06, 31137.521, 0.00000000000000040645458, 9.995291, 9.998522 
9.972885e+2, 2.4678595e+2, -516334.44, -469577.94, -78.83495, 0.120975144, 0.53403634, -469577.8, 51965.94, 0.0000000000000061445223, 9.994354, 10.000519 
9.9685824e+2, 2.5678653e+2, -424384.75, -379157.4, -7663.9937, 0.18165764, 0.54285604, -377894.0, 45643.3, 0.00000000000006771698, 9.99407, 10.000046 
9.9642587e+2, 2.6678383e+2, -335275.6, -327557.1, -7842.926, 0.13392527, 0.4874038, -322675.34, 2888.134, 0.0000000000005493915, 9.995228, 9.996351 
9.9599177e+2, 2.7677968e+2, -219969.72, -220458.22, -19540.363, 0.060056347, 0.44650796, -200672.08, 26932.299, 0.0000000000033642223, 9.996322, 9.996401 
9.955571e+2, 2.8677714e+2, -115502.055, -106338.695, -11687.793, 0.11963732, 0.47299734, -98366.64, 31263.006, 0.000000000016230134, 9.99613, 9.99745 
9.9512076e+2, 2.967742e+2, -28011.992, -12422.99, 20949.443, 0.0461724, 0.5119728, 2134.9893, 33793.07, 0.00000000006506301, 9.995542, 9.9973955 
