coord_x,coord_y,stress_xx,stress_yy,tau_xy,velocity_x,velocity_y,stress_1,eps,damage,lx,ly
4.9962735e+0, 1.2363429e+2, -1806074.8, -1729892.1, -2308.1426, 0.00025711878, -0.02656282, -1729822.3, -1441.1809, 0.0, 9.99254, 10.002626 
4.9968734e+0, 1.3363524e+2, -1701774.0, -1647172.1, -2134.7122, -0.0007737421, -0.0380293, -1647088.9, -16716.977, 0.0, 9.993762, 10.00099 
4.9974608e+0, 1.4363551e+2, -1598941.8, -1566264.5, -2239.77, -0.00049016223, -0.025513448, -1566111.8, -33742.508, 0.0, 9.99493, 9.999255 
4.9980164e+0, 1.5363476e+2, -1485340.0, -1461364.1, -2078.7485, 0.00072184607, -0.021498937, -1461185.3, -26808.598, 0.0, 9.996017, 9.999191 
4.9985686e+0, 1.6363283e+2, -1387307.8, -1388712.6, -2030.6696, 0.00096920726, -0.023939418, -1385861.5, -49465.957, 0.0, 9.997117, 9.996929 
4.9991193e+0, 1.7362955e+2, -1273246.3, -1283840.3, -2408.5889, -0.00047425856, -0.036969543, -1272724.4, -34296.906, 0.0, 9.998248, 9.996843 
4.999682e+0, 1.836252e+2, -1175962.5, -1213594.3, -2568.9783, -0.0009827893, -0.038416296, -1175788.0, -35317.992, 0.0, 9.999383, 9.9944 
5.0002664e+0, 1.9361965e+2, -1061942.6, -1109125.4, -2420.3115, 0.00021806962, -0.023681875, -1061818.8, -19294.195, 0.0, 10.000528, 9.99428 
5.00083e+0, 2.036129e+2, -963768.44, -1036589.3, -2480.7864, 0.0008694701, -0.01862302, -963684.0, -19093.115, 0.0, 10.001642, 9.992002 
5.00136e+0, 2.1360467e+2, -850800.6, -932386.6, -2579.1448, 0.00059499947, -0.03260214, -850719.2, -4047.8179, 0.0, 10.0027075, 9.991904 
5.0019085e+0, 2.235954e+2, -753485.7, -861560.6, -2345.1626, -0.00005645831, -0.03578281, -753434.8, -4672.6074, 0.0, 10.003818, 9.989511 
5.002488e+0, 2.3358493e+2, -638915.4, -756784.6, -2144.785, -0.00132751, -0.02379223, -638876.4, 11988.504, 0.0, 10.005002, 9.989396 
5.0030583e+0, 2.4357326e+2, -540585.75, -684533.75, -2240.7166, -0.0011826365, -0.02063338, -540550.9, 12428.511, 0.0, 10.00614, 9.987084 
5.003612e+0, 2.535601e+2, -427848.34, -580496.25, -2291.325, 0.0015106142, -0.036015082, -427813.97, 27294.186, 0.0, 10.007194, 9.986983 
5.004159e+0, 2.635459e+2, -330410.3, -508934.38, -2000.0453, 0.0019083584, -0.0402877, -330387.9, 26859.172, 0.0, 10.008281, 9.984649 
5.004693e+0, 2.7353057e+2, -216383.02, -404187.3, -1667.6232, -0.0016877213, -0.029848875, -216368.22, 43029.15, 0.0, 10.00942, 9.984556 
5.0052637e+0, 2.835139e+2, -120313.92, -337050.72, -1762.3538, -0.002309481, -0.023232343, -120299.59, 41261.055, 0.0, 10.010573, 9.981887 
5.005891e+0, 2.9349566e+2, -6110.4272, -232421.2, -2747.4883, 0.0023034401, -0.028048139, -6077.0767, 57662.42, 0.0, 10.011735, 9.981776 
5.006466e+0, 3.0348042e+2, 101415.59, -87988.21, -2981.7937, 0.0031383485, -0.030836245, 101462.52, 101462.52, 0.0, 10.012868, 9.987769 
5.006941e+0, 3.134682e+2, 117152.08, -80056.625, -1628.6443, -0.0028128154, -0.033499453, 117165.53, 117165.53, 0.0, 10.013937, 9.987799 
1.4988819e+1, 1.2363308e+2, -1805976.1, -1729687.4, 2117.3455, 0.00053043326, -0.02852151, -1729628.8, -1235.7051, 0.0, 9.992541, 10.00264 
1.499062e+1, 1.336341e+2, -1701607.8, -1646836.9, 2501.0122, -0.0024065196, -0.032517526, -1646723.0, -16340.087, 0.0, 9.993762, 10.001013 
1.4992382e+1, 1.436344e+2, -1598591.4, -1565536.1, 1908.8274, -0.0015080809, -0.022103166, -1565426.4, -33046.254, 0.0, 9.99493, 9.999305 
1.4994049e+1, 1.5363353e+2, -1484977.8, -1460612.5, 2033.1133, 0.0021635343, -0.0349736, -1460444.0, -26055.426, 0.0, 9.996017, 9.999243 
1.4995705e+1, 1.6363159e+2, -1387887.0, -1389904.0, 2204.5303, 0.002859712, -0.037583772, -1386471.3, -50063.754, 0.0, 9.997117, 9.996848 
1.4997359e+1, 1.736285e+2, -1273998.3, -1285386.1, 1879.6016, -0.0014576763, -0.022164736, -1273696.1, -35258.15, 0.0, 9.998248, 9.996738 
1.4999045e+1, 1.8362418e+2, -1175805.0, -1213248.8, 1738.4867, -0.0029486394, -0.017625272, -1175724.4, -35244.02, 0.0, 9.999382, 9.994424 
1.5000801e+1, 1.9361834e+2, -1061664.1, -1108526.6, 1917.7859, 0.00062118395, -0.033790577, -1061585.8, -19048.38, 0.0, 10.000527, 9.994322 
1.500249e+1, 2.036115e+2, -963853.9, -1036737.44, 1568.4441, 0.0025798562, -0.03921446, -963820.1, -19215.678, 0.0, 10.001641, 9.991992 
1.500408e+1, 2.136035e+2, -850945.56, -932681.5, 1448.8796, 0.0017817228, -0.02762727, -850919.9, -4237.1235, 0.0, 10.0027075, 9.991884 
1.5005726e+1, 2.2359431e+2, -753190.25, -860929.0, 2065.132, -0.00020923416, -0.0234844, -753150.7, -4377.8125, 0.0, 10.003817, 9.989554 
1.5007463e+1, 2.3358366e+2, -638589.7, -756084.25, 2342.6992, -0.0040370794, -0.0341111, -638543.0, 12334.141, 0.0, 10.005, 9.989445 
1.5009175e+1, 2.4357198e+2, -540556.7, -684430.6, 1800.4171, -0.0035473877, -0.03569501, -540534.2, 12457.626, 0.0, 10.006138, 9.987093 
1.5010835e+1, 2.5355908e+2, -427868.03, -580507.56, 1697.1036, 0.004525724, -0.023368869, -427849.16, 27268.975, 0.0, 10.007192, 9.986984 
1.5012477e+1, 2.6354504e+2, -329848.84, -507746.06, 2262.924, 0.005676068, -0.018675646, -329820.06, 27435.842, 0.0, 10.00828, 9.984731 
1.501408e+1, 2.7352956e+2, -215775.05, -402911.97, 2647.807, -0.005090384, -0.0297586, -215737.6, 43669.668, 0.0, 10.009419, 9.984644 
1.5015791e+1, 2.8351277e+2, -121792.086, -340077.16, 2613.2888, -0.0069402787, -0.03461576, -121760.805, 39811.14, 0.0, 10.010571, 9.981682 
1.5017672e+1, 2.9349434e+2, -7973.596, -236254.11, 1655.3435, 0.0069170087, -0.03060172, -7961.5933, 55791.01, 0.0, 10.011733, 9.981515 
1.5019397e+1, 3.034791e+2, 103419.016, -83766.23, 1114.9839, 0.009420012, -0.027454106, 103425.66, 103425.66, 0.0, 10.012866, 9.98806 
1.5020825e+1, 3.134673e+2, 119790.75, -74481.0, 2413.085, -0.008437131, -0.029050838, 119820.72, 119820.72, 0.0, 10.013934, 9.988183 
2.4981424e+1, 1.23630784e+2, -1804196.6, -1728959.0, -2186.4998, 0.0008423855, -0.02779014, -1728895.5, -479.905, 0.0, 9.992666, 10.002628 
2.4984352e+1, 1.336318e+2, -1702635.6, -1647437.6, -1889.0414, -0.0020673617, -0.032726582, -1647373.0, -16967.477, 0.0, 9.993696, 10.001004 
2.4987254e+1, 1.4363208e+2, -1600374.4, -1566194.5, -2611.249, -0.00064865325, -0.02247379, -1565996.3, -33593.445, 0.0, 9.9948, 9.999323 
2.4990067e+1, 1.5363124e+2, -1484588.8, -1460150.4, -2680.0227, 0.0014357648, -0.03529411, -1459860.0, -25448.965, 0.0, 9.996032, 9.999266 
2.499286e+1, 1.6362931e+2, -1386669.8, -1389647.6, -2607.4407, 0.0018251557, -0.037737966, -1385156.1, -48726.15, 0.0, 9.997213, 9.996818 
2.4995649e+1, 1.7362617e+2, -1273234.0, -1285443.5, -2456.6714, -0.00046639176, -0.022240825, -1272758.3, -34297.5, 0.0, 9.998318, 9.996699 
2.4998453e+1, 1.8362182e+2, -1175397.1, -1212848.9, -2364.6416, -0.0012366961, -0.017804528, -1175248.4, -34745.07, 0.0, 9.9994, 9.994441 
2.500129e+1, 1.9361602e+2, -1062494.8, -1108620.9, -2287.541, 0.00047866613, -0.03462939, -1062381.5, -19821.422, 0.0, 10.000457, 9.994349 
2.500409e+1, 2.0360918e+2, -964969.6, -1037500.25, -2572.588, 0.0014960838, -0.039777186, -964878.5, -20251.371, 0.0, 10.0015745, 9.991972 
2.5006825e+1, 2.1360119e+2, -849834.94, -932435.44, -2732.045, 0.0011593244, -0.02673415, -849744.7, -3039.076, 0.0, 10.002795, 9.991858 
2.5009596e+1, 2.2359198e+2, -751525.2, -859923.2, -2437.551, 0.00017416324, -0.022255214, -751470.4, -2674.6724, 0.0, 10.0039215, 9.989572 
2.5012428e+1, 2.3358135e+2, -640072.56, -756534.25, -2388.0215, -0.001967134, -0.03453751, -640023.6, 10876.285, 0.0, 10.004888, 9.989468 
2.501524e+1, 2.4356966e+2, -543071.0, -685480.4, -2723.8435, -0.0017689471, -0.036706615, -543018.94, 9995.503, 0.0, 10.005958, 9.987107 
2.5018013e+1, 2.5355682e+2, -427547.6, -580200.75, -2715.9958, 0.0022342813, -0.02347885, -427499.28, 27641.271, 0.0, 10.007208, 9.986997 
2.5020787e+1, 2.6354274e+2, -328362.4, -507305.1, -2555.8108, 0.0029733626, -0.018003197, -328325.94, 28952.355, 0.0, 10.008392, 9.984706 
2.502355e+1, 2.7352726e+2, -215393.19, -403072.6, -3084.558, -0.002133436, -0.028949566, -215342.5, 44087.43, 0.0, 10.0094595, 9.984612 
2.5026384e+1, 2.8351045e+2, -122113.555, -339984.1, -2783.439, -0.0029446408, -0.034164596, -122078.0, 39516.74, 0.0, 10.010538, 9.981702 
2.5029317e+1, 2.9349205e+2, -9287.446, -236527.31, -1619.9106, 0.0035805372, -0.031490617, -9275.899, 54499.32, 0.0, 10.011627, 9.981547 
2.5032175e+1, 3.034768e+2, 102233.914, -84339.27, -1633.4796, 0.004780937, -0.027992392, 102248.21, 102248.21, 0.0, 10.012784, 9.988059 
2.5034863e+1, 3.1346503e+2, 121332.93, -73791.734, -3174.3394, -0.0032637757, -0.02670753, 121384.555, 121384.555, 0.0, 10.014041, 9.988178 
3.4974086e+1, 1.2362739e+2, -1804451.1, -1729500.8, 1554.8799, -0.00038515113, -0.024634534, -1729468.5, -1019.70715, 0.0, 9.992666, 10.002591 
3.4978068e+1, 1.3362828e+2, -1702924.8, -1648050.0, 2006.8634, -0.00007802159, -0.038346305, -1647976.8, -17536.658, 0.0, 9.993697, 10.000961 
3.498208e+1, 1.4362854e+2, -1600420.4, -1566291.5, 1929.3276, 0.0014982795, -0.026960142, -1566182.8, -33745.332, 0.0, 9.9948, 9.999316 
3.4986064e+1, 1.5362787e+2, -1484619.0, -1460209.8, 1999.1174, -0.0023636564, -0.022395667, -1460047.1, -25603.064, 0.0, 9.996031, 9.999262 
3.4990028e+1, 1.6362594e+2, -1386496.8, -1389307.9, 1616.3358, -0.0030740846, -0.024419123, -1385760.4, -49297.42, 0.0, 9.997214, 9.9968405 
3.4993994e+1, 1.7362256e+2, -1273019.5, -1285034.1, 1721.2826, 0.0019265309, -0.037054967, -1272777.9, -34281.844, 0.0, 9.998319, 9.996726 
3.49979e+1, 1.8361817e+2, -1175263.8, -1212601.4, 1632.1552, 0.0034260293, -0.03914496, -1175192.5, -34653.594, 0.0, 9.999402, 9.994457 
3.5001737e+1, 1.9361268e+2, -1062396.9, -1108417.4, 1714.5425, -0.0009621657, -0.026111262, -1062333.0, -19740.168, 0.0, 10.000457, 9.994362 
3.500562e+1, 2.0360593e+2, -965168.5, -1037898.44, 1949.1327, -0.0033413006, -0.020536698, -965116.3, -20457.355, 0.0, 10.001574, 9.991945 
3.5009593e+1, 2.1359769e+2, -850092.25, -932949.06, 1891.1992, -0.0019286451, -0.029749786, -850049.06, -3309.2554, 0.0, 10.002794, 9.991823 
3.5013524e+1, 2.235884e+2, -751577.9, -860009.7, 1318.658, 0.00033786392, -0.032141846, -751561.8, -2731.007, 0.0, 10.003921, 9.989565 
3.501738e+1, 2.3357795e+2, -640062.2, -756524.44, 1258.752, 0.0041118376, -0.02501547, -640048.56, 10884.625, 0.0, 10.004888, 9.989468 
3.502125e+1, 2.4356632e+2, -542916.6, -685154.5, 1831.1058, 0.0030959127, -0.023958415, -542893.06, 10154.225, 0.0, 10.005958, 9.987129 
3.5025138e+1, 2.535532e+2, -427378.22, -579833.94, 2001.7195, -0.005831206, -0.035885833, -427351.97, 27823.455, 0.0, 10.007206, 9.987021 
3.5029083e+1, 2.6353908e+2, -329251.03, -509120.78, 1558.41, -0.006716939, -0.03833693, -329237.53, 28076.723, 0.0, 10.008391, 9.984582 
3.50331e+1, 2.7352366e+2, -216448.52, -405231.25, 946.04333, 0.0064938865, -0.027440961, -216443.78, 43021.62, 0.0, 10.009459, 9.984465 
3.5037044e+1, 2.8350696e+2, -120384.32, -336337.03, 1311.0963, 0.008828219, -0.022265937, -120376.36, 41252.688, 0.0, 10.010535, 9.981953 
3.504083e+1, 2.9348874e+2, -7060.281, -231873.39, 2470.3035, -0.008195434, -0.030645384, -7033.14, 56774.242, 0.0, 10.011626, 9.981865 
3.50448e+1, 3.0347353e+2, 100273.23, -88374.266, 2996.9773, -0.011204456, -0.032806568, 100320.83, 100320.83, 0.0, 10.012781, 9.987783 
3.5049057e+1, 3.1346142e+2, 118604.625, -79399.414, 1567.5011, 0.011226485, -0.026345953, 118617.03, 118617.03, 0.0, 10.014038, 9.987794 
4.4966698e+1, 1.23622835e+2, -1806144.1, -1730386.9, -2888.234, 0.000002481214, -0.024443751, -1730277.0, -1783.5061, 0.0, 9.992555, 10.002584 
4.4971836e+1, 1.3362372e+2, -1701000.6, -1647110.9, -2003.5865, 0.0002526179, -0.038488533, -1647036.5, -16551.666, 0.0, 9.993826, 10.000961 
4.4976988e+1, 1.4362396e+2, -1597633.1, -1565312.0, -2079.1572, 0.0024405867, -0.027324824, -1565178.8, -32696.46, 0.0, 9.995005, 9.999282 
4.4982103e+1, 1.5362325e+2, -1484856.4, -1460778.1, -2290.1116, -0.0017790047, -0.021814117, -1460562.3, -26072.996, 0.0, 9.996035, 9.99922 
4.4987184e+1, 1.6362132e+2, -1388049.1, -1389780.4, -2856.0173, -0.0028074284, -0.02370656, -1385930.4, -49422.188, 0.0, 9.997096, 9.996864 
4.4992268e+1, 1.7361796e+2, -1274123.5, -1285184.1, -2709.3782, 0.0018586346, -0.037399214, -1273495.5, -34954.387, 0.0, 9.998226, 9.996759 
4.4997287e+1, 1.8361358e+2, -1175889.1, -1213189.4, -2914.978, 0.003455245, -0.039571136, -1175662.6, -35078.707, 0.0, 9.999372, 9.994431 
4.500224e+1, 1.9360806e+2, -1061351.6, -1108311.0, -3225.2407, -0.00053610984, -0.025003524, -1061131.1, -18493.053, 0.0, 10.0005455, 9.994325 
4.500724e+1, 2.0360132e+2, -963749.06, -1037038.5, -3022.497, -0.0027338176, -0.019296795, -963624.6, -18920.299, 0.0, 10.001663, 9.991959 
4.5012337e+1, 2.1359307e+2, -851400.3, -933315.9, -2656.8113, -0.0017835972, -0.030670173, -851314.2, -4529.0303, 0.0, 10.002693, 9.991846 
4.5017377e+1, 2.2358377e+2, -753612.0, -861141.9, -3107.6135, 0.00024762828, -0.033735614, -753522.25, -4646.095, 0.0, 10.003787, 9.989552 
4.5022315e+1, 2.3357332e+2, -638700.06, -756083.9, -3360.004, 0.0040634763, -0.024777366, -638604.0, 12374.607, 0.0, 10.00499, 9.989447 
4.5027298e+1, 2.4356167e+2, -540516.56, -684151.06, -2804.1667, 0.0036033718, -0.022836352, -540461.8, 12630.917, 0.0, 10.006128, 9.987114 
4.5032328e+1, 2.5354856e+2, -428291.34, -580432.0, -2903.379, -0.00458917, -0.03552018, -428235.97, 26985.135, 0.0, 10.00715, 9.987007 
4.5037407e+1, 2.635344e+2, -331388.88, -509827.2, -3041.1633, -0.0056233415, -0.038852133, -331337.06, 26022.918, 0.0, 10.00823, 9.984611 
4.5042524e+1, 2.73519e+2, -216981.8, -405106.1, -2378.3657, 0.005664651, -0.028899541, -216951.73, 42559.137, 0.0, 10.009405, 9.984498 
4.504758e+1, 2.835023e+2, -120027.85, -336304.9, -2076.6648, 0.0076742973, -0.023417026, -120007.914, 41666.44, 0.0, 10.010565, 9.98194 
4.50525e+1, 2.9348412e+2, -6327.44, -231767.28, -3420.1724, -0.0069525465, -0.029468987, -6275.564, 57577.137, 0.0, 10.011685, 9.981843 
4.505762e+1, 3.034689e+2, 100707.016, -88144.625, -3152.9377, -0.009247076, -0.031450637, 100759.64, 100759.64, 0.0, 10.012811, 9.987783 
4.5063028e+1, 3.1345674e+2, 117016.266, -80118.78, -1772.7709, 0.010384785, -0.028561173, 117032.21, 117032.21, 0.0, 10.0139265, 9.987798 
5.495926e+1, 1.2361709e+2, -1805904.0, -1730001.6, 1680.8063, -0.00046535573, -0.026947383, -1729964.4, -1414.675, 0.0, 9.9925585, 10.002608 
5.4965645e+1, 1.3361809e+2, -1700748.6, -1646570.6, 2800.1038, -0.0016311454, -0.03320715, -1646426.3, -15886.396, 0.0, 9.993825, 10.0009985 
5.4971987e+1, 1.4361833e+2, -1598046.8, -1566171.1, 1920.35, 0.0014826305, -0.023302164, -1566055.9, -33518.285, 0.0, 9.995005, 9.999223 
5.4978174e+1, 1.5361738e+2, -1485346.0, -1461855.0, 1621.6375, 0.0017867418, -0.03355541, -1461743.5, -27196.773, 0.0, 9.9960375, 9.9991455 
5.4984325e+1, 1.6361542e+2, -1387797.1, -1389374.3, 1338.2029, 0.0008376903, -0.035686348, -1387032.4, -50466.367, 0.0, 9.997101, 9.996889 
5.4990464e+1, 1.7361236e+2, -1273824.5, -1284580.1, 1569.3835, -0.0016938288, -0.023285097, -1273600.1, -35004.01, 0.0, 9.998226, 9.9968 
5.499661e+1, 1.8360803e+2, -1176385.5, -1214209.8, 1488.2462, -0.0023375717, -0.018942911, -1176327.0, -35688.54, 0.0, 9.999371, 9.994361 
5.50028e+1, 1.9360216e+2, -1061972.3, -1109610.4, 1220.0537, 0.00046289532, -0.031226963, -1061941.0, -19245.0, 0.0, 10.0005455, 9.994236 
5.5008954e+1, 2.0359528e+2, -963298.8, -1036157.3, 921.85315, 0.0017246997, -0.036042925, -963287.2, -18523.791, 0.0, 10.001665, 9.992017 
5.501506e+1, 2.1358728e+2, -850805.2, -932105.2, 1226.0175, 0.0004048974, -0.029630166, -850786.7, -3944.9705, 0.0, 10.002694, 9.991927 
5.5021155e+1, 2.235781e+2, -753762.8, -861451.5, 1328.1438, -0.0012209885, -0.027101018, -753746.44, -4814.619, 0.0, 10.003787, 9.98953 
5.5027235e+1, 2.3356745e+2, -638987.06, -756667.75, 1186.854, -0.0031433958, -0.033720165, -638975.06, 12061.047, 0.0, 10.00499, 9.989407 
5.5033374e+1, 2.4355574e+2, -540849.4, -684836.4, 1133.0283, -0.0018895541, -0.033336785, -540840.5, 12310.424, 0.0, 10.006127, 9.987067 
5.503958e+1, 2.535428e+2, -428632.97, -581160.0, 943.99646, 0.00492701, -0.022867896, -428627.13, 26650.54, 0.0, 10.007152, 9.986956 
5.504575e+1, 2.6352873e+2, -330183.66, -507288.63, 1291.2952, 0.0052218586, -0.019909995, -330174.25, 27241.262, 0.0, 10.008227, 9.984784 
5.5051816e+1, 2.7351335e+2, -215497.8, -402008.47, 2052.188, -0.0057489183, -0.03339899, -215475.22, 44091.176, 0.0, 10.009404, 9.98471 
5.5057997e+1, 2.8349656e+2, -121912.4, -340208.3, 2166.8396, -0.007733192, -0.03756331, -121890.89, 39839.758, 0.0, 10.010565, 9.981672 
5.506432e+1, 2.934782e+2, -8792.383, -236900.9, 804.5229, 0.0063446374, -0.02794792, -8789.546, 55121.52, 0.0, 10.011686, 9.981491 
5.5070615e+1, 3.0346292e+2, 102592.195, -84190.38, 1063.4673, 0.009216011, -0.024076499, 102598.25, 102598.25, 0.0, 10.012809, 9.988054 
5.507678e+1, 3.1345102e+2, 119662.77, -74554.766, 2423.168, -0.008107138, -0.03378315, 119693.0, 119693.0, 0.0, 10.013925, 9.988179 
6.4951867e+1, 1.2361022e+2, -1804623.3, -1729741.1, -2730.3892, 0.000029271398, -0.028276838, -1729641.6, -1024.6298, 0.0, 9.99266, 10.002575 
6.495945e+1, 1.336112e+2, -1701487.0, -1647194.3, -1903.5668, -0.0018464515, -0.03283321, -1647127.6, -16520.295, 0.0, 9.993786, 10.000973 
6.496694e+1, 1.4361143e+2, -1599348.3, -1566761.5, -3202.8552, 0.0013526707, -0.022637034, -1566449.6, -33844.543, 0.0, 9.994914, 9.999225 
6.4974236e+1, 1.5361048e+2, -1484937.9, -1461586.8, -2961.4338, 0.002590221, -0.034330938, -1461217.0, -26602.598, 0.0, 9.996061, 9.99915 
6.4981484e+1, 1.636085e+2, -1386481.4, -1388995.6, -2917.4023, 0.0018229614, -0.036523044, -1384561.8, -47928.02, 0.0, 9.997201, 9.996864 
6.498874e+1, 1.7360544e+2, -1272351.3, -1284186.8, -3181.9287, -0.0018695423, -0.022211213, -1271550.0, -32886.063, 0.0, 9.998341, 9.99677 
6.499601e+1, 1.8360111e+2, -1175331.1, -1213699.4, -3393.1252, -0.002816579, -0.01768064, -1175033.4, -34326.87, 0.0, 9.999441, 9.994359 
6.500332e+1, 1.935952e+2, -1062729.6, -1109928.6, -2979.9365, 0.00067698996, -0.03244848, -1062542.1, -19778.037, 0.0, 10.000491, 9.994239 
6.501057e+1, 2.0358832e+2, -964680.56, -1036791.44, -3148.0696, 0.0024848096, -0.037928965, -964543.44, -19711.863, 0.0, 10.001568, 9.99202 
6.501776e+1, 2.1358036e+2, -850723.2, -932056.44, -3443.4639, 0.0013752672, -0.029068964, -850577.6, -3667.9578, 0.0, 10.002698, 9.991926 
6.5024966e+1, 2.2357117e+2, -753259.9, -861285.06, -3365.7637, -0.00050085236, -0.025642423, -753155.1, -4155.376, 0.0, 10.003823, 9.989522 
6.5032196e+1, 2.3356049e+2, -639735.44, -757133.8, -3253.5852, -0.0038359843, -0.034086388, -639645.3, 11458.959, 0.0, 10.004942, 9.989396 
6.503946e+1, 2.4354877e+2, -541814.3, -685177.4, -3279.3425, -0.0028371266, -0.034481507, -541739.4, 11479.809, 0.0, 10.006056, 9.987077 
6.504674e+1, 2.5353587e+2, -428367.97, -580873.4, -3066.2288, 0.005516489, -0.02286155, -428306.38, 27039.354, 0.0, 10.007161, 9.986969 
6.5054e+1, 2.6352182e+2, -329651.6, -507043.22, -2744.3672, 0.0063174176, -0.019181142, -329609.13, 27874.273, 0.0, 10.008265, 9.984781 
6.506119e+1, 2.735064e+2, -216275.5, -402430.97, -3550.9592, -0.006088793, -0.032653246, -216207.78, 43426.58, 0.0, 10.009352, 9.984705 
6.5068513e+1, 2.834896e+2, -123275.89, -340922.9, -3471.733, -0.008070096, -0.037195433, -123220.53, 38578.17, 0.0, 10.010473, 9.981666 
6.5075994e+1, 2.9347122e+2, -9486.186, -237314.72, -2354.9336, 0.008113714, -0.028530007, -9461.847, 54517.445, 0.0, 10.0116415, 9.9814825 
6.508343e+1, 3.0345595e+2, 102522.7, -84077.43, -1480.7828, 0.0110305175, -0.024820112, 102534.45, 102534.45, 0.0, 10.012795, 9.988068 
6.5090674e+1, 3.1344408e+2, 119627.07, -74419.38, -2824.7485, -0.00959455, -0.03307305, 119668.18, 119668.18, 0.0, 10.013913, 9.988193 
7.494453e+1, 1.236022e+2, -1805213.4, -1731021.3, 1322.7334, -0.00032118708, -0.027999984, -1730997.6, -2302.0232, 0.0, 9.992664, 10.002484 
7.495324e+1, 1.3360304e+2, -1702086.3, -1648426.6, 2352.2688, -0.0011823048, -0.037519317, -1648323.6, -17636.348, 0.0, 9.993785, 10.000888 
7.496186e+1, 1.4360327e+2, -1598867.4, -1565817.5, 1099.9683, 0.0009961737, -0.025417875, -1565780.9, -33095.742, 0.0, 9.994916, 9.999288 
7.497027e+1, 1.5360254e+2, -1484312.8, -1460321.9, 1382.1896, -0.0006880768, -0.023860166, -1460242.5, -25550.158, 0.0, 9.996061, 9.999235 
7.497866e+1, 1.6360058e+2, -1386976.6, -1390040.8, 1372.4199, -0.0012730135, -0.02597104, -1386451.9, -49740.367, 0.0, 9.997202, 9.996792 
7.4987113e+1, 1.7359719e+2, -1273042.1, -1285629.8, 1131.9148, 0.0004720133, -0.034210637, -1272941.1, -34196.465, 0.0, 9.998341, 9.996671 
7.4995494e+1, 1.8359275e+2, -1174786.4, -1212627.5, 600.3103, 0.00095442653, -0.035833925, -1174776.9, -33988.813, 0.0, 9.999444, 9.99443 
7.5003797e+1, 1.9358718e+2, -1062013.4, -1108465.4, 989.41125, -0.0008454547, -0.028798942, -1061992.4, -19149.596, 0.0, 10.000492, 9.994337 
7.5012106e+1, 2.0358042e+2, -965043.25, -1037544.44, 1064.5938, -0.0014250523, -0.024987003, -965027.6, -20118.625, 0.0, 10.001568, 9.991967 
7.5020444e+1, 2.1357225e+2, -851259.5, -933182.5, 824.4188, 0.00013148448, -0.028982954, -851251.25, -4262.093, 0.0, 10.002699, 9.991849 
7.5028807e+1, 2.2356297e+2, -753210.75, -861205.5, 843.85516, 0.0011236055, -0.029450128, -753204.2, -4124.2124, 0.0, 10.003825, 9.989525 
7.5037193e+1, 2.3355244e+2, -639610.7, -756853.44, 954.08466, 0.0010273427, -0.026184158, -639602.94, 11580.29, 0.0, 10.004941, 9.989415 
7.504554e+1, 2.4354078e+2, -541332.44, -684152.94, 881.35516, -0.0003134506, -0.02650464, -541327.0, 11970.635, 0.0, 10.006055, 9.987145 
7.505381e+1, 2.5352773e+2, -427818.75, -579721.3, 1096.9148, -0.0036644714, -0.035404395, -427810.84, 27614.408, 0.0, 10.00716, 9.987047 
7.5062174e+1, 2.6351362e+2, -330876.9, -509571.1, 1353.5785, -0.0033420946, -0.03650958, -330866.66, 26697.008, 0.0, 10.008264, 9.984608 
7.5070643e+1, 2.734982e+2, -217806.25, -405610.66, 543.8677, 0.00351881, -0.026826859, -217804.67, 41910.074, 0.0, 10.009352, 9.984487 
7.507912e+1, 2.834815e+2, -121553.305, -337312.38, 873.79224, 0.005213115, -0.022653757, -121549.766, 40328.754, 0.0, 10.010471, 9.981913 
7.508754e+1, 2.9346323e+2, -7199.679, -232510.61, 2028.6052, -0.0024018714, -0.031356897, -7181.416, 56875.992, 0.0, 10.011639, 9.981812 
7.5096077e+1, 3.0344802e+2, 100831.33, -87575.43, 2731.6602, -0.004583244, -0.033483498, 100870.93, 100870.93, 0.0, 10.012795, 9.987826 
7.510473e+1, 3.1343594e+2, 117202.72, -79419.44, 1373.2686, 0.0030917139, -0.026744528, 117212.305, 117212.305, 0.0, 10.01391, 9.98785 
8.4937227e+1, 1.2359303e+2, -1804555.3, -1730804.0, -3282.465, 0.00028619904, -0.027088307, -1730658.3, -1872.8077, 0.0, 9.99271, 10.002475 
8.494706e+1, 1.3359387e+2, -1701072.5, -1647882.9, -1454.7533, -0.0009019395, -0.0378163, -1647843.0, -17065.86, 0.0, 9.99385, 10.000892 
8.49568e+1, 1.435941e+2, -1597990.8, -1565423.5, -2558.4072, 0.0006683507, -0.026033305, -1565223.8, -32448.756, 0.0, 9.994975, 9.999283 
8.496634e+1, 1.5359336e+2, -1483972.0, -1460230.6, -2959.9023, -0.0010406068, -0.022605268, -1459867.3, -25085.049, 0.0, 9.996087, 9.999227 
8.497585e+1, 1.635914e+2, -1387377.0, -1390422.3, -3274.3645, -0.0013056656, -0.024776578, -1385288.5, -48487.125, 0.0, 9.997181, 9.996774 
8.498541e+1, 1.7358795e+2, -1274472.5, -1286560.1, -2958.6887, 0.0013109975, -0.036049943, -1273787.1, -34951.992, 0.0, 9.998253, 9.996648 
8.4994894e+1, 1.8358351e+2, -1176044.5, -1213163.8, -3364.0295, 0.0019646762, -0.03824568, -1175742.0, -34863.44, 0.0, 9.999354, 9.994434 
8.5004306e+1, 1.9357799e+2, -1061623.3, -1108181.4, -3642.1753, -0.0008576473, -0.027430756, -1061340.0, -18407.07, 0.0, 10.000513, 9.994344 
8.501372e+1, 2.0357123e+2, -964004.3, -1037401.56, -3835.8628, -0.0020115455, -0.022438252, -963804.4, -18805.178, 0.0, 10.001654, 9.991933 
8.5023177e+1, 2.1356298e+2, -850603.1, -933329.25, -3807.4102, -0.00041609132, -0.029437412, -850428.25, -3348.2483, 0.0, 10.002763, 9.991805 
8.5032636e+1, 2.2355369e+2, -752786.7, -860752.2, -3711.993, 0.0011238966, -0.031070227, -752659.25, -3488.137, 0.0, 10.003841, 9.989546 
8.504211e+1, 2.335432e+2, -640373.94, -756885.7, -3554.6968, 0.002251673, -0.025611585, -640265.6, 11008.295, 0.0, 10.004873, 9.989443 
8.5051554e+1, 2.4353154e+2, -542901.56, -684956.44, -3616.3157, 0.0009521279, -0.025293637, -542809.56, 10578.543, 0.0, 10.005948, 9.987141 
8.5060936e+1, 2.5351846e+2, -428805.7, -580343.2, -4057.048, -0.0045475275, -0.036184642, -428697.13, 26818.88, 0.0, 10.007098, 9.987032 
8.5070413e+1, 2.6350433e+2, -331228.97, -509753.53, -3700.1812, -0.0043453625, -0.037901774, -331152.3, 26502.285, 0.0, 10.008239, 9.984606 
8.5080016e+1, 2.7348894e+2, -217730.75, -405589.2, -2967.5244, 0.0054375315, -0.026607117, -217683.88, 42121.668, 0.0, 10.0093565, 9.984484 
8.508961e+1, 2.8347224e+2, -121393.89, -337113.25, -2305.3643, 0.0073907916, -0.021799633, -121369.26, 40599.992, 0.0, 10.010475, 9.981921 
8.509913e+1, 2.93454e+2, -7881.376, -232714.22, -3479.7441, -0.004696779, -0.031578146, -7827.5327, 56320.6, 0.0, 10.011585, 9.98182 
8.5108787e+1, 3.0343878e+2, 99601.28, -87695.65, -3329.6501, -0.007336261, -0.034131262, 99660.45, 99660.45, 0.0, 10.012688, 9.987868 
8.5118604e+1, 3.1342676e+2, 115509.36, -79749.52, -1925.3698, 0.007034613, -0.02671333, 115528.34, 115528.34, 0.0, 10.013772, 9.987891 
9.492994e+1, 1.23582706e+2, -1804029.3, -1729754.5, 849.9411, -0.00025749503, -0.025494976, -1729744.9, -858.03906, 0.0, 9.992711, 10.002544 
9.494091e+1, 1.3358366e+2, -1700411.8, -1646484.9, 2834.5403, -0.0014033112, -0.03363034, -1646336.4, -15459.006, 0.0, 9.993849, 10.000986 
9.4951767e+1, 1.435839e+2, -1598501.1, -1566436.1, 1635.2655, -0.000113968264, -0.024162006, -1566352.9, -33477.855, 0.0, 9.994973, 9.999214 
9.496245e+1, 1.5358296e+2, -1484665.3, -1461657.9, 1261.6609, 0.0008270942, -0.030841626, -1461588.9, -26704.799, 0.0, 9.996087, 9.999129 
9.4973063e+1, 1.6358097e+2, -1387114.4, -1389918.5, 787.6601, 0.00080768333, -0.033143844, -1386908.3, -50004.547, 0.0, 9.997183, 9.996806 
9.4983655e+1, 1.7357773e+2, -1274068.9, -1285745.0, 1100.9146, -0.00017094998, -0.027758338, -1273966.0, -35030.504, 0.0, 9.998253, 9.996702 
9.4994235e+1, 1.8357335e+2, -1176467.9, -1214050.3, 958.06226, -0.0005964607, -0.024680696, -1176443.5, -35465.043, 0.0, 9.999354, 9.994373 
9.500482e+1, 1.9356757e+2, -1062206.6, -1109374.5, 750.47833, -0.00019730441, -0.028408594, -1062194.6, -19159.824, 0.0, 10.000512, 9.994262 
9.501539e+1, 2.035607e+2, -964136.0, -1037644.9, 365.26544, -0.00025753648, -0.030292641, -964134.2, -19031.953, 0.0, 10.001652, 9.991916 
9.502593e+1, 2.1355252e+2, -850649.7, -933410.94, 380.1999, -0.0011326568, -0.030521445, -850647.94, -3465.4924, 0.0, 10.002762, 9.991799 
9.503646e+1, 2.2354324e+2, -752528.7, -860231.56, 196.96495, -0.0015493265, -0.030415582, -752528.3, -3255.089, 0.0, 10.003842, 9.989579 
9.504695e+1, 2.3353273e+2, -640082.9, -756277.0, 321.8697, -0.0011271299, -0.032241944, -640081.94, 11294.398, 0.0, 10.004872, 9.989484 
9.5057493e+1, 2.4352108e+2, -543472.94, -686137.56, 628.08655, -0.0000798384, -0.030673085, -543470.1, 10020.428, 0.0, 10.005947, 9.987059 
9.50681e+1, 2.5350806e+2, -429532.16, -581842.25, 266.82828, 0.0021236457, -0.025452005, -429531.7, 26086.385, 0.0, 10.007098, 9.986929 
9.507872e+1, 2.6349396e+2, -330053.2, -507321.53, 505.5328, 0.0021277757, -0.023877732, -330051.75, 27704.469, 0.0, 10.008239, 9.98477 
9.5089304e+1, 2.734786e+2, -216270.78, -402518.22, 1217.0529, -0.0015454951, -0.031817075, -216262.83, 43643.996, 0.0, 10.009355, 9.984693 
9.509999e+1, 2.8346184e+2, -122994.71, -340354.84, 1834.9047, -0.0026835538, -0.034230918, -122979.22, 39091.664, 0.0, 10.010471, 9.981701 
9.511076e+1, 2.9344344e+2, -10015.808, -237104.86, 668.53406, 0.0006610041, -0.02944975, -10013.839, 54237.582, 0.0, 10.011582, 9.981521 
9.5121574e+1, 3.0342826e+2, 101822.88, -83085.22, 743.0389, 0.0019904885, -0.027130773, 101825.87, 101825.87, 0.0, 10.01269, 9.988182 
9.5132315e+1, 3.134165e+2, 118544.04, -73492.086, 2126.4866, -0.00022309639, -0.03262416, 118567.586, 118567.586, 0.0, 10.013775, 9.988318 
1.04922675e+2, 1.23571314e+2, -1803426.0, -1729713.3, -3017.0725, 0.00019828195, -0.025799235, -1729590.0, -591.5868, 0.0, 9.992761, 10.002521 
1.0493475e+2, 1.3357228e+2, -1700621.0, -1646608.6, -1710.5728, -0.0006830672, -0.03245921, -1646554.5, -15565.69, 0.0, 9.993833, 10.000983 
1.04946725e+2, 1.435725e+2, -1599114.5, -1567130.3, -3087.8716, -0.0003497176, -0.02338872, -1566834.9, -33848.133, 0.0, 9.994947, 9.999176 
1.0495856e+2, 1.5357149e+2, -1484159.9, -1461900.9, -3054.7468, 0.0009602859, -0.03305831, -1461489.4, -26492.848, 0.0, 9.996141, 9.999083 
1.0497029e+2, 1.6356947e+2, -1385578.4, -1389202.9, -3683.0874, 0.0010686461, -0.035502717, -1383285.9, -46269.375, 0.0, 9.997287, 9.996801 
1.0498196e+2, 1.7356627e+2, -1272438.1, -1284928.9, -3802.4321, -0.00050459825, -0.02553444, -1271371.6, -32323.916, 0.0, 9.998362, 9.996702 
1.0499362e+2, 1.8356189e+2, -1175431.6, -1213865.1, -3902.4482, -0.0008969106, -0.02114966, -1175039.4, -33948.637, 0.0, 9.999436, 9.994343 
1.05005346e+2, 1.9355604e+2, -1062308.9, -1109831.3, -3759.5942, 0.00038618688, -0.029225558, -1062013.3, -18865.354, 0.0, 10.000522, 9.994223 
1.0501702e+2, 2.0354913e+2, -964833.0, -1037823.25, -3952.0989, 0.0006535347, -0.03294442, -964619.6, -19403.984, 0.0, 10.001596, 9.991927 
1.05028644e+2, 2.1354099e+2, -852003.4, -933833.94, -3764.03, -0.0010004144, -0.030729298, -851830.6, -4535.157, 0.0, 10.002658, 9.991817 
1.0504025e+2, 2.2353174e+2, -753966.6, -861174.56, -3974.6045, -0.001839617, -0.029372508, -753819.44, -4433.324, 0.0, 10.003753, 9.989555 
1.05051845e+2, 2.3352116e+2, -639717.75, -756456.7, -4387.193, -0.0014445106, -0.032325283, -639553.1, 11936.558, 0.0, 10.004911, 9.989449 
1.0506349e+2, 2.4350949e+2, -542067.4, -685452.9, -4039.7847, 0.00003332527, -0.031140273, -541953.6, 11650.498, 0.0, 10.0060425, 9.987057 
1.05075225e+2, 2.534965e+2, -429080.44, -581577.9, -3623.3806, 0.0032362666, -0.025109598, -428994.38, 26737.158, 0.0, 10.007126, 9.98693 
1.0508695e+2, 2.634824e+2, -330531.66, -507530.53, -3504.6714, 0.0031720188, -0.02339117, -330462.28, 27407.365, 0.0, 10.0082035, 9.984771 
1.05098605e+2, 2.73467e+2, -217480.39, -403105.8, -4367.7417, -0.0026618529, -0.032006294, -217377.69, 42642.65, 0.0, 10.00927, 9.984691 
1.0511039e+2, 2.8345028e+2, -124588.195, -340922.25, -3802.1934, -0.003961806, -0.034687467, -124521.39, 37662.96, 0.0, 10.010351, 9.981717 
1.051223e+2, 2.9343188e+2, -11708.472, -237701.77, -2649.2493, 0.0026160744, -0.029676437, -11677.42, 52687.27, 0.0, 10.011455, 9.981538 
1.05134256e+2, 3.034167e+2, 100774.055, -83877.65, -1981.4628, 0.0045033707, -0.026939739, 100795.31, 100795.31, 0.0, 10.012626, 9.988156 
1.0514613e+2, 3.1340495e+2, 120250.375, -73071.29, -3936.5413, -0.0022911257, -0.031552076, 120330.5, 120330.5, 0.0, 10.013906, 9.988281 
1.1491545e+2, 1.2355885e+2, -1804333.0, -1731534.4, 929.6345, 0.00032473356, -0.02801454, -1731522.5, -2401.9834, 0.0, 9.992759, 10.002397 
1.149286e+2, 1.335597e+2, -1701424.8, -1648208.6, 2330.1377, 0.00078751537, -0.034498397, -1648106.9, -16994.783, 0.0, 9.993831, 10.000874 
1.14941664e+2, 1.4355986e+2, -1599190.5, -1567236.9, 1330.759, -0.00082345976, -0.023878364, -1567181.6, -34071.066, 0.0, 9.994944, 9.99917 
1.1495468e+2, 1.5355891e+2, -1484116.8, -1461790.0, 1467.8287, -0.0012384364, -0.029062398, -1461693.9, -26574.152, 0.0, 9.99614, 9.999089 
1.1496756e+2, 1.6355687e+2, -1385832.4, -1389745.5, 420.01007, -0.0013391877, -0.031562425, -1385787.9, -48647.977, 0.0, 9.997287, 9.996763 
1.14980325e+2, 1.7355356e+2, -1272774.3, -1285633.8, 269.26266, -0.0003068082, -0.02940246, -1272768.6, -33596.254, 0.0, 9.998362, 9.996653 
1.1499307e+2, 1.8354912e+2, -1175423.0, -1213847.1, 187.74606, 0.00023992924, -0.027837703, -1175422.1, -34206.297, 0.0, 9.999436, 9.994343 
1.15005866e+2, 1.9354333e+2, -1062251.9, -1109710.3, 354.04114, 0.00008245501, -0.029965315, -1062249.3, -18976.879, 0.0, 10.000522, 9.99423 
1.1501861e+2, 2.0353648e+2, -964533.44, -1037209.0, 55.285324, -0.00026361592, -0.03044668, -964533.4, -19193.79, 0.0, 10.001596, 9.991968 
1.1503131e+2, 2.1352836e+2, -851679.9, -933154.3, 233.26527, -0.00066956016, -0.030049356, -851679.25, -4260.0327, 0.0, 10.002657, 9.991863 
1.1504402e+2, 2.235191e+2, -754527.56, -862337.3, 312.71652, -0.00065305596, -0.02803674, -754526.6, -5016.737, 0.0, 10.003754, 9.989475 
1.1505677e+2, 2.3350848e+2, -640460.2, -757964.3, -31.166683, 0.00021087588, -0.025936006, -640460.2, 11153.797, 0.0, 10.0049095, 9.989346 
1.1506953e+2, 2.4349676e+2, -541528.25, -684311.7, 45.919907, 0.00012945481, -0.026652388, -541528.2, 12200.626, 0.0, 10.006042, 9.987133 
1.150823e+2, 2.5348374e+2, -428357.47, -580003.1, 424.43677, -0.0016088296, -0.0347939, -428356.28, 27500.152, 0.0, 10.007122, 9.987039 
1.1509511e+2, 2.634696e+2, -331694.88, -509882.4, 485.20233, -0.0018812928, -0.035898525, -331693.56, 26301.305, 0.0, 10.008201, 9.98461 
1.1510791e+2, 2.734542e+2, -218944.5, -406133.16, -376.19174, 0.0006920335, -0.027606567, -218943.73, 41202.367, 0.0, 10.009269, 9.984483 
1.15120806e+2, 2.834375e+2, -122791.39, -337210.0, 279.8001, 0.0018687581, -0.023820046, -122791.02, 39518.65, 0.0, 10.010352, 9.981969 
1.1513374e+2, 2.934193e+2, -9372.766, -232822.88, 1434.6945, 0.0006508364, -0.03162813, -9363.555, 55124.332, 0.0, 10.011455, 9.981871 
1.1514684e+2, 3.0340415e+2, 98257.27, -89045.99, 2676.0818, -0.00062528107, -0.0329517, 98295.5, 98295.5, 0.0, 10.012623, 9.987802 
1.15160055e+2, 3.1339204e+2, 116774.54, -80189.89, 894.7669, -0.0017048835, -0.024801856, 116778.6, 116778.6, 0.0, 10.013901, 9.987794 
1.2490819e+2, 1.2354521e+2, -1805032.0, -1732559.6, -3768.5225, -0.000020441117, -0.028262613, -1732364.1, -3110.027, 0.0, 9.99274, 10.002332 
1.2492255e+2, 1.3354601e+2, -1698401.4, -1647124.9, -1799.2083, 0.001912621, -0.036082428, -1647061.9, -15815.613, 0.0, 9.99405, 10.000836 
1.2493674e+2, 1.4354615e+2, -1595481.8, -1565666.8, -3007.6274, -0.0007632126, -0.025186108, -1565366.5, -32121.463, 0.0, 9.995205, 9.9991455 
1.249508e+2, 1.5354522e+2, -1484854.9, -1462378.4, -3176.9927, -0.0012115901, -0.026831264, -1461938.0, -26683.818, 0.0, 9.996097, 9.999067 
1.2496476e+2, 1.6354315e+2, -1388448.3, -1391109.5, -3887.86, -0.001252858, -0.02867425, -1385669.6, -48395.27, 0.0, 9.997112, 9.996752 
1.24978684e+2, 1.7353977e+2, -1272962.1, -1285814.1, -3692.4202, -0.00021427586, -0.030972974, -1271976.9, -32669.52, 0.0, 9.998351, 9.996641 
1.2499255e+2, 1.8353531e+2, -1174512.3, -1213673.9, -4026.5066, 0.0003599463, -0.031161461, -1174102.5, -32751.447, 0.0, 9.999509, 9.994316 
1.250064e+2, 1.9352953e+2, -1062408.0, -1110099.1, -4186.355, -0.00008483419, -0.030270707, -1062043.4, -18635.625, 0.0, 10.000523, 9.994199 
1.250202e+2, 2.0352267e+2, -964731.7, -1037280.2, -4576.2915, -0.00028411963, -0.02901049, -964444.1, -18969.193, 0.0, 10.00158, 9.991967 
1.25034e+2, 2.1351455e+2, -850701.6, -932622.56, -4669.7734, 0.000045974957, -0.029098932, -850436.3, -2881.7576, 0.0, 10.00272, 9.991864 
1.2504782e+2, 2.2350527e+2, -753573.1, -862081.25, -4539.5605, 0.00044800207, -0.02776688, -753383.5, -3738.1516, 0.0, 10.003825, 9.989453 
1.2506166e+2, 2.3349462e+2, -641176.8, -758599.1, -4329.9707, 0.0007456015, -0.02657362, -641017.4, 10732.434, 0.0, 10.004872, 9.989317 
1.2507552e+2, 2.4348289e+2, -543220.5, -685023.8, -4218.8667, 0.00007491351, -0.027545696, -543095.06, 10769.737, 0.0, 10.0059185, 9.987141 
1.2508935e+2, 2.5346988e+2, -430432.75, -580862.44, -4570.4287, -0.0025449418, -0.0346486, -430294.03, 25698.22, 0.0, 10.006972, 9.987047 
1.2510324e+2, 2.6345575e+2, -333429.03, -510674.84, -4150.4897, -0.0025055937, -0.035367273, -333331.88, 24798.688, 0.0, 10.008078, 9.984611 
1.251172e+2, 2.7344033e+2, -218747.67, -406044.5, -3490.5718, 0.001983548, -0.027771423, -218682.64, 41599.258, 0.0, 10.009281, 9.984479 
1.251312e+2, 2.834236e+2, -121858.76, -337144.72, -3022.2974, 0.003483802, -0.024164971, -121816.336, 40629.305, 0.0, 10.010431, 9.981932 
1.251452e+2, 2.9340538e+2, -9330.709, -233279.27, -4634.7783, -0.000521432, -0.030586846, -9234.83, 55389.344, 0.0, 10.011476, 9.981826 
1.251594e+2, 3.0339023e+2, 97387.75, -88739.086, -3347.4546, -0.0020302024, -0.032240737, 97447.93, 97447.93, 0.0, 10.012529, 9.987864 
1.2517382e+2, 3.1337816e+2, 112979.13, -81087.6, -1084.787, 0.0013043976, -0.027474664, 112985.195, 112985.195, 0.0, 10.013597, 9.987876 
1.3490091e+2, 1.2353034e+2, -1805079.0, -1732560.9, 1102.7727, -0.0029388657, -0.026352415, -1732544.1, -3144.3645, 0.0, 9.992735, 10.002333 
1.349166e+2, 1.3353115e+2, -1698143.3, -1646564.8, 3137.3071, 0.0021003294, -0.037067622, -1646374.6, -14982.8125, 0.0, 9.994048, 10.000874 
1.3493195e+2, 1.4353128e+2, -1595711.0, -1566147.3, 551.8463, -0.0008978018, -0.027525848, -1566136.9, -32746.338, 0.0, 9.995205, 9.999112 
1.3494691e+2, 1.5353033e+2, -1485224.3, -1463125.0, 180.41945, 0.00022091946, -0.026421677, -1463123.5, -27723.531, 0.0, 9.996097, 9.999016 
1.349619e+2, 1.6352826e+2, -1388315.3, -1390822.4, 600.8955, 0.00035505288, -0.02686896, -1388178.8, -50758.453, 0.0, 9.99711, 9.996771 
1.3497704e+2, 1.7352492e+2, -1272746.6, -1285379.1, 1017.11896, -0.00080948265, -0.030230533, -1272665.3, -33212.297, 0.0, 9.998351, 9.99667 
1.3499203e+2, 1.8352044e+2, -1174834.6, -1214357.8, -87.06697, -0.0014930079, -0.031079285, -1174834.4, -33337.516, 0.0, 9.999509, 9.994268 
1.3500689e+2, 1.9351459e+2, -1062866.5, -1111038.3, -359.7217, -0.0012317755, -0.030059248, -1062863.9, -19309.68, 0.0, 10.000522, 9.994134 
1.3502178e+2, 2.0350768e+2, -964983.44, -1037799.7, -361.43857, -0.0007270592, -0.02852467, -964981.6, -19359.752, 0.0, 10.00158, 9.991931 
1.3503672e+2, 2.1349953e+2, -850929.9, -933101.9, -363.6043, 0.00027928752, -0.027893512, -850928.3, -3226.5344, 0.0, 10.00272, 9.991831 
1.3505165e+2, 2.2349025e+2, -753282.06, -861479.44, -573.58636, 0.00042408632, -0.028551588, -753279.06, -3486.299, 0.0, 10.003825, 9.989493 
1.3506652e+2, 2.3347957e+2, -640840.8, -757857.7, -412.8344, -0.00073279586, -0.03388924, -640839.4, 11057.897, 0.0, 10.004869, 9.9893675 
1.3508143e+2, 2.4346785e+2, -543649.7, -685885.44, -299.3652, -0.0012413918, -0.033563938, -543649.06, 10363.091, 0.0, 10.005918, 9.987081 
1.3509633e+2, 2.5345492e+2, -431006.8, -582032.56, -633.13275, -0.00047342334, -0.025186919, -431004.16, 25134.867, 0.0, 10.00697, 9.986967 
1.3511135e+2, 2.6344085e+2, -332314.7, -508377.4, 242.40005, -0.0000058929204, -0.022096336, -332314.34, 25962.469, 0.0, 10.008079, 9.984766 
1.3512647e+2, 2.7342546e+2, -217418.83, -403185.2, 982.1271, 0.00018384491, -0.031968437, -217413.64, 43014.09, 0.0, 10.009276, 9.984675 
1.3514161e+2, 2.8340867e+2, -124100.34, -341675.75, 924.49335, -0.00017970405, -0.034802336, -124096.414, 38495.766, 0.0, 10.010426, 9.981624 
1.3515666e+2, 2.9339015e+2, -12169.733, -239189.73, -736.04865, -0.0014229837, -0.02723366, -12167.347, 52606.105, 0.0, 10.0114765, 9.98142 
1.3517195e+2, 3.03375e+2, 100601.734, -82086.97, 629.5971, -0.00062978826, -0.0255451, 100603.9, 100603.9, 0.0, 10.012531, 9.9883175 
1.3518748e+2, 3.1336334e+2, 117258.7, -72098.51, 2838.801, 0.004239395, -0.038239013, 117301.25, 117301.25, 0.0, 10.013594, 9.988493 
1.448938e+2, 1.2351441e+2, -1800854.5, -1730995.4, -2896.2813, -0.002636165, -0.026037464, -1730875.5, -1319.4891, 0.0, 9.993039, 10.002288 
1.4491059e+2, 1.3351521e+2, -1700351.1, -1647695.1, -1328.6494, 0.0028625, -0.03571819, -1647661.6, -16113.667, 0.0, 9.993897, 10.000867 
1.44927e+2, 1.4351533e+2, -1599704.3, -1568055.5, -3893.0474, -0.0019381536, -0.027167106, -1567583.6, -34036.73, 0.0, 9.994929, 9.999112 
1.449431e+2, 1.5351436e+2, -1482476.0, -1461777.9, -3882.8213, 0.00042356385, -0.027885394, -1461073.5, -25517.008, 0.0, 9.996281, 9.999013 
1.4495918e+2, 1.6351226e+2, -1383492.5, -1389046.8, -3662.8682, 0.0013081288, -0.02874511, -1381673.0, -44096.008, 0.0, 9.997461, 9.9967165 
1.449754e+2, 1.7350887e+2, -1273243.3, -1286304.5, -3967.895, -0.00016067957, -0.030025559, -1272132.3, -32522.07, 0.0, 9.998344, 9.996606 
1.4499147e+2, 1.8350436e+2, -1177150.0, -1215230.0, -5089.469, -0.001070248, -0.029695703, -1176481.5, -34827.21, 0.0, 9.999339, 9.994287 
1.4500743e+2, 1.9349855e+2, -1062316.5, -1110362.8, -4604.662, -0.001175422, -0.029289085, -1061879.3, -18167.883, 0.0, 10.00054, 9.994167 
1.450234e+2, 2.0349164e+2, -964073.1, -1037962.8, -4341.509, -0.00094060093, -0.028438516, -963818.9, -18039.764, 0.0, 10.001666, 9.991874 
1.4503941e+2, 2.134834e+2, -852322.3, -934589.0, -4665.079, -0.000005544067, -0.028607145, -852058.6, -4198.8486, 0.0, 10.002659, 9.991755 
1.4505541e+2, 2.2347407e+2, -754827.9, -861831.56, -4959.6025, 0.00020517371, -0.029483663, -754598.44, -4647.3477, 0.0, 10.003701, 9.989525 
1.4507139e+2, 2.3346347e+2, -640898.9, -757286.6, -4773.479, -0.0010104969, -0.034055214, -640703.44, 11351.671, 0.0, 10.004838, 9.989417 
1.4508738e+2, 2.4345177e+2, -543157.25, -685986.8, -4569.3525, -0.00093223754, -0.03315823, -543011.2, 11158.537, 0.0, 10.005964, 9.987047 
1.4510337e+2, 2.5343877e+2, -429891.16, -582037.1, -4694.0674, 0.0012751862, -0.024620418, -429746.47, 26550.643, 0.0, 10.00707, 9.986916 
1.4511946e+2, 2.6342472e+2, -331475.88, -507816.47, -4058.7234, 0.0017417022, -0.021664934, -331382.5, 27052.652, 0.0, 10.008127, 9.9847765 
1.4513564e+2, 2.734093e+2, -219757.05, -404041.34, -4587.5024, -0.0010049542, -0.03229248, -219642.9, 40943.016, 0.0, 10.009102, 9.984696 
1.4515188e+2, 2.8339252e+2, -127537.54, -343089.47, -4115.5376, -0.0018702975, -0.035675656, -127458.99, 35291.234, 0.0, 10.010176, 9.981643 
1.4516814e+2, 2.9337406e+2, -12626.691, -239176.25, -2752.209, 0.0006844806, -0.028247386, -12593.261, 52338.08, 0.0, 10.011432, 9.981439 
1.4518453e+2, 3.0335888e+2, 101271.266, -81985.14, -1491.993, 0.0021958079, -0.025712168, 101283.414, 101283.414, 0.0, 10.012584, 9.9882965 
1.45201e+2, 3.1334722e+2, 116120.66, -72975.4, -3947.4019, 0.0019241982, -0.035614517, 116203.02, 116203.02, 0.0, 10.013526, 9.98846 
1.5488686e+2, 1.2349734e+2, -1801548.4, -1732419.9, 486.73566, -0.00081684376, -0.027515702, -1732416.5, -2693.2754, 0.0, 9.99304, 10.002189 
1.549045e+2, 1.3349813e+2, -1700817.6, -1648527.8, 1848.8743, 0.0035751348, -0.03203852, -1648462.4, -16747.041, 0.0, 9.993893, 10.000812 
1.549219e+2, 1.4349823e+2, -1599515.1, -1567549.8, 920.3773, -0.0048358985, -0.023877902, -1567523.3, -33808.77, 0.0, 9.994924, 9.999147 
1.5493937e+2, 1.5349723e+2, -1482113.3, -1461018.0, 1254.3202, -0.00166181, -0.03130147, -1460943.6, -25219.525, 0.0, 9.996279, 9.9990635 
1.5495665e+2, 1.6349511e+2, -1384333.6, -1390834.5, -92.077286, 0.00040940565, -0.034395706, -1384332.3, -46587.23, 0.0, 9.997464, 9.996592 
1.5497375e+2, 1.7349161e+2, -1274338.6, -1288584.6, -652.41943, 0.00091812044, -0.030328242, -1274308.8, -34529.387, 0.0, 9.998346, 9.9964485 
1.5499082e+2, 1.8348709e+2, -1176484.5, -1213865.5, -740.75806, 0.000638881, -0.026958171, -1176469.8, -34646.094, 0.0, 9.999338, 9.994378 
1.5500797e+2, 1.934814e+2, -1061329.3, -1108365.4, -52.061657, -0.0010801624, -0.027923746, -1061329.1, -17449.705, 0.0, 10.000541, 9.994301 
1.5502505e+2, 2.034745e+2, -964578.94, -1039023.4, -516.121, -0.002121451, -0.028668178, -964575.4, -18628.406, 0.0, 10.001667, 9.991799 
1.5504205e+2, 2.1346614e+2, -853126.25, -936232.56, -950.07477, -0.001582539, -0.031072972, -853115.4, -5086.4595, 0.0, 10.002657, 9.991642 
1.550591e+2, 2.2345679e+2, -754609.06, -861384.7, -775.69836, -0.0013005172, -0.030570632, -754603.44, -4482.743, 0.0, 10.003701, 9.989553 
1.5507622e+2, 2.334463e+2, -640543.06, -756499.25, -503.66507, -0.0012223285, -0.027345445, -640540.9, 11682.521, 0.0, 10.004835, 9.9894705 
1.5509334e+2, 2.4343464e+2, -543232.6, -686069.94, -449.39355, -0.0003316383, -0.026396677, -543231.2, 11106.537, 0.0, 10.00596, 9.987041 
1.5511045e+2, 2.534215e+2, -430047.28, -582300.7, -570.32794, 0.0020075073, -0.0322641, -430045.16, 26421.396, 0.0, 10.007067, 9.9868965 
1.551276e+2, 2.634073e+2, -332348.22, -509587.7, -371.41183, 0.0018397983, -0.03345777, -332347.44, 26258.13, 0.0, 10.008125, 9.984654 
1.5514474e+2, 2.733919e+2, -220766.1, -406127.47, -968.61945, -0.0027713706, -0.029146446, -220761.03, 39995.438, 0.0, 10.009102, 9.984552 
1.5516207e+2, 2.8337523e+2, -125234.8, -338261.44, 368.01074, -0.0029400545, -0.027360143, -125234.164, 37685.594, 0.0, 10.010174, 9.981972 
1.551796e+2, 2.9335704e+2, -9780.336, -233101.61, 1883.2347, 0.0050834827, -0.033184513, -9764.456, 55333.496, 0.0, 10.011425, 9.981855 
1.5519716e+2, 3.0334193e+2, 97951.84, -88698.92, 2135.3035, 0.005838843, -0.03220343, 97976.27, 97976.27, 0.0, 10.012575, 9.987838 
1.5521444e+2, 3.1332988e+2, 111701.555, -82212.87, -397.0211, -0.0069653806, -0.021080561, 111702.37, 111702.37, 0.0, 10.01353, 9.987823 
1.6487983e+2, 1.2347917e+2, -1804028.5, -1734173.5, -3788.8452, -0.00080963125, -0.029203294, -1733968.6, -4067.3196, 0.0, 9.992892, 10.002137 
1.6489853e+2, 1.3347998e+2, -1696833.3, -1646603.3, -2306.4597, 0.0048738224, -0.03182122, -1646497.6, -14604.303, 0.0, 9.99416, 10.000807 
1.6491699e+2, 1.4348006e+2, -1594494.5, -1565615.9, -3038.6582, -0.005365676, -0.024143891, -1565299.6, -31406.99, 0.0, 9.995283, 9.9991 
1.6493557e+2, 1.5347901e+2, -1484088.6, -1462635.0, -3511.4993, -0.0019209273, -0.030981982, -1462074.9, -26172.057, 0.0, 9.99617, 9.999002 
1.6495396e+2, 1.6347684e+2, -1388336.0, -1392615.6, -5087.051, 0.00034881989, -0.03376148, -1384957.0, -47032.906, 0.0, 9.997181, 9.996604 
1.6497213e+2, 1.7347336e+2, -1272875.0, -1287585.5, -4339.0293, 0.00049974077, -0.030032858, -1271690.5, -31732.342, 0.0, 9.99843, 9.996471 
1.6499028e+2, 1.8346883e+2, -1173395.9, -1212956.4, -4054.6528, 0.0004067542, -0.027165286, -1172984.6, -30981.916, 0.0, 9.999572, 9.994322 
1.6500852e+2, 1.9346306e+2, -1062171.6, -1109558.8, -4896.498, -0.00033740504, -0.028766949, -1061671.0, -17611.8, 0.0, 10.000516, 9.994227 
1.6502668e+2, 2.0345613e+2, -966147.75, -1039467.94, -5863.882, -0.0009156755, -0.029671934, -965681.7, -19554.713, 0.0, 10.001544, 9.991823 
1.6504475e+2, 2.1344781e+2, -851777.0, -935079.2, -5161.94, -0.0010807427, -0.031428784, -851458.3, -3249.784, 0.0, 10.002727, 9.991682 
1.6506286e+2, 2.2343846e+2, -753133.9, -861155.2, -4698.234, -0.00097279204, -0.030271173, -752929.94, -2629.7615, 0.0, 10.00382, 9.989507 
1.6508102e+2, 2.3342791e+2, -642028.0, -757918.3, -5309.0977, -0.00060140283, -0.026260087, -641785.25, 10618.227, 0.0, 10.004762, 9.989405 
1.6509922e+2, 2.4341622e+2, -545718.0, -686964.7, -5337.167, -0.000090480804, -0.025767617, -545516.6, 9001.561, 0.0, 10.005775, 9.987064 
1.6511743e+2, 2.534031e+2, -431818.9, -582682.2, -5015.2124, 0.0006499946, -0.03411538, -431652.34, 24994.438, 0.0, 10.006922, 9.986936 
1.6513567e+2, 2.633889e+2, -333576.4, -510406.75, -4538.4175, 0.0007622095, -0.03581894, -333460.0, 25325.729, 0.0, 10.008049, 9.984631 
1.6515388e+2, 2.733735e+2, -220456.92, -406365.8, -4408.423, -0.0006105073, -0.028154591, -220352.45, 40584.254, 0.0, 10.009136, 9.984515 
1.6517225e+2, 2.8335685e+2, -124821.08, -337791.47, -3243.896, -0.0003532343, -0.024940602, -124771.68, 38328.32, 0.0, 10.010188, 9.981993 
1.6519088e+2, 2.9333866e+2, -13309.806, -234420.3, -4440.3022, 0.0027169469, -0.033053547, -13220.672, 52057.438, 0.0, 10.011162, 9.981886 
1.6520952e+2, 3.0332357e+2, 93777.96, -89877.72, -4132.7656, 0.0025566542, -0.0331926, 93870.914, 93870.914, 0.0, 10.012248, 9.987909 
1.6522801e+2, 3.133116e+2, 112626.59, -80840.31, -1722.957, -0.0034552994, -0.021013588, 112641.94, 112641.94, 0.0, 10.013547, 9.987906 
1.7487268e+2, 1.2345984e+2, -1804130.1, -1734198.5, 1213.1328, -0.004624415, -0.03122254, -1734177.5, -4086.8599, 0.0, 9.992884, 10.002137 
1.7489271e+2, 1.334607e+2, -1696484.0, -1645834.1, 2465.6843, 0.00619326, -0.035224307, -1645714.4, -13632.038, 0.0, 9.994158, 10.000858 
1.749123e+2, 1.4346072e+2, -1595445.1, -1567583.5, 468.8811, -0.004230786, -0.028118866, -1567575.6, -33493.684, 0.0, 9.995284, 9.998963 
1.7493176e+2, 1.5345958e+2, -1485357.0, -1465178.4, -197.40245, -0.00125403, -0.026784774, -1465176.4, -29083.18, 0.0, 9.996167, 9.998829 
1.7495114e+2, 1.6345741e+2, -1387253.0, -1390358.3, -576.70013, -0.00020160776, -0.026605656, -1387149.4, -49034.797, 0.0, 9.99718, 9.996756 
1.7497054e+2, 1.7345409e+2, -1271364.6, -1284488.0, 415.9673, -0.002175455, -0.029128604, -1271351.5, -31204.39, 0.0, 9.99843, 9.996679 
1.7498982e+2, 1.8344954e+2, -1174817.5, -1215898.9, -325.98578, -0.0025593278, -0.030236041, -1174814.9, -32623.36, 0.0, 9.999572, 9.994121 
1.7500903e+2, 1.9344349e+2, -1064131.9, -1113631.6, -1336.8823, 0.000020169326, -0.03183128, -1064095.8, -19844.904, 0.0, 10.000517, 9.993947 
1.7502825e+2, 2.0343648e+2, -965235.0, -1037624.9, -1560.6848, 0.0014001814, -0.031425994, -965201.3, -18881.734, 0.0, 10.001545, 9.991946 
1.750475e+2, 2.134284e+2, -850405.9, -932204.94, -709.58417, 0.00058383285, -0.029669823, -850399.7, -2000.7958, 0.0, 10.002724, 9.991878 
1.750667e+2, 2.234191e+2, -753985.56, -862862.25, -1055.2715, -0.00011219578, -0.028448302, -753975.3, -3485.4595, 0.0, 10.003818, 9.98939 
1.7508578e+2, 2.3340833e+2, -643278.0, -760516.6, -1797.909, -0.000290814, -0.030563103, -643250.44, 9345.097, 0.0, 10.004763, 9.989225 
1.7510498e+2, 2.4339654e+2, -545321.1, -686166.8, -1181.7258, -0.0012241324, -0.03095252, -545311.2, 9399.893, 0.0, 10.005776, 9.987117 
1.7512432e+2, 2.5338358e+2, -431186.16, -581281.3, -729.7065, -0.0034234738, -0.030596875, -431182.63, 25655.375, 0.0, 10.006917, 9.987032 
1.7514369e+2, 2.633695e+2, -333126.66, -509359.3, -477.9889, -0.0025100496, -0.029143669, -333125.34, 25850.41, 0.0, 10.008044, 9.984703 
1.7516306e+2, 2.733541e+2, -220017.14, -405384.44, -391.1299, 0.0040791, -0.029186394, -220016.31, 41110.47, 0.0, 10.009134, 9.984581 
1.751825e+2, 2.8333738e+2, -126692.086, -341625.8, 402.3255, 0.0044914014, -0.028163694, -126691.336, 36599.65, 0.0, 10.010185, 9.9817295 
1.7520195e+2, 2.9331893e+2, -15628.795, -239234.8, -835.9155, -0.0067480956, -0.02834489, -15625.67, 49845.977, 0.0, 10.011162, 9.981555 
1.7522168e+2, 3.0330387e+2, 97660.69, -81766.336, 478.24594, -0.008244275, -0.029134866, 97661.96, 97661.96, 0.0, 10.012246, 9.988464 
1.752417e+2, 3.1329244e+2, 117688.14, -70178.734, 3008.1433, 0.009012278, -0.03385912, 117736.3, 117736.3, 0.0, 10.013541, 9.988638 
1.8486571e+2, 1.23439476e+2, -1799921.0, -1732911.3, -2468.9272, -0.005002965, -0.030448755, -1732820.4, -2530.2473, 0.0, 9.993197, 10.002067 
1.8488684e+2, 1.3344029e+2, -1697494.1, -1646594.8, -2279.022, 0.0068531074, -0.034553275, -1646493.0, -14210.785, 0.0, 9.994097, 10.000832 
1.8490748e+2, 1.4344028e+2, -1598100.3, -1568919.8, -4271.632, -0.004848796, -0.03029089, -1568307.4, -34025.066, 0.0, 9.995102, 9.998957 
1.8492801e+2, 1.5343916e+2, -1482926.1, -1464026.5, -3713.699, -0.0007381448, -0.027389595, -1463323.0, -27029.54, 0.0, 9.99633, 9.998823 
1.8494847e+2, 1.6343696e+2, -1383503.9, -1389036.1, -3855.8623, 0.000973289, -0.02638484, -1381524.6, -43209.727, 0.0, 9.997453, 9.996709 
1.8496895e+2, 1.7343357e+2, -1272312.1, -1285582.4, -4845.5513, -0.001718966, -0.029291447, -1270731.1, -30383.082, 0.0, 9.99839, 9.996619 
1.8498932e+2, 1.83429e+2, -1177146.9, -1217087.8, -6213.9976, -0.002452192, -0.03050582, -1176202.5, -33809.55, 0.0, 9.9994135, 9.99411 
1.850096e+2, 1.9342296e+2, -1062741.5, -1112904.3, -5162.338, 0.00014872328, -0.031700823, -1062215.8, -17763.527, 0.0, 10.000606, 9.993949 
1.8502986e+2, 2.0341593e+2, -963240.4, -1036841.6, -4709.7153, 0.001520891, -0.031073734, -962940.25, -16419.264, 0.0, 10.001687, 9.991927 
1.8505014e+2, 2.134078e+2, -852773.0, -933621.7, -5506.5293, 0.0003656977, -0.029346745, -852399.7, -3799.1392, 0.0, 10.002571, 9.991849 
1.8507041e+2, 2.2339849e+2, -757295.4, -864555.56, -6168.058, -0.00015208086, -0.028546995, -756941.8, -6250.075, 0.0, 10.003593, 9.989377 
1.850906e+2, 2.333877e+2, -641706.2, -759821.56, -5642.9644, 0.00053546607, -0.031726245, -641437.2, 11360.426, 0.0, 10.00487, 9.989215 
1.8511087e+2, 2.433759e+2, -542119.9, -684677.25, -4839.6094, 0.00012795567, -0.03180045, -541955.75, 12957.483, 0.0, 10.005995, 9.987108 
1.8513119e+2, 2.5336295e+2, -432452.7, -582014.44, -5232.495, -0.0025122375, -0.02877071, -432269.84, 24770.197, 0.0, 10.006834, 9.987016 
1.851516e+2, 2.633489e+2, -336282.2, -510508.4, -4943.8223, -0.0022255455, -0.026902242, -336142.03, 23035.7, 0.0, 10.007807, 9.984734 
1.8517214e+2, 2.733335e+2, -220999.34, -405435.03, -4989.553, 0.0033049872, -0.030584188, -220864.47, 40464.25, 0.0, 10.009045, 9.984615 
1.8519269e+2, 2.8331673e+2, -126920.53, -342186.7, -4290.035, 0.0038585637, -0.03081291, -126835.07, 36657.926, 0.0, 10.010185, 9.981688 
1.8521312e+2, 2.9329827e+2, -16316.293, -240238.55, -3755.8218, -0.0052829143, -0.027375584, -16253.314, 49420.61, 0.0, 10.01114, 9.981494 
1.8523389e+2, 3.032832e+2, 96778.56, -81844.336, -1980.9447, -0.006253618, -0.027306624, 96800.53, 96800.53, 0.0, 10.012167, 9.988493 
1.8525513e+2, 3.132718e+2, 114905.6, -71007.33, -4080.3867, 0.008167463, -0.036648408, 114995.12, 114995.12, 0.0, 10.013325, 9.988679 
1.9485894e+2, 1.2341803e+2, -1801013.6, -1735080.5, 1366.8915, -0.0040288586, -0.027266383, -1735052.1, -4551.6567, 0.0, 9.993195, 10.001919 
1.9488093e+2, 1.3341875e+2, -1698388.0, -1648257.8, 1012.8927, 0.006111888, -0.029530074, -1648237.3, -15743.868, 0.0, 9.99409, 10.00072 
1.9490255e+2, 1.4341867e+2, -1597254.3, -1567034.9, 138.8662, -0.008159372, -0.03052055, -1567034.3, -32540.207, 0.0, 9.995095, 9.999085 
1.9492434e+2, 1.5341766e+2, -1481727.4, -1461516.9, 957.40393, -0.0012037512, -0.032909874, -1461471.6, -24967.76, 0.0, 9.996327, 9.998993 
1.9494595e+2, 1.6341545e+2, -1385247.6, -1392677.4, -168.93791, 0.0025393155, -0.03321677, -1385243.9, -46718.297, 0.0, 9.997456, 9.996457 
1.9496737e+2, 1.7341179e+2, -1274648.8, -1290411.3, -1323.6444, 0.00089800515, -0.030527804, -1274538.4, -33976.83, 0.0, 9.998392, 9.996287 
1.9498876e+2, 1.8340713e+2, -1175778.0, -1214278.3, -1873.9063, -0.00041566766, -0.027859597, -1175687.0, -33079.797, 0.0, 9.9994135, 9.994299 
1.950102e+2, 1.9340138e+2, -1060718.1, -1108721.0, -650.44183, -0.0010348493, -0.02841242, -1060709.3, -16045.708, 0.0, 10.000605, 9.994232 
1.9503152e+2, 2.0339446e+2, -964373.2, -1039167.94, -1236.5568, -0.0017362279, -0.028625928, -964352.75, -17621.264, 0.0, 10.001686, 9.991767 
1.9505268e+2, 2.1338604e+2, -854486.3, -937181.2, -2204.1626, -0.002638784, -0.03043477, -854427.6, -5613.8438, 0.0, 10.002572, 9.991605 
1.9507398e+2, 2.2337663e+2, -756585.4, -863116.56, -1603.627, -0.002161544, -0.030474354, -756561.25, -5655.1646, 0.0, 10.003593, 9.989473 
1.950955e+2, 2.3336603e+2, -640634.9, -757504.56, -838.7467, 0.00078067253, -0.02976944, -640628.9, 12381.155, 0.0, 10.004865, 9.989373 
1.9511689e+2, 2.433543e+2, -542660.56, -685643.3, -1493.8677, 0.0025018465, -0.02852881, -542644.94, 12479.89, 0.0, 10.005988, 9.987043 
1.9513808e+2, 2.5334123e+2, -433242.4, -583616.94, -2141.4006, 0.0022121787, -0.028494822, -433211.9, 24041.1, 0.0, 10.006832, 9.986907 
1.9515945e+2, 2.633271e+2, -336328.28, -510647.03, -585.5555, 0.00046148145, -0.02865259, -336326.3, 23065.254, 0.0, 10.007809, 9.984721 
1.9518112e+2, 2.7331167e+2, -221043.75, -405391.13, -372.61926, -0.0037180195, -0.03248724, -221043.0, 40499.523, 0.0, 10.009038, 9.984619 
1.952028e+2, 2.8329498e+2, -125882.78, -339831.72, -645.62885, -0.0034481857, -0.0329412, -125880.83, 37825.254, 0.0, 10.010177, 9.981851 
1.9522436e+2, 2.9327673e+2, -14929.887, -237382.27, -300.70132, 0.005620556, -0.029766617, -14929.48, 50955.633, 0.0, 10.011141, 9.981687 
1.952462e+2, 3.032616e+2, 93672.49, -88393.02, 2151.2393, 0.006909004, -0.027662097, 93697.91, 93697.91, 0.0, 10.01217, 9.98804 
1.952683e+2, 3.1324968e+2, 110613.805, -79652.78, 305.084, -0.0071575693, -0.03072876, 110614.3, 110614.3, 0.0, 10.01331, 9.98809 
2.0485213e+2, 1.23395495e+2, -1801492.9, -1736064.4, -2351.0713, -0.0032593107, -0.027847225, -1735980.0, -5258.7373, 0.0, 9.993189, 10.001851 
2.0487513e+2, 1.333962e+2, -1695713.8, -1647439.0, -2837.2515, 0.007403402, -0.026591813, -1647272.9, -14558.442, 0.0, 9.994287, 10.000676 
2.0489776e+2, 1.4339605e+2, -1593912.4, -1565748.4, -3549.234, -0.0079734465, -0.030964537, -1565308.0, -30592.25, 0.0, 9.995333, 9.999052 
2.0492065e+2, 1.53395e+2, -1482183.1, -1462104.1, -4217.8384, -0.0017540093, -0.033267587, -1461254.1, -24528.22, 0.0, 9.996308, 9.998957 
2.0494334e+2, 1.6339278e+2, -1386975.0, -1393808.8, -5711.893, 0.0019581318, -0.03352094, -1383736.0, -44988.2, 0.0, 9.997347, 9.996428 
2.0496581e+2, 1.7338906e+2, -1272949.8, -1289862.8, -4656.508, 0.0011388301, -0.031225407, -1271752.5, -30968.379, 0.0, 9.998515, 9.996261 
2.0498827e+2, 1.8338442e+2, -1173226.0, -1213085.5, -4491.769, 0.00030840078, -0.028498469, -1172726.1, -29896.203, 0.0, 9.999586, 9.994291 
2.0501074e+2, 1.9337864e+2, -1062637.9, -1109699.9, -5418.996, -0.00081274495, -0.028169094, -1062022.0, -17135.602, 0.0, 10.000473, 9.994224 
2.0503311e+2, 2.0337169e+2, -967488.1, -1041143.56, -6745.8374, -0.0015196925, -0.028044065, -966875.4, -19920.928, 0.0, 10.001491, 9.99172 
2.0505536e+2, 2.1336323e+2, -852152.6, -936631.1, -6323.83, -0.0015552912, -0.03040036, -851681.8, -2644.468, 0.0, 10.002753, 9.991549 
2.050777e+2, 2.233538e+2, -752699.5, -860842.25, -5279.3105, -0.0011167417, -0.030536408, -752442.4, -1312.5098, 0.0, 10.0038395, 9.989505 
2.0510021e+2, 2.3334324e+2, -644122.2, -758642.9, -5332.0693, -0.00017347604, -0.029377941, -643874.5, 9358.785, 0.0, 10.004601, 9.989418 
2.0512266e+2, 2.4333154e+2, -548944.6, -688975.5, -6027.842, 0.0011731794, -0.028414613, -548685.6, 6662.3574, 0.0, 10.005567, 9.987014 
2.0514496e+2, 2.533184e+2, -432037.1, -583525.5, -6173.05, 0.003152473, -0.029921075, -431785.97, 25690.81, 0.0, 10.006932, 9.986858 
2.0516741e+2, 2.6330423e+2, -332342.53, -508669.1, -4686.676, 0.0022103603, -0.030046102, -332218.03, 27397.568, 0.0, 10.008077, 9.984721 
2.0519002e+2, 2.7328885e+2, -224353.77, -406827.72, -4495.0757, -0.0042293887, -0.03113132, -224243.11, 37523.1, 0.0, 10.0088005, 9.984631 
2.0521276e+2, 2.8327218e+2, -131589.19, -342296.84, -4365.528, -0.004505154, -0.030891912, -131498.78, 32430.75, 0.0, 10.009769, 9.981872 
2.0523556e+2, 2.932539e+2, -13815.907, -236549.25, -5079.0986, 0.006966638, -0.031100886, -13700.146, 52408.504, 0.0, 10.011202, 9.981708 
2.0525849e+2, 3.0323878e+2, 96531.08, -87134.375, -3040.9412, 0.008893788, -0.029637013, 96581.414, 96581.414, 0.0, 10.012366, 9.988028 
2.0528145e+2, 3.1322688e+2, 106207.05, -82006.69, -1269.5894, -0.008035286, -0.02793239, 106215.61, 106215.61, 0.0, 10.013013, 9.988069 
2.148453e+2, 1.2337183e+2, -1801553.8, -1735926.6, 2320.6284, -0.004660782, -0.032476466, -1735844.6, -4891.5674, 0.0, 9.993176, 10.0018635 
2.1486944e+2, 1.333726e+2, -1695661.9, -1647197.3, 1245.0092, 0.009814941, -0.025969535, -1647165.3, -14219.77, 0.0, 9.994281, 10.000692 
2.1489313e+2, 1.4337237e+2, -1595372.5, -1568671.8, 154.02406, -0.0053334283, -0.031682465, -1568670.9, -33723.094, 0.0, 9.99533, 9.998853 
2.1491694e+2, 1.5337116e+2, -1483976.0, -1465694.8, -554.7705, -0.0035152643, -0.028250644, -1465677.9, -28718.035, 0.0, 9.996304, 9.998713 
2.1494065e+2, 1.6336887e+2, -1385554.4, -1390856.8, -1422.5997, -0.0022556835, -0.027063025, -1385196.8, -46214.54, 0.0, 9.997346, 9.996626 
2.1496432e+2, 1.7336537e+2, -1270935.6, -1285716.8, -213.483, -0.0018593845, -0.031293124, -1270932.6, -29916.236, 0.0, 9.998515, 9.996539 
2.1498784e+2, 1.8336076e+2, -1174634.0, -1215984.9, -988.1682, -0.0013567911, -0.032447815, -1174610.4, -31548.71, 0.0, 9.999586, 9.994093 
2.1501121e+2, 1.9335473e+2, -1064671.3, -1113955.4, -2076.4485, -0.00044667607, -0.031048141, -1064584.0, -19463.125, 0.0, 10.000476, 9.993931 
2.1503463e+2, 2.0334764e+2, -966946.1, -1040118.1, -2229.9478, 0.00072334637, -0.0291966, -966878.25, -19688.045, 0.0, 10.001494, 9.991785 
2.1505815e+2, 2.1333934e+2, -851204.0, -934642.94, -1562.7472, 0.0023533183, -0.029079134, -851174.75, -1903.1346, 0.0, 10.002751, 9.991683 
2.1508157e+2, 2.2332998e+2, -752932.3, -861239.56, -2152.0786, 0.0017068053, -0.028640738, -752889.56, -1526.2213, 0.0, 10.003836, 9.989477 
2.1510479e+2, 2.3331934e+2, -644549.44, -759503.44, -2530.9827, -0.0030891064, -0.030255284, -644493.7, 8973.872, 0.0, 10.004599, 9.989358 
2.1512817e+2, 2.4330758e+2, -548894.3, -688888.9, -1305.9869, -0.0047342577, -0.031091576, -548882.1, 6700.6226, 0.0, 10.005567, 9.987017 
2.1515188e+2, 2.5329444e+2, -432041.63, -583351.56, -1044.4695, -0.00036951396, -0.032750893, -432034.44, 25677.04, 0.0, 10.006923, 9.986873 
2.151755e+2, 2.632803e+2, -332323.1, -508398.56, -1649.6095, 0.0019511593, -0.031040117, -332307.63, 27542.342, 0.0, 10.008067, 9.984742 
2.1519889e+2, 2.73265e+2, -224194.27, -406514.63, -1881.9427, 0.00019741362, -0.026561448, -224174.84, 37825.04, 0.0, 10.008802, 9.984649 
2.1522257e+2, 2.8324834e+2, -132268.06, -343764.47, 492.87033, -0.0012023153, -0.02494854, -132266.92, 31896.496, 0.0, 10.00977, 9.981769 
2.1524668e+2, 2.9322985e+2, -14945.646, -238572.72, 289.01318, -0.0011573078, -0.03163733, -14945.273, 51399.17, 0.0, 10.011187, 9.981573 
2.1527077e+2, 3.032148e+2, 98941.94, -81722.21, -228.78194, -0.00043260222, -0.033082824, 98942.23, 98942.23, 0.0, 10.012351, 9.988403 
2.1529457e+2, 3.1320336e+2, 109719.96, -74883.88, 947.6825, 0.0016132188, -0.027453786, 109724.82, 109724.82, 0.0, 10.013022, 9.988551 
2.248386e+2, 1.2334711e+2, -1798407.8, -1734311.0, -1558.9822, -0.0037077602, -0.034853715, -1734273.1, -3077.8076, 0.0, 9.993382, 10.001865 
2.2486372e+2, 1.3334791e+2, -1695081.6, -1647063.4, -3588.399, 0.008839987, -0.024389608, -1646796.8, -13609.167, 0.0, 9.994322, 10.000675 
2.2488844e+2, 1.433476e+2, -1596081.3, -1569676.6, -4261.3896, -0.0059494935, -0.033584703, -1569006.0, -33815.47, 0.0, 9.995306, 9.998791 
2.2491331e+2, 1.5334633e+2, -1482890.1, -1465974.3, -3717.7185, -0.0023851744, -0.02803516, -1465193.3, -27990.086, 0.0, 9.996409, 9.998637 
2.2493808e+2, 1.6334401e+2, -1383724.8, -1389990.8, -4358.047, -0.00039638684, -0.025589023, -1381490.4, -42264.598, 0.0, 9.997466, 9.996621 
2.249628e+2, 1.7334053e+2, -1271841.1, -1286073.6, -5187.5376, -0.0013440606, -0.03016983, -1270151.0, -28891.129, 0.0, 9.998445, 9.996544 
2.2498737e+2, 1.8333587e+2, -1176327.3, -1217342.3, -6812.7446, -0.0016063314, -0.03200819, -1175225.1, -31919.75, 0.0, 9.999491, 9.99404 
2.2501178e+2, 1.9332975e+2, -1062271.5, -1113462.4, -6233.591, -0.00085313746, -0.031830765, -1061523.4, -16157.987, 0.0, 10.000665, 9.993867 
2.2503623e+2, 2.0332266e+2, -963479.25, -1038166.06, -5457.211, 0.00045169427, -0.030399047, -963082.6, -15647.588, 0.0, 10.001715, 9.991807 
2.250608e+2, 2.133144e+2, -853966.3, -935580.3, -5497.1523, 0.0024720423, -0.0294358, -853597.75, -4081.7158, 0.0, 10.002542, 9.9917145 
2.2508527e+2, 2.2330502e+2, -757932.1, -864311.75, -6672.9434, 0.002462083, -0.028744219, -757515.2, -5907.3735, 0.0, 10.003519, 9.989415 
2.2510949e+2, 2.332943e+2, -642306.8, -759313.5, -7241.106, -0.0016136412, -0.03089316, -641860.4, 11852.572, 0.0, 10.004787, 9.989274 
2.2513391e+2, 2.4328251e+2, -543988.25, -686049.1, -5870.976, -0.0035381208, -0.031500097, -543746.06, 12082.407, 0.0, 10.005878, 9.987054 
2.2515863e+2, 2.5326946e+2, -435809.38, -584470.5, -5275.4224, -0.0016310494, -0.031499453, -435622.4, 22334.01, 0.0, 10.006631, 9.986931 
2.251833e+2, 2.6325533e+2, -339429.3, -511953.3, -5778.4707, 0.00040728803, -0.029697582, -339235.97, 20858.615, 0.0, 10.007581, 9.984728 
2.2520776e+2, 2.7324e+2, -222696.33, -406115.28, -6376.59, 0.0025914174, -0.02777944, -222474.9, 39770.145, 0.0, 10.008915, 9.984616 
2.252325e+2, 2.832233e+2, -128256.83, -341604.06, -3810.844, 0.002044568, -0.027040305, -128188.78, 36220.004, 0.0, 10.010031, 9.981786 
2.2525759e+2, 2.9320487e+2, -21472.19, -241385.44, -2911.583, -0.003580501, -0.031065919, -21433.646, 45155.67, 0.0, 10.010717, 9.981603 
2.2528273e+2, 3.0318984e+2, 90126.68, -84841.59, -3275.6565, -0.0040919296, -0.031643935, 90187.984, 90187.984, 0.0, 10.01169, 9.9885025 
2.2530772e+2, 3.1317854e+2, 113515.48, -71781.164, -4576.8765, 0.0053543085, -0.02874645, 113628.45, 113628.45, 0.0, 10.013224, 9.988661 
2.34832e+2, 1.2332128e+2, -1798487.8, -1734284.3, 2520.4646, -0.0030799676, -0.03444457, -1734185.5, -2736.922, 0.0, 9.993374, 10.001868 
2.34858e+2, 1.3332205e+2, -1695554.0, -1647832.9, -163.34337, 0.0036828746, -0.021470144, -1647832.4, -14391.3955, 0.0, 9.994314, 10.000624 
2.3488371e+2, 1.4332171e+2, -1595588.9, -1568505.5, -250.98271, -0.010582901, -0.03671757, -1568503.1, -33058.77, 0.0, 9.995298, 9.998871 
2.3490976e+2, 1.5332049e+2, -1482198.3, -1464466.9, 465.50858, 0.000011317116, -0.032871477, -1464454.6, -26998.537, 0.0, 9.996405, 9.998739 
2.3493561e+2, 1.6331817e+2, -1385203.9, -1393056.4, -593.94434, 0.005486076, -0.029357713, -1385159.3, -45680.188, 0.0, 9.997468, 9.996409 
2.3496127e+2, 1.7331447e+2, -1273784.1, -1290070.1, -1483.7183, 0.0016001966, -0.027966218, -1273650.0, -32134.752, 0.0, 9.9984455, 9.996268 
2.3498686e+2, 1.8330973e+2, -1175615.9, -1215858.9, -2492.1626, -0.0015806617, -0.027094388, -1175462.1, -31900.334, 0.0, 9.999489, 9.994139 
2.3501244e+2, 1.9330373e+2, -1061048.0, -1110932.1, -1772.8081, -0.0031867176, -0.030434689, -1060985.0, -15364.706, 0.0, 10.000663, 9.994037 
2.3503792e+2, 2.032967e+2, -963593.06, -1038450.44, -2164.1367, -0.0036485344, -0.031724997, -963530.56, -15841.229, 0.0, 10.001718, 9.991783 
2.3506331e+2, 2.1328838e+2, -854379.94, -936460.4, -2415.152, -0.0019642515, -0.03152029, -854308.94, -4537.9785, 0.0, 10.0025425, 9.991652 
2.3508877e+2, 2.2327892e+2, -758589.7, -865674.06, -2179.3887, 0.00017590901, -0.030685475, -758545.3, -6681.896, 0.0, 10.003518, 9.98932 
2.3511432e+2, 2.3326811e+2, -643096.9, -760850.0, -2439.6458, 0.002904528, -0.031329755, -643046.4, 10923.185, 0.0, 10.004782, 9.989169 
2.3513986e+2, 2.4325632e+2, -543574.4, -685077.2, -2768.9631, 0.0030354876, -0.029728785, -543520.2, 12565.002, 0.0, 10.005875, 9.98712 
2.3516525e+2, 2.532434e+2, -435071.63, -582929.5, -2523.7312, -0.0016333119, -0.026395181, -435028.56, 23183.256, 0.0, 10.006631, 9.987034 
2.3519084e+2, 2.6322934e+2, -339736.84, -512592.13, -1187.9309, -0.003006467, -0.025923846, -339728.7, 20620.982, 0.0, 10.00758, 9.984682 
2.3521668e+2, 2.7321377e+2, -223376.11, -407339.94, -1379.2887, 0.0022791293, -0.03434397, -223365.78, 39136.074, 0.0, 10.008906, 9.984533 
2.3524256e+2, 2.8319705e+2, -127454.35, -339713.9, -931.13055, 0.0038390222, -0.036553152, -127450.27, 37215.508, 0.0, 10.010021, 9.981917 
2.3526834e+2, 2.9317892e+2, -20196.357, -238781.73, -509.71848, -0.0015003586, -0.029356262, -20195.17, 46648.41, 0.0, 10.01072, 9.981776 
2.3529445e+2, 3.03164e+2, 89206.805, -86852.58, 1805.8037, -0.0031918907, -0.02566237, 89225.33, 89225.33, 0.0, 10.011694, 9.988359 
2.3532094e+2, 3.1315237e+2, 111833.484, -75026.56, 1161.3967, 0.0021070822, -0.03229672, 111840.7, 111840.7, 0.0, 10.013213, 9.98844 
2.4482542e+2, 1.23294555e+2, -1796484.3, -1733608.0, -222.68001, -0.0026049302, -0.033748683, -1733607.3, -1896.8083, 0.0, 9.993516, 10.001842 
2.4485235e+2, 1.3329522e+2, -1695120.8, -1649077.8, -4240.2065, 0.003078466, -0.019233434, -1648690.6, -14986.7, 0.0, 9.994401, 10.000492 
2.4487904e+2, 1.4329474e+2, -1594572.6, -1568103.0, -4281.5874, -0.008752004, -0.039060023, -1567427.8, -31719.168, 0.0, 9.995367, 9.998858 
2.449062e+2, 1.5329356e+2, -1480381.3, -1463442.1, -4133.326, 0.00024332857, -0.03344792, -1462487.4, -24767.334, 0.0, 9.996517, 9.998747 
2.4493314e+2, 1.6329123e+2, -1383537.9, -1392952.9, -5646.2925, 0.0047273785, -0.02903415, -1380894.1, -41151.082, 0.0, 9.997606, 9.996343 
2.4495977e+2, 1.7328744e+2, -1272295.3, -1290249.6, -5270.1846, 0.00095582334, -0.028781794, -1270862.6, -29082.285, 0.0, 9.998581, 9.996185 
2.4498639e+2, 1.8328264e+2, -1174713.9, -1215458.0, -5443.0215, -0.0013365613, -0.028106127, -1173999.3, -30171.95, 0.0, 9.999548, 9.994132 
2.4501303e+2, 1.9327667e+2, -1063210.8, -1111873.5, -5848.8887, -0.0012072584, -0.0297954, -1062517.6, -16631.992, 0.0, 10.000507, 9.994042 
2.4503955e+2, 2.0326962e+2, -966579.6, -1040278.25, -7245.586, -0.0013841651, -0.030444918, -965874.0, -17919.332, 0.0, 10.001526, 9.991746 
2.450659e+2, 2.1326123e+2, -852886.44, -936244.7, -7487.6294, -0.0024252962, -0.03174609, -852219.2, -2182.2544, 0.0, 10.002663, 9.991602 
2.4509236e+2, 2.2325176e+2, -755630.75, -864122.25, -6547.0786, -0.001453081, -0.031388436, -755237.1, -3107.359, 0.0, 10.003711, 9.989326 
2.45119e+2, 2.3324096e+2, -645660.94, -761873.5, -5859.2813, 0.0028960088, -0.03047724, -645366.25, 8869.317, 0.0, 10.004593, 9.989185 
2.4514559e+2, 2.4322918e+2, -548184.5, -687461.75, -6258.339, 0.004202191, -0.028618013, -547903.8, 8447.303, 0.0, 10.005561, 9.987103 
2.4517193e+2, 2.532162e+2, -434133.44, -582743.5, -7007.8677, -0.00061075506, -0.027790489, -433803.72, 24674.527, 0.0, 10.006702, 9.987006 
2.4519852e+2, 2.6320213e+2, -336782.16, -510879.5, -5461.5044, -0.0024215626, -0.02825371, -336611.0, 24005.22, 0.0, 10.007765, 9.984704 
2.4522544e+2, 2.7318665e+2, -226427.0, -408422.2, -4771.248, 0.0015417959, -0.03460409, -226302.0, 36465.92, 0.0, 10.008675, 9.984566 
2.4525237e+2, 2.8316993e+2, -132833.58, -342536.94, -4875.3794, 0.0028691737, -0.035705037, -132720.28, 32211.37, 0.0, 10.009658, 9.981893 
2.452791e+2, 2.9315174e+2, -19398.566, -238775.72, -6034.2905, -0.0006802875, -0.029316278, -19232.709, 47877.184, 0.0, 10.010787, 9.981738 
2.4530622e+2, 3.0313677e+2, 91749.73, -85450.83, -3170.4019, -0.0016639774, -0.026242765, 91806.43, 91806.43, 0.0, 10.011854, 9.988372 
2.4533392e+2, 3.131252e+2, 106137.37, -77482.164, -2008.3406, 0.0019833357, -0.03287635, 106159.336, 106159.336, 0.0, 10.0128, 9.988464 
2.5481895e+2, 1.2326691e+2, -1797143.3, -1734720.1, 3580.819, -0.0050198864, -0.032612763, -1734515.4, -2534.1387, 0.0, 9.993506, 10.001767 
2.5484678e+2, 1.3326736e+2, -1696918.6, -1652500.4, -1018.3179, 0.006149316, -0.01800519, -1652477.0, -18500.104, 0.0, 9.9943905, 10.000262 
2.548745e+2, 1.4326668e+2, -1595435.5, -1569661.8, -163.89525, -0.0011885248, -0.040738054, -1569660.8, -33677.15, 0.0, 9.9953575, 9.9987545 
2.549027e+2, 1.5326549e+2, -1481007.5, -1464607.1, 220.98555, -0.0030339807, -0.02945536, -1464604.3, -26608.818, 0.0, 9.9965105, 9.998669 
2.5493068e+2, 1.6326314e+2, -1382984.8, -1391808.0, -1872.4718, -0.00459447, -0.024365565, -1382603.8, -42585.37, 0.0, 9.997606, 9.996418 
2.549583e+2, 1.7325935e+2, -1271542.0, -1288681.3, -1579.8612, -0.00426404, -0.032719113, -1271397.6, -29342.266, 0.0, 9.998581, 9.996289 
2.5498593e+2, 1.8325454e+2, -1175456.4, -1217003.6, -1805.1288, -0.0020416044, -0.03524923, -1175378.1, -31275.65, 0.0, 9.999548, 9.994024 
2.5501359e+2, 1.9324851e+2, -1064274.0, -1114080.3, -2207.4465, 0.0036308623, -0.030020026, -1064176.4, -18014.643, 0.0, 10.000506, 9.99389 
2.5504115e+2, 2.0324138e+2, -966942.06, -1041045.94, -3071.482, 0.005478184, -0.026745157, -966814.94, -18583.396, 0.0, 10.001527, 9.99169 
2.550686e+2, 2.1323292e+2, -853124.56, -936727.2, -3187.3198, -0.0002697409, -0.03023252, -853003.25, -2688.857, 0.0, 10.002662, 9.991567 
2.5509605e+2, 2.2322348e+2, -754873.44, -862501.5, -3087.9983, -0.0036981741, -0.03091561, -754784.94, -2377.9048, 0.0, 10.003708, 9.989435 
2.5512356e+2, 2.3321283e+2, -644704.8, -759852.56, -2580.7598, -0.002290293, -0.028474184, -644647.0, 9864.325, 0.0, 10.004591, 9.989321 
2.551511e+2, 2.4320106e+2, -548876.9, -688830.44, -2184.226, -0.00094494765, -0.028332736, -548842.75, 7783.806, 0.0, 10.005557, 9.987009 
2.5517866e+2, 2.5318787e+2, -435221.44, -584893.94, -2736.8296, 0.00042817465, -0.035194684, -435171.4, 23584.416, 0.0, 10.006698, 9.986858 
2.5520632e+2, 2.6317373e+2, -336238.75, -509630.0, -1972.8652, 0.0008732008, -0.036187865, -336216.3, 24678.09, 0.0, 10.00776, 9.984789 
2.5523412e+2, 2.7315852e+2, -225566.84, -406488.75, -1466.8273, -0.0003841105, -0.029095402, -225554.95, 37488.688, 0.0, 10.008669, 9.984698 
2.55262e+2, 2.8314188e+2, -134011.1, -344853.3, -886.86615, -0.0015547746, -0.025096351, -134007.36, 31199.418, 0.0, 10.009652, 9.981734 
2.5528988e+2, 2.9312336e+2, -21008.586, -242070.94, -1847.55, -0.0017852157, -0.030723482, -20993.146, 46395.145, 0.0, 10.010785, 9.981511 
2.553181e+2, 3.0310825e+2, 92772.43, -83292.56, 413.64618, -0.0006363235, -0.0327928, 92773.41, 92773.41, 0.0, 10.011854, 9.988517 
2.5534675e+2, 3.1309697e+2, 107652.05, -74125.875, 1421.1776, 0.0028013159, -0.030639352, 107663.16, 107663.16, 0.0, 10.012793, 9.988694 
2.648124e+2, 1.232381e+2, -1797902.6, -1734452.9, -958.5951, -0.0044563967, -0.03452951, -1734438.4, -2174.5872, 0.0, 9.993421, 10.001821 
2.648413e+2, 1.3323848e+2, -1694089.4, -1652345.1, -5092.178, 0.0046964227, -0.016576545, -1651732.9, -17472.904, 0.0, 9.99463, 10.000151 
2.6487005e+2, 1.4323768e+2, -1590853.6, -1568299.8, -3757.0615, 0.0014204655, -0.039713778, -1567690.4, -31422.623, 0.0, 9.995701, 9.998674 
2.648992e+2, 1.532364e+2, -1481349.1, -1465616.9, -3415.1711, -0.0029975006, -0.029572666, -1464907.5, -26627.162, 0.0, 9.99652, 9.998589 
2.6492816e+2, 1.63234e+2, -1385361.4, -1393127.6, -5549.789, -0.005631391, -0.025118059, -1382471.1, -42167.164, 0.0, 9.997446, 9.9964 
2.6495692e+2, 1.7323022e+2, -1271132.3, -1288526.4, -6089.6646, -0.0033350943, -0.03274451, -1269212.3, -26871.348, 0.0, 9.998605, 9.996282 
2.6498556e+2, 1.832254e+2, -1173536.6, -1216532.5, -6947.108, -0.00040833565, -0.034986187, -1172442.0, -28053.758, 0.0, 9.999694, 9.9939785 
2.6501417e+2, 1.9321929e+2, -1062515.4, -1113816.0, -6709.845, 0.002717942, -0.030486502, -1061652.3, -15204.173, 0.0, 10.0006485, 9.993833 
2.650427e+2, 2.0321211e+2, -965841.44, -1040718.75, -6692.5005, 0.003841704, -0.027441923, -965248.0, -16729.64, 0.0, 10.001604, 9.991669 
2.650712e+2, 2.1320365e+2, -854363.6, -937500.06, -6601.988, 0.0009824717, -0.029820846, -853842.6, -3241.3613, 0.0, 10.002579, 9.991549 
2.650997e+2, 2.231942e+2, -756817.9, -863249.4, -7050.274, -0.0012895408, -0.030173823, -756352.9, -3658.9788, 0.0, 10.003562, 9.989449 
2.651281e+2, 2.3318356e+2, -644978.9, -759738.9, -7451.972, -0.0027250822, -0.029230421, -644497.0, 10301.113, 0.0, 10.004557, 9.989339 
2.6515666e+2, 2.4317178e+2, -548934.94, -689237.56, -6887.7373, -0.0022460301, -0.029777676, -548597.6, 8315.851, 0.0, 10.005565, 9.986971 
2.651853e+2, 2.5315854e+2, -436917.3, -586248.75, -6662.568, 0.0015910012, -0.035480514, -436620.66, 22422.51, 0.0, 10.006598, 9.986808 
2.6521403e+2, 2.631444e+2, -338484.9, -510522.56, -6204.98, 0.0027182747, -0.03513071, -338261.4, 22920.482, 0.0, 10.007593, 9.984802 
2.6524267e+2, 2.7312922e+2, -227683.52, -407166.88, -6539.239, -0.0016015228, -0.026636578, -227445.58, 35885.137, 0.0, 10.008503, 9.984725 
2.6527154e+2, 2.831126e+2, -135886.19, -345624.9, -5042.5093, -0.0031582154, -0.023152132, -135765.03, 29728.66, 0.0, 10.009511, 9.981744 
2.6530066e+2, 2.9309404e+2, -21792.07, -242384.5, -4250.0596, 0.0010057096, -0.032723177, -21710.217, 45965.297, 0.0, 10.010721, 9.981515 
2.6532993e+2, 3.0307895e+2, 91839.164, -83307.54, -2428.1804, 0.0027207201, -0.035703223, 91872.82, 91872.82, 0.0, 10.0117655, 9.988554 
2.653593e+2, 3.130678e+2, 103172.266, -75763.58, -2962.1765, -0.0011991791, -0.028132498, 103221.29, 103221.29, 0.0, 10.012455, 9.98874 
2.7480584e+2, 1.2320805e+2, -1796770.4, -1731773.4, 3590.9998, -0.0029722806, -0.038665317, -1731575.6, 982.57214, 0.0, 9.993406, 10.002005 
2.7483585e+2, 1.3320851e+2, -1694180.9, -1652278.6, -600.71173, -0.0023236624, -0.01484199, -1652270.0, -17716.455, 0.0, 9.994619, 10.000155 
2.7486572e+2, 1.4320773e+2, -1591348.5, -1569170.6, -486.92462, -0.0023337791, -0.035941407, -1569159.9, -32598.611, 0.0, 9.995694, 9.998615 
2.7489576e+2, 1.5320629e+2, -1481972.6, -1466750.0, -369.18515, -0.0012423941, -0.034080766, -1466741.1, -28165.66, 0.0, 9.996513, 9.998513 
2.7492568e+2, 1.6320376e+2, -1386206.0, -1394780.6, -1417.0356, -0.00011506532, -0.03155314, -1385977.9, -45377.79, 0.0, 9.997442, 9.996286 
2.749556e+2, 1.7319997e+2, -1272062.8, -1290331.4, -1674.5703, 0.002912743, -0.028848208, -1271910.6, -29273.205, 0.0, 9.9986, 9.996158 
2.7498528e+2, 1.8319511e+2, -1173418.0, -1216241.4, -3198.6863, 0.0024476768, -0.027089037, -1173180.4, -28495.389, 0.0, 9.999692, 9.993997 
2.7501473e+2, 1.9318897e+2, -1062171.9, -1113096.5, -3093.7705, -0.0050746407, -0.03128962, -1061984.6, -15239.492, 0.0, 10.000647, 9.99388 
2.750442e+2, 2.0318179e+2, -965728.9, -1040525.5, -3032.2407, -0.0075268443, -0.032681555, -965606.1, -16790.67, 0.0, 10.001607, 9.991677 
2.750738e+2, 2.1317337e+2, -854306.7, -937443.2, -2921.903, 0.00023508744, -0.030688768, -854204.1, -3306.128, 0.0, 10.002582, 9.991548 
2.7510333e+2, 2.231639e+2, -757326.94, -864315.56, -3332.5745, 0.0041713086, -0.02933278, -757223.2, -4232.4424, 0.0, 10.003563, 9.989373 
2.7513272e+2, 2.3315313e+2, -645651.06, -761084.8, -3723.09, 0.00018113777, -0.032501247, -645531.1, 9565.166, 0.0, 10.004555, 9.989245 
2.7516222e+2, 2.4314131e+2, -548817.1, -688937.5, -3060.133, -0.0014953462, -0.03267464, -548750.3, 8461.83, 0.0, 10.005562, 9.986989 
2.7519193e+2, 2.531282e+2, -436692.78, -585663.9, -2796.5166, 0.0019370493, -0.029381044, -436640.3, 22700.332, 0.0, 10.006594, 9.986846 
2.7522162e+2, 2.6311406e+2, -338902.78, -511227.88, -2755.3462, 0.0023795108, -0.026108708, -338858.72, 22620.334, 0.0, 10.0075865, 9.984755 
2.7525115e+2, 2.7309877e+2, -228178.72, -408140.56, -3186.3079, -0.0032312872, -0.026970837, -228122.31, 35507.06, 0.0, 10.008502, 9.984655 
2.7528107e+2, 2.830821e+2, -134763.67, -343240.56, -809.87335, -0.0036578206, -0.028684141, -134760.53, 31032.0, 0.0, 10.009508, 9.981904 
2.7531144e+2, 2.930638e+2, -20469.205, -239352.03, 185.91571, 0.0067317127, -0.035199113, -20469.049, 47502.984, 0.0, 10.010709, 9.981725 
2.7534178e+2, 3.0304882e+2, 91242.7, -84226.88, 356.2804, 0.007821865, -0.03545896, 91243.43, 91243.43, 0.0, 10.011752, 9.988495 
2.753717e+2, 3.1303754e+2, 102420.51, -77523.27, -526.4892, -0.010963189, -0.025526378, 102422.05, 102422.05, 0.0, 10.0124655, 9.988611 
2.8479937e+2, 1.2317711e+2, -1792942.8, -1728877.0, 413.58987, 0.00051358034, -0.037000876, -1728874.4, 3987.0957, 0.0, 9.993611, 10.002096 
2.848304e+2, 1.3317746e+2, -1695268.0, -1653814.9, -4552.5103, -0.0063424567, -0.017682638, -1653320.8, -18462.795, 0.0, 9.994581, 10.000065 
2.8486136e+2, 1.4317662e+2, -1592872.5, -1570538.5, -5271.3096, -0.0025046656, -0.03612281, -1569356.9, -32490.705, 0.0, 9.995612, 9.998556 
2.8489238e+2, 1.5317512e+2, -1478573.9, -1465673.3, -5115.7686, 0.00059258065, -0.03455338, -1463890.9, -25009.91, 0.0, 9.996763, 9.998457 
2.8492332e+2, 1.6317254e+2, -1381039.1, -1392694.5, -5813.3438, 0.002241625, -0.031858247, -1378635.4, -37729.266, 0.0, 9.997807, 9.996244 
2.849542e+2, 1.7316872e+2, -1271728.5, -1290578.0, -5492.6875, 0.002932068, -0.028422918, -1270244.8, -27301.006, 0.0, 9.998634, 9.996119 
2.849849e+2, 1.8316384e+2, -1175725.5, -1217556.5, -6690.3735, 0.0014697883, -0.02655436, -1174681.5, -29689.994, 0.0, 9.999537, 9.993977 
2.8501534e+2, 1.9315766e+2, -1062814.4, -1113606.3, -7047.544, -0.004765963, -0.031482846, -1061854.6, -14802.583, 0.0, 10.000607, 9.993857 
2.8504583e+2, 2.0315045e+2, -965421.3, -1040464.5, -7510.4414, -0.0065644667, -0.03324509, -964677.06, -15554.529, 0.0, 10.001625, 9.991667 
2.8507635e+2, 2.1314202e+2, -854757.25, -937767.44, -7533.598, -0.000008444805, -0.03094612, -854079.1, -2873.9998, 0.0, 10.00255, 9.991534 
2.8510687e+2, 2.2313254e+2, -758316.6, -865332.1, -7677.0117, 0.0038846647, -0.02954109, -757768.7, -4470.4966, 0.0, 10.003511, 9.989322 
2.8513727e+2, 2.3312171e+2, -645968.4, -761900.2, -7798.5483, 0.0019227063, -0.03301286, -645446.1, 9958.214, 0.0, 10.004556, 9.989182 
2.8516778e+2, 2.4310987e+2, -548586.25, -688231.06, -7063.129, 0.00041500758, -0.032601688, -548229.94, 9290.367, 0.0, 10.005546, 9.98704 
2.851984e+2, 2.5309685e+2, -438431.3, -585653.56, -6613.2783, 0.00011190238, -0.027188648, -438134.84, 21513.045, 0.0, 10.006432, 9.986919 
2.8522906e+2, 2.6308277e+2, -341768.22, -512816.72, -6105.1494, -0.000008831452, -0.024630643, -341550.6, 20235.402, 0.0, 10.007392, 9.984735 
2.852597e+2, 2.7306733e+2, -228319.83, -408700.28, -6323.02, -0.00006175917, -0.03138409, -228098.45, 35838.813, 0.0, 10.008507, 9.98461 
2.8529063e+2, 2.8305063e+2, -134535.84, -342769.94, -4331.595, 0.0007340359, -0.034140963, -134445.78, 31654.895, 0.0, 10.009503, 9.981933 
2.8532186e+2, 2.9303244e+2, -26684.42, -241798.52, -4507.6963, 0.003326591, -0.03160321, -26590.004, 41688.94, 0.0, 10.010252, 9.9817705 
2.8535318e+2, 3.0301762e+2, 84149.164, -86701.42, -4261.6733, 0.0029285045, -0.02909622, 84255.4, 84255.4, 0.0, 10.011217, 9.988574 
2.853843e+2, 3.1300628e+2, 105602.695, -74954.23, -3649.772, -0.004399771, -0.029923588, 105676.44, 105676.44, 0.0, 10.012633, 9.988701 
2.9479304e+2, 1.23145245e+2, -1793379.1, -1729344.0, 3663.526, 0.0029001099, -0.028369604, -1729135.1, 4038.5386, 0.0, 9.993595, 10.0020685 
2.9482496e+2, 1.3314524e+2, -1696989.8, -1656882.3, -986.133, -0.007852959, -0.025622996, -1656858.0, -21684.41, 0.0, 9.994562, 9.999862 
2.94857e+2, 1.4314428e+2, -1593545.6, -1571536.4, -1106.3877, 0.00038175046, -0.040764026, -1571480.9, -34297.97, 0.0, 9.995595, 9.998492 
2.9488918e+2, 1.5314284e+2, -1478923.3, -1466184.9, -770.3216, 0.0011467035, -0.030774279, -1466138.4, -26941.174, 0.0, 9.996754, 9.998425 
2.949211e+2, 1.6314028e+2, -1380830.0, -1392200.3, -2513.976, -0.00046009428, -0.025680054, -1380299.0, -39076.742, 0.0, 9.997804, 9.996276 
2.9495275e+2, 1.731364e+2, -1271477.5, -1289930.3, -2378.2393, -0.0042447825, -0.031517807, -1271176.0, -27915.748, 0.0, 9.998629, 9.996162 
2.9498437e+2, 1.8313149e+2, -1176169.3, -1218390.4, -2794.0154, -0.0045009693, -0.03348559, -1175985.1, -30676.725, 0.0, 9.999534, 9.993918 
2.9501605e+2, 1.9312531e+2, -1063377.1, -1114766.9, -2953.759, 0.0021134147, -0.031235883, -1063207.9, -15838.894, 0.0, 10.000606, 9.993776 
2.9504758e+2, 2.0311809e+2, -965576.25, -1040883.2, -3909.4563, 0.004804372, -0.029269433, -965373.9, -15934.071, 0.0, 10.001631, 9.9916315 
2.9507893e+2, 2.1310958e+2, -854879.4, -938083.25, -4042.945, -0.00077323685, -0.030592881, -854683.4, -3160.3984, 0.0, 10.002553, 9.991508 
2.951103e+2, 2.2310005e+2, -758523.6, -865730.56, -3834.3665, -0.0032211689, -0.030714517, -758386.6, -4770.1606, 0.0, 10.00351, 9.989292 
2.9514185e+2, 2.3308922e+2, -646247.25, -762360.8, -3855.5112, 0.0013321814, -0.031062152, -646119.4, 9603.364, 0.0, 10.00455, 9.989151 
2.9517338e+2, 2.4307741e+2, -548064.5, -687055.56, -3653.6545, 0.0021928553, -0.029727668, -547968.5, 9869.905, 0.0, 10.005543, 9.987118 
2.9520482e+2, 2.5306445e+2, -437713.75, -584088.94, -3343.8206, -0.004661526, -0.028514462, -437637.38, 22327.926, 0.0, 10.00643, 9.987024 
2.952364e+2, 2.6305038e+2, -341782.0, -512734.7, -2186.6143, -0.005577932, -0.029800382, -341754.03, 20349.031, 0.0, 10.007387, 9.984738 
2.9526827e+2, 2.730349e+2, -228562.58, -409061.03, -2215.443, 0.0061154827, -0.03961984, -228535.39, 35719.477, 0.0, 10.008501, 9.984584 
2.9530022e+2, 2.830182e+2, -135228.2, -344065.53, -1391.8809, 0.008421927, -0.039790213, -135218.92, 31199.664, 0.0, 10.009499, 9.981843 
2.95332e+2, 2.9300004e+2, -27405.703, -243286.9, -1832.0753, -0.0088838115, -0.022737963, -27390.156, 41206.465, 0.0, 10.010253, 9.981665 
2.9536426e+2, 3.0298522e+2, 85585.016, -83723.02, 452.00372, -0.012230427, -0.01719361, 85586.23, 85586.23, 0.0, 10.011217, 9.988774 
2.9539713e+2, 3.1297398e+2, 107385.89, -71007.99, 1525.0914, 0.013719335, -0.04016443, 107398.92, 107398.92, 0.0, 10.012623, 9.988971 
3.0478665e+2, 1.2311222e+2, -1792313.6, -1728880.5, -1087.3473, 0.0030918268, -0.027816169, -1728861.9, 4635.4272, 0.0, 9.993661, 10.002063 
3.048196e+2, 1.3311206e+2, -1694189.6, -1656663.3, -4602.951, -0.008644223, -0.031121166, -1656106.9, -20608.125, 0.0, 9.994793, 9.999759 
3.0485275e+2, 1.4311112e+2, -1589900.4, -1570122.1, -4332.249, 0.0047741598, -0.037229195, -1569214.9, -31706.863, 0.0, 9.9958515, 9.998457 
3.0488592e+2, 1.5310962e+2, -1479232.4, -1466535.8, -3957.6648, 0.0010721813, -0.029449657, -1465403.1, -25880.346, 0.0, 9.996737, 9.998402 
3.0491883e+2, 1.6310701e+2, -1383020.6, -1393792.8, -6149.1167, -0.0029561038, -0.026337475, -1380232.3, -38684.016, 0.0, 9.997672, 9.996226 
3.0495146e+2, 1.7310308e+2, -1270212.0, -1289947.3, -6903.1284, -0.004828313, -0.032523435, -1268037.0, -24450.17, 0.0, 9.998736, 9.996101 
3.04984e+2, 1.8309811e+2, -1173219.3, -1217043.0, -7569.036, -0.0034376231, -0.034286477, -1171948.8, -26313.385, 0.0, 9.999732, 9.993906 
3.0501667e+2, 1.9309193e+2, -1063470.3, -1114784.5, -7134.9795, 0.0034203497, -0.030926991, -1062496.6, -14800.681, 0.0, 10.000592, 9.993775 
3.0504915e+2, 2.0308472e+2, -967348.1, -1042008.75, -7627.422, 0.005961425, -0.028588688, -966576.9, -16810.063, 0.0, 10.0015135, 9.991607 
3.050815e+2, 2.1307617e+2, -854759.44, -938391.5, -7806.332, -0.00056953216, -0.03108215, -854037.0, -2186.5564, 0.0, 10.002569, 9.991473 
3.0511382e+2, 2.2306661e+2, -757495.7, -865061.0, -7585.9263, -0.003645847, -0.03133237, -756963.3, -3019.2551, 0.0, 10.003567, 9.989305 
3.051463e+2, 2.3305583e+2, -647662.8, -762780.75, -7252.8247, 0.00033158157, -0.029872546, -647207.7, 8842.247, 0.0, 10.0044365, 9.989171 
3.051788e+2, 2.4304402e+2, -551010.5, -688827.9, -7098.562, 0.0016822697, -0.028614525, -550645.8, 7519.8213, 0.0, 10.005348, 9.987086 
3.0521122e+2, 2.53031e+2, -438921.84, -585222.6, -7883.162, -0.0026289804, -0.031240627, -438498.28, 21795.066, 0.0, 10.006363, 9.986973 
3.052438e+2, 2.630169e+2, -341897.56, -512434.28, -7031.7617, -0.0029769742, -0.03286838, -341608.13, 20823.225, 0.0, 10.007358, 9.984766 
3.0527666e+2, 2.7300152e+2, -230981.3, -409643.56, -6525.5083, 0.004656726, -0.035742577, -230743.28, 33838.805, 0.0, 10.008302, 9.984633 
3.0530953e+2, 2.8298485e+2, -138634.36, -345940.44, -5619.525, 0.005575815, -0.034044977, -138482.14, 28263.273, 0.0, 10.009268, 9.98182 
3.053423e+2, 2.9296657e+2, -27343.336, -243704.88, -5752.633, -0.0072729075, -0.026079727, -27190.492, 41734.152, 0.0, 10.01027, 9.981622 
3.0537552e+2, 3.0295172e+2, 86298.39, -83238.97, -2771.434, -0.008670597, -0.023880636, 86343.68, 86343.68, 0.0, 10.011252, 9.988785 
3.0540952e+2, 3.1294054e+2, 101373.25, -73638.8, -3159.6465, 0.012839934, -0.03765833, 101430.27, 101430.27, 0.0, 10.01219, 9.98899 
3.1478027e+2, 1.2307801e+2, -1792643.6, -1729174.0, 2202.7046, -0.0025775887, -0.03482769, -1729097.6, 4734.6885, 0.0000000000000806617, 9.993649, 10.002044 
3.1481442e+2, 1.3307786e+2, -1694572.0, -1657066.8, -347.78732, -0.009584335, -0.03401037, -1657063.5, -21229.752, 0.00000000000005243424, 9.994778, 9.999734 
3.1484866e+2, 1.4307708e+2, -1590100.0, -1570277.3, -911.59247, 0.009450773, -0.025181612, -1570235.4, -32393.7, 0.000000000000028332263, 9.995841, 9.998448 
3.1488264e+2, 1.5307543e+2, -1479417.1, -1466641.9, -680.66437, -0.0010534719, -0.030645294, -1466605.8, -26747.96, 0.000000000000012064798, 9.996724, 9.998398 
3.1491643e+2, 1.630727e+2, -1384094.3, -1395836.4, -2284.8293, -0.0071735736, -0.034096617, -1383665.3, -41780.844, 0.000000000000003878589, 9.997664, 9.996087 
3.1495023e+2, 1.7306867e+2, -1271500.3, -1292471.1, -2856.7063, -0.000091512484, -0.031516977, -1271118.1, -27194.143, 0.0000000000000009180906, 9.998731, 9.99593 
3.1498381e+2, 1.8306367e+2, -1172984.5, -1216494.4, -4170.8555, 0.0034678755, -0.028795484, -1172588.3, -26615.33, 0.00000000000000015841597, 9.999729, 9.993942 
3.150172e+2, 1.9305752e+2, -1062906.4, -1113553.4, -3854.416, -0.001646217, -0.030541357, -1062614.8, -14581.568, 0.000000000000000019869674, 10.000589, 9.993857 
3.1505057e+2, 2.0305032e+2, -967504.7, -1042289.3, -3735.8525, -0.004214654, -0.031372417, -967318.56, -17214.664, 0.0000000000000000018107616, 10.001513, 9.991584 
3.1508404e+2, 2.1304175e+2, -855066.5, -939036.3, -3773.5586, -0.00056551927, -0.032509852, -854897.25, -2709.3716, 0.0000000000000000001198895, 10.00257, 9.991425 
3.1511745e+2, 2.2303219e+2, -757093.25, -864203.94, -4193.71, 0.0009007657, -0.031604182, -756929.3, -2647.8867, 0.0000000000000000000057675156, 10.003566, 9.98936 
3.1515074e+2, 2.3302148e+2, -647136.8, -761630.8, -3997.2744, -0.0024553202, -0.02952014, -646997.44, 9388.997, 0.0, 10.004434, 9.989247 
3.1518412e+2, 2.4300966e+2, -552032.1, -690882.7, -3427.3152, -0.002585991, -0.029102333, -551947.6, 6554.7407, 0.0, 10.005347, 9.986942 
3.1521764e+2, 2.5299639e+2, -440370.66, -588127.0, -4086.4658, 0.004576027, -0.03536694, -440257.72, 20374.693, 0.0, 10.00636, 9.986772 
3.1525126e+2, 2.6298225e+2, -341600.9, -511683.75, -3478.8467, 0.006049708, -0.034292683, -341529.78, 21241.42, 0.0, 10.007352, 9.984816 
3.1528488e+2, 2.729671e+2, -230262.69, -407989.63, -3036.4045, -0.004942902, -0.021250077, -230210.83, 34708.625, 0.0, 10.008295, 9.984746 
3.153187e+2, 2.8295052e+2, -138475.77, -345429.88, -2016.0205, -0.008513814, -0.01798636, -138456.13, 28625.674, 0.0, 10.00926, 9.981854 
3.1535268e+2, 2.9293197e+2, -27191.674, -243465.75, -2125.0095, 0.005347724, -0.039831672, -27170.797, 42092.688, 0.0, 10.010275, 9.981631 
3.1538698e+2, 3.0291697e+2, 85325.88, -85399.42, 642.26337, 0.010119858, -0.046939123, 85328.3, 85328.3, 0.0, 10.011259, 9.988629 
3.1542155e+2, 3.1290597e+2, 99755.27, -76586.48, 320.94107, -0.007229858, -0.024281021, 99755.86, 99755.86, 0.0, 10.012174, 9.988792 
3.2477397e+2, 1.2304291e+2, -1792241.1, -1730060.1, -1656.4539, -0.0010232821, -0.033625048, -1730016.0, 4160.392, 0.0000000000023454196, 9.993715, 10.001945 
3.2480925e+2, 1.3304268e+2, -1691815.9, -1655760.3, -3153.8574, -0.010948339, -0.039361604, -1655486.4, -19307.793, 0.0000000000015241749, 9.994959, 9.999726 
3.248446e+2, 1.4304197e+2, -1586888.9, -1569469.3, -4942.7295, 0.00923254, -0.020311201, -1568164.5, -29978.705, 0.0000000000008233425, 9.996083, 9.99838 
3.2487947e+2, 1.5304017e+2, -1476872.3, -1466343.8, -5598.99, -0.0007768479, -0.030595673, -1463922.9, -23719.736, 0.00000000000035051592, 9.99693, 9.998311 
3.249142e+2, 1.6303737e+2, -1382134.4, -1394896.8, -6760.4404, -0.006362937, -0.03674687, -1379219.1, -36988.48, 0.00000000000011265747, 9.997791, 9.996083 
3.2494894e+2, 1.7303339e+2, -1271491.6, -1292267.3, -5917.237, 0.001032006, -0.03161625, -1269924.5, -25654.73, 0.000000000000026661206, 9.998714, 9.995946 
3.249835e+2, 1.830284e+2, -1174251.1, -1217793.4, -6905.63, 0.0042908657, -0.02770215, -1173182.3, -26863.45, 0.000000000000004599458, 9.999665, 9.993879 
3.250178e+2, 1.9302215e+2, -1062191.3, -1114154.0, -7881.567, -0.0025985518, -0.031161852, -1061022.1, -12642.152, 0.0000000000000005767878, 10.000672, 9.993769 
3.250521e+2, 2.0301487e+2, -965769.9, -1041454.7, -8401.049, -0.0055771056, -0.032630406, -964848.56, -14397.301, 0.000000000000000052554126, 10.001622, 9.991581 
3.2508656e+2, 2.1300633e+2, -856459.94, -939519.5, -8007.6377, -0.000058239133, -0.031958103, -855695.0, -3160.0398, 0.0000000000000000034789587, 10.002459, 9.99144 
3.2512096e+2, 2.229968e+2, -760139.9, -865766.06, -8332.026, 0.0024255035, -0.030432835, -759486.7, -4858.2485, 0.00000000000000000016733108, 10.003354, 9.989349 
3.251551e+2, 2.3298603e+2, -648045.06, -762258.3, -8816.901, -0.0018588951, -0.030539623, -647368.44, 9365.385, 0.0, 10.004373, 9.989227 
3.2518944e+2, 2.4297418e+2, -551709.6, -690758.25, -8148.6934, -0.0025239924, -0.03074821, -551233.7, 7616.221, 0.0, 10.0053625, 9.986936 
3.2522398e+2, 2.5296095e+2, -441207.9, -588522.0, -7402.803, 0.0044730483, -0.034217637, -440836.84, 20142.924, 0.0, 10.006294, 9.986771 
3.2525852e+2, 2.629468e+2, -343542.06, -512399.4, -6196.249, 0.006008657, -0.032279108, -343315.0, 19803.398, 0.0, 10.007202, 9.984835 
3.2529306e+2, 2.7293167e+2, -233499.02, -409314.06, -6467.211, -0.0046569156, -0.022409739, -233261.45, 32005.273, 0.0, 10.008055, 9.984766 
3.253278e+2, 2.829151e+2, -142023.55, -347249.28, -5289.8364, -0.007386083, -0.02065002, -141887.3, 25541.842, 0.0, 10.009013, 9.981843 
3.2536295e+2, 2.9289654e+2, -28456.404, -244275.19, -5451.272, 0.0077869687, -0.039683226, -28318.8, 41291.973, 0.0, 10.010187, 9.981613 
3.2539824e+2, 3.0288157e+2, 84878.34, -84778.86, -3274.1526, 0.01208005, -0.04483826, 84941.51, 84941.51, 0.0, 10.011184, 9.988704 
3.2543346e+2, 3.1287068e+2, 94846.08, -77812.945, -2042.6318, -0.00940627, -0.02287343, 94870.24, 94870.24, 0.0, 10.011775, 9.988898 
3.3476773e+2, 1.2300689e+2, -1794065.3, -1733170.5, 1687.6771, 0.005259154, -0.023699833, -1733123.8, 1405.6486, 0.00000000005167391, 9.9936905, 10.00174 
3.348042e+2, 1.3300648e+2, -1692039.3, -1655668.4, 1524.504, -0.013489235, -0.047143906, -1655604.6, -19071.162, 0.00000000003357157, 9.994935, 9.99974 
3.3484063e+2, 1.4300576e+2, -1588050.3, -1571522.8, -1560.8378, 0.002632176, -0.023130687, -1571376.6, -32836.043, 0.000000000018130754, 9.99607, 9.998242 
3.3487642e+2, 1.5300384e+2, -1478250.3, -1468905.1, -2493.4824, 0.0008174469, -0.02921884, -1468281.4, -27722.209, 0.000000000007717037, 9.996919, 9.998138 
3.3491203e+2, 1.63001e+2, -1381297.8, -1393029.9, -3401.8696, -0.0017150402, -0.033823885, -1380382.6, -37795.6, 0.0000000000024798213, 9.997786, 9.996209 
3.3494765e+2, 1.7299718e+2, -1270154.5, -1289339.6, -2426.2412, -0.0023201043, -0.032752585, -1269852.4, -25227.826, 0.00000000000058676854, 9.998707, 9.996144 
3.349831e+2, 1.829922e+2, -1175457.1, -1220148.5, -3141.7886, -0.0020550834, -0.031101637, -1175237.4, -28564.164, 0.00000000000010121049, 9.99966, 9.993718 
3.3501852e+2, 1.9298573e+2, -1064013.1, -1117845.0, -4004.535, -0.0007752609, -0.032863084, -1063716.9, -14980.094, 0.000000000000012690283, 10.000669, 9.993517 
3.350538e+2, 2.0297831e+2, -965689.06, -1041307.0, -5075.7314, -0.0000047835947, -0.032428082, -965349.9, -14540.466, 0.0000000000000011561161, 10.001624, 9.991587 
3.3508903e+2, 2.1296988e+2, -855916.75, -938428.75, -4827.1787, -0.00024263728, -0.029549604, -855635.3, -2743.0725, 0.000000000000000076521916, 10.002461, 9.991509 
3.3512425e+2, 2.2296035e+2, -760655.94, -866809.0, -4620.6675, -0.00030330574, -0.027782457, -760455.2, -5469.649, 0.0000000000000000036800285, 10.003354, 9.989274 
3.3515954e+2, 2.3294944e+2, -648859.06, -763888.44, -4956.5547, 0.00059036876, -0.03253603, -648645.9, 8446.6, 0.0, 10.00437, 9.989114 
3.3519486e+2, 2.4293756e+2, -550894.94, -688957.0, -4608.0063, 0.00009418753, -0.03334053, -550741.3, 8467.494, 0.0, 10.005359, 9.987057 
3.352302e+2, 2.5292456e+2, -439992.7, -585859.4, -3955.536, -0.0034755343, -0.028476141, -439885.5, 21450.582, 0.0, 10.006289, 9.986952 
3.3526564e+2, 2.6291052e+2, -343714.2, -512620.4, -3034.9133, -0.0040107956, -0.027018875, -343659.66, 19814.037, 0.0, 10.007197, 9.9848175 
3.353012e+2, 2.7289513e+2, -233953.06, -410276.44, -3374.2615, 0.0025763095, -0.03746246, -233888.52, 31735.98, 0.0, 10.008058, 9.9846945 
3.3533698e+2, 2.8287846e+2, -142339.56, -347886.34, -1255.2518, 0.005590125, -0.040051512, -142331.89, 25456.037, 0.0, 10.009012, 9.981795 
3.3537307e+2, 2.9286018e+2, -29024.877, -245022.73, -1113.6116, 0.0008894798, -0.027983217, -29019.135, 40948.21, 0.0, 10.01017, 9.9815645 
3.3540928e+2, 3.028454e+2, 86397.06, -81166.66, -749.31177, -0.0018749462, -0.021180939, 86400.414, 86400.414, 0.0, 10.011168, 9.988955 
3.3544534e+2, 3.128345e+2, 97613.8, -72686.04, -103.66453, -0.0005733103, -0.031249402, 97613.86, 97613.86, 0.0, 10.0118065, 9.98923 
3.4476167e+2, 1.2296975e+2, -1788380.3, -1733076.1, -3031.1423, 0.0060835923, -0.020256132, -1732910.5, 1982.972, 0.00000000081250584, 9.99418, 10.001504 
3.447992e+2, 1.329693e+2, -1689635.0, -1653858.9, -1959.267, -0.012032883, -0.05072437, -1653751.9, -16854.043, 0.00000000052773436, 9.995059, 9.999797 
3.4483665e+2, 1.4296864e+2, -1589291.3, -1572294.8, -5114.824, 0.0014104868, -0.022806467, -1570874.3, -31969.984, 0.00000000028494548, 9.995985, 9.998225 
3.4487334e+2, 1.5296671e+2, -1477586.0, -1468942.3, -5214.346, 0.0016686574, -0.028678942, -1466491.5, -25568.262, 0.0000000001212577, 9.996973, 9.998104 
3.4490988e+2, 1.6296381e+2, -1379592.5, -1392952.6, -6118.749, -0.000076022756, -0.033611454, -1377213.8, -34262.07, 0.00000000003895854, 9.997926, 9.9961405 
3.4494638e+2, 1.729599e+2, -1268968.3, -1289643.6, -7267.422, -0.002755945, -0.032982577, -1266669.4, -21679.379, 0.000000000009216846, 9.998817, 9.996063 
3.449828e+2, 1.8295488e+2, -1174561.1, -1219758.9, -8657.672, -0.0030999181, -0.03133394, -1172959.5, -25920.41, 0.0000000000015895714, 9.999715, 9.99371 
3.4501916e+2, 1.9294842e+2, -1064352.3, -1117868.1, -7629.4326, 0.0002816596, -0.03226397, -1063285.9, -14183.345, 0.00000000000019928297, 10.000632, 9.993526 
3.4505543e+2, 2.02941e+2, -966779.6, -1042212.0, -7850.1, 0.0019665046, -0.0317346, -965971.3, -14796.17, 0.0000000000000181529, 10.001558, 9.991552 
3.4509152e+2, 2.1293248e+2, -855405.44, -938745.2, -8490.454, -0.00038751634, -0.030554581, -854549.25, -1290.6069, 0.0000000000000012013685, 10.002513, 9.991457 
3.4512764e+2, 2.229229e+2, -759491.1, -866507.94, -8523.822, -0.0011315447, -0.02946939, -758816.44, -3464.0469, 0.00000000000000005776772, 10.003436, 9.989249 
3.4516388e+2, 2.32912e+2, -650075.06, -764681.94, -8215.62, 0.001652038, -0.032693073, -649489.1, 7970.266, 0.0, 10.004288, 9.989094 
3.4520012e+2, 2.4290013e+2, -553401.2, -689877.94, -7687.2246, 0.0017407937, -0.032637224, -552969.56, 6606.102, 0.0, 10.005165, 9.9870825 
3.4523636e+2, 2.5288716e+2, -442401.2, -586643.2, -8083.1904, -0.0040287916, -0.028435472, -441949.63, 19753.06, 0.0, 10.006098, 9.986984 
3.4527275e+2, 2.6287314e+2, -345693.0, -513689.78, -7714.7285, -0.005035112, -0.027849603, -345339.47, 18500.75, 0.0, 10.007056, 9.984807 
3.4530926e+2, 2.728577e+2, -233855.23, -410491.13, -7746.548, 0.0040165693, -0.03944442, -233516.14, 32475.207, 0.0, 10.008066, 9.98467 
3.4534597e+2, 2.8284103e+2, -142352.0, -347238.94, -5196.6294, 0.007353574, -0.041323144, -142220.28, 25934.389, 0.0, 10.008975, 9.981851 
3.4538293e+2, 2.9282287e+2, -35934.35, -247450.48, -4306.4443, -0.001651896, -0.024686353, -35846.707, 34486.215, 0.0, 10.009645, 9.981647 
3.4542006e+2, 3.0280817e+2, 77952.734, -84678.09, -3436.9978, -0.0046864175, -0.017392956, 78025.336, 78025.336, 0.0, 10.010553, 9.989003 
3.4545732e+2, 3.1279725e+2, 100548.35, -70820.85, -4564.054, 0.0046221577, -0.035664994, 100669.82, 100669.82, 0.0, 10.01198, 9.989266 
3.5475576e+2, 1.22931495e+2, -1790852.9, -1737790.3, -887.4637, -0.0025926263, -0.024840094, -1737775.4, -2507.1814, 0.000000009469599, 9.994169, 10.001184 
3.5479432e+2, 1.3293114e+2, -1689430.5, -1652854.5, 1287.6061, -0.0071606776, -0.049637068, -1652809.3, -15537.509, 0.0000000061492664, 9.995036, 9.999871 
3.5483268e+2, 1.4293058e+2, -1588894.5, -1570980.4, -1556.3639, 0.0046527367, -0.019208366, -1570846.1, -31568.97, 0.0000000033196064, 9.995965, 9.998321 
3.5487032e+2, 1.5292871e+2, -1477052.0, -1467499.0, -1527.5208, 0.00060245796, -0.029208587, -1467260.8, -25965.174, 0.0000000014124153, 9.996959, 9.998205 
3.549078e+2, 1.6292575e+2, -1381611.9, -1396913.1, -2752.1265, -0.0031404768, -0.036160126, -1381132.0, -37807.484, 0.0000000004537274, 9.997918, 9.995872 
3.549452e+2, 1.7292151e+2, -1271684.5, -1295057.3, -3914.0913, -0.0016521298, -0.032388467, -1271046.5, -25680.324, 0.00000000010733056, 9.998811, 9.995694 
3.5498255e+2, 1.8291636e+2, -1173641.8, -1217724.8, -5205.078, -0.0003265103, -0.028367821, -1173035.5, -25618.775, 0.00000000001850869, 9.999709, 9.993848 
3.550198e+2, 1.9291013e+2, -1062471.9, -1113901.0, -4101.861, -0.00063771533, -0.029350791, -1062146.8, -12669.187, 0.0000000000023202033, 10.000628, 9.993794 
3.5505694e+2, 2.0290285e+2, -967313.0, -1043324.56, -4238.04, -0.0012128411, -0.030464916, -967077.44, -15528.447, 0.00000000000021133044, 10.001559, 9.991471 
3.5509402e+2, 2.128941e+2, -856570.9, -941203.9, -4842.369, -0.0018119104, -0.034657, -856294.75, -2660.1316, 0.000000000000013984623, 10.002516, 9.991284 
3.5513106e+2, 2.2288443e+2, -759335.94, -866180.44, -5227.868, -0.0017472061, -0.035277292, -759080.75, -3351.2583, 0.0000000000000006723836, 10.003435, 9.989268 
3.5516816e+2, 2.3287365e+2, -649597.0, -763658.06, -4993.3906, -0.00012317946, -0.03134244, -649378.8, 8456.359, 0.0, 10.004286, 9.989161 
3.552053e+2, 2.4286182e+2, -553904.2, -690853.5, -4258.084, 0.00092961977, -0.028793331, -553771.9, 6179.1875, 0.0, 10.005164, 9.987012 
3.5524252e+2, 2.5284865e+2, -443250.2, -588264.44, -4605.1426, 0.0010309883, -0.033339832, -443104.06, 18975.94, 0.0, 10.006093, 9.986872 
3.5527986e+2, 2.6283452e+2, -345841.88, -513797.13, -4060.329, 0.0005331936, -0.03424102, -345743.78, 18474.629, 0.0, 10.007048, 9.984799 
3.553173e+2, 2.7281928e+2, -233856.27, -410253.1, -4004.501, -0.0012023764, -0.030171102, -233765.4, 32602.602, 0.0, 10.008058, 9.984686 
3.5535485e+2, 2.8280273e+2, -141433.98, -345150.06, -2545.3333, -0.0026359018, -0.026569631, -141402.19, 27127.992, 0.0, 10.008969, 9.981993 
3.5539258e+2, 2.9278454e+2, -34518.035, -244737.14, -2029.9072, -0.0018989565, -0.028384818, -34498.434, 36209.88, 0.0, 10.00966, 9.98182 
3.554307e+2, 3.027698e+2, 77321.16, -86251.33, 1104.7762, 0.0003576448, -0.030776994, 77328.62, 77328.62, 0.0, 10.010565, 9.988884 
3.554693e+2, 3.1275883e+2, 98744.39, -73952.73, 740.87415, 0.0037888677, -0.036930848, 98747.56, 98747.56, 0.0, 10.011953, 9.989059 
3.6475003e+2, 1.22892424e+2, -1789688.1, -1740496.6, -4359.766, -0.003855848, -0.028119069, -1740113.3, -4462.1265, 0.00000008268434, 9.994384, 10.00089 
3.647895e+2, 1.3289216e+2, -1685085.4, -1649983.3, -1576.7882, -0.00266202, -0.045670092, -1649912.6, -12258.889, 0.00000005368276, 9.995291, 9.999935 
3.648287e+2, 1.4289159e+2, -1585625.8, -1569718.0, -4758.9946, 0.0023863595, -0.019996278, -1568403.0, -28743.617, 0.000000028975498, 9.996191, 9.99829 
3.6486733e+2, 1.5288967e+2, -1475348.0, -1467306.9, -5926.1426, -0.00043377848, -0.029527783, -1464166.1, -22488.01, 0.000000012326782, 9.997092, 9.998147 
3.6490577e+2, 1.6288666e+2, -1380866.3, -1397307.8, -7464.466, -0.0027562373, -0.036138423, -1377983.0, -34275.363, 0.000000003959453, 9.997993, 9.995801 
3.649441e+2, 1.7288233e+2, -1270655.6, -1295361.4, -6585.847, -0.0005014984, -0.03265365, -1269009.6, -23259.555, 0.0000000009365381, 9.998907, 9.995622 
3.649823e+2, 1.8287711e+2, -1172485.1, -1217576.9, -7150.127, 0.0009692497, -0.028817438, -1171378.5, -23577.156, 0.0000000001614897, 9.999798, 9.99381 
3.6502042e+2, 1.9287087e+2, -1062403.8, -1114208.1, -8275.577, -0.0007502872, -0.029891822, -1061113.9, -11251.446, 0.000000000020242613, 10.00064, 9.993761 
3.6505848e+2, 2.0286354e+2, -968165.75, -1043968.94, -9433.69, -0.0017510108, -0.030867131, -967009.4, -15075.238, 0.0000000000018436379, 10.001501, 9.991448 
3.650965e+2, 2.128548e+2, -858067.2, -942166.0, -9008.774, -0.0009228691, -0.034473546, -857113.0, -3093.1162, 0.00000000000012199398, 10.002414, 9.9912615 
3.6513448e+2, 2.228451e+2, -760666.25, -866813.2, -8894.209, -0.0003719505, -0.034796912, -759926.2, -3811.289, 0.0000000000000058651187, 10.003336, 9.989266 
3.6517242e+2, 2.3283432e+2, -649673.25, -763647.4, -9141.109, -0.00059085136, -0.03126257, -648944.75, 9275.847, 0.0, 10.004271, 9.9891615 
3.6521044e+2, 2.4282248e+2, -553812.2, -691019.7, -8569.444, -0.00000038643205, -0.029155185, -553279.06, 7057.564, 0.0, 10.00517, 9.986992 
3.6524856e+2, 2.528093e+2, -444815.16, -589331.9, -8360.783, 0.0022818383, -0.034197304, -444333.06, 18132.818, 0.0, 10.005991, 9.986842 
3.6528683e+2, 2.6279518e+2, -348575.5, -514688.1, -7043.6987, 0.0027498447, -0.034611635, -348277.34, 16326.931, 0.0, 10.006835, 9.984835 
3.6532515e+2, 2.7278e+2, -238122.58, -411668.44, -6725.5884, -0.0012248206, -0.027799148, -237862.33, 28890.762, 0.0, 10.007728, 9.984742 
3.653637e+2, 2.8276345e+2, -145946.13, -347744.1, -5781.268, -0.0035427061, -0.0244402, -145780.64, 23134.43, 0.0, 10.008668, 9.981956 
3.6540228e+2, 2.9274514e+2, -34317.71, -245357.33, -6911.5796, -0.0012274688, -0.032954633, -34091.598, 37002.805, 0.0, 10.009694, 9.981755 
3.6544132e+2, 3.0273038e+2, 78888.57, -84279.09, -3698.6697, 0.001980392, -0.03695366, 78972.37, 78972.37, 0.0, 10.01061, 9.988992 
3.654809e+2, 3.1271964e+2, 90055.9, -76379.05, -1717.0349, 0.004366938, -0.03359798, 90073.61, 90073.61, 0.0, 10.01127, 9.989217 
3.7474447e+2, 1.2285253e+2, -1792135.3, -1744714.3, -1435.4456, 0.0006087578, -0.031488646, -1744670.9, -8628.704, 0.0000005532481, 9.994352, 10.000613 
3.7478483e+2, 1.3285239e+2, -1685075.9, -1649367.6, 1721.1361, 0.0009019613, -0.038516663, -1649284.9, -11241.314, 0.00000035914545, 9.995268, 9.999984 
3.7482482e+2, 1.4285164e+2, -1587055.3, -1572239.1, -1502.3768, -0.0072702556, -0.025604872, -1572088.4, -32037.58, 0.00000019382824, 9.996175, 9.998122 
3.748644e+2, 1.5284956e+2, -1477199.9, -1470711.0, -2623.082, -0.002660321, -0.029783586, -1469783.3, -27711.941, 0.00000008245099, 9.997076, 9.997919 
3.7490377e+2, 1.6284648e+2, -1380120.1, -1395519.0, -4124.4434, -0.00014591555, -0.03356575, -1379085.0, -34983.582, 0.000000026481976, 9.997983, 9.995923 
3.74943e+2, 1.7284231e+2, -1269199.0, -1292177.0, -3153.2007, -0.00030938178, -0.033919454, -1268774.1, -22632.043, 0.0000000062635124, 9.9989, 9.995837 
3.749821e+2, 1.8283713e+2, -1174036.3, -1220647.5, -3944.6084, -0.00046782187, -0.03274049, -1173704.9, -25511.826, 0.0000000010799891, 9.999792, 9.9936 
3.7502107e+2, 1.9283056e+2, -1064753.4, -1119010.3, -5029.906, -0.0013358317, -0.033793807, -1064291.0, -14033.685, 0.00000000013537126, 10.000639, 9.993431 
3.7506e+2, 2.0282307e+2, -967982.9, -1043636.0, -5986.8247, -0.0014542993, -0.032877658, -967512.0, -15181.188, 0.000000000012328863, 10.001504, 9.991466 
3.7509894e+2, 2.1281448e+2, -857242.3, -940480.2, -5508.6274, 0.0007534321, -0.030184222, -856879.3, -2464.3306, 0.0000000000008157841, 10.002415, 9.991372 
3.7513784e+2, 2.2280487e+2, -760801.44, -867067.0, -5373.5723, 0.0012957981, -0.028234286, -760530.44, -4021.257, 0.00000000000003921943, 10.003336, 9.989245 
3.751767e+2, 2.3279396e+2, -650152.75, -764520.25, -5597.174, -0.0016207335, -0.03195872, -649879.5, 8736.66, 0.000000000000000000006929764, 10.004265, 9.989101 
3.7521562e+2, 2.4278206e+2, -553777.06, -690736.94, -5406.548, -0.0032451106, -0.033048864, -553564.0, 7168.7324, 0.0000000000000000000002423796, 10.005161, 9.987011 
3.7525454e+2, 2.5276896e+2, -444574.84, -588722.44, -5316.606, -0.0015092765, -0.031475168, -444379.0, 18481.957, 0.0, 10.005987, 9.986881 
3.7529364e+2, 2.6275495e+2, -348060.97, -513603.56, -3827.532, 0.000023590199, -0.029345967, -347972.53, 17026.06, 0.0, 10.006836, 9.984903 
3.7533292e+2, 2.7273974e+2, -237594.27, -410487.5, -3489.627, 0.0012205059, -0.031346194, -237523.86, 29623.535, 0.0, 10.007727, 9.984818 
3.753724e+2, 2.8272316e+2, -147324.95, -350445.56, -2196.145, 0.0012426219, -0.033413924, -147301.22, 22008.865, 0.0, 10.008662, 9.981769 
3.75412e+2, 2.9270458e+2, -36312.563, -249295.11, -3140.1975, -0.00065491267, -0.03826655, -36266.273, 35225.438, 0.0, 10.009687, 9.981483 
3.754519e+2, 3.0268982e+2, 80820.02, -80157.18, -1035.2397, -0.0006728208, -0.037183985, 80826.68, 80826.68, 0.0, 10.010609, 9.989268 
3.7549216e+2, 3.1267956e+2, 93389.3, -69715.88, 460.17355, 0.002563724, -0.02647614, 93390.59, 93390.59, 0.0, 10.011285, 9.989661 
3.84739e+2, 1.2281173e+2, -1787078.5, -1744506.8, -4510.1, 0.00078036846, -0.032097485, -1744034.3, -7592.259, 0.0000029192024, 9.994781, 10.000415 
3.8478023e+2, 1.3281165e+2, -1681430.0, -1647673.6, -2228.691, 0.0061578695, -0.031213362, -1647527.1, -9084.306, 0.0000018948215, 9.995506, 9.999978 
3.84821e+2, 1.4281072e+2, -1586374.4, -1572850.8, -5360.354, -0.010589417, -0.03398664, -1570983.9, -30531.992, 0.0000010225369, 9.996253, 9.998035 
3.848615e+2, 1.5280859e+2, -1476900.5, -1471745.9, -5563.74, -0.0024939715, -0.031090556, -1468191.5, -25718.748, 0.0000004349407, 9.99714, 9.99781 
3.849018e+2, 1.6280548e+2, -1379385.6, -1395343.8, -6856.0586, 0.0019327177, -0.030600777, -1376844.6, -32341.398, 0.00000013969013, 9.998032, 9.995906 
3.8494194e+2, 1.728013e+2, -1268143.1, -1291597.4, -7485.946, -0.00035440293, -0.033505112, -1265957.5, -19413.455, 0.000000033038678, 9.998959, 9.995842 
3.8498193e+2, 1.8279606e+2, -1173254.6, -1221077.4, -9083.733, -0.001330514, -0.033941943, -1171587.4, -22991.941, 0.0000000056966374, 9.999872, 9.993524 
3.8502175e+2, 1.9278942e+2, -1063629.1, -1119512.1, -8632.068, -0.000422007, -0.03421063, -1062326.1, -11665.605, 0.0000000007140435, 10.000751, 9.993337 
3.8506156e+2, 2.0278186e+2, -966452.7, -1043158.0, -8629.746, 0.00043483256, -0.032600578, -965493.8, -12759.154, 0.00000000006503118, 10.001611, 9.991442 
3.8510135e+2, 2.1277325e+2, -856766.7, -940344.5, -8970.26, 0.0008279276, -0.030226676, -855814.75, -995.798, 0.000000000004303039, 10.002444, 9.991361 
3.8514113e+2, 2.2276364e+2, -761832.94, -867771.7, -9347.735, 0.0007124642, -0.028562816, -761014.44, -4101.153, 0.00000000000020687176, 10.003264, 9.989226 
3.8518086e+2, 2.3275268e+2, -653047.06, -766208.8, -9401.491, -0.00062082964, -0.03236629, -652271.3, 6749.181, 0.00000000000000000020104626, 10.004071, 9.989074 
3.8522065e+2, 2.4274078e+2, -556932.2, -692044.9, -8943.95, -0.0015034868, -0.033424348, -556342.7, 4794.4688, 0.000000000000000000007029948, 10.004926, 9.98703 
3.8526046e+2, 2.5272775e+2, -445601.97, -588882.1, -8949.999, -0.0014137299, -0.031107364, -445045.06, 18220.004, 0.0, 10.005892, 9.986911 
3.8530046e+2, 2.627137e+2, -348122.06, -513642.47, -7743.1733, -0.0004658388, -0.02917365, -347760.63, 17641.916, 0.0, 10.006821, 9.984903 
3.853406e+2, 2.726985e+2, -238655.38, -411126.25, -8034.499, 0.0020742787, -0.033290304, -238281.89, 29269.74, 0.0, 10.0076475, 9.984808 
3.8538098e+2, 2.8268188e+2, -149474.33, -351050.84, -6231.6035, 0.0028548306, -0.035752837, -149281.86, 20432.422, 0.0, 10.008486, 9.981805 
3.854215e+2, 2.9266346e+2, -40857.723, -250885.55, -5089.7695, 0.00054266956, -0.036840912, -40734.45, 31160.633, 0.0, 10.009337, 9.981539 
3.854623e+2, 3.0264872e+2, 75508.445, -82716.25, -2608.5833, 0.000019470373, -0.0340109, 75551.44, 75551.44, 0.0, 10.010234, 9.989269 
3.8550338e+2, 3.126384e+2, 92315.06, -70378.15, -4096.832, 0.0013912248, -0.027202899, 92418.164, 92418.164, 0.0, 10.011206, 9.989648 
3.9473373e+2, 1.22770116e+2, -1788486.0, -1746734.9, -1200.1721, -0.0076804184, -0.02883512, -1746700.4, -9850.576, 0.000012531762, 9.994756, 10.00027 
3.947758e+2, 1.3276997e+2, -1682550.9, -1649288.1, 186.8542, 0.012016886, -0.023287136, -1649287.1, -10435.898, 0.0000081336, 9.995481, 9.999876 
3.9481726e+2, 1.4276879e+2, -1586759.3, -1573083.4, -2368.4253, -0.008842554, -0.04520461, -1572684.8, -31822.03, 0.0000043890395, 9.99623, 9.998027 
3.9485863e+2, 1.5276675e+2, -1476992.8, -1471528.5, -2304.326, -0.0012924012, -0.033475395, -1470686.5, -27803.877, 0.0000018668253, 9.997123, 9.997829 
3.9489985e+2, 1.6276366e+2, -1380684.6, -1397791.0, -3509.9988, 0.0019773832, -0.026775498, -1379992.4, -35079.367, 0.0000005995586, 9.998023, 9.995739 
3.9494088e+2, 1.7275925e+2, -1269814.6, -1294838.0, -4018.9058, -0.002129949, -0.031501163, -1269185.0, -22228.834, 0.00000014180438, 9.998952, 9.99562 
3.9498177e+2, 1.8275389e+2, -1172938.9, -1220262.9, -5757.8643, -0.0036088056, -0.032738198, -1172248.4, -23239.656, 0.000000024450705, 9.999865, 9.993579 
3.950225e+2, 1.9274738e+2, -1062734.4, -1117563.6, -5268.2666, 0.00048470873, -0.031144265, -1062232.8, -11160.351, 0.0000000030648393, 10.000747, 9.993467 
3.950632e+2, 2.0273988e+2, -966919.75, -1044082.5, -5422.832, 0.00204067, -0.02990627, -966540.5, -13394.514, 0.00000000027913746, 10.001611, 9.991374 
3.9510378e+2, 2.127311e+2, -857601.0, -942095.0, -5764.06, -0.0021515226, -0.03392185, -857209.56, -1977.5183, 0.00000000001847093, 10.002445, 9.991237 
3.9514434e+2, 2.2272135e+2, -761986.9, -868136.6, -6251.6616, -0.0038369861, -0.03504337, -761619.94, -4292.4707, 0.0000000000008880364, 10.003266, 9.989197 
3.9518493e+2, 2.3271048e+2, -653026.25, -766203.75, -6322.7896, 0.00039764898, -0.03252858, -652674.06, 6760.099, 0.000000000000000004402075, 10.004072, 9.98907 
3.952256e+2, 2.4269861e+2, -556873.44, -691913.06, -5446.1597, 0.0027990178, -0.030206403, -556654.1, 4896.404, 0.00000000000000000015389045, 10.004927, 9.987035 
3.9526638e+2, 2.5268552e+2, -445630.13, -588792.1, -5338.721, 0.0010437903, -0.032757998, -445431.3, 18247.516, 0.0, 10.005887, 9.986915 
3.9530727e+2, 2.6267144e+2, -348708.5, -514577.53, -4614.2393, -0.0003975955, -0.033330366, -348580.25, 17236.494, 0.0, 10.006809, 9.98484 
3.9534828e+2, 2.7265617e+2, -239431.64, -412466.4, -5008.436, -0.00047035082, -0.033904754, -239286.8, 28679.62, 0.0, 10.007637, 9.984716 
3.9538944e+2, 2.8263962e+2, -148057.4, -347887.84, -3158.2566, -0.00034806324, -0.03246359, -148007.5, 22120.988, 0.0, 10.008478, 9.98202 
3.9543083e+2, 2.9262152e+2, -38649.477, -246279.16, -2144.431, 0.0012397383, -0.029640729, -38627.33, 33678.6, 0.0, 10.00934, 9.981847 
3.954726e+2, 3.026069e+2, 74008.34, -85883.59, 656.4646, 0.0015712688, -0.027837418, 74011.04, 74011.04, 0.0, 10.010239, 9.989044 
3.9551458e+2, 3.1259608e+2, 89487.65, -76104.07, -553.3928, -0.0037221347, -0.034001406, 89489.5, 89489.5, 0.0, 10.011202, 9.98925 
4.0472853e+2, 1.2272766e+2, -1784837.1, -1744810.9, -2607.536, -0.011402452, -0.034093622, -1744641.8, -7375.793, 0.00004485904, 9.994986, 10.000283 
4.0477142e+2, 1.3272749e+2, -1681158.0, -1650519.3, -3155.3079, 0.016704526, -0.016892435, -1650197.6, -10930.044, 0.00002911354, 9.99565, 9.999704 
4.0481356e+2, 1.427261e+2, -1585096.3, -1573122.4, -5369.215, -0.0081987735, -0.045912776, -1571067.4, -29786.21, 0.000015709626, 9.996371, 9.997949 
4.048559e+2, 1.5272401e+2, -1473246.1, -1470225.4, -5610.337, -0.0015356541, -0.034432154, -1465925.6, -22624.129, 0.000006681798, 9.997389, 9.997783 
4.0489802e+2, 1.6272086e+2, -1376798.4, -1397034.4, -7371.8384, 0.0016569349, -0.027321508, -1374397.6, -29065.098, 0.0000021459712, 9.998327, 9.995636 
4.049399e+2, 1.7271633e+2, -1268839.4, -1295724.5, -7361.519, -0.0011926895, -0.031060578, -1266955.6, -19578.78, 0.00000050756734, 9.999068, 9.995497 
4.0498164e+2, 1.8271089e+2, -1173303.8, -1220669.3, -8771.265, -0.0021333783, -0.031960674, -1171731.6, -22301.428, 0.00000008752133, 9.999842, 9.993556 
4.0502325e+2, 1.9270438e+2, -1063164.4, -1117738.0, -9265.859, 0.0002656168, -0.03154295, -1061634.1, -10140.128, 0.000000010971236, 10.000709, 9.993466 
4.0506476e+2, 2.0269686e+2, -967803.2, -1044837.94, -10130.371, 0.0011112876, -0.030867828, -966493.3, -12925.613, 0.0000000009993062, 10.0015545, 9.9913435 
4.0510616e+2, 2.1268803e+2, -859158.44, -943318.8, -10045.851, -0.0015173974, -0.033962805, -857975.94, -2321.8494, 0.00000000006613187, 10.00235, 9.991194 
4.0514758e+2, 2.2267829e+2, -763025.7, -868568.0, -9906.146, -0.0021114023, -0.03460564, -762103.94, -4354.224, 0.0000000000031798247, 10.003183, 9.989202 
4.0518907e+2, 2.3266739e+2, -652227.1, -765622.1, -9779.527, 0.0013666304, -0.033164296, -651389.9, 8466.46, 0.0000000000000000688154, 10.004109, 9.989086 
4.0523058e+2, 2.4265552e+2, -556074.25, -691791.7, -8901.204, 0.0033446474, -0.031555638, -555492.94, 6479.8047, 0.0000000000000000024051838, 10.004982, 9.98701 
4.052722e+2, 2.526424e+2, -448231.47, -590483.9, -9149.223, 0.0014730352, -0.033441037, -447645.44, 16455.943, 0.0, 10.005715, 9.9868765 
4.0531394e+2, 2.6262832e+2, -352948.28, -516104.13, -8268.17, 0.000023011135, -0.03335301, -352530.38, 13708.927, 0.0, 10.006488, 9.984885 
4.0535575e+2, 2.7261314e+2, -243048.64, -413409.94, -7672.329, -0.0006147295, -0.033478726, -242703.81, 25684.457, 0.0, 10.007344, 9.984788 
4.053978e+2, 2.8259662e+2, -151549.72, -349606.3, -5479.3477, -0.0005915588, -0.031661894, -151398.25, 19151.62, 0.0, 10.008228, 9.982019 
4.054401e+2, 2.925785e+2, -41319.516, -247874.89, -6576.0864, 0.0020642101, -0.028546575, -41110.363, 31617.158, 0.0, 10.009157, 9.98182 
4.0548274e+2, 3.025639e+2, 72212.32, -85529.32, -4368.8286, 0.0029884002, -0.027323598, 72333.23, 72333.23, 0.0, 10.010049, 9.989154 
4.0552557e+2, 3.1255323e+2, 85084.34, -76534.77, -2320.358, -0.003439333, -0.035711937, 85117.65, 85117.65, 0.0, 10.010815, 9.989405 
4.1472355e+2, 1.2268443e+2, -1784098.3, -1742280.6, 1545.952, -0.011958785, -0.04561827, -1742223.6, -4534.1733, 0.0001357749, 9.994944, 10.00047 
4.147671e+2, 1.326842e+2, -1683384.4, -1654408.9, -1097.6425, 0.018970633, -0.012394851, -1654367.4, -14675.604, 0.00008811505, 9.995626, 9.999446 
4.148099e+2, 1.4268264e+2, -1586504.8, -1575468.8, -2067.2966, -0.01012863, -0.03543343, -1575094.3, -33387.254, 0.000047546542, 9.996348, 9.997796 
4.1485327e+2, 1.5268034e+2, -1474397.3, -1472112.5, -1849.5991, -0.004710989, -0.03399183, -1471080.9, -27351.443, 0.000020223571, 9.997369, 9.99766 
4.148963e+2, 1.6267703e+2, -1377315.6, -1397801.9, -4499.9424, -0.00076775276, -0.032779425, -1376370.8, -30608.879, 0.0000064954993, 9.998317, 9.995584 
4.14939e+2, 1.7267251e+2, -1269129.4, -1296139.0, -4650.9673, 0.0012608303, -0.032374896, -1268351.0, -20544.822, 0.0000015364569, 9.9990635, 9.995466 
4.1498154e+2, 1.8266703e+2, -1174076.0, -1222151.5, -5664.32, 0.0016480652, -0.031363524, -1173417.6, -23557.76, 0.00000026496838, 9.999837, 9.993453 
4.1502392e+2, 1.9266036e+2, -1064092.0, -1119606.8, -5922.689, -0.002672133, -0.035312057, -1063467.1, -11541.779, 0.000000033220672, 10.000707, 9.993336 
4.1506627e+2, 2.0265274e+2, -967874.6, -1045005.56, -7023.0093, -0.0044103717, -0.035413966, -967240.4, -13240.378, 0.0000000030265355, 10.001556, 9.991326 
4.1510856e+2, 2.1264401e+2, -858932.6, -942960.25, -6987.1816, 0.00070316443, -0.030316047, -858355.56, -2270.092, 0.00000000020034616, 10.002355, 9.991212 
4.1515085e+2, 2.2263433e+2, -762716.44, -867983.56, -6510.264, 0.003523394, -0.027348999, -762315.3, -4134.818, 0.000000000009636878, 10.003186, 9.989235 
4.1519314e+2, 2.326234e+2, -651977.25, -765028.56, -6252.604, 0.00046876387, -0.03403645, -651632.44, 8655.055, 0.0000000000000007946489, 10.004106, 9.989124 
4.1523555e+2, 2.4261148e+2, -556570.3, -692600.44, -5994.1943, -0.0018200683, -0.036745958, -556306.7, 6097.582, 0.000000000000000027769294, 10.004974, 9.986955 
4.152779e+2, 2.5259832e+2, -448947.78, -591778.0, -6415.3784, -0.0014174727, -0.032993007, -448660.22, 15873.01, 0.0, 10.005709, 9.986788 
4.153204e+2, 2.625843e+2, -352066.47, -514171.38, -5189.1064, -0.0009936087, -0.029242009, -351900.53, 14770.318, 0.0, 10.006485, 9.985013 
4.1536307e+2, 2.7256924e+2, -241701.73, -410522.06, -4595.253, -0.0010532368, -0.031848002, -241576.75, 27241.43, 0.0, 10.007342, 9.984982 
4.1540605e+2, 2.825528e+2, -152890.58, -352300.94, -2304.7517, -0.00072301994, -0.03249132, -152863.94, 18115.557, 0.0, 10.008225, 9.981832 
4.154493e+2, 2.9253432e+2, -43639.39, -252449.3, -3241.314, 0.0017057504, -0.03215067, -43589.09, 29571.31, 0.0, 10.00915, 9.981505 
4.154928e+2, 3.0251965e+2, 74585.51, -80334.74, -1469.5164, 0.0027828005, -0.031573, 74599.445, 74599.445, 0.0, 10.010043, 9.989507 
4.1553643e+2, 3.125096e+2, 89269.34, -68001.69, 176.06354, -0.002072823, -0.03414113, 89269.54, 89269.54, 0.0, 10.010828, 9.989977 
4.2471862e+2, 1.2264046e+2, -1778673.8, -1737605.0, 370.38702, -0.008341116, -0.045006573, -1737601.6, 518.60223, 0.00035082738, 9.995212, 10.000649 
4.2476287e+2, 1.3263987e+2, -1681314.1, -1657599.5, -5700.9355, 0.018470127, -0.016786743, -1656300.3, -16174.147, 0.00022768496, 9.995936, 9.999074 
4.2480636e+2, 1.426381e+2, -1583053.5, -1575171.9, -6344.767, -0.013179226, -0.033440817, -1571643.6, -29500.178, 0.0001228659, 9.996633, 9.99767 
4.2485067e+2, 1.5263572e+2, -1472868.0, -1471893.6, -5320.3745, -0.0042933715, -0.034032244, -1467038.3, -22871.516, 0.000052266085, 9.997487, 9.997609 
4.2489466e+2, 1.6263235e+2, -1377314.4, -1398354.9, -8088.709, 0.0018016186, -0.03424842, -1374564.3, -28364.508, 0.00001678997, 9.99833, 9.995534 
4.249381e+2, 1.7262779e+2, -1267807.9, -1296074.3, -8640.668, 0.001806283, -0.03345639, -1265375.8, -17131.277, 0.000003972505, 9.9991665, 9.995414 
4.2498142e+2, 1.8262227e+2, -1172154.5, -1221780.4, -9576.503, 0.0011939192, -0.031760134, -1170370.6, -20071.967, 0.00000068530704, 9.999982, 9.9934025 
4.250247e+2, 1.9261554e+2, -1063501.1, -1119874.3, -9306.271, -0.0019150673, -0.03447445, -1062004.5, -9640.032, 0.00000008596078, 10.000759, 9.993286 
4.2506784e+2, 2.026079e+2, -967894.3, -1045160.7, -10051.72, -0.0027769725, -0.03424772, -966608.06, -12168.606, 0.000000007836224, 10.001551, 9.991314 
4.2511094e+2, 2.1259916e+2, -858172.06, -942675.5, -10212.124, 0.0014107026, -0.031101482, -856955.5, -430.2773, 0.0000000005191636, 10.0024, 9.991203 
4.2515406e+2, 2.2258943e+2, -762551.5, -868230.3, -10059.672, 0.0035800887, -0.029081777, -761602.44, -2981.975, 0.000000000025000514, 10.0032015, 9.989205 
4.2519715e+2, 2.3257847e+2, -655378.56, -767188.3, -10450.36, 0.00026727546, -0.033712, -654410.2, 6317.5527, 0.0000000000000068380394, 10.003886, 9.989076 
4.2524034e+2, 2.4256656e+2, -561051.4, -694173.2, -10159.1875, -0.0018619611, -0.03518103, -560280.5, 2563.9211, 0.00000000000000023892724, 10.004629, 9.987008 
4.2528352e+2, 2.5255346e+2, -450755.13, -591790.2, -9507.298, -0.0012708638, -0.0328827, -450117.13, 14855.643, 0.0, 10.005537, 9.986865 
4.2532688e+2, 2.6253945e+2, -352732.25, -514605.2, -7770.011, -0.00005529482, -0.030204356, -352360.13, 14749.888, 0.0, 10.006431, 9.985006 
4.253704e+2, 2.725244e+2, -242909.14, -411603.8, -8666.535, 0.0011833557, -0.03223713, -242465.08, 26792.598, 0.0, 10.007268, 9.984938 
4.2541417e+2, 2.825079e+2, -154642.72, -352789.16, -6854.178, 0.0011124718, -0.033161294, -154405.89, 17013.29, 0.0, 10.0080805, 9.98186 
4.254582e+2, 2.924895e+2, -48397.668, -254112.88, -5625.6626, -0.0007229196, -0.034932353, -48243.938, 25355.809, 0.0, 10.008783, 9.981564 
4.2550257e+2, 3.024749e+2, 68509.68, -82728.33, -2662.6018, -0.00005115737, -0.034285016, 68556.54, 68556.54, 0.0, 10.009592, 9.989554 
4.255472e+2, 3.1246486e+2, 87016.88, -68586.78, -4224.525, 0.003250699, -0.03208565, 87131.49, 87131.49, 0.0, 10.010642, 9.990017 
4.347139e+2, 1.22595824e+2, -1778173.9, -1735545.3, 5032.2837, -0.0041061733, -0.030200314, -1734959.3, 3598.5415, 0.00078514614, 9.995167, 10.000805 
4.3475875e+2, 1.3259451e+2, -1685582.6, -1665552.4, -3552.9185, 0.013424588, -0.030471416, -1664940.9, -24370.271, 0.00050963036, 9.995906, 9.998544 
4.3480295e+2, 1.4259245e+2, -1584077.0, -1576703.5, -3600.9746, -0.019297348, -0.040105052, -1575236.8, -32645.857, 0.00027507497, 9.996611, 9.997572 
4.3484822e+2, 1.5259016e+2, -1472841.0, -1471401.9, -2248.507, -0.0024756654, -0.034383632, -1469760.6, -25147.266, 0.00011705333, 9.997471, 9.997644 
4.3489304e+2, 1.625868e+2, -1377857.5, -1399178.3, -5111.3193, 0.0068371985, -0.03129539, -1376695.5, -30049.33, 0.000037619757, 9.998319, 9.995479 
4.3493727e+2, 1.7258212e+2, -1268497.6, -1297301.4, -5565.0103, -0.0010317245, -0.033965304, -1267459.8, -18767.803, 0.000008906541, 9.999161, 9.995329 
4.3498135e+2, 1.8257654e+2, -1172229.3, -1221815.4, -6676.984, -0.005075755, -0.032949924, -1171345.9, -20599.115, 0.0000015378395, 9.999979, 9.993397 
4.3502548e+2, 1.925699e+2, -1063305.5, -1119459.4, -6356.437, 0.00053516205, -0.028985452, -1062595.0, -9783.201, 0.00000019312868, 10.000761, 9.99331 
4.3506947e+2, 2.0256229e+2, -967937.75, -1045265.44, -6912.9766, 0.0033280954, -0.027282972, -967324.6, -12438.13, 0.000000017634331, 10.001553, 9.991302 
4.351133e+2, 2.125534e+2, -858299.06, -942988.2, -6905.617, -0.0010290479, -0.036027424, -857739.7, -766.1768, 0.0000000011708853, 10.002403, 9.991176 
4.3515718e+2, 2.2254357e+2, -763182.6, -869634.94, -7271.8345, -0.00360469, -0.03919154, -762688.2, -3618.407, 0.000000000056553692, 10.003207, 9.989102 
4.3520102e+2, 2.325326e+2, -656238.2, -769030.25, -7811.6187, -0.0010814441, -0.03199278, -655699.75, 5477.5317, 0.000000000000044721503, 10.003889, 9.988945 
4.35245e+2, 2.4252072e+2, -560096.8, -692222.2, -6940.114, 0.00075066654, -0.026938472, -559733.3, 3560.4565, 0.000000000000001562477, 10.004632, 9.987136 
4.3528906e+2, 2.5250775e+2, -449342.78, -588690.56, -6137.6743, 0.00038584083, -0.03281272, -449072.97, 16347.784, 0.0, 10.005529, 9.987075 
4.353333e+2, 2.624938e+2, -353831.72, -516557.2, -4697.008, 0.00088515563, -0.035221897, -353696.25, 13861.334, 0.0, 10.006418, 9.984874 
4.3537772e+2, 2.7247852e+2, -244879.83, -415310.84, -5626.0986, 0.0034664997, -0.034265667, -244694.3, 25013.072, 0.0, 10.007254, 9.984687 
4.354223e+2, 2.8246194e+2, -153477.11, -349986.56, -4192.625, 0.0024817216, -0.03354826, -153387.7, 18481.887, 0.0, 10.008065, 9.982055 
4.3546695e+2, 2.9244384e+2, -45981.086, -249088.53, -3305.2188, -0.0058856425, -0.037006352, -45927.313, 28119.719, 0.0, 10.008787, 9.981901 
4.3551213e+2, 3.0242935e+2, 67275.734, -85433.58, 620.2179, -0.0072466843, -0.03594603, 67278.26, 67278.26, 0.0, 10.009602, 9.989358 
4.355579e+2, 3.1241906e+2, 84074.85, -74194.586, -394.1675, 0.006715472, -0.028727824, 84075.83, 84075.83, 0.0, 10.010621, 9.989637 
4.4470897e+2, 1.2254982e+2, -1779358.0, -1734093.1, 901.70654, -0.0036515566, -0.024841256, -1734075.1, 4933.4717, 0.0015538043, 9.994985, 10.000981 
4.4475475e+2, 1.3254824e+2, -1682803.3, -1665961.0, -6986.29, 0.011567187, -0.040065467, -1663440.4, -22416.39, 0.0010089569, 9.9961605, 9.998384 
4.4479984e+2, 1.4254616e+2, -1577034.9, -1574582.0, -5874.6235, -0.015617653, -0.037366882, -1569807.1, -26762.729, 0.0005448942, 9.997137, 9.997455 
4.448458e+2, 1.5254375e+2, -1469502.6, -1470946.3, -5674.92, -0.0010409161, -0.032410644, -1464503.8, -19435.734, 0.00023205215, 9.997738, 9.9975395 
4.448914e+2, 1.6254032e+2, -1376702.9, -1398964.0, -8821.113, 0.006245712, -0.030633334, -1373631.3, -26529.475, 0.00007466019, 9.998404, 9.995444 
4.4493645e+2, 1.7253561e+2, -1266778.0, -1296567.6, -8720.866, -0.0017599188, -0.033717316, -1264412.8, -15265.017, 0.000017702305, 9.999272, 9.995318 
4.449814e+2, 1.8253002e+2, -1170832.9, -1221551.4, -10026.964, -0.0052167876, -0.033062946, -1168922.5, -17719.781, 0.000003062777, 10.000083, 9.993358 
4.4502622e+2, 1.9252332e+2, -1063766.8, -1120222.6, -10455.87, 0.0017027509, -0.029773522, -1061892.5, -8624.18, 0.0000003857046, 10.000744, 9.99326 
4.4507098e+2, 2.0251566e+2, -969567.75, -1046249.9, -11103.18, 0.0049277646, -0.02856218, -967992.44, -12649.01, 0.00000003535121, 10.00144, 9.9912815 
4.4511563e+2, 2.1250676e+2, -860625.94, -944246.06, -11009.361, -0.0013621388, -0.036618363, -859200.75, -1770.1787, 0.000000002359298, 10.002239, 9.991163 
4.451603e+2, 2.2249693e+2, -765308.7, -870501.0, -11212.617, -0.0043926477, -0.038772106, -764126.8, -4600.057, 0.000000000114745775, 10.003043, 9.989118 
4.452049e+2, 2.3248601e+2, -656109.8, -768725.8, -10734.932, -0.000052240794, -0.03126794, -655095.7, 6538.346, 0.00000000000022836846, 10.003876, 9.988968 
4.4524968e+2, 2.4247412e+2, -559440.25, -692221.25, -9384.205, 0.002893086, -0.026950145, -558780.3, 4970.174, 0.0000000000000079783024, 10.004681, 9.987107 
4.4529453e+2, 2.5246108e+2, -451337.75, -590236.4, -10280.495, 0.0014094108, -0.03477602, -450580.97, 15297.148, 0.0, 10.005406, 9.987022 
4.453396e+2, 2.6244712e+2, -357177.4, -517416.22, -9416.21, 0.0010525379, -0.03760776, -356625.97, 11389.102, 0.0, 10.006144, 9.984941 
4.4538477e+2, 2.7243194e+2, -249166.14, -416253.3, -8167.891, 0.003030198, -0.033564143, -248767.81, 21395.82, 0.0, 10.006899, 9.984789 
4.454302e+2, 2.824155e+2, -158451.69, -352321.16, -5523.4517, 0.002292126, -0.030827897, -158294.45, 14030.521, 0.0, 10.007709, 9.982064 
4.4547564e+2, 2.9239735e+2, -48557.96, -250695.06, -6939.904, -0.0038190335, -0.03596945, -48319.977, 26182.832, 0.0, 10.008613, 9.98187 
4.4552165e+2, 3.023829e+2, 66208.48, -84705.44, -3750.9429, -0.0045883576, -0.036749866, 66301.65, 66301.65, 0.0, 10.009457, 9.989473 
4.455682e+2, 3.123727e+2, 77349.08, -75614.04, -1653.8657, 0.004885045, -0.0307759, 77366.96, 77366.96, 0.0, 10.010061, 9.989809 
4.5470387e+2, 1.2250242e+2, -1779051.9, -1731899.1, 5566.0205, -0.011484268, -0.029772917, -1731251.0, 8222.02, 0.0027803245, 9.994915, 10.001159 
4.5475093e+2, 1.3250108e+2, -1681622.4, -1662661.0, -2939.2358, 0.011226883, -0.045095917, -1662215.8, -20729.637, 0.0018069525, 9.996125, 9.998619 
4.5479712e+2, 1.4249925e+2, -1578221.4, -1576614.4, -3470.9893, -0.0028517847, -0.024768092, -1573855.1, -30351.096, 0.0009770269, 9.997123, 9.997317 
4.5484355e+2, 1.5249652e+2, -1471570.6, -1474807.0, -3678.048, -0.0016772413, -0.028241156, -1469170.5, -23639.605, 0.00041677037, 9.997725, 9.997278 
4.548897e+2, 1.6249286e+2, -1376973.4, -1399198.6, -6011.64, -0.0024130223, -0.03260325, -1375451.5, -27884.666, 0.00013439546, 9.998392, 9.995428 
4.5493573e+2, 1.7248826e+2, -1266474.9, -1295731.8, -5528.703, -0.002140035, -0.032803025, -1265464.9, -15852.909, 0.000031964762, 9.999266, 9.995373 
4.549815e+2, 1.8248263e+2, -1171410.0, -1222589.9, -7492.4717, -0.0012012704, -0.032152545, -1170335.8, -18668.814, 0.000005553748, 10.000079, 9.993284 
4.5502695e+2, 1.9247575e+2, -1064610.1, -1121997.4, -7979.7183, -0.00042145437, -0.037055112, -1063521.1, -9786.759, 0.00000070340104, 10.000749, 9.993132 
4.5507237e+2, 2.0246798e+2, -969735.1, -1046654.0, -8208.266, -0.00048027514, -0.037942883, -968868.94, -13058.313, 0.000000064967765, 10.001444, 9.991248 
4.5511788e+2, 2.1245919e+2, -860637.7, -944324.4, -7891.7456, -0.0012720852, -0.032503713, -859900.0, -2003.3074, 0.0000000043809485, 10.002242, 9.991153 
4.551634e+2, 2.2244948e+2, -764427.7, -868729.8, -8085.2554, -0.0009353143, -0.027711142, -763804.7, -3812.772, 0.00000000021602262, 10.003047, 9.989231 
4.552088e+2, 2.324386e+2, -654964.5, -766339.3, -7583.969, 0.001320891, -0.031182121, -654450.44, 7648.115, 0.0000000000009414817, 10.003876, 9.989127 
4.5525435e+2, 2.4242668e+2, -560650.9, -694577.7, -6581.7964, 0.0023220982, -0.034124147, -560328.2, 3887.047, 0.000000000000032891313, 10.004675, 9.986944 
4.552999e+2, 2.524134e+2, -453466.25, -594411.06, -7533.364, 0.0004443291, -0.03817876, -453064.75, 13280.55, 0.0, 10.005396, 9.986739 
4.5534572e+2, 2.6239938e+2, -355729.56, -514203.75, -6606.674, -0.0010031491, -0.037257716, -355454.63, 13028.264, 0.0, 10.006137, 9.985159 
4.5539165e+2, 2.723846e+2, -246502.03, -410613.78, -5508.507, -0.0019539117, -0.030104304, -246317.34, 24310.191, 0.0, 10.006897, 9.985169 
4.5543784e+2, 2.823684e+2, -159558.22, -354437.7, -2585.2168, -0.0019506436, -0.024884334, -159523.94, 13262.838, 0.0, 10.0077, 9.981919 
4.5548433e+2, 2.9234987e+2, -51132.06, -255689.02, -3755.682, 0.0028421562, -0.0318393, -51063.125, 23904.809, 0.0, 10.008598, 9.981529 
4.555312e+2, 3.0233526e+2, 68270.41, -80047.62, -1334.8588, 0.004822906, -0.036285076, 68282.414, 68282.414, 0.0, 10.009443, 9.989795 
4.555782e+2, 3.123256e+2, 81389.94, -67368.54, 81.14846, -0.004217392, -0.03612423, 81389.98, 81389.98, 0.0, 10.010071, 9.990366 
4.646991e+2, 1.2245426e+2, -1771843.9, -1731248.8, 3509.6155, -0.008176236, -0.03035707, -1730947.6, 8997.396, 0.004589857, 9.995516, 10.000905 
4.6474704e+2, 1.3245298e+2, -1678238.5, -1659548.0, -5946.701, 0.0061367783, -0.049021315, -1657816.5, -15858.88, 0.0029879087, 9.996276, 9.998751 
4.6479425e+2, 1.4245133e+2, -1578712.8, -1577168.1, -7623.3467, 0.0022107908, -0.018685153, -1570278.1, -26304.258, 0.0016192476, 9.997091, 9.99729 
4.6484137e+2, 1.5244848e+2, -1469030.9, -1474514.6, -6876.15, -0.0013478012, -0.02785856, -1464370.1, -18368.174, 0.00069287396, 9.997927, 9.997195 
4.6488822e+2, 1.6244468e+2, -1373068.0, -1398011.6, -8509.086, -0.004554011, -0.03601601, -1370441.8, -22402.838, 0.00022437889, 9.998676, 9.995367 
4.64935e+2, 1.7244004e+2, -1267198.9, -1296823.9, -8907.031, -0.00024866828, -0.033856515, -1264727.1, -14642.67, 0.000053673917, 9.999237, 9.995307 
4.6498153e+2, 1.8243441e+2, -1174122.9, -1224082.1, -11078.044, 0.002614115, -0.031629052, -1171776.6, -19636.916, 0.000009398119, 9.999887, 9.993271 
4.6502775e+2, 1.9242749e+2, -1063380.6, -1121474.0, -10715.182, -0.0010584767, -0.03726177, -1061467.3, -7259.9526, 0.0000012027082, 10.00082, 9.993129 
4.650739e+2, 2.0241971e+2, -966635.94, -1045588.06, -10752.485, -0.0028841593, -0.038037654, -965197.75, -8914.14, 0.00000011262272, 10.001662, 9.991211 
4.6512014e+2, 2.1241088e+2, -860449.56, -944887.3, -10883.532, 0.00029891168, -0.031447764, -859069.3, -699.2664, 0.000000007732489, 10.002272, 9.991095 
4.6516642e+2, 2.2240116e+2, -766154.6, -869380.8, -11245.807, 0.0026928254, -0.027283825, -764943.6, -4478.0586, 0.00000000039024706, 10.00291, 9.989248 
4.6521258e+2, 2.3239025e+2, -657750.44, -767423.7, -11590.688, 0.0014110188, -0.033511605, -656538.9, 6033.3813, 0.0000000000032348013, 10.003663, 9.989149 
4.6525887e+2, 2.4237837e+2, -563929.1, -695772.25, -10786.205, 0.00043747094, -0.036540043, -563052.5, 1636.0471, 0.00000000000011301746, 10.00442, 9.98698 
4.653052e+2, 2.5236517e+2, -456340.13, -595637.44, -9835.941, 0.00022973902, -0.035611644, -455649.03, 11169.014, 0.0, 10.005181, 9.986754 
4.653518e+2, 2.6235116e+2, -358123.72, -515198.25, -7922.5845, 0.00008484395, -0.032729033, -357725.13, 11230.135, 0.0, 10.005952, 9.985178 
4.6539843e+2, 2.7233636e+2, -248665.6, -411613.44, -9191.845, -0.0017735246, -0.031594224, -248148.73, 22951.617, 0.0, 10.00673, 9.985178 
4.6544543e+2, 2.8232014e+2, -161872.2, -355034.47, -7209.779, -0.0018465027, -0.029549291, -161603.47, 11656.167, 0.0, 10.00751, 9.981961 
4.6549273e+2, 2.923017e+2, -56391.074, -257587.7, -6094.044, 0.005004833, -0.031029359, -56206.66, 19233.135, 0.0, 10.008197, 9.981589 
4.6554047e+2, 3.0228722e+2, 62238.945, -82146.67, -2468.7297, 0.007770664, -0.03294195, 62281.145, 62281.145, 0.0, 10.008989, 9.989862 
4.6558815e+2, 3.1227753e+2, 79659.266, -67386.12, -4031.8376, -0.0053693894, -0.038911216, 79769.734, 79769.734, 0.0, 10.009917, 9.990426 
4.7469473e+2, 1.2240538e+2, -1777949.4, -1742724.3, 4283.3364, 0.0017890802, -0.027960205, -1742210.9, -1786.9055, 0.007113215, 9.99548, 10.000136 
4.7474322e+2, 1.3240395e+2, -1678849.1, -1659804.4, -3265.468, -0.00581563, -0.051271204, -1659260.0, -16821.955, 0.004643645, 9.996239, 9.998744 
4.747913e+2, 1.4240235e+2, -1578610.6, -1576147.6, -4875.6743, -0.002931282, -0.018958597, -1572350.3, -27896.451, 0.0025262511, 9.997059, 9.997369 
4.748393e+2, 1.5239955e+2, -1468587.9, -1473173.5, -3918.62, -0.0032213798, -0.031087883, -1466340.6, -19859.436, 0.0010866441, 9.997911, 9.997288 
4.7488692e+2, 1.6239576e+2, -1373923.8, -1399530.5, -6457.227, -0.003953211, -0.040806215, -1372387.6, -23869.498, 0.00035438547, 9.99867, 9.995263 
4.7493428e+2, 1.7239098e+2, -1268527.1, -1299428.1, -6966.917, 0.0012844186, -0.036886867, -1267029.0, -16463.81, 0.000085576154, 9.999235, 9.995125 
4.7498146e+2, 1.8238527e+2, -1173839.6, -1223454.6, -8044.67, 0.0037413514, -0.031458803, -1172567.9, -19946.684, 0.000015172572, 9.999887, 9.993308 
4.7502857e+2, 1.9237854e+2, -1062561.3, -1119889.3, -7167.6216, -0.0021676673, -0.029735014, -1061678.6, -6991.5137, 0.0000019737136, 10.000828, 9.993227 
4.7507557e+2, 2.0237082e+2, -966837.0, -1046042.6, -8252.938, -0.0049772803, -0.028500177, -965986.2, -9223.421, 0.00000018875323, 10.001665, 9.991175 
4.7512242e+2, 2.123618e+2, -861073.8, -946211.0, -8550.95, 0.001057687, -0.033460222, -860223.5, -1372.4071, 0.000000013307983, 10.0022745, 9.991 
4.7516933e+2, 2.223519e+2, -766670.06, -870498.06, -8475.801, 0.004099375, -0.036720056, -765982.7, -5034.5796, 0.00000000069387657, 10.002913, 9.989166 
4.752162e+2, 2.3234096e+2, -658367.1, -768776.0, -8620.658, -0.0013761051, -0.03770826, -657698.1, 5357.1997, 0.000000000009472845, 10.003666, 9.989052 
4.7526324e+2, 2.4232917e+2, -562690.25, -693163.56, -7920.9727, -0.0046945144, -0.034422792, -562211.2, 2959.868, 0.00000000000033105902, 10.00442, 9.987154 
4.753104e+2, 2.5231627e+2, -454565.22, -591766.06, -7050.917, -0.0012053703, -0.027758427, -454203.8, 13093.605, 0.000000000000000004361499, 10.005174, 9.987019 
4.7535777e+2, 2.623024e+2, -359331.94, -517422.5, -5131.3784, 0.0017172041, -0.024543812, -359165.56, 10267.841, 0.000000000000000025260425, 10.005941, 9.985026 
4.7540522e+2, 2.7228713e+2, -251147.47, -416445.25, -6368.9746, 0.0007206279, -0.037579115, -250902.44, 20680.324, 0.00000000000000010669206, 10.006719, 9.984848 
4.7545296e+2, 2.822707e+2, -160737.72, -352319.84, -4629.709, -0.0002846838, -0.042961955, -160625.9, 13118.125, 0.00000000000000033199385, 10.007495, 9.98215 
4.755009e+2, 2.9225275e+2, -53993.105, -252460.02, -3870.234, 0.002040054, -0.03217133, -53917.66, 22002.117, 0.00000000000000078039946, 10.008194, 9.9819355 
4.755494e+2, 3.0223846e+2, 61470.895, -83753.27, 465.02795, 0.0034717293, -0.027425002, 61472.383, 61472.383, 0.0000000000000014474501, 10.008994, 9.989743 
4.7559816e+2, 3.1222856e+2, 77532.91, -71643.336, -797.1855, -0.0031365184, -0.032232407, 77537.164, 77537.164, 0.0000000000000022339833, 10.009915, 9.990128 
4.8469043e+2, 1.22355685e+2, -1776409.9, -1747827.3, -404.0384, 0.008365768, -0.026504818, -1747821.5, -6910.437, 0.01049777, 9.995828, 9.999616 
4.847395e+2, 1.3235433e+2, -1672298.0, -1654958.3, -4460.046, -0.016766544, -0.04822972, -1653878.4, -10954.104, 0.0068823104, 9.996597, 9.998896 
4.8478857e+2, 1.4235276e+2, -1573509.3, -1573750.0, -5953.887, 0.0013361762, -0.023296142, -1567674.5, -22734.617, 0.0037656925, 9.997401, 9.99736 
4.848373e+2, 1.5234993e+2, -1467388.9, -1473390.6, -6437.0254, 0.0006925927, -0.032067016, -1463287.6, -16320.177, 0.0016323061, 9.998018, 9.997215 
4.8488563e+2, 1.623461e+2, -1374060.4, -1400447.0, -9859.624, -0.0019008468, -0.039196108, -1370783.3, -21778.299, 0.00053782034, 9.998688, 9.995185 
4.849336e+2, 1.7234121e+2, -1264748.5, -1298513.4, -9800.807, 0.00009351308, -0.03622065, -1262109.9, -11056.922, 0.00013162919, 9.99952, 9.995046 
4.8498148e+2, 1.8233544e+2, -1168641.4, -1221499.1, -10740.445, 0.001779259, -0.031343017, -1166542.3, -13432.724, 0.000023746588, 10.000258, 9.993256 
4.8502937e+2, 1.9232866e+2, -1063971.9, -1121084.5, -10960.233, -0.00017954735, -0.029384702, -1061940.9, -6764.899, 0.0000031577385, 10.000742, 9.993181 
4.8507708e+2, 2.023209e+2, -971938.94, -1048356.8, -12682.958, -0.0012086784, -0.028571965, -969889.0, -12637.109, 0.00000031029586, 10.001301, 9.991186 
4.8512465e+2, 2.1231191e+2, -863150.56, -946942.25, -12245.229, 0.00037084575, -0.034479544, -861397.75, -2057.6953, 0.000000022599854, 10.00211, 9.991024 
4.851722e+2, 2.2230202e+2, -767060.4, -870804.25, -11462.108, 0.0012244589, -0.037646186, -765809.06, -4372.193, 0.000000001223376, 10.002879, 9.989158 
4.8521984e+2, 2.3229106e+2, -660108.06, -770164.1, -11214.776, -0.0007950633, -0.036936846, -658976.9, 4567.416, 0.000000000023981296, 10.003559, 9.989004 
4.852676e+2, 2.4227925e+2, -564731.7, -693707.94, -10462.542, -0.0016659199, -0.03259989, -563888.5, 1771.6206, 0.0000000000008389532, 10.00425, 9.987195 
4.853155e+2, 2.522664e+2, -456257.66, -591992.56, -10907.104, -0.00088307826, -0.02718018, -455386.78, 12399.231, 0.0000000000000001261701, 10.00502, 9.987071 
4.8536357e+2, 2.6225257e+2, -361306.53, -517802.88, -9416.089, 0.0006893222, -0.026299568, -360742.03, 9179.567, 0.00000000000000073087254, 10.005767, 9.98508 
4.8541176e+2, 2.7223733e+2, -255047.61, -418150.56, -8559.392, 0.0024859763, -0.040066313, -254599.66, 17471.152, 0.0000000000000030875687, 10.006429, 9.98487 
4.854603e+2, 2.8222096e+2, -165401.44, -354295.1, -5504.199, 0.002470763, -0.041469265, -165241.19, 8990.2, 0.000000000000009609587, 10.007152, 9.982178 
4.8550898e+2, 2.922031e+2, -57283.676, -254097.53, -6845.4087, -0.00037232254, -0.025506618, -57045.87, 19360.666, 0.000000000000022592925, 10.007957, 9.981932 
4.8555827e+2, 3.0218866e+2, 59230.36, -84344.984, -3253.5503, -0.00087698095, -0.036508743, 59304.05, 59304.05, 0.00000000000004190963, 10.008799, 9.989792 
4.856079e+2, 3.121789e+2, 72094.65, -73312.63, -2816.5698, 0.0024784983, -0.027846277, 72149.19, 72149.19, 0.000000000000064683685, 10.009476, 9.990225 
4.9468625e+2, 1.2230518e+2, -1779044.8, -1751950.3, -536.9281, 0.0054158997, -0.028327793, -1751939.6, -10533.529, 0.014911252, 9.995779, 9.999355 
4.94736e+2, 1.3230416e+2, -1670709.9, -1650814.0, -1590.5035, -0.028913492, -0.039118398, -1650687.6, -7271.6934, 0.009830928, 9.996566, 9.999185 
4.947861e+2, 1.4230254e+2, -1574559.0, -1575299.8, -3752.5618, 0.013673813, -0.033025216, -1571158.5, -25726.658, 0.0054196375, 9.997378, 9.99726 
4.9483538e+2, 1.5229958e+2, -1469462.1, -1477221.8, -4400.0313, 0.007975442, -0.031596433, -1467475.6, -20014.768, 0.0023727028, 9.998005, 9.996956 
4.948843e+2, 1.6229564e+2, -1374552.4, -1401235.3, -7182.3774, -0.0015657557, -0.031166386, -1372741.9, -23242.352, 0.00079196517, 9.998682, 9.995128 
4.949331e+2, 1.7229073e+2, -1264717.4, -1298390.9, -6849.931, -0.0061482154, -0.03143325, -1263377.4, -11829.594, 0.00019707251, 9.999522, 9.995046 
4.9498165e+2, 1.8228483e+2, -1169635.8, -1223423.9, -8783.764, -0.0065746647, -0.0314973, -1168237.6, -14632.336, 0.000036298647, 10.000257, 9.993121 
4.9503016e+2, 1.9227782e+2, -1065252.8, -1123794.8, -9247.865, 0.0014500383, -0.036953118, -1063826.5, -8152.409, 0.0000049503406, 10.000751, 9.992989 
4.9507847e+2, 2.0226993e+2, -971401.44, -1047391.25, -10044.66, 0.0048346817, -0.038729753, -970096.1, -12344.799, 0.00000050112493, 10.001309, 9.991243 
4.951267e+2, 2.1226117e+2, -861994.1, -944796.0, -9100.521, -0.0041275383, -0.03414216, -861005.75, -1168.4164, 0.000000037748414, 10.002123, 9.9911585 
4.9517497e+2, 2.2225145e+2, -766669.75, -870126.5, -8797.043, -0.008326649, -0.029895406, -765927.06, -3994.57, 0.0000000021194788, 10.002886, 9.989197 
4.9522343e+2, 2.3224048e+2, -660112.4, -770221.2, -8649.99, 0.0011421602, -0.031605825, -659437.0, 4603.1245, 0.00000000005330912, 10.003561, 9.9889965 
4.9527195e+2, 2.4222861e+2, -565282.56, -694761.94, -7681.1226, 0.006932504, -0.030904185, -564828.5, 1327.9791, 0.000000000001871645, 10.004248, 9.98712 
4.9532053e+2, 2.5221556e+2, -457348.16, -593902.0, -7978.9487, -0.00008388773, -0.03250877, -456883.53, 11400.631, 0.000000000000009575241, 10.005003, 9.986946 
4.9536932e+2, 2.622017e+2, -360159.88, -515001.8, -6853.5356, -0.0039833053, -0.03625332, -359857.13, 10562.988, 0.000000000000055453838, 10.005749, 9.985275 
4.9541822e+2, 2.7218682e+2, -253142.86, -414008.13, -6300.1733, 0.0018334634, -0.04002196, -252896.5, 19669.293, 0.0000000000002341752, 10.006423, 9.985151 
4.9546748e+2, 2.8217074e+2, -166089.95, -355693.2, -2906.2925, 0.0036237699, -0.027246794, -166045.42, 8678.153, 0.0000000000007286158, 10.00715, 9.982078 
4.955169e+2, 2.921526e+2, -59374.746, -258219.94, -4037.335, -0.004080366, -0.010488065, -59292.805, 17608.234, 0.0000000000017125554, 10.00795, 9.981648 
4.9556702e+2, 3.021377e+2, 60023.67, -82367.305, -635.7739, -0.0071643135, -0.059107646, 60026.508, 60026.508, 0.0000000000031753393, 10.00879, 9.989925 
4.9561742e+2, 3.121285e+2, 74683.85, -67636.27, -901.55634, 0.007324737, -0.021769995, 74689.56, 74689.56, 0.000000000004897224, 10.009467, 9.990612 
5.0468224e+2, 1.22254185e+2, -1774144.1, -1751544.8, -1980.8235, 0.010812111, -0.033024292, -1751372.5, -9466.67, 0.020533854, 9.996188, 9.999182 
5.047326e+2, 1.3225332e+2, -1665613.0, -1648337.4, -3065.0076, -0.035799008, -0.028256098, -1647809.6, -3895.5105, 0.013628187, 9.996896, 9.999189 
5.047837e+2, 1.4225146e+2, -1571568.6, -1575099.1, -7277.9375, 0.020584205, -0.04060972, -1565844.9, -19912.633, 0.0075791995, 9.997622, 9.997151 
5.048335e+2, 1.5224843e+2, -1466344.6, -1477617.6, -7638.1055, 0.009420181, -0.032924544, -1462488.5, -14526.352, 0.0033562193, 9.998286, 9.996788 
5.048831e+2, 1.622444e+2, -1371376.1, -1400349.8, -9885.088, -0.0039024248, -0.02780689, -1368324.9, -18323.232, 0.0011366707, 9.998914, 9.995071 
5.049326e+2, 1.7223944e+2, -1265283.8, -1298952.3, -9683.66, -0.0057507264, -0.030820753, -1262697.3, -10646.948, 0.00028802847, 9.999485, 9.995021 
5.049819e+2, 1.8223348e+2, -1172486.5, -1225484.8, -11865.328, -0.003986265, -0.033362754, -1169951.3, -15842.782, 0.000054231128, 10.000078, 9.993064 
5.0503093e+2, 1.922264e+2, -1064800.9, -1124504.0, -11659.15, 0.0022204004, -0.039041463, -1062604.9, -6426.816, 0.0000075890043, 10.000807, 9.99291 
5.0507987e+2, 2.0221847e+2, -968530.44, -1046186.94, -11867.065, 0.004454802, -0.039842505, -966757.44, -8501.806, 0.00000079091893, 10.001498, 9.991231 
5.0512886e+2, 2.1220973e+2, -861799.7, -944823.5, -11864.107, -0.0036566923, -0.032701917, -860137.56, 203.8184, 0.00000006148999, 10.002126, 9.991152 
5.0517786e+2, 2.222e+2, -768718.2, -871109.7, -12668.808, -0.0071384604, -0.027987074, -767174.0, -4737.4116, 0.0000000035684378, 10.002733, 9.989198 
5.052269e+2, 2.32189e+2, -662768.56, -771636.4, -12579.4375, 0.0008791415, -0.033128463, -661333.94, 3210.6223, 0.000000000106601436, 10.003373, 9.988985 
5.052761e+2, 2.4217716e+2, -568218.3, -695680.25, -11102.512, 0.006235349, -0.0328409, -567258.5, -597.7899, 0.0000000000037957758, 10.004009, 9.987168 
5.053254e+2, 2.5216419e+2, -461660.8, -595788.06, -10325.148, 0.001229372, -0.030136673, -460870.63, 7917.0454, 0.0000000000002126687, 10.004685, 9.986967 
5.053749e+2, 2.6215032e+2, -364721.2, -516692.06, -8739.177, -0.0017842022, -0.03542628, -364220.3, 6703.1465, 0.0000000000012317329, 10.0054035, 9.985321 
5.0542456e+2, 2.721354e+2, -255691.39, -414928.78, -9739.383, 0.0009367604, -0.049355328, -255097.9, 17971.887, 0.0000000000052015844, 10.006223, 9.985177 
5.0547457e+2, 2.8211945e+2, -167467.92, -355427.16, -6971.086, 0.0018926759, -0.030897476, -167209.73, 8016.6626, 0.000000000016184465, 10.007, 9.982164 
5.055247e+2, 2.9210162e+2, -63846.813, -259794.53, -6195.8687, -0.0012098207, 0.0110560795, -63651.098, 13749.648, 0.000000000038037778, 10.007599, 9.9817095 
5.055756e+2, 3.0208635e+2, 54225.594, -85729.93, -1213.9142, -0.0039355997, -0.07203259, 54236.12, 54236.12, 0.000000000070511263, 10.008396, 9.989885 
5.056268e+2, 3.1207722e+2, 73604.79, -66893.54, -4139.635, 0.0058763777, -0.02665485, 73726.66, 73726.66, 0.0000000001086931, 10.0093155, 9.990737 
5.1467854e+2, 1.2220284e+2, -1775461.6, -1752937.9, -657.74396, 0.014492611, -0.041663986, -1752918.6, -10509.737, 0.027554031, 9.996141, 9.999104 
5.147295e+2, 1.322019e+2, -1668740.9, -1653700.5, -705.5208, -0.03881435, -0.014836485, -1653667.5, -9249.249, 0.018419899, 9.9968605, 9.998834 
5.1478124e+2, 1.4219959e+2, -1573005.5, -1577243.6, -5126.82, 0.019571453, -0.04507673, -1569577.0, -23136.193, 0.010340942, 9.997592, 9.997013 
5.148317e+2, 1.5219647e+2, -1467129.1, -1478813.0, -5457.8823, 0.0014334439, -0.035643056, -1464976.3, -16504.951, 0.0046347342, 9.998273, 9.996707 
5.148819e+2, 1.6219239e+2, -1371860.1, -1401180.5, -8001.654, -0.013787638, -0.029378591, -1369818.6, -19307.129, 0.0015935765, 9.998913, 9.995009 
5.1493216e+2, 1.7218733e+2, -1265573.1, -1299603.5, -7816.0244, -0.0020759143, -0.03493266, -1263863.8, -11303.012, 0.00041132476, 9.999493, 9.9949665 
5.1498204e+2, 1.8218137e+2, -1172202.3, -1225039.3, -9520.572, 0.006181937, -0.037193604, -1170539.1, -15919.808, 0.00007915646, 10.000086, 9.993085 
5.1503175e+2, 1.9217438e+2, -1064280.8, -1123729.3, -8986.322, -0.0005705132, -0.03493297, -1062952.1, -6264.382, 0.0000113579035, 10.000822, 9.9929495 
5.150813e+2, 2.0216648e+2, -969058.94, -1047473.8, -9548.536, -0.0050422465, -0.031470478, -967912.94, -9147.875, 0.0000012170423, 10.001509, 9.991135 
5.15131e+2, 2.1215755e+2, -862789.2, -947052.3, -9500.517, -0.00069089344, -0.030349622, -861731.3, -878.5618, 0.000000097492624, 10.002137, 9.990991 
5.1518065e+2, 2.2214766e+2, -768828.7, -871424.9, -10278.061, 0.0017222683, -0.031891786, -767809.2, -4859.5977, 0.0000000058393734, 10.002739, 9.989169 
5.1523024e+2, 2.321366e+2, -662600.06, -771436.75, -9993.35, -0.003037855, -0.041056767, -661690.06, 3367.8848, 0.00000000019841896, 10.00338, 9.988992 
5.1527995e+2, 2.4212483e+2, -567403.7, -693992.1, -8602.766, -0.0053968388, -0.03825228, -566821.7, 351.59705, 0.000000000007634904, 10.00401, 9.98728 
5.153301e+2, 2.5211215e+2, -460812.75, -593854.8, -7790.1733, 0.0006679633, -0.020952363, -460358.16, 8939.453, 0.0000000000039886605, 10.004678, 9.9871 
5.153804e+2, 2.6209837e+2, -365379.47, -517778.06, -5917.117, 0.0039188825, -0.02602996, -365150.1, 6282.5903, 0.000000000023101169, 10.005392, 9.985248 
5.1543075e+2, 2.72083e+2, -257268.78, -417751.44, -6743.428, -0.0023438216, -0.06684457, -256985.92, 16597.389, 0.00000000009755803, 10.006201, 9.984991 
5.1548153e+2, 2.8206703e+2, -166240.86, -352393.22, -4689.908, -0.0044683805, -0.04782643, -166122.78, 9617.197, 0.000000000303523, 10.006979, 9.982377 
5.155324e+2, 2.9204997e+2, -62007.793, -255529.55, -4274.69, 0.0053228782, 0.03989798, -61913.414, 15993.575, 0.00000000071315065, 10.007583, 9.982003 
5.155841e+2, 3.0203447e+2, 52392.434, -89190.24, 1849.9606, 0.00507677, -0.078127466, 52416.6, 52416.6, 0.0000000013213384, 10.008389, 9.989641 
5.15636e+2, 3.1202495e+2, 72917.6, -68170.3, -1080.2672, -0.002907957, -0.028482908, 72925.875, 72925.875, 0.0000000020352628, 10.009324, 9.990633 
5.2467483e+2, 1.22150764e+2, -1770035.6, -1749075.6, -3872.2195, 0.015957836, -0.048027486, -1748383.1, -5463.896, 0.036176804, 9.996441, 9.999219 
5.2472657e+2, 1.3214976e+2, -1665662.4, -1655752.9, -2245.3071, -0.03532458, -0.0045539145, -1655267.9, -10338.608, 0.024365017, 9.997207, 9.998524 
5.2477896e+2, 1.4214705e+2, -1568237.4, -1576397.5, -7012.211, 0.017696798, -0.048088584, -1564204.6, -17248.89, 0.013811107, 9.997973, 9.996879 
5.2483016e+2, 1.5214388e+2, -1463956.5, -1477971.5, -7608.9116, 0.0009313095, -0.03866219, -1460619.9, -11633.155, 0.0062664114, 9.998512, 9.996642 
5.2488095e+2, 1.6213971e+2, -1370161.8, -1401192.6, -10146.506, -0.012654132, -0.031213451, -1367138.6, -16111.114, 0.002187711, 9.999054, 9.994936 
5.249318e+2, 1.7213461e+2, -1263247.6, -1299498.8, -10341.706, -0.00051595666, -0.03513658, -1260504.9, -7427.3745, 0.0005752219, 9.999682, 9.99488 
5.249822e+2, 1.8212856e+2, -1169507.5, -1224262.0, -12401.32, 0.007792121, -0.036054943, -1166829.6, -11692.966, 0.00011314291, 10.000286, 9.993034 
5.250325e+2, 1.9212157e+2, -1063846.3, -1123871.5, -12360.19, -0.0008359072, -0.033037014, -1061400.8, -4195.3955, 0.000016648359, 10.000859, 9.992915 
5.250827e+2, 2.0211363e+2, -971076.5, -1049208.5, -13492.276, -0.0058858558, -0.029369, -968812.25, -9529.093, 0.0000018353236, 10.001393, 9.991067 
5.251331e+2, 2.1210459e+2, -866054.4, -949653.7, -13129.545, 0.0013793982, -0.030011743, -864040.8, -2669.0615, 0.00000015174481, 10.001944, 9.990904 
5.2518326e+2, 2.2209464e+2, -771754.4, -872542.9, -13319.905, 0.0051302062, -0.034094468, -770023.75, -6554.5513, 0.000000009413526, 10.002509, 9.9892025 
5.252335e+2, 2.3208362e+2, -664273.94, -771630.9, -12571.436, -0.0026083095, -0.045055587, -662821.44, 2755.7434, 0.00000000035784709, 10.003223, 9.989052 
5.2528393e+2, 2.4207193e+2, -568776.25, -694396.94, -11228.334, -0.0065076365, -0.039418064, -567780.56, -88.79882, 0.00000000002014928, 10.00389, 9.987308 
5.2533466e+2, 2.5205934e+2, -462998.4, -595065.2, -11372.825, -0.000032838267, -0.014019198, -462026.2, 7789.127, 0.000000000054994186, 10.004521, 9.987088 
5.253857e+2, 2.6204556e+2, -368113.66, -518553.25, -9360.878, 0.0039365604, -0.02173845, -367533.4, 4416.9165, 0.00000000031851738, 10.005161, 9.985305 
5.2543676e+2, 2.7203006e+2, -261434.84, -419540.22, -8745.269, -0.0015758162, -0.07911799, -260952.6, 13149.658, 0.000000001345189, 10.005883, 9.9850235 
5.2548826e+2, 2.820142e+2, -170837.94, -353403.9, -6401.144, -0.0024097401, -0.053852692, -170613.78, 5643.7056, 0.0000000041848507, 10.0065975, 9.98249 
5.255398e+2, 2.9199755e+2, -67175.62, -257164.95, -7430.003, 0.0071381223, 0.06479728, -66885.49, 11535.09, 0.000000009829297, 10.007177, 9.982081 
5.2559227e+2, 3.0198154e+2, 46206.535, -93581.41, -679.7169, 0.0025430303, -0.0993839, 46209.844, 46209.844, 0.000000018203474, 10.00801, 9.989515 
5.256452e+2, 3.1197214e+2, 69499.375, -65802.28, -2558.3037, -0.00088086573, -0.02908362, 69547.734, 69547.734, 0.00000002802278, 10.008902, 9.990993 
5.346711e+2, 1.2209812e+2, -1769015.8, -1745272.3, -3433.9187, 0.0041505294, -0.04670131, -1744785.6, -1350.4352, 0.046640746, 9.996375, 9.999502 
5.347239e+2, 1.3209695e+2, -1668647.8, -1660642.6, 367.23724, -0.026611404, 0.0020454999, -1660625.8, -15178.939, 0.031651113, 9.997161, 9.998205 
5.34777e+2, 1.4209387e+2, -1569483.1, -1578261.3, -5178.079, 0.012821796, -0.050737225, -1567084.3, -19607.53, 0.018118156, 9.9979515, 9.996755 
5.3482866e+2, 1.5209065e+2, -1464510.6, -1478664.0, -6033.084, 0.0050014243, -0.042285737, -1462288.0, -12779.757, 0.008324205, 9.998499, 9.996595 
5.3488004e+2, 1.6208644e+2, -1370955.4, -1402772.3, -8214.173, -0.004281901, -0.032645393, -1368959.9, -17410.291, 0.002952043, 9.999058, 9.99482 
5.349314e+2, 1.7208125e+2, -1264282.1, -1301651.9, -8265.5205, -0.0030224824, -0.030929653, -1262535.5, -8935.044, 0.0007912693, 9.999689, 9.994723 
5.349825e+2, 1.8207507e+2, -1170146.4, -1225787.0, -10518.866, -0.0017283068, -0.030358577, -1168224.1, -12563.053, 0.00015928308, 10.000299, 9.992919 
5.350334e+2, 1.920679e+2, -1064339.5, -1125219.5, -10419.3125, -0.0027014434, -0.034632657, -1062605.6, -4874.362, 0.000024088198, 10.000879, 9.992807 
5.350842e+2, 2.0205984e+2, -971123.06, -1049603.4, -11587.173, -0.0031222333, -0.03474616, -969448.0, -9637.686, 0.0000027417923, 10.001409, 9.991028 
5.3513503e+2, 2.120508e+2, -865765.3, -949628.4, -11045.656, -0.0009804392, -0.032422565, -864334.9, -2436.0388, 0.00000023528659, 10.001973, 9.990886 
5.351858e+2, 2.2204088e+2, -771111.94, -871453.06, -10827.24, 0.000032502936, -0.03509186, -769956.9, -5960.868, 0.000000015275884, 10.00252, 9.989268 
5.3523684e+2, 2.3202996e+2, -663507.3, -770148.2, -9779.13, -0.00058514136, -0.045131747, -662617.94, 3485.123, 0.0000000006877151, 10.003228, 9.989147 
5.3528786e+2, 2.4201836e+2, -569192.4, -695096.94, -8844.624, -0.0006943906, -0.0368657, -568574.1, -357.31445, 0.00000000013052304, 10.003881, 9.987261 
5.353392e+2, 2.5200564e+2, -464189.4, -597121.25, -8972.747, -0.0020432817, -0.008944673, -463586.5, 6754.8955, 0.000000000612615, 10.004501, 9.986956 
5.3539073e+2, 2.619918e+2, -367493.0, -516906.3, -6853.597, -0.0032273037, -0.021169188, -367179.28, 5297.7656, 0.0000000034131882, 10.005144, 9.985421 
5.354427e+2, 2.7197638e+2, -260402.97, -417063.6, -6219.1836, 0.00056922046, -0.08720686, -260156.47, 14471.728, 0.000000014339296, 10.005867, 9.985197 
5.354949e+2, 2.819608e+2, -170715.56, -352819.38, -4444.932, 0.0051798653, -0.05221554, -170607.14, 6173.8086, 0.00000004456666, 10.006581, 9.982533 
5.3554696e+2, 2.9194427e+2, -68062.09, -258526.52, -5507.274, 0.0030660524, 0.086287186, -67902.984, 11039.694, 0.00000010462058, 10.007158, 9.981993 
5.356002e+2, 3.019276e+2, 45479.64, -94614.61, 2526.1787, -0.012062388, -0.13233362, 45525.176, 45525.176, 0.00000019365781, 10.008, 9.989438 
5.356542e+2, 3.1191885e+2, 74760.625, -54636.45, 100.95545, 0.005127519, 0.00084651425, 74760.7, 74760.7, 0.0000002979929, 10.008903, 9.991748 
5.4466766e+2, 1.2204465e+2, -1762316.6, -1743248.6, -6805.5664, 0.0020799164, -0.044095386, -1741068.9, 2890.3162, 0.05923043, 9.996868, 9.999406 
5.447213e+2, 1.3204327e+2, -1663273.5, -1659840.3, -1369.0471, -0.018643003, -0.0012165986, -1659361.1, -13388.424, 0.04050611, 9.997592, 9.998045 
5.44775e+2, 1.4204009e+2, -1565149.3, -1577273.5, -6979.659, 0.008169874, -0.052817483, -1561966.6, -13962.784, 0.023422668, 9.99828, 9.996661 
5.4482734e+2, 1.5203682e+2, -1461171.8, -1478009.4, -8536.973, 0.0057989247, -0.041370742, -1457600.8, -7564.838, 0.010902844, 9.998756, 9.996512 
5.4487926e+2, 1.620325e+2, -1369014.0, -1403034.6, -10758.457, 0.00042771173, -0.030146154, -1365897.4, -13819.313, 0.003931351, 9.99923, 9.994715 
5.449312e+2, 1.720272e+2, -1263433.6, -1302567.9, -10522.195, -0.0027993862, -0.030298973, -1260783.9, -6653.737, 0.0010759312, 9.999796, 9.994603 
5.4498273e+2, 1.8202087e+2, -1170169.4, -1226864.9, -12625.509, -0.003766276, -0.03186666, -1167485.0, -11292.861, 0.0002222064, 10.000333, 9.9928255 
5.4503435e+2, 1.9201362e+2, -1064183.4, -1126199.8, -12595.586, -0.0013662875, -0.03743069, -1061722.8, -3459.639, 0.00003466305, 10.000921, 9.992719 
5.450856e+2, 2.0200548e+2, -970452.5, -1049830.4, -13941.35, 0.0000582001, -0.036824252, -968075.1, -7732.1895, 0.0000040952546, 10.001468, 9.99098 
5.4513705e+2, 2.1199647e+2, -865024.94, -949581.9, -13561.424, -0.0018856802, -0.031145155, -862903.1, -471.76703, 0.00000036843403, 10.002026, 9.990859 
5.451883e+2, 2.2198652e+2, -771389.0, -872213.6, -13721.258, -0.0024821537, -0.032893516, -769555.06, -5026.172, 0.000000026361263, 10.002516, 9.989215 
5.452399e+2, 2.319755e+2, -666601.7, -772486.1, -13793.67, 0.00073994696, -0.045553114, -664834.3, 1802.5416, 0.0000000023307902, 10.003037, 9.989076 
5.452916e+2, 2.4196386e+2, -573830.06, -697061.25, -13452.382, 0.0033218013, -0.036706325, -572378.6, -3627.8984, 0.0000000015642249, 10.003532, 9.987293 
5.453435e+2, 2.5195125e+2, -468157.97, -598555.06, -12276.039, -0.00012018038, -0.0055428594, -467012.3, 3862.221, 0.000000005562811, 10.004188, 9.987008 
5.4539573e+2, 2.619374e+2, -371380.5, -518269.28, -9028.1875, -0.0035497556, -0.02200021, -370827.7, 2182.2188, 0.000000028366085, 10.004842, 9.985471 
5.4544836e+2, 2.7192187e+2, -263985.2, -418653.63, -9231.986, -0.0003536071, -0.09985531, -263436.1, 11726.074, 0.00000011761462, 10.005609, 9.985204 
5.455014e+2, 2.819065e+2, -173563.83, -352217.28, -8369.027, 0.005791794, -0.055285808, -173172.64, 4140.3145, 0.0000003647328, 10.006286, 9.982714 
5.455539e+2, 2.9189047e+2, -73361.46, -259572.84, -8259.735, 0.0057217106, 0.11625795, -72995.8, 6474.094, 0.00000085578625, 10.0067, 9.982148 
5.456079e+2, 3.0187318e+2, 36375.41, -104089.54, 1806.9926, -0.014141127, -0.15413086, 36398.65, 36398.65, 0.0000015835924, 10.007543, 9.989021 
5.45663e+2, 3.1186414e+2, 76816.71, -48881.387, -4414.527, 0.008049368, -0.0056292536, 76971.555, 76971.555, 0.0000024360013, 10.0087805, 9.992214 
5.546646e+2, 1.2199051e+2, -1767662.8, -1752214.4, -5577.501, 0.0037234556, -0.03948415, -1750411.1, -5921.417, 0.07429232, 9.996793, 9.9988165 
5.547189e+2, 1.3198885e+2, -1664292.9, -1660417.5, 724.90375, -0.013719443, -0.014379389, -1660286.3, -13780.326, 0.051209517, 9.997535, 9.998025 
5.547733e+2, 1.4198571e+2, -1566565.9, -1579001.5, -5415.048, 0.0016854479, -0.053138483, -1564538.5, -16001.973, 0.02992419, 9.998237, 9.996557 
5.54826e+2, 1.519824e+2, -1462569.5, -1480200.1, -7284.513, -0.00044988943, -0.035685882, -1459949.1, -9379.949, 0.014122313, 9.9987335, 9.996367 
5.548785e+2, 1.6197795e+2, -1369713.0, -1404358.6, -9245.604, -0.0040583885, -0.023950906, -1367400.0, -14787.266, 0.005183735, 9.999233, 9.9946165 
5.54931e+2, 1.7197247e+2, -1263853.5, -1303546.5, -8771.715, -0.003148088, -0.033979576, -1262001.4, -7335.0713, 0.0014511821, 9.999808, 9.994524 
5.549831e+2, 1.81966e+2, -1170550.6, -1227921.5, -10797.198, -0.0016093869, -0.040910766, -1168585.9, -11856.248, 0.0003083134, 10.00035, 9.992739 
5.550353e+2, 1.9195874e+2, -1064533.1, -1127342.6, -10617.184, 0.00028428872, -0.040366516, -1062786.9, -3985.9077, 0.000049822887, 10.000945, 9.992623 
5.550871e+2, 2.0195055e+2, -970590.1, -1050492.1, -12055.869, 0.00071678817, -0.034430705, -968810.75, -7929.5015, 0.000006177535, 10.001486, 9.990922 
5.5513906e+2, 2.1194151e+2, -865058.44, -950023.9, -11576.494, -0.0036373811, -0.026214713, -863509.44, -539.54706, 0.00000062156136, 10.002045, 9.990815 
5.5519074e+2, 2.2193147e+2, -772456.1, -874620.0, -11841.989, -0.0060117706, -0.028038528, -771101.44, -6033.143, 0.0000000784953, 10.002524, 9.989044 
5.5524296e+2, 2.3192018e+2, -668082.3, -775807.56, -11659.854, -0.0015956832, -0.046878085, -666834.7, 344.2395, 0.000000033049396, 10.003051, 9.988839 
5.5529517e+2, 2.4190842e+2, -573166.7, -695796.9, -11090.977, 0.0020503842, -0.039555155, -572171.7, -2877.5457, 0.00000003053741, 10.003537, 9.987374 
5.5534774e+2, 2.5189602e+2, -466795.9, -595633.5, -9762.979, 0.0019983135, -0.0033450392, -466060.28, 5355.392, 0.00000005386784, 10.004184, 9.9872055 
5.5540055e+2, 2.618823e+2, -371669.03, -518397.5, -6518.28, -0.0011598967, -0.025394037, -371380.03, 2170.0454, 0.00000019406193, 10.004816, 9.985474 
5.554539e+2, 2.7186653e+2, -265228.0, -420443.47, -6426.3457, -0.0070474385, -0.11729084, -264962.4, 10742.448, 0.00000074942295, 10.005565, 9.985103 
5.5550754e+2, 2.8185135e+2, -172187.77, -348545.72, -6658.13, -0.003429961, -0.060258664, -171936.75, 5916.8022, 0.0000022942224, 10.006252, 9.982976 
5.555606e+2, 2.9183602e+2, -71708.62, -255739.27, -6884.856, 0.010559485, 0.1536309, -71451.41, 8552.136, 0.0000053700915, 10.006685, 9.982412 
5.556155e+2, 3.0181795e+2, 30211.207, -116490.06, 5674.88, -0.008449528, -0.1684217, 30430.402, 30430.402, 0.000009930988, 10.007532, 9.988165 
5.556718e+2, 3.1180796e+2, 77009.38, -46822.637, -355.188, 0.005063285, -0.015580741, 77010.41, 77010.41, 0.000015272311, 10.008723, 9.992369 
5.646618e+2, 1.2193555e+2, -1758441.6, -1755061.6, -6439.142, 0.0020374684, -0.038832054, -1750094.4, -5066.1494, 0.092263974, 9.997728, 9.998161 
5.647168e+2, 1.319338e+2, -1655990.5, -1655078.8, -1428.5446, -0.004861198, -0.023840273, -1654035.1, -6989.6475, 0.06411256, 9.998032, 9.998142 
5.647714e+2, 1.419309e+2, -1566028.9, -1579083.1, -6462.3022, -0.000665018, -0.046417393, -1563371.0, -14297.236, 0.037873123, 9.998276, 9.9965315 
5.6482476e+2, 1.5192741e+2, -1461239.0, -1480897.6, -8141.6704, -0.002287687, -0.034660544, -1458305.0, -7197.1177, 0.018134005, 9.998875, 9.996248 
5.648778e+2, 1.6192281e+2, -1366556.5, -1404328.3, -10121.309, -0.0045119515, -0.02710686, -1364015.4, -10862.105, 0.0067838547, 9.999506, 9.994481 
5.649309e+2, 1.7191721e+2, -1260107.0, -1303392.5, -10309.953, -0.002010443, -0.034904465, -1257776.9, -2568.9514, 0.0019465192, 10.000127, 9.994374 
5.6498367e+2, 1.8191062e+2, -1166779.6, -1227346.4, -13177.39, 0.0009883887, -0.039893035, -1164036.9, -6764.3794, 0.0004271751, 10.000657, 9.992622 
5.650363e+2, 1.9190325e+2, -1063906.6, -1128154.9, -13293.941, 0.0014558828, -0.039496325, -1061264.6, -1919.7612, 0.00007248392, 10.001033, 9.992517 
5.6508857e+2, 2.0189492e+2, -972524.8, -1052646.8, -14896.15, 0.0011307452, -0.03380957, -969844.94, -8418.671, 0.000010126858, 10.001401, 9.990809 
5.6514114e+2, 2.1188582e+2, -866248.1, -951835.0, -14830.26, -0.0016700681, -0.024474025, -863751.2, -235.46613, 0.0000016724213, 10.0020075, 9.990705 
5.651933e+2, 2.2187565e+2, -772869.8, -875503.94, -15587.258, -0.003407992, -0.027262993, -770554.75, -4939.517, 0.00000068287227, 10.002508, 9.988989 
5.65246e+2, 2.3186427e+2, -669057.8, -776793.44, -14366.983, -0.0016946291, -0.052304536, -667174.8, 551.93274, 0.00000051860127, 10.002987, 9.988803 
5.6529856e+2, 2.4185249e+2, -575644.9, -697467.94, -13072.031, 0.0013015183, -0.044479433, -574258.0, -4415.753, 0.00000047300682, 10.003371, 9.987341 
5.653518e+2, 2.5184017e+2, -470095.97, -597762.0, -12980.752, 0.00363494, 0.004651996, -468789.47, 3173.569, 0.00000055618574, 10.003963, 9.987165 
5.6540525e+2, 2.6182646e+2, -375822.38, -519975.03, -10536.495, 0.0013488396, -0.017483769, -375056.3, -959.05786, 0.0000011869142, 10.004484, 9.985529 
5.6545925e+2, 2.7181047e+2, -271106.84, -422805.3, -9242.84, -0.0076524145, -0.13053362, -270545.78, 5707.937, 0.0000037901987, 10.005112, 9.985165 
5.655136e+2, 2.8179556e+2, -177598.0, -348912.66, -8919.84, -0.0034182381, -0.06861076, -177134.83, 1265.1864, 0.000011143965, 10.005738, 9.983212 
5.655673e+2, 2.9178077e+2, -73182.016, -255546.03, -9875.482, 0.017905012, 0.18125656, -72648.79, 7896.335, 0.00002588088, 10.006516, 9.98251 
5.6562304e+2, 3.017619e+2, 25504.67, -127770.41, 3288.6292, -0.0077240583, -0.18673027, 25575.197, 25575.197, 0.000047783215, 10.007596, 9.987346 
5.6568015e+2, 3.117512e+2, 73022.01, -41305.02, -2769.1653, 0.0031174507, -0.018917834, 73089.04, 73089.04, 0.00007346192, 10.008115, 9.9930315 
5.746594e+2, 1.2187997e+2, -1765633.6, -1767120.6, -2418.1172, -0.009195294, -0.04110777, -1763847.4, -18274.615, 0.11375035, 9.997612, 9.997391 
5.7471496e+2, 1.3187827e+2, -1655688.0, -1652190.8, -1876.8864, 0.0068603153, -0.030368807, -1651374.1, -3784.3982, 0.07970576, 9.997942, 9.998377 
5.7476974e+2, 1.4187571e+2, -1566892.0, -1579224.8, -5449.028, -0.0011716573, -0.033055063, -1564829.4, -15214.827, 0.04762608, 9.998212, 9.996546 
5.748237e+2, 1.51872e+2, -1462540.9, -1482787.5, -6407.4795, -0.0031620094, -0.038280357, -1460683.5, -9032.455, 0.023162274, 9.998848, 9.996125 
5.748773e+2, 1.6186711e+2, -1368046.1, -1407273.0, -8366.611, -0.0053224643, -0.03935324, -1366336.3, -12637.301, 0.008851887, 9.999511, 9.994269 
5.749311e+2, 1.7186145e+2, -1261782.1, -1306848.8, -8500.327, -0.001374993, -0.03239618, -1260232.1, -4477.618, 0.0026185028, 10.000137, 9.994125 
5.749843e+2, 1.8185471e+2, -1167677.9, -1229473.4, -12059.817, 0.0013711666, -0.028421808, -1165407.8, -7587.083, 0.0006049601, 10.000676, 9.992462 
5.750373e+2, 1.9184713e+2, -1064443.3, -1129875.5, -12292.576, -0.0022960464, -0.036320962, -1062210.1, -2315.341, 0.00011675058, 10.001068, 9.992376 
5.7508993e+2, 2.018386e+2, -973190.4, -1054632.5, -13248.641, -0.004314, -0.036832623, -971089.4, -9110.904, 0.000025390495, 10.001432, 9.990653 
5.751431e+2, 2.1182933e+2, -866989.1, -954102.5, -12628.486, -0.0008676209, -0.02692672, -865195.4, -1126.0822, 0.000010757624, 10.002045, 9.990525 
5.7519585e+2, 2.2181903e+2, -772454.06, -874966.6, -13844.349, 0.0000049204978, -0.030601822, -770617.3, -4447.239, 0.0000077366185, 10.002522, 9.989017 
5.7524896e+2, 2.3180772e+2, -668220.8, -774834.56, -12570.997, -0.0033214479, -0.06099606, -666758.6, 1522.2444, 0.000006522971, 10.002979, 9.988936 
5.7530195e+2, 2.4179599e+2, -577156.7, -699984.25, -11074.731, -0.002759173, -0.051474858, -576166.1, -5770.23, 0.000005941919, 10.00334, 9.987185 
5.7535577e+2, 2.5178358e+2, -472266.78, -601983.56, -10566.787, 0.0014874964, 0.01708622, -471411.66, 1105.8602, 0.000005930573, 10.003944, 9.986886 
5.754097e+2, 2.617698e+2, -375541.72, -519341.56, -8370.321, -0.0011092965, 0.00078913104, -375056.13, -403.51108, 0.000007746674, 10.00448, 9.985571 
5.7546437e+2, 2.717537e+2, -269887.94, -420366.53, -7096.3945, -0.007794749, -0.13989769, -269554.03, 7256.3984, 0.000016548, 10.005118, 9.985321 
5.755193e+2, 2.8173897e+2, -176647.3, -346569.7, -6898.0137, 0.0002648428, -0.082583204, -176367.73, 2586.929, 0.000042830554, 10.005714, 9.983384 
5.7557386e+2, 2.9172447e+2, -73951.3, -256164.17, -6929.9033, 0.022432186, 0.19826251, -73688.12, 7408.5215, 0.000096663134, 10.006467, 9.982488 
5.7563055e+2, 3.0170485e+2, 18940.283, -139724.38, 6131.0366, -0.01619937, -0.20574492, 19176.842, 19176.842, 0.00017732779, 10.007534, 9.986546 
5.7568824e+2, 3.1169385e+2, 79816.805, -25657.63, -1319.5869, -0.002980817, 0.007915378, 79833.31, 79833.31, 0.00027223537, 10.008068, 9.994115 
5.846574e+2, 1.2182397e+2, -1757508.5, -1768449.0, -765.47394, -0.011438049, -0.036725935, -1757455.1, -11333.537, 0.13972634, 9.998378, 9.996928 
5.8471304e+2, 1.318222e+2, -1649779.3, -1647877.5, -3720.4788, 0.010456121, -0.038137164, -1644988.3, 3150.8435, 0.09881995, 9.998281, 9.998517 
5.8476794e+2, 1.4181982e+2, -1564673.9, -1579362.5, -6533.543, -0.0058440687, -0.027049445, -1562188.4, -12025.986, 0.05983596, 9.998415, 9.996429 
5.848227e+2, 1.5181588e+2, -1458076.3, -1482918.6, -7701.058, -0.0024272457, -0.036220897, -1455882.6, -3681.6755, 0.029672418, 9.999245, 9.995915 
5.848771e+2, 1.6181077e+2, -1362404.8, -1405619.3, -10688.853, 0.00031239758, -0.04146439, -1359905.5, -5654.4995, 0.011691614, 9.999933, 9.994172 
5.8493125e+2, 1.7180507e+2, -1260690.0, -1307062.5, -10136.631, -0.0004005318, -0.032589927, -1258571.1, -2264.168, 0.0036588176, 10.000238, 9.994058 
5.849849e+2, 1.8179825e+2, -1169780.6, -1231974.5, -12724.256, -0.0013921623, -0.027219227, -1167278.1, -8904.157, 0.0009683537, 10.000589, 9.9923315 
5.8503854e+2, 1.917905e+2, -1061876.0, -1130725.8, -13376.27, -0.0029469724, -0.035440147, -1059368.6, 1081.0793, 0.00027478443, 10.0013275, 9.992189 
5.850916e+2, 2.0178178e+2, -966983.7, -1053291.3, -15151.179, -0.0021246762, -0.03591336, -964401.2, -1865.9922, 0.00012467508, 10.001913, 9.990512 
5.8514524e+2, 2.117724e+2, -866055.06, -955125.1, -14649.11, 0.001772259, -0.027072974, -863707.6, 919.5636, 0.0000877705, 10.00216, 9.990398 
5.851983e+2, 2.2176193e+2, -776114.9, -878338.44, -16276.682, 0.0023982916, -0.0316332, -773585.75, -6856.058, 0.00007200422, 10.002343, 9.988866 
5.8525187e+2, 2.3175053e+2, -670446.25, -777054.1, -16704.238, -0.002761417, -0.058956895, -667890.2, 951.09534, 0.00006284414, 10.002873, 9.988828 
5.8530515e+2, 2.4173872e+2, -578791.1, -701342.06, -16224.005, -0.0024910728, -0.046373226, -576679.7, -5722.716, 0.00005789635, 10.003229, 9.987145 
5.8535963e+2, 2.517263e+2, -474842.6, -603142.4, -13677.492, 0.004639264, 0.018306216, -473400.72, -321.8748, 0.000055242694, 10.003742, 9.986906 
5.8541405e+2, 2.6171243e+2, -381619.63, -523981.3, -10160.566, 0.0025134457, -0.0053036604, -380898.1, -5683.256, 0.000055795954, 10.004101, 9.985447 
5.8546937e+2, 2.7169606e+2, -273113.8, -424244.25, -10479.225, -0.010476516, -0.15041535, -272390.66, 4984.4634, 0.00007332081, 10.004959, 9.985139 
5.8552504e+2, 2.8168148e+2, -175974.86, -343183.84, -12263.393, -0.002764843, -0.083113045, -175080.23, 4437.599, 0.0001400374, 10.005612, 9.98366 
5.855801e+2, 2.9166752e+2, -78502.52, -255341.5, -10181.747, 0.027029166, 0.21707281, -77918.23, 3736.831, 0.00028783004, 10.005986, 9.982785 
5.8563775e+2, 3.0164725e+2, 2807.4768, -159803.86, 4989.2563, -0.018783001, -0.22001268, 2960.4138, 2960.4138, 0.00051568105, 10.006897, 9.985487 
5.8569646e+2, 3.1163517e+2, 86580.83, -13151.013, -6513.0693, 0.006890865, 0.0049195373, 87004.37, 87004.37, 0.00078684813, 10.008078, 9.994977 
5.946558e+2, 1.21767886e+2, -1761079.6, -1771958.0, -1584.3531, -0.0045356685, -0.028105052, -1760853.5, -14182.098, 0.17203067, 9.998219, 9.996762 
5.9471124e+2, 1.3176593e+2, -1651623.6, -1649410.6, -5526.203, 0.0020084176, -0.04509094, -1644881.3, 3809.4094, 0.12317733, 9.998196, 9.998456 
5.9476626e+2, 1.4176345e+2, -1567410.0, -1583644.6, -5478.235, -0.018342571, -0.02721085, -1565734.4, -15019.5205, 0.0760359, 9.998368, 9.996151 
5.94822e+2, 1.5175925e+2, -1461026.0, -1487788.3, -5480.764, -0.0029190432, -0.02944495, -1459947.1, -7191.114, 0.038946632, 9.999202, 9.995595 
5.948771e+2, 1.6175394e+2, -1362719.5, -1405831.9, -9914.236, 0.0077239755, -0.03385965, -1360548.9, -5740.797, 0.016318014, 9.999923, 9.994154 
5.9493154e+2, 1.7174824e+2, -1260141.4, -1305725.3, -9837.152, -0.0031510475, -0.036288414, -1258109.1, -1245.1018, 0.0058532357, 10.00024, 9.99414 
5.949855e+2, 1.8174131e+2, -1170736.1, -1234039.4, -11053.939, -0.011202189, -0.03715956, -1168861.4, -9929.7, 0.002137039, 10.000604, 9.992175 
5.9503984e+2, 1.9173343e+2, -1063517.5, -1134485.1, -10941.232, -0.0038087734, -0.03663755, -1061868.9, -859.82465, 0.001055166, 10.001354, 9.99191 
5.950936e+2, 2.017245e+2, -967933.7, -1055617.9, -14151.344, 0.0026863592, -0.030175716, -965706.4, -2609.847, 0.00073918933, 10.001935, 9.990338 
5.951475e+2, 2.1171497e+2, -866551.25, -956778.44, -14229.588, 0.0022446697, -0.024927322, -864360.3, 829.64856, 0.00060496945, 10.002195, 9.990264 
5.9520066e+2, 2.2170427e+2, -777871.4, -882474.6, -14875.111, -0.00031649685, -0.031007323, -775797.2, -8502.298, 0.0005205493, 10.002366, 9.988569 
5.952548e+2, 2.3169266e+2, -672589.6, -781802.8, -14612.224, -0.0059370087, -0.048035305, -670668.4, -1259.7284, 0.0004661713, 10.002888, 9.988494 
5.953084e+2, 2.4168065e+2, -578888.5, -701156.75, -14404.507, -0.004892202, -0.031054704, -577214.44, -5688.176, 0.0004356508, 10.003213, 9.987163 
5.9536344e+2, 2.5166818e+2, -473225.97, -599456.4, -11869.288, 0.008967948, 0.008924751, -472119.6, 1528.522, 0.0004130641, 10.00373, 9.987159 
5.954182e+2, 2.616542e+2, -384295.2, -528766.6, -7953.6704, 0.007944788, -0.034656394, -383858.63, -8073.393, 0.00038235346, 10.004051, 9.985148 
5.954743e+2, 2.7163747e+2, -277050.2, -432145.3, -7257.7183, -0.019260585, -0.16238922, -276711.3, 1237.8798, 0.00036756825, 10.004935, 9.984611 
5.9553045e+2, 2.8162304e+2, -174000.75, -338303.63, -10862.419, -0.016807111, -0.071244285, -173285.72, 6805.044, 0.00045654777, 10.00556, 9.984024 
5.955861e+2, 2.916096e+2, -76168.28, -248805.64, -8828.627, 0.028535305, 0.23454899, -75717.96, 6504.598, 0.0007430319, 10.005904, 9.983272 
5.956446e+2, 3.0158877e+2, -8621.529, -180844.1, 8755.594, -0.02233793, -0.23252098, -8177.5493, -8177.5493, 0.0012328605, 10.006779, 9.9840975 
5.9570456e+2, 3.1157503e+2, 88799.71, -4919.1563, -2450.3828, 0.011695251, 0.0003009306, 88863.734, 88863.734, 0.0018376576, 10.0079365, 9.9956 
6.04654e+2, 1.2171158e+2, -1756186.0, -1763887.0, 4119.5356, -0.0024573258, -0.02769036, -1754397.6, -7174.3833, 0.214152, 9.998303, 9.997266 
6.0470974e+2, 1.3170916e+2, -1648826.3, -1655682.4, -6971.3877, 0.007223213, -0.03767985, -1644485.6, 4761.394, 0.15643857, 9.998751, 9.997754 
6.047648e+2, 1.4170606e+2, -1560275.8, -1581263.3, -7749.9736, -0.015115171, -0.034361, -1557724.3, -6447.0376, 0.09991464, 9.998885, 9.996059 
6.0482115e+2, 1.5170196e+2, -1459496.6, -1486562.5, -4693.533, -0.0028949138, -0.03355607, -1458705.8, -5388.213, 0.054502863, 9.999276, 9.995641 
6.0487694e+2, 1.6169672e+2, -1364367.6, -1406822.5, -8047.52, 0.005223498, -0.03385034, -1362893.4, -7524.4272, 0.025911747, 9.999812, 9.994141 
6.049319e+2, 1.7169091e+2, -1256084.5, -1305009.1, -10063.597, -0.0018520987, -0.035204098, -1254095.4, 3330.278, 0.011987488, 10.000567, 9.994027 
6.0498637e+2, 1.8168388e+2, -1162196.6, -1230983.5, -12384.125, -0.0066230367, -0.036671598, -1160034.9, -540.2941, 0.0065416535, 10.001223, 9.992079 
6.050413e+2, 1.9167589e+2, -1060910.5, -1134131.5, -11332.731, -0.003020189, -0.039948046, -1059196.6, 2376.3127, 0.0046063922, 10.001562, 9.991831 
6.050955e+2, 2.016668e+2, -970280.2, -1058888.6, -14337.711, 0.00010259077, -0.03533283, -968017.94, -4355.9634, 0.0037910414, 10.001875, 9.990134 
6.0514975e+2, 2.1165712e+2, -865158.6, -958868.9, -15891.388, 0.002142042, -0.023419548, -862537.1, 3219.8547, 0.003294016, 10.002415, 9.990006 
6.0520333e+2, 2.2164614e+2, -772493.7, -882405.8, -17200.611, 0.0026220425, -0.026777301, -769864.8, -2000.4061, 0.0029299043, 10.00283, 9.988349 
6.0525775e+2, 2.3163426e+2, -671523.94, -783525.94, -16438.893, -0.0035134326, -0.055740096, -669161.0, 819.81616, 0.0026845648, 10.003049, 9.988297 
6.053116e+2, 2.4162194e+2, -582535.56, -705422.56, -16269.1045, -0.0030444544, -0.043436624, -580418.2, -8316.593, 0.0025410713, 10.003069, 9.986935 
6.0536706e+2, 2.5160953e+2, -476227.9, -602054.1, -16000.492, 0.009573376, 0.015230814, -474225.1, -2.1883643, 0.0024159902, 10.003558, 9.987061 
6.0542214e+2, 2.615955e+2, -389499.53, -534083.25, -12849.888, 0.007915971, -0.016683968, -388366.38, -12005.871, 0.0021913543, 10.003779, 9.984921 
6.054792e+2, 2.7157843e+2, -278929.75, -434921.63, -9112.156, -0.014791268, -0.15835945, -278399.28, 128.49086, 0.0018755151, 10.004826, 9.984493 
6.05536e+2, 2.81564e+2, -175272.86, -337864.03, -13702.931, -0.005792875, -0.07528682, -174126.08, 6543.2, 0.0017067166, 10.00537, 9.984169 
6.055922e+2, 2.9155067e+2, -74790.19, -248531.39, -14013.516, 0.038538765, 0.23997967, -73667.16, 9132.776, 0.0019738742, 10.005976, 9.983265 
6.056514e+2, 3.0152923e+2, -16729.113, -200691.16, 3269.242, -0.031953935, -0.22679953, -16671.033, -16671.033, 0.00273566, 10.006901, 9.982664 
6.0571235e+2, 3.115137e+2, 87185.66, 4464.981, -7875.6885, 0.013027567, -0.009059027, 87928.81, 87928.81, 0.0038015225, 10.007399, 9.996486 
6.1465216e+2, 1.2165555e+2, -1748236.6, -1745017.3, 6841.412, -0.020984104, -0.034974996, -1739598.6, 8173.493, 0.27198067, 9.998224, 9.998694 
6.1470866e+2, 1.3165237e+2, -1658359.5, -1675395.5, -8633.816, 0.028457036, -0.016234051, -1654749.0, -4945.673, 0.20546661, 9.998728, 9.9964 
6.14764e+2, 1.4164814e+2, -1560600.9, -1581117.1, -8249.006, 0.0043115797, -0.049696308, -1557695.6, -5850.933, 0.13911296, 9.998861, 9.996072 
6.148204e+2, 1.5164441e+2, -1457819.4, -1481727.5, -4288.8765, -0.0056215017, -0.046536613, -1457073.3, -3191.9414, 0.08438501, 9.999227, 9.995983 
6.148766e+2, 1.6163945e+2, -1366021.3, -1408728.1, -6704.603, -0.011191916, -0.03807072, -1364993.4, -9063.515, 0.048496593, 9.999755, 9.99403 
6.1493254e+2, 1.7163341e+2, -1259524.9, -1311205.0, -8200.789, 0.0026845224, -0.02835894, -1258254.8, -265.56363, 0.02976512, 10.000533, 9.993612 
6.1498785e+2, 1.816261e+2, -1163038.3, -1232309.0, -11347.787, 0.010911778, -0.024383279, -1161226.6, -1165.6724, 0.021445168, 10.001215, 9.991982 
6.150429e+2, 1.9161801e+2, -1060275.0, -1132837.6, -10779.894, -0.0031966441, -0.045604337, -1058707.4, 3432.8748, 0.017750558, 10.001582, 9.991899 
6.150973e+2, 2.0160873e+2, -972028.5, -1062612.3, -13180.31, -0.013482851, -0.05227887, -970149.7, -5918.686, 0.015685128, 10.001885, 9.98987 
6.151522e+2, 2.1159884e+2, -867717.1, -964643.2, -14040.384, -0.0034098222, -0.023376085, -865724.25, 603.6423, 0.014165093, 10.002441, 9.989593 
6.152062e+2, 2.215876e+2, -773660.8, -885039.1, -16229.789, 0.0049920753, -0.019012347, -771344.06, -2905.8828, 0.012958546, 10.002844, 9.988157 
6.1526084e+2, 2.3157535e+2, -672419.8, -785031.75, -16062.038, 0.0021968412, -0.07997007, -670173.7, 384.41284, 0.012107187, 10.00304, 9.988195 
6.153147e+2, 2.4156255e+2, -586770.2, -712717.3, -14784.389, 0.00095821725, -0.08132586, -585058.0, -12374.624, 0.0115695195, 10.0030155, 9.986455 
6.1537063e+2, 2.5155023e+2, -479701.3, -609224.6, -14348.871, -0.001376926, 0.03205315, -478130.75, -3326.3047, 0.011032614, 10.003569, 9.986555 
6.1542577e+2, 2.615361e+2, -391718.25, -538424.25, -10448.816, -0.010682618, 0.040694885, -390977.78, -14034.865, 0.010000831, 10.003741, 9.984651 
6.154841e+2, 2.7151862e+2, -278328.34, -434080.3, -5530.5625, -0.011221267, -0.14328007, -278132.2, 981.9538, 0.00835712, 10.004829, 9.984545 
6.1554164e+2, 2.8150392e+2, -176611.42, -339878.16, -12940.179, 0.016617592, -0.09877245, -175592.17, 5665.687, 0.0067573697, 10.005301, 9.984082 
6.155982e+2, 2.9149032e+2, -78867.2, -255772.19, -11758.577, 0.046744436, 0.22839022, -78089.055, 5302.1157, 0.006111138, 10.005885, 9.982828 
6.15658e+2, 3.0146846e+2, -28835.852, -222398.19, 5730.035, -0.052887045, -0.20216551, -28666.373, -28666.373, 0.0067206244, 10.006732, 9.981268 
6.157195e+2, 3.1145117e+2, 89368.2, 17454.914, -5100.4414, 0.0007732835, -0.0043397327, 89728.15, 89728.15, 0.008187074, 10.007061, 9.99755 
6.2465036e+2, 1.215967e+2, -1750304.1, -1744077.6, 5704.9233, -0.008294096, -0.061688937, -1740691.8, 7656.904, 0.3541072, 9.997893, 9.99898 
6.247075e+2, 1.3159454e+2, -1644712.1, -1661739.8, -6472.289, 0.0010915103, -0.0038779296, -1642531.3, 7838.8057, 0.28109142, 9.999564, 9.99694 
6.2476355e+2, 1.4159045e+2, -1539058.4, -1570689.9, -3219.631, -0.010512146, -0.046482578, -1538734.0, 13676.349, 0.20657134, 10.000638, 9.995923 
6.248202e+2, 1.515865e+2, -1443213.8, -1475876.5, -4217.823, -0.0074006184, -0.040754322, -1442677.9, 11770.895, 0.1432552, 10.000431, 9.995802 
6.2487674e+2, 1.6158143e+2, -1356652.5, -1405186.5, -8759.241, -0.005754654, -0.03200405, -1355120.1, 1378.6239, 0.09987318, 10.000434, 9.9939375 
6.2493294e+2, 1.7157522e+2, -1262698.8, -1313588.6, -8860.031, 0.00022261517, -0.029356314, -1261200.4, -2641.004, 0.075513154, 10.000346, 9.993537 
6.249886e+2, 1.8156794e+2, -1172727.5, -1235320.5, -8767.641, 0.0028216918, -0.029256452, -1171522.5, -10891.504, 0.06323491, 10.000462, 9.992152 
6.2504447e+2, 1.9156009e+2, -1060298.5, -1131586.4, -7725.5615, -0.0014078295, -0.03830984, -1059470.9, 3236.8867, 0.056682963, 10.001519, 9.992022 
6.250996e+2, 2.015509e+2, -962369.94, -1059148.6, -10301.459, -0.0020966092, -0.03873345, -961285.56, 3512.1797, 0.052283235, 10.002598, 9.989765 
6.25155e+2, 2.1154068e+2, -859698.75, -963170.6, -10777.366, 0.0019629323, -0.025908662, -858588.1, 8309.851, 0.048651624, 10.003126, 9.989362 
6.252092e+2, 2.2152899e+2, -770137.25, -888000.44, -14357.926, 0.0023010059, -0.029226772, -768413.4, 599.0193, 0.04555987, 10.003296, 9.987733 
6.25264e+2, 2.315166e+2, -672440.7, -790183.8, -18146.504, 0.00091506384, -0.061552424, -669707.4, 1426.4495, 0.043225635, 10.003267, 9.987729 
6.253179e+2, 2.415034e+2, -585250.7, -717316.06, -17241.383, 0.0049602115, -0.051228214, -583036.9, -9773.724, 0.04156095, 10.003297, 9.986028 
6.253743e+2, 2.514903e+2, -479924.25, -613644.56, -16353.187, 0.0108854715, 0.015281212, -477953.4, -2561.5933, 0.039684203, 10.003685, 9.986222 
6.254296e+2, 2.6147532e+2, -397226.97, -547981.2, -11146.188, 0.002789983, -0.0014175789, -396407.3, -18868.787, 0.036110234, 10.003655, 9.984032 
6.254889e+2, 2.714578e+2, -276271.66, -436288.88, -7615.8076, -0.023711944, -0.14556473, -275910.0, 3800.141, 0.030348934, 10.005099, 9.98426 
6.255467e+2, 2.81443e+2, -176286.88, -343386.06, -19906.01, -0.009473922, -0.08920087, -173948.27, 7906.609, 0.024075592, 10.005461, 9.983766 
6.256047e+2, 2.9142854e+2, -67330.01, -255322.95, -17312.643, 0.053710926, 0.19286057, -65748.95, 18247.775, 0.019858941, 10.006894, 9.98237 
6.256652e+2, 3.0140656e+2, -29312.393, -232614.89, -3655.379, -0.027541889, -0.19865178, -29246.69, -29246.69, 0.018799579, 10.007031, 9.980462 
6.2572587e+2, 3.1138825e+2, 73649.33, 25705.498, -11632.992, 0.012840209, -0.011239715, 76322.85, 76322.85, 0.020104516, 10.005183, 9.999124 
6.347069e+2, 1.3153604e+2, -1667621.5, -1649801.5, -4000.028, -0.007175699, -0.040181916, -1648944.9, 1998.3187, 0.3986437, 9.996749, 9.999158 
6.3476413e+2, 1.415335e+2, -1575514.3, -1594455.1, -8267.205, -0.009696785, -0.03178567, -1572413.4, -19444.898, 0.32109898, 9.998112, 9.995527 
6.348208e+2, 1.5152873e+2, -1458867.3, -1494094.0, -8245.0625, 0.006374862, -0.026436348, -1457032.9, -2017.5684, 0.25318962, 9.999654, 9.994936 
6.348775e+2, 1.6152304e+2, -1358132.6, -1407143.6, -10578.575, 0.01979918, -0.020188557, -1355946.8, 1124.4109, 0.20482565, 10.000411, 9.993804 
6.349332e+2, 1.7151679e+2, -1261468.5, -1310215.5, -10510.48, -0.014905538, -0.043024097, -1259298.9, -166.80482, 0.1758956, 10.000331, 9.993761 
6.3498867e+2, 1.8150969e+2, -1171720.6, -1231742.9, -7355.2446, -0.040675744, -0.052364543, -1170832.4, -9630.981, 0.15969306, 10.000404, 9.992412 
6.3504595e+2, 1.9150236e+2, -1060485.4, -1131015.5, -4008.1892, -0.0063719302, -0.022102108, -1060258.4, 3015.023, 0.14982603, 10.001521, 9.9920435 
6.3510245e+2, 2.0149341e+2, -963086.2, -1059690.3, -7557.004, 0.020686965, 0.0027027612, -962498.6, 2862.5405, 0.14231765, 10.002595, 9.989716 
6.3515824e+2, 2.1148267e+2, -860139.3, -963658.25, -9032.182, 0.007679531, -0.0340549, -859357.1, 8109.2637, 0.13550727, 10.003194, 9.989285 
6.352124e+2, 2.2147042e+2, -774066.44, -898308.94, -13751.559, -0.012973044, -0.056786023, -772562.56, -2975.9744, 0.12921391, 10.003404, 9.986969 
6.3526714e+2, 2.31458e+2, -677267.6, -802254.56, -18051.277, -0.017369974, -0.00911353, -674712.8, -3004.239, 0.12399558, 10.003366, 9.986848 
6.353211e+2, 2.4144435e+2, -589570.7, -725740.3, -15974.927, -0.004724861, 0.038056437, -587721.7, -13879.366, 0.1196944, 10.003283, 9.985453 
6.353783e+2, 2.514296e+2, -482401.5, -618244.4, -16472.912, 0.03394242, -0.03214392, -480432.47, -4446.018, 0.11434348, 10.003662, 9.985917 
6.354336e+2, 2.614131e+2, -405249.7, -562824.1, -9036.111, 0.036838338, -0.12546413, -404733.2, -26585.6, 0.10449241, 10.003545, 9.983081 
6.3549376e+2, 2.7139592e+2, -280182.88, -445479.75, -3978.9211, -0.056935415, -0.15859087, -280087.16, 229.03894, 0.088948555, 10.005107, 9.983631 
6.355515e+2, 2.8138113e+2, -180573.27, -352888.4, -19338.809, -0.085750796, -0.050552767, -178429.55, 4032.1355, 0.07142324, 10.005435, 9.983152 
6.3561153e+2, 2.913651e+2, -73694.68, -264730.0, -13391.959, 0.04942637, 0.13061467, -72760.445, 11858.234, 0.05796561, 10.006712, 9.981826 
6.3567245e+2, 3.0134332e+2, -38183.082, -239950.47, -11750.4795, 0.014122928, -0.21691483, -37501.063, -37501.063, 0.051588424, 10.006507, 9.980244 
6.357305e+2, 3.1132475e+2, 70041.31, 40622.508, -18865.996, -0.0013645892, -0.015065444, 79254.54, 79254.54, 0.050905757, 10.004319, 10.000702 
6.448764e+2, 1.614616e+2, -1375167.8, -1377694.5, 17039.936, 0.018069753, -0.0056301546, -1359344.5, -1671.7715, 0.39385006, 9.997562, 9.997106 
6.449337e+2, 1.7145595e+2, -1244391.3, -1283543.1, -15411.384, -0.055296358, -0.107438214, -1239052.8, 20675.629, 0.3631605, 10.001582, 9.995035 
6.449908e+2, 1.8145095e+2, -1151650.4, -1214778.9, -13657.84, 0.052387163, 0.011926557, -1148822.3, 12955.218, 0.34433386, 10.002019, 9.992787 
6.4504755e+2, 1.9144325e+2, -1062893.0, -1127001.5, -10213.95, 0.018171864, -0.03210674, -1061305.0, 2547.7175, 0.33186242, 10.001194, 9.992462 
6.4510363e+2, 2.0143415e+2, -984104.06, -1061139.1, -7940.264, -0.035500303, -0.07638232, -983294.1, -17352.322, 0.32141975, 10.000751, 9.990488 
6.451609e+2, 2.1142511e+2, -865472.1, -955202.56, -1455.9342, -0.006768767, -0.03782479, -865448.5, 2581.7837, 0.31100234, 10.002334, 9.990276 
6.452165e+2, 2.2141422e+2, -764998.06, -887402.6, -804.5177, 0.020950237, -0.010406657, -764992.75, 5144.2046, 0.30041274, 10.00394, 9.987466 
6.452713e+2, 2.3140086e+2, -666649.6, -796524.7, 1403.7223, 0.006834864, -0.070754476, -666634.44, 5633.4497, 0.29071093, 10.004268, 9.986836 
6.4532506e+2, 2.4138522e+2, -588967.2, -756895.44, 2380.3442, -0.0074453815, -0.095162615, -588933.44, -14512.334, 0.2817397, 10.004692, 9.982669 
6.4538276e+2, 2.5136882e+2, -471399.47, -645913.56, -20489.04, -0.0024785374, 0.0027407103, -469026.2, 7555.8813, 0.26974383, 10.006054, 9.982899 
6.454383e+2, 2.613505e+2, -387063.97, -598143.8, -30011.943, -0.0035472282, 0.052879028, -382879.72, -4117.721, 0.24780308, 10.006693, 9.979109 
6.4550054e+2, 2.7132863e+2, -279395.47, -488408.28, -48580.19, 0.00896863, -0.048597563, -268655.97, 12320.418, 0.2136612, 10.0072775, 9.97959 
6.4555854e+2, 2.813106e+2, -170134.27, -336839.56, -76122.21, 0.04115044, -0.03695307, -140605.31, 42547.63, 0.17465666, 10.006303, 9.983817 
6.456186e+2, 2.9129624e+2, -53358.297, -228208.77, -46452.387, 0.06164853, 0.117755495, -41783.55, 43509.88, 0.14277904, 10.007484, 9.9839115 
6.456772e+2, 3.0127767e+2, -66633.305, -243464.45, -51713.855, -0.047777038, -0.09415423, -52620.188, -52620.188, 0.124363236, 10.004177, 9.981075 
6.4573145e+2, 3.1125826e+2, -20433.36, 10316.978, -52008.367, -0.023453556, 0.022691138, 49175.246, 49175.246, 0.11729312, 9.997461, 10.001969 
6.5556437e+2, 2.8123224e+2, -204465.7, -330530.28, 16104.09, -0.017139422, -0.106291756, -202441.02, -18520.793, 0.35786867, 10.002296, 9.986251 
6.5562546e+2, 2.9122257e+2, -32157.684, -156019.28, 41499.688, -0.010352368, 0.013199669, -19538.85, 66476.26, 0.29648608, 10.007874, 9.988941 
6.5568167e+2, 3.012096e+2, 5943.3257, -182551.81, 9224.811, -0.014860061, -0.061481554, 6393.705, 6393.705, 0.25644234, 10.008144, 9.983549 
6.5572876e+2, 3.111904e+2, 21751.934, 37788.25, 23531.24, 0.026866106, -0.060389943, 54629.902, 54629.902, 0.23493357, 10.000002, 10.003389 
7.144583e+2, 1.6859308e+2, -1284547.9, -1287396.8, 7158.4355, 0.06876385, -0.14745066, -1278673.5, 9099.714, 0.39580005, 9.93614, 9.935461 
7.13353e+2, 1.7852718e+2, -1206941.9, -1221963.6, 11027.271, 0.048380397, -0.17682655, -1201110.5, -10691.912, 0.36749697, 9.935687, 9.933487 
7.1224934e+2, 1.8846078e+2, -1088995.1, -1109454.6, 3949.945, 0.07062984, -0.19701959, -1088259.0, 4809.6675, 0.33911413, 9.937188, 9.934043 
7.111455e+2, 1.9839461e+2, -975691.94, -1013679.44, -7684.0063, 0.045491237, -0.19847363, -974196.5, 21519.787, 0.30851847, 9.9392185, 9.93324 
7.1004075e+2, 2.0832661e+2, -886331.7, -941489.25, -2856.407, -0.008620193, -0.2094506, -886184.2, 12198.103, 0.27875233, 9.939307, 9.931319 
7.0893776e+2, 2.1825793e+2, -794151.56, -838973.0, 3511.2285, -0.031877317, -0.20727311, -793878.2, 7177.189, 0.25782213, 9.938375, 9.93193 
7.07835e+2, 2.281914e+2, -700618.1, -724896.94, 1143.5817, 0.018384896, -0.1789442, -700564.4, 3143.134, 0.25607178, 9.937348, 9.93371 
7.0673376e+2, 2.3812583e+2, -608259.6, -629849.7, -16269.167, 0.034978397, -0.14982574, -599529.8, 6820.473, 0.28158236, 9.936925, 9.934034 
7.05627e+2, 2.4805798e+2, -492813.56, -547365.56, -19923.736, -0.084581256, -0.19952966, -486311.84, 22703.252, 0.33780032, 9.93989, 9.93171 
7.288037e+2, 1.2996145e+2, -1664284.4, -1684381.4, -7501.364, 0.14977145, -0.13143054, -1661793.3, 4572.6826, 0.38657025, 9.937537, 9.934957 
7.276991e+2, 1.398955e+2, -1550075.8, -1574110.5, -3817.7573, 0.13926293, -0.17452751, -1549484.0, 19527.805, 0.32062596, 9.939543, 9.935243 
7.2659963e+2, 1.4983162e+2, -1497701.9, -1497601.6, 1444.3722, 0.108214535, -0.1685545, -1496206.5, -24569.26, 0.26370573, 9.935848, 9.935871 
7.254994e+2, 1.5976638e+2, -1396586.0, -1412749.0, 7201.67, 0.09510321, -0.17536001, -1393842.8, -19566.496, 0.2228128, 9.936162, 9.934071 
7.24395e+2, 1.6970083e+2, -1280390.1, -1306456.6, -4916.124, 0.09727137, -0.1376675, -1279493.8, -2575.6067, 0.1965221, 9.937253, 9.933986 
7.232898e+2, 1.796345e+2, -1174377.0, -1216833.4, -2802.9875, 0.058110747, -0.12870595, -1174192.8, 5375.3696, 0.17812835, 9.938547, 9.932921 
7.2218686e+2, 1.8956666e+2, -1089985.6, -1138880.0, 3520.583, 0.061167896, -0.13641766, -1089733.5, -7500.6357, 0.16184242, 9.938356, 9.9317045 
7.210844e+2, 1.9949822e+2, -989770.56, -1035624.9, -4353.3936, 0.043688033, -0.1302102, -989360.94, -4457.7744, 0.14482777, 9.938227, 9.93213 
7.199798e+2, 2.0943113e+2, -882976.25, -922967.3, -5770.6646, -0.0055875345, -0.13326144, -882160.2, 5399.8096, 0.12795308, 9.938444, 9.932953 
7.1887606e+2, 2.1936356e+2, -794098.0, -840331.3, -6649.144, -0.021378579, -0.14343353, -793160.75, -2939.1682, 0.11534935, 9.93815, 9.9320135 
7.1777254e+2, 2.2929473e+2, -713028.06, -762769.8, -6659.3667, 0.037063222, -0.17753388, -712151.94, -19255.895, 0.11286214, 9.937755, 9.931006 
7.166707e+2, 2.3922552e+2, -618965.4, -667698.44, -16090.604, 0.023833878, -0.17997056, -614132.0, -18557.66, 0.12563479, 9.937563, 9.931231 
7.155667e+2, 2.4915747e+2, -488539.66, -553088.8, -10890.433, -0.13765238, -0.13455042, -486751.8, 11488.918, 0.1575739, 9.940207, 9.93128 
7.144674e+2, 2.5908744e+2, -382210.0, -474079.6, -8263.444, -0.15529448, -0.14776641, -381472.66, 19453.896, 0.21081787, 9.941976, 9.929015 
7.1337104e+2, 2.6901552e+2, -360079.4, -411491.3, 19686.02, 0.13232656, -0.23589195, -353407.34, -49776.043, 0.2844638, 9.93667, 9.929262 
7.122717e+2, 2.7894992e+2, -216781.06, -177799.63, -57138.625, -0.14300653, -0.1449394, -136918.9, 69355.17, 0.37000448, 9.933725, 9.941904 
7.398388e+2, 1.211273e+2, -1780433.6, -1762853.5, -4716.2593, 0.18998928, -0.19304474, -1761668.1, -8725.455, 0.32493475, 9.935655, 9.938124 
7.387384e+2, 1.3106576e+2, -1665773.4, -1667274.6, 9605.728, 0.06801769, -0.016860185, -1656889.0, -1343.3524, 0.25898266, 9.937157, 9.936698 
7.376392e+2, 1.4100133e+2, -1533211.5, -1561539.6, 9794.69, 0.11288107, -0.078115694, -1530154.6, 28021.926, 0.19368057, 9.940308, 9.935578 
7.365384e+2, 1.5093619e+2, -1448639.9, -1481972.5, 3007.5837, 0.076806486, -0.100232035, -1448370.8, 12443.73, 0.13986363, 9.939599, 9.934718 
7.354368e+2, 1.6087022e+2, -1371642.6, -1408399.6, -9965.388, 0.070530444, -0.090579726, -1369114.8, -5654.18, 0.103883736, 9.938518, 9.93352 
7.343337e+2, 1.7080371e+2, -1251394.8, -1299919.0, -11765.309, 0.073495686, -0.102073185, -1248692.6, 17419.432, 0.083562806, 9.940122, 9.93344 
7.3323023e+2, 1.8073669e+2, -1139208.3, -1201697.3, -14384.439, 0.06581197, -0.11083842, -1136056.1, 32712.326, 0.072091475, 9.941367, 9.932867 
7.321264e+2, 1.906693e+2, -1058125.0, -1118340.4, -10915.764, 0.053823, -0.11807648, -1056207.3, 15221.25, 0.06384599, 9.940451, 9.93224 
7.31023e+2, 2.006011e+2, -974115.4, -1030155.3, -11654.201, 0.032908943, -0.118750125, -971788.4, 2308.0217, 0.05605498, 9.939499, 9.931948 
7.2991896e+2, 2.1053341e+2, -867226.56, -925917.75, -13419.081, -0.0025571533, -0.118072, -864304.0, 12455.098, 0.048505012, 9.940123, 9.9322 
7.2881573e+2, 2.2046496e+2, -765400.1, -839997.8, -20382.979, -0.011632725, -0.12608312, -760194.06, 19235.268, 0.04279683, 9.940962, 9.931057 
7.2771245e+2, 2.3039526e+2, -664078.06, -752587.44, -16864.43, 0.032300152, -0.15941115, -660973.6, 21138.621, 0.041521527, 9.941828, 9.930052 
7.266106e+2, 2.403248e+2, -564712.94, -656532.94, -16877.508, 0.008930562, -0.1628178, -561708.94, 23093.762, 0.047353156, 9.941968, 9.929944 
7.255075e+2, 2.5025588e+2, -476940.13, -559043.75, -11034.052, -0.12618542, -0.11183421, -475483.1, 11994.174, 0.06318981, 9.941203, 9.930607 
7.244089e+2, 2.6018578e+2, -396946.66, -487001.84, -21142.535, -0.11081053, -0.1208881, -392229.97, -2066.4604, 0.09224905, 9.940256, 9.929405 
7.233098e+2, 2.7011353e+2, -285722.44, -380977.66, -15639.623, 0.11180927, -0.27567005, -283220.34, 9651.255, 0.13673757, 9.941343, 9.929639 
7.222098e+2, 2.8004178e+2, -213747.42, -327667.13, -30874.215, -0.010477252, -0.24404192, -205918.06, -10343.559, 0.19440669, 9.940079, 9.927226 
7.210989e+2, 2.899741e+2, -19527.559, -124373.17, -45666.203, -0.5074045, 0.06328612, -2426.6077, 95809.945, 0.25724012, 9.946307, 9.931871 
7.200112e+2, 2.9989755e+2, -11041.1045, -287268.2, 43286.9, 0.10194226, -0.3840021, -4416.586, -3431.6821, 0.31560874, 9.9510975, 9.917494 
7.189343e+2, 3.098136e+2, 32215.545, -5012.4897, -35992.434, -0.2776867, -0.064423345, 54122.348, 54122.348, 0.3647547, 9.944135, 9.9387865 
7.497765e+2, 1.2223009e+2, -1725850.3, -1720986.3, 491.8653, 0.20031504, 0.00956474, -1720937.0, 21199.666, 0.23778631, 9.938645, 9.939708 
7.486773e+2, 1.3216667e+2, -1639006.6, -1649739.5, 2945.714, 0.13115521, -0.09017187, -1638251.4, 6506.7466, 0.17853287, 9.939149, 9.9373255 
7.475796e+2, 1.4210251e+2, -1551932.0, -1582667.8, -6062.373, 0.20862147, -0.12867562, -1550779.4, -3392.768, 0.120985776, 9.939205, 9.935157 
7.4647844e+2, 1.5203741e+2, -1452088.4, -1492202.8, -7850.7656, 0.13484658, -0.108205125, -1450606.6, -582.40625, 0.0749508, 9.9396105, 9.934279 
7.4537617e+2, 1.6197136e+2, -1348268.3, -1395443.6, -11825.308, 0.08003813, -0.09076994, -1345470.0, 7201.3057, 0.045711238, 9.940118, 9.933726 
7.442738e+2, 1.7190501e+2, -1251793.5, -1300851.9, -9622.324, 0.07134815, -0.10284303, -1249973.6, 5347.3667, 0.030768666, 9.940152, 9.933439 
7.4317104e+2, 1.8183781e+2, -1154796.0, -1210306.8, -16328.452, 0.0630901, -0.11283304, -1150349.3, 7630.0103, 0.023860537, 9.940215, 9.932826 
7.4206674e+2, 1.9177066e+2, -1051537.0, -1111644.1, -18645.66, 0.044894304, -0.12168831, -1046222.9, 14413.827, 0.020094706, 9.940663, 9.93266 
7.409627e+2, 2.0170268e+2, -959255.1, -1028318.6, -18994.854, 0.02110983, -0.124605075, -954375.6, 8926.693, 0.01716262, 9.940807, 9.931631 
7.398592e+2, 2.1163413e+2, -864246.1, -938586.94, -17031.896, -0.0048916144, -0.12707186, -860529.8, 5443.8955, 0.014534381, 9.9410305, 9.931076 
7.387568e+2, 2.2156464e+2, -766794.9, -850352.9, -22591.293, -0.011887865, -0.1277784, -761078.06, 7576.1377, 0.012619459, 9.941343, 9.930316 
7.3765415e+2, 2.3149483e+2, -664839.75, -756614.3, -19256.305, 0.013543181, -0.1350321, -660963.1, 10374.931, 0.012302132, 9.94199, 9.929831 
7.3655236e+2, 2.414242e+2, -566174.0, -664490.25, -24711.371, -0.0071404227, -0.13191186, -560312.4, 13717.411, 0.014721316, 9.942138, 9.929385 
7.3544896e+2, 2.5135374e+2, -477971.3, -572979.3, -22143.502, -0.09247821, -0.1311648, -473063.8, 3655.925, 0.021538809, 9.941656, 9.929477 
7.3434955e+2, 2.612824e+2, -395408.13, -497250.78, -25602.424, -0.0778853, -0.14624304, -389334.13, -9915.84, 0.035185672, 9.941068, 9.928462 
7.332509e+2, 2.712107e+2, -273726.75, -378343.84, -17453.723, 0.049819782, -0.19857933, -270891.7, 11229.225, 0.058288112, 9.94247, 9.929376 
7.32151e+2, 2.8113878e+2, -192068.61, -328756.4, -29312.615, -0.056498576, -0.17324446, -186047.75, -1221.7802, 0.091938436, 9.942405, 9.925997 
7.310445e+2, 2.9106665e+2, -61915.77, -197849.95, -42677.465, -0.3385615, -0.018817065, -49627.695, 37904.484, 0.13420947, 9.94407, 9.927784 
7.2995704e+2, 3.0099115e+2, -82926.53, -256132.06, 49599.254, 0.24482854, -0.23963225, -69728.875, -69728.875, 0.1803006, 9.943339, 9.922432 
7.288741e+2, 3.1090897e+2, 8979.831, 66270.44, -19292.559, -0.102266744, -0.47470686, 72161.44, 72161.44, 0.2251794, 9.936196, 9.944411 
7.597147e+2, 1.2332837e+2, -1733438.6, -1758667.9, -25796.813, 0.108493485, -0.12641166, -1717337.4, 14037.407, 0.17498739, 9.939254, 9.936448 
7.586175e+2, 1.332654e+2, -1622759.4, -1656131.9, -978.6397, 0.12883663, -0.083008684, -1622730.8, 11261.06, 0.1261487, 9.940991, 9.93621 
7.5751895e+2, 1.432011e+2, -1524792.9, -1563788.9, -10849.199, 0.11664012, -0.08044517, -1521977.8, 14644.293, 0.079539225, 9.940987, 9.935657 
7.5641876e+2, 1.5313676e+2, -1423326.4, -1467134.6, -9662.551, 0.115451284, -0.08175021, -1421289.8, 17962.375, 0.04321595, 9.9412365, 9.93528 
7.5531715e+2, 1.6307132e+2, -1326147.5, -1380105.8, -14478.513, 0.09828206, -0.08267247, -1322508.0, 19385.174, 0.02111174, 9.941427, 9.934233 
7.542145e+2, 1.7300539e+2, -1233980.3, -1289588.3, -14060.356, 0.070582926, -0.090895, -1230627.3, 13911.57, 0.0106813945, 9.941221, 9.933761 
7.5311166e+2, 1.8293826e+2, -1143005.3, -1209808.9, -16757.207, 0.054882593, -0.09603373, -1139037.5, 8158.759, 0.006606641, 9.941282, 9.93245 
7.5200844e+2, 1.9287066e+2, -1031403.6, -1109222.1, -18318.854, 0.051716845, -0.096375644, -1027306.94, 22551.38, 0.0049766204, 9.942388, 9.932141 
7.509051e+2, 2.0280215e+2, -930066.1, -1021026.4, -21553.125, 0.03708404, -0.10028688, -925217.56, 27311.715, 0.004049235, 9.94303, 9.931207 
7.4980164e+2, 2.1273313e+2, -838337.3, -931716.75, -19713.07, 0.010002447, -0.11508272, -834346.3, 20858.752, 0.0033389647, 9.942886, 9.930744 
7.4869895e+2, 2.2266324e+2, -749333.8, -847630.2, -20833.188, -0.0033343483, -0.11951452, -745100.7, 12788.763, 0.0028667098, 9.942612, 9.929952 
7.475964e+2, 2.3259328e+2, -654058.6, -755482.8, -17334.467, 0.0012601422, -0.11193295, -651177.8, 9397.181, 0.0028619748, 9.942677, 9.929625 
7.464947e+2, 2.4252225e+2, -562968.94, -674247.4, -20734.736, -0.017699314, -0.109601796, -559230.94, 4039.784, 0.0037244223, 9.942579, 9.928578 
7.453919e+2, 2.5245056e+2, -459557.44, -576782.6, -17273.379, -0.06173879, -0.13157137, -457065.16, 8907.645, 0.006207294, 9.943106, 9.928458 
7.442919e+2, 2.6237857e+2, -369430.88, -489962.2, -14020.935, -0.055568688, -0.13909186, -367821.38, 856.5334, 0.011650102, 9.942739, 9.928101 
7.4319285e+2, 2.723073e+2, -276140.9, -384297.7, -10480.512, -0.0032322663, -0.12779234, -275134.72, -3758.803, 0.021981444, 9.94203, 9.929151 
7.4209297e+2, 2.822349e+2, -207618.33, -350657.8, -19271.314, -0.08550879, -0.11767455, -205067.45, -30981.783, 0.03915511, 9.94177, 9.924843 
7.4098885e+2, 2.9215905e+2, -85385.586, -248399.6, -22173.016, -0.27631143, -0.10290245, -82423.46, -5594.247, 0.063840106, 9.943635, 9.92428 
7.398968e+2, 3.0208588e+2, -34237.715, -152243.3, 40371.336, -0.053061876, -0.0850697, -21748.027, -21748.027, 0.09408453, 9.9429655, 9.929114 
7.388085e+2, 3.1201577e+2, -48733.62, -42326.26, -59195.406, -0.29597327, -0.10199014, 13752.093, 13752.093, 0.12607263, 9.936357, 9.936472 
7.6965517e+2, 1.2442612e+2, -1708208.3, -1719787.3, -1151.6815, 0.17084137, -0.064328976, -1708094.9, 12523.603, 0.12768447, 9.94074, 9.938962 
7.685582e+2, 1.3436377e+2, -1619712.8, -1649847.5, -1658.3394, 0.11789999, -0.028448178, -1619621.8, 3607.5342, 0.0897246, 9.940918, 9.936741 
7.674594e+2, 1.4430001e+2, -1520352.5, -1554283.5, -10208.45, 0.08494974, -0.02652256, -1517517.9, 8335.924, 0.054136056, 9.940947, 9.936278 
7.6635975e+2, 1.5423606e+2, -1418490.9, -1458751.0, -11919.568, 0.093896165, -0.04880796, -1415226.6, 13253.823, 0.02707615, 9.941362, 9.935853 
7.652585e+2, 1.6417086e+2, -1322770.0, -1378338.0, -19631.207, 0.0914491, -0.06022832, -1316534.4, 14584.657, 0.011202649, 9.941717, 9.934375 
7.6415604e+2, 1.7410512e+2, -1217508.3, -1281046.1, -21592.838, 0.06993155, -0.06784575, -1210864.8, 22898.201, 0.0041621407, 9.942375, 9.933981 
7.630534e+2, 1.8403813e+2, -1125583.4, -1204501.1, -21880.965, 0.05466784, -0.06882972, -1119922.6, 16496.553, 0.0017368137, 9.942742, 9.932337 
7.61951e+2, 1.9397037e+2, -1027122.3, -1111870.1, -21203.463, 0.05517043, -0.06460907, -1022113.4, 16969.59, 0.0010035203, 9.943031, 9.931823 
7.608483e+2, 2.0390156e+2, -929631.0, -1023561.3, -26058.082, 0.04836426, -0.07008987, -922886.3, 18870.648, 0.0007333931, 9.943242, 9.931038 
7.597447e+2, 2.138323e+2, -832176.9, -930176.2, -25695.828, 0.025387827, -0.09681166, -825848.06, 18586.846, 0.0005799141, 9.943418, 9.930676 
7.586417e+2, 2.2376235e+2, -740014.7, -845146.94, -26063.668, 0.0028810673, -0.10131479, -733907.9, 13211.999, 0.0004938477, 9.943432, 9.929837 
7.57539e+2, 2.3369232e+2, -644480.56, -752861.2, -23696.98, -0.015668774, -0.08381683, -639525.8, 10280.166, 0.0005179727, 9.943504, 9.929499 
7.564373e+2, 2.4362105e+2, -555119.25, -675037.5, -24096.83, -0.027414678, -0.08460415, -550458.3, 2046.1271, 0.00076705526, 9.943473, 9.928206 
7.5533545e+2, 2.5354892e+2, -452459.13, -577088.94, -20933.77, -0.033616308, -0.11294431, -449036.9, 6174.013, 0.0015101697, 9.943904, 9.928101 
7.5423485e+2, 2.6347673e+2, -365088.4, -492708.63, -19591.412, -0.05036331, -0.10673192, -362148.56, -4230.396, 0.0033241396, 9.943384, 9.927566 
7.53134e+2, 2.7340478e+2, -280090.03, -396906.84, -18139.066, -0.083895914, -0.07858204, -277338.25, -16715.293, 0.0072686234, 9.942307, 9.928087 
7.5203466e+2, 2.8333163e+2, -196268.72, -333253.94, -13082.911, -0.11459105, -0.10243671, -195030.42, -31690.793, 0.01480709, 9.942462, 9.9257345 
7.509349e+2, 2.9325658e+2, -59910.47, -219140.16, -2485.657, -0.14030798, -0.14752756, -59871.676, 6203.231, 0.026963256, 9.945143, 9.92534 
7.4983984e+2, 3.03184e+2, -19934.318, -152291.4, 33812.39, -0.13930815, -0.044212364, -11796.799, -11796.799, 0.04309568, 9.944147, 9.927657 
7.4874896e+2, 3.13114e+2, 19260.656, 60310.05, -4876.8613, -0.024169032, 0.08947141, 60881.49, 60881.49, 0.0609905, 9.938895, 9.944236 
7.795967e+2, 1.2552303e+2, -1686417.3, -1712959.8, -1053.6014, 0.15207385, -0.02473453, -1686375.5, 23494.81, 0.09095766, 9.942271, 9.938584 
7.785e+2, 1.3546121e+2, -1592943.8, -1624199.6, -744.4624, 0.13522464, -0.04556848, -1592926.0, 19549.588, 0.06282223, 9.942146, 9.937859 
7.774013e+2, 1.45398e+2, -1502629.9, -1545592.3, -7588.4473, 0.11593679, -0.050603557, -1501328.9, 13765.722, 0.036900293, 9.942069, 9.936367 
7.763017e+2, 1.5533434e+2, -1402874.6, -1451952.1, -9785.853, 0.096146114, -0.04815661, -1400995.3, 16723.23, 0.017632606, 9.942369, 9.935859 
7.752008e+2, 1.6526917e+2, -1308694.5, -1374113.4, -15317.091, 0.08796498, -0.04848575, -1305285.8, 15071.17, 0.0066743675, 9.942726, 9.934237 
7.7409935e+2, 1.7520331e+2, -1201487.0, -1276034.6, -17366.354, 0.085121356, -0.052719794, -1197639.9, 25362.201, 0.0020335538, 9.943505, 9.933839 
7.72997e+2, 1.851363e+2, -1106966.9, -1194671.6, -19480.982, 0.065767735, -0.054424353, -1102834.4, 22824.057, 0.00056177605, 9.943827, 9.932522 
7.7189445e+2, 1.9506873e+2, -1011765.1, -1103215.5, -18956.045, 0.038865674, -0.054683033, -1007991.56, 20329.088, 0.00019363461, 9.943841, 9.932032 
7.7079177e+2, 2.0499995e+2, -919171.3, -1021571.5, -21092.773, 0.029056642, -0.058103804, -914996.7, 15997.52, 0.00010600476, 9.943939, 9.930858 
7.6968884e+2, 2.1493062e+2, -817429.3, -926281.5, -21131.332, 0.028363984, -0.07035407, -813471.06, 20202.113, 0.0000763623, 9.944385, 9.930487 
7.6858604e+2, 2.2486044e+2, -723600.5, -842132.6, -21430.193, 0.011775875, -0.07420103, -719845.0, 16515.557, 0.0000643525, 9.944551, 9.92953 
7.6748335e+2, 2.3479e+2, -627524.25, -748864.3, -20624.71, -0.014882202, -0.06940125, -624114.4, 14936.22, 0.000073311654, 9.944566, 9.929287 
7.6638144e+2, 2.447185e+2, -541668.2, -671925.6, -20275.99, -0.02760192, -0.07371652, -538585.0, 3165.94, 0.00012965694, 9.944295, 9.92807 
7.652797e+2, 2.546464e+2, -449050.97, -578585.2, -18127.29, -0.025458427, -0.09039858, -446562.0, -2104.3467, 0.00030936784, 9.944017, 9.927962 
7.641786e+2, 2.6457408e+2, -359867.25, -495062.2, -17781.055, -0.052166585, -0.075333506, -357567.78, -10401.371, 0.0008103261, 9.943755, 9.927168 
7.630767e+2, 2.7450153e+2, -263605.53, -398086.94, -16500.537, -0.11332331, -0.047474176, -261610.55, -11733.813, 0.0020751273, 9.943649, 9.927236 
7.6197755e+2, 2.8442806e+2, -175571.98, -310572.25, -5633.9937, -0.12260358, -0.094518006, -175337.27, -22740.86, 0.0048177764, 9.943446, 9.926814 
7.6088005e+2, 2.9435417e+2, -80512.95, -215983.22, -841.2125, -0.074533336, -0.17367285, -80507.73, -25187.25, 0.009632663, 9.943397, 9.926605 
7.597833e+2, 3.042812e+2, -61931.19, -196435.83, 8129.528, -0.1272331, -0.05268659, -61441.617, -61441.617, 0.0163505, 9.942166, 9.925269 
7.5868505e+2, 3.1420574e+2, -42349.27, -71253.03, -9867.054, -0.32271898, -0.13369073, -39302.133, -39302.133, 0.024006577, 9.9387455, 9.935151 
7.8953856e+2, 1.2661995e+2, -1686900.5, -1710400.6, -4254.0957, 0.14588001, -0.026885645, -1686154.1, 12967.172, 0.06232195, 9.942136, 9.938947 
7.8844243e+2, 1.3655844e+2, -1582042.1, -1616016.4, -7772.6, 0.1407881, -0.059722394, -1580348.4, 21375.592, 0.042461146, 9.942863, 9.938239 
7.873439e+2, 1.4649558e+2, -1486821.4, -1536951.1, -14405.323, 0.12704946, -0.060824532, -1482976.6, 21363.055, 0.024464397, 9.943233, 9.936622 
7.862447e+2, 1.5643227e+2, -1384918.1, -1442479.8, -16509.967, 0.10796272, -0.04581183, -1380518.9, 26441.137, 0.011363006, 9.943668, 9.936068 
7.85144e+2, 1.6636737e+2, -1292582.8, -1365165.4, -19563.938, 0.09457073, -0.041423418, -1287645.3, 21950.64, 0.004107627, 9.943909, 9.934452 
7.840431e+2, 1.7630169e+2, -1192373.9, -1270954.6, -20402.676, 0.08904245, -0.044507593, -1187392.3, 24847.201, 0.0011430016, 9.9442215, 9.933964 
7.82941e+2, 1.8623486e+2, -1097822.1, -1188255.6, -23330.148, 0.065490484, -0.045725703, -1092158.1, 22735.98, 0.00025201778, 9.944441, 9.932761 
7.8183836e+2, 1.961675e+2, -999594.56, -1095224.0, -23704.64, 0.025105543, -0.049837984, -994041.2, 23512.932, 0.000051052644, 9.944648, 9.932284 
7.807358e+2, 2.0609885e+2, -908334.9, -1018446.1, -24436.22, 0.01473028, -0.046540655, -903155.5, 17071.006, 0.00001464393, 9.944895, 9.930738 
7.7963334e+2, 2.1602958e+2, -807806.44, -923650.75, -24792.084, 0.026439073, -0.042587396, -802723.6, 20181.674, 0.000007893304, 9.945239, 9.930372 
7.7853084e+2, 2.259592e+2, -715459.06, -841156.0, -25624.5, 0.016071325, -0.050367862, -710436.0, 15158.563, 0.000006397386, 9.945324, 9.929311 
7.7742803e+2, 2.358883e+2, -619885.0, -748006.6, -24874.592, -0.010887917, -0.06803464, -615225.1, 13063.59, 0.000008236193, 9.945293, 9.929045 
7.763259e+2, 2.4581666e+2, -533737.4, -669278.1, -24520.262, -0.02979364, -0.068391025, -529437.9, 1552.7607, 0.000018142226, 9.944992, 9.927926 
7.752237e+2, 2.5574464e+2, -443422.2, -577662.6, -22126.154, -0.041853037, -0.062041312, -439869.28, -6172.425, 0.000053293435, 9.944575, 9.927741 
7.741225e+2, 2.656721e+2, -354010.63, -492195.9, -18914.156, -0.05327994, -0.04791026, -351468.5, -15060.93, 0.00016765327, 9.944346, 9.927038 
7.7302116e+2, 2.755992e+2, -257000.75, -396014.47, -15443.871, -0.07169313, -0.037849296, -255305.67, -16184.529, 0.00050012115, 9.944338, 9.926969 
7.7192146e+2, 2.8552556e+2, -170603.13, -305579.34, -7653.6226, -0.104922615, -0.085717596, -170170.53, -28327.865, 0.0012940638, 9.943757, 9.926812 
7.708222e+2, 2.954517e+2, -94791.5, -225042.97, -3994.3591, -0.1347462, -0.14937589, -94669.125, -50102.72, 0.002766953, 9.942585, 9.926236 
7.6972485e+2, 3.0537972e+2, -62197.54, -169560.44, 4371.647, -0.10568182, -0.012110515, -62019.83, -62019.83, 0.004881361, 9.941006, 9.927214 
7.686263e+2, 3.1530598e+2, 37169.69, 76628.41, 3084.0178, -0.106901124, -0.12090829, 76867.99, 76867.99, 0.0073287883, 9.939422, 9.944029 
7.994816e+2, 1.2771648e+2, -1663475.6, -1698084.9, 2992.6165, 0.14900915, -0.03269416, -1663218.9, 25157.338, 0.04048696, 9.943585, 9.939057 
7.983858e+2, 1.3765547e+2, -1563480.1, -1606172.8, -1300.274, 0.12681974, -0.02395602, -1563440.5, 27533.605, 0.027255554, 9.9439335, 9.938326 
7.972876e+2, 1.4759283e+2, -1470798.4, -1526058.0, -6921.472, 0.11701639, -0.023887087, -1469944.6, 23643.275, 0.015450949, 9.944017, 9.936938 
7.961889e+2, 1.5752967e+2, -1370717.5, -1432704.6, -9754.899, 0.11488139, -0.025773654, -1369218.6, 26988.277, 0.0070204227, 9.944317, 9.936364 
7.950883e+2, 1.6746502e+2, -1278982.0, -1355104.4, -12585.455, 0.09401419, -0.02931131, -1276955.1, 21885.186, 0.0024614362, 9.944486, 9.934826 
7.939875e+2, 1.7739967e+2, -1179778.4, -1261414.6, -13933.801, 0.06831139, -0.03488194, -1177465.6, 24014.828, 0.00065384543, 9.944716, 9.934329 
7.9288566e+2, 1.8733312e+2, -1087352.3, -1182471.3, -15814.179, 0.057368413, -0.03386428, -1084791.9, 19340.62, 0.00013178977, 9.944904, 9.932907 
7.917837e+2, 1.9726595e+2, -987550.06, -1089321.9, -16555.135, 0.04657054, -0.032728493, -984924.8, 21865.852, 0.000020838195, 9.945235, 9.93238 
7.9068136e+2, 2.0719725e+2, -897165.25, -1015244.94, -16977.73, 0.027486032, -0.030993542, -894772.6, 14691.087, 0.0000030700608, 9.945527, 9.930634 
7.89579e+2, 2.1712787e+2, -797003.2, -920169.3, -17786.314, 0.012829398, -0.028552068, -794486.1, 17657.543, 0.0000007641624, 9.945795, 9.930318 
7.884765e+2, 2.270574e+2, -705895.3, -839472.6, -19353.002, 0.0031067962, -0.034285642, -703147.94, 11686.016, 0.0000004992428, 9.9458475, 9.929138 
7.8737384e+2, 2.3698635e+2, -609982.9, -746405.1, -19509.73, -0.0093461005, -0.04870832, -607247.6, 10281.994, 0.00000074885855, 9.945854, 9.92885 
7.8627145e+2, 2.4691457e+2, -520838.78, -665063.56, -20575.244, -0.029002095, -0.04830571, -517960.94, 2272.2324, 0.000002118082, 9.945736, 9.927811 
7.851689e+2, 2.5684243e+2, -426883.2, -571793.56, -19431.613, -0.048234824, -0.039331146, -424322.78, -1382.8099, 0.000007743391, 9.945565, 9.927648 
7.840673e+2, 2.6676977e+2, -343260.63, -488169.9, -18679.557, -0.0533531, -0.030302929, -340891.47, -15239.532, 0.000029167808, 9.944949, 9.927013 
7.8296584e+2, 2.7669677e+2, -257584.89, -397670.88, -16052.423, -0.05032621, -0.03180317, -255768.98, -27402.17, 0.000098908604, 9.944214, 9.926949 
7.8186524e+2, 2.8662327e+2, -170337.39, -304742.72, -13875.142, -0.09378827, -0.073149174, -168919.95, -37832.67, 0.00027649882, 9.943574, 9.926923 
7.807643e+2, 2.9654968e+2, -91702.28, -219138.17, -10304.735, -0.16189285, -0.116622254, -90874.39, -57066.13, 0.0006169136, 9.942415, 9.926674 
7.796654e+2, 3.0648026e+2, -31486.37, -117986.69, -5286.9517, -0.1275895, 0.06525333, -31164.426, -31164.426, 0.0011134715, 9.941199, 9.930712 
7.7856547e+2, 3.1640878e+2, -8558.959, -51574.19, 18804.766, -0.17866625, -0.11982958, -1497.4169, -1497.4169, 0.0016931832, 9.941179, 9.935152 
8.0942565e+2, 1.288134e+2, -1646802.3, -1685039.0, -2913.8586, 0.15651731, -0.0031954376, -1646581.5, 31046.473, 0.024554512, 9.944644, 9.939591 
8.0832994e+2, 1.3875282e+2, -1550741.8, -1595956.5, -7442.2666, 0.122896776, 0.00037667662, -1549548.3, 30673.12, 0.016354568, 9.9447365, 9.938734 
8.072317e+2, 1.486906e+2, -1458633.9, -1515766.6, -10873.692, 0.10868604, -0.00004698869, -1456634.3, 26196.828, 0.009139995, 9.944782, 9.937386 
8.061334e+2, 1.586278e+2, -1359589.9, -1423717.4, -13663.521, 0.10849831, -0.0071639176, -1356799.9, 28646.65, 0.0040751924, 9.94503, 9.936717 
8.05033e+2, 1.6856347e+2, -1265927.6, -1345294.1, -15159.495, 0.08785049, -0.011470496, -1263130.6, 24946.076, 0.0013936987, 9.945338, 9.935186 
8.039324e+2, 1.784985e+2, -1164270.1, -1250846.3, -17476.39, 0.057774413, -0.01704706, -1160875.5, 29837.809, 0.0003581768, 9.945735, 9.934654 
8.028309e+2, 1.8843219e+2, -1072023.1, -1173700.6, -18842.697, 0.056087364, -0.01717079, -1068643.5, 24719.46, 0.00006886962, 9.945993, 9.933098 
8.017294e+2, 1.9836518e+2, -973181.75, -1082002.1, -19719.494, 0.06246785, -0.015402237, -969718.56, 26300.756, 0.000009974997, 9.946296, 9.932481 
8.006271e+2, 2.0829655e+2, -884226.2, -1009078.6, -19338.441, 0.033227097, -0.015397444, -881299.5, 17392.58, 0.00000112396, 9.946509, 9.930666 
7.995248e+2, 2.1822713e+2, -785882.25, -915361.94, -19792.863, -0.0050247344, -0.018077277, -782924.25, 18448.266, 0.00000012115365, 9.946668, 9.930276 
7.9842234e+2, 2.2815658e+2, -696737.6, -837175.9, -21559.06, -0.0105644055, -0.01683894, -693502.56, 10560.994, 0.000000034254256, 9.946653, 9.928931 
7.973198e+2, 2.3808543e+2, -602527.94, -745514.56, -21430.207, -0.009506776, -0.019088449, -599385.2, 7375.373, 0.000000056027876, 9.946565, 9.928578 
7.9621726e+2, 2.4801333e+2, -514892.1, -664278.75, -22668.686, -0.029313603, -0.02168793, -511528.0, -2061.0952, 0.00000020923551, 9.946323, 9.927558 
7.9511446e+2, 2.5794083e+2, -424009.44, -573527.1, -21830.104, -0.054274946, -0.023665482, -420887.34, -8710.027, 0.0000009577219, 9.945985, 9.927289 
7.9401207e+2, 2.6786762e+2, -344106.44, -492280.78, -23408.818, -0.06290618, -0.026757399, -340496.25, -25601.402, 0.0000042291895, 9.9451065, 9.926551 
7.9290974e+2, 2.7779406e+2, -263043.53, -404280.88, -19640.076, -0.06632972, -0.035121307, -260363.3, -42747.824, 0.000015756948, 9.944093, 9.926475 
7.918086e+2, 2.877207e+2, -172574.5, -306481.47, -17784.898, -0.11146373, -0.025004815, -170252.66, -49918.547, 0.00004628496, 9.94358, 9.926699 
7.9070705e+2, 2.9764757e+2, -87208.96, -221907.81, -14494.168, -0.17728609, -0.0018610937, -85666.984, -62616.047, 0.00010590234, 9.943095, 9.92608 
7.896081e+2, 3.0757445e+2, -26902.182, -142314.63, -22863.146, -0.09228291, -0.020413112, -22538.027, -22538.027, 0.0001936619, 9.942879, 9.928536 
7.8850734e+2, 3.1750286e+2, -10679.121, -88438.5, -6024.5947, -0.24231583, -0.0027869542, -10215.12, -10215.12, 0.00029654038, 9.942923, 9.932679 
8.193709e+2, 1.2991026e+2, -1626619.0, -1668713.5, 5692.3013, 0.1623185, 0.02354173, -1625862.8, 41017.61, 0.013656359, 9.945504, 9.940132 
8.182751e+2, 1.3984984e+2, -1536080.4, -1583786.8, -128.72119, 0.12796623, -0.006169137, -1536080.0, 33392.055, 0.00901513, 9.945258, 9.939154 
8.1717676e+2, 1.497881e+2, -1446215.4, -1504574.3, -1418.4313, 0.10611097, -0.0015330476, -1446181.0, 25895.996, 0.0049783196, 9.945161, 9.937878 
8.1607854e+2, 1.597259e+2, -1348818.4, -1414080.0, -4850.9434, 0.09804676, 0.0045031765, -1348459.8, 26226.799, 0.0021846793, 9.945321, 9.937138 
8.1497866e+2, 1.6966204e+2, -1256289.6, -1337013.0, -4876.0894, 0.08685447, 0.008214172, -1255996.1, 21316.096, 0.0007317571, 9.9456, 9.935565 
8.1387854e+2, 1.7959747e+2, -1154716.1, -1243735.8, -7846.362, 0.06819546, 0.008448705, -1154029.8, 25915.035, 0.0001830531, 9.946018, 9.934929 
8.127772e+2, 1.8953125e+2, -1062547.4, -1167967.1, -8742.525, 0.056095395, -0.0010495395, -1061827.3, 20766.234, 0.000033989887, 9.946332, 9.933262 
8.1167597e+2, 1.9946434e+2, -961984.7, -1074653.3, -9899.738, 0.04853579, -0.009196078, -961121.5, 24127.549, 0.000004694803, 9.946707, 9.932712 
8.1057405e+2, 2.0939602e+2, -871254.2, -999589.1, -9197.796, 0.028538546, -0.005752242, -870598.3, 17320.14, 0.0000004859859, 9.94698, 9.930999 
8.09472e+2, 2.1932691e+2, -772677.7, -907612.75, -9506.433, 0.0031792342, -0.003280216, -772011.25, 18584.49, 0.000000038930008, 9.947228, 9.930422 
8.083696e+2, 2.2925636e+2, -683208.56, -831501.2, -11502.086, -0.0086391615, -0.002824968, -682321.7, 10965.346, 0.000000003570093, 9.94733, 9.928861 
8.0726695e+2, 2.3918517e+2, -587041.8, -739023.2, -11446.959, -0.0149065005, -0.002884056, -586184.5, 9800.335, 0.0000000037187682, 9.947373, 9.928484 
8.061642e+2, 2.491129e+2, -499422.7, -658309.0, -13692.162, -0.031153973, -0.005857998, -498251.38, 441.28955, 0.000000018805183, 9.947176, 9.927363 
8.05061e+2, 2.5904012e+2, -409272.16, -569267.7, -13295.476, -0.053060204, -0.01028604, -408174.8, -6769.1353, 0.00000010748777, 9.94685, 9.926958 
8.0395776e+2, 2.689665e+2, -324477.6, -486020.13, -17751.244, -0.07023657, -0.01755545, -322549.97, -18422.531, 0.00000053998343, 9.946299, 9.926166 
8.028543e+2, 2.7889255e+2, -239876.72, -395759.1, -13594.025, -0.080020726, -0.027875267, -238700.1, -31848.063, 0.0000021469018, 9.945526, 9.926162 
8.017523e+2, 2.8881937e+2, -158110.69, -301330.7, -13741.3545, -0.12326876, 0.025566526, -156804.19, -47235.242, 0.000006505809, 9.944382, 9.926458 
8.0064994e+2, 2.9874623e+2, -93418.695, -238951.36, -9908.42, -0.18121935, 0.09109429, -92747.19, -80461.65, 0.000015111846, 9.943063, 9.924787 
7.995513e+2, 3.0866772e+2, -61019.246, -195193.0, -11592.231, -0.017107336, -0.19740719, -60025.074, -60025.074, 0.000027844315, 9.941977, 9.924968 
7.9845023e+2, 3.1859532e+2, 35580.176, 47561.418, 3798.2708, -0.16126505, -0.0902637, 48664.063, 48664.063, 0.000042801385, 9.940799, 9.942334 
8.2931685e+2, 1.3100775e+2, -1612443.4, -1658865.9, 1135.9227, 0.17016847, 0.021102555, -1612415.6, 43710.777, 0.006829297, 9.946469, 9.940395 
8.282207e+2, 1.409478e+2, -1520375.0, -1572895.4, -7200.4272, 0.12212576, 0.010500796, -1519405.8, 39307.88, 0.0044781193, 9.946289, 9.939465 
8.2712233e+2, 1.5088649e+2, -1429349.6, -1490820.3, -5900.686, 0.10448487, 0.012579539, -1428788.3, 32525.93, 0.0024504783, 9.9461775, 9.938453 
8.2602423e+2, 1.6082484e+2, -1332223.3, -1401104.9, -9585.376, 0.10099458, 0.01698842, -1330914.3, 33004.156, 0.0010623109, 9.946343, 9.937635 
8.249246e+2, 1.7076147e+2, -1240675.4, -1324614.5, -7675.4253, 0.09001023, 0.020080684, -1239979.3, 26560.102, 0.00035011073, 9.946574, 9.936061 
8.238249e+2, 1.8069734e+2, -1141774.1, -1234129.3, -10743.888, 0.073694415, 0.021845503, -1140540.8, 28626.691, 0.00008574844, 9.946854, 9.935276 
8.2272375e+2, 1.9063142e+2, -1050309.8, -1159219.4, -10118.711, 0.052979108, 0.011144088, -1049377.6, 22435.688, 0.00001549313, 9.947141, 9.933551 
8.216227e+2, 2.0056474e+2, -950136.2, -1065770.4, -10861.362, 0.03511867, -0.0007788926, -949124.9, 25341.48, 0.0000020664204, 9.947463, 9.933009 
8.205212e+2, 2.1049681e+2, -859496.9, -989966.94, -10237.878, 0.025530452, 0.005193891, -858698.4, 18433.678, 0.00000020419303, 9.947692, 9.931365 
8.194195e+2, 2.2042805e+2, -763485.75, -901694.9, -10736.352, 0.013282164, 0.011384037, -762656.75, 17149.197, 0.000000015033955, 9.947861, 9.930566 
8.18317e+2, 2.303575e+2, -675593.94, -827691.7, -12504.487, -0.0077139568, 0.009455503, -674572.75, 7924.468, 0.00000000086805313, 9.947912, 9.928849 
8.172143e+2, 2.4028623e+2, -581122.5, -736720.2, -12175.645, -0.02641812, 0.0058687977, -580175.5, 5020.2373, 0.00000000036248332, 9.9478655, 9.928392 
8.161114e+2, 2.5021383e+2, -495399.34, -657811.94, -15474.12, -0.032768782, 0.0035145034, -493938.16, -6033.0806, 0.0000000031520406, 9.947571, 9.9271555 
8.150079e+2, 2.601408e+2, -408389.9, -572202.2, -14952.743, -0.046471603, 0.0019057991, -407036.22, -16415.797, 0.000000023463071, 9.947112, 9.926574 
8.13904e+2, 2.7006683e+2, -325215.6, -490343.2, -20417.31, -0.08154272, 0.00697291, -322728.53, -29383.07, 0.00000013247401, 9.946484, 9.9256735 
8.127998e+2, 2.7999243e+2, -241309.52, -402207.4, -16220.38, -0.10394717, 0.003329004, -239690.61, -43616.082, 0.00000055422817, 9.945749, 9.9255085 
8.1169724e+2, 2.899179e+2, -160081.88, -311076.06, -20824.791, -0.0946712, 0.005913516, -157262.4, -58457.727, 0.0000017184632, 9.944676, 9.925525 
8.1059384e+2, 2.998436e+2, -87868.266, -233202.45, -16930.057, -0.11903333, 0.03030125, -85922.13, -84389.66, 0.000004034722, 9.943339, 9.924937 
8.094922e+2, 3.0976775e+2, -55399.234, -170848.45, -8975.089, -0.095627494, -0.110247575, -54705.67, -54705.67, 0.0000074743957, 9.941429, 9.926356 
8.0838865e+2, 3.19698e+2, 15806.968, 48547.7, 3422.241, -0.26770154, 0.1422042, 48901.582, 48901.582, 0.000011514792, 9.938706, 9.942681 
8.3926356e+2, 1.3210574e+2, -1601530.1, -1651057.9, 9943.388, 0.16981938, 0.026907953, -1599608.4, 45759.06, 0.0030089617, 9.946857, 9.940568 
8.38167e+2, 1.4204627e+2, -1514341.9, -1566134.0, 1038.946, 0.110365145, 0.047831275, -1514321.1, 33629.047, 0.0019641386, 9.946252, 9.939735 
8.3706856e+2, 1.5198532e+2, -1421512.4, -1481077.9, 5158.6274, 0.1023761, 0.039770845, -1421068.9, 29478.332, 0.0010681495, 9.946185, 9.938984 
8.3597076e+2, 1.6192402e+2, -1324800.0, -1392105.1, 705.012, 0.108761884, 0.030715927, -1324792.6, 28355.178, 0.00045917454, 9.946345, 9.938117 
8.348713e+2, 1.7186105e+2, -1233086.3, -1315004.4, 3526.9302, 0.092124015, 0.022937516, -1232934.6, 22829.799, 0.00014963388, 9.946575, 9.936619 
8.337718e+2, 1.8179743e+2, -1134181.8, -1225206.0, -149.13493, 0.069101416, 0.019812971, -1134181.5, 24206.432, 0.00003610315, 9.946862, 9.935771 
8.326711e+2, 1.9173217e+2, -1041863.2, -1149477.1, 1649.6311, 0.050599575, 0.02402545, -1041837.9, 19189.47, 0.0000063962675, 9.94719, 9.934098 
8.3157045e+2, 2.016661e+2, -941127.8, -1056839.6, 896.36346, 0.035097647, 0.023330305, -941120.9, 22553.66, 0.00000083170164, 9.947583, 9.933448 
8.304691e+2, 2.1159846e+2, -849778.8, -981407.1, 1488.2534, 0.020989293, 0.020123104, -849761.94, 16575.373, 0.00000007956064, 9.947885, 9.93174 
8.2936764e+2, 2.2152999e+2, -751952.56, -892261.94, 1010.67035, 0.006966666, 0.019872678, -751945.3, 17062.92, 0.000000005620293, 9.948169, 9.930935 
8.282653e+2, 2.3145986e+2, -661246.44, -816583.94, -156.69493, -0.0092368685, 0.022323158, -661246.25, 10449.265, 0.00000000032898215, 9.948403, 9.929199 
8.271627e+2, 2.4138884e+2, -565091.7, -727404.0, 846.4905, -0.024994353, 0.021354549, -565087.25, 9304.051, 0.000000000523489, 9.948574, 9.928481 
8.260595e+2, 2.5131634e+2, -477165.44, -649258.0, -3518.2344, -0.035399675, 0.015167842, -477093.56, 8.086004, 0.0000000056868577, 9.948498, 9.92705 
8.249557e+2, 2.612432e+2, -387210.22, -563130.56, -2869.8123, -0.04885643, 0.013818027, -387163.4, -7344.9956, 0.000000045360036, 9.948271, 9.926374 
8.23851e+2, 2.7116904e+2, -304615.44, -482601.13, -9113.491, -0.08711658, 0.029728083, -304150.03, -21604.785, 0.00000026325202, 9.947642, 9.92531 
8.22746e+2, 2.810942e+2, -223803.73, -398566.22, -4274.3354, -0.10911905, 0.028651653, -223699.25, -38420.816, 0.0000011141148, 9.9468, 9.924883 
8.216424e+2, 2.9101825e+2, -152521.14, -315330.47, -9771.997, -0.063324325, -0.025405712, -151936.7, -63914.3, 0.0000034718157, 9.945148, 9.924518 
8.205375e+2, 3.0094314e+2, -77356.16, -216862.17, -6566.242, -0.07475932, -0.02438029, -77047.78, -77047.78, 0.00000816904, 9.943165, 9.92565 
8.194319e+2, 3.1087187e+2, -40212.266, -133828.1, -7226.1196, -0.23259524, 0.08908244, -39657.773, -39657.773, 0.0000151550885, 9.940745, 9.928837 
8.1832755e+2, 3.207986e+2, -41712.094, -64964.313, -10282.773, -0.18377094, -0.011977134, -37817.19, -37817.19, 0.000023358853, 9.937694, 9.934987 
8.4921074e+2, 1.3320471e+2, -1579087.1, -1633083.6, 751.99744, 0.14923215, 0.06215701, -1579076.8, 55522.36, 0.0011421927, 9.948095, 9.941198 
8.4811354e+2, 1.4314552e+2, -1501227.8, -1554043.4, -4718.9424, 0.12221482, 0.056925762, -1500809.4, 36369.453, 0.0007435361, 9.946991, 9.940217 
8.470152e+2, 1.5308517e+2, -1403287.3, -1465681.0, 3680.251, 0.104517326, 0.052637693, -1403070.9, 36699.18, 0.00040280866, 9.947279, 9.939592 
8.459176e+2, 1.6302443e+2, -1304948.0, -1377319.9, -2120.4248, 0.10667046, 0.04509232, -1304885.9, 37479.254, 0.00017225166, 9.947565, 9.938582 
8.448182e+2, 1.7296197e+2, -1216960.8, -1301286.8, 1734.482, 0.09045699, 0.03627581, -1216925.1, 28051.799, 0.00005573453, 9.947501, 9.937179 
8.437189e+2, 1.8289886e+2, -1121259.1, -1213028.6, -2007.3661, 0.06583816, 0.031527065, -1121215.3, 26379.855, 0.000013319515, 9.947563, 9.936328 
8.426184e+2, 1.9283426e+2, -1028326.94, -1136129.0, 1364.8022, 0.04820752, 0.040617146, -1028309.6, 21918.48, 0.00000232996, 9.947907, 9.934729 
8.4151816e+2, 2.0276883e+2, -929650.25, -1046183.6, 577.23254, 0.033836786, 0.04498739, -929647.4, 23221.928, 0.00000029792903, 9.948217, 9.933918 
8.40417e+2, 2.1270156e+2, -839689.75, -971685.3, 1609.6868, 0.015488005, 0.033943035, -839670.1, 15858.245, 0.000000027884646, 9.948427, 9.932173 
8.393158e+2, 2.2263345e+2, -743088.9, -882941.56, 1592.9708, -0.0017853619, 0.028295338, -743070.75, 15124.773, 0.0000000019195514, 9.948615, 9.9313755 
8.382138e+2, 2.3256385e+2, -653081.44, -807036.56, 236.5959, -0.009413452, 0.03680119, -653081.06, 7796.4873, 0.00000000019847783, 9.948781, 9.92967 
8.3711135e+2, 2.4249323e+2, -560685.6, -723763.9, 1185.6782, -0.022005288, 0.03953535, -560677.0, 2892.6528, 0.000000001540536, 9.948864, 9.928578 
8.3600795e+2, 2.5242063e+2, -474775.25, -648157.8, -3878.6511, -0.044896793, 0.02802812, -474688.53, -8407.627, 0.000000016924494, 9.9487095, 9.926964 
8.3490384e+2, 2.6234734e+2, -385850.6, -562395.7, -3697.0078, -0.063641764, 0.024171839, -385773.22, -16774.307, 0.00000013515553, 9.948402, 9.926289 
8.337988e+2, 2.7227312e+2, -303603.22, -482316.22, -11349.763, -0.07523636, 0.044870093, -302885.28, -31159.018, 0.00000078460795, 9.947756, 9.925153 
8.32693e+2, 2.8219816e+2, -222898.6, -397463.56, -7609.5674, -0.08930622, 0.043279137, -222567.52, -48106.484, 0.0000033204878, 9.946846, 9.924765 
8.315872e+2, 2.9212195e+2, -153108.44, -315595.94, -14742.196, -0.09790786, -0.018693252, -151781.75, -74574.14, 0.000010346408, 9.945087, 9.924242 
8.3048016e+2, 3.0204657e+2, -79196.84, -218691.17, -11879.804, -0.12795682, -0.010590643, -78192.35, -78192.35, 0.000024338526, 9.943025, 9.925277 
8.293732e+2, 3.1197533e+2, -43795.414, -138300.73, -21332.63, -0.16533284, 0.14902768, -39203.164, -39203.164, 0.000045138222, 9.940547, 9.928446 
8.282673e+2, 3.2189992e+2, -25589.828, -68188.99, -11511.935, -0.07324501, -0.11292584, -22677.908, -22677.908, 0.00006958403, 9.939441, 9.933754 
8.591587e+2, 1.3430417e+2, -1575725.5, -1624137.8, 6062.3, 0.14510052, 0.08435007, -1574977.9, 48848.01, 0.00036341642, 9.947669, 9.941725 
8.5806066e+2, 1.4424518e+2, -1494973.6, -1544979.8, 3958.668, 0.13884687, 0.051561546, -1494662.1, 31741.484, 0.00023620963, 9.946927, 9.940683 
8.5696244e+2, 1.5418552e+2, -1398693.5, -1456352.4, 15681.868, 0.10582796, 0.05737595, -1394704.4, 34283.63, 0.00012768328, 9.9470825, 9.940228 
8.5586506e+2, 1.6412541e+2, -1302485.5, -1370844.1, 6843.571, 0.099696115, 0.061252955, -1301807.0, 29769.842, 0.000054433065, 9.94722, 9.93905 
8.5476565e+2, 1.740636e+2, -1213105.1, -1293188.8, 11822.097, 0.08832372, 0.06318207, -1211396.5, 22786.148, 0.00001753889, 9.947208, 9.93776 
8.536664e+2, 1.8400113e+2, -1115108.0, -1202061.8, 8873.421, 0.0651494, 0.059980378, -1114211.8, 22582.764, 0.000004167791, 9.947365, 9.9370575 
8.5256636e+2, 1.939372e+2, -1020520.6, -1123385.4, 13637.452, 0.045972638, 0.055314604, -1018743.3, 20677.588, 0.00000072355056, 9.947789, 9.93555 
8.514664e+2, 2.0387243e+2, -921757.2, -1035130.9, 12501.406, 0.032694288, 0.053354863, -920395.06, 21660.422, 0.00000009158835, 9.948146, 9.934576 
8.503656e+2, 2.138059e+2, -830508.0, -959456.75, 14288.8545, 0.018306816, 0.050192825, -828943.6, 15763.548, 0.000000008458324, 9.948402, 9.932878 
8.4926456e+2, 2.2373849e+2, -732554.4, -870432.75, 15242.95, 0.0021239612, 0.046429023, -730889.3, 16478.182, 0.00000000058265287, 9.948691, 9.932033 
8.481627e+2, 2.3366944e+2, -640662.9, -793891.25, 14192.799, -0.010657519, 0.046887014, -639359.4, 10684.712, 0.0000000002773134, 9.948985, 9.930283 
8.470604e+2, 2.4359941e+2, -545973.2, -709326.8, 16093.065, -0.025687309, 0.04758936, -544402.8, 8327.56, 0.0000000037693595, 9.949187, 9.929186 
8.4595686e+2, 2.5352743e+2, -457645.7, -633203.25, 12838.915, -0.05011386, 0.04223134, -456711.72, -1275.9221, 0.000000041425366, 9.949201, 9.92742 
8.4485257e+2, 2.6345447e+2, -366988.38, -549461.0, 15489.035, -0.066147655, 0.040814288, -365682.94, -7532.4224, 0.0000003307569, 9.949119, 9.926412 
8.4374714e+2, 2.733802e+2, -283002.6, -470322.6, 7028.262, -0.06439172, 0.056627333, -282739.28, -21860.736, 0.0000019196316, 9.948645, 9.925069 
8.426403e+2, 2.8330508e+2, -203120.27, -385649.44, 8094.906, -0.079066105, 0.052029572, -202761.98, -39147.492, 0.000008122093, 9.947572, 9.924695 
8.4153193e+2, 2.9322883e+2, -140586.75, -308570.63, -2150.7825, -0.13973212, -0.0026448239, -140559.22, -74197.65, 0.000025306756, 9.945315, 9.92405 
8.4042275e+2, 3.0315328e+2, -72631.625, -218739.4, 882.70087, -0.16311504, 0.02080675, -72626.29, -72626.29, 0.00005952913, 9.942996, 9.924698 
8.393149e+2, 3.130811e+2, -39563.15, -143386.95, -8974.861, -0.0226482, 0.16475722, -38793.043, -38793.043, 0.000110368244, 9.940488, 9.927451 
8.3820516e+2, 3.2300702e+2, -8744.2705, -20055.762, 17005.71, -0.22033034, -0.01824899, 3521.525, 3521.525, 0.00017012702, 9.938629, 9.936973 
8.691072e+2, 1.3540456e+2, -1559411.0, -1619527.9, 2487.3582, 0.16956685, 0.07702633, -1559308.3, 53735.098, 0.00009383463, 9.949041, 9.941361 
8.6800814e+2, 1.453459e+2, -1468816.5, -1526905.3, -1867.5034, 0.10905237, 0.074802175, -1468756.6, 46861.57, 0.00006094004, 9.948557, 9.941142 
8.6691e+2, 1.5528677e+2, -1379856.9, -1440584.0, 12295.396, 0.104760386, 0.07423659, -1377461.9, 40735.363, 0.00003290037, 9.948164, 9.940874 
8.6581254e+2, 1.652273e+2, -1288020.8, -1356951.8, 2604.0017, 0.10611178, 0.07684489, -1287922.5, 32857.516, 0.000014001087, 9.9479685, 9.939702 
8.6471313e+2, 1.7516623e+2, -1195645.6, -1276753.3, 9996.474, 0.08579201, 0.08137995, -1194431.8, 28946.57, 0.0000045003767, 9.94812, 9.938514 
8.636141e+2, 1.851045e+2, -1098490.6, -1186138.6, 7280.7515, 0.06080254, 0.07943624, -1097889.9, 28093.15, 0.0000010659371, 9.948229, 9.93779 
8.625143e+2, 1.9504131e+2, -1006878.44, -1107742.8, 12407.687, 0.044075985, 0.06837088, -1005374.56, 23227.414, 0.00000018424288, 9.948405, 9.936417 
8.6141473e+2, 2.0497733e+2, -911468.3, -1022013.2, 10786.665, 0.032827817, 0.06434259, -910425.6, 20803.145, 0.000000023185766, 9.948547, 9.935355 
8.603141e+2, 2.1491173e+2, -820543.44, -945388.5, 13690.571, 0.021629186, 0.06740354, -819059.75, 14811.712, 0.0000000021246724, 9.948738, 9.93373 
8.5921335e+2, 2.2484514e+2, -724753.3, -858124.1, 15562.004, 0.0044463645, 0.06420256, -722961.6, 13562.205, 0.00000000016612903, 9.948912, 9.932808 
8.581117e+2, 2.3477675e+2, -634665.3, -782539.1, 14867.07, -0.015371808, 0.053709485, -633185.4, 6008.3955, 0.00000000051179117, 9.94908, 9.931025 
8.5700953e+2, 2.4470754e+2, -539697.94, -695670.7, 16942.996, -0.0337555, 0.053206883, -537878.7, 3993.3816, 0.000000007637945, 9.949195, 9.930109 
8.5590607e+2, 2.546366e+2, -451741.47, -619876.3, 13003.237, -0.051598966, 0.060579553, -450741.75, -6174.504, 0.000000083945466, 9.949187, 9.928296 
8.548017e+2, 2.6456434e+2, -364677.7, -543254.0, 15549.354, -0.064885564, 0.059773967, -363333.84, -16058.541, 0.0000006702643, 9.949099, 9.926784 
8.5369575e+2, 2.7449006e+2, -281408.3, -466246.97, 5953.0728, -0.06912652, 0.05776404, -281216.78, -31213.746, 0.000003889783, 9.948646, 9.925223 
8.525877e+2, 2.8441495e+2, -204442.31, -386233.22, 2029.1464, -0.08907925, 0.055497177, -204419.66, -51680.543, 0.000016460805, 9.947416, 9.924516 
8.514771e+2, 2.9433882e+2, -144356.38, -311976.84, -10911.881, -0.1418986, 0.040397283, -143649.0, -88164.055, 0.000051319832, 9.9450445, 9.923698 
8.5036576e+2, 3.042632e+2, -68137.19, -211857.13, -5373.026, -0.16345379, 0.06343333, -67936.59, -67936.59, 0.000120814846, 9.943103, 9.924887 
8.492558e+2, 3.1419012e+2, -27402.646, -134727.02, -14000.811, -0.02413633, 0.11724671, -25606.264, -25606.264, 0.00022411745, 9.941184, 9.927349 
8.48142e+2, 3.2411686e+2, -32975.516, -28256.463, -9871.933, -0.26932368, 0.017839719, -20465.994, -20465.994, 0.00034556063, 9.936478, 9.936902 
8.790559e+2, 1.3650548e+2, -1571896.3, -1625913.4, 8564.772, 0.17241699, 0.08802646, -1570570.8, 31685.066, 0.000019043677, 9.948065, 9.941312 
8.77956e+2, 1.4644721e+2, -1472300.5, -1522386.0, 4217.898, 0.07232456, 0.10483934, -1471947.8, 32879.24, 0.000012362725, 9.947808, 9.941617 
8.76858e+2, 1.5638854e+2, -1381226.0, -1434873.4, 20527.654, 0.110140875, 0.09555412, -1374272.6, 33129.11, 0.0000066696857, 9.947561, 9.941432 
8.757605e+2, 1.6632959e+2, -1286320.1, -1347529.6, 10967.086, 0.11836202, 0.09001375, -1284414.5, 25564.625, 0.000002835376, 9.947502, 9.940444 
8.746611e+2, 1.762693e+2, -1192492.1, -1265690.0, 19649.994, 0.079443716, 0.08687619, -1187550.8, 25019.092, 0.0000009100635, 9.947717, 9.939367 
8.7356216e+2, 1.8620828e+2, -1096136.6, -1178016.3, 16090.683, 0.05187925, 0.08723598, -1093088.0, 22079.395, 0.00000021513608, 9.9478445, 9.938428 
8.7246263e+2, 1.9614594e+2, -1003277.9, -1097363.6, 21915.65, 0.045327477, 0.086806424, -998423.44, 19354.764, 0.000000037089958, 9.948029, 9.93722 
8.7136316e+2, 2.060829e+2, -905436.4, -1007072.44, 20556.2, 0.035715234, 0.08318728, -901436.25, 18959.533, 0.0000000046516857, 9.94817, 9.936458 
8.702626e+2, 2.1601838e+2, -813392.06, -928910.75, 24730.074, 0.017401744, 0.07993433, -808320.56, 14707.318, 0.0000000004243601, 9.948382, 9.934913 
8.69162e+2, 2.2595297e+2, -717052.9, -841016.75, 27720.873, -0.0008187534, 0.078664705, -711136.3, 14532.289, 0.000000000071721434, 9.948544, 9.934007 
8.680605e+2, 2.3588587e+2, -626567.8, -764354.8, 28847.912, -0.018125247, 0.07477807, -620771.9, 7553.996, 0.0000000009082265, 9.948669, 9.932269 
8.669585e+2, 2.4581786e+2, -530505.25, -676932.4, 33109.695, -0.03324761, 0.072389744, -523366.63, 7625.6543, 0.000000013717135, 9.94882, 9.931351 
8.658551e+2, 2.557481e+2, -439567.25, -599868.75, 30006.59, -0.04772655, 0.074623324, -434134.5, -458.6783, 0.00000015076724, 9.948964, 9.929501 
8.6475074e+2, 2.6567703e+2, -350389.72, -522618.47, 35653.69, -0.06353343, 0.07218169, -343300.72, -6928.618, 0.0000012040975, 9.9489765, 9.92791 
8.636443e+2, 2.7560365e+2, -263776.47, -446368.8, 29235.281, -0.079153836, 0.06347126, -259209.77, -20118.44, 0.000006992764, 9.948787, 9.926017 
8.625354e+2, 2.8552908e+2, -177397.66, -368390.63, 25742.719, -0.09539094, 0.06862806, -173988.8, -32166.813, 0.000029645516, 9.948376, 9.924563 
8.614229e+2, 2.9545304e+2, -106441.26, -292373.38, 12961.851, -0.12579282, 0.08423823, -105542.0, -60975.027, 0.00009271142, 9.946877, 9.923343 
8.603091e+2, 3.053769e+2, -44181.137, -193951.7, 15141.209, -0.1539668, 0.081304945, -42665.754, -42665.754, 0.00021904535, 9.943749, 9.924989 
8.5919595e+2, 3.1530285e+2, -42252.973, -139255.52, 3190.242, -0.07194338, 0.026366955, -42148.164, -42148.164, 0.0004076256, 9.939282, 9.927211 
8.5807866e+2, 3.2523015e+2, -56393.242, -58149.363, -13305.591, -0.1652587, 0.08177454, -43936.773, -43936.773, 0.00062983576, 9.934372, 9.934794 
8.890047e+2, 1.3760665e+2, -1541890.9, -1587294.0, 7002.5967, 0.19811286, 0.13361983, -1540835.4, 50631.027, 0.000002958578, 9.949271, 9.943464 
8.8790417e+2, 1.4754897e+2, -1452613.0, -1506727.9, -286.97977, 0.0646926, 0.099989496, -1452611.5, 41419.63, 0.0000019202917, 9.94892, 9.942138 
8.868061e+2, 1.5749115e+2, -1360985.5, -1418838.6, 18452.064, 0.11728544, 0.11516584, -1355601.4, 40996.387, 0.0000010355539, 9.948718, 9.94201 
8.857085e+2, 1.6743279e+2, -1266395.8, -1330809.5, 8500.897, 0.12077534, 0.1112338, -1265292.8, 33876.703, 0.0000004399312, 9.948616, 9.941096 
8.8460904e+2, 1.7737322e+2, -1174055.5, -1247904.4, 17082.738, 0.071175076, 0.100404054, -1170295.4, 31457.607, 0.00000014107277, 9.948649, 9.940222 
8.835101e+2, 1.8731306e+2, -1081654.8, -1161419.5, 13959.793, 0.045809407, 0.10018789, -1079282.3, 25060.031, 0.00000003330806, 9.948457, 9.939314 
8.824108e+2, 1.9725172e+2, -991349.1, -1080484.8, 21961.904, 0.04748974, 0.10433506, -986231.8, 20711.38, 0.0000000057331504, 9.948406, 9.938209 
8.813115e+2, 2.071897e+2, -893453.2, -988958.75, 20695.42, 0.03608294, 0.10109597, -889161.5, 20389.266, 0.00000000071752804, 9.948507, 9.937556 
8.8021106e+2, 2.1712635e+2, -800293.5, -908374.1, 24291.72, 0.011041637, 0.092258915, -795084.8, 17086.523, 0.00000000006547386, 9.948713, 9.936199 
8.791105e+2, 2.270623e+2, -705648.75, -820190.94, 26751.1, -0.0079133175, 0.095152624, -699709.1, 15089.626, 0.0000000000751049, 9.948699, 9.935404 
8.780092e+2, 2.3699681e+2, -616963.06, -743266.5, 27663.85, -0.020222368, 0.10171535, -611169.7, 6270.7515, 0.0000000014740116, 9.948655, 9.9337635 
8.769073e+2, 2.469302e+2, -522445.44, -656523.94, 32861.656, -0.031371538, 0.09435047, -514824.47, 5268.53, 0.000000022289091, 9.948707, 9.932857 
8.758041e+2, 2.5686178e+2, -432326.16, -579369.2, 29338.715, -0.04309759, 0.08139333, -426688.5, -3925.3882, 0.00000024496487, 9.9487705, 9.93101 
8.7469965e+2, 2.6679248e+2, -341672.66, -497831.44, 35553.22, -0.06824161, 0.081880204, -333959.13, -8517.068, 0.0000019576619, 9.948719, 9.92972 
8.735929e+2, 2.7672085e+2, -255111.3, -423813.4, 29204.22, -0.098515965, 0.086100146, -250198.77, -22054.8, 0.000011400731, 9.948634, 9.927562 
8.7248397e+2, 2.8664756e+2, -168756.72, -352989.28, 24660.994, -0.09480836, 0.0847395, -165512.77, -34650.54, 0.000048632028, 9.948574, 9.925345 
8.7137085e+2, 2.9657176e+2, -93724.56, -281648.44, 11012.449, -0.08148805, 0.0836125, -93081.43, -59476.598, 0.00015357247, 9.947582, 9.923498 
8.702531e+2, 3.064947e+2, -47229.605, -202561.3, -6326.337, -0.14259748, 0.074750744, -46972.37, -46972.37, 0.00036699965, 9.943463, 9.924042 
8.6913294e+2, 3.1641996e+2, -73362.43, -161022.5, -20360.158, -0.15364286, 0.018750306, -68864.336, -68864.336, 0.00068988913, 9.937037, 9.926387 
8.68013e+2, 3.2634863e+2, -45570.613, -35295.86, -9119.635, -0.14083634, 0.128802, -29966.127, -29966.127, 0.001073521, 9.934277, 9.936137 
8.989536e+2, 1.3870798e+2, -1541115.5, -1565761.9, 14783.064, 0.20436865, 0.14748421, -1534192.9, 46482.316, 0.00000034527207, 9.948377, 9.945268 
8.978527e+2, 1.4865103e+2, -1460616.8, -1503803.0, 2827.1577, 0.06413858, 0.092341766, -1460432.5, 22800.176, 0.00000022408217, 9.947933, 9.942725 
8.9675456e+2, 1.585941e+2, -1365342.9, -1415076.1, 23988.225, 0.12171676, 0.13873684, -1355658.4, 30132.17, 0.00000012080618, 9.9480295, 9.942535 
8.956569e+2, 1.6853628e+2, -1269451.3, -1326043.9, 14062.371, 0.11791829, 0.13800612, -1266149.6, 22207.566, 0.000000051297388, 9.948001, 9.941641 
8.945574e+2, 1.7847733e+2, -1173740.0, -1238154.1, 22722.398, 0.06334368, 0.12397104, -1166531.4, 24403.205, 0.00000001643881, 9.948098, 9.941081 
8.9345837e+2, 1.884182e+2, -1078475.9, -1145843.6, 19302.252, 0.043061227, 0.117240764, -1073337.3, 20176.39, 0.000000003877973, 9.947886, 9.94056 
8.92359e+2, 1.9835809e+2, -988767.25, -1065287.8, 28855.115, 0.050120875, 0.11506988, -979106.06, 16996.197, 0.00000000066676814, 9.947809, 9.939444 
8.9125973e+2, 2.0829713e+2, -892617.1, -977855.5, 28661.477, 0.037173007, 0.11709521, -883876.06, 14823.387, 0.00000000008333369, 9.94794, 9.938507 
8.901595e+2, 2.1823496e+2, -797559.3, -893785.94, 32049.863, 0.008851908, 0.11667816, -787861.9, 13446.786, 0.000000000010516922, 9.948131, 9.937393 
8.890589e+2, 2.281721e+2, -703722.1, -804078.94, 33746.918, -0.009269508, 0.11090464, -693429.6, 10494.842, 0.000000000098867345, 9.947916, 9.936791 
8.879573e+2, 2.3810801e+2, -616320.8, -725154.9, 35512.734, -0.020031637, 0.10766377, -605758.1, 794.04047, 0.0000000020481026, 9.947635, 9.935399 
8.868553e+2, 2.4804321e+2, -522332.03, -635283.75, 43226.082, -0.033131942, 0.10713362, -507688.16, 1498.75, 0.0000000309748, 9.94746, 9.934796 
8.8575196e+2, 2.5797692e+2, -433899.84, -556593.7, 42103.984, -0.047515914, 0.10112931, -420841.2, -9004.812, 0.0000003404844, 9.947214, 9.933147 
8.846472e+2, 2.6791003e+2, -341796.75, -467389.4, 51952.332, -0.071483076, 0.09971236, -323092.03, -8600.443, 0.0000027257568, 9.946823, 9.932526 
8.835402e+2, 2.7784124e+2, -258522.06, -394874.8, 51033.477, -0.10199119, 0.10555596, -241537.2, -24371.64, 0.000015971164, 9.94635, 9.930324 
8.8243127e+2, 2.8777087e+2, -170785.22, -316290.22, 55618.664, -0.08899843, 0.098085135, -151960.64, -32105.662, 0.000069086105, 9.945887, 9.928523 
8.8131756e+2, 2.9769748e+2, -95163.59, -260721.19, 59347.246, -0.06120931, 0.07944962, -76087.48, -53513.51, 0.00022324533, 9.945226, 9.925159 
8.8019615e+2, 3.0762094e+2, -27872.89, -197406.36, 41970.453, -0.15916356, 0.087266035, -18051.475, -18051.475, 0.0005485991, 9.943131, 9.92288 
8.7907016e+2, 3.1754392e+2, -26678.834, -158114.47, 20348.727, -0.22783907, 0.07150415, -23600.56, -23600.56, 0.0010574318, 9.939824, 9.923557 
8.779488e+2, 3.2747182e+2, 17571.8, 25245.406, 21317.113, -0.13704781, 0.16088437, 43068.254, 43068.254, 0.001674894, 9.936962, 9.9380245 
9.0890205e+2, 1.3980973e+2, -1527655.3, -1565889.9, 7515.198, 0.15339498, 0.18309426, -1526231.1, 43648.414, 0.000000029867618, 9.949528, 9.944692 
9.07801e+2, 1.4975327e+2, -1438461.8, -1481991.8, -547.34015, 0.05281929, 0.12172344, -1438454.9, 33977.742, 0.000000019382966, 9.949031, 9.943777 
9.067032e+2, 1.5969725e+2, -1340638.6, -1393004.8, 21802.982, 0.12492273, 0.1591067, -1332749.4, 42232.027, 0.000000010447276, 9.949328, 9.943478 
9.0560514e+2, 1.696403e+2, -1250521.8, -1305968.3, 12690.389, 0.118508235, 0.15553537, -1247755.3, 29783.988, 0.000000004434464, 9.9488325, 9.942589 
9.0450555e+2, 1.7958237e+2, -1162067.8, -1221238.6, 23959.791, 0.060462084, 0.14222589, -1153582.6, 26524.254, 0.0000000014203173, 9.94843, 9.942015 
9.0340644e+2, 1.8952414e+2, -1062339.4, -1126668.4, 19002.713, 0.04026295, 0.13570248, -1057145.4, 25531.684, 0.00000000033482794, 9.948536, 9.941561 
9.023071e+2, 1.9946519e+2, -967750.44, -1042584.44, 26716.992, 0.04896027, 0.13023578, -959191.0, 26063.557, 0.000000000057520166, 9.948742, 9.940613 
9.012078e+2, 2.0940533e+2, -877131.9, -958466.06, 27058.559, 0.035879437, 0.13560843, -868952.5, 18888.373, 0.0000000000071813653, 9.948534, 9.939602 
9.001077e+2, 2.1934442e+2, -785422.06, -873283.7, 30597.627, 0.0071024145, 0.13958542, -775816.6, 14620.94, 0.00000000000428494, 9.948363, 9.938711 
8.9900684e+2, 2.2928281e+2, -690173.06, -781544.2, 31501.832, -0.01052904, 0.12402423, -680365.06, 12676.022, 0.00000000010849106, 9.948171, 9.93823 
8.97905e+2, 2.3922026e+2, -599249.4, -696352.6, 33033.773, -0.02025276, 0.10672797, -589077.1, 6576.5137, 0.000000002258234, 9.947943, 9.937248 
8.968027e+2, 2.4915764e+2, -504989.03, -602158.44, 40532.305, -0.039446704, 0.12038395, -490301.75, 7965.37, 0.000000034158017, 9.947625, 9.937029 
8.9569896e+2, 2.5909397e+2, -416456.75, -519497.78, 38514.543, -0.060545214, 0.13272794, -403652.03, -2761.0085, 0.00000037566133, 9.947207, 9.93573 
8.94594e+2, 2.6902992e+2, -320447.4, -419149.44, 49182.836, -0.070423916, 0.12077706, -300124.38, 3394.3088, 0.00000301649, 9.946673, 9.935976 
8.9348674e+2, 2.7896452e+2, -236051.8, -343053.84, 47483.93, -0.0817905, 0.11170107, -218019.03, -11859.813, 0.000017853601, 9.946197, 9.933949 
8.923769e+2, 2.8889868e+2, -132870.89, -234345.25, 48507.906, -0.103255466, 0.11139559, -113413.49, -4609.229, 0.000079075995, 9.945813, 9.933996 
8.912617e+2, 2.9883057e+2, -63626.344, -188072.27, 60133.78, -0.12919994, 0.103294365, -39317.41, -27845.918, 0.00026623905, 9.944869, 9.930322 
8.901391e+2, 3.087598e+2, -2046.279, -144896.47, 42361.35, -0.16719899, 0.14799973, 9570.953, 9570.953, 0.00069019, 9.942862, 9.926158 
8.8901186e+2, 3.186825e+2, -32455.086, -205740.61, 29163.97, -0.12886505, 0.15348203, -27678.455, -27678.455, 0.0014013384, 9.941006, 9.918861 
8.8788515e+2, 3.2860056e+2, -24679.688, -44763.49, -5457.217, -0.12454552, 0.017059797, -23292.633, -23292.633, 0.0023083058, 9.9356365, 9.933071 
9.1885084e+2, 1.4091125e+2, -1541989.5, -1574207.0, 6997.231, 0.1403835, 0.20317437, -1540535.5, 18550.79, 0.000000001903787, 9.948426, 9.944432 
9.1774946e+2, 1.5085556e+2, -1443797.8, -1472951.0, 6133.5103, 0.038573727, 0.15738286, -1442559.9, 19071.98, 0.0000000012354053, 9.948182, 9.944718 
9.166522e+2, 1.6080035e+2, -1343696.0, -1382544.9, 24895.025, 0.12837085, 0.17453241, -1331544.0, 32628.855, 0.00000000066574474, 9.948567, 9.944498 
9.1555375e+2, 1.707445e+2, -1250416.8, -1291636.1, 12956.45, 0.12241494, 0.16762936, -1246682.5, 20037.459, 0.0000000002824927, 9.948142, 9.943826 
9.144538e+2, 1.8068777e+2, -1163350.3, -1211831.9, 25918.432, 0.062678955, 0.15698004, -1152103.4, 17172.184, 0.00000000009044054, 9.947875, 9.942884 
9.133548e+2, 1.9063015e+2, -1065183.9, -1122988.8, 22405.229, 0.035105877, 0.15944251, -1057516.6, 14323.404, 0.000000000021308946, 9.948127, 9.942012 
9.122557e+2, 2.0057191e+2, -965792.9, -1031131.94, 28130.652, 0.0382012, 0.16005155, -955350.56, 19059.973, 0.000000000003658245, 9.948382, 9.9415655 
9.111561e+2, 2.1051309e+2, -875003.25, -942874.75, 27357.246, 0.03243735, 0.15150464, -865349.4, 11637.215, 0.00000000000045636807, 9.947978, 9.940904 
9.1005564e+2, 2.2045349e+2, -786255.7, -858088.6, 31882.254, 0.009382404, 0.14560094, -774146.44, 5424.0054, 0.0000000000030655227, 9.947573, 9.940097 
9.0895474e+2, 2.3039328e+2, -690130.3, -767300.75, 33708.164, -0.013172124, 0.14632767, -677480.2, 4680.057, 0.0000000000903565, 9.947533, 9.939496 
9.0785265e+2, 2.4033232e+2, -595452.94, -676869.75, 33815.477, -0.027199697, 0.14167783, -583240.06, 1517.2396, 0.0000000018811002, 9.947376, 9.938831 
9.067499e+2, 2.502711e+2, -506429.66, -585481.56, 38510.508, -0.039790772, 0.14050446, -490770.84, -3413.7441, 0.000000028451819, 9.946671, 9.938663 
9.0564555e+2, 2.6020932e+2, -420119.47, -498915.53, 34426.414, -0.05707792, 0.14355728, -407197.47, -17235.07, 0.00000031314025, 9.945873, 9.937884 
9.0454006e+2, 2.7014738e+2, -321051.9, -396939.9, 40630.332, -0.0714206, 0.13742708, -303403.0, -10833.956, 0.0000025239594, 9.945535, 9.938336 
9.034319e+2, 2.800851e+2, -236063.84, -308070.56, 32607.994, -0.08243405, 0.12753025, -223492.28, -28313.102, 0.000015124688, 9.944441, 9.937645 
9.0232164e+2, 2.900233e+2, -130430.88, -192200.19, 28499.313, -0.10760156, 0.119156934, -119290.87, -21506.094, 0.00006901787, 9.943914, 9.938714 
9.0120465e+2, 2.9996184e+2, -47904.83, -96161.35, 30090.076, -0.15302147, 0.13433851, -33463.86, -33076.707, 0.00024569064, 9.941697, 9.938926 
9.288017e+2, 1.4201371e+2, -1507748.1, -1539761.1, 1730.5171, 0.31292728, 0.127434, -1507654.9, 40629.207, 0.00000000008526822, 9.949685, 9.945838 
9.2769784e+2, 1.5195934e+2, -1423849.5, -1458663.4, 12076.763, 0.008016338, 0.17565003, -1420070.4, 30746.225, 0.00000000005532455, 9.949367, 9.944973 
9.266012e+2, 1.619044e+2, -1330578.0, -1370993.0, 27792.459, 0.14759406, 0.18711007, -1316423.3, 36931.742, 0.000000000029806633, 9.949243, 9.944847 
9.255023e+2, 1.7184906e+2, -1230325.3, -1273627.6, 13020.323, 0.12317028, 0.18314072, -1226711.9, 29185.088, 0.000000000012643394, 9.949163, 9.944539 
9.244021e+2, 1.817932e+2, -1138940.9, -1190949.6, 24024.965, 0.053396046, 0.1744998, -1129541.5, 28902.492, 0.0000000000040459667, 9.949164, 9.943729 
9.233031e+2, 1.9173634e+2, -1050166.6, -1107248.1, 23809.012, 0.030725157, 0.17902482, -1041539.56, 19461.422, 0.000000000000952743, 9.948829, 9.942732 
9.222041e+2, 2.0167898e+2, -954334.9, -1013405.0, 29745.082, 0.03542319, 0.18133612, -941952.25, 21610.855, 0.00000000000016345195, 9.948658, 9.942563 
9.2110425e+2, 2.1162117e+2, -858329.7, -920879.75, 27000.5, 0.030663952, 0.16538298, -848286.94, 17842.23, 0.000000000000020373985, 9.948516, 9.942097 
9.200034e+2, 2.2156283e+2, -766393.2, -833629.06, 31126.104, 0.009290598, 0.15386064, -754196.25, 14504.1875, 0.0000000000018606304, 9.948328, 9.941388 
9.189023e+2, 2.3150404e+2, -673360.25, -744744.2, 33175.855, -0.019254653, 0.17508397, -660322.8, 10953.919, 0.000000000055557395, 9.948116, 9.940757 
9.178e+2, 2.4144469e+2, -579646.75, -652659.06, 31346.955, -0.03588023, 0.18517353, -568035.06, 5823.298, 0.0000000011563022, 9.947769, 9.940272 
9.1669667e+2, 2.5138447e+2, -490718.03, -562303.3, 34791.492, -0.03474321, 0.15674718, -476595.13, -147.29485, 0.000000017486771, 9.947077, 9.940026 
9.155916e+2, 2.6132417e+2, -402722.6, -471204.44, 31235.887, -0.044321008, 0.13782892, -390615.7, -11577.137, 0.00000019261098, 9.946298, 9.93957 
9.1448545e+2, 2.7126378e+2, -307802.25, -376213.56, 36497.176, -0.08778117, 0.15864313, -291987.2, -10356.656, 0.000001557747, 9.945931, 9.939569 
9.133761e+2, 2.8120387e+2, -213273.02, -267107.38, 24552.178, -0.11468693, 0.16569646, -203757.47, -19540.129, 0.000009437413, 9.944707, 9.940293 
9.1226614e+2, 2.911434e+2, -121358.71, -176155.47, 31252.854, -0.062905006, 0.11431102, -107194.94, -20385.785, 0.00004425717, 9.944136, 9.940031 
9.111474e+2, 3.0108598e+2, -13545.685, -41408.094, 31205.861, -0.13447143, 0.19946742, 6697.4316, 6697.4316, 0.00016661992, 9.943664, 9.941859 
9.387493e+2, 1.4311793e+2, -1524939.8, -1538154.9, -1926.4335, 0.18682075, 0.20225309, -1524664.6, 12799.979, 0.0000000000029415736, 9.948122, 9.946798 
9.376467e+2, 1.5306318e+2, -1434345.8, -1461893.3, 9460.028, -0.0135627845, 0.18547405, -1431409.9, 8590.849, 0.0000000000019083366, 9.9486265, 9.945185 
9.3655056e+2, 1.6300842e+2, -1337863.4, -1373151.9, 25028.225, 0.17427248, 0.19915633, -1324885.3, 17651.807, 0.0000000000010279229, 9.948765, 9.944973 
9.3545127e+2, 1.7295331e+2, -1236093.3, -1273485.5, 11374.674, 0.11656628, 0.20140399, -1232904.9, 12172.126, 0.0000000000004359048, 9.94875, 9.944791 
9.3435097e+2, 1.8289804e+2, -1137881.6, -1178665.9, 21123.197, 0.03151679, 0.19287845, -1128913.4, 18705.018, 0.0000000000001394446, 9.948804, 9.9447565 
9.332519e+2, 1.9284225e+2, -1047818.25, -1092236.6, 20633.797, 0.03602322, 0.18460354, -1039712.4, 10452.54, 0.00000000000003282296, 9.948457, 9.943936 
9.3215275e+2, 2.0278595e+2, -954867.25, -1003413.8, 27797.828, 0.05428815, 0.18467636, -942236.44, 10479.773, 0.0000000000000056283993, 9.948291, 9.943429 
9.3105274e+2, 2.1272905e+2, -857055.2, -911885.94, 24750.021, 0.028298741, 0.18947871, -847535.94, 7737.83, 0.00000000000000070118843, 9.948385, 9.942806 
9.299518e+2, 2.2267167e+2, -760644.25, -819257.94, 26667.508, -0.006126306, 0.18710022, -750327.25, 7508.4424, 0.00000000000083497646, 9.948359, 9.942396 
9.288505e+2, 2.3261364e+2, -669932.7, -731575.1, 27426.402, -0.021957057, 0.18646231, -659496.7, 907.5801, 0.0000000000249549, 9.948017, 9.941754 
9.2774785e+2, 2.4255532e+2, -576221.44, -637918.2, 23925.14, -0.030463263, 0.1876733, -568030.94, -5055.354, 0.00000000051935445, 9.947659, 9.941397 
9.266441e+2, 2.5249618e+2, -480584.06, -546938.94, 25855.695, -0.03614323, 0.17418396, -471698.94, -6144.1704, 0.0000000078541085, 9.947615, 9.940901 
9.255385e+2, 2.6243705e+2, -385756.9, -449330.53, 18986.584, -0.051431395, 0.16333777, -380518.16, -12384.008, 0.00000008654337, 9.947251, 9.940698 
9.2443174e+2, 2.723774e+2, -299451.22, -363946.22, 24025.0, -0.10267625, 0.1875207, -291485.5, -20767.05, 0.0000007013428, 9.946699, 9.940107 
9.233216e+2, 2.8231835e+2, -191392.27, -244051.94, 676.06885, -0.12971915, 0.19297488, -191383.6, -18086.393, 0.0000042783217, 9.94646, 9.941143 
9.2221165e+2, 2.9225805e+2, -101853.27, -166843.11, 3779.1162, -0.023792466, 0.13751557, -101634.26, -25746.951, 0.00002042177, 9.946728, 9.939832 
9.2109454e+2, 3.0219907e+2, 24435.596, -56121.996, 14076.816, -0.18218641, 0.15819588, 26824.564, 26824.564, 0.00007993033, 9.950894, 9.938691 
9.4869727e+2, 1.4422184e+2, -1495133.8, -1500525.8, 3566.9126, 0.109323315, 0.34087753, -1493358.6, 33289.1, 0.0, 9.949306, 9.948872 
9.475963e+2, 1.5416625e+2, -1414798.0, -1450387.8, 11532.882, 0.03264348, 0.19984426, -1411387.5, 17804.748, 0.0, 9.949902, 9.945437 
9.464998e+2, 1.6411209e+2, -1314446.6, -1354082.1, 23850.094, 0.17228949, 0.22954865, -1303255.3, 28467.547, 0.0, 9.949979, 9.945657 
9.454001e+2, 1.7405759e+2, -1221233.5, -1257153.1, 14942.306, 0.10738644, 0.21978146, -1215830.4, 18426.367, 0.0, 9.9493475, 9.945518 
9.4429976e+2, 1.8400307e+2, -1125419.4, -1161974.9, 25359.297, 0.022496276, 0.20693152, -1112437.4, 24353.479, 0.0, 9.949182, 9.945571 
9.4320065e+2, 1.939481e+2, -1027878.6, -1071665.9, 22489.03, 0.039580684, 0.1996226, -1018386.1, 20942.924, 0.0, 9.949344, 9.944858 
9.421015e+2, 2.0389272e+2, -935006.3, -985273.7, 28352.137, 0.06346505, 0.20006138, -922251.4, 19620.17, 0.0, 9.949289, 9.944161 
9.410013e+2, 2.1383658e+2, -842723.7, -896765.94, 26681.28, 0.022122672, 0.21633391, -831770.7, 12650.952, 0.0, 9.949041, 9.943484 
9.399001e+2, 2.2378005e+2, -747336.5, -802194.4, 27651.078, -0.01964004, 0.21554458, -735817.7, 11157.88, 0.00000000000028468902, 9.948818, 9.943259 
9.387986e+2, 2.3372257e+2, -655525.4, -714088.1, 28390.656, -0.021149514, 0.18895929, -644021.56, 5516.641, 0.000000000008157955, 9.94856, 9.942605 
9.376957e+2, 2.4366505e+2, -562058.44, -620921.0, 25222.652, -0.02361968, 0.18155117, -552729.2, -627.63556, 0.00000000016979894, 9.948239, 9.942199 
9.365917e+2, 2.5360692e+2, -469353.44, -533338.94, 27386.764, -0.04745934, 0.20297214, -459232.4, -4561.1616, 0.0000000025679472, 9.948097, 9.941528 
9.3548554e+2, 2.6354873e+2, -374339.25, -433077.38, 17542.008, -0.07223014, 0.20992863, -369499.2, -12257.725, 0.000000028296595, 9.947586, 9.941545 
9.3437845e+2, 2.734895e+2, -293208.88, -354981.25, 23429.318, -0.10617413, 0.20830086, -285327.97, -25506.291, 0.00000022950282, 9.946901, 9.940583 
9.3326813e+2, 2.8343052e+2, -191038.77, -244180.77, 3159.6846, -0.12836963, 0.19913834, -190851.55, -28451.93, 0.0000014045202, 9.946639, 9.9410095 
9.321589e+2, 2.9337066e+2, -92699.48, -165159.92, 13082.18, -0.046546, 0.21435721, -90409.93, -25424.188, 0.000006759484, 9.947638, 9.939451 
9.3104434e+2, 3.0330905e+2, 4105.4253, -64874.957, 27974.266, -0.19824474, 0.14574417, 14023.937, 14023.937, 0.000026932837, 9.948684, 9.939127 
9.586468e+2, 1.4532228e+2, -1507650.0, -1507496.9, -2785.9143, 0.17827807, 0.17117423, -1504786.5, 11078.4, 0.0, 9.948621, 9.9488735 
9.575466e+2, 1.5526868e+2, -1422822.1, -1453132.3, 9159.638, 0.07966917, 0.22517584, -1420269.1, -1879.0352, 0.0, 9.949542, 9.945598 
9.5644945e+2, 1.6521528e+2, -1314876.6, -1341521.5, 15764.011, 0.14935961, 0.2688176, -1307559.5, 13353.715, 0.0, 9.94952, 9.946755 
9.553494e+2, 1.7516172e+2, -1218321.3, -1241669.6, 8148.3804, 0.10271259, 0.23545128, -1215758.8, 7679.1265, 0.0, 9.949085, 9.946757 
9.54249e+2, 1.8510807e+2, -1125907.8, -1156962.3, 20590.963, 0.027299657, 0.22210285, -1115645.8, 10317.748, 0.0, 9.949161, 9.946012 
9.5315015e+2, 1.950537e+2, -1026002.06, -1066304.6, 17730.191, 0.03012042, 0.23863521, -1019312.44, 9183.671, 0.0, 9.949543, 9.945233 
9.52051e+2, 2.0499885e+2, -928032.1, -972526.1, 20322.137, 0.05021925, 0.23681591, -920147.44, 10885.731, 0.0, 9.949578, 9.944962 
9.5095056e+2, 2.1494323e+2, -835701.8, -883015.4, 18974.125, 0.024261337, 0.21935698, -829032.7, 4545.403, 0.0, 9.949315, 9.944362 
9.498493e+2, 2.2488756e+2, -738675.06, -786862.56, 20291.137, -0.012662818, 0.21275355, -731269.0, 4854.478, 0.000000000000067652664, 9.949226, 9.944175 
9.487477e+2, 2.3483114e+2, -642637.2, -697965.3, 20888.92, -0.02313757, 0.2109439, -635636.5, 3039.384, 0.0000000000019384904, 9.949357, 9.943388 
9.4764453e+2, 2.4477443e+2, -546104.4, -603513.44, 16180.87, -0.028531581, 0.20708457, -541857.9, -626.5415, 0.000000000040347756, 9.949288, 9.942927 
9.465404e+2, 2.5471678e+2, -455214.75, -518163.75, 18440.438, -0.049266443, 0.21300542, -450210.6, -6414.404, 0.0000000006101943, 9.949155, 9.942074 
9.454339e+2, 2.6465905e+2, -355106.94, -416140.97, 6386.275, -0.074098006, 0.21634725, -354445.88, -8084.2124, 0.000000006724211, 9.949095, 9.9419565 
9.4432646e+2, 2.7460006e+2, -265321.13, -334355.38, 12179.75, -0.10197539, 0.2036391, -263235.28, -14295.793, 0.000000054552586, 9.949117, 9.940887 
9.4321626e+2, 2.8454098e+2, -161373.4, -228323.48, -4826.4043, -0.121017925, 0.19135812, -161027.27, -9508.798, 0.0000003341785, 9.949372, 9.940723 
9.4210756e+2, 2.9448104e+2, -81277.98, -162589.23, 6847.4067, -0.057339367, 0.24073112, -80705.375, -26599.268, 0.0000016125001, 9.949479, 9.938666 
9.409932e+2, 3.0441946e+2, 42358.188, -17169.484, -654.6678, -0.19472499, 0.23185422, 42365.387, 42365.387, 0.0000064614287, 9.949807, 9.941744 
9.685966e+2, 1.4642325e+2, -1483509.9, -1508647.4, 19273.13, 0.14202636, 0.27163637, -1473069.4, 32007.693, 0.0, 9.951435, 9.947973 
9.674964e+2, 1.5636994e+2, -1405693.0, -1430351.3, 8340.713, 0.09471413, 0.21809953, -1403136.8, 4462.542, 0.0, 9.94995, 9.94692 
9.663984e+2, 1.6631776e+2, -1309224.5, -1329204.9, 17928.668, 0.1118514, 0.2788289, -1298690.5, 11419.907, 0.0, 9.949467, 9.947547 
9.652988e+2, 1.7626502e+2, -1199809.8, -1223021.1, 9889.061, 0.09929145, 0.24568875, -1196168.0, 16459.145, 0.0, 9.949926, 9.947628 
9.6419865e+2, 1.8621211e+2, -1107619.5, -1141307.8, 22315.2, 0.037121553, 0.23037262, -1096504.9, 18640.502, 0.0, 9.950116, 9.946602 
9.630998e+2, 1.9615836e+2, -1015816.5, -1054758.0, 21944.086, 0.027529316, 0.25605562, -1005950.4, 11721.636, 0.0, 9.949947, 9.945761 
9.620005e+2, 2.0610419e+2, -918184.6, -958229.8, 23845.508, 0.043203104, 0.25382617, -907070.2, 13132.552, 0.0, 9.949796, 9.945705 
9.609e+2, 2.1604912e+2, -823473.4, -867254.06, 22928.488, 0.026025206, 0.21797949, -813663.5, 9078.493, 0.0, 9.949697, 9.945138 
9.5979863e+2, 2.2599424e+2, -727442.44, -772328.6, 24264.875, -0.008663503, 0.21388172, -716832.9, 8446.627, 0.0000000000000117120025, 9.949601, 9.944891 
9.58697e+2, 2.359388e+2, -634541.44, -685967.3, 24553.135, -0.029260475, 0.24051808, -624701.44, 3121.3352, 0.0000000000003355644, 9.949562, 9.944031 
9.575938e+2, 2.4588268e+2, -538690.1, -592111.7, 18677.096, -0.035190858, 0.23097834, -532808.0, -2435.6658, 0.0000000000069838328, 9.949438, 9.943534 
9.564897e+2, 2.5582522e+2, -447806.78, -507268.84, 21470.842, -0.0425822, 0.19818443, -440864.53, -7929.644, 0.00000000010561558, 9.94934, 9.942639 
9.553831e+2, 2.6576784e+2, -350253.06, -409914.6, 9412.456, -0.06741462, 0.19543223, -348803.34, -13306.501, 0.0000000011640542, 9.949266, 9.942216 
9.542756e+2, 2.757093e+2, -260161.5, -327173.5, 14766.498, -0.104537174, 0.19406185, -257051.9, -18981.332, 0.000000009444971, 9.949288, 9.941227 
9.5316565e+2, 2.856505e+2, -159036.47, -221357.33, -4120.3413, -0.10670243, 0.1728035, -158765.23, -18118.324, 0.000000057857413, 9.94918, 9.9412775 
9.520568e+2, 2.955909e+2, -88314.04, -160026.81, 9045.307, -0.016626086, 0.19362499, -87190.73, -43959.707, 0.00000027926637, 9.948579, 9.93922 
9.5094365e+2, 3.0552903e+2, 35413.05, -43408.05, 1528.9622, -0.15883423, 0.1990075, 35442.7, 35442.7, 0.0000011202083, 9.95005, 9.939843 
9.7854835e+2, 1.4752242e+2, -1486762.6, -1495403.1, -2345.078, 0.19735897, 0.28601894, -1486167.3, 8139.743, 0.0, 9.950329, 9.949224 
9.774462e+2, 1.5747043e+2, -1398632.5, -1408203.8, -1746.088, 0.09284549, 0.19338654, -1398323.9, -1507.9261, 0.0, 9.949693, 9.948619 
9.763475e+2, 1.6741966e+2, -1306576.8, -1321397.1, 12044.228, 0.06421399, 0.28556293, -1299845.8, -532.3246, 0.0, 9.949658, 9.948108 
9.752489e+2, 1.773676e+2, -1195849.1, -1213741.6, 4492.8853, 0.10044602, 0.26081553, -1194784.4, 7039.2847, 0.0, 9.950199, 9.948273 
9.741492e+2, 1.8731532e+2, -1100612.5, -1127455.6, 13305.177, 0.05446119, 0.2293081, -1095135.3, 9200.494, 0.0, 9.950415, 9.947495 
9.7305006e+2, 1.9726229e+2, -1008013.75, -1039969.4, 12880.455, 0.039727144, 0.23565406, -1003468.5, 3386.5872, 0.0, 9.950289, 9.946702 
9.7195065e+2, 2.0720929e+2, -909484.44, -943674.94, 15262.113, 0.045861453, 0.26149675, -903662.94, 5711.321, 0.0, 9.950273, 9.94656 
9.7085e+2, 2.171555e+2, -812342.44, -852626.1, 14737.99, 0.009867784, 0.27348086, -807526.25, 4374.957, 0.0, 9.950416, 9.945883 
9.6974856e+2, 2.2710118e+2, -716355.9, -760024.75, 14688.463, -0.026934395, 0.2644107, -711875.0, 2558.2095, 0.0000000000000014914695, 9.950412, 9.945425 
9.6864694e+2, 2.3704596e+2, -623603.8, -673050.7, 14565.715, -0.03031904, 0.25985134, -619632.2, -2658.1826, 0.000000000000042732568, 9.950354, 9.944625 
9.675438e+2, 2.4699062e+2, -521908.8, -573325.25, 9621.935, -0.03919655, 0.2544876, -520167.2, -651.385, 0.00000000000088938075, 9.950539, 9.944375 
9.664396e+2, 2.5693405e+2, -425149.6, -487898.88, 13485.096, -0.06915061, 0.23674832, -422374.3, -304.85156, 0.000000000013450299, 9.950958, 9.94325 
9.653331e+2, 2.6687706e+2, -323799.34, -391829.06, 1166.778, -0.09286373, 0.22874798, -323779.3, 848.3585, 0.0000000001482496, 9.95126, 9.942551 
9.6422595e+2, 2.768189e+2, -231832.56, -309681.53, 6591.3457, -0.11310265, 0.24131629, -231278.42, -4081.3396, 0.0000000012029147, 9.951472, 9.94141 
9.6311575e+2, 2.867603e+2, -129125.94, -205829.92, -14682.304, -0.12096431, 0.2358208, -126411.57, 3359.6323, 0.0000000073681794, 9.951456, 9.941325 
9.620061e+2, 2.9670078e+2, -51829.496, -136497.73, -3194.3997, -0.047717765, 0.22003527, -51709.15, -19354.186, 0.000000035559857, 9.95102, 9.939787 
9.608936e+2, 3.0663887e+2, 27336.229, -65986.4, -3935.748, -0.18625185, 0.26648027, 27501.918, 27501.918, 0.00000014260962, 9.950387, 9.938065 
9.884971e+2, 1.4862157e+2, -1487008.0, -1484831.1, 11197.619, 0.106335305, 0.31962743, -1474669.1, 8867.761, 0.0, 9.950021, 9.950278 
9.873965e+2, 1.5857121e+2, -1382367.8, -1387138.4, -1770.38, 0.13526689, 0.26701966, -1381782.6, 4247.5483, 0.0, 9.950177, 9.949826 
9.862972e+2, 1.6852137e+2, -1290001.0, -1305331.9, 13792.148, 0.03837492, 0.3592309, -1281887.3, 6631.142, 0.0, 9.950456, 9.948786 
9.8519903e+2, 1.7846961e+2, -1189140.4, -1203205.1, 8292.345, 0.09878973, 0.29877207, -1185300.0, 5725.514, 0.0, 9.950377, 9.948876 
9.840998e+2, 1.8841791e+2, -1090631.8, -1115384.8, 15026.574, 0.0657238, 0.26739624, -1083541.0, 9990.991, 0.0, 9.950801, 9.948116 
9.8300064e+2, 1.9836561e+2, -989519.25, -1022898.94, 12562.584, 0.038108498, 0.2798473, -985319.6, 10724.443, 0.0, 9.951201, 9.947443 
9.8190093e+2, 2.0831342e+2, -895277.7, -928378.0, 14284.084, 0.037567634, 0.3069202, -889965.94, 8589.509, 0.0, 9.950886, 9.947332 
9.808002e+2, 2.1826054e+2, -805551.44, -841677.75, 14021.528, -0.005192551, 0.3347695, -800748.0, 325.63174, 0.0, 9.950565, 9.946588 
9.796988e+2, 2.2820678e+2, -708433.9, -748354.4, 15952.746, -0.039432243, 0.3157169, -702842.2, 757.81683, 0.00000000000000014322901, 9.950624, 9.9460745 
9.7859734e+2, 2.3815188e+2, -613482.8, -660530.2, 18445.469, -0.030144606, 0.28493217, -607113.4, -975.9081, 0.0000000000000041040377, 9.950743, 9.945203 
9.774942e+2, 2.4809751e+2, -511552.16, -557372.06, 14106.386, -0.053909317, 0.3000146, -507557.53, 1112.0205, 0.000000000000085429954, 9.950817, 9.945254 
9.7639e+2, 2.580421e+2, -419238.66, -478238.28, 17171.62, -0.12263984, 0.32344857, -414604.84, -3392.817, 0.000000000001292103, 9.9511, 9.943791 
9.75284e+2, 2.6798522e+2, -320210.66, -387119.38, 3827.9749, -0.13217995, 0.2951156, -319992.38, -6224.3755, 0.0000000000142405965, 9.9513855, 9.942797 
9.7417736e+2, 2.7792734e+2, -231409.44, -307816.72, 7948.7715, -0.111998536, 0.30257577, -230591.27, -14256.632, 0.00000000011554544, 9.9514065, 9.941556 
9.7306633e+2, 2.8786883e+2, -136370.22, -219169.23, -14981.538, -0.20153564, 0.34849572, -133742.86, -14835.561, 0.0000000007077114, 9.951295, 9.940539 
9.7195524e+2, 2.9780886e+2, -48945.684, -131358.64, -9537.127, -0.24717045, 0.32498378, -47856.41, -26361.746, 0.000000003414842, 9.950932, 9.9402685 
9.7084415e+2, 3.077474e+2, 42519.543, -23584.21, -12919.378, -0.13063903, 0.23756695, 44954.805, 44954.805, 0.000000013690085, 9.949628, 9.941205 
9.98448e+2, 1.4971946e+2, -1460675.1, -1455323.4, 5115.2163, 0.11564734, 0.25365043, -1452226.4, 20552.762, 0.0, 9.951103, 9.95161 
9.9734765e+2, 1.5967104e+2, -1374831.3, -1373914.4, -3258.3948, 0.21361421, 0.29774693, -1371082.3, 4171.472, 0.0, 9.950415, 9.950725 
9.962477e+2, 1.6962188e+2, -1280619.6, -1292296.8, 8102.521, 0.0017219271, 0.3738767, -1276471.3, 1264.01, 0.0, 9.950884, 9.949558 
9.951496e+2, 1.7957017e+2, -1181406.0, -1194266.4, 3363.8982, 0.081521034, 0.25417635, -1180579.3, -337.56274, 0.0, 9.950879, 9.949362 
9.940512e+2, 1.8951909e+2, -1084170.0, -1108729.8, 10265.083, 0.08760315, 0.25360185, -1080444.6, 2297.518, 0.0, 9.951344, 9.9484415 
9.929522e+2, 1.9946763e+2, -980967.44, -1014149.7, 5656.82, 0.03092682, 0.31733578, -980029.6, 5216.5234, 0.0, 9.951796, 9.947885 
9.9185205e+2, 2.0941521e+2, -885464.4, -916476.6, 4816.024, 0.015390939, 0.25667742, -884733.7, 3025.9363, 0.0, 9.951402, 9.948003 
9.907514e+2, 2.1936193e+2, -793860.75, -823545.1, 5501.811, 0.023723805, 0.17228052, -792873.8, -2592.5771, 0.0, 9.951031, 9.947721 
9.8965055e+2, 2.2931024e+2, -687202.4, -717228.56, 11644.929, 0.02276275, 0.19176358, -683215.56, 9571.844, 0.000000000000000010837507, 9.951432, 9.947879 
9.8854923e+2, 2.3925762e+2, -588941.8, -631395.94, 18159.326, 0.010154483, 0.22116838, -582234.2, 13068.396, 0.00000000000000031058006, 9.951916, 9.946593 
9.8744595e+2, 2.4920388e+2, -494134.5, -536812.44, 13809.894, -0.014684425, 0.1939394, -490055.7, 7772.6626, 0.0000000000000064639003, 9.951657, 9.946151 
9.863423e+2, 2.59149e+2, -408583.2, -462854.7, 20227.404, -0.033602215, 0.17901577, -401873.75, -1508.4839, 0.000000000000097753626, 9.951547, 9.944484 
9.852372e+2, 2.6909283e+2, -301161.56, -372118.1, 11099.908, -0.02635117, 0.18623354, -299465.72, 3448.6052, 0.0000000000010773522, 9.952656, 9.94308 
9.841305e+2, 2.7903464e+2, -204619.89, -287512.47, 12011.891, -0.022427358, 0.12737261, -202914.34, 2568.9116, 0.000000000008741193, 9.952982, 9.941958 
9.830178e+2, 2.889757e+2, -139416.58, -211781.63, -8593.258, -0.15342169, 0.08842201, -138410.14, -30350.768, 0.00000000005353408, 9.950481, 9.941024 
9.8190516e+2, 2.9891717e+2, -87817.88, -141041.7, 2778.6943, -0.19477972, 0.18703501, -87673.21, -77041.96, 0.00000000025827646, 9.9475765, 9.940583 
9.8079365e+2, 3.0885744e+2, 12684.218, -18002.648, -12952.2, 0.038601466, 0.18798631, 17420.139, 17420.139, 0.0000000010352618, 9.946438, 9.942821 
1.0083991e+3, 1.5082392e+2, -1467238.1, -1477153.3, 868.54614, 0.1838476, 0.3696634, -1467162.6, -5205.558, 0.0, 9.950516, 9.949082 
1.0072966e+3, 1.6077153e+2, -1366795.4, -1387632.3, 7321.341, 0.034691796, 0.29635006, -1364480.1, -9.825186, 0.0, 9.951817, 9.948989 
1.0061996e+3, 1.7072135e+2, -1259581.8, -1280333.3, 2705.6187, 0.06416776, 0.34114608, -1259234.8, 7727.1113, 0.0, 9.952381, 9.949724 
1.00510105e+3, 1.8067163e+2, -1161217.5, -1172704.5, -2865.9355, 0.12619886, 0.35176694, -1160542.3, 8906.682, 0.0, 9.951898, 9.950416 
1.0040018e+3, 1.9062103e+2, -1081581.8, -1096400.8, 10176.363, 0.04918027, 0.29147637, -1076403.3, -4458.7314, 0.0, 9.951305, 9.9492 
1.00290336e+3, 2.0057009e+2, -980263.44, -995674.0, 8203.398, 0.024118792, 0.31453657, -976714.06, -2270.6096, 0.0, 9.951361, 9.949104 
1.0018031e+3, 2.1052048e+2, -876386.2, -893216.44, 11643.113, 0.029972859, 0.4099434, -870435.5, 6493.8936, 0.0, 9.951556, 9.949056 
1.000702e+3, 2.2046824e+2, -788882.25, -811468.5, 14880.415, 0.0063410825, 0.358334, -781494.8, -2053.9856, 0.0, 9.951328, 9.947929 
9.99601e+2, 2.3041588e+2, -695496.6, -713079.1, 65.764465, -0.043777224, 0.28476065, -695496.4, -13542.787, 0.0000000000000000006820092, 9.950927, 9.948608 
9.9850017e+2, 2.4036512e+2, -600638.2, -623296.94, -7298.247, -0.046273734, 0.36966953, -598490.94, -14040.301, 0.00000000000000001954189, 9.950891, 9.9482 
9.9739695e+2, 2.503129e+2, -496680.97, -524249.53, -7061.8965, -0.047203153, 0.35736477, -494977.3, -8016.1895, 0.00000000000000040645458, 9.951234, 9.947634 
9.962932e+2, 2.6025903e+2, -401480.22, -453778.56, 7478.5117, -0.07400364, 0.29578945, -400431.84, -10943.981, 0.0000000000000061445223, 9.95216, 9.945174 
9.951893e+2, 2.702029e+2, -268443.03, -349889.7, -18787.43, -0.06469826, 0.25723103, -264318.22, 27718.174, 0.00000000000006771698, 9.954938, 9.94444 
9.940819e+2, 2.8014752e+2, -208837.03, -278193.0, 23493.383, -0.15744305, 0.3537873, -201628.25, -7050.473, 0.0000000000005493915, 9.951978, 9.942642 
9.929692e+2, 2.9008827e+2, -100557.75, -173134.19, -10231.486, -0.009414742, 0.19537768, -99142.945, -1988.5022, 0.0000000000033642223, 9.951976, 9.9424305 
9.918539e+2, 3.0002803e+2, -16885.451, -113818.39, -18498.885, -0.039530493, 0.026234193, -13475.072, -13475.072, 0.000000000016230134, 9.952927, 9.940036 
9.907382e+2, 3.099675e+2, 51987.207, -45162.918, -20502.484, -0.19793119, 0.19360545, 56136.793, 56136.793, 0.00000000006506301, 9.951398, 9.938983 
