coord_x,coord_y,stress_xx,stress_yy,tau_xy,velocity_x,velocity_y,stress_1,eps,damage,lx,ly
5.0019044e+0, 1.2479741e+2, -1680012.5, -1729563.8, -708.58636, 0.0029606388, -0.068894416, -1680002.4, 36976.086, 0.0, 10.00375, 9.997183 
5.001938e+0, 1.3479462e+2, -1580689.0, -1631266.8, -436.8063, 0.0010338988, -0.065544285, -1580685.3, 38320.707, 0.0, 10.003856, 9.997152 
5.0019586e+0, 1.4479113e+2, -1489735.0, -1549232.4, -544.9927, -0.00015893416, -0.073461, -1489730.0, 31310.105, 0.0, 10.003921, 9.996036 
5.001968e+0, 1.5478714e+2, -1391377.8, -1451046.9, -750.473, -0.0004374468, -0.07633415, -1391368.3, 31710.46, 0.0, 10.003944, 9.996037 
5.0019646e+0, 1.6478238e+2, -1304848.4, -1376406.9, -828.52716, -0.00020443657, -0.07711976, -1304838.8, 20286.57, 0.0, 10.003933, 9.994452 
5.001949e+0, 1.7477684e+2, -1207568.3, -1278841.3, -495.74927, 0.00058629166, -0.076521814, -1207564.8, 19614.924, 0.0, 10.003887, 9.994445 
5.001926e+0, 1.8477075e+2, -1118031.3, -1197163.6, -506.57315, 0.0007211198, -0.07412338, -1118028.0, 11211.382, 0.0, 10.003838, 9.993356 
5.001894e+0, 1.9476417e+2, -1020734.5, -1099458.5, -871.21875, 0.00013795507, -0.0707146, -1020724.8, 10579.262, 0.0, 10.003787, 9.993359 
5.001866e+0, 2.0475683e+2, -933196.2, -1021851.1, -904.7406, -0.000059253132, -0.0721294, -933186.94, 188.99149, 0.0, 10.003734, 9.991993 
5.001841e+0, 2.1474874e+2, -835975.56, -924242.1, -557.8213, 0.00016810329, -0.079648666, -835972.06, -517.14307, 0.0, 10.003679, 9.99199 
5.001811e+0, 2.2474013e+2, -747261.7, -844091.2, -551.1382, 0.00014220529, -0.08015624, -747258.56, -9719.308, 0.0, 10.003619, 9.990798 
5.001775e+0, 2.3473099e+2, -650161.1, -746478.56, -876.9216, -0.00016394658, -0.07397682, -650153.1, -10524.338, 0.0, 10.003552, 9.9908 
5.001739e+0, 2.4472113e+2, -562463.56, -668284.8, -901.91376, -0.00025539336, -0.0732975, -562455.94, -20730.492, 0.0, 10.003485, 9.989477 
5.001706e+0, 2.5471056e+2, -465425.75, -570703.8, -575.3496, -0.00010649813, -0.07963309, -465422.6, -21593.547, 0.0, 10.003413, 9.989478 
5.00169e+0, 2.6469943e+2, -376487.6, -490813.56, -268.49332, -0.0000658024, -0.07939936, -376486.97, -30548.762, 0.0, 10.003381, 9.988251 
5.001694e+0, 2.7468774e+2, -278186.4, -392498.44, -300.3903, -0.00014857312, -0.07298565, -278185.63, -30132.967, 0.0, 10.00339, 9.988262 
5.001694e+0, 2.846753e+2, -189902.67, -314806.53, -467.3937, -0.00020758399, -0.0736943, -189900.92, -39726.47, 0.0, 10.003393, 9.986866 
5.00169e+0, 2.946621e+2, -91851.9, -216599.4, -720.8304, -0.00023845662, -0.083767116, -91847.734, -39544.227, 0.0, 10.003385, 9.986877 
5.001687e+0, 3.046517e+2, -3612.088, -85963.62, -927.2945, -0.00025295015, -0.088637814, -3601.6477, -3601.6477, 0.0, 10.003378, 9.992473 
5.001683e+0, 3.146442e+2, -3585.6987, -85745.766, -1103.5056, -0.00024408386, -0.08883307, -3570.8801, -3570.8801, 0.0, 10.003371, 9.992491 
1.5005714e+1, 1.2479712e+2, -1679494.8, -1728501.1, -303.94302, 0.008879655, -0.074389406, -1679492.9, 37488.203, 0.0, 10.00375, 9.997255 
1.5005815e+1, 1.3479443e+2, -1580166.6, -1630192.5, -39.39068, 0.0031015982, -0.066926226, -1580166.6, 38841.063, 0.0, 10.003856, 9.997226 
1.5005876e+1, 1.4479098e+2, -1490105.8, -1549992.6, -454.33157, -0.00047673957, -0.07230352, -1490102.3, 30939.23, 0.0, 10.003921, 9.995984 
1.5005903e+1, 1.5478694e+2, -1391767.0, -1451846.3, -661.04285, -0.0013123925, -0.074247986, -1391759.8, 31320.998, 0.0, 10.003944, 9.995982 
1.5005894e+1, 1.647822e+2, -1304238.1, -1375150.3, -1001.4551, -0.000613388, -0.07536456, -1304224.0, 20903.188, 0.0, 10.003933, 9.994538 
1.5005848e+1, 1.7477672e+2, -1206936.9, -1277541.0, -670.5043, 0.0017588839, -0.07647743, -1206930.5, 20250.217, 0.0, 10.003887, 9.994534 
1.5005778e+1, 1.8477063e+2, -1118691.6, -1198525.3, -702.65845, 0.002163366, -0.07508772, -1118685.4, 10555.049, 0.0, 10.003838, 9.993263 
1.5005684e+1, 1.9476393e+2, -1021424.44, -1100881.9, -1065.0105, 0.0004138168, -0.07189355, -1021410.1, 9896.084, 0.0, 10.003787, 9.993262 
1.5005597e+1, 2.0475659e+2, -932575.25, -1020569.5, -1112.2926, -0.0001777175, -0.07259359, -932561.2, 816.912, 0.0, 10.003734, 9.992081 
1.5005523e+1, 2.1474862e+2, -835323.8, -922895.4, -764.46716, 0.00050419336, -0.07839996, -835317.1, 138.84511, 0.0, 10.003678, 9.992082 
1.5005432e+1, 2.2474001e+2, -747840.75, -845287.3, -800.205, 0.00042665788, -0.07903875, -747834.2, -10293.95, 0.0, 10.003619, 9.990717 
1.5005325e+1, 2.347308e+2, -650772.4, -747741.94, -1127.0732, -0.0004918565, -0.07499827, -650759.25, -11128.37, 0.0, 10.003552, 9.990714 
1.5005219e+1, 2.4472092e+2, -561882.9, -667082.4, -1168.8483, -0.00076623156, -0.074285656, -561869.9, -20142.37, 0.0, 10.003485, 9.989559 
1.5005118e+1, 2.5471044e+2, -464811.78, -569432.4, -844.43066, -0.00031945205, -0.078185886, -464804.97, -20974.89, 0.0, 10.003413, 9.989565 
1.500507e+1, 2.6469937e+2, -376532.22, -490905.9, -238.64244, -0.00019745585, -0.07774368, -376531.72, -30592.898, 0.0, 10.003381, 9.988244 
1.5005082e+1, 2.7468765e+2, -278252.5, -392634.0, -264.64883, -0.00044570043, -0.073602974, -278251.88, -30198.33, 0.0, 10.00339, 9.988253 
1.5005083e+1, 2.8467518e+2, -190357.19, -315748.25, -494.12314, -0.00062279316, -0.074409306, -190355.25, -40179.54, 0.0, 10.003393, 9.986801 
1.5005068e+1, 2.9466194e+2, -92318.04, -217566.84, -754.5673, -0.0007153583, -0.08211004, -92313.49, -40008.242, 0.0, 10.003385, 9.986812 
1.500506e+1, 3.046515e+2, -3937.1926, -86639.8, -947.60236, -0.000759061, -0.08643857, -3926.3364, -3926.3364, 0.0, 10.003378, 9.992426 
1.5005049e+1, 3.1464392e+2, -3905.3848, -86412.55, -1130.1807, -0.0007325171, -0.08818567, -3889.9065, -3889.9065, 0.0, 10.003371, 9.992445 
2.50095e+1, 1.24796696e+2, -1678352.3, -1727335.3, -1031.9567, 0.0100134555, -0.07896514, -1678330.5, 38654.598, 0.0, 10.003801, 9.99731 
2.5009668e+1, 1.347941e+2, -1580123.9, -1629554.9, -912.3431, 0.004241419, -0.06897684, -1580107.0, 38903.84, 0.0, 10.003832, 9.99728 
2.5009778e+1, 1.4479066e+2, -1491238.0, -1551003.8, -1502.5579, 0.00048619037, -0.071975626, -1491200.3, 29844.244, 0.0, 10.003863, 9.995943 
2.5009832e+1, 1.5478662e+2, -1392735.4, -1452800.4, -1622.2911, -0.0004533162, -0.07157842, -1392691.5, 30392.492, 0.0, 10.0039, 9.995939 
2.5009826e+1, 1.6478187e+2, -1304080.8, -1374427.6, -2224.0613, 0.0002143232, -0.072864346, -1304010.5, 21119.898, 0.0, 10.003916, 9.994596 
2.5009757e+1, 1.7477643e+2, -1206111.1, -1276470.1, -2110.6396, 0.0026375337, -0.07689061, -1206047.8, 21135.766, 0.0, 10.003915, 9.994593 
2.5009644e+1, 1.8477033e+2, -1118498.9, -1199140.9, -2275.0789, 0.0026663397, -0.07678421, -1118434.8, 10808.588, 0.0, 10.003881, 9.9932 
2.500948e+1, 1.9476357e+2, -1021458.44, -1101640.4, -2405.432, 0.000074361655, -0.07307665, -1021386.3, 9923.506, 0.0, 10.003817, 9.993196 
2.500933e+1, 2.0475625e+2, -932054.44, -1019626.9, -2481.158, -0.00052738294, -0.072381474, -931984.2, 1397.4358, 0.0, 10.003739, 9.992142 
2.5009194e+1, 2.1474837e+2, -835294.2, -922156.8, -2338.6855, 0.0010584216, -0.075842746, -835231.25, 227.40305, 0.0, 10.00365, 9.9921465 
2.5009033e+1, 2.2473976e+2, -748905.7, -846385.0, -2348.4824, 0.001058293, -0.07719934, -748849.1, -11306.238, 0.0, 10.0035715, 9.9906645 
2.500885e+1, 2.3473042e+2, -651859.7, -748885.94, -2439.9458, -0.00069863617, -0.07724465, -651798.4, -12163.948, 0.0, 10.003505, 9.990659 
2.5008684e+1, 2.4472056e+2, -561872.25, -666417.94, -2385.1653, -0.0013983513, -0.076534756, -561817.9, -20086.807, 0.0, 10.003457, 9.989617 
2.5008532e+1, 2.547102e+2, -464160.63, -568421.8, -2247.617, -0.00091649126, -0.075903, -464112.2, -20279.525, 0.0, 10.003428, 9.989627 
2.5008446e+1, 2.6469916e+2, -376453.7, -490666.66, -1585.4758, -0.00065621064, -0.07462046, -376431.7, -30490.758, 0.0, 10.003378, 9.988262 
2.5008428e+1, 2.7468744e+2, -279430.72, -393018.8, -1419.2908, -0.00064794306, -0.073776394, -279413.0, -31357.25, 0.0, 10.003302, 9.988269 
2.5008422e+1, 2.846749e+2, -192228.73, -317209.66, -1284.4202, -0.00079809705, -0.07541325, -192215.53, -42037.406, 0.0, 10.003288, 9.986752 
2.5008428e+1, 2.946616e+2, -93277.72, -218612.34, -1435.2217, -0.0011262676, -0.08114478, -93261.28, -40953.227, 0.0, 10.003344, 9.986759 
2.5008458e+1, 3.0465114e+2, -3328.356, -86764.51, -1380.6688, -0.0015472338, -0.084694676, -3305.5156, -3305.5156, 0.0, 10.003438, 9.992389 
2.500851e+1, 3.1464356e+2, -1210.8502, -85527.44, -1497.987, -0.0020515984, -0.08702661, -1184.2451, -1184.2451, 0.0, 10.003574, 9.992408 
3.5013264e+1, 1.2479616e+2, -1678092.1, -1726800.8, -906.4806, 0.00636976, -0.08261761, -1678075.3, 38914.996, 0.0, 10.003801, 9.997346 
3.5013503e+1, 1.347936e+2, -1579858.0, -1629010.9, -798.06506, 0.0044558826, -0.07169325, -1579845.0, 39170.51, 0.0, 10.003832, 9.997317 
3.5013664e+1, 1.4479019e+2, -1491453.1, -1551448.8, -1372.4581, 0.0027251844, -0.07247456, -1491421.8, 29627.23, 0.0, 10.003863, 9.995913 
3.501376e+1, 1.5478617e+2, -1392961.5, -1453266.9, -1486.603, 0.0021340516, -0.06832673, -1392924.9, 30163.797, 0.0, 10.0039, 9.995908 
3.5013762e+1, 1.647814e+2, -1303868.6, -1373991.1, -2230.691, 0.0022748546, -0.06962103, -1303797.8, 21337.344, 0.0, 10.003916, 9.994625 
3.501368e+1, 1.7477596e+2, -1205891.1, -1276016.6, -2117.3896, 0.0032228904, -0.07775926, -1205827.3, 21360.922, 0.0, 10.003915, 9.994623 
3.501352e+1, 1.8476984e+2, -1118739.8, -1199636.6, -2520.02, 0.0022326885, -0.0792107, -1118661.3, 10586.853, 0.0, 10.003881, 9.993166 
3.501329e+1, 1.9476306e+2, -1021709.75, -1102159.0, -2652.396, -0.00087864307, -0.07426373, -1021622.4, 9692.484, 0.0, 10.003817, 9.99316 
3.5013065e+1, 2.0475575e+2, -931800.8, -1019103.75, -2819.272, -0.0011080465, -0.07149537, -931709.9, 1676.6732, 0.0, 10.003739, 9.992177 
3.5012853e+1, 2.1474794e+2, -835029.44, -921609.8, -2678.4204, 0.0018299968, -0.07198121, -834946.7, 516.24445, 0.0, 10.00365, 9.992184 
3.5012615e+1, 2.2473931e+2, -749063.44, -846709.9, -2601.7773, 0.00203581, -0.07463991, -748994.1, -11446.967, 0.0, 10.0035715, 9.990643 
3.5012355e+1, 2.347299e+2, -652030.4, -749236.6, -2690.3323, -0.00078472, -0.080712415, -651956.0, -12316.553, 0.0, 10.003505, 9.990635 
3.5012135e+1, 2.4472004e+2, -561623.2, -665899.2, -2496.5103, -0.0021514827, -0.0800415, -561563.5, -19827.436, 0.0, 10.003457, 9.989653 
3.501195e+1, 2.5470978e+2, -463900.03, -567878.25, -2357.2507, -0.0018969479, -0.07278753, -463846.63, -20009.832, 0.0, 10.0034275, 9.989664 
3.5011813e+1, 2.646988e+2, -376158.4, -490051.34, -1865.7764, -0.0014412997, -0.070033565, -376127.84, -30183.322, 0.0, 10.003378, 9.988304 
3.5011727e+1, 2.7468708e+2, -279135.2, -392404.0, -1707.7695, -0.0007557299, -0.07350765, -279109.47, -31050.22, 0.0, 10.003302, 9.988311 
3.5011712e+1, 2.8467456e+2, -192476.78, -317722.7, -1089.1003, -0.0007343813, -0.07670596, -192467.31, -42285.605, 0.0, 10.003288, 9.986717 
3.5011768e+1, 2.9466125e+2, -93544.9, -219163.97, -1228.3862, -0.0014715276, -0.08087043, -93532.89, -41220.953, 0.0, 10.003344, 9.986722 
3.5011888e+1, 3.0465075e+2, -3530.2126, -87179.15, -870.26855, -0.0026165543, -0.08340585, -3521.1597, -3521.1597, 0.0, 10.003438, 9.99236 
3.5012063e+1, 3.146431e+2, -1412.1844, -85939.79, -982.8254, -0.00420238, -0.08535843, -1400.7584, -1400.7584, 0.0, 10.003573, 9.99238 
4.5017081e+1, 1.2479563e+2, -1677088.0, -1726689.4, -927.932, 0.003651982, -0.081672266, -1677070.6, 39924.785, 0.0, 10.003886, 9.997312 
4.5017403e+1, 1.3479301e+2, -1578092.1, -1628530.0, -1360.1628, 0.004600731, -0.0727725, -1578055.5, 40965.78, 0.0, 10.003968, 9.997284 
4.501761e+1, 1.4478959e+2, -1489428.4, -1550503.6, -2281.2202, 0.004036165, -0.07360772, -1489343.4, 31711.564, 0.0, 10.004003, 9.995909 
4.501771e+1, 1.5478559e+2, -1391669.4, -1452672.5, -2179.3877, 0.0030903737, -0.06722513, -1391591.6, 31502.72, 0.0, 10.003988, 9.995905 
4.501771e+1, 1.6478081e+2, -1303468.4, -1374288.9, -3189.9006, 0.0028815742, -0.06820169, -1303325.0, 21816.059, 0.0, 10.003964, 9.994581 
4.5017606e+1, 1.747753e+2, -1205948.9, -1276548.6, -3644.1284, 0.0034877788, -0.0781056, -1205761.3, 21433.48, 0.0, 10.003932, 9.994578 
4.501741e+1, 1.8476917e+2, -1118373.3, -1199081.1, -4245.508, 0.0024467125, -0.08008832, -1118150.5, 11104.2295, 0.0, 10.00389, 9.9932 
4.501712e+1, 1.9476242e+2, -1021123.25, -1101477.5, -3848.344, -0.0003978293, -0.07432778, -1020939.4, 10381.699, 0.0, 10.0038395, 9.993196 
4.5016816e+1, 2.0475513e+2, -931751.3, -1019458.94, -4155.948, -0.0007872155, -0.07038891, -931554.8, 1837.7992, 0.0, 10.003759, 9.992144 
4.5016494e+1, 2.147473e+2, -835317.4, -922149.25, -4565.231, 0.0015242008, -0.06930225, -835078.0, 391.27588, 0.0, 10.003647, 9.992147 
4.5016164e+1, 2.2473867e+2, -749153.1, -846143.75, -4434.2236, 0.0014931578, -0.072979756, -748950.8, -11397.247, 0.0, 10.003539, 9.990697 
4.501582e+1, 2.3472928e+2, -652670.94, -748912.94, -3917.4958, -0.0011339948, -0.082950875, -652511.75, -12866.248, 0.0, 10.003434, 9.990691 
4.5015538e+1, 2.4471945e+2, -563244.1, -666954.4, -3449.9387, -0.002315714, -0.08215449, -563129.44, -21387.525, 0.0, 10.003358, 9.989629 
4.501532e+1, 2.547092e+2, -465772.56, -569080.56, -3785.0818, -0.0018877957, -0.07027984, -465634.06, -21791.434, 0.0, 10.003313, 9.989637 
4.501514e+1, 2.6469824e+2, -377161.03, -489822.88, -3506.1145, -0.0018679177, -0.06674145, -377052.03, -31101.867, 0.0, 10.003279, 9.988368 
4.5014992e+1, 2.7468655e+2, -279358.97, -391770.3, -3171.9617, -0.002297817, -0.07375538, -279269.53, -31205.084, 0.0, 10.003255, 9.988378 
4.5014963e+1, 2.8467408e+2, -192925.75, -317770.8, -1962.2865, -0.0026064583, -0.07786771, -192894.9, -42708.316, 0.0, 10.00325, 9.986732 
4.501506e+1, 2.946608e+2, -94577.766, -219514.14, -1713.0905, -0.002786101, -0.079964824, -94554.27, -42237.715, 0.0, 10.003266, 9.986735 
4.5015264e+1, 3.0465034e+2, -4828.073, -87461.77, -589.6544, -0.0036682847, -0.08140154, -4823.866, -4823.866, 0.0, 10.003334, 9.992391 
4.5015565e+1, 3.1464273e+2, -2882.639, -86301.164, -251.40843, -0.005330235, -0.08336632, -2881.881, -2881.881, 0.0, 10.003458, 9.992411 
5.502095e+1, 1.24795124e+2, -1677829.8, -1728211.4, -609.92865, 0.0018477585, -0.07614799, -1677822.4, 39178.207, 0.0, 10.003886, 9.997209 
5.5021375e+1, 1.3479234e+2, -1578837.3, -1630063.0, -1049.6759, 0.0046750163, -0.07222373, -1578815.8, 40212.08, 0.0, 10.003968, 9.997179 
5.5021614e+1, 1.4478886e+2, -1489262.6, -1550167.5, -2332.3862, 0.004424508, -0.07536997, -1489173.4, 31888.695, 0.0, 10.004004, 9.995932 
5.502169e+1, 1.5478489e+2, -1391484.1, -1452297.3, -2234.0784, 0.0024251123, -0.068259746, -1391402.1, 31699.053, 0.0, 10.003989, 9.99593 
5.502167e+1, 1.6478008e+2, -1304300.6, -1376007.1, -3314.8403, 0.0020426286, -0.06859475, -1304147.8, 21000.518, 0.0, 10.003965, 9.994465 
5.5021536e+1, 1.7477444e+2, -1206805.0, -1278314.0, -3765.7024, 0.0034333065, -0.077933565, -1206607.3, 20595.928, 0.0, 10.003933, 9.994458 
5.502131e+1, 1.847683e+2, -1117657.6, -1197605.1, -4439.425, 0.0033036727, -0.079426296, -1117411.8, 11851.488, 0.0, 10.00389, 9.9933 
5.502098e+1, 1.9476168e+2, -1020373.7, -1099927.9, -4042.5754, 0.0015074504, -0.07327555, -1020168.8, 11159.662, 0.0, 10.0038395, 9.993301 
5.502059e+1, 2.047544e+2, -932484.5, -1020968.8, -4575.697, 0.00042959652, -0.0690628, -932248.56, 1151.4159, 0.0, 10.003758, 9.992041 
5.502013e+1, 2.1474645e+2, -836085.75, -923735.3, -4988.1963, 0.00014700355, -0.067799285, -835802.8, -325.06635, 0.0, 10.003647, 9.99204 
5.501968e+1, 2.2473784e+2, -748228.75, -844233.5, -4831.91, -0.00056182116, -0.07221414, -747986.2, -10424.209, 0.0, 10.003539, 9.990828 
5.501925e+1, 2.3472854e+2, -651704.06, -746913.7, -4315.7075, -0.0017456255, -0.08396721, -651508.8, -11856.223, 0.0, 10.003434, 9.990828 
5.50189e+1, 2.4471875e+2, -563834.7, -668175.1, -3626.4675, -0.0018948542, -0.08288191, -563708.75, -21960.027, 0.0, 10.003358, 9.989546 
5.501864e+1, 2.5470844e+2, -466410.34, -570395.44, -3956.022, -0.0008951765, -0.06837692, -466260.06, -22409.854, 0.0, 10.003312, 9.989548 
5.501842e+1, 2.646975e+2, -376567.0, -488582.84, -3596.1812, -0.0019385122, -0.06473794, -376451.66, -30493.877, 0.0, 10.003278, 9.988453 
5.5018216e+1, 2.7468586e+2, -278729.75, -390456.06, -3263.3315, -0.005267221, -0.07451703, -278634.53, -30563.139, 0.0, 10.003254, 9.988467 
5.5018175e+1, 2.8467342e+2, -192475.22, -316825.6, -1906.0303, -0.0064051854, -0.07890026, -192446.02, -42253.246, 0.0, 10.00325, 9.986796 
5.5018306e+1, 2.9466024e+2, -94135.71, -218584.52, -1656.675, -0.005065715, -0.0784327, -94113.664, -41791.723, 0.0, 10.003265, 9.986799 
5.5018586e+1, 3.0464986e+2, -4210.383, -86164.39, -131.25938, -0.0047042225, -0.07868768, -4210.1724, -4210.1724, 0.0, 10.003333, 9.99248 
5.501902e+1, 3.1464237e+2, -2263.0405, -84996.23, 215.34462, -0.005443638, -0.081054784, -2262.48, -2262.48, 0.0, 10.003457, 9.9925 
6.502492e+1, 1.2479447e+2, -1676542.9, -1728647.8, -1117.6827, 0.0030264773, -0.0722243, -1676518.9, 40488.184, 0.0, 10.00402, 9.997114 
6.5025437e+1, 1.347916e+2, -1577132.1, -1630305.0, -1499.8077, 0.0059188055, -0.07017139, -1577089.9, 41945.633, 0.0, 10.004131, 9.997084 
6.502572e+1, 1.4478803e+2, -1486708.5, -1549078.9, -3287.2507, 0.005195254, -0.07533302, -1486535.8, 34534.637, 0.0, 10.004184, 9.995918 
6.502578e+1, 1.5478401e+2, -1388828.9, -1451141.9, -3474.6494, 0.0024537225, -0.07018587, -1388635.8, 34473.902, 0.0, 10.004176, 9.995917 
6.5025705e+1, 1.6477917e+2, -1302478.1, -1375862.9, -4725.925, 0.0017561011, -0.07016667, -1302175.1, 22981.95, 0.0, 10.004121, 9.994398 
6.5025514e+1, 1.747735e+2, -1206024.8, -1278691.9, -4782.0835, 0.0032984267, -0.076622106, -1205711.4, 21501.057, 0.0, 10.004019, 9.994391 
6.5025216e+1, 1.8476735e+2, -1117159.9, -1197037.4, -5570.6455, 0.0037587308, -0.07712453, -1116773.3, 12499.526, 0.0, 10.00391, 9.993329 
6.502481e+1, 1.9476074e+2, -1020762.06, -1099767.3, -5730.18, 0.003030082, -0.07206361, -1020348.6, 10988.999, 0.0, 10.003798, 9.993333 
6.502433e+1, 2.0475344e+2, -933548.06, -1021915.7, -6347.666, 0.0015568058, -0.068931684, -933094.44, 314.81412, 0.0, 10.003705, 9.9920025 
6.5023756e+1, 2.1474545e+2, -836553.4, -924414.44, -6251.5938, -0.0007294092, -0.06872964, -836110.8, -623.24866, 0.0, 10.003634, 9.992 
6.502321e+1, 2.2473687e+2, -747611.94, -843194.06, -6118.2437, -0.002152513, -0.072625756, -747221.9, -9650.2705, 0.0, 10.003549, 9.990893 
6.5022683e+1, 2.3472767e+2, -651048.2, -745825.5, -6111.3384, -0.0026213895, -0.08212696, -650655.75, -10994.392, 0.0, 10.003446, 9.990896 
6.502224e+1, 2.4471788e+2, -564508.1, -668829.6, -5439.7695, -0.0022648014, -0.08068453, -564225.2, -22467.941, 0.0, 10.003325, 9.989516 
6.502189e+1, 2.5470755e+2, -468470.13, -571754.8, -5339.3315, -0.0009923622, -0.067914344, -468194.84, -24335.646, 0.0, 10.003187, 9.989515 
6.5021604e+1, 2.6469657e+2, -378730.1, -489002.0, -4611.4536, -0.002249689, -0.06507148, -378537.6, -32570.81, 0.0, 10.003103, 9.988508 
6.502137e+1, 2.74685e+2, -280881.2, -390840.44, -4511.039, -0.0063435007, -0.074603304, -280696.44, -32616.656, 0.0, 10.003078, 9.988525 
6.502132e+1, 2.8467268e+2, -194774.19, -317347.28, -3200.0347, -0.0077454047, -0.07823855, -194690.69, -44490.14, 0.0, 10.003067, 9.986849 
6.502146e+1, 2.9465953e+2, -96655.58, -219217.02, -3039.9219, -0.0060983654, -0.07645043, -96580.22, -44251.1, 0.0, 10.003068, 9.986851 
6.502179e+1, 3.0464923e+2, -6834.3096, -86331.26, -1182.3628, -0.00618313, -0.07657579, -6816.728, -6816.728, 0.0, 10.003105, 9.9925785 
6.5022314e+1, 3.1464177e+2, -5545.8447, -85466.27, -758.5108, -0.008232885, -0.0801786, -5538.6465, -5538.6465, 0.0, 10.003183, 9.9926 
7.5028974e+1, 1.2479369e+2, -1677154.1, -1729915.1, -694.2014, 0.0071552573, -0.06988356, -1677145.0, 39869.84, 0.0, 10.00402, 9.997027 
7.502959e+1, 1.3479075e+2, -1577753.0, -1631585.6, -1080.4745, 0.0083201, -0.066629134, -1577731.3, 41312.676, 0.0, 10.004131, 9.996997 
7.5029916e+1, 1.4478709e+2, -1487066.5, -1549816.0, -3313.048, 0.006343502, -0.07351327, -1486892.1, 34187.57, 0.0, 10.004184, 9.995868 
7.5029963e+1, 1.5478298e+2, -1389182.5, -1451869.5, -3505.8477, 0.0031686367, -0.07299362, -1388987.0, 34132.746, 0.0, 10.004176, 9.995868 
7.502983e+1, 1.6477811e+2, -1302590.3, -1376095.3, -5110.5444, 0.0020161178, -0.07290693, -1302236.6, 22930.807, 0.0, 10.004122, 9.994383 
7.502953e+1, 1.7477247e+2, -1206129.4, -1278912.1, -5169.744, 0.0030834891, -0.07418181, -1205764.0, 21458.627, 0.0, 10.004019, 9.994376 
7.502912e+1, 1.8476631e+2, -1117454.6, -1197650.8, -5997.665, 0.0038148388, -0.07319793, -1117008.6, 12274.475, 0.0, 10.003911, 9.993288 
7.502863e+1, 1.9475962e+2, -1021063.94, -1100394.0, -6156.3516, 0.00417243, -0.070692785, -1020589.06, 10759.555, 0.0, 10.003798, 9.99329 
7.5028044e+1, 2.0475231e+2, -933365.7, -1021540.5, -6618.522, 0.0025943702, -0.0699853, -932871.7, 548.8404, 0.0, 10.003705, 9.992028 
7.502739e+1, 2.1474431e+2, -836364.0, -924020.75, -6516.7803, -0.0011103248, -0.07207134, -835882.1, -383.43484, 0.0, 10.003634, 9.992026 
7.502675e+1, 2.2473575e+2, -747599.06, -843162.4, -6506.826, -0.0032837933, -0.074205674, -747158.06, -9575.55, 0.0, 10.003549, 9.990895 
7.502611e+1, 2.3472662e+2, -651041.8, -745805.9, -6504.6445, -0.0037597474, -0.0774558, -650597.4, -10925.615, 0.0, 10.003446, 9.990898 
7.502555e+1, 2.4471685e+2, -564340.1, -668475.75, -5961.1196, -0.0034196589, -0.07558534, -564000.0, -22232.457, 0.0, 10.003325, 9.98954 
7.502507e+1, 2.5470647e+2, -468299.44, -571396.6, -5864.793, -0.00217104, -0.06888009, -467966.88, -24097.215, 0.0, 10.003187, 9.98954 
7.5024706e+1, 2.6469553e+2, -378543.13, -488607.84, -4714.7466, -0.0028007072, -0.06772468, -378341.53, -32364.443, 0.0, 10.003102, 9.988536 
7.502446e+1, 2.7468398e+2, -280698.4, -390448.94, -4604.961, -0.0055432534, -0.07402107, -280505.53, -32415.916, 0.0, 10.003078, 9.988553 
7.5024396e+1, 2.8467172e+2, -194501.7, -316764.88, -3199.657, -0.006647841, -0.075896524, -194418.02, -44208.08, 0.0, 10.003066, 9.986889 
7.502453e+1, 2.9465863e+2, -96384.34, -218633.9, -3040.2527, -0.0058953175, -0.0740223, -96308.78, -43970.684, 0.0, 10.003067, 9.986892 
7.5024873e+1, 3.0464837e+2, -6099.4307, -84781.766, -894.0659, -0.008102706, -0.075061195, -6089.273, -6089.273, 0.0, 10.003104, 9.992685 
7.5025445e+1, 3.1464106e+2, -4798.591, -83888.6, -466.57407, -0.013678783, -0.08072644, -4795.8384, -4795.8384, 0.0, 10.003182, 9.992709 
8.5033196e+1, 1.2479271e+2, -1672126.0, -1727922.4, -1832.5841, 0.009310675, -0.07050073, -1672065.9, 44958.67, 0.0, 10.004382, 9.996986 
8.5033846e+1, 1.3478974e+2, -1574694.6, -1630557.1, -1884.3888, 0.00900827, -0.06467909, -1574631.1, 44422.68, 0.0, 10.004359, 9.996956 
8.5034174e+1, 1.4478604e+2, -1485540.6, -1549924.9, -4301.201, 0.0066227973, -0.07151158, -1485254.6, 35835.438, 0.0, 10.004325, 9.995792 
8.5034204e+1, 1.5478182e+2, -1388204.6, -1452256.0, -4699.1494, 0.0045039076, -0.0733464, -1387861.8, 35269.44, 0.0, 10.00428, 9.995791 
8.503401e+1, 1.6477692e+2, -1300959.3, -1374988.1, -6483.7935, 0.003368212, -0.073534876, -1300395.8, 24783.406, 0.0, 10.004219, 9.9944105 
8.503361e+1, 1.7477134e+2, -1204096.5, -1277587.3, -6206.845, 0.0033219713, -0.07282236, -1203576.0, 23657.838, 0.0, 10.004143, 9.994406 
8.503309e+1, 1.8476515e+2, -1116246.9, -1197971.4, -7156.5396, 0.0032238548, -0.07131929, -1115625.0, 13669.4795, 0.0, 10.004032, 9.993207 
8.503246e+1, 1.9475839e+2, -1020375.9, -1101001.1, -7623.5244, 0.0030642499, -0.069888756, -1019661.4, 11699.518, 0.0, 10.003885, 9.993206 
8.503176e+1, 2.0475103e+2, -932400.6, -1020451.5, -8036.127, 0.0018119324, -0.070327535, -931673.2, 1759.8451, 0.0, 10.003744, 9.992083 
8.503102e+1, 2.147431e+2, -836323.06, -923344.25, -7694.241, -0.0006435676, -0.0736535, -835648.0, -137.24889, 0.0, 10.00361, 9.9920845 
8.5030264e+1, 2.2473453e+2, -749027.6, -844458.9, -7816.906, -0.0023987752, -0.07445594, -748391.56, -10797.163, 0.0, 10.003477, 9.990842 
8.502951e+1, 2.3472539e+2, -652862.5, -747328.06, -8254.095, -0.0033738485, -0.07350733, -652146.7, -12462.747, 0.0, 10.003348, 9.990841 
8.502882e+1, 2.4471563e+2, -565258.7, -668126.25, -7796.1787, -0.003946162, -0.07205076, -564671.2, -22891.484, 0.0, 10.003228, 9.989612 
8.5028195e+1, 2.5470525e+2, -468789.9, -570802.7, -7331.3403, -0.004068895, -0.07091984, -468265.72, -24384.232, 0.0, 10.003118, 9.989614 
8.502774e+1, 2.6469433e+2, -379977.1, -489405.88, -5904.463, -0.00468098, -0.07022015, -379659.4, -33670.793, 0.0, 10.003009, 9.988526 
8.5027444e+1, 2.7468285e+2, -283355.9, -391868.22, -6083.1216, -0.005847636, -0.071203746, -283015.94, -34915.066, 0.0, 10.002902, 9.988541 
8.502735e+1, 2.8467062e+2, -197430.97, -317416.44, -4533.7314, -0.006382573, -0.07201016, -197259.9, -47039.03, 0.0, 10.002832, 9.986958 
8.5027456e+1, 2.9465756e+2, -99713.17, -219452.13, -4147.8076, -0.0062031313, -0.07388822, -99569.664, -47221.055, 0.0, 10.002805, 9.986961 
8.5027826e+1, 3.0464736e+2, -9747.902, -85843.91, -1716.4795, -0.009293367, -0.07670233, -9709.204, -9709.204, 0.0, 10.002824, 9.992747 
8.502846e+1, 3.146401e+2, -8543.463, -85004.48, -1635.5881, -0.016105805, -0.081872046, -8508.492, -8508.492, 0.0, 10.002895, 9.99277 
9.503758e+1, 1.24791525e+2, -1672094.0, -1727863.8, -1904.9498, 0.009512146, -0.07404567, -1672029.0, 45007.08, 0.0, 10.004382, 9.99699 
9.5038193e+1, 1.3478859e+2, -1574659.0, -1630493.1, -1968.8064, 0.008002687, -0.064301744, -1574589.8, 44475.293, 0.0, 10.004359, 9.99696 
9.503849e+1, 1.4478487e+2, -1486261.3, -1551414.6, -4472.1704, 0.006041915, -0.06933088, -1485955.8, 35145.816, 0.0, 10.004325, 9.99569 
9.50385e+1, 1.5478055e+2, -1388944.4, -1453782.9, -4865.9287, 0.0064495536, -0.07127695, -1388581.3, 34562.605, 0.0, 10.00428, 9.9956875 
9.5038253e+1, 1.6477562e+2, -1300449.0, -1373941.3, -6770.364, 0.0057976837, -0.072076365, -1299830.5, 25361.518, 0.0, 10.004219, 9.994482 
9.503776e+1, 1.747701e+2, -1203562.0, -1276489.5, -6494.7217, 0.004007416, -0.07253013, -1202988.1, 24257.775, 0.0, 10.004143, 9.99448 
9.503711e+1, 1.847639e+2, -1117095.6, -1199725.5, -7707.6753, 0.001993419, -0.07146362, -1116382.9, 12923.967, 0.0, 10.004033, 9.993087 
9.503631e+1, 1.94757e+2, -1021256.7, -1102826.0, -8176.2964, -0.0002673721, -0.06964599, -1020445.2, 10929.33, 0.0, 10.003886, 9.993081 
9.503548e+1, 2.0474961e+2, -931794.4, -1019207.1, -8547.21, -0.000770843, -0.069966935, -930966.44, 2480.4314, 0.0, 10.003744, 9.992167 
9.5034647e+1, 2.1474177e+2, -835684.94, -922027.6, -8205.241, 0.0006592041, -0.07349748, -834912.06, 611.5698, 0.0, 10.00361, 9.992174 
9.5033777e+1, 2.2473322e+2, -749804.75, -846061.4, -8306.214, 0.00047879672, -0.07339133, -749093.25, -11485.966, 0.0, 10.003477, 9.990732 
9.503288e+1, 2.3472399e+2, -653682.06, -749014.75, -8741.274, -0.0014810504, -0.07027324, -652887.2, -13189.256, 0.0, 10.003348, 9.9907255 
9.503205e+1, 2.447142e+2, -564439.5, -666419.8, -8215.552, -0.0038510924, -0.07006338, -563781.9, -21988.104, 0.0, 10.003228, 9.989728 
9.5031285e+1, 2.547039e+2, -467926.84, -569004.06, -7751.5996, -0.0066789277, -0.07402261, -467335.84, -23441.15, 0.0, 10.003118, 9.989737 
9.5030713e+1, 2.6469302e+2, -380304.3, -490072.53, -6309.29, -0.007877791, -0.07256095, -379942.84, -33941.516, 0.0, 10.003009, 9.988481 
9.503033e+1, 2.7468157e+2, -283721.47, -392613.8, -6489.2734, -0.007246422, -0.0661761, -283336.13, -35222.53, 0.0, 10.002901, 9.98849 
9.5030177e+1, 2.8466934e+2, -196768.23, -316024.28, -4647.1914, -0.006942346, -0.06659422, -196587.42, -46354.07, 0.0, 10.002832, 9.987053 
9.503026e+1, 2.9465634e+2, -99024.64, -217998.77, -4255.665, -0.007018138, -0.076023586, -98872.61, -46511.973, 0.0, 10.002804, 9.9870615 
9.503065e+1, 3.046462e+2, -9640.423, -85588.766, -1454.4862, -0.009765628, -0.08146713, -9612.578, -9612.578, 0.0, 10.002823, 9.992765 
9.5031357e+1, 3.1463894e+2, -8465.726, -84800.14, -1365.1018, -0.015551384, -0.08360978, -8441.321, -8441.321, 0.0, 10.002893, 9.992785 
1.0504212e+2, 1.24790326e+2, -1667879.5, -1726060.8, -2215.1611, 0.010257484, -0.076610126, -1667795.4, 49252.49, 0.0, 10.00468, 9.996968 
1.05042696e+2, 1.347874e+2, -1570723.1, -1628825.0, -2488.472, 0.008034779, -0.06437599, -1570616.8, 48460.03, 0.0, 10.004638, 9.996938 
1.0504293e+2, 1.4478363e+2, -1483237.9, -1550725.4, -5142.7485, 0.0059214286, -0.067904405, -1482848.3, 38265.477, 0.0, 10.004564, 9.995621 
1.05042875e+2, 1.5477926e+2, -1386823.6, -1453548.0, -5290.64, 0.007149839, -0.069031894, -1386406.8, 36749.887, 0.0, 10.004459, 9.995616 
1.05042554e+2, 1.6477428e+2, -1298491.0, -1373002.4, -7390.936, 0.006802672, -0.07028101, -1297765.0, 27440.223, 0.0, 10.004354, 9.99448 
1.0504196e+2, 1.7476875e+2, -1202003.1, -1275729.8, -7669.757, 0.0047528176, -0.072574705, -1201213.8, 26045.541, 0.0, 10.00425, 9.99448 
1.050412e+2, 1.8476251e+2, -1115958.3, -1199753.6, -9088.282, 0.0020934115, -0.07194662, -1114983.9, 14336.502, 0.0, 10.004135, 9.993035 
1.05040245e+2, 1.9475558e+2, -1019791.6, -1102711.3, -9027.065, -0.001235246, -0.06902464, -1018820.25, 12568.329, 0.0, 10.004012, 9.993028 
1.0503927e+2, 2.0474818e+2, -930260.44, -1018412.75, -9556.472, -0.0016991483, -0.0685603, -929236.3, 4224.8022, 0.0, 10.003847, 9.992172 
1.0503827e+2, 2.1474034e+2, -835232.1, -921743.56, -9843.449, 0.0009950817, -0.07166587, -834126.25, 1411.473, 0.0, 10.003637, 9.99218 
1.0503724e+2, 2.2473177e+2, -750703.8, -846972.5, -9979.867, 0.0011510942, -0.07182859, -749680.1, -12058.537, 0.0, 10.003436, 9.99069 
1.0503618e+2, 2.3472248e+2, -655512.75, -750396.2, -9884.728, -0.001502978, -0.06973955, -654493.94, -14781.181, 0.0, 10.003244, 9.990682 
1.0503521e+2, 2.4471271e+2, -565943.25, -666372.9, -9072.428, -0.004373549, -0.07027082, -565130.25, -23321.69, 0.0, 10.003092, 9.989797 
1.0503433e+2, 2.5470248e+2, -469385.63, -568901.0, -8985.212, -0.0074888063, -0.07466665, -468580.84, -24672.098, 0.0, 10.002982, 9.989809 
1.0503364e+2, 2.6469162e+2, -382412.2, -491307.03, -7636.153, -0.008761282, -0.072363965, -381879.3, -35864.227, 0.0, 10.002873, 9.9884615 
1.0503316e+2, 2.746802e+2, -285888.7, -393911.88, -7606.633, -0.007959256, -0.0636828, -285355.7, -37228.285, 0.0, 10.002764, 9.988467 
1.0503291e+2, 2.84668e+2, -198591.98, -315845.94, -5486.479, -0.007861143, -0.06419199, -198335.83, -48088.98, 0.0, 10.002662, 9.987147 
1.0503293e+2, 2.9465503e+2, -101802.21, -218241.13, -5108.2056, -0.008573478, -0.07644338, -101578.54, -49205.184, 0.0, 10.002565, 9.98716 
1.050333e+2, 3.0464497e+2, -14133.636, -87424.87, -1974.3046, -0.01037194, -0.082486495, -14080.491, -14080.491, 0.0, 10.0025, 9.992795 
1.0503406e+2, 3.1463775e+2, -14510.706, -87416.06, -1792.1583, -0.0133918235, -0.08266644, -14466.678, -14466.678, 0.0, 10.002465, 9.992812 
1.15046814e+2, 1.2478911e+2, -1668225.9, -1726774.3, -2353.231, 0.011533241, -0.078222655, -1668131.4, 48928.355, 0.0, 10.00468, 9.99692 
1.1504734e+2, 1.3478614e+2, -1571063.6, -1629535.1, -2640.5723, 0.009086386, -0.06489532, -1570944.6, 48144.453, 0.0, 10.004639, 9.996889 
1.150475e+2, 1.4478235e+2, -1483504.3, -1551289.4, -5538.3247, 0.006253141, -0.06722174, -1483054.6, 38071.7, 0.0, 10.004565, 9.995582 
1.15047336e+2, 1.5477794e+2, -1387087.9, -1454111.8, -5685.762, 0.006624083, -0.06661442, -1386609.0, 36560.56, 0.0, 10.00446, 9.995578 
1.150469e+2, 1.6477291e+2, -1298996.4, -1374061.1, -7783.4453, 0.006403874, -0.0681545, -1298197.8, 27020.91, 0.0, 10.0043545, 9.994408 
1.1504622e+2, 1.7476729e+2, -1202519.0, -1276804.0, -8060.5728, 0.0055558365, -0.07295113, -1201654.5, 25619.238, 0.0, 10.00425, 9.994407 
1.1504534e+2, 1.8476102e+2, -1115848.1, -1199531.5, -9554.135, 0.0035021286, -0.072764926, -1114771.3, 14563.93, 0.0, 10.004136, 9.993051 
1.1504427e+2, 1.9475412e+2, -1019671.94, -1102462.5, -9491.766, 0.00012336872, -0.068030775, -1018597.7, 12805.32, 0.0, 10.004012, 9.993045 
1.1504312e+2, 2.0474671e+2, -930791.7, -1019506.6, -10339.809, -0.000996992, -0.066124216, -929602.5, 3873.1987, 0.0, 10.003847, 9.992098 
1.15041904e+2, 2.1473879e+2, -835777.8, -922872.9, -10634.262, 0.00037834738, -0.0681835, -834498.1, 1054.899, 0.0, 10.003638, 9.992103 
1.1504066e+2, 2.2473018e+2, -750534.2, -846626.1, -10706.073, -0.0003518891, -0.06977414, -749355.8, -11718.5, 0.0, 10.003437, 9.990713 
1.1503941e+2, 2.3472087e+2, -655327.6, -750016.8, -10608.166, -0.0034141971, -0.07186787, -654153.7, -14425.203, 0.0, 10.003244, 9.990707 
1.1503828e+2, 2.4471112e+2, -565789.1, -666050.2, -9491.483, -0.005507017, -0.07264659, -564898.5, -23074.438, 0.0, 10.003092, 9.98982 
1.1503732e+2, 2.5470096e+2, -469242.63, -568587.44, -9398.795, -0.0065243547, -0.07288606, -468361.25, -24437.531, 0.0, 10.002982, 9.989831 
1.1503654e+2, 2.6469016e+2, -382382.34, -491218.84, -8049.539, -0.007362276, -0.06965999, -381790.22, -35760.402, 0.0, 10.002872, 9.988468 
1.1503592e+2, 2.7467868e+2, -285868.06, -393838.66, -8020.7217, -0.007995782, -0.063689716, -285275.5, -37133.137, 0.0, 10.002763, 9.988473 
1.1503556e+2, 2.8466654e+2, -197955.84, -314492.03, -5845.52, -0.00913621, -0.06476832, -197663.36, -47401.996, 0.0, 10.00266, 9.987241 
1.1503547e+2, 2.9465368e+2, -101149.89, -216850.53, -5470.687, -0.010861682, -0.07517168, -100891.8, -48505.043, 0.0, 10.002564, 9.987255 
1.15035795e+2, 3.046437e+2, -13874.214, -86845.44, -2106.5378, -0.011113324, -0.079808734, -13813.453, -13813.453, 0.0, 10.002498, 9.992835 
1.1503656e+2, 3.1463653e+2, -14273.307, -86874.6, -1918.6987, -0.009652124, -0.07907734, -14222.635, -14222.635, 0.0, 10.002463, 9.99285 
1.2505163e+2, 1.2478803e+2, -1664973.0, -1726581.0, -1640.7488, 0.0113801705, -0.076373525, -1664929.3, 52141.043, 0.0, 10.004961, 9.996796 
1.2505214e+2, 1.3478492e+2, -1567465.5, -1629185.1, -2507.1228, 0.009770096, -0.06483305, -1567363.9, 51737.273, 0.0, 10.004944, 9.996764 
1.2505223e+2, 1.4478105e+2, -1478974.5, -1549299.1, -5914.9756, 0.0068357, -0.06741636, -1478480.5, 42658.63, 0.0, 10.004883, 9.995563 
1.2505195e+2, 1.5477666e+2, -1382570.9, -1452110.0, -5906.228, 0.00650505, -0.06501626, -1382072.8, 41109.46, 0.0, 10.004776, 9.99556 
1.250514e+2, 1.6477156e+2, -1295830.4, -1373880.3, -8254.515, 0.0060361736, -0.06620676, -1294966.9, 30265.172, 0.0, 10.004629, 9.994287 
1.2505057e+2, 1.747658e+2, -1200629.1, -1277278.9, -8907.574, 0.0054366314, -0.0722209, -1199607.6, 27680.805, 0.0, 10.004439, 9.994283 
1.2504953e+2, 1.8475948e+2, -1114061.3, -1198291.3, -10595.331, 0.0040124357, -0.07226466, -1112748.9, 16601.484, 0.0, 10.004242, 9.993083 
1.2504831e+2, 1.9475262e+2, -1019053.0, -1101753.3, -10387.711, 0.0016790456, -0.06668659, -1017768.2, 13649.557, 0.0, 10.004037, 9.993081 
1.2504698e+2, 2.0474519e+2, -931409.25, -1020758.5, -11299.059, 0.00023597245, -0.06425739, -930002.5, 3488.1472, 0.0, 10.003846, 9.992013 
1.2504555e+2, 2.1473718e+2, -835895.2, -923920.75, -11678.651, -0.00021808654, -0.06613062, -834372.06, 1196.8107, 0.0, 10.003673, 9.992015 
1.250441e+2, 2.2472855e+2, -749404.8, -845419.75, -11687.528, -0.0017938713, -0.06868306, -748002.6, -10349.246, 0.0, 10.003486, 9.990772 
1.2504266e+2, 2.3471929e+2, -654325.5, -748832.06, -11317.776, -0.0046102614, -0.0730305, -652989.0, -13244.933, 0.0, 10.0032835, 9.990769 
1.2504137e+2, 2.4470957e+2, -566631.0, -666959.75, -10249.601, -0.00597365, -0.07309407, -565594.6, -23755.145, 0.0, 10.003056, 9.989775 
1.2504022e+2, 2.5469938e+2, -472236.66, -570576.25, -10678.404, -0.0057201167, -0.06927854, -471090.47, -27151.135, 0.0, 10.0028, 9.989782 
1.2503928e+2, 2.6468858e+2, -385890.25, -492112.03, -9154.934, -0.0064082923, -0.0660584, -385107.0, -39061.64, 0.0, 10.002598, 9.98854 
1.2503853e+2, 2.7467716e+2, -289845.4, -394921.1, -8605.674, -0.008158059, -0.0646784, -289145.28, -40987.79, 0.0, 10.002454, 9.988547 
1.2503804e+2, 2.8466505e+2, -202439.19, -316229.66, -6241.896, -0.009994663, -0.066552565, -202097.81, -51821.816, 0.0, 10.002335, 9.987279 
1.2503786e+2, 2.9465225e+2, -105611.516, -218593.97, -6309.808, -0.011939024, -0.07343305, -105260.23, -52859.457, 0.0, 10.00224, 9.987291 
1.250381e+2, 3.0464232e+2, -18167.44, -87770.0, -2812.1313, -0.0119332485, -0.07634329, -18054.008, -18054.008, 0.0, 10.002154, 9.992937 
1.2503883e+2, 3.1463528e+2, -19227.81, -88096.41, -2132.3518, -0.009667238, -0.07594623, -19161.852, -19161.852, 0.0, 10.002073, 9.992954 
1.3505659e+2, 1.247871e+2, -1666368.1, -1729484.3, -1694.4822, 0.009816719, -0.07118257, -1666322.6, 50757.082, 0.0, 10.004963, 9.996597 
1.3505708e+2, 1.3478376e+2, -1568879.3, -1632120.9, -2566.079, 0.010090978, -0.064200625, -1568775.3, 50337.56, 0.0, 10.004946, 9.996564 
1.3505712e+2, 1.4477976e+2, -1478961.6, -1549297.6, -6310.4673, 0.0076625133, -0.068473116, -1478399.9, 42752.04, 0.0, 10.004885, 9.995563 
1.3505673e+2, 1.5477538e+2, -1382534.0, -1452054.1, -6308.4355, 0.006783411, -0.06422206, -1381966.1, 41228.652, 0.0, 10.004777, 9.9955635 
1.3505602e+2, 1.6477022e+2, -1297026.5, -1376361.0, -8964.445, 0.005698488, -0.06443455, -1296026.1, 29219.19, 0.0, 10.00463, 9.994118 
1.3505499e+2, 1.7476426e+2, -1201855.5, -1279825.6, -9617.431, 0.0044125244, -0.07040675, -1200686.8, 26616.723, 0.0, 10.00444, 9.994109 
1.3505377e+2, 1.8475789e+2, -1113689.1, -1197543.5, -11363.731, 0.003639652, -0.0704705, -1112176.5, 17189.635, 0.0, 10.004243, 9.993134 
1.3505237e+2, 1.9475108e+2, -1018649.0, -1100934.0, -11158.508, 0.003426427, -0.06500005, -1017162.6, 14270.227, 0.0, 10.004037, 9.993136 
1.3505085e+2, 2.0474364e+2, -932080.5, -1022151.1, -11956.049, 0.0019895025, -0.062949695, -930520.5, 2985.457, 0.0, 10.003847, 9.991918 
1.3504921e+2, 2.1473554e+2, -836601.94, -925378.6, -12329.545, -0.0007950841, -0.06548288, -834921.4, 663.9288, 0.0, 10.003673, 9.991915 
1.3504757e+2, 2.2472689e+2, -748748.56, -844054.9, -12445.246, -0.0031774263, -0.06854082, -747150.25, -9480.389, 0.0, 10.003486, 9.990866 
1.3504593e+2, 2.3471771e+2, -653637.56, -747396.44, -12080.817, -0.0051045134, -0.07324528, -652106.0, -12346.423, 0.0, 10.003283, 9.990868 
1.3504443e+2, 2.4470799e+2, -567421.44, -668582.06, -11207.314, -0.0057846317, -0.07164395, -566194.7, -24339.816, 0.0, 10.003056, 9.989664 
1.3504303e+2, 2.5469774e+2, -473070.78, -572292.75, -11640.927, -0.0050743516, -0.063872084, -471723.34, -27767.713, 0.0, 10.0028, 9.989665 
1.3504189e+2, 2.646869e+2, -384942.47, -490132.97, -9705.156, -0.0058938954, -0.061570834, -384054.56, -37992.875, 0.0, 10.002597, 9.988675 
1.3504098e+2, 2.7467558e+2, -288851.72, -392836.38, -9146.606, -0.008445675, -0.066634685, -288053.3, -39880.492, 0.0, 10.002453, 9.98869 
1.3504037e+2, 2.846635e+2, -202575.53, -316477.3, -6596.782, -0.010444292, -0.0695281, -202194.73, -51904.0, 0.0, 10.002333, 9.987263 
1.350401e+2, 2.946508e+2, -105797.05, -218929.9, -6660.1006, -0.011825454, -0.07123449, -105406.32, -52990.93, 0.0, 10.002238, 9.987269 
1.3504025e+2, 3.0464095e+2, -17062.625, -85413.37, -3108.7925, -0.012831769, -0.072099574, -16921.52, -16921.52, 0.0, 10.0021515, 9.9931 
1.3504086e+2, 3.1463405e+2, -18085.387, -85651.53, -2431.6106, -0.013384213, -0.07326764, -17997.99, -17997.99, 0.0, 10.00207, 9.993123 
1.4506184e+2, 1.24786176e+2, -1658864.0, -1727422.0, -1876.0706, 0.009222362, -0.066174604, -1658812.6, 58276.29, 0.0, 10.005543, 9.996455 
1.4506227e+2, 1.3478264e+2, -1562957.8, -1630851.8, -2343.0137, 0.010236368, -0.06307558, -1562876.9, 56246.867, 0.0, 10.005419, 9.99642 
1.4506221e+2, 1.4477853e+2, -1473884.1, -1547673.0, -6422.278, 0.008216394, -0.06883536, -1473329.4, 47834.793, 0.0, 10.005267, 9.995486 
1.4506167e+2, 1.547741e+2, -1378530.1, -1450941.8, -7002.1875, 0.007828055, -0.06298897, -1377859.1, 45348.41, 0.0, 10.005086, 9.995488 
1.450608e+2, 1.6476886e+2, -1293713.1, -1375655.0, -9825.871, 0.006394924, -0.06249796, -1292551.4, 32707.432, 0.0, 10.004894, 9.994037 
1.4505956e+2, 1.7476283e+2, -1198720.5, -1279212.9, -9795.937, 0.0038441394, -0.068738565, -1197545.5, 29772.344, 0.0, 10.004693, 9.994028 
1.4505813e+2, 1.847564e+2, -1110638.6, -1196326.4, -11604.202, 0.002809884, -0.06905131, -1109095.0, 20285.957, 0.0, 10.004462, 9.99311 
1.4505649e+2, 1.9474956e+2, -1016439.44, -1100112.8, -11978.797, 0.0034398094, -0.0638115, -1014758.3, 16689.615, 0.0, 10.004199, 9.993114 
1.4505474e+2, 2.0474207e+2, -931042.7, -1022080.44, -12810.383, 0.002346855, -0.06194551, -929274.44, 4246.888, 0.0, 10.003937, 9.9918785 
1.4505288e+2, 2.1473393e+2, -836854.5, -925943.56, -12736.15, -0.0006495037, -0.0646143, -835069.56, 531.5527, 0.0, 10.0036745, 9.991876 
1.4505105e+2, 2.2472529e+2, -749520.1, -844102.94, -12886.375, -0.002772507, -0.067271784, -747795.9, -10110.1875, 0.0, 10.003419, 9.990894 
1.4504917e+2, 2.3471616e+2, -655093.56, -747758.3, -13025.673, -0.0039140126, -0.0709844, -653297.4, -13522.388, 0.0, 10.003168, 9.990898 
1.4504741e+2, 2.4470644e+2, -569618.9, -670191.1, -12242.98, -0.0049357107, -0.068985745, -568149.94, -26279.602, 0.0, 10.002929, 9.989615 
1.4504577e+2, 2.5469613e+2, -474893.94, -573752.0, -12191.125, -0.0058256625, -0.061467573, -473412.72, -29441.055, 0.0, 10.0027, 9.989614 
1.450444e+2, 2.6468533e+2, -386013.63, -489562.88, -9917.338, -0.0074424157, -0.059974343, -385072.34, -38994.773, 0.0, 10.002477, 9.988772 
1.4504331e+2, 2.7467406e+2, -290964.94, -392721.06, -9664.547, -0.00989109, -0.06649337, -290055.16, -41867.406, 0.0, 10.002259, 9.988792 
1.4504255e+2, 2.8466207e+2, -206542.81, -318062.1, -6999.3813, -0.011356909, -0.06950179, -206105.22, -55800.2, 0.0, 10.002047, 9.987291 
1.4504215e+2, 2.946494e+2, -111444.2, -221357.05, -6700.6787, -0.011716496, -0.06978422, -111037.21, -58607.863, 0.0, 10.001839, 9.987296 
1.4504217e+2, 3.046396e+2, -22978.148, -86448.12, -2793.9766, -0.013215402, -0.070597544, -22855.395, -22855.395, 0.0, 10.001667, 9.993262 
1.4504263e+2, 3.146329e+2, -24696.867, -86971.266, -2133.7632, -0.016003024, -0.073302895, -24623.842, -24623.842, 0.0, 10.001535, 9.99329 
1.5506737e+2, 1.2478526e+2, -1659483.4, -1728714.6, -2329.3772, 0.009575446, -0.06134666, -1659405.1, 57693.074, 0.0, 10.005544, 9.9963665 
1.5506768e+2, 1.347816e+2, -1563587.8, -1632161.6, -2806.3792, 0.010209923, -0.061469395, -1563473.1, 55661.055, 0.0, 10.00542, 9.99633 
1.5506747e+2, 1.4477736e+2, -1474943.5, -1549863.8, -7097.3706, 0.008502459, -0.06851859, -1474277.1, 46898.67, 0.0, 10.005267, 9.9953375 
1.5506677e+2, 1.5477279e+2, -1379599.5, -1453155.3, -7677.1963, 0.009619533, -0.061329037, -1378806.8, 44413.855, 0.0, 10.005087, 9.9953375 
1.550657e+2, 1.6476749e+2, -1293664.6, -1375569.0, -10579.117, 0.0081006335, -0.06040293, -1292320.3, 32952.19, 0.0, 10.004895, 9.994042 
1.5506425e+2, 1.7476146e+2, -1198646.9, -1279074.4, -10548.069, 0.0037203748, -0.06721326, -1197286.5, 30044.816, 0.0, 10.004694, 9.994037 
1.5506257e+2, 1.8475497e+2, -1111314.5, -1197732.9, -12586.224, 0.0015329315, -0.067999505, -1109518.8, 19876.168, 0.0, 10.004463, 9.993014 
1.5506066e+2, 1.9474804e+2, -1017133.75, -1101558.8, -12964.935, 0.0017560659, -0.06311085, -1015187.6, 16275.362, 0.0, 10.0042, 9.993015 
1.5505867e+2, 2.0474051e+2, -930916.75, -1021831.8, -13792.966, 0.0013352507, -0.061240196, -928870.25, 4666.496, 0.0, 10.003937, 9.991896 
1.5505658e+2, 2.147324e+2, -836714.1, -925659.0, -13717.484, 0.00020197, -0.063530184, -834646.6, 969.71075, 0.0, 10.003675, 9.991895 
1.5505448e+2, 2.2472376e+2, -749760.9, -844599.75, -13826.65, -0.00061529595, -0.06489961, -747786.2, -10085.283, 0.0, 10.003419, 9.99086 
1.5505236e+2, 2.3471461e+2, -655351.5, -748284.56, -13965.975, -0.0010714086, -0.06629477, -653298.06, -13507.644, 0.0, 10.003168, 9.990863 
1.5505035e+2, 2.4470486e+2, -569541.5, -670017.5, -13102.383, -0.003439041, -0.065139286, -567861.0, -25975.045, 0.0, 10.002928, 9.989627 
1.5504844e+2, 2.5469452e+2, -474814.25, -573567.56, -13046.852, -0.007950301, -0.062012207, -473119.63, -29132.137, 0.0, 10.002699, 9.989627 
1.5504685e+2, 2.6468375e+2, -385614.38, -488706.06, -10731.189, -0.011021569, -0.06122482, -384509.2, -38416.1, 0.0, 10.002476, 9.9888315 
1.5504555e+2, 2.7467257e+2, -290567.13, -391852.34, -10480.549, -0.012477629, -0.06429095, -289494.03, -41291.69, 0.0, 10.002257, 9.9888525 
1.5504459e+2, 2.8466067e+2, -206052.03, -316989.84, -7778.573, -0.012727112, -0.066521324, -205509.28, -55190.41, 0.0, 10.002045, 9.987366 
1.5504397e+2, 2.9464802e+2, -110958.195, -220288.56, -7480.735, -0.011613924, -0.06906995, -110448.72, -58006.047, 0.0, 10.001836, 9.9873705 
1.5504383e+2, 3.0463836e+2, -21886.795, -84112.74, -3286.8965, -0.013094574, -0.071794316, -21713.656, -21713.656, 0.0, 10.001664, 9.993424 
1.5504415e+2, 3.1463182e+2, -23594.707, -84599.88, -2621.459, -0.017546406, -0.07600873, -23482.268, -23482.268, 0.0, 10.001533, 9.993454 
1.6507317e+2, 1.24784335e+2, -1653250.4, -1726407.0, -2727.5037, 0.012413341, -0.060768597, -1653148.8, 63958.684, 0.0, 10.005999, 9.996302 
1.650733e+2, 1.3478065e+2, -1558625.8, -1630482.1, -3046.7578, 0.011773213, -0.057943802, -1558496.9, 60646.902, 0.0, 10.005789, 9.996264 
1.650729e+2, 1.447763e+2, -1471340.6, -1549545.4, -7292.988, 0.009366065, -0.06513838, -1470666.4, 50519.945, 0.0, 10.005575, 9.99521 
1.6507201e+2, 1.5477157e+2, -1376544.5, -1453125.6, -7716.649, 0.010855229, -0.060912922, -1375774.6, 47457.992, 0.0, 10.005358, 9.995208 
1.6507073e+2, 1.6476619e+2, -1290171.4, -1373796.5, -10615.739, 0.009304592, -0.060568683, -1288844.8, 36440.438, 0.0, 10.005131, 9.994049 
1.6506904e+2, 1.747602e+2, -1195671.0, -1277521.4, -10581.954, 0.0044490374, -0.065364584, -1194325.0, 33018.79, 0.0, 10.004892, 9.994046 
1.6506712e+2, 1.8475366e+2, -1109550.3, -1198032.8, -12839.893, 0.0019258109, -0.06567292, -1107724.8, 21683.117, 0.0, 10.004633, 9.99291 
1.6506495e+2, 1.9474663e+2, -1015661.1, -1102036.1, -13276.434, 0.0019688478, -0.06197895, -1013666.5, 17810.55, 0.0, 10.004352, 9.992909 
1.6506267e+2, 2.0473905e+2, -929072.44, -1020701.2, -14184.72, 0.001437506, -0.060387827, -926926.8, 6624.5073, 0.0, 10.004053, 9.991917 
1.6506028e+2, 2.1473096e+2, -835676.44, -924887.9, -14076.168, 0.00027333855, -0.061962638, -833508.1, 2122.4155, 0.0, 10.003735, 9.991919 
1.650579e+2, 2.2472231e+2, -750162.25, -845475.7, -14226.146, -0.00052736903, -0.06262431, -748084.2, -10368.984, 0.0, 10.003421, 9.990799 
1.6505551e+2, 2.347131e+2, -656623.6, -749614.1, -14570.698, -0.0009181464, -0.063301206, -654394.0, -14588.68, 0.0, 10.003112, 9.990799 
1.6505323e+2, 2.4470337e+2, -570554.7, -669592.7, -13460.266, -0.0034677102, -0.062809885, -568757.9, -26857.025, 0.0, 10.002819, 9.989709 
1.6505107e+2, 2.546931e+2, -476476.25, -573413.44, -12864.069, -0.00844245, -0.061911415, -474798.16, -30796.445, 0.0, 10.002544, 9.989712 
1.650492e+2, 2.6468238e+2, -388887.06, -490073.94, -10499.885, -0.011207809, -0.061184336, -387809.0, -41702.24, 0.0, 10.002243, 9.988851 
1.6504763e+2, 2.7467123e+2, -295527.25, -394062.97, -10579.328, -0.011482087, -0.061850287, -294404.22, -46188.51, 0.0, 10.001909, 9.988869 
1.6504644e+2, 2.846594e+2, -211405.06, -318416.8, -7723.7188, -0.011661834, -0.06360331, -210850.47, -60518.86, 0.0, 10.001628, 9.98747 
1.6504559e+2, 2.9464683e+2, -116537.65, -221796.16, -7188.6226, -0.011745834, -0.06787062, -116048.97, -63594.477, 0.0, 10.001402, 9.987476 
1.6504525e+2, 3.046373e+2, -27903.82, -85635.46, -2813.6953, -0.014224095, -0.07164021, -27767.014, -27767.014, 0.0, 10.001192, 9.993547 
1.6504541e+2, 3.1463084e+2, -30539.045, -86568.07, -2452.5388, -0.019448178, -0.076127715, -30431.896, -30431.896, 0.0, 10.000997, 9.993577 
1.7507923e+2, 1.247834e+2, -1653540.3, -1727032.5, -3490.2773, 0.01765901, -0.06437449, -1653374.9, 63741.895, 0.0, 10.0060005, 9.996259 
1.7507914e+2, 1.3477975e+2, -1558912.4, -1631106.8, -3828.8176, 0.014880514, -0.052554823, -1558709.9, 60442.754, 0.0, 10.005791, 9.996222 
1.750785e+2, 1.4477535e+2, -1472086.4, -1551115.3, -8104.298, 0.010789728, -0.058778945, -1471263.9, 49932.066, 0.0, 10.005576, 9.995102 
1.7507738e+2, 1.5477042e+2, -1377306.3, -1454727.0, -8521.445, 0.011548954, -0.061706074, -1376379.5, 46864.5, 0.0, 10.00536, 9.995098 
1.7507587e+2, 1.6476499e+2, -1290100.4, -1373679.1, -11501.249, 0.010018785, -0.06293594, -1288546.6, 36750.547, 0.0, 10.005132, 9.994056 
1.7507397e+2, 1.7475905e+2, -1195590.9, -1277376.3, -11472.243, 0.0060062935, -0.06320337, -1194012.0, 33343.203, 0.0, 10.004893, 9.994056 
1.7507178e+2, 1.847525e+2, -1110324.3, -1199642.1, -13893.047, 0.0039446237, -0.062104624, -1108213.1, 21206.484, 0.0, 10.004634, 9.992801 
1.7506932e+2, 1.947453e+2, -1016462.1, -1103698.8, -14328.428, 0.004029902, -0.060426876, -1014169.0, 17321.184, 0.0, 10.004353, 9.992795 
1.7506672e+2, 2.0473768e+2, -928889.25, -1020331.3, -15372.926, 0.0026266854, -0.059392955, -926374.0, 7190.934, 0.0, 10.004053, 9.991941 
1.7506401e+2, 2.1472964e+2, -835470.7, -924470.5, -15268.808, -0.00041780615, -0.059924383, -832924.06, 2719.6907, 0.0, 10.003735, 9.991947 
1.750613e+2, 2.2472094e+2, -750777.5, -846749.9, -15383.429, -0.0024639273, -0.06044378, -748372.0, -10643.302, 0.0, 10.003421, 9.990712 
1.7505859e+2, 2.3471166e+2, -657271.06, -750946.56, -15724.043, -0.0033980263, -0.061968084, -654702.1, -14882.315, 0.0, 10.003112, 9.990708 
1.7505603e+2, 2.4470194e+2, -569507.8, -667407.1, -14489.979, -0.004993665, -0.06196907, -567408.2, -25493.04, 0.0, 10.002819, 9.989858 
1.7505363e+2, 2.546918e+2, -475391.75, -571133.44, -13894.425, -0.0073374817, -0.061181962, -473416.13, -29401.734, 0.0, 10.002543, 9.989868 
1.7505148e+2, 2.6468116e+2, -389055.5, -490381.06, -11741.342, -0.008067254, -0.059878666, -387712.72, -41594.043, 0.0, 10.002241, 9.98883 
1.750496e+2, 2.7467e+2, -295739.9, -394461.0, -11827.868, -0.0069721015, -0.059176702, -294342.6, -46114.715, 0.0, 10.001908, 9.988842 
1.750481e+2, 2.8465822e+2, -210509.0, -316508.3, -8576.057, -0.008205769, -0.060748465, -209819.63, -59476.332, 0.0, 10.001626, 9.987601 
1.75047e+2, 2.946458e+2, -115614.66, -219820.16, -8030.384, -0.01210962, -0.06619776, -114999.445, -62534.58, 0.0, 10.0014, 9.987613 
1.7504641e+2, 3.0463636e+2, -27351.158, -84416.22, -3541.4917, -0.016584773, -0.07016105, -27132.213, -27132.213, 0.0, 10.001188, 9.993632 
1.7504637e+2, 3.1462997e+2, -30012.883, -85389.03, -3180.088, -0.021707347, -0.073706225, -29830.857, -29830.857, 0.0, 10.000993, 9.99366 
1.850855e+2, 1.2478275e+2, -1646852.5, -1725323.6, -2300.0942, 0.019954268, -0.066194676, -1646785.3, 70337.95, 0.0, 10.006522, 9.99612 
1.8508518e+2, 1.3477899e+2, -1552661.4, -1629625.1, -3362.3945, 0.015387104, -0.051159404, -1552514.8, 66645.42, 0.0, 10.006284, 9.996081 
1.8508428e+2, 1.4477451e+2, -1465818.4, -1548614.8, -7874.5747, 0.010204621, -0.05644028, -1465076.1, 56128.176, 0.0, 10.006027, 9.995052 
1.8508293e+2, 1.5476951e+2, -1371876.6, -1452618.0, -7836.9673, 0.011120187, -0.0604029, -1371123.0, 52129.883, 0.0, 10.005753, 9.99505 
1.8508115e+2, 1.64764e+2, -1285960.8, -1372629.3, -11044.319, 0.010157622, -0.061895378, -1284575.5, 40731.32, 0.0, 10.005456, 9.99397 
1.8507898e+2, 1.74758e+2, -1192661.9, -1276931.6, -11729.771, 0.007164751, -0.061569527, -1191059.6, 36306.07, 0.0, 10.005136, 9.993968 
1.850765e+2, 1.8475138e+2, -1108080.1, -1199093.9, -14392.574, 0.005319202, -0.06005658, -1105858.4, 23572.29, 0.0, 10.00481, 9.992752 
1.8507375e+2, 1.9474414e+2, -1014916.0, -1103484.9, -14345.326, 0.004737475, -0.05816776, -1012650.44, 18851.266, 0.0, 10.004481, 9.992747 
1.8507083e+2, 2.047365e+2, -927535.0, -1019695.3, -15325.676, 0.002750626, -0.057180334, -925053.25, 8523.494, 0.0, 10.004147, 9.99194 
1.8506777e+2, 2.1472844e+2, -834428.06, -923976.94, -15440.302, -0.0007856135, -0.058036797, -831840.56, 3814.9824, 0.0, 10.003807, 9.991945 
1.8506473e+2, 2.2471975e+2, -750571.7, -846928.94, -15503.436, -0.0029414226, -0.059049472, -748138.7, -10398.0, 0.0, 10.003448, 9.990687 
1.8506168e+2, 2.3471041e+2, -658135.0, -751658.1, -15366.102, -0.0035612131, -0.06126054, -655675.0, -15842.859, 0.0, 10.003065, 9.990682 
1.8505879e+2, 2.4470071e+2, -571006.3, -667262.9, -14103.403, -0.0045957207, -0.061183427, -568982.44, -27055.246, 0.0, 10.002679, 9.989936 
1.8505605e+2, 2.5469068e+2, -478582.88, -571776.7, -14072.902, -0.0060998006, -0.059459288, -476504.16, -32478.592, 0.0, 10.002286, 9.989948 
1.8505357e+2, 2.646801e+2, -393546.16, -492337.06, -12051.2295, -0.007025919, -0.05740179, -392097.3, -45967.996, 0.0, 10.0019245, 9.98885 
1.8505135e+2, 2.7466896e+2, -300160.72, -396410.1, -11819.531, -0.0072949124, -0.056151215, -298730.5, -50492.17, 0.0, 10.001597, 9.988859 
1.8504955e+2, 2.8465727e+2, -214445.56, -317012.4, -8130.8823, -0.009311517, -0.057971746, -213805.0, -63451.88, 0.0, 10.001296, 9.987725 
1.850482e+2, 2.9464492e+2, -120214.266, -220607.56, -7643.1, -0.013341781, -0.06458578, -119635.72, -67162.234, 0.0, 10.001022, 9.9877405 
1.8504737e+2, 3.0463558e+2, -33158.51, -86498.66, -3172.2168, -0.017396713, -0.06841824, -32970.52, -32970.52, 0.0, 10.000759, 9.993696 
1.8504712e+2, 3.1462932e+2, -36693.87, -87925.39, -2972.526, -0.02146525, -0.07033863, -36521.98, -36521.98, 0.0, 10.0005045, 9.993721 
1.9509202e+2, 1.2478238e+2, -1648480.4, -1728708.0, -3172.2407, 0.019385424, -0.06632233, -1648355.3, 68771.52, 0.0, 10.006524, 9.99589 
1.9509143e+2, 1.3477837e+2, -1554296.5, -1633036.0, -4242.34, 0.013375473, -0.05362985, -1554068.5, 65097.797, 0.0, 10.006287, 9.995849 
1.9509028e+2, 1.4477377e+2, -1465734.8, -1548495.5, -8891.247, 0.007673304, -0.05799827, -1464790.4, 56421.137, 0.0, 10.00603, 9.995059 
1.9508867e+2, 1.5476885e+2, -1371759.8, -1452423.1, -8861.416, 0.009602224, -0.057069063, -1370797.8, 52461.848, 0.0, 10.005754, 9.995063 
1.9508661e+2, 1.6476327e+2, -1287195.5, -1375209.8, -12240.046, 0.0097378595, -0.057548493, -1285525.0, 39789.145, 0.0, 10.005457, 9.9937935 
1.9508412e+2, 1.7475705e+2, -1193935.1, -1279584.9, -12922.773, 0.007935708, -0.060447186, -1192027.8, 35347.418, 0.0, 10.0051365, 9.993787 
1.9508132e+2, 1.8475032e+2, -1107983.4, -1198918.6, -15619.803, 0.0060677314, -0.0594872, -1105375.1, 24065.932, 0.0, 10.004812, 9.9927635 
1.9507822e+2, 1.9474313e+2, -1014790.3, -1103246.0, -15574.119, 0.0041286633, -0.05522345, -1012128.4, 19383.4, 0.0, 10.004482, 9.9927635 
1.9507496e+2, 2.0473549e+2, -927728.75, -1020104.44, -16596.072, 0.0018365139, -0.05378381, -924837.6, 8749.187, 0.0, 10.004148, 9.991911 
1.9507158e+2, 2.1472739e+2, -834644.56, -924415.56, -16710.95, -0.0008402907, -0.05629664, -831634.75, 4031.2966, 0.0, 10.003807, 9.991916 
1.9506818e+2, 2.2471869e+2, -750329.6, -846411.06, -16927.004, -0.001998045, -0.058423616, -747434.75, -9683.588, 0.0, 10.003447, 9.990723 
1.9506477e+2, 2.3470938e+2, -657884.3, -751120.94, -16793.291, -0.0014643881, -0.061166395, -654951.8, -15109.467, 0.0, 10.003065, 9.990719 
1.9506149e+2, 2.446997e+2, -570968.44, -667164.5, -15572.023, -0.0023179702, -0.060454696, -568510.44, -26573.322, 0.0, 10.002678, 9.989943 
1.9505835e+2, 2.5468972e+2, -478555.84, -571698.94, -15544.42, -0.0047325515, -0.05676546, -476030.16, -31994.865, 0.0, 10.002285, 9.989954 
1.9505548e+2, 2.6467916e+2, -393155.94, -491500.94, -13280.013, -0.008040873, -0.05377867, -391394.22, -45255.543, 0.0, 10.001924, 9.988907 
1.950529e+2, 2.746681e+2, -299768.94, -395560.63, -13041.453, -0.012356432, -0.05278486, -298025.16, -49777.977, 0.0, 10.0015955, 9.988917 
1.9505079e+2, 2.8465647e+2, -213650.0, -315308.2, -9153.109, -0.014895806, -0.05527625, -212832.44, -62471.293, 0.0, 10.001293, 9.987843 
1.950492e+2, 2.9464424e+2, -119423.836, -218890.14, -8660.262, -0.015429827, -0.0630351, -118675.445, -66195.05, 0.0, 10.0010195, 9.98786 
1.9504814e+2, 3.04635e+2, -32914.324, -85896.14, -4115.52, -0.016692512, -0.06641821, -32596.545, -32596.545, 0.0, 10.000755, 9.993739 
1.9504765e+2, 3.1462875e+2, -36484.2, -87377.57, -3912.5186, -0.018776666, -0.06604418, -36185.176, -36185.176, 0.0, 10.0005, 9.993761 
2.0509885e+2, 1.2478233e+2, -1641039.6, -1726985.6, -2087.4773, 0.020093318, -0.062576026, -1640989.0, 76138.38, 0.0, 10.007113, 9.99572 
2.0509802e+2, 1.347781e+2, -1547139.8, -1631472.9, -2720.655, 0.014150135, -0.05583876, -1547052.1, 72117.09, 0.0, 10.006857, 9.995677 
2.0509659e+2, 1.4477335e+2, -1458791.1, -1546295.3, -7792.072, 0.008059135, -0.0604096, -1458102.6, 63113.09, 0.0, 10.006554, 9.994954 
2.0509464e+2, 1.5476839e+2, -1365951.9, -1450767.5, -8620.464, 0.009627702, -0.05307988, -1365084.6, 58179.75, 0.0, 10.006201, 9.994958 
2.0509225e+2, 1.647627e+2, -1282573.1, -1374229.6, -12375.851, 0.009808096, -0.052420713, -1280931.5, 44388.418, 0.0, 10.005827, 9.99368 
2.0508942e+2, 1.7475632e+2, -1190424.8, -1279158.8, -12566.964, 0.008494999, -0.05994965, -1188679.3, 38703.184, 0.0, 10.005432, 9.993672 
2.0508626e+2, 1.8474953e+2, -1104722.0, -1197561.4, -15110.288, 0.006712592, -0.060098052, -1102324.6, 27124.463, 0.0, 10.005044, 9.9927435 
2.0508279e+2, 1.9474234e+2, -1012230.06, -1102210.8, -15315.888, 0.004412609, -0.053064436, -1009694.56, 21825.137, 0.0, 10.004666, 9.992744 
2.0507917e+2, 2.0473468e+2, -926448.7, -1019773.5, -16640.303, 0.0021064382, -0.050653793, -923570.44, 10024.463, 0.0, 10.004248, 9.991885 
2.0507538e+2, 2.1472655e+2, -835169.2, -924969.3, -16736.994, -0.0001958926, -0.054182824, -832151.2, 3523.2961, 0.0, 10.003784, 9.991889 
2.050716e+2, 2.2471786e+2, -751394.3, -846333.44, -16844.55, -0.0012827663, -0.05685827, -748494.25, -10734.663, 0.0, 10.003348, 9.990776 
2.0506778e+2, 2.347086e+2, -659269.5, -751178.3, -16579.244, -0.0010192615, -0.05963905, -656370.25, -16520.123, 0.0, 10.002944, 9.990773 
2.050641e+2, 2.4469896e+2, -573047.1, -668238.2, -15360.034, -0.0021898844, -0.058585875, -570630.0, -28685.307, 0.0, 10.002539, 9.989937 
2.0506056e+2, 2.5468895e+2, -480834.78, -572895.7, -15438.723, -0.0049759266, -0.05411396, -478314.7, -34271.793, 0.0, 10.002133, 9.989945 
2.0505731e+2, 2.6467845e+2, -395300.78, -491724.28, -13001.337, -0.008742239, -0.051274296, -393578.5, -47432.504, 0.0, 10.001741, 9.988979 
2.0505437e+2, 2.7466744e+2, -302620.84, -396101.56, -12641.629, -0.013616472, -0.05148707, -300941.44, -52687.605, 0.0, 10.001364, 9.988993 
2.0505191e+2, 2.8465587e+2, -217566.78, -315833.7, -8662.762, -0.01599783, -0.05403131, -216808.95, -66442.12, 0.0, 10.000966, 9.987965 
2.0504998e+2, 2.946438e+2, -125500.14, -220444.75, -8144.1675, -0.015548285, -0.06053236, -124806.62, -72321.84, 0.0, 10.000544, 9.987982 
2.0504862e+2, 3.0463466e+2, -40539.293, -88125.445, -3051.1865, -0.015955042, -0.064372554, -40344.45, -40344.45, 0.0, 10.00017, 9.993869 
2.0504785e+2, 3.1462857e+2, -45052.8, -90067.1, -2184.462, -0.017326044, -0.06642466, -44947.04, -44947.04, 0.0, 9.999849, 9.99389 
2.1510598e+2, 1.2478258e+2, -1641804.8, -1728610.1, -3036.3772, 0.022022055, -0.055142518, -1641698.8, 75426.5, 0.0, 10.007115, 9.995608 
2.1510491e+2, 1.3477813e+2, -1547924.6, -1633118.5, -3678.6619, 0.017607309, -0.057791512, -1547766.1, 71402.8, 0.0, 10.006858, 9.995564 
2.1510318e+2, 1.4477322e+2, -1460304.3, -1549433.4, -9104.396, 0.0112554515, -0.06363837, -1459383.8, 61833.344, 0.0, 10.006555, 9.9947405 
2.1510085e+2, 1.5476811e+2, -1367477.6, -1453943.9, -9934.799, 0.011139716, -0.04845979, -1366350.9, 56916.367, 0.0, 10.006203, 9.994741 
2.1509808e+2, 1.6476232e+2, -1282920.6, -1374986.1, -13847.494, 0.010349796, -0.046541568, -1280883.0, 44441.03, 0.0, 10.005829, 9.993628 
2.1509485e+2, 1.7475581e+2, -1190752.0, -1279870.3, -14038.419, 0.008848946, -0.060056105, -1188592.9, 38794.676, 0.0, 10.005433, 9.993624 
2.150913e+2, 1.8474895e+2, -1105070.8, -1198305.3, -16518.525, 0.00725582, -0.061850417, -1102230.6, 27224.193, 0.0, 10.005045, 9.992692 
2.1508747e+2, 1.9474176e+2, -1012596.56, -1102971.8, -16722.621, 0.0055603236, -0.05166716, -1009601.5, 21924.107, 0.0, 10.004666, 9.992692 
2.1508344e+2, 2.0473407e+2, -926618.6, -1020122.5, -18363.791, 0.0035240592, -0.047784373, -923141.4, 10459.722, 0.0, 10.004248, 9.991861 
2.1507917e+2, 2.1472591e+2, -835335.06, -925316.0, -18468.096, 0.0011261061, -0.051707834, -831692.06, 3988.9321, 0.0, 10.003784, 9.991865 
2.1507494e+2, 2.2471723e+2, -750897.94, -845311.0, -18359.262, -0.0007906648, -0.05438115, -747453.5, -9687.61, 0.0, 10.003348, 9.990846 
2.1507071e+2, 2.3470806e+2, -658762.1, -750125.75, -18090.252, -0.0021843386, -0.056717828, -655310.6, -15454.924, 0.0, 10.002944, 9.990845 
2.1506663e+2, 2.4469844e+2, -573189.5, -668518.06, -16875.746, -0.004160636, -0.05560644, -570290.2, -28340.264, 0.0, 10.002539, 9.989918 
2.1506266e+2, 2.546884e+2, -481011.6, -573230.44, -16952.955, -0.00679473, -0.051507298, -477993.84, -33945.402, 0.0, 10.002132, 9.9899235 
2.1505904e+2, 2.646779e+2, -394719.28, -490466.38, -14407.838, -0.00914055, -0.049867377, -392598.22, -46446.883, 0.0, 10.0017395, 9.989066 
2.1505575e+2, 2.74667e+2, -302035.28, -394808.06, -14044.432, -0.011160695, -0.05221712, -299955.78, -51697.363, 0.0, 10.001361, 9.989082 
2.150529e+2, 2.8465554e+2, -216738.66, -314022.06, -10231.133, -0.012713618, -0.054211583, -215674.3, -65304.016, 0.0, 10.000962, 9.9880905 
2.1505053e+2, 2.946436e+2, -124669.32, -218624.67, -9721.868, -0.013738704, -0.057100493, -123673.914, -71187.23, 0.0, 10.00054, 9.988109 
2.1504878e+2, 3.0463466e+2, -39106.664, -85047.74, -4248.697, -0.015188349, -0.062286377, -38717.043, -38717.043, 0.0, 10.000165, 9.9940815 
2.150477e+2, 3.1462866e+2, -43612.418, -86959.02, -3368.5671, -0.017100971, -0.071394205, -43352.2, -43352.2, 0.0, 9.999845, 9.994105 
2.2511344e+2, 1.2478298e+2, -1633004.1, -1725455.6, -2881.7495, 0.022460744, -0.050813045, -1632914.4, 84207.18, 0.0, 10.007764, 9.995507 
2.2511205e+2, 1.3477843e+2, -1541322.0, -1631049.8, -3467.492, 0.019851517, -0.054089963, -1541188.3, 77978.0, 0.0, 10.007358, 9.995462 
2.2510995e+2, 1.4477336e+2, -1455411.6, -1548999.5, -8802.795, 0.013638664, -0.0609388, -1454590.8, 66625.086, 0.0, 10.006972, 9.994566 
2.2510728e+2, 1.5476808e+2, -1362724.6, -1453607.0, -9335.768, 0.012345667, -0.04685959, -1361775.5, 61492.285, 0.0, 10.006612, 9.994565 
2.2510411e+2, 1.6476217e+2, -1277546.6, -1372674.5, -13254.806, 0.010708223, -0.04508805, -1275734.3, 49591.406, 0.0, 10.006208, 9.993601 
2.2510044e+2, 1.7475566e+2, -1186158.6, -1277909.6, -13269.455, 0.0087259235, -0.057725646, -1184278.1, 43111.145, 0.0, 10.005758, 9.993599 
2.2509648e+2, 1.8474875e+2, -1102117.5, -1197675.6, -15803.533, 0.0074266545, -0.059769217, -1099571.8, 29885.23, 0.0, 10.005281, 9.9926195 
2.250922e+2, 1.9474146e+2, -1011513.7, -1103273.1, -16168.066, 0.0068803094, -0.051052894, -1008748.2, 22780.47, 0.0, 10.004776, 9.992619 
2.250877e+2, 2.0473371e+2, -926081.1, -1020066.5, -17939.027, 0.0047599906, -0.04710015, -922773.5, 10831.08, 0.0, 10.0042925, 9.991842 
2.25083e+2, 2.1472555e+2, -834715.6, -925210.8, -17997.932, 0.0009143153, -0.049271315, -831267.56, 4417.0264, 0.0, 10.003835, 9.991847 
2.250783e+2, 2.247169e+2, -750232.44, -844620.8, -17884.313, -0.0017484442, -0.051359218, -746957.44, -9188.075, 0.0, 10.003378, 9.990878 
2.2507364e+2, 2.3470774e+2, -658828.94, -749780.25, -17894.51, -0.0031155334, -0.05439848, -655434.9, -15576.042, 0.0, 10.002923, 9.990878 
2.250691e+2, 2.4469817e+2, -574464.7, -668858.6, -16784.695, -0.0049065864, -0.05336635, -571568.94, -29616.143, 0.0, 10.0024395, 9.989942 
2.250647e+2, 2.5468817e+2, -483893.47, -574358.25, -16525.527, -0.0071738306, -0.04865726, -480969.22, -36918.168, 0.0, 10.001924, 9.989947 
2.2506061e+2, 2.6467773e+2, -399031.88, -491172.06, -13713.865, -0.008566246, -0.04765367, -397034.06, -50880.793, 0.0, 10.001385, 9.989189 
2.2505686e+2, 2.746669e+2, -309061.38, -396794.13, -13089.318, -0.008965036, -0.052046936, -307150.13, -58890.88, 0.0, 10.000819, 9.989207 
2.2505358e+2, 2.8465557e+2, -225288.84, -317154.47, -9037.959, -0.010424956, -0.05436679, -224408.11, -74038.016, 0.0, 10.000334, 9.988179 
2.2505078e+2, 2.9464376e+2, -132819.19, -221581.77, -8816.557, -0.013101918, -0.055611987, -131951.94, -79466.39, 0.0, 9.999939, 9.988195 
2.2504865e+2, 3.0463496e+2, -46063.066, -85663.63, -3096.5544, -0.015751762, -0.060324542, -45822.395, -45822.395, 0.0, 9.99957, 9.994327 
2.2504722e+2, 3.146292e+2, -50829.55, -87643.89, -1957.5663, -0.018335849, -0.07033277, -50725.754, -50725.754, 0.0, 9.9992285, 9.994354 
2.3512119e+2, 1.2478354e+2, -1633607.6, -1726789.1, -4370.5327, 0.021466667, -0.049473, -1633403.0, 83713.37, 0.0, 10.007768, 9.995414 
2.351194e+2, 1.3477898e+2, -1541934.4, -1632396.0, -4976.981, 0.020931305, -0.04497066, -1541661.4, 77499.84, 0.0, 10.007361, 9.995369 
2.3511694e+2, 1.4477378e+2, -1456332.6, -1550963.9, -10144.554, 0.015239526, -0.052555874, -1455257.4, 65954.69, 0.0, 10.006976, 9.9944315 
2.351139e+2, 1.5476826e+2, -1363674.9, -1455605.5, -10667.734, 0.013255832, -0.0481559, -1362453.3, 60812.914, 0.0, 10.006615, 9.994429 
2.3511033e+2, 1.6476229e+2, -1277550.9, -1372713.3, -14919.905, 0.010889518, -0.04788504, -1275266.5, 50058.25, 0.0, 10.00621, 9.993597 
2.351062e+2, 1.7475583e+2, -1186142.3, -1277907.0, -14945.609, 0.008143685, -0.053050417, -1183769.4, 43618.297, 0.0, 10.00576, 9.993598 
2.3510176e+2, 1.8474889e+2, -1102750.1, -1199013.0, -17686.197, 0.007238303, -0.0539938, -1099603.6, 29852.232, 0.0, 10.005283, 9.992528 
2.35097e+2, 1.9474146e+2, -1012164.94, -1104652.6, -18050.734, 0.008364648, -0.051195227, -1008766.8, 22762.12, 0.0, 10.004778, 9.992523 
2.3509201e+2, 2.0473364e+2, -926155.0, -1020248.2, -19647.236, 0.0058179623, -0.04852941, -922217.3, 11388.203, 0.0, 10.004294, 9.99183 
2.3508681e+2, 2.1472551e+2, -834787.3, -925372.1, -19702.031, -0.0007839728, -0.046874456, -830687.7, 4997.6167, 0.0, 10.003836, 9.991836 
2.3508164e+2, 2.2471686e+2, -750259.4, -844667.94, -19578.375, -0.004114106, -0.047811612, -746360.25, -8590.192, 0.0, 10.003378, 9.990874 
2.3507655e+2, 2.3470768e+2, -658876.2, -749841.8, -19587.662, -0.0038214733, -0.052665964, -654837.6, -14977.894, 0.0, 10.002921, 9.990875 
2.3507155e+2, 2.4469814e+2, -574021.6, -667892.1, -18700.428, -0.0044625434, -0.05184857, -570433.4, -28479.969, 0.0, 10.002438, 9.990009 
2.3506662e+2, 2.546882e+2, -483440.2, -573369.0, -18448.775, -0.006151783, -0.045572724, -479802.6, -35751.746, 0.0, 10.001921, 9.990015 
2.3506202e+2, 2.6467788e+2, -397945.53, -488873.4, -15818.846, -0.0070440997, -0.04465633, -395272.1, -49120.125, 0.0, 10.001383, 9.9893465 
2.350577e+2, 2.746672e+2, -307956.2, -394461.66, -15203.683, -0.0070249857, -0.05100334, -305361.9, -57105.4, 0.0, 10.000817, 9.9893675 
2.3505393e+2, 2.84656e+2, -224949.81, -316399.88, -10527.414, -0.009113729, -0.054503247, -223753.6, -73387.2, 0.0, 10.000332, 9.988232 
2.3505071e+2, 2.946442e+2, -132527.67, -220899.34, -10283.814, -0.013618064, -0.056030884, -131346.72, -78865.25, 0.0, 9.999935, 9.988244 
2.350482e+2, 3.0463558e+2, -44196.656, -81684.31, -4364.3433, -0.017624661, -0.058488604, -43695.26, -43695.26, 0.0, 9.999565, 9.994601 
2.3504642e+2, 3.1463015e+2, -48927.113, -83561.42, -3225.005, -0.021016609, -0.06336316, -48629.375, -48629.375, 0.0, 9.999224, 9.994637 
2.4512936e+2, 1.2478453e+2, -1623014.9, -1723324.8, -2807.5212, 0.022282256, -0.04907339, -1622936.4, 94170.5, 0.0, 10.008562, 9.995262 
2.4512713e+2, 1.3477984e+2, -1532642.3, -1629584.1, -3868.3562, 0.020988826, -0.041060764, -1532488.1, 86664.82, 0.0, 10.008068, 9.995216 
2.4512422e+2, 1.4477454e+2, -1448385.5, -1548199.6, -9084.223, 0.015248436, -0.048640348, -1447565.5, 73639.46, 0.0, 10.007565, 9.994332 
2.4512075e+2, 1.5476888e+2, -1357942.4, -1453914.6, -9324.956, 0.014458611, -0.04783209, -1357044.8, 66215.58, 0.0, 10.007052, 9.99433 
2.4511671e+2, 1.6476282e+2, -1273024.5, -1371239.3, -13774.417, 0.012477313, -0.047698088, -1271129.3, 54190.58, 0.0, 10.00655, 9.993532 
2.4511212e+2, 1.7475633e+2, -1182206.0, -1276715.0, -14269.388, 0.009233558, -0.049193494, -1180098.6, 47284.47, 0.0, 10.00606, 9.993534 
2.4510717e+2, 1.8474935e+2, -1099118.6, -1197752.9, -17248.088, 0.007486092, -0.049587563, -1096189.4, 33262.207, 0.0, 10.005552, 9.992483 
2.451019e+2, 1.9474182e+2, -1008812.2, -1103529.4, -17252.246, 0.007395479, -0.04969524, -1005767.6, 25757.8, 0.0, 10.005029, 9.992478 
2.4509639e+2, 2.0473398e+2, -923486.25, -1019235.44, -18681.027, 0.0045749918, -0.04779132, -919970.56, 13631.82, 0.0, 10.004489, 9.991804 
2.4509068e+2, 2.1472584e+2, -833547.25, -925052.8, -18835.896, -0.0012673192, -0.044513855, -829821.7, 5860.59, 0.0, 10.003932, 9.991811 
2.45085e+2, 2.2471718e+2, -750669.3, -844720.0, -18830.531, -0.0039483286, -0.0450852, -747039.25, -9272.154, 0.0, 10.003344, 9.990888 
2.4507938e+2, 2.3470801e+2, -661756.94, -751086.2, -18718.553, -0.0031178582, -0.050977115, -657993.1, -18136.379, 0.0, 10.002718, 9.990888 
2.4507384e+2, 2.4469848e+2, -577970.4, -669023.6, -17705.266, -0.0035737434, -0.050733306, -574648.75, -32698.723, 0.0, 10.002133, 9.990078 
2.4506839e+2, 2.5468865e+2, -487709.78, -574641.25, -17436.732, -0.005477914, -0.044515405, -484342.72, -40295.91, 0.0, 10.001595, 9.990086 
2.4506323e+2, 2.6467845e+2, -401665.25, -489463.44, -14991.747, -0.007222849, -0.04269858, -399175.97, -53028.973, 0.0, 10.001076, 9.989454 
2.4505839e+2, 2.7466786e+2, -310684.1, -394564.75, -14764.111, -0.008775168, -0.047061943, -308161.3, -59911.01, 0.0, 10.000578, 9.989476 
2.450541e+2, 2.846567e+2, -228293.47, -317000.6, -9929.665, -0.011196864, -0.05080057, -227195.56, -76836.33, 0.0, 10.000058, 9.988322 
2.4505043e+2, 2.94645e+2, -138052.45, -222566.61, -9377.702, -0.01462738, -0.055088855, -137024.4, -84550.69, 0.0, 9.999514, 9.988333 
2.4504746e+2, 3.046365e+2, -51648.098, -83987.53, -3661.849, -0.01861972, -0.05615171, -51238.645, -51238.645, 0.0, 9.998999, 9.994716 
2.4504526e+2, 3.1463128e+2, -58421.664, -86845.61, -3764.1416, -0.023205666, -0.054869637, -57931.633, -57931.633, 0.0, 9.998516, 9.994753 
2.5513795e+2, 1.24785945e+2, -1624476.4, -1726373.8, -4611.8833, 0.024811588, -0.049625564, -1624268.0, 92825.18, 0.0, 10.008564, 9.995054 
2.5513518e+2, 1.3478103e+2, -1534100.9, -1632654.3, -5686.9727, 0.020071613, -0.042110965, -1533773.8, 85367.62, 0.0, 10.008072, 9.995006 
2.5513178e+2, 1.447756e+2, -1448795.3, -1549120.5, -10974.117, 0.01373968, -0.048983008, -1447608.9, 73585.84, 0.0, 10.007568, 9.994268 
2.5512782e+2, 1.5476991e+2, -1358338.4, -1454796.1, -11221.405, 0.015939875, -0.04595726, -1357050.1, 66200.35, 0.0, 10.007055, 9.994268 
2.551233e+2, 1.6476375e+2, -1273876.0, -1373043.8, -15594.743, 0.015408297, -0.044654615, -1271481.4, 53829.33, 0.0, 10.006553, 9.993408 
2.5511822e+2, 1.7475715e+2, -1183082.4, -1278552.5, -16085.011, 0.011923805, -0.046120707, -1180445.1, 46930.168, 0.0, 10.006061, 9.993408 
2.5511274e+2, 1.847501e+2, -1099105.0, -1197746.8, -19190.797, 0.0081511345, -0.04649588, -1095503.0, 33941.527, 0.0, 10.005554, 9.992482 
2.551069e+2, 1.9474259e+2, -1008779.5, -1103482.9, -19199.768, 0.0040665087, -0.046617977, -1005035.06, 26483.205, 0.0, 10.00503, 9.992481 
2.5510085e+2, 2.0473473e+2, -923743.56, -1019775.06, -20748.684, 0.0011143343, -0.04496753, -919452.3, 14143.092, 0.0, 10.004489, 9.991767 
2.5509462e+2, 2.1472654e+2, -833829.8, -925621.94, -20904.01, -0.0005803741, -0.042189293, -829293.5, 6382.237, 0.0, 10.003932, 9.991772 
2.550884e+2, 2.2471786e+2, -750478.75, -844306.06, -21151.924, -0.0013361146, -0.0431545, -745930.8, -8170.241, 0.0, 10.003343, 9.990916 
2.550821e+2, 2.3470873e+2, -661551.5, -750650.94, -21047.53, -0.001050371, -0.049333315, -656829.75, -16979.797, 0.0, 10.002718, 9.990918 
2.55076e+2, 2.4469925e+2, -577470.1, -667973.4, -19716.527, -0.0022565576, -0.05001239, -573361.3, -31418.46, 0.0, 10.002132, 9.9901495 
2.5507e+2, 2.5468946e+2, -487216.0, -573586.0, -19440.242, -0.005146053, -0.045434497, -483042.1, -39003.016, 0.0, 10.001594, 9.990158 
2.550643e+2, 2.646793e+2, -401283.1, -488620.13, -16845.754, -0.009064214, -0.04175617, -398146.5, -52008.008, 0.0, 10.001074, 9.989512 
2.5505888e+2, 2.7466884e+2, -310323.25, -393744.94, -16614.637, -0.014137469, -0.040291317, -307135.97, -58895.207, 0.0, 10.000575, 9.989533 
2.5505412e+2, 2.8465784e+2, -227451.06, -315165.4, -11951.953, -0.016608404, -0.043345537, -225851.66, -75502.88, 0.0, 10.000055, 9.988449 
2.550499e+2, 2.946462e+2, -137206.83, -220711.72, -11406.526, -0.016124062, -0.052821647, -135676.77, -83214.34, 0.0, 9.99951, 9.9884615 
2.5504646e+2, 3.0463776e+2, -52014.492, -84634.92, -5455.1323, -0.01875962, -0.05333004, -51126.402, -51126.402, 0.0, 9.998994, 9.994674 
2.5504377e+2, 3.1463253e+2, -58848.4, -87599.81, -5545.47, -0.024924457, -0.044879187, -57815.887, -57815.887, 0.0, 9.99851, 9.994703 
2.6514685e+2, 1.2478795e+2, -1616220.8, -1724332.6, -2191.4329, 0.027012402, -0.048479144, -1616176.4, 100897.32, 0.0, 10.009212, 9.994878 
2.6514357e+2, 1.3478287e+2, -1525793.4, -1630611.0, -3058.741, 0.021542441, -0.04139541, -1525704.3, 93419.445, 0.0, 10.008723, 9.994827 
2.6513964e+2, 1.4477727e+2, -1440803.0, -1546797.4, -8750.324, 0.014479456, -0.047869496, -1440085.5, 81093.09, 0.0, 10.008181, 9.994128 
2.6513514e+2, 1.5477145e+2, -1351662.4, -1453114.1, -9570.05, 0.016397893, -0.043460205, -1350767.5, 72468.01, 0.0, 10.007578, 9.994129 
2.6513007e+2, 1.6476516e+2, -1268508.3, -1371737.8, -14172.809, 0.015994532, -0.04202545, -1266597.8, 58699.27, 0.0, 10.006974, 9.993292 
2.6512444e+2, 1.7475843e+2, -1179365.9, -1278053.0, -14593.047, 0.013082887, -0.044728346, -1177253.1, 50109.77, 0.0, 10.006371, 9.993291 
2.6511842e+2, 1.8475132e+2, -1095964.9, -1196590.3, -17777.486, 0.009105111, -0.044804767, -1092916.5, 36516.39, 0.0, 10.005784, 9.99245 
2.65112e+2, 1.9474378e+2, -1006274.5, -1102617.9, -18034.344, 0.0039512967, -0.04295894, -1003009.4, 28497.402, 0.0, 10.005216, 9.99245 
2.6510537e+2, 2.047359e+2, -922330.3, -1019198.3, -19897.129, 0.0010203265, -0.04121423, -918402.6, 15181.475, 0.0, 10.00459, 9.991756 
2.6509854e+2, 2.1472767e+2, -834329.5, -925974.4, -19848.848, 0.0005674401, -0.040394053, -830215.25, 5449.3574, 0.0, 10.003902, 9.991762 
2.650917e+2, 2.2471902e+2, -751459.3, -844320.7, -19905.637, -0.00043875398, -0.041981976, -747372.25, -9622.838, 0.0, 10.003256, 9.990956 
2.6508477e+2, 2.3470993e+2, -662172.5, -750481.44, -19711.59, -0.0020686453, -0.047310166, -657972.4, -18134.105, 0.0, 10.002654, 9.990959 
2.6507804e+2, 2.447005e+2, -578597.1, -667971.0, -18346.627, -0.0039603673, -0.0477396, -574977.5, -33046.8, 0.0, 10.002031, 9.990198 
2.6507148e+2, 2.5469074e+2, -489921.66, -574351.25, -18247.59, -0.006159408, -0.043582615, -486146.63, -42120.117, 0.0, 10.001385, 9.990207 
2.650652e+2, 2.6468065e+2, -405708.3, -490238.34, -15673.653, -0.009584641, -0.03961513, -402895.7, -56770.227, 0.0, 10.000748, 9.989559 
2.6505923e+2, 2.746703e+2, -316601.9, -396265.72, -15527.711, -0.014396199, -0.037048217, -313682.3, -65455.07, 0.0, 10.000122, 9.989579 
2.650539e+2, 2.8465933e+2, -234360.69, -316922.66, -10884.858, -0.016528765, -0.039298296, -232949.77, -82615.47, 0.0, 9.999514, 9.98859 
2.6504913e+2, 2.9464787e+2, -144774.56, -222755.36, -10235.181, -0.015609727, -0.048332136, -143453.55, -91007.1, 0.0, 9.998921, 9.988605 
2.6504514e+2, 3.046395e+2, -60667.13, -87883.59, -3547.534, -0.018933194, -0.050632566, -60212.324, -60212.324, 0.0, 9.99836, 9.994756 
2.650419e+2, 3.1463435e+2, -68166.64, -91203.09, -2677.7156, -0.027069421, -0.046504572, -67859.484, -67859.484, 0.0, 9.997832, 9.994782 
2.751561e+2, 1.24790534e+2, -1617194.8, -1726469.3, -3983.7542, 0.02889312, -0.045749225, -1617049.8, 99998.88, 0.0, 10.009218, 9.994729 
2.7515236e+2, 1.347853e+2, -1526803.5, -1632781.0, -4871.811, 0.0252723, -0.039000176, -1526580.1, 92520.05, 0.0, 10.008728, 9.994678 
2.7514786e+2, 1.447795e+2, -1442267.4, -1549889.5, -10985.489, 0.017349046, -0.04536745, -1441157.5, 79999.29, 0.0, 10.0081835, 9.993916 
2.751427e+2, 1.5477349e+2, -1353130.8, -1456234.8, -11803.352, 0.015882364, -0.040370572, -1351796.8, 71419.01, 0.0, 10.007583, 9.993915 
2.7513704e+2, 1.6476704e+2, -1269226.1, -1373314.8, -16407.28, 0.014349166, -0.039790288, -1266701.1, 58577.863, 0.0, 10.006979, 9.993182 
2.751308e+2, 1.7476018e+2, -1180082.9, -1279611.4, -16825.742, 0.01278054, -0.044938933, -1177315.4, 50030.773, 0.0, 10.006374, 9.993183 
2.751242e+2, 1.8475296e+2, -1096394.4, -1197522.6, -19882.145, 0.010333717, -0.044451874, -1092626.0, 36790.883, 0.0, 10.005786, 9.992385 
2.7511725e+2, 1.9474542e+2, -1006731.9, -1103558.5, -20134.803, 0.006912951, -0.03874168, -1002711.8, 28779.252, 0.0, 10.005216, 9.992385 
2.7511e+2, 2.0473751e+2, -922224.44, -1018962.7, -22440.045, 0.004155108, -0.03657005, -917272.6, 16295.97, 0.0, 10.004589, 9.991773 
2.7510247e+2, 2.1472928e+2, -834201.44, -925712.3, -22404.398, 0.0021550106, -0.03911014, -829010.7, 6638.5776, 0.0, 10.003902, 9.991779 
2.7509493e+2, 2.2472064e+2, -751081.9, -843542.2, -22143.754, -0.0011994034, -0.041541755, -746052.2, -8318.427, 0.0, 10.003256, 9.99101 
2.7508742e+2, 2.3471162e+2, -661804.6, -749702.25, -21943.809, -0.006075517, -0.04492167, -656630.9, -16808.938, 0.0, 10.002654, 9.991013 
2.7508005e+2, 2.4470225e+2, -578431.56, -667594.6, -20750.463, -0.008596735, -0.043962874, -573838.94, -31925.113, 0.0, 10.00203, 9.990225 
2.750728e+2, 2.5469252e+2, -489773.97, -574000.7, -20656.074, -0.008483247, -0.039039757, -484980.94, -40971.633, 0.0, 10.001383, 9.9902315 
2.7506596e+2, 2.6468247e+2, -405499.03, -489748.66, -17999.166, -0.008819451, -0.036311824, -401814.78, -55706.707, 0.0, 10.000746, 9.9895935 
2.7505943e+2, 2.746721e+2, -316403.56, -395786.44, -17848.377, -0.009672161, -0.03725631, -312575.2, -64365.28, 0.0, 10.00012, 9.989613 
2.7505344e+2, 2.8466123e+2, -233327.77, -314695.6, -13082.316, -0.0110810995, -0.038587153, -231276.13, -80960.18, 0.0, 9.99951, 9.988744 
2.750481e+2, 2.9464996e+2, -143731.2, -220484.9, -12431.299, -0.0131301265, -0.0416624, -141768.0, -89342.05, 0.0, 9.998917, 9.988762 
2.750435e+2, 3.0464175e+2, -59313.594, -84944.02, -5501.8706, -0.019147377, -0.048066642, -58182.473, -58182.473, 0.0, 9.998354, 9.99496 
2.750397e+2, 3.1463662e+2, -66826.63, -88260.42, -4621.5913, -0.029650716, -0.059561778, -65872.58, -65872.58, 0.0, 9.997826, 9.9949875 
2.8516573e+2, 1.24793656e+2, -1605591.5, -1723218.6, -2241.1194, 0.028656865, -0.04242233, -1605548.9, 111469.46, 0.0, 10.010112, 9.994514 
2.8516147e+2, 1.3478822e+2, -1517862.9, -1630853.3, -3632.301, 0.027277155, -0.034254294, -1517746.1, 101325.664, 0.0, 10.009441, 9.994461 
2.8515637e+2, 1.4478226e+2, -1434140.3, -1547458.6, -9806.866, 0.019389322, -0.040660225, -1433297.8, 87832.42, 0.0, 10.008803, 9.993779 
2.8515062e+2, 1.5477608e+2, -1345022.5, -1453808.8, -10058.915, 0.015919045, -0.037413295, -1344100.3, 79090.48, 0.0, 10.008201, 9.993778 
2.851443e+2, 1.647695e+2, -1261603.1, -1370798.6, -14554.065, 0.013350037, -0.037642747, -1259696.6, 65558.484, 0.0, 10.007549, 9.993075 
2.8513741e+2, 1.7476253e+2, -1173896.0, -1277797.9, -14966.985, 0.01181205, -0.042580225, -1171783.0, 55540.293, 0.0, 10.006847, 9.993076 
2.8513014e+2, 1.8475524e+2, -1092159.8, -1196181.5, -18113.707, 0.01011621, -0.04209266, -1089095.8, 40299.035, 0.0, 10.006105, 9.99232 
2.851225e+2, 1.9474763e+2, -1005656.5, -1103747.9, -18363.066, 0.008235469, -0.036605135, -1002331.56, 29138.13, 0.0, 10.005319, 9.992321 
2.8511462e+2, 2.0473969e+2, -922043.0, -1018800.75, -20657.014, 0.0056272093, -0.034600765, -917817.44, 15730.068, 0.0, 10.004599, 9.991779 
2.851064e+2, 2.1473144e+2, -833444.0, -925257.8, -20692.28, 0.0022368988, -0.0372577, -828996.0, 6632.1226, 0.0, 10.00395, 9.991787 
2.850982e+2, 2.2472283e+2, -750726.94, -843111.44, -20550.908, -0.0017551687, -0.03911063, -746361.6, -8649.208, 0.0, 10.003268, 9.991032 
2.8509e+2, 2.3471385e+2, -663160.2, -750101.2, -20574.598, -0.0064332024, -0.04113092, -658537.06, -18736.74, 0.0, 10.002549, 9.991035 
2.8508198e+2, 2.4470451e+2, -581055.94, -668355.7, -19521.592, -0.009017302, -0.039932717, -576889.5, -34997.59, 0.0, 10.001828, 9.99027 
2.8507406e+2, 2.5469485e+2, -493511.66, -575300.3, -19279.084, -0.009249475, -0.036020212, -489195.03, -45208.074, 0.0, 10.001104, 9.990276 
2.8506652e+2, 2.6468486e+2, -409865.72, -490634.94, -16186.399, -0.009548541, -0.034320757, -406742.66, -60657.594, 0.0, 10.000393, 9.989702 
2.8505933e+2, 2.7467453e+2, -321805.7, -397157.8, -15467.125, -0.009933109, -0.036332298, -318754.4, -70568.516, 0.0, 9.999696, 9.989722 
2.8505272e+2, 2.8466383e+2, -239961.63, -316469.22, -10464.283, -0.011204158, -0.03748123, -238556.19, -88265.445, 0.0, 9.998993, 9.988871 
2.850467e+2, 2.946527e+2, -152063.08, -223076.39, -10037.477, -0.013506668, -0.03893812, -150671.58, -98272.19, 0.0, 9.998283, 9.988889 
2.8504145e+2, 3.0464467e+2, -68477.63, -85790.25, -2705.9424, -0.018970395, -0.046287533, -68064.555, -68064.555, 0.0, 9.997572, 9.995278 
2.8503707e+2, 3.1463987e+2, -78689.336, -90339.63, -929.8853, -0.027987853, -0.061665203, -78615.586, -78615.586, 0.0, 9.996855, 9.995312 
2.9517585e+2, 1.2479729e+2, -1607493.4, -1727264.0, -4705.7246, 0.026428867, -0.038569998, -1607308.8, 109674.234, 0.0, 10.010118, 9.994236 
2.951709e+2, 1.347916e+2, -1519783.1, -1634932.5, -6106.0728, 0.027658273, -0.027299328, -1519460.3, 99578.8, 0.0, 10.009447, 9.994181 
2.9516518e+2, 1.4478548e+2, -1434543.3, -1548386.4, -12032.379, 0.020646855, -0.03388096, -1433285.4, 87813.695, 0.0, 10.008808, 9.993714 
2.951588e+2, 1.547792e+2, -1345434.9, -1454698.9, -12282.5205, 0.016477363, -0.034580313, -1344071.1, 79089.35, 0.0, 10.008203, 9.993716 
2.9515183e+2, 1.6477253e+2, -1262334.1, -1372319.4, -17146.766, 0.012962456, -0.03557277, -1259722.9, 65502.83, 0.0, 10.00755, 9.992971 
2.9514423e+2, 1.7476548e+2, -1174632.8, -1279337.5, -17564.088, 0.010211286, -0.03777967, -1171765.0, 55529.715, 0.0, 10.006848, 9.99297 
2.9513627e+2, 1.8475808e+2, -1092589.8, -1197103.5, -21021.338, 0.008523516, -0.03782501, -1088520.1, 40847.02, 0.0, 10.006107, 9.992256 
2.9512784e+2, 1.9475037e+2, -1006067.06, -1104653.1, -21275.766, 0.007993266, -0.03645627, -1001671.5, 29771.402, 0.0, 10.0053215, 9.992258 
2.951192e+2, 2.047424e+2, -922031.8, -1018826.8, -23064.674, 0.0055049863, -0.035188727, -916816.9, 16704.281, 0.0, 10.004601, 9.9917755 
2.9511032e+2, 2.147342e+2, -833450.5, -925281.8, -23089.918, 0.00086974335, -0.034857478, -827971.7, 7629.834, 0.0, 10.00395, 9.991784 
2.9510146e+2, 2.2472559e+2, -750779.75, -843202.4, -23210.73, -0.0021147223, -0.034764305, -745278.1, -7592.414, 0.0, 10.003267, 9.991026 
2.9509258e+2, 2.3471661e+2, -663230.2, -750208.3, -23241.963, -0.0032693052, -0.03598933, -657409.1, -17635.502, 0.0, 10.002548, 9.991028 
2.9508382e+2, 2.4470729e+2, -580634.44, -667434.44, -22207.55, -0.005362094, -0.035661004, -575282.6, -33417.63, 0.0, 10.001826, 9.990333 
2.9507518e+2, 2.5469765e+2, -493083.75, -574361.1, -21964.6, -0.008507634, -0.0344833, -487527.78, -43568.11, 0.0, 10.001102, 9.990341 
2.950669e+2, 2.6468778e+2, -408618.9, -487991.2, -18775.668, -0.011737609, -0.033609238, -404401.56, -58344.95, 0.0, 10.000391, 9.989883 
2.9505897e+2, 2.7467766e+2, -320545.63, -394474.44, -18058.156, -0.015069879, -0.034304354, -316370.47, -68215.01, 0.0, 9.999693, 9.989907 
2.9505163e+2, 2.8466707e+2, -239300.75, -315013.44, -13100.083, -0.01678533, -0.035993434, -237098.2, -86839.24, 0.0, 9.99899, 9.988972 
2.9504493e+2, 2.9465604e+2, -151438.0, -221677.88, -12674.281, -0.016688328, -0.04009242, -149221.0, -96854.03, 0.0, 9.99828, 9.988986 
2.9503903e+2, 3.046483e+2, -65519.645, -79530.46, -5365.784, -0.01841092, -0.04528006, -63700.805, -63700.805, 0.0, 9.997566, 9.99571 
2.95034e+2, 3.1464398e+2, -75665.625, -83923.57, -3598.0825, -0.022154655, -0.05298737, -74317.87, -74317.87, 0.0, 9.996849, 9.995754 
3.051864e+2, 1.24801576e+2, -1595987.3, -1724016.6, -2799.354, 0.027458007, -0.033427496, -1595926.1, 121015.33, 0.0, 10.011003, 9.994025 
3.0518076e+2, 1.3479564e+2, -1509433.9, -1632266.0, -3735.0227, 0.027896546, -0.024544308, -1509320.4, 109679.37, 0.0, 10.010255, 9.993968 
3.0517435e+2, 1.4478935e+2, -1425528.8, -1545256.1, -9584.23, 0.02113443, -0.031727057, -1424766.4, 96295.06, 0.0, 10.009476, 9.993601 
3.0516726e+2, 1.5478297e+2, -1339439.5, -1453023.9, -10190.694, 0.018562464, -0.031480633, -1338532.5, 84591.375, 0.0, 10.008664, 9.993606 
3.0515957e+2, 1.647762e+2, -1258007.4, -1371156.5, -15212.888, 0.015430357, -0.032031063, -1255997.6, 69192.32, 0.0, 10.007886, 9.992887 
3.0515125e+2, 1.7476907e+2, -1170889.3, -1278455.4, -15475.696, 0.011739335, -0.034321398, -1168707.0, 58552.78, 0.0, 10.007144, 9.992887 
3.0514252e+2, 1.8476161e+2, -1088648.9, -1195662.4, -18956.398, 0.008584864, -0.03495736, -1085390.1, 43942.74, 0.0, 10.006395, 9.992213 
3.051333e+2, 1.9475384e+2, -1001688.3, -1102992.8, -19058.97, 0.006016414, -0.034737114, -998221.25, 33187.883, 0.0, 10.00564, 9.992216 
3.0512393e+2, 2.0474581e+2, -918584.94, -1017548.5, -20763.723, 0.003478441, -0.033304676, -914405.0, 19082.73, 0.0, 10.004852, 9.99174 
3.0511433e+2, 2.147376e+2, -832542.4, -925239.6, -21029.219, 0.000967892, -0.03136972, -827994.8, 7573.5474, 0.0, 10.004029, 9.991748 
3.051047e+2, 2.2472899e+2, -751770.8, -843654.06, -21403.479, -0.0011446362, -0.030867694, -747029.7, -9376.985, 0.0, 10.003198, 9.991028 
3.0509502e+2, 2.3472e+2, -665977.56, -751505.8, -21368.158, -0.0027893456, -0.032999553, -660936.1, -21195.48, 0.0, 10.002358, 9.991031 
3.050855e+2, 2.4471074e+2, -583884.0, -667767.3, -20013.494, -0.005495823, -0.033597, -579353.7, -37522.098, 0.0, 10.00155, 9.990443 
3.0507612e+2, 2.547012e+2, -497023.66, -575000.56, -19414.586, -0.00941795, -0.033381585, -492457.25, -48532.043, 0.0, 10.000777, 9.990453 
3.050671e+2, 2.6469144e+2, -413348.63, -488983.72, -16211.586, -0.0127712665, -0.03189129, -410020.3, -63999.348, 0.0, 10.0000105, 9.989999 
3.0505845e+2, 2.7468145e+2, -326201.25, -395918.28, -16011.877, -0.015493167, -0.030187229, -322699.7, -74581.18, 0.0, 9.999249, 9.990022 
3.0505034e+2, 2.84671e+2, -245760.03, -316403.84, -11218.224, -0.01713944, -0.03223982, -244021.38, -93800.625, 0.0, 9.998472, 9.989125 
3.0504292e+2, 2.946601e+2, -159155.36, -223667.17, -10372.689, -0.017576655, -0.03982782, -157528.58, -105200.99, 0.0, 9.997675, 9.9891405 
3.0503625e+2, 3.0465257e+2, -74295.33, -81712.234, -3768.0244, -0.019308075, -0.04256511, -72716.945, -72716.945, 0.0, 9.996876, 9.995893 
3.0503044e+2, 3.146485e+2, -85705.195, -86710.09, -3946.2888, -0.022457935, -0.04104435, -82229.49, -82229.49, 0.0, 9.996072, 9.995937 
3.1519744e+2, 1.2480646e+2, -1597005.9, -1726182.6, -5530.2183, 0.031506278, -0.027129877, -1596769.6, 120124.29, 0.0, 10.011006, 9.993876 
3.15191e+2, 1.3480031e+2, -1510436.8, -1634424.0, -6481.3594, 0.027997535, -0.025709331, -1510098.9, 108855.31, 0.0, 10.010259, 9.993819 
3.1518382e+2, 1.4479385e+2, -1426586.8, -1547536.1, -12567.362, 0.020905174, -0.033888277, -1425294.8, 95722.82, 0.0, 10.00948, 9.9934435 
3.1517595e+2, 1.5478736e+2, -1340501.4, -1455309.8, -13178.502, 0.022078969, -0.028122287, -1339008.1, 84072.875, 0.0, 10.008669, 9.993447 
3.1516752e+2, 1.647805e+2, -1258424.6, -1372094.3, -17946.063, 0.020579642, -0.02710531, -1255658.6, 69489.45, 0.0, 10.007889, 9.992821 
3.1515846e+2, 1.7477329e+2, -1171319.9, -1279380.5, -18205.377, 0.016216211, -0.032131154, -1168335.1, 58883.62, 0.0, 10.007146, 9.992823 
3.1514892e+2, 1.8476577e+2, -1088794.0, -1195977.5, -21743.313, 0.010206215, -0.033410184, -1084551.1, 44741.258, 0.0, 10.006396, 9.992191 
3.151389e+2, 1.94758e+2, -1001833.0, -1103302.6, -21850.291, 0.0023888582, -0.031521216, -997327.8, 34040.906, 0.0, 10.005641, 9.992194 
3.151287e+2, 2.0474996e+2, -919053.44, -1018517.8, -23806.836, -0.0003602208, -0.029063966, -913648.94, 19798.723, 0.0, 10.004852, 9.991673 
3.1511837e+2, 2.1474165e+2, -833028.8, -926234.7, -24075.371, 0.002467551, -0.02684121, -827177.44, 8351.48, 0.0, 10.004028, 9.99168 
3.151079e+2, 2.24733e+2, -751703.2, -843501.0, -24510.58, 0.001094601, -0.027403135, -745568.7, -7955.0483, 0.0, 10.003198, 9.991037 
3.150974e+2, 2.3472401e+2, -665897.8, -751330.5, -24476.256, -0.0049025663, -0.032084595, -659382.4, -19680.678, 0.0, 10.0023575, 9.991042 
3.1508702e+2, 2.4471481e+2, -582795.1, -665492.94, -22878.574, -0.009295056, -0.033666253, -576887.7, -35095.87, 0.0, 10.00155, 9.990598 
3.1507686e+2, 2.5470543e+2, -495926.25, -572684.06, -22280.25, -0.011932713, -0.03270265, -489927.8, -46043.984, 0.0, 10.000775, 9.990612 
3.1506708e+2, 2.646958e+2, -413033.06, -488264.63, -19038.049, -0.012680223, -0.02919405, -408489.7, -62511.285, 0.0, 10.000008, 9.990048 
3.150577e+2, 2.7468592e+2, -325926.97, -395264.94, -18837.889, -0.011314914, -0.024028076, -321139.6, -73064.33, 0.0, 9.999246, 9.9900675 
3.150489e+2, 2.846756e+2, -244368.33, -313420.53, -14174.744, -0.0123831, -0.026268378, -241571.84, -91395.49, 0.0, 9.998468, 9.989331 
3.150406e+2, 2.9466483e+2, -157737.27, -220620.8, -13336.863, -0.01622184, -0.038176354, -155025.61, -102744.09, 0.0, 9.997671, 9.98935 
3.1503308e+2, 3.046574e+2, -74808.15, -82662.836, -6753.3193, -0.02165457, -0.038166285, -70923.234, -70923.234, 0.0, 9.996871, 9.99583 
3.1502646e+2, 3.1465337e+2, -86301.57, -87816.625, -6931.339, -0.0288415, -0.025854945, -80086.484, -80086.484, 0.0, 9.996066, 9.995864 
3.2520887e+2, 1.2481215e+2, -1587076.8, -1722906.6, -2256.902, 0.034422435, -0.025620569, -1587039.3, 129799.12, 0.0, 10.011749, 9.993736 
3.2520166e+2, 1.3480584e+2, -1500811.5, -1631295.3, -3160.5073, 0.029572077, -0.024368774, -1500735.0, 118165.13, 0.0, 10.010982, 9.993679 
3.2519364e+2, 1.4479925e+2, -1417736.1, -1545055.1, -9556.275, 0.0216403, -0.032057416, -1417022.8, 103942.07, 0.0, 10.010161, 9.993279 
3.2518494e+2, 1.547926e+2, -1332593.9, -1453298.6, -10217.28, 0.02262572, -0.025606977, -1331735.1, 91294.83, 0.0, 10.009286, 9.993282 
3.2517567e+2, 1.6478561e+2, -1251570.3, -1369750.4, -15012.085, 0.021102253, -0.024270168, -1249693.1, 75405.16, 0.0, 10.008398, 9.992732 
3.2516578e+2, 1.7477831e+2, -1166769.1, -1278148.0, -15436.305, 0.01688652, -0.029383613, -1164669.3, 62500.547, 0.0, 10.007498, 9.992734 
3.2515544e+2, 1.8477073e+2, -1085650.4, -1195015.6, -19036.672, 0.0109253, -0.030331573, -1082431.5, 46812.613, 0.0, 10.006635, 9.99214 
3.2514465e+2, 1.9476292e+2, -999659.8, -1102811.5, -19348.973, 0.0030354925, -0.027641505, -996149.8, 35171.043, 0.0, 10.005813, 9.992143 
3.2513362e+2, 2.0475481e+2, -917792.06, -1018172.9, -21548.822, 0.00018085372, -0.025137259, -913361.7, 20038.479, 0.0, 10.004949, 9.991649 
3.2512242e+2, 2.147465e+2, -833011.4, -926491.2, -21501.395, 0.002888302, -0.023706988, -828302.94, 7178.782, 0.0, 10.004041, 9.991655 
3.251111e+2, 2.2473785e+2, -751977.06, -843097.2, -21577.412, 0.000977392, -0.025434941, -747125.75, -9559.353, 0.0, 10.003155, 9.991084 
3.250997e+2, 2.3472889e+2, -666461.56, -751053.9, -21268.967, -0.006033688, -0.031694338, -661415.0, -21760.898, 0.0, 10.002295, 9.99109 
3.250885e+2, 2.4471974e+2, -584323.1, -665471.4, -19816.18, -0.010540178, -0.03280723, -579742.6, -37998.934, 0.0, 10.0014105, 9.9906645 
3.2507747e+2, 2.5471047e+2, -499446.8, -573625.94, -19888.504, -0.012280595, -0.029106304, -494450.9, -50616.113, 0.0, 10.000501, 9.990679 
3.250669e+2, 2.647009e+2, -418545.4, -490096.8, -16874.596, -0.012750272, -0.024750505, -414765.4, -68836.766, 0.0, 9.999594, 9.990122 
3.2505667e+2, 2.7469108e+2, -333530.06, -398112.13, -16472.516, -0.011798115, -0.020831048, -329571.2, -81546.28, 0.0, 9.998689, 9.99014 
3.2504702e+2, 2.8468087e+2, -252463.0, -315447.25, -11718.977, -0.013101299, -0.022967048, -250353.22, -100228.36, 0.0, 9.997831, 9.989498 
3.2503793e+2, 2.9467028e+2, -165912.5, -222656.8, -11180.265, -0.017001051, -0.03325636, -163789.13, -111560.95, 0.0, 9.997027, 9.98952 
3.2502964e+2, 3.0466297e+2, -83827.086, -86562.875, -4363.218, -0.022912864, -0.03353894, -80622.37, -80622.37, 0.0, 9.996232, 9.995869 
3.250222e+2, 3.1465897e+2, -95106.93, -91670.22, -3737.2693, -0.031049144, -0.023701336, -89275.19, -89275.19, 0.0, 9.995444, 9.995898 
3.3522063e+2, 1.24818586e+2, -1587900.5, -1724790.6, -5040.298, 0.03629147, -0.028532138, -1587715.1, 129060.234, 0.0, 10.011758, 9.993604 
3.3521268e+2, 1.3481222e+2, -1501676.8, -1633191.4, -5972.0054, 0.032510888, -0.020693209, -1501406.1, 117431.71, 0.0, 10.010987, 9.993547 
3.3520383e+2, 1.4480548e+2, -1418888.9, -1547513.5, -12775.22, 0.02326564, -0.02652143, -1417632.4, 103271.586, 0.0, 10.010165, 9.99311 
3.351942e+2, 1.5479863e+2, -1333743.3, -1455768.3, -13439.683, 0.020400729, -0.023879437, -1332280.6, 90690.484, 0.0, 10.009291, 9.993112 
3.35184e+2, 1.6479151e+2, -1252283.4, -1371329.6, -18329.64, 0.017301602, -0.023380613, -1249525.1, 75515.87, 0.0, 10.008403, 9.992621 
3.3517325e+2, 1.7478411e+2, -1167479.3, -1279720.5, -18759.37, 0.013985782, -0.026105944, -1164426.9, 62686.434, 0.0, 10.007503, 9.992624 
3.3516207e+2, 1.8477644e+2, -1086161.4, -1196137.6, -22070.742, 0.01079961, -0.02580827, -1081897.4, 47290.973, 0.0, 10.006638, 9.992062 
3.351505e+2, 1.9476853e+2, -1000218.6, -1103956.4, -22372.83, 0.0077278647, -0.02313045, -995599.25, 35666.715, 0.0, 10.005813, 9.992064 
3.3513865e+2, 2.0476042e+2, -917693.8, -1017939.94, -24894.785, 0.004869422, -0.021505963, -911851.94, 21493.701, 0.0, 10.004948, 9.991665 
3.3512643e+2, 2.147521e+2, -832883.0, -926222.6, -24858.217, 0.0022701973, -0.021902379, -826675.56, 8751.575, 0.0, 10.004041, 9.991673 
3.3511424e+2, 2.2474349e+2, -751390.44, -841877.5, -24761.371, -0.0013943231, -0.024897354, -745057.8, -7546.357, 0.0, 10.003155, 9.991167 
3.35102e+2, 2.347346e+2, -665887.3, -749828.6, -24453.033, -0.0062198443, -0.0318067, -659283.44, -19685.107, 0.0, 10.002293, 9.991174 
3.350899e+2, 2.4472551e+2, -584478.25, -665738.2, -23187.125, -0.009323987, -0.031048436, -578327.5, -36640.08, 0.0, 10.001409, 9.990647 
3.35078e+2, 2.5471625e+2, -499629.56, -573945.56, -23265.596, -0.010532425, -0.022679497, -492946.88, -49168.508, 0.0, 10.000499, 9.990658 
3.3506647e+2, 2.6470673e+2, -417890.97, -488685.53, -20232.93, -0.012987758, -0.018615939, -412516.44, -66644.52, 0.0, 9.999592, 9.990219 
3.3505532e+2, 2.7469695e+2, -332852.8, -396659.94, -19833.158, -0.016848378, -0.020541832, -327190.56, -79222.805, 0.0, 9.998687, 9.99024 
3.350448e+2, 2.8468686e+2, -251585.75, -313563.63, -14710.592, -0.019192766, -0.022279223, -248271.4, -98204.9, 0.0, 9.997829, 9.989628 
3.350349e+2, 2.9467648e+2, -165054.31, -220780.52, -14163.266, -0.019882508, -0.025106166, -161661.2, -109493.39, 0.0, 9.997024, 9.98965 
3.3502585e+2, 3.0466926e+2, -82910.31, -84539.664, -7281.547, -0.023101458, -0.02870862, -76398.01, -76398.01, 0.0, 9.996227, 9.996009 
3.3501765e+2, 3.1466526e+2, -94203.875, -89652.24, -6655.75, -0.029142642, -0.034477882, -84893.98, -84893.98, 0.0, 9.995439, 9.996038 
3.4523287e+2, 1.2482607e+2, -1575240.9, -1721270.9, -1005.58606, 0.03571427, -0.02803318, -1575233.9, 141468.31, 0.0, 10.012733, 9.993366 
3.4522405e+2, 1.348195e+2, -1492058.8, -1631158.6, -2694.1733, 0.033631187, -0.018028146, -1492006.6, 126760.26, 0.0, 10.011756, 9.99331 
3.4521434e+2, 1.4481257e+2, -1410370.1, -1544990.0, -9836.013, 0.024890205, -0.022625215, -1409655.3, 111179.43, 0.0, 10.010816, 9.992964 
3.4520382e+2, 1.5480557e+2, -1325591.6, -1453412.9, -10314.751, 0.021207567, -0.020496838, -1324764.5, 98138.81, 0.0, 10.009915, 9.992968 
3.4519273e+2, 1.647983e+2, -1244594.1, -1369050.3, -15327.352, 0.017040592, -0.020079793, -1242734.4, 82240.29, 0.0, 10.008989, 9.99249 
3.45181e+2, 1.7479078e+2, -1160554.5, -1277818.1, -15911.227, 0.012402627, -0.022408834, -1158433.9, 68614.38, 0.0, 10.008037, 9.992493 
3.451689e+2, 1.8478304e+2, -1080753.4, -1193915.4, -19257.79, 0.009683229, -0.022120347, -1077565.9, 51558.258, 0.0, 10.007023, 9.992024 
3.451564e+2, 1.947751e+2, -998549.8, -1103537.1, -19248.922, 0.009018554, -0.019911408, -995131.9, 36070.207, 0.0, 10.005941, 9.992028 
3.4514362e+2, 2.0476696e+2, -917470.56, -1017761.25, -21412.273, 0.00650997, -0.018911017, -913090.3, 20191.629, 0.0, 10.004958, 9.99167 
3.451305e+2, 2.1475862e+2, -832187.56, -925811.25, -21452.06, 0.001987241, -0.020088278, -827506.3, 7857.2188, 0.0, 10.004083, 9.991678 
3.4511736e+2, 2.2475003e+2, -751266.3, -841282.3, -21712.082, -0.002226321, -0.02246802, -746303.0, -8855.485, 0.0, 10.003139, 9.991214 
3.451042e+2, 2.3474121e+2, -668095.9, -750358.1, -21670.41, -0.0060641905, -0.027233806, -662736.4, -23202.65, 0.0, 10.002117, 9.99122 
3.450912e+2, 2.4473216e+2, -588630.4, -667653.06, -20445.797, -0.0087513365, -0.026248049, -583653.75, -42031.234, 0.0, 10.001119, 9.990654 
3.4507835e+2, 2.547229e+2, -504708.3, -576327.56, -20321.643, -0.01017739, -0.019750211, -499343.94, -55630.336, 0.0, 10.000146, 9.990663 
3.450659e+2, 2.647134e+2, -422212.72, -489491.38, -16856.412, -0.013769111, -0.016744325, -418225.7, -72419.04, 0.0, 9.999239, 9.990333 
3.4505382e+2, 2.7470374e+2, -336142.28, -396940.13, -16326.149, -0.019806916, -0.018860037, -332035.6, -84134.26, 0.0, 9.998404, 9.9903555 
3.450424e+2, 2.8469378e+2, -255887.78, -314156.38, -11339.69, -0.022542521, -0.02017033, -253758.75, -103759.92, 0.0, 9.997469, 9.9897585 
3.4503162e+2, 2.9468358e+2, -172894.72, -223081.9, -10785.381, -0.02160349, -0.021837195, -170675.08, -118576.336, 0.0, 9.996422, 9.989781 
3.4502167e+2, 3.046765e+2, -93246.48, -86737.234, -3383.9753, -0.023458937, -0.026914274, -85296.766, -85296.766, 0.0, 9.995397, 9.996257 
3.4501258e+2, 3.146727e+2, -107590.86, -93282.266, -1924.0195, -0.028449422, -0.037164, -93028.06, -93028.06, 0.0, 9.994397, 9.996289 
3.5524556e+2, 1.2483455e+2, -1577506.6, -1726113.3, -4609.6885, 0.032913502, -0.024428403, -1577363.9, 139255.6, 0.000000000000000066591216, 10.012742, 9.993032 
3.5523582e+2, 1.3482763e+2, -1494333.8, -1636014.8, -6288.754, 0.033081073, -0.016298741, -1494055.1, 124632.4, 0.000000000000000043284995, 10.011764, 9.992975 
3.5522515e+2, 1.4482048e+2, -1411164.0, -1546755.9, -13137.318, 0.026514208, -0.020236433, -1409902.9, 110854.84, 0.000000000000000023386295, 10.010821, 9.992841 
3.5521376e+2, 1.5481338e+2, -1326413.6, -1455158.9, -13617.925, 0.02481928, -0.015570843, -1324989.0, 97838.26, 0.0000000000000000099568376, 10.009917, 9.9928465 
3.5520172e+2, 1.6480598e+2, -1245656.1, -1371245.5, -18825.027, 0.020060284, -0.014535991, -1242895.1, 82004.664, 0.000000000000000003200232, 10.00899, 9.992339 
3.5518903e+2, 1.747983e+2, -1161630.6, -1280030.9, -19403.887, 0.012045834, -0.018317735, -1158531.8, 68443.28, 0.00000000000000000075733426, 10.008037, 9.992341 
3.551759e+2, 1.8479046e+2, -1080723.0, -1193868.6, -23227.348, 0.00763703, -0.01920761, -1076140.4, 52911.37, 0.00000000000000000013063992, 10.007023, 9.992026 
3.5516232e+2, 1.9478251e+2, -998465.75, -1103434.0, -23238.242, 0.0071025332, -0.017904663, -993551.25, 37578.402, 0.000000000000000000016380347, 10.005944, 9.992033 
3.5514855e+2, 2.0477436e+2, -917457.9, -1017795.56, -24651.873, 0.0052701626, -0.017289478, -911728.4, 21481.195, 0.0000000000000000000014922582, 10.004961, 9.991665 
3.5513458e+2, 2.1476604e+2, -832226.56, -925881.94, -24678.412, 0.0020253288, -0.018256791, -826121.7, 9169.505, 0.0000000000000000000000987668, 10.004083, 9.9916725 
3.551205e+2, 2.2475748e+2, -751192.06, -841094.2, -25482.486, -0.0015917448, -0.018221086, -744471.5, -7096.5635, 0.0000000000000000000000047495177, 10.003137, 9.991226 
3.5510632e+2, 2.3474872e+2, -668013.06, -750167.9, -25457.375, -0.0055858083, -0.018156614, -660764.2, -21303.494, 0.0, 10.002116, 9.991233 
3.550923e+2, 2.4473967e+2, -588404.8, -667170.56, -24055.693, -0.0088049695, -0.018524464, -581639.1, -40089.79, 0.0, 10.001119, 9.990687 
3.5507846e+2, 2.5473034e+2, -504488.8, -575849.3, -23926.025, -0.011175868, -0.020221781, -497209.38, -53568.613, 0.0, 10.000145, 9.990695 
3.550651e+2, 2.6472095e+2, -421320.6, -487591.88, -19956.227, -0.015079447, -0.019014385, -415775.22, -70042.07, 0.0, 9.999237, 9.990462 
3.550522e+2, 2.7471146e+2, -335263.44, -395025.75, -19417.328, -0.020724304, -0.015804416, -329508.72, -81682.72, 0.0, 9.9984, 9.990487 
3.5503986e+2, 2.8470162e+2, -255007.3, -312222.5, -15214.021, -0.023212858, -0.016676486, -251213.33, -101291.2, 0.0, 9.997464, 9.989892 
3.5502803e+2, 2.9469147e+2, -172017.14, -221157.11, -14686.359, -0.022190223, -0.023404073, -167962.42, -115941.17, 0.0, 9.996417, 9.989914 
3.5501707e+2, 3.046847e+2, -90819.71, -81590.56, -7102.846, -0.02399288, -0.028111327, -77734.91, -77734.91, 0.0, 9.995392, 9.996612 
3.5500696e+2, 3.146813e+2, -105129.63, -88045.23, -5641.5127, -0.028977647, -0.031794444, -86350.44, -86350.44, 0.0, 9.994392, 9.996651 
3.652588e+2, 1.2484391e+2, -1564926.8, -1722391.0, -2218.6543, 0.03374025, -0.01764802, -1564895.5, 151632.56, 0.0000000000000019357244, 10.013701, 9.992817 
3.6524802e+2, 1.3483673e+2, -1482901.0, -1632854.4, -3074.8037, 0.03276336, -0.012720363, -1482837.9, 135760.7, 0.0000000000000012578578, 10.012646, 9.99276 
3.6523637e+2, 1.448294e+2, -1401408.0, -1543765.4, -9597.654, 0.026389593, -0.01714511, -1400763.9, 119906.766, 0.0000000000000006794228, 10.01156, 9.9926815 
3.6522397e+2, 1.5482216e+2, -1319766.0, -1453687.1, -10339.566, 0.026093256, -0.011085451, -1318972.4, 103769.2, 0.00000000000000028920114, 10.010446, 9.992688 
3.6521095e+2, 1.6481464e+2, -1240695.4, -1369662.6, -15379.867, 0.022124007, -0.010439589, -1238886.6, 85928.57, 0.000000000000000092933504, 10.009362, 9.992264 
3.6519724e+2, 1.7480685e+2, -1158056.6, -1279113.3, -15405.77, 0.014236543, -0.016503153, -1156126.8, 70764.62, 0.00000000000000002198883, 10.008314, 9.992267 
3.651831e+2, 1.8479896e+2, -1077086.6, -1192628.9, -19244.3, 0.008596301, -0.01777892, -1073965.8, 55003.074, 0.000000000000000003792422, 10.007293, 9.991977 
3.6516842e+2, 1.9479097e+2, -993574.75, -1101583.8, -19629.928, 0.0053720353, -0.014847642, -990117.8, 40929.266, 0.0000000000000000004754351, 10.006299, 9.991984 
3.651536e+2, 2.0478278e+2, -913507.3, -1016146.3, -21197.945, 0.0032092298, -0.013514966, -909301.7, 23825.588, 0.000000000000000000043305913, 10.00524, 9.991639 
3.6513868e+2, 2.1477443e+2, -831961.06, -926024.1, -21360.17, 0.0021939953, -0.01473033, -827337.75, 7871.411, 0.0000000000000000000028658781, 10.00411, 9.991647 
3.651236e+2, 2.2476587e+2, -752620.9, -841817.6, -22324.99, -0.0006821315, -0.0142948525, -747345.2, -10052.133, 0.00000000000000000000013779624, 10.003038, 9.991222 
3.651084e+2, 2.3475711e+2, -669260.75, -750803.25, -22414.432, -0.005564917, -0.01311409, -663505.6, -24126.885, 0.0, 10.00203, 9.991229 
3.6509335e+2, 2.447481e+2, -589175.56, -666364.44, -20763.43, -0.009652275, -0.013999563, -583944.8, -42477.797, 0.0, 10.001013, 9.99079 
3.650785e+2, 2.5473887e+2, -506051.63, -575404.8, -20085.855, -0.012874477, -0.01805056, -500654.44, -57096.91, 0.0, 9.999985, 9.990801 
3.6506414e+2, 2.6472956e+2, -425670.06, -488588.06, -15962.706, -0.016013311, -0.017548902, -421851.9, -76202.984, 0.0, 9.99889, 9.99056 
3.650503e+2, 2.747202e+2, -344487.88, -398385.8, -15682.516, -0.019098287, -0.013181836, -340256.94, -92516.19, 0.0, 9.99772, 9.990583 
3.6503693e+2, 2.8471047e+2, -265751.13, -315325.72, -11466.458, -0.021107802, -0.014294385, -263227.44, -113391.914, 0.0, 9.996637, 9.990077 
3.650241e+2, 2.947005e+2, -181825.72, -223784.75, -10535.32, -0.021929897, -0.022841843, -179329.02, -127396.016, 0.0, 9.995652, 9.9901 
3.6501208e+2, 3.046939e+2, -99735.69, -83509.85, -3142.003, -0.025114443, -0.026602127, -82922.68, -82922.68, 0.0, 9.994677, 9.996822 
3.6500096e+2, 3.146908e+2, -113570.54, -89733.984, -2805.714, -0.03095882, -0.026200235, -89408.19, -89408.19, 0.0, 9.99371, 9.996861 
3.7527254e+2, 1.2485412e+2, -1565683.6, -1723985.0, -6072.7476, 0.03785194, -0.008020723, -1565451.0, 150977.66, 0.00000000000023424538, 10.013703, 9.992706 
3.7526065e+2, 1.3484679e+2, -1483636.3, -1634418.0, -6941.002, 0.032651484, -0.0074532325, -1483317.4, 135183.14, 0.0000000000001522636, 10.012648, 9.992651 
3.752479e+2, 1.448393e+2, -1402713.8, -1546526.5, -13685.572, 0.024669383, -0.0133992545, -1401423.0, 119151.016, 0.00000000000008226851, 10.011564, 9.992492 
3.752344e+2, 1.5483186e+2, -1321065.5, -1456472.9, -14425.062, 0.02521726, -0.0070060072, -1319545.9, 103100.97, 0.00000000000003502829, 10.01045, 9.992496 
3.752203e+2, 1.6482422e+2, -1240663.6, -1369697.0, -19219.266, 0.023308175, -0.0076775653, -1237861.8, 86859.805, 0.000000000000011259364, 10.009367, 9.992258 
3.752056e+2, 1.748164e+2, -1158040.3, -1279125.1, -19252.754, 0.018791884, -0.016792044, -1155052.8, 71745.31, 0.0000000000000026647684, 10.008316, 9.992264 
3.751904e+2, 1.8480848e+2, -1077749.8, -1194002.5, -22896.2, 0.012344544, -0.017718825, -1073402.9, 55472.91, 0.0000000000000004597244, 10.007293, 9.991882 
3.751747e+2, 1.9480044e+2, -994270.7, -1102998.3, -23279.61, 0.0038067345, -0.010792597, -989496.0, 41458.742, 0.00000000000000005765099, 10.006298, 9.991887 
3.7515885e+2, 2.0479219e+2, -913826.5, -1016784.7, -25357.865, 0.00037777342, -0.007706031, -907919.9, 25115.613, 0.0000000000000000052527263, 10.0052395, 9.991595 
3.7514278e+2, 2.1478379e+2, -832259.0, -926648.06, -25532.746, 0.0024862515, -0.009594019, -825794.94, 9322.912, 0.00000000000000000034769857, 10.004111, 9.991603 
3.7512666e+2, 2.2477518e+2, -752749.3, -842084.7, -26051.492, 0.0004824091, -0.010677033, -745707.44, -8505.214, 0.000000000000000000016722676, 10.003038, 9.991202 
3.7511042e+2, 2.3476638e+2, -669413.44, -751081.7, -26130.328, -0.0059886076, -0.011940485, -661768.5, -22480.156, 0.0, 10.002028, 9.99121 
3.7509435e+2, 2.4475744e+2, -587978.4, -663825.9, -24560.46, -0.011270446, -0.0125397155, -580720.0, -39344.176, 0.0, 10.00101, 9.990964 
3.750785e+2, 2.5474843e+2, -504835.2, -572812.7, -23896.43, -0.015261756, -0.013303943, -497275.47, -53811.227, 0.0, 9.999982, 9.990978 
3.7506306e+2, 2.6473922e+2, -425241.78, -487629.03, -20301.54, -0.016581353, -0.012452728, -419217.22, -73662.805, 0.0, 9.998886, 9.990625 
3.7504807e+2, 2.7472988e+2, -344078.84, -397477.94, -20038.219, -0.01497833, -0.01099493, -337395.84, -89749.945, 0.0, 9.997717, 9.990645 
3.7503362e+2, 2.8472033e+2, -264122.34, -311883.53, -15141.9, -0.016285393, -0.013000588, -259726.44, -109987.11, 0.0, 9.9966345, 9.990313 
3.7501976e+2, 2.947106e+2, -180180.19, -220287.2, -14196.766, -0.020846358, -0.02016693, -175663.56, -123829.26, 0.0, 9.995649, 9.99034 
3.7500674e+2, 3.047042e+2, -99310.81, -82526.76, -6736.4507, -0.026836788, -0.022410385, -80157.47, -80157.47, 0.0, 9.994673, 9.996891 
3.7499467e+2, 3.1470114e+2, -113199.53, -88846.01, -6402.451, -0.034426346, -0.020380838, -87265.414, -87265.414, 0.0, 9.993704, 9.996924 
3.8528666e+2, 1.24865405e+2, -1555835.3, -1720770.0, -1938.2965, 0.04083276, -0.005068941, -1555812.4, 160505.97, 0.0000000000062493296, 10.0144415, 9.992563 
3.8527367e+2, 1.3485794e+2, -1474673.3, -1631625.8, -3039.5718, 0.034121536, -0.0036189875, -1474614.5, 143777.14, 0.000000000004061147, 10.013325, 9.992509 
3.852598e+2, 1.448503e+2, -1394215.5, -1543950.9, -9833.019, 0.025241887, -0.009412491, -1393572.5, 126893.97, 0.0000000000021937584, 10.012209, 9.992351 
3.8524517e+2, 1.5484272e+2, -1312603.8, -1453932.8, -10214.654, 0.025138844, -0.004833179, -1311869.4, 110671.52, 0.0000000000009338743, 10.011093, 9.9923525 
3.8522995e+2, 1.6483498e+2, -1232738.4, -1366440.9, -15063.147, 0.023181574, -0.005422677, -1231062.4, 93554.195, 0.00000000000030012828, 10.009931, 9.992203 
3.8521412e+2, 1.7482711e+2, -1152486.0, -1277020.6, -15456.31, 0.01927083, -0.012430123, -1150596.3, 76097.02, 0.000000000000071020575, 10.0087185, 9.9922085 
3.8519782e+2, 1.848191e+2, -1074551.6, -1193403.9, -18979.361, 0.013590129, -0.01286152, -1071594.4, 57177.418, 0.0000000000000122507425, 10.00755, 9.991796 
3.851811e+2, 1.9481097e+2, -992949.06, -1103326.4, -19285.787, 0.0059679933, -0.0071523464, -989676.4, 41175.32, 0.0000000000000015361013, 10.006429, 9.991798 
3.8516414e+2, 2.0480269e+2, -912809.0, -1016514.4, -21450.45, 0.0017817394, -0.0045665936, -908547.3, 24385.764, 0.00000000000000013994157, 10.005317, 9.991573 
3.8514695e+2, 2.1479425e+2, -830827.44, -926171.25, -21455.902, 0.0013550168, -0.0062015355, -826221.56, 8794.031, 0.000000000000000009262178, 10.004216, 9.991582 
3.851297e+2, 2.2478563e+2, -752091.9, -841486.06, -21694.266, -0.0012098612, -0.007953902, -747105.25, -10005.293, 0.0000000000000000004454123, 10.003069, 9.991225 
3.8511238e+2, 2.3477684e+2, -671488.94, -751804.25, -21448.357, -0.00612078, -0.010876138, -666120.0, -26933.963, 0.0, 10.001872, 9.991232 
3.850952e+2, 2.4476798e+2, -591961.75, -664882.8, -20007.598, -0.010033011, -0.0107798455, -586832.94, -45559.977, 0.0, 10.000698, 9.991039 
3.8507828e+2, 2.5475907e+2, -510585.72, -574714.44, -20075.514, -0.012865016, -0.008291409, -504819.53, -61459.13, 0.0, 9.999548, 9.991055 
3.850617e+2, 2.6474997e+2, -431157.78, -489218.78, -16841.63, -0.014802319, -0.006917834, -426626.25, -81176.64, 0.0, 9.998425, 9.990737 
3.850456e+2, 2.7474073e+2, -348896.13, -398534.8, -16209.688, -0.01573377, -0.007937601, -344071.7, -96531.47, 0.0, 9.99733, 9.990757 
3.8503003e+2, 2.847313e+2, -269040.72, -312637.1, -11154.782, -0.018029626, -0.009819647, -266352.38, -116719.95, 0.0, 9.996225, 9.990456 
3.850151e+2, 2.9472175e+2, -187000.73, -221953.08, -10923.632, -0.0219082, -0.013948506, -183867.64, -132141.89, 0.0, 9.99511, 9.990483 
3.8500103e+2, 3.0471545e+2, -108681.56, -85332.78, -3651.9797, -0.027368488, -0.015777815, -84774.91, -84774.91, 0.0, 9.993955, 9.997042 
3.849879e+2, 3.1471252e+2, -125974.92, -93298.28, -2651.3237, -0.03457138, -0.016314883, -93084.555, -93084.555, 0.0, 9.992753, 9.997075 
3.953011e+2, 1.248777e+2, -1556934.6, -1723234.6, -5980.733, 0.042829014, -0.008041442, -1556719.8, 159478.27, 0.00000000013073784, 10.01445, 9.99239 
3.95287e+2, 1.3487011e+2, -1475817.1, -1634104.6, -7087.429, 0.037016466, -0.0010558182, -1475500.4, 142772.05, 0.00000000008493969, 10.01333, 9.992336 
3.9527205e+2, 1.4486237e+2, -1394849.4, -1545321.0, -13887.061, 0.027880006, -0.0052120783, -1393578.5, 126770.03, 0.000000000045873295, 10.012212, 9.992254 
3.9525628e+2, 1.5485464e+2, -1313262.9, -1455315.4, -14280.437, 0.025782159, -0.0043888576, -1311841.5, 110582.64, 0.000000000019524604, 10.011094, 9.992256 
3.9523986e+2, 1.6484682e+2, -1233422.0, -1367886.1, -19502.656, 0.021849168, -0.003603039, -1230650.5, 93850.31, 0.0000000000062738404, 10.0099325, 9.992103 
3.9522278e+2, 1.7483893e+2, -1153140.1, -1278468.4, -19915.027, 0.01598807, -0.003765534, -1150051.6, 76526.32, 0.0000000000014844094, 10.008722, 9.992106 
3.9520535e+2, 1.8483084e+2, -1075046.0, -1194511.6, -23108.06, 0.012533326, -0.003569691, -1070732.1, 57925.215, 0.00000000000025602263, 10.007554, 9.991716 
3.951876e+2, 1.9482256e+2, -993494.5, -1104463.8, -23405.203, 0.011617099, -0.0039053313, -988759.94, 41978.56, 0.000000000000032098405, 10.006429, 9.99172 
3.951695e+2, 2.0481421e+2, -912811.8, -1016494.6, -25496.273, 0.007136128, -0.0039211027, -906881.3, 25939.13, 0.0000000000000029239128, 10.005316, 9.991573 
3.9515117e+2, 2.1480578e+2, -830829.3, -926142.6, -25505.736, -0.0011431004, -0.004447246, -824433.25, 10469.548, 0.00000000000000019350456, 10.004214, 9.991583 
3.9513272e+2, 2.247972e+2, -751641.4, -840526.8, -26108.902, -0.0056114, -0.0060734237, -744539.6, -7552.8228, 0.0000000000000000093045246, 10.003068, 9.99129 
3.951142e+2, 2.3478846e+2, -671023.8, -750830.3, -25878.072, -0.005966419, -0.009910247, -663367.2, -24294.836, 0.0, 10.001871, 9.991298 
3.9509594e+2, 2.4477963e+2, -592084.4, -665121.8, -24271.404, -0.0060423254, -0.008724996, -584754.3, -43595.363, 0.0, 10.000697, 9.991022 
3.9507788e+2, 2.5477073e+2, -510736.72, -574995.25, -24337.746, -0.0058282968, -0.0030148604, -502559.47, -59313.07, 0.0, 9.999546, 9.9910345 
3.9506018e+2, 2.6476172e+2, -430064.44, -486908.47, -20904.125, -0.010761137, -0.0009504615, -423204.8, -77869.914, 0.0, 9.998423, 9.990894 
3.9504284e+2, 2.747526e+2, -347788.44, -396179.34, -20276.05, -0.021307068, -0.0040276228, -340415.9, -92991.79, 0.0, 9.997327, 9.990918 
3.9502618e+2, 2.8474328e+2, -268712.72, -311883.94, -15304.047, -0.02625692, -0.004770757, -263837.94, -114322.76, 0.0, 9.9962225, 9.990507 
3.950102e+2, 2.9473382e+2, -186705.17, -221256.61, -15080.005, -0.025095953, -0.0042001414, -181049.31, -129441.68, 0.0, 9.995106, 9.990532 
3.94995e+2, 3.047277e+2, -107080.77, -81916.12, -8117.6597, -0.026714588, -0.0067208563, -79524.76, -79524.76, 0.0, 9.99395, 9.997277 
3.9498064e+2, 3.1472495e+2, -124350.02, -89815.87, -7131.0957, -0.03139569, -0.014020539, -88401.28, -88401.28, 0.0, 9.992748, 9.997314 
4.0531608e+2, 1.248914e+2, -1543863.1, -1719040.5, -773.2404, 0.042560954, -0.0071147406, -1543859.6, 172204.34, 0.000000001989493, 10.015432, 9.992193 
4.0530074e+2, 1.3488366e+2, -1465428.8, -1631216.1, -2028.1476, 0.03718428, 0.0019038409, -1465403.9, 152736.31, 0.0000000012922372, 10.01413, 9.99214 
4.0528458e+2, 1.4487575e+2, -1386346.1, -1542635.4, -8923.539, 0.028887538, -0.0012807323, -1385838.3, 134379.56, 0.0000000006977445, 10.012852, 9.992122 
4.0526763e+2, 1.5486787e+2, -1306741.3, -1453601.1, -9561.991, 0.027454186, -0.0019748767, -1306121.3, 116173.61, 0.00000000029691818, 10.0116, 9.992124 
4.0525004e+2, 1.648599e+2, -1227711.1, -1366823.5, -15079.936, 0.022919483, -0.00091264566, -1226095.3, 98277.61, 0.00000000009539355, 10.010393, 9.991946 
4.0523174e+2, 1.7485188e+2, -1146676.0, -1277056.6, -15865.728, 0.015140249, 0.001116409, -1144773.1, 81678.375, 0.000000000022567458, 10.009235, 9.99195 
4.0521315e+2, 1.848437e+2, -1068757.1, -1191712.6, -19246.45, 0.011558583, 0.0020142389, -1065814.9, 62716.785, 0.0000000000038918365, 10.007991, 9.991692 
4.0519413e+2, 1.9483541e+2, -990314.0, -1103165.9, -19143.066, 0.012432972, 0.000748284, -987155.2, 43457.95, 0.0000000000004878754, 10.006654, 9.991695 
4.0517485e+2, 2.0482701e+2, -911674.5, -1015951.94, -20702.672, 0.008505839, -0.0003832234, -907714.7, 24980.613, 0.00000000000004443696, 10.00539, 9.9915695 
4.0515536e+2, 2.1481858e+2, -830897.6, -926190.75, -20727.58, -0.0005848299, -0.002184063, -826584.3, 8193.474, 0.0000000000000029405638, 10.004208, 9.991579 
4.0513575e+2, 2.2481002e+2, -752020.1, -840277.94, -21627.232, -0.005773923, -0.0033817024, -747005.4, -10143.757, 0.00000000000000014138064, 10.003019, 9.991325 
4.0511608e+2, 2.3480135e+2, -671337.8, -750548.4, -21597.65, -0.0067171217, -0.004969987, -665831.7, -26885.117, 0.0, 10.001828, 9.991334 
4.050966e+2, 2.4479254e+2, -593167.6, -665252.06, -19955.26, -0.0069831917, -0.0035153427, -588012.1, -46979.254, 0.0, 10.000603, 9.991055 
4.0507734e+2, 2.5478366e+2, -513449.75, -575921.7, -19626.848, -0.006540085, 0.00033334523, -507795.34, -64675.17, 0.0, 9.999341, 9.991066 
4.0505844e+2, 2.6477468e+2, -434039.9, -487832.16, -16042.213, -0.011728693, 0.0022771328, -429619.03, -84410.9, 0.0, 9.998104, 9.99098 
4.0503994e+2, 2.747657e+2, -353431.22, -397901.28, -15948.224, -0.02308441, 0.0009545534, -348303.1, -101006.74, 0.0, 9.996895, 9.991005 
4.0502208e+2, 2.847565e+2, -275898.5, -313971.63, -11097.937, -0.02799518, 0.0005349849, -272899.75, -123513.43, 0.0, 9.995667, 9.990628 
4.0500495e+2, 2.9474714e+2, -195785.39, -224257.2, -10318.575, -0.0258213, -0.00008990757, -192439.1, -140961.36, 0.0, 9.994422, 9.990652 
4.0498856e+2, 3.0474114e+2, -116896.33, -84326.98, -3336.8975, -0.027437646, -0.0035023792, -83988.61, -83988.61, 0.0, 9.993175, 9.997482 
4.04973e+2, 3.1473857e+2, -134858.81, -92540.984, -2600.4402, -0.033210747, -0.011412224, -92381.79, -92381.79, 0.0, 9.991924, 9.997521 
4.1533148e+2, 1.2490643e+2, -1545381.9, -1722199.9, -5550.6733, 0.040367328, -0.0026882647, -1545207.9, 170709.3, 0.000000022505851, 10.015433, 9.991976 
4.1531485e+2, 1.3489844e+2, -1466901.8, -1634342.9, -6797.4106, 0.034924526, 0.0052263206, -1466626.3, 151369.38, 0.000000014614884, 10.014133, 9.991924 
4.1529742e+2, 1.4489035e+2, -1387421.9, -1544979.3, -13505.117, 0.028440366, 0.0024338034, -1386272.8, 133802.3, 0.000000007889751, 10.0128565, 9.991959 
4.1527927e+2, 1.5488231e+2, -1307815.3, -1455951.8, -14140.335, 0.030054072, 0.0022381174, -1306477.5, 115676.1, 0.000000003356838, 10.011605, 9.99196 
4.1526046e+2, 1.6487417e+2, -1229093.0, -1369762.5, -19301.902, 0.026161792, 0.0025671956, -1226492.6, 97740.88, 0.0000000010783332, 10.010397, 9.991743 
4.1524103e+2, 1.7486592e+2, -1148130.8, -1280047.4, -20073.773, 0.016517675, 0.002534735, -1145143.8, 81170.586, 0.00000000025507602, 10.009235, 9.991745 
4.152211e+2, 1.8485765e+2, -1068578.0, -1191319.3, -24133.537, 0.0106431125, 0.0042099734, -1064003.4, 64392.027, 0.0000000000439845, 10.00799, 9.991717 
4.1520074e+2, 1.9484942e+2, -990078.25, -1102719.1, -24061.367, 0.008747348, 0.0067318417, -985153.75, 45322.496, 0.000000000005513356, 10.006655, 9.991723 
4.1518024e+2, 2.0484105e+2, -911678.0, -1015993.75, -25061.75, 0.006173536, 0.005856431, -905969.4, 26588.879, 0.00000000000050213056, 10.005392, 9.991565 
4.151596e+2, 2.1483256e+2, -830954.44, -926275.5, -25081.414, 0.0028670381, 0.00055758655, -824757.7, 9883.364, 0.000000000000033225474, 10.004206, 9.991572 
4.151388e+2, 2.2482403e+2, -751969.7, -840113.75, -26022.297, -0.0019447425, 0.00010042571, -744860.6, -8135.794, 0.0000000000000015973432, 10.003017, 9.991337 
4.151179e+2, 2.348154e+2, -671288.44, -750390.06, -26001.502, -0.008357819, 0.003784676, -663507.0, -24697.668, 0.0000000000000000000000081748796, 10.001825, 9.991344 
4.1509715e+2, 2.4480665e+2, -592598.0, -664027.2, -24627.342, -0.012688585, 0.004715868, -584930.1, -44034.945, 0.00000000000000000000000028585637, 10.000601, 9.9911375 
4.1507655e+2, 2.547978e+2, -512864.56, -574677.56, -24309.238, -0.014784893, 0.0018008056, -504449.94, -61467.695, 0.0, 9.999339, 9.99115 
4.150565e+2, 2.6478884e+2, -433922.13, -487546.28, -20536.76, -0.017563794, 0.002852398, -426960.75, -81891.016, 0.0, 9.998102, 9.990999 
4.1503686e+2, 2.7477992e+2, -353343.56, -397657.25, -20444.783, -0.02110301, 0.007014474, -345352.2, -98194.96, 0.0, 9.996892, 9.991021 
4.150178e+2, 2.8477082e+2, -274580.06, -311167.3, -15735.3545, -0.023332058, 0.006081057, -268743.66, -119497.41, 0.0, 9.995665, 9.99082 
4.149994e+2, 2.947616e+2, -194448.44, -221408.17, -14967.871, -0.02411482, -0.0016237478, -187785.22, -136448.86, 0.0, 9.994418, 9.990848 
4.1498172e+2, 3.0475578e+2, -115700.41, -81763.94, -7997.681, -0.029567251, -0.0061198175, -79973.6, -79973.6, 0.0, 9.993171, 9.997658 
4.1496485e+2, 3.1475344e+2, -133676.42, -89996.27, -7266.569, -0.040106837, -0.008467054, -88819.14, -88819.14, 0.0, 9.9919195, 9.997696 
4.2534733e+2, 1.24922715e+2, -1535500.0, -1719858.6, -1330.0825, 0.042154323, 0.0017165332, -1535490.4, 180267.52, 0.00000018930196, 10.016211, 9.991753 
4.253294e+2, 1.349145e+2, -1457154.0, -1632058.3, -2596.867, 0.035563942, 0.0099535985, -1457115.5, 160723.1, 0.0000001229045, 10.014901, 9.991702 
4.2531064e+2, 1.4490625e+2, -1377496.1, -1541653.4, -9123.968, 0.028384032, 0.007928281, -1376990.6, 142929.05, 0.000000066338, 10.013596, 9.991821 
4.252912e+2, 1.5489808e+2, -1298623.6, -1452992.9, -9562.275, 0.028973045, 0.0074438374, -1298033.5, 123966.06, 0.000000028220805, 10.012294, 9.991821 
4.2527115e+2, 1.6488978e+2, -1221775.4, -1367505.9, -14335.106, 0.02583533, 0.0065241223, -1220378.6, 103702.17, 0.000000009064461, 10.010949, 9.991624 
4.2525044e+2, 1.748814e+2, -1144175.5, -1279438.6, -14495.927, 0.018787075, 0.0042256517, -1142639.5, 83523.61, 0.0000000021439628, 10.009559, 9.991624 
4.2522925e+2, 1.8487304e+2, -1065500.4, -1190526.9, -18642.094, 0.013071326, 0.0062255664, -1062780.0, 65464.99, 0.00000000036967082, 10.008226, 9.991651 
4.2520756e+2, 1.9486476e+2, -986049.4, -1101466.5, -19217.53, 0.008778656, 0.01179626, -982933.7, 47392.566, 0.000000000046334957, 10.006956, 9.991657 
4.2518574e+2, 2.0485637e+2, -908186.0, -1014135.56, -20472.947, 0.005550185, 0.011619236, -904367.56, 28040.875, 0.000000000004219755, 10.005619, 9.991576 
4.251638e+2, 2.1484789e+2, -830727.4, -926000.94, -20342.8, 0.0034751578, 0.0045411405, -826565.6, 7925.6953, 0.0000000000002792024, 10.00421, 9.991583 
4.2514178e+2, 2.2483933e+2, -754044.1, -841232.44, -21003.225, -0.0008211879, 0.0036400345, -749248.3, -12673.199, 0.000000000000013422161, 10.002876, 9.991323 
4.2511964e+2, 2.3483072e+2, -674272.56, -751959.7, -21137.018, -0.0075507173, 0.008286876, -668894.0, -30234.268, 0.00000000000000000000023717026, 10.001623, 9.99133 
4.250976e+2, 2.4482201e+2, -594994.94, -663960.7, -19840.783, -0.012755153, 0.01007687, -589694.3, -48949.22, 0.000000000000000000000008291256, 10.00038, 9.991243 
4.250758e+2, 2.5481325e+2, -514824.72, -574383.4, -19332.668, -0.016301623, 0.007897225, -509099.7, -66268.68, 0.0, 9.999147, 9.991258 
4.250544e+2, 2.6480442e+2, -437295.97, -488166.75, -15466.69, -0.019103952, 0.007817359, -432962.63, -88045.03, 0.0, 9.997824, 9.991086 
4.250335e+2, 2.7479553e+2, -359832.3, -399797.6, -14845.491, -0.021077508, 0.008902156, -354921.28, -107916.79, 0.0, 9.996401, 9.991107 
4.2501315e+2, 2.8478655e+2, -282434.78, -312756.0, -9719.163, -0.0231693, 0.0070387833, -279586.9, -130494.69, 0.0, 9.9950285, 9.991013 
4.2499343e+2, 2.9477757e+2, -203346.61, -223481.28, -8931.326, -0.025414843, 0.0006481252, -199955.88, -148775.58, 0.0, 9.99371, 9.991041 
4.2497447e+2, 3.0477193e+2, -125758.51, -84378.055, -1916.5308, -0.031304967, -0.0034215967, -84289.484, -84289.484, 0.0, 9.992381, 9.997854 
4.249563e+2, 3.147698e+2, -145048.56, -93254.7, -1020.24963, -0.04114234, -0.0062078624, -93234.61, -93234.61, 0.0, 9.991041, 9.99789 
4.353636e+2, 1.2494021e+2, -1537030.4, -1723155.6, -6119.7524, 0.04754951, 0.0062867347, -1536829.4, 178757.66, 0.0000011948691, 10.016217, 9.991524 
4.353443e+2, 1.3493179e+2, -1458697.3, -1635340.8, -7354.936, 0.038748346, 0.015939916, -1458391.5, 159278.2, 0.0000007756428, 10.014906, 9.991474 
4.3532425e+2, 1.4492337e+2, -1378245.5, -1543255.9, -13852.831, 0.028656425, 0.015016489, -1377090.6, 142661.7, 0.00000041860005, 10.0135975, 9.991709 
4.3530348e+2, 1.5491506e+2, -1299404.6, -1454615.5, -14295.983, 0.024589406, 0.013545849, -1298098.9, 123734.625, 0.00000017805844, 10.012295, 9.991709 
4.3528205e+2, 1.6490668e+2, -1222054.8, -1368080.8, -19414.164, 0.02231829, 0.0109210545, -1219517.8, 104397.82, 0.00000005718726, 10.010948, 9.991583 
4.3526e+2, 1.7489822e+2, -1144442.6, -1280006.0, -19591.47, 0.021879988, 0.0061770645, -1141668.1, 84330.3, 0.000000013525232, 10.009559, 9.991583 
4.3523753e+2, 1.8488978e+2, -1066532.5, -1192665.0, -23294.25, 0.018550811, 0.0080877505, -1062368.0, 65713.266, 0.0000000023319764, 10.008226, 9.991503 
4.3521455e+2, 1.9488138e+2, -987116.56, -1103645.4, -23858.406, 0.012234904, 0.016021099, -982420.94, 47742.918, 0.00000000029228828, 10.006955, 9.991507 
4.3519136e+2, 2.0487294e+2, -907970.6, -1013673.56, -25639.742, 0.0064935326, 0.016953466, -902079.7, 30166.867, 0.000000000026618437, 10.005618, 9.991606 
4.35168e+2, 2.1486449e+2, -830474.7, -925505.8, -25532.936, 0.0013925816, 0.009702755, -824049.0, 10280.058, 0.0000000000017611819, 10.00421, 9.991614 
4.3514463e+2, 2.2485591e+2, -754253.7, -841688.2, -25626.822, -0.0022417854, 0.0072240112, -747296.1, -10883.1045, 0.00000000000008466342, 10.002877, 9.99129 
4.3512127e+2, 2.3484723e+2, -674521.2, -752450.06, -25757.594, -0.004392374, 0.008726416, -666777.1, -28278.86, 0.000000000000000000016944523, 10.001622, 9.991295 
4.3509805e+2, 2.448386e+2, -594086.1, -662023.1, -24395.57, -0.0073984475, 0.012722666, -586233.56, -45650.547, 0.00000000000000000000059254844, 10.000377, 9.991375 
4.35075e+2, 2.5483006e+2, -513919.47, -572429.56, -23899.34, -0.011297686, 0.01852222, -505398.38, -62731.477, 0.0, 9.999144, 9.991391 
4.3505228e+2, 2.6482135e+2, -436227.4, -485872.75, -20751.053, -0.016480729, 0.017039327, -428696.25, -83944.08, 0.0, 9.99782, 9.991242 
4.3502986e+2, 2.748125e+2, -358757.84, -397504.06, -20150.105, -0.023013871, 0.006639632, -350178.4, -103339.94, 0.0, 9.996397, 9.991262 
4.3500814e+2, 2.8480372e+2, -281067.63, -309858.4, -14643.746, -0.027478762, 0.0034786954, -274928.5, -126003.93, 0.0, 9.995025, 9.99121 
4.349871e+2, 2.9479498e+2, -201984.38, -220587.3, -13856.763, -0.02972707, 0.0067725214, -194596.7, -143586.84, 0.0, 9.993706, 9.991239 
4.3496683e+2, 3.0478957e+2, -124247.46, -81170.98, -6914.7305, -0.032632254, 0.0046106568, -80088.23, -80088.23, 0.0, 9.992378, 9.998074 
4.349474e+2, 3.147876e+2, -143547.44, -90061.38, -6022.487, -0.03621895, -0.0046724104, -89391.64, -89391.64, 0.0, 9.991037, 9.998109 
4.4538024e+2, 1.2495912e+2, -1524879.9, -1719363.8, -1271.4635, 0.047483515, 0.01288897, -1524871.6, 190530.48, 0.0000057556736, 10.017134, 9.99133 
4.4535962e+2, 1.3495049e+2, -1448478.4, -1632474.5, -2219.165, 0.0383466, 0.019989554, -1448451.6, 169035.31, 0.0000037357768, 10.01569, 9.991282 
4.4533816e+2, 1.4494191e+2, -1369422.6, -1540177.1, -8560.675, 0.02912033, 0.018798545, -1368994.6, 150576.48, 0.0000020159264, 10.014248, 9.991596 
4.4531605e+2, 1.549335e+2, -1292580.1, -1452520.8, -8988.256, 0.026079692, 0.017586669, -1292076.6, 129576.7, 0.00000085744585, 10.012809, 9.991595 
4.4529325e+2, 1.6492504e+2, -1216263.3, -1366057.3, -14347.473, 0.023982076, 0.015385967, -1214901.4, 108834.78, 0.00000027537405, 10.0113735, 9.991508 
4.4526976e+2, 1.749165e+2, -1139239.1, -1278271.0, -14741.665, 0.022904253, 0.011230092, -1137693.3, 88126.414, 0.00000006512656, 10.009943, 9.9915085 
4.4524592e+2, 1.8490799e+2, -1062526.5, -1191483.9, -18005.932, 0.01951553, 0.012594543, -1060059.6, 67843.69, 0.000000011228787, 10.008528, 9.99143 
4.452216e+2, 1.9489948e+2, -984996.6, -1103391.5, -17999.594, 0.013702419, 0.01883733, -982320.6, 47666.168, 0.000000001407408, 10.007129, 9.991433 
4.4519705e+2, 2.0489101e+2, -906054.44, -1012850.0, -19808.076, 0.007225494, 0.02003496, -902498.9, 29571.03, 0.00000000012817235, 10.005749, 9.991591 
4.4517228e+2, 2.1488257e+2, -827861.7, -924347.94, -20001.012, 0.000102737686, 0.015086666, -823879.94, 10272.414, 0.000000000008480514, 10.004389, 9.9916 
4.4514754e+2, 2.2487397e+2, -752572.44, -840842.25, -20012.225, -0.0037008668, 0.012403114, -748247.3, -12010.8955, 0.00000000000040767766, 10.002986, 9.991288 
4.4512287e+2, 2.3486526e+2, -675697.9, -752991.1, -19871.783, -0.0040539326, 0.011046472, -670888.2, -32566.32, 0.0000000000000000004230847, 10.001535, 9.991293 
4.450983e+2, 2.4485666e+2, -597799.94, -663168.25, -18581.21, -0.006206387, 0.015004465, -592887.3, -52480.92, 0.000000000000000000014792597, 10.000091, 9.991429 
4.450739e+2, 2.5484818e+2, -520642.0, -575031.1, -18642.162, -0.010271005, 0.023773333, -514865.75, -72376.2, 0.0, 9.9986515, 9.991445 
4.450498e+2, 2.6483962e+2, -443049.34, -486714.4, -15788.385, -0.015738294, 0.022968419, -437938.75, -93365.31, 0.0, 9.997242, 9.991458 
4.4502604e+2, 2.74831e+2, -364896.7, -397995.34, -14716.47, -0.022700116, 0.010763167, -359299.78, -112642.02, 0.0, 9.995866, 9.991479 
4.450029e+2, 2.8482231e+2, -288436.16, -312377.34, -9236.941, -0.027630968, 0.007183236, -285286.7, -136544.31, 0.0, 9.994472, 9.991299 
4.4498047e+2, 2.948137e+2, -210772.84, -223818.39, -9272.065, -0.030357007, 0.011616015, -205959.05, -155132.27, 0.0, 9.993056, 9.991325 
4.4495884e+2, 3.0480847e+2, -133496.86, -83362.734, -2855.849, -0.033891387, 0.01124778, -83200.58, -83200.58, 0.0, 9.991642, 9.998273 
4.44938e+2, 3.1480673e+2, -153890.5, -92768.06, -2093.454, -0.038214933, 0.0043953606, -92696.445, -92696.445, 0.0, 9.990227, 9.99831 
4.5539734e+2, 1.2497938e+2, -1525971.4, -1721693.5, -6543.76, 0.042969435, 0.021491108, -1525752.8, 189451.28, 0.000021715472, 10.017137, 9.991167 
4.5537528e+2, 1.3497052e+2, -1449563.1, -1634762.5, -7443.545, 0.03483391, 0.022354182, -1449264.5, 168026.53, 0.000014093352, 10.015692, 9.991123 
4.5535243e+2, 1.4496179e+2, -1370185.5, -1541761.1, -13773.513, 0.029779952, 0.019704632, -1369086.9, 150289.69, 0.000007604664, 10.014248, 9.991486 
4.5532888e+2, 1.5495329e+2, -1293377.8, -1454130.0, -14210.962, 0.032786947, 0.019836921, -1292131.1, 129328.6, 0.000003234416, 10.012807, 9.991485 
4.5530465e+2, 1.6494474e+2, -1216984.4, -1367525.6, -19552.402, 0.030226951, 0.019950666, -1214486.4, 109057.21, 0.0000010387432, 10.011372, 9.991406 
4.5527974e+2, 1.7493615e+2, -1139918.4, -1279721.8, -19956.613, 0.02202503, 0.019107739, -1137125.5, 88502.266, 0.00000024566967, 10.009945, 9.991406 
4.552544e+2, 1.8492755e+2, -1062463.8, -1191421.4, -23122.834, 0.016383003, 0.019502258, -1058443.1, 69268.83, 0.00000004235815, 10.008531, 9.991431 
4.5522872e+2, 1.94919e+2, -984947.06, -1103331.0, -23130.186, 0.013351501, 0.020355606, -980588.3, 49207.574, 0.0000000053092766, 10.00713, 9.991434 
4.5520282e+2, 2.0491049e+2, -906395.06, -1013557.7, -24802.29, 0.007757795, 0.021057395, -900933.06, 30946.2, 0.00000000048353466, 10.005748, 9.991541 
4.5517665e+2, 2.1490204e+2, -828243.4, -925092.75, -25000.412, -0.0004546343, 0.020706553, -822170.6, 11791.186, 0.000000000031994955, 10.004387, 9.991549 
4.551505e+2, 2.2489347e+2, -752354.56, -840336.2, -25361.326, -0.0052217813, 0.019101184, -745567.56, -9521.694, 0.0000000000015381548, 10.002983, 9.991322 
4.5512435e+2, 2.3488475e+2, -675462.4, -752466.9, -25237.043, -0.006422497, 0.015163723, -667928.44, -29797.264, 0.000000000000000008431647, 10.001533, 9.991327 
4.5509836e+2, 2.4487613e+2, -597919.0, -663390.75, -23913.99, -0.009025354, 0.016919635, -590114.56, -49898.8, 0.00000000000000000029474888, 10.000089, 9.991412 
4.5507255e+2, 2.5486764e+2, -520772.97, -575282.9, -23980.252, -0.013110129, 0.023797333, -511725.25, -69425.86, 0.0, 9.99865, 9.9914255 
4.5504707e+2, 2.6485923e+2, -441097.03, -482639.8, -20908.857, -0.016822983, 0.025733046, -432395.88, -88014.055, 0.0, 9.997241, 9.9917345 
4.5502192e+2, 2.7485096e+2, -362934.88, -393880.47, -19847.246, -0.020147614, 0.021255631, -353241.8, -106779.08, 0.0, 9.995863, 9.991759 
4.5499742e+2, 2.8484243e+2, -288580.7, -312618.28, -14519.198, -0.023646927, 0.01809723, -281751.16, -133205.17, 0.0, 9.994469, 9.9912815 
4.5497358e+2, 2.9483372e+2, -210954.86, -224135.02, -14569.12, -0.027291866, 0.015136607, -201554.67, -150923.31, 0.0, 9.993053, 9.9913025 
4.5495048e+2, 3.0482858e+2, -132245.98, -80706.71, -8152.239, -0.03512999, 0.016529823, -79447.97, -79447.97, 0.0, 9.991639, 9.998454 
4.5492813e+2, 3.148271e+2, -152624.33, -90079.57, -7398.152, -0.047352735, 0.021227283, -89216.39, -89216.39, 0.0, 9.990223, 9.998493 
4.654149e+2, 1.2500115e+2, -1514277.5, -1717408.0, -1051.3181, 0.04344642, 0.024260944, -1514272.0, 200719.05, 0.000066358516, 10.017991, 9.991036 
4.6539134e+2, 1.3499217e+2, -1439611.3, -1631274.5, -1656.8689, 0.035791803, 0.025128165, -1439596.9, 177482.34, 0.000043064407, 10.016424, 9.990997 
4.6536702e+2, 1.4498332e+2, -1362070.1, -1539119.5, -7906.134, 0.031349093, 0.023694817, -1361717.8, 157448.1, 0.000023236582, 10.014853, 9.9913645 
4.6534196e+2, 1.549747e+2, -1287233.5, -1452461.0, -8395.53, 0.03380086, 0.024412438, -1286808.0, 134442.28, 0.000009882979, 10.013277, 9.991362 
4.6531627e+2, 1.6496602e+2, -1211624.5, -1366203.6, -13451.313, 0.030603787, 0.024293037, -1210462.8, 112872.56, 0.000003174027, 10.011787, 9.991286 
4.652899e+2, 1.749573e+2, -1134191.3, -1278222.4, -13946.251, 0.021646127, 0.02242047, -1132853.4, 92567.39, 0.0000007507149, 10.0103855, 9.991287 
4.6526313e+2, 1.8494865e+2, -1056642.6, -1188910.1, -17401.932, 0.015872106, 0.023226654, -1054391.5, 73114.11, 0.00000012944633, 10.008936, 9.991398 
4.65236e+2, 1.9494008e+2, -980558.2, -1101516.1, -17619.91, 0.013391053, 0.02587017, -978043.75, 51546.023, 0.000000016226553, 10.007438, 9.991402 
4.6520865e+2, 2.0493154e+2, -903965.4, -1012680.56, -19316.12, 0.008375997, 0.026856856, -900635.4, 31038.096, 0.0000000014779689, 10.005921, 9.991509 
4.6518105e+2, 2.1492305e+2, -828342.9, -925454.06, -19344.934, 0.000759788, 0.025342828, -824631.2, 9125.295, 0.00000000009780854, 10.004388, 9.991515 
4.651535e+2, 2.2491446e+2, -753370.3, -840415.5, -19635.875, -0.0043123877, 0.023136757, -749145.8, -13305.3, 0.0000000000047028995, 10.00289, 9.991353 
4.6512586e+2, 2.3490578e+2, -676652.2, -752629.1, -19497.924, -0.006765011, 0.019171642, -671940.6, -34015.195, 0.00000000000000012471292, 10.001428, 9.991359 
4.6509838e+2, 2.448972e+2, -598909.75, -663050.0, -17773.041, -0.010338809, 0.01969862, -594314.2, -54304.508, 0.0000000000000000043588357, 9.99998, 9.99148 
4.650711e+2, 2.5488874e+2, -521709.06, -574927.56, -17170.314, -0.015082847, 0.024015589, -516650.16, -74557.29, 0.0, 9.998545, 9.991492 
4.6504417e+2, 2.6488042e+2, -443313.22, -482895.84, -14644.327, -0.018688334, 0.028113691, -438484.38, -94309.85, 0.0, 9.997048, 9.991802 
4.650176e+2, 2.7487227e+2, -367860.84, -395449.03, -15150.667, -0.021096367, 0.030806623, -361165.44, -114911.24, 0.0, 9.995485, 9.991827 
4.649916e+2, 2.8486386e+2, -294933.44, -313944.5, -9932.165, -0.02435359, 0.027994411, -290691.13, -142354.75, 0.0, 9.993953, 9.991432 
4.649663e+2, 2.9485524e+2, -218578.1, -226067.61, -8636.498, -0.028479239, 0.01820049, -212909.44, -162488.64, 0.0, 9.992451, 9.991454 
4.6494174e+2, 3.0485022e+2, -141540.38, -83904.695, -1831.1218, -0.036381405, 0.017815381, -83846.58, -83846.58, 0.0, 9.990941, 9.998564 
4.6491796e+2, 3.148489e+2, -163443.06, -94030.31, -1635.2595, -0.048230506, 0.026088089, -93991.805, -93991.805, 0.0, 9.989423, 9.998602 
4.7543296e+2, 1.2502433e+2, -1515010.1, -1718862.0, -6705.3447, 0.047959555, 0.022006184, -1514789.8, 199974.3, 0.00017015898, 10.017989, 9.990935 
4.754078e+2, 1.3501531e+2, -1440287.5, -1632638.1, -7304.947, 0.04059119, 0.028322011, -1440010.5, 176842.23, 0.000110426496, 10.016423, 9.990902 
4.7538188e+2, 1.4500639e+2, -1362927.1, -1540944.8, -13622.758, 0.033669807, 0.030394796, -1361890.8, 157049.5, 0.00005958505, 10.014854, 9.991236 
4.753552e+2, 1.5499765e+2, -1288001.3, -1454250.6, -14130.398, 0.029780792, 0.031050254, -1286808.9, 134217.08, 0.000025344205, 10.013286, 9.991233 
4.75328e+2, 1.6498882e+2, -1212418.5, -1368027.4, -18543.713, 0.025816828, 0.028439641, -1210239.3, 112873.195, 0.000008140341, 10.011795, 9.991156 
4.7530025e+2, 1.7497991e+2, -1135090.6, -1280096.0, -19033.904, 0.021748176, 0.021647252, -1132633.8, 92565.8, 0.0000019255988, 10.0103855, 9.991157 
4.752721e+2, 1.8497118e+2, -1057084.5, -1189759.6, -22865.44, 0.017714376, 0.024136497, -1053254.4, 74030.81, 0.00000033209403, 10.008932, 9.991339 
4.7524345e+2, 1.9496264e+2, -981004.56, -1102373.4, -23104.393, 0.013767387, 0.035091843, -976755.06, 52614.2, 0.000000041639577, 10.007434, 9.991342 
4.7521457e+2, 2.0495407e+2, -904048.56, -1012796.1, -24948.145, 0.009076132, 0.03704275, -898598.3, 32854.902, 0.0000000037938808, 10.005918, 9.9915 
4.7518548e+2, 2.149455e+2, -828419.5, -925573.44, -24984.738, 0.0036315264, 0.029040465, -822370.8, 11166.059, 0.00000000025117308, 10.004385, 9.991506 
4.7515637e+2, 2.249369e+2, -753119.75, -839868.56, -25018.078, -0.0011237055, 0.02469609, -746421.8, -10800.811, 0.000000000012083715, 10.002888, 9.991388 
4.7512728e+2, 2.3492828e+2, -676406.75, -752089.94, -24893.832, -0.005191692, 0.023107804, -668952.75, -31247.451, 0.0000000000000013822997, 10.001426, 9.991394 
4.7509837e+2, 2.449198e+2, -597821.6, -660750.4, -23085.41, -0.010217448, 0.023312684, -590261.1, -50472.516, 0.000000000000000048304694, 9.999977, 9.991635 
4.7506964e+2, 2.5491145e+2, -520633.88, -572631.56, -22499.38, -0.016227787, 0.024423737, -512250.13, -70379.58, 0.0, 9.998542, 9.991648 
4.750412e+2, 2.6490316e+2, -444287.13, -484845.22, -20468.695, -0.02134689, 0.030129753, -435752.84, -91800.85, 0.0, 9.997045, 9.991668 
4.75013e+2, 2.7489495e+2, -368857.56, -397457.3, -20988.387, -0.025543563, 0.0394423, -357760.63, -111728.02, 0.0, 9.9954815, 9.991689 
4.749855e+2, 2.8488663e+2, -292650.97, -309158.28, -15550.833, -0.029764421, 0.036889363, -283299.2, -135185.36, 0.0, 9.99395, 9.991758 
4.749587e+2, 2.9487827e+2, -216260.55, -221207.84, -14263.659, -0.033972885, 0.020798905, -204257.63, -154062.27, 0.0, 9.992448, 9.991785 
4.7493267e+2, 3.0487338e+2, -141278.02, -83308.93, -7516.6934, -0.037602015, 0.014964097, -82350.125, -82350.125, 0.0, 9.990938, 9.998603 
4.7490743e+2, 3.1487206e+2, -163215.03, -93503.03, -7330.3457, -0.04056739, 0.018571958, -92740.57, -92740.57, 0.0, 9.989419, 9.998636 
4.854513e+2, 1.2504944e+2, -1505315.9, -1716561.9, 439.5525, 0.048663758, 0.023393394, -1505315.0, 209203.47, 0.00037742153, 10.018753, 9.99071 
4.8542455e+2, 1.3504022e+2, -1431782.6, -1630859.9, -903.12146, 0.041392025, 0.03227299, -1431778.5, 184830.58, 0.0002449506, 10.017101, 9.9906845 
4.8539707e+2, 1.4503112e+2, -1354065.5, -1538491.4, -7421.6, 0.033848964, 0.03609825, -1353767.4, 164930.98, 0.00013219038, 10.015534, 9.991063 
4.8536885e+2, 1.550222e+2, -1277859.0, -1451186.9, -8195.813, 0.027758036, 0.03647226, -1277472.3, 143313.44, 0.000056237866, 10.014052, 9.99106 
4.8534012e+2, 1.6501322e+2, -1202934.6, -1364134.9, -12634.149, 0.02396307, 0.03293725, -1201950.4, 120923.016, 0.000018068293, 10.012466, 9.991086 
4.8531085e+2, 1.7500424e+2, -1129687.8, -1278200.9, -12676.781, 0.02246859, 0.024588894, -1128613.4, 96347.945, 0.0000042757483, 10.010779, 9.991085 
4.8528114e+2, 1.8499543e+2, -1054571.6, -1189650.6, -16387.953, 0.01926429, 0.0267331, -1052611.9, 74436.055, 0.0000007378052, 10.009145, 9.991233 
4.8525095e+2, 1.9498679e+2, -979699.8, -1102859.1, -16909.025, 0.01438133, 0.038521484, -977420.5, 51712.473, 0.00000009257749, 10.007565, 9.991236 
4.8522055e+2, 2.0497818e+2, -902676.4, -1011761.75, -18794.873, 0.009641143, 0.041172147, -899528.94, 31688.3, 0.000000008443283, 10.005989, 9.991527 
4.851899e+2, 2.1496965e+2, -827595.9, -924818.75, -18538.79, 0.0050664255, 0.033736106, -824180.8, 9119.8125, 0.00000000055973154, 10.004419, 9.99153 
4.8515928e+2, 2.2496107e+2, -753077.75, -839484.3, -18234.557, 0.00008200597, 0.028740063, -749387.3, -14002.781, 0.000000000026976948, 10.002868, 9.991414 
4.8512867e+2, 2.3495245e+2, -677408.3, -752218.44, -18136.264, -0.005346861, 0.025321746, -673243.4, -35774.64, 0.000000000000011416528, 10.001335, 9.991419 
4.8509824e+2, 2.4494404e+2, -600552.9, -661310.2, -16816.234, -0.01071397, 0.026694395, -596209.06, -56657.57, 0.0000000000000003988988, 9.99975, 9.991697 
4.8506796e+2, 2.549358e+2, -526332.25, -574628.44, -16887.094, -0.016032513, 0.03192792, -521013.34, -79380.84, 0.0, 9.998112, 9.99171 
4.8503798e+2, 2.649275e+2, -451171.94, -487822.13, -14519.454, -0.021313539, 0.03667909, -446117.06, -102403.46, 0.0, 9.9965515, 9.991693 
4.8500827e+2, 2.7491927e+2, -374567.0, -399885.34, -13781.182, -0.026546782, 0.039944217, -368513.2, -122718.69, 0.0, 9.99507, 9.991712 
4.849792e+2, 2.849111e+2, -297518.97, -308846.75, -8293.048, -0.031011827, 0.036937878, -293140.25, -145265.7, 0.0, 9.993495, 9.991989 
4.849508e+2, 2.94903e+2, -223627.05, -222086.25, -7727.32, -0.03464692, 0.026093956, -215091.02, -165137.75, 0.0, 9.991821, 9.992017 
4.8492318e+2, 3.0489835e+2, -152049.19, -86025.266, -923.66394, -0.037603203, 0.019619107, -86012.34, -86012.34, 0.0, 9.990087, 9.998817 
4.848963e+2, 3.1489715e+2, -178079.61, -98206.016, 649.84235, -0.039734192, 0.016519934, -98200.73, -98200.73, 0.0, 9.988289, 9.998849 
4.9547008e+2, 1.250763e+2, -1507569.1, -1721221.1, -5635.993, 0.046143398, 0.028025454, -1507420.5, 206835.1, 0.00074125465, 10.01876, 9.990387 
4.9544165e+2, 1.3506676e+2, -1433916.8, -1635404.4, -6911.2183, 0.038785774, 0.036886033, -1433680.0, 182669.44, 0.00048121787, 10.017111, 9.990367 
4.954126e+2, 1.4505741e+2, -1355456.3, -1541423.5, -12777.317, 0.03220533, 0.04096661, -1354582.5, 163858.8, 0.0002598005, 10.015538, 9.990859 
4.953829e+2, 1.5504828e+2, -1279421.6, -1454213.8, -13536.373, 0.0274906, 0.040860564, -1278379.6, 142151.11, 0.00011059065, 10.014044, 9.990855 
4.9535257e+2, 1.650392e+2, -1203141.1, -1364337.5, -18756.113, 0.024672931, 0.037787125, -1200987.5, 121631.89, 0.000035559176, 10.012456, 9.991073 
4.9532166e+2, 1.7503022e+2, -1129788.5, -1278363.0, -18824.055, 0.02371696, 0.030873148, -1127440.6, 97266.61, 0.00000842403, 10.0107765, 9.991072 
4.9529028e+2, 1.8502128e+2, -1055524.6, -1191656.9, -22144.092, 0.020539578, 0.030821646, -1052013.1, 74781.63, 0.0000014557787, 10.009146, 9.991093 
4.952585e+2, 1.9501245e+2, -980650.25, -1104870.1, -22659.95, 0.015205877, 0.036670722, -976645.75, 52235.926, 0.0000001830373, 10.0075655, 9.991095 
4.9522653e+2, 2.0500383e+2, -902162.8, -1010733.6, -24527.363, 0.010067618, 0.039813448, -896878.94, 34087.37, 0.000000016739566, 10.005989, 9.991593 
4.9519432e+2, 2.1499543e+2, -827115.7, -923823.9, -24308.777, 0.0051470916, 0.039429713, -821349.25, 11699.233, 0.0000000011138938, 10.004417, 9.991595 
4.9516213e+2, 2.249869e+2, -752903.3, -839097.0, -23889.488, -0.00058534864, 0.035105888, -746725.0, -11593.101, 0.00000000005395993, 10.002866, 9.991438 
4.9512997e+2, 2.3497824e+2, -677248.94, -751844.56, -23804.418, -0.007151166, 0.02588154, -670300.0, -33083.566, 0.00000000000007049902, 10.001332, 9.991443 
4.9509797e+2, 2.4496984e+2, -600716.0, -661603.2, -22896.432, -0.011795767, 0.029924707, -593066.8, -53767.89, 0.0000000000000024630367, 9.999747, 9.991674 
4.950661e+2, 2.549617e+2, -526496.7, -574936.0, -22982.46, -0.0145248305, 0.046404846, -517327.97, -75948.76, 0.0, 9.99811, 9.991686 
4.9503458e+2, 2.649535e+2, -449827.66, -485001.03, -20037.914, -0.018632133, 0.047603693, -440753.34, -97293.59, 0.0, 9.996549, 9.991883 
4.9500334e+2, 2.7494526e+2, -373225.38, -397060.22, -19311.713, -0.024122817, 0.032250762, -362449.9, -116909.625, 0.0, 9.995068, 9.991902 
4.9497274e+2, 2.849372e+2, -296537.34, -306758.88, -14559.439, -0.028075393, 0.02816921, -286217.72, -138598.94, 0.0, 9.993491, 9.99213 
4.949427e+2, 2.9492941e+2, -222662.9, -220028.95, -14010.136, -0.030421441, 0.03423988, -207274.03, -157579.25, 0.0, 9.991817, 9.992156 
4.9491328e+2, 3.0492508e+2, -149244.39, -80118.19, -7670.812, -0.03641863, 0.031986315, -79277.2, -79277.2, 0.0, 9.990082, 9.999221 
4.9488452e+2, 3.149242e+2, -175297.73, -92289.76, -6088.044, -0.04608304, 0.020111477, -91845.62, -91845.62, 0.0, 9.988281, 9.999254 
5.054893e+2, 1.2510473e+2, -1495626.5, -1717862.4, -921.5569, 0.04584608, 0.036791492, -1495622.6, 218354.84, 0.0013145094, 10.019685, 9.990156 
5.054592e+2, 1.3509494e+2, -1422202.1, -1632119.4, -1534.5458, 0.03773956, 0.043638386, -1422190.9, 193882.84, 0.0008539661, 10.018014, 9.990142 
5.054285e+2, 1.4508542e+2, -1345768.1, -1537787.0, -6848.0967, 0.032483637, 0.04623846, -1345524.1, 172643.06, 0.00046148823, 10.016241, 9.990754 
5.0539714e+2, 1.5507616e+2, -1275212.8, -1453274.3, -6900.9854, 0.030614875, 0.044446062, -1274945.6, 145312.17, 0.00019670818, 10.014372, 9.990748 
5.053652e+2, 1.65067e+2, -1200427.0, -1363656.6, -11652.079, 0.027672393, 0.041295543, -1199599.4, 122747.98, 0.00006336628, 10.012661, 9.991009 
5.053326e+2, 1.7505796e+2, -1125244.3, -1276802.9, -12032.305, 0.023717793, 0.03590438, -1124295.0, 100140.72, 0.00001504962, 10.0111065, 9.991007 
5.052996e+2, 1.8504898e+2, -1050164.6, -1189350.5, -15066.702, 0.0193348, 0.035251122, -1048552.3, 77971.33, 0.0000026097473, 10.009516, 9.991058 
5.0526625e+2, 1.9504009e+2, -975937.5, -1102889.9, -14797.866, 0.014539505, 0.038303148, -974235.44, 54375.79, 0.00000032966906, 10.007893, 9.991059 
5.0523263e+2, 2.0503141e+2, -898988.0, -1009984.06, -16879.564, 0.009660132, 0.04163578, -896477.8, 34218.59, 0.000000030341948, 10.006231, 9.991514 
5.051988e+2, 2.1502295e+2, -825763.06, -923969.1, -17627.135, 0.0047227154, 0.04450822, -822695.0, 10084.088, 0.0000000020364432, 10.004537, 9.991517 
5.05165e+2, 2.2501442e+2, -752486.7, -838399.6, -17471.041, -0.00036695864, 0.041435465, -749069.75, -14207.128, 0.0000000000997942, 10.002865, 9.991475 
5.0513124e+2, 2.350058e+2, -678538.3, -751983.2, -17248.105, -0.0056327432, 0.03140656, -674689.44, -37742.566, 0.00000000000032914275, 10.001215, 9.991479 
5.050976e+2, 2.4499741e+2, -602935.75, -662612.44, -16293.354, -0.011010742, 0.034840677, -598777.0, -59747.777, 0.0000000000000114985815, 9.999584, 9.991673 
5.0506413e+2, 2.5498927e+2, -528336.8, -575776.7, -16182.076, -0.016463432, 0.050964568, -523342.75, -82233.15, 0.0, 9.997973, 9.991683 
5.05031e+2, 2.6498115e+2, -451797.97, -483313.22, -12950.914, -0.020685483, 0.051406354, -447158.8, -103969.74, 0.0, 9.996292, 9.992111 
5.0499815e+2, 2.7497312e+2, -379168.75, -397299.88, -11900.156, -0.023724435, 0.034785435, -373274.4, -128007.0, 0.0, 9.994539, 9.992129 
5.049659e+2, 2.8496522e+2, -306577.0, -310894.2, -7734.817, -0.026349269, 0.03077229, -300705.22, -153360.7, 0.0, 9.992765, 9.992186 
5.049341e+2, 2.9495752e+2, -234485.39, -225032.48, -7787.323, -0.028484318, 0.038411736, -220649.5, -171229.55, 0.0, 9.99097, 9.992211 
5.0490296e+2, 3.049533e+2, -159000.16, -82593.94, -2276.2632, -0.03679015, 0.0388521, -82526.19, -82526.19, 0.0, 9.989309, 9.999414 
5.048725e+2, 3.149527e+2, -181052.52, -92833.15, -2299.9512, -0.051325634, 0.030746046, -92773.23, -92773.23, 0.0, 9.9877825, 9.999449 
5.1550895e+2, 1.2513463e+2, -1496853.6, -1720012.8, -6868.6665, 0.047319543, 0.048991915, -1496642.5, 217042.67, 0.002143184, 10.019684, 9.9900055 
5.1547724e+2, 1.3512467e+2, -1423449.1, -1634253.5, -7475.9004, 0.03801575, 0.05218921, -1423184.3, 192598.75, 0.0013942204, 10.018003, 9.989998 
5.1544476e+2, 1.4511503e+2, -1346008.9, -1538004.8, -13560.282, 0.034419578, 0.051866386, -1345055.9, 172821.58, 0.0007548682, 10.016232, 9.990739 
5.1541156e+2, 1.5510572e+2, -1275253.4, -1453425.8, -13659.336, 0.03664413, 0.047371615, -1274212.4, 145756.13, 0.00032259466, 10.014375, 9.990732 
5.153779e+2, 1.650965e+2, -1201036.5, -1365062.8, -17266.324, 0.032607444, 0.043681532, -1199238.8, 122819.91, 0.00010428684, 10.012667, 9.990906 
5.1534367e+2, 1.7508739e+2, -1125940.1, -1278247.9, -17658.385, 0.022591012, 0.039866976, -1123919.6, 100228.15, 0.000024887886, 10.011106, 9.990904 
5.153091e+2, 1.850784e+2, -1049703.9, -1188322.6, -20977.705, 0.01593455, 0.04004055, -1046598.8, 79637.06, 0.0000043439927, 10.009511, 9.991126 
5.152741e+2, 1.9506957e+2, -975510.1, -1101897.3, -20752.197, 0.012531535, 0.043136936, -972189.94, 56132.758, 0.0000005535711, 10.007886, 9.991125 
5.152388e+2, 2.0506081e+2, -900441.3, -1012910.75, -23116.69, 0.008487232, 0.04637282, -895875.4, 34533.234, 0.0000000515495, 10.006227, 9.991313 
5.152033e+2, 2.1505216e+2, -827164.8, -926876.56, -23850.807, 0.0038317982, 0.049015786, -821753.44, 10739.955, 0.000000003513883, 10.004536, 9.991315 
5.1516783e+2, 2.2504357e+2, -752050.4, -837515.9, -23534.88, 0.00069838954, 0.047791984, -745998.1, -11420.64, 0.00000000017571909, 10.002864, 9.991531 
5.151325e+2, 2.3503505e+2, -678135.56, -751123.3, -23338.707, -0.0009475068, 0.041702263, -671310.9, -34650.17, 0.0000000000011863192, 10.001212, 9.991534 
5.150972e+2, 2.4502666e+2, -602758.6, -662192.3, -22259.885, -0.008482556, 0.041296892, -595346.06, -56603.01, 0.000000000000041442642, 9.99958, 9.991699 
5.1506203e+2, 2.550184e+2, -528172.9, -575370.25, -22168.021, -0.021811947, 0.04578116, -519393.78, -78569.61, 0.0, 9.997969, 9.991709 
5.1502717e+2, 2.6501048e+2, -449884.72, -479287.63, -19493.594, -0.027396841, 0.04833449, -440170.34, -97268.34, 0.0, 9.996287, 9.992384 
5.1499265e+2, 2.7500287e+2, -377261.34, -393291.56, -18461.957, -0.025338747, 0.04769825, -365149.72, -120173.48, 0.0, 9.994535, 9.992401 
5.149587e+2, 2.849951e+2, -306763.56, -311203.22, -14480.916, -0.02586532, 0.044763967, -294333.3, -147281.25, 0.0, 9.992761, 9.992163 
5.1492506e+2, 2.9498723e+2, -234686.33, -225348.78, -14544.668, -0.028897457, 0.038381405, -214741.92, -165612.84, 0.0, 9.990964, 9.992188 
5.148923e+2, 3.0498302e+2, -159169.44, -82878.63, -8001.854, -0.038759224, 0.04013913, -82048.38, -82048.38, 0.0, 9.9893055, 9.9993925 
5.148602e+2, 3.1498253e+2, -181179.67, -93120.914, -8046.898, -0.05543693, 0.048911832, -92391.62, -92391.62, 0.0, 9.987783, 9.999425 
5.25529e+2, 1.2516655e+2, -1486681.9, -1716263.9, 822.87195, 0.047201563, 0.05352695, -1486678.9, 226693.89, 0.0032653718, 10.020445, 9.989878 
5.2549547e+2, 1.3515642e+2, -1417107.0, -1632390.8, 418.9034, 0.04143738, 0.05235425, -1417106.3, 198366.06, 0.0021289417, 10.018493, 9.989873 
5.2546126e+2, 1.4514665e+2, -1340170.9, -1536510.4, -5700.7, 0.037326835, 0.052609798, -1340005.4, 177562.52, 0.0011561568, 10.0166855, 9.990606 
5.2542627e+2, 1.5513727e+2, -1266588.9, -1450566.5, -6521.786, 0.035130136, 0.05309645, -1266358.0, 153301.84, 0.0004961263, 10.0150175, 9.990602 
5.253908e+2, 1.6512796e+2, -1192284.6, -1361512.5, -10064.111, 0.030180067, 0.05046804, -1191688.3, 130062.62, 0.00016128282, 10.013287, 9.990834 
5.25355e+2, 1.7511873e+2, -1120565.0, -1276352.3, -10199.571, 0.022492971, 0.04410865, -1119900.1, 103940.92, 0.000038780025, 10.011495, 9.990831 
5.2531874e+2, 1.8510969e+2, -1046797.0, -1187410.6, -13827.779, 0.01712488, 0.044717524, -1045450.1, 80479.58, 0.000006836972, 10.009722, 9.991074 
5.25282e+2, 1.9510083e+2, -974454.06, -1101884.0, -14387.125, 0.01405776, 0.05099934, -972849.9, 55166.86, 0.00000088288226, 10.00797, 9.991074 
5.2524513e+2, 2.0509204e+2, -899432.44, -1012700.56, -16331.781, 0.009492361, 0.05388028, -897124.6, 32978.43, 0.000000083647784, 10.006298, 9.99128 
5.2520794e+2, 2.1508332e+2, -824730.94, -925996.06, -15829.209, 0.003507798, 0.05281479, -822314.25, 9874.293, 0.0000000058294134, 10.004704, 9.991279 
5.251708e+2, 2.2507471e+2, -749769.75, -836133.6, -15373.061, -0.00027480244, 0.050780084, -747114.94, -12842.146, 0.00000000029970454, 10.002997, 9.991547 
5.251337e+2, 2.3506622e+2, -678289.25, -750926.0, -15407.898, -0.0018955589, 0.046735168, -675156.06, -38800.367, 0.0000000000034069908, 10.00118, 9.9915495 
5.250967e+2, 2.4505787e+2, -605102.0, -662562.4, -14164.851, -0.008641084, 0.045513514, -601799.94, -63362.254, 0.00000000000011902023, 9.999377, 9.991758 
5.250598e+2, 2.5504965e+2, -533099.0, -576991.7, -13768.826, -0.020501023, 0.04620917, -529137.4, -88618.82, 0.0, 9.997589, 9.991767 
5.250233e+2, 2.6504177e+2, -455774.8, -481480.1, -11847.051, -0.025872005, 0.05044213, -451147.66, -108551.92, 0.0, 9.995847, 9.992434 
5.2498704e+2, 2.750343e+2, -382366.88, -395111.78, -12436.927, -0.024781022, 0.05707693, -374764.88, -130095.945, 0.0, 9.994148, 9.992452 
5.249512e+2, 2.8502664e+2, -309966.25, -311255.9, -8689.447, -0.027633151, 0.055274677, -301897.75, -155153.94, 0.0, 9.992467, 9.992289 
5.249159e+2, 2.9501882e+2, -235983.89, -224499.67, -7591.2783, -0.034334194, 0.04383771, -220723.4, -171903.4, 0.0, 9.990802, 9.9923115 
5.248813e+2, 3.0501467e+2, -165021.06, -85115.47, -678.0186, -0.04240521, 0.04219118, -85109.71, -85109.71, 0.0, 9.98887, 9.999436 
5.248475e+2, 3.150142e+2, -196877.9, -100119.39, -183.25063, -0.051914472, 0.04958119, -100119.05, -100119.05, 0.0, 9.986674, 9.999466 
5.355495e+2, 1.252003e+2, -1487804.4, -1717758.4, -6133.4604, 0.04584421, 0.05192877, -1487640.9, 225401.4, 0.0047139116, 10.020436, 9.989775 
5.3551406e+2, 1.3519e+2, -1417938.6, -1633819.5, -6555.562, 0.04748207, 0.045634154, -1417739.6, 197403.61, 0.003082759, 10.018495, 9.989769 
5.35478e+2, 1.4518012e+2, -1341719.9, -1539660.1, -11647.407, 0.040946543, 0.049378514, -1341036.9, 176203.36, 0.0016811097, 10.01669, 9.990385 
5.3544116e+2, 1.5517062e+2, -1268147.8, -1453718.0, -12496.437, 0.027147576, 0.06129536, -1267310.0, 152023.39, 0.00072544994, 10.015017, 9.990382 
5.35404e+2, 1.651612e+2, -1192575.3, -1362024.3, -16518.752, 0.021502031, 0.061036922, -1190979.9, 130445.65, 0.00023760948, 10.013282, 9.990796 
5.353665e+2, 1.7515188e+2, -1120863.9, -1276887.8, -16677.422, 0.023351654, 0.0485944, -1119101.1, 104415.47, 0.0000577038, 10.011489, 9.990792 
5.353285e+2, 1.8514274e+2, -1047870.06, -1189589.8, -20171.904, 0.022344492, 0.049352568, -1045054.75, 80551.47, 0.0000103066295, 10.009719, 9.990921 
5.352901e+2, 1.951338e+2, -975455.0, -1103991.4, -20738.805, 0.018729167, 0.0616235, -972191.7, 55502.594, 0.0000013534424, 10.00797, 9.990925 
5.3525144e+2, 2.0512499e+2, -898491.9, -1010762.1, -22119.64, 0.012453774, 0.06389508, -894291.06, 35489.7, 0.00000013096884, 10.006297, 9.991407 
5.3521264e+2, 2.1511632e+2, -823882.75, -924126.25, -21666.205, 0.003681362, 0.05595198, -819400.3, 12465.156, 0.000000009366921, 10.004699, 9.991405 
5.351738e+2, 2.2510774e+2, -749909.44, -836298.7, -22081.879, -0.003197056, 0.050626565, -744592.4, -10642.955, 0.00000000049664367, 10.002991, 9.991534 
5.3513485e+2, 2.3509924e+2, -678374.4, -751059.8, -22129.994, -0.008225933, 0.046785194, -672166.8, -36134.305, 0.000000000008121762, 10.001176, 9.991537 
5.3509605e+2, 2.4509095e+2, -604373.5, -661033.2, -20801.021, -0.011306317, 0.047664363, -597557.06, -59443.23, 0.00000000000028374368, 9.999375, 9.991859 
5.350575e+2, 2.5508285e+2, -532395.0, -575496.7, -20429.398, -0.01261712, 0.052196294, -524250.72, -84057.42, 0.0, 9.997586, 9.991866 
5.350192e+2, 2.6507497e+2, -456912.47, -483793.78, -18194.754, -0.016261782, 0.05761265, -447732.34, -105461.586, 0.0, 9.995844, 9.992272 
5.349812e+2, 2.7506733e+2, -383505.03, -397421.6, -18806.063, -0.022107678, 0.062843114, -370411.25, -126065.34, 0.0, 9.994144, 9.9922905 
5.3494364e+2, 2.8505975e+2, -307949.94, -307048.78, -14938.954, -0.03174569, 0.06234343, -292553.63, -146133.56, 0.0, 9.992465, 9.992573 
5.3490657e+2, 2.950523e+2, -233951.97, -220308.94, -13847.48, -0.045018863, 0.05504129, -211693.94, -163201.06, 0.0, 9.990802, 9.992594 
5.348701e+2, 3.0504823e+2, -164160.05, -83290.28, -8959.753, -0.04772906, 0.04484165, -82309.51, -82309.51, 0.0, 9.988866, 9.9995575 
5.3483427e+2, 3.1504774e+2, -196101.69, -98277.34, -8431.16, -0.03996181, 0.037718497, -97556.01, -97556.01, 0.0, 9.986662, 9.999593 
5.4557025e+2, 1.2523618e+2, -1479226.5, -1714815.4, 1494.3126, 0.049553484, 0.05431128, -1479217.0, 233473.97, 0.0065171877, 10.021106, 9.989634 
5.455329e+2, 1.3522582e+2, -1407702.1, -1630142.5, 907.3216, 0.046579562, 0.053330153, -1407698.4, 207094.44, 0.004278315, 10.019264, 9.989631 
5.45495e+2, 1.4521576e+2, -1332557.1, -1537281.6, -3743.0093, 0.039392833, 0.05711638, -1332488.8, 184402.73, 0.0023450784, 10.017407, 9.990183 
5.4545647e+2, 1.5520602e+2, -1261732.3, -1452675.6, -4398.3867, 0.028483292, 0.06440636, -1261631.0, 157356.08, 0.0010189279, 10.015538, 9.990185 
5.4541755e+2, 1.651965e+2, -1186963.5, -1359534.3, -8488.502, 0.023361815, 0.063609004, -1186547.0, 134533.38, 0.00033676488, 10.013665, 9.990764 
5.453781e+2, 1.7518717e+2, -1116462.0, -1275016.5, -8547.201, 0.023658965, 0.054320812, -1116002.6, 107168.87, 0.00008275173, 10.01179, 9.990758 
5.453384e+2, 1.8517795e+2, -1044180.3, -1188766.9, -11362.992, 0.02145175, 0.054748077, -1043292.75, 81968.914, 0.00001500428, 10.010001, 9.990824 
5.452982e+2, 1.9516887e+2, -971150.06, -1102854.6, -11488.295, 0.01691527, 0.063511, -970155.44, 57195.594, 0.0000020076145, 10.008294, 9.9908285 
5.4525787e+2, 2.0516002e+2, -895291.3, -1008947.56, -13108.666, 0.011957165, 0.065544255, -893799.0, 35638.855, 0.00000019873569, 10.006494, 9.99142 
5.4521734e+2, 2.1515138e+2, -824919.7, -924364.7, -13392.34, 0.006549321, 0.06031197, -823147.7, 8374.596, 0.00000001459662, 10.004605, 9.991418 
5.451767e+2, 2.2514284e+2, -751839.9, -836742.06, -13951.801, -0.0002467683, 0.05645972, -749606.0, -16000.107, 0.0000000007973978, 10.002826, 9.991568 
5.45136e+2, 2.3513438e+2, -678270.1, -750526.6, -13604.49, -0.008243142, 0.05303924, -675793.56, -40104.953, 0.000000000016778455, 10.001151, 9.9915695 
5.4509544e+2, 2.4512611e+2, -604036.6, -660602.75, -12702.886, -0.01216211, 0.05399132, -601314.94, -63545.21, 0.0000000000005862818, 9.999374, 9.991873 
5.4505503e+2, 2.5511804e+2, -533298.7, -575666.9, -12893.845, -0.012199623, 0.05820429, -529683.25, -89834.23, 0.0, 9.997501, 9.99188 
5.45015e+2, 2.6511014e+2, -459406.13, -485251.72, -10088.049, -0.016395193, 0.061832365, -455934.78, -114008.08, 0.0, 9.995672, 9.99224 
5.449752e+2, 2.751024e+2, -387302.7, -399513.75, -9667.624, -0.024666563, 0.0638703, -381974.03, -137971.5, 0.0, 9.993885, 9.992256 
5.4493594e+2, 2.8509492e+2, -313418.5, -307717.38, -6045.7754, -0.032828223, 0.06510869, -303883.84, -157807.97, 0.0, 9.991994, 9.992738 
5.44897e+2, 2.9508767e+2, -244191.2, -223284.81, -5814.6865, -0.04090225, 0.06437317, -221776.4, -173629.94, 0.0, 9.9900055, 9.992759 
5.4485863e+2, 3.0508378e+2, -173802.22, -85325.75, -1721.587, -0.0448637, 0.0478312, -85292.266, -85292.266, 0.0, 9.988081, 9.999781 
5.4482067e+2, 3.1508347e+2, -200698.1, -97783.08, -329.8399, -0.043957956, 0.03921953, -97782.016, -97782.016, 0.0, 9.986218, 9.999825 
5.5559146e+2, 1.2527403e+2, -1480799.8, -1717093.5, -5029.7354, 0.05722978, 0.06015291, -1480692.8, 231627.92, 0.0086932955, 10.021107, 9.989472 
5.555521e+2, 1.3526364e+2, -1409102.5, -1632430.0, -5703.6177, 0.03992194, 0.07292377, -1408956.9, 205465.97, 0.005732405, 10.019263, 9.98947 
5.555123e+2, 1.4525339e+2, -1333978.8, -1539802.8, -10465.368, 0.03370958, 0.07381781, -1333448.0, 183075.38, 0.0031608783, 10.017401, 9.990009 
5.5547214e+2, 1.5524329e+2, -1263114.8, -1455164.6, -11099.723, 0.03775991, 0.06314904, -1262475.4, 156146.88, 0.0013842101, 10.015526, 9.990016 
5.5543125e+2, 1.6523364e+2, -1187188.1, -1359780.4, -15217.459, 0.034077007, 0.059505958, -1185856.6, 134859.97, 0.00046217945, 10.013655, 9.990746 
5.553899e+2, 1.7522441e+2, -1116550.8, -1275217.1, -15317.669, 0.02338154, 0.0612443, -1115085.5, 107721.4, 0.000115052826, 10.011789, 9.990739 
5.553483e+2, 1.8521516e+2, -1044391.0, -1189241.0, -17543.367, 0.015189893, 0.060759254, -1042296.56, 82600.92, 0.000021200134, 10.010001, 9.990786 
5.553064e+2, 1.9520591e+2, -971437.94, -1103360.9, -17700.111, 0.009323136, 0.05756858, -969104.44, 57883.77, 0.0000028923366, 10.008289, 9.99079 
5.552643e+2, 2.05197e+2, -895897.56, -1010096.5, -20011.053, 0.008392908, 0.059759308, -892492.56, 36583.023, 0.00000029286912, 10.006486, 9.991339 
5.55222e+2, 2.1518841e+2, -825452.8, -925444.06, -20305.148, 0.011943763, 0.06591981, -821486.8, 9673.088, 0.000000022061156, 10.0046015, 9.99134 
5.5517966e+2, 2.2517993e+2, -751192.5, -835384.25, -20109.89, 0.008174063, 0.0679073, -746635.7, -13392.721, 0.00000000123811, 10.002824, 9.991656 
5.551372e+2, 2.3517157e+2, -677684.06, -749234.6, -19810.502, -0.0022826567, 0.06519297, -672565.25, -37240.38, 0.00000000003113289, 10.001146, 9.991654 
5.5509484e+2, 2.4516329e+2, -604474.75, -661421.25, -19672.205, -0.01137569, 0.0643111, -598339.9, -60933.875, 0.0000000000010884723, 9.999369, 9.991814 
5.550525e+2, 2.5515512e+2, -533699.2, -576435.75, -19870.889, -0.01918982, 0.064203285, -525887.75, -86401.52, 0.0, 9.997497, 9.991824 
5.5501056e+2, 2.6514718e+2, -458651.63, -483638.8, -16774.654, -0.026173549, 0.063112035, -450229.25, -108665.266, 0.0, 9.995668, 9.992347 
5.54969e+2, 2.7513954e+2, -386556.9, -397921.53, -16380.54, -0.032466464, 0.06009645, -374901.1, -131262.0, 0.0, 9.993881, 9.992361 
5.5492795e+2, 2.851321e+2, -313036.6, -306850.6, -13534.493, -0.030684967, 0.06348518, -296060.2, -150348.7, 0.0, 9.991989, 9.992794 
5.5488724e+2, 2.9512504e+2, -243837.27, -222412.11, -13305.731, -0.021269178, 0.07177729, -216042.48, -168261.63, 0.0, 9.989997, 9.992816 
5.548468e+2, 3.0512127e+2, -171446.2, -80318.76, -8688.045, -0.033639897, 0.0512447, -79497.836, -79497.836, 0.0, 9.988073, 10.000121 
5.548067e+2, 3.151215e+2, -198159.86, -92542.74, -7182.602, -0.065092295, 0.05697943, -92056.516, -92056.516, 0.0, 9.9862175, 10.000177 
5.65613e+2, 1.2531398e+2, -1471507.1, -1715231.9, 2362.718, 0.05608194, 0.06787031, -1471484.3, 240445.44, 0.011241226, 10.021907, 9.989193 
5.655717e+2, 1.3530329e+2, -1401376.8, -1631359.1, 1012.2963, 0.04115045, 0.07784023, -1401372.3, 212662.56, 0.0074494905, 10.019931, 9.989202 
5.6552994e+2, 1.452929e+2, -1326538.9, -1535879.5, -3650.4863, 0.035546012, 0.07754364, -1326475.3, 189661.45, 0.004134735, 10.017901, 9.990016 
5.654878e+2, 1.5528281e+2, -1258467.9, -1452692.9, -3030.611, 0.03887163, 0.06697138, -1258420.6, 159814.75, 0.0018261921, 10.015827, 9.99002 
5.6544507e+2, 1.6527312e+2, -1183592.5, -1359012.5, -6121.11, 0.03443613, 0.06428148, -1183379.1, 136951.0, 0.0006164242, 10.013932, 9.990645 
5.654019e+2, 1.752638e+2, -1110980.6, -1273472.3, -6703.849, 0.022782745, 0.067885414, -1110704.5, 111716.81, 0.00015554244, 10.012199, 9.990641 
5.6535846e+2, 1.8525451e+2, -1038865.75, -1186415.4, -9087.315, 0.015089285, 0.06725455, -1038308.2, 86204.16, 0.000029133962, 10.01036, 9.990787 
5.6531477e+2, 1.9524525e+2, -969140.1, -1102119.8, -8913.1875, 0.011058142, 0.061951626, -968545.4, 58057.84, 0.000004051391, 10.008428, 9.99079 
5.6527084e+2, 2.052363e+2, -895069.2, -1010370.0, -11061.892, 0.009597611, 0.06335144, -894017.5, 34673.543, 0.00000041910468, 10.006558, 9.991266 
5.652266e+2, 2.1522763e+2, -823474.1, -925147.0, -11211.921, 0.010571154, 0.07010075, -822252.44, 8523.579, 0.000000032302644, 10.004752, 9.991269 
5.6518245e+2, 2.252191e+2, -750213.25, -835299.1, -11225.631, 0.0069067716, 0.07302744, -748757.1, -15897.512, 0.0000000018559368, 10.002893, 9.99161 
5.651383e+2, 2.3521069e+2, -680030.56, -750733.56, -11817.77, -0.0010787743, 0.07147226, -678107.56, -43165.64, 0.000000000053093113, 10.000988, 9.9916115 
5.6509405e+2, 2.4520244e+2, -607075.5, -661765.7, -11735.752, -0.010120811, 0.07114884, -604663.5, -67640.664, 0.0000000000018591465, 9.999138, 9.991885 
5.650499e+2, 2.5519434e+2, -535217.8, -576263.44, -10912.103, -0.020147871, 0.07104346, -532497.1, -93394.805, 0.0, 9.99734, 9.991893 
5.650061e+2, 2.6518646e+2, -460436.7, -483602.06, -7454.9756, -0.027475588, 0.06808565, -458244.94, -117065.38, 0.0, 9.995494, 9.992414 
5.6496274e+2, 2.7517882e+2, -389892.9, -398639.34, -7283.62, -0.032303028, 0.061439246, -385770.47, -142516.2, 0.0, 9.993601, 9.992429 
5.6491965e+2, 2.851715e+2, -318203.97, -308649.6, -5338.5015, -0.02967848, 0.066358924, -306262.9, -160937.0, 0.0, 9.991591, 9.992845 
5.64877e+2, 2.9516453e+2, -250823.78, -225081.03, -5078.8223, -0.01991203, 0.08107088, -224115.27, -176721.0, 0.0, 9.989474, 9.992867 
5.648346e+2, 3.0516073e+2, -178386.6, -82467.875, -541.50604, -0.033635933, 0.049793016, -82464.82, -82464.82, 0.0, 9.987534, 10.000218 
5.647927e+2, 3.1516117e+2, -203800.61, -93763.4, -768.2513, -0.067581825, 0.06686762, -93758.03, -93758.03, 0.0, 9.985754, 10.000303 
5.756348e+2, 1.2535587e+2, -1474714.9, -1720475.6, -4570.4814, 0.048098784, 0.07693456, -1474629.9, 236889.95, 0.014141457, 10.021905, 9.988831 
5.7559174e+2, 1.3534464e+2, -1404412.0, -1636420.8, -5832.5786, 0.048872896, 0.07083604, -1404265.5, 209364.53, 0.009420278, 10.019913, 9.988859 
5.75548e+2, 1.4533417e+2, -1325713.9, -1533479.6, -10895.938, 0.043360345, 0.07088286, -1325144.0, 190588.53, 0.0052641714, 10.017887, 9.990178 
5.755035e+2, 1.5532438e+2, -1257250.9, -1450266.1, -10433.243, 0.033046536, 0.0752303, -1256688.5, 161139.69, 0.002345331, 10.015836, 9.990173 
5.7545894e+2, 1.6531475e+2, -1184544.9, -1361162.0, -12361.512, 0.026151527, 0.07651264, -1183683.9, 136238.98, 0.00080032856, 10.013941, 9.990488 
5.7541406e+2, 1.753052e+2, -1112138.9, -1275667.1, -12969.271, 0.022003297, 0.07424422, -1111116.6, 110899.55, 0.00020464575, 10.01219, 9.99049 
5.753689e+2, 1.8529586e+2, -1038691.06, -1185753.0, -16103.621, 0.02037885, 0.07430574, -1036948.3, 87159.36, 0.000038935646, 10.0103445, 9.990832 
5.753233e+2, 1.952867e+2, -968904.44, -1101453.5, -15966.525, 0.0210612, 0.07559894, -967008.3, 59189.1, 0.0000055113505, 10.008417, 9.990833 
5.7527745e+2, 2.0527774e+2, -895443.7, -1011065.94, -17676.908, 0.01495311, 0.075299926, -892801.56, 35483.844, 0.0000005812427, 10.006553, 9.991216 
5.752313e+2, 2.1526894e+2, -823823.8, -925856.8, -17850.703, 0.0028659017, 0.07288972, -820791.0, 9580.685, 0.000000045709506, 10.004749, 9.991215 
5.7518524e+2, 2.2526027e+2, -751306.9, -837551.25, -18252.352, -0.0033406946, 0.07229031, -747603.1, -15146.428, 0.0000000026796545, 10.002891, 9.99145 
5.751392e+2, 2.3525172e+2, -681068.44, -752858.6, -18842.973, -0.004333303, 0.07221693, -676423.2, -41882.797, 0.0000000000842996, 10.000984, 9.991462 
5.7509327e+2, 2.4524352e+2, -605598.6, -658676.25, -18392.541, -0.008367273, 0.0746968, -599848.25, -63227.453, 0.0000000000029625768, 9.999134, 9.992091 
5.7504725e+2, 2.5523564e+2, -533778.8, -573231.7, -17613.355, -0.015160143, 0.0787787, -527059.8, -88361.93, 0.0, 9.997335, 9.992096 
5.7500166e+2, 2.652279e+2, -460121.72, -482894.78, -14547.185, -0.02035562, 0.07677232, -453034.66, -112260.875, 0.0, 9.99549, 9.992458 
5.749564e+2, 2.752203e+2, -389580.34, -397936.06, -14416.537, -0.024099067, 0.0680104, -378748.5, -135900.16, 0.0, 9.993596, 9.992473 
5.749113e+2, 2.8521305e+2, -317808.03, -307742.22, -13309.181, -0.030078666, 0.07384651, -298546.13, -153626.78, 0.0, 9.991585, 9.992903 
5.748663e+2, 2.9520616e+2, -250475.83, -224246.34, -13008.261, -0.037921418, 0.09224764, -218889.19, -171902.48, 0.0, 9.989467, 9.992921 
5.74822e+2, 3.0520216e+2, -179460.94, -84636.62, -7223.7314, -0.04521002, 0.04308747, -84089.47, -84089.47, 0.0, 9.987531, 10.000064 
5.747786e+2, 3.1520253e+2, -204486.28, -95217.195, -7351.7295, -0.0491949, 0.07445844, -94724.78, -94724.78, 0.0, 9.985754, 10.000196 
5.856571e+2, 1.2540002e+2, -1464187.6, -1714362.3, 2991.0505, 0.049541242, 0.08731549, -1464151.9, 246935.86, 0.017362136, 10.022651, 9.988864 
5.856119e+2, 1.3538872e+2, -1398702.6, -1632967.8, 4328.581, 0.051354483, 0.07109443, -1398622.6, 214575.66, 0.011623775, 10.020305, 9.988881 
5.8556604e+2, 1.4537813e+2, -1321427.3, -1533585.5, 308.96094, 0.044604685, 0.06940712, -1321426.8, 193875.2, 0.006537697, 10.018285, 9.989956 
5.8551973e+2, 1.553682e+2, -1248111.8, -1447988.6, -1599.1206, 0.031007463, 0.07926852, -1248098.9, 169300.45, 0.0029367073, 10.01655, 9.989962 
5.854731e+2, 1.6535842e+2, -1175622.9, -1357417.3, -4653.683, 0.024915546, 0.082980365, -1175503.8, 143991.36, 0.0010123324, 10.014564, 9.990421 
5.854264e+2, 1.7534883e+2, -1109770.8, -1275114.1, -4587.4395, 0.02514209, 0.080382586, -1109643.6, 111945.65, 0.00026201556, 10.0123625, 9.990423 
5.8537924e+2, 1.8533944e+2, -1038693.5, -1185918.9, -7301.8467, 0.02383196, 0.07998921, -1038332.25, 85349.01, 0.000050555722, 10.010336, 9.990806 
5.8533174e+2, 1.9533026e+2, -968027.1, -1101177.4, -7575.285, 0.021325825, 0.08081724, -967597.5, 58173.74, 0.000007269039, 10.008468, 9.9908085 
5.8528405e+2, 2.0532125e+2, -893690.0, -1010358.06, -8890.693, 0.013724725, 0.08079103, -893016.4, 34843.047, 0.00000077958515, 10.006664, 9.991191 
5.8523613e+2, 2.1531244e+2, -821209.8, -924715.8, -8831.879, 0.0014809732, 0.079173714, -820461.6, 9484.256, 0.000000062382114, 10.004918, 9.991192 
5.851882e+2, 2.2530375e+2, -748358.1, -835675.06, -8956.366, -0.0047998372, 0.07722758, -747448.9, -15417.944, 0.0000000037217707, 10.0030575, 9.991477 
5.851403e+2, 2.3529519e+2, -678927.56, -751386.75, -8119.0522, -0.005647282, 0.074005686, -678028.94, -43914.242, 0.0000000001257909, 10.001097, 9.991485 
5.8509237e+2, 2.45287e+2, -605502.3, -658814.7, -7670.6147, -0.008976322, 0.07691677, -604420.56, -68225.5, 0.000000000004451104, 9.999133, 9.99206 
5.850445e+2, 2.5527915e+2, -536088.6, -574480.7, -8543.856, -0.014559473, 0.084629826, -534273.1, -96000.95, 0.0, 9.997168, 9.992071 
5.84997e+2, 2.6527146e+2, -464383.6, -483911.03, -6492.236, -0.018713793, 0.083105475, -462422.16, -122074.36, 0.0, 9.995137, 9.992539 
5.849498e+2, 2.7526388e+2, -396730.38, -400367.4, -5993.9297, -0.021639757, 0.07198574, -392285.16, -149863.38, 0.0, 9.993048, 9.992551 
5.8490264e+2, 2.852567e+2, -322779.7, -309663.56, -4355.5615, -0.030646103, 0.08089997, -308348.94, -163856.97, 0.0, 9.991209, 9.992932 
5.8485574e+2, 2.9524994e+2, -248142.88, -222642.6, -4239.938, -0.045055375, 0.10723122, -221956.11, -175397.89, 0.0, 9.989591, 9.992951 
5.848094e+2, 3.0524576e+2, -180210.47, -84219.766, 1081.8306, -0.049937796, 0.037043933, -84207.58, -84207.58, 0.0, 9.98743, 10.000121 
5.84764e+2, 3.152463e+2, -217524.3, -99946.69, 2808.776, -0.04247109, 0.07702266, -99879.625, -99879.625, 0.0, 9.98478, 10.00032 
5.956798e+2, 1.2544626e+2, -1463039.1, -1709392.0, -5208.1914, 0.058173686, 0.0987968, -1462929.0, 247706.3, 0.020856576, 10.0226145, 9.989211 
5.9563214e+2, 1.3543525e+2, -1396831.9, -1628180.8, -4079.1296, 0.04952345, 0.07728901, -1396760.0, 215982.69, 0.014026169, 10.020309, 9.989195 
5.955843e+2, 1.4542452e+2, -1325160.0, -1540999.1, -5952.418, 0.040636394, 0.072170034, -1324995.9, 189851.81, 0.007934575, 10.018292, 9.98944 
5.955363e+2, 1.5541403e+2, -1251969.0, -1455281.0, -7795.901, 0.032191504, 0.07982253, -1251670.5, 165280.1, 0.0035901384, 10.016528, 9.989469 
5.954878e+2, 1.6540405e+2, -1175790.4, -1357197.9, -12513.165, 0.029548896, 0.08473446, -1174931.3, 144117.14, 0.0012486205, 10.014539, 9.99044 
5.9543884e+2, 1.7539452e+2, -1109635.4, -1274786.3, -12492.529, 0.0315559, 0.08643078, -1108695.8, 112446.31, 0.00032659757, 10.012357, 9.990439 
5.953896e+2, 1.8538508e+2, -1039106.1, -1186926.5, -14029.207, 0.025574397, 0.084460326, -1037786.44, 85448.0, 0.00006378486, 10.010341, 9.990726 
5.9534013e+2, 1.9537574e+2, -968420.94, -1102116.4, -14301.759, 0.012932027, 0.07858096, -966908.2, 58417.645, 0.000009295497, 10.0084715, 9.990735 
5.9529066e+2, 2.0536675e+2, -893594.9, -1010128.0, -15209.032, 0.0067485324, 0.08064348, -891642.6, 35771.465, 0.0000010115044, 10.00666, 9.9912 
5.9524107e+2, 2.1535803e+2, -821205.0, -924452.9, -15217.314, 0.005990993, 0.08878137, -819008.9, 10490.692, 0.00000008219156, 10.004906, 9.991208 
5.9519136e+2, 2.2534947e+2, -746954.3, -832528.7, -16179.291, 0.001807421, 0.087395966, -743997.5, -12414.128, 0.000000004983055, 10.003044, 9.991691 
5.9514135e+2, 2.3534104e+2, -677532.0, -748394.94, -15391.495, -0.0052142614, 0.0767427, -674333.4, -40667.676, 0.00000000017826904, 10.001089, 9.991685 
5.9509146e+2, 2.453328e+2, -607216.25, -662295.4, -14991.289, -0.011896245, 0.0778726, -603400.3, -67653.82, 0.0000000000063762324, 9.999127, 9.991817 
5.9504163e+2, 2.5532475e+2, -537720.4, -577789.25, -15891.806, -0.018308967, 0.088641934, -532182.8, -94357.02, 0.0, 9.997162, 9.99184 
5.9499204e+2, 2.65317e+2, -463461.47, -481927.25, -14339.404, -0.022562502, 0.08709419, -455639.63, -115737.76, 0.0, 9.9951315, 9.99267 
5.949428e+2, 2.7530953e+2, -395860.47, -398452.7, -13806.469, -0.025028067, 0.073322706, -383289.4, -141314.53, 0.0, 9.99304, 9.992678 
5.948939e+2, 2.853025e+2, -322658.63, -309369.0, -10413.397, -0.031249717, 0.08755074, -303661.0, -159617.11, 0.0, 9.991206, 9.992948 
5.9484535e+2, 2.9529583e+2, -247857.67, -222188.27, -10395.313, -0.04060895, 0.12624447, -218506.55, -172397.77, 0.0, 9.989595, 9.992973 
5.9479696e+2, 3.052916e+2, -178055.64, -79774.77, -8937.054, -0.04759422, 0.031657413, -78968.71, -78968.71, 0.0, 9.987425, 10.000419 
5.947487e+2, 3.1529257e+2, -214900.36, -94138.97, -6885.039, -0.04837147, 0.08476746, -93747.695, -93747.695, 0.0, 9.984759, 10.000719 
6.057026e+2, 1.2549475e+2, -1460446.4, -1709070.6, 3433.3977, 0.061322045, 0.09799449, -1460398.9, 249761.64, 0.02455389, 10.022905, 9.989069 
6.056528e+2, 1.3548373e+2, -1386970.0, -1624365.0, 1690.2386, 0.047002293, 0.08935712, -1386958.0, 225310.08, 0.016577167, 10.021073, 9.989064 
6.056029e+2, 1.4547293e+2, -1315552.6, -1536313.0, 149.85709, 0.039238922, 0.08468556, -1315552.5, 198821.33, 0.009424614, 10.018965, 9.989413 
6.055529e+2, 1.5546232e+2, -1250498.6, -1454731.0, 1492.0824, 0.037620295, 0.08257554, -1250487.8, 165990.06, 0.004291097, 10.016629, 9.989434 
6.0550237e+2, 1.6545224e+2, -1176024.8, -1358381.1, -1928.9801, 0.03482968, 0.08521843, -1176004.3, 142572.31, 0.0015038677, 10.014554, 9.990328 
6.0545135e+2, 1.7544262e+2, -1104924.9, -1273508.8, -2657.0515, 0.030858424, 0.09090851, -1104883.0, 115787.94, 0.00039695643, 10.012706, 9.9903345 
6.0540015e+2, 1.8543315e+2, -1031896.6, -1183375.5, -3852.1072, 0.022383925, 0.09043767, -1031798.75, 90965.05, 0.00007834527, 10.010814, 9.990716 
6.053488e+2, 1.9542381e+2, -962059.1, -1098970.6, -3593.019, 0.010111618, 0.08392305, -961964.9, 62890.41, 0.000011553401, 10.008885, 9.990725 
6.052974e+2, 2.0541479e+2, -890998.7, -1008944.5, -4574.8545, 0.006602903, 0.08435669, -890821.5, 36122.35, 0.0000012737636, 10.006824, 9.9911785 
6.052459e+2, 2.15406e+2, -824694.7, -926186.3, -4687.7183, 0.010568744, 0.09011172, -824478.6, 4551.1006, 0.000000104998136, 10.004651, 9.991189 
6.051942e+2, 2.2539747e+2, -751364.7, -834438.44, -5974.368, 0.0056766476, 0.09048023, -750937.2, -19823.72, 0.000000006467256, 10.002715, 9.991696 
6.051424e+2, 2.3538911e+2, -678643.25, -748678.1, -6603.0728, -0.0067275153, 0.084998354, -678026.1, -44830.87, 0.00000000024286506, 10.000984, 9.991695 
6.0509056e+2, 2.453809e+2, -607099.8, -661876.0, -6330.224, -0.013928987, 0.08593929, -606377.75, -71101.83, 0.000000000008814313, 9.999102, 9.991837 
6.050388e+2, 2.553728e+2, -538318.56, -577750.75, -5206.9277, -0.016751371, 0.09198894, -537642.6, -100287.16, 0.0, 9.997089, 9.991854 
6.0498726e+2, 2.65365e+2, -463272.0, -482311.75, -3416.7012, -0.022511238, 0.08900363, -462677.44, -123245.516, 0.0, 9.995147, 9.992612 
6.049359e+2, 2.7535748e+2, -392630.06, -397299.2, -4218.9443, -0.03076407, 0.07656763, -390142.8, -148637.38, 0.0, 9.99326, 9.992627 
6.04885e+2, 2.853505e+2, -323545.1, -308645.6, -1253.8672, -0.034377325, 0.094662555, -308540.8, -164966.95, 0.0, 9.991078, 9.993035 
6.0483456e+2, 2.9534402e+2, -260852.14, -227299.31, -632.6479, -0.03389231, 0.13957563, -227287.38, -181650.17, 0.0, 9.98864, 9.993061 
6.0478395e+2, 3.053396e+2, -189535.11, -84240.0, -471.91193, -0.04267665, 0.021159546, -84237.88, -84237.88, 0.0, 9.986575, 10.000499 
6.047334e+2, 3.1534088e+2, -211884.45, -89931.38, 222.89812, -0.05556926, 0.09567027, -89930.98, -89930.98, 0.0, 9.984829, 10.000953 
6.1572546e+2, 1.2554531e+2, -1464451.9, -1716142.9, -2830.9646, 0.060223833, 0.08821736, -1464420.0, 245245.58, 0.028357387, 10.022932, 9.988565 
6.1567384e+2, 1.3553405e+2, -1390958.6, -1631126.5, -4583.6084, 0.04401558, 0.10620204, -1390871.1, 220904.61, 0.019210765, 10.021055, 9.988605 
6.1562186e+2, 1.4552325e+2, -1313538.3, -1530959.8, -7992.169, 0.039950836, 0.10481609, -1313244.9, 200636.56, 0.010969999, 10.018937, 9.98978 
6.1556965e+2, 1.5551285e+2, -1248143.4, -1449590.4, -6831.2427, 0.04646526, 0.08710336, -1247912.0, 168071.06, 0.0050223907, 10.016624, 9.989776 
6.1551696e+2, 1.6550277e+2, -1177402.8, -1361243.0, -8588.068, 0.040484782, 0.0847819, -1177002.4, 141079.34, 0.0017721725, 10.014556, 9.990124 
6.15464e+2, 1.75493e+2, -1106315.8, -1276232.5, -9312.52, 0.024077948, 0.09412492, -1105807.0, 114370.875, 0.0004716225, 10.012698, 9.990144 
6.1541086e+2, 1.854835e+2, -1031587.94, -1182447.8, -10808.373, 0.015098153, 0.09781046, -1030817.5, 91453.34, 0.000093982315, 10.010798, 9.990778 
6.1535764e+2, 1.9547427e+2, -961823.94, -1098113.3, -10651.613, 0.012276759, 0.09599292, -960996.5, 63364.77, 0.000014014495, 10.008866, 9.990784 
6.1530423e+2, 2.054652e+2, -891335.5, -1009416.1, -12544.601, 0.012446979, 0.0913918, -890017.5, 36432.645, 0.0000015649193, 10.006809, 9.991143 
6.152506e+2, 2.1545626e+2, -824870.0, -926616.6, -12612.105, 0.015099868, 0.083811715, -823329.94, 5207.6533, 0.00000013089357, 10.004649, 9.991152 
6.1519694e+2, 2.2544764e+2, -752462.75, -836807.9, -12323.333, 0.006987799, 0.08720846, -750699.1, -20076.95, 0.000000008198891, 10.002717, 9.991526 
6.151433e+2, 2.3543929e+2, -679694.56, -750804.4, -13016.042, -0.0100889355, 0.09866059, -677386.94, -44682.766, 0.00000000032211414, 10.00098, 9.991545 
6.1508965e+2, 2.4543115e+2, -605096.06, -657638.8, -13814.057, -0.015061598, 0.10076615, -601685.6, -66901.61, 0.00000000001190573, 9.999095, 9.992121 
6.1503595e+2, 2.5542322e+2, -536433.8, -573781.4, -12700.759, -0.009944727, 0.094572015, -532524.0, -95662.27, 0.0, 9.997083, 9.992119 
6.149824e+2, 2.654154e+2, -464873.94, -485581.4, -10489.8545, -0.018668493, 0.08888899, -460488.72, -121550.42, 0.0, 9.995142, 9.992382 
6.149291e+2, 2.754077e+2, -394089.66, -400318.72, -11380.089, -0.039037026, 0.081834175, -385405.6, -144391.95, 0.0, 9.9932575, 9.9924135 
6.1487603e+2, 2.8540075e+2, -322271.2, -305912.1, -10488.256, -0.040094998, 0.10214559, -300790.94, -157709.06, 0.0, 9.991069, 9.993217 
6.148232e+2, 2.9539445e+2, -259824.52, -224805.58, -9739.726, -0.024653733, 0.14668709, -222278.98, -177135.6, 0.0, 9.988619, 9.993232 
6.1477065e+2, 3.053898e+2, -190614.14, -86218.8, -6933.7686, -0.035005245, 0.005299149, -85760.28, -85760.28, 0.0, 9.986563, 10.0003605 
6.1471814e+2, 3.153914e+2, -211120.84, -88658.125, -5974.379, -0.06398411, 0.12409532, -88367.35, -88367.35, 0.0, 9.984841, 10.001026 
6.257489e+2, 1.255985e+2, -1451584.0, -1710214.8, 5486.789, 0.05678722, 0.100076735, -1451467.8, 257677.0, 0.03213854, 10.023931, 9.988458 
6.256951e+2, 1.3558699e+2, -1387046.4, -1629877.0, 6306.718, 0.048813585, 0.10348644, -1386882.6, 224374.66, 0.021839278, 10.021392, 9.988498 
6.25641e+2, 1.455761e+2, -1311214.0, -1530155.8, 2929.018, 0.044504456, 0.10208005, -1311174.8, 202189.05, 0.012520598, 10.01912, 9.989718 
6.2558645e+2, 1.5556577e+2, -1241708.5, -1446822.3, 1583.1543, 0.044180363, 0.09557156, -1241696.3, 173768.78, 0.005761345, 10.017073, 9.989722 
6.2553173e+2, 1.6555567e+2, -1170921.6, -1358407.6, -39.17322, 0.037731715, 0.09529056, -1170921.6, 146642.34, 0.0020457928, 10.014997, 9.99008 
6.254768e+2, 1.755458e+2, -1103261.9, -1275054.4, 340.46335, 0.025770491, 0.09944788, -1103261.1, 116399.8, 0.00054867635, 10.0129, 9.990102 
6.254217e+2, 1.8553625e+2, -1031295.7, -1182302.6, -1011.72107, 0.018859003, 0.10151995, -1031288.9, 90465.53, 0.0001103664, 10.0107975, 9.990764 
6.253665e+2, 1.9552702e+2, -963989.6, -1099125.5, -1279.817, 0.016348638, 0.10103282, -963977.5, 59867.355, 0.000016642995, 10.008697, 9.990772 
6.25311e+2, 2.0551796e+2, -891352.3, -1009281.1, -2940.0754, 0.013277717, 0.09819442, -891279.06, 34654.58, 0.0000018833072, 10.006783, 9.991141 
6.2525535e+2, 2.1550904e+2, -818997.7, -923637.9, -2693.4915, 0.009728863, 0.09251165, -818928.44, 9092.4795, 0.00000016002576, 10.005025, 9.991148 
6.2519985e+2, 2.2550036e+2, -747093.9, -834752.6, -1658.551, 0.0027536524, 0.093713656, -747062.5, -16956.486, 0.000000010212252, 10.003088, 9.991461 
6.2514436e+2, 2.354919e+2, -679418.94, -751165.2, -1515.9995, -0.0072301324, 0.09999669, -679386.94, -47197.758, 0.0000000004194646, 10.001, 9.991483 
6.2508875e+2, 2.4548377e+2, -606119.94, -657609.25, -3129.33, -0.01184527, 0.10414395, -605930.44, -71661.555, 0.000000000015839885, 9.998981, 9.99215 
6.2503296e+2, 2.5547594e+2, -536690.9, -573392.2, -3777.3105, -0.011776254, 0.10551855, -536306.1, -99960.516, 0.0, 9.997023, 9.992151 
6.2497747e+2, 2.6546812e+2, -467255.7, -487020.63, -1666.8444, -0.020224072, 0.097460374, -467116.13, -128693.65, 0.0, 9.994972, 9.992342 
6.249221e+2, 2.7546027e+2, -400071.28, -403410.8, -1069.6381, -0.036117893, 0.08008935, -399758.06, -159258.89, 0.0, 9.992838, 9.992379 
6.2486696e+2, 2.8545338e+2, -325048.34, -305767.9, -481.67648, -0.038834766, 0.10423548, -305755.9, -163189.34, 0.0, 9.990794, 9.993333 
6.2481195e+2, 2.9544732e+2, -255734.53, -221515.0, -139.13673, -0.029884506, 0.16420095, -221514.44, -176889.0, 0.0, 9.988821, 9.993333 
6.247572e+2, 3.0544236e+2, -191110.22, -88811.484, 2640.9531, -0.038727086, -0.005291332, -88743.35, -88743.35, 0.0, 9.98661, 10.000135 
6.247027e+2, 3.1544393e+2, -219703.83, -91922.54, 3315.3347, -0.061250933, 0.13433774, -91836.58, -91836.58, 0.0, 9.984198, 10.001089 
6.3577276e+2, 1.2565407e+2, -1451781.1, -1707474.8, -3287.789, 0.051763896, 0.12762892, -1451738.9, 256861.94, 0.035732888, 10.023872, 9.988663 
6.357166e+2, 1.356423e+2, -1386560.3, -1627294.3, -2579.623, 0.059667803, 0.08549087, -1386532.5, 224182.92, 0.024347045, 10.02137, 9.988671 
6.356602e+2, 1.4563128e+2, -1314149.9, -1535634.9, -4296.0728, 0.051801614, 0.08202162, -1314066.6, 198756.8, 0.014007509, 10.019115, 9.989338 
6.3560337e+2, 1.5562087e+2, -1244319.5, -1451892.3, -5634.712, 0.0328125, 0.10755856, -1244166.6, 170758.86, 0.0064749657, 10.017065, 9.98937 
6.355466e+2, 1.6561075e+2, -1170347.8, -1356926.6, -7458.5723, 0.028359948, 0.11460436, -1170050.1, 146974.92, 0.0023125699, 10.014983, 9.990176 
6.354898e+2, 1.7560084e+2, -1102785.8, -1273709.5, -7181.2837, 0.034713328, 0.10647139, -1102484.5, 116637.59, 0.00062476454, 10.012881, 9.990192 
6.354326e+2, 1.8559125e+2, -1031857.4, -1183225.1, -8585.186, 0.03185805, 0.10215907, -1031372.0, 89844.03, 0.00012681633, 10.010783, 9.990698 
6.3537526e+2, 1.9558193e+2, -964334.56, -1099851.1, -8813.295, 0.02192377, 0.099983044, -963763.8, 59543.55, 0.000019338238, 10.008693, 9.990715 
6.353178e+2, 2.0557293e+2, -890963.56, -1008536.1, -9282.649, 0.009559295, 0.105036065, -890235.2, 35160.23, 0.0000022182746, 10.006783, 9.991183 
6.352602e+2, 2.1556422e+2, -818672.1, -922903.3, -9160.824, -0.0046805255, 0.1150135, -817873.1, 9607.718, 0.0000001916089, 10.00502, 9.991192 
6.352028e+2, 2.2555552e+2, -746779.44, -833960.06, -9356.21, -0.006433077, 0.10896018, -745786.7, -16220.578, 0.000000012469063, 10.0030775, 9.99151 
6.351454e+2, 2.3554684e+2, -679176.2, -750522.94, -9231.859, 0.0016440275, 0.089406945, -678001.0, -46349.95, 0.00000000053418664, 10.000991, 9.991522 
6.350878e+2, 2.4553867e+2, -607516.5, -660421.3, -10414.528, -0.0046563074, 0.096799985, -605540.2, -71808.88, 0.000000000020624339, 9.998975, 9.991953 
6.350299e+2, 2.555309e+2, -537945.5, -575929.3, -11117.127, -0.022324726, 0.12503918, -534931.0, -99123.33, 0.0, 9.997017, 9.991971 
6.3497233e+2, 2.6552305e+2, -466081.53, -484504.34, -9694.6, -0.026962426, 0.11455616, -461920.0, -124035.305, 0.0, 9.994965, 9.992508 
6.349151e+2, 2.7551514e+2, -398942.03, -400937.16, -9076.555, -0.021434283, 0.07089266, -390808.38, -150846.27, 0.0, 9.992828, 9.992543 
6.3485783e+2, 2.855084e+2, -324584.06, -304714.22, -7857.4253, -0.030611563, 0.10089077, -301982.6, -159954.83, 0.0, 9.9907875, 9.993399 
6.3480055e+2, 2.9550275e+2, -255283.5, -220696.45, -7568.3564, -0.051063176, 0.19303976, -219112.84, -175029.84, 0.0, 9.988824, 9.993379 
6.347436e+2, 3.054973e+2, -193145.7, -93117.56, -6475.2236, -0.054603584, -0.010384213, -92700.13, -92700.13, 0.0, 9.986609, 9.999829 
6.34687e+2, 3.1549865e+2, -219237.5, -90681.22, -5402.135, -0.04517659, 0.13802142, -90454.61, -90454.61, 0.0, 9.984181, 10.001171 
6.457967e+2, 1.257118e+2, -1451608.9, -1705977.1, 4779.759, 0.056473404, 0.1255478, -1451519.1, 256516.48, 0.038964104, 10.023876, 9.988738 
6.457382e+2, 1.3570026e+2, -1381435.1, -1623577.3, 4941.418, 0.05940528, 0.09823972, -1381334.4, 228813.83, 0.026604744, 10.021703, 9.988736 
6.456794e+2, 1.456892e+2, -1308708.4, -1533986.1, 4729.3135, 0.050474957, 0.09517431, -1308609.3, 203647.13, 0.015349314, 10.019539, 9.989219 
6.4562064e+2, 1.5567859e+2, -1240070.4, -1450836.5, 5128.4766, 0.03322298, 0.11062563, -1239945.6, 174414.95, 0.007121343, 10.017389, 9.989257 
6.455617e+2, 1.6566837e+2, -1167314.4, -1355392.8, 3477.5552, 0.029448383, 0.11599482, -1167250.0, 149210.8, 0.002555611, 10.015168, 9.990162 
6.455027e+2, 1.756585e+2, -1102072.5, -1273282.3, 3192.2004, 0.03586325, 0.11226615, -1102013.0, 116544.67, 0.00069467915, 10.012904, 9.990182 
6.454435e+2, 1.856489e+2, -1030474.1, -1182454.6, 2530.4456, 0.032301243, 0.10915839, -1030432.0, 90219.55, 0.00014211201, 10.010851, 9.990689 
6.453841e+2, 1.9563957e+2, -959920.75, -1097629.3, 2808.6042, 0.020913878, 0.10583121, -959863.5, 62879.547, 0.000021883548, 10.008968, 9.990704 
6.453247e+2, 2.0563053e+2, -887134.2, -1007305.6, 2626.0454, 0.009006457, 0.10991733, -887076.8, 37754.836, 0.0000025407037, 10.007049, 9.99111 
6.4526534e+2, 2.1562174e+2, -817478.56, -922827.6, 1996.4102, -0.0033326505, 0.11931486, -817440.75, 9477.123, 0.0000002226868, 10.005101, 9.99113 
6.4520586e+2, 2.2561304e+2, -746634.6, -833145.56, 608.74506, -0.0054020938, 0.11386366, -746630.4, -17627.352, 0.000000014743473, 10.003032, 9.99156 
6.4514637e+2, 2.3560442e+2, -680147.06, -750330.3, 905.34705, 0.0008639034, 0.09534966, -680135.4, -49048.0, 0.00000000065363365, 10.000873, 9.991565 
6.450867e+2, 2.4559619e+2, -608564.44, -662139.9, 1057.4492, -0.005609706, 0.10294517, -608543.6, -75375.53, 0.0000000000257107, 9.998934, 9.991827 
6.45027e+2, 2.555883e+2, -536106.25, -576100.2, 938.6429, -0.022447234, 0.13121426, -536084.25, -100838.6, 0.0, 9.997167, 9.9918585 
6.4496744e+2, 2.6558042e+2, -463117.06, -482033.4, 1047.1375, -0.02698299, 0.11832967, -463059.28, -125736.22, 0.0, 9.995098, 9.992582 
6.449079e+2, 2.755725e+2, -398529.78, -399759.06, 1118.1593, -0.02156743, 0.06999622, -397868.47, -158468.3, 0.0, 9.99279, 9.992613 
6.448485e+2, 2.8556588e+2, -327042.28, -306315.3, 2271.6929, -0.03107538, 0.10786819, -306069.25, -164604.25, 0.0, 9.990616, 9.993344 
6.4478916e+2, 2.9556033e+2, -259490.67, -223236.33, 1649.5902, -0.052537996, 0.217984, -223161.42, -179642.3, 0.0, 9.988536, 9.993318 
6.447301e+2, 3.0555442e+2, -197602.84, -97124.78, 1747.4921, -0.05535209, -0.021170277, -97094.4, -97094.4, 0.0, 9.9863615, 9.999646 
6.4467114e+2, 3.1555575e+2, -217831.5, -86517.22, 4231.27, -0.046695575, 0.14264494, -86381.016, -86381.016, 0.0, 9.984105, 10.001465 
6.5582067e+2, 1.2577154e+2, -1452184.1, -1705890.1, -2456.355, 0.067964405, 0.10260715, -1452160.4, 255290.19, 0.041677363, 10.023882, 9.988728 
6.5575975e+2, 1.3576059e+2, -1381833.0, -1623486.5, -2573.4063, 0.050485794, 0.13492575, -1381805.6, 227752.3, 0.028495876, 10.021698, 9.988732 
6.556989e+2, 1.457496e+2, -1308447.9, -1532570.3, -2841.098, 0.04277341, 0.13336718, -1308411.9, 203253.52, 0.01647014, 10.019517, 9.989313 
6.556381e+2, 1.5573865e+2, -1239997.9, -1449676.1, -2570.711, 0.04314083, 0.10624676, -1239966.4, 173806.23, 0.007659691, 10.017349, 9.989343 
6.5557694e+2, 1.6572835e+2, -1168274.9, -1356729.5, -4647.999, 0.03868263, 0.103326716, -1168160.3, 147713.25, 0.0027575023, 10.015138, 9.990074 
6.555155e+2, 1.7571855e+2, -1102531.8, -1274243.0, -4880.989, 0.030325368, 0.11733714, -1102393.1, 115576.42, 0.0007526499, 10.012899, 9.990107 
6.554542e+2, 1.8570904e+2, -1029928.1, -1181450.1, -4237.291, 0.022211455, 0.12156055, -1029809.75, 90253.05, 0.00015478628, 10.010853, 9.9907465 
6.55393e+2, 1.9569975e+2, -959609.0, -1096868.3, -4036.635, 0.0143048465, 0.11767225, -959490.4, 62663.344, 0.000023994478, 10.00896, 9.990749 
6.553318e+2, 2.0569056e+2, -888360.2, -1009571.9, -4463.9497, 0.011433769, 0.11287947, -888196.0, 36047.754, 0.0000028087964, 10.007033, 9.9909525 
6.552706e+2, 2.1568146e+2, -818602.8, -924823.94, -5153.3433, 0.012352046, 0.10704483, -818353.4, 7979.562, 0.00000024863422, 10.005083, 9.990993 
6.55209e+2, 2.2567283e+2, -746197.25, -832087.1, -7326.0537, 0.0046997652, 0.10969512, -745576.9, -17159.197, 0.000000016652598, 10.00302, 9.991628 
6.551471e+2, 2.3566452e+2, -679606.5, -749289.7, -6984.449, -0.009330324, 0.11732153, -678913.4, -48414.383, 0.00000000075448, 10.000871, 9.991626 
6.5508556e+2, 2.4565628e+2, -608725.44, -662508.7, -5503.1455, -0.014138117, 0.121706136, -608168.1, -75588.3, 0.00000000003003149, 9.998933, 9.991793 
6.5502423e+2, 2.5564808e+2, -536284.6, -576409.5, -5784.9785, -0.012037998, 0.12377919, -535467.2, -100807.1, 0.0, 9.997162, 9.99183 
6.5496254e+2, 2.6564017e+2, -463103.72, -481908.72, -7639.4136, -0.020621942, 0.10898437, -460391.44, -123653.65, 0.0, 9.99509, 9.992584 
6.5490055e+2, 2.7563244e+2, -398598.5, -399778.25, -7494.0337, -0.037407786, 0.078053676, -391671.2, -152857.83, 0.0, 9.99278, 9.992605 
6.5483904e+2, 2.8562582e+2, -328213.28, -308629.47, -5564.7847, -0.040254492, 0.12551203, -307158.7, -166280.45, 0.0, 9.990607, 9.993179 
6.5477794e+2, 2.9562014e+2, -260624.75, -225453.95, -6210.596, -0.032169174, 0.23840585, -224389.48, -181455.73, 0.0, 9.988526, 9.993159 
6.547166e+2, 3.0561373e+2, -197767.47, -97389.62, -6699.152, -0.039935604, -0.037980106, -96944.49, -96944.49, 0.0, 9.986355, 9.99962 
6.5465504e+2, 3.1561545e+2, -213751.73, -78167.23, -3692.906, -0.068558805, 0.16106665, -78066.72, -78066.72, 0.0, 9.984107, 10.002026 
6.6584486e+2, 1.258344e+2, -1445718.5, -1704987.5, 7711.7676, 0.06844382, 0.1117368, -1445489.3, 261345.78, 0.04372149, 10.02447, 9.988472 
6.657817e+2, 1.3582313e+2, -1377308.5, -1623311.6, 6396.569, 0.049638156, 0.13798456, -1377142.3, 231803.25, 0.029910058, 10.022111, 9.988514 
6.657185e+2, 1.4581214e+2, -1305006.5, -1528987.9, 5684.6836, 0.042685162, 0.13747941, -1304862.3, 206190.92, 0.017300382, 10.019663, 9.989457 
6.656554e+2, 1.5580137e+2, -1241297.1, -1448631.9, 6482.894, 0.04563246, 0.11574822, -1241094.6, 172063.77, 0.008053793, 10.017166, 9.989473 
6.65592e+2, 1.6579111e+2, -1169563.4, -1357766.6, 5913.9434, 0.04103953, 0.11240798, -1169377.6, 145881.39, 0.0029031818, 10.015042, 9.99002 
6.6552854e+2, 1.7578122e+2, -1097886.1, -1272331.1, 5986.9575, 0.030262498, 0.12219599, -1097680.9, 119675.055, 0.00079376984, 10.013207, 9.990058 
6.6546524e+2, 1.8577167e+2, -1024689.7, -1179040.1, 6517.1724, 0.020992959, 0.1258248, -1024415.0, 95034.625, 0.00016360244, 10.011191, 9.990717 
6.65402e+2, 1.9576238e+2, -957996.1, -1096112.4, 6237.968, 0.013133209, 0.12397633, -957715.0, 63825.684, 0.000025431666, 10.009046, 9.99073 
6.6533875e+2, 2.057532e+2, -889277.1, -1009275.7, 6418.311, 0.01239876, 0.11955069, -888934.8, 34695.67, 0.0000029872317, 10.006913, 9.991001 
6.652756e+2, 2.1574412e+2, -822026.8, -925833.3, 7287.48, 0.016976066, 0.11262434, -821517.7, 4201.597, 0.00000026551282, 10.004795, 9.991031 
6.6521204e+2, 2.2573546e+2, -746783.5, -833179.44, 5868.6665, 0.0068871444, 0.11514311, -746386.7, -18582.355, 0.000000017867224, 10.002991, 9.991535 
6.651482e+2, 2.3572709e+2, -671607.75, -746123.3, 5130.5356, -0.014315389, 0.12378993, -671256.2, -41369.676, 0.0000000008165344, 10.001424, 9.991544 
6.6508466e+2, 2.4571879e+2, -602496.94, -659292.56, 5357.203, -0.017548641, 0.12837599, -601996.06, -70028.35, 0.000000000032654254, 9.999324, 9.991792 
6.650213e+2, 2.557106e+2, -540844.75, -578482.7, 5494.3384, -0.007112951, 0.1294731, -540059.06, -106011.06, 0.0, 9.996819, 9.991822 
6.649575e+2, 2.657026e+2, -467868.53, -485379.78, 3810.0833, -0.016623648, 0.11354055, -467075.47, -130948.97, 0.0, 9.994789, 9.99246 
6.6489345e+2, 2.7569476e+2, -394093.47, -398644.5, 3037.9565, -0.041537028, 0.08194444, -392573.3, -154369.95, 0.0, 9.993108, 9.992496 
6.648298e+2, 2.8568813e+2, -323199.47, -306042.75, 4143.174, -0.044642635, 0.1347149, -305094.6, -164826.36, 0.0, 9.990917, 9.9931755 
6.647664e+2, 2.9568255e+2, -263112.6, -226727.97, 4860.6714, -0.030434895, 0.2568047, -226089.81, -183766.92, 0.0, 9.988334, 9.993132 
6.6470283e+2, 3.0567563e+2, -203568.02, -103376.14, 4333.917, -0.03620293, -0.054297082, -103189.02, -103189.02, 0.0, 9.986071, 9.999314 
6.6463906e+2, 3.1567731e+2, -211322.75, -72014.19, 5682.7456, -0.073035575, 0.1727795, -71782.76, -71782.76, 0.0, 9.9840355, 10.002454 
6.758692e+2, 1.2589996e+2, -1449513.3, -1711177.3, -488.77472, 0.061140385, 0.14325845, -1449512.4, 256680.89, 0.044921536, 10.02441, 9.988061 
6.7580384e+2, 1.3588774e+2, -1380603.4, -1628731.0, -1687.6001, 0.055001095, 0.11540849, -1380591.9, 227720.89, 0.030725848, 10.022054, 9.988159 
6.757382e+2, 1.458767e+2, -1304116.5, -1526228.4, -2924.8433, 0.04815324, 0.11651447, -1304078.0, 206342.92, 0.01776842, 10.019626, 9.989649 
6.756725e+2, 1.5586656e+2, -1239969.3, -1445870.5, -2215.2463, 0.04210779, 0.1367269, -1239945.4, 172575.08, 0.008269444, 10.017162, 9.989649 
6.756071e+2, 1.658564e+2, -1169598.4, -1357799.9, -586.8366, 0.038055517, 0.13853286, -1169596.5, 145023.34, 0.0029799077, 10.0150385, 9.990008 
6.755418e+2, 1.758463e+2, -1098325.9, -1272571.8, -633.37994, 0.034820173, 0.12663968, -1098323.5, 118395.33, 0.00081440795, 10.013175, 9.990046 
6.7547643e+2, 1.8583663e+2, -1025649.56, -1180370.0, -1175.38, 0.02713377, 0.12341319, -1025640.6, 93173.0, 0.0001677732, 10.011158, 9.99063 
6.75411e+2, 1.9582729e+2, -958470.9, -1096852.4, -1472.0547, 0.01653412, 0.12567136, -958455.25, 62449.973, 0.000026065109, 10.00903, 9.990676 
6.7534566e+2, 2.058183e+2, -887439.7, -1005525.3, -1278.3704, 0.011887935, 0.12977208, -887425.9, 35567.285, 0.000003059642, 10.00691, 9.991246 
6.7528033e+2, 2.158096e+2, -820317.6, -922526.4, -359.19034, 0.011516194, 0.1344877, -820316.4, 4762.055, 0.00000027175142, 10.0048, 9.991242 
6.7521495e+2, 2.2580083e+2, -748209.06, -836201.94, 109.95745, 0.0019901856, 0.12906231, -748208.94, -21044.537, 0.000000018272623, 10.002993, 9.991318 
6.751497e+2, 2.3579201e+2, -673048.2, -748869.1, -897.1086, -0.014245406, 0.11529955, -673037.56, -43786.79, 0.00000000083380375, 10.001411, 9.991352 
6.75084e+2, 2.457837e+2, -602213.75, -658491.4, -4001.6245, -0.016227674, 0.12384223, -601930.7, -70598.484, 0.000000000033323296, 9.999308, 9.991842 
6.750181e+2, 2.557758e+2, -540637.4, -577941.1, -3651.893, -0.0077820327, 0.14860001, -540283.2, -106873.38, 0.0, 9.996806, 9.991853 
6.749523e+2, 2.6576766e+2, -469457.25, -488611.47, -2483.2808, -0.01477728, 0.13188961, -469140.53, -133651.13, 0.0, 9.994784, 9.992231 
6.7488664e+2, 2.7575943e+2, -395386.8, -401357.63, -3502.2393, -0.033320103, 0.08118569, -393770.22, -156199.9, 0.0, 9.993108, 9.992299 
6.7482066e+2, 2.857528e+2, -321809.75, -303136.94, -5610.199, -0.044452954, 0.13500533, -301581.0, -161946.11, 0.0, 9.990909, 9.993365 
6.747545e+2, 2.9574755e+2, -262233.13, -224694.52, -4651.43, -0.0495132, 0.27301002, -224126.73, -182440.67, 0.0, 9.988318, 9.993265 
6.746888e+2, 3.057401e+2, -207768.58, -111943.69, -3213.3687, -0.04496808, -0.069992125, -111836.055, -111836.055, 0.0, 9.986062, 9.998719 
6.746233e+2, 3.1574154e+2, -209025.42, -67356.4, -1452.7605, -0.05658534, 0.19033107, -67341.5, -67341.5, 0.0, 9.984038, 10.002761 
6.8589354e+2, 1.2596746e+2, -1449724.3, -1707968.6, 5936.448, 0.06465695, 0.14831004, -1449587.9, 255944.48, 0.045114666, 10.024224, 9.98834 
6.8582577e+2, 1.3595554e+2, -1382110.1, -1626592.8, 8879.605, 0.058821764, 0.12215118, -1381788.0, 225861.08, 0.03083156, 10.021793, 9.988395 
6.857578e+2, 1.4594454e+2, -1305260.8, -1527842.5, 9008.302, 0.049545787, 0.123301566, -1304896.8, 204860.03, 0.01780979, 10.019562, 9.989533 
6.856898e+2, 1.5593427e+2, -1235274.6, -1444344.3, 8118.158, 0.039106485, 0.14330018, -1234959.9, 176897.58, 0.00827698, 10.01749, 9.98956 
6.856222e+2, 1.6592413e+2, -1165501.1, -1354637.6, 9939.95, 0.036114752, 0.14451064, -1164980.1, 148976.64, 0.0029773396, 10.015241, 9.990093 
6.8555486e+2, 1.759141e+2, -1101532.8, -1272987.1, 10674.596, 0.037799094, 0.13131626, -1100870.8, 115184.305, 0.00081193476, 10.012877, 9.9901285 
6.854875e+2, 1.8590446e+2, -1029776.2, -1181996.1, 11476.019, 0.031051636, 0.12812114, -1028915.8, 89233.5, 0.00016682534, 10.010831, 9.9906435 
6.854201e+2, 1.9589514e+2, -958042.7, -1096328.9, 11939.817, 0.018598277, 0.13151109, -957019.4, 63221.34, 0.000025837686, 10.009018, 9.990683 
6.8535274e+2, 2.0588613e+2, -883456.3, -1004482.3, 11180.735, 0.010408375, 0.1363671, -882432.06, 39897.01, 0.0000030221008, 10.007193, 9.991147 
6.8528533e+2, 2.1587734e+2, -812107.6, -919245.7, 9872.615, 0.0052327677, 0.14159052, -811205.44, 13209.812, 0.00000026733244, 10.005363, 9.991163 
6.852181e+2, 2.2586855e+2, -743835.25, -833625.3, 10426.425, -0.00044972898, 0.13640922, -742640.44, -16138.993, 0.000000017895402, 10.003244, 9.991343 
6.8515086e+2, 2.3585974e+2, -679714.7, -751748.56, 11205.017, -0.0066091535, 0.12245481, -678011.94, -49424.293, 0.00000000080962725, 10.000913, 9.991364 
6.850832e+2, 2.4585141e+2, -606328.3, -661435.5, 8076.739, -0.0114827575, 0.13233083, -605168.94, -74499.47, 0.000000000032231478, 9.999039, 9.991737 
6.850152e+2, 2.5584343e+2, -530684.56, -573990.06, 7390.701, -0.015198027, 0.15985394, -529457.94, -96710.13, 0.0, 9.997496, 9.991757 
6.849473e+2, 2.6583517e+2, -460878.06, -484926.78, 8572.354, -0.020101998, 0.13910308, -458135.22, -123306.74, 0.0, 9.995363, 9.99217 
6.8487966e+2, 2.7582678e+2, -399737.6, -403855.1, 8905.932, -0.026275067, 0.07931779, -392655.56, -155744.75, 0.0, 9.992799, 9.992242 
6.8481153e+2, 2.858202e+2, -324991.1, -304730.25, 6038.38, -0.039381362, 0.13955647, -303067.16, -164091.98, 0.0, 9.990665, 9.993338 
6.84743e+2, 2.9581508e+2, -254832.0, -221709.53, 5383.8896, -0.057017542, 0.29478833, -220856.38, -179831.39, 0.0, 9.988821, 9.993194 
6.8467504e+2, 3.058069e+2, -205466.47, -117320.266, 5621.5674, -0.048171055, -0.07992994, -116963.195, -116963.195, 0.0, 9.98647, 9.998121 
6.8460715e+2, 3.1580806e+2, -209590.33, -62305.75, 7901.1714, -0.052825868, 0.20297289, -61883.098, -61883.098, 0.0, 9.983744, 10.003218 
6.959179e+2, 1.2603685e+2, -1444367.0, -1696864.3, -1876.3638, 0.07555989, 0.13538888, -1444353.0, 260499.97, 0.044215273, 10.024197, 9.989117 
6.958475e+2, 1.3602611e+2, -1377571.6, -1616721.3, 427.7163, 0.06132166, 0.15105115, -1377570.9, 229387.19, 0.030169128, 10.021762, 9.989065 
6.9577736e+2, 1.4601523e+2, -1307810.4, -1532612.5, 1618.3391, 0.047916085, 0.15031861, -1307798.8, 201266.0, 0.017391555, 10.019524, 9.989214 
6.9570726e+2, 1.5600434e+2, -1237670.4, -1448391.9, 737.30035, 0.03654157, 0.13832144, -1237667.8, 173503.7, 0.00806167, 10.017442, 9.989295 
6.9563746e+2, 1.6599411e+2, -1164580.9, -1352087.5, 1568.465, 0.034956764, 0.13502322, -1164567.8, 148703.77, 0.0028905475, 10.015204, 9.990271 
6.955677e+2, 1.7598441e+2, -1100188.4, -1270228.3, 2357.807, 0.039421927, 0.13657476, -1100155.6, 115210.86, 0.0007851743, 10.012872, 9.990305 
6.9549835e+2, 1.8597497e+2, -1028813.2, -1180104.3, 4956.1577, 0.033063017, 0.13878755, -1028651.0, 88807.83, 0.0001605719, 10.010832, 9.990761 
6.954291e+2, 1.9596575e+2, -957573.3, -1095160.9, 5322.7603, 0.019504573, 0.1408998, -957367.75, 62181.504, 0.000024733055, 10.009006, 9.990756 
6.953599e+2, 2.0595652e+2, -886275.9, -1009999.0, 4544.6274, 0.008072923, 0.13966903, -886109.2, 35530.707, 0.0000028747565, 10.007175, 9.9907675 
6.952906e+2, 2.1594726e+2, -814465.9, -923796.56, 3130.069, -0.0018144548, 0.13539438, -814376.3, 9354.403, 0.00000025250787, 10.005345, 9.99085 
6.952213e+2, 2.2593854e+2, -742055.2, -829759.0, 1872.8534, -0.0005549382, 0.13819331, -742015.2, -16199.046, 0.00000001677231, 10.003229, 9.9916 
6.951519e+2, 2.359302e+2, -678093.8, -748433.4, 2814.7039, 0.008211488, 0.1447518, -677981.4, -50083.332, 0.0000000007472243, 10.000908, 9.99158 
6.950823e+2, 2.4592182e+2, -607881.6, -664713.9, 2352.9043, -0.0036718633, 0.15303637, -607784.4, -77804.13, 0.00000000002954906, 9.999041, 9.991502 
6.950125e+2, 2.5591344e+2, -532018.3, -576718.56, 1321.619, -0.029588899, 0.16295737, -531979.25, -99916.79, 0.0, 9.997493, 9.991562 
6.949426e+2, 2.659051e+2, -459955.66, -482893.4, -1115.1492, -0.032672863, 0.13517913, -459901.56, -125757.72, 0.0, 9.99535, 9.992302 
6.948725e+2, 2.7589682e+2, -399103.28, -402249.66, -491.9261, -0.020309247, 0.07645217, -399028.16, -162803.48, 0.0, 9.992779, 9.992348 
6.948022e+2, 2.8589028e+2, -326684.72, -308064.53, -785.2081, -0.028904652, 0.14867531, -308031.5, -169742.78, 0.0, 9.990656, 9.993102 
6.947319e+2, 2.9588515e+2, -256490.67, -225424.53, -1700.4114, -0.051707268, 0.3227195, -225331.75, -184992.44, 0.0, 9.988831, 9.992922 
6.9466156e+2, 3.0587623e+2, -209340.25, -125566.51, -4712.963, -0.04555774, -0.08322878, -125302.195, -125302.195, 0.0, 9.986472, 9.9975395 
6.945908e+2, 3.1587702e+2, -205118.03, -52717.836, -1848.6466, -0.063878134, 0.21879904, -52695.414, -52695.414, 0.0, 9.983723, 10.003871 
7.059421e+2, 1.2610969e+2, -1444100.9, -1698794.9, 10379.459, 0.07526267, 0.1358931, -1443678.6, 260460.98, 0.042222217, 10.024227, 9.988918 
7.0586926e+2, 1.3609886e+2, -1378502.5, -1618708.9, 7592.941, 0.06126729, 0.16070643, -1378262.8, 227983.06, 0.02874127, 10.021698, 9.988928 
7.057968e+2, 1.4608805e+2, -1308755.1, -1530767.0, 9626.446, 0.04980104, 0.1608758, -1308338.5, 200013.44, 0.016517926, 10.01931, 9.989412 
7.0572454e+2, 1.5607728e+2, -1241561.0, -1448099.4, 12002.513, 0.041679356, 0.14395371, -1240865.9, 169591.34, 0.007627051, 10.01704, 9.989473 
7.0565253e+2, 1.6606715e+2, -1167041.0, -1352771.9, 14011.026, 0.037600115, 0.1398526, -1165990.0, 146566.34, 0.0027215234, 10.014979, 9.990295 
7.055807e+2, 1.7605749e+2, -1096340.3, -1267800.8, 14029.401, 0.035726696, 0.143761, -1095199.9, 119450.984, 0.0007349124, 10.013079, 9.9903345 
7.0550925e+2, 1.8604808e+2, -1025029.56, -1178322.3, 16301.668, 0.029121343, 0.14718448, -1023315.1, 93427.914, 0.00014923606, 10.011063, 9.990737 
7.0543814e+2, 1.9603884e+2, -957512.3, -1095006.5, 15894.432, 0.01942861, 0.14946133, -955698.8, 63134.84, 0.000022797369, 10.008974, 9.99075 
7.0536697e+2, 2.0602964e+2, -887699.25, -1009504.2, 17070.209, 0.010349461, 0.14622737, -885352.2, 35571.844, 0.0000026245732, 10.006997, 9.990853 
7.052959e+2, 2.160204e+2, -817027.9, -924113.0, 18845.281, 0.0016837709, 0.13860759, -813808.2, 9206.148, 0.00000022805038, 10.0051, 9.990907 
7.052246e+2, 2.2601163e+2, -742335.94, -831776.1, 16505.281, 0.000681885, 0.1421352, -739387.25, -14286.749, 0.0000000149669, 10.003259, 9.991407 
7.0515305e+2, 2.3600315e+2, -670606.3, -746427.9, 14530.09, 0.0051011913, 0.15232316, -667917.2, -40733.254, 0.00000000065050837, 10.001458, 9.991416 
7.050815e+2, 2.4599467e+2, -601072.3, -661549.1, 14526.072, -0.005579055, 0.16047099, -597764.25, -68497.21, 0.000000000025451518, 9.999482, 9.991471 
7.0500994e+2, 2.559862e+2, -533407.1, -577483.0, 14975.104, -0.026955472, 0.16737126, -528800.7, -97450.87, 0.0, 9.997372, 9.991531 
7.0493793e+2, 2.6597783e+2, -459615.3, -482979.1, 10929.564, -0.03138208, 0.1386443, -455299.63, -121868.03, 0.0, 9.995352, 9.992257 
7.048655e+2, 2.7596954e+2, -390032.72, -398174.84, 10387.826, -0.023857675, 0.080763705, -382946.7, -147433.94, 0.0, 9.993381, 9.992299 
7.0479316e+2, 2.8596294e+2, -320339.2, -306531.3, 10384.3545, -0.031054413, 0.15814155, -300965.3, -163387.94, 0.0, 9.991125, 9.992944 
7.047206e+2, 2.959577e+2, -259898.13, -229257.97, 10077.651, -0.048447672, 0.33959156, -226240.55, -186611.64, 0.0, 9.988662, 9.992704 
7.046481e+2, 3.0594802e+2, -214274.69, -136111.77, 5586.18, -0.039798457, -0.09152739, -135714.55, -135714.55, 0.0, 9.986455, 9.996787 
7.0457476e+2, 3.1594834e+2, -189987.45, -37890.47, 7615.1943, -0.07242819, 0.23012833, -37510.14, -37510.14, 0.0, 9.984404, 10.004525 
7.159662e+2, 1.2618545e+2, -1449844.9, -1711254.5, 1472.1763, 0.06725283, 0.14555076, -1449836.5, 253561.03, 0.039200354, 10.0241585, 9.988072 
7.1589094e+2, 1.3617364e+2, -1383177.1, -1628750.3, -828.1686, 0.0594284, 0.15620765, -1383174.4, 222339.39, 0.02660045, 10.021651, 9.988252 
7.158161e+2, 1.4616287e+2, -1304694.0, -1522109.5, 2005.7548, 0.05427582, 0.15973774, -1304675.5, 202943.72, 0.015225402, 10.019273, 9.990004 
7.157417e+2, 1.5615286e+2, -1238069.1, -1440431.1, 4069.999, 0.052654263, 0.15804915, -1237987.4, 171729.88, 0.0069938297, 10.017006, 9.989996 
7.1566755e+2, 1.6614294e+2, -1167801.6, -1353821.8, 7225.0884, 0.042987235, 0.15573451, -1167521.4, 144292.84, 0.0024794384, 10.01495, 9.990226 
7.155937e+2, 1.7613314e+2, -1097124.4, -1268835.5, 7170.6934, 0.027612964, 0.152387, -1096825.4, 117084.78, 0.00066424266, 10.013048, 9.990266 
7.155202e+2, 1.8612362e+2, -1026138.7, -1180125.8, 8836.654, 0.02038971, 0.15379155, -1025633.25, 90370.32, 0.00013360466, 10.011035, 9.990614 
7.15447e+2, 1.9611427e+2, -957962.5, -1095648.1, 8504.422, 0.018603023, 0.15741429, -957439.2, 60656.04, 0.000020181045, 10.008956, 9.990702 
7.1537405e+2, 2.0610534e+2, -884104.7, -1001959.4, 10218.288, 0.016691275, 0.15580869, -883225.3, 36957.51, 0.0000022931479, 10.006987, 9.991361 
7.153011e+2, 2.1609664e+2, -814146.94, -918148.2, 11855.616, 0.014592555, 0.15037353, -812812.56, 9455.243, 0.00000019628473, 10.0050955, 9.991304 
7.1522784e+2, 2.2608766e+2, -746354.9, -840069.25, 9820.483, 0.0027139597, 0.14778513, -745336.8, -20980.934, 0.000000012666156, 10.003255, 9.990832 
7.1515435e+2, 2.3607847e+2, -674060.3, -753488.4, 7801.661, -0.015223006, 0.14579675, -673301.25, -46855.137, 0.0000000005306085, 10.001451, 9.990926 
7.150809e+2, 2.460699e+2, -599754.75, -658714.44, 6674.951, -0.01632968, 0.15540524, -599008.5, -70478.305, 0.000000000020435228, 9.999472, 9.991656 
7.1500754e+2, 2.5606173e+2, -532338.44, -575176.8, 7133.664, -0.0069285883, 0.17338198, -531181.75, -100571.66, 0.0, 9.997362, 9.991681 
7.149334e+2, 2.6605338e+2, -461019.28, -485775.6, 3547.379, -0.016460836, 0.14966252, -460521.0, -127829.12, 0.0, 9.995342, 9.992057 
7.148588e+2, 2.760449e+2, -391236.2, -400690.94, 2868.1348, -0.038019996, 0.09263479, -390434.16, -155659.1, 0.0, 9.993377, 9.992116 
7.1478415e+2, 2.860382e+2, -320612.3, -307099.7, 1071.0862, -0.046740912, 0.1677262, -307015.3, -170174.38, 0.0, 9.991118, 9.992893 
7.1470934e+2, 2.9603282e+2, -261010.89, -231259.08, 1036.9434, -0.047189344, 0.3438841, -231222.97, -192329.61, 0.0, 9.988642, 9.992561 
7.1463466e+2, 3.0602238e+2, -220670.5, -149288.31, -1944.4122, -0.030401554, -0.105099715, -149235.39, -149235.39, 0.0, 9.986449, 9.995873 
7.1455914e+2, 3.160222e+2, -184781.72, -27771.71, 415.9454, -0.07775102, 0.24706233, -27770.61, -27770.61, 0.0, 9.98443, 10.005194 
7.259902e+2, 1.2626337e+2, -1453413.4, -1710656.4, 7364.776, 0.071133114, 0.16107735, -1453202.8, 249432.03, 0.03528109, 10.023669, 9.988319 
7.259124e+2, 1.3625164e+2, -1385232.1, -1627452.5, 11339.87, 0.05946058, 0.15849642, -1384702.4, 220047.36, 0.023847202, 10.021313, 9.98846 
7.2583526e+2, 1.4624098e+2, -1307540.6, -1523195.9, 15404.114, 0.053746134, 0.16067718, -1306445.9, 200408.5, 0.013580372, 10.018996, 9.99002 
7.2575855e+2, 1.5623105e+2, -1240889.8, -1441150.8, 14446.715, 0.053720232, 0.16534401, -1239853.0, 169098.63, 0.006198002, 10.016737, 9.99004 
7.256824e+2, 1.6622123e+2, -1170485.8, -1353741.3, 18298.313, 0.044175394, 0.16461642, -1168676.5, 142371.11, 0.002179656, 10.01467, 9.990332 
7.2560656e+2, 1.7621154e+2, -1100217.8, -1268927.4, 19406.25, 0.027836138, 0.15964524, -1098014.3, 115128.484, 0.00057820324, 10.012743, 9.99037 
7.255311e+2, 1.8620206e+2, -1028398.44, -1180286.4, 22103.514, 0.020711346, 0.15876044, -1025247.2, 89988.266, 0.000114933486, 10.010807, 9.990674 
7.25456e+2, 1.9619276e+2, -958033.25, -1094803.8, 23153.691, 0.019821547, 0.15979227, -954219.9, 63106.91, 0.000017121074, 10.00888, 9.990755 
7.25381e+2, 2.0618384e+2, -882900.3, -1001857.06, 23765.4, 0.017529538, 0.16169664, -878328.2, 41085.984, 0.0000019143033, 10.007058, 9.991296 
7.253063e+2, 2.1617515e+2, -810843.6, -916920.25, 21671.318, 0.014322688, 0.16365957, -806587.0, 14912.14, 0.00000016084752, 10.005304, 9.991257 
7.2523123e+2, 2.2616613e+2, -742826.56, -838644.7, 20377.877, 0.0021501735, 0.15968627, -738672.8, -15085.089, 0.00000001016266, 10.003475, 9.990791 
7.2515583e+2, 2.3615682e+2, -671650.7, -752637.6, 22125.316, -0.015953124, 0.1504863, -666000.3, -40321.305, 0.00000000040488538, 10.0015955, 9.990874 
7.250805e+2, 2.4614817e+2, -597164.6, -658319.6, 20628.262, -0.016653027, 0.1593584, -590857.0, -63093.13, 0.00000000001527769, 9.999652, 9.991555 
7.250051e+2, 2.5613996e+2, -528085.4, -573978.1, 19184.611, -0.005823823, 0.18104509, -521122.1, -91277.67, 0.0, 9.997656, 9.991583 
7.24929e+2, 2.6613143e+2, -456679.7, -485391.88, 15249.393, -0.014946824, 0.15795544, -450092.0, -118164.47, 0.0, 9.99568, 9.991883 
7.248524e+2, 2.7612278e+2, -386984.13, -400143.88, 14766.494, -0.03747422, 0.09971137, -377397.84, -143385.33, 0.0, 9.993699, 9.991961 
7.2477543e+2, 2.8611597e+2, -313363.8, -303984.2, 11790.156, -0.049230866, 0.17639008, -295985.34, -159906.13, 0.0, 9.991596, 9.992836 
7.246983e+2, 2.9611057e+2, -250606.63, -227836.9, 11830.638, -0.05340327, 0.35490343, -222802.9, -184670.9, 0.0, 9.989388, 9.992396 
7.246214e+2, 3.0609939e+2, -219035.06, -159317.67, 8724.479, -0.02730953, -0.10629739, -158069.17, -158069.17, 0.0, 9.986995, 9.994884 
7.2454363e+2, 3.1609836e+2, -178493.6, -16096.326, 10819.588, -0.07672981, 0.25249404, -15378.651, -15378.651, 0.0, 9.984458, 10.005943 
7.360139e+2, 1.2634332e+2, -1446242.4, -1696371.9, -266.06873, 0.082837485, 0.18052435, -1446242.1, 255610.11, 0.030662963, 10.023585, 9.989324 
7.359337e+2, 1.3633248e+2, -1379531.4, -1615422.5, 3004.9385, 0.060684897, 0.1655816, -1379493.1, 224465.06, 0.020629363, 10.021238, 9.989295 
7.358542e+2, 1.4632192e+2, -1310377.0, -1528758.9, 7335.9077, 0.049506593, 0.16312666, -1310130.8, 195930.75, 0.011677317, 10.018939, 9.989654 
7.3577523e+2, 1.5631165e+2, -1243008.4, -1445257.1, 6658.4854, 0.047251303, 0.1675592, -1242789.4, 165373.08, 0.005288847, 10.016705, 9.98976 
7.3569703e+2, 1.6630188e+2, -1168814.3, -1349912.5, 11626.186, 0.042300846, 0.16828425, -1168070.9, 142187.2, 0.0018423196, 10.014645, 9.990591 
7.3561937e+2, 1.7629245e+2, -1098630.9, -1265076.9, 12562.516, 0.034803156, 0.16598824, -1097688.1, 114662.24, 0.0004830969, 10.0127125, 9.990633 
7.35542e+2, 1.862832e+2, -1026933.8, -1176833.4, 15166.192, 0.028227549, 0.16244432, -1025414.75, 89026.1, 0.00009471788, 10.010782, 9.990909 
7.3546493e+2, 1.9627406e+2, -956978.56, -1092489.9, 16182.932, 0.022567935, 0.15756926, -955072.75, 61457.633, 0.000013885693, 10.008868, 9.990905 
7.3538804e+2, 2.0626497e+2, -886674.56, -1009577.7, 17383.896, 0.013443625, 0.16460906, -884263.06, 34356.637, 0.0000015243619, 10.00705, 9.990761 
7.3531145e+2, 2.1625587e+2, -813784.9, -922843.0, 15301.408, 0.0022926894, 0.17841215, -811678.7, 9030.394, 0.00000012544581, 10.005293, 9.990846 
7.352346e+2, 2.2624695e+2, -739621.25, -831856.06, 13528.658, -0.00029838018, 0.17740798, -737677.9, -14881.245, 0.00000000774122, 10.003463, 9.991247 
7.351576e+2, 2.3623808e+2, -669044.4, -747131.4, 15134.105, 0.0020176815, 0.1658483, -666213.9, -41330.348, 0.00000000028944255, 10.001586, 9.991242 
7.350802e+2, 2.4622937e+2, -599629.4, -663339.75, 13162.203, -0.007606297, 0.17192349, -597017.25, -70048.375, 0.0000000000106779195, 9.999642, 9.991203 
7.350025e+2, 2.5622076e+2, -530327.44, -578514.25, 11748.03, -0.024168648, 0.19022204, -527615.9, -98562.64, 0.0, 9.997646, 9.991265 
7.349245e+2, 2.6621205e+2, -457538.25, -487072.9, 7796.812, -0.026569782, 0.16340427, -455606.34, -124467.67, 0.0, 9.995671, 9.991759 
7.348462e+2, 2.762032e+2, -387707.47, -401547.1, 7273.307, -0.020792345, 0.10169129, -384588.13, -151362.97, 0.0, 9.9936905, 9.991855 
7.3476714e+2, 2.8619638e+2, -313542.8, -304373.66, 3563.6084, -0.03784407, 0.18424925, -303151.53, -167859.6, 0.0, 9.991592, 9.992797 
7.346875e+2, 2.9619104e+2, -251517.88, -230007.56, 3554.791, -0.068604454, 0.3736894, -229435.33, -192091.1, 0.0, 9.989395, 9.9922285 
7.3460835e+2, 3.0617914e+2, -226175.39, -174333.47, -815.1177, -0.031335864, -0.09313855, -174320.66, -174320.66, 0.0, 9.986998, 9.993836 
7.345281e+2, 3.161771e+2, -172582.17, -3601.7305, 1515.8909, -0.06696775, 0.2557572, -3588.1328, -3588.1328, 0.0, 9.984441, 10.006793 
7.4603707e+2, 1.264263e+2, -1454323.4, -1699079.3, 11927.658, 0.081172876, 0.1809038, -1453743.5, 247296.2, 0.02559668, 10.022806, 9.989463 
7.459546e+2, 1.3641572e+2, -1387925.8, -1617922.6, 10712.72, 0.06511273, 0.17642352, -1387427.9, 215715.34, 0.017130254, 10.020473, 9.98946 
7.458728e+2, 1.4640535e+2, -1316782.9, -1529892.3, 16288.186, 0.052645363, 0.17463039, -1315545.1, 189699.64, 0.009630569, 10.018338, 9.989833 
7.4579173e+2, 1.5639518e+2, -1245887.5, -1444534.5, 18983.637, 0.04511881, 0.17407732, -1244089.6, 163254.9, 0.0043240986, 10.016366, 9.989931 
7.457115e+2, 1.6638555e+2, -1171401.6, -1349611.3, 25271.455, 0.04071369, 0.17344628, -1167887.3, 141551.53, 0.0014900827, 10.01436, 9.990706 
7.4563193e+2, 1.7637624e+2, -1102285.3, -1265307.3, 25554.125, 0.037206195, 0.17210424, -1098373.4, 113156.39, 0.0003856564, 10.01236, 9.990747 
7.4555266e+2, 1.8636708e+2, -1029391.06, -1177656.9, 27747.613, 0.029566314, 0.17034024, -1024368.3, 89251.21, 0.00007445655, 10.010564, 9.990921 
7.4547374e+2, 1.9635797e+2, -955676.2, -1091489.1, 27474.072, 0.019825064, 0.16755253, -950328.94, 65379.867, 0.000010723739, 10.008906, 9.99092 
7.453951e+2, 2.0634884e+2, -884946.75, -1009269.4, 30172.37, 0.01169443, 0.17224732, -878011.06, 39787.5, 0.0000011540261, 10.007156, 9.990694 
7.4531686e+2, 2.1633962e+2, -812722.8, -922758.3, 31287.986, 0.004366365, 0.18133056, -804448.44, 15440.653, 0.00000009289361, 10.005349, 9.990781 
7.452382e+2, 2.2633064e+2, -737959.5, -831281.9, 28538.414, 0.0018390946, 0.18164249, -729924.2, -7947.1343, 0.0000000055941496, 10.003551, 9.991201 
7.451593e+2, 2.3632179e+2, -666145.9, -745982.06, 26808.492, 0.0024318711, 0.17498964, -657979.1, -33915.297, 0.00000000019366823, 10.001759, 9.991201 
7.4508e+2, 2.4631298e+2, -594508.2, -662353.1, 24376.826, -0.008659539, 0.18134014, -586657.9, -60507.746, 0.0000000000069975774, 10.000022, 9.991053 
7.450005e+2, 2.563042e+2, -521168.78, -575459.94, 24458.125, -0.027195383, 0.1968838, -511775.6, -83539.35, 0.0, 9.998296, 9.991121 
7.449205e+2, 2.6629534e+2, -448744.63, -483758.7, 20439.7, -0.027781518, 0.169724, -439339.25, -109016.34, 0.0, 9.996277, 9.991652 
7.448401e+2, 2.762864e+2, -382275.72, -399911.4, 20118.877, -0.017134255, 0.1094758, -369127.13, -136716.86, 0.0, 9.994069, 9.991742 
7.447589e+2, 2.862794e+2, -309273.47, -303983.3, 15518.994, -0.035739146, 0.19044909, -290885.6, -156406.94, 0.0, 9.99192, 9.992622 
7.4467707e+2, 2.962739e+2, -247354.86, -230954.23, 14451.354, -0.07254213, 0.37596586, -222538.69, -186005.56, 0.0, 9.989771, 9.991942 
7.4459565e+2, 3.062614e+2, -225607.94, -185256.39, 8806.525, -0.02645854, -0.080072716, -183418.16, -183418.16, 0.0, 9.98748, 9.992814 
7.4451286e+2, 3.1625837e+2, -156090.86, 15100.002, 11343.729, -0.067685045, 0.25905707, 15848.406, 15848.406, 0.0, 9.98507, 10.007732 
7.5605977e+2, 1.2651187e+2, -1456505.8, -1705241.1, 3773.9966, 0.07078528, 0.16912141, -1456448.5, 243752.95, 0.02038372, 10.022749, 9.98905 
7.559752e+2, 1.3650115e+2, -1389741.9, -1621969.8, 2897.3904, 0.07191553, 0.19036421, -1389705.6, 212601.27, 0.013564873, 10.020407, 9.989199 
7.5589126e+2, 1.4649104e+2, -1312908.3, -1521435.1, 9643.12, 0.06088602, 0.19262955, -1312463.3, 191942.75, 0.0075703096, 10.018279, 9.990419 
7.558081e+2, 1.5648137e+2, -1242544.3, -1436992.3, 11948.587, 0.046078335, 0.18375804, -1241812.8, 164687.72, 0.0033672594, 10.016319, 9.990452 
7.557258e+2, 1.6647196e+2, -1171471.5, -1349125.8, 18064.69, 0.039253183, 0.17982434, -1169653.3, 138939.47, 0.0011468162, 10.014322, 9.990743 
7.5564426e+2, 1.7646268e+2, -1102353.1, -1264977.1, 18479.033, 0.03591736, 0.17812847, -1100279.8, 110403.7, 0.00029260636, 10.012332, 9.990769 
7.5556326e+2, 1.864535e+2, -1030538.4, -1179740.1, 21844.756, 0.0258772, 0.18185668, -1027405.8, 85367.58, 0.000055547833, 10.010547, 9.990774 
7.5548255e+2, 1.9644433e+2, -956212.7, -1092400.0, 21513.598, 0.012551611, 0.18778934, -952895.0, 61968.266, 0.00000784762, 10.008894, 9.990851 
7.5540227e+2, 2.064353e+2, -882540.3, -1004047.25, 23647.055, 0.012216598, 0.18360579, -878100.44, 38851.535, 0.00000082661666, 10.007139, 9.991045 
7.5532234e+2, 2.1642622e+2, -811073.7, -919053.7, 24650.678, 0.018968033, 0.17360367, -805712.4, 13328.249, 0.00000006501111, 10.005331, 9.99103 
7.5524175e+2, 2.264171e+2, -741339.7, -838128.2, 21914.729, 0.0075585074, 0.17386843, -736609.0, -15478.842, 0.000000003819227, 10.003539, 9.990727 
7.5516087e+2, 2.3640788e+2, -668868.2, -751615.94, 20284.484, -0.013964896, 0.1784415, -664163.25, -40942.535, 0.00000000012038344, 10.001754, 9.990807 
7.5508e+2, 2.4639897e+2, -594047.6, -661350.06, 17991.643, -0.018832425, 0.18770024, -589539.94, -64231.836, 0.0000000000042815872, 10.000015, 9.991112 
7.549989e+2, 2.563902e+2, -520812.78, -574634.5, 17797.994, -0.014522721, 0.20109849, -515459.7, -88065.9, 0.0, 9.998287, 9.991168 
7.5491685e+2, 2.6638138e+2, -449195.03, -484571.34, 12116.925, -0.018923199, 0.17710055, -445442.8, -115962.555, 0.0, 9.996264, 9.991587 
7.5483406e+2, 2.7637243e+2, -382984.94, -401202.16, 11942.412, -0.027927607, 0.12343393, -377073.97, -145506.27, 0.0, 9.994055, 9.991646 
7.547507e+2, 2.8636518e+2, -311351.38, -308157.7, 7502.6978, -0.04337027, 0.19438851, -302083.78, -168444.7, 0.0, 9.99191, 9.992326 
7.546669e+2, 2.963591e+2, -250085.22, -236563.48, 6374.2764, -0.06321052, 0.3594538, -234032.38, -198333.92, 0.0, 9.989763, 9.991546 
7.5458324e+2, 3.0634618e+2, -232210.84, -199029.95, -131.23561, -0.011702466, -0.066306405, -199029.44, -199029.44, 0.0, 9.987478, 9.991855 
7.544979e+2, 3.1634238e+2, -148588.42, 30378.457, 2283.9927, -0.08119206, 0.27482912, 30407.602, 30407.602, 0.0, 9.985076, 10.008762 
7.6608217e+2, 1.2660004e+2, -1463558.5, -1706410.8, 11148.238, 0.07180068, 0.18301928, -1463047.8, 236290.47, 0.01536164, 10.022008, 9.989291 
7.6599514e+2, 1.3658947e+2, -1398623.1, -1623755.4, 14216.206, 0.07128988, 0.1954872, -1397729.0, 203713.22, 0.0101653915, 10.019577, 9.989432 
7.6590914e+2, 1.4657956e+2, -1321798.9, -1523453.8, 22806.268, 0.060220513, 0.19670738, -1319251.8, 184287.36, 0.005631295, 10.017499, 9.990618 
7.658241e+2, 1.5657014e+2, -1249876.4, -1438102.8, 22980.096, 0.046560567, 0.19091435, -1247111.4, 158520.08, 0.0024809595, 10.015661, 9.990656 
7.6573986e+2, 1.6656089e+2, -1177367.4, -1350548.6, 28753.668, 0.039807275, 0.18862909, -1172718.1, 135003.81, 0.00083480804, 10.013816, 9.990855 
7.656564e+2, 1.7655173e+2, -1105682.5, -1265108.5, 29892.76, 0.035706833, 0.1877476, -1100261.8, 109549.766, 0.00020984736, 10.012003, 9.990882 
7.655737e+2, 1.8654262e+2, -1032115.7, -1179615.6, 35423.89, 0.026085615, 0.18967587, -1024049.3, 87851.484, 0.000039132847, 10.0103655, 9.990832 
7.654914e+2, 1.9653347e+2, -955938.56, -1091295.4, 36362.5, 0.013976882, 0.19258064, -946788.6, 67201.76, 0.000005415672, 10.008835, 9.990914 
7.654094e+2, 2.0652449e+2, -882072.25, -1003213.3, 37017.402, 0.013809538, 0.1892848, -871656.3, 44422.2, 0.00000055747057, 10.007107, 9.991077 
7.6532763e+2, 2.1651548e+2, -810957.25, -918493.06, 36183.332, 0.020131325, 0.18191491, -799916.06, 18250.496, 0.00000004276977, 10.005279, 9.991057 
7.6524544e+2, 2.2650632e+2, -738785.5, -837914.75, 35102.043, 0.0072766887, 0.18197717, -727614.56, -7358.074, 0.0000000024483142, 10.003721, 9.990617 
7.651629e+2, 2.3649697e+2, -660860.9, -748665.5, 35975.523, -0.016396169, 0.1850785, -648003.56, -25655.295, 0.00000000006850162, 10.002304, 9.990699 
7.650802e+2, 2.4648793e+2, -587211.9, -658885.6, 33008.926, -0.01986057, 0.1913942, -574326.4, -49889.47, 0.0000000000024125946, 10.000481, 9.99101 
7.6499724e+2, 2.5647902e+2, -519003.3, -574689.2, 31843.39, -0.011838746, 0.20097871, -504546.97, -78023.055, 0.0, 9.998413, 9.991061 
7.649133e+2, 2.664701e+2, -444667.78, -484709.94, 24907.893, -0.016819173, 0.18297096, -432731.9, -104120.37, 0.0, 9.996636, 9.991355 
7.6482856e+2, 2.7646104e+2, -370179.28, -397131.53, 23490.186, -0.029205391, 0.14084764, -356574.13, -125873.93, 0.0, 9.994984, 9.991435 
7.647431e+2, 2.864535e+2, -297431.9, -302723.75, 18292.016, -0.046157174, 0.20187248, -281595.44, -148821.28, 0.0, 9.992878, 9.9921875 
7.64657e+2, 2.9644704e+2, -240955.42, -235335.13, 18433.889, -0.065746084, 0.34484345, -219498.42, -184661.3, 0.0, 9.990486, 9.991235 
7.6457113e+2, 3.0643374e+2, -230002.53, -210907.4, 10825.742, -0.0039777486, -0.040377628, -206020.53, -206020.53, 0.0, 9.988148, 9.990673 
7.644832e+2, 3.1642863e+2, -132239.61, 47165.11, 10945.242, -0.086395055, 0.274606, 47830.4, 47830.4, 0.0, 9.985773, 10.009538 
7.761042e+2, 1.2669052e+2, -1459155.6, -1696788.0, 2771.2693, 0.08002734, 0.21342745, -1459123.4, 239329.3, 0.010848849, 10.021881, 9.989988 
7.7601457e+2, 1.3668032e+2, -1394434.8, -1615212.8, 5762.3237, 0.065213576, 0.1940919, -1394284.5, 206267.98, 0.0071418867, 10.019521, 9.990022 
7.7592653e+2, 1.4667061e+2, -1322267.5, -1524167.1, 16321.796, 0.05334273, 0.19125639, -1320956.5, 181690.98, 0.003929161, 10.017455, 9.990575 
7.7583975e+2, 1.5666124e+2, -1250429.0, -1438212.3, 16514.375, 0.046802018, 0.19652349, -1248987.6, 155751.56, 0.0017154923, 10.0156, 9.990663 
7.7575374e+2, 1.6665216e+2, -1176520.6, -1347944.8, 22428.176, 0.041818734, 0.19936664, -1173634.9, 133193.3, 0.0005705752, 10.01377, 9.99104 
7.7566844e+2, 1.7664321e+2, -1104323.1, -1262010.3, 23643.33, 0.03627486, 0.2001983, -1100854.4, 108061.414, 0.00014134763, 10.011984, 9.991088 
7.7558404e+2, 1.8663424e+2, -1030533.5, -1175993.9, 30016.637, 0.029488314, 0.19433098, -1024582.8, 86420.586, 0.000025891877, 10.010345, 9.991076 
7.7550036e+2, 1.9662523e+2, -954975.9, -1088634.6, 30652.887, 0.022585234, 0.18459116, -948281.3, 64810.402, 0.0000035080873, 10.0088005, 9.991099 
7.7541655e+2, 2.0661628e+2, -883806.56, -1006380.06, 30328.977, 0.01593393, 0.19073966, -876712.6, 38466.844, 0.00000035247552, 10.007081, 9.99086 
7.7533275e+2, 2.166073e+2, -811828.8, -920341.9, 29785.557, 0.009307149, 0.20464401, -804190.6, 13077.182, 0.000000026333328, 10.005274, 9.99092 
7.7524906e+2, 2.265982e+2, -737034.6, -834295.8, 29964.588, 0.0020915987, 0.20412816, -728544.2, -9187.232, 0.0000000014657308, 10.003718, 9.990853 
7.7516526e+2, 2.3658895e+2, -659686.6, -746000.9, 30411.568, -0.005505984, 0.19451718, -650047.9, -28600.467, 0.000000000035019394, 10.002291, 9.990875 
7.7508074e+2, 2.4657978e+2, -588869.6, -662115.25, 25249.91, -0.0126269655, 0.19255336, -581008.9, -57471.633, 0.0000000000012271728, 10.0004635, 9.990782 
7.749956e+2, 2.565706e+2, -520702.72, -578064.94, 24390.18, -0.01953812, 0.19653371, -511734.28, -86107.336, 0.0, 9.9984, 9.990822 
7.749099e+2, 2.6656142e+2, -447292.4, -490051.7, 18746.68, -0.021279484, 0.18741982, -440237.44, -112520.516, 0.0, 9.99663, 9.99098 
7.7482367e+2, 2.7655217e+2, -372169.53, -401350.66, 16970.313, -0.020048618, 0.16208322, -364379.84, -134572.03, 0.0, 9.994985, 9.991133 
7.7473605e+2, 2.8654444e+2, -296821.13, -301580.34, 9301.644, -0.04411364, 0.21331479, -289599.53, -157715.95, 0.0, 9.992875, 9.992249 
7.7464736e+2, 2.9653782e+2, -242147.8, -237826.53, 9688.873, -0.08234763, 0.33248144, -230060.3, -196112.0, 0.0, 9.990479, 9.99105 
7.7455926e+2, 3.065241e+2, -239822.13, -231364.5, 2091.5493, -0.0042935167, -0.00029377826, -230875.55, -230875.55, 0.0, 9.988147, 9.989255 
7.744691e+2, 3.165173e+2, -129038.695, 53584.055, 1358.4316, -0.07993573, 0.2699612, 53594.156, 53594.156, 0.0, 9.985775, 10.009959 
7.861253e+2, 1.2678336e+2, -1476265.8, -1701199.5, 12760.71, 0.08111135, 0.21933313, -1475544.3, 221999.38, 0.007083977, 10.020412, 9.990358 
7.8603363e+2, 1.3677354e+2, -1404065.1, -1615766.0, 14086.835, 0.06272089, 0.2023713, -1403131.9, 196507.63, 0.0046429243, 10.018595, 9.990395 
7.8594357e+2, 1.4676416e+2, -1331314.5, -1525339.4, 25979.31, 0.053119265, 0.19925964, -1327896.1, 173835.17, 0.0025392487, 10.016634, 9.990856 
7.8585494e+2, 1.5675506e+2, -1261395.5, -1440315.3, 28293.629, 0.05205903, 0.20319653, -1257027.9, 146792.52, 0.0010999653, 10.014665, 9.9909315 
7.8576714e+2, 1.6674618e+2, -1185054.1, -1349945.3, 36154.223, 0.04497167, 0.20480506, -1177475.3, 128432.09, 0.00036210727, 10.013055, 9.99121 
7.8568023e+2, 1.767374e+2, -1107065.8, -1261189.0, 37343.457, 0.033507146, 0.20448181, -1098494.3, 109499.14, 0.000088527166, 10.011665, 9.991258 
7.855942e+2, 1.867286e+2, -1033555.44, -1176312.3, 42985.63, 0.028132616, 0.20060265, -1021611.3, 88468.36, 0.00001594944, 10.010051, 9.991159 
7.85509e+2, 1.9671968e+2, -960513.8, -1090202.6, 42798.69, 0.02633765, 0.19426765, -947663.1, 64503.72, 0.0000021175777, 10.008335, 9.991182 
7.854236e+2, 2.0671077e+2, -885531.9, -1007186.44, 43500.453, 0.018210897, 0.20005815, -871577.8, 42676.555, 0.00000020771331, 10.006924, 9.990845 
7.853383e+2, 2.1670173e+2, -805309.1, -917064.7, 44340.652, 0.0065786624, 0.21202263, -789853.75, 26489.313, 0.000000015098873, 10.005676, 9.99091 
7.852529e+2, 2.2669263e+2, -731294.94, -831739.8, 43517.785, 0.000711573, 0.21167429, -715063.7, 3368.6572, 0.00000000081561186, 10.004082, 9.990812 
7.851676e+2, 2.3668335e+2, -659194.7, -745949.5, 42140.703, -0.001923964, 0.20291238, -642095.3, -21572.25, 0.000000000015763774, 10.002294, 9.990843 
7.850814e+2, 2.4667409e+2, -584324.2, -660923.44, 36559.26, -0.010547893, 0.19984661, -569676.25, -47062.63, 0.0000000000005511947, 10.000779, 9.990675 
7.849944e+2, 2.5666478e+2, -506447.34, -572328.06, 36652.203, -0.022629544, 0.2019551, -490108.38, -65403.77, 0.0, 9.999385, 9.9907 
7.84907e+2, 2.6665545e+2, -434948.44, -486870.38, 31438.967, -0.022931796, 0.1959163, -420137.1, -93340.84, 0.0, 9.997555, 9.990708 
7.848189e+2, 2.7664596e+2, -366060.72, -400907.34, 30444.496, -0.016528564, 0.17625855, -348406.4, -119517.13, 0.0, 9.995471, 9.990884 
7.8472924e+2, 2.866379e+2, -287330.56, -298772.47, 20864.213, -0.044342645, 0.21491133, -271417.2, -140448.89, 0.0, 9.993561, 9.992064 
7.846383e+2, 2.966309e+2, -226245.28, -233580.95, 19364.201, -0.09100375, 0.3125894, -210204.61, -177167.6, 0.0, 9.991674, 9.990723 
7.8454804e+2, 3.0661714e+2, -230056.48, -237421.88, 11968.217, 0.000436381, 0.048546214, -221217.17, -221217.17, 0.0, 9.989236, 9.988267 
7.844551e+2, 3.1660882e+2, -114794.8, 67106.836, 13325.508, -0.08036586, 0.25340822, 68077.836, 68077.836, 0.0, 9.98642, 10.01052 
7.961457e+2, 1.2687834e+2, -1474776.0, -1698531.1, 6501.805, 0.07743103, 0.2099137, -1474587.3, 222026.08, 0.0041991994, 10.02037, 9.990543 
7.9605216e+2, 1.3686895e+2, -1403008.6, -1612333.5, 7620.1475, 0.062859334, 0.2179009, -1402731.5, 195973.66, 0.002742718, 10.018503, 9.990655 
7.959602e+2, 1.4686002e+2, -1328472.8, -1517991.9, 19106.502, 0.05755445, 0.21662603, -1326565.8, 174226.97, 0.0014929806, 10.016546, 9.991382 
7.9586965e+2, 1.5685134e+2, -1258515.0, -1433425.6, 21560.404, 0.060732193, 0.2105444, -1255896.6, 146980.92, 0.00064266264, 10.01461, 9.99141 
7.9578024e+2, 1.6684271e+2, -1184110.4, -1347280.1, 31268.77, 0.048738956, 0.20632024, -1178323.5, 126638.375, 0.00020979544, 10.013019, 9.991397 
7.9569185e+2, 1.7683408e+2, -1106276.0, -1258845.9, 32162.344, 0.028071636, 0.20258413, -1099773.3, 107273.24, 0.00005072954, 10.01163, 9.991422 
7.956042e+2, 1.8682542e+2, -1033937.0, -1176665.0, 36794.832, 0.022987612, 0.20863181, -1025009.8, 84121.55, 0.000009011238, 10.010024, 9.991135 
7.9551727e+2, 1.9681667e+2, -960283.44, -1089722.5, 36927.543, 0.026101233, 0.218605, -950489.44, 60727.88, 0.0000011752417, 10.0083275, 9.991205 
7.9543054e+2, 2.0680779e+2, -884289.7, -1004521.3, 39092.08, 0.020797258, 0.21541457, -872697.0, 40607.418, 0.000000112775105, 10.006916, 9.991019 
7.9534394e+2, 2.1679871e+2, -804735.4, -915440.75, 39543.188, 0.010979096, 0.20568809, -792061.7, 23331.662, 0.0000000079858165, 10.005653, 9.99102 
7.9525703e+2, 2.2678949e+2, -733317.8, -835660.6, 36922.965, 0.0024035987, 0.2065174, -721387.6, -3903.981, 0.00000000041860743, 10.004063, 9.9905405 
7.951699e+2, 2.3678009e+2, -660546.7, -748818.44, 35851.023, -0.0053988826, 0.21062255, -647820.7, -28244.852, 0.000000000006106671, 10.00229, 9.990636 
7.9508215e+2, 2.4677081e+2, -584069.56, -660413.6, 31429.424, -0.013155068, 0.21315672, -572795.56, -51128.977, 0.00000000000021334045, 10.000776, 9.990699 
7.949938e+2, 2.5676158e+2, -506364.84, -572071.6, 31088.98, -0.020995334, 0.21734455, -493986.94, -70229.81, 0.0, 9.999377, 9.990708 
7.9490453e+2, 2.667521e+2, -435924.38, -488770.7, 23545.533, -0.0220076, 0.20829993, -426955.78, -101106.14, 0.0, 9.997541, 9.990568 
7.9481435e+2, 2.7674243e+2, -367360.7, -403357.38, 22870.535, -0.019321652, 0.18252607, -356255.75, -128311.3, 0.0, 9.995453, 9.990708 
7.947228e+2, 2.867339e+2, -290306.9, -304876.25, 13927.8545, -0.046859782, 0.20566975, -281873.72, -151845.6, 0.0, 9.993555, 9.991633 
7.9463e+2, 2.9672623e+2, -229092.69, -239912.27, 11950.399, -0.09039768, 0.28464082, -221384.64, -189281.53, 0.0, 9.991689, 9.990266 
7.9453737e+2, 3.0671293e+2, -232776.08, -243403.92, 1517.5703, 0.010577448, 0.10800179, -232563.64, -232563.64, 0.0, 9.989241, 9.987834 
7.9444146e+2, 3.167036e+2, -109945.31, 77451.11, 1605.2709, -0.088835135, 0.24206328, 77464.86, 77464.86, 0.0, 9.986394, 10.01122 
8.061654e+2, 1.2697582e+2, -1487520.0, -1700074.3, 15041.828, 0.072637856, 0.2158877, -1486460.8, 209197.92, 0.0022092452, 10.019216, 9.990958 
8.0606997e+2, 1.3696685e+2, -1420855.9, -1616215.1, 17566.621, 0.06548048, 0.22497806, -1419288.8, 178457.56, 0.0014393312, 10.017013, 9.991071 
8.059761e+2, 1.4695829e+2, -1344954.1, -1521726.1, 30199.15, 0.059806466, 0.22269194, -1339937.4, 159892.75, 0.00078076473, 10.015184, 9.99175 
8.058837e+2, 1.5694997e+2, -1269730.0, -1434703.9, 32104.154, 0.059222322, 0.21438456, -1263702.8, 138208.78, 0.00033449475, 10.01362, 9.991767 
8.0579287e+2, 1.6694163e+2, -1193495.0, -1349327.6, 43067.426, 0.04821859, 0.21201321, -1182384.6, 121608.36, 0.000108501044, 10.012231, 9.991606 
8.057031e+2, 1.7693324e+2, -1114064.4, -1260114.8, 44041.02, 0.030556919, 0.21203542, -1101811.9, 104263.44, 0.000026014572, 10.010951, 9.991631 
8.0561405e+2, 1.8692476e+2, -1037784.94, -1176903.6, 49051.363, 0.02345417, 0.21727358, -1022229.44, 85929.16, 0.000004569842, 10.009651, 9.991263 
8.055256e+2, 1.969161e+2, -958124.25, -1086925.8, 50322.957, 0.022327052, 0.22446111, -940794.56, 69448.984, 0.00000058745576, 10.00836, 9.991342 
8.0543745e+2, 2.0690733e+2, -882721.56, -1002398.9, 52910.504, 0.019514596, 0.22123452, -862684.2, 49645.33, 0.00000005534657, 10.006926, 9.991121 
8.053495e+2, 2.1689837e+2, -806782.5, -915281.44, 53047.984, 0.01529214, 0.21244358, -785156.44, 29260.875, 0.000000003830827, 10.0054245, 9.991104 
8.052612e+2, 2.2688916e+2, -730909.94, -835040.2, 51205.523, 0.004672956, 0.21354741, -709949.2, 6558.3643, 0.00000000019535494, 10.004211, 9.990472 
8.0517256e+2, 2.3687969e+2, -648125.94, -743235.0, 51558.688, -0.0086851595, 0.217882, -625539.7, -6939.2686, 0.0000000000019774009, 10.003118, 9.990573 
8.050833e+2, 2.4687031e+2, -573693.94, -656315.8, 46338.97, -0.014853273, 0.21806414, -552925.1, -32232.98, 0.00000000000006905484, 10.001485, 9.990591 
8.0499333e+2, 2.5686094e+2, -503508.47, -571508.5, 45276.887, -0.017861264, 0.21914214, -480886.97, -58102.855, 0.0, 9.999567, 9.990612 
8.049023e+2, 2.6685145e+2, -428389.13, -486439.44, 37251.688, -0.020243417, 0.21784373, -410189.84, -85312.85, 0.0, 9.998073, 9.990427 
8.048104e+2, 2.7684173e+2, -349000.63, -395887.6, 36571.09, -0.021679407, 0.20380946, -329004.03, -102032.01, 0.0, 9.996728, 9.99056 
8.0471694e+2, 2.8683272e+2, -272914.72, -299646.97, 27279.076, -0.049507976, 0.20517921, -255903.19, -126843.09, 0.0, 9.994838, 9.9913225 
8.046221e+2, 2.9682443e+2, -217137.39, -238054.73, 26038.217, -0.09143574, 0.24910864, -199535.9, -168394.3, 0.0, 9.992631, 9.989886 
8.0452716e+2, 3.0681157e+2, -220987.63, -243638.17, 13052.539, 0.019619362, 0.17092031, -215031.97, -215031.97, 0.0, 9.990254, 9.987271 
8.044284e+2, 3.1680098e+2, -90083.45, 88794.484, 9595.965, -0.09620737, 0.22525665, 89307.8, 89307.8, 0.0, 9.987626, 10.011349 
8.161846e+2, 1.270755e+2, -1484720.4, -1692108.1, 7294.6875, 0.06736769, 0.23168133, -1484464.1, 210218.39, 0.001006977, 10.01909, 9.991542 
8.1608695e+2, 1.3706699e+2, -1417783.5, -1608547.9, 9925.857, 0.06958824, 0.22616658, -1417268.5, 179497.27, 0.0006549199, 10.016934, 9.9916115 
8.159913e+2, 1.4705878e+2, -1343329.5, -1517630.3, 24665.158, 0.060141984, 0.22122423, -1339906.4, 158939.44, 0.00035440165, 10.015141, 9.992036 
8.158972e+2, 1.5705079e+2, -1267815.4, -1430369.9, 26707.67, 0.050349597, 0.21604045, -1263539.8, 137384.5, 0.00015132676, 10.013597, 9.99206 
8.158051e+2, 1.6704279e+2, -1192037.5, -1345792.5, 38586.71, 0.044819538, 0.2211123, -1182897.1, 120105.38, 0.00004886468, 10.012203, 9.991848 
8.157142e+2, 1.7703474e+2, -1112663.5, -1256387.9, 39454.457, 0.039170988, 0.23023044, -1102545.0, 102536.48, 0.000011644894, 10.01091, 9.991892 
8.156237e+2, 1.8702643e+2, -1036324.75, -1173056.8, 44474.242, 0.028068187, 0.22591153, -1023131.8, 84031.17, 0.0000020290581, 10.00961, 9.991534 
8.155339e+2, 1.9701785e+2, -956752.94, -1083380.8, 45572.074, 0.015482085, 0.21507272, -942057.5, 67189.445, 0.00000025805372, 10.008324, 9.99159 
8.154443e+2, 2.070093e+2, -882475.44, -1001490.8, 47430.54, 0.015012353, 0.21973756, -865885.7, 45445.047, 0.000000023974868, 10.006902, 9.991183 
8.15355e+2, 2.170006e+2, -806108.06, -913876.0, 47891.105, 0.019489545, 0.23094574, -787901.5, 25514.697, 0.0000000016298994, 10.005418, 9.991192 
8.152654e+2, 2.2699152e+2, -729864.8, -832847.44, 47269.414, 0.0074294424, 0.23113006, -711458.0, 4047.2302, 0.00000000008125608, 10.004208, 9.990612 
8.151756e+2, 2.3698208e+2, -647547.75, -741789.4, 47043.418, -0.0117984535, 0.22446673, -628084.4, -10486.725, 0.00000000000051744384, 10.003103, 9.990668 
8.150847e+2, 2.4697252e+2, -575231.1, -659265.75, 39123.07, -0.015730763, 0.21480785, -559837.06, -40146.02, 0.000000000000018065392, 10.001466, 9.990384 
8.1499296e+2, 2.5696284e+2, -504742.63, -573919.1, 38588.586, -0.013345006, 0.20739877, -487509.75, -65723.93, 0.0, 9.999553, 9.990439 
8.1490046e+2, 2.669534e+2, -429176.25, -488014.25, 32284.35, -0.017648548, 0.22503087, -414917.38, -91039.06, 0.0, 9.998069, 9.990308 
8.148071e+2, 2.7694392e+2, -349481.4, -397084.9, 31124.137, -0.023745548, 0.24164416, -334101.1, -108129.43, 0.0, 9.996734, 9.990461 
8.1471175e+2, 2.869345e+2, -273680.47, -301420.63, 19008.168, -0.0525406, 0.21405421, -264019.94, -135956.31, 0.0, 9.994838, 9.991182 
8.146148e+2, 2.9692551e+2, -218884.97, -241569.56, 17868.236, -0.094376355, 0.20440751, -209063.11, -178911.45, 0.0, 9.992619, 9.989633 
8.145175e+2, 3.0691326e+2, -225676.69, -253376.33, 3730.4968, 0.02732562, 0.23738821, -225183.08, -225183.08, 0.0, 9.990248, 9.986587 
8.1441593e+2, 3.169014e+2, -94088.92, 80126.266, -2883.8413, -0.10200529, 0.22946887, 80173.984, 80173.984, 0.0, 9.987626, 10.010726 
8.2620263e+2, 1.2717731e+2, -1509694.4, -1698779.1, 15331.946, 0.069633946, 0.23856379, -1508459.3, 185225.95, 0.00038961697, 10.017098, 9.992015 
8.261031e+2, 1.3716924e+2, -1436390.4, -1612130.4, 17781.01, 0.06839833, 0.22873032, -1434609.4, 161154.94, 0.00025312378, 10.015383, 9.992084 
8.2600576e+2, 1.4716148e+2, -1357594.1, -1520476.3, 34573.023, 0.058160346, 0.22674923, -1350559.5, 147280.66, 0.00013675925, 10.013949, 9.992387 
8.2591033e+2, 1.5715389e+2, -1277671.1, -1431105.1, 37037.04, 0.048964955, 0.22779748, -1269198.8, 130715.83, 0.000058266804, 10.01271, 9.992406 
8.258168e+2, 1.6714618e+2, -1201611.3, -1347338.4, 49473.984, 0.04433621, 0.23081432, -1186402.3, 115587.76, 0.000018758343, 10.011376, 9.992112 
8.257246e+2, 1.7713834e+2, -1122799.6, -1257943.6, 50625.848, 0.039851557, 0.2344267, -1105938.5, 98128.45, 0.000004452129, 10.010034, 9.992179 
8.25633e+2, 1.8713033e+2, -1044945.56, -1173716.8, 56339.9, 0.029712692, 0.23055217, -1023776.0, 82369.37, 0.0000007715326, 10.00883, 9.991836 
8.2554185e+2, 1.9712208e+2, -963121.9, -1083264.9, 57688.23, 0.017739266, 0.22256206, -939907.6, 68318.49, 0.00000009740951, 10.00771, 9.991862 
8.254511e+2, 2.0711373e+2, -884762.75, -1001505.5, 59661.38, 0.014924258, 0.22819735, -859667.4, 50640.88, 0.000000008962887, 10.0066595, 9.991265 
8.253605e+2, 2.171051e+2, -801484.75, -910185.25, 60481.56, 0.01599895, 0.23984917, -774521.0, 37871.92, 0.00000000060162786, 10.005631, 9.991306 
8.252697e+2, 2.2709616e+2, -725089.3, -828492.8, 60140.46, 0.006523457, 0.23987184, -697481.9, 16998.559, 0.000000000029500895, 10.004408, 9.990778 
8.2517874e+2, 2.3708686e+2, -646423.8, -739484.44, 59993.934, -0.00750115, 0.23269781, -617030.9, -459.62738, 0.00000000000010594865, 10.003064, 9.9908085 
8.2508636e+2, 2.4707735e+2, -569492.75, -656756.94, 51965.027, -0.013484488, 0.22128476, -545271.2, -26606.701, 0.0000000000000036980595, 10.001827, 9.990339 
8.2499295e+2, 2.570676e+2, -488786.72, -566448.5, 52874.434, -0.016207412, 0.21152598, -462016.22, -41256.242, 0.0, 10.000612, 9.990396 
8.2489896e+2, 2.6705813e+2, -415366.34, -482645.16, 46841.04, -0.019177567, 0.23566523, -391336.94, -68484.21, 0.0, 9.999027, 9.990168 
8.248041e+2, 2.7704862e+2, -342175.4, -394689.53, 45482.06, -0.021270404, 0.26264057, -315915.34, -90968.914, 0.0, 9.997239, 9.990336 
8.24707e+2, 2.8703886e+2, -262032.6, -297794.4, 31954.717, -0.052710198, 0.21469474, -243296.14, -116254.2, 0.0, 9.995676, 9.990979 
8.246081e+2, 2.9702932e+2, -197116.45, -233048.22, 30134.898, -0.099784985, 0.17363313, -179998.36, -150863.31, 0.0, 9.994147, 9.989431 
8.2450867e+2, 3.0701792e+2, -201059.53, -242835.69, 16387.521, 0.034813974, 0.30734798, -195398.36, -195398.36, 0.0, 9.991938, 9.986432 
8.244043e+2, 3.1700495e+2, -76651.91, 79435.77, 9060.715, -0.107629046, 0.207867, 79959.98, 79959.98, 0.0, 9.98915, 10.009867 
8.362198e+2, 1.2728104e+2, -1507825.9, -1692792.4, 9103.036, 0.07600539, 0.24013235, -1507379.0, 185290.31, 0.00012646854, 10.016995, 9.992456 
8.361184e+2, 1.3727342e+2, -1433837.6, -1605607.1, 11824.073, 0.06355422, 0.2326541, -1433027.5, 161716.36, 0.000082111605, 10.015321, 9.992541 
8.3601964e+2, 1.472662e+2, -1355384.6, -1514663.5, 30207.195, 0.05485327, 0.23740828, -1349848.4, 146966.5, 0.00004432147, 10.01389, 9.9928 
8.359231e+2, 1.5725908e+2, -1275732.5, -1425553.4, 32423.547, 0.052827775, 0.24674924, -1269016.5, 129867.92, 0.000018857638, 10.012637, 9.992806 
8.358282e+2, 1.6725163e+2, -1200158.9, -1343173.6, 44671.28, 0.045604277, 0.24060859, -1187352.4, 113604.94, 0.000006059633, 10.011318, 9.992413 
8.357346e+2, 1.7724393e+2, -1120780.6, -1253215.4, 46017.06, 0.034337714, 0.22787425, -1106361.1, 96671.62, 0.0000014345518, 10.010002, 9.992505 
8.356418e+2, 1.8723634e+2, -1042693.6, -1168714.9, 52381.465, 0.029262638, 0.23267244, -1023764.25, 81342.75, 0.00000024775616, 10.00881, 9.992176 
8.355497e+2, 1.9722864e+2, -961071.06, -1078733.6, 53738.168, 0.027395695, 0.24403603, -940222.25, 66960.48, 0.00000003113825, 10.007692, 9.99217 
8.3545774e+2, 2.0722044e+2, -883976.56, -999633.7, 55973.934, 0.018149681, 0.2444312, -861323.94, 47939.438, 0.000000002847746, 10.006644, 9.991391 
8.3536595e+2, 2.1721178e+2, -800454.06, -907802.0, 56638.32, 0.0057027726, 0.24012338, -776097.3, 35250.934, 0.00000000018961277, 10.005616, 9.9914665 
8.352741e+2, 2.2720304e+2, -723754.4, -825486.5, 55213.207, 0.0026248805, 0.2411392, -699548.06, 13885.692, 0.0000000000091987, 10.004391, 9.99098 
8.3518195e+2, 2.3719405e+2, -645032.4, -736451.25, 55195.785, 0.003544072, 0.24288937, -619076.44, -3554.5513, 0.000000000000016541639, 10.003052, 9.99101 
8.3508825e+2, 2.4718475e+2, -568476.1, -654595.1, 47474.047, -0.0086866105, 0.23737487, -547442.7, -29829.807, 0.0000000000000005772178, 10.0018215, 9.9904785 
8.3499354e+2, 2.5717518e+2, -488048.4, -564844.0, 48021.85, -0.026651787, 0.23158944, -464960.53, -45253.813, 0.0, 10.000606, 9.990497 
8.3489794e+2, 2.6716563e+2, -416335.56, -484527.8, 40039.36, -0.024827063, 0.24930097, -397841.8, -76041.48, 0.0, 9.999014, 9.99003 
8.3480144e+2, 2.7715582e+2, -343211.25, -396534.38, 39078.586, -0.013756281, 0.26499477, -322565.56, -98669.27, 0.0, 9.997219, 9.990205 
8.347027e+2, 2.871458e+2, -263797.13, -301345.03, 26415.543, -0.04976874, 0.2069305, -250163.64, -124168.875, 0.0, 9.995669, 9.990724 
8.346022e+2, 2.9713595e+2, -197425.63, -234169.28, 24022.768, -0.10869435, 0.16022314, -185554.81, -157463.77, 0.0, 9.994164, 9.98933 
8.345007e+2, 3.0712566e+2, -196893.06, -234811.39, 6701.31, 0.041284617, 0.37989184, -195743.6, -195743.6, 0.0, 9.991955, 9.986947 
8.343934e+2, 3.1711215e+2, -84691.01, 62672.035, -6565.2344, -0.11416643, 0.1859706, 62963.95, 62963.95, 0.0, 9.989129, 10.008689 
8.4623563e+2, 1.2738645e+2, -1534528.9, -1698884.0, 15379.109, 0.07793321, 0.24669233, -1533102.3, 158534.86, 0.00003428344, 10.014841, 9.993059 
8.461328e+2, 1.3737948e+2, -1454218.9, -1608958.9, 18983.73, 0.060597103, 0.24453485, -1451924.0, 141781.23, 0.00002225168, 10.013612, 9.993111 
8.4603274e+2, 1.4737268e+2, -1374993.6, -1519855.4, 38324.24, 0.053796824, 0.2468912, -1365479.5, 130292.38, 0.000012004218, 10.012329, 9.993176 
8.45935e+2, 1.5736589e+2, -1294764.8, -1430011.4, 40519.25, 0.056467, 0.25081268, -1283554.5, 114283.8, 0.0000051033476, 10.011096, 9.993224 
8.4583884e+2, 1.6735893e+2, -1214364.6, -1344528.3, 54085.387, 0.047930494, 0.24553645, -1194824.5, 105082.09, 0.0000016380485, 10.010072, 9.992898 
8.4574413e+2, 1.7735173e+2, -1129374.8, -1252326.3, 56566.402, 0.032922275, 0.23603025, -1107310.0, 94667.0, 0.00000038720452, 10.00916, 9.992944 
8.4565026e+2, 1.8734448e+2, -1049405.9, -1169065.6, 63153.434, 0.028000036, 0.24128057, -1022241.6, 81806.336, 0.00000006673928, 10.008189, 9.992424 
8.4555715e+2, 1.9733702e+2, -965582.44, -1077712.4, 64199.406, 0.027981985, 0.2522458, -936413.4, 69707.93, 0.000000008365729, 10.00721, 9.992447 
8.454642e+2, 2.0732908e+2, -886371.25, -997180.8, 67449.85, 0.018288676, 0.25053743, -854488.2, 53710.94, 0.00000000076241197, 10.006289, 9.991702 
8.453715e+2, 2.1732073e+2, -800981.1, -904369.5, 69269.09, 0.0043854555, 0.24339354, -766243.3, 44037.875, 0.000000000050528446, 10.0053835, 9.991782 
8.4527844e+2, 2.273123e+2, -722428.44, -821920.25, 67628.61, 0.0023278685, 0.24715449, -688220.3, 24143.438, 0.0000000000024362417, 10.004316, 9.991224 
8.4518504e+2, 2.373036e+2, -641179.9, -731685.2, 68255.54, 0.005498694, 0.25404888, -604538.56, 9910.445, 0.0000000000000019339319, 10.00315, 9.991253 
8.450902e+2, 2.472945e+2, -563143.1, -649775.0, 61093.836, -0.008516154, 0.24690312, -531567.6, -15029.47, 0.00000000000000006746367, 10.00205, 9.99066 
8.4499425e+2, 2.5728506e+2, -481393.38, -559341.75, 61780.582, -0.030238165, 0.23703127, -447320.8, -28690.246, 0.0, 10.00092, 9.990682 
8.448972e+2, 2.672757e+2, -406657.06, -478165.75, 53855.758, -0.026195765, 0.2590527, -377767.66, -57045.438, 0.0, 9.9995575, 9.990157 
8.4479916e+2, 2.7726611e+2, -329282.47, -388643.8, 55197.633, -0.009739744, 0.28120366, -296291.6, -73475.26, 0.0, 9.998075, 9.990283 
8.4469885e+2, 2.8725576e+2, -249800.6, -297310.16, 43724.906, -0.050499316, 0.20714629, -223794.38, -98876.836, 0.0, 9.996696, 9.990454 
8.445968e+2, 2.9724547e+2, -179354.9, -225096.67, 40904.33, -0.119593166, 0.13935165, -155361.72, -128343.4, 0.0, 9.995336, 9.989336 
8.4449357e+2, 3.0723658e+2, -164306.64, -208316.45, 23092.197, 0.049717795, 0.43768907, -154413.81, -154413.81, 0.0, 9.993665, 9.987869 
8.4438366e+2, 3.1722295e+2, -62018.773, 52350.72, 4686.234, -0.11573004, 0.1681855, 52542.414, 52542.414, 0.0, 9.991518, 10.00674 
8.5625046e+2, 1.2749341e+2, -1530297.6, -1688614.1, 11025.173, 0.07705978, 0.25663522, -1529533.5, 161056.27, 0.000007710868, 10.0147705, 9.993779 
8.561464e+2, 1.3748723e+2, -1450826.4, -1599820.8, 14276.753, 0.058829803, 0.2616601, -1449470.8, 143179.47, 0.0000050039503, 10.013515, 9.993766 
8.5604507e+2, 1.4748082e+2, -1373370.6, -1514775.8, 33882.797, 0.054101445, 0.25528824, -1365671.0, 129041.83, 0.0000026986652, 10.012247, 9.99355 
8.559461e+2, 1.5747428e+2, -1292102.0, -1423562.1, 36453.87, 0.059888802, 0.24440354, -1282670.1, 114106.73, 0.0000011467264, 10.011048, 9.993674 
8.55849e+2, 1.6746795e+2, -1210279.4, -1335375.0, 50941.332, 0.05104667, 0.24757253, -1192159.8, 106679.01, 0.00000036781864, 10.010036, 9.993529 
8.557533e+2, 1.7746156e+2, -1125974.0, -1244602.5, 53145.02, 0.034492157, 0.2556345, -1105648.0, 95253.445, 0.00000008686637, 10.009125, 9.993479 
8.556585e+2, 1.874546e+2, -1048252.06, -1166171.9, 59591.004, 0.025838748, 0.2545001, -1023382.6, 79587.15, 0.00000001495506, 10.008162, 9.992626 
8.555643e+2, 1.9744718e+2, -963719.94, -1073599.1, 60819.414, 0.021225652, 0.24947019, -936700.06, 68342.43, 0.0000000018718138, 10.007193, 9.992727 
8.554705e+2, 2.0743966e+2, -883049.44, -990072.44, 64256.324, 0.01614157, 0.24865611, -852940.6, 54175.54, 0.00000000017025992, 10.006273, 9.992186 
8.553769e+2, 2.1743187e+2, -797814.3, -897531.9, 65864.72, 0.010574918, 0.24962297, -765065.25, 44127.42, 0.000000000011255721, 10.005366, 9.992249 
8.552828e+2, 2.2742386e+2, -720270.3, -817286.2, 63302.188, 0.0046967827, 0.2573314, -689027.44, 22243.695, 0.00000000000054094186, 10.004302, 9.991537 
8.5518813e+2, 2.3741548e+2, -638980.2, -727112.25, 64118.523, -0.0009319724, 0.26587996, -605245.2, 8108.13, 0.00000000000000016720839, 10.003143, 9.991558 
8.550922e+2, 2.4740657e+2, -561408.2, -646154.44, 56906.426, -0.012370569, 0.24991015, -532831.9, -17391.246, 0.0000000000000000058309963, 10.002046, 9.990898 
8.549952e+2, 2.5739723e+2, -479349.66, -554978.6, 57304.406, -0.027140759, 0.22799124, -448507.53, -30975.787, 0.0, 10.000911, 9.990973 
8.548968e+2, 2.6738843e+2, -403695.88, -471871.88, 48261.83, -0.023538526, 0.26542297, -378697.53, -59079.266, 0.0, 9.999545, 9.99058 
8.547972e+2, 2.7737948e+2, -326971.03, -383827.84, 49888.023, -0.010060397, 0.3128396, -297980.03, -76274.016, 0.0, 9.998069, 9.990602 
8.546955e+2, 2.8736892e+2, -251520.9, -300962.6, 38731.598, -0.055693217, 0.21602945, -230293.33, -106483.805, 0.0, 9.996697, 9.99019 
8.5459197e+2, 2.9735804e+2, -178190.7, -222676.97, 35751.332, -0.13199826, 0.10905262, -158327.84, -132411.69, 0.0, 9.995331, 9.98949 
8.5448736e+2, 3.0735075e+2, -153698.81, -186647.97, 16471.904, 0.06080707, 0.47528604, -146876.72, -146876.72, 0.0, 9.993676, 9.9893265 
8.5437524e+2, 3.1733796e+2, -81829.62, 10563.962, -11203.297, -0.11441405, 0.18744841, 11903.024, 11903.024, 0.0, 9.99152, 10.00383 
8.662641e+2, 1.2760171e+2, -1558687.4, -1695734.8, 15743.806, 0.074236944, 0.26651147, -1556902.1, 132627.11, 0.0000014145271, 10.012515, 9.994368 
8.6615884e+2, 1.3759607e+2, -1478302.3, -1605948.8, 18550.67, 0.064082086, 0.2657931, -1475661.0, 115923.38, 0.00000091790116, 10.011298, 9.994405 
8.660564e+2, 1.4759035e+2, -1395458.9, -1517839.1, 40253.656, 0.05735737, 0.2609344, -1383405.6, 110234.59, 0.00000049493246, 10.01038, 9.994226 
8.659564e+2, 1.575845e+2, -1308257.9, -1424500.8, 44550.76, 0.05769833, 0.25403583, -1293147.8, 102549.695, 0.00000021023745, 10.009618, 9.994279 
8.658584e+2, 1.6757865e+2, -1224972.1, -1338156.9, 58883.707, 0.04934013, 0.2580293, -1199894.5, 97860.16, 0.00000006740348, 10.008817, 9.993909 
8.657619e+2, 1.7757265e+2, -1138844.9, -1246080.3, 59762.6, 0.03540256, 0.26595673, -1112173.0, 87640.664, 0.000000015908926, 10.008011, 9.993898 
8.6566615e+2, 1.8756615e+2, -1057425.0, -1164688.3, 67341.02, 0.02675271, 0.2633399, -1024968.56, 76908.81, 0.0000000027368687, 10.007249, 9.993149 
8.655711e+2, 1.9755924e+2, -969579.06, -1070601.9, 70608.086, 0.021140184, 0.25619245, -933275.1, 70669.99, 0.00000000034223838, 10.006509, 9.993237 
8.654764e+2, 2.0755221e+2, -887850.0, -986893.06, 74565.48, 0.016363053, 0.25623024, -847859.56, 58154.35, 0.000000000031095244, 10.005675, 9.992665 
8.65382e+2, 2.1754493e+2, -802128.2, -894078.06, 76337.67, 0.011603742, 0.25936615, -758990.06, 49095.41, 0.0000000000020528579, 10.004797, 9.992733 
8.6528695e+2, 2.2753736e+2, -721246.9, -812643.1, 74203.4, 0.003571781, 0.26562312, -679798.75, 30360.756, 0.00000000000009849092, 10.003978, 9.991982 
8.651912e+2, 2.3752941e+2, -634500.9, -719566.8, 76216.945, -0.005188163, 0.27139974, -589752.25, 22485.25, 0.000000000000000010632481, 10.003178, 9.992027 
8.6509436e+2, 2.4752094e+2, -554797.8, -638340.9, 69823.63, -0.013289383, 0.2557222, -515204.72, -884.2141, 0.0000000000000000003706565, 10.002257, 9.991295 
8.6499625e+2, 2.5751203e+2, -471737.16, -546853.8, 71179.195, -0.022469707, 0.23527806, -428815.03, -12407.334, 0.0, 10.001196, 9.991354 
8.648965e+2, 2.675036e+2, -396410.94, -464425.28, 60524.734, -0.022856737, 0.2756188, -360993.8, -42503.36, 0.0, 9.9998255, 9.990912 
8.6479527e+2, 2.7749503e+2, -321074.53, -376651.53, 61739.11, -0.016401468, 0.32661352, -281158.4, -60583.887, 0.0, 9.998237, 9.9909725 
8.6469233e+2, 2.874847e+2, -244767.17, -293519.63, 54889.844, -0.058052495, 0.21919903, -209084.3, -86408.875, 0.0, 9.996927, 9.990545 
8.645877e+2, 2.974741e+2, -162903.0, -207173.58, 57141.105, -0.12736298, 0.09723273, -123759.6, -98979.914, 0.0, 9.995975, 9.990187 
8.644823e+2, 3.0746835e+2, -109208.4, -152761.45, 39583.977, 0.06393298, 0.51301926, -85806.3, -85806.3, 0.0, 9.996138, 9.990405 
8.643691e+2, 3.1745562e+2, -32255.674, -4993.002, 131.40677, -0.123953246, 0.18263645, -4992.3687, -4992.3687, 0.0, 9.996545, 10.000273 
8.7627655e+2, 1.2771122e+2, -1555994.5, -1688398.8, 11518.705, 0.07013887, 0.27603692, -1554999.9, 133456.78, 0.00000020604041, 10.012432, 9.994894 
8.761702e+2, 1.3770598e+2, -1474797.4, -1596834.1, 14783.953, 0.07387253, 0.26147988, -1473031.9, 117475.91, 0.00000013370303, 10.011211, 9.995054 
8.7606674e+2, 1.4770117e+2, -1390010.9, -1505157.0, 37695.348, 0.062322598, 0.2652902, -1378768.3, 113786.73, 0.00000007208152, 10.010313, 9.995113 
8.7596595e+2, 1.5769635e+2, -1303759.6, -1414264.3, 41617.785, 0.051366616, 0.27521893, -1289839.3, 104762.9, 0.000000030609712, 10.009573, 9.994989 
8.758671e+2, 1.6769087e+2, -1223871.4, -1335087.4, 55924.996, 0.04415909, 0.27419236, -1200613.3, 96042.7, 0.000000009809986, 10.008778, 9.994129 
8.757699e+2, 1.7768495e+2, -1136663.3, -1240890.8, 57027.547, 0.035905764, 0.26905647, -1111524.3, 87189.67, 0.0000000023143358, 10.007977, 9.994261 
8.756734e+2, 1.8767911e+2, -1052188.3, -1153241.3, 64782.332, 0.030092852, 0.2692201, -1020558.3, 80212.914, 0.00000000039791112, 10.007216, 9.9939375 
8.755777e+2, 1.9767307e+2, -964897.44, -1060332.1, 67817.125, 0.026157184, 0.270949, -929692.5, 73137.984, 0.00000000004972269, 10.006478, 9.993945 
8.754822e+2, 2.0766664e+2, -884365.1, -979406.8, 71322.07, 0.018212356, 0.27162552, -846182.56, 58710.9, 0.0000000000045141412, 10.005657, 9.993177 
8.753868e+2, 2.1765982e+2, -798274.94, -886193.4, 73201.81, 0.008294928, 0.27189773, -756847.3, 50113.02, 0.00000000000029774458, 10.004795, 9.993264 
8.752908e+2, 2.2765279e+2, -717002.56, -803918.3, 71266.59, -0.0004662876, 0.2721088, -676988.8, 32040.479, 0.000000000000014269847, 10.003975, 9.992572 
8.751944e+2, 2.3764536e+2, -629982.94, -710101.9, 73295.57, -0.007926611, 0.27135843, -586513.94, 24588.004, 0.0000000000000000004758818, 10.003168, 9.992672 
8.750966e+2, 2.476376e+2, -550753.44, -629908.1, 65889.266, -0.011738116, 0.26486605, -513468.84, -290.84384, 0.000000000000000000016584899, 10.002251, 9.991864 
8.7499756e+2, 2.576294e+2, -468266.97, -539750.94, 66999.51, -0.016147172, 0.2589433, -428071.97, -12813.522, 0.0, 10.001194, 9.99183 
8.748963e+2, 2.676212e+2, -394629.16, -460699.4, 54505.945, -0.02439621, 0.28899118, -363928.75, -46589.8, 0.0, 9.999819, 9.991156 
8.747934e+2, 2.7761266e+2, -317965.0, -370076.75, 55651.215, -0.029305788, 0.3207752, -282572.0, -63149.887, 0.0, 9.998225, 9.991412 
8.746892e+2, 2.8760323e+2, -237563.69, -278271.4, 51131.207, -0.05678163, 0.2171756, -202884.11, -81369.305, 0.0, 9.996908, 9.991589 
8.7458384e+2, 2.975938e+2, -153776.42, -187886.39, 55160.004, -0.10468963, 0.108547814, -113094.945, -89487.63, 0.0, 9.995959, 9.991508 
8.744784e+2, 3.0758944e+2, -103449.76, -141975.19, 42748.52, 0.054729436, 0.5505691, -75824.44, -75824.44, 0.0, 9.9962015, 9.991114 
8.7436575e+2, 3.1757626e+2, -59166.266, -64221.133, -4140.8833, -0.12937243, 0.16994654, -56842.426, -56842.426, 0.0, 9.996683, 9.996129 
8.862878e+2, 1.278218e+2, -1586745.0, -1694769.6, 14851.938, 0.07540217, 0.2793652, -1584740.3, 102633.25, 0.000000023176659, 10.009943, 9.995649 
8.861802e+2, 1.3781737e+2, -1502412.9, -1602395.3, 19825.186, 0.070599884, 0.2702337, -1498625.3, 90791.68, 0.000000015039946, 10.008967, 9.995743 
8.860761e+2, 1.4781311e+2, -1414328.3, -1511971.1, 42869.633, 0.059424948, 0.27518284, -1398177.9, 93281.0, 0.000000008107168, 10.008422, 9.995553 
8.859747e+2, 1.5780875e+2, -1322732.8, -1417873.1, 44303.15, 0.051850963, 0.28492236, -1305297.6, 88203.98, 0.0000000034418386, 10.0080185, 9.995488 
8.858752e+2, 1.6780384e+2, -1238936.5, -1335138.0, 59296.17, 0.044710506, 0.282575, -1210684.6, 84865.22, 0.0000000011026728, 10.007417, 9.994772 
8.8577724e+2, 1.7779854e+2, -1150216.9, -1240463.6, 62871.867, 0.03561786, 0.27567288, -1117951.8, 79649.93, 0.00000000026002345, 10.006728, 9.994875 
8.8568e+2, 1.877933e+2, -1064947.0, -1152385.0, 70650.94, 0.030714275, 0.27682483, -1025582.25, 74070.64, 0.000000000044683507, 10.006021, 9.994555 
8.855836e+2, 1.977879e+2, -977280.75, -1059260.3, 72907.164, 0.028054206, 0.2807465, -934630.75, 67075.12, 0.000000000005580289, 10.005304, 9.99457 
8.854873e+2, 2.0778215e+2, -892652.7, -975285.56, 77243.14, 0.018572388, 0.28141162, -846370.3, 57391.934, 0.00000000000050626853, 10.004716, 9.9938965 
8.8539124e+2, 2.1777605e+2, -802023.6, -879746.3, 80507.36, 0.006412062, 0.2806869, -751489.0, 54333.13, 0.00000000000003336683, 10.004156, 9.993994 
8.852945e+2, 2.2776979e+2, -719337.7, -795381.3, 79837.305, -0.000531383, 0.27927053, -668930.7, 38952.727, 0.0000000000000015978191, 10.003367, 9.993424 
8.851972e+2, 2.377632e+2, -633506.75, -702207.8, 83890.04, -0.005141141, 0.27678904, -577206.9, 32740.977, 0.000000000000000000016321938, 10.002478, 9.993517 
8.850986e+2, 2.4775629e+2, -552377.1, -621305.9, 78003.375, -0.01272479, 0.27151102, -501563.63, 10451.973, 0.00000000000000000000056875124, 10.001691, 9.992694 
8.849986e+2, 2.5774893e+2, -464363.03, -528159.2, 81293.16, -0.022441408, 0.26836252, -408933.78, 5153.865, 0.0, 10.00099, 9.992692 
8.8489604e+2, 2.677415e+2, -388572.0, -449590.78, 69381.41, -0.0261837, 0.2976956, -343288.25, -27127.877, 0.0, 9.999817, 9.99187 
8.847915e+2, 2.777337e+2, -315596.7, -361382.25, 73260.805, -0.024204416, 0.32579926, -261735.16, -43498.17, 0.0, 9.99799, 9.992068 
8.8468635e+2, 2.8772426e+2, -235574.25, -283578.84, 69218.18, -0.055580743, 0.21889359, -186314.9, -65985.2, 0.0, 9.997249, 9.991043 
8.845809e+2, 2.977144e+2, -120822.83, -172678.73, 63775.53, -0.11016012, 0.11558904, -77906.195, -55479.977, 0.0, 9.99821, 9.991473 
8.8447654e+2, 3.0771044e+2, -41885.875, -113263.086, 46565.69, 0.038678024, 0.58572096, -18905.576, -18905.576, 0.0, 10.00047, 9.991044 
8.843654e+2, 3.1769615e+2, -1649.3055, -74308.18, -12089.153, -0.110391, 0.15867294, 309.3183, 309.3183, 0.0, 10.002267, 9.992755 
8.962978e+2, 1.2793332e+2, -1582326.1, -1682368.9, 11230.787, 0.08584334, 0.27952465, -1581080.9, 105200.664, 0.0000000019646078, 10.009792, 9.996557 
8.961891e+2, 1.3792993e+2, -1497287.1, -1591846.9, 16624.004, 0.058478326, 0.28762576, -1494449.8, 93864.914, 0.0000000012748831, 10.008964, 9.996454 
8.960845e+2, 1.4792599e+2, -1413368.5, -1509682.4, 41377.914, 0.051528588, 0.28833064, -1398033.5, 92319.84, 0.0000000006871186, 10.008408, 9.995711 
8.959828e+2, 1.579217e+2, -1321006.8, -1412754.8, 42783.297, 0.057289522, 0.28629544, -1304152.5, 88243.055, 0.0000000002916373, 10.007949, 9.995865 
8.9588267e+2, 1.6791755e+2, -1232960.3, -1321433.6, 56872.7, 0.049239114, 0.2855948, -1205145.6, 89290.51, 0.000000000093399066, 10.007353, 9.995729 
8.9578396e+2, 1.7791326e+2, -1144963.0, -1228822.4, 60261.945, 0.034523297, 0.28520024, -1113478.8, 82999.31, 0.000000000022014383, 10.006689, 9.995681 
8.9568603e+2, 1.8790863e+2, -1061476.4, -1144853.4, 67937.56, 0.029165387, 0.2856801, -1023456.4, 75067.1, 0.000000000003781113, 10.006, 9.995073 
8.955889e+2, 1.9790372e+2, -973090.8, -1050591.8, 70481.37, 0.02753636, 0.28639624, -931409.8, 69161.82, 0.00000000000047193445, 10.0053, 9.995157 
8.954921e+2, 2.0789874e+2, -886198.5, -961818.3, 75262.13, 0.01777549, 0.2866045, -839782.7, 62837.797, 0.000000000000042786758, 10.004707, 9.994814 
8.953954e+2, 2.1789357e+2, -795713.06, -866302.8, 78195.4, 0.0054315794, 0.28654456, -745216.06, 59455.188, 0.0000000000000028177517, 10.004135, 9.994915 
8.952979e+2, 2.2788833e+2, -711474.7, -778938.4, 76525.92, 0.002774819, 0.2873632, -661576.06, 45146.223, 0.00000000000000013482054, 10.003353, 9.994547 
8.951998e+2, 2.3788288e+2, -625908.56, -686681.8, 80630.1, 0.0028438221, 0.2872099, -570129.3, 38646.254, 0.0, 10.00248, 9.99457 
8.9510024e+2, 2.4787697e+2, -544424.9, -604995.3, 75351.0, -0.016482798, 0.27527723, -493500.7, 17332.885, 0.0, 10.001692, 9.993803 
8.949994e+2, 2.5787067e+2, -455419.2, -509573.2, 78960.23, -0.04160822, 0.2636909, -399022.38, 13872.906, 0.0, 10.000982, 9.993961 
8.9489585e+2, 2.6786464e+2, -379884.25, -431665.44, 62805.94, -0.027475405, 0.3025025, -337841.72, -22887.29, 0.0, 9.999817, 9.993076 
8.9478976e+2, 2.7785808e+2, -309330.88, -348631.75, 65475.895, 0.00009940067, 0.34301028, -260620.27, -43601.535, 0.0, 9.997992, 9.992919 
8.9468354e+2, 2.8784773e+2, -251620.66, -316551.5, 72029.82, -0.055950116, 0.22326289, -205077.84, -85957.3, 0.0, 9.997225, 9.988813 
8.9457875e+2, 2.978357e+2, -132041.7, -195025.6, 70389.39, -0.14845118, 0.1139053, -86420.69, -65182.38, 0.0, 9.998176, 9.989979 
8.9447683e+2, 3.0783117e+2, -47552.125, -125546.516, 54372.14, 0.01741555, 0.61885446, -19638.1, -19638.1, 0.0, 10.000513, 9.990196 
8.9436805e+2, 3.178155e+2, -12973.021, -99894.375, -11926.906, -0.071402416, 0.17430134, -11366.177, -11366.177, 0.0, 10.002354, 9.990962 
9.063061e+2, 1.2804523e+2, -1621595.8, -1695409.4, 12770.483, 0.09058206, 0.2918013, -1619448.8, 65736.94, 0.00000000012416779, 10.006852, 9.997097 
9.061972e+2, 1.3804238e+2, -1517152.3, -1595061.6, 15848.315, 0.054077696, 0.29788545, -1514051.8, 73161.89, 0.00000000008056785, 10.007325, 9.997032 
9.0609205e+2, 1.48039e+2, -1431339.5, -1511940.9, 40252.805, 0.049068443, 0.29727072, -1414680.3, 74566.414, 0.000000000043417193, 10.006895, 9.996285 
9.059898e+2, 1.5803528e+2, -1343626.8, -1417138.4, 44135.99, 0.060378466, 0.29407632, -1322945.9, 68337.4, 0.000000000018423563, 10.006114, 9.996446 
9.0588915e+2, 1.6803177e+2, -1252748.1, -1323508.3, 57865.645, 0.052092977, 0.29431176, -1220303.6, 73014.14, 0.000000000005898237, 10.00567, 9.996395 
9.057899e+2, 1.7802815e+2, -1160491.0, -1228920.8, 59647.883, 0.035140745, 0.29566923, -1125941.6, 69411.34, 0.0000000000013896217, 10.005301, 9.996342 
9.056914e+2, 1.8802422e+2, -1072802.0, -1141852.5, 67711.13, 0.028012559, 0.29494414, -1031322.0, 66069.5, 0.00000000000023855603, 10.004852, 9.995826 
9.055937e+2, 1.9802004e+2, -981641.75, -1046186.56, 71674.23, 0.025074497, 0.29341212, -935309.44, 64123.074, 0.000000000000029757846, 10.004338, 9.995912 
9.054962e+2, 2.080159e+2, -895537.94, -955558.75, 76663.49, 0.017324165, 0.29300365, -843220.25, 58252.766, 0.0000000000000026961885, 10.0035925, 9.995767 
9.053988e+2, 2.1801169e+2, -809111.2, -862144.44, 79938.07, 0.0077989795, 0.29310033, -751406.56, 52107.867, 0.00000000000000017743235, 10.002748, 9.995858 
9.053006e+2, 2.2800754e+2, -721447.4, -770507.6, 78516.05, 0.0031981913, 0.29619357, -663718.75, 41836.156, 0.000000000000000008483127, 10.002083, 9.995725 
9.0520173e+2, 2.380033e+2, -632167.3, -676479.0, 83097.25, 0.00025390153, 0.29889753, -568322.94, 39273.508, 0.0, 10.001461, 9.995747 
9.0510136e+2, 2.4799876e+2, -549216.44, -588940.94, 79851.54, -0.014139037, 0.28549558, -486793.94, 22846.857, 0.0, 10.000546, 9.995434 
9.049996e+2, 2.579941e+2, -466197.75, -496147.9, 87177.94, -0.033233687, 0.27051586, -392718.06, 18968.66, 0.0, 9.999409, 9.995613 
9.048949e+2, 2.6798993e+2, -385867.3, -409003.63, 74502.77, -0.03273879, 0.30383432, -322039.97, -8312.739, 0.0, 9.998254, 9.995344 
9.0478724e+2, 2.7798563e+2, -301698.3, -319504.3, 85231.1, -0.02025246, 0.34094727, -224906.48, -9136.825, 0.0, 9.997332, 9.995186 
9.046776e+2, 2.879787e+2, -316440.34, -301115.56, 105278.414, -0.042034183, 0.24716356, -203221.06, -85383.48, 0.0, 9.990593, 9.992928 
9.1631293e+2, 1.2815744e+2, -1619370.6, -1690644.3, 14492.856, 0.09145331, 0.31094489, -1616536.4, 67550.85, 0.0000000000055475247, 10.006851, 9.997424 
9.162045e+2, 1.381548e+2, -1515433.5, -1588528.4, 16630.771, 0.05482859, 0.30326512, -1511827.5, 74285.54, 0.0000000000035987745, 10.007199, 9.997538 
9.1609895e+2, 1.4815217e+2, -1426675.3, -1500057.5, 37345.95, 0.050114296, 0.3036406, -1411012.1, 77126.43, 0.0000000000019390266, 10.006788, 9.997139 
9.1599596e+2, 1.5814933e+2, -1338841.8, -1406736.9, 41744.71, 0.061534677, 0.30651918, -1318983.5, 71182.75, 0.00000000000082262485, 10.006085, 9.997163 
9.158949e+2, 1.6814637e+2, -1249601.3, -1316682.8, 56473.906, 0.05362038, 0.30709383, -1217458.8, 74736.57, 0.00000000000026326776, 10.005654, 9.996864 
9.157952e+2, 1.7814323e+2, -1156799.6, -1220688.9, 58234.414, 0.037013534, 0.30671903, -1122323.6, 71902.555, 0.00000000000006199901, 10.005273, 9.996912 
9.1569626e+2, 1.8814008e+2, -1066486.3, -1128140.8, 65830.32, 0.02708568, 0.30457142, -1024622.7, 71634.31, 0.000000000000010637854, 10.004821, 9.996771 
9.15598e+2, 1.981368e+2, -975664.25, -1033190.1, 69456.47, 0.020875363, 0.30177274, -929250.7, 69038.11, 0.0000000000000013261838, 10.004307, 9.996808 
9.1549975e+2, 2.0813361e+2, -888563.06, -940903.2, 73404.805, 0.01716187, 0.30059576, -836802.8, 63517.4, 0.00000000000000012008262, 10.003576, 9.996768 
9.1540164e+2, 2.1813038e+2, -802065.9, -847801.6, 77004.484, 0.013025634, 0.3002963, -744605.5, 57746.402, 0.000000000000000007897057, 10.002752, 9.996828 
9.153027e+2, 2.2812736e+2, -712501.56, -752131.06, 76209.875, 0.00079233025, 0.30570725, -653572.6, 50808.945, 0.000000000000000000377277, 10.002086, 9.996972 
9.1520303e+2, 2.381244e+2, -622951.25, -657254.8, 80608.11, -0.011936183, 0.31180477, -557690.3, 48720.234, 0.0, 10.001452, 9.997059 
9.15102e+2, 2.4812166e+2, -534040.4, -557448.7, 75705.83, -0.0051838257, 0.30207077, -469139.3, 39298.016, 0.0, 10.000538, 9.9975815 
9.1499937e+2, 2.581191e+2, -451891.06, -466541.94, 82563.09, 0.0013288503, 0.28883335, -376329.06, 34133.043, 0.0, 9.999403, 9.99763 
9.1489303e+2, 2.681174e+2, -362558.84, -360536.16, 70923.9, -0.04478438, 0.3010948, -290616.38, 21862.598, 0.0, 9.998239, 9.998663 
9.147839e+2, 2.781163e+2, -275845.53, -265323.38, 82276.65, -0.088387914, 0.31827474, -188139.77, 26350.486, 0.0, 9.997303, 9.998904 
9.146685e+2, 2.8811732e+2, -241160.22, -145023.92, 57701.535, -0.008475285, 0.29570976, -117992.04, -1512.3245, 0.0, 9.990557, 10.003483 
9.263187e+2, 1.2826899e+2, -1642650.1, -1693255.9, 10881.73, 0.08482559, 0.32269436, -1640409.4, 42585.53, 0.00000000000019144224, 10.004893, 9.998208 
9.262105e+2, 1.382671e+2, -1546916.3, -1595505.5, 15088.106, 0.0642868, 0.31340414, -1542612.3, 42401.01, 0.00000000000012418292, 10.004699, 9.9982815 
9.261047e+2, 1.4826514e+2, -1452028.5, -1505184.5, 34206.457, 0.055916693, 0.31105638, -1435288.3, 51744.125, 0.00000000000006689621, 10.004756, 9.997777 
9.2600137e+2, 1.5826291e+2, -1354045.3, -1407414.0, 37532.188, 0.05831182, 0.31125855, -1334678.4, 54375.742, 0.000000000000028372161, 10.0047655, 9.997759 
9.258999e+2, 1.6826051e+2, -1263175.9, -1316781.4, 51938.535, 0.050942466, 0.31288916, -1231532.1, 59545.453, 0.000000000000009077005, 10.004456, 9.9974375 
9.2579985e+2, 1.7825799e+2, -1171499.1, -1220826.3, 54300.125, 0.037851818, 0.31438246, -1136523.8, 56578.68, 0.0000000000000021367812, 10.003975, 9.99753 
9.257004e+2, 1.8825555e+2, -1080156.0, -1125193.5, 61281.168, 0.029222915, 0.3118408, -1037387.1, 57738.883, 0.00000000000000036646224, 10.00348, 9.997619 
9.256016e+2, 1.9825314e+2, -989767.9, -1030773.75, 64290.758, 0.02325878, 0.3083001, -942789.9, 54359.688, 0.000000000000000045661286, 10.002951, 9.997628 
9.2550284e+2, 2.0825082e+2, -897919.06, -934767.3, 67402.0, 0.017897652, 0.30831623, -846468.44, 52703.863, 0.000000000000000004132061, 10.002481, 9.997716 
9.25404e+2, 2.1824855e+2, -806853.8, -839484.5, 70545.95, 0.011949763, 0.30940044, -750761.1, 50433.46, 0.00000000000000000027156045, 10.001971, 9.997773 
9.2530423e+2, 2.2824658e+2, -718194.56, -740915.1, 69013.76, 0.00028230608, 0.31137058, -659612.3, 43601.613, 0.0000000000000000000129647, 10.0011015, 9.998212 
9.2520386e+2, 2.3824483e+2, -634513.9, -648872.0, 73238.6, -0.01124031, 0.3136304, -568103.3, 37127.844, 0.0, 10.000068, 9.998298 
9.251019e+2, 2.4824363e+2, -541901.75, -542138.56, 65638.32, -0.003147947, 0.31319496, -476381.72, 30860.979, 0.0, 9.999189, 9.999279 
9.249983e+2, 2.582429e+2, -455977.75, -449434.22, 68774.71, 0.0045556943, 0.31091428, -383853.5, 25396.324, 0.0, 9.99832, 9.999328 
9.248906e+2, 2.682431e+2, -365348.22, -333871.44, 52001.72, -0.044701986, 0.30476418, -295278.66, 15969.189, 0.0, 9.996877, 10.00115 
9.2477995e+2, 2.7824423e+2, -292050.47, -244802.47, 57198.934, -0.09141886, 0.30006456, -206541.0, 6695.705, 0.0, 9.995043, 10.001409 
9.2466223e+2, 2.8824857e+2, -128880.055, -54713.516, -10324.57, -0.007946112, 0.3205705, -53303.08, 61890.965, 0.0, 9.996877, 10.006677 
9.363235e+2, 1.2838002e+2, -1637006.9, -1678872.6, 10374.782, 0.07427479, 0.32995516, -1634577.0, 47330.555, 0.0, 10.004767, 9.999246 
9.3621534e+2, 1.3837922e+2, -1541480.3, -1583140.0, 14997.185, 0.07928553, 0.32648954, -1536643.1, 47272.15, 0.0, 10.004645, 9.999149 
9.361096e+2, 1.483778e+2, -1448999.5, -1498105.3, 34251.285, 0.0643756, 0.31872714, -1431409.9, 54518.926, 0.0, 10.004721, 9.998276 
9.3600607e+2, 1.5837601e+2, -1350923.3, -1400064.3, 37245.46, 0.05193015, 0.31047443, -1330873.9, 57072.48, 0.0, 10.004726, 9.998278 
9.359043e+2, 1.6837423e+2, -1258995.9, -1307395.8, 50098.758, 0.0454163, 0.31370828, -1227558.4, 62405.473, 0.0, 10.004419, 9.998091 
9.3580383e+2, 1.7837237e+2, -1167159.4, -1211362.0, 52508.055, 0.037906602, 0.31953862, -1132290.8, 59691.242, 0.0, 10.00395, 9.998183 
9.3570393e+2, 1.8837067e+2, -1074786.3, -1113873.8, 59187.008, 0.03364289, 0.3172638, -1031999.75, 61998.883, 0.0, 10.003468, 9.998392 
9.3560463e+2, 1.9836901e+2, -984373.75, -1019613.94, 62396.3, 0.030789737, 0.31321707, -937157.4, 58857.32, 0.0, 10.002948, 9.998386 
9.3550533e+2, 2.0836756e+2, -891623.56, -921598.9, 65495.668, 0.019144353, 0.31601408, -839422.6, 58606.543, 0.0, 10.002474, 9.998613 
9.354059e+2, 2.183662e+2, -800550.75, -826068.8, 68209.39, 0.0053617754, 0.3199132, -743917.3, 56125.01, 0.0, 10.001952, 9.9986925 
9.3530536e+2, 2.2836523e+2, -709708.6, -723176.8, 65057.195, 0.0017660225, 0.31330895, -651037.94, 51013.934, 0.0, 10.001087, 9.999422 
9.35204e+2, 2.3836458e+2, -626291.5, -631957.25, 69612.664, 0.0007022422, 0.30557716, -559454.06, 44604.164, 0.0, 10.000068, 9.999446 
9.3510103e+2, 2.4836472e+2, -532978.4, -523736.22, 62448.426, -0.00899736, 0.31965092, -465738.13, 40318.87, 0.0, 9.999191, 10.000528 
9.3499637e+2, 2.5836545e+2, -446196.2, -429059.3, 65167.848, -0.022547226, 0.33631355, -371899.03, 36151.023, 0.0, 9.998312, 10.000717 
9.348876e+2, 2.6836705e+2, -353543.94, -309293.63, 45094.605, -0.029359972, 0.31425554, -281188.84, 28844.984, 0.0, 9.996863, 10.002824 
9.347757e+2, 2.7836958e+2, -282902.44, -226211.56, 50745.098, -0.027576152, 0.28627434, -196431.88, 15576.919, 0.0, 9.995051, 10.002662 
9.346587e+2, 2.8837234e+2, -159194.34, -117972.4, 9613.337, -0.05208106, 0.31784907, -115840.71, -1859.0547, 0.0, 9.9969015, 10.00238 
9.4632715e+2, 1.2849058e+2, -1665528.8, -1686609.3, 7500.3096, 0.07333803, 0.32803467, -1663132.5, 17691.896, 0.0, 10.002573, 9.999796 
9.4621927e+2, 1.3849035e+2, -1560852.1, -1586521.0, 9887.158, 0.08352892, 0.3265128, -1557485.4, 25341.234, 0.0, 10.003078, 9.999696 
9.4611365e+2, 1.4848955e+2, -1465565.5, -1500261.4, 27524.281, 0.06659375, 0.32516387, -1450378.3, 34456.098, 0.0, 10.003358, 9.9988 
9.4601005e+2, 1.5848833e+2, -1367345.6, -1402212.5, 30323.201, 0.050539166, 0.3236738, -1349801.6, 37044.766, 0.0, 10.003374, 9.9987955 
9.4590807e+2, 1.6848709e+2, -1273207.9, -1307579.1, 41638.23, 0.045397427, 0.32554993, -1245348.1, 43510.438, 0.0, 10.00318, 9.998684 
9.458073e+2, 1.7848581e+2, -1179222.8, -1210511.4, 43791.977, 0.0403134, 0.3282034, -1148364.6, 42506.566, 0.0, 10.002857, 9.998776 
9.4570696e+2, 1.8848476e+2, -1083546.5, -1110400.1, 49747.523, 0.035675664, 0.3268119, -1045445.7, 47435.695, 0.0, 10.002556, 9.999076 
9.456072e+2, 1.9848381e+2, -990534.6, -1014773.44, 52320.863, 0.031840246, 0.32446697, -948947.9, 45942.766, 0.0, 10.00221, 9.999082 
9.4550735e+2, 2.084831e+2, -897785.5, -915158.6, 54416.383, 0.018648617, 0.32648894, -851366.7, 45530.87, 0.0, 10.001666, 9.999451 
9.4540733e+2, 2.1848258e+2, -808452.94, -820588.8, 56457.563, 0.0034265555, 0.32915303, -757738.1, 41164.527, 0.0, 10.001033, 9.999519 
9.453062e+2, 2.2848248e+2, -712062.1, -713995.2, 51105.77, 0.0036101353, 0.32397398, -661913.75, 38989.836, 0.0, 10.0005045, 10.0003395 
9.452041e+2, 2.3848276e+2, -621884.06, -619545.44, 53483.32, 0.0066495086, 0.31765836, -567218.6, 35682.156, 0.0, 9.999954, 10.0003605 
9.4510007e+2, 2.4848378e+2, -527871.94, -510576.56, 43990.645, -0.014117769, 0.3265583, -474391.7, 30499.246, 0.0, 9.999116, 10.001478 
9.449944e+2, 2.5848538e+2, -441791.6, -416120.2, 44153.145, -0.039949995, 0.33793658, -382974.84, 23900.365, 0.0, 9.998196, 10.001673 
9.4488513e+2, 2.684878e+2, -332615.28, -293473.94, 18667.717, -0.020777058, 0.32464206, -285998.44, 22852.527, 0.0, 9.9981165, 10.003334 
9.4477296e+2, 2.7849093e+2, -228294.28, -195735.75, 16169.019, 0.009754014, 0.30632293, -189070.48, 21749.662, 0.0, 9.998699, 10.00304 
9.4465697e+2, 2.8849274e+2, -123161.914, -121383.56, -1090.0397, -0.08416192, 0.31711134, -120866.03, -8063.5034, 0.0, 10.000347, 10.000573 
9.5632976e+2, 1.2860058e+2, -1664255.1, -1683362.0, 9105.609, 0.07763685, 0.32091716, -1660610.8, 19136.031, 0.0, 10.002547, 10.000033 
9.562223e+2, 1.386006e+2, -1558928.5, -1581953.1, 11749.986, 0.08067638, 0.31880635, -1553991.0, 27755.64, 0.0, 10.003055, 10.000023 
9.561169e+2, 1.4860038e+2, -1462189.8, -1492643.4, 27436.146, 0.0649019, 0.33166313, -1446038.3, 37710.61, 0.0, 10.003328, 9.999333 
9.5601344e+2, 1.5859987e+2, -1364176.4, -1394965.9, 29924.84, 0.052669793, 0.34701303, -1345918.6, 39835.6, 0.0, 10.003343, 9.999305 
9.559113e+2, 1.6859911e+2, -1269671.5, -1299655.4, 40133.473, 0.049138937, 0.3453857, -1241821.3, 45940.348, 0.0, 10.00315, 9.999236 
9.558101e+2, 1.7859831e+2, -1175644.4, -1202619.9, 42480.152, 0.04432264, 0.3396966, -1144562.1, 45207.4, 0.0, 10.002834, 9.999324 
9.557095e+2, 1.8859784e+2, -1079507.9, -1101615.3, 48285.8, 0.03584112, 0.33989304, -1041026.7, 50747.332, 0.0, 10.002536, 9.999681 
9.556094e+2, 1.9859754e+2, -986299.44, -1005587.4, 50642.395, 0.027638637, 0.3411134, -944390.9, 49386.004, 0.0, 10.002189, 9.999715 
9.5550895e+2, 2.0859751e+2, -892557.0, -904082.06, 51831.277, 0.016744483, 0.3395037, -846168.94, 49608.375, 0.0, 10.001651, 10.000209 
9.554084e+2, 2.1859768e+2, -803387.3, -810052.56, 54166.426, 0.0053679827, 0.3377158, -752451.06, 45324.33, 0.0, 10.001028, 10.0002365 
9.553067e+2, 2.2859836e+2, -707580.2, -704654.94, 49016.26, 0.0055020917, 0.34285158, -657079.5, 42689.39, 0.0, 10.000502, 10.000974 
9.5520407e+2, 2.3859937e+2, -617104.44, -609443.0, 50990.727, 0.0070052175, 0.34770188, -562139.3, 39619.465, 0.0, 9.999944, 10.00105 
9.5509917e+2, 2.4860084e+2, -523508.66, -501367.3, 40444.996, -0.01832417, 0.33275887, -470505.22, 33239.2, 0.0, 9.9991045, 10.002106 
9.549925e+2, 2.586028e+2, -438263.13, -408752.44, 41047.758, -0.048353013, 0.3165887, -379888.53, 25836.684, 0.0, 9.99819, 10.002172 
9.548832e+2, 2.6860544e+2, -337388.78, -303402.22, 20920.6, -0.020465825, 0.33833268, -293442.88, 14256.377, 0.0, 9.998118, 10.00266 
9.5477176e+2, 2.7860835e+2, -231560.16, -202769.23, 18556.678, 0.018857991, 0.36258033, -193678.95, 15992.078, 0.0, 9.99871, 10.002561 
9.5465714e+2, 2.8860977e+2, -117373.9, -110101.01, 8893.593, -0.10080877, 0.3146222, -104129.13, 7527.6484, 0.0, 10.000385, 10.001357 
9.6633184e+2, 1.287095e+2, -1676089.9, -1685300.6, 1533.5026, 0.082973406, 0.34112343, -1675841.3, 2838.9534, 0.0, 10.001596, 10.000388 
9.662248e+2, 1.3870981e+2, -1571183.4, -1584597.4, 4476.617, 0.07563104, 0.33475178, -1569826.6, 10850.524, 0.0, 10.002098, 10.000329 
9.6611977e+2, 1.487098e+2, -1475088.3, -1495952.5, 17041.219, 0.06049871, 0.3410362, -1465539.6, 17137.727, 0.0, 10.002348, 9.9996 
9.6601623e+2, 1.587095e+2, -1376962.5, -1397416.6, 17869.285, 0.052478068, 0.34985846, -1366600.6, 18079.89, 0.0, 10.002335, 9.999647 
9.6591395e+2, 1.687092e+2, -1280396.6, -1298988.9, 26592.992, 0.047892258, 0.34705007, -1261521.8, 25161.84, 0.0, 10.002192, 9.9997635 
9.658125e+2, 1.7870891e+2, -1185305.8, -1201740.5, 28711.766, 0.04076732, 0.34152392, -1163658.6, 25027.807, 0.0, 10.001963, 9.999824 
9.6571165e+2, 1.8870896e+2, -1087671.9, -1099647.4, 33770.457, 0.03366259, 0.34188735, -1059362.5, 31323.479, 0.0, 10.001752, 10.000214 
9.656112e+2, 1.9870919e+2, -992866.25, -1002649.1, 35337.688, 0.027556596, 0.34354, -962083.06, 30600.514, 0.0, 10.001506, 10.000265 
9.655104e+2, 2.0870975e+2, -895184.25, -898204.44, 35104.39, 0.017058317, 0.34139493, -861557.5, 33120.633, 0.0, 10.001194, 10.00085 
9.654093e+2, 2.1871057e+2, -802085.75, -802232.5, 36678.023, 0.005589631, 0.3388681, -765481.06, 31188.957, 0.0, 10.000839, 10.000882 
9.653071e+2, 2.2871189e+2, -704483.3, -696181.06, 31115.688, 0.003059584, 0.34458166, -668940.8, 29716.316, 0.0, 10.000449, 10.001598 
9.65204e+2, 2.3871355e+2, -611936.6, -600005.1, 32412.56, 0.00188481, 0.35075536, -573013.9, 27626.938, 0.0, 10.000036, 10.001671 
9.6509856e+2, 2.4871553e+2, -513156.72, -492216.5, 20227.063, -0.018130332, 0.33855003, -479910.38, 22710.936, 0.0, 9.999677, 10.002479 
9.649914e+2, 2.5871786e+2, -418851.2, -395908.75, 19259.668, -0.04216365, 0.32452944, -384962.9, 19635.396, 0.0, 9.999416, 10.002487 
9.648821e+2, 2.6872048e+2, -319213.63, -298213.53, 4012.7188, -0.025989957, 0.3454573, -297472.9, 9099.8545, 0.0, 9.999565, 10.002355 
9.647709e+2, 2.787231e+2, -213903.47, -196656.84, 4331.012, 0.00019996446, 0.36970022, -195630.33, 12917.237, 0.0, 10.00007, 10.002357 
9.646579e+2, 2.8872475e+2, -108037.39, -101959.15, -1156.5651, -0.09067947, 0.33495265, -101746.516, 8784.437, 0.0, 10.000914, 10.001712 
9.763335e+2, 1.2881732e+2, -1675607.0, -1680839.8, 3635.4375, 0.08886963, 0.37660557, -1673744.4, 3879.982, 0.0, 10.001446, 10.00077 
9.762268e+2, 1.3881794e+2, -1569808.3, -1581190.1, 6577.177, 0.06910541, 0.3640116, -1566801.8, 12816.561, 0.0, 10.002073, 10.000578 
9.76122e+2, 1.4881785e+2, -1474705.3, -1494929.4, 17311.219, 0.054234616, 0.35025865, -1464769.1, 16850.0, 0.0, 10.002337, 9.999675 
9.7601855e+2, 1.5881743e+2, -1375773.3, -1394503.6, 18172.895, 0.05047594, 0.33699194, -1364694.4, 18928.95, 0.0, 10.002314, 9.999854 
9.759161e+2, 1.688175e+2, -1277138.4, -1292059.9, 26015.629, 0.04290217, 0.33467165, -1257534.9, 28087.791, 0.0, 10.00218, 10.000238 
9.758144e+2, 1.7881775e+2, -1182204.0, -1195389.4, 28108.797, 0.031512953, 0.3349186, -1159925.1, 27695.34, 0.0, 10.001964, 10.000255 
9.757134e+2, 1.888182e+2, -1084513.9, -1093082.9, 32927.695, 0.029687522, 0.33403233, -1055593.1, 34022.91, 0.0, 10.001749, 10.000661 
9.7561276e+2, 1.9881886e+2, -989731.94, -995998.6, 34378.492, 0.030665759, 0.3333774, -958344.3, 33265.33, 0.0, 10.001497, 10.00072 
9.755116e+2, 2.0881993e+2, -891626.3, -890590.44, 33788.2, 0.019164093, 0.33309403, -857316.2, 36282.914, 0.0, 10.001182, 10.001372 
9.7541016e+2, 2.188213e+2, -798299.9, -794040.7, 35306.836, 0.004336759, 0.33292404, -760799.3, 34786.24, 0.0, 10.000822, 10.001446 
9.753076e+2, 2.2882313e+2, -700602.8, -687837.4, 29544.967, -0.0033504027, 0.33047685, -663993.56, 33574.15, 0.0, 10.000434, 10.002173 
9.7520393e+2, 2.3882529e+2, -608406.2, -592529.0, 30683.305, -0.008532136, 0.3294619, -568773.94, 30772.48, 0.0, 10.000027, 10.002183 
9.7509825e+2, 2.4882783e+2, -512361.28, -490479.22, 19181.518, -0.013537774, 0.34508714, -479337.75, 22183.719, 0.0, 9.999671, 10.002599 
9.74991e+2, 2.588306e+2, -417987.44, -394001.94, 18387.193, -0.021556193, 0.3607235, -384042.13, 19452.428, 0.0, 9.99941, 10.00262 
9.748815e+2, 2.6883292e+2, -318967.78, -297630.97, 5870.1577, -0.038317062, 0.34287703, -296122.63, 9349.162, 0.0, 9.999562, 10.002402 
9.747705e+2, 2.7883515e+2, -213613.03, -195957.11, 6279.871, -0.048206255, 0.32471597, -193951.34, 13498.773, 0.0, 10.000065, 10.002413 
9.7465926e+2, 2.8883776e+2, -109101.1, -104071.484, 3065.416, -0.048884958, 0.38645405, -102621.32, 6803.5386, 0.0, 10.000909, 10.001582 
9.863342e+2, 1.2892401e+2, -1690782.1, -1685701.8, 5085.782, 0.08099043, 0.3248404, -1682557.1, -5977.5293, 0.0, 10.000323, 10.000996 
9.8622876e+2, 1.3892503e+2, -1574705.6, -1581421.4, 6145.3057, 0.0776756, 0.33150333, -1571060.6, 7508.8145, 0.0, 10.001664, 10.0007715 
9.8612434e+2, 1.4892532e+2, -1479297.1, -1496011.9, 13271.91, 0.06655015, 0.3411011, -1471970.4, 8596.241, 0.0, 10.001989, 9.999773 
9.860208e+2, 1.5892522e+2, -1381622.8, -1396880.9, 13800.931, 0.061669126, 0.35161918, -1373482.6, 9085.119, 0.0, 10.001916, 9.999887 
9.859182e+2, 1.6892546e+2, -1281693.3, -1294255.1, 18625.494, 0.05414323, 0.36579564, -1268318.1, 16247.36, 0.0, 10.001894, 10.000234 
9.8581636e+2, 1.7892584e+2, -1184841.3, -1196398.1, 17591.977, 0.042793877, 0.37951317, -1172103.0, 14458.916, 0.0, 10.001801, 10.000275 
9.857151e+2, 1.8892647e+2, -1086615.1, -1091680.5, 19862.357, 0.038630027, 0.38439655, -1069124.6, 19431.115, 0.0, 10.0015335, 10.000874 
9.856141e+2, 1.9892737e+2, -992974.3, -994788.94, 19705.922, 0.037448056, 0.3860889, -974154.8, 16392.088, 0.0, 10.001191, 10.000966 
9.855127e+2, 2.089288e+2, -893536.8, -886184.5, 18043.146, 0.028124696, 0.3842843, -871446.8, 21086.2, 0.0, 10.000857, 10.001847 
9.8541087e+2, 2.1893062e+2, -799936.0, -789372.1, 19141.729, 0.015566197, 0.38056853, -774796.94, 19718.219, 0.0, 10.000511, 10.001933 
9.8530793e+2, 2.2893286e+2, -700436.3, -681479.9, 13178.743, 0.002815617, 0.36874858, -674724.94, 21768.133, 0.0, 10.000211, 10.002735 
9.852039e+2, 2.3893547e+2, -605864.56, -584905.94, 14433.508, -0.008378278, 0.3565469, -577548.75, 20918.63, 0.0, 9.999961, 10.002756 
9.850981e+2, 2.4893844e+2, -506268.9, -482731.28, 5378.245, -0.00829596, 0.3632476, -481560.6, 18877.691, 0.0, 9.999913, 10.003033 
9.8499084e+2, 2.5894156e+2, -407099.16, -384330.34, 6620.4614, -0.009692639, 0.37217578, -382545.28, 19862.537, 0.0, 9.999994, 10.003016 
9.848813e+2, 2.6894414e+2, -310684.3, -292065.56, -2974.2197, -0.03849925, 0.35351852, -291602.0, 12780.552, 0.0, 10.000089, 10.00255 
9.847706e+2, 2.789465e+2, -209322.08, -193234.2, -1332.9121, -0.06163191, 0.33569708, -193124.52, 13235.018, 0.0, 10.000358, 10.00248 
9.8466057e+2, 2.8894898e+2, -104949.92, -104614.35, -2502.082, -0.028602669, 0.39264515, -102274.44, 6061.277, 0.0, 10.0013275, 10.001373 
9.963348e+2, 1.2903124e+2, -1682212.8, -1680754.8, -5928.3315, 0.09648196, 0.38096285, -1675510.8, 18.837133, 0.0, 10.0009, 10.001097 
9.962303e+2, 1.3903227e+2, -1568458.5, -1577350.5, -6540.2056, 0.06522464, 0.37801212, -1564996.3, 12523.17, 0.0, 10.002068, 10.0008955 
9.961262e+2, 1.4903253e+2, -1476477.8, -1494533.4, -4323.555, 0.054638606, 0.37594104, -1475495.9, 4021.167, 0.0, 10.0021925, 9.999813 
9.9602264e+2, 1.5903239e+2, -1382768.6, -1399450.3, -4113.1895, 0.053836416, 0.3838198, -1381809.6, -291.25165, 0.0, 10.001941, 9.999741 
9.9592006e+2, 1.6903204e+2, -1283853.1, -1299878.9, 699.484, 0.050366197, 0.37044427, -1283822.6, -300.7563, 0.0, 10.001961, 9.999856 
9.958182e+2, 1.7903186e+2, -1185077.3, -1200234.9, 119.08341, 0.042938296, 0.36509562, -1185076.4, 447.20496, 0.0, 10.001961, 9.999972 
9.957166e+2, 1.8903226e+2, -1084035.9, -1090369.4, 3154.6033, 0.02987811, 0.3575065, -1082732.8, 4786.8696, 0.0, 10.0017185, 10.000904 
9.956152e+2, 1.990332e+2, -989951.5, -992707.2, 4837.8823, 0.019934447, 0.35942414, -986299.06, 3211.2703, 0.0, 10.001382, 10.001043 
9.955135e+2, 2.0903495e+2, -887058.2, -878196.56, 5282.627, 0.016865805, 0.36149794, -875732.56, 15760.857, 0.0, 10.001099, 10.002298 
9.9541146e+2, 2.1903732e+2, -792890.0, -781288.2, 8543.764, 0.014819764, 0.36952078, -776762.1, 16708.094, 0.0, 10.000799, 10.002364 
9.953081e+2, 2.2904027e+2, -691515.94, -670701.94, 5057.869, 0.0029045462, 0.37553722, -669537.94, 25903.541, 0.0, 10.000547, 10.003324 
9.9520385e+2, 2.3904364e+2, -596257.25, -572905.94, 8516.622, -0.009132223, 0.3800472, -570129.8, 27278.508, 0.0, 10.000305, 10.00342 
9.95098e+2, 2.4904718e+2, -496542.3, -470025.72, 2622.806, -0.007755582, 0.37103155, -469768.78, 29604.758, 0.0, 10.0002365, 10.003756 
9.949908e+2, 2.5905076e+2, -400264.7, -373934.84, 5393.276, -0.008371256, 0.35554752, -372872.94, 28465.383, 0.0, 10.000156, 10.0036545 
9.948815e+2, 2.690542e+2, -308595.1, -288358.94, -2485.3774, -0.026559018, 0.38006702, -288058.16, 15246.662, 0.0, 10.000117, 10.002793 
9.947712e+2, 2.790572e+2, -208698.95, -192401.13, 360.7595, -0.03936129, 0.40550452, -192393.14, 12882.514, 0.0, 10.0003805, 10.002529 
9.9466187e+2, 2.8905824e+2, -107196.586, -109954.09, 2157.2031, -0.034401387, 0.34202144, -106015.17, 1250.009, 0.0, 10.001365, 10.001 
