coord_x,coord_y,stress_xx,stress_yy,tau_xy,velocity_x,velocity_y,stress_1,eps,damage,lx,ly
4.9996582e+0, 1.2433325e+2, -1720023.3, -1708580.6, -1178.4296, 0.0021213333, -0.010877446, -1708460.5, 13074.08, 0.0, 9.999274, 10.00079 
4.9994668e+0, 1.3433264e+2, -1640658.5, -1639695.6, -3734.7676, 0.0028029166, 0.022480493, -1636411.4, -12870.773, 0.0, 9.998878, 9.999004 
4.9993414e+0, 1.4433071e+2, -1560179.9, -1572843.5, -2596.852, 0.00082181196, 0.025510028, -1559668.0, -34108.18, 0.0, 9.998667, 9.996988 
4.9992934e+0, 1.5432745e+2, -1462011.8, -1475464.0, 1599.1044, -0.006019429, 0.007022477, -1461824.3, -34232.742, 0.0, 9.998707, 9.996924 
4.9993e+0, 1.6432416e+2, -1362784.1, -1376496.6, 3376.337, -0.008604075, -0.011682826, -1361997.9, -32374.574, 0.0, 9.998773, 9.996955 
4.9993825e+0, 1.7432101e+2, -1262610.0, -1276493.4, 1849.1528, -0.005630151, -0.03004345, -1262368.0, -30714.715, 0.0, 9.998878, 9.997038 
4.9993825e+0, 1.8431726e+2, -1179333.8, -1205826.0, 86.95374, 0.0009455233, -0.022590699, -1179333.5, -45643.3, 0.0, 9.998746, 9.995237 
4.9992782e+0, 1.9431286e+2, -1088012.9, -1111639.1, 181.30815, 0.012168934, 0.016713316, -1088011.5, -52276.766, 0.0, 9.998313, 9.995184 
4.9991375e+0, 2.0430793e+2, -997591.9, -1021218.06, 88.45263, 0.015639111, 0.026183762, -997591.5, -59808.293, 0.0, 9.997962, 9.994834 
4.998951e+0, 2.1430251e+2, -902668.06, -924074.94, -1099.3191, 0.009006834, -0.0044244607, -902611.75, -62776.426, 0.0, 9.997722, 9.994886 
4.998846e+0, 2.2429614e+2, -823731.06, -864173.2, 381.42026, 0.0014476073, -0.0053685433, -823727.44, -81829.86, 0.0, 9.9976635, 9.9923115 
4.9988484e+0, 2.3428872e+2, -723814.75, -766470.1, 3735.693, -0.0072894287, 0.031052766, -723490.06, -79518.62, 0.0, 9.997843, 9.992198 
4.9987954e+0, 2.4428111e+2, -623045.8, -662138.06, 3587.0518, -0.011060998, 0.03358241, -622719.44, -76673.25, 0.0, 9.997812, 9.992639 
4.9986678e+0, 2.5427344e+2, -528638.7, -564471.0, 811.6253, -0.0083049415, -0.0098374635, -528620.3, -80500.17, 0.0, 9.997501, 9.99276 
4.9986586e+0, 2.6426476e+2, -450356.4, -505136.97, 595.965, -0.0042988574, -0.028086048, -450349.94, -100145.37, 0.0, 9.997404, 9.990157 
4.998805e+0, 2.7425498e+2, -350358.72, -407299.94, 1734.2926, 0.0013395724, -0.0143463835, -350305.94, -98005.055, 0.0, 9.997583, 9.990051 
4.9988562e+0, 2.8424478e+2, -255533.83, -317284.06, 1401.3702, 0.0036880902, -0.0055371104, -255502.03, -101101.305, 0.0, 9.997638, 9.9894705 
4.998775e+0, 2.942343e+2, -158682.78, -218982.94, 349.46222, 0.0016448987, -0.004969467, -158680.75, -102177.805, 0.0, 9.997517, 9.989541 
4.9985743e+0, 3.0422667e+2, -76647.84, -92308.734, -1071.1389, 0.0012866496, -0.003993021, -76574.92, -76574.92, 0.0, 9.997123, 9.995049 
4.998209e+0, 3.1422168e+2, -88000.805, -97986.58, -528.15106, 0.003240092, -0.004162323, -87972.95, -87972.95, 0.0, 9.996352, 9.99503 
1.4998974e+1, 1.24333195e+2, -1724685.6, -1718137.1, -2610.7886, 0.0062959567, -0.0031355862, -1717223.8, 4311.15, 0.0, 9.999274, 10.00014 
1.49984e+1, 1.343318e+2, -1645467.4, -1649564.0, -5227.208, 0.008384541, 0.015813263, -1641901.5, -18352.367, 0.0, 9.998878, 9.998334 
1.4998025e+1, 1.443299e+2, -1553154.1, -1558413.0, -2566.4463, 0.0024665436, 0.0151484255, -1552109.3, -26541.555, 0.0, 9.998667, 9.997969 
1.499788e+1, 1.5432785e+2, -1454149.3, -1459303.8, 1759.6793, -0.018061092, 0.0072133145, -1453605.9, -26018.564, 0.0, 9.998707, 9.998023 
1.4997901e+1, 1.6432512e+2, -1364995.3, -1381043.3, 3749.3206, -0.02582085, -0.0005883777, -1364162.5, -34548.742, 0.0, 9.998773, 9.996646 
1.4998147e+1, 1.7432168e+2, -1265549.6, -1282543.6, 2251.979, -0.016898822, -0.0076025613, -1265256.3, -33608.953, 0.0, 9.998878, 9.996626 
1.4998148e+1, 1.8431768e+2, -1179245.1, -1205643.1, -1420.6096, 0.0028305599, -0.0029742182, -1179168.9, -45482.12, 0.0, 9.998746, 9.99525 
1.4997834e+1, 1.943131e+2, -1087704.4, -1111003.9, -1455.4952, 0.03649105, 0.015164692, -1087613.9, -51881.613, 0.0, 9.998313, 9.995228 
1.4997412e+1, 2.0430797e+2, -999701.3, -1025566.94, -871.3246, 0.04691202, 0.015974721, -999672.0, -61889.547, 0.0, 9.997962, 9.994537 
1.4996853e+1, 2.143023e+2, -904958.94, -928803.1, -2003.6964, 0.027015205, -0.0066980687, -904791.75, -64954.605, 0.0, 9.997722, 9.994564 
1.4996539e+1, 2.2429605e+2, -818097.06, -852540.06, 951.9265, 0.004325241, -0.01765864, -818070.8, -76172.6, 0.0, 9.9976635, 9.993105 
1.4996547e+1, 2.3428917e+2, -717596.6, -753623.1, 4417.638, -0.021877276, -0.014464759, -717062.9, -73096.98, 0.0, 9.997843, 9.993074 
1.4996387e+1, 2.4428181e+2, -627334.7, -671005.75, 2544.1628, -0.033186715, -0.0050374903, -627186.94, -81148.79, 0.0, 9.997812, 9.992033 
1.4996003e+1, 2.54274e+2, -533733.1, -575013.94, -366.90857, -0.02492291, 0.011451961, -533729.8, -85615.12, 0.0, 9.997501, 9.992039 
1.4995976e+1, 2.6426527e+2, -448842.4, -502000.8, 1151.6322, -0.012899321, 0.012783368, -448817.47, -98616.89, 0.0, 9.997404, 9.990372 
1.4996415e+1, 2.742554e+2, -348330.94, -403096.13, 2417.8958, 0.0040162792, -0.007339832, -348224.4, -95927.59, 0.0, 9.997583, 9.990338 
1.4996567e+1, 2.8424513e+2, -257120.63, -320574.4, 1037.6642, 0.0110601885, -0.011176195, -257103.66, -102706.48, 0.0, 9.997638, 9.989245 
1.4996324e+1, 2.9423457e+2, -160560.33, -222878.81, -113.51234, 0.0049277022, 0.005411732, -160560.13, -104059.35, 0.0, 9.997517, 9.989274 
1.4995722e+1, 3.0422685e+2, -75667.22, -90271.96, -3778.9182, 0.003837425, 0.00868865, -74747.375, -74747.375, 0.0, 9.997123, 9.995189 
1.4994626e+1, 3.142219e+2, -86788.9, -95466.42, -3444.0044, 0.0096996445, -0.007683722, -85588.164, -85588.164, 0.0, 9.996352, 9.995204 
2.4998277e+1, 1.243336e+2, -1725525.6, -1723435.9, 1290.3126, 0.0014841933, -0.004876218, -1722820.5, -1289.8948, 0.0, 9.999429, 9.999705 
2.4997638e+1, 1.3433166e+2, -1635691.4, -1649888.9, 308.71088, 0.00021086777, 0.0068129785, -1635684.8, -12134.6875, 0.0, 9.999763, 9.997881 
2.4997137e+1, 1.4432973e+2, -1534829.3, -1544425.4, 1118.0353, -0.0042684055, 0.0034910748, -1534700.8, -9131.576, 0.0, 9.999693, 9.99842 
2.499677e+1, 1.5432823e+2, -1444538.5, -1448839.3, 1010.08075, -0.019909283, -0.00026192772, -1444313.1, -16729.799, 0.0, 9.999109, 9.998538 
2.4996576e+1, 1.6432582e+2, -1369552.0, -1384407.0, 1444.2278, -0.022570048, 0.0016202854, -1369413.0, -39806.1, 0.0, 9.998512, 9.996544 
2.4996626e+1, 1.743224e+2, -1280868.0, -1291639.9, 1949.4445, -0.008223713, 0.011296087, -1280526.0, -48885.297, 0.0, 9.997907, 9.996479 
2.499641e+1, 1.8431835e+2, -1193710.5, -1211434.3, 390.58438, 0.006342914, 0.013166372, -1193701.9, -60021.176, 0.0, 9.997707, 9.99536 
2.4995857e+1, 1.943136e+2, -1090769.3, -1111046.5, 1065.1362, 0.021059675, 0.0032846902, -1090713.5, -54986.57, 0.0, 9.998042, 9.995357 
2.4995287e+1, 2.0430835e+2, -997303.2, -1027580.44, 1919.7275, 0.023215335, -0.0022196926, -997181.94, -59403.78, 0.0, 9.998262, 9.994254 
2.4994701e+1, 2.143026e+2, -898164.44, -929031.44, 848.35785, 0.008969524, -0.002795475, -898141.1, -58306.844, 0.0, 9.998338, 9.99425 
2.4994355e+1, 2.2429647e+2, -807472.94, -841090.06, 2569.1184, -0.0029362335, -0.011219958, -807277.75, -65383.508, 0.0, 9.9981165, 9.993666 
2.4994324e+1, 2.3428996e+2, -718006.7, -746781.5, 4123.711, -0.011682172, -0.031164572, -717427.4, -73469.94, 0.0, 9.997511, 9.993702 
2.4994162e+1, 2.4428271e+2, -637190.0, -680873.5, 2759.1401, -0.014127079, -0.023856232, -637016.4, -90987.73, 0.0, 9.997358, 9.991578 
2.499382e+1, 2.5427464e+2, -533182.56, -580780.44, 1289.4716, -0.0083374, 0.018225357, -533147.6, -85039.01, 0.0, 9.997799, 9.991501 
2.4993758e+1, 2.642658e+2, -439105.1, -494349.94, 3358.877, -0.0022198192, 0.02798004, -438901.63, -88706.11, 0.0, 9.997943, 9.990634 
2.4994053e+1, 2.7425614e+2, -344547.34, -397621.38, 4874.286, 0.0042738314, -0.0065898276, -344103.4, -91813.75, 0.0, 9.997685, 9.990664 
2.4994099e+1, 2.8424582e+2, -261646.55, -326835.3, 2952.7207, 0.0071342844, -0.015918313, -261513.08, -107122.69, 0.0, 9.997503, 9.988882 
2.4993794e+1, 2.942349e+2, -164956.94, -229703.48, 615.97156, 0.0051392433, 0.0072432305, -164951.08, -108453.41, 0.0, 9.997417, 9.988854 
2.4993074e+1, 3.042271e+2, -66661.53, -81986.79, -3087.27, 0.00433516, 0.0110778995, -66062.98, -66062.98, 0.0, 9.99757, 9.995542 
2.4991773e+1, 3.142225e+2, -59388.44, -77600.43, -953.81335, 0.0053488943, -0.012965731, -59338.625, -59338.625, 0.0, 9.998032, 9.99562 
3.4997568e+1, 1.2433443e+2, -1727136.5, -1726714.1, 2508.5845, -0.012492319, -0.016095657, -1724407.9, -2886.182, 0.0, 9.999428, 9.999483 
3.499718e+1, 1.3433225e+2, -1637390.4, -1653369.8, 1584.8854, -0.021739475, -0.00449019, -1637234.8, -13691.308, 0.0, 9.999763, 9.997645 
3.4996676e+1, 1.4433014e+2, -1535392.3, -1545576.1, -860.3679, -0.019447373, -0.009474752, -1535320.0, -9755.669, 0.0, 9.999692, 9.998342 
3.499596e+1, 1.5432855e+2, -1445027.0, -1449835.3, -1186.7211, -0.011655081, -0.015397495, -1444750.0, -17170.39, 0.0, 9.999109, 9.99847 
3.4995323e+1, 1.6432625e+2, -1368804.0, -1382861.9, -839.57196, 0.0010774125, -0.005095363, -1368754.0, -39151.496, 0.0, 9.998512, 9.996649 
3.499482e+1, 1.7432317e+2, -1280028.8, -1289913.5, -326.84778, 0.020339284, 0.026659518, -1280018.0, -48384.527, 0.0, 9.997907, 9.996596 
3.4994167e+1, 1.8431923e+2, -1192223.6, -1208374.3, 1418.7738, 0.011390044, 0.025831258, -1192099.9, -58427.918, 0.0, 9.997708, 9.995568 
3.4993348e+1, 1.9431436e+2, -1089239.3, -1107895.9, 2344.1077, -0.03424767, -0.01895647, -1088949.3, -53230.504, 0.0, 9.998042, 9.99557 
3.4992763e+1, 2.0430906e+2, -999220.2, -1031541.25, 2267.3838, -0.055655386, -0.028437166, -999061.9, -61291.418, 0.0, 9.998263, 9.993984 
3.4992495e+1, 2.1430337e+2, -900332.44, -933513.0, 1131.7455, -0.04529267, 0.007322817, -900293.9, -60467.03, 0.0, 9.998338, 9.993944 
3.4992298e+1, 2.2429737e+2, -805123.8, -836247.4, 455.26862, -0.02040883, 0.013982905, -805117.1, -63231.375, 0.0, 9.998117, 9.993996 
3.4992182e+1, 2.3429112e+2, -715324.06, -741241.5, 1829.7155, 0.023234988, -0.018983997, -715195.5, -71249.3, 0.0, 9.997511, 9.99408 
3.4992123e+1, 2.4428383e+2, -639335.0, -685313.06, 4157.14, 0.046065856, -0.022859335, -638962.1, -92944.47, 0.0, 9.997359, 9.991276 
3.499212e+1, 2.5427532e+2, -535691.2, -585977.0, 2965.4033, 0.04147605, 0.010464531, -535516.94, -87415.07, 0.0, 9.9978, 9.991146 
3.4992e+1, 2.642664e+2, -436906.53, -489804.44, 2578.0132, 0.02769505, 0.017415687, -436781.2, -86591.8, 0.0, 9.997943, 9.990944 
3.4991714e+1, 2.7425715e+2, -341987.94, -392320.13, 3890.1733, 0.0019701133, -0.012114999, -341689.06, -89409.64, 0.0, 9.997685, 9.991026 
3.4991452e+1, 2.842468e+2, -265190.1, -334182.56, 2588.1763, -0.008238955, -0.019760352, -265093.13, -110712.766, 0.0, 9.997503, 9.9883795 
3.4991184e+1, 2.942353e+2, -168991.83, -238075.69, 288.33923, 0.002229016, 0.000515314, -168990.63, -112496.96, 0.0, 9.997417, 9.988282 
3.4990627e+1, 3.0422744e+2, -62680.906, -73729.47, -1480.5962, 0.0027114279, 0.0030985558, -62485.934, -62485.934, 0.0, 9.997571, 9.996107 
3.4989655e+1, 3.1422347e+2, -54724.1, -67950.2, 797.70715, -0.0101219, -0.02005718, -54676.164, -54676.164, 0.0, 9.998033, 9.996282 
4.4996673e+1, 1.2433529e+2, -1735625.9, -1728217.1, 1212.0918, -0.009837364, -0.009726684, -1728023.9, -6510.7397, 0.0, 9.998736, 9.999719 
4.4996235e+1, 1.3433322e+2, -1656339.9, -1659911.9, 3868.3335, -0.02250705, -0.012736086, -1653865.1, -30331.59, 0.0, 9.998358, 9.997885 
4.4995648e+1, 1.443311e+2, -1557978.6, -1558536.3, 2446.2651, -0.019417617, -0.022022827, -1555795.4, -30240.916, 0.0, 9.998242, 9.998167 
4.4994792e+1, 1.543294e+2, -1455815.5, -1457393.8, 1066.8291, -0.0077124024, -0.017477665, -1455277.8, -27706.63, 0.0, 9.998476, 9.998264 
4.4993985e+1, 1.6432701e+2, -1365315.6, -1381138.9, 617.7157, 0.0041668005, -0.004688904, -1365291.6, -35696.66, 0.0, 9.998748, 9.996651 
4.499327e+1, 1.7432387e+2, -1262705.5, -1281300.8, 393.08078, 0.01640546, 0.019209232, -1262697.1, -31070.86, 0.0, 9.999078, 9.996613 
4.4992492e+1, 1.8432002e+2, -1170689.8, -1195797.8, 2011.9464, 0.0041057863, 0.016266117, -1170529.5, -36865.598, 0.0, 9.9990835, 9.995756 
4.4991645e+1, 1.943154e+2, -1078550.1, -1100457.8, 2864.995, -0.040067222, -0.023152199, -1078181.6, -42473.508, 0.0, 9.998673, 9.99577 
4.4990999e+1, 2.0431022e+2, -999515.5, -1031732.5, 3144.702, -0.057747766, -0.030533511, -999211.44, -61452.742, 0.0, 9.998245, 9.993979 
4.499061e+1, 2.143045e+2, -908369.2, -937628.5, 4134.9443, -0.04079412, 0.0029880784, -907796.06, -67980.36, 0.0, 9.997799, 9.993925 
4.4990242e+1, 2.2429845e+2, -813798.56, -843071.4, 2598.2363, -0.013810428, 0.0167007, -813569.75, -71694.43, 0.0, 9.997639, 9.993762 
4.4989896e+1, 2.3429215e+2, -712143.6, -742510.6, -764.47125, 0.026104921, 0.002909283, -712124.4, -68187.71, 0.0, 9.99785, 9.993829 
4.498974e+1, 2.4428475e+2, -630404.7, -679143.25, 1805.3027, 0.045684308, -0.0056922636, -630337.9, -84328.86, 0.0, 9.9978895, 9.99144 
4.4989836e+1, 2.5427607e+2, -535760.6, -583811.06, 4842.8555, 0.0384092, -0.008544609, -535277.4, -87183.3, 0.0, 9.997701, 9.991342 
4.4989684e+1, 2.6426715e+2, -443432.8, -493011.5, 4309.658, 0.024093717, -0.009110561, -443060.97, -92879.81, 0.0, 9.997499, 9.990939 
4.4989187e+1, 2.7425817e+2, -348071.25, -395491.94, 2628.099, 0.00066402875, -0.0080389995, -347926.03, -95657.086, 0.0, 9.997279, 9.991005 
4.498877e+1, 2.8424796e+2, -271065.8, -335971.03, 2147.5347, -0.0043303357, -0.008349773, -270994.8, -116625.84, 0.0, 9.997056, 9.988473 
4.498843e+1, 2.9423633e+2, -176982.0, -240786.92, 4941.186, 0.015206407, -0.011943959, -176601.61, -120118.516, 0.0, 9.996821, 9.988383 
4.4987854e+1, 3.0422845e+2, -75941.8, -79174.625, 5335.9253, 0.01584203, -0.01857967, -71982.83, -71982.83, 0.0, 9.99662, 9.996192 
4.4986913e+1, 3.142247e+2, -77133.01, -77828.56, 3333.5376, -0.008867534, -0.031074602, -74129.15, -74129.15, 0.0, 9.996456, 9.996363 
5.499561e+1, 1.2433617e+2, -1730686.9, -1718055.1, -143.01234, 0.009270619, 0.014364406, -1718053.5, 3451.6184, 0.0, 9.998735, 10.000409 
5.49948e+1, 1.343345e+2, -1651232.9, -1649394.4, 2457.634, -0.0021582737, -0.017889317, -1647689.8, -24169.174, 0.0, 9.998357, 9.9986 
5.499404e+1, 1.4433259e+2, -1559937.0, -1562530.3, 3182.044, -0.0042430055, -0.034113396, -1557797.6, -32258.19, 0.0, 9.998241, 9.997896 
5.4993266e+1, 1.5433078e+2, -1458277.4, -1462436.3, 1974.6738, -0.008155375, -0.0064925067, -1457489.1, -29931.494, 0.0, 9.998475, 9.997922 
5.4992557e+1, 1.6432813e+2, -1366037.6, -1382628.6, 1848.1388, -0.01342163, 0.0028694083, -1365834.3, -36250.168, 0.0, 9.998749, 9.99655 
5.4991984e+1, 1.7432453e+2, -1263295.1, -1282531.8, 1656.4905, -0.020205248, -0.011105497, -1263153.5, -31534.205, 0.0, 9.999079, 9.996529 
5.4991376e+1, 1.8432067e+2, -1169475.8, -1193315.1, 651.38605, -0.015645701, -0.0155673, -1169458.0, -35801.33, 0.0, 9.999084, 9.995925 
5.4990757e+1, 1.9431672e+2, -1077208.1, -1097713.4, 1322.5541, 0.0035860564, -0.009239159, -1077123.3, -41427.973, 0.0, 9.998674, 9.995956 
5.498999e+1, 2.0431185e+2, -997632.6, -1027871.9, 1467.3757, 0.016901057, -0.008468521, -997561.6, -59818.688, 0.0, 9.998247, 9.994242 
5.4989046e+1, 2.1430597e+2, -906460.6, -933697.2, 2452.563, 0.022478772, -0.01588577, -906241.5, -66440.69, 0.0, 9.9978, 9.994192 
5.498819e+1, 2.2429967e+2, -819478.7, -854801.5, 3232.095, 0.016874459, -0.0031275225, -819185.4, -77322.445, 0.0, 9.997639, 9.992962 
5.498745e+1, 2.3429301e+2, -718377.75, -755405.8, 39.871548, -0.0033258852, 0.034569994, -718377.7, -74448.836, 0.0, 9.99785, 9.992949 
5.498702e+1, 2.4428545e+2, -625899.56, -669851.8, 1186.8319, -0.015762882, 0.02774263, -625867.56, -79864.78, 0.0, 9.99789, 9.992073 
5.498698e+1, 2.5427687e+2, -530458.8, -572842.75, 4117.072, -0.017917348, -0.038865473, -530062.6, -81977.27, 0.0, 9.997701, 9.99209 
5.498681e+1, 2.642681e+2, -445710.6, -497719.7, 3489.8118, -0.013337678, -0.051604934, -445477.47, -95306.63, 0.0, 9.997499, 9.990618 
5.498646e+1, 2.7425927e+2, -350933.2, -401424.53, 1791.5629, 0.000081890175, 0.0056326976, -350869.72, -98611.4, 0.0, 9.997279, 9.990599 
5.498606e+1, 2.842493e+2, -266185.75, -325851.72, 1266.3988, 0.018683586, 0.01830393, -266158.88, -111802.61, 0.0, 9.997056, 9.989164 
5.498554e+1, 2.9423797e+2, -171495.61, -229389.34, 4048.9558, 0.044085037, -0.030155465, -171213.8, -114747.836, 0.0, 9.99682, 9.989163 
5.4984754e+1, 3.0423018e+2, -78765.01, -85014.79, 4710.6274, 0.043711446, -0.053978957, -76237.02, -76237.02, 0.0, 9.99662, 9.995791 
5.4983544e+1, 3.1422612e+2, -80661.41, -85122.805, 2709.1035, 0.008955258, -0.04607382, -79382.8, -79382.8, 0.0, 9.996455, 9.995863 
6.4994097e+1, 1.2433628e+2, -1731925.9, -1711769.9, -5088.792, 0.0038499427, 0.018578146, -1710557.9, 10946.207, 0.0, 9.998353, 10.001021 
6.4993167e+1, 1.3433519e+2, -1646137.0, -1639768.9, -3107.8037, -0.0029324132, -0.019923134, -1638503.6, -14989.929, 0.0, 9.998393, 9.999235 
6.4992404e+1, 1.4433365e+2, -1556296.4, -1559836.4, -309.56595, -0.0023783746, -0.035033725, -1556269.5, -30740.777, 0.0, 9.998449, 9.997978 
6.4991766e+1, 1.5433203e+2, -1457112.5, -1461396.4, 1474.4214, -0.00852166, 0.005986714, -1456654.1, -29108.645, 0.0, 9.998534, 9.997964 
6.499115e+1, 1.643294e+2, -1369195.3, -1383284.4, 3208.2703, -0.016651984, 0.0122018745, -1368499.1, -38927.55, 0.0, 9.998496, 9.996628 
6.499061e+1, 1.7432564e+2, -1274071.1, -1286867.8, 4256.7627, -0.02702595, -0.026437242, -1272784.5, -41176.63, 0.0, 9.998306, 9.996609 
6.498994e+1, 1.8432176e+2, -1185003.9, -1202089.0, 1486.5774, -0.017098514, -0.033256624, -1184875.5, -51229.906, 0.0, 9.99808, 9.995815 
6.498916e+1, 1.9431794e+2, -1090751.1, -1105673.8, -271.64752, 0.019065231, -0.00024740596, -1090746.1, -55062.83, 0.0, 9.997812, 9.995833 
6.4988214e+1, 2.0431319e+2, -1002481.7, -1026867.6, -381.1543, 0.03831512, 0.005214606, -1002475.75, -64745.844, 0.0, 9.997771, 9.99454 
6.4987093e+1, 2.143074e+2, -900758.75, -927238.5, 1136.3336, 0.035494633, -0.026185617, -900710.06, -60923.664, 0.0, 9.99803, 9.994521 
6.498611e+1, 2.2430101e+2, -814331.2, -856947.8, 4294.8647, 0.017220264, -0.02114525, -813902.6, -72053.38, 0.0, 9.998191, 9.992548 
6.498531e+1, 2.3429403e+2, -716242.4, -759639.1, 4262.2397, -0.021172268, 0.030184714, -715827.7, -71908.91, 0.0, 9.998224, 9.992478 
6.4984757e+1, 2.4428636e+2, -621893.44, -665002.2, 4161.719, -0.038260903, 0.028148126, -621495.3, -75501.75, 0.0, 9.998039, 9.992332 
6.498451e+1, 2.5427803e+2, -530203.25, -569186.06, 3694.0715, -0.02728214, -0.045342136, -529856.25, -81782.7, 0.0, 9.997566, 9.992405 
6.4984304e+1, 2.6426935e+2, -447549.94, -501223.9, 3175.8945, -0.013385708, -0.05711892, -447362.7, -97204.26, 0.0, 9.997486, 9.990384 
6.49841e+1, 2.7426037e+2, -343513.66, -400943.63, 2557.2744, 0.0042202123, 0.011422175, -343400.0, -91152.06, 0.0, 9.997921, 9.990322 
6.498367e+1, 2.842505e+2, -247194.55, -311306.38, 835.6841, 0.021719834, 0.027010342, -247183.66, -92838.64, 0.0, 9.998126, 9.989644 
6.498291e+1, 2.942396e+2, -150286.72, -213104.94, 1712.876, 0.03899048, -0.029771134, -150240.05, -93790.08, 0.0, 9.9980135, 9.989703 
6.49819e+1, 3.0423188e+2, -66678.85, -84612.01, 339.08643, 0.043612864, -0.05384107, -66672.44, -66672.44, 0.0, 9.997682, 9.995307 
6.4980525e+1, 3.1422734e+2, -76006.56, -89261.52, -2281.712, 0.031455748, -0.03527931, -75624.78, -75624.78, 0.0, 9.997048, 9.995294 
7.4992144e+1, 1.2433561e+2, -1728111.0, -1703876.1, -4931.681, -0.026337022, 0.0028966975, -1702911.0, 18599.42, 0.0, 9.99835, 10.001559 
7.4991333e+1, 1.3433525e+2, -1642158.6, -1631565.0, -2933.236, -0.025000844, -0.018881436, -1630807.0, -7293.7803, 0.0, 9.998392, 9.999793 
7.499074e+1, 1.443343e+2, -1553188.5, -1553431.9, 7.561024, -0.013967217, -0.024839608, -1553188.4, -27665.78, 0.0, 9.998448, 9.998413 
7.4990296e+1, 1.5433316e+2, -1454069.0, -1455126.3, 1819.2372, -0.008892947, 0.020016413, -1452703.1, -25168.6, 0.0, 9.998533, 9.99839 
7.4989754e+1, 1.6433084e+2, -1367351.4, -1379478.5, 2569.059, -0.005503586, 0.023373079, -1366829.6, -37272.223, 0.0, 9.998496, 9.996886 
7.4989146e+1, 1.743272e+2, -1272326.3, -1283258.8, 3557.3013, -0.003982895, -0.026759773, -1271270.6, -39678.45, 0.0, 9.998305, 9.996855 
7.498819e+1, 1.8432324e+2, -1187786.8, -1207800.6, 504.1316, -0.00030299183, -0.036785107, -1187774.0, -54143.285, 0.0, 9.998079, 9.995426 
7.498684e+1, 1.9431905e+2, -1093856.3, -1112059.6, -1270.7588, 0.0061332067, 0.0038104332, -1093768.0, -58095.53, 0.0, 9.997811, 9.9953985 
7.4985665e+1, 2.0431426e+2, -1000083.25, -1021923.8, 467.014, 0.0061444873, 0.01053137, -1000073.3, -62353.598, 0.0, 9.997772, 9.994877 
7.498474e+1, 2.1430878e+2, -897959.94, -921479.56, 2123.2952, -0.0021857223, -0.027846742, -897769.8, -57997.348, 0.0, 9.998031, 9.994913 
7.4983996e+1, 2.2430244e+2, -814504.4, -857324.1, 4479.5327, -0.013113349, -0.037382163, -814040.8, -72206.47, 0.0, 9.998192, 9.992522 
7.498348e+1, 2.3429514e+2, -716642.75, -760479.94, 4387.7266, -0.027429407, -0.010502002, -716207.9, -72301.39, 0.0, 9.998225, 9.99242 
7.4982965e+1, 2.4428749e+2, -622713.4, -666705.9, 2507.3376, -0.021653146, -0.004694583, -622570.94, -76589.336, 0.0, 9.99804, 9.992215 
7.498246e+1, 2.5427955e+2, -531061.8, -570968.1, 1894.8217, 0.010459062, -0.02787902, -530972.0, -82913.21, 0.0, 9.997566, 9.992283 
7.498216e+1, 2.6427087e+2, -448558.7, -503320.56, 4580.5537, 0.024006492, -0.02551276, -448178.2, -98034.18, 0.0, 9.997487, 9.990241 
7.4982107e+1, 2.7426142e+2, -344522.53, -403067.7, 4205.763, 0.012954476, 0.009330467, -344221.94, -91984.02, 0.0, 9.997923, 9.990176 
7.498163e+1, 2.8425148e+2, -245289.6, -307407.5, 564.3694, 0.0044992277, 0.017717369, -245284.47, -90949.164, 0.0, 9.998128, 9.989909 
7.498053e+1, 2.9424122e+2, -148157.98, -208740.58, 1272.3778, -0.0003726761, -0.010676628, -148131.28, -91696.09, 0.0, 9.998016, 9.990001 
7.49793e+1, 3.0423355e+2, -70649.305, -92908.55, -1910.4927, 0.015277909, -0.017964017, -70486.516, -70486.516, 0.0, 9.9976845, 9.994737 
7.4977845e+1, 3.142284e+2, -80493.24, -98621.875, -4703.7744, 0.058489207, 0.0015507677, -79345.44, -79345.44, 0.0, 9.997051, 9.99465 
8.499026e+1, 1.24336496e+2, -1733990.5, -1708967.0, 8929.261, -0.034903932, -0.030114977, -1706107.5, 15393.465, 0.0, 9.998047, 10.001361 
8.4989774e+1, 1.3433631e+2, -1641396.3, -1633598.3, 5147.447, -0.02811149, -0.013651548, -1631039.8, -7536.9893, 0.0, 9.998548, 9.999579 
8.4989333e+1, 1.4433531e+2, -1549213.6, -1551538.6, 2179.4153, -0.0128261745, -0.012048552, -1547906.1, -22393.4, 0.0, 9.998721, 9.998409 
8.498882e+1, 1.543339e+2, -1454835.6, -1455393.0, 754.51184, -0.0065721762, 0.006297669, -1454310.0, -26783.139, 0.0, 9.998477, 9.9984 
8.4988135e+1, 1.6433169e+2, -1370125.3, -1377622.8, -830.02496, -0.0005773031, 0.005867844, -1370034.5, -40485.88, 0.0, 9.998169, 9.997171 
8.498728e+1, 1.7432861e+2, -1277826.8, -1282514.9, 556.52356, 0.0054425388, -0.01854204, -1277761.6, -46183.414, 0.0, 9.997784, 9.997159 
8.498616e+1, 1.8432483e+2, -1192688.1, -1211070.5, 263.7046, 0.0033731738, -0.023989847, -1192684.4, -59069.22, 0.0, 9.997785, 9.995347 
8.498473e+1, 1.943203e+2, -1087626.5, -1110247.6, 1068.0221, -0.009264629, -0.006266926, -1087576.3, -51916.16, 0.0, 9.998289, 9.99529 
8.498359e+1, 2.043154e+2, -989435.94, -1017481.5, 2570.3723, -0.01646408, -0.0010560579, -989202.3, -51493.965, 0.0, 9.998529, 9.994812 
8.4982824e+1, 2.1431014e+2, -892586.8, -919569.2, 801.70636, -0.016537616, -0.013135171, -892563.0, -52803.645, 0.0, 9.998427, 9.994851 
8.4982157e+1, 2.2430381e+2, -813817.5, -855425.3, 892.8685, -0.015418616, -0.024066307, -813798.3, -71977.38, 0.0, 9.998172, 9.9926605 
8.498159e+1, 2.3429629e+2, -723003.44, -761831.3, 2320.9094, -0.012813833, -0.034794237, -722865.2, -78970.54, 0.0, 9.997717, 9.992574 
8.498097e+1, 2.4428867e+2, -631180.0, -671946.6, 1477.7168, 0.0010574812, -0.0301445, -631126.5, -85156.94, 0.0, 9.997511, 9.992113 
8.498025e+1, 2.5428107e+2, -530987.6, -572306.25, 872.1133, 0.029700872, -0.006521618, -530969.2, -82924.83, 0.0, 9.997631, 9.99216 
8.49798e+1, 2.6427242e+2, -447317.66, -501799.1, 5058.6104, 0.0371627, 0.0025444357, -446851.94, -96722.61, 0.0, 9.997533, 9.990322 
8.4979683e+1, 2.7426258e+2, -355279.75, -407171.28, 6571.584, 0.016579922, -0.009066977, -354460.47, -102234.586, 0.0, 9.99714, 9.9902725 
8.497921e+1, 2.842524e+2, -263913.88, -321840.2, 1711.3645, 0.0015788004, -0.010100295, -263863.34, -109537.53, 0.0, 9.9970875, 9.989424 
8.497822e+1, 2.9424196e+2, -159726.69, -220296.48, -3826.16, -0.005892559, 0.0016503239, -159485.95, -103057.82, 0.0, 9.997481, 9.989468 
8.497702e+1, 3.0423433e+2, -66033.125, -88806.26, -8540.399, 0.0069464627, 0.013338889, -63186.2, -63186.2, 0.0, 9.99792, 9.994905 
8.497546e+1, 3.1422928e+2, -59100.402, -85797.36, -4878.9404, 0.047137327, 0.023291387, -58236.707, -58236.707, 0.0, 9.998409, 9.994876 
9.4988436e+1, 1.243389e+2, -1740775.1, -1722783.1, 10780.505, -0.022115598, -0.080546916, -1717738.1, 3737.6272, 0.0, 9.998043, 10.000424 
9.498848e+1, 1.3433833e+2, -1648525.8, -1648175.4, 7078.357, -0.012222281, -0.0042048115, -1641270.0, -17787.598, 0.0, 9.998546, 9.9985895 
9.49882e+1, 1.4433666e+2, -1552437.4, -1558114.9, 1458.0471, 0.0010439724, 0.0033874467, -1552084.8, -26585.494, 0.0, 9.998719, 9.997963 
9.498735e+1, 1.5433428e+2, -1457790.9, -1461426.6, -141.72728, -0.0016672906, -0.03531544, -1457785.4, -30262.854, 0.0, 9.998476, 9.99799 
9.498629e+1, 1.6433194e+2, -1367913.4, -1373043.9, -2232.612, -0.0020044777, -0.040446382, -1367077.9, -37532.527, 0.0, 9.998167, 9.997483 
9.4985026e+1, 1.7432985e+2, -1275244.5, -1277181.5, -873.3095, 0.0011300158, -0.0017516847, -1274908.9, -43342.84, 0.0, 9.997783, 9.997521 
9.4983846e+1, 1.8432651e+2, -1191040.0, -1207675.5, 1966.1041, -0.00620738, 0.0052105347, -1190810.8, -57211.805, 0.0, 9.997785, 9.995578 
9.498284e+1, 1.9432168e+2, -1086044.5, -1107006.6, 3002.4312, -0.027202303, -0.030577093, -1085622.9, -49976.668, 0.0, 9.99829, 9.99551 
9.4981986e+1, 2.043166e+2, -992751.3, -1024348.4, 2344.3748, -0.029508049, -0.029695665, -992578.3, -54882.33, 0.0, 9.998531, 9.994343 
9.498135e+1, 2.1431142e+2, -896257.06, -927172.6, 412.8658, -0.007494578, 0.018044112, -896251.56, -56504.234, 0.0, 9.998429, 9.994331 
9.4980586e+1, 2.2430508e+2, -811623.56, -850910.9, -747.6756, 0.010358619, 0.019029593, -811609.4, -69800.09, 0.0, 9.998173, 9.992968 
9.497966e+1, 2.3429742e+2, -720397.2, -756434.4, 591.0273, 0.022692975, -0.042568486, -720387.5, -76504.13, 0.0, 9.997717, 9.992943 
9.497877e+1, 2.4428985e+2, -631814.2, -673245.44, 1782.3511, 0.029838327, -0.04814592, -631737.6, -85780.0, 0.0, 9.997511, 9.992024 
9.497789e+1, 2.5428256e+2, -531858.3, -574113.6, 1325.5233, 0.030209858, 0.018763348, -531816.75, -83786.42, 0.0, 9.997632, 9.992036 
9.4977224e+1, 2.64274e+2, -445119.06, -497258.94, 3699.579, 0.025725441, 0.027031088, -444857.88, -94743.4, 0.0, 9.997534, 9.990632 
9.4976807e+1, 2.742639e+2, -352877.3, -402165.03, 5068.4023, 0.0149347605, -0.043881573, -352361.5, -100149.57, 0.0, 9.997139, 9.990615 
9.497641e+1, 2.842532e+2, -272703.1, -340025.7, 2985.2976, 0.0129856095, -0.056544743, -272570.97, -118254.27, 0.0, 9.997086, 9.988181 
9.497599e+1, 2.9424194e+2, -169390.66, -240326.64, -2351.2476, 0.022645248, 0.0070921867, -169312.81, -112883.836, 0.0, 9.99748, 9.988097 
9.497506e+1, 3.0423415e+2, -59616.37, -75508.93, -6715.181, 0.018724877, 0.04005244, -57158.95, -57158.95, 0.0, 9.997922, 9.995816 
9.4973373e+1, 3.1423005e+2, -51313.27, -69740.44, -3029.8018, -0.0031516794, 0.029838782, -50827.895, -50827.895, 0.0, 9.998415, 9.995974 
1.0498731e+2, 1.24341376e+2, -1721643.5, -1719831.3, 4949.6665, -0.017376035, -0.063146785, -1715705.5, 5746.383, 0.0, 9.999618, 9.999858 
1.0498704e+2, 1.343401e+2, -1653168.4, -1657176.8, 4117.12, -0.009668113, 0.0029235766, -1650593.5, -27128.262, 0.0, 9.998522, 9.997991 
1.04986496e+2, 1.4433795e+2, -1565702.1, -1565725.1, 1741.9319, 0.0021767837, -0.001165922, -1563971.6, -38484.996, 0.0, 9.997868, 9.997861 
1.0498548e+2, 1.5433541e+2, -1468379.8, -1467349.9, 2767.955, -0.0017634481, -0.04923464, -1465049.4, -37538.285, 0.0, 9.997789, 9.997921 
1.0498437e+2, 1.6433302e+2, -1370201.1, -1374421.5, 1880.6273, -0.0031448102, -0.053052716, -1369484.6, -39950.36, 0.0, 9.998024, 9.997459 
1.0498323e+2, 1.7433107e+2, -1262460.0, -1271203.6, 425.8792, -0.00077501516, 0.0006638484, -1262439.4, -30885.316, 0.0, 9.998664, 9.9975 
1.0498219e+2, 1.843278e+2, -1173877.6, -1198023.4, 1240.2081, -0.006058839, 0.010101765, -1173814.1, -40227.77, 0.0, 9.998898, 9.995694 
1.04981355e+2, 1.9432294e+2, -1080488.8, -1102890.0, 1569.7102, -0.021396777, -0.039558426, -1080379.4, -44746.027, 0.0, 9.998608, 9.995636 
1.0498044e+2, 2.0431781e+2, -999817.8, -1030984.1, -408.08582, -0.020672278, -0.039226055, -999812.44, -62128.637, 0.0, 9.998189, 9.994057 
1.0497945e+2, 2.1431246e+2, -910594.25, -937673.75, -917.57, 0.0009804326, 0.025376352, -910563.2, -70826.07, 0.0, 9.997605, 9.994015 
1.0497845e+2, 2.2430612e+2, -821254.2, -852938.1, -586.88617, 0.017903076, 0.029335482, -821243.3, -79443.836, 0.0, 9.997402, 9.993202 
1.0497742e+2, 2.3429857e+2, -718781.44, -752565.6, 121.53739, 0.028520767, -0.047519118, -718781.0, -74909.016, 0.0, 9.997694, 9.9932165 
1.0497653e+2, 2.4429104e+2, -625648.56, -672400.94, 1752.5007, 0.028909853, -0.05533422, -625582.94, -79637.14, 0.0, 9.998025, 9.991834 
1.0497576e+2, 2.5428367e+2, -522191.28, -571979.4, 602.0238, 0.015937934, 0.026382403, -522184.0, -74164.21, 0.0, 9.998403, 9.991809 
1.0497501e+2, 2.6427507e+2, -431282.38, -488413.47, -362.2542, 0.0077115675, 0.037818633, -431280.06, -81176.07, 0.0, 9.998387, 9.990824 
1.049742e+2, 2.742651e+2, -340929.7, -393881.2, -96.32028, 0.0058693653, -0.045291316, -340929.53, -88729.53, 0.0, 9.997849, 9.990839 
1.0497366e+2, 2.8425437e+2, -270177.63, -341249.94, 2554.1218, 0.015039753, -0.06543891, -270085.97, -115780.91, 0.0, 9.997364, 9.987963 
1.0497337e+2, 2.9424283e+2, -178958.22, -247794.55, 5769.8804, 0.03861529, -0.0030463005, -178477.94, -122057.91, 0.0, 9.996947, 9.987843 
1.04972556e+2, 3.0423504e+2, -72370.3, -77939.164, 5540.705, 0.028111616, 0.029229207, -68953.73, -68953.73, 0.0, 9.996886, 9.996148 
1.0497098e+2, 3.142313e+2, -64980.48, -72081.62, 3931.0227, -0.027819606, 0.018924223, -63233.93, -63233.93, 0.0, 9.997294, 9.996353 
1.1498689e+2, 1.243439e+2, -1723135.5, -1722825.3, 1023.8117, -0.021077892, 0.022472503, -1721944.9, -515.675, 0.0, 9.999616, 9.999655 
1.1498545e+2, 1.343416e+2, -1654741.1, -1660324.6, -4.383982, -0.020548597, 0.007689282, -1654741.1, -31289.617, 0.0, 9.998519, 9.997778 
1.14984244e+2, 1.4433916e+2, -1564008.6, -1562159.3, 1221.4415, -0.00955821, -0.02585635, -1561552.0, -36077.008, 0.0, 9.997864, 9.998104 
1.1498322e+2, 1.5433727e+2, -1466447.1, -1463316.3, 2521.7898, -0.006984224, -0.035294782, -1461913.5, -34420.715, 0.0, 9.997787, 9.998197 
1.1498239e+2, 1.6433495e+2, -1372804.9, -1379750.1, 4160.738, -0.0040783156, -0.03175853, -1370858.0, -41342.57, 0.0, 9.998023, 9.997097 
1.149819e+2, 1.7433226e+2, -1265365.6, -1277202.6, 2884.399, -0.00038071888, -0.01138136, -1264700.3, -33157.86, 0.0, 9.998665, 9.997091 
1.149812e+2, 1.8432868e+2, -1173828.3, -1197964.3, 385.89697, 0.0036997905, -0.009453652, -1173822.1, -40244.633, 0.0, 9.998899, 9.995697 
1.1498026e+2, 1.943241e+2, -1080245.0, -1102404.3, 481.0982, 0.008162941, -0.03310239, -1080234.6, -44613.023, 0.0, 9.998609, 9.995668 
1.1497893e+2, 2.0431899e+2, -1000548.8, -1032487.6, -2536.4634, 0.010083249, -0.029524338, -1000348.6, -62676.594, 0.0, 9.998189, 9.993954 
1.14977136e+2, 2.1431328e+2, -911410.44, -939336.0, -3122.1592, 0.008770698, 0.008570984, -911065.6, -71336.586, 0.0, 9.997604, 9.993901 
1.14975736e+2, 2.2430687e+2, -820118.9, -850561.4, 298.00272, 0.0068845884, 0.006508992, -820116.0, -78324.195, 0.0, 9.997401, 9.993365 
1.1497488e+2, 2.3429972e+2, -717487.6, -749894.94, 1235.1019, 0.004269257, -0.049551476, -717440.6, -73580.09, 0.0, 9.997695, 9.993399 
1.14974245e+2, 2.4429218e+2, -627711.06, -676699.25, 3154.1003, -0.0020980686, -0.051585738, -627508.8, -81574.516, 0.0, 9.998027, 9.991539 
1.1497388e+2, 2.5428435e+2, -524501.0, -576809.9, 2018.6427, -0.013381489, 0.016155416, -524423.25, -76410.29, 0.0, 9.998405, 9.991478 
1.1497314e+2, 2.6427573e+2, -430726.03, -487313.3, -2172.3296, -0.017104724, 0.034817033, -430642.78, -80544.63, 0.0, 9.99839, 9.990897 
1.1497189e+2, 2.7426618e+2, -340163.28, -392336.84, -2165.3408, -0.010831352, -0.012992302, -340073.56, -87883.36, 0.0, 9.997851, 9.990943 
1.14970945e+2, 2.8425583e+2, -264396.25, -329282.3, 927.8863, 0.007533076, -0.036499523, -264382.97, -110091.98, 0.0, 9.997365, 9.98878 
1.1497034e+2, 2.9424462e+2, -172816.55, -235031.06, 4190.9536, 0.041823577, -0.028816922, -172535.5, -116134.195, 0.0, 9.996947, 9.988716 
1.14969514e+2, 3.04237e+2, -74179.77, -81667.05, 6872.649, 0.034918454, -0.01945626, -70097.29, -70097.29, 0.0, 9.996886, 9.995893 
1.14968285e+2, 3.142331e+2, -67453.54, -77190.766, 5472.531, -0.026917327, -0.009768047, -64997.402, -64997.402, 0.0, 9.997294, 9.996002 
1.24986e+2, 1.24344245e+2, -1738889.9, -1724766.4, -12528.782, -0.005569098, 0.050333846, -1717446.3, 3980.59, 0.0, 9.998298, 10.000167 
1.2498408e+2, 1.343422e+2, -1648581.5, -1651350.1, -8005.6543, -0.017483838, 0.007279796, -1641841.4, -18395.244, 0.0, 9.998678, 9.99831 
1.24982595e+2, 1.4434004e+2, -1546833.3, -1551621.5, -2648.2253, -0.014083346, -0.034583475, -1545657.4, -20190.926, 0.0, 9.998937, 9.998298 
1.2498156e+2, 1.5433854e+2, -1446809.9, -1451879.0, -2050.4817, -0.014240859, -0.022393294, -1446084.3, -18603.701, 0.0, 9.999041, 9.998364 
1.249807e+2, 1.6433631e+2, -1362311.4, -1375652.8, -80.39563, -0.012449915, -0.014389428, -1362310.9, -32808.56, 0.0, 9.99878, 9.997007 
1.2498019e+2, 1.7433333e+2, -1275075.1, -1283151.3, 904.37274, -0.0077719125, -0.01180557, -1274975.1, -43443.168, 0.0, 9.998057, 9.996982 
1.2497944e+2, 1.8432961e+2, -1192749.4, -1207455.9, -960.82336, 0.0024877847, -0.014940946, -1192686.9, -59118.664, 0.0, 9.997624, 9.995669 
1.2497846e+2, 1.9432516e+2, -1095647.3, -1110124.5, -1295.2443, 0.019792328, -0.02706068, -1095532.3, -59920.805, 0.0, 9.99757, 9.9956455 
1.249771e+2, 2.0432003e+2, -1004115.06, -1033127.9, -2794.9045, 0.022031514, -0.02672153, -1003848.3, -66186.555, 0.0, 9.997899, 9.994051 
1.2497525e+2, 2.1431419e+2, -894293.6, -929860.5, -1655.1572, 0.0048139845, -0.011095656, -894216.75, -54497.14, 0.0, 9.998722, 9.994005 
1.249738e+2, 2.243079e+2, -796547.0, -838710.9, 1523.077, -0.006753891, -0.010563814, -796492.06, -54710.57, 0.0, 9.998992, 9.9934025 
1.2497284e+2, 2.3430113e+2, -704892.0, -743430.0, 1283.7845, -0.010896425, -0.03130477, -704849.25, -61002.27, 0.0, 9.99854, 9.99343 
1.2497214e+2, 2.4429348e+2, -630894.44, -681909.8, 2161.211, -0.011569542, -0.031011365, -630803.0, -84881.16, 0.0, 9.997969, 9.991211 
1.24971755e+2, 2.542849e+2, -544037.25, -590245.2, 815.5816, -0.0077542905, -0.0042281314, -544022.9, -96015.47, 0.0, 9.997243, 9.991122 
1.2497099e+2, 2.6427603e+2, -450245.8, -496312.47, -3099.2813, -0.004546153, 0.009916399, -450038.22, -99943.48, 0.0, 9.997036, 9.990936 
1.2496966e+2, 2.74267e+2, -344622.88, -393721.53, -3325.5854, -0.0021626975, 0.0057964185, -344398.66, -92215.81, 0.0, 9.997514, 9.991012 
1.2496857e+2, 2.8425714e+2, -251829.94, -315258.2, -986.3242, 0.008348398, -0.0058955564, -251814.6, -97535.586, 0.0, 9.997884, 9.98949 
1.2496775e+2, 2.942464e+2, -150595.17, -215792.27, 1385.907, 0.029551484, -0.028887114, -150565.73, -94181.83, 0.0, 9.998103, 9.989475 
1.24966845e+2, 3.0423877e+2, -61188.375, -80648.21, 3013.8013, 0.023642369, -0.034976993, -60732.31, -60732.31, 0.0, 9.998002, 9.995424 
1.2496575e+2, 3.1423438e+2, -68902.54, -84277.25, -53.06822, -0.018283188, -0.020081673, -68902.36, -68902.36, 0.0, 9.997469, 9.995433 
1.3498464e+2, 1.2434237e+2, -1730191.6, -1706736.0, -11124.965, 0.028819716, 0.020097448, -1702298.9, 19146.145, 0.0, 9.99829, 10.001394 
1.3498293e+2, 1.3434184e+2, -1639454.1, -1632519.4, -6529.7534, -0.00055445876, 0.0017135624, -1628593.5, -5144.113, 0.0, 9.998674, 9.99959 
1.3498157e+2, 1.4434056e+2, -1545841.9, -1549543.3, -2165.443, -0.011475031, -0.02723154, -1544844.0, -19382.66, 0.0, 9.998936, 9.99844 
1.3498051e+2, 1.5433918e+2, -1446387.6, -1451005.3, -1627.485, -0.023671033, -0.010551297, -1445871.8, -18396.973, 0.0, 9.999041, 9.998424 
1.3497932e+2, 1.6433707e+2, -1360997.8, -1372948.9, -2594.9646, -0.028380655, -0.0009476164, -1360458.6, -30963.408, 0.0, 9.998781, 9.99719 
1.3497809e+2, 1.7433426e+2, -1273732.6, -1280344.5, -1811.0195, -0.02304543, -0.0005435793, -1273269.1, -41746.03, 0.0, 9.998056, 9.997172 
1.3497694e+2, 1.8433061e+2, -1193197.4, -1208319.3, -1308.7377, -0.009880953, -0.0062701167, -1193084.9, -59526.133, 0.0, 9.9976225, 9.995611 
1.3497597e+2, 1.9432603e+2, -1096219.1, -1111258.5, -1472.9683, 0.013169737, -0.021438893, -1096076.1, -60473.06, 0.0, 9.997569, 9.995569 
1.3497493e+2, 2.0432091e+2, -1001989.2, -1028738.44, 122.571236, 0.014857654, -0.03086412, -1001988.6, -64335.457, 0.0, 9.997899, 9.9943495 
1.3497381e+2, 2.1431522e+2, -891927.56, -925061.3, 1489.6099, -0.011127574, -0.033711996, -891860.75, -52151.527, 0.0, 9.998726, 9.99433 
1.3497263e+2, 2.2430916e+2, -797100.06, -839967.1, 136.58234, -0.02319822, -0.021903219, -797099.6, -55330.836, 0.0, 9.998998, 9.993314 
1.3497134e+2, 2.3430277e+2, -705697.75, -745163.4, -444.5638, -0.01697085, 0.0074711693, -705692.75, -61861.24, 0.0, 9.998544, 9.99331 
1.3497023e+2, 2.442949e+2, -633445.2, -687188.7, -535.8629, 0.00060389575, 0.0066411784, -633439.9, -87531.11, 0.0, 9.997969, 9.99085 
1.3496941e+2, 2.5428525e+2, -546771.25, -595821.6, -1958.9888, 0.032940365, -0.03487818, -546693.1, -98689.836, 0.0, 9.997239, 9.990743 
1.3496852e+2, 2.64276e+2, -450276.53, -496289.44, -1617.9171, 0.045504697, -0.037154563, -450219.72, -100125.63, 0.0, 9.997033, 9.990939 
1.3496752e+2, 2.7426752e+2, -344404.97, -393252.88, -1521.2267, 0.03197007, 0.010898556, -344357.63, -92179.51, 0.0, 9.997513, 9.991043 
1.3496655e+2, 2.8425825e+2, -247573.45, -306474.3, -95.35752, 0.017405406, 0.026412329, -247573.3, -93303.984, 0.0, 9.997886, 9.990089 
1.3496557e+2, 2.9424807e+2, -145999.53, -206353.86, 2194.141, 0.0015623887, -0.0029582637, -145919.88, -89551.84, 0.0, 9.998108, 9.990119 
1.3496456e+2, 3.042404e+2, -65922.375, -90591.414, 1174.0092, -0.00598153, -0.016928677, -65866.625, -65866.625, 0.0, 9.998008, 9.99474 
1.3496338e+2, 3.1423512e+2, -74441.72, -95842.23, -2128.3743, -0.0022031658, -0.0117947655, -74232.09, -74232.09, 0.0, 9.997473, 9.9946375 
1.449824e+2, 1.2434209e+2, -1745251.9, -1712728.5, 3790.8806, 0.02897753, -0.027223403, -1712292.5, 9153.843, 0.0, 9.997208, 10.001514 
1.4498118e+2, 1.3434212e+2, -1652609.1, -1637503.0, -265.73666, 0.004723691, -0.0035563828, -1637498.3, -14052.191, 0.0, 9.997719, 9.999718 
1.4498018e+2, 1.4434117e+2, -1555852.1, -1551619.4, -1058.3215, -0.0033484783, -0.017921679, -1551369.5, -25914.326, 0.0, 9.998135, 9.998689 
1.4497933e+2, 1.543399e+2, -1453554.3, -1451623.3, 882.4855, -0.015744008, -0.014297221, -1451280.8, -23813.354, 0.0, 9.998429, 9.998679 
1.4497808e+2, 1.643378e+2, -1364846.4, -1377166.4, -2562.6255, -0.02371412, -0.009715805, -1364334.6, -34846.55, 0.0, 9.998621, 9.996982 
1.4497644e+2, 1.743348e+2, -1266250.1, -1279428.9, -5181.3228, -0.025582362, -0.0039203563, -1264457.0, -32939.113, 0.0, 9.998684, 9.99693 
1.4497495e+2, 1.843312e+2, -1177546.5, -1197929.5, -4868.2456, -0.018546842, -0.0030151804, -1176443.4, -42890.15, 0.0, 9.998568, 9.995859 
1.4497373e+2, 1.9432698e+2, -1084573.3, -1102437.6, -2285.7068, -0.00022099918, -0.010030433, -1084285.5, -48691.33, 0.0, 9.998226, 9.995851 
1.4497274e+2, 2.04322e+2, -1001095.1, -1028002.7, 1624.6204, 0.005084535, -0.021736803, -1000997.4, -63354.617, 0.0, 9.997948, 9.994375 
1.449721e+2, 2.1431616e+2, -906117.8, -931854.44, 737.6071, -0.0065202196, -0.040389538, -906096.7, -66396.82, 0.0, 9.997755, 9.994338 
1.4497112e+2, 2.2431001e+2, -816980.8, -852013.75, -3870.296, -0.011464041, -0.026924647, -816558.4, -74798.016, 0.0, 9.9977455, 9.993098 
1.4496969e+2, 2.3430364e+2, -715713.2, -752613.9, -5413.2007, -0.0076064616, 0.026876723, -714935.5, -71111.87, 0.0, 9.9979725, 9.993078 
1.449683e+2, 2.4429578e+2, -630251.06, -682099.7, -4715.3877, 0.00712725, 0.02552711, -629825.7, -83925.07, 0.0, 9.9980345, 9.991165 
1.4496699e+2, 2.5428614e+2, -534883.44, -586080.6, -665.50867, 0.036050394, -0.049299143, -534874.8, -86880.84, 0.0, 9.997881, 9.991097 
1.4496586e+2, 2.642769e+2, -443933.78, -495804.25, 3391.6323, 0.047913473, -0.06167668, -443712.97, -93628.336, 0.0, 9.997579, 9.990708 
1.4496486e+2, 2.7426833e+2, -352639.34, -400326.63, 1285.8839, 0.03722958, 0.00699034, -352604.7, -100434.74, 0.0, 9.997084, 9.9907675 
1.44964e+2, 2.8425893e+2, -263588.84, -316886.9, -652.27625, 0.020771217, 0.035294402, -263580.88, -109318.05, 0.0, 9.996904, 9.98985 
1.4496315e+2, 2.9424852e+2, -161743.1, -216608.69, -4974.3613, -0.003304205, 0.008109865, -161295.75, -104932.01, 0.0, 9.997144, 9.9898815 
1.4496225e+2, 3.0424076e+2, -74086.55, -94015.87, -8187.5977, -0.007565673, -0.007548137, -71154.266, -71154.266, 0.0, 9.997426, 9.994785 
1.4496116e+2, 3.1423545e+2, -69812.71, -92856.22, -5093.609, 0.014889945, -0.009194708, -68737.02, -68737.02, 0.0, 9.997758, 9.994705 
1.5497924e+2, 1.2434342e+2, -1752573.5, -1727504.1, 5704.991, -0.0056553506, -0.09159849, -1726266.9, -4836.0483, 0.0, 9.997199, 10.000515 
1.5497884e+2, 1.3434298e+2, -1660163.0, -1652823.8, 1712.9484, -0.0019053125, -0.008503026, -1652443.6, -29007.227, 0.0, 9.997712, 9.99868 
1.5497845e+2, 1.4434183e+2, -1553383.8, -1546407.6, 138.83932, 0.010214636, -0.006657593, -1546404.9, -20956.523, 0.0, 9.998129, 9.999045 
1.5497799e+2, 1.543407e+2, -1450378.5, -1444988.0, 2039.8032, 0.009573298, -0.033788696, -1444303.1, -16844.28, 0.0, 9.9984255, 9.999131 
1.5497696e+2, 1.6433844e+2, -1369212.6, -1386083.3, -2225.7954, 0.0015865759, -0.040911715, -1368923.9, -39442.824, 0.0, 9.998619, 9.996376 
1.5497522e+2, 1.7433488e+2, -1271103.0, -1289425.0, -4906.9385, -0.015396685, -0.022056868, -1269871.6, -38354.77, 0.0, 9.998685, 9.996249 
1.5497346e+2, 1.8433134e+2, -1173539.8, -1189731.9, -6043.547, -0.023631359, -0.005201491, -1171532.8, -37980.805, 0.0, 9.998571, 9.996416 
1.5497175e+2, 1.9432797e+2, -1079944.9, -1092951.9, -3553.844, -0.020673212, 0.0071950397, -1079037.1, -43452.375, 0.0, 9.998229, 9.996495 
1.5497057e+2, 2.0432326e+2, -1002849.8, -1031650.94, 866.6504, -0.0075611915, 0.00081536866, -1002823.75, -65193.09, 0.0, 9.99795, 9.994125 
1.5497011e+2, 2.1431698e+2, -908380.94, -936476.6, 4.204851, 0.01869942, -0.030903395, -908380.94, -68688.945, 0.0, 9.997753, 9.994023 
1.5496927e+2, 2.2431044e+2, -819458.56, -857049.6, -3117.546, 0.02860867, -0.02556683, -819201.75, -77445.234, 0.0, 9.997743, 9.992756 
1.5496789e+2, 2.343037e+2, -718185.8, -757682.3, -4556.6367, 0.01725842, 0.026630038, -717666.94, -73843.27, 0.0, 9.997972, 9.992732 
1.5496634e+2, 2.4429612e+2, -623157.1, -667432.94, -5207.539, 0.007762697, 0.025374586, -622552.9, -76655.06, 0.0, 9.998035, 9.992166 
1.5496452e+2, 2.542876e+2, -527051.4, -569934.56, -1245.0009, 0.0008369124, -0.04728902, -527015.25, -79035.73, 0.0, 9.997884, 9.992198 
1.5496297e+2, 2.6427868e+2, -447192.78, -502622.4, 1600.1871, 0.0017682123, -0.06331354, -447146.63, -97080.16, 0.0, 9.997582, 9.99024 
1.549617e+2, 2.7426943e+2, -356804.03, -408946.13, -615.0637, 0.012999537, -0.00601502, -356796.78, -104638.25, 0.0, 9.997084, 9.990177 
1.5496086e+2, 2.842592e+2, -271313.6, -332839.38, 25.333527, 0.01818286, 0.0204369, -271313.6, -117053.76, 0.0, 9.996902, 9.98876 
1.5496048e+2, 2.9424778e+2, -169750.13, -233153.14, -4116.982, 0.015198852, 0.0040686675, -169483.9, -113112.47, 0.0, 9.997142, 9.98875 
1.5495995e+2, 3.0423978e+2, -68580.27, -82563.82, -6995.199, 0.019156339, -0.0069932737, -65681.766, -65681.766, 0.0, 9.997426, 9.99557 
1.5495911e+2, 3.142354e+2, -63148.215, -79102.78, -3861.0708, 0.03272205, -0.012303988, -62262.94, -62262.94, 0.0, 9.997763, 9.9956455 
1.6497758e+2, 1.24345206e+2, -1715951.6, -1716433.3, 3378.338, -0.031283304, -0.08515257, -1712805.5, 8607.451, 0.0, 9.999979, 9.999912 
1.6497715e+2, 1.3434404e+2, -1642011.5, -1651024.1, 2446.037, -0.018359175, -0.014385616, -1641390.4, -17964.521, 0.0, 9.999249, 9.998054 
1.6497666e+2, 1.4434253e+2, -1548513.0, -1543555.0, 698.38745, 0.0031476475, -0.015327315, -1543458.5, -18017.172, 0.0, 9.998439, 9.999088 
1.6497602e+2, 1.5434164e+2, -1463003.9, -1450142.3, -204.5461, 0.01365519, -0.02687253, -1450139.0, -22689.443, 0.0, 9.997523, 9.99922 
1.6497499e+2, 1.643394e+2, -1390873.4, -1397608.3, -2185.0017, 0.01467959, -0.033377394, -1390226.6, -60754.832, 0.0, 9.997189, 9.996287 
1.6497356e+2, 1.7433555e+2, -1287723.6, -1298641.1, -350.06604, 0.0039267167, -0.03322131, -1287712.4, -56202.324, 0.0, 9.997603, 9.996147 
1.6497198e+2, 1.8433194e+2, -1178227.6, -1191317.6, -796.2726, -0.0110572325, -0.020619027, -1178179.3, -44633.47, 0.0, 9.998222, 9.996477 
1.6497031e+2, 1.9432878e+2, -1066600.8, -1085661.3, -2613.7263, -0.03156529, 0.0061787884, -1066248.9, -30672.037, 0.0, 9.999104, 9.996568 
1.6496898e+2, 2.0432414e+2, -984605.5, -1024199.7, -2751.642, -0.026855899, 0.008660649, -984415.2, -46793.02, 0.0, 9.999254, 9.994 
1.6496813e+2, 2.1431774e+2, -899014.2, -933504.6, -2494.197, 0.010585098, -0.021493709, -898834.75, -59150.016, 0.0, 9.998461, 9.993882 
1.6496706e+2, 2.2431105e+2, -818508.8, -856330.8, -2322.7183, 0.030572856, -0.023539916, -818366.7, -76616.2, 0.0, 9.997797, 9.992779 
1.6496564e+2, 2.3430416e+2, -727698.8, -761905.0, -795.4007, 0.027695807, 0.009696286, -727680.3, -83861.29, 0.0, 9.997306, 9.992765 
1.6496411e+2, 2.4429677e+2, -632028.94, -668515.94, -1163.8966, 0.01718583, 0.011319679, -631991.9, -86100.414, 0.0, 9.997292, 9.992452 
1.6496237e+2, 2.5428885e+2, -524691.3, -565376.25, -3124.9219, -0.0031480868, -0.029907273, -524452.7, -76485.26, 0.0, 9.997898, 9.992502 
1.6496082e+2, 2.6428002e+2, -438315.0, -501610.78, -4217.9316, -0.009471409, -0.040210873, -438035.16, -87981.664, 0.0, 9.998331, 9.989947 
1.6495942e+2, 2.7427018e+2, -338063.44, -403701.56, -4659.439, 0.0026500293, -0.011073037, -337734.3, -85583.266, 0.0, 9.99853, 9.989838 
1.649584e+2, 2.8425947e+2, -252393.27, -326651.94, -430.9911, 0.011546647, 0.0013676485, -252390.77, -98134.305, 0.0, 9.998325, 9.988497 
1.6495784e+2, 2.9424784e+2, -165125.52, -233807.56, 2012.0798, 0.015927767, -0.010118549, -165066.61, -108696.33, 0.0, 9.997582, 9.988493 
1.6495737e+2, 3.0423987e+2, -69863.766, -81746.74, 2350.2244, 0.02636092, -0.014119184, -69415.82, -69415.82, 0.0, 9.997274, 9.9957 
1.649569e+2, 3.1423572e+2, -65091.67, -78259.83, -267.1117, 0.045202218, -0.009634252, -65086.254, -65086.254, 0.0, 9.997551, 9.995806 
1.749774e+2, 1.2434745e+2, -1717507.9, -1719528.5, 797.51117, -0.048441984, -0.00744553, -1717231.0, 4161.634, 0.0, 9.999975, 9.999702 
1.7497614e+2, 1.3434522e+2, -1643608.8, -1654213.5, -277.12415, -0.0448848, -0.021233412, -1643601.5, -20186.664, 0.0, 9.999247, 9.997838 
1.7497483e+2, 1.4434324e+2, -1550556.1, -1547641.4, -2682.475, -0.02483353, -0.044117555, -1546046.0, -20611.602, 0.0, 9.998434, 9.998813 
1.7497335e+2, 1.543427e+2, -1465112.3, -1454329.4, -3633.0505, -0.0038933486, 0.006719246, -1453219.5, -25779.486, 0.0, 9.997519, 9.998938 
1.7497218e+2, 1.6434063e+2, -1387852.0, -1391249.4, -902.9475, 0.015223521, 0.013273937, -1387626.9, -58166.63, 0.0, 9.997184, 9.996722 
1.7497145e+2, 1.7433676e+2, -1284320.4, -1291547.6, 1280.7513, 0.032371596, -0.037351485, -1284100.1, -52602.383, 0.0, 9.997601, 9.996631 
1.7497052e+2, 1.8433297e+2, -1181387.5, -1197795.5, 2470.2063, 0.019267827, -0.04942404, -1181023.8, -47488.64, 0.0, 9.998221, 9.996036 
1.749694e+2, 1.943294e+2, -1070172.5, -1093086.0, 761.68134, -0.03293663, -0.013325607, -1070147.1, -34576.543, 0.0, 9.999107, 9.996059 
1.7496797e+2, 2.0432462e+2, -984533.75, -1024156.94, -5330.0444, -0.053080752, 0.0016141582, -983829.3, -46211.574, 0.0, 9.99926, 9.994 
1.7496619e+2, 2.1431841e+2, -898712.44, -932946.2, -5502.336, -0.03152201, -0.012163346, -897849.75, -58171.4, 0.0, 9.998465, 9.993918 
1.7496447e+2, 2.2431186e+2, -815706.75, -850557.5, -4249.115, -0.0063908296, -0.020813635, -815196.2, -73453.62, 0.0, 9.997798, 9.993172 
1.7496291e+2, 2.3430501e+2, -724758.8, -755790.56, -2636.114, 0.023236841, -0.024089253, -724536.44, -80726.555, 0.0, 9.997305, 9.993183 
1.7496158e+2, 2.4429768e+2, -635168.06, -674956.06, 865.4575, 0.035297837, -0.016800107, -635149.25, -89267.5, 0.0, 9.99729, 9.992012 
1.7496055e+2, 2.542899e+2, -528251.6, -572745.06, -832.16174, 0.024459599, 0.0030589316, -528236.06, -80278.055, 0.0, 9.997899, 9.991999 
1.7495939e+2, 2.642809e+2, -439080.16, -503265.7, -3383.2249, 0.014621744, 0.008026024, -438902.3, -88856.25, 0.0, 9.998335, 9.989832 
1.7495798e+2, 2.7427047e+2, -338580.53, -404918.25, -3935.0208, 0.0062305583, -0.008106603, -338347.9, -86200.0, 0.0, 9.998537, 9.989751 
1.7495663e+2, 2.8425974e+2, -248219.67, -318143.16, -3020.7422, 0.0005484988, -0.022067204, -248089.4, -93836.39, 0.0, 9.998332, 9.989075 
1.7495526e+2, 2.9424876e+2, -160642.1, -224569.81, -818.6, -0.0015719341, -0.03458643, -160631.63, -104271.18, 0.0, 9.997585, 9.989123 
1.7495453e+2, 3.0424094e+2, -73651.23, -89649.8, 3116.4946, 0.01352831, -0.028990421, -73065.58, -73065.58, 0.0, 9.997277, 9.995155 
1.7495452e+2, 3.142364e+2, -69556.09, -87584.09, 755.13806, 0.05171629, -0.000982235, -69524.516, -69524.516, 0.0, 9.997555, 9.995164 
1.8497631e+2, 1.2434838e+2, -1751686.5, -1731337.9, -6127.616, -0.027939543, 0.027510852, -1729635.1, -8250.522, 0.0, 9.997444, 10.000136 
1.8497492e+2, 1.3434622e+2, -1657502.9, -1655876.1, -2183.0605, -0.031822786, -0.023825746, -1654359.9, -30954.813, 0.0, 9.998081, 9.998293 
1.8497337e+2, 1.4434415e+2, -1550426.8, -1552725.1, -3077.501, -0.02428147, -0.059772, -1548290.9, -22865.504, 0.0, 9.998667, 9.998354 
1.8497154e+2, 1.5434332e+2, -1444341.4, -1450100.0, -5884.0615, -0.02124003, 0.014949394, -1440669.9, -13235.569, 0.0, 9.999185, 9.998414 
1.8497011e+2, 1.6434124e+2, -1355326.6, -1370877.5, -3906.1362, -0.010424206, 0.029382702, -1354400.6, -24945.844, 0.0, 9.999199, 9.997128 
1.8496932e+2, 1.7433773e+2, -1266812.5, -1277762.1, -1813.5819, 0.010763898, -0.03411565, -1266519.9, -35031.64, 0.0, 9.998563, 9.997102 
1.8496855e+2, 1.84334e+2, -1186712.6, -1202916.1, 1089.6606, 0.012452616, -0.052479453, -1186639.8, -53115.19, 0.0, 9.99797, 9.99581 
1.8496789e+2, 1.9433019e+2, -1096728.6, -1109076.0, 1199.8612, -0.011268428, -0.014083065, -1096613.0, -61050.137, 0.0, 9.997432, 9.995783 
1.849666e+2, 2.0432533e+2, -1011104.25, -1035311.75, -4446.9346, -0.023053633, 0.0022030612, -1010313.2, -72702.39, 0.0, 9.997374, 9.994155 
1.8496451e+2, 2.143193e+2, -905125.5, -933979.1, -3564.8394, -0.019255264, -0.011513204, -904691.56, -65022.0, 0.0, 9.997937, 9.994103 
1.8496254e+2, 2.2431289e+2, -806876.2, -845511.8, -2857.1162, -0.008499451, -0.021676566, -806666.0, -64933.563, 0.0, 9.998368, 9.993238 
1.8496074e+2, 2.3430607e+2, -705057.5, -745581.7, -3951.601, 0.011240551, -0.028560758, -704675.75, -60876.477, 0.0, 9.998622, 9.993242 
1.8495934e+2, 2.4429858e+2, -620970.6, -673129.1, -1579.7561, 0.022377301, -0.018524006, -620922.8, -75050.1, 0.0, 9.998478, 9.991562 
1.8495838e+2, 2.542904e+2, -532914.56, -580481.75, -3135.7554, 0.022239141, 0.012508908, -532708.75, -84755.586, 0.0, 9.997817, 9.991509 
1.8495734e+2, 2.6428127e+2, -451150.03, -506085.22, -4075.6243, 0.023009954, 0.016371353, -450849.3, -100806.6, 0.0, 9.997379, 9.990101 
1.8495606e+2, 2.7427104e+2, -355278.7, -409328.9, -1488.6504, 0.02509513, -0.01709714, -355237.72, -103095.21, 0.0, 9.997237, 9.990076 
1.8495466e+2, 2.8426045e+2, -261829.66, -323633.38, -1208.1527, 0.01887045, -0.03562033, -261806.06, -107560.47, 0.0, 9.997354, 9.989171 
1.8495299e+2, 2.9424962e+2, -156851.06, -221879.02, -3243.6257, 0.0015545461, -0.035591103, -156689.67, -100338.58, 0.0, 9.997808, 9.9892 
1.8495212e+2, 3.0424178e+2, -63334.32, -87212.984, 659.5848, 0.00432129, -0.027371883, -63316.113, -63316.113, 0.0, 9.998094, 9.99493 
1.8495218e+2, 3.142369e+2, -62634.35, -87069.59, 1315.2352, 0.03400515, -0.010219516, -62563.766, -62563.766, 0.0, 9.99815, 9.994913 
1.9497432e+2, 1.2434798e+2, -1744236.0, -1715647.4, -3821.4, 0.029960029, 0.019129943, -1715145.4, 6243.639, 0.0, 9.997426, 10.001209 
1.9497353e+2, 1.3434705e+2, -1649596.6, -1639362.1, 257.4756, 0.021017784, -0.022090025, -1639355.6, -15958.851, 0.0, 9.99807, 9.99942 
1.9497234e+2, 1.4434522e+2, -1555131.5, -1562226.9, -1043.0874, 0.0049950713, -0.06210888, -1554981.4, -29566.912, 0.0, 9.99866, 9.997711 
1.9497055e+2, 1.5434349e+2, -1449831.9, -1461383.4, -3873.5845, -0.038732067, -0.002533334, -1448653.3, -21220.377, 0.0, 9.9991865, 9.997645 
1.9496879e+2, 1.643412e+2, -1352596.6, -1365333.0, -6004.8887, -0.06302809, 0.014565491, -1350212.0, -20756.496, 0.0, 9.999203, 9.997502 
1.9496715e+2, 1.743384e+2, -1263544.4, -1271065.9, -4198.3276, -0.061780542, -0.023418603, -1261668.6, -30186.816, 0.0, 9.998566, 9.997555 
1.9496606e+2, 1.8433504e+2, -1186788.0, -1203032.5, -955.6971, -0.032294627, -0.029466221, -1186732.0, -53217.41, 0.0, 9.997969, 9.995802 
1.9496578e+2, 1.9433111e+2, -1097088.0, -1109701.9, -805.79877, 0.033406463, 0.0041369074, -1097036.8, -61482.74, 0.0, 9.997428, 9.995742 
1.9496483e+2, 2.0432629e+2, -1008971.56, -1030807.5, -2541.2793, 0.063677646, 0.010523309, -1008679.7, -71078.01, 0.0, 9.997371, 9.994463 
1.9496311e+2, 2.1432044e+2, -902760.8, -929089.56, -1379.4426, 0.04791957, -0.019651642, -902688.7, -63030.152, 0.0, 9.997938, 9.994435 
1.9496125e+2, 2.2431411e+2, -808679.5, -849310.6, -1789.2328, 0.024501763, -0.026160896, -808600.9, -66880.39, 0.0, 9.998372, 9.992977 
1.9495916e+2, 2.3430727e+2, -707134.6, -750004.0, -2980.8357, -0.008631044, -0.0032228976, -706928.4, -63140.83, 0.0, 9.998628, 9.992937 
1.9495736e+2, 2.4429943e+2, -624153.5, -679827.7, -3873.9783, -0.022348763, 0.0065863966, -623885.25, -78020.64, 0.0, 9.998484, 9.991101 
1.9495587e+2, 2.5429037e+2, -536269.0, -587406.06, -5682.0938, -0.010632237, -0.0019844142, -535645.25, -87691.97, 0.0, 9.997817, 9.991036 
1.9495463e+2, 2.642811e+2, -446556.72, -496470.66, -4773.7466, 0.015161563, -0.015871393, -446104.25, -96060.46, 0.0, 9.9973755, 9.99076 
1.9495365e+2, 2.742717e+2, -350087.88, -398458.72, -2035.5436, 0.059361223, -0.03831229, -350002.34, -97867.234, 0.0, 9.997233, 9.990821 
1.9495249e+2, 2.8426152e+2, -264664.8, -329434.5, 351.2329, 0.06682581, -0.039118383, -264662.9, -110428.45, 0.0, 9.997351, 9.988775 
1.9495103e+2, 2.9425052e+2, -160245.0, -228974.81, -1534.2405, 0.02559473, -0.012715984, -160210.77, -103868.16, 0.0, 9.997811, 9.988712 
1.9495016e+2, 3.042424e+2, -62571.84, -85773.01, 939.5738, -0.0013189077, -0.009057691, -62533.85, -62533.85, 0.0, 9.998101, 9.995025 
1.9494992e+2, 3.1423718e+2, -61532.68, -84940.47, 1485.7706, -0.008740445, -0.037680436, -61438.75, -61438.75, 0.0, 9.998158, 9.995054 
2.049723e+2, 1.2434819e+2, -1722462.0, -1701941.5, 2605.345, 0.017227694, -0.013253142, -1701615.9, 19770.48, 0.0, 9.998769, 10.001487 
2.0497161e+2, 1.3434796e+2, -1646377.8, -1634392.5, 444.8526, 0.020229971, -0.0138774, -1634376.0, -10988.489, 0.0, 9.998138, 9.999724 
2.0497066e+2, 1.4434634e+2, -1567788.1, -1569691.4, -1135.1644, 0.012003863, -0.04630909, -1567258.4, -41854.918, 0.0, 9.997856, 9.997596 
2.0496927e+2, 1.5434419e+2, -1468044.8, -1471897.8, 784.48755, -0.027748663, -0.012722122, -1467891.1, -40465.38, 0.0, 9.998019, 9.9974985 
2.0496763e+2, 1.643418e+2, -1364820.9, -1369912.1, -1296.8145, -0.054243382, -0.0030588973, -1364509.5, -35060.277, 0.0, 9.998312, 9.997623 
2.049658e+2, 1.743393e+2, -1259558.5, -1267555.3, -1967.9109, -0.0630815, -0.02446128, -1259100.4, -27627.596, 0.0, 9.998769, 9.997695 
2.0496431e+2, 1.8433598e+2, -1178842.3, -1201799.8, -3039.4377, -0.036675602, -0.022653313, -1178446.8, -44941.535, 0.0, 9.998624, 9.995567 
2.0496334e+2, 1.9433178e+2, -1094960.3, -1111602.9, -4728.809, 0.03499279, 0.007419983, -1093710.5, -58162.887, 0.0, 9.9977, 9.995481 
2.0496218e+2, 2.0432696e+2, -1008821.4, -1027228.8, -3528.7217, 0.0680395, 0.011765663, -1008168.1, -70572.71, 0.0, 9.99723, 9.994775 
2.0496078e+2, 2.1432143e+2, -908868.9, -928096.56, -1946.7191, 0.050876696, -0.018515939, -908673.75, -69025.125, 0.0, 9.997351, 9.994787 
2.049593e+2, 2.2431518e+2, -819818.25, -856949.5, -1660.413, 0.027005726, -0.025653502, -819744.1, -78034.54, 0.0, 9.997709, 9.992778 
2.0495771e+2, 2.3430811e+2, -712588.3, -755343.06, -2332.097, -0.0053869737, -0.0040271184, -712461.5, -68682.42, 0.0, 9.998372, 9.992696 
2.04956e+2, 2.4430013e+2, -619936.94, -676614.94, -3869.9944, -0.019776152, 0.0006924584, -619673.9, -73816.516, 0.0, 9.998722, 9.991206 
2.0495412e+2, 2.5429112e+2, -523022.72, -579553.94, -1334.007, -0.01062913, -0.017916404, -522991.25, -75045.55, 0.0, 9.998661, 9.991164 
2.0495248e+2, 2.6428193e+2, -432101.1, -489756.6, -345.99762, 0.012693345, -0.02879917, -432099.0, -82063.56, 0.0, 9.998377, 9.990734 
2.049511e+2, 2.742727e+2, -342055.56, -394979.6, -3511.5688, 0.05457938, -0.03104282, -341823.56, -89698.14, 0.0, 9.9978, 9.990785 
2.0494986e+2, 2.8426242e+2, -264989.75, -332731.8, -1857.0079, 0.064368494, -0.026743531, -264938.88, -110713.03, 0.0, 9.997463, 9.988496 
2.0494871e+2, 2.9425094e+2, -167732.63, -235950.61, -2178.021, 0.031499963, -0.015411908, -167663.16, -111324.92, 0.0, 9.997443, 9.988413 
2.0494805e+2, 3.0424273e+2, -68725.93, -86014.71, 1430.4562, 0.0060578766, -0.019171344, -68608.375, -68608.375, 0.0, 9.9975605, 9.99527 
2.0494792e+2, 3.1423783e+2, -63811.203, -82827.4, 3056.0276, -0.009067551, -0.044875916, -63332.15, -63332.15, 0.0, 9.997862, 9.995343 
2.1497022e+2, 1.2434902e+2, -1726471.1, -1709885.0, 359.8441, -0.06747511, -0.06962429, -1709877.1, 11499.441, 0.0, 9.998757, 10.000952 
2.149692e+2, 1.3434897e+2, -1650354.5, -1642316.5, -1912.299, -0.034996886, 0.0008034323, -1641884.8, -18507.248, 0.0, 9.99813, 9.999189 
2.1496835e+2, 1.4434744e+2, -1564958.4, -1563646.8, -692.8108, -0.0036754492, -0.012265712, -1563348.6, -37955.773, 0.0, 9.997848, 9.99801 
2.1496768e+2, 1.5434541e+2, -1464748.5, -1464908.5, 1444.9285, 0.01166298, -0.015534686, -1463381.4, -35968.06, 0.0, 9.998011, 9.997977 
2.1496665e+2, 1.6434304e+2, -1365869.6, -1371925.0, 430.3373, 0.016270496, -0.023489859, -1365839.3, -36402.84, 0.0, 9.998306, 9.997489 
2.1496528e+2, 1.7434043e+2, -1260843.1, -1270179.5, -170.99434, 0.0075868615, -0.03742312, -1260840.0, -29378.617, 0.0, 9.99877, 9.997516 
2.149633e+2, 1.8433684e+2, -1182116.5, -1208586.0, -6163.2217, -0.0004565672, -0.032310586, -1180751.9, -47255.105, 0.0, 9.998626, 9.995104 
2.1496062e+2, 1.9433212e+2, -1098384.6, -1118693.5, -8197.402, -0.007544192, -0.004504324, -1095488.8, -59944.72, 0.0, 9.997703, 9.994995 
2.1495862e+2, 2.0432724e+2, -1006570.0, -1022607.6, -3308.6245, -0.011568898, 0.0058201244, -1005914.25, -68322.02, 0.0, 9.9972315, 9.995088 
2.1495752e+2, 2.1432227e+2, -906241.6, -922647.06, -1464.8217, -0.011736063, -0.007969974, -906111.9, -66471.65, 0.0, 9.997351, 9.995159 
2.1495673e+2, 2.2431609e+2, -820813.7, -858969.3, 733.35156, -0.0018225606, -0.020114662, -820799.6, -79099.445, 0.0, 9.997708, 9.99264 
2.1495634e+2, 2.3430851e+2, -713844.75, -757918.94, 197.99353, 0.021091491, -0.03141307, -713843.8, -70069.44, 0.0, 9.998373, 9.992519 
2.1495521e+2, 2.4430065e+2, -615130.6, -666696.94, -3895.9263, 0.030562915, -0.036673237, -614837.94, -68986.51, 0.0, 9.998724, 9.991881 
2.1495311e+2, 2.5429258e+2, -517728.3, -568689.56, -1539.339, 0.02250127, -0.03525283, -517681.88, -69751.2, 0.0, 9.998666, 9.991903 
2.1495089e+2, 2.642837e+2, -437115.97, -500266.5, -2384.8884, 0.015416174, -0.021957045, -437026.03, -87008.22, 0.0, 9.998383, 9.990013 
2.1494846e+2, 2.7427393e+2, -347893.03, -407158.28, -5727.933, 0.009741085, 0.005278615, -347344.5, -95230.7, 0.0, 9.997805, 9.989949 
2.1494679e+2, 2.8426304e+2, -266103.94, -335072.13, -2141.9294, 0.010153152, 0.0017458415, -266037.5, -111817.28, 0.0, 9.997466, 9.988334 
2.1494605e+2, 2.9425088e+2, -168500.72, -237528.98, -2301.0864, 0.018709213, -0.044147477, -168424.1, -112085.58, 0.0, 9.997443, 9.988304 
2.1494584e+2, 3.0424267e+2, -65974.766, -80311.79, 2445.0103, 0.02653011, -0.058187943, -65569.266, -65569.266, 0.0, 9.997562, 9.995659 
2.1494621e+2, 3.1423873e+2, -60745.844, -76537.27, 4159.5454, 0.033409465, -0.03128833, -59717.203, -59717.203, 0.0, 9.997867, 9.995771 
2.2496912e+2, 1.2435041e+2, -1723550.8, -1714210.4, -352.03748, -0.075320356, -0.082103, -1714197.1, 7165.3315, 0.0, 9.999205, 10.00044 
2.2496761e+2, 1.3435003e+2, -1641253.8, -1643583.5, -2504.6992, -0.050177045, 0.005783518, -1639656.3, -16289.317, 0.0, 9.998994, 9.998683 
2.2496639e+2, 1.4434832e+2, -1553972.1, -1556190.0, -1707.1681, -0.017290745, -0.007397896, -1553045.4, -27661.162, 0.0, 9.998502, 9.9981985 
2.2496553e+2, 1.5434636e+2, -1468425.8, -1464060.9, -1410.904, 0.013896043, -0.025639884, -1463644.5, -36241.215, 0.0, 9.997646, 9.998213 
2.2496451e+2, 1.6434416e+2, -1383864.9, -1380072.9, -1139.1068, 0.033173192, -0.033274435, -1379757.0, -50332.094, 0.0, 9.997056, 9.997542 
2.2496338e+2, 1.7434178e+2, -1289315.5, -1283566.6, 13.382694, 0.037461996, -0.02713513, -1283566.6, -52118.582, 0.0, 9.996811, 9.997557 
2.249615e+2, 1.8433815e+2, -1201648.6, -1219217.4, -3128.2817, 0.019627737, -0.02424434, -1201108.3, -67624.336, 0.0, 9.997346, 9.995002 
2.2495872e+2, 1.94333e+2, -1081893.4, -1111949.1, -2303.835, -0.026617331, -0.027427252, -1081717.8, -46183.1, 0.0, 9.99888, 9.994883 
2.2495666e+2, 2.0432794e+2, -972144.9, -1007231.25, 1269.602, -0.049041167, -0.022895128, -972098.94, -34514.582, 0.0, 9.999636, 9.99497 
2.2495559e+2, 2.1432312e+2, -877325.06, -909969.94, -687.05774, -0.040694676, -0.0098916, -877310.6, -37679.39, 0.0, 9.999382, 9.995039 
2.2495478e+2, 2.2431704e+2, -805552.94, -849928.5, -303.54605, -0.015384166, -0.013587683, -805550.8, -63860.336, 0.0, 9.998679, 9.992785 
2.2495434e+2, 2.3430946e+2, -726891.75, -762380.9, 1677.4424, 0.03171651, -0.040445402, -726812.6, -83048.055, 0.0, 9.997401, 9.992685 
2.2495325e+2, 2.443017e+2, -641454.4, -678423.1, -1296.7009, 0.052139975, -0.048034307, -641408.94, -95568.4, 0.0, 9.9968815, 9.991971 
2.2495128e+2, 2.5429386e+2, -536335.5, -576739.1, -3753.97, 0.037604325, -0.031595588, -535989.6, -88072.04, 0.0, 9.997353, 9.991988 
2.2494912e+2, 2.6428488e+2, -445151.84, -509212.6, -6310.041, 0.017031586, -0.013749333, -444536.22, -94530.15, 0.0, 9.998051, 9.989562 
2.2494668e+2, 2.7427453e+2, -333280.22, -405624.53, -7068.957, -0.011160563, 0.0043307785, -332595.97, -80488.01, 0.0, 9.9990425, 9.989457 
2.249449e+2, 2.8426346e+2, -237924.1, -318764.06, -2751.3298, -0.015598311, -0.0025191158, -237830.56, -83614.336, 0.0, 9.999279, 9.988575 
2.2494394e+2, 2.9425165e+2, -150757.88, -225625.3, 8.807928, 0.011414274, -0.043894324, -150757.88, -94426.81, 0.0, 9.998514, 9.988603 
2.2494352e+2, 3.0424356e+2, -67137.2, -83073.016, 4245.2905, 0.038132463, -0.054652236, -66076.82, -66076.82, 0.0, 9.997576, 9.995463 
2.2494365e+2, 3.1423938e+2, -83603.09, -90214.89, 904.98126, 0.064355545, -0.02619028, -83481.47, -83481.47, 0.0, 9.996411, 9.995535 
2.34969e+2, 1.2435235e+2, -1727286.1, -1721500.0, -1104.8546, -0.006322681, -0.050174166, -1721296.1, 47.611942, 0.0, 9.999191, 9.99995 
2.3496686e+2, 1.3435112e+2, -1644847.0, -1650730.9, -3277.0583, -0.025005361, 0.0010146743, -1643385.1, -20028.66, 0.0, 9.998986, 9.9982 
2.3496479e+2, 1.4434893e+2, -1554385.3, -1556864.6, -4769.7285, -0.028877147, -0.032000754, -1550696.8, -25318.78, 0.0, 9.998495, 9.998155 
2.3496282e+2, 1.5434703e+2, -1468630.6, -1464301.4, -4632.869, -0.022062281, -0.04316826, -1461352.4, -33956.094, 0.0, 9.997639, 9.998199 
2.3496118e+2, 1.6434513e+2, -1382232.1, -1376529.4, -2190.5847, -0.0050083078, -0.032302603, -1375785.1, -46369.95, 0.0, 9.997049, 9.9977865 
2.3496006e+2, 1.7434333e+2, -1287578.3, -1279777.9, -873.01086, 0.025460163, 0.006713381, -1279681.4, -48248.215, 0.0, 9.996803, 9.997817 
2.3495887e+2, 1.843399e+2, -1199817.4, -1215324.8, 2323.1072, 0.02294777, 0.0018027902, -1199476.9, -66009.945, 0.0, 9.997342, 9.995268 
2.3495765e+2, 1.9433442e+2, -1079903.4, -1107987.9, 3616.3147, -0.022101201, -0.06157094, -1079445.3, -43925.367, 0.0, 9.998888, 9.995149 
2.3495637e+2, 2.0432906e+2, -975946.06, -1015342.94, 799.4967, -0.04397027, -0.07485845, -975929.8, -38357.69, 0.0, 9.999649, 9.99441 
2.3495503e+2, 2.1432397e+2, -881570.25, -918958.75, -1628.4445, -0.035700027, -0.024451239, -881499.44, -41877.33, 0.0, 9.999393, 9.99442 
2.349535e+2, 2.24318e+2, -802394.9, -843530.56, -4876.251, -0.01371358, -0.0059659155, -801824.75, -60143.805, 0.0, 9.998686, 9.993218 
2.3495167e+2, 2.3431094e+2, -723319.56, -754923.75, -3157.5037, 0.0258469, -0.0307648, -723007.2, -79257.27, 0.0, 9.997399, 9.993194 
2.3495004e+2, 2.4430329e+2, -645154.8, -685907.5, 60.813652, 0.043908015, -0.032903813, -645154.7, -99329.58, 0.0, 9.996876, 9.991463 
2.3494859e+2, 2.5429496e+2, -540546.7, -585319.7, -1966.6923, 0.03387413, -0.0065367417, -540460.44, -92553.43, 0.0, 9.997348, 9.991404 
2.3494717e+2, 2.642854e+2, -446400.4, -511779.9, -2703.1057, 0.017284976, -0.0040832823, -446288.84, -96288.08, 0.0, 9.998052, 9.989386 
2.3494576e+2, 2.742744e+2, -334190.38, -407685.88, -3315.2776, -0.007697409, -0.034760006, -334041.16, -81932.66, 0.0, 9.999052, 9.989311 
2.3494422e+2, 2.842636e+2, -233179.13, -309179.5, -5218.2153, -0.012485129, -0.04026165, -232822.52, -78608.07, 0.0, 9.99929, 9.989224 
2.3494245e+2, 2.9425317e+2, -145631.72, -215165.1, -2934.413, 0.009603731, -0.013910128, -145508.1, -89191.87, 0.0, 9.998524, 9.989314 
2.3494111e+2, 3.0424526e+2, -72673.234, -94649.33, -96.54366, 0.04052323, -0.00760809, -72672.805, -72672.805, 0.0, 9.9975815, 9.994666 
2.3494026e+2, 3.1423965e+2, -90096.77, -103653.04, -3580.57, 0.083038114, -0.02996623, -89209.164, -89209.164, 0.0, 9.996412, 9.994612 
2.4496712e+2, 1.2435343e+2, -1762244.9, -1735041.0, -6335.9824, 0.012532195, -0.019801522, -1733637.6, -12303.958, 0.0, 9.996664, 10.000265 
2.4496523e+2, 1.343522e+2, -1663922.3, -1655963.3, -2098.2, -0.013365435, -0.0044710366, -1655444.0, -32098.342, 0.0, 9.997513, 9.998565 
2.4496315e+2, 1.4435013e+2, -1557072.6, -1556271.1, -1160.3175, -0.028424025, -0.054937974, -1555444.3, -30078.447, 0.0, 9.99823, 9.998324 
2.4496087e+2, 1.543485e+2, -1450863.4, -1453913.9, 126.975136, -0.035057105, -0.054733988, -1450858.1, -23476.62, 0.0, 9.998772, 9.998354 
2.4495895e+2, 1.6434652e+2, -1356940.4, -1369679.4, 503.66556, -0.02848225, -0.03590457, -1356920.5, -27519.467, 0.0, 9.999005, 9.997301 
2.4495758e+2, 1.7434424e+2, -1261331.8, -1272958.8, -4190.3193, -0.0046215616, 0.006600032, -1259979.0, -28554.77, 0.0, 9.998846, 9.997289 
2.4495654e+2, 1.8434072e+2, -1181446.5, -1202031.4, -1710.448, 0.003875283, 0.0051947795, -1181305.4, -47846.598, 0.0, 9.998404, 9.995657 
2.4495605e+2, 1.9433573e+2, -1095612.6, -1110524.9, 1119.209, -0.007640822, -0.054669738, -1095529.0, -60022.49, 0.0, 9.997598, 9.995602 
2.449551e+2, 2.0433049e+2, -1013946.2, -1035551.2, -1330.9473, -0.011341311, -0.07238315, -1013864.5, -76307.06, 0.0, 9.997135, 9.994252 
2.449536e+2, 2.1432507e+2, -916389.75, -938111.5, -735.3594, -0.004831273, -0.036590073, -916364.9, -76753.99, 0.0, 9.997115, 9.994218 
2.4495175e+2, 2.2431897e+2, -819781.7, -852119.06, -4046.154, 0.003356351, -0.018909428, -819283.1, -77612.09, 0.0, 9.997506, 9.993204 
2.4494946e+2, 2.343121e+2, -708316.6, -747666.9, -6193.4756, 0.013647126, -0.026577093, -707364.9, -63626.355, 0.0, 9.998425, 9.993194 
2.4494764e+2, 2.4430442e+2, -616899.9, -673863.5, -2517.145, 0.01774755, -0.024510013, -616788.9, -70974.88, 0.0, 9.998877, 9.991318 
2.449464e+2, 2.542958e+2, -521562.78, -577893.06, -1216.5311, 0.013597183, -0.010903135, -521536.53, -73638.086, 0.0, 9.998722, 9.991247 
2.4494533e+2, 2.6428622e+2, -438974.72, -504479.94, 1841.9302, 0.0098687075, -0.017529534, -438922.97, -88930.73, 0.0, 9.998399, 9.9897175 
2.4494436e+2, 2.7427557e+2, -348987.0, -410711.3, 5143.8525, 0.0068586315, -0.052502524, -348561.28, -96464.56, 0.0, 9.997861, 9.989679 
2.4494298e+2, 2.8426498e+2, -255671.8, -320739.88, 1559.0891, 0.009239984, -0.05164508, -255634.45, -101433.84, 0.0, 9.99778, 9.989162 
2.4494095e+2, 2.9425466e+2, -149477.9, -218098.45, -2369.281, 0.01881614, -0.00475419, -149396.2, -93094.34, 0.0, 9.998305, 9.989218 
2.4493907e+2, 3.0424663e+2, -62016.4, -92028.03, -3201.6174, 0.036537956, 0.006414279, -61678.652, -61678.652, 0.0, 9.998419, 9.994443 
2.4493727e+2, 3.1424063e+2, -68827.11, -96034.75, -1699.1115, 0.06510655, -0.032159753, -68721.414, -68721.414, 0.0, 9.997982, 9.994379 
2.5496346e+2, 1.24353655e+2, -1754623.8, -1718814.8, -3316.5344, -0.020152364, 0.009201476, -1718510.1, 2822.0378, 0.0, 9.99664, 10.001377 
2.549627e+2, 1.3435328e+2, -1655521.8, -1638293.5, 1130.7896, -0.015702292, -0.010797109, -1638219.6, -14884.748, 0.0, 9.997497, 9.999771 
2.549615e+2, 1.4435187e+2, -1554499.4, -1550707.3, 1007.174, -0.015964886, -0.07635462, -1550456.4, -25108.357, 0.0, 9.9982195, 9.998707 
2.5495976e+2, 1.5435073e+2, -1448576.9, -1449140.6, 2233.1316, -0.025200654, -0.0602352, -1446608.0, -19248.95, 0.0, 9.99877, 9.998679 
2.5495788e+2, 1.6434832e+2, -1365660.6, -1387699.0, 123.02114, -0.037515584, -0.044098955, -1365660.0, -36277.063, 0.0, 9.999011, 9.996072 
2.5495595e+2, 1.7434444e+2, -1270779.3, -1292539.9, -4761.753, -0.05335522, -0.028080521, -1269782.9, -38361.06, 0.0, 9.998855, 9.995952 
2.5495455e+2, 1.843406e+2, -1177730.9, -1194462.6, -4620.07, -0.038275983, -0.014439436, -1176539.9, -43080.156, 0.0, 9.998408, 9.996169 
2.549539e+2, 1.9433694e+2, -1091106.0, -1101105.8, -1939.7206, 0.016530147, -0.006020172, -1090742.9, -55247.72, 0.0, 9.997593, 9.996245 
2.5495282e+2, 2.0433225e+2, -1012306.9, -1031940.0, -1552.5101, 0.04874024, -0.014623605, -1012184.9, -74644.16, 0.0, 9.997127, 9.994501 
2.5495127e+2, 2.1432638e+2, -914937.2, -934913.56, -747.8761, 0.051668897, -0.046304263, -914909.2, -75311.25, 0.0, 9.997108, 9.994438 
2.549496e+2, 2.2431993e+2, -823175.0, -859037.75, -726.54865, 0.03550664, -0.052807514, -823160.3, -81499.11, 0.0, 9.997504, 9.992732 
2.5494772e+2, 2.3431285e+2, -711906.4, -755241.6, -2656.7808, -0.005336389, -0.028097702, -711744.06, -68013.21, 0.0, 9.998433, 9.992672 
2.5494608e+2, 2.4430503e+2, -615140.75, -670493.3, -2841.3699, -0.027118277, -0.02311025, -614995.3, -69187.61, 0.0, 9.998889, 9.991541 
2.5494477e+2, 2.5429633e+2, -519464.16, -573738.25, -1814.116, -0.023916384, -0.04524116, -519403.6, -71511.21, 0.0, 9.998732, 9.991526 
2.5494358e+2, 2.642873e+2, -432965.7, -492094.7, -122.392586, -0.0055825813, -0.054401204, -432965.44, -82984.55, 0.0, 9.998404, 9.990561 
2.5494248e+2, 2.7427793e+2, -342815.44, -397769.28, 3085.7446, 0.032427285, -0.048294473, -342642.7, -90569.766, 0.0, 9.997856, 9.990565 
2.5494117e+2, 2.8426754e+2, -261348.83, -332339.56, 3287.2202, 0.0495625, -0.035968132, -261196.94, -107021.91, 0.0, 9.997774, 9.988371 
2.5493947e+2, 2.9425603e+2, -155951.78, -231567.34, -373.80887, 0.03913095, -0.016949095, -155949.94, -99661.35, 0.0, 9.998309, 9.988295 
2.5493738e+2, 3.042476e+2, -59359.414, -86746.19, -4615.089, 0.025831277, -0.013456621, -58602.613, -58602.613, 0.0, 9.998431, 9.994798 
2.549347e+2, 3.1424224e+2, -65326.95, -89171.33, -3368.9412, 0.009030779, -0.032678664, -64860.098, -64860.098, 0.0, 9.998002, 9.994839 
2.6496086e+2, 1.2435424e+2, -1724486.0, -1700614.3, 3814.2764, -0.03924358, -0.018441232, -1700019.6, 21306.078, 0.0, 9.998531, 10.001691 
2.6496032e+2, 1.3435444e+2, -1648560.4, -1630738.3, 1963.4862, -0.018774413, -0.016409857, -1630524.5, -7201.522, 0.0, 9.9977865, 10.000144 
2.649594e+2, 1.4435339e+2, -1566062.0, -1556381.0, -1856.3794, -0.009913483, -0.067149855, -1556037.3, -30704.205, 0.0, 9.997435, 9.998704 
2.6495802e+2, 1.5435234e+2, -1466191.4, -1458043.5, -3281.1638, -0.015972584, -0.0380764, -1456886.5, -29543.17, 0.0, 9.997585, 9.998651 
2.6495644e+2, 1.643498e+2, -1382325.9, -1396792.3, -3313.1965, -0.028786374, -0.030380916, -1381603.1, -52234.7, 0.0, 9.997919, 9.995985 
2.6495466e+2, 1.7434548e+2, -1276845.0, -1296534.4, 1142.8605, -0.049839567, -0.05014817, -1276778.9, -45367.855, 0.0, 9.998486, 9.995859 
2.6495305e+2, 1.8434145e+2, -1176268.8, -1194980.6, 958.4611, -0.03717153, -0.04413424, -1176219.9, -42769.22, 0.0, 9.998561, 9.996059 
2.6495168e+2, 1.9433796e+2, -1085870.8, -1099798.8, -2278.5261, 0.018848103, -0.0070287623, -1085507.5, -50022.71, 0.0, 9.998003, 9.996135 
2.6495025e+2, 2.0433342e+2, -1001771.56, -1024882.44, -2509.8054, 0.049546357, -0.0035351545, -1001502.2, -63973.008, 0.0, 9.99776, 9.994676 
2.6494873e+2, 2.1432765e+2, -901539.7, -926254.6, -1742.0164, 0.04738319, -0.044743016, -901417.5, -61832.18, 0.0, 9.997929, 9.994632 
2.649473e+2, 2.2432122e+2, -816018.25, -856363.3, 981.7463, 0.029869342, -0.057140823, -815994.4, -74345.945, 0.0, 9.998026, 9.992662 
2.6494592e+2, 2.3431404e+2, -718409.3, -759403.7, 2420.3267, -0.007562831, -0.03353127, -718266.94, -74547.91, 0.0, 9.998032, 9.992582 
2.6494455e+2, 2.4430622e+2, -626344.2, -673551.7, 1947.1543, -0.025976244, -0.031467576, -626264.0, -80468.445, 0.0, 9.998021, 9.991752 
2.6494318e+2, 2.542977e+2, -528654.25, -575574.75, 2492.7188, -0.019579573, -0.058969013, -528522.2, -80643.82, 0.0, 9.99799, 9.991758 
2.649418e+2, 2.642889e+2, -438269.3, -493251.75, 875.31146, -0.00059591496, -0.06275998, -438255.38, -88290.76, 0.0, 9.997979, 9.990686 
2.6494044e+2, 2.7427983e+2, -339899.88, -395029.1, -1785.9156, 0.03479279, -0.037201986, -339842.1, -87788.21, 0.0, 9.997997, 9.990685 
2.6493904e+2, 2.8426957e+2, -259013.34, -331775.4, -406.77762, 0.05108747, -0.02123978, -259011.06, -104855.68, 0.0, 9.997957, 9.988322 
2.6493755e+2, 2.9425782e+2, -163165.25, -235762.14, 2573.7915, 0.0420537, -0.019565655, -163074.13, -106802.81, 0.0, 9.997844, 9.988232 
2.6493567e+2, 3.0424932e+2, -63818.848, -88011.5, 617.48956, 0.02810241, -0.021448946, -63803.098, -63803.098, 0.0, 9.998084, 9.99488 
2.6493308e+2, 3.1424418e+2, -53010.95, -82214.95, -945.75775, 0.007924525, -0.02995264, -52980.35, -52980.35, 0.0, 9.9988, 9.994932 
2.7495933e+2, 1.2435519e+2, -1728209.0, -1708005.3, 1047.439, -0.04527375, -0.102953725, -1707951.1, 13362.991, 0.0, 9.998525, 10.001191 
2.7495807e+2, 1.3435571e+2, -1652192.3, -1637859.9, -882.99695, -0.02269039, -0.021166505, -1637805.8, -14495.858, 0.0, 9.997775, 9.999664 
2.7495682e+2, 1.4435466e+2, -1569144.9, -1562352.6, -1508.5576, -0.010476365, -0.026939765, -1562032.6, -36711.555, 0.0, 9.99742, 9.998304 
2.749557e+2, 1.5435332e+2, -1469196.8, -1463912.3, -2715.096, -0.007901718, 0.012129605, -1462765.9, -35431.19, 0.0, 9.997574, 9.998257 
2.7495462e+2, 1.6435093e+2, -1374812.8, -1381113.6, -1252.5026, -0.0026330624, 0.005604492, -1374573.0, -45214.875, 0.0, 9.9979105, 9.997055 
2.749537e+2, 1.7434731e+2, -1268562.8, -1279363.1, 3363.0098, 0.006470344, -0.059412576, -1267601.3, -36208.934, 0.0, 9.998482, 9.997028 
2.7495205e+2, 1.8434326e+2, -1181582.4, -1205899.0, -791.2868, 0.007608184, -0.084059276, -1181556.6, -48125.14, 0.0, 9.998562, 9.995316 
2.749495e+2, 1.9433877e+2, -1092088.1, -1112651.0, -4327.3716, -0.0015319597, -0.05865294, -1091214.6, -55738.816, 0.0, 9.998006, 9.995257 
2.7494743e+2, 2.0433398e+2, -1001030.0, -1023463.4, -1992.7242, -0.010497076, -0.040066972, -1000854.4, -63331.133, 0.0, 9.9977665, 9.994768 
2.74946e+2, 2.1432886e+2, -900264.0, -923788.0, -1043.7429, -0.019317485, -0.031753615, -900217.75, -60644.266, 0.0, 9.997937, 9.994795 
2.7494487e+2, 2.2432278e+2, -813546.6, -851387.0, 1065.2787, -0.014846191, -0.031427544, -813516.7, -71883.62, 0.0, 9.998034, 9.992997 
2.749441e+2, 2.343156e+2, -715952.1, -754300.6, 2470.5657, 0.0068519088, -0.042947616, -715793.6, -72090.266, 0.0, 9.998033, 9.9929285 
2.7494305e+2, 2.4430798e+2, -625013.06, -670708.9, 1886.6858, 0.021504654, -0.04969888, -624935.3, -79157.33, 0.0, 9.998019, 9.991945 
2.7494162e+2, 2.542999e+2, -527398.9, -572897.25, 2409.8025, 0.026988229, -0.051644005, -527271.56, -79414.78, 0.0, 9.997989, 9.991941 
2.7494007e+2, 2.6429105e+2, -442595.63, -502183.72, 939.7151, 0.024933977, -0.042083595, -442580.8, -92636.89, 0.0, 9.99798, 9.990074 
2.749382e+2, 2.742813e+2, -344575.22, -404793.78, -1751.7972, 0.013009891, -0.019252408, -344524.28, -92483.99, 0.0, 9.998002, 9.990014 
2.7493662e+2, 2.8427094e+2, -253944.94, -321366.3, -889.26324, 0.012486489, -0.0074581583, -253933.22, -99790.71, 0.0, 9.997963, 9.98903 
2.7493528e+2, 2.942599e+2, -157401.77, -223811.97, 2091.3022, 0.027011715, -0.012144597, -157335.98, -101085.33, 0.0, 9.997847, 9.989047 
2.7493393e+2, 3.0425173e+2, -65233.395, -91018.44, 3089.6118, 0.043548357, -0.017236141, -64868.36, -64868.36, 0.0, 9.99809, 9.99467 
2.7493247e+2, 3.1424633e+2, -54867.848, -86382.56, 1743.5624, 0.06268477, -0.024058452, -54771.68, -54771.68, 0.0, 9.9988165, 9.9946375 
2.8495738e+2, 1.2435715e+2, -1749953.4, -1727497.1, 3936.8015, -0.03616335, -0.121254526, -1726826.9, -5533.0005, 0.0, 9.99743, 10.000403 
2.8495604e+2, 1.343571e+2, -1650089.9, -1645591.0, -266.10565, -0.030472158, -0.019694198, -1645575.4, -22279.467, 0.0, 9.998295, 9.998887 
2.8495467e+2, 1.4435555e+2, -1552173.4, -1556468.9, -1823.4001, -0.025862236, -0.024342146, -1551503.8, -26191.502, 0.0, 9.998676, 9.998093 
2.8495362e+2, 1.5435387e+2, -1457748.1, -1460284.4, -1420.3202, -0.015073074, -0.0022612165, -1457112.1, -29783.08, 0.0, 9.998436, 9.998084 
2.849526e+2, 1.6435172e+2, -1367925.5, -1369569.0, -242.42165, 0.0010525553, -0.008312425, -1367890.5, -38540.57, 0.0, 9.998024, 9.997786 
2.849518e+2, 1.7434911e+2, -1278902.5, -1275479.3, 1499.991, 0.024365578, -0.05049135, -1274915.0, -43540.727, 0.0, 9.997392, 9.997824 
2.849502e+2, 1.8434544e+2, -1199144.5, -1216202.5, -1348.6307, 0.022641363, -0.0733057, -1199038.5, -65628.71, 0.0, 9.997442, 9.995158 
2.849476e+2, 1.9434048e+2, -1088358.1, -1113369.0, 86.05979, -0.011374029, -0.07305523, -1088357.8, -52899.15, 0.0, 9.998369, 9.995032 
2.849455e+2, 2.0433536e+2, -987967.0, -1020778.25, 2914.6619, -0.031965494, -0.059406135, -987710.1, -50200.83, 0.0, 9.998814, 9.994444 
2.8494415e+2, 2.1433012e+2, -892366.94, -923692.4, 71.3443, -0.03523212, -0.029858053, -892366.75, -52805.766, 0.0, 9.998636, 9.994463 
2.8494298e+2, 2.2432402e+2, -807468.94, -846885.0, -1146.711, -0.022245126, -0.021153638, -807435.56, -65814.65, 0.0, 9.99838, 9.993136 
2.8494218e+2, 2.3431695e+2, -714881.5, -751836.75, -1117.9325, 0.011718165, -0.041076742, -714847.7, -71157.43, 0.0, 9.998021, 9.993103 
2.8494108e+2, 2.4430948e+2, -627132.9, -669712.94, -1984.3958, 0.032179352, -0.047545757, -627040.56, -81277.4, 0.0, 9.9977865, 9.992127 
2.849396e+2, 2.5430173e+2, -530099.4, -572172.6, -1432.035, 0.035041053, -0.03794294, -530050.7, -82211.38, 0.0, 9.997715, 9.992123 
2.8493798e+2, 2.6429287e+2, -446087.94, -504731.38, -363.0948, 0.029452773, -0.031035978, -446085.7, -96159.65, 0.0, 9.997777, 9.989999 
2.8493622e+2, 2.7428284e+2, -345072.2, -406128.4, 1347.8773, 0.012777017, -0.02948414, -345042.47, -93017.36, 0.0, 9.998014, 9.989918 
2.8493464e+2, 2.8427237e+2, -250791.5, -319905.84, 1497.1261, 0.006547599, -0.022308432, -250759.1, -96630.97, 0.0, 9.998181, 9.989025 
2.8493318e+2, 2.9426154e+2, -151371.52, -220868.31, -1719.7261, 0.0142025715, -0.009505788, -151329.0, -95094.45, 0.0, 9.998257, 9.989052 
2.84932e+2, 3.0425358e+2, -61727.84, -85364.016, -1265.7488, 0.0362961, -0.0111204935, -61660.25, -61660.25, 0.0, 9.998158, 9.995025 
2.849309e+2, 3.1424838e+2, -66480.695, -87693.02, 2559.9238, 0.07727681, -0.033179145, -66176.13, -66176.13, 0.0, 9.997833, 9.995023 
2.9495504e+2, 1.2436016e+2, -1758321.0, -1743991.0, 6998.576, -0.012438815, -0.07248367, -1741140.1, -19875.295, 0.0, 9.997405, 9.999293 
2.9495418e+2, 1.343586e+2, -1658184.0, -1661830.5, 2997.5159, -0.042403962, -0.011978211, -1656498.8, -33217.707, 0.0, 9.9982815, 9.997789 
2.9495308e+2, 1.4435601e+2, -1552480.1, -1556877.9, -2480.246, -0.056546837, -0.059964135, -1551364.4, -26057.674, 0.0, 9.998669, 9.998068 
2.9495186e+2, 1.5435393e+2, -1457495.0, -1459606.0, -2325.6663, -0.03810484, -0.08233446, -1455996.5, -28669.906, 0.0, 9.99843, 9.998133 
2.9495043e+2, 1.6435215e+2, -1365266.6, -1363961.4, -2524.9949, -0.018543914, -0.07296497, -1362006.0, -32661.842, 0.0, 9.998019, 9.998168 
2.94949e+2, 1.7435087e+2, -1276122.6, -1269527.6, -876.5394, 0.0027898522, -0.023042297, -1269413.1, -38055.85, 0.0, 9.997383, 9.998232 
2.9494748e+2, 1.8434797e+2, -1196121.5, -1209807.4, 1847.208, 0.0069999467, -0.0108809825, -1195876.6, -62490.695, 0.0, 9.997437, 9.995595 
2.9494599e+2, 1.9434308e+2, -1085185.0, -1106877.8, 3703.3784, -0.011021647, -0.049469873, -1084570.3, -49136.723, 0.0, 9.998373, 9.995472 
2.9494452e+2, 2.0433757e+2, -993225.94, -1031803.4, 2592.4004, -0.014655407, -0.06123463, -993052.56, -55565.086, 0.0, 9.998824, 9.993686 
2.9494315e+2, 2.143314e+2, -898246.4, -935962.6, -551.4002, 0.0003136437, -0.039307125, -898238.3, -58690.094, 0.0, 9.998645, 9.993621 
2.949417e+2, 2.2432488e+2, -807866.8, -847790.3, -2417.1794, 0.007987658, -0.026605248, -807721.0, -66108.375, 0.0, 9.998385, 9.993071 
2.9494014e+2, 2.3431796e+2, -714895.8, -751918.06, -2455.478, 0.0062906123, -0.027675489, -714733.7, -71053.32, 0.0, 9.998025, 9.993094 
2.9493856e+2, 2.4431068e+2, -625913.5, -667228.94, -2327.4119, 0.004651365, -0.02464643, -625782.8, -80031.016, 0.0, 9.997789, 9.992294 
2.9493695e+2, 2.5430307e+2, -528801.1, -569494.6, -1707.6163, 0.0031927328, -0.017765308, -528729.56, -80903.0, 0.0, 9.997718, 9.992304 
2.9493558e+2, 2.6429436e+2, -442783.8, -497884.25, 424.51974, 0.011933316, -0.029829884, -442780.53, -92868.805, 0.0, 9.997779, 9.990465 
2.9493445e+2, 2.742844e+2, -341602.66, -398971.5, 2237.4019, 0.033982202, -0.06860325, -341515.53, -89506.58, 0.0, 9.998018, 9.990404 
2.9493308e+2, 2.8427377e+2, -255948.72, -330688.66, 1794.6125, 0.033541895, -0.066455014, -255905.66, -101792.74, 0.0, 9.998187, 9.988284 
2.9493132e+2, 2.9426253e+2, -157143.66, -233007.8, -1509.708, 0.0035036881, -0.011825927, -157113.63, -100889.695, 0.0, 9.998266, 9.988215 
2.9492983e+2, 3.0425468e+2, -55080.6, -71738.75, -2508.7083, 0.0053662467, -0.0031571628, -54710.992, -54710.992, 0.0, 9.998169, 9.995953 
2.949285e+2, 3.142502e+2, -58891.465, -72026.234, 1231.2502, 0.04955513, -0.057621025, -58777.047, -58777.047, 0.0, 9.99784, 9.996092 
3.049528e+2, 1.24361284e+2, -1743190.1, -1733734.6, -5071.414, -0.022738496, -0.033216592, -1731529.1, -10274.397, 0.0, 9.998302, 9.999555 
3.0495247e+2, 1.3435964e+2, -1656344.3, -1657161.5, 1855.7043, -0.03990041, -0.013980109, -1654852.8, -31581.947, 0.0, 9.998239, 9.99813 
3.0495155e+2, 1.4435722e+2, -1556595.9, -1553397.4, 1863.9635, -0.049443178, -0.08636022, -1552540.6, -27246.438, 0.0, 9.998149, 9.998558 
3.0495012e+2, 1.5435563e+2, -1460008.1, -1455228.1, 5273.7466, -0.0334558, -0.10939688, -1451828.1, -24519.186, 0.0, 9.998015, 9.9986315 
3.0494848e+2, 1.643539e+2, -1368544.0, -1372800.0, 3444.027, -0.021967828, -0.089765, -1366623.6, -37297.56, 0.0, 9.998109, 9.997523 
3.0494675e+2, 1.7435217e+2, -1264951.8, -1272218.4, -3504.8633, -0.015887894, -0.015503949, -1263536.9, -32192.195, 0.0, 9.998494, 9.997509 
3.0494532e+2, 1.8434912e+2, -1177838.6, -1198166.0, -4526.719, -0.010370341, 0.007915194, -1176876.1, -43500.938, 0.0, 9.998561, 9.995842 
3.049443e+2, 1.9434446e+2, -1085177.4, -1103355.9, -3552.4546, -0.0058552744, -0.036313742, -1084507.8, -49087.844, 0.0, 9.99822, 9.995787 
3.0494308e+2, 2.0433909e+2, -1004864.8, -1036843.75, -3802.2336, 0.0017342591, -0.05555679, -1004418.94, -66946.445, 0.0, 9.998003, 9.993742 
3.0494156e+2, 2.1433286e+2, -908230.4, -940398.75, -419.1694, 0.013308823, -0.04345818, -908224.9, -68691.16, 0.0, 9.997944, 9.993659 
3.0493993e+2, 2.243263e+2, -815319.3, -851170.06, 1183.2385, 0.016387094, -0.037702914, -815280.3, -73681.914, 0.0, 9.997866, 9.993093 
3.0493805e+2, 2.3431936e+2, -718580.7, -753480.3, 1350.2645, 0.008344028, -0.042034212, -718528.5, -74862.414, 0.0, 9.997763, 9.993114 
3.049363e+2, 2.4431208e+2, -628266.5, -669825.3, 1186.9952, 0.000806779, -0.036108863, -628232.6, -82494.86, 0.0, 9.99769, 9.992166 
3.0493456e+2, 2.543044e+2, -530634.9, -571957.5, -577.00806, -0.0058909114, -0.018319806, -530626.8, -82813.516, 0.0, 9.997659, 9.992165 
3.0493325e+2, 2.6429585e+2, -441539.4, -494114.1, 565.52545, 0.0037563143, -0.024400083, -441533.34, -91635.99, 0.0, 9.997726, 9.990748 
3.0493245e+2, 2.7428615e+2, -340742.4, -395005.75, 1159.7898, 0.03467714, -0.06372582, -340717.63, -88726.49, 0.0, 9.997922, 9.990723 
3.0493125e+2, 2.8427562e+2, -258411.53, -331547.94, 2008.5931, 0.039523423, -0.07244178, -258356.42, -104262.445, 0.0, 9.998002, 9.988315 
3.049295e+2, 2.942642e+2, -161975.63, -235254.03, 5050.497, 0.009992643, -0.042100232, -161629.17, -105422.25, 0.0, 9.99793, 9.988224 
3.0492792e+2, 3.0425632e+2, -56675.723, -71992.055, 4399.1826, 0.005577225, -0.033627402, -55502.11, -55502.11, 0.0, 9.998034, 9.996002 
3.0492646e+2, 3.1425223e+2, -50649.695, -67488.76, 411.9248, 0.03447621, -0.056639694, -50639.625, -50639.625, 0.0, 9.998379, 9.996144 
3.1495064e+2, 1.24360524e+2, -1731692.1, -1709779.5, -5484.6475, -0.06868928, -0.002374861, -1708483.4, 12779.863, 0.0000000000000806617, 9.998292, 10.001184 
3.1495088e+2, 1.3436024e+2, -1643766.9, -1630958.9, 1563.4095, -0.02286868, -0.025808057, -1630770.9, -7505.9995, 0.00000000000005243424, 9.998226, 9.999913 
3.1495014e+2, 1.4435919e+2, -1549630.4, -1538704.4, 1399.0203, -0.004107271, -0.103680976, -1538528.1, -13253.78, 0.000000000000028332263, 9.998134, 9.999563 
3.1494844e+2, 1.5435901e+2, -1453366.5, -1441261.3, 4810.8555, -0.0010653198, -0.08253136, -1439582.3, -12306.596, 0.000000000000012064798, 9.998003, 9.999587 
3.149467e+2, 1.6435704e+2, -1380795.4, -1397826.6, 4841.1206, -0.009495348, -0.057713818, -1379515.4, -50220.17, 0.000000000000003878589, 9.998103, 9.995824 
3.1494507e+2, 1.7435299e+2, -1278367.6, -1299850.5, -1998.4883, -0.032163937, -0.028374668, -1278183.4, -46846.56, 0.0000000000000009180906, 9.998497, 9.995626 
3.1494367e+2, 1.843488e+2, -1177436.4, -1197409.9, -5659.111, -0.029998654, -0.017848058, -1175944.4, -42566.082, 0.00000000000000015841597, 9.998566, 9.995891 
3.1494263e+2, 1.9434462e+2, -1083877.0, -1100637.0, -4856.9307, 0.003862783, -0.033724304, -1082571.3, -47152.734, 0.000000000000000019869674, 9.99822, 9.995972 
3.1494126e+2, 2.0433985e+2, -998657.0, -1023961.5, -4049.7278, 0.016816145, -0.042192005, -998024.7, -60559.82, 0.0000000000000000018107616, 9.998002, 9.994618 
3.1493938e+2, 2.1433444e+2, -901649.8, -926772.2, -566.09607, 0.0027964523, -0.04221726, -901637.06, -62119.152, 0.0000000000000000001198895, 9.997945, 9.994586 
3.1493762e+2, 2.2432823e+2, -814548.7, -849559.25, 886.50555, 0.0017118345, -0.054666184, -814526.25, -72947.71, 0.0000000000000000000057675156, 9.997867, 9.993201 
3.1493592e+2, 2.343211e+2, -718217.0, -752732.44, 1050.1311, 0.017400691, -0.08485786, -718185.06, -74537.21, 0.0, 9.997765, 9.993164 
3.1493416e+2, 2.4431358e+2, -631346.2, -676236.44, 1109.003, 0.02067205, -0.08269033, -631318.8, -85597.055, 0.0, 9.997695, 9.991724 
3.1493238e+2, 2.5430572e+2, -533967.1, -578887.3, -677.91705, 0.007910082, -0.04013109, -533956.9, -86156.75, 0.0, 9.997663, 9.991688 
3.14931e+2, 2.6429722e+2, -440834.34, -492696.78, 1226.7228, 0.0045451205, -0.014738929, -440805.34, -90921.67, 0.0, 9.99773, 9.990843 
3.1493014e+2, 2.742881e+2, -339693.88, -392919.78, 1857.8121, 0.013539436, -0.013825804, -339629.1, -87656.67, 0.0, 9.997928, 9.990861 
3.1492907e+2, 2.8427786e+2, -252559.95, -319484.97, 1730.9397, 0.023285048, -0.039300494, -252515.2, -98443.14, 0.0, 9.998008, 9.989136 
3.1492767e+2, 2.942663e+2, -155778.48, -222447.48, 4740.2773, 0.03396109, -0.101091504, -155443.13, -99258.84, 0.0, 9.997934, 9.989097 
3.149263e+2, 3.0425844e+2, -62668.258, -84578.16, 5565.2715, 0.03732132, -0.10360718, -61335.688, -61335.688, 0.0, 9.998043, 9.995133 
3.149248e+2, 3.1425434e+2, -57486.03, -82015.49, 1631.0679, 0.030787993, -0.02905462, -57378.05, -57378.05, 0.0, 9.998396, 9.995138 
3.2494867e+2, 1.2436077e+2, -1736189.1, -1706333.6, 5163.2866, -0.06738983, -0.033693668, -1705466.0, 15794.349, 0.0000000000023454196, 9.997739, 10.001689 
3.2494852e+2, 1.3436133e+2, -1658977.0, -1631713.4, 3160.156, -0.015672447, -0.033162206, -1631351.9, -8097.8223, 0.0000000000015241749, 9.9969015, 10.000508 
3.249477e+2, 1.4436074e+2, -1568947.4, -1549806.5, -2733.2727, 0.0027547558, -0.08957057, -1549423.9, -24164.488, 0.0000000000008233425, 9.996894, 9.9994135 
3.249464e+2, 1.5436056e+2, -1455560.8, -1444560.8, -7878.3457, 0.0002262685, -0.04647444, -1440452.5, -13191.65, 0.00000000000035051592, 9.99795, 9.99939 
3.24945e+2, 1.6435836e+2, -1375207.9, -1396442.8, -7857.07, -0.010821223, -0.029644163, -1372616.9, -43334.176, 0.00000000000011265747, 9.99854, 9.995707 
3.2494357e+2, 1.7435373e+2, -1278636.0, -1301249.4, -1417.8369, -0.03229524, -0.046526697, -1278547.5, -47218.527, 0.000000000000026661206, 9.998531, 9.995516 
3.2494214e+2, 1.843494e+2, -1179644.1, -1196413.3, 419.88922, -0.028984787, -0.05378738, -1179633.6, -46262.094, 0.000000000000004599458, 9.998324, 9.996076 
3.249407e+2, 1.9434561e+2, -1087706.3, -1100192.3, 1241.1716, 0.00599218, -0.050764445, -1087584.0, -52175.902, 0.0000000000000005767878, 9.997859, 9.996177 
3.2493907e+2, 2.0434113e+2, -1002933.1, -1024526.7, 1007.466, 0.01963936, -0.047403973, -1002886.2, -65434.33, 0.000000000000000052554126, 9.9976425, 9.994756 
3.2493728e+2, 2.1433587e+2, -903506.2, -926212.7, -1467.4463, 0.005619994, -0.044856023, -903411.75, -63908.258, 0.0000000000000000034789587, 9.997753, 9.994718 
3.249355e+2, 2.2432983e+2, -813727.06, -847687.06, -3290.2312, 0.0023099491, -0.05377919, -813411.2, -71848.55, 0.00000000000000000016733108, 9.997858, 9.993334 
3.249337e+2, 2.3432288e+2, -714562.94, -749480.06, -2532.3528, 0.01300122, -0.07940621, -714380.2, -70750.0, 0.0, 9.997949, 9.993298 
3.24932e+2, 2.4431527e+2, -628112.8, -678153.9, -1429.0048, 0.015812643, -0.08016063, -628072.06, -82367.055, 0.0, 9.998064, 9.991416 
3.249303e+2, 2.543069e+2, -528294.06, -579976.3, -2162.8982, 0.008429894, -0.05019906, -528203.7, -80415.98, 0.0, 9.998214, 9.991348 
3.2492897e+2, 2.6429823e+2, -434704.34, -489692.7, -474.2401, 0.006125396, -0.028574845, -434700.28, -84826.945, 0.0, 9.998146, 9.990848 
3.24928e+2, 2.7428922e+2, -341456.5, -393436.78, -700.9943, 0.010394777, -0.019636156, -341447.03, -89485.87, 0.0, 9.997792, 9.990892 
3.2492685e+2, 2.842792e+2, -256744.05, -317731.88, -2970.4463, 0.020704534, -0.03717616, -256599.7, -102541.25, 0.0, 9.997557, 9.989475 
3.2492545e+2, 2.9426816e+2, -159803.86, -220326.95, -3840.517, 0.0390067, -0.09142796, -159561.13, -103394.75, 0.0, 9.99748, 9.989463 
3.2492423e+2, 3.0426025e+2, -69845.4, -92657.23, -1337.676, 0.043594033, -0.09354565, -69767.23, -69767.23, 0.0, 9.997746, 9.994724 
3.2492322e+2, 3.142556e+2, -59718.652, -88368.37, -1064.0491, 0.029574651, -0.028061863, -59679.188, -59679.188, 0.0, 9.998466, 9.994672 
3.349469e+2, 1.24362044e+2, -1741369.8, -1716212.9, 1958.7239, -0.01902115, -0.12858441, -1716061.4, 5184.164, 0.00000000005167391, 9.997711, 10.001029 
3.3494538e+2, 1.3436289e+2, -1663869.0, -1641078.5, -70.30088, -0.018770624, -0.03590165, -1641078.3, -17840.238, 0.00000000003357157, 9.996877, 9.999882 
3.3494428e+2, 1.4436182e+2, -1578829.9, -1569551.0, 761.6983, -0.02994051, -0.04340052, -1569488.9, -44239.656, 0.000000000018130754, 9.996872, 9.998081 
3.3494407e+2, 1.5436028e+2, -1465605.5, -1464890.5, -3938.2776, -0.030505441, -0.0007977755, -1461293.5, -34028.48, 0.000000000007717037, 9.997937, 9.998013 
3.349434e+2, 1.6435784e+2, -1364599.8, -1374501.3, -7702.8916, -0.026446188, -0.0052729677, -1360393.9, -31105.018, 0.0000000000024798213, 9.998537, 9.997199 
3.3494228e+2, 1.743544e+2, -1266635.9, -1276425.4, -1427.3462, -0.01615158, -0.070064016, -1266432.0, -35110.563, 0.00000000000058676854, 9.9985285, 9.997205 
3.3494067e+2, 1.843509e+2, -1177445.0, -1191750.4, -1147.434, -0.0071916548, -0.100219466, -1177353.6, -43998.496, 0.00000000000010121049, 9.998321, 9.996394 
3.349385e+2, 1.9434743e+2, -1086151.8, -1096893.4, -418.80215, -0.00019108996, -0.08784942, -1086135.5, -50746.523, 0.000000000000012690283, 9.997856, 9.996403 
3.3493662e+2, 2.043429e+2, -1007439.44, -1033791.5, 1386.7534, 0.009183174, -0.07155868, -1007366.6, -69932.98, 0.0000000000000011561161, 9.997643, 9.9941225 
3.3493522e+2, 2.1433713e+2, -908390.3, -936318.75, -972.43634, 0.021605544, -0.051457267, -908356.5, -68865.445, 0.000000000000000076521916, 9.997757, 9.994026 
3.349335e+2, 2.2433104e+2, -812597.3, -845435.56, -2891.6877, 0.018036885, -0.034555495, -812344.6, -70793.37, 0.0000000000000000036800285, 9.997864, 9.993484 
3.349315e+2, 2.3432466e+2, -712991.94, -746325.9, -2148.3635, -0.0057621547, -0.024128998, -712854.06, -69240.305, 0.0, 9.997955, 9.993509 
3.3492973e+2, 2.4431704e+2, -629275.56, -680698.44, -862.45746, -0.014954964, -0.02691767, -629261.1, -83572.92, 0.0, 9.998073, 9.991237 
3.3492836e+2, 2.54308e+2, -529644.6, -582913.1, -1593.5713, -0.0053157676, -0.048285667, -529597.0, -81820.195, 0.0, 9.998222, 9.991142 
3.349271e+2, 2.6429874e+2, -435287.25, -490996.44, -1730.3718, 0.0075723855, -0.066611245, -435233.56, -85366.336, 0.0, 9.998153, 9.990754 
3.349259e+2, 2.7428937e+2, -342008.2, -394632.06, -2110.9988, 0.024758918, -0.08283232, -341923.66, -89965.18, 0.0, 9.997797, 9.990807 
3.349245e+2, 2.842796e+2, -257875.36, -320102.06, -3429.206, 0.031331476, -0.06706492, -257686.95, -103632.63, 0.0, 9.9975605, 9.989309 
3.3492276e+2, 2.9426947e+2, -160937.48, -222744.34, -4263.0884, 0.024212087, -0.011065117, -160644.83, -104490.414, 0.0, 9.997487, 9.989292 
3.3492178e+2, 3.0426162e+2, -69333.18, -91783.07, 1015.1046, 0.022996185, -0.0012024934, -69287.375, -69287.375, 0.0, 9.997759, 9.994776 
3.349217e+2, 3.1425583e+2, -58970.734, -87182.38, 1528.4556, 0.029241633, -0.054524112, -58888.168, -58888.168, 0.0, 9.998485, 9.994742 
3.449447e+2, 1.24363795e+2, -1747688.0, -1728432.4, -154.41888, -0.0073791468, -0.13082576, -1728431.1, -7203.247, 0.00000000081250584, 9.997671, 10.000222 
3.4494317e+2, 1.3436393e+2, -1637092.4, -1636772.5, -3336.2764, -0.035205998, -0.031998783, -1633592.4, -10364.723, 0.00000000052773436, 9.999068, 9.99911 
3.4494218e+2, 1.4436224e+2, -1544163.0, -1556599.0, -602.2411, -0.053431645, -0.044041123, -1544133.9, -18888.951, 0.00000000028494548, 9.999396, 9.997733 
3.449422e+2, 1.543602e+2, -1461773.8, -1466609.3, 2610.539, -0.031111341, -0.019598411, -1460633.4, -33367.902, 0.0000000001212577, 9.998352, 9.997694 
3.4494162e+2, 1.643579e+2, -1371831.5, -1369503.3, 55.103085, -0.014408413, -0.02904789, -1369501.9, -40214.207, 0.00000000003895854, 9.997674, 9.997959 
3.449404e+2, 1.743554e+2, -1276217.5, -1271717.1, -224.56386, -0.004538636, -0.081817836, -1271706.0, -40395.29, 0.000000000009216846, 9.997468, 9.998042 
3.4493876e+2, 1.8435234e+2, -1188129.8, -1199920.4, -4471.841, -0.0014816812, -0.10096849, -1186625.5, -53285.344, 0.0000000000015895714, 9.997721, 9.996131 
3.449366e+2, 1.9434863e+2, -1078340.4, -1096918.6, -8002.8423, -0.007428154, -0.07892, -1075368.5, -39991.566, 0.00000000000019928297, 9.998552, 9.996064 
3.449347e+2, 2.0434386e+2, -991972.8, -1027818.0, -8213.151, -0.0028104065, -0.06296969, -990180.56, -52756.316, 0.0000000000000181529, 9.998762, 9.993988 
3.449331e+2, 2.1433783e+2, -903104.3, -935123.75, -6386.054, 0.015324247, -0.05640121, -901877.6, -62393.7, 0.0000000000000012013685, 9.998175, 9.993906 
3.449314e+2, 2.2433159e+2, -812907.94, -847744.94, -5837.4473, 0.015686834, -0.04048239, -811955.8, -70410.11, 0.00000000000000005776772, 9.997933, 9.993294 
3.4492955e+2, 2.3432517e+2, -711516.0, -747798.56, -8080.4287, -0.006829215, -0.014729952, -709797.75, -66188.91, 0.0, 9.998149, 9.993316 
3.4492785e+2, 2.4431764e+2, -627502.75, -675710.9, -7801.6484, -0.011184699, -0.01612239, -626271.6, -80589.19, 0.0, 9.998013, 9.991608 
3.4492636e+2, 2.5430882e+2, -538389.0, -582562.4, -3960.1653, 0.008139149, -0.05415298, -538036.75, -90268.586, 0.0, 9.997425, 9.991553 
3.4492493e+2, 2.642997e+2, -448743.13, -497793.4, -587.39355, 0.01991786, -0.08126076, -448736.1, -98878.89, 0.0, 9.997242, 9.990731 
3.4492356e+2, 2.742903e+2, -345380.06, -396887.44, -672.88605, 0.021661362, -0.09596311, -345371.28, -93422.38, 0.0, 9.99759, 9.990754 
3.449222e+2, 2.8428033e+2, -254300.31, -323697.06, -2066.691, 0.022471467, -0.07517151, -254238.81, -100191.984, 0.0, 9.998033, 9.988837 
3.4492078e+2, 2.9426977e+2, -148302.77, -222306.1, -5371.185, 0.022409793, -0.009411938, -147914.95, -91763.84, 0.0, 9.998594, 9.9887905 
3.4491995e+2, 3.0426183e+2, -54730.633, -80238.82, -1190.2775, 0.022405747, -0.00007215186, -54675.21, -54675.21, 0.0, 9.998563, 9.995182 
3.4491974e+2, 3.1425637e+2, -66285.27, -85363.1, 2310.2913, 0.02195668, -0.06782331, -66009.49, -66009.49, 0.0, 9.99775, 9.995222 
3.5494208e+2, 1.2436612e+2, -1755216.8, -1743273.9, 4782.6333, -0.034278587, -0.038005505, -1741594.8, -20388.168, 0.000000009469599, 9.997651, 9.999224 
3.5494196e+2, 1.3436449e+2, -1644049.1, -1650837.6, 1911.3115, -0.06566537, -0.021319505, -1643548.0, -20325.559, 0.0000000061492664, 9.9990635, 9.998155 
3.5494143e+2, 1.44362e+2, -1539575.6, -1547090.5, -4061.7004, -0.068106644, -0.092819944, -1537799.9, -12553.513, 0.0000000033196064, 9.999394, 9.998379 
3.5494086e+2, 1.5436034e+2, -1456519.1, -1455530.1, -1388.6589, -0.0013605204, -0.10447665, -1454550.6, -27288.617, 0.0000000014124153, 9.9983425, 9.998451 
3.549397e+2, 1.6435856e+2, -1371999.1, -1369500.0, -882.76227, 0.025551599, -0.10201934, -1369219.6, -39940.5, 0.0000000004537274, 9.997662, 9.997964 
3.5493794e+2, 1.7435676e+2, -1276705.6, -1272420.6, -957.13214, 0.0016304874, -0.08156682, -1272216.6, -40919.707, 0.00000000010733056, 9.997458, 9.997997 
3.5493633e+2, 1.8435371e+2, -1194420.8, -1212677.4, -1523.5024, -0.013203598, -0.054979492, -1194294.5, -60967.24, 0.00000000001850869, 9.997713, 9.995265 
3.5493508e+2, 1.943492e+2, -1084841.0, -1110394.5, -4809.9854, -0.016407238, -0.02268238, -1083965.5, -48593.12, 0.0000000000023202033, 9.998557, 9.995143 
3.5493335e+2, 2.0434394e+2, -989226.25, -1022374.5, -10095.691, -0.017073885, -0.020675845, -986393.56, -48969.45, 0.00000000000021133044, 9.998775, 9.994351 
3.54931e+2, 2.1433793e+2, -899780.44, -928372.9, -8595.0205, -0.014291994, -0.059392877, -897395.7, -57913.0, 0.000000000000013984623, 9.998181, 9.994362 
3.5492912e+2, 2.243314e+2, -816712.6, -855670.7, -5183.0107, -0.005892945, -0.07202641, -816034.8, -74488.11, 0.0000000000000006723836, 9.997938, 9.992749 
3.5492787e+2, 2.3432429e+2, -715808.1, -756737.25, -7233.0024, 0.009556685, -0.052511502, -714567.5, -70951.04, 0.0, 9.998153, 9.992703 
3.5492623e+2, 2.4431692e+2, -620909.56, -662138.56, -9844.054, 0.027530612, -0.048861824, -618679.75, -72991.07, 0.0, 9.998019, 9.99253 
3.549242e+2, 2.5430933e+2, -531098.8, -567405.9, -6204.835, 0.049034633, -0.06789477, -530067.7, -82304.984, 0.0, 9.997425, 9.992587 
3.5492238e+2, 2.64301e+2, -448480.0, -497173.28, 495.43948, 0.042560656, -0.07168164, -448474.97, -98630.984, 0.0, 9.997241, 9.990773 
3.5492095e+2, 2.7429187e+2, -345516.56, -397262.7, 644.00824, -0.00038345123, -0.05750219, -345508.56, -93575.375, 0.0, 9.997597, 9.990724 
3.5491994e+2, 2.8428125e+2, -259734.11, -335198.63, -54.84196, -0.0072374805, -0.060875256, -259734.08, -105697.14, 0.0, 9.998045, 9.988043 
3.549195e+2, 2.942689e+2, -154063.78, -234612.55, -3328.241, 0.03361265, -0.089006215, -153926.48, -97768.62, 0.0, 9.998612, 9.987938 
3.549187e+2, 3.0426073e+2, -49139.5, -69011.766, -4043.2031, 0.041665968, -0.09300957, -48348.367, -48348.367, 0.0, 9.998583, 9.995941 
3.5491732e+2, 3.1425712e+2, -59884.3, -72284.94, -923.9495, 0.00556998, -0.06703813, -59815.836, -59815.836, 0.0, 9.997763, 9.996112 
3.649399e+2, 1.2436629e+2, -1743682.3, -1733902.8, -5725.133, -0.04642339, -0.0038951342, -1731263.4, -10057.782, 0.00000008268434, 9.998269, 9.999558 
3.6494046e+2, 1.3436465e+2, -1662461.1, -1654932.8, 2103.4788, -0.04725636, -0.02999492, -1654384.9, -31164.354, 0.00000005368276, 9.9976, 9.998591 
3.649401e+2, 1.443624e+2, -1565177.1, -1555168.8, -1445.032, -0.043443892, -0.11879206, -1554964.3, -29722.658, 0.000000028975498, 9.997461, 9.998773 
3.6493903e+2, 1.5436126e+2, -1458699.6, -1452204.0, -1696.9993, 0.00089779496, -0.11897033, -1451787.4, -24535.174, 0.000000012326782, 9.998, 9.998845 
3.649376e+2, 1.6435952e+2, -1366921.4, -1374158.5, -4341.0835, 0.01576021, -0.1025429, -1364888.5, -35619.445, 0.000000003959453, 9.998313, 9.997333 
3.6493573e+2, 1.743572e+2, -1268787.5, -1276465.1, -9442.069, -0.0069223023, -0.065042734, -1262433.8, -31141.17, 0.0000000009365381, 9.998336, 9.997297 
3.6493424e+2, 1.8435377e+2, -1188345.8, -1209950.5, -8748.688, -0.015555938, -0.03992676, -1185247.4, -51920.516, 0.0000000001614897, 9.998136, 9.995247 
3.6493328e+2, 1.9434902e+2, -1098074.5, -1116514.9, -4815.8145, -0.0062262374, -0.032933597, -1096892.6, -61518.71, 0.000000000020242613, 9.997642, 9.995171 
3.6493167e+2, 2.0434381e+2, -1003611.3, -1027178.6, -7239.3647, -0.0063448804, -0.03916917, -1001565.2, -64140.168, 0.0000000000018436379, 9.997697, 9.994549 
3.6492926e+2, 2.1433814e+2, -894160.6, -923317.2, -7677.6196, -0.018600922, -0.06420379, -892262.5, -52782.418, 0.00000000000012199398, 9.998462, 9.994572 
3.6492723e+2, 2.2433172e+2, -807759.0, -850206.75, -4479.802, -0.013331344, -0.07833985, -807291.4, -65748.8, 0.0000000000000058651187, 9.998499, 9.992852 
3.6492577e+2, 2.3432453e+2, -723305.94, -759343.5, -1292.3483, 0.014513173, -0.07996929, -723259.6, -79646.36, 0.0, 9.997596, 9.992796 
3.6492398e+2, 2.4431717e+2, -631836.56, -667924.56, -3472.5464, 0.036379628, -0.07690561, -631505.5, -85820.12, 0.0, 9.997291, 9.992488 
3.6492178e+2, 2.5430977e+2, -526354.25, -565681.06, -8008.421, 0.05046431, -0.06974882, -524786.0, -77028.21, 0.0, 9.997771, 9.992539 
3.6492005e+2, 2.643015e+2, -437020.0, -492899.88, -5272.3384, 0.0413485, -0.058742136, -436526.9, -86688.195, 0.0, 9.998079, 9.990661 
3.6491886e+2, 2.7429226e+2, -338145.88, -394993.1, -5722.0293, 0.0018435263, -0.044469304, -337575.63, -85646.58, 0.0, 9.998156, 9.99061 
3.64918e+2, 2.8428164e+2, -259231.81, -331304.16, -3677.8738, -0.0012782107, -0.060042575, -259044.61, -105011.78, 0.0, 9.997918, 9.988373 
3.6491755e+2, 2.9426938e+2, -170999.92, -238739.78, 2201.7715, 0.043666687, -0.11673269, -170928.44, -114776.08, 0.0, 9.997274, 9.988301 
3.6491668e+2, 3.0426133e+2, -68857.51, -78935.81, 3700.9736, 0.048833102, -0.12706256, -67644.44, -67644.44, 0.0, 9.997243, 9.995908 
3.649152e+2, 3.1425786e+2, -56312.555, -71330.3, -416.69363, 0.0005002998, -0.077899836, -56301.0, -56301.0, 0.0, 9.998037, 9.996047 
3.749382e+2, 1.2436429e+2, -1731922.5, -1709079.9, -8545.739, -0.044244386, -0.029391615, -1706236.6, 14988.474, 0.0000005532481, 9.998243, 10.001253 
3.7493876e+2, 1.3436447e+2, -1649563.4, -1627733.6, -569.917, 0.021000208, -0.058409806, -1627718.9, -4497.0933, 0.00000035914545, 9.997573, 10.000449 
3.749382e+2, 1.4436354e+2, -1564653.4, -1553403.4, 303.3348, 0.021095676, -0.12151345, -1553395.3, -28164.973, 0.00000019382824, 9.997435, 9.998904 
3.7493676e+2, 1.5436302e+2, -1458819.1, -1452023.3, 354.71918, -0.025365442, -0.061315212, -1452004.9, -24769.191, 0.00000008245099, 9.997985, 9.998864 
3.749353e+2, 1.6436084e+2, -1376275.8, -1393253.0, -4156.6914, -0.04532194, -0.02878248, -1375312.8, -46055.445, 0.000000026481976, 9.99831, 9.996034 
3.7493384e+2, 1.7435673e+2, -1278674.5, -1296817.3, -9377.968, -0.03118339, -0.03187239, -1274698.5, -43400.51, 0.0000000062635124, 9.998341, 9.995908 
3.7493247e+2, 1.8435244e+2, -1182359.8, -1197568.5, -10555.111, -0.009058365, -0.056516327, -1176955.0, -43615.297, 0.0000000010799891, 9.998135, 9.996089 
3.7493122e+2, 1.9434807e+2, -1091073.3, -1101897.1, -6661.004, 0.022960607, -0.111274116, -1087902.8, -52521.18, 0.00000000013537126, 9.997635, 9.996169 
3.7492976e+2, 2.0434336e+2, -1003605.1, -1027041.2, -4536.157, 0.029165672, -0.11995328, -1002757.75, -65330.47, 0.000000000012328863, 9.997695, 9.994557 
3.7492794e+2, 2.1433839e+2, -894481.4, -924063.6, -4660.394, 0.0023116802, -0.07071695, -893764.5, -54287.973, 0.0000000000008157841, 9.998467, 9.994517 
3.7492582e+2, 2.2433257e+2, -802228.94, -838972.2, -7428.589, -0.007032836, -0.05853099, -800783.9, -59250.258, 0.00000000000003921943, 9.998509, 9.993611 
3.749233e+2, 2.3432583e+2, -717512.44, -747347.7, -4621.658, 0.0067450404, -0.09645817, -716812.94, -73213.51, 0.000000000000000000006929764, 9.997596, 9.993612 
3.7492105e+2, 2.4431835e+2, -639294.75, -683309.94, -1867.5939, 0.0133656915, -0.09961321, -639215.6, -93542.84, 0.0000000000000000000002423796, 9.9972925, 9.991435 
3.7491915e+2, 2.5431013e+2, -534610.5, -582911.4, -6139.9346, 0.010282373, -0.059326857, -533842.25, -86087.93, 0.0, 9.99778, 9.991357 
3.7491786e+2, 2.6430115e+2, -438792.66, -496819.06, -4957.4326, 0.01440785, -0.04212991, -438372.16, -88529.66, 0.0, 9.998092, 9.990385 
3.7491727e+2, 2.7429143e+2, -339472.1, -397938.38, -5539.1284, 0.028042411, -0.05762816, -338951.94, -87014.13, 0.0, 9.998166, 9.990402 
3.7491634e+2, 2.8428134e+2, -248723.5, -309631.56, -6066.6636, 0.04057618, -0.073206425, -248125.13, -94089.32, 0.0, 9.997928, 9.989848 
3.749149e+2, 2.9427108e+2, -159699.27, -215207.3, -336.72842, 0.05194546, -0.090601645, -159697.22, -103561.83, 0.0, 9.997274, 9.98991 
3.7491387e+2, 3.042635e+2, -74901.31, -91525.72, 6287.2007, 0.042826746, -0.100082815, -72791.34, -72791.34, 0.0, 9.99725, 9.995039 
3.749133e+2, 3.142585e+2, -63447.086, -86628.95, 2510.7466, 0.00587547, -0.10094891, -63178.273, -63178.273, 0.0, 9.998062, 9.994983 
3.849367e+2, 1.24363974e+2, -1724461.8, -1704758.6, 4031.5095, -0.0433296, -0.07148129, -1703965.6, 17261.611, 0.0000029192024, 9.998712, 10.001323 
3.8493672e+2, 1.343647e+2, -1637561.4, -1620282.3, -1150.3359, 0.024441762, -0.061919037, -1620206.0, 3013.091, 0.0000018948215, 9.99831, 10.0006 
3.849361e+2, 1.4436388e+2, -1554334.1, -1553300.3, -5370.377, 0.023116495, -0.101185374, -1548422.0, -23195.074, 0.0000010225369, 9.998346, 9.998468 
3.8493517e+2, 1.5436292e+2, -1448050.6, -1452127.5, -8850.944, -0.029046653, -0.03819046, -1441006.4, -13769.45, 0.0000004349407, 9.998947, 9.998389 
3.849339e+2, 1.6436037e+2, -1365933.9, -1388329.5, -13863.42, -0.04974762, -0.016790742, -1359310.8, -30048.717, 0.00000013969013, 9.999015, 9.996027 
3.8493222e+2, 1.74356e+2, -1277505.4, -1295976.6, -8655.162, -0.029528225, -0.04854698, -1274083.8, -42778.91, 0.000000033038678, 9.998404, 9.995937 
3.8493058e+2, 1.8435183e+2, -1180042.4, -1192088.6, -5463.7983, -0.008927653, -0.080515176, -1177933.4, -44588.29, 0.0000000056966374, 9.998102, 9.996478 
3.84929e+2, 1.9434808e+2, -1079919.8, -1091795.9, -5984.7554, 0.011561906, -0.11536744, -1077427.0, -42046.156, 0.0000000007140435, 9.998189, 9.996589 
3.8492742e+2, 2.043436e+2, -1001767.2, -1027893.3, -6056.074, 0.020339157, -0.11715333, -1000431.7, -63007.18, 0.00000000006503118, 9.997891, 9.994406 
3.8492584e+2, 2.1433833e+2, -915732.2, -936574.25, -7238.1587, 0.013913737, -0.077861324, -913465.1, -73988.445, 0.000000000004303039, 9.997111, 9.994322 
3.8492373e+2, 2.2433251e+2, -822843.75, -846939.56, -12903.619, 0.008064874, -0.064797565, -817237.9, -75703.97, 0.00000000000020687176, 9.997012, 9.993794 
3.8492095e+2, 2.343261e+2, -713012.6, -742819.44, -14767.648, 0.0033294416, -0.08801462, -706935.25, -63338.9, 0.00000000000000000020104626, 9.9978, 9.993825 
3.8491872e+2, 2.4431865e+2, -626107.06, -679892.06, -10259.513, 0.0012104788, -0.08914573, -624216.5, -78546.96, 0.000000000000000000007029948, 9.998317, 9.991176 
3.849172e+2, 2.5430998e+2, -526292.94, -582249.0, -7717.898, 0.002055925, -0.0629306, -525247.94, -77492.76, 0.0, 9.99849, 9.99106 
3.8491595e+2, 2.6430082e+2, -438166.34, -495283.47, -4625.88, 0.013872386, -0.05466384, -437794.13, -87948.836, 0.0, 9.998077, 9.9904995 
3.849149e+2, 2.742912e+2, -356900.88, -404762.4, -2750.4365, 0.04000348, -0.072508276, -356743.34, -104803.85, 0.0, 9.996901, 9.990548 
3.849138e+2, 2.8428134e+2, -265284.25, -317270.1, -3967.5881, 0.04950289, -0.07806061, -264983.2, -110947.375, 0.0, 9.996775, 9.989883 
3.849124e+2, 2.9427135e+2, -148391.08, -209451.4, -10043.965, 0.037409488, -0.069026046, -146781.36, -90648.484, 0.0, 9.998033, 9.989942 
3.8491157e+2, 3.042638e+2, -59742.28, -85496.086, -8464.098, 0.031207014, -0.072110236, -57209.59, -57209.59, 0.0, 9.9983425, 9.994927 
3.849113e+2, 3.1425846e+2, -74015.836, -93059.79, -5217.708, 0.03213336, -0.09362302, -72679.984, -72679.984, 0.0, 9.997391, 9.994868 
3.949354e+2, 1.243655e+2, -1736648.5, -1729055.9, 2411.568, -0.045224912, -0.13002262, -1728354.8, -7144.28, 0.000012531762, 9.998687, 9.999682 
3.949344e+2, 1.3436541e+2, -1649600.1, -1644459.4, -2762.5703, -0.03908387, -0.03987814, -1643256.4, -20044.29, 0.0000081336, 9.998293, 9.998963 
3.9493385e+2, 1.4436343e+2, -1561920.6, -1568505.3, -3480.4683, -0.03983691, -0.057361066, -1560422.0, -35190.36, 0.0000043890395, 9.998334, 9.99744 
3.9493433e+2, 1.5436092e+2, -1455223.5, -1466645.8, -6711.0986, -0.010447836, -0.05026893, -1452122.4, -24866.127, 0.0000018668253, 9.99894, 9.997404 
3.9493346e+2, 1.6435808e+2, -1356625.8, -1369063.3, -15997.078, 0.003393514, -0.06773921, -1345681.1, -16397.354, 0.0000005995586, 9.999013, 9.997336 
3.949309e+2, 1.7435502e+2, -1267087.3, -1274399.4, -10967.796, -0.0021846017, -0.11648094, -1259182.1, -27869.012, 0.00000014180438, 9.998402, 9.997404 
3.9492857e+2, 1.8435195e+2, -1180654.5, -1193224.0, -5213.257, -0.016631799, -0.11227994, -1178773.8, -45430.78, 0.000000024450705, 9.998098, 9.996402 
3.9492667e+2, 1.9434907e+2, -1081148.6, -1094386.8, -5559.4014, -0.04239418, -0.0429003, -1079123.6, -43751.91, 0.0000000030648393, 9.998195, 9.996408 
3.9492476e+2, 2.0434448e+2, -1004039.9, -1032686.94, -8807.877, -0.035080884, -0.02807697, -1001548.44, -64131.79, 0.00000000027913746, 9.9979, 9.994073 
3.9492297e+2, 2.143379e+2, -918258.0, -941611.4, -10175.905, 0.014938618, -0.085195884, -914446.2, -74965.39, 0.00000000001847093, 9.997107, 9.99398 
3.94921e+2, 2.2433145e+2, -825954.4, -853201.44, -10225.032, 0.031224232, -0.09747541, -822544.06, -80999.92, 0.0000000000008880364, 9.997007, 9.993369 
3.9491877e+2, 2.3432529e+2, -715926.5, -748977.25, -11721.072, 0.0035161022, -0.05369548, -712191.75, -68586.945, 0.000000000000000004402075, 9.9978075, 9.993401 
3.9491704e+2, 2.4431796e+2, -622062.44, -671859.0, -9490.883, -0.000544792, -0.04407683, -620314.9, -74638.195, 0.00000000000000000015389045, 9.998335, 9.991714 
3.9491597e+2, 2.5430927e+2, -521847.25, -573263.94, -7070.3115, 0.026459413, -0.08082021, -520892.72, -73131.29, 0.0, 9.998503, 9.991666 
3.9491427e+2, 2.643004e+2, -434522.13, -487820.7, -8765.297, 0.040094245, -0.097072415, -433117.63, -83269.69, 0.0, 9.998083, 9.991006 
3.9491177e+2, 2.7429157e+2, -353417.13, -397417.9, -7253.9575, 0.036324114, -0.08902236, -352252.1, -100317.22, 0.0, 9.996898, 9.991051 
3.949103e+2, 2.842815e+2, -275672.28, -338759.22, 132.05511, 0.023545839, -0.07429093, -275672.0, -121638.12, 0.0, 9.996776, 9.988412 
3.9491007e+2, 2.9427004e+2, -159559.94, -232979.05, -5415.9067, -0.0011942307, -0.052319106, -159162.58, -103015.92, 0.0, 9.998051, 9.98832 
3.9490974e+2, 3.04262e+2, -54727.457, -75607.03, -11771.436, 0.012936813, -0.043229748, -49433.336, -49433.336, 0.0, 9.998369, 9.995591 
3.9490914e+2, 3.1425762e+2, -67884.43, -80578.85, -9111.09, 0.07811827, -0.05435715, -63127.633, -63127.633, 0.0, 9.997405, 9.995714 
4.0493414e+2, 1.2436622e+2, -1741841.8, -1740080.6, -7573.8687, -0.03597108, -0.115870774, -1733336.3, -12133.108, 0.00004485904, 9.998698, 9.998931 
4.0493333e+2, 1.3436529e+2, -1631162.3, -1643467.8, -5595.785, -0.052647006, -0.03642194, -1628998.3, -5785.4146, 0.00002911354, 9.999888, 9.998255 
4.0493274e+2, 1.4436285e+2, -1539868.5, -1557640.8, -2149.1826, -0.056226153, -0.06510711, -1539612.3, -14375.214, 0.000015709626, 9.999823, 9.997455 
4.0493295e+2, 1.5436022e+2, -1466246.3, -1471277.1, 2351.0781, -0.0031854429, -0.077088974, -1465318.5, -38055.996, 0.000006681798, 9.998155, 9.997474 
4.0493184e+2, 1.643575e+2, -1377708.4, -1376675.3, -4778.723, 0.02082298, -0.096502796, -1372385.3, -43096.668, 0.0000021459712, 9.99746, 9.997575 
4.049292e+2, 1.743549e+2, -1270926.8, -1273459.3, -8930.884, 0.008062396, -0.12534937, -1263172.9, -31859.14, 0.00000050756734, 9.998015, 9.997658 
4.0492687e+2, 1.8435179e+2, -1180961.3, -1200517.9, -9638.984, -0.013231916, -0.10783241, -1177009.1, -43665.137, 0.00000008752133, 9.998384, 9.995768 
4.04925e+2, 1.9434826e+2, -1081533.4, -1102392.6, -13940.028, -0.045288227, -0.033418797, -1074553.1, -39173.61, 0.000000010971236, 9.998505, 9.995714 
4.0492287e+2, 2.0434345e+2, -993045.8, -1023366.44, -19054.314, -0.04260646, -0.021287387, -983856.56, -46429.74, 0.0000000009993062, 9.998474, 9.994432 
4.0492052e+2, 2.1433719e+2, -898344.6, -927129.0, -14788.539, 0.0047815703, -0.09145886, -892101.0, -52613.43, 0.00000000006613187, 9.998253, 9.994414 
4.0491843e+2, 2.2433078e+2, -812684.44, -849830.44, -8265.607, 0.022616562, -0.10792377, -810928.2, -69378.08, 0.0000000000031798247, 9.998042, 9.993099 
4.0491655e+2, 2.3432438e+2, -717452.7, -753312.75, -8746.842, 0.0016535351, -0.05652747, -715432.94, -71819.59, 0.0000000000000000688154, 9.997856, 9.993082 
4.0491503e+2, 2.4431707e+2, -630562.7, -671676.6, -8189.234, 0.0021577568, -0.048020653, -628991.56, -83306.414, 0.0000000000000000024051838, 9.997565, 9.9921 
4.049138e+2, 2.5430867e+2, -538643.06, -576488.8, -7209.836, 0.03074269, -0.09746759, -537316.06, -89549.555, 0.0, 9.99714, 9.992106 
4.04912e+2, 2.6430005e+2, -445574.4, -493778.2, -11380.46, 0.038717154, -0.112970866, -443022.7, -93171.88, 0.0, 9.997352, 9.9909525 
4.0490928e+2, 2.7429128e+2, -332074.03, -388099.25, -14344.694, 0.019651067, -0.08628436, -328614.78, -76677.734, 0.0, 9.998399, 9.990965 
4.0490773e+2, 2.8428113e+2, -252352.42, -329187.56, -4353.4473, 0.009034741, -0.06961331, -252106.55, -98069.39, 0.0, 9.99844, 9.988267 
4.0490776e+2, 2.9426932e+2, -173534.1, -241458.8, 1281.5634, 0.009548536, -0.06791879, -173509.92, -117356.56, 0.0, 9.997164, 9.98817 
4.0490744e+2, 3.042612e+2, -78601.12, -87097.49, -1968.3679, 0.02867059, -0.06164089, -78167.26, -78167.26, 0.0, 9.996722, 9.9956 
4.0490645e+2, 3.1425703e+2, -67860.15, -80378.41, -5647.8984, 0.07189402, -0.052045412, -65688.66, -65688.66, 0.0, 9.997393, 9.995738 
4.149331e+2, 1.243662e+2, -1741338.1, -1738167.4, -3552.8318, -0.016069666, -0.024744364, -1735862.3, -14657.625, 0.0001357749, 9.998666, 9.999074 
4.149336e+2, 1.3436444e+2, -1629659.9, -1640049.1, -1224.8698, -0.0154703325, -0.051710464, -1629517.4, -6296.41, 0.00008811505, 9.99988, 9.998487 
4.149329e+2, 1.4436217e+2, -1532253.0, -1541779.4, -7917.7285, -0.02533875, -0.12592375, -1527776.1, -2533.5066, 0.000047546542, 9.999818, 9.998533 
4.1493106e+2, 1.5436088e+2, -1458381.1, -1454566.8, -4025.408, -0.008188999, -0.119208604, -1452019.6, -24764.625, 0.000020223571, 9.998135, 9.998618 
4.1492915e+2, 1.6435872e+2, -1384298.9, -1389660.5, -3152.6343, 0.0010657002, -0.10254066, -1382841.4, -53565.496, 0.0000064954993, 9.99744, 9.9967 
4.1492715e+2, 1.7435567e+2, -1278257.5, -1288327.8, -6776.0522, -0.000020768706, -0.07350474, -1274850.6, -43544.555, 0.0000015364569, 9.998011, 9.996645 
4.1492543e+2, 1.8435137e+2, -1189652.1, -1218352.0, -9115.257, 0.00056990003, -0.06598176, -1187001.8, -53653.336, 0.00000026496838, 9.998384, 9.994553 
4.1492397e+2, 1.9434562e+2, -1090271.5, -1120422.1, -13491.467, 0.0034723242, -0.08868252, -1085116.0, -49711.09, 0.000000033220672, 9.9985075, 9.994483 
4.149218e+2, 2.0434044e+2, -985452.56, -1007894.6, -19793.965, -0.00196356, -0.09917683, -973920.3, -36464.65, 0.0000000030265355, 9.998486, 9.995479 
4.1491857e+2, 2.1433611e+2, -889510.75, -909203.4, -15562.321, -0.017992564, -0.09623007, -880941.44, -41443.977, 0.00000000020034616, 9.998268, 9.995627 
4.1491604e+2, 2.2433047e+2, -813263.6, -851366.0, -8947.488, -0.019747397, -0.0950262, -811267.1, -69714.83, 0.000000000009636878, 9.99806, 9.992984 
4.149144e+2, 2.3432334e+2, -718842.9, -756303.1, -9383.127, -0.0031501416, -0.09758628, -716624.0, -73001.47, 0.0000000000000007946489, 9.997864, 9.992873 
4.1491267e+2, 2.4431586e+2, -629065.0, -668550.0, -9665.196, 0.008363987, -0.10243828, -626826.1, -81130.34, 0.000000000000000027769294, 9.997567, 9.992311 
4.149108e+2, 2.543081e+2, -536996.1, -572879.44, -8789.52, 0.01326477, -0.11252674, -534958.8, -87187.625, 0.0, 9.997133, 9.992355 
4.1490903e+2, 2.642996e+2, -450096.94, -503127.9, -7757.752, 0.007857783, -0.10081462, -448985.38, -99130.58, 0.0, 9.997355, 9.990311 
4.1490737e+2, 2.7429023e+2, -336773.75, -398283.78, -10407.317, -0.011498984, -0.063360296, -335060.56, -83113.2, 0.0, 9.998422, 9.990256 
4.149062e+2, 2.8428006e+2, -243460.05, -311261.22, -8806.835, 0.0055390643, -0.06378709, -242334.78, -88287.7, 0.0, 9.9984665, 9.989478 
4.1490558e+2, 2.9426908e+2, -163924.86, -221505.42, -3727.4133, 0.07089348, -0.11644982, -163684.56, -107530.53, 0.0, 9.997168, 9.9895315 
4.1490465e+2, 3.0426118e+2, -83518.62, -97269.086, 44.478516, 0.079050444, -0.12868837, -83518.48, -83518.48, 0.0, 9.996726, 9.994898 
4.1490328e+2, 3.1425646e+2, -73549.51, -92703.96, -3191.2375, 0.010410368, -0.08854292, -73031.82, -73031.82, 0.0, 9.997421, 9.994876 
4.2493212e+2, 1.24365516e+2, -1720996.1, -1722874.6, -1078.9331, -0.0295969, -0.027673252, -1720504.9, 706.10254, 0.00035082738, 9.999807, 9.9995575 
4.24933e+2, 1.3436417e+2, -1645657.3, -1641438.6, 3688.463, 0.0047840863, -0.071233064, -1639298.9, -16075.704, 0.00022768496, 9.9985075, 9.999066 
4.2493215e+2, 1.4436227e+2, -1554463.8, -1552210.3, -6258.697, -0.0017770047, -0.13936098, -1546977.8, -21736.549, 0.0001228659, 9.998287, 9.998572 
4.2492968e+2, 1.5436123e+2, -1439080.1, -1445172.0, -11105.338, -0.022206983, -0.107140526, -1430610.6, -3359.1802, 0.000052266085, 9.999443, 9.998622 
4.2492753e+2, 1.6435897e+2, -1351118.5, -1378790.0, -12109.7295, -0.02638232, -0.07890148, -1346567.5, -17293.94, 0.00001678997, 9.999922, 9.996235 
4.249258e+2, 1.7435537e+2, -1259296.0, -1284687.3, -11847.285, -0.009924977, -0.056369085, -1254626.8, -23317.59, 0.000003972505, 9.999537, 9.996155 
4.2492405e+2, 1.8435077e+2, -1181495.6, -1211705.6, -9107.879, 0.005836101, -0.065302804, -1178962.3, -45607.87, 0.00000068530704, 9.99882, 9.994795 
4.2492223e+2, 1.9434503e+2, -1100373.1, -1122034.8, -2111.6323, 0.02059196, -0.117298454, -1100169.1, -64758.94, 0.00000008596078, 9.997673, 9.99478 
4.2491987e+2, 2.0433988e+2, -1003444.94, -1019111.06, -3960.7695, 0.012955447, -0.12987809, -1002500.5, -65040.004, 0.000000007836224, 9.997361, 9.995261 
4.249167e+2, 2.1433562e+2, -893090.3, -913798.75, -10689.146, -0.023676254, -0.09388428, -888562.75, -49060.77, 0.0000000005191636, 9.998145, 9.995376 
4.2491415e+2, 2.2432992e+2, -809294.5, -849593.4, -12040.862, -0.028838815, -0.08376078, -805970.94, -64413.516, 0.000000000025000514, 9.998334, 9.992974 
4.249123e+2, 2.3432258e+2, -720362.06, -757006.7, -11103.479, 0.0067019886, -0.108618185, -717260.25, -73630.78, 0.0000000000000068380394, 9.997755, 9.99288 
4.249103e+2, 2.4431506e+2, -630217.75, -668874.06, -10390.481, 0.022231111, -0.11796135, -627601.94, -81899.02, 0.00000000000000023892724, 9.997473, 9.992337 
4.2490813e+2, 2.5430754e+2, -530070.75, -569295.5, -11178.248, 0.011302269, -0.10935904, -527108.9, -79332.4, 0.0, 9.997593, 9.99238 
4.2490637e+2, 2.6429906e+2, -449202.0, -502646.28, -7268.638, 0.0034688294, -0.09492535, -448231.06, -98371.37, 0.0, 9.997408, 9.990321 
4.249051e+2, 2.7428952e+2, -359928.88, -409424.78, -4364.961, -0.0007209356, -0.075737335, -359546.88, -107593.05, 0.0, 9.996828, 9.990266 
4.2490387e+2, 2.8427953e+2, -267304.25, -318145.3, -5353.723, 0.018431792, -0.08089484, -266746.63, -112694.66, 0.0, 9.996631, 9.989894 
4.249026e+2, 2.942691e+2, -164415.53, -216701.27, -7464.587, 0.06885776, -0.120463535, -163370.73, -107217.59, 0.0, 9.996912, 9.989985 
4.2490166e+2, 3.0426148e+2, -74309.664, -92759.49, -701.4628, 0.07476409, -0.1307165, -74283.04, -74283.04, 0.0, 9.997354, 9.994905 
4.249011e+2, 3.142566e+2, -65176.676, -88938.77, 2715.2976, 0.02038559, -0.103780724, -64870.348, -64870.348, 0.0, 9.998006, 9.994852 
4.3493146e+2, 1.2436423e+2, -1715630.0, -1711119.6, -6086.3257, -0.08058758, -0.12833956, -1706884.1, 14337.575, 0.00078514614, 9.999781, 10.000367 
4.3493152e+2, 1.3436455e+2, -1639742.4, -1628372.3, -1426.3351, 0.0069238213, -0.0949897, -1628196.1, -4977.608, 0.00050963036, 9.998474, 9.999967 
4.349306e+2, 1.4436325e+2, -1562403.6, -1567720.6, -2520.9634, 0.013579924, -0.103754416, -1561398.4, -36166.54, 0.00027507497, 9.998258, 9.99753 
4.349289e+2, 1.5436135e+2, -1447553.4, -1462407.6, -6787.145, -0.04720853, -0.0390436, -1444919.4, -17667.748, 0.00011705333, 9.99944, 9.997449 
4.349271e+2, 1.643583e+2, -1351386.1, -1379486.6, -13377.335, -0.06365512, -0.024440225, -1346036.4, -16754.576, 0.000037619757, 9.999931, 9.9961815 
4.3492523e+2, 1.74354e+2, -1259024.0, -1284238.6, -13400.437, -0.022941839, -0.07466075, -1253232.5, -21909.313, 0.000008906541, 9.999546, 9.996179 
4.349228e+2, 1.8434997e+2, -1169060.0, -1186115.9, -13278.39, 0.0012564425, -0.10676193, -1161806.9, -28445.127, 0.0000015378395, 9.998824, 9.996533 
4.3491977e+2, 1.9434652e+2, -1087162.8, -1094687.5, -6333.7827, 0.0040648305, -0.11798949, -1083558.1, -48163.16, 0.00000019312868, 9.997671, 9.996642 
4.349171e+2, 2.0434183e+2, -1014395.56, -1041588.9, -1310.831, -0.000009433195, -0.11155639, -1014332.5, -76891.664, 0.000000017634331, 9.99736, 9.993729 
4.3491498e+2, 2.1433572e+2, -905569.7, -939645.7, -7569.083, -0.012742056, -0.084316924, -903964.06, -64462.848, 0.0000000011708853, 9.998152, 9.9936075 
4.3491274e+2, 2.2432913e+2, -808571.4, -848306.3, -13823.205, -0.004465469, -0.074086614, -804235.56, -62669.688, 0.000000000056553692, 9.998345, 9.993055 
4.349103e+2, 2.343221e+2, -718759.5, -753799.5, -13214.227, 0.030965485, -0.088110834, -714334.9, -70700.37, 0.000000000000044721503, 9.997762, 9.9930935 
4.3490803e+2, 2.4431466e+2, -631479.75, -671617.5, -10054.532, 0.043181196, -0.09272891, -629101.94, -83394.79, 0.000000000000001562477, 9.997482, 9.992144 
4.349059e+2, 2.5430688e+2, -531492.2, -572415.4, -10684.836, 0.024962753, -0.08720792, -528870.4, -81087.14, 0.0, 9.997603, 9.99216 
4.34904e+2, 2.6429838e+2, -444360.47, -492724.7, -9346.204, 0.026160065, -0.095428996, -442617.2, -92750.64, 0.0, 9.997416, 9.9909935 
4.3490246e+2, 2.742891e+2, -354794.78, -398602.03, -6620.954, 0.05271299, -0.124704935, -353815.97, -101858.516, 0.0, 9.996825, 9.991005 
4.349008e+2, 2.8427935e+2, -270469.4, -324484.2, -4501.6255, 0.047381885, -0.121778995, -270096.8, -116043.83, 0.0, 9.996623, 9.989463 
4.3489882e+2, 2.9426926e+2, -167928.81, -224178.6, -6516.605, 0.0004526576, -0.07817885, -167183.73, -111031.53, 0.0, 9.996923, 9.989467 
4.348984e+2, 3.0426192e+2, -68738.086, -81694.016, 1434.3903, 0.01273809, -0.06522751, -68581.18, -68581.18, 0.0, 9.99738, 9.995649 
4.3489993e+2, 3.1425732e+2, -58929.58, -76467.64, 5013.8125, 0.10263243, -0.09594796, -57597.41, -57597.41, 0.0, 9.998032, 9.995693 
4.4493136e+2, 1.2436475e+2, -1715924.8, -1714693.3, 974.88135, -0.07152875, -0.15751757, -1714156.0, 7059.895, 0.0015538043, 9.999904, 10.000067 
4.4493076e+2, 1.3436523e+2, -1615107.5, -1619365.0, -3254.8872, -0.00505753, -0.082286544, -1613347.1, 9864.73, 0.0010089569, 10.000272, 9.999706 
4.449296e+2, 1.4436369e+2, -1539043.1, -1562266.4, -5022.914, -0.002726697, -0.07581428, -1538003.4, -12775.574, 0.0005448942, 10.000098, 9.997006 
4.4492823e+2, 1.5436102e+2, -1454374.0, -1471852.9, -4431.4214, -0.048473362, -0.034755614, -1453314.6, -26059.725, 0.00023205215, 9.999238, 9.996907 
4.449265e+2, 1.643577e+2, -1366169.6, -1382478.6, -8369.1455, -0.055959515, -0.036169615, -1362639.1, -33351.6, 0.00007466019, 9.99874, 9.996558 
4.4492444e+2, 1.7435378e+2, -1268299.4, -1283824.1, -5394.641, -0.013949256, -0.0924798, -1266608.9, -35283.746, 0.000017702305, 9.998697, 9.99662 
4.449217e+2, 1.8435006e+2, -1169853.0, -1188227.0, -11001.3, 0.0035485094, -0.112052284, -1164707.3, -31346.205, 0.000003062777, 9.998841, 9.996384 
4.4491807e+2, 1.9434677e+2, -1065654.4, -1086375.1, -19757.398, -0.01049099, -0.08674278, -1053705.8, -18312.72, 0.0000003857046, 9.999225, 9.996458 
4.449152e+2, 2.0434192e+2, -990311.4, -1032648.7, -16995.7, -0.013211683, -0.0738798, -984332.94, -46892.492, 0.00000003535121, 9.999118, 9.993488 
4.4491336e+2, 2.1433525e+2, -903932.0, -941621.3, -11698.083, -0.0014201942, -0.07879247, -900596.3, -61090.3, 0.000000002359298, 9.998379, 9.993366 
4.4491103e+2, 2.2432843e+2, -815038.7, -850628.1, -13374.589, 0.013485857, -0.082386464, -810572.9, -69000.086, 0.000000000114745775, 9.997864, 9.993133 
4.4490802e+2, 2.343216e+2, -719658.7, -753134.56, -13733.939, 0.032194957, -0.08685727, -714745.3, -71105.945, 0.00000000000022836846, 9.997648, 9.9931965 
4.449054e+2, 2.4431415e+2, -634284.06, -675633.44, -10039.753, 0.03920114, -0.08725234, -631975.3, -86263.16, 0.0000000000000079783024, 9.997401, 9.99191 
4.4490328e+2, 2.5430608e+2, -540308.9, -579579.25, -10899.132, 0.030577512, -0.08406536, -537486.75, -89695.65, 0.0, 9.997121, 9.991906 
4.449013e+2, 2.6429757e+2, -449719.22, -492441.03, -12106.256, 0.0359039, -0.092057474, -446527.13, -96652.54, 0.0, 9.996921, 9.991255 
4.4489935e+2, 2.7428862e+2, -352721.9, -394283.7, -12838.224, 0.05955901, -0.117949046, -349076.06, -97113.914, 0.0, 9.996819, 9.991307 
4.4489765e+2, 2.8427896e+2, -265161.75, -324387.2, -8642.712, 0.048672132, -0.11306, -263926.3, -109869.414, 0.0, 9.9970875, 9.989248 
4.4489613e+2, 2.942686e+2, -156300.7, -221465.1, -8431.735, -0.0074075353, -0.06926288, -155227.39, -99068.72, 0.0, 9.99784, 9.989214 
4.4489583e+2, 3.0426127e+2, -64525.02, -77501.484, -4904.548, 0.007595521, -0.05506058, -62879.88, -62879.88, 0.0, 9.997565, 9.995852 
4.4489703e+2, 3.1425694e+2, -88176.44, -87908.06, -6303.991, 0.11619639, -0.08337457, -81736.83, -81736.83, 0.0, 9.995899, 9.995942 
4.5493197e+2, 1.2436725e+2, -1726926.9, -1736276.3, 2113.7246, -0.0034799704, -0.111436285, -1726471.3, -5279.2827, 0.0027803245, 9.999866, 9.998617 
4.5493075e+2, 1.343663e+2, -1625903.5, -1641138.5, -2018.2273, -0.032704484, -0.03190434, -1625640.6, -2438.326, 0.0018069525, 10.000262, 9.998228 
4.549292e+2, 1.4436366e+2, -1539170.1, -1562311.8, -8245.012, -0.05226437, -0.05619956, -1536533.0, -11304.466, 0.0009770269, 10.000093, 9.997003 
4.5492768e+2, 1.543603e+2, -1453931.9, -1470521.0, -7827.3643, -0.026450107, -0.09644958, -1450821.8, -23560.656, 0.00041677037, 9.999224, 9.997003 
4.5492578e+2, 1.6435722e+2, -1360666.5, -1370668.4, -8772.288, -0.003264626, -0.116019055, -1355569.9, -26279.156, 0.00013439546, 9.998723, 9.997368 
4.5492345e+2, 1.7435476e+2, -1262356.9, -1271275.4, -5523.136, 0.016610423, -0.10969432, -1259717.5, -28403.19, 0.000031964762, 9.998689, 9.997477 
4.5492062e+2, 1.84351e+2, -1184927.6, -1219177.8, -9628.075, 0.011962817, -0.08006212, -1182406.6, -49054.887, 0.000005553748, 9.998841, 9.994275 
4.5491716e+2, 1.9434571e+2, -1081910.4, -1120218.0, -18313.414, -0.024164671, -0.022909874, -1074564.1, -39159.41, 0.00000070340104, 9.999244, 9.994141 
4.5491418e+2, 2.0434009e+2, -982313.2, -1016619.0, -19660.703, -0.028120596, -0.01620529, -973374.56, -35914.383, 0.000000064967765, 9.999141, 9.994568 
4.5491186e+2, 2.1433416e+2, -894461.4, -922263.0, -14516.025, 0.00957986, -0.076690115, -888263.75, -48746.78, 0.0000000043809485, 9.998389, 9.994679 
4.54909e+2, 2.2432779e+2, -814536.94, -849674.44, -14255.264, 0.024274275, -0.10861575, -809481.06, -67902.49, 0.00000000021602262, 9.997871, 9.993192 
4.5490542e+2, 2.34321e+2, -719709.56, -753369.75, -14457.9375, 0.008932808, -0.10569033, -714352.2, -70707.555, 0.0000000000009414817, 9.997657, 9.993175 
4.549025e+2, 2.4431345e+2, -636163.6, -679661.2, -11029.993, 0.008320786, -0.102374844, -633526.56, -87807.984, 0.000000000000032891313, 9.997411, 9.991629 
4.5490035e+2, 2.543051e+2, -542428.3, -583945.7, -11906.878, 0.026942264, -0.100310855, -539255.9, -91455.055, 0.0, 9.997122, 9.991607 
4.5489815e+2, 2.6429656e+2, -451027.9, -495168.4, -12517.867, 0.031438325, -0.08407924, -447725.1, -97840.28, 0.0, 9.996925, 9.991064 
4.5489576e+2, 2.74288e+2, -353855.44, -396847.6, -13308.984, 0.016849436, -0.052855078, -350068.9, -98099.7, 0.0, 9.996832, 9.991122 
4.5489448e+2, 2.8427818e+2, -264940.25, -324247.2, -6227.759, 0.019914072, -0.052244626, -264293.34, -110228.08, 0.0, 9.997104, 9.989248 
4.5489454e+2, 2.94267e+2, -155923.89, -221083.94, -5773.833, 0.047181364, -0.09476341, -155416.22, -99241.86, 0.0, 9.997861, 9.989227 
4.5489395e+2, 3.0425924e+2, -67125.96, -83234.91, -10804.981, 0.061087295, -0.10226219, -61703.707, -61703.707, 0.0, 9.997583, 9.995449 
4.5489234e+2, 3.1425512e+2, -91169.28, -94139.49, -13074.81, 0.05633123, -0.0650187, -79495.51, -79495.51, 0.0, 9.995904, 9.995511 
4.649319e+2, 1.2436803e+2, -1731367.9, -1743278.5, -6848.7495, 0.012540367, -0.087996304, -1728247.3, -7062.8525, 0.004589857, 9.999768, 9.998193 
4.6493098e+2, 1.3436648e+2, -1628198.4, -1646851.0, -2938.2932, -0.03777726, -0.02917626, -1627746.5, -4545.8765, 0.0029879087, 10.000297, 9.997828 
4.6492928e+2, 1.4436375e+2, -1532454.4, -1552528.5, -7380.179, -0.061713066, -0.068831496, -1530033.1, -4805.727, 0.0016192476, 10.00026, 9.99759 
4.649271e+2, 1.5436088e+2, -1445283.9, -1459083.5, -3122.3455, -0.020532588, -0.12332454, -1444610.3, -17356.11, 0.00069287396, 9.999492, 9.997652 
4.6492478e+2, 1.6435808e+2, -1356775.9, -1371414.9, -2564.9512, 0.007692851, -0.13903882, -1356339.5, -27058.533, 0.00022437889, 9.999097, 9.997138 
4.6492243e+2, 1.7435561e+2, -1257031.6, -1272002.1, -7892.439, 0.018788302, -0.10586492, -1253639.4, -22334.08, 0.000053673917, 9.999188, 9.997187 
4.6491963e+2, 1.8435144e+2, -1183345.4, -1224679.8, -10669.158, 0.009842664, -0.07419971, -1180753.9, -47407.22, 0.000009398119, 9.999213, 9.993723 
4.6491635e+2, 1.9434531e+2, -1087252.0, -1129314.8, -6198.198, -0.024647327, -0.046825852, -1086357.6, -50949.613, 0.0000012027082, 9.999153, 9.993567 
4.6491313e+2, 2.0433939e+2, -987826.94, -1016896.9, -7400.0073, -0.02547984, -0.048748102, -986051.6, -48585.37, 0.00000011262272, 9.998655, 9.994786 
4.6490994e+2, 2.1433392e+2, -903989.6, -923877.9, -10465.33, 0.017082201, -0.090916604, -899497.4, -59978.766, 0.000000007732489, 9.997605, 9.994951 
4.6490672e+2, 2.2432777e+2, -820894.4, -853236.44, -10209.6, 0.027889596, -0.112240404, -817941.1, -76363.07, 0.00000000039024706, 9.997454, 9.993154 
4.6490338e+2, 2.3432094e+2, -708093.7, -748520.5, -10471.852, -0.0028797032, -0.107873924, -705542.2, -61897.36, 0.0000000000032348013, 9.998479, 9.993111 
4.6490043e+2, 2.443133e+2, -617472.94, -671803.7, -9868.136, -0.005801957, -0.106472716, -615736.1, -70016.37, 0.00000000000011301746, 9.998732, 9.99153 
4.6489793e+2, 2.5430474e+2, -530537.0, -579546.44, -9598.497, 0.027464665, -0.111369185, -528724.2, -80920.51, 0.0, 9.997989, 9.99149 
4.6489537e+2, 2.64296e+2, -445902.7, -496414.2, -8784.794, 0.034079574, -0.09494252, -444418.5, -94528.78, 0.0, 9.99743, 9.990738 
4.648926e+2, 2.742872e+2, -352006.84, -399821.53, -10712.21, 0.005168264, -0.05393815, -349716.63, -97740.02, 0.0, 9.997116, 9.990786 
4.648912e+2, 2.8427738e+2, -269760.6, -322546.8, -2350.2625, 0.01050392, -0.054372273, -269656.16, -115583.34, 0.0, 9.996597, 9.989612 
4.648915e+2, 2.9426646e+2, -183554.86, -229743.0, 1137.1705, 0.061932866, -0.112387516, -183526.88, -127347.94, 0.0, 9.995761, 9.98965 
4.648909e+2, 3.0425882e+2, -89332.51, -93908.27, -527.9827, 0.07458588, -0.12885463, -89272.375, -89272.375, 0.0, 9.996059, 9.995452 
4.64889e+2, 3.142547e+2, -63334.176, -81052.35, 244.69043, 0.03429248, -0.091824114, -63330.797, -63330.797, 0.0, 9.997831, 9.995478 
4.7493127e+2, 1.2436717e+2, -1727703.0, -1734530.1, -5274.8843, -0.028734284, -0.087697506, -1724833.5, -3640.7488, 0.007113215, 9.9997225, 9.998805 
4.7493145e+2, 1.3436583e+2, -1623804.4, -1637025.5, -1150.2957, -0.020522371, -0.07518271, -1623705.0, -499.18274, 0.004643645, 10.00027, 9.998505 
4.7492987e+2, 1.4436401e+2, -1524382.1, -1535325.9, -10151.398, -0.030266618, -0.11407482, -1518321.8, 6901.5874, 0.0025262511, 10.00024, 9.998767 
4.7492644e+2, 1.543629e+2, -1436858.8, -1441423.6, -6092.754, -0.03303193, -0.11407169, -1432635.0, -5401.598, 0.0010866441, 9.999483, 9.998855 
4.7492352e+2, 1.6436039e+2, -1366188.9, -1390584.6, -2524.6191, -0.027035072, -0.103549205, -1365930.4, -36672.777, 0.00035438547, 9.999092, 9.995834 
4.7492132e+2, 1.7435636e+2, -1267563.4, -1293685.8, -7607.9404, -0.010361246, -0.08038473, -1265509.1, -34211.563, 0.000085576154, 9.999193, 9.9957075 
4.749187e+2, 1.8435143e+2, -1175814.4, -1209281.9, -10936.41, -0.004634289, -0.09511564, -1172557.5, -39211.73, 0.000015172572, 9.999222, 9.994764 
4.7491565e+2, 1.9434556e+2, -1078519.1, -1111474.5, -6298.4277, -0.012617877, -0.16076839, -1077356.4, -41954.0, 0.0000019737136, 9.999166, 9.994774 
4.7491196e+2, 2.0433985e+2, -992563.6, -1026797.1, -11031.087, -0.0058946824, -0.17423181, -989317.0, -51858.797, 0.00000018875323, 9.998664, 9.994105 
4.7490758e+2, 2.143345e+2, -909724.06, -935747.7, -14335.049, 0.019922448, -0.122461915, -903376.06, -63865.152, 0.000000013307983, 9.99761, 9.994138 
4.7490412e+2, 2.2432837e+2, -821898.1, -855388.25, -6718.37, 0.02296559, -0.09248235, -820600.6, -79029.23, 0.00000000069387657, 9.99746, 9.993002 
4.7490185e+2, 2.3432139e+2, -708684.06, -750067.2, -6406.343, -0.003656133, -0.09226458, -707715.0, -64074.867, 0.000000000009472845, 9.998495, 9.992995 
4.748992e+2, 2.4431361e+2, -616846.75, -670950.94, -12162.069, -0.003614295, -0.09875488, -614238.56, -68522.39, 0.00000000000033105848, 9.9987545, 9.991575 
4.7489595e+2, 2.54305e+2, -529922.1, -578582.0, -12364.984, 0.031307515, -0.11702628, -526960.4, -79160.125, 0.0, 9.998005, 9.991547 
4.7489288e+2, 2.6429582e+2, -449053.25, -503206.84, -10025.134, 0.043345828, -0.12561014, -447256.94, -97366.83, 0.0, 9.997446, 9.990264 
4.7488996e+2, 2.742861e+2, -355511.47, -407353.28, -11910.947, 0.02484602, -0.12448228, -352905.8, -100920.08, 0.0, 9.997133, 9.99026 
4.748879e+2, 2.8427637e+2, -264591.97, -311906.75, -5493.751, 0.019939777, -0.121944286, -263962.47, -109881.43, 0.0, 9.996602, 9.990335 
4.7488695e+2, 2.9426685e+2, -177993.67, -217948.45, -2233.0176, 0.03405759, -0.12075796, -177869.25, -121695.65, 0.0, 9.995753, 9.990459 
4.748867e+2, 3.042599e+2, -86261.79, -87557.49, 5481.6953, 0.045272987, -0.13357814, -81389.8, -81389.8, 0.0, 9.996066, 9.99588 
4.74887e+2, 3.1425554e+2, -59902.49, -74909.33, 7003.534, 0.050709352, -0.15743034, -57141.855, -57141.855, 0.0, 9.997881, 9.995872 
4.8493162e+2, 1.2436791e+2, -1701281.0, -1718327.0, 6846.3145, -0.04905083, -0.101100154, -1698871.8, 22312.68, 0.01049777, 10.001383, 9.999101 
4.8493156e+2, 1.3436672e+2, -1627657.3, -1635315.9, 8196.788, -0.015303458, -0.10704397, -1622439.5, 756.3487, 0.0068823104, 9.9998455, 9.99883 
4.8492974e+2, 1.4436507e+2, -1540192.1, -1544582.9, -5671.912, -0.014108844, -0.13979258, -1536305.6, -11093.905, 0.0037656925, 9.9992285, 9.998631 
4.8492613e+2, 1.5436412e+2, -1433795.3, -1441885.8, -12071.165, -0.02674547, -0.10678272, -1425109.5, 2111.147, 0.0016323061, 9.999771, 9.998686 
4.8492306e+2, 1.6436142e+2, -1353970.4, -1389102.9, -10182.497, -0.031947896, -0.08789354, -1351232.6, -21985.465, 0.00053782034, 10.000113, 9.995441 
4.8492083e+2, 1.7435674e+2, -1255882.8, -1292685.0, -7205.943, -0.028096326, -0.08779124, -1254522.1, -23229.01, 0.00013162919, 10.000185, 9.9952965 
4.849181e+2, 1.843517e+2, -1163166.8, -1197650.4, -10236.955, -0.018130232, -0.11447892, -1160356.8, -27014.563, 0.000023746588, 9.999843, 9.995257 
4.8491484e+2, 1.9434641e+2, -1077348.4, -1104731.5, -10811.59, -0.00012582677, -0.17792846, -1073594.3, -38201.598, 0.0000031577385, 9.998972, 9.995332 
4.8491088e+2, 2.0434071e+2, -994487.2, -1035390.4, -16957.133, 0.008742162, -0.18712601, -988371.6, -50923.395, 0.00000031029586, 9.998859, 9.993428 
4.849061e+2, 2.143347e+2, -884056.25, -931949.56, -19879.139, 0.005943979, -0.12806456, -876880.2, -37372.008, 0.000000022599854, 9.999727, 9.993375 
4.8490235e+2, 2.2432806e+2, -796250.44, -846882.25, -14004.224, 0.005600389, -0.094351865, -792635.2, -51061.016, 0.000000001223376, 9.999374, 9.992659 
4.8489997e+2, 2.3432073e+2, -726234.3, -762267.8, -15422.121, 0.008342203, -0.09536043, -720535.1, -76888.99, 0.000000000023981294, 9.997452, 9.992671 
4.8489708e+2, 2.443129e+2, -647146.25, -682927.4, -20353.111, 0.01482219, -0.100742385, -637938.44, -92215.695, 0.00000000000083893737, 9.996564, 9.99182 
4.8489344e+2, 2.543046e+2, -541963.75, -581281.94, -18779.557, 0.025786903, -0.11504707, -534435.5, -86632.03, 0.0, 9.997041, 9.991832 
4.8489e+2, 2.6429552e+2, -455233.16, -505892.34, -15008.952, 0.03382416, -0.12973171, -451120.3, -101228.23, 0.0, 9.997001, 9.9903 
4.8488677e+2, 2.7428564e+2, -367922.78, -413438.3, -13034.269, 0.03777702, -0.14726083, -364454.47, -112465.19, 0.0, 9.99628, 9.99026 
4.8488432e+2, 2.84276e+2, -272938.3, -314337.53, -5867.8853, 0.03297496, -0.14179847, -272122.66, -118038.99, 0.0, 9.995957, 9.990482 
4.848827e+2, 2.9426694e+2, -171417.06, -213170.52, -7604.5513, 0.017200267, -0.11129697, -170075.17, -113902.88, 0.0, 9.996129, 9.990607 
4.8488235e+2, 3.0426016e+2, -88437.35, -84594.875, -477.11224, 0.024924794, -0.13032135, -84536.516, -84536.516, 0.0, 9.995734, 9.996249 
4.8488337e+2, 3.142562e+2, -106128.336, -92691.44, 868.27264, 0.06394456, -0.15451072, -92635.56, -92635.56, 0.0, 9.9945, 9.996288 
4.9493298e+2, 1.2437043e+2, -1702411.5, -1719550.0, 971.9154, -0.050910395, -0.12807254, -1702356.6, 18801.342, 0.014911252, 10.0013485, 9.999031 
4.949313e+2, 1.3436928e+2, -1628685.6, -1636468.9, 2109.5193, -0.023876496, -0.12437486, -1628150.6, -4981.717, 0.009830928, 9.999811, 9.998765 
4.9492896e+2, 1.4436701e+2, -1551373.1, -1566734.4, -4242.29, -0.014723958, -0.1462245, -1550279.4, -25087.982, 0.0054196375, 9.9992, 9.997137 
4.9492615e+2, 1.5436457e+2, -1445403.9, -1465414.8, -10155.335, -0.0025350847, -0.10213134, -1441153.1, -13937.24, 0.0023727028, 9.9997635, 9.997087 
4.9492347e+2, 1.6436118e+2, -1350152.0, -1381204.3, -9993.184, -0.007837397, -0.092764944, -1347214.0, -17964.713, 0.00079196517, 10.000115, 9.995975 
4.9492097e+2, 1.743568e+2, -1251003.8, -1282753.9, -7058.65, -0.035579257, -0.12913701, -1249505.3, -18213.479, 0.00019707251, 10.000196, 9.995963 
4.949178e+2, 1.8435231e+2, -1163674.8, -1198794.1, -13388.428, -0.032156784, -0.1324917, -1159153.0, -25817.38, 0.000036298647, 9.999851, 9.9951725 
4.9491394e+2, 1.943479e+2, -1078204.0, -1106646.1, -14150.095, 0.011223864, -0.09565962, -1072363.5, -36984.695, 0.0000049503406, 9.998984, 9.995192 
4.9490982e+2, 2.0434201e+2, -999087.25, -1045186.94, -14100.739, 0.01653849, -0.08405054, -995116.25, -57679.61, 0.00000050112493, 9.998878, 9.992749 
4.9490553e+2, 2.1433446e+2, -888682.0, -942308.94, -16535.578, -0.02689735, -0.10648337, -883993.3, -44482.426, 0.000000037748414, 9.999768, 9.992646 
4.9490142e+2, 2.2432669e+2, -799837.94, -854980.8, -20750.299, -0.025678435, -0.1181306, -792902.0, -51314.848, 0.0000000021194788, 9.999407, 9.99209 
4.9489763e+2, 2.3431882e+2, -730252.25, -770472.8, -22875.045, 0.03303103, -0.117823504, -719904.5, -76240.35, 0.000000000053309013, 9.99745, 9.992111 
4.9489394e+2, 2.4431102e+2, -644177.2, -676372.6, -19137.809, 0.049267348, -0.11293278, -635267.06, -89526.53, 0.0000000000018704428, 9.99655, 9.992272 
4.9489033e+2, 2.5430346e+2, -538406.44, -573738.6, -16902.813, 0.009885635, -0.10483918, -531622.7, -83808.25, 0.0000000000000000000017017642, 9.997035, 9.992349 
4.9488673e+2, 2.6429504e+2, -451493.38, -498144.06, -17465.44, 0.004075161, -0.10563794, -445679.2, -95782.46, 0.000000000000000000000059654236, 9.997003, 9.990827 
4.9488312e+2, 2.742857e+2, -364286.2, -405932.88, -15858.772, 0.042416163, -0.11985844, -358934.88, -106946.52, 0.0, 9.9962845, 9.990769 
4.9488044e+2, 2.8427616e+2, -276045.34, -320954.6, -5545.451, 0.047850296, -0.11144913, -275370.72, -121288.61, 0.0, 9.995967, 9.990024 
4.9487883e+2, 2.9426655e+2, -174968.58, -220969.22, -7120.3774, 0.010890557, -0.08312557, -173891.64, -117714.73, 0.0, 9.996152, 9.990061 
4.94878e+2, 3.042594e+2, -86385.33, -80598.71, -5109.8345, 0.013174639, -0.119346164, -77619.914, -77619.914, 0.0, 9.99575, 9.996512 
4.9487793e+2, 3.1425643e+2, -103511.664, -86755.06, -4490.701, 0.07173044, -0.076427765, -85627.45, -85627.45, 0.0, 9.994483, 9.996701 
5.049338e+2, 1.24372125e+2, -1722594.4, -1730822.1, -7482.054, -0.037036363, -0.14035715, -1718169.9, 2970.4, 0.020533854, 10.000012, 9.99892 
5.049314e+2, 1.3437101e+2, -1620029.8, -1633512.9, -6894.18, -0.02963841, -0.12401222, -1617128.8, 6022.333, 0.013628187, 10.000451, 9.998659 
5.049288e+2, 1.4436841e+2, -1532772.8, -1564686.4, -7229.362, -0.024592487, -0.1438138, -1531211.5, -6034.5596, 0.0075791995, 10.000758, 9.996523 
5.049265e+2, 1.5436518e+2, -1433486.8, -1467156.6, -5958.629, 0.0004706763, -0.11333765, -1432463.4, -5254.2397, 0.0033562193, 10.000892, 9.996424 
5.04924e+2, 1.6436133e+2, -1341072.8, -1377630.4, -6181.6436, 0.0014771936, -0.111438505, -1340055.9, -10808.702, 0.0011366707, 10.000764, 9.995905 
5.0492126e+2, 1.7435694e+2, -1249595.9, -1282516.4, -8764.586, -0.028703434, -0.14755875, -1247407.8, -16118.217, 0.00028802847, 10.000306, 9.99593 
5.0491774e+2, 1.8435231e+2, -1165343.3, -1204277.1, -20454.385, -0.030346656, -0.14116085, -1156572.9, -23238.176, 0.000054231128, 9.999931, 9.994764 
5.049132e+2, 1.9434768e+2, -1071021.6, -1108180.0, -23700.578, 0.0048813424, -0.082276925, -1059486.0, -24105.37, 0.0000075890043, 9.999681, 9.994754 
5.049089e+2, 2.0434156e+2, -991514.6, -1043036.9, -19748.45, 0.012167028, -0.0661297, -984816.0, -47374.977, 0.00000079091893, 9.999451, 9.992623 
5.0490516e+2, 2.1433373e+2, -896827.6, -947640.5, -17366.832, -0.016530484, -0.106800206, -891459.2, -51941.48, 0.00000006148999, 9.999263, 9.992533 
5.0490075e+2, 2.243256e+2, -807615.4, -862280.7, -23548.824, -0.014463638, -0.13300043, -798870.06, -57272.98, 0.0000000035684378, 9.999022, 9.991781 
5.048957e+2, 2.343173e+2, -713729.25, -766198.6, -24252.223, 0.027378434, -0.14217243, -704236.8, -60558.875, 0.000000000106599, 9.998732, 9.991785 
5.048912e+2, 2.443093e+2, -620612.8, -666244.3, -18141.508, 0.037314657, -0.13473095, -614279.44, -68523.195, 0.0000000000037690797, 9.998206, 9.992167 
5.0488746e+2, 2.5430185e+2, -533741.2, -572794.0, -20485.996, 0.0049961484, -0.109020844, -524966.44, -77136.625, 0.000000000000000000049289046, 9.997404, 9.992239 
5.048835e+2, 2.642935e+2, -455524.63, -498588.56, -26909.525, 0.0024325475, -0.1042772, -442592.88, -92681.22, 0.0000000000000000000017269324, 9.99666, 9.990964 
5.0487924e+2, 2.742842e+2, -367436.56, -405790.66, -28208.7, 0.03941012, -0.12796266, -352503.63, -100501.07, 0.0, 9.995993, 9.990922 
5.04876e+2, 2.8427476e+2, -287082.2, -327547.94, -16758.965, 0.045619838, -0.11474593, -281042.8, -126947.28, 0.0, 9.995258, 9.98992 
5.048741e+2, 2.9426518e+2, -201270.66, -235352.0, -15224.984, 0.011882876, -0.06676699, -195459.97, -139269.84, 0.0, 9.994413, 9.98992 
5.0487316e+2, 3.0425772e+2, -101713.33, -86938.54, -10487.637, 0.008850122, -0.13384984, -81497.68, -81497.68, 0.0, 9.994643, 9.996618 
5.048731e+2, 3.1425515e+2, -76530.2, -70488.88, -11653.144, 0.056118563, -0.060777623, -61471.266, -61471.266, 0.0, 9.9961815, 9.997006 
5.1493406e+2, 1.24373145e+2, -1724911.5, -1733934.9, -6343.797, -0.010315682, -0.1377725, -1721638.6, -508.58472, 0.027554031, 9.999947, 9.998736 
5.1493174e+2, 1.3437203e+2, -1621848.3, -1636300.5, -5518.885, -0.03329147, -0.105199926, -1619981.8, 3159.4487, 0.018419899, 10.000417, 9.998482 
5.1492935e+2, 1.4436936e+2, -1531209.3, -1560959.3, -6930.344, -0.044401094, -0.13184524, -1529674.0, -4506.7407, 0.010340942, 10.000742, 9.99678 
5.149272e+2, 1.5436605e+2, -1431646.5, -1463151.5, -5634.9033, -0.019739432, -0.14073987, -1430669.0, -3469.1833, 0.0046347342, 10.000889, 9.996694 
5.149247e+2, 1.6436192e+2, -1346069.4, -1387833.8, -7948.4517, -0.0066427565, -0.14455613, -1344607.9, -15367.995, 0.0015935765, 10.000767, 9.995208 
5.149217e+2, 1.7435716e+2, -1254975.0, -1293706.3, -10674.366, -0.009097371, -0.14260691, -1252228.0, -20941.615, 0.00041132476, 10.000317, 9.99516 
5.1491785e+2, 1.8435174e+2, -1170452.8, -1215066.1, -21580.727, -0.013983461, -0.14022209, -1161722.1, -28382.615, 0.00007915646, 9.999948, 9.9940195 
5.1491266e+2, 1.943458e+2, -1076033.0, -1118993.5, -24697.027, -0.021263754, -0.1397292, -1064781.9, -29383.494, 0.0000113579035, 9.999709, 9.994001 
5.149082e+2, 2.0433933e+2, -988268.25, -1036780.6, -20602.973, -0.0059065605, -0.13608462, -980699.2, -43237.29, 0.0000012170423, 9.999474, 9.993036 
5.14905e+2, 2.1433245e+2, -893125.06, -940285.5, -18128.936, 0.037681524, -0.12994394, -886961.6, -47432.523, 0.000000097492624, 9.99928, 9.993023 
5.149003e+2, 2.2432473e+2, -807658.7, -862579.7, -24549.246, 0.039662756, -0.13892123, -798285.2, -56680.902, 0.0000000058393703, 9.999035, 9.991754 
5.1489407e+2, 2.3431617e+2, -713878.9, -767058.75, -25144.906, -0.0113996, -0.16856773, -703872.5, -60184.805, 0.00000000019837329, 9.998759, 9.991712 
5.148888e+2, 2.4430774e+2, -625502.06, -676918.75, -21046.84, -0.025025181, -0.16661064, -617985.56, -72215.22, 0.000000000007134189, 9.998234, 9.991424 
5.1488495e+2, 2.5429958e+2, -539254.7, -584387.94, -23556.428, 0.009973381, -0.12798418, -529199.9, -81349.1, 0.000000000000000013828485, 9.997415, 9.99144 
5.148805e+2, 2.642907e+2, -457338.97, -502393.88, -29560.006, 0.028988719, -0.1271473, -442700.84, -92762.34, 0.0000000000000000008730735, 9.996666, 9.990699 
5.148751e+2, 2.742809e+2, -369063.97, -409191.13, -30869.28, 0.02717306, -0.17355914, -352310.97, -100277.16, 0.000000000000000000039538807, 9.9959955, 9.990687 
5.148711e+2, 2.8427154e+2, -285370.38, -324038.6, -20217.016, 0.024264427, -0.1518193, -276730.66, -122604.71, 0.0000000000000000000014097545, 9.995262, 9.990156 
5.148686e+2, 2.9426265e+2, -199680.61, -231851.53, -18715.857, 0.019292787, -0.06120594, -191087.64, -134873.75, 0.0, 9.994408, 9.99016 
5.148678e+2, 3.042548e+2, -102400.0, -88521.734, -5443.671, 0.010873769, -0.17496006, -86641.28, -86641.28, 0.0, 9.994659, 9.996496 
5.148689e+2, 3.1425214e+2, -74542.484, -67678.58, -6217.7607, 0.014923898, -0.09848369, -64008.496, -64008.496, 0.0, 9.996253, 9.997157 
5.2493465e+2, 1.2437499e+2, -1709579.9, -1731202.1, 2578.1023, -0.010434411, -0.1512468, -1709276.8, 11834.38, 0.036176804, 10.001223, 9.998304 
5.249325e+2, 1.3437349e+2, -1615908.8, -1638452.9, 1255.4817, -0.030847358, -0.11327348, -1615839.0, 7287.3145, 0.024365017, 10.001044, 9.998034 
5.249303e+2, 1.4437062e+2, -1527333.9, -1558926.6, -2276.0432, -0.040863194, -0.13717607, -1527170.8, -2016.2456, 0.013811107, 10.000997, 9.996797 
5.2492815e+2, 1.5436733e+2, -1428428.5, -1461150.8, -2891.9797, -0.020167232, -0.1480521, -1428174.9, -988.3332, 0.0062664114, 10.001085, 9.996737 
5.249255e+2, 1.6436319e+2, -1344809.8, -1388276.8, -6217.8984, -0.006965537, -0.15189071, -1343937.8, -14711.05, 0.002187711, 10.000893, 9.995119 
5.249222e+2, 1.7435835e+2, -1255345.9, -1295143.1, -4196.397, -0.0040247357, -0.14739299, -1254908.3, -23634.232, 0.0005752219, 10.000339, 9.995055 
5.24918e+2, 1.843526e+2, -1167268.4, -1218802.8, -8691.511, -0.009880964, -0.14987911, -1165842.0, -32511.67, 0.00011314291, 10.000391, 9.993551 
5.24913e+2, 1.9434603e+2, -1057098.6, -1115414.8, -9758.894, -0.026449353, -0.1637064, -1055508.8, -20113.563, 0.000016648359, 10.001238, 9.993505 
5.249085e+2, 2.0433912e+2, -964853.56, -1028968.25, -10612.233, -0.011497333, -0.16190991, -963142.7, -25679.582, 0.0000018353236, 10.001219, 9.992724 
5.249047e+2, 2.1433207e+2, -882849.3, -938718.4, -14490.938, 0.043509718, -0.14165345, -879314.4, -39782.45, 0.00000015174481, 10.000118, 9.992728 
5.2489966e+2, 2.2432432e+2, -802219.94, -860241.25, -22699.676, 0.04895896, -0.14128013, -794394.56, -52786.523, 0.000000009413484, 9.999411, 9.991734 
5.2489305e+2, 2.3431578e+2, -706762.0, -763715.06, -22771.092, -0.008974691, -0.16740818, -698777.1, -55085.836, 0.0000000003572173, 9.99924, 9.991712 
5.248872e+2, 2.4430709e+2, -625817.94, -683563.0, -21105.244, -0.024287157, -0.16474798, -618926.6, -73150.04, 0.000000000013245786, 9.998482, 9.990855 
5.248822e+2, 2.5429827e+2, -549674.1, -596404.06, -22502.805, 0.015822193, -0.13038209, -540599.94, -92736.54, 0.00000000000000038532895, 9.996994, 9.990828 
5.24877e+2, 2.642889e+2, -463129.0, -506257.4, -23543.652, 0.032948483, -0.13775662, -452766.44, -102811.07, 0.000000000000000024719012, 9.996302, 9.990619 
5.2487135e+2, 2.74279e+2, -359306.9, -405322.84, -23319.459, 0.019292362, -0.19413811, -349555.7, -97503.625, 0.0000000000000000011415998, 9.996685, 9.990627 
5.2486676e+2, 2.8426966e+2, -270875.3, -317218.94, -16488.373, 0.016708056, -0.16442007, -265607.72, -111464.2, 0.000000000000000000040680988, 9.996255, 9.990147 
5.2486324e+2, 2.9426098e+2, -195579.55, -230261.88, -17317.504, 0.027828721, -0.05109183, -188413.33, -132184.06, 0.0, 9.994699, 9.990132 
5.2486205e+2, 3.0425262e+2, -116729.63, -93907.516, 1722.0453, 0.022425234, -0.21807918, -93778.31, -93778.31, 0.0, 9.993607, 9.996636 
5.248636e+2, 3.142503e+2, -118525.82, -81667.08, 3465.1736, 0.02383501, -0.1259132, -81344.14, -81344.14, 0.0, 9.992922, 9.997804 
5.3493553e+2, 1.2437788e+2, -1715785.3, -1742509.0, 1464.1753, -0.040225826, -0.17943873, -1715705.3, 5376.263, 0.046640746, 10.001155, 9.997565 
5.349336e+2, 1.3437554e+2, -1622043.1, -1650024.5, 223.12761, -0.023008808, -0.1491718, -1622041.4, 1063.7875, 0.031651113, 10.000995, 9.997268 
5.349316e+2, 1.4437227e+2, -1529510.1, -1562521.9, -2272.2856, -0.014364879, -0.1608995, -1529354.4, -4216.7725, 0.018118156, 10.000966, 9.996563 
5.3492945e+2, 1.5436916e+2, -1430148.0, -1464214.3, -2798.2415, -0.001731225, -0.13487968, -1429919.8, -2751.3132, 0.008324205, 10.001072, 9.996531 
5.349265e+2, 1.643652e+2, -1341183.4, -1380671.1, -8321.392, -0.00090030953, -0.13240395, -1339501.5, -10294.534, 0.002952043, 10.000894, 9.995631 
5.3492236e+2, 1.7436057e+2, -1251361.6, -1286988.4, -6412.367, -0.015320879, -0.16212855, -1250242.6, -18990.91, 0.0007912693, 10.000347, 9.995602 
5.349183e+2, 1.8435496e+2, -1168324.3, -1221353.8, -5878.228, -0.020093381, -0.17088726, -1167680.4, -34373.867, 0.00015928308, 10.000413, 9.993363 
5.3491443e+2, 1.9434845e+2, -1058288.0, -1118690.4, -6530.545, -0.012503833, -0.15402064, -1057590.0, -22219.27, 0.000024088196, 10.00128, 9.9932575 
5.349098e+2, 2.0434101e+2, -971825.75, -1044262.2, -14262.894, -0.006985413, -0.14300908, -969118.56, -31674.531, 0.0000027417911, 10.001264, 9.991658 
5.3490436e+2, 2.1433266e+2, -890290.6, -954934.94, -18639.61, -0.0038981393, -0.14241795, -885301.1, -45774.92, 0.00000023528607, 10.000164, 9.991596 
5.348987e+2, 2.2432427e+2, -802127.8, -860545.2, -23577.451, 0.009179105, -0.14040618, -793799.3, -52190.59, 0.000000015275178, 9.999434, 9.9917 
5.3489274e+2, 2.3431608e+2, -706198.8, -762880.1, -23371.29, 0.03505481, -0.13675167, -697805.2, -54116.06, 0.0000000006807483, 9.999258, 9.991758 
5.3488636e+2, 2.443073e+2, -628506.1, -689186.6, -26390.102, 0.041363068, -0.12723227, -618634.8, -72859.47, 0.00000000005658222, 9.998487, 9.990467 
5.3487927e+2, 2.5429785e+2, -552773.44, -602620.25, -28049.475, 0.021880072, -0.11571543, -540174.2, -92305.914, 0.000000000026362447, 9.996988, 9.990404 
5.348731e+2, 2.642882e+2, -462776.06, -505460.28, -22507.516, 0.011719596, -0.13524988, -453100.88, -103137.9, 0.000000000020668574, 9.996301, 9.990672 
5.34868e+2, 2.7427834e+2, -358502.66, -404055.3, -21784.072, 0.014571215, -0.18802558, -349762.22, -97703.89, 0.000000000014003383, 9.996704, 9.990704 
5.348631e+2, 2.84269e+2, -272330.13, -320870.16, -21967.805, 0.02259029, -0.15219407, -263864.56, -109714.95, 0.000000000007715435, 9.996284, 9.989882 
5.3485805e+2, 2.9426005e+2, -197466.23, -234706.94, -23309.988, 0.036210176, -0.036975004, -186252.48, -130014.68, 0.0000000000033919445, 9.994725, 9.989813 
5.348559e+2, 3.0425113e+2, -113690.36, -87726.82, -1250.6864, 0.043194026, -0.26260123, -87666.71, -87666.71, 0.0000000000012133904, 9.993621, 9.997048 
5.348571e+2, 3.142499e+2, -110566.86, -64477.91, 399.74762, 0.08385627, -0.108677536, -64474.44, -64474.44, 0.00000000000036743045, 9.992904, 9.998986 
5.4493695e+2, 1.2437987e+2, -1706421.4, -1738056.9, -7405.343, -0.047678683, -0.16815327, -1704773.8, 16288.247, 0.05923043, 10.001849, 9.997536 
5.449349e+2, 1.3437739e+2, -1614004.1, -1646395.8, -3560.2056, -0.018881254, -0.15021986, -1613617.4, 9469.332, 0.04050611, 10.001581, 9.9972315 
5.449328e+2, 1.4437406e+2, -1523152.1, -1559427.1, -1739.0392, -0.0034392695, -0.16706313, -1523069.0, 2050.8772, 0.023422668, 10.001395, 9.996568 
5.449307e+2, 1.5437096e+2, -1426910.3, -1462763.6, -833.3058, 0.005728997, -0.13976319, -1426890.9, 259.55035, 0.010902844, 10.001291, 9.996526 
5.4492754e+2, 1.6436702e+2, -1335759.5, -1378458.8, -8457.083, -0.0012027716, -0.13237607, -1334145.5, -4956.693, 0.003931351, 10.001275, 9.9956 
5.4492307e+2, 1.7436247e+2, -1236386.4, -1280249.3, -11194.906, -0.029004185, -0.15237078, -1233694.4, -2461.2634, 0.0010759311, 10.001388, 9.995557 
5.4491913e+2, 1.8435673e+2, -1155912.1, -1218323.6, -11223.017, -0.029127432, -0.15719162, -1153955.4, -20666.137, 0.00022220633, 10.001382, 9.993103 
5.449159e+2, 1.9434993e+2, -1060509.4, -1123072.1, -12239.182, 0.005981745, -0.14350425, -1058200.3, -22844.145, 0.000034662997, 10.001264, 9.992971 
5.4491115e+2, 2.0434211e+2, -977849.1, -1050690.8, -21545.775, 0.013630931, -0.13789645, -971953.3, -34520.473, 0.0000040952245, 10.000996, 9.991355 
5.4490465e+2, 2.1433339e+2, -886503.44, -956676.1, -20124.64, -0.013506331, -0.14576595, -881141.6, -41622.832, 0.00000036841934, 10.000567, 9.991286 
5.4489833e+2, 2.2432458e+2, -795621.5, -863960.3, -21867.793, -0.007478059, -0.14105877, -789223.06, -47617.574, 0.00000002635008, 10.000152, 9.991125 
5.448924e+2, 2.3431599e+2, -701848.94, -767532.8, -26479.318, 0.041337885, -0.1197142, -692503.8, -48813.4, 0.000000002268382, 9.999835, 9.991168 
5.4488534e+2, 2.4430685e+2, -620378.4, -688206.1, -35339.223, 0.056154665, -0.10315351, -605312.56, -59532.168, 0.000000000950386, 9.999157, 9.990218 
5.448768e+2, 2.5429708e+2, -538073.7, -598175.5, -35897.063, 0.026108801, -0.10008766, -521309.47, -73433.25, 0.0000000007526002, 9.998091, 9.990184 
5.4486966e+2, 2.6428717e+2, -454575.63, -502498.13, -26981.736, 0.012615704, -0.12684186, -442451.5, -92478.48, 0.00000000059220195, 9.996899, 9.990589 
5.4486424e+2, 2.7427724e+2, -375173.7, -412968.94, -27204.568, 0.022327214, -0.18381946, -360947.16, -108877.53, 0.00000000040219253, 9.995603, 9.990625 
5.448585e+2, 2.8426802e+2, -299601.7, -331803.34, -29783.016, 0.03617803, -0.14194928, -281845.97, -127686.42, 0.00000000022185906, 9.994314, 9.990088 
5.4485214e+2, 2.9425943e+2, -220500.69, -243661.7, -27381.445, 0.05332876, -0.012977652, -202351.55, -146107.53, 0.00000000009757777, 9.993039, 9.990021 
5.4484904e+2, 3.042499e+2, -129755.234, -99279.836, -1183.5331, 0.049399555, -0.2932841, -99233.945, -99233.945, 0.000000000034918513, 9.992652, 9.99674 
5.448501e+2, 3.1424877e+2, -101379.01, -53417.535, -5888.2207, 0.07816336, -0.09895081, -52705.22, -52705.22, 0.000000000010577204, 9.993205, 9.999622 
5.549389e+2, 1.243812e+2, -1703749.3, -1729242.8, -8769.185, -0.036206003, -0.11720337, -1701024.1, 20026.416, 0.07429231, 10.001753, 9.998183 
5.549365e+2, 1.3437925e+2, -1610443.8, -1636837.9, -4990.953, -0.019736717, -0.11473587, -1609531.6, 13537.586, 0.051209513, 10.001518, 9.997909 
5.549342e+2, 1.4437613e+2, -1522392.4, -1556637.0, -2521.204, -0.009423458, -0.15421307, -1522207.8, 2891.7285, 0.029924188, 10.001354, 9.996774 
5.5493194e+2, 1.5437284e+2, -1426125.0, -1460430.3, -1575.101, 0.00039895516, -0.16300802, -1426052.8, 1078.6461, 0.014122311, 10.001269, 9.996692 
5.549287e+2, 1.6436875e+2, -1340129.1, -1387327.6, -8414.16, -0.009788648, -0.1524789, -1338674.0, -9502.299, 0.005183733, 10.001278, 9.994991 
5.549243e+2, 1.7436409e+2, -1240893.5, -1289844.1, -11055.563, -0.04675036, -0.11758175, -1238512.5, -7294.6665, 0.0014511802, 10.001409, 9.99489 
5.549205e+2, 1.8435799e+2, -1158042.9, -1223237.1, -11901.089, -0.0386123, -0.107402675, -1155938.3, -22660.475, 0.0003083118, 10.001411, 9.992751 
5.549174e+2, 1.9435047e+2, -1062619.9, -1127921.1, -12932.009, 0.027688395, -0.13149843, -1060152.1, -24800.625, 0.00004982176, 10.001293, 9.992623 
5.549125e+2, 2.0434248e+2, -974212.44, -1043603.3, -23183.072, 0.049921896, -0.1462191, -967179.9, -29750.213, 0.000006176902, 10.001019, 9.991824 
5.5490553e+2, 2.143343e+2, -882373.0, -948739.4, -21805.266, 0.014998966, -0.15144287, -875849.8, -36340.25, 0.0000006212564, 10.000599, 9.991809 
5.5489856e+2, 2.2432525e+2, -803402.1, -880637.56, -23120.088, -0.0015098545, -0.14346185, -797010.25, -55411.81, 0.00000007831424, 10.000182, 9.989972 
5.548919e+2, 2.3431544e+2, -710547.8, -786024.06, -27703.082, 0.005948757, -0.11781565, -701471.1, -57775.35, 0.00000003254618, 9.999864, 9.98989 
5.54884e+2, 2.4430564e+2, -621152.9, -690080.9, -39182.305, 0.015004499, -0.094245136, -603434.3, -57641.59, 0.00000002650064, 9.999172, 9.990082 
5.5487496e+2, 2.542959e+2, -538189.2, -598801.44, -39932.496, 0.026088735, -0.08258227, -518364.84, -70476.48, 0.000000023403993, 9.998112, 9.990129 
5.5486685e+2, 2.6428583e+2, -456001.84, -505748.84, -32083.88, 0.034776125, -0.112642445, -440278.97, -90292.055, 0.000000019480728, 9.996911, 9.990361 
5.5486006e+2, 2.742755e+2, -376961.3, -416352.3, -32296.871, 0.04106646, -0.18257971, -358828.25, -106740.68, 0.0000000139651215, 9.9955845, 9.990404 
5.54853e+2, 2.842666e+2, -295076.28, -322057.25, -34775.92, 0.055595353, -0.13225812, -271265.84, -117091.31, 0.000000008194207, 9.994304, 9.990757 
5.548454e+2, 2.9425895e+2, -215804.64, -233694.14, -32183.457, 0.077076346, 0.022725891, -191346.05, -135096.77, 0.000000003918968, 9.993034, 9.990703 
5.5484164e+2, 3.042487e+2, -138168.95, -116808.89, 222.73454, 0.038411375, -0.30915025, -116806.56, -116806.56, 0.0000000015882468, 9.992664, 9.995527 
5.548426e+2, 3.1424674e+2, -101580.71, -54434.67, -4471.222, 0.0008513415, -0.06786755, -54014.38, -54014.38, 0.00000000057982985, 9.993248, 9.999523 
5.649403e+2, 1.24383084e+2, -1710311.9, -1727933.9, 541.081, -0.03905785, -0.12149278, -1710295.3, 10736.649, 0.09226395, 10.001079, 9.998593 
5.649379e+2, 1.3438153e+2, -1612017.8, -1632965.1, 2382.1443, -0.016446821, -0.12246344, -1611750.3, 11296.189, 0.06411254, 10.001209, 9.998324 
5.6493556e+2, 1.443786e+2, -1523856.3, -1558083.6, 2941.945, -0.001954397, -0.16213556, -1523605.3, 1469.5575, 0.037873108, 10.001278, 9.996715 
5.6493324e+2, 1.5437526e+2, -1427058.4, -1462158.8, 1648.8818, 0.0044241697, -0.16669574, -1426981.1, 126.2778, 0.018133987, 10.001258, 9.99658 
5.649301e+2, 1.643709e+2, -1341032.5, -1391940.6, -4666.128, -0.0077352244, -0.15784988, -1340608.3, -11458.107, 0.0067838305, 10.001394, 9.994622 
5.649259e+2, 1.7436576e+2, -1239378.6, -1293685.0, -5451.3076, -0.043938648, -0.13275406, -1238836.9, -7635.965, 0.0019464918, 10.001708, 9.994484 
5.6492215e+2, 1.8435928e+2, -1151276.9, -1222830.9, -5456.791, -0.03525384, -0.1241058, -1150863.1, -17598.654, 0.00042715066, 10.001998, 9.992494 
5.6491923e+2, 1.9435161e+2, -1049726.0, -1124570.9, -6030.0547, 0.030861018, -0.13888635, -1049243.4, -13903.596, 0.0000724668, 10.002299, 9.992362 
5.6491417e+2, 2.0434341e+2, -959266.5, -1039357.5, -20874.146, 0.053689245, -0.1479187, -954152.56, -16732.549, 0.000010117237, 10.002168, 9.991555 
5.6490666e+2, 2.1433498e+2, -870346.0, -946013.7, -25816.918, 0.020767437, -0.15162227, -862376.9, -22874.588, 0.0000016677955, 10.001552, 9.991535 
5.6489915e+2, 2.2432558e+2, -792150.2, -878685.9, -26369.13, 0.00072514237, -0.15105346, -784748.1, -43153.52, 0.00000068035547, 10.001092, 9.989669 
5.6489223e+2, 2.3431528e+2, -696381.6, -782807.8, -23769.48, -0.0028425062, -0.14464982, -690275.75, -46579.285, 0.0000005145204, 10.000976, 9.989576 
5.648836e+2, 2.4430509e+2, -610432.2, -689445.4, -36519.367, 0.004018441, -0.122713305, -596138.8, -50341.844, 0.0000004508095, 10.000087, 9.989689 
5.6487316e+2, 2.5429514e+2, -537403.1, -602944.06, -40233.465, 0.024399754, -0.09077381, -518283.0, -70388.1, 0.00000040533368, 9.998347, 9.989739 
5.648636e+2, 2.6428485e+2, -461175.4, -510769.84, -33740.906, 0.036783338, -0.11415256, -444099.6, -94103.64, 0.00000034191046, 9.99664, 9.990162 
5.6485534e+2, 2.7427426e+2, -384458.94, -422303.66, -33581.918, 0.039430328, -0.19131714, -364835.2, -112735.47, 0.0000002484929, 9.995144, 9.990226 
5.6484705e+2, 2.8426555e+2, -300862.16, -323058.97, -36789.195, 0.054844145, -0.12469385, -273533.75, -119348.555, 0.00000014828878, 9.993793, 9.990955 
5.6483823e+2, 2.9425842e+2, -219962.16, -234230.9, -37958.99, 0.0828651, 0.065875486, -188472.92, -132218.13, 0.00000007256716, 9.992658, 9.990863 
5.6483376e+2, 3.0424738e+2, -159425.4, -134840.67, -3154.039, 0.03627862, -0.3181957, -134442.48, -134442.48, 0.000000030344594, 9.991551, 9.994823 
5.6483424e+2, 3.142448e+2, -142713.27, -65074.945, -3198.8875, -0.000499969, -0.07006101, -64943.363, -64943.363, 0.000000011523883, 9.990035, 10.0003395 
5.7494116e+2, 1.2438582e+2, -1711647.8, -1727010.6, 192.28816, -0.059105556, -0.18046425, -1711645.3, 9357.846, 0.11375018, 10.000941, 9.998717 
5.7493913e+2, 1.3438445e+2, -1612834.1, -1631792.5, 2220.9016, -0.009126003, -0.17538454, -1612577.4, 10438.852, 0.07970562, 10.001106, 9.998449 
5.74937e+2, 1.4438164e+2, -1527435.8, -1563931.5, 2323.0344, 0.01844649, -0.19224784, -1527288.5, -2244.5012, 0.04762594, 10.001217, 9.996342 
5.749346e+2, 1.5437837e+2, -1430628.3, -1468633.0, 1066.7426, 0.016019596, -0.14986894, -1430598.4, -3521.9902, 0.023162082, 10.001228, 9.99615 
5.7493156e+2, 1.6437362e+2, -1342283.0, -1394234.3, -4002.7307, 0.003758299, -0.14719765, -1341976.5, -12853.737, 0.008851624, 10.001394, 9.99446 
5.7492787e+2, 1.7436756e+2, -1240408.4, -1295871.0, -4639.5195, -0.020724522, -0.19890273, -1240023.0, -8841.566, 0.002618202, 10.001722, 9.994323 
5.7492435e+2, 1.8436071e+2, -1152315.9, -1225402.0, -4651.723, -0.0200407, -0.20920505, -1152021.0, -18772.629, 0.0006046905, 10.002025, 9.992301 
5.7492137e+2, 1.9435345e+2, -1050667.6, -1127344.1, -5135.5596, 0.012252508, -0.1673471, -1050325.1, -15004.927, 0.00011656171, 10.002344, 9.992147 
5.74916e+2, 2.0434496e+2, -965947.0, -1054028.4, -23139.936, 0.021139927, -0.14384267, -960237.94, -22834.268, 0.000025284298, 10.002213, 9.990532 
5.74908e+2, 2.1433543e+2, -877540.6, -961855.9, -28299.326, -0.00009021001, -0.14710873, -868923.1, -29426.086, 0.0000107065935, 10.001601, 9.990428 
5.7490027e+2, 2.2432552e+2, -787705.3, -870312.8, -27053.045, -0.0044445116, -0.16457824, -779634.3, -38040.06, 0.000007709626, 10.00113, 9.990219 
5.7489336e+2, 2.3431544e+2, -691274.25, -772714.9, -24223.771, 0.013798632, -0.2008148, -684613.8, -40921.25, 0.0000064899396, 10.001001, 9.990249 
5.748839e+2, 2.4430518e+2, -615387.25, -699635.8, -42649.887, 0.023308527, -0.18984601, -597566.0, -51772.656, 0.000005829325, 10.000084, 9.988994 
5.748715e+2, 2.5429478e+2, -542972.75, -614433.25, -46840.79, 0.019459188, -0.12675177, -519790.25, -71893.82, 0.0000053234007, 9.998347, 9.988954 
5.7486004e+2, 2.6428416e+2, -462694.25, -513991.7, -39623.66, 0.014959188, -0.132596, -441142.4, -91141.086, 0.0000045535103, 9.996646, 9.989938 
5.7485026e+2, 2.7427334e+2, -385553.9, -424774.94, -39394.367, 0.013302255, -0.2101358, -361158.88, -109051.22, 0.0000033629528, 9.995159, 9.990046 
5.7484066e+2, 2.8426462e+2, -303307.22, -328141.9, -41511.95, 0.030268338, -0.12123569, -272395.22, -118201.484, 0.0000020502305, 9.993789, 9.990613 
5.7483083e+2, 2.9425758e+2, -222599.5, -240130.38, -42226.21, 0.066569604, 0.11435062, -188238.55, -131975.11, 0.0000010333114, 9.992677, 9.99045 
5.7482535e+2, 3.0424574e+2, -160199.47, -136333.4, -9091.461, 0.04117444, -0.31970504, -133264.7, -133264.7, 0.00000044912707, 9.991554, 9.994717 
5.74825e+2, 3.1424308e+2, -130980.12, -39089.285, -9306.742, 0.07548174, -0.07741694, -38156.168, -38156.168, 0.00000017851879, 9.989978, 10.002144 
5.849421e+2, 1.2438824e+2, -1716823.3, -1728742.0, -2047.6335, -0.033180803, -0.19677125, -1716481.3, 4497.5513, 0.13972558, 10.000499, 9.998822 
5.849399e+2, 1.3438717e+2, -1617728.1, -1633573.4, -721.7596, -0.02389642, -0.17321351, -1617695.3, 5294.1665, 0.098819226, 10.000716, 9.998519 
5.84938e+2, 1.4438434e+2, -1528950.0, -1567174.0, -8.49102, -0.005742413, -0.18219145, -1528950.0, -3932.6448, 0.05983503, 10.001222, 9.99612 
5.8493626e+2, 1.5438074e+2, -1421123.6, -1466771.9, -196.96712, 0.020036597, -0.1494594, -1421122.9, 5930.107, 0.029670969, 10.002009, 9.995897 
5.849337e+2, 1.643758e+2, -1326463.1, -1387329.9, -4852.363, 0.01952263, -0.15031639, -1326078.8, 3022.5566, 0.011689534, 10.002504, 9.994392 
5.849301e+2, 1.7436974e+2, -1226652.4, -1290101.6, -5150.2734, -0.015624835, -0.19617596, -1226237.1, 4922.671, 0.0036564136, 10.002697, 9.994244 
5.849267e+2, 1.8436283e+2, -1141947.3, -1219439.1, -4912.504, -0.022611437, -0.21127889, -1141637.0, -8409.917, 0.00096619525, 10.0026865, 9.992389 
5.849237e+2, 1.9435544e+2, -1048776.4, -1125660.6, -3670.1514, 0.0065083005, -0.1878987, -1048601.6, -13301.926, 0.00027327103, 10.002436, 9.992219 
5.8491826e+2, 2.0434688e+2, -963985.1, -1054832.4, -18167.549, 0.013813813, -0.16882086, -960486.7, -23102.814, 0.00012382398, 10.002412, 9.990384 
5.8491015e+2, 2.1433733e+2, -861905.94, -956379.25, -16645.738, -0.0070162625, -0.15874884, -859058.8, -19581.215, 0.000087361535, 10.002751, 9.990246 
5.84902e+2, 2.2432719e+2, -774048.6, -867315.75, -17244.824, -0.003812026, -0.17097647, -770962.2, -29385.234, 0.00007178972, 10.002219, 9.989895 
5.848944e+2, 2.3431677e+2, -697960.75, -779571.06, -22416.611, 0.03202593, -0.21158229, -692208.8, -48530.133, 0.00006260936, 10.000698, 9.989929 
5.8488405e+2, 2.4430601e+2, -622194.75, -709575.94, -44006.813, 0.039871402, -0.20454681, -603873.5, -58089.36, 0.000057330923, 9.999888, 9.988419 
5.848707e+2, 2.5429496e+2, -518628.06, -609294.56, -46690.71, 0.008542133, -0.14653847, -498883.47, -50990.266, 0.000053092073, 10.000277, 9.988381 
5.848576e+2, 2.6428372e+2, -433530.13, -506855.4, -45864.42, -0.006986548, -0.15699372, -411475.7, -61471.555, 0.00004601326, 9.998914, 9.989344 
5.8484554e+2, 2.7427232e+2, -382443.9, -429779.13, -49086.758, 0.0032052668, -0.23768958, -351616.88, -99500.29, 0.00003454925, 9.995626, 9.9894905 
5.848338e+2, 2.8426337e+2, -319975.34, -337703.06, -49731.38, 0.024142783, -0.13818964, -278324.06, -124119.2, 0.000021558672, 9.992705, 9.990488 
5.8482224e+2, 2.9425642e+2, -256124.44, -258103.97, -47739.25, 0.051788274, 0.12078025, -209364.69, -153090.86, 0.000011215797, 9.99044, 9.990312 
5.8481526e+2, 3.0424404e+2, -207672.33, -163181.5, -14965.753, 0.028690044, -0.3431336, -158615.86, -158615.86, 0.0000050714452, 9.988444, 9.994392 
5.8481365e+2, 3.142413e+2, -170291.53, -37453.633, -17494.633, 0.12108043, -0.08457466, -35188.24, -35188.24, 0.0000021046292, 9.98637, 10.00401 
5.949433e+2, 1.2439074e+2, -1719446.9, -1730202.6, -2478.398, 0.03737565, -0.17125049, -1718903.3, 2051.7031, 0.172028, 10.000313, 9.998809 
5.949402e+2, 1.3439001e+2, -1619661.5, -1635198.4, -1021.398, -0.063563675, -0.112676, -1619594.6, 3367.9126, 0.12317428, 10.000615, 9.998453 
5.9493846e+2, 1.44387e+2, -1530500.4, -1568867.4, 1824.7012, -0.07783548, -0.12915799, -1530413.8, -5421.703, 0.076031104, 10.001171, 9.996023 
5.949382e+2, 1.5438262e+2, -1422442.4, -1468286.1, 1791.7457, 0.014783251, -0.16702104, -1422372.5, 4662.4116, 0.038938448, 10.001971, 9.995807 
5.9493643e+2, 1.643776e+2, -1326866.6, -1387641.0, -4790.92, 0.037359774, -0.16828568, -1326491.4, 2592.3948, 0.016305974, 10.002493, 9.994371 
5.949327e+2, 1.7437243e+2, -1226981.4, -1290605.9, -5054.054, -0.0314168, -0.122810654, -1226582.5, 4551.5283, 0.0058392533, 10.002701, 9.994202 
5.9492916e+2, 1.8436575e+2, -1139484.3, -1214556.8, -6183.7085, -0.04511673, -0.12801017, -1138978.3, -5779.082, 0.0021244742, 10.0027075, 9.992704 
5.9492624e+2, 1.9435774e+2, -1046108.8, -1120664.1, -5008.114, 0.012465168, -0.20004398, -1045773.9, -10496.766, 0.0010463553, 10.002471, 9.992536 
5.949208e+2, 2.0434925e+2, -958535.8, -1044073.7, -17300.74, 0.030743519, -0.22288433, -955169.1, -17808.95, 0.00073423417, 10.002439, 9.991101 
5.9491295e+2, 2.1434073e+2, -856214.94, -945430.0, -15591.347, -0.0014827197, -0.18706892, -853568.6, -14125.082, 0.000602588, 10.002793, 9.990968 
5.9490424e+2, 2.2433068e+2, -782266.1, -884983.25, -22486.96, 0.00088366354, -0.17021742, -777559.0, -36016.54, 0.0005193023, 10.002251, 9.988674 
5.9489524e+2, 2.3431924e+2, -707454.94, -799483.44, -28334.447, 0.048368152, -0.17557938, -699430.75, -55775.848, 0.000464853, 10.000712, 9.988563 
5.94884e+2, 2.4430756e+2, -625614.3, -716473.75, -43011.445, 0.050048776, -0.16524328, -608483.3, -62713.594, 0.00043296668, 9.999886, 9.987947 
5.948708e+2, 2.542957e+2, -520949.53, -614612.7, -45346.418, -0.01047594, -0.1493735, -502592.97, -54707.22, 0.00040565614, 10.000305, 9.988001 
5.948563e+2, 2.6428348e+2, -440461.7, -521874.22, -57788.297, -0.030865464, -0.1888182, -410482.1, -60476.62, 0.0003557834, 9.998932, 9.988314 
5.9484124e+2, 2.7427095e+2, -389537.7, -444873.06, -62020.977, 0.006756847, -0.2748579, -349292.9, -97164.51, 0.00027181744, 9.995637, 9.988458 
5.948266e+2, 2.8426155e+2, -319460.88, -336359.9, -59261.28, 0.03388141, -0.17534575, -268049.78, -113829.05, 0.00017405744, 9.992682, 9.990595 
5.948125e+2, 2.9425472e+2, -256040.44, -256923.6, -56361.453, 0.035880998, 0.081564695, -200118.83, -143830.38, 0.00009375095, 9.990392, 9.990417 
5.948033e+2, 3.0424199e+2, -213499.48, -173545.92, -23266.78, -0.0057550757, -0.39023882, -162856.53, -162856.53, 0.000044157845, 9.988375, 9.993715 
5.948e+2, 3.142393e+2, -158864.2, -11837.121, -25824.889, 0.1208387, -0.06460063, -7432.977, -7432.977, 0.000019098668, 9.9862995, 10.005797 
6.049426e+2, 1.2439293e+2, -1733190.1, -1740953.5, 3817.904, -0.011941752, -0.16445906, -1731627.3, -10693.769, 0.21414457, 9.999517, 9.998467 
6.049411e+2, 1.3439174e+2, -1612053.6, -1634438.4, 2606.105, -0.06823476, -0.11768228, -1611754.3, 11191.207, 0.15642804, 10.001389, 9.998135 
6.049402e+2, 1.4438866e+2, -1515855.8, -1557881.4, 2583.1755, -0.067995764, -0.14035305, -1515697.5, 9278.143, 0.0998954, 10.002086, 9.996326 
6.0493976e+2, 1.5438463e+2, -1427889.3, -1467543.1, 5187.853, 0.00048062616, -0.17402135, -1427221.8, -207.05717, 0.05446842, 10.001434, 9.9961195 
6.049382e+2, 1.6437992e+2, -1338876.3, -1389448.8, 2723.0698, 0.022349777, -0.17750688, -1338730.1, -9669.552, 0.02586059, 10.001492, 9.994739 
6.0493535e+2, 1.7437501e+2, -1229444.6, -1288085.5, 4766.012, -0.016066825, -0.14376546, -1229059.9, 2048.6826, 0.011928072, 10.002368, 9.994536 
6.0493207e+2, 1.8436873e+2, -1136113.9, -1209160.4, 2327.3062, -0.029350339, -0.14095977, -1136039.8, -2869.8674, 0.0064883158, 10.0027685, 9.993044 
6.0492855e+2, 1.943614e+2, -1041881.56, -1115081.3, 2952.9192, -0.009810455, -0.179187, -1041762.6, -6521.493, 0.004569011, 10.002599, 9.992856 
6.0492337e+2, 2.0435305e+2, -952238.3, -1042875.1, -9445.951, 0.007592162, -0.19478703, -951264.4, -13941.511, 0.0037700206, 10.002955, 9.990928 
6.0491663e+2, 2.1434407e+2, -839924.4, -940085.5, -15435.423, 0.022652462, -0.18481952, -837599.7, 1811.3169, 0.0032839119, 10.004022, 9.990735 
6.049077e+2, 2.2433364e+2, -756702.44, -876638.3, -30080.531, 0.030049648, -0.17272273, -749580.94, -8067.428, 0.0029246076, 10.004164, 9.98832 
6.04897e+2, 2.343221e+2, -673099.06, -787285.9, -29362.686, 0.02709283, -0.15598626, -665991.0, -22363.531, 0.0026789738, 10.003248, 9.988169 
6.048847e+2, 2.443101e+2, -594936.9, -705780.6, -36199.332, 0.018824343, -0.13658491, -584162.25, -38416.82, 0.0025301774, 10.00216, 9.987574 
6.048717e+2, 2.5429782e+2, -509394.44, -612590.3, -38264.215, 0.0029248504, -0.12971975, -496754.56, -48889.348, 0.0023903388, 10.001242, 9.987686 
6.048557e+2, 2.6428494e+2, -439543.06, -530527.5, -58879.105, -0.002401214, -0.18137112, -410629.03, -60638.105, 0.0021176653, 9.999358, 9.98753 
6.0483754e+2, 2.7427146e+2, -376329.4, -447072.28, -61686.164, 0.009983506, -0.28163466, -340593.03, -88470.5, 0.0016470193, 9.996858, 9.987741 
6.048197e+2, 2.8426155e+2, -305397.25, -331376.5, -58550.945, 0.029654454, -0.1950627, -258412.34, -104192.836, 0.0010842708, 9.993665, 9.990489 
6.0480285e+2, 2.9425445e+2, -260152.97, -260781.97, -56772.71, 0.048031602, 0.04691965, -203693.89, -147404.58, 0.0006054668, 9.990134, 9.990305 
6.047907e+2, 3.0424142e+2, -246290.83, -194950.27, -25360.385, -0.004756315, -0.42444447, -184535.75, -184535.75, 0.00029680654, 9.986359, 9.99323 
6.047841e+2, 3.1423858e+2, -209962.42, -12381.55, -26395.855, 0.119141355, -0.07289839, -8915.977, -8915.977, 0.00013331673, 9.981733, 10.007981 
6.149403e+2, 1.2439538e+2, -1738989.0, -1750832.4, 8576.827, -0.19219406, -0.17146808, -1734488.3, -13579.565, 0.27196327, 9.999451, 9.997819 
6.1494285e+2, 1.3439286e+2, -1616653.5, -1643032.8, 7463.825, -0.035371684, -0.19252226, -1614688.1, 8245.175, 0.20543659, 10.001362, 9.997562 
6.1494327e+2, 1.4438976e+2, -1512776.0, -1548538.4, -742.2435, 0.026223207, -0.21834472, -1512760.6, 12202.787, 0.13905294, 10.002049, 9.996973 
6.14941e+2, 1.5438731e+2, -1424446.8, -1458291.3, 1627.3563, -0.02549365, -0.16755489, -1424368.8, 2618.9414, 0.08427562, 10.001371, 9.996774 
6.149392e+2, 1.6438322e+2, -1335118.8, -1379999.4, 4645.315, -0.028026003, -0.17463167, -1334642.9, -5615.426, 0.048334744, 10.001429, 9.995405 
6.1493826e+2, 1.7437774e+2, -1225653.5, -1278957.6, 7152.599, 0.031538107, -0.2609444, -1224710.4, 6370.1123, 0.02957835, 10.002338, 9.995167 
6.1493534e+2, 1.8437198e+2, -1134100.0, -1204623.9, 1339.3093, 0.025230153, -0.25203305, -1134074.6, -937.7713, 0.021278221, 10.002765, 9.993347 
6.149307e+2, 1.9436662e+2, -1039838.0, -1110946.5, 1787.8105, -0.06319716, -0.12433847, -1039793.06, -4603.256, 0.017633773, 10.002619, 9.993119 
6.149257e+2, 2.0435844e+2, -960239.25, -1059401.4, -6054.5015, -0.058384396, -0.082059845, -959870.94, -22600.371, 0.01561949, 10.002962, 9.989796 
6.149211e+2, 2.1434744e+2, -848496.5, -958360.7, -11632.696, 0.06477821, -0.15072183, -847278.3, -7899.1533, 0.01413354, 10.004053, 9.9894705 
6.1491245e+2, 2.2433616e+2, -752451.8, -868905.1, -33162.32, 0.082991146, -0.1781245, -743670.4, -2180.1382, 0.012941951, 10.004217, 9.988818 
6.148997e+2, 2.3432533e+2, -668459.4, -778532.6, -33183.27, -0.03505509, -0.15405862, -659229.7, -15633.235, 0.012089339, 10.003291, 9.98874 
6.148861e+2, 2.4431358e+2, -597013.75, -710123.4, -39552.797, -0.056889568, -0.11994942, -584555.0, -38843.47, 0.011533666, 10.002173, 9.987264 
6.148734e+2, 2.5430122e+2, -511386.56, -617267.6, -42385.766, 0.046196293, -0.087696806, -496509.3, -48677.105, 0.010947856, 10.001283, 9.987336 
6.148559e+2, 2.6428798e+2, -443644.72, -539156.0, -68482.7, 0.07488483, -0.13140473, -407910.94, -57949.402, 0.009774949, 9.999343, 9.986955 
6.148344e+2, 2.742737e+2, -379107.25, -454231.0, -71713.586, 0.007241586, -0.25735766, -335714.0, -83613.414, 0.007735893, 9.996915, 9.987223 
6.1481315e+2, 2.8426307e+2, -307748.78, -336852.6, -72794.63, 0.0075598285, -0.20077406, -248065.81, -93862.0, 0.005237493, 9.99366, 9.990133 
6.1479336e+2, 2.942553e+2, -263339.34, -267128.8, -70346.39, 0.084832445, 0.011965317, -194862.17, -138582.55, 0.0030302291, 9.990097, 9.989905 
6.1477727e+2, 3.042421e+2, -249256.97, -198821.33, -42940.066, 0.027429227, -0.4464863, -174241.69, -174241.69, 0.0015416851, 9.9862385, 9.993036 
6.147655e+2, 3.1423917e+2, -195402.42, 22324.24, -43882.316, 0.101738855, -0.09057891, 30835.875, 30835.875, 0.000715931, 9.981523, 10.010477 
6.249457e+2, 1.2439559e+2, -1669620.5, -1705541.3, -5535.1865, 0.08054909, -0.15518317, -1668786.9, 52119.98, 0.3540711, 10.005784, 9.998384 
6.249443e+2, 1.3439369e+2, -1617811.1, -1635527.8, -423.4193, 0.0012304621, -0.18845665, -1617801.0, 5123.909, 0.28101963, 10.000931, 9.998276 
6.249434e+2, 1.4439128e+2, -1543029.9, -1556152.3, 3405.9773, -0.033300977, -0.2175173, -1542198.5, -17250.146, 0.206422, 9.9995, 9.997702 
6.2494296e+2, 1.5438959e+2, -1409410.9, -1441326.4, 5752.5557, -0.0023345714, -0.16340512, -1408405.8, 18559.555, 0.14298496, 10.002207, 9.997533 
6.249422e+2, 1.6438581e+2, -1308943.3, -1372701.0, 2432.0625, 0.018437322, -0.15357369, -1308850.6, 20151.756, 0.09948038, 10.003634, 9.994832 
6.2494105e+2, 1.7438002e+2, -1216268.3, -1281549.6, -5451.8, 0.027399372, -0.20468387, -1215816.1, 15242.787, 0.075066745, 10.003372, 9.994491 
6.2493795e+2, 1.843741e+2, -1130500.3, -1194168.9, -18986.85, 0.0070331115, -0.21324399, -1125268.1, 7848.604, 0.06283949, 10.002654, 9.994128 
6.2493277e+2, 1.9436875e+2, -1053240.6, -1108463.9, -15644.437, -0.04912352, -0.16892712, -1049116.6, -13947.474, 0.056407463, 10.001296, 9.993942 
6.2492794e+2, 2.0436157e+2, -971826.56, -1047280.7, -4078.1074, -0.051491134, -0.14138658, -971606.8, -34367.277, 0.05212858, 10.001395, 9.991385 
6.249243e+2, 2.1435294e+2, -847846.4, -940055.3, 12108.751, 0.014468705, -0.13836645, -846282.8, -6958.231, 0.048577264, 10.003315, 9.9910755 
6.249162e+2, 2.2434253e+2, -752674.0, -872370.8, -7522.672, 0.028127678, -0.14879638, -752203.06, -10776.315, 0.045520492, 10.004347, 9.988509 
6.249037e+2, 2.3433074e+2, -654330.4, -777167.4, -16999.969, -0.024190199, -0.17519051, -652021.06, -8479.001, 0.043181423, 10.004488, 9.988249 
6.248898e+2, 2.443184e+2, -564978.94, -696521.6, -27562.22, -0.020671953, -0.1651527, -559437.3, -13774.277, 0.041463654, 10.00439, 9.987146 
6.248761e+2, 2.5430608e+2, -471830.13, -599845.8, -29726.363, 0.053229753, -0.121104226, -465264.2, -17480.674, 0.039427247, 10.003996, 9.9872465 
6.248569e+2, 2.6429224e+2, -402448.56, -535031.2, -60999.145, 0.065645814, -0.14407082, -378654.16, -28735.34, 0.035389505, 10.002838, 9.985543 
6.248337e+2, 2.7427685e+2, -315182.1, -437685.0, -71161.27, 0.0017767916, -0.24292953, -282541.75, -30472.553, 0.028438343, 10.001891, 9.985956 
6.248084e+2, 2.842654e+2, -268418.28, -323245.28, -92925.734, 0.014308188, -0.18658939, -198946.83, -44766.164, 0.019755254, 9.99658, 9.98965 
6.247822e+2, 2.9425687e+2, -311548.22, -295583.72, -90892.71, 0.11096955, -0.003184618, -212323.42, -156059.92, 0.011800212, 9.987028, 9.989435 
6.2476045e+2, 3.0424386e+2, -348957.38, -246399.05, -56720.97, 0.047940474, -0.42450842, -221213.7, -221213.7, 0.006200205, 9.979377, 9.993108 
6.247439e+2, 3.1424057e+2, -277293.9, 11924.661, -54198.793, 0.113401495, -0.12337858, 21747.738, 21747.738, 0.002961689, 9.974662, 10.013083 
6.349463e+2, 1.3439472e+2, -1646200.5, -1632102.0, -20617.383, 0.10942056, -0.14409108, -1617362.0, 5553.9546, 0.39849606, 9.998103, 10.00004 
6.349412e+2, 1.4439374e+2, -1575569.6, -1563690.1, 7132.5557, -0.19399798, -0.14787304, -1560347.9, -35422.742, 0.32079118, 9.9969425, 9.998426 
6.3494605e+2, 1.5439196e+2, -1416931.5, -1436836.4, 11750.398, 0.086802274, -0.17201501, -1411485.1, 15457.597, 0.2526476, 10.001431, 9.998266 
6.349473e+2, 1.6438814e+2, -1322330.1, -1400378.4, 49.56706, 0.1614009, -0.11911685, -1322330.1, 6650.5215, 0.20406216, 10.003605, 9.992958 
6.3494384e+2, 1.7438228e+2, -1230616.8, -1312133.0, -7832.2993, -0.034656703, 0.025562834, -1229871.0, 1168.2053, 0.17504866, 10.003346, 9.992413 
6.3493955e+2, 1.8437539e+2, -1125312.1, -1178258.8, -23957.564, -0.09260755, -0.022682685, -1116081.0, 17025.26, 0.15895319, 10.002628, 9.995243 
6.3493484e+2, 1.9436789e+2, -1044396.44, -1090099.3, -21503.53, 0.027844327, -0.31980628, -1035869.7, -691.70825, 0.14931366, 10.001305, 9.995181 
6.349301e+2, 2.0436248e+2, -940979.1, -983925.44, 2094.295, 0.02206413, -0.3808541, -940877.25, -3647.933, 0.14203058, 10.001423, 9.995681 
6.349261e+2, 2.1436067e+2, -818913.6, -873837.8, 17901.15, -0.14227371, -0.15223429, -813594.4, 25651.611, 0.13536915, 10.003365, 9.995583 
6.349188e+2, 2.2435288e+2, -760498.5, -889467.3, -6417.177, -0.14575574, -0.084595285, -760179.94, -18858.287, 0.1291396, 10.004401, 9.9873085 
6.3490903e+2, 2.3433837e+2, -664670.75, -800321.3, -16232.559, 0.057079338, -0.22205321, -662755.3, -19291.672, 0.1239044, 10.004574, 9.986621 
6.348957e+2, 2.4432449e+2, -565606.2, -697694.5, -28469.75, 0.12855218, -0.27351704, -559731.25, -14131.133, 0.11945921, 10.004389, 9.987064 
6.3487977e+2, 2.5431222e+2, -471256.2, -599213.6, -32779.805, 0.017004415, -0.23611796, -463347.56, -15626.623, 0.11361308, 10.004014, 9.987283 
6.348587e+2, 2.642976e+2, -417870.06, -567722.06, -65122.78, -0.038134713, -0.22541569, -393524.28, -43659.62, 0.10226834, 10.002842, 9.983321 
6.348356e+2, 2.742808e+2, -328846.0, -468160.47, -76042.8, -0.012160648, -0.2405879, -295378.84, -43348.92, 0.08308957, 10.0019655, 9.983846 
6.348053e+2, 2.8426838e+2, -272321.66, -332008.63, -129142.164, 0.045004707, -0.15243338, -169619.56, -15467.73, 0.058854822, 9.996556, 9.989087 
6.3476926e+2, 2.9425907e+2, -316748.5, -303864.63, -127823.664, 0.12267898, 0.0010822469, -182320.67, -126078.48, 0.036028273, 9.986871, 9.988969 
6.347396e+2, 3.0424675e+2, -350290.44, -242720.31, -77583.57, 0.050009277, -0.35404488, -202101.77, -202101.77, 0.019412138, 9.979052, 9.993542 
6.347183e+2, 3.1424305e+2, -265530.25, 45645.047, -71582.02, 0.12792133, -0.1422016, 61321.82, 61321.82, 0.009487624, 9.974196, 10.015682 
6.4494455e+2, 1.6438541e+2, -1355428.0, -1337279.3, -12308.548, -0.17967352, -0.20095615, -1331061.6, -2055.1355, 0.3926038, 9.997789, 10.000065 
6.449484e+2, 1.7438501e+2, -1190462.4, -1211852.4, 32373.648, 0.053241193, -0.24587756, -1167062.9, 63947.832, 0.36181888, 10.004142, 9.999704 
6.449458e+2, 1.8438216e+2, -1103456.8, -1175280.1, 31665.137, 0.10621256, -0.21624038, -1091490.3, 41548.297, 0.34318146, 10.005785, 9.994058 
6.449354e+2, 1.9437738e+2, -1052631.8, -1112462.1, 18253.982, -0.05610272, -0.07770191, -1047502.25, -12417.763, 0.33107, 10.001523, 9.993543 
6.449297e+2, 2.043706e+2, -980977.9, -1029623.2, 22669.43, -0.077272266, -0.08423137, -972051.5, -34901.99, 0.32097656, 9.99983, 9.993335 
6.449308e+2, 2.1436211e+2, -861333.9, -924289.3, -12955.211, 0.08187413, -0.2723306, -858772.2, -19541.504, 0.31078818, 10.001436, 9.993055 
6.449256e+2, 2.2435394e+2, -743178.94, -822556.0, -44185.867, 0.12487895, -0.3396996, -723474.1, 17835.295, 0.30029163, 10.003573, 9.992373 
6.4491403e+2, 2.3434724e+2, -615182.06, -708574.6, -2471.1348, 0.014595082, -0.26102746, -615116.7, 28257.832, 0.29053193, 10.006057, 9.992173 
6.4489967e+2, 2.4433634e+2, -544828.5, -710167.44, -900.41235, -0.032087985, -0.20758982, -544823.56, 658.23553, 0.28116646, 10.006811, 9.985037 
6.4488435e+2, 2.543213e+2, -465040.5, -620693.9, -27709.4, -0.001388927, -0.19284436, -460254.8, -12624.622, 0.2676805, 10.005477, 9.985133 
6.4486265e+2, 2.6430616e+2, -388721.5, -539683.5, -52175.34, 0.007430087, -0.19788851, -372443.88, -22664.09, 0.24122883, 10.004249, 9.984541 
6.4483863e+2, 2.742905e+2, -285979.38, -432014.1, -36364.24, -0.008114452, -0.23361206, -277425.34, -25491.857, 0.19681346, 10.004259, 9.985171 
6.448033e+2, 2.8427795e+2, -228037.39, -319784.97, -105801.12, 0.029416116, -0.18271214, -158593.0, -4536.278, 0.14063475, 9.999976, 9.988204 
6.44759e+2, 2.9426733e+2, -238401.1, -277352.72, -107917.11, 0.12350733, -0.06422902, -148216.48, -92056.15, 0.08724494, 9.992703, 9.987904 
6.447182e+2, 3.0425647e+2, -355721.78, -223738.61, -75002.57, 0.06474315, -0.3046004, -189828.88, -189828.88, 0.047775507, 9.977788, 9.995375 
6.4468306e+2, 3.142538e+2, -531920.6, -41580.2, -56189.99, 0.124979824, -0.19105184, -35223.58, -35223.58, 0.02376348, 9.954341, 10.019184 
6.5484315e+2, 2.7430582e+2, -253587.92, -357501.22, -35841.715, -0.0013598027, -0.22810224, -242424.67, 9356.384, 0.38450885, 10.004393, 9.990231 
6.548026e+2, 2.8429434e+2, -235502.63, -333975.13, -132029.56, -0.048770644, -0.28883365, -143827.52, 10065.77, 0.2735379, 10.00004, 9.9873 
6.547516e+2, 2.9428214e+2, -247342.73, -298263.13, -134633.27, 0.10551448, -0.20721407, -135783.45, -79770.59, 0.16985984, 9.992751, 9.986466 
6.54696e+2, 3.0427402e+2, -332934.56, -170020.7, -162450.16, 0.08919137, -0.27586272, -69749.02, -69749.02, 0.09370061, 9.977388, 9.999262 
6.546358e+2, 3.1427503e+2, -516481.66, 12946.756, -143999.61, 0.06992702, -0.21752103, 49578.695, 49578.695, 0.047204077, 9.953158, 10.023667 
6.6474944e+2, 2.943226e+2, -93059.52, -197827.97, -6594.4795, 0.15219066, -0.2740848, -92646.07, -37030.547, 0.26828185, 10.002184, 9.988406 
6.646677e+2, 3.043192e+2, -419204.5, -142787.03, -59383.79, -0.049707294, -0.24093324, -130569.4, -130569.4, 0.14831972, 9.968359, 10.0050125 
6.645785e+2, 3.1432548e+2, -817885.0, -69634.74, -28171.066, 0.119123764, -0.2470423, -68575.625, -68575.625, 0.075473405, 9.929955, 10.0285845 
6.747527e+2, 2.943928e+2, -65636.15, -112194.914, -95919.0, 0.2505553, -0.25743458, 9787.984, 64716.492, 0.34323636, 10.002019, 9.995139 
6.7463213e+2, 3.0439746e+2, -370031.0, -29612.375, -190782.34, -0.37099534, -0.20098029, 55852.152, 55852.152, 0.19069123, 9.96726, 10.013897 
6.7450845e+2, 3.1441313e+2, -800093.9, 1644.2893, -165541.6, 0.27436006, -0.14730465, 34480.223, 34480.223, 0.09803706, 9.9279785, 10.034485 
6.8475807e+2, 2.9451948e+2, 40495.188, -18860.346, 99868.805, 0.20938468, -0.2542438, 115002.586, 168691.13, 0.35072157, 10.009309, 9.997645 
6.8459505e+2, 3.0452773e+2, -471485.63, -15796.531, 82540.375, -0.33203134, -0.15078703, -1306.4935, -1306.4935, 0.19820955, 9.957236, 10.017229 
6.844354e+2, 3.145455e+2, -810075.7, 3532.3752, 68195.46, 0.25060964, -0.20339154, 9208.816, 9208.816, 0.10338539, 9.926375, 10.033635 
6.9476485e+2, 2.9471222e+2, 47247.54, -7909.051, -81831.66, 0.05052057, -0.2508754, 106023.07, 157825.13, 0.28303596, 10.007158, 9.997807 
6.945557e+2, 3.047211e+2, -487537.28, -29248.078, -12622.805, 0.10360562, -0.10226813, -28900.668, -28900.668, 0.16473256, 9.955944, 10.016462 
6.943596e+2, 3.1473657e+2, -857040.8, -81760.67, -34298.734, 0.075394705, -0.2588607, -80246.24, -80246.24, 0.0875197, 9.925467, 10.0276375 
7.0858014e+2, 1.7504e+2, -1237701.6, -1293014.9, -14638.829, 0.2661199, -0.25085878, -1234066.4, -9478.203, 0.3951146, 9.99621, 9.988937 
7.082462e+2, 1.850317e+2, -1094540.3, -1114157.8, -5078.896, 0.3037332, -0.21876122, -1093303.4, 33367.54, 0.36691076, 9.99811, 9.994102 
7.079128e+2, 1.9502613e+2, -995852.5, -1016825.94, -16167.889, 0.29540455, -0.19605088, -987068.2, 41656.594, 0.3387106, 9.99814, 9.994102 
7.0758194e+2, 2.0501791e+2, -930072.2, -991918.0, -10943.219, 0.2825463, -0.17952414, -928193.0, 2612.8179, 0.3082006, 9.997396, 9.989167 
7.0725316e+2, 2.1500681e+2, -859555.0, -911907.7, 5074.6543, 0.28141752, -0.18578695, -859067.6, -26151.104, 0.27812007, 9.995675, 9.988652 
7.069242e+2, 2.2499715e+2, -734949.94, -762484.25, -5753.3384, 0.29589713, -0.18319272, -733796.1, 1216.6184, 0.25587264, 9.995689, 9.992139 
7.065935e+2, 2.3498937e+2, -615021.06, -653875.9, -11303.743, 0.31842363, -0.17676543, -611971.9, 25117.621, 0.25055858, 9.997914, 9.991927 
7.062673e+2, 2.4498214e+2, -506756.66, -530978.75, -352.79257, 0.24688098, -0.18418616, -506751.53, 32408.924, 0.267151, 9.998174, 9.993972 
7.059437e+2, 2.5497603e+2, -435468.38, -450873.88, -6081.9297, 0.09021141, -0.20272669, -433356.75, 7863.0566, 0.30023387, 9.995975, 9.993844 
7.0562863e+2, 2.649701e+2, -329845.38, -349022.22, -8516.895, 0.07700621, -0.17767914, -326609.0, 16668.775, 0.32708713, 9.996821, 9.994115 
7.053162e+2, 2.7496484e+2, -182422.53, -220574.92, -19448.09, 0.1984579, -0.14229451, -174256.67, 71072.62, 0.31733978, 10.001635, 9.994905 
7.050293e+2, 2.8495818e+2, -149087.03, -199505.78, 91851.17, 0.1312127, -0.15700951, -79048.57, 68345.45, 0.260852, 9.998967, 9.991805 
7.04761e+2, 2.9495013e+2, -193613.61, -152698.48, 73322.52, -0.06579426, -0.16786286, -97033.09, -47560.36, 0.18085134, 9.987541, 9.99338 
7.045198e+2, 3.04953e+2, -334019.7, -11027.603, 189307.14, 0.36838192, -0.14257912, 76309.97, 76309.97, 0.108559154, 9.967628, 10.010648 
7.042893e+2, 3.149638e+2, -683052.6, -74949.08, 115733.28, -0.14608121, -0.16232716, -53667.684, -53667.684, 0.058699396, 9.939464, 10.019417 
7.1992147e+2, 1.3540024e+2, -1617119.6, -1598144.4, 11838.648, 0.42014733, -0.32413924, -1592460.8, 20599.805, 0.38652638, 9.99318, 9.996515 
7.195814e+2, 1.453968e+2, -1497218.1, -1524232.6, -6018.621, 0.31422788, -0.11325656, -1495937.9, 19156.693, 0.32051286, 9.99726, 9.992566 
7.1924454e+2, 1.5538836e+2, -1424872.0, -1443341.6, -17878.7, 0.37997344, -0.22462031, -1413984.0, 3192.3982, 0.2634744, 9.995002, 9.992604 
7.189098e+2, 1.6538069e+2, -1336801.5, -1354863.5, -2904.8335, 0.37966976, -0.2295681, -1336345.9, -17094.584, 0.22245309, 9.994645, 9.992228 
7.185771e+2, 1.7537354e+2, -1219758.1, -1251335.8, 2207.7075, 0.33467546, -0.157793, -1219604.5, 1717.6123, 0.19610296, 9.996166, 9.991802 
7.182443e+2, 1.8536416e+2, -1120966.9, -1177777.3, -4508.0044, 0.3222067, -0.15493603, -1120611.4, 2803.0935, 0.17775899, 9.997238, 9.98966 
7.179112e+2, 1.9535334e+2, -1018237.06, -1078158.8, -15964.342, 0.32555455, -0.20552737, -1014249.25, 11271.395, 0.16158374, 9.997756, 9.989628 
7.175795e+2, 2.053444e+2, -909542.8, -944498.44, -11251.094, 0.30428812, -0.19978637, -906234.5, 21374.035, 0.14462154, 9.997326, 9.99237 
7.1724874e+2, 2.1533708e+2, -832302.94, -863432.9, -3860.501, 0.26544142, -0.1537762, -831831.3, -2150.6965, 0.12753616, 9.995979, 9.991784 
7.1691924e+2, 2.253276e+2, -753363.2, -807200.44, -2486.5378, 0.2238079, -0.12504594, -753248.56, -21473.627, 0.114041865, 9.996027, 9.988992 
7.1659005e+2, 2.3531662e+2, -634427.44, -703942.4, -7899.856, 0.17603892, -0.11668634, -633541.0, 343.4057, 0.10909545, 9.997767, 9.988592 
7.1626437e+2, 2.4530548e+2, -531327.4, -598514.8, -10713.313, 0.14368187, -0.104127735, -529660.44, 6333.6167, 0.11567426, 9.997981, 9.989221 
7.159401e+2, 2.5529498e+2, -460518.22, -518321.47, -17811.193, 0.12878706, -0.082787305, -455470.72, -17374.602, 0.13191311, 9.996356, 9.988973 
7.156263e+2, 2.6528198e+2, -373316.75, -461962.9, 5648.635, 0.14355981, -0.11538715, -372958.25, -32735.506, 0.1479817, 9.997425, 9.9860735 
7.153176e+2, 2.7526733e+2, -212945.33, -324854.72, -10680.232, 0.17375447, -0.2126721, -211935.16, 30430.355, 0.14909244, 10.001928, 9.986845 
7.150263e+2, 2.8525373e+2, -196094.52, -294871.7, 69755.9, 0.042940687, -0.17516994, -160013.13, -15514.479, 0.127483, 9.997764, 9.984926 
7.147468e+2, 2.9524076e+2, -248594.56, -249943.14, 47213.785, -0.17641594, 0.006457834, -202050.27, -155423.61, 0.09138161, 9.986686, 9.9867935 
7.1448845e+2, 3.0523235e+2, -391465.2, -132624.86, 107690.39, 0.4439104, -0.30607432, -93679.95, -93679.95, 0.05609744, 9.9674015, 10.001289 
7.1422994e+2, 3.1523558e+2, -703997.0, -137080.11, 5996.3154, -0.099918045, -0.1331556, -137016.7, -137016.7, 0.030691685, 9.93959, 10.014378 
7.3025423e+2, 1.2574632e+2, -1726469.0, -1733215.9, -2720.6084, 0.5576588, -0.21780352, -1725508.6, -17837.482, 0.3249284, 9.994132, 9.993258 
7.299176e+2, 1.3574106e+2, -1596030.3, -1621647.5, -2140.264, 0.46132734, -0.063725226, -1595852.6, 13870.687, 0.25896257, 9.996865, 9.992823 
7.295803e+2, 1.4573325e+2, -1485423.1, -1531221.9, -8616.206, 0.4081479, -0.047103487, -1483855.9, 27944.135, 0.19362748, 9.998417, 9.991545 
7.292425e+2, 1.5572387e+2, -1376537.6, -1430385.6, -11556.536, 0.38999587, -0.13622768, -1374162.1, 39729.09, 0.13975194, 9.999257, 9.991352 
7.28907e+2, 1.6571523e+2, -1281026.8, -1326971.0, 1011.2813, 0.36023107, -0.16383418, -1281004.5, 34971.324, 0.10370437, 9.99877, 9.992031 
7.285735e+2, 1.7570743e+2, -1208714.3, -1247797.3, -527.03436, 0.31733206, -0.14367002, -1208707.1, 9344.683, 0.083347134, 9.997022, 9.991616 
7.282409e+2, 1.8569732e+2, -1133363.0, -1197772.3, 1610.0555, 0.30010414, -0.13939086, -1133322.8, -13171.593, 0.07189681, 9.99699, 9.988414 
7.279089e+2, 1.956855e+2, -1017595.6, -1093207.1, 2060.568, 0.3051274, -0.15536316, -1017539.56, 4727.92, 0.06370772, 9.99834, 9.9882 
7.275775e+2, 2.0567445e+2, -900288.8, -966866.8, -3865.3298, 0.29356822, -0.16249906, -900065.2, 24310.725, 0.055943433, 9.998914, 9.989976 
7.2724634e+2, 2.1566455e+2, -804876.9, -874395.56, -17950.46, 0.26794526, -0.15845242, -800515.5, 25957.172, 0.048274785, 9.998932, 9.989745 
7.2691673e+2, 2.256532e+2, -728465.2, -815877.06, -20631.727, 0.22564906, -0.12887593, -723840.2, 4744.7334, 0.042056885, 9.998649, 9.9873085 
7.265878e+2, 2.3564087e+2, -643181.25, -729918.2, -18836.098, 0.1704139, -0.08913317, -639267.4, -8559.422, 0.03932212, 9.998044, 9.986834 
7.2626275e+2, 2.456271e+2, -536926.9, -641232.5, -10528.204, 0.13018382, -0.07652791, -535874.8, -3031.7366, 0.04136445, 9.999192, 9.985805 
7.259393e+2, 2.556129e+2, -405172.8, -531807.1, -9467.685, 0.11537809, -0.0808674, -404468.88, 30512.084, 0.047611073, 10.001904, 9.9853945 
7.2562605e+2, 2.6559547e+2, -345446.47, -505228.63, 31206.604, 0.14780441, -0.12238018, -339567.88, -2416.438, 0.054478787, 10.001646, 9.980994 
7.253185e+2, 2.755757e+2, -280934.88, -417051.66, 33246.355, 0.19547403, -0.21408531, -273248.53, -33903.566, 0.056233924, 9.999128, 9.98166 
7.250219e+2, 2.8555858e+2, -267519.6, -355492.94, 103826.04, 0.035115592, -0.14151588, -198746.9, -57233.902, 0.049268484, 9.993535, 9.982241 
7.2473234e+2, 2.9554316e+2, -274995.03, -292783.22, 112390.35, -0.23317258, 0.08296578, -171147.4, -127482.34, 0.03602688, 9.985686, 9.983551 
7.244588e+2, 3.0552763e+2, -336686.22, -184798.66, 145879.67, 0.44599065, -0.38453048, -96278.66, -96278.66, 0.022392612, 9.973744, 9.993542 
7.2417796e+2, 3.1552583e+2, -432050.63, 1579.4551, 33270.523, -0.028168442, 0.044532727, 4117.3027, 4117.3027, 0.012313585, 9.956757, 10.014192 
7.402469e+2, 1.2608343e+2, -1713708.9, -1724534.4, 2300.9377, 0.39076775, -0.035795636, -1713240.1, -8868.652, 0.23778392, 9.994992, 9.993506 
7.399138e+2, 1.3607578e+2, -1589414.6, -1617985.1, -600.90906, 0.3846802, -0.14670022, -1589402.0, 17043.945, 0.17852521, 9.997289, 9.992955 
7.395783e+2, 1.460672e+2, -1489013.6, -1543454.0, -12916.044, 0.3772378, -0.16832785, -1486104.8, 22424.842, 0.12096515, 9.998355, 9.990803 
7.392415e+2, 1.5605828e+2, -1383929.3, -1443482.5, -14687.296, 0.36963636, -0.13924977, -1380504.0, 30112.82, 0.07490658, 9.998865, 9.990691 
7.3890543e+2, 1.6604927e+2, -1282766.5, -1336625.4, -9914.463, 0.33638433, -0.14190191, -1280999.5, 31705.1, 0.04563878, 9.998755, 9.991404 
7.3857033e+2, 1.7604041e+2, -1199560.0, -1252035.5, -12369.282, 0.2847104, -0.16479087, -1196790.5, 17999.973, 0.030679801, 9.997953, 9.990915 
7.3823774e+2, 1.8603006e+2, -1119663.0, -1192511.1, -1318.0107, 0.2626281, -0.14166287, -1119639.3, -2747.2134, 0.023779081, 9.998038, 9.988344 
7.3790693e+2, 1.9601883e+2, -1014458.56, -1096492.8, -1694.6554, 0.2622858, -0.0928506, -1014423.56, 4579.259, 0.02003629, 9.998791, 9.98784 
7.375762e+2, 2.0600522e+2, -927867.9, -1028190.56, -8824.462, 0.26787627, -0.11675194, -927097.56, -5961.329, 0.017114926, 9.998991, 9.985794 
7.372453e+2, 2.159903e+2, -833599.0, -934313.1, -17810.688, 0.27419952, -0.188697, -830542.06, -7260.2754, 0.014433265, 9.998872, 9.985668 
7.369157e+2, 2.2597648e+2, -732667.44, -828512.8, -21340.002, 0.2614983, -0.16514137, -728130.8, -2712.748, 0.012283629, 9.998785, 9.986358 
7.365866e+2, 2.3596367e+2, -641620.0, -740038.94, -20342.625, 0.23453514, -0.0800447, -637581.06, -10035.587, 0.011260249, 9.99862, 9.985856 
7.362623e+2, 2.4594806e+2, -546073.9, -670487.1, -1327.735, 0.15812649, -0.08990752, -546059.7, -16361.674, 0.011756491, 9.999751, 9.983571 
7.359407e+2, 2.5593087e+2, -419674.63, -564275.9, -2054.459, 0.055115517, -0.16664982, -419645.44, 12218.95, 0.013612207, 10.001996, 9.983152 
7.3562723e+2, 2.659116e+2, -361653.22, -535263.25, 21506.506, 0.11057401, -0.17408578, -359028.7, -24975.145, 0.015778964, 10.001502, 9.97893 
7.353182e+2, 2.7589104e+2, -294402.8, -442354.72, 22846.05, 0.25898376, -0.14231037, -290955.38, -54698.246, 0.016530091, 9.999004, 9.979891 
7.350159e+2, 2.8587416e+2, -254462.7, -323915.4, 77140.93, 0.100620165, -0.07217757, -204592.11, -66169.05, 0.014681714, 9.993277, 9.98429 
7.3471797e+2, 2.9585955e+2, -265928.28, -271952.25, 87400.56, -0.23125285, 0.034784876, -181487.83, -140921.67, 0.010843951, 9.985519, 9.984811 
7.3443156e+2, 3.058433e+2, -365104.2, -248647.13, 94688.87, 0.33039054, -0.29929268, -195715.67, -195715.67, 0.006773987, 9.973649, 9.988845 
7.341352e+2, 3.158374e+2, -401435.97, 31809.813, -28871.55, -0.11124601, 0.13674586, 33725.348, 33725.348, 0.003726655, 9.957763, 10.015309 
7.502438e+2, 1.2641604e+2, -1691515.5, -1722210.6, 2827.611, 0.45530882, -0.05777652, -1691257.3, 9856.726, 0.17498668, 9.997102, 9.99274 
7.499121e+2, 1.364079e+2, -1571829.8, -1617429.6, -4415.9995, 0.39464357, -0.14283516, -1571406.0, 31787.309, 0.12614638, 9.998944, 9.9923115 
7.495772e+2, 1.4639933e+2, -1473574.5, -1536159.9, -21831.445, 0.3750445, -0.14120479, -1466711.8, 38565.816, 0.07953291, 9.999419, 9.990884 
7.492406e+2, 1.5639068e+2, -1376241.1, -1442495.6, -21074.05, 0.37821805, -0.089893326, -1370106.1, 37256.594, 0.043202266, 9.99943, 9.990563 
7.4890494e+2, 1.6638076e+2, -1276480.6, -1353508.3, -17405.764, 0.3499612, -0.08552016, -1272730.0, 36729.465, 0.021089088, 9.99996, 9.989772 
7.4857014e+2, 1.7637028e+2, -1170219.4, -1256141.3, -23602.906, 0.30246007, -0.11096125, -1164162.6, 47398.855, 0.010653346, 10.000719, 9.989426 
7.482376e+2, 1.863588e+2, -1082448.6, -1181784.0, -15612.347, 0.27138796, -0.10634206, -1080052.8, 33621.195, 0.006580735, 10.000876, 9.987847 
7.479067e+2, 1.9634685e+2, -991728.7, -1092098.3, -18261.23, 0.25248045, -0.08247131, -988509.44, 27281.941, 0.0049579404, 10.000578, 9.987446 
7.475755e+2, 2.0633316e+2, -913029.56, -1022364.4, -17779.754, 0.24984725, -0.097816184, -910210.94, 7714.145, 0.0040337825, 9.999987, 9.985797 
7.4724424e+2, 2.1631838e+2, -828083.06, -936229.44, -8595.384, 0.25750226, -0.14296193, -827404.2, -7335.2, 0.003305049, 9.999344, 9.985259 
7.4691516e+2, 2.2630312e+2, -725193.44, -847063.8, -1166.2634, 0.2542217, -0.13354723, -725182.25, -2963.1628, 0.0027492917, 10.00019, 9.984339 
7.465871e+2, 2.3628794e+2, -605190.06, -743120.2, -4117.528, 0.24277554, -0.08739175, -605067.25, 19301.738, 0.0024780708, 10.001929, 9.984003 
7.4626327e+2, 2.4627072e+2, -531510.3, -679361.06, 12964.475, 0.17518894, -0.09926245, -530382.1, -3844.8513, 0.002570153, 10.001311, 9.982144 
7.4594146e+2, 2.562523e+2, -468030.13, -603068.1, 17489.953, 0.074544616, -0.15699854, -465801.63, -37085.184, 0.0029849075, 9.9991865, 9.98175 
7.4562657e+2, 2.662325e+2, -423505.7, -565436.5, 43957.113, 0.11691806, -0.1441918, -410994.63, -80083.6, 0.0034867313, 9.997095, 9.978768 
7.4531513e+2, 2.7621192e+2, -348223.16, -467423.47, 56261.16, 0.24836032, -0.08642778, -325862.97, -92748.2, 0.003683512, 9.995096, 9.979715 
7.4500793e+2, 2.8619507e+2, -281594.2, -321844.63, 94327.445, 0.10710087, -0.06027522, -205268.95, -69988.76, 0.0032950735, 9.990518, 9.985305 
7.447031e+2, 2.9618055e+2, -278435.63, -268032.5, 96190.195, -0.18828213, -0.049710263, -176903.33, -139481.33, 0.002444916, 9.983966, 9.985425 
7.4440527e+2, 3.0616605e+2, -335275.1, -247516.14, 98362.54, 0.24111041, -0.14489034, -183689.55, -183689.55, 0.00152949, 9.975795, 9.987317 
7.4409795e+2, 3.161533e+2, -276459.78, 84260.32, -7011.6187, 0.013029144, -0.26333636, 84396.56, 84396.56, 0.0008403217, 9.966098, 10.014068 
7.602419e+2, 1.2674797e+2, -1678310.9, -1724147.4, 6300.4697, 0.52751213, -0.092608035, -1677460.6, 20402.693, 0.12768431, 9.9985075, 9.991963 
7.599113e+2, 1.3673986e+2, -1573799.0, -1626516.5, 351.071, 0.41537306, -0.09432868, -1573796.8, 26145.842, 0.089724064, 9.999043, 9.991643 
7.595766e+2, 1.4673139e+2, -1474281.0, -1534641.8, -20776.338, 0.3802523, -0.06518423, -1467821.1, 34205.18, 0.054134592, 9.999199, 9.991069 
7.592401e+2, 1.5672283e+2, -1376752.8, -1444569.4, -20563.016, 0.38634124, -0.02169188, -1371004.9, 33106.383, 0.027072964, 9.999435, 9.990413 
7.589051e+2, 1.6671178e+2, -1289882.0, -1380321.1, -13255.162, 0.36482418, -0.018632872, -1287979.4, 18240.12, 0.0111973565, 9.99991, 9.987964 
7.585711e+2, 1.7669953e+2, -1185324.1, -1281585.6, -16674.818, 0.32820746, -0.038281627, -1182517.4, 25821.418, 0.004155564, 10.000468, 9.98778 
7.582387e+2, 1.866867e+2, -1090704.9, -1193002.4, -10847.623, 0.29183033, -0.061396502, -1089567.3, 20897.244, 0.0017307227, 10.000613, 9.987148 
7.579072e+2, 1.9667356e+2, -996422.2, -1097970.4, -13949.047, 0.25399223, -0.08696916, -994540.94, 18052.121, 0.0009991154, 10.0004015, 9.987066 
7.5757533e+2, 2.0666079e+2, -900170.2, -998713.3, -17351.143, 0.23548082, -0.080127776, -897204.3, 17513.021, 0.0007296901, 10.0001, 9.987314 
7.5724334e+2, 2.1664819e+2, -813402.06, -917458.75, -10985.611, 0.22949602, -0.059869282, -812254.94, 4584.8867, 0.00057141663, 9.999852, 9.986295 
7.569152e+2, 2.266319e+2, -735543.8, -876415.94, 3674.7732, 0.22507915, -0.07309185, -735448.0, -16448.537, 0.00046291083, 10.000612, 9.982164 
7.565889e+2, 2.3661377e+2, -620137.6, -772319.8, 601.1483, 0.21873835, -0.103251144, -620135.25, 1042.2804, 0.00041055412, 10.001914, 9.982023 
7.562646e+2, 2.465955e+2, -537046.2, -688924.2, 6140.449, 0.19071226, -0.09703073, -536798.3, -13441.798, 0.0004230154, 10.001203, 9.981481 
7.5594133e+2, 2.5657722e+2, -468878.34, -607645.1, 10767.982, 0.14958654, -0.07521641, -468047.72, -42512.242, 0.0004914099, 9.999288, 9.98132 
7.5562394e+2, 2.665581e+2, -410981.25, -541660.75, 37025.63, 0.14383227, -0.056206454, -401219.88, -73496.68, 0.00057602196, 9.997219, 9.980243 
7.553093e+2, 2.7653855e+2, -338413.4, -445955.4, 47440.316, 0.1593058, -0.043870535, -320477.34, -90561.305, 0.0006110415, 9.995068, 9.9811 
7.549978e+2, 2.865217e+2, -280496.16, -315882.94, 70679.51, 0.060054135, -0.10151688, -225329.08, -93248.11, 0.0005484341, 9.9902725, 9.985657 
7.546879e+2, 2.9650667e+2, -274965.72, -258551.5, 71714.016, -0.098845325, -0.17450589, -194576.5, -160349.22, 0.00040766576, 9.9837675, 9.985985 
7.5438046e+2, 3.064977e+2, -312405.56, -201799.14, 67708.36, 0.17751572, 0.09903844, -169678.86, -169678.86, 0.00025502508, 9.975725, 9.990228 
7.540639e+2, 3.164869e+2, -307037.28, 950.039, -24541.152, -0.0758364, -0.0747941, 2893.275, 2893.275, 0.00013988692, 9.966887, 10.007751 
7.7024174e+2, 1.2708052e+2, -1638152.1, -1696310.9, 5534.7817, 0.49305397, -0.013115323, -1637630.0, 56978.3, 0.09095763, 10.001066, 9.9925995 
7.6991105e+2, 1.3707276e+2, -1557380.0, -1614106.6, 3117.6816, 0.44110084, -0.039094537, -1557209.3, 39474.438, 0.06282214, 9.999912, 9.992027 
7.695763e+2, 1.4706406e+2, -1469082.8, -1536527.8, -13981.597, 0.41232955, -0.024559652, -1466299.3, 32469.934, 0.03690004, 9.999655, 9.990695 
7.6923996e+2, 1.57055e+2, -1368652.9, -1444131.5, -14803.212, 0.39835224, 0.005869819, -1365853.5, 35004.96, 0.01763206, 10.000075, 9.990124 
7.689051e+2, 1.670437e+2, -1282106.1, -1375343.0, -3898.5078, 0.3571925, -0.011725123, -1281943.4, 21025.486, 0.006673461, 10.000328, 9.988063 
7.6857126e+2, 1.7703131e+2, -1183576.9, -1280031.8, -614.662, 0.3054175, -0.05071403, -1183573.0, 21516.334, 0.0020324262, 10.000488, 9.987783 
7.6823914e+2, 1.8701865e+2, -1092415.6, -1194828.5, 8079.4175, 0.29514733, -0.045924168, -1091782.1, 15431.433, 0.00056073064, 10.000456, 9.986967 
7.67908e+2, 1.9700575e+2, -998838.2, -1102557.1, 7951.759, 0.29980022, -0.026642637, -998232.1, 11108.269, 0.00019287673, 10.000292, 9.986652 
7.675762e+2, 2.0699184e+2, -900296.44, -1014763.1, 960.73157, 0.27517775, -0.02935705, -900288.4, 11187.89, 0.000105354186, 10.000721, 9.985821 
7.6724434e+2, 2.1697755e+2, -796331.9, -922144.5, -3847.1973, 0.2411612, -0.038732205, -796214.4, 17400.982, 0.00007478347, 10.001507, 9.985177 
7.669162e+2, 2.2696081e+2, -725716.6, -872853.2, 11686.043, 0.21948497, -0.047177028, -724794.25, -9015.051, 0.000058257054, 10.001239, 9.982087 
7.6658976e+2, 2.3694271e+2, -641838.44, -783468.56, 18187.535, 0.20398106, -0.061751556, -639540.2, -21583.414, 0.000050691593, 10.00034, 9.98192 
7.66265e+2, 2.469245e+2, -557419.0, -695012.44, 27273.791, 0.18630092, -0.058707505, -552210.0, -32075.102, 0.000051829134, 9.999513, 9.981689 
7.659406e+2, 2.569063e+2, -472980.25, -606772.25, 37322.758, 0.16813861, -0.041379403, -463272.97, -40960.113, 0.000060065497, 9.99875, 9.981395 
7.656211e+2, 2.6688737e+2, -410199.63, -536995.94, 57405.387, 0.14999484, -0.01940868, -388071.75, -63572.414, 0.00007039053, 9.996944, 9.980445 
7.6530373e+2, 2.7686805e+2, -341836.75, -441027.5, 58258.93, 0.12907463, -0.008597988, -314921.97, -88232.47, 0.00007472695, 9.994396, 9.9815645 
7.649877e+2, 2.868516e+2, -282409.97, -308484.8, 66837.28, 0.06330832, -0.08675355, -227350.44, -98500.49, 0.000067137524, 9.989538, 9.986265 
7.646723e+2, 2.9683697e+2, -270330.6, -246016.03, 69756.305, -0.02036608, -0.18300423, -187365.53, -156373.64, 0.000049931135, 9.983408, 9.986745 
7.6435745e+2, 3.068301e+2, -239547.4, -143749.03, 62158.36, 0.13086748, 0.16389544, -113175.336, -113175.336, 0.00003122338, 9.979493, 9.992148 
7.640357e+2, 3.1681898e+2, -211950.52, -30450.816, -20187.951, -0.028315805, -0.17409036, -28232.453, -28232.453, 0.000017103504, 9.976573, 10.000812 
7.8024226e+2, 1.2741345e+2, -1640848.6, -1690640.1, 130.02704, 0.46025532, 0.06493561, -1640848.4, 50501.09, 0.062321946, 10.000376, 9.993309 
7.799112e+2, 1.37406e+2, -1553020.0, -1607361.8, -4242.953, 0.46397096, 0.0008952506, -1552690.6, 40730.55, 0.042461134, 9.999935, 9.992482 
7.795763e+2, 1.473971e+2, -1464612.1, -1538378.1, -15592.759, 0.44083545, -0.0020314492, -1461451.5, 34056.727, 0.024464365, 10.00013, 9.990369 
7.7924037e+2, 1.5738761e+2, -1359523.4, -1441619.9, -14763.525, 0.409304, 0.017796624, -1356949.1, 40652.004, 0.011362938, 10.000796, 9.989958 
7.7890545e+2, 1.6737637e+2, -1269226.0, -1362771.0, -6022.5923, 0.3467458, -0.020542562, -1268839.9, 30870.531, 0.004107514, 10.00095, 9.988634 
7.785715e+2, 1.7736436e+2, -1173976.4, -1269722.6, -4888.142, 0.27324072, -0.08103399, -1173727.4, 28099.484, 0.001142861, 10.000913, 9.988316 
7.782396e+2, 1.8735245e+2, -1087701.9, -1190645.9, 2207.7083, 0.29565638, -0.033898346, -1087654.6, 16289.492, 0.0002518874, 10.0007, 9.98717 
7.779088e+2, 1.9734038e+2, -999692.75, -1107069.0, 2944.2344, 0.35547206, 0.05236763, -999612.1, 6451.5615, 0.000050957846, 10.0004225, 9.986319 
7.775775e+2, 2.073247e+2, -914354.2, -1047846.1, 1857.6316, 0.3290222, 0.025451425, -914328.3, -6110.8574, 0.00001456024, 10.000937, 9.983489 
7.772462e+2, 2.1730748e+2, -805200.75, -945192.25, -561.67975, 0.2658573, -0.04625133, -805198.44, 5187.082, 0.000007675576, 10.001743, 9.983482 
7.7691746e+2, 2.2729088e+2, -717637.3, -857523.3, 9716.349, 0.22270852, -0.032216452, -716965.7, -4417.589, 0.0000054991124, 10.001295, 9.983064 
7.7659e+2, 2.3727435e+2, -635275.7, -768471.75, 15230.08, 0.18945907, 0.0125675, -633556.4, -18846.523, 0.0000046496707, 10.000281, 9.982939 
7.7626425e+2, 2.4725693e+2, -550496.0, -680666.25, 24022.95, 0.16467921, -0.004845213, -546204.06, -29324.27, 0.000004704037, 9.999538, 9.98262 
7.7593917e+2, 2.5723907e+2, -468284.16, -597879.3, 32926.824, 0.14277, -0.04388507, -460398.16, -41344.195, 0.000005423297, 9.99881, 9.981935 
7.75618e+2, 2.6721993e+2, -414827.94, -545442.06, 47607.188, 0.14417316, -0.019871525, -399317.56, -78074.984, 0.0000063318166, 9.996894, 9.979812 
7.7529836e+2, 2.7720034e+2, -344137.63, -443229.3, 46436.934, 0.15423235, 0.02074007, -325777.8, -102341.49, 0.0000067068463, 9.994262, 9.981384 
7.749776e+2, 2.871849e+2, -277658.75, -295293.44, 43626.684, 0.10961128, -0.009194356, -241967.3, -116380.836, 0.0000060201382, 9.989288, 9.987137 
7.746562e+2, 2.9717168e+2, -264335.16, -231658.53, 49756.87, 0.03776586, -0.05280674, -195626.17, -167912.67, 0.0000044755006, 9.983245, 9.987666 
7.743371e+2, 3.07162e+2, -228756.69, -128942.7, 53359.004, 0.119729616, -0.07106881, -105788.82, -105788.82, 0.0000027966498, 9.979856, 9.992885 
7.740139e+2, 3.1715342e+2, -209063.83, -52064.992, -12464.663, 0.020517241, -0.1924941, -51081.543, -51081.543, 0.000001529963, 9.977889, 9.9986925 
7.9024297e+2, 1.2774535e+2, -1636280.5, -1691344.1, 5098.6143, 0.4914589, 0.039603267, -1635812.4, 52285.92, 0.04048696, 10.000652, 9.993107 
7.8991127e+2, 1.3773805e+2, -1541121.6, -1602214.3, -1591.9629, 0.43501902, 0.0074968967, -1541080.1, 49088.81, 0.027255554, 10.000677, 9.992473 
7.895768e+2, 1.4772953e+2, -1444794.5, -1522756.0, -8163.072, 0.4162392, 0.009623868, -1443948.9, 48303.27, 0.015450946, 10.001174, 9.990936 
7.89242e+2, 1.5772049e+2, -1338604.0, -1429272.1, -6110.0513, 0.41243902, 0.023543112, -1338194.1, 56146.754, 0.007020416, 10.002068, 9.990171 
7.8890735e+2, 1.677092e+2, -1256292.9, -1363496.6, -2331.0461, 0.37044773, 0.009954461, -1256242.1, 40208.953, 0.002461426, 10.002043, 9.988053 
7.885733e+2, 1.77697e+2, -1164185.3, -1269479.5, -5092.4473, 0.31216404, -0.016314445, -1163939.6, 34630.363, 0.0006538327, 10.00168, 9.987991 
7.8824055e+2, 1.8768474e+2, -1079644.1, -1186432.8, -222.56163, 0.2916832, -0.0024114845, -1079643.6, 21046.553, 0.00013177797, 10.001122, 9.987299 
7.8790873e+2, 1.9767228e+2, -995149.8, -1103721.6, 1602.206, 0.2936738, 0.030557534, -995126.1, 7686.6973, 0.000020829584, 10.000576, 9.986531 
7.875782e+2, 2.0765723e+2, -907654.0, -1040114.2, 12062.371, 0.29439276, 0.031737577, -906564.5, -1603.8317, 0.0000030621686, 10.001137, 9.983925 
7.872483e+2, 2.176409e+2, -798559.7, -938924.94, 18695.057, 0.28569937, 0.0137275, -796112.4, 11008.635, 0.0000007418166, 10.001975, 9.9837 
7.869187e+2, 2.2762424e+2, -721210.5, -858681.25, 22609.086, 0.23810317, 0.016519818, -717587.56, -8303.69, 0.00000039996908, 10.000884, 9.983045 
7.8658956e+2, 2.3760743e+2, -649713.25, -773804.0, 25140.713, 0.18047209, 0.030062238, -644813.25, -33365.215, 0.0000003177549, 9.999093, 9.983054 
7.8626305e+2, 2.4759014e+2, -563804.8, -684229.8, 32404.129, 0.1528272, 0.004835004, -555639.2, -42022.56, 0.0000003160707, 9.998415, 9.982861 
7.859375e+2, 2.5757253e+2, -474924.22, -595424.4, 35990.797, 0.13683966, -0.03557833, -464993.03, -49205.176, 0.00000036116072, 9.998002, 9.982459 
7.8561425e+2, 2.6755446e+2, -420944.56, -533042.7, 50485.445, 0.13836561, -0.006395514, -401559.72, -83593.62, 0.00000041859155, 9.995675, 9.9811 
7.8529155e+2, 2.7753615e+2, -361093.75, -438831.28, 59995.516, 0.14998089, 0.041381672, -328476.56, -108328.92, 0.00000044137477, 9.992413, 9.982317 
7.8496695e+2, 2.875212e+2, -279167.47, -296101.28, 50153.473, 0.12657724, 0.035995614, -236771.23, -114478.43, 0.00000039607042, 9.989011, 9.986932 
7.846409e+2, 2.9750815e+2, -230440.98, -217355.23, 50457.277, 0.07991253, 0.02298554, -173018.39, -148599.72, 0.00000029636522, 9.985486, 9.987358 
7.843177e+2, 3.0749595e+2, -202173.95, -127836.2, 46179.35, 0.090805806, -0.17179371, -105725.59, -105725.59, 0.00000018920325, 9.982015, 9.991874 
7.839925e+2, 3.1749076e+2, -188139.81, -34382.184, -11270.456, 0.041551135, 0.12491549, -33560.45, -33560.45, 0.00000010965874, 9.979001, 9.9994955 
8.002442e+2, 1.2807809e+2, -1621167.1, -1687013.3, 2178.8403, 0.52155876, 0.0183182, -1621095.1, 63743.813, 0.024554512, 10.001781, 9.992846 
7.9991144e+2, 1.3807087e+2, -1545149.4, -1604796.3, -2837.6191, 0.39755684, 0.01749079, -1545014.8, 41894.305, 0.016354568, 10.000396, 9.992421 
7.9957765e+2, 1.4806277e+2, -1446539.8, -1516937.4, -6509.9727, 0.38572228, 0.024226017, -1445942.9, 43045.664, 0.009139995, 10.000786, 9.991546 
7.9924405e+2, 1.5805422e+2, -1340434.0, -1428121.9, -7786.1255, 0.41307116, 0.03296617, -1339748.0, 51324.418, 0.004075192, 10.001875, 9.990377 
7.9890966e+2, 1.6804288e+2, -1259577.0, -1372652.5, -4690.4956, 0.39783916, 0.05273981, -1259382.8, 33800.836, 0.0013936982, 10.002145, 9.987383 
7.985756e+2, 1.7803048e+2, -1160916.5, -1272841.9, -4526.8286, 0.3624684, 0.06985136, -1160733.8, 34571.55, 0.00035817598, 10.002116, 9.987521 
7.982416e+2, 1.880175e+2, -1073474.0, -1182967.6, -275.8703, 0.28095093, 0.028365163, -1073473.4, 23958.357, 0.00006886884, 10.001516, 9.987308 
7.9790837e+2, 1.9800423e+2, -988339.94, -1095583.9, 2765.8499, 0.19433911, -0.02427959, -988268.7, 11292.306, 0.000009974428, 10.000842, 9.986935 
7.975788e+2, 2.0799078e+2, -898388.75, -1018661.9, 15753.319, 0.23213945, 0.027454192, -896359.6, 5333.9316, 0.0000011234127, 10.001083, 9.9854145 
7.9725045e+2, 2.1797684e+2, -798234.44, -927595.25, 18311.404, 0.30285236, 0.10380423, -795692.4, 8139.1367, 0.00000011943978, 10.001539, 9.984682 
7.9691976e+2, 2.2795998e+2, -725013.0, -864675.0, 15239.985, 0.25679314, 0.07494854, -723369.3, -17373.123, 0.000000025968763, 10.000775, 9.982649 
7.965886e+2, 2.3794201e+2, -646178.6, -775475.2, 20594.457, 0.17291926, 0.013583716, -642977.56, -34806.59, 0.000000016014582, 9.999474, 9.982716 
7.962615e+2, 2.4792448e+2, -563598.9, -686189.9, 31450.564, 0.1476232, -0.008370237, -556001.1, -45659.336, 0.000000015341913, 9.998551, 9.982628 
7.959356e+2, 2.579071e+2, -474335.16, -587804.3, 32456.227, 0.14200735, -0.015597791, -465707.53, -53196.207, 0.000000017460199, 9.9977455, 9.983055 
7.956097e+2, 2.6789105e+2, -403746.63, -492528.3, 38271.03, 0.12832138, 0.015863411, -389526.72, -74857.41, 0.000000021014193, 9.995422, 9.9839 
7.952836e+2, 2.778753e+2, -348383.72, -410954.13, 47411.5, 0.11514437, 0.051687036, -322865.63, -106040.51, 0.000000025862187, 9.992308, 9.984183 
7.9495573e+2, 2.8786045e+2, -286406.9, -310291.13, 36864.547, 0.11137225, 0.04909567, -259598.42, -140628.16, 0.00000003447821, 9.988943, 9.985894 
7.946266e+2, 2.978464e+2, -241592.56, -241445.2, 37767.2, 0.09453646, 0.05202372, -203751.61, -182644.5, 0.00000005135102, 9.985495, 9.985608 
7.9429924e+2, 3.078321e+2, -226840.23, -181391.16, 31172.104, 0.03534967, -0.0503805, -165539.73, -165539.73, 0.000000078411006, 9.982088, 9.988081 
7.939708e+2, 3.178225e+2, -140059.63, 62928.664, -9852.777, -0.03957263, 0.043395095, 63405.785, 63405.785, 0.00000011231752, 9.979183, 10.006095 
8.102471e+2, 1.2841222e+2, -1596878.9, -1671576.9, -580.75775, 0.538615, 0.09049809, -1596874.4, 84693.17, 0.013656359, 10.003084, 9.99319 
8.099116e+2, 1.3840489e+2, -1546375.6, -1604873.0, 194.34464, 0.39205363, 0.053905148, -1546375.0, 37262.977, 0.00901513, 10.000145, 9.992466 
8.09578e+2, 1.4839646e+2, -1454695.8, -1525434.8, 5595.833, 0.37561706, 0.05414474, -1454255.9, 31464.674, 0.0049783196, 10.000366, 9.991171 
8.092456e+2, 1.5838766e+2, -1342906.4, -1427948.5, 651.43726, 0.40090325, 0.0632456, -1342901.4, 44905.777, 0.0021846793, 10.00158, 9.990548 
8.089117e+2, 1.6837715e+2, -1247666.8, -1352477.9, 6172.8315, 0.37359664, 0.073380105, -1247304.5, 42605.85, 0.0007317571, 10.002252, 9.98868 
8.0857784e+2, 1.7836581e+2, -1144232.8, -1255738.0, 10641.364, 0.3304824, 0.08175388, -1143226.4, 48795.082, 0.00018305305, 10.002766, 9.988284 
8.082437e+2, 1.8835308e+2, -1065170.1, -1181307.5, 12773.478, 0.29860035, 0.05216838, -1063781.9, 30363.791, 0.00003398985, 10.002061, 9.987045 
8.0791014e+2, 1.983397e+2, -982951.75, -1092496.5, 16266.05, 0.2644968, 0.012140528, -980587.5, 15688.114, 0.0000046947775, 10.001071, 9.986934 
8.0757946e+2, 2.0832637e+2, -905075.25, -1015693.75, 27581.992, 0.23992535, 0.04020766, -898579.3, -172.82484, 0.00000048595786, 10.000249, 9.98595 
8.0725e+2, 2.183127e+2, -823175.8, -934079.56, 27385.076, 0.22963418, 0.089249, -816782.3, -16241.156, 0.000000038831054, 9.999488, 9.985198 
8.069199e+2, 2.2829643e+2, -729854.2, -862576.5, 27111.807, 0.22756895, 0.07702276, -724529.56, -21829.242, 0.0000000030362726, 10.000165, 9.983038 
8.065895e+2, 2.3827909e+2, -619765.25, -759748.4, 32997.902, 0.21654403, 0.040707186, -612376.7, -7506.7764, 0.0000000006952814, 10.001039, 9.982942 
8.062602e+2, 2.4826159e+2, -564363.0, -687453.94, 37894.668, 0.17448017, 0.02158902, -553632.25, -46591.324, 0.00000000078194945, 9.99838, 9.98248 
8.059315e+2, 2.5824413e+2, -513799.13, -601423.9, 40513.734, 0.13021319, 0.013452079, -497938.34, -88726.91, 0.0000000022956512, 9.994667, 9.983469 
8.056037e+2, 2.682292e+2, -427229.28, -486490.7, 40832.9, 0.11441546, 0.0393903, -406409.0, -95050.96, 0.00000001038795, 9.9929285, 9.985423 
8.052755e+2, 2.782148e+2, -349249.6, -400832.3, 40579.555, 0.10823687, 0.06510372, -326958.8, -113459.55, 0.00000004173652, 9.991652, 9.985166 
8.0494493e+2, 2.8819966e+2, -279080.53, -315252.3, 26838.098, 0.10661395, 0.043444093, -264803.13, -149155.47, 0.00000012858892, 9.989663, 9.985175 
8.04613e+2, 2.9818475e+2, -221149.9, -246239.5, 30251.025, 0.09177098, 0.04103374, -200945.72, -183151.61, 0.00000030189594, 9.987389, 9.984313 
8.0428255e+2, 3.081699e+2, -203266.88, -198415.63, 30030.406, 0.024376405, 0.095220126, -170713.03, -170713.03, 0.00000055969304, 9.9847765, 9.985483 
8.039512e+2, 3.181561e+2, -74153.664, 127321.05, 6086.1147, -0.061394718, -0.05904502, 127504.73, 127504.73, 0.000000861923, 9.982257, 10.008979 
8.202503e+2, 1.2874769e+2, -1587323.1, -1663082.0, -6802.7944, 0.54182035, 0.15410502, -1586717.1, 91565.63, 0.006829297, 10.003468, 9.993477 
8.199122e+2, 1.3874032e+2, -1519896.8, -1591760.4, -3405.0234, 0.39554152, 0.087426186, -1519735.8, 60617.62, 0.0044781193, 10.001916, 9.992433 
8.195786e+2, 1.4873149e+2, -1442137.3, -1524270.6, 12468.919, 0.37189123, 0.08372063, -1440286.1, 42153.715, 0.0024504783, 10.001484, 9.990686 
8.19247e+2, 1.5872233e+2, -1341934.1, -1423858.3, 7580.1733, 0.38567105, 0.09380369, -1341238.6, 43291.313, 0.0010623109, 10.00153, 9.990814 
8.1891346e+2, 1.6871287e+2, -1248203.3, -1333458.3, 10759.025, 0.34122857, 0.08741999, -1246866.4, 39756.27, 0.00035011073, 10.00141, 9.99036 
8.1858e+2, 1.787029e+2, -1156583.4, -1250520.1, 11236.709, 0.2866381, 0.0772407, -1155257.9, 33462.277, 0.00008574844, 10.001451, 9.989265 
8.18246e+2, 1.8869062e+2, -1071050.0, -1187044.6, 9640.258, 0.33135322, 0.07951285, -1070254.3, 20585.838, 0.000015493128, 10.001768, 9.986778 
8.179125e+2, 1.9867744e+2, -970963.94, -1087424.0, 13222.327, 0.3851999, 0.07999152, -969481.6, 23486.896, 0.0000020664195, 10.001909, 9.986856 
8.1758004e+2, 2.0866367e+2, -893736.56, -1007995.94, 23700.238, 0.26258853, 0.053587493, -889015.6, 6087.0435, 0.00000020419225, 10.000915, 9.986134 
8.172484e+2, 2.1864945e+2, -816643.06, -926758.0, 26109.719, 0.11563534, 0.027811771, -810765.8, -13524.328, 0.000000015030654, 9.999768, 9.985554 
8.169197e+2, 2.2863425e+2, -726196.4, -851836.56, 30854.406, 0.18314265, 0.05829484, -719028.2, -19637.236, 0.0000000008413565, 10.000093, 9.98381 
8.165912e+2, 2.3861833e+2, -622703.2, -755101.9, 30986.178, 0.28863704, 0.094589725, -615810.1, -14262.582, 0.0000000001313571, 10.00059, 9.983449 
8.1625897e+2, 2.4860099e+2, -565837.1, -688340.2, 23770.92, 0.21492256, 0.07532025, -561386.25, -57668.43, 0.0000000012207032, 9.998199, 9.982417 
8.159259e+2, 2.585833e+2, -507535.2, -595278.44, 30574.754, 0.102199815, 0.04635019, -497932.2, -92041.41, 0.000000009745165, 9.994915, 9.983692 
8.155965e+2, 2.685687e+2, -421438.7, -478299.1, 36151.35, 0.099052615, 0.06539628, -403877.63, -95844.35, 0.000000056615875, 9.993113, 9.985843 
8.152673e+2, 2.785546e+2, -348333.6, -398713.8, 34360.67, 0.12432453, 0.08344806, -330918.56, -120747.984, 0.00000023978018, 9.991652, 9.985257 
8.149346e+2, 2.885386e+2, -282777.72, -323087.97, 17907.26, 0.10784444, 0.011479162, -275971.78, -163644.08, 0.00000074770037, 9.989664, 9.9845705 
8.146002e+2, 2.985227e+2, -224901.66, -255835.48, 21205.035, 0.06961465, -0.027448585, -214122.06, -199637.61, 0.0000017604058, 9.98746, 9.983558 
8.14268e+2, 3.085094e+2, -207839.86, -211218.53, 18640.021, 0.08539002, 0.2800603, -190812.78, -190812.78, 0.0000032669245, 9.984909, 9.984454 
8.1393397e+2, 3.18493e+2, -115984.33, 34465.42, 4986.433, -0.041003954, 0.042012434, 34630.508, 34630.508, 0.0000050341396, 9.982581, 10.0024185 
8.302534e+2, 1.2908493e+2, -1583869.1, -1665926.3, 5150.537, 0.4793108, 0.10906777, -1583547.0, 91431.13, 0.0030089617, 10.003801, 9.993014 
8.2991576e+2, 1.3907763e+2, -1494899.4, -1581029.4, 6248.0015, 0.42895654, 0.09208087, -1494448.5, 82600.58, 0.0019641386, 10.003584, 9.992257 
8.295811e+2, 1.4906904e+2, -1424677.9, -1511473.5, 23458.564, 0.39589465, 0.094224855, -1418743.5, 60389.945, 0.0010681495, 10.002371, 9.991024 
8.2924825e+2, 1.5906021e+2, -1344067.0, -1418928.4, 20483.17, 0.38135728, 0.101684205, -1338829.0, 42391.438, 0.00045917454, 10.001006, 9.99128 
8.28914e+2, 1.6905157e+2, -1267670.3, -1335001.5, 22694.78, 0.37308344, 0.117316365, -1260735.1, 22570.355, 0.00014963388, 9.999621, 9.991017 
8.2858026e+2, 1.7904241e+2, -1193818.5, -1265789.6, 24956.53, 0.3575825, 0.12996718, -1186011.5, -616.0912, 0.00003610315, 9.998708, 9.989499 
8.282475e+2, 1.8902987e+2, -1083161.5, -1196295.6, 29879.793, 0.34262782, 0.12489982, -1075754.9, 11763.0205, 0.0000063962675, 10.001062, 9.986474 
8.2791513e+2, 1.9901633e+2, -943760.4, -1076052.5, 27324.104, 0.3322834, 0.11442614, -938338.94, 51311.36, 0.00000083170164, 10.003764, 9.98669 
8.2758194e+2, 2.0900242e+2, -870435.7, -997292.7, 27416.604, 0.26408634, 0.082843006, -864763.94, 27021.563, 0.000000079560614, 10.002366, 9.986081 
8.272491e+2, 2.1898818e+2, -806618.7, -917478.7, 31770.53, 0.18045126, 0.050184958, -798159.4, -4235.044, 0.0000000056200697, 10.000121, 9.985956 
8.269192e+2, 2.289738e+2, -734072.0, -843360.7, 40774.195, 0.19249283, 0.07610122, -720536.1, -24470.52, 0.00000000032575911, 9.9989195, 9.9848995 
8.265897e+2, 2.3895895e+2, -653068.8, -759772.44, 41501.926, 0.2337347, 0.114685774, -638827.56, -40615.547, 0.00000000048077403, 9.997967, 9.984325 
8.26257e+2, 2.4894246e+2, -560670.25, -679636.4, 34639.805, 0.20465235, 0.11760897, -551319.1, -50944.887, 0.000000005239319, 9.998162, 9.982916 
8.2592314e+2, 2.589254e+2, -453668.13, -567295.94, 42507.227, 0.1501189, 0.10911354, -439526.53, -36985.246, 0.000000041851326, 9.998379, 9.983789 
8.255913e+2, 2.6891005e+2, -386127.8, -469651.66, 39141.563, 0.12907703, 0.10391034, -370652.34, -65961.53, 0.0000002430437, 9.995742, 9.9850445 
8.252594e+2, 2.7889502e+2, -335988.53, -396209.38, 32650.262, 0.12422198, 0.09185492, -321684.13, -114846.875, 0.0000010289219, 9.992511, 9.984969 
8.2492524e+2, 2.8887922e+2, -247548.9, -303743.4, 21999.313, 0.09091638, 0.029143395, -239961.06, -130968.67, 0.000003206874, 9.991866, 9.984775 
8.245894e+2, 2.9886347e+2, -167140.25, -232454.56, 27705.229, 0.046327785, 0.004615122, -156971.38, -145823.81, 0.0000075463436, 9.991476, 9.983109 
8.2425493e+2, 3.0884925e+2, -165883.84, -204143.22, 18487.44, 0.1343479, 0.317247, -158410.33, -158410.33, 0.000014001417, 9.988161, 9.983235 
8.239172e+2, 3.1883097e+2, -106317.695, 12315.639, 20332.916, -0.060521927, 0.022970088, 15703.792, 15703.792, 0.000021580927, 9.984288, 9.999913 
8.4025675e+2, 1.294238e+2, -1578752.9, -1670048.0, 6728.3667, 0.41955906, 0.06442055, -1578259.8, 93397.89, 0.0011421927, 10.00446, 9.992378 
8.399198e+2, 1.3941656e+2, -1485930.4, -1578282.4, 3185.3442, 0.4649247, 0.10615102, -1485820.8, 87908.38, 0.0007435361, 10.004263, 9.992082 
8.3958364e+2, 1.4940825e+2, -1421402.4, -1504407.8, 16515.572, 0.4202246, 0.107445195, -1418236.9, 57573.918, 0.00040280866, 10.00232, 9.9915085 
8.392491e+2, 1.5939984e+2, -1347543.3, -1414774.4, 12902.34, 0.3792592, 0.10696072, -1345152.3, 32741.375, 0.00017225166, 10.000485, 9.991807 
8.3891416e+2, 1.6939199e+2, -1250378.5, -1321472.5, 16442.615, 0.41545478, 0.14945906, -1246759.9, 33211.492, 0.00005573453, 10.000557, 9.991488 
8.3858025e+2, 1.7938349e+2, -1161105.5, -1248910.5, 24743.332, 0.4439728, 0.19140643, -1154613.0, 27442.248, 0.000013319515, 10.000928, 9.989599 
8.382486e+2, 1.8937066e+2, -1078232.0, -1195825.5, 40185.54, 0.3346842, 0.16924502, -1065811.3, 18369.607, 0.00000232996, 10.001587, 9.986295 
8.379177e+2, 1.993567e+2, -964999.2, -1087496.8, 31839.223, 0.22259396, 0.13580114, -957217.9, 29099.525, 0.00000029792903, 10.002398, 9.986561 
8.3758426e+2, 2.0934287e+2, -880627.56, -1003266.2, 21831.195, 0.2695407, 0.12091292, -876857.25, 11594.959, 0.000000027884644, 10.0016575, 9.985945 
8.372506e+2, 2.1932878e+2, -798371.3, -908213.3, 28852.848, 0.32141942, 0.10918088, -791253.56, -664.2232, 0.0000000019195052, 10.000422, 9.986379 
8.3691835e+2, 2.293151e+2, -721374.44, -823725.8, 37705.76, 0.2142865, 0.10831528, -708983.8, -16260.182, 0.00000000019751621, 9.999195, 9.986065 
8.365864e+2, 2.393011e+2, -644018.56, -743248.8, 39159.3, 0.10407817, 0.115369245, -630426.8, -35565.18, 0.0000000015260163, 9.998079, 9.985383 
8.362549e+2, 2.492859e+2, -554497.44, -666400.2, 35954.26, 0.17272694, 0.1565131, -543941.2, -46930.1, 0.000000016765284, 9.9981985, 9.983792 
8.3592254e+2, 2.5927e+2, -456213.78, -569309.9, 38624.656, 0.25327194, 0.19272229, -444281.6, -45114.195, 0.00000013388681, 9.998245, 9.983679 
8.3558756e+2, 2.6925302e+2, -399936.8, -495658.22, 25828.164, 0.18826328, 0.14823556, -393412.38, -92079.12, 0.0000007772567, 9.995555, 9.983278 
8.352516e+2, 2.79236e+2, -340079.22, -404389.2, 25194.988, 0.10371087, 0.092094794, -331384.1, -127884.75, 0.0000032894218, 9.992483, 9.9843645 
8.3491683e+2, 2.8922147e+2, -239771.98, -289628.84, 21748.443, 0.05516311, 0.1088402, -231618.38, -125976.49, 0.000010249668, 9.992017, 9.985636 
8.3458066e+2, 2.9920697e+2, -165851.69, -233435.97, 21322.879, 0.01659328, 0.15044591, -159686.69, -151902.44, 0.000024110983, 9.991636, 9.982913 
8.342435e+2, 3.0918816e+2, -173931.28, -223349.9, 1816.919, 0.15875053, 0.11203163, -173864.58, -173864.58, 0.000044716184, 9.988192, 9.981807 
8.339013e+2, 3.1917325e+2, -62508.48, 103887.69, 8274.974, -0.0784943, 0.11680795, 104298.19, 104298.19, 0.00006893188, 9.984203, 10.006141 
8.502612e+2, 1.2976517e+2, -1587135.1, -1687171.1, 18571.71, 0.40494594, 0.08949873, -1583798.6, 84516.14, 0.00036341642, 10.004409, 9.991177 
8.499243e+2, 1.397575e+2, -1488076.0, -1586616.8, 7714.2275, 0.46428648, 0.19551426, -1487475.8, 82916.01, 0.00023620963, 10.004328, 9.991405 
8.4958565e+2, 1.497486e+2, -1430110.4, -1509742.5, 14399.26, 0.41875377, 0.16342548, -1427586.6, 44891.973, 0.00012768328, 10.001607, 9.99141 
8.4924877e+2, 1.5973972e+2, -1362015.1, -1420125.3, 18397.945, 0.37173918, 0.11779952, -1356680.0, 17884.914, 0.000054433065, 9.999335, 9.991976 
8.489153e+2, 1.697319e+2, -1229545.6, -1307617.8, 32178.254, 0.3743427, 0.13276419, -1217992.6, 58648.887, 0.00001753889, 10.001813, 9.991854 
8.485829e+2, 1.7972365e+2, -1104270.1, -1213000.3, 32283.098, 0.37502357, 0.15649867, -1095407.4, 83314.86, 0.000004167791, 10.004368, 9.990368 
8.4825e+2, 1.8971226e+2, -1066375.9, -1174210.5, 43044.023, 0.30224404, 0.15334864, -1051301.5, 29532.605, 0.00000072355056, 10.001545, 9.987699 
8.479176e+2, 1.9969982e+2, -1014560.6, -1099479.5, 45858.754, 0.22884248, 0.1439437, -994523.4, -11567.495, 0.00000009158835, 9.998376, 9.98758 
8.475847e+2, 2.0968686e+2, -903845.4, -1007231.25, 45982.527, 0.2737454, 0.1465108, -886353.4, -1270.5402, 0.000000008458323, 9.999691, 9.98651 
8.472517e+2, 2.1967332e+2, -781767.44, -900481.5, 51199.19, 0.32341644, 0.14990705, -762736.9, 24478.424, 0.0000000005826384, 10.001465, 9.986246 
8.4691817e+2, 2.2965893e+2, -711763.7, -828642.75, 47184.496, 0.22134158, 0.14790784, -695092.94, -5736.1523, 0.00000000027701247, 10.000112, 9.985166 
8.465847e+2, 2.3964427e+2, -636200.5, -735192.6, 43790.094, 0.10771882, 0.1460049, -619610.0, -28109.121, 0.0000000037648156, 9.998302, 9.985792 
8.462527e+2, 2.496302e+2, -545657.94, -643165.3, 45752.08, 0.15207289, 0.16119172, -527552.25, -33913.48, 0.00000004137552, 9.997894, 9.985484 
8.4591997e+2, 2.596155e+2, -462528.0, -566987.1, 48463.617, 0.21939608, 0.18068124, -443506.97, -47724.375, 0.00000033035957, 9.99745, 9.984127 
8.455831e+2, 2.6959822e+2, -401637.0, -507992.0, 34119.51, 0.17796728, 0.16727011, -391632.3, -93679.73, 0.000001917329, 9.995754, 9.982179 
8.4524494e+2, 2.795806e+2, -317226.0, -394023.78, 41635.117, 0.11261312, 0.13988402, -298986.06, -98860.59, 0.00000811236, 9.993918, 9.984203 
8.4490895e+2, 2.895665e+2, -227250.81, -275452.3, 41560.71, 0.04700814, 0.15465675, -203308.47, -101045.08, 0.000025276431, 9.992397, 9.986257 
8.445717e+2, 2.995524e+2, -177663.81, -241681.31, 36175.09, -0.0048727514, 0.19697422, -161369.39, -156967.56, 0.000059457765, 9.990777, 9.982591 
8.4423226e+2, 3.0953205e+2, -168464.28, -232054.19, 12842.58, 0.18340012, 0.09781927, -165968.55, -165968.55, 0.00011023596, 9.988844, 9.98068 
8.4388655e+2, 3.1951898e+2, -2098.4768, 169013.31, 12201.701, -0.08868468, 0.2719361, 169879.02, 169879.02, 0.0001699231, 9.986563, 10.009324 
8.602656e+2, 1.301078e+2, -1592415.8, -1697147.0, 18327.11, 0.40541786, 0.12940839, -1589301.3, 75658.47, 0.00009383463, 10.004412, 9.990497 
8.5992837e+2, 1.4009991e+2, -1495823.1, -1595129.8, 7594.6157, 0.44937414, 0.28077063, -1495245.8, 71794.14, 0.00006094004, 10.003987, 9.990907 
8.595873e+2, 1.500904e+2, -1412467.0, -1503359.4, 10214.652, 0.40897855, 0.21707055, -1411333.3, 57798.82, 0.00003290037, 10.002833, 9.991149 
8.592485e+2, 1.6008092e+2, -1325284.9, -1401793.8, 23173.3, 0.3631702, 0.13002227, -1318813.4, 52410.03, 0.000014001087, 10.001838, 9.9919615 
8.5891664e+2, 1.7007288e+2, -1226638.9, -1303878.1, 44578.523, 0.31648663, 0.110542044, -1206277.9, 67023.36, 0.0000045003767, 10.002017, 9.992035 
8.5858595e+2, 1.8006472e+2, -1126655.1, -1213062.4, 30604.742, 0.2752229, 0.10611155, -1116913.4, 58466.918, 0.0000010659371, 10.002373, 9.991326 
8.582511e+2, 1.9005518e+2, -1057777.0, -1148824.1, 28143.393, 0.27318537, 0.12579802, -1049780.0, 27693.652, 0.00000018424288, 10.001107, 9.9895935 
8.579166e+2, 2.0004484e+2, -985254.6, -1069155.3, 39963.734, 0.27334037, 0.14810202, -969265.94, 10309.063, 0.000000023185766, 9.999662, 9.989029 
8.575845e+2, 2.1003316e+2, -890665.1, -989947.25, 50862.78, 0.26895937, 0.166842, -869233.94, 12456.441, 0.0000000021246724, 10.000205, 9.987492 
8.5725254e+2, 2.200204e+2, -791686.75, -909339.9, 49704.086, 0.2632165, 0.18312012, -773499.94, 10316.279, 0.00000000016612564, 10.000985, 9.98589 
8.5691833e+2, 2.3000471e+2, -724954.1, -854754.94, 40283.773, 0.22976245, 0.19166897, -713468.4, -27497.89, 0.0000000005117208, 10.000014, 9.983384 
8.565837e+2, 2.3998876e+2, -628746.5, -728838.06, 42601.836, 0.1838867, 0.1891402, -613069.4, -24942.264, 0.000000007636883, 9.998684, 9.985991 
8.5625035e+2, 2.4997568e+2, -529294.4, -611057.9, 45060.125, 0.12549092, 0.13806772, -509334.25, -19080.209, 0.000000083933806, 9.997995, 9.987604 
8.559161e+2, 2.5996223e+2, -459466.28, -556439.75, 42986.75, 0.08397847, 0.10205675, -443154.7, -50769.914, 0.0000006701713, 9.997268, 9.98491 
8.5557824e+2, 2.699456e+2, -405685.56, -515306.9, 26125.031, 0.120442286, 0.1747827, -399777.8, -105228.5, 0.000003889244, 9.995684, 9.981665 
8.552393e+2, 2.799285e+2, -314442.94, -389081.4, 35622.563, 0.14998178, 0.23022783, -300170.6, -103452.336, 0.000016458524, 9.993948, 9.98448 
8.549015e+2, 2.8991407e+2, -223125.9, -266954.38, 35266.234, 0.06384247, 0.1524403, -203519.77, -104660.08, 0.000051312716, 9.992396, 9.986785 
8.545623e+2, 2.9989967e+2, -180587.34, -245575.67, 29341.723, -0.01961445, 0.13769655, -169300.16, -168299.42, 0.00012079808, 9.990667, 9.98232 
8.542212e+2, 3.0988216e+2, -173832.48, -241891.9, 5603.067, 0.20559056, 0.39047936, -173374.28, -173374.28, 0.00022408634, 9.988778, 9.979974 
8.5387343e+2, 3.1986305e+2, -24808.645, 120311.7, -3356.5583, -0.05995546, 0.05947948, 120389.3, 120389.3, 0.00034551264, 9.986584, 10.005862 
8.7026983e+2, 1.3045104e+2, -1592411.0, -1670599.3, 23526.063, 0.44556433, 0.16244762, -1585878.1, 75720.41, 0.000019043677, 10.0032, 9.992839 
8.699311e+2, 1.4044449e+2, -1505975.5, -1589719.3, 20594.232, 0.3904752, 0.2580237, -1501185.0, 62478.86, 0.000012362725, 10.002791, 9.991753 
8.6959076e+2, 1.504351e+2, -1400923.5, -1501801.3, 27466.227, 0.38401005, 0.21909656, -1393930.1, 71825.36, 0.0000066696857, 10.003759, 9.990716 
8.692526e+2, 1.6042548e+2, -1291346.9, -1393055.4, 33618.504, 0.38472366, 0.16938981, -1281239.1, 86609.91, 0.000002835376, 10.004398, 9.991198 
8.689185e+2, 1.7041674e+2, -1245595.8, -1324678.3, 46095.652, 0.34465766, 0.17975749, -1224405.5, 45529.3, 0.0000009100635, 10.001078, 9.990968 
8.685858e+2, 1.8040796e+2, -1187527.6, -1241949.3, 36234.94, 0.3010177, 0.188015, -1169424.0, 2596.7349, 0.00000021513608, 9.998103, 9.99139 
8.6825186e+2, 1.9039877e+2, -1062792.4, -1138745.1, 38237.023, 0.29504097, 0.15770203, -1046877.4, 27232.164, 0.000000037089958, 10.000193, 9.990742 
8.679182e+2, 2.0038915e+2, -938004.6, -1034731.94, 42594.97, 0.29146168, 0.13722569, -921921.56, 54281.28, 0.0000000046516857, 10.002313, 9.990109 
8.675848e+2, 2.1037866e+2, -876940.1, -972108.25, 48963.984, 0.25549018, 0.17165779, -856247.44, 22058.816, 0.0000000004243601, 10.000537, 9.988551 
8.6725175e+2, 2.2036713e+2, -815467.9, -908856.56, 52859.527, 0.22376183, 0.20469101, -791632.2, -11212.209, 0.00000000007172086, 9.998744, 9.987014 
8.669182e+2, 2.3035248e+2, -718192.7, -838192.4, 57647.453, 0.23063546, 0.19880982, -694986.7, -12422.93, 0.00000000090821445, 9.999824, 9.984515 
8.6658406e+2, 2.4033722e+2, -596198.2, -711581.56, 66637.56, 0.22719619, 0.1846375, -565748.56, 18964.793, 0.000000013716953, 10.000719, 9.98599 
8.662488e+2, 2.5032347e+2, -528454.2, -621713.0, 52102.523, 0.14651205, 0.14838262, -505162.4, -18315.307, 0.00000015076525, 9.998361, 9.986592 
8.659125e+2, 2.6030958e+2, -473729.8, -559080.3, 40403.098, 0.07174017, 0.12384186, -457637.84, -68655.2, 0.0000012040816, 9.995965, 9.985388 
8.655742e+2, 2.702943e+2, -379576.2, -484911.06, 35359.543, 0.10416299, 0.19810128, -368807.4, -77674.305, 0.000006992672, 9.996588, 9.983256 
8.652346e+2, 2.802783e+2, -271081.56, -372127.66, 49412.42, 0.14388339, 0.2531013, -250935.19, -57643.797, 0.000029645124, 9.996931, 9.984061 
8.6489475e+2, 2.9026163e+2, -214618.53, -288102.84, 26639.018, 0.07718266, 0.130799, -205977.63, -110522.625, 0.0000927102, 9.993861, 9.984646 
8.6455333e+2, 3.0024576e+2, -169464.73, -232282.16, 10043.028, 0.008065955, 0.09944623, -167898.16, -167898.16, 0.00021904246, 9.990888, 9.983276 
8.6421096e+2, 3.1023288e+2, -129809.41, -190762.38, 14568.416, 0.2195807, 0.5543093, -126506.39, -126506.39, 0.0004076202, 9.990329, 9.982657 
8.6386186e+2, 3.2021055e+2, -8191.4976, 65565.086, 17851.361, -0.05181453, -0.15928544, 69658.484, 69658.484, 0.00062982744, 9.990258, 10.000078 
8.802734e+2, 1.3079503e+2, -1574914.0, -1634103.4, 15184.709, 0.4812543, 0.19947183, -1571245.8, 86983.88, 0.000002958578, 10.003171, 9.995349 
8.7993306e+2, 1.4078982e+2, -1514704.8, -1582420.9, 12782.335, 0.33425912, 0.2176941, -1512372.3, 47907.895, 0.0000019202917, 10.001724, 9.992831 
8.79594e+2, 1.5078098e+2, -1416404.0, -1510377.8, 28884.799, 0.36255145, 0.21266213, -1408235.6, 54131.492, 0.0000010355539, 10.00281, 9.990646 
8.792571e+2, 1.6077161e+2, -1305908.9, -1407534.0, 29405.258, 0.40956363, 0.21344773, -1298013.8, 66445.734, 0.0000004399312, 10.003689, 9.990522 
8.7892e+2, 1.7076227e+2, -1242837.0, -1335714.8, 37446.297, 0.38893342, 0.2668848, -1229620.3, 36932.24, 0.00000014107277, 10.001685, 9.989815 
8.7858474e+2, 1.8075283e+2, -1163886.0, -1230908.3, 42806.63, 0.35479984, 0.2974142, -1143033.5, 25612.25, 0.00000003330806, 9.999735, 9.991277 
8.7825245e+2, 1.9074358e+2, -1056651.8, -1126360.5, 53309.723, 0.328391, 0.2038735, -1027813.5, 42920.7, 0.0000000057331504, 10.000302, 9.991525 
8.779204e+2, 2.0073418e+2, -950060.4, -1030605.2, 45467.17, 0.299517, 0.12514126, -929594.56, 43229.605, 0.00000000071752804, 10.001064, 9.990963 
8.775852e+2, 2.1072477e+2, -873342.56, -958651.6, 42362.777, 0.23944159, 0.17312638, -855880.44, 19035.889, 0.00000000006547386, 10.000213, 9.989569 
8.772503e+2, 2.2071461e+2, -793784.4, -877129.6, 53091.273, 0.19249058, 0.21908635, -767964.1, 9051.968, 0.000000000075104825, 9.999316, 9.988887 
8.76918e+2, 2.3070218e+2, -698389.94, -798243.3, 63075.207, 0.22589496, 0.18686016, -667873.1, 11264.285, 0.0000000014740101, 9.999931, 9.987205 
8.7658495e+2, 2.4068867e+2, -603572.25, -717947.56, 63265.613, 0.25240755, 0.15856613, -575478.25, 5791.492, 0.000000022289068, 10.000321, 9.985727 
8.7624764e+2, 2.5067332e+2, -548447.1, -663512.2, 42799.35, 0.20170401, 0.1862043, -534273.5, -50852.63, 0.0000002449646, 9.998301, 9.98369 
8.759092e+2, 2.60658e+2, -465311.28, -548858.5, 40906.56, 0.14328748, 0.21283999, -448617.97, -63046.094, 0.0000019576598, 9.996282, 9.985885 
8.755709e+2, 2.706447e+2, -355060.38, -436561.3, 39754.37, 0.11167163, 0.22494525, -338880.97, -51179.855, 0.000011400719, 9.996771, 9.98646 
8.752311e+2, 2.8062987e+2, -282550.88, -395254.22, 42773.652, 0.096687116, 0.2153419, -268155.84, -78310.336, 0.000048631977, 9.996897, 9.982449 
8.748887e+2, 2.9060867e+2, -253029.47, -366875.53, 12529.882, 0.09240692, 0.095513456, -251666.73, -159612.31, 0.00015357231, 9.993737, 9.9792595 
8.745449e+2, 3.0058968e+2, -152312.78, -195577.97, 1612.6763, 0.080713026, 0.07316445, -152252.75, -152252.75, 0.00036699927, 9.990809, 9.985796 
8.742012e+2, 3.105834e+2, -78048.125, -83083.305, 14415.872, 0.21406248, 0.51366955, -65931.66, -65931.66, 0.00068988843, 9.990339, 9.990008 
8.7385225e+2, 3.205657e+2, -74181.43, -73715.29, 20453.236, -0.05560732, -0.010156285, -53493.797, -53493.797, 0.0010735199, 9.990383, 9.990458 
8.902761e+2, 1.3113819e+2, -1593789.4, -1637517.1, 4559.36, 0.5141228, 0.2844313, -1593319.0, 61550.35, 0.00000034527207, 10.001515, 9.995889 
8.899335e+2, 1.4113256e+2, -1538514.6, -1578286.9, 8216.4795, 0.35087493, 0.18207417, -1536884.1, 20038.15, 0.00000022408217, 9.999382, 9.99429 
8.8959545e+2, 1.5112583e+2, -1433044.4, -1495528.8, 36220.613, 0.35511342, 0.19147788, -1416453.4, 42534.836, 0.00000012080618, 10.0007, 9.992718 
8.892595e+2, 1.6111857e+2, -1319716.8, -1398739.0, 37505.0, 0.38454643, 0.21822496, -1304750.8, 56309.51, 0.000000051297388, 10.002043, 9.991881 
8.889221e+2, 1.711103e+2, -1226900.3, -1316763.4, 48888.1, 0.37664247, 0.27814177, -1205432.4, 57710.816, 0.00000001643881, 10.002219, 9.990734 
8.8858604e+2, 1.8110162e+2, -1130862.0, -1212606.3, 57704.11, 0.3589919, 0.3187349, -1101021.4, 64208.24, 0.000000003877973, 10.001804, 9.991349 
8.882524e+2, 1.9109243e+2, -1073199.3, -1137565.8, 64709.773, 0.34535748, 0.2653505, -1033111.4, 34206.93, 0.00000000066676814, 9.999211, 9.9911375 
8.8791937e+2, 2.01083e+2, -1004785.1, -1056741.9, 59404.973, 0.32196966, 0.21075782, -965926.56, 3482.7405, 0.00000000008333369, 9.997258, 9.990929 
8.875848e+2, 2.1107337e+2, -887682.44, -960795.4, 57912.4, 0.25066507, 0.21042326, -855753.7, 15749.604, 0.000000000010516922, 9.999001, 9.989949 
8.8725036e+2, 2.2106352e+2, -765471.94, -846473.8, 63367.05, 0.19202337, 0.2169647, -730768.44, 42830.816, 0.00000000009886734, 10.000455, 9.99037 
8.8691735e+2, 2.3105347e+2, -693393.56, -769062.5, 69698.8, 0.20941246, 0.20803364, -651922.5, 23774.602, 0.0000000020481024, 9.999019, 9.989581 
8.8658357e+2, 2.4104226e+2, -629478.94, -713297.1, 73262.07, 0.22719121, 0.19956498, -586986.0, -9179.461, 0.000000030974796, 9.9977, 9.987244 
8.86246e+2, 2.510278e+2, -537115.6, -647225.5, 72005.61, 0.20034176, 0.21409115, -501529.25, -21580.447, 0.00000034048438, 9.998481, 9.984487 
8.8590723e+2, 2.6101303e+2, -416149.94, -516440.3, 87290.1, 0.16652626, 0.23202826, -365626.88, 16467.27, 0.0000027257565, 9.999118, 9.986374 
8.8556826e+2, 2.7100003e+2, -339549.72, -423529.78, 72167.484, 0.13398199, 0.23969305, -298045.38, -13825.096, 0.000015971162, 9.997407, 9.986783 
8.852271e+2, 2.809855e+2, -303703.84, -399116.78, 63772.117, 0.10930719, 0.2181174, -271768.7, -85407.02, 0.0000690861, 9.994924, 9.982927 
8.8488275e+2, 2.909641e+2, -246279.0, -369508.3, 72629.234, 0.10091488, 0.094205715, -212649.9, -124078.164, 0.00022324531, 9.99418, 9.9783745 
8.845379e+2, 3.0094445e+2, -86331.445, -162783.53, 82635.65, 0.08982385, 0.08424107, -33508.707, -33508.707, 0.0005485991, 9.995098, 9.985316 
8.841938e+2, 3.1093714e+2, -9787.223, -62123.445, 33127.03, 0.19200699, 0.4999611, 6260.4253, 6260.4253, 0.0010574318, 9.995458, 9.988827 
8.8384527e+2, 3.209187e+2, -37099.26, -100894.72, 5153.705, -0.010641857, 0.11079881, -36685.6, -36685.6, 0.0016748939, 9.9948635, 9.986528 
9.002778e+2, 1.3148162e+2, -1587728.9, -1635569.9, -1806.7007, 0.5288048, 0.34962106, -1587660.8, 63845.336, 0.000000029867618, 10.001901, 9.995758 
8.999335e+2, 1.4147544e+2, -1506187.8, -1547108.6, 6231.338, 0.3764533, 0.15512556, -1505259.9, 48303.723, 0.000000019382966, 10.000921, 9.995666 
8.995962e+2, 1.5147096e+2, -1416686.1, -1462108.6, 36229.496, 0.35445657, 0.17928311, -1396637.9, 58969.25, 0.000000010447276, 10.000766, 9.99502 
8.9926106e+2, 1.6146597e+2, -1325137.3, -1381958.5, 31868.943, 0.35747835, 0.2216863, -1310853.6, 46802.813, 0.000000004434464, 10.000857, 9.9936695 
8.989239e+2, 1.7145923e+2, -1230816.0, -1301229.1, 42276.266, 0.3526561, 0.26992312, -1211006.4, 48718.367, 0.0000000014203173, 10.001209, 9.992345 
8.985876e+2, 1.8145178e+2, -1136931.1, -1212625.0, 46109.023, 0.34644088, 0.3137848, -1115125.5, 46673.875, 0.00000000033482794, 10.001219, 9.991653 
8.982517e+2, 1.91443e+2, -1065918.6, -1138844.8, 53113.53, 0.35354, 0.33017698, -1037956.5, 25929.156, 0.000000000057520166, 9.999835, 9.990713 
8.9791703e+2, 2.0143369e+2, -984831.56, -1048161.44, 62124.832, 0.34451193, 0.32332045, -946767.3, 19209.367, 0.0000000000071813653, 9.998687, 9.990807 
8.975841e+2, 2.1142352e+2, -879816.44, -953507.7, 68479.164, 0.2710721, 0.25606, -838899.6, 29175.607, 0.00000000000428494, 9.999469, 9.990223 
8.972509e+2, 2.214138e+2, -761460.06, -828137.6, 65510.063, 0.20404886, 0.21032627, -721293.44, 48876.02, 0.00000000010849106, 10.000021, 9.991794 
8.969161e+2, 2.314063e+2, -681173.4, -737165.94, 64358.484, 0.18498895, 0.24942169, -638985.56, 33256.824, 0.000000002258234, 9.998682, 9.991876 
8.9658076e+2, 2.4139783e+2, -610320.25, -672383.4, 72970.07, 0.1729157, 0.27396476, -562057.5, 12267.224, 0.000000034158017, 9.997659, 9.990052 
8.9624417e+2, 2.513861e+2, -512607.03, -595623.75, 75303.94, 0.16332974, 0.23000671, -468129.2, 8309.822, 0.00000037566133, 9.998497, 9.988022 
8.9590627e+2, 2.6137355e+2, -413150.16, -507954.1, 84733.34, 0.15773368, 0.20456226, -363461.0, 15100.846, 0.00000301649, 9.999016, 9.987001 
8.95566e+2, 2.713599e+2, -351144.97, -446512.3, 62534.008, 0.17311996, 0.25012308, -320188.72, -39493.043, 0.000017853601, 9.997323, 9.985187 
8.9522266e+2, 2.8134555e+2, -277763.66, -345985.34, 55679.27, 0.17228773, 0.25506395, -246577.27, -63741.44, 0.000079075995, 9.994931, 9.986474 
8.9487684e+2, 2.9132938e+2, -211890.66, -298577.56, 78409.336, 0.09309309, 0.12822534, -165642.38, -80649.16, 0.00026623905, 9.994187, 9.983234 
8.945324e+2, 3.0131218e+2, -116547.695, -226524.14, 90639.12, 0.02335906, 0.14234844, -65521.04, -65521.04, 0.00069019, 9.995122, 9.980953 
8.941889e+2, 3.1129414e+2, -96251.02, -243618.48, 31475.912, 0.15345617, 0.5212799, -89809.695, -89809.695, 0.0014013384, 9.995509, 9.976367 
8.938412e+2, 3.2126853e+2, 26847.01, 31792.91, -4731.8086, 0.09236367, 0.075222686, 34659.016, 34659.016, 0.0023083058, 9.994851, 9.995555 
9.102785e+2, 1.3182534e+2, -1616553.4, -1671214.4, 3522.0212, 0.44963396, 0.31989184, -1616327.4, 31811.127, 0.000000001903787, 10.000885, 9.993804 
9.0993524e+2, 1.4181852e+2, -1502715.4, -1547149.8, 3242.033, 0.39955416, 0.19607094, -1502480.0, 47724.2, 0.0000000012354053, 10.001202, 9.995517 
9.095969e+2, 1.5181483e+2, -1429095.0, -1461050.8, 26401.78, 0.4108098, 0.24234694, -1414212.8, 38027.637, 0.00000000066574474, 9.999562, 9.995698 
9.092608e+2, 1.6181065e+2, -1355042.9, -1383561.0, 22624.357, 0.415849, 0.27932683, -1342559.0, 11722.507, 0.0000000002824927, 9.998252, 9.9949045 
9.089235e+2, 1.7180473e+2, -1254703.5, -1294993.3, 35052.426, 0.34444234, 0.25573704, -1234419.5, 21920.238, 0.00000000009044054, 9.998825, 9.994022 
9.085873e+2, 1.817985e+2, -1148187.9, -1198582.1, 39570.176, 0.2892297, 0.2490593, -1126473.5, 31927.826, 0.000000000021308946, 9.999614, 9.993473 
9.0825176e+2, 1.917919e+2, -1039161.5, -1104233.0, 53296.42, 0.30572057, 0.2918453, -1009254.6, 51212.02, 0.000000000003658245, 10.000726, 9.992655 
9.079172e+2, 2.0178464e+2, -938444.56, -1010296.3, 67256.695, 0.31261432, 0.31912684, -898120.0, 64418.273, 0.00000000000045636807, 10.001164, 9.992123 
9.0758353e+2, 2.11776e+2, -872204.94, -935104.7, 76673.516, 0.26624545, 0.28690356, -820781.9, 43840.746, 0.0000000000030655227, 9.999311, 9.991444 
9.072497e+2, 2.2176756e+2, -792166.0, -833553.56, 75442.65, 0.22227302, 0.26169017, -734630.5, 32074.557, 0.0000000000903565, 9.997464, 9.992528 
9.0691376e+2, 2.3176059e+2, -706492.8, -739517.1, 68444.4, 0.20502064, 0.2868537, -652596.94, 16175.788, 0.0000000018811002, 9.996462, 9.992705 
9.065776e+2, 2.4175319e+2, -621906.7, -656537.4, 76589.2, 0.18392113, 0.2978343, -560699.9, 10144.748, 0.000000028451819, 9.995916, 9.991972 
9.062414e+2, 2.5174403e+2, -522036.22, -566196.2, 77871.02, 0.14891227, 0.24221344, -463175.34, 9757.93, 0.00000031314025, 9.99637, 9.9910965 
9.059036e+2, 2.6173422e+2, -435694.4, -492074.8, 84117.945, 0.13238646, 0.20990576, -375168.66, -140.13902, 0.0000025239594, 9.996221, 9.989438 
9.0556186e+2, 2.7172312e+2, -370700.5, -426188.0, 81143.7, 0.17274329, 0.2659702, -312688.7, -35550.344, 0.000015124688, 9.99451, 9.987726 
9.052167e+2, 2.8171209e+2, -272290.3, -288989.4, 95531.38, 0.18793024, 0.28398767, -184744.28, -5497.752, 0.00006901787, 9.992668, 9.991103 
9.048661e+2, 2.9170272e+2, -286326.8, -244734.53, 112607.45, 0.072421335, 0.18311219, -151019.02, -69682.84, 0.00024569064, 9.984676, 9.991016 
9.202787e+2, 1.3216934e+2, -1629510.6, -1692485.4, 8175.9097, 0.3906321, 0.28857842, -1628466.5, 16302.321, 0.00000000008526822, 10.000688, 9.992451 
9.1993654e+2, 1.4216252e+2, -1508127.3, -1550347.3, 10627.712, 0.42555785, 0.25665212, -1505603.0, 41233.543, 0.00000000005532455, 10.000831, 9.995371 
9.19597e+2, 1.5215917e+2, -1421995.0, -1453906.4, 30707.63, 0.464556, 0.3153339, -1403345.1, 45524.42, 0.000000000029806633, 9.999832, 9.995928 
9.192598e+2, 1.6215526e+2, -1338266.1, -1364583.3, 31508.148, 0.47176507, 0.33812436, -1317279.3, 33628.133, 0.000000000012643394, 9.998927, 9.995782 
9.189223e+2, 1.7214987e+2, -1243763.6, -1273571.9, 42404.707, 0.33672172, 0.24138068, -1213720.0, 39238.67, 0.0000000000040459667, 9.998901, 9.995404 
9.1858625e+2, 1.821447e+2, -1140926.6, -1171622.3, 44559.965, 0.23010421, 0.17888558, -1109145.4, 45862.86, 0.000000000000952743, 9.999135, 9.995542 
9.1825175e+2, 1.9214058e+2, -1034193.44, -1073037.6, 55577.324, 0.24756382, 0.22771941, -994742.3, 62306.86, 0.00000000000016345195, 9.9998665, 9.995227 
9.1791767e+2, 2.0213588e+2, -940772.25, -991060.6, 60137.21, 0.26611394, 0.27935487, -900734.25, 58361.766, 0.000000000000020373985, 10.000101, 9.993959 
9.1758263e+2, 2.1212964e+2, -867084.2, -912884.44, 66652.805, 0.25469944, 0.31630325, -819507.25, 41650.926, 0.0000000000018606304, 9.998754, 9.99321 
9.172473e+2, 2.2212295e+2, -788992.56, -826659.1, 69253.0, 0.24357106, 0.33553424, -736057.6, 27166.703, 0.000000000055557395, 9.997421, 9.993006 
9.1691065e+2, 2.3211572e+2, -700119.44, -733386.1, 64533.34, 0.24722752, 0.3170733, -650110.3, 15184.356, 0.0000000011563022, 9.996753, 9.992965 
9.16574e+2, 2.4210866e+2, -605950.3, -631301.5, 77897.81, 0.2284137, 0.29402444, -539703.56, 27659.521, 0.000000017486771, 9.996278, 9.993516 
9.162378e+2, 2.5210208e+2, -503292.44, -525073.2, 79828.414, 0.14502029, 0.25501263, -433615.0, 35811.586, 0.00000019261098, 9.996309, 9.99393 
9.1589934e+2, 2.620956e+2, -411439.84, -434924.75, 79934.0, 0.0915773, 0.23704782, -342390.4, 29098.75, 0.000001557747, 9.995909, 9.993459 
9.15556e+2, 2.720898e+2, -327898.56, -334161.16, 75275.08, 0.13828582, 0.28485718, -255689.69, 17857.479, 0.000009437413, 9.994332, 9.994071 
9.1520894e+2, 2.8208503e+2, -234057.17, -207116.19, 88366.42, 0.16297518, 0.3099652, -131199.44, 44395.05, 0.00004425717, 9.9924965, 9.996754 
9.1485035e+2, 2.920842e+2, -209699.58, -83426.26, 61944.9, 0.040339008, 0.26121822, -58112.887, 19487.697, 0.00016661992, 9.984471, 10.001701 
9.3027943e+2, 1.3251406e+2, -1630591.1, -1655781.3, 9960.938, 0.4767907, 0.27849793, -1627128.4, 14265.625, 0.0000000000029415736, 9.999032, 9.995748 
9.2993677e+2, 1.425108e+2, -1519066.5, -1540449.8, 19031.5, 0.44059572, 0.35074532, -1507929.0, 35497.484, 0.0000000000019083366, 9.999441, 9.996633 
9.295961e+2, 1.5250742e+2, -1424807.3, -1449541.0, 39003.164, 0.40119243, 0.35377184, -1396257.3, 49202.152, 0.0000000000010279229, 9.999404, 9.996319 
9.2925805e+2, 1.6250329e+2, -1339576.4, -1368887.8, 39091.168, 0.3846072, 0.3459022, -1312484.0, 35015.63, 0.0000000000004359048, 9.999009, 9.995337 
9.28921e+2, 1.7249787e+2, -1258868.4, -1285630.4, 44578.94, 0.35640973, 0.30327198, -1225705.5, 23846.41, 0.0000000000001394446, 9.998091, 9.9949045 
9.285852e+2, 1.8249276e+2, -1165858.6, -1180132.3, 43344.617, 0.31427178, 0.2673963, -1129067.1, 22533.691, 0.00000000000003282296, 9.997313, 9.995834 
9.282503e+2, 1.9248879e+2, -1069677.8, -1081764.3, 48719.47, 0.2837153, 0.26759517, -1026628.2, 27011.383, 0.0000000000000056283993, 9.997119, 9.996011 
9.279158e+2, 2.0248485e+2, -976443.94, -989751.94, 46630.465, 0.2680639, 0.2829108, -935995.1, 19682.953, 0.00000000000000070118843, 9.996886, 9.995685 
9.2758024e+2, 2.1248075e+2, -882553.6, -895548.25, 53037.297, 0.2676829, 0.32208484, -835617.2, 22101.58, 0.00000000000083497646, 9.996641, 9.995479 
9.272445e+2, 2.2247587e+2, -794241.3, -817908.75, 59934.434, 0.25851035, 0.34084854, -744983.5, 14783.499, 0.0000000000249549, 9.996622, 9.994047 
9.269076e+2, 2.3246929e+2, -687877.0, -717242.44, 58094.39, 0.23391365, 0.3032678, -642638.6, 19192.547, 0.00000000051935445, 9.997213, 9.993876 
9.265705e+2, 2.4246342e+2, -585855.3, -601759.8, 68742.32, 0.20664544, 0.27870095, -524606.8, 39281.227, 0.0000000078541085, 9.996833, 9.995257 
9.26233e+2, 2.5245953e+2, -521960.9, -505809.53, 66546.38, 0.15992364, 0.2879448, -446850.63, 19075.143, 0.00000008654337, 9.993843, 9.996422 
9.258932e+2, 2.6245603e+2, -457329.2, -422634.16, 64536.38, 0.123249955, 0.2951328, -373154.44, -5194.424, 0.0000007013428, 9.991366, 9.996506 
9.255485e+2, 2.7245355e+2, -353628.28, -299949.25, 48005.316, 0.14179823, 0.30528963, -271789.94, -1804.7777, 0.0000042783217, 9.990723, 9.998248 
9.252003e+2, 2.8245217e+2, -250756.75, -189677.27, 43897.723, 0.14835888, 0.3166747, -166740.98, 5257.9346, 0.00002042177, 9.990533, 9.999127 
9.2484e+2, 2.9245389e+2, -45271.836, 20411.604, -37980.152, 0.027466847, 0.31487796, 37780.145, 111761.22, 0.00007993033, 9.995282, 10.004089 
9.402792e+2, 1.3285944e+2, -1611656.3, -1609393.0, 16532.775, 0.55987215, 0.29761183, -1593953.1, 44059.406, 0.0, 9.998702, 9.999018 
9.399359e+2, 1.4285934e+2, -1527408.4, -1531879.0, 18370.973, 0.44018734, 0.43660712, -1511137.3, 28876.643, 0.0, 9.998323, 9.997782 
9.395946e+2, 1.528559e+2, -1431453.9, -1447855.5, 35311.414, 0.32124525, 0.37771916, -1403403.4, 38643.652, 0.0, 9.998737, 9.996784 
9.392561e+2, 1.6285159e+2, -1344284.6, -1377393.6, 34365.67, 0.28734776, 0.34683084, -1322694.0, 21394.973, 0.0, 9.998942, 9.994805 
9.3891954e+2, 1.7284627e+2, -1250232.3, -1289107.0, 42975.4, 0.38794997, 0.3854943, -1222503.0, 23638.43, 0.0, 9.998991, 9.9942 
9.3858373e+2, 1.8284114e+2, -1148559.0, -1172543.9, 46229.332, 0.42455208, 0.39324108, -1112791.9, 35399.504, 0.0, 9.998522, 9.995716 
9.3824804e+2, 1.9283666e+2, -1063774.3, -1076631.5, 52288.805, 0.33995086, 0.33599883, -1017520.4, 32713.682, 0.0, 9.997423, 9.99616 
9.379128e+2, 2.0283292e+2, -966918.56, -966880.4, 49825.297, 0.28428477, 0.30173245, -917074.2, 35195.457, 0.0, 9.996752, 9.997269 
9.375771e+2, 2.1283069e+2, -863579.8, -860959.25, 52677.445, 0.28781265, 0.31826544, -809575.8, 44715.38, 0.00000000000028468902, 9.996848, 9.997724 
9.372412e+2, 2.228274e+2, -782254.0, -798878.75, 60812.293, 0.26572448, 0.31738445, -729188.6, 27134.314, 0.000000000008157955, 9.996903, 9.995219 
9.369044e+2, 2.3282179e+2, -682325.0, -701300.6, 60649.992, 0.18987314, 0.27025658, -630425.2, 27952.459, 0.00000000016979894, 9.997062, 9.995031 
9.3656665e+2, 2.4281749e+2, -578286.56, -578060.6, 61937.332, 0.15209495, 0.26097712, -516236.13, 44183.535, 0.0000000025679472, 9.996435, 9.997013 
9.36227e+2, 2.5281626e+2, -506029.53, -474009.16, 54987.29, 0.1925664, 0.33678338, -432748.7, 29683.816, 0.000000028296595, 9.9938135, 9.998542 
9.3588537e+2, 2.6281515e+2, -438426.88, -389513.97, 60542.918, 0.20519647, 0.3727011, -348674.47, 15769.196, 0.00000022950282, 9.991619, 9.998624 
9.3553954e+2, 2.7281412e+2, -336784.3, -268782.28, 44584.0, 0.17145783, 0.3225726, -246713.69, 19739.963, 0.0000014045202, 9.990903, 10.000267 
9.351908e+2, 2.828132e+2, -258155.6, -207682.86, 46890.508, 0.13739681, 0.30318493, -179668.94, -11205.84, 0.000006759484, 9.99073, 9.997798 
9.3483555e+2, 2.928109e+2, -91677.85, -80407.3, -8793.338, 0.03622539, 0.344257, -75598.48, -5111.547, 0.000026932837, 9.995592, 9.997259 
9.50277e+2, 1.33207e+2, -1634516.1, -1623935.3, 8981.623, 0.5428915, 0.39797258, -1618801.8, 15807.388, 0.0, 9.997268, 9.998688 
9.4993263e+2, 1.4320554e+2, -1558672.4, -1550894.8, 12665.554, 0.39978576, 0.4308603, -1541534.4, -4911.335, 0.0, 9.996419, 9.997474 
9.4959253e+2, 1.5320173e+2, -1455403.6, -1462655.9, 27298.996, 0.3323225, 0.36436814, -1431491.0, 7168.2544, 0.0, 9.997326, 9.996532 
9.49255e+2, 1.6319771e+2, -1347747.5, -1368308.9, 28888.33, 0.31981888, 0.33851126, -1327365.0, 13333.118, 0.0, 9.998341, 9.995791 
9.4891924e+2, 1.7319389e+2, -1227106.5, -1262395.3, 43331.758, 0.38011837, 0.39696255, -1197964.5, 44771.613, 0.0, 10.000006, 9.9955435 
9.485832e+2, 1.8318999e+2, -1120814.9, -1151533.1, 41414.914, 0.397068, 0.42190057, -1092002.8, 52771.906, 0.0, 10.000106, 9.996307 
9.4824547e+2, 1.9318606e+2, -1060362.1, -1068808.5, 46448.164, 0.33227178, 0.3768241, -1017945.56, 28867.025, 0.0, 9.997394, 9.996606 
9.479091e+2, 2.0318252e+2, -980691.9, -974721.3, 51564.58, 0.2830657, 0.3452905, -926055.7, 22791.043, 0.0, 9.995956, 9.997074 
9.4757396e+2, 2.1317995e+2, -862301.1, -861146.56, 46950.426, 0.2672331, 0.34742537, -814769.9, 36102.19, 0.000000000000067652664, 9.9970875, 9.997636 
9.472382e+2, 2.231773e+2, -765256.5, -771531.9, 45074.75, 0.24396971, 0.34526968, -723210.4, 29687.324, 0.0000000000019384904, 9.997326, 9.996944 
9.4690084e+2, 2.3317416e+2, -686392.56, -677756.2, 47750.87, 0.20034273, 0.32873023, -634128.6, 20799.191, 0.000000000040347756, 9.99577, 9.997272 
9.465623e+2, 2.4317163e+2, -597898.75, -576706.2, 49896.72, 0.17312278, 0.3261576, -536293.0, 20659.172, 0.0000000006101943, 9.994736, 9.997915 
9.462214e+2, 2.531706e+2, -486268.5, -456929.53, 34372.477, 0.18905528, 0.3610417, -434227.1, 24735.273, 0.000000006724211, 9.994979, 9.999189 
9.458786e+2, 2.6316997e+2, -387395.84, -358566.28, 32156.371, 0.18591578, 0.38003442, -337741.63, 23227.195, 0.000000054552586, 9.995033, 9.999218 
9.4553226e+2, 2.7316955e+2, -277910.72, -239038.27, 5685.027, 0.14014497, 0.35091197, -238223.9, 24749.332, 0.0000003341785, 9.995122, 10.000501 
9.4518363e+2, 2.831691e+2, -191198.4, -171439.16, 7262.4517, 0.10945544, 0.3408897, -169057.03, -4078.6072, 0.0000016125001, 9.995465, 9.998247 
9.4483197e+2, 2.9316607e+2, -91547.93, -100417.71, -1240.7582, 0.05500117, 0.37835115, -91377.64, -24368.613, 0.0000064614287, 9.996765, 9.995471 
9.602738e+2, 1.3355319e+2, -1641052.6, -1637130.0, -5691.3906, 0.51066864, 0.4762943, -1633071.4, -1852.6671, 0.0, 9.997189, 9.997892 
9.5992893e+2, 1.4355002e+2, -1545373.8, -1548952.9, 8960.42, 0.36900017, 0.39940822, -1538025.9, -4777.209, 0.0, 9.997536, 9.99715 
9.595905e+2, 1.5354614e+2, -1439921.4, -1457928.8, 26305.102, 0.36774385, 0.34689265, -1421121.8, 14163.567, 0.0, 9.998526, 9.996314 
9.59254e+2, 1.6354266e+2, -1331429.4, -1344790.4, 31685.09, 0.3735022, 0.33032274, -1305728.1, 31590.541, 0.0, 9.998818, 9.997196 
9.5891875e+2, 1.7354053e+2, -1236095.1, -1246509.8, 45525.594, 0.3570243, 0.3816853, -1195480.0, 43860.12, 0.0, 9.998564, 9.997367 
9.585823e+2, 1.8353808e+2, -1141961.4, -1153218.8, 31647.484, 0.3350812, 0.41345572, -1115445.9, 25918.81, 0.0, 9.998234, 9.997091 
9.582426e+2, 1.9353512e+2, -1052282.0, -1057840.3, 34992.434, 0.30868617, 0.4041958, -1019958.5, 23435.592, 0.0, 9.997562, 9.997244 
9.5790523e+2, 2.0353185e+2, -972376.7, -979551.3, 53371.246, 0.2751253, 0.39369997, -922472.3, 22954.568, 0.0, 9.996938, 9.996277 
9.575707e+2, 2.1352816e+2, -873757.9, -877710.25, 53586.023, 0.23183952, 0.38713253, -822111.6, 25352.2, 0.0000000000000117120025, 9.996834, 9.99661 
9.5723516e+2, 2.2352587e+2, -761399.4, -746987.0, 44403.008, 0.21565409, 0.3969578, -709209.25, 40277.23, 0.0000000000003355644, 9.996587, 9.998925 
9.5689696e+2, 2.3352578e+2, -667211.5, -639071.5, 41814.563, 0.2430435, 0.43390846, -609023.2, 42463.14, 0.0000000000069838328, 9.995776, 9.999879 
9.565577e+2, 2.4352488e+2, -591161.94, -571140.4, 48333.16, 0.23042232, 0.43082818, -531792.1, 21702.258, 0.00000000010561558, 9.995114, 9.998117 
9.5621604e+2, 2.5352246e+2, -487401.7, -462607.6, 34775.848, 0.15475366, 0.36177132, -438085.2, 17431.357, 0.0000000011640542, 9.995152, 9.998717 
9.558727e+2, 2.6352084e+2, -392822.34, -369523.34, 30974.87, 0.09420602, 0.34210598, -348079.75, 9452.554, 0.000000009444971, 9.995031, 9.99845 
9.5552665e+2, 2.7352005e+2, -290385.38, -263387.78, 8490.487, 0.062860824, 0.39677656, -260939.61, -1397.8737, 0.000000057857413, 9.995063, 9.998875 
9.5517874e+2, 2.8352e+2, -175485.95, -137903.11, 7979.7437, 0.06999809, 0.42324224, -136279.0, 25263.95, 0.00000027926637, 9.9953985, 10.000594 
9.54829e+2, 2.9351985e+2, -65917.31, -46479.56, 8320.147, 0.08355058, 0.40995625, -43404.633, 20139.041, 0.0000011202083, 9.996718, 9.999287 
9.7027075e+2, 1.3389415e+2, -1653423.3, -1655142.6, -17140.18, 0.4968183, 0.44895056, -1637121.3, -9243.835, 0.0, 9.9969425, 9.996908 
9.699276e+2, 1.4389056e+2, -1529931.0, -1533544.3, 441.6089, 0.41222277, 0.35005578, -1529877.9, 34.69175, 0.0, 9.998346, 9.997932 
9.695903e+2, 1.5388861e+2, -1418608.1, -1437101.3, 17852.219, 0.41161335, 0.39308265, -1407749.9, 24181.572, 0.0, 9.999632, 9.997277 
9.692533e+2, 1.6388638e+2, -1322026.3, -1327722.6, 13049.883, 0.40128773, 0.3989787, -1311517.4, 22435.385, 0.0, 9.998935, 9.998328 
9.689152e+2, 1.7388456e+2, -1268627.0, -1248816.4, 22834.107, 0.33228496, 0.36094055, -1233831.8, 2138.332, 0.0, 9.995778, 9.998597 
9.685779e+2, 1.8388288e+2, -1184474.6, -1165364.3, 21406.336, 0.29024744, 0.36620352, -1151477.4, -13490.952, 0.0, 9.995124, 9.997885 
9.682407e+2, 1.9388138e+2, -1036582.06, -1041308.06, 26117.922, 0.3035459, 0.423412, -1012720.44, 27281.547, 0.0, 9.99843, 9.998066 
9.6790373e+2, 2.0387946e+2, -933744.7, -948701.94, 34148.004, 0.295949, 0.45705056, -906266.0, 35755.68, 0.0, 9.999119, 9.997352 
9.67567e+2, 2.1387695e+2, -882561.2, -868688.56, 40353.1, 0.2493643, 0.45739815, -834680.0, 9366.743, 0.0000000000000014914695, 9.995712, 9.997709 
9.6723044e+2, 2.2387509e+2, -795185.4, -764293.0, 42643.99, 0.22320439, 0.4592987, -734383.94, 11681.19, 0.000000000000042732568, 9.994482, 9.998735 
9.6689314e+2, 2.3387447e+2, -658237.9, -636886.9, 28374.13, 0.23607446, 0.46925557, -617246.4, 30824.416, 0.00000000000088938075, 9.996665, 9.999689 
9.665541e+2, 2.4387346e+2, -552858.6, -547867.44, 23156.707, 0.21638997, 0.4470622, -527072.25, 23007.625, 0.000000000013450299, 9.997679, 9.998604 
9.6621203e+2, 2.5387144e+2, -460966.1, -446535.22, 13048.3545, 0.137711, 0.36737454, -438840.2, 13258.215, 0.0000000001482496, 9.996968, 9.999041 
9.6586823e+2, 2.6387015e+2, -374997.06, -356921.9, 12973.255, 0.08042474, 0.34977442, -350148.63, 3962.111, 0.0000000012029147, 9.996223, 9.998782 
9.655221e+2, 2.7386963e+2, -284749.1, -263454.4, 1819.9594, 0.067719795, 0.43078047, -263300.0, -7182.1787, 0.0000000073681794, 9.995714, 9.998554 
9.6517444e+2, 2.8386962e+2, -164910.75, -127051.62, 1795.8119, 0.07608458, 0.45927894, -126966.625, 31151.938, 0.000000035559857, 9.996022, 10.001057 
9.6482587e+2, 2.9386997e+2, -49542.15, -27547.81, -11034.491, 0.06842364, 0.40953383, -22966.22, 37147.867, 0.00000014260962, 9.997507, 10.000463 
9.8026764e+2, 1.3423437e+2, -1659397.8, -1665099.3, -1174.4316, 0.49479863, 0.42225176, -1659165.4, -34621.883, 0.0, 9.996887, 9.996204 
9.799265e+2, 1.4423089e+2, -1515567.3, -1518044.0, 17657.191, 0.4542091, 0.33974275, -1499105.0, 27473.637, 0.0, 9.998992, 9.998596 
9.795902e+2, 1.5423064e+2, -1420735.8, -1428610.5, 28186.334, 0.44273394, 0.47823396, -1396213.1, 32369.078, 0.0, 9.999105, 9.998056 
9.792522e+2, 1.6422933e+2, -1323613.4, -1320629.8, 6691.803, 0.4160992, 0.5022202, -1315265.5, 15329.133, 0.0, 9.998402, 9.998999 
9.789109e+2, 1.7422728e+2, -1245015.1, -1228877.1, 10998.769, 0.31072533, 0.3731995, -1223304.9, 9307.783, 0.0, 9.996927, 9.999354 
9.78573e+2, 1.8422598e+2, -1162094.5, -1148120.3, 27497.143, 0.25636944, 0.34802288, -1126736.4, 7888.279, 0.0, 9.996465, 9.998478 
9.78239e+2, 1.9422568e+2, -1043735.4, -1036792.4, 33596.766, 0.3025475, 0.45717072, -1006488.25, 30140.412, 0.0, 9.997706, 9.998805 
9.779029e+2, 2.0422527e+2, -938740.3, -932544.0, 19658.102, 0.32154903, 0.5270866, -915741.44, 22891.785, 0.0, 9.997889, 9.999048 
9.77563e+2, 2.1422473e+2, -859147.1, -836085.5, 21982.07, 0.28243417, 0.53626287, -822793.5, 17844.846, 0.00000000000000014322901, 9.996287, 9.999654 
9.772253e+2, 2.2422315e+2, -787402.44, -774669.5, 43989.88, 0.23581074, 0.5177042, -736587.8, 6066.027, 0.0000000000000041040377, 9.995689, 9.997513 
9.768895e+2, 2.3422036e+2, -668445.2, -659526.4, 35161.168, 0.1957442, 0.46136668, -628542.94, 16138.237, 0.000000000000085429954, 9.996814, 9.998111 
9.7655123e+2, 2.4421856e+2, -552627.7, -539461.2, 21622.984, 0.16319928, 0.41488618, -523441.53, 23257.045, 0.000000000001292103, 9.997325, 9.999331 
9.76209e+2, 2.5421783e+2, -456465.2, -435892.4, 11122.505, 0.13514856, 0.38052812, -431028.88, 17676.033, 0.0000000000142405965, 9.996893, 9.999792 
9.758649e+2, 2.6421776e+2, -365865.4, -339436.88, 9744.6875, 0.12289548, 0.38578975, -336232.38, 14473.301, 0.00000000011554544, 9.996259, 9.999948 
9.7551847e+2, 2.742181e+2, -277316.78, -249649.7, 896.11743, 0.1394975, 0.4485656, -249620.7, 3083.034, 0.0000000007077114, 9.995757, 9.999491 
9.7517085e+2, 2.842177e+2, -175014.94, -149310.9, 5255.9653, 0.11527415, 0.45245895, -148277.69, 6430.4966, 0.000000003414842, 9.996094, 9.999524 
9.748227e+2, 2.9421592e+2, -62915.77, -55801.02, -4691.6533, -0.0055976524, 0.37792775, -53470.566, 3254.0005, 0.000000013690085, 9.997546, 9.998559 
9.902648e+2, 1.3457744e+2, -1641392.1, -1632107.1, 22188.12, 0.49803174, 0.35730872, -1614081.0, 7103.306, 0.0, 9.997233, 9.998301 
9.89926e+2, 1.445758e+2, -1512201.4, -1523340.3, 24141.744, 0.4493891, 0.38311327, -1492995.0, 30205.158, 0.0, 9.999534, 9.99789 
9.8958826e+2, 1.5457433e+2, -1438000.4, -1445702.1, 27781.215, 0.39753968, 0.48681223, -1413804.4, 11410.475, 0.0, 9.998305, 9.997213 
9.892499e+2, 1.6457202e+2, -1339990.5, -1342791.3, 6135.459, 0.3783013, 0.5148537, -1335097.6, -7859.886, 0.0, 9.997949, 9.9977045 
9.8890984e+2, 1.7456928e+2, -1225008.5, -1232470.4, 4556.0244, 0.36831763, 0.44189194, -1222850.6, 6413.281, 0.0, 9.998923, 9.998182 
9.885714e+2, 1.8456683e+2, -1136481.8, -1134257.4, 11464.756, 0.32677716, 0.35723698, -1123851.0, 7436.503, 0.0, 9.998147, 9.998663 
9.88235e+2, 1.9456512e+2, -1074098.4, -1046633.0, 16298.875, 0.27078488, 0.2869901, -1039052.8, -5748.9937, 0.0, 9.99542, 9.999305 
9.8789847e+2, 2.0456414e+2, -972850.4, -944332.0, 10192.836, 0.25503233, 0.24750955, -941063.56, -5750.1704, 0.0, 9.995449, 9.999558 
9.875608e+2, 2.1456406e+2, -818537.0, -809895.9, 6867.4287, 0.27378112, 0.24100992, -806102.94, 31211.102, 0.000000000000000010837507, 9.998883, 10.000372 
9.8722374e+2, 2.2456396e+2, -721226.75, -728113.6, 22012.477, 0.2736943, 0.26182938, -702390.0, 36925.195, 0.00000000000000031058006, 9.999614, 9.998917 
9.86887e+2, 2.3456345e+2, -658670.8, -640838.25, 24565.49, 0.25493684, 0.3024691, -623621.0, 17699.373, 0.0000000000000064639003, 9.996907, 9.9993515 
9.865484e+2, 2.4456349e+2, -569622.44, -540405.94, 22609.95, 0.23482925, 0.3460332, -528095.56, 15224.702, 0.000000000000097753626, 9.995934, 9.999907 
9.862067e+2, 2.5456402e+2, -449870.66, -428312.0, 10725.006, 0.20791073, 0.39507833, -423885.44, 21429.77, 0.0000000000010773522, 9.997255, 10.0001335 
9.858626e+2, 2.6456437e+2, -340036.34, -326693.25, 912.8787, 0.17631295, 0.424667, -326631.1, 20680.652, 0.000000000008741193, 9.998094, 9.999961 
9.8551583e+2, 2.745642e+2, -238336.5, -232105.58, -13147.769, 0.15375866, 0.4413678, -221709.19, 27604.04, 0.00000000005353408, 9.998556, 9.999457 
9.851682e+2, 2.8456345e+2, -142838.69, -141742.7, -9189.658, 0.108087085, 0.4391825, -133084.72, 18235.934, 0.00000000025827646, 9.998707, 9.998907 
9.848204e+2, 2.9456124e+2, -59053.117, -64247.938, -9254.556, -0.021489874, 0.3992283, -52038.38, 1303.1852, 0.0000000010352618, 9.998316, 9.997677 
1.0002634e+3, 1.3492025e+2, -1595331.9, -1583439.0, -10539.098, 0.5851507, 0.5680103, -1577284.5, 40544.086, 0.0, 9.999398, 10.0010605 
9.999252e+2, 1.4491966e+2, -1508980.8, -1520822.5, -21511.04, 0.4295169, 0.54189026, -1492590.6, 27241.807, 0.0, 9.999717, 9.998307 
9.9958545e+2, 1.5491605e+2, -1437558.8, -1445333.4, -329.8074, 0.2954461, 0.39637148, -1437544.8, -15677.94, 0.0, 9.998355, 9.997354 
9.99247e+2, 1.6491343e+2, -1337711.0, -1342833.0, 8641.339, 0.30140033, 0.39601853, -1331259.1, -7366.6123, 0.0, 9.9983, 9.997503 
9.9890924e+2, 1.7491215e+2, -1218826.1, -1233255.1, 27195.84, 0.41037613, 0.51276284, -1197904.1, 28002.324, 0.0, 9.999694, 9.99752 
9.9857026e+2, 1.8491074e+2, -1116828.8, -1120449.6, 27785.39, 0.3975495, 0.571457, -1090794.9, 37125.266, 0.0, 9.999405, 9.998625 
9.9823034e+2, 1.949094e+2, -1043865.9, -1026339.06, 23626.707, 0.24966116, 0.5311985, -1009902.9, 20028.951, 0.0, 9.997381, 9.999423 
9.9789375e+2, 2.0490816e+2, -958658.56, -945871.0, 22555.867, 0.2072794, 0.51031566, -928820.2, 3123.142, 0.0, 9.997147, 9.998545 
9.975597e+2, 2.1490736e+2, -824888.1, -818178.94, -1560.2986, 0.27671036, 0.51628125, -817833.8, 16117.402, 0.0000000000000000006820092, 9.999043, 9.999831 
9.97223e+2, 2.2490783e+2, -720116.94, -704501.06, -23319.207, 0.26004335, 0.5109611, -687717.3, 48229.816, 0.00000000000000001954189, 9.998843, 10.0010605 
9.96883e+2, 2.3490946e+2, -649376.6, -611124.2, -29271.6, 0.18766612, 0.5352233, -595284.2, 42648.105, 0.00000000000000040645458, 9.996559, 10.0018015 
9.965436e+2, 2.4491064e+2, -559961.5, -533851.5, -14078.542, 0.16404694, 0.543929, -527706.5, 12214.814, 0.0000000000000061445223, 9.996698, 10.0002985 
9.962034e+2, 2.5491095e+2, -426082.47, -416981.9, -12519.759, 0.14660749, 0.5495764, -408211.16, 33707.797, 0.00000000000006771698, 9.99902, 10.000307 
9.958604e+2, 2.6491025e+2, -324650.03, -330134.75, -14465.501, 0.14824046, 0.5132639, -312669.25, 31256.105, 0.0000000000005493915, 9.999655, 9.999112 
9.955138e+2, 2.749082e+2, -230405.02, -239265.73, -17134.82, 0.09588063, 0.42362362, -217137.06, 28806.555, 0.0000000000033642223, 9.99959, 9.998539 
9.951664e+2, 2.849072e+2, -137816.17, -135920.44, -11757.04, 0.06334299, 0.42817047, -125073.12, 22879.975, 0.000000000016230134, 9.998879, 9.999229 
9.9481934e+2, 2.9490626e+2, -57754.207, -61696.25, -9963.258, 0.035661563, 0.4833703, -49568.88, 393.79364, 0.00000000006506301, 9.998294, 9.997871 
