coord_x,coord_y,stress_xx,stress_yy,tau_xy,velocity_x,velocity_y,stress_1,eps,damage,lx,ly
4.996689e+0, 1.23909876e+2, -1797874.1, -1732717.8, -3183.5732, -0.0007996541, -0.020635799, -1732562.6, -6881.864, 0.0, 9.993393, 10.002019 
4.9972376e+0, 1.339105e+2, -1694010.4, -1647905.0, -1505.1178, -0.0004577521, -0.021914303, -1647855.9, -20181.229, 0.0, 9.994484, 10.000588 
4.9977717e+0, 1.4391045e+2, -1589719.3, -1561373.3, -877.701, 0.00018921003, -0.021670023, -1561346.1, -31670.879, 0.0, 9.99554, 9.999291 
4.9982947e+0, 1.5390965e+2, -1476736.6, -1456126.1, -1773.8391, 0.0015881034, -0.031548034, -1455974.5, -24291.602, 0.0, 9.996557, 9.999285 
4.9988073e+0, 1.6390777e+2, -1380630.5, -1385862.0, -2434.9355, 0.0012981124, -0.033265565, -1379672.6, -45971.273, 0.0, 9.997588, 9.996894 
4.9993092e+0, 1.7390467e+2, -1267729.6, -1281767.3, -2916.6353, -0.001591807, -0.022740386, -1267147.8, -31416.09, 0.0, 9.99865, 9.996789 
4.9998346e+0, 1.8390033e+2, -1171471.3, -1211998.6, -2813.8406, -0.0022630552, -0.018485082, -1171276.9, -33502.57, 0.0, 9.999714, 9.994348 
5.0003994e+0, 1.938945e+2, -1058498.0, -1107990.5, -1878.5775, 0.0005526682, -0.026951496, -1058426.8, -18595.275, 0.0, 10.000787, 9.994232 
5.000931e+0, 2.0388767e+2, -960382.75, -1033985.6, -1504.6659, 0.0014316634, -0.029360896, -960352.0, -18453.629, 0.0, 10.001832, 9.992087 
5.001414e+0, 2.1387973e+2, -848144.44, -929961.0, -1753.0029, -0.0006444536, -0.024726415, -848106.9, -4130.7383, 0.0, 10.00284, 9.992005 
5.00193e+0, 2.238707e+2, -750290.4, -856465.3, -2026.1483, -0.0011451583, -0.024739172, -750251.7, -4186.9653, 0.0, 10.003882, 9.989826 
5.002497e+0, 2.3386034e+2, -636822.25, -751891.56, -2753.9397, 0.0007910107, -0.035119478, -636756.4, 11409.669, 0.0, 10.004977, 9.989741 
5.0030416e+0, 2.4384893e+2, -540360.1, -682262.5, -3213.9517, 0.0010478765, -0.032197524, -540287.4, 9990.493, 0.0, 10.006062, 9.987277 
5.003551e+0, 2.5383633e+2, -427612.7, -578441.6, -3150.9734, -0.0011883358, -0.011672774, -427546.9, 24854.852, 0.0, 10.007126, 9.987157 
5.004056e+0, 2.638224e+2, -330808.66, -506320.6, -3009.2332, -0.0010428122, -0.006918387, -330757.1, 23780.787, 0.0, 10.008132, 9.984899 
5.00455e+0, 2.7380702e+2, -220028.6, -403025.56, -2249.6355, 0.0028247575, -0.031267293, -220000.94, 36687.78, 0.0, 10.009044, 9.984817 
5.005078e+0, 2.8379056e+2, -124004.55, -333973.22, -1430.5474, 0.002208915, -0.037436057, -123994.805, 34855.023, 0.0, 10.010111, 9.98232 
5.0056493e+0, 2.93773e+2, -7649.5405, -228056.52, -2252.7993, -0.005530494, -0.018685289, -7626.517, 53395.535, 0.0, 10.01141, 9.982232 
5.0062e+0, 3.037581e+2, 96789.42, -89223.055, -2814.6135, -0.005376549, -0.013637198, 96832.0, 96832.0, 0.0, 10.0125065, 9.987858 
5.006709e+0, 3.1374577e+2, 107733.67, -84147.37, -726.85315, 0.007387743, -0.034175158, 107736.42, 107736.42, 0.0, 10.013269, 9.98784 
1.4990065e+1, 1.2390838e+2, -1794601.0, -1726008.6, 1213.3048, -0.0026456695, -0.027853662, -1725987.1, -291.85687, 0.0, 9.993393, 10.002474 
1.4991714e+1, 1.3390946e+2, -1690510.4, -1640732.3, 2609.236, -0.0014607956, -0.03150644, -1640595.9, -12911.314, 0.0, 9.994485, 10.001075 
1.4993314e+1, 1.4390966e+2, -1590856.3, -1563698.8, 2967.9368, 0.00053166953, -0.025797578, -1563378.1, -33695.418, 0.0, 9.995539, 9.999133 
1.4994884e+1, 1.539088e+2, -1478451.9, -1459642.6, 2077.321, 0.004762187, -0.018562503, -1459416.0, -27724.623, 0.0, 9.996556, 9.999046 
1.4996421e+1, 1.6390674e+2, -1381620.4, -1387898.1, 1543.1804, 0.003847406, -0.018996641, -1381261.5, -47549.94, 0.0, 9.997588, 9.996756 
1.4997928e+1, 1.7390329e+2, -1268657.6, -1283675.9, 1107.7374, -0.004809008, -0.030715205, -1268576.4, -32831.04, 0.0, 9.99865, 9.996659 
1.4999504e+1, 1.8389891e+2, -1169977.5, -1208900.9, 1220.0453, -0.0067907576, -0.032974217, -1169939.3, -32151.074, 0.0, 9.999713, 9.994558 
1.5001197e+1, 1.938935e+2, -1056724.9, -1104311.4, 2181.766, 0.001623896, -0.022774935, -1056625.0, -16783.834, 0.0, 10.000786, 9.994484 
1.5002793e+1, 2.0388687e+2, -960583.0, -1034371.6, 2314.2302, 0.004267148, -0.018844964, -960510.5, -18604.264, 0.0, 10.001831, 9.992062 
1.5004241e+1, 2.1387875e+2, -848595.44, -930889.4, 2059.0325, -0.0019363181, -0.025948504, -848543.94, -4558.198, 0.0, 10.00284, 9.991942 
1.500579e+1, 2.2386959e+2, -751555.25, -859060.75, 2070.6943, -0.003476032, -0.026032705, -751515.4, -5439.888, 0.0, 10.003881, 9.98965 
1.500749e+1, 2.3385926e+2, -638222.94, -754765.7, 1393.7727, 0.0023193937, -0.016910441, -638206.25, 9970.713, 0.0, 10.004976, 9.989546 
1.5009125e+1, 2.4384768e+2, -540381.6, -682265.94, 815.7007, 0.0031439385, -0.018310204, -540376.94, 9913.26, 0.0, 10.00606, 9.987278 
1.5010653e+1, 2.538347e+2, -427465.94, -578102.25, 883.6709, -0.0035661533, -0.03766685, -427460.75, 24956.727, 0.0, 10.007124, 9.987182 
1.5012167e+1, 2.6382083e+2, -329416.7, -503406.3, 504.69263, -0.003183568, -0.041257672, -329415.22, 25138.06, 0.0, 10.008131, 9.985099 
1.5013652e+1, 2.7380607e+2, -218503.94, -399863.47, 1197.7075, 0.008450105, -0.022262493, -218496.03, 38202.035, 0.0, 10.009045, 9.985033 
1.5015233e+1, 2.8378975e+2, -125292.55, -336626.44, 3309.7974, 0.0066089593, -0.016916657, -125240.73, 33617.02, 0.0, 10.010109, 9.98214 
1.5016949e+1, 2.9377156e+2, -9371.816, -231583.89, 2677.4167, -0.016569452, -0.03551572, -9339.562, 51696.297, 0.0, 10.011407, 9.981992 
1.50186e+1, 3.037567e+2, 100273.88, -81904.586, 311.93903, -0.016156692, -0.03766142, 100274.414, 100274.414, 0.0, 10.012504, 9.988361 
1.5020128e+1, 3.1374535e+2, 111927.83, -75358.56, 2137.2903, 0.022132631, -0.015944514, 111952.21, 111952.21, 0.0, 10.0132675, 9.988443 
2.4983513e+1, 1.2390613e+2, -1792653.3, -1724101.3, -974.39667, -0.0014982214, -0.029905133, -1724087.5, 1629.9471, 0.0, 9.993482, 10.00256 
2.4986123e+1, 1.339073e+2, -1692208.3, -1640537.1, -2897.252, -0.0010518724, -0.03335323, -1640375.3, -12669.472, 0.0, 9.994325, 10.001166 
2.4988738e+1, 1.4390755e+2, -1594304.5, -1565767.9, -3205.5405, -0.0002702803, -0.026668837, -1565412.1, -35708.746, 0.0, 9.995322, 9.999098 
2.4991418e+1, 1.5390664e+2, -1478614.4, -1460272.0, -2619.9053, 0.0019580664, -0.018526884, -1459905.1, -28192.695, 0.0, 9.99657, 9.998996 
2.4994053e+1, 1.6390456e+2, -1379637.3, -1386832.0, -2212.6414, 0.0016773338, -0.018076671, -1379011.3, -45278.28, 0.0, 9.997718, 9.996764 
2.499664e+1, 1.7390114e+2, -1267459.9, -1282908.0, -1583.9696, -0.002176559, -0.02914962, -1267299.1, -31532.682, 0.0, 9.998723, 9.9966755 
2.4999256e+1, 1.8389677e+2, -1169904.4, -1208871.4, -1551.6115, -0.0030586864, -0.03174996, -1169842.6, -32033.395, 0.0, 9.999718, 9.994557 
2.500193e+1, 1.9389135e+2, -1057866.5, -1104889.3, -2478.4219, 0.00046720263, -0.023671448, -1057736.3, -17873.787, 0.0, 10.000709, 9.994481 
2.500457e+1, 2.038847e+2, -961307.94, -1034548.56, -3043.0476, 0.0017385499, -0.020350007, -961181.75, -19254.246, 0.0, 10.001774, 9.992077 
2.500715e+1, 2.1387662e+2, -846794.44, -929801.8, -2682.5706, -0.00057854265, -0.02606735, -846707.8, -2701.1165, 0.0, 10.002953, 9.9919615 
2.5009766e+1, 2.2386745e+2, -749857.8, -858903.44, -2228.2725, -0.0011061322, -0.025173275, -749812.25, -3715.7437, 0.0, 10.004026, 9.98959 
2.5012434e+1, 2.3385704e+2, -639288.4, -756068.0, -2009.3883, 0.001049279, -0.015837917, -639253.8, 8944.886, 0.0, 10.004937, 9.989475 
2.5015086e+1, 2.4384546e+2, -542167.7, -682327.25, -1610.2697, 0.0012343269, -0.018018309, -542149.2, 8162.9077, 0.0, 10.005902, 9.9873495 
2.501771e+1, 2.5383252e+2, -429338.16, -577996.94, -1048.2501, -0.0018117435, -0.039989162, -429330.78, 23107.893, 0.0, 10.006952, 9.98727 
2.5020304e+1, 2.6381868e+2, -330182.4, -504395.03, -1777.376, -0.0010495133, -0.043362282, -330164.28, 24409.906, 0.0, 10.008104, 9.985044 
2.502285e+1, 2.738039e+2, -213668.89, -398353.94, -3226.872, 0.0055149402, -0.020157242, -213612.53, 43106.832, 0.0, 10.009411, 9.984959 
2.5025484e+1, 2.8378758e+2, -120372.14, -333975.1, -2213.6653, 0.004661331, -0.013452277, -120349.2, 38530.047, 0.0, 10.010435, 9.982162 
2.5028238e+1, 2.9376942e+2, -14927.009, -233831.34, -921.20984, -0.008107729, -0.035292074, -14923.132, 46134.14, 0.0, 10.011006, 9.98203 
2.5030926e+1, 3.0375454e+2, 93174.46, -84860.586, -2659.0037, -0.008414122, -0.039252803, 93214.164, 93214.164, 0.0, 10.011994, 9.988403 
2.5033474e+1, 3.1374326e+2, 117625.195, -72127.38, -4854.858, 0.011573517, -0.01743027, 117749.33, 117749.33, 0.0, 10.013638, 9.988486 
3.4977028e+1, 1.23903096e+2, -1794690.9, -1728296.3, 2516.7705, 0.0010889035, -0.02703025, -1728201.0, -2453.8838, 0.0, 9.993483, 10.0022745 
3.4980464e+1, 1.3390401e+2, -1694408.3, -1645066.5, 260.16086, 0.00045282362, -0.027089728, -1645065.1, -17326.932, 0.0, 9.994326, 10.000857 
3.4984034e+1, 1.4390409e+2, -1593629.9, -1564384.6, 1328.0188, -0.002804476, -0.024562666, -1564324.4, -34586.895, 0.0, 9.995321, 9.999192 
3.498789e+1, 1.5390317e+2, -1477612.1, -1458210.1, 2119.414, -0.007732282, -0.031434, -1457981.4, -26234.88, 0.0, 9.996569, 9.999137 
3.49917e+1, 1.6390122e+2, -1378494.5, -1384499.0, 1669.6797, -0.006145132, -0.030603053, -1378061.5, -44296.066, 0.0, 9.997719, 9.996922 
3.4995446e+1, 1.738982e+2, -1266286.3, -1280525.9, 2216.0, 0.005740839, -0.017907467, -1265949.4, -30154.244, 0.0, 9.998724, 9.996837 
3.4999093e+1, 1.8389389e+2, -1171370.0, -1211917.1, 2178.9631, 0.008219671, -0.014964517, -1171253.3, -33415.695, 0.0, 9.99972, 9.9943495 
3.50026e+1, 1.9388798e+2, -1059681.6, -1108633.1, 1275.1996, -0.0036572425, -0.029515928, -1059648.5, -19753.184, 0.0, 10.000709, 9.9942255 
3.5006255e+1, 2.0388114e+2, -960889.56, -1033676.06, 1329.3754, -0.007101958, -0.034082048, -960865.25, -18903.086, 0.0, 10.001773, 9.992136 
3.5010138e+1, 2.1387333e+2, -846104.9, -928359.9, 1782.5074, 0.0027638373, -0.024952982, -846066.25, -2027.2744, 0.0, 10.002952, 9.99206 
3.5013857e+1, 2.2386426e+2, -749446.56, -858027.9, 1303.2332, 0.0052131694, -0.022232855, -749430.9, -3303.0747, 0.0, 10.004025, 9.98965 
3.5017326e+1, 2.338537e+2, -638885.4, -755246.94, 1433.4462, -0.003739764, -0.03171433, -638867.75, 9363.474, 0.0, 10.004938, 9.989531 
3.5020924e+1, 2.4384224e+2, -541157.75, -680236.9, 2276.1406, -0.005698631, -0.031514525, -541120.5, 9222.96, 0.0, 10.005902, 9.987492 
3.5024714e+1, 2.538298e+2, -428249.5, -575740.06, 2902.4133, 0.0035559137, -0.018430114, -428192.4, 24272.96, 0.0, 10.006952, 9.987424 
3.5028473e+1, 2.63816e+2, -332319.06, -508807.56, 3035.4, 0.004805682, -0.013604678, -332266.88, 22333.795, 0.0, 10.008103, 9.984742 
3.503214e+1, 2.738005e+2, -216250.47, -403650.34, 1721.8579, -0.0065068994, -0.024871916, -216234.64, 40517.984, 0.0, 10.009408, 9.984597 
3.5035837e+1, 2.83784e+2, -118804.21, -330638.56, 256.13992, -0.0043490366, -0.027182369, -118803.9, 40110.438, 0.0, 10.010432, 9.982392 
3.503952e+1, 2.9376644e+2, -12727.796, -229282.67, 1192.377, 0.019142406, -0.018104427, -12721.23, 48365.12, 0.0, 10.011007, 9.982341 
3.504318e+1, 3.0375162e+2, 90366.67, -90731.34, 3051.172, 0.017260112, -0.018943176, 90418.06, 90418.06, 0.0, 10.011995, 9.988 
3.504675e+1, 3.1373942e+2, 114029.59, -79523.6, 1369.9102, -0.025217982, -0.038274534, 114039.29, 114039.29, 0.0, 10.013634, 9.98798 
4.4970393e+1, 1.2389894e+2, -1798631.8, -1731642.5, -1659.4023, 0.000045846555, -0.024004148, -1731601.4, -5813.5576, 0.0, 9.993277, 10.002147 
4.4974953e+1, 1.3389972e+2, -1690545.6, -1644701.3, -2943.5305, 0.00048809013, -0.02433859, -1644513.0, -16732.633, 0.0, 9.994652, 10.000722 
4.4979596e+1, 1.4389972e+2, -1586564.4, -1560409.6, -1651.1047, -0.0016777288, -0.023103798, -1560305.8, -30525.43, 0.0, 9.995777, 9.999238 
4.4984463e+1, 1.5389884e+2, -1477509.0, -1457389.4, -1428.7526, -0.006100634, -0.032450844, -1457288.5, -25499.64, 0.0, 9.996542, 9.999204 
4.4989288e+1, 1.6389695e+2, -1382512.5, -1386479.0, -2495.495, -0.0051645907, -0.032948636, -1381308.1, -47500.668, 0.0, 9.997446, 9.996919 
4.499408e+1, 1.738939e+2, -1268498.5, -1281737.3, -3231.678, 0.004243548, -0.019721918, -1267751.8, -31914.479, 0.0, 9.998579, 9.996823 
4.4998795e+1, 1.8388958e+2, -1171333.6, -1212020.1, -3298.4495, 0.006568358, -0.015672768, -1171067.9, -33188.227, 0.0, 9.999726, 9.994337 
4.5003423e+1, 1.9388369e+2, -1056922.8, -1107418.8, -2397.154, -0.0022725153, -0.02819831, -1056809.3, -16871.803, 0.0, 10.000902, 9.994213 
4.5008132e+1, 2.0387685e+2, -958680.44, -1032903.2, -1864.5521, -0.004842796, -0.032274783, -958633.6, -16629.12, 0.0, 10.001937, 9.992108 
4.5012993e+1, 2.1386896e+2, -849054.2, -930106.94, -2396.5342, 0.0022906056, -0.025017578, -848983.4, -4901.632, 0.0, 10.002764, 9.99203 
4.5017743e+1, 2.2385989e+2, -752677.6, -858666.8, -3016.4768, 0.0040009418, -0.023633739, -752591.9, -6421.361, 0.0, 10.003764, 9.989732 
4.502232e+1, 2.3384944e+2, -636855.9, -753181.5, -2577.6375, -0.002657064, -0.033586085, -636798.75, 11474.215, 0.0, 10.00503, 9.989626 
4.502698e+1, 2.4383803e+2, -537804.5, -679286.5, -2576.636, -0.0033816923, -0.032046355, -537757.56, 12627.293, 0.0, 10.006161, 9.987431 
4.503174e+1, 2.5382555e+2, -427001.06, -576044.5, -3746.7056, 0.004740545, -0.014905293, -426906.94, 25600.287, 0.0, 10.007076, 9.987343 
4.5036533e+1, 2.638117e+2, -333244.9, -508835.53, -2902.1323, 0.0048715873, -0.010255946, -333196.94, 21445.885, 0.0, 10.008021, 9.984778 
4.504134e+1, 2.737962e+2, -221682.52, -405704.28, -1149.5494, -0.007661316, -0.028110584, -221675.33, 35119.527, 0.0, 10.00901, 9.984648 
4.5046097e+1, 2.8377968e+2, -123249.875, -332881.63, -2305.314, -0.0060605565, -0.031878345, -123224.53, 35731.91, 0.0, 10.01013, 9.982384 
4.5050728e+1, 2.937622e+2, -6512.687, -226481.06, -3863.5146, 0.017723227, -0.01633491, -6444.849, 54683.21, 0.0, 10.011442, 9.982323 
4.505546e+1, 3.0374733e+2, 97723.68, -88586.68, -1512.6176, 0.017769031, -0.014314179, 97735.96, 97735.96, 0.0, 10.012563, 9.987873 
4.5060292e+1, 3.1373495e+2, 109082.91, -83505.57, -451.63297, -0.020414228, -0.036476996, 109083.96, 109083.96, 0.0, 10.013361, 9.987837 
5.496361e+1, 1.2389364e+2, -1798353.3, -1731169.6, 3693.6035, -0.0071332157, -0.020460978, -1730967.3, -5127.252, 0.0, 9.99328, 10.002176 
5.496959e+1, 1.338944e+2, -1690312.4, -1644206.8, 2226.8054, -0.001491482, -0.025226913, -1644099.4, -16266.893, 0.0, 9.994651, 10.000756 
5.497542e+1, 1.4389443e+2, -1586527.4, -1560356.0, 1468.8197, 0.0024801744, -0.022085233, -1560273.8, -30441.705, 0.0, 9.995778, 9.999241 
5.498113e+1, 1.5389366e+2, -1477470.0, -1457381.8, 1475.1296, 0.0054966263, -0.021477725, -1457274.0, -25434.338, 0.0, 9.996545, 9.999203 
5.498682e+1, 1.6389164e+2, -1383628.4, -1388880.9, 1611.305, 0.0028815526, -0.025043549, -1383173.5, -49314.26, 0.0, 9.997451, 9.996753 
5.4992545e+1, 1.7388822e+2, -1269826.3, -1284480.6, 1058.9465, -0.007678383, -0.034601633, -1269750.1, -33857.113, 0.0, 9.998579, 9.996636 
5.4998374e+1, 1.8388383e+2, -1170027.0, -1209326.6, 1113.314, -0.009193028, -0.03381938, -1169995.5, -32059.563, 0.0, 9.999726, 9.99452 
5.500438e+1, 1.9387841e+2, -1055281.1, -1104053.6, 2049.5925, 0.0033244954, -0.019734368, -1055195.1, -15206.139, 0.0, 10.000902, 9.994442 
5.5010194e+1, 2.0387176e+2, -959434.2, -1034505.4, 1383.9119, 0.0069444384, -0.014976178, -959408.7, -17354.195, 0.0, 10.001939, 9.991998 
5.5015707e+1, 2.1386352e+2, -850131.25, -932363.6, 718.93933, -0.0031259642, -0.026339391, -850124.94, -5989.88, 0.0, 10.002766, 9.991876 
5.502141e+1, 2.238544e+2, -751930.8, -857136.4, 1567.303, -0.0058168457, -0.02941145, -751907.44, -5682.8013, 0.0, 10.003764, 9.989836 
5.5027413e+1, 2.3384424e+2, -635904.0, -751189.25, 2209.8215, 0.0031608965, -0.021583948, -635861.7, 12462.386, 0.0, 10.005029, 9.989762 
5.503324e+1, 2.4383278e+2, -539639.2, -683056.2, 1013.6019, 0.0064649438, -0.019789642, -539632.0, 10804.243, 0.0, 10.00616, 9.987173 
5.5038786e+1, 2.5381973e+2, -429181.47, -580590.3, -297.08063, 0.0009218819, -0.02948104, -429180.9, 23383.27, 0.0, 10.007078, 9.98703 
5.5044496e+1, 2.6380578e+2, -330673.7, -503492.2, 782.68256, -0.001671317, -0.0331217, -330670.16, 24030.479, 0.0, 10.00802, 9.985144 
5.505044e+1, 2.7379096e+2, -218467.08, -399028.44, 2575.595, 0.0006182655, -0.030076355, -218430.34, 38415.754, 0.0, 10.00901, 9.985104 
5.505627e+1, 2.8377464e+2, -124934.12, -336369.06, 2494.2412, -0.0020011885, -0.027799089, -124904.695, 34100.906, 0.0, 10.010129, 9.982145 
5.5061877e+1, 2.9375666e+2, -8873.024, -231384.05, 1091.1074, -0.0124063715, -0.02962306, -8867.674, 52314.613, 0.0, 10.011442, 9.981986 
5.506778e+1, 3.0374166e+2, 98711.19, -86485.664, 1730.4568, -0.007404142, -0.025100237, 98727.35, 98727.35, 0.0, 10.01256, 9.988017 
5.5074096e+1, 3.1372985e+2, 110517.3, -80433.37, 2548.0754, 0.022503365, -0.013044299, 110551.29, 110551.29, 0.0, 10.013358, 9.988049 
6.495708e+1, 1.2388714e+2, -1792451.3, -1727235.6, -835.6585, -0.005211633, -0.022360567, -1727224.9, -1321.2426, 0.0, 9.993633, 10.00227 
6.4964074e+1, 1.33888e+2, -1694316.1, -1645016.5, -2091.694, -0.0016304805, -0.027720392, -1644927.9, -17032.674, 0.0, 9.994329, 10.000855 
6.497094e+1, 1.4388809e+2, -1594248.3, -1564619.5, -2628.4502, 0.0019709207, -0.02324149, -1564388.1, -34493.81, 0.0, 9.9952755, 9.999195 
6.497772e+1, 1.5388729e+2, -1476716.0, -1457747.4, -3091.262, 0.005761582, -0.01927169, -1457256.4, -25354.121, 0.0, 9.996628, 9.999136 
6.4984477e+1, 1.6388522e+2, -1378259.8, -1386857.1, -2824.74, 0.003568059, -0.02189093, -1377414.6, -43492.28, 0.0, 9.997841, 9.996699 
6.4991266e+1, 1.7388168e+2, -1266218.0, -1283303.0, -2362.023, -0.007117981, -0.034443088, -1265897.5, -29940.555, 0.0, 9.998849, 9.996583 
6.499813e+1, 1.8387729e+2, -1168769.1, -1208145.4, -2359.919, -0.008795823, -0.035359178, -1168628.1, -30628.115, 0.0, 9.999786, 9.99457 
6.500514e+1, 1.9387195e+2, -1058798.1, -1105047.0, -2678.9446, 0.0030346923, -0.020858329, -1058643.4, -18590.96, 0.0, 10.00063, 9.994504 
6.5011984e+1, 2.038653e+2, -963504.2, -1036581.06, -3456.8582, 0.006433833, -0.015549119, -963341.06, -21223.457, 0.0, 10.001664, 9.991987 
6.501858e+1, 2.1385707e+2, -846930.44, -931037.9, -3080.7522, -0.0031283537, -0.02603843, -846817.75, -2619.4575, 0.0, 10.002994, 9.991854 
6.5025336e+1, 2.2384791e+2, -747544.25, -855341.6, -2418.1748, -0.0050634164, -0.028340733, -747490.0, -1201.9558, 0.0, 10.004077, 9.989804 
6.5032333e+1, 2.3383774e+2, -639698.8, -753382.56, -3068.712, 0.004650695, -0.020035233, -639616.06, 8771.72, 0.0, 10.004784, 9.989729 
6.50392e+1, 2.4382626e+2, -545568.94, -685934.94, -3530.98, 0.006884582, -0.019215362, -545480.2, 5020.0674, 0.0, 10.0057535, 9.987171 
6.504585e+1, 2.5381318e+2, -428274.84, -580117.2, -2469.6355, -0.002643055, -0.031936157, -428234.7, 24393.707, 0.0, 10.007137, 9.987033 
6.505262e+1, 2.6379925e+2, -326467.13, -500972.1, -2026.118, -0.0041631046, -0.035649393, -326443.6, 28321.064, 0.0, 10.008287, 9.985186 
6.505953e+1, 2.737845e+2, -217464.67, -398000.8, -3371.5469, 0.006975889, -0.028100396, -217401.73, 39507.516, 0.0, 10.009054, 9.985151 
6.506642e+1, 2.8376824e+2, -126498.95, -337353.0, -2979.0232, 0.0054884874, -0.025266573, -126456.875, 32611.635, 0.0, 10.010031, 9.982122 
6.507322e+1, 2.9375017e+2, -10640.312, -232594.67, -1998.9614, -0.016426582, -0.032614857, -10622.31, 50623.73, 0.0, 10.011335, 9.981953 
6.50802e+1, 3.037352e+2, 97709.46, -85515.44, -1917.7051, -0.014293275, -0.030071089, 97729.53, 97729.53, 0.0, 10.012426, 9.988147 
6.5087396e+1, 3.1372353e+2, 108740.35, -79603.734, -1827.1376, 0.02692404, -0.014174804, 108758.08, 108758.08, 0.0, 10.013161, 9.988199 
7.495082e+1, 1.23879425e+2, -1791236.1, -1724841.6, 2072.2278, 0.0042205392, -0.029393556, -1724777.0, 1202.0171, 0.0, 9.993639, 10.002428 
7.495842e+1, 1.3388048e+2, -1693092.4, -1642494.8, 504.70187, -0.0006869393, -0.031935543, -1642489.6, -14521.009, 0.0, 9.994329, 10.001027 
7.4966156e+1, 1.4388064e+2, -1594935.3, -1566042.0, 2199.0903, -0.0042740055, -0.026605224, -1565875.6, -35908.426, 0.0, 9.9952755, 9.999098 
7.4974227e+1, 1.5387966e+2, -1477651.4, -1459687.6, 2045.2092, -0.0066695707, -0.025692763, -1459457.8, -27480.863, 0.0, 9.996628, 9.999003 
7.498224e+1, 1.638776e+2, -1377798.0, -1385944.4, 1104.6227, -0.0045374073, -0.023423262, -1377650.9, -43653.824, 0.0, 9.997842, 9.996759 
7.4990237e+1, 1.7387433e+2, -1265597.4, -1282050.3, 1446.5742, 0.0050828457, -0.019264223, -1265471.1, -29441.898, 0.0, 9.99885, 9.996668 
7.4998075e+1, 1.8386993e+2, -1169294.4, -1209279.1, 881.5481, 0.006754815, -0.0202233, -1169275.0, -31202.748, 0.0, 9.999789, 9.994491 
7.5005704e+1, 1.9386424e+2, -1059492.8, -1106501.1, 515.41797, -0.004030049, -0.03157747, -1059487.1, -19359.168, 0.0, 10.000632, 9.994404 
7.501352e+1, 2.038575e+2, -962842.2, -1035227.56, 1350.2189, -0.0072928555, -0.033932425, -962817.06, -20623.191, 0.0, 10.001665, 9.992079 
7.5021625e+1, 2.1384957e+2, -846106.1, -929335.7, 1946.0375, 0.0012251042, -0.024201939, -846060.6, -1789.1188, 0.0, 10.002993, 9.991969 
7.5029516e+1, 2.2384048e+2, -748700.5, -857735.44, 489.25775, 0.004960973, -0.02058395, -748698.25, -2337.426, 0.0, 10.004078, 9.98964 
7.503708e+1, 2.3382995e+2, -641092.56, -756290.6, -428.62515, 0.0010309686, -0.028963814, -641090.94, 7373.19, 0.0, 10.004785, 9.98953 
7.504486e+1, 2.4381843e+2, -543754.8, -682215.3, 1395.5355, -0.0030044243, -0.030327432, -543740.75, 6836.1167, 0.0, 10.005755, 9.987423 
7.505295e+1, 2.5380588e+2, -426091.25, -575541.44, 2765.127, -0.006981027, -0.022686427, -426040.13, 26659.943, 0.0, 10.007134, 9.987346 
7.5060916e+1, 2.637921e+2, -328434.34, -504968.56, 1118.7833, -0.0038081708, -0.018370224, -328427.28, 26407.771, 0.0, 10.008285, 9.984913 
7.506863e+1, 2.7377686e+2, -219925.61, -403148.2, -501.85583, 0.010655179, -0.022236615, -219924.23, 37060.027, 0.0, 10.009056, 9.9847975 
7.5076556e+1, 2.8376043e+2, -125147.68, -334572.97, 1689.5836, 0.015213657, -0.024258755, -125134.055, 34011.066, 0.0, 10.010032, 9.982312 
7.5084764e+1, 2.9374266e+2, -8860.921, -228757.48, 2924.363, 0.0038582012, -0.025830094, -8822.037, 52497.324, 0.0, 10.011329, 9.982218 
7.5092727e+1, 3.0372784e+2, 98424.086, -83907.15, 1092.8702, -0.004531446, -0.029378498, 98430.64, 98430.64, 0.0, 10.012423, 9.988258 
7.5100213e+1, 3.1371605e+2, 109448.2, -78235.23, 885.3331, -0.007974864, -0.03910597, 109452.38, 109452.38, 0.0, 10.0131645, 9.988291 
8.494438e+1, 1.23870954e+2, -1794760.9, -1727523.5, -610.4128, 0.0060734744, -0.027839668, -1727518.0, -1455.8179, 0.0, 9.993439, 10.002343 
8.49529e+1, 1.338719e+2, -1689033.4, -1641533.6, -4435.831, -0.0010710302, -0.031128975, -1641123.0, -13070.242, 0.0, 9.994647, 10.000936 
8.4961647e+1, 1.43872e+2, -1588334.3, -1562962.8, -2942.0242, -0.0049740425, -0.02700812, -1562626.1, -32574.21, 0.0, 9.9957285, 9.9990835 
8.497085e+1, 1.5387098e+2, -1477561.8, -1459694.8, -2063.4795, -0.007343806, -0.028831897, -1459459.5, -27397.727, 0.0, 9.996635, 9.998997 
8.497994e+1, 1.6386898e+2, -1381115.4, -1386563.4, -2818.5496, -0.004764288, -0.026389614, -1379919.6, -45837.984, 0.0, 9.997572, 9.996847 
8.498895e+1, 1.7386582e+2, -1269059.8, -1282631.4, -2430.6064, 0.0059486357, -0.01740566, -1268637.5, -32525.12, 0.0, 9.998566, 9.996764 
8.499781e+1, 1.8386146e+2, -1171923.9, -1211853.5, -2869.98, 0.0076801153, -0.016907655, -1171718.6, -33563.406, 0.0, 9.999665, 9.994374 
8.500649e+1, 1.9385557e+2, -1056096.9, -1106485.9, -3548.8865, -0.0045637474, -0.031726997, -1055848.1, -15635.407, 0.0, 10.000934, 9.994256 
8.5015345e+1, 2.0384876e+2, -957519.44, -1031934.25, -3059.0427, -0.0077830506, -0.03597235, -957393.94, -15114.498, 0.0, 10.001996, 9.99214 
8.5024506e+1, 2.1384095e+2, -849128.3, -929814.1, -2681.7036, 0.002896445, -0.025504177, -849039.25, -4683.118, 0.0, 10.002743, 9.992055 
8.5033447e+1, 2.2383188e+2, -753813.7, -860547.06, -3742.948, 0.006568433, -0.0213685, -753682.56, -7237.5093, 0.0, 10.003742, 9.989609 
8.5042024e+1, 2.3382129e+2, -636247.1, -754475.6, -3538.0825, -0.0009800202, -0.029365662, -636141.3, 12407.521, 0.0, 10.005138, 9.98948 
8.5050833e+1, 2.4380979e+2, -536616.3, -678347.1, -1994.3746, -0.004601514, -0.030095557, -536588.3, 14073.334, 0.0, 10.006225, 9.987459 
8.505998e+1, 2.5379726e+2, -430330.72, -577091.0, -2642.1777, -0.001998861, -0.021445386, -430283.16, 22501.104, 0.0, 10.006823, 9.987388 
8.506898e+1, 2.637835e+2, -336409.2, -509315.3, -4167.8345, 0.0011450312, -0.017148314, -336308.78, 18610.424, 0.0, 10.007757, 9.984868 
8.5077715e+1, 2.737682e+2, -217810.56, -402772.3, -3588.188, 0.0046768333, -0.02269613, -217740.98, 39328.223, 0.0, 10.009229, 9.984738 
8.508667e+1, 2.8375176e+2, -120409.66, -331911.72, -1381.3975, 0.007822242, -0.024637219, -120400.63, 38829.645, 0.0, 10.01034, 9.982344 
8.509592e+1, 2.9373404e+2, -15354.277, -231391.11, -1898.7241, 0.010309871, -0.023372917, -15337.591, 46066.24, 0.0, 10.0108595, 9.982261 
8.510495e+1, 3.037193e+2, 90597.48, -86844.91, -3571.2188, 0.004674153, -0.026530327, 90669.32, 90669.32, 0.0, 10.011846, 9.988333 
8.5113525e+1, 3.1370756e+2, 116090.07, -74194.336, -3709.8545, -0.014021803, -0.039824665, 116162.37, 116162.37, 0.0, 10.013586, 9.988363 
9.493774e+1, 1.23861685e+2, -1797198.1, -1732508.5, 4089.362, -0.0018823275, -0.017467855, -1732251.0, -6097.9663, 0.0, 9.993439, 10.002004 
9.4947535e+1, 1.3386224e+2, -1691599.3, -1646777.0, 98.09037, -0.003199301, -0.025188435, -1646776.8, -18629.092, 0.0, 9.994646, 10.000578 
9.4957423e+1, 1.4386214e+2, -1587799.5, -1561865.0, 572.0592, -0.0004960407, -0.024158586, -1561852.4, -31703.625, 0.0, 9.995728, 9.999158 
9.496759e+1, 1.5386122e+2, -1476645.0, -1457815.6, 1370.3479, 0.0031358337, -0.02884508, -1457716.5, -25558.943, 0.0, 9.9966345, 9.999125 
9.4977593e+1, 1.6385928e+2, -1380303.1, -1384917.0, 895.97894, 0.0020662607, -0.030852051, -1380135.1, -45958.69, 0.0, 9.997573, 9.996958 
9.498741e+1, 1.7385618e+2, -1268268.6, -1281015.8, 1338.1285, -0.0053273495, -0.028922122, -1268129.8, -31922.938, 0.0, 9.998566, 9.996873 
9.4997334e+1, 1.8385184e+2, -1173021.6, -1214127.1, 1796.1727, -0.0068472973, -0.025299001, -1172943.3, -34693.855, 0.0, 9.999665, 9.994218 
9.500748e+1, 1.9384594e+2, -1057460.6, -1109282.3, 1258.8407, 0.00055596884, -0.021510513, -1057430.0, -17122.82, 0.0, 10.000932, 9.994065 
9.501746e+1, 2.038391e+2, -957311.2, -1031473.06, -33.212433, 0.0039795926, -0.021766935, -957311.2, -14936.733, 0.0, 10.001995, 9.992171 
9.502724e+1, 2.1383113e+2, -848688.2, -928915.75, 125.13094, 0.0011003116, -0.029933374, -848688.0, -4235.676, 0.0, 10.002743, 9.992116 
9.5037115e+1, 2.238221e+2, -753094.9, -859095.2, 1230.3068, -0.0011900859, -0.030530887, -753080.56, -6539.7363, 0.0, 10.003743, 9.989706 
9.504715e+1, 2.3381178e+2, -635553.44, -752982.6, 1735.2843, -0.0024425576, -0.02143344, -635527.8, 13114.192, 0.0, 10.005135, 9.989583 
9.505711e+1, 2.438003e+2, -537920.7, -680986.44, 563.9589, 0.0009183141, -0.018601125, -537918.44, 12836.167, 0.0, 10.006222, 9.987279 
9.506694e+1, 2.537874e+2, -431841.94, -580264.8, -431.48337, 0.011572369, -0.027925659, -431840.7, 21040.389, 0.0, 10.0068245, 9.987169 
9.507683e+1, 2.637735e+2, -335099.78, -506682.2, 981.65094, 0.009653535, -0.03173535, -335094.16, 19923.021, 0.0, 10.007761, 9.985045 
9.508678e+1, 2.7375847e+2, -216236.16, -399417.5, 1966.5624, -0.012100762, -0.029365413, -216215.05, 40949.125, 0.0, 10.009225, 9.984968 
9.5096755e+1, 2.837422e+2, -121335.625, -333706.78, 955.37256, -0.017584797, -0.026366133, -121331.33, 37992.727, 0.0, 10.010335, 9.982223 
9.5106703e+1, 2.937243e+2, -16485.947, -233869.28, -16.585108, 0.0032189707, -0.025189584, -16485.945, 45013.5, 0.0, 10.010865, 9.982088 
9.5116884e+1, 3.0370954e+2, 91022.086, -86155.27, 2397.3965, 0.0130077, -0.021705337, 91054.516, 91054.516, 0.0, 10.011854, 9.988374 
9.5127314e+1, 3.1369802e+2, 116517.65, -73166.31, 2869.4287, 0.00467256, -0.017324127, 116561.05, 116561.05, 0.0, 10.013579, 9.988435 
1.0493121e+2, 1.2385102e+2, -1795858.9, -1731863.1, -1255.1841, -0.003356121, -0.01918511, -1731838.5, -5580.955, 0.0, 9.993527, 10.002001 
1.0494216e+2, 1.338516e+2, -1691941.8, -1646813.4, -2667.2563, -0.0031044697, -0.023954745, -1646656.3, -18404.412, 0.0, 9.994615, 10.000589 
1.04953125e+2, 1.4385153e+2, -1589029.8, -1562534.9, -1637.339, 0.0015023662, -0.020816242, -1562434.1, -32181.4, 0.0, 9.995646, 9.999149 
1.0496422e+2, 1.538506e+2, -1477188.1, -1458209.4, -1970.3728, 0.0041169315, -0.02566042, -1458006.9, -25745.307, 0.0, 9.996603, 9.99911 
1.04975194e+2, 1.638486e+2, -1379749.9, -1385679.1, -3138.62, 0.0019235028, -0.029521907, -1378397.1, -44115.867, 0.0, 9.997654, 9.996863 
1.0498611e+2, 1.7384535e+2, -1264596.4, -1280401.0, -4230.1357, -0.006905283, -0.032114767, -1263535.4, -27222.416, 0.0, 9.998865, 9.996766 
1.0499711e+2, 1.8384098e+2, -1168745.5, -1211135.5, -4106.7227, -0.007876395, -0.029267857, -1168351.4, -29995.41, 0.0, 9.999915, 9.994297 
1.0500833e+2, 1.9383523e+2, -1059815.6, -1109265.9, -2493.971, 0.0028491055, -0.020539194, -1059690.1, -19277.855, 0.0, 10.000721, 9.994166 
1.0501932e+2, 2.0382842e+2, -962443.4, -1034776.6, -3075.1443, 0.006496027, -0.018414656, -962312.9, -19833.803, 0.0, 10.001679, 9.992097 
1.0503003e+2, 2.1382035e+2, -847321.44, -929345.9, -4109.1265, -0.0010476846, -0.028255474, -847116.06, -2558.0366, 0.0, 10.002883, 9.992016 
1.0504093e+2, 2.2381125e+2, -749881.6, -857234.56, -3406.6367, -0.0042219944, -0.030257143, -749773.6, -3126.4985, 0.0, 10.003948, 9.989731 
1.0505213e+2, 2.3380096e+2, -640154.94, -754751.6, -3307.1733, -0.0006478703, -0.022421014, -640059.56, 8688.39, 0.0, 10.0048, 9.98962 
1.05063155e+2, 2.437895e+2, -544095.0, -684138.56, -4814.5225, 0.003813522, -0.020556126, -543929.7, 6930.8286, 0.0, 10.005805, 9.987262 
1.0507386e+2, 2.5377652e+2, -428564.5, -578941.2, -4479.3936, 0.009452757, -0.030372083, -428431.2, 24556.08, 0.0, 10.007059, 9.9871435 
1.05084755e+2, 2.6376262e+2, -329413.13, -503818.44, -2090.3542, 0.006978819, -0.03364489, -329388.06, 25735.385, 0.0, 10.008143, 9.985054 
1.050959e+2, 2.7374768e+2, -220024.2, -401102.16, -2625.1494, -0.008322017, -0.02894426, -219986.16, 37283.97, 0.0, 10.008956, 9.98498 
1.0510696e+2, 2.8373137e+2, -126439.16, -336024.63, -4701.7705, -0.012755205, -0.025577916, -126333.73, 33096.13, 0.0, 10.009976, 9.982234 
1.05117775e+2, 2.9371348e+2, -9674.372, -230449.45, -4417.829, 0.00010059987, -0.027337702, -9586.005, 52019.402, 0.0, 10.011327, 9.982098 
1.0512898e+2, 3.0369866e+2, 98295.195, -84555.664, -1011.0807, 0.0080791395, -0.023069957, 98300.79, 98300.79, 0.0, 10.012434, 9.988203 
1.0514069e+2, 3.1368703e+2, 108719.36, -79147.36, -2445.301, 0.007826634, -0.011729004, 108751.19, 108751.19, 0.0, 10.013134, 9.988236 
1.1492479e+2, 1.2383892e+2, -1793434.3, -1726859.9, 2933.7783, 0.00056139834, -0.03335066, -1726730.9, -354.78882, 0.0, 9.9935255, 10.00234 
1.149368e+2, 1.3383998e+2, -1689233.1, -1641207.3, 1425.4045, -0.0012220938, -0.027680166, -1641165.0, -12799.335, 0.0, 9.994613, 10.00097 
1.14948764e+2, 1.4384015e+2, -1589714.8, -1563890.5, 2015.2438, 0.00021307782, -0.017116508, -1563734.1, -33370.027, 0.0, 9.995644, 9.999059 
1.1496073e+2, 1.538391e+2, -1478315.4, -1460501.9, 1653.5259, -0.005075775, -0.019122925, -1460349.8, -27975.256, 0.0, 9.996601, 9.998954 
1.1497278e+2, 1.6383688e+2, -1381850.3, -1390013.1, 1314.5991, -0.006070713, -0.022162158, -1381643.8, -47247.586, 0.0, 9.997654, 9.996568 
1.14985056e+2, 1.738333e+2, -1266846.0, -1285044.3, 367.93845, 0.00060922554, -0.026969474, -1266838.5, -30407.252, 0.0, 9.998865, 9.996449 
1.1499715e+2, 1.8382883e+2, -1166502.6, -1206520.6, -897.9016, 0.0038321165, -0.028909113, -1166482.5, -28007.436, 0.0, 9.999916, 9.99461 
1.1500903e+2, 1.938234e+2, -1056991.3, -1103450.4, 548.52234, 0.0015725896, -0.028789531, -1056984.8, -16456.621, 0.0, 10.000721, 9.994561 
1.1502093e+2, 2.0381674e+2, -963692.0, -1037370.6, 1287.7959, -0.0011459609, -0.025910906, -963669.5, -21076.127, 0.0, 10.001679, 9.991919 
1.1503288e+2, 2.1380857e+2, -849131.56, -933073.9, 440.92752, -0.0041957754, -0.0205874, -849129.25, -4455.7383, 0.0, 10.002882, 9.991761 
1.1504489e+2, 2.2379933e+2, -750200.7, -857896.94, -70.771706, -0.0034482833, -0.020726947, -750200.6, -3436.5413, 0.0, 10.003949, 9.989684 
1.1505698e+2, 2.3378883e+2, -640292.6, -755022.5, -118.584854, 0.0033282451, -0.032018527, -640292.5, 8574.352, 0.0, 10.004799, 9.989602 
1.15068965e+2, 2.4377735e+2, -543074.4, -682015.9, -292.8596, 0.0030530076, -0.035563614, -543073.75, 7905.6387, 0.0, 10.005805, 9.987406 
1.15080744e+2, 2.5376472e+2, -427420.56, -576510.0, 230.66083, -0.00844271, -0.028935857, -427420.22, 25682.8, 0.0, 10.007056, 9.98731 
1.1509276e+2, 2.6375094e+2, -330534.22, -506104.0, 1127.3625, -0.0074007874, -0.023116663, -330526.97, 24711.166, 0.0, 10.008142, 9.984897 
1.15105085e+2, 2.7373576e+2, -221445.81, -404038.1, 393.86984, 0.014047401, -0.021849811, -221444.95, 35942.195, 0.0, 10.008956, 9.984778 
1.1511727e+2, 2.8371936e+2, -125401.555, -333851.2, 92.82742, 0.01985258, -0.022546183, -125401.516, 34146.2, 0.0, 10.009975, 9.982382 
1.15129106e+2, 2.937016e+2, -8341.872, -227597.97, 629.0815, 0.00018510417, -0.029301863, -8340.067, 53381.57, 0.0, 10.011323, 9.982293 
1.15141235e+2, 3.0368668e+2, 95602.234, -90082.53, 1889.1405, -0.010537904, -0.029963579, 95621.45, 95621.45, 0.0, 10.01243, 9.987824 
1.151537e+2, 3.1367454e+2, 105438.44, -85960.48, 200.30496, -0.0059209024, -0.022974497, 105438.65, 105438.65, 0.0, 10.013134, 9.987768 
1.2491837e+2, 1.2382614e+2, -1791837.8, -1726311.4, 595.236, 0.0012380971, -0.03351552, -1726306.0, 195.23332, 0.0, 9.993643, 10.002317 
1.2493136e+2, 1.3382718e+2, -1690357.1, -1641792.5, -3984.249, -0.0022109018, -0.03048084, -1641467.8, -12976.709, 0.0, 9.994536, 10.000964 
1.2494437e+2, 1.4382733e+2, -1590846.4, -1564510.8, -4362.15, 0.00002628681, -0.020507438, -1563807.0, -33317.273, 0.0, 9.995568, 9.999048 
1.24957435e+2, 1.5382628e+2, -1475062.0, -1459009.4, -3599.547, -0.005253962, -0.021034371, -1458239.1, -25739.164, 0.0, 9.996824, 9.998944 
1.2497055e+2, 1.6382407e+2, -1378703.8, -1388909.6, -2869.0781, -0.0057095494, -0.02201017, -1377952.5, -43430.684, 0.0, 9.997886, 9.996527 
1.2498382e+2, 1.7382047e+2, -1270370.5, -1287242.1, -1827.7382, 0.002142979, -0.023984117, -1270174.8, -33617.605, 0.0, 9.998646, 9.996404 
1.2499691e+2, 1.8381597e+2, -1171400.6, -1209032.5, -2888.7517, 0.004892851, -0.025833813, -1171180.1, -32579.018, 0.0, 9.999587, 9.9945965 
1.2500978e+2, 1.938105e+2, -1055561.4, -1102856.4, -4438.841, -0.00064803986, -0.029876826, -1055148.4, -14493.633, 0.0, 10.000821, 9.99455 
1.2502272e+2, 2.038038e+2, -959527.4, -1035595.4, -4571.557, -0.0034935586, -0.029149804, -959253.6, -16533.313, 0.0, 10.001973, 9.991894 
1.2503584e+2, 2.1379559e+2, -847690.5, -932662.9, -3694.2407, -0.0019103108, -0.022746347, -847530.2, -2729.5583, 0.0, 10.002992, 9.991733 
1.2504888e+2, 2.2378634e+2, -750293.7, -858001.06, -3957.727, 0.00062035565, -0.021715222, -750148.44, -3257.1616, 0.0, 10.003943, 9.989676 
1.2506178e+2, 2.3377585e+2, -640377.7, -755120.5, -4022.6328, 0.0043296977, -0.03159105, -640236.8, 8757.191, 0.0, 10.004795, 9.9895935 
1.2507474e+2, 2.4376439e+2, -543158.7, -681790.9, -3210.161, 0.0019011969, -0.033813998, -543084.4, 8021.983, 0.0, 10.005786, 9.987428 
1.2508775e+2, 2.537518e+2, -427954.6, -576488.75, -3562.5962, -0.010474602, -0.026060775, -427869.2, 25360.475, 0.0, 10.007007, 9.987331 
1.2510085e+2, 2.63738e+2, -331544.44, -506814.1, -4156.612, -0.008877303, -0.021124968, -331445.94, 23918.904, 0.0, 10.008081, 9.984875 
1.2511404e+2, 2.7372274e+2, -222084.83, -404674.06, -3850.0315, 0.014868071, -0.023667362, -222003.69, 35510.785, 0.0, 10.008925, 9.984747 
1.2512723e+2, 2.8370634e+2, -126352.086, -334736.06, -2424.4133, 0.021094814, -0.025098212, -126323.88, 33351.53, 0.0, 10.009927, 9.982341 
1.2514034e+2, 2.9368857e+2, -10633.437, -229158.2, -3401.4297, -0.0013160617, -0.027085153, -10580.505, 51268.832, 0.0, 10.011183, 9.98225 
1.2515357e+2, 3.0367365e+2, 93910.33, -89779.72, -3437.5664, -0.011848346, -0.02911712, 93974.64, 93974.64, 0.0, 10.012264, 9.987922 
1.2516683e+2, 3.136615e+2, 105041.586, -84820.555, -1258.6157, -0.0022141256, -0.033553436, 105049.92, 105049.92, 0.0, 10.013048, 9.987886 
1.3491197e+2, 1.2381267e+2, -1794697.9, -1732116.4, 4035.1692, -0.0034355852, -0.019024666, -1731857.3, -5223.9546, 0.0, 9.99364, 10.001924 
1.3492586e+2, 1.3381314e+2, -1693276.6, -1647713.3, -642.6779, -0.006727105, -0.032157414, -1647704.1, -19075.516, 0.0, 9.994534, 10.000562 
1.3493994e+2, 1.4381301e+2, -1590292.3, -1563328.3, 194.79672, 0.00021152254, -0.03132857, -1563326.9, -32696.924, 0.0, 9.995565, 9.999129 
1.3495435e+2, 1.5381211e+2, -1474054.5, -1456940.3, 1163.4072, 0.0028592432, -0.031558845, -1456861.5, -24222.791, 0.0, 9.996823, 9.9990835 
1.3496852e+2, 1.638101e+2, -1377112.6, -1385664.8, 199.93697, 0.0021562355, -0.02917369, -1377107.9, -42449.465, 0.0, 9.997887, 9.996746 
1.3498242e+2, 1.738068e+2, -1268728.4, -1283879.9, 1038.3274, -0.0028709508, -0.023185145, -1268657.5, -31966.75, 0.0, 9.998647, 9.996631 
1.349964e+2, 1.8380234e+2, -1173772.0, -1213928.3, 1563.6663, -0.0056688976, -0.020032264, -1173711.1, -34976.563, 0.0, 9.999586, 9.994262 
1.3501056e+2, 1.9379644e+2, -1058504.3, -1108911.8, 246.6349, -0.0049434677, -0.023775194, -1058503.0, -17710.803, 0.0, 10.00082, 9.994136 
1.3502473e+2, 2.0378952e+2, -958606.8, -1033676.8, -648.8971, -0.0018947693, -0.02802017, -958601.2, -15741.144, 0.0, 10.001971, 9.992023 
1.3503891e+2, 2.137814e+2, -846265.2, -929697.75, 145.88098, 0.0048776832, -0.034550413, -846264.94, -1325.3507, 0.0, 10.002991, 9.991934 
1.3505289e+2, 2.2377229e+2, -750054.25, -857492.7, -702.4604, 0.0069083613, -0.033124734, -750049.6, -3020.7412, 0.0, 10.003943, 9.98971 
1.3506655e+2, 2.3376203e+2, -640296.9, -754966.44, -843.55286, 0.0015492864, -0.02129642, -640290.7, 8838.952, 0.0, 10.004795, 9.989603 
1.350805e+2, 2.437506e+2, -543811.8, -683178.25, 1177.0974, -0.0007631806, -0.015591518, -543801.9, 7439.7773, 0.0, 10.005788, 9.98733 
1.3509488e+2, 2.5373778e+2, -428820.84, -578167.9, 1015.31946, 0.00203439, -0.021855656, -428813.94, 24553.37, 0.0, 10.007, 9.987219 
1.3510904e+2, 2.6372388e+2, -330866.47, -505295.44, -862.51373, 0.0010358659, -0.027185837, -330862.22, 24641.318, 0.0, 10.008077, 9.98498 
1.3512276e+2, 2.7370867e+2, -221112.4, -402678.5, -739.566, -0.005932729, -0.03374931, -221109.39, 36542.707, 0.0, 10.008926, 9.984881 
1.3513686e+2, 2.8369227e+2, -127835.69, -337876.38, 2057.4424, -0.008839993, -0.032584578, -127815.53, 31997.422, 0.0, 10.009929, 9.982124 
1.3515149e+2, 2.9367438e+2, -12637.886, -233164.23, 1320.2028, -0.0048640682, -0.021392386, -12629.982, 49358.504, 0.0, 10.011175, 9.981977 
1.3516597e+2, 3.036596e+2, 97599.766, -81864.06, -295.1459, 0.0025001199, -0.02131518, 97600.25, 97600.25, 0.0, 10.012255, 9.988468 
1.3518007e+2, 3.1364793e+2, 109773.75, -75021.53, 1589.2786, 0.015550441, -0.04277519, 109787.42, 109787.42, 0.0, 10.01305, 9.988556 
1.4490563e+2, 1.2379783e+2, -1795047.1, -1733104.9, -1761.9559, -0.0021351567, -0.016804172, -1733054.9, -6276.0254, 0.0, 9.993649, 10.001849 
1.449205e+2, 1.3379824e+2, -1690117.8, -1646727.9, -3853.62, -0.0072730687, -0.0303487, -1646388.3, -17613.615, 0.0, 9.994769, 10.000511 
1.4493561e+2, 1.4379807e+2, -1587562.6, -1562454.0, -1822.8352, 0.0005504705, -0.030342394, -1562322.4, -31545.895, 0.0, 9.995769, 9.999087 
1.4495105e+2, 1.537971e+2, -1477829.4, -1459262.5, -2222.3518, 0.0029703723, -0.03179341, -1459000.3, -26214.37, 0.0, 9.996586, 9.999038 
1.4496626e+2, 1.6379507e+2, -1380753.3, -1386618.1, -4434.355, 0.002129122, -0.0305001, -1378369.4, -43563.785, 0.0, 9.9976015, 9.996816 
1.4498122e+2, 1.7379186e+2, -1263749.1, -1280478.0, -4674.384, -0.002893806, -0.025414024, -1262531.6, -25694.5, 0.0, 9.99894, 9.996716 
1.4499623e+2, 1.8378739e+2, -1167622.8, -1212334.6, -4190.447, -0.004950264, -0.022091137, -1167233.4, -28352.352, 0.0, 10.000065, 9.994134 
1.4501141e+2, 1.9378136e+2, -1059191.9, -1110967.5, -3608.398, -0.0026702082, -0.024048401, -1058941.6, -18001.547, 0.0, 10.000846, 9.993979 
1.4502656e+2, 2.037744e+2, -962397.75, -1034515.4, -3691.9192, -0.000036444762, -0.026903825, -962209.25, -19200.95, 0.0, 10.001668, 9.99211 
1.4504166e+2, 2.137664e+2, -851659.3, -930958.9, -3528.5422, 0.0032367206, -0.032725602, -851502.6, -6416.0693, 0.0, 10.0025625, 9.992051 
1.4505665e+2, 2.2375734e+2, -754401.25, -859968.94, -4312.7944, 0.0034368017, -0.031614546, -754225.3, -7049.901, 0.0, 10.00366, 9.989675 
1.4507146e+2, 2.3374699e+2, -636466.94, -753736.0, -4854.7656, -0.0013226264, -0.021875305, -636266.3, 13010.545, 0.0, 10.005082, 9.989544 
1.4508648e+2, 2.4373549e+2, -538724.44, -681430.2, -3872.1123, -0.00086800376, -0.017612997, -538619.44, 12770.159, 0.0, 10.006165, 9.987264 
1.4510179e+2, 2.537226e+2, -433652.56, -581265.3, -3849.9248, 0.007773352, -0.02406798, -433552.25, 19963.816, 0.0, 10.006701, 9.987147 
1.4511693e+2, 2.6370868e+2, -337266.44, -507674.38, -4584.099, 0.006894336, -0.028742451, -337143.22, 18509.127, 0.0, 10.007605, 9.985041 
1.4513174e+2, 2.736936e+2, -217763.95, -400128.8, -4717.8135, -0.0094594415, -0.03360137, -217641.98, 40157.94, 0.0, 10.009114, 9.9849615 
1.4514688e+2, 2.8367722e+2, -123412.6, -335701.47, -2539.162, -0.014416991, -0.03246114, -123382.234, 36578.094, 0.0, 10.010228, 9.982125 
1.4516246e+2, 2.936593e+2, -19733.613, -236700.39, -1607.5317, -0.0006496466, -0.024041763, -19721.703, 42414.586, 0.0, 10.01069, 9.981967 
1.4517796e+2, 3.0364457e+2, 89240.695, -84177.305, -2065.0107, 0.00870282, -0.022414187, 89265.28, 89265.28, 0.0, 10.011602, 9.98862 
1.4519316e+2, 3.1363317e+2, 114058.86, -70962.54, -3502.2383, 0.01064727, -0.034981646, 114125.125, 114125.125, 0.0, 10.013257, 9.98873 
1.5489934e+2, 1.2378155e+2, -1793278.1, -1729404.6, 2375.9353, 0.0035910006, -0.027498, -1729316.4, -2378.0217, 0.0, 9.993646, 10.0021 
1.549153e+2, 1.3378243e+2, -1687938.6, -1642195.4, 364.5853, -0.004365175, -0.025079867, -1642192.5, -13262.721, 0.0, 9.994766, 10.000818 
1.5493138e+2, 1.4378242e+2, -1588769.8, -1564906.3, 1373.4419, 0.00017053724, -0.017102905, -1564827.5, -33897.723, 0.0, 9.995768, 9.9989195 
1.5494755e+2, 1.537812e+2, -1479519.0, -1462689.8, 857.5079, -0.006045732, -0.021594595, -1462646.3, -29704.479, 0.0, 9.996584, 9.998804 
1.5496378e+2, 1.6377896e+2, -1381315.0, -1387764.9, 384.89597, -0.0070902626, -0.025896791, -1381292.1, -46328.52, 0.0, 9.9976015, 9.996736 
1.549802e+2, 1.7377558e+2, -1264150.5, -1281324.8, 402.92505, 0.0012446329, -0.030605484, -1264141.0, -27144.396, 0.0, 9.99894, 9.996655 
1.549964e+2, 1.8377107e+2, -1167000.4, -1211077.6, -1007.4485, 0.00609406, -0.031976227, -1166977.4, -27936.465, 0.0, 10.000065, 9.994218 
1.5501234e+2, 1.9376518e+2, -1058422.0, -1109436.0, -668.1446, 0.0050156387, -0.030646883, -1058413.3, -17314.582, 0.0, 10.000849, 9.9940815 
1.5502824e+2, 2.0375837e+2, -962021.6, -1033793.4, -397.18124, 0.0009429753, -0.025782866, -962019.44, -18854.084, 0.0, 10.001671, 9.992157 
1.5504412e+2, 2.1375057e+2, -851357.9, -930367.1, -177.91904, -0.0074304244, -0.01742385, -851357.44, -6115.487, 0.0, 10.002563, 9.99209 
1.5506019e+2, 2.2374147e+2, -755086.5, -861407.3, 781.06323, -0.01069279, -0.017360669, -755080.75, -7749.666, 0.0, 10.00366, 9.989574 
1.550765e+2, 2.3373075e+2, -637395.44, -755535.06, 504.7684, -0.0053958707, -0.032969832, -637393.25, 12042.638, 0.0, 10.005076, 9.989422 
1.5509267e+2, 2.4371906e+2, -539047.6, -681972.56, -1499.0348, 0.00027451283, -0.039167266, -539031.9, 12518.51, 0.0, 10.00616, 9.987227 
1.5510848e+2, 2.5370628e+2, -433761.34, -581571.75, -1885.4893, 0.0063471035, -0.032242265, -433737.3, 19938.63, 0.0, 10.006705, 9.9871235 
1.5512456e+2, 2.6369244e+2, -337012.8, -507265.03, 605.4764, 0.007909535, -0.02592492, -337010.7, 18800.639, 0.0, 10.007609, 9.9850645 
1.5514098e+2, 2.736775e+2, -217665.77, -399744.25, 948.4247, 0.0022303257, -0.02387996, -217660.81, 40297.223, 0.0, 10.009105, 9.984989 
1.5515727e+2, 2.836612e+2, -122090.71, -332703.72, -407.39893, 0.001899972, -0.025152834, -122089.93, 38027.688, 0.0, 10.010218, 9.982334 
1.5517326e+2, 2.936433e+2, -17987.092, -233220.52, -5.8120403, 0.010445946, -0.03435356, -17987.092, 44305.746, 0.0, 10.010697, 9.9822 
1.5518954e+2, 3.0362862e+2, 87897.766, -87187.79, 3493.118, 0.0069142613, -0.031782355, 87967.42, 87967.42, 0.0, 10.011611, 9.988408 
1.5520616e+2, 3.136173e+2, 111915.516, -75190.875, 2705.4663, -0.01688939, -0.011899026, 111954.625, 111954.625, 0.0, 10.0132475, 9.988442 
1.648929e+2, 1.2376445e+2, -1795098.0, -1729486.8, -372.3953, 0.0031927302, -0.029058961, -1729484.6, -2378.7341, 0.0, 9.993484, 10.00217 
1.6491003e+2, 1.3376546e+2, -1688055.9, -1640918.0, -3737.7998, -0.00400113, -0.025306428, -1640623.5, -11527.463, 0.0, 9.994698, 10.000935 
1.649272e+2, 1.4376551e+2, -1587798.6, -1564983.1, -3905.579, 0.0026201268, -0.017257832, -1564333.1, -33237.492, 0.0, 9.995854, 9.998867 
1.6494432e+2, 1.537642e+2, -1474993.9, -1461352.1, -3386.793, -0.0052092145, -0.021115163, -1460557.5, -27449.219, 0.0, 9.996926, 9.998725 
1.649615e+2, 1.6376188e+2, -1378156.5, -1387443.3, -2970.2754, -0.007033053, -0.024818411, -1377287.8, -42156.688, 0.0, 9.997866, 9.996626 
1.6497897e+2, 1.7375839e+2, -1269914.5, -1285413.9, -3330.0356, 0.0015005013, -0.02904578, -1269229.3, -32064.082, 0.0, 9.998602, 9.996538 
1.6499622e+2, 1.8375386e+2, -1173523.8, -1212587.8, -4773.932, 0.005989757, -0.030840164, -1172948.8, -33739.293, 0.0, 9.999547, 9.994362 
1.6501316e+2, 1.9374813e+2, -1057364.9, -1106873.3, -3870.0105, 0.0035670437, -0.031390835, -1057064.3, -15798.6, 0.0, 10.000831, 9.994261 
1.6503008e+2, 2.0374134e+2, -958086.75, -1033729.75, -4192.4453, -0.00017521928, -0.027317232, -957855.1, -14523.046, 0.0, 10.002017, 9.991989 
1.6504693e+2, 2.1373333e+2, -845884.8, -930136.06, -5900.3623, -0.0057103145, -0.017968768, -845473.56, -62.786255, 0.0, 10.00304, 9.99187 
1.65064e+2, 2.2372414e+2, -750427.94, -858428.2, -5108.152, -0.007139142, -0.017862225, -750186.9, -2686.0044, 0.0, 10.003946, 9.9896345 
1.6508141e+2, 2.3371351e+2, -642528.44, -756870.2, -3726.8232, -0.0022576032, -0.03471286, -642407.1, 7197.754, 0.0, 10.004674, 9.989521 
1.6509858e+2, 2.4370188e+2, -546558.8, -685609.0, -5030.022, 0.00088859344, -0.040672053, -546377.1, 5341.665, 0.0, 10.005644, 9.987225 
1.6511528e+2, 2.5368908e+2, -429409.78, -579651.7, -5440.1025, 0.0011501213, -0.031123932, -429213.06, 24631.191, 0.0, 10.0070095, 9.987104 
1.6513236e+2, 2.6367527e+2, -330169.2, -504202.6, -2767.637, 0.002555343, -0.023658197, -330125.2, 25854.559, 0.0, 10.008087, 9.985039 
1.651499e+2, 2.7366024e+2, -223799.78, -402997.28, -2770.2197, 0.0055444473, -0.022561321, -223756.97, 34369.945, 0.0, 10.008694, 9.9849615 
1.6516726e+2, 2.8364396e+2, -130460.82, -336247.88, -5063.4355, 0.007646944, -0.024316885, -130336.31, 29950.205, 0.0, 10.009621, 9.982374 
1.6518413e+2, 2.9362613e+2, -12154.943, -229784.47, -6031.41, 0.008130375, -0.03325057, -11987.916, 50473.22, 0.0, 10.011069, 9.982252 
1.6520141e+2, 3.0361143e+2, 95516.086, -85011.914, -2591.5308, 0.0024864492, -0.031541716, 95553.28, 95553.28, 0.0, 10.012196, 9.988271 
1.6521919e+2, 3.1359988e+2, 104056.59, -80829.37, -2505.4756, -0.013191678, -0.014620715, 104090.54, 104090.54, 0.0, 10.012779, 9.988277 
1.748863e+2, 1.237465e+2, -1796046.5, -1731257.0, 3974.033, -0.0054609845, -0.021093547, -1731014.1, -3732.3726, 0.0, 9.993476, 10.00205 
1.749047e+2, 1.3374728e+2, -1688696.3, -1642105.8, 844.52344, -0.0068516023, -0.031183233, -1642090.4, -12816.408, 0.0, 9.994692, 10.0008545 
1.749231e+2, 1.4374723e+2, -1587358.9, -1564037.1, 171.67647, 0.0071899537, -0.031185906, -1564035.9, -32761.373, 0.0, 9.995852, 9.998931 
1.7494135e+2, 1.5374605e+2, -1474417.5, -1460155.6, 663.9102, 0.0047384244, -0.030494336, -1460124.9, -26838.813, 0.0, 9.996925, 9.998805 
1.7495945e+2, 1.637438e+2, -1379111.8, -1389446.5, -48.752254, 0.0011789678, -0.027263671, -1379111.5, -43803.23, 0.0, 9.997868, 9.996487 
1.7497754e+2, 1.7374024e+2, -1271122.6, -1287911.6, -548.49023, -0.0028290031, -0.020762272, -1271104.8, -33761.43, 0.0, 9.998603, 9.9963665 
1.7499563e+2, 1.8373574e+2, -1172059.4, -1209566.0, -177.96465, -0.006035443, -0.018557487, -1172058.5, -32671.273, 0.0, 9.999546, 9.994567 
1.7501388e+2, 1.9373019e+2, -1055521.4, -1103084.4, 997.9804, -0.007973994, -0.026305024, -1055500.4, -14059.024, 0.0, 10.00083, 9.994517 
1.7503206e+2, 2.037233e+2, -960744.8, -1039218.1, -243.37436, -0.0046548494, -0.031383697, -960744.06, -17235.238, 0.0, 10.002017, 9.991613 
1.7505011e+2, 2.1371469e+2, -849238.44, -937015.8, -2048.2703, 0.007229045, -0.03395063, -849190.7, -3597.415, 0.0, 10.003038, 9.991401 
1.7506815e+2, 2.2370534e+2, -748888.9, -855228.3, -2242.6638, 0.01245799, -0.032715403, -748841.6, -1156.6298, 0.0, 10.003945, 9.989852 
1.7508619e+2, 2.3369524e+2, -640270.94, -752219.3, -1023.4493, 0.0068231, -0.02748769, -640261.56, 9522.416, 0.0, 10.004675, 9.989837 
1.751042e+2, 2.4368392e+2, -546349.25, -685155.3, -249.48006, 0.0000031598192, -0.02270651, -546348.8, 5546.2485, 0.0, 10.005643, 9.987254 
1.751222e+2, 2.5367105e+2, -429591.66, -579875.6, -320.35617, -0.008345844, -0.021163633, -429590.97, 24430.293, 0.0, 10.007001, 9.987091 
1.7514032e+2, 2.636571e+2, -330726.9, -505235.03, -184.79382, -0.009859562, -0.02183363, -330726.72, 25431.123, 0.0, 10.008082, 9.984969 
1.7515855e+2, 2.736419e+2, -224318.94, -404106.94, -571.35925, -0.00015087212, -0.029192805, -224317.13, 33989.48, 0.0, 10.008697, 9.984882 
1.7517681e+2, 2.8362554e+2, -131224.58, -337855.8, -76.178566, 0.002345016, -0.029712245, -131224.55, 29242.453, 0.0, 10.00962, 9.982263 
1.7519504e+2, 2.9360777e+2, -13075.894, -231558.81, -606.7777, -0.007485461, -0.021689195, -13074.208, 49566.957, 0.0, 10.011062, 9.982132 
1.7521353e+2, 3.0359292e+2, 94965.21, -86015.445, -41.81067, -0.0054881554, -0.022402748, 94965.22, 94965.22, 0.0, 10.012191, 9.988203 
1.752323e+2, 3.1358096e+2, 103742.95, -81647.88, -368.20258, 0.016843688, -0.040657617, 103743.69, 103743.69, 0.0, 10.012788, 9.988215 
1.8488005e+2, 1.237275e+2, -1789597.1, -1730283.3, 237.94307, -0.0038158873, -0.02326417, -1730282.3, -2814.5217, 0.0, 9.994003, 10.001856 
1.8489939e+2, 1.3372813e+2, -1689441.1, -1644296.6, -3400.4666, -0.008545993, -0.03197185, -1644041.9, -14580.319, 0.0, 9.994717, 10.0006895 
1.8491882e+2, 1.43728e+2, -1590629.4, -1565134.6, -3974.119, 0.0062377197, -0.03288104, -1564529.5, -33066.598, 0.0, 9.995605, 9.998972 
1.849382e+2, 1.537269e+2, -1475943.1, -1460100.9, -3513.6326, 0.0055820583, -0.031600345, -1459356.5, -25882.838, 0.0, 9.996784, 9.998873 
1.8495739e+2, 1.6372468e+2, -1377900.6, -1388608.4, -4429.999, 0.0025595839, -0.028500147, -1376305.5, -40809.94, 0.0, 9.997936, 9.996507 
1.8497635e+2, 1.7372112e+2, -1264429.6, -1284517.3, -3677.9663, -0.0032741027, -0.023169983, -1263777.4, -26246.877, 0.0, 9.999049, 9.996376 
1.8499541e+2, 1.8371657e+2, -1166459.5, -1208590.0, -3469.7083, -0.006566288, -0.020244826, -1166175.6, -26600.613, 0.0, 10.000001, 9.994408 
1.8501467e+2, 1.9371088e+2, -1058715.6, -1106664.3, -5525.1865, -0.0061087348, -0.024048468, -1058087.1, -16456.451, 0.0, 10.000697, 9.994332 
1.8503387e+2, 2.0370394e+2, -966198.94, -1040496.94, -6590.4214, -0.002233474, -0.028796382, -965618.9, -21920.184, 0.0, 10.001583, 9.991731 
1.8505302e+2, 2.1369544e+2, -851678.9, -936348.1, -3715.2908, 0.0068450924, -0.036924377, -851516.1, -5734.1978, 0.0, 10.0027895, 9.991562 
1.8507205e+2, 2.2368611e+2, -750731.9, -857545.2, -3327.068, 0.010524341, -0.03608434, -750628.3, -2754.9934, 0.0, 10.00388, 9.989722 
1.8509088e+2, 2.3367591e+2, -640015.2, -754026.4, -5800.125, 0.005419707, -0.022792326, -639720.9, 10252.498, 0.0, 10.004774, 9.989661 
1.8510988e+2, 2.4366455e+2, -544428.8, -682873.0, -5499.453, -0.00023295944, -0.016654618, -544210.7, 7874.1294, 0.0, 10.0057125, 9.9873705 
1.8512908e+2, 2.5365174e+2, -432388.03, -579430.7, -4171.477, -0.00681115, -0.024942005, -432269.78, 21940.537, 0.0, 10.006731, 9.9872465 
1.8514825e+2, 2.636378e+2, -335754.7, -508218.53, -4395.1196, -0.0078085735, -0.02924186, -335642.75, 20703.742, 0.0, 10.007759, 9.984918 
1.851673e+2, 2.7362263e+2, -223247.31, -404548.0, -5033.0127, 0.00023667833, -0.029574051, -223107.7, 35387.82, 0.0, 10.008809, 9.984795 
1.8518654e+2, 2.8360623e+2, -128504.45, -337115.53, -3146.7488, 0.0018154762, -0.02733726, -128457.0, 32199.422, 0.0, 10.009828, 9.98221 
1.8520597e+2, 2.9358834e+2, -17184.592, -234106.16, -2982.048, -0.007991037, -0.023824804, -17143.605, 45687.902, 0.0, 10.0108, 9.9820795 
1.8522555e+2, 3.035735e+2, 90320.92, -87896.0, -2839.7947, -0.005747806, -0.025013026, 90366.164, 90366.164, 0.0, 10.011852, 9.988234 
1.8524519e+2, 3.1356165e+2, 107511.47, -79339.61, -2678.55, 0.017001564, -0.03662062, 107549.85, 107549.85, 0.0, 10.013024, 9.988257 
1.9487418e+2, 1.2370742e+2, -1791591.9, -1734368.1, 2691.547, 0.006352657, -0.03668642, -1734241.8, -6577.4927, 0.0, 9.994004, 10.001576 
1.948941e+2, 1.3370796e+2, -1691365.8, -1648103.6, -750.93286, -0.009701464, -0.027456537, -1648090.6, -18431.385, 0.0, 9.994712, 10.000432 
1.9491437e+2, 1.4370777e+2, -1590557.6, -1564835.4, 224.7099, -0.001224643, -0.021889875, -1564833.4, -33172.02, 0.0, 9.995598, 9.998994 
1.949349e+2, 1.5370668e+2, -1475564.8, -1459233.8, 957.41034, -0.0036615208, -0.024224453, -1459177.8, -25505.94, 0.0, 9.996779, 9.998932 
1.9495524e+2, 1.637045e+2, -1376606.0, -1385968.3, -208.67247, -0.0043831025, -0.028400837, -1376601.4, -40908.15, 0.0, 9.997938, 9.996683 
1.9497544e+2, 1.73701e+2, -1263015.4, -1281643.9, 530.62994, -0.00084087934, -0.03624657, -1263000.3, -25272.953, 0.0, 9.999051, 9.996569 
1.9499551e+2, 1.8369631e+2, -1170075.4, -1216076.5, -660.106, 0.0032524017, -0.035859242, -1170065.9, -30292.727, 0.0, 10.000003, 9.993896 
1.9501552e+2, 1.9369017e+2, -1063099.0, -1115730.0, -2900.5032, 0.007997204, -0.024694452, -1062939.6, -21105.81, 0.0, 10.000698, 9.993713 
1.9503555e+2, 2.0368323e+2, -961911.25, -1031680.44, -2301.7244, 0.005924387, -0.019680133, -961835.4, -17933.467, 0.0, 10.001584, 9.992329 
1.9505568e+2, 2.1367551e+2, -846140.7, -924881.3, 814.7387, -0.0073965057, -0.027214646, -846132.25, -154.9312, 0.0, 10.002787, 9.992343 
1.950757e+2, 2.2366641e+2, -753978.4, -864203.3, 141.31935, -0.013458644, -0.028167734, -753978.2, -5911.8267, 0.0, 10.003877, 9.989268 
1.9509554e+2, 2.3365553e+2, -644573.0, -763459.2, -2446.1304, -0.0072210245, -0.020350207, -644522.7, 5650.588, 0.0, 10.004774, 9.989016 
1.9511558e+2, 2.436438e+2, -542999.3, -679938.3, -1748.615, -0.0012316088, -0.02206472, -542977.0, 9311.2, 0.0, 10.005713, 9.987568 
1.9513592e+2, 2.5363117e+2, -430122.72, -574640.75, -380.30743, 0.0042617572, -0.04174363, -430121.72, 24289.734, 0.0, 10.006725, 9.987575 
1.9515617e+2, 2.6361746e+2, -336081.7, -508777.78, -551.69476, 0.006968767, -0.04524104, -336079.9, 20465.865, 0.0, 10.007753, 9.98488 
1.9517617e+2, 2.736024e+2, -223947.48, -405974.72, -1157.7495, 0.0052084154, -0.024330802, -223940.13, 34753.723, 0.0, 10.008807, 9.984695 
1.9519639e+2, 2.8358597e+2, -128447.555, -337028.63, 442.36084, 0.0042087203, -0.01768554, -128446.62, 32408.322, 0.0, 10.009829, 9.982213 
1.9521691e+2, 2.9356787e+2, -17058.377, -233822.83, 602.2073, 0.004904925, -0.038436916, -17056.705, 45975.473, 0.0, 10.010799, 9.982098 
1.9523747e+2, 3.0355307e+2, 91025.35, -86272.35, 1409.4614, 0.00064867584, -0.038682286, 91036.56, 91036.56, 0.0, 10.011845, 9.988346 
1.9525795e+2, 3.1354177e+2, 108146.4, -77583.61, 1680.4037, -0.012351719, -0.005801937, 108161.6, 108161.6, 0.0, 10.013004, 9.988385 
2.0486794e+2, 1.2368625e+2, -1797857.4, -1737376.8, -2868.3586, 0.0057394714, -0.03740245, -1737241.0, -9369.135, 0.0, 9.993572, 10.001579 
2.0488895e+2, 1.3368686e+2, -1686023.6, -1644961.4, -3713.2788, -0.009486231, -0.02589107, -1644628.3, -14762.229, 0.0, 9.995045, 10.00048 
2.0491026e+2, 1.4368664e+2, -1582267.5, -1561671.4, -2415.0974, -0.0000055406967, -0.022229193, -1561392.0, -29523.486, 0.0, 9.996196, 9.998915 
2.0493168e+2, 1.5368545e+2, -1475891.3, -1460521.5, -3006.3638, -0.0049810247, -0.023205817, -1459954.4, -26074.502, 0.0, 9.996802, 9.998829 
2.04953e+2, 1.636832e+2, -1381603.9, -1388515.6, -4727.205, -0.005971658, -0.027102105, -1379204.1, -43302.31, 0.0, 9.997599, 9.996669 
2.0497434e+2, 1.7367971e+2, -1267697.5, -1283894.3, -5342.573, 0.0006486878, -0.03668846, -1266094.0, -28157.938, 0.0, 9.998727, 9.996568 
2.0499547e+2, 1.83675e+2, -1171907.8, -1216875.5, -6297.6206, 0.0059662536, -0.03745127, -1171042.5, -31060.432, 0.0, 9.999871, 9.993899 
2.0501637e+2, 1.9366886e+2, -1058175.5, -1113253.3, -4006.331, 0.008571803, -0.026611913, -1057885.6, -15842.969, 0.0, 10.001028, 9.993718 
2.0503733e+2, 2.0366193e+2, -955901.5, -1029034.94, -2676.4685, 0.0049658506, -0.020366998, -955803.6, -11692.982, 0.0, 10.002004, 9.992303 
2.050584e+2, 2.136542e+2, -847866.44, -926094.3, -5536.5254, -0.008741109, -0.023926979, -847476.5, -1290.4028, 0.0, 10.002684, 9.992305 
2.0507942e+2, 2.236451e+2, -757693.4, -865244.75, -7471.532, -0.014002066, -0.02524587, -757176.8, -8901.699, 0.0, 10.003588, 9.98933 
2.0510039e+2, 2.3363423e+2, -642519.8, -761537.6, -4738.9175, -0.0054660668, -0.02524148, -642331.44, 8050.4907, 0.0, 10.004872, 9.989095 
2.0512144e+2, 2.4362248e+2, -540504.9, -680239.75, -2804.8826, 0.0018613235, -0.028056748, -540448.6, 12048.486, 0.0, 10.005947, 9.9874325 
2.0514263e+2, 2.5360978e+2, -432069.7, -577514.25, -5122.4873, 0.006689258, -0.03742944, -431889.5, 22731.666, 0.0, 10.006673, 9.987399 
2.0516384e+2, 2.63596e+2, -338242.84, -509238.72, -6144.7417, 0.00742727, -0.03766133, -338022.3, 18733.729, 0.0, 10.007577, 9.984927 
2.0518492e+2, 2.7358094e+2, -223482.13, -404756.4, -5320.6084, 0.0014278367, -0.026021328, -223326.1, 35577.996, 0.0, 10.008793, 9.98478 
2.052062e+2, 2.8356454e+2, -127102.375, -335757.7, -3482.5142, 0.00018588327, -0.022222692, -127044.27, 34020.41, 0.0, 10.009892, 9.9822645 
2.052277e+2, 2.935466e+2, -17020.482, -233252.89, -3260.522, 0.0071779257, -0.034376785, -16971.328, 46269.36, 0.0, 10.010776, 9.982142 
2.0524924e+2, 3.0353186e+2, 88841.98, -86045.61, -2089.05, 0.005236674, -0.034057014, 88866.92, 88866.92, 0.0, 10.011635, 9.98846 
2.0527066e+2, 3.1352058e+2, 101207.93, -79567.44, -1862.7313, -0.012538107, -0.015143584, 101227.125, 101227.125, 0.0, 10.012464, 9.988505 
2.148614e+2, 1.2366394e+2, -1795978.5, -1733132.4, 2165.2466, -0.008385341, -0.024622874, -1733057.8, -4967.0347, 0.0, 9.993553, 10.001873 
2.1488403e+2, 1.3366476e+2, -1683534.4, -1639729.5, 1893.8081, -0.008895237, -0.02742447, -1639647.8, -9565.165, 0.0, 9.995039, 10.000834 
2.1490657e+2, 1.4366455e+2, -1583552.6, -1564317.0, 258.38406, 0.009024147, -0.034331147, -1564313.5, -32228.861, 0.0, 9.996197, 9.998732 
2.1492854e+2, 1.5366317e+2, -1477833.8, -1464446.0, -752.329, 0.000723081, -0.028652446, -1464403.9, -30305.783, 0.0, 9.9968, 9.998561 
2.1495064e+2, 1.6366078e+2, -1383063.6, -1391468.5, -720.78265, -0.0034787147, -0.024587318, -1383002.3, -46880.586, 0.0, 9.997598, 9.996467 
2.1497306e+2, 1.7365716e+2, -1269097.1, -1286747.8, -1046.1141, 0.0004102022, -0.024396751, -1269035.3, -30878.148, 0.0, 9.998727, 9.99637 
2.149953e+2, 1.836526e+2, -1168200.4, -1209220.3, -1951.6024, 0.0005677521, -0.024934888, -1168107.8, -27905.73, 0.0, 9.999869, 9.994419 
2.1501727e+2, 1.936469e+2, -1053666.4, -1103988.1, 360.32953, -0.005474149, -0.029785112, -1053663.8, -11406.194, 0.0, 10.001029, 9.994347 
2.1503922e+2, 2.0363998e+2, -960357.4, -1038302.9, 73.7916, -0.0064549707, -0.030596823, -960357.3, -16031.983, 0.0, 10.0020075, 9.991667 
2.1506117e+2, 2.1363151e+2, -853729.2, -938258.5, -2992.9692, 0.0012302222, -0.026730176, -853623.4, -7214.9185, 0.0, 10.002686, 9.991472 
2.1508323e+2, 2.236222e+2, -753700.2, -856999.1, -2925.2893, 0.00702964, -0.027024828, -753617.44, -5117.7305, 0.0, 10.003587, 9.98989 
2.1510541e+2, 2.3361199e+2, -637091.8, -750149.2, 66.08314, 0.009374058, -0.036953893, -637091.75, 13507.898, 0.0, 10.004864, 9.989874 
2.1512745e+2, 2.4360055e+2, -543788.3, -686868.56, 103.64936, 0.007904225, -0.034502033, -543788.25, 8923.594, 0.0, 10.0059395, 9.986981 
2.1514925e+2, 2.535875e+2, -436660.47, -587009.6, -2432.4297, 0.00014789609, -0.013067097, -436621.13, 18218.643, 0.0, 10.006672, 9.98675 
2.1517128e+2, 2.635735e+2, -337270.9, -507256.34, -1814.7598, -0.006628378, -0.0077384887, -337251.53, 19725.842, 0.0, 10.007578, 9.985061 
2.1519358e+2, 2.735583e+2, -221775.77, -401020.1, -744.9131, -0.011573107, -0.033768013, -221772.67, 37353.55, 0.0, 10.008784, 9.985038 
2.1521598e+2, 2.8354198e+2, -126595.2, -334371.38, -67.60617, -0.011184925, -0.039979354, -126595.18, 34690.508, 0.0, 10.009877, 9.982365 
2.152384e+2, 2.9352447e+2, -16652.488, -232266.13, -43.58545, -0.0010739926, -0.01361807, -16652.48, 46804.88, 0.0, 10.010767, 9.982213 
2.1526091e+2, 3.0350986e+2, 89601.45, -84448.84, 910.8622, 0.006987711, -0.012579532, 89606.22, 89606.22, 0.0, 10.011635, 9.988566 
2.1528336e+2, 3.1349802e+2, 102177.26, -77845.88, 1113.9855, 0.011138871, -0.059822507, 102184.16, 102184.16, 0.0, 10.012477, 9.988614 
2.2485515e+2, 1.2364067e+2, -1789311.6, -1729379.0, -809.6774, -0.007324351, -0.021074181, -1729368.1, -1049.1674, 0.0, 9.993981, 10.001914 
2.2487888e+2, 1.3364154e+2, -1688197.4, -1641182.8, -2849.3792, -0.00946258, -0.025885986, -1641010.8, -10700.534, 0.0, 9.994682, 10.000904 
2.2490248e+2, 1.436413e+2, -1591491.4, -1568271.1, -5436.066, 0.0087911235, -0.03873046, -1567061.5, -34749.12, 0.0, 9.995658, 9.99872 
2.2492549e+2, 1.5363993e+2, -1473733.0, -1462727.3, -4740.0854, 0.0025849259, -0.03164051, -1460967.1, -26641.248, 0.0, 9.997088, 9.998532 
2.2494856e+2, 1.636375e+2, -1374025.1, -1387816.4, -3584.868, -0.001115437, -0.025246045, -1373148.9, -36799.07, 0.0, 9.9982395, 9.996399 
2.2497189e+2, 1.7363384e+2, -1266658.5, -1286404.9, -3080.8296, 0.0004970442, -0.021259315, -1266189.0, -27803.266, 0.0, 9.998924, 9.996295 
2.2499508e+2, 1.8362926e+2, -1169978.6, -1209314.8, -4371.3716, -0.0010389814, -0.021268304, -1169498.8, -29068.1, 0.0, 9.999712, 9.994485 
2.250181e+2, 1.9362362e+2, -1058031.1, -1105119.4, -6004.2793, -0.008241309, -0.03085622, -1057277.5, -14791.758, 0.0, 10.000685, 9.99443 
2.2504108e+2, 2.0361668e+2, -965244.7, -1041700.25, -7388.8525, -0.0077518225, -0.033933826, -964537.2, -19983.516, 0.0, 10.001714, 9.991571 
2.2506398e+2, 2.1360812e+2, -852294.44, -938932.0, -5368.5957, 0.0054055415, -0.028425409, -851963.06, -5325.1533, 0.0, 10.00284, 9.991347 
2.2508697e+2, 2.2359873e+2, -749948.7, -855112.3, -3637.6606, 0.012000044, -0.02728943, -749823.0, -1093.2756, 0.0, 10.003837, 9.989894 
2.2511013e+2, 2.3358855e+2, -640409.25, -751504.7, -6039.5854, 0.0070117433, -0.035885558, -640081.9, 10747.467, 0.0, 10.004622, 9.989891 
2.2513315e+2, 2.4357714e+2, -548980.2, -688739.6, -7784.394, 0.0022633136, -0.033165764, -548547.94, 4393.246, 0.0, 10.005553, 9.987033 
2.2515593e+2, 2.5356415e+2, -435252.78, -585637.4, -5347.4106, -0.0018815814, -0.013426883, -435062.88, 20005.863, 0.0, 10.006736, 9.986808 
2.2517896e+2, 2.6355016e+2, -334539.06, -505888.88, -2136.9983, -0.00501366, -0.008697413, -334512.4, 22693.62, 0.0, 10.00776, 9.985063 
2.2520229e+2, 2.7353498e+2, -225805.6, -403062.47, -2923.299, -0.0065752435, -0.032646578, -225757.4, 33597.34, 0.0, 10.008509, 9.985026 
2.2522564e+2, 2.8351864e+2, -134151.45, -338234.1, -3671.8032, -0.0067689363, -0.039136883, -134085.4, 27428.967, 0.0, 10.009363, 9.982344 
2.2524895e+2, 2.9350108e+2, -21930.848, -235052.38, -4323.9805, -0.0045739147, -0.017565839, -21843.154, 41843.582, 0.0, 10.010408, 9.98219 
2.2527245e+2, 3.0348644e+2, 88713.96, -84557.05, -3582.2524, 0.0023223439, -0.016427396, 88787.984, 88787.984, 0.0, 10.011556, 9.988592 
2.2529611e+2, 3.1347474e+2, 108117.5, -74581.664, -3863.6223, 0.017311787, -0.054185394, 108199.17, 108199.17, 0.0, 10.012864, 9.988647 
2.3484929e+2, 1.236164e+2, -1790910.8, -1732560.6, 1367.5358, 0.0068583176, -0.027174888, -1732528.6, -3971.9175, 0.0, 9.9939785, 10.001698 
2.3487353e+2, 1.3361715e+2, -1690014.1, -1644612.1, -271.71066, -0.01174472, -0.02087639, -1644610.5, -14061.239, 0.0, 9.994671, 10.000674 
2.3489805e+2, 1.4361684e+2, -1590485.1, -1565917.5, -431.46802, -0.001637753, -0.035113107, -1565910.0, -33357.71, 0.0, 9.995645, 9.998883 
2.3492256e+2, 1.5361562e+2, -1472182.9, -1459465.0, 709.70984, -0.001206391, -0.03216685, -1459425.5, -24861.5, 0.0, 9.997083, 9.9987545 
2.3494682e+2, 1.6361333e+2, -1373470.6, -1386771.1, -639.41266, -0.0010676071, -0.029193714, -1373440.0, -36853.434, 0.0, 9.998245, 9.996465 
2.3497081e+2, 1.7360969e+2, -1266322.0, -1285745.3, -505.8974, -0.00023112529, -0.027413571, -1266308.9, -27686.676, 0.0, 9.998927, 9.996336 
2.349948e+2, 1.8360499e+2, -1172679.5, -1214873.1, -834.0971, -0.000034740806, -0.02646644, -1172663.1, -31994.66, 0.0, 9.999711, 9.994104 
2.3501886e+2, 1.9359896e+2, -1061212.8, -1111696.4, -2294.3794, -0.0010195563, -0.029839704, -1061108.8, -18381.148, 0.0, 10.000686, 9.993979 
2.3504286e+2, 2.0359196e+2, -962148.06, -1035370.7, -3235.2231, -0.00032950443, -0.030551912, -962005.44, -17209.45, 0.0, 10.001718, 9.991998 
2.350668e+2, 2.135839e+2, -848255.9, -930572.5, -1142.1229, 0.003186903, -0.029097114, -848240.0, -1365.0746, 0.0, 10.002839, 9.991916 
2.3509072e+2, 2.2357467e+2, -753693.4, -862818.06, -540.8247, 0.0004906738, -0.026054017, -753690.7, -4725.1025, 0.0, 10.003836, 9.9893675 
2.3511454e+2, 2.335639e+2, -645414.3, -761854.6, -3065.4443, -0.012910926, -0.022664722, -645333.7, 5737.4814, 0.0, 10.004622, 9.989183 
2.3513852e+2, 2.4355227e+2, -545290.1, -681088.75, -3528.7852, -0.015922334, -0.024222994, -545198.5, 7986.6973, 0.0, 10.005553, 9.987553 
2.3516269e+2, 2.5353968e+2, -430197.75, -575022.8, -947.1991, -0.00066288357, -0.036807053, -430191.56, 25116.785, 0.0, 10.006729, 9.987533 
2.3518687e+2, 2.6352596e+2, -335441.47, -507607.94, 764.4863, 0.010532761, -0.038446307, -335438.1, 22004.328, 0.0, 10.007753, 9.984947 
2.35211e+2, 2.7351093e+2, -227622.8, -406868.03, -233.59708, 0.014240544, -0.023660414, -227622.48, 31967.701, 0.0, 10.008511, 9.984763 
2.352352e+2, 2.8349447e+2, -134945.92, -340026.38, -13.505886, 0.010835727, -0.02109226, -134945.92, 26805.23, 0.0, 10.009369, 9.982217 
2.3525937e+2, 2.9347634e+2, -22630.758, -236571.86, -480.42456, -0.0042800875, -0.043467104, -22629.68, 41299.063, 0.0, 10.010411, 9.982082 
2.3528391e+2, 3.0346167e+2, 88381.14, -85167.42, 1107.289, -0.008596889, -0.0433115, 88388.2, 88388.2, 0.0, 10.011552, 9.988548 
2.3530887e+2, 3.1345066e+2, 107729.04, -75144.234, 997.62744, 0.0061653485, -0.004907846, 107734.484, 107734.484, 0.0, 10.012855, 9.988609 
2.4484329e+2, 1.23591274e+2, -1791771.0, -1734593.3, -2024.3333, 0.009206136, -0.034378, -1734521.8, -5718.9336, 0.0, 9.993983, 10.001554 
2.4486843e+2, 1.3359195e+2, -1684933.1, -1644097.3, -2885.921, -0.010896086, -0.017554944, -1643894.4, -13098.158, 0.0, 9.995095, 10.000499 
2.4489388e+2, 1.4359154e+2, -1584026.5, -1562632.8, -2738.0032, -0.0023406555, -0.03253412, -1562288.0, -29487.71, 0.0, 9.996073, 9.998894 
2.449195e+2, 1.5359037e+2, -1475856.0, -1460820.4, -2908.8665, -0.0013332878, -0.03021571, -1460277.3, -25465.666, 0.0, 9.996811, 9.99879 
2.449448e+2, 1.6358808e+2, -1381015.4, -1390264.0, -5719.0273, -0.0013549605, -0.029117683, -1378285.0, -41450.94, 0.0, 9.99772, 9.996477 
2.4496973e+2, 1.7358442e+2, -1266107.4, -1285533.4, -5987.3203, -0.0021856904, -0.031407364, -1264410.4, -25540.338, 0.0, 9.998933, 9.996342 
2.4499464e+2, 1.8357965e+2, -1168801.3, -1213966.5, -5636.1055, -0.00080020714, -0.030648528, -1168108.5, -27191.918, 0.0, 10.000015, 9.994013 
2.4501969e+2, 1.9357356e+2, -1059275.9, -1111916.1, -4551.479, 0.0038107922, -0.027700378, -1058885.3, -15908.899, 0.0, 10.000864, 9.993874 
2.4504466e+2, 2.0356658e+2, -961030.1, -1034300.75, -4711.3926, 0.004995652, -0.026101846, -960728.44, -15683.521, 0.0, 10.001766, 9.9920435 
2.4506958e+2, 2.1355854e+2, -848708.0, -930029.6, -6229.187, 0.000081107, -0.02940187, -848233.6, -1109.9958, 0.0, 10.00277, 9.99198 
2.4509443e+2, 2.2354929e+2, -755148.0, -863797.75, -6831.421, -0.00489433, -0.027933134, -754720.2, -5505.9883, 0.0, 10.003744, 9.989338 
2.4511921e+2, 2.3353852e+2, -644985.56, -762097.8, -4686.033, -0.010087561, -0.02053365, -644798.4, 6521.4785, 0.0, 10.004667, 9.989141 
2.4514414e+2, 2.4352688e+2, -544716.75, -681033.2, -3341.219, -0.010197696, -0.02185908, -544634.94, 8799.189, 0.0, 10.005597, 9.987533 
2.4516931e+2, 2.535142e+2, -432993.34, -576611.75, -5944.3706, -0.0020787802, -0.040868368, -432747.75, 22810.27, 0.0, 10.006544, 9.987508 
2.4519448e+2, 2.6350048e+2, -338234.44, -508612.44, -7274.6245, 0.0057125697, -0.04425437, -337924.4, 19767.879, 0.0, 10.007543, 9.984972 
2.4521956e+2, 2.734855e+2, -225450.38, -405367.63, -6296.852, 0.012786123, -0.023499485, -225230.27, 34608.96, 0.0, 10.0086355, 9.984799 
2.4524473e+2, 2.8346908e+2, -131148.17, -338864.22, -4516.5835, 0.013125275, -0.018189535, -131050.016, 30950.012, 0.0, 10.009655, 9.982152 
2.452699e+2, 2.9345086e+2, -21234.922, -236781.33, -4769.0938, 0.0021338975, -0.042985126, -21129.453, 43049.215, 0.0, 10.010541, 9.982 
2.4529544e+2, 3.034361e+2, 87067.01, -85743.086, -2382.8115, -0.004346384, -0.04329459, 87099.86, 87099.86, 0.0, 10.011452, 9.988552 
2.453214e+2, 3.1342515e+2, 101633.61, -77862.15, -2051.9949, -0.0032797824, -0.002403242, 101657.07, 101657.07, 0.0, 10.012418, 9.988628 
2.5483716e+2, 1.2356527e+2, -1792523.9, -1735845.9, 1627.7783, -0.0041279513, -0.042786364, -1735799.1, -6741.753, 0.0, 9.993972, 10.0014715 
2.5486356e+2, 1.3356592e+2, -1685987.0, -1646078.3, 1317.8203, -0.007929551, -0.016277386, -1646034.8, -14983.568, 0.0, 9.995088, 10.000364 
2.5489005e+2, 1.4356537e+2, -1585121.5, -1564773.6, 186.86089, 0.0060524093, -0.03119263, -1564771.9, -31715.148, 0.0, 9.996069, 9.998748 
2.5491634e+2, 1.5356408e+2, -1477012.5, -1463027.4, -157.05565, 0.0010536008, -0.025549684, -1463025.6, -27956.322, 0.0, 9.996803, 9.998641 
2.549425e+2, 1.6356167e+2, -1381412.9, -1390978.0, -1382.6508, -0.0036648095, -0.024806108, -1381217.0, -44124.18, 0.0, 9.997715, 9.9964285 
2.549686e+2, 1.735579e+2, -1266368.1, -1286023.3, -1358.2964, -0.0062595285, -0.03330708, -1266274.6, -27145.03, 0.0, 9.998931, 9.996306 
2.5499463e+2, 1.835532e+2, -1167347.4, -1210992.8, -2234.526, -0.0044514197, -0.033947293, -1167233.3, -26057.559, 0.0, 10.000015, 9.994213 
2.5502056e+2, 1.9354743e+2, -1057551.6, -1108379.0, -1344.9283, 0.004890303, -0.024512462, -1057516.1, -14283.691, 0.0, 10.000864, 9.994112 
2.5504646e+2, 2.0354044e+2, -963343.25, -1039101.3, -1016.2748, 0.006602352, -0.020746293, -963329.6, -18028.807, 0.0, 10.001768, 9.991713 
2.550723e+2, 2.1353194e+2, -851716.2, -936240.56, -2421.8032, -0.005156074, -0.029413786, -851646.9, -4262.58, 0.0, 10.00277, 9.991553 
2.5509816e+2, 2.235226e+2, -751972.7, -857187.7, -3318.0234, -0.005750661, -0.03277502, -751868.1, -2392.3638, 0.0, 10.003742, 9.989787 
2.5512412e+2, 2.3351237e+2, -640764.75, -753341.6, -1269.1843, 0.013449464, -0.028998734, -640750.44, 10825.4, 0.0, 10.004667, 9.989737 
2.5515002e+2, 2.4350089e+2, -548442.56, -688729.5, 112.030846, 0.017140865, -0.02609293, -548442.44, 5246.0986, 0.0, 10.005596, 9.987005 
2.551758e+2, 2.5348768e+2, -438126.63, -587200.06, -2391.3088, -0.0066341143, -0.02700457, -438088.28, 17729.734, 0.0, 10.006541, 9.986783 
2.5520176e+2, 2.6347363e+2, -337193.47, -506324.8, -3240.4072, -0.01893206, -0.027570324, -337131.44, 20824.19, 0.0, 10.007537, 9.985127 
2.5522795e+2, 2.7345872e+2, -223459.13, -400908.78, -2223.9265, -0.009918369, -0.031119004, -223431.27, 36670.566, 0.0, 10.008621, 9.985108 
2.5525427e+2, 2.8344247e+2, -131329.55, -338925.63, -1159.845, 0.00044027469, -0.028957244, -131323.06, 30938.047, 0.0, 10.009642, 9.982152 
2.5528055e+2, 2.9342452e+2, -21593.963, -237583.73, -1515.1576, 0.013138911, -0.019070359, -21583.334, 42853.68, 0.0, 10.010544, 9.98194 
2.5530708e+2, 3.0340976e+2, 87504.17, -85043.04, 1111.0529, 0.0124730775, -0.0190088, 87511.33, 87511.33, 0.0, 10.011462, 9.988592 
2.5533375e+2, 3.133982e+2, 101949.73, -77017.12, 1497.8922, -0.012832955, -0.04044784, 101962.26, 101962.26, 0.0, 10.012411, 9.988687 
2.648311e+2, 1.2353823e+2, -1791502.8, -1734469.3, -3399.3025, -0.007961686, -0.04040048, -1734267.4, -4944.998, 0.0, 9.993998, 10.001546 
2.6485866e+2, 1.3353887e+2, -1685232.0, -1645605.0, -2180.3118, -0.00615652, -0.014922954, -1645485.4, -14169.21, 0.0, 9.995129, 10.000372 
2.648862e+2, 1.4353822e+2, -1584085.5, -1565466.9, -3557.3528, 0.0080789225, -0.036223985, -1564810.3, -31487.635, 0.0, 9.996186, 9.998638 
2.649133e+2, 1.5353684e+2, -1473462.5, -1462766.9, -3976.1033, 0.0017597072, -0.027627932, -1461450.8, -26114.453, 0.0, 9.997105, 9.998507 
2.6494038e+2, 1.6353436e+2, -1377124.4, -1389097.3, -4283.5703, -0.0031182687, -0.024242835, -1375749.6, -38389.234, 0.0, 9.998011, 9.9964075 
2.6496756e+2, 1.7353062e+2, -1266612.8, -1286142.1, -3941.865, -0.0038865956, -0.030657064, -1265847.1, -26450.023, 0.0, 9.998909, 9.9963045 
2.6499456e+2, 1.835259e+2, -1169781.4, -1212184.0, -5723.6787, -0.0022884547, -0.031603225, -1169022.4, -27579.203, 0.0, 9.9998455, 9.994209 
2.6502138e+2, 1.9352008e+2, -1057635.5, -1108478.0, -6728.511, 0.0026172213, -0.026641864, -1056760.1, -13259.808, 0.0, 10.000858, 9.9941025 
2.6504818e+2, 2.0351306e+2, -962861.8, -1039316.75, -6508.0176, 0.0027083745, -0.024524804, -962311.8, -16742.633, 0.0, 10.001815, 9.99167 
2.65075e+2, 2.1350454e+2, -853288.9, -937546.5, -5183.284, -0.0057375436, -0.02950886, -852971.2, -5318.4263, 0.0, 10.002682, 9.991504 
2.6510188e+2, 2.2349519e+2, -753522.7, -857809.9, -5612.4717, -0.004302188, -0.031683214, -753221.5, -3477.1216, 0.0, 10.003626, 9.989797 
2.6512882e+2, 2.3348494e+2, -640023.7, -752773.8, -7661.0654, 0.014035956, -0.0314915, -639505.56, 12339.079, 0.0, 10.0047035, 9.98975 
2.6515567e+2, 2.4347344e+2, -547226.44, -688652.06, -7563.972, 0.018242074, -0.028839264, -546823.0, 7134.4707, 0.0, 10.005697, 9.986954 
2.6518238e+2, 2.5346023e+2, -438453.47, -587991.56, -5451.9106, -0.0027987042, -0.023971258, -438254.97, 17832.098, 0.0, 10.006541, 9.986725 
2.6520926e+2, 2.6344615e+2, -339588.84, -507425.47, -3835.0505, -0.014976989, -0.022882538, -339501.28, 18723.56, 0.0, 10.007366, 9.985132 
2.6523632e+2, 2.734312e+2, -230077.56, -403932.8, -4815.97, -0.010948209, -0.03204266, -229944.25, 30427.162, 0.0, 10.008155, 9.985122 
2.6526362e+2, 2.83415e+2, -137688.42, -341454.34, -3993.238, -0.00449797, -0.031963058, -137610.19, 24920.377, 0.0, 10.009175, 9.982199 
2.6529104e+2, 2.9339713e+2, -20088.805, -236269.53, -3469.7454, 0.005661459, -0.017777938, -20033.129, 44672.426, 0.0, 10.010615, 9.981992 
2.653186e+2, 3.033824e+2, 90922.99, -83369.195, -2146.4695, 0.008759461, -0.017090145, 90949.42, 90949.42, 0.0, 10.011691, 9.988594 
2.653461e+2, 3.133708e+2, 97261.3, -79350.914, -2575.969, -0.0008905568, -0.043990757, 97298.86, 97298.86, 0.0, 10.012085, 9.98868 
2.7482513e+2, 1.2351012e+2, -1789943.9, -1730981.0, 256.77658, -0.004065273, -0.025557341, -1730979.9, -1381.7416, 0.0, 9.993987, 10.001784 
2.7485383e+2, 1.3351078e+2, -1684355.0, -1643488.0, 2046.2017, -0.0063392627, -0.013234735, -1643385.8, -11794.37, 0.0, 9.995115, 10.000518 
2.7488232e+2, 1.4351006e+2, -1584743.4, -1566597.9, -13.414571, 0.0023667945, -0.048029125, -1566597.9, -32999.355, 0.0, 9.996177, 9.998564 
2.7491036e+2, 1.5350857e+2, -1474347.4, -1464487.1, -517.16174, -0.0009397994, -0.036855415, -1464460.1, -28847.094, 0.0, 9.9971, 9.998389 
2.749384e+2, 1.635061e+2, -1377066.1, -1388972.3, -912.433, -0.0016089227, -0.027613107, -1376996.6, -39359.387, 0.0, 9.998011, 9.996413 
2.7496654e+2, 1.7350249e+2, -1266466.8, -1285746.3, -536.101, 0.0040514627, -0.023434259, -1266451.9, -26779.145, 0.0, 9.998905, 9.99633 
2.749945e+2, 1.8349773e+2, -1171259.9, -1215175.3, -1942.1638, 0.0045993677, -0.023385702, -1171174.1, -29454.654, 0.0, 9.999844, 9.994004 
2.7502218e+2, 1.9349149e+2, -1059386.3, -1112075.5, -2871.408, -0.0041155363, -0.034109402, -1059230.3, -15449.781, 0.0, 10.000856, 9.993855 
2.7504992e+2, 2.0348437e+2, -961166.9, -1035869.6, -3155.7498, -0.007950554, -0.037518647, -961033.8, -15183.62, 0.0, 10.001818, 9.9918995 
2.7507773e+2, 2.1347627e+2, -850980.9, -932872.0, -1924.1654, -0.002910533, -0.029931167, -850935.7, -3006.1064, 0.0, 10.0026865, 9.9918165 
2.7510554e+2, 2.23467e+2, -756377.1, -863738.56, -1687.4008, -0.0018605725, -0.025065515, -756350.56, -6330.106, 0.0, 10.003627, 9.989389 
2.751333e+2, 2.3345621e+2, -643894.25, -760645.2, -3577.723, -0.008159002, -0.028214687, -643784.75, 8341.586, 0.0, 10.004697, 9.989213 
2.7516115e+2, 2.434445e+2, -544522.2, -682872.94, -4252.164, -0.0071046893, -0.02985352, -544391.6, 9849.358, 0.0, 10.00569, 9.987349 
2.75189e+2, 2.5343177e+2, -434535.16, -579775.6, -2320.1306, 0.00764462, -0.03108851, -434498.1, 21867.53, 0.0, 10.006538, 9.987284 
2.752169e+2, 2.63418e+2, -340472.1, -509291.7, -936.3052, 0.014559564, -0.029714452, -340466.88, 18033.764, 0.0, 10.007368, 9.985001 
2.7524468e+2, 2.7340293e+2, -231704.23, -407587.56, -1952.2593, 0.0068358597, -0.02711087, -231682.56, 28966.023, 0.0, 10.008167, 9.984863 
2.752728e+2, 2.8338653e+2, -136924.25, -340063.03, 915.1987, -0.0036551314, -0.027419573, -136920.13, 25888.754, 0.0, 10.009183, 9.982286 
2.7530146e+2, 2.933686e+2, -19369.012, -234215.61, 1846.6486, -0.018596906, -0.03635648, -19353.14, 45631.42, 0.0, 10.0105915, 9.982141 
2.7533007e+2, 3.0335394e+2, 90231.234, -84097.91, -209.40082, -0.013645959, -0.03532129, 90231.484, 90231.484, 0.0, 10.011662, 9.988555 
2.753585e+2, 3.1334275e+2, 97067.68, -80276.18, -1282.6329, 0.027914008, -0.017912352, 97076.96, 97076.96, 0.0, 10.012111, 9.988602 
2.8481936e+2, 1.2348118e+2, -1784062.0, -1728750.0, -1609.5394, 0.0017995557, -0.026934192, -1728703.1, 1178.6089, 0.0, 9.994405, 10.001729 
2.848489e+2, 1.3348168e+2, -1685755.0, -1646549.1, -2278.0881, -0.006281063, -0.012156977, -1646417.1, -14540.398, 0.0, 9.995116, 10.000305 
2.848783e+2, 1.434808e+2, -1587357.3, -1567688.4, -5344.7637, -0.0038488836, -0.049482767, -1566329.9, -32444.646, 0.0, 9.995985, 9.998576 
2.8490746e+2, 1.5347938e+2, -1473389.5, -1463414.4, -4593.88, -0.0020543255, -0.036646537, -1461621.1, -25721.986, 0.0, 9.997133, 9.99844 
2.849365e+2, 1.6347691e+2, -1375165.1, -1388683.3, -5058.497, 0.000008873402, -0.026749639, -1373481.8, -35558.55, 0.0, 9.998162, 9.996353 
2.849655e+2, 1.7347321e+2, -1265919.9, -1286352.3, -5627.317, 0.0037179901, -0.024147896, -1264472.6, -24512.965, 0.0, 9.998975, 9.996248 
2.8499433e+2, 1.8346837e+2, -1171292.5, -1215774.5, -6476.887, 0.0035787267, -0.025153255, -1170368.6, -28361.5, 0.0, 9.999861, 9.993949 
2.8502306e+2, 1.9346209e+2, -1059213.3, -1112557.0, -5868.9316, -0.0037675078, -0.03553182, -1058575.3, -14506.558, 0.0, 10.000888, 9.993801 
2.850518e+2, 2.0345496e+2, -960123.56, -1035061.7, -6359.3027, -0.005630391, -0.03796059, -959587.75, -13449.278, 0.0, 10.00187, 9.991925 
2.850805e+2, 2.1344692e+2, -849258.06, -931620.4, -7222.7993, 0.0018582542, -0.028465386, -848629.5, -412.1274, 0.0, 10.002781, 9.99185 
2.851092e+2, 2.2343762e+2, -756563.0, -864643.5, -7006.962, 0.0019805683, -0.023565022, -756110.6, -5802.2803, 0.0, 10.003644, 9.989313 
2.8513783e+2, 2.3342669e+2, -648395.06, -763873.06, -5746.326, -0.011447995, -0.029817216, -648109.8, 4305.599, 0.0, 10.004429, 9.989119 
2.8516656e+2, 2.4341498e+2, -548961.1, -683588.94, -5223.6123, -0.013146277, -0.03296512, -548758.8, 5771.467, 0.0, 10.005318, 9.987476 
2.851955e+2, 2.5340244e+2, -435327.44, -578301.44, -6044.415, 0.0064937756, -0.032862823, -435072.38, 21580.746, 0.0, 10.006398, 9.987447 
2.852244e+2, 2.633887e+2, -338966.9, -509922.44, -6112.234, 0.01693464, -0.030675232, -338748.66, 20038.969, 0.0, 10.007524, 9.984877 
2.8525317e+2, 2.7337345e+2, -224756.78, -406235.94, -6584.1606, 0.010008231, -0.028010642, -224518.22, 36419.09, 0.0, 10.008725, 9.984681 
2.8528222e+2, 2.83357e+2, -130702.29, -336234.38, -4113.1367, 0.000069535265, -0.028956404, -130620.01, 32478.414, 0.0, 10.00957, 9.982355 
2.8531164e+2, 2.9333916e+2, -30430.68, -238180.7, -3543.8894, -0.014474334, -0.039490987, -30370.244, 34902.863, 0.0, 10.009767, 9.98226 
2.853412e+2, 3.0332458e+2, 75328.96, -90675.26, -3876.6982, -0.012016782, -0.038637657, 75419.445, 75419.445, 0.0, 10.010604, 9.9886055 
2.853708e+2, 3.1331342e+2, 105143.34, -75935.984, -3875.5127, 0.020600345, -0.019161176, 105226.26, 105226.26, 0.0, 10.01264, 9.988638 
2.9481384e+2, 1.234514e+2, -1787025.4, -1734493.0, 791.036, 0.006486507, -0.045628987, -1734481.0, -4307.822, 0.0, 9.994393, 10.001342 
2.9484403e+2, 1.3345148e+2, -1690328.3, -1655502.3, 301.95966, -0.0066146846, -0.012132066, -1655499.6, -23327.006, 0.0, 9.995099, 9.9997015 
2.9487425e+2, 1.434504e+2, -1586891.3, -1566327.0, -1325.5507, -0.011324651, -0.040302604, -1566241.9, -32058.467, 0.0, 9.995967, 9.998673 
2.949046e+2, 1.5344921e+2, -1471931.9, -1460162.3, -255.9669, -0.002919553, -0.026521746, -1460156.8, -23961.781, 0.0, 9.997121, 9.998664 
2.9493466e+2, 1.6344678e+2, -1376105.1, -1390511.9, -1826.7601, 0.0000055507776, -0.021345412, -1375877.1, -37658.426, 0.0, 9.9981575, 9.996228 
2.9496434e+2, 1.7344274e+2, -1267347.5, -1289160.8, -2557.0325, -0.0057904697, -0.03287087, -1267051.9, -26793.594, 0.0, 9.998969, 9.9960575 
2.9499412e+2, 1.834378e+2, -1170658.3, -1214394.6, -2702.764, -0.0064887493, -0.037037868, -1170491.9, -28185.1, 0.0, 9.999857, 9.994041 
2.95024e+2, 1.9343181e+2, -1058164.6, -1110396.8, -1944.5316, 0.0021160988, -0.031195726, -1058092.3, -13726.943, 0.0, 10.000887, 9.993947 
2.950538e+2, 2.0342475e+2, -961309.7, -1037590.44, -2840.492, 0.0077225044, -0.026120832, -961204.06, -14769.671, 0.0, 10.001875, 9.991747 
2.9508334e+2, 2.134164e+2, -850918.0, -935072.94, -3770.4915, 0.007511916, -0.025098782, -850749.44, -2233.0232, 0.0, 10.002783, 9.991611 
2.9511288e+2, 2.2340702e+2, -754901.06, -861173.4, -3983.1682, 0.0057933605, -0.026891775, -754752.0, -4143.5796, 0.0, 10.003643, 9.989547 
2.9514238e+2, 2.3339638e+2, -646070.3, -759108.56, -2814.7673, 0.0018788228, -0.036161356, -646000.25, 6712.2876, 0.0, 10.004432, 9.98944 
2.95172e+2, 2.433848e+2, -549723.44, -685292.8, -1388.9656, -0.002086417, -0.038114313, -549709.2, 5116.6475, 0.0, 10.005324, 9.987353 
2.9520175e+2, 2.5337213e+2, -436806.4, -581280.44, -2033.2933, -0.006095407, -0.029707989, -436777.8, 20172.162, 0.0, 10.006394, 9.987242 
2.952317e+2, 2.6335824e+2, -340016.38, -511740.6, -1763.6555, -0.0068515236, -0.025908124, -339998.28, 19087.756, 0.0, 10.007507, 9.984756 
2.9526177e+2, 2.733428e+2, -225860.53, -407967.1, -2094.183, -0.0013982895, -0.034210443, -225836.45, 35401.402, 0.0, 10.0087, 9.9845705 
2.9529184e+2, 2.8332627e+2, -130564.08, -335538.5, -2849.8223, 0.005095971, -0.03627525, -130524.46, 32875.035, 0.0, 10.009555, 9.982408 
2.953217e+2, 2.9330868e+2, -29499.164, -236723.92, -2980.6196, 0.013750794, -0.02912232, -29456.3, 36115.383, 0.0, 10.00979, 9.982346 
2.9535204e+2, 3.032942e+2, 76615.33, -88576.516, 2518.7727, 0.00970691, -0.028484559, 76653.73, 76653.73, 0.0, 10.010628, 9.988733 
2.9538304e+2, 3.1328285e+2, 105453.27, -74269.59, 3758.0925, -0.01970051, -0.043679796, 105531.82, 105531.82, 0.0, 10.012594, 9.98877 
3.048081e+2, 1.2342041e+2, -1788215.5, -1733742.5, -6080.9033, 0.0015199843, -0.04814342, -1733072.0, -2595.19, 0.0, 9.9942465, 10.001457 
3.0483928e+2, 1.334205e+2, -1686551.3, -1654418.0, -2483.4963, -0.0023995864, -0.0102000255, -1654227.3, -21750.97, 0.0, 9.99538, 9.999635 
3.0487043e+2, 1.4341934e+2, -1581555.0, -1564697.0, -2285.0286, -0.00800464, -0.037548564, -1564392.8, -29905.033, 0.0, 9.9963665, 9.998587 
3.049017e+2, 1.5341802e+2, -1473013.8, -1461728.4, -3591.6536, -0.0014127936, -0.02800287, -1460682.3, -24181.766, 0.0, 9.997088, 9.998568 
3.049327e+2, 1.6341548e+2, -1379214.5, -1392465.9, -6171.4414, 0.00008093927, -0.024957018, -1376785.5, -38260.348, 0.0, 9.997959, 9.996185 
3.049634e+2, 1.7341144e+2, -1265197.0, -1288457.8, -5790.3335, -0.006614484, -0.03425184, -1263835.4, -23270.438, 0.0, 9.9991255, 9.996024 
3.0499408e+2, 1.8340649e+2, -1166539.6, -1212219.8, -5887.7476, -0.00709719, -0.03628406, -1165792.9, -23179.58, 0.0, 10.000125, 9.994054 
3.0502486e+2, 1.9340055e+2, -1058847.1, -1110473.6, -6124.4824, 0.0031220694, -0.0288497, -1058130.5, -13458.86, 0.0, 10.000824, 9.993966 
3.0505553e+2, 2.0339347e+2, -965493.56, -1040390.1, -6982.584, 0.008378236, -0.024509698, -964848.1, -18107.223, 0.0, 10.001616, 9.991677 
3.05086e+2, 2.1338499e+2, -854312.7, -937697.6, -6799.765, 0.0041316785, -0.028269313, -853761.8, -4937.616, 0.0, 10.002585, 9.991523 
3.0511647e+2, 2.2337556e+2, -754841.44, -860478.8, -6826.41, 0.0028019634, -0.03114871, -754402.2, -3485.5952, 0.0, 10.0036125, 9.989604 
3.0514702e+2, 2.3336504e+2, -641004.8, -755711.25, -7337.3955, 0.0069225524, -0.03492586, -640537.4, 12482.05, 0.0, 10.004732, 9.989519 
3.0517757e+2, 2.433535e+2, -545328.7, -684749.2, -7250.0376, 0.005341006, -0.034219403, -544952.7, 10179.928, 0.0, 10.005686, 9.987209 
3.0520812e+2, 2.5334063e+2, -438806.8, -584364.7, -7888.4326, -0.0069444235, -0.028545633, -438380.56, 18878.322, 0.0, 10.006343, 9.98705 
3.052389e+2, 2.6332667e+2, -345532.94, -512625.9, -6252.81, -0.011847902, -0.0267495, -345299.25, 14096.318, 0.0, 10.007047, 9.984912 
3.0527002e+2, 2.733114e+2, -236543.48, -410551.16, -4183.0063, -0.003023644, -0.03548508, -236442.98, 25102.219, 0.0, 10.007849, 9.9848 
3.053011e+2, 2.8329498e+2, -141058.3, -342241.78, -4469.8228, 0.0063855285, -0.036932126, -140959.05, 22747.002, 0.0, 10.008899, 9.982262 
3.0533183e+2, 2.9327723e+2, -22259.746, -235731.98, -6762.917, 0.016570715, -0.02727121, -22045.707, 43834.523, 0.0, 10.010389, 9.98212 
3.0536306e+2, 3.0326268e+2, 88709.24, -80712.37, -2099.249, 0.012200342, -0.026125781, 88735.25, 88735.25, 0.0, 10.011365, 9.988913 
3.0539498e+2, 3.1325153e+2, 89489.48, -78998.38, -25.238821, -0.020622427, -0.04496642, 89489.48, 89489.48, 0.0, 10.011361, 9.989031 
3.148022e+2, 1.2338825e+2, -1783965.4, -1724539.6, -2088.8035, -0.017082311, -0.03136718, -1724466.3, 6326.1274, 0.0000000000000806617, 9.994229, 10.002086 
3.1483477e+2, 1.3338868e+2, -1683355.5, -1647496.0, 1740.1301, 0.0056332434, -0.0060032187, -1647411.8, -14623.867, 0.00000000000005243424, 9.995366, 10.000107 
3.1486693e+2, 1.433876e+2, -1583681.6, -1568855.4, 614.27295, 0.005446214, -0.04169152, -1568830.0, -34031.582, 0.000000000000028332263, 9.996358, 9.998304 
3.1489885e+2, 1.5338577e+2, -1476196.5, -1468006.4, -929.2972, 0.001255398, -0.041562006, -1467902.3, -31085.986, 0.000000000000012064798, 9.997077, 9.998144 
3.1493068e+2, 1.6338302e+2, -1379067.5, -1391989.0, -2064.6655, -0.0016636658, -0.03793188, -1378745.5, -39902.367, 0.000000000000003878589, 9.9979515, 9.996219 
3.149626e+2, 1.7337927e+2, -1264409.4, -1286704.3, -1352.7091, -0.000029022445, -0.028364476, -1264327.5, -23447.47, 0.0000000000000009180906, 9.999119, 9.996143 
3.149943e+2, 1.8337445e+2, -1167015.6, -1213141.1, -2962.9229, 0.0005725182, -0.022680398, -1166826.1, -23898.738, 0.00000000000000015841597, 10.000123, 9.99399 
3.1502566e+2, 1.9336829e+2, -1059586.9, -1111943.6, -3457.8518, -0.0015135471, -0.02838169, -1059359.5, -14371.636, 0.000000000000000019869674, 10.000822, 9.993864 
3.1505704e+2, 2.0336106e+2, -965278.1, -1039946.4, -3432.242, -0.0046144263, -0.033135545, -965120.7, -18062.291, 0.0000000000000000018107616, 10.0016165, 9.991703 
3.1508848e+2, 2.1335262e+2, -853869.06, -936872.56, -3092.1267, -0.009012916, -0.03789399, -853754.06, -4612.787, 0.0000000000000000001198895, 10.00259, 9.991573 
3.1511998e+2, 2.2334322e+2, -755560.2, -861980.25, -2703.0872, -0.0081101395, -0.036563627, -755491.56, -4258.2075, 0.0000000000000000000057675156, 10.0036125, 9.989499 
3.1515172e+2, 2.3333272e+2, -642117.94, -757783.75, -3097.1355, 0.0027054192, -0.02674331, -642035.06, 11301.38, 0.0, 10.004722, 9.98938 
3.1518328e+2, 2.4332105e+2, -546708.6, -687310.2, -4520.1895, 0.0077347616, -0.021789446, -546563.5, 8887.384, 0.0, 10.005675, 9.987037 
3.1521457e+2, 2.5330785e+2, -440078.72, -586990.56, -5435.83, 0.0019206116, -0.029230924, -439877.84, 17702.281, 0.0, 10.006344, 9.986866 
3.1524608e+2, 2.6329392e+2, -342504.25, -506558.6, -3359.1235, -0.00073514937, -0.032960467, -342435.5, 17281.193, 0.0, 10.007057, 9.985318 
3.1527796e+2, 2.7327925e+2, -232680.2, -402729.8, -1290.4287, 0.0028231833, -0.0325763, -232670.4, 29189.82, 0.0, 10.007859, 9.985327 
3.1530994e+2, 2.8326303e+2, -143328.31, -346900.9, 517.22144, 0.002790027, -0.03151831, -143326.98, 20692.064, 0.0, 10.008896, 9.98194 
3.15342e+2, 2.9324466e+2, -26044.594, -243139.31, -1197.8761, -0.003597682, -0.032727107, -26037.984, 40161.254, 0.0, 10.010369, 9.981618 
3.1537428e+2, 3.0322996e+2, 90000.89, -77637.68, -1258.8016, -0.0034779843, -0.030875217, 90010.34, 90010.34, 0.0, 10.011352, 9.989127 
3.1540665e+2, 3.132194e+2, 92436.42, -73395.7, -281.88535, 0.008556372, -0.026268104, 92436.9, 92436.9, 0.0, 10.011389, 9.989401 
3.2479647e+2, 1.23355426e+2, -1780030.4, -1721667.4, -2045.8644, -0.018485792, -0.027785484, -1721595.8, 9518.416, 0.0000000000023454196, 9.994447, 10.0021715 
3.2483014e+2, 1.3335566e+2, -1684795.5, -1649547.0, -2969.7068, 0.008823189, -0.011773606, -1649298.5, -16187.117, 0.0000000000015241749, 9.995321, 9.999982 
3.2486323e+2, 1.433545e+2, -1585261.0, -1570084.3, -6358.721, 0.003939464, -0.045416445, -1567772.3, -32649.656, 0.0000000000008233425, 9.996263, 9.9982605 
3.2489604e+2, 1.533527e+2, -1471896.9, -1466185.1, -5047.626, -0.00094152143, -0.040639155, -1463241.5, -26101.092, 0.00000000000035051592, 9.997374, 9.998117 
3.2492876e+2, 1.6334993e+2, -1374045.9, -1389947.8, -4730.403, -0.0029348338, -0.034997154, -1372745.1, -33577.58, 0.00000000000011265747, 9.998303, 9.9961815 
3.2496163e+2, 1.7334612e+2, -1267705.9, -1288750.6, -5266.7246, 0.0020702244, -0.028494189, -1266461.4, -25256.34, 0.000000000000026661206, 9.998906, 9.996102 
3.2499424e+2, 1.8334125e+2, -1173181.8, -1216410.4, -7318.8433, 0.0035703243, -0.024951242, -1171976.3, -28723.39, 0.000000000000004599458, 9.999708, 9.993962 
3.250265e+2, 1.9333504e+2, -1058603.9, -1111733.6, -7256.242, -0.0024714295, -0.030476267, -1057630.6, -12317.078, 0.0000000000000005767878, 10.0008955, 9.993836 
3.2505882e+2, 2.0332782e+2, -960163.0, -1037727.9, -7139.459, -0.0069309473, -0.034538772, -959511.4, -12127.035, 0.000000000000000052554126, 10.001968, 9.991678 
3.2509118e+2, 2.1331933e+2, -850507.1, -935537.8, -7397.1484, -0.008213242, -0.037836373, -849868.44, -401.13797, 0.0000000000000000034789587, 10.002825, 9.991545 
3.2512364e+2, 2.233099e+2, -755967.2, -862783.6, -7317.506, -0.0065783216, -0.03578083, -755468.2, -3908.4902, 0.00000000000000000016733108, 10.003605, 9.989441 
3.2515615e+2, 2.3329933e+2, -649421.0, -762003.5, -7216.7065, 0.00014517117, -0.026871478, -648960.25, 4703.254, 0.0, 10.004245, 9.989317 
3.2518867e+2, 2.4328762e+2, -554744.6, -690951.5, -7350.6045, 0.0045310124, -0.022861203, -554349.06, 1429.2539, 0.0, 10.005107, 9.987058 
3.2522094e+2, 2.5327447e+2, -438961.5, -586001.94, -6625.8647, 0.004389076, -0.031068213, -438663.53, 19243.723, 0.0, 10.006393, 9.986906 
3.252534e+2, 2.6326054e+2, -336556.47, -504025.94, -5658.4077, 0.0045818696, -0.034339763, -336365.5, 23678.176, 0.0, 10.007473, 9.985287 
3.2528594e+2, 2.7324584e+2, -228898.0, -401450.8, -7746.5703, 0.0051501296, -0.031078778, -228550.92, 33636.547, 0.0, 10.008135, 9.985274 
3.2531878e+2, 2.8322968e+2, -143091.98, -345543.9, -5703.8286, 0.0017869619, -0.029282805, -142931.42, 21414.7, 0.0, 10.00885, 9.982046 
3.2535198e+2, 2.932114e+2, -34911.703, -245779.83, -2849.0295, -0.00854514, -0.033683524, -34873.22, 31651.924, 0.0, 10.00968, 9.981765 
3.2538524e+2, 3.0319676e+2, 79443.586, -83429.805, -2660.9167, -0.00637352, -0.03308611, 79487.05, 79487.05, 0.0, 10.010647, 9.989067 
3.2541835e+2, 3.131861e+2, 98640.8, -71592.914, -5196.903, 0.01872518, -0.025979867, 98799.3, 98799.3, 0.0, 10.011856, 9.989296 
3.347911e+2, 1.2332194e+2, -1784065.1, -1729382.0, 1456.1989, -0.0036609045, -0.038070913, -1729343.3, 2098.4233, 0.00000000005167391, 9.994426, 10.001654 
3.3482543e+2, 1.3332137e+2, -1690607.0, -1660859.9, 123.709305, 0.006247157, -0.028194327, -1660859.3, -27412.145, 0.00000000003357157, 9.9952965, 9.999223 
3.348593e+2, 1.4332e+2, -1584127.0, -1567300.5, -2449.2412, -0.014480815, -0.048825238, -1566951.1, -31490.287, 0.000000000018130754, 9.9962435, 9.998455 
3.3489335e+2, 1.5331875e+2, -1469272.9, -1460519.6, -877.1352, -0.00940986, -0.024660852, -1460432.6, -22959.34, 0.000000000007717037, 9.997361, 9.998505 
3.3492705e+2, 1.633162e+2, -1374881.0, -1391568.4, -2207.014, -0.0050652325, -0.015280121, -1374594.1, -35095.832, 0.0000000000024798213, 9.998301, 9.99607 
3.3496052e+2, 1.7331192e+2, -1269304.6, -1291876.9, -3027.4373, -0.0012021118, -0.034476593, -1268905.6, -27365.617, 0.00000000000058676854, 9.9989, 9.995889 
3.3499393e+2, 1.8330681e+2, -1173196.0, -1216299.0, -3173.18, 0.0008706141, -0.04326776, -1172963.6, -29373.584, 0.00000000000010121049, 9.999701, 9.99397 
3.3502743e+2, 1.9330078e+2, -1058270.1, -1110970.8, -2681.3262, -0.0010559015, -0.035291884, -1058134.0, -12484.912, 0.000000000000012690283, 10.00089, 9.993888 
3.3506086e+2, 2.0329365e+2, -960739.06, -1038893.2, -3669.4126, -0.0005791498, -0.028949667, -960567.2, -12848.166, 0.0000000000000011561161, 10.001968, 9.991595 
3.3509415e+2, 2.132851e+2, -851299.44, -937125.9, -4145.1475, 0.0047609764, -0.02851433, -851099.7, -1296.9717, 0.000000000000000076521916, 10.002824, 9.991433 
3.3512735e+2, 2.2327559e+2, -756079.3, -862951.2, -4763.2314, 0.00558298, -0.028901357, -755867.44, -3971.396, 0.0000000000000000036800285, 10.003603, 9.989428 
3.351604e+2, 2.3326488e+2, -649295.06, -761856.0, -4811.746, -0.0019922662, -0.034393445, -649089.75, 4911.339, 0.0, 10.0042515, 9.989321 
3.3519366e+2, 2.4325319e+2, -553246.2, -687942.6, -2942.641, -0.0053622276, -0.03639249, -553181.94, 2933.6328, 0.0, 10.005112, 9.987256 
3.3522728e+2, 2.5324038e+2, -437420.25, -582519.6, -1811.005, -0.0002670237, -0.034251187, -437397.66, 20843.498, 0.0, 10.006381, 9.987146 
3.3526084e+2, 2.6322648e+2, -339859.03, -510412.0, -2863.0398, 0.0030054718, -0.03131568, -339811.0, 20566.387, 0.0, 10.007454, 9.984857 
3.3529407e+2, 2.7321118e+2, -232949.1, -409810.34, -5300.0654, 0.0026443894, -0.030910464, -232790.4, 29736.844, 0.0, 10.008136, 9.984699 
3.3532766e+2, 2.8319484e+2, -139546.4, -338366.4, -2748.536, 0.0013131753, -0.029958649, -139508.42, 25178.996, 0.0, 10.00886, 9.982529 
3.3536175e+2, 2.931773e+2, -29897.727, -235376.77, 72.646645, -0.0010122336, -0.030985093, -29897.701, 36961.313, 0.0, 10.009684, 9.98247 
3.3539596e+2, 3.031629e+2, 77269.99, -87866.45, 1355.7015, 0.00070587173, -0.03321939, 77281.12, 77281.12, 0.0, 10.010646, 9.988758 
3.3543018e+2, 3.131516e+2, 95072.086, -79213.44, -786.89087, 0.009200315, -0.04117229, 95075.64, 95075.64, 0.0, 10.011867, 9.988763 
3.4478572e+2, 1.23287275e+2, -1780587.0, -1728573.9, -3799.9282, 0.0011767077, -0.042547274, -1728297.8, 3483.4373, 0.00000000081250584, 9.994686, 10.001575 
3.4482086e+2, 1.332865e+2, -1687381.0, -1661814.9, -1850.4651, 0.005714381, -0.034113552, -1661681.6, -27892.65, 0.00000000052773436, 9.995615, 9.999 
3.4485555e+2, 1.4328507e+2, -1581361.9, -1566590.1, -2770.4653, -0.022189423, -0.043410942, -1566087.6, -30284.334, 0.00000000028494548, 9.996451, 9.998399 
3.448906e+2, 1.5328377e+2, -1472219.6, -1462200.6, -4268.7095, -0.00814702, -0.021752711, -1460628.6, -22812.42, 0.0000000001212577, 9.997166, 9.99848 
3.4492528e+2, 1.6328117e+2, -1378438.6, -1393336.9, -7149.7295, 0.0000846458, -0.015348745, -1375562.6, -35721.086, 0.00000000003895854, 9.998053, 9.996063 
3.449596e+2, 1.7327687e+2, -1263470.6, -1289039.8, -6506.33, -0.0024571554, -0.036965035, -1261910.3, -20026.729, 0.000000000009216846, 9.9992895, 9.995888 
3.449939e+2, 1.8327168e+2, -1165033.5, -1213856.5, -6235.4336, -0.0029644165, -0.045968067, -1164249.8, -20315.623, 0.0000000000015895714, 10.000317, 9.993832 
3.4502834e+2, 1.9326553e+2, -1058776.5, -1113092.5, -7404.76, -0.000106269275, -0.03440645, -1057785.1, -11790.567, 0.00000000000019928297, 10.00093, 9.993717 
3.4506267e+2, 2.0325835e+2, -965226.8, -1040476.25, -9040.647, 0.0029847908, -0.026390668, -964155.94, -16090.815, 0.0000000000000181529, 10.001629, 9.991646 
3.4509683e+2, 2.1324988e+2, -855012.2, -937849.7, -8066.737, 0.006021423, -0.02821082, -854233.94, -4085.8413, 0.0000000000000012013685, 10.002517, 9.991527 
3.451309e+2, 2.2324038e+2, -758206.56, -864350.7, -7880.598, 0.005723084, -0.030250154, -757624.7, -5383.522, 0.00000000000000005776772, 10.003466, 9.989394 
3.451648e+2, 2.3322959e+2, -645715.75, -760813.6, -8423.955, -0.00080266624, -0.035977162, -645102.5, 9244.266, 0.0, 10.0045185, 9.989258 
3.4519893e+2, 2.4321792e+2, -548174.0, -684521.75, -6939.0, -0.004246526, -0.038089905, -547821.8, 8639.427, 0.0, 10.005408, 9.987341 
3.4523347e+2, 2.532052e+2, -442321.6, -583600.94, -6691.0596, -0.001668749, -0.036055434, -442005.4, 16580.287, 0.0, 10.0059805, 9.98726 
3.4526795e+2, 2.6319134e+2, -350117.78, -516239.34, -7028.278, 0.00076326873, -0.03259325, -349820.97, 10900.58, 0.0, 10.006779, 9.984778 
3.4530216e+2, 2.7317595e+2, -235272.48, -412263.97, -6323.9717, 0.0023875423, -0.030363837, -235046.81, 27825.635, 0.0, 10.008024, 9.984582 
3.4533665e+2, 2.8315955e+2, -136733.66, -337228.78, -4145.1475, 0.003400666, -0.029316148, -136647.98, 28385.402, 0.0, 10.009055, 9.98251 
3.4537143e+2, 2.9314196e+2, -30507.854, -235660.77, -6262.4546, 0.0037647705, -0.033602748, -30316.865, 36888.41, 0.0, 10.009632, 9.98247 
3.4540653e+2, 3.0312756e+2, 74485.4, -88955.51, -5135.071, 0.004113871, -0.036135722, 74646.57, 74646.57, 0.0, 10.010433, 9.988776 
3.4544188e+2, 3.1311637e+2, 92804.305, -79977.74, -3303.0186, 0.0030127622, -0.03820356, 92867.42, 92867.42, 0.0, 10.011687, 9.9887905 
3.5478032e+2, 1.2325145e+2, -1778348.0, -1723457.1, 150.86617, -0.007516905, -0.03987234, -1723456.6, 8675.842, 0.000000009469599, 9.994667, 10.001926 
3.548165e+2, 1.3325101e+2, -1685366.6, -1657176.9, 1483.7018, 0.0063707745, -0.028745035, -1657099.0, -22962.186, 0.0000000061492664, 9.995595, 9.99932 
3.5485205e+2, 1.4324972e+2, -1583935.8, -1571499.8, -33.24261, -0.01986575, -0.028587354, -1571499.8, -35350.19, 0.0000000033196064, 9.996437, 9.998069 
3.5488787e+2, 1.5324773e+2, -1475748.9, -1469070.6, -1661.0833, 0.0020878082, -0.032484036, -1468680.3, -30511.092, 0.0000000014124153, 9.99715, 9.998016 
3.5492346e+2, 1.6324481e+2, -1377909.8, -1391965.8, -2883.333, 0.011273029, -0.035897456, -1377341.3, -37143.473, 0.0000000004537274, 9.99804, 9.996159 
3.5495886e+2, 1.732409e+2, -1262059.0, -1285952.5, -1800.9125, -0.0029654896, -0.036223385, -1261924.0, -19688.201, 0.00000000010733056, 9.999282, 9.996098 
3.5499415e+2, 1.8323585e+2, -1167109.3, -1218014.8, -3511.2524, -0.009479354, -0.03297633, -1166868.1, -22582.898, 0.00000000001850869, 10.000312, 9.993548 
3.5502926e+2, 1.9322926e+2, -1061576.1, -1118791.1, -5046.485, -0.00089710514, -0.027754312, -1061134.4, -14784.238, 0.0000000000023202033, 10.000928, 9.993328 
3.550643e+2, 2.0322184e+2, -963969.75, -1037927.75, -5800.771, 0.0023203872, -0.02666226, -963517.5, -15094.612, 0.00000000000021133044, 10.001632, 9.991814 
3.5509923e+2, 2.1321358e+2, -852861.4, -933521.25, -4655.6665, -0.005166932, -0.036386535, -852593.5, -2089.7146, 0.000000000000013984623, 10.002522, 9.991816 
3.5513422e+2, 2.2320421e+2, -758524.94, -865043.8, -4015.5151, -0.0072703687, -0.039482363, -758373.8, -5778.3975, 0.0000000000000006723836, 10.003466, 9.989344 
3.5516936e+2, 2.3319344e+2, -646668.0, -762670.3, -4413.404, 0.0017920356, -0.032288402, -646500.3, 8200.716, 0.0, 10.004513, 9.98913 
3.5520446e+2, 2.4318174e+2, -548445.9, -684927.3, -4480.095, 0.005630535, -0.028751563, -548298.94, 8516.857, 0.0, 10.0054035, 9.987312 
3.5523945e+2, 2.531689e+2, -442366.75, -583703.1, -4611.334, -0.0010546834, -0.03633756, -442216.47, 16724.863, 0.0, 10.005983, 9.987247 
3.5527465e+2, 2.631551e+2, -348416.75, -512727.22, -2902.6438, -0.0036606917, -0.037719633, -348365.5, 12711.209, 0.0, 10.006779, 9.985014 
3.5531017e+2, 2.7314004e+2, -233441.16, -408125.5, -1744.581, 0.0024458135, -0.029675424, -233423.73, 29800.46, 0.0, 10.00801, 9.984866 
3.5534573e+2, 2.831236e+2, -140165.55, -343967.7, -1714.1216, 0.0059376317, -0.027474366, -140151.13, 25234.115, 0.0, 10.009041, 9.982052 
3.553811e+2, 2.9310536e+2, -34619.15, -244607.45, -4202.636, 0.0049030026, -0.040753927, -34535.07, 33029.137, 0.0, 10.009653, 9.981843 
3.5541695e+2, 3.0309072e+2, 76935.56, -84442.555, -892.71484, 0.0026791976, -0.04173078, 76940.5, 76940.5, 0.0, 10.01046, 9.989068 
3.5545352e+2, 3.1308022e+2, 95927.016, -72807.305, 1338.3044, -0.00345556, -0.020087231, 95937.63, 95937.63, 0.0, 10.011659, 9.989291 
3.647749e+2, 1.2321481e+2, -1777514.1, -1722705.1, -1517.5381, -0.01568105, -0.03368417, -1722663.1, 9828.654, 0.00000008268434, 9.9947, 10.001955 
3.648122e+2, 1.3321434e+2, -1683130.5, -1655548.0, -3304.4263, 0.010851515, -0.030725041, -1655157.6, -20661.336, 0.00000005368276, 9.995716, 9.999363 
3.6484867e+2, 1.4321312e+2, -1581216.1, -1571546.5, -5892.735, -0.014340379, -0.022179373, -1568759.0, -32250.674, 0.000000028975498, 9.996673, 9.997943 
3.648852e+2, 1.5321085e+2, -1470179.1, -1468113.0, -5381.4272, 0.0017458964, -0.037154768, -1463666.4, -25135.906, 0.000000012326782, 9.997596, 9.99786 
3.6492166e+2, 1.6320777e+2, -1372548.5, -1390108.1, -5304.704, 0.008332406, -0.04431196, -1371070.4, -30509.742, 0.000000003959453, 9.998429, 9.996091 
3.6495808e+2, 1.7320393e+2, -1264959.0, -1287923.0, -6125.5967, -0.0020823164, -0.033743046, -1263427.3, -20829.008, 0.0000000009365381, 9.9991, 9.996044 
3.6499426e+2, 1.8319891e+2, -1173318.4, -1220488.8, -8615.282, -0.0068421573, -0.026046004, -1171794.1, -27146.652, 0.0000000001614897, 9.999858, 9.993593 
3.650301e+2, 1.9319229e+2, -1062856.3, -1118629.0, -6980.5205, -0.0013387875, -0.029435916, -1061995.8, -15283.446, 0.000000000020242613, 10.0008, 9.993397 
3.65066e+2, 2.0318484e+2, -963009.06, -1038543.56, -6112.3433, 0.00026071558, -0.032288354, -962517.6, -13732.21, 0.0000000000018436379, 10.001735, 9.99172 
3.651018e+2, 2.131765e+2, -851720.9, -934496.4, -7955.695, -0.0059132245, -0.036297623, -850963.2, -96.06903, 0.00000000000012199398, 10.002657, 9.991679 
3.6513773e+2, 2.2316709e+2, -757102.06, -863981.4, -8857.181, -0.0069512045, -0.036390413, -756373.0, -3413.832, 0.0000000000000058651187, 10.00354, 9.989372 
3.6517376e+2, 2.3315635e+2, -648546.25, -762809.56, -7937.3774, 0.0021610388, -0.032159243, -647997.5, 7066.9487, 0.0, 10.004343, 9.989197 
3.6520976e+2, 2.4314463e+2, -552193.3, -687676.6, -7862.351, 0.006607622, -0.02975976, -551738.56, 5440.7246, 0.0, 10.005179, 9.987228 
3.6524552e+2, 2.5313172e+2, -441667.94, -584705.44, -8841.459, 0.0014841027, -0.03445137, -441123.5, 18182.207, 0.0, 10.006082, 9.987126 
3.6528152e+2, 2.6311788e+2, -345782.03, -510397.84, -7305.5327, -0.0008132987, -0.03576409, -345458.44, 15982.982, 0.0, 10.006908, 9.985104 
3.6531797e+2, 2.7310294e+2, -238661.45, -409048.2, -7073.812, 0.0024865319, -0.033406403, -238368.28, 25219.76, 0.0, 10.007575, 9.985005 
3.6535445e+2, 2.8308654e+2, -148506.88, -348539.4, -6238.664, 0.0043647815, -0.03206333, -148312.48, 17436.04, 0.0, 10.008481, 9.982002 
3.6539084e+2, 2.930683e+2, -32059.773, -244369.36, -5129.505, 0.0038236445, -0.036023084, -31935.914, 35991.68, 0.0, 10.009862, 9.981756 
3.654276e+2, 3.0305365e+2, 82857.68, -80714.414, -1444.4971, 0.0029805286, -0.033697773, 82870.44, 82870.44, 0.0, 10.01082, 9.98915 
3.6546478e+2, 3.1304318e+2, 85815.25, -76404.984, -2054.1743, -0.00059582846, -0.022393707, 85841.26, 85841.26, 0.0, 10.0109, 9.989406 
3.747695e+2, 1.23177394e+2, -1780520.9, -1727937.3, 3096.1006, -0.02527761, -0.023662392, -1727755.6, 5102.9873, 0.0000005532481, 9.994661, 10.001613 
3.7480798e+2, 1.3317646e+2, -1685344.6, -1659424.4, 237.98668, 0.018727386, -0.040590826, -1659422.1, -24554.637, 0.00000035914545, 9.995689, 9.999107 
3.748454e+2, 1.4317518e+2, -1580837.9, -1570350.4, -2544.481, -0.0067482544, -0.024935104, -1569765.6, -32885.742, 0.00000019382824, 9.996655, 9.998029 
3.748827e+2, 1.531731e+2, -1469201.9, -1465782.1, -1971.3333, -0.01063656, -0.03576941, -1464882.5, -25982.271, 0.00000008245099, 9.997583, 9.99802 
3.7491992e+2, 1.6317005e+2, -1374358.9, -1393650.9, -2703.1838, -0.010650215, -0.04028927, -1373987.3, -33057.188, 0.000000026481976, 9.998424, 9.995849 
3.7495717e+2, 1.731659e+2, -1267406.0, -1292766.4, -3645.6792, -0.0010001789, -0.029542847, -1266892.4, -23921.338, 0.0000000062635124, 9.999094, 9.995714 
3.7499422e+2, 1.8316081e+2, -1170744.8, -1215050.5, -5269.1343, 0.00380997, -0.025190756, -1170126.6, -25105.732, 0.0000000010799891, 9.999851, 9.993963 
3.750309e+2, 1.931546e+2, -1059144.3, -1110935.1, -3356.1472, -0.00256601, -0.039265387, -1058927.6, -11846.004, 0.00000000013537126, 10.000798, 9.993917 
3.7506765e+2, 2.0314729e+2, -965509.5, -1043749.6, -2591.0046, -0.0049702236, -0.043172795, -965423.8, -16270.733, 0.000000000012328863, 10.001738, 9.991361 
3.7510455e+2, 2.131386e+2, -855657.44, -942632.7, -4419.682, 0.0018081899, -0.028373424, -855433.44, -4194.847, 0.0000000000008157841, 10.002658, 9.99112 
3.7514138e+2, 2.2312899e+2, -756394.7, -862477.0, -5706.8857, 0.0045093405, -0.021449892, -756088.56, -2755.566, 0.00000000000003921943, 10.003539, 9.989472 
3.751781e+2, 2.3311828e+2, -646859.7, -759190.4, -4898.56, -0.0011639111, -0.034862913, -646646.44, 8791.06, 0.000000000000000000006929764, 10.004337, 9.989443 
3.7521484e+2, 2.4310659e+2, -553276.1, -689692.56, -4553.3647, -0.0029012628, -0.03999425, -553124.3, 4427.8525, 0.0000000000000000000002423796, 10.00517, 9.987092 
3.7525162e+2, 2.530936e+2, -443316.56, -588003.7, -5436.6084, 0.0040361467, -0.030732557, -443112.56, 16566.918, 0.0, 10.006077, 9.986899 
3.7528855e+2, 2.6307964e+2, -346014.4, -510939.53, -4650.344, 0.0067239916, -0.027229438, -345883.4, 15932.888, 0.0, 10.006912, 9.985061 
3.7532553e+2, 2.7306452e+2, -238504.69, -408914.25, -4612.4253, 0.00058401574, -0.040884886, -238379.94, 25584.375, 0.0, 10.007586, 9.985005 
3.7536287e+2, 2.8304824e+2, -146326.38, -344008.2, -1628.881, -0.0030079286, -0.0424619, -146312.95, 19810.816, 0.0, 10.008482, 9.982307 
3.754007e+2, 2.9303062e+2, -29945.035, -239131.27, -68.51659, -0.0001298778, -0.021174258, -29945.012, 38351.914, 0.0, 10.009827, 9.982125 
3.7543845e+2, 3.0301622e+2, 81608.51, -82477.83, -489.4176, 0.0033339194, -0.014044776, 81609.96, 81609.96, 0.0, 10.01079, 9.989038 
3.754758e+2, 3.130051e+2, 84969.58, -79245.3, -2025.3119, 0.006505915, -0.04145123, 84994.555, 84994.555, 0.0, 10.010952, 9.9891815 
3.847645e+2, 1.2313883e+2, -1772808.6, -1726958.8, -721.5069, -0.020921456, -0.017203553, -1726947.4, 6289.1074, 0.0000029192024, 9.995293, 10.001366 
3.8480374e+2, 1.3313767e+2, -1683978.3, -1659406.4, -3692.26, 0.021234842, -0.050146013, -1658863.5, -23615.85, 0.0000018948215, 9.995799, 9.999052 
3.8484195e+2, 1.4313644e+2, -1583611.6, -1571512.1, -5131.3213, -0.007161956, -0.027248032, -1569629.0, -32369.432, 0.0000010225369, 9.99645, 9.998044 
3.8488021e+2, 1.5313445e+2, -1470086.9, -1465819.6, -5346.1177, -0.011922163, -0.03289381, -1462197.1, -22918.057, 0.0000004349407, 9.9974985, 9.998052 
3.8491833e+2, 1.6313142e+2, -1374057.3, -1394134.0, -6920.5107, -0.012104751, -0.03613853, -1371902.9, -30593.957, 0.00000013969013, 9.998463, 9.995791 
3.8495636e+2, 1.7312711e+2, -1265234.0, -1292567.6, -6258.8154, -0.0015471077, -0.030517628, -1263869.0, -20517.957, 0.000000033038678, 9.9992695, 9.99564 
3.849942e+2, 1.8312195e+2, -1167131.6, -1213596.9, -7394.143, 0.0039026774, -0.028465407, -1165983.4, -20581.611, 0.0000000056966374, 10.000103, 9.993935 
3.850318e+2, 1.9311576e+2, -1056211.1, -1109710.3, -9389.736, -0.002582024, -0.039061584, -1054611.0, -7148.6924, 0.0000000007140435, 10.000997, 9.9938965 
3.8506946e+2, 2.0310846e+2, -963696.1, -1042848.9, -10192.179, -0.004139371, -0.04144436, -962404.8, -12871.111, 0.00000000006503118, 10.001852, 9.991356 
3.8510725e+2, 2.1309972e+2, -855824.7, -942658.44, -8087.64, 0.004476173, -0.030086087, -855077.8, -3458.27, 0.000000000004303039, 10.002637, 9.991122 
3.851449e+2, 2.2309007e+2, -758687.0, -863921.6, -7589.6924, 0.0075154947, -0.024532327, -758142.44, -4428.2866, 0.00000000000020687176, 10.003387, 9.989444 
3.851823e+2, 2.3307939e+2, -650706.4, -761524.3, -8869.699, -0.0011877398, -0.03458136, -650001.0, 5817.851, 0.00000000000000000020104626, 10.004087, 9.989399 
3.8521984e+2, 2.4306768e+2, -556769.06, -691105.06, -8505.928, -0.0046245893, -0.03786577, -556232.6, 1700.833, 0.000000000000000000007029948, 10.004909, 9.987115 
3.8525763e+2, 2.530547e+2, -444260.5, -588014.8, -7467.9365, 0.0029855797, -0.029889628, -443873.6, 16186.975, 0.0, 10.005982, 9.98694 
3.8529548e+2, 2.6304078e+2, -344925.53, -510698.4, -6190.824, 0.0067189904, -0.02690982, -344694.66, 17502.605, 0.0, 10.006989, 9.985038 
3.8533324e+2, 2.7302563e+2, -235056.98, -407711.2, -6582.662, 0.0019125303, -0.03900233, -234806.38, 29539.105, 0.0, 10.007832, 9.984967 
3.853714e+2, 2.8300938e+2, -145079.05, -342398.16, -4075.3647, -0.0014891711, -0.041255947, -144994.9, 21509.932, 0.0, 10.008515, 9.982397 
3.8541e+2, 2.929918e+2, -42964.734, -244065.98, -4207.533, -0.00080403447, -0.025525544, -42876.742, 25800.535, 0.0, 10.008863, 9.982246 
3.8544866e+2, 3.0297744e+2, 66304.95, -89110.445, -4478.1387, 0.0025708547, -0.020556776, 66433.875, 66433.875, 0.0, 10.009695, 9.989103 
3.8548705e+2, 3.1296647e+2, 93799.37, -74315.58, -4073.2092, 0.009225977, -0.042775948, 93897.99, 93897.99, 0.0, 10.011519, 9.989243 
3.9475998e+2, 1.2309916e+2, -1774441.5, -1729759.8, 2159.016, -0.0045549017, -0.01493946, -1729655.6, 3969.4717, 0.000012531762, 9.995273, 10.00118 
3.947995e+2, 1.3309799e+2, -1683520.4, -1657739.8, -2164.896, 0.017013092, -0.058946967, -1657559.3, -21922.785, 0.0000081336, 9.995772, 9.999174 
3.9483827e+2, 1.4309688e+2, -1584463.0, -1572591.4, -1750.9774, -0.0179844, -0.02895857, -1572338.5, -34691.15, 0.0000043890395, 9.996422, 9.99798 
3.9487782e+2, 1.5309484e+2, -1471079.0, -1467396.8, -1452.566, -0.0033350566, -0.028416647, -1466892.8, -27225.42, 0.0000018668253, 9.9974785, 9.99795 
3.9491695e+2, 1.630918e+2, -1373302.1, -1392361.5, -3840.4443, 0.0032358458, -0.031326324, -1372557.4, -30860.074, 0.0000005995586, 9.998455, 9.995912 
3.949556e+2, 1.7308755e+2, -1264100.3, -1290057.5, -3262.289, -0.0049838442, -0.036811437, -1263696.5, -19957.81, 0.00000014180438, 9.999264, 9.995809 
3.9499417e+2, 1.8308231e+2, -1170211.4, -1219778.6, -4100.5347, -0.008627409, -0.03631945, -1169874.5, -24084.283, 0.000000024450705, 10.000096, 9.993514 
3.950328e+2, 1.9307573e+2, -1060243.5, -1117912.3, -5937.8706, -0.0030100185, -0.029081363, -1059638.4, -11783.83, 0.0000000030648393, 10.000993, 9.993337 
3.950714e+2, 2.0306829e+2, -961329.25, -1037898.56, -7099.424, 0.00082937593, -0.027136158, -960676.56, -10748.971, 0.00000000027913746, 10.001851, 9.991691 
3.9510983e+2, 2.1305983e+2, -851931.3, -934615.9, -5073.417, 0.00088137423, -0.040348567, -851621.2, 389.15573, 0.00000000001847093, 10.002637, 9.991668 
3.9514822e+2, 2.2305036e+2, -759728.75, -866116.7, -4889.3374, 0.0006632516, -0.0443846, -759504.56, -5401.444, 0.0000000000008880364, 10.00339, 9.989289 
3.951864e+2, 2.3303959e+2, -652890.44, -766151.2, -6194.53, -0.000066540815, -0.03169393, -652552.6, 3656.196, 0.000000000000000004402075, 10.004092, 9.9890785 
3.952248e+2, 2.4302787e+2, -555611.6, -688784.1, -4708.7744, -0.0011208311, -0.023978582, -555445.3, 2878.468, 0.00000000000000000015389045, 10.004912, 9.9872675 
3.9526358e+2, 2.53015e+2, -442480.63, -584137.75, -3451.3667, -0.0023503033, -0.031438507, -442396.6, 18053.2, 0.0, 10.005976, 9.987204 
3.9530239e+2, 2.6300117e+2, -345223.56, -510862.13, -2995.0623, -0.0015256515, -0.033802234, -345169.44, 17415.947, 0.0, 10.006969, 9.985032 
3.9534113e+2, 2.729861e+2, -235944.14, -408981.2, -3556.263, 0.003932728, -0.029087242, -235871.08, 28861.717, 0.0, 10.007809, 9.984887 
3.9537996e+2, 2.8296977e+2, -146010.19, -343991.38, -2569.9512, 0.005717286, -0.029872945, -145976.83, 20916.086, 0.0, 10.008504, 9.982289 
3.9541888e+2, 2.9295176e+2, -43268.543, -245410.75, -3125.2825, 0.0004196546, -0.045858372, -43220.234, 25848.998, 0.0, 10.0089, 9.982132 
3.9545834e+2, 3.0293736e+2, 68354.664, -85699.016, 1135.2501, -0.0010288232, -0.0492894, 68363.03, 68363.03, 0.0, 10.009732, 9.989312 
3.9549857e+2, 3.129271e+2, 95193.37, -70348.72, 2632.4875, 0.0038561611, -0.029587053, 95235.22, 95235.22, 0.0, 10.011473, 9.98953 
4.047553e+2, 1.2305862e+2, -1777501.1, -1734155.3, 688.40857, 0.0017592106, -0.023249516, -1734144.3, -122.05121, 0.00004485904, 9.99518, 10.000921 
4.047954e+2, 1.3305756e+2, -1676913.5, -1653617.6, -5429.4883, 0.01341509, -0.05985282, -1652414.3, -16381.722, 0.00002911354, 9.996174, 9.999252 
4.0483493e+2, 1.4305659e+2, -1575731.3, -1568379.3, -4685.2275, -0.0224602, -0.021056997, -1566100.0, -28057.797, 0.000015709626, 9.997008, 9.997975 
4.0487537e+2, 1.5305448e+2, -1469110.0, -1466633.9, -3732.271, -0.0008168548, -0.027512066, -1463939.8, -23876.734, 0.000006681798, 9.99761, 9.997933 
4.049154e+2, 1.6305134e+2, -1375732.1, -1394470.8, -6247.4624, 0.009043844, -0.034598265, -1373840.3, -31746.56, 0.0000021459712, 9.998321, 9.995829 
4.0495485e+2, 1.7304702e+2, -1264514.6, -1291432.5, -7755.0586, -0.0037361155, -0.037609283, -1262440.3, -18304.338, 0.00000050756734, 9.999278, 9.995701 
4.0499428e+2, 1.8304169e+2, -1169500.6, -1219994.3, -9019.786, -0.009695833, -0.035497595, -1167937.9, -21749.713, 0.00000008752133, 10.000161, 9.993461 
4.0503377e+2, 1.9303508e+2, -1062100.3, -1119241.3, -7227.243, -0.002062122, -0.029101951, -1061200.4, -12947.29, 0.000000010971236, 10.000877, 9.993298 
4.050731e+2, 2.030276e+2, -964651.25, -1039502.9, -7146.15, 0.0018051108, -0.027494337, -963975.1, -13648.821, 0.0000000009993062, 10.001615, 9.9916935 
4.051123e+2, 2.1301916e+2, -855148.2, -936118.4, -9022.815, -0.002457185, -0.03949139, -854154.94, -1746.1018, 0.00000000006613187, 10.002405, 9.991672 
4.051515e+2, 2.230097e+2, -761372.56, -866831.9, -10543.188, -0.0035522312, -0.04300337, -760328.9, -5827.3477, 0.0000000000031798247, 10.003265, 9.989293 
4.051906e+2, 2.3299892e+2, -650233.25, -764797.0, -9589.494, 0.0016771866, -0.03210304, -649436.1, 7171.265, 0.0000000000000000688154, 10.004262, 9.989083 
4.052299e+2, 2.4298719e+2, -552179.06, -687129.56, -7138.3003, 0.0038619451, -0.025952311, -551802.5, 6919.892, 0.0000000000000000024051838, 10.005137, 9.9872675 
4.0526944e+2, 2.5297433e+2, -445591.44, -585693.5, -7734.2026, -0.0007947995, -0.033669148, -445165.75, 15682.669, 0.0, 10.0057535, 9.987199 
4.0530908e+2, 2.6296052e+2, -352842.3, -513881.9, -8301.193, -0.0020012085, -0.035060298, -352415.53, 10568.235, 0.0, 10.006411, 9.985087 
4.0534857e+2, 2.7294555e+2, -244848.14, -412443.38, -7976.05, 0.0039630774, -0.027192168, -244469.4, 20660.896, 0.0, 10.007153, 9.984961 
4.0538827e+2, 2.8292927e+2, -152400.92, -347625.66, -5903.183, 0.0073662745, -0.026586113, -152222.6, 15067.5, 0.0, 10.008077, 9.982243 
4.054281e+2, 2.9291117e+2, -36693.992, -243124.44, -6150.4004, 0.0061497595, -0.044688776, -36510.906, 32956.37, 0.0, 10.0093775, 9.982056 
4.054684e+2, 3.0289674e+2, 77528.63, -80333.734, -1969.8004, 0.0045457166, -0.050049447, 77553.21, 77553.21, 0.0, 10.01031, 9.9894 
4.0550944e+2, 3.1288654e+2, 80758.89, -75922.95, -1622.398, -0.0005799215, -0.032085516, 80775.69, 80775.69, 0.0, 10.010408, 9.989654 
4.1475037e+2, 1.2301722e+2, -1780774.0, -1739652.5, 5361.871, -0.0057155844, -0.04348298, -1738964.9, -4537.2603, 0.0001357749, 9.995129, 10.000567 
4.1479155e+2, 1.3301644e+2, -1677081.0, -1653358.9, -1979.836, 0.009172955, -0.052232817, -1653194.9, -16759.137, 0.00008811505, 9.996152, 9.999275 
4.1483197e+2, 1.430156e+2, -1575531.8, -1567622.1, -2398.2158, -0.021434605, -0.0029495454, -1566951.8, -28507.668, 0.000047546542, 9.996996, 9.998029 
4.148729e+2, 1.5301332e+2, -1468925.5, -1465775.6, -1628.6332, -0.0058962563, -0.030439645, -1465085.0, -24618.898, 0.000020223571, 9.997592, 9.997997 
4.1491365e+2, 1.6301002e+2, -1378124.9, -1398990.9, -3014.6172, 0.0032169612, -0.046696216, -1377698.1, -35199.645, 0.0000064954993, 9.998305, 9.995523 
4.149542e+2, 1.7300548e+2, -1267432.8, -1297220.8, -4161.761, 0.0008892075, -0.0330987, -1266862.3, -22319.219, 0.0000015364569, 9.99927, 9.995305 
4.1499454e+2, 1.8300009e+2, -1167372.9, -1215511.8, -6206.6655, -0.00069848495, -0.02558946, -1166585.5, -19989.602, 0.00000026496838, 10.000157, 9.993764 
4.1503465e+2, 1.9299375e+2, -1058737.8, -1112284.0, -4497.6865, -0.0012799355, -0.038737305, -1058362.5, -9704.56, 0.000000033220672, 10.000877, 9.993768 
4.1507468e+2, 2.0298636e+2, -966946.56, -1044292.4, -4188.928, -0.0031628239, -0.04227547, -966720.4, -15990.1, 0.0000000030265355, 10.001618, 9.991363 
4.1511467e+2, 2.1297768e+2, -858794.2, -943787.4, -5956.05, -0.007381618, -0.028032478, -858378.8, -5563.2363, 0.00000000020034616, 10.002412, 9.991142 
4.1515473e+2, 2.2296804e+2, -760282.5, -864649.7, -6887.0103, -0.0073034638, -0.021212323, -759830.0, -4920.069, 0.000000000009636878, 10.003269, 9.989436 
4.1519487e+2, 2.3295732e+2, -648047.44, -760208.94, -5794.656, 0.0021385741, -0.035168055, -647748.9, 9266.121, 0.0000000000000007946489, 10.004258, 9.989394 
4.1523507e+2, 2.4294558e+2, -553262.3, -689174.06, -4577.838, 0.007899234, -0.04214885, -553108.3, 6021.4795, 0.000000000000000027769294, 10.005131, 9.987127 
4.1527528e+2, 2.529326e+2, -447499.44, -589462.94, -5442.3394, 0.00544994, -0.03636029, -447291.1, 13965.8955, 0.0, 10.005747, 9.986941 
4.153155e+2, 2.6291877e+2, -352125.53, -512340.53, -5611.7876, 0.0027969696, -0.030793805, -351929.2, 11463.676, 0.0, 10.006411, 9.9851885 
4.153557e+2, 2.729039e+2, -243345.03, -409515.6, -5289.36, 0.000017677734, -0.031889804, -243176.83, 22361.744, 0.0, 10.007162, 9.985151 
4.153963e+2, 2.8288773e+2, -152249.89, -347492.94, -1630.635, 0.0017476504, -0.030037997, -152236.28, 15460.929, 0.0, 10.008085, 9.982242 
4.1543755e+2, 2.928698e+2, -37395.875, -244000.47, -1423.178, 0.014280235, -0.025203405, -37386.07, 32486.693, 0.0, 10.009354, 9.982 
4.154789e+2, 3.0285534e+2, 76817.125, -81044.64, -879.9739, 0.016382853, -0.027168462, 76822.03, 76822.03, 0.0, 10.010283, 9.989359 
4.155198e+2, 3.1284475e+2, 80867.36, -76166.68, -1513.1323, -0.0073462073, -0.04776004, 80881.94, 80881.94, 0.0, 10.010438, 9.989618 
4.247457e+2, 1.2297518e+2, -1775682.4, -1740115.4, 3623.5146, -0.007859556, -0.041116435, -1739750.0, -4910.4746, 0.00035082738, 9.995591, 10.000304 
4.2478776e+2, 1.3297445e+2, -1674802.5, -1651284.0, -4623.488, 0.007681501, -0.050674208, -1650407.8, -13560.661, 0.00022768496, 9.996251, 9.999364 
4.24829e+2, 1.4297353e+2, -1576858.1, -1569818.4, -5622.9624, -0.015757341, -0.0087723965, -1566704.4, -27848.203, 0.0001228659, 9.9969635, 9.99789 
4.2487067e+2, 1.5297112e+2, -1465954.6, -1466527.6, -6840.0967, -0.006273468, -0.03223912, -1459395.0, -18515.258, 0.000052266085, 9.997882, 9.997797 
4.2491215e+2, 1.629677e+2, -1372130.9, -1396247.3, -8412.8125, -0.00038008275, -0.045894813, -1369486.1, -26572.967, 0.00001678997, 9.99871, 9.995506 
4.2495352e+2, 1.7296319e+2, -1265638.5, -1295990.5, -6509.1343, 0.00025447042, -0.033980783, -1264301.5, -19343.943, 0.000003972505, 9.999366, 9.995338 
4.2499465e+2, 1.8295781e+2, -1168371.1, -1216026.9, -7635.066, 0.00035811833, -0.027067188, -1167177.8, -20167.49, 0.00000068530704, 10.000081, 9.993763 
4.2503557e+2, 1.9295146e+2, -1057688.0, -1111919.4, -9509.768, -0.0019726148, -0.03788327, -1056068.8, -6996.4443, 0.00000008596078, 10.000944, 9.993753 
4.250764e+2, 2.0294406e+2, -964858.44, -1043973.2, -10616.534, -0.0036181249, -0.04049594, -963458.56, -12313.71, 0.000000007836224, 10.0017805, 9.991297 
4.2511722e+2, 2.1293527e+2, -856898.8, -943738.06, -9241.368, -0.0039072353, -0.029010292, -855926.25, -2695.1052, 0.0000000005191636, 10.00257, 9.991063 
4.2515808e+2, 2.2292559e+2, -759216.0, -864289.75, -8388.753, -0.0028783777, -0.023470132, -758550.5, -3224.4033, 0.000000000025000514, 10.003339, 9.989424 
4.25199e+2, 2.3291487e+2, -650699.0, -761567.5, -9437.825, 0.0002918752, -0.034502536, -649901.3, 7529.585, 0.0000000000000068380394, 10.004071, 9.989385 
4.2523998e+2, 2.4290316e+2, -557626.94, -690977.7, -9603.332, 0.0031237798, -0.040585108, -556938.9, 2606.709, 0.00000000000000023892724, 10.004807, 9.987155 
4.2528093e+2, 2.5289017e+2, -449779.16, -590224.44, -8734.162, 0.004862451, -0.039328948, -449238.06, 12434.809, 0.0, 10.005567, 9.986973 
4.2532197e+2, 2.628763e+2, -351861.7, -511963.4, -7227.055, 0.0053967573, -0.036152825, -351536.1, 12272.546, 0.0, 10.006405, 9.985214 
4.25363e+2, 2.728615e+2, -239521.56, -407498.25, -7850.9766, 0.0023224112, -0.033899587, -239155.42, 26798.438, 0.0, 10.007404, 9.985169 
4.254045e+2, 2.8284538e+2, -149662.03, -346167.1, -4938.758, 0.0019232155, -0.029769866, -149537.98, 18574.219, 0.0, 10.00825, 9.982247 
4.254465e+2, 2.9282746e+2, -46663.957, -248440.48, -4556.717, 0.008678774, -0.025454793, -46561.105, 23726.768, 0.0, 10.008704, 9.982004 
4.2548862e+2, 3.0281308e+2, 64356.645, -85557.12, -3888.5344, 0.011536112, -0.02541652, 64457.44, 64457.44, 0.0, 10.009354, 9.9894905 
4.2553034e+2, 3.128027e+2, 82104.6, -73618.2, -3430.3308, 0.002404501, -0.038291607, 82180.125, 82180.125, 0.0, 10.010431, 9.989792 
4.347413e+2, 1.2293256e+2, -1777492.0, -1742947.4, 6637.98, -0.00854949, -0.016083352, -1741715.8, -6458.172, 0.00078514614, 9.995556, 10.000124 
4.34784e+2, 1.3293162e+2, -1674428.1, -1649604.4, -2547.3352, 0.0076609044, -0.054776523, -1649345.8, -12079.166, 0.00050963036, 9.996217, 9.99949 
4.3482605e+2, 1.4293037e+2, -1579727.3, -1575001.1, -2610.4902, -0.006894091, -0.03979326, -1573843.0, -34564.375, 0.00027507497, 9.996936, 9.997547 
4.3486857e+2, 1.5292782e+2, -1469496.9, -1473415.1, -3500.7473, -0.0040251287, -0.032890227, -1467444.4, -26140.31, 0.00011705333, 9.997868, 9.997331 
4.349108e+2, 1.6292438e+2, -1370319.9, -1392325.1, -5977.8545, -0.004357515, -0.031371504, -1368800.8, -25462.969, 0.000037619757, 9.998704, 9.995771 
4.3495283e+2, 1.729201e+2, -1262461.1, -1289275.8, -4151.0654, -0.007156406, -0.03983118, -1261833.3, -16453.59, 0.000008906541, 9.999361, 9.995793 
4.349947e+2, 1.829148e+2, -1170585.4, -1220459.0, -4602.1104, -0.008053398, -0.03988732, -1170164.3, -22732.764, 0.0000015378395, 10.000077, 9.993459 
4.3503648e+2, 1.9290821e+2, -1061205.9, -1119148.8, -6199.5405, -0.0060407873, -0.02680866, -1060550.0, -11053.855, 0.00000019312868, 10.000945, 9.993257 
4.3507817e+2, 2.0290066e+2, -963506.9, -1041189.3, -7571.519, -0.0022872735, -0.022263648, -962775.8, -11205.488, 0.000000017634331, 10.001781, 9.991482 
4.3511987e+2, 2.128919e+2, -854273.06, -938379.5, -6180.782, 0.005734713, -0.041529436, -853821.3, -165.4002, 0.0000000011708853, 10.002574, 9.991423 
4.3516153e+2, 2.2288224e+2, -760302.94, -866636.75, -5537.5356, 0.0073981714, -0.04837796, -760015.3, -4264.968, 0.000000000056553692, 10.003345, 9.989257 
4.3520305e+2, 2.3287153e+2, -652900.06, -766045.7, -6600.18, -0.00524637, -0.030314913, -652516.3, 5339.235, 0.000000000000044721503, 10.004068, 9.989078 
4.3524465e+2, 2.4285983e+2, -556622.06, -688726.25, -6749.678, -0.011643643, -0.022255398, -556278.1, 3692.1658, 0.000000000000001562477, 10.004802, 9.987308 
4.352864e+2, 2.528469e+2, -447882.6, -586177.9, -5921.162, -0.0030991125, -0.042148136, -447629.53, 14467.311, 0.0, 10.005563, 9.9872465 
4.3532836e+2, 2.628331e+2, -352242.7, -512611.97, -3767.0603, 0.004298865, -0.049647197, -352154.25, 12077.815, 0.0, 10.0064, 9.9851675 
4.3537048e+2, 2.728183e+2, -240759.64, -409585.4, -4219.2607, 0.007721445, -0.03357815, -240654.25, 25722.895, 0.0, 10.007385, 9.985031 
4.354128e+2, 2.828021e+2, -150056.69, -346380.16, -2990.5234, 0.0050724265, -0.02600506, -150011.14, 18524.846, 0.0, 10.008225, 9.982241 
4.3545505e+2, 2.92784e+2, -46418.28, -248004.33, -3137.281, -0.009263353, -0.042027354, -46369.47, 24344.03, 0.0, 10.008712, 9.982026 
4.3549776e+2, 3.0276975e+2, 66629.03, -81311.49, -587.7997, -0.009455465, -0.04173941, 66631.37, 66631.37, 0.0, 10.0093775, 9.989764 
4.3554094e+2, 3.127602e+2, 84611.49, -68471.67, 227.1399, 0.020339455, -0.007964222, 84611.83, 84611.83, 0.0, 10.010435, 9.990138 
4.4473705e+2, 1.22888714e+2, -1772719.5, -1743012.3, 2565.338, -0.0062823477, -0.015657615, -1742792.4, -7105.0825, 0.0015538043, 9.995973, 9.999909 
4.447803e+2, 1.3288786e+2, -1669885.3, -1647198.5, -8257.481, 0.005170768, -0.04729368, -1644511.3, -6815.637, 0.0010089569, 9.996508, 9.999504 
4.4482312e+2, 1.4288644e+2, -1577270.9, -1574109.8, -7094.1035, -0.00079696777, -0.04766887, -1568422.3, -28712.994, 0.0005448942, 9.997107, 9.997517 
4.4486648e+2, 1.5288392e+2, -1468865.6, -1473545.1, -4614.7915, -0.0022323383, -0.03380768, -1466031.3, -24297.033, 0.00023205215, 9.997918, 9.997293 
4.449095e+2, 1.6288047e+2, -1370142.4, -1392599.1, -6529.241, -0.005652822, -0.028482037, -1368382.0, -24613.904, 0.00007466019, 9.998724, 9.99574 
4.4495225e+2, 1.7287612e+2, -1260500.5, -1288695.6, -8460.734, -0.007703555, -0.04021499, -1258156.5, -12346.017, 0.000017702305, 9.999502, 9.995758 
4.4499484e+2, 1.8287076e+2, -1168662.9, -1220425.6, -10428.579, -0.007439584, -0.04224844, -1166640.9, -18777.809, 0.000003062777, 10.000238, 9.993374 
4.450374e+2, 1.9286409e+2, -1062450.0, -1120781.8, -9219.018, -0.0043479796, -0.028565707, -1061027.6, -11099.02, 0.0000003857046, 10.0008955, 9.993164 
4.450799e+2, 2.0285648e+2, -965879.25, -1042257.94, -9181.846, -0.0006004377, -0.023731377, -964791.0, -12787.756, 0.00000003535121, 10.001607, 9.991489 
4.4512236e+2, 2.1284775e+2, -855873.9, -938833.0, -10156.7705, 0.0047602146, -0.04254691, -854648.5, -560.0048, 0.000000002359298, 10.00244, 9.99145 
4.451648e+2, 2.2283813e+2, -762198.9, -867242.44, -10929.662, 0.006092852, -0.04925787, -761073.7, -4891.0205, 0.000000000114745775, 10.003191, 9.989284 
4.4520697e+2, 2.3282743e+2, -656753.3, -767598.56, -9812.502, -0.002538403, -0.033421654, -655891.4, 2396.4414, 0.00000000000022836846, 10.00378, 9.989107 
4.4524935e+2, 2.4281575e+2, -560794.4, -690512.94, -8114.149, -0.0071177036, -0.025272273, -560288.8, 113.45828, 0.0000000000000079783024, 10.004497, 9.9873295 
4.4529194e+2, 2.528029e+2, -448595.8, -586378.1, -8827.067, -0.0026753382, -0.038205232, -448032.6, 14495.506, 0.0, 10.005496, 9.98726 
4.453347e+2, 2.6278913e+2, -352705.56, -513192.34, -8008.0605, 0.0022149463, -0.043234516, -352306.94, 12356.146, 0.0, 10.006372, 9.985136 
4.4537762e+2, 2.7277416e+2, -247491.7, -413421.53, -8092.1143, 0.0067801047, -0.0360615, -247098.0, 19711.408, 0.0, 10.006937, 9.98498 
4.4542068e+2, 2.8275797e+2, -157948.13, -349120.38, -6224.975, 0.0051688002, -0.033298556, -157745.64, 11222.907, 0.0, 10.007627, 9.982338 
4.454637e+2, 2.9274002e+2, -47180.93, -246856.23, -5689.0024, -0.008622774, -0.044083886, -47018.977, 24125.266, 0.0, 10.008581, 9.982164 
4.4550723e+2, 3.0272582e+2, 68226.13, -81561.09, -2943.7126, -0.0088254055, -0.04232122, 68283.96, 68283.96, 0.0, 10.009515, 9.989679 
4.455513e+2, 3.1271607e+2, 81814.21, -71595.31, -5300.445, 0.018911144, -0.016652316, 81997.13, 81997.13, 0.0, 10.010301, 9.989984 
4.5473307e+2, 1.2284363e+2, -1775186.1, -1746961.5, 4582.7935, -0.005005802, -0.042360652, -1746236.0, -10107.189, 0.0027803245, 9.995927, 9.99966 
4.5477676e+2, 1.3284309e+2, -1671198.4, -1649099.8, -6665.4937, -0.0017530349, -0.027405532, -1647245.0, -9110.767, 0.0018069525, 9.996479, 9.999384 
4.5482025e+2, 1.4284171e+2, -1575465.6, -1569831.1, -4630.707, 0.00075384614, -0.030887464, -1567228.0, -27080.043, 0.0009770269, 9.997086, 9.997811 
4.5486438e+2, 1.5283939e+2, -1466238.4, -1467659.9, -1704.046, -0.0027660357, -0.035046514, -1465102.8, -22932.21, 0.00041677037, 9.9979, 9.997696 
4.5490822e+2, 1.6283599e+2, -1372702.3, -1397531.3, -3742.3057, -0.0063381856, -0.03800848, -1372150.5, -27946.635, 0.00013439546, 9.998712, 9.995405 
4.549518e+2, 1.7283125e+2, -1264468.5, -1296664.5, -5637.5723, -0.002998549, -0.035335097, -1263509.9, -17259.705, 0.000031964762, 9.999496, 9.9952135 
4.5499516e+2, 1.8282564e+2, -1167816.9, -1218533.9, -8007.765, 0.00018566562, -0.0340634, -1166582.5, -18277.313, 0.000005553748, 10.000235, 9.9935 
4.5503837e+2, 1.9281901e+2, -1060250.9, -1116292.8, -6747.538, 0.0009472989, -0.043040764, -1059449.9, -9079.895, 0.00000070340104, 10.000901, 9.993463 
4.5508152e+2, 2.0281148e+2, -966989.5, -1044599.7, -6179.2925, -0.0010049671, -0.04452698, -966500.56, -14056.624, 0.000000064967765, 10.001611, 9.991324 
4.551247e+2, 2.1280278e+2, -857981.6, -943177.4, -6907.066, -0.007678982, -0.032275904, -857425.3, -2895.974, 0.0000000043809485, 10.0024395, 9.991151 
4.5516786e+2, 2.2279316e+2, -760780.6, -864321.8, -8488.563, -0.008002651, -0.026707096, -760089.3, -3465.7537, 0.00000000021602262, 10.003194, 9.989477 
4.5521083e+2, 2.3278245e+2, -654232.2, -762576.9, -7601.4395, 0.005620604, -0.04272835, -653701.5, 5026.895, 0.0000000000009414817, 10.003791, 9.989442 
4.5525405e+2, 2.4277082e+2, -561280.75, -691696.7, -4711.525, 0.012690856, -0.047501273, -561110.75, -268.5535, 0.000000000000032891313, 10.004504, 9.98724 
4.5529753e+2, 2.527581e+2, -450268.34, -589602.06, -5059.049, 0.003960551, -0.028142, -450084.88, 12882.356, 0.0, 10.005485, 9.987041 
4.5534107e+2, 2.627443e+2, -353205.8, -513807.66, -5607.735, -0.0021875005, -0.018768484, -353010.22, 12092.19, 0.0, 10.006356, 9.985098 
4.553845e+2, 2.727291e+2, -247494.22, -413340.66, -6122.873, -0.0018051643, -0.040259905, -247268.48, 19982.85, 0.0, 10.006937, 9.98498 
4.5542827e+2, 2.827128e+2, -156640.4, -346405.9, -3150.61, -0.0001528343, -0.04954545, -156588.11, 12822.653, 0.0, 10.007627, 9.982519 
4.5547244e+2, 2.9269537e+2, -45688.68, -243513.4, -2395.898, 0.006029522, -0.033804595, -45659.668, 25921.943, 0.0, 10.008572, 9.982392 
4.5551693e+2, 3.026812e+2, 65144.85, -87596.43, -116.29361, 0.008537247, -0.029058276, 65144.938, 65144.938, 0.0, 10.0095, 9.989268 
4.5556143e+2, 3.1267032e+2, 77544.62, -80388.805, -2507.4365, -0.00089046935, -0.055229902, 77584.414, 77584.414, 0.0, 10.010299, 9.989377 
4.6472898e+2, 1.2279807e+2, -1776132.5, -1747927.4, 2978.4573, -0.00061204116, -0.053915862, -1747616.3, -11041.129, 0.004589857, 9.995875, 9.999616 
4.6477324e+2, 1.327977e+2, -1669235.0, -1648498.6, -7738.169, -0.008831553, -0.019953934, -1645929.4, -7350.2676, 0.0029879087, 9.996614, 9.999358 
4.6481746e+2, 1.4279622e+2, -1571257.4, -1567708.3, -5822.373, 0.0014165016, -0.030985655, -1563396.0, -22802.3, 0.0016192476, 9.997356, 9.997822 
4.648624e+2, 1.527939e+2, -1463076.3, -1466015.9, -5742.2744, -0.0024404067, -0.0368364, -1458618.6, -16002.448, 0.00069287396, 9.998099, 9.997705 
4.64907e+2, 1.6279045e+2, -1371842.6, -1398402.5, -9198.3, -0.005539848, -0.039825562, -1368968.1, -24318.186, 0.00022437889, 9.998815, 9.99529 
4.6495134e+2, 1.727856e+2, -1265460.5, -1298899.3, -8391.249, 0.0003332985, -0.034898072, -1263472.9, -16775.361, 0.000053673917, 9.999494, 9.995059 
4.649954e+2, 1.827799e+2, -1167972.4, -1218676.5, -9294.908, 0.004363968, -0.032975096, -1166322.1, -17568.646, 0.000009398119, 10.000214, 9.993499 
4.6503934e+2, 1.927733e+2, -1057608.1, -1114692.9, -10003.279, 0.0016254828, -0.04429932, -1055905.9, -5087.853, 0.0000012027082, 10.001053, 9.993494 
4.6508318e+2, 2.0276575e+2, -964686.3, -1043969.8, -10682.401, -0.0022700771, -0.04627928, -963272.25, -10380.218, 0.00000011262272, 10.001777, 9.9912815 
4.6512705e+2, 2.12757e+2, -860912.0, -945380.8, -9937.929, -0.00844878, -0.031749595, -859758.5, -4780.6284, 0.000000007732489, 10.002263, 9.991082 
4.651709e+2, 2.2274737e+2, -764476.56, -865607.06, -10361.393, -0.008241467, -0.025509765, -763425.9, -6353.6123, 0.00000000039024706, 10.002908, 9.989524 
4.6521473e+2, 2.3273672e+2, -651410.9, -760525.2, -11178.994, 0.0052634897, -0.04199484, -650277.3, 8899.134, 0.0000000000032348013, 10.003943, 9.989502 
4.652587e+2, 2.4272513e+2, -556914.4, -690182.7, -9638.053, 0.012865817, -0.047103286, -556220.94, 5069.1475, 0.00000000000011301746, 10.004816, 9.987187 
4.653029e+2, 2.5271228e+2, -453538.34, -592428.2, -9397.768, 0.00586075, -0.030141791, -452905.34, 10511.045, 0.0, 10.005303, 9.98693 
4.653472e+2, 2.626984e+2, -358830.84, -515273.38, -8948.796, 0.000017504068, -0.021954577, -358320.63, 7231.2813, 0.0, 10.005904, 9.985211 
4.6539134e+2, 2.726834e+2, -248440.81, -411880.06, -8324.894, -0.0036602374, -0.040475123, -248017.88, 19680.969, 0.0, 10.006774, 9.985157 
4.6543586e+2, 2.8266725e+2, -157093.97, -347238.28, -4914.054, -0.002176748, -0.04760124, -156967.05, 12890.117, 0.0, 10.007613, 9.982464 
4.6548092e+2, 2.926497e+2, -50785.277, -247417.14, -6528.993, 0.012966198, -0.032672696, -50568.723, 21460.62, 0.0, 10.008271, 9.9822645 
4.6552628e+2, 3.026355e+2, 59932.87, -88096.15, -3865.087, 0.016410133, -0.029376144, 60033.72, 60033.72, 0.0, 10.00905, 9.98944 
4.6557143e+2, 3.1262484e+2, 74906.55, -78586.63, -815.99567, -0.0127091175, -0.057298522, 74910.88, 74910.88, 0.0, 10.009985, 9.989645 
4.747249e+2, 1.22752145e+2, -1775727.1, -1745620.5, 4914.606, 0.00043845395, -0.046554603, -1744838.6, -7813.4097, 0.007113215, 9.995816, 9.999796 
4.7476974e+2, 1.327517e+2, -1669484.5, -1648014.4, -5165.509, -0.01778059, -0.025667023, -1646836.3, -7806.6807, 0.004643645, 9.996577, 9.999402 
4.7481483e+2, 1.4275001e+2, -1573799.1, -1572268.8, -3353.7498, -0.00062706566, -0.048667744, -1569594.0, -28547.797, 0.0025262511, 9.997331, 9.9975195 
4.7486046e+2, 1.5274745e+2, -1466284.6, -1472188.4, -3167.7393, -0.0043011685, -0.0389879, -1464906.6, -21835.27, 0.0010866441, 9.998085, 9.997287 
4.749058e+2, 1.6274387e+2, -1371223.5, -1396834.0, -6918.815, -0.0072290935, -0.03341627, -1369473.9, -24367.48, 0.00035438547, 9.998804, 9.995397 
4.7495082e+2, 1.7273915e+2, -1263725.6, -1295190.9, -5968.792, -0.0004382665, -0.03877452, -1262631.4, -15478.715, 0.000085576154, 9.999492, 9.995307 
4.7499564e+2, 1.8273354e+2, -1168881.5, -1220519.3, -6394.9077, 0.0026427405, -0.039065946, -1168101.3, -18893.424, 0.000015172572, 10.000215, 9.993368 
4.7504035e+2, 1.9272687e+2, -1059288.4, -1118265.6, -6834.5605, -0.0041351654, -0.03199119, -1058506.8, -7233.672, 0.0000019737136, 10.0010605, 9.993241 
4.7508493e+2, 2.0271924e+2, -964086.8, -1042802.0, -8658.427, -0.0070990445, -0.028854763, -963145.7, -9797.821, 0.00000018875323, 10.001781, 9.991355 
4.751294e+2, 2.1271041e+2, -859658.1, -942949.44, -8064.924, -0.0005215966, -0.04043404, -858884.4, -3449.8516, 0.000000013307983, 10.002272, 9.991241 
4.7517392e+2, 2.2270073e+2, -765005.4, -866882.2, -6844.0195, 0.0022930547, -0.044389933, -764547.7, -7018.496, 0.00000000069387657, 10.002916, 9.9894285 
4.7521856e+2, 2.326902e+2, -652741.94, -763228.8, -7144.5386, -0.0043383026, -0.03198216, -652281.9, 7350.594, 0.000000000009472845, 10.00394, 9.989315 
4.7526333e+2, 2.4267857e+2, -557504.75, -691080.94, -7389.679, -0.006820258, -0.025741717, -557097.2, 4649.204, 0.00000000000033105902, 10.004805, 9.987127 
4.7530818e+2, 2.5266534e+2, -453881.25, -592884.94, -7640.854, 0.0015021074, -0.04239704, -453462.5, 10413.487, 0.000000000000000004361499, 10.005294, 9.986899 
4.7535318e+2, 2.6265147e+2, -357178.3, -511660.03, -6019.687, 0.005804586, -0.049576707, -356944.1, 9067.97, 0.000000000000000025260425, 10.0058975, 9.985456 
4.7539812e+2, 2.7263707e+2, -246420.47, -407405.94, -5200.8076, -0.0018008208, -0.03806272, -246252.63, 21900.604, 0.00000000000000010669206, 10.006763, 9.985463 
4.7544348e+2, 2.8262112e+2, -159088.05, -351030.13, -2499.6995, -0.0035698796, -0.02994706, -159055.5, 11253.756, 0.00000000000000033199385, 10.007599, 9.982207 
4.754892e+2, 2.926029e+2, -54071.227, -254115.75, -4318.9604, 0.012090318, -0.037892003, -53978.023, 18510.057, 0.00000000000000078039946, 10.008269, 9.981802 
4.755353e+2, 3.0258858e+2, 64488.766, -78541.13, -735.3132, 0.014531454, -0.041264854, 64492.543, 64492.543, 0.0000000000000014474501, 10.009051, 9.990088 
4.7558135e+2, 3.1257933e+2, 81598.516, -64116.086, 2148.4272, -0.02100773, -0.023238951, 81630.18, 81630.18, 0.0000000000000022339833, 10.009967, 9.99064 
4.847209e+2, 1.2270563e+2, -1768327.8, -1739951.8, 3382.9956, 0.002798303, -0.043732062, -1739554.0, -2073.057, 0.01049777, 9.996217, 9.999984 
4.8476642e+2, 1.3270497e+2, -1666044.8, -1648737.8, -7611.0967, -0.023319393, -0.028974194, -1645866.8, -6379.414, 0.0068823104, 9.996902, 9.999191 
4.848123e+2, 1.4270304e+2, -1571060.9, -1573390.0, -6973.3994, 0.0019078924, -0.05257331, -1565155.5, -23649.28, 0.0037656925, 9.997617, 9.997297 
4.8485866e+2, 1.5270029e+2, -1464569.4, -1473901.3, -5578.573, -0.0017479463, -0.040774968, -1461962.6, -18429.28, 0.0016323061, 9.998302, 9.99706 
4.8490474e+2, 1.6269659e+2, -1368249.9, -1395516.9, -8856.761, -0.005978731, -0.03364384, -1365625.6, -20055.78, 0.00053782034, 9.999003, 9.995384 
4.8495042e+2, 1.7269191e+2, -1259653.8, -1292686.3, -9450.695, -0.0023581556, -0.038555533, -1257141.0, -9525.343, 0.00013162919, 9.999734, 9.995356 
4.849959e+2, 1.8268631e+2, -1166445.3, -1219800.3, -10803.81, -0.00035215527, -0.03828276, -1164340.6, -14669.941, 0.000023746588, 10.000393, 9.993323 
4.8504132e+2, 1.9267958e+2, -1061991.1, -1120366.6, -10074.763, -0.0049323784, -0.03130976, -1060301.3, -8564.782, 0.0000031577385, 10.0009, 9.993173 
4.8508662e+2, 2.026719e+2, -967517.9, -1044232.4, -11172.376, -0.0054067373, -0.028932052, -965923.9, -12112.233, 0.00000031029586, 10.001529, 9.991376 
4.851318e+2, 2.126631e+2, -856301.0, -940910.25, -11436.393, 0.0040510716, -0.04119066, -854782.44, 1115.5969, 0.000000022599854, 10.002472, 9.991278 
4.8517707e+2, 2.2265342e+2, -760879.9, -866283.1, -10934.996, 0.007507407, -0.045298748, -759757.4, -1764.4972, 0.000000001223376, 10.003246, 9.989305 
4.8522234e+2, 2.3264268e+2, -658243.5, -768106.25, -11318.079, -0.0045909677, -0.03341138, -657089.6, 3008.4487, 0.000000000023981296, 10.003648, 9.989118 
4.852678e+2, 2.4263099e+2, -566007.25, -694088.06, -11221.385, -0.010198686, -0.027083281, -565031.56, -2818.7488, 0.0000000000008389532, 10.004165, 9.9872265 
4.853133e+2, 2.5261793e+2, -456527.8, -592216.9, -10091.8955, -0.00073272915, -0.041550543, -455781.34, 8559.167, 0.0000000000000001261701, 10.005017, 9.987076 
4.8535904e+2, 2.6260418e+2, -357479.84, -511147.03, -7673.784, 0.005833209, -0.049252152, -357097.6, 9377.608, 0.00000000000000073087254, 10.005834, 9.98552 
4.8540482e+2, 2.725897e+2, -249816.42, -409171.9, -8848.092, 0.0027724835, -0.042839356, -249326.64, 19290.215, 0.0000000000000030875687, 10.006521, 9.9854555 
4.8545092e+2, 2.8257385e+2, -163703.44, -352991.72, -6788.1934, 0.00093067775, -0.032614686, -163460.31, 7312.2744, 0.000000000000009609587, 10.007259, 9.98223 
4.8549727e+2, 2.9255575e+2, -57187.957, -255542.53, -5727.561, 0.004558589, -0.028471343, -57022.71, 15927.416, 0.000000000000022592925, 10.00804, 9.981812 
4.8554412e+2, 3.0254135e+2, 61617.688, -78958.35, -1506.4664, 0.0047666067, -0.04496212, 61633.83, 61633.83, 0.00000000000004190963, 10.008793, 9.990185 
4.8559108e+2, 3.1253225e+2, 72549.67, -67024.414, -4543.1157, -0.0058849733, -0.02458888, 72697.39, 72697.39, 0.000000000000064683685, 10.009258, 9.990777 
4.947171e+2, 1.22658625e+2, -1767832.0, -1737681.5, 4095.3481, 0.00022249648, -0.043984205, -1737135.1, 806.5608, 0.014911252, 9.996168, 10.000157 
4.9476328e+2, 1.3265753e+2, -1670296.5, -1656566.6, -5304.0796, -0.027231352, -0.030022364, -1654756.3, -14803.788, 0.009830928, 9.996871, 9.998668 
4.9480996e+2, 1.4265533e+2, -1572399.8, -1575498.9, -4768.5854, 0.007247422, -0.042494033, -1568935.4, -26961.402, 0.0054196375, 9.997592, 9.99716 
4.9485704e+2, 1.5265241e+2, -1465036.8, -1474462.9, -3234.6687, 0.0026292626, -0.042790968, -1464033.5, -20030.918, 0.0023727028, 9.99829, 9.997022 
4.9490374e+2, 1.6264857e+2, -1369270.5, -1397445.0, -6380.1714, -0.0048989537, -0.041122206, -1367893.0, -21852.777, 0.00079196517, 9.999001, 9.995249 
4.9495012e+2, 1.7264386e+2, -1260894.5, -1295183.0, -6924.019, -0.0076906467, -0.034051776, -1259549.0, -11462.456, 0.00019707251, 9.999736, 9.995177 
4.9499622e+2, 1.8263818e+2, -1166170.9, -1219099.9, -8909.028, -0.007876397, -0.030740753, -1164711.5, -14569.277, 0.000036298647, 10.00039, 9.993368 
4.9504223e+2, 1.9263138e+2, -1061148.5, -1118709.9, -8254.847, -0.0042381254, -0.04272649, -1059988.0, -7779.262, 0.0000049503406, 10.000908, 9.993277 
4.950882e+2, 2.026237e+2, -967588.06, -1044524.5, -8093.6826, -0.00076800317, -0.046809874, -966745.8, -12461.858, 0.00000050112493, 10.001537, 9.991346 
4.9513426e+2, 2.1261506e+2, -856765.56, -941992.44, -7796.8545, 0.0030360953, -0.03421382, -856058.1, 310.65875, 0.000000037748414, 10.00248, 9.991195 
4.951803e+2, 2.2260535e+2, -762089.7, -868750.8, -8992.478, 0.005033538, -0.02849374, -761336.9, -2872.948, 0.0000000021194788, 10.003247, 9.989133 
4.952261e+2, 2.3259413e+2, -659609.5, -771096.0, -9783.311, 0.0019283462, -0.044975854, -658757.5, 1816.2415, 0.00000000005330912, 10.003656, 9.988907 
4.9527207e+2, 2.4258229e+2, -564115.1, -690405.0, -8344.851, -0.00058547244, -0.049097557, -563566.1, -876.3567, 0.000000000001871645, 10.004175, 9.987468 
4.953183e+2, 2.5256994e+2, -454089.8, -586944.8, -6845.131, -0.002067487, -0.029164635, -453738.06, 11072.759, 0.000000000000009575241, 10.005006, 9.987438 
4.9536481e+2, 2.6255652e+2, -358607.84, -513002.38, -5061.167, -0.000513809, -0.023865081, -358442.1, 8500.349, 0.000000000000055453838, 10.005813, 9.9854 
4.9541137e+2, 2.725414e+2, -252168.55, -413734.16, -6448.768, 0.007788679, -0.053542674, -251911.55, 17178.8, 0.0000000000002341752, 10.00651, 9.985145 
4.9545828e+2, 2.8252533e+2, -162028.77, -349281.28, -4113.4297, 0.007900154, -0.052317936, -161938.45, 9309.328, 0.0000000000007286158, 10.007249, 9.982485 
4.9550515e+2, 2.925081e+2, -54600.742, -249700.27, -3098.9436, -0.010034059, -0.0056381617, -54551.53, 18865.682, 0.0000000000017125554, 10.008022, 9.982215 
4.9555275e+2, 3.0249357e+2, 58726.156, -84576.484, 320.85492, -0.013467051, -0.043406885, 58726.875, 58726.875, 0.0000000000031753393, 10.008782, 9.989799 
4.9560067e+2, 3.124836e+2, 68875.04, -74965.164, -3210.2043, 0.02406923, -0.04987256, 68946.65, 68946.65, 0.000000000004897224, 10.009275, 9.990218 
5.0471324e+2, 1.2261076e+2, -1767367.1, -1735541.6, -101.28094, 0.001579516, -0.04062035, -1735541.4, 2869.4248, 0.020533854, 9.996104, 10.000331 
5.0476027e+2, 1.3260926e+2, -1668922.9, -1660837.1, -7362.5254, -0.029945986, -0.03228799, -1656480.5, -16054.927, 0.013628187, 9.997162, 9.998233 
5.048079e+2, 1.4260684e+2, -1565284.8, -1573144.1, -7314.226, 0.0152212065, -0.037132524, -1560911.4, -18462.074, 0.0075791995, 9.998109, 9.997066 
5.048555e+2, 1.5260386e+2, -1459676.9, -1471931.4, -5895.923, 0.004729661, -0.04160866, -1457300.9, -12822.608, 0.0033562193, 9.998646, 9.997018 
5.049028e+2, 1.6259997e+2, -1367335.8, -1397312.9, -8745.264, -0.0065102093, -0.042935815, -1364971.0, -18454.455, 0.0011366707, 9.999155, 9.995179 
5.049498e+2, 1.7259517e+2, -1262379.0, -1297012.6, -8722.411, -0.006911753, -0.034962367, -1260306.3, -11742.663, 0.00028802847, 9.999673, 9.995081 
5.049966e+2, 1.8258938e+2, -1168590.0, -1221474.6, -10668.24, -0.0046563987, -0.031859927, -1166519.0, -15898.773, 0.000054231128, 10.000264, 9.993265 
5.0504327e+2, 1.9258246e+2, -1059104.9, -1119062.9, -11591.762, -0.0004686277, -0.046402104, -1056941.9, -4253.7813, 0.0000075890043, 10.001091, 9.993159 
5.050899e+2, 2.0257469e+2, -964118.44, -1043229.75, -12597.5, 0.0017090415, -0.05043429, -962160.9, -7396.75, 0.00000079091893, 10.001777, 9.991314 
5.0513655e+2, 2.1256608e+2, -861556.5, -944577.25, -12013.432, -0.00038801742, -0.032608647, -859853.06, -3004.3767, 0.00000006148999, 10.00215, 9.991175 
5.051832e+2, 2.2255641e+2, -770034.56, -871933.1, -12353.569, -0.0003365124, -0.025347495, -768558.25, -9614.686, 0.0000000035684378, 10.002665, 9.989193 
5.052297e+2, 2.3254521e+2, -659437.6, -770204.7, -11074.979, 0.0034494563, -0.047806654, -658341.2, 2711.9968, 0.000000000106601436, 10.003621, 9.988982 
5.0527644e+2, 2.4253343e+2, -560042.8, -688140.25, -9099.68, 0.005245317, -0.05324183, -559399.6, 3768.9153, 0.0000000000037957758, 10.004427, 9.987502 
5.053233e+2, 2.5252113e+2, -456147.28, -588342.7, -10213.048, 0.00018670835, -0.026497604, -455362.9, 9926.251, 0.0000000000002126687, 10.004869, 9.987405 
5.053704e+2, 2.6250768e+2, -364666.22, -516237.97, -9470.144, -0.0011287917, -0.021012012, -364076.8, 3344.2505, 0.0000000000012317329, 10.005401, 9.985371 
5.054177e+2, 2.7249244e+2, -257104.56, -416675.94, -9110.769, 0.0063753678, -0.060063723, -256586.08, 12984.294, 0.0000000000052015844, 10.006184, 9.985094 
5.054654e+2, 2.8247648e+2, -165444.64, -349134.84, -5964.8535, 0.0074876193, -0.054363783, -165251.16, 6475.7134, 0.000000000016184465, 10.006922, 9.982651 
5.0551295e+2, 2.9245958e+2, -61052.723, -250809.47, -6483.3887, -0.0062533775, 0.009833286, -60831.465, 13061.13, 0.000000000038037778, 10.007475, 9.982401 
5.055613e+2, 3.0244476e+2, 51922.133, -88425.59, -2323.1265, -0.010207002, -0.06501131, 51960.574, 51960.574, 0.000000000070511263, 10.00832, 9.989756 
5.0561005e+2, 3.124349e+2, 73043.29, -72113.66, -2967.8855, 0.02134318, -0.050219085, 73103.945, 73103.945, 0.0000000001086931, 10.009504, 9.99031 
5.147093e+2, 1.2256212e+2, -1767296.6, -1733843.1, 1452.4951, -0.0013926852, -0.034906797, -1733780.1, 5107.4463, 0.027554031, 9.996042, 10.000475 
5.147574e+2, 1.3256022e+2, -1672274.6, -1666591.3, -3558.8184, -0.033610497, -0.035043832, -1664878.8, -23972.623, 0.018419899, 9.997122, 9.997851 
5.148061e+2, 1.4255758e+2, -1566105.3, -1574148.8, -5235.3984, 0.024021594, -0.036186714, -1563525.3, -20593.021, 0.010340942, 9.998085, 9.997003 
5.1485413e+2, 1.5255466e+2, -1459713.1, -1471625.8, -4260.8984, 0.0013290301, -0.03672049, -1458346.0, -13385.355, 0.0046347342, 9.998633, 9.997039 
5.149019e+2, 1.6255075e+2, -1367459.0, -1397386.9, -7138.224, -0.015602908, -0.038800098, -1365843.6, -18844.75, 0.0015935765, 9.999153, 9.99517 
5.149495e+2, 1.7254584e+2, -1262420.4, -1297161.0, -7032.8696, -0.0034095177, -0.041647445, -1261050.6, -12003.756, 0.00041132476, 9.999681, 9.995061 
5.1499695e+2, 1.8253991e+2, -1170206.4, -1224945.1, -8054.8657, 0.005858944, -0.04195163, -1169045.8, -17940.79, 0.00007915646, 10.000272, 9.99302 
5.1504445e+2, 1.9253281e+2, -1061199.8, -1123671.0, -8525.184, 0.003554937, -0.041825794, -1060057.3, -6882.643, 0.0000113579035, 10.001106, 9.992833 
5.150916e+2, 2.0252489e+2, -964348.6, -1043919.7, -10926.768, -0.0006482769, -0.039490823, -962875.4, -7623.046, 0.0000012170423, 10.001788, 9.991258 
5.151387e+2, 2.1251614e+2, -861149.9, -944080.4, -10623.837, -0.0081246365, -0.036068596, -859810.5, -2472.5369, 0.000000097492624, 10.002169, 9.991196 
5.151857e+2, 2.2250654e+2, -767831.06, -867657.25, -9252.715, -0.010790079, -0.035491273, -766980.7, -7548.4766, 0.0000000058393734, 10.002677, 9.989474 
5.1523334e+2, 2.3249581e+2, -656923.7, -765003.06, -7280.0366, -0.0014031435, -0.04311469, -656435.5, 5101.5205, 0.00000000019841896, 10.00362, 9.989333 
5.1528084e+2, 2.4248427e+2, -561634.8, -691082.8, -7076.798, 0.0051000337, -0.041230336, -561249.06, 2401.1204, 0.000000000007634904, 10.004413, 9.987305 
5.1532817e+2, 2.5247145e+2, -459020.72, -594168.75, -8613.762, 0.0033428343, -0.031835802, -458473.94, 7302.139, 0.0000000000039886605, 10.004866, 9.987006 
5.1537585e+2, 2.6245764e+2, -364215.63, -515396.06, -6886.496, 0.00088024663, -0.03875503, -363902.6, 4008.7695, 0.000000000023101169, 10.005405, 9.985421 
5.1542383e+2, 2.724427e+2, -256021.48, -414173.5, -6251.26, -0.0026245941, -0.06387458, -255774.78, 14283.116, 0.00000000009755803, 10.00617, 9.985269 
5.154722e+2, 2.8242707e+2, -165163.55, -348129.22, -3937.3474, -0.0014470272, -0.039764058, -165078.84, 7132.192, 0.000000000303523, 10.006905, 9.982724 
5.155206e+2, 2.9241014e+2, -61418.492, -251328.02, -4712.513, 0.010710424, 0.021913921, -61301.625, 13075.293, 0.00000000071315065, 10.007467, 9.982364 
5.155698e+2, 3.023948e+2, 52968.97, -86018.09, 1512.0388, 0.008891519, -0.10662405, 52985.414, 52985.414, 0.0000000013213384, 10.008317, 9.989911 
5.156193e+2, 3.1238592e+2, 76773.27, -63663.098, 856.08154, -0.009106222, -0.020113291, 76778.49, 76778.49, 0.0000000020352628, 10.009487, 9.990884 
5.2470577e+2, 1.22512534e+2, -1755770.0, -1728558.5, -1688.3464, 0.005562803, -0.034040213, -1728454.1, 10919.303, 0.036176804, 9.996811, 10.000475 
5.247546e+2, 1.3251045e+2, -1668151.4, -1666146.8, -4790.854, -0.039737806, -0.042680524, -1662254.5, -20860.607, 0.024365017, 9.997453, 9.99772 
5.248041e+2, 1.4250779e+2, -1566893.6, -1575607.3, -6311.5923, 0.024277806, -0.032686643, -1563581.1, -20161.107, 0.013811107, 9.998073, 9.996905 
5.248529e+2, 1.5250477e+2, -1459262.8, -1472306.0, -6495.3794, 0.0026994287, -0.035605825, -1456580.0, -11130.546, 0.0062664114, 9.998697, 9.996956 
5.2490115e+2, 1.6250075e+2, -1365438.9, -1397653.4, -10100.173, -0.01340531, -0.039660495, -1362534.1, -15045.269, 0.002187711, 9.999334, 9.995059 
5.2494943e+2, 1.7249572e+2, -1258020.0, -1296520.4, -10945.83, -0.0015272521, -0.041993827, -1255125.8, -5587.6167, 0.0005752219, 10.000032, 9.99493 
5.249974e+2, 1.8248968e+2, -1164962.6, -1223260.6, -12026.492, 0.0073084137, -0.04121359, -1162579.0, -10981.836, 0.00011314291, 10.00066, 9.992939 
5.250455e+2, 1.9248255e+2, -1060776.8, -1124106.4, -10546.998, 0.0035085068, -0.039101314, -1059066.5, -5399.2427, 0.000016648359, 10.001155, 9.992775 
5.250934e+2, 2.0247456e+2, -966188.9, -1045266.75, -12140.312, -0.0009573999, -0.036626413, -964367.06, -8621.581, 0.0000018353236, 10.001672, 9.991221 
5.2514094e+2, 2.1246576e+2, -858391.0, -943218.56, -12440.997, -0.0057166438, -0.037805315, -856604.06, 1227.7532, 0.00000015174481, 10.002363, 9.991159 
5.251886e+2, 2.224561e+2, -763831.2, -865579.4, -11934.418, -0.007112246, -0.04013649, -762450.06, -2523.652, 0.000000009413526, 10.002928, 9.989493 
5.252367e+2, 2.3244545e+2, -661810.7, -767239.3, -12185.238, -0.0002905487, -0.044248823, -660420.6, 1610.1111, 0.00000000035784709, 10.003265, 9.989348 
5.252849e+2, 2.4243395e+2, -571198.2, -695838.5, -12689.265, 0.0047594737, -0.037752442, -569919.44, -5776.0547, 0.00000000002014928, 10.00375, 9.987294 
5.253329e+2, 2.5242108e+2, -461029.47, -595566.25, -11769.386, 0.0027814144, -0.02729619, -460007.66, 6261.8364, 0.000000000054994186, 10.004733, 9.986971 
5.2538127e+2, 2.624072e+2, -361259.88, -513549.56, -8710.066, -0.00021547108, -0.040610984, -360763.34, 7641.8394, 0.00000000031851738, 10.005571, 9.985469 
5.2542984e+2, 2.7239218e+2, -257566.3, -414809.72, -9147.27, -0.0058066933, -0.07729164, -257035.97, 13516.682, 0.000000001345189, 10.006039, 9.985291 
5.254789e+2, 2.8237674e+2, -169211.3, -349084.0, -7345.8374, -0.0032492566, -0.043211706, -168911.8, 3792.391, 0.0000000041848507, 10.00657, 9.982816 
5.25528e+2, 2.9236016e+2, -64568.375, -252196.84, -7513.746, 0.016789801, 0.049633857, -64267.96, 10598.389, 0.000000009829297, 10.00721, 9.982425 
5.255781e+2, 3.0234435e+2, 48019.996, -90176.46, -372.9268, 0.013690438, -0.12535858, 48021.004, 48021.004, 0.000000018203474, 10.0080385, 9.989754 
5.256283e+2, 3.1233552e+2, 68161.16, -64348.016, -4327.356, -0.01104611, -0.021552362, 68302.33, 68302.33, 0.00000002802278, 10.008732, 9.99119 
5.347027e+2, 1.2246216e+2, -1758383.9, -1732439.0, 717.1343, 0.015034851, -0.034204878, -1732419.1, 7447.9497, 0.046640746, 9.996755, 10.000228 
5.3475195e+2, 1.3246e+2, -1668261.9, -1665158.0, -3104.4907, -0.050579812, -0.055927563, -1663239.1, -21350.92, 0.031651113, 9.997409, 9.9978 
5.3480214e+2, 1.424575e+2, -1568273.8, -1577557.4, -4448.3076, 0.0132177435, -0.027626557, -1566486.5, -22573.78, 0.018118156, 9.998042, 9.996779 
5.3485155e+2, 1.5245424e+2, -1460893.8, -1475137.4, -4517.472, 0.00565437, -0.03870584, -1459581.8, -13637.136, 0.008324205, 9.99868, 9.996766 
5.3490055e+2, 1.6244997e+2, -1367155.0, -1401131.3, -7864.468, -0.003761331, -0.0451031, -1365422.9, -17436.352, 0.002952043, 9.999338, 9.994814 
5.349494e+2, 1.7244479e+2, -1259902.8, -1300427.1, -8620.333, -0.0031914576, -0.035591137, -1258145.3, -8107.982, 0.0007912693, 10.000039, 9.994655 
5.34998e+2, 1.8243866e+2, -1164162.4, -1221822.4, -10327.135, -0.0027390781, -0.030042028, -1162368.6, -10271.114, 0.00015928308, 10.000674, 9.993025 
5.3504664e+2, 1.924316e+2, -1059069.8, -1120913.5, -8923.908, -0.004502656, -0.039417885, -1057807.9, -3641.3262, 0.000024088198, 10.001176, 9.992976 
5.3509504e+2, 2.0242368e+2, -966120.4, -1045370.4, -9913.068, -0.0041947374, -0.043005295, -964899.25, -8655.092, 0.0000027417923, 10.001685, 9.991203 
5.3514344e+2, 2.1241483e+2, -858730.44, -944387.1, -9823.449, 0.0024511751, -0.038827382, -857618.3, 712.4089, 0.00000023528659, 10.002387, 9.991062 
5.3519166e+2, 2.2240503e+2, -765426.4, -869068.3, -10405.686, 0.006431002, -0.039942354, -764392.0, -3965.2727, 0.000000015275884, 10.002937, 9.989249 
5.352401e+2, 2.3239402e+2, -663709.75, -771498.56, -10843.533, 0.0041776802, -0.050172437, -662629.7, -95.00925, 0.0000000006877151, 10.003282, 9.989047 
5.3528863e+2, 2.4238242e+2, -570005.9, -693522.56, -9572.228, 0.0017896035, -0.042206977, -569268.5, -4620.024, 0.00000000013052304, 10.003754, 9.987447 
5.353376e+2, 2.5237e+2, -459387.53, -591532.8, -7930.9204, -0.0023393827, -0.014307956, -458913.25, 7856.925, 0.000000000612615, 10.004701, 9.987259 
5.3538686e+2, 2.6235634e+2, -361800.22, -513774.78, -6617.938, -0.006253316, -0.027826179, -361512.6, 7391.2427, 0.0000000034131882, 10.005532, 9.985469 
5.354359e+2, 2.7234086e+2, -258802.77, -417052.84, -7606.3896, -0.0060486454, -0.098559, -258438.0, 12617.838, 0.000000014339296, 10.006024, 9.985142 
5.3548545e+2, 2.8232536e+2, -168326.4, -347313.06, -5362.8994, -0.00047833548, -0.06336489, -168165.86, 5041.681, 0.00000004456666, 10.006572, 9.982933 
5.3553516e+2, 2.9230955e+2, -63780.332, -250111.8, -5314.6406, 0.011964818, 0.0892252, -63628.867, 11733.693, 0.00000010462058, 10.007192, 9.982572 
5.35586e+2, 3.0229324e+2, 44669.34, -96556.96, 2303.1206, 0.0039803553, -0.12495916, 44706.89, 44706.89, 0.00000019365781, 10.008024, 9.989313 
5.3563726e+2, 3.1228387e+2, 69417.83, -62028.3, -2261.3645, 0.004785498, -0.017125407, 69456.72, 69456.72, 0.0000002979929, 10.008756, 9.991328 
5.446996e+2, 1.22411095e+2, -1756644.3, -1734722.3, -155.85056, 0.020166462, -0.029445842, -1734721.1, 5646.376, 0.05923043, 9.996997, 9.999949 
5.4474956e+2, 1.3240881e+2, -1661459.1, -1660944.5, -5039.4365, -0.04694501, -0.06801962, -1656155.8, -13766.069, 0.04050611, 9.99782, 9.997882 
5.448004e+2, 1.4240646e+2, -1561582.8, -1576002.3, -6876.316, 0.011140315, -0.024069808, -1558829.3, -14416.59, 0.023422668, 9.998556, 9.996633 
5.4485047e+2, 1.5240297e+2, -1455857.6, -1475374.3, -7509.0435, 0.0078066327, -0.037302066, -1453302.9, -6855.826, 0.010902844, 9.999126, 9.996529 
5.449001e+2, 1.6239847e+2, -1362942.8, -1400280.1, -10815.646, 0.0006306583, -0.045959506, -1360036.0, -11544.848, 0.003931351, 9.999665, 9.994709 
5.4494953e+2, 1.7239326e+2, -1258083.5, -1300234.6, -10105.535, -0.0030383635, -0.035433073, -1255786.0, -5243.5996, 0.0010759312, 10.000185, 9.994593 
5.4499865e+2, 1.8238707e+2, -1164706.3, -1222476.0, -11555.903, -0.004568138, -0.029683989, -1162480.5, -9877.379, 0.0002222064, 10.000643, 9.992993 
5.450478e+2, 1.9237998e+2, -1060453.9, -1121967.0, -12096.551, -0.0037839895, -0.04065394, -1058160.6, -3488.194, 0.00003466305, 10.001084, 9.992948 
5.450967e+2, 2.02372e+2, -968607.56, -1047453.44, -13917.84, -0.0014775911, -0.04394048, -966222.94, -9472.349, 0.0000040952546, 10.001542, 9.991124 
5.451457e+2, 2.123631e+2, -862256.3, -947099.44, -13688.8, 0.0044669695, -0.036891256, -860102.44, -1264.766, 0.00000036843403, 10.002178, 9.9909725 
5.451945e+2, 2.223532e+2, -768519.44, -871712.1, -14553.257, 0.0077982326, -0.03802279, -766506.3, -5571.65, 0.000000026361263, 10.002765, 9.989147 
5.452434e+2, 2.3234203e+2, -662466.94, -772133.6, -13901.11, 0.0034007854, -0.052689075, -660732.3, 2311.7705, 0.0000000023307902, 10.003407, 9.988942 
5.452925e+2, 2.4233043e+2, -567240.7, -691331.4, -11697.202, 0.0003472683, -0.04435716, -566147.7, -989.6567, 0.0000000015642249, 10.003886, 9.987534 
5.453421e+2, 2.523182e+2, -465935.72, -593356.3, -10832.554, -0.0011368047, -0.009279595, -465021.38, 2256.471, 0.000000005562811, 10.004174, 9.987389 
5.453919e+2, 2.6230466e+2, -374178.13, -519142.8, -9336.338, -0.0031447425, -0.0249274, -373579.28, -4168.784, 0.000000028366085, 10.004644, 9.985527 
5.454418e+2, 2.7228898e+2, -262806.38, -418993.9, -9181.156, -0.002352031, -0.11079741, -262268.53, 9295.486, 0.00000011761462, 10.005744, 9.985137 
5.454921e+2, 2.8227365e+2, -166881.67, -345465.28, -7399.012, 0.0027637612, -0.068640366, -166575.64, 7138.6963, 0.0000003647328, 10.006606, 9.983042 
5.455421e+2, 2.9225823e+2, -69299.18, -252336.14, -8333.54, 0.0074582673, 0.11655185, -68920.55, 6944.9795, 0.00000085578625, 10.006764, 9.982632 
5.455936e+2, 3.022412e+2, 33675.453, -107900.375, 1020.74194, -0.008336941, -0.14730288, 33682.813, 33682.813, 0.0000015835924, 10.007479, 9.988811 
5.4564625e+2, 3.1223157e+2, 75433.6, -55259.977, -4061.8118, 0.013340634, -0.013742212, 75559.72, 75559.72, 0.0000024360013, 10.008945, 9.991718 
5.5469656e+2, 1.2235947e+2, -1760362.8, -1739998.8, 2509.9907, 0.007986575, -0.022337828, -1739694.0, 1179.3738, 0.07429232, 9.99691, 9.999609 
5.547476e+2, 1.3235703e+2, -1662014.9, -1660549.8, -2743.5981, -0.02939935, -0.07741137, -1658442.5, -15545.436, 0.051209517, 9.997762, 9.997928 
5.54799e+2, 1.4235476e+2, -1563729.5, -1579305.0, -5064.0854, 0.016851135, -0.020949952, -1562227.9, -17308.291, 0.02992419, 9.998515, 9.996421 
5.548496e+2, 1.5235099e+2, -1458381.9, -1479932.9, -5886.8237, 0.005681845, -0.031246152, -1456878.8, -9922.3, 0.014122313, 9.999105, 9.9962225 
5.5489975e+2, 1.6234629e+2, -1362668.1, -1399637.9, -9335.829, -0.0057319524, -0.04244016, -1360444.4, -11441.652, 0.005183735, 9.999669, 9.994743 
5.549497e+2, 1.7234112e+2, -1256810.0, -1297740.9, -8556.848, -0.004390663, -0.04223029, -1255093.3, -4040.0063, 0.0014511821, 10.000198, 9.994749 
5.5499935e+2, 1.8233491e+2, -1165609.3, -1224623.9, -10195.738, -0.0015435347, -0.04046465, -1163897.5, -10783.503, 0.0003083134, 10.000662, 9.992833 
5.5504894e+2, 1.9232766e+2, -1062087.5, -1125801.6, -10687.43, 0.0026004896, -0.041801546, -1060342.6, -5157.6255, 0.000049822887, 10.00111, 9.992667 
5.550983e+2, 2.0231952e+2, -969266.56, -1049274.3, -11940.471, 0.004200889, -0.038339145, -967522.56, -10257.646, 0.000006177535, 10.001564, 9.990986 
5.551478e+2, 2.1231054e+2, -862608.94, -948199.8, -11352.757, -0.0013352771, -0.03196252, -861128.7, -1775.6858, 0.00000062156136, 10.002197, 9.990884 
5.551972e+2, 2.2230057e+2, -768286.56, -871301.75, -12224.03, -0.0055617034, -0.03487039, -766855.9, -5405.2007, 0.0000000784953, 10.002767, 9.989172 
5.552468e+2, 2.3228943e+2, -661969.2, -771211.06, -11317.58, -0.0053079273, -0.0527762, -660809.0, 2750.7307, 0.000000033049396, 10.003412, 9.988998 
5.552963e+2, 2.4227785e+2, -567108.06, -691129.94, -10303.22, -0.0034095044, -0.045241393, -566257.94, -584.71484, 0.00000003053741, 10.003891, 9.987544 
5.553463e+2, 2.5226557e+2, -465954.28, -593620.94, -9775.6875, 0.0023779653, -0.010810595, -465210.06, 2583.2637, 0.00000005386784, 10.004187, 9.987362 
5.553967e+2, 2.62252e+2, -373420.9, -517549.1, -6214.0386, 0.0046416945, -0.032080304, -373153.5, -3227.3862, 0.00000019406193, 10.004636, 9.985639 
5.5544764e+2, 2.7223647e+2, -262418.03, -417221.0, -5083.5283, 0.0014006664, -0.11668877, -262251.25, 9827.173, 0.00000074942295, 10.00569, 9.985283 
5.554987e+2, 2.822215e+2, -167128.4, -344664.03, -6193.4346, 0.0024537002, -0.059327796, -166912.61, 7312.8613, 0.0000022942224, 10.006552, 9.983119 
5.5554885e+2, 2.922061e+2, -70041.66, -253726.78, -7965.953, 0.00021598565, 0.13505116, -69696.84, 6679.299, 0.0000053700915, 10.0067625, 9.9825325 
5.5560094e+2, 3.0218807e+2, 28727.518, -118318.66, 5451.219, -0.024858924, -0.18956943, 28929.326, 28929.326, 0.000009930988, 10.007491, 9.988079 
5.556551e+2, 3.121784e+2, 77594.58, -48480.39, 972.86865, 0.012557361, 0.012587852, 77602.086, 77602.086, 0.000015272311, 10.00886, 9.992209 
5.646936e+2, 1.2230704e+2, -1753989.1, -1741105.5, 156.78706, 0.00021204923, -0.021447165, -1741103.5, 283.52173, 0.092263974, 9.997522, 9.999227 
5.647456e+2, 1.3230449e+2, -1657366.6, -1658787.5, -5017.641, -0.017147996, -0.07999507, -1653009.4, -9597.36, 0.06411256, 9.998088, 9.997885 
5.647976e+2, 1.4230223e+2, -1560578.4, -1577599.6, -7735.4565, 0.017498512, -0.018298313, -1557588.3, -12154.033, 0.037873123, 9.99871, 9.996438 
5.648487e+2, 1.5229848e+2, -1456188.0, -1478665.5, -6510.793, 0.003787286, -0.03196337, -1454438.3, -6967.22, 0.018134005, 9.999239, 9.996241 
5.648994e+2, 1.622937e+2, -1361486.1, -1400039.0, -8898.282, -0.008173799, -0.04537042, -1359531.5, -10013.643, 0.0067838547, 9.999785, 9.9946575 
5.6495e+2, 1.7228845e+2, -1255443.6, -1298582.5, -10391.104, -0.0036587524, -0.044250324, -1253071.1, -1501.8644, 0.0019465192, 10.000349, 9.994615 
5.650001e+2, 1.822821e+2, -1163282.0, -1224973.0, -13606.249, 0.0016360285, -0.041430794, -1160414.4, -6782.9707, 0.0004271751, 10.00088, 9.992696 
5.6505024e+2, 1.9227473e+2, -1058264.9, -1125446.0, -13272.32, 0.0036977567, -0.042011045, -1055737.9, -34.160717, 0.00007248392, 10.001433, 9.992528 
5.6509995e+2, 2.0226645e+2, -965424.0, -1048449.8, -14079.982, 0.004101385, -0.038092043, -963101.2, -5316.189, 0.000010126858, 10.001866, 9.9908905 
5.651501e+2, 2.1225742e+2, -863116.06, -949276.75, -13469.539, 0.00028722046, -0.03066917, -861059.5, -1185.9054, 0.0000016724213, 10.00219, 9.990811 
5.6519985e+2, 2.2224738e+2, -772060.56, -873350.2, -14161.595, -0.0031198657, -0.03428753, -770117.9, -8146.0093, 0.00000068287227, 10.0025015, 9.989161 
5.6525004e+2, 2.322362e+2, -666109.94, -773283.0, -13618.353, -0.0054974104, -0.056954686, -664406.5, -325.33633, 0.00000051860127, 10.003112, 9.989002 
5.6530005e+2, 2.422246e+2, -571127.94, -693809.06, -13685.016, -0.004099501, -0.04849236, -569619.94, -3425.1396, 0.00000047300682, 10.003632, 9.987485 
5.653506e+2, 2.5221235e+2, -464682.0, -594005.5, -13589.153, 0.004364827, -0.004465339, -463269.5, 5045.453, 0.00000055618574, 10.004301, 9.98728 
5.654014e+2, 2.6219875e+2, -370714.25, -516107.4, -9957.281, 0.0075750793, -0.027636949, -370035.5, 412.58136, 0.0000011869142, 10.004787, 9.985667 
5.65453e+2, 2.7218306e+2, -270308.13, -420888.3, -9168.579, 0.0010521506, -0.12928197, -269751.94, 2850.0781, 0.0000037901987, 10.005114, 9.985313 
5.6550485e+2, 2.821683e+2, -178570.72, -347739.97, -10181.367, 0.0023668266, -0.06414414, -177960.16, -3213.6252, 0.000011143965, 10.005615, 9.983371 
5.6555563e+2, 2.9215348e+2, -68910.266, -251742.25, -10148.094, 0.0063887006, 0.16382216, -68348.72, 8543.361, 0.00002588088, 10.006749, 9.982679 
5.656086e+2, 3.0213463e+2, 30313.027, -125366.516, 4680.9185, -0.025939438, -0.21093357, 30453.645, 30453.645, 0.000047783215, 10.007937, 9.98737 
5.656635e+2, 3.1212434e+2, 69048.92, -43791.56, -1287.5637, 0.009944781, -0.0023796973, 69063.61, 69063.61, 0.00007346192, 10.00788, 9.992997 
5.746911e+2, 1.22253984e+2, -1758973.8, -1748527.0, -1382.0867, -0.0058038603, -0.028337087, -1748347.3, -6440.4785, 0.11375035, 9.99741, 9.998771 
5.747437e+2, 1.3225134e+2, -1660128.9, -1662006.3, -3402.9087, -0.01217356, -0.07597628, -1657537.5, -13604.635, 0.07970576, 9.997987, 9.997707 
5.7479626e+2, 1.42249e+2, -1559935.4, -1574724.6, -6422.631, 0.009970466, -0.017189227, -1557535.6, -11579.842, 0.04762608, 9.99865, 9.996655 
5.748479e+2, 1.522455e+2, -1454220.3, -1473852.5, -5163.604, -0.0016996481, -0.039649498, -1452945.0, -4955.01, 0.023162274, 9.999213, 9.996573 
5.7489926e+2, 1.6224083e+2, -1363232.0, -1403478.6, -7379.411, -0.0110997, -0.054314453, -1361921.6, -11885.895, 0.008851887, 9.999789, 9.994413 
5.749504e+2, 1.7223528e+2, -1258635.5, -1305143.5, -8789.661, -0.0028291154, -0.040761605, -1257029.8, -4939.481, 0.0026185028, 10.000359, 9.994154 
5.7500106e+2, 1.8222864e+2, -1163984.8, -1226677.6, -12066.207, 0.0023750716, -0.03221413, -1161742.6, -7587.1313, 0.0006049601, 10.000898, 9.992564 
5.7505155e+2, 1.9222116e+2, -1058024.9, -1125525.3, -11558.261, -0.004749425, -0.042722687, -1056100.5, 128.24597, 0.00011675058, 10.001466, 9.992499 
5.7510173e+2, 2.0221275e+2, -965347.7, -1048849.9, -13029.985, -0.0072421473, -0.044957493, -963361.7, -5050.4766, 0.000025390495, 10.001897, 9.990843 
5.7515234e+2, 2.1220371e+2, -863025.5, -949879.3, -12437.747, 0.004094718, -0.034029715, -861279.5, -879.7088, 0.000010757624, 10.002231, 9.990745 
5.7520247e+2, 2.221936e+2, -772231.9, -874168.7, -12382.456, 0.009074523, -0.036418613, -770749.3, -8250.643, 0.0000077366185, 10.002521, 9.989092 
5.752532e+2, 2.3218232e+2, -666579.44, -774085.6, -11238.578, -0.0014554223, -0.06436736, -665417.1, -808.03827, 0.000006522971, 10.003106, 9.988946 
5.7530373e+2, 2.4217066e+2, -572594.5, -696151.3, -11265.283, -0.0057590962, -0.054107416, -571575.8, -4852.3184, 0.000005941919, 10.003596, 9.987343 
5.753549e+2, 2.521584e+2, -466216.44, -596602.9, -10892.198, 0.0017062001, 0.008112022, -465312.78, 3530.792, 0.000005930573, 10.004269, 9.987118 
5.7540613e+2, 2.6214474e+2, -371596.0, -517557.0, -8585.634, 0.0013591942, -0.012451898, -371092.72, -115.08107, 0.000007746674, 10.00477, 9.985574 
5.7545805e+2, 2.721286e+2, -270727.97, -422172.97, -8096.2163, -0.007288687, -0.14697464, -270296.38, 2839.4773, 0.000016548, 10.0051365, 9.985209 
5.755104e+2, 2.8211394e+2, -176025.14, -342642.97, -7243.3906, -0.0015753043, -0.08370344, -175710.84, -431.65677, 0.000042830554, 10.005614, 9.98372 
5.755625e+2, 2.921e+2, -67451.66, -247059.3, -5737.1484, 0.018311093, 0.19767565, -67268.58, 10147.364, 0.000096663134, 10.006669, 9.983034 
5.7561666e+2, 3.0208072e+2, 23747.688, -136180.9, 6116.1353, -0.019885097, -0.21272753, 23981.246, 23981.246, 0.00017732779, 10.007828, 9.986671 
5.7567126e+2, 3.1206942e+2, 76220.23, -28439.486, -2203.8674, 0.0013225169, -0.023030004, 76266.61, 76266.61, 0.00027223537, 10.007883, 9.994038 
5.8468866e+2, 1.2220037e+2, -1751898.0, -1745009.1, -3177.4724, -0.0015828215, -0.03602645, -1743767.4, -1335.1549, 0.13972634, 9.997877, 9.998784 
5.847419e+2, 1.3219799e+2, -1653333.6, -1657988.8, -993.85364, -0.01111019, -0.06455715, -1653130.3, -8674.729, 0.09881995, 9.998412, 9.997773 
5.84795e+2, 1.4219545e+2, -1554951.3, -1573342.0, -4286.589, 0.0005805097, -0.026377691, -1554001.3, -7520.6147, 0.05983596, 9.999033, 9.996559 
5.848473e+2, 1.5219192e+2, -1450735.3, -1473667.8, -7005.4424, -0.001150615, -0.040094424, -1448764.5, -249.41687, 0.029672418, 9.999512, 9.996435 
5.848992e+2, 1.6218714e+2, -1361512.8, -1403832.5, -11125.191, -0.0031903544, -0.049527142, -1358766.4, -8204.614, 0.011691614, 9.999949, 9.994305 
5.849508e+2, 1.7218144e+2, -1257396.5, -1305827.5, -10341.858, -0.0021163563, -0.041557357, -1255280.5, -2662.7712, 0.0036588176, 10.000493, 9.994038 
5.8500195e+2, 1.8217465e+2, -1162905.6, -1227202.8, -12145.539, -0.001749757, -0.03642906, -1160687.9, -6003.4556, 0.0009683537, 10.001009, 9.992473 
5.8505315e+2, 1.9216715e+2, -1057196.1, -1126337.8, -12424.737, -0.003993484, -0.041758895, -1055031.3, 1726.8796, 0.00027478443, 10.001569, 9.992392 
5.8510375e+2, 2.0215863e+2, -964281.7, -1049907.0, -15342.452, -0.0031897621, -0.04028651, -961615.56, -2774.0474, 0.00012467508, 10.002023, 9.99071 
5.851546e+2, 2.1214941e+2, -861793.25, -951015.4, -15864.794, 0.0022254877, -0.033422854, -859056.25, 1875.4619, 0.0000877705, 10.002379, 9.990593 
5.85205e+2, 2.2213912e+2, -771142.4, -874810.8, -16190.277, 0.004751058, -0.039325528, -768672.7, -5640.063, 0.00007200422, 10.002648, 9.988977 
5.8525634e+2, 2.321278e+2, -666433.2, -774424.44, -14960.301, 0.0035028595, -0.0653115, -664399.0, 744.3117, 0.00006284414, 10.003131, 9.988903 
5.8530724e+2, 2.4211611e+2, -575678.44, -698351.6, -15160.901, 0.004916724, -0.05193853, -573832.56, -6574.543, 0.00005789635, 10.003392, 9.987292 
5.8535886e+2, 2.5210387e+2, -474187.84, -600923.4, -13852.996, 0.0038809052, 0.010960358, -472691.3, -3312.9023, 0.000055242694, 10.00372, 9.98709 
5.854105e+2, 2.620901e+2, -382587.9, -524050.2, -10263.436, -0.004013721, -0.013288283, -381847.16, -10333.944, 0.000055795954, 10.004032, 9.9854965 
5.854631e+2, 2.7207378e+2, -269581.3, -422846.16, -9056.019, -0.013605992, -0.15397328, -269048.1, 4625.0234, 0.00007332081, 10.00523, 9.985127 
5.8551615e+2, 2.8205937e+2, -168611.97, -336127.6, -9697.02, -0.00242887, -0.0824713, -168052.5, 7761.837, 0.0001400374, 10.005981, 9.983989 
5.855688e+2, 2.9204583e+2, -79063.484, -250420.78, -8974.31, 0.029003076, 0.21843298, -78594.766, -647.89453, 0.00028783004, 10.005738, 9.983263 
5.856238e+2, 3.0202588e+2, -3830.7441, -161877.97, 4076.184, -0.015828205, -0.22400676, -3725.6855, -3725.6855, 0.00051568105, 10.006409, 9.985602 
5.8567965e+2, 3.1201354e+2, 91816.83, -11401.954, -7519.5034, 0.009496999, -0.019605141, 92361.75, 92361.75, 0.00078684813, 10.008489, 9.994923 
5.9468675e+2, 1.221465e+2, -1751078.1, -1739898.8, -3821.1475, 0.01213879, -0.051051114, -1738717.5, 4242.7285, 0.17203067, 9.997706, 9.999264 
5.947402e+2, 1.3214482e+2, -1653031.6, -1655146.0, 48.372166, -0.017330628, -0.042531993, -1653030.5, -8054.039, 0.12317733, 9.998321, 9.998002 
5.9479386e+2, 1.4214182e+2, -1558873.3, -1580160.4, -3308.5972, -0.014035143, -0.044829663, -1558370.9, -11364.781, 0.0760359, 9.99899, 9.996107 
5.9484684e+2, 1.5213789e+2, -1456088.9, -1483490.8, -6335.4805, 0.0028502368, -0.03426576, -1454694.9, -5650.2393, 0.038946632, 9.999472, 9.995777 
5.948993e+2, 1.6213283e+2, -1361834.0, -1403977.3, -10150.8955, 0.011096916, -0.03130681, -1359516.4, -8421.982, 0.016318014, 9.999935, 9.994294 
5.949513e+2, 1.7212707e+2, -1256037.3, -1302795.3, -9003.624, -0.005498857, -0.047379285, -1254363.4, -1212.9202, 0.0058532357, 10.000492, 9.994236 
5.950029e+2, 1.8212022e+2, -1163492.0, -1228525.0, -10655.316, -0.014660123, -0.05495872, -1161790.8, -6573.168, 0.002137039, 10.001025, 9.992366 
5.950548e+2, 1.9211273e+2, -1058513.6, -1129426.6, -10766.495, 0.0024017484, -0.039080225, -1056915.0, 376.26596, 0.001055166, 10.0015955, 9.992158 
5.9510595e+2, 2.0210409e+2, -965855.6, -1053503.6, -14288.116, 0.0110757295, -0.023472061, -963585.25, -4209.218, 0.00073918933, 10.002044, 9.99045 
5.951569e+2, 2.1209452e+2, -863360.1, -954878.44, -14941.315, -0.008624325, -0.028865715, -860982.56, 487.2299, 0.00060496945, 10.002413, 9.990308 
5.9520745e+2, 2.2208385e+2, -771796.25, -876668.1, -14730.515, -0.019058703, -0.043395627, -769766.44, -6192.192, 0.0005205493, 10.00267, 9.988837 
5.9525955e+2, 2.3207259e+2, -666582.5, -774887.8, -13109.733, 0.0033348294, -0.061211057, -665018.25, 666.2332, 0.0004661713, 10.003139, 9.988865 
5.9531087e+2, 2.4206088e+2, -576113.4, -698653.56, -13994.139, 0.020051952, -0.04343462, -574535.56, -6736.31, 0.0004356508, 10.003368, 9.987281 
5.9536266e+2, 2.5204852e+2, -473767.38, -599986.44, -12773.4, 0.006993576, 0.0043811263, -472487.66, -2567.1165, 0.0004130641, 10.003721, 9.98715 
5.954144e+2, 2.6203465e+2, -383573.75, -525839.94, -7262.081, -0.012045183, -0.030405628, -383204.0, -11147.684, 0.00038235346, 10.0040045, 9.985393 
5.9546834e+2, 2.7201837e+2, -270954.25, -425068.38, -4546.6143, -0.022363167, -0.15260059, -270820.22, 3395.749, 0.00036756825, 10.005188, 9.984995 
5.9552217e+2, 2.8200424e+2, -168179.94, -333715.13, -9810.541, -0.0062404135, -0.06264024, -167600.55, 8753.758, 0.00045654777, 10.005899, 9.9842005 
5.9557456e+2, 2.919907e+2, -79168.31, -249838.08, -10156.613, 0.03568354, 0.22616756, -78566.016, -79.08562, 0.0007430319, 10.005698, 9.983325 
5.956301e+2, 3.0196986e+2, -15040.904, -183957.52, 9749.961, -0.018942123, -0.24540022, -14479.994, -14479.994, 0.0012328605, 10.006351, 9.984112 
5.956881e+2, 3.119565e+2, 93531.016, -2573.905, 290.47806, 0.013176496, 0.02249312, 93531.89, 93531.89, 0.0018376576, 10.008271, 9.99562 
6.0468453e+2, 1.2209278e+2, -1745545.3, -1738941.8, -1859.9319, 0.0082458, -0.051906385, -1738453.9, 5032.7983, 0.214152, 9.998145, 9.99915 
6.047388e+2, 1.320908e+2, -1651608.3, -1660497.6, -165.94807, -0.00921618, -0.023694113, -1651605.1, -6099.2983, 0.15643857, 9.998669, 9.997466 
6.0479295e+2, 1.4208707e+2, -1555378.8, -1580444.9, -6696.792, -0.0112815695, -0.060998145, -1553701.8, -6159.3276, 0.09991464, 9.999299, 9.995934 
6.048464e+2, 1.520831e+2, -1452077.6, -1483260.3, -6680.511, 0.00020140759, -0.04079826, -1450706.6, -1125.0411, 0.054502863, 9.99981, 9.995626 
6.0489935e+2, 1.6207805e+2, -1355577.1, -1400948.5, -8336.02, 0.005722712, -0.028200239, -1354094.0, -2462.624, 0.025911747, 10.000356, 9.994296 
6.04952e+2, 1.7207232e+2, -1250523.5, -1300063.0, -9072.751, -0.0024302416, -0.043939523, -1248914.3, 4772.9604, 0.011987488, 10.000863, 9.99424 
6.050041e+2, 1.820654e+2, -1159761.8, -1227450.0, -12127.494, -0.0064273276, -0.053778145, -1157654.5, -1899.7168, 0.0065416535, 10.001301, 9.992302 
6.050564e+2, 1.9205777e+2, -1058932.4, -1130703.4, -11811.851, 0.00083350344, -0.04503891, -1057038.4, 791.37537, 0.0046063922, 10.001605, 9.992064 
6.051079e+2, 2.0204897e+2, -968279.1, -1056348.0, -14419.47, 0.004113429, -0.033056203, -965978.3, -6062.1357, 0.0037910414, 10.001959, 9.990288 
6.0515946e+2, 2.1203932e+2, -860870.4, -955590.94, -14748.098, -0.0026894608, -0.029565047, -858627.2, 3383.5586, 0.003294016, 10.00267, 9.990128 
6.052105e+2, 2.2202845e+2, -766812.6, -877174.2, -15541.564, -0.0059256265, -0.039455596, -764665.75, -548.5808, 0.0029299043, 10.003125, 9.9885845 
6.052626e+2, 2.3201686e+2, -670107.75, -779811.0, -16283.773, -0.0007710323, -0.06703952, -667741.7, -1510.9479, 0.0026845648, 10.003029, 9.988581 
6.0531384e+2, 2.420048e+2, -584015.06, -704533.6, -17877.771, 0.0062153745, -0.05230309, -581419.0, -13070.078, 0.0025410713, 10.002914, 9.98709 
6.0536647e+2, 2.5199252e+2, -472031.22, -599183.2, -16776.477, 0.010304493, 0.010639583, -469854.97, 614.08777, 0.0024159902, 10.003825, 9.98715 
6.054187e+2, 2.619787e+2, -380463.9, -526179.44, -11657.357, 0.0026500383, -0.017574113, -379537.22, -6932.498, 0.0021913543, 10.004261, 9.985252 
6.0547334e+2, 2.719621e+2, -276289.22, -428708.84, -8141.3184, -0.017286442, -0.15815818, -275855.6, -1088.2069, 0.0018755151, 10.004808, 9.984948 
6.055276e+2, 2.8194794e+2, -179014.75, -338978.34, -15187.867, -0.0050377822, -0.079105645, -177585.48, -679.5583, 0.0017067166, 10.005099, 9.984245 
6.055807e+2, 2.9193437e+2, -70893.55, -248040.98, -16127.499, 0.043689687, 0.21811749, -69437.27, 9601.859, 0.0019738742, 10.006321, 9.983155 
6.05637e+2, 3.0191284e+2, -7698.9185, -194883.77, 4308.9565, -0.025905319, -0.2543408, -7599.78, -7599.78, 0.00273566, 10.007473, 9.982809 
6.0569566e+2, 3.1189793e+2, 81076.06, 4468.7476, -4321.105, 0.0072964877, -0.0016119034, 81319.03, 81319.03, 0.0038015225, 10.006863, 9.996769 
6.146823e+2, 1.2203989e+2, -1751565.6, -1748569.6, -8407.251, -0.03138475, -0.024615305, -1741528.0, 2477.1538, 0.27198067, 9.998111, 9.998454 
6.1473775e+2, 1.320364e+2, -1661672.3, -1680042.5, 809.8994, 0.0155917825, -0.011226178, -1661636.5, -15597.504, 0.20546661, 9.998634, 9.996143 
6.147925e+2, 1.4203168e+2, -1555666.0, -1580076.1, -6177.883, 0.009396836, -0.07530479, -1554191.5, -6106.2275, 0.13911296, 9.999267, 9.995964 
6.148461e+2, 1.52028e+2, -1450751.6, -1479139.5, -5894.3037, -0.012648329, -0.057482507, -1449576.4, 545.03595, 0.08438501, 9.999764, 9.995918 
6.148994e+2, 1.6202317e+2, -1356929.1, -1402389.4, -7591.1387, -0.02370601, -0.037242766, -1355695.0, -3525.9895, 0.048496593, 10.000305, 9.994213 
6.149529e+2, 1.7201741e+2, -1253150.4, -1304507.8, -8222.655, 0.0061081606, -0.030403959, -1251866.0, 2359.3594, 0.02976512, 10.000833, 9.993943 
6.1500573e+2, 1.8201037e+2, -1160499.1, -1228554.9, -11500.141, 0.021592569, -0.031474225, -1158608.4, -2313.9607, 0.021445168, 10.001294, 9.992222 
6.1505795e+2, 1.9200239e+2, -1058734.1, -1130462.3, -11332.918, -0.010847625, -0.059431408, -1056986.1, 1386.4131, 0.017750558, 10.00163, 9.992059 
6.1510956e+2, 2.0199327e+2, -968836.3, -1057709.8, -12782.7295, -0.027329821, -0.06928619, -967034.3, -6572.779, 0.015685128, 10.001972, 9.990182 
6.1516243e+2, 2.1198383e+2, -861564.94, -957221.5, -12282.989, 0.013593153, -0.03624011, -860012.9, 2541.543, 0.014165093, 10.002686, 9.990002 
6.1521405e+2, 2.2197288e+2, -769684.56, -882862.0, -15339.838, 0.03578477, -0.028013518, -767642.3, -2980.5667, 0.012958546, 10.00312, 9.988194 
6.152655e+2, 2.319606e+2, -673960.0, -787601.44, -17075.34, -0.009483097, -0.08159131, -671449.75, -4667.4585, 0.012107187, 10.00303, 9.988047 
6.1531633e+2, 2.4194784e+2, -587179.44, -710297.25, -15358.036, -0.035025887, -0.07743896, -585292.56, -16385.26, 0.0115695195, 10.002889, 9.986701 
6.153702e+2, 2.519358e+2, -473058.7, -601229.94, -13320.151, 0.0048148683, 0.025185574, -471689.03, -663.9469, 0.011032614, 10.003832, 9.986995 
6.154232e+2, 2.6192197e+2, -383009.03, -530650.9, -10170.845, 0.022788618, 0.020061202, -382311.7, -9151.069, 0.010000831, 10.0042, 9.984983 
6.154783e+2, 2.7190468e+2, -276807.25, -430617.13, -6614.042, -0.012129036, -0.17159522, -276523.34, -1193.3845, 0.008357119, 10.004833, 9.984803 
6.1553264e+2, 2.818901e+2, -180176.7, -341554.75, -13256.249, -0.008611676, -0.13169104, -179095.03, -1622.4492, 0.0067573693, 10.005067, 9.984101 
6.15587e+2, 2.918764e+2, -75114.88, -254801.55, -11209.427, 0.04403848, 0.19004975, -74418.305, 5188.737, 0.0061111376, 10.006193, 9.982768 
6.156442e+2, 3.0185458e+2, -18565.678, -212498.92, 4535.746, -0.04232155, -0.24809767, -18459.654, -18459.654, 0.006720624, 10.007242, 9.981725 
6.1570215e+2, 3.1183785e+2, 87026.39, 23675.043, -6403.7583, -0.016451437, -0.05740327, 87667.22, 87667.22, 0.008187074, 10.0066, 9.998231 
6.2468076e+2, 1.2198294e+2, -1740687.9, -1731607.8, -11626.155, -0.0040010135, -0.08089953, -1723666.6, 20896.818, 0.3541072, 9.998278, 9.99999 
6.247369e+2, 1.3198091e+2, -1638010.8, -1661399.9, 1933.4589, -0.003749357, 0.00232677, -1637852.0, 8730.884, 0.28109142, 10.000214, 9.996638 
6.247925e+2, 1.419763e+2, -1533004.3, -1567810.6, -2764.7322, -0.006356641, -0.0713981, -1532786.1, 15841.868, 0.20657134, 10.001116, 9.995903 
6.248461e+2, 1.5197258e+2, -1444606.9, -1476119.1, -6830.472, -0.010584718, -0.051782176, -1443190.0, 7474.5176, 0.1432552, 10.000268, 9.995889 
6.248996e+2, 1.6196781e+2, -1361438.1, -1402904.6, -7615.8154, -0.013134992, -0.03124302, -1360083.6, -7372.199, 0.09987318, 9.99991, 9.99437 
6.249535e+2, 1.719622e+2, -1256262.0, -1303911.5, -4860.2017, -0.0021540588, -0.029175326, -1255771.3, -1004.87976, 0.075513154, 10.000514, 9.994139 
6.250068e+2, 1.8195525e+2, -1161693.6, -1230271.5, -5712.51, 0.0035581498, -0.03330683, -1161221.0, -4386.512, 0.06323491, 10.001242, 9.992143 
6.2505996e+2, 1.9194704e+2, -1052356.3, -1131160.6, -8334.359, -0.001977444, -0.054167792, -1051484.5, 7430.3496, 0.056682963, 10.002247, 9.99172 
6.251123e+2, 2.019377e+2, -954557.2, -1051931.1, -12889.372, -0.0016536114, -0.060302895, -952879.9, 8126.4824, 0.052283235, 10.003019, 9.99007 
6.2516505e+2, 2.1192814e+2, -860560.75, -956960.25, -12965.106, 0.008015726, -0.034763537, -858847.5, 4252.64, 0.048651624, 10.002777, 9.989972 
6.252166e+2, 2.219171e+2, -778750.75, -888811.06, -14919.293, 0.008877605, -0.026664993, -776764.25, -11555.555, 0.04555987, 10.002575, 9.988047 
6.252688e+2, 2.3190494e+2, -669024.44, -786870.94, -14853.431, -0.0048003295, -0.05404624, -667181.1, 146.6897, 0.043225635, 10.003439, 9.987897 
6.2532014e+2, 2.418919e+2, -572717.06, -709348.7, -11574.856, -0.006937311, -0.04474044, -571743.44, -2287.9395, 0.04156095, 10.0040865, 9.9862175 
6.253742e+2, 2.518788e+2, -475100.25, -609374.6, -13333.129, 0.01057763, 0.0023732632, -473789.1, -2205.3538, 0.0396842, 10.003947, 9.986413 
6.254269e+2, 2.618639e+2, -397649.53, -546049.9, -11693.486, 0.009610211, -0.026574781, -396733.75, -23004.26, 0.036110226, 10.0035515, 9.984237 
6.254832e+2, 2.7184674e+2, -270938.1, -431380.2, -8696.037, -0.023871215, -0.15382186, -270468.16, 5429.3735, 0.030348925, 10.005387, 9.984481 
6.255381e+2, 2.818323e+2, -169025.63, -338553.47, -19280.432, -0.012909364, -0.082127884, -166860.5, 11178.565, 0.02407558, 10.005925, 9.983896 
6.2559354e+2, 2.9181793e+2, -69223.43, -255358.03, -15122.011, 0.058262363, 0.1993681, -68002.88, 12177.103, 0.019858932, 10.006731, 9.982471 
6.256514e+2, 3.0179605e+2, -35873.375, -234573.19, -4014.7766, -0.017839665, -0.19482554, -35792.29, -35792.29, 0.018799573, 10.006548, 9.980588 
6.2570876e+2, 3.1177783e+2, 78403.13, 28972.082, -17610.293, 0.019500248, -0.009955238, 84035.25, 84035.25, 0.020104513, 10.005495, 9.999223 
6.3473713e+2, 1.3192476e+2, -1660878.1, -1650328.3, 5136.642, 0.0012079165, -0.02094844, -1648240.5, -1107.2123, 0.3986437, 9.99742, 9.998721 
6.347936e+2, 1.4192152e+2, -1567650.5, -1589133.8, -9605.892, -0.0087054, -0.056479007, -1563981.9, -14817.071, 0.32109898, 9.998596, 9.995672 
6.348467e+2, 1.5191732e+2, -1458463.6, -1488921.3, -13460.538, 0.02161113, -0.033781298, -1453367.5, -2161.5168, 0.25318962, 9.999488, 9.995392 
6.349001e+2, 1.6191241e+2, -1359592.1, -1397949.1, -8377.998, 0.036560904, -0.014578426, -1357842.0, -4587.7188, 0.20482565, 9.999871, 9.994713 
6.349538e+2, 1.7190708e+2, -1252778.5, -1294568.8, -3485.896, -0.03254695, -0.044896275, -1252489.8, 2816.3823, 0.1758956, 10.000489, 9.994772 
6.350073e+2, 1.819004e+2, -1164264.6, -1234143.0, -3444.412, -0.07039179, -0.0604353, -1164095.3, -6723.7075, 0.15969306, 10.001187, 9.991894 
6.350624e+2, 1.9189198e+2, -1058103.3, -1142961.0, -5049.7563, 0.017547559, -0.033619005, -1057803.8, 1650.731, 0.14982603, 10.002245, 9.990902 
6.351161e+2, 2.0188232e+2, -956467.56, -1054692.5, -12177.476, 0.06680846, -0.009441509, -954980.4, 6569.2007, 0.14231765, 10.003041, 9.989861 
6.3516754e+2, 2.118724e+2, -859641.56, -955425.56, -13961.15, -0.026849393, -0.02875703, -857648.1, 5998.7974, 0.13550727, 10.0028715, 9.990025 
6.3521826e+2, 2.2186114e+2, -777548.7, -888675.25, -12787.9795, -0.08946002, -0.035235044, -776096.1, -10338.769, 0.12921391, 10.002688, 9.98799 
6.352723e+2, 2.3184979e+2, -667646.8, -784802.1, -11477.739, -0.000090425994, 0.0071111587, -666532.94, 1335.4644, 0.12399557, 10.003498, 9.987996 
6.35325e+2, 2.4183676e+2, -579179.2, -720783.9, -11398.78, 0.06909472, 0.038099922, -578267.44, -8271.654, 0.11969438, 10.004011, 9.985466 
6.353783e+2, 2.5182128e+2, -482992.44, -625273.06, -16105.144, 0.018292194, -0.05433431, -481192.22, -9045.391, 0.114343435, 10.003931, 9.985333 
6.3543004e+2, 2.6180443e+2, -406706.06, -564123.94, -8986.48, -0.038330752, -0.14282402, -406194.72, -31882.984, 0.10449232, 10.003488, 9.983043 
6.354884e+2, 2.717882e+2, -274885.63, -439513.03, -3110.4807, -0.05820651, -0.10743151, -274826.88, 1644.4899, 0.08894842, 10.005351, 9.983945 
6.3554394e+2, 2.8177425e+2, -173032.7, -345075.75, -19666.203, -0.028972875, 0.05175845, -170813.3, 7795.1846, 0.07142308, 10.005816, 9.983528 
6.3560045e+2, 2.9175854e+2, -72444.56, -260504.7, -13594.646, 0.073530324, 0.22960524, -71466.91, 9295.151, 0.057965472, 10.006648, 9.982174 
6.3565814e+2, 3.0173686e+2, -46616.1, -251929.48, -10405.611, 0.0183375, -0.1125356, -46090.074, -46090.074, 0.051588327, 10.006285, 9.979558 
6.3571423e+2, 3.117175e+2, 69607.484, 27505.605, -20370.998, 0.05491873, 0.12517643, 77850.23, 77850.23, 0.05090569, 10.0048895, 9.999496 
6.448985e+2, 1.6185172e+2, -1364813.6, -1387371.6, 17673.285, -0.058521662, -0.11010461, -1355126.9, -1279.0691, 0.39385006, 9.998904, 9.995802 
6.449555e+2, 1.7184865e+2, -1242315.5, -1274630.4, -24193.209, 0.0514823, -0.0071100495, -1229380.5, 26498.207, 0.3631605, 10.001415, 9.995869 
6.450088e+2, 1.8184279e+2, -1165113.8, -1213605.4, -21847.768, 0.0025045765, -0.059057366, -1156722.4, 1213.985, 0.34433386, 10.000255, 9.993718 
6.4506376e+2, 1.9183657e+2, -1055620.0, -1112116.4, 1083.9568, -0.02266746, -0.053771824, -1055599.3, 4398.2485, 0.33186242, 10.001294, 9.993459 
6.4511764e+2, 2.0182858e+2, -962632.5, -1053001.6, 9031.346, -0.05101903, -0.04889235, -961738.75, 337.11493, 0.32141975, 10.002349, 9.990321 
6.451709e+2, 2.1181864e+2, -860773.1, -962051.6, 2209.018, 0.0053322804, -0.0333952, -860724.94, 3448.4822, 0.31100234, 10.003109, 9.989475 
6.4522296e+2, 2.2180684e+2, -768105.5, -893177.56, -1520.1122, 0.049186178, -0.03212734, -768087.06, -1798.0466, 0.30041274, 10.003729, 9.987192 
6.4527595e+2, 2.3179337e+2, -677648.6, -802877.7, -6910.446, 0.011529904, -0.097915135, -677268.44, -8847.788, 0.29071087, 10.003364, 9.986838 
6.453279e+2, 2.4177802e+2, -600152.6, -755104.56, -14818.815, -0.017457632, -0.1154483, -598748.1, -28177.014, 0.28173953, 10.003629, 9.983297 
6.4538336e+2, 2.517628e+2, -463040.63, -629625.4, -26690.727, 0.016573632, 0.007084365, -458868.63, 13851.939, 0.26974326, 10.006312, 9.983903 
6.4543635e+2, 2.617454e+2, -371008.38, -582306.94, -26601.932, 0.03410432, 0.059336413, -367710.72, 7180.6514, 0.2478019, 10.007671, 9.979752 
6.4549506e+2, 2.717233e+2, -282021.1, -486322.84, -45407.61, 0.010079717, -0.106330186, -272383.53, 4724.0825, 0.21365945, 10.006805, 9.979991 
6.455496e+2, 2.8170502e+2, -181525.78, -339736.94, -71206.59, 0.0049277446, -0.1566777, -154197.95, 25088.52, 0.17465475, 10.005163, 9.984165 
6.456074e+2, 2.9169068e+2, -34468.57, -214685.31, -39364.406, 0.0057711834, -0.036546517, -26245.488, 55181.43, 0.14277738, 10.008786, 9.984238 
6.4566404e+2, 3.0167195e+2, -18185.383, -223260.0, -43331.758, -0.105083905, -0.27457598, -9405.393, -9405.393, 0.124361984, 10.007653, 9.980813 
6.45717e+2, 3.11652e+2, 31367.244, 29889.865, -34789.383, -0.022820141, -0.16651793, 65425.78, 65425.78, 0.11729218, 10.00145, 10.001438 
6.5555453e+2, 2.8163207e+2, -197471.27, -326496.78, -531.78345, -0.04221922, -0.07732724, -197469.08, -17468.64, 0.35784888, 10.002755, 9.986292 
6.556165e+2, 2.916226e+2, -43067.973, -162268.2, 34964.715, 0.032550443, 0.055398025, -33568.844, 48524.754, 0.2964688, 10.006615, 9.989033 
6.5567297e+2, 3.0161017e+2, -32581.754, -190435.98, -2177.9902, 0.054039795, -0.0064387005, -32551.707, -32551.707, 0.2564285, 10.004845, 9.984589 
6.5571785e+2, 3.1159222e+2, -22012.668, 32149.67, 15569.949, 0.009699178, -0.022058459, 36306.508, 36306.508, 0.23492198, 9.995858, 10.0049095 
7.1351546e+2, 1.7041217e+2, -1278002.5, -1279841.6, 8560.647, 0.11728536, -0.23065132, -1270312.3, -369.99948, 0.39580005, 9.954235, 9.953838 
7.125852e+2, 1.80365e+2, -1168069.4, -1202614.1, 859.92694, 0.08509781, -0.22508161, -1168048.0, 4356.5522, 0.36749697, 9.95636, 9.951521 
7.1165395e+2, 1.9031617e+2, -1064714.0, -1108647.5, -2763.3801, 0.08110595, -0.2165725, -1064540.9, 10341.963, 0.33911413, 9.957257, 9.950798 
7.1072245e+2, 2.0026693e+2, -964253.7, -1015818.1, -3678.3994, 0.022993015, -0.18654987, -963992.56, 13372.882, 0.30851838, 9.957792, 9.950235 
7.097913e+2, 2.1021676e+2, -879505.3, -928921.4, 318.78653, -0.022410775, -0.21798603, -879503.25, 353.11847, 0.27875134, 9.956723, 9.949989 
7.088617e+2, 2.201664e+2, -797274.44, -840320.3, -5694.9497, -0.02293822, -0.2526244, -796533.75, -14184.263, 0.25781414, 9.955521, 9.949897 
7.0792943e+2, 2.301163e+2, -675536.4, -735120.2, -10199.96, 0.038126625, -0.23227946, -673838.7, 11001.863, 0.25602454, 9.9576235, 9.949317 
7.069985e+2, 2.4006644e+2, -542623.4, -590517.25, -4795.831, 0.049463652, -0.21623707, -542147.9, 45181.19, 0.28137228, 9.960246, 9.951551 
7.0606977e+2, 2.5001878e+2, -461604.53, -486894.5, -5844.484, -0.10894207, -0.2820913, -460319.2, 29475.91, 0.3370879, 9.95872, 9.953636 
7.2718984e+2, 1.3153292e+2, -1623137.8, -1651167.1, 12236.616, 0.17531303, -0.20434745, -1618547.5, 32414.627, 0.38657025, 9.959135, 9.953024 
7.262609e+2, 1.4148635e+2, -1568807.3, -1575031.1, -2945.7983, 0.15962315, -0.15094331, -1567634.1, -14215.408, 0.32062596, 9.954728, 9.953875 
7.2533077e+2, 1.5144077e+2, -1488458.3, -1482206.1, -14341.061, 0.13521488, -0.17283016, -1470654.4, -14789.499, 0.26370573, 9.953143, 9.954397 
7.2439975e+2, 1.6139366e+2, -1354549.4, -1386729.1, 8348.339, 0.13077931, -0.20455219, -1352512.5, 5813.5605, 0.2228128, 9.956607, 9.952108 
7.234703e+2, 1.7134611e+2, -1262727.3, -1297168.8, 10716.849, 0.08773411, -0.14419916, -1259664.9, 1126.9421, 0.1965221, 9.95655, 9.951671 
7.2254086e+2, 1.8129764e+2, -1169000.9, -1210500.1, 2223.352, 0.015039322, -0.12362722, -1168882.0, -5615.393, 0.17812835, 9.956499, 9.950972 
7.216108e+2, 1.912479e+2, -1070873.3, -1119010.8, -432.9152, 0.052992057, -0.1670546, -1070869.4, -5115.488, 0.16184242, 9.956796, 9.950324 
7.206804e+2, 2.0119768e+2, -970111.6, -1022545.0, -5280.797, 0.06598291, -0.18835218, -969585.06, -1339.3032, 0.1448277, 9.957041, 9.950084 
7.197484e+2, 2.1114811e+2, -874881.75, -926397.94, -5882.1064, 0.011606162, -0.16826291, -874218.6, -3487.5552, 0.1279522, 9.956945, 9.950011 
7.1881753e+2, 2.2109795e+2, -786471.06, -840056.0, -7837.1455, -0.013723848, -0.15684643, -785348.3, -12125.803, 0.11534224, 9.956555, 9.949497 
7.178871e+2, 2.3104692e+2, -674277.6, -743140.7, -4892.955, 0.014217541, -0.18528165, -673931.7, 1790.7345, 0.112820156, 9.958087, 9.948755 
7.1695805e+2, 2.4099487e+2, -568117.75, -662358.4, -10746.814, -0.017919505, -0.18409553, -566907.75, 11324.692, 0.1254502, 9.959673, 9.947031 
7.16028e+2, 2.50942e+2, -505673.16, -593870.7, -21716.646, -0.13690864, -0.12899528, -500615.9, -19865.014, 0.15695696, 9.957942, 9.946487 
7.151029e+2, 2.6088816e+2, -445188.78, -519200.03, -44047.957, -0.13263255, -0.14252958, -424664.94, -41386.36, 0.20920561, 9.955364, 9.946454 
7.1417564e+2, 2.7083266e+2, -302596.06, -398333.6, -1906.1406, 0.053657424, -0.31107396, -302558.13, -16736.64, 0.28098562, 9.958439, 9.945758 
7.1324575e+2, 2.8078073e+2, -152173.94, -267226.63, -28616.686, -0.17762153, -0.11834373, -145449.25, 42881.742, 0.36329743, 9.962851, 9.945363 
7.3807657e+2, 1.225142e+2, -1737802.1, -1743870.0, 2880.472, 0.26008403, -0.078561746, -1736652.5, 2694.662, 0.32493475, 9.956241, 9.955271 
7.3714477e+2, 1.3246575e+2, -1646489.3, -1671741.6, 4623.097, 0.057689905, -0.23484522, -1645669.4, -3847.8943, 0.25898266, 9.956407, 9.952918 
7.362162e+2, 1.424203e+2, -1553002.0, -1572624.5, 10314.197, 0.13586096, -0.06424971, -1548578.0, -4311.2744, 0.19368057, 9.956048, 9.953172 
7.352873e+2, 1.5237321e+2, -1434920.5, -1466186.3, 1629.971, 0.10539791, -0.102182835, -1434835.8, 11892.5625, 0.13986363, 9.957685, 9.953074 
7.343576e+2, 1.6232517e+2, -1328943.1, -1382582.5, -5288.3936, 0.09722739, -0.1240532, -1328426.8, 20772.383, 0.103883736, 9.959107, 9.951462 
7.334283e+2, 1.7227633e+2, -1234978.4, -1290934.6, -3553.4155, 0.07716113, -0.141851, -1234753.6, 16923.715, 0.083562806, 9.95901, 9.951111 
7.324988e+2, 1.8222715e+2, -1143110.5, -1199396.5, -9312.44, 0.05232703, -0.14737599, -1141609.8, 12549.251, 0.072091475, 9.958534, 9.950879 
7.315684e+2, 1.9217797e+2, -1048434.94, -1106618.1, -8836.808, 0.06157008, -0.15048192, -1047122.44, 9518.292, 0.06384599, 9.958454, 9.950503 
7.3063815e+2, 2.0212784e+2, -953167.75, -1021304.4, -10894.659, 0.05974399, -0.15268572, -951468.1, 7663.676, 0.056054916, 9.958683, 9.949514 
7.2970694e+2, 2.1207736e+2, -842224.0, -921642.9, -12449.264, 0.018477792, -0.14302889, -840318.25, 21308.117, 0.048504356, 9.959878, 9.949158 
7.2877663e+2, 2.2202604e+2, -738385.4, -831018.06, -18480.959, -0.0030159757, -0.13889803, -734834.4, 29294.73, 0.04279155, 9.960704, 9.94834 
7.2784626e+2, 2.3197405e+2, -650727.7, -745240.3, -17043.08, 0.008623201, -0.16595654, -647748.3, 18890.178, 0.041490406, 9.960374, 9.947846 
7.2691745e+2, 2.4192089e+2, -573840.8, -683220.75, -19144.19, -0.032912005, -0.16012304, -570586.94, -1427.6293, 0.047216646, 9.959824, 9.945723 
7.259872e+2, 2.5186652e+2, -476790.88, -600316.9, -3664.5432, -0.117224164, -0.09398865, -476682.25, -4989.7754, 0.06273229, 9.960471, 9.944332 
7.250614e+2, 2.6181123e+2, -363369.94, -469744.44, -2791.102, -0.063524924, -0.09520492, -363296.75, 10938.115, 0.09102124, 9.960257, 9.946673 
7.241357e+2, 2.717581e+2, -263511.6, -341905.84, -6735.24, 0.11432183, -0.26414257, -262937.13, 13816.485, 0.1338954, 9.95941, 9.949638 
7.232085e+2, 2.81705e+2, -214132.4, -345258.7, -30635.695, -0.061049, -0.27053165, -207327.94, -28055.023, 0.18833986, 9.958277, 9.943214 
7.2226834e+2, 2.916497e+2, -51139.207, -208065.78, -19262.729, -0.5667616, 0.00005278608, -48809.297, 33005.668, 0.24526948, 9.963016, 9.942847 
7.2135156e+2, 3.0158597e+2, -90769.9, -331523.9, 99746.63, 0.11797294, -0.28660864, -54813.883, -54813.883, 0.29465857, 9.962665, 9.932181 
7.2043747e+2, 3.1151855e+2, -22137.96, 11603.821, 2104.0344, -0.100652315, -0.14735709, 11734.517, 11734.517, 0.33280385, 9.952922, 9.958207 
7.480308e+2, 1.2344018e+2, -1748822.5, -1725274.9, 17556.43, 0.19733414, -0.105245315, -1715909.9, 14364.449, 0.23778631, 9.955011, 9.95807 
7.471019e+2, 1.3339464e+2, -1632180.3, -1645665.5, -14199.047, 0.13503559, -0.22721022, -1623204.3, 9515.973, 0.17853287, 9.956764, 9.955115 
7.461743e+2, 1.4334951e+2, -1532099.6, -1570025.4, -6729.8755, 0.23756145, -0.124993294, -1530940.8, 4221.2173, 0.120985776, 9.957988, 9.952911 
7.452457e+2, 1.5330216e+2, -1436421.1, -1479112.3, -5255.611, 0.15502964, -0.1271391, -1435783.6, 1842.6221, 0.0749508, 9.958092, 9.952299 
7.4431634e+2, 1.6325384e+2, -1338299.1, -1388408.9, -8210.706, 0.09577506, -0.1342211, -1336988.0, 3111.8525, 0.045711238, 9.95837, 9.951528 
7.433872e+2, 1.7320509e+2, -1238913.1, -1293838.9, -6162.9595, 0.09116167, -0.15621816, -1238230.1, 4346.975, 0.030768666, 9.95867, 9.95111 
7.424576e+2, 1.8315573e+2, -1140463.9, -1199056.4, -11870.429, 0.080008216, -0.16572425, -1138150.4, 6910.0474, 0.023860537, 9.958723, 9.950821 
7.41527e+2, 1.9310683e+2, -1038105.94, -1101206.0, -13362.424, 0.059371796, -0.14805228, -1035392.9, 12146.548, 0.020094704, 9.959159, 9.9506235 
7.405969e+2, 2.030567e+2, -947751.2, -1027283.6, -14126.964, 0.039003022, -0.13338205, -945316.4, 4714.3633, 0.017162584, 9.959508, 9.948867 
7.396669e+2, 2.1300516e+2, -848817.75, -937235.75, -12606.238, 0.01311159, -0.14307494, -847055.5, 5480.205, 0.014533996, 9.960032, 9.94814 
7.387372e+2, 2.2295262e+2, -749849.4, -849569.56, -21953.5, 0.00036455292, -0.14945859, -745230.25, 9820.187, 0.01261636, 9.960402, 9.947268 
7.3780656e+2, 2.3289979e+2, -655915.1, -759733.44, -21652.947, 0.0070243496, -0.15686354, -651580.06, 5988.027, 0.012283788, 9.960466, 9.946822 
7.368774e+2, 2.4284643e+2, -558552.75, -661357.7, -21790.32, -0.02809173, -0.1552031, -554124.8, 5965.6943, 0.0146399, 9.960346, 9.947001 
7.35948e+2, 2.527934e+2, -453964.66, -563945.06, -7796.778, -0.09998214, -0.15740292, -453414.66, 9195.186, 0.021257104, 9.961108, 9.946595 
7.350215e+2, 2.6273873e+2, -370028.7, -497476.7, -12737.703, -0.074770845, -0.16306557, -368768.1, -3622.7485, 0.034373328, 9.960813, 9.944548 
7.340937e+2, 2.7268347e+2, -289446.78, -397973.84, -19441.766, 0.030337345, -0.18860179, -286069.1, -18381.957, 0.056183707, 9.959262, 9.945826 
7.3316544e+2, 2.8262833e+2, -226292.88, -351794.2, -33937.95, -0.0968122, -0.16716295, -217703.3, -47476.19, 0.08693062, 9.957898, 9.943121 
7.322317e+2, 2.9257205e+2, -59859.586, -208779.56, -32980.645, -0.39650765, -0.112012096, -52882.402, 19895.604, 0.123690195, 9.962117, 9.9441185 
7.31314e+2, 3.0251232e+2, -39455.57, -235400.23, 42898.31, 0.11387492, -0.353545, -30475.375, -30475.375, 0.16149703, 9.963275, 9.939177 
7.303914e+2, 3.1245315e+2, 95245.734, 128492.14, -55558.418, -0.41854143, -0.13984585, 169860.9, 169860.9, 0.19642462, 9.959133, 9.964506 
7.579872e+2, 1.24364614e+2, -1722471.4, -1732328.8, -94.13049, 0.20582192, -0.10954388, -1722470.5, -1253.7223, 0.17498739, 9.95727, 9.95595 
7.5706005e+2, 1.3432118e+2, -1601564.9, -1620297.1, -9752.789, 0.15384956, -0.10361738, -1597409.1, 26233.15, 0.1261487, 9.958747, 9.956034 
7.5613236e+2, 1.4427589e+2, -1505940.8, -1549617.4, -10908.954, 0.15095718, -0.09476966, -1503367.6, 22718.197, 0.079539225, 9.959626, 9.953594 
7.5520426e+2, 1.542289e+2, -1409891.5, -1458356.0, -9068.219, 0.12105645, -0.13499376, -1408250.3, 20295.627, 0.04321595, 9.959639, 9.953023 
7.5427544e+2, 1.6418119e+2, -1316822.4, -1373679.8, -10299.574, 0.10077788, -0.14089815, -1315014.1, 15999.204, 0.02111174, 9.959669, 9.951994 
7.533467e+2, 1.7413333e+2, -1220715.9, -1281709.4, -9228.151, 0.10762483, -0.114121795, -1219350.3, 14132.083, 0.0106813945, 9.959767, 9.95148 
7.524172e+2, 1.8408409e+2, -1125201.4, -1198214.1, -12013.744, 0.09155284, -0.10921206, -1123275.4, 12689.334, 0.0066066408, 9.960077, 9.950322 
7.5148714e+2, 1.9403425e+2, -1016468.75, -1098860.9, -13749.639, 0.044670764, -0.12276704, -1014234.75, 24218.014, 0.0049766195, 9.960989, 9.950025 
7.505572e+2, 2.0398349e+2, -922108.56, -1017938.5, -16473.906, 0.016097324, -0.12584382, -919355.6, 21594.457, 0.0040492197, 9.961311, 9.948731 
7.4962735e+2, 2.1393204e+2, -832924.0, -930733.7, -13150.547, 0.010371293, -0.1287107, -831186.75, 12267.487, 0.003338794, 9.961018, 9.948142 
7.4869794e+2, 2.2387938e+2, -742984.1, -851142.44, -15771.401, 0.005356969, -0.1291746, -740731.3, 5238.8193, 0.0028653303, 9.960942, 9.946886 
7.477677e+2, 2.3382618e+2, -637376.2, -755234.3, -12202.197, -0.0006427468, -0.12794289, -636126.1, 12365.335, 0.0028536965, 9.961743, 9.946408 
7.4683857e+2, 2.4377234e+2, -538853.7, -657744.2, -12612.216, -0.03189242, -0.1322535, -537530.5, 13488.232, 0.0036864625, 9.961703, 9.94651 
7.4590933e+2, 2.537188e+2, -453822.03, -566049.5, -11242.837, -0.08389198, -0.15884997, -452706.8, 835.89453, 0.006066438, 9.960862, 9.946728 
7.4498206e+2, 2.6366416e+2, -384678.25, -517031.06, -18116.639, -0.07836001, -0.16026007, -382243.22, -26165.383, 0.011193455, 9.959969, 9.943897 
7.440532e+2, 2.7360827e+2, -275140.63, -411820.47, -11746.93, -0.025454426, -0.12256238, -274138.38, -15512.417, 0.020631334, 9.960638, 9.944034 
7.431245e+2, 2.8355223e+2, -185767.86, -329328.2, -7725.8257, -0.101017326, -0.091580614, -185353.28, -24177.805, 0.035625964, 9.960447, 9.943153 
7.421948e+2, 2.9349566e+2, -79701.26, -222725.7, -6374.806, -0.25037402, -0.07859757, -79417.68, -15688.714, 0.05610267, 9.960795, 9.943644 
7.412749e+2, 3.0343965e+2, -48737.117, -181993.11, 36058.92, 0.0052129677, -0.105892435, -39605.39, -39605.39, 0.08008147, 9.960039, 9.944094 
7.403519e+2, 3.133827e+2, -14094.293, -61338.926, -76217.445, -0.25734913, -0.20776868, 42077.582, 42077.582, 0.104639806, 9.957258, 9.950965 
7.6794505e+2, 1.2529147e+2, -1704374.3, -1718518.8, -532.2348, 0.2280895, -0.0732785, -1704354.3, 7781.101, 0.12768447, 9.958252, 9.956172 
7.6701844e+2, 1.3524789e+2, -1606138.9, -1625207.5, -4574.2856, 0.14768581, -0.044875983, -1605098.4, 9464.097, 0.0897246, 9.958458, 9.955745 
7.6609105e+2, 1.4520253e+2, -1512304.8, -1546765.3, -9004.584, 0.111300655, -0.05305308, -1510093.6, 6912.942, 0.054136056, 9.958885, 9.954125 
7.651636e+2, 1.5515609e+2, -1406078.1, -1449943.1, -9550.147, 0.10226041, -0.099397086, -1404089.1, 15372.134, 0.02707615, 9.95965, 9.953603 
7.6423514e+2, 1.6510871e+2, -1308537.0, -1368446.4, -12352.267, 0.09757709, -0.10668061, -1306090.1, 15835.29, 0.011202649, 9.96024, 9.952149 
7.633067e+2, 1.7506114e+2, -1206372.4, -1272964.1, -13753.684, 0.105668366, -0.071430676, -1203643.6, 20748.127, 0.0041621407, 9.960712, 9.951726 
7.623775e+2, 1.8501192e+2, -1116654.0, -1198690.6, -14673.926, 0.086738504, -0.06440819, -1114108.4, 12765.831, 0.0017368137, 9.960961, 9.949992 
7.61448e+2, 1.9496152e+2, -1018637.06, -1105757.9, -14969.153, 0.031164164, -0.09590268, -1016136.8, 13230.943, 0.00100352, 9.961191, 9.949544 
7.605184e+2, 2.0491046e+2, -920699.75, -1015655.3, -20326.182, 0.0039608628, -0.108093575, -916531.7, 15336.14, 0.0007333881, 9.961364, 9.948912 
7.595885e+2, 2.148593e+2, -823465.1, -923081.94, -19167.637, 0.011922525, -0.10475834, -819904.3, 14464.465, 0.00057985826, 9.961557, 9.948465 
7.58659e+2, 2.2480698e+2, -733166.5, -846453.1, -18757.977, 0.0056994343, -0.09535014, -730141.3, 6740.354, 0.0004933915, 9.96175, 9.946945 
7.5772935e+2, 2.3475389e+2, -630374.4, -751280.56, -15898.139, -0.01762023, -0.087981485, -628318.8, 11082.976, 0.0005151587, 9.962329, 9.946514 
7.5680023e+2, 2.4469967e+2, -540440.06, -670996.2, -20359.168, -0.04136086, -0.09093237, -537338.9, 4594.2363, 0.00075334177, 9.962154, 9.945436 
7.558704e+2, 2.54645e+2, -454397.3, -579883.25, -20041.863, -0.06756497, -0.10804586, -451274.06, -6805.5054, 0.0014533348, 9.961404, 9.945497 
7.5494224e+2, 2.6459014e+2, -369371.53, -498549.75, -18684.469, -0.0772594, -0.10385459, -366723.28, -19717.6, 0.003111435, 9.960787, 9.944766 
7.540137e+2, 2.74535e+2, -259151.39, -393436.9, -10870.249, -0.07254107, -0.09085607, -258277.14, -8731.343, 0.0065581948, 9.961533, 9.944826 
7.530857e+2, 2.8447884e+2, -170947.34, -317977.63, -6928.75, -0.098814696, -0.11598346, -170621.55, -18525.559, 0.012817412, 9.961487, 9.94329 
7.521568e+2, 2.9442188e+2, -77225.984, -220229.02, -2533.5657, -0.14916462, -0.14756069, -77181.11, -22527.326, 0.022477075, 9.96109, 9.943473 
7.5123286e+2, 3.04367e+2, -50056.055, -165156.1, 29380.137, -0.13392381, -0.07119755, -42990.31, -42990.31, 0.034907848, 9.959299, 9.945111 
7.503117e+2, 3.1431267e+2, 37907.91, 64131.1, 4331.249, 0.026503632, -0.051963575, 64827.97, 64827.97, 0.04844264, 9.957676, 9.960705 
7.779041e+2, 1.262181e+2, -1683387.8, -1712121.1, -1419.7391, 0.20462583, -0.05998556, -1683317.9, 19738.455, 0.09095766, 9.959835, 9.955882 
7.769777e+2, 1.3617355e+2, -1588531.1, -1621011.6, -3287.3203, 0.15643932, -0.092625506, -1588201.8, 17290.576, 0.06282223, 9.959775, 9.955388 
7.760508e+2, 1.4612834e+2, -1493168.1, -1534934.8, -4100.033, 0.13476044, -0.08224366, -1492769.5, 15165.752, 0.036900293, 9.960057, 9.954396 
7.751241e+2, 1.5608291e+2, -1389235.8, -1439800.1, -5650.1255, 0.1279612, -0.05710847, -1388612.1, 21768.521, 0.017632606, 9.960671, 9.953836 
7.741961e+2, 1.6603561e+2, -1294183.6, -1363186.9, -8271.394, 0.10252066, -0.06117546, -1293206.0, 19638.059, 0.0066743675, 9.961225, 9.952077 
7.7326775e+2, 1.7598748e+2, -1189636.1, -1266683.8, -9946.63, 0.07177413, -0.07437305, -1188372.8, 26942.623, 0.0020335538, 9.96184, 9.951651 
7.7233887e+2, 1.8593821e+2, -1099812.8, -1190018.9, -12399.36, 0.06057613, -0.07574476, -1098139.4, 19658.838, 0.00056177605, 9.961934, 9.950126 
7.714098e+2, 1.9588818e+2, -1006683.8, -1099228.5, -11965.614, 0.05160445, -0.0795642, -1005161.75, 15126.317, 0.00019363454, 9.961796, 9.9496765 
7.7048033e+2, 2.0583719e+2, -912095.56, -1015249.1, -13616.365, 0.03137219, -0.0798387, -910328.5, 12459.309, 0.00010600358, 9.961993, 9.948641 
7.695508e+2, 2.157858e+2, -807968.06, -918943.44, -13899.117, 0.013628054, -0.076549955, -806253.75, 19037.531, 0.00007634894, 9.96261, 9.948259 
7.686213e+2, 2.2573322e+2, -718675.94, -841781.4, -14907.66, -0.005564249, -0.07612278, -716896.4, 10909.977, 0.00006424084, 9.962634, 9.94687 
7.676918e+2, 2.3568e+2, -626818.9, -751071.0, -13224.784, -0.02856037, -0.07981874, -625426.9, 4900.777, 0.00007258845, 9.962377, 9.946546 
7.6676244e+2, 2.4562576e+2, -540419.06, -674180.44, -15972.897, -0.04192973, -0.08070523, -538538.1, -5679.141, 0.000125778, 9.962038, 9.945268 
7.6583254e+2, 2.5557098e+2, -443341.84, -578710.6, -12228.441, -0.0500998, -0.08120835, -442246.06, -6850.1396, 0.00029085402, 9.962063, 9.945108 
7.649037e+2, 2.6551598e+2, -352709.13, -487561.38, -9235.926, -0.06896111, -0.074829645, -352079.5, -14145.044, 0.00073063554, 9.961678, 9.944939 
7.6397514e+2, 2.7546096e+2, -261696.84, -392978.8, -9368.59, -0.089022696, -0.08110827, -261031.64, -20558.314, 0.0017830973, 9.961204, 9.945041 
7.630469e+2, 2.8540468e+2, -177603.52, -320807.5, -11811.882, -0.106312335, -0.12680823, -176635.78, -33611.547, 0.003962126, 9.960938, 9.943415 
7.621178e+2, 2.9534772e+2, -83238.77, -225927.98, -8958.737, -0.12951882, -0.1726708, -82678.49, -37095.855, 0.0076687764, 9.9608, 9.943291 
7.611918e+2, 3.0529305e+2, -37998.566, -153058.4, 8972.74, -0.17567088, -0.07013136, -37303.047, -37303.047, 0.01274445, 9.960002, 9.945568 
7.602668e+2, 3.152374e+2, -236.45097, -32092.18, -8346.274, -0.2878155, -0.21662359, 1817.8191, 1817.8191, 0.018469784, 9.958332, 9.954344 
7.878637e+2, 1.2714377e+2, -1684342.0, -1706440.6, -7648.8467, 0.21379551, -0.031147033, -1681952.9, 12033.961, 0.06232195, 9.959543, 9.956642 
7.869379e+2, 1.3709962e+2, -1572918.0, -1609182.1, -7207.8804, 0.1570315, -0.089684814, -1571537.9, 24881.107, 0.042461146, 9.9607935, 9.955832 
7.8601146e+2, 1.4705457e+2, -1475786.9, -1527204.5, -7823.488, 0.1389575, -0.08036548, -1474622.9, 24237.59, 0.024464397, 9.961372, 9.9544115 
7.850852e+2, 1.5700938e+2, -1376346.6, -1433899.4, -11071.546, 0.13935252, -0.035887707, -1374290.3, 27013.18, 0.011363006, 9.961649, 9.953916 
7.8415745e+2, 1.6696224e+2, -1287209.0, -1358994.5, -13113.308, 0.106777966, -0.0389393, -1284888.5, 18876.742, 0.004107627, 9.961757, 9.952257 
7.832294e+2, 1.7691408e+2, -1188309.0, -1265283.4, -14224.129, 0.05569248, -0.07184495, -1185764.6, 20472.186, 0.0011430016, 9.961981, 9.9518 
7.823008e+2, 1.8686499e+2, -1091557.3, -1183199.5, -16338.43, 0.050312895, -0.075141475, -1088731.5, 19985.871, 0.00025201778, 9.962434, 9.95044 
7.813721e+2, 1.9681545e+2, -989504.3, -1088719.1, -15656.748, 0.069813125, -0.06424124, -987092.25, 24110.53, 0.000051052633, 9.962925, 9.949912 
7.8044283e+2, 2.067645e+2, -899734.44, -1012481.8, -15798.95, 0.048861817, -0.05526853, -897562.44, 16139.529, 0.000014643728, 9.963082, 9.948397 
7.795134e+2, 2.167129e+2, -801703.2, -918645.7, -17100.482, 0.006055686, -0.051396802, -799253.9, 16953.836, 0.00000789095, 9.96324, 9.948068 
7.7858394e+2, 2.2666013e+2, -711477.94, -837991.0, -19336.89, -0.020439692, -0.06453898, -708588.4, 10135.98, 0.000006376962, 9.96316, 9.94692 
7.776542e+2, 2.3660675e+2, -618149.1, -746277.75, -17639.32, -0.038401935, -0.08876158, -615765.1, 5481.633, 0.000008093031, 9.962985, 9.9465885 
7.767247e+2, 2.4655272e+2, -529751.2, -665574.3, -18750.572, -0.039969936, -0.08601498, -527210.2, -3434.1423, 0.0000172678, 9.962737, 9.945529 
7.7579486e+2, 2.564983e+2, -435404.97, -573088.8, -15238.904, -0.035546143, -0.07232721, -433738.47, -7429.217, 0.000048453676, 9.96264, 9.945212 
7.748656e+2, 2.6644292e+2, -352243.34, -493885.84, -13347.767, -0.05875557, -0.07080088, -350996.5, -22144.537, 0.00014434909, 9.962099, 9.944239 
7.739363e+2, 2.763871e+2, -265752.66, -402629.03, -12439.183, -0.0928446, -0.08526434, -264631.38, -33232.266, 0.00040934552, 9.96136, 9.944227 
7.730077e+2, 2.8633106e+2, -173692.67, -313252.0, -10424.77, -0.13351102, -0.08162044, -172918.27, -38969.895, 0.001020775, 9.961184, 9.943713 
7.720786e+2, 2.9627493e+2, -75880.52, -222773.13, -5253.5874, -0.18058679, -0.05420706, -75692.875, -39194.734, 0.002132909, 9.961552, 9.943013 
7.7115345e+2, 3.062175e+2, -42477.324, -178625.63, 1078.5027, -0.07348185, -0.08533475, -42468.78, -42468.78, 0.0037127312, 9.960786, 9.943225 
7.702258e+2, 3.1616226e+2, 2332.9592, -43670.008, -38828.957, -0.23096512, 0.039187726, 24461.912, 24461.912, 0.005531692, 9.958575, 9.95309 
7.978242e+2, 1.2806886e+2, -1656232.1, -1684257.4, 2557.749, 0.23258147, -0.004797007, -1656000.5, 28922.586, 0.04048696, 9.961078, 9.957369 
7.968992e+2, 1.3802591e+2, -1552778.5, -1593998.3, 318.9545, 0.1389687, -0.015816528, -1552776.1, 34567.76, 0.027255554, 9.961848, 9.956338 
7.959731e+2, 1.479808e+2, -1463534.0, -1522841.8, -1704.9492, 0.116332956, -0.024564615, -1463485.0, 26300.8, 0.015450949, 9.96211, 9.9543295 
7.9504716e+2, 1.5793505e+2, -1364504.3, -1428921.6, -5189.845, 0.123631485, -0.02509173, -1364088.9, 28144.945, 0.0070204227, 9.962308, 9.9538965 
7.941197e+2, 1.6788812e+2, -1274802.0, -1350468.8, -7012.402, 0.110734634, -0.02335784, -1274157.6, 20535.951, 0.0024614362, 9.962304, 9.952542 
7.9319197e+2, 1.7784053e+2, -1177374.3, -1256357.6, -7725.827, 0.08384944, -0.028943501, -1176625.6, 20534.205, 0.00065384543, 9.962385, 9.95218 
7.9226375e+2, 1.8779185e+2, -1078343.3, -1172023.1, -6679.467, 0.060128193, -0.03872768, -1077869.4, 21766.918, 0.00013178977, 9.962984, 9.950936 
7.9133546e+2, 1.9774257e+2, -972625.2, -1078355.0, -6936.332, 0.046519928, -0.046302937, -972172.06, 29946.76, 0.000020838193, 9.9638, 9.950175 
7.904063e+2, 2.0769145e+2, -888991.1, -1011961.5, -9484.535, 0.031211037, -0.04215084, -888263.9, 16355.823, 0.0000030700355, 9.963775, 9.94805 
7.89477e+2, 2.1763957e+2, -795222.44, -917421.4, -11063.011, 0.009115801, -0.036059532, -794228.94, 12899.326, 0.0000007638548, 9.963498, 9.947981 
7.885474e+2, 2.2758704e+2, -702794.8, -830606.25, -11874.227, -0.010298802, -0.04520368, -701701.0, 7941.4546, 0.00000049640073, 9.963385, 9.947256 
7.876177e+2, 2.37534e+2, -608256.2, -740766.75, -10225.846, -0.026700223, -0.06435861, -607471.7, 4689.8657, 0.00000072652756, 9.963394, 9.946684 
7.8668785e+2, 2.474797e+2, -521860.88, -665825.0, -13443.966, -0.036863036, -0.06690415, -520616.2, -5922.771, 0.0000019598215, 9.963262, 9.945214 
7.8575784e+2, 2.57425e+2, -427530.9, -572577.1, -14403.46, -0.040217645, -0.060965404, -426114.44, -8884.926, 0.0000067472724, 9.96311, 9.945072 
7.84828e+2, 2.6736963e+2, -342497.38, -490906.72, -14686.123, -0.06556181, -0.05348239, -341058.06, -21285.707, 0.000023985873, 9.962637, 9.944187 
7.838979e+2, 2.773137e+2, -255222.84, -400225.88, -10719.491, -0.10190476, -0.059379626, -254434.67, -32114.52, 0.00007796947, 9.962027, 9.944018 
7.829691e+2, 2.8725776e+2, -161521.84, -303586.28, -8739.272, -0.13656953, -0.050591845, -160986.25, -36117.66, 0.00021248123, 9.961803, 9.944039 
7.8204006e+2, 2.9720217e+2, -77143.8, -224364.98, -5349.3643, -0.17211597, -0.003691295, -76949.68, -49536.1, 0.00046747294, 9.961428, 9.942969 
7.8111416e+2, 3.0714375e+2, -59476.375, -196447.2, 3295.6074, -0.026309285, -0.079965584, -59397.125, -59397.125, 0.0008373519, 9.959639, 9.942278 
7.801847e+2, 3.1708613e+2, 51426.633, 66743.48, 3779.0002, -0.22040132, -0.15622643, 67625.09, 67625.09, 0.0012680582, 9.958407, 9.960535 
8.077854e+2, 1.2899408e+2, -1643011.5, -1681600.0, -1659.588, 0.1932623, -0.020115606, -1642940.3, 32917.01, 0.024554512, 9.962246, 9.957088 
8.068611e+2, 1.3895157e+2, -1548100.8, -1592356.6, -8436.885, 0.14301223, 0.028982446, -1546546.9, 31727.299, 0.016354568, 9.962282, 9.9564295 
8.0593526e+2, 1.4890686e+2, -1455730.1, -1513471.1, -8349.981, 0.118099, 0.014755863, -1454546.9, 26165.371, 0.009139995, 9.962494, 9.954955 
8.0500954e+2, 1.5886138e+2, -1354933.5, -1420362.9, -9131.445, 0.114446364, -0.012946431, -1353683.0, 29474.64, 0.0040751924, 9.962872, 9.954284 
8.040822e+2, 1.6881481e+2, -1261652.9, -1341019.9, -9751.961, 0.1067328, -0.008283472, -1260472.1, 25141.867, 0.0013936987, 9.963135, 9.952854 
8.0315477e+2, 1.787677e+2, -1160896.6, -1244670.8, -10408.764, 0.09367703, 0.002067204, -1159622.8, 28452.697, 0.0003581768, 9.963422, 9.952547 
8.0222684e+2, 1.8871944e+2, -1068301.3, -1163438.3, -9157.222, 0.061942402, -0.0071783434, -1067427.9, 23120.213, 0.00006886962, 9.963615, 9.951349 
8.0129904e+2, 1.9867046e+2, -971528.5, -1076430.9, -11842.605, 0.026099628, -0.02418307, -970208.2, 22819.408, 0.000009974997, 9.963892, 9.95041 
8.0037e+2, 2.0861933e+2, -885976.6, -1011672.7, -13783.416, 0.01731957, -0.026154144, -884482.94, 11045.633, 0.0000011239578, 9.964066, 9.947992 
7.994407e+2, 2.1856734e+2, -785677.94, -911845.44, -13038.891, 0.01524115, -0.02335564, -784344.5, 13693.385, 0.00000012112338, 9.9641485, 9.948046 
7.985111e+2, 2.2851518e+2, -690614.44, -821110.06, -14286.257, 0.004572075, -0.020977123, -689068.75, 11479.913, 0.00000003394614, 9.964137, 9.947568 
7.975814e+2, 2.3846254e+2, -599990.56, -737744.6, -13945.4375, -0.01161072, -0.025251864, -598592.94, 4471.0244, 0.000000053236686, 9.964071, 9.946611 
7.966512e+2, 2.4840765e+2, -519070.66, -671916.8, -16211.601, -0.040937908, -0.037077464, -517370.1, -11768.266, 0.00000018645665, 9.963857, 9.944513 
7.9572076e+2, 2.5835207e+2, -425534.2, -576660.5, -16502.78, -0.069736354, -0.046576966, -423753.1, -15606.744, 0.000000800136, 9.963551, 9.944545 
7.947905e+2, 2.6829675e+2, -338888.53, -487006.38, -17983.604, -0.0854417, -0.017669868, -336736.34, -26047.94, 0.0000033692709, 9.962879, 9.94425 
7.9386e+2, 2.7824113e+2, -255176.47, -401476.34, -12376.717, -0.09996378, 0.0023793937, -254136.81, -40903.223, 0.000012209197, 9.9622, 9.943779 
7.9293126e+2, 2.8818372e+2, -163437.9, -310050.28, -11103.955, -0.1124564, -0.08033962, -162601.7, -46805.67, 0.00003534664, 9.962066, 9.943408 
7.920021e+2, 2.981266e+2, -72386.055, -219478.1, -11709.171, -0.13714056, -0.13047351, -71459.79, -53104.234, 0.000080279366, 9.9617405, 9.9431 
7.9107296e+2, 3.080728e+2, -39858.5, -155686.63, -7596.7256, -0.10769116, 0.09482635, -39362.387, -39362.387, 0.00014624788, 9.959603, 9.944841 
7.901413e+2, 3.180168e+2, 16280.237, 24920.797, 7178.65, -0.31444243, -0.030181013, 28978.932, 28978.932, 0.0002234914, 9.957329, 9.958142 
8.1774783e+2, 1.2991911e+2, -1630156.9, -1681390.8, 4971.2373, 0.14794417, -0.037321575, -1629679.0, 37114.1, 0.013656359, 9.963167, 9.956557 
8.16824e+2, 1.3987643e+2, -1537260.1, -1586469.0, 79.89533, 0.17090502, 0.03842149, -1537260.0, 31952.219, 0.00901513, 9.962786, 9.956443 
8.1589824e+2, 1.4983235e+2, -1440670.3, -1495626.4, 1921.9312, 0.1388302, 0.023848178, -1440603.1, 31040.785, 0.0049783196, 9.9628725, 9.955908 
8.1497264e+2, 1.5978776e+2, -1342473.9, -1406895.0, -91.57515, 0.11225335, -0.005599477, -1342473.8, 31606.838, 0.0021846793, 9.963189, 9.9549675 
8.140454e+2, 1.6974156e+2, -1252080.5, -1332737.3, 317.1888, 0.08933234, -0.006807312, -1252079.4, 24453.771, 0.0007317571, 9.963415, 9.953225 
8.131183e+2, 1.7969476e+2, -1151684.8, -1238482.8, -1029.6697, 0.067045495, -0.0006745284, -1151672.5, 27319.19, 0.0001830531, 9.963739, 9.9527445 
8.1219065e+2, 1.896467e+2, -1063509.0, -1162628.0, -719.28186, 0.062330514, 0.011470639, -1063503.9, 17958.813, 0.000033989887, 9.963755, 9.951279 
8.112632e+2, 1.9959795e+2, -967513.4, -1071054.1, -3920.4536, 0.05316234, 0.015791595, -967365.1, 16575.152, 0.000004694803, 9.963763, 9.950796 
8.103342e+2, 2.095475e+2, -874966.75, -995613.8, -2880.9192, 0.026976218, -0.00182516, -874898.0, 11536.275, 0.0000004859857, 9.964132, 9.948987 
8.0940515e+2, 2.1949613e+2, -774128.94, -903995.4, -745.81165, 0.004773197, -0.01718468, -774124.6, 14812.618, 0.000000038927716, 9.964604, 9.948235 
8.084757e+2, 2.294435e+2, -683641.06, -827041.6, -5523.7183, -0.0037433482, -0.007794686, -683428.56, 8024.18, 0.0000000035435106, 9.96477, 9.946789 
8.0754596e+2, 2.3939039e+2, -587711.6, -736022.75, -9446.819, -0.013492187, 0.0009618348, -587112.3, 6861.0615, 0.0000000034394736, 9.96484, 9.946381 
8.0661565e+2, 2.4933568e+2, -499888.53, -659470.44, -10269.004, -0.042984955, -0.011231748, -499230.44, -2721.1309, 0.00000001625546, 9.964812, 9.94484 
8.0568486e+2, 2.5928026e+2, -405761.63, -566433.2, -7535.3013, -0.07612104, -0.023495935, -405409.0, -6356.842, 0.00000008873376, 9.964646, 9.944539 
8.047539e+2, 2.6922482e+2, -321104.16, -479160.56, -12305.8, -0.08601717, 0.007352362, -320151.78, -18556.604, 0.00000043477186, 9.963882, 9.944112 
8.0382276e+2, 2.7916905e+2, -242323.72, -398116.3, -7398.4595, -0.08761684, 0.028775975, -241973.16, -37831.555, 0.0000017078004, 9.962996, 9.943514 
8.0289346e+2, 2.891108e+2, -163115.47, -315073.13, -5991.322, -0.10635394, -0.09570746, -162879.61, -56167.176, 0.0000051455318, 9.96212, 9.942884 
8.019634e+2, 2.9905304e+2, -76580.016, -215408.92, -8554.27, -0.14085406, -0.17696841, -76054.914, -66776.48, 0.000011918739, 9.960967, 9.943554 
8.010317e+2, 3.0900332e+2, -19630.338, -118429.98, -13457.119, -0.16184244, 0.28309333, -17830.195, -17830.195, 0.000021931475, 9.959532, 9.947229 
8.000998e+2, 3.1894535e+2, -29775.383, -97085.08, 7322.5337, -0.2125609, -0.08298791, -28987.984, -28987.984, 0.00003368652, 9.958335, 9.949329 
8.277115e+2, 1.3084538e+2, -1609912.6, -1660007.5, -2102.5737, 0.1725816, 0.025671428, -1609824.5, 47893.05, 0.006829297, 9.964108, 9.957605 
8.26787e+2, 1.408026e+2, -1523329.3, -1574995.9, -1950.008, 0.15902695, 0.015510156, -1523255.8, 36881.1, 0.0044781193, 9.963607, 9.956763 
8.258613e+2, 1.5075889e+2, -1431402.6, -1489233.5, -166.81062, 0.13223594, 0.0229531, -1431402.1, 31163.12, 0.0024504783, 9.963508, 9.9561 
8.24936e+2, 1.607149e+2, -1333722.4, -1398223.9, -6502.244, 0.112275794, 0.019022409, -1333073.5, 31922.97, 0.0010623109, 9.963677, 9.955467 
8.24009e+2, 1.7066921e+2, -1240086.0, -1320933.5, -3933.3816, 0.08499645, 0.009037978, -1239895.1, 27548.605, 0.00035011073, 9.964067, 9.953857 
8.2308215e+2, 1.8062285e+2, -1140457.8, -1230308.1, -5037.357, 0.057782564, 0.0061366465, -1140176.1, 29721.775, 0.00008574844, 9.964449, 9.953054 
8.2215464e+2, 1.9057506e+2, -1053683.6, -1157568.0, -3673.3716, 0.0652461, 0.029622562, -1053554.0, 18812.768, 0.00001549313, 9.964451, 9.951347 
8.212273e+2, 2.0052661e+2, -954257.8, -1059446.4, -5437.922, 0.071691476, 0.047057, -953977.44, 20864.232, 0.0000020664204, 9.964498, 9.95128 
8.202987e+2, 2.1047689e+2, -857683.75, -976764.25, -5336.039, 0.031507052, 0.018290129, -857445.1, 19883.027, 0.00000020419301, 9.964947, 9.949993 
8.1936973e+2, 2.2042613e+2, -764884.56, -900413.6, -5188.559, -0.010264156, -0.010421291, -764686.25, 15138.348, 0.000000015033818, 9.965343, 9.948259 
8.1844044e+2, 2.3037289e+2, -682579.3, -837507.6, -7420.349, -0.018114949, 0.005005858, -682224.75, 121.929, 0.00000000086621144, 9.965377, 9.945817 
8.175108e+2, 2.4031901e+2, -582622.3, -735058.2, -8693.962, -0.023371976, 0.021445958, -582128.06, 2746.7625, 0.00000000034048667, 9.965318, 9.94618 
8.165806e+2, 2.5026482e+2, -490586.4, -646451.25, -10683.932, -0.042145025, 0.013106082, -489857.47, -2451.7632, 0.000000002935189, 9.9651575, 9.94551 
8.1564975e+2, 2.6020995e+2, -402484.38, -563256.06, -9455.572, -0.06487351, 0.0029388797, -401930.2, -11987.165, 0.000000021808873, 9.964852, 9.944597 
8.1471795e+2, 2.7015394e+2, -323112.2, -485139.13, -16285.252, -0.073328756, 0.013264606, -321491.56, -28999.49, 0.00000012305001, 9.964001, 9.943543 
8.1378585e+2, 2.800974e+2, -245163.72, -404143.53, -10389.113, -0.08388231, 0.017133323, -244487.67, -49441.5, 0.00000051464855, 9.963073, 9.942979 
8.128552e+2, 2.9003945e+2, -165342.08, -318765.13, -11518.165, -0.14622186, -0.030290369, -164482.19, -66868.19, 0.0000015955011, 9.962148, 9.942495 
8.1192374e+2, 2.999822e+2, -74650.305, -210495.34, -12990.274, -0.20156446, -0.04150506, -73419.26, -73243.83, 0.0000037456712, 9.960998, 9.943755 
8.109929e+2, 3.0993062e+2, -5055.2007, -103990.35, -20071.02, -0.052090984, 0.18756403, -1138.4446, -1138.4446, 0.0000069388934, 9.96033, 9.947763 
8.1006e+2, 3.1987226e+2, -12660.739, -96081.836, 6557.581, -0.14675249, -0.21617123, -12148.406, -12148.406, 0.000010688788, 9.959932, 9.948603 
8.376761e+2, 1.317722e+2, -1597908.6, -1637449.5, 5392.546, 0.20112622, 0.08814562, -1597186.4, 51450.47, 0.0030089617, 9.96396, 9.959046 
8.367503e+2, 1.4172953e+2, -1515941.8, -1568757.4, 4299.914, 0.118481874, -0.016574152, -1515594.0, 35460.086, 0.0019641386, 9.963761, 9.956988 
8.3582467e+2, 1.5168597e+2, -1429826.5, -1492663.8, 9782.606, 0.10915976, 0.032341544, -1428338.8, 25142.758, 0.0010681495, 9.96357, 9.955752 
8.348998e+2, 1.6164222e+2, -1327544.0, -1391245.1, 3845.777, 0.115653135, 0.0675202, -1327312.6, 28597.842, 0.00045917454, 9.963707, 9.955829 
8.3397335e+2, 1.7159717e+2, -1230740.0, -1307497.9, 7828.804, 0.10267854, 0.047596324, -1229949.6, 28402.014, 0.00014963388, 9.964116, 9.954674 
8.330469e+2, 1.8155137e+2, -1133029.9, -1221045.8, 5054.898, 0.07819574, 0.030951086, -1132740.5, 28059.639, 0.00003610315, 9.964459, 9.953585 
8.3211917e+2, 1.9150382e+2, -1046421.2, -1149416.3, 6821.116, 0.055093586, 0.035326533, -1045971.4, 17294.732, 0.0000063962675, 9.964472, 9.9517975 
8.311918e+2, 2.0145562e+2, -947191.6, -1055023.3, 6453.9287, 0.041718654, 0.041511964, -946806.7, 18931.91, 0.00000083170164, 9.964689, 9.951403 
8.302639e+2, 2.1140607e+2, -850011.3, -974744.3, 5176.708, 0.027279105, 0.03590492, -849796.8, 18427.057, 0.00000007956064, 9.965317, 9.949935 
8.293357e+2, 2.2135565e+2, -750630.06, -888248.7, 2122.6606, 0.0050747492, 0.026092974, -750597.3, 20120.225, 0.0000000056202865, 9.965827, 9.948867 
8.284063e+2, 2.313032e+2, -663663.4, -817797.7, 3753.7288, -0.017294798, 0.027601931, -663572.06, 9659.413, 0.00000000032888073, 9.965942, 9.946758 
8.2747644e+2, 2.4124987e+2, -567026.5, -723653.7, 7093.84, -0.033168036, 0.03096611, -566705.9, 9048.163, 0.00000000052215815, 9.965934, 9.9464 
8.2654595e+2, 2.5119558e+2, -480846.94, -642334.3, 975.8208, -0.045242578, 0.02393656, -480841.06, -2555.3186, 0.0000000056730998, 9.965561, 9.945384 
8.256148e+2, 2.6114067e+2, -394332.72, -560750.75, -1218.2252, -0.059462264, 0.018511, -394323.8, -13500.255, 0.000000045252904, 9.965193, 9.944491 
8.2468253e+2, 2.710844e+2, -303209.6, -478214.16, -8359.164, -0.07431395, 0.026073745, -302811.25, -19436.13, 0.0000002626365, 9.96521, 9.943263 
8.237496e+2, 2.8102753e+2, -217601.08, -393259.28, -2077.3582, -0.09281155, 0.028220143, -217576.52, -31643.793, 0.0000011115204, 9.964766, 9.942678 
8.2281727e+2, 2.9096982e+2, -155527.08, -315716.5, -5055.152, -0.16767937, 0.027058491, -155367.72, -66868.97, 0.0000034637415, 9.96255, 9.942188 
8.218844e+2, 3.0091268e+2, -76841.92, -208269.66, -3641.8308, -0.21445176, 0.044240836, -76741.086, -76741.086, 0.00000815004, 9.960428, 9.943899 
8.2095414e+2, 3.1085908e+2, -7576.88, -102790.01, -11651.796, 0.054754812, 0.049089883, -6171.718, -6171.718, 0.000015119871, 9.959843, 9.947847 
8.2001805e+2, 3.208049e+2, -7200.3467, -72683.43, 8824.867, -0.29623556, 0.043524332, -6031.907, -6031.907, 0.00002330451, 9.959126, 9.95039 
8.4763986e+2, 1.3269864e+2, -1597567.4, -1645071.9, 1548.2805, 0.17737266, 0.06996405, -1597517.0, 42042.363, 0.0011421927, 9.964504, 9.958409 
8.4671474e+2, 1.426565e+2, -1496669.9, -1555426.0, -9074.734, 0.12980284, 0.03543779, -1495300.3, 46671.633, 0.0007435361, 9.964991, 9.957534 
8.4578866e+2, 1.5261357e+2, -1408168.3, -1473719.5, 3079.2527, 0.103738084, 0.057297662, -1408023.9, 36368.957, 0.00040280866, 9.964749, 9.956618 
8.448638e+2, 1.625704e+2, -1311122.5, -1377153.3, 1444.1094, 0.107882045, 0.08022445, -1311091.0, 35724.996, 0.00017225166, 9.964626, 9.956376 
8.4393764e+2, 1.7252599e+2, -1222307.9, -1297316.4, 4664.649, 0.109785974, 0.06936249, -1222019.0, 27231.93, 0.00005573453, 9.964496, 9.955293 
8.430115e+2, 1.8248078e+2, -1128010.0, -1213611.6, 62.94137, 0.0896442, 0.05385075, -1128009.9, 23683.621, 0.000013319515, 9.964638, 9.954136 
8.4208375e+2, 1.9243369e+2, -1032698.4, -1136936.8, 3210.3975, 0.043661013, 0.042523973, -1032599.6, 21555.35, 0.00000232996, 9.96521, 9.952409 
8.411564e+2, 2.0238587e+2, -934214.06, -1047189.0, 4747.2744, 0.016429624, 0.040788557, -934014.94, 22608.55, 0.00000029792903, 9.965573, 9.951602 
8.4022933e+2, 2.1233657e+2, -847520.0, -974357.94, 6663.4277, 0.027031789, 0.05837754, -847170.9, 11936.033, 0.000000027884646, 9.965596, 9.949852 
8.393017e+2, 2.2228652e+2, -746291.75, -876259.3, 4001.6375, 0.02234176, 0.06533472, -746168.6, 15428.623, 0.0000000019195514, 9.965743, 9.949703 
8.383722e+2, 2.3223518e+2, -652672.6, -796383.1, 3198.933, -0.016020168, 0.048549674, -652601.44, 11498.273, 0.00000000019847725, 9.966045, 9.948174 
8.3744234e+2, 2.4218267e+2, -563520.56, -720629.7, 4850.98, -0.045975313, 0.035170935, -563370.94, 3242.851, 0.0000000015405272, 9.9661455, 9.94652 
8.365115e+2, 2.5212795e+2, -481151.72, -648479.25, -1342.5361, -0.052296985, 0.028446972, -481140.97, -11991.011, 0.000000016924396, 9.96582, 9.944795 
8.3558e+2, 2.620726e+2, -393232.03, -562534.2, -733.67633, -0.06585148, 0.028409488, -393228.88, -21536.316, 0.00000013515475, 9.965446, 9.9442005 
8.3464766e+2, 2.7201635e+2, -301695.63, -477768.0, -8205.27, -0.09443003, 0.051979538, -301314.1, -27070.025, 0.00000078460346, 9.96543, 9.943121 
8.3371425e+2, 2.8195938e+2, -216158.9, -391627.3, -7325.9883, -0.11375468, 0.059705954, -215853.58, -39051.15, 0.0000033204687, 9.964818, 9.942628 
8.327801e+2, 2.9190135e+2, -156301.92, -314937.34, -15180.961, -0.13041975, 0.029622369, -154862.22, -75490.96, 0.000010346349, 9.962365, 9.942112 
8.318452e+2, 3.01844e+2, -79093.875, -209513.7, -7826.524, -0.1639731, 0.032115433, -78625.88, -78625.88, 0.000024338386, 9.960337, 9.943721 
8.3091265e+2, 3.117901e+2, -13548.958, -111680.1, -15455.788, -0.068233676, 0.058752228, -11172.215, -11172.215, 0.00004513764, 9.959822, 9.947143 
8.299767e+2, 3.2173535e+2, -14539.707, -84583.055, -2274.7905, -0.33399287, 0.09545697, -14465.906, -14465.906, 0.00006958143, 9.959024, 9.949547 
8.576043e+2, 1.3362518e+2, -1600343.9, -1661734.9, 13837.574, 0.15959653, 0.060106147, -1597369.1, 33111.996, 0.00036341642, 9.964912, 9.956987 
8.5668004e+2, 1.4358352e+2, -1493462.9, -1542333.5, 350.1209, 0.16836159, 0.122781, -1493460.4, 39429.285, 0.00023620963, 9.964499, 9.95846 
8.5575336e+2, 1.5354136e+2, -1398875.0, -1451292.1, 13332.451, 0.10376892, 0.07232392, -1395678.8, 39623.645, 0.00012768328, 9.964383, 9.958196 
8.548281e+2, 1.6349885e+2, -1309066.8, -1371581.0, 9992.263, 0.08720976, 0.053326085, -1307508.4, 30209.945, 0.000054433065, 9.964317, 9.95678 
8.53902e+2, 1.7345493e+2, -1222036.0, -1295193.9, 14077.28, 0.10112767, 0.07182507, -1219420.6, 20728.111, 0.00001753889, 9.964175, 9.955499 
8.529761e+2, 1.8341024e+2, -1124578.5, -1206071.5, 11346.626, 0.08857637, 0.07646343, -1123028.3, 19558.344, 0.000004167791, 9.964414, 9.954693 
8.520491e+2, 1.9336386e+2, -1024399.8, -1124926.9, 15875.736, 0.05066803, 0.0647536, -1021952.25, 23088.852, 0.00000072355056, 9.965243, 9.953165 
8.511223e+2, 2.0331687e+2, -922483.6, -1030860.8, 14505.726, 0.026261663, 0.06161461, -920575.7, 26925.89, 0.00000009158835, 9.965627, 9.952581 
8.501947e+2, 2.1326855e+2, -840989.2, -959689.9, 18142.426, 0.023783283, 0.07596307, -838278.2, 11696.971, 0.000000008458324, 9.965225, 9.950864 
8.49267e+2, 2.2321926e+2, -746719.56, -870765.6, 19562.959, 0.014630253, 0.08055754, -743707.5, 8750.546, 0.00000000058265287, 9.965203, 9.950171 
8.483382e+2, 2.3316827e+2, -648577.56, -790046.4, 16166.877, -0.012534686, 0.063657075, -646753.56, 8203.5205, 0.00000000027731337, 9.965883, 9.948593 
8.474087e+2, 2.4311626e+2, -551321.5, -710149.6, 15308.4, -0.03873522, 0.052425843, -549859.44, 7607.09, 0.000000003769359, 9.966499, 9.947019 
8.464779e+2, 2.5306207e+2, -456693.7, -632377.75, 11384.134, -0.056069344, 0.0527096, -455959.1, 4038.5137, 0.000000041425363, 9.967003, 9.945169 
8.455462e+2, 2.63007e+2, -363133.16, -545410.7, 14444.002, -0.07300796, 0.055877477, -361995.66, 541.67194, 0.00000033075688, 9.967062, 9.944338 
8.446133e+2, 2.729507e+2, -287849.06, -469784.5, 6445.11, -0.098420314, 0.07462339, -287621.03, -22532.082, 0.0000019196316, 9.965979, 9.943099 
8.436791e+2, 2.828937e+2, -208469.81, -385863.4, 4313.5806, -0.11223667, 0.07657822, -208364.98, -40717.01, 0.000008122092, 9.964813, 9.942666 
8.4274304e+2, 2.9283553e+2, -135263.5, -303635.8, -6702.5317, -0.10655535, 0.031960934, -134997.11, -64779.324, 0.000025306754, 9.963252, 9.942053 
8.418062e+2, 3.027781e+2, -56860.098, -200408.84, 5742.5264, -0.14965926, 0.03600948, -56630.742, -56630.742, 0.000059529128, 9.961531, 9.943421 
8.4087104e+2, 3.1272396e+2, -14952.468, -118240.57, -2355.8325, -0.20077482, 0.095860146, -14898.764, -14898.764, 0.00011036824, 9.95958, 9.946456 
8.3993715e+2, 3.2266727e+2, -34300.38, -97919.92, 10180.253, -0.13609609, 0.021892326, -32711.064, -32711.064, 0.00017012701, 9.957302, 9.948953 
8.675704e+2, 1.3455309e+2, -1560576.4, -1623880.5, 3457.078, 0.17495467, 0.09998538, -1560388.1, 61001.332, 0.00009383463, 9.96673, 9.958564 
8.666441e+2, 1.4451209e+2, -1488672.4, -1533241.8, 1224.4742, 0.14046466, 0.12862268, -1488638.8, 35152.645, 0.00006094004, 9.964584, 9.958875 
8.657177e+2, 1.544704e+2, -1392425.8, -1441795.1, 12205.092, 0.10717205, 0.087065585, -1389573.1, 36626.11, 0.00003290037, 9.964624, 9.958764 
8.647927e+2, 1.6442841e+2, -1298709.1, -1362435.6, 4971.8564, 0.09695314, 0.06594491, -1298323.5, 30286.8, 0.000014001087, 9.964904, 9.957223 
8.638665e+2, 1.7438498e+2, -1202532.4, -1280758.1, 12134.833, 0.09502582, 0.08494604, -1200693.3, 30342.668, 0.0000045003767, 9.965342, 9.95599 
8.629408e+2, 1.8434092e+2, -1105898.5, -1189236.9, 11169.638, 0.07977087, 0.095185734, -1104427.4, 29040.256, 0.0000010659371, 9.965415, 9.955394 
8.620145e+2, 1.9429536e+2, -1019305.9, -1113360.9, 17074.229, 0.05532283, 0.08700981, -1016302.25, 19611.813, 0.00000018424288, 9.965274, 9.953987 
8.61088e+2, 2.0424926e+2, -918810.1, -1018015.4, 12340.934, 0.03515705, 0.08380673, -917298.0, 21067.781, 0.000000023185766, 9.9654045, 9.953592 
8.6016e+2, 2.1420199e+2, -825432.6, -939558.3, 14206.613, 0.017445242, 0.08974585, -823690.75, 17138.277, 0.0000000021246724, 9.965743, 9.952046 
8.592323e+2, 2.2415349e+2, -734529.75, -861414.06, 18660.926, 0.002697541, 0.09043438, -731842.2, 11461.932, 0.00000000016612903, 9.965959, 9.950546 
8.5830426e+2, 2.3410282e+2, -643437.94, -785522.3, 17162.596, -0.0068798154, 0.07888693, -641394.25, 4406.1636, 0.00000000051179117, 9.966226, 9.948791 
8.573754e+2, 2.4405128e+2, -546122.6, -699175.8, 17586.443, -0.02842577, 0.07715667, -544127.9, 4177.3594, 0.000000007637945, 9.966568, 9.947754 
8.564449e+2, 2.5399807e+2, -452155.34, -620380.06, 13321.512, -0.06322645, 0.08978644, -451106.97, -280.17993, 0.000000083945466, 9.966974, 9.945989 
8.5551316e+2, 2.639436e+2, -362632.63, -541134.3, 12469.125, -0.08185865, 0.092124395, -361765.8, -8405.263, 0.0000006702643, 9.966919, 9.94462 
8.545794e+2, 2.7388722e+2, -288179.2, -468093.28, 2327.766, -0.08056606, 0.08676654, -288149.1, -32235.887, 0.000003889783, 9.965854, 9.9431505 
8.536439e+2, 2.8383e+2, -209683.06, -385823.66, 253.06667, -0.10021564, 0.07703432, -209682.69, -51209.04, 0.000016460805, 9.964724, 9.942589 
8.527061e+2, 2.9377192e+2, -134046.4, -303911.56, -12727.884, -0.15017481, 0.05236452, -133098.02, -72055.14, 0.000051319832, 9.963396, 9.94183 
8.517677e+2, 3.037144e+2, -53191.426, -203075.75, -3031.1082, -0.18349586, 0.077863626, -53130.156, -53130.156, 0.000120814846, 9.961968, 9.942907 
8.508315e+2, 3.136595e+2, -20115.898, -128401.12, -14753.873, -0.10733123, 0.13533713, -18141.676, -18141.676, 0.00022411745, 9.959504, 9.945644 
8.4989357e+2, 3.2360297e+2, -29510.459, -59062.23, -10548.542, -0.12429864, 0.017697578, -26131.496, -26131.496, 0.00034556063, 9.955849, 9.951855 
8.775365e+2, 1.3548186e+2, -1561260.0, -1593769.5, 499.75717, 0.172689, 0.1232093, -1561252.3, 51036.914, 0.000019043677, 9.964955, 9.961179 
8.766079e+2, 1.4544152e+2, -1494523.5, -1538025.4, 7682.905, 0.08641754, 0.10221067, -1493206.5, 21477.414, 0.000012362725, 9.964108, 9.958662 
8.7568235e+2, 1.5540019e+2, -1398540.0, -1447363.3, 21672.674, 0.12710774, 0.119380765, -1390307.6, 26781.504, 0.0000066696857, 9.964171, 9.958535 
8.747579e+2, 1.6535856e+2, -1297375.8, -1354084.0, 14619.894, 0.13276823, 0.11541428, -1293828.5, 25668.555, 0.000002835376, 9.964519, 9.9578905 
8.7383175e+2, 1.7531562e+2, -1198243.9, -1269187.4, 23019.82, 0.08515518, 0.10339395, -1191429.0, 30488.5, 0.0000009100635, 9.965081, 9.956836 
8.7290585e+2, 1.8527229e+2, -1101844.6, -1177392.4, 18203.035, 0.05405534, 0.10383726, -1097687.5, 26654.422, 0.00000021513608, 9.965004, 9.956276 
8.7197924e+2, 1.9522783e+2, -1018805.6, -1101979.9, 25288.324, 0.046984706, 0.109133795, -1011720.5, 15057.004, 0.000000037089958, 9.964563, 9.954987 
8.7105304e+2, 2.0518245e+2, -921087.25, -1013953.2, 24589.574, 0.037588347, 0.105634905, -914978.1, 14243.987, 0.0000000046516857, 9.964852, 9.954077 
8.701259e+2, 2.1513557e+2, -817318.1, -929312.56, 25683.441, 0.019192206, 0.0978107, -811709.1, 19972.256, 0.0000000004243601, 9.965839, 9.952675 
8.6919856e+2, 2.2508791e+2, -718422.0, -842174.3, 27856.533, -0.0010154656, 0.09793039, -712440.6, 21707.797, 0.000000000071721434, 9.966292, 9.951641 
8.682704e+2, 2.3503853e+2, -631409.8, -767318.25, 28993.035, -0.01846534, 0.10028896, -625483.25, 11148.845, 0.0000000009082265, 9.966211, 9.949917 
8.6734164e+2, 2.4498819e+2, -538251.5, -680839.94, 32838.145, -0.03706021, 0.099590845, -531052.4, 8072.8716, 0.000000013717135, 9.966155, 9.949041 
8.664114e+2, 2.5493613e+2, -450280.94, -605328.8, 30004.959, -0.06299981, 0.10114445, -444676.9, -3041.5088, 0.00000015076724, 9.966127, 9.947212 
8.654797e+2, 2.6488277e+2, -357944.72, -526860.7, 31861.709, -0.07913263, 0.101187386, -352134.66, -7976.6123, 0.0000012040975, 9.966307, 9.945612 
8.6454564e+2, 2.7482715e+2, -262666.88, -446173.9, 24662.15, -0.0791125, 0.09432275, -259410.23, -12707.196, 0.000006992764, 9.966721, 9.943818 
8.636094e+2, 2.8477037e+2, -174904.73, -366549.06, 24046.016, -0.105486095, 0.0873736, -171933.69, -22673.9, 0.000029645516, 9.9665, 9.942521 
8.626698e+2, 2.9471216e+2, -103818.84, -290023.5, 9346.933, -0.17755473, 0.08063659, -103350.836, -51520.71, 0.00009271142, 9.964993, 9.941453 
8.617297e+2, 3.0465415e+2, -44885.09, -200764.42, 13549.867, -0.17950717, 0.111590356, -43716.03, -43716.03, 0.00021904535, 9.961983, 9.942413 
8.6079127e+2, 3.1459835e+2, -48508.582, -148685.48, 2906.4788, 0.0038776088, 0.1430088, -48424.33, -48424.33, 0.0004076256, 9.957154, 9.944675 
8.598473e+2, 3.2454303e+2, -15358.191, -8170.867, -1029.4617, -0.28264377, 0.026798164, -8026.3213, -8026.3213, 0.00062983576, 9.954176, 9.955426 
8.875016e+2, 1.3641115e+2, -1557161.1, -1587027.0, 2439.1914, 0.20524246, 0.12620488, -1556963.3, 46220.305, 0.000002958578, 9.9652605, 9.961602 
8.865728e+2, 1.4637111e+2, -1464966.4, -1521108.9, -457.51703, 0.063366726, 0.10475991, -1464962.6, 40612.867, 0.0000019202917, 9.966049, 9.95898 
8.856474e+2, 1.5633032e+2, -1372727.9, -1432042.0, 18323.738, 0.13604212, 0.14424257, -1367523.8, 40451.98, 0.0000010355539, 9.965862, 9.958859 
8.847228e+2, 1.6628921e+2, -1279796.5, -1338319.3, 11044.043, 0.14298207, 0.14481142, -1277781.6, 32596.838, 0.0000004399312, 9.965439, 9.95858 
8.8379663e+2, 1.7624697e+2, -1193689.3, -1257805.8, 19820.428, 0.073931545, 0.11919042, -1188057.0, 24735.123, 0.00000014107277, 9.965037, 9.9577265 
8.828707e+2, 1.862045e+2, -1094399.6, -1164189.8, 13530.598, 0.040294006, 0.11652245, -1091868.1, 23339.697, 0.00000003330806, 9.965111, 9.957209 
8.819441e+2, 1.9616117e+2, -998546.0, -1081452.5, 21153.545, 0.045556124, 0.1284479, -993460.6, 24171.918, 0.0000000057331504, 9.965501, 9.95603 
8.8101816e+2, 2.0611657e+2, -906872.2, -1000592.4, 24352.352, 0.038993575, 0.12453917, -900922.2, 19147.13, 0.00000000071752804, 9.96563, 9.954716 
8.800917e+2, 2.1607031e+2, -813779.4, -919429.44, 27509.42, 0.019091936, 0.1069352, -807045.6, 15477.01, 0.00000000006547386, 9.965818, 9.953419 
8.791647e+2, 2.260237e+2, -713390.25, -824450.94, 27651.752, -0.008011614, 0.10934101, -706886.44, 18092.834, 0.0000000000751049, 9.965992, 9.953 
8.782364e+2, 2.3597589e+2, -623166.44, -746742.44, 28404.9, -0.037494354, 0.1245175, -616950.06, 10497.45, 0.0000000014740116, 9.966072, 9.951386 
8.773076e+2, 2.4592695e+2, -529381.3, -659447.56, 32673.137, -0.051265143, 0.116352834, -521635.06, 8291.826, 0.000000022289091, 9.966046, 9.950575 
8.763776e+2, 2.5587618e+2, -442242.0, -584373.94, 28884.719, -0.05598889, 0.092797324, -436596.16, -4172.1265, 0.00000024496487, 9.965965, 9.948722 
8.754461e+2, 2.6582444e+2, -349595.16, -504774.28, 34104.55, -0.07750652, 0.09190422, -342430.6, -7499.5405, 0.0000019576619, 9.966196, 9.947195 
8.745122e+2, 2.7577043e+2, -254343.73, -426864.78, 26528.623, -0.10723353, 0.10393023, -250356.58, -12896.081, 0.000011400731, 9.966738, 9.945099 
8.7357587e+2, 2.857145e+2, -172203.47, -363506.75, 20471.344, -0.124438465, 0.1114955, -170037.36, -30028.879, 0.000048632028, 9.966658, 9.9425125 
8.7263536e+2, 2.9565603e+2, -101635.99, -291704.8, 4529.6167, -0.14370364, 0.11462756, -101528.1, -58946.746, 0.00015357247, 9.965279, 9.941051 
8.7169164e+2, 3.0559725e+2, -45609.37, -196115.72, -8456.898, -0.15747367, 0.11063503, -45135.67, -45135.67, 0.00036699965, 9.961374, 9.942647 
8.707463e+2, 3.1554115e+2, -70590.52, -157016.64, -16509.36, -0.06873546, 0.07184889, -67544.23, -67544.23, 0.00068988913, 9.955184, 9.944645 
8.6980087e+2, 3.2548803e+2, -25565.955, -11988.219, 6490.9478, -0.28694078, 0.13651973, -9384.477, -9384.477, 0.001073521, 9.953611, 9.955529 
8.9746684e+2, 1.3734058e+2, -1566158.3, -1594164.3, 16698.936, 0.22698766, 0.13391823, -1558368.1, 35708.555, 0.00000034527207, 9.9649315, 9.961321 
8.965383e+2, 1.4730068e+2, -1473590.0, -1519143.8, 3489.3477, 0.053188212, 0.11842585, -1473324.4, 23143.287, 0.00000022408217, 9.9650755, 9.959485 
8.956129e+2, 1.572604e+2, -1378080.5, -1428353.9, 23798.857, 0.12833822, 0.15681528, -1368601.6, 30261.063, 0.00000012080618, 9.965103, 9.959409 
8.9468795e+2, 1.6721982e+2, -1283560.0, -1333783.3, 14393.042, 0.13356844, 0.15719545, -1279727.6, 21532.482, 0.000000051297388, 9.964737, 9.959138 
8.9376134e+2, 1.7717831e+2, -1196404.8, -1250926.6, 24213.54, 0.07176354, 0.1387872, -1187204.0, 16462.531, 0.00000001643881, 9.964339, 9.958467 
8.928357e+2, 1.8713658e+2, -1094881.4, -1155456.0, 21121.2, 0.04961703, 0.13208187, -1088244.0, 17831.238, 0.000000003877973, 9.964612, 9.958023 
8.919098e+2, 1.9709404e+2, -993346.6, -1068205.5, 28472.66, 0.06213153, 0.13366292, -983747.8, 24744.2, 0.00000000066676814, 9.965297, 9.957018 
8.909837e+2, 2.070507e+2, -901600.4, -983693.56, 29028.275, 0.04082524, 0.14010674, -892373.1, 18543.742, 0.00000000008333369, 9.965177, 9.956019 
8.900568e+2, 2.1700603e+2, -816124.25, -904058.44, 34666.332, -0.00082300976, 0.14303248, -804101.56, 9253.022, 0.000000000010516922, 9.964747, 9.9548855 
8.891299e+2, 2.2696076e+2, -717761.7, -809123.25, 38237.242, -0.01590883, 0.13498823, -703870.5, 11927.084, 0.000000000098867345, 9.964756, 9.954537 
8.88202e+2, 2.3691438e+2, -623620.4, -728304.0, 40253.19, -0.02148662, 0.12831606, -609932.0, 8319.656, 0.0000000020481026, 9.965004, 9.953024 
8.872732e+2, 2.46867e+2, -528711.1, -641710.25, 45498.977, -0.039337113, 0.124927945, -512668.56, 8047.267, 0.0000000309748, 9.965048, 9.952121 
8.863429e+2, 2.5681806e+2, -438850.53, -562402.7, 42720.836, -0.057905342, 0.114311896, -425517.66, -2322.3599, 0.0000003404844, 9.964947, 9.95056 
8.854114e+2, 2.6676852e+2, -345921.5, -473776.2, 52841.63, -0.08529497, 0.11289731, -326909.44, -1229.0608, 0.0000027257568, 9.9647255, 9.949864 
8.8447756e+2, 2.7671713e+2, -261564.34, -402342.25, 51124.02, -0.12201354, 0.123391464, -244957.48, -16773.607, 0.000015971164, 9.964437, 9.947589 
8.835412e+2, 2.8666383e+2, -177599.67, -333197.88, 54504.04, -0.1262937, 0.1303204, -160407.25, -29700.59, 0.000069086105, 9.964072, 9.945176 
8.826e+2, 2.9660732e+2, -100881.96, -272522.28, 60132.855, -0.117640205, 0.1309541, -81911.57, -48651.414, 0.00022324533, 9.96345, 9.942289 
8.816531e+2, 3.0654883e+2, -14201.359, -180433.08, 41433.17, -0.17064999, 0.11589652, -4446.5894, -4446.5894, 0.0005485991, 9.96205, 9.9419985 
8.807021e+2, 3.164905e+2, -7179.8086, -148194.45, 17458.176, -0.16951221, 0.05244103, -5050.567, -5050.567, 0.0010574318, 9.959527, 9.941966 
8.797573e+2, 3.2643685e+2, 15943.372, -3281.9048, 33177.84, -0.17780033, 0.31191713, 40873.055, 40873.055, 0.001674894, 9.956823, 9.953995 
9.07432e+2, 1.3827063e+2, -1539474.8, -1583549.4, 9802.126, 0.14271027, 0.21889144, -1537393.0, 47571.15, 0.000000029867618, 9.966822, 9.961143 
9.065039e+2, 1.4823042e+2, -1458123.9, -1501112.6, 612.759, 0.087317675, 0.12262702, -1458115.1, 29242.906, 0.000000019382966, 9.965698, 9.960442 
9.055781e+2, 1.581912e+2, -1363721.0, -1411792.5, 23534.738, 0.11428313, 0.17499484, -1354117.5, 35624.934, 0.000000010447276, 9.9657, 9.960245 
9.046529e+2, 1.6815135e+2, -1265342.3, -1316302.3, 14659.715, 0.12185344, 0.1731805, -1261426.1, 30706.729, 0.000000004434464, 9.965611, 9.95985 
9.037262e+2, 1.7811063e+2, -1172529.8, -1230425.5, 26216.393, 0.077546805, 0.15549621, -1162422.8, 32108.676, 0.0000000014203173, 9.965601, 9.95919 
9.028007e+2, 1.8806952e+2, -1079227.0, -1140485.1, 23295.064, 0.055551335, 0.14992747, -1071374.9, 25559.389, 0.00000000033482794, 9.965425, 9.958643 
9.018752e+2, 1.9802772e+2, -985617.75, -1053661.8, 28480.793, 0.064850055, 0.14658752, -975270.25, 24073.613, 0.000000000057520166, 9.965405, 9.957989 
9.009489e+2, 2.0798564e+2, -891197.56, -963199.75, 26088.219, 0.03608497, 0.16062598, -882738.9, 19017.293, 0.0000000000071813653, 9.965214, 9.957412 
9.0002143e+2, 2.1794267e+2, -801028.44, -878707.0, 32077.246, -0.017340336, 0.17798707, -789494.7, 14682.466, 0.00000000000428494, 9.96501, 9.956519 
8.990947e+2, 2.278989e+2, -702505.7, -783874.5, 36235.348, -0.016586758, 0.15720032, -688708.75, 17896.922, 0.00000000010849106, 9.965086, 9.956186 
8.981674e+2, 2.3785411e+2, -608379.4, -700997.5, 36671.414, 0.006418523, 0.124225035, -595617.94, 13425.855, 0.000000002258234, 9.965235, 9.954879 
8.972384e+2, 2.478086e+2, -516014.38, -616335.3, 41878.336, -0.024287779, 0.13679421, -500830.63, 10658.932, 0.000000034158017, 9.96513, 9.953898 
8.963077e+2, 2.5776196e+2, -424458.16, -530703.7, 39318.19, -0.072036214, 0.15833853, -411490.47, 2456.278, 0.00000037566133, 9.9649, 9.9528055 
8.953759e+2, 2.6771525e+2, -324536.2, -425343.0, 50431.203, -0.09871365, 0.1547027, -303638.75, 12765.729, 0.00000301649, 9.964567, 9.953333 
8.94442e+2, 2.7766722e+2, -239005.7, -349880.66, 48137.87, -0.11780968, 0.1470773, -221022.69, -2148.176, 0.000017853601, 9.964264, 9.951267 
8.9350533e+2, 2.8761837e+2, -135602.88, -244711.0, 49047.49, -0.11735616, 0.13005276, -116796.164, 4557.121, 0.000079075995, 9.9641, 9.951046 
8.925632e+2, 2.9756704e+2, -70725.83, -210252.88, 64660.098, -0.12678578, 0.10868882, -45369.016, -21512.635, 0.00026623905, 9.963465, 9.946523 
8.916147e+2, 3.0751213e+2, -10742.513, -179956.67, 40949.344, -0.22591463, 0.1804634, -1353.8119, -1353.8119, 0.00069019, 9.962112, 9.941793 
8.9066213e+2, 3.1745145e+2, -22704.611, -219257.98, 16732.996, -0.23814815, 0.21648249, -21290.273, -21290.273, 0.0014013384, 9.960994, 9.93606 
8.897143e+2, 3.273855e+2, -22922.75, -68431.03, -485.4546, -0.086706676, -0.016330125, -22917.572, -22917.572, 0.0023083058, 9.955566, 9.949465 
9.173979e+2, 1.3920012e+2, -1559902.3, -1591404.6, 5100.706, 0.12373983, 0.26555595, -1559097.0, 16760.34, 0.000000001903787, 9.965157, 9.961272 
9.1646963e+2, 1.4916025e+2, -1463978.5, -1491739.0, 3804.6567, 0.13054797, 0.12682915, -1463466.5, 14781.224, 0.0000000012354053, 9.964753, 9.961495 
9.155432e+2, 1.5912232e+2, -1366439.4, -1401941.5, 26279.61, 0.08761201, 0.20024036, -1352477.4, 28141.867, 0.00000000066574474, 9.965014, 9.961225 
9.1461813e+2, 1.690833e+2, -1266684.5, -1306084.4, 16804.377, 0.110898726, 0.19188933, -1260490.9, 22510.324, 0.0000000002824927, 9.965032, 9.960792 
9.136919e+2, 1.7904347e+2, -1173499.1, -1222623.8, 28614.115, 0.09480722, 0.16803142, -1160351.0, 25040.111, 0.00000000009044054, 9.965155, 9.959899 
9.127658e+2, 1.8900284e+2, -1084488.1, -1140618.3, 24656.27, 0.045946155, 0.17795393, -1075195.8, 12593.791, 0.000000000021308946, 9.964905, 9.958849 
9.118398e+2, 1.989616e+2, -990702.0, -1047962.8, 29498.592, 0.023131965, 0.18994853, -978224.44, 11969.446, 0.000000000003658245, 9.96465, 9.958718 
9.1091365e+2, 2.0892031e+2, -893060.1, -950018.5, 27453.885, 0.031627394, 0.17926611, -881982.0, 10615.851, 0.00000000000045636807, 9.964439, 9.958667 
9.099865e+2, 2.1887843e+2, -801927.0, -865796.4, 33509.832, 0.023587305, 0.16932292, -787572.0, 7435.8525, 0.0000000000030655227, 9.964338, 9.957725 
9.090597e+2, 2.2883569e+2, -706752.4, -777869.4, 36191.543, 0.0015277847, 0.16681498, -691573.94, 5852.594, 0.0000000000903565, 9.964433, 9.956979 
9.08132e+2, 2.3879224e+2, -611135.4, -687630.56, 32746.615, -0.010470605, 0.15849197, -599032.0, 820.1873, 0.0000000018811002, 9.964361, 9.956338 
9.072028e+2, 2.487484e+2, -520469.25, -597861.1, 36827.43, -0.03998578, 0.16108167, -505745.78, -3464.3928, 0.000000028451819, 9.963841, 9.955917 
9.062716e+2, 2.5870395e+2, -431532.84, -508597.28, 34852.74, -0.078312874, 0.17028321, -418108.88, -13391.993, 0.00000031314025, 9.963184, 9.9552555 
9.053395e+2, 2.686595e+2, -336596.47, -406300.72, 42779.934, -0.09111766, 0.16269511, -316268.94, -9116.849, 0.0000025239594, 9.96249, 9.955865 
9.044048e+2, 2.7861473e+2, -254464.27, -320882.56, 36904.97, -0.10089045, 0.15183018, -238026.4, -28435.645, 0.000015124688, 9.961367, 9.955034 
9.0346843e+2, 2.8857014e+2, -128308.31, -196977.05, 33142.87, -0.11621559, 0.13921192, -114921.625, -2894.239, 0.00006901787, 9.962371, 9.956002 
9.025252e+2, 2.985253e+2, -50450.55, -122921.85, 34584.72, -0.1311344, 0.12210536, -36595.035, -22128.254, 0.00024569064, 9.960715, 9.954504 
9.273649e+2, 1.4012852e+2, -1537821.6, -1566281.9, 1963.8591, 0.27806222, 0.157859, -1537686.8, 29073.898, 0.00000000008526822, 9.965948, 9.962514 
9.264342e+2, 1.5009111e+2, -1442271.8, -1474335.3, 5392.313, 0.06551937, 0.19291323, -1441389.1, 27737.887, 0.00000000005532455, 9.965964, 9.96209 
9.255088e+2, 1.6005325e+2, -1347230.9, -1386362.1, 24335.168, 0.10252463, 0.21059242, -1335571.4, 35926.516, 0.000000000029806633, 9.966066, 9.961815 
9.245835e+2, 1.7001486e+2, -1254082.6, -1292348.4, 12150.093, 0.11932559, 0.20166434, -1250550.8, 23322.762, 0.000000000012643394, 9.965569, 9.961564 
9.23657e+2, 1.7997597e+2, -1166663.0, -1211414.0, 22855.045, 0.09363458, 0.18467759, -1157053.9, 19200.436, 0.0000000000040459667, 9.965291, 9.960719 
9.227307e+2, 1.899361e+2, -1074919.6, -1128807.0, 22659.771, 0.03493917, 0.20191973, -1066657.8, 11987.442, 0.000000000000952743, 9.965262, 9.959512 
9.2180437e+2, 1.9989568e+2, -975092.75, -1029868.0, 30456.885, 0.0010067384, 0.219441, -961520.56, 19521.123, 0.00000000000016345195, 9.965281, 9.959597 
9.2087835e+2, 2.0985517e+2, -873025.1, -928176.3, 27128.955, 0.036729522, 0.18874408, -861917.5, 21520.342, 0.000000000000020373985, 9.965313, 9.959732 
9.1995156e+2, 2.1981423e+2, -781487.75, -845104.9, 31816.473, 0.06258126, 0.15660386, -768306.6, 17531.547, 0.0000000000018606304, 9.965322, 9.958699 
9.1902435e+2, 2.2977243e+2, -694421.6, -764543.25, 35413.117, 0.009691436, 0.18152823, -679649.25, 8598.935, 0.000000000055557395, 9.965012, 9.957619 
9.1809607e+2, 2.3973022e+2, -598189.75, -665533.06, 31601.164, -0.044786226, 0.20486672, -585683.3, 4978.781, 0.0000000011563022, 9.964598, 9.957698 
9.1716635e+2, 2.4968788e+2, -501971.7, -566261.06, 34167.324, -0.06388331, 0.18343897, -487204.9, 5871.3843, 0.000000017486771, 9.96415, 9.957912 
9.1623485e+2, 2.596454e+2, -410328.8, -472170.94, 30633.91, -0.07524814, 0.1570403, -397723.47, -2231.8982, 0.00000019261098, 9.963538, 9.957569 
9.1530216e+2, 2.6960266e+2, -321034.1, -379818.72, 37128.24, -0.066896215, 0.14353393, -303072.28, -5161.9717, 0.000001557747, 9.962781, 9.957517 
9.143666e+2, 2.7956048e+2, -231998.64, -279653.06, 32861.355, -0.07413856, 0.14276442, -215235.16, -14911.663, 0.000009437413, 9.961673, 9.957727 
9.1343087e+2, 2.895182e+2, -116255.76, -180311.81, 43670.61, -0.14719468, 0.191094, -94127.375, 8610.3545, 0.00004425717, 9.96301, 9.957196 
9.1248614e+2, 2.994782e+2, 9186.304, -7781.295, 17219.217, -0.15809943, 0.21812217, 19898.24, 25027.502, 0.00016661992, 9.961695, 9.961635 
9.373299e+2, 1.4105819e+2, -1548711.9, -1557768.5, 1491.9382, 0.24404123, 0.17331985, -1548472.4, 9179.171, 0.0000000000029415736, 9.964654, 9.963753 
9.363989e+2, 1.510219e+2, -1452530.5, -1475765.8, 4910.2695, -0.02719444, 0.273728, -1451535.4, 8471.558, 0.0000000000019083366, 9.965185, 9.962412 
9.3547523e+2, 1.609834e+2, -1355941.8, -1388280.8, 21407.69, 0.16253623, 0.20015569, -1345283.3, 17100.852, 0.0000000000010279229, 9.965425, 9.962009 
9.3454903e+2, 1.7094535e+2, -1260700.5, -1292438.6, 8142.272, 0.13563474, 0.20491938, -1258733.5, 6023.0684, 0.0000000000004359048, 9.96502, 9.961837 
9.3362176e+2, 1.8090717e+2, -1167473.1, -1200402.9, 19605.531, 0.0600704, 0.20762491, -1158335.9, 8794.483, 0.0000000000001394446, 9.964821, 9.961734 
9.326959e+2, 1.908685e+2, -1070920.1, -1109701.4, 20530.79, 0.044630397, 0.20496002, -1062070.6, 7438.55, 0.00000000000003282296, 9.964892, 9.961023 
9.3177015e+2, 2.0082927e+2, -973438.7, -1019007.9, 29321.4, 0.048775904, 0.20440228, -959090.0, 12803.465, 0.0000000000000056283993, 9.965078, 9.960453 
9.308439e+2, 2.1078923e+2, -872556.25, -925611.94, 24853.004, 0.035425875, 0.19044797, -862733.06, 11552.17, 0.00000000000000070118843, 9.965387, 9.959928 
9.299167e+2, 2.2074893e+2, -774241.7, -832367.1, 25732.703, 0.017042132, 0.17756687, -764486.75, 12193.062, 0.00000000000083497646, 9.965536, 9.959537 
9.2898923e+2, 2.3070821e+2, -690496.3, -749314.56, 28262.498, -0.0055648675, 0.20213103, -679117.4, -38.071503, 0.0000000000249549, 9.964807, 9.958775 
9.2806053e+2, 2.4066722e+2, -600453.7, -652942.94, 25898.852, -0.032462418, 0.22335221, -589826.5, -8345.179, 0.00000000051935445, 9.964028, 9.958827 
9.271307e+2, 2.506257e+2, -500347.38, -555974.56, 26150.307, -0.060424596, 0.20025606, -489984.63, -6097.1846, 0.0000000078541085, 9.964129, 9.958708 
9.261988e+2, 2.6058432e+2, -398421.6, -452719.63, 15281.277, -0.076716706, 0.17259999, -394416.38, -8124.381, 0.00000008654337, 9.964102, 9.958803 
9.252658e+2, 2.7054253e+2, -302554.22, -361955.06, 17684.416, -0.061541528, 0.1641357, -297688.0, -8987.088, 0.0000007013428, 9.964141, 9.958313 
9.2432946e+2, 2.805014e+2, -201063.72, -254027.89, 2788.2222, -0.07311838, 0.16423677, -200917.34, -9813.507, 0.0000042783217, 9.96406, 9.958649 
9.2339367e+2, 2.904596e+2, -133188.86, -190492.78, 11180.523, -0.17349873, 0.23739867, -131084.7, -37570.973, 0.00002042177, 9.963103, 9.956998 
9.2245066e+2, 3.004189e+2, 56847.285, 33983.895, -31958.588, -0.14751093, 0.11989864, 79357.234, 79357.234, 0.00007993033, 9.966563, 9.963264 
9.4729406e+2, 1.4198877e+2, -1518962.8, -1527104.8, 10779.193, 0.13165349, 0.28235212, -1511511.4, 37022.105, 0.0, 9.96615, 9.965161 
9.463648e+2, 1.5195169e+2, -1440981.3, -1468294.5, 6596.9795, 0.013622638, 0.2712393, -1439471.4, 11425.422, 0.0, 9.965868, 9.962579 
9.454407e+2, 1.6191363e+2, -1349235.8, -1379368.8, 22374.508, 0.17356996, 0.21584022, -1337327.9, 15941.712, 0.0, 9.96562, 9.962469 
9.445142e+2, 1.7187618e+2, -1244552.0, -1276828.9, 13423.556, 0.12977532, 0.22398338, -1239699.0, 15937.347, 0.0, 9.965787, 9.962418 
9.435868e+2, 1.8183869e+2, -1143515.8, -1178579.5, 25596.559, 0.040653735, 0.22903995, -1130022.6, 27980.605, 0.0, 9.9660225, 9.962493 
9.426612e+2, 1.918008e+2, -1048219.2, -1086629.1, 22330.133, 0.053645365, 0.21511757, -1037971.4, 22402.697, 0.0, 9.965943, 9.962065 
9.417358e+2, 2.0176245e+2, -957894.0, -1004474.7, 28157.205, 0.08055658, 0.20304137, -944643.0, 18106.492, 0.0, 9.965871, 9.961103 
9.4080925e+2, 2.117229e+2, -865994.4, -919225.4, 26811.95, 0.024059841, 0.20445766, -854830.7, 10306.216, 0.0, 9.965751, 9.960178 
9.398818e+2, 2.216832e+2, -766511.2, -818702.7, 26807.346, -0.031630196, 0.20722917, -755195.44, 12330.367, 0.00000000000028468902, 9.965644, 9.96033 
9.3895406e+2, 2.3164342e+2, -674042.3, -727764.06, 26763.117, -0.015522728, 0.22223467, -662985.25, 6930.7197, 0.000000000008157955, 9.965324, 9.959922 
9.38025e+2, 2.4160343e+2, -583411.75, -635570.2, 25261.08, -0.005723244, 0.23237175, -573183.25, -875.309, 0.00000000016979894, 9.964844, 9.959582 
9.37095e+2, 2.5156236e+2, -491008.16, -547937.3, 27581.701, -0.051705893, 0.21975216, -479837.1, -5127.182, 0.0000000025679472, 9.964704, 9.958951 
9.361628e+2, 2.6152155e+2, -389915.63, -442366.13, 15472.712, -0.086132154, 0.21035147, -385691.44, -8582.222, 0.000000028296595, 9.964491, 9.959269 
9.3522984e+2, 2.7148026e+2, -297714.2, -357474.2, 19186.299, -0.07763284, 0.21990813, -292084.66, -12571.553, 0.00000022950282, 9.964477, 9.958454 
9.342933e+2, 2.8143898e+2, -202642.63, -256658.1, -248.66806, -0.09942827, 0.20583005, -202641.48, -20724.08, 0.0000014045202, 9.964052, 9.958401 
9.333568e+2, 2.9139614e+2, -138653.8, -196995.38, 10613.248, -0.16233222, 0.21055633, -136783.06, -52445.72, 0.000006759484, 9.962857, 9.956542 
9.3241686e+2, 3.0135337e+2, 33274.95, 3472.517, 2906.1702, -0.1358105, 0.10277096, 33555.7, 33555.7, 0.000026932837, 9.965802, 9.96205 
9.5726067e+2, 1.4291759e+2, -1526921.6, -1522442.1, 8212.047, 0.2007305, 0.25225618, -1516169.9, 23262.828, 0.0, 9.965422, 9.965961 
9.5633125e+2, 1.5288062e+2, -1449472.3, -1472195.8, 464.57095, 0.09202604, 0.24299264, -1449462.8, -7667.824, 0.0, 9.965382, 9.962651 
9.554059e+2, 1.6284372e+2, -1348660.0, -1369065.6, 16918.102, 0.13115819, 0.26225287, -1339106.3, 5050.3647, 0.0, 9.965398, 9.963337 
9.544799e+2, 1.7280719e+2, -1240842.8, -1261686.0, 9861.684, 0.11320143, 0.25607643, -1236916.5, 9597.516, 0.0, 9.965665, 9.963589 
9.53553e+2, 1.8277043e+2, -1144404.0, -1176094.3, 20566.39, 0.04562304, 0.25008133, -1134286.8, 14587.014, 0.0, 9.966027, 9.962716 
9.5262724e+2, 1.9273259e+2, -1049738.1, -1088505.4, 15907.01, 0.03848418, 0.25086957, -1044046.7, 7197.913, 0.0, 9.966087, 9.96195 
9.5170164e+2, 2.0269458e+2, -952644.6, -993275.56, 19076.545, 0.056235302, 0.25021797, -945092.0, 8524.952, 0.0, 9.966048, 9.96187 
9.5077515e+2, 2.1265602e+2, -861005.56, -904167.4, 18773.65, 0.03078294, 0.24841245, -853982.56, 2012.0068, 0.0, 9.9657545, 9.961265 
9.4984764e+2, 2.226172e+2, -765120.1, -810544.8, 20372.168, -0.00896315, 0.24406096, -757322.2, 1052.8356, 0.000000000000067652664, 9.965689, 9.960914 
9.489199e+2, 2.3257756e+2, -663006.4, -717970.6, 18498.346, -0.015794452, 0.24015811, -657360.6, 3402.515, 0.0000000000019384904, 9.966212, 9.960265 
9.479907e+2, 2.4253795e+2, -560618.9, -616964.1, 12377.245, -0.017197711, 0.23765731, -558019.9, 5131.352, 0.000000000040347756, 9.966403, 9.960217 
9.4706047e+2, 2.524975e+2, -474872.53, -533588.06, 14678.92, -0.04591616, 0.2315197, -471407.3, -5860.2407, 0.0000000006101943, 9.965912, 9.959417 
9.4612813e+2, 2.6245713e+2, -378946.5, -433103.44, 2826.1008, -0.0726333, 0.22849664, -378799.4, -10856.999, 0.000000006724211, 9.965572, 9.959419 
9.45195e+2, 2.7241582e+2, -285771.0, -348825.94, 6949.1636, -0.08408735, 0.23223796, -285014.25, -14667.604, 0.000000054552586, 9.965789, 9.958443 
9.442583e+2, 2.823742e+2, -178717.75, -243962.06, -14763.645, -0.11634269, 0.20853928, -175532.5, -2778.3953, 0.0000003341785, 9.966271, 9.958152 
9.433216e+2, 2.9233065e+2, -102067.35, -181900.55, -3329.6519, -0.12999344, 0.17860125, -101928.73, -26747.834, 0.0000016125001, 9.966205, 9.955836 
9.4238335e+2, 3.022885e+2, 57544.473, 8960.688, 9417.3955, -0.17806625, 0.30383718, 59306.05, 59306.05, 0.0000064614287, 9.9683895, 9.961519 
9.672259e+2, 1.4384563e+2, -1522079.8, -1536542.8, 11895.893, 0.13977805, 0.27224365, -1515389.8, 14949.838, 0.0, 9.966532, 9.964591 
9.6629745e+2, 1.538091e+2, -1425129.5, -1451539.5, 3624.5925, 0.120044164, 0.23922804, -1424641.1, 8056.681, 0.0, 9.966607, 9.963452 
9.6537155e+2, 1.6377331e+2, -1326430.5, -1350925.0, 19484.62, 0.10338417, 0.30298227, -1315663.6, 19384.643, 0.0, 9.96657, 9.963927 
9.644456e+2, 1.7373717e+2, -1228801.1, -1247982.1, 10132.537, 0.10821385, 0.27349663, -1224440.0, 12961.871, 0.0, 9.966147, 9.964321 
9.635191e+2, 1.8370095e+2, -1140563.4, -1169812.8, 20083.799, 0.0529442, 0.25492233, -1130343.8, 9412.949, 0.0, 9.966101, 9.963136 
9.6259326e+2, 1.936635e+2, -1045760.44, -1083337.4, 20756.4, 0.026968444, 0.26830128, -1036551.9, 5571.7466, 0.0, 9.96622, 9.962157 
9.616676e+2, 2.03626e+2, -941756.8, -978719.75, 24845.936, 0.039407585, 0.2794504, -929272.44, 15218.653, 0.0, 9.966375, 9.962554 
9.607412e+2, 2.135883e+2, -842518.1, -884151.56, 22282.646, 0.043730155, 0.28038704, -832841.4, 14019.119, 0.0, 9.966527, 9.962163 
9.5981383e+2, 2.2355011e+2, -750479.8, -799014.2, 24561.1, 0.018150767, 0.27052468, -740219.56, 9014.945, 0.0000000000000117120025, 9.966535, 9.961235 
9.588862e+2, 2.3351045e+2, -657846.44, -713595.6, 24772.805, -0.02062306, 0.2505318, -648429.1, 3193.4895, 0.0000000000003355644, 9.966535, 9.960325 
9.5795697e+2, 2.4347098e+2, -556035.4, -608351.06, 15651.879, -0.037625883, 0.23765728, -551710.25, 2298.7715, 0.0000000000069838328, 9.966421, 9.960657 
9.5702654e+2, 2.5343105e+2, -467758.38, -523560.2, 16774.365, -0.034797303, 0.23548442, -463104.1, -6704.4995, 0.00000000010561558, 9.966087, 9.9599 
9.5609397e+2, 2.6339087e+2, -375141.56, -430714.03, 6135.3994, -0.047998495, 0.22915746, -374472.28, -15679.137, 0.0000000011640542, 9.965832, 9.959379 
9.5516074e+2, 2.733493e+2, -283350.66, -346889.13, 10080.249, -0.091523305, 0.20770355, -281789.78, -20588.855, 0.000000009444971, 9.965966, 9.958436 
9.5422435e+2, 2.8330785e+2, -176980.78, -238290.81, -13024.52, -0.1265798, 0.19360001, -174328.63, -10722.031, 0.000000057857413, 9.966124, 9.958623 
9.532883e+2, 2.932658e+2, -100161.02, -174148.38, -330.51566, -0.06962781, 0.23491548, -100159.55, -34141.074, 0.00000027926637, 9.965936, 9.956491 
9.5235217e+2, 3.0322137e+2, 31395.479, -48759.44, 19864.855, -0.15445903, 0.23293655, 36048.492, 36048.492, 0.0000011202083, 9.968476, 9.9576025 
9.7719306e+2, 1.4477244e+2, -1525356.1, -1532527.8, -462.8706, 0.19686827, 0.27764463, -1525326.4, -4067.5945, 0.0, 9.966067, 9.965101 
9.762642e+2, 1.5473719e+2, -1420647.5, -1436103.0, -1618.0088, 0.12669152, 0.25151652, -1420479.9, 3124.5146, 0.0, 9.966516, 9.96467 
9.7533804e+2, 1.6470237e+2, -1328557.1, -1350414.3, 10284.825, 0.08822566, 0.34354782, -1324478.6, 1466.6188, 0.0, 9.966531, 9.964047 
9.744119e+2, 1.7466596e+2, -1230190.3, -1247839.8, 1178.1528, 0.11385833, 0.2805429, -1230112.0, -1810.2205, 0.0, 9.966217, 9.964388 
9.7348547e+2, 1.8463011e+2, -1132710.1, -1152071.9, 11888.745, 0.06231877, 0.24249735, -1127059.3, 3593.2874, 0.0, 9.966297, 9.964346 
9.725597e+2, 1.9459398e+2, -1035878.9, -1062886.4, 13497.585, 0.030487943, 0.2529003, -1030289.8, 2716.6643, 0.0, 9.9664955, 9.9635 
9.716343e+2, 2.0455739e+2, -935864.9, -971607.5, 18757.107, 0.04621776, 0.2675871, -927828.44, 7536.4106, 0.0, 9.966922, 9.96285 
9.7070843e+2, 2.1451996e+2, -830563.3, -875477.5, 15258.799, 0.04672531, 0.27868107, -825869.9, 11861.757, 0.0, 9.967575, 9.962357 
9.697811e+2, 2.2448236e+2, -730765.94, -778660.8, 13942.262, 0.015581426, 0.27919337, -727003.0, 13096.875, 0.0000000000000014914695, 9.96771, 9.962123 
9.688533e+2, 2.3444372e+2, -644162.4, -695517.7, 16311.639, -0.012641947, 0.26867047, -639419.44, 3058.7202, 0.000000000000042732568, 9.967283, 9.961196 
9.679238e+2, 2.4440494e+2, -545945.4, -597177.8, 10058.834, -0.024296278, 0.2614047, -544041.2, 816.7568, 0.00000000000088938075, 9.967201, 9.961011 
9.6699345e+2, 2.5436527e+2, -446061.88, -508729.1, 11341.164, -0.035082962, 0.26100606, -444072.56, 3173.9624, 0.000000000013450299, 9.967775, 9.960078 
9.660608e+2, 2.643253e+2, -344993.84, -411638.2, 467.55164, -0.06456816, 0.26173162, -344990.56, 4647.342, 0.0000000001482496, 9.968068, 9.959553 
9.651274e+2, 2.74284e+2, -260192.08, -333026.5, 6739.6357, -0.11862989, 0.26321235, -259573.69, -7531.161, 0.0000000012029147, 9.96781, 9.958364 
9.641913e+2, 2.842426e+2, -150099.7, -224898.5, -14373.148, -0.13953486, 0.26965895, -147432.88, 7015.1626, 0.0000000073681794, 9.968291, 9.958436 
9.6325606e+2, 2.9420075e+2, -49546.234, -142548.52, -5110.224, -0.04132829, 0.31028044, -49266.285, 7591.399, 0.000000035559857, 9.9693575, 9.957034 
9.6231997e+2, 3.0415416e+2, 4575.873, -96482.36, 18303.883, -0.2210519, 0.19676803, 7788.9536, 7788.9536, 0.00000014260962, 9.968188, 9.954276 
9.8715806e+2, 1.456996e+2, -1517963.3, -1519675.1, 13427.944, 0.12094767, 0.38102975, -1505364.0, 6810.658, 0.0, 9.966407, 9.966019 
9.8623097e+2, 1.5566452e+2, -1410098.4, -1419569.0, -580.90735, 0.15284413, 0.27044988, -1410062.9, 4455.259, 0.0, 9.966732, 9.965732 
9.8530436e+2, 1.6563056e+2, -1316429.8, -1339409.6, 11954.607, 0.057113826, 0.3726657, -1311338.6, 5511.88, 0.0, 9.967125, 9.96444 
9.8437834e+2, 1.7559463e+2, -1214088.3, -1235146.8, 6755.3643, 0.10739276, 0.32422766, -1212107.5, 7094.962, 0.0, 9.967106, 9.964698 
9.8345196e+2, 1.8555929e+2, -1120737.9, -1137517.6, 15295.848, 0.07031179, 0.28842762, -1111682.0, 9866.512, 0.0, 9.966725, 9.965024 
9.8252606e+2, 1.9552392e+2, -1034950.7, -1052746.0, 13173.173, 0.036548764, 0.2984052, -1027951.8, -4057.0627, 0.0, 9.96615, 9.96437 
9.8160106e+2, 2.0548792e+2, -940896.9, -968986.5, 21341.754, 0.047592517, 0.30234352, -929393.1, -3146.0266, 0.0, 9.96644, 9.963285 
9.8067576e+2, 2.1545069e+2, -835395.8, -873832.7, 21505.035, 0.036331717, 0.30097014, -825773.06, 2838.7354, 0.0, 9.96715, 9.962603 
9.797486e+2, 2.2541365e+2, -726458.7, -765553.5, 16507.047, 0.0031926052, 0.30381128, -720421.25, 10553.505, 0.00000000000000014322901, 9.96752, 9.962996 
9.788206e+2, 2.3537609e+2, -631813.5, -678531.8, 16325.247, -0.0059344894, 0.3090538, -626674.2, 6668.692, 0.0000000000000041040377, 9.967649, 9.962136 
9.778912e+2, 2.4533804e+2, -539020.94, -589852.94, 11944.464, -0.012594976, 0.31000063, -536354.1, -638.54535, 0.000000000000085429954, 9.967559, 9.961345 
9.7696114e+2, 2.5529855e+2, -445080.34, -506190.78, 14347.96, -0.053545143, 0.3100692, -441879.28, -3776.717, 0.000000000001292103, 9.967813, 9.960236 
9.7602844e+2, 2.6525906e+2, -341205.28, -404037.8, 1056.1062, -0.10695318, 0.3210428, -341187.53, -698.4707, 0.0000000000142405965, 9.96805, 9.960047 
9.7509474e+2, 2.752188e+2, -258393.4, -326883.9, 7107.466, -0.15471894, 0.37306935, -257663.63, -14780.496, 0.00000000011554544, 9.967658, 9.958817 
9.7415954e+2, 2.8517708e+2, -156243.92, -238316.13, -7211.647, -0.16127816, 0.3794804, -155615.06, -10323.522, 0.0000000007077114, 9.96839, 9.957553 
9.732255e+2, 2.951335e+2, -46750.1, -144026.03, -2321.663, -0.070467584, 0.30131954, -46694.723, 1023.9081, 0.000000003414842, 9.96972, 9.956871 
9.722867e+2, 3.0508918e+2, 11005.421, -54680.164, -8802.66, -0.26710254, 0.27697328, 12164.626, 12164.626, 0.000000013690085, 9.966179, 9.957707 
9.971255e+2, 1.4662488e+2, -1494372.9, -1490668.4, 4804.694, 0.15011072, 0.36418435, -1487371.3, 15737.572, 0.0, 9.967261, 9.96755 
9.9619836e+2, 1.5659018e+2, -1404009.3, -1406297.4, -2078.581, 0.20388567, 0.18346791, -1402780.6, 2667.5457, 0.0, 9.966827, 9.9667015 
9.9527127e+2, 1.6655737e+2, -1307942.6, -1326444.3, 7034.654, -0.0029810325, 0.3085513, -1305571.8, 2197.6921, 0.0, 9.9674635, 9.965233 
9.9434555e+2, 1.7652269e+2, -1204955.8, -1223237.1, 1286.9615, 0.07391526, 0.31634378, -1204865.5, 5243.664, 0.0, 9.967551, 9.965375 
9.934192e+2, 1.8648778e+2, -1119892.3, -1139304.1, 5259.3623, 0.09712652, 0.30795082, -1118558.9, -6107.794, 0.0, 9.966955, 9.964831 
9.924927e+2, 1.964525e+2, -1036111.6, -1053224.0, 3825.5369, 0.07499365, 0.34298104, -1035295.4, -20498.746, 0.0, 9.966196, 9.964409 
9.915674e+2, 2.0641726e+2, -930160.0, -943887.5, 17164.293, 0.029692668, 0.3191979, -918537.94, -1396.7025, 0.0, 9.966555, 9.965061 
9.9064237e+2, 2.1638104e+2, -827480.3, -853117.6, 19294.625, -0.01235309, 0.25273198, -817134.3, 2361.3835, 0.0, 9.967195, 9.964026 
9.897161e+2, 2.2634453e+2, -725085.7, -767053.25, 14808.124, -0.018445019, 0.25638843, -720386.8, 1466.6672, 0.000000000000000010837507, 9.9679575, 9.962718 
9.8878896e+2, 2.3630713e+2, -616782.56, -670707.06, 11851.153, -0.017768335, 0.29208264, -614292.94, 9927.278, 0.00000000000000031058006, 9.968889, 9.962173 
9.878591e+2, 2.4626961e+2, -523972.2, -573517.94, 2131.1494, -0.036377218, 0.29659855, -523880.7, 2707.2832, 0.0000000000000064639003, 9.968298, 9.962164 
9.869288e+2, 2.562309e+2, -446068.97, -495708.53, 8914.91, -0.045787476, 0.28639722, -444516.47, -15549.215, 0.000000000000097753626, 9.967386, 9.96117 
9.859974e+2, 2.6619202e+2, -331143.44, -385912.28, 3131.9321, -0.0341434, 0.26281184, -330964.9, 382.80267, 0.0000000000010773522, 9.968388, 9.961126 
9.850644e+2, 2.761518e+2, -226872.98, -297201.38, 10448.491, -0.04470474, 0.20235488, -225353.52, 8387.8, 0.000000000008741193, 9.969314, 9.95993 
9.8412836e+2, 2.8611046e+2, -154307.17, -222976.22, 4542.579, -0.09776323, 0.14960954, -154007.98, -17861.838, 0.00000000005353408, 9.96784, 9.95853 
9.8319376e+2, 2.9606852e+2, -102853.484, -162102.1, 17401.91, -0.019823069, 0.18291947, -98120.46, -59562.688, 0.00000000025827646, 9.965311, 9.957071 
9.822514e+2, 3.060273e+2, -12445.653, -38184.637, -12979.147, -0.20452641, 0.38182145, -7037.233, -7037.233, 0.0000000010352618, 9.962749, 9.9597225 
1.0070922e+3, 1.4755334e+2, -1496110.6, -1495025.4, -4059.4167, 0.17735149, 0.34014907, -1491472.4, 2539.2656, 0.0, 9.966462, 9.966646 
1.006164e+3, 1.5751988e+2, -1405140.3, -1415335.9, 5210.764, 0.10951587, 0.44055936, -1402948.4, -6608.91, 0.0, 9.967207, 9.96581 
1.0052393e+3, 1.6748543e+2, -1301408.3, -1310757.6, 3861.4592, 0.0862736, 0.38978052, -1300019.6, -1343.1002, 0.0, 9.967503, 9.966298 
1.0043131e+3, 1.7745164e+2, -1200809.1, -1207468.5, 2442.3684, 0.12058731, 0.35800073, -1200009.4, 997.51245, 0.0, 9.967405, 9.966415 
1.0033858e+3, 1.8741702e+2, -1101730.9, -1126743.0, 9808.116, 0.052609157, 0.32503125, -1098343.5, 5002.383, 0.0, 9.968276, 9.964813 
1.0024594e+3, 1.9738133e+2, -990831.6, -1029082.2, 9905.549, 0.04981887, 0.31745753, -988418.7, 17276.984, 0.0, 9.969501, 9.9641905 
1.0015349e+3, 2.0734641e+2, -896615.56, -934304.44, -128.443, 0.066413745, 0.3841271, -896615.1, 11422.481, 0.0, 9.96951, 9.964572 
1.00061e+3, 2.1731111e+2, -805746.94, -838082.0, -20064.912, 0.009561951, 0.383671, -796146.44, 14236.576, 0.0, 9.968872, 9.965088 
9.996841e+2, 2.2727516e+2, -704950.3, -747458.1, -9991.744, -0.028532395, 0.3065615, -702718.8, 10016.289, 0.0000000000000000006820092, 9.969355, 9.963948 
9.987579e+2, 2.3723851e+2, -597185.7, -651124.4, 4783.6304, -0.015565556, 0.3344022, -596764.7, 18329.566, 0.00000000000000001954189, 9.970151, 9.962954 
9.978275e+2, 2.4720217e+2, -488959.28, -538408.25, 5516.2993, -0.025805982, 0.36328325, -488351.38, 29098.875, 0.00000000000000040645458, 9.970136, 9.963329 
9.968958e+2, 2.5716522e+2, -414845.75, -467406.44, 19930.307, -0.06940943, 0.41537815, -408143.16, 11668.921, 0.0000000000000061445223, 9.969194, 9.9618225 
9.9596566e+2, 2.6712564e+2, -336835.03, -370514.94, -7639.487, -0.033887025, 0.23033962, -335183.22, -12983.479, 0.00000000000006771698, 9.967412, 9.963041 
9.950331e+2, 2.7708945e+2, -223538.5, -272533.25, 26530.68, -0.09449385, 0.37014386, -211924.97, 12628.866, 0.0000000000005493915, 9.968518, 9.961658 
9.9409556e+2, 2.8705114e+2, -105450.234, -165755.53, 5213.5107, -0.12329848, 0.41478863, -105002.836, 21926.656, 0.0000000000033642223, 9.969557, 9.961196 
9.9315566e+2, 2.9701108e+2, -18776.924, -102484.555, -7196.576, -0.29444796, 0.39689675, -18162.72, 11159.784, 0.000000000016230134, 9.97023, 9.958838 
9.922159e+2, 3.069668e+2, 44367.555, -25362.082, -13147.8125, -0.07513281, 0.25658906, 46764.25, 46764.25, 0.00000000006506301, 9.967453, 9.958449 
