coord_x,coord_y,stress_xx,stress_yy,tau_xy,velocity_x,velocity_y,stress_1,eps,damage,lx,ly
5.000119e+0, 1.2688568e+2, -1798994.1, -1911140.8, 25796.338, 0.007289603, 0.09366108, -1793345.0, -96822.68, 0.0013838684, 10.000063, 9.998617 
4.999036e+0, 1.3688469e+2, -1737513.9, -1585728.4, 81987.92, -0.035617027, -0.049699422, -1549899.5, 48638.47, 0.00083884824, 9.99877, 10.000798 
4.9991903e+0, 1.4688708e+2, -1606608.5, -1356415.8, 108426.805, -0.0066911927, 0.035687543, -1315966.1, 184548.44, 0.00038804737, 9.998501, 10.001824 
4.9998832e+0, 1.5688834e+2, -1500667.5, -1301781.8, 81679.73, 0.049613424, -0.022382386, -1272537.1, 129962.42, 0.00011853608, 9.998759, 10.0014 
4.9997425e+0, 1.6688941e+2, -1444997.3, -1377270.8, 86546.45, 0.017153991, 0.02839984, -1318198.5, -13707.165, 0.000016042439, 9.999129, 10.000033 
4.9992204e+0, 1.7689025e+2, -1278426.5, -1233709.6, 95602.664, -0.05598993, 0.09361078, -1157885.8, 48602.39, 0.00000013955699, 9.999547, 10.000145 
4.99942e+0, 1.86891e+2, -1154840.3, -1082761.3, 86772.586, -0.036176924, 0.13244125, -1024841.6, 83640.93, 0.0, 9.999551, 10.000506 
4.999953e+0, 1.9689173e+2, -1073260.6, -975635.7, 81321.65, 0.026545618, 0.14061019, -929601.6, 80873.81, 0.0, 9.999364, 10.000661 
4.9999952e+0, 2.0689236e+2, -829275.9, -733335.5, 48506.0, -0.0034948583, 0.09885341, -713085.7, 199378.77, 0.0, 10.00005, 10.001319 
4.999804e+0, 2.1689282e+2, -604641.0, -631453.75, -35180.418, -0.07833872, 0.004342848, -580399.1, 234053.63, 0.0, 10.0011635, 10.00081 
5.000108e+0, 2.2689259e+2, -619161.0, -837964.8, -61841.855, -0.06335864, 0.03345841, -602891.94, 113563.03, 0.0, 10.0014715, 9.9985695 
5.00064e+0, 2.3689193e+2, -522482.44, -718966.0, -41322.46, -0.004798211, 0.093135476, -514145.66, 104319.21, 0.0, 10.001367, 9.998766 
5.000797e+0, 2.4689126e+2, -397204.16, -507805.97, -46725.91, 0.023032341, 0.099516526, -380106.84, 140363.73, 0.0, 10.001123, 9.9996605 
5.0007653e+0, 2.5689054e+2, -368575.34, -488234.72, -61636.445, 0.033972193, 0.05048947, -342506.0, 79969.17, 0.0, 10.00084, 9.999258 
5.000915e+0, 2.668886e+2, -292187.44, -592696.5, -6724.1445, 0.014927765, 0.03151939, -292037.06, 32458.717, 0.0, 10.001521, 9.997538 
5.0011456e+0, 2.7688602e+2, -19539.193, -393149.34, 36860.566, -0.018324811, 0.007671415, -15937.238, 210586.63, 0.0000000003138508, 10.002645, 9.997694 
5.001093e+0, 2.8688455e+2, 90027.42, -233920.94, 23060.994, -0.015622213, 0.060188226, 91660.83, 220201.16, 0.0000002419935, 10.002485, 9.998191 
5.000893e+0, 2.9688337e+2, 60102.49, -222221.23, 24239.957, 0.0032423362, 0.11059665, 62168.58, 92722.164, 0.000011320525, 10.001708, 9.997974 
5.0010264e+0, 3.0688396e+2, 97200.73, -268021.38, 53991.637, 0.0016053509, 0.4222625, 105015.23, 105015.23, 0.000101990714, 10.00201, 9.997184 
5.001372e+0, 3.16879e+2, 282091.53, -69899.58, 56782.523, -0.0042325454, 0.19419274, 291024.88, 291024.88, 0.00034448536, 10.0028, 9.998166 
1.5000337e+1, 1.2688598e+2, -1698398.9, -1691814.1, -32202.346, 0.01942128, -0.0067412127, -1662736.3, 33785.4, 0.0013567447, 10.000024, 10.000144 
1.4997108e+1, 1.368878e+2, -1664597.3, -1429925.8, 43475.023, -0.10674108, -0.006177722, -1422130.5, 176374.02, 0.00082020013, 9.998755, 10.00188 
1.4997573e+1, 1.4689071e+2, -1655988.1, -1453899.9, 115253.76, -0.019677056, 0.12790045, -1401668.6, 98807.66, 0.00037697676, 9.998482, 10.001167 
1.499965e+1, 1.5689132e+2, -1536479.9, -1370907.4, 93561.3, 0.14882937, 0.07287339, -1328764.5, 73706.23, 0.00011338852, 9.998738, 10.000939 
1.4999236e+1, 1.6689199e+2, -1422418.1, -1324769.9, 100694.625, 0.052249204, 0.07954644, -1261686.9, 42778.215, 0.000014715236, 9.999106, 10.000408 
1.4997669e+1, 1.7689265e+2, -1262569.0, -1195221.9, 108018.64, -0.16747357, 0.09680767, -1115749.8, 90710.34, 0.00000010097208, 9.999524, 10.000423 
1.4998256e+1, 1.8689293e+2, -1171774.5, -1110799.0, 77018.664, -0.10900683, 0.08626101, -1058453.3, 50003.633, 0.0, 9.999523, 10.000328 
1.4999862e+1, 1.9689296e+2, -1113599.8, -1053989.5, 84379.45, 0.07988756, 0.050972182, -994305.9, 16149.06, 0.0, 9.999342, 10.000135 
1.4999978e+1, 2.0689268e+2, -978397.6, -1036241.7, 89338.56, -0.011511564, 0.061565302, -913416.2, -957.8076, 0.0, 10.000025, 9.999252 
1.4999418e+1, 2.1689218e+2, -718551.25, -860419.9, 915.132, -0.2344194, 0.07857475, -718545.3, 95919.734, 0.0, 10.001134, 9.999255 
1.5000309e+1, 2.2689141e+2, -576809.3, -741863.3, -67305.09, -0.19127047, 0.07836413, -552843.7, 163629.14, 0.0, 10.001442, 9.999245 
1.5001921e+1, 2.3689052e+2, -493370.1, -651682.9, -44454.676, -0.01464801, 0.055007115, -481741.28, 136739.89, 0.0, 10.001339, 9.999243 
1.5002389e+1, 2.4688967e+2, -436489.75, -582865.5, -61303.707, 0.069118336, 0.050107688, -414207.16, 106281.81, 0.0, 10.001097, 9.999162 
1.5002297e+1, 2.568888e+2, -380381.13, -505169.8, -61470.14, 0.10203299, 0.039160397, -355187.6, 67309.086, 0.0, 10.000809, 9.999161 
1.5002742e+1, 2.6688817e+2, -194024.98, -381878.13, 34953.652, 0.044554915, 0.06868174, -187732.0, 136769.53, 0.0, 10.001494, 9.999001 
1.5003437e+1, 2.768876e+2, 55729.88, -228341.63, 68059.29, -0.05524028, 0.10603944, 71194.04, 297699.47, 0.0, 10.002611, 9.998845 
1.5003273e+1, 2.8688526e+2, 79301.84, -247654.97, -9198.526, -0.046984084, 0.028895939, 79560.43, 208088.4, 0.0000001217643, 10.002452, 9.998114 
1.5002675e+1, 2.968819e+2, 57014.047, -222711.6, 7721.166, 0.009007195, -0.12253647, 57227.008, 87787.67, 0.0000104093915, 10.001684, 9.997985 
1.5003079e+1, 3.068826e+2, 105820.29, -242327.83, 83322.23, 0.0053344914, 0.18285662, 124734.234, 124734.234, 0.00009692182, 10.001985, 9.997375 
1.5004091e+1, 3.1687883e+2, 291370.97, -34911.02, 91356.57, -0.015786458, 0.061916415, 315208.63, 315208.63, 0.0003312695, 10.00274, 9.998437 
2.4998745e+1, 1.268874e+2, -2040581.4, -1748607.5, -25837.213, -0.0011449701, 0.0041306308, -1746338.8, -49828.305, 0.0013173001, 9.997225, 10.0011 
2.499572e+1, 1.368903e+2, -1664819.1, -1364950.0, 5756.377, -0.10667847, 0.024579387, -1364839.5, 233638.95, 0.0007929643, 9.998483, 10.002459 
2.499606e+1, 1.4689305e+2, -1607897.0, -1525886.6, 73694.4, -0.05571908, 0.16944976, -1482557.4, 17894.982, 0.0003608832, 9.999223, 10.000316 
2.4997821e+1, 1.5689275e+2, -1442856.5, -1400687.6, 33948.492, 0.044169195, 0.1051205, -1381808.9, 20649.512, 0.00010595725, 9.999706, 10.000267 
2.4997945e+1, 1.6689317e+2, -1335692.8, -1269716.4, 17728.127, -0.013867394, 0.10742845, -1265254.5, 39200.344, 0.000012859101, 9.99965, 10.000521 
2.4997358e+1, 1.7689393e+2, -1289799.0, -1204200.6, 7081.2007, -0.14014728, 0.1229395, -1203618.8, 2828.3284, 0.00000006033416, 9.999325, 10.000455 
2.4998046e+1, 1.8689382e+2, -1143246.0, -1129865.8, -21558.176, -0.09851221, 0.09038988, -1113983.5, -5536.7393, 0.0, 9.999861, 10.000033 
2.4999352e+1, 1.9689324e+2, -926915.0, -1005953.6, -23719.234, 0.021625316, 0.02320783, -920343.4, 90106.984, 0.0, 10.000809, 9.999755 
2.50001e+1, 2.0689258e+2, -917417.25, -1095051.0, 45941.75, -0.041181605, 0.058108367, -906238.7, 6220.899, 0.0, 10.000819, 9.998468 
2.5000602e+1, 2.1689181e+2, -870056.56, -992221.7, 50900.504, -0.18896742, 0.12336602, -851628.5, -37156.406, 0.0, 10.000346, 9.998729 
2.5001788e+1, 2.268911e+2, -666736.56, -721794.1, 13163.929, -0.14210324, 0.11480624, -663751.0, 52727.95, 0.0, 10.000544, 9.999817 
2.50033e+1, 2.368904e+2, -506252.88, -618485.7, 28398.334, 0.002650349, 0.055282418, -499476.38, 119006.8, 0.0, 10.0010805, 9.999594 
2.500367e+1, 2.4688935e+2, -355510.53, -604653.7, 15951.937, 0.04682899, 0.05047337, -354493.3, 165999.77, 0.0, 10.001918, 9.998611 
2.500347e+1, 2.568881e+2, -110318.35, -414571.63, 4584.714, 0.037708655, 0.04958663, -110249.28, 312256.88, 0.0, 10.002837, 9.998801 
2.5004107e+1, 2.6688766e+2, -66535.0, -265290.0, 39974.695, 0.0004172928, 0.08373867, -58796.375, 265711.72, 0.0, 10.002133, 9.999494 
2.5005168e+1, 2.7688757e+2, -198960.38, -309597.56, 5280.7764, -0.046159368, 0.11913066, -198708.89, 27796.248, 0.0, 10.000682, 9.999215 
2.5005227e+1, 2.868851e+2, -87462.195, -340173.22, -71263.07, -0.040815894, 0.021929355, -68751.73, 59776.63, 0.000000049416002, 10.001355, 9.998009 
2.5004777e+1, 2.9688138e+2, 247840.83, -132780.1, -62631.617, -0.014775203, -0.16014995, 257882.03, 288447.13, 0.0000092590135, 10.003007, 9.997967 
2.500527e+1, 3.0688187e+2, 241850.1, -136030.22, 4556.191, -0.011787564, 0.10526228, 241905.02, 241905.02, 0.00009030626, 10.00275, 9.997737 
2.5006542e+1, 3.1687814e+2, 151559.83, -42901.617, 24739.578, 0.017509509, -0.04476832, 154657.88, 154657.88, 0.0003138686, 10.001533, 9.998961 
3.49953e+1, 1.268899e+2, -2014702.0, -1692190.9, 15988.393, -0.079507165, 0.11542224, -1691400.1, 5088.706, 0.0012647449, 9.997214, 10.0014925 
3.4994823e+1, 1.3689221e+2, -1656795.9, -1348243.5, 48802.773, -0.048722636, 0.045338295, -1340708.5, 257751.0, 0.0007565008, 9.998485, 10.002572 
3.4994605e+1, 1.4689407e+2, -1680396.6, -1672480.8, 89945.06, -0.12815991, 0.15603608, -1586406.6, -85963.78, 0.00033951344, 9.999209, 9.999315 
3.499432e+1, 1.5689264e+2, -1505065.4, -1523948.4, 48648.426, -0.2824179, 0.07886294, -1464950.8, -62488.234, 0.000096218435, 9.999686, 9.99943 
3.4995815e+1, 1.6689295e+2, -1345938.5, -1287878.4, 2951.6133, -0.19739325, 0.11014272, -1287728.6, 16732.072, 0.000010539653, 9.999638, 10.0004015 
3.4998217e+1, 1.7689404e+2, -1302838.6, -1229870.0, 4872.136, 0.008240607, 0.17105462, -1229546.1, -23096.959, 0.000000028001644, 9.999319, 10.000281 
3.4998763e+1, 1.8689366e+2, -1171766.5, -1186804.0, 13390.883, -0.018217321, 0.14163268, -1163927.9, -55475.9, 0.0, 9.99985, 9.999649 
3.4998393e+1, 1.9689254e+2, -945310.25, -1039565.75, 4466.1772, -0.16060778, 0.058350682, -945099.1, 65362.8, 0.0, 10.000786, 9.999537 
3.5000306e+1, 2.0689201e+2, -885034.56, -1018361.9, 25665.637, -0.106472984, 0.08319894, -880264.56, 32203.941, 0.0, 10.000784, 9.999009 
3.5003316e+1, 2.1689168e+2, -836338.94, -914334.1, 41612.055, 0.042851433, 0.13882047, -818306.94, -3832.8093, 0.0, 10.000314, 9.999278 
3.5004497e+1, 2.2689158e+2, -634064.4, -645731.7, 31189.324, 0.07020933, 0.13609844, -608167.8, 108306.086, 0.0, 10.000511, 10.000355 
3.5004726e+1, 2.3689155e+2, -487327.25, -572771.3, 53869.266, 0.032672763, 0.095271036, -461295.6, 157175.4, 0.0, 10.001053, 9.999923 
3.5004577e+1, 2.4689034e+2, -400388.6, -689895.9, 50808.563, -0.058178715, 0.09261743, -391730.63, 128752.59, 0.0, 10.001886, 9.998041 
3.500425e+1, 2.5688842e+2, -153425.64, -497366.13, 24609.027, -0.17361139, 0.086623736, -151673.78, 270829.75, 0.0, 10.002809, 9.998247 
3.5004982e+1, 2.66887e+2, -98709.64, -329208.38, -19075.2, -0.12991448, 0.07323641, -97141.71, 227373.89, 0.0, 10.002121, 9.999061 
3.5006255e+1, 2.768859e+2, -227016.17, -361517.34, -26497.506, -0.0114079155, 0.04767035, -221984.27, 4539.013, 0.0, 10.000656, 9.99887 
3.5006896e+1, 2.868841e+2, -97798.2, -355226.78, -8409.532, -0.013617287, 0.035515703, -97523.78, 31017.791, 0.000000018573564, 10.00133, 9.997917 
3.500713e+1, 2.9688174e+2, 245647.19, -130225.69, -17315.182, -0.084387794, -0.0011885596, 246443.16, 277010.16, 0.000007912584, 10.002978, 9.997997 
3.5007545e+1, 3.0688173e+2, 277080.0, -58736.1, -42738.297, -0.06151702, 0.18058057, 282433.8, 282433.8, 0.00008249428, 10.002731, 9.998279 
3.500864e+1, 3.1687704e+2, 205271.19, 74640.41, -10664.735, 0.06433274, -0.12029081, 206136.14, 206136.14, 0.0002934394, 10.001506, 9.9997835 
4.499384e+1, 1.2689069e+2, -1782952.6, -1671074.1, -9646.7, -0.04106866, 0.13309163, -1670248.4, 26232.402, 0.0012008992, 9.999187, 10.000695 
4.4993922e+1, 1.368919e+2, -1558867.0, -1378948.5, -74948.37, -0.034488346, 0.039414007, -1351818.4, 246647.38, 0.0007119072, 9.999488, 10.001884 
4.4993973e+1, 1.4689372e+2, -1641677.4, -1633281.6, -23052.664, -0.11917208, 0.16398852, -1614047.8, -113597.805, 0.00031359482, 9.999391, 9.9995 
4.4993785e+1, 1.5689258e+2, -1581920.5, -1552683.3, 17860.729, -0.27361095, 0.10126503, -1544221.4, -141755.83, 0.000084590996, 9.99912, 9.999512 
4.499563e+1, 1.6689256e+2, -1380795.9, -1339955.9, -514.4009, -0.17349719, 0.115725674, -1339949.4, -35482.77, 0.000007991499, 9.99955, 10.00009 
4.49985e+1, 1.7689307e+2, -1174717.6, -1199384.0, -15808.129, 0.05483251, 0.14843814, -1167000.8, 39460.17, 0.000000008983813, 10.000332, 10.000005 
4.4999138e+1, 1.8689284e+2, -1106327.1, -1173014.9, 4949.737, 0.009444585, 0.15591481, -1105961.8, 2501.7754, 0.0, 10.000375, 9.999494 
4.4998676e+1, 1.9689229e+2, -1053405.8, -1089609.6, 7057.8364, -0.17121616, 0.14250256, -1052078.5, -41608.58, 0.0, 10.000035, 9.999557 
4.5000526e+1, 2.0689183e+2, -930110.8, -955666.1, 37702.36, -0.12722048, 0.13039614, -903079.7, 9393.635, 0.0, 10.00011, 9.999765 
4.5003533e+1, 2.1689138e+2, -788218.6, -830519.9, 67686.695, 0.031679332, 0.09879391, -738454.94, 76020.984, 0.0, 10.000383, 9.999821 
4.5004967e+1, 2.2689141e+2, -661254.7, -703896.4, 31300.771, 0.06739713, 0.11346325, -644703.2, 71771.28, 0.0, 10.000524, 9.999947 
4.500561e+1, 2.3689167e+2, -569322.1, -638911.94, -13621.67, 0.03978244, 0.13879, -566750.75, 51720.473, 0.0, 10.000607, 9.999682 
4.5005992e+1, 2.4689053e+2, -476960.16, -676845.2, 33141.914, -0.06632136, 0.12806094, -471608.34, 48873.355, 0.0, 10.001146, 9.998488 
4.5006293e+1, 2.568886e+2, -267443.97, -528673.0, 70727.27, -0.20386511, 0.0793935, -249523.98, 172975.72, 0.0, 10.001922, 9.998462 
4.5007238e+1, 2.6688677e+2, -70166.65, -403675.38, -808.23047, -0.14445433, 0.062397145, -70164.69, 254353.02, 0.0, 10.002696, 9.998273 
4.5008522e+1, 2.7688506e+2, 136092.66, -251534.0, -34044.766, 0.012567083, 0.05512484, 139060.05, 365595.13, 0.0, 10.00343, 9.998294 
4.5009148e+1, 2.868836e+2, 126130.586, -207228.16, 15550.516, 0.011646311, 0.08090234, 126854.414, 255404.72, 0.000000014301867, 10.002701, 9.998275 
4.5009336e+1, 2.9688206e+2, 20220.713, -209461.36, 33477.22, -0.07593153, 0.088538885, 25000.693, 55567.523, 0.000006683786, 10.001304, 9.998261 
4.5009387e+1, 3.0688167e+2, 103192.49, -157796.31, -15518.388, -0.0912969, 0.23254888, 104111.98, 104111.98, 0.00007463375, 10.001597, 9.998148 
4.5010155e+1, 3.168768e+2, 387828.03, 185037.9, -36931.734, 0.01117752, -0.07697315, 394344.56, 394344.56, 0.00027258482, 10.00265, 9.999999 
5.499412e+1, 1.2688985e+2, -1917679.8, -1957457.0, -6373.3145, 0.05384769, 0.06940378, -1916683.6, -220198.16, 0.0011290752, 9.999216, 9.998715 
5.499293e+1, 1.3688944e+2, -1657802.5, -1587986.1, -66532.625, -0.08901206, 0.013866887, -1547760.0, 50736.47, 0.0006616755, 9.999505, 10.00044 
5.4994106e+1, 1.4689204e+2, -1547480.9, -1439953.3, -34338.785, -0.051189788, 0.19615464, -1429922.9, 70550.24, 0.0002845946, 9.999398, 10.000823 
5.4996127e+1, 1.568926e+2, -1512220.5, -1409467.6, 17267.3, 0.04094961, 0.17302899, -1406643.5, -4176.3115, 0.00007188515, 9.9991255, 10.000491 
5.499731e+1, 1.6689204e+2, -1417766.4, -1416029.3, 27136.756, 0.033671357, 0.12560767, -1389747.1, -85274.914, 0.0000055425044, 9.999549, 9.999569 
5.4998136e+1, 1.7689098e+2, -1204889.1, -1258462.5, 7542.0835, -0.02051116, 0.055166572, -1203847.6, 2634.737, 0.00000000116644, 10.0003195, 9.999605 
5.4999083e+1, 1.8689138e+2, -1104013.8, -1163948.8, -10173.867, -0.038301498, 0.13461998, -1102333.9, 6147.391, 0.0, 10.000359, 9.999563 
5.500007e+1, 1.9689241e+2, -1038142.06, -1054393.9, -257.2235, -0.04080354, 0.27314553, -1038138.0, -27663.291, 0.0, 10.000023, 9.9998045 
5.500069e+1, 2.0689203e+2, -862588.56, -811334.0, 46135.445, -0.12646304, 0.19779725, -784185.94, 128288.305, 0.0, 10.000092, 10.000766 
5.500118e+1, 2.168909e+2, -753478.6, -753490.8, 78158.44, -0.24732842, 0.0036446152, -675326.3, 139151.17, 0.0, 10.000361, 10.0003605 
5.5003154e+1, 2.2689064e+2, -758207.5, -900708.44, 32220.346, -0.171617, 0.045825418, -751260.9, -34780.41, 0.0, 10.0005045, 9.998605 
5.500587e+1, 2.3689078e+2, -629373.5, -759731.0, -4884.5723, -0.0007742628, 0.18797462, -629190.75, -10707.086, 0.0, 10.000591, 9.99886 
5.5007833e+1, 2.4688996e+2, -376263.44, -463220.72, 60583.418, -0.0013882229, 0.15778375, -345171.7, 175316.72, 0.0, 10.001128, 9.999964 
5.5009466e+1, 2.5688863e+2, -204139.69, -388526.56, 102138.336, -0.084470615, 0.025480194, -158739.98, 263754.75, 0.0, 10.001886, 9.999441 
5.5010766e+1, 2.6688692e+2, -154277.47, -573544.06, 26448.29, -0.0665112, 0.048792653, -152615.64, 171899.02, 0.0, 10.002675, 9.997117 
5.501188e+1, 2.768851e+2, 74341.59, -369428.75, -19742.328, 0.0011941593, 0.1414911, 75218.16, 301758.63, 0.0, 10.003388, 9.997503 
5.501191e+1, 2.8688374e+2, 177128.5, -96290.336, -41247.953, 0.013785898, 0.16030006, 183215.64, 311770.03, 0.00000001499631, 10.002678, 9.999048 
5.5011344e+1, 2.9688233e+2, 52552.29, -137761.17, -31.06244, -0.010826083, 0.1092224, 52552.293, 83116.93, 0.000005774703, 10.001284, 9.998763 
5.501073e+1, 3.0688176e+2, 46272.98, -272585.66, 24019.959, -0.12101749, 0.25904024, 48072.273, 48072.273, 0.00006760057, 10.001583, 9.997365 
5.5010873e+1, 3.1687742e+2, 359008.16, 135716.16, 7714.3076, -0.19257574, 0.076735206, 359274.34, 359274.34, 0.00025331444, 10.002611, 9.999674 
6.499347e+1, 1.2689021e+2, -1865190.8, -1984208.0, 38513.277, 0.04126639, 0.04615325, -1853815.4, -157334.72, 0.0010533662, 9.999804, 9.998245 
6.4992255e+1, 1.3688938e+2, -1808833.1, -1710316.3, 86246.39, -0.06408631, 0.0041634855, -1660252.9, -61754.72, 0.00060913287, 9.998682, 9.999992 
6.4993644e+1, 1.4689197e+2, -1628187.1, -1469780.4, 118663.4, -0.0056152083, 0.19813971, -1406315.6, 94158.71, 0.000254567, 9.998802, 10.000906 
6.499594e+1, 1.5689254e+2, -1443287.5, -1366123.4, 77211.32, 0.090710714, 0.16737625, -1318391.1, 84075.484, 0.00005931439, 9.999557, 10.000579 
6.499684e+1, 1.6689208e+2, -1399202.8, -1393814.6, 93500.46, 0.030836238, 0.11781413, -1302969.5, 1500.7959, 0.0000034805446, 9.999618, 9.999687 
6.499715e+1, 1.7689118e+2, -1345092.9, -1317451.0, 115870.5, -0.09923972, 0.048996124, -1214580.1, -8100.971, 0.00000000000024211628, 9.999318, 9.999684 
6.499868e+1, 1.8689148e+2, -1250070.0, -1238193.0, 103298.94, -0.063682705, 0.12202751, -1140662.0, -32183.5, 0.0, 9.999373, 9.999527 
6.5000796e+1, 1.9689237e+2, -1103616.4, -1099611.9, 105502.14, 0.04952632, 0.24673316, -996093.0, 14380.645, 0.0, 9.99963, 9.999682 
6.500149e+1, 2.0689191e+2, -862327.0, -865448.8, 96176.734, -0.06718223, 0.19824418, -767698.5, 144776.55, 0.0, 10.000329, 10.000278 
6.5001535e+1, 2.1689077e+2, -660196.2, -762229.9, 13403.482, -0.29009554, 0.05182314, -658464.8, 156015.38, 0.0, 10.001236, 9.999878 
6.500388e+1, 2.2688982e+2, -612315.94, -886485.06, -35000.55, -0.21051173, 0.07643309, -607918.3, 108572.18, 0.0, 10.001745, 9.998108 
6.500735e+1, 2.3688899e+2, -443051.22, -705517.8, -16473.813, 0.017714543, 0.16940892, -442021.25, 176481.89, 0.0, 10.002024, 9.998544 
6.500944e+1, 2.4688835e+2, -311979.25, -391882.7, 6600.2266, 0.034029298, 0.14575265, -311437.72, 209068.2, 0.0, 10.001385, 10.000335 
6.501086e+1, 2.5688776e+2, -408252.13, -443394.38, -28619.738, -0.0523443, 0.048694856, -392240.0, 30264.545, 0.0, 10.000293, 9.999833 
6.501236e+1, 2.6688656e+2, -476348.72, -676784.06, -22114.258, -0.051045638, 0.08162488, -473937.8, -149419.36, 0.0, 10.000244, 9.997577 
6.501388e+1, 2.768851e+2, -284724.2, -506186.7, 42349.367, -0.00445596, 0.16735476, -276902.2, -50362.5, 0.0, 10.000764, 9.997828 
6.5013987e+1, 2.8688338e+2, 75483.38, -166108.11, 1628.6809, -0.013885445, 0.15173194, 75494.36, 204050.36, 0.000000013847158, 10.0020685, 9.998861 
6.501335e+1, 2.9688135e+2, 389630.16, 1568.8834, -31217.986, -0.057118196, 0.0546376, 392125.47, 422697.44, 0.0000050256726, 10.003699, 9.998558 
6.501328e+1, 3.068802e+2, 359179.2, -162979.69, -3881.557, -0.13982269, 0.17736273, 359208.06, 359208.06, 0.00006135474, 10.003918, 9.996988 
6.5014315e+1, 3.1687665e+2, 472326.06, 184575.27, -1212.7909, -0.14719214, 0.109762296, 472331.2, 472331.2, 0.00023568289, 10.003421, 9.999617 
7.4991745e+1, 1.268917e+2, -1787252.5, -1827994.5, -10796.575, -0.1244865, 0.057149824, -1784568.3, -88101.21, 0.0009785703, 9.999828, 9.999302 
7.499176e+1, 1.3689168e+2, -1771725.3, -1634674.4, 57565.54, 0.012284075, 0.006601982, -1613703.9, -15232.846, 0.0005580426, 9.998688, 10.000507 
7.499248e+1, 1.4689347e+2, -1706879.8, -1633264.3, 146329.08, -0.008503113, 0.17036885, -1519184.6, -18730.621, 0.00022607559, 9.998804, 9.9997835 
7.4993193e+1, 1.5689239e+2, -1494244.8, -1475766.1, 100749.5, -0.14670691, 0.08423402, -1383833.1, 18630.504, 0.000048170983, 9.999572, 9.999821 
7.4994177e+1, 1.6689266e+2, -1345302.9, -1281857.8, 81841.664, -0.20302653, 0.09198322, -1225805.8, 78654.73, 0.0000019773436, 9.999617, 10.000456 
7.499544e+1, 1.7689359e+2, -1304656.3, -1232940.9, 110810.125, -0.20856777, 0.13163032, -1152331.1, 54119.906, 0.0, 9.999315, 10.000266 
7.499783e+1, 1.868932e+2, -1260162.8, -1257607.0, 111123.414, -0.09192782, 0.11765203, -1147754.1, -39298.906, 0.0, 9.99937, 9.999395 
7.500077e+1, 1.9689214e+2, -1139909.0, -1170787.8, 121084.08, 0.07919396, 0.06567378, -1033283.94, -22817.574, 0.0, 9.999615, 9.999201 
7.500283e+1, 2.0689148e+2, -1002975.6, -1153959.4, 130152.17, 0.029458556, 0.13417564, -928006.2, -15530.823, 0.0, 10.000313, 9.998304 
7.500449e+1, 2.1689098e+2, -770572.56, -987010.2, 45849.117, -0.12517501, 0.24331282, -761260.7, 53223.273, 0.0, 10.001216, 9.998343 
7.500703e+1, 2.2688898e+2, -590663.06, -836453.75, -24945.639, -0.07482765, 0.2033458, -588156.9, 128347.45, 0.0, 10.001724, 9.99846 
7.5009966e+1, 2.3688628e+2, -438000.7, -686648.2, -11990.893, 0.072320916, 0.07697166, -437423.78, 181106.3, 0.0, 10.001988, 9.99869 
7.501071e+1, 2.4688566e+2, -366698.22, -497727.56, -36939.76, 0.01846639, 0.089759916, -357001.75, 163532.63, 0.0, 10.001353, 9.999622 
7.5010407e+1, 2.5688598e+2, -425040.78, -473488.13, -57742.9, -0.13192774, 0.15370642, -386646.34, 35881.984, 0.0, 10.000272, 9.999637 
7.501196e+1, 2.6688573e+2, -332817.44, -377424.22, -4429.9453, -0.119861305, 0.16370304, -332381.75, -7853.1704, 0.0, 10.000236, 9.999638 
7.501446e+1, 2.768851e+2, -184388.6, -295486.7, 72888.586, -0.029085396, 0.1315233, -148294.63, 78237.93, 0.0, 10.0007515, 9.999281 
7.501528e+1, 2.868827e+2, -6892.124, -333042.7, 63415.086, -0.09578877, 0.05469056, 5004.08, 133558.95, 0.000000011324871, 10.002053, 9.997722 
7.501526e+1, 2.9687917e+2, 319946.56, -135358.44, 18111.996, -0.24125993, -0.07599598, 320665.94, 351254.28, 0.000004299147, 10.003665, 9.997634 
7.5016916e+1, 3.068771e+2, 353248.28, -169627.6, -22100.572, -0.17188302, -0.0089160865, 354180.75, 354180.75, 0.00005532779, 10.003894, 9.996953 
7.502035e+1, 3.1687447e+2, 481470.1, 210335.48, -13422.967, 0.102487735, 0.019753447, 482133.0, 482133.0, 0.00021830676, 10.00339, 9.999808 
8.49899e+1, 1.2689194e+2, -2024261.6, -1839111.6, -114900.17, -0.18683691, 0.12593527, -1784132.6, -87663.23, 0.0009093487, 9.997754, 10.000227 
8.4992075e+1, 1.3689274e+2, -1447326.9, -1421184.6, -67354.07, 0.07734834, 0.080311194, -1365645.0, 232815.14, 0.0005120121, 10.000671, 10.001017 
8.4992874e+1, 1.468939e+2, -1476677.8, -1593682.6, 11256.412, 0.057914656, 0.19893439, -1475604.6, 24843.152, 0.00020159004, 10.000693, 9.9991455 
8.4992594e+1, 1.5689132e+2, -1570215.0, -1574210.4, -961.7917, -0.1501328, 0.024231253, -1569995.5, -167522.75, 0.000039447743, 9.999321, 9.999266 
8.499364e+1, 1.6689147e+2, -1457475.8, -1364804.5, -51140.76, -0.18447885, 0.05767558, -1342130.1, -37658.188, 0.0000010481418, 9.998972, 10.000196 
8.499552e+1, 1.7689298e+2, -1345337.6, -1273113.9, -94447.67, -0.12104518, 0.18137495, -1208109.9, -1651.4628, 0.0, 9.9991255, 10.00008 
8.499791e+1, 1.8689232e+2, -1152852.5, -1200931.9, -79188.11, -0.055206314, 0.1466585, -1094135.5, 14328.551, 0.0, 10.000081, 9.999446 
8.5000557e+1, 1.968906e+2, -883132.4, -1051553.4, -61406.13, 0.008752202, 0.024845233, -863121.4, 147358.05, 0.0, 10.001396, 9.999164 
8.500345e+1, 2.0688981e+2, -902935.7, -1160511.1, 6177.4307, 0.015468006, 0.10988511, -902787.56, 9703.361, 0.0, 10.001231, 9.997824 
8.500647e+1, 2.1688943e+2, -918267.25, -1088656.1, 31203.299, -0.0024861784, 0.27892318, -912732.75, -98231.63, 0.0, 10.000329, 9.998078 
8.5008913e+1, 2.2688755e+2, -758857.44, -845491.6, 24634.215, 0.015896268, 0.2254885, -752342.7, -35823.95, 0.0, 10.0002575, 9.999105 
8.501103e+1, 2.3688501e+2, -612510.56, -729897.75, 50589.918, 0.05068152, 0.051379163, -593716.9, 24822.896, 0.0, 10.000611, 9.999057 
8.5011655e+1, 2.4688406e+2, -449954.16, -627958.4, 16576.227, -0.0112439655, 0.065628946, -448423.7, 72124.79, 0.0, 10.001175, 9.998811 
8.501159e+1, 2.568839e+2, -235711.4, -447128.47, -12942.896, -0.1184361, 0.15505807, -234921.98, 187629.2, 0.0, 10.001857, 9.999053 
8.501327e+1, 2.668834e+2, -19257.002, -183486.28, -26534.52, -0.11009243, 0.14352001, -15076.248, 309476.34, 0.0, 10.002204, 10.000024 
8.5015863e+1, 2.768827e+2, 70998.48, -136281.02, -74210.11, -0.042396244, 0.07056278, 94827.7, 321381.16, 0.0, 10.002355, 9.9996 
8.5017335e+1, 2.8688067e+2, 10473.247, -333499.4, -56935.53, -0.102135636, 0.020717356, 19652.457, 148224.36, 0.000000007967864, 10.002204, 9.997648 
8.5018164e+1, 2.968777e+2, 57969.6, -275378.5, -28875.834, -0.22782236, -0.046752755, 60452.438, 91053.484, 0.0000036091901, 10.0019245, 9.997509 
8.5020065e+1, 3.068749e+2, 124338.39, -336474.38, -71868.87, -0.17670897, -0.016920187, 135287.02, 135287.02, 0.000049314654, 10.002556, 9.996456 
8.5023475e+1, 3.1687248e+2, 477772.72, 167754.66, -106546.97, 0.07200296, 0.074458346, 510859.56, 510859.56, 0.00020064443, 10.003533, 9.999449 
9.498775e+1, 1.2689088e+2, -1970288.8, -1722528.3, -8681.836, -0.18860981, 0.25132164, -1722224.4, -25736.137, 0.0008487389, 9.997739, 10.001034 
9.4993156e+1, 1.3689251e+2, -1407443.5, -1344179.6, 14285.295, 0.11287924, 0.22403426, -1341103.5, 257362.7, 0.00047347447, 10.000696, 10.0015335 
9.499479e+1, 1.4689322e+2, -1483023.0, -1610023.3, -42698.098, 0.17503963, 0.2802314, -1470002.6, 30453.871, 0.00018256163, 10.000707, 9.999024 
9.499403e+1, 1.5688924e+2, -1594634.5, -1627136.0, -39180.566, 0.055365548, -0.015640121, -1568468.3, -165974.28, 0.00003354367, 9.999329, 9.9988985 
9.499515e+1, 1.6688845e+2, -1549468.8, -1554498.0, -47119.496, 0.06329312, 0.014957423, -1504796.8, -200291.94, 0.00000057940093, 9.998968, 9.998897 
9.499737e+1, 1.768893e+2, -1415827.9, -1419731.6, -79606.266, 0.14590143, 0.19932245, -1338149.5, -131648.03, 0.0, 9.9991255, 9.999075 
9.499887e+1, 1.8688886e+2, -1135365.9, -1163229.6, -29006.547, 0.028641688, 0.21138643, -1117118.9, -8613.721, 0.0, 10.000075, 9.999705 
9.500004e+1, 1.9688776e+2, -857541.2, -995929.8, -24219.078, -0.18840356, 0.12404553, -853425.06, 157087.66, 0.0, 10.001387, 9.999549 
9.500324e+1, 2.0688687e+2, -835648.6, -1017313.7, -29921.553, -0.13239254, 0.12601738, -830847.2, 81674.59, 0.0, 10.001216, 9.998814 
9.5007414e+1, 2.1688609e+2, -852798.0, -947967.3, 7941.907, 0.054534644, 0.1558127, -852139.8, -37608.094, 0.0, 10.000307, 9.999055 
9.5009476e+1, 2.2688559e+2, -697649.06, -712653.1, 36301.56, 0.04118423, 0.14249758, -668082.44, 48451.22, 0.0, 10.000233, 10.000029 
9.5010483e+1, 2.3688518e+2, -575855.4, -647142.7, 67330.92, -0.06981906, 0.094474085, -535315.56, 83216.73, 0.0, 10.000582, 9.9996395 
9.5012224e+1, 2.4688359e+2, -516058.56, -760032.7, 40683.445, -0.076609835, 0.07566006, -509453.3, 11094.9, 0.0, 10.001154, 9.997913 
9.501433e+1, 2.568814e+2, -307036.8, -589984.1, 11713.486, -0.034966193, 0.050138008, -306552.75, 116020.59, 0.0, 10.001834, 9.998082 
9.50162e+1, 2.6687953e+2, -113175.5, -374830.25, -22036.018, -0.04170087, 0.018864416, -111332.65, 213257.86, 0.0, 10.002188, 9.998718 
9.5018005e+1, 2.768779e+2, 7240.483, -264222.25, -69966.26, -0.06940615, -0.022166677, 24212.363, 250815.42, 0.0, 10.002331, 9.998735 
9.502003e+1, 2.8687727e+2, 79233.77, -185250.92, -70151.37, -0.056387406, 0.047531422, 96688.63, 225295.94, 0.0000000042394483, 10.002183, 9.998675 
9.5022035e+1, 2.9687694e+2, 102606.96, -179891.36, -27129.16, -0.037833855, 0.13905862, 105188.664, 135798.92, 0.000002925069, 10.001911, 9.998172 
9.50227e+1, 3.0687365e+2, 56898.37, -472061.7, -34418.133, -0.17177886, 0.14929079, 59128.473, 59128.473, 0.000043225835, 10.00254, 9.995533 
9.5023555e+1, 3.168706e+2, 408069.38, 35025.484, -66390.95, -0.28477436, 0.2764882, 419532.78, 419532.78, 0.00018229416, 10.003482, 9.998562 
1.0498706e+2, 1.2688929e+2, -1840509.1, -1712937.9, 84432.484, -0.083046146, 0.25851965, -1670905.5, 25595.201, 0.0007977204, 9.998843, 10.000569 
1.0499232e+2, 1.3688903e+2, -1826888.9, -1599547.0, -1387.786, 0.09454636, 0.101479724, -1599538.6, -1039.7773, 0.0004431459, 9.998038, 10.001063 
1.0499432e+2, 1.4689018e+2, -1738068.1, -1699381.1, -97942.59, 0.1529402, 0.20498256, -1618890.1, -118404.23, 0.00016917764, 9.998808, 9.999329 
1.0499409e+2, 1.568877e+2, -1437217.8, -1533890.5, -63862.04, 0.08000832, 0.028445642, -1405461.9, -2951.7385, 0.000030278157, 10.00033, 9.999058 
1.0499558e+2, 1.6688663e+2, -1269582.6, -1464424.5, -4553.063, 0.104783826, 0.051285837, -1269476.3, 35047.316, 0.0000004316036, 10.001082, 9.998497 
1.0499807e+2, 1.768864e+2, -1106131.8, -1310966.3, 23760.068, 0.18962674, 0.1663259, -1103411.8, 103118.625, 0.0, 10.0014305, 9.998708 
1.0499967e+2, 1.8688583e+2, -1084037.9, -1167072.5, 63035.066, 0.078088365, 0.19578406, -1050076.0, 58459.715, 0.0, 10.000549, 9.99945 
1.0500083e+2, 1.9688506e+2, -1199485.3, -1170503.3, 26714.154, -0.13076252, 0.16492495, -1154602.9, -144061.77, 0.0, 9.999076, 9.999464 
1.0500364e+2, 2.0688415e+2, -1073563.1, -1055181.8, 60.23131, -0.11517408, 0.12546751, -1055181.5, -142632.67, 0.0, 9.999258, 9.999493 
1.0500726e+2, 2.1688315e+2, -824299.8, -875438.06, 11112.495, 0.012597464, 0.067994766, -821989.44, -7431.7217, 0.0, 10.0002575, 9.999573 
1.050094e+2, 2.2688307e+2, -659333.8, -718146.2, -17520.145, -0.0062632426, 0.08923222, -654510.2, 62045.84, 0.0, 10.000601, 9.999815 
1.0501084e+2, 2.368834e+2, -580420.06, -666613.8, -69454.02, -0.09375516, 0.13581201, -541778.3, 76771.41, 0.0, 10.0006275, 9.999483 
1.0501315e+2, 2.4688181e+2, -541237.2, -764886.56, -60109.08, -0.088451706, 0.11825829, -526105.7, -5539.778, 0.0, 10.000943, 9.997985 
1.05015896e+2, 2.568792e+2, -373812.84, -626715.25, -22845.936, -0.03804361, 0.04767578, -371765.63, 50828.305, 0.0, 10.00139, 9.998045 
1.05018094e+2, 2.6687706e+2, -218003.44, -483059.5, -305.07162, -0.046569936, 0.01784264, -218003.08, 106611.47, 0.0, 10.001717, 9.998199 
1.0502005e+2, 2.768752e+2, -76375.72, -356195.9, 3951.2349, -0.07875837, 0.003129832, -76319.94, 150310.72, 0.0, 10.00198, 9.998273 
1.0502237e+2, 2.8687432e+2, 86753.1, -200677.58, -39599.426, -0.04609729, 0.07736067, 92108.93, 220746.52, 0.0000000012344323, 10.002316, 9.998506 
1.0502477e+2, 2.9687372e+2, 206862.02, -140478.77, -80207.15, 0.0074293837, 0.16091438, 224488.75, 255131.42, 0.0000022309773, 10.002674, 9.998075 
1.0502619e+2, 3.0686983e+2, 197971.98, -392951.9, -31699.725, -0.120883435, 0.10703115, 199667.63, 199667.63, 0.00003695323, 10.003456, 9.995636 
1.05027944e+2, 3.1686714e+2, 527566.8, 76716.53, 1017.1241, -0.2356778, 0.26497713, 527569.06, 527569.06, 0.0001628002, 10.004371, 9.998421 
1.1498769e+2, 1.2688698e+2, -1957522.3, -1963428.4, 46291.273, 0.07961451, 0.13011424, -1914089.9, -217581.72, 0.0007564603, 9.998877, 9.998835 
1.1498947e+2, 1.368822e+2, -1928148.5, -1809387.4, -16143.488, -0.0013576659, -0.29234067, -1807232.1, -208673.6, 0.00042056636, 9.998036, 9.999625 
1.1499137e+2, 1.4688478e+2, -1690859.9, -1598113.4, -40637.902, -0.028129727, -0.027248686, -1582827.0, -82290.555, 0.00016082273, 9.9987955, 10.000029 
1.1499268e+2, 1.5688664e+2, -1387994.3, -1433540.3, -11966.398, -0.10078234, 0.15874346, -1385041.8, 17479.412, 0.000029173776, 10.00034, 9.99974 
1.1499483e+2, 1.6688602e+2, -1230341.9, -1386854.6, 7976.2993, -0.08372544, 0.16638789, -1229936.4, 74591.734, 0.0000005105562, 10.001097, 9.999023 
1.1499753e+2, 1.7688426e+2, -1086037.4, -1270698.0, 26383.332, -0.013881729, 0.08000154, -1082341.9, 124203.28, 0.0, 10.001434, 9.998984 
1.1500022e+2, 1.8688324e+2, -1141099.3, -1281148.4, 4787.4297, 0.07357308, 0.097509176, -1140935.9, -32379.639, 0.0, 10.000533, 9.998674 
1.1500288e+2, 1.9688252e+2, -1240278.0, -1251687.5, -11181.832, 0.16126262, 0.14744277, -1233429.8, -222865.19, 0.0, 9.999063, 9.998913 
1.1500461e+2, 2.0688161e+2, -1050294.6, -1003100.6, 36270.92, 0.051696353, 0.109523736, -983426.44, -70854.305, 0.0, 9.999241, 9.99986 
1.15005925e+2, 2.1688057e+2, -823352.0, -869686.9, 43519.652, -0.15055352, 0.013417585, -797217.44, 17362.105, 0.0, 10.00024, 9.999621 
1.1500863e+2, 2.2688001e+2, -755313.7, -914251.06, -18625.309, -0.14766255, 0.06445873, -753160.25, -36574.234, 0.0, 10.000586, 9.998477 
1.15012e+2, 2.3687968e+2, -645610.7, -797947.2, -63453.0, -0.04474438, 0.17221804, -622643.25, -4050.9648, 0.0, 10.0006075, 9.998592 
1.1501436e+2, 2.468787e+2, -472639.1, -615598.2, -44869.93, -0.065356106, 0.19024552, -459722.9, 60878.85, 0.0, 10.0009165, 9.9990225 
1.1501623e+2, 2.5687736e+2, -315498.7, -498328.28, -5621.138, -0.14874063, 0.14505272, -315326.03, 107287.17, 0.0, 10.001361, 9.99894 
1.1501889e+2, 2.6687595e+2, -201874.52, -444874.1, 7941.7446, -0.14279947, 0.13990842, -201615.23, 123009.5, 0.0, 10.001697, 9.998472 
1.1502195e+2, 2.7687448e+2, -81018.7, -363435.0, 16428.232, -0.09226131, 0.14124066, -80066.28, 146570.47, 0.0, 10.001967, 9.998231 
1.1502431e+2, 2.868717e+2, -11614.606, -399568.38, -28153.535, -0.087035105, 0.10439559, -9582.172, 119080.99, 0.00000000006210851, 10.002296, 9.997149 
1.15026295e+2, 2.9686812e+2, 141945.97, -268467.47, -60124.426, -0.11201979, 0.019154085, 150572.7, 181271.03, 0.0000015849012, 10.0026455, 9.9972105 
1.1503043e+2, 3.068635e+2, 273513.7, -226713.14, 3742.6064, -0.04532746, -0.14220355, 273541.7, 273541.7, 0.000030721083, 10.003422, 9.996792 
1.15036465e+2, 3.1686208e+2, 563065.94, 160866.05, 35138.785, 0.16863884, 0.03660573, 566112.8, 566112.8, 0.00014243544, 10.004328, 9.99902 
1.24986745e+2, 1.2688331e+2, -1811312.3, -1887833.9, -78379.48, 0.049517494, 0.019767825, -1762353.6, -65813.24, 0.0007247361, 9.999867, 9.998874 
1.249886e+2, 1.3687952e+2, -1631243.5, -1679193.8, -7102.995, 0.0067140297, -0.2920448, -1630213.5, -31630.342, 0.00040489552, 10.000137, 9.999503 
1.2499093e+2, 1.4688234e+2, -1509891.3, -1514283.1, 10699.692, -0.011018409, 0.0058947573, -1501164.5, -604.6259, 0.00015657058, 10.000057, 9.999994 
1.249928e+2, 1.5688409e+2, -1457107.8, -1458920.5, -27032.2, -0.09561569, 0.18453334, -1430966.8, -28420.332, 0.000029665785, 9.999834, 9.99981 
1.2499491e+2, 1.6688356e+2, -1433844.9, -1428196.6, -46416.37, -0.10235812, 0.16803393, -1384518.6, -79967.336, 0.0000007617598, 9.999456, 9.99953 
1.2499729e+2, 1.7688203e+2, -1410150.1, -1384482.6, -30416.045, -0.058651138, 0.05447984, -1364303.6, -157739.86, 0.0, 9.999027, 9.999365 
1.2500031e+2, 1.8688093e+2, -1216153.4, -1337486.3, -12398.996, 0.05268398, 0.061090525, -1214899.3, -106324.24, 0.0, 10.000103, 9.998496 
1.2500362e+2, 1.9688004e+2, -851401.75, -1092882.3, 9500.865, 0.18986829, 0.11093175, -851028.5, 159557.39, 0.0, 10.001861, 9.998653 
1.2500544e+2, 2.0687905e+2, -771124.44, -940434.3, 12128.653, 0.10036339, 0.1142052, -770260.0, 142335.94, 0.0, 10.001466, 9.999218 
1.2500659e+2, 2.16878e+2, -893326.8, -961978.3, -51903.45, -0.09619914, 0.07992438, -865425.4, -50819.465, 0.0, 10.0000105, 9.999099 
1.250095e+2, 2.2687688e+2, -787498.0, -929913.3, -41527.344, -0.104924105, 0.09683153, -776273.56, -59655.83, 0.0, 10.000361, 9.998478 
1.250133e+2, 2.3687574e+2, -498948.03, -722427.3, 3320.537, -0.02198563, 0.1246988, -498898.72, 119731.85, 0.0, 10.0015955, 9.998634 
1.2501602e+2, 2.4687497e+2, -330234.2, -526050.7, -1178.0985, -0.034382373, 0.15000348, -330227.1, 190410.02, 0.0, 10.001806, 9.999208 
1.250182e+2, 2.5687432e+2, -285267.38, -468750.88, -26585.807, -0.09332225, 0.15655841, -281492.88, 141148.23, 0.0, 10.001502, 9.999079 
1.2502092e+2, 2.6687297e+2, -223237.63, -454624.56, -38681.434, -0.09917126, 0.15151383, -216942.44, 107709.82, 0.0, 10.001548, 9.998478 
1.2502399e+2, 2.7687123e+2, -112192.92, -384898.7, -50400.57, -0.074746355, 0.12551476, -103176.19, 123491.336, 0.0, 10.001783, 9.998171 
1.2502664e+2, 2.868682e+2, -24485.828, -450792.66, -39482.055, -0.0862079, 0.089834966, -20860.066, 107837.28, 0.0, 10.0023985, 9.996751 
1.2502909e+2, 2.9686448e+2, 202459.67, -259538.63, -7037.3306, -0.121119045, 0.027972156, 202566.84, 233301.86, 0.0000010474641, 10.003149, 9.997031 
1.2503353e+2, 3.0685976e+2, 273053.97, -149044.06, 50501.09, -0.05760031, -0.17576693, 279011.97, 279011.97, 0.000024841802, 10.003076, 9.9974985 
1.2503985e+2, 3.1685865e+2, 312941.5, 59383.727, 41367.168, 0.16712919, -0.036127385, 319519.75, 319519.75, 0.00012196453, 10.002523, 9.999195 
1.3498405e+2, 1.2687844e+2, -1683855.0, -1624824.3, -74644.34, -0.22023106, -0.061031695, -1574071.8, 122524.33, 0.0007016644, 9.999874, 10.000675 
1.3498971e+2, 1.3688105e+2, -1545505.3, -1505809.8, 908.8242, 0.09768911, 0.10844963, -1505788.9, 92782.86, 0.00039489288, 10.000159, 10.000682 
1.3499302e+2, 1.4688289e+2, -1562221.8, -1629005.6, 428.64456, 0.18491721, 0.30645365, -1562219.0, -61663.105, 0.00015526546, 10.00008, 9.999198 
1.3499437e+2, 1.5688002e+2, -1495551.3, -1540547.5, -34860.24, 0.071122274, 0.10057561, -1476559.6, -73973.33, 0.000031126172, 9.999839, 9.9992485 
1.3499573e+2, 1.6687922e+2, -1402203.5, -1361199.1, -66096.4, 0.027977863, 0.053388625, -1312498.1, -7904.955, 0.0000011270397, 9.999452, 9.999991 
1.3499726e+2, 1.7687963e+2, -1377688.5, -1317316.3, -30195.295, 0.030687042, 0.08605071, -1304806.3, -98219.34, 0.0, 9.99903, 9.999822 
1.3499987e+2, 1.8687892e+2, -1185276.8, -1273164.1, 53952.234, -0.007082678, 0.08678316, -1159636.8, -51044.17, 0.0, 10.000101, 9.998939 
1.3500294e+2, 1.968776e+2, -849349.3, -1086731.9, 56718.63, -0.0689375, 0.053778533, -836493.56, 174111.58, 0.0, 10.001851, 9.998701 
1.3500604e+2, 2.0687647e+2, -889376.7, -1183066.0, -46157.188, 0.010113334, 0.13958661, -882293.3, 30327.043, 0.0, 10.001452, 9.997559 
1.3500917e+2, 2.1687542e+2, -973945.94, -1124849.8, -86565.5, 0.15663515, 0.26542872, -934565.06, -119928.125, 0.0, 9.9999895, 9.997991 
1.35012e+2, 2.2687368e+2, -697443.1, -739377.75, 4618.125, 0.10182206, 0.18677498, -696940.56, 19710.773, 0.0, 10.000345, 9.999793 
1.3501468e+2, 2.368716e+2, -434018.8, -584872.25, 41422.49, -0.05048497, -0.00876569, -423393.16, 195271.78, 0.0, 10.001581, 9.999585 
1.3501805e+2, 2.4687062e+2, -379219.0, -622344.8, -14649.782, -0.01577786, -0.00491128, -378339.44, 142333.03, 0.0, 10.001784, 9.998557 
1.3502176e+2, 2.568701e+2, -328538.13, -554337.5, -32746.703, 0.10807839, 0.079870336, -323884.9, 98792.89, 0.0, 10.001483, 9.998499 
1.3502418e+2, 2.6686814e+2, -246019.6, -496805.3, -31313.592, 0.06646221, 0.052679826, -242168.84, 82528.03, 0.0, 10.001527, 9.998198 
1.3502604e+2, 2.7686545e+2, -124110.66, -403018.8, -35205.414, -0.053051453, -0.04244048, -119735.46, 106987.4, 0.0, 10.001757, 9.998058 
1.350293e+2, 2.8686386e+2, 12685.403, -369093.63, -12076.708, -0.06560372, 0.03612039, 13067.041, 141807.14, 0.0, 10.002381, 9.997318 
1.350331e+2, 2.9686272e+2, 235846.03, -186796.75, 15707.144, -0.039911263, 0.17986047, 236428.97, 267182.63, 0.0000006413962, 10.003133, 9.997539 
1.3503547e+2, 3.0685863e+2, 289167.7, -108122.01, 29297.469, -0.17289545, -0.0019039268, 291316.53, 291316.53, 0.000019439243, 10.003051, 9.997788 
1.3503799e+2, 3.1685674e+2, 290727.63, 24520.83, 25200.057, -0.2809801, 0.039751284, 293092.16, 293092.16, 0.00010201916, 10.002484, 9.99897 
1.44983e+2, 1.2687421e+2, -1980423.4, -1693887.4, -89640.586, -0.19270617, 0.0031504184, -1668154.9, 28489.303, 0.0006852014, 9.997522, 10.001334 
1.449893e+2, 1.3687815e+2, -1618846.3, -1496534.0, -115489.086, 0.07658353, 0.25440106, -1427008.0, 171596.3, 0.00038852147, 9.999456, 10.001088 
1.4499287e+2, 1.4687955e+2, -1596505.8, -1638894.1, -141617.23, 0.17770934, 0.39117926, -1474505.5, 26085.328, 0.00015533686, 9.999817, 9.999257 
1.4499418e+2, 1.5687555e+2, -1557602.5, -1568425.9, -113045.66, 0.09325613, 0.06670916, -1449839.0, -47207.957, 0.00003278088, 9.999409, 9.999263 
1.4499572e+2, 1.6687481e+2, -1354543.4, -1354828.9, -133410.63, 0.0636595, 0.03358478, -1221275.4, 83362.42, 0.0000015078091, 9.999852, 9.999841 
1.4499755e+2, 1.7687583e+2, -1142413.0, -1215859.8, -144350.97, 0.074675456, 0.14314562, -1030187.3, 176439.3, 0.0, 10.000692, 9.99972 
1.4500031e+2, 1.8687505e+2, -1077839.1, -1196721.1, -67946.516, -0.004918597, 0.12669152, -1047003.0, 61629.746, 0.0, 10.000734, 9.999158 
1.4500344e+2, 1.9687328e+2, -1042716.56, -1154882.9, -90746.234, -0.13076577, 0.027658882, -992121.75, 18526.65, 0.0, 10.000409, 9.99893 
1.4500685e+2, 2.0687225e+2, -919720.8, -1162262.1, -123830.05, -0.03525626, 0.096709035, -867669.6, 44991.566, 0.0, 10.001094, 9.997874 
1.4501041e+2, 2.168716e+2, -626934.7, -929309.9, -22897.014, 0.1694698, 0.23239651, -625210.6, 189461.86, 0.0, 10.002254, 9.998241 
1.4501317e+2, 2.2687012e+2, -474543.47, -636087.5, 60131.98, 0.10862768, 0.17133762, -454618.03, 262065.94, 0.0, 10.001898, 9.999755 
1.4501557e+2, 2.368682e+2, -555749.94, -656160.4, -6835.503, -0.079509005, -0.0019854605, -555286.75, 63409.043, 0.0, 10.000802, 9.999473 
1.4501926e+2, 2.4686666e+2, -548175.7, -749924.2, -79143.04, -0.023314178, -0.024993395, -520834.38, -125.05909, 0.0, 10.000816, 9.99815 
1.4502358e+2, 2.5686526e+2, -368763.66, -611798.5, -81321.25, 0.14982247, 0.012079685, -344063.3, 78660.61, 0.0, 10.001378, 9.998153 
1.4502619e+2, 2.668632e+2, -176350.56, -482131.5, -53820.367, 0.08952389, -0.0045468155, -167154.23, 157591.0, 0.0, 10.002086, 9.99803 
1.4502802e+2, 2.768607e+2, 26298.21, -337660.56, -53638.863, -0.080584705, -0.061233606, 34038.684, 260808.67, 0.0, 10.002821, 9.997996 
1.4503194e+2, 2.868598e+2, 132115.16, -266566.3, -36047.324, -0.069320925, 0.06261321, 135348.2, 264128.84, 0.0, 10.003002, 9.997726 
1.450367e+2, 2.968596e+2, 226019.14, -158594.9, -24922.135, 0.019257125, 0.2600449, 227627.31, 258411.77, 0.0000003644557, 10.002921, 9.997834 
1.4503908e+2, 3.0685565e+2, 346340.84, -101623.06, -41244.86, -0.13958365, 0.092085525, 350106.66, 350106.66, 0.000014553311, 10.003534, 9.997599 
1.45041e+2, 3.1685278e+2, 523070.16, 70464.555, -90335.125, -0.31979865, 0.058787685, 540433.9, 540433.9, 0.0000830137, 10.004355, 9.99839 
1.5498349e+2, 1.268706e+2, -2009179.9, -1759987.4, -21373.18, 0.093026765, 0.21394788, -1758167.5, -61482.55, 0.0006720001, 9.997545, 10.000873 
1.5498728e+2, 1.3687071e+2, -1642837.6, -1548757.8, -57571.82, -0.07423399, 0.14397842, -1521452.0, 77229.33, 0.00038301162, 9.999461, 10.0007305 
1.5499045e+2, 1.4687231e+2, -1531823.1, -1503742.3, -159916.45, -0.051259913, 0.2604348, -1357251.0, 143413.78, 0.00015494693, 9.999814, 10.000186 
1.5499224e+2, 1.568707e+2, -1513654.5, -1478650.6, -118785.82, -0.04983849, 0.08547078, -1376084.3, 26596.49, 0.000033834087, 9.999415, 9.999875 
1.5499485e+2, 1.6687031e+2, -1407833.5, -1465321.1, -102615.33, -0.014580198, 0.108646005, -1330012.3, -25327.11, 0.0000017896223, 9.999851, 9.999083 
1.549981e+2, 1.768707e+2, -1185995.0, -1305831.0, -118465.89, 0.0532772, 0.22850263, -1113156.3, 93526.22, 0.0, 10.0006895, 9.999104 
1.5500152e+2, 1.8686932e+2, -1082156.4, -1204754.9, -82266.06, 0.038759112, 0.1814267, -1040862.75, 67832.39, 0.0, 10.00073, 9.999105 
1.5500501e+2, 1.9686703e+2, -1018424.94, -1100452.6, -91215.02, -0.021343734, 0.033094868, -959427.2, 51288.418, 0.0, 10.000393, 9.999311 
1.5500776e+2, 2.0686638e+2, -761758.2, -831520.7, -80634.984, -0.05769288, -0.012745435, -708783.3, 203935.3, 0.0, 10.001079, 10.000153 
1.5501021e+2, 2.1686654e+2, -517572.7, -697117.0, 7626.471, -0.08113068, -0.018367117, -517249.3, 297463.6, 0.0, 10.00223, 9.999848 
1.5501298e+2, 2.2686619e+2, -575171.1, -840804.75, 15422.678, -0.10346728, 0.051088452, -574278.6, 142437.1, 0.0, 10.001882, 9.998357 
1.5501593e+2, 2.368655e+2, -641275.9, -828801.0, -35216.074, -0.12780455, 0.14024173, -634880.6, -16156.915, 0.0, 10.000781, 9.998298 
1.550196e+2, 2.468631e+2, -563409.75, -775816.9, -59897.242, -0.076540716, 0.088065274, -547683.5, -26935.77, 0.0, 10.0007925, 9.997983 
1.5502362e+2, 2.568598e+2, -381511.3, -634823.6, -56045.914, 0.010760695, -0.046574447, -369665.0, 53114.676, 0.0, 10.001361, 9.998004 
1.5502693e+2, 2.6685804e+2, -182506.06, -490906.72, -26872.008, -0.048614785, -0.021490602, -180182.13, 144615.72, 0.0, 10.002069, 9.997976 
1.5502994e+2, 2.7685696e+2, 23003.031, -338864.7, -29740.328, -0.1768332, 0.06409217, 25430.969, 252240.63, 0.0, 10.002795, 9.998 
1.5503453e+2, 2.86856e+2, 146720.33, -229704.58, -41170.7, -0.11347465, 0.16638409, 151170.67, 279989.97, 0.0, 10.0029745, 9.9979925 
1.5503982e+2, 2.9685506e+2, 229776.14, -146400.47, -17347.313, 0.03433324, 0.26930362, 230574.42, 261401.8, 0.00000019831394, 10.0029, 9.99793 
1.5504426e+2, 3.0685085e+2, 294918.75, -201269.9, -7993.9844, 0.020415429, 0.10947401, 295047.5, 295047.5, 0.000010333069, 10.0035095, 9.996922 
1.550486e+2, 3.168469e+2, 455250.47, -60839.43, -56718.082, -0.0035981538, 0.031860974, 461410.25, 461410.25, 0.0000654706, 10.004319, 9.997502 
1.6498314e+2, 1.2686685e+2, -1520966.6, -1567938.1, 113504.19, 0.12770581, 0.23189096, -1428543.9, 268173.8, 0.00065764156, 10.001081, 10.000486 
1.6498601e+2, 1.3686462e+2, -1732800.6, -1630692.4, 83597.5, -0.122942306, -0.021057997, -1583792.1, 14945.652, 0.00037533525, 9.99902, 10.000374 
1.6498934e+2, 1.4686657e+2, -1619598.0, -1501704.5, -25877.629, -0.10289488, 0.121164784, -1496274.5, 4443.8013, 0.00015252095, 9.99902, 10.000581 
1.6499168e+2, 1.5686679e+2, -1401120.9, -1393043.0, -22494.219, -0.07647214, 0.089556575, -1374228.0, 28488.387, 0.000033788867, 10.000049, 10.000157 
1.6499491e+2, 1.6686645e+2, -1261498.4, -1416228.8, 28555.46, -0.047840994, 0.11694159, -1256396.6, 48324.105, 0.0000018950186, 10.000942, 9.998895 
1.6499875e+2, 1.76866e+2, -1046225.4, -1253779.9, 40293.45, -0.0010406186, 0.17181931, -1038677.5, 168049.28, 0.0, 10.001718, 9.998963 
1.6500224e+2, 1.8686485e+2, -1013596.7, -1170112.5, 47308.14, 0.01639147, 0.15241486, -1000408.6, 108329.484, 0.0, 10.001195, 9.999119 
1.6500553e+2, 1.9686331e+2, -1066887.4, -1115128.1, 50379.69, 0.012495125, 0.07557295, -1035151.7, -24399.277, 0.0, 10.000027, 9.999386 
1.6500866e+2, 2.0686267e+2, -859590.7, -842471.56, 24569.703, -0.03353925, 0.008744883, -825013.1, 87741.29, 0.0, 10.000249, 10.000479 
1.6501175e+2, 2.1686246e+2, -660397.9, -745920.1, -43721.473, -0.09430141, -0.06427794, -642002.8, 172747.73, 0.0, 10.00116, 10.00003 
1.6501486e+2, 2.2686204e+2, -630514.7, -915826.5, -76281.44, -0.0942014, 0.01667088, -611400.5, 105354.4, 0.0, 10.001711, 9.997923 
1.6501796e+2, 2.3686147e+2, -477435.38, -789846.0, -51935.457, -0.06588935, 0.15810968, -469027.84, 149736.1, 0.0, 10.00208, 9.997938 
1.6502164e+2, 2.4685913e+2, -306932.22, -656212.3, -13953.161, -0.03917437, 0.13129738, -306375.72, 214412.19, 0.0, 10.002574, 9.997944 
1.650256e+2, 2.5685596e+2, -129057.63, -516358.3, -9877.524, -0.01335711, 0.009400646, -128805.88, 294013.2, 0.0, 10.003107, 9.997976 
1.6502911e+2, 2.668542e+2, -94121.31, -441525.25, 13518.304, -0.064718805, 0.03320675, -93596.08, 231239.73, 0.0, 10.002642, 9.998042 
1.6503246e+2, 2.7685308e+2, -134063.73, -414010.72, 21071.084, -0.14888299, 0.10805607, -132486.64, 94359.41, 0.0, 10.001714, 9.998003 
1.6503708e+2, 2.868509e+2, 39818.117, -314054.9, 11763.295, -0.12499278, 0.10869083, 40208.715, 169074.52, 0.0, 10.002386, 9.997693 
1.6504228e+2, 2.9684836e+2, 342347.75, -121399.41, -13764.296, -0.05203211, 0.07693393, 342755.94, 373644.56, 0.000000103924, 10.003807, 9.997661 
1.6504793e+2, 3.068448e+2, 361488.5, -182831.3, -1715.5797, 0.015236319, 0.0009267654, 361493.9, 361493.9, 0.000006944009, 10.004015, 9.996809 
1.6505396e+2, 3.1684148e+2, 334416.7, -134749.64, -18177.945, 0.14254072, -0.0016610157, 335119.94, 335119.94, 0.000049939055, 10.003553, 9.997358 
1.7498173e+2, 1.2686302e+2, -1541930.0, -1613837.9, 27348.578, -0.13119692, 0.06271978, -1532710.5, 164030.81, 0.0006375972, 10.001092, 10.000165 
1.7498545e+2, 1.3685994e+2, -1757708.8, -1684886.5, 25643.385, -0.086104624, -0.23573412, -1676762.8, -77989.59, 0.00036289106, 9.999029, 9.999997 
1.7498952e+2, 1.4686228e+2, -1627272.5, -1518002.3, 10403.647, 0.009230018, -0.030434053, -1517020.5, -16268.9375, 0.00014707113, 9.9990225, 10.000467 
1.7499247e+2, 1.5686378e+2, -1402781.8, -1396064.5, 16343.594, -0.0086505115, 0.07693839, -1382738.0, 20000.256, 0.00003249045, 10.000047, 10.000137 
1.7499581e+2, 1.668632e+2, -1235567.9, -1361249.8, 57160.54, -0.057509877, 0.058091387, -1213459.9, 91284.836, 0.0000018022155, 10.000938, 9.999274 
1.7499946e+2, 1.7686175e+2, -1023032.8, -1206282.6, 57814.664, -0.10524073, -0.024867017, -1006317.25, 200442.27, 0.0, 10.001719, 9.999288 
1.7500241e+2, 1.868616e+2, -1007662.3, -1157592.8, 439.05768, -0.09119209, 0.037594017, -1007661.06, 101100.99, 0.0, 10.001191, 9.9992075 
1.7500496e+2, 1.9686204e+2, -1083370.0, -1148652.0, 21754.924, -0.05332571, 0.15345104, -1076784.6, -66025.49, 0.0, 10.000022, 9.999159 
1.7500946e+2, 2.0686105e+2, -974989.75, -1079310.1, 57529.74, 0.017322177, 0.15716703, -949494.56, -36725.4, 0.0, 10.0002365, 9.998858 
1.7501496e+2, 2.1685933e+2, -749006.3, -925605.7, -10969.884, 0.10569627, 0.09041973, -748327.5, 66458.31, 0.0, 10.001142, 9.998805 
1.7501871e+2, 2.2685769e+2, -595511.94, -837525.4, -63300.563, 0.11475409, 0.06711416, -579955.1, 136846.13, 0.0, 10.001687, 9.998471 
1.7502156e+2, 2.3685607e+2, -448050.16, -724906.25, -33786.36, 0.08153782, 0.051197696, -443986.66, 174829.86, 0.0, 10.002062, 9.998393 
1.7502531e+2, 2.4685477e+2, -304588.44, -648431.0, 5091.377, 0.06631817, 0.10446295, -304513.06, 216316.98, 0.0, 10.002561, 9.998005 
1.7502946e+2, 2.568536e+2, -126312.75, -503851.94, 2546.9019, 0.056790184, 0.17699835, -126295.57, 296547.16, 0.0, 10.0030775, 9.998076 
1.7503272e+2, 2.668516e+2, -81049.914, -410395.06, -25081.986, 0.026513042, 0.15866221, -79150.695, 245708.63, 0.0, 10.002626, 9.998262 
1.7503554e+2, 2.7684903e+2, -135595.4, -413889.34, 3874.7258, -0.015429754, 0.06858227, -135541.47, 91338.055, 0.0, 10.001699, 9.998012 
1.7503951e+2, 2.8684455e+2, -23640.809, -444216.38, 64623.973, -0.12260625, -0.10831973, -13934.933, 114985.336, 0.0, 10.002378, 9.996803 
1.7504403e+2, 2.9683942e+2, 291988.0, -221148.1, 30333.295, -0.26222536, -0.31252995, 293774.9, 324743.3, 0.00000004563321, 10.003783, 9.996988 
1.7505011e+2, 3.0683744e+2, 392326.34, -112259.99, -19706.678, -0.17106012, -0.23195462, 393094.8, 393094.8, 0.0000044345684, 10.003991, 9.997304 
1.7505708e+2, 3.1683663e+2, 369646.7, -53681.664, -32189.635, 0.08638573, -0.034450557, 372080.38, 372080.38, 0.00003672069, 10.00352, 9.997932 
1.8498114e+2, 1.2685813e+2, -2020833.8, -1830711.8, -102682.4, -0.1316042, -0.05439422, -1785843.3, -89057.74, 0.0006079269, 9.997747, 10.000288 
1.8498501e+2, 1.3685693e+2, -1748228.4, -1686902.6, -70257.77, -0.035776906, -0.1636864, -1640908.0, -42108.188, 0.00034396173, 9.999119, 9.999942 
1.8498944e+2, 1.4685892e+2, -1514715.9, -1499479.4, -45682.85, 0.053463116, 0.026427899, -1460783.9, 39998.582, 0.00013809922, 9.999944, 10.000151 
1.849927e+2, 1.5685922e+2, -1354152.9, -1392536.8, -64615.797, -0.009382727, 0.04542173, -1305939.1, 96842.164, 0.000029920388, 10.000465, 9.99996 
1.8499635e+2, 1.6685866e+2, -1325875.4, -1360189.0, -48983.28, -0.054081075, 0.011609649, -1291131.1, 13655.995, 0.0000015280342, 10.00013, 9.999673 
1.8500033e+2, 1.768578e+2, -1339473.5, -1323383.0, -47654.31, -0.073372826, -0.049176265, -1283099.6, -76304.44, 0.0, 9.9993925, 9.999609 
1.8500344e+2, 1.8685788e+2, -1110010.8, -1202230.1, -92993.89, -0.06942365, 0.02021211, -1052322.8, 56472.78, 0.0, 10.000471, 9.999245 
1.850061e+2, 1.9685835e+2, -742661.25, -997098.5, -82882.26, -0.059828088, 0.13651939, -718044.3, 292748.53, 0.0, 10.002418, 9.9990425 
1.8501064e+2, 2.068572e+2, -758067.4, -1064088.3, -24174.16, 0.018607888, 0.17669344, -756169.5, 156637.22, 0.0, 10.002113, 9.998057 
1.8501613e+2, 2.1685523e+2, -852373.44, -1038440.06, -28069.775, 0.13107759, 0.16287737, -848231.1, -33402.09, 0.0, 10.000703, 9.99824 
1.8502015e+2, 2.2685312e+2, -666200.0, -822354.3, -30990.84, 0.12608977, 0.08857055, -660274.4, 56573.45, 0.0, 10.000982, 9.998919 
1.8502346e+2, 2.3685095e+2, -418563.16, -668378.4, -16922.805, 0.06485619, -0.026382767, -417421.97, 201442.97, 0.0, 10.00208, 9.998775 
1.8502744e+2, 2.4684985e+2, -363476.63, -668462.9, 3063.2454, 0.0447219, 0.027741065, -363445.84, 157429.55, 0.0, 10.002121, 9.998078 
1.850317e+2, 2.5684923e+2, -330009.38, -601724.9, -1302.775, 0.043901417, 0.14888424, -330003.13, 92879.66, 0.0, 10.001677, 9.998079 
1.8503547e+2, 2.6684698e+2, -104877.29, -456855.47, -43352.977, 0.041163936, 0.12500228, -99616.164, 225286.03, 0.0, 10.002616, 9.997948 
1.8503903e+2, 2.768438e+2, 210168.98, -275771.9, -57971.71, 0.039571144, 0.0025729735, 216989.16, 443918.28, 0.0, 10.004197, 9.997757 
1.8504329e+2, 2.8683963e+2, 164392.92, -351487.84, 26825.994, -0.047011364, -0.1319028, 165784.13, 294751.88, 0.0, 10.003662, 9.996821 
1.8504782e+2, 2.968354e+2, 48178.32, -337803.5, 56577.8, -0.1773525, -0.25173768, 56300.66, 87309.43, 0.000000013949684, 10.002108, 9.996992 
1.8505324e+2, 3.0683383e+2, 144823.81, -222137.14, 24127.44, -0.16762654, -0.12887347, 146403.38, 146403.38, 0.0000026902987, 10.002242, 9.997394 
1.8505897e+2, 3.168325e+2, 338498.44, -32994.89, -22478.854, -0.0582093, 0.00019371707, 339853.7, 339853.7, 0.000025864601, 10.003148, 9.998256 
1.9498126e+2, 1.2685202e+2, -1977906.4, -1744128.5, -55280.316, 0.09450589, -0.12620737, -1731715.6, -34864.453, 0.0005661583, 9.997757, 10.000877 
1.9498466e+2, 1.3685554e+2, -1727902.5, -1645866.0, -22993.9, 0.011920698, 0.18763563, -1639860.6, -41042.28, 0.00031763376, 9.999124, 10.000221 
1.9498904e+2, 1.4685644e+2, -1552215.1, -1577836.8, -26344.959, 0.015055578, 0.29103604, -1535731.3, -34920.17, 0.00012543336, 9.999945, 9.999613 
1.9499233e+2, 1.5685311e+2, -1379234.8, -1443947.3, -51786.387, -0.09857037, -0.003445572, -1350527.5, 52317.82, 0.000026112697, 10.000463, 9.99961 
1.9499649e+2, 1.6685282e+2, -1297788.5, -1299876.4, -79196.51, -0.057529695, -0.02123624, -1219629.0, 85218.89, 0.0000011234973, 10.000121, 10.00009 
1.9500127e+2, 1.7685416e+2, -1317406.3, -1276862.1, -54942.035, 0.076465145, 0.0963882, -1238571.5, -31737.898, 0.0, 9.999388, 9.99993 
1.9500531e+2, 1.8685365e+2, -1114061.0, -1209231.1, -18085.676, 0.06472796, 0.098767094, -1110740.0, -1901.4275, 0.0, 10.000463, 9.999203 
1.9500889e+2, 1.968522e+2, -745565.94, -1001312.56, -29599.006, -0.027881915, 0.025130501, -742184.94, 268668.72, 0.0, 10.002408, 9.99902 
1.9501212e+2, 2.068511e+2, -758819.56, -1061244.1, -80596.19, -0.04996181, 0.06806553, -738681.6, 174185.63, 0.0, 10.002096, 9.998085 
1.9501519e+2, 2.168501e+2, -849345.1, -1028003.56, -62661.387, -0.037110258, 0.14939748, -829559.0, -14678.447, 0.0, 10.000686, 9.998321 
1.9501917e+2, 2.2684826e+2, -645004.8, -774215.56, 9662.6, -0.0743109, 0.08030092, -644286.25, 72608.664, 0.0, 10.000965, 9.999257 
1.9502357e+2, 2.3684606e+2, -400679.13, -625339.06, 15952.419, -0.13659245, -0.07463089, -399552.03, 219357.61, 0.0, 10.002055, 9.999082 
1.9502793e+2, 2.4684435e+2, -358903.44, -656407.9, -17384.688, -0.121520735, -0.0994161, -357891.0, 163033.31, 0.0, 10.002109, 9.998168 
1.9503225e+2, 2.5684282e+2, -338565.2, -615954.56, -3237.7915, -0.07174126, -0.07386781, -338527.4, 84412.02, 0.0, 10.00166, 9.99799 
1.9503732e+2, 2.668404e+2, -164991.05, -578628.25, 17189.906, -0.03810921, -0.06529054, -164277.9, 160686.23, 0.0, 10.002604, 9.997118 
1.950428e+2, 2.7683738e+2, 170150.38, -352158.56, -16577.338, -0.008525033, -0.08827916, 170675.98, 397670.56, 0.0, 10.004167, 9.99725 
1.9504826e+2, 2.8683612e+2, 226458.19, -219886.53, -35105.363, 0.08000679, 0.03422024, 229202.39, 358210.9, 0.0, 10.003651, 9.997731 
1.9505356e+2, 2.9683605e+2, 92772.93, -243168.94, 16757.074, 0.18089578, 0.2464846, 93606.72, 124618.0, 0.0000000023315327, 10.002097, 9.997648 
1.9505729e+2, 3.0683392e+2, 123562.29, -260575.14, 57699.59, 0.009020771, 0.30014023, 132041.9, 132041.9, 0.0000015022686, 10.002224, 9.997135 
1.9505946e+2, 3.1682926e+2, 337376.4, -23370.344, 15470.061, -0.33111462, 0.11202033, 338038.6, 338038.6, 0.000017416096, 10.003099, 9.998345 
2.0498092e+2, 1.2684746e+2, -1528223.0, -1503237.1, -7891.2563, 0.13808328, -0.07328282, -1500953.6, 195944.17, 0.0005126348, 10.000739, 10.001092 
2.049837e+2, 1.3685033e+2, -1518024.9, -1536694.6, -13690.24, -0.066004485, 0.16288844, -1510789.8, 88078.89, 0.00028421695, 10.000531, 10.000291 
2.0498845e+2, 1.4685097e+2, -1564215.6, -1598795.6, -23298.777, -0.038387384, 0.24682727, -1552492.3, -51628.246, 0.000109345194, 9.999929, 9.999478 
2.0499234e+2, 1.5684791e+2, -1570548.9, -1544271.0, -19392.447, -0.079173915, -0.0063285474, -1533985.6, -131088.92, 0.000021261263, 9.999184, 9.999538 
2.0499682e+2, 1.6684785e+2, -1314856.8, -1291770.5, -32837.164, -0.025149057, -0.007393484, -1268506.8, 36390.918, 0.00000067965186, 9.999933, 10.000234 
2.0500185e+2, 1.768494e+2, -1016064.75, -1115249.8, -33121.9, 0.0950747, 0.11692138, -1006021.06, 200860.28, 0.0, 10.001391, 10.000072 
2.0500612e+2, 1.8684886e+2, -1040532.06, -1162291.6, 5712.173, 0.077480465, 0.10290261, -1040264.7, 68621.5, 0.0, 10.0009165, 9.999307 
2.0500995e+2, 1.9684723e+2, -1155296.5, -1180408.0, 2017.5475, -0.016992373, 0.00056629104, -1155135.5, -144233.2, 0.0, 9.999513, 9.999187 
2.0501338e+2, 2.0684625e+2, -968704.44, -1109853.3, -18286.61, -0.048720773, 0.022250028, -966373.8, -53460.293, 0.0, 10.000425, 9.998558 
2.0501666e+2, 2.1684557e+2, -569358.8, -856181.6, 26867.14, -0.045449413, 0.08909833, -566863.8, 248058.78, 0.0, 10.00245, 9.998651 
2.0502084e+2, 2.2684419e+2, -436954.4, -710680.44, 74775.33, -0.0804876, 0.07055576, -417859.63, 299073.94, 0.0, 10.002555, 9.998925 
2.0502546e+2, 2.3684244e+2, -469873.5, -693085.6, 28557.682, -0.13393013, -0.0051781507, -466277.78, 152668.16, 0.0, 10.001726, 9.9987755 
2.0503005e+2, 2.4684028e+2, -347301.44, -665642.1, -22204.998, -0.12647726, -0.053871945, -345760.06, 175205.34, 0.0, 10.002254, 9.9980345 
2.0503464e+2, 2.5683793e+2, -81256.91, -498266.06, -26351.514, -0.08904276, -0.10260011, -79598.305, 343390.3, 0.0, 10.003456, 9.997932 
2.0503978e+2, 2.668357e+2, -52154.4, -491859.5, 47187.855, -0.08427722, -0.08603171, -47147.35, 277863.13, 0.0, 10.003237, 9.99741 
2.0504524e+2, 2.7683347e+2, -84923.89, -454756.78, 86346.086, -0.08756646, -0.05891513, -65757.664, 161274.84, 0.0, 10.002325, 9.997431 
2.0505102e+2, 2.8683227e+2, 94000.61, -325120.72, 21973.71, 0.02867058, 0.08277611, 95149.5, 224196.38, 0.0, 10.002915, 9.997365 
2.050568e+2, 2.9683188e+2, 380530.97, -137122.45, -21349.033, 0.191904, 0.29846898, 381409.97, 412464.4, 0.000000000097020676, 10.004215, 9.997357 
2.050609e+2, 3.0682924e+2, 335504.97, -147230.75, 4658.9824, 0.08031033, 0.30900723, 335549.94, 335549.94, 0.00000074711346, 10.003633, 9.99724 
2.0506297e+2, 3.1682432e+2, 215998.16, -33239.563, -15647.025, -0.23520294, 0.080411755, 216976.63, 216976.63, 0.000011534893, 10.002062, 9.9987755 
2.1498005e+2, 1.2684444e+2, -1541320.9, -1531728.5, -20342.898, -0.03442676, 0.10496512, -1515624.0, 181300.8, 0.00045092413, 10.000743, 10.0008955 
2.1498209e+2, 1.3684127e+2, -1526703.6, -1558676.0, -24447.271, -0.2842032, -0.23680325, -1513479.8, 85471.125, 0.00024584652, 10.000546, 10.000134 
2.1498755e+2, 1.4684245e+2, -1543900.1, -1558449.1, -54692.785, -0.12535192, -0.107308544, -1496000.1, 4941.345, 0.00009091271, 9.999938, 9.999751 
2.1499269e+2, 1.568436e+2, -1556106.1, -1514384.9, -30795.9, 0.032230634, 0.030508064, -1498049.4, -95112.99, 0.000015871614, 9.999184, 9.999744 
2.1499737e+2, 1.6684376e+2, -1325997.8, -1311897.3, 22972.438, 0.029488502, 0.05111802, -1294917.5, 10019.083, 0.00000031009594, 9.999922, 10.0001 
2.15002e+2, 1.7684354e+2, -1021680.5, -1123584.6, 5201.209, -0.033286966, 0.011273939, -1021415.75, 185522.7, 0.0, 10.001378, 10.00002 
2.1500582e+2, 1.8684345e+2, -1025782.56, -1127921.1, -51584.813, -0.048624117, 0.031794198, -1004263.56, 104675.19, 0.0, 10.000901, 9.999552 
2.1500921e+2, 1.968434e+2, -1130798.9, -1126749.5, -26524.791, -0.04619776, 0.06165562, -1102172.3, -91233.23, 0.0, 9.999502, 9.99956 
2.1501438e+2, 2.0684269e+2, -907240.5, -978550.9, 58406.84, 0.005601528, 0.041378908, -874465.8, 38479.66, 0.0, 10.000409, 9.999468 
2.1502045e+2, 2.1684167e+2, -533910.56, -775893.06, 86343.65, 0.082074724, -0.014858935, -506260.94, 308694.06, 0.0, 10.002422, 9.999215 
2.1502511e+2, 2.2684087e+2, -509752.6, -858114.7, 39532.527, 0.08637666, 0.059573963, -505322.75, 211641.45, 0.0, 10.002537, 9.997923 
2.1502906e+2, 2.368401e+2, -535441.8, -823083.4, 12569.077, 0.050337713, 0.1827497, -534893.6, 84080.17, 0.0, 10.001702, 9.997893 
2.1503374e+2, 2.4683768e+2, -375173.72, -720898.06, 22823.785, 0.011797522, 0.16531979, -373673.47, 147325.08, 0.0, 10.00224, 9.9976635 
2.1503872e+2, 2.5683442e+2, -88575.37, -506184.47, 7162.63, -0.029799968, 0.060331542, -88452.555, 334578.25, 0.0, 10.003425, 9.997894 
2.1504274e+2, 2.6683283e+2, 42006.55, -290594.72, 9745.7705, -0.11429031, 0.060317054, 42291.875, 367333.72, 0.0, 10.003214, 9.998801 
2.1504633e+2, 2.7683198e+2, -31026.781, -336237.88, 67549.016, -0.21778087, 0.08890443, -16745.172, 210298.66, 0.0, 10.002297, 9.998257 
2.1505155e+2, 2.8682807e+2, -20471.428, -555665.44, 70584.945, -0.21349245, 0.019276218, -11318.74, 117764.13, 0.0, 10.002886, 9.995795 
2.1505758e+2, 2.968229e+2, 290173.72, -317941.22, 11919.249, -0.15677768, -0.089506134, 290407.25, 321545.03, 0.0, 10.004184, 9.996132 
2.1506403e+2, 3.068199e+2, 362793.88, -83985.95, -54130.06, 0.02983961, -0.092979364, 369258.5, 369258.5, 0.00000035021336, 10.003607, 9.997686 
2.1506931e+2, 3.1681782e+2, 258296.02, 61006.434, -59509.945, 0.1806721, -0.08293166, 274856.38, 274856.38, 0.000007975342, 10.002033, 9.999438 
2.2497945e+2, 1.2683997e+2, -1881325.3, -1709316.8, 6477.022, -0.05484485, 0.10174868, -1709073.3, -12106.5625, 0.00038622326, 9.998474, 10.00077 
2.2498159e+2, 1.3683626e+2, -1861957.4, -1725534.8, 1901.9696, -0.27480665, -0.27965704, -1725508.1, -126508.18, 0.00020573678, 9.998276, 10.000082 
2.2498745e+2, 1.4683767e+2, -1689863.6, -1565986.6, -3731.4685, -0.06577649, -0.15862797, -1565874.3, -64886.75, 0.00007189719, 9.998669, 10.000312 
2.2499298e+2, 1.5683977e+2, -1502557.8, -1441834.3, 42087.695, 0.13559641, 0.02039956, -1420299.9, -17329.41, 0.000010694928, 9.999353, 10.000159 
2.2499761e+2, 1.6684e+2, -1415472.9, -1384768.0, 120634.48, 0.08742881, 0.047109608, -1278513.0, 26457.379, 0.000000092361944, 9.99943, 9.999843 
2.2500196e+2, 1.7683937e+2, -1350264.9, -1301479.8, 85702.8, -0.06309882, -0.009271007, -1236765.8, -29787.76, 0.0, 9.999201, 9.999852 
2.2500601e+2, 1.8683933e+2, -1157545.8, -1166149.4, 4202.615, -0.0674909, 0.007334105, -1155833.6, -46855.332, 0.0, 9.999886, 9.999778 
2.2500987e+2, 1.9683954e+2, -901700.56, -995469.1, 28632.998, -0.005136599, 0.041332662, -893648.6, 117326.625, 0.0, 10.000986, 9.999747 
2.250155e+2, 2.0683901e+2, -837722.44, -942533.0, 97436.875, 0.053871937, 0.029515443, -779492.0, 133487.27, 0.0, 10.000878, 9.999487 
2.2502203e+2, 2.1683806e+2, -860240.8, -937445.44, 54824.63, 0.11195075, -0.02007436, -831791.8, -16804.463, 0.0, 10.000198, 9.999177 
2.2502697e+2, 2.2683701e+2, -744423.75, -996941.7, 18954.516, 0.093455955, 0.04468911, -743008.9, -26009.125, 0.0, 10.0010395, 9.997689 
2.2503105e+2, 2.3683584e+2, -414106.53, -785513.44, 42986.703, 0.033521987, 0.14985739, -409196.16, 209818.73, 0.0, 10.002625, 9.997706 
2.25036e+2, 2.4683368e+2, -316247.28, -689714.5, 90791.625, -0.003998441, 0.16514476, -295345.25, 225692.53, 0.0, 10.002635, 9.997686 
2.2504133e+2, 2.5683102e+2, -312230.63, -609665.44, 94758.375, -0.031154195, 0.119045526, -284607.4, 138457.03, 0.0, 10.00187, 9.997931 
2.2504558e+2, 2.6682937e+2, -124841.13, -361131.97, 34375.027, -0.09145517, 0.10671035, -119941.914, 205133.73, 0.0, 10.002024, 9.998891 
2.250493e+2, 2.7682817e+2, 24983.043, -293362.56, 682.61444, -0.16345719, 0.09139124, 24984.508, 252064.7, 0.0, 10.002619, 9.998397 
2.2505435e+2, 2.8682375e+2, -68121.58, -544893.06, 84273.91, -0.19583715, -0.050919726, -53663.78, 75457.99, 0.0, 10.002411, 9.996099 
2.2506003e+2, 2.96818e+2, -44822.74, -449416.63, 148844.58, -0.20719726, -0.25047812, 4035.171, 35214.734, 0.0, 10.001754, 9.996398 
2.2506636e+2, 3.0681497e+2, 93011.0, -195905.16, 89586.99, 0.00014407764, -0.27451694, 118535.17, 118535.17, 0.00000022631835, 10.001671, 9.9978485 
2.2507147e+2, 3.1681427e+2, 255417.98, 81268.28, 64450.652, 0.20188658, -0.15006667, 276675.56, 276675.56, 0.000005858523, 10.001918, 9.999633 
2.3497897e+2, 1.2683412e+2, -1886029.4, -1722807.5, -4542.2466, 0.039876, -0.081037074, -1722681.1, -25658.457, 0.0003226795, 9.998489, 10.000672 
2.3498216e+2, 1.3683528e+2, -1858947.5, -1719994.1, -890.3875, -0.04880882, 0.03656302, -1719988.4, -120972.05, 0.0001666326, 9.998276, 10.000123 
2.349881e+2, 1.4683655e+2, -1632802.1, -1444133.6, 20581.406, 0.12971126, 0.09306232, -1441914.6, 59087.945, 0.00005400246, 9.998653, 10.001156 
2.3499312e+2, 1.5683639e+2, -1458351.8, -1350738.1, 63170.094, 0.20812699, -0.034496475, -1321565.3, 81434.33, 0.000006396683, 9.999355, 10.000784 
2.3499748e+2, 1.6683653e+2, -1440750.0, -1436752.4, 108098.91, 0.12642549, -0.021812577, -1330633.8, -25634.217, 0.000000013163342, 9.999428, 9.999486 
2.3500173e+2, 1.7683686e+2, -1367946.8, -1337216.1, 87600.266, -0.012919054, 0.052599836, -1263643.8, -56643.24, 0.0, 9.999196, 9.99961 
2.3500663e+2, 1.8683645e+2, -1146649.5, -1138280.5, 45817.406, 0.002274562, 0.029079955, -1096457.0, 12547.733, 0.0, 9.999866, 9.999979 
2.350118e+2, 1.9683564e+2, -902935.2, -995102.6, 60201.617, 0.08557149, -0.056942478, -873203.75, 137807.1, 0.0, 10.000976, 9.999754 
2.3501664e+2, 2.0683514e+2, -899982.7, -1068106.9, 68347.55, 0.07755745, -0.01563298, -875703.56, 37311.766, 0.0, 10.000863, 9.998632 
2.350214e+2, 2.1683474e+2, -906245.4, -1026099.0, 46338.05, 0.024013154, 0.07392197, -890419.7, -75400.16, 0.0, 10.000172, 9.998581 
2.3502634e+2, 2.2683263e+2, -710800.4, -923871.0, 78786.84, -0.075754404, 0.028042773, -684832.4, 32207.65, 0.0, 10.001024, 9.998199 
2.3503138e+2, 2.3682965e+2, -383195.1, -715456.3, 89607.17, -0.19901386, -0.09846825, -360569.72, 258499.11, 0.0, 10.002603, 9.9981985 
2.3503682e+2, 2.4682827e+2, -290464.88, -633224.25, 58605.305, -0.18976158, -0.04862582, -280721.47, 240361.58, 0.0, 10.00262, 9.998082 
2.3504245e+2, 2.5682765e+2, -309085.6, -596309.06, 76013.12, -0.11133625, 0.073604666, -290209.4, 132880.84, 0.0, 10.001841, 9.998037 
2.3504825e+2, 2.6682535e+2, -209338.67, -532331.5, 55582.76, -0.03136588, 0.05669916, -200041.25, 125070.74, 0.0, 10.002007, 9.997725 
2.3505408e+2, 2.7682206e+2, -15706.005, -374807.53, 17780.92, 0.047019698, -0.05292474, -14827.7295, 212314.03, 0.0, 10.002604, 9.997846 
2.3505929e+2, 2.8681937e+2, 78767.22, -235470.25, 57523.72, 0.052453697, -0.13017249, 88966.375, 218130.42, 0.0, 10.002394, 9.998232 
2.3506407e+2, 2.9681706e+2, 71783.17, -202924.66, 130008.875, 0.0155538805, -0.1902303, 123554.625, 154735.94, 0.0, 10.001733, 9.998101 
2.3506786e+2, 3.0681443e+2, 84572.45, -208336.66, 96010.125, -0.019827984, -0.23978734, 113237.516, 113237.516, 0.00000035232202, 10.001653, 9.997771 
2.3506942e+2, 3.168136e+2, 230916.16, 37815.14, 83274.34, -0.20459495, -0.11818493, 261867.08, 261867.08, 0.000004626274, 10.001886, 9.999351 
2.4497801e+2, 1.268302e+2, -1756830.9, -1679832.8, 26928.078, 0.048337415, -0.11703071, -1671349.9, 25711.523, 0.00026302057, 9.999463, 10.000497 
2.449816e+2, 1.3683262e+2, -1754588.6, -1685410.5, 22497.828, 0.030232305, 0.14651315, -1678737.6, -79692.336, 0.0001305452, 9.9990635, 9.99998 
2.4498762e+2, 1.4683351e+2, -1478283.5, -1355129.3, 50032.313, 0.16992152, 0.16119546, -1337365.5, 163669.19, 0.000038366878, 9.999648, 10.001289 
2.4499239e+2, 1.5683249e+2, -1253543.6, -1239126.0, 27248.877, 0.13365628, -0.066003755, -1218148.5, 184889.47, 0.000003303544, 10.000704, 10.000903 
2.4499676e+2, 1.6683269e+2, -1297728.6, -1363982.4, 30069.36, 0.06382942, -0.053614426, -1286116.8, 18919.873, 0.00000000018007511, 10.000395, 9.99952 
2.4500117e+2, 1.7683353e+2, -1337716.8, -1325036.6, 42801.453, 0.0018528497, 0.06853689, -1288108.3, -81075.68, 0.0, 9.999415, 9.999588 
2.4500656e+2, 1.8683307e+2, -1215030.6, -1200861.5, 38259.535, 0.026532175, 0.05615358, -1169036.1, -59998.234, 0.0, 9.999525, 9.999713 
2.4501237e+2, 1.9683188e+2, -1030976.0, -1083582.0, 12284.54, 0.08490294, -0.040592935, -1028248.7, -17200.1, 0.0, 10.000212, 9.999515 
2.4501756e+2, 2.0683105e+2, -846473.6, -1056264.6, 29303.527, 0.061481338, -0.013111299, -842457.44, 70598.266, 0.0, 10.001289, 9.99851 
2.4502248e+2, 2.1683039e+2, -570033.8, -873108.0, 56358.98, -0.00020809275, 0.059737105, -559892.75, 255168.66, 0.0, 10.002517, 9.998505 
2.4502777e+2, 2.2682814e+2, -544749.5, -832232.9, 88544.04, -0.08864321, -0.002915504, -519666.66, 197415.88, 0.0, 10.002116, 9.998303 
2.4503323e+2, 2.3682511e+2, -616836.3, -811018.9, 66051.41, -0.18981084, -0.14674361, -596498.9, 22612.568, 0.0, 10.000926, 9.998348 
2.4503872e+2, 2.4682374e+2, -479834.13, -685455.9, 23318.406, -0.18914586, -0.12039879, -477222.88, 43901.152, 0.0, 10.001156, 9.998426 
2.4504419e+2, 2.568232e+2, -255541.88, -552994.06, 38673.76, -0.13505498, -0.023175642, -250595.88, 172532.86, 0.0, 10.002134, 9.998193 
2.4505055e+2, 2.6682082e+2, -115848.62, -564727.1, 63471.344, -0.047787692, -0.012251379, -107046.39, 218107.3, 0.0, 10.002979, 9.997035 
2.4505731e+2, 2.7681747e+2, 112786.21, -366136.34, 44221.75, 0.056487963, -0.06321752, 116835.234, 344024.22, 0.0, 10.003714, 9.997373 
2.4506246e+2, 2.8681576e+2, 268110.97, -85430.6, -23922.46, 0.07891677, -0.053626925, 269722.34, 398925.44, 0.0, 10.003441, 9.998759 
2.4506669e+2, 2.9681498e+2, 241405.33, -69840.13, -65375.008, 0.05711718, -0.017940205, 254579.3, 285784.9, 0.0000000013688052, 10.002681, 9.998559 
2.4507031e+2, 3.0681208e+2, 260783.08, -109611.88, -87289.12, 0.004792016, -0.115230955, 280323.22, 280323.22, 0.0000004962174, 10.002801, 9.997899 
2.4507181e+2, 3.1681085e+2, 424286.4, 105552.77, -86691.74, -0.22419487, -0.042482562, 446339.66, 446339.66, 0.000003775711, 10.003327, 9.999123 
2.549764e+2, 1.268283e+2, -1774664.4, -1718184.1, 7682.3438, -0.07145989, -0.0015552336, -1717157.9, -20075.723, 0.00020976436, 9.999466, 10.000234 
2.5497985e+2, 1.3682826e+2, -1775713.9, -1734670.6, 17249.232, -0.057613526, 0.04666882, -1728384.1, -129297.13, 0.00009902971, 9.9990835, 9.999633 
2.5498602e+2, 1.4682847e+2, -1516647.1, -1436322.9, 89335.3, 0.03691308, 0.042950172, -1378537.1, 122547.49, 0.000025643241, 9.999656, 10.000728 
2.549907e+2, 1.5682805e+2, -1278984.3, -1292641.4, 55475.984, -0.111851275, -0.07380882, -1229918.1, 173167.69, 0.0000014046367, 10.000707, 10.000534 
2.5499532e+2, 1.668285e+2, -1270516.5, -1306129.0, -9981.901, -0.121495664, -0.04577606, -1267909.5, 37171.78, 0.0, 10.000389, 9.999921 
2.5500023e+2, 1.7682941e+2, -1324168.1, -1296843.1, 17323.463, -0.038121942, 0.04620031, -1288442.9, -81369.27, 0.0, 9.999414, 9.999782 
2.5500572e+2, 1.8682915e+2, -1264832.8, -1304268.4, 62195.574, -0.013005373, 0.08927244, -1219304.3, -110226.45, 0.0, 9.999525, 9.999003 
2.5501153e+2, 1.9682825e+2, -1065949.0, -1152215.4, 44007.223, -0.025482932, 0.08913961, -1047461.5, -36372.688, 0.0, 10.000196, 9.99905 
2.5501817e+2, 2.0682676e+2, -807891.94, -970615.0, 75928.32, -0.010273141, 0.034557015, -777966.4, 135134.22, 0.0, 10.001266, 9.99911 
2.5502524e+2, 2.1682501e+2, -543263.25, -811326.2, 88780.12, 0.019432796, -0.05866499, -516526.72, 298586.28, 0.0, 10.00249, 9.998942 
2.5503117e+2, 2.2682354e+2, -565937.7, -872983.06, 40727.695, 0.033753444, -0.046557166, -560627.25, 156500.08, 0.0, 10.002101, 9.998031 
2.5503647e+2, 2.3682214e+2, -632217.44, -837808.25, 37548.95, 0.03844657, 0.002347119, -625574.2, -6431.081, 0.0, 10.000903, 9.998177 
2.5504154e+2, 2.4682008e+2, -460697.34, -643087.6, 59044.49, -0.026237518, -0.05301713, -443251.78, 77909.19, 0.0, 10.001143, 9.998723 
2.5504646e+2, 2.568177e+2, -242890.47, -523074.47, 76206.04, -0.12602238, -0.17255546, -223504.8, 199675.3, 0.0, 10.002118, 9.998406 
2.5505248e+2, 2.6681587e+2, -134243.98, -598455.4, 90882.83, -0.15767072, -0.099548414, -117085.27, 208115.6, 0.0, 10.002959, 9.996814 
2.55059e+2, 2.7681434e+2, 79951.73, -424703.34, 64462.9, -0.15238714, 0.05581622, 88055.85, 315278.66, 0.0, 10.003672, 9.996992 
2.5506383e+2, 2.8681293e+2, 190479.84, -240429.08, -55163.645, -0.13006333, 0.17415941, 197429.64, 326669.0, 0.0, 10.003414, 9.997707 
2.550678e+2, 2.9681158e+2, 184718.25, -184259.4, -83605.125, -0.10361096, 0.25850412, 202778.05, 234031.1, 0.0000000027819003, 10.002664, 9.997783 
2.5507364e+2, 3.0680794e+2, 281463.4, -59490.652, -67386.93, 0.052577097, 0.09196917, 294298.72, 294298.72, 0.000000431743, 10.002771, 9.998258 
2.550784e+2, 3.16806e+2, 404892.5, 76994.2, -53284.2, 0.090437405, 0.0682662, 413334.0, 413334.0, 0.0000031457828, 10.003275, 9.998952 
2.649758e+2, 1.268261e+2, -1891661.0, -1741886.6, 40494.91, -0.026870292, 0.058685634, -1731639.1, -34534.785, 0.00016526908, 9.998518, 10.000526 
2.6497844e+2, 1.3682465e+2, -1750026.6, -1709775.6, 83907.49, -0.1106841, -0.06342369, -1643613.8, -44494.367, 0.000073295, 9.999204, 9.999746 
2.6498482e+2, 1.4682478e+2, -1663177.3, -1588279.3, 170172.67, -0.015023578, -0.036441438, -1451483.8, 49635.96, 0.000016155976, 9.9990015, 9.999999 
2.6499003e+2, 1.5682535e+2, -1647635.4, -1530603.5, 117719.664, -0.13583057, 0.01589539, -1457658.3, -54542.348, 0.00000046134082, 9.998442, 9.9999895 
2.6499504e+2, 1.6682553e+2, -1440848.0, -1362590.1, 40128.523, -0.12637751, 0.02714013, -1345671.1, -40557.848, 0.0, 9.999113, 10.000148 
2.6500022e+2, 1.7682551e+2, -1173764.4, -1208934.4, 54640.605, -0.028163997, 0.0053120903, -1133948.8, 73162.39, 0.0, 10.000383, 9.999918 
2.6500595e+2, 1.8682514e+2, -1089612.6, -1251704.4, 126134.83, -0.0078045484, 0.046567146, -1020730.44, 88385.164, 0.0, 10.000864, 9.99872 
2.65012e+2, 1.9682449e+2, -974705.25, -1134952.1, 135305.3, -0.033478703, 0.10150865, -897579.56, 113544.336, 0.0, 10.000935, 9.998815 
2.6501888e+2, 2.0682281e+2, -894100.3, -1015694.5, 152256.23, -0.033747517, 0.03668588, -790951.56, 122186.48, 0.0, 10.000691, 9.999077 
2.650262e+2, 2.168206e+2, -860438.4, -960332.75, 112991.03, -0.019458119, -0.098683484, -786847.4, 28307.875, 0.0, 10.000298, 9.998974 
2.6503256e+2, 2.2681963e+2, -735320.5, -915916.8, 64532.094, 0.030721627, -0.057532243, -714631.5, 2533.5288, 0.0, 10.000771, 9.998377 
2.6503837e+2, 2.3681924e+2, -498159.22, -744056.44, 108082.19, 0.09808786, 0.05691837, -457406.5, 161765.0, 0.0, 10.001695, 9.998441 
2.6504382e+2, 2.4681728e+2, -309037.78, -583470.44, 154266.42, 0.03395028, 0.0075096055, -239792.39, 281395.8, 0.0, 10.002241, 9.998607 
2.650491e+2, 2.568145e+2, -180550.11, -498522.8, 133973.05, -0.09485886, -0.1387358, -131629.19, 291581.22, 0.0, 10.002572, 9.998356 
2.65055e+2, 2.6681244e+2, -256824.2, -639516.9, 135781.02, -0.15512012, -0.09754721, -213543.38, 111689.07, 0.0, 10.002043, 9.996971 
2.6506114e+2, 2.7681074e+2, -294493.3, -608128.56, 139194.66, -0.17629015, 0.027057823, -241628.05, -14373.362, 0.0, 10.001117, 9.996959 
2.650659e+2, 2.868086e+2, -93287.61, -482292.6, 55889.402, -0.1875776, 0.13015133, -85417.06, 43863.18, 0.0, 10.00192, 9.996765 
2.6507e+2, 2.9680625e+2, 259427.75, -228469.86, 23349.135, -0.1929693, 0.2049492, 260542.61, 291850.06, 0.0000000015775828, 10.003524, 9.997065 
2.6507622e+2, 3.0680302e+2, 325993.13, -14953.53, 7634.4404, 0.029209327, 0.09653252, 326163.97, 326163.97, 0.00000026885039, 10.0029745, 9.998467 
2.6508155e+2, 3.168019e+2, 110998.49, -88600.1, 16369.859, 0.17803301, 0.13628922, 112332.13, 112332.13, 0.000002527563, 10.001357, 9.998738 
2.749761e+2, 1.268235e+2, -1832165.5, -1617401.5, 64115.816, 0.13910104, 0.058895845, -1599716.6, 97412.31, 0.00013112096, 9.99852, 10.001376 
2.7497727e+2, 1.3682173e+2, -1710884.5, -1624168.9, 100034.65, -0.15130122, -0.18647654, -1558499.9, 40643.07, 0.000054122807, 9.99919, 10.000337 
2.7498397e+2, 1.4682244e+2, -1728776.6, -1721594.8, 145136.34, -0.0034401808, -0.07249597, -1580004.9, -78865.06, 0.000009862749, 9.998987, 9.999093 
2.749903e+2, 1.5682437e+2, -1696337.1, -1633905.6, 110061.125, 0.0438354, 0.20726936, -1550719.1, -147591.05, 0.00000011248763, 9.998451, 9.999278 
2.7499574e+2, 1.6682377e+2, -1435064.4, -1352268.8, 87306.51, 0.03144917, 0.16361351, -1297042.5, 8090.124, 0.0, 9.999121, 10.000215 
2.7500105e+2, 1.7682183e+2, -1169166.0, -1198134.6, 96429.836, 0.012454687, -0.058751296, -1086138.8, 121007.13, 0.0, 10.000378, 9.999994 
2.750072e+2, 1.8682098e+2, -1083765.3, -1234307.4, 127509.945, 0.024611142, -0.07384807, -1010967.0, 98184.47, 0.0, 10.000842, 9.99885 
2.7501372e+2, 1.9682068e+2, -977289.8, -1136817.4, 136410.95, 0.04028331, 0.0021453288, -899033.94, 112119.56, 0.0, 10.000922, 9.998807 
2.7501965e+2, 2.0681925e+2, -941872.06, -1111727.9, 135064.0, -0.029094176, -0.00010640539, -867253.6, 45913.934, 0.0, 10.000677, 9.9984255 
2.750254e+2, 2.1681717e+2, -888966.9, -1014342.4, 109049.734, -0.13792214, -0.060198747, -825870.7, -10682.362, 0.0, 10.000276, 9.998612 
2.7503192e+2, 2.2681642e+2, -672280.25, -781157.56, 98080.836, -0.1134786, -0.0369161, -614543.06, 102653.0, 0.0, 10.000753, 9.9993105 
2.7503884e+2, 2.3681635e+2, -454628.97, -647466.3, 140931.33, -0.02485608, 0.017625839, -380289.9, 238907.39, 0.0, 10.001667, 9.999118 
2.7504554e+2, 2.4681528e+2, -347493.8, -658183.2, 165733.94, -0.023257373, 0.059415806, -275682.8, 245523.6, 0.0, 10.00222, 9.998103 
2.7505204e+2, 2.568136e+2, -207696.72, -549051.56, 139043.17, -0.06488515, 0.07307892, -158229.22, 264991.3, 0.0, 10.002545, 9.998022 
2.75058e+2, 2.668105e+2, -222662.56, -562438.1, 96664.4, -0.062293075, -0.007091642, -197087.13, 128161.9, 0.0, 10.00202, 9.997509 
2.7506363e+2, 2.768067e+2, -275988.56, -565919.56, 122536.664, -0.041264255, -0.14673124, -231137.75, -3852.7046, 0.0, 10.001103, 9.997253 
2.750686e+2, 2.8680286e+2, -153478.31, -605359.6, 117731.05, -0.11434335, -0.17925957, -124644.99, 4680.9326, 0.0, 10.00191, 9.995925 
2.7507314e+2, 2.9679897e+2, 208068.83, -328477.13, 66118.58, -0.23521008, -0.17253298, 216096.52, 247465.64, 0.00000000023047185, 10.003492, 9.996394 
2.7507812e+2, 3.0679736e+2, 327629.3, -6274.739, -54644.6, -0.08376004, -0.09668153, 336344.63, 336344.63, 0.00000011849351, 10.002954, 9.998534 
2.7508125e+2, 3.1679833e+2, 86036.03, -133303.08, -24710.088, -0.0002027216, 0.14873046, 88785.336, 88785.336, 0.0000016608433, 10.0013275, 9.998444 
2.849739e+2, 1.268197e+2, -1985715.1, -1683534.4, 26326.27, 0.12025827, 0.03111234, -1681257.9, 15909.067, 0.000106857166, 9.997433, 10.001449 
2.8497615e+2, 1.3681951e+2, -1897053.9, -1700384.3, -13541.525, -0.112982795, -0.06672496, -1699456.3, -100290.766, 0.000041325715, 9.997852, 10.000461 
2.8498322e+2, 1.4681982e+2, -1793101.0, -1738944.0, 55037.168, 0.050747715, -0.0067988457, -1704684.6, -203519.8, 0.0000062880904, 9.998488, 9.999215 
2.849894e+2, 1.5682067e+2, -1575374.6, -1571026.8, 94071.2, 0.06767707, 0.15284035, -1479104.4, -75942.92, 0.000000028346124, 9.999258, 9.999323 
2.8499514e+2, 1.6681992e+2, -1417966.9, -1380242.9, 92675.98, 0.045313355, 0.112588815, -1304528.9, 638.84534, 0.0, 9.999397, 9.999888 
2.85001e+2, 1.7681831e+2, -1351139.8, -1311311.3, 68323.51, 0.028735755, -0.043150965, -1260058.9, -52879.586, 0.0, 9.999243, 9.9997635 
2.8500766e+2, 1.8681721e+2, -1194320.6, -1263396.0, 100305.984, 0.033535924, -0.088422, -1122772.8, -13586.191, 0.0, 9.999979, 9.999065 
2.850147e+2, 1.9681633e+2, -939034.25, -1101034.0, 104244.62, 0.036612384, -0.090440474, -888019.3, 123172.68, 0.0, 10.001106, 9.998965 
2.8502044e+2, 2.0681512e+2, -903570.25, -1097486.6, 99433.305, -0.031057786, -0.073327035, -861647.7, 51556.285, 0.0, 10.000958, 9.998385 
2.850257e+2, 2.1681368e+2, -905573.4, -1026164.56, 121082.266, -0.1291629, -0.06533336, -830604.5, -15384.629, 0.0, 10.000179, 9.998578 
2.8503233e+2, 2.2681282e+2, -749368.0, -821623.56, 122341.0, -0.12292215, -0.050839756, -657931.9, 59296.797, 0.0, 10.000241, 9.99928 
2.8503963e+2, 2.3681222e+2, -591886.56, -714362.3, 88834.5, -0.064993925, -0.045149986, -545228.0, 74006.08, 0.0, 10.000731, 9.999106 
2.8504676e+2, 2.4681115e+2, -503092.06, -730343.5, 108818.47, -0.06654059, -0.004331542, -459389.28, 61854.28, 0.0, 10.001142, 9.998126 
2.8505373e+2, 2.5680977e+2, -350783.1, -610869.6, 115136.055, -0.09534027, 0.037136074, -307138.25, 116117.586, 0.0, 10.0015335, 9.998087 
2.850602e+2, 2.6680702e+2, -160346.02, -503754.72, 64057.78, -0.056581635, -0.030463828, -148786.11, 176495.28, 0.0, 10.002322, 9.997768 
2.8506637e+2, 2.7680346e+2, 62630.4, -362782.13, 67834.77, 0.016419098, -0.1672327, 73185.22, 300499.3, 0.0, 10.003253, 9.997617 
2.8507164e+2, 2.8679988e+2, 40131.008, -424113.66, 147652.05, -0.04737637, -0.2356696, 83112.12, 212461.53, 0.0, 10.002859, 9.996715 
2.8507632e+2, 2.9679626e+2, 8547.549, -360524.03, 209355.11, -0.18180056, -0.2779659, 103087.055, 134472.7, 0.00000000083608903, 10.00185, 9.996964 
2.85081e+2, 3.0679473e+2, 250974.02, -109207.49, 92302.9, -0.07577124, -0.18273087, 273250.53, 273250.53, 0.00000014515044, 10.00271, 9.997944 
2.8508365e+2, 3.167943e+2, 485644.38, -20149.521, 77253.77, -0.043218333, -0.016813656, 497180.8, 497180.8, 0.0000011258197, 10.0044155, 9.997733 
2.9496896e+2, 1.2681472e+2, -2034842.0, -1785626.4, 43681.395, -0.12716003, -0.0213995, -1778191.9, -80973.695, 0.00009036305, 9.997432, 10.000751 
2.9497504e+2, 1.3681807e+2, -1918854.1, -1747896.1, 4213.6094, -0.015889846, 0.29803076, -1747792.3, -148605.86, 0.00003357825, 9.997862, 10.000131 
2.9498252e+2, 1.4681691e+2, -1714891.5, -1575661.8, 81337.22, 0.12581451, 0.15993604, -1538216.0, -37021.273, 0.0000046865553, 9.998485, 10.000338 
2.9498714e+2, 1.5681417e+2, -1522238.6, -1455767.8, 118163.54, -0.0866854, -0.14998761, -1366254.5, 36961.855, 0.00000001715619, 9.99924, 10.00012 
2.949931e+2, 1.6681398e+2, -1471782.6, -1489060.6, 84171.07, -0.10338138, -0.12414095, -1395808.4, -90589.805, 0.0, 9.999383, 9.999149 
2.95e+2, 1.7681497e+2, -1388924.9, -1390236.8, 73283.05, 0.00083652296, 0.05262547, -1316294.9, -109083.14, 0.0, 9.999245, 9.999222 
2.9500735e+2, 1.8681377e+2, -1175145.6, -1219596.0, 142603.89, -0.00010508446, 0.0005408392, -1053045.4, 56175.914, 0.0, 9.999963, 9.999373 
2.9501486e+2, 1.9681142e+2, -917113.5, -1052240.6, 136282.72, -0.060942948, -0.17871584, -832565.9, 178673.55, 0.0, 10.001092, 9.999307 
2.950212e+2, 2.0681046e+2, -869144.9, -1020686.6, 67747.66, -0.055648144, -0.18249106, -843274.4, 69972.875, 0.0, 10.0009365, 9.998923 
2.9502705e+2, 2.1681015e+2, -890791.56, -989192.25, 101867.03, -0.015095324, -0.11251804, -826865.6, -11615.31, 0.0, 10.0001545, 9.998843 
2.9503363e+2, 2.2680882e+2, -821300.44, -965904.94, 138783.84, -0.017607352, -0.09797937, -737114.44, -19851.248, 0.0, 10.000219, 9.9983 
2.950406e+2, 2.3680691e+2, -644986.7, -819273.5, 108455.52, -0.04400421, -0.12724274, -593002.2, 26279.344, 0.0, 10.000709, 9.998398 
2.950475e+2, 2.4680498e+2, -465837.44, -651354.75, 121574.86, -0.11325654, -0.17722264, -405675.8, 115623.26, 0.0, 10.001132, 9.998674 
2.9505423e+2, 2.56803e+2, -322270.06, -547842.94, 136366.72, -0.20325467, -0.24925458, -258091.36, 165225.1, 0.0, 10.001515, 9.998529 
2.9506162e+2, 2.6680177e+2, -166812.75, -512542.75, 99483.766, -0.15261513, -0.17438546, -140230.19, 185100.1, 0.0, 10.002302, 9.997718 
2.9506925e+2, 2.7680093e+2, 85242.945, -309007.72, 92212.63, -0.028762598, -0.043286905, 105744.74, 333087.34, 0.0, 10.0032215, 9.998002 
2.950749e+2, 2.8679958e+2, 203253.92, -78857.36, 104071.03, -0.0110433865, -0.043896627, 237490.81, 366842.25, 0.0, 10.002834, 9.999097 
2.9507947e+2, 2.9679793e+2, 127989.72, -108037.945, 190321.84, -0.05570666, -0.122198194, 233917.11, 265275.84, 0.000000000815003, 10.001831, 9.998708 
2.9508483e+2, 3.0679503e+2, 161960.58, -288866.38, 155168.83, 0.03357401, -0.16373353, 210204.92, 210204.92, 0.00000014882718, 10.00269, 9.99672 
2.950886e+2, 3.167896e+2, 404248.72, -183882.14, 151314.55, -0.0034045414, -0.37336642, 440895.53, 440895.53, 0.0000009767843, 10.004388, 9.996624 
3.049664e+2, 1.2680967e+2, -1812055.5, -1683414.8, 3971.1387, -0.20109244, 0.0015087182, -1683292.3, 13974.719, 0.000079028214, 9.998981, 10.000706 
3.049736e+2, 1.3681215e+2, -1758944.0, -1655630.5, -2154.3735, 0.007068021, 0.22834979, -1655585.6, -56342.25, 0.000029149944, 9.998889, 10.000272 
3.0498135e+2, 1.4681102e+2, -1672853.9, -1479748.8, 73749.32, 0.16585912, 0.04626785, -1454805.0, 46444.598, 0.000004277796, 9.99845, 10.001009 
3.0498564e+2, 1.5680905e+2, -1676619.8, -1473729.0, 74596.4, -0.09226201, -0.2513081, -1449254.6, -45993.445, 0.000000032166714, 9.997935, 10.000627 
3.0499208e+2, 1.6680934e+2, -1605228.3, -1567384.5, 74468.32, -0.101742774, -0.19025843, -1509471.8, -204212.36, 0.0, 9.998526, 9.999025 
3.049998e+2, 1.7681062e+2, -1336584.6, -1375895.5, 104372.21, 0.03635399, 0.027658109, -1250033.3, -42781.375, 0.0, 9.999647, 9.9991255 
3.0500725e+2, 1.8680963e+2, -1222303.1, -1244635.0, 169902.31, 0.009421633, 0.0009412815, -1063200.3, 46061.05, 0.0, 9.999651, 9.9993515 
3.050145e+2, 1.9680747e+2, -1198584.8, -1181061.3, 135266.78, -0.10588835, -0.15690742, -1054272.8, -42993.703, 0.0, 9.999137, 9.999362 
3.0502135e+2, 2.068068e+2, -1003271.5, -1047493.44, 51122.7, -0.079748, -0.15564898, -969683.06, -56399.58, 0.0, 9.999851, 9.999264 
3.0502805e+2, 2.1680677e+2, -730118.4, -890183.2, 69682.3, 0.020319156, -0.09155645, -704033.9, 111248.23, 0.0, 10.00116, 9.999042 
3.0503502e+2, 2.2680485e+2, -608407.0, -909384.75, 140080.78, 0.018389683, -0.11782736, -553300.3, 163999.22, 0.0, 10.00188, 9.997887 
3.0504218e+2, 2.3680198e+2, -436405.78, -753852.25, 141937.33, -0.038282678, -0.20350832, -382198.8, 237127.92, 0.0, 10.002293, 9.998084 
3.0504903e+2, 2.4680005e+2, -338359.88, -573034.56, 133286.84, -0.108136036, -0.24850224, -278120.66, 243223.81, 0.0, 10.001935, 9.998825 
3.050558e+2, 2.567986e+2, -355825.53, -545909.0, 121391.016, -0.18221763, -0.28515404, -296696.22, 126661.37, 0.0, 10.001206, 9.99869 
3.0506337e+2, 2.6679775e+2, -305739.88, -558111.3, 118977.86, -0.1551543, -0.19038041, -258493.86, 66874.35, 0.0, 10.001259, 9.997906 
3.0507126e+2, 2.767972e+2, -117747.79, -385086.25, 117390.37, -0.07252391, -0.046631914, -73518.28, 153859.48, 0.0, 10.0017395, 9.99819 
3.0507725e+2, 2.8679612e+2, 172205.25, -70275.83, 8503.774, -0.04321306, -0.04258347, 172503.11, 301886.97, 0.0, 10.002522, 9.999304 
3.0508217e+2, 2.9679474e+2, 363544.2, 17324.17, -60055.355, -0.04402491, -0.11476414, 373665.5, 405053.47, 0.0, 10.003399, 9.998812 
3.050884e+2, 3.0679217e+2, 289943.16, -269824.84, -74727.31, 0.07073745, -0.103779614, 299747.3, 299747.3, 0.000000047151687, 10.00375, 9.996341 
3.0509344e+2, 3.1678602e+2, 307238.53, -243547.94, -15954.947, 0.077767506, -0.3506638, 307700.3, 307700.3, 0.0000007440242, 10.003779, 9.996505 
3.1496608e+2, 1.2680462e+2, -1768324.3, -1595746.8, 5684.079, -0.13887133, 0.10090282, -1595559.8, 101753.18, 0.000070953254, 9.998998, 10.001299 
3.1497183e+2, 1.3680178e+2, -1712363.6, -1560767.0, -9366.782, -0.06471378, -0.2747532, -1560190.5, 39145.582, 0.00002673591, 9.998901, 10.000916 
3.1497967e+2, 1.4680214e+2, -1658208.6, -1450896.6, 50829.02, 0.14828, -0.34525004, -1439105.0, 62224.19, 0.0000044998383, 9.998454, 10.001206 
3.1498483e+2, 1.568053e+2, -1659623.4, -1437734.4, 67423.64, 0.028215308, -0.14859726, -1418853.5, -15557.876, 0.00000006594377, 9.997932, 10.0008745 
3.1499195e+2, 1.66806e+2, -1572809.4, -1497794.1, 116372.4, 0.030939281, -0.08565998, -1413034.3, -107744.305, 0.0, 9.998516, 9.999508 
3.150003e+2, 1.7680527e+2, -1315685.5, -1328859.1, 137504.9, 0.11724135, -0.11779721, -1184609.8, 22690.1, 0.0, 9.999633, 9.999455 
3.1500727e+2, 1.868048e+2, -1247120.0, -1295733.3, 147658.63, 0.041902542, -0.08383695, -1121780.8, -12474.34, 0.0, 9.999647, 9.999004 
3.1501356e+2, 1.9680446e+2, -1217659.6, -1217944.8, 129836.32, -0.12074399, -0.027852584, -1087965.8, -76654.56, 0.0, 9.999124, 9.999117 
3.1502077e+2, 2.0680405e+2, -997190.6, -1026805.7, 99257.36, -0.12368346, 0.0023042301, -911642.4, 1670.9437, 0.0, 9.999818, 9.999421 
3.1502864e+2, 2.168035e+2, -722955.9, -868710.75, 115340.82, -0.041310854, 0.0000047333374, -659397.9, 155917.19, 0.0, 10.001133, 9.999202 
3.1503645e+2, 2.2680096e+2, -601623.4, -890387.8, 155192.2, -0.033885617, -0.105667986, -534036.6, 183300.67, 0.0, 10.001859, 9.998029 
3.1504422e+2, 2.3679738e+2, -435643.0, -746013.4, 153297.02, -0.06709535, -0.2752779, -372694.25, 246675.73, 0.0, 10.002266, 9.998151 
3.1505144e+2, 2.467963e+2, -358929.72, -611738.6, 102622.41, -0.06940346, -0.22363032, -322516.97, 198863.56, 0.0, 10.001917, 9.998568 
3.150583e+2, 2.5679645e+2, -366558.44, -563317.94, 102468.36, -0.0558787, -0.07455359, -322887.72, 100492.23, 0.0, 10.001186, 9.99858 
3.1506535e+2, 2.667949e+2, -275614.4, -494857.72, 135015.39, -0.084021784, -0.07591153, -211322.11, 114073.03, 0.0, 10.001253, 9.998344 
3.1507242e+2, 2.767923e+2, -117951.38, -383728.4, 140432.66, -0.13543805, -0.17490368, -57499.035, 169920.64, 0.0, 10.001729, 9.998205 
3.1507865e+2, 2.8678945e+2, 34824.277, -350685.75, 40600.36, -0.15986891, -0.23148195, 39053.742, 168500.14, 0.0, 10.0025015, 9.997387 
3.1508437e+2, 2.967867e+2, 256164.05, -200040.86, -29204.252, -0.17079268, -0.25696486, 258025.97, 289498.34, 0.0, 10.003376, 9.997329 
3.1509167e+2, 3.0678615e+2, 318805.7, -206707.22, -73761.13, 0.017626114, -0.0077136736, 328962.5, 328962.5, 0.000000091635464, 10.0037365, 9.996782 
3.1509805e+2, 3.167833e+2, 362591.63, -120094.35, -2091.9106, 0.1482485, 0.026926393, 362600.7, 362600.7, 0.0000011251228, 10.003742, 9.997373 
3.249635e+2, 1.2679815e+2, -2410790.0, -1843495.3, 53310.004, -0.062108297, 0.057644174, -1838529.1, -141154.75, 0.000065481014, 9.994323, 10.001856 
3.2496905e+2, 1.3679583e+2, -2081153.0, -1677032.4, 12830.117, -0.09004825, -0.33043534, -1676625.4, -77233.57, 0.000025738174, 9.996105, 10.001469 
3.2497722e+2, 1.4679684e+2, -1872359.0, -1566887.4, 33265.86, 0.1284347, -0.35184428, -1563306.8, -61926.29, 0.000005011868, 9.997044, 10.00109 
3.249829e+2, 1.5680087e+2, -1707560.3, -1457932.3, 28848.486, 0.058862638, -0.0612523, -1454641.8, -51300.29, 0.000000115129794, 9.997593, 10.000898 
3.2499033e+2, 1.6680165e+2, -1582665.5, -1433043.0, 107170.84, 0.03809255, -0.026126198, -1377154.9, -71821.62, 0.0, 9.998153, 10.000126 
3.2499894e+2, 1.7680067e+2, -1415665.3, -1326192.9, 128253.31, 0.0630959, -0.14270943, -1235097.4, -27755.338, 0.0, 9.99873, 9.999908 
3.250065e+2, 1.8680009e+2, -1327298.8, -1366090.9, 119988.09, 0.022182599, -0.12089707, -1225149.1, -115799.54, 0.0, 9.999235, 9.998719 
3.2501355e+2, 1.9679971e+2, -1151741.5, -1211928.0, 108387.33, -0.059450656, -0.041278318, -1069347.4, -57990.793, 0.0, 9.999686, 9.998887 
3.25021e+2, 2.067991e+2, -956017.75, -1003816.9, 105112.18, -0.095161624, -0.023673005, -872122.4, 41238.39, 0.0, 10.000085, 9.999451 
3.2502878e+2, 2.1679834e+2, -815705.56, -901076.2, 104445.875, -0.10337405, -0.052866027, -745559.25, 69804.83, 0.0, 10.000443, 9.9993105 
3.2503706e+2, 2.2679637e+2, -750846.44, -913199.06, 140813.58, -0.09618702, -0.13173011, -669486.44, 47894.184, 0.0, 10.000618, 9.998471 
3.2504553e+2, 2.3679374e+2, -638225.06, -807625.5, 156685.52, -0.08134273, -0.2498789, -544811.6, 74592.68, 0.0, 10.000714, 9.998478 
3.250531e+2, 2.4679272e+2, -465059.2, -684691.3, 115067.17, -0.060620107, -0.19156136, -415815.47, 105598.39, 0.0, 10.001283, 9.998373 
3.2506013e+2, 2.5679252e+2, -245494.92, -523953.13, 116715.96, -0.037739877, -0.061380282, -203044.75, 220371.69, 0.0, 10.002101, 9.998408 
3.250674e+2, 2.6679048e+2, -87011.766, -417274.8, 136464.33, -0.070984825, -0.095223315, -37921.594, 287513.5, 0.0, 10.002605, 9.998227 
3.250748e+2, 2.7678737e+2, 42847.523, -332589.34, 101192.97, -0.13087502, -0.23193309, 68385.336, 295848.72, 0.0, 10.002946, 9.997973 
3.2508153e+2, 2.8678378e+2, 98672.445, -405092.88, 55809.355, -0.16065286, -0.30889466, 104781.18, 234280.44, 0.0, 10.003305, 9.996629 
3.2508782e+2, 2.967802e+2, 258696.89, -261183.17, 61253.25, -0.17553793, -0.3399091, 265816.38, 297352.75, 0.000000002459568, 10.003663, 9.996772 
3.250949e+2, 3.067802e+2, 328564.1, -150896.0, 22284.61, -0.021093423, -0.046172716, 329597.63, 329597.63, 0.0000003480433, 10.003591, 9.9972315 
3.251009e+2, 3.1677845e+2, 348151.28, -32431.727, 93211.52, 0.08619734, 0.051785342, 369754.22, 369754.22, 0.0000023928435, 10.0032425, 9.998212 
3.3495843e+2, 1.2679023e+2, -2371357.3, -1761990.3, 129163.086, -0.013734493, -0.1273996, -1735743.0, -38291.516, 0.000062317085, 9.9943285, 10.00241 
3.349652e+2, 1.3679439e+2, -2048752.5, -1605455.6, 72394.664, -0.087498225, 0.06426002, -1593932.4, 5477.971, 0.000025687143, 9.99609, 10.001964 
3.349739e+2, 1.4679521e+2, -1907549.1, -1636104.6, 53616.39, 0.08796519, 0.029532172, -1625898.0, -124495.06, 0.00000555994, 9.997027, 10.000621 
3.349797e+2, 1.5679573e+2, -1723826.0, -1491166.5, 52263.64, -0.024646504, 0.013550554, -1479965.5, -76566.91, 0.00000016881297, 9.997593, 10.000669 
3.3498713e+2, 1.6679634e+2, -1530247.6, -1325422.0, 127505.54, -0.10403908, -0.004977832, -1264292.6, 41096.48, 0.0, 9.998156, 10.000864 
3.349956e+2, 1.7679684e+2, -1376102.1, -1243639.6, 151743.64, -0.1463206, -0.045045175, -1144303.1, 63075.363, 0.0, 9.998726, 10.000479 
3.3500487e+2, 1.867955e+2, -1345720.9, -1400423.1, 135594.98, -0.07047693, -0.10924461, -1234746.0, -125355.1, 0.0, 9.999218, 9.998491 
3.3501443e+2, 1.9679321e+2, -1167854.5, -1243352.5, 127124.0, 0.05591932, -0.19698775, -1072993.1, -61577.86, 0.0, 9.999677, 9.998676 
3.3502194e+2, 2.0679197e+2, -964336.0, -1016495.7, 117094.88, -0.014349439, -0.23059826, -870451.8, 42973.926, 0.0, 10.000067, 9.999372 
3.3502844e+2, 2.1679121e+2, -815713.75, -893484.6, 118301.125, -0.18241552, -0.25027078, -730071.1, 85358.15, 0.0, 10.000411, 9.999378 
3.350368e+2, 2.2679102e+2, -703489.56, -807949.75, 142074.63, -0.18445958, -0.19764253, -604348.6, 113081.38, 0.0, 10.000588, 9.999209 
3.3504608e+2, 2.3679104e+2, -600355.25, -722815.3, 166170.45, -0.10257433, -0.12395549, -484492.84, 134937.03, 0.0, 10.000688, 9.999074 
3.3505398e+2, 2.4678937e+2, -476162.72, -704779.06, 143803.83, -0.102472395, -0.1495817, -406770.3, 114674.1, 0.0, 10.001269, 9.998242 
3.350612e+2, 2.5678676e+2, -264650.56, -560417.6, 145537.61, -0.1451577, -0.24050441, -205047.36, 218419.52, 0.0, 10.002088, 9.998164 
3.3506945e+2, 2.6678455e+2, -136339.64, -517363.84, 146930.77, -0.12824698, -0.24326174, -86261.82, 239226.1, 0.0, 10.002595, 9.997545 
3.3507824e+2, 2.767824e+2, 7415.611, -402195.7, 115179.42, -0.0820616, -0.2222753, 37581.563, 265091.0, 0.0, 10.002929, 9.997503 
3.3508578e+2, 2.8677902e+2, 123218.96, -351977.8, 68078.19, -0.06874241, -0.27975953, 132779.7, 262322.7, 0.0, 10.003294, 9.997 
3.3509246e+2, 2.967753e+2, 280169.97, -213471.56, 73281.24, -0.08317503, -0.36341715, 290818.88, 322399.16, 0.000000010344207, 10.003648, 9.9971075 
3.350981e+2, 3.0677417e+2, 355151.1, -92867.06, 6975.3457, -0.06394087, -0.21409953, 355259.66, 355259.66, 0.0000006175952, 10.00358, 9.997634 
3.3510187e+2, 3.1677136e+2, 401545.9, 81955.98, 90797.734, -0.1515985, -0.27132294, 425540.66, 425540.66, 0.000003744713, 10.00323, 9.9990015 
3.4495473e+2, 1.2678298e+2, -1783800.9, -1528784.9, 120785.02, -0.023465337, -0.19191809, -1480658.9, 216861.23, 0.00006045153, 9.9985695, 10.001965 
3.449625e+2, 1.3678896e+2, -1865128.3, -1538721.6, -33817.957, -0.033685874, 0.21258686, -1535254.8, 64210.36, 0.000025769237, 9.997436, 10.001776 
3.4497127e+2, 1.4678968e+2, -1835938.3, -1553660.3, -20967.37, 0.11334226, 0.15050554, -1552111.4, -50652.766, 0.000005876301, 9.997309, 10.001051 
3.449768e+2, 1.5678926e+2, -1665148.6, -1424617.6, 37799.17, -0.0854092, -0.002853308, -1418817.4, -15355.639, 0.0000002059256, 9.997828, 10.001013 
3.4498486e+2, 1.667896e+2, -1486985.3, -1307561.6, 102714.99, -0.15836157, -0.058713652, -1260896.9, 44557.594, 0.0, 9.998463, 10.000838 
3.4499452e+2, 1.7679024e+2, -1310762.8, -1202833.0, 65035.87, -0.14698952, -0.08630788, -1172288.4, 35154.855, 0.0, 9.999133, 10.000561 
3.4500414e+2, 1.8678945e+2, -1266636.9, -1297617.8, 63748.008, -0.074077085, -0.13230444, -1216524.3, -107074.664, 0.0, 9.999481, 9.99907 
3.4501377e+2, 1.9678797e+2, -1138303.4, -1177492.8, 110340.47, 0.023729894, -0.19653705, -1045831.25, -34366.29, 0.0, 9.999658, 9.999138 
3.4502193e+2, 2.0678672e+2, -1029008.75, -1060123.8, 117682.164, 0.000119435834, -0.2408543, -925860.2, -12384.902, 0.0, 9.999672, 9.999266 
3.4502944e+2, 2.1678557e+2, -941447.1, -967883.0, 114250.33, -0.08182904, -0.29153645, -839652.7, -24169.006, 0.0, 9.999602, 9.999259 
3.45038e+2, 2.2678551e+2, -816180.75, -881492.1, 101369.76, -0.089230195, -0.20907585, -742336.56, -24852.66, 0.0, 9.999901, 9.999033 
3.4504703e+2, 2.3678596e+2, -648715.4, -759161.94, 58885.19, -0.05980335, -0.07485103, -623210.25, -3729.6465, 0.0, 10.000418, 9.998952 
3.4505546e+2, 2.4678367e+2, -454115.25, -682746.7, 49602.99, -0.086723864, -0.16300488, -443817.4, 77682.664, 0.0, 10.001372, 9.998343 
3.4506354e+2, 2.5677994e+2, -194515.89, -519840.3, 61138.137, -0.14088783, -0.3766838, -183405.66, 240125.9, 0.0, 10.002536, 9.998229 
3.4507224e+2, 2.6677823e+2, -71333.78, -487551.75, 81151.414, -0.13459127, -0.33140713, -56071.1, 269477.06, 0.0, 10.003051, 9.997529 
3.4508118e+2, 2.767774e+2, 50991.184, -374283.63, 93358.01, -0.0965672, -0.17712693, 70582.94, 298141.3, 0.0, 10.003203, 9.99756 
3.4508908e+2, 2.8677458e+2, 146308.28, -298188.44, 62622.375, -0.065645315, -0.20470192, 154962.27, 284548.28, 0.0, 10.003273, 9.997376 
3.450963e+2, 2.967709e+2, 251381.77, -202880.45, 66110.99, -0.04906255, -0.31519789, 260807.63, 292428.25, 0.000000017009244, 10.003343, 9.997328 
3.451021e+2, 3.0676824e+2, 449639.84, -88683.07, -19678.082, -0.059000038, -0.306897, 450358.2, 450358.2, 0.0000008263763, 10.004396, 9.997274 
3.451063e+2, 3.1676406e+2, 780784.0, 252117.67, 6867.381, -0.16423824, -0.46826786, 780873.2, 780873.2, 0.000004766842, 10.005881, 9.998902 
3.5495234e+2, 1.2677643e+2, -1887331.9, -1746528.1, 86254.67, -0.13423131, -0.1381904, -1705591.4, -8011.0713, 0.00005848329, 9.998585, 10.00046 
3.5496074e+2, 1.3677952e+2, -1926599.0, -1668923.6, -68085.1, 0.044416085, 0.112453505, -1652039.9, -52483.47, 0.000025162211, 9.997452, 10.000871 
3.5496932e+2, 1.4678028e+2, -1740774.6, -1362379.4, -4494.285, 0.17722128, 0.014794726, -1362326.0, 139221.58, 0.0000057861466, 9.997333, 10.002356 
3.5497412e+2, 1.5678142e+2, -1598150.8, -1287759.1, 60139.61, -0.14149727, -0.109207675, -1276514.1, 127017.23, 0.00000020730299, 9.997836, 10.00195 
3.5498354e+2, 1.6678146e+2, -1543176.9, -1422396.0, 126202.32, -0.14202863, -0.18968958, -1342879.3, -37349.434, 0.0, 9.998456, 10.000052 
3.5499555e+2, 1.767808e+2, -1340670.9, -1262198.6, 89157.83, 0.03782294, -0.26721328, -1204025.4, 3511.4119, 0.0, 9.999124, 10.000157 
3.5500434e+2, 1.8678193e+2, -1172756.3, -1099973.1, 69036.805, -0.009906593, -0.18772846, -1058323.5, 51202.297, 0.0, 9.99947, 10.000432 
3.5501146e+2, 1.9678389e+2, -1062032.1, -1016221.8, 116959.14, -0.17520942, -0.0415296, -919946.06, 91559.984, 0.0, 9.999644, 10.000251 
3.5502097e+2, 2.0678331e+2, -1039743.2, -1078397.4, 112916.65, -0.06727844, -0.058594562, -944511.5, -31001.488, 0.0, 9.999655, 9.999147 
3.5503164e+2, 2.1678136e+2, -964752.0, -1011423.8, 117862.91, 0.17580074, -0.17653815, -867937.06, -52409.867, 0.0, 9.999582, 9.998969 
3.5504046e+2, 2.2677985e+2, -894254.6, -1040961.94, 118930.836, 0.16641584, -0.16338077, -827875.3, -110333.27, 0.0, 9.999889, 9.997944 
3.5504836e+2, 2.3677853e+2, -708498.9, -881923.94, 84746.68, 0.026707942, -0.099920034, -673963.5, -54407.36, 0.0, 10.000411, 9.998112 
3.5505742e+2, 2.4677566e+2, -433897.25, -637230.0, 92339.55, -0.030618003, -0.23128572, -398222.3, 123358.37, 0.0, 10.001356, 9.998664 
3.55067e+2, 2.5677198e+2, -172531.94, -465636.66, 100202.695, -0.048950605, -0.47220764, -141550.7, 282059.8, 0.0, 10.0025, 9.998619 
3.5507554e+2, 2.6677144e+2, -32991.863, -399527.5, 86301.81, -0.11086451, -0.36228055, -13688.47, 311927.44, 0.0, 10.003015, 9.99815 
3.5508347e+2, 2.7677235e+2, 86089.58, -295488.28, 100674.6, -0.19254307, -0.09396759, 111022.2, 338632.03, 0.0, 10.00318, 9.998111 
3.550914e+2, 2.867703e+2, 168993.16, -249069.33, 61187.754, -0.16413157, -0.083175056, 177764.58, 307392.94, 0.0, 10.003263, 9.99772 
3.5509926e+2, 2.967669e+2, 256760.4, -188944.36, 78904.51, -0.08749323, -0.20535056, 270316.78, 301975.38, 0.000000013891744, 10.00333, 9.99743 
3.551069e+2, 3.0676234e+2, 371862.22, -244940.38, 36343.047, -0.023319276, -0.32891586, 373996.22, 373996.22, 0.00000091508196, 10.0043745, 9.996212 
3.5511386e+2, 3.1675676e+2, 706165.2, 114652.36, 69448.12, -0.002504705, -0.53061044, 714209.5, 714209.5, 0.0000056037916, 10.005808, 9.997991 
3.6495003e+2, 1.2676807e+2, -2370813.0, -1942983.5, -39014.62, -0.047786783, -0.07181831, -1939454.9, -241793.6, 0.000055231107, 9.99511, 10.00079 
3.6495697e+2, 1.3676855e+2, -2065033.3, -1693533.3, -77245.445, -0.021939555, -0.12800992, -1678111.9, -78453.445, 0.0000235055, 9.996318, 10.001249 
3.6496583e+2, 1.4676975e+2, -1805909.9, -1396244.9, -14108.759, 0.115354516, -0.19801311, -1395759.5, 105886.6, 0.00000526637, 9.996901, 10.002329 
3.6497197e+2, 1.5677279e+2, -1683097.6, -1321077.3, -50689.895, -0.108584635, -0.12846264, -1314113.6, 89500.87, 0.00000017249042, 9.997219, 10.002018 
3.6498207e+2, 1.6677384e+2, -1654092.4, -1424303.9, 47618.234, -0.085845806, -0.1377694, -1414827.0, -109221.57, 0.0, 9.997476, 10.000511 
3.6499432e+2, 1.7677374e+2, -1514025.3, -1292962.8, 97034.086, 0.07596375, -0.20562014, -1256413.1, -48804.277, 0.0, 9.997705, 10.000631 
3.650033e+2, 1.8677522e+2, -1322712.8, -1113345.6, 69187.17, 0.0071598566, -0.13921869, -1092548.0, 17045.969, 0.0, 9.998182, 10.000962 
3.6501062e+2, 1.9677745e+2, -1153036.8, -1010336.5, 53063.06, -0.18002613, -0.018472891, -992767.94, 18802.479, 0.0, 9.998801, 10.000699 
3.650205e+2, 2.0677727e+2, -1024163.0, -1061857.8, 42449.84, -0.07945365, -0.02056761, -996564.56, -82993.73, 0.0, 9.999725, 9.999227 
3.6503172e+2, 2.1677575e+2, -786550.06, -921553.3, 57521.895, 0.16473387, -0.10126513, -765365.56, 50218.973, 0.0, 10.000792, 9.999003 
3.6504102e+2, 2.2677366e+2, -648775.25, -942022.0, 117617.72, 0.14300941, -0.13638467, -607429.6, 110174.72, 0.0, 10.001653, 9.997777 
3.6504933e+2, 2.3677127e+2, -435266.38, -770554.75, 142339.44, -0.012583945, -0.16333117, -382989.94, 236637.78, 0.0, 10.002368, 9.997937 
3.6505902e+2, 2.4676894e+2, -399722.8, -642478.75, 128927.33, -0.022452688, -0.22201085, -344027.72, 177620.66, 0.0, 10.001684, 9.998471 
3.6506927e+2, 2.5676662e+2, -497470.97, -632486.7, 101227.72, 0.038704127, -0.30873087, -443305.63, -19637.91, 0.0, 10.000312, 9.9985285 
3.6507824e+2, 2.6676553e+2, -333320.7, -503704.5, 92081.7, -0.027367724, -0.26922807, -293066.6, 32610.389, 0.0, 10.000776, 9.998513 
3.6508653e+2, 2.76765e+2, -35090.496, -323280.9, 81153.07, -0.15376973, -0.18148953, -13809.619, 213872.38, 0.0, 10.002211, 9.998391 
3.650949e+2, 2.8676316e+2, 191828.94, -239826.45, 14596.6455, -0.14801413, -0.16370603, 192321.97, 322020.3, 0.0, 10.003426, 9.997707 
3.6510321e+2, 2.967607e+2, 415226.47, -122386.14, 2296.3052, -0.08205839, -0.18529926, 415236.28, 446956.28, 0.000000005069965, 10.004463, 9.997343 
3.6511114e+2, 3.0675623e+2, 368474.47, -279992.4, -10816.233, -0.04086693, -0.2773344, 368654.8, 368654.8, 0.00000092813343, 10.004501, 9.995909 
3.6511892e+2, 3.167516e+2, 416947.9, -79048.945, 67130.08, 0.013214518, -0.35145506, 425872.94, 425872.94, 0.0000065611184, 10.004057, 9.997501 
3.749476e+2, 1.2675792e+2, -2212797.3, -1618837.3, 16291.988, 0.18713376, 0.015319316, -1618390.8, 79372.66, 0.000050234245, 9.995118, 10.003012 
3.749511e+2, 1.3675609e+2, -1942319.0, -1441528.3, -37897.41, -0.24735056, -0.5059751, -1438676.6, 161094.36, 0.000020862959, 9.9963255, 10.002975 
3.7496075e+2, 1.4675805e+2, -1902947.6, -1596476.9, -4711.877, -0.085755035, -0.48963004, -1596404.5, -94650.2, 0.000004428325, 9.996898, 10.000956 
3.7497023e+2, 1.5676335e+2, -1741997.6, -1442538.0, -37849.36, -0.010880593, -0.062095236, -1437828.3, -34116.895, 0.00000011962439, 9.997219, 10.0011835 
3.7498027e+2, 1.6676675e+2, -1534997.6, -1178694.1, 54364.965, -0.014342759, 0.10001644, -1170583.8, 135097.78, 0.0, 9.997478, 10.002197 
3.749908e+2, 1.76769e+2, -1418832.6, -1097946.0, 110037.29, -0.05224211, 0.0984588, -1063837.9, 143822.06, 0.0, 9.997712, 10.001969 
3.75001e+2, 1.8676934e+2, -1344838.5, -1156674.5, 90096.87, -0.043484017, 0.012671527, -1120491.9, -10837.195, 0.0, 9.998174, 10.000667 
3.7501115e+2, 1.9676867e+2, -1170031.1, -1041268.94, 81136.36, -0.013370893, -0.12673068, -1002073.8, 9584.287, 0.0, 9.998785, 10.000492 
3.7502053e+2, 2.067686e+2, -1010606.44, -1028936.9, 81038.83, -0.052810177, -0.12332616, -938216.2, -24558.645, 0.0, 9.999704, 9.999463 
3.750296e+2, 2.1676873e+2, -766250.75, -873148.25, 97724.836, -0.13049006, -0.06349915, -708313.2, 107342.555, 0.0, 10.000766, 9.999348 
3.7503952e+2, 2.2676696e+2, -600532.25, -835611.94, 143287.69, -0.17246604, -0.12701616, -532742.7, 184928.36, 0.0, 10.001625, 9.998521 
3.7504992e+2, 2.3676418e+2, -407172.28, -700646.8, 157623.52, -0.19444919, -0.26484194, -338556.34, 281139.2, 0.0, 10.002319, 9.99844 
3.7506017e+2, 2.467635e+2, -453258.56, -745648.6, 74238.0, -0.07745727, -0.13672337, -435489.38, 86214.01, 0.0, 10.001652, 9.997779 
3.750703e+2, 2.5676382e+2, -537035.1, -714742.8, 69767.03, 0.10552094, 0.10625849, -512917.97, -89214.336, 0.0, 10.000312, 9.997963 
3.7508032e+2, 2.667605e+2, -328086.78, -493463.38, 144213.22, 0.09881689, -0.056104533, -244537.88, 81193.97, 0.0, 10.00078, 9.998582 
3.7509024e+2, 2.7675533e+2, -39737.332, -323363.9, 134688.66, -0.0065997737, -0.4391735, 14030.67, 241805.53, 0.0, 10.00217, 9.998409 
3.750994e+2, 2.8675312e+2, 160099.69, -294701.0, 52781.906, -0.044290327, -0.44022122, 166144.94, 295940.2, 0.0, 10.003379, 9.997353 
3.75108e+2, 2.9675245e+2, 394253.38, -158642.73, 34084.0, -0.053295165, -0.24847043, 396346.6, 428150.28, 0.0000000017565187, 10.004434, 9.997107 
3.7511483e+2, 3.0674997e+2, 393809.3, -225287.38, -29387.252, -0.123588845, -0.15265468, 395201.16, 395201.16, 0.0000009394437, 10.00449, 9.996292 
3.751214e+2, 3.1674856e+2, 404664.22, -96242.43, 59757.84, -0.15254776, 0.062530056, 411694.63, 411694.63, 0.0000073237447, 10.00402, 9.997402 
3.849431e+2, 1.2674706e+2, -2117227.5, -1500783.0, 79409.805, 0.20751745, -0.00083202345, -1490717.9, 207155.89, 0.000043715605, 9.995471, 10.003649 
3.8494697e+2, 1.3674761e+2, -2064637.5, -1423006.4, -117597.33, -0.23258677, -0.35871533, -1402132.4, 197724.81, 0.0000174898, 9.995152, 10.003671 
3.849572e+2, 1.4674975e+2, -2048089.5, -1630788.4, -28519.88, -0.07314401, -0.37244174, -1628848.3, -127010.61, 0.0000034194288, 9.995744, 10.001279 
3.8496757e+2, 1.567539e+2, -1776668.1, -1427893.4, 54362.117, 0.023794873, -0.09308819, -1419616.6, -15811.569, 0.00000006772674, 9.996842, 10.001469 
3.849779e+2, 1.667575e+2, -1535812.1, -1166404.6, 102538.96, 0.0045393324, 0.07036739, -1139850.9, 165922.1, 0.0, 9.997413, 10.0023155 
3.849883e+2, 1.7676066e+2, -1408126.0, -1077189.8, 39283.535, -0.070886195, 0.1500918, -1072590.5, 135152.05, 0.0, 9.997719, 10.002107 
3.8499904e+2, 1.8676108e+2, -1389188.3, -1158531.6, 5164.6396, -0.039990865, 0.054284975, -1158416.0, -48679.535, 0.0, 9.997786, 10.000843 
3.8500994e+2, 1.9676001e+2, -1316323.5, -1097918.8, 32595.785, 0.04507934, -0.14250961, -1093157.9, -81414.45, 0.0, 9.99772, 10.00062 
3.8502002e+2, 2.0675986e+2, -1173968.6, -1115178.9, 65059.832, -0.019699978, -0.14780082, -1073181.6, -159437.25, 0.0, 9.998611, 9.999399 
3.8502964e+2, 2.1676007e+2, -877016.7, -922561.4, 48725.797, -0.16139631, -0.07322733, -846004.44, -30261.219, 0.0, 9.99998, 9.999391 
3.8504043e+2, 2.2675897e+2, -782274.8, -857973.6, 46082.51, -0.16833328, -0.104454234, -760490.56, -42738.22, 0.0, 10.000101, 9.999098 
3.850518e+2, 2.3675719e+2, -765206.06, -816939.94, 44923.793, -0.10475824, -0.20147862, -739234.3, -119467.336, 0.0, 9.999621, 9.998939 
3.8506192e+2, 2.4675669e+2, -555025.9, -777296.6, 11622.57, -0.027946414, -0.08633836, -554419.8, -32647.234, 0.0, 10.000873, 9.997936 
3.850714e+2, 2.5675675e+2, -145551.31, -520928.28, 63726.96, 0.053386856, 0.11677784, -135027.55, 288746.9, 0.0, 10.002978, 9.998009 
3.8508204e+2, 2.6675326e+2, -39777.563, -406740.56, 130180.85, 0.082968116, -0.0380956, 1713.1908, 327518.06, 0.0, 10.002982, 9.998117 
3.8509318e+2, 2.7674794e+2, -106027.74, -399755.66, 84556.36, 0.08529949, -0.3884236, -83425.48, 144424.67, 0.0, 10.001901, 9.998014 
3.8510302e+2, 2.8674552e+2, -11454.938, -384091.28, 38167.41, 0.040283877, -0.39007014, -7585.802, 122287.19, 0.0, 10.002226, 9.997293 
3.8511202e+2, 2.9674456e+2, 236217.05, -230013.77, 30580.203, -0.035129502, -0.22311269, 238214.27, 270098.78, 0.0000000010933546, 10.003322, 9.997152 
3.8511872e+2, 3.0674228e+2, 417361.6, -145360.17, -35986.492, -0.17749035, -0.14596185, 419653.6, 419653.6, 0.0000008270693, 10.004358, 9.996901 
3.8512537e+2, 3.1674144e+2, 593815.9, -703.77325, 60287.523, -0.22125691, 0.06752846, 599867.75, 599867.75, 0.0000072935654, 10.005301, 9.997441 
3.9493635e+2, 1.2673546e+2, -2188265.5, -1650954.6, 79772.27, -0.0235459, -0.12650795, -1639361.4, 58631.09, 0.000036372046, 9.995487, 10.002609 
3.9494455e+2, 1.3674314e+2, -2093060.5, -1480502.8, -122178.375, 0.0069487207, 0.3181142, -1457032.9, 142884.28, 0.000013744367, 9.99515, 10.003276 
3.94955e+2, 1.467449e+2, -1905850.0, -1337403.4, 11775.065, 0.13222939, 0.16298735, -1337159.6, 164736.53, 0.0000023661473, 9.995746, 10.003294 
3.9496392e+2, 1.5674442e+2, -1675055.6, -1219804.9, 92823.164, -0.030153405, -0.21802077, -1201606.1, 202289.1, 0.000000028035489, 9.996853, 10.0028925 
3.9497483e+2, 1.6674607e+2, -1637882.0, -1378077.8, 111244.01, -0.04877134, -0.22422399, -1336954.1, -31074.418, 0.0, 9.997413, 10.000864 
3.949868e+2, 1.7674878e+2, -1484612.3, -1233480.1, 49917.8, 0.00476104, -0.048852865, -1223921.8, -16065.051, 0.0, 9.997708, 10.001039 
3.949973e+2, 1.8675044e+2, -1346045.0, -1066089.4, 490.61215, 0.003139298, -0.012287705, -1066088.5, 43750.816, 0.0, 9.997772, 10.001486 
3.95007e+2, 1.9675145e+2, -1283944.4, -1028410.06, 40994.813, -0.025346693, -0.06450606, -1021994.44, -10168.171, 0.0, 9.99771, 10.0011015 
3.9501885e+2, 2.06751e+2, -1202423.9, -1168995.3, 115438.31, 0.0006362679, -0.09764503, -1069067.5, -155235.75, 0.0, 9.99859, 9.99904 
3.9503178e+2, 2.167498e+2, -899246.3, -957677.1, 90949.61, 0.051336434, -0.1301006, -832934.94, -17088.07, 0.0, 9.999937, 9.999167 
3.950436e+2, 2.2674978e+2, -758750.4, -803349.56, 24305.29, 0.13651459, -0.06829389, -748064.8, -30217.002, 0.0, 10.000074, 9.999488 
3.9505482e+2, 2.3675025e+2, -732900.2, -745100.5, 44749.27, 0.23252447, 0.02194609, -693837.2, -73994.75, 0.0, 9.999602, 9.999441 
3.9506415e+2, 2.4674848e+2, -489025.03, -634423.5, 90344.35, 0.10535868, -0.06865569, -445761.84, 76094.02, 0.0, 10.00085, 9.998928 
3.9507255e+2, 2.5674552e+2, -106124.24, -427394.13, 124334.266, -0.13618045, -0.26412764, -63627.223, 360252.22, 0.0, 10.00293, 9.998675 
3.9508334e+2, 2.6674387e+2, -111754.25, -549171.44, 86274.98, -0.08904797, -0.20891705, -95352.61, 230542.88, 0.0, 10.002952, 9.997155 
3.9509532e+2, 2.767428e+2, -160208.23, -510268.1, 58870.87, 0.10629448, -0.038602978, -150572.9, 77335.43, 0.0, 10.001893, 9.99726 
3.9510578e+2, 2.8674036e+2, 2842.4531, -352702.56, 77054.66, 0.08899748, -0.024153568, 18823.615, 148755.72, 0.0, 10.00222, 9.997511 
3.9511526e+2, 2.9673707e+2, 252408.2, -183669.73, 72913.266, -0.047738135, -0.11089856, 264276.47, 296239.0, 0.000000022790346, 10.003269, 9.997496 
3.9512262e+2, 3.0673325e+2, 470328.34, -27271.29, -101.174736, -0.22449632, -0.25194252, 470328.38, 470328.38, 0.0000010261006, 10.004322, 9.997729 
3.9513054e+2, 3.1673038e+2, 601865.7, 23786.791, 93625.305, -0.2432215, -0.31595677, 616651.06, 616651.06, 0.000008310242, 10.005271, 9.997623 
4.0493175e+2, 1.267254e+2, -2038894.6, -1655817.8, 98425.21, -0.09495789, -0.14867632, -1632008.9, 66081.22, 0.00002910368, 9.99684, 10.0019245 
4.049404e+2, 1.3673326e+2, -2147736.5, -1558151.0, -90406.766, 0.088083535, 0.3694603, -1544599.6, 55417.902, 0.00001003053, 9.994996, 10.002817 
4.049512e+2, 1.4673543e+2, -1982361.5, -1354792.0, 39915.027, 0.20736292, 0.26447535, -1352263.5, 149729.86, 0.0000013962007, 9.995139, 10.003466 
4.0496075e+2, 1.5673512e+2, -1725370.5, -1226074.5, -26823.922, -0.010906289, -0.116422206, -1224637.6, 179352.11, 0.000000006286357, 9.9964285, 10.003054 
4.0497217e+2, 1.6673592e+2, -1685387.4, -1393161.8, -6478.2725, -0.03849392, -0.21738222, -1393018.3, -87038.414, 0.0, 9.997055, 10.000932 
4.0498453e+2, 1.7673732e+2, -1539916.8, -1256542.0, 42278.152, 0.026987584, -0.18025449, -1250368.8, -42402.246, 0.0, 9.997313, 10.001072 
4.0499553e+2, 1.8673924e+2, -1277326.1, -1041305.3, 10862.437, 0.028470121, -0.114597514, -1040806.44, 69140.64, 0.0, 9.998279, 10.001411 
4.0500593e+2, 1.9674131e+2, -1010538.25, -897361.44, -6208.7188, 0.0016417779, -0.052972954, -897021.8, 114904.12, 0.0, 9.999588, 10.001097 
4.0501824e+2, 2.0674142e+2, -1024336.9, -1047134.06, 79123.09, 0.028832892, -0.049060374, -955795.5, -41868.74, 0.0, 9.9996605, 9.999357 
4.050316e+2, 2.167405e+2, -1005942.1, -983756.5, 98720.73, 0.08320033, -0.085377045, -895507.3, -79568.11, 0.0, 9.999095, 9.999393 
4.0504354e+2, 2.2674046e+2, -838410.8, -861153.0, 22779.855, 0.14712407, -0.024002943, -824321.7, -106380.234, 0.0, 9.999611, 9.999314 
4.0505472e+2, 2.3674075e+2, -580655.8, -685698.9, 3224.4688, 0.21047023, 0.06579632, -580556.9, 39382.594, 0.0, 10.000704, 9.999321 
4.050651e+2, 2.4673882e+2, -430794.7, -586957.9, 23781.125, 0.10111586, -0.04708538, -427253.5, 94701.195, 0.0, 10.001167, 9.999101 
4.0507504e+2, 2.567357e+2, -330940.66, -521546.2, -14057.107, -0.09470686, -0.2731851, -329909.53, 94069.32, 0.0, 10.001321, 9.998803 
4.050858e+2, 2.6673448e+2, -262200.75, -635276.3, -65892.375, -0.08402499, -0.17403646, -250904.9, 75086.96, 0.0, 10.001974, 9.997036 
4.0509698e+2, 2.767341e+2, -22078.709, -453259.22, -31821.578, 0.036458943, 0.07800829, -19742.896, 208256.92, 0.0, 10.002883, 9.997174 
4.0510827e+2, 2.8673157e+2, 130151.14, -286892.63, 17245.523, 0.07783226, 0.084355645, 130863.06, 260887.0, 0.0, 10.003075, 9.997552 
4.051195e+2, 2.9672772e+2, 200680.44, -203730.53, 2197.7188, 0.07086686, -0.06314174, 200692.38, 232750.39, 0.00000014139067, 10.00289, 9.99754 
4.0512767e+2, 3.0672374e+2, 392187.22, -72842.72, -86986.7, -0.12244539, -0.21728623, 407925.97, 407925.97, 0.000002383901, 10.003821, 9.997656 
4.051365e+2, 3.1671974e+2, 583152.5, -32637.385, -78879.64, -0.17483616, -0.38586172, 593096.06, 593096.06, 0.000012093872, 10.0053425, 9.997202 
4.149292e+2, 1.2671693e+2, -2054313.5, -1697078.4, 36426.53, -0.048187185, -0.06736002, -1693401.9, 4764.392, 0.000022517497, 9.996879, 10.001622 
4.1493443e+2, 1.3671795e+2, -2178536.5, -1627348.9, -142942.75, -0.013183882, -0.20982167, -1592484.0, 7674.2813, 0.0000067670235, 9.995017, 10.002333 
4.1494566e+2, 1.467213e+2, -2101596.8, -1603526.0, 87748.99, 0.13191082, -0.07426185, -1588518.8, -86389.33, 0.0000006540361, 9.995148, 10.001755 
4.14958e+2, 1.5672603e+2, -1805095.4, -1388924.1, 17895.479, 0.06847293, 0.21479858, -1388156.0, 15932.081, 0.0000000002364484, 9.996422, 10.001938 
4.149699e+2, 1.6672711e+2, -1575349.8, -1162870.6, 715.66437, 0.02240175, 0.09463696, -1162869.4, 143203.77, 0.0, 9.997045, 10.002518 
4.1498137e+2, 1.767263e+2, -1458987.6, -1087491.0, 60619.793, -0.02587038, -0.24402168, -1077849.4, 130222.516, 0.0, 9.997308, 10.002234 
4.149937e+2, 1.8672748e+2, -1335588.5, -1159526.9, 59668.125, 0.015482309, -0.253408, -1141210.6, -31151.018, 0.0, 9.998268, 10.000604 
4.1500658e+2, 1.9672965e+2, -1047382.44, -969003.25, 33613.32, 0.10660097, -0.10508263, -956562.6, 55479.49, 0.0, 9.99957, 10.000611 
4.1501817e+2, 2.0673116e+2, -958781.44, -905328.25, 54726.105, 0.050294653, 0.00041966597, -871151.2, 42878.047, 0.0, 9.999634, 10.000344 
4.15029e+2, 2.167322e+2, -961367.75, -884127.5, 88545.28, -0.0876706, 0.06503939, -826146.5, -10126.549, 0.0, 9.999066, 10.00009 
4.1504017e+2, 2.2673106e+2, -892178.2, -970241.44, 62274.84, -0.15510935, 0.03137197, -857714.06, -139681.2, 0.0, 9.999598, 9.998573 
4.1505152e+2, 2.3672876e+2, -634594.5, -791717.4, 40436.89, -0.18438974, -0.06542748, -624798.44, -4740.7656, 0.0, 10.000679, 9.998606 
4.1506472e+2, 2.467277e+2, -478862.53, -681168.9, 28029.93, -0.056899007, -0.021677554, -475050.75, 47017.965, 0.0, 10.001143, 9.998465 
4.1507885e+2, 2.5672725e+2, -363215.44, -583300.5, -1644.7635, 0.14910322, 0.07655524, -363203.13, 60870.33, 0.0, 10.001299, 9.99839 
4.1508943e+2, 2.667251e+2, -214251.39, -532990.25, -32684.545, 0.07425863, 0.061825812, -210934.33, 115159.69, 0.0, 10.001963, 9.997743 
4.150981e+2, 2.7672204e+2, 11729.376, -374769.75, -1724.4474, -0.14396788, -0.024714269, 11737.069, 239860.25, 0.0, 10.002847, 9.997731 
4.1511047e+2, 2.8671932e+2, 119405.67, -304406.28, 8403.451, -0.013122916, -0.05167955, 119572.23, 249719.31, 0.0, 10.003055, 9.997441 
4.1512462e+2, 2.9671657e+2, 185312.4, -238111.7, 7949.8604, 0.29140094, -0.077732526, 185461.63, 217631.92, 0.00000037944778, 10.0029, 9.997299 
4.1513377e+2, 3.0671382e+2, 326675.72, -213097.7, -26910.088, 0.1016205, -0.046164095, 328013.97, 328013.97, 0.0000044792178, 10.0038395, 9.996682 
4.1514304e+2, 3.167093e+2, 506723.06, -182875.69, -28266.514, -0.06577798, -0.16093533, 507879.75, 507879.75, 0.00001778127, 10.005302, 9.996188 
4.249251e+2, 1.2670691e+2, -2602989.3, -1940924.0, -31691.53, 0.044641975, 0.0065416307, -1939410.4, -241146.45, 0.000016808834, 9.993027, 10.001808 
4.2492914e+2, 1.3670573e+2, -2019445.8, -1549426.0, -199726.1, -0.09419177, -0.37717578, -1476020.4, 124254.7, 0.000004238484, 9.996096, 10.00235 
4.249407e+2, 1.4670882e+2, -1876999.1, -1602855.8, 87001.08, 0.025916595, -0.21307874, -1577576.5, -75326.53, 0.00000021832761, 9.99715, 10.000794 
4.2495474e+2, 1.5671392e+2, -1752364.1, -1445599.1, 63447.902, 0.065835305, 0.20742384, -1432994.1, -28785.979, 0.0, 9.997133, 10.001209 
4.2496708e+2, 1.667157e+2, -1551692.8, -1101051.1, -6450.4697, 0.042523876, 0.16167529, -1100958.8, 205228.56, 0.0, 9.996995, 10.002965 
4.2497838e+2, 1.7671575e+2, -1504703.6, -1073701.0, -28861.982, -0.031330753, -0.13351212, -1071776.9, 136400.53, 0.0, 9.99684, 10.002556 
4.2499152e+2, 1.8671651e+2, -1495207.3, -1271041.1, 716.4682, 0.018743033, -0.18051358, -1271038.8, -160869.6, 0.0, 9.997321, 10.000296 
4.2500576e+2, 1.9671758e+2, -1272926.1, -1103462.6, 300.41977, 0.13955548, -0.11038385, -1103462.1, -91299.414, 0.0, 9.998132, 10.000383 
4.250176e+2, 2.06719e+2, -1039970.3, -922807.3, -31563.99, 0.06531338, -0.01623165, -914845.0, -694.5579, 0.0, 9.998983, 10.000539 
4.2502815e+2, 2.1672046e+2, -835567.7, -804234.1, -56101.875, -0.11651269, 0.07292811, -761652.56, 54483.855, 0.0, 9.999845, 10.000267 
4.2503968e+2, 2.2671956e+2, -791898.06, -901237.1, -39757.867, -0.19233802, 0.045382876, -778969.9, -60823.348, 0.0, 10.000202, 9.998752 
4.2505172e+2, 2.367174e+2, -681864.9, -805423.9, -1279.5253, -0.2085714, -0.05281459, -681851.6, -61682.316, 0.0, 10.000319, 9.998681 
4.2506567e+2, 2.4671641e+2, -575270.3, -777332.75, 14212.305, -0.051830336, 0.018905519, -574275.56, -52093.836, 0.0, 10.000694, 9.998022 
4.2508048e+2, 2.5671592e+2, -394913.84, -626811.7, -588.3948, 0.1893864, 0.15807642, -394912.34, 29277.447, 0.0, 10.001204, 9.9981365 
4.2509168e+2, 2.667137e+2, -190339.6, -448769.06, -11936.424, 0.11349042, 0.11003036, -189789.44, 136420.4, 0.0, 10.001816, 9.998392 
4.25101e+2, 2.7671063e+2, -3010.1914, -320230.03, 8976.761, -0.11931167, -0.045785587, -2756.3682, 225479.9, 0.0, 10.002483, 9.998281 
4.251136e+2, 2.8670788e+2, 185215.72, -275681.38, 19044.469, -0.028342895, -0.09744994, 186001.31, 316261.53, 0.00000000005013419, 10.00352, 9.997416 
4.2512777e+2, 2.9670513e+2, 451321.34, -114677.31, 23384.512, 0.22403465, -0.119723864, 452285.84, 484570.56, 0.00000056577227, 10.004751, 9.997256 
4.25138e+2, 3.067036e+2, 547492.56, -148207.81, 37468.176, 0.05366951, 0.055422213, 549504.7, 549504.7, 0.000006307591, 10.005532, 9.99632 
4.2514908e+2, 3.1669953e+2, 592288.6, -158958.42, 60610.348, -0.023465866, 0.019043585, 597147.2, 597147.2, 0.000023707831, 10.005974, 9.99603 
4.3491918e+2, 1.2669541e+2, -2557499.5, -1844427.9, 97959.51, 0.14445995, 0.07854185, -1831215.4, -132832.13, 0.000012096729, 9.993019, 10.002474 
4.3492457e+2, 1.3669671e+2, -1979112.9, -1469250.0, -101639.734, -0.16868204, -0.11976376, -1449735.4, 150631.3, 0.0000025410188, 9.996112, 10.002892 
4.3493637e+2, 1.4669803e+2, -1889173.9, -1631999.5, 84825.586, -0.12668572, -0.14652328, -1606541.1, -104186.664, 0.000000047491298, 9.997167, 10.000587 
4.349508e+2, 1.5669876e+2, -1773330.9, -1490088.9, 63171.36, -0.044571754, -0.1414981, -1476638.5, -72288.42, 0.0, 9.997138, 10.000901 
4.3496364e+2, 1.6670164e+2, -1603325.6, -1207762.6, -14455.694, -0.002096413, -0.020672744, -1207235.0, 99087.56, 0.0, 9.996992, 10.002234 
4.349755e+2, 1.7670566e+2, -1544325.4, -1154862.3, -27043.52, -0.007598235, 0.15221143, -1152993.4, 55289.39, 0.0, 9.996836, 10.002 
4.349889e+2, 1.8670633e+2, -1484221.1, -1244982.3, 28822.328, 0.02103196, 0.10729016, -1241558.9, -131282.89, 0.0, 9.997308, 10.000481 
4.350033e+2, 1.967051e+2, -1272116.5, -1097436.6, 33357.434, 0.076673806, -0.06889757, -1091283.4, -78995.78, 0.0, 9.998115, 10.000432 
4.3501645e+2, 2.0670496e+2, -1087215.9, -1014596.3, -226.83514, 0.049622286, -0.09733943, -1014595.6, -100305.42, 0.0, 9.998958, 9.999921 
4.3502894e+2, 2.1670534e+2, -862717.44, -852343.6, -26175.67, -0.026180923, -0.058962632, -830845.9, -14557.698, 0.0, 9.999812, 9.99995 
4.3504196e+2, 2.2670597e+2, -722265.3, -749282.94, -37878.344, 0.012803998, 0.018707193, -695559.0, 22723.205, 0.0, 10.000171, 9.999811 
4.350553e+2, 2.3670664e+2, -628411.9, -685652.4, 6142.038, 0.112887226, 0.099668704, -627760.2, -7485.13, 0.0, 10.000282, 9.999521 
4.3506786e+2, 2.4670492e+2, -595012.25, -813169.1, 30671.691, 0.09538037, 0.07791679, -590782.0, -68488.06, 0.0, 10.000671, 9.9977865 
4.3507996e+2, 2.567019e+2, -403899.03, -641842.94, 20984.092, 0.010813726, -0.015707994, -402062.66, 22264.4, 0.0, 10.001187, 9.998042 
4.350926e+2, 2.6670042e+2, -149994.38, -362707.63, 11074.07, 0.020424223, -0.021790963, -149419.4, 176919.61, 0.0, 10.001805, 9.99899 
4.3510553e+2, 2.7669975e+2, 31243.5, -246455.48, 38270.883, 0.080077805, 0.0051857647, 36421.234, 264761.56, 0.0, 10.002469, 9.9987955 
4.3511754e+2, 2.8669712e+2, 184017.1, -269595.5, 62751.89, 0.010732974, -0.059422944, 192538.02, 322902.4, 0.0000000012875508, 10.003487, 9.997472 
4.35129e+2, 2.9669335e+2, 447148.78, -108169.0, 67238.22, -0.13264276, -0.18717702, 455174.06, 487575.63, 0.0000007409375, 10.004685, 9.9973345 
4.351403e+2, 3.0669302e+2, 556176.7, -118875.17, 51739.7, -0.26807708, 0.09255823, 560119.3, 560119.3, 0.000007859473, 10.005485, 9.996542 
4.351545e+2, 3.1669e+2, 634424.5, -69050.11, 68177.93, -0.08515909, 0.13643178, 640971.1, 640971.1, 0.00002908188, 10.005964, 9.996652 
4.4491312e+2, 1.2668206e+2, -2266479.8, -1719527.6, 106877.945, 0.13508214, 0.07264472, -1699384.8, -866.8715, 0.000008573877, 9.995083, 10.002335 
4.4492128e+2, 1.3668522e+2, -2049263.9, -1501300.5, -185814.84, -0.07892395, 0.0759031, -1444233.6, 156251.58, 0.0000015653503, 9.99563, 10.002904 
4.4493356e+2, 1.4668651e+2, -1951280.9, -1563992.6, -10256.034, -0.08013732, -0.00455333, -1563721.3, -61250.957, 0.000000013935479, 9.996322, 10.00146 
4.449479e+2, 1.5668577e+2, -1742203.8, -1414533.9, 41033.84, -0.044876914, -0.23106714, -1409473.4, -4998.9814, 0.0, 9.997091, 10.001442 
4.4496113e+2, 1.6668813e+2, -1598781.0, -1335295.5, -33590.438, 0.019418472, -0.11851882, -1331080.6, -24627.309, 0.0, 9.997577, 10.00108 
4.4497353e+2, 1.7669219e+2, -1450625.9, -1208984.9, -78368.19, 0.06309205, 0.17078759, -1185794.4, 22623.658, 0.0, 9.997906, 10.001114 
4.449869e+2, 1.8669313e+2, -1341644.4, -1125682.1, -6429.505, 0.053389993, 0.16542032, -1125490.9, -15082.565, 0.0, 9.99807, 10.000932 
4.4500095e+2, 1.9669229e+2, -1248695.1, -1053082.4, 16602.523, 0.031025756, -0.016726583, -1051683.3, -39269.51, 0.0, 9.998131, 10.000729 
4.4501483e+2, 2.0669168e+2, -1174923.9, -1105487.8, 12391.674, 0.013090315, -0.07829433, -1103342.5, -188921.78, 0.0, 9.998568, 9.999481 
4.450286e+2, 2.1669118e+2, -971156.75, -942502.1, -8842.586, -0.007922522, -0.08486918, -939993.1, -123564.46, 0.0, 9.999231, 9.99961 
4.450425e+2, 2.2669186e+2, -763161.25, -748178.4, -69730.29, 0.06837791, 0.0014791015, -685538.25, 32883.81, 0.0, 9.999798, 9.999999 
4.450564e+2, 2.3669307e+2, -607898.0, -651775.94, -89531.07, 0.19552377, 0.11740266, -537657.06, 82751.99, 0.0, 10.000314, 9.999742 
4.4506887e+2, 2.4669151e+2, -515913.47, -724584.4, -39690.42, 0.11563035, 0.07602619, -508619.1, 13805.959, 0.0, 10.001001, 9.998234 
4.4508058e+2, 2.5668848e+2, -295209.06, -553948.2, -6637.391, -0.07266227, -0.06050349, -295038.9, 129417.57, 0.0, 10.001785, 9.998355 
4.450941e+2, 2.6668727e+2, -119049.72, -388464.88, -49154.21, -0.025779996, -0.030721381, -110361.8, 216105.03, 0.0, 10.002194, 9.998622 
4.451086e+2, 2.7668703e+2, -2818.0815, -300204.5, -94753.6, 0.14664778, 0.07436111, 24806.365, 253273.06, 0.0, 10.0023985, 9.998458 
4.45121e+2, 2.8668442e+2, 3615.3975, -374363.44, -100552.58, 0.06836234, 0.03597402, 28700.316, 159192.75, 0.000000003757639, 10.002318, 9.997316 
4.4513226e+2, 2.9668054e+2, 68869.12, -294611.3, -106580.125, -0.14175922, -0.09242619, 97815.47, 130348.0, 0.0000009041157, 10.002105, 9.997293 
4.451448e+2, 3.0667987e+2, 354180.06, -174733.64, -74339.06, -0.2870516, 0.13763988, 364429.8, 364429.8, 0.000009297483, 10.003916, 9.996915 
4.451609e+2, 3.1667578e+2, 804056.94, 105803.15, -70481.83, -0.07964574, 0.034560397, 811100.4, 811100.4, 0.000032994343, 10.00672, 9.997494 
4.549067e+2, 1.266668e+2, -2330480.3, -1858910.3, 131626.5, -0.02870331, -0.014234765, -1824658.1, -125989.45, 0.000006189794, 9.995113, 10.001364 
4.5491937e+2, 1.3667117e+2, -2085828.9, -1576694.9, -165492.66, 0.16058576, 0.2050841, -1527630.3, 73001.62, 0.0000010596042, 9.995633, 10.002382 
4.5493224e+2, 1.4667423e+2, -1813076.1, -1278348.5, 19042.643, 0.15337925, 0.2111051, -1277671.1, 224926.8, 0.000000007555667, 9.996324, 10.003421 
4.5494592e+2, 1.5667504e+2, -1643426.4, -1211007.5, 71077.09, 0.044415537, -0.0556485, -1199624.1, 204956.61, 0.0, 9.9971, 10.002833 
4.5495945e+2, 1.6667522e+2, -1707776.8, -1563735.0, -23741.318, 0.088371, -0.12384708, -1559922.9, -253344.05, 0.0, 9.997586, 9.999508 
4.549725e+2, 1.7667529e+2, -1534305.8, -1382937.8, -65777.34, 0.16289802, -0.079656094, -1358348.5, -149765.27, 0.0, 9.997907, 9.99992 
4.5498544e+2, 1.8667689e+2, -1294454.6, -1023179.4, -5219.018, 0.098829985, -0.011485904, -1023079.0, 87487.69, 0.0, 9.998053, 10.001642 
4.5499858e+2, 1.9667915e+2, -1214533.9, -974469.0, 25000.043, -0.019840945, 0.04558485, -971893.2, 40647.637, 0.0, 9.998102, 10.00128 
4.5501268e+2, 2.0667917e+2, -1198065.9, -1148158.3, 34614.78, -0.065864705, 0.04130463, -1130440.4, -215898.23, 0.0, 9.998543, 9.999202 
4.5502713e+2, 2.1667796e+2, -1000114.44, -993653.4, 17168.305, -0.08199677, -0.0057664, -979414.3, -162856.27, 0.0, 9.999194, 9.999276 
4.550412e+2, 2.266773e+2, -814076.0, -847618.9, -51984.363, -0.044196773, -0.0043807644, -776224.56, -57658.63, 0.0, 9.999771, 9.99933 
4.55055e+2, 2.366768e+2, -636522.8, -705437.2, -66602.5, 0.0210512, 0.0066823885, -595992.06, 24578.219, 0.0, 10.000291, 9.999383 
4.5506868e+2, 2.4667625e+2, -441764.44, -566256.2, -11613.936, -0.0077660284, 0.017461443, -440690.22, 81884.18, 0.0, 10.00098, 9.999332 
4.5508227e+2, 2.5667563e+2, -251421.81, -453369.1, 20911.154, -0.08487126, 0.015509332, -249279.23, 175299.67, 0.0, 10.001743, 9.999067 
4.550962e+2, 2.6667428e+2, -213584.1, -579328.6, -43248.254, -0.04116781, 0.07748989, -208539.69, 118054.04, 0.0, 10.00217, 9.997324 
4.5511022e+2, 2.7667248e+2, -84982.17, -468565.34, -87464.086, 0.06549848, 0.15878971, -65980.07, 162634.97, 0.0, 10.002387, 9.997309 
4.551239e+2, 2.8666985e+2, -20113.092, -424086.22, -111214.83, 0.12307948, 0.18437456, 8480.722, 139124.44, 0.0000000010501781, 10.002321, 9.996974 
4.5513737e+2, 2.9666668e+2, 61026.82, -317067.13, -93577.69, 0.15415424, 0.15936705, 82919.51, 115596.58, 0.0000008676792, 10.00213, 9.997129 
4.551512e+2, 3.066643e+2, 391216.9, -97083.4, 32888.816, -0.03708029, 0.18837136, 393422.13, 393422.13, 0.0000098003575, 10.003917, 9.997446 
4.55168e+2, 3.166571e+2, 867738.8, 256685.69, 18623.73, -0.04761491, -0.2758258, 868305.9, 868305.9, 0.000033595137, 10.006645, 9.998566 
4.649018e+2, 1.2665263e+2, -2065758.8, -1727157.9, 183721.39, -0.116994455, -0.0714838, -1646626.0, 52178.84, 0.0000045812567, 9.996923, 10.00139 
4.649152e+2, 1.3665657e+2, -2184335.5, -1642864.6, -54111.055, 0.2119796, 0.11229749, -1637510.1, -36737.637, 0.0000007444035, 9.995026, 10.00223 
4.649284e+2, 1.466603e+2, -1985117.6, -1412476.8, 99417.414, 0.18194495, 0.21933559, -1395707.8, 107027.164, 0.0000000034677494, 9.995368, 10.002959 
4.6494296e+2, 1.5666205e+2, -1681662.1, -1262382.5, -38248.867, 0.045409698, 0.09244352, -1258921.9, 145791.16, 0.0, 9.996981, 10.002538 
4.64957e+2, 1.6666184e+2, -1600983.0, -1446007.6, -107636.31, 0.063376576, -0.038571186, -1390868.3, -84155.43, 0.0, 9.998041, 10.000092 
4.6497032e+2, 1.7666078e+2, -1379766.5, -1268188.4, 4146.537, 0.10975492, -0.16241689, -1268034.4, -59311.957, 0.0, 9.9987955, 10.0002775 
4.6498388e+2, 1.8666191e+2, -1155379.5, -1043434.2, 43081.082, 0.07201249, -0.11154674, -1028774.56, 81935.945, 0.0, 9.999383, 10.000861 
4.649979e+2, 1.9666405e+2, -999183.75, -940603.44, -41489.598, 0.013722591, 0.011011902, -919106.75, 93581.96, 0.0, 9.999881, 10.000657 
4.650121e+2, 2.066645e+2, -986983.6, -1021042.2, -44458.008, -0.03894904, 0.0626379, -956405.06, -41718.72, 0.0, 9.999881, 9.999432 
4.6502635e+2, 2.1666399e+2, -928400.1, -944598.5, -24923.422, -0.09886815, 0.06257697, -910293.0, -93598.234, 0.0, 9.9996195, 9.999411 
4.6504056e+2, 2.2666276e+2, -785432.7, -869346.75, -42726.207, -0.10057614, 0.020995837, -767507.1, -48799.496, 0.0, 10.000124, 9.999008 
4.6505478e+2, 2.3666106e+2, -542934.4, -691356.56, -40574.02, -0.068729304, -0.056954637, -532566.9, 88156.55, 0.0, 10.00107, 9.999103 
4.650695e+2, 2.4666066e+2, -417743.13, -561869.9, -46519.27, -0.03252771, -0.016157359, -404032.53, 118693.55, 0.0, 10.001177, 9.999268 
4.6508443e+2, 2.5666088e+2, -389491.8, -533321.7, -98754.37, 0.00533915, 0.07401075, -339242.2, 85480.27, 0.0, 10.000849, 9.99895 
4.6509838e+2, 2.666589e+2, -338646.06, -680468.5, -129311.81, -0.00025948518, 0.09962204, -295239.3, 31504.598, 0.0, 10.001483, 9.996964 
4.651118e+2, 2.7665573e+2, -69056.836, -494449.1, -109527.555, -0.027046075, 0.07712559, -42512.65, 186266.88, 0.0, 10.00264, 9.99701 
4.6512663e+2, 2.8665295e+2, 233985.2, -305989.5, -90419.234, 0.07854715, 0.10524956, 248723.7, 379532.5, 0.00000000020707537, 10.004086, 9.996936 
4.6514228e+2, 2.9665038e+2, 566688.25, -85867.33, -54211.793, 0.25600225, 0.14469552, 571161.3, 603996.4, 0.00000095355574, 10.005661, 9.997017 
4.65157e+2, 3.066476e+2, 600401.9, -59483.21, 38349.05, 0.06727755, 0.17507134, 602623.0, 602623.0, 0.0000097608745, 10.005625, 9.996884 
4.651737e+2, 3.1664065e+2, 567040.9, 103567.51, -75026.75, -0.03345361, -0.21597709, 578883.5, 578883.5, 0.000031950414, 10.004613, 9.998488 
4.7489828e+2, 1.2663963e+2, -1991678.5, -1582962.0, 113045.52, -0.17198369, -0.0952318, -1553778.9, 145146.52, 0.0000033199578, 9.996961, 10.00236 
4.749086e+2, 1.3664149e+2, -2169551.3, -1608949.9, -102750.01, 0.04847502, -0.20515743, -1590710.8, 10195.476, 0.00000048107097, 9.995016, 10.002462 
4.7492176e+2, 1.4664477e+2, -2191177.8, -1846089.0, 159589.6, -0.021070037, 0.021813571, -1783600.5, -280719.88, 0.000000000765976, 9.995388, 9.999978 
4.749389e+2, 1.5664679e+2, -1822694.6, -1556006.3, 19656.527, -0.06247196, 0.2109008, -1554565.3, -149693.58, 0.0, 9.996985, 10.000522 
4.749537e+2, 1.6664793e+2, -1406926.0, -1043250.8, -80666.484, -0.073830195, 0.13666452, -1026161.25, 280694.66, 0.0, 9.99804, 10.002857 
4.7496682e+2, 1.7664868e+2, -1245047.9, -986919.7, 32921.297, -0.12181791, -0.075004496, -982787.1, 226048.5, 0.0, 9.998791, 10.002209 
4.7498208e+2, 1.8664823e+2, -1314719.1, -1374197.1, 59961.773, -0.04941228, -0.12934344, -1277526.6, -166687.34, 0.0, 9.99938, 9.998594 
4.7499874e+2, 1.9664703e+2, -1123449.5, -1198360.9, -24807.738, 0.10787221, -0.11810721, -1115979.1, -103121.88, 0.0, 9.999877, 9.99889 
4.7501314e+2, 2.0664768e+2, -938522.2, -917240.0, -56548.96, 0.07142605, -0.015285778, -870339.6, 44513.83, 0.0, 9.9998665, 10.000152 
4.750262e+2, 2.1664926e+2, -889064.94, -856754.0, -26423.352, -0.08086543, 0.122906275, -841938.6, -25100.115, 0.0, 9.999595, 10.000025 
4.750405e+2, 2.2664827e+2, -786482.2, -868288.75, -9084.027, -0.1215767, 0.07953384, -785485.6, -66638.625, 0.0, 10.000108, 9.999024 
4.750556e+2, 2.3664582e+2, -561359.4, -721014.4, -10505.918, -0.09497309, -0.074807525, -560671.0, 60197.785, 0.0, 10.001033, 9.998918 
4.750712e+2, 2.4664474e+2, -505266.34, -740003.44, -61361.805, 0.018870972, -0.024993358, -490193.78, 32686.299, 0.0, 10.00116, 9.998053 
4.7508702e+2, 2.5664425e+2, -455541.6, -670663.56, -100148.21, 0.17298584, 0.116290465, -416136.47, 8750.148, 0.0, 10.000848, 9.998008 
4.7510064e+2, 2.6664123e+2, -299911.3, -600506.75, -86776.22, 0.07545535, 0.042923845, -276659.28, 50257.26, 0.0, 10.001486, 9.99751 
4.751132e+2, 2.7663675e+2, -35944.953, -422135.2, -61138.242, -0.15201044, -0.16232423, -26497.213, 202462.52, 0.0, 10.002624, 9.997515 
4.751292e+2, 2.8663382e+2, 247883.42, -271814.34, -30764.205, -0.078186, -0.18833393, 249698.2, 380685.44, 0.000000007840556, 10.004063, 9.997182 
4.7514698e+2, 2.9663172e+2, 555614.4, -98351.734, -6380.8555, 0.1542944, -0.12319002, 555676.6, 588682.94, 0.0000011852446, 10.005614, 9.996954 
4.7516215e+2, 3.0662993e+2, 484459.75, -291986.3, 700.51135, 0.0159353, 0.09756097, 484460.4, 484460.4, 0.000009838349, 10.005588, 9.995304 
4.7517794e+2, 3.1662625e+2, 484709.0, -64916.023, -109887.8, -0.08208574, 0.19089662, 505864.8, 505864.8, 0.000030581446, 10.0046015, 9.997336 
4.8489478e+2, 1.2662613e+2, -2503858.0, -1829970.1, 72546.96, -0.041840248, -0.0624094, -1822248.6, -123193.1, 0.0000022837717, 9.993441, 10.002365 
4.849042e+2, 1.3662681e+2, -1870274.9, -1486428.0, -232535.16, 0.0038704188, -0.28024325, -1376843.3, 224202.66, 0.0000002759338, 9.997151, 10.002276 
4.849171e+2, 1.4662947e+2, -1925072.6, -1779636.9, 104084.34, -0.12467944, -0.075282946, -1725384.5, -222358.36, 0.000000000009128432, 9.997485, 9.999419 
4.849353e+2, 1.5663093e+2, -2005379.9, -1699842.6, 143033.53, -0.06713242, 0.11397079, -1643334.4, -238311.31, 0.0, 9.995969, 10.000026 
4.849509e+2, 1.6663238e+2, -1688384.5, -1201179.5, -5050.698, -0.06568835, 0.10326983, -1201127.1, 105879.04, 0.0, 9.996208, 10.002657 
4.8496458e+2, 1.7663394e+2, -1451856.4, -1106955.6, -116599.27, -0.15581197, -0.007363283, -1071236.5, 137744.4, 0.0, 9.99746, 10.002027 
4.8498058e+2, 1.8663333e+2, -1481055.1, -1463058.1, -72323.51, -0.07796281, -0.06612414, -1399175.5, -288188.97, 0.0, 9.998278, 9.998515 
4.8499814e+2, 1.9663142e+2, -1284005.0, -1286715.1, -1430.5486, 0.11208467, -0.11754587, -1283389.6, -270379.7, 0.0, 9.998824, 9.998789 
4.850129e+2, 2.066315e+2, -1017015.5, -983676.44, -29967.725, 0.0809993, -0.05271484, -966054.06, -51043.22, 0.0, 9.9994545, 9.999892 
4.8502603e+2, 2.1663259e+2, -824203.0, -849974.1, -72456.27, -0.07826656, 0.060777437, -763495.44, 53504.594, 0.0, 10.000147, 9.999805 
4.8504108e+2, 2.2663176e+2, -704771.25, -827683.25, -63183.023, -0.10083541, 0.04390023, -678085.7, 40920.65, 0.0, 10.000666, 9.999034 
4.8505715e+2, 2.3662984e+2, -555305.44, -721405.75, -71347.414, -0.04360639, -0.058255333, -528866.9, 92155.8, 0.0, 10.001087, 9.998888 
4.8507267e+2, 2.4662818e+2, -438145.28, -735876.9, -85866.26, 0.022258129, -0.049426723, -415156.38, 107882.95, 0.0, 10.001741, 9.997802 
4.8508784e+2, 2.5662658e+2, -222292.75, -576375.9, -55178.2, 0.08652041, 0.0033819627, -213893.36, 211163.45, 0.0, 10.002529, 9.997845 
4.8510227e+2, 2.6662394e+2, -51050.168, -452127.53, -10582.015, 0.01004363, -0.040503696, -50771.164, 276311.63, 0.0, 10.003077, 9.997762 
4.8511642e+2, 2.7662063e+2, 103875.37, -330541.34, -9817.175, -0.13487686, -0.15318778, 104097.11, 333211.25, 0.0, 10.003484, 9.997728 
4.8513275e+2, 2.8661764e+2, 180129.67, -302428.63, 3519.4717, -0.10252612, -0.19343439, 180155.33, 311296.34, 0.0000000047988187, 10.003588, 9.997199 
4.851502e+2, 2.9661486e+2, 242719.36, -262050.0, 2429.4485, 0.024664577, -0.1952697, 242731.05, 275896.4, 0.0000011040358, 10.003515, 9.9968405 
4.851664e+2, 3.066124e+2, 233089.38, -489091.03, 29222.965, -0.04205659, 0.0037231944, 234269.95, 234269.95, 0.00000921167, 10.004186, 9.994625 
4.8518366e+2, 3.1660968e+2, 530433.5, -114520.484, -32891.586, -0.0007550749, 0.2580414, 532106.6, 532106.6, 0.000029032646, 10.005222, 9.996699 
4.9489108e+2, 1.2661216e+2, -2573083.3, -1973170.0, 212692.33, 0.23736183, 0.03708527, -1905414.8, -206219.69, 0.0000015131136, 9.993436, 10.001389 
4.9490207e+2, 1.3661262e+2, -1911705.0, -1572083.1, -121634.46, 0.07211438, -0.09603449, -1533014.4, 68176.62, 0.00000014199817, 9.997153, 10.001686 
4.9491453e+2, 1.4661442e+2, -1785180.3, -1497223.4, 43707.9, -0.1396244, -0.064983055, -1490735.3, 12435.928, 0.0, 9.997516, 10.001344 
4.9493206e+2, 1.5661453e+2, -1930462.6, -1541642.5, 102927.22, 0.011167883, -0.19565739, -1516077.0, -110910.56, 0.0, 9.995961, 10.001114 
4.9494845e+2, 1.6661529e+2, -1913540.0, -1668610.8, 40376.168, 0.06714828, -0.13327837, -1662126.5, -354963.56, 0.0, 9.996207, 9.999451 
4.949636e+2, 1.7661658e+2, -1616472.9, -1447349.4, -71540.2, -0.0044131493, 0.04034701, -1421147.0, -211988.47, 0.0, 9.997456, 9.999693 
4.9497944e+2, 1.8661715e+2, -1334886.8, -1155940.9, -53422.25, -0.026562821, 0.07648731, -1141205.6, -30053.13, 0.0, 9.998262, 10.000629 
4.9499595e+2, 1.9661722e+2, -1175734.9, -1057868.6, 20834.746, 0.008269195, 0.0145372925, -1054294.3, -41147.07, 0.0, 9.998807, 10.000368 
4.9501127e+2, 2.0661597e+2, -1104752.3, -1162382.3, -5742.023, -0.029574784, -0.0482254, -1104185.8, -189027.45, 0.0, 9.999438, 9.998674 
4.9502584e+2, 2.1661398e+2, -899903.44, -1002787.4, -45329.62, -0.11488519, -0.12133247, -882781.2, -65602.38, 0.0, 10.000126, 9.998767 
4.9504215e+2, 2.2661324e+2, -709513.2, -832525.5, -49579.117, -0.06306464, -0.08628058, -692018.75, 27166.719, 0.0, 10.000643, 9.999012 
4.9505937e+2, 2.3661308e+2, -551190.3, -708232.1, -51980.375, 0.06449267, -0.009718575, -535543.9, 85641.34, 0.0, 10.001066, 9.998989 
4.9507385e+2, 2.4661101e+2, -392359.5, -635817.1, -57572.574, -0.038246874, -0.08700993, -379431.3, 143772.45, 0.0, 10.001719, 9.998499 
4.9508685e+2, 2.5660783e+2, -186748.4, -494913.03, -25897.63, -0.2651161, -0.261812, -184587.17, 240646.13, 0.0, 10.002494, 9.998423 
4.9510318e+2, 2.6660693e+2, -59575.906, -460830.56, 2218.0652, -0.21105519, -0.15315461, -59563.645, 267679.88, 0.0, 10.003039, 9.997719 
4.9512124e+2, 2.7660716e+2, 93488.98, -343845.44, 3779.5532, -0.0046758596, 0.089871585, 93521.64, 322766.03, 0.0, 10.003448, 9.997654 
4.9513718e+2, 2.866043e+2, 160638.9, -336509.63, -1900.6265, -0.018108357, 0.07769574, 160646.17, 291917.6, 0.00000000050236565, 10.003561, 9.996979 
4.95152e+2, 2.965997e+2, 230887.97, -285769.03, 7724.508, -0.14871278, -0.080762185, 231003.44, 264316.47, 0.00000078728175, 10.003511, 9.996679 
4.9516982e+2, 3.0659506e+2, 241572.1, -467960.72, 68505.516, -0.1198234, -0.10327966, 248125.78, 248125.78, 0.000007694774, 10.004171, 9.994776 
4.951906e+2, 3.16591e+2, 509289.06, -145146.05, 6087.8877, 0.16280173, 0.0017666497, 509345.7, 509345.7, 0.000025937767, 10.005163, 9.996517 
5.0488526e+2, 1.2659518e+2, -2287706.5, -1834412.4, 129344.8, 0.21770357, 0.05627981, -1800101.8, -100737.68, 0.0000009949754, 9.995405, 10.001381 
5.048987e+2, 1.3659604e+2, -2124903.5, -1673692.4, -155987.69, 0.096673004, -0.023852084, -1625017.0, -23659.049, 0.000000065122016, 9.995686, 10.0016985 
5.049116e+2, 1.4659794e+2, -1844335.0, -1416148.9, -78687.53, -0.1372217, -0.038728833, -1402146.4, 101186.875, 0.0, 9.996643, 10.002319 
5.049294e+2, 1.5659796e+2, -1594432.5, -1309832.5, -89870.195, 0.05630793, -0.27174288, -1283829.4, 121493.16, 0.0, 9.997962, 10.00174 
5.049466e+2, 1.6659826e+2, -1620140.3, -1653092.5, -39380.89, 0.13513418, -0.21607092, -1593927.8, -286602.88, 0.0, 9.998761, 9.9983225 
5.049626e+2, 1.7659888e+2, -1413392.4, -1444484.0, -5625.257, 0.06817839, 0.0025491002, -1412405.9, -203073.31, 0.0, 9.999257, 9.998842 
5.0497824e+2, 1.8659985e+2, -1141596.3, -999512.5, -24379.998, -0.024254443, 0.079599485, -995445.56, 115877.71, 0.0, 9.999314, 10.001198 
5.0499386e+2, 1.9660085e+2, -1093107.3, -968923.75, -63377.86, -0.096286096, 0.05739872, -942290.44, 71015.836, 0.0, 9.999164, 10.000807 
5.0500995e+2, 2.0659932e+2, -1102348.4, -1193929.8, -67245.766, -0.1100626, -0.03676597, -1066783.1, -151463.77, 0.0, 9.999593, 9.998384 
5.0502616e+2, 2.1659635e+2, -889772.2, -1025650.75, -45296.414, -0.100085236, -0.17916083, -876056.6, -58707.35, 0.0, 10.000316, 9.998519 
5.05043e+2, 2.2659539e+2, -721729.94, -847795.75, -38032.207, -0.034887675, -0.14907815, -711144.94, 8213.304, 0.0, 10.000599, 9.998928 
5.050602e+2, 2.3659545e+2, -613643.1, -742965.8, -48092.07, 0.062180284, -0.04221352, -597719.5, 23636.95, 0.0, 10.00066, 9.998945 
5.05075e+2, 2.4659364e+2, -487191.56, -663143.9, -65764.484, -0.05847529, -0.10180688, -465327.97, 58044.254, 0.0, 10.000991, 9.998663 
5.050885e+2, 2.5659072e+2, -326602.56, -546728.44, -76770.44, -0.29257527, -0.2654507, -302473.28, 122924.93, 0.0, 10.001471, 9.998557 
5.0510573e+2, 2.6658985e+2, -220919.34, -547444.5, -66054.94, -0.19919017, -0.15470305, -208062.86, 119345.21, 0.0, 10.001968, 9.99764 
5.051249e+2, 2.7658996e+2, -60269.434, -432219.9, -72828.58, 0.07008542, 0.08804972, -46517.883, 182892.44, 0.0, 10.002454, 9.997524 
5.051411e+2, 2.865871e+2, 79917.805, -412888.22, -83883.13, 0.03409664, 0.10202246, 93804.68, 225243.77, 0.00000000000000024545718, 10.003168, 9.996641 
5.051556e+2, 2.9658264e+2, 293524.8, -263078.84, -85997.06, -0.15867601, -0.014850054, 306508.75, 339990.88, 0.00000052219707, 10.003982, 9.996608 
5.051743e+2, 3.065777e+2, 347949.22, -274133.1, 32550.816, -0.096145906, -0.13572766, 349647.84, 349647.84, 0.0000060218053, 10.00429, 9.996051 
5.0519603e+2, 3.165734e+2, 433611.34, -95022.56, 35147.832, 0.24136965, -0.17520857, 435938.03, 435938.03, 0.000021636588, 10.004274, 9.997287 
5.148771e+2, 1.2657519e+2, -2211682.0, -1690607.4, 125597.71, -0.15718408, -0.00012051085, -1661913.9, 37648.95, 0.00000067894854, 9.99546, 10.002343 
5.14894e+2, 1.365771e+2, -2078484.6, -1575885.0, -137919.08, 0.05110265, -0.05552935, -1540526.0, 61020.387, 0.000000029496794, 9.995682, 10.00237 
5.1490825e+2, 1.4658007e+2, -1843498.4, -1422301.0, -30871.588, -0.14246298, 0.012479676, -1420050.3, 83461.836, 0.0, 9.99667, 10.002266 
5.1492745e+2, 1.5658118e+2, -1583559.5, -1289711.8, -43692.37, 0.049427424, -0.11042443, -1283352.6, 122139.23, 0.0, 9.997973, 10.001872 
5.1494527e+2, 1.6658126e+2, -1549921.8, -1508656.6, -22498.838, 0.12185538, -0.14030965, -1498762.1, -191269.8, 0.0, 9.998767, 9.9993105 
5.1496166e+2, 1.7658089e+2, -1365591.8, -1346734.8, 10666.811, 0.03878294, -0.11723818, -1341926.8, -132423.83, 0.0, 9.999264, 9.99951 
5.1497686e+2, 1.8658145e+2, -1208135.4, -1138376.6, -33183.566, -0.096298635, -0.053052917, -1125113.3, -13614.793, 0.0, 9.999318, 10.000241 
5.1499176e+2, 1.9658239e+2, -1144962.8, -1074056.1, -62274.02, -0.22380602, 0.011798825, -1037850.6, -24363.58, 0.0, 9.999151, 10.000092 
5.150089e+2, 2.065815e+2, -1062044.8, -1106509.5, -41738.72, -0.17856649, -0.02141305, -1036986.56, -121492.17, 0.0, 9.999576, 9.998993 
5.1502705e+2, 2.1657957e+2, -857380.6, -954234.56, -20584.41, -0.051961757, -0.12033114, -853187.4, -35675.086, 0.0, 10.000296, 9.999019 
5.150436e+2, 2.2657818e+2, -734858.0, -871436.44, -38535.305, -0.03375342, -0.1479567, -724735.56, -5210.338, 0.0, 10.000583, 9.998774 
5.1505953e+2, 2.3657697e+2, -629095.44, -772311.6, -42080.406, -0.0701713, -0.15274021, -617646.44, 3889.8125, 0.0, 10.000647, 9.998751 
5.150759e+2, 2.4657604e+2, -514204.5, -716240.94, -50310.266, -0.06318637, -0.09444513, -502369.7, 21174.969, 0.0, 10.000978, 9.998303 
5.150927e+2, 2.5657517e+2, -349560.94, -592042.3, -56702.9, -0.03218325, -0.019826334, -336956.47, 88595.91, 0.0, 10.00146, 9.998251 
5.151099e+2, 2.665727e+2, -231083.63, -566188.75, -48936.402, 0.018758677, -0.04779663, -224083.53, 103492.766, 0.0, 10.00196, 9.997515 
5.151274e+2, 2.7656925e+2, -73807.08, -459688.7, -49693.938, 0.073746644, -0.1485913, -67510.234, 162100.25, 0.0, 10.00245, 9.997337 
5.151443e+2, 2.8656626e+2, 45156.457, -483029.8, -54196.453, 0.036080297, -0.11211296, 50660.13, 182302.84, 0.000000000053284984, 10.00316, 9.996163 
5.151608e+2, 2.9656363e+2, 288745.34, -269577.78, -56090.563, -0.03983509, -0.0027777348, 294324.6, 327997.25, 0.00000035287385, 10.003966, 9.99657 
5.151796e+2, 3.0656025e+2, 508627.16, 64596.355, 30824.54, 0.0049328287, -0.10008689, 510756.78, 510756.78, 0.0000046300906, 10.0042715, 9.998386 
5.152001e+2, 3.16557e+2, 544785.94, 142348.66, 36163.82, 0.20912759, -0.26841, 548009.9, 548009.9, 0.000017695404, 10.004251, 9.998929 
5.248713e+2, 1.2655628e+2, -2301779.8, -1736620.0, 211616.92, -0.24940632, -0.042928454, -1666165.8, 33580.87, 0.0000005002885, 9.994852, 10.002322 
5.2489e+2, 1.3655864e+2, -2141300.3, -1628806.9, -122341.0, 0.11041625, -0.041002654, -1601099.9, 627.2383, 0.000000016983103, 9.995338, 10.002177 
5.249047e+2, 1.465616e+2, -1986839.5, -1545686.0, -38232.695, -0.12279508, 0.06327847, -1542397.1, -38701.355, 0.0, 9.995929, 10.001774 
5.249244e+2, 1.5656255e+2, -1819501.9, -1429213.0, -95375.01, 0.026856074, -0.027123958, -1407153.1, -1472.4174, 0.0, 9.996467, 10.001642 
5.249429e+2, 1.6656286e+2, -1755018.0, -1476340.0, -91047.28, 0.105836675, -0.09267958, -1449230.9, -141555.11, 0.0, 9.996789, 10.000493 
5.249599e+2, 1.7656292e+2, -1622859.5, -1367728.6, -45968.684, 0.04842325, -0.14017284, -1359698.9, -150023.56, 0.0, 9.997048, 10.00044 
5.2497566e+2, 1.8656325e+2, -1479511.0, -1323310.1, -60298.543, -0.06394738, -0.111603595, -1302741.5, -191068.83, 0.0, 9.997687, 9.99976 
5.2499115e+2, 1.9656357e+2, -1264471.0, -1170657.8, -56946.95, -0.16618219, -0.06034676, -1143786.5, -130116.22, 0.0, 9.998498, 9.999744 
5.250089e+2, 2.0656313e+2, -1126278.0, -1095644.3, -25089.904, -0.10185902, -0.05573533, -1081565.4, -165891.88, 0.0, 9.9989605, 9.999362 
5.250277e+2, 2.1656223e+2, -989666.9, -987899.1, -26420.3, 0.039858706, -0.0877761, -962347.94, -144667.6, 0.0, 9.999261, 9.999285 
5.2504444e+2, 2.2656076e+2, -818292.7, -937936.9, -48905.887, 0.00807675, -0.119263634, -800846.0, -81151.93, 0.0, 10.000123, 9.99854 
5.2506006e+2, 2.365589e+2, -550543.1, -757965.4, -62523.156, -0.11139336, -0.16534603, -533154.56, 88557.875, 0.0, 10.001289, 9.998541 
5.2507746e+2, 2.4655786e+2, -355421.47, -647354.25, -58180.305, -0.065424755, -0.103338555, -344253.75, 179468.4, 0.0, 10.002103, 9.998235 
5.250957e+2, 2.5655723e+2, -175382.16, -515230.75, -51584.867, 0.06943197, 0.0007214652, -167724.73, 258003.13, 0.0, 10.002691, 9.998186 
5.2511287e+2, 2.6655427e+2, -93566.086, -502902.3, -38117.754, 0.072079204, -0.07196469, -90046.78, 237708.61, 0.0, 10.002914, 9.997492 
5.251293e+2, 2.7654994e+2, -4254.9966, -425755.97, -28884.068, -0.0015428424, -0.25876346, -2284.875, 227511.4, 0.0, 10.002927, 9.997343 
5.251469e+2, 2.8654698e+2, 121815.58, -432336.13, 23932.74, -0.03515984, -0.22845003, 122847.266, 254675.3, 0.0, 10.003629, 9.996285 
5.2516514e+2, 2.9654482e+2, 401014.9, -205452.4, 49605.563, -0.035347722, -0.08003355, 405045.56, 438899.2, 0.00000021005809, 10.004693, 9.996661 
5.2518415e+2, 3.0654252e+2, 610877.7, 123421.516, 18781.799, 0.0034910445, -0.08160062, 611600.3, 611600.3, 0.0000034783275, 10.004935, 9.99847 
5.252035e+2, 3.1653982e+2, 597238.1, 143222.13, -140064.89, 0.113991864, -0.19363445, 636971.25, 636971.25, 0.000014639432, 10.004714, 9.998713 
5.3486776e+2, 1.2653866e+2, -2371438.0, -1887693.1, 214404.61, -0.09799795, -0.060240723, -1806344.9, -106431.11, 0.00000041209, 9.994884, 10.001269 
5.3488696e+2, 1.3654068e+2, -2221154.3, -1790956.0, -101187.92, 0.26548824, 0.02475113, -1768343.9, -166444.19, 0.000000018082496, 9.995328, 10.001068 
5.3490096e+2, 1.4654249e+2, -2053777.0, -1687660.5, -19563.549, -0.0939066, 0.116810784, -1686618.1, -182733.78, 0.0, 9.995935, 10.000798 
5.349202e+2, 1.5654205e+2, -1862587.8, -1518776.1, -76602.08, -0.0366134, -0.019570637, -1502481.3, -96592.15, 0.0, 9.996467, 10.001027 
5.349392e+2, 1.6654307e+2, -1656714.5, -1274039.9, -85224.19, 0.05948782, -0.06790957, -1255918.0, 51957.07, 0.0, 9.996794, 10.001879 
5.349573e+2, 1.7654501e+2, -1540775.9, -1197039.1, -31849.664, 0.077852495, -0.06575315, -1194113.0, 15736.471, 0.0, 9.997046, 10.001611 
5.3497463e+2, 1.8654525e+2, -1482645.8, -1325748.1, -30887.957, 0.058326412, -0.09328185, -1319886.4, -208040.61, 0.0, 9.997671, 9.99975 
5.3499186e+2, 1.9654444e+2, -1265330.4, -1169494.5, -28003.8, 0.055165872, -0.15777996, -1161911.6, -148055.95, 0.0, 9.998486, 9.999758 
5.3500986e+2, 2.0654424e+2, -1119283.8, -1080106.9, -16255.175, 0.09895125, -0.13609095, -1074240.8, -158384.17, 0.0, 9.998953, 9.999474 
5.3502816e+2, 2.1654433e+2, -989009.3, -982889.2, -8004.002, 0.15341726, -0.07883286, -977380.25, -159527.28, 0.0, 9.999243, 9.999329 
5.3504515e+2, 2.2654316e+2, -844799.56, -988862.4, -6551.625, 0.06941785, -0.06267552, -844502.25, -124637.77, 0.0, 10.000104, 9.9982 
5.3506166e+2, 2.3654118e+2, -571996.7, -796134.94, -19679.613, -0.083368376, -0.08800352, -570281.9, 51603.387, 0.0, 10.00126, 9.998294 
5.350794e+2, 2.4653909e+2, -348594.75, -623795.25, -37745.99, -0.0829646, -0.13187215, -343511.47, 180393.44, 0.0, 10.002063, 9.998417 
5.350977e+2, 2.565369e+2, -168372.4, -494657.25, -31128.814, -0.0011420273, -0.20014127, -165429.16, 260495.31, 0.0, 10.002663, 9.9983425 
5.351146e+2, 2.665345e+2, -92469.16, -492176.63, -39574.42, -0.050777838, -0.22744228, -88588.625, 239356.89, 0.0, 10.002881, 9.997581 
5.3513056e+2, 2.7653193e+2, 6243.227, -398831.66, -19951.172, -0.17458352, -0.25019577, 7223.5107, 237192.02, 0.0, 10.002903, 9.9975395 
5.35149e+2, 2.8652912e+2, 165271.19, -335960.03, 62621.84, -0.19513148, -0.2503166, 172976.45, 304972.44, 0.0, 10.003603, 9.996962 
5.3516877e+2, 2.9652625e+2, 412468.72, -170806.56, 83586.02, -0.15080172, -0.23992626, 424210.63, 458236.13, 0.00000012588598, 10.004646, 9.996922 
5.3518796e+2, 3.065245e+2, 460637.72, -176886.69, 9697.261, -0.105863556, -0.08004201, 460785.2, 460785.2, 0.000002695704, 10.004889, 9.9964285 
5.3520644e+2, 3.1652194e+2, 454892.34, -140720.44, -135651.22, -0.07982376, 0.025872538, 484331.88, 484331.88, 0.000012612665, 10.004667, 9.996782 
5.448643e+2, 1.2651946e+2, -2208598.5, -1812463.6, 83599.945, 0.022850376, -0.03521382, -1795543.5, -95443.266, 0.00000036785775, 9.996016, 10.001244 
5.448836e+2, 1.3652031e+2, -1995668.1, -1696322.8, -151633.31, 0.3240216, -0.05667093, -1632935.4, -30839.96, 0.000000024396927, 9.996932, 10.000947 
5.4489744e+2, 1.4652203e+2, -1924877.9, -1644510.4, -22048.867, -0.084183834, 0.04345022, -1642787.0, -138704.86, 0.0, 9.996904, 10.0006275 
5.449171e+2, 1.5652238e+2, -1894932.8, -1549696.0, -24328.102, 0.017497314, 0.0034455373, -1547990.1, -141907.56, 0.0, 9.996311, 10.000891 
5.449362e+2, 1.6652358e+2, -1671681.5, -1270103.3, -51760.063, 0.08412004, -0.026619818, -1263539.1, 44528.31, 0.0, 9.9966545, 10.001967 
5.4495406e+2, 1.7652532e+2, -1468393.1, -1151698.3, -100692.26, 0.03141369, -0.051638518, -1122394.8, 87648.05, 0.0, 9.997504, 10.0017 
5.449723e+2, 1.8652567e+2, -1428172.1, -1280072.1, -124094.375, 0.048443627, -0.08437283, -1209613.3, -97575.14, 0.0, 9.997957, 9.9999275 
5.449911e+2, 1.965251e+2, -1291735.6, -1162102.8, -109776.945, 0.14152235, -0.13904685, -1099435.3, -85389.72, 0.0, 9.998215, 9.999941 
5.4500973e+2, 2.0652495e+2, -1074046.9, -1034093.4, -76650.54, 0.17932208, -0.1324255, -974859.2, -58814.18, 0.0, 9.999157, 9.999692 
5.450281e+2, 2.1652494e+2, -800513.25, -869710.2, -68231.65, 0.17070623, -0.10712439, -758609.4, 59431.426, 0.0, 10.00044, 9.999529 
5.450455e+2, 2.2652374e+2, -820403.75, -971388.44, -64246.34, 0.08396534, -0.10456809, -796766.44, -76714.69, 0.0, 10.000249, 9.998249 
5.450623e+2, 2.3652183e+2, -860942.06, -930221.1, -48328.047, -0.037937146, -0.12987487, -836121.56, -214049.56, 0.0, 9.999254, 9.998339 
5.450805e+2, 2.465198e+2, -703875.3, -788116.25, -33165.867, -0.051947385, -0.17100017, -692385.06, -168293.39, 0.0, 9.99959, 9.99848 
5.450993e+2, 2.5651777e+2, -451458.6, -621429.44, -39490.715, -0.008181341, -0.2311874, -442731.5, -16620.139, 0.0, 10.000677, 9.998427 
5.4511696e+2, 2.6651597e+2, -223235.78, -532647.3, -48717.87, -0.05227773, -0.21434395, -215746.28, 112380.6, 0.0, 10.0018835, 9.997784 
5.451338e+2, 2.765142e+2, 52823.37, -353451.4, -28079.613, -0.1436821, -0.17452551, 54754.906, 284896.22, 0.0, 10.003127, 9.997743 
5.4515284e+2, 2.8651112e+2, 138975.19, -330545.56, 26425.79, -0.15594958, -0.22324528, 140457.81, 272627.97, 0.0, 10.003345, 9.997122 
5.4517287e+2, 2.9650727e+2, 174049.31, -279208.72, 9060.029, -0.118477434, -0.3226887, 174230.33, 208437.02, 0.00000008559371, 10.002983, 9.996976 
5.451924e+2, 3.065055e+2, 230007.52, -350135.88, -571.72064, -0.078933366, -0.13115749, 230008.08, 230008.08, 0.0000022502522, 10.003565, 9.995876 
5.4521084e+2, 3.1650266e+2, 428758.13, -196027.34, -40338.73, -0.10602881, -0.0060236994, 431351.8, 431351.8, 0.000011431745, 10.004668, 9.996404 
5.5486095e+2, 1.2649868e+2, -2125656.8, -1651021.1, 92366.89, 0.07043678, 0.042208005, -1633679.5, 66627.16, 0.0000003291145, 9.99606, 10.00233 
5.5487996e+2, 1.3649754e+2, -1924974.1, -1554497.6, -123874.53, 0.25904742, -0.27999273, -1516894.9, 85419.04, 0.000000025104656, 9.996955, 10.001908 
5.5489403e+2, 1.4650027e+2, -1875746.1, -1551589.1, -47952.055, -0.11854042, -0.15486567, -1544644.5, -40356.06, 0.0, 9.996938, 10.001252 
5.54915e+2, 1.5650359e+2, -1868436.4, -1497203.1, -36756.305, 0.17629172, 0.04130366, -1493598.9, -87338.37, 0.0, 9.99632, 10.001248 
5.5493367e+2, 1.665044e+2, -1761103.6, -1454405.0, -20836.818, 0.16828756, 0.030409275, -1452995.8, -144743.23, 0.0, 9.996652, 10.000704 
5.549501e+2, 1.7650384e+2, -1541019.4, -1300491.1, -69959.43, -0.10912688, -0.10214331, -1281623.0, -71367.12, 0.0, 9.9974985, 10.00068 
5.5496866e+2, 1.8650442e+2, -1404198.5, -1229592.6, -117576.59, -0.11565155, -0.08490865, -1170450.8, -58200.867, 0.0, 9.997953, 10.000277 
5.549886e+2, 1.9650559e+2, -1269037.1, -1113295.8, -93104.41, 0.07128874, -0.002544213, -1069789.9, -55550.004, 0.0, 9.998205, 10.000282 
5.550083e+2, 2.0650527e+2, -1052199.1, -986082.25, -29401.9, 0.11987375, -0.045609307, -974898.94, -58660.05, 0.0, 9.999145, 10.000028 
5.550276e+2, 2.1650405e+2, -779489.56, -820344.9, -30516.37, 0.07327766, -0.17478482, -763194.75, 55049.06, 0.0, 10.000414, 9.999881 
5.5504525e+2, 2.2650257e+2, -794785.56, -910990.6, -105059.76, 0.034233473, -0.24162674, -732832.06, -12576.412, 0.0, 10.00022, 9.998676 
5.5506206e+2, 2.3650086e+2, -839109.0, -880037.4, -72512.945, 0.0060046487, -0.2876537, -784227.94, -161955.86, 0.0, 9.999233, 9.998693 
5.550807e+2, 2.4650005e+2, -709355.1, -797052.2, 6665.439, 0.009134861, -0.22066025, -708851.44, -184569.28, 0.0, 9.999579, 9.998425 
5.551003e+2, 2.564997e+2, -453597.28, -622984.8, 5048.862, 0.027916802, -0.10274979, -453446.94, -27157.773, 0.0, 10.000664, 9.998424 
5.551198e+2, 2.6649854e+2, -205713.02, -490102.8, -2869.2239, 0.044091545, -0.043054666, -205684.08, 122616.16, 0.0, 10.001858, 9.998086 
5.5513906e+2, 2.764967e+2, 61361.746, -328676.38, 11188.923, 0.060090978, -0.0380859, 61682.457, 291997.6, 0.0, 10.003095, 9.997929 
5.5515826e+2, 2.8649282e+2, 113204.06, -380129.4, 10063.01, 0.05225394, -0.15240103, 113409.24, 245759.97, 0.0, 10.0033245, 9.996793 
5.551774e+2, 2.9648787e+2, 164310.31, -299747.25, 5219.703, 0.033721402, -0.3363989, 164369.02, 198766.16, 0.00000008106292, 10.00298, 9.996838 
5.551973e+2, 3.0648565e+2, 286381.72, -228870.23, 39226.816, 0.0567369, -0.23045121, 289351.0, 289351.0, 0.0000018911338, 10.003548, 9.9967165 
5.5521643e+2, 3.164819e+2, 498150.78, -39261.6, 14189.179, -0.020841332, -0.28268442, 498525.16, 498525.16, 0.000010111776, 10.004611, 9.997508 
5.648557e+2, 1.2647574e+2, -2325615.8, -1614435.8, 33527.414, 0.04111308, 0.005260674, -1612858.6, 87675.945, 0.00000027083397, 9.9941225, 10.003508 
5.648756e+2, 1.3647643e+2, -2204496.8, -1577070.5, -166326.73, 0.25090885, -0.24678731, -1535705.5, 66814.375, 0.000000017878008, 9.994552, 10.002912 
5.648901e+2, 1.4647935e+2, -2008840.8, -1588060.8, -105038.945, -0.15305921, -0.16017032, -1563297.4, -58807.074, 0.0, 9.995909, 10.001495 
5.649119e+2, 1.5648217e+2, -1656692.6, -1377628.8, -130085.35, 0.16518107, -0.035361115, -1326395.5, 80070.24, 0.0, 9.997696, 10.001404 
5.649314e+2, 1.6648303e+2, -1584681.0, -1404466.3, -88860.93, 0.20935835, -0.030651167, -1368020.9, -59561.8, 0.0, 9.99801, 10.000394 
5.6494874e+2, 1.7648277e+2, -1561314.8, -1341727.6, -68747.055, -0.00004711602, -0.101235054, -1321980.5, -111518.164, 0.0, 9.997488, 10.000405 
5.649671e+2, 1.8648335e+2, -1413164.4, -1244108.3, -91419.86, -0.056364246, -0.06874979, -1204126.9, -91669.73, 0.0, 9.997937, 10.000184 
5.649866e+2, 1.964843e+2, -1164755.4, -1068811.3, -104036.375, 0.012454954, 0.0016826853, -1002219.44, 12228.735, 0.0, 9.99895, 10.000226 
5.6500685e+2, 2.064839e+2, -1066023.4, -982289.6, -67721.766, 0.06579235, -0.05212971, -944538.25, -28089.432, 0.0, 9.999014, 10.000113 
5.650273e+2, 2.1648271e+2, -1034612.0, -922360.8, -93303.52, 0.098159894, -0.18797092, -869602.8, -51147.54, 0.0, 9.998578, 10.000064 
5.650456e+2, 2.2648183e+2, -867275.5, -860379.0, -160790.19, 0.09115115, -0.24429104, -703000.06, 17459.99, 0.0, 9.99935, 9.999445 
5.650627e+2, 2.3648109e+2, -570076.0, -679425.8, -105529.81, 0.06821608, -0.27076718, -505898.56, 116566.01, 0.0, 10.000773, 9.999327 
5.650816e+2, 2.4648032e+2, -484162.2, -715261.75, -13374.364, 0.06163756, -0.21319601, -483390.75, 41082.715, 0.0, 10.001247, 9.9981785 
5.651016e+2, 2.5647947e+2, -390179.44, -613648.44, -31497.168, 0.06468049, -0.12375937, -385824.88, 40660.805, 0.0, 10.001196, 9.998228 
5.6512177e+2, 2.664781e+2, -247412.42, -499451.03, -37748.348, 0.07711015, -0.07947193, -241880.22, 86619.12, 0.0, 10.001531, 9.998178 
5.65142e+2, 2.7647632e+2, -79228.57, -383158.4, -43586.594, 0.09583225, -0.079165615, -73101.336, 157413.47, 0.0, 10.002083, 9.998036 
5.6516117e+2, 2.864729e+2, 72288.11, -392505.38, -42991.44, 0.03510846, -0.15473582, 76231.18, 208777.86, 0.00000000039546985, 10.003013, 9.996858 
5.6517994e+2, 2.9646865e+2, 343485.13, -198564.34, -25972.053, -0.06359745, -0.27152896, 344726.72, 379313.44, 0.00000016943194, 10.004148, 9.996972 
5.652009e+2, 3.0646634e+2, 426102.84, -94760.86, 4691.942, 0.02996081, -0.21658313, 426145.1, 426145.1, 0.000002142948, 10.004215, 9.997318 
5.652216e+2, 3.1646198e+2, 421685.8, 24865.998, -31422.283, 0.09434713, -0.3909713, 424158.6, 424158.6, 0.0000099653425, 10.003652, 9.998409 
5.7484835e+2, 1.2645064e+2, -2236745.5, -1435511.3, 20837.303, -0.11312493, -0.14866495, -1434969.8, 265813.78, 0.00000019303324, 9.994139, 10.004732 
5.748705e+2, 1.364571e+2, -2132519.8, -1425196.4, -140889.03, 0.28618124, 0.055065755, -1398166.3, 204546.06, 0.000000007774616, 9.994535, 10.003964 
5.7488555e+2, 1.4645937e+2, -2021205.3, -1613184.9, -37983.035, -0.20196968, 0.039742727, -1609679.1, -104992.12, 0.0, 9.995905, 10.001327 
5.749076e+2, 1.5645812e+2, -1660148.0, -1385890.9, -73200.79, -0.039125215, -0.2250651, -1367576.3, 39122.652, 0.0, 9.997704, 10.001344 
5.749292e+2, 1.6645943e+2, -1535265.6, -1306515.1, -112135.49, 0.18543607, -0.21101959, -1260715.3, 47972.008, 0.0, 9.998026, 10.00106 
5.749496e+2, 1.7646217e+2, -1525648.3, -1269905.1, -79204.23, 0.34181866, -0.045899145, -1247362.5, -36700.26, 0.0, 9.997496, 10.0008955 
5.7496774e+2, 1.8646248e+2, -1449114.3, -1317125.4, -54457.477, 0.20668682, -0.03375568, -1297557.6, -184898.28, 0.0, 9.997933, 9.999682 
5.749849e+2, 1.9646129e+2, -1200352.0, -1137105.6, -71501.35, -0.05408298, -0.12679312, -1090546.5, -75876.39, 0.0, 9.998927, 9.999767 
5.750052e+2, 2.064609e+2, -1081633.9, -1012953.7, -86505.29, -0.00030825866, -0.15023887, -954221.7, -37547.41, 0.0, 9.999004, 9.999908 
5.7502717e+2, 2.1646088e+2, -1038054.8, -925791.2, -97271.92, 0.22166884, -0.14812942, -869617.1, -50941.906, 0.0, 9.99856, 10.00005 
5.750463e+2, 2.2646153e+2, -792638.4, -698436.7, -107872.69, 0.2320302, -0.11650326, -627830.25, 92834.984, 0.0, 9.99932, 10.000571 
5.75064e+2, 2.3646246e+2, -512011.3, -551698.9, -58481.035, 0.12626587, -0.08333241, -470099.06, 152550.7, 0.0, 10.000743, 10.000219 
5.7508314e+2, 2.4646059e+2, -516370.16, -780778.8, -18883.084, 0.08602951, -0.15059923, -515028.4, 9637.478, 0.0, 10.001237, 9.997736 
5.7510304e+2, 2.56457e+2, -418541.8, -670550.75, -28618.236, 0.08011808, -0.2892227, -415332.75, 11368.022, 0.0, 10.001184, 9.997844 
5.751229e+2, 2.6645473e+2, -254036.1, -513537.88, -18530.35, 0.033166267, -0.31346616, -252719.56, 76003.55, 0.0, 10.001529, 9.998085 
5.751426e+2, 2.7645314e+2, -81276.29, -386042.7, -17145.225, -0.045031212, -0.2883406, -80314.79, 150424.27, 0.0, 10.002071, 9.998025 
5.7516176e+2, 2.864513e+2, 97681.62, -331606.75, -2003.8811, -0.21325493, -0.22549349, 97690.98, 230448.47, 0.000000002757487, 10.002979, 9.997291 
5.7518053e+2, 2.9644957e+2, 361978.38, -144616.3, 11347.6455, -0.41892692, -0.136737, 362232.44, 397008.47, 0.00000025563716, 10.004082, 9.997374 
5.752032e+2, 3.0644745e+2, 447798.28, -44192.844, -19379.607, -0.16535927, -0.10118074, 448560.47, 448560.47, 0.0000026089363, 10.004186, 9.9976845 
5.752264e+2, 3.164426e+2, 471112.94, 129084.4, -33496.047, 0.20125388, -0.36482203, 474362.47, 474362.47, 0.000011635945, 10.003641, 9.999134 
5.848429e+2, 1.2642801e+2, -2204492.3, -1516009.9, 154029.7, -0.09829886, -0.19962975, -1483120.9, 217880.13, 0.00000011738098, 9.994782, 10.003863 
5.848659e+2, 1.3643454e+2, -1900808.9, -1389703.8, -149884.58, 0.28182536, 0.09569778, -1348992.1, 253942.1, 0.0000000014227642, 9.996457, 10.003279 
5.8488154e+2, 1.464365e+2, -1876603.9, -1516907.8, -98114.5, -0.23168252, 0.065662816, -1491885.6, 13027.462, 0.0, 9.996789, 10.001558 
5.8490455e+2, 1.56435e+2, -1859794.9, -1457217.0, -111284.01, -0.038513947, -0.24690786, -1428503.0, -21576.602, 0.0, 9.996228, 10.001564 
5.8492655e+2, 1.6643675e+2, -1706556.4, -1369353.5, -167662.8, 0.18901718, -0.20687877, -1300179.4, 8731.155, 0.0, 9.996762, 10.001237 
5.849472e+2, 1.7644036e+2, -1441671.0, -1200468.1, -173151.6, 0.33005798, 0.024309477, -1110057.3, 100820.66, 0.0, 9.997951, 10.001149 
5.8496594e+2, 1.8644062e+2, -1373045.4, -1222687.9, -109248.26, 0.2218567, -0.0074429275, -1165250.5, -52376.965, 0.0, 9.998203, 10.000205 
5.8498394e+2, 1.964389e+2, -1320646.9, -1146287.5, -55016.363, 0.014561884, -0.20571886, -1130379.4, -115493.21, 0.0, 9.997888, 10.000208 
5.8500403e+2, 2.0643887e+2, -1215945.1, -1089307.5, -41221.586, 0.033502474, -0.20377073, -1077071.8, -160184.4, 0.0, 9.998126, 9.99981 
5.850252e+2, 2.164398e+2, -1022995.0, -928099.8, -42414.246, 0.16834472, -0.09999525, -911905.9, -93023.47, 0.0, 9.998705, 9.999964 
5.850451e+2, 2.2644056e+2, -790071.56, -711075.0, -71627.5, 0.17201349, -0.04640339, -668777.1, 52095.926, 0.0, 9.999401, 10.000445 
5.850643e+2, 2.364411e+2, -599112.94, -599579.6, -120374.14, 0.107186384, -0.03948747, -478971.9, 143890.45, 0.0, 10.000172, 10.000169 
5.8508414e+2, 2.4643904e+2, -514069.56, -724574.3, -89332.13, 0.07580698, -0.14857215, -481270.16, 43608.453, 0.0, 10.001017, 9.998227 
5.851043e+2, 2.5643545e+2, -285612.88, -563192.44, -34901.16, 0.059755057, -0.336181, -281291.88, 145618.95, 0.0, 10.001911, 9.998232 
5.8512455e+2, 2.664333e+2, -141775.47, -480225.5, -2666.7148, 0.0081890775, -0.35469705, -141754.45, 187177.23, 0.0, 10.002391, 9.997895 
5.8514476e+2, 2.7643186e+2, -5474.9146, -363455.03, -12144.967, -0.06639313, -0.29484683, -5063.353, 225883.77, 0.0, 10.002648, 9.997901 
5.851647e+2, 2.864303e+2, 73932.88, -300081.34, 3518.513, -0.19047265, -0.22542687, 73965.98, 206929.33, 0.000000002408673, 10.002631, 9.997674 
5.8518463e+2, 2.964288e+2, 139649.78, -223765.1, 8645.965, -0.32944402, -0.14934582, 139855.36, 174834.16, 0.00000023927663, 10.002436, 9.99762 
5.852073e+2, 3.064264e+2, 273045.47, -189795.48, -59221.082, -0.12421588, -0.12106058, 280502.72, 280502.72, 0.00000315029, 10.003259, 9.997125 
5.852299e+2, 3.1642202e+2, 603059.3, 150684.73, -134116.42, 0.12969735, -0.27923548, 639831.94, 639831.94, 0.000015040854, 10.004728, 9.998757 
5.948394e+2, 1.2640809e+2, -2415936.5, -1966825.3, 192326.1, 0.06514822, -0.13970746, -1895721.4, -194537.78, 0.000000058921596, 9.994833, 10.000749 
5.948618e+2, 1.3640864e+2, -2075609.0, -1763831.8, -94434.77, 0.22196753, -0.13661829, -1737459.0, -134272.66, 0.000000000010343272, 9.996502, 10.000693 
5.948781e+2, 1.464106e+2, -1827957.6, -1422627.6, -123686.695, -0.2647523, -0.09077543, -1387865.9, 117304.29, 0.0, 9.996817, 10.002192 
5.949027e+2, 1.564128e+2, -1824020.6, -1383403.6, -123264.65, 0.15224999, -0.09604932, -1351264.1, 55884.164, 0.0, 9.996228, 10.002071 
5.949235e+2, 1.6641505e+2, -1729918.5, -1415235.9, -124741.22, 0.20341142, -0.011264845, -1371787.1, -62658.83, 0.0, 9.996751, 10.000927 
5.949413e+2, 1.7641728e+2, -1443965.6, -1207322.1, -135079.44, -0.058715235, 0.11154099, -1146070.9, 65039.01, 0.0, 9.997956, 10.001101 
5.949616e+2, 1.8641776e+2, -1264112.6, -994945.6, -124181.74, -0.0343106, 0.013303479, -946406.7, 166693.33, 0.0, 9.9981985, 10.001769 
5.949837e+2, 1.964171e+2, -1228729.3, -952954.2, -61304.332, 0.19601752, -0.23192865, -939940.44, 75155.875, 0.0, 9.997876, 10.001541 
5.9500337e+2, 2.0641787e+2, -1215598.6, -1084787.5, -21833.293, 0.14796665, -0.2103082, -1081239.6, -164151.75, 0.0, 9.99811, 9.999849 
5.950215e+2, 2.1641944e+2, -1038086.5, -954186.94, -17508.96, -0.07641692, -0.044326834, -950679.6, -131602.6, 0.0, 9.998682, 9.999796 
5.9504175e+2, 2.2641893e+2, -888378.5, -909876.06, -44429.082, -0.10431594, -0.034231685, -853416.44, -132332.9, 0.0, 9.999379, 9.999089 
5.9506327e+2, 2.3641707e+2, -672466.25, -743204.4, -88039.29, -0.010505439, -0.13493492, -612957.0, 10144.389, 0.0, 10.000135, 9.999199 
5.9508455e+2, 2.4641576e+2, -422764.06, -527699.94, -57280.4, 0.011526902, -0.20451622, -397553.63, 127557.375, 0.0, 10.000983, 9.999598 
5.951055e+2, 2.564148e+2, -210995.94, -398621.88, -4325.2417, -0.01188963, -0.26648125, -210896.28, 216219.55, 0.0, 10.00187, 9.999382 
5.9512675e+2, 2.664137e+2, -167048.39, -524795.44, 5035.3306, -0.012974512, -0.21152747, -166977.53, 162148.28, 0.0, 10.002356, 9.997607 
5.9514815e+2, 2.764124e+2, -24608.963, -395455.28, -2482.441, -0.00012753211, -0.11143211, -24592.348, 206548.1, 0.0, 10.002615, 9.997698 
5.951699e+2, 2.8640974e+2, 95625.18, -251883.83, -6956.7246, 0.06370796, -0.16063023, 95764.39, 228929.25, 0.000000006018714, 10.002616, 9.9980135 
5.9519196e+2, 2.964065e+2, 144308.28, -211620.94, 9130.98, 0.1564065, -0.29341546, 144542.38, 179736.05, 0.00000042804348, 10.002423, 9.99771 
5.95213e+2, 3.064033e+2, 168855.14, -398316.13, -4968.9443, 0.12081956, -0.26235884, 168898.67, 168898.67, 0.000005530284, 10.003225, 9.995709 
5.9523195e+2, 3.1640038e+2, 493954.9, -54753.113, -61044.71, -0.14853705, -0.13713257, 500664.22, 500664.22, 0.000022644674, 10.004635, 9.997392 
6.048355e+2, 1.2638606e+2, -2156522.5, -1925207.3, 51568.145, 0.08948373, -0.10089317, -1914231.8, -212836.22, 0.000000021349177, 9.99697, 10.000005 
6.048584e+2, 1.3638422e+2, -2116086.3, -1845659.3, -36348.26, 0.23524672, -0.27147046, -1840858.9, -237435.47, 0.0, 9.996496, 10.000133 
6.0487485e+2, 1.4638636e+2, -1843927.0, -1417985.6, -40076.29, -0.2524524, -0.18969908, -1414247.8, 91158.945, 0.0, 9.9966545, 10.0023 
6.048998e+2, 1.5639046e+2, -1678833.9, -1296927.9, -77671.72, 0.19630957, -0.0170301, -1281735.4, 125632.05, 0.0, 9.997159, 10.002212 
6.0492074e+2, 1.6639267e+2, -1550096.6, -1302481.9, -29868.646, 0.19426855, 0.044877708, -1298930.0, 10416.757, 0.0, 9.997875, 10.001159 
6.0493857e+2, 1.7639372e+2, -1328270.8, -1133481.3, -12103.111, -0.16606838, 0.027920354, -1132732.1, 78605.086, 0.0, 9.998675, 10.001261 
6.049593e+2, 1.8639432e+2, -1206131.0, -997486.75, -114907.71, -0.10669308, -0.050411034, -946609.4, 166718.5, 0.0, 9.998725, 10.001498 
6.049822e+2, 1.9639455e+2, -1175642.1, -944981.3, -187504.67, 0.23537584, -0.18129772, -840177.4, 175142.27, 0.0, 9.998322, 10.00138 
6.0500216e+2, 2.063955e+2, -1124989.3, -991172.2, -146247.69, 0.19700117, -0.15900508, -897254.3, 20054.602, 0.0, 9.998519, 10.000294 
6.0502034e+2, 2.1639681e+2, -958704.25, -878209.8, -115964.03, -0.07414892, -0.061714858, -795707.3, 23590.213, 0.0, 9.999062, 10.000136 
6.0504115e+2, 2.2639596e+2, -912748.5, -952472.9, -80838.625, -0.099525385, -0.08250833, -849367.75, -128060.34, 0.0, 9.999342, 9.998818 
6.0506344e+2, 2.3639378e+2, -782998.06, -818252.4, -48120.734, 0.025132405, -0.18929638, -749377.56, -126047.09, 0.0, 9.999471, 9.999004 
6.0508513e+2, 2.4639328e+2, -600794.44, -593188.2, -34205.992, 0.04306891, -0.18077084, -562574.56, -37240.176, 0.0, 9.999677, 9.999775 
6.051065e+2, 2.5639373e+2, -475633.97, -501166.06, -71309.06, -0.0047575766, -0.11735043, -415957.25, 11370.265, 0.0, 9.999943, 9.999607 
6.051283e+2, 2.6639274e+2, -341102.66, -548973.25, -46125.715, -0.01796633, -0.09305847, -331327.25, -1991.8232, 0.0, 10.000896, 9.998148 
6.051504e+2, 2.7639073e+2, -49989.66, -358097.06, -1667.0222, -0.008182309, -0.11482561, -49980.64, 181372.94, 0.0, 10.002223, 9.998147 
6.05173e+2, 2.8638795e+2, 116208.555, -264602.72, -28799.928, 0.09650307, -0.18688846, 118374.31, 251753.39, 0.000000026208514, 10.002856, 9.99781 
6.051957e+2, 2.963849e+2, 235599.48, -180233.94, -51699.62, 0.25521857, -0.27930602, 241930.78, 277337.97, 0.0000009881824, 10.003102, 9.9976 
6.0521656e+2, 3.0638173e+2, 189226.89, -322575.53, 30708.795, 0.1616553, -0.27119932, 191062.88, 191062.88, 0.000008955931, 10.0030775, 9.996302 
6.0523504e+2, 3.163798e+2, 255140.63, -133014.81, 117315.945, -0.20173618, -0.10931518, 287842.97, 287842.97, 0.000031917505, 10.002846, 9.997712 
6.14831e+2, 1.2636192e+2, -2022110.8, -1657070.9, -4108.5166, -0.072049774, -0.077176474, -1657024.6, 44613.164, 0.0000000039655865, 9.997022, 10.001816 
6.1485565e+2, 1.3636138e+2, -2004419.9, -1616783.9, -47094.41, 0.3068232, -0.29993778, -1611144.4, -7500.41, 0.0, 9.996509, 10.001697 
6.1487204e+2, 1.4636385e+2, -1872268.8, -1480673.3, -22973.537, -0.20797145, -0.22714819, -1479330.0, 26291.395, 0.0, 9.996667, 10.001866 
6.1489576e+2, 1.5636796e+2, -1693640.6, -1334858.1, -55185.27, 0.06852316, -0.014121031, -1326561.8, 81022.04, 0.0, 9.997186, 10.001942 
6.149181e+2, 1.6636957e+2, -1493629.3, -1188574.5, -671.1891, 0.13869204, -0.04439889, -1188573.1, 120992.76, 0.0, 9.99789, 10.001933 
6.1493886e+2, 1.7636962e+2, -1299988.8, -1078089.9, 14395.88, -0.00693461, -0.23442912, -1077159.8, 134400.6, 0.0, 9.998688, 10.001636 
6.1495906e+2, 1.8637027e+2, -1356075.1, -1305221.1, -132985.17, -0.007376582, -0.20436317, -1195253.9, -81696.555, 0.0, 9.9987135, 9.99939 
6.149793e+2, 1.9637121e+2, -1296992.1, -1194871.3, -195806.98, 0.11589792, -0.055837113, -1043576.75, -28020.676, 0.0, 9.998313, 9.999668 
6.150003e+2, 2.0637175e+2, -1068960.4, -871791.6, -127493.25, 0.16303575, -0.049517814, -809213.4, 108337.16, 0.0, 9.998506, 10.00112 
6.150217e+2, 2.1637192e+2, -904294.4, -760235.3, -95891.31, 0.15200722, -0.14904502, -712334.06, 107209.53, 0.0, 9.999038, 10.000958 
6.150431e+2, 2.263717e+2, -860445.0, -837051.3, -78036.71, 0.16318849, -0.18737057, -769839.7, -48295.563, 0.0, 9.999313, 9.999623 
6.1506456e+2, 2.3637123e+2, -745507.4, -737276.56, -41043.875, 0.19258903, -0.20268412, -700142.25, -76592.62, 0.0, 9.999457, 9.999565 
6.150859e+2, 2.4637155e+2, -670289.06, -737336.7, -26886.059, 0.14984229, -0.08163649, -660839.56, -135290.34, 0.0, 9.999675, 9.998787 
6.1510706e+2, 2.5637224e+2, -524274.28, -602032.4, -53365.906, 0.059817374, 0.10448958, -497126.8, -69580.89, 0.0, 9.999941, 9.998916 
6.151292e+2, 2.6637045e+2, -249419.33, -357236.88, 3187.6997, -0.025922377, 0.002994666, -249325.17, 80234.61, 0.0, 10.000889, 9.999468 
6.1515164e+2, 2.76367e+2, 18049.438, -208893.39, 43661.23, -0.10746762, -0.2924613, 26159.54, 257744.78, 0.0, 10.002189, 9.999188 
6.1517394e+2, 2.8636497e+2, 61503.53, -369792.56, -22733.11, -0.09539035, -0.2960982, 62698.453, 196303.42, 0.0000000322073, 10.002821, 9.997104 
6.15196e+2, 2.9636386e+2, 212200.2, -224757.5, -41378.66, -0.0284971, -0.12445007, 216084.11, 251704.0, 0.0000013653662, 10.003085, 9.997302 
6.152179e+2, 3.063615e+2, 357533.34, 27395.852, 19478.11, -0.010661494, -0.16086476, 358678.56, 358678.56, 0.000011193468, 10.003077, 9.998705 
6.1523896e+2, 3.1636018e+2, 383655.88, 131988.64, 119685.08, -0.10210072, -0.17908096, 431484.63, 431484.63, 0.000038469112, 10.002853, 9.999528 
6.2482697e+2, 1.2633781e+2, -2144905.0, -1595600.6, 12566.273, -0.10030663, -0.10095099, -1595313.4, 106565.875, 0.00000000008306351, 9.995652, 10.002903 
6.248522e+2, 1.3633958e+2, -2011249.9, -1511052.5, -58354.355, 0.33762082, -0.2098457, -1504335.0, 99522.32, 0.0, 9.995995, 10.002668 
6.248687e+2, 1.4634183e+2, -1879667.5, -1532225.0, -22433.777, -0.20679295, -0.17714304, -1530782.5, -24947.688, 0.0, 9.996826, 10.001433 
6.248925e+2, 1.563443e+2, -1617137.3, -1342585.0, -64958.855, -0.013669247, -0.08208163, -1327991.5, 79821.5, 0.0, 9.997905, 10.00154 
6.249155e+2, 1.6634539e+2, -1574227.0, -1241901.6, -86970.07, 0.12056077, -0.14016609, -1220517.4, 89282.99, 0.0, 9.997398, 10.001806 
6.249375e+2, 1.7634557e+2, -1711170.5, -1286816.9, -135951.97, 0.13292995, -0.30517218, -1246997.8, -35203.547, 0.0, 9.995916, 10.001538 
6.249578e+2, 1.8634667e+2, -1632355.9, -1433786.4, -161666.9, 0.098800786, -0.22637737, -1343351.3, -229563.11, 0.0, 9.996795, 9.999433 
6.249775e+2, 1.9634826e+2, -1183909.5, -1139645.1, -73994.38, 0.072411336, -0.018222306, -1084543.9, -68761.32, 0.0, 9.99908, 9.999679 
6.24999e+2, 2.0634863e+2, -934629.4, -832141.44, -22411.217, 0.12797137, -0.015745016, -827455.06, 90324.3, 0.0, 9.999535, 10.000896 
6.250213e+2, 2.1634819e+2, -934827.25, -788589.5, -69165.086, 0.21977895, -0.15523024, -761059.56, 58718.94, 0.0, 9.998893, 10.000831 
6.250432e+2, 2.263483e+2, -794335.44, -766534.7, -68908.61, 0.23488003, -0.17652117, -710138.44, 11637.207, 0.0, 9.999597, 9.999972 
6.25065e+2, 2.3634864e+2, -490734.78, -586092.06, -71655.94, 0.21106814, -0.14162338, -452344.7, 171427.64, 0.0, 10.001078, 9.999826 
6.250868e+2, 2.4634866e+2, -390329.44, -632487.2, -53462.48, 0.17056713, -0.046913996, -379051.47, 146723.36, 0.0, 10.001723, 9.99852 
6.2510854e+2, 2.563484e+2, -258559.45, -497956.38, -31308.018, 0.11601356, 0.06630255, -254532.77, 173248.75, 0.0, 10.001869, 9.998701 
6.251311e+2, 2.6634666e+2, -134567.11, -291322.03, 64.79813, 0.04216232, -0.023349008, -134567.1, 195228.72, 0.0, 10.001638, 9.9995575 
6.25154e+2, 2.7634397e+2, -113531.99, -255025.22, -49528.91, -0.04126327, -0.2523197, -97917.76, 133897.89, 0.0, 10.001212, 9.999341 
6.2517613e+2, 2.863425e+2, -16822.55, -351060.47, -73807.41, -0.11520021, -0.2321048, -1249.7493, 132579.45, 0.000000026044278, 10.002031, 9.997618 
6.251977e+2, 2.9634187e+2, 315080.5, -123460.34, -16100.244, -0.18307488, -0.068351254, 315670.8, 351508.97, 0.0000020497203, 10.003568, 9.9977665 
6.2522036e+2, 3.0633962e+2, 555785.06, 140427.81, -45197.44, -0.13225816, -0.119658075, 560646.3, 560646.3, 0.000014318652, 10.004365, 9.998862 
6.252434e+2, 3.1633788e+2, 637413.25, 228417.95, -101938.88, -0.035878558, -0.18961243, 661412.5, 661412.5, 0.000045863813, 10.004704, 9.999305 
6.348235e+2, 1.2631378e+2, -2119129.0, -1541118.6, -7005.1763, -0.023035118, -0.17545474, -1541033.8, 161085.75, 0.0, 9.995651, 10.003276 
6.348479e+2, 1.3631882e+2, -1987322.4, -1461755.5, -39973.29, 0.3062949, 0.00087826594, -1458732.6, 145330.38, 0.0, 9.995995, 10.003008 
6.348649e+2, 1.4632027e+2, -1910273.0, -1599114.4, 16361.299, -0.27009913, -0.03703812, -1598256.5, -92209.805, 0.0, 9.996838, 10.000971 
6.3488984e+2, 1.5631945e+2, -1651289.3, -1420437.1, -34473.594, -0.06716369, -0.22368345, -1415399.1, -7343.7163, 0.0, 9.9979315, 10.000995 
6.3491297e+2, 1.6632009e+2, -1646917.8, -1391766.5, -148017.36, 0.12292578, -0.24569082, -1323933.1, -13882.176, 0.0, 9.997396, 10.000776 
6.349344e+2, 1.7632154e+2, -1755423.8, -1375641.6, -173174.08, 0.23146993, -0.18354061, -1308534.9, -96495.94, 0.0, 9.995903, 10.000936 
6.349556e+2, 1.8632351e+2, -1480756.4, -1115673.3, -76511.625, 0.19168763, -0.117321804, -1100286.9, 13733.609, 0.0, 9.9967785, 10.001624 
6.349768e+2, 1.9632567e+2, -1063566.4, -887598.8, -230.7032, 0.08743505, -0.066948816, -887598.5, 128400.62, 0.0, 9.999069, 10.001414 
6.3499796e+2, 2.0632619e+2, -1024252.5, -1015572.4, -50476.99, 0.07456818, -0.055335265, -969249.25, -51254.03, 0.0, 9.999522, 9.999644 
6.350191e+2, 2.1632561e+2, -1013735.06, -949945.25, -81164.35, 0.10827213, -0.08334712, -894633.9, -74631.22, 0.0, 9.998879, 9.99973 
6.350414e+2, 2.2632569e+2, -805826.5, -782431.4, -14406.515, 0.09841837, -0.05466201, -775571.44, -53569.066, 0.0, 9.999565, 9.999876 
6.3506466e+2, 2.3632607e+2, -497851.4, -591805.4, -20170.273, 0.06579883, -0.009109343, -493704.25, 130294.0, 0.0, 10.0010395, 9.999804 
6.350877e+2, 2.4632473e+2, -366017.2, -574373.75, -49677.895, 0.0889141, -0.07170276, -354778.78, 171231.61, 0.0, 10.001689, 9.998938 
6.351107e+2, 2.563223e+2, -247021.05, -467022.22, -27190.533, 0.14362438, -0.21624304, -243710.31, 184322.9, 0.0, 10.001838, 9.99893 
6.351339e+2, 2.6632142e+2, -212627.58, -450803.72, -18353.336, 0.1641094, -0.16682878, -211221.61, 118821.48, 0.0, 10.001626, 9.998468 
6.351572e+2, 2.763215e+2, -164487.02, -360219.03, -53454.113, 0.16053174, -0.0137670785, -150840.25, 81205.32, 0.0, 10.001208, 9.998621 
6.351794e+2, 2.8632054e+2, 98093.086, -109550.63, -17537.053, 0.0070247496, -0.0073954533, 99563.8, 233616.08, 0.00000012223413, 10.002018, 9.999285 
6.3520074e+2, 2.9631892e+2, 390161.56, 45510.945, 35250.977, -0.23740931, -0.10129157, 393730.1, 429791.75, 0.000003911545, 10.00351, 9.998957 
6.352238e+2, 3.0631626e+2, 412633.97, -142146.33, -35436.965, -0.22371635, -0.14001082, 414888.38, 414888.38, 0.000020899106, 10.004304, 9.99695 
6.352481e+2, 3.163134e+2, 484914.5, -74888.95, -81565.43, -0.039739937, -0.12983342, 496556.78, 496556.78, 0.00005952563, 10.004648, 9.997246 
6.448203e+2, 1.2629148e+2, -2101905.8, -1588791.1, 34611.44, 0.07797095, -0.11417509, -1586467.0, 115871.73, 0.0, 9.996009, 10.002775 
6.4484394e+2, 1.3629551e+2, -1840592.5, -1431875.6, -50571.29, 0.25358537, 0.0041277665, -1425711.4, 178581.67, 0.0, 9.997181, 10.002638 
6.4486176e+2, 1.4629678e+2, -1849231.3, -1570375.8, -10290.309, -0.29144847, -0.035780825, -1569996.5, -63717.43, 0.0, 9.997259, 10.000967 
6.4488804e+2, 1.5629625e+2, -1835791.8, -1513941.1, -31581.46, 0.026290866, -0.19404039, -1510871.4, -102585.695, 0.0, 9.996686, 10.000954 
6.449109e+2, 1.6629703e+2, -1653644.1, -1436679.5, -104044.22, 0.17557655, -0.1774672, -1394850.1, -84569.0, 0.0, 9.997526, 10.000407 
6.4493114e+2, 1.7629859e+2, -1295803.9, -1185278.6, -81456.34, 0.1536101, -0.06939077, -1142108.0, 70161.9, 0.0, 9.999186, 10.000662 
6.4495295e+2, 1.863003e+2, -1095712.0, -892670.3, -27619.393, 0.13161966, -0.034999464, -888980.3, 225271.98, 0.0, 9.99926, 10.00196 
6.4497596e+2, 1.96302e+2, -1147145.3, -895123.3, -96049.805, 0.13664837, -0.064961456, -862690.8, 153541.13, 0.0, 9.998359, 10.001702 
6.449974e+2, 2.0630264e+2, -1158334.5, -1081880.5, -156412.4, 0.11725429, -0.051522903, -959091.56, -40865.33, 0.0, 9.998614, 9.999624 
6.45018e+2, 2.1630257e+2, -916460.0, -910782.6, -99423.09, 0.07550806, -0.026393864, -814157.7, 6072.3813, 0.0, 9.999581, 9.999662 
6.450407e+2, 2.2630244e+2, -800185.1, -813804.3, 10241.151, 0.06387569, 0.0033545943, -794696.25, -72463.81, 0.0, 9.999744, 9.9995775 
6.450649e+2, 2.3630221e+2, -750101.25, -738481.8, -14862.937, 0.075120606, 0.016581174, -728333.44, -104098.6, 0.0, 9.999416, 9.999579 
6.4508873e+2, 2.4630068e+2, -615823.25, -670823.7, -56550.242, 0.119253755, -0.06791015, -580441.1, -54192.574, 0.0, 9.999875, 9.999147 
6.451123e+2, 2.5629827e+2, -385408.44, -519829.5, -55817.75, 0.17904203, -0.22684884, -365252.63, 63017.316, 0.0, 10.000829, 9.999053 
6.451357e+2, 2.6629773e+2, -249018.53, -513461.44, -32837.902, 0.18457678, -0.12847255, -245001.81, 85276.016, 0.0, 10.00157, 9.998065 
6.451589e+2, 2.7629825e+2, -46845.305, -343577.53, -19087.025, 0.1588128, 0.10808474, -45622.59, 186655.6, 0.000000000000000000046744374, 10.002191, 9.9982605 
6.451823e+2, 2.8629676e+2, 138421.98, -92697.3, -18797.842, 0.08715219, 0.08018267, 139940.9, 274230.28, 0.00000034821963, 10.002315, 9.999252 
6.4520574e+2, 2.9629403e+2, 184363.63, -64686.383, -88154.72, -0.013117342, -0.118923575, 212409.03, 248716.47, 0.0000065781537, 10.002148, 9.998854 
6.4522874e+2, 3.062913e+2, 198762.0, -294800.9, -124585.0, -0.0920848, -0.13627334, 228426.77, 228426.77, 0.000030269019, 10.003041, 9.996511 
6.4525205e+2, 3.1628796e+2, 437678.13, -146794.56, -74641.01, -0.1002789, -0.12904786, 447059.7, 447059.7, 0.000079001555, 10.004533, 9.996808 
6.548173e+2, 1.2627104e+2, -2199797.0, -1797832.1, 51026.08, 0.167517, 0.07920723, -1791456.0, -88920.46, 0.0, 9.996037, 10.0013275 
6.5484023e+2, 1.3626964e+2, -1916923.6, -1601157.4, -13608.447, 0.15993267, -0.2073055, -1600572.0, 3975.3855, 0.0, 9.997226, 10.001456 
6.5485907e+2, 1.4627129e+2, -1812851.6, -1498433.3, -37830.676, -0.28786224, -0.18363269, -1493945.5, 12587.619, 0.0, 9.997276, 10.0014515 
6.54887e+2, 1.562747e+2, -1804777.6, -1448277.4, -40798.945, 0.2502214, 0.0071378653, -1443667.8, -35163.914, 0.0, 9.996679, 10.001408 
6.549093e+2, 1.6627634e+2, -1632891.9, -1394615.9, -41801.09, 0.25970098, 0.072515115, -1387495.5, -77005.54, 0.0, 9.997528, 10.000694 
6.549276e+2, 1.762768e+2, -1286280.8, -1176339.9, -28526.07, -0.1258155, 0.044099413, -1169379.0, 43107.08, 0.0, 9.999228, 10.000704 
6.549499e+2, 1.8627712e+2, -1200502.5, -1111856.1, -65833.22, -0.10443249, 0.021514341, -1076815.9, 37667.11, 0.0, 9.9992695, 10.000449 
6.5497494e+2, 1.9627728e+2, -1232232.8, -1065172.8, -119995.71, 0.19710019, -0.013411368, -1002496.6, 13984.067, 0.0, 9.998334, 10.000546 
6.549972e+2, 2.0627803e+2, -1079727.1, -915048.3, -121457.09, 0.23486044, -0.0038392586, -850651.2, 67821.086, 0.0, 9.998595, 10.000779 
6.550178e+2, 2.1627904e+2, -851734.2, -773336.7, -67479.46, 0.10011412, 0.015431535, -734496.9, 85964.195, 0.0, 9.999566, 10.000614 
6.55041e+2, 2.2627857e+2, -838618.9, -886062.9, -5023.19, 0.11295091, -0.0033633574, -838092.9, -115626.9, 0.0, 9.999715, 9.999096 
6.550657e+2, 2.3627716e+2, -782011.9, -800379.94, -19598.299, 0.21856406, -0.06064531, -769552.44, -145070.89, 0.0, 9.999399, 9.999162 
6.5508986e+2, 2.462765e+2, -618617.3, -675050.44, -22826.32, 0.23971392, -0.038266797, -610540.4, -84051.125, 0.0, 9.999867, 9.999123 
6.551134e+2, 2.5627628e+2, -387077.8, -517513.2, -20421.506, 0.20361836, 0.021989811, -383955.3, 44537.24, 0.0, 10.000807, 9.999078 
6.5513635e+2, 2.6627555e+2, -230426.66, -473771.4, -11754.092, 0.09620886, 0.08476113, -229860.23, 100640.234, 0.0, 10.001562, 9.998344 
6.5515894e+2, 2.7627435e+2, -48294.91, -339568.84, 2248.2634, -0.052406054, 0.12684278, -48277.555, 184235.06, 0.0000000002377775, 10.002159, 9.998305 
6.551848e+2, 2.862714e+2, 20973.164, -332133.06, -25895.389, 0.10587775, 0.04227411, 22862.123, 157401.19, 0.0000008000927, 10.0022955, 9.997617 
6.552125e+2, 2.962674e+2, 92341.1, -252727.1, -81967.72, 0.44535872, -0.12657848, 110821.984, 147396.11, 0.00001022147, 10.002134, 9.997567 
6.55235e+2, 3.0626494e+2, 259649.78, -161510.97, -65081.54, 0.22944848, -0.115500905, 269477.44, 269477.44, 0.000041965926, 10.003013, 9.99744 
6.552552e+2, 3.162618e+2, 493759.1, -4744.887, -13637.653, -0.24515174, -0.17792173, 494131.9, 494131.9, 0.00010250829, 10.004426, 9.997834 
6.648138e+2, 1.2624808e+2, -1899964.0, -1733547.0, 42286.563, 0.1085084, 0.0044114697, -1723418.4, -20662.89, 0.0, 9.998435, 10.000614 
6.648375e+2, 1.362462e+2, -2028377.5, -1720497.9, 47974.41, 0.19244368, -0.26297328, -1713195.6, -108418.484, 0.0, 9.99674, 10.000875 
6.648565e+2, 1.4624813e+2, -1887616.0, -1533278.4, 43992.074, -0.2413844, -0.1845085, -1527898.4, -21136.203, 0.0, 9.9967575, 10.001461 
6.6488385e+2, 1.5625231e+2, -1628604.8, -1360819.8, 4304.584, 0.2135308, 0.07862999, -1360750.6, 47975.34, 0.0, 9.99788, 10.001428 
6.649066e+2, 1.6625388e+2, -1527145.6, -1330354.6, 3671.8518, 0.2083194, 0.12913623, -1330286.1, -19574.873, 0.0, 9.998201, 10.000807 
6.649261e+2, 1.7625375e+2, -1464241.5, -1260104.5, -4383.0063, -0.1378904, 0.030116856, -1260010.4, -47299.668, 0.0, 9.99801, 10.000709 
6.649488e+2, 1.8625341e+2, -1366275.8, -1284016.8, -35953.152, -0.10181775, -0.010648968, -1270517.8, -155803.5, 0.0, 9.998529, 9.999625 
6.6497374e+2, 1.9625288e+2, -1120290.1, -1096695.5, -42249.164, 0.19428112, -0.031859715, -1064627.5, -47906.36, 0.0, 9.999463, 9.99979 
6.649966e+2, 2.0625326e+2, -915121.9, -863162.44, -68209.67, 0.25516546, -0.012921772, -816152.4, 102564.81, 0.0, 9.99984, 10.000538 
6.6501814e+2, 2.162541e+2, -820947.1, -780103.75, -123102.14, 0.16498013, 0.013077464, -675740.94, 144966.86, 0.0, 9.999873, 10.000417 
6.650415e+2, 2.2625367e+2, -729288.1, -825007.3, -78913.27, 0.16384952, 0.0009284894, -684855.56, 37856.945, 0.0, 10.000434, 9.999166 
6.6506606e+2, 2.3625238e+2, -503250.66, -663021.4, -55860.004, 0.21798928, -0.048383664, -485657.75, 139068.89, 0.0, 10.001301, 9.999189 
6.6509044e+2, 2.4625212e+2, -385140.22, -578005.9, -41077.555, 0.23581085, 0.02056699, -376755.8, 149975.52, 0.0, 10.001537, 9.998984 
6.651147e+2, 2.562524e+2, -305896.6, -488871.84, -50351.723, 0.22829819, 0.14597872, -292955.84, 135775.03, 0.0, 10.001405, 9.998989 
6.651382e+2, 2.662511e+2, -206640.8, -431619.9, -39300.78, 0.12297114, 0.14032862, -199973.1, 130769.586, 0.0, 10.001595, 9.998615 
6.6516113e+2, 2.7624872e+2, -57467.867, -322152.44, -31749.518, -0.039983332, 0.035566956, -53712.715, 179050.42, 0.0000000023427176, 10.002003, 9.998498 
6.651871e+2, 2.8624576e+2, 24036.162, -373288.13, -10358.924, 0.10271145, -0.03501735, 24306.053, 159096.64, 0.0000014418595, 10.002497, 9.997238 
6.652149e+2, 2.962425e+2, 206067.69, -229980.31, 19927.227, 0.42604223, -0.09296092, 206976.47, 243798.83, 0.000014762004, 10.003051, 9.997283 
6.6523784e+2, 3.0624062e+2, 264968.75, -125488.24, 51620.168, 0.22332212, -0.024150752, 271677.88, 271677.88, 0.000056041798, 10.002912, 9.997734 
6.652591e+2, 3.162376e+2, 218984.55, -74319.5, 47297.598, -0.18017931, -0.1064858, 226423.0, 226423.0, 0.00013097633, 10.002269, 9.998395 
6.748098e+2, 1.2622243e+2, -1883329.5, -1719090.4, -48202.34, -0.15378556, -0.36057723, -1705988.6, -2988.774, 0.0, 9.998523, 10.00067 
6.748356e+2, 1.3622533e+2, -2020688.9, -1709350.4, -2809.681, 0.33341244, -0.16402203, -1709325.0, -104344.195, 0.0, 9.996761, 10.00094 
6.74854e+2, 1.4622757e+2, -1923792.1, -1608876.4, 85393.53, -0.17150702, -0.030089961, -1587211.3, -80247.375, 0.0, 9.996759, 10.000942 
6.748784e+2, 1.5622912e+2, -1654791.3, -1423978.6, 43740.023, -0.12512566, 0.022795077, -1415967.8, -7016.7935, 0.0, 9.997915, 10.0009775 
6.7490274e+2, 1.662296e+2, -1527660.3, -1335305.9, -7206.141, -0.007944545, -0.014054779, -1335036.4, -24091.336, 0.0, 9.998217, 10.000768 
6.749265e+2, 1.7622937e+2, -1467967.6, -1268291.4, -4599.512, 0.103775695, -0.11934563, -1268185.5, -55241.543, 0.0, 9.998009, 10.000655 
6.749496e+2, 1.8622915e+2, -1379858.5, -1307625.4, -2652.8796, 0.12433948, -0.13736263, -1307528.1, -192581.44, 0.0, 9.998511, 9.999471 
6.749724e+2, 1.9622886e+2, -1147290.3, -1148492.6, -9424.751, 0.10816047, -0.11825057, -1138447.5, -121494.79, 0.0, 9.999448, 9.999441 
6.7499554e+2, 2.0622842e+2, -1031107.5, -1100388.1, -69724.83, 0.16044599, -0.07477111, -987892.1, -68931.7, 0.0, 9.999824, 9.998918 
6.750189e+2, 2.1622781e+2, -917458.8, -976350.5, -116264.664, 0.25005552, -0.033213604, -826969.1, -5999.348, 0.0, 9.999854, 9.99908 
6.750423e+2, 2.2622773e+2, -691525.7, -740940.44, -47238.688, 0.19723465, 0.016294615, -662923.1, 60048.586, 0.0, 10.000409, 9.999755 
6.750658e+2, 2.3622791e+2, -473035.63, -593647.5, -25323.494, 0.058897723, 0.05379927, -467934.47, 157035.38, 0.0, 10.001272, 9.999679 
6.7509055e+2, 2.4622759e+2, -406400.94, -616941.94, -47642.01, 0.091925345, 0.107883096, -396122.13, 130852.086, 0.0, 10.0015135, 9.998729 
6.751161e+2, 2.562268e+2, -323301.97, -519113.88, -50466.137, 0.23146476, 0.1528292, -311060.72, 117922.805, 0.0, 10.001379, 9.998793 
6.751409e+2, 2.662246e+2, -193214.78, -399882.3, -24792.979, 0.2385806, 0.05030296, -190282.1, 140720.73, 0.0, 10.001576, 9.998842 
6.751652e+2, 2.7622136e+2, -40272.125, -279879.5, -13530.623, 0.16061394, -0.1617611, -39510.473, 193518.66, 0.0000000015372758, 10.001975, 9.998801 
6.7518926e+2, 2.862198e+2, 76236.33, -258216.23, 8501.678, 0.06363205, -0.15192741, 76452.3, 211496.61, 0.0000017821444, 10.002469, 9.998041 
6.752132e+2, 2.9621926e+2, 244779.47, -138045.72, 37420.69, -0.050054684, -0.017071508, 248402.98, 285456.1, 0.00001893102, 10.003001, 9.997939 
6.752375e+2, 3.062184e+2, 240023.6, -174460.58, 26167.158, -0.10565422, 0.13874629, 241669.03, 241669.03, 0.00007171062, 10.0029, 9.997401 
6.7526346e+2, 3.1621513e+2, 232869.22, -55985.285, 27342.732, 0.02419346, 0.064119875, 235434.67, 235434.67, 0.00016522876, 10.002315, 9.998496 
6.8480664e+2, 1.2619941e+2, -2311994.5, -1923705.1, -113713.99, -0.17636387, -0.37602714, -1892854.3, -189626.58, 0.0, 9.995571, 10.000691 
6.8483245e+2, 1.3620354e+2, -1843145.0, -1619147.4, -65769.445, 0.28349462, -0.0616095, -1601264.1, 3933.1133, 0.0, 9.997967, 10.000974 
6.848515e+2, 1.4620535e+2, -1674006.8, -1521459.5, 38271.293, -0.18481374, 0.04458494, -1512396.4, -5213.512, 0.0, 9.998617, 10.000645 
6.8487644e+2, 1.5620528e+2, -1634824.8, -1449420.8, 6626.0825, -0.12332535, -0.0349423, -1449184.3, -40001.36, 0.0, 9.998204, 10.000665 
6.84901e+2, 1.6620517e+2, -1555492.5, -1384342.4, -60848.164, 0.007618197, -0.097231664, -1364914.6, -53732.23, 0.0, 9.998178, 10.000453 
6.8492496e+2, 1.7620507e+2, -1434014.1, -1281543.5, -80798.97, 0.13523091, -0.15810539, -1246691.9, -33510.313, 0.0, 9.998366, 10.000395 
6.8494827e+2, 1.8620516e+2, -1314843.5, -1264215.9, -41524.176, 0.12700602, -0.13789193, -1240898.0, -125716.336, 0.0, 9.998905, 9.999578 
6.8497133e+2, 1.962053e+2, -1114277.1, -1125258.6, -31293.26, 0.053218942, -0.08745869, -1087996.5, -70813.266, 0.0, 9.999647, 9.999499 
6.849949e+2, 2.0620464e+2, -966518.44, -1118765.4, -37535.676, 0.081488974, -0.044867847, -957767.25, -38573.84, 0.0, 10.000486, 9.998468 
6.850186e+2, 2.1620339e+2, -725022.8, -933348.8, -4092.9639, 0.16537482, -0.023175195, -724942.4, 96267.07, 0.0, 10.0013895, 9.998635 
6.850425e+2, 2.2620285e+2, -582601.5, -734008.94, 44061.355, 0.13239959, 0.022487924, -570712.6, 152503.69, 0.0, 10.00135, 9.999351 
6.8506646e+2, 2.362027e+2, -578155.75, -682269.8, -12231.641, 0.0324546, 0.066788316, -576738.06, 48480.28, 0.0, 10.000712, 9.99934 
6.850917e+2, 2.4620204e+2, -496016.0, -648151.6, -38835.69, 0.08629916, 0.09774812, -486675.84, 40549.3, 0.0, 10.000845, 9.998837 
6.8511754e+2, 2.56201e+2, -306224.97, -504203.75, -20150.566, 0.23204125, 0.10282354, -304194.84, 125040.95, 0.0, 10.001467, 9.998854 
6.8514264e+2, 2.6619884e+2, -209985.4, -437580.88, -6706.2744, 0.25140914, 0.024164895, -209787.97, 121467.06, 0.0, 10.001589, 9.998579 
6.8516713e+2, 2.7619603e+2, -135065.7, -347343.53, -34532.992, 0.19041647, -0.1226724, -129589.23, 103691.1, 0.00000000039754933, 10.001415, 9.99861 
6.851912e+2, 2.8619504e+2, -17452.7, -262432.2, -29894.543, 0.0591911, -0.06969412, -13857.467, 121433.79, 0.0000019350068, 10.001647, 9.998408 
6.8521506e+2, 2.9619512e+2, 140716.86, -153134.9, -35831.668, -0.11772324, 0.09523971, 145022.98, 182316.66, 0.000022506261, 10.002137, 9.998251 
6.852403e+2, 3.0619407e+2, 303447.78, -174321.44, -45338.47, -0.12788154, 0.23245595, 307712.16, 307712.16, 0.00008698863, 10.003456, 9.997139 
6.852683e+2, 3.1619066e+2, 663438.4, 161803.03, -49788.62, 0.13267972, 0.16955969, 668332.25, 668332.25, 0.00020085898, 10.005225, 9.998594 
6.948042e+2, 1.2617922e+2, -2318528.0, -1927773.4, -40460.816, 0.019170042, -0.019021055, -1923627.9, -220190.69, 0.0, 9.995534, 10.000678 
6.9482774e+2, 1.361809e+2, -1838664.6, -1616925.0, 15237.708, 0.009873736, 0.04794635, -1615882.8, -10457.023, 0.0, 9.997997, 10.000973 
6.948489e+2, 1.4618143e+2, -1674675.6, -1531375.3, 18781.295, -0.31126624, 0.030650927, -1528954.6, -21535.041, 0.0, 9.998655, 10.000558 
6.9487804e+2, 1.5618072e+2, -1639549.5, -1469002.3, -3422.822, 0.20964824, -0.101883635, -1468933.5, -59511.613, 0.0, 9.998244, 10.000513 
6.949015e+2, 1.6618063e+2, -1599176.6, -1478309.8, -56403.434, 0.2446936, -0.12232772, -1456077.9, -144654.92, 0.0, 9.998192, 9.999802 
6.949214e+2, 1.7618087e+2, -1470195.6, -1358397.1, -70120.05, -0.06534287, -0.08237325, -1324621.8, -111198.12, 0.0, 9.99837, 9.999867 
6.9494474e+2, 1.861815e+2, -1286746.3, -1202305.3, -15390.758, -0.1178673, -0.01092897, -1199587.5, -84168.414, 0.0, 9.998892, 10.00001 
6.949706e+2, 1.9618227e+2, -1084077.9, -1059428.4, -248.17082, 0.008924713, 0.060441073, -1059425.9, -42013.66, 0.0, 9.999634, 9.999959 
6.949945e+2, 2.0618194e+2, -920350.5, -1017125.1, -5597.2114, -0.002875377, 0.07761784, -920027.9, -612.0959, 0.0, 10.0004635, 9.999176 
6.9501734e+2, 2.161808e+2, -698027.75, -871422.3, 25150.2, -0.10762391, 0.042683773, -694453.5, 126973.33, 0.0, 10.001364, 9.999073 
6.950421e+2, 2.2617903e+2, -683745.7, -938723.75, 17798.17, -0.048362155, 0.021881167, -682509.4, 40936.88, 0.0, 10.001327, 9.997957 
6.9506806e+2, 2.3617676e+2, -663332.9, -854780.0, -28181.531, 0.117812924, -0.0072939894, -659270.7, -33798.938, 0.0, 10.000691, 9.998167 
6.9509363e+2, 2.4617554e+2, -467983.5, -583305.1, -16349.158, 0.1962975, -0.006517403, -465710.47, 61773.19, 0.0, 10.000817, 9.999295 
6.9511884e+2, 2.5617492e+2, -287090.4, -459399.25, 1927.2242, 0.21395889, -0.0019064378, -287068.84, 142418.72, 0.0, 10.001446, 9.999172 
6.9514316e+2, 2.6617393e+2, -263826.8, -547238.0, -15252.827, 0.15222575, 0.058544032, -263008.28, 68491.26, 0.0, 10.001579, 9.997831 
6.9516706e+2, 2.7617258e+2, -183390.66, -446048.28, -35398.383, 0.04359043, 0.13707665, -178703.64, 54813.977, 0.0000000054780975, 10.001407, 9.997937 
6.9519293e+2, 2.8617135e+2, -22802.998, -270629.53, -11872.252, 0.0648732, 0.20001604, -22235.55, 113296.12, 0.000002355568, 10.001637, 9.998355 
6.9522e+2, 2.9617012e+2, 136175.13, -161717.08, -8571.028, 0.16368745, 0.23591115, 136421.53, 173965.42, 0.000026308224, 10.002133, 9.998193 
6.952462e+2, 3.0616778e+2, 282937.2, -202331.44, 21170.014, 0.114200324, 0.2582892, 283858.97, 283858.97, 0.000101518664, 10.003397, 9.996974 
6.952736e+2, 3.161643e+2, 646171.0, 164981.5, 14589.672, 0.12881921, 0.20048958, 646612.94, 646612.94, 0.00023424297, 10.005058, 9.998696 
7.0479983e+2, 1.261554e+2, -2205865.3, -1818242.8, -117565.41, 0.0072521963, 0.16356255, -1785372.6, -81694.914, 0.0, 9.996064, 10.001178 
7.0482504e+2, 1.3615586e+2, -1892723.9, -1588517.4, -30338.879, -0.019163772, 0.05672542, -1585521.1, 20152.146, 0.0, 9.9973955, 10.001458 
7.048473e+2, 1.4615624e+2, -1770747.0, -1567750.8, -65592.04, -0.29479873, -0.0022820174, -1548401.1, -40734.316, 0.0, 9.99795, 10.00065 
7.048764e+2, 1.5615594e+2, -1652948.3, -1467111.3, -74565.3, 0.23047677, -0.100770466, -1440891.9, -31226.908, 0.0, 9.998122, 10.000581 
7.0489985e+2, 1.6615611e+2, -1554892.6, -1480252.3, -80906.89, 0.23725156, -0.08451926, -1428473.0, -116808.78, 0.0, 9.998602, 9.999585 
7.049197e+2, 1.761565e+2, -1360540.5, -1326163.3, -66516.53, -0.1119479, -0.009572244, -1274650.4, -60985.71, 0.0, 9.999221, 9.999672 
7.049434e+2, 1.8615681e+2, -1223507.5, -1182003.4, -21962.336, -0.15406784, 0.042693935, -1172539.8, -56876.895, 0.0, 9.999368, 9.99992 
7.0496994e+2, 1.9615695e+2, -1150384.8, -1099149.9, -51040.42, 0.012331106, 0.059714507, -1067658.8, -49998.113, 0.0, 9.999208, 9.999893 
7.0499444e+2, 2.0615658e+2, -1073619.4, -1074293.0, -82382.79, 0.00034314598, 0.068645224, -991572.7, -71908.984, 0.0, 9.999332, 9.999334 
7.0501757e+2, 2.1615586e+2, -944474.4, -973499.44, -98048.41, -0.12444992, 0.057812054, -859870.3, -38199.53, 0.0, 9.9996, 9.999223 
7.0504266e+2, 2.2615406e+2, -877468.25, -1036645.7, -77151.55, -0.051959403, 0.03287358, -846211.5, -122521.805, 0.0, 10.000019, 9.997912 
7.050689e+2, 2.361515e+2, -691054.56, -877097.3, -25809.174, 0.14631158, -0.01917875, -687540.5, -61823.445, 0.0, 10.000544, 9.998082 
7.050943e+2, 2.4614996e+2, -476417.47, -628473.8, 9785.103, 0.18081284, -0.027202416, -475790.38, 51942.293, 0.0, 10.000934, 9.99893 
7.051191e+2, 2.56149e+2, -343061.94, -523696.0, -37205.75, 0.10739315, -0.02213278, -335698.7, 94042.77, 0.0, 10.001222, 9.9988365 
7.05144e+2, 2.6614815e+2, -272343.2, -564434.25, -58051.836, 0.072517216, 0.0776787, -261228.58, 70523.99, 0.0, 10.001578, 9.997712 
7.0516896e+2, 2.7614734e+2, -110956.43, -426305.66, -35086.44, 0.06873815, 0.21802963, -107099.8, 126666.33, 0.000000016182126, 10.001972, 9.997797 
7.051958e+2, 2.861454e+2, 66779.16, -274359.16, 8647.938, 0.14909072, 0.23745379, 66998.24, 202784.45, 0.0000029996863, 10.002449, 9.997942 
7.052236e+2, 2.9614264e+2, 233817.63, -152451.16, -17703.99, 0.2765045, 0.1646805, 234627.36, 272438.44, 0.000030264562, 10.002964, 9.997858 
7.052494e+2, 3.0613944e+2, 134816.38, -249773.73, 8256.339, 0.15992059, 0.09966273, 134993.53, 134993.53, 0.00011456426, 10.002275, 9.997187 
7.0527565e+2, 3.1613666e+2, 34910.367, -104352.03, 16814.76, 0.059478488, 0.09386909, 36911.84, 36911.84, 0.00026242778, 10.000745, 9.998922 
7.147931e+2, 1.261277e+2, -2128452.3, -1665711.9, -84743.36, -0.28424805, 0.15466759, -1650680.8, 53270.895, 0.0, 9.996099, 10.002207 
7.1482456e+2, 1.3612823e+2, -1819680.5, -1444262.5, 12733.987, 0.18706638, -0.049859818, -1443831.0, 162110.25, 0.0, 9.997423, 10.002435 
7.148468e+2, 1.4612967e+2, -1747884.9, -1524903.9, -64609.87, -0.145023, -0.061599664, -1507535.6, 389.18454, 0.0, 9.997969, 10.0009365 
7.148713e+2, 1.5613098e+2, -1630737.1, -1425637.0, -64259.594, -0.095664024, -0.028790953, -1407167.3, 2744.5898, 0.0, 9.998137, 10.000861 
7.148956e+2, 1.6613172e+2, -1536988.1, -1442904.3, -58537.652, -0.04784003, 0.017262321, -1414848.9, -102943.305, 0.0, 9.998602, 9.999841 
7.149198e+2, 1.7613202e+2, -1348002.6, -1305255.9, -43597.387, -0.024198452, 0.059385553, -1278074.6, -64170.105, 0.0, 9.999241, 9.999807 
7.149444e+2, 1.861311e+2, -1267986.8, -1275594.4, -30282.271, 0.0037435044, 0.018517911, -1241270.4, -125357.2, 0.0, 9.9993725, 9.999276 
7.149695e+2, 1.9612926e+2, -1194862.5, -1189520.4, -53005.63, 0.04280981, -0.09668938, -1139118.6, -121189.336, 0.0, 9.999196, 9.999281 
7.1499443e+2, 2.0612855e+2, -1104867.9, -1131190.8, -74827.97, 0.07104758, -0.07519625, -1042052.7, -122115.195, 0.0, 9.999302, 9.998956 
7.1501935e+2, 2.161285e+2, -962378.1, -1003733.94, -85176.36, 0.09029498, 0.019495541, -895405.6, -73464.36, 0.0, 9.999572, 9.999028 
7.150442e+2, 2.2612791e+2, -791812.44, -851581.5, -60090.863, 0.10072126, 0.05275464, -754585.2, -30638.238, 0.0, 9.999987, 9.9992 
7.1506906e+2, 2.3612691e+2, -622577.9, -731416.56, -5120.233, 0.10281817, 0.027301114, -622337.56, 3617.1633, 0.0, 10.000525, 9.999092 
7.150937e+2, 2.461253e+2, -560960.94, -799026.75, 18515.895, 0.024392199, 0.031276975, -559529.44, -31557.057, 0.0, 10.000914, 9.997769 
7.1511817e+2, 2.5612316e+2, -414127.38, -666687.0, -23800.404, -0.104341544, 0.03771824, -411904.1, 18093.334, 0.0, 10.001202, 9.997866 
7.151447e+2, 2.6612163e+2, -240089.3, -493879.5, -44431.16, -0.009174322, 0.07964954, -232535.55, 99478.445, 0.0, 10.001564, 9.998203 
7.151725e+2, 2.7612033e+2, -88419.375, -376013.5, -16661.06, 0.23189132, 0.12702942, -87457.375, 146568.44, 0.000000020828322, 10.001958, 9.99815 
7.1519965e+2, 2.8611726e+2, 14764.655, -379892.94, 28460.662, 0.2906706, 0.05795757, 16806.527, 152860.69, 0.0000037479972, 10.0024395, 9.997223 
7.1522605e+2, 2.9611292e+2, 191170.17, -236173.53, -775.3591, 0.22139437, -0.101283014, 191171.58, 229265.52, 0.000034324887, 10.002944, 9.997293 
7.1525025e+2, 3.0610916e+2, 174195.95, -168547.77, -47573.402, 0.011711725, -0.22750252, 180676.69, 180676.69, 0.0001255173, 10.00228, 9.997741 
7.1527463e+2, 3.161078e+2, 67715.87, -48046.52, -33642.66, -0.11888164, -0.14389902, 76782.875, 76782.875, 0.00028306656, 10.000798, 9.999282 
7.247894e+2, 1.2609987e+2, -2050253.6, -1649948.5, 51392.277, -0.28689522, -0.020083446, -1643456.0, 60760.875, 0.0, 9.996717, 10.002022 
7.24822e+2, 1.3610117e+2, -2001279.5, -1547496.1, 54137.855, 0.24857824, -0.13331187, -1541126.8, 65074.984, 0.0, 9.996247, 10.002292 
7.2484446e+2, 1.4610323e+2, -1953143.9, -1613498.4, -63298.387, -0.095504954, -0.08261757, -1602085.3, -93903.42, 0.0, 9.996518, 10.001027 
7.248682e+2, 1.561049e+2, -1737122.8, -1462298.4, -80172.25, -0.17637438, -0.022268781, -1440620.4, -30452.756, 0.0, 9.997346, 10.00099 
7.2489333e+2, 1.6610573e+2, -1565294.3, -1407575.0, -59945.777, -0.11344818, 0.0030562985, -1387377.4, -75217.97, 0.0, 9.998197, 10.000279 
7.249194e+2, 1.7610596e+2, -1350716.3, -1264265.8, -38692.223, 0.023827093, -0.005279466, -1249478.0, -35322.305, 0.0, 9.999043, 10.000183 
7.2494453e+2, 1.8610501e+2, -1225865.8, -1277450.3, -11543.615, 0.060711503, -0.05533919, -1223400.4, -107236.05, 0.0, 9.999753, 9.999081 
7.2496927e+2, 1.9610317e+2, -1041910.5, -1137723.9, -2827.2478, 0.04241632, -0.15255393, -1041827.2, -23645.207, 0.0, 10.000342, 9.999083 
7.249941e+2, 2.0610219e+2, -971454.3, -1100544.8, -11015.833, 0.061496887, -0.13305236, -970521.06, -50327.44, 0.0, 10.000362, 9.998655 
7.250192e+2, 2.1610166e+2, -917703.1, -1009867.5, -18938.29, 0.10442518, -0.05578711, -913963.4, -91761.08, 0.0, 9.999994, 9.998784 
7.2504413e+2, 2.2610131e+2, -731787.44, -791467.1, -10320.184, 0.08799031, -0.0052771093, -730053.25, -5847.8755, 0.0, 10.000257, 9.999486 
7.25069e+2, 2.36101e+2, -550099.3, -672919.4, -36239.42, 0.03329197, 0.012146034, -540203.75, 86001.76, 0.0, 10.000919, 9.999308 
7.2509426e+2, 2.4609938e+2, -540250.7, -828815.9, -16247.213, -0.021007009, 0.027366942, -539338.8, -11115.052, 0.0, 10.001226, 9.997415 
7.251197e+2, 2.560968e+2, -418194.38, -698879.0, -941.47925, -0.07328725, 0.022826707, -418191.22, 12063.615, 0.0, 10.001304, 9.997597 
7.2514653e+2, 2.660949e+2, -159867.28, -405518.2, 19540.451, 0.004547142, 0.014261211, -158322.63, 173950.69, 0.0, 10.001901, 9.998649 
7.2517425e+2, 2.760933e+2, 65881.53, -261563.53, 36790.89, 0.1658608, -0.0139605515, 69964.35, 304248.75, 0.000000011844985, 10.002845, 9.99851 
7.2520137e+2, 2.8609055e+2, 86975.82, -378416.97, 84534.61, 0.19227117, -0.04804411, 101855.09, 238164.39, 0.0000046664522, 10.003085, 9.996919 
7.2522795e+2, 2.96087e+2, 162021.38, -281607.94, 78394.99, 0.12558, -0.09783906, 175467.25, 213811.08, 0.00003902921, 10.002883, 9.997009 
7.252529e+2, 3.0608276e+2, 315895.38, -111843.36, 2601.2239, -0.00015987799, -0.25230983, 315911.22, 315911.22, 0.00013548968, 10.003302, 9.997643 
7.252785e+2, 3.1608075e+2, 513290.38, 118975.98, -36811.67, 0.022084938, -0.22613542, 516697.53, 516697.53, 0.00029746926, 10.004061, 9.998864 
7.34789e+2, 1.2607189e+2, -2142136.3, -1857120.0, 22260.332, -0.0076008104, -0.38355407, -1855392.0, -150919.19, 0.0, 9.996786, 10.00057 
7.3481715e+2, 1.3607474e+2, -2091998.4, -1737594.5, 39858.297, 0.14176184, -0.19516295, -1733167.1, -126713.51, 0.0, 9.996253, 10.000987 
7.348402e+2, 1.4607693e+2, -1966300.9, -1634373.4, -33257.457, -0.17484248, -0.066293076, -1631074.0, -122636.734, 0.0, 9.996495, 10.000891 
7.34867e+2, 1.5607768e+2, -1739686.4, -1471393.9, -44836.84, -0.029557828, -0.084989175, -1464099.1, -53666.8, 0.0, 9.997364, 10.000917 
7.34893e+2, 1.6607808e+2, -1518631.9, -1316833.5, -31065.145, 0.03053433, -0.13436304, -1312159.5, 266.66846, 0.0, 9.998219, 10.000895 
7.349184e+2, 1.7607822e+2, -1307097.5, -1176821.9, -6213.679, 0.017564047, -0.21226537, -1176526.3, 37893.09, 0.0, 9.999051, 10.000783 
7.349437e+2, 1.8607849e+2, -1207019.1, -1233054.4, 9265.416, 0.00010853008, -0.18442732, -1204058.4, -87641.72, 0.0, 9.999735, 9.9993925 
7.349691e+2, 1.960787e+2, -1026207.5, -1102435.8, 18422.822, -0.012547836, -0.106050014, -1021988.56, -3570.327, 0.0, 10.000334, 9.999328 
7.349934e+2, 2.0607753e+2, -988243.3, -1134483.8, -27070.025, -0.049092177, -0.103694156, -983393.3, -62961.707, 0.0, 10.000357, 9.998426 
7.350172e+2, 2.1607535e+2, -938394.4, -1050975.9, -26556.492, -0.10146248, -0.16965313, -932444.5, -109990.836, 0.0, 9.999983, 9.998508 
7.3504245e+2, 2.2607425e+2, -786164.2, -898420.25, 12117.715, -0.106089436, -0.14087172, -784871.0, -60406.387, 0.0, 10.000232, 9.998763 
7.350688e+2, 2.360738e+2, -595427.1, -762194.06, -12059.378, -0.07836454, -0.067399785, -594559.6, 31909.594, 0.0, 10.000898, 9.998705 
7.3509586e+2, 2.4607226e+2, -514237.97, -767679.94, -15448.468, 0.022293122, -0.041042775, -513299.78, 15187.018, 0.0, 10.001197, 9.9978485 
7.351234e+2, 2.5606993e+2, -393882.44, -639167.5, 8150.469, 0.16978353, -0.06557505, -393611.9, 36901.785, 0.0, 10.001264, 9.998025 
7.351493e+2, 2.6606798e+2, -138107.58, -352275.25, 54426.367, 0.09298262, -0.11499194, -125069.91, 207460.56, 0.0, 10.001866, 9.999032 
7.351741e+2, 2.7606618e+2, 85704.02, -213078.55, 69203.79, -0.13136874, -0.20052674, 100954.54, 335496.25, 0.000000051096855, 10.002812, 9.998859 
7.3520106e+2, 2.8606513e+2, 88575.78, -368410.28, 73601.09, -0.14919472, -0.087310225, 100137.3, 236690.16, 0.0000058850314, 10.003057, 9.997001 
7.3522925e+2, 2.9606456e+2, 154450.77, -285314.47, 76467.27, -0.030880125, 0.1485708, 167367.66, 205931.72, 0.000043358745, 10.002831, 9.997007 
7.3525715e+2, 3.0605993e+2, 257306.38, -218774.45, 31502.76, 0.09313432, -0.0043841624, 259381.9, 259381.9, 0.00014249061, 10.003242, 9.996935 
7.3528653e+2, 3.1605548e+2, 422330.78, -46963.555, -5174.0376, 0.41202208, -0.14914787, 422387.8, 422387.8, 0.00030454592, 10.00397, 9.997762 
7.447858e+2, 1.260445e+2, -2404611.5, -1961645.9, -163987.75, 0.08563875, -0.39904675, -1907544.6, -202804.8, 0.0, 9.994904, 10.000755 
7.448126e+2, 1.360479e+2, -1952020.4, -1650255.3, -30011.246, 0.025887206, -0.17286702, -1647299.5, -40583.98, 0.0, 9.997135, 10.001158 
7.448366e+2, 1.4605021e+2, -1740946.3, -1509164.9, -51592.41, -0.2520553, -0.046144597, -1498199.6, 10497.968, 0.0, 9.997971, 10.001038 
7.448651e+2, 1.5605074e+2, -1646775.8, -1410476.8, -43738.81, 0.0208067, -0.1022505, -1402640.6, 8053.832, 0.0, 9.997933, 10.00106 
7.4489164e+2, 1.6605107e+2, -1506543.0, -1296010.8, -28943.338, 0.08011892, -0.17104642, -1292104.1, 20584.53, 0.0, 9.998236, 10.00103 
7.449169e+2, 1.7605129e+2, -1343214.5, -1180738.3, -47709.6, -0.014794682, -0.25499514, -1167764.8, 46916.445, 0.0, 9.998746, 10.000901 
7.4494225e+2, 1.8605207e+2, -1390061.4, -1324597.8, -85705.18, -0.048409216, -0.17937025, -1265586.8, -148911.55, 0.0, 9.998487, 9.999368 
7.4496776e+2, 1.9605309e+2, -1408213.5, -1283665.9, -102736.64, -0.03672845, -0.01824701, -1225802.9, -207131.19, 0.0, 9.997695, 9.999358 
7.449928e+2, 2.0605204e+2, -1205898.0, -1185150.6, -89881.32, -0.05634132, -0.031139864, -1105046.4, -184363.83, 0.0, 9.998624, 9.998918 
7.450175e+2, 2.1604954e+2, -810139.75, -946124.7, -41677.813, -0.09434711, -0.17648214, -798382.5, 24320.88, 0.0, 10.000683, 9.99889 
7.450432e+2, 2.2604795e+2, -702700.8, -930172.3, -2474.5566, -0.09111604, -0.17846467, -702673.9, 22045.398, 0.0, 10.0011215, 9.998115 
7.4506956e+2, 2.3604687e+2, -695969.5, -867134.4, -25234.66, -0.061250318, -0.10339075, -692326.7, -65593.79, 0.0, 10.000452, 9.998199 
7.45097e+2, 2.4604549e+2, -588698.0, -720545.06, -3552.1934, 0.059152693, -0.07850168, -588602.3, -59855.035, 0.0, 10.000326, 9.998591 
7.45125e+2, 2.5604388e+2, -452446.6, -600454.7, 39663.793, 0.23843308, -0.10468537, -442487.44, -11724.679, 0.0, 10.000573, 9.998624 
7.4515134e+2, 2.6604202e+2, -265748.9, -485710.97, 81942.125, 0.13984309, -0.13705885, -238579.16, 94200.04, 0.0, 10.001298, 9.998389 
7.4517655e+2, 2.760399e+2, -21318.287, -326842.6, 14324.735, -0.13949163, -0.19140635, -20648.13, 214149.42, 0.00000017449423, 10.002346, 9.9983015 
7.4520355e+2, 2.8603873e+2, 14470.861, -382924.4, -49977.64, -0.16750893, -0.07316285, 20659.816, 157471.55, 0.0000070142673, 10.002452, 9.997194 
7.452316e+2, 2.960382e+2, 37031.2, -317578.38, -38478.773, -0.027980989, 0.14945707, 41158.5, 79981.78, 0.000045203153, 10.001914, 9.997231 
7.4526036e+2, 3.0603465e+2, 146876.45, -208296.64, 18479.879, 0.15424927, 0.06303464, 147835.38, 147835.38, 0.00014361095, 10.002204, 9.997509 
7.4529135e+2, 3.1603143e+2, 298896.75, -89845.336, 58868.42, 0.5567757, -0.014088723, 307615.8, 307615.8, 0.00030293778, 10.003038, 9.997921 
7.547791e+2, 1.2601794e+2, -2279553.5, -1694830.3, -91720.94, -0.07588937, -0.032272454, -1680780.3, 24237.033, 0.0, 9.99487, 10.002602 
7.548083e+2, 1.3602065e+2, -1828365.6, -1401132.5, 46326.527, -0.122279376, -0.057858787, -1396166.9, 210820.94, 0.0, 9.997165, 10.002852 
7.5483376e+2, 1.4602305e+2, -1704280.3, -1442152.8, -57931.863, -0.34235772, -0.021704445, -1429920.3, 79042.93, 0.0, 9.998008, 10.001481 
7.548624e+2, 1.5602411e+2, -1614583.5, -1351756.1, -41355.863, -0.04725437, -0.07012685, -1345402.4, 65550.9, 0.0, 9.997966, 10.001449 
7.548893e+2, 1.6602477e+2, -1529907.9, -1347862.0, -11922.006, 0.011402725, -0.1034821, -1347084.6, -34138.406, 0.0, 9.998249, 10.000668 
7.549149e+2, 1.760252e+2, -1369018.9, -1236201.3, -31570.416, -0.0958541, -0.13059628, -1229079.0, -14137.967, 0.0, 9.998752, 10.000519 
7.549402e+2, 1.8602575e+2, -1418948.1, -1380797.3, -118370.03, -0.1057749, -0.038540427, -1279975.5, -163035.66, 0.0, 9.998472, 9.998988 
7.5496536e+2, 1.9602628e+2, -1427338.1, -1317554.5, -120195.97, -0.044222374, 0.10959986, -1240309.4, -221366.63, 0.0, 9.997668, 9.999139 
7.5499225e+2, 2.0602567e+2, -1124517.8, -1007932.2, -14385.918, 0.026174307, 0.084300324, -1006183.3, -85236.945, 0.0, 9.99859, 10.000148 
7.550202e+2, 2.1602425e+2, -741097.8, -795455.94, 27342.781, 0.104715765, -0.076509826, -729723.94, 93227.41, 0.0, 10.000651, 9.999939 
7.5504637e+2, 2.2602242e+2, -747394.75, -1016216.4, -29426.4, 0.110182665, -0.11940433, -744211.3, -19242.209, 0.0, 10.001091, 9.997539 
7.5507134e+2, 2.3602022e+2, -727383.7, -929381.7, -44027.137, 0.06602473, -0.09760098, -718204.7, -91208.46, 0.0, 10.000438, 9.99778 
7.5509745e+2, 2.4601911e+2, -518919.97, -573142.44, 3538.1396, 0.07575771, -0.08466175, -518690.06, 10315.054, 0.0, 10.000317, 9.999607 
7.551244e+2, 2.560186e+2, -400941.13, -492732.2, 52456.832, 0.12257234, -0.09801373, -377136.44, 53866.203, 0.0, 10.000568, 9.999366 
7.5515246e+2, 2.660169e+2, -381799.5, -720236.5, 119909.85, 0.12541525, -0.05948107, -343621.56, -10601.453, 0.0, 10.001273, 9.99679 
7.551813e+2, 2.760143e+2, -130167.65, -536651.1, 53307.254, 0.09927118, -0.00351071, -123293.07, 111759.15, 0.0000002213921, 10.002276, 9.996895 
7.552086e+2, 2.8601146e+2, 24915.734, -348940.06, -68786.66, 0.09356838, -0.008049902, 37170.27, 174255.03, 0.000006955663, 10.0023985, 9.997453 
7.5523484e+2, 2.9600838e+2, 62910.28, -260036.14, -49428.473, 0.1014453, -0.06398571, 70306.164, 109423.6, 0.000043838223, 10.001897, 9.997634 
7.552627e+2, 3.060072e+2, 266225.78, 45484.234, 50356.33, 0.16695084, -0.03039028, 277170.56, 277170.56, 0.00013917233, 10.002183, 9.999259 
7.552933e+2, 3.1600857e+2, 383365.56, 102141.74, 90410.77, 0.44049922, 0.18103161, 409923.66, 409923.66, 0.0002932902, 10.002971, 9.99927 
7.647744e+2, 1.2598976e+2, -1881513.6, -1433247.5, 79357.84, -0.14617752, -0.008564071, -1419613.3, 285683.16, 0.0, 9.997289, 10.003232 
7.648051e+2, 1.3599269e+2, -1917932.8, -1383668.1, 115904.69, -0.112394825, -0.075095, -1359607.1, 247652.75, 0.0, 9.996288, 10.003395 
7.6483136e+2, 1.459952e+2, -1943611.5, -1566420.1, -50395.414, -0.29473266, -0.049881108, -1559803.0, -50569.934, 0.0, 9.996399, 10.001408 
7.648599e+2, 1.5599625e+2, -1702182.5, -1404395.0, -79741.8, -0.06446972, -0.09006808, -1384386.1, 26838.295, 0.0, 9.997407, 10.00136 
7.64887e+2, 1.6599719e+2, -1628857.3, -1413415.3, -67856.016, -0.00812635, -0.0820897, -1393824.6, -80607.58, 0.0, 9.997646, 10.000509 
7.649131e+2, 1.7599806e+2, -1578694.3, -1345744.8, -73866.93, -0.07193493, -0.04839453, -1324296.8, -109086.09, 0.0, 9.997351, 10.000442 
7.6493895e+2, 1.8599841e+2, -1376620.1, -1296477.4, -88959.28, -0.067336746, -0.005837083, -1238981.0, -121771.4, 0.0, 9.9984865, 9.99956 
7.6496476e+2, 1.9599828e+2, -967380.4, -1038438.0, -22885.045, -0.0119670015, 0.019347725, -960647.9, 58565.52, 0.0, 10.000581, 9.999649 
7.649921e+2, 2.0599787e+2, -814322.8, -877588.44, 50200.613, 0.053432416, -0.0010635575, -786619.8, 134594.92, 0.0, 10.000801, 9.999977 
7.6502055e+2, 2.1599719e+2, -885093.3, -880205.56, -17339.434, 0.1267325, -0.06928926, -865138.6, -41923.07, 0.0, 9.999725, 9.9998045 
7.650472e+2, 2.2599564e+2, -849218.0, -1034596.8, -76941.02, 0.12647891, -0.09042426, -821444.8, -96213.836, 0.0, 10.00026, 9.997813 
7.650726e+2, 2.3599347e+2, -500907.8, -793865.44, -36629.465, 0.07674858, -0.09485481, -496397.38, 130859.55, 0.0, 10.001884, 9.998011 
7.6509833e+2, 2.4599215e+2, -248392.69, -464146.13, -32171.064, 0.035291795, -0.100219354, -243697.81, 285569.16, 0.0, 10.002266, 9.999417 
7.651243e+2, 2.5599137e+2, -235977.63, -430261.84, -73092.77, 0.0009122416, -0.12631147, -211550.23, 219717.03, 0.0, 10.00178, 9.999209 
7.6515293e+2, 2.6598966e+2, -406273.44, -719764.25, 41829.168, 0.05808936, -0.087262735, -400788.13, -67503.805, 0.0, 10.00105, 9.9969015 
7.6518327e+2, 2.759872e+2, -433577.6, -671820.94, 94407.66, 0.18061827, -0.025578238, -400703.28, -165389.3, 0.00000016204108, 10.000142, 9.996996 
7.652112e+2, 2.8598386e+2, -235021.39, -485664.5, 26767.473, 0.20956527, -0.078568175, -232194.63, -94844.625, 0.0000062859385, 10.000662, 9.997351 
7.6523757e+2, 2.959799e+2, 97200.516, -255413.44, 14331.036, 0.17257316, -0.21513966, 97782.01, 137172.11, 0.000041485197, 10.002187, 9.997525 
7.6526487e+2, 3.0597907e+2, 343222.78, 78341.76, 24795.18, 0.1449122, -0.1361799, 345523.8, 345523.8, 0.00013246338, 10.002728, 9.999223 
7.652945e+2, 3.1598046e+2, 311210.9, 60339.773, -66781.39, 0.28687796, 0.07905471, 327880.38, 327880.38, 0.00027904706, 10.002512, 9.999199 
7.7477175e+2, 1.2596e+2, -1921287.6, -1532959.5, 34703.63, -0.15706141, -0.35211402, -1529882.6, 175692.95, 0.00000000003061157, 9.997362, 10.002513 
7.74803e+2, 1.3596398e+2, -1964770.4, -1486338.8, 84408.59, 0.04570988, -0.24308616, -1471883.5, 135648.0, 0.0, 9.996309, 10.002682 
7.7482945e+2, 1.4596659e+2, -1990068.0, -1659866.9, -14837.878, -0.12301307, -0.14038666, -1659201.5, -149694.25, 0.0, 9.9963875, 10.0007715 
7.7485746e+2, 1.559671e+2, -1742338.0, -1489748.3, -43654.492, -0.046361424, -0.16938576, -1482416.4, -70908.234, 0.0, 9.997412, 10.000772 
7.7488476e+2, 1.6596828e+2, -1627566.1, -1409742.5, -82126.63, 0.0041397167, -0.113253266, -1382248.4, -68746.83, 0.0, 9.9976425, 10.000536 
7.7491164e+2, 1.7596988e+2, -1565567.9, -1318431.3, -74816.06, 0.040980045, -0.009876341, -1297546.9, -82056.96, 0.0, 9.997348, 10.000632 
7.7493864e+2, 1.8597004e+2, -1268762.4, -1068491.1, -10988.45, 0.0487568, -0.08194457, -1067890.0, 49594.188, 0.0, 9.998469, 10.001134 
7.7496594e+2, 1.9596906e+2, -879866.5, -856177.9, 47017.758, 0.038880132, -0.2954926, -819535.5, 199948.22, 0.0, 10.000574, 10.000906 
7.7499247e+2, 2.059686e+2, -928551.2, -1108894.8, 6861.862, 0.0053306017, -0.29197916, -928290.5, -6802.918, 0.0, 10.00078, 9.998398 
7.7501863e+2, 2.1596842e+2, -983162.56, -1076261.1, -46264.25, -0.043331567, -0.15391956, -964082.44, -140587.11, 0.0, 9.999694, 9.998473 
7.750456e+2, 2.259677e+2, -778923.5, -879525.8, -18008.238, -0.058005273, -0.09058204, -775797.1, -50292.625, 0.0, 10.000221, 9.998897 
7.750732e+2, 2.3596655e+2, -449023.75, -674058.44, 18547.59, -0.046152126, -0.09922416, -447505.28, 180010.36, 0.0, 10.00183, 9.998861 
7.750994e+2, 2.4596466e+2, -348509.88, -659141.1, -52470.3, -0.07988524, -0.13003732, -339886.25, 189646.86, 0.0, 10.002211, 9.998105 
7.751246e+2, 2.559622e+2, -311356.94, -580810.06, -89755.3, -0.1437957, -0.19042163, -284196.94, 147358.64, 0.0, 10.001752, 9.99819 
7.751526e+2, 2.6596034e+2, -287109.72, -473021.03, 6084.7847, -0.07380228, -0.21578006, -286910.78, 46660.043, 0.0, 10.001054, 9.998593 
7.7518255e+2, 2.7595872e+2, -324844.63, -454062.6, 69336.47, 0.09113262, -0.23858145, -294680.9, -59098.44, 0.00000014054619, 10.000175, 9.998475 
7.752115e+2, 2.85956e+2, -258465.1, -542438.75, 80015.83, 0.16527732, -0.27270406, -237470.97, -99862.586, 0.000005985507, 10.000699, 9.9969425 
7.7523977e+2, 2.9595244e+2, 60070.477, -335114.38, 67723.72, 0.17293225, -0.32218513, 71354.26, 110998.664, 0.000039454848, 10.002196, 9.996974 
7.7526695e+2, 3.0595034e+2, 225862.6, -165177.05, 16893.592, 0.07751396, -0.2563512, 226591.08, 226591.08, 0.00012492786, 10.002727, 9.997551 
7.752947e+2, 3.1594798e+2, 210469.28, -147272.27, -65659.07, 0.053437684, -0.2536991, 222139.5, 222139.5, 0.00026251364, 10.002499, 9.997783 
7.847696e+2, 1.2593327e+2, -2002212.8, -1694833.5, -1876.8817, -0.09504598, -0.3568074, -1694822.1, 11010.158, 0.0000000009851104, 9.9973345, 10.001416 
7.847999e+2, 1.3593584e+2, -1858183.8, -1545940.8, 8656.277, 0.04960127, -0.27632716, -1545701.0, 62104.51, 0.0, 9.997528, 10.001679 
7.8482634e+2, 1.4593783e+2, -1858311.4, -1583738.4, -39545.516, -0.1123343, -0.196471, -1578156.3, -68368.39, 0.0, 9.997235, 10.000885 
7.8485453e+2, 1.559383e+2, -1844620.1, -1524649.4, -11171.065, -0.041731868, -0.24291348, -1524259.8, -112472.05, 0.0, 9.996654, 10.0008955 
7.8488237e+2, 1.6593973e+2, -1635592.8, -1395433.9, 3471.4534, 0.015489239, -0.17619024, -1395383.6, -81605.88, 0.0, 9.99751, 10.000697 
7.8491014e+2, 1.7594182e+2, -1263733.0, -1154542.0, 15406.394, 0.06734715, -0.041108396, -1152409.9, 63351.12, 0.0, 9.999346, 10.000792 
7.849379e+2, 1.8594192e+2, -1099798.1, -983899.56, 14493.346, 0.076137856, -0.1267572, -982114.6, 135640.4, 0.0, 9.999617, 10.001161 
7.8496575e+2, 1.9594054e+2, -1143796.1, -980784.8, -50311.11, 0.057637338, -0.3841537, -966507.5, 53250.527, 0.0, 9.998758, 10.000922 
7.8499234e+2, 2.0594013e+2, -1166328.8, -1241754.9, -88522.25, -0.0064321402, -0.3674097, -1107820.9, -186058.45, 0.0, 9.999225, 9.998236 
7.8501815e+2, 2.1594031e+2, -864124.8, -1030445.5, -38399.934, -0.09750649, -0.17590976, -855687.1, -31918.682, 0.0, 10.000565, 9.998366 
7.850454e+2, 2.2593977e+2, -729400.9, -821357.4, 7823.895, -0.10241092, -0.110058784, -728739.94, -2964.387, 0.0, 10.000414, 9.999202 
7.850737e+2, 2.3593855e+2, -812090.56, -823086.5, -15422.763, -0.045728203, -0.15311705, -801215.1, -173430.44, 0.0, 9.9992285, 9.999087 
7.851008e+2, 2.4593648e+2, -754300.0, -917622.56, -60894.918, -0.029894317, -0.18168989, -734094.9, -204289.88, 0.0, 9.999701, 9.997537 
7.851272e+2, 2.5593373e+2, -408327.88, -683038.3, -51505.055, -0.03990924, -0.2141931, -398988.75, 32845.047, 0.0, 10.001328, 9.997689 
7.8515506e+2, 2.659317e+2, -42963.76, -340077.3, -12195.015, -0.017300515, -0.24032196, -42464.06, 291387.0, 0.0, 10.0026655, 9.998729 
7.8518385e+2, 2.7593005e+2, 209676.44, -180275.69, -63077.47, 0.028510464, -0.2815637, 219625.81, 455487.38, 0.0000001311964, 10.003784, 9.998614 
7.852129e+2, 2.8592768e+2, 208450.19, -304103.75, -61845.246, 0.08019585, -0.29201508, 215806.9, 353689.4, 0.000005888669, 10.003849, 9.997063 
7.852421e+2, 2.9592475e+2, 201990.69, -262261.84, -41195.934, 0.13942151, -0.2916729, 205617.92, 245529.0, 0.000037310834, 10.003157, 9.99701 
7.852703e+2, 3.0592197e+2, 217947.1, -260894.16, -46151.12, 0.12152416, -0.24775791, 222354.6, 222354.6, 0.00011684081, 10.003065, 9.996732 
7.8529894e+2, 3.1591716e+2, 310603.38, -152425.4, -77647.195, 0.18264845, -0.40851438, 323277.44, 323277.44, 0.0002455891, 10.003416, 9.997308 
7.9476786e+2, 1.2590994e+2, -2108635.3, -1917485.9, -667.9113, -0.0141028585, 0.0051057395, -1917483.5, -211420.03, 0.0000000034592607, 9.99735, 9.999881 
7.9479563e+2, 1.3590842e+2, -1943399.6, -1735106.6, 13693.842, -0.1268469, -0.16490029, -1734210.3, -126129.1, 0.0, 9.997582, 10.000355 
7.9482186e+2, 1.4590903e+2, -1788781.9, -1447212.6, -66866.56, -0.2869299, -0.2150603, -1434589.1, 75485.414, 0.0, 9.997269, 10.001806 
7.948509e+2, 1.5590991e+2, -1781571.6, -1397548.6, -22520.465, -0.07564839, -0.31147155, -1396232.5, 15829.889, 0.0, 9.996666, 10.001764 
7.9487973e+2, 1.659116e+2, -1615473.6, -1350668.4, 72530.68, 0.0011005912, -0.274349, -1332103.6, -18058.78, 0.0, 9.997499, 10.001009 
7.949087e+2, 1.7591389e+2, -1251024.6, -1134439.8, 79016.07, -0.014811983, -0.15082596, -1094540.9, 121482.53, 0.0, 9.999372, 10.000918 
7.949367e+2, 1.859141e+2, -1209140.5, -1210834.3, -20262.262, -0.006934713, -0.14644614, -1189707.4, -71685.49, 0.0, 9.999616, 9.999604 
7.9496413e+2, 1.9591272e+2, -1236686.5, -1171216.8, -73369.336, 0.018926462, -0.24737458, -1123610.9, -103574.85, 0.0, 9.998744, 9.999623 
7.9499155e+2, 2.0591246e+2, -1081878.4, -1057228.1, -39888.465, -0.0030195727, -0.22619176, -1027804.0, -105764.945, 0.0, 9.999188, 9.999517 
7.950191e+2, 2.159129e+2, -789824.06, -870083.2, 5359.418, -0.05614164, -0.13825886, -789467.75, 34567.305, 0.0, 10.000537, 9.999481 
7.9504657e+2, 2.2591181e+2, -764338.25, -887162.75, -39891.82, -0.0288275, -0.15244162, -752519.2, -26475.064, 0.0, 10.000385, 9.998763 
7.950739e+2, 2.3590957e+2, -840279.8, -880838.8, -49324.395, 0.056017954, -0.2553006, -807228.7, -179165.39, 0.0, 9.999223, 9.998695 
7.951024e+2, 2.4590766e+2, -746008.94, -899818.9, -1850.311, 0.15909646, -0.25442997, -745986.7, -215904.16, 0.0, 9.999698, 9.99766 
7.9513174e+2, 2.559059e+2, -415108.1, -689071.2, 10151.553, 0.2751926, -0.19979168, -414732.44, 17370.36, 0.0, 10.001291, 9.997667 
7.951598e+2, 2.659037e+2, -142255.55, -532398.8, 28506.771, 0.19415103, -0.16996127, -140183.63, 193942.08, 0.0, 10.002605, 9.9974375 
7.9518706e+2, 2.7590114e+2, 120981.305, -348524.16, -22448.676, -0.027693145, -0.17314214, 122052.21, 358203.34, 0.000000103459534, 10.003715, 9.997494 
7.952153e+2, 2.858989e+2, 240670.3, -221994.48, -87415.484, -0.05890675, -0.15137312, 256635.6, 394806.9, 0.000005445095, 10.003784, 9.997657 
7.952443e+2, 2.958968e+2, 227753.69, -189966.36, -59490.46, 0.0474035, -0.12974629, 236060.94, 276249.7, 0.000034263594, 10.003075, 9.997546 
7.952745e+2, 3.058939e+2, 205952.0, -270476.7, -30738.418, 0.23658824, -0.12235204, 207927.0, 207927.0, 0.000108508386, 10.002999, 9.996697 
7.953065e+2, 3.158877e+2, 327176.28, -106624.33, -54448.52, 0.591039, -0.41812396, 333906.0, 333906.0, 0.00023086925, 10.003366, 9.997646 
8.04765e+2, 1.258822e+2, -2033926.4, -1861836.9, -111942.1, -0.046633206, 0.07288381, -1806691.3, -100354.52, 0.0000000057252847, 9.99777, 10.000068 
8.0479336e+2, 1.3588005e+2, -2010885.5, -1750991.6, 28060.107, -0.08160384, -0.17597088, -1747996.6, -139636.63, 0.0, 9.9970455, 10.00051 
8.0482e+2, 1.4588067e+2, -1733884.5, -1415687.8, -7517.0806, -0.21169718, -0.23349053, -1415510.3, 94841.68, 0.0, 9.9976225, 10.001852 
8.0484885e+2, 1.5588209e+2, -1408445.6, -1214123.5, -37230.117, -0.059692807, -0.28120166, -1207234.9, 205098.17, 0.0, 9.999214, 10.001794 
8.048779e+2, 1.6588348e+2, -1377363.5, -1249349.4, 11681.149, -0.017239815, -0.2699632, -1248292.3, 66024.52, 0.0, 9.99919, 10.00089 
8.04907e+2, 1.7588483e+2, -1468043.5, -1257193.9, -19666.648, -0.046131745, -0.22495736, -1255375.1, -39072.73, 0.0, 9.997964, 10.000752 
8.04935e+2, 1.8588506e+2, -1508039.0, -1426882.1, -103872.445, -0.048294906, -0.17695005, -1355943.4, -237639.66, 0.0, 9.997878, 9.998957 
8.049622e+2, 1.9588433e+2, -1294952.8, -1258883.1, -88207.13, -0.031888325, -0.14767249, -1186886.0, -166568.77, 0.0, 9.998606, 9.999086 
8.049907e+2, 2.05884e+2, -1028385.44, -970063.2, -16721.525, -0.0036669096, -0.14092728, -965609.1, -43288.24, 0.0, 9.9992895, 10.00007 
8.050202e+2, 2.1588379e+2, -849274.8, -843518.1, -33260.793, 0.03981477, -0.17014527, -813011.4, 11307.079, 0.0, 9.999894, 9.999971 
8.0504805e+2, 2.2588246e+2, -714591.6, -896265.2, -123967.42, 0.059429012, -0.21483618, -651742.9, 74586.29, 0.0, 10.00087, 9.9984665 
8.0507463e+2, 2.3588026e+2, -439236.28, -712397.44, -125027.414, 0.06331303, -0.28524807, -390651.78, 237698.27, 0.0, 10.002085, 9.998472 
8.051031e+2, 2.458787e+2, -378881.38, -670593.9, -45460.883, 0.15109546, -0.2659723, -371960.88, 158404.2, 0.0, 10.00199, 9.998132 
8.05133e+2, 2.5587747e+2, -437598.16, -658070.06, -11157.289, 0.3001008, -0.20310163, -437034.97, -4657.859, 0.0, 10.000957, 9.998042 
8.0516183e+2, 2.6587504e+2, -469611.75, -769400.9, 62909.527, 0.2356652, -0.17813854, -456945.6, -122542.4, 0.0, 10.000699, 9.99673 
8.051899e+2, 2.7587157e+2, -317596.7, -628698.3, 46018.53, 0.022988731, -0.19640668, -310932.34, -74492.164, 0.00000004701224, 10.000996, 9.996881 
8.0521834e+2, 2.858693e+2, -101986.48, -342996.13, -40338.484, -0.006810697, -0.1758804, -95414.13, 43047.906, 0.0000040934947, 10.00124, 9.998052 
8.0524695e+2, 2.9586765e+2, 19673.22, -246565.8, -30683.553, 0.09422049, -0.14852807, 23163.682, 63637.99, 0.000029452855, 10.001458, 9.997936 
8.0527717e+2, 3.058653e+2, 66419.805, -312867.7, 33695.746, 0.26727632, -0.11484932, 69390.055, 69390.055, 0.000100260084, 10.001937, 9.996918 
8.0530936e+2, 3.1586015e+2, 253879.19, -75409.664, 24317.555, 0.58354706, -0.33047298, 255665.33, 255665.33, 0.00022208261, 10.002581, 9.998238 
8.147608e+2, 1.2584974e+2, -1882002.5, -1560093.5, -150382.36, -0.25583836, -0.18229629, -1500772.8, 205881.73, 0.000000004999778, 9.9978285, 10.002111 
8.1479293e+2, 1.3585067e+2, -1883884.6, -1489127.1, 7682.635, 0.17014533, -0.32841468, -1488977.6, 119664.43, 0.0, 9.997052, 10.002303 
8.148209e+2, 1.458529e+2, -1799129.5, -1548732.9, 51994.16, 0.10658447, -0.25701672, -1538365.8, -27746.95, 0.0, 9.997614, 10.000943 
8.1484866e+2, 1.5585494e+2, -1460137.5, -1336309.3, 18726.063, -0.011457079, -0.15155102, -1333539.4, 79059.375, 0.0, 9.999276, 10.000926 
8.148767e+2, 1.658554e+2, -1411228.5, -1330201.4, -39097.01, -0.05870681, -0.16139083, -1314412.9, 180.26364, 0.0, 9.999234, 10.000315 
8.14905e+2, 1.758547e+2, -1502265.3, -1329316.8, -59951.26, -0.04668071, -0.264889, -1310567.8, -93969.54, 0.0, 9.997964, 10.000259 
8.149327e+2, 1.8585481e+2, -1494185.3, -1388531.4, -77549.01, -0.069418944, -0.2206733, -1347525.9, -228925.53, 0.0, 9.997839, 9.999238 
8.1495994e+2, 1.9585538e+2, -1281444.3, -1227025.6, -58680.47, -0.11910923, -0.09014179, -1189553.1, -168951.3, 0.0, 9.998588, 9.999314 
8.149898e+2, 2.0585471e+2, -1044414.44, -996040.4, 3597.785, -0.028020492, -0.115441, -995774.25, -73166.45, 0.0, 9.999261, 9.999904 
8.150214e+2, 2.1585308e+2, -865207.7, -869997.9, -6082.1533, 0.16664691, -0.2710108, -861066.0, -36448.047, 0.0, 9.999865, 9.9998045 
8.150497e+2, 2.2585177e+2, -730618.3, -920735.1, -80223.5, 0.13987991, -0.29717913, -701290.56, 25339.568, 0.0, 10.000831, 9.998318 
8.1507564e+2, 2.3585063e+2, -451455.53, -726645.56, -83570.37, -0.04644847, -0.24741566, -428064.84, 200579.84, 0.0, 10.002035, 9.998399 
8.15103e+2, 2.4584958e+2, -326158.9, -553651.94, -86552.97, -0.06751936, -0.2173013, -296972.97, 233679.39, 0.0, 10.001956, 9.998952 
8.151313e+2, 2.558485e+2, -384428.47, -549599.0, -44790.098, 0.031839885, -0.22293158, -373064.4, 59591.832, 0.0, 10.000961, 9.998787 
8.151611e+2, 2.658457e+2, -480553.22, -794711.1, 72179.03, 0.0986188, -0.26110837, -464763.4, -130079.914, 0.0, 10.0007105, 9.99655 
8.151921e+2, 2.758415e+2, -333053.38, -654765.2, 61254.992, 0.14293431, -0.33639312, -321784.94, -85056.51, 0.000000004527389, 10.000971, 9.996713 
8.1522155e+2, 2.858389e+2, -87551.56, -312761.2, -33218.55, 0.19452852, -0.34870002, -82754.01, 56000.29, 0.0000024308686, 10.001235, 9.998263 
8.1525e+2, 2.958373e+2, 40469.92, -212200.47, -19459.023, 0.25131202, -0.33412686, 41959.746, 82727.28, 0.000024457544, 10.001492, 9.9981575 
8.1527853e+2, 3.0583614e+2, 101239.61, -246357.11, 56581.813, 0.21157138, -0.21695629, 110218.08, 110218.08, 0.00009519151, 10.001965, 9.997359 
8.153078e+2, 3.1583408e+2, 303974.44, 34446.0, 55824.074, 0.16327816, -0.17106223, 315079.06, 315079.06, 0.00022313076, 10.002557, 9.999003 
8.247579e+2, 1.2581947e+2, -2155064.3, -1679032.0, -6453.8677, -0.2296058, -0.35769472, -1678944.5, 28001.748, 0.0000000017683296, 9.995904, 10.002215 
8.247906e+2, 1.3582206e+2, -1751993.8, -1426744.8, -12248.951, 0.19383782, -0.34620222, -1426284.1, 182634.31, 0.0, 9.997963, 10.002291 
8.248192e+2, 1.4582446e+2, -1713729.5, -1573136.4, -11372.8955, 0.1448039, -0.22314364, -1572222.4, -61327.67, 0.0, 9.998483, 10.000356 
8.248474e+2, 1.5582567e+2, -1693067.6, -1510231.4, -29864.375, 0.009411749, -0.14119603, -1505477.0, -92592.54, 0.0, 9.997944, 10.000374 
8.248754e+2, 1.6582555e+2, -1600609.9, -1425610.8, -86415.12, -0.038968533, -0.18270977, -1390131.6, -75246.836, 0.0, 9.997955, 10.000273 
8.249034e+2, 1.7582445e+2, -1442441.6, -1301431.3, -67067.04, -0.01334742, -0.32162967, -1274627.8, -57734.887, 0.0, 9.998382, 10.000247 
8.249315e+2, 1.8582457e+2, -1277728.9, -1238434.5, -13551.786, -0.025862373, -0.29929549, -1234214.0, -115320.6, 0.0, 9.999126, 9.999647 
8.2495975e+2, 1.9582541e+2, -1043072.56, -1071434.5, 8979.267, -0.068289235, -0.18333557, -1040468.8, -19578.898, 0.0, 10.0000515, 9.999674 
8.2498944e+2, 2.0582503e+2, -938231.8, -974712.56, 47392.14, -0.027218333, -0.18304674, -905691.06, 17202.871, 0.0, 10.000119, 9.999636 
8.2502013e+2, 2.1582371e+2, -930715.25, -927627.8, 29040.365, 0.07917933, -0.28061196, -900090.2, -75186.2, 0.0, 9.999529, 9.99957 
8.2504904e+2, 2.2582267e+2, -904382.0, -998212.6, -4833.803, 0.061768044, -0.27336466, -904133.6, -177218.45, 0.0, 9.999609, 9.998377 
8.250767e+2, 2.3582171e+2, -720998.5, -851808.06, -1137.8086, -0.04214577, -0.20950581, -720988.6, -92060.29, 0.0, 10.000166, 9.99844 
8.2510436e+2, 2.4582039e+2, -460931.13, -645727.5, -63172.215, -0.07494911, -0.19779646, -441400.1, 89539.09, 0.0, 10.001149, 9.998707 
8.251321e+2, 2.5581867e+2, -178243.92, -467153.75, -104475.55, -0.05410434, -0.24335226, -144422.75, 288526.7, 0.0, 10.002456, 9.9986315 
8.2516193e+2, 2.65816e+2, -160296.34, -558376.44, 5334.565, 0.022354532, -0.29490772, -160224.88, 174747.8, 0.0, 10.002557, 9.997283 
8.2519335e+2, 2.7581263e+2, -173479.44, -506798.84, 57434.527, 0.14044935, -0.36519262, -163860.44, 73145.6, 0.0, 10.001761, 9.997346 
8.252232e+2, 2.858099e+2, -22463.17, -341143.25, -4036.6846, 0.20648845, -0.38851085, -22412.047, 116620.875, 0.000001518397, 10.001943, 9.9977255 
8.2525194e+2, 2.9580757e+2, 208389.92, -181081.16, -46547.184, 0.23733374, -0.3981904, 213875.69, 254932.22, 0.000022006743, 10.002863, 9.997709 
8.252808e+2, 3.0580592e+2, 311353.72, -105596.66, -2999.71, 0.17693716, -0.32609892, 311375.28, 311375.28, 0.00009542949, 10.003236, 9.997714 
8.2531005e+2, 3.158049e+2, 426657.0, 150141.34, -14312.105, 0.110916875, -0.21041588, 427395.8, 427395.8, 0.0002328845, 10.003153, 9.999511 
8.3475614e+2, 1.2579177e+2, -2302568.5, -1978664.1, 76797.32, -0.00020902674, -0.4494826, -1961378.1, -254169.97, 0.000000000051048894, 9.9958725, 10.000176 
8.347861e+2, 1.3579443e+2, -1877253.4, -1702924.5, 63084.973, -0.0521995, -0.22420815, -1682490.9, -73303.59, 0.0, 9.99803, 10.000362 
8.348149e+2, 1.4579546e+2, -1729125.9, -1617633.9, -37139.37, -0.14272307, -0.13127649, -1606395.1, -95216.055, 0.0, 9.998536, 10.000026 
8.34845e+2, 1.557943e+2, -1710963.3, -1545724.4, -47175.973, -0.025429972, -0.25733683, -1533204.1, -120013.74, 0.0, 9.997935, 10.000134 
8.3487403e+2, 1.6579393e+2, -1566862.4, -1350912.8, -71253.375, 0.024478467, -0.3406686, -1329521.5, -14329.497, 0.0, 9.997933, 10.000797 
8.349023e+2, 1.7579417e+2, -1402428.8, -1224425.9, -45244.203, 0.03319457, -0.39730024, -1213586.0, 3600.1992, 0.0, 9.9984045, 10.000766 
8.349315e+2, 1.8579437e+2, -1239007.1, -1160220.4, 20057.256, 0.060548622, -0.4170615, -1155408.3, -36225.734, 0.0, 9.999135, 10.00018 
8.349615e+2, 1.9579445e+2, -1010128.4, -1003234.9, 41067.9, 0.098164156, -0.4319032, -965469.3, 55712.184, 0.0, 10.00005, 10.000144 
8.349896e+2, 2.0579495e+2, -965987.7, -1028175.44, 22007.857, -0.017565396, -0.34612155, -958987.25, -35808.2, 0.0, 10.000101, 9.999276 
8.350165e+2, 2.1579568e+2, -956861.0, -974898.5, 11739.429, -0.24402814, -0.2033578, -951075.94, -125899.59, 0.0, 9.999498, 9.99926 
8.3504605e+2, 2.2579513e+2, -892066.5, -964284.56, 12888.213, -0.19622934, -0.14550559, -889835.4, -162651.17, 0.0, 9.999572, 9.99863 
8.350778e+2, 2.3579355e+2, -715551.4, -835066.25, 23775.707, 0.05243037, -0.17042233, -710995.25, -81794.34, 0.0, 10.000139, 9.99857 
8.351073e+2, 2.4579114e+2, -553850.06, -831920.75, -15985.921, 0.10427145, -0.20454034, -552934.1, -21708.992, 0.0, 10.00112, 9.997443 
8.351352e+2, 2.55788e+2, -257634.03, -623489.75, -57759.06, 0.010366454, -0.26456803, -248731.98, 184523.89, 0.0, 10.002417, 9.997577 
8.351641e+2, 2.6578605e+2, -52782.66, -329060.94, -25504.672, -0.016709495, -0.28389972, -50447.92, 284822.66, 0.0, 10.00253, 9.998871 
8.351938e+2, 2.7578485e+2, -79453.14, -307818.06, 32696.656, 0.006714926, -0.29148206, -74863.95, 162410.31, 0.0, 10.001743, 9.998723 
8.352234e+2, 2.8578222e+2, -110554.33, -518703.7, 27164.324, 0.028567342, -0.3064556, -108754.35, 30544.852, 0.0000012583888, 10.001923, 9.996515 
8.3525294e+2, 2.9577833e+2, 125311.805, -342843.16, -11285.75, 0.047346756, -0.35048375, 125583.71, 166925.33, 0.000022643984, 10.002818, 9.996619 
8.352836e+2, 3.0577478e+2, 325133.44, -65879.85, -3044.6853, 0.13789824, -0.4355263, 325157.16, 325157.16, 0.000101563375, 10.003188, 9.998011 
8.353155e+2, 3.157728e+2, 433926.8, 182886.5, -3361.358, 0.33963698, -0.44233882, 433971.8, 433971.8, 0.0002494841, 10.003074, 9.999777 
8.4475416e+2, 1.2576301e+2, -1966855.9, -1851888.8, -85148.49, 0.102874644, -0.3579005, -1806636.6, -99145.336, 0.0, 9.998328, 9.999861 
8.4478384e+2, 1.3576467e+2, -1777289.1, -1687168.0, 13542.742, -0.12321839, -0.19636717, -1685176.9, -75697.72, 0.0, 9.998863, 10.000065 
8.4481245e+2, 1.4576504e+2, -1719465.4, -1582496.0, -73498.36, -0.23111115, -0.17361744, -1550521.0, -39044.484, 0.0, 9.998477, 10.000293 
8.448425e+2, 1.5576349e+2, -1756619.8, -1539811.6, -36452.67, -0.050095435, -0.36234218, -1533846.8, -120357.3, 0.0, 9.997506, 10.0003805 
8.4487176e+2, 1.6576357e+2, -1594309.1, -1355780.6, -3048.5796, 0.02504051, -0.4169469, -1355741.6, -40254.8, 0.0, 9.997709, 10.000873 
8.4490085e+2, 1.7576483e+2, -1348127.4, -1189465.3, -17251.15, 0.031967882, -0.3788482, -1187611.3, 29861.42, 0.0, 9.998742, 10.000843 
8.449306e+2, 1.8576515e+2, -1264669.3, -1165982.4, -1773.4391, 0.0683124, -0.39431366, -1165950.5, -46483.023, 0.0, 9.998931, 10.00024 
8.449609e+2, 1.9576468e+2, -1240773.4, -1111814.8, -21157.813, 0.12403828, -0.46743315, -1108432.1, -86961.95, 0.0, 9.998456, 10.000169 
8.4498924e+2, 2.0576507e+2, -1189049.8, -1161909.3, -51941.69, 0.009214399, -0.37977841, -1121794.4, -198324.95, 0.0, 9.99868, 9.999043 
8.4501606e+2, 2.1576601e+2, -983820.25, -1008949.44, -56209.645, -0.2244033, -0.19452484, -938788.0, -113320.68, 0.0, 9.999403, 9.999071 
8.45046e+2, 2.2576547e+2, -819807.75, -883711.4, -27577.547, -0.17754167, -0.14921577, -809552.5, -82078.34, 0.0, 9.999878, 9.99903 
8.4507805e+2, 2.3576376e+2, -689679.56, -783487.1, -9261.906, 0.0719805, -0.22432923, -688773.9, -59285.613, 0.0, 10.000155, 9.998913 
8.451087e+2, 2.4576138e+2, -630494.8, -912048.0, 19399.258, 0.15416035, -0.2510432, -629164.5, -97651.4, 0.0, 10.00078, 9.997056 
8.451382e+2, 2.5575837e+2, -394631.8, -728795.56, 31659.389, 0.11534369, -0.2617144, -391658.78, 41888.17, 0.0, 10.001649, 9.997222 
8.451671e+2, 2.6575637e+2, -154194.08, -385359.1, -27981.854, 0.066383004, -0.26632535, -150855.19, 184708.58, 0.0, 10.001867, 9.998803 
8.451955e+2, 2.7575502e+2, -99622.19, -320835.84, -86933.64, 0.012503274, -0.28340742, -69547.37, 168021.52, 0.0000000050987805, 10.001624, 9.998691 
8.452251e+2, 2.857526e+2, -93135.234, -475077.4, -33930.105, 0.013930345, -0.2884621, -90144.445, 49445.547, 0.0000017148438, 10.00189, 9.99683 
8.452556e+2, 2.9574928e+2, 96673.27, -324932.2, 26309.639, 0.058509, -0.30782568, 98308.74, 139933.34, 0.000025402682, 10.002484, 9.996902 
8.4528637e+2, 3.057452e+2, 162290.44, -175143.98, 15857.179, 0.15520395, -0.44434342, 163033.98, 163033.98, 0.00011168263, 10.002201, 9.997735 
8.453178e+2, 3.15743e+2, 135226.38, -12730.611, -27481.377, 0.3583165, -0.4422318, 140165.84, 140165.84, 0.00027089723, 10.001249, 9.999307 
8.5475177e+2, 1.2573329e+2, -1847775.9, -1631650.1, -77005.984, 0.01518097, -0.05791458, -1607019.8, 100776.17, 0.0, 9.998437, 10.001325 
8.547838e+2, 1.3573273e+2, -1673944.6, -1478575.1, 25259.916, -0.0174698, -0.2625247, -1475362.1, 134433.06, 0.0, 9.998889, 10.001485 
8.54812e+2, 1.4573309e+2, -1649461.0, -1441062.8, -112282.47, -0.118563935, -0.35552162, -1392079.6, 119707.11, 0.0, 9.998488, 10.00126 
8.548396e+2, 1.5573335e+2, -1692189.0, -1414130.6, -62197.152, -0.091756545, -0.46093893, -1400852.3, 12928.389, 0.0, 9.997537, 10.001229 
8.548686e+2, 1.6573459e+2, -1623728.9, -1420495.3, 35917.41, -0.06533358, -0.41289678, -1414334.3, -98566.12, 0.0, 9.997723, 10.000423 
8.5489887e+2, 1.7573653e+2, -1376008.9, -1251051.6, 19843.332, -0.03656111, -0.26495877, -1247976.1, -30224.691, 0.0, 9.9987545, 10.000416 
8.549287e+2, 1.8573697e+2, -1295211.0, -1228896.9, -21670.22, -0.021115659, -0.22650684, -1222443.4, -102695.445, 0.0, 9.998927, 9.999811 
8.54958e+2, 1.9573615e+2, -1268375.0, -1170271.1, -34087.457, -0.015721625, -0.29076102, -1159589.9, -137834.13, 0.0, 9.998456, 9.999769 
8.5498816e+2, 2.0573547e+2, -1199414.1, -1179374.1, -27387.42, 0.031835716, -0.2862, -1160231.3, -236466.45, 0.0, 9.998662, 9.998934 
8.5501885e+2, 2.1573478e+2, -990004.0, -1018392.6, -28404.16, 0.11384334, -0.25131407, -972444.94, -146668.97, 0.0, 9.999385, 9.999017 
8.5504854e+2, 2.2573374e+2, -787801.44, -808947.0, -20219.758, 0.0948988, -0.28130856, -775557.06, -47773.08, 0.0, 9.999844, 9.99956 
8.550775e+2, 2.357324e+2, -656036.8, -708226.1, 4921.817, -0.001731116, -0.37349376, -655576.7, -25786.508, 0.0, 10.000132, 9.999441 
8.551085e+2, 2.4573112e+2, -602753.8, -848322.4, 49569.74, 0.058626246, -0.34041557, -593125.3, -61321.777, 0.0, 10.000753, 9.997508 
8.551411e+2, 2.557297e+2, -379645.03, -687870.6, 62919.53, 0.24222521, -0.2343331, -367295.75, 66527.77, 0.0, 10.001605, 9.997526 
8.551708e+2, 2.6572698e+2, -270779.6, -620135.6, -38528.176, 0.2523928, -0.2384251, -266581.06, 69271.055, 0.0, 10.001836, 9.997207 
8.5519826e+2, 2.7572322e+2, -196767.08, -520164.78, -88539.98, 0.12836061, -0.33691868, -174113.42, 63774.387, 0.0000001292932, 10.001614, 9.997326 
8.552281e+2, 2.857212e+2, 24345.492, -228180.03, -8063.6167, 0.13008757, -0.33069012, 24602.717, 164506.34, 0.000003149254, 10.001877, 9.998533 
8.5525984e+2, 2.9572037e+2, 194836.86, -107408.67, 49547.613, 0.23109853, -0.27147043, 202752.0, 244658.22, 0.000029420804, 10.002422, 9.998429 
8.5528904e+2, 3.05717e+2, 96337.625, -297715.53, -19962.43, 0.20645034, -0.36493933, 97346.32, 97346.32, 0.00012215794, 10.002142, 9.99692 
8.5531706e+2, 3.1571504e+2, 49208.844, -183821.89, -50424.68, 0.1541404, -0.25420964, 59652.05, 59652.05, 0.00029314935, 10.001219, 9.998146 
8.6474955e+2, 1.2570326e+2, -1787463.3, -1555135.5, 93562.51, -0.05586223, -0.029057572, -1522141.8, 185949.7, 0.00000000000000000000885557, 9.998655, 10.001737 
8.647821e+2, 1.3570218e+2, -1972779.6, -1587125.6, 105299.58, 0.04579281, -0.32473537, -1560247.6, 49846.7, 0.0, 9.99668, 10.001808 
8.648106e+2, 1.4570302e+2, -1897777.5, -1533620.6, -61236.234, -0.018110929, -0.39821267, -1523599.0, -11517.805, 0.0, 9.996668, 10.001502 
8.648378e+2, 1.5570459e+2, -1579591.1, -1339889.6, -73039.29, -0.048152167, -0.3949231, -1319387.5, 94675.805, 0.0, 9.99822, 10.0014105 
8.6486685e+2, 1.657059e+2, -1515407.9, -1413302.9, 8773.728, -0.05237525, -0.3261291, -1412554.5, -96503.484, 0.0, 9.998659, 10.00002 
8.648973e+2, 1.75707e+2, -1479155.6, -1344474.8, -9053.19, -0.035788193, -0.22163633, -1343868.9, -125825.58, 0.0, 9.998235, 10.000023 
8.6492693e+2, 1.8570715e+2, -1414433.6, -1306420.5, -49864.066, -0.03946466, -0.1827333, -1286921.1, -166877.83, 0.0, 9.998197, 9.999628 
8.649561e+2, 1.9570652e+2, -1283279.6, -1193368.3, -44628.625, -0.054388385, -0.21222231, -1174977.8, -152927.73, 0.0, 9.998429, 9.999619 
8.6498696e+2, 2.0570554e+2, -1126577.4, -1120951.1, 21426.426, 0.03349295, -0.24273312, -1102153.9, -178093.19, 0.0, 9.999061, 9.999144 
8.6501926e+2, 2.1570422e+2, -894428.7, -951290.1, 38023.656, 0.19874856, -0.29158354, -875382.0, -49306.96, 0.0, 9.999953, 9.999205 
8.650495e+2, 2.2570308e+2, -679054.8, -760486.6, 20716.295, 0.17517781, -0.33955213, -674087.56, 53995.773, 0.0, 10.000605, 9.999526 
8.650782e+2, 2.35702e+2, -523071.8, -642934.2, -595.40137, 0.012547193, -0.40426892, -523068.84, 107019.12, 0.0, 10.00104, 9.999449 
8.6510915e+2, 2.4570112e+2, -512598.03, -747413.75, 32724.855, 0.03332275, -0.35387152, -508122.66, 23973.904, 0.0, 10.001129, 9.998017 
8.6514187e+2, 2.5570032e+2, -439434.88, -663396.6, 46927.633, 0.19156685, -0.23839606, -429999.44, 4109.9336, 0.0, 10.000967, 9.997998 
8.651722e+2, 2.6569784e+2, -318057.5, -651727.94, 16289.865, 0.22774652, -0.23642878, -317264.1, 18872.275, 0.0000000005766255, 10.001547, 9.997128 
8.652008e+2, 2.7569404e+2, -45745.79, -455162.56, 68022.49, 0.17349541, -0.33345672, -34740.05, 203434.86, 0.000000514823, 10.002678, 9.997262 
8.652309e+2, 2.8569213e+2, 121636.73, -150068.34, 110609.82, 0.19928928, -0.32843637, 160971.08, 301161.13, 0.0000053955687, 10.002408, 9.998816 
8.652621e+2, 2.9569158e+2, 20775.797, -157404.25, 63931.246, 0.28925046, -0.26924878, 41340.85, 83529.85, 0.00003455936, 10.001083, 9.998728 
8.6529046e+2, 3.0568853e+2, -59317.97, -340333.22, 11752.125, 0.19920959, -0.36048695, -58827.348, -58827.348, 0.000132535, 10.00093, 9.997213 
8.653175e+2, 3.1568724e+2, 94653.94, -171143.56, 56161.477, 0.060399752, -0.21428315, 106033.35, 106033.35, 0.00031326473, 10.001566, 9.998067 
8.747473e+2, 1.2567307e+2, -1837303.9, -1668520.3, 22248.053, -0.16127844, -0.30083132, -1665637.0, 42738.563, 0.0000000055054987, 9.998692, 10.000943 
8.747787e+2, 1.3567322e+2, -2034546.4, -1707574.8, 43402.383, 0.038853973, -0.3903697, -1701911.5, -91536.95, 0.0, 9.99665, 10.000995 
8.748079e+2, 1.4567502e+2, -1945579.6, -1628909.9, -710.468, 0.048174385, -0.29405382, -1628908.4, -116550.555, 0.0, 9.996648, 10.00086 
8.748373e+2, 1.5567738e+2, -1616619.4, -1422666.5, -15684.395, 0.06840078, -0.15050639, -1421406.4, -7070.313, 0.0, 9.998245, 10.000832 
8.748666e+2, 1.6567762e+2, -1535475.0, -1461089.4, -10583.388, 0.05182823, -0.14449722, -1459612.9, -143278.48, 0.0, 9.998684, 9.9996805 
8.748961e+2, 1.7567626e+2, -1500006.9, -1390462.5, -22078.398, 0.015249139, -0.2516356, -1386180.0, -167831.84, 0.0, 9.998244, 9.999704 
8.749255e+2, 1.8567576e+2, -1411606.0, -1297562.8, -42573.445, -0.00513035, -0.2668713, -1283422.9, -163069.64, 0.0, 9.998183, 9.999698 
8.749549e+2, 1.9567579e+2, -1276180.0, -1178190.0, -32266.385, -0.012513896, -0.2351584, -1168519.5, -146166.72, 0.0, 9.998425, 9.999727 
8.7498564e+2, 2.0567529e+2, -1093824.6, -1045733.7, 51889.59, -0.003114636, -0.2522218, -1012589.0, -88232.164, 0.0, 9.999031, 9.999674 
8.750174e+2, 2.156743e+2, -866818.44, -887176.94, 72559.13, 0.01512831, -0.3210364, -803728.0, 22636.646, 0.0, 9.999923, 9.9996605 
8.750488e+2, 2.2567344e+2, -726412.9, -849774.6, 34609.09, 0.046432022, -0.33044493, -717366.7, 11005.556, 0.0, 10.000565, 9.998934 
8.7508e+2, 2.3567255e+2, -563463.1, -719122.5, 15979.39, 0.09237122, -0.31608304, -561839.7, 68541.266, 0.0, 10.001004, 9.998946 
8.751105e+2, 2.4567153e+2, -477691.5, -665888.1, 23606.158, 0.05746495, -0.29069594, -474775.66, 57615.715, 0.0, 10.001091, 9.998594 
8.751404e+2, 2.556703e+2, -402141.47, -576767.25, 46292.934, -0.046108115, -0.27250358, -390628.38, 43775.45, 0.0, 10.000929, 9.998611 
8.751713e+2, 2.6566893e+2, -230447.28, -462698.25, 57234.066, -0.012734561, -0.26174217, -217109.0, 119308.31, 0.0000000691861, 10.001513, 9.998443 
8.752031e+2, 2.7566725e+2, 23411.664, -291644.97, 105004.48, 0.13110512, -0.27706492, 55200.832, 293633.63, 0.000001269736, 10.00259, 9.998427 
8.752334e+2, 2.8566524e+2, 38926.25, -304742.5, 55760.625, 0.20656091, -0.28002992, 47747.07, 188198.08, 0.000008177336, 10.002336, 9.9977865 
8.7526256e+2, 2.956629e+2, -40957.273, -283650.44, 20454.332, 0.22658865, -0.29540637, -39245.445, 3227.3804, 0.000040999803, 10.001075, 9.997866 
8.7529063e+2, 3.0565983e+2, 37156.54, -145285.34, 36572.59, 0.12532398, -0.42468432, 44214.867, 44214.867, 0.00014405875, 10.000954, 9.99854 
8.753187e+2, 3.156595e+2, 157068.95, -40449.4, 88543.64, 0.023236094, -0.31181163, 190949.72, 190949.72, 0.00033067827, 10.001564, 9.998965 
8.84745e+2, 1.2564306e+2, -2067388.1, -1803765.4, -135311.9, -0.18057957, -0.37031224, -1746675.9, -38006.863, 0.00000006865043, 9.997227, 10.000723 
8.847759e+2, 1.3564433e+2, -1853701.5, -1650451.3, -81446.65, 0.03458277, -0.31768838, -1621841.1, -11180.838, 0.0, 9.998023, 10.000724 
8.8480544e+2, 1.4564621e+2, -1712146.3, -1540316.1, -27409.898, 0.054861907, -0.1905617, -1536049.8, -23405.518, 0.0, 9.998359, 10.00064 
8.848355e+2, 1.5564784e+2, -1598989.6, -1434731.4, -17713.512, 0.062179677, -0.09675439, -1432842.9, -18213.61, 0.0, 9.998461, 10.000642 
8.848652e+2, 1.656476e+2, -1536491.3, -1443739.1, -9626.623, 0.05879873, -0.1393366, -1442750.5, -126119.34, 0.0, 9.998603, 9.999839 
8.8489497e+2, 1.7564593e+2, -1416659.4, -1334041.0, 13721.307, 0.05684732, -0.290972, -1331821.9, -113175.875, 0.0, 9.998749, 9.999848 
8.849247e+2, 1.8564542e+2, -1268426.6, -1237565.5, 29362.633, 0.048131533, -0.31231055, -1219825.8, -99175.22, 0.0, 9.999201, 9.999621 
8.849544e+2, 1.9564563e+2, -1071372.3, -1088491.5, 23264.3, 0.0294181, -0.254901, -1055142.9, -32494.23, 0.0, 9.999868, 9.999648 
8.849852e+2, 2.0564528e+2, -1010105.06, -1015486.75, 64063.395, 0.026968472, -0.24804829, -948676.0, -24024.875, 0.0, 9.999647, 9.999583 
8.850169e+2, 2.156444e+2, -1051553.1, -987506.75, 35553.305, 0.041400414, -0.29553935, -971681.0, -145023.3, 0.0, 9.998702, 9.999558 
8.850487e+2, 2.2564368e+2, -982766.3, -998481.6, 25583.281, 0.068772815, -0.27532825, -963861.2, -235195.42, 0.0, 9.998913, 9.998709 
8.850806e+2, 2.3564295e+2, -719239.25, -814029.25, 26404.557, 0.10553925, -0.2209398, -712380.4, -81704.555, 0.0, 10.000021, 9.998768 
8.851114e+2, 2.4564184e+2, -517693.38, -639294.3, 16111.592, 0.06736755, -0.21792543, -515594.88, 17091.637, 0.0, 10.000614, 9.999009 
8.8514143e+2, 2.5564033e+2, -389980.6, -526469.2, 23076.117, -0.027003108, -0.2734772, -386184.7, 48514.12, 0.00000000006372724, 10.000811, 9.999018 
8.851724e+2, 2.6563925e+2, -337863.9, -470554.6, 4091.6152, -0.0062314207, -0.26631305, -337737.84, -1030.1831, 0.00000025387644, 10.000591, 9.998832 
8.85204e+2, 2.7563846e+2, -315541.6, -412591.75, -21136.947, 0.10574875, -0.22976443, -311137.9, -72422.99, 0.0000021793016, 10.000089, 9.998796 
8.8523436e+2, 2.8563657e+2, -219008.47, -436121.78, -65427.203, 0.16898496, -0.23784503, -200816.3, -60082.344, 0.00001103343, 10.000597, 9.99772 
8.852637e+2, 2.9563373e+2, 72430.234, -229406.17, -35379.01, 0.19622332, -0.29607013, 76521.64, 119284.57, 0.00004783983, 10.001858, 9.99786 
8.852922e+2, 3.0563134e+2, 322030.53, 78644.055, 4747.593, 0.10807711, -0.39386758, 322123.1, 322123.1, 0.00015538944, 10.002539, 9.999317 
8.85321e+2, 3.1563202e+2, 359478.44, 104831.41, 11672.669, 0.042424165, -0.2546283, 360012.38, 360012.38, 0.00034428985, 10.002751, 9.999394 
8.9474237e+2, 1.2561336e+2, -2041712.6, -1750302.3, -110710.02, -0.16961908, -0.21267015, -1713013.6, -4041.603, 0.00000033567557, 9.997223, 10.001093 
8.947738e+2, 1.3561574e+2, -1823922.0, -1600254.5, -53409.594, 0.019693617, -0.08221813, -1588155.3, 22795.0, 0.00000000007521531, 9.998072, 10.001046 
8.9480305e+2, 1.456167e+2, -1685943.4, -1499794.6, -28805.732, -0.02026551, -0.074937716, -1495439.0, 17500.422, 0.0, 9.998415, 10.000893 
8.948323e+2, 1.5561591e+2, -1577522.5, -1396033.3, -11537.243, -0.10313179, -0.2475687, -1395302.8, 19640.77, 0.0, 9.998484, 10.000897 
8.948626e+2, 1.6561577e+2, -1489375.0, -1348002.9, -4880.2686, -0.06752636, -0.32473674, -1347834.6, -30892.797, 0.0, 9.998611, 10.000492 
8.948939e+2, 1.756161e+2, -1371998.6, -1245368.9, 23499.068, 0.06830007, -0.34339368, -1241148.6, -22212.6, 0.0, 9.998763, 10.000451 
8.949244e+2, 1.8561621e+2, -1285104.0, -1270878.8, 52521.477, 0.10061772, -0.3166817, -1224990.5, -104056.016, 0.0, 9.999197, 9.999393 
8.9495444e+2, 1.9561607e+2, -1090025.9, -1125578.1, 46382.164, 0.049244523, -0.2725983, -1058130.1, -35193.215, 0.0, 9.999863, 9.999395 
8.949857e+2, 2.0561554e+2, -1062766.1, -1121755.9, 25605.467, 0.105782196, -0.23443136, -1053202.3, -128258.86, 0.0, 9.999631, 9.998864 
8.950177e+2, 2.1561457e+2, -1101766.0, -1086443.4, 6356.0464, 0.25020924, -0.218576, -1084150.0, -257196.05, 0.0, 9.998678, 9.998892 
8.9504915e+2, 2.2561386e+2, -978093.3, -982443.94, 64552.89, 0.21677513, -0.17171015, -915679.06, -186715.84, 0.0, 9.998883, 9.998833 
8.950799e+2, 2.3561326e+2, -714595.56, -797301.1, 68675.72, 0.0353802, -0.1197512, -675783.44, -44811.285, 0.0, 9.9999895, 9.998898 
8.9511174e+2, 2.456121e+2, -505140.28, -606781.3, 21748.814, 0.044361863, -0.1392034, -500682.1, 32299.877, 0.0, 10.0005865, 9.999247 
8.951446e+2, 2.5561038e+2, -381352.03, -500660.1, 31587.025, 0.20869124, -0.2389747, -373505.38, 61488.465, 0.0000000002378373, 10.000776, 9.999212 
8.951751e+2, 2.6560903e+2, -373006.34, -543069.75, -17068.766, 0.20890065, -0.24393575, -371310.13, -34304.098, 0.00000030747992, 10.0005865, 9.998337 
8.952038e+2, 2.756079e+2, -345047.7, -474608.75, -32108.01, 0.07526735, -0.19088916, -337527.16, -98507.76, 0.0000026197797, 10.000091, 9.998372 
8.95234e+2, 2.8560624e+2, -162372.19, -318637.7, -17964.463, 0.069554664, -0.20175344, -160333.56, -19296.295, 0.000013141425, 10.000595, 9.998528 
8.9526534e+2, 2.9560402e+2, 119561.69, -122343.61, 13047.37, 0.17059878, -0.2750621, 120263.375, 163322.4, 0.00005419451, 10.001814, 9.998618 
8.9529485e+2, 3.0560306e+2, 329011.03, 111598.41, 9438.968, 0.12021057, -0.28164583, 329420.06, 329420.06, 0.0001662128, 10.002462, 9.9995775 
8.953241e+2, 3.1560463e+2, 340985.34, 95504.63, 22383.574, 0.06725825, -0.08073952, 343009.66, 343009.66, 0.0003568497, 10.002628, 9.999387 
9.047402e+2, 1.2558398e+2, -1992870.9, -1666576.1, -22607.61, -0.09993112, -0.10544199, -1665017.3, 44250.594, 0.0000010657902, 9.99729, 10.001639 
9.0477145e+2, 1.355863e+2, -1940640.9, -1601327.0, 37945.094, 0.02797771, -0.031976312, -1597135.4, 14106.816, 0.000000007369457, 9.997035, 10.001537 
9.048008e+2, 1.4558701e+2, -1863646.1, -1590356.6, 62284.25, -0.026100999, -0.073694624, -1576831.1, -63599.18, 0.0, 9.997217, 10.000847 
9.0483046e+2, 1.5558578e+2, -1685924.1, -1453973.1, 51049.742, -0.09851043, -0.28453776, -1443234.8, -27994.932, 0.0, 9.997764, 10.000847 
9.048609e+2, 1.6558586e+2, -1576514.0, -1390076.0, 18078.064, -0.06315108, -0.33880228, -1388339.3, -71103.086, 0.0, 9.998009, 10.000497 
9.048921e+2, 1.7558688e+2, -1480036.3, -1294901.4, -5985.932, 0.061096326, -0.28876597, -1294708.0, -75483.75, 0.0, 9.998012, 10.000473 
9.049231e+2, 1.8558712e+2, -1370253.4, -1302222.6, 45939.99, 0.09089647, -0.25471863, -1279075.8, -157854.55, 0.0, 9.998569, 9.99948 
9.049541e+2, 1.9558667e+2, -1131791.0, -1138469.8, 58602.574, 0.0493578, -0.25166625, -1076432.8, -53206.563, 0.0, 9.999541, 9.999463 
9.049857e+2, 2.0558591e+2, -1001352.5, -1113952.9, 32636.508, 0.13035725, -0.22825463, -992576.94, -67342.33, 0.0, 10.00015, 9.998666 
9.050178e+2, 2.1558483e+2, -855042.0, -988814.94, 47991.875, 0.3075481, -0.20523767, -839605.8, -12359.049, 0.0, 10.000464, 9.998702 
9.0504926e+2, 2.2558384e+2, -748443.4, -867056.6, 149924.75, 0.27224174, -0.17982313, -646521.25, 82736.67, 0.0, 10.000442, 9.998875 
9.050802e+2, 2.3558281e+2, -687581.4, -782929.25, 141774.72, 0.06570584, -0.17323261, -585679.7, 45589.61, 0.0, 10.000166, 9.998913 
9.051123e+2, 2.4558161e+2, -544889.44, -638819.3, 80764.59, 0.054829694, -0.1907787, -498427.25, 34852.305, 0.0, 10.000368, 9.99913 
9.051453e+2, 2.5558022e+2, -365054.06, -502864.06, 57679.594, 0.20034601, -0.24584065, -344099.0, 91190.75, 0.0, 10.00094, 9.999114 
9.0517616e+2, 2.6557884e+2, -267436.72, -499907.16, 1286.8765, 0.21840456, -0.24921514, -267429.6, 69873.914, 0.0000002007212, 10.0013485, 9.998265 
9.0520525e+2, 2.755773e+2, -125269.34, -376752.0, 13511.23, 0.13768762, -0.22988525, -124545.516, 114775.65, 0.0000025589381, 10.001632, 9.998303 
9.0523565e+2, 2.8557596e+2, -20142.97, -242699.69, 34940.977, 0.13542888, -0.20545277, -14786.235, 126550.05, 0.000014744336, 10.001537, 9.998599 
9.0526694e+2, 2.9557475e+2, 28677.51, -158515.31, 6272.2793, 0.19867888, -0.1866027, 28887.44, 72236.91, 0.00006127167, 10.00116, 9.998683 
9.052965e+2, 3.0557382e+2, 89087.445, -33528.703, -49027.492, 0.12588225, -0.17980921, 106280.164, 106280.164, 0.00017929857, 10.0009365, 9.999317 
9.0532583e+2, 3.1557345e+2, 44875.457, -83291.016, -79574.66, 0.08234113, -0.14376889, 82962.61, 82962.61, 0.00037394426, 10.000744, 9.999068 
9.147384e+2, 1.255551e+2, -1933387.0, -1551691.6, -30108.766, -0.022308055, -0.051824182, -1549331.3, 160222.69, 0.000002613721, 9.997329, 10.002408 
9.147685e+2, 1.3555607e+2, -1892286.3, -1500041.4, 32218.688, 0.03437411, -0.18759589, -1497412.6, 114122.664, 0.00000007607973, 9.997031, 10.0022335 
9.147984e+2, 1.4555714e+2, -1891941.9, -1649934.3, 83716.81, 0.013461531, -0.20445856, -1623797.3, -110276.086, 0.0, 9.997214, 10.0004425 
9.1482985e+2, 1.5555765e+2, -1710226.3, -1510058.4, 74930.13, 0.06451481, -0.20394051, -1485117.0, -69600.62, 0.0, 9.997784, 10.000454 
9.148602e+2, 1.6555808e+2, -1624020.8, -1488206.6, 15974.63, 0.06080268, -0.16772494, -1486352.9, -168840.58, 0.0, 9.998011, 9.999821 
9.1488963e+2, 1.7555843e+2, -1522603.8, -1384237.4, -1861.5721, 0.011576483, -0.118358806, -1384212.3, -164703.02, 0.0, 9.998015, 9.999858 
9.149207e+2, 1.8555821e+2, -1341124.1, -1239490.8, 80179.97, -0.004658951, -0.12450447, -1195380.4, -73869.98, 0.0, 9.998558, 9.999917 
9.1495323e+2, 1.9555746e+2, -1104555.9, -1078903.4, 95981.78, 0.0062232004, -0.19416325, -994894.6, 28621.111, 0.0, 9.999528, 9.99988 
9.1498536e+2, 2.0555647e+2, -984122.94, -1073402.9, 42109.8, 0.07645071, -0.22759427, -967395.44, -41871.45, 0.0, 10.000129, 9.998955 
9.150171e+2, 2.1555522e+2, -841413.75, -950657.44, 60600.02, 0.19398282, -0.25132087, -814451.9, 13083.417, 0.0, 10.0004225, 9.998983 
9.1504914e+2, 2.2555362e+2, -756271.25, -879240.7, 136753.77, 0.21833965, -0.29589134, -667816.1, 61733.31, 0.0, 10.00042, 9.998803 
9.1508144e+2, 2.3555164e+2, -696244.9, -797978.75, 135979.25, 0.16913898, -0.3783154, -601929.9, 29637.053, 0.0, 10.000151, 9.998819 
9.1511285e+2, 2.455505e+2, -581953.75, -707041.4, 100559.555, 0.07343392, -0.36350712, -526074.8, 7503.569, 0.0, 10.000332, 9.998679 
9.151436e+2, 2.5554994e+2, -400755.8, -567027.94, 82361.95, -0.05907755, -0.28868297, -366865.84, 68720.01, 0.0, 10.0008955, 9.998696 
9.151755e+2, 2.6554862e+2, -250009.3, -456288.44, 11204.35, 0.015389664, -0.27950728, -249402.5, 88197.516, 0.00000011562638, 10.001316, 9.99858 
9.152081e+2, 2.755466e+2, -113945.04, -342192.94, 26416.25, 0.25967646, -0.3433264, -110927.65, 128692.93, 0.0000025826089, 10.001582, 9.998566 
9.152392e+2, 2.8554574e+2, -69130.555, -334407.28, 19053.094, 0.3299305, -0.24862254, -67769.08, 73862.36, 0.000017158924, 10.001494, 9.997989 
9.152687e+2, 2.9554588e+2, -19587.453, -252442.48, -1789.2485, 0.25645155, -0.03994172, -19573.705, 24061.139, 0.000070174305, 10.001131, 9.998054 
9.152973e+2, 3.0554372e+2, 39669.68, -136362.61, -52789.25, 0.110228024, -0.081044205, 54286.605, 54286.605, 0.00019601652, 10.000939, 9.99861 
9.153263e+2, 3.1553897e+2, 4822.9385, -170578.06, -74056.414, 0.04751361, -0.41593733, 31908.02, 31908.02, 0.00039683623, 10.000762, 9.998461 
9.247356e+2, 1.2552634e+2, -2185877.8, -1687052.1, 52031.83, 0.051707894, -0.026373722, -1681682.6, 28152.76, 0.0000053718704, 9.995662, 10.002278 
9.247657e+2, 1.355265e+2, -1798108.9, -1474538.5, 26895.154, 0.024106488, -0.22920497, -1472318.1, 139506.77, 0.00000033393198, 9.997764, 10.002055 
9.247962e+2, 1.4552747e+2, -1690337.5, -1570457.0, 41850.84, 0.00861674, -0.23481281, -1557292.4, -43480.324, 0.0, 9.998683, 10.000277 
9.248286e+2, 1.5552852e+2, -1583480.4, -1466472.3, 43135.477, 0.12470666, -0.16445875, -1452289.4, -36486.21, 0.0, 9.998738, 10.000289 
9.248593e+2, 1.6552892e+2, -1421281.0, -1399289.0, 30279.035, 0.109340526, -0.11809932, -1378071.1, -60271.49, 0.0, 9.999442, 9.999739 
9.248887e+2, 1.7552885e+2, -1148694.8, -1213371.0, 51689.44, -0.009672516, -0.102275856, -1120061.1, 99739.42, 0.0, 10.000626, 9.999772 
9.2491966e+2, 1.8552843e+2, -1098450.4, -1130755.0, 104220.78, -0.042747896, -0.12253415, -1009137.7, 112665.86, 0.0, 10.000259, 9.9998455 
9.249521e+2, 1.955276e+2, -1245695.5, -1153125.1, 78297.914, -0.006939441, -0.19099797, -1108455.0, -84645.52, 0.0, 9.998586, 9.9998255 
9.249844e+2, 2.0552678e+2, -1148355.5, -1120841.4, 63256.723, 0.036676083, -0.22063744, -1069863.0, -144047.08, 0.0, 9.998866, 9.999237 
9.250166e+2, 2.1552585e+2, -771483.1, -888548.44, 71509.48, 0.08814062, -0.23929192, -737605.4, 90218.586, 0.0, 10.000778, 9.999239 
9.250491e+2, 2.2552434e+2, -647688.75, -825869.4, 95562.914, 0.1468465, -0.28715995, -606129.4, 123707.35, 0.0, 10.001163, 9.998812 
9.2508197e+2, 2.3552231e+2, -672707.06, -784688.3, 96737.27, 0.21193871, -0.37509197, -616925.4, 14928.392, 0.0, 10.000308, 9.998833 
9.251136e+2, 2.4552117e+2, -622877.0, -733188.25, 119536.69, 0.13688207, -0.35629818, -546384.75, -12519.072, 0.0, 10.000076, 9.998625 
9.2514426e+2, 2.555207e+2, -480719.63, -610416.1, 126058.76, -0.052707348, -0.27030832, -403807.16, 32067.154, 0.0, 10.000363, 9.998657 
9.2517614e+2, 2.6551968e+2, -355015.44, -484607.97, 58397.117, -0.0021726259, -0.24076292, -332583.38, 5302.346, 0.00000007319143, 10.000493, 9.998785 
9.25209e+2, 2.7551812e+2, -257937.63, -389208.72, 59848.98, 0.24878843, -0.27758327, -234747.92, 5152.4653, 0.0000027897247, 10.000496, 9.998764 
9.252401e+2, 2.8551683e+2, -160758.16, -404430.5, 73664.2, 0.3083742, -0.22664483, -140219.94, 1695.0623, 0.000020132902, 10.000974, 9.99776 
9.252697e+2, 2.9551572e+2, 65777.914, -238904.0, 74729.77, 0.21194072, -0.1157519, 83119.914, 127049.664, 0.00008107723, 10.001831, 9.99781 
9.2529845e+2, 3.0551383e+2, 226877.89, -82137.14, 49474.492, 0.07000137, -0.10781703, 234605.7, 234605.7, 0.00021777536, 10.002376, 9.998289 
9.2532796e+2, 3.1550956e+2, 269808.7, -58867.668, 43033.99, 0.047485758, -0.3644974, 275349.75, 275349.75, 0.000428338, 10.00265, 9.998316 
9.3473136e+2, 1.2549765e+2, -2269879.8, -1855954.0, 136026.34, 0.059036523, -0.057645645, -1815254.3, -105141.984, 0.000009857008, 9.995639, 10.001131 
9.34763e+2, 1.3549776e+2, -1870083.6, -1636382.6, 105330.54, -0.024696304, -0.14752267, -1595916.4, 16193.051, 0.0000009955157, 9.997817, 10.000918 
9.347942e+2, 1.4549825e+2, -1678603.5, -1562588.4, 39746.074, -0.06443229, -0.14953433, -1550277.9, -36175.063, 0.00000000002439963, 9.998751, 10.0003 
9.348267e+2, 1.5549842e+2, -1575114.5, -1457407.9, 49183.543, 0.049229626, -0.1679377, -1439562.1, -23462.479, 0.0, 9.998772, 10.000337 
9.348582e+2, 1.6549838e+2, -1379775.6, -1317367.5, 73609.734, 0.05359738, -0.19802472, -1268621.0, 49477.004, 0.0, 9.999461, 10.000292 
9.3488914e+2, 1.7549817e+2, -1107306.8, -1138600.0, 94231.19, -0.025497364, -0.25073153, -1027431.94, 192665.88, 0.0, 10.000672, 10.000263 
9.3491995e+2, 1.854978e+2, -1140452.9, -1221220.3, 38535.977, -0.041478336, -0.25414458, -1125016.6, -2916.3438, 0.0, 10.000273, 9.999218 
9.3495065e+2, 1.9549721e+2, -1286797.0, -1237182.0, 23718.756, -0.009860088, -0.2401305, -1227667.6, -203561.42, 0.0, 9.998578, 9.999252 
9.349828e+2, 2.0549689e+2, -1132811.5, -1085830.3, 131953.28, -0.010279174, -0.20428383, -975293.0, -49183.043, 0.0, 9.998852, 9.999485 
9.350161e+2, 2.1549675e+2, -759693.5, -857218.2, 140236.47, -0.034957867, -0.16924953, -659983.56, 168129.05, 0.0, 10.000746, 9.999472 
9.350492e+2, 2.2549604e+2, -647097.7, -816107.25, 60708.535, 0.03435856, -0.15243752, -627551.6, 102567.62, 0.0, 10.001126, 9.998895 
9.35082e+2, 2.3549478e+2, -669600.0, -773420.8, 69125.98, 0.18355447, -0.17139044, -635063.3, -2933.2527, 0.0, 10.000286, 9.998921 
9.3511456e+2, 2.4549359e+2, -601905.06, -685580.7, 128239.586, 0.22494353, -0.17910296, -508851.06, 25291.018, 0.0, 10.00006, 9.998959 
9.351469e+2, 2.5549242e+2, -462462.4, -566330.2, 138661.92, 0.17942694, -0.19602764, -366327.88, 69827.8, 0.0, 10.000336, 9.998974 
9.3517804e+2, 2.6549187e+2, -350261.53, -470509.4, 55843.74, 0.13749902, -0.13882841, -328328.13, 9833.182, 0.00000003612581, 10.000473, 9.998892 
9.35208e+2, 2.7549174e+2, -250972.39, -374828.7, 62944.81, 0.096425846, -0.044328865, -224599.1, 15562.545, 0.0000027028154, 10.000494, 9.998865 
9.352387e+2, 2.8548917e+2, -152231.33, -384961.44, 102565.81, 0.06696922, -0.13524267, -113481.68, 28705.297, 0.000022320448, 10.000968, 9.997895 
9.352699e+2, 2.954845e+2, 69275.61, -225472.17, 107397.086, 0.04929678, -0.3895087, 104256.31, 148489.31, 0.000092742026, 10.001803, 9.997917 
9.353e+2, 3.0548394e+2, 220697.63, -83869.38, 54743.195, -0.01746716, -0.2535634, 230238.36, 230238.36, 0.0002446386, 10.002327, 9.9983015 
9.353305e+2, 3.1548437e+2, 272187.0, -31927.174, 53087.492, 0.031098364, -0.04270908, 281187.8, 281187.8, 0.00047061927, 10.002556, 9.998547 
9.44729e+2, 1.2546702e+2, -1912272.4, -1720974.4, 43036.88, 0.12907149, -0.10511472, -1711738.1, -1326.2458, 0.000016753027, 9.998249, 10.000805 
9.447611e+2, 1.3546807e+2, -1934661.5, -1702922.1, 57837.64, 0.023542797, -0.06293282, -1689289.0, -76885.914, 0.000002343361, 9.997531, 10.000601 
9.447922e+2, 1.4546862e+2, -1852964.3, -1610294.4, 18893.76, -0.06217557, -0.058271933, -1608832.1, -94436.23, 0.0000000053592455, 9.9974, 10.000624 
9.448242e+2, 1.5546808e+2, -1693509.9, -1481567.9, 47839.285, -0.020614294, -0.18063113, -1471270.0, -54872.55, 0.0, 9.997814, 10.000635 
9.448562e+2, 1.6546796e+2, -1606144.0, -1420518.8, 76521.35, -0.0074781664, -0.2366122, -1393041.4, -74645.25, 0.0, 9.99788, 10.000348 
9.448884e+2, 1.754682e+2, -1547202.5, -1343683.5, 52427.52, -0.012747311, -0.24793884, -1330971.9, -110579.66, 0.0, 9.997626, 10.000323 
9.449199e+2, 1.8546802e+2, -1369358.3, -1306928.4, 5544.911, 0.0059419433, -0.24691038, -1306439.8, -184047.1, 0.0, 9.998601, 9.999432 
9.449507e+2, 1.9546737e+2, -977289.5, -1064776.1, 48997.355, 0.042004883, -0.26050735, -955350.06, 69047.77, 0.0, 10.000608, 9.999453 
9.449829e+2, 2.0546706e+2, -889857.2, -978817.7, 173624.52, 0.040121265, -0.22793622, -755105.8, 171295.36, 0.0, 10.000562, 9.999397 
9.4501626e+2, 2.1546704e+2, -1056102.6, -1005691.1, 152322.8, 0.010052304, -0.17332529, -876502.7, -48099.293, 0.0, 9.998739, 9.999416 
9.4504917e+2, 2.2546664e+2, -935523.94, -920095.0, 95118.78, 0.033254515, -0.13818961, -832378.4, -101970.75, 0.0, 9.998996, 9.9992075 
9.450818e+2, 2.3546587e+2, -545767.56, -680593.8, 114655.59, 0.103714705, -0.14028803, -480175.28, 152239.25, 0.0, 10.000996, 9.999216 
9.451147e+2, 2.4546483e+2, -421468.38, -621810.75, 131027.4, 0.17316648, -0.13676612, -356707.9, 177717.23, 0.0, 10.001395, 9.998756 
9.451479e+2, 2.554635e+2, -460679.72, -587774.25, 99509.09, 0.24445689, -0.1464929, -406157.88, 30281.654, 0.0, 10.0004425, 9.9987755 
9.4517916e+2, 2.6546246e+2, -349389.16, -507383.6, 19312.879, 0.19682802, -0.11403278, -347062.66, -8612.397, 0.000000027783642, 10.00064, 9.998557 
9.452086e+2, 2.754615e+2, -79695.945, -327961.97, -10410.202, 0.051328935, -0.0683352, -79260.195, 161199.02, 0.000002328807, 10.001824, 9.998547 
9.452394e+2, 2.8545904e+2, 10998.972, -299582.22, -802.85016, -0.0009249391, -0.13137622, 11001.047, 153484.84, 0.000023776485, 10.002063, 9.997955 
9.452713e+2, 2.9545546e+2, 24083.104, -239321.69, -4632.335, 0.02753132, -0.2896202, 24164.545, 68685.35, 0.00010394975, 10.001467, 9.997982 
9.4530195e+2, 3.0545506e+2, 88835.9, -163667.25, -48448.31, -0.0037994455, -0.12976131, 97812.65, 97812.65, 0.00027361658, 10.001491, 9.99816 
9.453331e+2, 3.1545454e+2, 205244.64, -53001.668, -69853.09, 0.07474045, -0.0010817384, 222928.31, 222928.31, 0.00052026927, 10.002043, 9.998654 
9.547281e+2, 1.254344e+2, -1853230.8, -1629422.1, 12590.209, 0.20905073, -0.16210656, -1628716.1, 82018.82, 0.00002677623, 9.998381, 10.0013685 
9.5475996e+2, 1.3543749e+2, -1893121.6, -1618873.5, 28909.557, 0.1569915, 0.02781528, -1615859.1, -3153.8718, 0.0000047533053, 9.9975395, 10.001173 
9.547903e+2, 1.4543869e+2, -1813384.4, -1522795.4, 33428.746, 0.0020724365, 0.035416313, -1518999.4, -4308.756, 0.000000046136613, 9.997375, 10.001237 
9.548211e+2, 1.5543751e+2, -1651160.1, -1396459.8, 66553.19, -0.10919166, -0.21000175, -1380117.9, 36578.53, 0.0, 9.997826, 10.001214 
9.548532e+2, 1.6543774e+2, -1641015.0, -1492380.3, 64764.395, -0.1021868, -0.23358227, -1468120.3, -149427.28, 0.0, 9.997878, 9.999855 
9.5488626e+2, 1.7543909e+2, -1579231.1, -1406826.8, 48643.957, 0.007601995, -0.08722668, -1394048.9, -173366.31, 0.0, 9.997609, 9.999899 
9.549192e+2, 1.8543918e+2, -1297627.5, -1154326.1, 79902.63, 0.080691285, -0.093634225, -1118653.8, 4025.8352, 0.0, 9.998584, 10.000487 
9.549521e+2, 1.9543812e+2, -907418.4, -920353.06, 121472.48, 0.12673624, -0.25097254, -792241.2, 232442.75, 0.0, 10.000609, 10.000445 
9.549847e+2, 2.0543733e+2, -919965.5, -1040479.06, 101317.23, 0.16746172, -0.2927106, -862340.7, 64348.684, 0.0, 10.000556, 9.998978 
9.550169e+2, 2.1543674e+2, -1085348.5, -1062107.0, 91275.32, 0.20262104, -0.25423378, -981715.7, -153019.27, 0.0, 9.998717, 9.999042 
9.550491e+2, 2.254362e+2, -902427.9, -843858.6, 167449.47, 0.12470241, -0.24403855, -703152.3, 27549.531, 0.0, 9.998964, 9.999745 
9.550812e+2, 2.3543562e+2, -519185.53, -614325.75, 186891.73, -0.05013619, -0.2782872, -373904.84, 258802.05, 0.0, 10.000945, 9.999697 
9.5511395e+2, 2.4543494e+2, -478295.06, -728640.44, 92250.35, -0.039037324, -0.22663143, -447973.94, 86740.67, 0.0, 10.001348, 9.998044 
9.551472e+2, 2.554341e+2, -511350.3, -692454.75, 69375.17, 0.13100608, -0.12105779, -487829.66, -51104.285, 0.0, 10.000441, 9.998056 
9.5517945e+2, 2.654316e+2, -402404.44, -617992.06, 63687.668, 0.16454951, -0.1567682, -384995.9, -46244.754, 0.000000030362223, 10.000641, 9.997799 
9.5521075e+2, 2.7542764e+2, -138656.81, -438723.22, 36665.72, 0.08039568, -0.33383524, -134241.53, 106549.24, 0.000002140531, 10.001771, 9.997814 
9.552422e+2, 2.8542668e+2, 1623.8158, -302370.03, -22664.96, 0.064896576, -0.21649311, 3304.3635, 146108.6, 0.000025776937, 10.001992, 9.997968 
9.5527357e+2, 2.9542822e+2, 19997.797, -241308.47, -20440.746, 0.11212048, 0.14168797, 21587.111, 66382.17, 0.00011520068, 10.001435, 9.997984 
9.553043e+2, 3.0542713e+2, 64141.992, -206295.5, -24438.322, 0.08174886, 0.24224469, 66332.64, 66332.64, 0.0003025404, 10.001453, 9.997886 
9.553358e+2, 3.1542057e+2, 192099.88, -59749.63, -40435.406, 0.13170609, -0.2019783, 198432.7, 198432.7, 0.00057311467, 10.001952, 9.998653 
9.6472585e+2, 1.2540346e+2, -1948187.4, -1660676.3, 55827.01, 0.182435, -0.11017962, -1650216.6, 60822.05, 0.000040530904, 9.997669, 10.001494 
9.647571e+2, 1.3540566e+2, -1929825.5, -1625610.6, 19618.11, 0.14031158, -0.022554234, -1624350.8, -11333.855, 0.000008656152, 9.997237, 10.001271 
9.647876e+2, 1.4540702e+2, -1810138.9, -1507424.3, 34634.8, 0.007896739, -0.008683338, -1503512.1, 11489.237, 0.00000019058375, 9.997343, 10.001353 
9.6481913e+2, 1.5540689e+2, -1627822.1, -1370851.0, 19958.426, -0.08539278, -0.16206172, -1369310.0, 47689.156, 0.0, 9.997931, 10.001336 
9.648514e+2, 1.6540755e+2, -1548334.9, -1399664.8, 22416.17, -0.08214949, -0.16932446, -1396358.5, -77366.99, 0.0, 9.998309, 10.000282 
9.6488416e+2, 1.7540881e+2, -1414163.5, -1279600.9, 74241.02, 0.0019758455, -0.074501105, -1246689.9, -25710.24, 0.0, 9.998538, 10.000322 
9.649174e+2, 1.85409e+2, -1296035.5, -1153266.5, 135506.11, 0.055488486, -0.09262271, -1071492.0, 51483.453, 0.0, 9.998592, 10.000493 
9.649512e+2, 1.9540817e+2, -1220693.0, -1068784.6, 90842.266, 0.088255726, -0.22608523, -1026327.0, -1347.9384, 0.0, 9.998448, 10.000468 
9.6498424e+2, 2.0540743e+2, -1081332.5, -1057521.9, 38385.22, 0.13958563, -0.2939127, -1029238.06, -102255.22, 0.0, 9.999197, 9.999511 
9.6501666e+2, 2.1540664e+2, -754714.25, -848297.44, 95149.72, 0.20632295, -0.3253121, -695473.2, 133514.39, 0.0, 10.000758, 9.999524 
9.650492e+2, 2.2540611e+2, -655722.8, -784533.0, 186875.02, 0.15302739, -0.30943343, -522465.84, 208527.1, 0.0, 10.00091, 9.999219 
9.650821e+2, 2.3540573e+2, -715555.3, -764205.8, 121605.9, 0.0018180336, -0.27318507, -615865.56, 17134.143, 0.0, 9.999834, 9.999203 
9.651149e+2, 2.454047e+2, -649766.94, -801799.2, 20657.229, -0.019457344, -0.23408177, -647010.1, -111999.28, 0.0, 10.000132, 9.998125 
9.6514755e+2, 2.554031e+2, -335215.66, -598838.56, 50360.227, 0.07070406, -0.21057351, -325922.88, 111103.47, 0.0, 10.001618, 9.99813 
9.651801e+2, 2.6540053e+2, -248603.13, -565078.44, 88023.1, 0.11460061, -0.24807988, -225768.36, 113284.086, 0.000000012060779, 10.001793, 9.997607 
9.6521235e+2, 2.7539706e+2, -290616.66, -532262.44, 96314.766, 0.1169132, -0.3572149, -256925.11, -15836.603, 0.0000023356135, 10.00082, 9.997628 
9.652441e+2, 2.8539598e+2, -201464.72, -428949.97, 50111.496, 0.13607377, -0.22968061, -190915.16, -47811.707, 0.000028836348, 10.000714, 9.997716 
9.652756e+2, 2.9539695e+2, -8798.87, -282823.03, 27179.623, 0.17577781, 0.09023018, -6129.019, 38971.01, 0.00012695143, 10.001356, 9.997736 
9.653061e+2, 3.053954e+2, 59098.434, -217220.86, 24189.17, 0.12630847, 0.16564155, 61199.984, 61199.984, 0.00033048782, 10.001456, 9.9978075 
9.653374e+2, 3.1538877e+2, 66868.484, -96342.766, 12871.638, 0.15230581, -0.2822328, 67877.37, 67877.37, 0.00062489236, 10.000998, 9.998856 
9.7472155e+2, 1.2537457e+2, -1972057.8, -1715260.5, 48739.402, -0.0160758, 0.061890524, -1706321.1, 4998.5776, 0.000058506626, 9.9976845, 10.001114 
9.747523e+2, 1.353726e+2, -1953408.9, -1681069.5, 8364.937, -0.0651867, -0.2271958, -1680812.9, -67475.49, 0.00001444443, 9.997263, 10.000879 
9.7478414e+2, 1.4537358e+2, -1839949.6, -1576753.3, 54982.594, -0.07886719, -0.206314, -1565729.0, -50400.516, 0.0000005546723, 9.997372, 10.000868 
9.7481835e+2, 1.5537623e+2, -1653142.0, -1428491.3, 43058.492, 0.03729804, -0.03337438, -1420521.0, -3215.2227, 0.0, 9.99795, 10.000934 
9.7485095e+2, 1.6537747e+2, -1446316.9, -1192542.4, 28686.287, 0.04164746, -0.036286786, -1189340.1, 129950.445, 0.0, 9.998328, 10.001696 
9.748822e+2, 1.7537743e+2, -1318122.1, -1087318.1, 85128.35, -0.04820209, -0.21230632, -1059317.0, 161965.77, 0.0, 9.998566, 10.001632 
9.7491455e+2, 1.8537748e+2, -1370708.4, -1307956.0, 127764.95, -0.093118764, -0.25224298, -1207771.0, -84490.81, 0.0, 9.998591, 9.999432 
9.7494787e+2, 1.9537756e+2, -1290679.4, -1210235.8, 89407.8, -0.096227184, -0.18965372, -1152419.0, -127136.17, 0.0, 9.998431, 9.999507 
9.749814e+2, 2.0537737e+2, -980428.9, -846085.8, 94444.016, -0.06488601, -0.23108925, -797362.2, 129918.92, 0.0, 9.999185, 10.00097 
9.7501534e+2, 2.153768e+2, -664753.4, -655610.4, 151762.48, -0.0027427056, -0.38620088, -508350.56, 320926.16, 0.0, 10.000729, 10.000863 
9.7504956e+2, 2.2537643e+2, -771388.94, -1016160.06, 143116.7, 0.09452827, -0.3377706, -705464.56, 25816.223, 0.0, 10.0008745, 9.997644 
9.750842e+2, 2.3537616e+2, -822611.25, -981260.6, 86959.46, 0.22750655, -0.13191229, -784231.44, -150938.53, 0.0, 9.999813, 9.997721 
9.751172e+2, 2.453742e+2, -594087.4, -683391.06, 75078.72, 0.20398393, -0.15808734, -551385.94, -16072.694, 0.0, 10.000116, 9.998948 
9.751489e+2, 2.553707e+2, -286188.66, -485291.63, 106298.38, 0.04119573, -0.40795884, -240104.14, 197237.44, 0.0, 10.001563, 9.998939 
9.75181e+2, 2.6536924e+2, -234150.34, -521642.2, 50362.81, 0.02376097, -0.3916476, -225583.1, 113771.76, 0.0000000034767167, 10.001738, 9.99793 
9.752134e+2, 2.7536944e+2, -269536.53, -487601.03, 64584.824, 0.13693875, -0.16392095, -251843.77, -10487.894, 0.0000028342504, 10.000817, 9.997934 
9.752454e+2, 2.8536692e+2, -234065.98, -500768.88, 72512.305, 0.19362007, -0.17097598, -215625.98, -72243.04, 0.000032308424, 10.000731, 9.997216 
9.752772e+2, 2.953619e+2, -43845.855, -357111.56, 54833.05, 0.19886014, -0.39481667, -34525.36, 10907.572, 0.00013865711, 10.001358, 9.99723 
9.753074e+2, 3.053602e+2, 64353.52, -203443.77, 7718.7266, 0.112941675, -0.31745273, 64575.81, 64575.81, 0.0003574127, 10.001451, 9.997902 
9.7533786e+2, 3.1535855e+2, 97412.81, -39828.465, 2027.4733, 0.09833728, -0.27735943, 97442.76, 97442.76, 0.0006733306, 10.001031, 9.999226 
9.847192e+2, 1.2534377e+2, -2045936.0, -1752491.0, 91998.53, 0.013510851, -0.005004641, -1726033.8, -14417.366, 0.00008108169, 9.997185, 10.001098 
9.84749e+2, 1.3534166e+2, -2014722.1, -1710579.1, 63908.246, -0.094709516, -0.3078784, -1697696.1, -84060.18, 0.000022462764, 9.996845, 10.000875 
9.847811e+2, 1.4534278e+2, -1915126.5, -1628110.9, 177853.9, -0.09332748, -0.26650652, -1543087.5, -27460.55, 0.0000013019285, 9.996924, 10.00073 
9.848163e+2, 1.5534571e+2, -1735249.4, -1481784.9, 188946.94, 0.067320466, -0.05567627, -1381004.5, 36599.117, 0.0, 9.997449, 10.000807 
9.8484933e+2, 1.6534702e+2, -1528914.0, -1231517.1, 120166.695, 0.07896906, -0.04544952, -1189031.8, 130556.66, 0.0, 9.99776, 10.001702 
9.8488057e+2, 1.7534694e+2, -1423796.8, -1136677.0, 65259.703, -0.029403688, -0.22675045, -1122540.1, 99040.95, 0.0, 9.997838, 10.001641 
9.849131e+2, 1.8534698e+2, -1408169.8, -1330170.0, 111943.1, -0.07925623, -0.26527554, -1250627.8, -127049.01, 0.0, 9.99835, 9.999395 
9.849468e+2, 1.9534707e+2, -1174463.9, -1159268.3, 147333.28, -0.08018263, -0.19775377, -1019337.0, 6244.065, 0.0, 9.9992485, 9.999463 
9.849807e+2, 2.0534706e+2, -957315.0, -874610.6, 129518.45, -0.06347618, -0.20213774, -780003.1, 147576.38, 0.0, 9.999507, 10.000623 
9.850149e+2, 2.1534681e+2, -913624.9, -810095.7, 45598.855, -0.030130109, -0.2905182, -792876.0, 36699.492, 0.0, 9.999167, 10.000554 
9.850495e+2, 2.2534621e+2, -912797.75, -1044054.75, 39741.18, 0.067443185, -0.2690975, -901703.0, -170121.64, 0.0, 9.999732, 9.998004 
9.850845e+2, 2.3534521e+2, -614088.7, -841010.5, 123564.4, 0.22325096, -0.17176308, -559795.2, 73801.04, 0.0, 10.001076, 9.998077 
9.8511815e+2, 2.4534346e+2, -416622.3, -574673.56, 162516.8, 0.23495533, -0.20587142, -314936.13, 220677.0, 0.0, 10.001242, 9.999151 
9.851506e+2, 2.5534096e+2, -443944.88, -540379.9, 140529.67, 0.11902707, -0.3740732, -343590.78, 94041.914, 0.0, 10.000391, 9.999125 
9.851827e+2, 2.653398e+2, -392648.0, -608579.06, 48076.832, 0.07933007, -0.3328046, -382427.5, -42783.836, 0.00000001775074, 10.0006895, 9.99784 
9.852144e+2, 2.753397e+2, -105663.05, -417586.7, 28071.877, 0.110556945, -0.12785709, -103156.83, 138491.05, 0.000003544514, 10.00198, 9.997857 
9.852465e+2, 2.853366e+2, 50186.746, -342303.8, 54783.395, 0.13546707, -0.19416596, 57689.914, 201368.38, 0.000035208486, 10.002591, 9.997411 
9.8527855e+2, 2.9533094e+2, 146980.25, -246482.4, 82186.734, 0.15203993, -0.50546116, 163457.44, 209189.39, 0.00014828902, 10.00259, 9.997396 
9.8530936e+2, 3.0532923e+2, 256403.1, -173872.47, 37434.656, 0.090840936, -0.40594548, 259635.67, 259635.67, 0.00038101713, 10.003035, 9.997345 
9.853405e+2, 3.1532884e+2, 479953.56, 104506.37, -25746.979, 0.111978285, -0.18717104, 481710.97, 481710.97, 0.0007157471, 10.003826, 9.998878 
9.947188e+2, 1.253109e+2, -2016009.5, -1694722.9, 84798.82, 0.24327876, -0.3453772, -1673715.1, 38215.07, 0.000108580556, 9.997208, 10.001482 
9.947474e+2, 1.3531315e+2, -1984794.8, -1648637.5, 53792.793, 0.05473364, -0.2537715, -1640239.3, -26329.734, 0.000033028722, 9.996847, 10.0013 
9.9477845e+2, 1.4531502e+2, -1897903.3, -1594971.8, 198625.56, -0.047741454, -0.17207396, -1496649.6, 19243.275, 0.0000026281716, 9.99693, 10.000957 
9.948128e+2, 1.553154e+2, -1719870.3, -1455163.5, 214286.16, -0.024962472, -0.23715365, -1335651.9, 82238.98, 0.00000000019976186, 9.997466, 10.000983 
9.948462e+2, 1.6531622e+2, -1632738.1, -1446671.6, 122530.51, 0.00052459585, -0.21044785, -1385857.8, -65973.41, 0.0, 9.99776, 10.000224 
9.9487907e+2, 1.7531739e+2, -1520014.5, -1338956.3, 70864.555, 0.03903482, -0.11827781, -1314518.9, -92644.625, 0.0, 9.997848, 10.000249 
9.9491304e+2, 1.8531756e+2, -1337135.4, -1183053.4, 142915.72, 0.08031814, -0.12827371, -1097736.1, 26134.4, 0.0, 9.99835, 10.000406 
9.94948e+2, 1.9531678e+2, -1110560.5, -1027662.4, 181359.11, 0.12117482, -0.25152954, -883076.06, 142797.3, 0.0, 9.99925, 10.000367 
9.949821e+2, 2.0531654e+2, -1111423.3, -1188506.6, 113409.266, 0.12604746, -0.20924369, -1030185.5, -102308.05, 0.0, 9.999483, 9.998478 
9.950154e+2, 2.1531673e+2, -1058375.0, -1103081.5, 36479.48, 0.10363092, -0.041130617, -1037944.8, -208061.34, 0.0, 9.999135, 9.998559 
9.9504906e+2, 2.2531551e+2, -758960.4, -716807.94, 87772.8, 0.05487628, -0.10181114, -647616.4, 84277.625, 0.0, 9.999697, 10.000268 
9.9508315e+2, 2.3531294e+2, -467207.34, -527141.1, 172698.61, -0.019209187, -0.38624138, -321894.97, 312014.2, 0.0, 10.001036, 10.000253 
9.9511755e+2, 2.4531245e+2, -452899.78, -640264.1, 127275.31, 0.05770699, -0.3775738, -388546.0, 147364.83, 0.0, 10.0012, 9.99872 
9.951525e+2, 2.5531372e+2, -475636.2, -603664.44, 112963.27, 0.27238685, -0.1259669, -409810.0, 28091.342, 0.0, 10.000379, 9.998695 
9.951851e+2, 2.6531217e+2, -428368.5, -681031.1, 93900.03, 0.25060868, -0.07784111, -397293.28, -57374.082, 0.000000028595345, 10.000681, 9.997348 
9.9521554e+2, 2.7530795e+2, -144270.53, -488714.56, 77109.35, 0.017834483, -0.23434508, -127796.305, 114166.15, 0.000003781716, 10.001937, 9.997391 
9.952472e+2, 2.8530508e+2, 100280.4, -224333.16, 52738.926, -0.05197666, -0.29840386, 108633.766, 252623.22, 0.000036350866, 10.002534, 9.998247 
9.952799e+2, 2.9530343e+2, 200198.7, -132475.19, 84895.0, 0.02329388, -0.29232553, 220610.63, 266612.34, 0.00015374523, 10.002576, 9.998186 
9.95312e+2, 3.0530196e+2, 170868.4, -346592.3, 63824.098, 0.043863747, -0.1466518, 178624.28, 178624.28, 0.0003968945, 10.003012, 9.996171 
9.953446e+2, 3.1529927e+2, 395094.1, -49662.43, 9887.962, 0.14111568, -0.040625565, 395313.84, 395313.84, 0.00074672204, 10.003728, 9.997866 
1.0047161e+3, 1.2527953e+2, -2149421.0, -1767188.5, 19126.252, 0.29568195, -0.4054557, -1766233.9, -53996.785, 0.00014134821, 9.996335, 10.001405 
1.0047446e+3, 1.3528305e+2, -1885348.6, -1605078.1, -68630.336, 0.06994189, -0.18272953, -1589174.9, 25030.756, 0.000046426092, 9.997555, 10.001256 
1.0047757e+3, 1.4528506e+2, -1801698.4, -1540340.3, 32613.496, -0.041269965, -0.086240984, -1536332.1, -20144.813, 0.00000474816, 9.9975605, 10.001023 
1.0048095e+3, 1.5528461e+2, -1866400.5, -1521214.6, 28001.035, -0.046568144, -0.23837653, -1518958.0, -100766.5, 0.000000004412824, 9.996446, 10.00102 
1.0048434e+3, 1.6528504e+2, -1786715.0, -1571677.9, 21258.984, -0.016619772, -0.22746009, -1569596.4, -249407.03, 0.0, 9.996918, 9.999775 
1.0048775e+3, 1.7528622e+2, -1405780.9, -1329983.0, 43791.926, 0.05127656, -0.088221416, -1309967.6, -87786.07, 0.0, 9.998832, 9.999835 
1.00491226e+3, 1.852863e+2, -1156353.3, -1079127.1, 95173.21, 0.11664834, -0.09600219, -1015032.3, 109146.875, 0.0, 9.999519, 10.000557 
1.0049477e+3, 1.952853e+2, -1130674.5, -1021593.94, 62981.637, 0.17702106, -0.25345024, -992819.56, 33362.8, 0.0, 9.999048, 10.0005045 
1.004982e+3, 2.0528509e+2, -1165123.4, -1231274.3, 45920.4, 0.1871418, -0.20735246, -1141606.8, -213420.06, 0.0, 9.999191, 9.998323 
1.0050154e+3, 2.1528551e+2, -962378.7, -1070946.9, 114883.62, 0.15842679, -0.0011709963, -889599.8, -59407.355, 0.0, 9.999861, 9.998427 
1.00504905e+3, 2.2528447e+2, -676515.44, -626601.94, 182664.81, 0.073983304, -0.05946984, -467196.88, 265003.78, 0.0, 10.000048, 10.000716 
1.005083e+3, 2.3528206e+2, -618759.75, -553465.25, 126252.1, -0.06131546, -0.37448007, -455707.6, 178504.47, 0.0, 9.999794, 10.000668 
1.00511774e+3, 2.452817e+2, -623053.1, -757692.6, 8657.647, 0.012307373, -0.35613874, -622498.7, -86285.86, 0.0, 10.000178, 9.998408 
1.0051532e+3, 2.5528312e+2, -392032.3, -594173.1, 358.9542, 0.27625227, -0.058625575, -392031.7, 46172.855, 0.0, 10.001092, 9.998416 
1.00518644e+3, 2.652813e+2, -287794.5, -603717.1, 34333.113, 0.28177354, -0.027297672, -284106.38, 56119.164, 0.000000017098808, 10.001612, 9.997427 
1.00521766e+3, 2.7527645e+2, -164265.94, -490252.44, 52631.0, 0.0560181, -0.25370094, -155979.23, 86294.43, 0.000003428396, 10.001771, 9.997457 
1.0052497e+3, 2.852739e+2, 30310.99, -279676.56, -315.46912, -0.02376545, -0.27803972, 30311.31, 174609.16, 0.00003625069, 10.002147, 9.998052 
1.00528255e+3, 2.952734e+2, 198936.22, -153016.36, -46856.258, 0.031658217, -0.13576722, 205067.5, 251368.14, 0.00015665985, 10.002656, 9.998003 
1.005315e+3, 3.052714e+2, 198197.22, -307537.2, -38287.746, 0.04908547, -0.04884305, 201079.45, 201079.45, 0.0004073917, 10.003089, 9.996399 
1.0053481e+3, 3.1526735e+2, 372599.1, -25353.77, -4429.784, 0.14775252, -0.0985031, 372648.4, 372648.4, 0.0007688647, 10.00342, 9.998177 
1.0147104e+3, 1.2525003e+2, -2191589.5, -1856027.4, 70666.97, 0.08928711, -0.1488806, -1841752.6, -129218.266, 0.0001798155, 9.996333, 10.000799 
1.0147406e+3, 1.3525128e+2, -1917364.6, -1684927.3, -23089.523, -0.090865456, -0.095839664, -1682655.8, -68130.42, 0.000062927356, 9.997606, 10.000685 
1.01477265e+3, 1.4525278e+2, -1808055.3, -1564503.3, -17197.416, -0.103548504, -0.01358246, -1563294.9, -46782.97, 0.000007860604, 9.997606, 10.000836 
1.0148062e+3, 1.5525334e+2, -1879212.3, -1545785.5, -14413.693, -0.016322985, -0.04543746, -1545163.5, -126657.94, 0.000000028517778, 9.996436, 10.000856 
1.0148405e+3, 1.6525356e+2, -1741583.3, -1476183.9, 90058.1, 0.009227163, -0.08086938, -1448510.0, -128007.414, 0.0, 9.996907, 10.000436 
1.0148757e+3, 1.7525344e+2, -1356453.0, -1237083.6, 116142.086, -0.013184362, -0.14098649, -1166187.9, 56315.355, 0.0, 9.998867, 10.000458 
1.01491064e+3, 1.8525316e+2, -1207382.9, -1187962.5, 73854.72, 0.006329253, -0.17529722, -1123182.4, 1322.4375, 0.0, 9.999533, 9.999803 
1.0149456e+3, 1.9525267e+2, -1178666.4, -1120067.1, 47225.145, 0.06422394, -0.20688388, -1093790.9, -67282.734, 0.0, 9.999041, 9.999834 
1.0149803e+3, 2.052527e+2, -1039756.3, -964868.2, 67809.945, 0.09861562, -0.19744354, -924851.0, 3655.947, 0.0, 9.999165, 10.000165 
1.0150148e+3, 2.1525317e+2, -842688.06, -818328.6, 140035.58, 0.11242705, -0.16988485, -689944.06, 140558.05, 0.0, 9.999841, 10.000173 
1.0150494e+3, 2.2525312e+2, -776162.3, -825007.1, 169303.39, 0.10043426, -0.14661635, -629528.9, 102972.51, 0.0, 10.000013, 9.99937 
1.0150841e+3, 2.352525e+2, -714799.4, -746346.75, 119474.31, 0.067320324, -0.14743254, -610062.0, 24443.26, 0.0, 9.999764, 9.999357 
1.0151185e+3, 2.4525125e+2, -642389.56, -787954.94, 39651.418, 0.07732405, -0.14500722, -632289.5, -95771.234, 0.0, 10.000135, 9.998221 
1.0151528e+3, 2.5524932e+2, -409532.34, -622555.25, 36247.906, 0.12323207, -0.16401872, -403533.34, 35007.113, 0.0, 10.001054, 9.998241 
1.0151868e+3, 2.6524726e+2, -251840.83, -518457.25, 40083.0, 0.15954699, -0.17605658, -245945.14, 94616.54, 0.000000011022683, 10.001566, 9.998034 
1.0152207e+3, 2.7524507e+2, -125334.98, -408254.84, 63957.91, 0.18957298, -0.20108324, -111548.25, 131034.266, 0.0000031084232, 10.001762, 9.998024 
1.0152539e+3, 2.8524303e+2, -53078.086, -448905.5, 19536.078, 0.1810507, -0.14182532, -52116.22, 92487.26, 0.000035475463, 10.002132, 9.996895 
1.0152862e+3, 2.9524115e+2, 116545.73, -315612.72, -19036.287, 0.14175096, -0.022854, 117382.64, 164007.7, 0.000157892, 10.002617, 9.996905 
1.0153183e+3, 3.0523783e+2, 296085.13, -94468.18, -19173.396, 0.0770292, -0.08888878, 297024.13, 297024.13, 0.00041497048, 10.00305, 9.997881 
1.01535104e+3, 3.1523314e+2, 474191.47, 189194.36, 17569.17, 0.0922764, -0.35204786, 475270.47, 475270.47, 0.00078651373, 10.003406, 9.9996605 
1.02470584e+3, 1.252184e+2, -2144149.5, -1798174.4, 40231.918, 0.005393482, -0.003142036, -1793557.6, -80708.22, 0.00022439056, 9.996506, 10.001112 
1.02473766e+3, 1.3521858e+2, -1993283.5, -1685351.1, -156.34659, -0.10715812, -0.09098165, -1685351.1, -70503.09, 0.0000828242, 9.996923, 10.001014 
1.02477066e+3, 1.4521964e+2, -1834275.1, -1593736.0, 6913.3076, -0.05781835, -0.060851295, -1593537.5, -76700.29, 0.000012107546, 9.997495, 10.000691 
1.02480374e+3, 1.5522042e+2, -1622919.0, -1437650.1, 9169.881, 0.011936653, -0.057829484, -1437197.4, -18368.928, 0.00000009714164, 9.998258, 10.000722 
1.0248385e+3, 1.6522068e+2, -1497329.8, -1336809.3, 142430.28, 0.0407634, -0.093480065, -1253582.1, 67242.36, 0.0, 9.998489, 10.00063 
1.02487475e+3, 1.7522044e+2, -1440655.5, -1257967.0, 124972.945, 0.048859864, -0.18141507, -1194514.6, 28310.45, 0.0, 9.998204, 10.000635 
1.02491006e+3, 1.8522042e+2, -1374405.4, -1280546.1, 66994.34, 0.048513032, -0.19352266, -1245679.5, -120854.305, 0.0, 9.998438, 9.999695 
1.0249443e+3, 1.9522047e+2, -1169047.3, -1124863.5, 85464.24, 0.03553498, -0.15973099, -1058682.0, -31856.303, 0.0, 9.999152, 9.999744 
1.0249791e+3, 2.0522046e+2, -947544.44, -885471.5, 86878.125, 0.054971576, -0.16745332, -824252.5, 104571.88, 0.0, 9.999644, 10.000481 
1.0250145e+3, 2.1522032e+2, -813176.3, -773283.06, 37588.473, 0.10599645, -0.2306527, -750676.7, 80145.46, 0.0, 9.999908, 10.00045 
1.02504954e+3, 2.2522022e+2, -826783.8, -937321.9, 17653.545, 0.12951365, -0.18550523, -824032.9, -91209.625, 0.0, 10.000039, 9.998588 
1.0250846e+3, 2.3522006e+2, -731985.3, -837553.9, 6687.354, 0.13166387, -0.06038103, -731563.4, -96735.31, 0.0, 10.000006, 9.998615 
1.0251191e+3, 2.4521855e+2, -610836.25, -722447.75, 1611.7538, 0.13071792, -0.069023535, -610813.0, -73968.6, 0.0, 10.000145, 9.99866 
1.0251535e+3, 2.552157e+2, -467155.94, -602108.94, 35561.668, 0.124190226, -0.22095513, -458358.5, -19486.295, 0.0, 10.000453, 9.998668 
1.02518775e+3, 2.652141e+2, -274038.16, -474574.7, 62176.566, 0.12573892, -0.23810633, -256324.84, 84562.75, 0.00000001218603, 10.001172, 9.9985285 
1.0252222e+3, 2.752135e+2, -25063.957, -302363.78, 73648.125, 0.13719231, -0.14982365, -6717.5483, 236174.33, 0.0000027111198, 10.002207, 9.998536 
1.025256e+3, 2.8521177e+2, 61602.055, -362042.9, 68590.234, 0.14990474, -0.10471252, 72430.38, 217339.45, 0.00003356216, 10.002784, 9.997176 
1.02528915e+3, 2.9520887e+2, 180675.2, -252653.53, 124586.54, 0.16836026, -0.11362276, 213941.33, 260879.64, 0.00015613875, 10.002926, 9.997186 
1.0253219e+3, 3.0520508e+2, 346866.63, -120942.28, 124998.06, 0.11323656, -0.21658199, 378171.16, 378171.16, 0.00041835016, 10.003616, 9.997429 
1.0253551e+3, 3.1520125e+2, 625651.7, 208527.64, 18888.791, 0.09273484, -0.35022837, 626505.25, 626505.25, 0.00079985755, 10.004688, 9.999174 
1.0347025e+3, 1.2518449e+2, -2045960.0, -1605243.4, 51746.188, 0.008851654, 0.019112583, -1599249.3, 113933.81, 0.00027553758, 9.996552, 10.002414 
1.0347358e+3, 1.35185e+2, -1903217.5, -1494418.6, 15091.368, 0.015800811, -0.17006506, -1493862.3, 121309.85, 0.000106410545, 9.996907, 10.002333 
1.0347696e+3, 1.4518575e+2, -1838563.4, -1605835.8, 36305.09, 0.081216455, -0.22968395, -1600303.8, -83142.33, 0.000017580353, 9.997506, 10.000604 
1.0348021e+3, 1.5518576e+2, -1618775.0, -1444367.3, 42557.59, 0.014113506, -0.29650986, -1434536.8, -15376.494, 0.00000023822265, 9.9983225, 10.000645 
1.03483714e+3, 1.6518632e+2, -1512093.3, -1382371.9, 127727.66, 0.056807447, -0.28237823, -1303980.1, 17174.941, 0.0, 9.9985485, 10.000291 
1.0348746e+3, 1.7518733e+2, -1461218.9, -1305215.4, 115595.836, 0.22162805, -0.21139708, -1243765.9, -20619.492, 0.0, 9.998217, 10.000308 
1.03491016e+3, 1.8518817e+2, -1339387.8, -1203676.6, 91306.53, 0.22506937, -0.14747806, -1157772.5, -32633.195, 0.0, 9.998421, 10.000229 
1.0349438e+3, 1.9518878e+2, -1135315.6, -1053444.0, 113440.66, 0.07350565, -0.11365449, -973779.2, 53355.406, 0.0, 9.999144, 10.000238 
1.0349786e+3, 2.0518838e+2, -1036604.2, -1065342.1, 92859.19, 0.03917397, -0.12113745, -957008.8, -27870.098, 0.0, 9.999621, 9.999256 
1.03501454e+3, 2.1518698e+2, -901206.06, -950112.25, 49413.242, 0.11817955, -0.18861383, -870526.4, -39374.293, 0.0, 9.999881, 9.99925 
1.0350497e+3, 2.2518583e+2, -848046.5, -972634.6, 13271.687, 0.14148024, -0.1778573, -846648.44, -113482.97, 0.0, 10.000003, 9.998363 
1.03508435e+3, 2.3518486e+2, -750079.94, -869397.4, 8364.522, 0.111766286, -0.1125366, -749496.4, -114317.24, 0.0, 9.99998, 9.998408 
1.0351195e+3, 2.4518369e+2, -544431.56, -580057.56, 11584.116, 0.14763622, -0.12693883, -540996.1, -3805.6323, 0.0, 10.000122, 9.999651 
1.0351551e+3, 2.5518224e+2, -396411.63, -459008.06, 50665.105, 0.24827191, -0.23743644, -368157.1, 71043.35, 0.0, 10.0004635, 9.999648 
1.0351892e+3, 2.6518166e+2, -248877.52, -418293.9, 98345.76, 0.15938626, -0.21832958, -203788.31, 137415.55, 0.00000000560088, 10.001156, 9.998923 
1.0352219e+3, 2.7518177e+2, -5504.448, -247004.64, 113678.695, -0.104316264, -0.103400595, 39587.043, 282789.16, 0.0000022721786, 10.00214, 9.998952 
1.0352561e+3, 2.8517997e+2, 160550.47, -137472.63, 69452.8, -0.12005634, -0.16217771, 175941.27, 321156.8, 0.00003115889, 10.002704, 9.998756 
1.0352915e+3, 2.9517642e+2, 286616.25, -33801.715, 128463.836, 0.09675529, -0.39698002, 331760.3, 379003.34, 0.00015172908, 10.002927, 9.998692 
1.0353258e+3, 3.0517295e+2, 194750.03, -435456.16, 159632.03, 0.13537234, -0.4305764, 232878.22, 232878.22, 0.00041655955, 10.003616, 9.995266 
1.0353599e+3, 3.1517115e+2, 460036.22, -123977.586, 64495.094, 0.0939107, -0.14264826, 467073.88, 467073.88, 0.00080520567, 10.004637, 9.996913 
1.04469955e+3, 1.2514968e+2, -2166649.8, -1669925.4, 122803.875, 0.112600245, -0.10688916, -1641223.4, 72295.19, 0.0003338259, 9.99575, 10.002357 
1.0447326e+3, 1.3515075e+2, -2024487.4, -1553424.5, -28911.219, 0.06316657, -0.24012634, -1551656.8, 63847.047, 0.00013404706, 9.996077, 10.002327 
1.0447671e+3, 1.4515184e+2, -1916873.4, -1647527.3, -21603.346, 0.12106687, -0.2633737, -1645805.5, -128314.4, 0.000024406929, 9.996988, 10.0005665 
1.0448003e+3, 1.5515214e+2, -1607872.1, -1445026.5, -20229.207, 0.003969145, -0.2942148, -1442551.3, -23062.68, 0.0000004785213, 9.998421, 10.000592 
1.0448356e+3, 1.6515264e+2, -1495907.9, -1403882.4, 13511.385, 0.035955355, -0.26865587, -1401939.6, -80454.46, 0.0, 9.998795, 10.00002 
1.0448728e+3, 1.7515323e+2, -1482437.8, -1343391.9, 2343.0273, 0.22778204, -0.21190117, -1343352.4, -119870.85, 0.0, 9.9982, 10.000049 
1.0449087e+3, 1.851541e+2, -1346294.1, -1176700.5, 16480.764, 0.25395638, -0.14602596, -1175113.8, -49639.36, 0.0, 9.99824, 10.000502 
1.04494326e+3, 1.951552e+2, -1161043.1, -1036550.7, 13844.917, 0.12084057, -0.08797531, -1035029.56, -7565.4854, 0.0, 9.99884, 10.000502 
1.0449784e+3, 2.051549e+2, -1113767.9, -1154539.5, 4439.1396, 0.07588497, -0.07584717, -1113290.1, -183821.94, 0.0, 9.999318, 9.998789 
1.0450142e+3, 2.1515314e+2, -963255.06, -1028255.1, 12651.419, 0.11862777, -0.13143174, -960879.44, -129392.445, 0.0, 9.999667, 9.998814 
1.0450498e+3, 2.2515175e+2, -796263.7, -900043.9, 32318.209, 0.14421304, -0.1433209, -787022.4, -53519.9, 0.0, 10.000154, 9.998787 
1.0450851e+3, 2.3515068e+2, -604316.2, -754103.2, 68275.33, 0.15180716, -0.1307827, -577865.94, 57649.234, 0.0, 10.000785, 9.998814 
1.0451205e+3, 2.4514982e+2, -384329.7, -524573.5, 57379.74, 0.18330133, -0.12325371, -363845.22, 173678.1, 0.0, 10.0013075, 9.999465 
1.045156e+3, 2.5514916e+2, -230263.92, -396438.03, 6723.989, 0.23874389, -0.14088894, -229992.28, 209535.48, 0.0, 10.001684, 9.999487 
1.04519054e+3, 2.6514855e+2, -160865.98, -337057.66, 9920.648, 0.15354234, -0.13076483, -160309.16, 181221.9, 0.0000000009945924, 10.001597, 9.999264 
1.04522385e+3, 2.7514794e+2, -137981.02, -272950.4, 16744.084, -0.061257903, -0.11973399, -135934.8, 107599.39, 0.0000020282196, 10.00107, 9.999284 
1.0452584e+3, 2.851462e+2, 21905.447, -207137.89, -51601.656, -0.09234557, -0.18683615, 32994.063, 178540.75, 0.000028619394, 10.001755, 9.998738 
1.0452942e+3, 2.9514346e+2, 369795.4, 6024.9077, -109311.96, 0.052995935, -0.33762473, 400116.06, 447683.75, 0.00014518836, 10.0035, 9.998689 
1.0453291e+3, 3.0514014e+2, 358085.4, -340511.06, -50987.066, 0.0609894, -0.36350584, 361787.1, 361787.1, 0.0004080561, 10.004665, 9.995415 
1.0453639e+3, 3.151384e+2, 553404.2, -72147.75, 6001.5503, 0.018272744, -0.08282373, 553461.75, 553461.75, 0.00079624756, 10.005252, 9.996974 
1.054697e+3, 1.2511407e+2, -2276528.0, -1898581.1, 132486.73, 0.2736981, -0.39935753, -1856765.3, -142911.16, 0.00039971265, 9.995755, 10.000784 
1.0547282e+3, 1.3511583e+2, -2130569.3, -1775028.4, -13290.654, 0.0038590932, -0.30644724, -1774532.1, -158689.64, 0.00016604259, 9.996082, 10.000804 
1.0547632e+3, 1.4511798e+2, -1913749.4, -1645932.4, 28299.646, 0.028460162, -0.15000583, -1642974.8, -125148.73, 0.000032768716, 9.9970045, 10.000571 
1.0547982e+3, 1.5511985e+2, -1606961.8, -1446050.6, 32998.203, -0.043593016, -0.02382158, -1439546.5, -19735.623, 0.0000008393984, 9.99843, 10.000584 
1.0548335e+3, 1.6511992e+2, -1511085.3, -1438110.0, -11692.151, -0.048870414, -0.0287513, -1436282.5, -114469.97, 0.0, 9.998806, 9.999779 
1.05486915e+3, 1.7511816e+2, -1494680.8, -1376596.9, -18328.441, 0.036670357, -0.18446824, -1373817.4, -149986.64, 0.0, 9.998232, 9.999805 
1.0549055e+3, 1.8511815e+2, -1344576.1, -1173698.3, 34845.402, 0.10571252, -0.19494832, -1166865.8, -41034.79, 0.0, 9.998242, 10.000522 
1.0549424e+3, 1.9511978e+2, -1162102.4, -1035703.0, 37684.227, 0.153259, -0.085801534, -1025320.75, 2493.2756, 0.0, 9.998825, 10.000516 
1.0549784e+3, 2.0512001e+2, -1098076.8, -1115621.6, 14127.025, 0.14457065, -0.03356156, -1090220.0, -160407.6, 0.0, 9.999291, 9.999068 
1.05501354e+3, 2.1511883e+2, -947846.3, -989548.3, 27519.664, 0.08686994, -0.060362097, -934170.56, -102344.23, 0.0, 9.999637, 9.999095 
1.0550495e+3, 2.2511803e+2, -728695.4, -752309.4, 52708.82, 0.11430716, -0.08008596, -686487.3, 47346.66, 0.0, 10.000119, 9.999818 
1.05508655e+3, 2.3511751e+2, -537856.6, -610494.56, 92825.28, 0.22757627, -0.115609236, -474498.13, 161338.28, 0.0, 10.000757, 9.999813 
1.0551221e+3, 2.4511698e+2, -480478.4, -714891.56, 67417.8, 0.21717069, -0.061495256, -462472.03, 75371.01, 0.0, 10.001267, 9.998178 
1.0551562e+3, 2.5511634e+2, -325000.94, -584345.44, 22452.994, 0.089329965, 0.056606386, -323071.4, 116782.984, 0.0, 10.001643, 9.998219 
1.0551914e+3, 2.6511475e+2, -146962.61, -298263.22, -11188.981, 0.08922666, 0.015008218, -146139.64, 195729.3, 0.000000000012280949, 10.001556, 9.999549 
1.0552277e+3, 2.7511218e+2, -118770.81, -234633.05, 914.8416, 0.21079604, -0.19812173, -118763.59, 125123.29, 0.0000016155456, 10.001075, 9.999545 
1.0552629e+3, 2.8511065e+2, -82265.766, -419744.8, 12785.607, 0.18423781, -0.18493159, -81782.07, 64118.383, 0.00002530106, 10.00174, 9.997286 
1.05529726e+3, 2.9511005e+2, 262996.56, -201952.39, -37513.87, 0.017856989, 0.023360262, 266003.88, 313914.38, 0.00013660942, 10.003437, 9.997292 
1.0553319e+3, 3.051067e+2, 495272.38, -30673.09, -28140.48, -0.1156667, -0.047476716, 496773.72, 496773.72, 0.00039378775, 10.004559, 9.997595 
1.05536744e+3, 3.1510323e+2, 677635.1, 218329.9, 34285.94, -0.16652185, -0.15615335, 680180.4, 680180.4, 0.00077582727, 10.005108, 9.9990425 
1.0646929e+3, 1.2507875e+2, -2205776.3, -1895349.4, -42592.23, 0.26082283, -0.39068758, -1889611.5, -175410.5, 0.00047318285, 9.996377, 10.0005045 
1.06472425e+3, 1.3508047e+2, -1915105.1, -1700095.0, -92256.016, -0.07179031, -0.2749526, -1665936.8, -49745.637, 0.00020250746, 9.9976845, 10.000546 
1.06476024e+3, 1.4508243e+2, -1774123.9, -1586623.3, -15136.866, -0.00237093, -0.12064742, -1585409.1, -67232.06, 0.000042863663, 9.998001, 10.000496 
1.06479615e+3, 1.5508416e+2, -1772025.6, -1532562.5, -23631.162, -0.032019183, -0.00066820014, -1530252.8, -110089.0, 0.0000013547858, 9.9973345, 10.000514 
1.0648318e+3, 1.6508445e+2, -1665283.0, -1477420.0, -49169.863, -0.03185467, 0.0063512456, -1465328.9, -143166.33, 0.0, 9.997599, 10.0000925 
1.0648675e+3, 1.7508338e+2, -1396113.3, -1293333.9, -17497.12, 0.030849325, -0.11249183, -1290436.9, -66263.875, 0.0, 9.998759, 10.000123 
1.064904e+3, 1.850831e+2, -1236947.1, -1183275.8, 36734.58, 0.100670256, -0.13800836, -1164618.9, -38443.207, 0.0, 9.999245, 9.999974 
1.0649414e+3, 1.950835e+2, -1165549.0, -1097604.9, -8505.778, 0.16459146, -0.09656177, -1096556.3, -68384.61, 0.0, 9.999061, 9.999977 
1.0649778e+3, 2.0508339e+2, -1061740.6, -1051718.5, -31075.25, 0.16351038, -0.072721526, -1025252.9, -95079.7, 0.0, 9.999339, 9.999486 
1.06501356e+3, 2.1508276e+2, -856201.06, -898070.06, -12921.852, 0.10871086, -0.08547836, -852534.2, -20353.902, 0.0, 10.000064, 9.999516 
1.0650498e+3, 2.2508238e+2, -688922.56, -730942.5, -24920.947, 0.12081111, -0.08383549, -677336.94, 56846.285, 0.0, 10.000384, 9.999839 
1.06508665e+3, 2.3508216e+2, -606397.9, -639784.7, -62699.035, 0.1984164, -0.09027246, -558208.0, 77975.016, 0.0, 10.000277, 9.999842 
1.0651224e+3, 2.450816e+2, -600877.75, -749316.75, -62875.64, 0.17992412, -0.04803793, -577825.06, -39635.473, 0.0, 10.000347, 9.998381 
1.0651571e+3, 2.5508064e+2, -462616.3, -628322.3, -6448.1206, 0.06941518, 0.0164101, -462365.75, -22162.412, 0.0, 10.0006075, 9.998414 
1.06519274e+3, 2.65079e+2, -212898.02, -375722.28, -9779.348, 0.08545142, -0.020820282, -212312.77, 129906.63, 0.0, 10.001294, 9.999147 
1.0652295e+3, 2.7507666e+2, 36151.117, -204416.14, -50721.094, 0.2239545, -0.16940427, 46407.83, 290645.44, 0.00000091217555, 10.00233, 9.999151 
1.06526524e+3, 2.850751e+2, 53354.54, -375479.28, 4586.433, 0.20077306, -0.13084713, 53403.586, 199656.78, 0.00002073869, 10.002767, 9.997093 
1.06530026e+3, 2.9507414e+2, 134314.78, -283908.03, 35612.91, 0.025118299, 0.06170654, 137325.64, 185592.92, 0.00012474366, 10.002641, 9.997109 
1.0653357e+3, 3.050706e+2, 250187.45, -107111.75, 13522.452, -0.09888535, -0.034654737, 250698.5, 250698.5, 0.00037290223, 10.002694, 9.997964 
1.0653717e+3, 3.150676e+2, 364097.3, 97085.22, -58011.89, -0.122536704, -0.13768545, 376156.53, 376156.53, 0.00074591686, 10.002822, 9.999305 
1.07468665e+3, 1.2504393e+2, -2115324.8, -1720538.8, -13859.383, -0.0033229403, -0.041726205, -1720052.9, -5493.1997, 0.00055371417, 9.996434, 10.001676 
1.0747207e+3, 1.350448e+2, -1825443.0, -1525831.4, -44013.434, -0.18790945, -0.12858877, -1519499.5, 97049.18, 0.00024334127, 9.997732, 10.001719 
1.0747584e+3, 1.4504518e+2, -1781697.3, -1612462.8, -44448.74, 0.0135792, -0.18014044, -1601498.8, -82954.31, 0.00005483326, 9.998041, 10.0003 
1.0747939e+3, 1.5504484e+2, -1784720.3, -1559711.3, -48647.934, 0.020016534, -0.24803846, -1549643.9, -129094.836, 0.000002073113, 9.997336, 10.000328 
1.07483044e+3, 1.6504613e+2, -1600983.6, -1343764.0, -8230.143, 0.07101405, -0.1799598, -1343500.9, -20964.438, 0.0000000000166348, 9.997595, 10.001012 
1.0748681e+3, 1.7504896e+2, -1327654.4, -1159657.4, 29043.023, 0.20156285, 0.0018979893, -1154778.1, 69729.08, 0.0, 9.99879, 10.001028 
1.0749046e+3, 1.850491e+2, -1316058.1, -1349322.3, 26595.463, 0.22359839, 0.029762048, -1301322.3, -174815.34, 0.0, 9.999254, 9.998829 
1.07494004e+3, 1.9504645e+2, -1245775.8, -1263181.8, -14570.589, 0.13101132, -0.11856702, -1237506.9, -208970.73, 0.0, 9.999055, 9.998844 
1.07497655e+3, 2.0504509e+2, -1025966.8, -972475.5, -7546.0186, 0.10870062, -0.1912593, -971431.4, -40881.555, 0.0, 9.999316, 10.000042 
1.075014e+3, 2.1504496e+2, -821201.2, -821580.7, 16352.035, 0.1615953, -0.20929636, -805037.8, 27510.832, 0.0, 10.000042, 10.000055 
1.0750504e+3, 2.2504488e+2, -760510.8, -870115.94, -32140.346, 0.14247249, -0.15787774, -751781.3, -17231.527, 0.0, 10.000346, 9.9989 
1.0750855e+3, 2.3504478e+2, -674071.1, -775288.94, -64020.445, 0.05148528, -0.05727295, -643071.94, -6518.3354, 0.0, 10.000255, 9.998923 
1.07512146e+3, 2.4504392e+2, -492660.63, -520982.4, -54315.63, 0.052170582, -0.08041777, -450690.25, 87871.125, 0.0, 10.000328, 9.99996 
1.0751584e+3, 2.550422e+2, -354355.56, -402656.63, 5245.116, 0.14632337, -0.24901094, -353792.53, 86781.09, 0.0, 10.000597, 9.999971 
1.0751943e+3, 2.6504132e+2, -291542.9, -529433.1, 26936.373, 0.1234186, -0.23226233, -288531.03, 54051.066, 0.000000000031670343, 10.001253, 9.998112 
1.07522935e+3, 2.7504128e+2, -43590.48, -357006.22, -9116.629, -0.014123814, -0.04954808, -43325.523, 201261.4, 0.00000057346807, 10.002273, 9.998132 
1.0752656e+3, 2.850395e+2, 109653.83, -244941.28, -2913.3743, -0.039732035, -0.025079807, 109677.766, 256282.61, 0.00001665899, 10.002707, 9.998019 
1.0753031e+3, 2.95036e+2, 195701.25, -153216.06, 34286.117, 0.042905603, -0.18281414, 199038.44, 247674.78, 0.000111651505, 10.002621, 9.998019 
1.07534e+3, 3.0503216e+2, 160511.67, -291462.1, 19821.646, 0.06723699, -0.29133436, 161379.3, 161379.3, 0.00034802445, 10.002688, 9.996699 
1.0753766e+3, 3.1503126e+2, 267650.34, -104203.43, -40401.086, 0.077802725, -0.055972867, 271989.2, 271989.2, 0.00071029784, 10.002826, 9.997922 
1.0846825e+3, 1.250078e+2, -2122395.3, -1690068.0, 102663.805, -0.0490899, 0.07065784, -1666927.3, 47993.19, 0.00064071716, 9.99625, 10.001969 
1.084718e+3, 1.3500883e+2, -1952739.8, -1555552.8, 5288.1104, -0.1774152, -0.02894473, -1555482.4, 61423.58, 0.00028839763, 9.996729, 10.001998 
1.08475685e+3, 1.4500885e+2, -1849726.4, -1635595.5, -40171.2, 0.080244325, -0.13408668, -1628307.4, -109404.46, 0.00006873226, 9.9975395, 10.000381 
1.08479224e+3, 1.5500787e+2, -1589485.1, -1457705.9, -29359.057, 0.05310104, -0.2719451, -1451461.0, -30549.564, 0.0000030594845, 9.998646, 10.000395 
1.0848286e+3, 1.6500878e+2, -1440270.8, -1301982.4, -19662.697, 0.07401576, -0.22754975, -1299241.0, 23660.746, 0.000000000186287, 9.998854, 10.000689 
1.0848662e+3, 1.7501153e+2, -1442448.4, -1251477.8, -84679.875, 0.17988306, -0.023535486, -1219338.1, 5536.5186, 0.0, 9.998163, 10.000695 
1.0849031e+3, 1.8501166e+2, -1442314.0, -1391466.0, -75607.84, 0.1983757, 0.013468789, -1337122.1, -210247.55, 0.0, 9.998307, 9.998997 
1.0849391e+3, 1.9500917e+2, -1203665.4, -1223038.1, -20242.066, 0.123067565, -0.13495517, -1190911.4, -162010.11, 0.0, 9.999265, 9.999016 
1.084976e+3, 2.0500806e+2, -968431.4, -961349.06, 15385.03, 0.09618656, -0.18488312, -949102.94, -18190.03, 0.0, 9.999786, 9.999888 
1.0850135e+3, 2.1500821e+2, -864121.2, -860039.1, -20715.273, 0.12129286, -0.15911461, -841264.56, -8354.3, 0.0, 9.999828, 9.999891 
1.0850503e+3, 2.25008e+2, -762311.44, -860015.8, -52001.813, 0.10820056, -0.11554483, -739814.3, -4901.345, 0.0, 10.000281, 9.999003 
1.0850862e+3, 2.3500742e+2, -537266.06, -697078.94, -12564.6875, 0.05942339, -0.07559943, -536284.25, 100636.96, 0.0, 10.0011425, 9.999032 
1.0851225e+3, 2.4500658e+2, -327684.44, -442080.06, -33963.523, 0.0720826, -0.100877024, -318360.75, 220567.36, 0.0, 10.001461, 9.999957 
1.0851592e+3, 2.5500545e+2, -266989.2, -360277.4, -92777.23, 0.14479384, -0.21108447, -209790.69, 231143.7, 0.0, 10.001199, 9.99997 
1.0851955e+3, 2.6500458e+2, -317717.1, -559448.2, -69665.055, 0.11608477, -0.18401892, -299077.47, 43865.813, 0.000000020287489, 10.00115, 9.997953 
1.0852311e+3, 2.7500397e+2, -196258.94, -447872.22, -48420.09, -0.010065245, -0.043968342, -187262.69, 57692.582, 0.0000009638229, 10.001302, 9.997972 
1.085268e+3, 2.8500235e+2, 12407.381, -236551.06, -30499.656, -0.019047275, -0.01968195, 16089.408, 163061.06, 0.000015514439, 10.001805, 9.9985075 
1.0853062e+3, 2.949998e+2, 227695.92, -79972.1, -31807.783, 0.08838858, -0.12691079, 230949.9, 279942.1, 0.000103128805, 10.0026045, 9.998526 
1.08534366e+3, 3.0499607e+2, 276461.3, -253835.67, -7488.6543, 0.12606587, -0.24390242, 276567.03, 276567.03, 0.00032888047, 10.003559, 9.996541 
1.0853808e+3, 3.149944e+2, 513161.88, -15298.674, 1291.069, 0.12933764, -0.06928893, 513165.03, 513165.03, 0.0006831545, 10.004642, 9.997657 
1.0946804e+3, 1.2497038e+2, -2169371.8, -1795123.9, 102653.67, 0.114845514, -0.08620639, -1768815.9, -53534.152, 0.000734217, 9.996281, 10.001236 
1.094716e+3, 1.3497266e+2, -2007160.0, -1668916.8, 26484.396, -0.049864434, 0.016498273, -1666855.6, -49594.676, 0.00033773432, 9.996726, 10.0012245 
1.0947552e+3, 1.4497367e+2, -1821830.0, -1579254.4, 1802.0187, 0.17640309, 0.028147059, -1579241.0, -59990.75, 0.0000845864, 9.997546, 10.000765 
1.0947908e+3, 1.5497358e+2, -1558963.8, -1402604.5, 17221.4, 0.046204675, -0.05679117, -1400730.1, 20517.787, 0.0000043925156, 9.99868, 10.000757 
1.09482616e+3, 1.6497272e+2, -1551805.9, -1543365.3, -48689.215, -0.05021889, -0.12399122, -1498713.8, -175457.52, 0.0000000006358386, 9.998893, 9.999016 
1.0948619e+3, 1.7497098e+2, -1555221.1, -1494284.4, -110784.35, -0.06618171, -0.19987625, -1409855.0, -184578.66, 0.0, 9.998194, 9.99902 
1.0948993e+3, 1.8497065e+2, -1336539.4, -1168128.9, -43650.367, -0.0066480376, -0.20237857, -1157487.5, -30207.521, 0.0, 9.998296, 10.000533 
1.0949384e+3, 1.9497171e+2, -1096644.4, -998327.3, 18039.602, 0.11951205, -0.1496637, -995121.9, 34145.074, 0.0, 9.999253, 10.000565 
1.09497584e+3, 2.0497236e+2, -1034349.7, -1092880.3, 13589.846, 0.10980333, -0.05662754, -1031348.3, -100086.5, 0.0, 9.999763, 9.998998 
1.0950118e+3, 2.1497251e+2, -929714.7, -991485.7, -17251.064, -0.03256601, 0.05926916, -925223.5, -91958.36, 0.0, 9.999804, 9.999002 
1.09504946e+3, 2.2497177e+2, -692849.94, -703331.2, -23383.62, -0.005592377, 0.039926216, -674126.9, 61145.99, 0.0, 10.000229, 10.000104 
1.09508865e+3, 2.3497006e+2, -466641.97, -540700.1, 20659.086, 0.19237232, -0.14417218, -461268.78, 176017.11, 0.0, 10.001098, 10.000129 
1.0951254e+3, 2.4496955e+2, -440226.88, -663550.9, -47436.785, 0.21229787, -0.11703873, -430568.4, 108722.02, 0.0, 10.00141, 9.998461 
1.0951594e+3, 2.5497025e+2, -373615.4, -577342.8, -100888.336, 0.053183872, 0.106828384, -332110.13, 109176.22, 0.0, 10.001179, 9.99849 
1.0951958e+3, 2.6496875e+2, -275902.25, -467603.66, -65594.08, 0.045851987, 0.10953833, -255606.75, 87695.984, 0.00000010014453, 10.001128, 9.998594 
1.0952344e+3, 2.7496487e+2, -153727.1, -355631.03, -40057.81, 0.18852335, -0.13843206, -146070.0, 99270.83, 0.0000018004142, 10.001283, 9.998615 
1.0952722e+3, 2.8496364e+2, 9962.535, -232106.13, -4486.627, 0.21729192, -0.11205776, 10045.664, 157398.64, 0.000016749296, 10.001764, 9.998558 
1.0953092e+3, 2.9496512e+2, 222816.17, -77034.48, -1759.4888, 0.13960505, 0.17650749, 222826.5, 272165.06, 0.00009990713, 10.0025425, 9.998578 
1.0953466e+3, 3.049619e+2, 318342.8, -138461.36, 27383.012, 0.06825968, 0.06596758, 319978.4, 319978.4, 0.00031833374, 10.003442, 9.99739 
1.0953843e+3, 3.1495708e+2, 543357.25, 79222.75, 47444.727, 0.009171204, -0.15421535, 548157.5, 548157.5, 0.0006679341, 10.004499, 9.99838 
1.1046778e+3, 1.2493263e+2, -2045899.9, -1789208.5, 25720.484, 0.17763634, -0.16418973, -1786656.6, -71008.84, 0.00083503575, 9.99736, 10.000752 
1.1047132e+3, 1.3493435e+2, -1855015.3, -1653750.4, -17517.738, -0.048070103, -0.06332562, -1652237.0, -34602.703, 0.0003918232, 9.998015, 10.000709 
1.104753e+3, 1.4493556e+2, -1743157.5, -1563387.9, -55769.37, 0.18009536, 0.0038100954, -1547492.3, -27868.307, 0.000102570426, 9.998184, 10.000564 
1.1047889e+3, 1.5493663e+2, -1711602.4, -1497534.0, -92471.88, 0.044721767, 0.054068916, -1463120.8, -41507.836, 0.0000061708192, 9.997731, 10.000559 
1.1048246e+3, 1.6493565e+2, -1666756.9, -1604518.3, -115996.164, -0.054443352, -0.010550218, -1515539.5, -191916.5, 0.0000000015512864, 9.998135, 9.9989605 
1.1048606e+3, 1.7493258e+2, -1373887.9, -1409228.5, -57330.79, -0.06653157, -0.21453206, -1331566.1, -105911.16, 0.0, 9.999459, 9.998986 
1.1048982e+3, 1.8493211e+2, -1062728.3, -1025477.44, 29361.045, -0.02350028, -0.23420157, -1009332.5, 118326.91, 0.0, 10.000128, 10.000629 
1.1049373e+3, 1.9493422e+2, -972836.3, -928106.8, -23077.426, 0.060634963, -0.087996565, -918335.1, 111301.45, 0.0, 10.000059, 10.000657 
1.104975e+3, 2.0493506e+2, -1013909.8, -1073465.9, -64165.926, 0.055091973, 0.017940594, -972948.9, -41319.906, 0.0, 9.999861, 9.999085 
1.1050115e+3, 2.1493462e+2, -963072.9, -996378.94, -28702.578, -0.030198896, 0.06559702, -946542.1, -112905.32, 0.0, 9.999533, 9.999099 
1.1050492e+3, 2.2493362e+2, -841440.75, -817395.6, -25389.318, 0.0030043642, 0.034073524, -801326.2, -65679.34, 0.0, 9.9993925, 9.999722 
1.1050884e+3, 2.3493199e+2, -742743.25, -717785.75, -96416.195, 0.15234151, -0.10242357, -633044.1, 4615.945, 0.0, 9.9993925, 9.999732 
1.1051256e+3, 2.4493115e+2, -655772.75, -796415.2, -165086.77, 0.16879845, -0.072836876, -546654.0, -6985.2285, 0.0, 10.000056, 9.9982 
1.1051608e+3, 2.5493112e+2, -359169.63, -599541.0, -135885.31, 0.0537335, 0.105108745, -297945.78, 143727.11, 0.0, 10.001409, 9.998227 
1.1051975e+3, 2.6492956e+2, -143416.9, -395872.13, -97087.97, 0.066702195, 0.113677174, -110397.9, 233292.1, 0.00000018749917, 10.002004, 9.998668 
1.105236e+3, 2.7492642e+2, -77063.18, -312015.6, -117461.49, 0.20498092, -0.06718647, -28413.348, 217307.2, 0.0000025324416, 10.001781, 9.998677 
1.105274e+3, 2.8492507e+2, -21993.809, -280093.28, -92191.945, 0.24380769, -0.04093131, 7554.024, 155288.56, 0.000018771152, 10.001681, 9.998271 
1.1053117e+3, 2.949255e+2, 78929.984, -178181.19, -118703.03, 0.19199848, 0.17464353, 125351.39, 175083.23, 0.0001004618, 10.001692, 9.998292 
1.10534936e+3, 3.0492273e+2, 148271.11, -121383.34, -84721.95, 0.09611236, 0.07963636, 172680.16, 172680.16, 0.00031494282, 10.001834, 9.998286 
1.10538684e+3, 3.1492004e+2, 241796.97, 32272.22, -68642.11, -0.038723145, -0.020806687, 262281.94, 262281.94, 0.0006609371, 10.0020075, 9.999252 
1.1146742e+3, 1.2489471e+2, -2050859.1, -1814465.3, 15791.846, 0.071583115, -0.15213495, -1813414.9, -97397.43, 0.000944546, 9.997429, 10.000544 
1.11470975e+3, 1.3489391e+2, -1865474.8, -1687881.6, 9796.266, -0.2030451, -0.2789169, -1687343.0, -69316.51, 0.00045159098, 9.998068, 10.000449 
1.1147501e+3, 1.4489444e+2, -1794637.3, -1681343.4, -75911.74, 0.06393866, -0.22356509, -1643272.5, -123247.53, 0.00012308804, 9.998228, 9.999735 
1.11478634e+3, 1.5489691e+2, -1767964.4, -1618115.3, -111568.29, 0.019351065, 0.04982674, -1558648.0, -136640.27, 0.000008505592, 9.997743, 9.999728 
1.11482374e+3, 1.6489759e+2, -1551303.4, -1364730.0, -70133.71, 0.040111896, 0.111835875, -1341307.0, -17304.656, 0.0000000033697685, 9.998133, 10.0006075 
1.1148624e+3, 1.7489648e+2, -1251459.6, -1163434.3, -3615.089, 0.16999583, -0.0627999, -1163286.0, 62723.023, 0.0, 9.999492, 10.000661 
1.1148999e+3, 1.8489622e+2, -1155280.6, -1221665.3, 23805.781, 0.13615322, -0.07894933, -1147626.3, -19614.97, 0.0, 10.000147, 9.999272 
1.11493595e+3, 1.9489676e+2, -1070298.3, -1130941.1, -25049.541, -0.07964425, 0.04959203, -1061289.5, -31279.705, 0.0, 10.000061, 9.999264 
1.1149733e+3, 2.0489624e+2, -944732.9, -926727.3, -81463.22, -0.0957709, 0.03862208, -853770.94, 78243.3, 0.0, 9.999845, 10.0001 
1.11501224e+3, 2.1489456e+2, -892775.9, -846571.3, -39322.33, 0.10169437, -0.14230627, -824067.0, 9958.281, 0.0, 9.999513, 10.000137 
1.1150497e+3, 2.2489356e+2, -972680.06, -1082608.5, -28794.41, 0.11379439, -0.13738963, -965594.44, -229559.67, 0.0, 9.999364, 9.997914 
1.11508556e+3, 2.3489325e+2, -872110.1, -983881.94, -93386.29, -0.069893114, 0.042584836, -819164.8, -181121.89, 0.0, 9.999382, 9.9979105 
1.1151232e+3, 2.4489155e+2, -601043.9, -676295.9, -115314.875, -0.072055854, 0.034641508, -517371.72, 22689.838, 0.0, 10.000025, 9.999042 
1.11516275e+3, 2.548883e+2, -307481.0, -480587.8, -81362.99, 0.11663981, -0.19797842, -275242.88, 166849.16, 0.0, 10.001354, 9.999072 
1.11520045e+3, 2.648872e+2, -187047.25, -469016.97, -105842.79, 0.15445685, -0.1614142, -151738.52, 192365.52, 0.00000020790911, 10.001929, 9.9982 
1.11523606e+3, 2.7488843e+2, -112481.57, -380000.3, -120512.41, 0.033191383, 0.14262544, -66199.81, 179896.44, 0.0000030041272, 10.001756, 9.998222 
1.1152738e+3, 2.848867e+2, -65514.027, -367893.03, -90794.055, 0.05395839, 0.18322921, -40346.43, 107769.305, 0.000021469468, 10.001669, 9.997674 
1.1153137e+3, 2.9488164e+2, 35366.254, -268822.2, -108236.93, 0.2232384, -0.09050044, 69947.914, 120113.516, 0.00010445724, 10.001686, 9.997674 
1.1153519e+3, 3.048792e+2, 204073.31, 8589.724, -74097.33, 0.1821718, -0.16948666, 228984.98, 228984.98, 0.00031704624, 10.001781, 9.999201 
1.1153886e+3, 3.1488293e+2, 289825.56, 154538.36, -51247.93, -0.07369848, 0.2822053, 307046.63, 307046.63, 0.00065944524, 10.001911, 10.00014 
1.1246712e+3, 1.2485625e+2, -1944844.8, -1732238.4, -44354.79, 0.0019481928, -0.112251654, -1723356.0, -6957.4365, 0.0010643419, 9.998023, 10.000823 
1.12470776e+3, 1.3485599e+2, -1792301.0, -1626842.6, 8259.852, -0.22136739, -0.20691119, -1626431.4, -8031.323, 0.00051804923, 9.99846, 10.000678 
1.12474866e+3, 1.4485607e+2, -1717777.3, -1656761.9, -50317.48, 0.07538524, -0.20535442, -1628426.0, -108024.125, 0.00014661087, 9.998812, 9.999621 
1.1247846e+3, 1.548571e+2, -1593134.4, -1547037.3, -38445.74, 0.0102006905, -0.062131133, -1525260.5, -102862.734, 0.00001150662, 9.999002, 9.999608 
1.12482205e+3, 1.6485809e+2, -1388645.8, -1256519.5, 15213.337, 0.02742156, 0.022338295, -1254790.5, 69598.89, 0.0000000061074554, 9.99912, 10.000874 
1.1248617e+3, 1.7485909e+2, -1287534.9, -1151036.8, -30681.953, 0.17423278, 0.031462166, -1144457.3, 81918.8, 0.0, 9.999117, 10.000926 
1.1248995e+3, 1.848591e+2, -1369244.3, -1373353.1, -55315.21, 0.14964606, 0.05160865, -1315945.4, -187568.89, 0.0, 9.998882, 9.998844 
1.12493515e+3, 1.94858e+2, -1342641.3, -1310779.8, -37976.664, -0.0647805, 0.060689475, -1285527.9, -255135.69, 0.0, 9.998399, 9.998834 
1.1249728e+3, 2.0485677e+2, -1088345.5, -1000123.6, -57999.293, -0.07966684, 0.0023438768, -971366.94, -38963.305, 0.0, 9.998886, 10.000053 
1.12501234e+3, 2.148553e+2, -764003.5, -789620.1, -104137.66, 0.115179814, -0.15164374, -671889.44, 162521.94, 0.0, 10.0004225, 10.000087 
1.12505e+3, 2.2485429e+2, -692381.6, -943759.25, -83369.69, 0.10837324, -0.14604756, -667245.44, 69174.625, 0.0, 10.001271, 9.997951 
1.1250854e+3, 2.3485376e+2, -575837.75, -834917.44, -16853.398, -0.10930164, 0.007654502, -574746.0, 63683.586, 0.0, 10.001392, 9.997966 
1.1251232e+3, 2.4485208e+2, -491205.5, -632904.7, -1732.8634, -0.10872415, 0.0031815616, -491184.3, 49263.5, 0.0, 10.000822, 9.998953 
1.1251631e+3, 2.5484917e+2, -584376.4, -624321.5, -41611.44, 0.11781836, -0.18724245, -558192.56, -115716.81, 0.0, 9.999499, 9.998976 
1.1252013e+3, 2.6484796e+2, -503787.2, -648250.7, -50154.152, 0.16656473, -0.14501154, -488082.25, -143592.97, 0.00000016860811, 9.99987, 9.997958 
1.1252378e+3, 2.7484858e+2, -92386.55, -396531.53, -55198.805, 0.030169597, 0.11979923, -82678.48, 163809.3, 0.0000038179373, 10.002012, 9.997981 
1.1252758e+3, 2.8484684e+2, 83483.99, -283040.5, -46749.54, 0.03752816, 0.16741979, 89352.836, 237859.77, 0.000026281929, 10.002636, 9.997791 
1.12531506e+3, 2.948426e+2, 36505.617, -252234.7, -23243.85, 0.19408374, -0.040341683, 38364.797, 88913.336, 0.00011318937, 10.001631, 9.997811 
1.1253534e+3, 3.0483988e+2, 101740.83, -80899.68, 25078.77, 0.18070836, -0.13312307, 105121.86, 105121.86, 0.0003258272, 10.001254, 9.998839 
1.1253909e+3, 3.1484228e+2, 193594.05, 62824.434, -43659.387, 0.003725127, 0.22150019, 206830.58, 206830.58, 0.00066508714, 10.00145, 9.999733 
1.1346686e+3, 1.2481733e+2, -1876360.0, -1605164.5, -69049.93, -0.06741662, -0.04172012, -1588595.8, 128195.164, 0.0011953667, 9.998092, 10.001662 
1.13470726e+3, 1.3482101e+2, -1732635.5, -1509956.4, 26260.057, -0.11441604, 0.18079711, -1506901.5, 111850.66, 0.00059164723, 9.998487, 10.001471 
1.13474876e+3, 1.4482087e+2, -1666985.6, -1558293.4, -41485.543, 0.20198624, 0.086409114, -1544268.8, -23518.24, 0.00017336896, 9.998839, 10.000285 
1.1347835e+3, 1.5481739e+2, -1539454.0, -1448949.8, -24924.922, -0.0029775181, -0.2884509, -1442539.5, -19758.328, 0.000015247707, 9.999056, 10.000257 
1.1348197e+3, 1.6481715e+2, -1469271.9, -1432292.6, 13581.424, -0.124133185, -0.29791936, -1427840.6, -103057.164, 0.000000009421829, 9.999155, 9.999652 
1.1348581e+3, 1.7482041e+2, -1370716.5, -1331134.0, -29314.813, -0.09488666, 0.06045044, -1315555.0, -88799.2, 0.0, 9.999145, 9.999678 
1.1348967e+3, 1.8482077e+2, -1333373.5, -1299807.3, -77471.3, -0.020161442, 0.15481652, -1237322.0, -108567.125, 0.0, 9.998887, 9.999346 
1.134935e+3, 1.9481799e+2, -1307788.4, -1233509.4, -54695.89, 0.08391309, -0.057765417, -1204535.5, -173752.45, 0.0, 9.998378, 9.9993725 
1.13497324e+3, 2.0481668e+2, -1172413.0, -1168777.3, -5203.292, 0.08750297, -0.0959003, -1165083.5, -232286.84, 0.0, 9.998858, 9.998911 
1.1350115e+3, 2.1481688e+2, -849517.9, -961034.7, -45136.984, -0.008844697, 0.03393993, -833538.25, 1256.5085, 0.0, 10.000394, 9.998925 
1.1350497e+3, 2.2481589e+2, -572165.06, -685141.1, -82012.25, -0.039556094, 0.0113714505, -529069.44, 207732.7, 0.0, 10.001231, 9.999744 
1.1350879e+3, 2.3481354e+2, -452895.3, -570988.6, -11401.377, 0.0012161083, -0.20134686, -451804.63, 187015.23, 0.0, 10.001352, 9.999797 
1.1351254e+3, 2.448127e+2, -562934.2, -773440.6, -54445.086, 0.030240785, -0.16774927, -549686.3, -8858.157, 0.0, 10.000787, 9.998006 
1.1351619e+3, 2.548135e+2, -647787.6, -762968.56, -88863.86, 0.04525987, 0.111911595, -599484.5, -156658.19, 0.0, 9.999528, 9.998012 
1.1352003e+3, 2.648117e+2, -506497.34, -657717.56, 27364.467, 0.086814225, 0.14632268, -501697.84, -156850.67, 0.00000020663475, 9.999885, 9.997889 
1.1352411e+3, 2.7480704e+2, -105043.92, -410474.4, 29967.693, 0.15795252, -0.11071175, -102131.375, 144761.88, 0.0000055002247, 10.001956, 9.997914 
1.1352795e+3, 2.848055e+2, 118845.375, -187245.39, -84263.19, 0.16010651, -0.07218499, 140508.81, 289417.06, 0.00003348498, 10.0025425, 9.998494 
1.1353155e+3, 2.948075e+2, 82737.28, -147509.22, -58672.11, 0.08806296, 0.27130333, 96826.18, 147715.16, 0.00012691141, 10.001591, 9.998552 
1.1353535e+3, 3.0480424e+2, -489.58743, -287521.16, 28743.484, 0.07603598, 0.15341735, 2360.4995, 2360.4995, 0.00034269853, 10.00123, 9.99743 
1.1353937e+3, 3.147987e+2, 86227.95, -154878.3, -22585.545, 0.13190272, -0.14206967, 88325.4, 88325.4, 0.0006829697, 10.001424, 9.998248 
1.1446666e+3, 1.2477976e+2, -1922700.6, -1654241.1, 72436.01, -0.04802323, -0.028605744, -1635943.5, 81215.016, 0.0013373722, 9.997884, 10.00143 
1.1447061e+3, 1.347832e+2, -1800693.4, -1576784.9, 110347.13, -0.055609204, 0.19709598, -1531544.3, 87579.63, 0.000672049, 9.998158, 10.001176 
1.1447478e+3, 1.44783e+2, -1684963.8, -1561261.1, -13697.621, 0.23773107, 0.11105812, -1559762.6, -38639.97, 0.0002032588, 9.998692, 10.000337 
1.14478275e+3, 1.5477982e+2, -1491998.9, -1420734.0, -53152.598, 0.0012854715, -0.23902023, -1392375.3, 30773.49, 0.000019742625, 9.99936, 10.000304 
1.14481874e+3, 1.6477911e+2, -1432514.1, -1463509.9, -24183.838, -0.14624895, -0.27646294, -1419288.5, -94133.11, 0.000000013934886, 9.999619, 9.999213 
1.14485696e+3, 1.7478104e+2, -1360061.3, -1375478.0, -10776.325, -0.13697653, -0.005123145, -1354520.1, -127378.49, 0.0, 9.999435, 9.999232 
1.1448955e+3, 1.847811e+2, -1193648.0, -1214398.9, -24580.402, -0.05927133, 0.07361951, -1177343.0, -48199.29, 0.0, 9.999776, 9.999499 
1.1449343e+3, 1.9477913e+2, -957239.6, -1046351.2, -34924.6, 0.069128804, -0.07584416, -945183.2, 85979.6, 0.0, 10.000708, 9.999532 
1.14497274e+3, 2.0477812e+2, -921017.3, -1082249.4, 38111.473, 0.06119312, -0.07516511, -912462.56, 20710.977, 0.0, 10.000729, 9.998607 
1.1450106e+3, 2.1477814e+2, -966809.0, -1051639.4, 57398.26, -0.0841447, 0.06666019, -937854.7, -102679.16, 0.0, 9.999737, 9.998621 
1.1450492e+3, 2.2477712e+2, -854567.2, -820049.8, -12943.615, -0.0971969, 0.055067483, -815735.4, -78550.695, 0.0, 9.99929, 9.999751 
1.1450885e+3, 2.3477493e+2, -734149.6, -706467.06, -84296.27, 0.028511604, -0.1415988, -634883.25, 4318.5293, 0.0, 9.999424, 9.999795 
1.1451264e+3, 2.4477413e+2, -611950.44, -801664.4, -149541.72, 0.07595928, -0.1007734, -529718.25, 11491.225, 0.0, 10.00047, 9.997964 
1.1451627e+3, 2.547748e+2, -219916.11, -559891.94, -121996.14, 0.037799582, 0.17015344, -180669.83, 262537.56, 0.0, 10.002486, 9.997977 
1.1452013e+3, 2.647727e+2, -97271.0, -445184.7, 25143.777, 0.058078382, 0.17120628, -95463.25, 249766.03, 0.00000038376965, 10.002628, 9.998029 
1.14524215e+3, 2.7476764e+2, -274478.34, -476737.53, 36549.6, 0.13943931, -0.14082837, -268076.25, -20798.62, 0.0000075917305, 10.000725, 9.998054 
1.14528075e+3, 2.84766e+2, -213997.28, -369205.38, -88766.44, 0.14697371, -0.11337204, -173695.14, -24401.557, 0.00004126663, 10.000352, 9.998298 
1.145317e+3, 2.9476804e+2, 66472.83, -178509.73, -133086.2, 0.080978125, 0.25992185, 124857.34, 176131.89, 0.00014267156, 10.001585, 9.99834 
1.1453551e+3, 3.047647e+2, 124754.07, -240774.42, -38808.605, 0.073938854, 0.1502259, 128829.0, 128829.0, 0.0003640664, 10.002143, 9.9973135 
1.1453953e+3, 3.1475914e+2, 156259.44, -132068.19, -10624.981, 0.13976882, -0.13732827, 156650.45, 156650.45, 0.00071067613, 10.00195, 9.99815 
1.1546651e+3, 1.2474395e+2, -2019908.1, -1857017.3, 48863.746, 0.0124344155, -0.073720604, -1843483.6, -125988.28, 0.001489488, 9.99789, 10.0000305 
1.15470394e+3, 1.3474245e+2, -1902904.6, -1791915.9, 128178.38, -0.07197795, -0.19374336, -1707734.5, -88219.84, 0.00075867696, 9.998171, 9.999692 
1.15474574e+3, 1.4474235e+2, -1729205.6, -1660121.4, 12728.095, 0.15564036, -0.16180046, -1657850.9, -136331.92, 0.0002361324, 9.998717, 9.999649 
1.15478195e+3, 1.5474461e+2, -1531513.9, -1513139.8, -25530.541, -0.0018054948, 0.09884197, -1495193.6, -71694.73, 0.000024990082, 9.999398, 9.999655 
1.1548192e+3, 1.647443e+2, -1402374.3, -1405210.6, -34531.406, -0.059934806, 0.11525516, -1369231.9, -43729.504, 0.000000023716384, 9.999638, 9.999604 
1.1548582e+3, 1.7474115e+2, -1328160.5, -1313447.6, -15491.122, 0.037350524, -0.16315375, -1303654.9, -76122.53, 0.0, 9.999454, 9.99965 
1.1548961e+3, 1.8474013e+2, -1206503.0, -1247456.8, 8192.151, 0.02030325, -0.2020309, -1204925.0, -75382.58, 0.0, 9.999798, 9.999265 
1.1549331e+3, 1.947415e+2, -971037.9, -1080695.3, 2185.0793, -0.13546796, 0.0069147493, -970994.3, 60536.11, 0.0, 10.000728, 9.9992895 
1.154971e+3, 2.0474125e+2, -885910.44, -1007802.44, -2997.4246, -0.19340846, 0.071256936, -885836.8, 47696.445, 0.0, 10.000723, 9.999119 
1.1550099e+3, 2.1473914e+2, -932190.3, -974889.9, 20790.65, -0.13565658, -0.053795073, -923739.7, -88186.54, 0.0, 9.999712, 9.99916 
1.1550486e+3, 2.24738e+2, -982866.56, -1077558.0, -11734.985, -0.08247341, -0.01977826, -981433.94, -243866.61, 0.0, 9.999253, 9.998003 
1.1550871e+3, 2.3473789e+2, -859592.75, -967120.0, -75153.47, -0.03859864, 0.17063293, -820952.0, -181376.66, 0.0, 9.999422, 9.998008 
1.1551261e+3, 2.4473637e+2, -564590.56, -693469.75, -76120.266, 0.009686642, 0.19388793, -529296.7, 12294.705, 0.0, 10.000429, 9.998726 
1.1551654e+3, 2.5473326e+2, -172667.52, -444981.03, -42630.35, 0.06586646, 0.0049063736, -166149.78, 277466.88, 0.0, 10.002413, 9.9988 
1.1552039e+3, 2.6473114e+2, -84770.06, -404799.7, -44984.41, 0.058598552, -0.057693474, -78567.13, 267067.34, 0.0000005356376, 10.002565, 9.998337 
1.15524106e+3, 2.7473012e+2, -253606.3, -429283.0, -30489.426, -0.03266969, 0.004731447, -248465.19, -821.627, 0.000008957139, 10.000708, 9.998387 
1.1552794e+3, 2.847281e+2, -284646.47, -511829.8, -43524.297, -0.014551893, 0.027964287, -276593.44, -126929.516, 0.000047151985, 10.000333, 9.997328 
1.1553191e+3, 2.9472482e+2, -8588.724, -328546.44, -75550.62, 0.13521488, -0.03317818, 8353.672, 60052.816, 0.00015594735, 10.0015545, 9.997326 
1.1553579e+3, 3.0472165e+2, 174741.7, -117709.76, -38863.4, 0.14535893, -0.11491774, 179818.08, 179818.08, 0.00038533346, 10.002066, 9.998195 
1.1553959e+3, 3.1472284e+2, 206111.9, 5542.5547, -2126.4578, 0.0003557412, 0.17885907, 206134.45, 206134.45, 0.0007418619, 10.001805, 9.999166 
1.16466336e+3, 1.2470577e+2, -2060075.3, -1904928.5, -120622.22, 0.06420554, -0.12791274, -1839088.6, -121223.984, 0.0016512593, 9.997744, 9.999769 
1.1647026e+3, 1.3470334e+2, -1805106.1, -1782474.6, 69168.84, -0.059380483, -0.30572006, -1723702.0, -103807.94, 0.0008513687, 9.999004, 9.999355 
1.16474405e+3, 1.4470331e+2, -1622395.1, -1639208.3, 653.10364, 0.08677085, -0.23533463, -1622369.9, -100470.23, 0.00027198074, 9.999584, 9.999373 
1.1647812e+3, 1.547065e+2, -1569654.3, -1559318.0, -15552.302, -0.00015139407, 0.14536494, -1548097.6, -124224.336, 0.00003101119, 9.999264, 9.999399 
1.16481885e+3, 1.6470642e+2, -1499088.9, -1472453.8, -37189.043, -0.023496721, 0.20549017, -1446269.6, -120393.12, 0.00000004774233, 9.999064, 9.999418 
1.1648575e+3, 1.7470272e+2, -1408890.5, -1373070.6, -69136.0, 0.06509453, -0.10934649, -1319562.4, -91650.05, 0.0, 9.998989, 9.999463 
1.1648955e+3, 1.8470141e+2, -1329306.4, -1296308.3, -32651.6, 0.029309407, -0.17059946, -1276223.9, -146299.22, 0.0, 9.998909, 9.999359 
1.1649326e+3, 1.9470276e+2, -1239255.6, -1196605.9, -15633.498, -0.15513845, 0.025667267, -1191489.3, -159578.14, 0.0, 9.998832, 9.999408 
1.1649707e+3, 2.0470247e+2, -1104566.9, -1097956.4, -35281.555, -0.20245835, 0.07401675, -1065825.6, -131912.5, 0.0, 9.999163, 9.9992485 
1.16501e+3, 2.147004e+2, -889371.6, -937609.7, -48991.45, -0.092597015, -0.06289868, -858884.0, -22951.482, 0.0, 9.999943, 9.9993 
1.16504885e+3, 2.2469921e+2, -810198.0, -1022260.25, -24296.297, -0.043915, -0.025688848, -807449.94, -69502.89, 0.0, 10.000554, 9.997757 
1.165087e+3, 2.3469901e+2, -656671.75, -896736.56, 20254.0, -0.064105704, 0.18069579, -654974.94, -15018.272, 0.0, 10.000935, 9.997761 
1.1651262e+3, 2.4469723e+2, -469290.38, -630253.75, 79503.234, -0.046810504, 0.18180342, -436643.5, 105331.71, 0.0, 10.001007, 9.998882 
1.16516635e+3, 2.5469372e+2, -409596.13, -542391.2, 60866.86, 0.012625203, -0.06600261, -385919.2, 58084.66, 0.0, 10.000708, 9.998958 
1.1652052e+3, 2.646918e+2, -333725.03, -519258.47, -22879.373, 0.03212571, -0.11536786, -330945.28, 15074.054, 0.00000056359414, 10.000837, 9.998379 
1.1652424e+3, 2.7469167e+2, -147353.02, -375223.13, -38173.758, 0.00059305254, 0.034358494, -141128.05, 106892.12, 0.0000092835935, 10.001428, 9.998411 
1.1652808e+3, 2.846899e+2, -72183.0, -382005.03, 24060.426, 0.02304657, 0.06645368, -70325.63, 79712.37, 0.000049926817, 10.001671, 9.997578 
1.1653203e+3, 2.946862e+2, 10721.138, -287891.88, 71275.555, 0.10548814, -0.06454765, 26861.414, 78937.42, 0.00016435768, 10.001556, 9.997603 
1.1653589e+3, 3.0468294e+2, 60693.785, -145593.42, 98823.11, 0.08602737, -0.1806615, 100394.88, 100394.88, 0.00040264626, 10.0011635, 9.998439 
1.1653965e+3, 3.1468454e+2, 16186.575, -43335.15, 82532.32, -0.026070692, 0.12842065, 74159.93, 74159.93, 0.0007698302, 10.000313, 9.999552 
1.17466114e+3, 1.2466501e+2, -1988257.1, -1762478.1, -107787.07, 0.059035674, -0.19893262, -1719284.0, -1013.9716, 0.0018234614, 9.997767, 10.000736 
1.17470175e+3, 1.346661e+2, -1735565.6, -1648835.0, 118872.125, -0.03955136, -0.11365336, -1565665.3, 54595.07, 0.0009506097, 9.999043, 10.000257 
1.1747428e+3, 1.4466625e+2, -1603293.5, -1607333.0, -10488.566, 0.0055555976, -0.08277539, -1594632.0, -72371.195, 0.00031097958, 9.999615, 9.9995775 
1.1747804e+3, 1.5466543e+2, -1553747.5, -1532879.3, -24347.787, -0.016785048, -0.12205552, -1516824.0, -92551.77, 0.00003785508, 9.999289, 9.999569 
1.1748175e+3, 1.6466524e+2, -1555578.1, -1591849.8, -42110.426, -0.06309855, -0.040037222, -1527864.3, -201585.06, 0.00000010132158, 9.999072, 9.998595 
1.1748551e+3, 1.7466587e+2, -1465653.4, -1493719.4, -70809.59, -0.0808498, 0.16093874, -1407499.8, -179219.22, 0.0, 9.998998, 9.998633 
1.17489345e+3, 1.8466517e+2, -1301827.4, -1237403.6, -39618.94, -0.058402993, 0.1845732, -1218554.0, -88265.7, 0.0, 9.998901, 9.999766 
1.1749329e+3, 1.9466294e+2, -1208979.5, -1131092.3, -16921.455, -0.0091103995, -0.022844363, -1127574.9, -95270.45, 0.0, 9.998818, 9.999864 
1.17497206e+3, 2.0466177e+2, -1125478.6, -1136191.4, -10231.858, 0.01590125, -0.07362953, -1119285.9, -184972.84, 0.0, 9.999138, 9.999 
1.1750111e+3, 2.1466185e+2, -909857.6, -978113.9, -17569.02, 0.023396559, 0.03294529, -905600.9, -69287.55, 0.0, 9.999928, 9.999031 
1.1750497e+3, 2.2466078e+2, -734274.2, -854912.06, -13466.517, -0.004168186, 0.037567653, -732789.25, 5534.285, 0.0, 10.000514, 9.998923 
1.1750879e+3, 2.3465836e+2, -577831.5, -720946.75, 36354.84, -0.07368846, -0.1012703, -569126.0, 71219.375, 0.0, 10.000882, 9.998993 
1.1751264e+3, 2.4465671e+2, -507427.8, -696065.44, 66003.4, -0.117977954, -0.13004889, -486627.16, 55734.035, 0.0, 10.000947, 9.998461 
1.17516555e+3, 2.54656e+2, -444090.0, -608926.7, 53240.684, -0.13743447, -0.054042414, -428389.25, 15980.912, 0.0, 10.000683, 9.998513 
1.1752052e+3, 2.646546e+2, -357552.22, -559211.3, -2309.2769, -0.04106785, -0.013951136, -357525.78, -11141.026, 0.0000005132723, 10.000798, 9.998121 
1.1752457e+3, 2.7465245e+2, -171769.06, -414113.9, -9133.864, 0.19138406, -0.043305725, -171425.3, 76981.0, 0.000009280944, 10.00138, 9.998165 
1.1752843e+3, 2.8465137e+2, 6422.4683, -207443.92, 19756.502, 0.21261847, 0.010981449, 8232.216, 158648.08, 0.000050485156, 10.00162, 9.998801 
1.1753205e+3, 2.9465145e+2, 92949.59, -103580.81, 69825.53, -0.01832136, 0.1289061, 115231.7, 167643.88, 0.00016787817, 10.0014925, 9.998903 
1.175358e+3, 3.0464798e+2, 37202.688, -176741.5, 66776.98, -0.10955346, -0.06970216, 56334.496, 56334.496, 0.00041124242, 10.001092, 9.998258 
1.1753971e+3, 3.146446e+2, 5809.9795, -54622.934, 60675.484, -0.010926494, -0.23466526, 43376.62, 43376.62, 0.0007823176, 10.000272, 9.999493 
1.18465915e+3, 1.24625735e+2, -1716580.4, -1574168.1, -78974.58, 0.01886076, -0.14195459, -1539038.5, 179621.7, 0.0020081834, 9.999397, 10.00124 
1.18470155e+3, 1.3462736e+2, -1782369.9, -1615383.3, 116126.68, 0.060930572, -0.054219, -1555850.3, 64791.625, 0.0010574218, 9.998487, 10.000751 
1.18474185e+3, 1.4462769e+2, -1757241.0, -1639356.8, -17926.043, 0.013144041, -0.04909168, -1636691.1, -114052.66, 0.00035351914, 9.998385, 9.999945 
1.1847794e+3, 1.5462632e+2, -1551109.5, -1490978.1, -26550.695, -0.02132131, -0.17628446, -1480932.9, -56278.676, 0.00004562391, 9.999138, 9.999926 
1.18481666e+3, 1.646262e+2, -1483990.4, -1563606.6, -10216.952, -0.07822607, -0.10509746, -1482700.1, -156039.45, 0.00000019883093, 9.999591, 9.99854 
1.184854e+3, 1.7462748e+2, -1366454.8, -1451502.1, 17293.094, -0.10548256, 0.16823101, -1363073.0, -134416.67, 0.0, 9.999708, 9.998578 
1.1848927e+3, 1.8462697e+2, -1179476.6, -1184672.1, 63757.05, -0.06481344, 0.21331765, -1118264.4, 12398.621, 0.0, 9.999775, 9.999704 
1.1849325e+3, 1.946244e+2, -1076968.1, -1073244.1, 41163.86, 0.033294603, -0.023928272, -1033900.2, -1217.6937, 0.0, 9.999756, 9.999805 
1.1849721e+3, 2.0462291e+2, -1016546.1, -1112197.6, 59072.754, 0.06974839, -0.09064662, -988366.0, -53671.316, 0.0, 10.000003, 9.998752 
1.1850115e+3, 2.1462269e+2, -837795.75, -971325.25, 49518.76, 0.046289235, 0.011439812, -821436.25, 15262.666, 0.0, 10.000546, 9.998781 
1.18505016e+3, 2.2462168e+2, -691901.25, -772434.5, 7135.086, -0.0058578085, 0.009452764, -691274.0, 47433.75, 0.0, 10.00054, 9.9994755 
1.18508786e+3, 2.346198e+2, -686116.2, -708211.06, 1157.6295, -0.09512874, -0.13454136, -686055.7, -45333.977, 0.0, 9.99986, 9.999572 
1.1851266e+3, 2.4461867e+2, -676250.0, -796486.25, 36192.86, -0.13204853, -0.13272908, -666196.1, -123463.555, 0.0, 9.999873, 9.998287 
1.1851664e+3, 2.5461838e+2, -453724.28, -637209.2, 34244.996, -0.110018425, 0.008430174, -447541.25, -2800.8433, 0.0, 10.000723, 9.998298 
1.1852064e+3, 2.6461706e+2, -264593.7, -469484.2, 13901.675, -0.02134168, 0.04743795, -263654.75, 83100.016, 0.0000005059796, 10.001237, 9.99853 
1.1852465e+3, 2.7461463e+2, -148286.08, -355059.38, 47770.176, 0.14127804, -0.054070693, -137783.36, 110993.28, 0.000009346627, 10.001331, 9.998598 
1.18528515e+3, 2.846135e+2, -55879.18, -222463.73, 47068.105, 0.1751164, -0.033644352, -43500.094, 107285.234, 0.000050141156, 10.00113, 9.998932 
1.1853224e+3, 2.946138e+2, -30926.314, -150814.98, 8591.617, 0.061022483, 0.09687389, -30313.742, 22465.791, 0.0001672216, 10.00059, 9.999011 
1.1853597e+3, 3.0461076e+2, -32729.607, -193241.55, -14247.463, -0.011925097, -0.07232482, -31474.775, -31474.775, 0.00040719297, 10.000533, 9.998416 
1.1853976e+3, 3.1460792e+2, 137296.42, 49745.21, -4034.561, -0.0056829667, -0.19959229, 137481.95, 137481.95, 0.00076922204, 10.000997, 9.99986 
1.1946577e+3, 1.2458838e+2, -1703001.5, -1566816.4, -106799.78, -0.08610712, 0.06535592, -1508248.9, 210781.52, 0.0022081332, 9.999477, 10.001257 
1.19470164e+3, 1.3458712e+2, -1774329.6, -1603721.9, 81896.88, 0.23269336, -0.13999288, -1570772.5, 50265.855, 0.0011730703, 9.998505, 10.000825 
1.19474106e+3, 1.4458756e+2, -1724927.4, -1571624.1, 9298.197, 0.10315321, -0.15193044, -1571062.3, -48029.242, 0.00040013902, 9.998379, 10.000416 
1.19477846e+3, 1.5458944e+2, -1513743.5, -1415970.4, 5048.992, -0.035151403, -0.0033060168, -1415710.4, 9306.676, 0.00005450229, 9.9991455, 10.000438 
1.194816e+3, 1.6458958e+2, -1426179.4, -1448297.0, -7945.8447, -0.093427934, 0.030232161, -1423620.9, -96602.875, 0.00000035173326, 9.99961, 9.999323 
1.1948546e+3, 1.7458765e+2, -1306814.9, -1335181.1, 24454.525, -0.024347996, -0.09729243, -1292728.1, -63689.27, 0.0, 9.999738, 9.999363 
1.194893e+3, 1.8458675e+2, -1216004.9, -1266244.8, 62045.324, -0.005998285, -0.10364868, -1174187.3, -43138.785, 0.0, 9.999796, 9.999136 
1.1949314e+3, 1.9458713e+2, -1119613.6, -1163782.9, 42870.46, -0.05145469, 0.016534261, -1093473.8, -60428.94, 0.0, 9.99976, 9.999185 
1.1949706e+3, 2.0458598e+2, -1037836.3, -1151450.6, 73915.65, -0.06763321, 0.026674379, -1001420.25, -66363.34, 0.0, 9.999983, 9.99849 
1.195011e+3, 2.1458296e+2, -859138.4, -1008206.3, 70977.11, -0.04866433, -0.12560728, -830749.7, 6338.715, 0.0, 10.000514, 9.998543 
1.19505e+3, 2.2458194e+2, -703547.06, -785219.7, -19438.502, -0.07310336, -0.11463675, -699156.6, 39942.73, 0.0, 10.00049, 9.999412 
1.1950871e+3, 2.345833e+2, -692206.6, -716578.6, -21653.521, -0.14850876, 0.070628874, -679545.6, -38460.055, 0.0, 9.999841, 9.999523 
1.1951267e+3, 2.4458306e+2, -678743.3, -798597.2, 62680.04, -0.11298789, 0.1632004, -651952.2, -108862.81, 0.0, 9.999859, 9.998281 
1.1951687e+3, 2.545809e+2, -462252.6, -641628.44, 70195.68, 0.05402066, 0.11780112, -438048.66, 7065.7827, 0.0, 10.000667, 9.998295 
1.19520836e+3, 2.6457912e+2, -207232.84, -335635.3, 17502.604, 0.05618975, 0.06955932, -204889.81, 142239.9, 0.0000006389743, 10.001171, 9.999483 
1.1952449e+3, 2.74578e+2, -82679.61, -208533.58, 54199.547, -0.14588104, -0.0052105817, -62556.027, 186577.11, 0.000009277396, 10.0012865, 9.999625 
1.1952837e+3, 2.8457627e+2, -117180.7, -343090.06, 24971.932, -0.08679201, -0.06078758, -114453.24, 36693.42, 0.000049688064, 10.001101, 9.998118 
1.1953252e+3, 2.9457363e+2, -98162.02, -285940.0, -4235.6597, 0.28636697, -0.1345593, -98066.52, -44892.457, 0.00016438575, 10.000568, 9.9980955 
1.1953634e+3, 3.0457148e+2, -12969.1045, -145660.98, 3689.7444, 0.31120634, -0.1793935, -12866.583, -12866.583, 0.00039412206, 10.000505, 9.9987545 
1.1953982e+3, 3.145739e+2, 173226.2, 138761.23, 23346.184, -0.05129925, 0.1770081, 185011.0, 185011.0, 0.00073558954, 10.000934, 10.000503 
1.2046571e+3, 1.2454982e+2, -1626605.9, -1594184.6, -6903.261, -0.12240363, 0.028686976, -1592776.0, 126630.03, 0.0024257244, 10.000295, 10.000668 
1.2047007e+3, 1.3454837e+2, -1761174.6, -1662042.3, 86542.586, 0.27300885, -0.13948204, -1611876.6, 9543.1455, 0.0012988481, 9.9988785, 10.000243 
1.2047388e+3, 1.4454894e+2, -1736983.6, -1552528.1, 44772.324, 0.057668425, -0.11758751, -1542235.0, -18820.47, 0.00045139206, 9.99819, 10.000638 
1.2047771e+3, 1.5455118e+2, -1616365.3, -1435401.1, 18183.5, -0.026836438, 0.038595345, -1433592.0, -8198.373, 0.00006471426, 9.998315, 10.000705 
1.2048156e+3, 1.6455135e+2, -1546097.3, -1448635.3, -16920.848, -0.044990454, 0.037002403, -1445781.1, -118389.2, 0.00000057087306, 9.998538, 9.999836 
1.2048545e+3, 1.7454913e+2, -1391985.8, -1319568.5, -11342.871, 0.040502228, -0.16906263, -1317833.4, -88421.25, 0.0, 9.998906, 9.99987 
1.2048931e+3, 1.845483e+2, -1303053.1, -1357790.4, 25832.785, 0.047132496, -0.17240934, -1292787.0, -161365.55, 0.0, 9.999411, 9.9986925 
1.2049313e+3, 1.9454913e+2, -1107664.1, -1211416.1, 12658.71, -0.04367275, 0.040278006, -1106142.0, -72724.0, 0.0, 10.0000725, 9.998705 
1.2049702e+3, 2.0454836e+2, -1039268.75, -1114224.1, 49854.125, -0.09208835, 0.09648698, -1014376.5, -78948.09, 0.0, 9.999811, 9.998827 
1.20501004e+3, 2.1454568e+2, -1138017.3, -1101312.5, 85917.016, -0.09119858, -0.05948726, -1031809.6, -194354.31, 0.0, 9.998419, 9.998914 
1.2050491e+3, 2.2454469e+2, -990780.5, -946918.06, 61544.047, -0.107078426, -0.053947113, -903514.4, -164048.64, 0.0, 9.998618, 9.999206 
1.2050875e+3, 2.345457e+2, -577404.06, -686735.0, 40548.797, -0.14179923, 0.12007165, -564006.9, 77449.805, 0.0, 10.000742, 9.999294 
1.20512746e+3, 2.4454522e+2, -413341.53, -629517.7, 105077.02, -0.09038085, 0.18392773, -370684.06, 172777.94, 0.0, 10.001501, 9.998651 
1.2051693e+3, 2.5454298e+2, -445253.75, -589672.94, 134718.34, 0.058133833, 0.09251159, -364612.9, 80871.555, 0.00000000020898414, 10.000588, 9.998692 
1.2052089e+3, 2.6454133e+2, -334804.72, -411033.97, 83620.75, 0.037394468, 0.03530927, -281021.8, 66476.586, 0.00000074892756, 10.000362, 9.999348 
1.2052456e+3, 2.7454033e+2, -130463.46, -250028.63, 29562.682, -0.18655403, -0.0064809243, -123553.39, 125949.12, 0.000008958339, 10.001041, 9.9994545 
1.20528445e+3, 2.8453872e+2, -74806.88, -306165.2, -35789.35, -0.12877701, -0.047789417, -69397.04, 82118.83, 0.000049074697, 10.001322, 9.998264 
1.20532565e+3, 2.9453626e+2, -7826.3555, -223302.48, -2023.0352, 0.2611826, -0.12194164, -7807.3633, 45733.77, 0.00016160097, 10.001111, 9.9982605 
1.205364e+3, 3.045342e+2, 55943.39, -158725.67, 54794.133, 0.30068246, -0.1450272, 69120.68, 69120.68, 0.0003810888, 10.001178, 9.998341 
1.20539956e+3, 3.1453615e+2, 241059.89, 144746.75, 10115.055, -0.032371297, 0.20566495, 242110.73, 242110.73, 0.000699887, 10.001518, 10.000259 
1.2146576e+3, 1.24510005e+2, -1716524.6, -1793703.0, -4549.7583, -0.10756645, -0.30227825, -1716257.3, 3529.2292, 0.0026624324, 10.000346, 9.999273 
1.21469826e+3, 1.345114e+2, -1855487.8, -1864252.6, 36263.02, 0.14854895, -0.043425165, -1823343.4, -201560.25, 0.0014356553, 9.998905, 9.998843 
1.2147348e+3, 1.4451219e+2, -1737175.4, -1556832.9, 46440.176, -0.16409944, 0.07468004, -1545576.5, -21796.76, 0.0005075534, 9.998202, 10.000604 
1.2147755e+3, 1.5451156e+2, -1613221.1, -1429793.1, 25913.15, -0.020910455, -0.061308417, -1426202.6, -418.98575, 0.000076397075, 9.998317, 10.000743 
1.2148151e+3, 1.6451144e+2, -1533604.6, -1423252.1, -5497.498, 0.050442476, -0.10068544, -1422979.0, -95196.36, 0.0000008702971, 9.998537, 10.000012 
1.2148537e+3, 1.7451207e+2, -1377515.0, -1291845.4, 4302.7383, 0.07224865, -0.040955134, -1291629.8, -61854.813, 0.0, 9.998912, 10.00006 
1.2148927e+3, 1.8451184e+2, -1325838.1, -1404827.8, 47062.395, 0.070702836, 0.019047543, -1303894.3, -172114.13, 0.0, 9.99941, 9.99837 
1.214932e+3, 1.9451049e+2, -1132412.6, -1262271.1, 39904.74, 0.028836435, 0.04911693, -1121130.3, -87328.94, 0.0, 10.000071, 9.998357 
1.2149706e+3, 2.0451008e+2, -975326.06, -980459.7, -3464.2122, -0.030493088, 0.116967656, -973581.4, -37772.5, 0.0, 9.999806, 9.999747 
1.2150083e+3, 2.1451086e+2, -1071040.6, -957377.94, 34538.758, -0.103875086, 0.2075339, -947705.7, -109906.59, 0.0, 9.998398, 9.99991 
1.2150475e+3, 2.2451001e+2, -1022037.7, -1005554.25, 130354.945, -0.12781593, 0.19174305, -883180.75, -143374.36, 0.0, 9.998589, 9.998819 
1.2150886e+3, 2.345071e+2, -616755.6, -755495.7, 123063.25, -0.099597484, 0.018435007, -544857.25, 96977.36, 0.0, 10.000684, 9.998852 
1.2151289e+3, 2.445053e+2, -375081.34, -531306.0, 73140.18, -0.0918272, -0.061186086, -346184.22, 197665.84, 0.0, 10.001421, 9.999362 
1.21516824e+3, 2.5450483e+2, -395473.25, -476895.34, 102002.18, -0.10735073, -0.055919275, -326357.9, 119492.234, 0.00000000018849695, 10.00055, 9.999482 
1.2152079e+3, 2.645037e+2, -419113.75, -582770.94, 102514.58, -0.09090666, -0.046077147, -369773.9, -21913.426, 0.00000061447383, 10.000344, 9.99818 
1.215248e+3, 2.7450174e+2, -231868.97, -440350.2, 60782.918, -0.03647103, -0.057188716, -215441.98, 34441.582, 0.00000822272, 10.000953, 9.998191 
1.215287e+3, 2.8450087e+2, -23529.545, -178640.0, -41575.54, -0.0056232493, -0.002411811, -13088.529, 138804.19, 0.000047693058, 10.00123, 9.999185 
1.2153241e+3, 2.9450122e+2, 62001.438, -73268.47, -6249.4224, -0.0027697906, 0.102625266, 62289.543, 116174.67, 0.00015870755, 10.001086, 9.999304 
1.215362e+3, 3.044986e+2, -17909.633, -310183.06, 64292.086, -0.018862676, 0.020341339, -4392.3096, -4392.3096, 0.00037049488, 10.00117, 9.997303 
1.2154012e+3, 3.1449518e+2, 156136.89, -6716.9224, 36047.813, -0.015308112, -0.055992465, 163759.33, 163759.33, 0.0006721112, 10.001413, 9.999268 
1.2246578e+3, 1.2447215e+2, -1940274.8, -1913255.9, -61026.54, -0.040501527, -0.3015017, -1864261.4, -144104.0, 0.0029179724, 9.998854, 9.999181 
1.2246969e+3, 1.3447359e+2, -1832036.6, -1858172.8, 12403.118, 0.1264003, -0.029706368, -1827087.8, -204934.56, 0.0015834377, 9.99909, 9.998797 
1.2247328e+3, 1.4447404e+2, -1562985.3, -1512147.3, 111711.84, -0.24315462, 0.072939664, -1422999.0, 101154.15, 0.00056846405, 9.999572, 10.000247 
1.224775e+3, 1.5447277e+2, -1336937.9, -1339012.0, 54538.906, 0.011334053, -0.089886256, -1283426.1, 142737.3, 0.00008951281, 10.000396, 10.000362 
1.2248152e+3, 1.6447249e+2, -1222111.0, -1293083.0, -15035.791, 0.11600115, -0.1179643, -1219057.0, 109108.06, 0.0000012652538, 10.000765, 9.99983 
1.22485325e+3, 1.7447351e+2, -1150829.1, -1199401.1, -38096.82, 0.07086311, -0.0018965467, -1129935.8, 100219.38, 0.0, 10.00055, 9.999902 
1.2248921e+3, 1.8447345e+2, -1195785.3, -1293473.8, 17683.541, 0.05090151, 0.06300322, -1192682.6, -60524.133, 0.0, 10.000094, 9.998804 
1.22493185e+3, 1.94472e+2, -1203574.4, -1243697.5, 66354.4, 0.047569815, 0.038799524, -1154315.1, -120136.6, 0.0, 9.999355, 9.99883 
1.2249706e+3, 2.0447157e+2, -1032510.06, -1016112.56, 22635.55, 0.01980544, 0.08291361, -1000236.7, -64051.414, 0.0, 9.999451, 9.999674 
1.22500844e+3, 2.1447238e+2, -757906.25, -818646.9, -28231.334, -0.030380063, 0.18585134, -746811.4, 91364.625, 0.0, 10.000603, 9.999802 
1.2250477e+3, 2.2447157e+2, -718723.4, -838680.5, 64939.637, -0.051353574, 0.17413728, -690301.8, 49880.973, 0.0, 10.000583, 9.999001 
1.2250888e+3, 2.3446885e+2, -831124.56, -837896.6, 98154.69, -0.046802748, -0.0011452546, -736297.5, -94088.56, 0.0, 9.999117, 9.999041 
1.22512914e+3, 2.444672e+2, -740259.94, -692084.25, 56343.145, -0.07678183, -0.08251401, -654895.9, -110673.09, 0.0, 9.998855, 9.999492 
1.2251681e+3, 2.544668e+2, -447575.78, -486546.44, 29965.525, -0.14706014, -0.0802263, -431317.44, 14904.623, 0.0, 10.000134, 9.999611 
1.2252079e+3, 2.644659e+2, -392265.88, -571129.94, 37160.895, -0.1270367, -0.051087547, -384852.56, -36622.06, 0.0000003685213, 10.000533, 9.998171 
1.22524865e+3, 2.7446443e+2, -397894.3, -522986.6, 74792.14, -0.0032982558, -0.0152231045, -362942.3, -112692.01, 0.000007319039, 9.99982, 9.998172 
1.22528784e+3, 2.844634e+2, -188972.28, -262153.7, 23296.08, 0.03213587, 0.030075386, -182185.72, -29925.113, 0.000046575948, 10.0001135, 9.999146 
1.2253251e+3, 2.9446295e+2, 145105.89, -37723.99, -22120.734, -0.037772853, 0.056961697, 147744.22, 202004.0, 0.0001562628, 10.001681, 9.999261 
1.2253632e+3, 3.0446032e+2, 136498.27, -224935.55, 14062.844, -0.06795307, -0.028861605, 137044.61, 137044.61, 0.00036177837, 10.002188, 9.997398 
1.2254027e+3, 3.1445703e+2, 165057.83, 22592.824, 57808.715, -0.000442202, -0.10002334, 185563.64, 185563.64, 0.0006523267, 10.001359, 9.999498 
1.2346573e+3, 1.24436885e+2, -1841683.6, -1704445.3, 7204.731, 0.03061102, 0.104815, -1704068.0, 16445.803, 0.0031899144, 9.998829, 10.000628 
1.23469666e+3, 1.3443507e+2, -1723034.9, -1634631.0, 24209.078, 0.19622466, -0.10029572, -1628435.6, -5906.977, 0.0017411282, 9.999103, 10.000324 
1.23473294e+3, 1.444345e+2, -1606140.8, -1618013.3, 142579.0, -0.18705463, -0.14766848, -1469374.5, 55159.383, 0.0006337289, 9.999633, 9.999496 
1.23477586e+3, 1.54435e+2, -1386557.9, -1462518.5, 89412.59, 0.05166851, -0.043336604, -1327393.4, 99138.1, 0.00010392506, 10.000476, 9.999481 
1.234816e+3, 1.6443469e+2, -1252642.5, -1370521.5, -24750.535, 0.123166524, 0.0001453425, -1247656.6, 80880.555, 0.0000017603737, 10.000824, 9.99927 
1.2348533e+3, 1.7443348e+2, -1181707.4, -1275330.8, -45544.023, 0.008102725, -0.055004187, -1163207.5, 67344.766, 0.0, 10.000596, 9.999359 
1.23489134e+3, 1.8443309e+2, -1108852.8, -1118276.6, -13944.873, -0.038449474, -0.050355874, -1098845.3, 33711.918, 0.0, 10.000116, 9.999997 
1.2349307e+3, 1.9443375e+2, -1112625.6, -1055398.5, 39960.84, -0.006539704, 0.00693998, -1034863.25, -314.25217, 0.0, 9.999355, 10.000124 
1.23497024e+3, 2.0443293e+2, -1110800.8, -1174800.8, 57967.176, 0.03866086, -0.0031311167, -1076587.5, -140030.69, 0.0, 9.9994335, 9.998593 
1.23501025e+3, 2.1443033e+2, -846923.56, -997614.56, 17064.215, 0.10283391, -0.1223055, -845015.4, -6430.5347, 0.0, 10.000576, 9.998586 
1.2350498e+3, 2.244295e+2, -674528.7, -738873.3, 11366.019, 0.09377122, -0.10479059, -672580.0, 68014.09, 0.0, 10.000547, 9.999703 
1.2350884e+3, 2.3443097e+2, -777272.8, -720752.4, 45338.094, -0.006605555, 0.05781292, -695588.06, -53008.438, 0.0, 9.999098, 9.999853 
1.2351279e+3, 2.4443091e+2, -771202.75, -758193.6, 95516.27, -0.07313971, 0.11649975, -668960.7, -124380.68, 0.0, 9.9988575, 9.99904 
1.2351687e+3, 2.5442895e+2, -490636.25, -566315.75, 83064.1, -0.09838312, 0.01223234, -437199.0, 9400.406, 0.0, 10.000086, 9.99909 
1.2352086e+3, 2.6442796e+2, -331618.1, -429910.03, 13076.512, -0.106008254, 0.011803731, -329908.2, 18700.21, 0.00000016286783, 10.000468, 9.999171 
1.23524755e+3, 2.7442822e+2, -320825.53, -362761.13, 52212.67, -0.09449803, 0.11514747, -285527.78, -34923.56, 0.0000066111284, 9.999823, 9.999269 
1.23528734e+3, 2.844264e+2, -246651.05, -389270.9, 76440.05, -0.032080665, 0.059438974, -213423.0, -60803.035, 0.000046430763, 10.000139, 9.998263 
1.2353281e+3, 2.944218e+2, 64463.28, -191050.8, 44932.355, 0.09534913, -0.22789213, 72134.37, 126795.98, 0.00015647624, 10.001614, 9.998243 
1.2353668e+3, 3.0441952e+2, 192057.78, -83401.51, -9682.274, 0.08608724, -0.27163154, 192397.69, 192397.69, 0.00036044128, 10.002075, 9.998425 
1.2354038e+3, 3.1442133e+2, 228996.31, 189211.33, 38268.438, -0.031984862, 0.04942181, 252233.69, 252233.69, 0.00064737466, 10.001216, 10.000713 
1.2446573e+3, 1.2439775e+2, -1609235.3, -1565520.5, 74140.56, 0.067945026, 0.13483252, -1510082.6, 210817.2, 0.003475539, 10.000311, 10.000864 
1.2446961e+3, 1.3439588e+2, -1582408.3, -1544103.6, -84953.64, 0.18117425, -0.09654179, -1476170.1, 146742.63, 0.0019075654, 9.99997, 10.000525 
1.2447323e+3, 1.443953e+2, -1665171.5, -1645245.8, 7861.5835, -0.17911609, -0.15346822, -1642517.5, -117600.15, 0.0007030745, 9.999226, 9.999503 
1.2447747e+3, 1.5439601e+2, -1745836.6, -1634556.4, 15085.389, 0.0049740956, -0.02747048, -1632547.6, -205633.38, 0.00011956255, 9.998012, 9.999487 
1.2448149e+3, 1.6439585e+2, -1684177.4, -1580493.8, -14119.29, 0.073827244, 0.031489298, -1578605.4, -249685.58, 0.0000023468863, 9.997875, 9.9992485 
1.2448531e+3, 1.7439479e+2, -1397883.5, -1382892.3, 110.67819, 0.012256638, -0.006886264, -1382891.4, -151956.6, 0.0, 9.99913, 9.999326 
1.2448916e+3, 1.843944e+2, -1114242.8, -1098332.1, -4701.2065, -0.0020386858, -0.008852454, -1097046.9, 35892.43, 0.0, 9.99998, 10.000199 
1.2449308e+3, 1.9439487e+2, -961341.56, -957569.56, -38538.9, 0.035866696, 0.0060180076, -920870.56, 114060.46, 0.0, 10.000287, 10.000344 
1.2449702e+3, 2.0439413e+2, -957435.6, -1056735.5, 15299.661, 0.06416981, -0.02667429, -955131.8, -18195.322, 0.0, 10.000292, 9.998991 
1.2450103e+3, 2.1439195e+2, -918543.0, -984370.3, 92334.46, 0.08181136, -0.14487608, -853431.4, -14472.485, 0.0, 9.999877, 9.999014 
1.2450495e+3, 2.2439134e+2, -762175.8, -804243.06, 102854.27, 0.053743385, -0.11945343, -678226.5, 62739.42, 0.0, 10.000047, 9.9994955 
1.2450881e+3, 2.3439266e+2, -519257.1, -623213.06, 51028.65, -0.032701563, 0.05255216, -498395.28, 144559.36, 0.0, 10.000982, 9.999615 
1.24512784e+3, 2.4439272e+2, -457230.1, -594590.25, 92773.87, -0.07424442, 0.1295886, -410480.78, 134474.4, 0.0, 10.0009575, 9.999151 
1.2451688e+3, 2.5439128e+2, -530751.25, -570364.0, 120943.875, -0.063126914, 0.06602993, -428002.7, 18967.05, 0.0, 9.999743, 9.9992285 
1.2452091e+3, 2.6439038e+2, -399327.06, -420063.72, 81867.81, -0.06348851, 0.045428332, -327173.63, 21803.611, 0.000000050542315, 9.999826, 9.999543 
1.2452484e+3, 2.7439e+2, -42410.87, -185311.81, 64704.57, -0.078273565, 0.046264436, -17467.092, 233509.52, 0.000006130949, 10.001551, 9.999653 
1.2452883e+3, 2.8438818e+2, 21231.918, -274997.6, 77401.266, -0.03840066, -0.019010087, 40236.69, 193228.38, 0.0000467863, 10.00205, 9.998125 
1.245329e+3, 2.9438457e+2, -30580.23, -253130.11, 93979.805, 0.063785285, -0.18960108, 3796.182, 58822.434, 0.00016088788, 10.001038, 9.998089 
1.2453678e+3, 3.043827e+2, -56054.254, -207464.27, 18680.955, 0.07500173, -0.18765631, -53783.457, -53783.457, 0.00037296448, 10.000383, 9.998386 
1.24540515e+3, 3.1438294e+2, 75906.62, 113339.52, -23828.813, 0.047929868, -0.02059099, 124923.53, 124923.53, 0.0006689744, 10.000171, 10.000693 
1.2546568e+3, 1.2435443e+2, -1675117.6, -1730173.9, 106269.4, -0.016601475, -0.26127028, -1592868.8, 128447.96, 0.0037739007, 10.000415, 9.999689 
1.2546948e+3, 1.3435604e+2, -1664762.1, -1729941.5, -101580.13, 0.050916933, -0.017432211, -1590671.9, 32633.857, 0.0020822603, 10.000028, 9.999224 
1.2547308e+3, 1.4435668e+2, -1605661.9, -1525472.1, -43453.145, -0.24986354, 0.08068738, -1506441.9, 18860.809, 0.0007764397, 9.999239, 10.00032 
1.2547709e+3, 1.5435584e+2, -1679738.8, -1491886.4, -30501.465, -0.15985546, -0.04561935, -1487058.0, -59745.66, 0.00013646827, 9.997984, 10.00048 
1.2548114e+3, 1.6435598e+2, -1654872.1, -1510170.5, 25783.734, -0.05735878, -0.035221975, -1505713.5, -176400.16, 0.0000030208696, 9.997829, 9.999755 
1.2548527e+3, 1.7435756e+2, -1364518.3, -1313858.0, 51247.8, 0.06835411, 0.14570779, -1282022.1, -50720.883, 0.0, 9.999126, 9.999804 
1.2548931e+3, 1.8435755e+2, -1169268.6, -1214495.0, 6807.826, 0.14336374, 0.19408031, -1168266.1, -34962.867, 0.0, 9.999988, 9.999398 
1.2549323e+3, 1.9435546e+2, -1021801.8, -1085089.9, -24529.293, 0.15036151, 0.038335364, -1013408.0, 21915.957, 0.0, 10.000293, 9.999466 
1.2549706e+3, 2.0435515e+2, -829881.8, -786989.7, -4046.6538, 0.07518367, 0.008115753, -786611.25, 150713.16, 0.0, 10.000271, 10.000854 
1.2550081e+3, 2.1435724e+2, -779261.44, -688736.2, 77593.984, -0.10811091, 0.115557164, -644168.25, 195129.86, 0.0, 9.99985, 10.001057 
1.2550472e+3, 2.2435708e+2, -842679.0, -962831.94, 130334.29, -0.19360772, 0.12761724, -759241.7, -17943.275, 0.0, 10.000009, 9.9984255 
1.2550879e+3, 2.3435402e+2, -617922.9, -814069.0, 89434.51, -0.14773807, -0.0122002335, -583267.44, 60065.734, 0.0, 10.000921, 9.998335 
1.2551284e+3, 2.4435277e+2, -420377.0, -506048.25, 49011.875, -0.102582246, -0.029190088, -398119.94, 147227.05, 0.0, 10.000907, 9.999784 
1.2551685e+3, 2.5435385e+2, -482099.06, -462678.5, 77808.36, -0.062725276, 0.085174, -393976.84, 53356.61, 0.0, 9.999718, 9.99998 
1.2552093e+3, 2.643531e+2, -419293.4, -454782.1, 137420.89, -0.02702962, 0.051512886, -298475.97, 50861.945, 0.00000007625481, 9.999792, 9.999323 
1.2552507e+3, 2.7434993e+2, -78790.78, -234990.27, 133661.95, 0.0060735084, -0.20331402, -2083.9102, 249281.97, 0.0000061180435, 10.001436, 9.999368 
1.2552905e+3, 2.843489e+2, 39137.832, -212081.44, 42998.813, -0.020214954, -0.1934466, 46293.7, 199668.61, 0.00004818149, 10.001938, 9.998612 
1.255328e+3, 2.9435083e+2, 1675.3671, -177710.55, 59940.117, -0.12786612, 0.13230035, 19860.322, 75219.23, 0.00017152917, 10.0009985, 9.998627 
1.2553665e+3, 3.0434933e+2, -120194.16, -346787.94, 7674.84, -0.1044343, 0.19139765, -119934.51, -119934.51, 0.00040416588, 10.000408, 9.997417 
1.2554064e+3, 3.1434223e+2, -5986.4756, -53685.51, -18749.115, 0.165702, -0.27177665, 500.9283, 500.9283, 0.00072634866, 10.000156, 9.999552 
1.264656e+3, 1.2431425e+2, -1856903.6, -1796151.4, 120979.445, -0.061977576, -0.32481292, -1701792.9, 19917.12, 0.004085261, 9.99909, 9.999866 
1.2646933e+3, 1.3431655e+2, -1896126.4, -1828627.0, -27070.104, -0.013525047, -0.021470217, -1819112.0, -195418.58, 0.0022650692, 9.998402, 9.999321 
1.2647305e+3, 1.4431752e+2, -1704916.5, -1581909.8, 84743.516, -0.17245416, 0.1059863, -1538703.4, -13015.116, 0.00085386867, 9.998606, 10.000233 
1.2647699e+3, 1.5431641e+2, -1384919.5, -1361398.3, 11184.869, -0.1538443, -0.037230313, -1356928.9, 70772.66, 0.00015477135, 10.000066, 10.000367 
1.2648104e+3, 1.643166e+2, -1201264.1, -1242892.9, 37971.836, -0.07148127, -0.036733408, -1178776.1, 150925.38, 0.0000038088367, 10.000735, 10.000188 
1.2648526e+3, 1.7431858e+2, -1152254.9, -1158615.4, 58299.99, 0.08747692, 0.13773134, -1097048.5, 134634.28, 0.0, 10.000359, 10.000275 
1.2648931e+3, 1.843188e+2, -1170905.8, -1244967.1, 25344.727, 0.16337264, 0.19493067, -1163062.9, -29380.707, 0.0, 10.000104, 9.999134 
1.2649322e+3, 1.9431672e+2, -1085735.6, -1150321.8, 29081.848, 0.13193624, 0.073038034, -1074570.8, -38865.746, 0.0, 10.000006, 9.999156 
1.2649703e+3, 2.0431642e+2, -900484.06, -826362.3, -4457.8164, 0.04970345, 0.062004417, -826095.1, 111611.586, 0.0, 9.99981, 10.000804 
1.2650079e+3, 2.1431842e+2, -836940.56, -721388.8, -86769.05, -0.100069076, 0.1639322, -674920.2, 164761.25, 0.0, 9.999473, 10.001014 
1.2650469e+3, 2.2431828e+2, -910340.0, -938774.75, -26459.193, -0.16953549, 0.15830134, -894520.4, -152839.81, 0.0, 9.999299, 9.998933 
1.265088e+3, 2.3431548e+2, -805585.5, -841272.56, 61637.86, -0.13683346, -0.009088121, -759260.4, -115550.21, 0.0, 9.999362, 9.9988985 
1.2651286e+3, 2.4431428e+2, -605416.94, -589261.44, 50840.26, -0.10143815, -0.052590597, -545861.25, -139.29086, 0.0, 9.999615, 9.999833 
1.2651683e+3, 2.5431508e+2, -419147.25, -430948.84, 19174.252, -0.0651674, 0.028359734, -404986.34, 42725.273, 0.0, 10.00014, 9.999994 
1.2652092e+3, 2.643144e+2, -381897.4, -440719.1, 87011.18, -0.023364913, 0.008938014, -319460.84, 30254.88, 0.00000015326442, 10.000068, 9.999288 
1.265251e+3, 2.7431202e+2, -395523.53, -390654.0, 93384.56, 0.024781263, -0.16451907, -299672.47, -47934.36, 0.000006713193, 9.999275, 9.999339 
1.2652916e+3, 2.8431132e+2, -294510.5, -339330.4, 10682.099, 0.018789947, -0.13564283, -292094.78, -138349.86, 0.000050966704, 9.9995, 9.99891 
1.2653297e+3, 2.9431298e+2, 31276.918, -126429.33, 4217.235, -0.06059942, 0.13355426, 31389.611, 87120.516, 0.00018813205, 10.001042, 9.998957 
1.2653679e+3, 3.0431193e+2, 109209.58, -235419.5, -30982.371, -0.0766584, 0.21901764, 111972.76, 111972.76, 0.00045240638, 10.001989, 9.997418 
1.2654066e+3, 3.1430507e+2, 283295.7, 67778.63, 2685.44, 0.06771355, -0.21376616, 283329.13, 283329.13, 0.0008181, 10.002225, 9.99939 
1.274654e+3, 1.2427822e+2, -1740775.4, -1561372.4, 98425.28, -0.17927013, 0.023868877, -1517905.3, 204165.47, 0.0044096503, 9.999104, 10.001482 
1.2746914e+3, 1.3427769e+2, -1786772.6, -1595312.6, -49664.465, -0.022553235, -0.113980986, -1583196.5, 40876.824, 0.0024558255, 9.998373, 10.000938 
1.2747312e+3, 1.442779e+2, -1778961.5, -1738763.3, 137400.4, 0.042679995, -0.10130674, -1619999.6, -93926.875, 0.00093550276, 9.998613, 9.999156 
1.2747715e+3, 1.542779e+2, -1468193.9, -1549648.4, 73418.61, 0.01539888, -0.0010562806, -1424962.9, 3116.8914, 0.00017466526, 10.000129, 9.999046 
1.274812e+3, 1.6427785e+2, -1167527.9, -1191827.0, 23931.656, 0.017402977, 0.033577316, -1152838.4, 177244.47, 0.0000047674703, 10.000813, 10.0005045 
1.2748526e+3, 1.7427781e+2, -1111868.3, -1086908.6, 44310.37, 0.04632417, -0.041619882, -1053354.1, 178725.44, 0.0, 10.000406, 10.000746 
1.274892e+3, 1.8427804e+2, -1148112.8, -1202734.4, 18025.293, 0.028710166, -0.02152682, -1142700.6, -8623.915, 0.0, 10.000123, 9.999416 
1.2749302e+3, 1.942787e+2, -1066183.6, -1112408.5, 27625.635, -0.046992954, 0.10647293, -1053277.3, -17203.633, 0.0, 10.000014, 9.999414 
1.2749693e+3, 2.0427807e+2, -1040460.56, -1112609.3, -20503.729, -0.03859701, 0.13737851, -1035040.8, -96958.375, 0.0, 9.999793, 9.998847 
1.275009e+3, 2.1427563e+2, -989513.56, -1031100.5, -96790.86, 0.08258549, 0.007373325, -911307.8, -71200.336, 0.0, 9.999443, 9.998902 
1.2750489e+3, 2.2427507e+2, -775093.25, -649975.5, -28679.025, 0.09919354, -0.021211356, -643715.06, 98396.16, 0.0, 9.999265, 10.000932 
1.2750885e+3, 2.3427704e+2, -648941.1, -508209.88, 67233.98, -0.024271293, 0.06048519, -481252.7, 162833.06, 0.0, 9.999329, 10.001202 
1.2751283e+3, 2.4427722e+2, -641596.8, -659149.56, 66397.016, -0.09561753, 0.054755494, -583398.6, -37317.957, 0.0, 9.99959, 9.999365 
1.2751682e+3, 2.5427505e+2, -472354.8, -531495.75, 43486.61, -0.09273149, -0.09412212, -449337.28, -1234.6729, 0.0, 10.000097, 9.999325 
1.2752086e+3, 2.642745e+2, -376697.5, -428236.47, 59634.88, -0.075064495, -0.07383099, -337502.5, 12606.491, 0.00000020123079, 10.000055, 9.999381 
1.2752497e+3, 2.7427602e+2, -382873.28, -367742.56, 70015.945, -0.03976799, 0.13431613, -304884.44, -52789.223, 0.0000075115454, 9.999289, 9.999491 
1.2752913e+3, 2.8427523e+2, -286319.47, -323978.0, 61881.266, 0.045806125, 0.1386118, -240466.17, -86363.12, 0.000055155855, 9.999509, 9.999009 
1.2753333e+3, 2.9427153e+2, 26119.719, -117361.31, 68160.56, 0.20303148, -0.14345026, 53336.59, 109474.39, 0.00020861672, 10.000957, 9.99906 
1.2753716e+3, 3.0427086e+2, 153166.47, -122989.24, -20279.564, 0.1060076, -0.060697325, 154647.75, 154647.75, 0.00051064143, 10.001896, 9.998236 
1.2754056e+3, 3.14271e+2, 312415.38, 153016.34, 24215.592, -0.255318, 0.1196247, 316012.97, 316012.97, 0.0009327419, 10.00212, 10.000026 
1.2846527e+3, 1.24239966e+2, -2051493.9, -1688178.4, 126490.75, -0.10488349, 0.14618161, -1648477.9, 73971.42, 0.0047468157, 9.996872, 10.001688 
1.2846893e+3, 1.3423868e+2, -1659866.8, -1508186.6, -119917.01, -0.10318537, -0.08972701, -1442140.0, 182318.58, 0.0026545508, 9.999135, 10.00117 
1.2847307e+3, 1.4423901e+2, -1559275.5, -1620206.8, 41313.074, 0.08059819, -0.08121649, -1538409.6, -11953.505, 0.0010215283, 10.000066, 9.99927 
1.2847717e+3, 1.5423958e+2, -1587163.1, -1596266.8, 78141.49, 0.06673855, 0.06346654, -1513441.0, -84984.29, 0.00019628371, 9.999262, 9.999147 
1.284812e+3, 1.6423947e+2, -1480315.6, -1362085.0, 56850.41, 0.042064182, 0.09546241, -1339184.5, -8724.516, 0.0000059623408, 9.998753, 10.000326 
1.2848513e+3, 1.7423867e+2, -1377962.1, -1236864.1, 20794.67, -0.022274734, -0.03732743, -1233863.3, -1398.4604, 0.0, 9.998677, 10.000547 
1.2848906e+3, 1.8423869e+2, -1282439.6, -1203636.8, 282.97852, -0.055860303, -0.05188084, -1203635.8, -69172.85, 0.0, 9.998934, 9.999981 
1.2849301e+3, 1.9423987e+2, -1073323.8, -1046872.9, 33711.117, -0.04345458, 0.06571219, -1023885.75, 12566.11, 0.0, 9.999672, 10.000029 
1.2849697e+3, 2.0423934e+2, -981722.0, -1108585.0, 57008.098, 0.009449024, 0.08569969, -959868.8, -21410.594, 0.0, 10.000302, 9.99863 
1.2850094e+3, 2.1423659e+2, -819176.0, -977388.94, 111626.67, 0.11082301, -0.05207156, -761467.44, 79019.914, 0.0, 10.000738, 9.998645 
1.285049e+3, 2.242359e+2, -569241.8, -561050.0, 175922.38, 0.13228127, -0.078071326, -389175.84, 353316.94, 0.0, 10.000725, 10.000839 
1.2850888e+3, 2.3423791e+2, -539060.94, -463041.75, 88828.81, 0.048058055, 0.013514135, -404432.06, 240034.81, 0.0, 10.000119, 10.00113 
1.2851286e+3, 2.4423814e+2, -581893.8, -622676.75, 44619.277, -0.026764506, 0.014533388, -553227.25, -6765.7227, 0.0, 9.999964, 9.999439 
1.2851684e+3, 2.5423616e+2, -414457.03, -491567.28, 70126.734, -0.089101404, -0.12535211, -372985.56, 75496.695, 0.0, 10.000443, 9.999433 
1.2852088e+3, 2.642359e+2, -255459.44, -367547.44, 94263.22, -0.097124286, -0.0833482, -201838.11, 148648.11, 0.00000014147287, 10.000878, 9.9994 
1.28525e+3, 2.7423775e+2, -93074.56, -227459.31, 86922.41, -0.03753975, 0.15822595, -50401.93, 202067.44, 0.00000765521, 10.001271, 9.999501 
1.2852918e+3, 2.842367e+2, -44835.637, -221916.6, 94216.47, 0.061268367, 0.1408503, -4085.1274, 150394.39, 0.00005963982, 10.001228, 9.998884 
1.2853341e+3, 2.94232e+2, -27042.719, -157331.2, 73967.11, 0.21331854, -0.22254816, 6377.26, 62899.832, 0.00023270336, 10.000652, 9.998932 
1.2853731e+3, 3.042313e+2, 4588.9624, -176650.25, -25596.62, 0.13457963, -0.15165882, 8134.636, 8134.636, 0.0005778234, 10.000795, 9.998399 
1.2854084e+3, 3.1423166e+2, 279619.44, 127827.6, -35347.395, -0.17253725, 0.036190763, 287447.06, 287447.06, 0.0010639558, 10.001927, 9.999948 
1.2946512e+3, 1.2419934e+2, -2157606.3, -1905091.1, 161646.78, 0.066350676, 0.0037579443, -1826237.4, -103390.54, 0.0050962004, 9.996851, 10.000214 
1.2946866e+3, 1.3419965e+2, -1749547.8, -1698832.1, -31920.652, -0.2812021, 0.062110905, -1683423.0, -58574.133, 0.0028611089, 9.999158, 9.999846 
1.294729e+3, 1.4420108e+2, -1453981.1, -1416829.3, 9958.087, -0.10598666, 0.19028439, -1414328.4, 112508.734, 0.00111182, 10.000125, 10.000641 
1.2947701e+3, 1.5420154e+2, -1469963.1, -1354707.0, 47388.98, -0.033777557, 0.16130085, -1337724.6, 91106.79, 0.000219555, 9.999265, 10.000806 
1.29481e+3, 1.6420157e+2, -1530730.6, -1462041.5, 50514.5, -0.027545452, 0.14757556, -1435302.0, -104470.44, 0.0000074533, 9.998731, 9.999652 
1.2948488e+3, 1.7420132e+2, -1443112.3, -1369300.9, 19964.057, -0.14043362, 0.16014154, -1364247.1, -131410.36, 0.0, 9.998664, 9.999646 
1.2948889e+3, 1.8420094e+2, -1225759.4, -1084910.5, 22386.6, -0.111093976, 0.115908444, -1081438.0, 53401.387, 0.0, 9.998926, 10.0008 
1.2949313e+3, 1.942003e+2, -1002644.56, -902837.25, 64388.8, 0.1254395, -0.04634651, -871277.5, 165561.55, 0.0, 9.9996805, 10.001016 
1.2949716e+3, 2.0420027e+2, -874899.5, -887220.8, 71496.92, 0.17633872, -0.09960646, -809298.3, 129535.85, 0.0, 10.000301, 10.000152 
1.2950087e+3, 2.1420123e+2, -714245.94, -753578.25, 129804.68, -0.03188337, -0.020367222, -602626.06, 238195.64, 0.0, 10.00071, 10.000197 
1.2950476e+3, 2.2420074e+2, -721591.4, -868645.56, 151795.4, -0.09225086, -0.013554998, -626452.9, 116372.79, 0.0, 10.000687, 9.998745 
1.295089e+3, 2.3419818e+2, -711541.9, -814827.5, 69443.53, 0.054724447, -0.14187331, -676643.44, -31791.004, 0.0, 10.00009, 9.998729 
1.2951295e+3, 2.4419715e+2, -548920.4, -546186.4, 56617.152, 0.0759046, -0.16448472, -490919.72, 55943.617, 0.0, 9.999928, 9.999981 
1.2951688e+3, 2.5419828e+2, -367265.1, -380996.2, 91842.125, -0.07943781, -0.07011558, -282032.25, 166819.17, 0.0, 10.000389, 10.000218 
1.2952095e+3, 2.6419848e+2, -266435.66, -380082.03, 105960.695, -0.11915507, -0.018982515, -203023.48, 147825.28, 0.000000052184554, 10.000832, 9.999337 
1.2952515e+3, 2.741974e+2, -114646.18, -249959.2, 105342.5, 0.0002506156, -0.06506488, -57105.06, 195754.05, 0.000006761853, 10.001176, 9.999392 
1.2952927e+3, 2.8419596e+2, -77982.195, -276184.03, 72919.17, 0.041867886, -0.09935987, -54045.727, 100826.805, 0.000062792315, 10.001162, 9.998547 
1.2953325e+3, 2.9419428e+2, -56451.453, -216202.22, 58518.875, -0.024214681, -0.124347575, -37308.98, 19578.914, 0.00025878826, 10.000638, 9.998539 
1.2953725e+3, 3.0419296e+2, -27139.186, -238999.56, 10439.228, -0.0058745556, -0.06882105, -26626.045, -26626.045, 0.00065176375, 10.000789, 9.997969 
1.2954141e+3, 3.141878e+2, 203293.7, 6151.348, 19826.96, 0.2078754, -0.3922442, 205267.97, 205267.97, 0.0012059709, 10.001779, 9.999179 
1.3046494e+3, 1.2415891e+2, -1932863.0, -1814509.3, 99010.445, 0.14095631, -0.029847803, -1758339.0, -35095.2, 0.0054552136, 9.998474, 10.000047 
1.3046849e+3, 1.3415958e+2, -1790572.6, -1713499.4, 60204.34, -0.34715754, 0.06268427, -1680554.3, -55310.836, 0.003073975, 9.998854, 9.999893 
1.3047281e+3, 1.4416151e+2, -1622192.3, -1427741.3, 64804.605, -0.13766558, 0.20839101, -1408123.0, 119103.414, 0.0012055306, 9.998677, 10.001258 
1.304768e+3, 1.5416226e+2, -1619178.4, -1352383.9, 15278.824, -0.08125361, 0.14219925, -1351511.8, 77703.5, 0.000244213, 9.997931, 10.001459 
1.304808e+3, 1.6416255e+2, -1637475.8, -1507518.9, 51562.254, -0.05973688, 0.11696087, -1489546.3, -158334.63, 0.000009295233, 9.997977, 9.999702 
1.3048476e+3, 1.7416254e+2, -1370181.0, -1334583.0, 87744.766, -0.12399501, 0.15344612, -1262850.1, -29634.59, 0.0, 9.999169, 9.999641 
1.3048884e+3, 1.841622e+2, -1132342.1, -1063608.3, 82666.984, -0.07924803, 0.12347531, -1008449.06, 126769.414, 0.0, 9.999664, 10.000591 
1.3049306e+3, 1.941614e+2, -1094369.8, -970123.3, 26055.432, 0.12049998, -0.033282507, -964880.5, 72340.17, 0.0, 9.999153, 10.000804 
1.304971e+3, 2.041615e+2, -1002868.56, -900165.1, -31549.703, 0.14601581, -0.0821127, -891247.6, 47967.047, 0.0, 9.999217, 10.000582 
1.3050085e+3, 2.1416292e+2, -765342.3, -723995.94, -58010.09, -0.06883316, -0.004457807, -683085.44, 158110.98, 0.0, 10.000128, 10.000679 
1.3050476e+3, 2.2416249e+2, -751580.06, -920585.4, -47925.17, -0.1360005, 0.0009868868, -738935.8, 4263.6484, 0.0, 10.000639, 9.998412 
1.3050885e+3, 2.3415954e+2, -667123.6, -836419.0, 5975.342, -0.00071749225, -0.12546343, -666912.94, -21681.434, 0.0, 10.000579, 9.998344 
1.3051294e+3, 2.4415833e+2, -477861.72, -520726.53, 73768.71, 0.051788185, -0.14157532, -422475.06, 124769.84, 0.0, 10.000454, 9.999902 
1.3051698e+3, 2.5415948e+2, -391917.72, -398790.2, 43882.164, -0.009895842, -0.03983158, -351337.44, 97895.23, 0.0, 10.000241, 10.000169 
1.3052107e+3, 2.641594e+2, -381350.53, -437049.28, 32997.0, -0.023784934, -0.011460636, -366021.34, -14789.441, 0.000000019202236, 10.000053, 9.99932 
1.3052523e+3, 2.7415767e+2, -287594.53, -334876.0, 29401.895, 0.02507912, -0.11939507, -273507.88, -20260.988, 0.0000058574187, 9.999992, 9.999378 
1.3052931e+3, 2.8415608e+2, -202961.17, -359069.94, 16980.557, 0.015933273, -0.15539262, -201135.47, -45874.06, 0.00006594774, 10.000398, 9.998346 
1.305333e+3, 2.94155e+2, 54897.5, -183303.2, 6901.9575, -0.07549472, -0.10000576, 55097.316, 112370.35, 0.00028475493, 10.001494, 9.998351 
1.3053736e+3, 3.04154e+2, 140645.78, -188697.53, -16751.385, -0.03603114, 0.008533582, 141495.61, 141495.61, 0.0007251385, 10.002062, 9.997711 
1.3054164e+3, 3.1414908e+2, 182605.06, -69643.58, -4086.954, 0.25637925, -0.26374835, 182671.25, 182671.25, 0.0013470041, 10.001909, 9.998601 
1.3146463e+3, 1.2411878e+2, -1828248.5, -1629094.6, 35775.07, -0.01797966, 0.049963836, -1622863.1, 100776.45, 0.005819013, 9.998595, 10.00127 
1.3146842e+3, 1.3411859e+2, -1677693.8, -1479574.1, 74758.46, -0.30891815, -0.099711746, -1454530.5, 171110.34, 0.0032902497, 9.998856, 10.001499 
1.3147278e+3, 1.4412038e+2, -1637424.1, -1461247.6, 38279.555, -0.020532329, -0.047527857, -1453289.6, 74332.84, 0.0013013786, 9.99868, 10.00103 
1.3147658e+3, 1.5412177e+2, -1653342.5, -1419753.6, -10818.21, -0.08956589, -0.005086506, -1419253.6, 10354.193, 0.00026992275, 9.997914, 10.001005 
1.3148057e+3, 1.6412242e+2, -1581632.9, -1394349.4, 86805.71, -0.07576433, -0.0033872419, -1360303.9, -28703.535, 0.00001153221, 9.997982, 10.000481 
1.3148482e+3, 1.7412227e+2, -1299612.4, -1197450.9, 135879.53, 0.011979579, -0.07201852, -1103367.9, 130233.03, 0.0, 9.999204, 10.000568 
1.3148892e+3, 1.8412249e+2, -1216635.9, -1245232.6, 65989.78, 0.019235477, -0.040979695, -1163413.1, -27813.21, 0.0, 9.999693, 9.999332 
1.3149278e+3, 1.9412322e+2, -1198780.6, -1185524.3, 6803.223, -0.07853977, 0.10416828, -1182654.1, -145057.81, 0.0, 9.9991455, 9.9993305 
1.3149677e+3, 2.0412308e+2, -1053539.3, -999722.5, -5203.5757, -0.10444061, 0.14159037, -999223.94, -59624.77, 0.0, 9.999191, 9.999911 
1.3150091e+3, 2.1412168e+2, -810779.1, -812727.7, -20350.982, -0.026916848, -0.0017102954, -791379.1, 50231.547, 0.0, 10.000101, 10.000084 
1.3150494e+3, 2.2412115e+2, -661560.4, -724987.06, -49582.633, -0.026961941, -0.03626447, -634416.5, 109197.4, 0.0, 10.000599, 9.999776 
1.3150878e+3, 2.341219e+2, -564972.0, -616620.06, 7243.033, -0.13681184, 0.053863402, -563975.5, 81629.33, 0.0, 10.000543, 9.999874 
1.3151282e+3, 2.441216e+2, -529412.44, -618284.0, 62786.492, -0.11658373, 0.07613053, -496928.28, 50678.83, 0.0, 10.000414, 9.999251 
1.315171e+3, 2.5411987e+2, -455150.7, -523192.7, 40524.64, 0.090395644, -0.02600892, -436259.72, 13364.848, 0.0, 10.000213, 9.999329 
1.3152125e+3, 2.641188e+2, -382352.56, -441462.56, 28308.21, 0.15405832, -0.054215916, -370982.6, -19348.436, 0.000000054232096, 10.000058, 9.9992895 
1.315252e+3, 2.7411854e+2, -286824.94, -332729.75, 32473.127, 0.01141791, -0.017794447, -270011.56, -16378.351, 0.0000056747863, 9.9999895, 9.999395 
1.3152929e+3, 2.8411713e+2, -208536.08, -371227.7, 51953.51, -0.047601867, -0.034527864, -193360.86, -37714.582, 0.00007077781, 10.0004, 9.998261 
1.3153352e+3, 2.9411435e+2, 37585.996, -200775.52, 53634.45, 0.0115134, -0.14007299, 49098.418, 106774.836, 0.000310223, 10.001414, 9.99827 
1.315376e+3, 3.0411434e+2, 126558.42, -203327.9, -19007.54, 0.0073695774, 0.073925145, 127649.99, 127649.99, 0.00079265307, 10.001997, 9.9976425 
1.3154154e+3, 3.141147e+2, 142535.86, -135340.8, 6014.2217, -0.034551285, 0.33953086, 142665.97, 142665.97, 0.0014745404, 10.001838, 9.998185 
1.3246435e+3, 1.24079265e+2, -2045158.3, -1685875.5, 62003.77, -0.06830659, 0.09445651, -1675476.1, 48552.734, 0.006183249, 9.996905, 10.001693 
1.3246822e+3, 1.3407956e+2, -1933178.9, -1523368.0, 87642.77, -0.26124957, -0.075206466, -1505411.4, 120611.266, 0.0035072896, 9.996768, 10.0022 
1.3247263e+3, 1.4408122e+2, -1847380.1, -1563052.4, 33544.242, 0.045590166, -0.0732751, -1559148.5, -31144.322, 0.0013982238, 9.99725, 10.001017 
1.3247645e+3, 1.5408227e+2, -1516881.1, -1367762.1, 8952.555, -0.05353689, -0.054381568, -1367226.6, 62766.355, 0.00029637254, 9.998904, 10.000889 
1.3248049e+3, 1.6408283e+2, -1344853.4, -1262461.0, 98634.26, -0.039106533, -0.06420196, -1196765.4, 135220.58, 0.000014169166, 9.999534, 10.000633 
1.3248478e+3, 1.7408295e+2, -1364633.4, -1209132.4, 83672.82, 0.08087954, -0.12371731, -1172662.6, 61319.9, 0.0, 9.998677, 10.000738 
1.3248888e+3, 1.8408324e+2, -1397423.1, -1354289.5, 23842.705, 0.08307898, -0.08317355, -1343706.6, -207726.25, 0.0, 9.998555, 9.999129 
1.324927e+3, 1.9408382e+2, -1153025.4, -1190750.6, 52805.74, -0.07045011, 0.06955214, -1115814.5, -77834.47, 0.0, 9.999578, 9.999085 
1.3249668e+3, 2.040835e+2, -988670.44, -1029031.5, 96230.695, -0.126048, 0.12732168, -910527.0, 29459.748, 0.0, 9.999897, 9.999372 
1.3250084e+3, 2.1408202e+2, -988778.75, -959889.94, 76007.28, -0.04749553, 0.028401192, -896966.75, -54964.203, 0.0, 9.999147, 9.999533 
1.3250491e+3, 2.240815e+2, -843546.1, -755713.6, 37835.73, -0.034281634, 0.0017125218, -741662.9, 2343.4448, 0.0, 9.999111, 10.000279 
1.3250884e+3, 2.3408239e+2, -583742.5, -556909.56, 21758.018, -0.11199986, 0.045669336, -544764.06, 101228.695, 0.0, 10.000123, 10.0004835 
1.325129e+3, 2.4408215e+2, -484342.56, -651183.44, 41842.723, -0.08702983, 0.064626634, -474436.78, 73556.875, 0.0, 10.000957, 9.998763 
1.3251716e+3, 2.5408047e+2, -306735.2, -516851.9, 26177.805, 0.07785577, 0.025778083, -303522.9, 146490.52, 0.0, 10.001516, 9.998741 
1.3252132e+3, 2.6407912e+2, -144126.33, -363217.16, 11443.049, 0.12411248, 0.017707592, -143530.28, 208496.53, 0.00000008813443, 10.001854, 9.998963 
1.325253e+3, 2.7407807e+2, -28393.594, -240445.05, -14125.102, 0.0006118029, 0.0046673096, -27456.834, 226575.75, 0.000005758402, 10.001903, 9.99911 
1.325294e+3, 2.8407642e+2, -11502.666, -269851.22, 15447.529, -0.040066436, -0.021314777, -10582.285, 145464.84, 0.000075127005, 10.00173, 9.998317 
1.3253367e+3, 2.9407424e+2, 31612.705, -191272.34, 20331.973, 0.03576864, -0.07315097, 33452.242, 91523.48, 0.00033038916, 10.001321, 9.99838 
1.3253777e+3, 3.040742e+2, 74721.64, -194953.17, -19391.836, 0.013492616, 0.11334789, 76108.93, 76108.93, 0.00084619236, 10.001507, 9.99793 
1.3254167e+3, 3.1407446e+2, 260004.34, -72752.55, 21481.172, -0.11187766, 0.34452695, 261385.33, 261385.33, 0.0015748155, 10.002614, 9.998244 
1.3346404e+3, 1.24040365e+2, -2080684.6, -1762049.4, -1147.1597, -0.080646776, 0.07208942, -1762045.3, -37633.957, 0.0065457188, 9.99691, 10.001169 
1.3346794e+3, 1.3404292e+2, -1966184.4, -1576139.0, 81722.65, -0.2166733, 0.16504909, -1559708.5, 66676.66, 0.0037237175, 9.996706, 10.001864 
1.3347234e+3, 1.440444e+2, -1833391.8, -1532646.6, 86665.85, 0.029076375, 0.15901795, -1509459.8, 18908.621, 0.0014951822, 9.997234, 10.001238 
1.334764e+3, 1.5404405e+2, -1487877.8, -1319547.3, 78032.93, 0.0035999601, 0.006348394, -1288939.1, 141429.3, 0.00032323142, 9.99895, 10.001201 
1.334805e+3, 1.64044e+2, -1376039.1, -1340740.9, 71012.12, 0.025092091, -0.055754147, -1285217.5, 47148.93, 0.000017128494, 9.999589, 10.000072 
1.3348462e+3, 1.7404474e+2, -1409955.6, -1305212.3, 49547.176, 0.061196007, 0.013726539, -1285488.8, -51130.297, 0.00000000003443261, 9.998685, 10.000075 
1.3348873e+3, 1.8404463e+2, -1335485.5, -1228430.6, 51673.848, 0.08856608, 0.010355156, -1207558.0, -71199.234, 0.0, 9.998562, 9.999991 
1.3349287e+3, 1.9404323e+2, -1078222.0, -1039819.56, 93860.49, 0.12192018, -0.13803455, -963216.4, 75154.914, 0.0, 9.999595, 10.000115 
1.3349687e+3, 2.0404279e+2, -1017014.75, -1087645.0, 71012.67, 0.059416566, -0.13057004, -973020.6, -32643.414, 0.0, 9.999892, 9.998973 
1.3350067e+3, 2.1404389e+2, -1030704.44, -1043268.6, 49678.57, -0.14667085, 0.08399896, -986912.4, -144540.27, 0.0, 9.999126, 9.998973 
1.3350466e+3, 2.240435e+2, -870294.2, -804513.8, 66899.43, -0.18029432, 0.11753442, -762856.7, -18480.01, 0.0, 9.999082, 9.999959 
1.33509e+3, 2.3404106e+2, -608708.25, -600516.25, 64011.285, 0.03983548, -0.14291137, -540470.06, 105924.664, 0.0, 10.000087, 10.000202 
1.3351318e+3, 2.4404006e+2, -517484.84, -709706.1, 61319.68, 0.10258644, -0.16887936, -499589.53, 48814.438, 0.0, 10.000909, 9.998385 
1.3351718e+3, 2.5404122e+2, -341495.03, -580133.3, 50962.406, -0.06478631, 0.11585793, -331067.38, 119332.37, 0.0, 10.001473, 9.998329 
1.3352124e+3, 2.640403e+2, -191028.19, -452073.66, 14145.349, -0.12600978, 0.1999858, -190263.94, 162147.1, 0.00000008397673, 10.001816, 9.998373 
1.3352545e+3, 2.7403632e+2, -78160.016, -330084.2, -5353.4004, -0.034082912, -0.046403065, -78046.305, 176398.27, 0.0000056271715, 10.001845, 9.998523 
1.3352962e+3, 2.8403413e+2, -4733.818, -249206.19, 555.32275, 0.005832435, -0.10251563, -4732.5566, 151730.66, 0.0000764955, 10.001698, 9.998475 
1.3353375e+3, 2.940347e+2, 39792.195, -164243.19, 12387.514, -0.021553852, 0.098376065, 40541.52, 98999.88, 0.0003400778, 10.001274, 9.99859 
1.3353787e+3, 3.0403367e+2, 108601.95, -113954.98, 17471.086, -0.046032768, 0.15044469, 109965.11, 109965.11, 0.0008788174, 10.001467, 9.998501 
1.33542e+3, 3.1402916e+2, 266054.56, -20210.096, 75908.54, -0.051599085, -0.15875615, 284937.56, 284937.56, 0.0016415936, 10.002454, 9.998678 
1.3446374e+3, 1.2400127e+2, -2091927.3, -1779568.3, -47892.523, -0.05710878, 0.070331536, -1772390.0, -47596.703, 0.0069055543, 9.996893, 10.001053 
1.344677e+3, 1.3400368e+2, -1839745.8, -1543923.3, 72702.45, -0.16248502, 0.1723315, -1527021.3, 99746.65, 0.0039389143, 9.997691, 10.001616 
1.3447203e+3, 1.4400437e+2, -1740607.8, -1511633.3, 88471.34, -0.022658326, 0.11211875, -1481432.9, 47326.066, 0.0015916337, 9.997981, 10.001018 
1.3447621e+3, 1.5400445e+2, -1665716.1, -1428213.9, 35359.32, 0.00047346283, 0.025607428, -1423061.4, 7694.5557, 0.0003501717, 9.997846, 10.000978 
1.3448039e+3, 1.6400456e+2, -1603561.5, -1444880.3, -1459.702, 0.036322314, -0.008769352, -1444866.8, -112113.7, 0.000020254476, 9.998013, 10.0001135 
1.3448445e+3, 1.7400499e+2, -1404784.3, -1295326.4, 25292.803, 0.031915236, 0.022360612, -1289764.5, -55016.434, 0.0000000014653116, 9.998691, 10.000141 
1.3448858e+3, 1.840047e+2, -1229917.0, -1157239.9, 66055.77, 0.06133205, -0.0095668575, -1118187.1, 18562.094, 0.0, 9.999199, 10.000172 
1.3449283e+3, 1.9400343e+2, -1088840.1, -1022406.44, 41567.047, 0.15031412, -0.16426457, -1002414.44, 36344.586, 0.0, 9.99943, 10.000312 
1.344969e+3, 2.0400307e+2, -1013123.6, -1081384.5, -17679.537, 0.11688591, -0.16083424, -1008816.44, -68053.11, 0.0, 9.999903, 9.999009 
1.3450068e+3, 2.140041e+2, -791857.9, -925334.8, -4942.4097, -0.10080415, 0.047011927, -791675.06, 51083.508, 0.0, 10.000754, 9.998997 
1.345047e+3, 2.2400361e+2, -625837.3, -749310.7, 39829.234, -0.14440702, 0.09407428, -614104.4, 130660.984, 0.0, 10.001026, 9.999403 
1.3450903e+3, 2.3400107e+2, -596846.6, -662127.1, 6678.9585, 0.06556165, -0.1167022, -596170.3, 50617.18, 0.0, 10.00046, 9.999599 
1.3451324e+3, 2.4399996e+2, -586411.2, -714987.5, 28625.738, 0.111195005, -0.13143796, -580326.06, -31527.549, 0.0, 10.000324, 9.998629 
1.3451727e+3, 2.540009e+2, -405704.34, -572556.1, 66014.27, -0.08593401, 0.10134157, -382745.28, 68047.98, 0.0, 10.0008745, 9.998668 
1.3452135e+3, 2.6399976e+2, -278273.88, -534439.6, 61455.316, -0.16849321, 0.16018425, -264293.47, 88512.125, 0.00000006157407, 10.001393, 9.998008 
1.3452557e+3, 2.7399558e+2, -105774.76, -391033.16, 43048.28, -0.089578465, -0.063947745, -99419.92, 155422.69, 0.0000055913592, 10.001864, 9.998092 
1.3452975e+3, 2.8399295e+2, 17042.283, -265862.28, 25992.01, -0.02583717, -0.1272119, 19410.49, 176275.94, 0.00007682173, 10.0019655, 9.998232 
1.3453391e+3, 2.9399273e+2, 74684.14, -167363.81, -4981.732, 0.02029906, 0.013029169, 74786.625, 133653.38, 0.00034345183, 10.001603, 9.998408 
1.3453805e+3, 3.0399096e+2, 131999.14, -100187.12, 12136.2, 0.015444474, -0.0011837068, 132631.78, 132631.78, 0.0008946951, 10.001607, 9.998537 
1.3454218e+3, 3.139875e+2, 220810.1, -32240.3, 28209.64, -0.0734592, -0.20901601, 223916.72, 223916.72, 0.0016793058, 10.002094, 9.998769 
1.3546346e+3, 1.2396214e+2, -2061573.9, -1727665.1, -35830.99, -0.03404523, 0.09278641, -1723863.5, 1309.5734, 0.0072628423, 9.996937, 10.00139 
1.3546751e+3, 1.339617e+2, -1841087.3, -1555954.5, 103062.62, -0.121686876, -0.080730386, -1522603.0, 104568.54, 0.004152666, 9.997735, 10.001509 
1.3547172e+3, 1.4396098e+2, -1787666.5, -1624717.5, 80375.266, -0.14307414, -0.24162011, -1591744.3, -62567.707, 0.0016872559, 9.998042, 10.000216 
1.3547592e+3, 1.5396349e+2, -1726900.0, -1556097.9, 28541.926, -0.089644626, 0.0025831321, -1551454.5, -120299.16, 0.0003769789, 9.997846, 10.000103 
1.3548012e+3, 1.6396454e+2, -1556676.6, -1346917.8, 16822.81, -0.033040643, 0.08106159, -1345577.1, -12431.361, 0.000023370363, 9.998003, 10.000794 
1.3548425e+3, 1.739636e+2, -1340381.9, -1166615.4, 53703.813, -0.029701436, -0.109256566, -1151357.5, 83794.195, 0.0000000068048798, 9.998708, 10.001018 
1.3548842e+3, 1.8396345e+2, -1263488.1, -1234390.9, 73321.66, -0.027726756, -0.15245433, -1174188.4, -37036.652, 0.0, 9.999226, 9.999632 
1.3549261e+3, 1.9396454e+2, -1135433.4, -1123519.5, 50932.457, -0.009955772, -0.0030200044, -1078196.8, -39054.51, 0.0, 9.999443, 9.999614 
1.354968e+3, 2.0396444e+2, -981383.8, -1015755.1, 8415.531, 0.020175425, 0.04768572, -979433.94, -38289.883, 0.0, 9.999901, 9.999462 
1.3550092e+3, 2.1396272e+2, -753480.3, -841083.3, 28866.525, 0.062281746, -0.08004255, -744823.75, 98338.05, 0.0, 10.0007305, 9.999588 
1.3550499e+3, 2.2396182e+2, -686299.75, -866385.1, 19352.416, 0.04876256, -0.072475605, -684243.56, 60929.15, 0.0, 10.000988, 9.998618 
1.3550895e+3, 2.3396231e+2, -667208.8, -801615.94, -11816.307, -0.04807581, 0.11351127, -666177.9, -19006.008, 0.0, 10.00043, 9.998657 
1.3551308e+3, 2.4396175e+2, -533708.94, -597677.06, 41801.918, -0.07928164, 0.17043677, -513058.6, 36119.164, 0.0, 10.00029, 9.999453 
1.355174e+3, 2.5395963e+2, -339079.6, -424672.25, 89576.586, -0.014843721, -0.006903565, -282601.1, 168592.36, 0.0, 10.000833, 9.999705 
1.3552162e+3, 2.6395756e+2, -295756.6, -563264.7, 76209.34, -0.037978858, -0.0889132, -275569.06, 77641.65, 0.000000036385206, 10.001357, 9.997829 
1.3552563e+3, 2.739557e+2, -137552.81, -444081.2, 63790.008, -0.18968771, -0.04950096, -124807.73, 130420.96, 0.000005925218, 10.001807, 9.997756 
1.3552982e+3, 2.8395283e+2, -29539.953, -355440.22, 11924.86, -0.16314532, -0.09280494, -29104.2, 128151.336, 0.00007720777, 10.001936, 9.99763 
1.3553418e+3, 2.9394847e+2, 28236.271, -263128.9, -13577.289, 0.123728454, -0.30129164, 28867.59, 88163.22, 0.00034341367, 10.0016, 9.997753 
1.3553837e+3, 3.0394608e+2, 107104.43, -157097.84, 26072.434, 0.15910552, -0.32125384, 109652.77, 109652.77, 0.00089620176, 10.001629, 9.998134 
1.3554226e+3, 3.1394875e+2, 183017.42, -77347.72, 60576.375, -0.209202, 0.11909142, 196421.06, 196421.06, 0.0016848984, 10.00195, 9.998529 
1.3646315e+3, 1.2392157e+2, -2020265.0, -1693959.5, -25534.174, -0.050212845, 0.0103187915, -1691973.5, 33592.227, 0.0076198755, 9.997156, 10.00152 
1.3646735e+3, 1.3392113e+2, -1897447.0, -1626936.3, 71179.88, -0.03288547, -0.12634847, -1609350.0, 18215.34, 0.004366158, 9.997531, 10.0011215 
1.364715e+3, 1.4392011e+2, -1833917.3, -1646175.8, 52950.02, -0.13788319, -0.29530454, -1632271.6, -102698.11, 0.0017823466, 9.997728, 10.0002165 
1.3647576e+3, 1.5392236e+2, -1678452.9, -1530870.4, 67974.734, -0.033023037, -0.078017354, -1504333.6, -72779.93, 0.0004035849, 9.998167, 10.000124 
1.3647999e+3, 1.6392338e+2, -1513815.0, -1365980.6, 74830.73, 0.03203903, 0.009516514, -1334715.3, -1169.8732, 0.000026350568, 9.998466, 10.00044 
1.364841e+3, 1.7392278e+2, -1396687.0, -1238296.9, 9732.84, -0.026094574, -0.109921895, -1237701.0, -2149.3684, 0.000000016360648, 9.998514, 10.000617 
1.3648827e+3, 1.8392281e+2, -1337960.0, -1260084.6, -1906.2147, -0.05971721, -0.11438511, -1260038.0, -122486.57, 0.0, 9.998679, 9.999717 
1.364925e+3, 1.9392383e+2, -1174335.4, -1126019.4, 33397.957, -0.044474, 0.015945068, -1108958.0, -69416.82, 0.0, 9.999109, 9.999757 
1.3649672e+3, 2.0392352e+2, -1059499.3, -1064028.3, 16395.94, 0.0022482257, 0.04161722, -1045212.25, -103667.91, 0.0, 9.999416, 9.999361 
1.3650094e+3, 2.1392143e+2, -939736.8, -944378.1, -21826.055, 0.08378222, -0.10866076, -920108.4, -76542.445, 0.0, 9.999522, 9.999457 
1.3650505e+3, 2.2392048e+2, -845752.7, -941609.06, -42317.152, 0.08477392, -0.09798703, -829744.56, -84167.24, 0.0, 9.99989, 9.998627 
1.3650902e+3, 2.3392133e+2, -635770.06, -783992.75, -11677.55, -0.032568514, 0.121822864, -634855.7, 12716.698, 0.0, 10.000634, 9.998679 
1.3651314e+3, 2.4392061e+2, -441865.5, -582319.0, 56583.957, -0.07764416, 0.17156233, -421906.1, 127673.07, 0.0, 10.001041, 9.999198 
1.3651748e+3, 2.5391757e+2, -341076.94, -456790.06, 4099.2144, -0.025521638, -0.069065735, -340931.9, 110671.03, 0.0, 10.000953, 9.999426 
1.3652171e+3, 2.6391533e+2, -324548.06, -559605.6, -37752.156, -0.041911867, -0.1565304, -318633.6, 34988.43, 0.000000033203506, 10.001094, 9.997977 
1.3652582e+3, 2.7391443e+2, -146978.94, -425927.38, -20576.86, -0.15897198, -0.038296696, -145469.23, 110163.43, 0.000006027052, 10.00165, 9.997955 
1.3653001e+3, 2.8391218e+2, 7782.7437, -365422.78, -42792.008, -0.15551181, -0.020574871, 12626.44, 170281.72, 0.00007555986, 10.002317, 9.9973755 
1.365343e+3, 2.9390788e+2, 236857.72, -194193.34, -51695.645, 0.023572346, -0.19587365, 242970.84, 302666.75, 0.00033532447, 10.003173, 9.997468 
1.3653852e+3, 3.0390465e+2, 310231.22, -61544.496, -10231.685, 0.09401742, -0.2777473, 310512.6, 310512.6, 0.00087567023, 10.003039, 9.998109 
1.3654257e+3, 3.1390664e+2, 136013.06, -65781.92, 29138.785, -0.05009147, 0.08880608, 140136.39, 140136.39, 0.0016473874, 10.001477, 9.998833 
1.374628e+3, 1.2387956e+2, -2021419.5, -1707846.4, 15138.802, -0.124691114, -0.18660253, -1707117.1, 18853.977, 0.0079810945, 9.997208, 10.001397 
1.3746722e+3, 1.3388234e+2, -1948277.0, -1731755.9, 79925.484, 0.085780196, 0.06704074, -1705448.9, -77502.99, 0.0045821774, 9.997531, 10.000401 
1.374714e+3, 1.438823e+2, -1770598.9, -1522410.4, 62774.52, -0.020228388, -0.0002774593, -1507436.3, 22508.906, 0.0018779465, 9.997755, 10.001057 
1.3747577e+3, 1.538812e+2, -1600259.1, -1376919.3, 89474.75, 0.16014299, -0.22256541, -1345495.3, 86454.664, 0.00043006244, 9.9982, 10.001165 
1.3748002e+3, 1.6388108e+2, -1611245.0, -1578175.1, 76515.77, 0.21379712, -0.24180953, -1516428.1, -182476.64, 0.000029160963, 9.998504, 9.998969 
1.3748401e+3, 1.7388263e+2, -1518410.8, -1495768.5, 11666.637, 0.027831739, 0.03284122, -1490833.0, -254886.67, 0.000000027808229, 9.998531, 9.998844 
1.3748814e+3, 1.8388292e+2, -1286625.6, -1158578.9, 8189.482, -0.05718535, 0.12069826, -1158057.1, -20110.213, 0.0, 9.998696, 10.000407 
1.3749248e+3, 1.9388127e+2, -1103227.5, -981019.25, 51126.402, 0.027552549, -0.1125627, -962451.44, 77504.56, 0.0, 9.999116, 10.0007515 
1.3749671e+3, 2.0388022e+2, -1105813.5, -1160040.1, 18692.191, 0.041405812, -0.18853512, -1099994.6, -158030.13, 0.0, 9.999413, 9.998706 
1.3750076e+3, 2.1388027e+2, -1002782.6, -1071447.6, -15527.638, -0.056114793, -0.040979795, -999434.5, -155463.81, 0.0, 9.999501, 9.998597 
1.3750489e+3, 2.238797e+2, -799135.06, -834788.94, -19261.902, -0.059281554, 0.0219507, -790716.6, -44738.008, 0.0, 9.999846, 9.999383 
1.375092e+3, 2.3387827e+2, -573873.3, -647115.6, 19051.209, 0.08186394, -0.07952415, -569214.25, 78774.05, 0.0, 10.000599, 9.999636 
1.375134e+3, 2.4387664e+2, -535176.9, -769785.6, 52275.39, 0.08302747, -0.11681405, -524056.03, 25946.018, 0.0, 10.001011, 9.997926 
1.3751745e+3, 2.5387478e+2, -453715.5, -683950.6, 4394.5117, -0.1317673, -0.08773471, -453631.66, -1610.421, 0.0, 10.000921, 9.997882 
1.3752168e+3, 2.638731e+2, -299052.7, -502990.16, -20112.412, -0.1950198, -0.051168013, -297088.1, 56951.156, 0.000000022673568, 10.001076, 9.998378 
1.3752611e+3, 2.7387187e+2, -108603.63, -335685.38, 4993.4106, -0.035152595, -0.029404938, -108493.88, 147560.02, 0.0000059199137, 10.001606, 9.998596 
1.3753036e+3, 2.8387094e+2, 7145.3066, -356355.4, -13852.103, -0.039506204, 0.083626755, 7672.411, 165737.33, 0.00007240238, 10.002269, 9.997463 
1.3753432e+3, 2.9387036e+2, 220918.81, -202130.5, -12498.421, -0.2762964, 0.28130665, 221287.73, 281359.56, 0.00031832908, 10.00306, 9.997471 
1.3753855e+3, 3.0386624e+2, 318672.0, -27803.232, -59430.902, -0.18705861, 0.096641675, 328582.7, 328582.7, 0.0008297466, 10.00297, 9.998373 
1.375431e+3, 3.1386134e+2, 176261.5, 23201.857, -21690.225, 0.30367643, -0.25644892, 179275.88, 179275.88, 0.001562825, 10.001457, 9.999454 
1.3846253e+3, 1.2383792e+2, -1954860.6, -1678042.3, -26129.258, -0.12670997, -0.22292425, -1675597.5, 50778.516, 0.008351057, 9.997676, 10.001378 
1.3846703e+3, 1.3384047e+2, -1982030.4, -1779717.5, 11630.354, 0.16109186, 0.034986064, -1779051.1, -150696.47, 0.004803759, 9.997441, 10.000113 
1.3847116e+3, 1.4384109e+2, -1775829.1, -1496322.3, 26571.01, -0.0073408205, 0.040730722, -1493818.8, 36529.027, 0.0019753822, 9.997594, 10.001314 
1.384756e+3, 1.538399e+2, -1506707.9, -1294226.1, -1689.9451, 0.15009858, -0.22431804, -1294212.6, 138139.61, 0.00045665295, 9.998675, 10.001506 
1.3847989e+3, 1.6383962e+2, -1499404.6, -1531125.4, -16867.102, 0.20768481, -0.27195022, -1492112.3, -157757.66, 0.00003186285, 9.999313, 9.998895 
1.3848394e+3, 1.7384093e+2, -1401920.5, -1453864.4, 34037.12, 0.06399142, -0.010919131, -1385078.1, -148726.08, 0.000000039188958, 9.999399, 9.998711 
1.3848808e+3, 1.8384108e+2, -1187678.6, -1116412.1, 84797.33, -0.0026894184, 0.07310908, -1060065.4, 78289.02, 0.0, 9.999396, 10.00036 
1.3849242e+3, 1.9383962e+2, -1083393.1, -973659.2, 47465.992, 0.052662935, -0.13772464, -955976.8, 84385.695, 0.0, 9.999263, 10.000729 
1.3849664e+3, 2.0383877e+2, -1109631.6, -1184135.9, 2548.0828, 0.042689335, -0.18506403, -1109544.6, -167174.52, 0.0, 9.999482, 9.9985075 
1.3850072e+3, 2.1383885e+2, -900018.0, -1046592.06, 10516.063, -0.069676355, -0.011677923, -899267.4, -54891.09, 0.0, 10.000309, 9.998381 
1.3850491e+3, 2.2383794e+2, -669144.5, -792747.06, 5750.5264, -0.069885924, 0.03627199, -668877.56, 77509.88, 0.0, 10.000826, 9.999202 
1.3850927e+3, 2.3383564e+2, -544581.44, -653305.94, -44585.145, 0.09505469, -0.13412698, -528636.56, 119768.29, 0.0, 10.000888, 9.999455 
1.3851352e+3, 2.438337e+2, -528318.2, -766548.75, -19186.629, 0.10207971, -0.18723814, -526782.8, 23637.99, 0.0, 10.001072, 9.997912 
1.3851756e+3, 2.5383252e+2, -369286.75, -640861.4, 34132.918, -0.13854946, -0.09480686, -365062.47, 87371.125, 0.0, 10.0015, 9.997894 
1.3852178e+3, 2.638308e+2, -232693.98, -527894.1, 51737.277, -0.22020438, -0.03814483, -223889.05, 130563.39, 0.0000000049794013, 10.001778, 9.997867 
1.3852625e+3, 2.7382857e+2, -112995.89, -401908.7, -13370.702, -0.06793663, -0.061961286, -112378.42, 144100.83, 0.0000059839426, 10.00185, 9.998023 
1.3853052e+3, 2.8382742e+2, -16225.42, -309697.3, -56770.645, -0.06459068, 0.040719066, -5626.2334, 152866.9, 0.00006977794, 10.001866, 9.997976 
1.3853456e+3, 2.9382795e+2, 100134.74, -181662.28, -22747.338, -0.272135, 0.280315, 101959.16, 162447.31, 0.00029839875, 10.001903, 9.998161 
1.3853881e+3, 3.038243e+2, 193105.55, -137515.42, -78900.14, -0.18043806, 0.12744279, 210969.27, 210969.27, 0.00077244354, 10.002322, 9.997931 
1.3854326e+3, 3.138194e+2, 435540.22, 132665.42, -109721.55, 0.24424802, -0.16816312, 471111.1, 471111.1, 0.0014545768, 10.003309, 9.999316 
1.3946238e+3, 1.2379698e+2, -1942581.4, -1661126.8, 13331.838, -0.048406556, -0.057420935, -1660496.8, 66280.87, 0.008733579, 9.997716, 10.001474 
1.3946678e+3, 1.3379519e+2, -1965194.4, -1750983.9, -4534.4365, 0.16722913, -0.25152966, -1750888.0, -122093.6, 0.005033633, 9.997466, 10.000299 
1.3947079e+3, 1.437961e+2, -1796239.5, -1545206.0, 55459.188, -0.13415824, -0.21295893, -1533499.6, -2714.689, 0.002076125, 9.99762, 10.000968 
1.3947521e+3, 1.5379855e+2, -1533615.3, -1353476.8, 39397.457, -0.10336951, -0.06978081, -1345237.1, 87523.04, 0.00048381835, 9.998692, 10.001091 
1.3947959e+3, 1.6379932e+2, -1396390.5, -1331083.8, -15256.724, -0.033861164, -0.050667703, -1327695.4, 7057.014, 0.000034571214, 9.999367, 10.000246 
1.3948387e+3, 1.7379756e+2, -1285163.5, -1221140.0, 38635.816, 0.057493843, -0.25173715, -1202977.3, 33792.06, 0.00000005013657, 9.999436, 10.000293 
1.3948812e+3, 1.8379714e+2, -1236624.0, -1225722.4, 77234.36, 0.080971844, -0.2788101, -1153746.8, -14972.127, 0.0, 9.999428, 9.999594 
1.394923e+3, 1.9379897e+2, -1157208.1, -1129304.6, 42403.06, 0.0077033, -0.05603362, -1098617.0, -57857.086, 0.0, 9.999272, 9.999657 
1.3949652e+3, 2.0379928e+2, -1093249.4, -1149541.9, 25961.521, -0.022250442, 0.061376445, -1083104.4, -140344.31, 0.0, 9.999477, 9.998747 
1.3950083e+3, 2.1379721e+2, -875741.44, -989728.3, 43358.367, 0.01660546, -0.020273982, -861123.44, -16340.804, 0.0, 10.000282, 9.998783 
1.3950509e+3, 2.2379518e+2, -748096.5, -952932.0, 7604.088, 0.028171696, -0.057347767, -747814.56, -1010.5517, 0.0, 10.000804, 9.998115 
1.3950926e+3, 2.3379342e+2, -637763.25, -840210.44, -39071.258, -0.00485108, -0.048315655, -630484.44, 18337.518, 0.0, 10.000855, 9.998188 
1.3951348e+3, 2.4379186e+2, -455599.72, -607294.7, -6771.28, -0.038246512, -0.04458317, -455298.06, 95537.195, 0.0, 10.001029, 9.99903 
1.3951777e+3, 2.537907e+2, -275913.53, -436326.56, 53229.813, -0.076128624, -0.088064626, -259857.39, 192983.16, 0.0, 10.001452, 9.999323 
1.3952203e+3, 2.6378843e+2, -331836.03, -725362.75, 53323.242, -0.14383915, -0.11089526, -324738.7, 30123.69, 0.0000000011462398, 10.001737, 9.996532 
1.3952623e+3, 2.7378458e+2, -241463.28, -652661.1, -3604.3333, -0.26095185, -0.12673388, -241431.69, 15476.705, 0.000005942459, 10.00178, 9.996337 
1.3953052e+3, 2.8378195e+2, 35905.156, -191739.63, -54293.87, -0.251134, -0.11731073, 48191.297, 207128.7, 0.00006702102, 10.001821, 9.99881 
1.3953498e+3, 2.9378104e+2, 177590.64, -16987.123, -15237.1, -0.03511993, -0.13433097, 178776.6, 239717.72, 0.00027987466, 10.001882, 9.999307 
1.3953927e+3, 3.0377907e+2, 126259.24, -277024.6, -47591.953, 0.050182074, -0.14376524, 131799.5, 131799.5, 0.0007224757, 10.002321, 9.996973 
1.3954315e+3, 3.1377995e+2, 355781.38, 354.8399, -62432.25, -0.20226319, 0.26017532, 366428.9, 366428.9, 0.0013609991, 10.00316, 9.998481 
1.4046219e+3, 1.2375452e+2, -1989086.8, -1696659.5, 42897.64, 0.022627912, 0.0042636404, -1690496.5, 36697.7, 0.009133226, 9.997443, 10.001365 
1.4046653e+3, 1.3375159e+2, -1917895.8, -1687508.8, -32346.898, 0.16934091, -0.33938244, -1683053.3, -53833.984, 0.005275387, 9.997604, 10.000672 
1.404705e+3, 1.4375292e+2, -1836833.1, -1581650.5, 64883.383, -0.16126047, -0.27243325, -1566100.6, -34895.637, 0.0021822979, 9.99742, 10.000809 
1.4047495e+3, 1.5375568e+2, -1777378.1, -1495044.4, 63212.84, -0.14177985, -0.0790722, -1481537.5, -48357.16, 0.00051218417, 9.997127, 10.000871 
1.4047937e+3, 1.6375668e+2, -1635632.1, -1378760.5, 6361.6553, -0.07792535, -0.04948249, -1378603.1, -43432.74, 0.000037386584, 9.997433, 10.000852 
1.4048372e+3, 1.7375517e+2, -1335936.0, -1165073.3, -9870.045, 0.018779658, -0.29660177, -1164505.0, 72676.086, 0.00000006103049, 9.998736, 10.001017 
1.4048803e+3, 1.837549e+2, -1244409.8, -1277982.4, -13731.976, 0.056675762, -0.32781675, -1239508.6, -100324.47, 0.0, 9.999588, 9.999157 
1.4049223e+3, 1.9375673e+2, -1119944.0, -1177245.1, -22500.773, 0.004935495, -0.0492258, -1112164.6, -70990.69, 0.0, 9.999814, 9.999067 
1.404965e+3, 2.037569e+2, -981258.2, -1071430.1, 4231.9263, -0.013973356, 0.08095988, -981060.0, -37883.145, 0.0, 10.000146, 9.9989605 
1.4050087e+3, 2.1375465e+2, -794689.25, -914218.2, 14580.802, 0.0151865175, -0.048484333, -792936.3, 52262.383, 0.0, 10.000685, 9.999106 
1.4050515e+3, 2.2375265e+2, -746943.6, -965160.75, -14559.553, 0.021506077, -0.09442468, -745976.5, 1242.343, 0.0, 10.000876, 9.99799 
1.405093e+3, 2.3375124e+2, -689623.0, -885011.5, 6609.1924, -0.010282806, -0.03393072, -689399.7, -40165.063, 0.0, 10.000588, 9.998008 
1.4051355e+3, 2.437498e+2, -531911.75, -653418.25, 67138.85, -0.03395148, -0.0041890386, -502118.97, 49128.57, 0.0, 10.00055, 9.9989395 
1.4051789e+3, 2.5374842e+2, -353086.22, -484094.44, 14894.578, -0.059994362, -0.060588855, -351414.16, 101841.2, 0.0, 10.000968, 9.9992285 
1.405222e+3, 2.6374596e+2, -399749.4, -738880.9, -8065.654, -0.12047496, -0.102030605, -399557.7, -44279.242, 0.0000000047036606, 10.00119, 9.996701 
1.405264e+3, 2.737421e+2, -318262.03, -665594.6, 55130.684, -0.23582187, -0.13911875, -309721.38, -52398.707, 0.0000060153247, 10.001151, 9.996549 
1.405307e+3, 2.837392e+2, -44425.06, -279096.75, 63436.83, -0.22904871, -0.15126562, -28374.506, 130979.1, 0.000064346226, 10.001479, 9.99837 
1.4053519e+3, 2.9373768e+2, 218337.36, -54787.176, -17874.658, -0.03124204, -0.18082538, 219502.2, 280866.78, 0.0002689041, 10.002408, 9.998791 
1.4053948e+3, 3.0373538e+2, 162937.67, -310088.84, -102592.34, 0.024527643, -0.16812885, 184229.97, 184229.97, 0.00069600175, 10.002788, 9.996527 
1.4054333e+3, 3.1373543e+2, 236608.89, -61189.707, -82622.56, -0.28755203, 0.18816361, 257996.08, 257996.08, 0.0013114183, 10.002362, 9.998439 
1.41462e+3, 1.2371002e+2, -2010663.1, -1742269.0, 93554.805, 0.08151737, -0.10069693, -1712877.1, 14754.133, 0.009556688, 9.997455, 10.001041 
1.4146626e+3, 1.3371006e+2, -1876366.1, -1601823.6, -30566.93, 0.1455839, -0.20045298, -1598461.6, 31164.354, 0.0055341963, 9.99761, 10.001256 
1.414703e+3, 1.43712e+2, -1827492.5, -1572442.8, 49422.17, -0.104854085, -0.105849445, -1563200.9, -31596.914, 0.0022969088, 9.997456, 10.000859 
1.4147483e+3, 1.5371126e+2, -1780474.4, -1499437.5, 53770.47, 0.030187229, -0.26082742, -1489501.0, -55888.805, 0.0005425403, 9.997115, 10.000848 
1.4147925e+3, 1.6371161e+2, -1650353.8, -1406552.0, 45896.246, 0.06778542, -0.28816256, -1398198.3, -62588.99, 0.000040406845, 9.997418, 10.000669 
1.4148352e+3, 1.7371392e+2, -1350620.1, -1193786.5, 41642.813, -0.07148112, -0.1329662, -1183415.3, 54170.51, 0.00000007226826, 9.99873, 10.000823 
1.4148782e+3, 1.8371466e+2, -1248749.6, -1295914.1, -4539.896, -0.110521816, -0.04885197, -1248316.6, -108735.94, 0.0, 9.999621, 9.99902 
1.4149222e+3, 1.9371289e+2, -1128371.1, -1197907.8, -13403.332, 0.020192243, -0.11460325, -1125877.0, -84272.88, 0.0, 9.9998255, 9.99892 
1.4149658e+3, 2.037116e+2, -969319.5, -1046347.3, 18172.148, 0.04935598, -0.13086218, -965247.6, -21626.871, 0.0, 10.000141, 9.999136 
1.4150083e+3, 2.1371123e+2, -782167.56, -880434.8, 36316.402, -0.0911675, -0.09610177, -770202.94, 75421.16, 0.0, 10.000649, 9.999355 
1.415051e+3, 2.2371043e+2, -698187.7, -855144.94, -25232.781, -0.1151036, -0.070159875, -694230.94, 53400.18, 0.0, 10.000835, 9.998767 
1.4150943e+3, 2.3370913e+2, -633344.0, -762536.9, -2484.5376, 0.051324002, -0.082829475, -633296.2, 16346.332, 0.0, 10.0005665, 9.9988575 
1.4151372e+3, 2.4370757e+2, -617174.3, -834723.6, 75617.25, 0.083551444, -0.059178673, -593472.94, -41815.414, 0.0, 10.000559, 9.997695 
1.4151794e+3, 2.5370568e+2, -464708.78, -708997.7, 34612.184, -0.10940258, -0.015243511, -459899.44, -6221.788, 0.0, 10.000933, 9.997704 
1.4152226e+3, 2.6370347e+2, -303435.84, -529155.06, -9081.503, -0.17614636, -0.012317136, -303071.03, 52629.242, 0.000000079284355, 10.001143, 9.998165 
1.415267e+3, 2.737009e+2, -189316.66, -393780.1, 55901.938, -0.041398317, -0.105777964, -175030.78, 82693.836, 0.0000071917057, 10.00113, 9.9984255 
1.4153104e+3, 2.8369877e+2, -151507.23, -501368.2, 90144.875, -0.04163718, -0.07957414, -129646.52, 30099.582, 0.000065903274, 10.001474, 9.99685 
1.4153522e+3, 2.9369724e+2, 67887.75, -354262.06, 25068.73, -0.2437389, 0.09083618, 69371.21, 131134.55, 0.0002735358, 10.002344, 9.99677 
1.4153948e+3, 3.0369318e+2, 150812.53, -318287.1, -109177.2, -0.25248295, 0.041380882, 174977.38, 174977.38, 0.0007033967, 10.002716, 9.996502 
1.4154372e+3, 3.1368655e+2, 256699.36, -5096.743, -85860.05, -0.12909369, -0.29295665, 282346.03, 282346.03, 0.0013181139, 10.002297, 9.998857 
1.424618e+3, 1.236661e+2, -2013264.0, -1764372.0, 112969.42, 0.15879989, -0.10249137, -1720744.0, 7319.41, 0.010011913, 9.997534, 10.000847 
1.4246604e+3, 1.3366711e+2, -1821641.4, -1513009.5, -62915.008, 0.17562664, -0.15363325, -1500677.0, 129370.71, 0.0058154534, 9.997721, 10.001814 
1.4247017e+3, 1.4366901e+2, -1752487.5, -1540717.0, 18263.83, 0.0042313356, -0.09492393, -1539153.5, -7127.5913, 0.002423067, 9.997992, 10.000819 
1.4247467e+3, 1.5366787e+2, -1562365.5, -1409470.5, 10272.224, 0.10374278, -0.27739263, -1408783.4, 25254.727, 0.00057589856, 9.998672, 10.000718 
1.4247909e+3, 1.6366808e+2, -1438625.4, -1325796.4, 15680.322, 0.09725444, -0.29974708, -1323657.8, 12378.906, 0.00004378684, 9.998967, 10.000472 
1.4248334e+3, 1.7367072e+2, -1365461.9, -1222611.6, 6031.0894, -0.0976398, -0.091659136, -1222357.5, 15653.117, 0.00000008454083, 9.998724, 10.000625 
1.4248767e+3, 1.8367141e+2, -1372890.1, -1338243.5, -35559.46, -0.16176142, -0.007143238, -1316012.1, -176006.39, 0.0, 9.998697, 9.999173 
1.4249215e+3, 1.9366907e+2, -1216936.1, -1217367.4, -23711.066, -0.010806891, -0.15020245, -1193439.8, -151405.81, 0.0, 9.999117, 9.999126 
1.4249653e+3, 2.0366782e+2, -1073131.8, -1077566.4, 26852.52, 0.032549493, -0.18072137, -1048405.1, -104355.35, 0.0, 9.999348, 9.999302 
1.4250079e+3, 2.1366848e+2, -968551.3, -952501.3, 30241.129, -0.10844366, -0.0583584, -929238.5, -83194.5, 0.0, 9.9992895, 9.9995165 
1.4250511e+3, 2.2366801e+2, -843771.4, -942063.56, -43587.066, -0.1335873, -0.0034465976, -827227.5, -79179.2, 0.0, 9.999905, 9.998621 
1.425095e+3, 2.336658e+2, -488103.2, -716927.2, -100551.64, 0.02342906, -0.08623287, -450197.28, 199870.47, 0.0, 10.001662, 9.998648 
1.4251384e+3, 2.4366362e+2, -389464.22, -741891.0, -67976.64, 0.07659948, -0.10229348, -376807.34, 175281.42, 0.0, 10.002207, 9.997534 
1.4251807e+3, 2.5366172e+2, -483901.03, -733407.3, -24655.938, -0.046842016, -0.043929964, -481487.9, -27377.475, 0.00000000006254562, 10.000869, 9.997563 
1.425224e+3, 2.6366e+2, -367703.5, -503649.16, 579.2801, -0.09427696, -0.0038049768, -367701.03, -11572.66, 0.00000036239143, 10.000465, 9.998663 
1.4252684e+3, 2.7365878e+2, -68948.46, -268453.16, -24220.365, -0.034833875, -0.02283097, -66050.16, 192088.03, 0.000010031926, 10.00167, 9.999024 
1.4253117e+3, 2.8365692e+2, -46267.816, -472751.8, -6298.457, -0.07816897, 0.007289459, -46174.82, 113981.516, 0.00007404044, 10.002295, 9.996651 
1.425354e+3, 2.9365414e+2, -1348.8838, -420165.38, 30659.8, -0.25996968, 0.08154474, 883.69055, 63070.484, 0.00029423018, 10.002019, 9.9964695 
1.4253971e+3, 3.0365008e+2, 82633.33, -319335.44, -24903.873, -0.2520027, 0.036684282, 84170.36, 84170.36, 0.0007421981, 10.002107, 9.996787 
1.4254394e+3, 3.136437e+2, 354155.63, 94113.664, -8622.609, -0.14127263, -0.3134968, 354441.22, 354441.22, 0.0013782202, 10.002748, 9.999317 
1.4346163e+3, 1.2362285e+2, -2008923.5, -1764179.0, 132754.19, 0.22374542, 0.00040640042, -1706000.3, 22489.502, 0.010506618, 9.997569, 10.000833 
1.4346588e+3, 1.3362285e+2, -1783402.5, -1440470.5, -58867.754, 0.24070139, -0.1994029, -1430646.6, 199837.4, 0.006123269, 9.9977455, 10.002303 
1.4347012e+3, 1.4362378e+2, -1753850.0, -1558247.5, 36158.8, 0.14833131, -0.25888646, -1551777.3, -19304.982, 0.002563054, 9.998049, 10.000675 
1.4347449e+3, 1.5362564e+2, -1571275.6, -1440502.1, 38045.406, 0.052861523, -0.11581168, -1430239.1, 4217.543, 0.0006133788, 9.998725, 10.000481 
1.4347887e+3, 1.6362643e+2, -1444153.6, -1355561.5, 6058.958, -0.028153028, -0.0570893, -1355149.0, -18699.367, 0.000047750204, 9.99904, 10.000236 
1.4348322e+3, 1.7362556e+2, -1379652.4, -1258950.5, -3722.509, -0.07999941, -0.17644785, -1258835.9, -20380.045, 0.00000010052836, 9.998747, 10.000367 
1.4348759e+3, 1.8362504e+2, -1340534.3, -1271038.4, -27194.541, -0.11176485, -0.21730225, -1261661.9, -121200.91, 0.0, 9.998697, 9.999636 
1.4349194e+3, 1.936253e+2, -1175361.1, -1131686.0, -5231.9907, -0.1101698, -0.15645698, -1131068.0, -88605.33, 0.0, 9.99912, 9.999715 
1.4349632e+3, 2.0362572e+2, -1064217.0, -1059338.5, 23815.098, -0.09823308, -0.059199054, -1037838.06, -93375.57, 0.0, 9.999345, 9.999431 
1.4350078e+3, 2.136265e+2, -968725.44, -948328.06, 30117.877, -0.064109996, 0.0693681, -926728.94, -80271.266, 0.0, 9.999269, 9.999556 
1.4350517e+3, 2.2362542e+2, -923708.9, -1099886.1, 10798.175, -0.05677293, 0.10662352, -923049.5, -174579.53, 0.0, 9.9998665, 9.997559 
1.4350954e+3, 2.3362134e+2, -585285.3, -900249.75, -29869.885, -0.10796358, -0.04060118, -582477.6, 68031.53, 0.0, 10.001584, 9.997427 
1.435139e+3, 2.4361812e+2, -340669.1, -627373.3, -104836.76, -0.07863976, -0.12739033, -306424.53, 246115.2, 0.0, 10.002143, 9.998354 
1.4351831e+3, 2.5361663e+2, -406903.5, -570723.94, -71974.49, 0.09574507, -0.13930905, -379774.22, 74779.195, 0.000000006122379, 10.000856, 9.998688 
1.4352264e+3, 2.6361573e+2, -389021.25, -553674.7, 32229.77, 0.09759455, -0.06720783, -382937.3, -26374.928, 0.0000008787704, 10.000484, 9.998315 
1.4352682e+3, 2.7361584e+2, -116489.69, -355306.97, 28067.65, -0.21328644, 0.1060176, -113235.31, 145327.16, 0.000014099222, 10.001615, 9.998458 
1.4353114e+3, 2.8361386e+2, 5351.609, -346330.9, -10271.28, -0.34590653, 0.11747412, 5651.3374, 166233.58, 0.00008672284, 10.002208, 9.9975605 
1.4353572e+3, 2.9360855e+2, 65418.926, -267817.16, 25597.414, -0.14401521, -0.17425376, 67373.71, 130007.06, 0.0003265314, 10.001955, 9.997548 
1.4354013e+3, 3.036059e+2, 120849.484, -229695.11, -7056.3213, -0.041161332, -0.16348149, 120991.47, 120991.47, 0.000809197, 10.002065, 9.997423 
1.4354405e+3, 3.1360582e+2, 368969.06, 142041.61, 17677.854, -0.31955805, 0.05524815, 370337.9, 370337.9, 0.0014917563, 10.002668, 9.99969 
1.4446145e+3, 1.2357905e+2, -1982742.3, -1803959.3, 215338.78, 0.28378335, -0.03911015, -1660195.0, 68722.89, 0.011047917, 9.997979, 10.000363 
1.4446555e+3, 1.3357988e+2, -1866286.4, -1538448.0, -68645.51, 0.15978186, -0.10727111, -1524654.8, 106254.28, 0.00646129, 9.997423, 10.001785 
1.4446986e+3, 1.4357997e+2, -1876951.9, -1615138.0, 15567.084, 0.14341716, -0.21852835, -1614215.6, -81308.02, 0.0027186894, 9.9972105, 10.000677 
1.4447428e+3, 1.5358227e+2, -1700555.6, -1491303.8, 42615.395, 0.029008172, -0.041015107, -1482957.8, -48071.465, 0.0006559602, 9.997801, 10.000568 
1.4447871e+3, 1.6358304e+2, -1536901.5, -1414761.9, 21296.041, -0.053832494, 0.015201787, -1411155.3, -74276.664, 0.000052490832, 9.998476, 10.000097 
1.4448313e+3, 1.735814e+2, -1301357.5, -1238017.3, 10379.625, -0.07380207, -0.16491558, -1236359.8, 2532.5698, 0.00000012546444, 9.999366, 10.000208 
1.4448753e+3, 1.8358064e+2, -1183984.9, -1168360.3, -24198.19, -0.08594079, -0.23034169, -1150744.5, -9845.233, 0.0, 9.999654, 9.999879 
1.4449185e+3, 1.9358161e+2, -1179937.5, -1098487.6, -31203.557, -0.09692676, -0.13096273, -1087907.9, -45015.18, 0.0, 9.998937, 10.00003 
1.4449625e+3, 2.0358236e+2, -1118052.4, -1093219.4, 9258.033, -0.09123355, -0.012995335, -1090147.8, -145259.42, 0.0, 9.999017, 9.999354 
1.4450075e+3, 2.1358292e+2, -797370.1, -881442.75, 1992.0148, -0.057114176, 0.10577643, -797323.0, 49563.684, 0.0, 10.00052, 9.999411 
1.4450522e+3, 2.2358164e+2, -738925.3, -995459.8, 6461.922, -0.04713264, 0.12794799, -738762.7, 10138.117, 0.0, 10.001078, 9.9976845 
1.4450961e+3, 2.3357747e+2, -798187.3, -984232.6, 56934.23, -0.09093218, -0.044578206, -782147.06, -131207.42, 0.0, 10.000041, 9.99759 
1.4451401e+3, 2.4357423e+2, -644465.7, -771708.44, 20047.934, -0.06461472, -0.14549267, -641381.75, -88411.9, 0.0, 10.000047, 9.998373 
1.445184e+3, 2.5357282e+2, -251989.55, -498212.03, -33539.492, 0.07310547, -0.15155074, -247502.69, 207480.55, 0.000000012932129, 10.001922, 9.998677 
1.4452274e+3, 2.6357186e+2, -94656.84, -430144.13, 19984.438, 0.064690486, -0.073164, -93470.6, 263522.2, 0.0000016431604, 10.002584, 9.99815 
1.4452696e+3, 2.735719e+2, -181261.38, -406198.78, 31885.762, -0.20362103, 0.10805023, -176828.78, 82165.61, 0.000019264668, 10.001255, 9.99828 
1.4453128e+3, 2.835699e+2, -190403.13, -388896.13, 14043.139, -0.32106003, 0.10693639, -189414.52, -28400.19, 0.0001032448, 10.000645, 9.998018 
1.4453584e+3, 2.9356483e+2, 11254.374, -229184.81, 8498.959, -0.16641916, -0.2185115, 11554.417, 74616.36, 0.00037109866, 10.001306, 9.998123 
1.445403e+3, 3.0356318e+2, 98433.72, -255130.22, -42690.777, -0.063596554, -0.13524541, 103515.34, 103515.34, 0.0009072359, 10.001981, 9.997292 
1.4454438e+3, 3.1356385e+2, 338946.5, 70744.555, -87445.85, -0.24064578, 0.18961771, 364938.78, 364938.78, 0.0016634632, 10.002726, 9.999168 
1.4546126e+3, 1.2353497e+2, -2036772.8, -1940049.8, 174599.52, 0.29073864, -0.23500541, -1807237.8, -77893.36, 0.011640448, 9.998076, 9.999383 
1.4546503e+3, 1.3353857e+2, -1982641.9, -1784475.3, -87874.35, -0.10420418, 0.1383786, -1751122.1, -119803.234, 0.0068325973, 9.997443, 10.000085 
1.4546938e+3, 1.4353801e+2, -1869416.8, -1602953.3, 24647.75, -0.053197145, 0.05620798, -1600692.5, -67363.9, 0.0028915813, 9.99722, 10.00076 
1.4547403e+3, 1.5353784e+2, -1671887.5, -1430104.3, 66224.53, 0.0076582045, -0.053406432, -1413153.6, 22172.857, 0.00070428615, 9.997793, 10.000993 
1.454786e+3, 1.6353789e+2, -1532090.4, -1413784.5, 50894.965, 0.0007628378, -0.09288588, -1394903.0, -57579.535, 0.000058062662, 9.9985075, 10.0000925 
1.4548303e+3, 1.7353834e+2, -1301322.5, -1247711.9, 47329.508, -0.09932305, -0.055896163, -1220124.1, 19195.086, 0.00000016567238, 9.999401, 10.000129 
1.4548746e+3, 1.835384e+2, -1179734.9, -1166039.0, -46103.35, -0.11571791, -0.03522591, -1126277.8, 15041.089, 0.0, 9.999683, 9.999881 
1.4549184e+3, 1.9353804e+2, -1179927.5, -1099589.5, -57798.395, 0.008939759, -0.06792812, -1069372.4, -26049.232, 0.0, 9.998943, 10.000019 
1.4549626e+3, 2.0353773e+2, -1141167.1, -1137570.3, 49704.125, 0.035759665, -0.04288363, -1089632.0, -144304.33, 0.0, 9.998999, 9.99906 
1.4550075e+3, 2.1353772e+2, -823896.0, -928826.7, 61817.23, -0.108610615, 0.050248865, -795281.25, 52049.52, 0.0, 10.000486, 9.999101 
1.4550523e+3, 2.2353671e+2, -655043.4, -816680.5, -22139.16, -0.13600951, 0.06364462, -652065.9, 97274.59, 0.0, 10.001053, 9.998927 
1.4550975e+3, 2.335342e+2, -696377.25, -768163.6, 18627.42, 0.045048386, -0.0915352, -691831.56, -40471.96, 0.0, 10.000021, 9.9990835 
1.4551418e+3, 2.4353188e+2, -695886.94, -877453.4, 72038.89, 0.08904205, -0.15510757, -670777.1, -117396.95, 0.0, 10.000038, 9.997653 
1.455184e+3, 2.535301e+2, -338165.38, -660256.9, 41375.477, -0.12193858, -0.08796293, -332935.25, 122465.77, 0.000000017460069, 10.001849, 9.9976 
1.4552273e+3, 2.6352847e+2, -108034.27, -440591.4, -15757.08, -0.20686978, -0.019691566, -107289.35, 250130.44, 0.000002726617, 10.002504, 9.998118 
1.4552723e+3, 2.73527e+2, -178311.25, -389264.0, -15867.49, -0.05985601, -0.0016763987, -177124.39, 82309.586, 0.000025068905, 10.001207, 9.998418 
1.4553161e+3, 2.8352502e+2, -183109.38, -374269.94, 27161.863, -0.059852514, -0.0117238965, -179324.89, -17872.0, 0.00012308941, 10.000643, 9.998122 
1.4553581e+3, 2.9352263e+2, 18891.688, -214744.19, 38680.277, -0.3189634, -0.07828484, 25128.998, 88604.54, 0.00042673646, 10.001307, 9.998225 
1.4554025e+3, 3.0352166e+2, 42590.414, -371857.78, -16598.426, -0.3086691, 0.097083725, 43254.11, 43254.11, 0.0010330351, 10.001978, 9.996492 
1.4554489e+3, 3.1351855e+2, 222933.42, -151387.53, -51895.887, -0.009425698, 0.14283209, 229995.05, 229995.05, 0.001889468, 10.002636, 9.997687 
1.4646094e+3, 1.23490684e+2, -2166288.0, -1947928.1, -16195.848, 0.220526, -0.22649364, -1946733.4, -216950.63, 0.012283002, 9.99696, 9.999861 
1.4646475e+3, 1.3349494e+2, -1901923.5, -1769867.3, -136651.72, -0.1439011, 0.22909525, -1684127.8, -52376.88, 0.00723705, 9.99811, 9.999859 
1.4646927e+3, 1.4349389e+2, -1659570.8, -1515576.0, 35964.87, 0.04548159, 0.11684447, -1507093.0, 26672.496, 0.0030819494, 9.99872, 10.000635 
1.4647382e+3, 1.5349315e+2, -1601820.3, -1408252.6, 33415.777, 0.008135646, -0.040743906, -1402646.4, 33122.117, 0.0007585455, 9.99832, 10.000893 
1.4647838e+3, 1.634932e+2, -1585315.0, -1431781.3, 17379.006, -0.042388402, -0.07663949, -1429838.6, -92072.9, 0.00006440502, 9.998117, 10.000154 
1.4648293e+3, 1.7349458e+2, -1430526.3, -1298399.0, 22163.979, -0.08263402, 0.045807637, -1294780.1, -55026.836, 0.00000022299002, 9.998474, 10.000222 
1.4648741e+3, 1.834949e+2, -1317286.6, -1259043.1, -92773.664, -0.06963305, 0.095479354, -1190927.9, -49176.59, 0.0, 9.998859, 9.999637 
1.4649177e+3, 1.9349355e+2, -1153578.1, -1119453.5, -136688.88, 0.02353737, -0.0035457897, -998766.2, 44998.453, 0.0, 9.999269, 9.999723 
1.4649616e+3, 2.0349257e+2, -1038408.06, -1054851.8, 14157.548, 0.027566994, -0.03979009, -1030258.1, -84483.92, 0.0, 9.99956, 9.999356 
1.4650072e+3, 2.1349245e+2, -913608.94, -928273.56, 78418.1, -0.12594761, 0.0028605554, -842181.1, 5593.977, 0.0, 9.999677, 9.999498 
1.4650527e+3, 2.2349174e+2, -783703.5, -863126.75, -31966.707, -0.15294126, 0.018058302, -772435.9, -22655.195, 0.0, 10.000106, 9.999065 
1.465098e+3, 2.3349017e+2, -523797.84, -676140.1, -104759.91, 0.033772945, -0.048589658, -470444.16, 181349.11, 0.0, 10.001168, 9.999166 
1.4651424e+3, 2.4348845e+2, -478629.2, -767158.9, -67129.305, 0.08050318, -0.056615658, -463775.56, 90034.28, 0.0, 10.001515, 9.997696 
1.4651851e+3, 2.5348672e+2, -498887.63, -732580.56, -23345.582, -0.12930822, 0.009580877, -496578.25, -40747.793, 0.000000044837254, 10.000725, 9.997642 
1.4652288e+3, 2.634847e+2, -407485.6, -578618.06, -53570.02, -0.19689867, 0.03787804, -392099.72, -34247.82, 0.0000038968087, 10.00043, 9.998167 
1.4652736e+3, 2.7348226e+2, -191075.0, -390836.44, -69607.94, -0.02034189, -0.044175114, -169212.45, 90661.0, 0.000030358568, 10.001098, 9.998464 
1.4653178e+3, 2.8348014e+2, -30890.375, -310116.4, 497.58798, -0.006199427, -0.06965243, -30889.488, 131003.586, 0.00014178392, 10.001731, 9.998038 
1.4653605e+3, 2.9347903e+2, 171385.03, -152145.03, -8362.675, -0.27041897, 0.009371924, 171601.05, 235504.92, 0.0004830399, 10.002413, 9.998118 
1.465405e+3, 3.0347806e+2, 158047.94, -313865.0, -59800.32, -0.2843487, 0.1884014, 165507.84, 165507.84, 0.0011688304, 10.002764, 9.996508 
1.4654511e+3, 3.1347272e+2, 167777.61, -223891.36, -41664.41, -0.020980358, 0.009628632, 172160.67, 172160.67, 0.0021412966, 10.002446, 9.99728 
1.4746042e+3, 1.234467e+2, -2011686.5, -1634688.4, -34797.277, -0.006686643, 0.05609854, -1631503.4, 98726.48, 0.012969953, 9.996979, 10.002013 
1.4746475e+3, 1.3344885e+2, -1787778.6, -1550846.1, -86799.586, 0.044554453, 0.14609216, -1522450.5, 109755.91, 0.0076708426, 9.998178, 10.001336 
1.4746955e+3, 1.4344749e+2, -1669882.6, -1561578.8, 25359.094, 0.44773224, -0.0668132, -1555935.1, -21716.596, 0.0032881629, 9.998822, 10.000272 
1.4747366e+3, 1.5344827e+2, -1645897.8, -1505822.0, 17075.623, 0.015322221, -0.004265563, -1503770.5, -67559.18, 0.00081847684, 9.998347, 10.000208 
1.4747801e+3, 1.6344915e+2, -1577305.0, -1421492.1, 20690.156, -0.22005615, 0.080477156, -1418791.5, -80588.086, 0.000071419374, 9.998138, 10.0002165 
1.4748283e+3, 1.7345014e+2, -1412564.6, -1265645.5, 36812.637, -0.04345153, 0.14219113, -1256937.8, -16743.063, 0.0000002932695, 9.998487, 10.000443 
1.474874e+3, 1.8345003e+2, -1347881.3, -1325784.1, -79906.88, 0.035085406, 0.15672383, -1256165.6, -113968.61, 0.0, 9.998872, 9.999174 
1.4749157e+3, 1.9344817e+2, -1193383.4, -1204856.4, -118677.01, -0.08073324, 0.06256799, -1080304.4, -36087.574, 0.0, 9.999279, 9.999134 
1.4749594e+3, 2.0344695e+2, -979540.0, -933436.2, 14379.118, -0.15159568, 0.00037806088, -929319.2, 16908.244, 0.0, 9.99956, 10.000193 
1.4750066e+3, 2.1344715e+2, -842758.56, -772805.1, 84040.96, -0.13018893, -0.029972285, -716753.0, 131466.06, 0.0, 9.999641, 10.000582 
1.4750531e+3, 2.2344676e+2, -857395.6, -1007244.0, 276.21637, -0.11891253, -0.0042679706, -857395.1, -107174.18, 0.0, 10.000062, 9.998099 
1.4750972e+3, 2.334455e+2, -624200.7, -870936.3, -60380.78, -0.14028391, 0.08562933, -610216.94, 42022.734, 0.0, 10.001111, 9.997855 
1.4751418e+3, 2.4344407e+2, -432273.06, -666675.75, -88182.1, -0.113591574, 0.15367725, -402803.88, 151453.56, 0.0, 10.001489, 9.998403 
1.4751871e+3, 2.5344262e+2, -429105.53, -581300.3, -49368.79, 0.009918342, 0.14391582, -414494.1, 41776.92, 0.000000082863835, 10.000696, 9.998695 
1.4752315e+3, 2.6344058e+2, -399772.13, -562898.25, -36720.773, 0.046291035, 0.10594174, -391887.2, -33598.277, 0.0000048986644, 10.000428, 9.998276 
1.475274e+3, 2.7343762e+2, -196957.31, -397182.0, -38255.043, -0.09329191, -0.025660044, -189897.23, 70415.95, 0.00003468843, 10.001076, 9.998427 
1.4753179e+3, 2.8343517e+2, -59221.29, -364205.78, 23469.207, -0.16351609, -0.06436978, -57425.85, 104908.79, 0.00015695216, 10.001703, 9.997684 
1.4753646e+3, 2.9343408e+2, 133340.52, -217860.66, 23520.14, -0.08244087, 0.052395903, 134908.67, 199255.13, 0.00053465937, 10.00235, 9.997699 
1.47541e+3, 3.0343246e+2, 198629.19, -209913.23, -63883.7, -0.05132482, 0.15746763, 208385.67, 208385.67, 0.0012992219, 10.002682, 9.997259 
1.4754511e+3, 3.1342655e+2, 193873.86, -147456.98, -44524.574, -0.2715887, -0.17328596, 199586.23, 199586.23, 0.0023789227, 10.002359, 9.997843 
1.4846006e+3, 1.234017e+2, -2049956.5, -1527192.4, 19398.318, 0.0017012063, 0.1718256, -1526473.5, 204206.64, 0.013700781, 9.996171, 10.003152 
1.4846452e+3, 1.334033e+2, -1845508.1, -1501301.9, -41786.1, 0.03541229, 0.13112777, -1496301.8, 136354.39, 0.00813248, 9.997443, 10.002038 
1.4846942e+3, 1.4340246e+2, -1744205.1, -1624012.1, -3453.8435, 0.4788341, -0.059879407, -1623913.0, -89251.99, 0.0035089266, 9.998439, 10.000022 
1.4847353e+3, 1.5340337e+2, -1594154.6, -1525009.9, -3935.2073, 0.03401977, 0.05419868, -1524786.6, -88131.72, 0.0008836724, 9.998903, 9.999803 
1.4847785e+3, 1.6340408e+2, -1448496.8, -1353473.1, 17273.844, -0.22390582, 0.14620519, -1350430.4, -11780.8545, 0.00007901186, 9.999006, 10.00026 
1.4848262e+3, 1.7340453e+2, -1395026.0, -1241534.6, 21074.758, -0.08740584, 0.14001417, -1238693.6, 1951.1611, 0.00000037325287, 9.998548, 10.000577 
1.4848723e+3, 1.8340436e+2, -1372336.9, -1318335.4, -49227.53, -0.02098432, 0.13479257, -1289190.0, -146543.3, 0.0, 9.998623, 9.999344 
1.4849149e+3, 1.9340338e+2, -1106484.9, -1142049.0, -30847.285, -0.10902596, 0.10960591, -1088661.4, -44003.34, 0.0, 9.999787, 9.999318 
1.4849594e+3, 2.0340247e+2, -873455.75, -915904.56, 75647.68, -0.14796995, 0.08064087, -816111.44, 130554.555, 0.0, 10.000442, 9.999883 
1.4850068e+3, 2.134019e+2, -800770.9, -798065.8, 22766.145, -0.096362464, 0.012428721, -776612.06, 72053.78, 0.0, 10.000129, 10.000171 
1.4850533e+3, 2.2340111e+2, -869100.56, -995208.06, -62017.082, -0.083122924, 0.015090543, -843712.9, -93040.555, 0.0, 9.999914, 9.998246 
1.4850976e+3, 2.3340017e+2, -766469.0, -912464.5, -15234.715, -0.15712334, 0.11410661, -764896.2, -112208.14, 0.0, 10.000018, 9.998093 
1.4851423e+3, 2.4339902e+2, -565728.75, -703561.06, -1547.147, -0.14850897, 0.18447472, -565711.4, -11008.412, 0.0, 10.000456, 9.998644 
1.4851882e+3, 2.5339773e+2, -288468.38, -485013.9, -28779.152, 0.005769264, 0.16849284, -284341.06, 172372.98, 0.00000011463164, 10.001541, 9.998949 
1.4852329e+3, 2.6339588e+2, -141446.03, -441428.9, -42823.566, 0.058532417, 0.13282812, -135452.56, 223277.34, 0.000005857849, 10.002218, 9.998248 
1.4852756e+3, 2.733931e+2, -33259.77, -327824.97, -54335.793, -0.08551014, 0.029466657, -23556.566, 237195.53, 0.000039061, 10.002242, 9.9983425 
1.4853199e+3, 2.8339046e+2, -5834.8594, -343156.16, 13267.952, -0.14604284, -0.021049928, -5313.7925, 157461.23, 0.00017242816, 10.002097, 9.997634 
1.485367e+3, 2.9338837e+2, 34818.42, -274572.7, 28275.092, -0.046128698, 0.0027280694, 37381.24, 102177.266, 0.00058650563, 10.001704, 9.997624 
1.4854124e+3, 3.0338645e+2, 128763.8, -176690.63, -29483.244, -0.03128969, 0.055253465, 131583.56, 131583.56, 0.0014188082, 10.001908, 9.997863 
1.4854537e+3, 3.1338343e+2, 350216.38, -15125.3955, -43191.086, -0.2740491, -0.053936772, 355253.03, 355253.03, 0.0025795163, 10.003197, 9.998348 
1.4945991e+3, 1.23355955e+2, -2053277.3, -1545183.0, 1889.1249, 0.23131795, 0.11327731, -1545176.0, 185953.78, 0.014485426, 9.996219, 10.003004 
1.49464e+3, 1.3335858e+2, -1864755.5, -1534334.3, 11259.651, -0.20912416, 0.1938173, -1533951.0, 99146.47, 0.008627366, 9.99742, 10.001817 
1.4946885e+3, 1.4335914e+2, -1750066.9, -1644432.1, 16776.55, 0.06216806, 0.1656925, -1641831.8, -106742.414, 0.0037456865, 9.998463, 9.999877 
1.4947343e+3, 1.5335858e+2, -1592646.4, -1535506.6, 16896.205, 0.033172563, 0.1421921, -1530884.3, -93786.83, 0.0009542572, 9.998956, 9.999708 
1.4947791e+3, 1.6335808e+2, -1438933.8, -1350529.5, 1389.8958, -0.06323022, 0.116256945, -1350507.6, -11404.48, 0.00008722728, 9.999076, 10.000249 
1.4948231e+3, 1.7335773e+2, -1394136.1, -1242210.4, 3442.3672, -0.23557891, 0.032897998, -1242132.5, -1028.9957, 0.0000004647829, 9.998558, 10.000569 
1.4948681e+3, 1.8335788e+2, -1312375.8, -1199016.5, -18001.498, -0.2767793, 0.026133414, -1196226.5, -53126.273, 0.0, 9.998638, 10.000157 
1.4949149e+3, 1.9335926e+2, -1035247.9, -999731.4, 16131.1, -0.08556142, 0.14000079, -993498.6, 51589.066, 0.0, 9.999807, 10.000288 
1.4949614e+3, 2.0335922e+2, -974333.75, -1126055.3, 68974.19, 0.01752946, 0.20269214, -947665.0, -575.8566, 0.0, 10.000442, 9.998442 
1.4950074e+3, 2.1335675e+2, -936985.1, -1075548.8, 12971.783, -0.045249823, 0.13047944, -935781.2, -86666.27, 0.0, 10.000106, 9.998277 
1.4950532e+3, 2.2335482e+2, -791464.75, -832338.1, -64405.063, -0.076400064, 0.080972925, -744331.7, 6802.7095, 0.0, 9.999902, 9.999373 
1.4950986e+3, 2.3335418e+2, -653758.8, -666867.9, -9355.516, -0.044177968, 0.048146527, -648890.25, 4248.1387, 0.0, 9.999969, 9.999804 
1.4951436e+3, 2.433533e+2, -586627.75, -734189.2, 30467.756, -0.05405457, 0.053154845, -580584.44, -25438.088, 0.0, 10.000399, 9.998463 
1.4951882e+3, 2.5335208e+2, -336657.78, -567045.9, 16161.31, -0.15155703, 0.09137908, -335529.63, 121630.31, 0.00000015644366, 10.001466, 9.998421 
1.4952327e+3, 2.6335052e+2, -163016.19, -473165.03, -37504.094, -0.16993618, 0.12678726, -158545.53, 200629.66, 0.000006865855, 10.002155, 9.998063 
1.4952783e+3, 2.733486e+2, -52360.89, -351830.88, -49755.5, -0.034130078, 0.12018614, -44310.656, 216880.2, 0.000043952572, 10.002174, 9.998211 
1.4953233e+3, 2.833459e+2, -3509.126, -323648.44, -1735.1399, 0.0015310063, 0.06514572, -3499.722, 159715.0, 0.00018902046, 10.002032, 9.9978 
1.4953674e+3, 2.9334193e+2, 44853.152, -242212.69, 19325.475, -0.16164215, -0.12212926, 46148.313, 111400.414, 0.000634646, 10.001659, 9.997866 
1.4954123e+3, 3.0333993e+2, 150847.73, -127505.39, 8681.999, -0.22283985, -0.10664763, 151118.27, 151118.27, 0.0015128606, 10.001887, 9.998213 
1.4954583e+3, 3.1334257e+2, 366989.72, 35885.11, 12190.26, -0.13408148, 0.30993295, 367437.9, 367437.9, 0.002719553, 10.003126, 9.998732 
1.5045962e+3, 1.2331096e+2, -1965170.3, -1614986.1, 1670.7336, 0.27453762, 0.128559, -1614978.1, 116590.96, 0.015336173, 9.997317, 10.001986 
1.5046373e+3, 1.3331242e+2, -1789513.3, -1605000.6, 2689.6277, -0.25538495, 0.18724376, -1604961.4, 28590.707, 0.0091627855, 9.998402, 10.000854 
1.5046857e+3, 1.4331314e+2, -1681178.1, -1588791.9, -50361.098, -0.05690549, 0.22490318, -1566647.3, -31103.164, 0.0040015904, 9.998842, 10.000073 
1.5047325e+3, 1.533127e+2, -1667554.1, -1525026.4, -26277.635, 0.014398465, 0.1733583, -1520336.0, -82786.62, 0.001031135, 9.998237, 10.000131 
1.504778e+3, 1.6331221e+2, -1564285.5, -1396630.4, 328.7573, -0.029284492, 0.11991314, -1396629.8, -57076.33, 0.000096309515, 9.998157, 10.000375 
1.504822e+3, 1.7331176e+2, -1294759.8, -1185443.9, 6261.0073, -0.23986267, 0.017210253, -1185086.5, 56467.523, 0.000000575819, 9.999203, 10.000647 
1.5048671e+3, 1.8331186e+2, -1148220.1, -1125384.8, -25853.334, -0.2946149, 0.0042529823, -1108540.1, 35010.785, 0.0, 9.999799, 10.000098 
1.5049146e+3, 1.9331332e+2, -1075552.6, -1028199.2, -76467.26, -0.07523664, 0.13461256, -971827.0, 73711.445, 0.0, 9.9995775, 10.000199 
1.5049616e+3, 2.0331337e+2, -1092150.3, -1191230.0, -33445.543, 0.037871554, 0.21667135, -1081917.1, -134377.2, 0.0, 9.999677, 9.998361 
1.5050074e+3, 2.1331106e+2, -890598.1, -1060747.5, 36991.71, -0.056280114, 0.16994733, -882903.8, -33338.375, 0.0, 10.000462, 9.998205 
1.5050533e+3, 2.2330922e+2, -642599.3, -745507.94, 3554.7537, -0.08792791, 0.12933083, -642476.6, 109107.51, 0.0, 10.000864, 9.999505 
1.5050992e+3, 2.3330857e+2, -553776.7, -599085.25, -60164.87, -0.0026687828, 0.073357776, -512142.34, 141444.97, 0.0, 10.000572, 9.999978 
1.5051444e+3, 2.433077e+2, -574503.56, -711722.7, -46002.926, -0.0077654743, 0.06561737, -560508.4, -4914.2803, 0.0, 10.000425, 9.998597 
1.5051886e+3, 2.5330663e+2, -444233.84, -605649.56, -20467.178, -0.19593574, 0.108586736, -441679.06, 15927.033, 0.00000020302433, 10.000675, 9.998533 
1.5052335e+3, 2.63305e+2, -358260.1, -589178.8, -59840.824, -0.24002396, 0.14322028, -343674.13, 15948.197, 0.0000077496, 10.000917, 9.997857 
1.50528e+3, 2.733028e+2, -213514.0, -461889.88, -90897.016, -0.018192545, 0.13204272, -183802.9, 77840.27, 0.000048343012, 10.001203, 9.997924 
1.5053256e+3, 2.8330025e+2, -52276.406, -312171.5, -41044.777, 0.054831877, 0.09864312, -45948.355, 117717.95, 0.00020365651, 10.001552, 9.998107 
1.5053691e+3, 2.932974e+2, 139860.08, -147083.8, -17636.947, -0.1688021, -0.017452512, 140940.06, 206631.72, 0.0006716893, 10.002112, 9.998295 
1.5054142e+3, 3.0329508e+2, 239955.73, -129171.86, -9561.576, -0.24213338, -0.043870095, 240203.23, 240203.23, 0.0015705773, 10.002694, 9.997814 
1.5054624e+3, 3.132965e+2, 363117.03, -12579.582, -68038.805, -0.035935797, 0.31177405, 375059.28, 375059.28, 0.0027837143, 10.0032835, 9.998333 
1.5145911e+3, 1.2326707e+2, -2091443.8, -1906322.3, -10537.095, 0.03264723, 0.23446646, -1905724.4, -173730.25, 0.016257107, 9.997445, 9.999916 
1.5146372e+3, 1.3326488e+2, -1904293.6, -1858676.5, 46498.625, -0.10364486, 0.106509455, -1829693.6, -195674.31, 0.009740974, 9.998467, 9.999079 
1.5146866e+3, 1.4326432e+2, -1636574.6, -1518216.0, -69004.82, 0.13353631, 0.101837754, -1486489.5, 49536.902, 0.0042781597, 9.998928, 10.000523 
1.5147302e+3, 1.532657e+2, -1599796.6, -1386895.3, -50407.695, -0.035372436, 0.14204465, -1375563.6, 62446.96, 0.0011151112, 9.998245, 10.001076 
1.5147747e+3, 1.6326664e+2, -1541276.6, -1353750.4, 27691.494, -0.16293979, 0.16539118, -1349746.8, -9748.08, 0.000106548556, 9.998171, 10.000664 
1.5148222e+3, 1.7326677e+2, -1277248.6, -1158808.0, 49785.156, -0.11984667, 0.10149631, -1140661.6, 101332.914, 0.0000007145684, 9.99924, 10.000813 
1.514869e+3, 1.8326643e+2, -1208613.1, -1263443.4, -29129.264, -0.08449448, 0.074407466, -1196027.0, -52029.668, 0.0, 9.99985, 9.999128 
1.5149139e+3, 1.9326557e+2, -1160209.4, -1205736.1, -85040.89, -0.09401429, 0.094859876, -1094938.0, -48928.18, 0.0, 9.999584, 9.998979 
1.5149598e+3, 2.032649e+2, -1007268.2, -1014120.8, -15076.271, -0.11616773, 0.12430915, -995233.8, -47215.223, 0.0, 9.999667, 9.999584 
1.515007e+3, 2.1326488e+2, -773138.4, -811016.4, 68814.64, -0.15143636, 0.13639411, -720704.1, 129312.945, 0.0, 10.000433, 9.999936 
1.5150537e+3, 2.2326441e+2, -703691.4, -863524.5, -3390.9214, -0.14262277, 0.16369537, -703619.5, 48401.773, 0.0, 10.000825, 9.998715 
1.5150993e+3, 2.3326327e+2, -651721.0, -792093.6, -67749.875, -0.055543136, 0.18818985, -624356.5, 29677.848, 0.0, 10.00053, 9.9986725 
1.5151446e+3, 2.4326216e+2, -554052.2, -664048.6, -42823.492, -0.042047307, 0.21887606, -539346.3, 16699.758, 0.0, 10.000397, 9.998941 
1.5151896e+3, 2.5326133e+2, -400545.78, -508810.28, -7245.435, -0.16033673, 0.22075841, -400063.03, 57989.74, 0.00000026346208, 10.000646, 9.999215 
1.5152349e+3, 2.632594e+2, -379303.06, -625946.75, -49693.15, -0.18943392, 0.18961172, -369667.44, -9596.215, 0.0000083363275, 10.000887, 9.99762 
1.5152808e+3, 2.732557e+2, -248647.78, -524909.6, -73163.445, -0.05482437, 0.074927606, -230467.98, 31640.365, 0.000050807932, 10.001166, 9.997506 
1.5153264e+3, 2.8325358e+2, -25908.807, -258731.95, -21783.873, -0.007243588, 0.08827969, -23888.156, 140241.06, 0.00021498118, 10.001549, 9.99848 
1.5153717e+3, 2.9325446e+2, 179268.72, -67263.96, 6884.1436, -0.11423595, 0.29113248, 179460.8, 245578.56, 0.0006995247, 10.002116, 9.998844 
1.515418e+3, 3.0325153e+2, 162130.22, -284004.06, 9560.783, -0.14099672, 0.2210365, 162335.02, 162335.02, 0.0016002683, 10.002668, 9.996762 
1.515466e+3, 3.132458e+2, 279799.94, -152786.34, -29511.016, -0.013545881, -0.01125136, 281803.9, 281803.9, 0.0027856557, 10.003157, 9.997424 
1.5245882e+3, 1.232199e+2, -1926284.3, -1848681.9, -192436.64, -0.06292976, 0.23435602, -1691173.6, 41283.305, 0.017244658, 9.998679, 9.999717 
1.5246363e+3, 1.3321795e+2, -1923708.3, -1849475.4, 37402.582, -0.019813221, 0.11406168, -1833898.5, -199417.92, 0.010359608, 9.998252, 9.999248 
1.5246855e+3, 1.4321731e+2, -1768625.9, -1573723.0, -12710.451, 0.17672418, 0.09126697, -1572897.5, -36409.477, 0.0045741852, 9.998001, 10.000582 
1.5247284e+3, 1.5321855e+2, -1585779.4, -1374856.6, -68225.875, -0.036335755, 0.1107093, -1354712.0, 83760.08, 0.0012060112, 9.998323, 10.001118 
1.524773e+3, 1.632195e+2, -1507203.0, -1358943.9, -18856.707, -0.16583902, 0.14051576, -1356583.1, -16122.962, 0.000118081814, 9.9985075, 10.0004635 
1.5248218e+3, 1.7322005e+2, -1395776.5, -1242498.3, -30610.674, -0.051360924, 0.14642267, -1236611.1, 5843.5093, 0.0000008766353, 9.99855, 10.0005665 
1.5248692e+3, 1.8321988e+2, -1344180.6, -1305265.0, -99690.98, 0.006145536, 0.14252603, -1223150.6, -78693.5, 0.0, 9.998822, 9.999337 
1.5249135e+3, 1.9321868e+2, -1134922.4, -1159879.1, -48683.098, -0.088390425, 0.09950259, -1097143.9, -50672.973, 0.0, 9.99961, 9.999283 
1.524959e+3, 2.0321785e+2, -910051.75, -950617.2, 73064.08, -0.15661114, 0.08941462, -854507.4, 93972.25, 0.0, 10.000267, 9.999727 
1.5250072e+3, 2.1321805e+2, -728240.56, -778166.4, 33237.105, -0.16260572, 0.11313113, -711636.06, 138839.66, 0.0, 10.000695, 10.000032 
1.5250546e+3, 2.232177e+2, -702079.94, -872264.5, -113501.18, -0.13033667, 0.15336306, -645315.9, 107162.9, 0.0, 10.000881, 9.998624 
1.5250999e+3, 2.332166e+2, -646810.06, -804169.4, -106787.1, -0.03947979, 0.19301607, -592847.44, 61645.176, 0.0, 10.000627, 9.998541 
1.5251449e+3, 2.4321549e+2, -519887.25, -631990.0, -12799.163, -0.033311594, 0.22440793, -518444.5, 38060.082, 0.0, 10.000561, 9.999085 
1.5251899e+3, 2.5321466e+2, -347082.97, -457995.56, -10664.565, -0.1944932, 0.20679179, -346066.84, 112443.016, 0.0000003530132, 10.000905, 9.999439 
1.5252355e+3, 2.6321286e+2, -284363.2, -545373.25, -46492.004, -0.2286391, 0.16278033, -276329.16, 84196.85, 0.00000861748, 10.0013895, 9.997933 
1.5252827e+3, 2.7320948e+2, -84056.7, -407582.16, -23960.53, -0.02111812, 0.044390514, -82291.8, 180267.98, 0.000051456984, 10.002135, 9.997846 
1.5253292e+3, 2.8320742e+2, 102854.87, -271127.66, 33009.203, 0.066136524, 0.07494884, 105746.04, 270326.66, 0.00022517524, 10.00276, 9.997812 
1.5253745e+3, 2.93208e+2, 274610.72, -124551.15, -42099.582, -0.090202734, 0.33599612, 279002.63, 345578.8, 0.00072377286, 10.00321, 9.9979315 
1.5254208e+3, 3.0320457e+2, 269452.5, -216116.77, -73023.664, -0.14938678, 0.26656902, 280196.66, 280196.66, 0.0016157482, 10.003339, 9.996908 
1.5254691e+3, 3.1319848e+2, 301889.8, -53350.15, -9418.886, 0.015018378, -0.03402456, 302139.38, 302139.38, 0.002755975, 10.002919, 9.998227 
1.5345874e+3, 1.2316911e+2, -1774012.9, -1567152.6, -231224.17, -0.024210608, 0.10865753, -1417279.8, 315682.53, 0.018294634, 9.998816, 10.001614 
1.5346344e+3, 1.3317186e+2, -1752283.4, -1503947.4, 19784.74, -0.02650798, 0.22652385, -1502381.0, 132552.58, 0.011016667, 9.998282, 10.001618 
1.5346819e+3, 1.4317259e+2, -1791997.1, -1625313.0, -6218.4326, 0.025372313, 0.21509942, -1625081.4, -88157.1, 0.0048880493, 9.9980135, 10.000224 
1.5347269e+3, 1.5317142e+2, -1651190.3, -1511361.8, -51969.008, -0.008858959, 0.08509229, -1494162.4, -55230.293, 0.0013030368, 9.99833, 10.000177 
1.5347725e+3, 1.631708e+2, -1555427.8, -1470829.3, -20509.049, -0.050409164, 0.04738996, -1466119.5, -125182.04, 0.00013086536, 9.998551, 9.999677 
1.5348202e+3, 1.7317161e+2, -1448211.1, -1353975.6, -29463.625, -0.04987917, 0.15357593, -1345521.9, -102587.4, 0.0000010420176, 9.998557, 9.999801 
1.5348673e+3, 1.831722e+2, -1244351.1, -1100910.5, -78289.75, -0.0559331, 0.21431352, -1066456.0, 78474.516, 0.0, 9.998832, 10.000735 
1.534913e+3, 1.9317263e+2, -1000220.56, -883582.3, -15782.219, -0.085777335, 0.15049383, -881484.56, 165436.6, 0.0, 9.999621, 10.001174 
1.5349598e+3, 2.0317227e+2, -975181.7, -1088047.0, 87974.305, -0.108985774, 0.11226699, -927095.8, 21826.355, 0.0, 10.000271, 9.998784 
1.5350084e+3, 2.1317059e+2, -842834.3, -1009748.25, 51778.125, -0.111654006, 0.098875426, -828077.06, 22863.955, 0.0, 10.000666, 9.998457 
1.535056e+3, 2.2316916e+2, -671667.06, -798502.1, -120892.39, -0.07947985, 0.10130549, -598568.06, 154388.44, 0.0, 10.000832, 9.999156 
1.535101e+3, 2.3316856e+2, -582130.56, -660960.75, -114276.3, 0.02197206, 0.09651256, -500662.94, 154298.83, 0.0, 10.000587, 9.999544 
1.5351456e+3, 2.4316773e+2, -526607.5, -637237.7, -6840.3105, -0.011901958, 0.0970678, -526186.2, 30782.688, 0.0, 10.000523, 9.999068 
1.5351894e+3, 2.5316668e+2, -369731.34, -496307.16, 5965.5376, -0.31553763, 0.076832525, -369450.78, 89526.22, 0.0000004707298, 10.000868, 9.999194 
1.5352353e+3, 2.6316538e+2, -235026.11, -434770.25, -23505.672, -0.379829, 0.06771085, -232297.27, 128690.09, 0.000008627056, 10.00135, 9.9987135 
1.5352854e+3, 2.7316394e+2, -23021.688, -265306.0, 5108.9946, 0.04212355, 0.043101396, -22914.002, 240085.25, 0.00005220266, 10.002069, 9.998854 
1.5353335e+3, 2.8316176e+2, -21989.553, -513629.56, 47719.7, 0.22469053, 0.07039521, -17400.604, 147621.08, 0.00023559046, 10.002683, 9.996187 
1.5353775e+3, 2.9315844e+2, 116168.82, -445550.28, -17163.457, -0.10768761, 0.15445612, 116692.766, 183755.88, 0.0007465957, 10.003172, 9.995745 
1.5354228e+3, 3.031546e+2, 339854.3, -62982.34, -79868.72, -0.26971713, 0.12945826, 355111.66, 355111.66, 0.0016288373, 10.003309, 9.997975 
1.5354718e+3, 3.131537e+2, 444486.72, 270518.16, -9147.486, -0.013197197, 0.16704072, 444966.38, 444966.38, 0.002728013, 10.002806, 10.000509 
1.5445852e+3, 1.2312045e+2, -2006367.4, -1631020.0, -118986.75, -0.019189436, 0.07156372, -1596479.3, 136963.4, 0.019406972, 9.997015, 10.002027 
1.5446326e+3, 1.331249e+2, -1811012.6, -1498822.1, -34937.313, -0.0013565475, 0.32890224, -1494960.1, 140437.08, 0.0117135905, 9.997743, 10.001907 
1.544679e+3, 1.4312568e+2, -1748198.9, -1608476.9, -130176.98, -0.062466864, 0.30759788, -1530599.6, 6787.651, 0.0052204016, 9.998329, 10.000187 
1.5447256e+3, 1.5312368e+2, -1568590.6, -1482512.8, -117152.72, 0.0045049503, 0.102841586, -1400743.4, 38658.797, 0.0014059248, 9.998937, 10.000086 
1.544772e+3, 1.631226e+2, -1465576.4, -1424336.4, -37000.06, 0.011149624, 0.02140996, -1402598.5, -61187.063, 0.00014487762, 9.99915, 9.999708 
1.5448184e+3, 1.7312366e+2, -1421763.4, -1334573.1, 8073.7295, -0.0690992, 0.14806251, -1333831.9, -90425.69, 0.000001197513, 9.998703, 9.9998665 
1.5448655e+3, 1.8312454e+2, -1262677.5, -1106044.0, -5657.252, -0.102941565, 0.23287152, -1105839.9, 39559.547, 0.0, 9.9986925, 10.000767 
1.5449129e+3, 1.9312526e+2, -995450.5, -877991.8, -79518.836, -0.05773695, 0.1949478, -837865.75, 209521.77, 0.0, 9.999644, 10.001201 
1.5449606e+3, 2.03125e+2, -993079.56, -1089134.5, -55430.863, -0.04136773, 0.16588116, -967763.9, -18376.213, 0.0, 10.000127, 9.998842 
1.5450087e+3, 2.1312313e+2, -976634.6, -1066761.4, 13683.684, -0.088646494, 0.12797809, -974602.9, -123194.555, 0.0, 9.999722, 9.998518 
1.545056e+3, 2.2312155e+2, -824444.4, -854353.1, -80215.16, -0.08557287, 0.10735319, -757801.5, -4376.838, 0.0, 9.999709, 9.999312 
1.5451014e+3, 2.3312101e+2, -570710.94, -634744.6, -136285.84, 0.014606187, 0.08946977, -462731.7, 192696.53, 0.0, 10.000578, 9.999728 
1.5451466e+3, 2.4312016e+2, -426861.84, -582518.75, -62911.902, -0.006665095, 0.07713298, -404614.47, 152819.98, 0.000000000009610117, 10.00119, 9.999117 
1.5451908e+3, 2.53119e+2, -308103.66, -465559.03, -40157.23, -0.28331926, 0.04512477, -298453.47, 160990.02, 0.0000005675007, 10.001294, 9.999197 
1.545237e+3, 2.6311788e+2, -223967.63, -414402.7, -67178.96, -0.33906806, 0.050494947, -202654.5, 158797.69, 0.000008574752, 10.00137, 9.998838 
1.545287e+3, 2.7311715e+2, -101285.22, -288828.2, -104134.7, 0.04895279, 0.088014215, -54924.168, 208533.89, 0.000053640204, 10.0014715, 9.998979 
1.5453355e+3, 2.8311506e+2, -124363.06, -550900.56, -30327.197, 0.21268967, 0.10708192, -122217.56, 43262.73, 0.00024584457, 10.001936, 9.996285 
1.5453805e+3, 2.931105e+2, 112973.67, -437842.66, 51240.0, -0.11361561, 0.063928515, 117699.75, 185230.5, 0.0007696394, 10.0031185, 9.99582 
1.5454261e+3, 3.031066e+2, 371724.44, -45949.76, 4295.3066, -0.269121, 0.02894178, 371768.6, 371768.6, 0.001652309, 10.003525, 9.997985 
1.5454742e+3, 3.1310624e+2, 405665.78, 273270.25, -64588.637, -0.008117871, 0.11850592, 431954.97, 431954.97, 0.0027323205, 10.002436, 10.0007105 
1.5545815e+3, 1.2307486e+2, -2099942.0, -1817050.9, -71489.195, -0.08184618, 0.17114057, -1800011.3, -66123.305, 0.020587768, 9.996989, 10.000745 
1.5546305e+3, 1.3307716e+2, -1961033.6, -1809786.0, -9469.786, 0.040876713, 0.42036158, -1809195.4, -173324.23, 0.012455585, 9.997747, 9.999762 
1.5546769e+3, 1.430764e+2, -1719484.4, -1561326.5, -112973.164, -0.1083442, 0.36124203, -1502505.4, 35374.414, 0.0055746003, 9.998377, 10.000489 
1.5547243e+3, 1.5307531e+2, -1501970.3, -1356354.6, -92792.305, -0.019561596, 0.16585572, -1311215.9, 128667.05, 0.001515748, 9.998984, 10.000931 
1.5547709e+3, 1.6307494e+2, -1392425.4, -1285601.1, -51199.01, -0.014455581, 0.069601625, -1265025.5, 76855.77, 0.00016035176, 9.999206, 10.000635 
1.5548165e+3, 1.7307627e+2, -1352060.5, -1196097.1, -7089.6436, -0.1304527, 0.12942225, -1195775.5, 48092.96, 0.0000013687348, 9.998726, 10.000808 
1.5548635e+3, 1.8307696e+2, -1358034.5, -1306635.5, 19373.14, -0.16113307, 0.19572148, -1300151.5, -154288.61, 0.0, 9.998703, 9.999384 
1.5549128e+3, 1.9307663e+2, -1133330.5, -1161733.1, -40353.35, -0.021161726, 0.23839757, -1104752.5, -56883.367, 0.0, 9.999634, 9.999257 
1.5549614e+3, 2.030761e+2, -924492.3, -947033.0, -66151.94, 0.026079021, 0.2582693, -868657.5, 81218.06, 0.0, 10.000121, 9.999825 
1.555008e+3, 2.1307561e+2, -862304.3, -826122.94, -131.33885, -0.11327182, 0.20081694, -826122.5, 25755.537, 0.0, 9.999701, 10.000185 
1.5550546e+3, 2.2307485e+2, -840985.75, -883558.94, -57956.133, -0.1807783, 0.17036968, -800530.7, -46647.207, 0.0, 9.999683, 9.999125 
1.555101e+3, 2.3307386e+2, -620431.94, -729509.6, -98969.8, -0.08409909, 0.16503751, -561968.5, 93923.69, 0.0, 10.00054, 9.999097 
1.5551472e+3, 2.4307272e+2, -430759.3, -578994.4, -56289.98, -0.047222406, 0.15815064, -411807.16, 146094.52, 0.0, 10.001136, 9.999169 
1.5551935e+3, 2.5307158e+2, -299712.97, -437717.63, -33300.594, -0.13621399, 0.108018994, -292097.72, 167811.67, 0.0000005355393, 10.001245, 9.999415 
1.5552403e+3, 2.6307034e+2, -267365.94, -491666.97, -63531.004, -0.14978579, 0.10831048, -250621.42, 111298.79, 0.000008556659, 10.001311, 9.998339 
1.555288e+3, 2.7306926e+2, -153768.95, -388123.84, -94430.125, -0.010223563, 0.17414984, -120455.195, 143479.4, 0.000055621294, 10.001431, 9.998315 
1.5553357e+3, 2.8306726e+2, -23150.688, -331850.13, 4429.028, 0.030839823, 0.1814907, -23087.154, 142868.06, 0.00025768706, 10.001895, 9.997811 
1.5553834e+3, 2.9306382e+2, 250293.92, -141433.53, 98807.38, -0.13758548, 0.04787416, 273805.44, 341788.47, 0.0007980417, 10.003073, 9.997878 
1.5554303e+3, 3.0306023e+2, 293768.3, -193173.73, -25560.973, -0.19660823, -0.03358678, 295106.4, 295106.4, 0.0016984205, 10.003464, 9.997002 
1.5554766e+3, 3.130563e+2, 285076.94, 38349.93, -92541.37, -0.016315993, -0.14687046, 315929.06, 315929.06, 0.0027937354, 10.002376, 9.999117 
1.5645792e+3, 1.2302783e+2, -2039736.4, -1801142.8, -117488.77, -0.046281386, 0.2575347, -1753002.0, -18652.32, 0.021849003, 9.997455, 10.000634 
1.5646286e+3, 1.3302809e+2, -2058918.1, -1938681.1, 4755.875, 0.09536557, 0.37183678, -1938493.4, -302140.16, 0.013250772, 9.997429, 9.999035 
1.5646742e+3, 1.4302684e+2, -1851581.4, -1602261.3, -17981.334, -0.15664032, 0.2970643, -1600971.1, -62603.652, 0.0059556314, 9.99738, 10.000687 
1.5647222e+3, 1.5302718e+2, -1608279.6, -1358600.5, -30572.37, -0.06808289, 0.20707756, -1354911.5, 85445.44, 0.0016345053, 9.998055, 10.001358 
1.5647696e+3, 1.630276e+2, -1471494.4, -1337104.6, -53758.004, -0.03484534, 0.16925919, -1318246.8, 24101.129, 0.00017771397, 9.998726, 10.000511 
1.5648161e+3, 1.7302823e+2, -1273788.8, -1185839.9, -109808.26, -0.07729856, 0.18247546, -1111528.1, 132813.75, 0.0000016137079, 9.999389, 10.000555 
1.5648635e+3, 1.8302831e+2, -1221156.1, -1251502.1, -90190.086, -0.070518896, 0.20673995, -1144871.6, 1470.5361, 0.0, 9.99969, 9.999286 
1.5649126e+3, 1.9302762e+2, -1181406.9, -1188851.3, -14806.5205, 0.021218259, 0.22116272, -1169861.9, -121511.02, 0.0, 9.999321, 9.99922 
1.5649611e+3, 2.0302708e+2, -1022057.6, -990557.56, 26167.117, 0.0324925, 0.2409062, -975766.1, -25408.994, 0.0, 9.999433, 9.999857 
1.565008e+3, 2.1302727e+2, -720691.3, -749249.6, -28139.639, -0.12274982, 0.24302548, -703415.25, 148939.53, 0.0, 10.000639, 10.000257 
1.5650548e+3, 2.2302695e+2, -606477.3, -757758.56, -154154.23, -0.20204274, 0.24838059, -510405.88, 243950.89, 0.0, 10.001245, 9.999235 
1.565101e+3, 2.3302586e+2, -604720.3, -707097.44, -152185.58, -0.12011557, 0.22218712, -495345.13, 161020.0, 0.0, 10.0005865, 9.999228 
1.5651476e+3, 2.4302453e+2, -558521.5, -634796.75, -65948.63, -0.06664425, 0.18640554, -520477.1, 37898.363, 0.0, 10.000226, 9.9992285 
1.5651947e+3, 2.530231e+2, -390326.25, -473099.53, -58079.6, -0.08802271, 0.10486185, -360396.03, 99989.29, 0.00000039469393, 10.000587, 9.999487 
1.5652418e+3, 2.630218e+2, -335412.34, -554074.94, -84250.85, -0.087412514, 0.10322135, -306716.34, 55681.043, 0.000008163994, 10.000975, 9.998072 
1.5652888e+3, 2.7302086e+2, -188565.72, -448093.56, -99838.4, -0.04980048, 0.21961243, -154603.11, 109809.59, 0.000057337416, 10.001374, 9.997934 
1.5653367e+3, 2.8301904e+2, 53294.516, -206743.19, 24597.32, -0.04988865, 0.23857985, 55600.754, 222032.28, 0.00027075387, 10.002038, 9.998603 
1.5653864e+3, 2.9301617e+2, 349966.38, 23215.672, 50850.543, -0.13129719, 0.060605016, 357697.1, 426146.7, 0.0008320664, 10.003248, 9.998929 
1.5654345e+3, 3.030133e+2, 321003.13, -222343.84, -152224.97, -0.13199386, 0.00088639953, 360744.03, 360744.03, 0.001767537, 10.003829, 9.996626 
1.5654793e+3, 3.1300816e+2, 337574.1, -41971.598, -185710.84, -0.0049422015, -0.15742096, 413323.84, 413323.84, 0.002916126, 10.003192, 9.99817 
1.5745777e+3, 1.2297941e+2, -1943053.5, -1617354.5, -77622.88, 0.074093305, 0.34699148, -1599800.9, 135026.78, 0.023204513, 9.997518, 10.001885 
1.5746264e+3, 1.3297765e+2, -1993324.6, -1807301.1, -4012.0835, 0.14108258, 0.16506791, -1807214.6, -170371.36, 0.014108494, 9.997448, 9.9999275 
1.5746707e+3, 1.4297704e+2, -1842551.0, -1588464.1, -1140.9489, -0.23218627, 0.10131645, -1588459.0, -49611.04, 0.0063687824, 9.9973955, 10.000777 
1.5747191e+3, 1.5297948e+2, -1613525.3, -1371224.8, 81.94375, -0.16095382, 0.2254771, -1371224.8, 69597.47, 0.00176415, 9.998056, 10.001275 
1.5747677e+3, 1.6298077e+2, -1556251.5, -1517377.0, -29357.84, -0.077655815, 0.32617512, -1501605.0, -158795.0, 0.00019721544, 9.998743, 9.999267 
1.5748169e+3, 1.7297958e+2, -1381356.6, -1414651.9, -83063.46, 0.07635888, 0.31323433, -1313289.0, -68462.46, 0.0000019795527, 9.999411, 9.998976 
1.5748654e+3, 1.8297848e+2, -1129559.1, -1073211.4, -101723.93, 0.15316929, 0.26788238, -995831.9, 151006.25, 0.0, 9.999736, 10.000489 
1.574912e+3, 1.929782e+2, -1046456.2, -913380.2, -28147.1, 0.04724736, 0.14020205, -907671.7, 141161.3, 0.0, 9.999334, 10.001109 
1.5749595e+3, 2.0297799e+2, -1084479.8, -1116677.1, 58189.492, -0.06018173, 0.11105469, -1040203.1, -89371.055, 0.0, 9.999417, 9.998998 
1.5750085e+3, 2.1297812e+2, -837278.2, -980959.4, 21164.58, -0.14137988, 0.2563424, -834225.44, 18612.73, 0.0, 10.000595, 9.998687 
1.5750563e+3, 2.2297783e+2, -588670.06, -709041.7, -167787.33, -0.1760607, 0.3452005, -470600.66, 284243.72, 0.0, 10.00119, 9.999598 
1.5751016e+3, 2.3297697e+2, -551626.3, -587301.25, -175676.75, -0.119886115, 0.26149786, -392883.78, 263963.47, 0.0, 10.000543, 10.0000725 
1.5751475e+3, 2.429756e+2, -559952.5, -626441.7, -63061.62, -0.09780221, 0.16816428, -521909.16, 36946.426, 0.0, 10.000176, 9.999309 
1.5751946e+3, 2.5297368e+2, -404052.97, -491755.7, -41100.11, -0.15107118, 0.04394623, -387803.06, 73067.61, 0.00000029448665, 10.000547, 9.999377 
1.575242e+3, 2.6297227e+2, -345544.63, -571839.1, -70523.94, -0.16535787, 0.043530725, -325365.47, 37518.31, 0.000007127328, 10.000953, 9.997963 
1.5752895e+3, 2.7297193e+2, -194152.0, -461153.78, -79819.19, -0.1038442, 0.22758399, -172110.0, 92783.08, 0.000057487865, 10.001377, 9.997844 
1.5753384e+3, 2.8297043e+2, 56947.73, -198688.03, 63449.004, -0.07767798, 0.28243834, 71829.49, 238738.88, 0.0002811222, 10.002031, 9.998665 
1.5753897e+3, 2.9296768e+2, 340545.38, 35280.004, 101067.23, -0.12108382, 0.10179221, 370973.66, 439902.7, 0.0008677902, 10.003112, 9.999078 
1.5754385e+3, 3.0296573e+2, 300609.7, -222260.98, -166394.48, -0.09821692, 0.120397165, 349070.4, 349070.4, 0.0018535465, 10.003647, 9.996715 
1.5754825e+3, 3.129615e+2, 311004.94, -100954.38, -200417.25, -0.031133972, 0.050422702, 392418.2, 392418.2, 0.0030831764, 10.003211, 9.997753 
1.5845756e+3, 1.2293015e+2, -1836220.3, -1537893.8, -38254.816, 0.09527612, 0.37462887, -1533066.4, 202244.69, 0.024665277, 9.998127, 10.002149 
1.584624e+3, 1.3292776e+2, -1931383.4, -1749497.9, -90477.79, 0.15700439, 0.10590432, -1712156.5, -74825.3, 0.0150364665, 9.997757, 10.000173 
1.5846682e+3, 1.4292817e+2, -1837715.5, -1605901.4, -88493.2, -0.22962707, 0.13460262, -1575981.5, -36655.273, 0.0068181083, 9.997515, 10.000599 
1.5847173e+3, 1.5293035e+2, -1593046.3, -1394855.6, -99174.984, -0.1580789, 0.2648568, -1353752.8, 87552.47, 0.0019058621, 9.998338, 10.0009775 
1.5847665e+3, 1.6293138e+2, -1544297.6, -1523070.4, -114720.79, -0.06432262, 0.364812, -1418473.3, -75176.4, 0.0002187055, 9.998878, 9.99916 
1.5848163e+3, 1.7293005e+2, -1476777.4, -1464961.9, -65472.21, 0.11033291, 0.3432723, -1405131.5, -159816.94, 0.000002466339, 9.998781, 9.998929 
1.5848649e+3, 1.8292892e+2, -1236150.6, -1107745.8, -41653.926, 0.18111068, 0.2912549, -1095417.1, 51908.777, 0.0, 9.998936, 10.000637 
1.5849112e+3, 1.929288e+2, -969297.1, -849206.1, -96718.586, 0.010099931, 0.15874834, -795409.9, 253908.2, 0.0, 9.999758, 10.001341 
1.5849584e+3, 2.0292863e+2, -998068.8, -1071709.8, -61102.375, -0.11044767, 0.12095773, -963550.4, -12234.508, 0.0, 10.000002, 9.999025 
1.5850085e+3, 2.1292853e+2, -1077267.5, -1098397.9, 4474.326, -0.09653123, 0.24633564, -1076359.1, -223035.16, 0.0, 9.998955, 9.998673 
1.5850571e+3, 2.2292817e+2, -954802.44, -873974.94, -105689.46, -0.08129349, 0.32337344, -801236.0, -45905.11, 0.0, 9.998626, 9.999701 
1.5851021e+3, 2.3292759e+2, -620667.25, -605161.1, -167233.45, -0.08192145, 0.25648078, -445501.13, 211830.3, 0.0, 10.000003, 10.000211 
1.585148e+3, 2.4292643e+2, -467304.72, -599366.7, -99302.08, -0.09017335, 0.18424566, -414083.9, 145254.61, 0.0, 10.0009, 9.99914 
1.5851954e+3, 2.529245e+2, -403571.78, -523157.44, -98249.62, -0.12095225, 0.086379886, -348350.84, 113004.28, 0.00000023115544, 10.000686, 9.999093 
1.5852432e+3, 2.6292297e+2, -311239.1, -525130.7, -88482.3, -0.13703929, 0.0780444, -279381.0, 83988.73, 0.0000061293663, 10.001068, 9.998222 
1.5852913e+3, 2.7292222e+2, 53278.457, -295750.5, -63302.063, -0.13979939, 0.18627742, 64404.637, 329784.03, 0.00005820115, 10.002891, 9.998246 
1.5853406e+3, 2.8292063e+2, 212850.0, -169012.25, 31956.938, -0.10075786, 0.22341037, 215505.92, 382902.1, 0.00029076563, 10.003306, 9.998249 
1.5853928e+3, 2.9291832e+2, -59182.313, -227318.72, -4574.753, 0.026810741, 0.15019235, -59057.934, 10359.273, 0.0009054088, 10.0006695, 9.998443 
1.5854421e+3, 3.029169e+2, -122927.61, -366427.72, -183997.28, 0.068846256, 0.23589286, -24046.582, -24046.582, 0.0019492711, 10.000467, 9.997257 
1.5854846e+3, 3.1291333e+2, 666010.0, 112028.29, -158309.89, -0.22858259, 0.1600356, 708058.25, 708058.25, 0.0032681501, 10.005469, 9.99814 
1.5945725e+3, 1.2288001e+2, -1890548.5, -1671851.8, -6691.7935, -0.034199163, 0.31893048, -1671647.3, 64152.24, 0.026239868, 9.998227, 10.001162 
1.5946214e+3, 1.3287865e+2, -1960049.3, -1824536.3, -114007.37, 0.114480965, 0.21166505, -1759670.6, -121855.17, 0.016040104, 9.997815, 9.999633 
1.5946662e+3, 1.4288034e+2, -1870016.8, -1683114.3, -76716.87, -0.16359393, 0.42447394, -1655658.1, -115857.13, 0.0073062, 9.997557, 10.000051 
1.5947165e+3, 1.5287971e+2, -1629441.6, -1476913.1, -67889.38, -0.06622345, 0.33111924, -1451073.5, -9266.909, 0.002060233, 9.9983635, 10.000403 
1.594766e+3, 1.628793e+2, -1461487.9, -1358637.4, -116146.37, -0.011678146, 0.276691, -1283040.9, 60769.227, 0.00024185247, 9.998908, 10.000274 
1.5948139e+3, 1.7287962e+2, -1366552.8, -1239290.3, -68026.234, -0.003062443, 0.2686355, -1209773.8, 36032.24, 0.0000030340082, 9.99879, 10.000476 
1.5948617e+3, 1.8287967e+2, -1296372.9, -1233949.5, -19310.867, -0.023542505, 0.27428722, -1228458.6, -80654.02, 0.0, 9.99894, 9.999769 
1.5949097e+3, 1.9287948e+2, -1077298.6, -1073281.3, -61817.227, -0.112311535, 0.2815578, -1013440.06, 36365.395, 0.0, 9.999757, 9.9998045 
1.5949583e+3, 2.0287904e+2, -935431.25, -945164.1, -90951.37, -0.14012562, 0.27799267, -849216.25, 102592.35, 0.0, 10.000012, 9.99989 
1.5950082e+3, 2.1287851e+2, -975414.56, -881610.7, -34873.777, -0.01777382, 0.21535164, -870066.3, -16254.136, 0.0, 9.998929, 10.0001745 
1.595057e+3, 2.2287798e+2, -969844.4, -896789.5, -74665.766, 0.046826262, 0.1896977, -850195.1, -94379.09, 0.0, 9.998583, 9.999567 
1.5951025e+3, 2.3287778e+2, -664975.06, -690125.6, -110385.57, -0.032068636, 0.21013619, -566450.75, 91366.664, 0.0, 9.999968, 9.999645 
1.5951489e+3, 2.4287707e+2, -506594.06, -671190.56, -98343.516, -0.07613996, 0.23437445, -460656.4, 99167.86, 0.0, 10.000856, 9.99867 
1.5951969e+3, 2.5287557e+2, -437850.2, -589637.6, -104034.03, -0.029080741, 0.22548017, -384969.16, 76870.04, 0.00000009760233, 10.000665, 9.998649 
1.5952452e+3, 2.628738e+2, -278402.44, -451497.44, -37286.02, -0.038228277, 0.2033591, -270712.38, 93143.24, 0.0000054247644, 10.001039, 9.998745 
1.5952937e+3, 2.7287182e+2, 95780.2, -185775.23, 10438.031, -0.18214026, 0.107807174, 96166.63, 362038.1, 0.00006082951, 10.002794, 9.999048 
1.5953434e+3, 2.8286973e+2, 138088.77, -299361.0, -38078.504, -0.15293731, 0.078388035, 141378.63, 309270.22, 0.0003011857, 10.0032, 9.997406 
1.5953958e+3, 2.9286808e+2, -142684.31, -413904.72, -101230.46, 0.2682273, 0.1965206, -109067.65, -39152.938, 0.0009367565, 10.000727, 9.997135 
1.5954451e+3, 3.0286682e+2, -52105.543, -237722.73, -48522.582, 0.32396638, 0.34305573, -40186.508, -40186.508, 0.002027252, 10.00055, 9.9981 
1.5954864e+3, 3.1286392e+2, 702575.5, 247837.23, 39543.484, -0.6130708, 0.20221256, 705988.5, 705988.5, 0.0034173413, 10.00522, 9.999194 
1.6045687e+3, 1.2282821e+2, -2253117.0, -1858396.8, -78659.25, -0.10784512, 0.26692924, -1843299.1, -106993.88, 0.027939666, 9.995808, 10.001028 
1.6046186e+3, 1.328281e+2, -2061531.8, -1793933.3, -150914.44, 0.12487591, 0.22526273, -1726046.1, -87736.375, 0.01712635, 9.99679, 10.00033 
1.604665e+3, 1.4283076e+2, -1876828.0, -1703270.9, -15369.954, -0.025360243, 0.49764046, -1701920.3, -161634.39, 0.007836914, 9.997591, 9.999889 
1.6047151e+3, 1.528285e+2, -1635645.1, -1521330.6, 12704.425, -0.024541564, 0.2765616, -1519935.8, -77628.54, 0.0022287087, 9.998512, 10.000017 
1.6047645e+3, 1.6282725e+2, -1396520.5, -1290965.1, -69544.03, -0.04441752, 0.1490757, -1256439.6, 87878.68, 0.00026665046, 9.999196, 10.000602 
1.6048123e+3, 1.7282869e+2, -1232451.4, -1112647.3, -110322.055, -0.05343442, 0.20083813, -1047013.56, 199288.34, 0.0000036433328, 9.999447, 10.001028 
1.6048604e+3, 1.828296e+2, -1223934.9, -1225686.3, -78411.39, -0.065261826, 0.27010405, -1146394.3, 1898.0516, 0.0, 9.99955, 9.999532 
1.604909e+3, 1.9282955e+2, -1158505.5, -1164028.6, -44496.06, -0.11243001, 0.33188796, -1116685.4, -66389.52, 0.0, 9.999411, 9.99935 
1.604958e+3, 2.0282897e+2, -1027708.7, -980355.0, -63042.105, -0.113933004, 0.3386273, -936690.2, 15611.768, 0.0, 9.999345, 9.999967 
1.6050075e+3, 2.1282782e+2, -868572.75, -806135.1, -113986.875, -0.003680633, 0.19424048, -719169.25, 135139.22, 0.0, 9.999563, 10.000384 
1.6050561e+3, 2.2282681e+2, -804749.94, -848633.44, -170720.78, 0.051105753, 0.12238245, -654566.6, 101748.72, 0.0, 9.999864, 9.999276 
1.6051026e+3, 2.3282662e+2, -634118.94, -722051.9, -194901.47, -0.03909539, 0.18561785, -478286.44, 180032.6, 0.0, 10.000393, 9.999216 
1.6051497e+3, 2.42826e+2, -490688.6, -660528.8, -181387.23, -0.076321855, 0.24733613, -375327.03, 184999.48, 0.0, 10.000953, 9.998698 
1.6051984e+3, 2.5282487e+2, -294445.72, -501005.66, -156873.73, 0.012342245, 0.2604468, -209906.31, 252432.17, 0.000000007673713, 10.001573, 9.998818 
1.6052471e+3, 2.6282343e+2, -156393.16, -375458.0, -58765.8, 0.029960463, 0.2548609, -141624.45, 222727.53, 0.0000049766613, 10.001806, 9.998896 
1.605296e+3, 2.728217e+2, -123628.97, -278621.2, -60700.242, -0.130124, 0.17413937, -102686.43, 163678.81, 0.000062948304, 10.001225, 9.999168 
1.6053455e+3, 2.8281966e+2, -139907.25, -434535.28, -138784.98, -0.15429088, 0.14569719, -84828.84, 83555.945, 0.00030846125, 10.001288, 9.997401 
1.6053961e+3, 2.928175e+2, 173759.25, -263212.47, -132084.38, 0.13258208, 0.21634722, 210581.75, 280994.44, 0.00095227413, 10.002905, 9.997125 
1.6054457e+3, 3.0281568e+2, 409604.6, -50176.953, 18938.766, 0.17714617, 0.3195573, 410383.38, 410383.38, 0.0020632895, 10.003884, 9.997783 
1.6054915e+3, 3.1281403e+2, 372839.3, 26602.574, -18283.95, -0.497744, 0.34626585, 373802.2, 373802.2, 0.003484486, 10.003219, 9.998628 
1.6145639e+3, 1.22774206e+2, -2200544.5, -1740820.0, -26046.648, -0.15020998, 0.17692839, -1739349.0, -2515.0166, 0.02978273, 9.995765, 10.001859 
1.6146159e+3, 1.3277605e+2, -1914797.9, -1493030.1, -116427.805, 0.17421943, 0.13701028, -1463025.1, 175789.11, 0.018308382, 9.996783, 10.002424 
1.6146645e+3, 1.4277922e+2, -1846790.5, -1651779.0, 17105.016, 0.16806015, 0.31983373, -1650290.0, -109508.64, 0.008418617, 9.997633, 10.000225 
1.6147132e+3, 1.5277667e+2, -1645934.1, -1552027.4, 52165.957, -0.0633009, 0.084787354, -1528795.9, -85989.45, 0.0024150687, 9.998548, 9.999793 
1.6147621e+3, 1.6277528e+2, -1421270.5, -1357114.0, -57092.24, -0.20358096, -0.023570672, -1323705.3, 21115.182, 0.0002938315, 9.999255, 10.000121 
1.6148117e+3, 1.7277728e+2, -1265737.4, -1192405.4, -100001.99, -0.05732037, 0.138344, -1122559.4, 124242.664, 0.000004294035, 9.999485, 10.000465 
1.6148609e+3, 1.8277872e+2, -1191426.5, -1165127.6, -84054.69, 0.03846223, 0.27806172, -1093200.1, 55589.465, 0.0, 9.999579, 9.999933 
1.6149095e+3, 1.92779e+2, -1111952.5, -1069519.6, -47168.297, -0.012776073, 0.3138089, -1039015.8, 11773.168, 0.0, 9.999417, 9.999998 
1.6149579e+3, 2.0277844e+2, -1079686.9, -1083463.0, -62032.957, -0.06168696, 0.30820858, -1019513.25, -66717.836, 0.0, 9.999323, 9.9992695 
1.6150062e+3, 2.1277645e+2, -948508.1, -966528.9, -103085.98, -0.07321905, 0.18408436, -854039.5, 773.06573, 0.0, 9.999539, 9.999294 
1.6150543e+3, 2.227747e+2, -845304.9, -925580.8, -156374.2, -0.09093075, 0.12407765, -723999.5, 32829.02, 0.0, 9.999829, 9.998766 
1.615102e+3, 2.327741e+2, -662151.44, -772203.9, -169861.05, -0.12778594, 0.1833826, -538626.06, 120209.91, 0.0, 10.000358, 9.998888 
1.6151501e+3, 2.4277331e+2, -464360.16, -596348.06, -159734.45, -0.121688776, 0.23004834, -357523.84, 203320.73, 0.0, 10.000905, 9.999165 
1.6151994e+3, 2.5277248e+2, -252278.95, -402560.63, -129841.62, -0.017704692, 0.20304991, -177403.14, 285449.1, 0.00000000987263, 10.001522, 9.99952 
1.615249e+3, 2.6277173e+2, -181710.66, -415979.47, -74811.31, 0.04214756, 0.23467332, -159858.73, 205000.7, 0.000004852554, 10.001751, 9.998647 
1.6152982e+3, 2.7277157e+2, -164533.0, -356780.9, -79761.75, -0.018714003, 0.35862997, -135749.98, 131112.81, 0.000062990264, 10.001197, 9.998645 
1.615347e+3, 2.8277022e+2, -94284.586, -336505.97, -97515.61, -0.13338579, 0.40258598, -59905.42, 108971.836, 0.00031075932, 10.001271, 9.998083 
1.6153942e+3, 2.927666e+2, 237497.64, -112857.73, -66168.695, -0.34852585, 0.22770697, 249577.84, 320489.2, 0.000954639, 10.002827, 9.998196 
1.6154443e+3, 3.0276358e+2, 300801.66, -254480.42, 6482.086, -0.34968913, 0.19669867, 300877.34, 300877.34, 0.0020610846, 10.003793, 9.996422 
1.6154994e+3, 3.1276342e+2, 228385.16, -257530.69, -42427.066, -0.024396712, 0.5711231, 232061.81, 232061.81, 0.0034670802, 10.0031595, 9.996698 
1.624561e+3, 1.22721404e+2, -2155023.3, -1745238.0, 113704.69, -0.036084123, 0.10276651, -1715802.3, 21544.152, 0.03179242, 9.996186, 10.001627 
1.6246124e+3, 1.3272361e+2, -1799773.5, -1405021.3, -122968.05, 0.118249945, 0.076073214, -1369849.6, 269473.75, 0.019603958, 9.997427, 10.0027275 
1.6246623e+3, 1.4272639e+2, -1736774.6, -1558106.9, -92969.83, 0.16878645, 0.18544914, -1518507.0, 22788.11, 0.009062119, 9.9982195, 10.000583 
1.6247113e+3, 1.5272549e+2, -1673378.9, -1524425.6, -28167.24, -0.078978896, 0.083172545, -1519277.1, -75971.99, 0.002624408, 9.99819, 10.000152 
1.6247605e+3, 1.6272508e+2, -1576837.5, -1434809.4, -96833.09, -0.22046429, 0.05185121, -1385741.6, -40430.91, 0.00032476612, 9.99821, 10.000084 
1.6248105e+3, 1.7272629e+2, -1418952.3, -1281356.3, -115889.22, -0.051984746, 0.14893141, -1215382.4, 31918.338, 0.000005034694, 9.99851, 10.000318 
1.6248605e+3, 1.8272705e+2, -1286818.8, -1219274.4, -88413.836, 0.072593406, 0.23339689, -1158402.1, -9107.134, 0.0, 9.998964, 9.999856 
1.6249095e+3, 1.9272713e+2, -1065077.6, -1046214.44, -108001.45, 0.057523053, 0.25145236, -947233.5, 104062.266, 0.0, 9.999755, 9.999984 
1.6249582e+3, 2.0272657e+2, -937507.44, -1050596.9, -138071.52, 0.011817833, 0.2614888, -844850.75, 108451.54, 0.0, 10.000448, 9.998959 
1.6250062e+3, 2.1272506e+2, -782285.5, -928263.6, -132645.38, -0.08213598, 0.22142996, -703873.8, 151443.8, 0.0, 10.000858, 9.998925 
1.6250542e+3, 2.2272354e+2, -664365.6, -825530.94, -138024.11, -0.13958575, 0.20406175, -585122.7, 172209.67, 0.0, 10.001018, 9.998879 
1.6251023e+3, 2.3272255e+2, -604750.56, -718182.44, -118787.39, -0.123987995, 0.2023586, -529833.94, 129507.7, 0.0, 10.000638, 9.999125 
1.625151e+3, 2.427214e+2, -545953.3, -664767.4, -85256.25, -0.08199103, 0.20622699, -501447.75, 59905.09, 0.0, 10.000473, 9.998898 
1.6252007e+3, 2.527202e+2, -370016.9, -508342.75, -136287.33, -0.004822454, 0.18483591, -286347.4, 177017.72, 0.000000011745934, 10.000919, 9.9990835 
1.6252504e+3, 2.627192e+2, -256903.1, -467894.03, -143504.03, 0.043201867, 0.22171645, -184289.89, 181086.2, 0.0000048598445, 10.001308, 9.998499 
1.6252998e+3, 2.7271894e+2, -117941.35, -340939.8, -132223.39, 0.0061623952, 0.34581667, -56480.75, 210899.63, 0.000061827406, 10.001553, 9.998578 
1.6253486e+3, 2.8271762e+2, 3792.4177, -280686.53, -102915.445, -0.102862574, 0.39712808, 37119.62, 206513.38, 0.00031000903, 10.001917, 9.998152 
1.6253966e+3, 2.927144e+2, 211840.3, -114871.47, -135323.19, -0.36415347, 0.25028068, 260610.58, 332033.28, 0.0009500043, 10.002611, 9.998282 
1.6254474e+3, 3.0271092e+2, 218318.63, -318355.63, -96466.5, -0.37419096, 0.17940181, 235131.63, 235131.63, 0.0020340097, 10.00332, 9.996215 
1.6255037e+3, 3.1270984e+2, 362184.38, -192881.6, -53818.574, 0.07553752, 0.48752838, 367354.4, 367354.4, 0.003388918, 10.004055, 9.996724 
1.6345596e+3, 1.2267024e+2, -2241984.3, -1946670.6, 136193.84, 0.20870438, 0.043828506, -1893451.1, -155613.61, 0.03398967, 9.996274, 10.000198 
1.6346076e+3, 1.3267092e+2, -1918650.8, -1666732.6, -75499.61, -0.080660775, 0.04661376, -1645838.5, -6002.09, 0.02102759, 9.9975, 10.000865 
1.634658e+3, 1.4267212e+2, -1701312.9, -1501784.5, -94462.32, -0.08589872, 0.09726972, -1464158.6, 77670.36, 0.009775217, 9.998289, 10.00094 
1.6347092e+3, 1.5267512e+2, -1600583.1, -1379476.5, -31268.84, -0.09946557, 0.2907816, -1375139.6, 68663.016, 0.002860367, 9.99821, 10.001141 
1.6347599e+3, 1.626769e+2, -1545587.1, -1371176.5, -91646.04, -0.106666975, 0.4005578, -1331875.8, 13911.33, 0.00036087315, 9.998214, 10.00052 
1.634809e+3, 1.726758e+2, -1401161.8, -1246871.1, -102335.87, -0.055864457, 0.24079867, -1195860.3, 51937.215, 0.000005927034, 9.998516, 10.000554 
1.6348587e+3, 1.8267456e+2, -1321374.9, -1294908.1, -64896.23, 0.0022684478, 0.13242199, -1241909.8, -92100.42, 0.0, 9.998979, 9.9993305 
1.6349094e+3, 1.9267383e+2, -1115819.0, -1156218.6, -75937.625, 0.07256106, 0.13961856, -1057440.5, -5623.3096, 0.0, 9.999769, 9.999226 
1.6349593e+3, 2.0267329e+2, -931435.3, -1034282.5, -124300.086, 0.07997198, 0.19262555, -848341.6, 105482.195, 0.0, 10.000435, 9.999076 
1.6350073e+3, 2.1267359e+2, -762296.6, -879722.5, -114409.07, -0.05374405, 0.30481827, -692414.7, 163409.03, 0.0, 10.000826, 9.999277 
1.6350552e+3, 2.2267328e+2, -627694.8, -733929.5, -147819.14, -0.1322855, 0.35987437, -523739.06, 234088.5, 0.0, 10.000949, 9.999541 
1.6351037e+3, 2.3267187e+2, -558469.06, -610521.4, -131652.55, -0.057230726, 0.24082778, -450294.8, 209542.22, 0.0, 10.000589, 9.999886 
1.6351524e+3, 2.426701e+2, -620775.56, -809948.94, -79095.15, 0.009128073, 0.17364606, -592063.1, -30210.496, 0.0, 10.000426, 9.997926 
1.6352019e+3, 2.5266802e+2, -476973.13, -725546.2, -114188.93, 0.027062656, 0.20769262, -432480.94, 31396.39, 0.000000006263202, 10.000901, 9.997601 
1.6352513e+3, 2.6266593e+2, -263083.94, -485203.03, -132180.39, 0.010798527, 0.231951, -201499.7, 164400.73, 0.000005059976, 10.001319, 9.99838 
1.6353004e+3, 2.7266407e+2, -94529.07, -294387.97, -118224.05, -0.07191287, 0.16672531, -39659.23, 228256.8, 0.00006027021, 10.001558, 9.998898 
1.6353506e+3, 2.8266218e+2, -33791.723, -358084.16, -83544.54, -0.101057515, 0.1604714, -13534.303, 156398.5, 0.00030506434, 10.001911, 9.997624 
1.6354026e+3, 2.9266077e+2, 152761.47, -233683.23, -104594.14, -0.0137442, 0.27251855, 179254.4, 251202.23, 0.00093549, 10.002593, 9.997476 
1.6354544e+3, 3.0265766e+2, 261117.72, -211707.02, -72723.445, 0.0012171938, 0.2611669, 272050.28, 272050.28, 0.0019869194, 10.003246, 9.996982 
1.6355054e+3, 3.1265354e+2, 449196.6, 45103.246, -20456.56, -0.16846332, 0.14251731, 450229.53, 450229.53, 0.0032759306, 10.003822, 9.9984665 
1.6445565e+3, 1.2261722e+2, -2049450.0, -1846875.4, -58597.25, 0.23033659, 0.033158444, -1831146.6, -92789.42, 0.036383986, 9.997579, 10.00025 
1.644604e+3, 1.3261843e+2, -1992319.9, -1742878.1, -125895.11, -0.17648758, 0.12486439, -1690384.8, -50031.848, 0.022584815, 9.99719, 10.0004835 
1.6446553e+3, 1.4261916e+2, -1900590.8, -1553649.8, -99164.57, -0.08788538, 0.13862339, -1527306.3, 15044.502, 0.010560797, 9.996737, 10.001329 
1.6447067e+3, 1.526224e+2, -1894557.1, -1451041.1, -75675.94, -0.0539883, 0.2985909, -1438484.3, 5835.3545, 0.0031241647, 9.995898, 10.00176 
1.6447574e+3, 1.6262436e+2, -1853880.4, -1510741.5, -104005.26, -0.04755982, 0.3853329, -1481679.0, -135378.2, 0.0004029895, 9.996056, 10.000607 
1.6448075e+3, 1.726234e+2, -1387431.4, -1246949.3, -127853.94, -0.05512478, 0.24674022, -1171312.1, 76998.484, 0.0000070009137, 9.99864, 10.000497 
1.6448578e+3, 1.8262225e+2, -1097775.5, -1182331.9, -115966.79, -0.04635351, 0.15030481, -1016620.56, 133701.64, 0.0, 10.000499, 9.999369 
1.6449086e+3, 1.9262134e+2, -1002532.06, -1096288.5, -83224.51, -0.01759907, 0.13579312, -953891.25, 98439.85, 0.0, 10.000527, 9.999272 
1.6449589e+3, 2.0262073e+2, -936012.4, -1019315.44, -101510.85, 0.00048237765, 0.17342876, -867940.1, 86397.914, 0.0, 10.00032, 9.999234 
1.6450079e+3, 2.1262129e+2, -912602.94, -926881.3, -113102.71, -0.00059058046, 0.29017276, -806414.3, 49921.766, 0.0, 9.999689, 9.999493 
1.6450566e+3, 2.2262126e+2, -837926.5, -836723.1, -154566.98, -0.0038924385, 0.35957527, -682756.7, 75581.14, 0.0, 9.999509, 9.999531 
1.6451044e+3, 2.3262003e+2, -584646.06, -633393.94, -199796.22, -0.014647672, 0.2648513, -407742.53, 252603.19, 0.0, 10.000444, 9.999804 
1.645153e+3, 2.4261832e+2, -498015.97, -764706.5, -148146.4, -0.0075115184, 0.21421267, -432041.6, 130319.14, 0.0, 10.001335, 9.997797 
1.6452031e+3, 2.52616e+2, -320774.44, -671648.75, -97685.24, 0.020438893, 0.24232504, -295411.7, 168976.02, 0.000000005166704, 10.00206, 9.9974165 
1.6452533e+3, 2.6261348e+2, -97537.61, -445300.47, -69624.58, 0.01808235, 0.24892694, -84116.26, 282298.47, 0.000005473011, 10.002628, 9.998022 
1.6453028e+3, 2.7261084e+2, 85318.62, -256365.0, -114504.44, -0.06417626, 0.14949991, 120142.05, 388579.56, 0.000058417012, 10.003002, 9.998465 
1.6453533e+3, 2.8260836e+2, 133996.3, -330342.75, -102518.445, -0.0779378, 0.13110489, 155623.39, 326083.78, 0.0002946905, 10.0033, 9.997143 
1.645406e+3, 2.9260707e+2, 230227.31, -250995.23, -111786.94, 0.040830683, 0.30313775, 254927.36, 327403.7, 0.0009098472, 10.003366, 9.996982 
1.6454577e+3, 3.0260414e+2, 226051.05, -216232.42, -97786.82, 0.04141515, 0.3387774, 246706.6, 246706.6, 0.0019294157, 10.002947, 9.997093 
1.6455081e+3, 3.1259936e+2, 167469.72, -25213.697, -128238.3, -0.14324912, 0.12606293, 231523.73, 231523.73, 0.0031618078, 10.001596, 9.999053 
1.6545509e+3, 1.2256242e+2, -1895910.3, -1575368.1, -140651.69, -0.10633341, 0.1130909, -1522402.9, 216504.23, 0.03897044, 9.99775, 10.002086 
1.6546011e+3, 1.325662e+2, -1899051.3, -1559889.1, -137920.4, -0.17701475, 0.32726508, -1510884.4, 129988.695, 0.024272982, 9.997216, 10.001751 
1.6546546e+3, 1.4256775e+2, -1872095.3, -1491698.3, -129249.84, 0.17989168, 0.32707644, -1451938.1, 90919.91, 0.0114189135, 9.9967165, 10.001773 
1.6547033e+3, 1.5256718e+2, -1887066.4, -1433476.5, -106331.234, 0.03861456, 0.08780824, -1409787.4, 35069.89, 0.0034161112, 9.995883, 10.001892 
1.6547531e+3, 1.625671e+2, -1873477.4, -1550349.5, -38148.973, -0.086573415, -0.026506882, -1545906.6, -199051.97, 0.00045137366, 9.996048, 10.0003395 
1.6548058e+3, 1.72569e+2, -1411924.5, -1302345.0, -23334.133, -0.07137686, 0.1564722, -1297583.1, -48742.023, 0.000008273259, 9.998654, 10.000111 
1.6548578e+3, 1.8257014e+2, -1051680.6, -1096946.9, -96804.94, -0.09484372, 0.29165226, -974898.2, 175935.22, 0.0, 10.000542, 9.999936 
1.6549069e+3, 1.9256967e+2, -939975.7, -972218.8, -83441.91, -0.23766507, 0.23966077, -871112.2, 181725.39, 0.0, 10.000547, 10.000117 
1.6549565e+3, 2.0256892e+2, -924971.75, -987782.75, -121925.7, -0.25878647, 0.20361651, -830471.8, 124373.266, 0.0, 10.000289, 9.999464 
1.655008e+3, 2.1256822e+2, -913813.7, -922909.56, -135786.34, 0.048123162, 0.18593492, -782499.2, 74355.21, 0.0, 9.999662, 9.999533 
1.6550583e+3, 2.2256748e+2, -886167.06, -932032.44, -135850.97, 0.20950255, 0.2077441, -771326.75, -12463.543, 0.0, 9.999482, 9.998893 
1.6551048e+3, 2.3256709e+2, -646210.75, -758737.94, -157777.78, -0.017306866, 0.27968374, -534964.9, 125901.89, 0.0, 10.000429, 9.998953 
1.6551527e+3, 2.4256605e+2, -463147.44, -685113.5, -119905.63, -0.15899017, 0.327823, -410745.66, 152131.17, 0.0, 10.001302, 9.998361 
1.6552044e+3, 2.5256398e+2, -259157.08, -527373.44, -68133.13, -0.046659935, 0.2843853, -242842.1, 222055.36, 0.00000000856411, 10.001997, 9.998434 
1.655256e+3, 2.6256165e+2, -150535.88, -543638.94, -57539.688, 0.032493386, 0.27113843, -142286.73, 224634.06, 0.0000057188686, 10.002568, 9.997381 
1.6553062e+3, 2.72559e+2, -3948.1475, -427755.84, -95920.9, -0.003255148, 0.27520925, 16750.797, 285698.28, 0.000056708228, 10.002934, 9.997323 
1.6553567e+3, 2.82556e+2, 91815.33, -400931.34, -95674.92, -0.06021218, 0.29392967, 109740.14, 280718.03, 0.0002843833, 10.003223, 9.996696 
1.6554071e+3, 2.9255316e+2, 205846.5, -287706.3, -100320.16, -0.1750908, 0.34025615, 225458.4, 298467.2, 0.0008865622, 10.0033045, 9.99676 
1.6554579e+3, 3.025503e+2, 183385.08, -289207.0, -134925.9, -0.2321386, 0.4111949, 219193.47, 219193.47, 0.0018892558, 10.002886, 9.996618 
1.6555114e+3, 3.125468e+2, 130343.68, -96485.62, -157172.55, 0.041110698, 0.37616485, 210748.78, 210748.78, 0.0030956615, 10.00158, 9.998566 
1.6645461e+3, 1.2250965e+2, -2297309.5, -1691226.0, 4532.425, -0.1918985, 0.17261475, -1691192.0, 48235.953, 0.041736465, 9.99467, 10.002745 
1.664598e+3, 1.3251315e+2, -2002495.0, -1566633.0, -6519.6733, -0.14193796, 0.31897026, -1566535.5, 74858.28, 0.026087236, 9.996329, 10.002124 
1.664653e+3, 1.4251503e+2, -1676706.1, -1413997.4, -66887.43, 0.2805399, 0.33177304, -1397947.9, 145426.03, 0.012349877, 9.99813, 10.001623 
1.664701e+3, 1.5251364e+2, -1358580.4, -1213821.1, -89470.6, 0.041005354, 0.038817614, -1171119.0, 274261.6, 0.003737191, 9.999662, 10.00158 
1.6647504e+3, 1.6251308e+2, -1265140.4, -1260347.8, -25864.11, -0.1355876, -0.10289764, -1236769.3, 110613.305, 0.00050616945, 10.000244, 10.000301 
1.6648044e+3, 1.7251538e+2, -1420620.1, -1300701.5, 15420.392, -0.06267018, 0.11635424, -1298750.4, -49385.793, 0.000009797576, 9.998579, 10.00015 
1.6648571e+3, 1.8251698e+2, -1506991.8, -1290448.4, -56138.723, -0.047374584, 0.28462562, -1276759.9, -125407.17, 0.0, 9.997295, 10.000174 
1.6649058e+3, 1.9251707e+2, -1384953.6, -1146050.0, -88885.59, -0.21541874, 0.255298, -1116608.0, -63255.38, 0.0, 9.997323, 10.000471 
1.6649556e+3, 2.0251663e+2, -1256759.8, -1131112.8, -131241.88, -0.25382215, 0.22183934, -1048432.9, -93075.37, 0.0, 9.99794, 9.999616 
1.6650076e+3, 2.1251552e+2, -890385.6, -902650.94, -140896.72, 0.050708707, 0.15475455, -755488.2, 101880.91, 0.0, 9.999783, 9.99962 
1.6650584e+3, 2.2251453e+2, -630112.56, -820361.6, -115864.086, 0.21269798, 0.14913152, -575326.6, 184052.86, 0.0, 10.001298, 9.99878 
1.6651058e+3, 2.325142e+2, -450452.47, -685824.4, -99371.83, -0.015711073, 0.247907, -414110.03, 247273.2, 0.0, 10.001872, 9.998754 
1.6651542e+3, 2.4251308e+2, -371292.3, -685819.3, -73150.945, -0.16544658, 0.31324193, -355111.7, 208283.69, 0.0, 10.002122, 9.997964 
1.6652057e+3, 2.5251043e+2, -332590.2, -616195.3, -132508.02, -0.098340735, 0.25945368, -280314.56, 185108.39, 0.0000000057748837, 10.0017185, 9.997961 
1.6652574e+3, 2.6250798e+2, -303602.16, -605676.8, -155040.42, -0.021196118, 0.26136196, -238191.31, 129257.25, 0.0000055479773, 10.001481, 9.997471 
1.6653089e+3, 2.7250627e+2, -145846.13, -468367.22, -108537.78, 0.043045636, 0.3392083, -112721.96, 156743.72, 0.000054972716, 10.001839, 9.997569 
1.66536e+3, 2.8250355e+2, -41989.47, -459348.03, -33062.926, 0.018883044, 0.36615565, -39386.477, 132106.58, 0.00027642155, 10.0022745, 9.996752 
1.6654094e+3, 2.9249945e+2, 128357.164, -323283.28, -32019.219, -0.25169092, 0.2873082, 130615.88, 204150.7, 0.0008722256, 10.002768, 9.996772 
1.6654594e+3, 3.0249643e+2, 222171.56, -274356.8, -59796.36, -0.38100904, 0.33939654, 229271.25, 229271.25, 0.0018777479, 10.003166, 9.996587 
1.6655146e+3, 3.1249374e+2, 399872.1, -1265.7103, -59581.13, 0.09710501, 0.39504346, 408534.66, 408534.66, 0.0030955712, 10.003573, 9.998267 
1.6745423e+3, 1.2245947e+2, -2354319.8, -1794498.1, 5710.9824, -0.037934873, 0.21028969, -1794439.9, -54527.285, 0.044670317, 9.994606, 10.002054 
1.6745949e+3, 1.3245937e+2, -2055555.0, -1675653.0, 75952.95, -0.09069465, 0.06875936, -1661030.8, -19117.285, 0.028026333, 9.996327, 10.001367 
1.6746497e+3, 1.4246087e+2, -1719147.5, -1522692.0, -1734.0297, 0.15311025, 0.120664105, -1522676.8, 21222.207, 0.013357116, 9.9982195, 10.000826 
1.6746995e+3, 1.52462e+2, -1395176.3, -1322430.6, -25561.162, -0.07986082, 0.16158187, -1314347.3, 131540.52, 0.004090086, 9.999799, 10.000768 
1.67475e+3, 1.6246265e+2, -1233023.6, -1228024.0, -67008.25, -0.2171976, 0.18442237, -1163469.0, 184412.34, 0.0005678562, 10.000389, 10.000457 
1.674803e+3, 1.7246264e+2, -1384879.1, -1233389.9, -53855.01, -0.047445077, 0.13195004, -1216195.8, 33684.777, 0.000011659807, 9.998606, 10.000603 
1.6748555e+3, 1.824627e+2, -1513166.0, -1296920.6, -72048.016, 0.071816646, 0.11998813, -1275114.8, -123234.48, 0.0, 9.997267, 10.000145 
1.6749056e+3, 1.924635e+2, -1400196.8, -1175969.5, -82756.29, 0.029481439, 0.17887208, -1148734.4, -94857.875, 0.0, 9.997312, 10.000274 
1.6749558e+3, 2.024638e+2, -1254494.4, -1119726.0, -79938.99, -0.0082370965, 0.22718248, -1082559.4, -126683.305, 0.0, 9.9979105, 9.999708 
1.6750067e+3, 2.1246317e+2, -883373.44, -882843.2, -65840.51, -0.009785244, 0.19368637, -817267.25, 40613.12, 0.0, 9.999753, 9.999773 
1.6750574e+3, 2.2246227e+2, -618364.56, -779523.6, -85318.055, -0.017367732, 0.17686513, -581588.94, 178298.5, 0.0, 10.001229, 9.999093 
1.6751075e+3, 2.324613e+2, -434865.03, -637852.75, -76839.99, -0.032312013, 0.17319754, -409058.53, 252837.52, 0.0, 10.001805, 9.999114 
1.6751572e+3, 2.4245934e+2, -471257.06, -875489.3, -83590.625, -0.06746772, 0.18019034, -454653.44, 109263.414, 0.0, 10.002041, 9.996702 
1.6752067e+3, 2.5245553e+2, -464189.53, -881817.7, -141912.31, -0.1583253, 0.18327796, -420531.0, 45431.125, 0.0000000017385277, 10.001686, 9.996153 
1.6752574e+3, 2.624527e+2, -259095.7, -515026.38, -145855.19, -0.16591378, 0.23611812, -193027.89, 174967.31, 0.0000048816705, 10.001482, 9.998097 
1.6753107e+3, 2.7245262e+2, -50142.887, -260014.03, -87731.35, 0.051922232, 0.3449136, -18300.3, 251692.63, 0.000051379237, 10.001795, 9.999023 
1.6753633e+3, 2.8245085e+2, -24328.955, -398741.84, -16260.678, 0.120203264, 0.36045372, -23624.084, 148383.38, 0.00026518977, 10.0021715, 9.997217 
1.675412e+3, 2.9244584e+2, 128932.96, -305303.63, -6202.9844, -0.24262293, 0.1664, 129021.55, 203077.53, 0.0008537965, 10.002693, 9.996931 
1.6754617e+3, 3.0244243e+2, 232516.4, -231346.64, -45313.73, -0.4573407, 0.1545977, 236901.55, 236901.55, 0.0018697947, 10.003075, 9.996927 
1.6755173e+3, 3.1244045e+2, 353388.2, -45523.527, -13482.396, 0.007280798, 0.25361568, 353843.34, 353843.34, 0.0031225388, 10.003355, 9.998065 
1.6845389e+3, 1.2240761e+2, -1961834.9, -1677239.0, -138992.39, 0.036522653, 0.25261536, -1620620.9, 119797.336, 0.04776628, 9.99761, 10.001437 
1.6845918e+3, 1.3240573e+2, -2007786.8, -1699337.1, -10253.66, -0.034186468, -0.021902459, -1698996.6, -56559.973, 0.030093629, 9.996868, 10.000935 
1.6846463e+3, 1.4240703e+2, -2002176.6, -1698374.6, -49507.574, 0.08508484, 0.052084617, -1690510.4, -146085.2, 0.0144471, 9.996446, 10.000476 
1.6846979e+3, 1.5240921e+2, -1876282.4, -1585751.3, -40734.965, -0.055415574, 0.2281767, -1580147.9, -133740.39, 0.004479329, 9.996638, 10.00048 
1.6847494e+3, 1.624104e+2, -1707855.8, -1425668.0, -87942.35, -0.13208462, 0.3162038, -1400505.0, -52107.914, 0.0006375465, 9.996996, 10.000735 
1.6848016e+3, 1.7240967e+2, -1454518.6, -1211627.1, -87931.89, -0.020285469, 0.14404392, -1183136.0, 67263.695, 0.00001399049, 9.997886, 10.0011015 
1.6848533e+3, 1.8240921e+2, -1296284.9, -1204808.1, -72400.63, 0.07488318, 0.053021375, -1164908.6, -12506.414, 0.0, 9.99882, 10.000022 
1.6849047e+3, 1.9241013e+2, -1059925.1, -1053860.6, -90712.45, 0.09324771, 0.1565506, -966129.75, 88269.37, 0.0, 9.999832, 9.999896 
1.6849557e+3, 2.0241046e+2, -878969.75, -942856.56, -88489.36, 0.07361563, 0.23610759, -816834.75, 139564.47, 0.0, 10.000507, 9.999668 
1.6850065e+3, 2.1240984e+2, -802720.44, -831211.8, -86159.484, -0.02747107, 0.19473763, -729636.9, 128765.44, 0.0, 10.000264, 9.999871 
1.6850573e+3, 2.224089e+2, -804039.75, -879299.2, -133543.94, -0.08165554, 0.17272316, -702925.1, 57483.984, 0.0, 9.999991, 9.999008 
1.6851081e+3, 2.3240782e+2, -746119.7, -801726.94, -171453.05, -0.016660808, 0.17172536, -600230.5, 62189.88, 0.0, 9.99973, 9.99899 
1.6851588e+3, 2.4240598e+2, -746103.3, -981018.75, -139090.08, -0.0030526835, 0.18884665, -681510.6, -117069.516, 0.0, 10.000045, 9.996935 
1.6852084e+3, 2.5240257e+2, -420798.8, -824491.1, -53144.71, -0.14846666, 0.20034796, -413919.72, 52561.074, 0.0000000018399801, 10.001823, 9.996481 
1.685259e+3, 2.623998e+2, -82097.98, -455795.7, -13519.602, -0.19574344, 0.24677636, -81609.51, 286903.06, 0.0000039092515, 10.0028105, 9.997865 
1.685312e+3, 2.7239898e+2, -96164.18, -326297.47, -94585.87, 0.015189811, 0.31831133, -62278.42, 208241.36, 0.000046342717, 10.001679, 9.99862 
1.6853645e+3, 2.8239712e+2, -145778.38, -398326.66, -60176.727, 0.100518145, 0.32978165, -132172.58, 40363.81, 0.00025182753, 10.001084, 9.997745 
1.6854148e+3, 2.9239357e+2, 114437.63, -212760.6, -2352.3757, -0.19100127, 0.20222929, 114454.55, 189022.75, 0.0008279381, 10.002166, 9.997821 
1.6854653e+3, 3.023909e+2, 220289.33, -160969.28, -39339.215, -0.3672311, 0.17986177, 224306.13, 224306.13, 0.0018460185, 10.002658, 9.99761 
1.6855192e+3, 3.123887e+2, 75376.77, -161730.56, -5052.5635, 0.009192096, 0.2039165, 75484.39, 75484.39, 0.0031299992, 10.001344, 9.998242 
1.6945358e+3, 1.22353606e+2, -1969847.4, -1747887.5, -191794.39, -0.06251935, 0.2706532, -1637278.5, 103671.76, 0.051028147, 9.997841, 10.000841 
1.694589e+3, 1.3235235e+2, -2005317.3, -1710572.9, -43164.715, 0.007850105, 0.07325687, -1704381.6, -61418.188, 0.032295942, 9.99693, 10.000832 
1.6946425e+3, 1.4235356e+2, -1995211.5, -1678733.3, -57119.3, 0.0650289, 0.14226307, -1668739.6, -123786.664, 0.015627254, 9.996419, 10.000626 
1.694696e+3, 1.5235521e+2, -1867545.9, -1553219.6, -33324.81, 0.10351577, 0.23961134, -1549725.4, -102784.91, 0.004910431, 9.9965725, 10.000737 
1.6947486e+3, 1.6235627e+2, -1681183.4, -1360410.8, -60874.684, 0.09873698, 0.28146064, -1349246.8, -316.128, 0.0007170378, 9.996949, 10.001206 
1.6947995e+3, 1.7235652e+2, -1413150.4, -1130694.8, -47966.73, -0.00083209167, 0.15145923, -1122771.3, 128150.56, 0.000016975888, 9.9979, 10.001652 
1.6948508e+3, 1.8235661e+2, -1308083.9, -1240387.6, -37592.402, -0.07279113, 0.09012566, -1223650.4, -70732.69, 0.0, 9.998865, 9.999759 
1.694903e+3, 1.923569e+2, -1095755.6, -1135154.8, -50337.5, -0.053963915, 0.18573898, -1061400.3, -6479.5874, 0.0, 9.99986, 9.999327 
1.6949551e+3, 2.0235664e+2, -894558.3, -970319.94, -89379.164, -0.037595008, 0.24622579, -835363.94, 121563.086, 0.0, 10.000486, 9.99949 
1.6950066e+3, 2.1235551e+2, -807931.1, -838563.44, -94610.11, -0.029293941, 0.16105983, -727405.44, 131529.47, 0.0, 10.000244, 9.999834 
1.6950577e+3, 2.2235437e+2, -841633.8, -943985.7, -146161.11, -0.017164256, 0.13555308, -737948.4, 22996.67, 0.0, 9.999935, 9.998591 
1.695108e+3, 2.3235379e+2, -791518.2, -888655.2, -176155.53, 0.006393301, 0.24003516, -657358.25, 5597.8574, 0.0, 9.999696, 9.998411 
1.6951588e+3, 2.4235281e+2, -646081.06, -761526.06, -91323.92, -0.0016173571, 0.32455552, -595766.8, -30797.516, 0.0, 9.999992, 9.998467 
1.6952106e+3, 2.5235122e+2, -275320.25, -500889.06, 18773.322, -0.09361124, 0.3007626, -273768.47, 193213.84, 0.0000000033657745, 10.001731, 9.998748 
1.6952622e+3, 2.6234892e+2, -170245.81, -606414.7, -33145.984, -0.1473298, 0.2871778, -167741.31, 201263.39, 0.0000030031388, 10.002667, 9.9969 
1.6953126e+3, 2.7234524e+2, -251513.84, -636379.44, -135098.7, -0.08851562, 0.26629716, -208825.31, 62221.703, 0.000041356147, 10.001629, 9.996513 
1.6953638e+3, 2.8234234e+2, -107400.125, -321610.84, -39115.78, -0.05904216, 0.28582388, -100480.92, 72597.84, 0.00023869949, 10.001091, 9.998271 
1.6954176e+3, 2.9234216e+2, 198196.34, -8861.21, 48130.87, -0.1290327, 0.36554444, 208837.56, 283912.53, 0.0007962462, 10.00203, 9.99929 
1.6954699e+3, 3.0234104e+2, 247947.67, -46510.89, -69083.16, -0.16401611, 0.3697796, 263349.72, 263349.72, 0.0017946321, 10.0024185, 9.998509 
1.6955207e+3, 3.1233832e+2, 102365.83, -80004.36, -32796.617, 0.022526834, 0.2680616, 108084.5, 108084.5, 0.0030776917, 10.001246, 9.998845 
1.7045338e+3, 1.22299194e+2, -1879264.9, -1767574.1, -157836.89, -0.06961762, 0.19901076, -1655994.4, 85489.76, 0.054460447, 9.998729, 10.0002775 
1.7045873e+3, 1.3229924e+2, -1867592.9, -1689622.6, -53537.598, 0.1123533, 0.17273614, -1674758.6, -31270.484, 0.034638863, 9.998072, 10.000427 
1.7046393e+3, 1.4230064e+2, -1814785.9, -1589488.6, -48959.56, 0.06575564, 0.2844623, -1579309.1, -33831.426, 0.016903277, 9.997655, 10.000639 
1.7046933e+3, 1.5230109e+2, -1634027.9, -1420610.4, -28902.195, 0.124527216, 0.24715327, -1416765.5, 30708.11, 0.00538814, 9.998089, 10.000914 
1.7047465e+3, 1.6230148e+2, -1471599.9, -1250368.5, -64579.563, 0.13807786, 0.20733826, -1232896.9, 116571.4, 0.0008082668, 9.99835, 10.001287 
1.7047976e+3, 1.7230268e+2, -1370637.6, -1103268.1, -94005.086, 0.022798082, 0.16758974, -1073525.4, 177925.77, 0.000020835996, 9.99817, 10.001709 
1.7048492e+3, 1.8230334e+2, -1414024.0, -1300601.8, -88033.76, -0.06197318, 0.16439869, -1252593.8, -99151.79, 0.0, 9.998173, 9.999683 
1.704902e+3, 1.9230299e+2, -1257185.3, -1224982.3, -70092.74, -0.058249928, 0.20788105, -1169165.4, -113714.57, 0.0, 9.998803, 9.999221 
1.7049547e+3, 2.0230237e+2, -1082033.0, -1047877.6, -106648.76, -0.031832844, 0.23677029, -956947.9, 512.4359, 0.0, 9.999146, 9.999601 
1.7050067e+3, 2.1230179e+2, -1021606.94, -919903.44, -112345.22, 0.03333246, 0.18867615, -847437.06, 12025.928, 0.0, 9.998688, 10.000025 
1.7050579e+3, 2.2230093e+2, -1014527.56, -1049950.3, -108116.92, 0.06696054, 0.1865452, -922680.9, -161210.14, 0.0, 9.998849, 9.998384 
1.7051081e+3, 2.3229977e+2, -668568.7, -870846.44, -120215.03, 0.0054772818, 0.26618692, -612606.56, 50881.855, 0.0, 10.00072, 9.998036 
1.7051591e+3, 2.4229854e+2, -366815.97, -571837.94, -72189.16, -0.048795637, 0.33220497, -343948.44, 221555.33, 0.0, 10.001673, 9.9989605 
1.7052115e+3, 2.5229767e+2, -459565.6, -496307.38, -75266.16, -0.07933264, 0.30202776, -400460.78, 67046.33, 0.0000000026261497, 10.000069, 9.999576 
1.7052637e+3, 2.622959e+2, -638421.9, -805975.44, -140561.42, -0.08720366, 0.2845542, -558564.75, -189042.13, 0.0000021613648, 9.999355, 9.997119 
1.705314e+3, 2.7229244e+2, -296177.5, -662260.9, -110846.18, -0.06494081, 0.28609765, -265230.53, 6334.2, 0.000036385776, 10.00134, 9.996476 
1.7053655e+3, 2.8228968e+2, 59506.86, -238856.16, 32769.332, -0.054689053, 0.3199862, 63063.53, 236659.95, 0.0002227913, 10.002239, 9.998281 
1.7054188e+3, 2.9228896e+2, -83639.55, -143176.98, 10420.35, -0.08171856, 0.34510255, -81868.445, -6271.865, 0.00075158395, 10.000095, 9.999295 
1.7054711e+3, 3.0228716e+2, -179719.75, -206520.2, -126020.79, -0.09664613, 0.27123657, -66388.74, -66388.74, 0.0017015715, 9.999292, 9.998907 
1.7055212e+3, 3.122864e+2, 312667.97, 109854.17, -93255.336, -0.10183456, 0.31056383, 349028.7, 349028.7, 0.0029375195, 10.002315, 9.999634 
1.7145333e+3, 1.2224401e+2, -1899615.9, -1835064.8, -142963.67, -0.018456133, -0.025852479, -1720778.6, 21244.04, 0.058051143, 9.998834, 9.99975 
1.7145869e+3, 1.3224666e+2, -1909921.0, -1799294.3, -79719.9, 0.25576594, 0.281953, -1757577.5, -113568.86, 0.037118543, 9.998159, 9.999637 
1.7146368e+3, 1.4224842e+2, -1814165.8, -1610316.8, -42970.855, 0.05041087, 0.4910559, -1601628.9, -55631.348, 0.018276531, 9.997744, 10.000457 
1.7146899e+3, 1.5224683e+2, -1617216.8, -1407072.6, -8295.448, -0.026935553, 0.24399558, -1406745.6, 41261.72, 0.005915651, 9.998174, 10.000971 
1.7147428e+3, 1.6224588e+2, -1485980.5, -1296843.4, -71006.47, -0.057717074, 0.0806953, -1273153.3, 76857.97, 0.0009130136, 9.998422, 10.000935 
1.7147957e+3, 1.7224807e+2, -1402642.9, -1176331.9, -102465.59, 0.025690531, 0.18889777, -1136833.0, 115155.32, 0.000025810483, 9.998197, 10.001196 
1.7148486e+3, 1.8224935e+2, -1404505.3, -1282195.6, -75615.15, 0.08338044, 0.27690068, -1246100.5, -92124.734, 0.0, 9.998176, 9.999808 
1.7149019e+3, 1.9224833e+2, -1232442.8, -1175482.5, -41757.72, 0.06039918, 0.2206234, -1153417.4, -97427.48, 0.0, 9.998806, 9.999561 
1.7149547e+3, 2.0224762e+2, -1055938.1, -991728.25, -115208.4, 0.05653496, 0.2036519, -904235.1, 53764.402, 0.0, 9.999137, 9.999991 
1.7150061e+3, 2.1224861e+2, -996943.4, -863058.7, -128233.17, 0.13348491, 0.27030686, -785346.2, 74641.28, 0.0, 9.99866, 10.000428 
1.7150573e+3, 2.222485e+2, -1025831.56, -1061997.8, -61822.31, 0.1440861, 0.31725988, -979502.0, -217514.42, 0.0, 9.998799, 9.998326 
1.7151083e+3, 2.322457e+2, -692207.94, -908369.3, -42765.082, -0.04312282, 0.25649545, -684054.9, -20036.848, 0.0, 10.00067, 9.997803 
1.7151593e+3, 2.4224317e+2, -406075.06, -639452.06, -101663.25, -0.179647, 0.2214488, -368000.44, 198044.36, 0.0, 10.001608, 9.998529 
1.7152111e+3, 2.5224206e+2, -495433.34, -569248.44, -134853.14, -0.12944175, 0.21593979, -392528.38, 75525.11, 0.0000000000058928205, 10.00006, 9.999082 
1.7152633e+3, 2.6224092e+2, -555569.44, -636263.5, -99666.02, -0.052008774, 0.2491421, -488393.47, -118328.97, 0.0000014626683, 9.999361, 9.998284 
1.7153165e+3, 2.7224028e+2, -181545.19, -409461.0, -27192.89, 0.04589588, 0.3667552, -178345.69, 93730.39, 0.000031753894, 10.001275, 9.998244 
1.715369e+3, 2.822387e+2, 14503.2, -309283.38, -13491.312, 0.06485336, 0.42212448, 15064.374, 189158.31, 0.0002048342, 10.002139, 9.997845 
1.715419e+3, 2.9223415e+2, -169065.42, -328423.2, -65460.0, -0.07807158, 0.17539687, -145624.3, -69492.94, 0.0006960156, 10.00013, 9.998007 
1.7154697e+3, 3.0222985e+2, -182721.39, -228529.27, -56621.84, -0.18547034, -0.05476704, -144546.5, -144546.5, 0.001576833, 9.999356, 9.998729 
1.7155206e+3, 3.122324e+2, 353737.28, 245746.61, 46699.543, -0.3900519, 0.28233537, 371130.63, 371130.63, 0.002730713, 10.002101, 10.000673 
1.7245308e+3, 1.2219075e+2, -2265229.3, -1982120.3, -138677.92, 0.0020405573, 0.020810226, -1925510.1, -182961.52, 0.06177432, 9.996212, 9.9999895 
1.7245853e+3, 1.3219355e+2, -2015367.9, -1838134.1, -71988.07, 0.33052665, 0.33201182, -1812579.0, -168047.56, 0.039721623, 9.997401, 9.999723 
1.7246346e+3, 1.4219503e+2, -1754952.8, -1599110.9, 24430.045, 0.052875217, 0.5104551, -1595370.9, -48849.105, 0.019743169, 9.998222, 10.000303 
1.7246881e+3, 1.5219298e+2, -1601078.6, -1421513.6, 36576.313, -0.0055038687, 0.23898324, -1414349.1, 34185.78, 0.006494274, 9.9983835, 10.00077 
1.7247416e+3, 1.6219167e+2, -1526218.9, -1389927.9, -52649.094, -0.008046013, 0.07561453, -1371958.8, -21416.191, 0.001032908, 9.998457, 10.00028 
1.7247947e+3, 1.7219347e+2, -1419021.4, -1273545.3, -116869.234, 0.1042548, 0.22125803, -1208627.1, 43899.47, 0.00003215152, 9.998467, 10.000397 
1.7248477e+3, 1.8219455e+2, -1354542.3, -1235613.4, -85402.26, 0.17785396, 0.331396, -1191012.6, -36494.715, 0.0, 9.9984255, 10.000005 
1.724901e+3, 1.9219385e+2, -1248049.9, -1117398.8, -36821.984, 0.1173926, 0.25410792, -1107735.8, -51208.57, 0.0, 9.998417, 10.000144 
1.7249538e+3, 2.0219341e+2, -1099956.8, -1012722.44, -98912.04, 0.08036571, 0.22705342, -948237.56, 10295.268, 0.0, 9.998832, 9.999995 
1.7250057e+3, 2.1219446e+2, -743159.2, -764054.3, -158946.98, 0.13299891, 0.31962803, -594316.8, 266204.56, 0.0, 10.000505, 10.00022 
1.7250574e+3, 2.2219433e+2, -609563.75, -825611.4, -111632.305, 0.13561119, 0.37089583, -562246.3, 200275.19, 0.0, 10.00151, 9.998641 
1.7251088e+3, 2.321915e+2, -669230.6, -839371.56, -50058.125, -0.03451681, 0.25621134, -655595.5, 8953.839, 0.0, 10.0005865, 9.998315 
1.7251602e+3, 2.4218889e+2, -636291.8, -749322.6, -82118.06, -0.16175646, 0.18255426, -593120.9, -26546.08, 0.0, 10.000032, 9.9985285 
1.725211e+3, 2.521878e+2, -405332.16, -547052.3, -110165.44, -0.151364, 0.19279112, -345205.3, 123380.1, 0.0000000000049057277, 10.000776, 9.998885 
1.725263e+3, 2.621868e+2, -255913.78, -468790.06, -45261.688, -0.08895048, 0.24644426, -246689.92, 123906.39, 0.0000011502509, 10.001316, 9.998491 
1.7253177e+3, 2.7218673e+2, -165485.0, -360109.72, -57743.88, 0.04480545, 0.3861858, -149642.38, 122959.98, 0.000028657565, 10.001205, 9.998614 
1.7253704e+3, 2.821857e+2, -63672.4, -279827.9, -115567.55, 0.0762708, 0.4536735, -13520.391, 161093.73, 0.00019054933, 10.001314, 9.9984455 
1.7254196e+3, 2.9218188e+2, 163526.22, -92160.59, -71506.94, -0.11186871, 0.21277514, 182165.52, 258807.9, 0.0006451403, 10.002094, 9.99868 
1.7254703e+3, 3.021778e+2, 198590.03, -136130.81, 47824.043, -0.17685221, -0.007069551, 205288.94, 205288.94, 0.0014572614, 10.002362, 9.997923 
1.7255223e+3, 3.121775e+2, 155660.45, 71426.26, 45722.04, -0.3482092, 0.16799174, 175707.3, 175707.3, 0.0025272819, 10.0010605, 9.999982 
1.7345262e+3, 1.22140095e+2, -2206246.0, -1836135.4, -45151.434, -0.07388379, 0.40843195, -1830706.8, -87650.24, 0.06561491, 9.996107, 10.001042 
1.7345823e+3, 1.3213988e+2, -1938279.4, -1680627.8, -29556.895, 0.3018596, 0.30717203, -1677280.5, -32223.514, 0.042436883, 9.997405, 10.000805 
1.7346328e+3, 1.4214012e+2, -1750851.1, -1606009.6, 39563.52, 0.053065307, 0.29763743, -1595907.4, -48855.03, 0.021297567, 9.998285, 10.000227 
1.7346883e+3, 1.5213963e+2, -1630993.0, -1492706.9, 43641.492, 0.18135731, 0.227294, -1480086.0, -31030.637, 0.0071235094, 9.998421, 10.000263 
1.734743e+3, 1.621391e+2, -1586392.4, -1524410.9, -52233.426, 0.27528492, 0.20646358, -1494666.5, -143606.22, 0.0011691477, 9.998494, 9.999342 
1.7347945e+3, 1.7213894e+2, -1493358.4, -1438075.5, -114548.65, 0.2463175, 0.26931125, -1347880.4, -94814.836, 0.00004011834, 9.998505, 9.999254 
1.7348464e+3, 1.8213882e+2, -1331390.1, -1196528.0, -90938.72, 0.19229734, 0.3220761, -1150747.8, 4321.95, 0.0, 9.998464, 10.000256 
1.734899e+3, 1.921394e+2, -1193028.3, -1004017.06, -36931.13, 0.09019023, 0.30379292, -997057.3, 60006.367, 0.0, 9.998418, 10.000925 
1.7349519e+3, 2.0213965e+2, -1127730.3, -1066464.3, -55551.25, 0.0073624817, 0.3096865, -1033659.7, -74598.75, 0.0, 9.998814, 9.999636 
1.7350048e+3, 2.1213935e+2, -807391.4, -889300.25, -90089.13, 0.004445003, 0.34250075, -749384.6, 111679.82, 0.0, 10.000467, 9.999379 
1.7350575e+3, 2.2213854e+2, -573907.2, -738337.5, -123414.08, 0.0037720466, 0.35377073, -507830.84, 255241.33, 0.0, 10.00145, 9.99927 
1.7351097e+3, 2.3213705e+2, -589473.6, -665852.5, -85020.69, -0.0003958104, 0.26330182, -534459.25, 130624.05, 0.0, 10.000547, 9.999527 
1.7351614e+3, 2.4213555e+2, -617262.94, -699250.4, -73579.06, -0.04068665, 0.20982194, -574028.6, -6933.201, 0.0, 9.999986, 9.998896 
1.7352116e+3, 2.521346e+2, -411826.88, -547462.5, -76136.35, -0.1662572, 0.22498868, -377683.9, 91421.57, 0.000000000000012544113, 10.000718, 9.998911 
1.735263e+3, 2.6213333e+2, -313669.75, -566927.06, -42102.598, -0.21744525, 0.27218133, -306853.88, 64266.406, 0.0000010511417, 10.001221, 9.997864 
1.7353174e+3, 2.721319e+2, -239790.38, -496164.7, -55558.445, -0.08609937, 0.3592696, -228268.23, 44873.97, 0.000028117367, 10.001126, 9.997719 
1.7353705e+3, 2.8213087e+2, 21144.68, -81963.88, -94158.28, -0.05405984, 0.433477, 76938.555, 252093.55, 0.00018317033, 10.001217, 9.999852 
1.7354207e+3, 2.9213145e+2, 294275.53, 221178.3, -38073.508, -0.2058178, 0.4132343, 310503.72, 387640.56, 0.0006110962, 10.001909, 10.000926 
1.7354733e+3, 3.0212995e+2, 75726.32, -338396.1, 9528.819, -0.12668763, 0.36178008, 75945.46, 75945.46, 0.0013777206, 10.002136, 9.99664 
1.7355259e+3, 3.1212124e+2, -1392.9305, -250808.88, -11078.888, -0.09907788, -0.074775085, -901.781, -901.781, 0.002401666, 10.001055, 9.997766 
1.7445233e+3, 1.22086644e+2, -1816157.0, -1619707.6, 22067.188, -0.077044755, 0.5305939, -1617259.4, 126324.55, 0.06957688, 9.998618, 10.001386 
1.7445797e+3, 1.3208486e+2, -1848934.3, -1603916.6, -93220.875, 0.30097577, 0.24002205, -1572482.1, 73111.92, 0.045260757, 9.997859, 10.001138 
1.744631e+3, 1.4208455e+2, -1911882.1, -1713275.0, -53980.586, 0.08234088, 0.16416253, -1699551.6, -151959.0, 0.022935338, 9.997316, 9.999955 
1.744687e+3, 1.5208511e+2, -1710759.4, -1588398.4, -56375.926, 0.2398829, 0.2489696, -1566384.6, -116794.27, 0.0078018596, 9.998126, 9.999745 
1.744742e+3, 1.6208525e+2, -1542132.5, -1498736.4, -133394.22, 0.33604848, 0.32848674, -1385287.0, -33694.72, 0.0013223152, 9.998788, 9.9993725 
1.744793e+3, 1.720844e+2, -1408748.9, -1366168.6, -103839.484, 0.24958697, 0.30147478, -1281459.1, -27857.105, 0.000049909977, 9.998963, 9.999521 
1.7448446e+3, 1.8208382e+2, -1253001.1, -1168120.8, -18030.672, 0.16336814, 0.2928948, -1164449.4, -8840.451, 0.0000000000000006446772, 9.999041, 10.000175 
1.7448975e+3, 1.9208468e+2, -1120496.3, -988402.8, -35606.875, 0.088618375, 0.32044637, -979416.06, 78184.15, 0.0, 9.999004, 10.000748 
1.7449507e+3, 2.0208508e+2, -1102368.6, -1039458.94, -61087.78, 0.024806205, 0.34686908, -1002203.4, -42607.348, 0.0, 9.998924, 9.999766 
1.745004e+3, 2.1208438e+2, -1029552.5, -966117.2, -18394.426, -0.006667873, 0.3157877, -961169.25, -99567.195, 0.0, 9.998811, 9.999649 
1.7450573e+3, 2.2208339e+2, -934147.44, -921053.1, -31081.494, -0.016002446, 0.29367554, -895836.7, -132225.69, 0.0, 9.999014, 9.99919 
1.74511e+3, 2.3208235e+2, -670387.06, -730196.5, -105617.78, 0.014213779, 0.2666284, -590521.94, 75098.41, 0.0, 10.000105, 9.999296 
1.745162e+3, 2.4208124e+2, -491515.5, -623064.4, -164410.72, 0.001304709, 0.26313543, -380210.4, 187420.3, 0.0, 10.000783, 9.999035 
1.7452122e+3, 2.5208053e+2, -467554.25, -539012.3, -160798.16, -0.12541161, 0.27984402, -338563.5, 131074.11, 0.0, 10.000186, 9.999223 
1.7452638e+3, 2.6207948e+2, -502313.03, -625692.25, -83734.22, -0.18033642, 0.3159195, -459997.7, -88348.19, 0.0000010008785, 9.99979, 9.99815 
1.7453179e+3, 2.720777e+2, -351969.78, -517182.22, -24661.797, -0.09071059, 0.3413898, -348367.0, -74694.83, 0.00002867182, 10.000219, 9.998011 
1.7453708e+3, 2.820763e+2, -121054.73, -143811.8, -52241.508, -0.07706266, 0.35652977, -78966.95, 96720.32, 0.0001789266, 10.000216, 9.999907 
1.7454213e+3, 2.9207703e+2, -152447.56, -3108.869, -160287.08, -0.1634376, 0.35668376, 99047.85, 176717.84, 0.000595069, 9.998877, 10.000845 
1.7454748e+3, 3.0207676e+2, -335047.66, -512759.53, -90707.555, -0.011329642, 0.42832866, -296926.28, -296926.28, 0.0013559671, 9.999207, 9.996857 
1.7455287e+3, 3.1206784e+2, 493989.22, 15250.818, 38670.367, -0.07512989, -0.06442086, 497092.72, 497092.72, 0.0023952532, 10.00435, 9.998 
1.7545223e+3, 1.2203e+2, -1831496.3, -1682825.6, 40245.594, -0.038046926, 0.33374086, -1672630.3, 71502.55, 0.07366958, 9.9987755, 10.000848 
1.7545776e+3, 1.3202843e+2, -1882911.1, -1682722.3, -136236.3, 0.30851746, 0.124060996, -1613762.8, 32380.281, 0.048192136, 9.997903, 10.000564 
1.7546283e+3, 1.4202839e+2, -1951031.1, -1792846.9, -47451.49, 0.10972323, 0.1321144, -1779704.5, -231562.72, 0.024652572, 9.997304, 9.999416 
1.754684e+3, 1.5202938e+2, -1746136.4, -1665750.3, -22131.975, 0.12944447, 0.30964157, -1660059.6, -209918.86, 0.008527423, 9.998141, 9.999207 
1.7547387e+3, 1.6202998e+2, -1461701.5, -1345463.1, -125012.36, 0.123887494, 0.43716323, -1265720.3, 86419.83, 0.0014925194, 9.99884, 10.000403 
1.7547902e+3, 1.7202984e+2, -1282968.0, -1113541.4, -98125.02, 0.07887292, 0.31633797, -1068621.1, 185515.2, 0.00006156021, 9.998994, 10.001245 
1.7548425e+3, 1.8202959e+2, -1269832.3, -1211301.5, -18811.385, 0.052279424, 0.24251406, -1205777.0, -49642.22, 0.0000000010737394, 9.999073, 9.999863 
1.7548965e+3, 1.9202973e+2, -1203111.8, -1164210.5, -33810.613, 0.08109374, 0.3013335, -1144654.9, -86518.43, 0.0, 9.999018, 9.999536 
1.7549503e+3, 2.0202962e+2, -1062502.8, -955075.06, -67981.555, 0.09729615, 0.33584443, -922147.8, 37990.92, 0.0, 9.998915, 10.000351 
1.7550036e+3, 2.1202944e+2, -937536.7, -772935.1, -21019.574, 0.078426786, 0.23481198, -770293.3, 91841.88, 0.0, 9.998794, 10.000988 
1.7550568e+3, 2.220288e+2, -991304.44, -1030945.56, -3827.4473, 0.047243387, 0.18833391, -990938.25, -226799.25, 0.0, 9.998976, 9.998454 
1.7551097e+3, 2.3202732e+2, -793500.94, -974731.56, -57377.266, -0.013624401, 0.26651743, -776862.9, -110701.99, 0.0, 10.000054, 9.997643 
1.755162e+3, 2.4202588e+2, -512920.8, -647931.75, -168908.95, -0.06790264, 0.34121126, -398527.34, 169653.22, 0.0, 10.000695, 9.998908 
1.7552131e+3, 2.5202563e+2, -432856.25, -462967.63, -179513.47, -0.061704963, 0.35841832, -267768.22, 202413.55, 0.0, 10.000165, 9.999758 
1.755265e+3, 2.6202515e+2, -428145.4, -472390.97, -79591.03, -0.031995423, 0.38079593, -367659.78, 4525.037, 0.0000009484334, 9.99979, 9.999203 
1.7553188e+3, 2.7202383e+2, -267745.34, -334458.25, -2303.9282, -0.008920777, 0.32922456, -267665.88, 6529.5864, 0.00002877745, 10.000182, 9.999283 
1.7553714e+3, 2.820217e+2, -204226.97, -306197.38, -88931.234, -0.036002915, 0.22660154, -152702.39, 23511.87, 0.00017793888, 10.000168, 9.998816 
1.7554215e+3, 2.9201913e+2, -287168.4, -301560.03, -206929.64, -0.036276385, 0.08707045, -87309.51, -9072.575, 0.00060204027, 9.998956, 9.998757 
1.7554751e+3, 3.0201903e+2, -227270.06, -305733.75, 38368.035, 0.1075383, 0.25837624, -211627.11, -211627.11, 0.001396459, 9.999277, 9.998245 
1.7555311e+3, 3.1201717e+2, 549955.25, 236096.06, 205956.19, -0.26669765, 0.22330089, 651955.9, 651955.9, 0.002496979, 10.003911, 9.99973 
1.7645206e+3, 1.2197308e+2, -2155302.5, -1837095.8, -2157.7996, 0.016542416, 0.24471372, -1837081.1, -92392.44, 0.07790593, 9.996571, 10.000811 
1.7645757e+3, 1.3197222e+2, -1867207.9, -1695806.9, -204878.31, 0.329968, 0.12275485, -1559427.0, 87266.49, 0.05123237, 9.998102, 10.000389 
1.7646272e+3, 1.4197248e+2, -1696035.5, -1653227.8, -70463.84, 0.20674749, 0.16572879, -1600988.8, -52297.844, 0.026445003, 9.998981, 9.999565 
1.764682e+3, 1.5197356e+2, -1655795.4, -1590727.4, 13905.654, 0.0991278, 0.32875082, -1587880.1, -137191.17, 0.009296644, 9.998625, 9.999491 
1.7647359e+3, 1.6197431e+2, -1534118.4, -1341288.5, -66527.516, 0.007863436, 0.4377683, -1320563.5, 32123.166, 0.0016790463, 9.99818, 10.000745 
1.7647882e+3, 1.7197423e+2, -1411033.6, -1136656.0, -146811.4, 0.036954157, 0.2884736, -1072911.0, 181768.97, 0.000074904594, 9.99795, 10.001586 
1.7648411e+3, 1.8197407e+2, -1417017.0, -1255992.4, -108460.625, 0.07332487, 0.19405694, -1201427.3, -44751.063, 0.000000009428086, 9.997952, 10.000093 
1.7648952e+3, 1.919745e+2, -1222917.3, -1151204.5, -29162.732, 0.07968188, 0.26368847, -1140842.5, -82167.67, 0.0, 9.998789, 9.999733 
1.7649493e+3, 2.0197457e+2, -1004080.8, -961009.06, -22278.324, 0.0806797, 0.31305277, -951559.1, 9116.727, 0.0, 9.999468, 10.000043 
1.7650028e+3, 2.1197416e+2, -861366.56, -791929.7, -114686.07, 0.07991434, 0.23652814, -706822.2, 155855.05, 0.0, 9.999569, 10.000478 
1.7650561e+3, 2.2197345e+2, -881662.6, -935587.94, -143886.17, 0.059403192, 0.20470501, -762234.7, 2448.7224, 0.0, 9.999551, 9.99883 
1.7651092e+3, 2.3197252e+2, -844098.94, -912546.44, -37744.523, -0.02852423, 0.2707645, -827372.56, -160674.38, 0.0, 9.99934, 9.998411 
1.7651616e+3, 2.4197151e+2, -680641.06, -701376.44, -25346.49, -0.09459469, 0.3301566, -663623.8, -94911.84, 0.0, 9.999427, 9.999151 
1.765213e+3, 2.5197122e+2, -400447.28, -444751.63, -72632.54, -0.078160964, 0.335461, -346663.94, 124048.945, 0.0, 10.000382, 9.999777 
1.7652652e+3, 2.619707e+2, -253160.23, -390918.25, -27805.96, -0.0469667, 0.35554263, -247759.44, 124956.07, 0.0000007065843, 10.001007, 9.999175 
1.7653187e+3, 2.7196956e+2, -229311.95, -321242.9, -50061.043, -0.051043388, 0.3225838, -207314.69, 67410.38, 0.000027133234, 10.000469, 9.999233 
1.765371e+3, 2.8196728e+2, -222020.48, -391314.72, -169248.16, -0.08519694, 0.23541915, -117432.11, 59314.043, 0.00018007947, 10.000374, 9.998132 
1.7654213e+3, 2.919637e+2, 108113.25, -213196.52, -225175.16, -0.077514246, 0.08554978, 224069.72, 302851.0, 0.0006274738, 10.002118, 9.997836 
1.7654754e+3, 3.0196294e+2, 337329.38, 19701.686, 70112.336, 0.037166357, 0.22718725, 352117.3, 352117.3, 0.0014705316, 10.00292, 9.998729 
1.7655326e+3, 3.1196243e+2, -2908.986, -2367.9177, 79020.73, -0.27401954, 0.24278723, 76382.734, 76382.734, 0.0026291977, 9.999973, 9.999984 
1.7745171e+3, 1.21916234e+2, -2125296.5, -1763516.1, 62164.188, 0.031704377, 0.30467317, -1753132.5, -7883.146, 0.08231803, 9.996517, 10.001343 
1.7745739e+3, 1.3191633e+2, -1842487.6, -1657747.6, -150389.28, 0.3381624, 0.25135854, -1573626.4, 73618.766, 0.054393712, 9.998146, 10.000632 
1.7746277e+3, 1.4191677e+2, -1614974.6, -1513174.1, -72720.27, 0.34665427, 0.26371863, -1475310.3, 73930.18, 0.02831169, 9.999096, 10.000484 
1.7746808e+3, 1.5191774e+2, -1563527.3, -1409154.3, -1372.6995, 0.13562515, 0.29784045, -1409142.1, 42092.11, 0.010105246, 9.998664, 10.00072 
1.7747335e+3, 1.6191827e+2, -1562730.4, -1404362.0, -78157.74, -0.03537891, 0.32127517, -1372286.3, -19055.768, 0.0018804772, 9.998195, 10.000306 
1.7747869e+3, 1.7191756e+2, -1493623.0, -1308197.1, -154050.38, 0.11096734, 0.21488978, -1221112.4, 34121.336, 0.00008970714, 9.99795, 10.000408 
1.7748404e+3, 1.819172e+2, -1361879.1, -1146044.8, -92047.35, 0.20792621, 0.15174784, -1112121.1, 45112.684, 0.000000028818846, 9.997969, 10.000842 
1.7748937e+3, 1.9191898e+2, -1109811.0, -918181.06, 6440.854, 0.061207227, 0.210336, -917964.8, 141250.53, 0.0, 9.998794, 10.001332 
1.7749472e+3, 2.0191996e+2, -1081640.1, -1125941.3, -12455.832, -0.05924333, 0.2829761, -1078378.1, -117171.086, 0.0, 9.999482, 9.998905 
1.7750011e+3, 2.1191847e+2, -1032700.2, -1143883.6, -109182.42, -0.026468063, 0.31836858, -965771.56, -102543.28, 0.0, 9.999548, 9.998075 
1.775055e+3, 2.2191721e+2, -792533.06, -740886.25, -149826.31, -0.0075871293, 0.34119728, -614674.25, 150570.47, 0.0, 9.999504, 10.000192 
1.775108e+3, 2.319178e+2, -633571.4, -470993.88, -42056.24, -0.05915663, 0.28064108, -460758.94, 206474.86, 0.0, 9.999311, 10.001461 
1.7751607e+3, 2.4191795e+2, -645174.56, -613920.3, -4738.4165, -0.11941401, 0.23408647, -613217.75, -43990.39, 0.0, 9.99937, 9.999779 
1.7752123e+3, 2.5191712e+2, -441735.84, -519009.06, -31848.549, -0.18635677, 0.21589845, -430301.34, 40931.87, 0.0, 10.000333, 9.999291 
1.7752641e+3, 2.6191598e+2, -332004.75, -540605.8, -34067.656, -0.23310363, 0.24062891, -326581.97, 46661.844, 0.00000032347444, 10.000945, 9.998178 
1.7753172e+3, 2.7191478e+2, -323739.72, -504648.66, -67025.06, -0.23441233, 0.32249966, -301613.7, -26352.787, 0.00002298493, 10.000417, 9.998 
1.7753696e+3, 2.8191295e+2, -260550.39, -457464.66, -130705.664, -0.2569682, 0.37536305, -195368.36, -18085.568, 0.00017734611, 10.00031, 9.99771 
1.7754214e+3, 2.919102e+2, 81862.875, -232021.02, -146771.75, -0.2899288, 0.31775352, 139799.33, 219107.19, 0.00064377766, 10.001963, 9.997783 
1.7754754e+3, 3.0190784e+2, 292195.9, -21480.648, 14293.586, -0.24805738, 0.30174688, 292845.9, 292845.9, 0.001512066, 10.002696, 9.998553 
1.7755339e+3, 3.1190592e+2, -91269.82, -148326.36, -54596.84, -0.15783784, 0.21347387, -58197.14, -58197.14, 0.0026726192, 9.99984, 9.999036 
1.7845151e+3, 1.2185975e+2, -1785324.1, -1548210.9, 143475.17, 0.10805253, 0.32415867, -1480647.1, 265157.53, 0.08696164, 9.998592, 10.001955 
1.784571e+3, 1.3186012e+2, -1910329.9, -1652489.5, -75234.94, 0.2727567, 0.2634425, -1632142.4, 15654.263, 0.057701517, 9.997522, 10.000952 
1.7846255e+3, 1.418611e+2, -1939711.3, -1612735.8, -3144.546, 0.36072552, 0.2910062, -1612705.5, -62919.215, 0.030258754, 9.996636, 10.000972 
1.7846788e+3, 1.5186235e+2, -1717557.5, -1423261.4, 12631.596, 0.16084959, 0.2999387, -1422720.3, 29055.8, 0.0109521225, 9.997359, 10.001246 
1.7847317e+3, 1.6186307e+2, -1593967.9, -1418518.8, -91678.99, -0.007913628, 0.30555344, -1379355.0, -25585.031, 0.0020959692, 9.997979, 10.000312 
1.7847851e+3, 1.7186217e+2, -1497856.3, -1332901.3, -108595.414, 0.15812425, 0.19841655, -1279013.4, -23238.127, 0.000105867584, 9.998022, 10.000203 
1.7848386e+3, 1.8186164e+2, -1358769.0, -1153694.1, 1862.6328, 0.26273528, 0.13233674, -1153677.1, 4100.244, 0.0000000562377, 9.998039, 10.000754 
1.784892e+3, 1.918633e+2, -1184901.5, -958986.0, -10077.625, 0.051776137, 0.18474884, -958537.3, 101222.88, 0.0, 9.998307, 10.001286 
1.7849456e+3, 2.0186424e+2, -1193237.9, -1157164.4, -83890.08, -0.10689553, 0.2543519, -1089394.0, -127641.93, 0.0, 9.99862, 9.999107 
1.7850001e+3, 2.118632e+2, -1075852.0, -1127130.6, -3349.5977, -0.038420584, 0.30309048, -1075634.1, -211865.33, 0.0, 9.999093, 9.998408 
1.7850545e+3, 2.2186238e+2, -787808.25, -719342.8, 56626.09, 0.012947564, 0.34029698, -687406.06, 78374.63, 0.0, 9.999454, 10.000364 
1.7851074e+3, 2.318633e+2, -610921.44, -448593.53, -43366.152, -0.04262222, 0.2998466, -437734.6, 230032.48, 0.0, 9.999422, 10.00156 
1.7851602e+3, 2.4186353e+2, -612474.9, -583438.1, -130672.31, -0.10794002, 0.25097302, -466480.13, 103279.67, 0.0, 9.99953, 9.999912 
1.7852123e+3, 2.5186193e+2, -461499.47, -512025.13, -121688.76, -0.19269647, 0.14452207, -362478.88, 109291.336, 0.0, 10.00012, 9.999443 
1.7852645e+3, 2.6186028e+2, -399593.6, -598503.44, -97214.86, -0.25781143, 0.11320454, -359972.97, 13811.585, 0.00000018312008, 10.000584, 9.997955 
1.7853174e+3, 2.7185947e+2, -316507.6, -549640.56, -94384.04, -0.24996912, 0.27185342, -283087.1, -7286.1294, 0.000018531657, 10.000665, 9.997575 
1.7853703e+3, 2.8185806e+2, -223468.73, -456528.03, -82885.86, -0.2305813, 0.40207112, -196997.6, -19176.85, 0.00016923725, 10.00065, 9.997548 
1.7854226e+3, 2.918553e+2, -149539.94, -343679.13, -94851.26, -0.25370356, 0.3534376, -110891.93, -31047.8, 0.0006405078, 10.000375, 9.99778 
1.7854758e+3, 3.018519e+2, -93027.164, -241326.83, 28989.398, -0.3255617, 0.23814176, -87561.78, -87561.78, 0.0014948774, 10.000194, 9.998247 
1.7855348e+3, 3.1185043e+2, 8652.379, -158722.28, -102540.91, -0.07576214, 0.24339974, 57321.41, 57321.41, 0.002583484, 10.00078, 9.998506 
1.7945148e+3, 1.21803805e+2, -1708460.0, -1438194.4, 92912.81, 0.19944093, 0.29354432, -1409334.4, 337017.84, 0.09190124, 9.99875, 10.0027075 
1.7945665e+3, 1.318037e+2, -1878487.5, -1594146.5, -117340.15, 0.09986869, 0.13923085, -1551977.3, 96368.945, 0.06119029, 9.997536, 10.00138 
1.7946203e+3, 1.4180568e+2, -1950925.6, -1627899.4, -696.3818, 0.1925915, 0.23946343, -1627897.9, -77572.07, 0.03230053, 9.996594, 10.000892 
1.794676e+3, 1.5180758e+2, -1744021.9, -1473189.1, 48614.21, 0.14625198, 0.341541, -1464727.3, -12414.185, 0.011841973, 9.997336, 10.000915 
1.7947304e+3, 1.6180877e+2, -1557718.6, -1350294.5, -83271.03, 0.069984384, 0.4035529, -1321001.8, 33302.496, 0.0023264778, 9.998003, 10.000773 
1.794783e+3, 1.7180815e+2, -1435565.9, -1210646.4, -106466.45, 0.15563627, 0.2477038, -1168244.0, 88059.7, 0.00012352158, 9.998047, 10.001033 
1.794836e+3, 1.8180743e+2, -1420139.5, -1289866.0, 6163.851, 0.19648619, 0.14002928, -1289575.1, -131269.2, 0.000000085167756, 9.998075, 9.9998045 
1.7948899e+3, 1.9180739e+2, -1310218.3, -1221644.5, 1780.1443, 0.025671303, 0.18700139, -1221608.8, -161299.16, 0.0, 9.998313, 9.999482 
1.7949444e+3, 2.0180741e+2, -1090226.8, -940359.6, -70006.93, -0.090129204, 0.23136969, -912745.56, 49565.883, 0.0, 9.998604, 10.000605 
1.7949997e+3, 2.118083e+2, -865593.7, -688049.44, 17960.88, 0.020791924, 0.1940069, -686250.7, 178048.84, 0.0, 9.999076, 10.001433 
1.7950545e+3, 2.2180887e+2, -859588.5, -855523.1, 59652.375, 0.09063609, 0.20279047, -797868.8, -31576.24, 0.0, 9.999399, 9.9994545 
1.7951071e+3, 2.3180893e+2, -812910.25, -856152.9, -40656.668, -0.0056630503, 0.32163855, -788483.3, -120184.28, 0.0, 9.999372, 9.998787 
1.7951597e+3, 2.4180816e+2, -645170.44, -642721.8, -113339.32, -0.091607004, 0.37035865, -530600.2, 39709.47, 0.0, 9.999491, 9.999526 
1.7952129e+3, 2.5180572e+2, -415952.88, -408203.7, -91079.67, -0.13241397, 0.124318406, -320916.25, 151407.0, 0.0, 10.000079, 10.000177 
1.7952658e+3, 2.618036e+2, -374600.6, -534507.06, -88041.83, -0.17249225, -0.019606723, -335625.78, 38711.523, 0.00000012581046, 10.000528, 9.998424 
1.795319e+3, 2.7180347e+2, -306673.75, -514536.47, -83871.0, -0.15085061, 0.17586248, -277053.34, -707.06354, 0.000016560381, 10.000599, 9.997849 
1.7953724e+3, 2.8180254e+2, -230930.83, -454128.03, -89445.27, -0.079459265, 0.33371174, -199509.48, -21148.387, 0.00016528118, 10.000569, 9.997604 
1.7954251e+3, 2.9179928e+2, -144627.61, -338432.88, -95542.586, -0.03918054, 0.23475365, -105447.52, -25059.031, 0.0006345581, 10.000397, 9.997805 
1.7954764e+3, 3.017952e+2, -128285.65, -320347.16, 39077.61, -0.2838961, 0.072978586, -120639.19, -120639.19, 0.0014500081, 10.000218, 9.997694 
1.7955351e+3, 3.1179506e+2, -30549.799, -167097.7, -20220.916, -0.11089186, 0.2779046, -27618.29, -27618.29, 0.0024239137, 10.000474, 9.998594 
1.8045132e+3, 1.2174941e+2, -1787461.9, -1459717.1, 139232.31, 0.21361269, 0.30815175, -1408555.1, 338328.56, 0.097200245, 9.998149, 10.002852 
1.8045631e+3, 1.3174863e+2, -1841430.5, -1558097.0, -88314.55, 0.0058834488, 0.06688253, -1532823.9, 116059.76, 0.06490086, 9.997708, 10.001557 
1.804617e+3, 1.4175124e+2, -1842786.6, -1584255.8, 56838.434, 0.18256544, 0.2227575, -1572311.5, -21454.96, 0.034457777, 9.9973755, 10.000813 
1.8046734e+3, 1.5175268e+2, -1661717.6, -1456424.8, 136222.83, 0.13903686, 0.29651144, -1388504.6, 64343.266, 0.0127833225, 9.9979925, 10.00072 
1.8047284e+3, 1.6175364e+2, -1480284.9, -1305114.1, -6979.395, 0.065192185, 0.34314403, -1304836.5, 50005.2, 0.0025744103, 9.998512, 10.000832 
1.8047816e+3, 1.7175387e+2, -1326506.6, -1136966.9, -94276.42, 0.17980805, 0.2549, -1098060.4, 158773.56, 0.00014305822, 9.998723, 10.0012045 
1.8048348e+3, 1.8175362e+2, -1334175.4, -1292691.0, 2543.2937, 0.24418421, 0.19603486, -1292535.8, -133702.78, 0.00000010953618, 9.998852, 9.999409 
1.8048884e+3, 1.917526e+2, -1271420.6, -1273617.6, 75621.945, 0.031798784, 0.20575151, -1196889.3, -136041.94, 0.0, 9.998882, 9.998848 
1.8049425e+3, 2.0175199e+2, -1059466.1, -867891.0, 29895.258, -0.108720005, 0.2115125, -863334.25, 99520.81, 0.0, 9.998575, 10.001111 
1.8049982e+3, 2.1175355e+2, -1043490.94, -655988.06, -32805.61, 0.056097172, 0.1441044, -653230.4, 211602.27, 0.0, 9.997356, 10.002479 
1.8050532e+3, 2.2175464e+2, -1244930.9, -1036576.6, -33593.73, 0.16470988, 0.13380831, -1031294.1, -264476.0, 0.0, 9.996738, 9.999492 
1.8051061e+3, 2.3175453e+2, -999730.2, -994032.6, 33369.19, 0.02556965, 0.27411607, -963390.8, -294562.44, 0.0, 9.998299, 9.998356 
1.8051593e+3, 2.4175365e+2, -643887.8, -690804.94, 68507.016, -0.08293377, 0.3525587, -594934.25, -24091.629, 0.0, 9.999708, 9.999089 
1.8052134e+3, 2.5175127e+2, -437028.25, -468108.63, 6445.631, -0.077613935, 0.15741687, -435744.53, 37113.38, 0.0, 10.000154, 9.999727 
1.8052669e+3, 2.6174915e+2, -396718.25, -531933.9, -68364.766, -0.10830474, 0.03614024, -368177.44, 6696.0205, 0.000000046918622, 10.000331, 9.998531 
1.8053186e+3, 2.7174848e+2, -375539.16, -506211.97, -81845.53, -0.19751298, 0.14768317, -336149.53, -59264.758, 0.000015746857, 9.999957, 9.998212 
1.8053718e+3, 2.8174725e+2, -255818.44, -443564.94, -34568.836, -0.15408199, 0.24653871, -249655.73, -70755.81, 0.00016267167, 10.000291, 9.997815 
1.8054277e+3, 2.9174495e+2, 207266.05, -146910.92, -26220.107, 0.07095518, 0.22224471, 209196.63, 290114.63, 0.000624589, 10.002709, 9.998013 
1.8054792e+3, 3.017416e+2, 289788.16, -114426.51, 28397.182, -0.14894801, 0.11907378, 291773.38, 291773.38, 0.0013975229, 10.003078, 9.997728 
1.805534e+3, 3.1174022e+2, -395106.25, -305632.16, 2591.148, -0.109546505, 0.2118684, -305557.2, -305557.2, 0.0022717845, 9.997774, 9.998961 
1.8145101e+3, 1.2169692e+2, -1827214.5, -1549364.3, 93651.766, 0.07811518, 0.36539012, -1520745.9, 226649.47, 0.10291468, 9.998189, 10.002166 
1.8145606e+3, 1.3169521e+2, -1849133.4, -1581028.6, -99554.35, -0.017367655, 0.05588071, -1548104.6, 101301.48, 0.06887483, 9.997738, 10.001385 
1.8146159e+3, 1.4169796e+2, -1837388.6, -1585849.0, 63813.336, 0.32607466, 0.23881344, -1570586.3, -19209.293, 0.036753505, 9.997428, 10.000778 
1.814671e+3, 1.5169777e+2, -1654093.5, -1452119.3, 167409.27, 0.11493546, 0.14957558, -1357596.1, 95783.64, 0.01378539, 9.998039, 10.000731 
1.8147255e+3, 1.6169773e+2, -1500220.6, -1359924.8, 6637.955, -0.07349506, 0.107396066, -1359611.4, -4230.1777, 0.002842686, 9.998568, 10.000429 
1.8147805e+3, 1.716993e+2, -1363020.1, -1225015.3, -84659.5, 0.21184792, 0.21315227, -1184799.8, 72566.55, 0.00016504708, 9.998769, 10.000582 
1.8148349e+3, 1.8170016e+2, -1315301.4, -1262200.1, 3648.6448, 0.38713402, 0.29990795, -1261950.6, -102591.766, 0.00000012908751, 9.99889, 9.9995985 
1.8148874e+3, 1.9169898e+2, -1230196.1, -1189916.8, 79698.61, 0.046769846, 0.24398805, -1127852.6, -66479.875, 0.0, 9.998894, 9.999414 
1.8149401e+3, 2.0169805e+2, -1092242.9, -940559.6, -4021.326, -0.19128823, 0.19453801, -940453.1, 22929.563, 0.0, 9.99859, 10.0006075 
1.8149954e+3, 2.1169886e+2, -1114170.8, -802306.94, -79269.445, 0.04619964, 0.14616616, -783314.9, 82054.31, 0.0, 9.997349, 10.00148 
1.8150502e+3, 2.2169954e+2, -1186096.6, -905568.06, -8020.7, 0.20808311, 0.1301642, -905338.94, -137980.4, 0.0, 9.996699, 10.000411 
1.8151042e+3, 2.3170006e+2, -875605.75, -729929.25, 102261.234, 0.026621122, 0.16571032, -677217.6, -7861.613, 0.0, 9.99827, 10.000183 
1.8151586e+3, 2.4169987e+2, -683519.0, -763266.0, 97039.586, -0.111045, 0.20785637, -618480.25, -47119.785, 0.0, 9.999662, 9.998616 
1.8152136e+3, 2.5169832e+2, -556474.9, -704152.94, 25246.174, -0.0538884, 0.23297867, -552278.2, -78900.86, 0.0, 10.000097, 9.998136 
1.8152672e+3, 2.6169646e+2, -425868.75, -575271.94, -73037.03, -0.094240844, 0.2573858, -396096.72, -20700.08, 0.000000056350853, 10.000252, 9.998274 
1.8153164e+3, 2.7169427e+2, -351602.1, -451621.72, -88304.92, -0.39592364, 0.18360488, -300129.2, -22710.635, 0.000014334833, 9.999936, 9.998597 
1.815369e+3, 2.8169206e+2, -231194.67, -396851.38, 30461.951, -0.46390027, 0.14720477, -225770.73, -46331.52, 0.00015432545, 10.000303, 9.998133 
1.8154301e+3, 2.9169163e+2, 207568.05, -112298.72, 79359.53, 0.046092313, 0.2820837, 226174.92, 307613.47, 0.0005981924, 10.002554, 9.998331 
1.8154839e+3, 3.0169037e+2, 275449.13, -73577.5, -98961.68, 0.0012768005, 0.35102656, 301555.63, 301555.63, 0.0013376832, 10.002783, 9.998146 
1.8155302e+3, 3.1168395e+2, -354360.4, -222005.27, -119121.6, -0.2749872, -0.11081481, -151913.16, -151913.16, 0.0021666302, 9.997789, 9.999523 
1.8245079e+3, 1.2164292e+2, -1981004.6, -1669741.5, 30350.947, 0.09756636, 0.32856926, -1666809.6, 81111.81, 0.10907774, 9.997382, 10.001629 
1.8245582e+3, 1.316414e+2, -1784376.0, -1576039.3, -132077.75, -0.03574671, 0.06537721, -1511994.8, 137937.89, 0.07313931, 9.998291, 10.001168 
1.8246141e+3, 1.4164436e+2, -1629647.1, -1478267.9, 25188.662, 0.35907552, 0.2816819, -1474186.6, 77715.51, 0.039204508, 9.998821, 10.00086 
1.8246695e+3, 1.5164366e+2, -1574289.5, -1384878.6, 142863.94, 0.15278684, 0.11850405, -1308180.4, 145726.67, 0.014855209, 9.998477, 10.000979 
1.824724e+3, 1.6164315e+2, -1585189.0, -1428684.9, -213.52747, -0.041868147, 0.022276301, -1428684.5, -72773.125, 0.0031336718, 9.998101, 10.000184 
1.8247786e+3, 1.716448e+2, -1513800.0, -1351699.1, -86385.76, 0.19599332, 0.18143857, -1314294.3, -56395.184, 0.00019006866, 9.997962, 10.000102 
1.8248329e+3, 1.8164584e+2, -1438700.8, -1286377.3, 15345.125, 0.34838542, 0.3084149, -1284846.8, -124954.56, 0.00000015151502, 9.997895, 9.999912 
1.8248859e+3, 1.9164512e+2, -1296430.1, -1142497.6, 97928.38, 0.057718005, 0.23237102, -1094909.5, -33009.824, 0.0, 9.998108, 10.000116 
1.8249391e+3, 2.0164442e+2, -1120587.0, -975507.6, 26056.549, -0.14527464, 0.16784339, -970969.75, -7064.011, 0.0, 9.99849, 10.000414 
1.8249933e+3, 2.1164495e+2, -854866.06, -745232.44, -29908.27, 0.03405581, 0.14574929, -737604.2, 128292.57, 0.0, 9.999428, 10.000867 
1.825048e+3, 2.2164539e+2, -682163.94, -664925.25, 63847.08, 0.16130266, 0.14499548, -609118.3, 158771.31, 0.0, 10.000165, 10.000394 
1.8251033e+3, 2.3164575e+2, -595123.8, -564956.06, 72013.766, 0.02605686, 0.14359538, -506463.4, 163423.67, 0.0, 10.000069, 10.000448 
1.8251586e+3, 2.4164562e+2, -648999.6, -721904.25, -11129.742, -0.07151098, 0.16645546, -647338.4, -75447.914, 0.0, 9.9998, 9.998831 
1.8252134e+3, 2.516447e+2, -673455.4, -740338.9, 13052.764, -0.025567388, 0.24008, -670998.3, -197095.39, 0.0, 9.999207, 9.998317 
1.825267e+3, 2.6164344e+2, -565898.94, -618000.25, 42237.11, -0.066028334, 0.2994444, -542324.9, -166407.11, 0.00000009873202, 9.999191, 9.998488 
1.8253173e+3, 2.7164128e+2, -150238.8, -330322.9, 27130.502, -0.3551294, 0.21016836, -146240.25, 131696.05, 0.000014097946, 10.001214, 9.998815 
1.8253706e+3, 2.8163877e+2, 64292.61, -256341.03, 110822.94, -0.4263214, 0.12967226, 98868.59, 278826.63, 0.00014668093, 10.00235, 9.99811 
1.8254311e+3, 2.916371e+2, -155815.78, -298945.5, 102650.766, 0.050093584, 0.15092678, -102245.88, -20274.795, 0.0005665578, 10.000113, 9.998218 
1.825485e+3, 3.0163586e+2, -303560.0, -329662.44, -116870.44, 0.06260491, 0.21845597, -199014.31, -199014.31, 0.0012819148, 9.998711, 9.998346 
1.8255301e+3, 3.1163186e+2, 206365.39, 70483.74, -121162.77, -0.23732933, -0.023396267, 277335.97, 277335.97, 0.0021140666, 10.001525, 9.99975 
1.8345067e+3, 1.2158686e+2, -2010529.4, -1724542.4, 7905.2188, 0.24753605, 0.14040393, -1724324.1, 24143.207, 0.11569034, 9.997383, 10.001205 
1.834556e+3, 1.3158734e+2, -1799033.0, -1609126.8, -93308.484, -0.073760696, 0.10398275, -1570953.8, 79508.59, 0.07769921, 9.998313, 10.000905 
1.8346116e+3, 1.4159065e+2, -1603339.6, -1447492.4, 17678.42, 0.22513488, 0.36792624, -1445512.1, 106918.49, 0.04181763, 9.998909, 10.001043 
1.8346687e+3, 1.5159051e+2, -1535481.5, -1318120.3, 127529.25, 0.23029895, 0.22066285, -1259244.4, 195184.3, 0.015997248, 9.998526, 10.001423 
1.834724e+3, 1.6159008e+2, -1586517.0, -1435455.3, -11063.168, 0.15097472, 0.105165765, -1434649.3, -78218.266, 0.0034491862, 9.998117, 10.000131 
1.8347757e+3, 1.7159043e+2, -1536422.6, -1401168.5, -89140.64, 0.10904334, 0.1619194, -1356905.1, -98472.83, 0.00021871291, 9.99797, 9.999761 
1.834828e+3, 1.8159063e+2, -1408309.0, -1226719.6, 16692.09, 0.07774498, 0.21466976, -1225198.0, -64764.152, 0.00000018976193, 9.997905, 10.0003195 
1.8348835e+3, 1.9159093e+2, -1237965.6, -1022948.6, 109540.625, 0.03416608, 0.16583326, -976973.5, 85455.21, 0.0, 9.998111, 10.000937 
1.834939e+3, 2.0159115e+2, -1113588.8, -960627.7, 53224.816, 0.0011968905, 0.13426991, -943930.2, 20493.818, 0.0, 9.998486, 10.000522 
1.8349925e+3, 2.1159182e+2, -875947.5, -785492.06, 10166.917, -0.00155423, 0.14655286, -784363.44, 82051.85, 0.0, 9.99941, 10.000601 
1.8350466e+3, 2.215921e+2, -756351.94, -807162.3, 70899.664, -0.004105011, 0.17916632, -706443.25, 61968.832, 0.0, 10.000111, 9.999446 
1.8351029e+3, 2.3159151e+2, -691260.06, -754515.25, 70349.54, -0.0022267269, 0.20225498, -645755.56, 24666.895, 0.0, 10.000021, 9.999171 
1.835159e+3, 2.4159077e+2, -602918.6, -612413.75, -28909.488, 0.0006760985, 0.2238171, -578369.44, -5936.1675, 0.0, 9.999736, 9.999617 
1.8352127e+3, 2.5159046e+2, -548215.2, -476336.25, -5471.421, -0.016587723, 0.19342251, -475922.16, -1487.3745, 0.0, 9.999187, 10.000141 
1.8352662e+3, 2.6158994e+2, -523210.8, -530564.0, 86585.484, -0.059421264, 0.18898301, -440223.9, -63786.297, 0.000000089696776, 9.999189, 9.999093 
1.8353206e+3, 2.7158916e+2, -164844.8, -337552.2, 112430.96, -0.13702473, 0.22442597, -109432.21, 169009.72, 0.000014790434, 10.001108, 9.998821 
1.8353757e+3, 2.8158703e+2, 15532.952, -317801.13, 70276.04, -0.13598691, 0.19139324, 29743.283, 210203.64, 0.00014292239, 10.002174, 9.997772 
1.8354312e+3, 2.9158154e+2, -196838.97, -379055.5, 11672.211, 0.041888032, -0.12158294, -196094.33, -113580.55, 0.00054012553, 10.000091, 9.997679 
1.8354832e+3, 3.0157843e+2, -298114.72, -334895.75, -77297.086, 0.014241746, -0.2045181, -237050.52, -237050.52, 0.0012335866, 9.998783, 9.998274 
1.8355317e+3, 3.1158382e+2, 148614.14, -20975.54, 29681.861, -0.22171935, 0.48195982, 153659.03, 153659.03, 0.002081833, 10.001402, 9.999181 
1.8445049e+3, 1.2153241e+2, -1707560.4, -1583802.5, 6851.792, 0.24754159, 0.08030683, -1583424.4, 165575.69, 0.12272786, 9.999446, 10.001315 
1.844554e+3, 1.3153361e+2, -1737567.3, -1591227.0, -42359.082, -0.11652893, 0.12158927, -1579850.3, 71137.1, 0.08254445, 9.998787, 10.000794 
1.844609e+3, 1.4153598e+2, -1719101.3, -1503917.3, 56916.883, 0.12171287, 0.29825798, -1489790.0, 63175.063, 0.04459436, 9.998126, 10.001022 
1.8446665e+3, 1.5153655e+2, -1656116.0, -1375949.4, 124303.06, 0.22041951, 0.2228978, -1328750.6, 126206.7, 0.017215712, 9.997689, 10.001432 
1.8447223e+3, 1.6153668e+2, -1679369.3, -1477315.6, -11656.028, 0.21219717, 0.1613652, -1476645.5, -119690.09, 0.0037916328, 9.997475, 10.00015 
1.8447733e+3, 1.7153661e+2, -1495967.6, -1375727.1, -61261.17, 0.085651726, 0.17205589, -1350014.0, -91053.17, 0.00025177147, 9.998237, 9.999801 
1.8448254e+3, 1.8153656e+2, -1287878.0, -1152930.8, 44426.574, 0.0086611025, 0.1941925, -1139618.1, 21346.271, 0.00000025167606, 9.998668, 10.000453 
1.8448818e+3, 1.915374e+2, -1263810.8, -1016765.6, 79920.76, 0.062467918, 0.18052197, -993165.25, 69788.56, 0.0, 9.997848, 10.001105 
1.8449378e+3, 2.015379e+2, -1293111.1, -1073566.4, 21833.998, 0.09910518, 0.17447565, -1071416.0, -106469.77, 0.0, 9.997373, 10.000277 
1.8449917e+3, 2.1153782e+2, -1033914.25, -914868.9, -27326.76, 0.040000565, 0.15636463, -908895.75, -41949.78, 0.0, 9.998562, 10.000118 
1.845046e+3, 2.2153743e+2, -874011.56, -895087.4, 5555.1416, -0.0106411455, 0.16507415, -872637.0, -103686.555, 0.0, 9.999446, 9.999156 
1.845102e+3, 2.3153697e+2, -863020.7, -859950.7, 53821.2, -0.028537257, 0.22374672, -807642.6, -136681.83, 0.0, 9.998942, 9.998963 
1.8451576e+3, 2.4153659e+2, -711498.4, -604536.2, 25455.695, -0.041634068, 0.27677688, -598787.06, -25818.527, 0.0, 9.998734, 10.000152 
1.8452117e+3, 2.51537e+2, -382865.6, -290298.44, -6050.354, -0.055758696, 0.23084123, -289904.66, 185055.45, 0.0, 9.999873, 10.001083 
1.8452659e+3, 2.6153687e+2, -315701.1, -412825.78, 35684.14, -0.0644212, 0.19808227, -304000.2, 72956.9, 0.00000009817215, 10.00054, 9.999249 
1.8453214e+3, 2.715357e+2, -446268.0, -497262.53, 36180.734, -0.06429841, 0.21134154, -427502.9, -148536.03, 0.000013823804, 9.999282, 9.998599 
1.8453768e+3, 2.815337e+2, -503306.7, -561412.4, -9361.909, -0.04961015, 0.20661202, -501835.56, -320849.44, 0.00013379921, 9.9985895, 9.997827 
1.8454309e+3, 2.9152972e+2, -132529.5, -328164.44, -40059.207, 0.007983433, 0.03277776, -124644.57, -41616.438, 0.00050557987, 10.000448, 9.997857 
1.8454833e+3, 3.0152664e+2, 161396.9, -125843.85, -61484.688, -0.00026889602, -0.0526382, 174004.5, 174004.5, 0.0011686218, 10.001997, 9.998163 
1.8455324e+3, 3.1153008e+2, 231078.73, 3896.7192, 26356.385, -0.31705713, 0.45467517, 234096.38, 234096.38, 0.0020099676, 10.002014, 9.999062 
1.854502e+3, 1.2148023e+2, -1638192.1, -1475435.9, -45855.035, -0.0033735, 0.19831388, -1463405.9, 286108.0, 0.13014582, 9.999608, 10.002107 
1.854552e+3, 1.3148038e+2, -1727167.8, -1581344.8, -62456.375, -0.19346368, 0.111749046, -1558251.6, 93254.516, 0.08765755, 9.998833, 10.000853 
1.854606e+3, 1.4148019e+2, -1738942.0, -1546743.4, 34707.258, 0.025007103, 0.039101236, -1540668.0, 12838.291, 0.04753598, 9.998134, 10.000713 
1.8546627e+3, 1.5148172e+2, -1692992.6, -1450147.5, 111660.91, 0.08759139, 0.10601443, -1406610.6, 48882.97, 0.01851746, 9.997682, 10.000919 
1.8547183e+3, 1.6148295e+2, -1669264.9, -1464259.1, 4170.866, 0.086733334, 0.18746331, -1464174.4, -106689.9, 0.0041650403, 9.997503, 10.000228 
1.8547717e+3, 1.7148335e+2, -1461733.1, -1314846.5, -25067.188, 0.10394835, 0.21140125, -1310686.4, -51202.25, 0.00029041685, 9.998272, 10.000203 
1.8548252e+3, 1.8148366e+2, -1293267.5, -1176791.1, 31748.494, 0.12704289, 0.24571998, -1168699.4, -7215.3877, 0.0000003514084, 9.99872, 10.000265 
1.85488e+3, 1.9148451e+2, -1296362.8, -1089831.9, 46512.195, 0.12247733, 0.28111875, -1079840.4, -16365.483, 0.0, 9.99787, 10.000594 
1.8549351e+3, 2.0148465e+2, -1339486.8, -1169307.3, 39415.37, 0.11801846, 0.29354125, -1160621.5, -195148.86, 0.0, 9.997367, 9.999625 
1.854991e+3, 2.1148282e+2, -1087419.9, -1020514.4, 25332.637, 0.1375966, 0.17015046, -1012004.9, -144514.9, 0.0, 9.998534, 9.999408 
1.8550466e+3, 2.2148126e+2, -857582.7, -852458.8, 6336.407, 0.112334415, 0.10017779, -848186.0, -78680.21, 0.0, 9.999406, 9.999471 
1.8551004e+3, 2.3148209e+2, -807389.6, -740622.9, 35445.4, -0.07437118, 0.21182813, -725315.1, -53812.324, 0.0, 9.998922, 9.999795 
1.8551545e+3, 2.4148299e+2, -695638.1, -565821.2, 47466.27, -0.2209918, 0.33046708, -550317.25, 23179.65, 0.0, 9.998705, 10.000434 
1.8552104e+3, 2.514841e+2, -388355.56, -287471.8, 44041.516, -0.16382422, 0.34369922, -270950.72, 204530.27, 0.0, 9.999809, 10.001135 
1.8552658e+3, 2.61484e+2, -343264.13, -454259.75, 15123.455, -0.10878882, 0.32004485, -341240.4, 36237.188, 0.00000008466028, 10.000465, 9.999004 
1.8553197e+3, 2.7148092e+2, -481342.7, -564206.1, -9883.952, -0.14272876, 0.17990837, -480180.03, -200670.11, 0.000011312339, 9.999252, 9.9981575 
1.8553741e+3, 2.8147882e+2, -480154.9, -512542.22, 22407.0, -0.17031841, 0.18269041, -468702.44, -287168.4, 0.00011834512, 9.998582, 9.998167 
1.8554305e+3, 2.9148084e+2, -92420.42, -232173.95, 43256.35, -0.08031617, 0.5395709, -80115.23, 3406.1545, 0.0004615144, 10.000392, 9.998547 
1.8554848e+3, 3.0147934e+2, 131114.5, -160766.03, -37474.152, -0.037466537, 0.58543366, 135848.97, 135848.97, 0.0010851047, 10.001877, 9.997978 
1.855533e+3, 3.1147355e+2, 217673.53, 48528.66, -10410.73, -0.4609203, 0.19907337, 218311.9, 218311.9, 0.0018883394, 10.0017185, 9.999503 
1.8645002e+3, 1.2142732e+2, -1781413.5, -1492296.9, -30637.828, -0.05829764, 0.2064106, -1489085.8, 260948.94, 0.1378835, 9.998266, 10.002634 
1.864551e+3, 1.3142817e+2, -1713909.4, -1575570.0, -42064.53, -0.15589465, 0.17664626, -1563783.8, 88234.53, 0.09301642, 9.998921, 10.0008545 
1.8646039e+3, 1.414268e+2, -1591899.6, -1504636.9, 40133.258, -0.040643256, -0.0054882485, -1488986.1, 65043.145, 0.050644647, 9.999275, 10.000458 
1.8646601e+3, 1.5142828e+2, -1578940.4, -1439881.9, 116451.48, 0.016141813, 0.09289423, -1373782.0, 82236.24, 0.01991141, 9.998662, 10.000513 
1.8647157e+3, 1.6142955e+2, -1575082.9, -1417991.6, 49841.785, 0.044384737, 0.2045708, -1403512.5, -45502.69, 0.0045744055, 9.998153, 10.000226 
1.8647702e+3, 1.7143011e+2, -1399796.6, -1261630.3, 16856.281, 0.118682064, 0.22584976, -1259603.6, 403.7315, 0.0003360051, 9.998601, 10.000404 
1.8648244e+3, 1.8143041e+2, -1271131.8, -1201056.4, 36017.92, 0.18152635, 0.25787237, -1185845.4, -23838.457, 0.00000050835786, 9.99903, 9.99995 
1.8648787e+3, 1.9143099e+2, -1135495.4, -1077659.8, 25995.512, 0.1406794, 0.31917557, -1067693.0, -3690.1785, 0.0, 9.999266, 10.000007 
1.8649332e+3, 2.0143087e+2, -1059056.8, -1047789.75, 52259.97, 0.10625107, 0.35140476, -1000860.56, -34855.85, 0.0, 9.999356, 9.999497 
1.8649895e+3, 2.1142906e+2, -1000275.6, -965002.7, 103293.32, 0.11036084, 0.22235996, -877851.0, -9830.378, 0.0, 9.999077, 9.999525 
1.8650453e+3, 2.2142756e+2, -925413.94, -874059.9, 110141.52, 0.0808171, 0.14450398, -786642.0, -16607.232, 0.0, 9.998895, 9.999569 
1.865099e+3, 2.3142828e+2, -752897.8, -704908.44, 77266.71, -0.091379, 0.23790456, -647996.44, 24035.492, 0.0, 9.999258, 9.999878 
1.8651535e+3, 2.41429e+2, -604946.56, -550829.4, 54215.625, -0.22046511, 0.34009027, -517295.03, 56732.934, 0.0, 9.99946, 10.000165 
1.8652093e+3, 2.5142983e+2, -542590.2, -414504.84, 12937.005, -0.17502195, 0.36943638, -413211.22, 62805.59, 0.0, 9.9989805, 10.000656 
1.865265e+3, 2.6142967e+2, -575979.3, -526061.06, -34999.832, -0.1287869, 0.35602602, -508032.44, -130016.56, 0.000000065173005, 9.998707, 9.999353 
1.8653189e+3, 2.714269e+2, -397640.4, -435071.53, -953.48425, -0.15034561, 0.17896637, -397616.13, -117572.7, 0.000009221533, 9.999451, 9.998945 
1.8653734e+3, 2.8142518e+2, -223275.08, -354897.25, 126386.586, -0.16550997, 0.1556618, -146591.72, 35470.824, 0.000106402105, 10.000202, 9.998467 
1.8654305e+3, 2.914283e+2, -61115.99, -210759.95, 117088.85, -0.10716331, 0.6141936, 3015.72, 87057.0, 0.00042743483, 10.000593, 9.998587 
1.8654853e+3, 3.0142787e+2, -45578.684, -209513.11, -20824.508, -0.08548311, 0.7561693, -42974.72, -42974.72, 0.0010143189, 10.000498, 9.998311 
1.8655339e+3, 3.1142095e+2, -74630.72, 13685.787, -10814.191, -0.37448505, 0.20404871, 14990.685, 14990.685, 0.001764529, 9.9992485, 10.00045 
1.8744996e+3, 1.2137388e+2, -1777162.6, -1486682.0, -20459.82, 0.057851963, 0.09452628, -1485248.0, 265312.66, 0.14588223, 9.998251, 10.002711 
1.8745513e+3, 1.3137735e+2, -1720662.9, -1591823.3, -11182.136, -0.004181533, 0.3352538, -1590859.9, 61660.848, 0.0986057, 9.998932, 10.000727 
1.8746026e+3, 1.4137638e+2, -1595937.8, -1530516.0, 33876.707, -0.10446737, 0.20912826, -1516135.1, 38393.742, 0.053927336, 9.99935, 10.000237 
1.8746583e+3, 1.5137658e+2, -1589607.4, -1473860.3, 95369.36, -0.00958715, 0.20250192, -1420178.1, 36350.58, 0.021407956, 9.998713, 10.000252 
1.874714e+3, 1.6137666e+2, -1575281.0, -1432700.9, 51784.14, 0.06380456, 0.21734631, -1415878.1, -57348.195, 0.0050250688, 9.998208, 10.0001 
1.8747686e+3, 1.713769e+2, -1399501.9, -1270218.0, 39381.52, 0.10769558, 0.21497329, -1259166.5, 1363.4188, 0.00038988978, 9.998634, 10.000333 
1.874823e+3, 1.8137687e+2, -1298422.0, -1265308.4, 46065.316, 0.13456863, 0.23360449, -1232914.8, -70381.84, 0.000000733184, 9.999062, 9.999495 
1.8748774e+3, 1.9137675e+2, -1179907.8, -1176157.3, 37458.902, 0.088983506, 0.28945968, -1140526.6, -75988.35, 0.0, 9.99929, 9.999319 
1.8749318e+3, 2.0137645e+2, -1029727.7, -994407.3, 45675.668, 0.025985483, 0.3390272, -963096.6, 3446.775, 0.0, 9.999381, 9.999856 
1.8749867e+3, 2.1137652e+2, -935617.25, -831627.5, 93591.5, -0.06530913, 0.31449583, -776557.75, 91980.63, 0.0, 9.999071, 10.000448 
1.8750419e+3, 2.2137628e+2, -938991.1, -892038.94, 114351.836, -0.13502382, 0.30387324, -798778.25, -28240.635, 0.0, 9.998848, 9.999469 
1.8750982e+3, 2.3137547e+2, -806135.25, -803772.1, 97224.11, -0.10512483, 0.299755, -707722.4, -35172.855, 0.0, 9.999209, 9.999223 
1.8751542e+3, 2.4137454e+2, -669158.3, -674467.94, 46541.395, -0.081650384, 0.3084072, -625196.06, -50633.58, 0.0, 9.999414, 9.999342 
1.8752089e+3, 2.513743e+2, -612372.2, -555892.1, -1265.7611, -0.11948344, 0.32165787, -555863.8, -79297.01, 0.0, 9.998962, 9.999698 
1.8752635e+3, 2.613739e+2, -524663.8, -411708.16, -22694.959, -0.15461487, 0.32579336, -407318.88, -28748.313, 0.000000045934687, 9.998668, 10.00016 
1.8753184e+3, 2.713733e+2, -274016.84, -175522.95, 34898.652, -0.12916745, 0.20537944, -164411.17, 116159.31, 0.000007964092, 9.999434, 10.000739 
1.8753742e+3, 2.813725e+2, -202872.95, -310596.0, 140541.56, -0.10188881, 0.13926816, -106225.36, 76349.945, 0.00009951089, 10.000195, 9.9987755 
1.8754311e+3, 2.913725e+2, -118492.8, -302801.4, 134547.56, -0.10231107, 0.32943815, -47565.953, 37019.04, 0.00040644757, 10.000475, 9.9980135 
1.8754849e+3, 3.0137274e+2, -17510.533, -114312.914, -54325.375, -0.189231, 0.5490547, 6847.6177, 6847.6177, 0.00096497237, 10.0003395, 9.99904 
1.875537e+3, 3.1136975e+2, 25960.217, 215342.06, -72097.59, -0.0077324877, 0.26211914, 239665.56, 239665.56, 0.0016668347, 9.999299, 10.001807 
1.8844977e+3, 1.2132168e+2, -1819253.1, -1551420.3, 14448.507, 0.052485496, 0.10473342, -1550643.0, 200431.31, 0.15411249, 9.998184, 10.00224 
1.884551e+3, 1.3132545e+2, -1788018.5, -1667370.3, -18253.137, 0.08804838, 0.42129773, -1664669.3, -11636.152, 0.10442951, 9.998674, 10.000288 
1.8846014e+3, 1.41324e+2, -1686100.6, -1583709.8, -10490.899, -0.100967765, 0.27844292, -1582645.9, -27599.24, 0.057399224, 9.998789, 10.000128 
1.8846567e+3, 1.5132381e+2, -1666404.9, -1499876.6, 46725.07, 0.003307251, 0.23039635, -1487662.3, -30613.582, 0.023018045, 9.998156, 10.000333 
1.8847121e+3, 1.613236e+2, -1639711.9, -1471033.8, 64370.066, 0.0933822, 0.21489383, -1449275.8, -90224.664, 0.005521801, 9.997803, 10.000034 
1.8847667e+3, 1.7132379e+2, -1357500.4, -1265981.9, 66163.04, 0.063765496, 0.21989304, -1231295.8, 29755.95, 0.0004532519, 9.998995, 10.000192 
1.8848214e+3, 1.813237e+2, -1181489.5, -1248680.8, 56766.742, 0.042372752, 0.25214115, -1149122.0, 13933.827, 0.0000010252129, 10.000032, 9.999138 
1.8848766e+3, 1.913234e+2, -1088075.9, -1186207.6, 48609.676, 0.05706066, 0.33509836, -1068073.9, -3009.204, 0.0, 10.00015, 9.998834 
1.8849315e+3, 2.0132297e+2, -948392.5, -964232.06, 45068.992, 0.04977311, 0.4061623, -910552.75, 56519.727, 0.0, 9.999987, 9.999768 
1.8849857e+3, 2.1132296e+2, -892576.75, -792986.25, 22281.96, -0.059667256, 0.36643362, -788228.3, 80839.08, 0.0, 9.999304, 10.000596 
1.8850406e+3, 2.2132263e+2, -941426.6, -893476.94, 33881.844, -0.1408788, 0.3378581, -875945.44, -104878.664, 0.0, 9.99884, 9.999458 
1.8850973e+3, 2.3132178e+2, -777576.44, -800390.56, 61981.37, -0.10266617, 0.33861807, -725961.2, -52882.508, 0.0, 9.9994545, 9.9991255 
1.8851538e+3, 2.4132082e+2, -620499.3, -664910.1, 28829.066, -0.07012577, 0.35317877, -606315.25, -31223.111, 0.0, 9.999816, 9.999213 
1.8852077e+3, 2.5132024e+2, -626996.2, -578355.2, 10600.899, -0.10497657, 0.35122633, -576145.25, -99044.97, 0.0, 9.998938, 9.999554 
1.885262e+3, 2.6131985e+2, -540121.94, -405612.1, 68283.38, -0.13967635, 0.36122924, -377024.22, 2080.6165, 0.00000001758332, 9.998503, 10.000283 
1.8853176e+3, 2.713206e+2, -155597.61, -83350.87, 55819.535, -0.1666955, 0.35063046, -52985.76, 228105.94, 0.0000068331174, 10.000107, 10.001044 
1.8853742e+3, 2.8132042e+2, -58282.645, -219745.9, 38685.754, -0.14653228, 0.32168317, -49492.3, 133597.52, 0.00009140763, 10.001105, 9.998957 
1.8854317e+3, 2.9131803e+2, -282466.47, -371077.63, 24700.87, 0.0067781038, 0.25959057, -276046.16, -190926.34, 0.0003824645, 9.999302, 9.99811 
1.885485e+3, 3.0131736e+2, -270305.34, -219653.86, -74822.31, -0.0822144, 0.37168857, -165987.38, -165987.38, 0.0009156102, 9.998525, 9.999197 
1.8855366e+3, 3.1131688e+2, 444668.7, 372263.1, -138143.58, -0.11237395, 0.33589447, 551274.5, 551274.5, 0.0015828582, 10.002356, 10.001422 
1.8944936e+3, 1.2127108e+2, -1895821.1, -1691954.0, 57948.2, -0.18162137, 0.25993574, -1676633.9, 74938.03, 0.16258536, 9.998211, 10.001106 
1.8945494e+3, 1.3127242e+2, -1846376.6, -1783903.3, -2943.9802, 0.074114844, 0.4187305, -1783764.9, -130208.836, 0.110513955, 9.998657, 9.999496 
1.8946005e+3, 1.4126943e+2, -1686229.6, -1587344.4, -24462.26, -0.057891153, 0.17614353, -1581623.9, -26039.158, 0.06108175, 9.9987955, 10.000103 
1.8946551e+3, 1.512699e+2, -1639174.0, -1447173.9, 23022.615, 0.033890553, 0.1658106, -1444451.8, 13126.959, 0.024752133, 9.998164, 10.000696 
1.8947099e+3, 1.6127047e+2, -1636195.0, -1470607.1, 83411.98, 0.09704812, 0.20187628, -1435875.0, -76302.18, 0.0060684755, 9.9978285, 10.000027 
1.8947646e+3, 1.7127076e+2, -1370460.5, -1299424.9, 118871.63, -0.03733984, 0.23653956, -1210878.3, 50694.645, 0.0005270964, 9.999018, 9.999953 
1.8948197e+3, 1.8127081e+2, -1192205.6, -1279222.8, 75621.336, -0.12926595, 0.30621865, -1148469.9, 15106.6, 0.0000013718216, 10.000068, 9.998912 
1.8948762e+3, 1.9127099e+2, -1103788.3, -1221884.1, 52011.29, 0.018209562, 0.46278596, -1084148.0, -18566.658, 0.0, 10.000161, 9.998584 
1.8949324e+3, 2.0127052e+2, -985428.5, -1046294.1, 25997.984, 0.14491542, 0.564549, -975835.7, -8244.964, 0.0, 10.000003, 9.999201 
1.8949866e+3, 2.1126834e+2, -943823.4, -898840.3, -3018.6995, 0.10631337, 0.3758172, -898638.6, -29030.318, 0.0, 9.999293, 9.999879 
1.895041e+3, 2.2126645e+2, -943707.44, -890088.4, 38638.207, 0.03376426, 0.23694701, -869869.6, -98245.67, 0.0, 9.9988, 9.999503 
1.8950966e+3, 2.3126714e+2, -752029.7, -740972.3, 93280.92, -0.11048302, 0.3552984, -653056.4, 20563.766, 0.0, 9.999421, 9.999552 
1.895152e+3, 2.4126771e+2, -594692.0, -596754.4, 13324.124, -0.21842349, 0.47979614, -582359.25, -6741.821, 0.0, 9.99975, 9.999714 
1.8952061e+3, 2.5126743e+2, -588010.06, -497207.8, -23213.844, -0.15030201, 0.4503736, -491617.3, -13997.061, 0.0, 9.998931, 10.000116 
1.8952607e+3, 2.612672e+2, -565634.94, -467222.5, 95060.76, -0.11613541, 0.4512355, -409387.6, -29765.275, 0.0000000071100716, 9.998537, 9.999845 
1.8953165e+3, 2.7126852e+2, -240463.9, -244910.8, 127231.555, -0.28096217, 0.5932128, -115436.375, 166173.19, 0.0000061749074, 10.00004, 9.9999695 
1.8953735e+3, 2.8126875e+2, -86343.31, -235913.56, 12969.986, -0.32123363, 0.67781466, -85226.95, 98380.73, 0.000081688406, 10.00092, 9.998936 
1.8954326e+3, 2.912645e+2, -238149.52, -287602.3, -39623.902, 0.16698092, 0.38179454, -216169.94, -130521.56, 0.00034978846, 9.999327, 9.998676 
1.8954858e+3, 3.012615e+2, -273608.13, -258397.77, -3162.5938, 0.1446416, 0.22464281, -257766.39, -257766.39, 0.00085449126, 9.998672, 9.998855 
1.8955338e+3, 3.1126267e+2, 240214.66, 14716.799, 106841.42, -0.6323208, 0.45467424, 282795.72, 282795.72, 0.0014994281, 10.002077, 9.999093 
1.9044918e+3, 1.212187e+2, -1848705.9, -1705402.8, 13871.196, -0.17933021, 0.3652985, -1704072.4, 48015.734, 0.1713416, 9.998703, 10.0007515 
1.9045478e+3, 1.312187e+2, -1916922.3, -1819169.5, -54952.348, 0.082905315, 0.40019834, -1794502.4, -140416.78, 0.11689223, 9.998188, 9.999476 
1.904599e+3, 1.4121573e+2, -1849015.5, -1679304.5, -22439.57, -0.03247738, 0.16279742, -1676387.6, -120273.836, 0.06499328, 9.997736, 9.999983 
1.9046533e+3, 1.5121634e+2, -1573408.6, -1438190.9, -12430.336, 0.020380411, 0.18575062, -1437057.8, 21048.994, 0.026617203, 9.998702, 10.0005045 
1.904708e+3, 1.6121699e+2, -1416085.5, -1393747.1, 27001.986, 0.06396601, 0.25229132, -1375695.5, -15595.114, 0.0066676727, 9.999462, 9.999764 
1.9047636e+3, 1.7121732e+2, -1349149.4, -1323718.3, 54354.66, -0.04849168, 0.32066602, -1280611.6, -18510.521, 0.0006122247, 9.999313, 9.999639 
1.9048192e+3, 1.8121725e+2, -1341267.6, -1332733.8, -1250.2963, -0.112937905, 0.3954976, -1332554.4, -168448.5, 0.0000017786746, 9.99897, 9.999073 
1.9048758e+3, 1.9121686e+2, -1316743.6, -1274138.8, 7588.48, 0.044882532, 0.45554358, -1272827.5, -206714.05, 0.0, 9.998487, 9.999033 
1.9049318e+3, 2.0121598e+2, -1241321.0, -1179382.4, 44250.71, 0.17616706, 0.49085692, -1156340.4, -188215.73, 0.0, 9.998302, 9.999099 
1.9049859e+3, 2.1121432e+2, -946916.6, -950024.1, 40942.387, 0.11252093, 0.3923625, -907498.5, -37358.254, 0.0, 9.999495, 9.999424 
1.9050403e+3, 2.2121285e+2, -737814.56, -808350.94, 80218.805, 0.02606969, 0.33207124, -685453.44, 86701.02, 0.0, 10.000294, 9.999342 
1.9050959e+3, 2.312132e+2, -802180.2, -762987.75, 91087.85, -0.09091658, 0.4165161, -689412.06, -15259.172, 0.0, 9.999075, 9.999564 
1.9051513e+3, 2.412134e+2, -804519.8, -702042.6, 6787.189, -0.1798362, 0.50445116, -701595.0, -125442.68, 0.0, 9.998331, 9.999671 
1.9052055e+3, 2.5121295e+2, -406262.66, -414164.3, -65234.047, -0.15624525, 0.46585688, -344859.9, 133295.75, 0.0, 10.000205, 10.000066 
1.9052604e+3, 2.6121238e+2, -173250.31, -318881.06, -277.3893, -0.1312681, 0.44689292, -173249.8, 206911.16, 0.000000016068412, 10.001416, 9.99947 
1.9053167e+3, 2.712128e+2, -413965.3, -390620.78, 35129.367, -0.19110039, 0.55258274, -365275.28, -83116.48, 0.0000058983674, 9.999115, 9.999413 
1.9053736e+3, 2.812129e+2, -531121.2, -390451.22, 4011.8596, -0.20289041, 0.6428179, -390336.9, -206177.66, 0.00007285699, 9.997607, 9.999471 
1.9054313e+3, 2.9121074e+2, 31460.883, -35378.883, 1332.7827, 0.046263818, 0.45817697, 31487.447, 117663.44, 0.0003141569, 10.0006695, 9.999751 
1.905485e+3, 3.0120817e+2, 340518.38, -21410.121, 29647.002, -0.024806852, 0.2879018, 342930.78, 342930.78, 0.00078521925, 10.003139, 9.998338 
1.905537e+3, 3.112074e+2, -69350.055, -283387.8, 145481.5, -0.41792598, 0.44812047, 4235.3545, 4235.3545, 0.0014132871, 10.000577, 9.997772 
1.9144927e+3, 1.2116412e+2, -1808154.8, -1639869.4, 34672.54, 0.025597114, 0.39230964, -1633005.6, 119622.05, 0.18042894, 9.998731, 10.001288 
1.914546e+3, 1.3116436e+2, -1862692.0, -1700789.1, -85534.03, 0.090702735, 0.37092283, -1663973.0, -9351.345, 0.12358676, 9.998171, 10.000293 
1.9145964e+3, 1.4116317e+2, -1861315.4, -1708395.6, -9020.066, -0.058984626, 0.26533446, -1707865.5, -151234.16, 0.069141634, 9.997744, 9.999781 
1.914651e+3, 1.5116324e+2, -1626992.3, -1551279.9, 32799.867, -0.07169575, 0.30004105, -1539046.9, -80415.125, 0.028615344, 9.998715, 9.999716 
1.9147064e+3, 1.6116326e+2, -1441958.5, -1470010.5, 32971.01, -0.052227, 0.37494242, -1420154.1, -59520.57, 0.0073205116, 9.999554, 9.999199 
1.9147633e+3, 1.711635e+2, -1374553.5, -1387203.9, 43672.97, 0.009474808, 0.48170394, -1336750.1, -74113.7, 0.00070924795, 9.999353, 9.9991865 
1.91482e+3, 1.8116307e+2, -1300864.3, -1251873.1, -20378.705, 0.072083175, 0.53527296, -1244504.6, -79860.555, 0.0000023137907, 9.99898, 9.999625 
1.9148748e+3, 1.911609e+2, -1236136.8, -1105647.8, -8892.538, 0.11935327, 0.31489456, -1105044.5, -38383.113, 0.0, 9.998478, 10.000196 
1.9149293e+3, 2.011592e+2, -1219533.3, -1133867.1, 66927.4, 0.1125839, 0.17535526, -1097239.8, -128564.34, 0.0, 9.998295, 9.999417 
1.9149835e+3, 2.1116085e+2, -964356.56, -983197.8, 94945.625, -0.066565074, 0.41742483, -878365.3, -7701.4663, 0.0, 9.999477, 9.999207 
1.9150384e+3, 2.2116186e+2, -767534.5, -862141.94, 66024.56, -0.19300617, 0.630071, -733617.0, 39041.37, 0.0, 10.000255, 9.998994 
1.915095e+3, 2.3115987e+2, -832587.5, -822230.5, 42612.59, -0.06967515, 0.5219786, -784482.94, -109805.055, 0.0, 9.999056, 9.999168 
1.9151513e+3, 2.4115774e+2, -847065.8, -784831.94, 36848.797, 0.0035474903, 0.42144465, -767719.25, -191020.97, 0.0, 9.998302, 9.999118 
1.9152057e+3, 2.5115687e+2, -463150.7, -518312.3, 20925.082, -0.15491743, 0.40243834, -456111.28, 22595.408, 0.0, 10.000141, 9.999384 
1.9152609e+3, 2.6115558e+2, -214694.08, -379336.84, -30606.695, -0.21687539, 0.3730314, -209188.47, 171530.72, 0.000000038925435, 10.001307, 9.999108 
1.9153182e+3, 2.711537e+2, -416576.44, -403317.47, -56311.063, 0.04876465, 0.26487622, -353247.0, -70509.31, 0.000005404383, 9.999146, 9.9993105 
1.9153745e+3, 2.8115317e+2, -442822.3, -236376.05, 47874.438, 0.12788826, 0.26599056, -225814.39, -41072.16, 0.00006308154, 9.997731, 10.000469 
1.915428e+3, 2.911565e+2, 117166.51, 149793.7, 141242.83, -0.33908302, 0.48424464, 275661.94, 362368.3, 0.0002740922, 10.000625, 10.001055 
1.9154827e+3, 3.0115652e+2, 253624.02, -139821.81, 5415.7666, -0.56432134, 0.5295498, 253698.55, 253698.55, 0.0007026541, 10.002881, 9.997641 
1.915543e+3, 3.1115332e+2, -116224.664, -337021.72, 94164.86, 0.12988539, 0.56150514, -81520.27, -81520.27, 0.0013040918, 10.000395, 9.997487 
1.9244915e+3, 1.2110929e+2, -2109822.0, -1746147.5, 82755.484, 0.15257545, 0.41439703, -1728201.8, 24965.975, 0.18987963, 9.996562, 10.001482 
1.9245437e+3, 1.3110939e+2, -1893533.1, -1688425.5, -135285.89, 0.07698198, 0.35457495, -1621216.1, 33947.79, 0.13060497, 9.997818, 10.000587 
1.9245948e+3, 1.411094e+2, -1694951.6, -1612046.0, -60452.242, -0.029259475, 0.3446517, -1580199.4, -23037.121, 0.07352615, 9.99883, 9.999913 
1.9246498e+3, 1.5110913e+2, -1529112.6, -1504384.3, 36485.254, -0.076322116, 0.343765, -1478225.1, -19059.848, 0.030745408, 9.999391, 9.99971 
1.9247055e+3, 1.6110873e+2, -1431293.0, -1468261.4, 68809.34, -0.073328644, 0.37752667, -1378528.4, -17357.9, 0.008026891, 9.99966, 9.999152 
1.9247626e+3, 1.7110899e+2, -1384781.0, -1398256.3, 88424.26, 0.016935917, 0.49359244, -1302838.0, -39665.04, 0.0008187495, 9.999329, 9.999116 
1.924819e+3, 1.8110864e+2, -1281700.9, -1224687.4, 47067.332, 0.09689796, 0.5532603, -1198167.1, -32987.492, 0.0000031359323, 9.999037, 9.9997835 
1.9248731e+3, 1.911066e+2, -1079966.5, -994155.94, 1215.4927, 0.078827895, 0.3154503, -994138.75, 73055.43, 0.0, 9.999397, 10.000515 
1.9249272e+3, 2.01105e+2, -1016318.7, -1049434.0, 42637.742, 0.022412144, 0.16758466, -987136.5, -17930.42, 0.0, 9.999751, 9.999293 
1.9249824e+3, 2.1110654e+2, -934033.06, -1014601.4, 56249.496, -0.12801471, 0.43586934, -905130.4, -33932.746, 0.0, 9.999889, 9.99879 
1.925038e+3, 2.2110742e+2, -814853.0, -873036.7, -7603.415, -0.21030478, 0.6644596, -813875.8, -40681.28, 0.0, 9.999884, 9.999097 
1.9250943e+3, 2.3110542e+2, -732582.4, -726556.2, -3837.739, -0.06221687, 0.518877, -724690.06, -49477.867, 0.0, 9.999533, 9.999599 
1.9251502e+3, 2.4110329e+2, -721314.3, -720749.6, 92329.15, 0.027998066, 0.38774687, -628702.4, -51471.645, 0.0, 9.999156, 9.9991455 
1.9252054e+3, 2.5110263e+2, -660549.8, -642135.0, 127730.2, -0.10442887, 0.40789914, -523280.78, -44043.06, 0.0, 9.998911, 9.999128 
1.9252618e+3, 2.6110142e+2, -553298.44, -562466.56, 80599.164, -0.13195145, 0.4103194, -477153.1, -95903.14, 0.000000047147957, 9.999065, 9.998933 
1.9253184e+3, 2.710989e+2, -185263.5, -296226.0, 35013.145, 0.07666031, 0.2483, -175139.19, 108134.79, 0.000004361137, 10.000764, 9.999263 
1.9253735e+3, 2.8109777e+2, 123934.266, -12268.047, 129200.85, 0.05614038, 0.20067255, 201883.19, 387167.9, 0.000051495666, 10.0018425, 10.000028 
1.9254273e+3, 2.9110163e+2, 3167.2815, 6607.147, 93710.11, -0.43740925, 0.542038, 98613.1, 185858.98, 0.00023024327, 10.000228, 10.0002575 
1.9254847e+3, 3.011019e+2, -249228.78, -357325.56, -129136.88, -0.456994, 0.66914, -163285.88, -163285.88, 0.00060977024, 9.999301, 9.997879 
1.9255434e+3, 3.1109676e+2, -66223.914, -144530.97, 25199.172, 0.18380244, 0.41407338, -58815.684, -58815.684, 0.0011666642, 10.000003, 9.999003 
1.9344874e+3, 1.21054284e+2, -2133434.3, -1777366.8, 135376.89, 0.09296055, 0.4381554, -1731742.5, 21964.607, 0.1997211, 9.99649, 10.001295 
1.9345406e+3, 1.3105386e+2, -1919751.8, -1729309.4, -87251.21, -0.00564909, 0.35170323, -1695380.0, -39668.004, 0.13795441, 9.997773, 10.0002985 
1.934594e+3, 1.410544e+2, -1656865.8, -1551224.4, -33693.555, 0.015505298, 0.40376407, -1541393.0, 16314.189, 0.07814733, 9.998896, 10.00031 
1.9346498e+3, 1.5105401e+2, -1466536.0, -1383503.3, 56560.004, -0.009053963, 0.31642574, -1354858.1, 104849.24, 0.033007, 9.999422, 10.0005455 
1.9347057e+3, 1.6105352e+2, -1383954.0, -1385997.9, 65088.145, -0.024673132, 0.2660085, -1319879.8, 41829.758, 0.008786739, 9.999722, 9.999692 
1.9347611e+3, 1.7105374e+2, -1357176.0, -1350643.4, 76894.34, -0.0522504, 0.34144545, -1276946.0, -13234.903, 0.00094156526, 9.999362, 9.999432 
1.9348161e+3, 1.8105383e+2, -1295074.5, -1258145.3, 51888.293, -0.08393873, 0.43026194, -1221534.1, -55820.48, 0.0000044945964, 9.99906, 9.999542 
1.9348706e+3, 1.9105396e+2, -1119384.3, -1078897.6, 21692.13, -0.11250402, 0.4608992, -1069470.5, -1759.1698, 0.0, 9.999409, 9.9999275 
1.9349255e+3, 2.0105347e+2, -1058887.6, -1141214.8, 49356.336, -0.13241665, 0.4831379, -1035782.3, -66066.4, 0.0, 9.999763, 9.998659 
1.9349825e+3, 2.1105137e+2, -983470.94, -1114255.8, 64007.176, -0.09638657, 0.45454296, -957358.8, -85617.15, 0.0, 9.999871, 9.9981165 
1.9350393e+3, 2.2104946e+2, -788440.8, -808860.7, -15311.138, -0.05803264, 0.4347474, -780247.6, -6483.4473, 0.0, 9.999839, 9.999559 
1.9350934e+3, 2.3104976e+2, -651737.5, -551635.2, -14804.752, -0.09016767, 0.41265675, -549491.5, 126265.31, 0.0, 9.999504, 10.000812 
1.9351476e+3, 2.4104998e+2, -681699.75, -640686.0, 76966.22, -0.13095836, 0.41344252, -581541.56, -3790.8997, 0.0, 9.999161, 9.999694 
1.935205e+3, 2.510499e+2, -649237.75, -623733.3, 119881.16, -0.034384638, 0.47298774, -515928.03, -36175.934, 0.0, 9.998931, 9.999246 
1.9352627e+3, 2.6104945e+2, -556163.2, -566299.94, 115979.92, 0.07831759, 0.54207, -445140.97, -63383.215, 0.00000001782158, 9.999054, 9.998913 
1.935317e+3, 2.7104777e+2, -202468.97, -316432.0, 104987.84, -0.10658084, 0.46953785, -139996.14, 143778.45, 0.0000032380601, 10.000691, 9.999162 
1.9353706e+3, 2.8104603e+2, -10686.938, -262830.38, 102705.75, -0.40768856, 0.4187804, 25852.994, 211645.94, 0.000041892385, 10.001719, 9.998364 
1.9354284e+3, 2.9104602e+2, -178020.95, -370555.6, 37505.438, -0.3411619, 0.62143373, -170972.95, -83177.6, 0.00019371208, 10.000226, 9.997672 
1.9354899e+3, 3.0104464e+2, -180759.14, -223352.42, -108004.06, 0.15201804, 0.7368843, -91972.07, -91972.07, 0.00052765995, 9.99934, 9.998779 
1.9355385e+3, 3.1103653e+2, 141133.38, 292552.7, -38645.95, -0.31185827, -0.096407235, 301845.72, 301845.72, 0.0010305103, 9.999997, 10.002003 
1.9444847e+3, 1.2099836e+2, -1942422.5, -1696672.3, 129943.95, 0.14422265, 0.39702538, -1640707.4, 113550.44, 0.20999403, 9.997792, 10.001357 
1.944538e+3, 1.3099934e+2, -1935688.6, -1731826.9, -60599.133, -0.014550216, 0.44452426, -1715173.8, -58922.95, 0.14565058, 9.997636, 10.000341 
1.9445926e+3, 1.4099984e+2, -1802176.5, -1588272.8, 9108.066, 0.038318057, 0.4767229, -1587885.6, -29637.836, 0.083007626, 9.997761, 10.000594 
1.9446486e+3, 1.509999e+2, -1627600.5, -1406542.1, 65131.96, 0.013270236, 0.39250648, -1388779.1, 71462.52, 0.03539992, 9.9980755, 10.001033 
1.9447048e+3, 1.6099964e+2, -1570479.6, -1447802.4, 43647.152, -0.0031804724, 0.32281435, -1433858.1, -71618.555, 0.009600047, 9.998322, 9.999942 
1.9447601e+3, 1.70999e+2, -1434405.3, -1379029.5, 24916.36, -0.038521588, 0.30409777, -1369469.0, -105221.484, 0.0010784023, 9.998792, 9.999511 
1.9448154e+3, 1.8099847e+2, -1276832.9, -1281326.5, 2781.9526, -0.08342037, 0.33390212, -1275503.8, -109248.58, 0.0000066792873, 9.999331, 9.999247 
1.9448696e+3, 1.909994e+2, -1036515.6, -1099799.4, -21652.709, -0.1769656, 0.49726486, -1029816.3, 38431.4, 0.0, 10.000251, 9.999373 
1.9449244e+3, 2.0099954e+2, -905907.94, -1045307.94, -5879.336, -0.22774158, 0.6159721, -905660.44, 64587.69, 0.0, 10.00072, 9.998855 
1.9449821e+3, 2.1099667e+2, -1035698.25, -1062710.5, 73121.06, -0.07661573, 0.45142248, -974846.44, -102568.72, 0.0, 9.999185, 9.9988 
1.9450392e+3, 2.2099416e+2, -1036407.4, -934067.3, 102482.41, 0.046794817, 0.32625183, -870690.4, -96387.29, 0.0, 9.998167, 9.999503 
1.9450931e+3, 2.3099497e+2, -562774.9, -570041.9, 15205.859, -0.09048826, 0.39842176, -550774.44, 125519.39, 0.0, 10.000383, 10.000261 
1.9451475e+3, 2.4099554e+2, -251526.67, -444871.06, -38546.855, -0.20357616, 0.47856194, -244124.98, 334161.8, 0.0, 10.0021715, 9.999587 
1.9452049e+3, 2.5099495e+2, -348980.9, -458919.84, -37427.79, -0.028160164, 0.47722965, -337448.63, 142843.02, 0.0, 10.000903, 9.999426 
1.9452626e+3, 2.6099423e+2, -466948.38, -520060.8, 13337.213, 0.13988315, 0.5062399, -463787.34, -81488.97, 0.000000002142629, 9.999655, 9.998939 
1.9453172e+3, 2.709936e+2, -346782.28, -402533.38, 21602.906, -0.10527808, 0.5487346, -339391.25, -55085.426, 0.0000029349435, 9.999771, 9.999014 
1.9453712e+3, 2.809921e+2, -266319.06, -390330.1, 16183.49, -0.41806322, 0.541097, -264241.88, -77920.13, 0.00003707627, 9.999977, 9.99833 
1.9454291e+3, 2.9098985e+2, -140409.89, -312802.72, 95214.09, -0.26943073, 0.5022473, -98171.32, -9828.235, 0.00017166346, 10.000324, 9.9980135 
1.9454905e+3, 3.0098748e+2, 47529.72, -160003.56, 120209.125, 0.21338655, 0.4986199, 102564.05, 102564.05, 0.0004667538, 10.001108, 9.998363 
1.9455385e+3, 3.109821e+2, 374832.5, 263440.53, -136143.89, -0.40987548, 0.04824435, 466232.4, 466232.4, 0.0009083676, 10.002209, 10.000737 
1.9544834e+3, 1.2094147e+2, -1897006.4, -1645794.4, 78336.98, 0.21905088, 0.27913982, -1623368.1, 131453.16, 0.22070916, 9.997913, 10.001712 
1.9545361e+3, 1.309462e+2, -1905387.1, -1673951.1, -57495.938, 0.040534846, 0.6646426, -1660454.5, -3677.6123, 0.15369554, 9.997652, 10.000733 
1.9545898e+3, 1.4094584e+2, -1784690.5, -1557109.4, 14991.049, -0.004544367, 0.5777647, -1556126.1, 2656.152, 0.08810495, 9.997775, 10.000805 
1.954646e+3, 1.5094689e+2, -1628767.3, -1399525.8, 78390.055, -0.044451408, 0.5798491, -1375283.6, 85483.94, 0.037922986, 9.998034, 10.001106 
1.9547026e+3, 1.6094726e+2, -1577157.1, -1460998.8, 56470.11, -0.054200023, 0.5729517, -1438071.4, -75312.01, 0.010466628, 9.998315, 9.999854 
1.9547597e+3, 1.7094488e+2, -1448169.3, -1411414.1, 45826.22, 0.038412724, 0.39608103, -1380417.8, -115636.086, 0.0012294218, 9.998803, 9.999285 
1.9548161e+3, 1.8094255e+2, -1300549.8, -1337849.1, 30429.367, 0.07916176, 0.2742812, -1283509.8, -116705.17, 0.000009908067, 9.999362, 9.998843 
1.9548702e+3, 1.9094284e+2, -1071733.4, -1179347.9, 17651.295, -0.1312726, 0.42391574, -1068912.1, -107.4511, 0.0, 10.000275, 9.998817 
1.9549246e+3, 2.0094301e+2, -839964.2, -906468.06, -33262.57, -0.28926986, 0.5565649, -826183.25, 144621.55, 0.0, 10.0007105, 9.999812 
1.954981e+3, 2.109423e+2, -898128.0, -770162.06, 9634.956, -0.090491556, 0.4272236, -769440.7, 103366.38, 0.0, 9.999154, 10.000823 
1.9550374e+3, 2.209414e+2, -1079461.9, -1014140.75, 132311.55, 0.072640136, 0.33499327, -910518.3, -135705.48, 0.0, 9.998125, 9.998976 
1.9550934e+3, 2.309409e+2, -731684.0, -905141.8, 116592.3, -0.08888805, 0.46915272, -673100.56, 3723.8652, 0.0, 10.0003195, 9.997991 
1.9551492e+3, 2.4093994e+2, -320299.94, -565967.3, -34720.25, -0.23017985, 0.5780908, -315487.22, 263352.22, 0.0, 10.002079, 9.998799 
1.9552049e+3, 2.5093788e+2, -338799.16, -429708.53, -91289.82, -0.10128455, 0.42801064, -282273.66, 198581.69, 0.0, 10.000869, 9.999643 
1.9552611e+3, 2.6093614e+2, -461463.53, -512128.4, -4420.5835, 0.036625873, 0.3360065, -461080.72, -78212.336, 0.00000003752054, 9.999666, 9.998989 
1.9553182e+3, 2.7093655e+2, -353127.97, -430497.44, 38628.3, 0.02045276, 0.49466518, -337144.13, -52278.016, 0.00000331544, 9.999828, 9.998798 
1.9553745e+3, 2.809361e+2, -174460.03, -203916.19, 24009.46, -0.0695044, 0.57787806, -161021.28, 25849.045, 0.00003537652, 9.999999, 9.9995985 
1.9554298e+3, 2.90933e+2, 43642.28, 72954.38, 111013.71, -0.22554615, 0.23228943, 170275.31, 259165.52, 0.00015855723, 10.000304, 10.000677 
1.9554871e+3, 3.0093005e+2, -59945.156, -365502.6, 148329.66, -0.23755243, -0.0029337674, 215.13646, 215.13646, 0.00041665725, 10.001027, 9.996991 
1.9555435e+3, 3.109316e+2, 26031.492, -448569.22, -162351.05, -0.13613199, 0.63186663, 76253.875, 76253.875, 0.0007860337, 10.002175, 9.995849 
1.9644804e+3, 1.2088715e+2, -1995242.0, -1679277.1, 127174.54, 0.18540938, 0.32808366, -1634449.8, 120909.52, 0.23177752, 9.99722, 10.001796 
1.9645339e+3, 1.3089322e+2, -1854784.1, -1647539.0, 9115.679, 0.054598793, 0.8428558, -1647138.9, 10159.924, 0.1620495, 9.997994, 10.000761 
1.964588e+3, 1.4088991e+2, -1644358.5, -1522449.1, 47742.83, -0.0025149542, 0.46797532, -1505977.4, 53353.203, 0.093428105, 9.998886, 10.00053 
1.9646448e+3, 1.5089118e+2, -1480538.3, -1387502.8, 53619.04, -0.013441667, 0.5397996, -1363035.3, 98280.68, 0.04057487, 9.999318, 10.000565 
1.9647017e+3, 1.6089211e+2, -1389479.1, -1385943.4, 4292.4033, -0.0030949058, 0.6306537, -1383069.0, -19764.56, 0.011385711, 9.999676, 9.999712 
1.964759e+3, 1.7089023e+2, -1243421.0, -1291742.9, 12531.831, 0.041631054, 0.4953482, -1240364.4, 24956.984, 0.0013940044, 10.0001335, 9.999458 
1.9648156e+3, 1.8088812e+2, -1139165.6, -1238635.8, 25860.244, 0.051392525, 0.37764174, -1132844.1, 34496.754, 0.000014255441, 10.000373, 9.9990425 
1.9648704e+3, 1.9088745e+2, -1136150.3, -1186513.6, 57756.207, -0.10146464, 0.41040394, -1098324.8, -28976.096, 0.0, 9.999726, 9.999035 
1.9649252e+3, 2.008869e+2, -1047329.2, -1000878.5, 25147.525, -0.21171032, 0.45516986, -989872.06, -18517.693, 0.0, 9.999261, 9.999866 
1.9649805e+3, 2.108871e+2, -750711.75, -706963.25, -85115.67, -0.0874714, 0.42058396, -640956.0, 232392.44, 0.0, 10.000201, 10.000753 
1.9650364e+3, 2.2088698e+2, -683832.7, -837048.25, -41211.363, 0.020384623, 0.4178607, -673451.2, 101895.95, 0.0, 10.000902, 9.998853 
1.9650938e+3, 2.3088591e+2, -798340.8, -961203.1, 80290.734, -0.053571533, 0.5162302, -765414.5, -88049.73, 0.0, 9.999952, 9.997788 
1.9651508e+3, 2.4088436e+2, -738150.1, -772330.2, 41946.145, -0.1066163, 0.58154786, -709946.1, -130560.64, 0.0, 9.999219, 9.998765 
1.9652058e+3, 2.5088236e+2, -407285.6, -449813.8, -28678.533, -0.05727954, 0.42862368, -392847.88, 88551.984, 0.0, 10.000346, 9.999756 
1.9652608e+3, 2.608806e+2, -202381.16, -387574.2, 57824.863, -0.028508415, 0.32344857, -185808.86, 197603.25, 0.00000006167767, 10.001453, 9.998981 
1.9653182e+3, 2.7088037e+2, -121396.69, -332020.72, 98167.41, -0.03806279, 0.43018407, -82738.36, 202676.58, 0.000003603985, 10.001488, 9.998669 
1.9653755e+3, 2.8087953e+2, 22969.568, -122869.74, 64097.688, -0.01909815, 0.48595843, 47136.418, 234559.28, 0.0000340466, 10.001417, 9.999471 
1.9654316e+3, 2.9087707e+2, 149845.11, 126196.4, -13869.931, -0.09325621, 0.2137965, 156246.84, 245685.16, 0.00014734037, 10.001029, 10.000694 
1.965487e+3, 3.0087495e+2, -80664.875, -317775.6, -32559.61, -0.3182022, 0.04030055, -76275.12, -76275.12, 0.00037193403, 10.000628, 9.99752 
1.9655457e+3, 3.108776e+2, 54194.715, -368034.06, -31388.95, -0.120925665, 0.73662376, 56515.45, 56515.45, 0.00067169673, 10.002055, 9.996478 
1.9744754e+3, 1.2083631e+2, -1999094.3, -1697825.4, 106286.97, -0.059728123, 0.60117096, -1664102.4, 91761.05, 0.24301729, 9.997265, 10.001614 
1.9745313e+3, 1.3084053e+2, -1882828.5, -1707493.5, 55940.156, -0.01153037, 0.9716964, -1691166.3, -33351.535, 0.17062773, 9.998006, 10.000334 
1.974587e+3, 1.4083189e+2, -1695986.4, -1645835.1, 74045.83, 0.009527844, 0.11913149, -1592734.3, -32840.445, 0.09895461, 9.998961, 9.999619 
1.974645e+3, 1.5083249e+2, -1559766.8, -1571649.0, 72206.71, 0.08769353, 0.24505961, -1493257.1, -31367.652, 0.04335473, 9.999401, 9.999244 
1.9747028e+3, 1.6083388e+2, -1390805.0, -1409958.0, 14868.726, 0.12537892, 0.48062167, -1382695.6, -18817.918, 0.012356995, 9.999764, 9.999507 
1.974758e+3, 1.708349e+2, -1194807.3, -1206711.9, 30957.396, -0.057139248, 0.5968185, -1169235.1, 96632.734, 0.0015709848, 10.000197, 10.000015 
1.9748132e+3, 1.8083519e+2, -1075262.9, -1114678.9, 13543.996, -0.21478502, 0.6547049, -1071057.6, 96806.695, 0.000019593592, 10.000411, 9.999875 
1.9748698e+3, 1.9083324e+2, -1064445.6, -1036243.06, 32960.64, -0.12454763, 0.46140662, -1014493.94, 55385.867, 0.0, 9.999724, 10.000066 
1.9749261e+3, 2.0083122e+2, -1110500.3, -1127850.0, 37297.67, -0.031522766, 0.30955118, -1080881.9, -108984.95, 0.0, 9.999243, 9.999003 
1.9749805e+3, 2.1083109e+2, -912546.75, -1035959.4, -38708.55, -0.091069534, 0.43850678, -901410.6, -27509.258, 0.0, 10.00017, 9.99851 
1.9750355e+3, 2.2083087e+2, -681650.8, -824334.9, -49550.68, -0.14272664, 0.58031356, -666131.2, 109775.45, 0.0, 10.000862, 9.99896 
1.975094e+3, 2.3082992e+2, -675487.25, -703740.8, 41144.82, -0.008765017, 0.5453623, -646111.6, 31804.258, 0.0, 9.999939, 9.999561 
1.9751525e+3, 2.4082875e+2, -692148.44, -671390.9, 51572.535, 0.13056359, 0.502326, -629163.1, -49237.1, 0.0, 9.999192, 9.999472 
1.9752073e+3, 2.508281e+2, -412821.3, -458652.16, 23954.32, 0.06809343, 0.47252232, -402586.7, 79341.67, 0.0, 10.000333, 9.999703 
1.9752616e+3, 2.608271e+2, -213176.03, -402186.2, 73319.37, -0.09255864, 0.4505945, -188069.48, 195864.67, 0.000000055759365, 10.00142, 9.998897 
1.975317e+3, 2.7082476e+2, -132652.88, -350626.84, 97803.08, -0.28215083, 0.35812062, -95203.51, 190751.92, 0.0000036492006, 10.001467, 9.99855 
1.9753745e+3, 2.8082228e+2, -72756.74, -317585.66, 49641.727, -0.26150876, 0.29462552, -63074.26, 124905.33, 0.00003269789, 10.001397, 9.998144 
1.9754343e+3, 2.908215e+2, 6868.521, -191551.42, -25037.543, 0.06749819, 0.38947925, 9979.109, 99969.24, 0.00013817217, 10.001108, 9.998476 
1.9754893e+3, 3.008216e+2, 44868.406, -60353.54, -22366.465, -0.13967085, 0.5446525, 49425.37, 49425.37, 0.0003392859, 10.000661, 9.999267 
1.9755477e+3, 3.1082067e+2, 395666.06, 371186.13, 149754.83, -0.12488085, 0.47250655, 533680.3, 533680.3, 0.0005905419, 10.001938, 10.001612 
1.9844718e+3, 1.20781474e+2, -1974382.8, -1699649.4, -2256.8613, -0.12935011, 0.64361, -1699630.8, 56771.867, 0.25424254, 9.997518, 10.001425 
1.9845292e+3, 1.3078558e+2, -1833390.0, -1696625.6, -26233.113, -0.015507485, 1.0183698, -1691766.5, -33412.543, 0.17932345, 9.998401, 10.000217 
1.9845861e+3, 1.4077596e+2, -1700766.4, -1658244.0, 13314.898, 0.033690043, 0.08031491, -1654418.9, -93977.375, 0.104643695, 9.998974, 9.999527 
1.9846441e+3, 1.5077671e+2, -1622532.9, -1599935.8, 86286.91, 0.08404514, 0.22692648, -1524210.8, -61775.742, 0.046255346, 9.99898, 9.999244 
1.9847016e+3, 1.607783e+2, -1510544.4, -1475746.4, 117218.29, 0.09336444, 0.48175552, -1374642.9, -10221.749, 0.013380272, 9.998984, 9.999427 
1.9847573e+3, 1.7077895e+2, -1309596.5, -1278268.4, 93064.01, -0.094214864, 0.57257324, -1199559.4, 66856.34, 0.0017591557, 9.99948, 9.999868 
1.9848129e+3, 1.8077902e+2, -1142507.3, -1132234.4, 5350.627, -0.24073377, 0.6165149, -1129953.8, 38461.133, 0.0000256483, 9.999885, 10.000006 
1.9848694e+3, 1.9077799e+2, -1015493.7, -976356.44, -47773.395, -0.1241804, 0.48464334, -944299.2, 126122.54, 0.0, 9.999899, 10.000394 
1.9849257e+3, 2.0077673e+2, -1013502.8, -1100117.1, -33059.87, -0.011129289, 0.39185664, -1002326.3, -29894.537, 0.0, 9.999995, 9.998825 
1.984981e+3, 2.107758e+2, -849142.75, -1066384.6, 18330.59, -0.08790397, 0.48596045, -847606.94, 26838.56, 0.0, 10.000872, 9.997958 
1.9850364e+3, 2.2077468e+2, -592668.1, -782667.5, 55147.03, -0.14879665, 0.5758107, -577821.8, 198638.16, 0.0, 10.001483, 9.998944 
1.9850941e+3, 2.3077357e+2, -553053.0, -596948.4, 25690.066, -0.006326429, 0.49543667, -541211.94, 137255.61, 0.0, 10.000592, 9.9999695 
1.9851519e+3, 2.4077252e+2, -586576.0, -608755.8, 4895.4307, 0.14001597, 0.43152773, -585543.56, -5069.6836, 0.0, 9.999886, 9.99956 
1.9852076e+3, 2.5077224e+2, -353142.75, -448800.7, -6849.5146, 0.0603297, 0.45524707, -352654.78, 129818.016, 0.0, 10.000829, 9.999533 
1.9852628e+3, 2.607714e+2, -181533.4, -413165.53, 8108.8223, -0.1061648, 0.4682792, -181249.89, 203228.05, 0.00000004684117, 10.001744, 9.998667 
1.9853185e+3, 2.707685e+2, -114416.88, -376223.1, -7209.257, -0.27862802, 0.34512937, -114218.51, 172288.03, 0.000003631824, 10.001741, 9.998243 
1.9853762e+3, 2.8076556e+2, -25203.402, -342118.47, -31499.887, -0.24096331, 0.27858955, -22102.795, 166433.28, 0.00003088302, 10.001928, 9.997722 
1.985436e+3, 2.907652e+2, 181299.97, -164565.45, -16848.135, 0.07337692, 0.4648456, 182118.75, 272662.5, 0.00012805517, 10.002562, 9.997959 
1.9854908e+3, 3.0076534e+2, 304787.1, 25216.443, 18553.93, -0.14160031, 0.67061317, 306013.06, 306013.06, 0.00031165374, 10.002617, 9.99891 
1.9855502e+3, 3.1076223e+2, 407783.1, 330287.7, 5330.721, -0.040959284, 0.41673818, 408148.06, 408148.06, 0.0005365878, 10.002202, 10.00121 
1.9944702e+3, 1.20722145e+2, -1986381.9, -1731200.6, 25829.033, -0.04691032, 0.43342352, -1728612.5, 28368.375, 0.26535824, 9.997575, 10.001122 
1.994528e+3, 1.3072798e+2, -1815906.3, -1668381.3, -1338.4297, 0.023651063, 0.9678468, -1668369.1, -9448.649, 0.18805622, 9.99843, 10.0004 
1.994585e+3, 1.4072254e+2, -1630883.6, -1530827.6, 15362.674, 0.036593102, 0.4132083, -1528522.0, 32448.605, 0.11045076, 9.999027, 10.000404 
1.9946414e+3, 1.5072428e+2, -1520305.1, -1390636.3, 83341.78, -0.06622582, 0.5238756, -1349880.3, 113068.83, 0.04926506, 9.9989805, 10.000712 
1.994698e+3, 1.6072568e+2, -1505514.5, -1462359.9, 128876.01, -0.15460286, 0.65230954, -1353267.4, 11663.96, 0.014456319, 9.998972, 9.999525 
1.9947568e+3, 1.7072229e+2, -1377033.4, -1417948.3, 116841.484, -0.0933013, 0.4126378, -1278872.0, -11906.838, 0.0019582892, 9.999476, 9.998914 
1.9948149e+3, 1.8071924e+2, -1183627.4, -1222809.3, 12133.993, -0.03973035, 0.22958536, -1180174.0, -11177.703, 0.000032105352, 9.999907, 9.999375 
1.9948693e+3, 1.9072151e+2, -1043440.3, -1034509.8, -47560.746, -0.11659214, 0.47490945, -991205.2, 79771.02, 0.0, 9.999902, 9.999993 
1.994924e+3, 2.007234e+2, -979792.6, -1030161.4, -15352.597, -0.1805515, 0.7095716, -975482.0, -2522.3457, 0.0, 9.999992, 9.99931 
1.9949816e+3, 2.1072105e+2, -773522.2, -902921.44, 57810.188, -0.10019005, 0.5644641, -751457.44, 123524.8, 0.0, 10.000841, 9.999098 
1.9950391e+3, 2.2071825e+2, -602269.25, -792848.56, 47206.793, -0.029308753, 0.40676078, -591217.0, 185791.66, 0.0, 10.001438, 9.998898 
1.995094e+3, 2.3071681e+2, -623632.25, -737720.5, -9105.035, -0.06860182, 0.3656977, -622910.2, 56110.336, 0.0, 10.000562, 9.99902 
1.9951493e+3, 2.4071555e+2, -635842.56, -700444.6, 11329.728, -0.10429367, 0.3654158, -633913.2, -52882.973, 0.0, 9.999841, 9.998951 
1.9952068e+3, 2.5071484e+2, -378837.9, -497559.72, 40017.813, -0.09520785, 0.38282976, -366608.72, 116424.61, 0.0, 10.0008135, 9.999203 
1.9952646e+3, 2.6071367e+2, -217319.05, -477281.94, 20896.91, -0.101899534, 0.39715844, -215649.98, 169392.23, 0.000000042002604, 10.0016985, 9.99825 
1.995322e+3, 2.707113e+2, -155005.69, -454302.63, -6902.683, -0.08655204, 0.37991, -154846.58, 132222.73, 0.0000035134383, 10.001711, 9.997722 
1.99538e+3, 2.8070906e+2, -17554.555, -311952.34, -16054.832, -0.032060634, 0.40841866, -16681.602, 172413.63, 0.00002820436, 10.001869, 9.997956 
1.9954368e+3, 2.9070804e+2, 245617.86, -45154.113, 4853.0337, -0.08267921, 0.4583895, 245698.83, 336800.47, 0.00011358282, 10.002621, 9.998751 
1.9954917e+3, 3.0070642e+2, 156409.77, -288855.88, -13442.886, -0.29922396, 0.4938027, 156815.25, 156815.25, 0.00027720892, 10.002655, 9.996725 
1.9955526e+3, 3.1070268e+2, 21328.31, -442694.22, 97127.71, -0.025815476, 0.56049013, 40838.453, 40838.453, 0.00048464816, 10.002075, 9.9959545 
2.0044683e+3, 1.2066384e+2, -1790040.5, -1683587.0, 56725.504, -0.044722848, 0.3148873, -1659026.4, 98519.84, 0.27641812, 9.999083, 10.000871 
2.0045258e+3, 1.3066955e+2, -1808445.8, -1661664.8, -8994.033, -0.0145712895, 0.8412785, -1661115.6, -1625.1819, 0.1968332, 9.998475, 10.000419 
2.0045833e+3, 1.4066674e+2, -1796176.9, -1578536.0, 669.5175, 0.05238538, 0.5384133, -1578534.0, -17016.414, 0.11636926, 9.997779, 10.0006485 
2.0046397e+3, 1.5066783e+2, -1534512.1, -1358265.3, -3159.0444, -0.11173456, 0.5519336, -1358208.6, 105291.77, 0.05238356, 9.998687, 10.001092 
2.0046963e+3, 1.6066845e+2, -1431775.6, -1419873.6, -31685.875, -0.2397069, 0.57397944, -1393584.8, -28095.61, 0.015589432, 9.999441, 9.999595 
2.0047557e+3, 1.706653e+2, -1501286.4, -1494974.6, -12535.529, -0.0848404, 0.3724139, -1485203.8, -217681.88, 0.0021699998, 9.998698, 9.998758 
2.0048144e+3, 1.8066256e+2, -1464390.4, -1374758.6, -42933.813, 0.051583454, 0.2352715, -1357511.9, -187960.02, 0.00003871999, 9.998057, 9.999221 
2.0048688e+3, 1.9066446e+2, -1174173.3, -1116062.0, -73939.234, -0.08876881, 0.46153527, -1065674.3, 5860.9136, 0.0, 9.999086, 9.999825 
2.0049235e+3, 2.0066606e+2, -964337.75, -989803.7, -37867.83, -0.209015, 0.6717037, -937119.5, 36401.496, 0.0, 9.999962, 9.999599 
2.0049816e+3, 2.1066454e+2, -944619.75, -915784.5, -12537.355, -0.09124176, 0.5555136, -911095.75, -35560.707, 0.0, 9.999368, 9.999719 
2.0050396e+3, 2.2066253e+2, -960915.8, -958629.75, -40073.72, 0.018790744, 0.43176064, -919682.8, -142129.25, 0.0, 9.998951, 9.998958 
2.0050943e+3, 2.306608e+2, -651673.1, -795182.94, -65402.598, -0.06530477, 0.3937719, -626339.06, 53230.004, 0.0, 10.000561, 9.998627 
2.0051496e+3, 2.40659e+2, -327556.53, -584041.5, -5699.027, -0.14822958, 0.3768424, -327429.97, 254154.58, 0.0, 10.00208, 9.998677 
2.0052075e+3, 2.5065756e+2, -245099.16, -452580.25, 30615.98, -0.13817228, 0.34099296, -240675.75, 242917.39, 0.0, 10.001806, 9.999034 
2.0052658e+3, 2.6065585e+2, -290376.84, -547674.6, 17487.842, -0.10270431, 0.32684124, -289193.7, 96412.01, 0.000000029896977, 10.001358, 9.997925 
2.0053239e+3, 2.7065396e+2, -242241.95, -545103.0, -16231.448, -0.024238393, 0.39581522, -241374.53, 46255.42, 0.0000031274246, 10.001323, 9.997283 
2.0053822e+3, 2.8065187e+2, -49285.51, -362003.7, 19813.816, 0.0055614617, 0.4767251, -48035.11, 141620.67, 0.000025154262, 10.001794, 9.997651 
2.0054387e+3, 2.9064944e+2, 432063.3, -4917.6963, -18345.1, -0.22646055, 0.42171475, 432832.13, 524507.75, 0.00009776422, 10.0041275, 9.998299 
2.0054953e+3, 3.0064642e+2, 564782.56, -126021.46, -163206.95, -0.35051233, 0.3694943, 601400.25, 601400.25, 0.00024000998, 10.005593, 9.99644 
2.0055547e+3, 3.1064305e+2, -84431.27, -494967.66, 124261.74, 0.034300297, 0.4776734, -49749.445, -49749.445, 0.00042951325, 10.001338, 9.995963 
2.0144661e+3, 1.2060653e+2, -1790433.8, -1700243.3, 65862.35, -0.19356373, 0.2779151, -1665517.3, 92581.17, 0.28771394, 9.999186, 10.000689 
2.0145226e+3, 1.306102e+2, -1825066.0, -1693242.0, -45542.203, -0.18045531, 0.61946326, -1679038.6, -18974.6, 0.20582092, 9.998464, 10.000209 
2.014581e+3, 1.4060812e+2, -1841857.4, -1663426.3, 4169.149, 0.03692536, 0.4206855, -1663328.9, -101243.625, 0.12247417, 9.997732, 10.00009 
2.0146386e+3, 1.5060681e+2, -1596929.6, -1480578.1, 39025.477, -0.0698544, 0.27504373, -1468701.0, -4606.477, 0.055639356, 9.998681, 10.000216 
2.0146963e+3, 1.6060603e+2, -1422731.0, -1411211.3, -39496.03, -0.17866176, 0.21994987, -1377057.3, -10957.419, 0.016791714, 9.999482, 9.999636 
2.0147543e+3, 1.7060791e+2, -1449980.0, -1391585.6, -48560.668, -0.08942013, 0.4628052, -1364120.5, -96033.28, 0.0023981123, 9.998707, 9.999466 
2.014812e+3, 1.8060923e+2, -1440111.6, -1323262.1, -35534.195, -0.007571593, 0.67005897, -1313304.6, -143225.25, 0.000045425786, 9.998049, 9.99958 
2.0148681e+3, 1.9060686e+2, -1171029.3, -1106014.8, -23580.377, -0.07031148, 0.45650142, -1098362.9, -26264.256, 0.0, 9.999071, 9.999903 
2.0149241e+3, 2.0060459e+2, -956822.56, -974370.7, -36747.535, -0.13235714, 0.27120715, -927816.1, 46301.05, 0.0, 9.99996, 9.999706 
2.0149809e+3, 2.106062e+2, -945112.44, -907974.25, -39235.85, -0.086010486, 0.45920646, -883135.2, -7030.725, 0.0, 9.999331, 9.99979 
2.0150378e+3, 2.2060749e+2, -963864.06, -954421.75, -15583.898, -0.03470829, 0.65801126, -942859.56, -164764.45, 0.0, 9.998901, 9.999012 
2.0150952e+3, 2.306054e+2, -649322.75, -786756.1, 8332.416, -0.025339207, 0.5777451, -648819.4, 31295.273, 0.0, 10.000541, 9.998696 
2.0151527e+3, 2.406027e+2, -331256.34, -579467.06, 12689.722, -0.03949026, 0.4656737, -330609.25, 251529.1, 0.0, 10.002029, 9.998733 
2.0152096e+3, 2.506003e+2, -250719.17, -454451.7, 12305.867, -0.1018207, 0.32907742, -249978.56, 234175.02, 0.0, 10.001766, 9.99904 
2.0152667e+3, 2.605979e+2, -317189.56, -593366.4, 4057.3762, -0.1395065, 0.2544263, -317129.97, 69040.21, 0.0000000091701935, 10.001317, 9.99763 
2.0153245e+3, 2.705963e+2, -266101.38, -599250.9, -12494.428, -0.099691205, 0.39175472, -265633.44, 22557.273, 0.0000023642951, 10.001345, 9.996901 
2.0153823e+3, 2.8059408e+2, -109889.62, -483456.78, 66675.65, -0.14438847, 0.50773126, -98345.82, 91871.83, 0.000021595964, 10.001779, 9.996823 
2.0154409e+3, 2.9058948e+2, 301482.28, -240149.03, 85330.39, -0.40392476, 0.3551106, 314607.44, 406872.22, 0.00008386982, 10.0039625, 9.996764 
2.0155005e+3, 3.0058515e+2, 583142.94, 3608.597, -214386.19, -0.3740089, 0.26925442, 653828.9, 653828.9, 0.00020755024, 10.005218, 9.997504 
2.0155556e+3, 3.105853e+2, 230551.25, 171006.34, -128412.11, 0.005901135, 0.41919225, 332597.13, 332597.13, 0.0003781892, 10.001347, 10.000506 
2.0244637e+3, 1.2054868e+2, -2098312.5, -1790958.6, 89807.68, -0.21015657, 0.23828104, -1766641.1, -7980.1636, 0.29983783, 9.996872, 10.000981 
2.0245196e+3, 1.305517e+2, -1856130.8, -1692135.3, -60662.758, -0.28085536, 0.49813157, -1672134.9, -11502.756, 0.21537028, 9.998181, 10.000349 
2.024579e+3, 1.4055003e+2, -1670545.3, -1607620.6, 23828.566, 0.026410026, 0.3346658, -1599615.5, -36965.816, 0.12892798, 9.999023, 9.999852 
2.0246373e+3, 1.505487e+2, -1696575.9, -1588201.5, 81673.5, -0.027682146, 0.2323132, -1544374.3, -79711.336, 0.05909158, 9.99826, 9.999676 
2.0246953e+3, 1.605479e+2, -1728539.6, -1586384.0, 18218.037, -0.105304554, 0.22141625, -1584086.4, -217414.66, 0.018083457, 9.997517, 9.999372 
2.0247526e+3, 1.705502e+2, -1501708.6, -1424478.8, -50801.027, -0.091965795, 0.5180867, -1399282.6, -130626.92, 0.0026487417, 9.9984045, 9.999377 
2.0248099e+3, 1.8055168e+2, -1259333.8, -1244767.6, -75984.695, -0.069960326, 0.75245124, -1175717.8, -5071.761, 0.000052423693, 9.999326, 9.999502 
2.0248671e+3, 1.9054833e+2, -1117598.6, -1084952.1, -73225.695, -0.08187644, 0.44442734, -1026252.4, 46420.414, 0.0, 9.999454, 9.999862 
2.0249242e+3, 2.0054524e+2, -1030821.6, -1024049.4, -109507.67, -0.08700525, 0.18435396, -917875.5, 56821.996, 0.0, 9.999516, 9.999579 
2.0249808e+3, 2.1054712e+2, -848966.6, -885606.8, -151456.47, -0.062521696, 0.4192329, -714726.25, 161956.97, 0.0, 10.0000925, 9.9995775 
2.0250374e+3, 2.2054873e+2, -712198.4, -838524.8, -116414.41, -0.031804778, 0.6705998, -642915.75, 135755.98, 0.0, 10.000656, 9.998959 
2.0250957e+3, 2.30547e+2, -594725.1, -751898.2, -78830.8, -0.03503024, 0.621481, -562000.7, 118688.53, 0.0, 10.000883, 9.998769 
2.025154e+3, 2.4054454e+2, -484427.06, -667364.6, -98550.695, -0.0472757, 0.53193444, -441438.5, 141273.23, 0.0, 10.001047, 9.998601 
2.0252112e+3, 2.5054193e+2, -343759.94, -534383.94, -144798.48, -0.07762331, 0.40725854, -265719.75, 219009.6, 0.0, 10.001289, 9.998716 
2.0252685e+3, 2.6053914e+2, -265437.1, -575375.5, -144081.39, -0.09274903, 0.3235181, -208805.5, 177943.77, 0.000000001074916, 10.001697, 9.997574 
2.025326e+3, 2.7053636e+2, -80171.7, -494908.75, -123076.06, -0.12931523, 0.33690575, -46398.316, 242379.8, 0.0000018159459, 10.00256, 9.997034 
2.0253839e+3, 2.8053334e+2, 97856.11, -327363.84, -6719.6836, -0.2181309, 0.3485032, 97962.27, 288772.56, 0.000018189116, 10.002958, 9.997328 
2.0254438e+3, 2.90531e+2, -82789.74, -325534.72, 127756.34, -0.34157902, 0.35105202, -27943.715, 64892.074, 0.00007216491, 10.000891, 9.997656 
2.0255046e+3, 3.0052894e+2, -148049.03, -292613.1, -6786.088, -0.19511339, 0.40202644, -147731.19, -147731.19, 0.0001790655, 9.999915, 9.998032 
2.0255572e+3, 3.105275e+2, 740850.25, 382951.3, -165392.97, -0.14775361, 0.38217816, 805576.3, 805576.3, 0.00032928202, 10.004948, 10.00025 
2.0344613e+3, 1.2049015e+2, -2065969.4, -1716397.1, 134262.98, -0.13143384, 0.18239653, -1670781.9, 88454.5, 0.3135409, 9.99672, 10.001817 
2.0345172e+3, 1.3049439e+2, -1825538.3, -1630789.0, -9529.16, -0.3377423, 0.5121947, -1630323.9, 30868.906, 0.22593072, 9.998155, 10.000845 
2.0345776e+3, 1.4049263e+2, -1644632.8, -1574112.6, 20910.541, -0.02341045, 0.29784322, -1568378.5, -5168.832, 0.13594478, 9.999109, 10.000041 
2.0346357e+3, 1.5049376e+2, -1705392.8, -1607234.0, 45522.637, -0.015023496, 0.44928116, -1589372.4, -124169.5, 0.06282382, 9.99826, 9.999546 
2.0346932e+3, 1.6049458e+2, -1775310.8, -1677681.8, 24055.152, -0.05856249, 0.62407637, -1672076.6, -304876.97, 0.019494196, 9.99749, 9.998759 
2.0347506e+3, 1.7049217e+2, -1570440.8, -1572315.3, -4041.8723, -0.12055179, 0.5428687, -1567228.9, -298001.66, 0.0029308582, 9.998419, 9.99836 
2.034808e+3, 1.8048947e+2, -1291723.4, -1320655.6, -58047.16, -0.1725404, 0.44678402, -1246366.9, -75110.75, 0.00006041413, 9.999364, 9.998963 
2.0348658e+3, 1.9048871e+2, -1128460.6, -1108391.3, -71069.195, -0.15147749, 0.4221008, -1046651.8, 26607.564, 0.0, 9.999458, 9.999699 
2.0349233e+3, 2.0048803e+2, -1057153.3, -1077852.3, -98426.84, -0.11523164, 0.4260072, -968533.25, 6728.679, 0.0, 9.99951, 9.999213 
2.0349808e+3, 2.1048725e+2, -888748.94, -962905.0, -122935.2, -0.047563344, 0.44273457, -797422.0, 79849.73, 0.0, 10.000068, 9.99906 
2.0350382e+3, 2.2048628e+2, -729881.06, -864871.25, -102179.875, -0.0092335595, 0.47610456, -674916.75, 104366.98, 0.0, 10.000611, 9.998799 
2.0350957e+3, 2.3048554e+2, -595548.56, -744768.0, -66004.68, -0.11305255, 0.5254262, -570542.9, 110750.086, 0.0, 10.000845, 9.998836 
2.0351535e+3, 2.4048442e+2, -518459.78, -725475.6, -91461.13, -0.19487597, 0.5746826, -483840.84, 99464.18, 0.0, 10.000992, 9.998229 
2.0352122e+3, 2.5048235e+2, -391344.16, -634100.4, -130015.74, -0.087571904, 0.56597066, -334855.06, 150465.84, 0.0, 10.001288, 9.998035 
2.035271e+3, 2.6047963e+2, -262789.88, -560903.06, -118906.125, -0.009521178, 0.5281109, -221172.58, 166170.02, 0.000000023664393, 10.00166, 9.997688 
2.0353283e+3, 2.704743e+2, -53779.15, -417640.6, -80666.11, -0.15506874, 0.23379698, -36697.79, 252693.14, 0.0000019634658, 10.002459, 9.997615 
2.0353863e+3, 2.804697e+2, 173718.66, -115820.49, -41989.766, -0.2670843, 0.013092096, 179685.17, 371117.78, 0.000016146072, 10.002737, 9.998884 
2.0354472e+3, 2.904736e+2, 125562.65, 101007.086, 41059.402, -0.08175327, 0.39800656, 156140.66, 249534.56, 0.00006226661, 10.000916, 10.000575 
2.0355071e+3, 3.0047682e+2, -123589.94, -250020.23, 66033.336, 0.07778448, 0.73167443, -95390.88, -95390.88, 0.00015333219, 9.999964, 9.998292 
2.0355597e+3, 3.104679e+2, 415403.34, -200778.03, 67876.64, -0.3924416, 0.17079525, 422791.8, 422791.8, 0.00028302532, 10.00457, 9.9964075 
2.044459e+3, 1.2043272e+2, -1951058.4, -1618304.8, 98246.375, -0.032896344, 0.32097238, -1591462.6, 168343.64, 0.3294151, 9.997168, 10.002549 
2.0445152e+3, 1.3043655e+2, -1891143.1, -1651693.6, -63244.5, -0.31532574, 0.5906825, -1636015.8, 25747.428, 0.23787552, 9.997659, 10.000937 
2.0445761e+3, 1.4043374e+2, -1761836.9, -1636499.0, -83046.914, -0.0073665357, 0.2661994, -1595128.6, -31339.7, 0.14372098, 9.998323, 9.999991 
2.0446344e+3, 1.5043575e+2, -1585294.0, -1575352.3, -96106.76, 0.0044657206, 0.5236924, -1484087.9, -18312.146, 0.06692591, 9.9992, 9.99931 
2.0446919e+3, 1.6043733e+2, -1434102.9, -1518178.5, -98908.25, -0.038618784, 0.79486954, -1368669.6, -902.82684, 0.021061258, 9.99985, 9.998721 
2.0447494e+3, 1.704337e+2, -1411398.3, -1480873.6, -46244.887, -0.121708125, 0.58479, -1388297.4, -118493.7, 0.003256253, 9.999446, 9.998493 
2.044807e+3, 1.8042997e+2, -1337992.4, -1340267.5, -21339.922, -0.1816146, 0.374401, -1317759.8, -145919.55, 0.00007088071, 9.999038, 9.998985 
2.0448653e+3, 1.904302e+2, -1128316.9, -1114234.8, -26111.988, -0.12057265, 0.45368323, -1094231.1, -20396.785, 0.0, 9.999494, 9.999639 
2.0449236e+3, 2.0043029e+2, -1004854.8, -1087894.6, -37004.676, -0.050734587, 0.5460084, -990757.75, -14927.42, 0.0, 10.00002, 9.998901 
2.0449808e+3, 2.1042788e+2, -867644.9, -1007769.9, -61131.21, -0.049402706, 0.4500328, -844724.7, 33130.1, 0.0, 10.000458, 9.998561 
2.0450382e+3, 2.2042546e+2, -722494.44, -898960.75, -47795.918, -0.066359214, 0.38012812, -710380.5, 69499.85, 0.0, 10.000822, 9.998465 
2.0450962e+3, 2.3042506e+2, -578577.6, -760221.2, -42463.85, -0.13051695, 0.48804504, -569140.9, 112745.9, 0.0, 10.00106, 9.998626 
2.0451547e+3, 2.4042442e+2, -480642.03, -734075.56, -66413.61, -0.1656963, 0.6065474, -464292.72, 119602.32, 0.0, 10.001361, 9.997992 
2.0452136e+3, 2.5042206e+2, -302956.2, -619225.44, -78342.81, -0.08993417, 0.5950797, -284613.75, 201301.63, 0.0, 10.0020075, 9.997792 
2.0452724e+3, 2.6041922e+2, -152478.34, -466967.94, -61842.805, -0.036466684, 0.54838914, -140754.33, 247185.39, 0.00000011200642, 10.00224, 9.998055 
2.0453297e+3, 2.7041528e+2, -295109.25, -436716.53, -36106.266, -0.12998776, 0.31823912, -286434.47, 3537.9873, 0.000002326167, 10.000388, 9.998473 
2.0453876e+3, 2.8041184e+2, -336678.4, -334061.13, 31737.512, -0.1854184, 0.14357448, -303605.28, -111604.414, 0.000014696717, 9.999103, 9.999138 
2.0454486e+3, 2.904142e+2, 219846.66, 127256.32, -43993.05, -0.03779645, 0.39161482, 237415.64, 331393.53, 0.000053728807, 10.001652, 10.000399 
2.045509e+3, 3.0041665e+2, 463280.94, 87014.77, -166730.03, 0.09873309, 0.64277935, 526529.94, 526529.94, 0.00013095436, 10.003765, 9.998778 
2.0455635e+3, 3.104098e+2, 26343.357, -274559.66, 8439.868, -0.2775398, 0.22215798, 26579.896, 26579.896, 0.00024437715, 10.001409, 9.99742 
2.0544563e+3, 1.2037679e+2, -1902666.1, -1563169.1, 75812.91, -0.010117514, 0.7068669, -1547008.6, 213358.64, 0.3476065, 9.997212, 10.003126 
2.0545134e+3, 1.3037805e+2, -1919368.8, -1699299.6, -39147.55, -0.23780222, 0.73397523, -1692543.1, -30197.117, 0.2513395, 9.997635, 10.00057 
2.054575e+3, 1.4037313e+2, -1789631.1, -1691845.8, -57318.902, 0.038910493, 0.23411922, -1665399.5, -101008.76, 0.15236652, 9.998311, 9.99962 
2.0546335e+3, 1.5037422e+2, -1607737.4, -1633016.0, -60777.965, 0.0014754195, 0.4424905, -1558298.5, -91912.39, 0.071473114, 9.999242, 9.998897 
2.0546912e+3, 1.6037562e+2, -1381052.4, -1428988.1, -99737.71, -0.08664858, 0.7095074, -1302443.1, 65935.2, 0.022826005, 9.999945, 9.999291 
2.0547488e+3, 1.7037465e+2, -1307926.1, -1278438.8, -67510.0, -0.123530746, 0.6455949, -1224081.3, 46305.016, 0.0036400491, 9.9994955, 9.999861 
2.0548064e+3, 1.803733e+2, -1289918.0, -1245043.0, -20579.223, -0.12850703, 0.55653787, -1237034.8, -64638.094, 0.00008593674, 9.999053, 9.999633 
2.0548657e+3, 1.9037275e+2, -1127011.3, -1113285.6, -228.18433, -0.011769915, 0.5444847, -1113281.9, -38883.875, 0.0, 9.999499, 9.999645 
2.0549248e+3, 2.0037182e+2, -1022271.1, -1125137.1, -19795.678, 0.07291385, 0.5380705, -1018593.1, -42188.9, 0.0, 10.000027, 9.998639 
2.054981e+3, 2.1036893e+2, -909052.9, -1087386.1, -43070.53, -0.087356575, 0.437717, -899195.5, -20761.775, 0.0, 10.000428, 9.998028 
2.0550373e+3, 2.2036603e+2, -769542.44, -980024.25, -38023.008, -0.23449026, 0.3753451, -762884.3, 17579.527, 0.0, 10.000751, 9.997941 
2.0550974e+3, 2.303654e+2, -617733.75, -835234.5, -29834.734, -0.11811233, 0.51046985, -613715.5, 68756.484, 0.0, 10.001032, 9.998124 
2.0551574e+3, 2.4036446e+2, -496452.75, -754074.8, -49024.906, -0.007988454, 0.6374573, -487438.8, 97043.86, 0.0, 10.001309, 9.997878 
2.0552154e+3, 2.50361e+2, -300139.25, -598886.5, -48247.86, -0.1091908, 0.504087, -292540.47, 193973.56, 0.0, 10.001947, 9.99796 
2.0552729e+3, 2.6035783e+2, -128881.17, -392026.13, -96176.11, -0.19736314, 0.39916614, -97477.7, 291064.44, 0.00000017468948, 10.002129, 9.998625 
2.0553303e+3, 2.703587e+2, -215250.75, -284209.06, -112858.234, -0.09204242, 0.5607085, -131722.31, 158806.48, 0.0000023499456, 10.000435, 9.999504 
2.0553882e+3, 2.8035882e+2, -387379.25, -452898.03, 51146.074, -0.042655338, 0.68235594, -359400.72, -166876.77, 0.000012296112, 9.999171, 9.998283 
2.0554484e+3, 2.9035315e+2, 6030.1836, -295354.2, 80112.66, -0.21657434, 0.34608608, 26001.914, 120586.164, 0.000044338212, 10.001556, 9.997541 
2.0555104e+3, 3.0034912e+2, 423494.3, 109327.55, -179605.14, -0.14473195, 0.17456836, 505017.72, 505017.72, 0.00011039118, 10.00334, 9.999124 
2.0555684e+3, 3.103521e+2, 333404.5, 363887.25, -40779.063, 0.0728052, 0.4304124, 392180.13, 392180.13, 0.00021361552, 10.0013895, 10.001827 
2.0644537e+3, 1.2031744e+2, -1933050.8, -1548865.4, 94291.414, 0.024975158, 0.73927176, -1526971.0, 233981.4, 0.36771804, 9.99681, 10.003555 
2.0645119e+3, 1.303188e+2, -1946218.8, -1767834.1, -16285.438, -0.13990684, 0.80402505, -1766359.5, -103427.25, 0.26616043, 9.997697, 10.000064 
2.064573e+3, 1.4031439e+2, -1794508.0, -1702411.5, -41169.195, 0.04260352, 0.39195153, -1686691.3, -121716.56, 0.1618756, 9.998322, 9.999538 
2.064632e+3, 1.5031448e+2, -1742248.1, -1667687.5, -10366.449, 0.017076496, 0.48068476, -1666273.1, -199295.9, 0.07651462, 9.998195, 9.999161 
2.0646904e+3, 1.6031493e+2, -1630845.8, -1526940.0, -16481.4, -0.045399662, 0.62580913, -1524388.5, -155412.7, 0.024829434, 9.9981165, 9.999498 
2.0647483e+3, 1.7031483e+2, -1371788.6, -1288476.6, -67310.06, -0.077816345, 0.6295152, -1250975.4, 19998.756, 0.0041003036, 9.998961, 10.000051 
2.0648062e+3, 1.8031444e+2, -1180775.4, -1184567.0, -90963.73, -0.08172033, 0.62087077, -1091687.6, 81287.0, 0.000108260756, 9.999774, 9.999699 
2.0648655e+3, 1.9031374e+2, -1059381.4, -1085743.6, -86328.266, -0.00048168574, 0.5941703, -985233.75, 89744.85, 0.0, 9.999982, 9.999601 
2.0649244e+3, 2.0031254e+2, -1014530.6, -1128982.9, -99014.75, 0.053088468, 0.57139224, -957394.4, 19593.475, 0.0, 10.000111, 9.998575 
2.0649807e+3, 2.1031006e+2, -901632.94, -1094250.4, -99178.64, -0.118866645, 0.52089554, -859696.4, 19317.76, 0.0, 10.0005245, 9.997936 
2.0650376e+3, 2.2030745e+2, -738939.8, -986048.25, -53005.797, -0.26073655, 0.499163, -728049.75, 52992.027, 0.0, 10.001049, 9.997757 
2.0650986e+3, 2.303059e+2, -489267.44, -800064.6, -25937.08, -0.10953067, 0.56512356, -487117.75, 195939.45, 0.0, 10.002035, 9.99788 
2.0651597e+3, 2.4030401e+2, -302379.06, -664853.3, -52042.332, 0.03138488, 0.6159046, -295055.06, 290020.34, 0.0, 10.0026655, 9.997834 
2.0652167e+3, 2.5030065e+2, -422823.94, -646383.44, -84892.9, -0.09794178, 0.4865529, -394241.63, 92864.93, 0.0, 10.001062, 9.998057 
2.0652737e+3, 2.6029786e+2, -466344.28, -550835.94, -120785.6, -0.19841528, 0.41358337, -380629.7, 8502.111, 0.00000012472299, 9.999795, 9.998658 
2.0653313e+3, 2.702989e+2, -11511.085, -179624.89, -188099.06, -0.10688759, 0.591516, 110458.27, 401575.34, 0.0000018192295, 10.001821, 9.999552 
2.0653889e+3, 2.8029886e+2, 206516.39, -192071.47, -81063.49, -0.07933799, 0.69824135, 222372.1, 415486.4, 0.000008845643, 10.003354, 9.998065 
2.0654492e+3, 2.9029304e+2, -209661.31, -457883.75, 45948.15, -0.19776991, 0.3930405, -201428.94, -106251.0, 0.000033785323, 10.0003395, 9.997006 
2.0655127e+3, 3.0029002e+2, -257007.2, -210476.81, -21818.662, 0.01521618, 0.35879853, -201846.5, -201846.5, 0.00009042026, 9.9985895, 9.999234 
2.0655704e+3, 3.1029087e+2, 780801.7, 654454.5, -37147.12, 0.0035803316, 0.34148556, 790913.9, 790913.9, 0.00018499592, 10.004111, 10.002528 
2.07445e+3, 1.20253764e+2, -1924791.8, -1536710.3, 113437.8, -0.022483593, 0.32813475, -1505984.6, 255583.61, 0.38886976, 9.996773, 10.003811 
2.0745103e+3, 1.3025865e+2, -1994004.5, -1864140.1, 18409.76, -0.05665766, 0.7861027, -1861580.8, -198058.31, 0.28190908, 9.997685, 9.999411 
2.0745705e+3, 1.4025788e+2, -1773439.0, -1667247.3, -34405.992, -0.046727452, 0.7796831, -1657074.4, -91537.05, 0.17213808, 9.99835, 9.99977 
2.0746301e+3, 1.5025665e+2, -1671138.5, -1520365.5, -16807.037, 0.018292828, 0.6541675, -1518514.6, -50967.14, 0.08207624, 9.998189, 10.000176 
2.0746894e+3, 1.6025522e+2, -1643219.9, -1542791.9, -256.98022, 0.056654178, 0.5407184, -1542791.3, -173232.64, 0.027111659, 9.9980755, 9.999409 
2.0747478e+3, 1.7025416e+2, -1450351.3, -1448795.5, -26413.908, -0.004136058, 0.5322501, -1423148.0, -151580.06, 0.0046569863, 9.998949, 9.998957 
2.074806e+3, 1.8025313e+2, -1213696.3, -1263825.8, -73424.37, -0.07429166, 0.55515856, -1161176.3, 12400.793, 0.00014131474, 9.999818, 9.999134 
2.0748642e+3, 1.9025289e+2, -1065101.3, -1101268.5, -80386.89, -0.11305195, 0.59776676, -1000789.06, 74789.14, 0.0000000002137382, 9.999993, 9.999493 
2.0749223e+3, 2.0025243e+2, -1005334.7, -1106792.0, -89347.09, -0.15217596, 0.6498485, -953319.5, 24262.62, 0.0, 10.000099, 9.998732 
2.0749807e+3, 2.1025124e+2, -885343.6, -1051081.5, -77704.89, -0.17779873, 0.70036536, -854611.06, 24985.71, 0.0, 10.000483, 9.998253 
2.0750393e+3, 2.202496e+2, -738446.4, -969199.75, -24856.48, -0.18371648, 0.7481388, -735799.25, 45816.043, 0.0, 10.000984, 9.997902 
2.0751005e+3, 2.3024641e+2, -501182.38, -808437.56, 19172.38, -0.12626702, 0.6501686, -499990.66, 183652.83, 0.0, 10.0019655, 9.997856 
2.0751612e+3, 2.4024287e+2, -319412.88, -673919.9, -72491.4, -0.08303346, 0.53738016, -305162.3, 280512.72, 0.0, 10.002549, 9.997829 
2.0752178e+3, 2.5024077e+2, -425434.34, -649387.4, -153823.92, -0.09140019, 0.5331126, -347146.47, 140548.6, 0.0, 10.001045, 9.998048 
2.0752744e+3, 2.6023906e+2, -503046.16, -622304.75, -105366.23, -0.095106795, 0.58470243, -441606.47, -51895.59, 0.000000021824269, 9.999781, 9.998172 
2.0753321e+3, 2.7023613e+2, -86383.81, -317088.88, -87866.91, -0.19233228, 0.44280198, -56730.145, 235004.53, 0.00000084431264, 10.001743, 9.998645 
2.0753896e+3, 2.8023234e+2, 189579.3, -173521.45, -120221.41, -0.32387498, 0.23558024, 225775.84, 419544.16, 0.000005133315, 10.003132, 9.998295 
2.0754509e+3, 2.9023314e+2, -110364.46, -269384.3, -87589.555, -0.0631682, 0.48590553, -71579.17, 24187.838, 0.000023668894, 10.000405, 9.998273 
2.0755154e+3, 3.0023745e+2, -248875.58, -196758.97, 56174.188, 0.44299394, 1.0852703, -160893.33, -160893.33, 0.00007118321, 9.998639, 9.999286 
2.0755693e+3, 3.1022906e+2, 529768.8, 244872.92, 128839.85, -0.49678358, 0.24618387, 579391.5, 579391.5, 0.00015313624, 10.003665, 9.999911 
2.0844465e+3, 1.20192476e+2, -1825782.1, -1508151.9, 64862.504, -0.038075298, 0.22516552, -1495417.1, 266750.06, 0.40993002, 9.997379, 10.0039 
2.0845088e+3, 1.3019824e+2, -2061959.8, -1915518.3, 9383.653, 0.052570287, 0.77744156, -1914919.4, -250803.64, 0.29801235, 9.997309, 9.999236 
2.0845686e+3, 1.4019828e+2, -1849886.9, -1703043.0, -23344.963, -0.034651734, 0.86581236, -1699421.0, -133295.88, 0.18298064, 9.997828, 9.999772 
2.0846283e+3, 1.5019695e+2, -1588637.4, -1465051.8, -69817.32, 0.0072986134, 0.71927977, -1433609.3, 34525.06, 0.088167645, 9.99868, 10.000341 
2.084688e+3, 1.6019534e+2, -1433541.3, -1433999.0, -85069.336, 0.042618163, 0.57430494, -1348700.5, 21444.744, 0.029713616, 9.999486, 9.999478 
2.0847471e+3, 1.70194e+2, -1289439.1, -1371175.3, -43690.15, -0.012797122, 0.5386411, -1270482.3, 1674.2589, 0.005333032, 10.000064, 9.998947 
2.084806e+3, 1.8019265e+2, -1140531.0, -1258264.8, -38010.19, -0.06932858, 0.5361981, -1129325.9, 44842.598, 0.00018960002, 10.000446, 9.998873 
2.0848642e+3, 1.901918e+2, -1063451.4, -1150971.6, -82133.555, -0.10887571, 0.56083137, -1014147.75, 62028.668, 0.000000020895914, 10.000227, 9.999037 
2.0849223e+3, 2.0019086e+2, -1033747.0, -1151679.0, -102120.13, -0.14294377, 0.60398096, -974791.4, 3394.8975, 0.0, 10.000038, 9.998453 
2.0849812e+3, 2.1018994e+2, -852088.8, -1046804.75, -113322.664, -0.15910074, 0.6997181, -800046.0, 80152.88, 0.0, 10.000762, 9.998147 
2.0850405e+3, 2.201887e+2, -680333.56, -919084.75, -94961.56, -0.15499106, 0.7903755, -647169.9, 135044.1, 0.0, 10.0012865, 9.998104 
2.0851018e+3, 2.3018563e+2, -753564.3, -879750.44, -45519.938, -0.08311753, 0.66391593, -738857.6, -54617.43, 0.0, 10.00001, 9.998313 
2.0851621e+3, 2.4018222e+2, -837008.6, -899460.94, -93025.28, -0.031103494, 0.525976, -770108.44, -183839.11, 0.0, 9.99889, 9.998045 
2.085218e+3, 2.5018048e+2, -516741.75, -690823.8, -170051.97, -0.11852847, 0.55231065, -412749.25, 75537.35, 0.0, 10.00041, 9.998064 
2.0852742e+3, 2.60179e+2, -219067.47, -518587.44, -106208.77, -0.18108492, 0.63077766, -185229.1, 205072.05, 0.0, 10.001867, 9.997879 
2.0853335e+3, 2.7017558e+2, -289984.47, -483771.94, -74668.98, -0.15110801, 0.49320018, -264551.38, 27780.219, 0.000000115745564, 10.000637, 9.998034 
2.0853926e+3, 2.8017125e+2, -317934.88, -429244.66, -95477.92, -0.15652964, 0.28192127, -263075.06, -68703.96, 0.0000020138657, 9.999678, 9.998207 
2.0854516e+3, 2.9017147e+2, 174760.61, -88630.84, -131483.48, -0.103350505, 0.45126158, 229160.75, 325533.28, 0.000014484927, 10.002181, 9.998657 
2.0855142e+3, 3.0017528e+2, 493376.9, 37275.957, -38316.652, 0.1943003, 1.0061438, 496573.44, 496573.44, 0.00005217082, 10.004235, 9.9982195 
2.0855725e+3, 3.1016847e+2, 22630.197, -128747.32, -78242.78, -0.3646641, 0.5099793, 55802.453, 55802.453, 0.00011918752, 10.000749, 9.998736 
2.0944433e+3, 1.2013468e+2, -1831623.0, -1534911.1, 11382.184, -0.097908534, 0.544499, -1534475.1, 228265.08, 0.42994058, 9.99741, 10.003662 
2.094507e+3, 1.3013758e+2, -2045030.6, -1873694.6, 25171.418, 0.1534593, 0.79121953, -1870073.3, -205361.17, 0.31401625, 9.99728, 9.999539 
2.0945671e+3, 1.4013496e+2, -1866471.8, -1736544.6, 1127.415, 0.056355335, 0.6000891, -1736534.9, -169791.67, 0.19429262, 9.997817, 9.999551 
2.0946264e+3, 1.5013503e+2, -1637013.9, -1570927.4, -36064.945, -0.04611545, 0.6520916, -1555057.0, -86315.65, 0.094824284, 9.998709, 9.999584 
2.0946856e+3, 1.601352e+2, -1406072.5, -1395053.6, -61752.99, -0.14368105, 0.7348588, -1338564.9, 32172.195, 0.032688897, 9.999561, 9.999713 
2.0947458e+3, 1.7013435e+2, -1203085.1, -1204955.8, -23605.79, -0.13976084, 0.66106296, -1180396.1, 92343.945, 0.0061590113, 10.000114, 10.0000725 
2.0948058e+3, 1.80133e+2, -1129592.0, -1242782.4, -35158.613, -0.10895333, 0.57380885, -1119560.3, 55188.332, 0.00026052183, 10.000479, 9.998961 
2.0948653e+3, 1.9013037e+2, -1124458.0, -1281539.6, -91840.47, -0.011880483, 0.48263386, -1082154.5, -5380.4136, 0.00000016154512, 10.00024, 9.998135 
2.0949243e+3, 2.0012757e+2, -1085061.5, -1254625.8, -94234.47, 0.05735916, 0.42677447, -1043083.5, -64280.938, 0.0, 10.000026, 9.99775 
2.0949827e+3, 2.1012609e+2, -895513.1, -1125556.0, -76882.63, -0.08270453, 0.520271, -872184.0, 8637.486, 0.0, 10.000714, 9.997628 
2.0950413e+3, 2.201247e+2, -674584.1, -890449.6, -109242.984, -0.20608328, 0.6284273, -628947.6, 153891.13, 0.0, 10.001215, 9.998335 
2.0951022e+3, 2.3012349e+2, -696172.2, -751263.56, -98908.5, -0.016532173, 0.6128491, -621045.3, 63802.566, 0.0, 9.999971, 9.999213 
2.0951626e+3, 2.4012198e+2, -813956.5, -840602.8, -86136.16, 0.13325338, 0.5876773, -740119.2, -153259.92, 0.0, 9.998845, 9.998469 
2.0952176e+3, 2.5011966e+2, -520626.2, -694049.25, -93683.22, -0.20104612, 0.54705113, -479684.13, 9198.146, 0.0, 10.000387, 9.998055 
2.095273e+3, 2.601174e+2, -244333.56, -546106.7, -107659.83, -0.48797134, 0.5500604, -209862.66, 181042.38, 0.0, 10.001764, 9.997738 
2.095335e+3, 2.701165e+2, -318634.56, -541457.1, -131485.84, -0.047632646, 0.6993694, -257706.05, 35207.84, 0.0, 10.000628, 9.9976425 
2.095397e+3, 2.8011474e+2, -349944.78, -479520.22, -67261.76, 0.31610635, 0.7726978, -321343.03, -126411.77, 0.00000039293647, 9.99962, 9.997884 
2.095452e+3, 2.9010862e+2, 125256.164, -169054.36, -5736.6606, -0.28350112, 0.3492735, 125367.945, 222357.33, 0.000007650347, 10.002078, 9.998159 
2.0955093e+3, 3.001038e+2, 295983.94, -277838.6, -66764.984, -0.7158682, 0.16133803, 303649.72, 303649.72, 0.000036311332, 10.003861, 9.996218 
2.095579e+3, 3.1010616e+2, -6933.4653, -131596.6, -176958.56, 0.21729583, 0.80857855, 118350.414, 118350.414, 0.00009098789, 10.000506, 9.998838 
2.1044405e+3, 1.20075e+2, -1915169.5, -1570030.9, 64668.707, -0.094661914, 0.6703618, -1558311.9, 205012.08, 0.44859928, 9.996922, 10.00357 
2.1045049e+3, 1.3007559e+2, -1832768.6, -1818129.0, 17219.215, 0.14833656, 0.7125225, -1806738.4, -141420.92, 0.3298663, 9.998942, 9.999116 
2.1045664e+3, 1.4007269e+2, -1578395.3, -1637562.6, -45387.863, 0.122524336, 0.5355754, -1553801.0, 13549.697, 0.20615475, 9.9999895, 9.9991865 
2.1046257e+3, 1.5007256e+2, -1441126.9, -1503265.8, -73532.08, -0.028579222, 0.5973609, -1392369.8, 76981.36, 0.10215144, 10.000215, 9.999334 
2.1046849e+3, 1.6007261e+2, -1336598.0, -1365035.0, -84630.69, -0.17644645, 0.6909346, -1264999.8, 106348.5, 0.036114734, 10.000059, 9.999686 
2.104745e+3, 1.7007233e+2, -1292418.9, -1218718.5, -117636.09, -0.16483337, 0.65284264, -1132295.9, 141050.6, 0.007176738, 9.99937, 10.000337 
2.1048054e+3, 1.800715e+2, -1357087.6, -1338232.8, -160117.1, -0.11248608, 0.5958636, -1187265.8, -11915.574, 0.0003661867, 9.998853, 9.999094 
2.1048655e+3, 1.9006865e+2, -1120748.0, -1279420.8, -154170.1, 0.004270394, 0.48303917, -1026698.44, 50679.273, 0.00000091193453, 10.000267, 9.998137 
2.1049254e+3, 2.0006564e+2, -835739.06, -1116323.6, -97028.42, 0.087629996, 0.40075675, -805454.56, 173953.19, 0.0, 10.001655, 9.997916 
2.1049833e+3, 2.1006407e+2, -815845.6, -1055698.5, -38334.227, -0.092513286, 0.46006954, -809867.9, 71558.2, 0.0, 10.001123, 9.9979105 
2.1050414e+3, 2.2006267e+2, -791856.5, -936923.0, -36931.375, -0.24712367, 0.5405916, -782995.6, 446.9422, 0.0, 10.000365, 9.998423 
2.1051021e+3, 2.3006174e+2, -627451.5, -728082.75, -102340.695, -0.036782503, 0.55914253, -563726.44, 121724.2, 0.0, 10.000489, 9.999118 
2.1051623e+3, 2.4006064e+2, -549421.1, -728776.5, -117743.34, 0.15068267, 0.58492005, -491093.47, 96366.7, 0.0, 10.0007305, 9.998327 
2.1052183e+3, 2.5005832e+2, -497228.88, -704932.7, -126485.72, -0.17086114, 0.5659122, -437423.06, 52061.13, 0.0, 10.000656, 9.997848 
2.1052743e+3, 2.6005572e+2, -417009.22, -629160.56, -170249.11, -0.44239312, 0.55106413, -322493.75, 69017.44, 0.0, 10.000574, 9.997744 
2.1053357e+3, 2.7005458e+2, -242859.05, -477081.1, -192793.27, -0.042971767, 0.6585666, -134394.73, 159128.53, 0.0, 10.001036, 9.997883 
2.1053973e+3, 2.800536e+2, -60144.176, -343804.66, -55203.12, 0.2970675, 0.7914043, -49779.8, 145753.34, 0.00000006547354, 10.001625, 9.997853 
2.1054536e+3, 2.9004884e+2, -5806.6357, -263280.56, 30547.127, -0.2620533, 0.5348072, -2232.1006, 95345.02, 0.000004735315, 10.001326, 9.9978695 
2.1055117e+3, 3.0004218e+2, -144363.48, -472837.2, -20468.223, -0.6797594, 0.17524607, -143092.97, -143092.97, 0.000028510507, 10.000725, 9.9964075 
2.1055794e+3, 3.1004298e+2, 117154.88, 54955.395, 3682.2207, 0.19656356, 0.6036068, 117372.11, 117372.11, 0.00007646736, 10.000792, 9.999987 
2.1144372e+3, 1.2001293e+2, -1950918.1, -1589139.3, 224044.3, -0.09749086, 0.5420782, -1482075.9, 281845.44, 0.46656317, 9.996881, 10.003726 
2.1145019e+3, 1.3001187e+2, -1906543.3, -1994848.4, 59333.63, -0.037963048, 0.5102167, -1876736.9, -210801.88, 0.34608045, 9.9990425, 9.997855 
2.1145664e+3, 1.4001144e+2, -1594041.8, -1712023.5, -20426.516, 0.100681975, 0.6910504, -1590605.3, -22658.227, 0.21890919, 10.00014, 9.9986 
2.1146268e+3, 1.500094e+2, -1408883.8, -1457962.6, -73452.945, 0.027954767, 0.5573631, -1355979.5, 113985.234, 0.110347085, 10.00032, 9.999609 
2.1146858e+3, 1.6000734e+2, -1344620.0, -1394098.5, -103834.41, -0.08233446, 0.42313144, -1262618.4, 109363.05, 0.040102176, 10.000118, 9.999457 
2.114745e+3, 1.700076e+2, -1340594.5, -1322776.1, -148200.05, -0.1081166, 0.49911162, -1183217.8, 90760.97, 0.008443992, 9.999382, 9.999617 
2.1148042e+3, 1.8000785e+2, -1348002.5, -1315541.0, -147158.67, -0.11298892, 0.59660524, -1183720.8, -7744.0654, 0.00052604213, 9.998837, 9.999256 
2.1148647e+3, 1.9000654e+2, -1052988.8, -1139910.5, -84473.85, -0.09168744, 0.5641253, -1001451.25, 76537.086, 0.0000034897541, 10.00027, 9.999094 
2.1149251e+3, 2.0000501e+2, -765316.25, -969125.0, -80962.05, -0.095904216, 0.5308896, -737069.3, 242933.13, 0.0, 10.001648, 9.998931 
2.1149829e+3, 2.1000382e+2, -746543.4, -905272.94, -66792.59, -0.22126806, 0.52425474, -722177.6, 159835.73, 0.0, 10.001094, 9.9989605 
2.115041e+3, 2.200024e+2, -805081.56, -946522.3, -49310.215, -0.32013535, 0.52448165, -789587.9, -5560.727, 0.0, 10.000289, 9.998393 
2.115101e+3, 2.3000024e+2, -708761.0, -888843.4, -87367.07, -0.16614826, 0.50525635, -673341.3, 12708.448, 0.0, 10.000452, 9.998035 
2.1151614e+3, 2.3999807e+2, -607606.0, -833708.94, -114921.664, -0.021326825, 0.5210248, -559450.7, 28622.455, 0.0, 10.000662, 9.99764 
2.1152197e+3, 2.4999632e+2, -530985.75, -770027.4, -125921.22, -0.07338549, 0.60319495, -476893.84, 13199.786, 0.0, 10.000631, 9.997414 
2.1152781e+3, 2.599938e+2, -421587.94, -618405.7, -162812.31, -0.122501336, 0.62952584, -329754.44, 62366.438, 0.0, 10.000495, 9.997852 
2.1153358e+3, 2.6999e+2, -198193.02, -376336.4, -163613.27, -0.1440994, 0.4131026, -100977.12, 193180.03, 0.0, 10.000997, 9.998596 
2.1153936e+3, 2.7998775e+2, -67136.87, -331579.34, -50118.2, -0.2155867, 0.37316322, -57956.94, 138220.31, 0.00000005479561, 10.001516, 9.997984 
2.115456e+3, 2.89991e+2, -39210.863, -319950.88, 23624.48, -0.1486068, 0.9227869, -37236.73, 60909.84, 0.0000044705935, 10.00126, 9.997514 
2.1155195e+3, 2.9998824e+2, -56813.316, -196522.5, -41563.813, 0.041968886, 0.90717274, -45383.133, -45209.59, 0.00002695633, 10.000362, 9.998455 
2.1155754e+3, 3.0997974e+2, 113125.625, 140453.3, 94147.61, -0.28917587, 0.09903696, 221923.44, 221923.44, 0.00007316576, 10.000385, 10.000779 
2.1244338e+3, 1.1994844e+2, -1504978.0, -1654834.9, -60382.445, -0.4100017, 0.45298204, -1483675.9, 280875.4, 0.48543465, 10.003316, 9.999514 
2.1245e+3, 1.299465e+2, -1769953.0, -1855141.0, -116584.86, -0.14358012, 0.3774284, -1688425.0, -21850.459, 0.3637423, 9.999651, 9.998524 
2.1245657e+3, 1.3994838e+2, -1625423.3, -1659720.3, -59490.684, 0.075579524, 0.7301869, -1580658.9, -12094.67, 0.23315269, 9.999635, 9.999204 
2.1246265e+3, 1.4994666e+2, -1470475.3, -1414029.4, -85744.47, 0.026126757, 0.563868, -1351982.5, 118594.445, 0.1197026, 9.999524, 10.0003395 
2.1246855e+3, 1.5994453e+2, -1428232.6, -1422766.4, -78828.36, -0.06000381, 0.36588323, -1346623.8, 25968.758, 0.044803485, 9.999478, 9.999563 
2.1247448e+3, 1.6994424e+2, -1240097.4, -1338175.9, -109720.234, -0.06747261, 0.42762077, -1168956.1, 105641.125, 0.01004214, 10.000362, 9.999033 
2.1248044e+3, 1.799441e+2, -1015113.94, -1162756.9, -95314.51, -0.05808037, 0.5297504, -968376.44, 208224.77, 0.0007722133, 10.00115, 9.999188 
2.1248648e+3, 1.8994378e+2, -985419.8, -1057059.5, -66232.34, -0.09395396, 0.56158936, -945941.6, 132662.48, 0.000010944595, 10.000518, 9.999539 
2.1249251e+3, 1.9994324e+2, -1019162.06, -1055770.9, -112914.92, -0.14387137, 0.58849525, -923077.56, 57531.055, 0.0, 9.999755, 9.999245 
2.1249834e+3, 2.0994204e+2, -881875.5, -950111.3, -180081.39, -0.22577743, 0.56138957, -732708.56, 149910.69, 0.0, 10.000084, 9.999135 
2.1250418e+3, 2.1994053e+2, -766447.5, -925014.44, -196593.23, -0.2714011, 0.53911006, -633752.75, 150880.94, 0.0, 10.000552, 9.99841 
2.1251015e+3, 2.2993839e+2, -681661.06, -889369.25, -179891.77, -0.16691853, 0.53344953, -577797.25, 108859.625, 0.0, 10.0007105, 9.9979 
2.1251614e+3, 2.3993622e+2, -584461.9, -803464.2, -143658.52, -0.06503245, 0.5540316, -513330.03, 75350.81, 0.0, 10.000743, 9.9978075 
2.1252201e+3, 2.4993457e+2, -519274.47, -714652.44, -106881.54, -0.05561061, 0.6119878, -472164.28, 18535.59, 0.0, 10.000496, 9.99786 
2.1252793e+3, 2.5993246e+2, -425002.22, -606713.9, -75352.04, -0.036696322, 0.6419767, -397821.16, -5098.3623, 0.0, 10.000409, 9.997974 
2.1253367e+3, 2.6992908e+2, -222074.84, -402637.3, -116038.57, -0.120062985, 0.47888184, -165333.45, 129422.62, 0.0, 10.0009, 9.998459 
2.1253943e+3, 2.7992678e+2, -113213.695, -333101.3, -55181.906, -0.25813922, 0.43395382, -100142.52, 96635.695, 0.000000117451826, 10.001104, 9.998176 
2.1254568e+3, 2.8992915e+2, -107012.73, -292731.47, 24706.256, -0.1456596, 0.8570946, -103782.234, -5027.414, 0.0000050467984, 10.000547, 9.998035 
2.125521e+3, 2.9992756e+2, -35799.137, -189423.38, -38589.324, 0.15289757, 0.91143435, -26650.582, -25880.943, 0.00002692745, 10.000471, 9.998477 
2.1255754e+3, 3.0992192e+2, -115089.8, -24390.809, -176520.48, -0.23915544, 0.428751, 112512.43, 112512.43, 0.00007081512, 9.999045, 10.000288 
2.134499e+3, 1.2987901e+2, -1598881.4, -1515650.0, -83134.85, -0.1943536, 0.34482083, -1464296.5, 202945.53, 0.38411817, 9.999701, 10.001468 
2.1345645e+3, 1.398831e+2, -1502771.1, -1415645.3, -53918.047, -0.0046663857, 0.64771193, -1389891.0, 179315.05, 0.24951555, 9.999651, 10.001222 
2.1346247e+3, 1.4988424e+2, -1388736.3, -1253524.6, -84195.16, -0.08095511, 0.61859727, -1213151.9, 258036.9, 0.13052814, 9.999524, 10.001595 
2.134684e+3, 1.5988438e+2, -1391799.9, -1355311.8, -61107.223, -0.16310005, 0.5344159, -1309783.3, 63397.402, 0.050404422, 9.999506, 10.000026 
2.1347451e+3, 1.6988231e+2, -1264197.8, -1405388.6, -65589.9, -0.07899387, 0.44346198, -1238430.5, 36771.055, 0.012084308, 10.000429, 9.998539 
2.1348062e+3, 1.7988013e+2, -1025822.6, -1205616.3, -92586.305, 0.010631283, 0.38889906, -986670.4, 190554.55, 0.001155736, 10.001236, 9.998854 
2.134866e+3, 1.8988018e+2, -990509.3, -1074982.9, -98936.695, -0.03175206, 0.47356677, -925170.94, 154055.42, 0.000030850606, 10.000545, 9.999405 
2.1349253e+3, 1.9988018e+2, -1052739.4, -1116759.1, -123402.44, -0.09503589, 0.574228, -957262.75, 23965.03, 0.0, 9.999716, 9.998847 
2.1349844e+3, 2.0987862e+2, -935818.06, -1054566.1, -155992.28, -0.12958357, 0.5707417, -828282.3, 54962.688, 0.0, 10.000047, 9.998439 
2.1350434e+3, 2.198769e+2, -775265.4, -924451.25, -183532.48, -0.14420462, 0.5814553, -651746.56, 133516.84, 0.0, 10.000473, 9.998451 
2.135103e+3, 2.2987604e+2, -638466.44, -787089.3, -170713.56, -0.07209811, 0.6442775, -526591.7, 160681.23, 0.0, 10.000655, 9.99863 
2.1351624e+3, 2.3987482e+2, -530453.94, -670347.1, -149097.72, -0.028431732, 0.6832297, -435710.94, 153574.44, 0.0, 10.000656, 9.99876 
2.13522e+3, 2.4987285e+2, -443082.25, -542945.44, -113899.43, -0.13837546, 0.59265125, -368650.47, 122654.64, 0.0, 10.000439, 9.999064 
2.1352778e+3, 2.598713e+2, -432489.03, -593929.94, -70295.63, -0.20695207, 0.5827712, -406170.88, -12849.829, 0.0, 10.000295, 9.998113 
2.1353383e+3, 2.698712e+2, -300140.3, -546970.3, -90697.62, -0.029581927, 0.8147837, -270397.5, 24928.838, 0.00000000014169585, 10.000828, 9.997501 
2.1353984e+3, 2.7986965e+2, -121879.24, -315427.28, -67931.76, 0.043725103, 0.9051549, -100416.49, 96928.805, 0.000000256191, 10.000965, 9.998355 
2.135456e+3, 2.898636e+2, -39329.055, -144995.83, 19079.19, -0.24553707, 0.3981474, -35989.652, 63409.4, 0.0000052967753, 10.000501, 9.999081 
2.1355164e+3, 2.9986018e+2, -184840.69, -418947.63, -49766.844, -0.3656424, 0.25562254, -174700.39, -173272.8, 0.000025183504, 10.000175, 9.997019 
2.1355769e+3, 3.09865e+2, -288140.66, -298267.6, -254636.06, -0.0027504645, 1.094251, -38517.707, -38517.707, 0.00006321881, 9.998727, 9.998546 
2.1444996e+3, 1.2981631e+2, -1528026.9, -1485903.1, 114873.445, -0.123079166, 0.36975178, -1390176.6, 277680.44, 0.40760165, 10.0005665, 10.001448 
2.144562e+3, 1.3982032e+2, -1641594.9, -1466316.8, 25157.799, -0.15277185, 0.66284055, -1462777.4, 107045.72, 0.26811564, 9.998503, 10.001331 
2.1446228e+3, 1.4982194e+2, -1375963.1, -1210942.6, -36326.082, -0.20377034, 0.64467674, -1203300.1, 268500.97, 0.14296411, 9.99944, 10.001998 
2.1446836e+3, 1.598226e+2, -1215705.3, -1241264.9, -73553.17, -0.19559965, 0.5773028, -1153829.9, 219957.53, 0.057087187, 10.000649, 10.000295 
2.1447451e+3, 1.6982064e+2, -1336414.9, -1423167.9, -69206.5, -0.08153038, 0.47828642, -1298114.9, -22308.602, 0.014719365, 9.999863, 9.998692 
2.1448064e+3, 1.7981844e+2, -1378875.4, -1392642.4, -48001.453, 0.026216691, 0.41359776, -1337266.4, -159437.6, 0.0017550356, 9.998898, 9.998693 
2.144866e+3, 1.8981801e+2, -1122238.4, -1199089.5, -74645.91, -0.022047563, 0.49739295, -1076708.4, 3127.8767, 0.00008036648, 9.999913, 9.998857 
2.1449256e+3, 1.9981751e+2, -887131.94, -1079059.6, -121657.836, -0.08266373, 0.59665185, -828145.2, 153699.44, 0.000000018813253, 10.001038, 9.998468 
2.1449846e+3, 2.098156e+2, -838409.4, -1032744.3, -139822.3, -0.1241985, 0.5876838, -765307.06, 118558.32, 0.0, 10.000828, 9.998209 
2.1450438e+3, 2.1981369e+2, -783752.75, -911276.06, -140565.36, -0.13884495, 0.58956975, -693163.6, 92722.22, 0.0, 10.00033, 9.998616 
2.1451035e+3, 2.2981325e+2, -715244.4, -758271.5, -141797.67, -0.045323122, 0.6479102, -593337.56, 94552.53, 0.0, 9.999839, 9.999226 
2.1451628e+3, 2.3981261e+2, -682115.44, -687532.9, -132446.98, 0.032376364, 0.6852346, -552349.5, 37546.383, 0.0, 9.999374, 9.99926 
2.14522e+3, 2.4981079e+2, -605242.94, -574574.44, -153624.36, -0.09241226, 0.5692453, -435520.9, 56392.21, 0.0, 9.999125, 9.999481 
2.1452776e+3, 2.5980946e+2, -594960.4, -637599.56, -121417.77, -0.18889141, 0.54407054, -493004.66, -99078.555, 0.0, 9.9990225, 9.998431 
2.1453384e+3, 2.6981032e+2, -418336.44, -583927.94, -72034.11, -0.044702463, 0.8513012, -391386.8, -95463.484, 0.00000000016893417, 9.999927, 9.997683 
2.1453989e+3, 2.7980956e+2, -121278.68, -298416.1, -18104.549, 0.04636811, 0.9992426, -119447.22, 78488.59, 0.0000002738674, 10.000875, 9.998527 
2.145457e+3, 2.8980258e+2, -972.4173, -88468.055, -9073.559, -0.18601125, 0.38711572, -41.36945, 99956.69, 0.0000047479944, 10.000608, 9.999412 
2.1455173e+3, 2.997995e+2, -130726.695, -372825.94, -43548.797, -0.26898816, 0.23401855, -123131.42, -121108.44, 0.00002151286, 10.000393, 9.997267 
2.1455769e+3, 3.098037e+2, 229713.64, 54000.61, -103617.734, -0.004270979, 0.9847267, 277707.78, 277707.78, 0.00005359743, 10.0018425, 9.999449 
2.1545017e+3, 1.2976e+2, -1699676.9, -1900157.0, 141869.2, 0.013687752, 0.49674532, -1626207.6, 42195.145, 0.43279883, 10.000674, 9.997749 
2.1545574e+3, 1.3976042e+2, -1794339.8, -1764099.4, -3786.8176, -0.46268675, 0.7674165, -1763632.4, -193221.25, 0.28823382, 9.998572, 9.998993 
2.1546203e+3, 1.4975984e+2, -1415001.8, -1299867.8, 18780.074, -0.3840382, 0.6423526, -1296881.9, 175531.33, 0.15688464, 9.999473, 10.001296 
2.154684e+3, 1.5975906e+2, -1207445.3, -1240586.5, -65548.25, -0.19952197, 0.49079028, -1156405.5, 218009.19, 0.06501248, 10.000732, 10.000267 
2.1547446e+3, 1.6975917e+2, -1274559.5, -1297640.5, -111720.73, -0.11089384, 0.5330131, -1173784.8, 102626.945, 0.018139776, 9.99988, 9.999549 
2.1548042e+3, 1.7975909e+2, -1382546.3, -1400193.9, -47278.125, -0.06239467, 0.6164304, -1343275.6, -164863.48, 0.0026903055, 9.99889, 9.99865 
2.154865e+3, 1.8975732e+2, -1189602.3, -1341544.4, -16764.93, -0.101102374, 0.640307, -1187774.5, -107340.88, 0.00019736934, 9.999923, 9.997874 
2.1549258e+3, 1.9975516e+2, -917224.06, -1144131.5, -103366.81, -0.15764831, 0.6573915, -877196.7, 105262.805, 0.0000007869328, 10.001046, 9.998018 
2.1549842e+3, 2.0975287e+2, -830203.9, -1011672.75, -154172.89, -0.23784691, 0.60841364, -742047.25, 142434.88, 0.0, 10.000805, 9.998366 
2.1550424e+3, 2.1975064e+2, -772711.8, -873322.25, -158811.23, -0.29408693, 0.559165, -656428.8, 130074.53, 0.0, 10.000268, 9.998904 
2.1551023e+3, 2.297499e+2, -693138.6, -700824.75, -155927.23, -0.11864657, 0.55082846, -541007.1, 147502.45, 0.0, 9.999792, 9.999641 
2.1551625e+3, 2.3974937e+2, -689106.7, -682558.06, -147019.86, 0.06915517, 0.5650439, -538776.06, 51737.867, 0.0, 9.999294, 9.9993305 
2.1552202e+3, 2.4974826e+2, -630341.3, -622164.06, -156894.94, 0.041732922, 0.5408855, -469304.5, 23220.635, 0.0, 9.999106, 9.999164 
2.1552779e+3, 2.5974694e+2, -571166.25, -577113.5, -106423.336, -0.051960494, 0.52522993, -467675.03, -73136.06, 0.0, 9.998983, 9.99886 
2.1553369e+3, 2.697465e+2, -344990.88, -425281.75, -24886.797, -0.18404356, 0.6099572, -337902.75, -41355.793, 0.0, 9.999904, 9.99878 
2.1553968e+3, 2.7974635e+2, -134857.47, -287021.25, -6738.5527, -0.27027205, 0.7434576, -134559.64, 63992.523, 0.000000100631844, 10.000721, 9.998671 
2.1554592e+3, 2.897454e+2, -62162.48, -186718.83, -14117.884, -0.04132216, 0.7665049, -60582.33, 39977.098, 0.0000031808088, 10.000476, 9.998805 
2.1555223e+3, 2.997433e+2, -84833.3, -156135.67, -26812.686, 0.1727397, 0.70284337, -75875.88, -73299.2, 0.000016571294, 9.999914, 9.998959 
2.1555755e+3, 3.0974066e+2, 287031.22, 254328.97, 40398.34, -0.36049187, 0.47606355, 314262.03, 314262.03, 0.000044980578, 10.0014715, 10.001023 
2.164502e+3, 1.2970114e+2, -1624640.3, -1889719.4, -101014.664, -0.03456617, 0.58779746, -1590534.4, 78445.27, 0.45757636, 10.001609, 9.997365 
2.1645564e+3, 1.3969985e+2, -1634780.0, -1748103.4, 28492.982, -0.46631375, 0.72198844, -1628019.4, -57017.33, 0.3088363, 9.999931, 9.998449 
2.1646199e+3, 1.4969859e+2, -1475292.0, -1416878.0, 112724.914, -0.35330248, 0.6079272, -1329637.8, 143375.14, 0.17204043, 9.9995, 10.000385 
2.1646844e+3, 1.5969741e+2, -1458466.8, -1402389.4, 15359.106, -0.1553235, 0.49391124, -1398458.3, -23437.596, 0.07433442, 9.999115, 9.999872 
2.1647441e+3, 1.6969764e+2, -1231149.0, -1262254.1, -93077.69, -0.140981, 0.54886335, -1152333.5, 124682.03, 0.022589553, 10.000113, 9.999682 
2.164803e+3, 1.7969763e+2, -1067064.4, -1250485.9, -60588.85, -0.15521023, 0.62788945, -1048857.5, 130156.305, 0.00413868, 10.001063, 9.9986315 
2.1648645e+3, 1.896953e+2, -1096589.4, -1325165.0, 13659.22, -0.15997414, 0.612151, -1095776.0, -14735.926, 0.00045452762, 10.000674, 9.997629 
2.1649261e+3, 1.996926e+2, -1058555.8, -1205625.8, -22922.99, -0.16359612, 0.59445274, -1055065.8, -71995.44, 0.000007502901, 10.00004, 9.998082 
2.1649843e+3, 2.0969103e+2, -873741.1, -987462.8, -63937.473, -0.25691316, 0.5857287, -845038.2, 40048.066, 0.0, 10.000312, 9.998769 
2.1650422e+3, 2.196896e+2, -721446.4, -842662.0, -63979.977, -0.33298978, 0.5817765, -693925.06, 93175.51, 0.0, 10.000598, 9.998954 
2.1651018e+3, 2.2968844e+2, -670692.7, -729031.75, -124223.445, -0.15728381, 0.55302745, -572260.0, 116852.19, 0.0, 10.000115, 9.999289 
2.1651617e+3, 2.3968746e+2, -640789.5, -658115.06, -137092.47, 0.053193737, 0.55050373, -512086.4, 79035.39, 0.0, 9.999613, 9.99935 
2.1652198e+3, 2.4968717e+2, -442381.84, -471642.16, -95326.59, 0.050447453, 0.5719326, -360569.25, 132554.47, 0.0, 10.000147, 9.999688 
2.1652779e+3, 2.596865e+2, -290271.63, -404314.7, -32.325542, -0.024897924, 0.568848, -290271.63, 104857.81, 0.0, 10.000748, 9.999197 
2.1653366e+3, 2.696849e+2, -261561.27, -374717.2, 21364.1, -0.19209795, 0.5209976, -257662.05, 39485.71, 0.0, 10.000435, 9.998872 
2.1653967e+3, 2.7968416e+2, -237443.77, -320347.6, -16939.766, -0.2733955, 0.58246154, -234116.03, -34958.176, 0.0000000029805467, 9.999942, 9.9988165 
2.1654592e+3, 2.896854e+2, -195243.8, -203381.14, -13957.331, -0.0022451773, 0.80874693, -184774.2, -83630.7, 0.0000013452404, 9.999382, 9.999205 
2.1655223e+3, 2.9968402e+2, -203843.64, -217656.66, 39508.61, 0.2689261, 0.77035826, -170642.42, -167488.14, 0.000010696579, 9.999078, 9.998959 
2.1655762e+3, 3.09679e+2, 144257.05, 106572.734, -105348.4, -0.38239217, 0.3540724, 232435.03, 232435.03, 0.000035608395, 10.000865, 10.000275 
2.1745002e+3, 1.2963897e+2, -1463541.0, -1503073.3, -148701.67, -0.3912597, 0.6319566, -1333297.5, 336299.28, 0.48078975, 10.00195, 10.000847 
2.1745594e+3, 1.3963844e+2, -1526571.8, -1525170.3, 11254.61, -0.16212331, 0.5103466, -1514594.6, 57001.938, 0.32934, 10.000038, 10.000084 
2.1746215e+3, 1.4963824e+2, -1544572.1, -1561981.6, 111450.695, -0.1181838, 0.5354055, -1441486.8, 32112.04, 0.18832743, 9.999509, 9.999278 
2.1746838e+3, 1.5963782e+2, -1511504.6, -1523399.3, 30387.848, -0.11887512, 0.59910524, -1486487.6, -110884.086, 0.0852701, 9.99915, 9.999028 
2.1747434e+3, 1.696361e+2, -1269772.9, -1356332.3, -39566.824, -0.20973349, 0.5249442, -1254412.5, 23205.012, 0.028395085, 10.000164, 9.999002 
2.1748027e+3, 1.7963387e+2, -1061023.4, -1263541.3, -50971.92, -0.29943514, 0.43995753, -1048917.9, 130718.19, 0.006367479, 10.001173, 9.998488 
2.1748646e+3, 1.8963166e+2, -1054080.9, -1248802.3, -11285.843, -0.2264709, 0.4006752, -1053429.0, 28229.072, 0.0009868387, 10.000721, 9.998131 
2.1749263e+3, 1.9962965e+2, -1019026.06, -1124702.0, -31499.617, -0.14374915, 0.39879963, -1010349.2, -26670.219, 0.000047582707, 10.000039, 9.998641 
2.1749851e+3, 2.0962997e+2, -834954.0, -899089.9, -44240.91, -0.21357574, 0.5173207, -812381.2, 73298.055, 0.00000000032497088, 10.000274, 9.999394 
2.1750432e+3, 2.1963036e+2, -748293.25, -876644.6, -68114.43, -0.29567313, 0.6538688, -718884.25, 68795.0, 0.0, 10.000506, 9.998763 
2.1751015e+3, 2.296286e+2, -756104.06, -893960.6, -142698.14, -0.1891746, 0.6479575, -666558.75, 23141.23, 0.0, 10.000063, 9.99818 
2.1751599e+3, 2.3962666e+2, -659363.2, -669811.8, -137997.89, -0.06495292, 0.634848, -526490.75, 65230.477, 0.0, 9.99951, 9.999312 
2.1752185e+3, 2.4962725e+2, -370397.84, -303130.84, -65167.637, -0.08958691, 0.6559178, -263429.25, 230282.3, 0.0, 10.000075, 10.0008745 
2.1752773e+3, 2.5962776e+2, -291672.44, -374432.75, -974.6912, -0.14724466, 0.6707116, -291660.97, 104041.21, 0.0, 10.000611, 9.999465 
2.1753378e+3, 2.6962516e+2, -334006.6, -502781.13, 8682.181, -0.12150448, 0.57602614, -333561.13, -35832.08, 0.0, 10.000341, 9.998035 
2.1753985e+3, 2.7962252e+2, -259156.84, -318470.94, -38247.55, -0.09034878, 0.5132514, -240415.39, -40658.766, 0.0, 9.999757, 9.99891 
2.1754575e+3, 2.8962252e+2, -126681.47, -66727.0, -32053.262, -0.11109222, 0.528668, -52817.49, 48934.645, 0.00000028754212, 9.999406, 10.000131 
2.1755186e+3, 2.9962093e+2, -330323.8, -430996.8, 55806.965, -0.026120886, 0.4542467, -305505.94, -301741.97, 0.0000061160813, 9.998917, 9.997545 
2.1755801e+3, 3.096187e+2, -153340.61, -385368.7, -27865.6, -0.086573906, 0.61378247, -150041.0, -150041.0, 0.00002746077, 10.000303, 9.997181 
2.1845599e+3, 1.3957739e+2, -1566869.1, -1481977.4, -98450.516, -0.0747892, 0.4372857, -1417212.4, 154978.28, 0.34983045, 9.999363, 10.000947 
2.1846227e+3, 1.4957763e+2, -1552538.1, -1592836.9, 69236.69, 0.07661851, 0.506421, -1500578.4, -26389.1, 0.2059314, 9.999551, 9.999026 
2.1846831e+3, 1.5957709e+2, -1280693.3, -1451909.5, 45807.4, -0.16683121, 0.5862507, -1269208.3, 106988.51, 0.09816949, 10.001023, 9.998619 
2.1847434e+3, 1.695748e+2, -1134388.9, -1352394.6, -13534.113, -0.2623471, 0.5156412, -1133551.9, 144665.72, 0.036017943, 10.001433, 9.998411 
2.1848038e+3, 1.7957214e+2, -1037812.7, -1261293.6, -42167.65, -0.31162378, 0.4327431, -1030121.0, 150120.83, 0.009796201, 10.001386, 9.998399 
2.1848647e+3, 1.8957011e+2, -1064243.3, -1197383.6, -42238.62, -0.23916343, 0.37967625, -1051973.8, 30286.688, 0.0020521113, 10.000418, 9.998624 
2.1849255e+3, 1.9956844e+2, -1110811.6, -1145375.4, -40545.1, -0.15249904, 0.3685105, -1084019.0, -99742.4, 0.00020967671, 9.999325, 9.9988365 
2.1849848e+3, 2.0956896e+2, -990297.4, -995744.5, -91248.18, -0.19382583, 0.5188671, -901732.1, -15455.416, 0.00000086887735, 9.999314, 9.99919 
2.1850434e+3, 2.195695e+2, -884347.6, -929039.9, -158951.47, -0.2412319, 0.68545824, -746179.25, 42098.07, 0.0, 9.999502, 9.998894 
2.1851015e+3, 2.2956796e+2, -734017.4, -815144.0, -152950.38, -0.15351191, 0.6589184, -616342.9, 73950.78, 0.0, 9.999924, 9.998787 
2.1851599e+3, 2.3956624e+2, -543858.4, -616826.2, -44986.69, -0.046696123, 0.61689997, -522420.94, 69889.55, 0.0, 10.000304, 9.999298 
2.1852183e+3, 2.495662e+2, -442800.34, -422286.5, -73230.14, -0.094855234, 0.63151187, -358598.47, 135709.63, 0.0, 9.999925, 10.00014 
2.1852769e+3, 2.5956622e+2, -490130.3, -480308.94, -120425.14, -0.15963668, 0.6575504, -364694.4, 31610.5, 0.0, 9.999294, 9.9993725 
2.1853378e+3, 2.6956418e+2, -492493.47, -512670.56, -66822.47, -0.05177305, 0.5799605, -435002.28, -136676.78, 0.0, 9.998971, 9.998627 
2.1853994e+3, 2.7956206e+2, -334869.34, -313647.9, -9743.154, 0.085995845, 0.5071266, -309853.2, -109506.71, 0.0, 9.999048, 9.999293 
2.1854578e+3, 2.895617e+2, 32776.723, 15970.803, -43391.65, -0.062037334, 0.48078454, 68571.555, 170917.55, 0.000000027227998, 10.00048, 10.000184 
2.1855168e+3, 2.9956025e+2, 24267.566, -249309.06, -10431.09, -0.16435182, 0.4130434, 24664.71, 29021.137, 0.0000044959556, 10.0012665, 9.997683 
2.1855809e+3, 3.095588e+2, -415010.44, -314171.0, 63482.965, 0.1254541, 0.61766624, -283521.4, -283521.4, 0.000025056414, 9.997637, 9.9989605 
2.1945558e+3, 1.3951682e+2, -1605147.5, -1519233.3, -208296.28, -0.39942884, 0.54360193, -1349510.6, 223273.08, 0.371045, 9.999332, 10.000853 
2.1946234e+3, 1.4951679e+2, -1521492.9, -1513096.4, 130617.195, 0.18125935, 0.5439033, -1386610.0, 88175.04, 0.22535217, 9.999541, 9.999671 
2.1946824e+3, 1.5951501e+2, -1268772.4, -1444366.6, 78586.52, -0.35760686, 0.45576712, -1238738.4, 138064.03, 0.113554515, 10.001129, 9.998631 
2.1947442e+3, 1.6951369e+2, -1165433.5, -1426568.4, -4298.9907, -0.3292105, 0.51759696, -1165362.8, 113454.54, 0.046104282, 10.001482, 9.997874 
2.1948059e+3, 1.7951237e+2, -1037450.9, -1268693.8, -58401.85, -0.22623532, 0.6116045, -1023538.2, 157293.88, 0.015073848, 10.001422, 9.998334 
2.1948652e+3, 1.8951076e+2, -1026319.44, -1120709.5, -81620.51, -0.2303317, 0.56580204, -979231.5, 103615.17, 0.004138987, 10.000431, 9.999143 
2.1949238e+3, 1.9950905e+2, -1128026.8, -1182016.9, -63405.254, -0.24777834, 0.5173392, -1086109.1, -101246.59, 0.00072646124, 9.999327, 9.998584 
2.1949837e+3, 2.0950791e+2, -1075609.8, -1162250.5, -80873.84, -0.23468846, 0.58791, -1027184.6, -140304.7, 0.000022642807, 9.999271, 9.998065 
2.1950433e+3, 2.1950686e+2, -874465.44, -884872.94, -148292.31, -0.2124196, 0.6750697, -731285.56, 57610.61, 0.000000000011542125, 9.9994, 9.999246 
2.1951023e+3, 2.2950637e+2, -586265.56, -502611.44, -133535.78, -0.085784696, 0.5847274, -404505.28, 286389.84, 0.0, 9.999894, 10.000948 
2.1951611e+3, 2.3950584e+2, -555856.7, -614635.4, -50962.69, 0.046645496, 0.49418417, -526416.4, 66476.8, 0.0, 10.0002, 9.999357 
2.1952188e+3, 2.4950403e+2, -621374.3, -783152.06, -90861.016, -0.009902715, 0.50685215, -580613.1, -85699.805, 0.0, 9.9998865, 9.997678 
2.1952763e+3, 2.595021e+2, -554718.3, -574251.8, -136987.72, -0.13285103, 0.54185027, -427149.63, -30213.639, 0.0, 9.99914, 9.998791 
2.1953371e+3, 2.6950178e+2, -380347.0, -266865.88, -68629.63, -0.024861755, 0.5247192, -234558.61, 64379.867, 0.0, 9.998931, 10.000323 
2.1953994e+3, 2.7950194e+2, -297992.47, -227854.97, 15950.488, 0.18123049, 0.537204, -224397.94, -23463.445, 0.0, 9.999017, 9.999894 
2.1954595e+3, 2.8950244e+2, -47030.582, -120272.37, 29370.855, 0.07752613, 0.6379844, -36707.496, 66220.6, 0.000000020729713, 10.000349, 9.999312 
2.1955167e+3, 2.9950088e+2, 55999.1, -75549.67, -61726.453, -0.34366274, 0.60392374, 80426.85, 85367.336, 0.0000055230016, 10.000846, 9.999051 
2.1955791e+3, 3.0949625e+2, -132204.53, 280797.7, 2993.0103, 0.20158662, 0.13875368, 280819.38, 280819.38, 0.000029811183, 9.997631, 10.003037 
2.2045547e+3, 1.3945551e+2, -1588763.9, -1647029.4, -165068.11, -0.4825845, 0.41501006, -1450277.4, 123102.9, 0.39437363, 10.000164, 9.999269 
2.2046228e+3, 1.4945681e+2, -1301715.3, -1396450.9, 190242.81, 0.116574295, 0.58991414, -1153032.0, 322338.38, 0.24751917, 10.001359, 9.999784 
2.2046834e+3, 1.5945423e+2, -1195183.6, -1406647.1, 125824.71, -0.37185994, 0.40038756, -1136565.0, 240830.33, 0.13222682, 10.001707, 9.998653 
2.2047454e+3, 1.6945294e+2, -1185183.8, -1466122.0, 32005.904, -0.33770177, 0.48505569, -1181583.6, 97827.05, 0.059555795, 10.001425, 9.997659 
2.2048067e+3, 1.7945184e+2, -1125513.5, -1324596.8, -3923.811, -0.2508466, 0.6170352, -1125436.3, 55988.277, 0.023171267, 10.000857, 9.998227 
2.2048652e+3, 1.8945074e+2, -1007302.5, -1126133.8, -78780.3, -0.25121313, 0.6329512, -968044.2, 115392.266, 0.008108057, 10.000621, 9.999023 
2.2049236e+3, 1.9944942e+2, -976853.75, -1107037.8, -82604.4, -0.24435252, 0.6323524, -936777.06, 48673.453, 0.0021629941, 10.000346, 9.998615 
2.204983e+3, 2.0944746e+2, -1001576.44, -1096339.0, -16572.41, -0.22252235, 0.6020078, -998761.8, -111288.82, 0.00023583506, 9.999633, 9.998351 
2.2050425e+3, 2.1944557e+2, -933474.5, -907633.3, 25562.645, -0.1845082, 0.58015686, -891911.44, -102417.125, 0.0000019906881, 9.998982, 9.999284 
2.2051023e+3, 2.2944552e+2, -587348.5, -536060.3, -80057.89, -0.062587455, 0.5505114, -477639.66, 213850.13, 0.0, 10.000038, 10.000648 
2.2051619e+3, 2.394452e+2, -424321.6, -563772.2, -164725.94, 0.077950954, 0.5143668, -315171.94, 278315.2, 0.0, 10.001151, 9.999252 
2.205219e+3, 2.4944304e+2, -563110.25, -720802.06, -124390.875, 0.025972815, 0.4762674, -494681.7, 829.275, 0.0, 10.000181, 9.99794 
2.2052756e+3, 2.594412e+2, -566674.3, -570036.75, 7707.936, -0.08230107, 0.49518076, -560466.4, -162933.73, 0.0, 9.999008, 9.99889 
2.205336e+3, 2.6944157e+2, -284102.25, -214701.44, 36940.848, -0.053144984, 0.5471414, -198719.06, 100807.484, 0.0, 9.9995575, 10.000388 
2.205398e+3, 2.7944174e+2, -145601.14, -160167.69, 27863.082, 0.0866452, 0.5454019, -124085.16, 77436.61, 0.0, 10.000092, 9.99984 
2.2054602e+3, 2.894406e+2, -227788.88, -223702.0, 27729.959, 0.19556901, 0.5112477, -197940.28, -94407.66, 0.00000007580395, 9.999181, 9.999166 
2.2055198e+3, 2.994409e+2, -292371.25, -271440.9, -28977.465, 0.046449106, 0.6579359, -251096.78, -245567.75, 0.0000083740215, 9.998536, 9.998839 
2.2055781e+3, 3.0943587e+2, 536595.6, 507933.13, -176231.17, 0.079657465, 0.22692244, 699077.3, 699077.3, 0.000042885644, 10.002615, 10.002205 
2.2145584e+3, 1.3939427e+2, -1744164.4, -2027486.4, -138201.86, -0.13691822, 0.12784839, -1687917.3, -113945.58, 0.4221777, 10.00017, 9.996416 
2.2146212e+3, 1.4939754e+2, -1333564.9, -1464253.5, 207847.9, -0.18896078, 0.6303071, -1181031.6, 294915.53, 0.27423543, 10.001434, 9.999283 
2.2146863e+3, 1.593946e+2, -1190156.6, -1395132.4, 123010.93, -0.24557015, 0.43576586, -1132533.8, 245442.75, 0.15564767, 10.001748, 9.998727 
2.2147468e+3, 1.693926e+2, -1167255.3, -1422311.9, 18185.217, -0.31492728, 0.4238289, -1165965.3, 114032.11, 0.07778218, 10.001422, 9.997962 
2.2148055e+3, 1.7939055e+2, -1133697.3, -1352788.3, -18926.67, -0.44290328, 0.44425088, -1132074.3, 49944.91, 0.035576556, 10.000902, 9.998015 
2.214865e+3, 1.8938994e+2, -1066395.0, -1252108.1, -81944.62, -0.33977032, 0.5773017, -1035407.9, 48623.01, 0.0154146915, 10.000635, 9.998151 
2.2149242e+3, 1.9938937e+2, -954811.4, -1065851.5, -101177.56, -0.1943433, 0.7132978, -894921.9, 91120.23, 0.005714695, 10.000363, 9.998892 
2.214983e+3, 2.0938754e+2, -879082.56, -839302.0, -44781.62, -0.19242717, 0.5604133, -810192.1, 77864.734, 0.0013616167, 9.999618, 10.000124 
2.215041e+3, 2.1938571e+2, -963577.44, -953486.94, 27992.658, -0.2138004, 0.41743645, -930088.5, -140017.8, 0.00013056793, 9.998908, 9.999006 
2.2151016e+3, 2.293852e+2, -783607.94, -933772.2, -21148.535, -0.115046866, 0.5445605, -780686.3, -88607.36, 0.0000045921656, 9.999988, 9.997943 
2.215162e+3, 2.3938426e+2, -478593.4, -631245.6, -158723.2, -0.0072812918, 0.6657314, -378798.16, 215294.0, 0.000000030624218, 10.00097, 9.998869 
2.2152187e+3, 2.4938293e+2, -393281.7, -351914.16, -174238.25, -0.020715566, 0.5328008, -197136.28, 298967.22, 0.0, 10.000112, 10.000505 
2.2152749e+3, 2.5938267e+2, -521819.06, -459326.47, -19960.156, -0.06662136, 0.49661046, -453495.28, -55392.203, 0.0, 9.998945, 9.999675 
2.2153342e+3, 2.693833e+2, -388949.06, -412555.8, 68511.0, -0.16578344, 0.64326686, -331232.1, -31138.945, 0.0, 9.999483, 9.999058 
2.2153945e+3, 2.7938133e+2, -232726.3, -284869.03, 22787.893, -0.24368012, 0.5530378, -224171.03, -22061.871, 0.0, 9.999872, 9.999076 
2.2154596e+3, 2.8937614e+2, -218450.16, -204902.5, -8888.947, 0.23698093, 0.122983, -200500.55, -96339.77, 0.00000027397763, 9.999208, 9.999269 
2.2155261e+3, 2.9937974e+2, -369795.13, -449530.28, 17041.459, 0.80666995, 0.60479915, -366305.63, -360178.44, 0.000015050563, 9.998637, 9.997553 
2.215575e+3, 3.0937725e+2, 64984.633, -350160.5, 90319.1, -0.5001549, 0.74832, 83783.25, 83783.25, 0.00007034586, 10.002093, 9.996561 
2.2245647e+3, 1.393353e+2, -1367969.0, -1764904.1, -35779.16, 0.3006546, 0.18666732, -1364769.8, 209772.55, 0.45833313, 10.003956, 9.996384 
2.224622e+3, 1.4933667e+2, -1321574.3, -1551462.1, 156073.48, -0.23579565, 0.5489806, -1242685.8, 233855.16, 0.30885017, 10.002086, 9.9982395 
2.2246867e+3, 1.593336e+2, -1314043.9, -1474062.4, 48149.184, -0.31083244, 0.4343544, -1300673.1, 77901.45, 0.18666483, 10.000853, 9.998557 
2.2247475e+3, 1.693319e+2, -1215056.6, -1314699.3, -35736.12, -0.33940706, 0.37676013, -1203565.4, 77024.94, 0.103338934, 10.000554, 9.99911 
2.2248064e+3, 1.7933038e+2, -1180736.9, -1316964.5, -8120.2686, -0.3852925, 0.34844682, -1180254.6, 2349.364, 0.054786276, 10.000313, 9.99855 
2.2248654e+3, 1.8932989e+2, -1154678.0, -1316741.3, -19571.697, -0.30138573, 0.49322453, -1152347.9, -67732.99, 0.028543482, 10.000102, 9.997965 
2.2249243e+3, 1.9932936e+2, -1035566.1, -1129240.4, 2713.9216, -0.19371729, 0.64722866, -1035487.56, -48860.7, 0.013685946, 9.999917, 9.998665 
2.224982e+3, 2.0932762e+2, -848458.75, -863510.4, -78428.18, -0.2290558, 0.5347863, -777196.1, 111445.43, 0.005262215, 10.0, 9.999775 
2.2250398e+3, 2.193258e+2, -797060.94, -887839.06, -111526.38, -0.27278084, 0.4225905, -722041.1, 68615.47, 0.001420654, 10.000099, 9.99889 
2.2251004e+3, 2.2932532e+2, -862747.06, -940594.2, 5523.5625, -0.17491138, 0.53986186, -862357.1, -169692.16, 0.0002619265, 9.999298, 9.998236 
2.2251612e+3, 2.3932451e+2, -842419.3, -811172.9, 47455.277, -0.054902125, 0.65198773, -776835.25, -182157.77, 0.000035642544, 9.998477, 9.998841 
2.2252178e+3, 2.4932323e+2, -479505.2, -434480.9, -107651.17, -0.07510697, 0.5473847, -347013.2, 149676.22, 0.0000011567587, 9.999669, 10.000167 
2.2252741e+3, 2.5932282e+2, -221880.47, -309773.5, -121219.445, -0.1092844, 0.52519935, -136887.27, 261804.06, 0.0, 10.000975, 9.999723 
2.2253345e+3, 2.6932353e+2, -199701.52, -247625.38, 22705.904, -0.120114274, 0.6346213, -190652.36, 110026.55, 0.0, 10.000477, 9.999706 
2.2253953e+3, 2.7932197e+2, -309483.1, -344861.22, 102591.836, -0.1061771, 0.53080195, -223066.5, -20377.467, 0.0, 9.999437, 9.99888 
2.2254589e+3, 2.8931624e+2, -21229.201, -269947.16, 37909.848, 0.15581572, 0.16354519, -15579.288, 89167.836, 0.00000073017384, 10.001243, 9.997848 
2.2255246e+3, 2.993189e+2, 314269.5, -122581.086, -13354.332, 0.572662, 0.6393535, 314677.34, 321401.66, 0.00002755439, 10.0033455, 9.997532 
2.2255778e+3, 3.0931446e+2, -262802.4, -440561.5, 184688.95, -0.25669497, 0.52026856, -146719.55, -146719.55, 0.000118261974, 9.999552, 9.997157 
2.2346264e+3, 1.4927419e+2, -1408890.1, -1747416.1, 112934.11, -0.000712536, 0.37081605, -1374673.3, 102478.29, 0.35698506, 10.00196, 9.996834 
2.2346841e+3, 1.592709e+2, -1354427.4, -1563140.0, 14749.142, -0.65108055, 0.3733156, -1353390.1, 25803.064, 0.23053116, 10.000796, 9.997966 
2.2347468e+3, 1.6927058e+2, -1111148.9, -1076976.8, -36920.105, -0.45235133, 0.33006614, -1053380.8, 227811.81, 0.14104874, 10.000484, 10.001003 
2.2348094e+3, 1.7927109e+2, -1097901.8, -1128509.4, -14417.312, -0.110060625, 0.3197069, -1092180.3, 91001.414, 0.08532412, 10.000289, 9.999889 
2.2348669e+3, 1.892705e+2, -1111676.9, -1224585.0, -23758.234, -0.15546028, 0.37294236, -1106881.4, -21691.82, 0.05187056, 10.000087, 9.998606 
2.2349234e+3, 1.9926949e+2, -1089206.6, -1234693.6, 2438.2825, -0.28853965, 0.44441143, -1089165.8, -101962.22, 0.030293982, 9.999891, 9.997954 
2.2349808e+3, 2.0926759e+2, -1026709.7, -1229726.8, -66202.914, -0.36338896, 0.5146436, -1007029.06, -117800.86, 0.015773455, 9.999978, 9.997273 
2.2350383e+3, 2.1926562e+2, -824776.94, -911190.7, -123351.24, -0.41646367, 0.5911382, -737284.3, 53968.813, 0.0069356123, 9.999966, 9.998786 
2.2350986e+3, 2.292657e+2, -648509.9, -482959.72, -30197.693, -0.28055248, 0.5353694, -477623.4, 215626.13, 0.002541045, 9.999244, 10.001403 
2.2351587e+3, 2.3926567e+2, -832678.3, -759384.56, 41661.28, -0.12308842, 0.4769465, -740545.8, -145299.8, 0.00075579167, 9.998355, 9.9992485 
2.2352163e+3, 2.4926391e+2, -701957.7, -869301.25, -44839.81, -0.18143539, 0.51910317, -690700.2, -193431.52, 0.00014769337, 9.9995575, 9.99723 
2.2352734e+3, 2.5926194e+2, -319248.63, -447164.47, -105541.984, -0.27590993, 0.59157246, -259797.78, 139496.13, 0.000007045108, 10.000718, 9.998892 
2.2353362e+3, 2.6926225e+2, -68772.48, 58196.98, -12031.767, 0.015581428, 0.5286376, 59327.066, 360610.22, 0.00000000065814787, 10.000346, 10.001859 
2.2353995e+3, 2.79263e+2, -309265.28, -310266.25, 86424.12, 0.36056915, 0.47201884, -223340.2, -20073.494, 0.0, 9.999312, 9.999164 
2.2354577e+3, 2.8926057e+2, -250677.63, -692116.75, 136290.28, -0.06422432, 0.5980962, -211989.84, -106695.0, 0.0000012574419, 10.001033, 9.995036 
2.2355162e+3, 2.9925793e+2, 304671.22, -52984.87, -13125.596, -0.6048585, 0.7496049, 305152.25, 312477.66, 0.000044073433, 10.002992, 9.998163 
2.2355866e+3, 3.092509e+2, 28721.031, 237858.67, -87780.64, 0.691565, -0.0073178126, 269818.53, 269818.53, 0.00018419352, 9.999302, 10.001918 
2.2446263e+3, 1.492149e+2, -1770693.8, -1784796.4, 119171.875, -0.0677572, 0.56064856, -1658364.8, -180634.48, 0.42759266, 9.998463, 9.998178 
2.2446856e+3, 1.5921113e+2, -1321215.8, -1449834.6, 168128.95, -0.5698372, 0.37141174, -1205516.8, 174261.39, 0.29616648, 10.000873, 9.9988785 
2.2447471e+3, 1.692114e+2, -1106743.9, -1096309.1, 26805.03, -0.4576115, 0.37657723, -1074218.5, 207554.05, 0.19952731, 10.000703, 10.000847 
2.2448081e+3, 1.7921248e+2, -1134735.1, -1141919.0, -63998.484, -0.23032856, 0.43149155, -1074227.9, 109528.69, 0.13536815, 9.999996, 9.999962 
2.2448662e+3, 1.8921132e+2, -1045477.56, -1147845.1, -116552.78, -0.22749375, 0.399194, -969365.1, 116404.3, 0.09319166, 10.000392, 9.999022 
2.2449236e+3, 1.9920973e+2, -923054.9, -1129023.5, -96672.09, -0.27192387, 0.374535, -884790.25, 102997.98, 0.06306426, 10.000939, 9.998203 
2.2449808e+3, 2.0920816e+2, -1021274.6, -1228825.1, -43433.402, -0.32702857, 0.47740534, -1012552.0, -122742.45, 0.0400799, 10.000009, 9.997278 
2.2450382e+3, 2.1920662e+2, -961685.06, -989883.6, 65765.25, -0.38382292, 0.5975708, -908524.7, -116694.56, 0.023131557, 9.999048, 9.998705 
2.2450975e+3, 2.2920656e+2, -723607.8, -549204.4, -25407.008, -0.27058917, 0.5430919, -545578.5, 148250.2, 0.011994159, 9.998833, 10.0011635 
2.2451575e+3, 2.3920631e+2, -753153.06, -746975.1, -126153.96, -0.09714751, 0.49641278, -623872.3, -28044.11, 0.0054928027, 9.998991, 9.999036 
2.2452165e+3, 2.4920471e+2, -697268.44, -844140.6, -49112.047, -0.10645025, 0.55036765, -682359.44, -184511.25, 0.002050329, 9.9994755, 9.997453 
2.2452739e+3, 2.592025e+2, -545109.56, -594197.5, 39644.664, -0.18649817, 0.59138083, -523026.22, -123151.67, 0.0004876709, 9.999322, 9.998563 
2.2453351e+3, 2.6920176e+2, -289453.22, -160594.27, -29303.535, -0.035109386, 0.5010038, -154243.42, 147633.63, 0.000047167257, 9.9993105, 10.000864 
2.2453974e+3, 2.7920243e+2, -276693.03, -267143.75, -67904.62, 0.25599992, 0.50652796, -203846.13, 17.796658, 0.00000034188096, 9.999426, 9.999403 
2.2454602e+3, 2.892014e+2, -174442.05, -474242.28, 206310.77, 0.110865735, 0.66421014, -69324.164, 36549.73, 0.0000013302117, 10.00077, 9.996662 
2.2455205e+3, 2.9919747e+2, 25344.225, -150538.4, 231690.38, -0.32799384, 0.5270936, 185221.61, 193134.5, 0.0000584347, 10.00088, 9.998523 
2.2455867e+3, 3.091937e+2, 278064.56, 261095.53, -219121.53, 0.6384727, 0.20300262, 488865.78, 488865.78, 0.00025944764, 10.001377, 10.001083 
2.2546914e+3, 1.5915479e+2, -1279344.6, -1258902.1, 159458.92, -0.08394648, 0.45991802, -1109337.1, 270986.6, 0.39765337, 10.000412, 10.000899 
2.2547488e+3, 1.691545e+2, -1251774.3, -1405672.8, -6292.8013, -0.37319463, 0.5142574, -1251517.4, 30810.996, 0.29298013, 10.000647, 9.998441 
2.2548024e+3, 1.7915459e+2, -1255270.1, -1363254.9, -94168.76, -0.8255489, 0.69477403, -1200713.3, -16384.729, 0.21888196, 9.999827, 9.998465 
2.2548631e+3, 1.8915215e+2, -1055805.0, -1147000.1, -93657.96, -0.57934004, 0.5709851, -997234.7, 89122.21, 0.16615056, 10.000321, 9.999069 
2.2549252e+3, 1.9914979e+2, -870562.8, -982788.5, -94548.02, -0.21305753, 0.42982894, -816730.3, 171654.11, 0.12546477, 10.000868, 9.99927 
2.2549824e+3, 2.0914906e+2, -855360.25, -874262.25, -81988.79, -0.1689963, 0.41231737, -782279.56, 108109.03, 0.0914258, 9.999991, 9.99975 
2.2550386e+3, 2.1914859e+2, -971411.75, -985802.25, 42180.715, -0.23387031, 0.43847048, -935817.0, -143427.42, 0.062582165, 9.998948, 9.998779 
2.2550972e+3, 2.2914779e+2, -970069.1, -1054955.8, -19799.889, -0.1766122, 0.5521387, -965677.94, -271274.8, 0.039919913, 9.9988, 9.9977 
2.255157e+3, 2.3914652e+2, -858478.6, -907356.2, -116415.5, -0.04570331, 0.70864445, -763964.4, -167541.83, 0.023601582, 9.998758, 9.998038 
2.2552177e+3, 2.4914564e+2, -498383.44, -406058.6, -35208.742, 0.092397526, 0.6443146, -394163.94, 104263.94, 0.012405956, 9.99938, 10.000505 
2.2552758e+3, 2.5914407e+2, -566830.6, -595259.25, 2723.6199, 0.0788364, 0.5194442, -566572.06, -166133.63, 0.005154125, 9.9991455, 9.998635 
2.2553317e+3, 2.6914194e+2, -580568.9, -715431.5, -33477.273, -0.28733552, 0.54207194, -572716.0, -270254.84, 0.0013586987, 9.999106, 9.997147 
2.2553901e+3, 2.7914068e+2, -339385.44, -304000.6, -49935.88, -0.41469324, 0.64808434, -268715.53, -64239.742, 0.00015517221, 9.999061, 9.999307 
2.2554654e+3, 2.8913924e+2, 139684.11, 257930.31, 241159.02, 0.56544393, 0.41490325, 447107.88, 553588.7, 0.0000026982873, 10.000492, 10.001792 
2.2555351e+3, 2.9913762e+2, 16685.139, -121231.68, 192402.5, 1.026153, 0.08354969, 152113.58, 160601.53, 0.000065484004, 10.0007105, 9.998784 
2.2555767e+3, 3.091395e+2, -133224.6, -598502.1, 71718.4, -0.48196664, 0.7970992, -122420.71, -122420.71, 0.00034262595, 10.001384, 9.9951935 
2.2647493e+3, 1.690873e+2, -967214.3, -805866.0, -466977.2, -0.36921272, 0.4351356, -412645.66, 870356.6, 0.44342524, 10.001051, 10.005264 
2.2647996e+3, 1.7909282e+2, -2071231.9, -1380043.5, -108198.61, -0.7144643, 0.48753437, -1363501.9, -178562.31, 0.3585124, 9.992548, 10.001876 
2.264862e+3, 1.8909277e+2, -1723320.3, -1459660.4, 176088.27, -0.47439831, 0.5193644, -1371521.6, -284579.06, 0.29413474, 9.995653, 9.999116 
2.2649267e+3, 1.9909221e+2, -753164.25, -879457.8, 85521.234, -0.16143535, 0.5281383, -710003.0, 278949.16, 0.24160613, 10.001807, 9.999739 
2.2649834e+3, 2.0909147e+2, -692257.4, -773760.6, -109283.445, -0.104815856, 0.47632426, -616374.7, 274579.63, 0.1940874, 10.0012455, 10.000014 
2.2650386e+3, 2.1909039e+2, -882257.94, -997705.75, -105758.46, -0.13325886, 0.43435907, -819495.75, -26536.852, 0.14888066, 9.999738, 9.998338 
2.2650969e+3, 2.2908841e+2, -794509.5, -1080006.6, -24588.41, -0.1506706, 0.52105933, -792407.3, -97424.27, 0.108788945, 10.000465, 9.996736 
2.2651565e+3, 2.3908594e+2, -476142.3, -807334.75, 44446.84, -0.11022876, 0.6446316, -470281.16, 126731.99, 0.07581198, 10.001766, 9.997307 
2.2652173e+3, 2.490844e+2, -332315.6, -468851.2, -101230.04, 0.029273236, 0.6089178, -278485.0, 220540.75, 0.048806984, 10.001114, 9.999295 
2.2652751e+3, 2.590822e+2, -548628.44, -709781.75, -322824.1, 0.08336699, 0.5655333, -296476.97, 104566.63, 0.026684597, 9.999762, 9.997569 
2.2653317e+3, 2.6907936e+2, -446829.34, -642609.56, -188887.45, -0.20817615, 0.53900015, -331973.28, -28898.568, 0.010897145, 9.999923, 9.997272 
2.2653899e+3, 2.7907702e+2, -408063.94, -359545.3, -8431.607, -0.3072828, 0.53809935, -358121.8, -153021.11, 0.002788968, 9.998666, 9.999124 
2.2654636e+3, 2.8907654e+2, 21347.596, 172860.56, 82524.89, 0.4040285, 0.4379269, 209128.2, 316226.53, 0.0003034348, 9.999804, 10.001536 
2.2655332e+3, 2.990775e+2, 110304.53, -2571.2607, -227825.42, 0.75924116, 0.32524693, 288578.5, 297660.16, 0.000074942734, 10.0011015, 9.999387 
2.2655813e+3, 3.0907613e+2, 353224.5, -392224.13, 75438.74, -0.34685704, 0.7540635, 360782.22, 360782.22, 0.00045627917, 10.004786, 9.995003 
2.2749282e+3, 1.9903693e+2, -880918.8, -1005103.6, 168723.89, -0.21030334, 0.6552559, -763224.6, 226267.44, 0.4526298, 10.001546, 9.999169 
2.2749834e+3, 2.090353e+2, -806844.7, -1033756.25, -151024.4, -0.2188797, 0.66572464, -731407.4, 160099.94, 0.38963944, 10.001662, 9.997973 
2.275038e+3, 2.1903226e+2, -1021874.6, -1204222.4, -128540.94, -0.18040635, 0.6195606, -955455.8, -161920.17, 0.32267725, 9.999382, 9.997081 
2.2750965e+3, 2.2902785e+2, -820785.1, -935713.5, 11943.999, -0.23859636, 0.40740514, -819556.94, -123983.16, 0.25840095, 9.999615, 9.9981165 
2.2751558e+3, 2.3902375e+2, -605058.5, -939823.1, 39875.133, -0.3669231, 0.24840647, -600374.4, -2765.3052, 0.20062341, 10.001106, 9.996704 
2.2752148e+3, 2.4902108e+2, -684542.4, -1176649.4, -159405.14, -0.31826755, 0.4294516, -637419.6, -137779.05, 0.14660953, 10.000953, 9.994488 
2.275272e+3, 2.5901765e+2, -787083.7, -1096735.9, -351191.4, -0.22656213, 0.7325787, -558104.44, -156422.89, 0.09444842, 9.999299, 9.995117 
2.2753349e+3, 2.6901472e+2, -251999.39, -166045.39, -175848.88, 0.11381791, 0.52280855, -27997.947, 275711.88, 0.04983968, 9.999657, 10.00071 
2.2753955e+3, 2.7901193e+2, -505012.72, -436653.72, -80392.05, 0.40213123, 0.225682, -383476.94, -177741.72, 0.019500945, 9.998177, 9.998804 
2.2754557e+3, 2.8901377e+2, -350438.72, -551063.75, 126416.51, -0.33354837, 0.6911847, -289370.5, -181649.94, 0.004786881, 9.999627, 9.996632 
2.2755173e+3, 2.9901844e+2, 142517.13, 90276.586, -174866.22, -0.93819416, 1.2628946, 293203.13, 302881.7, 0.0007184054, 10.0010605, 10.0000105 
2.275596e+3, 3.0900684e+2, 500022.28, 37644.652, 142520.97, 0.66636485, 0.27492315, 540422.3, 540422.3, 0.00077782915, 10.004419, 9.998059 
2.2851606e+3, 2.3895533e+2, -958100.8, -625726.5, -453769.4, 0.22718084, 0.55168515, -308669.56, 289629.3, 0.45869297, 9.996278, 10.00252 
2.2852121e+3, 2.4895671e+2, -405307.06, -496766.6, -507240.72, -0.6788099, 0.7312124, 58261.086, 558537.5, 0.36361384, 10.0014105, 10.000002 
2.285273e+3, 2.5895202e+2, -362869.38, -509809.94, -61603.367, -0.13401358, 0.39007407, -340460.28, 61853.004, 0.26167566, 10.0006275, 9.998571 
2.285336e+3, 2.689507e+2, -63027.17, -288145.53, 8020.71, 0.15033892, 0.3592811, -62741.766, 241583.17, 0.1640845, 10.002157, 9.998715 
2.2853926e+3, 2.7894965e+2, -384591.6, -595343.7, -267916.53, 0.21678707, 0.4618918, -202072.9, 4263.6177, 0.0825175, 9.999885, 9.996915 
2.2854573e+3, 2.8894717e+2, -15965.901, -482949.66, 270068.44, -0.26385906, 0.6086629, 107551.22, 215916.86, 0.03076659, 10.002284, 9.995871 
2.2855261e+3, 2.9894802e+2, 644312.5, 336983.72, 133325.02, -0.33042884, 0.8172368, 694089.25, 704451.8, 0.009043185, 10.004433, 10.000149 
2.2856013e+3, 3.0894232e+2, 521245.9, -19397.273, 81326.47, 0.729705, 0.4217242, 533214.5, 533214.5, 0.0038784894, 10.004816, 9.997493 
2.295335e+3, 2.6888424e+2, -92823.79, -939274.8, 59219.11, -0.16381434, -0.28783104, -88700.805, 216250.67, 0.43463188, 10.00575, 9.992484 
2.2953828e+3, 2.788903e+2, -800798.94, -1195898.6, -410523.88, -0.7725687, 1.1183059, -542765.9, -335862.56, 0.25414905, 9.998804, 9.993279 
2.295466e+3, 2.8887928e+2, 15647.085, -127451.29, 338928.72, 0.39285, 0.2748193, 290496.44, 399508.2, 0.12152752, 10.001303, 9.998858 
2.2955541e+3, 2.9886985e+2, 117654.6, 42426.527, 116322.3, 2.0273418, -0.77576256, 202293.14, 213396.9, 0.052938674, 10.00113, 9.999647 
2.2955999e+3, 3.0888313e+2, 178605.27, -587808.6, 56867.676, 0.13194339, 1.0502565, 182801.86, 182801.86, 0.02838392, 10.004413, 9.993706 
2.305471e+3, 2.888038e+2, 298134.06, -616885.75, -178545.95, 0.25708425, -1.0638663, 331739.2, 441464.97, 0.3554706, 10.007352, 9.9927025 
2.3054971e+3, 2.988253e+2, -3119191.0, -1166010.8, -62816.188, -2.5403326, 1.0866865, -1163992.6, -1152455.5, 0.20243706, 9.977248, 10.002917 
2.3056038e+3, 3.0881605e+2, -276985.0, -875041.1, 1278152.3, 0.18639843, 0.5839226, 736652.56, 736652.56, 0.14317325, 10.001846, 9.993424 
2.3156133e+3, 3.087454e+2, 3407287.0, 1458661.1, -1393701.3, 0.88436484, -0.28988433, 4133470.8, 4133470.8, 0.4571109, 10.045779, 9.996196 
2.347962e+3, 2.754512e+2, -1240500.3, -2057298.9, 68521.69, -0.38280335, -0.08705545, -1234791.8, -994296.2, 0.44362175, 9.998315, 9.987711 
2.3475596e+3, 2.8542668e+2, -588197.1, -270273.53, -1066163.0, 0.7742372, -1.2120355, 648712.9, 791471.2, 0.34283337, 9.996232, 10.002118 
2.3471512e+3, 2.9542962e+2, -340785.53, 552008.6, 124709.27, 0.8610362, -0.86718017, 569101.3, 613817.3, 0.261367, 9.994174, 10.007826 
2.3467422e+3, 3.0542898e+2, -50060.8, -299469.44, -422996.53, -0.39549777, -0.0696866, 266230.63, 266230.63, 0.20324507, 10.002053, 9.996819 
2.3620987e+3, 1.7590207e+2, -665803.9, -1159811.6, 320458.6, 0.23987184, -1.1579691, -508203.47, 707896.2, 0.43640268, 10.007538, 9.996926 
2.3616868e+3, 1.8590045e+2, -1411040.6, -1176201.0, -404954.53, 0.46197924, -0.36202338, -871986.3, 246139.06, 0.37759772, 9.997158, 10.001022 
2.3612605e+3, 1.9589223e+2, -1993218.8, -1248029.9, -537715.56, 0.39317104, -0.5291214, -966434.25, 53777.406, 0.33353463, 9.991692, 10.001986 
2.360844e+3, 2.0588712e+2, -2139030.5, -1114879.5, -48707.28, 0.28434476, -0.48920467, -1112568.3, -190307.81, 0.30096963, 9.989475, 10.003106 
2.3604341e+3, 2.1588174e+2, -1382878.0, -779398.56, -31640.506, 0.3079581, -0.5344456, -777744.2, 46564.13, 0.2781147, 9.99408, 10.002747 
2.3600233e+3, 2.2587489e+2, -819111.56, -894355.0, -15579.607, 0.12927201, -0.42202255, -816013.25, -89635.52, 0.26099697, 9.999306, 9.998601 
2.3596142e+3, 2.3586684e+2, 80584.125, -296625.8, -285436.06, 0.19950469, -0.34104002, 234098.4, 862561.0, 0.24555989, 10.005882, 9.999649 
2.3592004e+3, 2.4585423e+2, 402109.38, -466397.56, -416274.78, 0.33794713, -0.5612223, 569404.56, 1099987.5, 0.22999299, 10.009719, 9.995565 
2.3587844e+3, 2.5584152e+2, 1213167.6, 253203.61, -468027.94, 0.23464844, -0.5585879, 1403583.1, 1836280.3, 0.20967084, 10.014318, 9.998523 
2.3583652e+3, 2.658391e+2, 1726252.4, 1499881.9, -736974.56, 0.14258792, -0.60332626, 2358682.5, 2693402.8, 0.17422204, 10.011959, 10.009098 
2.3579599e+3, 2.7583435e+2, -463066.97, -311460.0, -367491.0, 0.3901224, -0.86258465, -12035.819, 224740.5, 0.12404414, 9.99782, 10.000067 
2.3575449e+3, 2.85829e+2, -126459.805, -36980.17, -828740.44, 0.5314396, -0.6174874, 748227.2, 887052.44, 0.080483615, 9.999093, 10.00094 
2.3571356e+3, 2.9583034e+2, 50045.66, 729647.06, -123345.09, 0.57906157, -0.2124867, 751341.2, 792138.75, 0.05290576, 9.99722, 10.006635 
2.3567422e+3, 3.0581373e+2, 380026.97, 322687.34, 333985.84, 0.02426084, -1.290605, 686571.25, 686571.25, 0.036095794, 10.002001, 10.001444 
2.3729149e+3, 1.5633902e+2, -1474059.0, -884328.75, -301679.9, -0.41080514, -0.9193777, -757345.3, 650469.44, 0.40914625, 9.995529, 10.007844 
2.3725027e+3, 1.6633348e+2, -677017.5, -1172226.3, 117778.21, 0.44894236, -0.77490854, -650432.9, 659434.94, 0.3191393, 10.007011, 9.997403 
2.3720813e+3, 1.7632939e+2, -1658379.8, -1601035.6, 239841.47, -0.56113786, -0.1018324, -1388158.5, -176241.69, 0.25440004, 9.99721, 9.998093 
2.3716652e+3, 1.8632108e+2, -1237243.3, -1167321.8, -51329.668, -0.6215993, 0.034691297, -1140177.9, -26171.217, 0.20803122, 9.99863, 9.9997225 
2.371251e+3, 1.9630963e+2, -81599.71, -547556.8, -112648.88, -0.073101215, -0.22955203, -55795.0, 960331.06, 0.17323056, 10.007093, 9.999951 
2.3708376e+3, 2.0629984e+2, 259994.28, -159388.5, 49255.785, 0.08091995, -0.4535381, 265701.63, 1183920.1, 0.14628343, 10.00798, 10.001717 
2.3704253e+3, 2.1629168e+2, -60922.313, -257979.23, -36768.09, 0.09073015, -0.6099535, -54285.426, 766002.94, 0.1255341, 10.004434, 10.001746 
2.3700154e+3, 2.2628492e+2, -693465.3, -859734.7, 32590.16, 0.176925, -0.44801205, -687305.56, 35051.31, 0.10829949, 10.000351, 9.998331 
2.3696052e+3, 2.3627938e+2, -999156.25, -866096.1, -27478.29, 0.20846488, 0.02403092, -860644.94, -236224.03, 0.09199207, 9.997192, 9.999125 
2.3691893e+3, 2.4627002e+2, -1034867.25, -636200.25, -64841.574, 0.17200027, -0.12603253, -625919.2, -99407.37, 0.07586664, 9.995381, 10.000931 
2.368776e+3, 2.5625426e+2, -1346815.9, -944994.5, 272243.63, 0.27574575, -0.7541222, -807553.75, -378894.38, 0.059157286, 9.993633, 9.998894 
2.3683618e+3, 2.6624703e+2, -347324.8, 206513.36, 126803.69, 0.48716843, -0.85782784, 234165.05, 564894.06, 0.040404513, 9.996938, 10.004749 
2.3679529e+3, 2.7624518e+2, -150870.73, -69249.88, 308755.78, 0.61309475, -0.5225244, 201380.89, 434130.25, 0.021696819, 9.9998665, 10.000499 
2.367535e+3, 2.8623626e+2, 263771.56, -186608.88, -80555.52, 0.16959056, -0.3908995, 277746.22, 412578.9, 0.009439866, 10.003642, 9.997155 
2.3671211e+3, 2.9622662e+2, 734136.3, 617931.6, 207729.64, -0.23895416, -0.55677617, 891736.25, 928655.0, 0.004227976, 10.004358, 10.001911 
2.3667361e+3, 3.0621374e+2, -998219.9, -176546.94, 367044.9, 0.55142266, -1.0730749, -36467.29, -36467.29, 0.0022905595, 9.992161, 10.002369 
2.3833077e+3, 1.467588e+2, -2199109.0, -1731366.3, 375580.13, -0.2699482, -1.2140105, -1522794.1, -21090.172, 0.38966483, 9.994391, 10.000509 
2.3829141e+3, 1.5676108e+2, -1796595.0, -1518449.3, 125504.74, 0.7242536, -0.21126887, -1470191.6, -66504.695, 0.27836174, 9.99652, 10.000358 
2.3825e+3, 1.667525e+2, -1324377.4, -1294003.1, -207490.28, 0.6207166, -0.2561345, -1101144.9, 204628.19, 0.19862524, 9.9994755, 9.999955 
2.3820755e+3, 1.7673889e+2, -1231699.4, -1243877.5, -138239.98, -0.13008411, -0.7720675, -1099414.4, 108492.93, 0.1461588, 9.999542, 9.9995 
2.3816626e+3, 1.8672934e+2, -1155819.4, -1274259.4, 55974.09, 0.026340323, -0.76697886, -1133552.5, -23548.256, 0.11113541, 9.999868, 9.9983835 
2.3812556e+3, 1.9672216e+2, -821579.3, -1044371.1, 53329.73, 0.67803174, -0.47781864, -809471.75, 202607.5, 0.08556882, 10.001474, 9.998575 
2.3808396e+3, 2.0671296e+2, -561604.94, -738628.75, 14867.27, 0.47313747, -0.47844356, -560365.0, 353800.6, 0.065839775, 10.002073, 9.999767 
2.3804182e+3, 2.1670285e+2, -506368.1, -638621.25, -71394.39, -0.16897912, -0.616031, -475181.34, 341074.4, 0.050802168, 10.001609, 9.999995 
2.3800054e+3, 2.266935e+2, -674281.75, -699163.4, -17169.889, -0.03788023, -0.7221318, -665519.3, 52829.9, 0.038884565, 9.999822, 9.999695 
2.379597e+3, 2.366834e+2, -822532.6, -678371.56, -79809.12, 0.47030362, -0.79989713, -642910.94, -22454.826, 0.028499383, 9.997969, 10.000054 
2.379178e+3, 2.4667786e+2, -391344.9, 181167.53, -177675.88, 0.32223818, -0.8672301, 231825.75, 754330.1, 0.019239577, 9.997589, 10.005587 
2.3787585e+3, 2.5667357e+2, -645200.9, -214877.31, 56762.594, -0.07350744, -0.84679055, -207515.88, 217017.17, 0.011432521, 9.996733, 10.002454 
2.3783481e+3, 2.666706e+2, -316545.66, -283042.84, 120782.92, 0.21595468, -0.41645747, -177855.23, 148706.58, 0.0054169935, 9.999452, 10.000011 
2.3779453e+3, 2.7666697e+2, -170468.75, -386568.34, 218404.23, 0.65598446, 0.09198521, -34848.344, 193755.7, 0.0016796534, 10.000938, 9.9978285 
2.3775254e+3, 2.8664723e+2, -19324.652, -756690.94, -14334.502, -0.3310638, -0.52834475, -19046.092, 111753.82, 0.0003277257, 10.003453, 9.9933815 
2.3771071e+3, 2.9662636e+2, 86130.08, -370918.22, 105839.875, -1.3199596, -1.334018, 109449.86, 142453.92, 0.0000985634, 10.00257, 9.996094 
2.3767282e+3, 3.0662954e+2, -944707.8, -362040.25, -238830.38, 1.2598841, 0.17385037, -276657.53, -276657.53, 0.0001281274, 9.99318, 10.0007515 
2.3937312e+3, 1.3718565e+2, -1280023.6, -646371.06, -226913.42, 1.0310377, 0.45910192, -573494.1, 1022049.56, 0.42780018, 9.997363, 10.012093 
2.3933037e+3, 1.4717042e+2, -1068066.4, -1173425.5, -62517.203, -0.082933605, -0.81637484, -1038993.0, 458684.66, 0.29985303, 10.003051, 10.001193 
2.3928979e+3, 1.5716842e+2, -1694370.1, -1423544.1, -105567.82, 0.2532429, -0.27709442, -1387256.1, 12446.353, 0.19614404, 9.996953, 10.000854 
2.3924863e+3, 1.6716158e+2, -1450418.1, -1210278.1, -175595.8, 0.3218957, -0.25946975, -1117626.1, 184143.8, 0.12585048, 9.997753, 10.001369 
2.3920713e+3, 1.7715222e+2, -848005.3, -886028.1, -140620.6, 0.2079896, -0.4944615, -725116.8, 478743.25, 0.083471425, 10.001508, 10.001161 
2.3916562e+3, 1.8714261e+2, -835705.9, -870407.1, -79706.805, 0.1804638, -0.7105927, -771483.06, 334465.1, 0.057587944, 10.001044, 10.000706 
2.3912422e+3, 1.9713332e+2, -1080183.0, -978267.06, 9319.127, 0.26076752, -0.85168386, -977421.94, 30610.352, 0.03970386, 9.998746, 10.000322 
2.3908281e+3, 2.0712602e+2, -1079005.1, -1062387.9, 70658.91, 0.25580055, -0.692339, -999550.75, -89442.96, 0.026570952, 9.998702, 9.999065 
2.3904133e+3, 2.1711928e+2, -771484.44, -838383.94, 27754.908, 0.17240033, -0.40149355, -761469.06, 50712.266, 0.017417854, 10.000064, 9.99927 
2.389999e+3, 2.271106e+2, -596419.94, -666942.7, 8741.494, 0.19563428, -0.3927551, -595352.56, 118917.43, 0.011141793, 10.000407, 9.999625 
2.3895861e+3, 2.3709957e+2, -521457.0, -590221.25, -23794.703, 0.30983442, -0.5362394, -514026.25, 102353.875, 0.0065593217, 10.000342, 9.999477 
2.3891687e+3, 2.4709101e+2, -6115.7563, 103204.64, -213400.7, 0.23705842, -0.72857386, 268834.25, 787289.44, 0.0032030866, 10.001493, 10.0030365 
2.3887523e+3, 2.5708404e+2, 18416.463, -84365.39, -180749.17, 0.102603465, -0.7906204, 154938.52, 575447.75, 0.0011282732, 10.0022135, 10.000639 
2.3883416e+3, 2.6707786e+2, 10265.581, -294243.63, -109833.516, 0.22295873, -0.5272967, 45747.137, 368315.47, 0.00023273825, 10.002573, 9.998355 
2.3879355e+3, 2.7707082e+2, -81096.15, -266567.9, -14606.178, 0.344593, -0.27716678, -79952.94, 144688.25, 0.000018040813, 10.001347, 9.998377 
2.3875202e+3, 2.8705505e+2, -346419.8, -544903.8, -50140.574, -0.14703634, -0.7430703, -334472.56, -207675.5, 0.0000039059387, 9.999691, 9.996599 
2.3871084e+3, 2.9704127e+2, -652278.44, -697328.2, 303586.75, -0.29594165, -1.0064116, -370382.13, -341449.28, 0.000013250823, 9.997374, 9.996338 
2.3867121e+3, 3.070375e+2, 236138.11, 50157.46, -64027.37, 0.75042355, -0.03324684, 256049.1, 256049.1, 0.00005177903, 10.001975, 9.99932 
2.4041353e+3, 1.2759918e+2, -1487001.0, -1634448.5, 79865.91, 1.0281545, -0.618284, -1452033.6, 237462.25, 0.4904179, 10.002905, 9.998701 
2.4037148e+3, 1.375887e+2, -1511151.0, -1579414.9, 45502.324, 0.31019884, -0.69311225, -1488401.9, 103183.164, 0.36336002, 10.0006485, 9.999348 
2.4032983e+3, 1.475815e+2, -1381740.5, -1313406.4, -8315.044, 0.04257746, -0.65319496, -1312409.3, 181244.22, 0.24041094, 9.999934, 10.00115 
2.4028838e+3, 1.5757582e+2, -1540692.3, -1316233.6, -38484.008, -0.04674366, -0.47138467, -1309818.8, 85893.32, 0.14389461, 9.997892, 10.001188 
2.4024741e+3, 1.6757071e+2, -1304502.0, -1041200.44, 44415.88, 0.14294557, -0.33626452, -1033909.9, 263851.9, 0.08188297, 9.998334, 10.002242 
2.402066e+3, 1.7756535e+2, -1030042.8, -871966.8, -34671.766, 0.42355338, -0.247038, -864696.4, 335115.66, 0.047678713, 9.999678, 10.002058 
2.4016486e+3, 1.8755573e+2, -923064.8, -761151.9, -212803.55, 0.20987156, -0.58781296, -614425.94, 487469.22, 0.028905774, 9.999721, 10.002063 
2.4012281e+3, 1.9754471e+2, -991089.8, -844244.56, -226166.75, -0.17206928, -1.0433784, -679881.0, 324108.06, 0.017015342, 9.998994, 10.0011425 
2.4008164e+3, 2.07539e+2, -1032979.6, -1075050.4, -93650.4, 0.05245865, -0.7655202, -958031.2, -51975.598, 0.00915297, 9.999171, 9.998759 
2.4004082e+3, 2.1753506e+2, -823260.56, -930946.0, -106988.46, 0.5061313, -0.17209992, -757330.3, 50783.973, 0.0045936005, 9.9999895, 9.998682 
2.399993e+3, 2.2752732e+2, -571327.3, -669621.2, -120641.51, 0.37385872, -0.06101052, -490206.1, 219987.84, 0.0022051786, 10.000648, 9.999488 
2.3995754e+3, 2.3751685e+2, -482854.1, -660179.6, -104655.18, 0.024812695, -0.15178351, -434353.47, 177939.9, 0.0009056362, 10.000989, 9.998693 
2.3991604e+3, 2.4750508e+2, -197149.44, -378813.53, -220083.47, 0.117285565, -0.43325412, -49890.758, 464508.06, 0.00023937336, 10.001885, 9.999506 
2.3987488e+3, 2.574928e+2, -207505.27, -495196.4, -185300.66, 0.38377023, -0.7137922, -116770.62, 299736.0, 0.000025130046, 10.001925, 9.997978 
2.398336e+3, 2.6748136e+2, -90359.0, -384048.06, -103007.914, 0.21354304, -0.83590317, -57832.555, 260782.69, 0.00000030344088, 10.002038, 9.998009 
2.3979238e+3, 2.7747077e+2, -83983.664, -82847.766, -78004.445, -0.15023935, -0.9649501, -5409.2065, 215309.75, 0.000000006555133, 10.0004425, 10.000127 
2.3975173e+3, 2.874651e+2, 19918.914, 245765.3, -133557.67, 0.42027816, -0.8570055, 307740.06, 430512.56, 0.00000087940674, 9.999503, 10.002155 
2.3971155e+3, 2.9746392e+2, -502157.94, -403743.38, 224813.23, 1.4197676, -0.28674263, -222815.17, -198033.53, 0.000007195881, 9.99737, 9.998407 
2.3966907e+3, 3.0744255e+2, 37305.79, -311821.28, 336456.34, -0.85787594, -0.97623295, 241787.5, 241787.5, 0.000033705648, 10.001678, 9.997018 
2.4141277e+3, 1.280154e+2, -1253539.9, -1434852.8, -61610.234, 0.69185215, -0.38594693, -1234586.0, 450824.44, 0.44509953, 10.004685, 10.000338 
2.4137072e+3, 1.3800852e+2, -1376837.4, -1469428.0, -21388.156, 0.2890265, -0.2252098, -1372135.6, 215334.22, 0.31930807, 10.001603, 9.999972 
2.413291e+3, 1.4799775e+2, -1450566.5, -1451151.4, -10824.6045, 0.19725582, -0.4653687, -1440030.4, 49540.324, 0.20041417, 9.999883, 9.999905 
2.4128762e+3, 1.5798591e+2, -1460159.8, -1355249.6, -6071.702, 0.20000832, -0.78447205, -1354899.4, 36784.945, 0.110025235, 9.998836, 10.000378 
2.4124655e+3, 1.6798005e+2, -1245948.9, -1060171.6, 99520.98, 0.2565928, -0.66013986, -1016925.3, 276816.13, 0.054970514, 9.999007, 10.001711 
2.4120559e+3, 1.7797561e+2, -1118902.1, -1030579.5, -6232.8584, 0.34486955, -0.40962496, -1030141.8, 165643.08, 0.027314784, 9.999555, 10.000945 
2.4116398e+3, 1.8796705e+2, -1117813.1, -1155384.4, -265933.75, 0.25282142, -0.42522964, -870002.25, 227867.05, 0.013986388, 9.999668, 9.999332 
2.4112214e+3, 1.9795693e+2, -1019993.06, -1061656.5, -331927.53, 0.09262988, -0.5310727, -708244.2, 291723.66, 0.006556314, 9.999687, 9.99929 
2.4108088e+3, 2.0794831e+2, -896384.25, -968931.25, -222399.66, 0.1771548, -0.508771, -707319.4, 194737.75, 0.002469395, 9.999951, 9.999113 
2.4103987e+3, 2.1794027e+2, -713866.56, -796713.5, -208137.4, 0.36633736, -0.37795284, -543070.6, 261072.53, 0.00078321603, 10.000397, 9.999397 
2.4099842e+3, 2.279329e+2, -410998.94, -439678.25, -194238.03, 0.25760838, -0.3467189, -230571.98, 475641.94, 0.00023610769, 10.001113, 10.000827 
2.4095686e+3, 2.3792475e+2, -310013.7, -490053.25, -142844.6, 0.032394703, -0.35094196, -231189.94, 377099.03, 0.000047296035, 10.001836, 9.999432 
2.4091539e+3, 2.4791357e+2, -336272.2, -626366.5, -248778.53, 0.12854634, -0.4928598, -193344.63, 317049.44, 0.0000020598873, 10.001751, 9.997861 
2.4087414e+3, 2.5790113e+2, -418052.13, -649170.8, -169446.0, 0.35829687, -0.6542445, -328511.72, 83999.2, 0.0, 10.000761, 9.997455 
2.4083295e+3, 2.6789045e+2, -408415.97, -465252.66, -61865.37, 0.36099276, -0.70753086, -368754.0, -54140.69, 0.0, 9.999619, 9.99858 
2.4079183e+3, 2.7788085e+2, -409006.34, -190045.2, -59920.17, 0.23338611, -0.7733013, -174720.23, 41985.637, 0.0, 9.997993, 10.000573 
2.4075076e+3, 2.8787467e+2, -121017.63, 175561.16, -257689.95, 0.421299, -0.7381615, 324582.8, 443346.4, 0.0000001537889, 9.998523, 10.002165 
2.4071008e+3, 2.9787186e+2, -139927.02, -206562.81, -51193.727, 0.9175241, -0.33358014, -112163.984, -91376.15, 0.000003139397, 9.999773, 9.998588 
2.4066843e+3, 3.07851e+2, -321486.56, -329491.2, 224269.63, -0.6633611, -1.1456026, -101183.55, -101183.55, 0.000017108563, 9.998626, 9.998322 
2.4241202e+3, 1.2842771e+2, -1736775.4, -1563528.3, -81291.75, 0.60982776, -0.49637157, -1531357.9, 150005.78, 0.4141129, 9.998396, 10.001728 
2.4236992e+3, 1.384242e+2, -1572986.3, -1539593.0, -79916.1, 0.2605591, -0.12958232, -1474648.0, 108743.64, 0.28877336, 9.999597, 10.000237 
2.4232835e+3, 1.4841235e+2, -1414332.3, -1518098.1, -31816.123, 0.26904002, -0.4310312, -1405353.9, 80149.27, 0.17287979, 10.0006, 9.999039 
2.4228692e+3, 1.5839826e+2, -1192444.4, -1319479.1, -7649.382, 0.3488969, -0.8893212, -1191985.5, 195651.56, 0.08747846, 10.001216, 9.999506 
2.4224573e+3, 1.6839097e+2, -1158610.9, -1105225.1, 86727.734, 0.32653272, -0.83086985, -1041175.5, 248532.14, 0.038149297, 10.000029, 10.000871 
2.4220462e+3, 1.7838572e+2, -1349739.1, -1287581.6, -34281.99, 0.28109726, -0.5702947, -1272387.9, -80627.664, 0.01570925, 9.998624, 9.999592 
2.4216314e+3, 1.8837774e+2, -1260342.0, -1456855.6, -191277.56, 0.29277334, -0.3501855, -1143560.5, -49712.316, 0.0064830934, 9.999708, 9.997222 
2.4212153e+3, 1.9836858e+2, -917737.06, -1173516.9, -168199.45, 0.32264036, -0.14615674, -834328.9, 161620.13, 0.0021827125, 10.0011, 9.9978285 
2.4208015e+3, 2.0835729e+2, -739446.3, -850818.0, -53738.992, 0.25815535, -0.35596523, -717744.9, 180313.2, 0.00044835047, 10.00084, 9.999491 
2.4203885e+3, 2.1834543e+2, -701080.3, -720063.94, -55848.055, 0.16470836, -0.63816607, -653923.25, 146245.81, 0.000068581576, 10.000186, 10.000027 
2.4199751e+3, 2.2833832e+2, -440553.22, -336675.94, -111756.66, 0.11156762, -0.6640491, -265378.34, 436855.6, 0.0000096515805, 10.000426, 10.001856 
2.4195625e+3, 2.3833194e+2, -429936.94, -506770.56, -175067.58, 0.083510175, -0.5946419, -289120.63, 315171.22, 0.00000040342232, 10.000839, 9.999806 
2.419147e+3, 2.4832177e+2, -386959.06, -742663.2, -268527.6, 0.12222066, -0.5920367, -242726.61, 263665.78, 0.0, 10.001815, 9.997024 
2.4187325e+3, 2.5831056e+2, -263655.2, -585704.6, -173202.34, 0.20329647, -0.57668453, -188188.86, 220316.06, 0.0, 10.0018425, 9.997392 
2.4183227e+3, 2.6830217e+2, -191340.78, -285836.44, -75221.92, 0.5423949, -0.44948262, -149759.03, 160827.58, 0.0, 10.0007715, 9.999267 
2.4179141e+3, 2.7829477e+2, -362778.44, -284689.63, -91595.484, 0.8306103, -0.31039956, -224163.95, -11505.767, 0.0, 9.998763, 9.999587 
2.4174936e+3, 2.8828332e+2, -251783.31, -172865.69, -175632.72, 0.0034222507, -0.5773427, -32313.805, 82454.04, 0.0000000009564638, 9.998825, 9.99965 
2.4170767e+3, 2.982728e+2, -218097.25, -202869.31, 24605.332, -0.71197253, -0.77380705, -184726.83, -167858.36, 0.0000004799063, 9.99901, 9.999016 
2.4166843e+3, 3.0826727e+2, -117315.95, 71344.375, 45721.434, 0.19870752, -0.37220138, 81840.875, 81840.875, 0.0000055147566, 9.998498, 10.001247 
2.4341089e+3, 1.288416e+2, -1711742.6, -1573490.3, -30002.006, 0.5197905, -0.55569035, -1567260.3, 110040.61, 0.39271492, 9.998622, 10.001417 
2.43369e+3, 1.388322e+2, -1533187.0, -1524471.9, -31411.098, 0.23493913, -0.73771006, -1497117.5, 82265.77, 0.26710206, 9.999907, 10.000146 
2.4332754e+3, 1.4882398e+2, -1347661.1, -1513986.8, 7701.427, 0.22561236, -0.64210653, -1347305.4, 134158.7, 0.15331793, 10.001234, 9.998775 
2.432862e+3, 1.5881532e+2, -1077071.1, -1319118.4, 513.2073, 0.2825473, -0.5210363, -1077070.0, 306480.53, 0.07196278, 10.002275, 9.999002 
2.4324495e+3, 1.6880551e+2, -1155610.3, -1241461.3, 2651.3513, 0.33612943, -0.6066413, -1155528.4, 130116.305, 0.027363949, 10.000634, 9.999619 
2.4320371e+3, 1.7879578e+2, -1384745.1, -1353177.5, -55461.332, 0.3670348, -0.68138593, -1311297.8, -123559.52, 0.009079448, 9.998604, 9.999136 
2.4316226e+3, 1.8878652e+2, -1130106.0, -1286898.5, -65183.137, 0.28202334, -0.6302264, -1106547.4, -16713.047, 0.002868925, 10.000152, 9.998166 
2.4312074e+3, 1.9877714e+2, -661966.6, -940241.94, -18002.953, 0.19461711, -0.5308389, -660806.75, 331125.88, 0.00059867656, 10.002377, 9.998812 
2.430794e+3, 2.0876786e+2, -595662.06, -712858.94, 24634.78, 0.22191526, -0.5954646, -590694.44, 303327.03, 0.000045539302, 10.001524, 10.000111 
2.4303809e+3, 2.187582e+2, -777787.4, -821149.2, 59151.375, 0.24548042, -0.68857306, -736468.7, 59643.586, 0.0000022398012, 9.999944, 9.999435 
2.4299675e+3, 2.2874947e+2, -772273.8, -830444.2, -39854.293, 0.20183255, -0.62800735, -752020.25, -53819.19, 0.000000052409952, 9.999608, 9.998852 
2.4295548e+3, 2.3874094e+2, -684971.9, -733941.1, -167299.92, 0.16488045, -0.5168252, -540374.4, 59914.3, 0.0, 9.999576, 9.998835 
2.4291402e+3, 2.4873143e+2, -323250.53, -504668.7, -181601.31, 0.12593506, -0.53496504, -210964.1, 291416.38, 0.0, 10.0013895, 9.998847 
2.4287258e+3, 2.587216e+2, 43800.066, -280393.16, -63071.176, 0.09912796, -0.55382144, 55638.17, 460113.3, 0.0, 10.00329, 9.998772 
2.4283144e+3, 2.6871273e+2, 59006.785, -197319.2, -66879.84, 0.3495771, -0.49665162, 75407.5, 381970.06, 0.0, 10.002614, 9.998994 
2.427904e+3, 2.7870432e+2, -52890.887, -193662.52, -74121.68, 0.63721645, -0.40411246, -21060.334, 187585.45, 0.0, 10.001133, 9.999069 
2.4274844e+3, 2.886934e+2, -137737.23, -169234.53, -59600.504, -0.009042731, -0.56025255, -91839.8, 18909.836, 0.0, 9.999833, 9.999175 
2.4270679e+3, 2.9868248e+2, -313606.1, -149356.95, 219435.3, -0.6072068, -0.76579666, 2818.062, 15670.609, 0.000000008678429, 9.997985, 9.999851 
2.4266778e+3, 3.0867955e+2, -321169.38, 83015.43, -34672.484, 0.6776794, -0.2412673, 85968.19, 85968.19, 0.0000009202062, 9.996625, 10.002245 
2.4445139e+3, 1.1926493e+2, -1796475.8, -1520544.5, 142582.45, 0.7519956, -0.3474162, -1460105.9, 311061.7, 0.49453825, 9.997738, 10.00416 
2.4440992e+3, 1.2925647e+2, -1818794.6, -1663610.5, -31016.758, 0.5428962, -0.5196488, -1657640.9, 15591.246, 0.37753466, 9.9983635, 10.000511 
2.443682e+3, 1.392432e+2, -1616448.4, -1626467.9, -31506.99, 0.29250675, -1.0133115, -1589555.3, -14204.007, 0.25111946, 9.999536, 9.999497 
2.4432679e+3, 1.4923592e+2, -1458015.1, -1652832.3, -6361.13, 0.2070886, -0.7682791, -1457807.6, 19616.863, 0.13882844, 10.000656, 9.998098 
2.4428548e+3, 1.5922946e+2, -1240015.6, -1473881.6, -63872.93, 0.20853779, -0.37121037, -1223707.9, 155784.05, 0.060861234, 10.001414, 9.998305 
2.4424419e+3, 1.6921853e+2, -1056899.9, -1299351.5, -96229.3, 0.32475954, -0.5009962, -1023349.2, 258248.48, 0.02025213, 10.001803, 9.998635 
2.4420288e+3, 1.792065e+2, -980897.8, -1200316.8, -96090.67, 0.4282395, -0.7203329, -944766.3, 238946.34, 0.0052852775, 10.001574, 9.998755 
2.4416146e+3, 1.8919623e+2, -997605.4, -1130025.4, -55306.457, 0.2825431, -0.8242021, -977545.06, 108268.63, 0.0012089658, 10.000663, 9.998999 
2.4412e+3, 1.9918652e+2, -947762.56, -1003044.06, -74602.414, 0.119183674, -0.85033554, -895844.94, 92064.72, 0.00012403581, 10.0001, 9.999477 
2.4407864e+3, 2.0917915e+2, -671170.3, -721903.94, -128770.08, 0.18872607, -0.7789025, -565292.3, 324687.53, 0.000001917801, 10.000917, 10.000327 
2.4403733e+3, 2.1917175e+2, -636627.06, -871205.4, -118458.57, 0.30139542, -0.65916085, -587215.4, 204835.53, 0.000000018702426, 10.001444, 9.9983635 
2.4399596e+3, 2.2916162e+2, -729905.94, -1124523.3, -75516.07, 0.2651096, -0.52660406, -715948.44, -21787.885, 0.0, 10.001261, 9.996031 
2.4395464e+3, 2.3915091e+2, -576567.75, -785378.75, -74253.766, 0.20254263, -0.39103737, -552855.56, 43421.3, 0.0, 10.000748, 9.997926 
2.4391328e+3, 2.4914189e+2, -222223.17, -232993.3, -67801.36, 0.10916466, -0.47312778, -159593.36, 338766.8, 0.0, 10.001103, 10.000857 
2.4387193e+3, 2.5913328e+2, -132876.27, -256133.78, -70758.14, -0.017440286, -0.5556794, -100671.03, 299766.03, 0.0, 10.001571, 9.999788 
2.4383049e+3, 2.6912317e+2, -146883.97, -358059.38, -126158.664, -0.011717662, -0.6198303, -87957.93, 214579.4, 0.0, 10.00144, 9.9984665 
2.4378914e+3, 2.7911294e+2, -119726.414, -234249.61, -119019.38, 0.10903189, -0.67021525, -44910.367, 159729.63, 0.0, 10.000689, 9.999021 
2.437478e+3, 2.8910476e+2, -56475.06, -87664.945, -79610.43, 0.20388252, -0.5933344, 9053.505, 115768.61, 0.0, 10.000193, 9.999578 
2.4370654e+3, 2.9909664e+2, -172199.73, -14740.91, 164226.02, 0.13686454, -0.55408937, 88651.9, 97439.71, 0.0, 9.9986105, 10.000508 
2.4366619e+3, 3.0908397e+2, -296254.22, 164539.67, 189680.19, 0.1924875, -1.0888709, 232574.17, 232574.17, 0.00000009975268, 9.996565, 10.002796 
2.4545014e+3, 1.196791e+2, -1706113.3, -1495103.6, 81784.69, 0.5019084, -0.35073772, -1467116.9, 299988.63, 0.48539653, 9.998478, 10.003974 
2.454092e+3, 1.2967105e+2, -1766159.5, -1708768.5, 6367.1875, 0.8226113, -0.41610602, -1708070.6, -38898.98, 0.36593348, 9.99901, 9.999856 
2.4536748e+3, 1.3965905e+2, -1574454.5, -1694493.0, 18036.973, 0.4572585, -0.7122233, -1571802.9, -521.2586, 0.23856215, 10.000219, 9.998684 
2.4532606e+3, 1.4964741e+2, -1480927.9, -1773277.0, 15570.644, 0.24514285, -0.8036332, -1480100.9, -6707.357, 0.1275105, 10.000948, 9.997117 
2.4528472e+3, 1.5963633e+2, -1238226.6, -1529651.5, -40795.066, 0.14515018, -0.7868936, -1232623.6, 142878.67, 0.052560914, 10.001655, 9.997789 
2.4524353e+3, 1.6962777e+2, -956319.06, -1273013.4, -72781.04, 0.28263772, -0.644949, -940393.7, 337196.13, 0.01541553, 10.002589, 9.99843 
2.4520232e+3, 1.7961907e+2, -756151.5, -1096594.1, -117240.76, 0.43381268, -0.51534927, -719683.0, 459995.34, 0.0031067657, 10.003131, 9.998715 
2.4516086e+3, 1.8960904e+2, -954450.9, -1109132.3, -151253.05, 0.4579542, -0.58713925, -861912.0, 219863.45, 0.00048131414, 10.000957, 9.999 
2.4511936e+3, 1.9959882e+2, -1171536.8, -1177801.4, -107043.19, 0.4252636, -0.65668195, -1067580.0, -83705.83, 0.000015932997, 9.998859, 9.9988575 
2.4507791e+3, 2.0958982e+2, -815035.8, -972816.44, -123862.91, 0.2336269, -0.6128624, -747073.5, 138890.11, 0.0000000054715246, 10.000712, 9.998697 
2.450365e+3, 2.1958108e+2, -386633.56, -689984.9, -188889.77, 0.062670074, -0.5231347, -296059.7, 491990.97, 0.0, 10.002913, 9.998893 
2.4499522e+3, 2.2957234e+2, -319238.94, -606469.44, -103674.195, 0.11654304, -0.4739318, -285728.03, 404410.2, 0.0, 10.002707, 9.99889 
2.4495396e+3, 2.3956305e+2, -347305.72, -558342.94, 14435.728, 0.19428603, -0.43420365, -346322.84, 245908.92, 0.0, 10.001811, 9.998968 
2.449125e+3, 2.495526e+2, -463138.97, -513632.6, -53933.484, 0.13738355, -0.56719327, -428835.63, 65495.727, 0.0, 10.000149, 9.999395 
2.4487107e+3, 2.5954258e+2, -611629.25, -528715.9, -128028.695, 0.031036308, -0.668648, -435599.13, -39173.016, 0.0, 9.998444, 9.999429 
2.448296e+3, 2.695343e+2, -471666.3, -430568.44, -140951.1, -0.017251754, -0.60010374, -308676.28, -10165.876, 0.0, 9.998821, 9.999242 
2.4478821e+3, 2.7952605e+2, -186697.25, -181450.42, -81045.195, 0.029025638, -0.52935404, -102986.19, 97608.16, 0.0, 9.999856, 9.999783 
2.4474704e+3, 2.895174e+2, 174129.56, 63068.082, -48399.2, 0.21472524, -0.5533278, 192261.19, 294935.0, 0.0, 10.00157, 9.999965 
2.44706e+3, 2.9950833e+2, 270039.1, 90790.87, 54617.16, 0.36966252, -0.6064057, 285369.8, 290126.3, 0.0, 10.002054, 9.9996 
2.4466479e+3, 3.0949685e+2, -456195.1, 13442.384, -5281.592, 0.035038, -0.86488426, 13501.773, 13501.773, 0.000000000000427524, 9.995885, 10.002028 
2.4644925e+3, 1.20092586e+2, -1877277.3, -1651444.3, 165653.34, 0.5744806, -0.51473343, -1563883.5, 199161.98, 0.4772223, 9.998004, 10.002356 
2.4640848e+3, 1.3008463e+2, -1672209.0, -1820128.4, 52562.223, 0.9658356, -0.41556737, -1655433.8, 9686.23, 0.3557266, 10.000406, 9.99841 
2.4636677e+3, 1.4007421e+2, -1456630.5, -1742835.9, -14675.112, 0.50005656, -0.41942522, -1455880.0, 111340.78, 0.22774403, 10.001791, 9.997595 
2.4632537e+3, 1.500598e+2, -1338001.4, -1731557.0, 12218.5625, 0.25508165, -0.7482627, -1337622.5, 131734.5, 0.11809006, 10.002219, 9.996789 
2.4628404e+3, 1.6004577e+2, -1178205.0, -1537968.3, -3453.0674, 0.12360397, -0.99245286, -1178171.9, 193319.0, 0.04605504, 10.002256, 9.997446 
2.4624287e+3, 1.7003872e+2, -1153792.3, -1409885.4, -39454.934, 0.2477512, -0.6701013, -1147851.4, 125716.33, 0.012013259, 10.001401, 9.998061 
2.4620168e+3, 1.8003207e+2, -1122336.4, -1308197.4, -136578.19, 0.40518743, -0.297976, -1050071.0, 125569.44, 0.0018483637, 10.000771, 9.998401 
2.4616018e+3, 1.9002181e+2, -914620.7, -1123498.0, -225725.94, 0.5257217, -0.36746466, -770343.4, 307395.2, 0.00018026956, 10.001385, 9.998692 
2.4611865e+3, 2.0001097e+2, -835941.1, -1108841.8, -134955.8, 0.5877937, -0.45977795, -780475.44, 199366.7, 0.0000007906511, 10.001576, 9.998025 
2.4607712e+3, 2.1000043e+2, -873743.3, -1149985.1, -16967.828, 0.20435482, -0.45605478, -872704.94, 9244.096, 0.0, 10.000967, 9.997357 
2.4603567e+3, 2.1999034e+2, -668915.7, -731883.3, -85064.945, -0.17353858, -0.41427526, -609695.2, 174355.8, 0.0, 10.000561, 9.999747 
2.4599443e+3, 2.2998324e+2, -450011.53, -311922.2, -102389.07, -0.018766506, -0.46085215, -257473.17, 428640.06, 0.0, 10.000266, 10.002089 
2.4595325e+3, 2.3997577e+2, -584628.9, -598641.4, -73797.484, 0.18879448, -0.50282747, -517505.8, 70673.46, 0.0, 9.999857, 9.999642 
2.4591169e+3, 2.499637e+2, -610410.3, -811436.75, -100201.23, 0.15031679, -0.67080694, -568996.8, -78698.64, 0.0, 10.000111, 9.997376 
2.4587014e+3, 2.5995174e+2, -463853.53, -531342.25, -102817.445, 0.07989782, -0.79088956, -389384.63, 3033.1343, 0.0, 9.999762, 9.99879 
2.4582876e+3, 2.699458e+2, -326690.7, -253637.67, -84913.5, 0.09101227, -0.5460675, -197727.78, 96753.37, 0.0, 9.999341, 10.0002165 
2.4578743e+3, 2.799406e+2, -209222.2, -121501.9, -30652.488, 0.09210959, -0.2534549, -111852.35, 84683.78, 0.0, 9.9993725, 10.000449 
2.4574617e+3, 2.899303e+2, 52271.27, 20347.791, 26606.922, 0.0125953, -0.47690752, 67337.02, 165968.95, 0.0, 10.000636, 10.000141 
2.4570529e+3, 2.9991788e+2, -78053.414, -363139.4, -55042.98, 0.28050035, -0.78462595, -67795.11, -67044.47, 0.0, 10.00086, 9.997073 
2.456637e+3, 3.0991262e+2, -586165.06, -360520.13, -218237.0, 0.143439, -0.07939804, -227667.4, -227667.4, 0.0, 9.996311, 9.999265 
2.4744861e+3, 1.2050645e+2, -1928620.6, -1901975.3, 322932.8, 0.89756906, -0.7380574, -1592090.4, 166885.81, 0.46784535, 9.999179, 9.999594 
2.4740766e+3, 1.3049693e+2, -1770962.9, -2190286.8, 117688.45, 0.92075604, -0.49235532, -1740190.4, -79109.914, 0.34520847, 10.001091, 9.995517 
2.4736604e+3, 1.4048749e+2, -1410028.5, -1799479.8, 11416.538, 0.37373596, -0.1645498, -1409694.1, 153487.52, 0.21743059, 10.002506, 9.996869 
2.4732478e+3, 1.5047407e+2, -1183435.1, -1528608.5, 24373.955, 0.2501919, -0.45425734, -1181722.5, 283584.9, 0.109704144, 10.002864, 9.997878 
2.4728355e+3, 1.6046092e+2, -1089214.6, -1460643.9, -9343.336, 0.21843794, -0.6974394, -1088979.8, 278451.4, 0.040704507, 10.002739, 9.99774 
2.4724214e+3, 1.7045268e+2, -1224796.4, -1510332.4, -79559.56, 0.26196975, -0.4471429, -1204125.0, 65394.926, 0.00953522, 10.001184, 9.997478 
2.4720073e+3, 1.8044442e+2, -1271961.6, -1459108.4, -104376.67, 0.29117268, -0.1755006, -1225354.9, -53746.156, 0.0011160366, 10.00008, 9.997693 
2.4715918e+3, 1.9043262e+2, -900288.7, -1224910.5, -145828.72, 0.20485558, -0.30198705, -844400.5, 229321.25, 0.00006263998, 10.001942, 9.997726 
2.4711765e+3, 2.0042066e+2, -546336.4, -921122.06, -139560.39, 0.13105913, -0.4447176, -500077.4, 475757.47, 0.0000000031066179, 10.00338, 9.998431 
2.4707627e+3, 2.1041048e+2, -769126.1, -948296.44, -61959.51, 0.068950295, -0.51239944, -749787.06, 128145.3, 0.0, 10.001037, 9.998714 
2.4703489e+3, 2.2040083e+2, -922793.7, -767294.7, -40338.953, 0.0086930925, -0.53972965, -757453.0, 22571.752, 0.0, 9.998445, 10.000523 
2.469936e+3, 2.3039411e+2, -829305.8, -505407.44, -94595.24, 0.16694184, -0.5482215, -479804.5, 202281.13, 0.0, 9.9977045, 10.001998 
2.4695234e+3, 2.403872e+2, -859933.3, -670416.1, -73210.3, 0.31548885, -0.53844666, -645429.44, -61281.12, 0.0, 9.997705, 10.000186 
2.4691088e+3, 2.5037685e+2, -526047.0, -649671.8, 933.2745, 0.20204227, -0.62472385, -526040.0, -39790.895, 0.0, 10.000171, 9.998455 
2.4686946e+3, 2.6036608e+2, -111679.06, -350058.63, 4847.7393, 0.12252945, -0.69885397, -111580.516, 276775.6, 0.0, 10.002145, 9.99887 
2.4682812e+3, 2.7035838e+2, -240617.4, -322215.97, -87772.195, 0.30243114, -0.54826903, -184625.47, 105813.51, 0.0, 10.000402, 9.999238 
2.467867e+3, 2.8035194e+2, -351160.7, -195604.97, -48206.055, 0.33979964, -0.30803603, -181877.53, 10630.932, 0.0, 9.998425, 10.000392 
2.4674502e+3, 2.9034334e+2, -368071.66, -114835.016, 16971.574, -0.14627331, -0.4080525, -113702.67, -19114.29, 0.0, 9.997459, 10.000745 
2.467041e+3, 3.0033198e+2, -620624.2, -659004.44, 25803.49, 0.08304923, -0.6286318, -607657.2, -607657.2, 0.0, 9.997296, 9.996758 
2.4666287e+3, 3.1032315e+2, 119875.3, -93050.55, -37439.027, 0.26170048, -0.19683038, 126266.414, 126266.414, 0.0, 10.001479, 9.998618 
2.4844782e+3, 1.2091724e+2, -1613584.5, -1852047.4, -112822.72, 0.823093, -0.56687254, -1568666.4, 186292.48, 0.45571485, 10.002615, 9.997911 
2.4840689e+3, 1.3090622e+2, -1678837.3, -2173632.5, -190502.2, 0.81050086, -0.47597823, -1613990.3, 43086.355, 0.33319858, 10.002014, 9.995209 
2.4836536e+3, 1.4089705e+2, -1521366.5, -1797407.3, -117540.37, 0.3142544, -0.14353727, -1478098.9, 81076.06, 0.20679392, 10.001293, 9.997492 
2.4832414e+3, 1.5088646e+2, -1460770.9, -1545520.4, -91385.914, 0.28026903, -0.27697235, -1402413.3, 58860.29, 0.10179194, 10.000191, 9.999068 
2.4828294e+3, 1.6087551e+2, -1535503.4, -1645538.9, -125064.875, 0.31514877, -0.4014281, -1453889.6, -90513.24, 0.036105353, 9.999447, 9.998062 
2.4824141e+3, 1.7086604e+2, -1377836.1, -1610763.1, -157105.03, 0.29615235, -0.27487963, -1298734.4, -33257.953, 0.0076701324, 10.000254, 9.997236 
2.4819985e+3, 1.8085612e+2, -1207533.8, -1496415.4, -99806.49, 0.22851169, -0.13258268, -1176405.5, -8825.171, 0.000687035, 10.000832, 9.997072 
2.4815825e+3, 1.9084336e+2, -1139521.9, -1425068.8, -59506.85, -0.03416273, -0.2951849, -1127617.3, -57914.51, 0.000019881356, 10.000686, 9.996948 
2.4811672e+3, 2.0083079e+2, -891930.7, -1034901.0, -105944.72, -0.21782626, -0.45601916, -835609.7, 136211.6, 0.0, 10.000791, 9.998898 
2.4807544e+3, 2.108212e+2, -668078.25, -744342.4, -112789.234, -0.012315859, -0.5788886, -587149.56, 286758.16, 0.0, 10.001086, 10.000078 
2.4803415e+3, 2.2081226e+2, -570254.56, -573066.44, -104494.55, 0.21140279, -0.64296085, -467156.47, 308832.28, 0.0, 10.000764, 10.000742 
2.4799275e+3, 2.308055e+2, -595933.3, -480827.47, -135913.47, 0.33350962, -0.60554093, -390783.63, 287270.38, 0.0, 9.999688, 10.001216 
2.4795137e+3, 2.4079874e+2, -655468.06, -520285.78, -57876.31, 0.39920178, -0.5385272, -498892.47, 81226.734, 0.0, 9.998888, 10.000655 
2.4791011e+3, 2.507906e+2, -440791.0, -423413.4, 60045.5, 0.22586964, -0.5496259, -371431.3, 110764.38, 0.0, 9.999953, 10.000119 
2.4786885e+3, 2.6078165e+2, -310331.94, -470031.0, -56197.12, 0.15040879, -0.5589146, -292538.94, 91743.695, 0.0, 10.000869, 9.998679 
2.4782749e+3, 2.7077124e+2, -398081.5, -580363.75, -197619.89, 0.49621114, -0.55462396, -271598.38, 14795.785, 0.0, 10.000095, 9.997625 
2.4778591e+3, 2.8076196e+2, -298155.47, -209934.78, -120447.484, 0.56021774, -0.4687483, -125774.625, 62718.5, 0.0, 9.998948, 10.000051 
2.4774377e+3, 2.9075596e+2, -186397.08, 58466.625, -42267.285, -0.33154473, -0.36569598, 65557.29, 156105.9, 0.0, 9.998332, 10.001517 
2.4770276e+3, 3.007484e+2, -418214.1, -435752.0, 56915.297, -0.18867698, -0.2986708, -369396.2, -369396.2, 0.0, 9.998106, 9.997922 
2.4766253e+3, 3.107345e+2, 193997.98, 89061.65, 60739.563, 0.58637416, -0.5233296, 221793.16, 221793.16, 0.0, 10.001244, 10.000042 
2.494469e+3, 1.2132469e+2, -1469577.8, -1667978.4, -140647.97, 0.3983961, 0.120402716, -1396666.0, 354332.25, 0.43991756, 10.003629, 9.999021 
2.4940613e+3, 1.313108e+2, -1422001.5, -1622444.4, -166127.31, 0.6539651, -0.38163233, -1328205.9, 324919.56, 0.31901658, 10.002595, 9.998987 
2.493647e+3, 1.4130034e+2, -1353145.4, -1447760.6, -136875.89, 0.38080335, -0.5180253, -1255632.4, 299589.47, 0.19536594, 10.001449, 9.999973 
2.4932338e+3, 1.5129462e+2, -1420238.1, -1380654.5, -146194.47, 0.38541415, -0.3215818, -1252918.3, 204358.2, 0.094030365, 9.999822, 10.000443 
2.4928208e+3, 1.6128771e+2, -1566675.1, -1557483.3, -117402.43, 0.4273368, -0.16589837, -1444586.8, -85243.01, 0.032013185, 9.998799, 9.998968 
2.4924073e+3, 1.712769e+2, -1327700.1, -1503827.1, -95422.875, 0.44623426, -0.23976728, -1285914.9, -24461.977, 0.0062260167, 10.000244, 9.99797 
2.4919929e+3, 1.8126562e+2, -1089892.3, -1356923.3, -84103.37, 0.4166055, -0.30782616, -1065611.1, 97954.57, 0.00043419475, 10.00129, 9.997797 
2.491577e+3, 1.9125366e+2, -1186439.3, -1392236.8, -73264.266, 0.2443887, -0.43138063, -1163021.8, -97342.9, 0.0000058323185, 10.000121, 9.997445 
2.4911617e+3, 2.0124227e+2, -1062205.6, -1071368.5, -27562.07, 0.10416477, -0.5176393, -1038846.9, -71060.65, 0.000000000090419006, 9.999424, 9.999301 
2.4907488e+3, 2.1123397e+2, -612727.6, -700247.2, -18801.693, 0.15918429, -0.5227698, -608859.44, 261004.3, 0.0, 10.0013895, 10.000226 
2.4903354e+3, 2.2122592e+2, -286528.34, -490719.7, -107459.42, 0.22984245, -0.49699828, -240397.67, 531542.4, 0.0, 10.002953, 10.000241 
2.4899192e+3, 2.3121843e+2, -372672.84, -499181.5, -201159.67, 0.2458901, -0.42804542, -225056.78, 448958.8, 0.0, 10.001764, 10.000089 
2.4895036e+3, 2.4121085e+2, -430651.56, -389134.5, -97108.87, 0.2415317, -0.37222558, -310590.22, 265500.2, 0.0, 10.000339, 10.000839 
2.4890916e+3, 2.5120267e+2, -444939.06, -322229.53, 1522.7838, 0.16847517, -0.46825445, -322210.63, 155952.36, 0.0, 9.999463, 10.00105 
2.4886797e+3, 2.6119384e+2, -590919.0, -639142.9, -127355.16, 0.16990472, -0.5251852, -485413.34, -105167.234, 0.0, 9.999059, 9.998396 
2.4882653e+3, 2.7118304e+2, -500712.97, -737377.1, -248878.27, 0.44267118, -0.48329577, -343467.7, -61103.23, 0.0, 9.999841, 9.996674 
2.4878499e+3, 2.8117284e+2, -106443.375, -181699.31, -150199.75, 0.49526992, -0.4142352, 10769.951, 195244.42, 0.0, 10.000532, 9.999477 
2.4874309e+3, 2.9116577e+2, 176738.83, 177910.44, -135803.64, -0.16178152, -0.36732385, 313129.53, 399669.4, 0.0, 10.001058, 10.001026 
2.4870208e+3, 3.0115876e+2, 60718.348, -96185.35, -96179.33, -0.0063805166, -0.26673877, 106384.01, 106384.01, 0.0, 10.000981, 9.998834 
2.4866147e+3, 3.111462e+2, -239277.89, 36952.75, -160258.6, 0.47599924, -0.50653607, 110399.85, 110399.85, 0.0, 9.997648, 10.001375 
2.5044635e+3, 1.2173387e+2, -1601865.4, -1705082.4, 112862.13, 0.4060368, 0.25929973, -1529371.9, 217623.03, 0.42027465, 10.001756, 9.99954 
2.5040543e+3, 1.3171914e+2, -1454174.1, -1521526.0, 57373.688, 0.5897665, -0.3930826, -1421323.3, 227802.05, 0.30251706, 10.00156, 10.000292 
2.5036412e+3, 1.4170785e+2, -1336181.3, -1352377.3, -50493.977, 0.48912132, -0.7102127, -1293140.0, 258085.38, 0.18302314, 10.0011, 10.000925 
2.5032267e+3, 1.5170409e+2, -1362514.3, -1282464.1, -111283.945, 0.51643276, -0.38919336, -1204226.3, 249037.38, 0.08629053, 9.999886, 10.001118 
2.5028127e+3, 1.6169904e+2, -1464338.0, -1444308.4, -48918.46, 0.56372195, -0.10208405, -1404390.1, -49075.203, 0.028287582, 9.999229, 9.999537 
2.5024003e+3, 1.7168804e+2, -1209182.1, -1377778.5, 6561.539, 0.55238545, -0.2622156, -1208927.3, 48496.04, 0.0050760456, 10.000779, 9.998571 
2.501987e+3, 1.8167639e+2, -965762.25, -1281101.1, -71882.984, 0.5230838, -0.4074275, -950149.25, 209387.94, 0.00028139996, 10.002081, 9.99794 
2.5015712e+3, 1.9166477e+2, -914498.25, -1258328.0, -140667.84, 0.44630203, -0.50977045, -864282.1, 197366.03, 0.0000014559199, 10.001986, 9.99747 
2.5011557e+3, 2.0165408e+2, -758235.1, -924618.75, -84215.14, 0.37657017, -0.5355313, -723050.1, 240699.89, 0.0, 10.001499, 9.999319 
2.5007433e+3, 2.1164684e+2, -755069.8, -783586.2, -40051.094, 0.31842172, -0.4434914, -726814.6, 139006.1, 0.0, 10.000463, 10.00011 
2.5003293e+3, 2.2163948e+2, -746364.0, -792901.94, -185271.23, 0.2448073, -0.322198, -582906.25, 184987.67, 0.0, 10.0001545, 9.999516 
2.4999109e+3, 2.3163123e+2, -580380.7, -709793.7, -266000.88, 0.1279763, -0.24455053, -371329.3, 298650.2, 0.0, 10.000833, 9.999084 
2.4994937e+3, 2.4162279e+2, -374821.34, -364676.88, -142133.83, 0.04785722, -0.20886874, -227524.81, 344538.88, 0.0, 10.00072, 10.000838 
2.4990818e+3, 2.5161418e+2, -443678.16, -261187.72, -65922.875, 0.08171304, -0.39872846, -239865.11, 234272.25, 0.0, 9.9992075, 10.001599 
2.4986699e+3, 2.616051e+2, -705252.9, -731271.1, -170774.38, 0.14057568, -0.50538903, -546992.9, -170772.13, 0.0, 9.998437, 9.998064 
2.4982549e+3, 2.7159455e+2, -511382.5, -809294.1, -210850.63, 0.25529483, -0.39017928, -402179.78, -123840.6, 0.0, 10.000057, 9.996078 
2.4978404e+3, 2.8158405e+2, -93046.58, -260419.31, -102101.49, 0.31533703, -0.28909618, -44717.324, 135736.6, 0.0, 10.000968, 9.998743 
2.497427e+3, 2.9157484e+2, 30680.879, -11116.022, -74835.92, 0.17526834, -0.36500615, 87481.59, 170021.84, 0.0, 10.000556, 9.999978 
2.4970156e+3, 3.0156612e+2, -4008.5251, -46096.742, -146963.55, 0.22907111, -0.3789382, 123409.945, 123409.945, 0.0, 10.000161, 9.999585 
2.4965991e+3, 3.1155807e+2, -164050.4, 101473.38, -230161.45, -0.026714087, -0.312711, 234418.13, 234418.13, 0.0, 9.998019, 10.00165 
2.5144604e+3, 1.2214508e+2, -1591868.9, -1740501.1, 107861.54, 0.74305207, -0.22345936, -1535200.3, 207741.2, 0.3973432, 10.002005, 9.99906 
2.5140482e+3, 1.3213228e+2, -1540714.0, -1763983.1, 109224.48, 0.64381987, -0.48605895, -1496168.4, 148895.33, 0.28406283, 10.001724, 9.998223 
2.5136355e+3, 1.4212121e+2, -1330767.3, -1404636.9, -47418.957, 0.6641448, -0.6224852, -1307596.0, 239573.22, 0.16993596, 10.001413, 10.000301 
2.5132203e+3, 1.521146e+2, -1341990.4, -1293117.8, -119634.08, 0.7414021, -0.54509085, -1195449.8, 253784.61, 0.078587286, 10.00014, 10.000898 
2.5128058e+3, 1.6210781e+2, -1385871.3, -1374231.6, 26439.123, 0.76127356, -0.4193615, -1352979.4, -1677.8964, 0.024857625, 9.999622, 9.9998255 
2.512393e+3, 1.7209958e+2, -1094947.1, -1259808.0, 101386.12, 0.5498286, -0.33923918, -1046710.3, 206672.38, 0.0041356636, 10.001286, 9.999141 
2.5119796e+3, 1.8208979e+2, -936714.8, -1360666.5, -21076.059, 0.36926216, -0.3009241, -935669.6, 219811.25, 0.00018434241, 10.002682, 9.9971 
2.5115642e+3, 1.920769e+2, -834836.4, -1372411.9, -129422.875, 0.30276686, -0.3893742, -805300.25, 252313.0, 0.00000026313862, 10.00319, 9.996104 
2.511149e+3, 2.0206523e+2, -605608.9, -896475.75, -171569.53, 0.3050764, -0.4188791, -526126.75, 433604.4, 0.0, 10.002751, 9.9989 
2.510736e+3, 2.1205774e+2, -886209.2, -878989.5, -182287.19, 0.47543448, -0.32089156, -700276.44, 161526.19, 0.0, 9.999699, 9.999824 
2.510322e+3, 2.2204998e+2, -1059663.9, -917849.8, -205380.45, 0.53383315, -0.2310352, -771480.7, -7602.849, 0.0, 9.99788, 9.999755 
2.5099042e+3, 2.3204106e+2, -649129.6, -696373.94, -205894.2, 0.30461147, -0.2594302, -465506.94, 200461.88, 0.0, 10.000154, 9.999504 
2.509487e+3, 2.420322e+2, -305994.56, -382399.56, -170300.94, 0.11650446, -0.2798436, -169663.86, 398393.22, 0.0, 10.001413, 10.000377 
2.509072e+3, 2.520239e+2, -560833.44, -429103.4, -202783.53, 0.084915794, -0.34728858, -281756.4, 188376.0, 0.0, 9.998878, 10.000608 
2.5086588e+3, 2.6201534e+2, -774251.06, -662003.6, -193452.63, 0.09192038, -0.36918217, -516697.97, -144485.25, 0.0, 9.997528, 9.998976 
2.5082457e+3, 2.7200603e+2, -310394.22, -500326.06, -104970.21, 0.15854912, -0.30251548, -263807.06, 10504.259, 0.0, 10.000526, 9.99797 
2.5078326e+3, 2.819965e+2, 123991.96, -99556.375, -45780.246, 0.19884555, -0.24394083, 133003.94, 309415.2, 0.0, 10.002218, 9.999248 
2.507418e+3, 2.9198736e+2, -240375.83, -191321.53, -52131.527, 0.18631916, -0.2813633, -158235.52, -79735.13, 0.0, 9.998886, 9.999556 
2.5070053e+3, 3.019787e+2, -454848.75, -254131.56, -7913.1436, 0.24270253, -0.25281838, -253820.08, -253820.08, 0.0, 9.997024, 9.999674 
2.5065905e+3, 3.1197086e+2, 273342.4, 288681.63, -58394.715, -0.0069326954, -0.17835811, 339908.25, 339908.25, 0.0, 10.001131, 10.001443 
2.5244546e+3, 1.2255471e+2, -1689113.8, -1801047.4, -57517.695, 0.8377677, -0.5915251, -1664827.4, 74088.87, 0.3720946, 10.000903, 9.998988 
2.524041e+3, 1.3254544e+2, -1503352.3, -1761523.6, 61778.582, 0.58350676, -0.5329025, -1489330.6, 151677.05, 0.26429734, 10.002084, 9.998012 
2.5236288e+3, 1.4253575e+2, -1237584.6, -1452657.0, -49115.066, 0.666674, -0.48783165, -1226899.3, 316205.2, 0.15642525, 10.002636, 9.999291 
2.523213e+3, 1.5252636e+2, -1047615.0, -1286736.3, -195731.42, 0.7658539, -0.56700796, -937816.7, 507382.34, 0.071005836, 10.002955, 9.999575 
2.5227982e+3, 1.6251771e+2, -975751.56, -1186754.6, -69290.586, 0.7764481, -0.55096805, -955032.06, 392252.53, 0.021693112, 10.002558, 9.999723 
2.522385e+3, 1.7251082e+2, -1129348.5, -1231853.1, 9695.158, 0.49074057, -0.38766924, -1128439.5, 120910.38, 0.00335279, 10.00087, 9.999532 
2.521972e+3, 1.8250224e+2, -1334739.9, -1597240.4, -88350.414, 0.2544126, -0.24721284, -1307773.8, -156337.27, 0.00011963712, 10.000139, 9.996706 
2.521557e+3, 1.9248919e+2, -1190653.5, -1619558.4, -75438.31, 0.17740029, -0.3011115, -1177771.9, -124195.07, 0.00000002568285, 10.00107, 9.995436 
2.521142e+3, 2.0247722e+2, -786678.25, -1018878.5, -135526.33, 0.21841377, -0.30308598, -724322.2, 231380.3, 0.0, 10.001667, 9.998579 
2.520728e+3, 2.1246913e+2, -727312.2, -843290.75, -170252.73, 0.53051966, -0.22809042, -605443.9, 252334.55, 0.0, 10.000984, 9.999445 
2.520314e+3, 2.224607e+2, -730836.8, -748308.2, -99198.38, 0.7096377, -0.1738253, -639990.25, 119868.625, 0.0, 10.000076, 9.99987 
2.5198975e+3, 2.3245113e+2, -705433.06, -688213.3, -79893.11, 0.46096268, -0.29804352, -616467.5, 45487.418, 0.0, 9.999592, 9.999844 
2.5194806e+3, 2.4244182e+2, -630175.9, -633414.25, -182773.06, 0.21781775, -0.35142672, -449014.84, 115032.97, 0.0, 9.999597, 9.999533 
2.5190628e+3, 2.524336e+2, -572119.3, -588156.9, -240851.39, 0.077091195, -0.2861174, -339153.25, 126974.625, 0.0, 9.999464, 9.999236 
2.5186473e+3, 2.6242557e+2, -457542.4, -365923.6, -100598.04, 0.010404335, -0.20999543, -301195.8, 67009.53, 0.0, 9.999071, 10.000275 
2.518237e+3, 2.7241772e+2, -269097.56, -209258.34, 7798.39, 0.06681541, -0.21993156, -208258.73, 62020.77, 0.0, 9.999638, 10.000401 
2.5178248e+3, 2.8240946e+2, -126176.695, -158983.4, -149871.28, 0.07482058, -0.21374503, 8186.23, 180546.56, 0.0, 10.000222, 9.999808 
2.5174066e+3, 2.9240122e+2, -297769.72, -240095.56, -215768.47, -0.0024991694, -0.16071437, -51245.684, 23199.492, 0.0, 9.998582, 9.999371 
2.5169933e+3, 3.023935e+2, -388196.6, -271116.3, 39619.438, 0.17043827, -0.02222833, -258969.47, -258969.47, 0.0, 9.997669, 9.999261 
2.5165814e+3, 3.1238022e+2, 159449.92, 156656.3, 148292.5, -0.23012365, -0.43649006, 306352.2, 306352.2, 0.0, 10.0007305, 10.00071 
2.534447e+3, 1.2296172e+2, -1545152.6, -1597278.3, 13270.006, 0.77223206, -0.9002077, -1541968.8, 192962.39, 0.34545884, 10.001542, 10.000542 
2.5340328e+3, 1.3295822e+2, -1312181.6, -1400679.4, 96189.17, 0.37257463, -0.5220064, -1250551.8, 386411.34, 0.24384478, 10.002377, 10.000855 
2.5336203e+3, 1.429515e+2, -1282489.0, -1656334.4, -13596.25, 0.37241223, -0.27554616, -1281995.1, 257037.44, 0.14280652, 10.003069, 9.997561 
2.533205e+3, 1.5294011e+2, -1103656.0, -1630183.0, -171837.8, 0.40755, -0.26712793, -1052537.8, 388620.13, 0.06363834, 10.003922, 9.996682 
2.5327897e+3, 1.6292925e+2, -854785.8, -1167360.9, -139800.73, 0.4322606, -0.28477642, -801383.0, 541886.9, 0.0187796, 10.003568, 9.999365 
2.5323766e+3, 1.7291977e+2, -1113835.9, -1190065.6, -108193.13, 0.39762226, -0.39705637, -1037240.25, 208111.92, 0.0026956536, 10.00082, 9.999842 
2.5319636e+3, 1.8291055e+2, -1327916.4, -1365287.5, -95551.45, 0.3373453, -0.41556722, -1249240.6, -101802.266, 0.00007576087, 9.999209, 9.9987335 
2.5315496e+3, 1.929014e+2, -1136992.6, -1303425.3, -2286.164, 0.26177788, -0.3270772, -1136961.3, -87423.734, 0.00000000011876218, 10.000182, 9.998026 
2.5311345e+3, 2.0289193e+2, -803577.0, -952361.3, -20873.059, 0.19166523, -0.25804853, -800704.2, 150932.56, 0.0, 10.001233, 9.999238 
2.5307178e+3, 2.1288283e+2, -534823.75, -759287.44, -51055.37, 0.1660342, -0.26865172, -523756.6, 329967.78, 0.0, 10.002343, 9.999364 
2.530302e+3, 2.2287378e+2, -490357.47, -710258.0, -70197.6, 0.22582537, -0.23490766, -469859.4, 285953.47, 0.0, 10.002065, 9.999167 
2.5298873e+3, 2.3286495e+2, -874479.9, -869906.4, -111579.39, 0.3919471, -0.17974055, -760590.25, -102686.77, 0.0, 9.998859, 9.998946 
2.5294718e+3, 2.4285564e+2, -948665.9, -832537.3, -82938.99, 0.40177768, -0.1559508, -789357.6, -229361.14, 0.0, 9.997593, 9.999134 
2.529055e+3, 2.528459e+2, -412236.94, -540575.3, -78052.6, 0.14360684, -0.20071916, -375362.1, 86727.016, 0.0, 10.00069, 9.998969 
2.5286394e+3, 2.628367e+2, -95658.81, -208818.67, -69637.13, -0.010752276, -0.20955023, -62513.5, 301662.8, 0.0, 10.001644, 10.000111 
2.5282267e+3, 2.728285e+2, -599929.75, -390744.34, -90624.234, 0.0894121, -0.22883494, -356944.9, -90691.99, 0.0, 9.997447, 10.000219 
2.5278136e+3, 2.8282e+2, -863798.3, -555458.4, -207049.47, 0.13819997, -0.22590902, -451485.22, -283149.06, 0.0, 9.995368, 9.999406 
2.5273967e+3, 2.92811e+2, -356921.9, -321580.2, -276339.63, 0.053217687, -0.20140067, -62347.03, 8084.21, 0.0, 9.998423, 9.998878 
2.5269845e+3, 3.0280247e+2, -101239.63, -204330.34, -62943.17, 0.18413703, -0.098757334, -71429.19, -71429.19, 0.0, 9.999966, 9.998606 
2.5265732e+3, 3.1279248e+2, -314230.06, -115973.65, 9379.485, -0.09761116, -0.13002215, -115530.89, -115530.89, 0.0, 9.997661, 10.00032 
2.5444406e+3, 1.2337789e+2, -1273015.4, -1456368.3, 163806.6, 0.6846269, -0.61496735, -1176976.1, 553881.25, 0.3181562, 10.0042095, 10.000599 
2.544026e+3, 1.3337219e+2, -1295138.8, -1385957.4, 74649.96, 0.31586155, -0.4592616, -1253171.8, 379737.66, 0.22319707, 10.002432, 10.000902 
2.543613e+3, 1.4336535e+2, -1541017.5, -1908585.0, -77010.72, 0.2536982, -0.19097158, -1525534.8, 9446.453, 0.12934339, 10.001489, 9.99659 
2.543198e+3, 1.5335399e+2, -1375735.3, -1909875.4, -56056.504, 0.24241482, -0.07470415, -1369915.6, 67196.16, 0.05657354, 10.002535, 9.995417 
2.5427827e+3, 1.6334236e+2, -950497.5, -1213656.1, -9833.358, 0.25284258, -0.081241444, -950130.56, 389102.63, 0.016116831, 10.002898, 9.999357 
2.5423688e+3, 1.7333089e+2, -953023.8, -1108995.9, -18797.031, 0.31307316, -0.39199975, -950790.5, 290540.0, 0.0021455006, 10.001913, 9.999874 
2.5419548e+3, 1.8332115e+2, -963090.3, -1017854.75, 30637.06, 0.3419956, -0.50717294, -949382.2, 194035.45, 0.000046550977, 10.00098, 10.000272 
2.5415415e+3, 1.9331485e+2, -975995.8, -993626.3, 60777.117, 0.28897282, -0.32636657, -923398.0, 122087.12, 0.0, 10.000307, 10.0000925 
2.5411266e+3, 2.0330721e+2, -930051.94, -977481.9, -10513.875, 0.14575484, -0.2135351, -927825.8, 19738.424, 0.0, 10.000207, 9.999569 
2.540708e+3, 2.1329725e+2, -795101.6, -904926.4, -27101.023, -0.1781226, -0.30712768, -788778.1, 60884.066, 0.0, 10.0006485, 9.999184 
2.5402907e+3, 2.2328767e+2, -679711.7, -907199.6, -142880.05, -0.2142654, -0.2747425, -610829.25, 140928.61, 0.0, 10.001217, 9.998231 
2.539877e+3, 2.332793e+2, -594869.9, -860616.3, -179361.5, 0.28691363, -0.073431246, -504526.06, 149319.48, 0.0, 10.001319, 9.997831 
2.539463e+3, 2.4326997e+2, -483397.13, -651636.7, 5416.7373, 0.52602255, 0.033335213, -483222.9, 72715.6, 0.0, 10.000966, 9.998755 
2.539048e+3, 2.5325882e+2, -403006.06, -557314.8, 38817.43, 0.18646552, -0.1357772, -393791.5, 64249.91, 0.0, 10.000836, 9.998788 
2.5386322e+3, 2.6324815e+2, -337143.16, -418870.88, -173846.13, -0.016980162, -0.24924932, -199422.78, 160718.5, 0.0, 10.000374, 9.999289 
2.5382164e+3, 2.7323878e+2, -609878.9, -513266.88, -237738.95, 0.12827224, -0.2895909, -318975.94, -56745.54, 0.0, 9.997881, 9.999175 
2.537802e+3, 2.832295e+2, -739480.1, -593106.25, -141817.0, 0.23926069, -0.2610056, -506705.0, -342382.1, 0.0, 9.996627, 9.9985485 
2.537388e+3, 2.932194e+2, -361786.28, -408150.56, -133806.9, 0.15488712, -0.2827927, -249168.2, -182736.1, 0.0, 9.998746, 9.99813 
2.536976e+3, 3.032087e+2, -199097.31, -344744.5, -78622.8, 0.20378378, -0.30417228, -164753.66, -164753.66, 0.0, 9.999672, 9.997796 
2.5365645e+3, 3.132043e+2, -268812.47, -16569.389, -81282.24, 0.051160093, 0.28925627, 7353.886, 7353.886, 0.0, 9.997592, 10.0010605 
2.5544375e+3, 1.2380177e+2, -1326422.6, -1699196.8, 158462.25, 0.7391539, 0.09960715, -1268166.3, 458543.84, 0.29081702, 10.004788, 9.997925 
2.554022e+3, 1.3378635e+2, -1440623.1, -1795270.8, 33175.156, 0.5011218, -0.3574581, -1437546.5, 191311.66, 0.20276809, 10.002735, 9.997469 
2.553608e+3, 1.4377554e+2, -1426039.4, -1671193.1, -46592.93, 0.44232735, -0.35529792, -1417482.8, 113484.74, 0.11625642, 10.001616, 9.998155 
2.5531945e+3, 1.5376787e+2, -1222447.1, -1555666.3, 26141.5, 0.5175202, -0.09724245, -1220408.8, 212647.17, 0.04988728, 10.002451, 9.997881 
2.552779e+3, 1.6375856e+2, -922868.56, -1159381.1, 61509.637, 0.4617183, -0.024666343, -907828.25, 427323.16, 0.013707004, 10.002894, 9.999741 
2.5523618e+3, 1.7374736e+2, -860930.75, -1075285.1, 48549.766, 0.23025212, -0.28077242, -850447.3, 386802.78, 0.0016894786, 10.002585, 9.9997835 
2.5519457e+3, 1.8373758e+2, -842925.94, -979645.4, 68624.22, 0.11649708, -0.37956858, -814423.25, 324915.97, 0.000027889511, 10.001902, 10.000079 
2.551532e+3, 1.9373038e+2, -947035.5, -999878.75, 56329.2, 0.15915354, -0.25386813, -911239.1, 130171.73, 0.0, 10.000606, 9.999898 
2.5511175e+3, 2.0372237e+2, -1001289.0, -1011846.9, -7909.013, 0.15506499, -0.16213775, -997059.0, -53567.8, 0.0, 9.999719, 9.999568 
2.5507015e+3, 2.1371302e+2, -955590.1, -976856.56, -18780.271, 0.07322607, -0.18986909, -944641.8, -99056.73, 0.0, 9.999508, 9.999246 
2.5502855e+3, 2.2370286e+2, -741724.6, -939794.56, -26691.291, 0.035214834, -0.21634033, -738190.8, 9495.7295, 0.0, 10.000809, 9.9982 
2.5498703e+3, 2.3369202e+2, -142506.42, -647722.06, -31464.178, 0.13927142, -0.24794877, -140554.4, 509240.44, 0.0, 10.004455, 9.997778 
2.5494555e+3, 2.4368145e+2, 73044.61, -456116.1, -11405.602, 0.236899, -0.22896329, 73290.336, 625189.2, 0.0, 10.005119, 9.998084 
2.5490406e+3, 2.536711e+2, -463922.3, -682021.3, -39793.7, 0.22681579, -0.2266323, -456888.5, -2891.2942, 0.0, 10.000822, 9.997936 
2.5486246e+3, 2.6366e+2, -677013.06, -682823.75, -176212.9, 0.19397955, -0.29141778, -503681.56, -147577.89, 0.0, 9.99846, 9.998402 
2.5482073e+3, 2.7364835e+2, -462180.3, -546567.94, -230135.81, 0.2201106, -0.46090636, -270402.3, -12185.356, 0.0, 9.999336, 9.998244 
2.5477916e+3, 2.8363895e+2, -261105.67, -340340.25, -73695.18, 0.21226554, -0.39853522, -217053.92, -56741.402, 0.0, 9.999809, 9.998751 
2.547378e+3, 2.9363224e+2, -239727.8, -313360.8, -20730.52, 0.09687836, -0.10733705, -234292.56, -171903.25, 0.0, 9.999415, 9.998464 
2.546968e+3, 3.0362225e+2, -259379.98, -309758.0, 32815.81, 0.2874273, -0.08916239, -243200.38, -243200.38, 0.0, 9.999008, 9.998344 
2.546553e+3, 3.1361294e+2, -324071.1, -163119.31, 40741.676, -0.01357433, -0.004373114, -153394.02, -153394.02, 0.0, 9.997742, 9.999982 
2.5644332e+3, 1.2421548e+2, -1273150.1, -1745055.0, -66105.5, 0.6376644, 0.03871673, -1264064.9, 458592.9, 0.26402992, 10.005542, 9.997107 
2.5640172e+3, 1.3419998e+2, -1425257.0, -1901086.8, -29826.355, 0.5332263, -0.36094147, -1423394.6, 201411.4, 0.18292515, 10.003361, 9.996414 
2.563602e+3, 1.4418831e+2, -1323685.8, -1510023.8, 37530.004, 0.50864375, -0.42437515, -1316411.0, 210511.73, 0.1037245, 10.001892, 9.9991455 
2.563189e+3, 1.5418142e+2, -1276142.3, -1453738.1, 25925.633, 0.60484374, -0.21169828, -1272435.0, 156564.53, 0.043632858, 10.001479, 9.999058 
2.5627738e+3, 1.6417333e+2, -1116906.6, -1276223.3, -15485.93, 0.52343524, -0.08024542, -1115415.4, 215666.5, 0.011545959, 10.001663, 9.999507 
2.562355e+3, 1.741634e+2, -941937.0, -1174558.6, -52578.75, 0.16631922, -0.183467, -930604.8, 302568.47, 0.0013158798, 10.002303, 9.999233 
2.561938e+3, 1.8415359e+2, -866346.8, -1055910.5, -95774.37, -0.009636759, -0.24296057, -826383.25, 308881.3, 0.000016496271, 10.002026, 9.9994955 
2.5615233e+3, 1.9414456e+2, -1042405.44, -1124817.1, -118278.69, 0.07401801, -0.25857875, -958360.44, 78989.33, 0.0, 10.000285, 9.999199 
2.561109e+3, 2.0413595e+2, -1047843.8, -1049187.4, -142157.89, 0.18635994, -0.19520018, -906356.1, 33077.953, 0.0, 9.999458, 9.999441 
2.5606948e+3, 2.1412769e+2, -947670.56, -980648.06, -140115.27, 0.32724798, -0.12701981, -823077.2, 18441.367, 0.0, 9.999598, 9.999177 
2.56028e+3, 2.2411738e+2, -855628.3, -988423.1, -40313.004, 0.28542775, -0.17697147, -844348.5, -100727.33, 0.0, 10.000007, 9.998252 
2.5598636e+3, 2.3410451e+2, -658805.25, -886033.8, -4640.1084, -0.036056615, -0.43943608, -658710.5, -12964.167, 0.0, 10.000871, 9.997868 
2.5594482e+3, 2.4409299e+2, -527648.56, -820142.06, -185237.19, -0.07310393, -0.4999023, -437884.9, 109973.92, 0.0, 10.001305, 9.997431 
2.559033e+3, 2.5408366e+2, -654755.5, -872041.7, -178957.56, 0.26236638, -0.3239207, -554044.5, -104093.586, 0.0, 9.99993, 9.997069 
2.5586167e+3, 2.640724e+2, -648886.3, -765745.9, -128171.11, 0.41439965, -0.3171367, -566454.9, -214392.9, 0.0, 9.9990635, 9.997545 
2.558199e+3, 2.740584e+2, -502244.94, -668115.56, -130758.42, 0.27888227, -0.62975895, -430338.28, -176138.66, 0.0, 9.999496, 9.997338 
2.557782e+3, 2.84049e+2, -241969.38, -263859.2, -19599.34, 0.107877925, -0.53695405, -230466.02, -74169.26, 0.0, 9.999636, 9.999367 
2.557367e+3, 2.940469e+2, -218851.72, -222940.31, 13769.9795, -0.06918068, 0.14402285, -206975.11, -148646.78, 0.0, 9.999211, 9.999184 
2.556959e+3, 3.0403945e+2, -230814.55, -202386.77, 15805.778, 0.38997313, 0.33686954, -195343.72, -195343.72, 0.0, 9.998794, 9.99919 
2.5565434e+3, 3.140214e+2, -255333.75, 43991.605, 48123.72, 0.07223746, -0.5383233, 51538.37, 51538.37, 0.0, 9.997494, 10.001511 
2.574428e+3, 1.2462009e+2, -1051771.8, -1413966.5, -144181.27, 0.35098502, -0.6341648, -1001385.9, 717302.6, 0.23823416, 10.006043, 9.999787 
2.5740105e+3, 1.3461314e+2, -1211806.8, -1481548.6, -78331.805, 0.3795356, -0.45577475, -1190709.6, 430040.06, 0.16394804, 10.0036335, 9.999349 
2.573594e+3, 1.4460401e+2, -1331414.0, -1566350.6, 54022.605, 0.3543674, -0.39569178, -1319587.1, 203252.64, 0.09188185, 10.002034, 9.998683 
2.5731787e+3, 1.5459302e+2, -1330751.0, -1558962.4, 25023.021, 0.31434935, -0.50897616, -1328039.5, 96917.1, 0.03784501, 10.001407, 9.99837 
2.5727642e+3, 1.6458392e+2, -1211967.9, -1436978.0, 20246.23, 0.2920846, -0.39099595, -1210160.6, 116890.3, 0.009625426, 10.001521, 9.998451 
2.57235e+3, 1.745768e+2, -979271.5, -1306575.6, -32126.934, 0.25267667, -0.09934744, -976147.9, 252973.58, 0.0010124295, 10.002546, 9.998195 
2.5719342e+3, 1.8456641e+2, -895443.5, -1160894.6, -195966.66, 0.22667664, -0.12457605, -791485.75, 339735.16, 0.000009793076, 10.002219, 9.998677 
2.571517e+3, 1.9455293e+2, -1097181.0, -1237579.5, -233133.88, 0.25877464, -0.49887133, -923906.75, 109440.914, 0.0, 10.000272, 9.998432 
2.571101e+3, 2.045424e+2, -1065856.9, -1087022.3, -179865.52, 0.27138254, -0.5821294, -896263.0, 39185.88, 0.0, 9.999449, 9.9991865 
2.5706854e+3, 2.1453519e+2, -909752.44, -985088.5, -190906.56, 0.27206337, -0.38869032, -752833.25, 84688.08, 0.0, 9.999951, 9.998973 
2.5702703e+3, 2.245268e+2, -929157.7, -965881.9, -161533.73, 0.21974899, -0.26858124, -784945.75, -45338.195, 0.0, 9.999264, 9.998748 
2.5698546e+3, 2.3451695e+2, -1166131.8, -1067913.3, -135705.31, 0.07416773, -0.2857205, -972704.6, -330994.47, 0.0, 9.997114, 9.998421 
2.569439e+3, 2.4450754e+2, -1033589.56, -861015.75, -193653.0, 0.05926065, -0.2571936, -735295.75, -191491.58, 0.0, 9.996964, 9.999235 
2.5690234e+3, 2.5449917e+2, -628617.3, -657864.25, -112734.34, 0.24923815, -0.16473378, -529561.94, -83678.13, 0.0, 9.999239, 9.998871 
2.568607e+3, 2.6448897e+2, -413674.88, -557923.1, -29074.285, 0.32905594, -0.18023272, -408035.22, -60052.85, 0.0, 10.000293, 9.998367 
2.5681892e+3, 2.744763e+2, -411515.6, -545263.44, 16565.285, 0.23951852, -0.4146378, -409494.44, -159388.73, 0.0, 9.999793, 9.99803 
2.5677723e+3, 2.84466e+2, -303137.06, -316591.22, 145323.69, 0.06318719, -0.4190916, -164384.84, -12174.612, 0.0, 9.999323, 9.999148 
2.5673568e+3, 2.9446033e+2, -313937.4, -310821.66, 127360.08, -0.14931588, -0.040022574, -185009.94, -130734.72, 0.0, 9.998738, 9.998807 
2.566948e+3, 3.044532e+2, -411502.28, -302827.97, 62150.83, 0.31815183, 0.21998268, -274610.56, -274610.56, 0.0, 9.99761, 9.999067 
2.5665304e+3, 3.1443527e+2, -321314.53, 223603.98, -79121.74, -0.003925553, -0.6350667, 234859.89, 234859.89, 0.0, 9.996132, 10.003394 
2.5844216e+3, 1.250337e+2, -1430389.6, -1520294.4, -39616.59, 0.15302998, -0.7067725, -1415423.8, 299208.06, 0.21372838, 10.002169, 10.000621 
2.5840044e+3, 1.3502836e+2, -1341960.9, -1466138.3, -97719.99, 0.34384137, -0.45949918, -1288273.0, 328404.66, 0.14603144, 10.00211, 10.000187 
2.5835878e+3, 1.4501955e+2, -1309339.8, -1647113.1, 19625.418, 0.34705165, -0.37169006, -1308203.3, 210561.36, 0.0808275, 10.002594, 9.997847 
2.5831717e+3, 1.5500677e+2, -1075080.8, -1538711.5, -17677.799, 0.2035507, -0.5931231, -1074407.6, 346490.25, 0.032553293, 10.003688, 9.997409 
2.5827572e+3, 1.6499682e+2, -955556.8, -1367153.6, 19076.992, 0.2038889, -0.49452278, -954674.5, 368326.1, 0.007938516, 10.003526, 9.997967 
2.5823447e+3, 1.7499027e+2, -1079374.8, -1427628.5, 43041.19, 0.3389182, -0.09671564, -1074134.1, 150933.38, 0.00076767127, 10.00218, 9.997543 
2.5819293e+3, 1.8497914e+2, -997196.44, -1306278.3, -149984.98, 0.41311672, -0.10913598, -936380.9, 190795.78, 0.000005913737, 10.001943, 9.997811 
2.5815108e+3, 1.9496326e+2, -900542.2, -1246674.1, -187340.8, 0.412111, -0.63298404, -818562.25, 210766.78, 0.0, 10.002084, 9.997494 
2.581093e+3, 2.0495142e+2, -787201.56, -967392.0, -84706.86, 0.33577263, -0.7828243, -753634.3, 177807.66, 0.0, 10.001435, 9.999051 
2.580676e+3, 2.1494412e+2, -907489.9, -1012691.2, -79983.12, 0.17070805, -0.575666, -864361.1, -30849.2, 0.0, 10.000092, 9.998722 
2.58026e+3, 2.2493687e+2, -888365.0, -905324.5, -126485.695, 0.13324174, -0.33250415, -770075.1, -34486.684, 0.0, 9.999359, 9.999127 
2.5798446e+3, 2.3492983e+2, -928775.3, -911198.1, -123653.695, 0.20026658, -0.10443342, -796021.1, -158350.75, 0.0, 9.998564, 9.998804 
2.5794291e+3, 2.4492253e+2, -689115.4, -468380.9, -96062.98, 0.21904965, 0.019811537, -432429.9, 107315.79, 0.0, 9.998346, 10.001268 
2.5790134e+3, 2.5491518e+2, -537476.2, -387559.4, -57741.508, 0.1832392, 0.0068151196, -367898.3, 73913.98, 0.0, 9.998896, 10.000894 
2.578597e+3, 2.649065e+2, -474363.63, -469332.94, -100794.88, 0.1646044, -0.01539442, -371022.03, -27128.432, 0.0, 9.999352, 9.999438 
2.5781795e+3, 2.7489638e+2, -433592.5, -440942.34, -50417.383, 0.14183971, -0.11031471, -386716.28, -140726.48, 0.0, 9.999139, 9.999066 
2.5777626e+3, 2.8488514e+2, -393533.3, -448889.25, 83891.93, 0.023111597, -0.2378348, -332871.44, -184769.31, 0.0, 9.999071, 9.998368 
2.5773466e+3, 2.9487327e+2, -364961.4, -433891.38, 89211.05, -0.21149836, -0.3992622, -303789.34, -253564.38, 0.0, 9.998799, 9.99794 
2.576935e+3, 3.048655e+2, -407454.3, -348625.06, -14281.065, 0.10423304, -0.13953477, -345341.56, -345341.56, 0.0, 9.997832, 9.99865 
2.576521e+3, 3.1485716e+2, -375024.0, -3403.989, -102882.96, 0.28576067, 0.015248728, 23177.771, 23177.771, 0.0, 9.996602, 10.001624 
2.5944147e+3, 1.2545672e+2, -1496789.8, -1711508.8, -18729.781, 0.08218798, -0.18698408, -1495168.3, 215316.86, 0.1907639, 10.002362, 9.998872 
2.5939995e+3, 1.3544513e+2, -1441590.5, -1695201.1, -80898.71, 0.5223911, -0.3657593, -1417982.4, 194615.45, 0.1293233, 10.0021105, 9.998467 
2.5935847e+3, 1.4543454e+2, -1321338.1, -1745356.8, 90316.32, 0.629636, -0.32265663, -1302902.3, 211802.89, 0.07062257, 10.002878, 9.997047 
2.5931704e+3, 1.5542449e+2, -999055.25, -1566844.1, 43402.59, 0.4986838, -0.17952412, -995756.7, 421054.4, 0.027766839, 10.004491, 9.996825 
2.592755e+3, 1.6541366e+2, -761276.06, -1120745.8, -27958.832, 0.417677, -0.21209426, -759114.5, 559802.6, 0.0064744665, 10.00419, 9.99935 
2.5923392e+3, 1.7540282e+2, -971196.8, -1226635.9, 20603.799, 0.39863938, -0.36972827, -969545.56, 251472.14, 0.0005723583, 10.002261, 9.99889 
2.5919226e+3, 1.8539248e+2, -1040482.5, -1423496.5, -39364.91, 0.4170159, -0.3171833, -1036478.56, 86644.68, 0.0000035552432, 10.00205, 9.996957 
2.5915053e+3, 1.953822e+2, -763873.44, -1259849.5, -77241.14, 0.45319805, -0.18587014, -752122.6, 273113.03, 0.0, 10.003352, 9.996793 
2.5910872e+3, 2.0537181e+2, -560536.8, -795921.25, -79541.11, 0.38158658, -0.18012016, -536178.9, 391158.47, 0.0, 10.002735, 9.999601 
2.5906682e+3, 2.1536203e+2, -824871.3, -917405.8, -54277.11, 0.22571331, -0.25313273, -799817.7, 29607.037, 0.0, 10.000411, 9.999231 
2.5902513e+3, 2.253522e+2, -838895.44, -895191.5, 5385.415, 0.15042369, -0.27533653, -838384.9, -106865.59, 0.0, 9.999765, 9.998992 
2.5898358e+3, 2.3534259e+2, -634216.25, -775958.0, -8230.137, 0.1548445, -0.27567494, -633740.0, -122.195076, 0.0, 10.000611, 9.998739 
2.5894198e+3, 2.4533388e+2, -480295.72, -436415.03, -72467.75, 0.20201692, -0.25099275, -382639.1, 153065.3, 0.0, 10.000083, 10.000645 
2.589004e+3, 2.55326e+2, -659162.94, -504348.72, -113645.17, 0.27133396, -0.2533168, -444252.78, -6473.3916, 0.0, 9.998316, 10.000365 
2.588587e+3, 2.6531813e+2, -675867.0, -506650.38, -161597.84, 0.21837568, -0.19724491, -408851.38, -68995.21, 0.0, 9.997739, 9.999942 
2.5881687e+3, 2.7531028e+2, -543561.1, -435740.53, -142594.16, 0.104002304, -0.12534165, -337206.03, -95271.9, 0.0, 9.99814, 9.999573 
2.5877535e+3, 2.8530052e+2, -429875.7, -406608.75, 3165.8127, 0.07055341, -0.15997669, -406185.7, -262153.47, 0.0, 9.998594, 9.998874 
2.5873393e+3, 2.9528913e+2, -293596.47, -337943.4, 38801.496, 0.033451054, -0.3311889, -271079.7, -224931.22, 0.0, 9.999047, 9.998468 
2.586926e+3, 3.0528042e+2, -214295.4, -279315.16, -62953.67, 0.17141472, -0.18392296, -175952.9, -175952.9, 0.0, 9.999273, 9.998431 
2.5865144e+3, 3.1527498e+2, 9451.036, 316517.53, 73265.875, 0.6988687, 0.28570482, 333102.9, 333102.9, 0.0, 9.998676, 10.002816 
2.604409e+3, 1.2587285e+2, -1473067.4, -1889677.1, -77223.54, 0.109688245, -0.25059426, -1459213.8, 247185.47, 0.16948585, 10.003339, 9.997183 
2.603995e+3, 1.3586052e+2, -1096350.3, -1707937.4, -115861.234, 0.5698486, -0.35921156, -1075136.9, 533390.5, 0.11390971, 10.005619, 9.996684 
2.603581e+3, 1.4584939e+2, -1056503.1, -1636042.6, 51415.48, 0.7182056, -0.28211442, -1051977.0, 458665.2, 0.061296403, 10.004906, 9.99681 
2.603167e+3, 1.5583973e+2, -1305043.9, -1739358.0, 62559.105, 0.6418894, -0.084704146, -1296212.4, 116530.29, 0.023481611, 10.002414, 9.996648 
2.6027507e+3, 1.658287e+2, -1084832.9, -1196826.8, -65745.2, 0.541884, -0.1693647, -1054469.6, 260379.08, 0.005220199, 10.001612, 10.000068 
2.6023328e+3, 1.7581645e+2, -1064725.6, -1216227.3, -80197.01, 0.43010852, -0.5462454, -1030159.8, 186800.78, 0.00041937284, 10.00139, 9.999385 
2.601916e+3, 1.8580721e+2, -1107697.5, -1507751.4, -51178.38, 0.41760013, -0.38668722, -1101254.1, 17805.154, 0.0000020172258, 10.001806, 9.996505 
2.6015002e+3, 1.9580068e+2, -904497.3, -1373062.4, -43412.504, 0.46873415, 0.16010419, -900509.1, 120635.13, 0.0, 10.002579, 9.996397 
2.6010814e+3, 2.0579134e+2, -583536.5, -779212.7, -154287.86, 0.41091692, 0.2705549, -498680.75, 424556.63, 0.0, 10.002465, 9.99984 
2.6006606e+3, 2.1578e+2, -706130.2, -838840.4, -148480.75, 0.26946726, 0.008845671, -609852.2, 215483.73, 0.0, 10.001153, 9.999407 
2.6002428e+3, 2.2576803e+2, -701774.8, -848405.06, -2269.6475, 0.15100345, -0.22961958, -701739.7, 25704.904, 0.0, 10.000789, 9.998827 
2.599827e+3, 2.3575577e+2, -596036.1, -782708.06, 981.70605, 0.048591483, -0.48155794, -596030.94, 33528.58, 0.0, 10.000982, 9.998522 
2.599411e+3, 2.4574523e+2, -542066.4, -598782.1, -144414.75, 0.14685003, -0.572513, -423251.6, 108409.98, 0.0, 10.000229, 9.999465 
2.598995e+3, 2.557362e+2, -727833.9, -667171.1, -169054.39, 0.36482713, -0.56915253, -525748.7, -91997.61, 0.0, 9.998402, 9.999212 
2.5985768e+3, 2.6572874e+2, -610191.44, -453512.7, -143951.16, 0.28800845, -0.43025854, -367964.94, -32136.727, 0.0, 9.99809, 10.000144 
2.5981578e+3, 2.7572247e+2, -469759.9, -377530.88, -123318.61, 0.032159727, -0.22243899, -291986.63, -54091.426, 0.0, 9.998548, 9.999784 
2.5977445e+3, 2.8571478e+2, -351457.22, -265165.9, 480.44995, 0.14378574, -0.11234462, -265163.25, -125188.87, 0.0, 9.998666, 9.999825 
2.5973335e+3, 2.9570618e+2, -316155.38, -258563.88, 34484.105, 0.3816523, -0.09997171, -242433.6, -200372.17, 0.0, 9.998487, 9.999294 
2.5969175e+3, 3.056964e+2, -264852.06, -320361.03, -85234.61, 0.29140157, -0.09326909, -202967.0, -202967.0, 0.0, 9.998992, 9.998288 
2.5964993e+3, 3.156836e+2, -286344.75, -326207.34, 22958.148, 0.15834431, -0.33758828, -275873.2, -275873.2, 0.0, 9.9988, 9.998339 
2.6144052e+3, 1.2628087e+2, -1481909.4, -2066592.6, 28063.291, 0.2278273, -1.0142505, -1480565.5, 221819.38, 0.14987561, 10.003901, 9.995696 
2.613991e+3, 1.3627431e+2, -1051233.4, -1807111.6, -34120.586, 0.4168269, -0.38467997, -1049696.3, 554770.44, 0.09979446, 10.0064, 9.995612 
2.6135752e+3, 1.4626278e+2, -934345.06, -1466909.1, -38692.426, 0.48566845, -0.35445434, -931548.6, 575036.9, 0.052857105, 10.005291, 9.99779 
2.613159e+3, 1.5624875e+2, -1282308.9, -1625939.6, -14564.748, 0.49943197, -0.6805428, -1281692.8, 127029.9, 0.019694533, 10.002113, 9.997572 
2.6127425e+3, 1.6623949e+2, -1227493.9, -1362674.4, -32735.004, 0.48828766, -0.584284, -1219984.0, 90833.07, 0.004163879, 10.001044, 9.999193 
2.6123255e+3, 1.7623286e+2, -1117448.3, -1318628.0, -72475.44, 0.45568874, -0.30842087, -1094058.3, 118828.92, 0.00030229846, 10.00136, 9.998686 
2.6119098e+3, 1.8622339e+2, -1018417.56, -1349539.3, -24448.338, 0.46240455, -0.1964662, -1016622.1, 98364.87, 0.0000010444409, 10.001917, 9.997533 
2.6114944e+3, 1.9621277e+2, -836623.06, -1233764.1, -5852.98, 0.5056614, -0.15196636, -836536.8, 180563.42, 0.0, 10.002562, 9.997361 
2.6110753e+3, 2.0620248e+2, -633076.7, -899639.1, -156956.08, 0.40569738, -0.13386092, -560447.5, 358753.38, 0.0, 10.002531, 9.99898 
2.6106533e+3, 2.1619235e+2, -618510.75, -868335.2, -175896.38, 0.22321193, -0.1888334, -527685.6, 293607.63, 0.0, 10.002061, 9.998756 
2.6102352e+3, 2.2618206e+2, -509761.0, -685094.7, -11893.647, 0.112610646, -0.26746768, -508957.9, 214430.53, 0.0, 10.001809, 9.99945 
2.6098198e+3, 2.3617168e+2, -461869.4, -659845.25, -6757.3784, 0.057731126, -0.3888712, -461639.03, 163846.23, 0.0, 10.00165, 9.999037 
2.6094025e+3, 2.4616139e+2, -550479.56, -700485.1, -188163.11, 0.13760738, -0.4272496, -422921.8, 104665.25, 0.0, 10.000597, 9.998586 
2.608984e+3, 2.561515e+2, -698158.4, -739084.4, -195667.36, 0.30330795, -0.41921815, -521886.9, -92198.23, 0.0, 9.998968, 9.998447 
2.6085663e+3, 2.6614276e+2, -510061.2, -418420.1, -90075.61, 0.22426446, -0.3586403, -363180.56, -31404.082, 0.0, 9.998847, 10.000013 
2.6081482e+3, 2.761351e+2, -320591.34, -313877.63, -93009.4, 0.026571942, -0.2746886, -224164.53, 9688.822, 0.0, 9.999617, 9.9997 
2.6077342e+3, 2.861273e+2, -331079.8, -239788.27, -63884.426, 0.1013826, -0.17962833, -206918.08, -70984.53, 0.0, 9.998757, 9.999943 
2.607321e+3, 2.9611963e+2, -551693.8, -336899.97, -60252.223, 0.2696682, -0.08923754, -321152.97, -283139.6, 0.0, 9.9967375, 9.999589 
2.6069054e+3, 3.0611077e+2, -324487.38, -166747.47, -31121.016, 0.11220498, -0.09706137, -160829.53, -160829.53, 0.0, 9.99782, 9.9998865 
2.6064867e+3, 3.1610155e+2, -41503.754, -317692.94, 2682.3635, -0.25149882, -0.12042819, -41477.703, -41477.703, 0.0, 10.000984, 9.997323 
2.6244017e+3, 1.2669533e+2, -1313615.3, -1873570.3, -45428.96, 0.2934675, -1.0288672, -1309953.5, 388374.0, 0.13183376, 10.004813, 9.996557 
2.6239866e+3, 1.3669002e+2, -1380334.1, -1911885.6, 51713.145, 0.30467862, -0.36648467, -1375349.9, 225043.05, 0.08692892, 10.003589, 9.996239 
2.6235694e+3, 1.466782e+2, -1222235.3, -1562507.1, -7988.896, 0.33378416, -0.4061424, -1222047.8, 280464.0, 0.04528473, 10.002973, 9.998252 
2.6231518e+3, 1.5666266e+2, -1248993.1, -1585998.5, -10290.073, 0.41165128, -0.9194415, -1248679.3, 155981.6, 0.01638905, 10.00226, 9.997781 
2.622735e+3, 1.6665412e+2, -1085573.0, -1423965.9, 29764.943, 0.42649975, -0.68906677, -1082974.8, 223778.7, 0.0032885466, 10.002567, 9.998048 
2.6223186e+3, 1.7664984e+2, -909025.9, -1315092.0, -21468.66, 0.400711, -0.07064894, -907894.0, 300917.0, 0.00021471751, 10.003205, 9.997831 
2.621903e+3, 1.8663958e+2, -759712.4, -1098833.3, 13562.58, 0.43596965, -0.062626645, -759170.8, 351743.9, 0.00000047553752, 10.003163, 9.9986515 
2.6214883e+3, 1.9662605e+2, -773910.5, -1118861.9, 26811.717, 0.49713695, -0.41771433, -771838.94, 241205.78, 0.0, 10.002647, 9.998108 
2.6210687e+3, 2.0661496e+2, -641853.94, -991162.6, -120163.21, 0.3715293, -0.4659267, -604509.9, 310641.53, 0.0, 10.002841, 9.998206 
2.620646e+3, 2.1660547e+2, -541450.4, -909607.0, -103107.95, 0.13572761, -0.37442532, -514540.34, 302702.16, 0.0, 10.002927, 9.998064 
2.6202282e+3, 2.2659667e+2, -449869.44, -620432.5, 14703.243, 0.06711844, -0.28688505, -448611.25, 270715.7, 0.0, 10.0020685, 9.999771 
2.6198128e+3, 2.3658833e+2, -618674.8, -724243.6, -42638.063, 0.07767648, -0.23892617, -603605.0, 17801.77, 0.0, 10.00053, 9.999142 
2.619394e+3, 2.4657856e+2, -635812.3, -831120.4, -254019.25, 0.12033119, -0.18887483, -461322.8, 62183.87, 0.0, 10.000393, 9.997788 
2.6189733e+3, 2.5656807e+2, -564741.56, -757914.25, -225066.78, 0.17212583, -0.1621372, -416411.66, 9205.29, 0.0, 10.0002365, 9.997713 
2.6185557e+3, 2.6655778e+2, -381373.2, -392618.25, -68144.99, 0.12547134, -0.21582244, -318619.16, 9098.544, 0.0, 9.99988, 9.999699 
2.6181394e+3, 2.7654788e+2, -363220.06, -376017.47, -86471.625, 0.02471258, -0.32413968, -282910.72, -53100.277, 0.0, 9.999499, 9.999336 
2.6177227e+3, 2.865394e+2, -350693.72, -272315.13, -141418.2, -0.04667119, -0.27083915, -164756.64, -32859.477, 0.0, 9.99872, 9.999742 
2.6173055e+3, 2.9653177e+2, -473149.25, -287838.28, -92802.43, -0.12695019, -0.16038015, -249355.17, -215375.61, 0.0, 9.997218, 9.999703 
2.6168922e+3, 3.0652443e+2, -151496.69, 154426.23, 67031.305, -0.14637132, -0.14599529, 168468.98, 168468.98, 0.0, 9.997954, 10.0020485 
2.6164818e+3, 3.165213e+2, 141165.16, 188410.56, -15755.234, -0.013703645, 0.21595709, 193182.58, 193182.58, 0.0, 10.000383, 10.001123 
2.6343983e+3, 1.2711672e+2, -1012708.4, -1333944.8, -82958.33, 0.30666506, -0.23813166, -992549.7, 701675.5, 0.11528253, 10.005221, 10.000391 
2.6339808e+3, 1.3710731e+2, -1177404.6, -1469307.9, 24436.932, 0.2718911, -0.3483677, -1175373.0, 420937.22, 0.075249024, 10.003527, 9.999389 
2.6335636e+3, 1.4709714e+2, -1259994.1, -1606995.4, 18326.545, 0.3353404, -0.3339304, -1259028.9, 239380.38, 0.03852915, 10.002792, 9.998036 
2.633146e+3, 1.570863e+2, -1227490.1, -1614234.6, 28884.447, 0.45829585, -0.34546596, -1225344.8, 175172.55, 0.013527696, 10.002579, 9.997425 
2.6327288e+3, 1.6707583e+2, -1085205.9, -1577685.4, 101311.06, 0.3570264, -0.20730115, -1065178.9, 237453.64, 0.0025719018, 10.003224, 9.996684 
2.6323116e+3, 1.7706618e+2, -817808.56, -1352750.0, 33527.508, 0.16385959, 0.01566477, -815715.4, 389028.8, 0.00015054179, 10.004169, 9.99711 
2.631896e+3, 1.8705605e+2, -578713.6, -871697.94, 17604.414, 0.22369593, -0.006734175, -577659.6, 529182.75, 0.0000001940375, 10.003812, 9.999893 
2.6314816e+3, 1.9704542e+2, -654000.3, -935450.7, 38171.727, 0.3861954, -0.18406321, -648915.2, 360022.1, 0.0, 10.002925, 9.999232 
2.6310623e+3, 2.0703465e+2, -564170.94, -909312.06, -36977.6, 0.29921764, -0.26384836, -560253.7, 350784.13, 0.0, 10.0032015, 9.998584 
2.6306406e+3, 2.1702412e+2, -393461.78, -832624.75, -13119.809, 0.09933896, -0.2970836, -393070.16, 420067.9, 0.0, 10.0039215, 9.998105 
2.6302218e+3, 2.2701402e+2, -529443.2, -859775.25, -13451.615, 0.07729322, -0.22524919, -528896.3, 186344.0, 0.0, 10.002384, 9.997977 
2.629805e+3, 2.3700443e+2, -822016.56, -979126.44, -104189.82, 0.14818339, -0.12254371, -770086.25, -152746.36, 0.0, 9.999808, 9.997733 
2.6293862e+3, 2.4699461e+2, -623789.1, -816280.75, -187180.45, 0.1809106, -0.0187484, -509559.8, 9880.906, 0.0, 10.000449, 9.997856 
2.628967e+3, 2.5698468e+2, -230827.8, -591351.25, -160100.95, 0.20725021, 0.060601752, -169994.92, 251547.56, 0.0, 10.00252, 9.997743 
2.6285484e+3, 2.6697358e+2, -166720.53, -381692.2, -105540.1, 0.16166715, -0.025149351, -123568.0, 200083.48, 0.0, 10.00174, 9.998885 
2.6281312e+3, 2.769623e+2, -393118.94, -440121.66, -134886.9, 0.10061142, -0.18753144, -279701.38, -53941.832, 0.0, 9.999497, 9.9988985 
2.6277128e+3, 2.8695416e+2, -255676.86, -137351.95, -126240.734, -0.081581034, -0.12998536, -57098.05, 70742.41, 0.0, 9.998991, 10.00053 
2.6272932e+3, 2.9694745e+2, -147831.97, -80730.31, -43499.164, -0.32624638, 0.0029238174, -59346.31, -29436.68, 0.0, 9.999245, 10.000141 
2.6268828e+3, 3.0693856e+2, -210202.69, -8992.476, 30029.322, -0.047316946, -0.07526387, -4606.403, -4606.403, 0.0, 9.998153, 10.000821 
2.626476e+3, 3.1693372e+2, -404330.78, 75583.445, -254321.83, 0.50862896, 0.18990724, 185281.88, 185281.88, 0.0, 9.996006, 10.002448 
2.6443925e+3, 1.2753525e+2, -1281936.9, -1359323.1, 2621.2776, 0.17739886, 0.05296809, -1281848.1, 408287.72, 0.10016496, 10.002614, 10.0014 
2.643975e+3, 1.3752393e+2, -1195086.4, -1395653.4, -76379.266, 0.22612673, -0.3589348, -1169312.1, 422920.9, 0.06469119, 10.003018, 10.000147 
2.6435575e+3, 1.4751492e+2, -1097415.4, -1514933.4, -87597.15, 0.310073, -0.27977115, -1079781.9, 414537.66, 0.03253044, 10.00389, 9.998125 
2.6431403e+3, 1.5750688e+2, -962607.7, -1510184.9, -39925.246, 0.4217437, -0.033711012, -959711.94, 436690.28, 0.011066901, 10.004522, 9.997202 
2.6427227e+3, 1.6749553e+2, -1125081.9, -1654568.6, 86575.93, 0.28589797, 0.050377015, -1111285.4, 187241.86, 0.0019930317, 10.003214, 9.996155 
2.642305e+3, 1.7748296e+2, -1283835.0, -1617856.4, 96196.66, 0.034891732, 0.03665618, -1258111.8, -57444.184, 0.00010503105, 10.001151, 9.996751 
2.6418892e+3, 1.8747309e+2, -876238.75, -945983.94, 52240.977, 0.09150722, 0.016980441, -848300.4, 254459.16, 0.00000008640195, 10.001467, 10.000512 
2.6414743e+3, 1.9746448e+2, -736444.4, -934465.44, 13473.051, 0.27390048, -0.022614365, -735531.94, 269298.63, 0.0, 10.0021925, 9.999594 
2.6410556e+3, 2.0745403e+2, -673845.56, -952064.4, -78973.914, 0.22242051, -0.09437616, -652991.5, 253936.11, 0.0, 10.002417, 9.998659 
2.6406354e+3, 2.1744289e+2, -651263.5, -997142.8, -107652.086, 0.06831282, -0.207681, -620494.8, 188539.81, 0.0, 10.002332, 9.997743 
2.6402155e+3, 2.2743168e+2, -769687.56, -1151211.8, -141147.63, 0.09397187, -0.14833453, -723146.44, -11994.764, 0.0, 10.001483, 9.996416 
2.6397964e+3, 2.3742068e+2, -921578.0, -1177599.1, -109117.17, 0.18242468, -0.02891804, -881382.56, -268111.94, 0.0, 9.999771, 9.996398 
2.6393786e+3, 2.4741071e+2, -616026.2, -793933.1, -49186.332, 0.24141307, 0.104796134, -603333.2, -87961.125, 0.0, 10.000419, 9.998022 
2.638961e+3, 2.5740123e+2, -354128.5, -665171.6, -62579.32, 0.26377988, 0.21553713, -342010.2, 75455.81, 0.0, 10.001733, 9.99762 
2.638542e+3, 2.6738966e+2, -401470.47, -600489.4, -141212.22, 0.21400104, 0.14844723, -328228.6, -8647.031, 0.0, 10.000581, 9.997941 
2.6381224e+3, 2.7737752e+2, -620517.6, -607254.5, -135677.45, 0.14474112, -0.008945531, -478046.66, -256343.8, 0.0, 9.998178, 9.998395 
2.6377028e+3, 2.873701e+2, -286704.1, -39467.977, -78762.695, -0.084245086, 0.08034441, -16508.459, 107264.914, 0.0, 9.998291, 10.001543 
2.6372826e+3, 2.9736462e+2, -164683.67, -71352.83, -32473.297, -0.4529199, 0.24827875, -61166.016, -35342.434, 0.0, 9.999049, 10.000306 
2.6368746e+3, 3.073528e+2, -425939.2, -435220.88, -21335.16, 0.18495218, 0.045285054, -408745.97, -408745.97, 0.0, 9.998044, 9.997959 
2.6364622e+3, 3.1734067e+2, -403344.22, 127985.875, -276998.94, 0.35940528, -0.1604083, 246125.89, 246125.89, 0.0, 9.995813, 10.0028925 
2.6543838e+3, 1.2795039e+2, -1410230.8, -1681174.5, 54056.805, -0.10966633, -0.23817082, -1399843.9, 286219.16, 0.086422466, 10.002807, 9.99886 
2.6539692e+3, 1.3793944e+2, -1258296.5, -1595132.8, -37074.383, 0.18213505, -0.35734555, -1254264.1, 333902.72, 0.055196896, 10.003286, 9.998555 
2.6535523e+3, 1.4792944e+2, -989967.44, -1372739.6, -33003.8, 0.22905335, -0.3637408, -987142.56, 503120.44, 0.027234627, 10.004248, 9.99894 
2.653135e+3, 1.5792008e+2, -786461.2, -1308000.6, -25740.816, 0.23908651, -0.3266059, -785193.8, 607161.0, 0.008968034, 10.00523, 9.998244 
2.652717e+3, 1.6791077e+2, -1030962.9, -1444209.9, 2506.993, 0.2659904, -0.16337776, -1030947.6, 263507.9, 0.0015322798, 10.0031805, 9.997603 
2.6522988e+3, 1.7790122e+2, -1341169.5, -1534538.1, 83684.76, 0.26427087, 0.0012374953, -1309982.8, -113421.82, 0.00007382683, 10.00028, 9.997738 
2.6518828e+3, 1.8789014e+2, -1060489.6, -1147635.6, 150256.88, 0.24830306, -0.10853813, -947615.44, 151047.42, 0.000000036839044, 10.000683, 9.99951 
2.6514676e+3, 1.9787899e+2, -821930.44, -1091011.0, 52365.64, 0.24269618, -0.29468724, -812098.8, 188660.84, 0.0, 10.002107, 9.998549 
2.6510486e+3, 2.0786843e+2, -824637.8, -1175392.6, -116401.25, 0.17484991, -0.24976194, -789524.2, 113341.95, 0.0, 10.002038, 9.997298 
2.650628e+3, 2.1785812e+2, -804923.6, -1112486.1, -186606.25, 0.0909493, -0.15715474, -716898.0, 88076.414, 0.0, 10.001452, 9.99737 
2.650208e+3, 2.2784805e+2, -717764.2, -894893.0, -177992.47, 0.14152135, -0.10494014, -607519.7, 99555.55, 0.0, 10.000849, 9.998483 
2.6497883e+3, 2.37838e+2, -747138.6, -926532.5, -39293.203, 0.24906929, -0.07676106, -738909.56, -129734.61, 0.0, 10.000237, 9.997899 
2.6493713e+3, 2.4782683e+2, -616585.4, -804552.0, 92326.32, 0.3442963, -0.09982767, -578822.6, -67538.98, 0.0, 10.000458, 9.997932 
2.648955e+3, 2.578156e+2, -501666.8, -744050.7, 30021.924, 0.4186073, -0.13514593, -498003.63, -84611.28, 0.0, 10.0007515, 9.997545 
2.6485333e+3, 2.6780498e+2, -715501.3, -775175.25, -127380.19, 0.29797536, -0.077455826, -614510.3, -299008.47, 0.0, 9.998562, 9.997696 
2.64811e+3, 2.7779457e+2, -1007768.4, -823719.06, -45933.88, 0.16331375, -0.022471394, -812892.1, -595281.0, 0.0, 9.995662, 9.998116 
2.6476923e+3, 2.877855e+2, -575040.5, -276884.22, 102659.16, -0.012255815, -0.02085594, -244956.28, -125258.61, 0.0, 9.996726, 10.000674 
2.6472747e+3, 2.9777753e+2, -230883.22, -173436.47, 31385.193, -0.28655815, -0.009479965, -159615.02, -137844.48, 0.0, 9.998902, 9.999668 
2.6468658e+3, 3.0776757e+2, -536856.0, -491194.72, -3579.4644, 0.36959875, 0.00444723, -490915.84, -490915.84, 0.0, 9.997312, 9.997919 
2.6464438e+3, 3.1775546e+2, -483445.2, 88642.43, -69014.805, -0.1214502, -0.17061087, 96850.39, 96850.39, 0.0, 9.995294, 10.002867 
2.6643783e+3, 1.2836854e+2, -1426843.9, -1867938.4, 93657.945, -0.12428698, -0.30046314, -1407781.3, 274182.1, 0.07399092, 10.003427, 9.997273 
2.6639646e+3, 1.3835709e+2, -1332759.8, -1751907.1, 79685.39, 0.23662145, -0.32456827, -1318121.8, 265956.9, 0.04670818, 10.003235, 9.997512 
2.663547e+3, 1.4834641e+2, -1202956.6, -1414412.4, 93660.016, 0.22352943, -0.39137855, -1167438.0, 318742.9, 0.02259154, 10.002456, 9.999515 
2.6631293e+3, 1.5833622e+2, -1274312.8, -1498444.0, 62581.168, 0.14962293, -0.4788678, -1258023.0, 130254.4, 0.0071953842, 10.001655, 9.998663 
2.662711e+3, 1.6832782e+2, -980305.8, -1343860.4, -10426.769, 0.2410938, -0.27775574, -980007.0, 310359.0, 0.001170623, 10.003174, 9.998304 
2.662293e+3, 1.7831986e+2, -737660.06, -1214439.9, 34768.7, 0.3616878, -0.030936928, -735137.94, 457314.2, 0.00005271245, 10.004305, 9.997999 
2.6618767e+3, 1.8830766e+2, -772321.5, -1094450.4, 156135.13, 0.34180605, -0.21717584, -709064.9, 385499.0, 0.000000014947995, 10.003058, 9.99872 
2.661461e+3, 1.9829446e+2, -1023651.75, -1299289.9, 84625.01, 0.26168382, -0.5223494, -999744.25, -3062.1316, 0.0, 10.001215, 9.997552 
2.6610413e+3, 2.0828395e+2, -1086638.5, -1394732.4, -27522.053, 0.16046162, -0.37855873, -1084199.3, -185405.39, 0.0, 10.000636, 9.996472 
2.6606202e+3, 2.1827443e+2, -997313.1, -1215703.4, -22165.389, 0.071989626, -0.11963414, -995086.2, -194184.95, 0.0, 10.000187, 9.997273 
2.6602003e+3, 2.2826512e+2, -553241.0, -608575.5, -75518.69, 0.16506515, -0.09508996, -500480.94, 202508.1, 0.0, 10.0011015, 10.000315 
2.6597807e+3, 2.3825577e+2, -447003.8, -646593.25, -30114.043, 0.30054602, -0.17132448, -442559.2, 162512.84, 0.0, 10.001734, 9.999098 
2.6593643e+3, 2.4824335e+2, -579824.2, -803616.56, 80882.78, 0.42872322, -0.35151368, -553652.4, -46463.617, 0.0, 10.000798, 9.997773 
2.658948e+3, 2.5823033e+2, -707189.3, -872204.94, -11855.238, 0.52058154, -0.55236006, -706341.94, -297028.56, 0.0, 9.99947, 9.997291 
2.6585233e+3, 2.682208e+2, -659655.4, -768998.56, -235498.34, 0.35666075, -0.36371446, -472565.84, -161151.83, 0.0, 9.999017, 9.99753 
2.658097e+3, 2.7821237e+2, -699728.75, -729226.75, -76098.25, 0.14145438, -0.09408786, -636963.4, -423456.3, 0.0, 9.998007, 9.997639 
2.6576814e+3, 2.8820068e+2, -489214.3, -405831.3, 194619.75, 0.07258587, -0.24533617, -248487.56, -132868.42, 0.0, 9.998037, 9.999162 
2.6572675e+3, 2.9818887e+2, -354035.7, -323246.2, 76732.54, -0.044863354, -0.47761366, -260379.33, -242649.63, 0.0, 9.998433, 9.998877 
2.6568556e+3, 3.081834e+2, -508510.6, -326074.03, -97151.055, 0.48832798, -0.06853179, -284029.03, -284029.03, 0.0, 9.996841, 9.999289 
2.6564276e+3, 3.181753e+2, -601496.0, -169945.16, 48753.414, -0.44778362, 0.058245394, -164505.92, -164505.92, 0.0, 9.995311, 10.001106 
2.6743764e+3, 1.2878953e+2, -1386820.4, -1854967.0, 111907.625, 0.19346713, -0.17473076, -1361445.0, 316393.4, 0.06277031, 10.00373, 9.997213 
2.6739612e+3, 1.3877705e+2, -1284469.4, -1701885.6, 91140.67, 0.42467588, -0.2789321, -1265437.0, 314528.5, 0.039142516, 10.003435, 9.997764 
2.673542e+3, 1.487671e+2, -1220061.6, -1390258.4, 85432.09, 0.3687257, -0.29740873, -1184576.5, 297482.7, 0.018542552, 10.0021925, 9.999805 
2.6731232e+3, 1.5875776e+2, -1356079.0, -1545692.6, 114157.36, 0.27577886, -0.31179112, -1302493.6, 81652.22, 0.0057105985, 10.001107, 9.998602 
2.6727048e+3, 1.6874793e+2, -994623.5, -1430103.9, 138809.88, 0.15896522, -0.19342539, -954140.94, 332107.94, 0.0008890518, 10.003427, 9.997582 
2.6722872e+3, 1.7873813e+2, -472242.78, -1101728.8, 80657.69, 0.07175797, -0.062536225, -462072.22, 726281.1, 0.000037964888, 10.0062, 9.997844 
2.6718718e+3, 1.8872663e+2, -595335.6, -971921.3, 61011.03, 0.30013907, -0.1932266, -585697.9, 504762.9, 0.0000000057994387, 10.004124, 9.999044 
2.671456e+3, 1.9871488e+2, -987923.1, -1162122.9, 41058.164, 0.53698796, -0.38684294, -978730.94, 13836.544, 0.0, 10.000939, 9.998618 
2.6710337e+3, 2.087055e+2, -1035442.56, -1111911.4, 58223.895, 0.29174837, -0.30948046, -1004021.44, -109360.95, 0.0, 9.999879, 9.998777 
2.6706102e+3, 2.1869661e+2, -1022376.1, -1138038.4, 161832.56, -0.0181488, -0.17199771, -908352.0, -111600.2, 0.0, 9.999614, 9.99808 
2.670193e+3, 2.2868538e+2, -629560.25, -893322.06, 125332.87, 0.13771418, -0.19756903, -579504.6, 119356.54, 0.0, 10.001635, 9.998104 
2.669776e+3, 2.3867393e+2, -236694.13, -693363.9, 7097.9116, 0.38750613, -0.27109122, -236583.83, 364387.13, 0.0, 10.003813, 9.997769 
2.669356e+3, 2.486625e+2, -493982.38, -749823.25, -31399.64, 0.35927927, -0.3127863, -490185.03, 12897.001, 0.0, 10.001328, 9.997891 
2.6689354e+3, 2.58651e+2, -914152.9, -961155.8, -50669.223, 0.28639194, -0.36583933, -881800.1, -476605.56, 0.0, 9.997991, 9.997395 
2.668514e+3, 2.686406e+2, -460384.94, -681216.0, -123763.48, 0.3062635, -0.2657777, -404942.13, -97639.46, 0.0, 10.000412, 9.99746 
2.6680923e+3, 2.7863073e+2, 149785.56, -305677.72, -22176.49, 0.34766713, -0.12890221, 150862.8, 360269.0, 0.0, 10.003791, 9.997748 
2.6676738e+3, 2.8861976e+2, -62295.63, -204176.33, 160658.92, 0.16302408, -0.21037866, 42388.113, 153900.31, 0.0, 10.001012, 9.99911 
2.667256e+3, 2.9860866e+2, -601864.1, -435914.4, 109087.0, -0.088190146, -0.34519434, -381831.63, -368214.8, 0.0, 9.996706, 9.998935 
2.6668414e+3, 3.086026e+2, -648754.5, -336358.84, -36657.24, 0.38301045, -0.016625576, -332115.06, -332115.06, 0.0, 9.995665, 9.9997635 
2.6664144e+3, 3.1859294e+2, -743298.4, -261147.67, 76396.56, -0.381563, -0.08101293, -249332.22, -249332.22, 0.0, 9.994457, 10.000868 
2.6843742e+3, 1.2920949e+2, -1400859.1, -1839429.9, -34381.61, 0.4822468, -0.0058281603, -1398180.1, 275547.66, 0.052659355, 10.003532, 9.997389 
2.683955e+3, 1.391965e+2, -1364112.4, -1735487.9, -39681.504, 0.37424532, -0.20881155, -1359919.8, 215939.33, 0.03241844, 10.002848, 9.997805 
2.683536e+3, 1.4918695e+2, -1132610.8, -1346718.0, -52365.207, 0.40153366, -0.20785843, -1120489.8, 357457.44, 0.0150313955, 10.00277, 9.999829 
2.6831174e+3, 1.5917811e+2, -1198773.0, -1488902.8, 1959.1564, 0.4289806, -0.1903525, -1198759.8, 181267.84, 0.004476345, 10.00228, 9.99843 
2.6826984e+3, 1.6916741e+2, -1381582.9, -1640150.9, 129484.73, 0.119064264, -0.14919676, -1327889.8, -45751.402, 0.00066900725, 10.000876, 9.997372 
2.68228e+3, 1.7915651e+2, -1435419.8, -1563445.4, 77262.875, -0.18366481, -0.115348965, -1399097.3, -214844.27, 0.000027210404, 9.999585, 9.997869 
2.681865e+3, 1.8914634e+2, -1198809.3, -1209371.4, -5168.3438, 0.24935257, -0.14999768, -1196701.1, -110351.11, 0.000000001728097, 9.999759, 9.9995165 
2.68145e+3, 1.9913645e+2, -1127842.6, -1132045.6, 9783.288, 0.7403971, -0.2123165, -1119937.6, -131495.97, 0.0, 9.999569, 9.999492 
2.6810262e+3, 2.091274e+2, -776300.75, -793276.94, 1679.6014, 0.39378193, -0.25122777, -776136.2, 114387.12, 0.0, 10.000825, 10.000513 
2.6806012e+3, 2.1911839e+2, -714401.75, -973789.1, 56375.67, -0.07931204, -0.27866903, -702678.75, 89926.91, 0.0, 10.00167, 9.998223 
2.6801854e+3, 2.2910582e+2, -792022.4, -1211968.6, 129600.56, 0.12388384, -0.30914897, -755246.6, -60514.31, 0.0, 10.001571, 9.995942 
2.679771e+3, 2.3909281e+2, -704675.2, -1076328.6, 29752.45, 0.42819655, -0.33562613, -702308.5, -105443.64, 0.0, 10.0012865, 9.996359 
2.6793468e+3, 2.4908276e+2, -592208.5, -787810.5, -116108.97, 0.22880422, -0.20255227, -538199.4, -39232.043, 0.0, 10.000611, 9.997973 
2.6789215e+3, 2.5907332e+2, -734714.1, -877346.56, -43616.63, -0.041536488, -0.059376992, -722433.6, -321369.66, 0.0, 9.999244, 9.997363 
2.678505e+3, 2.6906154e+2, -459846.47, -689254.44, 45870.125, 0.2319731, -0.088646546, -451014.72, -147831.86, 0.0, 10.000447, 9.997387 
2.6780894e+3, 2.790497e+2, -89305.516, -409176.88, 42601.453, 0.56330454, -0.14681688, -83728.945, 121573.46, 0.0, 10.002087, 9.997866 
2.6776662e+3, 2.890407e+2, -169608.42, -210097.58, 14482.09, 0.19186684, -0.06092348, -164961.75, -57571.785, 0.0, 10.000055, 9.999535 
2.6772416e+3, 2.9903233e+2, -582946.25, -410900.63, 8859.652, -0.31808484, 0.035808478, -410445.6, -400974.78, 0.0, 9.996759, 9.999084 
2.676826e+3, 3.0902305e+2, -619017.0, -338264.97, -18768.82, 0.15344201, 0.048118923, -337015.8, -337015.8, 0.0, 9.995923, 9.99963 
2.6764047e+3, 3.1901014e+2, -667899.3, -114496.82, -61718.188, 0.07504529, -0.34194243, -107697.25, -107697.25, 0.0, 9.99449, 10.001863 
2.6943716e+3, 1.2962753e+2, -1316925.3, -1737893.3, -58054.434, 0.69627786, 0.14240502, -1309065.9, 360575.1, 0.04359688, 10.003805, 9.997962 
2.6939452e+3, 1.3961448e+2, -1310310.4, -1651189.3, -48034.734, -0.03236948, -0.114356115, -1303670.9, 268098.25, 0.026479146, 10.002963, 9.998321 
2.693529e+3, 1.4960442e+2, -1117265.1, -1358888.5, -41685.883, 0.27458534, -0.16569208, -1110275.5, 363585.3, 0.012008122, 10.002959, 9.999648 
2.693114e+3, 1.5959507e+2, -1095862.4, -1389437.5, -44541.867, 0.6716638, -0.18794727, -1089253.3, 286692.56, 0.0034556456, 10.0027685, 9.998867 
2.6926908e+3, 1.6958494e+2, -1411357.8, -1517781.0, 26211.238, 0.22324154, -0.19036226, -1405252.4, -127204.85, 0.00049606664, 10.000073, 9.998592 
2.6922682e+3, 1.7957504e+2, -1669689.6, -1535642.6, 54625.19, -0.2651997, -0.1764372, -1516201.9, -336053.53, 0.00001910138, 9.997367, 9.999115 
2.6918536e+3, 1.89567e+2, -1385095.0, -1192260.3, 69031.71, 0.14495173, -0.10173268, -1170095.8, -87868.984, 0.0000000002885943, 9.998022, 10.000463 
2.6914397e+3, 1.9955876e+2, -1149746.1, -1155042.6, 103574.984, 0.64703137, -0.06334131, -1048785.5, -64480.586, 0.0, 9.999449, 9.999389 
2.6910195e+3, 2.0954666e+2, -741802.2, -948034.25, 71731.984, 0.45752543, -0.28882426, -719306.2, 167108.95, 0.0, 10.001775, 9.999007 
2.690598e+3, 2.1953464e+2, -431895.06, -848703.4, -14319.302, 0.16674751, -0.50136566, -431403.72, 357121.56, 0.0, 10.003656, 9.998115 
2.6901793e+3, 2.2952469e+2, -697445.5, -989393.9, 15330.962, 0.21849701, -0.38400042, -696642.6, -6014.7485, 0.0, 10.001458, 9.99752 
2.6897606e+3, 2.395148e+2, -980999.44, -1097844.3, 47929.543, 0.3428331, -0.23641911, -963854.56, -371122.97, 0.0, 9.998912, 9.997346 
2.689338e+3, 2.4950403e+2, -664845.56, -823285.7, -5189.5796, 0.23191744, -0.19652638, -664675.75, -169836.64, 0.0, 10.000127, 9.997954 
2.6889148e+3, 2.5949338e+2, -368256.2, -676890.56, 38151.473, 0.08304739, -0.16233422, -363610.1, 33334.836, 0.0, 10.001668, 9.99756 
2.6884955e+3, 2.6948237e+2, -447719.28, -631015.9, 106454.734, 0.14832862, -0.1438674, -398896.88, -99841.414, 0.0, 10.000319, 9.997842 
2.6880774e+3, 2.7947137e+2, -613698.94, -648339.9, 112364.164, 0.2749484, -0.14254358, -517328.13, -316162.2, 0.0, 9.998439, 9.997971 
2.6876548e+3, 2.8946173e+2, -508859.03, -423321.94, 40822.164, 0.049205866, -0.08150447, -406966.9, -303704.56, 0.0, 9.997963, 9.999062 
2.6872307e+3, 2.9945287e+2, -398579.84, -234835.75, 17675.719, -0.2661697, -0.008747844, -232949.44, -227599.3, 0.0, 9.997663, 9.9998455 
2.686813e+3, 3.0944437e+2, -325271.72, 30414.518, 98801.43, 0.043878175, -0.079755045, 56016.473, 56016.473, 0.0, 9.996954, 10.00167 
2.6863924e+3, 3.1943408e+2, -380331.2, 97855.56, 62272.543, 0.20219211, -0.3537186, 105832.04, 105832.04, 0.0, 9.996151, 10.002524 
2.7043656e+3, 1.3004337e+2, -1118928.1, -1531638.0, -131002.65, 0.52742165, 0.020640016, -1080857.1, 584714.2, 0.03552957, 10.004724, 9.99897 
2.7039385e+3, 1.4003375e+2, -1459795.4, -1656425.6, -35732.79, -0.07689394, 0.011422278, -1453503.1, 114161.516, 0.021264927, 10.001601, 9.99895 
2.703522e+3, 1.5002348e+2, -1334322.6, -1445281.9, 38299.617, 0.22904101, -0.09077668, -1322386.8, 147371.05, 0.009414732, 10.001377, 9.99981 
2.7031073e+3, 1.6001335e+2, -1290374.3, -1433988.9, 12613.593, 0.65164685, -0.19790302, -1289274.8, 82574.58, 0.0026133016, 10.001232, 9.999304 
2.7026832e+3, 1.7000347e+2, -1337593.5, -1367017.4, 8790.675, 0.2949591, -0.2535719, -1335167.3, -61222.29, 0.00036005196, 10.000096, 9.999611 
2.7022585e+3, 1.7999421e+2, -1434371.9, -1353828.8, 74171.22, -0.1505223, -0.26622802, -1309701.5, -133665.22, 0.000012952271, 9.9986925, 9.999732 
2.701843e+3, 1.8998742e+2, -1135022.5, -1042667.2, 97213.984, 0.10721479, -0.1023982, -981220.8, 96883.875, 0.000000000007316074, 9.999599, 10.000741 
2.7014288e+3, 1.9998002e+2, -1049539.4, -1165844.5, 96916.73, 0.46436724, 0.005198723, -994667.3, -14489.508, 0.0, 10.0004015, 9.998865 
2.7010125e+3, 2.0996584e+2, -996259.4, -1203881.4, 137158.81, 0.4785172, -0.3379127, -928055.06, -45746.48, 0.0, 10.00061, 9.997808 
2.7005947e+3, 2.1995176e+2, -873954.5, -1060019.5, 42986.32, 0.394367, -0.6585408, -864503.5, -80064.65, 0.0, 10.000619, 9.998132 
2.7001724e+3, 2.2994459e+2, -723180.7, -806427.9, -46181.12, 0.28033936, -0.38992757, -702633.4, -16117.832, 0.0, 10.000442, 9.999263 
2.6997498e+3, 2.399377e+2, -814091.44, -921140.3, 15501.009, 0.18985114, -0.096735395, -811892.0, -223301.89, 0.0, 9.999652, 9.998203 
2.69933e+3, 2.499255e+2, -630261.2, -810077.44, 45882.57, 0.2480917, -0.22783114, -619230.3, -128522.25, 0.0, 10.0003805, 9.997922 
2.6989093e+3, 2.5991312e+2, -457360.1, -702402.3, 38026.707, 0.2663743, -0.36898, -451594.6, -58767.65, 0.0, 10.000982, 9.997723 
2.6984856e+3, 2.699036e+2, -449437.34, -571440.4, 26764.086, 0.013492198, -0.24530225, -443824.28, -148902.31, 0.0, 10.000043, 9.998388 
2.6980624e+3, 2.7989423e+2, -614833.25, -658803.56, 58959.14, -0.21177363, -0.122720145, -573893.6, -376877.03, 0.0, 9.99847, 9.9978895 
2.697642e+3, 2.8988275e+2, -606016.5, -571515.9, 32886.45, -0.12607284, -0.18250182, -551630.06, -452497.06, 0.0, 9.9977255, 9.998164 
2.697221e+3, 2.9987207e+2, -403767.03, -114421.38, 14092.693, -0.111499265, -0.24842314, -113736.62, -112496.6, 0.0, 9.997089, 10.000958 
2.6967996e+3, 3.0986655e+2, -142702.95, 460931.4, 37983.227, -0.07972494, -0.2838392, 463312.1, 463312.1, 0.0, 9.996721, 10.004754 
2.6963773e+3, 3.198627e+2, -365174.9, 95530.48, -14748.786, -0.033898436, -0.15238674, 96002.16, 96002.16, 0.0, 9.99627, 10.002471 
2.7143568e+3, 1.3045678e+2, -959074.2, -1272590.9, -250804.7, 0.02731234, -0.41911244, -820068.8, 841451.2, 0.028396115, 10.004984, 10.000679 
2.7139366e+3, 1.4045495e+2, -1374908.3, -1469438.5, -64792.813, 0.4646015, 0.20550671, -1341973.0, 221565.94, 0.016710049, 10.001543, 10.00027 
2.7135146e+3, 1.5044494e+2, -1305820.1, -1336305.3, 84427.36, 0.2335473, 0.04267843, -1235270.4, 230357.69, 0.007197713, 10.001164, 10.000665 
2.713094e+3, 1.6043417e+2, -1252462.0, -1332094.5, 42042.84, 0.10299645, -0.20327535, -1234373.8, 133350.83, 0.0019202112, 10.001127, 10.000054 
2.7126753e+3, 1.7042379e+2, -1279405.0, -1284583.3, 18622.979, 0.3731291, -0.35614887, -1263192.0, 6629.3774, 0.00025324232, 10.000252, 10.00011 
2.712256e+3, 1.8041393e+2, -1341705.6, -1366507.5, 121806.44, 0.5362285, -0.44154304, -1231670.5, -59754.766, 0.000008369746, 9.999552, 9.999235 
2.7118364e+3, 1.9040579e+2, -1119055.3, -1205798.1, 155230.44, 0.29995844, -0.27875116, -1001251.06, 72749.586, 0.0, 10.000442, 9.999218 
2.7114183e+3, 2.003976e+2, -929082.9, -1087661.9, 83568.06, 0.14173539, -0.1401769, -893174.94, 82910.47, 0.0, 10.001149, 9.999034 
2.7110028e+3, 2.103864e+2, -1002657.0, -1031174.0, 123183.85, 0.35291228, -0.2986999, -892909.2, -14718.758, 0.0, 9.999834, 9.999356 
2.7105862e+3, 2.2037542e+2, -1102210.8, -1086029.6, 112005.016, 0.5105242, -0.43477526, -981823.4, -201529.38, 0.0, 9.998688, 9.9988785 
2.710163e+3, 2.3036835e+2, -820398.06, -866443.8, 39975.445, 0.24766593, -0.15042126, -797289.7, -114919.96, 0.0, 9.999831, 9.999148 
2.7097398e+3, 2.4036087e+2, -605724.44, -798463.75, 38185.668, 0.014993469, 0.090806834, -598434.75, -13986.019, 0.0, 10.000984, 9.998396 
2.7093202e+3, 2.5034705e+2, -549369.9, -731529.2, 56459.234, 0.13089788, -0.2277871, -533290.06, -46712.24, 0.0, 10.00076, 9.998281 
2.7089006e+3, 2.6033363e+2, -535558.06, -690763.1, 40292.453, 0.23479912, -0.5089382, -525721.25, -137017.66, 0.0, 10.000241, 9.998147 
2.7084762e+3, 2.7032572e+2, -469897.53, -552283.5, 8660.702, -0.020901592, -0.2546628, -468996.94, -178213.06, 0.0, 9.999781, 9.998642 
2.7080518e+3, 2.8031763e+2, -509556.56, -566500.25, 15808.752, -0.24726452, -0.028015371, -505462.13, -312595.66, 0.0, 9.999025, 9.998243 
2.7076304e+3, 2.9030484e+2, -662398.7, -563798.2, 17020.232, -0.142116, -0.25014323, -560942.9, -465949.84, 0.0, 9.997209, 9.998455 
2.7072087e+3, 3.002928e+2, -678864.9, -304484.2, 45563.25, -0.049852066, -0.4589152, -299018.78, -299018.78, 0.0, 9.995458, 10.000434 
2.7067882e+3, 3.102879e+2, -378649.3, 180572.94, -87207.92, 0.06649264, -0.3008269, 193857.02, 193857.02, 0.0, 9.99584, 10.003242 
2.7063656e+3, 3.2028362e+2, -313322.9, 23357.629, -283011.84, 0.028249769, -0.10681025, 184310.77, 184310.77, 0.0, 9.997063, 10.001578 
2.7243513e+3, 1.30879e+2, -1445242.5, -1581214.3, 17770.412, 0.042698685, -0.43947798, -1442958.4, 214417.16, 0.02216431, 10.001891, 9.999979 
2.7239308e+3, 1.408766e+2, -1202345.1, -1424027.4, 74336.555, 0.56201273, 0.20425531, -1179725.9, 379679.22, 0.012778708, 10.002905, 9.999932 
2.7235076e+3, 1.5086627e+2, -1040717.4, -1196870.3, 169362.16, 0.21612215, 0.014901032, -932301.3, 529197.1, 0.005326891, 10.002932, 10.000778 
2.7230856e+3, 1.6085535e+2, -1020782.3, -1207793.8, 53794.69, -0.06649565, -0.25630346, -1006412.2, 357184.4, 0.0013580788, 10.002673, 10.00017 
2.7226683e+3, 1.7084537e+2, -945393.44, -1091894.4, 1877.7489, 0.44688314, -0.3934467, -945369.4, 320318.84, 0.00016970174, 10.002425, 10.000384 
2.722251e+3, 1.8083559e+2, -1054386.1, -1275227.8, 145721.69, 0.86278963, -0.47742698, -981974.9, 185805.5, 0.0000049540654, 10.001762, 9.998791 
2.7218294e+3, 1.9082625e+2, -1041907.8, -1260023.0, 275487.34, 0.3765591, -0.36043003, -854677.0, 215200.73, 0.0, 10.0014, 9.998367 
2.7214083e+3, 2.0081712e+2, -958534.56, -1103051.5, 213803.86, -0.060933646, -0.23646173, -805108.75, 166864.3, 0.0, 10.000973, 9.999007 
2.7209932e+3, 2.1080808e+2, -771948.44, -821390.7, 124419.33, 0.26184833, -0.23926762, -669818.06, 204243.45, 0.0, 10.000998, 10.000234 
2.7205768e+3, 2.207995e+2, -807681.0, -916570.9, 71434.7, 0.5358013, -0.20805885, -772308.5, 3837.1062, 0.0, 10.000603, 9.99912 
2.720154e+3, 2.3079216e+2, -721097.7, -846426.44, 63151.7, 0.19082059, 0.05393878, -694796.0, -16572.592, 0.0, 10.000639, 9.998898 
2.7197304e+3, 2.4078374e+2, -680345.56, -835895.5, 56899.47, -0.1353216, 0.22262414, -661754.06, -81444.48, 0.0, 10.000484, 9.998385 
2.719311e+3, 2.5076896e+2, -610606.6, -719128.3, 42195.44, 0.00914843, -0.2232761, -596131.06, -113686.4, 0.0, 10.000168, 9.998648 
2.7188912e+3, 2.6075506e+2, -626041.44, -718858.56, 11404.358, 0.13364463, -0.5801184, -624660.75, -240088.61, 0.0, 9.999549, 9.998297 
2.718467e+3, 2.7074838e+2, -584508.7, -597811.06, -25919.73, -0.018032024, -0.22048704, -564400.4, -277758.53, 0.0, 9.998951, 9.99873 
2.7180427e+3, 2.8074127e+2, -618448.25, -582712.75, -52785.617, -0.16301805, 0.08210495, -544852.75, -356137.06, 0.0, 9.9981165, 9.998577 
2.7176186e+3, 2.907274e+2, -625479.6, -470806.9, -74183.28, -0.13755693, -0.31141403, -440979.5, -350131.66, 0.0, 9.997121, 9.999144 
2.7171952e+3, 3.0071446e+2, -725810.56, -520255.7, 12376.265, -0.09199369, -0.6137954, -519513.2, -519513.2, 0.0, 9.995964, 9.998711 
2.7167788e+3, 3.107089e+2, -555334.8, -334278.28, -46949.426, 0.39580125, -0.19697493, -324720.13, -324720.13, 0.0, 9.996468, 9.999401 
2.7163535e+3, 3.2069844e+2, -369289.1, -112250.82, -113668.22, -0.033859953, -0.31140488, -69195.97, -69195.97, 0.0, 9.997164, 10.000586 
2.734349e+3, 1.3131087e+2, -1690516.5, -2128498.3, 124629.016, 0.5310102, -0.059920095, -1657536.4, -4407.8096, 0.016811533, 10.001994, 9.996177 
2.7339193e+3, 1.4129803e+2, -1278807.3, -1672496.9, 147784.3, -0.029684866, -0.12306705, -1229505.6, 325763.34, 0.009456607, 10.003274, 9.998041 
2.733503e+3, 1.5128684e+2, -1059744.3, -1319291.5, 205809.73, 0.3019276, -0.27310362, -946209.75, 511164.47, 0.003791648, 10.003298, 9.999747 
2.733086e+3, 1.6127664e+2, -953590.4, -1201117.6, 74824.39, 0.55175614, -0.38435414, -932729.94, 426739.03, 0.00091702, 10.003253, 9.99992 
2.732661e+3, 1.7126937e+2, -831106.94, -1021615.75, 30194.898, 0.33557808, -0.24562733, -826435.7, 435103.28, 0.0001065257, 10.003174, 10.00049 
2.7322382e+3, 1.812619e+2, -803998.94, -1022363.75, 164514.5, 0.19250667, -0.13226858, -715733.06, 447877.78, 0.0000025959862, 10.002915, 9.99996 
2.7318215e+3, 1.9125274e+2, -847213.1, -980434.75, 312897.78, 0.27700588, -0.14652921, -593914.56, 471785.03, 0.0, 10.001927, 10.000039 
2.731405e+3, 2.0124292e+2, -980011.7, -1211745.6, 315642.63, 0.31963885, -0.16683125, -759641.5, 208154.97, 0.0, 10.001239, 9.998124 
2.7309865e+3, 2.1123096e+2, -808323.7, -1133252.6, 198494.86, 0.3020196, -0.2227518, -714282.94, 155636.39, 0.0, 10.002009, 9.997599 
2.7305678e+3, 2.2121997e+2, -551118.1, -827692.3, 50720.344, 0.2943061, -0.23738188, -542110.0, 229921.53, 0.0, 10.002514, 9.998801 
2.7301463e+3, 2.3121199e+2, -530713.8, -639016.3, 40714.29, 0.21206829, -0.11143561, -517115.44, 156995.53, 0.0, 10.001465, 9.999915 
2.7297246e+3, 2.4120367e+2, -675648.5, -785232.1, 61548.0, 0.14357698, -0.0118368305, -648037.0, -71844.42, 0.0, 10.000313, 9.99881 
2.7293038e+3, 2.5119197e+2, -686969.25, -755840.56, 46018.164, 0.22440313, -0.14858517, -663928.94, -185626.92, 0.0, 9.999647, 9.998649 
2.7288824e+3, 2.6118028e+2, -734460.06, -779588.5, -13338.541, 0.27912757, -0.28017125, -730812.44, -350400.53, 0.0, 9.998841, 9.998215 
2.7284575e+3, 2.7117068e+2, -811675.06, -738622.9, -75269.05, 0.13754632, -0.18298177, -691485.44, -408977.88, 0.0, 9.997523, 9.998456 
2.7280325e+3, 2.811613e+2, -842927.6, -659419.1, -86162.445, 0.025785532, -0.09231489, -625305.2, -440704.28, 0.0, 9.996441, 9.998859 
2.7276078e+3, 2.9115033e+2, -584262.3, -392323.3, -99365.35, -0.036004, -0.2441372, -350149.34, -263444.03, 0.0, 9.997169, 9.999659 
2.727184e+3, 3.011396e+2, -429811.9, -387288.03, 24067.375, -0.037062842, -0.36334854, -376436.0, -376436.0, 0.0, 9.998064, 9.998597 
2.7267697e+3, 3.1113106e+2, -216468.03, -251672.0, 103740.95, 0.5738423, -0.1819605, -128846.375, -128846.375, 0.0, 9.999164, 9.998652 
2.7263412e+3, 3.2111782e+2, -490081.66, -266200.03, -101432.81, -0.061544217, -0.4682327, -227080.06, -227080.06, 0.0, 9.996763, 9.999709 
2.7443427e+3, 1.3173565e+2, -1635574.8, -2136796.3, -86991.516, 0.5470897, -0.062670164, -1620905.9, 28055.535, 0.01230584, 10.002578, 9.995813 
2.7439123e+3, 1.4172108e+2, -1320631.0, -1758835.3, 126028.11, -0.17280349, -0.27852055, -1286970.8, 264146.8, 0.0067305295, 10.003282, 9.997437 
2.7434978e+3, 1.5170996e+2, -1288626.6, -1498210.1, 209314.33, 0.37068796, -0.36830434, -1159337.6, 293887.75, 0.0025834579, 10.002024, 9.999126 
2.743082e+3, 1.6170026e+2, -1280255.9, -1402661.9, 127156.266, 0.79067755, -0.3749953, -1200340.0, 154978.9, 0.00058897777, 10.001205, 9.999521 
2.7426544e+3, 1.7169385e+2, -960288.6, -1104777.8, 78468.07, 0.23130023, -0.13059692, -925872.44, 331510.78, 0.00006228534, 10.00237, 10.000302 
2.7422288e+3, 1.8168713e+2, -809548.7, -1014217.44, 141194.3, -0.19083847, 0.068007566, -737503.7, 421945.72, 0.0000011486238, 10.002832, 10.000065 
2.7418146e+3, 1.9167781e+2, -788563.9, -878257.06, 146017.72, 0.25597742, -0.026102813, -680661.0, 380874.78, 0.0, 10.002009, 10.000698 
2.7414e+3, 2.0166758e+2, -1110982.8, -1386576.0, 137798.02, 0.5857555, -0.12172268, -1053904.5, -90270.62, 0.0, 10.000834, 9.99712 
2.7409795e+3, 2.1165407e+2, -1171553.3, -1507401.3, 190452.5, 0.303397, -0.18656096, -1085566.6, -219791.17, 0.0, 10.000383, 9.995814 
2.740559e+3, 2.2164135e+2, -955259.5, -1036092.6, 106088.91, 0.092571884, -0.24738829, -882149.2, -114241.93, 0.0, 9.999814, 9.998675 
2.740139e+3, 2.3163237e+2, -786114.7, -674346.94, 30242.773, 0.2836248, -0.27780297, -666688.44, 3303.9229, 0.0, 9.999352, 10.000686 
2.739719e+3, 2.4162401e+2, -885531.3, -871971.9, 24788.803, 0.44046763, -0.23438181, -853052.4, -280980.8, 0.0, 9.998813, 9.99894 
2.739297e+3, 2.5161564e+2, -737972.25, -786627.25, 32952.047, 0.4364414, -0.0453401, -721340.44, -247186.77, 0.0, 9.999317, 9.998596 
2.738874e+3, 2.6160613e+2, -691306.8, -793810.25, -36636.508, 0.4005407, 0.057794686, -679558.75, -303312.53, 0.0, 9.999294, 9.997901 
2.738448e+3, 2.7159283e+2, -690926.7, -717704.5, -90792.375, 0.30496725, -0.18488151, -612541.3, -334166.56, 0.0, 9.998516, 9.99812 
2.738022e+3, 2.8158092e+2, -666292.9, -568342.75, -47725.727, 0.19499408, -0.32269168, -548934.3, -368444.2, 0.0, 9.997632, 9.998912 
2.7375975e+3, 2.9157403e+2, -436205.94, -291251.28, -54548.746, 0.08138692, -0.090135105, -273017.38, -190459.45, 0.0, 9.998047, 9.999935 
2.737174e+3, 3.0156606e+2, -344950.47, -285465.2, 66564.63, 0.017224208, 0.037653334, -242300.53, -242300.53, 0.0, 9.998382, 9.999146 
2.7367604e+3, 3.1155366e+2, -238840.84, -170865.14, 137659.86, 0.593954, -0.2560036, -63059.445, -63059.445, 0.0, 9.998607, 9.999481 
2.7363297e+3, 3.2154194e+2, -623122.56, -489105.53, -529030.5, 0.036407135, -0.3972898, -22856.643, -22856.643, 0.0, 9.996466, 9.998363 
2.7543327e+3, 1.3215257e+2, -1294545.3, -1503240.1, -27007.664, 0.16354609, -0.48966226, -1291106.8, 353776.8, 0.008633353, 10.002879, 10.000038 
2.7539122e+3, 1.4214693e+2, -1181263.1, -1496605.1, 122366.695, 0.35842356, -0.13995099, -1139350.1, 407589.44, 0.004576788, 10.0033865, 9.999188 
2.7534896e+3, 1.5213732e+2, -1299249.0, -1465261.3, 179645.08, 0.2719739, -0.12695278, -1184360.3, 264675.53, 0.0016756183, 10.001784, 9.999473 
2.753069e+3, 1.6212761e+2, -1339052.9, -1461530.4, 183105.13, 0.3048878, -0.13821721, -1207217.4, 143914.69, 0.00035820744, 10.000922, 9.999253 
2.752649e+3, 1.7211795e+2, -1023217.1, -1217245.1, 164555.5, 0.3706059, -0.14824292, -929206.94, 324018.2, 0.000033741435, 10.002273, 9.999581 
2.7522284e+3, 1.8210807e+2, -905176.4, -1281798.0, 146527.25, 0.3558172, -0.14592482, -854884.56, 300437.25, 0.00000040337267, 10.00311, 9.998091 
2.7518088e+3, 1.9209671e+2, -957969.8, -1252812.6, 64282.09, 0.33274725, -0.18697469, -944564.4, 112871.68, 0.0, 10.002109, 9.998074 
2.75139e+3, 2.0208643e+2, -979712.5, -1139063.6, 21214.805, 0.35285297, -0.17503986, -976936.5, -17397.285, 0.0, 10.000928, 9.998782 
2.7509707e+3, 2.1207803e+2, -1072936.5, -1076523.1, 163607.38, 0.33808738, -0.04589889, -911112.6, -49487.754, 0.0, 9.999386, 9.999271 
2.750551e+3, 2.2206888e+2, -1197465.5, -1120614.5, 167138.28, 0.34355724, 0.023454417, -987541.56, -223823.5, 0.0, 9.998036, 9.998934 
2.75013e+3, 2.3205832e+2, -1150238.3, -1006147.9, 65139.47, 0.4638735, -0.041170835, -981066.0, -315242.84, 0.0, 9.997543, 9.999273 
2.7497083e+3, 2.4204811e+2, -1054038.9, -946202.3, 73696.766, 0.4896614, -0.085163556, -908805.75, -340883.28, 0.0, 9.997611, 9.999008 
2.7492848e+3, 2.5203854e+2, -711228.4, -694266.06, 113112.125, 0.19314079, -0.069914564, -589317.56, -119306.336, 0.0, 9.999162, 9.999297 
2.7488616e+3, 2.6202855e+2, -484268.72, -612702.0, 27793.781, 0.058581267, -0.08321085, -478512.0, -106407.47, 0.0, 10.000385, 9.998603 
2.7484393e+3, 2.720161e+2, -335678.94, -472449.88, -10491.329, 0.32872325, -0.28724238, -334878.88, -60657.76, 0.0, 10.000678, 9.998742 
2.7480152e+3, 2.820047e+2, -264300.28, -449123.03, 51778.75, 0.43211153, -0.38556802, -250782.89, -74451.016, 0.0, 10.000738, 9.998219 
2.7475873e+3, 2.9199678e+2, -164973.06, -302353.4, -10174.356, 0.021043664, -0.12153795, -164223.64, -85806.266, 0.0, 10.0005455, 9.998641 
2.747162e+3, 3.0198878e+2, -177399.48, -177047.7, 8772.12, -0.1899724, 0.07707664, -168449.7, -168449.7, 0.0, 9.999411, 9.9994 
2.7467486e+3, 3.1197858e+2, -553312.56, -227429.75, 48318.586, 0.58453226, -0.06821942, -220416.5, -220416.5, 0.0, 9.996025, 10.000353 
2.7463183e+3, 3.2196856e+2, -479310.97, -293960.8, -450807.13, 0.18806589, -0.1338945, 73598.53, 73598.53, 0.0, 9.996927, 9.999471 
2.7643272e+3, 1.3257556e+2, -960676.9, -1181480.4, 150558.63, 0.10910499, -0.55188745, -884379.8, 756363.0, 0.0057730973, 10.004504, 10.001468 
2.7639085e+3, 1.4257236e+2, -1037578.8, -1444480.0, 65028.492, 0.4941152, -0.0445093, -1027439.0, 515331.56, 0.0029531594, 10.004462, 9.999024 
2.7634826e+3, 1.5256296e+2, -1022642.8, -1389579.8, 18555.941, 0.18410148, 0.026507698, -1021706.8, 423160.3, 0.0010250356, 10.003944, 9.998947 
2.7630597e+3, 1.625528e+2, -1075328.9, -1413525.3, 31543.607, 0.07354545, 0.013695517, -1072412.0, 274556.72, 0.00020334971, 10.003085, 9.998547 
2.7626437e+3, 1.7254083e+2, -1048044.94, -1305645.0, 47910.113, 0.46984768, -0.18045112, -1039422.9, 209659.3, 0.000016580547, 10.002446, 9.998895 
2.7622256e+3, 1.8252893e+2, -1138919.3, -1525243.1, 58958.383, 0.66078377, -0.30364448, -1130121.6, 21075.979, 0.00000009587778, 10.002097, 9.996904 
2.7618024e+3, 1.9251679e+2, -1000434.06, -1432221.3, 120895.49, 0.33750427, -0.29634818, -968889.25, 84434.414, 0.0, 10.002508, 9.996653 
2.7613804e+3, 2.0250694e+2, -712925.06, -812796.44, 124449.65, 0.15449686, -0.20030278, -628766.44, 326658.7, 0.0, 10.001929, 10.000538 
2.7609617e+3, 2.1250266e+2, -784570.7, -592468.9, 137135.69, 0.37228897, 0.06279898, -521092.28, 336373.06, 0.0, 9.999906, 10.002333 
2.7605423e+3, 2.2249642e+2, -1148160.5, -1131104.5, 106347.02, 0.54525363, 0.23972325, -1032944.06, -273417.1, 0.0, 9.99852, 9.998633 
2.76012e+3, 2.3248455e+2, -999159.56, -1099682.8, 76447.13, 0.5805504, 0.16742736, -957931.3, -296281.6, 0.0, 9.999279, 9.997799 
2.759697e+3, 2.4247283e+2, -782093.0, -808860.1, 155822.14, 0.436268, 0.06571288, -639080.7, -75314.35, 0.0, 9.999465, 9.999058 
2.759272e+3, 2.5246158e+2, -644483.9, -585996.3, 182840.25, -0.1213889, -0.14093332, -430075.97, 35789.863, 0.0, 9.999302, 9.999974 
2.758849e+3, 2.6245075e+2, -582540.3, -585091.94, 34818.89, -0.34211046, -0.30431548, -548973.9, -181011.69, 0.0, 9.99939, 9.999277 
2.7584305e+3, 2.7244028e+2, -382356.84, -419077.94, -24220.756, 0.3294899, -0.38531882, -370324.03, -100266.98, 0.0, 10.000026, 9.999429 
2.7580088e+3, 2.8242972e+2, -415847.34, -659113.56, 21527.295, 0.62053084, -0.3950605, -413957.03, -241796.86, 0.0, 10.000279, 9.997003 
2.757577e+3, 2.9241893e+2, -354534.38, -609496.6, -23955.852, -0.14563546, -0.24907495, -352303.06, -278020.5, 0.0, 10.000156, 9.996727 
2.757149e+3, 3.0241016e+2, -208675.42, -176316.66, -75001.29, -0.5204475, -0.0066768504, -115769.47, -115769.47, 0.0, 9.999126, 9.999544 
2.7567357e+3, 3.1240538e+2, -437667.78, -77504.3, -77372.305, 0.5758448, 0.31044725, -61586.273, -61586.273, 0.0, 9.996408, 10.001198 
2.7563068e+3, 3.2239538e+2, -242552.67, 145215.05, -45144.32, 0.22981499, 0.09098614, 150401.42, 150401.42, 0.0, 9.997202, 10.002325 
2.774325e+3, 1.3300492e+2, -1068218.8, -1478768.9, 175378.73, 0.29934478, -0.25273612, -1003502.06, 633035.1, 0.0036443742, 10.004787, 9.999285 
2.7739e+3, 1.4299616e+2, -1151582.6, -1736522.5, 69514.39, 0.06866529, -0.069196396, -1143435.0, 395190.47, 0.0017885888, 10.004682, 9.996915 
2.7734786e+3, 1.529848e+2, -1099871.0, -1654044.1, 6562.1816, 0.23634683, 0.012071115, -1099793.4, 340948.38, 0.0005834371, 10.004384, 9.996918 
2.7730575e+3, 1.6297324e+2, -1015604.25, -1453992.4, -21121.496, 0.35287145, 0.0031082772, -1014588.94, 328268.3, 0.00010500734, 10.003775, 9.997937 
2.7726358e+3, 1.7296097e+2, -1059129.1, -1349119.5, -12989.884, 0.30956295, -0.17964837, -1058548.4, 186425.78, 0.0000068884756, 10.00253, 9.998557 
2.772215e+3, 1.8295011e+2, -977057.8, -1161273.1, 77382.58, 0.28958935, -0.27858388, -948866.4, 198211.0, 0.00000000965895, 10.001983, 9.999454 
2.771796e+3, 1.9294156e+2, -721800.94, -942540.44, 228689.05, 0.28351676, -0.21934202, -578241.25, 470917.53, 0.0, 10.002881, 9.99984 
2.7713755e+3, 2.029333e+2, -580835.9, -722441.0, 171589.28, 0.28079537, -0.15812477, -466015.47, 485222.88, 0.0, 10.002729, 10.000758 
2.7709526e+3, 2.129262e+2, -782428.4, -690356.5, 93864.81, 0.32399273, -0.08748025, -631846.25, 221460.9, 0.0, 10.000363, 10.0014305 
2.770531e+3, 2.2291812e+2, -1011107.4, -1031062.9, 137495.42, 0.36777857, -0.04141127, -883228.2, -127841.62, 0.0, 9.999313, 9.998933 
2.77011e+3, 2.3290709e+2, -672114.2, -862850.94, 185598.11, 0.38181627, -0.09209944, -558815.9, 98682.086, 0.0, 10.001184, 9.998502 
2.7696884e+3, 2.4289632e+2, -448556.5, -645122.25, 198035.6, 0.34522644, -0.1363897, -325756.53, 233848.63, 0.0, 10.001768, 9.999054 
2.7692655e+3, 2.5288612e+2, -638881.3, -628095.5, 168233.03, 0.15423124, -0.19370325, -465168.97, -3467.3787, 0.0, 9.999556, 9.999555 
2.7688426e+3, 2.6287588e+2, -788156.56, -724738.06, 55613.55, 0.06842601, -0.24556439, -692429.0, -328631.66, 0.0, 9.998172, 9.998891 
2.7684206e+3, 2.7286556e+2, -552286.2, -542266.94, -15211.246, 0.30221298, -0.27509028, -531261.6, -265368.16, 0.0, 9.999037, 9.999056 
2.7679977e+3, 2.8285486e+2, -541712.7, -741766.8, -3138.2273, 0.42056254, -0.2687134, -541663.44, -373664.0, 0.0, 9.999511, 9.996796 
2.7675697e+3, 2.9284322e+2, -485526.4, -689270.9, -3050.097, 0.056594606, -0.1931046, -485480.78, -415352.28, 0.0, 9.999323, 9.99657 
2.7671427e+3, 3.0283365e+2, -208283.03, -154356.5, -39465.76, -0.1718028, -0.03265462, -133522.66, -133522.66, 0.0, 9.999046, 9.999721 
2.766722e+3, 3.1282845e+2, -104724.2, 93377.97, -84698.0, 0.3773134, 0.24559034, 124652.89, 124652.89, 0.0, 9.998683, 10.001259 
2.7662948e+3, 3.2281798e+2, -343861.63, 83756.78, -92221.31, 0.23409948, -0.01722617, 102797.63, 102797.63, 0.0, 9.996574, 10.002198 
2.7843207e+3, 1.3343234e+2, -1380753.6, -1879836.9, 57110.88, 0.33521807, 0.051910702, -1374301.8, 258052.44, 0.0021378018, 10.003761, 9.997001 
2.783894e+3, 1.434197e+2, -1106139.9, -1791888.5, -39019.813, -0.14808834, -0.020273816, -1103926.8, 430559.25, 0.0009964788, 10.00534, 9.996214 
2.783475e+3, 1.5340698e+2, -1053482.4, -1673537.9, 49081.76, 0.27331007, -0.046568625, -1049621.3, 386988.44, 0.00029941666, 10.004887, 9.996544 
2.783054e+3, 1.6339497e+2, -921637.0, -1427227.4, 111518.41, 0.49639204, -0.059458308, -898132.06, 440595.63, 0.00004641634, 10.004519, 9.99776 
2.7826288e+3, 1.7338367e+2, -768902.44, -1229977.1, 122884.375, 0.19386923, -0.11553955, -738196.56, 502641.78, 0.0000020738605, 10.004629, 9.998361 
2.7822065e+3, 1.833738e+2, -621037.7, -795104.1, 187635.27, 0.048592508, -0.158322, -501233.38, 641697.5, 0.00000000000031198744, 10.003601, 10.001185 
2.7817893e+3, 1.9336675e+2, -780502.4, -711010.4, 207770.25, 0.27697793, -0.16778262, -535100.8, 509888.2, 0.0, 10.00138, 10.00214 
2.7813697e+3, 2.0335908e+2, -965276.4, -970914.4, 26946.053, 0.3845664, -0.17209078, -941002.25, 6055.551, 0.0, 10.000368, 10.000194 
2.7809435e+3, 2.133496e+2, -731596.25, -799270.9, -28029.402, 0.25382203, -0.23906468, -721494.9, 127657.086, 0.0, 10.001294, 10.000233 
2.7805197e+3, 2.233399e+2, -735889.44, -861969.6, 112596.836, 0.16102625, -0.29960546, -669886.5, 81360.46, 0.0, 10.001049, 9.999261 
2.7801e+3, 2.3332962e+2, -752992.25, -804977.56, 167815.03, 0.16356575, -0.3655045, -609168.8, 44177.465, 0.0, 10.000213, 9.999371 
2.7796802e+3, 2.4331994e+2, -773477.8, -839407.44, 77645.34, 0.26365688, -0.34486964, -722089.3, -166647.22, 0.0, 9.999704, 9.998719 
2.77926e+3, 2.5331122e+2, -704466.06, -725616.7, 43952.902, 0.53749835, -0.21108422, -669834.1, -212301.28, 0.0, 9.999394, 9.998963 
2.778837e+3, 2.633019e+2, -716306.4, -764428.6, 32519.74, 0.5701236, -0.111257665, -699914.2, -340287.38, 0.0, 9.9989805, 9.998239 
2.77841e+3, 2.7329135e+2, -522552.88, -595623.9, 12479.226, 0.20526472, -0.10726101, -520480.44, -258751.19, 0.0, 9.999525, 9.998462 
2.777985e+3, 2.8328043e+2, -516427.9, -696870.9, 6710.6035, 0.10072336, -0.092928745, -516178.7, -352340.2, 0.0, 9.999552, 9.997085 
2.777564e+3, 2.932687e+2, -478499.34, -626500.5, 14980.642, 0.42419472, -0.07572378, -476998.22, -411035.5, 0.0, 9.999127, 9.997094 
2.777138e+3, 3.0325806e+2, -235533.28, -173121.08, -28136.16, 0.3736552, -0.053363666, -162309.75, -162309.75, 0.0, 9.9988785, 9.999679 
2.7767077e+3, 3.1324938e+2, -126083.97, 42312.383, -75876.96, -0.025037074, -0.093253076, 71457.25, 71457.25, 0.0, 9.998701, 10.000907 
2.776284e+3, 3.232393e+2, -454642.8, -241014.1, -285831.34, 0.39257678, -0.19319814, -42691.008, -42691.008, 0.0, 9.996908, 9.999846 
2.7943155e+3, 1.3385704e+2, -1512566.8, -2197344.5, 173691.27, 0.28206557, 0.31889832, -1471030.1, 157173.16, 0.0011463918, 10.003936, 9.9947405 
2.7938914e+3, 1.4384282e+2, -910780.4, -1440683.5, -37359.98, -0.060014255, 0.13115071, -908159.4, 622194.8, 0.0004998195, 10.005554, 9.998527 
2.7934703e+3, 1.5382999e+2, -842343.8, -1255990.4, 69889.07, 0.22341588, -0.18517558, -830854.6, 601608.94, 0.00013405783, 10.004969, 9.999375 
2.7930495e+3, 1.638195e+2, -827799.3, -1315671.4, 193206.0, 0.4221576, -0.22148404, -760554.75, 574004.7, 0.00001642319, 10.0048685, 9.998359 
2.7926266e+3, 1.7381215e+2, -645708.06, -1154049.9, 217853.03, 0.3199412, 0.11048337, -565121.1, 671517.1, 0.0000003300107, 10.005394, 9.998516 
2.792204e+3, 1.8380265e+2, -586399.8, -896120.9, 143164.39, 0.2640265, 0.14360638, -530362.6, 608367.4, 0.0, 10.004314, 10.0001545 
2.7917823e+3, 1.937902e+2, -985337.3, -964788.4, 85568.766, 0.36296865, -0.2586389, -888879.44, 151958.88, 0.0, 10.000629, 10.000762 
2.79136e+3, 2.0378023e+2, -1126765.8, -1093127.4, 54797.855, 0.39041162, -0.39542943, -1052625.6, -109695.33, 0.0, 9.999467, 9.999776 
2.7909368e+3, 2.1377309e+2, -619258.6, -783252.25, 42722.746, 0.25319806, -0.19342136, -608796.2, 236210.47, 0.0, 10.002244, 9.99988 
2.7905133e+3, 2.2376437e+2, -491475.5, -734899.7, 22246.92, 0.17386106, -0.13681799, -489459.03, 257635.31, 0.0, 10.002675, 9.999345 
2.7900907e+3, 2.3375337e+2, -871942.3, -845196.94, 25145.203, 0.18428804, -0.29020187, -830089.6, -180891.16, 0.0, 9.999313, 9.999521 
2.78967e+3, 2.4374364e+2, -1025478.56, -937739.75, 52257.313, 0.29288858, -0.2996993, -913379.0, -362084.75, 0.0, 9.99788, 9.998913 
2.7892506e+3, 2.5373554e+2, -657529.9, -697979.4, 47958.797, 0.55251586, -0.11156938, -625705.7, -172325.44, 0.0, 9.999678, 9.999025 
2.7888286e+3, 2.637269e+2, -427322.44, -560337.06, 28245.965, 0.59535503, 0.024087219, -421572.88, -66103.43, 0.0, 10.000681, 9.998816 
2.7884015e+3, 2.737172e+2, -326790.63, -433708.0, 36504.64, 0.24227646, 0.05240681, -315515.84, -57950.73, 0.0, 10.000591, 9.999047 
2.787976e+3, 2.837067e+2, -346890.72, -443794.84, 35728.645, 0.09012278, 0.019223515, -335141.97, -175474.33, 0.0, 10.000013, 9.998582 
2.7875525e+3, 2.936949e+2, -408564.5, -410179.0, 83212.97, 0.28090048, -0.11750672, -326154.88, -264372.1, 0.0, 9.998854, 9.998699 
2.7871272e+3, 3.0368418e+2, -285814.34, -175727.34, 126201.84, 0.31729117, -0.19113472, -93087.54, -93087.54, 0.0, 9.998457, 9.999852 
2.7867004e+3, 3.1367525e+2, -15099.383, 70275.85, 83498.33, 0.24376698, -0.22287442, 121365.65, 121365.65, 0.0, 9.9995775, 10.000672 
2.7862746e+3, 3.236659e+2, -5675.97, -170545.6, -143758.95, 0.4905792, -0.15864584, 77606.25, 77606.25, 0.0, 10.000641, 9.998513 
2.8043115e+3, 1.3427898e+2, -1154085.1, -2126122.8, 276411.47, 0.21239918, 0.2779862, -1080981.8, 543089.7, 0.0005526847, 10.006844, 9.993833 
2.8038895e+3, 1.442659e+2, -730512.25, -1246900.8, -56240.773, 0.06408843, 0.19713454, -724457.94, 801755.5, 0.0002231171, 10.006355, 9.999467 
2.8034663e+3, 1.5425369e+2, -895601.6, -1148855.5, -99330.016, 0.26843488, -0.17521548, -861291.2, 567022.56, 0.000052595453, 10.004046, 10.000549 
2.8030446e+3, 1.6424437e+2, -1092923.1, -1387394.6, 24569.451, 0.42019793, -0.20213284, -1090887.3, 239509.28, 0.0000047753, 10.00283, 9.998838 
2.802623e+3, 1.7423882e+2, -951403.56, -1249126.4, 97971.72, 0.39689896, 0.23405433, -922056.75, 310401.7, 0.00000002399446, 10.00307, 9.998978 
2.8022e+3, 1.8422942e+2, -900642.4, -1130969.0, -32306.281, 0.37309688, 0.27016488, -896196.8, 238352.33, 0.0, 10.002539, 9.999396 
2.801774e+3, 1.9421422e+2, -999349.44, -1081990.9, -19701.541, 0.38521114, -0.32087165, -994893.0, 41790.484, 0.0, 10.001027, 9.9997635 
2.801351e+3, 2.0420305e+2, -1093002.9, -1131982.9, 162548.63, 0.35177144, -0.49504063, -948779.94, -9991.05, 0.0, 9.999943, 9.999283 
2.8009295e+3, 2.141974e+2, -924237.44, -965809.06, 165240.23, 0.24704312, -0.11073341, -778480.8, 62373.64, 0.0, 10.000304, 9.999559 
2.800507e+3, 2.241894e+2, -807835.25, -898029.8, -20627.895, 0.1915328, 0.043305203, -803341.44, -60404.457, 0.0, 10.000571, 9.999239 
2.800082e+3, 2.3417789e+2, -737350.44, -780022.0, -46694.215, 0.22952387, -0.15857355, -707348.44, -62302.72, 0.0, 10.000258, 9.999513 
2.7996597e+3, 2.4416794e+2, -774287.6, -795017.9, 120238.76, 0.3085027, -0.19390409, -663968.06, -116824.875, 0.0, 9.999511, 9.999115 
2.7992406e+3, 2.5416002e+2, -689049.6, -682173.2, 146351.3, 0.46111774, -0.017290331, -539219.75, -89992.516, 0.0, 9.9993305, 9.999303 
2.798819e+3, 2.6415187e+2, -562371.3, -542312.0, 68534.73, 0.48539308, 0.13038467, -483076.94, -131765.6, 0.0, 9.999408, 9.999551 
2.798394e+3, 2.7414322e+2, -379791.7, -367917.13, 65831.09, 0.32403788, 0.1808974, -307756.1, -54358.047, 0.0, 9.999837, 9.999862 
2.797967e+3, 2.8413337e+2, -282123.22, -224339.98, 7473.3853, 0.11959048, 0.09072844, -223389.06, -67898.22, 0.0, 9.999633, 10.000285 
2.797538e+3, 2.941216e+2, -272328.3, -130144.35, 38937.75, -0.12656116, -0.2359587, -120179.45, -62584.336, 0.0, 9.998853, 10.000633 
2.7971137e+3, 3.0411148e+2, -273714.2, -176746.17, 137322.03, 0.021895498, -0.35340416, -79600.37, -79600.37, 0.0, 9.998562, 9.999801 
2.796698e+3, 3.1410396e+2, -36979.867, 22950.178, 105969.945, 0.9210786, -0.21423821, 103110.23, 103110.23, 0.0, 9.999576, 10.000353 
2.796262e+3, 3.2409546e+2, -77549.2, -296860.1, -82871.234, 0.0753166, -0.009388172, -49756.63, -49756.63, 0.0, 10.000581, 9.997655 
2.8143093e+3, 1.3469796e+2, -1021577.44, -1946607.4, 331431.97, 0.1338948, -0.1628638, -915086.94, 704869.5, 0.00023938702, 10.007218, 9.994901 
2.8138888e+3, 1.4468873e+2, -826009.1, -1441451.9, -143413.13, 0.26027426, 0.15359382, -794231.2, 727832.0, 0.00008923843, 10.006325, 9.998152 
2.8134635e+3, 1.546785e+2, -1064804.9, -1431227.4, -199159.38, 0.51576704, 0.16322291, -977404.2, 446758.8, 0.000018026845, 10.003743, 9.998762 
2.8130397e+3, 1.6466865e+2, -1054199.9, -1205588.8, 6725.101, 0.56615484, 0.10723386, -1053901.8, 272354.6, 0.0000012520117, 10.00239, 10.000299 
2.812616e+3, 1.7465943e+2, -940426.1, -1074247.4, 87536.875, 0.29726186, 0.028506694, -897156.3, 331186.25, 0.0000000065346386, 10.002417, 10.000493 
2.812191e+3, 1.8465057e+2, -868892.2, -954456.0, -70343.484, 0.17770708, -0.025075357, -829342.44, 301080.47, 0.0, 10.002093, 10.000801 
2.811765e+3, 1.946413e+2, -868504.7, -887869.25, -20138.162, 0.2492263, -0.13940725, -855842.1, 176661.58, 0.0, 10.001369, 10.000927 
2.8113413e+3, 2.0463204e+2, -1050249.8, -1138967.3, 184907.88, 0.27659094, -0.16072431, -904454.25, 30137.623, 0.0, 10.000343, 9.999039 
2.8109196e+3, 2.146234e+2, -1139808.6, -1111172.5, 181836.56, 0.21655661, -0.032241993, -943091.2, -106407.71, 0.0, 9.998992, 9.999193 
2.8104976e+3, 2.2461429e+2, -991984.25, -999609.2, 87226.77, 0.20812745, 0.041290525, -908486.7, -169710.08, 0.0, 9.999373, 9.999113 
2.8100747e+3, 2.3460406e+2, -534838.2, -706424.5, 63546.97, 0.2633062, 0.0003052638, -513866.72, 127009.63, 0.0, 10.001756, 9.999294 
2.809652e+3, 2.4459419e+2, -380321.97, -486290.38, 115186.414, 0.33607277, -0.05737108, -306518.03, 236452.27, 0.0, 10.001714, 10.000162 
2.80923e+3, 2.545849e+2, -683347.5, -562209.7, 152736.08, 0.41969228, -0.110436425, -458471.25, -13414.043, 0.0, 9.998883, 10.000334 
2.8088084e+3, 2.6457626e+2, -759375.06, -571782.75, 186807.6, 0.476765, -0.088195875, -456545.88, -109403.04, 0.0, 9.997774, 10.000138 
2.8083858e+3, 2.7456802e+2, -496818.97, -374713.78, 179283.19, 0.4829821, -0.026033472, -246372.92, 2856.0117, 0.0, 9.998808, 10.000322 
2.8079593e+3, 2.8455934e+2, -271489.56, -132916.39, 64338.48, 0.31717888, -0.052419867, -107651.02, 43661.477, 0.0, 9.999314, 10.00107 
2.8075287e+3, 2.945497e+2, -146378.97, 10800.371, 42354.895, -0.06548065, -0.22844627, 21487.088, 74883.42, 0.0, 9.999356, 10.0013685 
2.8071043e+3, 3.045407e+2, -207193.67, -234058.78, 132736.44, 0.05468259, -0.23758706, -87211.85, -87211.85, 0.0, 9.999421, 9.998983 
2.8066894e+3, 3.1453276e+2, -78682.24, -100014.57, 66037.52, 1.0237045, -0.054059494, -22455.049, -22455.049, 0.0, 9.999735, 9.999428 
2.806252e+3, 3.2452217e+2, -91725.125, -299995.97, -114644.99, -0.058542263, -0.015146804, -40981.047, -40981.047, 0.0, 10.000462, 9.997696 
2.8243068e+3, 1.3512209e+2, -1288143.6, -1747923.1, 224183.48, 0.17708024, -0.14593767, -1196929.8, 418871.7, 0.00009998568, 10.004021, 9.997778 
2.8238857e+3, 1.4511241e+2, -1459458.9, -1831046.0, -19061.268, 0.40633756, 0.02245181, -1458483.6, 59421.273, 0.000033856948, 10.0023575, 9.997376 
2.8234598e+3, 1.5510394e+2, -864278.4, -1432009.9, 14187.346, 0.5862807, 0.30424193, -863924.06, 556075.3, 0.000005500025, 10.005549, 9.997879 
2.8230345e+3, 1.650941e+2, -604926.06, -899561.75, 185773.5, 0.56641304, 0.27691835, -515148.28, 806948.0, 0.0000002527922, 10.005102, 10.001092 
2.8226086e+3, 1.7508276e+2, -953248.56, -981730.75, 183438.53, 0.2236275, -0.08328526, -783499.2, 440697.97, 0.0, 10.001929, 10.001356 
2.8221825e+3, 1.8507431e+2, -980092.6, -973134.9, -25610.334, 0.07084021, -0.14469445, -950768.2, 175504.3, 0.0, 10.0011835, 10.001118 
2.8217572e+3, 1.9506861e+2, -681848.4, -747206.7, -58623.242, 0.17934869, 0.050513495, -647411.1, 380912.25, 0.0, 10.00244, 10.001377 
2.821333e+3, 2.0506026e+2, -785212.25, -1041107.0, 79283.88, 0.21799733, 0.10499413, -762638.94, 167764.36, 0.0, 10.002316, 9.998753 
2.82091e+3, 2.1504913e+2, -834842.25, -985882.0, 103658.29, 0.17002042, -0.008180775, -782111.25, 50402.863, 0.0, 10.001201, 9.998981 
2.8204882e+3, 2.2503932e+2, -833700.56, -953893.75, 138336.3, 0.19085881, 0.019396938, -742971.0, -8357.824, 0.0, 10.000597, 9.9988365 
2.8200677e+3, 2.3503049e+2, -681623.06, -805982.2, 134419.23, 0.2885494, 0.13441642, -595698.5, 41004.992, 0.0, 10.000872, 9.999038 
2.8196445e+3, 2.4502072e+2, -544482.06, -449148.72, 5121.5225, 0.3349608, 0.0457843, -448874.38, 89918.9, 0.0, 10.000098, 10.001197 
2.8192195e+3, 2.5501004e+2, -719612.7, -464105.56, 19823.914, 0.36284626, -0.2552982, -462576.63, -21693.635, 0.0, 9.998151, 10.001354 
2.8187972e+3, 2.6500082e+2, -802422.9, -566560.0, 177453.84, 0.46532658, -0.35519826, -471424.1, -128453.945, 0.0, 9.997368, 10.000371 
2.818377e+3, 2.749928e+2, -571810.6, -377072.3, 177655.83, 0.6333451, -0.31006828, -271852.34, -26795.45, 0.0, 9.99815, 10.000622 
2.8179517e+3, 2.8498548e+2, -355860.44, -155652.27, 9514.237, 0.52038246, -0.22609602, -155201.14, -8070.929, 0.0, 9.998661, 10.001227 
2.817521e+3, 2.9497868e+2, -170434.19, 17224.51, -9187.743, 0.15373354, -0.15248673, 17673.266, 66864.91, 0.0, 9.999107, 10.001533 
2.8170958e+3, 3.0497065e+2, -296319.72, -414944.56, 106308.26, 0.14420927, -0.007425015, -233897.14, -233897.14, 0.0, 9.999399, 9.997756 
2.8166774e+3, 3.149616e+2, -151696.97, -263222.5, 72804.29, 0.7208514, 0.17494763, -115753.95, -115753.95, 0.0, 9.9997835, 9.998286 
2.816246e+3, 3.249467e+2, -42319.1, -170952.06, -63023.156, 0.17565267, -0.19925311, -16588.217, -16588.217, 0.0, 10.000334, 9.998649 
2.8343037e+3, 1.3555148e+2, -1002450.3, -1043563.3, -40025.707, 0.36153615, 0.28820294, -978010.94, 633595.8, 0.00004580229, 10.003489, 10.002891 
2.8338793e+3, 1.4553723e+2, -1416221.6, -1688754.0, 172897.84, 0.4593193, -0.28718263, -1332346.6, 181388.11, 0.000014274378, 10.002126, 9.998465 
2.833454e+3, 1.5553005e+2, -725377.94, -1253755.8, 223269.92, 0.3324859, 0.039939012, -643669.1, 772145.75, 0.0000019516297, 10.006029, 9.99887 
2.8330284e+3, 1.6552202e+2, -582116.8, -974685.25, 108729.65, 0.3239803, 0.19084357, -554013.8, 763881.94, 0.00000005936716, 10.005617, 10.000324 
2.832602e+3, 1.7551304e+2, -1053706.6, -1134298.6, 98099.96, 0.29261994, 0.1630071, -987949.0, 232030.33, 0.0, 10.001661, 10.000446 
2.832177e+3, 1.8550335e+2, -1128589.8, -1253880.9, 79285.78, 0.29138765, 0.12059517, -1090187.4, 31885.732, 0.0, 10.0010395, 9.999269 
2.831753e+3, 1.9549331e+2, -709291.5, -966231.44, 11652.811, 0.3660648, 0.0796123, -708764.06, 315408.03, 0.0, 10.00313, 9.999542 
2.8313285e+3, 2.0548323e+2, -513971.53, -805686.06, 38274.4, 0.29796594, 0.0019856659, -509033.34, 417233.66, 0.0, 10.003727, 9.999689 
2.830903e+3, 2.1547265e+2, -518029.28, -748260.8, 77057.484, 0.096872546, -0.13197723, -494618.88, 333744.72, 0.0, 10.003004, 9.999749 
2.8304803e+3, 2.2546333e+2, -648188.06, -835973.2, 109737.08, 0.13624287, -0.102841206, -597657.5, 132797.58, 0.0, 10.001748, 9.99909 
2.8300595e+3, 2.3545493e+2, -778163.0, -822055.7, 107891.95, 0.3552617, 0.04324059, -690007.94, -57465.223, 0.0, 10.00007, 9.999319 
2.829635e+3, 2.4544573e+2, -748049.9, -543207.5, -27013.996, 0.38694987, -0.0060269027, -539704.8, -5075.7183, 0.0, 9.998684, 10.001227 
2.8292072e+3, 2.5543562e+2, -795928.25, -505772.34, -40061.707, 0.27460742, -0.2437076, -500342.66, -63626.457, 0.0, 9.997633, 10.00132 
2.8287843e+3, 2.6542693e+2, -840180.94, -568477.1, 151290.02, 0.35345897, -0.29618073, -500995.8, -162197.33, 0.0, 9.99706, 10.000487 
2.8283647e+3, 2.7541944e+2, -740914.0, -454703.2, 118201.555, 0.5630613, -0.20853311, -412199.4, -171321.34, 0.0, 9.997001, 10.000628 
2.82794e+3, 2.8541154e+2, -570251.1, -340041.75, -39405.195, 0.4799144, -0.15309714, -333483.53, -190526.75, 0.0, 9.997548, 10.000493 
2.8275108e+3, 2.9540342e+2, -287406.78, -136493.31, -109523.38, 0.12858663, -0.13739754, -78949.71, -33916.234, 0.0, 9.998727, 10.000657 
2.8270856e+3, 3.0539525e+2, -170698.0, -209192.36, 31081.469, 0.079266295, -0.040621385, -153386.84, -153386.84, 0.0, 9.999641, 9.999045 
2.826666e+3, 3.1538692e+2, 6932.5903, -73753.48, 77015.95, 0.48696873, 0.09285567, 53532.164, 53532.164, 0.0, 10.00039, 9.999292 
2.8262365e+3, 3.2537356e+2, -233117.53, -253745.94, -98843.164, 0.2042216, -0.1794834, -144051.89, -144051.89, 0.0, 9.999009, 9.998704 
2.844298e+3, 1.3597806e+2, -1248399.4, -1020713.6, -56120.418, 0.43963623, 0.382789, -1007632.5, 599798.4, 0.000024267947, 10.001203, 10.004148 
2.8438735e+3, 1.4596356e+2, -1095631.0, -1456678.0, 117927.53, 0.45725736, -0.32309005, -1060526.1, 449029.78, 0.0000074734667, 10.004009, 9.999144 
2.843449e+3, 1.5595661e+2, -958924.1, -1297184.5, 143364.17, 0.18020812, -0.063270465, -906337.56, 505292.56, 0.0000012508747, 10.00414, 9.999472 
2.843023e+3, 1.659493e+2, -877407.9, -1197362.5, -126224.984, 0.18034571, 0.15240075, -833607.1, 480097.25, 0.000000073245815, 10.003952, 9.999594 
2.8425956e+3, 1.759416e+2, -904750.8, -1149414.9, -86942.83, 0.33192092, 0.30127457, -877002.25, 338777.53, 0.0, 10.00308, 9.999651 
2.842171e+3, 1.8593118e+2, -986943.3, -1311859.9, 106948.97, 0.43077588, 0.28073218, -954900.25, 162984.14, 0.0, 10.002573, 9.998124 
2.8417486e+3, 1.9591856e+2, -845631.44, -1148862.8, 133413.9, 0.51056194, 0.090665035, -795290.25, 224722.19, 0.0, 10.002711, 9.998484 
2.8413233e+3, 2.0590757e+2, -674091.8, -821770.75, 91633.15, 0.3557105, -0.048463408, -630249.94, 291865.2, 0.0, 10.002379, 10.000223 
2.840896e+3, 2.1589747e+2, -676535.4, -768390.06, 87279.71, 0.03012879, -0.18821184, -623836.8, 200364.84, 0.0, 10.001683, 10.000243 
2.8404725e+3, 2.2588834e+2, -771954.44, -866178.56, 76751.3, 0.09867099, -0.17209995, -729009.25, -2720.3264, 0.0, 10.000785, 9.999343 
2.8400517e+3, 2.3587987e+2, -797593.94, -797636.25, 78556.37, 0.4437348, -0.06001014, -719058.75, -90681.734, 0.0, 9.999811, 9.999605 
2.839625e+3, 2.4587116e+2, -724920.25, -566186.2, -39952.785, 0.41843745, -0.05594962, -556697.44, -26236.045, 0.0, 9.999001, 10.000915 
2.8391948e+3, 2.55862e+2, -718597.94, -507876.06, -47080.758, 0.16217381, -0.1728873, -497835.44, -65290.094, 0.0, 9.9983425, 10.000961 
2.838771e+3, 2.6585397e+2, -713006.94, -519069.94, 158469.2, 0.18344793, -0.13210253, -430255.3, -95633.12, 0.0, 9.997984, 10.000384 
2.8383514e+3, 2.758468e+2, -612865.94, -419737.66, 126625.76, 0.40500048, -0.004308073, -357057.6, -120362.61, 0.0, 9.997988, 10.000398 
2.8379273e+3, 2.8583744e+2, -565760.06, -464123.6, 9253.153, 0.31343478, -0.017904866, -463288.03, -324500.88, 0.0, 9.998131, 9.999358 
2.8374994e+3, 2.9582646e+2, -363294.72, -285102.84, -43842.406, -0.0064180978, -0.17343608, -265456.56, -224562.77, 0.0, 9.998686, 9.999659 
2.8370747e+3, 3.0581775e+2, -88650.96, 79554.04, 64603.79, -0.07810774, -0.19906628, 101502.84, 101502.84, 0.0, 9.999132, 10.001277 
2.8366554e+3, 3.1581062e+2, 33246.125, 149016.97, 75447.49, 0.26262066, -0.17306073, 186226.48, 186226.48, 0.0, 9.999658, 10.001181 
2.836224e+3, 3.2580337e+2, -280128.1, -356404.97, -196198.58, -0.030934522, 0.120467015, -118395.52, -118395.52, 0.0, 9.999034, 9.997984 
2.8542894e+3, 1.3640198e+2, -1451139.5, -1488758.1, 227742.36, 0.36528823, 0.18139929, -1241431.1, 361843.03, 0.000012981825, 10.001363, 10.000881 
2.8538686e+3, 1.4639154e+2, -1047930.5, -1392742.5, 94153.4, 0.42877892, 0.026188726, -1023896.44, 481473.56, 0.000003738906, 10.0041275, 9.999538 
2.8534445e+3, 1.5638335e+2, -998398.7, -1285510.0, 101281.49, 0.2529972, 0.13503045, -966266.6, 441185.06, 0.00000051506584, 10.003713, 9.999768 
2.853018e+3, 1.663743e+2, -902545.6, -1179314.5, -144739.55, 0.23499192, 0.14455535, -840680.75, 468860.56, 0.00000002542409, 10.003644, 9.99987 
2.8525892e+3, 1.7636468e+2, -797374.44, -1062447.1, -91071.125, 0.24830043, 0.089810774, -769100.8, 442535.2, 0.0, 10.003663, 9.999966 
2.8521642e+3, 1.8635593e+2, -778944.56, -1030992.8, 105578.86, 0.34968272, 0.13693592, -740563.75, 373158.34, 0.0, 10.0032425, 9.999716 
2.8517422e+3, 1.9634722e+2, -778567.06, -974705.0, 171692.23, 0.51615095, 0.20186938, -678909.6, 336898.34, 0.0, 10.002564, 9.999748 
2.8513166e+3, 2.0633769e+2, -804676.56, -957327.75, 129359.82, 0.3963265, 0.19809648, -730803.75, 187097.1, 0.0, 10.001782, 9.999581 
2.8508887e+3, 2.1632767e+2, -826258.5, -896835.5, 100841.46, 0.08982363, 0.1393892, -754709.4, 65287.535, 0.0, 10.000889, 9.999744 
2.8504652e+3, 2.2631778e+2, -799935.94, -821431.3, 101575.95, 0.22441013, 0.07742372, -708540.6, 13550.74, 0.0, 10.000326, 9.999867 
2.850044e+3, 2.36308e+2, -744193.7, -722917.75, 101650.71, 0.6221274, 0.015225323, -631349.9, -7164.22, 0.0, 9.999956, 10.000042 
2.8496167e+3, 2.4629933e+2, -645455.2, -578207.6, 2994.921, 0.5416675, 0.03186036, -578074.5, -51804.473, 0.0, 9.999765, 10.000463 
2.8491852e+3, 2.5629112e+2, -552211.5, -474207.8, 2086.3164, 0.16732973, 0.06704317, -474152.03, -45802.066, 0.0, 9.999685, 10.000546 
2.8487605e+3, 2.6628274e+2, -461136.88, -412130.22, 217599.95, 0.108330406, 0.101133734, -217658.31, 112771.12, 0.0, 9.999776, 10.000255 
2.8483403e+3, 2.762743e+2, -308164.25, -296307.1, 168840.77, 0.23592478, 0.12974584, -133290.86, 99218.29, 0.0, 10.000178, 10.000193 
2.8479162e+3, 2.862637e+2, -376022.03, -430634.8, 51022.605, 0.22617939, 0.033873964, -345458.34, -210846.72, 0.0, 9.999684, 9.998841 
2.84749e+3, 2.9625168e+2, -390479.3, -344838.63, 20291.479, 0.10851137, -0.16149697, -337121.9, -300392.94, 0.0, 9.998719, 9.9992285 
2.8470653e+3, 3.062423e+2, -326200.47, -23691.135, 79575.36, 0.08642635, -0.23360208, -4035.8474, -4035.8474, 0.0, 9.997471, 10.001359 
2.8466445e+3, 3.162347e+2, -465283.56, -88892.92, -2044.9565, 0.32487643, -0.2647062, -88881.81, -88881.81, 0.0, 9.996266, 10.001161 
2.846214e+3, 3.2623014e+2, -32169.309, -231015.0, -179461.89, -0.11758097, 0.28649065, 73569.9, 73569.9, 0.0, 10.000716, 9.998038 
2.8642845e+3, 1.3682649e+2, -916229.06, -1617644.4, 265193.9, 0.32816646, 0.027398558, -827250.9, 771858.7, 0.0000059629515, 10.006768, 9.997366 
2.8638634e+3, 1.4681895e+2, -1132451.0, -1368427.4, 94443.92, 0.42594743, 0.26878038, -1099307.3, 401880.84, 0.0000015122073, 10.003308, 10.000089 
2.8634387e+3, 1.5680948e+2, -1231900.9, -1348756.6, 121326.77, 0.2532987, 0.19405091, -1155666.1, 247609.94, 0.0000000966577, 10.001924, 10.000194 
2.8630123e+3, 1.6679963e+2, -1197281.5, -1307472.0, -88356.766, 0.2725583, 0.106765606, -1148249.9, 157123.17, 0.00000000026919006, 10.001586, 9.999975 
2.8625834e+3, 1.7678942e+2, -1069558.8, -1166776.8, -48822.266, 0.2905163, -0.023440313, -1049273.4, 158202.31, 0.0, 10.0016985, 10.0001955 
2.8621578e+3, 1.8678159e+2, -955862.7, -1004571.0, 78612.02, 0.3196732, 0.052921645, -897918.75, 211631.73, 0.0, 10.001545, 10.000719 
2.8617346e+3, 1.9677502e+2, -924894.2, -957349.25, 87775.08, 0.43377256, 0.21964347, -851859.2, 159752.08, 0.0, 10.001187, 10.00053 
2.8613085e+3, 2.0676696e+2, -1081638.3, -1135871.8, 47896.85, 0.37284324, 0.3484141, -1053714.8, -140020.98, 0.0, 10.000103, 9.999156 
2.8608808e+3, 2.1675771e+2, -1146132.8, -1076878.6, 80392.05, 0.18235984, 0.40277702, -1023973.4, -208182.25, 0.0, 9.998828, 9.999494 
2.8604576e+3, 2.2674745e+2, -971995.8, -827300.94, 138294.16, 0.3560515, 0.27622962, -743573.3, -25685.012, 0.0, 9.998832, 10.000544 
2.8600362e+3, 2.3673664e+2, -795161.0, -706409.6, 152492.67, 0.7436236, 0.04936012, -591967.1, 28019.348, 0.0, 9.999437, 10.000408 
2.8596082e+3, 2.467281e+2, -637890.25, -656963.0, 41542.887, 0.60944796, 0.11554371, -604803.25, -82731.93, 0.0, 10.000179, 9.99972 
2.8591764e+3, 2.5672066e+2, -414239.44, -486421.63, 11999.979, 0.18746442, 0.29803306, -412296.78, 11852.719, 0.0, 10.000979, 9.999837 
2.858751e+3, 2.6671162e+2, -393356.78, -405059.0, 204724.52, 0.041037418, 0.3068045, -194399.8, 131834.53, 0.0, 10.00035, 10.0000305 
2.8583297e+3, 2.767016e+2, -443467.88, -396483.6, 160660.08, 0.06075811, 0.19703464, -257607.19, -29283.102, 0.0, 9.999396, 9.999885 
2.8579065e+3, 2.8669024e+2, -469940.88, -509280.47, 21272.455, 0.16419865, 0.059975382, -460637.97, -330205.97, 0.0, 9.999189, 9.998541 
2.8574818e+3, 2.96678e+2, -358571.6, -369957.88, 5421.466, 0.3060793, -0.12746805, -356403.2, -323851.94, 0.0, 9.999111, 9.998872 
2.8570566e+3, 3.0666777e+2, -315235.06, -121067.195, 38080.656, 0.34153706, -0.21393487, -113865.81, -113865.81, 0.0, 9.997984, 10.000446 
2.8566337e+3, 3.1665915e+2, -490674.28, -208759.6, 18490.377, 0.4924646, -0.25524396, -207552.02, -207552.02, 0.0, 9.996543, 10.000214 
2.856205e+3, 3.2665414e+2, 8445.704, -157557.86, 134450.81, -0.20361096, 0.27171308, 83451.25, 83451.25, 0.0, 10.000708, 9.998578 
2.874283e+3, 1.3725139e+2, -1163959.3, -2146463.3, -9790.184, 0.36763674, -0.13518842, -1163861.8, 431077.22, 0.0000021472997, 10.006792, 9.993733 
2.8738573e+3, 1.4724524e+2, -1077203.8, -1203454.0, 54891.48, 0.4157301, 0.3124659, -1056675.6, 440339.0, 0.00000043033984, 10.003066, 10.001342 
2.8734297e+3, 1.5723425e+2, -1231262.8, -1249641.6, 96293.164, 0.09593588, -0.022385381, -1143721.5, 255387.1, 0.000000019645139, 10.001486, 10.001085 
2.8730047e+3, 1.6722597e+2, -1279927.4, -1366204.8, -60331.418, 0.33058125, 0.028425435, -1248898.5, 52292.74, 0.0, 10.001077, 9.999825 
2.8725794e+3, 1.7721853e+2, -1161937.5, -1228491.5, -18825.135, 0.6791631, 0.20443459, -1156981.8, 46289.79, 0.0, 10.001116, 10.000058 
2.8721514e+3, 1.8720837e+2, -1061799.6, -1097919.8, 74807.3, 0.46328744, 0.073032305, -1002903.2, 102464.81, 0.0, 10.000964, 10.000372 
2.871723e+3, 1.9719741e+2, -1011064.0, -1006261.25, 48831.336, 0.09594604, -0.16025902, -959772.3, 47696.14, 0.0, 10.000605, 10.0004835 
2.871297e+3, 2.0719016e+2, -1107003.6, -994401.4, -13746.146, 0.18781212, -0.029029401, -992747.56, -83207.57, 0.0, 9.999273, 10.000514 
2.8708717e+3, 2.1718402e+2, -1230905.5, -961436.4, 75772.086, 0.405796, 0.21329986, -941591.5, -129987.63, 0.0, 9.997576, 10.000881 
2.8704476e+3, 2.2717503e+2, -986140.8, -658480.1, 243615.77, 0.4733867, 0.06916253, -528730.8, 184952.53, 0.0, 9.997983, 10.002106 
2.870024e+3, 2.3716474e+2, -771913.3, -626191.1, 275660.13, 0.5079461, -0.2357314, -413925.5, 201845.7, 0.0, 9.999297, 10.001027 
2.8695983e+3, 2.4715525e+2, -667874.44, -945378.3, 169175.98, 0.44861734, -0.1299549, -587828.25, -69957.47, 0.0, 10.001136, 9.997286 
2.8691706e+3, 2.571462e+2, -223291.2, -592902.5, 63170.867, 0.3065513, 0.13628562, -212792.77, 207180.95, 0.0, 10.003136, 9.998071 
2.8687447e+3, 2.6713634e+2, -228763.38, -301964.47, 113687.164, 0.17247722, 0.115853116, -145930.38, 176138.9, 0.0, 10.001377, 10.00024 
2.8683195e+3, 2.7712592e+2, -624030.1, -463662.44, 105825.45, 0.05946849, -0.044424627, -411074.03, -186910.9, 0.0, 9.998075, 10.000055 
2.8678963e+3, 2.8711605e+2, -536447.6, -483874.78, 122942.3, 0.18293543, -0.06319282, -384440.13, -258182.22, 0.0, 9.998515, 9.999027 
2.8674737e+3, 2.971061e+2, -96278.24, -209952.16, 110340.14, 0.39622545, -0.06020138, -28996.766, -640.14795, 0.0, 10.000789, 9.999153 
2.8670475e+3, 3.070963e+2, -34477.348, -68658.6, 66073.86, 0.37194678, -0.06265956, 16680.424, 16680.424, 0.0, 10.000281, 9.99969 
2.8666213e+3, 3.1708705e+2, -213120.1, -122680.83, 93278.57, 0.40287212, -0.076466925, -64238.96, -64238.96, 0.0, 9.998662, 9.999779 
2.8661954e+3, 3.2707766e+2, -261984.64, -114710.06, 410319.66, -0.21118866, -0.050274193, 228527.53, 228527.53, 0.0, 9.998164, 10.000065 
2.8842804e+3, 1.3768023e+2, -1641822.5, -2563214.8, 10335.091, 0.47873217, -0.041358095, -1641706.5, -50971.76, 0.00000033679078, 10.004329, 9.992056 
2.8838503e+3, 1.4767298e+2, -877193.6, -987088.5, 153381.95, 0.26321304, 0.28520393, -769213.94, 723610.56, 0.000000039050374, 10.003932, 10.002401 
2.8834227e+3, 1.576617e+2, -1120238.0, -1146658.8, 180871.36, 0.117213614, -0.16188854, -952095.25, 442819.84, 0.0000000006124831, 10.002041, 10.001521 
2.8829977e+3, 1.6765398e+2, -1261207.0, -1426067.9, 50581.96, 0.4068602, -0.0154433055, -1246925.0, 50068.813, 0.0, 10.001519, 9.999186 
2.8825727e+3, 1.7764738e+2, -1148799.9, -1278401.0, 63702.53, 0.79010785, 0.3045975, -1122731.8, 76337.336, 0.0, 10.001455, 9.999548 
2.8821436e+3, 1.8763602e+2, -1047534.2, -1105481.1, 147455.81, 0.4790738, 0.088727415, -926232.3, 174944.72, 0.0, 10.001166, 10.000208 
2.881713e+3, 1.9762267e+2, -978266.1, -984271.5, 134672.11, -0.058196485, -0.36769846, -846563.25, 156736.0, 0.0, 10.000823, 10.0005245 
2.881287e+3, 2.0761529e+2, -835326.94, -775409.44, -822.42786, 0.11851501, -0.2900651, -775398.2, 129970.43, 0.0, 10.000771, 10.0013 
2.8808627e+3, 2.1761028e+2, -721752.44, -614448.4, 43523.727, 0.56996167, -0.018189896, -599014.56, 208401.84, 0.0, 10.000645, 10.001788 
2.8804377e+3, 2.2760235e+2, -611862.4, -377459.5, 172778.25, 0.5137672, -0.1565462, -285882.34, 423599.25, 0.0, 10.000133, 10.002998 
2.880012e+3, 2.3759286e+2, -712907.7, -598939.4, 140302.39, 0.26296324, -0.47782403, -504490.53, 107067.37, 0.0, 9.999731, 10.0009985 
2.8795886e+3, 2.4758223e+2, -985274.5, -1334891.6, 124787.836, 0.28693667, -0.3639051, -945304.0, -431631.2, 0.0, 9.999997, 9.995153 
2.8791654e+3, 2.5757116e+2, -686490.75, -987758.2, 90702.875, 0.4174472, -0.09810377, -661290.6, -245488.9, 0.0, 10.000708, 9.996525 
2.878738e+3, 2.6756057e+2, -424576.44, -380548.47, 2748.537, 0.29909918, -0.14407556, -380377.53, -62470.6, 0.0, 9.999985, 10.000361 
2.878309e+3, 2.7755004e+2, -565056.06, -413627.2, 28635.326, 0.09696772, -0.33709094, -408393.13, -188389.25, 0.0, 9.998404, 10.000233 
2.877886e+3, 2.8754225e+2, -425012.22, -348977.56, 188057.25, 0.18866399, -0.19882704, -195133.36, -73053.16, 0.0, 9.99893, 9.999751 
2.8774655e+3, 2.9753518e+2, -122618.086, -192490.64, 152799.28, 0.3991659, 0.024798442, -812.0131, 23340.129, 0.0, 10.000481, 9.99942 
2.8770372e+3, 3.0752638e+2, -90294.61, -183357.31, -16326.709, 0.25265536, 0.15276705, -87513.4, -87513.4, 0.0, 10.000278, 9.998905 
2.8766084e+3, 3.175169e+2, -153397.34, -110662.39, 49928.902, 0.13844167, 0.1885085, -77720.89, -77720.89, 0.0, 9.999152, 9.999626 
2.8761852e+3, 3.2750064e+2, -170065.61, 150364.73, 430362.8, -0.20256904, -0.6010117, 449367.4, 449367.4, 0.0, 9.997889, 10.001999 
2.8942758e+3, 1.3811284e+2, -1632121.8, -2520150.8, 124726.82, 0.50490457, 0.18567315, -1614936.0, -28438.822, 0.00000000011162854, 10.0041895, 9.99243 
2.8938425e+3, 1.48103e+2, -830305.06, -869373.44, 114826.63, 0.0017702986, 0.17141487, -733362.94, 755246.25, 0.0, 10.003828, 10.003264 
2.8934196e+3, 1.580942e+2, -1110151.3, -1127733.6, 163341.3, 0.5021317, -0.090499714, -955364.75, 435309.47, 0.0, 10.002026, 10.001666 
2.89299e+3, 1.6808444e+2, -1322881.0, -1589284.6, 88861.484, 0.42268762, -0.066889815, -1295960.6, -3187.6638, 0.0, 10.001651, 9.998002 
2.8925592e+3, 1.7807475e+2, -1154316.1, -1342480.8, 100116.75, 0.16943918, 0.06442911, -1111012.8, 83865.74, 0.0, 10.001675, 9.998997 
2.8921342e+3, 1.8806697e+2, -955726.75, -979375.06, 184316.45, 0.31415093, 0.18042983, -782855.56, 314098.9, 0.0, 10.001416, 10.000957 
2.891711e+3, 1.9805896e+2, -929899.9, -945356.2, 190038.66, 0.5405328, 0.20801711, -747432.25, 251596.28, 0.0, 10.001063, 10.000681 
2.8912833e+3, 2.0804769e+2, -752533.4, -889384.3, 83655.36, 0.47737882, -0.014583344, -712883.56, 188249.89, 0.0, 10.001962, 9.99996 
2.8908542e+3, 2.1803604e+2, -478132.72, -684899.7, 62729.324, 0.3659252, -0.26492816, -460590.16, 342652.1, 0.0, 10.003093, 10.000136 
2.8904298e+3, 2.2802788e+2, -525066.44, -626950.7, 45094.51, 0.44026452, -0.19959098, -507974.63, 197343.13, 0.0, 10.001994, 10.000376 
2.890006e+3, 2.3802036e+2, -722769.56, -733007.7, -75520.086, 0.51838076, -0.09599411, -652195.25, -44808.58, 0.0, 10.0002165, 9.999838 
2.8895795e+3, 2.4801007e+2, -975236.25, -1018672.56, -3813.6042, 0.38522467, -0.09593555, -974903.94, -465411.78, 0.0, 9.998726, 9.99793 
2.8891528e+3, 2.579989e+2, -1033087.3, -953568.06, 100072.86, 0.2268913, -0.10210223, -885645.75, -474034.97, 0.0, 9.997475, 9.998305 
2.8887278e+3, 2.6798922e+2, -742918.3, -634944.06, 70609.1, 0.31595582, -0.058169954, -600047.8, -286338.53, 0.0, 9.998253, 9.99944 
2.8883022e+3, 2.7797982e+2, -403954.25, -381304.2, 56366.258, 0.42640898, -0.042519398, -335136.5, -119334.484, 0.0, 9.999725, 9.999806 
2.8878778e+3, 2.8797126e+2, -237900.13, -177482.02, 202414.22, 0.29758364, -0.014388265, -3035.0083, 114847.516, 0.0, 9.999858, 10.000478 
2.8874537e+3, 2.9796293e+2, -217636.27, -224528.27, 161045.98, 0.14060633, 0.024331583, -59999.41, -40039.387, 0.0, 9.999787, 9.999518 
2.8870273e+3, 3.0795202e+2, -72172.79, -315172.5, -13623.281, 0.09554866, 0.021202194, -71411.414, -71411.414, 0.0, 10.001038, 9.997643 
2.8866008e+3, 3.1794044e+2, 238618.73, -38868.344, -41324.965, 0.19026487, -0.02390307, 244642.33, 244642.33, 0.0, 10.002381, 9.998591 
2.8861752e+3, 3.279283e+2, -352270.88, 68867.24, 32509.582, -0.033895157, -0.34748685, 71362.02, 71362.02, 0.0, 9.996599, 10.002112 
2.9042694e+3, 1.3854173e+2, -2045439.3, -2439902.5, 158691.9, 0.5063747, 0.040457357, -1989523.8, -407230.22, 0.00000000011825356, 10.000191, 9.994911 
2.9038352e+3, 1.4853388e+2, -1197403.6, -1117553.0, 64591.008, -0.1113412, 0.16663988, -1081544.0, 402838.75, 0.0, 10.001635, 10.002619 
2.9034147e+3, 1.5852554e+2, -1037904.44, -1173736.3, 13826.398, 0.68652177, -0.0021497335, -1036511.3, 349936.97, 0.0, 10.002898, 10.000926 
2.9029834e+3, 1.6851455e+2, -1083605.9, -1536200.4, -6561.807, 0.40462363, -0.049334805, -1083510.8, 205048.3, 0.0, 10.003586, 9.997432 
2.9025492e+3, 1.7850308e+2, -881749.25, -1249827.5, 48085.7, -0.18356645, -0.060222726, -875571.0, 315109.06, 0.0, 10.003736, 9.998639 
2.902126e+3, 1.884974e+2, -929419.6, -955416.06, 57679.36, 0.24445203, 0.26638287, -883292.06, 209445.8, 0.0, 10.001579, 10.001034 
2.9017064e+3, 1.984927e+2, -1224746.9, -1120244.6, 50768.83, 0.94296587, 0.6045213, -1099642.1, -104858.81, 0.0, 9.999212, 10.0003605 
2.9012772e+3, 2.084789e+2, -1105950.8, -1174130.0, 49099.5, 0.66312736, 0.19361795, -1080266.9, -183355.4, 0.0, 10.000058, 9.998908 
2.9008457e+3, 2.1846274e+2, -812871.06, -1024362.5, 58808.453, 0.14101066, -0.4045506, -797618.5, 1443.2681, 0.0, 10.001583, 9.998528 
2.900422e+3, 2.2845435e+2, -825509.3, -1059942.8, 36354.71, 0.3644591, -0.13737844, -820001.0, -118852.33, 0.0, 10.001179, 9.997796 
2.8999996e+3, 2.38448e+2, -788713.0, -855252.5, -7358.7593, 0.7629782, 0.3213676, -787908.9, -184690.78, 0.0, 10.000167, 9.999022 
2.8995702e+3, 2.4843828e+2, -643806.1, -488306.88, 21352.77, 0.45532203, 0.20161238, -485428.06, 19882.703, 0.0, 9.999417, 10.001233 
2.8991395e+3, 2.584276e+2, -730423.9, -597561.6, 94248.52, -0.0069047473, -0.06636183, -548685.0, -141273.42, 0.0, 9.998658, 10.000178 
2.8987172e+3, 2.6841933e+2, -706686.3, -742192.56, 129039.73, 0.31440216, 0.1289541, -594184.25, -284684.4, 0.0, 9.999046, 9.998318 
2.8982967e+3, 2.7841133e+2, -445344.94, -473597.53, 125048.12, 0.79225945, 0.38910598, -333627.75, -122041.1, 0.0, 9.999749, 9.999164 
2.8978693e+3, 2.8840113e+2, -276249.72, -114303.26, 198933.8, 0.3607377, 0.23308045, 19505.543, 133182.98, 0.0, 9.999244, 10.001207 
2.8974408e+3, 2.9839018e+2, -407705.53, -345536.47, 188430.56, -0.26227158, -0.03794082, -185643.7, -169871.34, 0.0, 9.998641, 9.999226 
2.897018e+3, 3.0837524e+2, -329546.88, -601676.9, 67249.53, -0.052095663, -0.33715478, -313835.13, -313835.13, 0.0, 10.000007, 9.996142 
2.8965962e+3, 3.1836075e+2, -77502.086, -420059.38, -64417.445, 0.4081442, -0.5029799, -65788.984, -65788.984, 0.0, 10.001243, 9.996496 
2.8961632e+3, 3.2836193e+2, -556749.56, -174962.78, -332226.03, -0.017424637, 0.7024711, 17307.537, 17307.537, 0.0, 9.995814, 10.000811 
2.9142618e+3, 1.389677e+2, -1752106.5, -1773600.3, 162751.83, 0.66014165, -0.40864798, -1599747.1, -21634.049, 0.0000000000007792345, 9.999902, 9.999629 
2.9138276e+3, 1.489653e+2, -1419113.6, -1523336.6, 124636.945, -0.09473023, 0.29685137, -1336132.6, 144015.34, 0.0, 10.001371, 9.999971 
2.9134065e+3, 1.5895425e+2, -1101122.5, -1372868.8, 37436.98, 0.4638442, 0.10967027, -1096059.4, 286196.22, 0.0, 10.003163, 9.999439 
2.912979e+3, 1.6894399e+2, -944623.8, -1364401.3, -2938.0454, 0.47774574, 0.11914207, -944603.25, 339755.22, 0.0, 10.004065, 9.998391 
2.9125488e+3, 1.7893367e+2, -770943.5, -1180579.6, -125.243385, 0.2714506, 0.15113133, -770943.5, 415519.63, 0.0, 10.004393, 9.998814 
2.912119e+3, 1.8892391e+2, -1035468.25, -1178187.6, -103745.08, 0.2889707, 0.1604199, -980910.3, 107650.88, 0.0, 10.001571, 9.999511 
2.9116908e+3, 1.9891468e+2, -1394342.3, -1276528.0, -63529.605, 0.43016255, 0.181697, -1248797.6, -258144.67, 0.0, 9.998347, 9.999708 
2.9112646e+3, 2.08905e+2, -1176836.9, -1118497.0, 71654.18, 0.3599809, 0.14257398, -1070302.9, -177559.89, 0.0, 9.999141, 9.999752 
2.910838e+3, 2.1889456e+2, -887354.7, -977968.9, 79733.77, 0.1948961, 0.03721911, -840954.6, -46114.902, 0.0, 10.000682, 9.999293 
2.9104125e+3, 2.2888479e+2, -845498.8, -1003931.44, 74601.12, 0.27180812, 0.1009599, -815900.9, -118960.29, 0.0, 10.00071, 9.998428 
2.9099876e+3, 2.388755e+2, -713210.8, -755615.06, 113632.41, 0.43384445, 0.21980454, -618819.44, -19781.277, 0.0, 10.000372, 9.999621 
2.909561e+3, 2.4886653e+2, -479770.56, -383947.34, 120194.82, 0.41746366, 0.15317202, -302466.84, 198653.22, 0.0, 10.000428, 10.00146 
2.9091334e+3, 2.5885737e+2, -436224.75, -435954.06, 110214.195, 0.31390753, 0.023896901, -325875.13, 77327.13, 0.0, 10.000577, 10.000362 
2.9087082e+3, 2.688484e+2, -532270.25, -637523.8, 166359.31, 0.35046285, 0.13925299, -410412.1, -105116.336, 0.0, 10.00017, 9.998486 
2.908284e+3, 2.788396e+2, -441543.3, -426708.2, 183347.27, 0.44206282, 0.30416337, -250628.52, -43239.06, 0.0, 9.999593, 9.999549 
2.9078573e+3, 2.8883064e+2, -485622.44, -187189.64, 227880.22, 0.2345635, 0.24763995, -64018.574, 45451.973, 0.0, 9.997728, 10.001419 
2.9074302e+3, 2.9882035e+2, -895622.8, -480138.94, 206290.58, -0.042395968, 0.022816354, -395113.88, -383551.44, 0.0, 9.994879, 10.0001 
2.924252e+3, 1.3939679e+2, -1359726.0, -1369425.6, -42775.465, 0.4612803, -0.2512444, -1321526.3, 252384.45, 0.0, 10.001735, 10.001499 
2.9238212e+3, 1.493933e+2, -1396309.1, -1580201.6, -10071.034, 0.011452637, 0.29981282, -1395759.3, 80192.516, 0.0, 10.001868, 9.999322 
2.9233983e+3, 1.5938222e+2, -1400737.9, -1546028.3, 59638.4, 0.28752425, 0.15658306, -1379393.4, -1327.1223, 0.0, 10.001253, 9.999166 
2.922973e+3, 1.6937289e+2, -1276221.5, -1423118.6, 37313.7, 0.49006498, 0.2108081, -1267286.8, 12872.728, 0.0, 10.001369, 9.999284 
2.922546e+3, 1.793635e+2, -1178823.6, -1359956.6, -7193.379, 0.5596086, 0.25822493, -1178538.4, 3713.9185, 0.0, 10.001542, 9.998952 
2.9221115e+3, 1.893513e+2, -1125047.0, -1336049.9, -120747.93, 0.28910416, 0.09163302, -1070203.1, 14172.409, 0.0, 10.00146, 9.998478 
2.921677e+3, 1.9933899e+2, -1033496.6, -1146930.3, 45861.027, 0.037333857, -0.100240394, -1017274.9, -30775.574, 0.0, 10.001024, 9.999308 
2.9212534e+3, 2.093323e+2, -766241.2, -832994.3, 239210.6, 0.14452192, 0.13330053, -558089.94, 330471.5, 0.0, 10.00161, 10.000507 
2.920831e+3, 2.1932624e+2, -638384.94, -776470.44, 177799.44, 0.26625347, 0.3941377, -516693.5, 273923.88, 0.0, 10.002065, 10.000004 
2.9204032e+3, 2.2931549e+2, -827660.6, -888039.5, 95928.92, 0.15051478, 0.2840594, -757282.9, -64554.98, 0.0, 10.0004, 9.999364 
2.919975e+3, 2.3930398e+2, -909477.6, -795783.94, 137748.83, 0.058918726, 0.09020991, -703612.94, -108767.04, 0.0, 9.998816, 10.00009 
2.919552e+3, 2.4929544e+2, -585110.75, -480970.88, 159574.45, 0.37929022, 0.084336974, -365185.84, 131735.14, 0.0, 9.999924, 10.00103 
2.9191288e+3, 2.592874e+2, -372014.13, -422254.9, 134538.4, 0.685538, 0.09773974, -260271.02, 138719.25, 0.0, 10.001113, 10.000195 
2.918699e+3, 2.6927733e+2, -415511.2, -528661.5, 161214.97, 0.3092262, 0.08624847, -301232.56, -141.35277, 0.0, 10.00074, 9.998965 
2.9182687e+3, 2.7926737e+2, -366586.6, -320840.5, 155513.8, -0.13368031, 0.0696711, -186526.66, 16666.92, 0.0, 9.999801, 10.000187 
2.9178447e+3, 2.8926063e+2, -440131.0, -159454.44, 169299.0, 0.07119813, 0.20638801, -79890.5, 25366.742, 0.0, 9.998049, 10.001445 
2.9174203e+3, 2.992521e+2, -703563.8, -193174.45, 114295.03, 0.39351338, 0.09998659, -168748.53, -161408.39, 0.0, 9.9953375, 10.001871 
2.9342407e+3, 1.3982572e+2, -1367923.1, -1449056.4, 808.5361, 0.056330454, 0.29283264, -1367915.0, 201808.1, 0.0, 10.001955, 10.000855 
2.933817e+3, 1.498165e+2, -1226607.4, -1214170.0, -67919.43, 0.29159522, 0.1008971, -1152185.1, 319623.28, 0.0, 10.001763, 10.001903 
2.9333895e+3, 1.5980914e+2, -1329828.6, -1310252.9, 31306.541, 0.2081778, 0.10141433, -1287239.8, 86638.84, 0.0, 10.000829, 10.001002 
2.932963e+3, 1.6980042e+2, -1316583.9, -1349549.6, 40729.664, 0.32334426, 0.1027352, -1289128.3, -13161.827, 0.0, 10.000651, 10.000152 
2.9325357e+3, 1.7979154e+2, -1230357.5, -1286441.9, 8334.091, 0.38531223, 0.11880018, -1229145.3, -51088.52, 0.0, 10.000722, 9.999868 
2.9321045e+3, 1.897832e+2, -1040557.5, -1196368.6, -55079.633, 0.37719518, 0.25305095, -1023053.2, 57091.004, 0.0, 10.001587, 9.999392 
2.9316735e+3, 1.9977418e+2, -773619.56, -958220.94, 155111.8, 0.37134123, 0.32396305, -685423.5, 296813.6, 0.0, 10.002508, 9.9999 
2.9312494e+3, 2.097635e+2, -548477.5, -729770.6, 334144.28, 0.34536922, 0.14913115, -292902.75, 591432.44, 0.0, 10.003113, 10.000488 
2.930825e+3, 2.1975344e+2, -470868.7, -696422.7, 178498.66, 0.30084082, 0.024985734, -372504.94, 413923.1, 0.0, 10.0031805, 10.000026 
2.9303944e+3, 2.2974631e+2, -849743.25, -896251.06, 18522.973, 0.19813983, 0.28195897, -843267.6, -154760.13, 0.0, 10.000196, 9.999429 
2.929964e+3, 2.3973858e+2, -1119973.1, -903074.5, 145765.16, 0.11961206, 0.47059914, -829840.75, -239248.72, 0.0, 9.997353, 10.000077 
2.929542e+3, 2.4972697e+2, -683075.0, -583057.7, 275986.88, 0.31559289, 0.18934968, -352585.3, 140108.64, 0.0, 9.999478, 10.000547 
2.92912e+3, 2.5971553e+2, -225121.83, -361506.25, 181728.53, 0.51572776, -0.090565965, -99212.44, 295580.7, 0.0, 10.002135, 10.000132 
2.9286912e+3, 2.6970685e+2, -254998.06, -418038.9, 140077.06, 0.25974604, 0.011096769, -174447.02, 122434.836, 0.0, 10.001648, 9.99931 
2.928261e+3, 2.7969867e+2, -200658.56, -163311.34, 101749.97, -0.056615513, 0.1318153, -78535.64, 120431.49, 0.0, 10.000544, 10.000934 
2.9278353e+3, 2.896917e+2, -275042.75, -28452.328, 125168.266, 0.1789549, 0.17374477, 23947.66, 124980.68, 0.0, 9.998873, 10.001995 
2.9274088e+3, 2.9968348e+2, -309749.5, -40495.06, 74925.63, 0.47130576, 0.06906011, -21049.766, -17935.719, 0.0, 9.998062, 10.001676 
2.9442355e+3, 1.4025056e+2, -1308832.0, -1379573.3, 90080.305, 0.2083745, 0.28970003, -1247426.9, 318139.7, 0.0, 10.002222, 10.001194 
2.94381e+3, 1.5024175e+2, -1389939.3, -1162047.3, -71315.69, 0.4261709, 0.048789702, -1141570.0, 326073.72, 0.0, 10.000113, 10.003043 
2.94338e+3, 1.6023658e+2, -1604951.6, -1352512.9, -45377.902, 0.17364311, 0.15262176, -1344603.6, 25086.13, 0.0, 9.998571, 10.001797 
2.942953e+3, 1.7022756e+2, -1430903.0, -1339613.3, -36353.88, 0.20066115, 0.053154834, -1326905.3, -55125.563, 0.0, 9.999613, 10.000707 
2.9425257e+3, 1.8021864e+2, -1177385.0, -1200576.0, -85010.57, 0.2299495, -0.008738481, -1103182.8, 70687.74, 0.0, 10.000856, 10.00038 
2.9420975e+3, 1.9021337e+2, -929421.94, -1061759.3, -148097.36, 0.42578015, 0.35275882, -833383.56, 242546.1, 0.0, 10.002026, 10.00009 
2.9416698e+3, 2.0020722e+2, -707422.94, -865615.2, 43990.46, 0.62424093, 0.6168127, -696012.94, 281982.47, 0.0, 10.002721, 10.000428 
2.9412442e+3, 2.1019413e+2, -785172.0, -811357.9, 236976.84, 0.46877944, 0.14670993, -560926.7, 319188.28, 0.0, 10.001362, 10.00077 
2.9408184e+3, 2.2018133e+2, -913658.5, -925993.06, 79858.05, 0.27885786, -0.27211744, -839729.94, -57497.113, 0.0, 10.000237, 9.999864 
2.9403862e+3, 2.3017736e+2, -709034.3, -843666.7, -112609.695, 0.25025964, 0.31206393, -645154.44, 39130.336, 0.0, 10.001259, 9.999256 
2.9399547e+3, 2.4017286e+2, -548863.9, -671115.8, 108609.56, 0.23250784, 0.83168405, -485360.7, 100979.51, 0.0, 10.001482, 9.999672 
2.939532e+3, 2.5015804e+2, -520278.16, -568436.8, 316852.13, 0.21250091, 0.27862912, -226591.72, 261878.83, 0.0, 10.00087, 9.999982 
2.93911e+3, 2.6014322e+2, -448318.13, -490962.34, 163802.67, 0.21883175, -0.30299163, -304455.63, 86144.99, 0.0, 10.000703, 9.999938 
2.938683e+3, 2.701365e+2, -396620.6, -454386.4, 63449.348, 0.2251925, -0.0274305, -355789.5, -63117.527, 0.0, 10.000549, 9.999582 
2.9382548e+3, 2.801306e+2, -248004.42, -127114.984, 22657.98, 0.20186675, 0.2711991, -123007.805, 71728.75, 0.0, 9.999977, 10.001449 
2.9378262e+3, 2.9012254e+2, -251246.33, 70047.99, 24950.516, 0.302788, 0.13351783, 71974.01, 168784.38, 0.0, 9.998648, 10.002787 
2.937397e+3, 3.001147e+2, -419646.44, -222468.3, 127404.78, 0.3497645, 0.050931673, -159961.78, -159961.78, 0.0, 9.997909, 10.000479 
2.9542333e+3, 1.406742e+2, -1241987.1, -1252622.9, -55728.11, 0.6603471, -0.06301064, -1191323.8, 370087.6, 0.0, 10.002194, 10.0021105 
2.9538003e+3, 1.5066996e+2, -1508919.6, -1342606.9, -156046.8, 0.375575, 0.21743944, -1248942.5, 214507.0, 0.0, 9.999775, 10.001992 
2.9533696e+3, 1.6066465e+2, -1694910.5, -1454890.3, -69664.266, 0.2461056, 0.4027775, -1436136.0, -70633.86, 0.0, 9.998162, 10.00131 
2.9529437e+3, 1.7065383e+2, -1454492.8, -1350873.0, -10354.281, 0.22414902, 0.13478439, -1349848.5, -82242.266, 0.0, 9.999418, 10.000736 
2.952517e+3, 1.8064333e+2, -1144418.6, -1176348.1, -84643.164, 0.16979195, -0.08694552, -1074247.9, 95461.12, 0.0, 10.001006, 10.000485 
2.952089e+3, 1.9063668e+2, -890301.3, -1045035.3, -165311.14, 0.2990149, 0.12546588, -785148.6, 286633.44, 0.0, 10.002275, 10.0000925 
2.9516616e+3, 2.0063037e+2, -599964.44, -684513.44, -63699.285, 0.4467523, 0.33969852, -565788.1, 408062.22, 0.0, 10.002863, 10.001618 
2.951234e+3, 2.1062313e+2, -790033.9, -597774.8, 72277.83, 0.29509786, 0.26552266, -573633.94, 302282.25, 0.0, 10.000333, 10.002763 
2.9508066e+3, 2.2061498e+2, -1128114.1, -972312.44, 60216.156, 0.13263528, 0.15849437, -951752.5, -173761.22, 0.0, 9.998475, 10.00041 
2.9503793e+3, 2.3060668e+2, -561791.1, -840385.7, -12494.209, 0.24658343, 0.34123385, -561231.9, 118848.26, 0.0, 10.002569, 9.998639 
2.9499513e+3, 2.405981e+2, 88361.38, -416904.97, 43605.082, 0.35178143, 0.50390255, 92096.93, 674267.5, 0.0, 10.0060425, 9.999233 
2.9495254e+3, 2.5058565e+2, -333338.5, -552963.9, 120841.12, 0.25004914, 0.23342732, -279868.0, 204415.17, 0.0, 10.002415, 9.999382 
2.9490998e+3, 2.6057342e+2, -727131.2, -632531.5, 35632.855, 0.17635849, -0.042419285, -620611.6, -234217.7, 0.0, 9.998769, 9.999923 
2.9486743e+3, 2.7056623e+2, -593477.25, -513661.4, -3466.581, 0.30966288, 0.14530568, -513511.13, -225040.55, 0.0, 9.999012, 9.99993 
2.9482472e+3, 2.8055954e+2, -278249.47, -92223.19, -96197.32, 0.39973298, 0.32578018, -51425.387, 139115.58, 0.0, 9.999502, 10.001949 
2.9478154e+3, 2.9055148e+2, -255159.39, 118970.94, -131495.05, 0.30762756, 0.13101535, 160563.44, 253172.86, 0.0, 9.998372, 10.003271 
2.947384e+3, 3.0054465e+2, -310163.06, -113552.46, 130040.79, 0.16499886, 0.10472438, -48840.773, -48840.773, 0.0, 9.998366, 10.001011 
2.964227e+3, 1.4110251e+2, -1273085.9, -1271767.5, 48834.613, 0.71213585, -0.11813732, -1223587.6, 333626.47, 0.0, 10.002056, 10.002028 
2.9637912e+3, 1.5109901e+2, -1264624.1, -1345763.1, -86056.86, 0.30563203, 0.33576915, -1210053.4, 249194.67, 0.0, 10.002009, 10.000878 
2.963361e+3, 1.6109186e+2, -1326520.5, -1329594.9, 61708.55, 0.35074484, 0.44094998, -1266330.0, 94990.734, 0.0, 10.000951, 10.000817 
2.962935e+3, 1.7108065e+2, -1300745.1, -1261129.8, 157055.7, 0.27740982, 0.14967175, -1122637.6, 140789.25, 0.0, 10.000441, 10.000843 
2.9625085e+3, 1.8106984e+2, -1251206.4, -1193358.5, 91873.23, 0.15038742, -0.116383724, -1125963.8, 39566.676, 0.0, 10.000156, 10.0007715 
2.9620802e+3, 1.9106232e+2, -1206196.5, -1145085.9, 50219.113, 0.18331257, -0.013250996, -1116856.9, -49246.043, 0.0, 9.999906, 10.000543 
2.961653e+3, 2.0105565e+2, -1009326.5, -812775.2, 115741.06, 0.2797741, 0.13252212, -759215.06, 210467.66, 0.0, 9.999782, 10.002213 
2.9612243e+3, 2.110525e+2, -769858.06, -479476.4, 55314.617, 0.18019664, 0.4006052, -469296.44, 402417.03, 0.0, 10.000027, 10.003713 
2.9607958e+3, 2.2104764e+2, -909481.75, -870260.6, 63336.12, 0.065230325, 0.54754543, -823568.56, -49808.402, 0.0, 10.000003, 10.000375 
2.9603726e+3, 2.3103474e+2, -718861.0, -963047.0, 134834.67, 0.24336216, 0.30552125, -659055.44, 16832.172, 0.0, 10.001681, 9.998235 
2.9599485e+3, 2.4102221e+2, -356953.38, -675990.75, 60607.086, 0.42742246, 0.10821972, -345827.9, 232183.27, 0.0, 10.003184, 9.998833 
2.959519e+3, 2.5101304e+2, -452651.56, -654529.9, 21366.504, 0.28934115, 0.20595841, -450414.97, 29683.516, 0.0, 10.001802, 9.998965 
2.95909e+3, 2.6100403e+2, -555914.3, -562474.6, 54854.92, 0.17340489, 0.28909504, -504241.56, -122056.64, 0.0, 10.000017, 9.999796 
2.9586652e+3, 2.709957e+2, -433863.2, -406063.3, 67249.57, 0.37383628, 0.35116935, -351292.2, -67019.11, 0.0, 9.999985, 10.000197 
2.9582384e+3, 2.8098744e+2, -209267.38, -31726.322, -86448.61, 0.50202006, 0.34547707, 3412.6675, 189769.25, 0.0, 9.999885, 10.002171 
2.957804e+3, 2.9097956e+2, -175389.27, 170404.33, -178892.94, 0.23250233, 0.1475821, 246296.56, 334714.28, 0.0, 9.998861, 10.0033865 
2.9573712e+3, 3.0097306e+2, -255653.48, 8642.085, 250942.75, -0.11863623, 0.117035724, 160105.48, 160105.48, 0.0, 9.998341, 10.001859 
2.974217e+3, 1.4153634e+2, -1292499.4, -1419858.9, 128282.445, 0.37385893, 0.13764818, -1212960.8, 340007.03, 0.0, 10.00248, 10.000817 
2.9737833e+3, 1.5152922e+2, -1300138.3, -1479049.5, -102247.84, 0.2434967, 0.35198745, -1253737.6, 201297.92, 0.0, 10.002233, 9.999867 
2.973355e+3, 1.6151807e+2, -1246359.0, -1292667.6, 52698.426, 0.5200761, 0.12816781, -1211952.5, 145192.63, 0.0, 10.001473, 10.000828 
2.972928e+3, 1.7150967e+2, -1248555.9, -1200993.3, 159537.66, 0.4073145, 0.08926456, -1063474.1, 195750.83, 0.0, 10.000616, 10.001188 
2.9725003e+3, 1.8150175e+2, -1174979.9, -998837.44, 87829.945, 0.23286362, 0.059190072, -962527.6, 198772.98, 0.0, 9.999943, 10.002232 
2.972071e+3, 1.9149642e+2, -1182048.4, -909712.6, 73343.695, 0.23116823, 0.19482966, -891216.4, 172137.73, 0.0, 9.999046, 10.0026045 
2.9716426e+3, 2.014903e+2, -1282084.5, -1105805.5, 216361.5, 0.31371483, 0.31426466, -960319.5, 5097.8022, 0.0, 9.998538, 10.000829 
2.9712176e+3, 2.1148178e+2, -1014250.56, -1012114.1, 116629.16, 0.43489623, 0.38027897, -896548.3, -29040.27, 0.0, 10.000103, 10.000041 
2.9707918e+3, 2.2147308e+2, -736509.0, -824893.2, 22730.959, 0.4618197, 0.40441898, -731005.6, 38592.383, 0.0, 10.001285, 10.000103 
2.9703656e+3, 2.3146209e+2, -724684.0, -808854.3, 124735.54, 0.37624896, 0.2310217, -635125.25, 36577.387, 0.0, 10.00087, 9.999738 
2.9699397e+3, 2.4145134e+2, -645672.3, -717687.9, 89383.5, 0.33009392, 0.09028693, -585316.4, -11511.066, 0.0, 10.000723, 9.99976 
2.9695114e+3, 2.5144303e+2, -425771.38, -577490.75, 85042.82, 0.29521385, 0.21271577, -387670.66, 88215.67, 0.0, 10.00166, 9.999571 
2.969083e+3, 2.6143476e+2, -204450.86, -412104.13, 120364.94, 0.23330337, 0.343589, -149319.36, 228648.81, 0.0, 10.0024395, 9.999684 
2.968655e+3, 2.714263e+2, -180109.23, -336830.7, 115218.04, 0.1401259, 0.4482561, -119130.09, 160926.08, 0.0, 10.001911, 9.999777 
2.9682264e+3, 2.8141758e+2, -63676.434, -51599.12, -86490.62, 0.13520038, 0.45526597, 29063.385, 211206.44, 0.0, 10.001216, 10.00142 
2.9677957e+3, 2.914082e+2, -41787.727, 88294.78, -222575.0, 0.36829484, 0.2247618, 255137.11, 339356.78, 0.0, 10.000383, 10.00212 
2.9673624e+3, 3.01399e+2, -371228.63, -177055.08, 80772.5, 0.08188097, 0.0603414, -147848.39, -147848.39, 0.0, 9.998133, 10.000699 
2.9842097e+3, 1.4197075e+2, -1355437.8, -1488838.4, 131240.92, 0.33319739, 0.45946065, -1274920.1, 273794.16, 0.0, 10.002257, 10.00045 
2.9837763e+3, 1.5195948e+2, -1386432.6, -1584881.1, -71295.664, 0.25131142, 0.31601802, -1363474.6, 87348.84, 0.0, 10.001958, 9.999265 
2.9833478e+3, 1.6194786e+2, -1298595.6, -1332202.5, 101407.07, 0.56325275, 0.086912625, -1212609.3, 140327.31, 0.0, 10.001194, 10.000695 
2.9829192e+3, 1.719409e+2, -1375302.0, -1233395.1, 181006.88, 0.41620964, 0.1785788, -1109931.8, 145070.39, 0.0, 9.999641, 10.001428 
2.9824907e+3, 1.8193415e+2, -1341123.0, -1052408.3, 96974.164, 0.2407717, 0.24681006, -1022860.4, 134204.97, 0.0, 9.998719, 10.002447 
2.982061e+3, 1.9192901e+2, -1050983.3, -767981.4, -54777.816, 0.2402342, 0.3431368, -757748.56, 301363.5, 0.0, 9.999609, 10.003306 
2.981633e+3, 2.019227e+2, -1149111.3, -1213379.1, 77790.13, 0.3191624, 0.41258729, -1097079.3, -135904.89, 0.0, 10.000209, 9.999283 
2.9812106e+3, 2.119102e+2, -1051603.0, -1360987.5, 150501.92, 0.5712038, 0.3288882, -990470.0, -127160.82, 0.0, 10.001287, 9.997066 
2.980787e+3, 2.2189881e+2, -671058.5, -816370.7, 105503.56, 0.71887106, 0.2799633, -615613.44, 149816.44, 0.0, 10.001867, 9.999871 
2.9803583e+3, 2.3189048e+2, -548047.7, -575796.0, 95440.266, 0.42240393, 0.2769107, -465478.4, 202029.1, 0.0, 10.001504, 10.001004 
2.97993e+3, 2.4188165e+2, -538914.75, -591902.56, 31759.193, 0.18028036, 0.22002135, -524049.6, 45540.785, 0.0, 10.001163, 10.000402 
2.9795036e+3, 2.518733e+2, -452291.7, -509378.2, 29325.795, 0.2581957, 0.26448175, -439911.63, 31761.254, 0.0, 10.001145, 10.000286 
2.9790765e+3, 2.618652e+2, -408484.0, -549555.6, 44572.38, 0.25231424, 0.3675753, -395581.22, -21827.533, 0.0, 10.001236, 9.9993105 
2.9786447e+3, 2.718569e+2, -319664.1, -456100.16, 56003.285, -0.19166465, 0.52840704, -299620.75, -23783.066, 0.0, 10.001181, 9.999301 
2.9782134e+3, 2.818479e+2, -216369.16, -256447.0, -117501.445, -0.34970602, 0.5644603, -117210.13, 60715.06, 0.0, 10.000759, 10.000224 
2.977789e+3, 2.9183695e+2, -178339.73, -154008.72, -235094.78, 0.6004459, 0.33136538, 69235.11, 149255.56, 0.0, 10.000254, 10.000503 
2.9773542e+3, 3.0182418e+2, -445752.03, -397468.28, -47151.52, 0.33168903, -0.008613361, -368637.56, -368637.56, 0.0, 9.998492, 9.998977 
2.9942062e+3, 1.4240086e+2, -1211444.4, -1328429.3, 120091.38, 0.64281297, 0.32852006, -1136358.0, 408142.88, 0.0, 10.002825, 10.001298 
2.9937693e+3, 1.5238932e+2, -1381200.8, -1568795.0, -96072.08, 0.2824928, 0.14665581, -1340730.5, 105886.53, 0.0, 10.001885, 9.999447 
2.9933375e+3, 1.6238332e+2, -1317931.0, -1336953.5, 82948.78, 0.33989853, 0.46886486, -1243950.0, 104726.59, 0.0, 10.001027, 10.000753 
2.992908e+3, 1.7237462e+2, -1463932.4, -1287827.4, 104830.72, 0.28178358, 0.40127355, -1238975.8, 11779.87, 0.0, 9.99907, 10.001345 
2.992479e+3, 1.8236539e+2, -1514729.1, -1331520.6, 102942.92, 0.11900105, 0.29155815, -1285325.9, -132485.77, 0.0, 9.998369, 10.000699 
2.9920498e+3, 1.9235438e+2, -1164727.0, -1137596.6, -40373.477, 0.037165802, 0.06666719, -1108570.4, -53627.94, 0.0, 10.000215, 10.000467 
2.9916227e+3, 2.0234486e+2, -978030.1, -1079356.3, 24687.006, 0.11891946, -0.0031627354, -972335.44, -15301.931, 0.0, 10.001157, 9.999745 
2.9912e+3, 2.1233831e+2, -784759.4, -974978.7, 178299.08, 0.24866253, 0.30748776, -677788.8, 181315.44, 0.0, 10.002012, 9.999363 
2.9907754e+3, 2.223302e+2, -613138.75, -901972.3, 142053.2, 0.22548251, 0.49315718, -554983.75, 206208.83, 0.0, 10.002723, 9.998874 
2.9903477e+3, 2.3232065e+2, -612036.44, -861014.8, 37903.14, 0.042214997, 0.5827714, -606394.1, 56903.273, 0.0, 10.002124, 9.998768 
2.9899213e+3, 2.4231151e+2, -467427.56, -599163.75, -92867.914, 0.013609813, 0.6359733, -419440.22, 145954.34, 0.0, 10.001815, 10.000045 
2.989495e+3, 2.523012e+2, -472573.63, -529247.0, -129122.88, 0.20809017, 0.47553638, -368714.7, 98782.13, 0.0, 10.001019, 10.000243 
2.9890674e+3, 2.622911e+2, -497989.0, -435485.06, -89825.69, 0.25425425, 0.32586932, -371630.03, -2035.895, 0.0, 9.999897, 10.000781 
2.988637e+3, 2.7228248e+2, -367747.88, -269485.06, 14199.105, -0.043168753, 0.26716515, -267474.4, 4197.3965, 0.0, 9.999928, 10.001218 
2.9882067e+3, 2.822738e+2, -250522.4, -214240.05, -116258.1, -0.13088976, 0.20132746, -114716.234, 59033.12, 0.0, 10.000246, 10.000794 
2.98778e+3, 2.922636e+2, -192777.53, -185534.83, -172430.47, 0.64111674, 0.05385844, -16687.686, 59152.164, 0.0, 10.000231, 10.000365 
2.987346e+3, 3.0225462e+2, -132795.67, -322747.78, 86711.52, 0.44988278, 0.16708556, -99166.36, -99166.36, 0.0, 10.000842, 9.998511 
3.004199e+3, 1.428337e+2, -1942516.1, -1705007.9, 212242.1, 0.7183915, 0.32640567, -1580555.8, -40303.45, 0.0, 9.997963, 10.001015 
3.0037582e+3, 1.5282205e+2, -1426430.1, -1585635.6, 51611.19, -0.014512016, 0.12556721, -1411162.9, 31213.55, 0.0, 10.001582, 9.999443 
3.0033278e+3, 1.6281742e+2, -1160693.0, -1388295.5, 103571.22, 0.14221124, 0.6417037, -1120618.5, 223807.66, 0.0, 10.00261, 9.999651 
3.0029008e+3, 1.7280662e+2, -922027.8, -1167046.0, 8832.384, 0.42616162, 0.48716682, -921709.8, 324814.3, 0.0, 10.003309, 10.000158 
3.0024752e+3, 1.8279466e+2, -922297.2, -1326496.5, 59154.24, 0.6550825, 0.22812423, -913817.9, 234816.2, 0.0, 10.0036, 9.998227 
3.0020458e+3, 1.9278216e+2, -925876.06, -1370400.3, -118320.93, 0.41805533, 0.11275367, -896344.06, 154407.22, 0.0, 10.003261, 9.997434 
3.0016178e+3, 2.0276755e+2, -661832.3, -993653.44, -55600.3, 0.30978522, -0.25652653, -652763.75, 300126.9, 0.0, 10.003561, 9.999194 
3.0011946e+3, 2.1276122e+2, -605068.7, -692001.44, -37180.836, 0.35004225, -0.065402925, -591335.94, 263616.6, 0.0, 10.002383, 10.001119 
3.000769e+3, 2.2275528e+2, -871880.0, -1130435.4, -118008.69, 0.24210192, 0.23925063, -826118.3, -69098.875, 0.0, 10.001389, 9.997938 
3.0003396e+3, 2.3274556e+2, -870389.9, -1171448.1, -34664.99, -0.02866462, 0.44579223, -866450.0, -207309.34, 0.0, 10.001127, 9.997099 
2.9999128e+3, 2.4273826e+2, -749649.56, -730167.06, -14518.116, -0.0328792, 0.74638206, -722424.94, -161194.47, 0.0, 9.999849, 10.000081 
2.9994866e+3, 2.5273082e+2, -407033.53, -504892.75, -6117.934, 0.1607584, 0.868691, -406652.53, 56651.977, 0.0, 10.001517, 10.000134 
2.999058e+3, 2.6272205e+2, -86033.875, -50405.086, 50333.395, 0.2015298, 0.7816872, -14826.568, 350559.16, 0.0, 10.001919, 10.00244 
2.99863e+3, 2.7271459e+2, -61158.66, 113410.49, 85540.93, 0.15481345, 0.6426371, 148338.22, 415779.6, 0.0, 10.001031, 10.003303 
2.9982004e+3, 2.827052e+2, -103327.98, -60755.16, -81335.336, 0.13493, 0.33960205, 2033.0863, 171552.28, 0.0, 10.000901, 10.001525 
2.9977685e+3, 2.9269376e+2, 85575.49, 129.80626, -105476.89, 0.40716937, 0.026115468, 156653.42, 228277.3, 0.0, 10.002001, 10.00074 
2.997339e+3, 3.0268955e+2, 101904.21, -168311.92, 282739.7, 0.6160307, 0.57236433, 280158.44, 280158.44, 0.0, 10.002436, 9.99873 
