coord_x,coord_y,stress_xx,stress_yy,tau_xy,velocity_x,velocity_y,stress_1,eps,damage,lx,ly
4.9992743e+0, 1.2567466e+2, -1855583.5, -1703303.4, -8319.141, -0.0072574806, 0.016726524, -1702850.3, 5545.0645, 0.000055290777, 9.998692, 10.00071 
4.9995127e+0, 1.35676e+2, -1744209.8, -1660165.9, -4191.2734, -0.0011727748, 0.13174735, -1659957.4, -49574.57, 0.000019222676, 9.999048, 10.000161 
4.9996886e+0, 1.4567518e+2, -1636197.8, -1604836.5, -5946.776, 0.002723801, 0.05688138, -1603746.8, -91354.38, 0.000002703532, 9.999322, 9.999734 
4.999784e+0, 1.5567528e+2, -1507432.5, -1491747.6, -7066.7183, 0.0017646155, 0.09030751, -1489033.4, -74639.97, 0.000000021272871, 9.999532, 9.999736 
4.9999014e+0, 1.6567509e+2, -1400534.9, -1430640.9, -5504.8643, 0.001571881, 0.11785685, -1399560.0, -83163.79, 0.0, 9.99977, 9.999369 
5.000038e+0, 1.7567451e+2, -1264622.3, -1314798.6, -3686.2395, 0.0021932807, 0.12015592, -1264352.9, -45950.945, 0.0, 10.000032, 9.999364 
5.0001246e+0, 1.8567373e+2, -1179411.5, -1285767.9, -8189.8555, 0.00168596, 0.13378374, -1178784.5, -58373.906, 0.0, 10.000216, 9.998803 
5.000171e+0, 1.9567282e+2, -1063189.3, -1178283.5, -13214.261, 0.00024288779, 0.15976669, -1061691.6, -39270.64, 0.0, 10.000338, 9.998809 
5.0002587e+0, 2.0567155e+2, -964824.3, -1119929.1, -13115.333, 0.0002885327, 0.17136626, -963723.1, -39288.54, 0.0, 10.000511, 9.998453 
5.000377e+0, 2.1566999e+2, -832725.06, -1000634.3, -11891.95, 0.001474542, 0.16624953, -831887.06, -5435.9185, 0.0, 10.000725, 9.998496 
5.000483e+0, 2.256687e+2, -695222.9, -867915.8, -13935.878, 0.0018458661, 0.1806185, -694105.5, 34359.426, 0.0, 10.000928, 9.998636 
5.0005794e+0, 2.3566765e+2, -568184.06, -755362.56, -17873.99, 0.0016584244, 0.20878118, -566492.56, 63983.93, 0.0, 10.001125, 9.998642 
5.0007284e+0, 2.4566634e+2, -456873.94, -695579.2, -12844.104, 0.0023801252, 0.23520172, -456184.8, 76306.65, 0.0, 10.001409, 9.998243 
5.0009185e+0, 2.5566483e+2, -303889.22, -565179.8, -5652.3604, 0.0037616736, 0.2563194, -303767.0, 130742.12, 0.0, 10.001761, 9.998296 
5.001083e+0, 2.6566312e+2, -141032.47, -412171.6, -5369.8813, 0.0030740753, 0.24430315, -140926.16, 195599.38, 0.0, 10.002105, 9.998508 
5.001229e+0, 2.7566126e+2, 6536.6113, -289682.25, -10079.18, 0.0008201805, 0.20334634, 6879.1704, 245420.16, 0.0, 10.002442, 9.998513 
5.0013906e+0, 2.856593e+2, 120442.06, -235945.31, -10761.859, 0.00025823992, 0.18159242, 120766.74, 261324.19, 0.0000000005106852, 10.002775, 9.998049 
5.001562e+0, 2.956573e+2, 261023.31, -125738.2, -7926.0957, 0.0009949066, 0.17332806, 261185.67, 303760.28, 0.000003227908, 10.003104, 9.997974 
5.001736e+0, 3.056544e+2, 283416.9, -220517.1, -5686.2705, -0.00064525846, 0.15144259, 283481.06, 283481.06, 0.000038102575, 10.003485, 9.996806 
5.0019383e+0, 3.1565115e+2, 471515.2, 73433.06, -6405.3257, -0.0013370292, 0.13735949, 471618.25, 471618.25, 0.00014042419, 10.003902, 9.998625 
1.499782e+1, 1.2567474e+2, -1849097.3, -1689658.5, 3696.3281, -0.021880915, 0.063822374, -1689572.9, 18822.844, 0.000051840474, 9.998691, 10.000804 
1.4998537e+1, 1.3567567e+2, -1738145.5, -1647470.0, 8887.77, -0.0035174529, 0.12803338, -1646607.1, -36220.496, 0.000017729604, 9.999047, 10.000249 
1.4999065e+1, 1.4567488e+2, -1638408.8, -1609317.9, 1859.8241, 0.008171643, 0.053642616, -1609199.5, -96803.79, 0.0000024017909, 9.999321, 9.999703 
1.4999351e+1, 1.5567534e+2, -1509286.6, -1495524.3, 955.71405, 0.0052947733, 0.12628138, -1495458.3, -81064.72, 0.000000014045858, 9.999532, 9.99971 
1.4999704e+1, 1.656752e+2, -1396754.6, -1422751.4, 4310.149, 0.004712944, 0.1549695, -1396058.6, -79662.81, 0.0, 9.99977, 9.999423 
1.5000114e+1, 1.756744e+2, -1261767.4, -1308816.4, 5849.484, 0.006569311, 0.13004377, -1261051.0, -42647.816, 0.0, 10.000032, 9.999406 
1.5000373e+1, 1.8567342e+2, -1188977.0, -1305557.6, -3616.9248, 0.0050574034, 0.13202174, -1188864.9, -68451.43, 0.0, 10.000215, 9.998668 
1.5000513e+1, 1.9567238e+2, -1071958.3, -1196457.3, -8364.007, 0.0007200908, 0.15815544, -1071398.9, -48973.75, 0.0, 10.000338, 9.998685 
1.5000777e+1, 2.0567101e+2, -962387.4, -1114840.5, -5086.604, 0.0008649538, 0.1621613, -962217.9, -37778.094, 0.0, 10.000511, 9.998488 
1.5001132e+1, 2.1566935e+2, -831038.44, -997067.94, -3887.8123, 0.0044226507, 0.14428185, -830947.5, -4490.6313, 0.0, 10.000724, 9.998521 
1.5001447e+1, 2.2566803e+2, -702857.44, -883687.0, -6532.728, 0.0055304677, 0.16073973, -702621.75, 25849.445, 0.0, 10.000928, 9.9985285 
1.5001738e+1, 2.35667e+2, -574454.8, -768325.1, -10068.463, 0.0049622413, 0.20244502, -573933.3, 56549.94, 0.0, 10.001125, 9.998552 
1.5002185e+1, 2.4566583e+2, -443387.13, -667542.1, 400.24796, 0.007136204, 0.23595734, -443386.4, 89110.46, 0.0, 10.001409, 9.998436 
1.5002754e+1, 2.5566453e+2, -291887.78, -540221.8, 7582.7515, 0.011272847, 0.2595037, -291656.44, 142855.2, 0.0, 10.0017605, 9.998467 
1.5003249e+1, 2.656629e+2, -149703.1, -430133.84, 7323.551, 0.0092223855, 0.25213936, -149511.97, 187015.72, 0.0, 10.002104, 9.998384 
1.5003689e+1, 2.7566096e+2, -1289.4867, -305883.9, 2649.092, 0.0024533505, 0.21798365, -1266.449, 237278.23, 0.0, 10.002442, 9.998403 
1.5004171e+1, 2.85659e+2, 125471.42, -225426.08, 1610.8351, 0.00077248627, 0.19692715, 125478.81, 266040.22, 0.00000000036389677, 10.002775, 9.998121 
1.5004687e+1, 2.9565704e+2, 265583.56, -116208.375, 4765.3423, 0.0029813878, 0.18510556, 265643.03, 308220.84, 0.0000031171262, 10.003103, 9.99804 
1.5005209e+1, 3.0565417e+2, 281803.28, -223815.47, 10082.089, -0.0019376543, 0.16153485, 282004.25, 282004.25, 0.0000374169, 10.003485, 9.996784 
1.5005815e+1, 3.1565088e+2, 469833.3, 70087.04, 9802.684, -0.0040759603, 0.1486883, 470073.53, 470073.53, 0.00013856335, 10.003902, 9.998602 
2.4996367e+1, 1.256742e+2, -1851933.4, -1693469.1, -8740.533, -0.036173146, 0.07897229, -1692988.5, 15412.715, 0.000046849033, 9.998682, 10.000782 
2.4997528e+1, 1.3567503e+2, -1749226.6, -1654347.9, -10870.617, -0.00588876, 0.13528164, -1653118.4, -42725.055, 0.000015561249, 9.998979, 10.000235 
2.4998438e+1, 1.4567423e+2, -1642494.4, -1607583.8, -21496.05, 0.015350589, 0.05853091, -1597348.5, -84946.11, 0.0000019703923, 9.999277, 9.999737 
2.4998993e+1, 1.5567473e+2, -1500717.1, -1488199.8, -17657.521, 0.013971351, 0.13268192, -1475724.5, -61325.168, 0.000000006345991, 9.999577, 9.999739 
2.4999551e+1, 1.656746e+2, -1394930.8, -1424084.5, -16992.467, 0.011469545, 0.16156617, -1387119.4, -70717.945, 0.0, 9.999792, 9.999403 
2.500013e+1, 1.7567377e+2, -1275618.3, -1317821.0, -20939.43, 0.009249271, 0.13592908, -1266992.0, -48582.664, 0.0, 9.999948, 9.999385 
2.5000584e+1, 1.8567272e+2, -1196826.0, -1313212.6, -28590.965, 0.0064308676, 0.13274351, -1190181.9, -69761.586, 0.0, 10.000177, 9.998633 
2.5000936e+1, 1.9567156e+2, -1055650.0, -1192432.4, -25830.746, 0.0027257844, 0.15039137, -1050934.6, -28501.682, 0.0, 10.000465, 9.998651 
2.5001368e+1, 2.0567013e+2, -947320.25, -1110765.3, -24198.773, 0.0029457465, 0.15412764, -943812.75, -19364.832, 0.0, 10.000628, 9.99846 
2.500186e+1, 2.1566851e+2, -837250.25, -1003176.56, -27497.97, 0.0062039318, 0.14265352, -832811.9, -6346.903, 0.0, 10.000695, 9.998493 
2.5002393e+1, 2.2566721e+2, -708506.75, -887614.0, -24194.406, 0.009040048, 0.16117302, -705296.0, 23183.498, 0.0, 10.000895, 9.998518 
2.5002965e+1, 2.3566617e+2, -564524.4, -764163.4, -20273.53, 0.011693646, 0.20158531, -562486.4, 68005.57, 0.0, 10.001196, 9.998548 
2.5003678e+1, 2.4566503e+2, -428972.03, -652184.7, -9655.075, 0.012459328, 0.23524295, -428555.2, 103949.82, 0.0, 10.0014715, 9.99851 
2.5004503e+1, 2.556638e+2, -291986.53, -532743.75, -11285.525, 0.011594809, 0.26039228, -291458.7, 143059.89, 0.0, 10.001728, 9.998534 
2.5005296e+1, 2.656622e+2, -167212.83, -443206.88, -11533.991, 0.008654719, 0.25639176, -166731.66, 169802.69, 0.0, 10.002004, 9.998343 
2.5006074e+1, 2.756603e+2, -25036.086, -321536.94, -9826.27, 0.0042257584, 0.22716038, -24710.793, 213841.02, 0.0, 10.002297, 9.998365 
2.5006902e+1, 2.8565836e+2, 110519.055, -230067.05, -8192.361, 0.0019649002, 0.20656027, 110716.0, 251284.63, 0.00000000025082827, 10.002662, 9.998144 
2.500776e+1, 2.9565638e+2, 263656.03, -114795.625, -8612.695, 0.0011318254, 0.19196443, 263851.94, 306436.78, 0.000002969252, 10.00308, 9.998061 
2.500865e+1, 3.056535e+2, 280692.28, -224914.7, -3272.7979, -0.0062483544, 0.1684315, 280713.47, 280713.47, 0.00003639656, 10.00348, 9.996779 
2.500969e+1, 3.1565025e+2, 463616.13, 66626.82, -1764.9703, -0.004995923, 0.16020827, 463624.0, 463624.0, 0.0001357669, 10.003861, 9.998598 
3.4994906e+1, 1.2567304e+2, -1861921.8, -1713814.6, 995.26556, -0.05033762, 0.06222676, -1713807.9, -5396.0293, 0.000040315306, 9.998681, 10.000643 
3.4996483e+1, 1.3567409e+2, -1757407.4, -1671232.1, 387.85535, -0.008400333, 0.15340574, -1671230.4, -60827.402, 0.000012732851, 9.998979, 10.000119 
3.4997803e+1, 1.4567322e+2, -1635626.0, -1593371.6, -10215.614, 0.02411555, 0.071560584, -1591031.5, -78619.03, 0.0000014374052, 9.999277, 9.999834 
3.4998706e+1, 1.5567346e+2, -1494836.6, -1475998.0, -6704.7935, 0.027689472, 0.10963368, -1473855.4, -59444.48, 0.0000000013691683, 9.999577, 9.999823 
3.4999448e+1, 1.656733e+2, -1401518.3, -1437729.3, -11178.201, 0.021731135, 0.13769704, -1398345.6, -81932.37, 0.0, 9.999792, 9.99931 
3.500009e+1, 1.7567264e+2, -1281390.0, -1329819.6, -14681.639, 0.010134395, 0.13779108, -1277286.8, -58866.46, 0.0, 9.999948, 9.999303 
3.5000756e+1, 1.856716e+2, -1192123.1, -1303442.4, -17684.07, 0.0057056635, 0.13593407, -1189381.4, -68950.18, 0.0, 10.000177, 9.9987 
3.5001433e+1, 1.9567034e+2, -1051683.9, -1184167.0, -15473.966, 0.006166256, 0.13648896, -1049900.5, -27456.244, 0.0, 10.000465, 9.998708 
3.500203e+1, 2.0566897e+2, -953794.7, -1124177.1, -21674.955, 0.0064105876, 0.1472745, -951080.6, -26621.457, 0.0, 10.000628, 9.998368 
3.500256e+1, 2.1566752e+2, -842898.7, -1014878.75, -24368.795, 0.0067123636, 0.16134275, -839512.44, -13036.864, 0.0, 10.000695, 9.998413 
3.5003322e+1, 2.2566622e+2, -702459.0, -874989.56, -12813.141, 0.012256563, 0.18190043, -701512.6, 26977.309, 0.0, 10.000894, 9.998605 
3.500426e+1, 2.356651e+2, -559072.3, -752792.25, -9000.25, 0.021776684, 0.20619974, -558655.06, 71847.43, 0.0, 10.001196, 9.998626 
3.5005206e+1, 2.4566391e+2, -431967.6, -658366.25, -30.4536, 0.01827561, 0.23310563, -431967.6, 100548.29, 0.0, 10.0014715, 9.998468 
3.500616e+1, 2.5566268e+2, -294599.03, -538114.0, -1556.9923, 0.0046934066, 0.2590081, -294589.06, 139940.81, 0.0, 10.001728, 9.998498 
3.500723e+1, 2.656611e+2, -164421.14, -437373.88, -543.9713, 0.0012956219, 0.25707126, -164420.06, 172125.44, 0.0, 10.002004, 9.9983835 
3.5008392e+1, 2.7565923e+2, -22543.95, -316329.34, 1529.1277, 0.006052985, 0.2308699, -22535.99, 216026.36, 0.0, 10.002297, 9.998401 
3.5009578e+1, 2.856573e+2, 108662.54, -233916.83, 7539.861, 0.0037338983, 0.21048363, 108828.41, 249407.56, 0.00000000021451357, 10.002661, 9.998118 
3.5010785e+1, 2.9565528e+2, 262018.52, -118204.84, 7100.047, -0.0046175653, 0.19388914, 262151.06, 304746.84, 0.0000027944461, 10.00308, 9.998038 
3.5012054e+1, 3.0565244e+2, 281530.3, -223110.83, 11113.6455, -0.013627846, 0.17220636, 281774.94, 281774.94, 0.000035014476, 10.00348, 9.996792 
3.5013556e+1, 3.156493e+2, 464600.03, 68785.99, 13049.862, -0.00442598, 0.1719031, 465029.8, 465029.8, 0.00013190451, 10.003861, 9.998613 
4.4993514e+1, 1.2567134e+2, -1880049.3, -1731418.0, -25061.9, -0.053395912, 0.044390336, -1727305.9, -18878.438, 0.000032724987, 9.998595, 10.000564 
4.499539e+1, 1.3567244e+2, -1759231.4, -1678750.3, -20216.256, -0.016100435, 0.14756271, -1673957.5, -63538.625, 0.0000095173555, 9.998995, 10.00006 
4.499705e+1, 1.456716e+2, -1630203.3, -1580478.5, -32954.41, 0.021670207, 0.064937435, -1564059.8, -51631.65, 0.00000089505704, 9.99927, 9.999927 
4.4998264e+1, 1.5567182e+2, -1506860.1, -1472466.1, -29885.307, 0.032072313, 0.09153645, -1455183.1, -40756.973, 0.00000000008098328, 9.999454, 9.999907 
4.4999215e+1, 1.6567168e+2, -1420259.0, -1450296.5, -33092.902, 0.024848772, 0.12012596, -1398936.4, -82508.12, 0.0, 9.999679, 9.999278 
4.499999e+1, 1.7567109e+2, -1284905.5, -1334309.4, -31921.094, 0.0061838794, 0.12996832, -1269244.8, -50809.668, 0.0, 9.999935, 9.999278 
4.5000863e+1, 1.856701e+2, -1197371.8, -1299526.1, -33333.25, 0.0017321112, 0.13098234, -1187457.3, -67011.7, 0.0, 10.0001135, 9.998758 
4.5001796e+1, 1.9566888e+2, -1081798.6, -1192919.4, -31894.87, 0.0073389756, 0.1292977, -1073294.8, -50836.56, 0.0, 10.000234, 9.998759 
4.5002598e+1, 2.0566756e+2, -982818.44, -1142745.0, -37148.074, 0.009408436, 0.14536506, -974610.8, -50138.035, 0.0, 10.000449, 9.998327 
4.50033e+1, 2.1566616e+2, -839650.4, -1017424.6, -35864.688, 0.0091520725, 0.17038596, -832687.6, -6198.4414, 0.0, 10.000735, 9.998377 
4.500426e+1, 2.256649e+2, -690571.1, -866907.94, -22984.936, 0.013290119, 0.19324617, -687624.4, 40879.113, 0.0, 10.000965, 9.998626 
4.5005426e+1, 2.3566376e+2, -563886.56, -753166.2, -23995.756, 0.020627782, 0.2131459, -560891.9, 69624.12, 0.0, 10.001154, 9.998643 
4.5006645e+1, 2.4566251e+2, -442543.8, -668092.7, -15512.63, 0.01744132, 0.2364446, -441481.9, 91047.87, 0.0, 10.001419, 9.998427 
4.500791e+1, 2.5566122e+2, -295111.2, -542830.4, -17015.066, 0.006103806, 0.25948507, -293947.94, 140596.53, 0.0, 10.001743, 9.998458 
4.5009246e+1, 2.656596e+2, -157319.75, -435323.3, -17845.059, 0.0002785055, 0.2579561, -156178.95, 180381.4, 0.0, 10.002058, 9.998372 
4.501065e+1, 2.7565777e+2, -13397.63, -313418.13, -19531.246, -0.0010604953, 0.23457697, -12131.495, 226445.66, 0.0, 10.002366, 9.998387 
4.5012212e+1, 2.856558e+2, 112128.09, -235718.2, -12383.227, -0.0012199132, 0.21392252, 112568.375, 253162.64, 0.00000000034042036, 10.0027, 9.998087 
4.5013887e+1, 2.9565373e+2, 256299.64, -123749.23, -13242.063, -0.0009772446, 0.19453172, 256760.48, 299371.97, 0.0000026033522, 10.003053, 9.9980135 
4.5015517e+1, 3.0565086e+2, 271369.63, -222230.28, -9058.4, -0.010518865, 0.16909283, 271535.8, 271535.8, 0.00003329706, 10.003385, 9.996843 
4.5017335e+1, 3.1564772e+2, 444597.22, 65016.676, -3862.4746, -0.004324116, 0.16819616, 444636.53, 444636.53, 0.00012697614, 10.003698, 9.998666 
5.499218e+1, 1.2566914e+2, -1881687.9, -1734678.0, -11144.807, -0.04630449, 0.025754796, -1733837.9, -25389.822, 0.000024933155, 9.998594, 10.000542 
5.499426e+1, 1.3567013e+2, -1759567.6, -1679306.8, -5709.519, -0.029170956, 0.11792792, -1678902.6, -68461.81, 0.000006388969, 9.998994, 10.000056 
5.4996186e+1, 1.4566936e+2, -1624251.6, -1568029.0, -26119.05, 0.007868702, 0.038703244, -1557767.9, -45318.45, 0.00000045379167, 9.9992695, 10.000012 
5.499767e+1, 1.5566978e+2, -1501053.8, -1460470.5, -22777.832, 0.026805822, 0.078374036, -1450256.8, -35811.684, 0.0, 9.999454, 9.999989 
5.499885e+1, 1.6566972e+2, -1418000.8, -1445681.6, -23443.26, 0.020560922, 0.10886249, -1404617.3, -88170.83, 0.0, 9.999679, 9.99931 
5.4999834e+1, 1.756691e+2, -1282579.9, -1329514.8, -22580.021, -0.0027347445, 0.11252799, -1273480.9, -55027.08, 0.0, 9.999935, 9.9993105 
5.50009e+1, 1.856682e+2, -1193960.3, -1292482.5, -28806.334, -0.005682048, 0.11794413, -1186155.9, -65692.4, 0.0, 10.000114, 9.998806 
5.5002016e+1, 1.9566715e+2, -1078528.4, -1186199.3, -26891.14, 0.0060552303, 0.12885171, -1072185.9, -49711.273, 0.0, 10.000235, 9.998805 
5.500307e+1, 2.0566589e+2, -982073.9, -1141213.0, -26327.695, 0.011789293, 0.14842409, -977831.4, -53342.516, 0.0, 10.000449, 9.998338 
5.500407e+1, 2.1566448e+2, -839189.06, -1016432.7, -25290.965, 0.013343633, 0.16979024, -835650.94, -9145.146, 0.0, 10.000735, 9.9983835 
5.5005217e+1, 2.2566323e+2, -693708.56, -873383.06, -15886.833, 0.011932215, 0.19517197, -692314.6, 36205.523, 0.0, 10.000965, 9.998582 
5.5006456e+1, 2.3566209e+2, -566951.1, -759508.5, -16561.275, 0.008146835, 0.22240932, -565537.1, 64995.344, 0.0, 10.001154, 9.9986 
5.500799e+1, 2.4566081e+2, -445430.75, -674059.9, -3303.114, 0.009775213, 0.24520487, -445383.03, 87163.61, 0.0, 10.001418, 9.998386 
5.500975e+1, 2.556594e+2, -298153.8, -549128.8, -4839.416, 0.015636453, 0.26182693, -298060.53, 136501.77, 0.0, 10.001743, 9.998415 
5.501136e+1, 2.6565772e+2, -161837.98, -444708.16, -6296.9854, 0.005466413, 0.25904146, -161697.88, 174881.03, 0.0, 10.002058, 9.998307 
5.501286e+1, 2.7565587e+2, -17787.3, -322550.22, -7874.407, -0.017175462, 0.23830603, -17583.979, 221012.25, 0.0, 10.002366, 9.998324 
5.5014795e+1, 2.8565383e+2, 109615.59, -240899.84, 904.2633, -0.013011325, 0.21684855, 109617.93, 250231.89, 0.0000000006700443, 10.0027, 9.998052 
5.5017066e+1, 2.9565167e+2, 254333.89, -127659.195, -53.727474, 0.0119002815, 0.19387943, 254333.89, 296965.8, 0.0000023959767, 10.003053, 9.997987 
5.501903e+1, 3.0564874e+2, 277656.25, -209014.78, 2797.2578, 0.0028993334, 0.1590071, 277672.3, 277672.3, 0.000031288328, 10.003384, 9.996935 
5.5021024e+1, 3.1564564e+2, 450923.44, 78146.58, 8402.389, -0.0051904204, 0.14897192, 451112.75, 451112.75, 0.0001210288, 10.003698, 9.998756 
6.499094e+1, 1.2566698e+2, -1864454.6, -1723233.1, -16516.654, -0.035708845, 0.031038137, -1721327.1, -12857.941, 0.00001782932, 9.998699, 10.00057 
6.4993215e+1, 1.3566782e+2, -1771638.9, -1680653.6, -6271.895, -0.027371988, 0.10538909, -1680223.4, -69760.234, 0.0000037958928, 9.998892, 10.000096 
6.4995354e+1, 1.456671e+2, -1642959.1, -1574548.0, -30030.236, 0.004539499, 0.028072273, -1563236.1, -50765.09, 0.0000001737419, 9.999131, 10.000034 
6.499699e+1, 1.556677e+2, -1506192.5, -1460259.5, -31530.467, 0.015778422, 0.083400264, -1444218.0, -29752.787, 0.0, 9.999407, 10.000013 
6.499839e+1, 1.6566767e+2, -1422750.6, -1443201.6, -34304.887, 0.009609781, 0.112414666, -1397179.6, -80713.445, 0.0, 9.999626, 9.999352 
6.499966e+1, 1.7566694e+2, -1299163.1, -1333076.3, -32737.516, -0.007337859, 0.10195596, -1279251.4, -60777.082, 0.0, 9.999803, 9.999351 
6.500092e+1, 1.8566604e+2, -1210361.5, -1300587.5, -42427.832, -0.00902023, 0.10674565, -1193544.8, -73060.68, 0.0, 10.000003, 9.998804 
6.500218e+1, 1.956651e+2, -1080562.4, -1187218.0, -44122.656, 0.000009355199, 0.12740774, -1064675.6, -42181.15, 0.0, 10.00022, 9.998805 
6.500348e+1, 2.0566387e+2, -981670.94, -1139024.3, -41821.938, 0.007598843, 0.14952517, -971246.0, -46737.563, 0.0, 10.000443, 9.998356 
6.500479e+1, 2.1566245e+2, -847963.06, -1019447.7, -40273.74, 0.014481269, 0.16788945, -838975.7, -12450.184, 0.0, 10.0006695, 9.998394 
6.500618e+1, 2.2566114e+2, -704148.6, -888519.75, -33017.23, 0.013584414, 0.19390795, -698414.25, 30126.096, 0.0, 10.000937, 9.998491 
6.500764e+1, 2.3565999e+2, -561087.1, -766241.06, -37141.223, 0.0066348137, 0.22466975, -554570.06, 75983.31, 0.0, 10.001236, 9.998514 
6.5009415e+1, 2.4565865e+2, -436999.03, -672782.0, -23683.5, 0.0072375345, 0.24737692, -434643.66, 97924.54, 0.0, 10.001489, 9.998362 
6.501146e+1, 2.5565717e+2, -305242.7, -555412.44, -23879.652, 0.013736036, 0.26105988, -302983.7, 131600.64, 0.0, 10.001707, 9.998389 
6.5013385e+1, 2.656555e+2, -173517.92, -453761.66, -21474.02, 0.00494734, 0.25915226, -171882.0, 164719.19, 0.0, 10.001993, 9.998277 
6.501522e+1, 2.7565363e+2, -24690.838, -329004.28, -20644.09, -0.015839208, 0.24231312, -23296.766, 215321.83, 0.0, 10.002333, 9.998297 
6.501745e+1, 2.8565162e+2, 98519.89, -244495.95, -9496.085, -0.013521725, 0.22300486, 98782.586, 239418.86, 0.0000000009839726, 10.002616, 9.998068 
6.5019965e+1, 2.9564947e+2, 227159.4, -138743.4, -6644.4824, 0.0066644163, 0.20095368, 227280.03, 269934.06, 0.0000021664155, 10.002857, 9.998005 
6.502225e+1, 3.0564654e+2, 247978.77, -218686.97, -2846.6777, -0.0033845024, 0.16347958, 247996.13, 247996.13, 0.000029021434, 10.00316, 9.996976 
6.502464e+1, 3.156435e+2, 426848.22, 71228.586, -696.4707, -0.004809123, 0.15437992, 426849.6, 426849.6, 0.00011410821, 10.003512, 9.998797 
7.498978e+1, 1.2566485e+2, -1859017.4, -1711733.0, -10422.621, -0.022010516, 0.059900332, -1710999.1, -2508.2056, 0.000012032456, 9.998698, 10.000649 
7.499227e+1, 1.3566554e+2, -1765818.1, -1668487.4, 1103.6075, -0.011205346, 0.10992774, -1668474.9, -57989.355, 0.000001957589, 9.998892, 10.00018 
7.499455e+1, 1.4566484e+2, -1645883.0, -1580539.8, -19704.38, 0.011267768, 0.033087853, -1575057.8, -62564.484, 0.00000004027787, 9.99913, 9.999993 
7.499622e+1, 1.5566559e+2, -1508661.4, -1465279.3, -21416.64, -0.0011234466, 0.10657438, -1456487.9, -42001.504, 0.0, 9.999407, 9.999979 
7.499784e+1, 1.656655e+2, -1419083.9, -1435528.1, -27713.049, -0.008118757, 0.13076435, -1398398.9, -81911.26, 0.0, 9.999626, 9.999405 
7.499946e+1, 1.7566462e+2, -1295935.9, -1326397.0, -25952.063, -0.007935392, 0.09823657, -1281075.3, -62578.465, 0.0, 9.999803, 9.999396 
7.500093e+1, 1.8566367e+2, -1214040.9, -1308218.6, -34202.656, -0.008523925, 0.09737392, -1202930.3, -82423.09, 0.0, 10.000003, 9.998752 
7.5002295e+1, 1.9566272e+2, -1083861.8, -1194054.3, -35848.64, -0.010837495, 0.1249502, -1073225.8, -50708.063, 0.0, 10.00022, 9.998757 
7.500381e+1, 2.0566152e+2, -979925.94, -1135406.9, -33272.31, -0.0032228068, 0.14867935, -973105.0, -48573.367, 0.0, 10.000443, 9.998381 
7.500544e+1, 2.1566008e+2, -846938.4, -1017305.25, -31528.828, 0.012460467, 0.16466987, -841290.75, -14742.413, 0.0, 10.0006695, 9.998409 
7.5007164e+1, 2.256587e+2, -713770.44, -908445.4, -21726.438, 0.018087437, 0.18948673, -711375.2, 17188.875, 0.0, 10.0009365, 9.998355 
7.5008965e+1, 2.356574e+2, -570081.94, -784882.3, -26077.652, 0.015935352, 0.21995778, -566961.4, 63617.484, 0.0, 10.001236, 9.998386 
7.5010926e+1, 2.4565598e+2, -437615.7, -674039.56, -15503.88, 0.0097133815, 0.24296325, -436603.3, 95991.086, 0.0, 10.001489, 9.998353 
7.501303e+1, 2.556545e+2, -305811.4, -556585.9, -15397.8545, 0.00034052186, 0.25719014, -304869.5, 129741.016, 0.0, 10.001707, 9.998381 
7.501531e+1, 2.6565287e+2, -173308.1, -453334.03, -8707.597, -0.0014217788, 0.25832227, -173037.6, 163589.6, 0.0, 10.001993, 9.99828 
7.501774e+1, 2.7565107e+2, -24245.738, -328034.56, -8107.9126, 0.0027408933, 0.24654526, -24029.498, 214614.75, 0.0, 10.002333, 9.998303 
7.5020164e+1, 2.8564915e+2, 103094.88, -234952.34, -448.3934, -0.0029090082, 0.23232329, 103095.48, 243756.64, 0.0000000010869243, 10.002616, 9.998134 
7.502259e+1, 2.956471e+2, 231486.77, -129776.02, 2619.425, -0.016639527, 0.21560103, 231505.75, 274183.56, 0.0000019142904, 10.002857, 9.998067 
7.502515e+1, 3.0564424e+2, 247330.67, -219982.83, 10414.725, -0.029391605, 0.18233323, 247562.66, 247562.66, 0.000026528098, 10.00316, 9.996967 
7.502816e+1, 3.1564128e+2, 426242.88, 70168.24, 12910.278, -0.0036351294, 0.18414393, 426710.34, 426710.34, 0.000106300286, 10.003511, 9.998791 
8.4988594e+1, 1.2566227e+2, -1860240.6, -1713581.9, -16775.777, -0.009469, 0.06367959, -1711687.4, -3171.1724, 0.000007783007, 9.998695, 10.000638 
8.499121e+1, 1.3566302e+2, -1756988.8, -1663315.5, -10947.673, -0.00881432, 0.119070865, -1662053.0, -51542.793, 0.0000008582932, 9.998948, 10.000188 
8.4993684e+1, 1.4566234e+2, -1638489.5, -1573789.5, -31182.203, 0.009787029, 0.041484635, -1561207.9, -48690.13, 0.00000000288778, 9.999168, 10.000022 
8.499556e+1, 1.5566304e+2, -1513340.1, -1464599.9, -27953.664, -0.006307776, 0.10791476, -1451884.9, -37373.53, 0.0, 9.999362, 10.000005 
8.499737e+1, 1.6566296e+2, -1432899.4, -1441360.8, -36652.75, -0.013345046, 0.13056822, -1400234.0, -83721.48, 0.0, 9.999528, 9.999413 
8.499917e+1, 1.7566212e+2, -1314788.0, -1335018.4, -38211.965, -0.010023079, 0.10076353, -1285375.1, -66853.914, 0.0, 9.999672, 9.9994 
8.500088e+1, 1.8566112e+2, -1231451.0, -1321181.4, -44044.637, -0.009311811, 0.098265156, -1213444.8, -92912.77, 0.0, 9.999903, 9.998711 
8.5002494e+1, 1.9566008e+2, -1089372.8, -1201096.1, -44908.35, -0.011895815, 0.120794974, -1073559.5, -51015.703, 0.0, 10.000202, 9.998718 
8.500425e+1, 2.0565885e+2, -978165.0, -1137281.1, -44973.33, -0.004854877, 0.14684124, -966333.3, -41775.438, 0.0, 10.000467, 9.998356 
8.5006106e+1, 2.1565749e+2, -843408.06, -1018478.1, -46911.895, 0.010057891, 0.17090936, -831629.94, -5056.0347, 0.0, 10.000706, 9.9983835 
8.500808e+1, 2.2565605e+2, -718539.75, -917066.75, -34406.402, 0.016656084, 0.19383715, -712745.94, 15844.231, 0.0, 10.000932, 9.998299 
8.5010165e+1, 2.356546e+2, -586888.94, -799195.06, -32771.016, 0.016794907, 0.21477678, -581945.6, 48660.766, 0.0, 10.001146, 9.998331 
8.5012376e+1, 2.4565314e+2, -451473.66, -685193.56, -20718.7, 0.009533697, 0.23716435, -449651.22, 82971.31, 0.0, 10.001412, 9.998313 
8.50147e+1, 2.5565168e+2, -306829.9, -560939.7, -22894.799, -0.0034670664, 0.25755018, -304783.6, 129855.0, 0.0, 10.001717, 9.998346 
8.501726e+1, 2.656501e+2, -168789.58, -446527.66, -13928.344, -0.005984865, 0.26285538, -168092.83, 168561.97, 0.0, 10.002005, 9.998321 
8.502001e+1, 2.7564836e+2, -29427.031, -326500.94, -10646.662, -0.0002961991, 0.2537324, -29045.96, 209625.11, 0.0, 10.002279, 9.99834 
8.502272e+1, 2.8564638e+2, 89553.41, -245947.83, -8256.436, -0.005511601, 0.24002092, 89756.46, 230444.56, 0.0000000009777485, 10.0025425, 9.998094 
8.502538e+1, 2.9564434e+2, 219937.13, -139228.14, -13038.048, -0.019795418, 0.2222171, 220409.8, 263115.34, 0.0000016479609, 10.002794, 9.998032 
8.5028213e+1, 3.056415e+2, 233987.33, -223761.5, -4931.6343, -0.033371568, 0.19169027, 234040.45, 234040.45, 0.000023861305, 10.0030575, 9.99699 
8.503158e+1, 3.1563872e+2, 401416.7, 61030.92, 282.43494, -0.0041357614, 0.20775354, 401416.94, 401416.94, 0.00009776159, 10.003329, 9.998816 
9.49874e+1, 1.2565926e+2, -1867466.1, -1728527.5, -8185.897, 0.0009981218, 0.042496964, -1728046.9, -19501.617, 0.0000050394015, 9.998695, 10.000535 
9.4990045e+1, 1.3566028e+2, -1761839.0, -1673337.1, -1662.3997, -0.020545319, 0.13249408, -1673306.0, -62768.887, 0.00000033786506, 9.998948, 10.000119 
9.499275e+1, 1.4565961e+2, -1631784.5, -1559726.9, -23946.688, -0.00026370684, 0.053061225, -1552494.6, -39950.098, 0.0, 9.999167, 10.000119 
9.499498e+1, 1.5566008e+2, -1507409.1, -1452118.8, -20782.66, -0.0002843818, 0.08745362, -1445178.3, -30638.38, 0.0, 9.999362, 10.000091 
9.4996965e+1, 1.6566004e+2, -1435784.6, -1447252.1, -31257.691, -0.0064721024, 0.11180747, -1409739.1, -93198.46, 0.0, 9.999527, 9.9993725 
9.499881e+1, 1.756594e+2, -1317563.6, -1340768.3, -32395.38, -0.013735458, 0.10946991, -1294755.5, -76208.09, 0.0, 9.999672, 9.999361 
9.5000756e+1, 1.8565841e+2, -1233577.9, -1325574.3, -32759.559, -0.011552422, 0.109394126, -1223104.6, -102546.04, 0.0, 9.999903, 9.998681 
9.500278e+1, 1.9565718e+2, -1091642.8, -1205795.0, -33747.418, -0.0033742876, 0.11496873, -1082412.3, -59839.57, 0.0, 10.000202, 9.998686 
9.500479e+1, 2.0565593e+2, -983358.25, -1148046.0, -35936.805, 0.0025278355, 0.14400734, -975858.0, -51270.797, 0.0, 10.000467, 9.998282 
9.500678e+1, 2.1565467e+2, -848091.44, -1028195.6, -37919.016, 0.007113235, 0.1866205, -840433.56, -13831.331, 0.0, 10.000706, 9.998317 
9.500894e+1, 2.256532e+2, -716915.25, -913688.2, -26298.004, 0.0091621075, 0.20698883, -713461.25, 15157.399, 0.0, 10.000932, 9.998322 
9.501123e+1, 2.3565157e+2, -585720.1, -796762.56, -24453.307, 0.0091664065, 0.20912199, -582923.8, 47712.13, 0.0, 10.001146, 9.998347 
9.501376e+1, 2.4565007e+2, -456452.78, -695538.1, -9253.148, 0.0066132806, 0.2299696, -456095.2, 76557.33, 0.0, 10.001412, 9.998241 
9.5016474e+1, 2.5564867e+2, -311132.28, -569852.5, -11525.869, 0.0021414591, 0.26212206, -310619.84, 124048.71, 0.0, 10.001717, 9.998285 
9.5019233e+1, 2.656471e+2, -163265.88, -435019.84, -3593.3777, -0.008841507, 0.27271378, -163218.36, 173465.67, 0.0, 10.002004, 9.9984 
9.5022047e+1, 2.7564543e+2, -24928.482, -317116.53, -385.08124, -0.024910398, 0.2638043, -24927.975, 213771.08, 0.0, 10.002279, 9.9984045 
9.50251e+1, 2.8564343e+2, 79401.47, -267023.94, 1185.3453, -0.021446802, 0.24604256, 79405.52, 220122.61, 0.00000000065795036, 10.0025425, 9.997949 
9.502834e+1, 2.9564118e+2, 210711.5, -158330.1, -3633.692, -0.0031556208, 0.22084858, 210747.27, 253484.5, 0.000001379458, 10.002794, 9.997901 
9.5031446e+1, 3.056383e+2, 237786.55, -215762.0, 5359.927, -0.015626993, 0.19161092, 237849.89, 237849.89, 0.000021105876, 10.003057, 9.9970455 
9.503488e+1, 3.1563574e+2, 405252.34, 69159.44, 10886.611, -0.006649842, 0.22506313, 405604.63, 405604.63, 0.000088718174, 10.003328, 9.998873 
1.0498623e+2, 1.2565608e+2, -1859771.1, -1722744.4, -26976.637, 0.012939065, 0.04080285, -1717624.8, -9048.405, 0.0000035788082, 9.998739, 10.000553 
1.04988955e+2, 1.3565704e+2, -1756374.9, -1666626.0, -10966.772, -0.025303945, 0.119888045, -1665305.4, -54736.965, 0.000000177014, 9.998968, 10.000155 
1.04991846e+2, 1.4565639e+2, -1634865.3, -1560434.5, -35937.26, -0.006660244, 0.041328743, -1545915.3, -33339.57, 0.0, 9.999143, 10.000126 
1.04994304e+2, 1.5565693e+2, -1518873.1, -1456508.4, -39533.43, -0.00018572964, 0.08253021, -1437339.8, -22769.064, 0.0, 9.999278, 10.000101 
1.0499648e+2, 1.6565695e+2, -1435053.8, -1439038.4, -46517.918, -0.00540025, 0.108558506, -1390485.5, -73914.59, 0.0, 9.999498, 9.999442 
1.04998514e+2, 1.756564e+2, -1296843.8, -1323844.8, -39285.313, -0.015746893, 0.10432858, -1268804.0, -50227.133, 0.0, 9.999784, 9.999422 
1.0500072e+2, 1.8565543e+2, -1221949.0, -1327435.9, -36548.258, -0.0113479765, 0.109562084, -1210523.5, -89935.66, 0.0, 10.000015, 9.998614 
1.0500305e+2, 1.9565421e+2, -1095477.0, -1214508.3, -40400.78, 0.0031245681, 0.12560797, -1083059.8, -60457.46, 0.0, 10.000205, 9.998625 
1.05005294e+2, 2.0565298e+2, -988783.2, -1149914.3, -40498.78, 0.008736619, 0.1575522, -979176.9, -54559.92, 0.0, 10.000426, 9.998289 
1.0500748e+2, 2.156517e+2, -853214.7, -1030523.7, -36502.8, 0.007962316, 0.1975028, -845993.9, -19362.008, 0.0, 10.00067, 9.998318 
1.0500984e+2, 2.2565015e+2, -723745.7, -926261.75, -26811.273, 0.0066128387, 0.2130248, -720256.25, 8392.692, 0.0, 10.000924, 9.998239 
1.0501235e+2, 2.3564836e+2, -585494.9, -805564.8, -32902.46, 0.0046582357, 0.20851374, -580680.94, 49986.633, 0.0, 10.001186, 9.998268 
1.05015144e+2, 2.456468e+2, -457169.13, -699360.8, -18670.17, 0.003399653, 0.22914256, -455738.3, 76946.29, 0.0, 10.001423, 9.998211 
1.0501816e+2, 2.5564542e+2, -324721.94, -580057.7, -17966.813, 0.002722372, 0.26633927, -323463.9, 111236.48, 0.0, 10.001638, 9.998253 
1.05021164e+2, 2.6564384e+2, -182561.13, -450256.44, -13474.439, -0.01086853, 0.27701417, -181884.61, 154831.64, 0.0, 10.001897, 9.998347 
1.0502419e+2, 2.756421e+2, -42160.17, -331463.25, -20293.584, -0.034544636, 0.26419947, -40743.586, 197988.58, 0.0, 10.002187, 9.99835 
1.05027534e+2, 2.8563997e+2, 64589.035, -280699.66, -20070.434, -0.028681563, 0.24469885, 65751.74, 206502.84, 0.00000000025503108, 10.002469, 9.99789 
1.0503114e+2, 2.9563767e+2, 199881.44, -169079.06, -18782.738, -0.000049559392, 0.21957299, 200835.14, 243607.28, 0.000001118805, 10.002744, 9.997851 
1.05034456e+2, 3.056348e+2, 223504.97, -213690.4, -8658.303, -0.013189949, 0.1888429, 223676.38, 223676.38, 0.000018367069, 10.00292, 9.997126 
1.0503802e+2, 3.1563237e+2, 365560.44, 58803.844, -1006.7823, -0.009652421, 0.22976315, 365563.75, 365563.75, 0.00007944771, 10.003017, 9.998951 
1.149851e+2, 1.2565275e+2, -1850064.5, -1702611.0, -19060.543, 0.02569605, 0.058274914, -1700187.0, 8422.451, 0.000003050449, 9.998739, 10.000691 
1.1498794e+2, 1.3565329e+2, -1746497.5, -1645946.4, -2609.72, -0.023501968, 0.081479535, -1645878.6, -35274.363, 0.00000018630364, 9.998967, 10.0002985 
1.1499095e+2, 1.456527e+2, -1641057.8, -1573056.0, -30865.195, -0.009859169, 0.0064116945, -1561136.0, -48524.87, 0.0000000000835116, 9.999142, 10.00004 
1.1499351e+2, 1.5565363e+2, -1523749.6, -1466566.3, -34047.633, -0.0064182794, 0.092991844, -1450697.6, -36093.863, 0.0, 9.999278, 10.000032 
1.14995934e+2, 1.6565372e+2, -1422452.3, -1412794.0, -35776.94, -0.010419387, 0.12073758, -1381521.8, -64918.62, 0.0, 9.999498, 9.999622 
1.1499829e+2, 1.7565301e+2, -1285538.9, -1300225.9, -28739.48, -0.016265636, 0.085411586, -1263219.5, -44610.21, 0.0, 9.9997835, 9.999585 
1.1500076e+2, 1.8565217e+2, -1229388.6, -1342751.0, -29375.643, -0.008853236, 0.09880445, -1222228.8, -101609.01, 0.0, 10.000014, 9.998509 
1.150033e+2, 1.9565123e+2, -1101941.8, -1227917.8, -33043.313, 0.007503546, 0.15263687, -1093800.8, -71167.83, 0.0, 10.000205, 9.998532 
1.1500578e+2, 2.0565003e+2, -982739.3, -1137345.4, -31273.127, 0.013670489, 0.18746443, -976653.06, -52005.805, 0.0, 10.000426, 9.998375 
1.1500819e+2, 2.1564859e+2, -848373.1, -1020491.4, -27244.387, 0.012511571, 0.20357217, -844163.6, -17500.846, 0.0, 10.00067, 9.998387 
1.1501079e+2, 2.2564688e+2, -736950.06, -953701.44, -16930.725, 0.008900709, 0.21190773, -735635.56, -6954.541, 0.0, 10.000924, 9.998051 
1.15013525e+2, 2.3564497e+2, -597829.44, -831157.56, -23144.436, 0.0031502137, 0.21294434, -595555.9, 35145.41, 0.0, 10.001186, 9.998093 
1.15016535e+2, 2.4564336e+2, -456528.5, -698071.5, -10519.345, -0.00022417428, 0.23472418, -456071.25, 76647.54, 0.0, 10.001423, 9.9982195 
1.1501975e+2, 2.5564197e+2, -324982.56, -580637.3, -9633.777, -0.0017662011, 0.27021584, -324620.06, 110114.04, 0.0, 10.001639, 9.998249 
1.1502305e+2, 2.6564023e+2, -195508.31, -477161.63, -2549.9583, -0.012128967, 0.27578035, -195485.22, 141266.22, 0.0, 10.001897, 9.998162 
1.1502642e+2, 2.7563822e+2, -54233.637, -356519.66, -9395.422, -0.02941922, 0.25501248, -53941.895, 184828.45, 0.0, 10.002187, 9.9981785 
1.1503001e+2, 2.8563604e+2, 66342.36, -276954.44, -9643.929, -0.02738099, 0.23604785, 66613.06, 207403.17, 0.000000000026412617, 10.002468, 9.997916 
1.1503378e+2, 2.9563382e+2, 201865.17, -164685.06, -8816.082, -0.010413454, 0.21827415, 202077.1, 244887.38, 0.0000008745259, 10.002743, 9.997882 
1.1503725e+2, 3.0563098e+2, 230589.77, -198686.22, -4893.411, -0.026038416, 0.1832898, 230645.55, 230645.55, 0.000015743772, 10.002918, 9.99723 
1.15041e+2, 3.1562865e+2, 372378.9, 73112.43, 3167.574, -0.013648634, 0.22174473, 372412.44, 372412.44, 0.000070235736, 10.003017, 9.999049 
1.2498392e+2, 1.2564921e+2, -1852364.1, -1698340.1, -16248.231, 0.036513217, 0.060023036, -1696644.8, 11999.705, 0.0000030832873, 9.9987, 10.00074 
1.24986894e+2, 1.3564983e+2, -1766735.1, -1648409.1, -5776.9985, -0.016837772, 0.082694724, -1648127.8, -37489.215, 0.0000002714346, 9.998796, 10.000363 
1.24990046e+2, 1.4564928e+2, -1658582.9, -1582745.5, -31241.254, -0.00896557, 0.010638081, -1571533.3, -58888.355, 0.0000000011616538, 9.999027, 10.000029 
1.2499275e+2, 1.5565021e+2, -1512750.9, -1461978.1, -28818.883, -0.014317141, 0.09880283, -1448958.8, -34321.117, 0.0, 9.999356, 10.000026 
1.249954e+2, 1.656503e+2, -1410174.3, -1401170.3, -34993.137, -0.01630863, 0.124709405, -1370390.6, -53753.64, 0.0, 9.999558, 9.999673 
1.24998055e+2, 1.7564961e+2, -1300255.9, -1302121.0, -37706.316, -0.011771212, 0.08537384, -1263470.6, -44827.766, 0.0, 9.9996605, 9.999631 
1.2500076e+2, 1.856488e+2, -1250514.1, -1354725.8, -36970.57, -0.003763284, 0.10168478, -1238730.6, -118077.7, 0.0, 9.999877, 9.998493 
1.2500347e+2, 1.9564795e+2, -1106339.6, -1231862.9, -33993.305, 0.005624417, 0.16364151, -1097725.0, -75059.19, 0.0, 10.000183, 9.998516 
1.2500617e+2, 2.0564672e+2, -976956.06, -1137517.3, -33416.43, 0.0084784655, 0.19903725, -970279.0, -45598.55, 0.0, 10.000479, 9.998348 
1.2500885e+2, 2.1564521e+2, -836058.7, -1017748.1, -37864.523, 0.0068184235, 0.20977412, -828483.44, -1786.8976, 0.0, 10.000769, 9.998359 
1.2501174e+2, 2.2564343e+2, -721157.4, -952483.5, -25337.666, 0.005335457, 0.2152544, -718414.56, 10300.701, 0.0, 10.0010605, 9.997993 
1.250148e+2, 2.3564145e+2, -577669.2, -828000.9, -21925.18, 0.0036886998, 0.21526186, -575763.4, 54972.566, 0.0, 10.001353, 9.998034 
1.2501803e+2, 2.4563974e+2, -440805.6, -699365.25, -11909.799, 0.00084683124, 0.23474498, -440258.16, 92496.03, 0.0, 10.001569, 9.99814 
1.2502143e+2, 2.5563824e+2, -318188.8, -586151.2, -17532.29, -0.0029786672, 0.26725578, -317046.6, 117723.88, 0.0, 10.001723, 9.99817 
1.2502496e+2, 2.6563638e+2, -197614.86, -484334.4, -5590.9043, -0.011210129, 0.2702776, -197505.88, 139282.81, 0.0, 10.001909, 9.998107 
1.2502864e+2, 2.7563432e+2, -67854.54, -368804.6, -2843.0837, -0.02296933, 0.24716437, -67827.68, 170980.72, 0.0, 10.002118, 9.998127 
1.2503242e+2, 2.8563216e+2, 40294.45, -289207.3, -1257.8015, -0.024474042, 0.23328161, 40299.25, 181127.38, 0.0, 10.002288, 9.997919 
1.250363e+2, 2.9563007e+2, 156348.64, -185860.05, -2429.0005, -0.01824635, 0.2264425, 156365.88, 199213.47, 0.0000006546641, 10.002427, 9.997889 
1.2503992e+2, 3.0562726e+2, 186798.84, -211920.81, -3160.2446, -0.03404517, 0.19048996, 186823.89, 186823.89, 0.0000132978475, 10.002584, 9.9973 
1.2504393e+2, 3.1562504e+2, 338838.7, 64266.1, 2636.194, -0.0091478815, 0.2302901, 338864.0, 338864.0, 0.000061306615, 10.002755, 9.999115 
1.349827e+2, 1.2564547e+2, -1855519.6, -1704784.5, -13030.689, 0.04496763, 0.046084262, -1703666.3, 5015.086, 0.0000033913916, 9.9987, 10.000696 
1.3498579e+2, 1.3564663e+2, -1767799.4, -1650517.0, -1460.4099, -0.0058918726, 0.12342282, -1650498.9, -39827.64, 0.00000039333747, 9.998796, 10.000349 
1.3498913e+2, 1.4564614e+2, -1654075.1, -1573237.8, -18749.21, -0.0044848663, 0.05395808, -1569100.9, -56423.875, 0.0000000035362315, 9.999026, 10.000094 
1.3499202e+2, 1.556467e+2, -1508953.3, -1453855.0, -16858.023, -0.024085842, 0.10015386, -1449106.4, -34433.934, 0.0, 9.999355, 10.000082 
1.349949e+2, 1.6564673e+2, -1415960.5, -1412983.5, -31128.045, -0.02323762, 0.12059546, -1383308.4, -66635.95, 0.0, 9.9995575, 9.999593 
1.349978e+2, 1.7564619e+2, -1305295.8, -1312516.5, -33305.125, -0.0025688473, 0.104113184, -1275405.9, -56728.613, 0.0, 9.99966, 9.99956 
1.350007e+2, 1.8564536e+2, -1245461.1, -1344215.0, -25407.332, 0.0037041754, 0.11814202, -1239307.8, -118620.29, 0.0, 9.999877, 9.998566 
1.3500358e+2, 1.9564435e+2, -1102227.0, -1223323.9, -22474.275, -0.0025923206, 0.1586966, -1098190.5, -75489.35, 0.0, 10.000183, 9.998575 
1.350065e+2, 2.0564307e+2, -986759.4, -1157856.0, -22513.275, -0.0069360547, 0.19229634, -983846.6, -59130.117, 0.0, 10.000479, 9.998209 
1.3500947e+2, 2.1564154e+2, -844945.94, -1036155.6, -26903.977, -0.009190423, 0.21611157, -841232.56, -14499.318, 0.0, 10.000769, 9.998232 
1.3501272e+2, 2.2563976e+2, -716053.9, -941811.3, -14269.805, -0.0041986774, 0.22306603, -715155.44, 13596.3125, 0.0, 10.0010605, 9.998067 
1.3501617e+2, 2.3563778e+2, -573640.06, -819568.6, -11198.578, 0.0061400775, 0.21550177, -573131.2, 57640.44, 0.0, 10.001353, 9.998092 
1.3501967e+2, 2.4563594e+2, -452597.3, -723824.75, -6097.9575, 0.006495405, 0.22927144, -452460.28, 80330.57, 0.0, 10.001569, 9.9979725 
1.3502316e+2, 2.5563422e+2, -328927.75, -608466.94, -11566.012, -0.0010243681, 0.2575209, -328450.03, 106359.445, 0.0, 10.001723, 9.998017 
1.350269e+2, 2.6563236e+2, -192480.78, -473659.6, 2313.5283, -0.008291523, 0.26047832, -192461.75, 144366.23, 0.0, 10.001909, 9.99818 
1.3503082e+2, 2.7563038e+2, -63156.754, -358945.72, 4889.926, -0.015309886, 0.2405865, -63075.938, 175770.42, 0.0, 10.002117, 9.998195 
1.3503475e+2, 2.8562835e+2, 38752.855, -292326.25, 3961.2654, -0.02012738, 0.23625182, 38800.242, 179665.44, 0.0, 10.002288, 9.997898 
1.3503866e+2, 2.9562637e+2, 155057.88, -188517.64, 2849.2935, -0.023710957, 0.24391252, 155081.52, 197965.63, 0.0000004660869, 10.002426, 9.99787 
1.3504246e+2, 3.056236e+2, 189294.25, -206653.06, 3320.7148, -0.03747369, 0.2102243, 189322.1, 189322.1, 0.000011042731, 10.0025835, 9.997336 
1.350468e+2, 3.1562147e+2, 340911.2, 68808.164, 9360.903, 0.003149573, 0.25478742, 341232.8, 341232.8, 0.000052781335, 10.002754, 9.999146 
1.4498138e+2, 1.2564176e+2, -1865953.5, -1715532.0, -19812.2, 0.04381497, 0.050055955, -1712966.3, -4247.867, 0.000003766588, 9.998653, 10.000645 
1.4498459e+2, 1.3564304e+2, -1761632.6, -1649771.5, -8052.1196, -0.008540617, 0.1437622, -1649194.9, -38487.543, 0.00000052701, 9.998849, 10.000329 
1.4498812e+2, 1.456426e+2, -1648026.0, -1561932.0, -21564.723, -0.0075921994, 0.07460559, -1556832.6, -44119.934, 0.000000006774009, 9.999032, 10.000169 
1.4499126e+2, 1.5564306e+2, -1527022.9, -1455321.3, -19242.182, -0.027109047, 0.103683546, -1450483.8, -35775.305, 0.0, 9.9992, 10.000147 
1.4499438e+2, 1.6564307e+2, -1437591.8, -1430759.5, -34428.26, -0.024026703, 0.1222704, -1399578.3, -82869.68, 0.0, 9.99944, 9.999527 
1.4499754e+2, 1.7564256e+2, -1298880.4, -1316341.5, -35387.15, 0.0005025458, 0.11622707, -1271162.8, -52449.246, 0.0, 9.999734, 9.999498 
1.4500065e+2, 1.8564169e+2, -1233160.5, -1338944.8, -28670.916, 0.0063112895, 0.12919633, -1225889.5, -105165.375, 0.0, 9.999965, 9.99856 
1.4500372e+2, 1.9564058e+2, -1108183.1, -1227234.6, -31514.984, -0.0038781066, 0.1598141, -1100355.3, -77616.67, 0.0, 10.000147, 9.998566 
1.4500691e+2, 2.0563926e+2, -999854.8, -1169705.6, -27994.922, -0.0103499675, 0.19187887, -995359.6, -70605.24, 0.0, 10.000413, 9.998159 
1.4501017e+2, 2.1563773e+2, -851549.6, -1044483.75, -25754.734, -0.013307422, 0.22052285, -848170.8, -21399.62, 0.0, 10.000745, 9.998186 
1.450137e+2, 2.2563593e+2, -722003.06, -944470.5, -14933.346, -0.0081331385, 0.22798687, -721005.1, 7784.6636, 0.0, 10.001019, 9.998068 
1.4501745e+2, 2.3563392e+2, -589368.0, -827388.8, -17411.146, 0.0030864358, 0.2177571, -588101.1, 42708.418, 0.0, 10.0012455, 9.99809 
1.4502119e+2, 2.4563202e+2, -470281.28, -737849.8, -12234.788, 0.006463262, 0.22689125, -469723.0, 63106.234, 0.0, 10.0014715, 9.997923 
1.4502491e+2, 2.556302e+2, -336775.13, -617478.7, -8867.831, 0.0036117306, 0.24881321, -336495.28, 98353.445, 0.0, 10.001693, 9.997971 
1.4502881e+2, 2.6562834e+2, -199792.4, -478084.06, 4830.784, -0.0058202823, 0.2541284, -199708.58, 137158.67, 0.0, 10.0018635, 9.998172 
1.4503284e+2, 2.756264e+2, -82030.664, -368886.7, 1181.216, -0.020412406, 0.2434398, -82025.8, 156859.19, 0.0, 10.001991, 9.998187 
1.4503692e+2, 2.856244e+2, 17422.053, -303100.78, -2280.579, -0.023887359, 0.24153368, 17438.28, 158342.11, 0.0, 10.002144, 9.997893 
1.4504108e+2, 2.956224e+2, 138380.19, -196504.25, -2257.7932, -0.01902063, 0.24638905, 138395.4, 181318.64, 0.00000031171322, 10.002312, 9.99787 
1.4504498e+2, 3.0561963e+2, 170770.05, -207732.44, -1141.0968, -0.035316408, 0.21037532, 170773.48, 170773.48, 0.000008961074, 10.002422, 9.997406 
1.4504936e+2, 3.1561768e+2, 305923.3, 58733.594, 7455.273, -0.0023072844, 0.26641157, 306147.94, 306147.94, 0.000044704477, 10.002484, 9.999207 
1.5497991e+2, 1.2563808e+2, -1869988.4, -1723703.3, -12575.488, 0.03223842, 0.072202265, -1722630.1, -13874.601, 0.000004107076, 9.998652, 10.000589 
1.5498328e+2, 1.356391e+2, -1763459.8, -1653380.8, -535.12195, -0.025037711, 0.14386228, -1653378.1, -42631.246, 0.00000065226897, 9.998848, 10.000305 
1.5498704e+2, 1.4563866e+2, -1642449.9, -1550146.4, -15059.813, -0.018534817, 0.07262857, -1547751.5, -34999.617, 0.000000011338887, 9.999031, 10.00025 
1.549905e+2, 1.5563929e+2, -1522073.5, -1444886.9, -12482.05, -0.023823036, 0.109317616, -1442918.5, -28173.06, 0.0, 9.9992, 10.000218 
1.5499386e+2, 1.6563933e+2, -1441210.4, -1438168.3, -23303.799, -0.019031767, 0.12970927, -1416336.0, -99590.53, 0.0, 9.99944, 9.999476 
1.5499724e+2, 1.7563875e+2, -1302599.3, -1324001.4, -24533.055, -0.0026369004, 0.12179273, -1286535.0, -67783.55, 0.0, 9.999733, 9.999446 
1.550006e+2, 1.856378e+2, -1239174.1, -1351372.6, -21804.883, 0.0039696675, 0.13490179, -1235085.5, -114322.54, 0.0, 9.999964, 9.998474 
1.5500394e+2, 1.9563663e+2, -1113645.3, -1238567.4, -24258.752, 0.0016386259, 0.16695674, -1109099.9, -86321.64, 0.0, 10.000146, 9.998488 
1.550074e+2, 2.0563526e+2, -997055.56, -1163908.9, -15461.44, -0.0018710397, 0.19774333, -995634.94, -70840.89, 0.0, 10.000413, 9.998199 
1.55011e+2, 2.1563376e+2, -849202.75, -1039583.0, -13438.937, -0.0057128263, 0.2230268, -848258.75, -21448.27, 0.0, 10.000745, 9.9982195 
1.5501474e+2, 2.2563192e+2, -726931.9, -954673.3, -6378.2705, -0.006625861, 0.23006895, -726753.4, 2075.9019, 0.0, 10.001019, 9.997998 
1.550186e+2, 2.3562987e+2, -593751.1, -836468.25, -8819.747, -0.0054948186, 0.22201605, -593431.06, 37418.664, 0.0, 10.0012455, 9.998027 
1.5502259e+2, 2.4562792e+2, -465522.72, -727933.44, -3883.5244, 0.0006758974, 0.22754335, -465465.25, 67404.07, 0.0, 10.001471, 9.997992 
1.5502667e+2, 2.556261e+2, -332712.06, -608993.3, -727.77783, 0.010790953, 0.2411051, -332710.16, 102178.05, 0.0, 10.001692, 9.998029 
1.5503068e+2, 2.6562423e+2, -206093.56, -491170.4, 9668.376, -0.0038738053, 0.2511956, -205766.03, 131140.48, 0.0, 10.001863, 9.998082 
1.5503463e+2, 2.756224e+2, -87875.875, -381052.6, 6111.784, -0.038198292, 0.255637, -87748.52, 151175.81, 0.0, 10.001991, 9.998104 
1.5503895e+2, 2.8562033e+2, 18171.727, -301509.2, 4065.1145, -0.035737276, 0.24917278, 18223.412, 159167.48, 0.0, 10.002143, 9.997904 
1.5504353e+2, 2.9561815e+2, 139525.77, -193969.58, 3911.8223, -0.0044364063, 0.23411338, 139571.64, 182536.6, 0.000000191647, 10.002311, 9.997889 
1.5504749e+2, 3.0561537e+2, 177803.5, -192909.98, 1225.0819, -0.0278495, 0.19128302, 177807.55, 177807.55, 0.000007033754, 10.002421, 9.997508 
1.5505162e+2, 3.156137e+2, 311969.38, 71518.96, 9953.918, -0.025683153, 0.26510343, 312380.72, 312380.72, 0.00003709365, 10.002483, 9.999295 
1.649784e+2, 1.2563418e+2, -1884190.3, -1725985.8, -20222.11, 0.021357944, 0.09127583, -1723441.9, -14647.102, 0.000004370903, 9.998535, 10.00063 
1.64982e+2, 1.3563505e+2, -1783925.1, -1656643.9, -614.29974, -0.027363585, 0.14133668, -1656640.9, -45853.723, 0.00000075351153, 9.998679, 10.000364 
1.6498601e+2, 1.4563459e+2, -1666850.6, -1565263.6, -15534.05, -0.016850075, 0.06747029, -1562941.4, -50149.45, 0.000000017178404, 9.998878, 10.00022 
1.6498968e+2, 1.5563527e+2, -1536920.4, -1455395.3, -21172.506, -0.02003003, 0.10997684, -1450224.6, -35439.36, 0.0, 9.999112, 10.000189 
1.6499329e+2, 1.6563527e+2, -1455005.1, -1448258.1, -32075.674, -0.017420966, 0.13203283, -1419379.0, -102593.61, 0.0, 9.99936, 9.999446 
1.6499688e+2, 1.7563465e+2, -1321481.1, -1336438.3, -31955.059, -0.006761157, 0.12313782, -1296141.1, -77348.99, 0.0, 9.999618, 9.999416 
1.650005e+2, 1.8563373e+2, -1248575.0, -1357896.9, -26696.0, 0.0017681093, 0.13990076, -1242404.3, -121600.6, 0.0, 9.999908, 9.998457 
1.6500416e+2, 1.956326e+2, -1103568.3, -1235472.5, -23955.43, 0.0074335816, 0.17898473, -1099352.5, -76534.125, 0.0, 10.000223, 9.998472 
1.650079e+2, 2.0563124e+2, -984414.0, -1156408.1, -12781.447, 0.0033215901, 0.2093629, -983469.4, -58635.27, 0.0, 10.000494, 9.998212 
1.6501172e+2, 2.1562968e+2, -850822.3, -1039374.2, -12933.7705, -0.007909956, 0.22845525, -849939.25, -23088.463, 0.0, 10.00073, 9.998228 
1.6501568e+2, 2.2562782e+2, -735206.2, -963714.94, -7067.997, -0.012977189, 0.23418427, -734987.75, -6117.933, 0.0, 10.000983, 9.997952 
1.6501978e+2, 2.3562574e+2, -596163.06, -842372.56, -7739.2466, -0.013480876, 0.22865936, -595920.06, 34970.5, 0.0, 10.00125, 9.997985 
1.65024e+2, 2.4562377e+2, -464341.72, -726889.3, -5999.984, -0.0062574903, 0.23128463, -464204.66, 68705.74, 0.0, 10.001477, 9.997995 
1.6502832e+2, 2.5562185e+2, -335471.88, -610249.2, -7810.014, 0.0069697294, 0.2375778, -335250.06, 99679.516, 0.0, 10.001673, 9.998029 
1.6503252e+2, 2.6561996e+2, -216588.94, -503385.75, -1626.0093, -0.004712849, 0.24618955, -216579.72, 120368.734, 0.0, 10.0018215, 9.998018 
1.6503662e+2, 2.7561808e+2, -100696.63, -393338.28, -3235.557, -0.036066376, 0.25371733, -100660.86, 138306.14, 0.0, 10.00193, 9.998049 
1.6504106e+2, 2.8561604e+2, 8512.187, -297063.3, -817.26306, -0.033086266, 0.24858405, 8514.372, 149500.75, 0.0, 10.002038, 9.997985 
1.6504577e+2, 2.9561388e+2, 120521.766, -194345.36, 3991.2708, -0.0033405435, 0.2335211, 120572.35, 163578.38, 0.000000103903474, 10.002143, 9.997967 
1.6504978e+2, 3.056111e+2, 144784.84, -206597.38, -3799.1917, -0.029790442, 0.1838952, 144825.92, 144825.92, 0.0000052712203, 10.002185, 9.997528 
1.6505392e+2, 3.1560946e+2, 267563.66, 50870.914, -1015.9345, -0.028092423, 0.25979635, 267568.4, 267568.4, 0.00002996744, 10.002174, 9.999302 
1.7497683e+2, 1.2563008e+2, -1874765.0, -1706189.9, -14995.586, 0.010658516, 0.10746095, -1704866.4, 3969.7622, 0.000004515703, 9.998534, 10.000767 
1.749808e+2, 1.3563089e+2, -1774120.0, -1636014.5, 5174.0073, -0.015827546, 0.13630964, -1635821.0, -24992.908, 0.0000008179498, 9.998677, 10.000506 
1.7498504e+2, 1.4563039e+2, -1676787.1, -1585685.0, -6559.8003, -0.0027627735, 0.059264995, -1585215.1, -72382.13, 0.000000022541565, 9.998877, 10.000081 
1.7498885e+2, 1.5563096e+2, -1546211.5, -1474585.5, -12203.799, -0.015795229, 0.10574016, -1472563.3, -57735.71, 0.0, 9.999111, 10.000057 
1.7499264e+2, 1.6563092e+2, -1455853.0, -1449963.5, -22299.502, -0.019253565, 0.12927885, -1430415.1, -113586.484, 0.0, 9.999359, 9.999434 
1.7499644e+2, 1.756303e+2, -1322056.8, -1337638.0, -22039.004, -0.012055467, 0.12028954, -1306471.9, -87636.12, 0.0, 9.999618, 9.999409 
1.750004e+2, 1.8562946e+2, -1245049.0, -1350591.1, -14825.285, -0.0005206792, 0.14417338, -1243006.0, -122159.625, 0.0, 9.9999075, 9.9985075 
1.7500445e+2, 1.9562851e+2, -1100336.1, -1228765.1, -12240.578, 0.013378319, 0.19592407, -1099179.9, -76320.766, 0.0, 10.000223, 9.998519 
1.7500842e+2, 2.0562717e+2, -985462.1, -1158548.6, -3898.8208, 0.005142432, 0.22673722, -985374.4, -60499.848, 0.0, 10.000493, 9.998198 
1.7501232e+2, 2.156255e+2, -851961.5, -1041705.56, -3937.2073, -0.019922053, 0.23681885, -851879.8, -24987.646, 0.0, 10.00073, 9.998213 
1.7501652e+2, 2.256236e+2, -736706.8, -966802.3, 2988.9443, -0.027284093, 0.24029449, -736668.0, -7756.466, 0.0, 10.000983, 9.9979315 
1.7502095e+2, 2.3562153e+2, -597830.44, -845801.44, 2142.9236, -0.02096289, 0.237647, -597811.94, 33120.133, 0.0, 10.001249, 9.997961 
1.7502539e+2, 2.4561948e+2, -468553.3, -735608.1, 1373.0442, -0.0144102285, 0.23809418, -468546.25, 64406.266, 0.0, 10.001477, 9.997935 
1.7502984e+2, 2.5561744e+2, -339549.7, -618668.75, -577.6887, -0.007831289, 0.23820683, -339548.47, 95424.38, 0.0, 10.001673, 9.997972 
1.750343e+2, 2.656154e+2, -219319.22, -509045.34, 2462.062, -0.008404037, 0.2391635, -219298.3, 117694.73, 0.0, 10.0018215, 9.997979 
1.7503877e+2, 2.7561343e+2, -102560.54, -397249.78, 914.8349, -0.014493605, 0.23788902, -102557.695, 136455.28, 0.0, 10.00193, 9.998022 
1.7504327e+2, 2.856115e+2, 19062.691, -275220.7, 3198.3296, -0.016405197, 0.23985545, 19097.447, 160128.2, 0.0, 10.002038, 9.998136 
1.7504779e+2, 2.9560974e+2, 130200.516, -174268.9, 7804.2544, -0.0155714555, 0.24442665, 130400.43, 173446.9, 0.00000004563321, 10.002143, 9.998105 
1.7505184e+2, 3.0560693e+2, 140574.53, -215357.3, -4195.8994, -0.041081235, 0.18804891, 140623.98, 140623.98, 0.0000037135492, 10.002185, 9.997468 
1.7505628e+2, 3.1560507e+2, 262497.94, 40314.496, -1188.9044, -0.010701582, 0.2505016, 262504.3, 262504.3, 0.000023373406, 10.002174, 9.999229 
1.8497533e+2, 1.2562571e+2, -1876737.5, -1704169.9, -16891.412, 0.0088732485, 0.108989604, -1702532.1, 6347.6284, 0.000004500078, 9.9985075, 10.0007925 
1.8497951e+2, 1.3562667e+2, -1767215.0, -1627522.8, -4806.713, -0.015088782, 0.14874873, -1627357.5, -16487.701, 0.0000008390777, 9.998702, 10.000552 
1.8498392e+2, 1.4562622e+2, -1671386.4, -1584029.6, -12580.507, -0.0032260455, 0.072714545, -1582254.0, -69379.766, 0.000000025661054, 9.998918, 10.0000725 
1.8498796e+2, 1.5562664e+2, -1542953.9, -1474516.1, -8478.787, -0.01667629, 0.10504914, -1473481.4, -58611.27, 0.0, 9.99914, 10.000044 
1.8499199e+2, 1.6562654e+2, -1460432.0, -1461681.9, -16738.855, -0.019922348, 0.12831658, -1444306.4, -127434.51, 0.0, 9.999369, 9.99935 
1.8499605e+2, 1.7562594e+2, -1329800.8, -1349756.8, -21846.963, -0.0124201905, 0.13037513, -1315761.0, -96881.61, 0.0, 9.9996, 9.999333 
1.8500026e+2, 1.856251e+2, -1244665.6, -1342745.5, -13808.063, -0.0030410476, 0.1549485, -1242758.8, -121868.9, 0.0, 9.999878, 9.998575 
1.8500459e+2, 1.9562416e+2, -1101122.4, -1222472.1, -10076.116, 0.006930613, 0.19924524, -1100291.4, -77389.53, 0.0, 10.000189, 9.998578 
1.8500885e+2, 2.0562276e+2, -996103.2, -1172033.6, -6393.2407, 0.000044804106, 0.2256896, -995871.1, -70953.49, 0.0, 10.000456, 9.998122 
1.8501303e+2, 2.1562098e+2, -862393.94, -1054463.3, -10900.738, -0.019639684, 0.23410225, -861777.25, -34840.723, 0.0, 10.000691, 9.998143 
1.850175e+2, 2.2561908e+2, -739718.3, -964122.06, -2405.4185, -0.024502244, 0.23759547, -739692.5, -10736.529, 0.0, 10.000945, 9.997969 
1.850222e+2, 2.3561706e+2, -600846.1, -843721.8, 925.0103, -0.017873166, 0.23611344, -600842.6, 30133.107, 0.0, 10.001214, 9.9979925 
1.8502685e+2, 2.4561504e+2, -480945.03, -747494.1, -982.5661, -0.013042697, 0.24006335, -480941.4, 52054.63, 0.0, 10.001417, 9.997883 
1.8503144e+2, 2.55613e+2, -358267.84, -632897.2, -2548.465, -0.009786895, 0.2455748, -358244.22, 76772.55, 0.0, 10.001567, 9.997925 
1.8503608e+2, 2.6561096e+2, -228419.1, -507636.56, 3467.1338, -0.009019646, 0.24376637, -228376.05, 108661.13, 0.0, 10.001734, 9.998032 
1.8504074e+2, 2.7560893e+2, -101265.78, -390652.47, 8450.449, -0.010085658, 0.23322637, -101019.234, 138038.11, 0.0, 10.001913, 9.9980755 
1.8504532e+2, 2.8560713e+2, 21858.271, -265279.8, 8233.414, -0.013887105, 0.23829304, 22094.164, 163168.17, 0.0, 10.00202, 9.998212 
1.8504983e+2, 2.9560554e+2, 124205.65, -169130.56, 7232.3047, -0.020448681, 0.25586838, 124383.85, 167471.39, 0.000000013949684, 10.002067, 9.998177 
1.8505394e+2, 3.0560267e+2, 127649.14, -222937.27, -7756.536, -0.04591984, 0.1916563, 127820.664, 127820.664, 0.0000024106344, 10.002102, 9.997456 
1.8505847e+2, 3.156007e+2, 253475.36, 32870.484, -1169.2065, -0.0062017315, 0.24425338, 253481.56, 253481.56, 0.000017412012, 10.002127, 9.999202 
1.949739e+2, 1.2562108e+2, -1883049.8, -1716768.0, -9463.525, 0.015721926, 0.095826276, -1716231.3, -7305.7827, 0.000004294411, 9.998506, 10.000708 
1.949781e+2, 1.3562244e+2, -1770879.8, -1634925.3, 2764.7825, -0.025366727, 0.17879468, -1634869.1, -23956.44, 0.0000008137795, 9.998702, 10.000502 
1.9498268e+2, 1.4562206e+2, -1662862.3, -1566240.9, -4086.6255, -0.018497746, 0.10797664, -1566068.4, -53152.414, 0.000000025948266, 9.998918, 10.000195 
1.9498703e+2, 1.5562227e+2, -1535689.3, -1459343.9, -31.64889, -0.022908727, 0.10798343, -1459343.9, -44431.027, 0.0, 9.99914, 10.000149 
1.9499137e+2, 1.6562212e+2, -1471549.1, -1484654.1, -7990.3374, -0.019606479, 0.12920116, -1467768.3, -150852.92, 0.0, 9.999369, 9.999192 
1.9499569e+2, 1.7562158e+2, -1339788.1, -1370437.1, -12908.308, -0.00795032, 0.15342419, -1335076.0, -116152.97, 0.0, 9.9996, 9.999192 
1.9500011e+2, 1.8562068e+2, -1238614.3, -1330125.8, -2070.243, -0.005853889, 0.17227967, -1238567.4, -117633.484, 0.0, 9.999877, 9.998663 
1.950046e+2, 1.9561954e+2, -1095965.3, -1211756.0, 1469.562, -0.011954058, 0.1889692, -1095946.5, -73000.01, 0.0, 10.000189, 9.998652 
1.9500919e+2, 2.0561801e+2, -1005596.1, -1191772.1, 2452.498, -0.012101068, 0.20628463, -1005563.8, -80600.31, 0.0, 10.000456, 9.997987 
1.9501384e+2, 2.1561617e+2, -870995.25, -1072311.1, -1924.7692, -0.0072871805, 0.22036035, -870976.9, -43992.957, 0.0, 10.000691, 9.998021 
1.9501865e+2, 2.2561426e+2, -733154.25, -950446.1, 7731.231, -0.004861414, 0.22613004, -732879.56, -3876.3066, 0.0, 10.000945, 9.998063 
1.9502357e+2, 2.3561233e+2, -594865.9, -831246.9, 10839.648, -0.004390179, 0.22409683, -594369.8, 36651.703, 0.0, 10.001213, 9.998078 
1.9502838e+2, 2.4561042e+2, -484279.0, -754354.5, 4647.222, -0.0023529618, 0.23721106, -484199.06, 48841.906, 0.0, 10.001417, 9.997836 
1.9503312e+2, 2.556085e+2, -360785.22, -638135.6, 3165.9583, 0.0007984119, 0.2595878, -360749.1, 74312.17, 0.0, 10.001567, 9.997889 
1.9503783e+2, 2.6560652e+2, -218565.3, -487162.22, 10251.847, -0.0067286543, 0.2597989, -218174.58, 118906.41, 0.0, 10.001734, 9.998172 
1.9504252e+2, 2.7560455e+2, -92066.82, -371459.4, 14923.814, -0.022540381, 0.23949543, -91271.92, 147828.27, 0.0, 10.001913, 9.998207 
1.9504723e+2, 2.8560278e+2, 22095.998, -264636.9, 9956.068, -0.025341151, 0.24379398, 22441.281, 163557.45, 0.0, 10.002019, 9.998217 
1.9505192e+2, 2.9560128e+2, 124571.22, -168239.25, 8967.691, -0.018304363, 0.26796857, 124845.6, 167974.83, 0.0000000023315327, 10.002067, 9.998183 
1.9505605e+2, 3.0559835e+2, 130002.52, -218028.83, -6879.662, -0.04458864, 0.19483367, 130138.47, 130138.47, 0.0000014034579, 10.002102, 9.99749 
1.950605e+2, 3.1559637e+2, 254484.5, 34829.883, -296.30197, -0.01458576, 0.24063708, 254484.89, 254484.89, 0.000012235335, 10.002127, 9.999214 
2.0497234e+2, 1.256165e+2, -1866641.1, -1715325.3, -12073.422, 0.0015851684, 0.09799843, -1714368.0, -5397.4985, 0.000003892583, 9.998646, 10.000649 
2.049768e+2, 1.356178e+2, -1762795.9, -1634995.8, 2058.751, -0.030477801, 0.1794069, -1634962.6, -24004.242, 0.00000074131736, 9.998775, 10.000466 
2.049816e+2, 1.4561744e+2, -1660162.8, -1565763.3, -7943.2104, -0.020482937, 0.11303728, -1565099.6, -52138.152, 0.000000023374444, 9.9989395, 10.000188 
2.0498618e+2, 1.5561765e+2, -1537983.8, -1461413.3, -13548.742, -0.021256005, 0.11381214, -1459086.5, -44128.188, 0.0, 9.999128, 10.00014 
2.0499079e+2, 1.6561748e+2, -1469308.4, -1487138.1, -17748.553, -0.015785683, 0.13433114, -1458361.6, -141400.48, 0.0, 9.999399, 9.999161 
2.049954e+2, 1.7561689e+2, -1322651.6, -1365463.0, -13313.566, -0.0035663766, 0.15750986, -1318849.1, -99879.82, 0.0, 9.999732, 9.999163 
2.0500004e+2, 1.8561596e+2, -1221809.9, -1321551.6, -2707.1133, -0.0046522226, 0.17326224, -1221736.4, -100756.06, 0.0, 9.99999, 9.998667 
2.0500474e+2, 1.9561476e+2, -1095515.5, -1211368.3, -5480.804, -0.016687851, 0.18484798, -1095256.8, -72263.66, 0.0, 10.000191, 9.998653 
2.050096e+2, 2.0561323e+2, -1012492.7, -1200181.1, -3497.5767, -0.014062524, 0.20353933, -1012427.5, -87417.266, 0.0, 10.000431, 9.997942 
2.0501462e+2, 2.156114e+2, -872227.3, -1077465.6, -1168.1187, 0.00026185764, 0.2243015, -872220.7, -45189.848, 0.0, 10.000702, 9.99798 
2.0501967e+2, 2.2560948e+2, -736110.75, -949445.5, 7242.9326, 0.004197426, 0.22885293, -735865.1, -6814.795, 0.0, 10.000914, 9.998084 
2.0502475e+2, 2.356075e+2, -612914.2, -837311.3, 4922.848, -0.00009066011, 0.21925676, -612806.25, 18262.553, 0.0, 10.001079, 9.998102 
2.0502974e+2, 2.456056e+2, -500253.28, -756046.5, -335.86987, -0.00026635022, 0.23104237, -500252.84, 32835.035, 0.0, 10.001282, 9.9978895 
2.0503467e+2, 2.556038e+2, -364969.06, -634449.5, 5531.019, 0.0027132179, 0.25706473, -364855.6, 70251.74, 0.0, 10.0015135, 9.99794 
2.0503952e+2, 2.656019e+2, -226354.3, -488314.13, 9129.302, -0.008131671, 0.26017892, -226036.53, 111089.984, 0.0, 10.001669, 9.998196 
2.0504428e+2, 2.7559996e+2, -112312.05, -378506.16, 4856.635, -0.02973272, 0.24208595, -112223.47, 126921.96, 0.0, 10.001761, 9.998232 
2.0504911e+2, 2.8559822e+2, 1404.551, -268506.3, -4400.6514, -0.030108735, 0.24564424, 1476.2805, 142637.42, 0.0, 10.001851, 9.998272 
2.0505397e+2, 2.9559675e+2, 109592.86, -169237.25, -1607.312, -0.014169956, 0.2669686, 109602.125, 152776.03, 0.000000000097020676, 10.001937, 9.998239 
2.0505816e+2, 3.0559382e+2, 126086.55, -213275.11, -14369.016, -0.041714933, 0.18896604, 126693.87, 126693.87, 0.0000007042908, 10.002047, 9.997549 
2.0506263e+2, 3.15592e+2, 263833.44, 42989.67, -6256.3745, -0.018735407, 0.24439427, 264010.53, 264010.53, 0.000007994477, 10.002175, 9.999247 
2.1497063e+2, 1.2561196e+2, -1868965.5, -1719934.6, -7163.3315, -0.034220528, 0.1157278, -1719591.1, -10576.174, 0.0000033185577, 9.998645, 10.000618 
2.1497555e+2, 1.3561276e+2, -1764385.8, -1638128.3, 7078.1514, -0.030481229, 0.15042429, -1637732.6, -26725.707, 0.00000061904166, 9.998774, 10.000445 
2.1498063e+2, 1.4561236e+2, -1669973.4, -1585915.8, -753.21375, -0.009181352, 0.08768969, -1585909.0, -72898.19, 0.000000017936356, 9.998939, 10.00005 
2.1498542e+2, 1.5561278e+2, -1546714.8, -1479328.9, -6083.8647, -0.01180736, 0.122569606, -1478784.0, -63777.26, 0.0, 9.999127, 10.000017 
2.1499024e+2, 1.6561261e+2, -1462795.4, -1473466.9, -5185.4595, -0.008555553, 0.1438026, -1460690.8, -143681.33, 0.0, 9.999398, 9.999255 
2.1499516e+2, 1.7561188e+2, -1316809.4, -1353270.9, -1068.5262, 0.0006256387, 0.142621, -1316778.1, -97759.914, 0.0, 9.999732, 9.999247 
2.150001e+2, 1.8561092e+2, -1227401.0, -1333108.4, 4827.4756, 0.00044065854, 0.15783978, -1227181.0, -106151.836, 0.0, 9.99999, 9.998588 
2.1500503e+2, 1.9560984e+2, -1100547.1, -1221778.0, 2242.9226, -0.007396293, 0.1868765, -1100505.6, -77464.02, 0.0, 10.000191, 9.998582 
2.1501012e+2, 2.056084e+2, -1009365.2, -1193681.6, 6755.288, -0.0059392313, 0.21741489, -1009117.94, -84060.05, 0.0, 10.000431, 9.997987 
2.1501535e+2, 2.156067e+2, -869433.1, -1071703.9, 8845.284, 0.0029142024, 0.24583617, -869047.06, -41969.78, 0.0, 10.000703, 9.99802 
2.1502057e+2, 2.2560473e+2, -739553.94, -956623.0, 13455.988, 0.0025929315, 0.24566549, -738722.94, -9625.715, 0.0, 10.000914, 9.998035 
2.1502577e+2, 2.3560254e+2, -615562.44, -842832.56, 11307.772, -0.004958928, 0.22157253, -615001.2, 16116.4, 0.0, 10.001079, 9.998064 
2.1503095e+2, 2.456006e+2, -489541.75, -733795.1, 8433.291, -0.0067553762, 0.22159293, -489250.9, 43885.85, 0.0, 10.001282, 9.998042 
2.1503612e+2, 2.5559884e+2, -355397.75, -614452.75, 13970.72, -0.004004502, 0.23821521, -354646.5, 80508.46, 0.0, 10.001513, 9.998077 
2.1504113e+2, 2.65597e+2, -232954.64, -501851.94, 12593.229, -0.013289265, 0.2451746, -232366.16, 104807.62, 0.0, 10.001668, 9.998103 
2.1504602e+2, 2.755951e+2, -118153.65, -390483.94, 8350.24, -0.031970702, 0.2411459, -117897.85, 121295.195, 0.0, 10.001761, 9.99815 
2.1505098e+2, 2.855934e+2, 8584.607, -253449.16, -1181.2162, -0.028560491, 0.24400346, 8589.932, 149798.83, 0.0, 10.00185, 9.998376 
2.1505597e+2, 2.955919e+2, 116815.805, -154145.25, 1713.1229, -0.008169773, 0.2531536, 116826.63, 160048.19, 0.0, 10.001936, 9.9983425 
2.1506025e+2, 3.0558905e+2, 131906.66, -201131.06, -9605.819, -0.037403997, 0.17432608, 132183.48, 132183.48, 0.00000028677624, 10.002047, 9.997633 
2.150648e+2, 3.1558752e+2, 267424.25, 50423.707, -1856.5, -0.019260906, 0.25476667, 267440.13, 267440.13, 0.0000047712674, 10.002175, 9.999298 
2.249691e+2, 1.2560713e+2, -1854688.6, -1716890.9, -9547.325, -0.0572562, 0.11652722, -1716232.5, -7170.4316, 0.0000026194793, 9.998759, 10.000585 
2.249744e+2, 1.356078e+2, -1742310.1, -1630271.0, 4537.6104, -0.03210105, 0.1371267, -1630087.6, -19032.318, 0.0000004546107, 9.998937, 10.000421 
2.2497976e+2, 1.4560735e+2, -1649019.9, -1592972.5, -1671.8121, -0.002532731, 0.07965019, -1592922.6, -79862.875, 0.000000010467296, 9.999156, 9.999897 
2.2498478e+2, 1.5560773e+2, -1516341.4, -1480302.1, -8229.036, -0.00036600122, 0.12573038, -1478512.0, -63455.125, 0.0, 9.999403, 9.999878 
2.2498983e+2, 1.6560751e+2, -1424328.6, -1448262.4, -7206.0977, -0.0010038029, 0.14740872, -1422326.5, -105266.61, 0.0, 9.999634, 9.999314 
2.2499491e+2, 1.7560677e+2, -1295348.3, -1336871.0, -5940.842, -0.003114372, 0.1388941, -1294515.0, -75446.88, 0.0, 9.999853, 9.9993 
2.250001e+2, 1.8560582e+2, -1217158.1, -1331766.1, -1474.9478, -0.002989385, 0.15377437, -1217139.3, -96060.336, 0.0, 10.000076, 9.998555 
2.2500533e+2, 1.9560474e+2, -1086510.1, -1218450.1, -498.53244, -0.001180325, 0.187679, -1086508.3, -63416.91, 0.0, 10.000302, 9.998551 
2.2501066e+2, 2.056033e+2, -995749.44, -1186857.9, 4899.062, 0.0017064633, 0.21909977, -995623.94, -70516.25, 0.0, 10.000524, 9.997989 
2.250161e+2, 2.156016e+2, -863371.8, -1068372.6, 3471.9856, 0.005411309, 0.24531311, -863313.0, -36185.703, 0.0, 10.000743, 9.998024 
2.2502148e+2, 2.2559965e+2, -734461.6, -949081.3, 7654.609, 0.0024574103, 0.24547185, -734189.0, -5042.0444, 0.0, 10.000927, 9.998081 
2.2502685e+2, 2.3559754e+2, -611748.0, -836122.25, 12625.642, -0.0057581807, 0.22382297, -611039.75, 20126.742, 0.0, 10.001083, 9.998108 
2.2503218e+2, 2.4559559e+2, -496046.78, -733218.2, 8459.812, -0.008677564, 0.22114778, -495745.4, 37440.11, 0.0, 10.001221, 9.9980755 
2.250375e+2, 2.555938e+2, -378155.25, -621856.25, 4884.6875, -0.007378995, 0.23110276, -378057.4, 57146.637, 0.0, 10.001341, 9.998109 
2.2504269e+2, 2.6559198e+2, -260396.45, -512562.72, 2146.7974, -0.015305199, 0.23869853, -260378.17, 76844.46, 0.0, 10.001469, 9.998125 
2.2504771e+2, 2.7559018e+2, -139990.33, -398743.72, 6400.4204, -0.030339722, 0.24092296, -139832.11, 99409.2, 0.0, 10.001601, 9.99817 
2.2505277e+2, 2.855885e+2, -11960.959, -265171.88, -4942.9336, -0.02699445, 0.2488451, -11864.505, 129392.45, 0.0, 10.001717, 9.99836 
2.2505783e+2, 2.9558703e+2, 98649.25, -164225.75, -10905.429, -0.009721663, 0.26225886, 99100.89, 142370.63, 0.0, 10.001817, 9.998331 
2.250622e+2, 3.0558413e+2, 120309.99, -200103.69, -25718.443, -0.0397581, 0.1753152, 122361.19, 122361.19, 0.00000008572978, 10.001938, 9.997692 
2.2506692e+2, 3.1558266e+2, 255010.92, 46970.246, -20252.71, -0.01910109, 0.2534161, 256964.17, 256964.17, 0.000002540607, 10.002079, 9.999322 
2.3496775e+2, 1.2560202e+2, -1857270.5, -1722045.3, -2741.6982, -0.06766786, 0.10008017, -1721989.6, -12877.709, 0.0000018640146, 9.998758, 10.000549 
2.349733e+2, 1.3560285e+2, -1744343.8, -1634255.6, 11449.242, -0.03546187, 0.13972299, -1633077.5, -21974.26, 0.0000002777255, 9.998936, 10.000394 
2.3497893e+2, 1.4560238e+2, -1661158.1, -1617916.1, 7761.375, -0.0006659447, 0.08918774, -1616565.3, -103456.945, 0.0000000036051038, 9.999155, 9.999726 
2.3498431e+2, 1.5560247e+2, -1527472.1, -1503262.1, 1026.4808, 0.012994216, 0.12327207, -1503218.6, -88109.81, 0.0, 9.999402, 9.999721 
2.3498955e+2, 1.6560219e+2, -1422737.9, -1444812.3, 1038.6543, 0.006811695, 0.1450835, -1422689.1, -105576.734, 0.0, 9.999633, 9.999338 
2.3499466e+2, 1.7560157e+2, -1293810.4, -1333484.1, 2351.86, -0.014896741, 0.14640868, -1293671.4, -74552.37, 0.0, 9.999852, 9.999324 
2.3500004e+2, 1.8560065e+2, -1216242.3, -1329687.0, 7043.869, -0.0150853135, 0.16118278, -1215806.6, -94677.2, 0.0, 10.000075, 9.9985695 
2.3500566e+2, 1.955995e+2, -1085771.1, -1216878.9, 8020.5933, 0.0018201097, 0.18732296, -1085282.3, -62139.996, 0.0, 10.000302, 9.998562 
2.3501126e+2, 2.0559795e+2, -998698.5, -1192997.3, 13154.166, 0.008751278, 0.20864692, -997812.0, -72652.24, 0.0, 10.000524, 9.997947 
2.3501687e+2, 2.1559606e+2, -865621.94, -1073040.0, 11605.498, 0.0077302856, 0.22283773, -864974.6, -37793.7, 0.0, 10.000742, 9.997992 
2.3502241e+2, 2.2559424e+2, -724766.94, -928885.0, 13580.824, 0.0037100732, 0.22838412, -723867.3, 5332.1035, 0.0, 10.000927, 9.9982195 
2.3502795e+2, 2.3559245e+2, -603018.8, -817917.25, 18420.555, -0.0026295972, 0.22599833, -601451.25, 29764.342, 0.0, 10.001083, 9.998233 
2.3503344e+2, 2.455906e+2, -502136.5, -745769.8, 12949.603, -0.006203407, 0.22957595, -501450.16, 31784.031, 0.0, 10.00122, 9.99799 
2.3503885e+2, 2.5558868e+2, -383416.7, -632659.06, 9429.157, -0.0075550014, 0.23551776, -383060.47, 52194.082, 0.0, 10.00134, 9.998035 
2.3504415e+2, 2.6558688e+2, -250924.5, -492733.5, 7115.134, -0.014307741, 0.24058297, -250715.31, 86557.8, 0.0, 10.001469, 9.998262 
2.3504938e+2, 2.7558517e+2, -131636.53, -381221.13, 11286.214, -0.025016174, 0.24139442, -131127.22, 108163.01, 0.0, 10.0016, 9.998291 
2.3505451e+2, 2.8558362e+2, -21450.404, -284763.4, -1209.4403, -0.02557931, 0.25998217, -21444.85, 119860.51, 0.0, 10.001717, 9.998225 
2.3505956e+2, 2.955822e+2, 89900.38, -182370.61, -7069.891, -0.018758176, 0.29377672, 90083.84, 133402.3, 0.0, 10.001817, 9.998207 
2.3506406e+2, 3.055791e+2, 122939.09, -194666.23, -20400.172, -0.048765562, 0.19150563, 124244.055, 124244.055, 0.000000016806371, 10.001938, 9.997729 
2.35069e+2, 3.155774e+2, 255029.06, 47016.203, -15377.939, -0.0188706, 0.24022193, 256159.77, 256159.77, 0.0000011714155, 10.002079, 9.999322 
2.4496663e+2, 1.2559693e+2, -1834670.3, -1722870.1, -7491.1143, -0.066114195, 0.10248538, -1722370.5, -13208.618, 0.0000011498672, 9.998964, 10.000444 
2.449724e+2, 1.3559768e+2, -1704001.0, -1624942.4, 824.55023, -0.034703106, 0.14434135, -1624933.8, -13779.901, 0.00000012802465, 9.999256, 10.000303 
2.449782e+2, 1.4559716e+2, -1622121.0, -1608416.1, -3130.4492, -0.0032135947, 0.097031295, -1607734.9, -94575.25, 0.00000000023702618, 9.999463, 9.999642 
2.4498382e+2, 1.5559709e+2, -1504179.1, -1500898.8, -3308.7715, 0.013635177, 0.12512642, -1498846.0, -83684.234, 0.0, 9.9996, 9.999641 
2.4498928e+2, 1.6559675e+2, -1400901.4, -1437265.3, -1218.7783, 0.007443001, 0.14563726, -1400860.6, -83694.73, 0.0, 9.999796, 9.999311 
2.4499457e+2, 1.7559615e+2, -1268758.8, -1324392.0, -3890.6052, -0.017479217, 0.15008149, -1268488.0, -49315.758, 0.0, 10.000037, 9.999297 
2.4500017e+2, 1.8559518e+2, -1192055.0, -1320244.4, -3087.2014, -0.019299515, 0.16419429, -1191980.8, -70798.0, 0.0, 10.000251, 9.99855 
2.4500598e+2, 1.9559398e+2, -1066327.8, -1209526.8, -4881.256, -0.0026085712, 0.18653126, -1066161.5, -42965.285, 0.0, 10.000444, 9.998544 
2.4501179e+2, 2.0559238e+2, -988603.6, -1186706.1, -280.0063, 0.00682961, 0.20297739, -988603.2, -63389.14, 0.0, 10.0005865, 9.997959 
2.4501759e+2, 2.1559045e+2, -872338.44, -1074766.5, 2264.448, 0.010402442, 0.21159016, -872313.06, -45077.688, 0.0, 10.0006895, 9.998005 
2.4502333e+2, 2.2558865e+2, -739753.94, -933246.0, 899.9377, 0.008108831, 0.21929839, -739749.75, -10496.165, 0.0, 10.000812, 9.998245 
2.45029e+2, 2.3558699e+2, -620983.56, -823642.94, -2772.3718, 0.0012725305, 0.22513293, -620945.6, 10323.469, 0.0, 10.000947, 9.99826 
2.4503459e+2, 2.455852e+2, -522421.4, -752342.25, -8290.402, -0.0036723558, 0.23366901, -522122.88, 11164.286, 0.0, 10.001067, 9.998018 
2.450401e+2, 2.5558335e+2, -405567.72, -639757.4, -3230.782, -0.0071354746, 0.2421234, -405523.16, 29784.018, 0.0, 10.001173, 9.998068 
2.4504553e+2, 2.655816e+2, -269824.03, -490699.2, -2684.185, -0.014719604, 0.24602884, -269791.4, 67533.74, 0.0, 10.00129, 9.998362 
2.4505088e+2, 2.7557996e+2, -151927.55, -380649.8, -1321.3903, -0.025301257, 0.24278902, -151919.92, 87421.61, 0.0, 10.001417, 9.9983835 
2.4505615e+2, 2.855785e+2, -43765.363, -296987.4, -9698.912, -0.025372583, 0.26655334, -43394.418, 97961.57, 0.0, 10.00157, 9.998212 
2.4506134e+2, 2.9557717e+2, 78480.67, -188990.97, -6711.563, -0.017656112, 0.31313238, 78648.98, 122017.43, 0.0, 10.001743, 9.998197 
2.4506596e+2, 3.0557403e+2, 117611.3, -192819.27, -16283.408, -0.048091047, 0.20321935, 118463.09, 118463.09, 0.0000000018495133, 10.001883, 9.997768 
2.4507102e+2, 3.1557226e+2, 242976.27, 41023.72, -11746.294, -0.019454194, 0.242503, 243657.17, 243657.17, 0.00000045275593, 10.001997, 9.99932 
2.5496572e+2, 1.2559183e+2, -1847357.6, -1748902.1, 3787.6492, -0.052705716, 0.12428642, -1748756.6, -39544.816, 0.0000005982307, 9.998962, 10.000267 
2.549717e+2, 1.3559227e+2, -1715019.4, -1647721.6, 11501.242, -0.03007133, 0.15106022, -1645810.3, -34602.953, 0.00000003796869, 9.999256, 10.000147 
2.549776e+2, 1.4559166e+2, -1621808.8, -1607673.5, 2084.9102, -0.010488671, 0.10324262, -1607372.4, -94158.57, 0.0, 9.999463, 9.999648 
2.549833e+2, 1.555916e+2, -1504293.0, -1500888.1, 2143.2937, 0.0012811228, 0.13149685, -1499853.5, -84638.0, 0.0, 9.999599, 9.999642 
2.54989e+2, 1.6559121e+2, -1406665.3, -1448941.4, 7910.631, 0.0006220266, 0.14925978, -1405233.5, -88013.41, 0.0, 9.999795, 9.999232 
2.5499466e+2, 1.7559049e+2, -1274322.4, -1335814.5, 5117.2993, -0.011073283, 0.14995632, -1273899.5, -54671.78, 0.0, 10.000037, 9.999219 
2.5500044e+2, 1.8558945e+2, -1195946.1, -1328242.8, 4187.71, -0.015795615, 0.16280784, -1195813.8, -74574.67, 0.0, 10.000251, 9.998495 
2.550063e+2, 1.9558819e+2, -1069716.0, -1216496.9, 2216.24, -0.014480264, 0.18532403, -1069682.6, -46429.434, 0.0, 10.000444, 9.998496 
2.5501227e+2, 2.055866e+2, -983897.3, -1176886.8, 3628.6208, -0.004089716, 0.20212403, -983829.06, -58558.465, 0.0, 10.0005865, 9.998027 
2.5501832e+2, 2.1558474e+2, -868237.1, -1066250.4, 6276.486, 0.013232359, 0.21154766, -868038.4, -40747.6, 0.0, 10.0006895, 9.998064 
2.5502422e+2, 2.2558293e+2, -745818.0, -945850.1, 6043.5664, 0.015439116, 0.2181513, -745635.56, -16326.1045, 0.0, 10.000812, 9.998159 
2.5503e+2, 2.3558114e+2, -626117.8, -834266.2, 2327.7385, 0.0058428496, 0.22122973, -626091.75, 5235.1904, 0.0, 10.000947, 9.998187 
2.550357e+2, 2.4557944e+2, -512531.47, -731683.94, -4292.779, -0.0012030953, 0.23345335, -512447.44, 20897.035, 0.0, 10.001066, 9.99816 
2.550413e+2, 2.555778e+2, -395990.28, -619765.8, 809.9473, -0.0062696375, 0.25090358, -395987.38, 39374.504, 0.0, 10.001172, 9.998205 
2.5504678e+2, 2.6557615e+2, -265564.53, -481749.13, 2050.2432, -0.016691612, 0.2549997, -265545.06, 71833.67, 0.0, 10.00129, 9.998424 
2.5505224e+2, 2.7557454e+2, -147492.39, -371350.0, 3490.5574, -0.03114777, 0.24502675, -147437.97, 91957.23, 0.0, 10.001416, 9.998448 
2.5505772e+2, 2.8557312e+2, -36509.99, -281727.13, -3246.3176, -0.026419735, 0.26862195, -36467.02, 104941.82, 0.0, 10.001569, 9.998318 
2.5506318e+2, 2.9557198e+2, 85329.22, -174385.05, -448.65445, -0.0067986995, 0.3206139, 85329.99, 128749.72, 0.0, 10.001741, 9.998298 
2.5506794e+2, 3.055689e+2, 120274.875, -187019.64, -12080.564, -0.038101837, 0.2105375, 120749.06, 120749.06, 0.000000000039700524, 10.001882, 9.997809 
2.55073e+2, 3.1556726e+2, 242533.47, 40097.996, -8193.819, -0.021101004, 0.25903687, 242864.58, 242864.58, 0.00000014491832, 10.001997, 9.999313 
2.649649e+2, 1.2558629e+2, -1795785.6, -1733618.9, -6714.858, -0.04994098, 0.12303961, -1732901.9, -23636.201, 0.00000026973817, 9.999358, 10.00018 
2.6497114e+2, 1.3558654e+2, -1699088.9, -1648546.0, 7538.6875, -0.021753399, 0.1409066, -1647445.5, -36182.645, 0.0000000060296985, 9.999402, 10.000071 
2.6497716e+2, 1.4558592e+2, -1610483.4, -1609434.4, -633.2723, -0.008281917, 0.096891455, -1609136.6, -95866.85, 0.0, 9.999572, 9.999583 
2.64983e+2, 1.5558583e+2, -1473858.6, -1493335.0, -6045.8086, -0.0014063228, 0.12830374, -1472134.5, -56862.754, 0.0, 9.99984, 9.999578 
2.649889e+2, 1.6558538e+2, -1375621.8, -1440094.9, -1934.5, -0.0008493634, 0.14758603, -1375563.8, -58286.816, 0.0, 10.000034, 9.999178 
2.649948e+2, 1.7558461e+2, -1258307.0, -1334076.9, -2865.734, -0.007311687, 0.1491148, -1258198.8, -38913.652, 0.0, 10.000173, 9.999166 
2.6500076e+2, 1.8558353e+2, -1188539.5, -1328825.6, -2743.7449, -0.011932316, 0.16116552, -1188485.9, -67188.83, 0.0, 10.0003195, 9.998458 
2.6500678e+2, 1.955822e+2, -1067533.4, -1219080.8, -3509.0696, -0.01423528, 0.1813514, -1067452.3, -44140.39, 0.0, 10.000475, 9.998464 
2.6501286e+2, 2.0558064e+2, -973625.8, -1166128.1, -3707.0383, -0.0051360545, 0.1992241, -973554.44, -48225.492, 0.0, 10.000632, 9.998079 
2.6501903e+2, 2.1557887e+2, -850199.94, -1052203.4, -2407.186, 0.012591007, 0.21252382, -850171.25, -22823.305, 0.0, 10.000791, 9.998112 
2.6502502e+2, 2.2557709e+2, -741715.5, -945458.4, -2810.7112, 0.01524273, 0.22096461, -741676.75, -12310.174, 0.0, 10.000847, 9.998145 
2.650309e+2, 2.3557529e+2, -645077.7, -844213.3, -954.2745, 0.0061347443, 0.2241519, -645073.1, -13688.429, 0.0, 10.00082, 9.998179 
2.6503664e+2, 2.4557362e+2, -529148.2, -728186.9, -3833.1152, -0.0018782852, 0.23483135, -529074.4, 4327.4824, 0.0, 10.000903, 9.998263 
2.650424e+2, 2.5557205e+2, -403887.53, -612809.75, -1743.6212, -0.00905759, 0.24950036, -403872.97, 31545.102, 0.0, 10.001072, 9.9983015 
2.6504803e+2, 2.6557043e+2, -279969.9, -490818.75, -6064.9355, -0.017642513, 0.25340098, -279795.6, 57639.066, 0.0, 10.001201, 9.9984045 
2.6505363e+2, 2.7556878e+2, -165889.81, -381508.9, -10619.818, -0.027099654, 0.2453598, -165368.02, 74083.484, 0.0, 10.001296, 9.998436 
2.6505923e+2, 2.8556746e+2, -55806.23, -279030.94, -19269.965, -0.021543792, 0.27003804, -54154.957, 87309.625, 0.0, 10.001385, 9.998425 
2.650648e+2, 2.9556644e+2, 53001.305, -178360.56, -16174.481, -0.0044805966, 0.322671, 54126.59, 97600.734, 0.0, 10.00147, 9.998402 
2.6506972e+2, 3.0556342e+2, 91516.35, -197041.69, -25260.76, -0.036741942, 0.21100178, 93711.016, 93711.016, 0.0, 10.001668, 9.997843 
2.6507497e+2, 3.155619e+2, 235894.42, 35330.773, -22724.238, -0.019977037, 0.26913467, 238436.89, 238436.89, 0.000000037775372, 10.001959, 9.999299 
2.7496418e+2, 1.2558027e+2, -1795500.6, -1732758.4, -4987.641, -0.058513135, 0.09821256, -1732364.4, -23040.752, 0.00000012804327, 9.999357, 10.000187 
2.7497065e+2, 1.3558054e+2, -1698918.9, -1647817.1, 9715.56, -0.009932634, 0.11386689, -1646032.3, -34711.64, 0.0000000018569922, 9.999401, 10.000076 
2.7497685e+2, 1.455799e+2, -1620390.8, -1629607.9, 9598.747, 0.003314338, 0.07804498, -1614351.5, -101024.07, 0.0, 9.999571, 9.999446 
2.749829e+2, 1.5557976e+2, -1483081.8, -1512302.3, 3782.9424, 0.0053073596, 0.115534425, -1482599.9, -67269.13, 0.0, 9.999839, 9.999449 
2.7498895e+2, 1.6557929e+2, -1377673.8, -1444231.1, 3261.7083, 0.0027684192, 0.14062873, -1377514.4, -60177.926, 0.0, 10.000034, 9.999149 
2.74995e+2, 1.7557853e+2, -1260341.1, -1338118.8, 2408.7178, -0.006320258, 0.14771467, -1260266.6, -40922.234, 0.0, 10.000172, 9.999139 
2.7500114e+2, 1.8557742e+2, -1190074.1, -1331881.6, 3114.6672, -0.007815242, 0.15938945, -1190005.8, -68648.97, 0.0, 10.0003195, 9.998438 
2.7500737e+2, 1.9557604e+2, -1068764.6, -1221615.6, 2377.9395, -0.0020644127, 0.17466393, -1068727.6, -45355.473, 0.0, 10.000475, 9.998446 
2.7501357e+2, 2.055745e+2, -971078.7, -1160843.1, 2300.6128, 0.0035266697, 0.19428326, -971050.8, -45661.78, 0.0, 10.000632, 9.998116 
2.750198e+2, 2.1557285e+2, -847545.44, -1046745.44, 3246.0889, 0.008460843, 0.21453042, -847492.5, -20085.527, 0.0, 10.000791, 9.998149 
2.750258e+2, 2.2557116e+2, -737685.8, -937168.94, -3815.2102, 0.007505945, 0.22771622, -737612.9, -8188.0405, 0.0, 10.000847, 9.998201 
2.750317e+2, 2.3556945e+2, -641034.56, -835905.9, -1516.3026, 0.0021027327, 0.23382819, -641022.8, -9580.417, 0.0, 10.00082, 9.998237 
2.7503753e+2, 2.4556775e+2, -524676.7, -718935.06, 2523.3008, -0.005737884, 0.23781817, -524643.94, 8815.452, 0.0, 10.000903, 9.998327 
2.750434e+2, 2.5556612e+2, -400106.34, -604880.8, 4459.784, -0.015501876, 0.23809366, -400009.28, 35466.56, 0.0, 10.001072, 9.998356 
2.7504924e+2, 2.6556447e+2, -286925.2, -505131.34, -2531.6416, -0.01767999, 0.24139686, -286895.8, 50597.06, 0.0, 10.0012, 9.998306 
2.7505505e+2, 2.7556282e+2, -172099.31, -394235.13, -7044.5063, -0.013536129, 0.2438035, -171876.14, 67634.28, 0.0, 10.001295, 9.998349 
2.7506074e+2, 2.8556156e+2, -48211.17, -263140.3, -16100.907, -0.011047039, 0.27080497, -47011.707, 94511.51, 0.0, 10.001384, 9.998534 
2.7506623e+2, 2.9556057e+2, 60368.086, -163037.14, -12658.776, -0.010544269, 0.31940803, 61083.082, 104614.76, 0.0, 10.00147, 9.998507 
2.7507132e+2, 3.0555758e+2, 93384.32, -193141.97, -14348.669, -0.04381887, 0.20471963, 94101.08, 94101.08, 0.0, 10.001668, 9.9978695 
2.75077e+2, 3.1555617e+2, 234044.27, 31611.795, -12718.334, -0.01688808, 0.27264583, 234840.19, 234840.19, 0.00000000643165, 10.001958, 9.999273 
2.8496373e+2, 1.2557426e+2, -1781140.0, -1735843.4, -7420.226, -0.048125405, 0.0852671, -1734658.9, -25277.215, 0.000000073181255, 9.999498, 10.000098 
2.8497028e+2, 1.3557446e+2, -1648542.9, -1632742.6, -316.42383, -0.0034828302, 0.10381002, -1632736.3, -21356.87, 0.00000000048290855, 9.999786, 9.999994 
2.849766e+2, 1.4557382e+2, -1569742.0, -1612350.6, -578.2052, 0.0032194408, 0.07206929, -1569734.1, -56347.523, 0.0, 9.9999485, 9.999382 
2.8498286e+2, 1.5557353e+2, -1462731.8, -1509436.1, -879.99915, 0.008745169, 0.10405675, -1462715.1, -47324.18, 0.0, 10.000009, 9.999387 
2.849891e+2, 1.6557305e+2, -1365868.9, -1445869.5, -210.5581, 0.005576135, 0.13273878, -1365868.3, -48471.15, 0.0, 10.000147, 9.9990835 
2.8499523e+2, 1.7557234e+2, -1238793.6, -1334775.9, -4003.004, -0.008274222, 0.15123421, -1238627.0, -19221.871, 0.0, 10.00035, 9.999076 
2.8500152e+2, 1.855712e+2, -1165205.6, -1322544.9, -5982.4077, -0.008624119, 0.16466749, -1164978.5, -43560.668, 0.0, 10.000502, 9.998414 
2.8500795e+2, 1.9556974e+2, -1050126.8, -1214680.8, -6958.351, 0.0032931347, 0.17397664, -1049833.0, -26399.023, 0.0, 10.000611, 9.998428 
2.8501427e+2, 2.0556818e+2, -954833.5, -1146186.3, -6254.6714, 0.007255433, 0.189509, -954629.25, -29178.36, 0.0, 10.000714, 9.998177 
2.8502053e+2, 2.1556656e+2, -840394.6, -1036448.75, -3692.5444, 0.004218326, 0.20719516, -840325.1, -12856.71, 0.0, 10.000811, 9.998211 
2.850266e+2, 2.2556499e+2, -727127.06, -923971.56, -13338.634, 0.0027436712, 0.2259946, -726227.3, 3257.7783, 0.0, 10.000884, 9.998274 
2.8503257e+2, 2.3556347e+2, -618862.56, -817642.4, -9700.65, 0.0027726009, 0.24428387, -618390.25, 13110.8125, 0.0, 10.00094, 9.998304 
2.8503847e+2, 2.4556182e+2, -513506.6, -712853.3, -4699.152, -0.003790142, 0.2481505, -513395.88, 20121.945, 0.0, 10.000977, 9.998333 
2.850444e+2, 2.555601e+2, -410463.25, -609147.0, -7064.7417, -0.015630413, 0.23839469, -410212.34, 25322.695, 0.0, 10.000998, 9.998363 
2.850504e+2, 2.6555845e+2, -304110.06, -511566.6, -10754.089, -0.016761418, 0.23924115, -303554.1, 33998.11, 0.0, 10.001074, 9.998323 
2.8505632e+2, 2.7555686e+2, -185475.31, -399028.1, -6831.3247, -0.009058405, 0.24536376, -185257.02, 54312.297, 0.0, 10.001196, 9.998364 
2.850621e+2, 2.8555557e+2, -58497.44, -269514.0, -17219.139, -0.0085273, 0.27355364, -57101.58, 84480.45, 0.0, 10.00132, 9.998521 
2.8506762e+2, 2.955546e+2, 55928.47, -166143.67, -22646.852, -0.0143862665, 0.32136977, 58214.457, 101805.2, 0.0, 10.001443, 9.998498 
2.8507292e+2, 3.0555162e+2, 88150.64, -186203.05, -21568.994, -0.04618981, 0.20311342, 89835.99, 89835.99, 0.0, 10.001591, 9.997955 
2.8507888e+2, 3.1555033e+2, 206918.11, 21605.227, -16647.97, -0.013393356, 0.27599213, 208401.83, 208401.83, 0.00000000043435586, 10.001758, 9.999302 
2.949635e+2, 1.2556826e+2, -1794662.9, -1763290.0, 3641.7244, -0.019158004, 0.084530465, -1762872.9, -53433.086, 0.000000040732502, 9.999496, 9.999911 
2.949701e+2, 1.3556837e+2, -1660834.3, -1658018.3, 10100.82, -0.002959256, 0.11115056, -1649227.8, -37788.324, 0.0000000000036468957, 9.999784, 9.999822 
2.949764e+2, 1.4556763e+2, -1568953.6, -1610589.4, 1685.374, -0.009234521, 0.07929395, -1568885.5, -55438.215, 0.0, 9.9999485, 9.999394 
2.9498285e+2, 1.555672e+2, -1462378.1, -1508478.8, 1671.3259, 0.008610941, 0.0941261, -1462317.6, -46865.035, 0.0, 10.000008, 9.999394 
2.9498923e+2, 1.6556667e+2, -1373243.0, -1460953.9, 7479.063, 0.007448744, 0.12410215, -1372609.8, -55150.668, 0.0, 10.000146, 9.998981 
2.9499552e+2, 1.7556602e+2, -1245798.3, -1349163.9, 3523.7239, -0.013389292, 0.159681, -1245678.3, -26211.096, 0.0, 10.000349, 9.998978 
2.9500195e+2, 1.8556486e+2, -1167106.5, -1326421.8, -1851.4833, -0.01458077, 0.17703801, -1167085.0, -45604.69, 0.0, 10.000501, 9.998387 
2.9500854e+2, 1.955633e+2, -1051519.4, -1217601.8, -2800.769, 0.0017406344, 0.17936793, -1051472.3, -27974.953, 0.0, 10.000611, 9.998408 
2.9501498e+2, 2.055617e+2, -948800.4, -1133655.6, -2593.1921, 0.0059714653, 0.1849516, -948764.0, -23249.44, 0.0, 10.000714, 9.998262 
2.950213e+2, 2.1556003e+2, -834435.75, -1024002.7, -73.22427, -0.0002455357, 0.19059886, -834435.7, -6903.5903, 0.0, 10.00081, 9.998296 
2.950275e+2, 2.2555861e+2, -721130.0, -911437.3, -11259.3545, 0.00083848275, 0.21590152, -720466.2, 9081.255, 0.0, 10.000884, 9.998361 
2.9503354e+2, 2.3555739e+2, -613311.06, -806139.56, -7669.7075, 0.0079803, 0.25554356, -613006.44, 18554.398, 0.0, 10.00094, 9.9983835 
2.9503953e+2, 2.4555582e+2, -517104.4, -720397.06, -3988.2666, 0.0037303094, 0.26569745, -517026.2, 16550.98, 0.0, 10.0009775, 9.9982815 
2.9504547e+2, 2.5555396e+2, -413412.44, -615330.44, -6080.407, -0.009681776, 0.2501366, -413229.5, 22366.268, 0.0, 10.000998, 9.998321 
2.950515e+2, 2.6555234e+2, -295093.1, -492876.75, -6205.0327, -0.014994767, 0.24672545, -294898.63, 42714.05, 0.0, 10.001074, 9.998451 
2.950575e+2, 2.7555084e+2, -177502.34, -382419.5, -2268.8152, -0.013511988, 0.24998587, -177477.22, 62150.99, 0.0, 10.001196, 9.998478 
2.9506335e+2, 2.8554952e+2, -67771.96, -288741.5, -12607.582, -0.0138758, 0.27821988, -67054.95, 74586.14, 0.0, 10.001319, 9.998389 
2.9506907e+2, 2.9554847e+2, 47684.44, -183301.55, -17929.527, -0.016178481, 0.32844922, 49067.875, 92719.23, 0.0, 10.001444, 9.998381 
2.9507455e+2, 3.0554545e+2, 97959.57, -165803.83, -15220.383, -0.044167213, 0.20610547, 98834.95, 98834.95, 0.0, 10.001591, 9.9980955 
2.9508066e+2, 3.155443e+2, 212499.17, 33371.45, -11079.044, -0.010147225, 0.27841133, 213181.81, 213181.81, 0.0, 10.001758, 9.999383 
3.0496335e+2, 1.255621e+2, -1745033.6, -1755065.9, -6397.003, -0.005604425, 0.09030323, -1741920.6, -32420.777, 0.000000022140249, 9.999905, 9.99977 
3.0497003e+2, 1.3556197e+2, -1639151.6, -1662416.0, 3316.7683, 0.0027635412, 0.10836706, -1638688.0, -27185.842, 0.0, 9.999998, 9.999689 
3.049764e+2, 1.4556122e+2, -1542448.5, -1597448.5, -7045.6465, -0.013206596, 0.07946893, -1541560.4, -28049.91, 0.0, 10.000129, 9.999398 
3.0498296e+2, 1.5556079e+2, -1422088.1, -1489140.3, -7860.116, 0.0073589697, 0.09621844, -1421179.1, -5664.057, 0.0, 10.000284, 9.999393 
3.0498955e+2, 1.6556023e+2, -1344705.1, -1456185.1, -693.91095, 0.009670373, 0.12605193, -1344700.9, -27178.744, 0.0, 10.0003805, 9.998901 
3.0499598e+2, 1.7555949e+2, -1239396.6, -1354491.3, -2936.1736, -0.008091269, 0.16052528, -1239321.8, -19790.408, 0.0, 10.000429, 9.998902 
3.050025e+2, 1.855583e+2, -1166537.4, -1325785.1, -7090.129, -0.010916357, 0.17934823, -1166222.4, -44677.54, 0.0, 10.000504, 9.998391 
3.0500913e+2, 1.9555677e+2, -1053189.4, -1217871.1, -5884.8877, 0.0003201302, 0.1849508, -1052979.4, -29417.945, 0.0, 10.000598, 9.998413 
3.0501565e+2, 2.0555516e+2, -956061.5, -1134964.8, -8913.655, 0.004453282, 0.18926412, -955618.5, -30039.78, 0.0, 10.000654, 9.998282 
3.0502206e+2, 2.1555348e+2, -851553.3, -1029857.5, -11262.431, 0.0020194906, 0.1902425, -850844.75, -23248.16, 0.0, 10.000682, 9.998318 
3.0502835e+2, 2.2555211e+2, -734350.75, -911577.8, -24795.035, 0.004942523, 0.21577737, -730947.2, -1335.5864, 0.0, 10.000767, 9.998416 
3.050345e+2, 2.3555098e+2, -615922.4, -801076.1, -23641.686, 0.012371914, 0.25947753, -612951.3, 18672.865, 0.0, 10.0008955, 9.99844 
3.0504057e+2, 2.455495e+2, -510260.47, -708731.8, -17523.04, 0.006523351, 0.27256572, -508725.22, 24914.363, 0.0, 10.000988, 9.998357 
3.0504647e+2, 2.5554776e+2, -400390.47, -601032.8, -10137.436, -0.010075451, 0.2591275, -399879.6, 35777.563, 0.0, 10.001053, 9.998392 
3.0505252e+2, 2.6554614e+2, -286885.84, -485553.3, -8287.709, -0.01767751, 0.2547146, -286540.7, 51132.8, 0.0, 10.001116, 9.998482 
3.0505863e+2, 2.7554464e+2, -178064.44, -379629.88, -11607.48, -0.017746177, 0.2544126, -177398.2, 62290.707, 0.0, 10.001179, 9.998506 
3.0506462e+2, 2.8554332e+2, -74665.445, -292940.6, -19005.93, -0.017475804, 0.27963567, -73022.9, 68678.95, 0.0, 10.001276, 9.998382 
3.0507046e+2, 2.9554224e+2, 41252.137, -187026.83, -15200.191, -0.017343858, 0.32749653, 42259.81, 85972.13, 0.0, 10.001402, 9.998375 
3.050761e+2, 3.0553922e+2, 87360.484, -166637.94, -12646.071, -0.04368998, 0.20472257, 87988.555, 87988.555, 0.0, 10.001499, 9.998134 
3.050823e+2, 3.155382e+2, 183949.17, 17131.496, -16799.496, -0.011674553, 0.28597188, 185624.17, 185624.17, 0.0, 10.001572, 9.999361 
3.1496322e+2, 1.2555577e+2, -1751844.8, -1768669.0, -3166.5173, -0.008379844, 0.10293879, -1751268.5, -41706.645, 0.00000002336468, 9.999903, 9.999679 
3.1497014e+2, 1.3555528e+2, -1645766.3, -1675801.8, 7007.8003, 0.013295306, 0.09536567, -1644211.8, -32643.857, 0.0, 9.999996, 9.999598 
3.1497657e+2, 1.4555456e+2, -1543045.5, -1598469.1, -1139.1534, -0.008824059, 0.07254176, -1543022.0, -29446.053, 0.0, 10.000128, 9.999392 
3.1498325e+2, 1.5555434e+2, -1422797.1, -1490391.5, -2246.1365, 0.0046477686, 0.11048657, -1422722.5, -7143.9697, 0.0, 10.000283, 9.999386 
3.1498992e+2, 1.655537e+2, -1348804.4, -1464545.4, 1106.8322, 0.011832404, 0.138758, -1348793.8, -31207.7, 0.0, 10.00038, 9.998844 
3.1499654e+2, 1.7555274e+2, -1243031.1, -1362019.4, -980.84686, 0.007392397, 0.15386294, -1243023.0, -23425.246, 0.0, 10.000429, 9.998851 
3.1500316e+2, 1.8555152e+2, -1164151.5, -1320875.0, -3546.497, 0.0022388163, 0.17163476, -1164071.4, -42459.938, 0.0, 10.000504, 9.998425 
3.150097e+2, 1.9555017e+2, -1051183.5, -1213701.1, -2432.568, -0.0010148162, 0.19066273, -1051147.1, -27520.65, 0.0, 10.000597, 9.998443 
3.150163e+2, 2.0554861e+2, -959247.4, -1141576.4, -7848.107, 0.0026150278, 0.20237249, -958910.2, -33266.79, 0.0, 10.000654, 9.998237 
3.1502286e+2, 2.1554692e+2, -854474.94, -1036003.3, -9925.848, 0.010799731, 0.20599112, -853933.8, -26272.05, 0.0, 10.000683, 9.998276 
3.150292e+2, 2.2554547e+2, -732604.1, -908055.0, -19825.566, 0.014828923, 0.22552662, -730391.75, -714.2272, 0.0, 10.000767, 9.998441 
3.1503543e+2, 2.3554425e+2, -613520.4, -796130.3, -18854.117, 0.01590464, 0.25619808, -611594.0, 20097.049, 0.0, 10.0008955, 9.998474 
3.150415e+2, 2.455429e+2, -496323.44, -679821.2, -15077.465, 0.0046095075, 0.26890606, -495092.84, 38612.21, 0.0, 10.000988, 9.998555 
3.1504747e+2, 2.555414e+2, -387441.94, -574148.9, -7747.914, -0.016797625, 0.26545817, -387120.97, 48598.254, 0.0, 10.001053, 9.998577 
3.1505358e+2, 2.6553988e+2, -291579.06, -495321.94, -5977.191, -0.024885463, 0.26324803, -291403.88, 46330.887, 0.0, 10.001116, 9.998414 
3.1505978e+2, 2.755383e+2, -182048.7, -387967.16, -9145.087, -0.021941843, 0.25867832, -181643.36, 58108.027, 0.0, 10.001179, 9.998448 
3.1506586e+2, 2.8553694e+2, -66801.695, -276592.56, -14316.035, -0.019562202, 0.27794322, -65829.29, 75935.016, 0.0, 10.001276, 9.998494 
3.1507188e+2, 2.955359e+2, 48377.914, -171999.36, -10647.838, -0.018059222, 0.31872788, 48891.188, 92664.89, 0.0, 10.001401, 9.998479 
3.1507757e+2, 3.0553293e+2, 82981.375, -175592.13, -9959.274, -0.04485074, 0.1990359, 83364.4, 83364.4, 0.0, 10.001498, 9.998073 
3.150838e+2, 3.15532e+2, 175499.13, -576.1317, -14625.738, -0.018528065, 0.297575, 176705.75, 176705.75, 0.0, 10.001573, 9.999239 
3.2496342e+2, 1.2554912e+2, -1705763.8, -1749212.9, -12867.924, 0.0039682174, 0.100425124, -1702238.8, 7388.5425, 0.00000007294155, 10.000231, 9.999653 
3.249703e+2, 1.3554864e+2, -1605480.4, -1659951.4, 2616.2158, 0.018276775, 0.09393582, -1605355.0, 6278.34, 0.00000000003860718, 10.000288, 9.999566 
3.2497677e+2, 1.4554791e+2, -1510948.9, -1588022.1, -3372.7595, -0.013967738, 0.078514576, -1510801.6, 2839.562, 0.0, 10.000369, 9.999347 
3.2498357e+2, 1.5554768e+2, -1400096.4, -1484229.4, -7658.0615, 0.002387279, 0.11877534, -1399404.9, 16239.118, 0.0, 10.00046, 9.999343 
3.249904e+2, 1.65547e+2, -1330910.9, -1456970.5, -6836.264, 0.013186249, 0.14296547, -1330541.3, -12889.063, 0.0, 10.000506, 9.998835 
3.2499707e+2, 1.7554593e+2, -1230049.4, -1356666.0, -5266.696, 0.011987098, 0.14934, -1229830.8, -10166.098, 0.0, 10.000523, 9.998842 
3.250037e+2, 1.8554474e+2, -1150860.8, -1312067.4, -4473.5327, 0.0071841655, 0.16770016, -1150736.6, -29058.494, 0.0, 10.000584, 9.998446 
3.250104e+2, 1.9554347e+2, -1037135.75, -1204435.8, -4377.54, 0.0022693037, 0.19459887, -1037021.3, -13328.844, 0.0, 10.000683, 9.998465 
3.2501704e+2, 2.0554201e+2, -940375.75, -1128031.0, -8394.652, 0.004688771, 0.2110733, -940000.94, -14292.194, 0.0, 10.000765, 9.998277 
3.2502362e+2, 2.1554036e+2, -829741.1, -1019561.5, -4053.0125, 0.011906739, 0.217008, -829654.6, -1928.0234, 0.0, 10.000833, 9.998316 
3.2503003e+2, 2.2553892e+2, -711165.94, -890814.25, -8208.126, 0.014173916, 0.23208599, -710791.7, 18950.432, 0.0, 10.000884, 9.998502 
3.2503632e+2, 2.3553766e+2, -605279.56, -785439.6, -4554.856, 0.01290463, 0.25287372, -605164.5, 26591.135, 0.0, 10.000923, 9.998534 
3.2504246e+2, 2.4553633e+2, -497258.75, -677738.0, -7581.541, 0.00068737427, 0.26510096, -496940.84, 36828.395, 0.0, 10.000971, 9.998578 
3.2504848e+2, 2.5553498e+2, -389670.66, -572769.8, -13364.348, -0.020567894, 0.26881889, -388700.34, 47082.418, 0.0, 10.001026, 9.998599 
3.2505465e+2, 2.6553345e+2, -295320.3, -496910.0, -14376.079, -0.027245356, 0.26658353, -294300.28, 43497.855, 0.0, 10.001089, 9.998417 
3.2506093e+2, 2.755318e+2, -184668.1, -388869.06, -12478.266, -0.021864522, 0.2561291, -183908.39, 55906.63, 0.0, 10.00116, 9.998451 
3.250671e+2, 2.8553042e+2, -77469.336, -280168.16, -19284.352, -0.019907972, 0.27146447, -75650.98, 66177.03, 0.0, 10.001196, 9.9985075 
3.2507312e+2, 2.9552934e+2, 20723.604, -183772.25, -22793.986, -0.021280717, 0.31006312, 23233.514, 67070.82, 0.0, 10.0012045, 9.998492 
3.2507893e+2, 3.055264e+2, 58599.438, -186308.06, -19751.727, -0.047577266, 0.1902785, 60182.18, 60182.18, 0.0, 10.001327, 9.998081 
3.2508534e+2, 3.1552556e+2, 167235.64, -10535.748, -19941.648, -0.021632312, 0.2947301, 169445.14, 169445.14, 0.0, 10.001542, 9.999185 
3.349639e+2, 1.2554216e+2, -1703249.8, -1743478.3, -11268.733, 0.03104248, 0.08219736, -1700308.3, 9387.892, 0.00000025481785, 10.000229, 9.999694 
3.349706e+2, 1.3554198e+2, -1603827.5, -1656113.4, 4916.9063, 0.017271012, 0.10426361, -1603369.1, 8329.527, 0.0000000058941185, 10.000286, 9.999593 
3.34977e+2, 1.4554134e+2, -1517018.0, -1600282.5, 50.532677, -0.02913449, 0.09768741, -1517018.0, -3312.066, 0.0, 10.000368, 9.999263 
3.34984e+2, 1.5554085e+2, -1405569.9, -1495508.5, -4463.841, 0.00021163773, 0.12097675, -1405348.9, 10362.636, 0.0, 10.000459, 9.999266 
3.349909e+2, 1.6554007e+2, -1328231.3, -1451403.5, -6363.9917, 0.013517239, 0.1384995, -1327903.3, -10182.955, 0.0, 10.000506, 9.998873 
3.3499753e+2, 1.7553906e+2, -1227619.0, -1351544.6, -4506.1113, 0.005594488, 0.14694062, -1227455.4, -7723.3193, 0.0, 10.000522, 9.9988785 
3.3500427e+2, 1.8553792e+2, -1150236.0, -1310680.0, -759.5091, 0.0037858365, 0.16752826, -1150232.4, -28487.215, 0.0, 10.000584, 9.998456 
3.3501112e+2, 1.9553669e+2, -1036086.75, -1202219.6, -667.2093, 0.009981809, 0.19676265, -1036084.06, -12324.705, 0.0, 10.000683, 9.99848 
3.3501783e+2, 2.0553531e+2, -931726.9, -1109968.9, -5805.852, 0.0105314385, 0.21539728, -931537.94, -5763.158, 0.0, 10.000764, 9.998402 
3.350244e+2, 2.1553381e+2, -821235.06, -1001778.25, -1470.7742, 0.005349726, 0.2233488, -821223.06, 6568.035, 0.0, 10.000833, 9.998438 
3.350308e+2, 2.2553246e+2, -704279.75, -876445.5, -6729.3374, 0.002978884, 0.23547082, -704017.1, 25788.316, 0.0, 10.000884, 9.998601 
3.3503714e+2, 2.3553123e+2, -599266.7, -772953.0, -3037.7932, 0.0033364326, 0.24949527, -599213.56, 32604.402, 0.0, 10.000923, 9.99862 
3.3504337e+2, 2.4552985e+2, -507843.06, -699786.44, -5496.938, -0.005372067, 0.26119417, -507685.78, 26146.451, 0.0, 10.000971, 9.998426 
3.350495e+2, 2.555284e+2, -399322.9, -592911.75, -11210.384, -0.021513887, 0.26926684, -398675.88, 37171.84, 0.0, 10.001027, 9.99846 
3.3505577e+2, 2.655268e+2, -290395.75, -486749.56, -11735.353, -0.02490637, 0.2648083, -289696.84, 48166.754, 0.0, 10.00109, 9.9984865 
3.3506215e+2, 2.7552515e+2, -180304.67, -379766.94, -9904.105, -0.01772703, 0.24685483, -179814.11, 60065.754, 0.0, 10.001159, 9.998514 
3.350683e+2, 2.8552374e+2, -83151.68, -292039.63, -18870.227, -0.018723655, 0.2602452, -81460.695, 60432.285, 0.0, 10.001196, 9.998426 
3.3507428e+2, 2.955226e+2, 15809.438, -194396.61, -21934.592, -0.026994323, 0.30151433, 18073.877, 61976.977, 0.0, 10.001206, 9.998419 
3.3508024e+2, 3.055196e+2, 64020.125, -175289.77, -11530.58, -0.05195674, 0.17856717, 64574.418, 64574.418, 0.0, 10.0013275, 9.998157 
3.3508688e+2, 3.155188e+2, 167619.19, -9435.668, -12434.472, -0.02203322, 0.27692106, 168488.19, 168488.19, 0.0, 10.00154, 9.999193 
3.4496433e+2, 1.2553541e+2, -1676154.4, -1732116.1, -12759.943, 0.04037817, 0.09199112, -1673382.3, 36380.89, 0.00000066099744, 10.000422, 9.999679 
3.4497103e+2, 1.3553521e+2, -1569877.4, -1642434.8, -551.396, 0.021035366, 0.11502162, -1569873.3, 41892.406, 0.000000050287014, 10.000531, 9.999569 
3.4497735e+2, 1.4553455e+2, -1494868.8, -1590357.3, -7567.2485, -0.034814585, 0.10774646, -1494272.8, 19500.096, 0.0000000000012273421, 10.000523, 9.999256 
3.4498444e+2, 1.5553395e+2, -1412730.0, -1499643.4, -6240.7266, -0.0016315855, 0.11982034, -1412284.1, 3495.2825, 0.0, 10.000413, 9.999259 
3.4499136e+2, 1.6553316e+2, -1334883.4, -1454618.8, -3356.3533, 0.012365689, 0.13611762, -1334789.4, -17000.992, 0.0, 10.000461, 9.998873 
3.449981e+2, 1.755322e+2, -1210383.0, -1343092.5, -4544.9824, 0.001741953, 0.15198529, -1210227.5, 9571.844, 0.0, 10.00064, 9.998879 
3.450049e+2, 1.855311e+2, -1135318.3, -1300583.6, -4606.3745, 0.0022635553, 0.1739726, -1135190.0, -13377.69, 0.0, 10.000673, 9.998482 
3.4501183e+2, 1.9552986e+2, -1047428.3, -1204278.1, -3171.796, 0.015166203, 0.19964562, -1047364.2, -23537.412, 0.0, 10.00059, 9.99851 
3.4501857e+2, 2.0552856e+2, -950740.3, -1106588.5, -6522.2036, 0.015038895, 0.21842687, -950467.8, -24626.428, 0.0, 10.00058, 9.998513 
3.450251e+2, 2.155272e+2, -843316.3, -1000159.8, -2978.71, 0.003117819, 0.22946246, -843259.75, -15403.634, 0.0, 10.0006275, 9.998548 
3.4503153e+2, 2.2552592e+2, -722499.2, -877817.3, -8873.691, -0.0032709425, 0.23852624, -721993.9, 7875.678, 0.0, 10.000727, 9.998668 
3.4503794e+2, 2.3552465e+2, -603106.7, -768105.56, -7645.984, -0.004754408, 0.24462947, -602753.1, 29128.764, 0.0, 10.000868, 9.99868 
3.4504429e+2, 2.455233e+2, -509200.97, -704714.2, -7189.1978, -0.010801576, 0.25676036, -508936.97, 24959.217, 0.0, 10.00098, 9.998388 
3.4505054e+2, 2.5552186e+2, -395257.7, -594501.1, -4639.7046, -0.020591276, 0.2720181, -395149.7, 40762.285, 0.0, 10.00107, 9.998428 
3.450569e+2, 2.6552033e+2, -282189.88, -473726.53, -2420.1667, -0.022945043, 0.26744655, -282159.3, 55768.242, 0.0, 10.001107, 9.998568 
3.4506327e+2, 2.755187e+2, -183540.2, -373223.97, 300.1285, -0.019064605, 0.24345052, -183539.73, 56403.277, 0.0, 10.001102, 9.998587 
3.450695e+2, 2.8551728e+2, -89802.695, -304480.38, -6386.6245, -0.01960413, 0.25630647, -89612.86, 52343.31, 0.0, 10.00119, 9.998343 
3.4507558e+2, 2.9551607e+2, 31936.268, -195268.69, -9673.002, -0.024327341, 0.30156407, 32347.342, 76314.35, 0.0, 10.001354, 9.998342 
3.450816e+2, 3.0551308e+2, 70934.93, -167017.78, -2393.2983, -0.04909245, 0.17934062, 70958.99, 70958.99, 0.0, 10.001354, 9.9982 
3.4508818e+2, 3.1551233e+2, 118949.26, -35565.934, -6076.136, -0.026030751, 0.27690813, 119187.83, 119187.83, 0.0, 10.001218, 9.999169 
3.5496464e+2, 1.255289e+2, -1681614.3, -1742765.4, -9463.07, 0.031122765, 0.13048558, -1680183.4, 29645.098, 0.0000013452728, 10.000419, 9.999607 
3.5497165e+2, 1.3552836e+2, -1575372.6, -1653637.1, 3145.7385, 0.029194385, 0.12609753, -1575246.4, 36587.723, 0.00000017487064, 10.000529, 9.999493 
3.549779e+2, 1.4552757e+2, -1490079.1, -1580239.0, -11770.26, -0.03127927, 0.10837448, -1488567.9, 25274.086, 0.0000000006565857, 10.000522, 9.999327 
3.5498482e+2, 1.55527e+2, -1408369.5, -1490278.8, -9899.776, -0.003327392, 0.11526522, -1407189.9, 8658.001, 0.0, 10.000411, 9.999325 
3.549918e+2, 1.6552626e+2, -1337813.9, -1460440.1, 3300.5386, 0.009568681, 0.13586879, -1337725.1, -19868.848, 0.0, 10.00046, 9.998834 
3.5499868e+2, 1.7552541e+2, -1212873.4, -1348224.5, 1688.6564, 0.0002402896, 0.16440596, -1212852.4, 7014.3315, 0.0, 10.000639, 9.998844 
3.5500556e+2, 1.8552431e+2, -1132339.4, -1294409.1, -7792.9883, 0.0024518198, 0.18696745, -1131965.5, -10085.878, 0.0, 10.000673, 9.998525 
3.5501245e+2, 1.9552301e+2, -1044251.7, -1197684.8, -5991.65, 0.017732903, 0.20322432, -1044018.06, -20123.4, 0.0, 10.00059, 9.998556 
3.5501915e+2, 2.0552176e+2, -943743.56, -1092064.1, -4681.1763, 0.018124232, 0.22015454, -943596.0, -17687.35, 0.0, 10.00058, 9.998613 
3.5502574e+2, 2.1552056e+2, -836512.44, -986015.44, -896.0127, 0.0050364407, 0.2353079, -836507.06, -8585.456, 0.0, 10.0006275, 9.998645 
3.5503227e+2, 2.2551928e+2, -720259.8, -873095.3, -3496.2305, -0.004766741, 0.24121036, -720179.9, 9754.705, 0.0, 10.000727, 9.9987 
3.5503873e+2, 2.3551798e+2, -600764.3, -763103.25, -2369.1858, -0.011454359, 0.23829705, -600729.75, 31217.656, 0.0, 10.000867, 9.998714 
3.550452e+2, 2.4551669e+2, -504249.22, -694274.94, -3779.4773, -0.015701076, 0.25179884, -504174.1, 29787.113, 0.0, 10.000979, 9.99846 
3.5505164e+2, 2.5551543e+2, -390223.66, -583877.94, -1415.8552, -0.018002998, 0.27699593, -390213.28, 45762.293, 0.0, 10.001069, 9.998502 
3.5505798e+2, 2.65514e+2, -275813.22, -460443.66, -2613.4297, -0.021505004, 0.27437317, -275776.25, 62213.78, 0.0, 10.001107, 9.998658 
3.5506427e+2, 2.755124e+2, -177704.06, -361254.75, 448.975, -0.025775049, 0.24576962, -177702.95, 62301.61, 0.0, 10.001102, 9.998669 
3.5507065e+2, 2.8551096e+2, -95583.14, -316651.2, -197.48459, -0.02258469, 0.25944233, -95582.96, 46434.7, 0.0, 10.00119, 9.99826 
3.5507703e+2, 2.9550976e+2, 26447.46, -206773.64, -3957.1057, -0.013760943, 0.3099045, 26514.584, 70543.73, 0.0, 10.001354, 9.998262 
3.5508308e+2, 3.055068e+2, 72129.75, -164930.88, -7482.392, -0.039467372, 0.19220111, 72365.69, 72365.69, 0.0, 10.001356, 9.998214 
3.5508937e+2, 3.1550604e+2, 115829.35, -43076.6, -11226.195, -0.034407284, 0.29218802, 116618.52, 116618.52, 0.0, 10.001222, 9.999115 
3.6496517e+2, 1.255221e+2, -1624739.6, -1712570.0, -13922.402, 0.025756055, 0.1417603, -1622585.6, 87310.69, 0.000002293197, 10.000797, 9.999631 
3.6497226e+2, 1.3552155e+2, -1567503.9, -1648593.0, 7180.7188, 0.03532163, 0.13559447, -1566872.9, 45028.906, 0.00000039420158, 10.000578, 9.999504 
3.6497846e+2, 1.4552078e+2, -1485589.5, -1578360.1, -5480.384, -0.030624757, 0.119379625, -1485266.9, 28642.393, 0.000000005977529, 10.000554, 9.999324 
3.6498535e+2, 1.5552016e+2, -1369344.8, -1471445.5, -9218.124, -0.0045868326, 0.12204596, -1368519.3, 47396.316, 0.0, 10.000679, 9.999325 
3.6499235e+2, 1.6551942e+2, -1306140.6, -1443387.5, 4763.1455, 0.010048766, 0.14018956, -1305975.5, 11948.3545, 0.0, 10.0006695, 9.998849 
3.6499932e+2, 1.7551856e+2, -1224075.5, -1351612.4, 7298.742, 0.0044701393, 0.16797633, -1223659.3, -3725.145, 0.0, 10.000554, 9.998862 
3.650062e+2, 1.855175e+2, -1149951.1, -1298747.4, -2133.3372, 0.0048909085, 0.19174741, -1149920.5, -27973.79, 0.0, 10.000535, 9.998562 
3.65013e+2, 1.9551629e+2, -1040929.5, -1191816.8, -701.69257, 0.014135834, 0.21076849, -1040926.25, -16964.871, 0.0, 10.000595, 9.998593 
3.650197e+2, 2.0551507e+2, -932035.1, -1079403.4, 412.8255, 0.012913631, 0.22713415, -932033.94, -6059.166, 0.0, 10.000629, 9.998675 
3.6502632e+2, 2.1551389e+2, -829737.7, -975816.7, 1344.1984, 0.0017345077, 0.23890992, -829725.3, -1738.1008, 0.0, 10.000644, 9.998707 
3.6503294e+2, 2.2551265e+2, -727374.2, -870875.75, -286.23767, -0.0068562767, 0.24171998, -727373.6, 2626.1604, 0.0, 10.000653, 9.998751 
3.650395e+2, 2.3551135e+2, -627339.5, -769979.1, 2217.2131, -0.0128123965, 0.23590508, -627305.0, 4707.3877, 0.0, 10.000659, 9.998768 
3.6504605e+2, 2.4551015e+2, -530836.9, -696683.94, 4323.609, -0.01593169, 0.25033215, -530724.25, 3301.1353, 0.0, 10.000752, 9.998553 
3.6505264e+2, 2.5550902e+2, -405886.5, -581399.75, 7996.0254, -0.016927816, 0.2796846, -405522.97, 30515.588, 0.0, 10.000918, 9.998591 
3.6505908e+2, 2.6550767e+2, -280521.84, -459455.03, 2511.6091, -0.020760566, 0.28016257, -280486.6, 57565.527, 0.0, 10.0010605, 9.998688 
3.6506543e+2, 2.755061e+2, -163980.4, -351562.97, 1044.5444, -0.026621738, 0.25369972, -163974.6, 76091.52, 0.0, 10.0011835, 9.998696 
3.650719e+2, 2.855047e+2, -82192.586, -311532.44, 3650.1257, -0.021219052, 0.26582307, -82134.51, 59944.684, 0.0, 10.001288, 9.998248 
3.6507845e+2, 2.955034e+2, 29008.969, -206983.58, 4972.3896, -0.0071065878, 0.31169564, 29113.69, 73204.79, 0.0, 10.001378, 9.99825 
3.650845e+2, 3.0550042e+2, 80494.33, -165044.11, -4759.9033, -0.034635138, 0.1937472, 80586.57, 80586.57, 0.0, 10.0014305, 9.998178 
3.650906e+2, 3.1549966e+2, 142139.16, -42005.06, -12438.401, -0.042305637, 0.2945976, 142975.53, 142975.53, 0.0, 10.001452, 9.999012 
3.7496597e+2, 1.25515e+2, -1616342.9, -1694836.5, -23487.732, 0.023819724, 0.12501273, -1609851.4, 100115.32, 0.000003431768, 10.000795, 9.999754 
3.7497288e+2, 1.355148e+2, -1560831.4, -1634361.6, -369.90683, 0.039210286, 0.14343616, -1560829.6, 51138.918, 0.0000006949508, 10.000577, 9.999602 
3.7497896e+2, 1.4551418e+2, -1491242.4, -1589690.5, -713.50854, -0.03296994, 0.14084281, -1491237.3, 22737.404, 0.00000001953993, 10.000552, 9.999247 
3.7498602e+2, 1.5551344e+2, -1374270.0, -1481498.4, -5061.766, -0.005582458, 0.14015934, -1374031.6, 41950.715, 0.0, 10.000678, 9.999256 
3.7499306e+2, 1.655126e+2, -1301101.6, -1432870.4, 248.08401, 0.013628216, 0.14900576, -1301101.3, 16890.168, 0.0, 10.000669, 9.998921 
3.7499997e+2, 1.7551169e+2, -1219169.4, -1341394.6, 3250.9958, 0.014255775, 0.16265741, -1219083.0, 918.59937, 0.0, 10.000553, 9.998933 
3.7500674e+2, 1.855107e+2, -1147813.8, -1294308.6, 113.0606, 0.009440642, 0.18828496, -1147813.6, -25800.111, 0.0, 10.000534, 9.998592 
3.750135e+2, 1.9550964e+2, -1038837.25, -1187463.4, 1521.2028, 0.0043062298, 0.22221968, -1038821.6, -14794.859, 0.0, 10.000594, 9.998624 
3.750202e+2, 2.0550849e+2, -930228.7, -1075644.0, 1014.2087, -0.0006430574, 0.23930857, -930221.6, -4181.674, 0.0, 10.000629, 9.998702 
3.7502688e+2, 2.1550722e+2, -827806.4, -971804.6, 1959.201, -0.0068473737, 0.24034211, -827779.7, 273.202, 0.0, 10.000644, 9.998734 
3.7503353e+2, 2.2550598e+2, -722673.0, -861176.75, -0.11258098, -0.0096786525, 0.24015819, -722673.0, 7392.22, 0.0, 10.000653, 9.9988165 
3.750402e+2, 2.355048e+2, -622340.0, -759677.44, 2766.609, -0.009009719, 0.23739325, -622284.25, 9792.611, 0.0, 10.000659, 9.998838 
3.7504685e+2, 2.455037e+2, -522871.72, -680222.94, 10609.397, -0.011668293, 0.25227502, -522159.6, 11929.239, 0.0, 10.000752, 9.998666 
3.7505355e+2, 2.5550267e+2, -398481.72, -566097.6, 14193.899, -0.017417543, 0.28015625, -397288.25, 38812.69, 0.0, 10.000919, 9.998696 
3.7506014e+2, 2.6550138e+2, -282800.34, -464210.22, 7077.9385, -0.020799031, 0.28484163, -282524.63, 55589.31, 0.0, 10.0010605, 9.998655 
3.7506664e+2, 2.7549988e+2, -165997.58, -355588.25, 5595.1836, -0.02196228, 0.267096, -165832.6, 74295.11, 0.0, 10.001183, 9.998669 
3.7507325e+2, 2.8549844e+2, -78259.92, -303173.75, 6995.1743, -0.01589897, 0.27543768, -78042.58, 64098.24, 0.0, 10.001287, 9.998306 
3.7507987e+2, 2.954971e+2, 32555.139, -199527.4, 8211.289, -0.00439536, 0.30719864, 32845.3, 76998.26, 0.0, 10.001378, 9.998301 
3.7508595e+2, 3.0549404e+2, 74610.03, -177579.27, -4036.8647, -0.034591507, 0.18436266, 74674.64, 74674.64, 0.0, 10.001432, 9.998091 
3.7509194e+2, 3.1549314e+2, 132171.88, -63575.92, -11727.315, -0.0507424, 0.2824029, 132871.95, 132871.95, 0.0, 10.001456, 9.998862 
3.8496658e+2, 1.2550807e+2, -1653879.1, -1708891.6, -25956.56, 0.02065073, 0.1274936, -1643565.5, 66470.14, 0.000004652705, 10.000521, 9.999789 
3.849735e+2, 1.35508e+2, -1543896.9, -1624015.6, -8249.585, 0.040216263, 0.15657791, -1543056.3, 68979.91, 0.0000010439659, 10.000683, 9.999622 
3.8497958e+2, 1.4550745e+2, -1470032.8, -1578500.6, -6972.7393, -0.036433537, 0.15988743, -1469586.4, 44455.258, 0.000000039313953, 10.000694, 9.999255 
3.8498667e+2, 1.5550667e+2, -1388762.9, -1487005.8, -5160.314, -0.0032357574, 0.15369174, -1388492.5, 27557.143, 0.0, 10.000573, 9.999269 
3.8499367e+2, 1.6550581e+2, -1316300.0, -1432729.6, 1186.5189, 0.01611406, 0.15561359, -1316287.9, 1770.7168, 0.0, 10.000533, 9.998988 
3.850005e+2, 1.7550488e+2, -1213260.1, -1331462.5, 3907.9358, 0.011479339, 0.16142602, -1213131.1, 6937.3394, 0.0, 10.000564, 9.998996 
3.8500726e+2, 1.855039e+2, -1139388.4, -1289475.3, 2433.0886, 0.0050677694, 0.18642144, -1139349.0, -17268.979, 0.0, 10.000589, 9.998599 
3.8501406e+2, 1.9550294e+2, -1035975.8, -1184982.0, 1890.8936, 0.001611586, 0.22548766, -1035951.8, -11858.804, 0.0, 10.000609, 9.998633 
3.8502082e+2, 2.0550182e+2, -928107.3, -1066558.3, 939.62463, -0.0024014385, 0.24507879, -928100.94, -1995.3899, 0.0, 10.000609, 9.998774 
3.8502747e+2, 2.1550064e+2, -830274.9, -965169.44, 5422.1646, -0.008418134, 0.24662332, -830057.25, -1939.5728, 0.0, 10.000593, 9.998804 
3.8503417e+2, 2.2549945e+2, -723727.3, -857602.3, 5228.3633, -0.009763986, 0.24508056, -723523.44, 6606.172, 0.0, 10.000628, 9.998854 
3.8504088e+2, 2.3549826e+2, -612865.9, -750879.8, 5904.7065, -0.006507505, 0.2391155, -612613.7, 19527.47, 0.0, 10.000706, 9.998876 
3.8504767e+2, 2.4549721e+2, -511328.4, -668843.5, 13823.313, -0.007918279, 0.25375006, -510124.5, 24028.229, 0.0, 10.000807, 9.998718 
3.850545e+2, 2.5549623e+2, -393748.22, -558274.8, 12738.535, -0.013550644, 0.283875, -392767.78, 43396.3, 0.0, 10.000928, 9.998746 
3.8506123e+2, 2.65495e+2, -287478.13, -463990.5, 4019.053, -0.015279265, 0.28890094, -287386.66, 50790.035, 0.0, 10.001018, 9.998677 
3.8506788e+2, 2.7549353e+2, -178797.56, -359355.4, 6544.2607, -0.013528979, 0.26989222, -178560.67, 61629.727, 0.0, 10.001085, 9.99869 
3.8507453e+2, 2.8549206e+2, -94658.21, -310880.63, 7707.2217, -0.0095917415, 0.2753822, -94383.836, 47819.742, 0.0, 10.001174, 9.998307 
3.850812e+2, 2.9549065e+2, 18573.563, -206211.95, 4719.3755, -0.004451121, 0.30286673, 18672.604, 62888.543, 0.0, 10.001282, 9.9983015 
3.850874e+2, 3.054876e+2, 78162.0, -176109.94, -4996.079, -0.03212604, 0.17938791, 78260.13, 78260.13, 0.0, 10.001458, 9.998088 
3.850936e+2, 3.1548667e+2, 161596.61, -56754.258, -6723.3296, -0.043344047, 0.27348104, 161803.42, 161803.42, 0.0, 10.00169, 9.9987955 
3.9496708e+2, 1.2550135e+2, -1658274.6, -1717105.4, -21286.492, 0.01595372, 0.14917988, -1651380.5, 58722.53, 0.000005817951, 10.000517, 9.999735 
3.9497417e+2, 1.3550116e+2, -1548476.0, -1633202.9, -2619.2595, 0.038157035, 0.1751097, -1548395.0, 63709.82, 0.0000013925978, 10.000682, 9.999559 
3.9498022e+2, 1.4550063e+2, -1463569.0, -1564911.8, -11601.38, -0.041235607, 0.17654996, -1462257.9, 51852.27, 0.00000005997622, 10.000693, 9.999349 
3.9498731e+2, 1.5549986e+2, -1382302.9, -1473392.4, -9567.311, 0.0022664303, 0.16261505, -1381308.9, 34808.805, 0.0, 10.000571, 9.999363 
3.949942e+2, 1.6549902e+2, -1312246.6, -1424155.1, 2251.0093, 0.01738415, 0.15997423, -1312201.4, 5924.412, 0.0, 10.000532, 9.999047 
3.950009e+2, 1.7549814e+2, -1209349.0, -1323278.5, 5043.7686, -0.0038667135, 0.16428573, -1209126.1, 11008.398, 0.0, 10.000564, 9.999052 
3.9500773e+2, 1.8549716e+2, -1140746.1, -1292304.5, 3202.653, -0.0082914615, 0.18618356, -1140678.4, -18532.313, 0.0, 10.000589, 9.99858 
3.950147e+2, 1.9549611e+2, -1036746.06, -1186607.9, 2663.5332, 0.005895627, 0.22066426, -1036698.75, -12538.712, 0.0, 10.000609, 9.998623 
3.9502153e+2, 2.054951e+2, -919911.4, -1049545.1, 371.49658, 0.007422428, 0.24450372, -919910.3, 6261.4424, 0.0, 10.000609, 9.99889 
3.9502814e+2, 2.1549416e+2, -822488.9, -948966.56, 5057.012, -0.0031780165, 0.2576486, -822287.0, 5894.6567, 0.0, 10.000593, 9.998916 
3.9503482e+2, 2.2549303e+2, -723288.75, -856693.3, 8200.408, -0.007251796, 0.2563488, -722786.5, 7406.413, 0.0, 10.000628, 9.998859 
3.9504158e+2, 2.3549177e+2, -612382.56, -750011.44, 8919.508, -0.005393161, 0.24109352, -611806.94, 20398.443, 0.0, 10.000707, 9.998881 
3.950485e+2, 2.4549067e+2, -511887.63, -670157.75, 18384.682, -0.0048076184, 0.25478908, -509780.1, 24436.936, 0.0, 10.000807, 9.998709 
3.950555e+2, 2.5548977e+2, -394214.56, -559198.7, 17217.332, -0.0054987567, 0.29077202, -392436.94, 43791.02, 0.0, 10.000927, 9.998739 
3.9506236e+2, 2.6548854e+2, -282241.44, -453058.38, 6506.937, -0.0044437307, 0.2923822, -281993.94, 56246.5, 0.0, 10.001018, 9.998753 
3.9506906e+2, 2.75487e+2, -173946.25, -349375.94, 9070.799, -0.001570513, 0.26238412, -173478.47, 66775.766, 0.0, 10.001085, 9.998758 
3.9507577e+2, 2.8548554e+2, -98292.77, -318718.72, 11633.422, -0.0024581545, 0.265898, -97680.5, 44587.047, 0.0, 10.001175, 9.998253 
3.9508244e+2, 2.9548413e+2, 15405.772, -213239.16, 8889.713, -0.0073096748, 0.2987436, 15750.884, 60030.965, 0.0, 10.001284, 9.998252 
3.950889e+2, 3.0548114e+2, 83881.375, -164807.14, 3646.75, -0.027544249, 0.17874196, 83934.836, 83934.836, 0.0, 10.00146, 9.998164 
3.9509553e+2, 3.154802e+2, 162841.52, -54819.78, 1713.1929, -0.02183519, 0.26489112, 162855.0, 162855.0, 0.0, 10.001693, 9.998808 
4.049674e+2, 1.2549469e+2, -1669190.0, -1721204.5, -17261.922, 0.004041396, 0.17805748, -1663982.6, 46186.805, 0.0000067594556, 10.000438, 9.999745 
4.049748e+2, 1.3549428e+2, -1574752.8, -1646197.4, 7674.186, 0.041833647, 0.17996953, -1573937.8, 38235.863, 0.0000016759602, 10.000503, 9.9995575 
4.0498087e+2, 1.4549375e+2, -1480018.8, -1565276.0, -6146.7896, -0.039702512, 0.17928769, -1479577.9, 34600.77, 0.00000007424828, 10.000547, 9.999416 
4.0498787e+2, 1.5549316e+2, -1377932.1, -1463943.6, -6276.8843, 0.0049810205, 0.17525706, -1377476.5, 38707.77, 0.0, 10.00057, 9.999428 
4.0499482e+2, 1.6549233e+2, -1299887.6, -1415548.1, 6272.5654, 0.019344887, 0.17005643, -1299548.5, 18643.348, 0.0, 10.000606, 9.999071 
4.050015e+2, 1.7549133e+2, -1194252.8, -1313176.3, 6196.0864, -0.0049039237, 0.16177164, -1193930.8, 26270.414, 0.0, 10.000655, 9.999077 
4.050083e+2, 1.8549035e+2, -1132510.5, -1283428.0, 2874.2688, -0.009933541, 0.179384, -1132455.8, -10243.088, 0.0, 10.000625, 9.998623 
4.050153e+2, 1.9548936e+2, -1045460.4, -1186053.1, 7016.5137, 0.005858946, 0.21648718, -1045111.06, -20885.15, 0.0, 10.000529, 9.998665 
4.0502205e+2, 2.0548843e+2, -933643.4, -1053813.8, 4438.6616, 0.009120194, 0.24425574, -933479.6, -7242.4966, 0.0, 10.000505, 9.998912 
4.0502873e+2, 2.1548755e+2, -828907.25, -949652.7, 2074.4517, 0.0002554321, 0.26224262, -828871.6, -624.9562, 0.0, 10.000539, 9.998938 
4.050355e+2, 2.2548646e+2, -719899.1, -852017.6, 6757.0225, -0.004345785, 0.26099572, -719554.5, 10703.386, 0.0, 10.000639, 9.998887 
4.0504235e+2, 2.3548517e+2, -597729.1, -739805.8, 8801.156, -0.0049391114, 0.24195853, -597186.0, 35084.34, 0.0, 10.000793, 9.99891 
4.0504938e+2, 2.4548413e+2, -498609.97, -658437.5, 19672.936, -0.0027079857, 0.25572863, -496224.06, 38057.406, 0.0, 10.000875, 9.998756 
4.0505648e+2, 2.554833e+2, -395306.34, -554723.9, 22756.246, 0.0017028287, 0.2948325, -392121.6, 44169.836, 0.0, 10.000898, 9.998784 
4.0506342e+2, 2.654821e+2, -290189.97, -460216.53, 10737.355, 0.002758981, 0.297197, -289514.56, 48789.242, 0.0, 10.0009775, 9.998722 
4.050702e+2, 2.754805e+2, -173210.14, -352374.84, 5637.126, 0.0013673977, 0.26602638, -173032.95, 67285.33, 0.0, 10.001104, 9.998729 
4.05077e+2, 2.85479e+2, -85455.28, -316240.9, 7889.5586, -0.0006446016, 0.26904476, -85185.89, 57146.156, 0.0, 10.00128, 9.9982195 
4.0508386e+2, 2.9547757e+2, 43963.76, -202915.33, 6765.979, -0.0040443465, 0.30188832, 44149.05, 88493.914, 0.0, 10.001494, 9.998221 
4.050905e+2, 3.054746e+2, 116273.17, -147903.38, 921.9432, -0.023294784, 0.1869611, 116276.39, 116276.39, 0.0, 10.0016775, 9.998176 
4.0509725e+2, 3.1547368e+2, 179725.84, -52041.4, -5856.644, -0.022025876, 0.2732384, 179873.73, 179873.73, 0.0, 10.001832, 9.99876 
4.1496766e+2, 1.2548813e+2, -1664190.3, -1710238.1, -16758.71, -0.0153482305, 0.21432824, -1658737.0, 51497.984, 0.0000073152505, 10.000435, 9.999822 
4.1497537e+2, 1.3548732e+2, -1571013.6, -1637978.9, 10030.789, 0.05118673, 0.17102481, -1569543.4, 42699.11, 0.0000018222407, 10.000501, 9.999615 
4.1498148e+2, 1.4548682e+2, -1477514.9, -1559667.9, -5268.706, -0.031865798, 0.16790947, -1477178.4, 37068.676, 0.00000007352536, 10.0005455, 9.999455 
4.1498846e+2, 1.5548652e+2, -1375459.1, -1458615.1, -5445.951, 0.0048408625, 0.19166341, -1375103.9, 41145.574, 0.0, 10.000569, 9.999465 
4.1499543e+2, 1.6548572e+2, -1300962.4, -1417737.5, 7980.339, 0.021931965, 0.1860213, -1300419.5, 17837.393, 0.0, 10.000606, 9.999056 
4.150023e+2, 1.7548448e+2, -1194831.8, -1314333.5, 7765.5044, 0.008209996, 0.15393548, -1194329.3, 25939.178, 0.0, 10.000655, 9.999069 
4.1500902e+2, 1.8548349e+2, -1125094.9, -1267999.9, -771.081, -0.00005373457, 0.166022, -1125090.8, -2811.146, 0.0, 10.000625, 9.998729 
4.150158e+2, 1.9548272e+2, -1038724.6, -1172129.6, 3727.7285, 0.0014605486, 0.21289323, -1038620.56, -14329.86, 0.0, 10.000529, 9.99876 
4.1502252e+2, 2.0548183e+2, -938819.06, -1064678.4, 5703.6772, 0.0026835012, 0.2443615, -938561.06, -12259.319, 0.0, 10.000505, 9.9988365 
4.1502926e+2, 2.1548085e+2, -833563.7, -959508.4, 3641.4211, 0.0017810287, 0.26052374, -833458.5, -5145.6514, 0.0, 10.00054, 9.99887 
4.1503617e+2, 2.2547974e+2, -716541.0, -845132.8, 12656.526, -0.0012122224, 0.2591003, -715307.2, 15017.174, 0.0, 10.000639, 9.998934 
4.1504315e+2, 2.3547852e+2, -594418.4, -732837.75, 14437.461, -0.0052006203, 0.24165557, -592928.56, 39407.527, 0.0, 10.000793, 9.998958 
4.1505027e+2, 2.4547757e+2, -491425.78, -643435.94, 20436.014, -0.0016766532, 0.25656596, -488726.3, 45619.723, 0.0, 10.000875, 9.998859 
4.1505745e+2, 2.5547686e+2, -388743.94, -541183.6, 23692.56, 0.007930108, 0.29615644, -385146.47, 51208.03, 0.0, 10.000898, 9.998878 
4.1506442e+2, 2.6547566e+2, -299299.4, -479379.2, 15389.421, 0.0062736864, 0.30333963, -297993.72, 40373.168, 0.0, 10.000978, 9.99859 
4.1507122e+2, 2.7547404e+2, -181933.45, -370831.03, 10460.738, -0.004516656, 0.28050363, -181355.94, 59026.68, 0.0, 10.001106, 9.998601 
4.1507825e+2, 2.8547248e+2, -86211.625, -318054.25, 15872.212, -0.0041351668, 0.28450134, -85130.04, 57267.098, 0.0, 10.001281, 9.998207 
4.1508543e+2, 2.9547098e+2, 42944.395, -205055.47, 14607.727, 0.0049382844, 0.31206304, 43801.855, 88212.195, 0.0, 10.001494, 9.998207 
4.1509223e+2, 3.0546805e+2, 112809.4, -155251.02, 6629.2803, -0.019554978, 0.20373058, 112973.24, 112973.24, 0.0, 10.0016775, 9.998125 
4.1509888e+2, 3.154671e+2, 172681.61, -67226.57, -9.896941, -0.044252213, 0.2949006, 172681.61, 172681.61, 0.0, 10.001834, 9.998654 
4.2496789e+2, 1.2548122e+2, -1677243.4, -1708286.0, -12674.797, -0.028325146, 0.21065658, -1672725.8, 37577.168, 0.000007399852, 10.00031, 9.999895 
4.2497584e+2, 1.3548055e+2, -1588105.0, -1640357.0, 16069.911, 0.052096803, 0.17656223, -1583558.4, 28750.592, 0.0000017914846, 10.000358, 9.999667 
4.2498195e+2, 1.454801e+2, -1490383.0, -1568445.5, -917.0852, -0.03318446, 0.17700663, -1490372.3, 23940.846, 0.000000055205398, 10.000469, 9.999433 
4.2498907e+2, 1.5547973e+2, -1369395.3, -1457992.1, -6197.696, 0.0061778724, 0.19497488, -1368963.8, 47352.59, 0.0, 10.000621, 9.999445 
4.2499608e+2, 1.6547891e+2, -1298786.1, -1414241.9, 1769.3661, 0.024387173, 0.1864822, -1298759.0, 19564.99, 0.0, 10.000609, 9.999078 
4.2500287e+2, 1.7547768e+2, -1220487.1, -1324104.4, 4330.2813, 0.009681195, 0.15404785, -1220306.5, 28.771702, 0.0, 10.000467, 9.999092 
4.2500958e+2, 1.8547674e+2, -1146087.6, -1273070.3, -3792.2524, 0.0006392799, 0.16587308, -1145974.5, -23628.373, 0.0, 10.000459, 9.998775 
4.2501628e+2, 1.9547598e+2, -1031493.5, -1164122.1, -3822.2527, 0.0017600856, 0.21262912, -1031383.44, -7026.903, 0.0, 10.00056, 9.9988 
4.2502308e+2, 2.0547512e+2, -922348.06, -1060611.8, -777.43634, 0.0020526997, 0.24715427, -922343.7, 4023.844, 0.0, 10.000635, 9.998802 
4.2502987e+2, 2.1547419e+2, -814053.6, -953558.56, 57.271904, -0.00029172658, 0.26880556, -814053.6, 14325.337, 0.0, 10.000689, 9.998838 
4.2503685e+2, 2.254731e+2, -704118.94, -836382.7, 10724.856, -0.00025850558, 0.27082092, -703254.94, 27135.355, 0.0, 10.000712, 9.998959 
4.2504397e+2, 2.3547192e+2, -604342.8, -734888.75, 10841.023, 0.0026169964, 0.25514832, -603448.6, 28952.922, 0.0, 10.000713, 9.998982 
4.2505118e+2, 2.4547094e+2, -501954.63, -645901.44, 13186.555, 0.00697964, 0.26482508, -500756.6, 33654.96, 0.0, 10.000792, 9.998882 
4.2505842e+2, 2.5547013e+2, -382117.47, -535849.9, 10534.454, 0.012255242, 0.2931601, -381398.94, 55021.496, 0.0, 10.000935, 9.998896 
4.250655e+2, 2.654689e+2, -285293.47, -481306.88, 4807.9507, 0.007669344, 0.3022049, -285175.6, 53257.434, 0.0, 10.001112, 9.998513 
4.2507243e+2, 2.7546734e+2, -156232.0, -366682.53, 3809.4631, -0.0048699905, 0.29211015, -156163.06, 84285.71, 0.0, 10.001318, 9.998528 
4.2507958e+2, 2.8546575e+2, -65050.316, -308905.63, 9728.872, -0.0039947163, 0.29684383, -64662.79, 77800.88, 0.0, 10.0014305, 9.998198 
4.2508695e+2, 2.9546413e+2, 37473.242, -208827.31, 8957.039, 0.007457258, 0.31483796, 37798.547, 82276.125, 0.0, 10.001462, 9.998197 
4.2509392e+2, 3.054612e+2, 109915.875, -160929.17, 6787.765, -0.01539318, 0.20944288, 110085.875, 110085.875, 0.0, 10.001677, 9.998087 
4.2510083e+2, 3.1546026e+2, 197147.67, -65286.035, 1180.1791, -0.043897957, 0.30306098, 197152.98, 197152.98, 0.0, 10.002045, 9.998567 
4.3496814e+2, 1.2547396e+2, -1672773.0, -1698321.9, -13138.034, -0.03520548, 0.16617702, -1667222.8, 43150.656, 0.0000070344795, 10.000307, 9.999965 
4.349761e+2, 1.35474e+2, -1584953.6, -1633563.0, 18179.91, 0.044348855, 0.19658588, -1578906.6, 33466.47, 0.0000016069694, 10.000357, 9.999715 
4.3498233e+2, 1.4547361e+2, -1496794.9, -1581454.4, 4812.531, -0.043895245, 0.20683306, -1496522.1, 17854.563, 0.000000030249723, 10.000467, 9.999344 
4.3498972e+2, 1.5547277e+2, -1375155.3, -1469684.4, -1136.3223, 0.0088831335, 0.18513839, -1375141.5, 41243.383, 0.0, 10.00062, 9.999365 
4.3499666e+2, 1.6547187e+2, -1294763.6, -1405782.9, -3732.5044, 0.02659199, 0.17123899, -1294638.3, 23755.05, 0.0, 10.000609, 9.999136 
4.3500322e+2, 1.7547093e+2, -1216662.8, -1316206.0, -590.4251, -0.0006060505, 0.16206323, -1216659.3, 3742.6248, 0.0, 10.000467, 9.999146 
4.3500996e+2, 1.8547004e+2, -1147252.9, -1275543.6, -46.34026, -0.00798731, 0.17900632, -1147252.9, -24840.934, 0.0, 10.000459, 9.998757 
4.350169e+2, 1.9546919e+2, -1032539.4, -1166340.4, -76.00637, 0.006598079, 0.21570541, -1032539.3, -8115.8896, 0.0, 10.00056, 9.998785 
4.3502378e+2, 2.0546836e+2, -921982.75, -1059874.6, 1300.7976, 0.007069695, 0.25250795, -921970.44, 4463.941, 0.0, 10.000635, 9.998807 
4.350305e+2, 2.1546753e+2, -813738.56, -952898.5, 2046.6049, -0.0060001765, 0.2869688, -813708.5, 14736.483, 0.0, 10.000689, 9.998843 
4.3503752e+2, 2.2546652e+2, -703948.06, -836055.9, 10719.276, -0.001575874, 0.2960368, -703083.94, 27371.92, 0.0, 10.000712, 9.9989605 
4.3504483e+2, 2.3546536e+2, -604263.7, -734911.0, 11079.298, 0.018227728, 0.28227037, -603330.75, 29136.127, 0.0, 10.000714, 9.998981 
4.3505213e+2, 2.4546425e+2, -505652.0, -653850.25, 18487.188, 0.022969512, 0.28037536, -503380.63, 31097.436, 0.0, 10.0007925, 9.998827 
4.3505937e+2, 2.5546315e+2, -385754.03, -543639.94, 15941.928, 0.014625192, 0.285939, -384160.44, 52328.816, 0.0, 10.000936, 9.998842 
4.3506658e+2, 2.654619e+2, -286953.38, -484942.16, 12444.93, 0.006856036, 0.29397026, -286174.2, 52328.063, 0.0, 10.001113, 9.998487 
4.350738e+2, 2.7546048e+2, -157850.88, -370141.56, 11128.2295, -0.000043550015, 0.3009556, -157269.14, 83247.67, 0.0, 10.001318, 9.998504 
4.3508106e+2, 2.8545886e+2, -65198.934, -309487.3, 10782.878, -0.0005229214, 0.30621034, -64723.902, 77807.78, 0.0, 10.001431, 9.998193 
4.3508837e+2, 2.9545712e+2, 37449.48, -209559.88, 10484.354, 0.0036769235, 0.31060174, 37893.695, 82440.27, 0.0, 10.001465, 9.99819 
4.3509564e+2, 3.0545416e+2, 108352.82, -164683.11, 20515.387, -0.010909753, 0.2046277, 109885.7, 109885.7, 0.0, 10.001678, 9.99806 
4.351031e+2, 3.1545314e+2, 191956.19, -75828.26, 15077.275, -0.022867277, 0.29542974, 192802.42, 192802.42, 0.0, 10.002044, 9.998495 
4.4496825e+2, 1.2546688e+2, -1711840.9, -1716552.6, -24238.787, -0.041690852, 0.15913735, -1689843.8, 20598.906, 0.00000631539, 10.000037, 9.99997 
4.4497642e+2, 1.3546701e+2, -1599800.4, -1641745.3, 4598.157, 0.045230445, 0.20027046, -1599302.3, 13139.417, 0.0000013346397, 10.000259, 9.999705 
4.4498268e+2, 1.4546666e+2, -1516227.0, -1587155.6, -9837.601, -0.0473955, 0.21206942, -1514887.9, -442.69498, 0.000000013876045, 10.000319, 9.999377 
4.4499013e+2, 1.5546574e+2, -1429551.4, -1492185.6, -6927.532, 0.009133717, 0.18090945, -1428794.3, -12340.555, 0.0, 10.000231, 9.999398 
4.449971e+2, 1.6546491e+2, -1341785.6, -1425951.3, -7812.6963, 0.025052004, 0.16923548, -1341066.6, -22604.813, 0.0, 10.000276, 9.999159 
4.4500357e+2, 1.7546411e+2, -1219913.3, -1315237.6, -7223.5225, -0.008950162, 0.17206322, -1219369.0, 1100.3302, 0.0, 10.000435, 9.999169 
4.4501033e+2, 1.8546323e+2, -1135356.6, -1265678.4, -3722.514, -0.01579958, 0.18796146, -1135250.4, -12771.298, 0.0, 10.000523, 9.998795 
4.4501746e+2, 1.9546232e+2, -1031392.4, -1162103.6, 146.58376, 0.0055472665, 0.21270561, -1031392.2, -6901.4346, 0.0, 10.000552, 9.998818 
4.4502437e+2, 2.0546144e+2, -934222.25, -1071837.3, -108.84619, 0.009959092, 0.24813972, -934222.1, -7720.138, 0.0, 10.000578, 9.998753 
4.450312e+2, 2.1546064e+2, -830431.6, -967017.3, -3839.4172, -0.001544162, 0.29032758, -830323.8, -1810.9535, 0.0, 10.0006, 9.998789 
4.4503826e+2, 2.2545965e+2, -708997.5, -843147.4, 2514.3281, 0.0025492087, 0.30591536, -708950.4, 21573.555, 0.0, 10.000698, 9.9989195 
4.4504562e+2, 2.3545851e+2, -586211.44, -730810.7, -352.1776, 0.020308863, 0.29731062, -586210.56, 46324.566, 0.0, 10.000858, 9.99894 
4.45053e+2, 2.4545732e+2, -481738.25, -647088.75, 7389.198, 0.025153061, 0.29385385, -481408.7, 53138.145, 0.0, 10.0009775, 9.998785 
4.450604e+2, 2.5545612e+2, -370042.34, -540719.44, 5816.8, 0.018750666, 0.29239506, -369844.3, 66714.54, 0.0, 10.001064, 9.9988 
4.450678e+2, 2.654548e+2, -277905.03, -482215.13, 5380.737, 0.010929005, 0.29667988, -277763.44, 60808.875, 0.0, 10.001182, 9.998473 
4.4507512e+2, 2.7545333e+2, -157842.22, -371900.6, 4717.3916, 0.002346581, 0.3025984, -157738.31, 82848.72, 0.0, 10.001326, 9.998488 
4.4508255e+2, 2.854517e+2, -54051.293, -308891.7, 2187.238, -0.00088444294, 0.3093912, -54032.523, 88569.54, 0.0, 10.001529, 9.998151 
4.4508997e+2, 2.9544997e+2, 80427.9, -193454.56, -996.6502, -0.00038573178, 0.3174054, 80431.52, 125048.63, 0.0, 10.00178, 9.998149 
4.4509745e+2, 3.0544698e+2, 142184.9, -147920.61, 10944.893, -0.01064654, 0.21144341, 142597.25, 142597.25, 0.0, 10.001909, 9.998064 
4.4510514e+2, 3.1544587e+2, 173207.63, -88720.44, 8008.357, -0.0150760375, 0.28752333, 173452.25, 173452.25, 0.0, 10.001931, 9.99846 
4.549682e+2, 1.2546e+2, -1716716.3, -1725784.4, -18825.787, -0.04852245, 0.18957512, -1701886.3, 8624.567, 0.0000053674253, 10.000033, 9.999908 
4.5497677e+2, 1.3545963e+2, -1604763.3, -1651641.6, 12484.058, 0.05471844, 0.18758905, -1601646.0, 10868.878, 0.0000010357217, 10.0002575, 9.999639 
4.5498303e+2, 1.4545925e+2, -1505577.9, -1564708.0, -13209.112, -0.043802153, 0.1924433, -1502761.3, 11757.1045, 0.000000007555667, 10.000317, 9.999532 
4.5499033e+2, 1.5545869e+2, -1419420.9, -1470942.3, -9893.622, 0.0066098874, 0.18224818, -1417586.3, -1063.3848, 0.0, 10.000229, 9.999545 
4.549973e+2, 1.6545801e+2, -1342851.9, -1428092.3, -1982.0947, 0.019504063, 0.18055734, -1342805.9, -24276.426, 0.0, 10.000276, 9.999145 
4.5500398e+2, 1.7545721e+2, -1220651.9, -1316703.0, -1530.4269, -0.015428567, 0.18400453, -1220627.5, -89.966286, 0.0, 10.000434, 9.99916 
4.550108e+2, 1.8545632e+2, -1129069.3, -1252574.8, -2660.9587, -0.022864757, 0.19266447, -1129012.0, -6464.694, 0.0, 10.000523, 9.998884 
4.5501795e+2, 1.9545534e+2, -1025758.4, -1150418.6, 1243.1276, -0.0014455644, 0.20371573, -1025745.94, -1187.3832, 0.0, 10.000552, 9.9988985 
4.5502496e+2, 2.054544e+2, -942152.94, -1088350.6, 686.3763, 0.010627209, 0.23422542, -942149.75, -15579.365, 0.0, 10.000578, 9.998639 
4.5503193e+2, 2.154535e+2, -838327.94, -983510.2, -2718.8645, 0.01282993, 0.27910122, -838277.0, -9694.447, 0.0, 10.000601, 9.998675 
4.5503905e+2, 2.2545248e+2, -714989.94, -855647.9, 8579.391, 0.011964997, 0.30069318, -714468.56, 16126.01, 0.0, 10.000698, 9.998834 
4.550464e+2, 2.3545134e+2, -591973.25, -742767.1, 5544.7407, 0.009073967, 0.30045772, -591769.7, 40836.695, 0.0, 10.000858, 9.998858 
4.5505387e+2, 2.4545018e+2, -483853.7, -651516.8, 10606.591, 0.013724851, 0.3052551, -483185.38, 51432.574, 0.0, 10.0009775, 9.9987545 
4.5506153e+2, 2.5544903e+2, -372097.8, -545074.3, 9115.185, 0.024438627, 0.31219435, -371618.8, 65010.49, 0.0, 10.001064, 9.998771 
4.5506904e+2, 2.6544765e+2, -278130.38, -482851.16, 10745.901, 0.0196476, 0.31011772, -277567.84, 61075.367, 0.0, 10.001183, 9.998468 
4.5507646e+2, 2.75446e+2, -158214.72, -372995.44, 10215.5205, 0.0022976825, 0.2973594, -157729.94, 82929.5, 0.0, 10.0013275, 9.99848 
4.5508403e+2, 2.8544435e+2, -59466.168, -320451.75, 11520.7, -0.0050742663, 0.30658734, -58958.594, 83716.19, 0.0, 10.00153, 9.998071 
4.5509169e+2, 2.9544273e+2, 75299.16, -204292.67, 7907.296, -0.0049022296, 0.33477008, 75522.61, 120211.79, 0.0, 10.0017805, 9.998075 
4.550993e+2, 3.0543974e+2, 144542.06, -143207.73, 11852.501, -0.01458554, 0.22946453, 145029.44, 145029.44, 0.0, 10.001909, 9.998096 
4.5510703e+2, 3.1543833e+2, 173156.13, -89034.195, 9439.974, -0.020758536, 0.2772647, 173495.56, 173495.56, 0.0, 10.001932, 9.998458 
4.649682e+2, 1.254529e+2, -1729327.1, -1725848.6, -29219.912, -0.04568901, 0.21761018, -1698316.3, 12264.901, 0.000004304928, 9.999921, 9.999962 
4.6497697e+2, 1.354523e+2, -1639679.1, -1663997.1, 13928.277, 0.06066383, 0.1883526, -1633349.3, -20761.984, 0.0000007438799, 9.999998, 9.99968 
4.6498322e+2, 1.4545192e+2, -1528164.4, -1566186.3, -15227.048, -0.047232147, 0.1869616, -1522818.0, -8227.597, 0.0000000034677494, 10.000121, 9.999616 
4.649905e+2, 1.5545155e+2, -1408393.8, -1456667.1, -17386.047, 0.0006682287, 0.1856472, -1402783.9, 13809.14, 0.0, 10.000266, 9.999625 
4.6499762e+2, 1.6545095e+2, -1331898.8, -1420366.8, -8369.133, 0.016701926, 0.18609522, -1331114.0, -12515.183, 0.0, 10.00034, 9.999166 
4.6500438e+2, 1.7545012e+2, -1230564.6, -1319130.4, -5296.5205, -0.010858375, 0.18599537, -1230249.0, -9641.78, 0.0, 10.000356, 9.999181 
4.650113e+2, 1.8544923e+2, -1146022.0, -1258291.1, -9617.621, -0.019045917, 0.19338559, -1145204.1, -22587.21, 0.0, 10.000396, 9.998906 
4.650184e+2, 1.9544828e+2, -1038797.6, -1154585.1, -10803.552, -0.004905244, 0.20522366, -1037798.25, -13170.551, 0.0, 10.000453, 9.998918 
4.650255e+2, 2.054473e+2, -948374.0, -1095005.0, -9344.414, 0.007913436, 0.23160712, -947780.9, -21141.07, 0.0, 10.000551, 9.998607 
4.650326e+2, 2.154463e+2, -829114.0, -983092.2, -6718.2734, 0.017343454, 0.2682622, -828821.44, -168.37196, 0.0, 10.000681, 9.998639 
4.6503985e+2, 2.2544524e+2, -709357.5, -861396.4, 8993.348, 0.016569829, 0.29278463, -708827.4, 21838.129, 0.0, 10.000773, 9.998757 
4.650472e+2, 2.3544414e+2, -600793.94, -755431.8, 6557.3276, 0.0078849755, 0.30487204, -600516.4, 32160.979, 0.0, 10.0008335, 9.998783 
4.650548e+2, 2.4544296e+2, -493951.22, -662183.25, 11041.365, 0.012360296, 0.31467688, -493229.63, 41459.574, 0.0, 10.000934, 9.998703 
4.6506262e+2, 2.5544176e+2, -375498.63, -552721.9, 7999.2617, 0.027645173, 0.32051554, -375138.28, 61562.813, 0.0, 10.001067, 9.998716 
4.6507028e+2, 2.6544026e+2, -275145.4, -488864.5, 8665.79, 0.02262127, 0.31471708, -274794.6, 63921.273, 0.0, 10.001235, 9.998402 
4.6507782e+2, 2.754385e+2, -147588.75, -375324.53, 3509.8672, 0.000875109, 0.29614985, -147534.67, 93198.47, 0.0, 10.001432, 9.998413 
4.650856e+2, 2.854368e+2, -48295.05, -320922.6, 5782.4854, -0.00618939, 0.30652544, -48172.457, 94576.74, 0.0, 10.001632, 9.998018 
4.650935e+2, 2.954352e+2, 79294.27, -207641.7, 3836.833, -0.0016203376, 0.34161022, 79345.57, 124109.6, 0.0, 10.00183, 9.998028 
4.6510133e+2, 3.054323e+2, 157633.7, -128191.64, 4250.4033, -0.008269354, 0.24351169, 157696.9, 157696.9, 0.0, 10.001963, 9.998175 
4.6510905e+2, 3.1543094e+2, 191191.56, -75089.27, 5325.8076, -0.014925689, 0.2900668, 191298.05, 191298.05, 0.0, 10.002034, 9.998505 
4.7496825e+2, 1.2544562e+2, -1717959.6, -1701469.5, -30128.295, -0.03371482, 0.24266724, -1678478.4, 32175.488, 0.0000032345054, 9.999918, 10.000131 
4.7497696e+2, 1.3544506e+2, -1629563.1, -1642576.6, 17085.453, 0.062693, 0.20252675, -1617787.4, -5128.5713, 0.00000048107097, 9.999996, 9.999827 
4.7498322e+2, 1.454447e+2, -1527539.6, -1564543.6, -9747.956, -0.05814207, 0.19569483, -1525128.8, -10467.459, 0.000000000765976, 10.000119, 9.999628 
4.749907e+2, 1.5544431e+2, -1407600.4, -1454844.9, -12260.282, -0.0088303955, 0.19127102, -1404608.3, 12055.835, 0.0, 10.000265, 9.999638 
4.7499797e+2, 1.6544367e+2, -1327913.1, -1412064.4, -7971.064, 0.01654668, 0.1859545, -1327164.8, -8494.795, 0.0, 10.0003395, 9.999223 
4.7500488e+2, 1.7544284e+2, -1226923.5, -1311550.5, -4679.264, 0.004413932, 0.1780619, -1226665.5, -5987.112, 0.0, 10.000356, 9.999232 
4.7501186e+2, 1.85442e+2, -1149368.8, -1265180.3, -7509.758, -0.0046761683, 0.19018576, -1148883.8, -26195.947, 0.0, 10.000395, 9.998859 
4.7501886e+2, 1.9544114e+2, -1041822.0, -1160824.6, -8519.669, -0.004971404, 0.21709779, -1041215.1, -16517.045, 0.0, 10.000453, 9.998875 
4.75026e+2, 2.0544012e+2, -945221.6, -1088396.4, -4478.796, 0.001764105, 0.24013913, -945081.7, -18371.307, 0.0, 10.00055, 9.998652 
4.7503322e+2, 2.1543898e+2, -826304.94, -977261.25, -1937.976, 0.012043074, 0.25782344, -826280.06, 2444.236, 0.0, 10.000681, 9.99868 
4.750406e+2, 2.2543791e+2, -714004.9, -871046.44, 11195.759, 0.016295852, 0.2822121, -713210.7, 17526.104, 0.0, 10.000773, 9.998692 
4.7504812e+2, 2.354369e+2, -605604.5, -765412.5, 8897.402, 0.01640442, 0.3105529, -605110.7, 27637.436, 0.0, 10.0008335, 9.998715 
4.750558e+2, 2.4543568e+2, -499098.7, -673023.6, 15957.211, 0.020730162, 0.32229587, -497646.75, 37113.92, 0.0, 10.000934, 9.998628 
4.7506368e+2, 2.554343e+2, -380693.03, -563846.75, 13038.722, 0.028376006, 0.31770033, -379769.47, 57004.863, 0.0, 10.001068, 9.99864 
4.7507146e+2, 2.654327e+2, -283898.38, -507409.63, 16016.758, 0.019915326, 0.31067717, -282756.44, 56033.8, 0.0, 10.001236, 9.998274 
4.7507924e+2, 2.7543086e+2, -156148.44, -393380.0, 10915.652, -0.00205962, 0.29876882, -155647.23, 85160.92, 0.0, 10.001433, 9.998289 
4.7508723e+2, 2.854291e+2, -50078.95, -324759.9, 13319.918, -0.0045488807, 0.30911556, -49434.547, 93390.76, 0.0, 10.001632, 9.997992 
4.7509545e+2, 2.954274e+2, 77670.016, -210822.94, 11129.242, 0.009074445, 0.33833066, 78098.71, 122940.336, 0.0, 10.001829, 9.998006 
4.7510344e+2, 3.054247e+2, 165897.75, -110789.14, 7036.56, 0.007816494, 0.25367922, 166076.58, 166076.58, 0.0, 10.001961, 9.998295 
4.7511125e+2, 3.1542367e+2, 197588.3, -61702.78, 8371.541, 0.00097628264, 0.32287258, 197858.31, 197858.31, 0.0, 10.002033, 9.998597 
4.849681e+2, 1.2543797e+2, -1759696.6, -1715310.6, -32366.188, -0.023089956, 0.23856403, -1698259.5, 12469.266, 0.000002270887, 9.999605, 10.000187 
4.8497686e+2, 1.3543753e+2, -1649858.1, -1647600.5, 10383.418, 0.06311124, 0.20592727, -1638284.8, -25552.088, 0.0000002759338, 9.999836, 9.999869 
4.849832e+2, 1.4543723e+2, -1541479.0, -1565095.5, -20182.465, -0.06453393, 0.19849895, -1529904.3, -15169.464, 0.000000000009128432, 9.999997, 9.999683 
4.849909e+2, 1.554368e+2, -1430761.3, -1459943.9, -19773.314, -0.0042521697, 0.18527646, -1420778.4, -4040.6587, 0.0, 10.000081, 9.999692 
4.849983e+2, 1.6543622e+2, -1350539.5, -1416691.9, -16654.064, 0.025625223, 0.18006699, -1346583.4, -27840.36, 0.0, 10.000157, 9.999279 
4.850053e+2, 1.7543551e+2, -1241667.4, -1312983.4, -13440.092, 0.012401686, 0.17979716, -1239218.5, -18468.373, 0.0, 10.00023, 9.999283 
4.8501223e+2, 1.8543471e+2, -1170087.1, -1281303.8, -16742.232, 0.0015286211, 0.19672006, -1167621.4, -44861.957, 0.0, 10.000279, 9.998804 
4.8501927e+2, 1.9543383e+2, -1066628.9, -1178679.9, -18250.805, -0.001166578, 0.225932, -1063731.1, -38960.633, 0.0, 10.000308, 9.998821 
4.8502648e+2, 2.0543277e+2, -965321.94, -1098968.0, -12788.769, 0.0021519044, 0.24793898, -964109.2, -37325.98, 0.0, 10.000417, 9.998645 
4.850338e+2, 2.1543159e+2, -840149.3, -984921.7, -14403.888, 0.008285519, 0.2616584, -838730.1, -9932.927, 0.0, 10.00059, 9.998671 
4.8504135e+2, 2.2543046e+2, -722231.44, -877969.7, -3925.4739, 0.0150638325, 0.28425145, -722132.5, 8677.36, 0.0, 10.00073, 9.998665 
4.8504904e+2, 2.3542944e+2, -606715.44, -769271.7, -3111.4592, 0.023258502, 0.31294963, -606655.9, 26165.5, 0.0, 10.00084, 9.998685 
4.8505685e+2, 2.4542816e+2, -494521.53, -679314.2, 8383.415, 0.025881844, 0.32382473, -494142.0, 40692.598, 0.0, 10.001002, 9.998551 
4.8506477e+2, 2.5542668e+2, -365592.34, -564928.25, 5311.646, 0.023473952, 0.31711772, -365450.9, 71398.336, 0.0, 10.001208, 9.998565 
4.8507273e+2, 2.65425e+2, -265569.3, -503658.84, 11647.246, 0.013141193, 0.30944014, -265000.88, 73864.86, 0.0, 10.001385, 9.998228 
4.850807e+2, 2.7542314e+2, -144684.19, -392958.88, 12532.8955, -0.0038615323, 0.29820788, -144053.13, 96830.766, 0.0, 10.001534, 9.998243 
4.8508886e+2, 2.854213e+2, -48691.652, -327232.38, 16691.295, -0.005216662, 0.31097934, -47695.008, 95206.46, 0.0, 10.001656, 9.997963 
4.850972e+2, 2.9541963e+2, 64226.523, -220009.92, 14117.803, 0.006392163, 0.34394455, 64926.02, 109844.39, 0.0, 10.001749, 9.997981 
4.8510534e+2, 3.0541706e+2, 156444.36, -105940.47, 6664.3706, 0.010134952, 0.26627544, 156613.53, 156613.53, 0.0, 10.001856, 9.998379 
4.8511338e+2, 3.1541616e+2, 192432.9, -57152.6, 5493.344, 0.013055349, 0.33897954, 192553.75, 192553.75, 0.0, 10.001967, 9.99866 
4.9496782e+2, 1.2542997e+2, -1764599.0, -1724354.0, -28014.346, -0.014765431, 0.20453301, -1709984.3, 821.81616, 0.0000015131092, 9.999599, 10.000127 
4.949767e+2, 1.3542973e+2, -1654624.5, -1657173.5, 18986.592, 0.061709482, 0.1985905, -1636869.6, -24060.834, 0.00000014199817, 9.999834, 9.999805 
4.949832e+2, 1.4542948e+2, -1534832.3, -1550978.5, -17139.758, -0.0667496, 0.19555593, -1523959.5, -9148.916, 0.0, 9.999996, 9.999781 
4.9499118e+2, 1.55429e+2, -1424284.3, -1446157.3, -16825.063, 0.013995281, 0.16766624, -1415153.6, 1660.1846, 0.0, 10.000079, 9.999787 
4.9499863e+2, 1.6542856e+2, -1346851.5, -1408874.8, -14087.424, 0.043658014, 0.16839765, -1343801.8, -24983.865, 0.0, 10.000156, 9.999333 
4.950055e+2, 1.7542814e+2, -1238255.6, -1305891.3, -10826.63, 0.013043053, 0.1912318, -1236564.9, -15742.396, 0.0, 10.00023, 9.999332 
4.950125e+2, 1.8542737e+2, -1174586.4, -1290611.1, -15751.594, -0.0005086727, 0.21302594, -1172486.0, -49654.277, 0.0, 10.000279, 9.99874 
4.9501964e+2, 1.9542633e+2, -1071112.1, -1188002.4, -16947.68, 0.0063359723, 0.23180489, -1068704.5, -43859.633, 0.0, 10.000308, 9.998757 
4.9502695e+2, 2.0542522e+2, -969593.0, -1107868.9, -6245.2793, 0.008879411, 0.25501525, -969311.5, -42453.273, 0.0, 10.000417, 9.998584 
4.950344e+2, 2.1542408e+2, -844200.5, -993383.25, -7910.922, 0.005927851, 0.2795478, -843782.2, -14910.434, 0.0, 10.00059, 9.998612 
4.9504206e+2, 2.2542292e+2, -721364.56, -876232.0, 243.6587, 0.012748314, 0.2987628, -721364.2, 9520.511, 0.0, 10.00073, 9.998677 
4.9504992e+2, 2.3542173e+2, -606094.1, -768177.44, 1179.1288, 0.028409379, 0.3121993, -606085.56, 26811.611, 0.0, 10.000841, 9.9986925 
4.9505785e+2, 2.4542038e+2, -499902.3, -690647.94, 16034.812, 0.027809396, 0.31936148, -498563.75, 36347.164, 0.0, 10.001002, 9.998474 
4.950659e+2, 2.5541887e+2, -370807.4, -575721.1, 12937.538, 0.012933212, 0.31869954, -369993.78, 66932.016, 0.0, 10.001207, 9.998491 
4.95074e+2, 2.654172e+2, -263318.03, -498868.13, 17216.87, 0.0022158448, 0.31097442, -262066.27, 76876.09, 0.0, 10.001384, 9.998261 
4.950822e+2, 2.7541527e+2, -142674.1, -388632.66, 17977.13, -0.004596473, 0.29459286, -141367.1, 99593.3, 0.0, 10.0015335, 9.998273 
4.9509048e+2, 2.8541353e+2, -51056.78, -331981.56, 20120.38, -0.008087849, 0.31207457, -49623.04, 93354.71, 0.0, 10.001655, 9.9979315 
4.950988e+2, 2.9541194e+2, 62073.44, -224392.69, 17595.393, -0.009277703, 0.3581518, 63150.14, 108144.5, 0.0, 10.001749, 9.9979515 
4.9510708e+2, 3.0540937e+2, 159805.28, -98940.14, 10843.978, -0.0009947394, 0.28133568, 160258.97, 160258.97, 0.0, 10.001856, 9.998426 
4.951154e+2, 3.1540838e+2, 194596.08, -52524.44, 9724.035, 0.02084226, 0.33751655, 194978.13, 194978.13, 0.0, 10.001967, 9.998692 
5.049674e+2, 1.2542202e+2, -1785637.5, -1732430.3, -41063.066, -0.0070495405, 0.1983467, -1710106.1, 777.7518, 0.0000009949754, 9.999447, 10.000145 
5.049766e+2, 1.3542178e+2, -1671854.4, -1664534.5, 16318.56, 0.070796564, 0.19398676, -1651470.5, -38583.79, 0.000000065122016, 9.999712, 9.999814 
5.049831e+2, 1.454216e+2, -1550330.5, -1550658.1, -25660.652, -0.06320339, 0.19415241, -1524833.1, -9945.215, 0.0, 9.999856, 9.99985 
5.049912e+2, 1.5542123e+2, -1448690.5, -1450100.1, -27603.414, 0.018052677, 0.17049228, -1421782.9, -4892.655, 0.0, 9.999878, 9.999857 
5.0499874e+2, 1.6542089e+2, -1365833.9, -1407598.4, -21803.51, 0.0461945, 0.17137162, -1356525.8, -37632.414, 0.0, 9.999982, 9.999426 
5.0500566e+2, 1.7542052e+2, -1243335.3, -1298465.9, -15791.912, 0.012505676, 0.19092613, -1239132.3, -18235.152, 0.0, 10.000153, 9.99942 
5.0501275e+2, 1.854198e+2, -1175230.8, -1294797.4, -20151.1, -0.0011589612, 0.21433511, -1171925.9, -49019.883, 0.0, 10.000292, 9.998706 
5.0502e+2, 1.9541878e+2, -1059841.9, -1186532.6, -19173.295, 0.007949936, 0.23898438, -1057003.9, -32084.418, 0.0, 10.000402, 9.998722 
5.050274e+2, 2.0541763e+2, -957655.4, -1106504.6, -3875.9736, 0.010995145, 0.26264837, -957554.5, -30621.354, 0.0, 10.000518, 9.998545 
5.05035e+2, 2.154164e+2, -840720.5, -996246.8, -4050.94, 0.007163538, 0.28294587, -840615.06, -11667.864, 0.0, 10.000634, 9.998572 
5.050428e+2, 2.2541516e+2, -718112.8, -882156.8, 1680.9215, 0.012494026, 0.30055362, -718095.6, 12865.168, 0.0, 10.000785, 9.99861 
5.050508e+2, 2.3541394e+2, -592899.6, -769367.4, -3326.7703, 0.02606849, 0.31447843, -592836.94, 40136.953, 0.0, 10.000964, 9.998625 
5.050589e+2, 2.4541253e+2, -492415.22, -693400.0, 9368.262, 0.02545399, 0.3222188, -491979.47, 43008.758, 0.0, 10.001081, 9.998417 
5.0506705e+2, 2.5541097e+2, -383851.1, -588378.9, 7764.462, 0.012277486, 0.32239085, -383556.75, 53446.867, 0.0, 10.001145, 9.998434 
5.0507534e+2, 2.654092e+2, -282200.7, -511392.6, 11145.577, 0.002929093, 0.31336448, -281659.94, 57360.754, 0.0, 10.001269, 9.99823 
5.050837e+2, 2.7540725e+2, -158313.94, -399679.13, 6958.192, -0.0027295733, 0.2938715, -158113.5, 82925.805, 0.0, 10.001442, 9.998241 
5.050921e+2, 2.8540552e+2, -61693.023, -338243.75, 5824.642, -0.007030393, 0.31469953, -61570.402, 81486.26, 0.0, 10.001587, 9.99792 
5.051005e+2, 2.9540402e+2, 55264.855, -228783.67, 4741.8057, -0.010828116, 0.36971766, 55343.992, 100416.75, 0.0, 10.001707, 9.997941 
5.051089e+2, 3.054014e+2, 158763.2, -94308.15, -1303.1768, -0.0035495486, 0.29178065, 158769.9, 158769.9, 0.0, 10.001827, 9.998472 
5.051173e+2, 3.1540033e+2, 192459.48, -49885.31, -2698.4734, 0.018047808, 0.3316925, 192489.53, 192489.53, 0.0, 10.001937, 9.998724 
5.149669e+2, 1.2541407e+2, -1779445.9, -1718758.3, -36262.824, -0.0012398213, 0.22022586, -1701818.5, 9143.756, 0.00000067894854, 9.999444, 10.00024 
5.1497644e+2, 1.3541369e+2, -1666341.3, -1652583.1, 25945.768, 0.090130046, 0.19233216, -1632620.0, -19653.748, 0.000000029496794, 9.999709, 9.999897 
5.149831e+2, 1.454136e+2, -1547904.6, -1545157.1, -24857.832, -0.054177772, 0.19433752, -1521635.1, -6668.278, 0.0, 9.999854, 9.999889 
5.14991e+2, 1.5541351e+2, -1445766.8, -1443830.8, -26665.186, 0.007673863, 0.19393118, -1418116.0, -1149.1353, 0.0, 9.999877, 9.999901 
5.1499856e+2, 1.6541317e+2, -1356771.8, -1388654.9, -15566.526, 0.033010133, 0.18923222, -1350432.1, -31462.818, 0.0, 9.999981, 9.999557 
5.150058e+2, 1.7541265e+2, -1234625.1, -1280241.4, -9575.238, 0.010567516, 0.1789729, -1232696.8, -11722.833, 0.0, 10.000153, 9.999546 
5.1501304e+2, 1.8541197e+2, -1175804.5, -1295854.8, -16043.443, -0.000602733, 0.20065834, -1173697.4, -50715.047, 0.0, 10.000291, 9.998699 
5.150204e+2, 1.9541116e+2, -1060493.5, -1187800.0, -15041.481, 0.0036015278, 0.24741063, -1058740.5, -33746.31, 0.0, 10.000402, 9.9987135 
5.1502794e+2, 2.0541e+2, -958934.8, -1109068.4, 446.02313, 0.008429098, 0.27083635, -958933.5, -31925.406, 0.0, 10.000517, 9.998527 
5.150357e+2, 2.1540856e+2, -842353.7, -999671.94, 399.82675, 0.011848051, 0.27208048, -842352.7, -13329.056, 0.0, 10.000634, 9.9985485 
5.1504356e+2, 2.2540724e+2, -728357.94, -903454.1, 8470.571, 0.014153591, 0.2898029, -727949.1, 3088.9714, 0.0, 10.000785, 9.998464 
5.1505166e+2, 2.3540604e+2, -602853.2, -789979.44, 3282.8103, 0.016302522, 0.31967038, -602795.6, 30256.04, 0.0, 10.000964, 9.998484 
5.150599e+2, 2.4540459e+2, -495043.78, -698857.94, 11727.569, 0.018771954, 0.33222657, -494371.2, 40695.383, 0.0, 10.001081, 9.99838 
5.150683e+2, 2.5540295e+2, -386715.53, -594448.06, 10302.515, 0.021137375, 0.32814702, -386205.84, 50876.816, 0.0, 10.001146, 9.998392 
5.150767e+2, 2.654011e+2, -288824.94, -525280.0, 17590.822, 0.014918576, 0.3165942, -287523.44, 51577.3, 0.0, 10.00127, 9.998135 
5.150852e+2, 2.7539903e+2, -164731.05, -413126.2, 13328.135, 0.0014903566, 0.2960351, -164017.95, 77102.664, 0.0, 10.001442, 9.998149 
5.1509374e+2, 2.853973e+2, -61156.785, -337157.72, 10285.7295, -0.0025161034, 0.31890225, -60773.996, 82364.18, 0.0, 10.001587, 9.997928 
5.151023e+2, 2.9539585e+2, 55652.63, -227778.61, 9254.411, 0.0011232684, 0.37864423, 55954.477, 101108.05, 0.0, 10.001706, 9.997949 
5.151108e+2, 3.0539325e+2, 161545.89, -88360.695, 2966.3423, 0.0021229282, 0.29772, 161581.1, 161581.1, 0.0, 10.001826, 9.998514 
5.1511914e+2, 3.1539202e+2, 194506.5, -45623.81, 1496.3074, 0.0044427356, 0.32140398, 194515.83, 194515.83, 0.0, 10.001937, 9.998754 
5.249664e+2, 1.2540595e+2, -1765723.3, -1701225.8, -42212.883, 0.004523607, 0.22900873, -1680352.9, 30689.775, 0.0000005002885, 9.999492, 10.000338 
5.249761e+2, 1.354057e+2, -1700946.9, -1659929.9, 25401.5, 0.097848505, 0.20531759, -1647791.3, -34745.965, 0.000000016983103, 9.999432, 9.999981 
5.249828e+2, 1.4540567e+2, -1590516.4, -1559654.8, -24156.291, -0.053829152, 0.20704639, -1546421.4, -31376.23, 0.0, 9.999536, 9.999943 
5.2499074e+2, 1.554056e+2, -1459218.8, -1444391.4, -25220.527, 0.0012050087, 0.20284857, -1425517.5, -8472.4375, 0.0, 9.99976, 9.999953 
5.249984e+2, 1.6540526e+2, -1364336.1, -1387686.0, -17171.723, 0.027665187, 0.19272187, -1355246.4, -36198.914, 0.0, 9.999909, 9.999598 
5.2500594e+2, 1.7540471e+2, -1254573.3, -1285449.4, -18091.85, 0.013265303, 0.1756399, -1246227.9, -25175.91, 0.0, 9.999996, 9.999585 
5.250133e+2, 1.8540405e+2, -1202323.9, -1307922.1, -27592.9, 0.0052677235, 0.19892782, -1195548.6, -72488.38, 0.0, 10.000106, 9.998705 
5.250208e+2, 1.9540334e+2, -1084906.4, -1198857.6, -25638.453, 0.008507551, 0.25447422, -1079403.6, -54332.176, 0.0, 10.000232, 9.99872 
5.2502847e+2, 2.054022e+2, -974551.3, -1115265.8, -6825.447, 0.010865964, 0.27703637, -974221.06, -47135.89, 0.0, 10.000404, 9.998539 
5.2503633e+2, 2.1540067e+2, -844368.94, -999874.06, -4864.067, 0.010365235, 0.26931158, -844216.94, -15115.949, 0.0, 10.000617, 9.998555 
5.250443e+2, 2.2539927e+2, -736741.2, -917970.9, 5557.3315, 0.01073524, 0.28497404, -736570.94, -5454.902, 0.0, 10.000772, 9.99837 
5.2505255e+2, 2.3539801e+2, -621684.7, -809503.3, 4134.8926, 0.012829352, 0.31848907, -621593.7, 11536.601, 0.0, 10.000879, 9.99839 
5.250609e+2, 2.4539651e+2, -512045.13, -716847.1, 10998.592, 0.015316472, 0.33586755, -511456.16, 23689.732, 0.0, 10.001007, 9.998291 
5.250694e+2, 2.5539485e+2, -392284.38, -607021.2, 5885.33, 0.017801223, 0.33773488, -392123.22, 45039.32, 0.0, 10.001151, 9.998303 
5.25078e+2, 2.653929e+2, -289193.0, -535182.56, 14291.704, 0.013802808, 0.32686305, -288365.47, 50816.113, 0.0, 10.001309, 9.998047 
5.2508664e+2, 2.753907e+2, -165078.5, -422523.84, 10472.753, 0.004177862, 0.30246156, -164653.17, 76549.555, 0.0, 10.00148, 9.998066 
5.250954e+2, 2.8538892e+2, -57159.246, -331101.63, 5982.896, 0.0012135059, 0.32066783, -57028.64, 86192.05, 0.0, 10.001597, 9.997964 
5.2510405e+2, 2.9538745e+2, 51777.715, -225895.53, 7152.3257, 0.0037430043, 0.37494043, 51961.82, 97197.55, 0.0, 10.001664, 9.997981 
5.2511257e+2, 3.0538484e+2, 149474.23, -97485.805, -243.63695, 0.0026352047, 0.2959218, 149474.48, 149474.48, 0.0, 10.001758, 9.998484 
5.25121e+2, 3.1538364e+2, 182032.64, -56018.66, -7221.141, 0.0012973822, 0.3224672, 182251.48, 182251.48, 0.0, 10.00187, 9.998714 
5.3496593e+2, 1.2539762e+2, -1759360.4, -1687236.4, -50075.41, 0.009228436, 0.22382864, -1661589.3, 49535.98, 0.00000041209, 9.999488, 10.000435 
5.3497547e+2, 1.3539778e+2, -1695170.9, -1647679.9, 23607.934, 0.09344419, 0.23328781, -1637941.3, -24817.596, 0.000000018082496, 9.99943, 10.000066 
5.3498226e+2, 1.4539781e+2, -1586091.1, -1550076.1, -15777.476, -0.06269214, 0.23275545, -1544142.0, -29019.248, 0.0, 9.999535, 10.00001 
5.3499043e+2, 1.5539749e+2, -1455122.5, -1435515.6, -17221.182, -0.0016117669, 0.1974321, -1425503.0, -8378.354, 0.0, 9.999758, 10.000015 
5.3499836e+2, 1.653971e+2, -1367953.4, -1395039.4, -14058.153, 0.029952405, 0.18185362, -1361976.0, -42848.44, 0.0, 9.999908, 9.999548 
5.35006e+2, 1.7539665e+2, -1257985.9, -1292444.5, -14834.862, 0.020410487, 0.18094903, -1252479.3, -31347.813, 0.0, 9.999996, 9.999537 
5.3501356e+2, 1.8539605e+2, -1201120.8, -1305310.9, -22913.871, 0.016309828, 0.20917752, -1196304.1, -73164.586, 0.0, 10.000106, 9.998723 
5.350211e+2, 1.9539529e+2, -1083532.1, -1196000.3, -20878.215, 0.022508025, 0.26018503, -1079781.4, -54630.44, 0.0, 10.000232, 9.99874 
5.350289e+2, 2.0539416e+2, -971836.44, -1109605.1, 1158.952, 0.018154772, 0.28123152, -971826.7, -44662.277, 0.0, 10.000404, 9.998577 
5.350368e+2, 2.1539268e+2, -841944.56, -994811.56, 2947.7642, 0.0027341929, 0.2745247, -841887.7, -12708.338, 0.0, 10.000617, 9.99859 
5.35045e+2, 2.2539125e+2, -739643.25, -924050.25, 9567.488, 0.002218578, 0.28596643, -739148.25, -7953.656, 0.0, 10.000772, 9.998328 
5.350535e+2, 2.3538984e+2, -624904.4, -816332.8, 8176.575, 0.015389051, 0.31107226, -624555.8, 8654.125, 0.0, 10.00088, 9.9983425 
5.350619e+2, 2.4538831e+2, -521592.0, -736887.8, 16390.254, 0.014943556, 0.33328572, -520351.38, 14874.809, 0.0, 10.001008, 9.998154 
5.3507036e+2, 2.5538668e+2, -401722.6, -626866.0, 11301.153, 0.0025047585, 0.35103074, -401156.75, 36086.54, 0.0, 10.001152, 9.998166 
5.350792e+2, 2.6538464e+2, -294653.7, -546757.9, 20657.84, -0.00022367892, 0.34393612, -292972.2, 46291.06, 0.0, 10.00131, 9.997968 
5.350881e+2, 2.753823e+2, -170226.06, -433461.9, 16765.697, 0.005297495, 0.31290898, -169162.53, 72123.164, 0.0, 10.001481, 9.99799 
5.35097e+2, 2.853804e+2, -52590.46, -321815.06, 8500.72, 0.004154589, 0.32005563, -52322.32, 90981.93, 0.0, 10.001597, 9.998028 
5.3510565e+2, 2.9537883e+2, 55705.332, -217699.17, 9671.01, -0.002904629, 0.35934532, 56046.992, 101366.234, 0.0, 10.001663, 9.998038 
5.351142e+2, 3.0537632e+2, 142337.14, -112064.55, 3910.0037, -0.0022230896, 0.28691283, 142397.22, 142397.22, 0.0, 10.001756, 9.998384 
5.3512293e+2, 3.1537518e+2, 174047.11, -72007.875, -3010.9832, 0.007804852, 0.33349597, 174083.94, 174083.94, 0.0, 10.001867, 9.998606 
5.4496527e+2, 1.2538937e+2, -1809135.0, -1703526.9, -51047.88, 0.01116924, 0.22488378, -1682886.0, 28320.492, 0.00000036785775, 9.999114, 10.000503 
5.449748e+2, 1.353896e+2, -1711769.0, -1649304.6, 26110.379, 0.088116206, 0.23532923, -1639828.0, -26623.96, 0.000000024396927, 9.999289, 10.000123 
5.449816e+2, 1.4538965e+2, -1600276.4, -1553826.6, -12355.108, -0.0701901, 0.23303619, -1550744.8, -35541.92, 0.0, 9.999424, 10.000037 
5.4499006e+2, 1.5538932e+2, -1489677.3, -1449410.4, -17170.816, -0.0030253404, 0.1953256, -1443082.6, -25878.047, 0.0, 9.999509, 10.000039 
5.4499817e+2, 1.6538896e+2, -1407779.8, -1416897.5, -15124.309, 0.031903334, 0.18229756, -1396542.3, -77334.68, 0.0, 9.999647, 9.999523 
5.450059e+2, 1.7538856e+2, -1283965.5, -1307326.3, -14024.16, 0.024217827, 0.18788886, -1277394.6, -56183.133, 0.0, 9.999828, 9.999516 
5.4501367e+2, 1.8538797e+2, -1209579.0, -1305771.9, -19102.898, 0.021961883, 0.21752937, -1205924.3, -82704.91, 0.0, 10.000031, 9.998755 
5.450214e+2, 1.9538724e+2, -1077874.0, -1190026.6, -16199.542, 0.029603494, 0.26587054, -1075581.0, -50350.473, 0.0, 10.000257, 9.998769 
5.4502934e+2, 2.0538609e+2, -969713.7, -1114163.0, 2908.228, 0.02183518, 0.2870912, -969655.1, -42411.203, 0.0, 10.0004425, 9.998528 
5.450374e+2, 2.1538459e+2, -848706.6, -1003581.44, -2111.4585, -0.00087339804, 0.28276163, -848677.8, -19418.537, 0.0, 10.000594, 9.998541 
5.4504573e+2, 2.253831e+2, -742661.7, -927538.1, 974.0596, -0.0031170403, 0.29182136, -742656.56, -11381.627, 0.0, 10.000761, 9.99831 
5.450543e+2, 2.353816e+2, -617817.25, -815492.8, 1297.0935, 0.012980387, 0.31078193, -617808.75, 15481.929, 0.0, 10.00094, 9.99832 
5.450629e+2, 2.4537998e+2, -517378.72, -748113.4, 10968.018, 0.013032925, 0.33188143, -516858.53, 18449.287, 0.0, 10.001094, 9.9980345 
5.4507154e+2, 2.5537825e+2, -398909.8, -638402.3, 7353.1064, -0.001135354, 0.3525494, -398684.28, 38641.84, 0.0, 10.001227, 9.998051 
5.450804e+2, 2.6537618e+2, -285003.72, -544567.7, 21064.402, -0.003347478, 0.34783685, -283305.4, 56041.215, 0.0, 10.001388, 9.997945 
5.4508966e+2, 2.7537388e+2, -159051.55, -430653.66, 21246.563, 0.004823998, 0.31863213, -157399.55, 83969.51, 0.0, 10.001569, 9.997967 
5.4509866e+2, 2.853719e+2, -45103.36, -321398.63, 6442.5166, 0.0045991843, 0.3237325, -44953.215, 98434.66, 0.0, 10.001663, 9.997999 
5.451073e+2, 2.9537028e+2, 56071.188, -220710.75, 737.02924, -0.0032579545, 0.35779166, 56073.152, 101476.52, 0.0, 10.00168, 9.99801 
5.4511595e+2, 3.0536774e+2, 129920.18, -120317.0, -4797.844, -0.0053731375, 0.28778616, 130012.13, 130012.13, 0.0, 10.001681, 9.9983635 
5.4512465e+2, 3.153666e+2, 142375.64, -90466.31, -5905.0063, 0.0004923047, 0.33788943, 142525.3, 142525.3, 0.000000000015387011, 10.001663, 9.998577 
5.5496436e+2, 1.253812e+2, -1806867.1, -1698164.0, -50292.355, 0.008982757, 0.23221423, -1678465.5, 32820.883, 0.0000003291145, 9.999111, 10.000541 
5.54974e+2, 1.3538115e+2, -1710061.9, -1645553.9, 32418.902, 0.0816795, 0.21141222, -1632077.1, -18790.676, 0.000000025104656, 9.999288, 10.00015 
5.5498093e+2, 1.453812e+2, -1601311.8, -1555666.5, -9173.751, -0.07650567, 0.20765555, -1553891.8, -38606.465, 0.0, 9.999422, 10.000025 
5.549896e+2, 1.5538113e+2, -1490865.0, -1451647.3, -14015.776, -0.0033371232, 0.19662058, -1447153.3, -29868.48, 0.0, 9.999508, 10.000025 
5.549978e+2, 1.6538087e+2, -1407795.1, -1416796.9, -8451.413, 0.033348557, 0.19426079, -1402720.8, -83433.62, 0.0, 9.999646, 9.999525 
5.550057e+2, 1.7538044e+2, -1283786.8, -1306844.6, -7282.8003, 0.024579562, 0.19651072, -1281679.1, -60387.164, 0.0, 9.999827, 9.999519 
5.5501366e+2, 1.8537985e+2, -1206429.5, -1299201.3, -10781.901, 0.022072045, 0.22398579, -1205193.0, -81893.22, 0.0, 10.000031, 9.998801 
5.5502164e+2, 1.9537915e+2, -1075313.3, -1184670.5, -7930.4365, 0.029726634, 0.27152517, -1074741.3, -49431.23, 0.0, 10.000257, 9.998806 
5.550298e+2, 2.0537797e+2, -979471.0, -1134402.1, 8551.802, 0.021856649, 0.29458448, -979000.44, -51676.598, 0.0, 10.0004425, 9.998389 
5.55038e+2, 2.1537636e+2, -858069.06, -1023042.2, 3650.068, -0.0007029116, 0.29393485, -857988.4, -28647.568, 0.0, 10.000594, 9.998407 
5.5504644e+2, 2.253748e+2, -742319.06, -926910.1, 7729.156, -0.005487241, 0.30242366, -741996.0, -10638.944, 0.0, 10.000761, 9.998314 
5.550552e+2, 2.3537327e+2, -617869.6, -815672.25, 8010.9307, 0.0056370804, 0.31747344, -617545.7, 15826.929, 0.0, 10.00094, 9.998319 
5.5506396e+2, 2.4537154e+2, -524298.9, -762584.0, 15865.474, 0.00946137, 0.33166623, -523247.13, 12143.588, 0.0, 10.001095, 9.997935 
5.5507284e+2, 2.553696e+2, -405443.3, -652210.1, 12431.968, 0.0064092013, 0.34265795, -404818.56, 32592.42, 0.0, 10.001227, 9.997955 
5.550819e+2, 2.6536754e+2, -282600.94, -539750.06, 27917.396, 0.004021102, 0.338961, -279605.0, 59826.69, 0.0, 10.001389, 9.997978 
5.5509126e+2, 2.7536532e+2, -157277.2, -426792.13, 27832.955, 0.0026438516, 0.3198935, -154432.89, 87019.914, 0.0, 10.001568, 9.997994 
5.5510026e+2, 2.8536338e+2, -53551.582, -338700.53, 7015.6787, 0.0023737228, 0.33165047, -53379.08, 90092.52, 0.0, 10.001662, 9.997881 
5.55109e+2, 2.9536167e+2, 48246.418, -236992.47, 1349.1289, 0.0023483492, 0.36965293, 48252.8, 93740.97, 0.0, 10.00168, 9.997897 
5.551176e+2, 3.053591e+2, 133657.55, -112525.914, -5327.5356, -0.006955765, 0.29811192, 133772.78, 133772.78, 0.0, 10.00168, 9.998418 
5.55126e+2, 3.1535792e+2, 145091.77, -84188.03, -6423.7793, -0.02075426, 0.33607465, 145271.61, 145271.61, 0.0000000020600701, 10.00166, 9.998622 
5.6496334e+2, 1.253728e+2, -1832618.3, -1703930.0, -65623.72, 0.0064162975, 0.23899786, -1676368.5, 35000.6, 0.00000027083397, 9.998906, 10.000601 
5.6497324e+2, 1.3537277e+2, -1730381.4, -1649991.8, 24273.326, 0.08281907, 0.21500304, -1643231.0, -29862.104, 0.000000017878008, 9.999125, 10.000198 
5.649803e+2, 1.4537282e+2, -1616955.9, -1562018.1, -18670.764, -0.07626158, 0.20854743, -1556273.5, -40905.8, 0.0, 9.99931, 10.000035 
5.64989e+2, 1.5537275e+2, -1498097.8, -1454028.1, -21969.248, -0.007913971, 0.19803616, -1444947.4, -27580.307, 0.0, 9.999454, 10.000034 
5.649974e+2, 1.6537255e+2, -1415723.6, -1420200.0, -13938.002, 0.025896052, 0.1996136, -1403845.3, -84476.016, 0.0, 9.999591, 9.999528 
5.650054e+2, 1.7537218e+2, -1299132.9, -1313691.9, -12675.093, 0.016420491, 0.2088921, -1291795.6, -70421.875, 0.0, 9.99972, 9.999524 
5.650136e+2, 1.8537161e+2, -1219898.1, -1300397.8, -13060.122, 0.015935343, 0.23506904, -1217832.4, -94451.09, 0.0, 9.999916, 9.998848 
5.650219e+2, 1.9537087e+2, -1084993.5, -1184717.8, -10284.303, 0.027823532, 0.27419516, -1083944.0, -58552.816, 0.0, 10.00017, 9.998847 
5.650302e+2, 2.0536962e+2, -991083.44, -1148849.8, 6555.1787, 0.023041718, 0.2943034, -990811.56, -63406.156, 0.0, 10.000401, 9.99831 
5.650386e+2, 2.1536797e+2, -861025.0, -1033419.9, 5925.016, 0.0025902556, 0.29534152, -860821.56, -31398.209, 0.0, 10.000612, 9.998327 
5.6504726e+2, 2.2536638e+2, -744539.44, -934767.9, 8178.4463, -0.0028210005, 0.30662867, -744188.44, -12748.248, 0.0, 10.000775, 9.998253 
5.650561e+2, 2.3536482e+2, -628536.0, -827483.25, 3682.583, 0.005338139, 0.32546204, -628467.9, 4988.113, 0.0, 10.0008955, 9.998259 
5.650651e+2, 2.4536301e+2, -529994.44, -765862.56, 13611.806, 0.010087635, 0.33539298, -529211.5, 6263.0845, 0.0, 10.001058, 9.997931 
5.650741e+2, 2.5536096e+2, -402262.7, -651480.5, 17127.984, 0.011368611, 0.33509037, -401091.03, 36404.55, 0.0, 10.001253, 9.997949 
5.650833e+2, 2.653589e+2, -286558.72, -547335.94, 31236.662, 0.006454395, 0.33441436, -282869.3, 56647.098, 0.0, 10.001386, 9.997928 
5.650926e+2, 2.7535677e+2, -176430.5, -441523.94, 24828.678, -0.0034531346, 0.33075055, -174125.1, 67411.94, 0.0, 10.00146, 9.997945 
5.651018e+2, 2.8535482e+2, -70094.31, -348368.53, 3008.24, -0.0045591937, 0.3438954, -70061.8, 73494.375, 0.0, 10.001555, 9.997866 
5.651107e+2, 2.95353e+2, 45405.21, -239879.23, 4799.447, 0.0013632963, 0.37103736, 45485.934, 91059.73, 0.0, 10.001667, 9.997884 
5.6511927e+2, 3.0535042e+2, 132894.81, -109090.28, -4048.055, -0.0073444257, 0.30022064, 132962.52, 132962.52, 0.0, 10.001659, 9.998451 
5.651276e+2, 3.1534934e+2, 130407.76, -88370.13, -6765.919, -0.025445748, 0.34441993, 130616.805, 130616.805, 0.000000017271022, 10.001548, 9.998648 
5.749622e+2, 1.2536415e+2, -1827166.1, -1692164.0, -63338.766, 0.0025016158, 0.24477541, -1667100.5, 44354.145, 0.00000019303324, 9.998904, 10.000682 
5.749724e+2, 1.3536446e+2, -1725468.1, -1639701.6, 32185.28, 0.091288805, 0.24644713, -1628967.1, -15515.6, 0.000000007774616, 9.999124, 10.00027 
5.749797e+2, 1.4536451e+2, -1614922.1, -1557519.8, -13317.811, -0.06963757, 0.2362016, -1554580.5, -39130.387, 0.0, 9.999309, 10.000067 
5.7498837e+2, 1.5536423e+2, -1495948.1, -1449345.8, -16798.092, -0.016847135, 0.19962479, -1443922.0, -26470.613, 0.0, 9.999453, 10.000067 
5.7499677e+2, 1.65364e+2, -1415408.4, -1419427.1, -9264.415, 0.009432502, 0.1982315, -1407937.9, -88484.234, 0.0, 9.99959, 9.999534 
5.75005e+2, 1.7536381e+2, -1298807.9, -1313002.6, -7798.9033, -0.00033261869, 0.22496799, -1295360.4, -73903.586, 0.0, 9.99972, 9.999529 
5.7501334e+2, 1.8536326e+2, -1216573.0, -1293514.9, -3601.2188, 0.0035018672, 0.2507947, -1216404.8, -92941.03, 0.0, 9.999916, 9.998896 
5.75022e+2, 1.9536242e+2, -1081891.0, -1178251.9, -879.94196, 0.023775442, 0.27392185, -1081883.0, -56408.914, 0.0, 10.00017, 9.998892 
5.750306e+2, 2.0536111e+2, -992646.75, -1152032.0, 14422.902, 0.025238164, 0.28631893, -991352.1, -63863.426, 0.0, 10.000401, 9.998288 
5.750393e+2, 2.1535943e+2, -862939.0, -1037386.2, 13738.453, 0.008898168, 0.2871112, -861863.7, -32356.605, 0.0, 10.000612, 9.998301 
5.750481e+2, 2.253578e+2, -753320.7, -953100.0, 12696.7705, 0.004684262, 0.30454034, -752517.0, -20992.58, 0.0, 10.000775, 9.998127 
5.750571e+2, 2.3535626e+2, -636733.0, -844674.9, 8369.14, 0.011832126, 0.33468434, -636396.75, -2855.992, 0.0, 10.000896, 9.99814 
5.7506615e+2, 2.4535441e+2, -523777.16, -753130.2, 20980.709, 0.014757314, 0.34291914, -521873.7, 13685.672, 0.0, 10.001059, 9.998017 
5.750754e+2, 2.5535232e+2, -396708.03, -640025.3, 24292.63, 0.01373938, 0.32979745, -394306.38, 43273.594, 0.0, 10.001253, 9.998027 
5.750846e+2, 2.6535025e+2, -295829.9, -566570.94, 34030.336, 0.003975239, 0.33408242, -291618.06, 47982.71, 0.0, 10.001385, 9.997795 
5.75094e+2, 2.7534825e+2, -185235.19, -459711.53, 27782.254, -0.013468567, 0.35083154, -182451.33, 59170.426, 0.0, 10.001459, 9.99782 
5.751032e+2, 2.853462e+2, -64299.906, -336104.8, 7262.695, -0.01622672, 0.36029288, -64105.984, 79535.62, 0.0, 10.0015545, 9.997951 
5.751122e+2, 2.953442e+2, 50887.33, -228113.16, 8792.631, -0.0062466864, 0.36259428, 51164.152, 96824.41, 0.0, 10.001665, 9.997966 
5.75121e+2, 3.0534175e+2, 133690.98, -107325.41, -8267.043, -0.0069492315, 0.29466584, 133974.22, 133974.22, 0.00000000021282408, 10.001658, 9.998465 
5.751293e+2, 3.1534088e+2, 131003.43, -87518.73, -10853.228, -0.014895804, 0.3616492, 131541.16, 131541.16, 0.0000000699572, 10.001549, 9.998652 
5.84961e+2, 1.2535545e+2, -1854373.9, -1703389.9, -56667.965, 0.0017948142, 0.23838316, -1684487.5, 27052.387, 0.00000011738098, 9.99871, 10.000698 
5.8497137e+2, 1.3535589e+2, -1762283.5, -1656330.6, 39486.055, 0.08589894, 0.25349507, -1643234.0, -29698.307, 0.0000000014227642, 9.998866, 10.000279 
5.849788e+2, 1.4535598e+2, -1649225.4, -1570695.6, -8424.078, -0.074996896, 0.2448136, -1569802.1, -54267.95, 0.0, 9.999059, 10.000097 
5.849877e+2, 1.5535568e+2, -1519494.5, -1457444.5, -12312.264, -0.02255782, 0.20339012, -1455090.8, -37555.184, 0.0, 9.999277, 10.000096 
5.849963e+2, 1.6535544e+2, -1429247.1, -1430732.1, -6391.6616, 0.004891888, 0.20153211, -1423555.0, -104016.945, 0.0, 9.999515, 9.999493 
5.850047e+2, 1.7535526e+2, -1294556.4, -1315381.8, -8536.034, -0.0014290367, 0.23151837, -1291504.8, -69963.234, 0.0, 9.999768, 9.99949 
5.8501333e+2, 1.853547e+2, -1204993.1, -1283823.1, -5570.3047, 0.0021286078, 0.25609204, -1204601.5, -81053.055, 0.0, 9.999978, 9.998932 
5.850221e+2, 1.9535382e+2, -1082122.0, -1174507.5, -3809.079, 0.01856252, 0.2740589, -1081965.3, -56406.816, 0.0, 10.000152, 9.998926 
5.85031e+2, 2.0535253e+2, -1003842.44, -1161701.6, 10272.706, 0.022223076, 0.28697687, -1003176.75, -75603.78, 0.0, 10.000342, 9.99825 
5.850399e+2, 2.1535087e+2, -875051.1, -1047543.3, 8256.927, 0.01341507, 0.29331565, -874656.8, -45065.207, 0.0, 10.000547, 9.998261 
5.850489e+2, 2.253492e+2, -760092.75, -959676.3, 8485.282, 0.010705664, 0.31017917, -759732.7, -28123.293, 0.0, 10.000743, 9.998097 
5.85058e+2, 2.3534755e+2, -633949.75, -846504.6, 11250.777, 0.014025321, 0.3341756, -633355.9, 270.4885, 0.0, 10.000929, 9.998112 
5.850672e+2, 2.4534568e+2, -517848.0, -748494.75, 24939.012, 0.013018478, 0.3418836, -515182.25, 20462.627, 0.0, 10.001091, 9.998034 
5.850765e+2, 2.5534365e+2, -399181.38, -639662.75, 22730.986, 0.008061162, 0.33338392, -397051.63, 40613.09, 0.0, 10.001229, 9.998041 
5.850859e+2, 2.653416e+2, -308808.28, -574842.56, 30164.652, -0.002906792, 0.33868393, -305430.9, 34254.617, 0.0, 10.001305, 9.997778 
5.8509535e+2, 2.7533954e+2, -206309.06, -471743.03, 32414.66, -0.019259665, 0.35309675, -202407.94, 39299.223, 0.0, 10.001323, 9.997804 
5.851047e+2, 2.8533757e+2, -80569.21, -339690.7, 17438.416, -0.022086645, 0.3625067, -79400.91, 64326.15, 0.0, 10.001424, 9.997989 
5.851138e+2, 2.953356e+2, 43466.02, -227610.72, 15234.52, -0.013039544, 0.36690658, 44319.516, 90064.69, 0.0, 10.001596, 9.998003 
5.851226e+2, 3.0533317e+2, 135612.16, -107039.305, -11294.268, -0.010440843, 0.30228174, 136136.72, 136136.72, 0.000000006848287, 10.001675, 9.998458 
5.8513093e+2, 3.153323e+2, 148385.25, -80589.016, -15113.485, -0.011754697, 0.36883178, 149378.5, 149378.5, 0.00000018333391, 10.001675, 9.99864 
5.9495974e+2, 1.2534669e+2, -1858321.5, -1711048.4, -56605.934, 0.0033120003, 0.21919005, -1691805.6, 19819.22, 0.000000058921596, 9.998708, 10.000647 
5.9497005e+2, 1.353471e+2, -1766106.9, -1664151.0, 45223.492, 0.06636893, 0.23584305, -1646982.6, -33361.047, 0.000000000010343272, 9.998865, 10.000226 
5.9497774e+2, 1.4534722e+2, -1647434.0, -1566779.9, -353.60263, -0.092627846, 0.2340575, -1566778.3, -51158.438, 0.0, 9.999058, 10.000125 
5.9498686e+2, 1.5534714e+2, -1517869.3, -1453952.9, -4273.0444, -0.025262324, 0.20928998, -1453668.5, -36048.945, 0.0, 9.999276, 10.00012 
5.9499586e+2, 1.6534688e+2, -1435555.9, -1443748.4, 2974.178, 0.01210479, 0.2096049, -1434590.0, -114967.64, 0.0, 9.999514, 9.999404 
5.950046e+2, 1.7534648e+2, -1300519.0, -1327686.5, 769.6282, 0.0129371, 0.22863282, -1300497.3, -78869.33, 0.0, 9.999767, 9.999405 
5.950134e+2, 1.8534589e+2, -1203278.6, -1280287.4, 828.2178, 0.011630141, 0.25099307, -1203269.6, -79634.38, 0.0, 9.999978, 9.998957 
5.9502214e+2, 1.9534509e+2, -1080564.9, -1171389.4, 2632.0215, 0.012150597, 0.2745778, -1080488.6, -54844.504, 0.0, 10.000153, 9.998947 
5.9503126e+2, 2.0534386e+2, -1007605.2, -1169614.5, 17911.068, 0.013950606, 0.29618463, -1005648.6, -77990.336, 0.0, 10.000342, 9.998196 
5.9504044e+2, 2.1534224e+2, -878634.4, -1055028.3, 15926.38, 0.015986698, 0.3137144, -877207.94, -47531.016, 0.0, 10.000547, 9.99821 
5.950497e+2, 2.2534052e+2, -755613.4, -950398.56, 15481.565, 0.015138264, 0.32341135, -754390.56, -22695.428, 0.0, 10.000743, 9.998161 
5.950589e+2, 2.3533872e+2, -629764.75, -837881.6, 18157.176, 0.011954455, 0.32421902, -628192.56, 5520.3364, 0.0, 10.00093, 9.998171 
5.950682e+2, 2.4533686e+2, -521618.9, -756351.5, 30088.297, 0.004933423, 0.33250087, -517823.53, 17907.637, 0.0, 10.001091, 9.99798 
5.9507763e+2, 2.55335e+2, -402821.94, -647103.9, 27734.621, -0.0055901455, 0.34554648, -399712.66, 38037.234, 0.0, 10.001228, 9.997991 
5.950872e+2, 2.6533294e+2, -302308.5, -561257.5, 30786.734, -0.014268321, 0.34809288, -298698.53, 41072.12, 0.0, 10.001304, 9.997871 
5.950967e+2, 2.7533072e+2, -200094.86, -458865.0, 33262.156, -0.021160979, 0.33828992, -195887.77, 45905.52, 0.0, 10.001323, 9.997892 
5.9510607e+2, 2.853288e+2, -81217.89, -340868.75, 23899.83, -0.022566754, 0.35113275, -79036.336, 64776.23, 0.0, 10.001423, 9.997982 
5.9511536e+2, 2.9532713e+2, 42515.926, -228966.33, 21501.164, -0.019305278, 0.38333902, 44208.25, 90036.91, 0.0, 10.001594, 9.997995 
5.951241e+2, 3.053247e+2, 133723.8, -110401.09, -11373.193, -0.017943539, 0.32246482, 134252.5, 134252.5, 0.000000033052434, 10.001672, 9.998437 
5.951325e+2, 3.1532362e+2, 146228.0, -84855.78, -14989.256, -0.015982034, 0.36602643, 147196.22, 147196.22, 0.00000037488923, 10.001674, 9.998611 
6.0495824e+2, 1.2533788e+2, -1895768.0, -1726904.8, -64568.61, -0.0020405296, 0.21633656, -1705045.3, 6665.254, 0.000000021349177, 9.998442, 10.000666 
6.049688e+2, 1.3533822e+2, -1763892.3, -1661571.1, 47874.395, 0.061247878, 0.22223444, -1642664.9, -28956.768, 0.0, 9.998874, 10.00024 
6.0497683e+2, 1.4533836e+2, -1635004.5, -1569883.5, -2534.5442, -0.0937476, 0.22547168, -1569785.0, -54078.465, 0.0, 9.999182, 10.000044 
6.049862e+2, 1.553384e+2, -1507787.0, -1457921.5, -14830.264, -0.028132688, 0.2241757, -1453844.3, -36138.73, 0.0, 9.999384, 10.000042 
6.0499537e+2, 1.6533814e+2, -1431835.4, -1446007.1, -9728.709, 0.010663124, 0.22865519, -1426885.6, -107176.85, 0.0, 9.9995575, 9.999367 
6.050044e+2, 1.7533758e+2, -1312331.3, -1337247.5, -8098.71, 0.016872419, 0.23484348, -1309930.3, -88214.516, 0.0, 9.999703, 9.999371 
6.050134e+2, 1.853369e+2, -1211330.5, -1285293.0, -6264.5684, 0.015228179, 0.25133643, -1210803.6, -87079.86, 0.0, 9.9999275, 9.998946 
6.050223e+2, 1.953361e+2, -1070617.5, -1167602.5, -7275.725, 0.009970298, 0.27522126, -1070074.8, -44341.99, 0.0, 10.000225, 9.998938 
6.0503155e+2, 2.0533495e+2, -993597.3, -1160396.5, 7219.9976, 0.011057627, 0.30319345, -993285.4, -65539.15, 0.0, 10.000428, 9.998218 
6.05041e+2, 2.1533346e+2, -876978.94, -1051885.4, 10952.851, 0.016988184, 0.33232003, -876295.7, -46532.098, 0.0, 10.000549, 9.998231 
6.0505044e+2, 2.2533172e+2, -759763.1, -951139.0, 12058.074, 0.014395158, 0.33762702, -759006.4, -27224.557, 0.0, 10.00071, 9.998173 
6.0505974e+2, 2.3532973e+2, -633155.2, -838505.2, 10581.949, 0.0045057684, 0.32000726, -632611.3, 1189.4481, 0.0, 10.000902, 9.99818 
6.050692e+2, 2.4532783e+2, -532379.5, -761432.2, 19294.23, -0.0019916578, 0.32364845, -530765.6, 5053.7544, 0.0, 10.001017, 9.997981 
6.050788e+2, 2.5532603e+2, -426865.06, -658428.44, 20919.588, -0.0057311733, 0.34418163, -424990.38, 12847.23, 0.0, 10.001062, 9.997993 
6.0508835e+2, 2.6532403e+2, -317778.88, -560123.5, 24866.768, -0.0107683195, 0.34732908, -315253.63, 24604.23, 0.0, 10.001161, 9.997948 
6.05098e+2, 2.7532184e+2, -197907.27, -449611.2, 26058.867, -0.016671745, 0.33220652, -195237.72, 46642.195, 0.0, 10.001302, 9.997966 
6.051075e+2, 2.8531995e+2, -88405.086, -343120.03, 17065.92, -0.02058139, 0.34594965, -87266.76, 56632.055, 0.0, 10.0013685, 9.9979925 
6.0511684e+2, 2.9531837e+2, 10787.686, -243096.52, 16013.086, -0.023111334, 0.38430598, 11793.683, 57708.387, 0.00000000003092486, 10.00137, 9.998005 
6.0512567e+2, 3.0531603e+2, 109378.4, -117289.57, -13007.78, -0.022369705, 0.32905865, 110122.44, 110122.44, 0.00000008707832, 10.001484, 9.99848 
6.051342e+2, 3.1531498e+2, 152107.58, -78038.59, -12154.459, -0.015868668, 0.37310672, 152747.69, 152747.69, 0.0000006525611, 10.001697, 9.998647 
6.1495656e+2, 1.2532908e+2, -1889775.3, -1714044.4, -53880.582, -0.015302931, 0.22966816, -1698839.8, 12957.326, 0.0000000039655865, 9.99844, 10.000754 
6.1496776e+2, 1.3532926e+2, -1758270.1, -1650039.3, 63528.86, 0.07055741, 0.21273832, -1620701.8, -6906.6284, 0.0, 9.998874, 10.0003195 
6.149761e+2, 1.4532937e+2, -1648409.9, -1597639.9, 4788.134, -0.078240626, 0.21899746, -1597192.3, -81398.13, 0.0, 9.999182, 9.999853 
6.149855e+2, 1.5532954e+2, -1520779.1, -1484746.3, -7524.784, -0.031226102, 0.24803412, -1483238.0, -65444.516, 0.0, 9.999383, 9.999858 
6.149948e+2, 1.6532925e+2, -1430762.8, -1443705.6, -4431.0747, 0.00048546068, 0.2587026, -1429391.1, -109593.88, 0.0, 9.999557, 9.999383 
6.15004e+2, 1.7532857e+2, -1311363.4, -1335240.1, -2629.9006, 0.010324127, 0.25017422, -1311077.1, -89272.234, 0.0, 9.999702, 9.999385 
6.1501324e+2, 1.8532777e+2, -1214515.9, -1291938.3, 4743.5366, 0.012804253, 0.25717616, -1214226.4, -90412.33, 0.0, 9.9999275, 9.9989 
6.150226e+2, 1.9532688e+2, -1073531.6, -1173616.8, 3588.8706, 0.011838242, 0.27600464, -1073403.1, -47578.945, 0.0, 10.000224, 9.998897 
6.15032e+2, 2.053258e+2, -986796.6, -1146267.4, 11642.42, 0.013404417, 0.3080226, -985951.1, -58114.313, 0.0, 10.000428, 9.998314 
6.1504155e+2, 2.1532452e+2, -870451.06, -1038434.0, 15536.871, 0.016373599, 0.3491971, -869026.1, -39174.563, 0.0, 10.000549, 9.998323 
6.150511e+2, 2.2532278e+2, -762737.2, -957349.75, 19271.256, 0.008482629, 0.35282937, -760847.25, -28977.807, 0.0, 10.00071, 9.99813 
6.150605e+2, 2.3532061e+2, -636079.6, -844454.44, 17634.152, -0.008320319, 0.32140127, -634597.9, -707.80304, 0.0, 10.000901, 9.998139 
6.150701e+2, 2.4531864e+2, -528710.5, -753730.9, 20882.174, -0.0079524135, 0.31534234, -526789.06, 9120.451, 0.0, 10.001017, 9.9980345 
6.1507994e+2, 2.5531682e+2, -423089.4, -650650.4, 22623.828, 0.0071530547, 0.3297314, -420861.97, 17065.834, 0.0, 10.001062, 9.998047 
6.150897e+2, 2.653149e+2, -313610.53, -551441.0, 30120.14, 0.0070532127, 0.3367113, -309855.25, 30091.79, 0.0, 10.00116, 9.998008 
6.1509943e+2, 2.7531293e+2, -194131.89, -441299.97, 31178.834, -0.0062142033, 0.33450443, -190259.53, 51707.523, 0.0, 10.0013, 9.998024 
6.151089e+2, 2.8531107e+2, -86707.83, -339038.94, 16981.365, -0.016507762, 0.34676024, -85570.15, 58415.652, 0.0, 10.001366, 9.998022 
6.1511815e+2, 2.9530933e+2, 12643.094, -238882.73, 16353.534, -0.024712646, 0.37060475, 13701.899, 59705.12, 0.0000000010306047, 10.0013685, 9.998035 
6.1512715e+2, 3.0530715e+2, 116361.6, -102634.5, -5014.673, -0.02397695, 0.32274675, 116476.37, 116476.37, 0.00000016756015, 10.001483, 9.998581 
6.151359e+2, 3.1530643e+2, 158577.7, -64497.766, -4494.5464, -0.012326838, 0.38925144, 158668.22, 158668.22, 0.000001002472, 10.001696, 9.99874 
6.24955e+2, 1.2531987e+2, -1869054.3, -1701659.3, -70922.23, -0.016871294, 0.23662704, -1675651.5, 36236.07, 0.00000000008306351, 9.998572, 10.000776 
6.249666e+2, 1.3531998e+2, -1760893.8, -1649042.4, 46361.918, 0.070212126, 0.21187878, -1632324.4, -18438.758, 0.0, 9.998845, 10.0003395 
6.249753e+2, 1.4532006e+2, -1662184.6, -1611838.3, -13870.675, -0.07188077, 0.21491951, -1608269.8, -92384.375, 0.0, 9.99912, 9.999785 
6.24985e+2, 1.5532021e+2, -1523607.0, -1493608.0, -17111.332, -0.026159594, 0.2506026, -1485852.6, -67967.336, 0.0, 9.999395, 9.999791 
6.2499446e+2, 1.6531992e+2, -1422155.1, -1442902.3, -13946.291, 0.0008274586, 0.26606643, -1415147.4, -95257.97, 0.0, 9.99963, 9.999353 
6.250037e+2, 1.7531924e+2, -1295027.9, -1330796.8, -15746.501, 0.0037076247, 0.26065758, -1289083.6, -67186.59, 0.0, 9.999829, 9.999353 
6.250132e+2, 1.8531843e+2, -1203489.0, -1288455.4, -6781.1123, 0.0069671553, 0.2677492, -1202951.3, -79044.83, 0.0, 10.000011, 9.998884 
6.2502277e+2, 1.9531748e+2, -1081304.8, -1178791.3, -5889.5513, 0.013263482, 0.2840092, -1080950.3, -55033.023, 0.0, 10.000177, 9.998884 
6.250324e+2, 2.0531641e+2, -988160.06, -1134934.6, 1235.0314, 0.015289034, 0.31215402, -988149.7, -60220.316, 0.0, 10.000367, 9.998422 
6.2504214e+2, 2.1531521e+2, -858845.94, -1021403.25, 5717.459, 0.012741011, 0.3483029, -858645.06, -28702.299, 0.0, 10.00058, 9.9984255 
6.250517e+2, 2.2531344e+2, -766717.94, -964087.75, 7874.883, 0.00425967, 0.34846026, -766404.25, -34443.71, 0.0, 10.000703, 9.998087 
6.250613e+2, 2.3531121e+2, -661805.6, -861462.9, 6226.209, -0.008785938, 0.31492782, -661611.6, -27629.55, 0.0, 10.000745, 9.998098 
6.250711e+2, 2.4530926e+2, -549683.56, -760669.44, 8365.869, -0.005957029, 0.31275818, -549352.4, -13350.893, 0.0, 10.000858, 9.998062 
6.2508106e+2, 2.5530759e+2, -424914.88, -648095.8, 8140.6406, 0.010542082, 0.33618426, -424618.34, 13400.637, 0.0, 10.001036, 9.998077 
6.250909e+2, 2.6530573e+2, -315094.63, -541551.7, 14095.984, 0.011043338, 0.34363526, -314220.56, 25816.885, 0.0, 10.001104, 9.998102 
6.251007e+2, 2.7530378e+2, -219957.31, -443286.94, 17676.684, -0.0024571945, 0.33445612, -218566.84, 23489.912, 0.0, 10.001078, 9.998117 
6.2511015e+2, 2.8530198e+2, -115051.72, -344920.44, 6723.734, -0.013450902, 0.34488192, -114855.21, 29219.549, 0.0, 10.001138, 9.998091 
6.251195e+2, 2.9530033e+2, 3795.2324, -235641.48, 9183.4, -0.02256111, 0.3714708, 4146.9375, 50238.344, 0.000000004235602, 10.001276, 9.998102 
6.251287e+2, 3.052982e+2, 112601.6, -106617.87, -9693.129, -0.023162458, 0.3275694, 113029.37, 113029.37, 0.000000262113, 10.001467, 9.998561 
6.251376e+2, 3.1529745e+2, 158953.47, -67157.29, -18240.986, -0.01365334, 0.3943621, 160415.56, 160415.56, 0.0000013873902, 10.001711, 9.998714 
6.3495374e+2, 1.2531023e+2, -1872215.3, -1708278.1, -66066.92, -0.007427671, 0.23676665, -1684967.6, 27014.697, 0.0, 9.998572, 10.0007305 
6.349654e+2, 1.3531038e+2, -1763609.1, -1654801.4, 56159.023, 0.060015634, 0.21968949, -1631015.6, -17035.984, 0.0, 9.998845, 10.0003 
6.349744e+2, 1.4531037e+2, -1658352.9, -1603752.4, -3736.5552, -0.07495858, 0.21331415, -1603497.9, -87517.82, 0.0, 9.999119, 9.999842 
6.349845e+2, 1.5531042e+2, -1520085.3, -1486202.9, -7092.6294, -0.013155185, 0.23184144, -1484778.1, -66797.02, 0.0, 9.999395, 9.999842 
6.3499415e+2, 1.6531014e+2, -1427696.4, -1454316.3, -6665.5757, 0.011525723, 0.25067824, -1426120.6, -106135.484, 0.0, 9.999629, 9.999275 
6.350035e+2, 1.753096e+2, -1300408.6, -1341895.3, -8432.199, -0.003045015, 0.26624712, -1298760.3, -76768.195, 0.0, 9.999829, 9.999278 
6.3501304e+2, 1.8530884e+2, -1202670.9, -1286805.5, -713.54224, -0.0023627344, 0.28302592, -1202664.9, -78663.805, 0.0, 10.000011, 9.998896 
6.3502294e+2, 1.9530791e+2, -1080234.1, -1176693.6, 288.19128, 0.014111304, 0.2992011, -1080233.3, -54221.484, 0.0, 10.000177, 9.9988985 
6.350328e+2, 2.0530678e+2, -979978.94, -1118064.8, 9068.698, 0.016562643, 0.31567588, -979385.94, -51362.035, 0.0, 10.000367, 9.998537 
6.350426e+2, 2.1530548e+2, -851189.5, -1005489.06, 13464.347, 0.0059940177, 0.32998782, -850023.4, -19986.178, 0.0, 10.00058, 9.998534 
6.350524e+2, 2.253037e+2, -769807.06, -970467.56, 9321.94, 0.0015221403, 0.32489297, -769374.94, -37319.926, 0.0, 10.000702, 9.998043 
6.3506216e+2, 2.3530151e+2, -664696.6, -867578.7, 7899.3574, 0.0027360008, 0.30076662, -664389.56, -30312.75, 0.0, 10.000745, 9.998056 
6.35072e+2, 2.4529973e+2, -549545.44, -760442.5, 14938.382, 0.003724174, 0.31572902, -548492.6, -12397.218, 0.0, 10.000858, 9.998064 
6.35082e+2, 2.552983e+2, -424713.9, -647384.3, 14523.264, 0.0045559644, 0.36291546, -423770.63, 14340.502, 0.0, 10.001034, 9.998083 
6.350919e+2, 2.652965e+2, -306275.53, -522920.5, 12964.883, 0.0014296925, 0.36762235, -305502.4, 34626.684, 0.0, 10.001102, 9.998232 
6.351017e+2, 2.7529436e+2, -211056.52, -424731.84, 16800.598, -0.005255703, 0.33222997, -209743.61, 32405.352, 0.0, 10.001077, 9.998245 
6.3511133e+2, 2.8529266e+2, -107661.414, -329598.56, 11791.575, -0.011488255, 0.34041235, -107036.68, 37128.984, 0.0, 10.001138, 9.998197 
6.351208e+2, 2.9529136e+2, 10693.802, -221139.02, 14210.047, -0.017102838, 0.38629025, 11561.55, 57740.895, 0.000000008608103, 10.001275, 9.998202 
6.351301e+2, 3.052892e+2, 103044.24, -126348.95, -916.1585, -0.020321192, 0.34311646, 103047.9, 103047.9, 0.00000035003856, 10.001466, 9.998426 
6.351393e+2, 3.152881e+2, 149192.31, -87469.29, -9409.689, -0.019951213, 0.3885427, 149565.86, 149565.86, 0.0000017531521, 10.001711, 9.998575 
6.4495236e+2, 1.253004e+2, -1854989.4, -1703715.4, -69723.125, -0.008222796, 0.23150653, -1676482.3, 35596.07, 0.0, 9.998707, 10.000697 
6.449642e+2, 1.3530055e+2, -1737569.9, -1645225.9, 58011.5, 0.051363956, 0.2157335, -1617254.9, -3179.09, 0.0, 9.999037, 10.000275 
6.4497364e+2, 1.4530048e+2, -1640692.6, -1597981.8, -8114.3066, -0.07377684, 0.20685442, -1596492.1, -80415.46, 0.0, 9.999251, 9.999817 
6.4498395e+2, 1.5530051e+2, -1524354.8, -1491028.9, -17459.1, -0.0040774997, 0.22610974, -1483557.4, -65479.363, 0.0, 9.999378, 9.999817 
6.4499384e+2, 1.6530025e+2, -1430154.5, -1456524.1, -14718.011, 0.020221967, 0.24701974, -1423579.3, -103497.09, 0.0, 9.999618, 9.999266 
6.450034e+2, 1.7529972e+2, -1282980.6, -1334766.1, -11591.545, -0.00072790455, 0.26569176, -1280504.4, -58415.508, 0.0, 9.999954, 9.999267 
6.450131e+2, 1.8529896e+2, -1178748.3, -1278248.5, -7071.1265, -0.0052548605, 0.28600973, -1178248.3, -54150.28, 0.0, 10.000189, 9.998869 
6.450231e+2, 1.9529805e+2, -1058914.4, -1169247.6, -9099.713, 0.006523272, 0.30627918, -1058168.9, -32060.076, 0.0, 10.000337, 9.998873 
6.450331e+2, 2.0529692e+2, -965962.5, -1103269.9, -4555.306, 0.01053606, 0.31996885, -965811.5, -37690.703, 0.0, 10.000429, 9.998609 
6.4504313e+2, 2.152956e+2, -861964.5, -1002949.3, -3500.0474, 0.0073598144, 0.3254034, -861877.7, -31743.879, 0.0, 10.000473, 9.998604 
6.450531e+2, 2.2529387e+2, -787090.6, -976464.3, -7797.109, 0.007332184, 0.31955227, -786770.1, -54618.97, 0.0, 10.000574, 9.998064 
6.45063e+2, 2.3529176e+2, -665984.1, -865880.6, -4497.766, 0.010078099, 0.30169302, -665882.94, -31710.527, 0.0, 10.000726, 9.998076 
6.4507294e+2, 2.4529003e+2, -555640.9, -760840.6, 5496.4746, 0.009125434, 0.31991643, -555493.75, -19303.057, 0.0, 10.000806, 9.998086 
6.4508295e+2, 2.552886e+2, -454042.06, -658772.44, 6397.568, 0.0050392263, 0.36781752, -453842.34, -15636.015, 0.0, 10.000821, 9.998107 
6.450929e+2, 2.6528683e+2, -328395.88, -520919.28, 3311.4263, -0.0006240218, 0.37019223, -328338.94, 11884.708, 0.0, 10.000896, 9.998344 
6.451027e+2, 2.752848e+2, -210873.33, -412402.84, 6039.4453, -0.007693357, 0.32958367, -210692.5, 31549.887, 0.0, 10.001026, 9.998354 
6.4511245e+2, 2.8528312e+2, -110931.84, -336421.88, -3044.4092, -0.010999915, 0.33612174, -110890.75, 33368.145, 0.0, 10.001138, 9.998149 
6.451221e+2, 2.9528174e+2, 1800.2174, -230628.69, -11658.058, -0.01068878, 0.38373148, 2383.493, 48656.684, 0.000000011710588, 10.001236, 9.998156 
6.4513165e+2, 3.0527964e+2, 98901.25, -129700.914, -21786.787, -0.014809284, 0.343768, 100959.1, 100959.1, 0.00000040808163, 10.001443, 9.998414 
6.45141e+2, 3.152785e+2, 153478.45, -87269.55, -21576.455, -0.02145836, 0.3890157, 155396.89, 155396.89, 0.0000020407565, 10.001749, 9.998558 
6.549509e+2, 1.2529038e+2, -1856488.0, -1706925.4, -62120.777, -0.020255474, 0.22007915, -1684489.3, 27686.406, 0.0, 9.998708, 10.000674 
6.549632e+2, 1.3529047e+2, -1738421.1, -1647305.3, 69721.836, 0.04400965, 0.19993621, -1609576.6, 4597.1865, 0.0, 9.999038, 10.000259 
6.54973e+2, 1.4529039e+2, -1648101.9, -1613365.9, -3828.371, -0.068493225, 0.19545688, -1612948.9, -96773.78, 0.0, 9.999251, 9.999712 
6.549834e+2, 1.552905e+2, -1531507.9, -1505762.9, -12736.161, 0.0010533337, 0.23344807, -1500527.1, -82351.0, 0.0, 9.999377, 9.999717 
6.5499353e+2, 1.6529022e+2, -1426179.9, -1448157.1, -2182.219, 0.026866218, 0.2552038, -1425965.3, -105784.92, 0.0, 9.999617, 9.999324 
6.550034e+2, 1.752896e+2, -1279274.3, -1326972.0, 721.3269, 0.010408478, 0.25904962, -1279263.3, -57075.777, 0.0, 9.999953, 9.999321 
6.550134e+2, 1.8528882e+2, -1183459.4, -1287983.5, -1767.41, -0.0018875971, 0.27678016, -1183429.5, -59232.53, 0.0, 10.000188, 9.998802 
6.5502334e+2, 1.9528791e+2, -1063542.5, -1178831.4, -3797.1946, -0.009414313, 0.30534577, -1063417.5, -37209.273, 0.0, 10.000336, 9.998807 
6.5503347e+2, 2.0528683e+2, -963981.9, -1099266.8, -3078.6692, -0.0027632748, 0.32499027, -963911.8, -35691.734, 0.0, 10.000429, 9.998636 
6.550437e+2, 2.1528557e+2, -859875.44, -998870.0, -1851.8763, 0.016607938, 0.3342485, -859850.75, -29618.287, 0.0, 10.000474, 9.9986315 
6.550538e+2, 2.2528392e+2, -781200.75, -964431.4, -2146.4978, 0.02148536, 0.33203778, -781175.56, -48926.68, 0.0, 10.000574, 9.998146 
6.5506375e+2, 2.3528193e+2, -660299.9, -854162.2, 1004.5176, 0.013274565, 0.31737897, -660294.6, -26025.666, 0.0, 10.000727, 9.9981575 
6.550737e+2, 2.4528015e+2, -552727.2, -754897.94, 5900.0313, 0.0102274325, 0.32538712, -552555.1, -16267.691, 0.0, 10.000807, 9.998127 
6.550838e+2, 2.5527856e+2, -451066.66, -652833.0, 6959.5894, 0.011702601, 0.35165545, -450826.88, -12522.392, 0.0, 10.000822, 9.998148 
6.550938e+2, 2.6527685e+2, -321525.28, -506884.3, 8025.5635, 0.004557933, 0.35203773, -321178.47, 19142.553, 0.0, 10.000897, 9.998441 
6.551037e+2, 2.7527505e+2, -204653.02, -399445.8, 10656.06, -0.009955715, 0.32655278, -204071.81, 38265.254, 0.0, 10.001025, 9.998444 
6.551136e+2, 2.8527328e+2, -124633.84, -364707.06, 315.68854, -0.012140854, 0.3321778, -124633.43, 19720.977, 0.0, 10.001138, 9.997955 
6.551234e+2, 2.952716e+2, -11483.36, -258010.55, -7770.9883, -0.003456219, 0.36467707, -11238.647, 35134.082, 0.000000011654482, 10.001235, 9.997968 
6.551332e+2, 3.0526948e+2, 105914.33, -114908.46, -10311.945, -0.00689033, 0.33025175, 106394.83, 106394.83, 0.00000041978168, 10.001442, 9.998516 
6.551428e+2, 3.1526864e+2, 159921.61, -73398.19, -10380.318, -0.018834544, 0.39489752, 160382.52, 160382.52, 0.0000022012798, 10.001746, 9.998654 
6.6494966e+2, 1.2528011e+2, -1831916.4, -1704445.4, -72955.586, -0.027056975, 0.20760474, -1671306.1, 40969.63, 0.0, 9.998917, 10.00059 
6.649623e+2, 1.3528025e+2, -1726883.6, -1649563.8, 58130.03, 0.04614234, 0.20162141, -1618411.9, -4138.0996, 0.0, 9.99915, 10.00019 
6.6497236e+2, 1.4528015e+2, -1628137.5, -1608053.5, -17549.57, -0.05764166, 0.19948894, -1597876.0, -81600.45, 0.0, 9.999408, 9.999673 
6.649829e+2, 1.5528022e+2, -1487319.3, -1488654.3, -21351.732, -0.0010914756, 0.23573853, -1466624.6, -48347.74, 0.0, 9.999699, 9.999679 
6.649932e+2, 1.6527988e+2, -1388922.1, -1432210.4, -11302.041, 0.022427887, 0.25488463, -1386149.0, -65867.48, 0.0, 9.999881, 9.999306 
6.650034e+2, 1.752792e+2, -1278834.8, -1328779.3, -14330.486, 0.014160734, 0.25545022, -1275015.1, -52725.94, 0.0, 9.999966, 9.999302 
6.6501355e+2, 1.8527842e+2, -1196206.4, -1294117.1, -18561.299, 0.0018646986, 0.27245733, -1192805.8, -68506.875, 0.0, 10.000101, 9.998802 
6.6502357e+2, 1.9527753e+2, -1071329.0, -1182591.5, -15706.078, -0.013319852, 0.30255198, -1069154.4, -42844.277, 0.0, 10.000283, 9.998807 
6.650338e+2, 2.0527647e+2, -961019.7, -1094827.6, -15448.649, -0.007962285, 0.3245724, -959259.25, -30937.465, 0.0, 10.000437, 9.998663 
6.650442e+2, 2.1527527e+2, -844078.8, -988108.06, -14284.406, 0.015842486, 0.33703044, -842675.8, -12342.078, 0.0, 10.000568, 9.998659 
6.650544e+2, 2.2527371e+2, -764331.1, -948360.9, -14583.104, 0.022903737, 0.33812916, -763182.7, -30833.305, 0.0, 10.000656, 9.998218 
6.6506445e+2, 2.3527183e+2, -658673.1, -845442.44, -12391.036, 0.014963619, 0.3267552, -657854.6, -23486.164, 0.0, 10.000704, 9.998228 
6.650745e+2, 2.4527004e+2, -551357.25, -745558.2, -7980.73, 0.012388767, 0.32775787, -551029.9, -14643.265, 0.0, 10.000779, 9.998204 
6.650847e+2, 2.5526837e+2, -437647.06, -638125.5, -4190.788, 0.014419929, 0.337977, -437559.5, 844.2814, 0.0, 10.000878, 9.99822 
6.650948e+2, 2.652667e+2, -316428.72, -509009.84, -6013.1377, 0.006740016, 0.34044024, -316241.16, 24178.87, 0.0, 10.000953, 9.998399 
6.651047e+2, 2.7526504e+2, -210990.38, -407099.47, -13583.105, -0.009305262, 0.33318475, -210054.03, 32381.3, 0.0, 10.001002, 9.998402 
6.651147e+2, 2.8526324e+2, -133639.94, -369844.66, -21331.416, -0.010156221, 0.33931506, -131728.98, 12724.084, 0.0, 10.00108, 9.997948 
6.651247e+2, 2.9526138e+2, -19767.445, -262824.03, -15680.754, 0.002301111, 0.3562185, -18759.98, 27712.828, 0.000000008469742, 10.001183, 9.99796 
6.651346e+2, 3.052593e+2, 95040.03, -118322.61, -8738.929, -0.0018432224, 0.3220954, 95397.36, 95397.36, 0.00000038345433, 10.00136, 9.998532 
6.651444e+2, 3.1525856e+2, 139664.81, -82049.016, -15393.897, -0.01828272, 0.39717957, 140728.53, 140728.53, 0.000002213461, 10.001603, 9.998664 
6.749486e+2, 1.2526959e+2, -1842149.3, -1725978.0, -68429.79, -0.02985668, 0.19352622, -1694305.3, 18073.38, 0.0, 9.998919, 10.000442 
6.7496157e+2, 1.3526994e+2, -1735543.6, -1667921.9, 66429.87, 0.05783293, 0.22088298, -1627193.5, -12817.914, 0.0, 9.999151, 10.000063 
6.7497194e+2, 1.452698e+2, -1626118.0, -1604012.5, -6950.8535, -0.041184865, 0.21906398, -1602008.6, -85630.695, 0.0, 9.999408, 9.999701 
6.749825e+2, 1.5526965e+2, -1485532.9, -1484977.9, -10802.016, -0.010878585, 0.23306337, -1474449.8, -56069.586, 0.0, 9.999699, 9.999704 
6.74993e+2, 1.6526923e+2, -1395600.5, -1446025.9, -8327.861, 0.0065048626, 0.24608697, -1394260.8, -73875.19, 0.0, 9.999881, 9.999211 
6.7500335e+2, 1.7526855e+2, -1285224.8, -1342068.1, -11231.597, 0.010450423, 0.25487688, -1283086.0, -60692.156, 0.0, 9.999966, 9.999211 
6.7501366e+2, 1.8526775e+2, -1191566.4, -1284608.8, -11903.364, 0.005896517, 0.27303398, -1190067.6, -65664.12, 0.0, 10.000101, 9.998867 
6.750239e+2, 1.9526687e+2, -1066806.3, -1173257.3, -9088.623, -0.0055119377, 0.29790127, -1066035.9, -39621.324, 0.0, 10.000283, 9.998871 
6.750342e+2, 2.0526585e+2, -959233.44, -1091162.3, -10649.352, -0.005268727, 0.31876948, -958379.4, -29953.545, 0.0, 10.000437, 9.998689 
6.7504466e+2, 2.1526471e+2, -842179.06, -984223.0, -9506.695, 0.005148354, 0.33391187, -841545.6, -11108.134, 0.0, 10.000568, 9.998686 
6.750549e+2, 2.2526321e+2, -760144.56, -939794.44, -12859.273, 0.0116587, 0.3380343, -759228.75, -26776.17, 0.0, 10.000656, 9.998276 
6.750651e+2, 2.3526141e+2, -654372.25, -836738.4, -10624.958, 0.0150391245, 0.32995284, -653755.3, -19284.422, 0.0, 10.000704, 9.998287 
6.7507535e+2, 2.4525969e+2, -543437.6, -729328.1, -4353.66, 0.015476985, 0.32706526, -543335.75, -6847.668, 0.0, 10.000779, 9.998316 
6.7508554e+2, 2.5525802e+2, -430355.84, -623031.6, -651.78815, 0.013208302, 0.32672098, -430353.66, 8150.6016, 0.0, 10.000878, 9.998324 
6.750957e+2, 2.6525638e+2, -328756.8, -534551.4, -4301.8623, 0.005887253, 0.33520257, -328666.94, 11853.686, 0.0, 10.000952, 9.998224 
6.751057e+2, 2.7525473e+2, -222891.66, -431651.16, -11642.927, -0.005972897, 0.34904268, -222244.31, 20292.795, 0.0, 10.001001, 9.998234 
6.751158e+2, 2.85253e+2, -121982.016, -345432.0, -17575.83, -0.0053353943, 0.35694292, -120608.01, 23946.814, 0.0, 10.001078, 9.9981165 
6.751259e+2, 2.9525113e+2, -8514.904, -239376.27, -11835.814, 0.00649999, 0.35789025, -7909.6914, 38663.78, 0.0000000040864183, 10.001182, 9.998121 
6.7513597e+2, 3.0524904e+2, 90229.73, -128101.16, 194.17181, 0.00035628467, 0.31910306, 90229.9, 90229.9, 0.0000003121116, 10.001359, 9.998466 
6.75146e+2, 3.1524825e+2, 134052.42, -92998.57, -6476.603, -0.02005636, 0.39584506, 134237.02, 134237.02, 0.0000020895884, 10.001599, 9.99859 
6.8494767e+2, 1.2525906e+2, -1808122.1, -1721309.3, -82028.805, -0.01769602, 0.20381711, -1671910.3, 40571.844, 0.0, 9.999203, 10.000337 
6.849608e+2, 1.3525936e+2, -1704623.1, -1662251.4, 59216.402, 0.05232351, 0.2327888, -1620545.1, -6064.87, 0.0, 9.999404, 9.999981 
6.8497145e+2, 1.452591e+2, -1599628.6, -1586856.5, -11806.892, -0.041733768, 0.22262755, -1579819.4, -63336.105, 0.0, 9.999571, 9.99974 
6.849822e+2, 1.5525888e+2, -1479122.5, -1477902.5, -14939.954, -0.011034334, 0.22626987, -1463560.1, -45074.688, 0.0, 9.999725, 9.99974 
6.8499285e+2, 1.6525844e+2, -1395192.9, -1453739.0, -13736.702, 0.0048638848, 0.23958404, -1392130.1, -71639.21, 0.0, 9.999918, 9.999141 
6.8500334e+2, 1.7525779e+2, -1264133.0, -1339432.9, -14905.471, 0.0066567347, 0.2580891, -1261289.9, -38790.43, 0.0, 10.000143, 9.999144 
6.8501383e+2, 1.8525699e+2, -1165872.8, -1268883.9, -17902.799, 0.003988857, 0.27832678, -1162850.0, -38340.703, 0.0, 10.000263, 9.998897 
6.850242e+2, 1.952561e+2, -1063395.6, -1168135.4, -17795.105, -0.0023004452, 0.29832256, -1060454.9, -33934.625, 0.0, 10.000292, 9.998902 
6.850347e+2, 2.0525509e+2, -964329.9, -1087794.8, -18441.025, -0.0023883495, 0.3176048, -961634.3, -33103.137, 0.0, 10.000377, 9.99874 
6.850452e+2, 2.1525401e+2, -846241.75, -980306.2, -15373.273, 0.002871517, 0.3341419, -844501.5, -13959.261, 0.0, 10.000516, 9.998738 
6.8505555e+2, 2.252526e+2, -762164.25, -937319.4, -21345.59, 0.007717351, 0.3399216, -759600.5, -27043.566, 0.0, 10.000628, 9.998306 
6.850658e+2, 2.3525085e+2, -650562.5, -831500.8, -21363.021, 0.012403924, 0.33380768, -648074.44, -13499.504, 0.0, 10.000716, 9.998318 
6.850761e+2, 2.4524915e+2, -536991.4, -717732.4, -17097.254, 0.013090795, 0.32873246, -535388.25, 1203.2753, 0.0, 10.000788, 9.998391 
6.8508637e+2, 2.5524747e+2, -430457.1, -614977.7, -16087.865, 0.010281539, 0.32231343, -429064.94, 9542.0, 0.0, 10.000843, 9.998397 
6.850966e+2, 2.6524585e+2, -343357.94, -547725.2, -18096.447, 0.0044271215, 0.3306652, -341767.9, -1144.5813, 0.0, 10.000878, 9.998169 
6.851067e+2, 2.752442e+2, -242140.1, -446966.72, -16629.646, -0.004291197, 0.34965846, -240798.75, 1841.8271, 0.0, 10.0008955, 9.998179 
6.851169e+2, 2.852425e+2, -133487.45, -348536.4, -20349.768, -0.0031273596, 0.36355102, -131578.72, 13079.441, 0.0, 10.000989, 9.998137 
6.851271e+2, 2.9524073e+2, -11451.633, -238432.55, -25226.482, 0.0070797987, 0.3715271, -8681.781, 37994.13, 0.0000000009738006, 10.001152, 9.998142 
6.8513733e+2, 3.0523863e+2, 85091.13, -124123.54, -11834.36, 0.0020314453, 0.3314982, 85758.42, 85758.42, 0.00000022618863, 10.001296, 9.998523 
6.851476e+2, 3.1523782e+2, 112310.38, -97870.76, -9726.761, -0.015003926, 0.39512065, 112759.56, 112759.56, 0.0000018662819, 10.001427, 9.99864 
6.949472e+2, 1.2524854e+2, -1812299.6, -1730590.4, -77907.65, 0.0088582905, 0.23874766, -1683475.1, 29111.271, 0.0, 9.999206, 10.000272 
6.9495994e+2, 1.3524847e+2, -1707282.3, -1668156.5, 66179.625, 0.029061459, 0.23753338, -1618708.9, -4121.4883, 0.0, 9.999405, 9.99994 
6.9497085e+2, 1.4524804e+2, -1596174.6, -1579694.9, -6376.0337, -0.05990686, 0.21015467, -1577516.0, -60924.543, 0.0, 9.999571, 9.999789 
6.94982e+2, 1.5524791e+2, -1475981.9, -1471476.8, -9233.875, -0.0016884479, 0.21513964, -1464224.6, -45632.242, 0.0, 9.999725, 9.9997835 
6.9499284e+2, 1.6524753e+2, -1398494.3, -1460720.1, -5391.7266, 0.01751939, 0.2352234, -1398030.5, -77433.12, 0.0, 9.999918, 9.999092 
6.9500345e+2, 1.7524694e+2, -1267326.6, -1346061.6, -6762.408, 0.0026531245, 0.26508543, -1266750.1, -44144.133, 0.0, 10.000143, 9.999098 
6.9501406e+2, 1.8524615e+2, -1166300.1, -1269792.8, -17066.762, -0.00399991, 0.28829426, -1163558.4, -38942.367, 0.0, 10.000263, 9.998891 
6.9502455e+2, 1.952452e+2, -1063590.6, -1168732.6, -16794.203, -0.003714956, 0.3037481, -1060973.3, -34346.156, 0.0, 10.000292, 9.998898 
6.950351e+2, 2.0524423e+2, -958674.75, -1076309.3, -13375.72, 0.00056084857, 0.32103652, -957173.0, -28535.23, 0.0, 10.000378, 9.998818 
6.950457e+2, 2.1524322e+2, -840771.8, -969086.9, -10308.604, 0.008732712, 0.33764118, -839948.94, -9300.992, 0.0, 10.000516, 9.998816 
6.950562e+2, 2.2524184e+2, -762034.7, -937138.4, -18113.688, 0.010859285, 0.34370947, -760180.56, -27518.24, 0.0, 10.000628, 9.998308 
6.9506645e+2, 2.352401e+2, -650471.6, -831470.44, -18144.652, 0.0070926878, 0.33837047, -648670.56, -13990.07, 0.0, 10.000716, 9.998318 
6.9507676e+2, 2.4523841e+2, -534137.2, -711910.94, -15086.197, 0.0052710054, 0.33277464, -532866.06, 3830.917, 0.0, 10.000788, 9.998431 
6.9508713e+2, 2.5523677e+2, -427714.53, -609159.5, -14105.734, 0.005550861, 0.3245347, -426624.5, 12087.344, 0.0, 10.000842, 9.998437 
6.950974e+2, 2.652351e+2, -339251.1, -539193.9, -17661.09, 0.0022506316, 0.32683527, -337703.06, 3025.0347, 0.0, 10.000878, 9.998228 
6.951076e+2, 2.7523345e+2, -238085.39, -438983.28, -16000.308, -0.0042788493, 0.33571494, -236819.03, 5926.6396, 0.0, 10.000897, 9.998234 
6.9511783e+2, 2.852318e+2, -141521.56, -365716.38, -14353.291, -0.003476805, 0.35966113, -140606.39, 4156.666, 0.0, 10.000991, 9.998019 
6.951282e+2, 2.9523018e+2, -19296.324, -254945.66, -19109.975, 0.0042297826, 0.39648274, -17756.662, 29023.41, 0.000000000021633938, 10.001152, 9.998029 
6.9513863e+2, 3.0522817e+2, 97261.766, -98838.4, -7113.0176, 0.0031276476, 0.3584495, 97519.43, 97519.43, 0.00000014519733, 10.001295, 9.998697 
6.951491e+2, 3.1522724e+2, 123704.55, -73918.97, -5110.45, -0.004035237, 0.3944855, 123836.61, 123836.61, 0.0000015881137, 10.001425, 9.998806 
7.049466e+2, 1.2523757e+2, -1789615.3, -1721759.0, -84053.35, 0.020067371, 0.24456856, -1665044.5, 47649.773, 0.0, 9.999371, 10.000252 
7.0495933e+2, 1.3523747e+2, -1683697.3, -1656391.5, 65764.766, 0.025446162, 0.23920424, -1602877.4, 11818.071, 0.0, 9.999565, 9.999943 
7.049705e+2, 1.4523698e+2, -1579176.3, -1575493.3, -10603.594, -0.05639241, 0.20802568, -1566572.5, -49872.55, 0.0, 9.999705, 9.999753 
7.049818e+2, 1.5523683e+2, -1464567.1, -1469866.8, -19549.285, 0.0006134286, 0.21497154, -1447488.9, -28787.875, 0.0, 9.999822, 9.999748 
7.049928e+2, 1.6523643e+2, -1390549.8, -1457721.8, -14453.008, 0.018095754, 0.23629276, -1387572.0, -66866.0, 0.0, 9.999976, 9.999084 
7.050036e+2, 1.7523584e+2, -1264445.5, -1345337.5, -13035.736, 0.0020900294, 0.2666824, -1262396.6, -39681.844, 0.0, 10.000166, 9.999092 
7.050143e+2, 1.8523508e+2, -1155358.8, -1261514.6, -25247.82, -0.0047426056, 0.29011905, -1149659.8, -24935.111, 0.0, 10.000325, 9.998918 
7.050249e+2, 1.9523416e+2, -1037100.4, -1153074.4, -22573.244, -0.004259243, 0.30564848, -1032861.6, -6126.1665, 0.0, 10.000462, 9.998923 
7.050355e+2, 2.052332e+2, -936652.2, -1063127.3, -20998.678, 0.0019793222, 0.32200515, -933256.94, -4510.9927, 0.0, 10.000518, 9.998841 
7.050463e+2, 2.152322e+2, -841398.8, -966865.7, -22235.18, 0.01406928, 0.33659077, -837574.8, -6818.775, 0.0, 10.000501, 9.998837 
7.0505685e+2, 2.2523084e+2, -769035.4, -935067.25, -28651.648, 0.01496253, 0.343668, -764230.1, -31460.133, 0.0, 10.000557, 9.998357 
7.0506716e+2, 2.352292e+2, -652500.0, -827169.7, -25229.842, 0.0050652684, 0.34211272, -648928.7, -14141.304, 0.0, 10.00068, 9.998365 
7.050775e+2, 2.4522755e+2, -542392.56, -713792.6, -24751.451, -0.00020325498, 0.3360686, -538889.8, -2086.2195, 0.0, 10.000722, 9.998449 
7.050879e+2, 2.5522587e+2, -448565.22, -617127.5, -25351.3, -0.0010386554, 0.32343864, -444835.03, -6016.361, 0.0, 10.00069, 9.998456 
7.050982e+2, 2.6522422e+2, -349653.34, -540606.3, -26725.197, -0.0016094617, 0.32301816, -345983.5, -5148.749, 0.0, 10.000792, 9.99826 
7.051086e+2, 2.7522257e+2, -219182.8, -426523.16, -27051.842, -0.0017285866, 0.33095878, -215711.44, 27140.377, 0.0, 10.001013, 9.998263 
7.051189e+2, 2.8522092e+2, -121761.57, -361923.2, -24161.117, -0.0021000225, 0.3554115, -119354.99, 25514.365, 0.0, 10.001151, 9.997968 
7.0512927e+2, 2.9521927e+2, -13312.247, -257545.78, -23987.875, -0.0026146767, 0.39371127, -10978.53, 35908.68, 0.0, 10.001217, 9.997979 
7.051398e+2, 3.052173e+2, 99205.76, -92076.26, -14871.33, -0.0009228651, 0.358958, 100355.03, 100355.03, 0.00000008201181, 10.001284, 9.998749 
7.0515054e+2, 3.152164e+2, 115850.87, -72591.44, -21721.781, 0.004995333, 0.3955176, 118322.33, 118322.33, 0.0000012936833, 10.0013485, 9.998852 
7.149459e+2, 1.2522615e+2, -1787717.9, -1717949.9, -79124.17, 0.0143565675, 0.22040963, -1666361.3, 46444.793, 0.0, 9.999372, 10.000278 
7.149591e+2, 1.3522634e+2, -1680094.6, -1649328.4, 72425.195, 0.041407403, 0.23742668, -1590670.6, 24133.658, 0.0, 9.999567, 9.999991 
7.149704e+2, 1.4522591e+2, -1587699.6, -1593499.5, -6624.6064, -0.031071477, 0.2160463, -1583368.0, -66559.53, 0.0, 9.999706, 9.999629 
7.1498156e+2, 1.5522565e+2, -1472841.8, -1487128.1, -15278.896, -0.004296857, 0.22594558, -1463118.8, -44307.76, 0.0, 9.999822, 9.99963 
7.149927e+2, 1.652252e+2, -1388238.1, -1452937.9, -7496.489, 0.0063010715, 0.24295565, -1387380.9, -66564.086, 0.0, 9.999976, 9.999118 
7.150038e+2, 1.7522451e+2, -1262136.8, -1340655.4, -6109.83, 0.004723892, 0.2628642, -1261664.1, -38838.14, 0.0, 10.000166, 9.999125 
7.1501464e+2, 1.8522377e+2, -1151221.0, -1253074.5, -20328.322, 0.0015808875, 0.28379324, -1147313.8, -22478.3, 0.0, 10.000326, 9.998976 
7.150253e+2, 1.9522294e+2, -1033149.06, -1144959.4, -17723.164, -0.004036889, 0.30401397, -1030407.0, -3561.8286, 0.0, 10.000462, 9.99898 
7.150361e+2, 2.05222e+2, -938988.56, -1068156.5, -21786.264, 0.0017907288, 0.32051525, -935412.94, -6557.45, 0.0, 10.000519, 9.998807 
7.150468e+2, 2.1522091e+2, -843468.56, -971538.3, -22850.266, 0.018790083, 0.33109602, -839513.75, -8647.25, 0.0, 10.000503, 9.998805 
7.1505743e+2, 2.2521964e+2, -762297.3, -921389.7, -24094.201, 0.01985549, 0.3399205, -758728.4, -25848.488, 0.0, 10.000558, 9.99845 
7.150678e+2, 2.3521814e+2, -646020.06, -813805.1, -20733.87, 0.006129497, 0.34502417, -643495.9, -8600.318, 0.0, 10.00068, 9.998457 
7.150782e+2, 2.4521652e+2, -542583.25, -714283.7, -26088.033, -0.0034830344, 0.338555, -538707.0, -1795.5908, 0.0, 10.000722, 9.998446 
7.150885e+2, 2.5521478e+2, -448626.22, -617670.4, -26439.127, -0.009508628, 0.31913686, -444587.53, -5660.1885, 0.0, 10.000692, 9.998451 
7.150989e+2, 2.6521313e+2, -349077.5, -539751.75, -18495.273, -0.007191522, 0.3192408, -347300.03, -6356.8184, 0.0, 10.0007925, 9.998265 
7.1510965e+2, 2.7521157e+2, -218983.23, -425915.2, -18922.229, 0.0031780885, 0.3349813, -217267.19, 25691.783, 0.0, 10.001012, 9.998268 
7.1512014e+2, 2.8520983e+2, -121150.164, -360188.1, -21927.3, 0.00079789176, 0.35080358, -119155.39, 25821.658, 0.0, 10.001149, 9.997981 
7.1513045e+2, 2.9520798e+2, -12812.727, -256035.72, -21666.16, -0.013565152, 0.36463484, -10897.794, 36099.426, 0.0, 10.001215, 9.997992 
7.1514106e+2, 3.05206e+2, 94708.484, -101312.305, -12523.529, -0.010194332, 0.33444923, 95505.36, 95505.36, 0.00000004119849, 10.001283, 9.998686 
7.1515197e+2, 3.1520534e+2, 111359.98, -82339.914, -19323.596, 0.011848861, 0.397749, 113268.89, 113268.89, 0.0000010048329, 10.00135, 9.998784 
7.249454e+2, 1.2521492e+2, -1751908.4, -1712049.9, -71829.24, 0.016396506, 0.20787099, -1657436.4, 55479.414, 0.0, 9.999666, 10.000176 
7.249587e+2, 1.3521513e+2, -1662590.8, -1649070.8, 71442.375, 0.042502202, 0.23748921, -1584069.3, 30844.744, 0.0, 9.9997225, 9.999918 
7.249703e+2, 1.4521468e+2, -1572555.9, -1594456.3, -8496.827, -0.019797556, 0.21981059, -1569646.0, -52727.285, 0.0, 9.999846, 9.999555 
7.249815e+2, 1.5521434e+2, -1443179.0, -1480956.0, -13450.983, -0.0028962241, 0.22940096, -1438879.0, -19957.002, 0.0, 10.00006, 9.999557 
7.2499275e+2, 1.6521381e+2, -1356434.9, -1436937.8, -6567.744, 0.0041344827, 0.2431539, -1355902.6, -34974.195, 0.0, 10.000192, 9.999124 
7.25004e+2, 1.7521308e+2, -1249717.4, -1334130.1, -7323.0977, 0.005528635, 0.2573328, -1249086.8, -26149.031, 0.0, 10.000249, 9.999128 
7.2501504e+2, 1.8521236e+2, -1148233.0, -1250129.6, -24100.197, 0.0046354905, 0.27976063, -1142820.4, -17873.469, 0.0, 10.00034, 9.998988 
7.2502583e+2, 1.9521163e+2, -1032113.6, -1142993.4, -25016.596, 0.000349339, 0.30807683, -1026730.75, 225.26044, 0.0, 10.000463, 9.998992 
7.250366e+2, 2.0521072e+2, -931222.56, -1062490.5, -32264.33, 0.005548863, 0.32454267, -923721.0, 5245.276, 0.0, 10.000564, 9.998824 
7.250474e+2, 2.1520956e+2, -821170.94, -958708.3, -29478.857, 0.020119444, 0.32762843, -815118.94, 15858.744, 0.0, 10.000647, 9.998824 
7.25058e+2, 2.2520828e+2, -743364.5, -906014.0, -30276.314, 0.019453105, 0.33358583, -737911.5, -4920.601, 0.0, 10.000661, 9.998506 
7.250685e+2, 2.3520686e+2, -651948.56, -810431.1, -29716.27, 0.0047135446, 0.3398468, -646559.8, -11554.064, 0.0, 10.000612, 9.998512 
7.250789e+2, 2.4520531e+2, -551220.7, -717731.1, -35452.027, -0.0060477317, 0.33723325, -543986.8, -6965.8438, 0.0, 10.00066, 9.998453 
7.250892e+2, 2.5520363e+2, -433362.0, -609775.1, -35041.29, -0.013353132, 0.32424715, -426656.56, 12379.846, 0.0, 10.000794, 9.998456 
7.250998e+2, 2.6520193e+2, -340498.06, -538350.8, -25698.135, -0.00827309, 0.31946084, -337214.72, 3837.9712, 0.0, 10.000863, 9.99824 
7.251106e+2, 2.752002e+2, -240624.08, -438983.97, -28422.34, 0.008493368, 0.31992152, -236631.88, 6437.872, 0.0, 10.0008745, 9.998244 
7.251212e+2, 2.8519842e+2, -152943.81, -377274.25, -34481.92, 0.0071268813, 0.33568186, -147763.22, -2675.2437, 0.0, 10.000938, 9.997965 
7.251315e+2, 2.9519668e+2, -37810.035, -269952.88, -36252.902, -0.011207622, 0.3637916, -32280.271, 14826.962, 0.0, 10.001051, 9.997974 
7.2514236e+2, 3.051947e+2, 84238.44, -109319.01, -24583.313, -0.008471531, 0.33458707, 87311.91, 87311.91, 0.000000018939705, 10.0012245, 9.998659 
7.2515345e+2, 3.1519386e+2, 125058.83, -79198.03, -29039.717, 0.015852714, 0.38094974, 129107.24, 129107.24, 0.0000007295325, 10.00146, 9.998753 
7.349452e+2, 1.2520385e+2, -1768063.3, -1745989.8, -71189.95, 0.025147047, 0.20672531, -1684986.1, 28037.678, 0.0, 9.999668, 9.999943 
7.349583e+2, 1.352039e+2, -1676441.8, -1677958.9, 72999.95, 0.028411644, 0.23970725, -1604196.4, 10827.838, 0.0, 9.9997225, 9.99972 
7.349701e+2, 1.452033e+2, -1574343.5, -1598225.0, -803.1948, -0.022955181, 0.21948192, -1574316.5, -57286.004, 0.0, 9.999846, 9.999529 
7.3498166e+2, 1.552029e+2, -1444968.6, -1484948.1, -5667.7607, 0.0044539156, 0.22520716, -1444180.6, -25146.504, 0.0, 10.000061, 9.999529 
7.34993e+2, 1.6520232e+2, -1357983.6, -1440457.3, -4616.6055, 0.011393973, 0.23673348, -1357726.0, -36685.363, 0.0, 10.000193, 9.999099 
7.350042e+2, 1.7520157e+2, -1251405.5, -1337801.9, -5286.408, 0.0044849333, 0.25006583, -1251083.3, -28033.156, 0.0, 10.00025, 9.999104 
7.350154e+2, 1.8520087e+2, -1150462.8, -1254852.5, -19659.898, 0.0043654446, 0.277994, -1146882.9, -21823.768, 0.0, 10.00034, 9.998956 
7.3502636e+2, 1.9520022e+2, -1034249.5, -1147529.0, -20570.646, 0.008720479, 0.31775966, -1030629.7, -3561.769, 0.0, 10.000463, 9.9989605 
7.3503727e+2, 2.0519932e+2, -926497.5, -1052758.4, -29339.963, 0.013088359, 0.33402362, -920012.7, 9065.446, 0.0, 10.000564, 9.998891 
7.3504806e+2, 2.1519813e+2, -816520.4, -949083.25, -26583.98, 0.018037645, 0.3260834, -811387.94, 19701.766, 0.0, 10.000647, 9.99889 
7.3505867e+2, 2.2519681e+2, -741923.6, -903208.44, -32197.64, 0.013779332, 0.32463917, -735733.56, -2630.4897, 0.0, 10.000662, 9.998525 
7.3506904e+2, 2.3519537e+2, -650357.06, -807518.06, -31438.01, 0.0007756181, 0.3268398, -644301.6, -9183.635, 0.0, 10.000614, 9.998532 
7.3507947e+2, 2.4519391e+2, -550030.44, -715600.25, -30417.36, -0.00806693, 0.33223322, -544619.2, -7486.9893, 0.0, 10.000661, 9.998467 
7.3508996e+2, 2.5519246e+2, -432403.22, -607894.7, -30082.52, -0.012832129, 0.33837238, -427389.75, 11756.085, 0.0, 10.000794, 9.998469 
7.351006e+2, 2.651906e+2, -344280.53, -546341.06, -25472.81, -0.00511726, 0.3235425, -341118.78, 44.417652, 0.0, 10.000864, 9.998186 
7.3511153e+2, 2.7518845e+2, -244197.13, -446772.34, -28024.443, 0.013996647, 0.28668776, -240391.67, 2792.367, 0.0, 10.000875, 9.998191 
7.3512226e+2, 2.8518674e+2, -155648.52, -383406.9, -30263.633, 0.01644758, 0.31052482, -151695.8, -6493.7476, 0.0, 10.00094, 9.997922 
7.3513275e+2, 2.9518545e+2, -40359.89, -275940.97, -31864.088, 0.0037709945, 0.38968894, -36126.125, 11091.158, 0.0, 10.001054, 9.997932 
7.351436e+2, 3.0518344e+2, 84764.27, -108833.734, -15821.288, 0.0036545289, 0.35813957, 86048.7, 86048.7, 0.0000000073965225, 10.001226, 9.998662 
7.3515487e+2, 3.1518197e+2, 124875.45, -79649.92, -20168.555, 0.016480438, 0.34595475, 126845.33, 126845.33, 0.0000004773962, 10.00146, 9.99875 
7.449449e+2, 1.2519263e+2, -1759281.6, -1754475.0, -88699.06, 0.023235315, 0.22198343, -1668146.8, 44987.17, 0.0, 9.9997835, 9.999828 
7.4495804e+2, 1.351925e+2, -1637750.8, -1668414.6, 64550.3, 0.01714262, 0.24498275, -1586736.6, 28399.664, 0.0, 10.000028, 9.999638 
7.4497014e+2, 1.4519179e+2, -1535142.0, -1587761.4, -7285.368, -0.02004552, 0.22043002, -1534151.9, -17008.223, 0.0, 10.000152, 9.999453 
7.449818e+2, 1.5519135e+2, -1429856.1, -1486097.3, -15708.095, 0.0111477, 0.229641, -1425766.4, -6618.51, 0.0, 10.000202, 9.999454 
7.4499327e+2, 1.6519071e+2, -1346701.0, -1434442.0, -17739.611, 0.018204175, 0.23951833, -1343250.1, -22095.469, 0.0, 10.000268, 9.999104 
7.450046e+2, 1.751899e+2, -1236761.3, -1330391.6, -16412.441, 0.009051259, 0.24640328, -1233967.6, -10803.582, 0.0, 10.000349, 9.999105 
7.4501574e+2, 1.8518916e+2, -1141015.5, -1249685.1, -28026.824, 0.0075566396, 0.27166036, -1134213.0, -9039.846, 0.0, 10.000402, 9.998961 
7.450268e+2, 1.9518854e+2, -1038067.4, -1148846.5, -26203.666, 0.01100101, 0.312249, -1032181.9, -4999.828, 0.0, 10.000435, 9.998965 
7.450378e+2, 2.0518766e+2, -936365.75, -1054477.8, -35413.52, 0.013671675, 0.3315834, -926561.56, 2630.4587, 0.0, 10.0004835, 9.998918 
7.4504864e+2, 2.1518657e+2, -829056.9, -951929.6, -35711.707, 0.016255263, 0.3285872, -819431.6, 11771.467, 0.0, 10.000546, 9.998919 
7.4505925e+2, 2.2518528e+2, -742999.9, -896141.1, -42944.0, 0.013518482, 0.32483146, -731779.56, 1436.4503, 0.0, 10.000622, 9.998592 
7.450697e+2, 2.351838e+2, -632272.1, -791403.4, -38698.46, 0.005462897, 0.31826702, -623360.25, 11870.451, 0.0, 10.000707, 9.998598 
7.4508023e+2, 2.451824e+2, -537105.9, -709546.94, -34745.02, -0.0020349885, 0.32363468, -530368.4, 6876.136, 0.0, 10.000751, 9.998466 
7.450908e+2, 2.55181e+2, -437867.5, -610774.6, -35633.12, -0.008678996, 0.3376587, -430812.03, 8445.379, 0.0, 10.000758, 9.9984665 
7.451016e+2, 2.6517913e+2, -353452.4, -558419.4, -31972.34, -0.002160034, 0.32358196, -348580.88, -7305.7134, 0.0, 10.0008335, 9.998117 
7.451125e+2, 2.7517685e+2, -234770.3, -449851.25, -35537.043, 0.016397428, 0.2809057, -229050.73, 14246.7, 0.0, 10.000974, 9.998122 
7.4512327e+2, 2.8517506e+2, -134414.78, -375668.38, -36205.66, 0.021561267, 0.3027928, -129098.445, 16217.633, 0.0, 10.001097, 9.997899 
7.45134e+2, 2.9517376e+2, -19421.13, -268325.16, -36473.35, 0.014558865, 0.3835197, -14186.564, 33144.68, 0.0, 10.001208, 9.99791 
7.4514496e+2, 3.051718e+2, 100407.6, -100811.89, -17124.357, 0.009766104, 0.35484087, 101854.53, 101854.53, 0.0000000015345106, 10.001332, 9.998666 
7.451562e+2, 3.1517032e+2, 126388.33, -79067.914, -21349.752, 0.008299017, 0.34249234, 128583.414, 128583.414, 0.00000026410652, 10.0014715, 9.998748 
7.549445e+2, 1.2518129e+2, -1758922.9, -1753651.5, -79936.91, 0.009288821, 0.25383106, -1676306.9, 36939.242, 0.0, 9.999783, 9.999835 
7.5495803e+2, 1.3518095e+2, -1635138.4, -1663346.5, 72897.14, 0.008247116, 0.253332, -1574993.5, 40256.31, 0.0, 10.00003, 9.999672 
7.549703e+2, 1.4518014e+2, -1543815.4, -1606169.5, -6022.298, -0.011317163, 0.22248733, -1543239.1, -25980.94, 0.0, 10.000154, 9.999326 
7.549821e+2, 1.5517968e+2, -1438421.4, -1504162.4, -14033.043, 0.017184744, 0.24277815, -1435551.3, -16288.291, 0.0, 10.000203, 9.99933 
7.549936e+2, 1.6517898e+2, -1344493.1, -1430088.0, -14888.647, 0.024556872, 0.25166357, -1341977.3, -20707.217, 0.0, 10.000269, 9.999133 
7.55005e+2, 1.7517807e+2, -1234638.6, -1326162.4, -13587.863, 0.01899392, 0.24637456, -1232663.9, -9384.408, 0.0, 10.000349, 9.999135 
7.550162e+2, 1.8517728e+2, -1138064.8, -1243725.0, -27038.143, 0.013996023, 0.26075372, -1131547.8, -6258.8345, 0.0, 10.000403, 9.999002 
7.5502723e+2, 1.9517659e+2, -1035247.9, -1143226.1, -25119.23, 0.0072152372, 0.29167497, -1029690.4, -2392.0947, 0.0, 10.000436, 9.999003 
7.550382e+2, 2.051758e+2, -937194.25, -1056453.5, -33181.8, 0.007329268, 0.31731972, -928583.6, 724.20026, 0.0, 10.000484, 9.998904 
7.550491e+2, 2.1517488e+2, -829646.7, -953440.56, -33408.06, 0.01465473, 0.33504602, -821206.4, 10111.381, 0.0, 10.000547, 9.998908 
7.5505996e+2, 2.2517368e+2, -734837.4, -879461.56, -39825.566, 0.018416492, 0.33400333, -724595.75, 8734.082, 0.0, 10.000623, 9.998707 
7.5507057e+2, 2.351722e+2, -624480.7, -775411.25, -35640.516, 0.01844527, 0.31394678, -616487.9, 18856.17, 0.0, 10.000707, 9.998708 
7.550811e+2, 2.4517073e+2, -538286.94, -712211.75, -34622.504, 0.01173148, 0.31151864, -531648.2, 5709.6055, 0.0, 10.0007515, 9.998446 
7.550916e+2, 2.551693e+2, -439052.88, -613494.4, -35404.832, -0.0011177227, 0.32276613, -432140.97, 7230.1563, 0.0, 10.000759, 9.998447 
7.551024e+2, 2.651675e+2, -359137.56, -570439.4, -26847.96, 0.0004433529, 0.31977057, -355779.63, -14391.008, 0.0, 10.000834, 9.9980345 
7.551134e+2, 2.7516538e+2, -240432.34, -461713.53, -30288.47, 0.015682561, 0.30124402, -236361.4, 7048.5996, 0.0, 10.000974, 9.998041 
7.551244e+2, 2.8516343e+2, -134930.67, -376697.47, -32132.748, 0.02251241, 0.31171882, -130732.86, 14697.2295, 0.0, 10.001097, 9.997892 
7.5513524e+2, 2.951617e+2, -20121.242, -269589.94, -32288.492, 0.02110923, 0.34723994, -16009.93, 31439.027, 0.0, 10.001207, 9.997902 
7.551463e+2, 3.0515975e+2, 100869.5, -99867.055, -11909.738, 0.009853084, 0.32626218, 101573.64, 101573.64, 0.00000000001992495, 10.001332, 9.9986725 
7.5515753e+2, 3.1515884e+2, 126468.28, -79116.15, -15953.891, -0.008789372, 0.36798608, 127698.98, 127698.98, 0.000000109993245, 10.0014715, 9.998748 
7.6494414e+2, 1.251694e+2, -1746991.5, -1748019.3, -84285.57, -0.008449575, 0.2487452, -1663218.3, 50144.355, 0.0, 9.999866, 9.999833 
7.6495796e+2, 1.3516915e+2, -1636021.0, -1660428.9, 67026.695, 0.0054051084, 0.25240934, -1580096.3, 35268.973, 0.0, 10.00001, 9.9997015 
7.6497066e+2, 1.4516832e+2, -1549836.4, -1618153.4, -13201.293, 0.0024212028, 0.2246549, -1547374.3, -30000.477, 0.0, 10.000152, 9.999244 
7.6498234e+2, 1.5516782e+2, -1425502.8, -1506827.6, -17617.744, 0.016612003, 0.24779297, -1421850.3, -2470.805, 0.0, 10.00033, 9.999249 
7.649939e+2, 1.6516706e+2, -1319630.4, -1411537.4, -18633.871, 0.02118027, 0.2515724, -1315996.1, 5390.82, 0.0, 10.000412, 9.999191 
7.650054e+2, 1.7516607e+2, -1222323.8, -1313728.8, -15271.841, 0.024043875, 0.23378296, -1219839.8, 3556.5493, 0.0, 10.000406, 9.999192 
7.6501673e+2, 1.8516529e+2, -1129333.5, -1238639.8, -27760.75, 0.020170437, 0.24459137, -1122687.1, 2718.2517, 0.0, 10.00046, 9.99901 
7.650277e+2, 1.9516465e+2, -1015497.7, -1132882.3, -28340.805, 0.007432463, 0.28036866, -1009013.44, 18401.031, 0.0, 10.000567, 9.999011 
7.650387e+2, 2.0516391e+2, -915444.1, -1046678.2, -38156.418, 0.004865715, 0.3117044, -905156.56, 24267.275, 0.0, 10.000636, 9.998898 
7.6504976e+2, 2.1516307e+2, -812807.44, -945972.2, -38014.848, 0.012761312, 0.3359051, -802719.5, 28714.137, 0.0, 10.000667, 9.998901 
7.6506054e+2, 2.251619e+2, -721789.25, -867886.8, -46767.88, 0.017725315, 0.3374041, -708100.75, 25344.668, 0.0, 10.0006895, 9.998754 
7.650713e+2, 2.3516044e+2, -621121.56, -768703.5, -47602.33, 0.019555708, 0.31615794, -607099.7, 28359.28, 0.0, 10.000709, 9.998753 
7.650819e+2, 2.4515896e+2, -537751.7, -711023.4, -48485.02, 0.016101744, 0.30726534, -525107.25, 12365.523, 0.0, 10.0007515, 9.998455 
7.650925e+2, 2.551574e+2, -429903.78, -608202.25, -47380.28, 0.0077412124, 0.30716926, -418095.22, 21391.615, 0.0, 10.000819, 9.998455 
7.6510334e+2, 2.651556e+2, -356489.2, -575333.06, -34655.633, 0.010460277, 0.3075442, -351132.3, -9627.934, 0.0, 10.000879, 9.997979 
7.651144e+2, 2.751536e+2, -249807.11, -472340.94, -36297.914, 0.023772735, 0.30607325, -244036.14, -510.92453, 0.0, 10.000936, 9.997986 
7.651256e+2, 2.8515163e+2, -141779.06, -377113.47, -35021.137, 0.030807951, 0.31629598, -136677.98, 8867.41, 0.0, 10.001038, 9.997918 
7.6513654e+2, 2.9514974e+2, -22113.154, -267932.2, -32791.08, 0.03159798, 0.33545366, -17814.164, 29750.781, 0.0, 10.001183, 9.997925 
7.651477e+2, 3.051478e+2, 94378.06, -107356.17, -13298.809, 0.018476143, 0.3133872, 95250.98, 95250.98, 0.0, 10.001307, 9.998633 
7.65159e+2, 3.1514695e+2, 114470.195, -90063.42, -20809.441, -0.0062477696, 0.3636283, 116565.9, 116565.9, 0.000000028836135, 10.001412, 9.998701 
7.7494377e+2, 1.2515698e+2, -1747769.0, -1749601.1, -78449.055, -0.03124049, 0.20555383, -1670230.6, 43252.586, 0.0, 9.999865, 9.999823 
7.74958e+2, 1.3515708e+2, -1634390.9, -1657090.0, 71691.21, 0.008595024, 0.24198021, -1573156.4, 42326.223, 0.0, 10.00001, 9.999724 
7.74971e+2, 1.4515637e+2, -1552510.1, -1623875.9, -7020.472, 0.021194404, 0.22704543, -1551826.1, -34335.895, 0.0, 10.000153, 9.999205 
7.7498263e+2, 1.5515576e+2, -1428022.8, -1512328.9, -11192.557, 0.009172347, 0.24467865, -1426562.1, -7064.96, 0.0, 10.000331, 9.999211 
7.7499413e+2, 1.6515495e+2, -1313471.9, -1399039.5, -19143.68, 0.0077990936, 0.239169, -1309384.3, 12120.884, 0.0, 10.000413, 9.999277 
7.750059e+2, 1.7515393e+2, -1216315.0, -1301499.5, -15596.447, 0.024097323, 0.20865262, -1213549.1, 9964.942, 0.0, 10.000407, 9.999276 
7.750172e+2, 1.851532e+2, -1131075.3, -1242423.9, -23886.498, 0.025987694, 0.22318955, -1126167.4, -644.8791, 0.0, 10.00046, 9.998983 
7.7502835e+2, 1.9515273e+2, -1017279.7, -1136656.5, -24472.26, 0.011515295, 0.27816147, -1012457.6, 15072.856, 0.0, 10.000567, 9.998985 
7.750394e+2, 2.0515203e+2, -915465.3, -1046730.8, -37139.215, 0.0061019612, 0.3146303, -905686.0, 23853.898, 0.0, 10.000636, 9.998898 
7.7505034e+2, 2.151511e+2, -812927.2, -946258.2, -36984.184, 0.010486667, 0.33126464, -803355.44, 28195.287, 0.0, 10.000667, 9.9989 
7.750612e+2, 2.2514994e+2, -723209.1, -870988.5, -46162.188, 0.011506627, 0.33508497, -709974.56, 23588.043, 0.0, 10.00069, 9.998733 
7.750719e+2, 2.3514858e+2, -622293.25, -771415.8, -46896.3, 0.009033608, 0.3247628, -608771.4, 26804.137, 0.0, 10.00071, 9.998734 
7.7508265e+2, 2.4514705e+2, -535319.75, -706309.7, -46023.4, 0.011181812, 0.31073546, -523719.2, 13870.333, 0.0, 10.000752, 9.9984865 
7.750934e+2, 2.5514534e+2, -427530.88, -603561.0, -44928.668, 0.017627278, 0.29080233, -416726.72, 22877.8, 0.0, 10.00082, 9.9984865 
7.7510434e+2, 2.6514348e+2, -358610.88, -580061.1, -32687.482, 0.027415887, 0.2871192, -353886.78, -12264.396, 0.0, 10.00088, 9.997946 
7.7511555e+2, 2.7514154e+2, -251966.25, -477184.72, -34175.117, 0.04023568, 0.29628685, -246894.66, -3251.669, 0.0, 10.0009365, 9.997952 
7.751267e+2, 2.851397e+2, -137583.73, -368836.53, -29551.88, 0.045923952, 0.3169484, -133867.03, 11794.941, 0.0, 10.001039, 9.997974 
7.751379e+2, 2.95138e+2, -17904.271, -259902.11, -27316.063, 0.045296974, 0.3468361, -14859.225, 32820.152, 0.0, 10.001185, 9.997979 
7.7514917e+2, 3.0513594e+2, 88586.02, -120067.53, -9398.059, 0.034589652, 0.31544155, 89008.48, 89008.48, 0.0, 10.001309, 9.998545 
7.751607e+2, 3.1513464e+2, 107789.12, -103794.625, -16669.453, 0.014365935, 0.33117723, 109094.36, 109094.36, 0.0000000029769756, 10.0014105, 9.998608 
7.849437e+2, 1.2514473e+2, -1732593.3, -1746354.9, -79078.55, -0.03086625, 0.1915813, -1660096.8, 53505.74, 0.0, 9.999987, 9.999786 
7.84958e+2, 1.3514489e+2, -1610268.9, -1645538.9, 67095.33, 0.0035541127, 0.23393969, -1558529.8, 57071.613, 0.0, 10.000175, 9.999723 
7.8497124e+2, 1.451442e+2, -1535076.6, -1616261.4, -12987.583, 0.02596827, 0.22039992, -1533049.6, -15440.805, 0.0, 10.000276, 9.999197 
7.849829e+2, 1.5514353e+2, -1427885.3, -1513043.0, -14426.628, 0.0056688557, 0.23374711, -1425507.6, -5891.385, 0.0, 10.000336, 9.999204 
7.849945e+2, 1.6514273e+2, -1313995.3, -1397988.9, -27347.877, -0.00035079572, 0.2291911, -1305875.8, 15748.392, 0.0, 10.000403, 9.999289 
7.8500617e+2, 1.7514177e+2, -1205378.3, -1294926.1, -29465.412, 0.015480558, 0.20485148, -1196552.6, 27080.06, 0.0, 10.000477, 9.999288 
7.850176e+2, 1.851411e+2, -1121503.5, -1231262.1, -37020.24, 0.021432634, 0.22136703, -1110184.3, 15456.325, 0.0, 10.000498, 9.9990425 
7.850289e+2, 1.9514067e+2, -1027212.4, -1134948.9, -31413.148, 0.014987078, 0.27442154, -1018722.2, 8925.878, 0.0, 10.000472, 9.999043 
7.8503996e+2, 2.0514e+2, -932266.7, -1049124.4, -38717.273, 0.012108996, 0.30885512, -920603.06, 9054.001, 0.0, 10.000497, 9.998948 
7.8505105e+2, 2.1513912e+2, -823633.75, -945949.6, -34846.75, 0.013958134, 0.32361433, -814402.8, 17264.64, 0.0, 10.000569, 9.998949 
7.8506184e+2, 2.2513798e+2, -730854.6, -879572.06, -42732.34, 0.010332554, 0.3310499, -719450.44, 14228.807, 0.0, 10.000659, 9.998689 
7.850725e+2, 2.3513667e+2, -617303.2, -773696.3, -45281.363, 0.0010762119, 0.329061, -605138.75, 30553.6, 0.0, 10.000764, 9.998692 
7.850833e+2, 2.451351e+2, -525658.6, -704196.2, -47910.23, 0.0051075704, 0.31542054, -513614.53, 24092.309, 0.0, 10.000831, 9.998464 
7.8509426e+2, 2.551333e+2, -423368.97, -604116.1, -51063.984, 0.021684613, 0.28866458, -409940.28, 29782.299, 0.0, 10.000859, 9.998464 
7.8510535e+2, 2.6513144e+2, -347842.16, -569235.06, -36466.9, 0.03670158, 0.2814715, -341990.2, -249.79686, 0.0, 10.000931, 9.997996 
7.851166e+2, 2.7512956e+2, -232899.13, -462558.0, -31864.469, 0.05014704, 0.29028538, -228560.02, 15200.193, 0.0, 10.001045, 9.998 
7.8512794e+2, 2.8512773e+2, -118801.08, -362492.44, -24864.203, 0.056460835, 0.31091392, -116290.02, 29488.85, 0.0, 10.00118, 9.99795 
7.851392e+2, 2.95126e+2, 1678.5145, -253225.06, -28857.537, 0.05648383, 0.34123424, 4904.635, 52701.047, 0.0, 10.001332, 9.997953 
7.8515065e+2, 3.0512387e+2, 100533.945, -114092.336, -14854.576, 0.048130587, 0.3074935, 101557.17, 101557.17, 0.0, 10.00139, 9.998547 
7.8516215e+2, 3.151225e+2, 100962.19, -107213.75, -15354.779, 0.03152142, 0.31320736, 102088.64, 102088.64, 0.0, 10.001365, 9.998606 
7.949439e+2, 1.2513267e+2, -1737066.4, -1755876.6, -70370.88, -0.007795535, 0.20737815, -1675474.9, 38245.137, 0.0, 9.999987, 9.999722 
7.9495806e+2, 1.3513258e+2, -1612129.6, -1649605.4, 73410.98, -0.009939115, 0.22865155, -1555102.9, 60618.297, 0.0, 10.000176, 9.999695 
7.949714e+2, 1.451318e+2, -1533303.6, -1612869.3, -11474.651, 0.01639439, 0.20471397, -1531681.9, -13952.506, 0.0, 10.000277, 9.999221 
7.949832e+2, 1.5513112e+2, -1426156.8, -1509717.5, -12338.56, 0.0059108585, 0.2149014, -1424373.0, -4636.4165, 0.0, 10.000337, 9.999227 
7.949949e+2, 1.651304e+2, -1318399.6, -1407355.5, -24745.799, -0.003373093, 0.22154267, -1311979.3, 9764.706, 0.0, 10.000404, 9.999224 
7.9500645e+2, 1.7512964e+2, -1209600.9, -1303918.0, -26899.264, -0.0018067022, 0.22226457, -1202468.5, 21283.342, 0.0, 10.000477, 9.999226 
7.95018e+2, 1.85129e+2, -1111647.3, -1210966.8, -38261.375, 0.0064528934, 0.23906194, -1098617.0, 27142.51, 0.0, 10.000498, 9.999182 
7.9502934e+2, 1.951285e+2, -1017383.94, -1114715.4, -32529.488, 0.017706694, 0.26927683, -1007513.2, 20253.943, 0.0, 10.000472, 9.999182 
7.950406e+2, 2.0512785e+2, -925208.25, -1034658.06, -36176.094, 0.0226995, 0.29456145, -914331.9, 15443.336, 0.0, 10.000497, 9.999047 
7.9505163e+2, 2.151271e+2, -816756.0, -931897.1, -32263.13, 0.022956476, 0.31302375, -808332.0, 23451.896, 0.0, 10.00057, 9.999045 
7.9506254e+2, 2.2512604e+2, -735476.25, -889355.6, -38907.38, 0.013962818, 0.32534212, -726198.2, 7597.1743, 0.0, 10.000659, 9.998621 
7.950733e+2, 2.3512469e+2, -621963.06, -783372.75, -41438.902, -0.004489195, 0.3290926, -611946.06, 23863.457, 0.0, 10.000764, 9.998626 
7.950841e+2, 2.4512312e+2, -531250.25, -715828.56, -46911.234, -0.0021605133, 0.32118747, -520011.88, 17812.865, 0.0, 10.00083, 9.998384 
7.950951e+2, 2.551213e+2, -428719.34, -615499.56, -49987.29, 0.020127261, 0.30038464, -416182.84, 23658.117, 0.0, 10.00086, 9.998385 
7.9510635e+2, 2.6511943e+2, -338594.22, -550528.1, -32301.307, 0.038534783, 0.2902875, -333780.44, 8077.94, 0.0, 10.000933, 9.998124 
7.951177e+2, 2.7511755e+2, -223720.38, -444134.4, -27643.764, 0.053274028, 0.2878123, -220306.25, 23570.703, 0.0, 10.001047, 9.998126 
7.951292e+2, 2.8511563e+2, -125906.336, -377774.38, -19205.28, 0.06208768, 0.2983887, -124450.33, 21445.826, 0.0, 10.001182, 9.997844 
7.951406e+2, 2.951137e+2, -5659.4106, -268540.75, -23207.883, 0.065387174, 0.3198298, -3626.2793, 44289.7, 0.0, 10.001332, 9.9978485 
7.951522e+2, 3.0511165e+2, 106907.47, -101254.88, -15818.267, 0.05933848, 0.29040045, 108102.63, 108102.63, 0.0, 10.001392, 9.998634 
7.9516363e+2, 3.1511045e+2, 107701.51, -94516.8, -16008.691, 0.044212345, 0.30798635, 108961.0, 108961.0, 0.0, 10.00137, 9.998691 
8.0494404e+2, 1.251202e+2, -1706617.9, -1745993.8, -75791.77, -0.00678872, 0.19944388, -1647998.6, 65842.64, 0.0, 10.0002165, 9.999679 
8.0495816e+2, 1.351201e+2, -1589821.1, -1639633.0, 66584.89, -0.020463336, 0.2208791, -1543636.6, 72206.164, 0.0, 10.000333, 9.999688 
8.0497175e+2, 1.4511931e+2, -1512687.6, -1595092.5, -19775.56, 0.014547239, 0.19515295, -1508187.6, 9663.066, 0.0, 10.000384, 9.99929 
8.049835e+2, 1.5511861e+2, -1410574.6, -1494469.0, -16751.027, 0.000676954, 0.19793178, -1407353.6, 12503.617, 0.0, 10.00041, 9.999295 
8.0499524e+2, 1.6511793e+2, -1322523.6, -1417463.9, -28436.676, -0.008059282, 0.20711234, -1314657.9, 7206.887, 0.0, 10.000411, 9.999151 
8.050069e+2, 1.7511722e+2, -1227252.9, -1320362.0, -31297.799, -0.0017336708, 0.21974301, -1217710.4, 6162.972, 0.0, 10.00039, 9.999155 
8.050184e+2, 1.8511663e+2, -1118338.1, -1201696.9, -44911.355, 0.008358983, 0.24009888, -1098746.0, 27134.764, 0.0, 10.000399, 9.999293 
8.0502987e+2, 1.9511619e+2, -1015560.4, -1101423.0, -41306.598, 0.018552113, 0.26621866, -998915.44, 28971.682, 0.0, 10.000431, 9.999293 
8.050411e+2, 2.0511559e+2, -916826.1, -1019200.1, -42610.664, 0.021416038, 0.28402558, -901411.5, 28482.885, 0.0, 10.000505, 9.999149 
8.0505216e+2, 2.1511482e+2, -802401.0, -913629.3, -38559.152, 0.0183668, 0.29142168, -790341.4, 41561.277, 0.0, 10.00062, 9.999146 
8.050632e+2, 2.2511384e+2, -737021.94, -894655.56, -45950.81, 0.012205338, 0.30892262, -724605.1, 9308.437, 0.0, 10.000669, 9.99858 
8.05074e+2, 2.3511268e+2, -640844.4, -797071.94, -46745.742, 0.0025646614, 0.33375445, -627925.6, 8001.4517, 0.0, 10.000654, 9.998584 
8.0508494e+2, 2.4511112e+2, -546602.3, -727189.94, -47373.11, 0.005182004, 0.33255032, -534929.56, 3012.988, 0.0, 10.000742, 9.998348 
8.0509603e+2, 2.551092e+2, -421112.6, -615612.2, -47255.195, 0.019706331, 0.3042376, -410239.4, 29720.508, 0.0, 10.00093, 9.998351 
8.051073e+2, 2.651073e+2, -314925.88, -535130.8, -31293.344, 0.037698574, 0.29038984, -310565.13, 31412.324, 0.0, 10.001079, 9.998159 
8.051189e+2, 2.7510545e+2, -200701.94, -429061.44, -33574.496, 0.05896849, 0.28805572, -195867.97, 48127.18, 0.0, 10.001188, 9.998161 
8.051304e+2, 2.8510353e+2, -109899.17, -366921.47, -23608.484, 0.0696238, 0.29351392, -107748.64, 38265.543, 0.0, 10.001279, 9.997871 
8.0514205e+2, 2.951015e+2, -693.3708, -263045.44, -17883.844, 0.070062466, 0.30461416, 520.1106, 48554.63, 0.0, 10.001353, 9.997876 
8.051536e+2, 3.0509946e+2, 119564.68, -94964.734, -10438.18, 0.06584051, 0.27613652, 120071.36, 120071.36, 0.0, 10.001479, 9.998635 
8.051653e+2, 3.1509835e+2, 146792.92, -76000.086, -17165.688, 0.056965698, 0.30101487, 148107.73, 148107.73, 0.0, 10.00164, 9.998688 
8.14944e+2, 1.2510727e+2, -1707962.1, -1749105.4, -68981.125, -0.029457917, 0.16713645, -1656550.5, 57415.824, 0.0, 10.000217, 9.999657 
8.1495845e+2, 1.3510741e+2, -1589020.4, -1638085.1, 70176.87, -0.028298922, 0.2102722, -1539211.4, 76754.55, 0.0, 10.000334, 9.999699 
8.1497216e+2, 1.4510676e+2, -1504286.4, -1577967.9, -19340.242, 0.020408757, 0.19158778, -1499518.5, 18453.932, 0.0, 10.000385, 9.999408 
8.1498384e+2, 1.551061e+2, -1402355.8, -1477803.5, -15930.526, -0.010040171, 0.18299168, -1399130.0, 20848.25, 0.0, 10.000411, 9.99941 
8.149955e+2, 1.6510534e+2, -1328098.3, -1429363.5, -29487.793, -0.014495419, 0.18605796, -1320137.5, 1848.873, 0.0, 10.000412, 9.999069 
8.1500745e+2, 1.7510454e+2, -1232821.6, -1332153.9, -32213.467, 0.015381727, 0.19738807, -1223289.5, 707.37933, 0.0, 10.000391, 9.999074 
8.150191e+2, 1.8510403e+2, -1112464.3, -1189699.6, -43791.535, 0.026868666, 0.22453606, -1092695.1, 33308.926, 0.0, 10.000399, 9.999375 
8.150303e+2, 1.9510382e+2, -1009618.0, -1089357.1, -40190.727, 0.01752409, 0.26512772, -992875.94, 35131.96, 0.0, 10.000432, 9.999375 
8.150414e+2, 2.0510325e+2, -909551.44, -1004292.5, -38524.98, 0.008379666, 0.27715442, -895863.44, 34151.008, 0.0, 10.000506, 9.999251 
8.150526e+2, 2.1510231e+2, -795122.94, -898577.0, -34452.332, 0.00038525526, 0.25906694, -784699.75, 47323.88, 0.0, 10.00062, 9.999249 
8.150638e+2, 2.2510144e+2, -738172.8, -897145.44, -46705.41, 0.00504238, 0.28202558, -725466.56, 8567.265, 0.0, 10.000669, 9.998564 
8.150748e+2, 2.3510061e+2, -641935.44, -799674.6, -47346.89, 0.021753578, 0.34295303, -628815.1, 7229.8174, 0.0, 10.000655, 9.998566 
8.150859e+2, 2.4509914e+2, -546167.1, -726613.5, -40460.71, 0.02659196, 0.34945896, -537510.1, 550.03156, 0.0, 10.000743, 9.998352 
8.150969e+2, 2.55097e+2, -420683.75, -614838.56, -40345.813, 0.020091256, 0.30047554, -412633.6, 27445.805, 0.0, 10.00093, 9.998357 
8.1510836e+2, 2.6509503e+2, -318812.56, -543218.0, -27226.254, 0.033931974, 0.2819962, -315556.53, 26541.012, 0.0, 10.001078, 9.998104 
8.151201e+2, 2.7509323e+2, -204523.88, -436983.88, -29437.367, 0.06722716, 0.29103324, -200854.03, 43260.727, 0.0, 10.001188, 9.998107 
8.1513184e+2, 2.8509134e+2, -99103.41, -344629.16, -20906.832, 0.07908733, 0.29614648, -97335.88, 48797.063, 0.0, 10.001279, 9.998025 
8.1514335e+2, 2.950894e+2, 10216.009, -240842.63, -15124.67, 0.06995517, 0.29524642, 11123.89, 59276.055, 0.0, 10.001355, 9.998028 
8.151551e+2, 3.0508733e+2, 113924.2, -107181.414, -4279.916, 0.067067236, 0.26446366, 114007.016, 114007.016, 0.0, 10.00148, 9.99855 
8.1516707e+2, 3.150862e+2, 140625.69, -89026.2, -10994.856, 0.06983872, 0.29193476, 141150.88, 141150.88, 0.0, 10.001641, 9.998598 
8.2494426e+2, 1.2509443e+2, -1689188.3, -1745828.3, -67710.81, -0.0307163, 0.14596082, -1644113.6, 69977.08, 0.0, 10.000372, 9.999605 
8.2495874e+2, 1.3509455e+2, -1586630.5, -1639148.8, 65292.227, -0.034212716, 0.19188415, -1542514.8, 73575.805, 0.0, 10.00036, 9.999678 
8.249725e+2, 1.4509398e+2, -1502406.8, -1567864.8, -27226.467, 0.02535439, 0.17714001, -1492562.6, 25533.748, 0.0, 10.000359, 9.99949 
8.2498425e+2, 1.5509339e+2, -1397733.8, -1466631.3, -26225.045, -0.008928163, 0.1682118, -1388887.4, 31213.99, 0.0, 10.000404, 9.99949 
8.24996e+2, 1.6509272e+2, -1326570.9, -1423409.5, -39009.313, -0.013428017, 0.1732082, -1312811.8, 9297.111, 0.0, 10.0004, 9.999116 
8.2500786e+2, 1.7509201e+2, -1236270.9, -1328699.5, -32067.51, 0.020386936, 0.18895106, -1226235.0, -2116.1438, 0.0, 10.000345, 9.99912 
8.250194e+2, 1.8509154e+2, -1114990.0, -1187816.9, -37127.133, 0.029468227, 0.21596292, -1099400.0, 26725.758, 0.0, 10.000368, 9.999403 
8.250306e+2, 1.9509129e+2, -1002727.75, -1082865.0, -37684.0, 0.011365285, 0.25178483, -987791.06, 40338.6, 0.0, 10.000466, 9.999404 
8.250419e+2, 2.0509076e+2, -905716.4, -996845.7, -40612.83, 0.0014943334, 0.26388383, -890243.9, 39891.965, 0.0, 10.000508, 9.999302 
8.2505316e+2, 2.1508993e+2, -809748.5, -899947.4, -40594.53, 0.000740262, 0.2506019, -794169.44, 37974.574, 0.0, 10.000495, 9.9993 
8.250644e+2, 2.2508912e+2, -752495.9, -902736.25, -53170.527, 0.008538661, 0.2748413, -735582.6, -1428.729, 0.0, 10.000566, 9.998574 
8.2507557e+2, 2.3508827e+2, -632359.06, -793828.2, -51747.496, 0.024337236, 0.33374918, -617198.5, 18966.797, 0.0, 10.000716, 9.998577 
8.2508665e+2, 2.4508682e+2, -534011.0, -721479.94, -41922.598, 0.029389804, 0.3431919, -525063.2, 13117.316, 0.0, 10.00083, 9.998345 
8.2509786e+2, 2.5508475e+2, -424051.4, -617064.0, -42783.79, 0.024176534, 0.30161688, -414992.97, 25206.354, 0.0, 10.00091, 9.998351 
8.251094e+2, 2.650828e+2, -328805.5, -545936.0, -28334.248, 0.03868837, 0.28211784, -325168.97, 17048.494, 0.0, 10.001, 9.998122 
8.2512134e+2, 2.750809e+2, -215149.97, -439991.13, -25233.564, 0.072021656, 0.28195485, -212352.84, 31882.13, 0.0, 10.001106, 9.998126 
8.2513314e+2, 2.85079e+2, -100774.35, -342760.8, -18013.834, 0.08258318, 0.2840655, -99440.72, 46812.254, 0.0, 10.001256, 9.998049 
8.2514477e+2, 2.950771e+2, 24295.59, -231442.45, -21858.396, 0.071050316, 0.28629884, 26150.414, 74421.94, 0.0, 10.001441, 9.998051 
8.2515675e+2, 3.0507508e+2, 128461.66, -103571.98, -13255.833, 0.07390652, 0.2567445, 129216.49, 129216.49, 0.0, 10.0015955, 9.99852 
8.2516897e+2, 3.1507382e+2, 149645.63, -88410.73, -16098.453, 0.08957952, 0.2792988, 150729.34, 150729.34, 0.0, 10.001719, 9.998565 
8.349449e+2, 1.2508163e+2, -1694794.1, -1757825.3, -64817.54, -0.011191206, 0.13606907, -1654236.5, 59977.816, 0.0, 10.000372, 9.999522 
8.3495903e+2, 1.3508154e+2, -1590217.1, -1646803.9, 64232.203, -0.03827694, 0.16587782, -1548322.9, 67893.52, 0.0, 10.0003605, 9.999625 
8.34973e+2, 1.4508098e+2, -1499167.0, -1561419.1, -26097.576, 0.029180694, 0.15186942, -1489673.9, 28548.672, 0.0, 10.00036, 9.999534 
8.349847e+2, 1.5508054e+2, -1394565.8, -1460239.8, -24689.623, 0.003786581, 0.1534536, -1386319.3, 33907.35, 0.0, 10.000404, 9.999534 
8.3499646e+2, 1.6508009e+2, -1314205.9, -1398062.0, -41229.656, -0.0049846913, 0.1684808, -1297330.5, 24901.656, 0.0, 10.000401, 9.9992895 
8.3500814e+2, 1.7507963e+2, -1224021.3, -1303694.5, -34231.734, 0.013323947, 0.19436176, -1211333.9, 12905.062, 0.0, 10.000347, 9.99929 
8.3501965e+2, 1.8507916e+2, -1116752.6, -1191758.4, -33670.79, 0.016155591, 0.21435603, -1103855.3, 22390.445, 0.0, 10.000369, 9.999376 
8.35031e+2, 1.9507866e+2, -1004554.44, -1086788.5, -34216.12, -0.0000031021682, 0.22639133, -992179.8, 36072.457, 0.0, 10.000466, 9.999377 
8.3504236e+2, 2.0507817e+2, -905923.06, -997342.7, -41276.395, 0.00047465565, 0.24423511, -890044.5, 40213.836, 0.0, 10.000508, 9.999298 
8.3505386e+2, 2.1507768e+2, -809846.44, -900317.7, -41220.066, 0.018857995, 0.2654427, -793882.75, 38381.074, 0.0, 10.000496, 9.999298 
8.350651e+2, 2.2507684e+2, -749855.56, -897388.0, -47630.395, 0.022389896, 0.28699872, -735814.5, -1540.743, 0.0, 10.000566, 9.998611 
8.350761e+2, 2.3507565e+2, -629725.75, -788509.6, -46172.027, 0.010778415, 0.30678412, -617275.75, 19012.28, 0.0, 10.000716, 9.998613 
8.3508736e+2, 2.450742e+2, -535223.6, -724195.6, -39066.516, 0.013978453, 0.31438962, -527465.8, 10837.561, 0.0, 10.000831, 9.998326 
8.3509886e+2, 2.5507247e+2, -425217.06, -619812.7, -39875.984, 0.031732842, 0.3074541, -417362.78, 22956.873, 0.0, 10.000911, 9.998332 
8.3511055e+2, 2.6507056e+2, -322430.2, -533159.06, -24543.277, 0.051601563, 0.29057375, -319609.44, 22727.676, 0.0, 10.001002, 9.998209 
8.3512247e+2, 2.750685e+2, -208896.78, -427492.25, -21327.51, 0.07311431, 0.2614303, -206835.39, 37520.387, 0.0, 10.001108, 9.998211 
8.351343e+2, 2.8506652e+2, -107640.04, -357428.66, -10943.151, 0.079907976, 0.25791553, -107161.54, 39212.69, 0.0, 10.001258, 9.997948 
8.3514625e+2, 2.9506466e+2, 17440.201, -246140.84, -14738.874, 0.07340628, 0.27773207, 18261.807, 66654.35, 0.0, 10.001443, 9.99795 
8.3515847e+2, 3.0506265e+2, 130199.56, -100590.47, -8371.277, 0.08620691, 0.25279146, 130502.81, 130502.81, 0.0, 10.001597, 9.99854 
8.351709e+2, 3.1506127e+2, 151143.16, -85887.93, -10978.186, 0.11479726, 0.2622828, 151650.53, 151650.53, 0.0, 10.001721, 9.998581 
8.449455e+2, 1.2506874e+2, -1672466.0, -1747940.5, -71730.875, 0.0057952562, 0.13104677, -1629151.3, 85188.41, 0.0, 10.000529, 9.999515 
8.449594e+2, 1.3506855e+2, -1572337.4, -1635949.3, 58165.938, -0.04576011, 0.14899622, -1537849.3, 78493.234, 0.0, 10.000474, 9.999644 
8.4497327e+2, 1.4506803e+2, -1492126.5, -1556875.5, -29731.563, 0.02536523, 0.1384094, -1480545.6, 37802.824, 0.0, 10.000402, 9.999544 
8.449851e+2, 1.5506771e+2, -1402269.0, -1462636.6, -30434.709, 0.004319198, 0.15113759, -1389588.8, 30763.35, 0.0, 10.000346, 9.999545 
8.4499675e+2, 1.6506739e+2, -1314034.4, -1380471.5, -49363.164, -0.005985367, 0.1695043, -1287753.4, 34602.992, 0.0, 10.000327, 9.999446 
8.4500843e+2, 1.7506705e+2, -1213885.6, -1281436.1, -43777.957, 0.005343431, 0.19113411, -1192368.3, 31993.307, 0.0, 10.000341, 9.999446 
8.450199e+2, 1.8506664e+2, -1119582.1, -1188366.8, -39398.797, 0.008949918, 0.20706366, -1101676.3, 24691.088, 0.0, 10.000329, 9.999418 
8.450314e+2, 1.9506615e+2, -1027282.7, -1092914.0, -34758.953, 0.0010270253, 0.21533674, -1012296.1, 16077.813, 0.0, 10.00029, 9.99942 
8.450428e+2, 2.0506567e+2, -935462.5, -1013264.44, -39406.73, 0.0067058234, 0.23451853, -918990.4, 11389.536, 0.0, 10.000313, 9.999283 
8.450544e+2, 2.1506524e+2, -825018.94, -909261.5, -40389.29, 0.02731587, 0.2620781, -808783.56, 23601.723, 0.0, 10.000399, 9.999283 
8.450657e+2, 2.2506441e+2, -753662.6, -894622.9, -42852.47, 0.029653493, 0.28281355, -741657.7, -7262.585, 0.0, 10.00052, 9.998652 
8.4507686e+2, 2.3506317e+2, -632881.6, -785410.06, -41241.055, 0.013484414, 0.29443964, -622444.9, 13964.497, 0.0, 10.000675, 9.998654 
8.450882e+2, 2.4506173e+2, -542005.3, -734286.5, -37556.004, 0.01751243, 0.30425853, -534930.3, 3494.4429, 0.0, 10.0008135, 9.998265 
8.4509987e+2, 2.5506005e+2, -425713.72, -626919.0, -41642.887, 0.041306775, 0.3098591, -417435.6, 23005.635, 0.0, 10.0009365, 9.99827 
8.451116e+2, 2.6505816e+2, -308566.34, -520002.63, -28193.377, 0.059215315, 0.29395905, -304871.53, 37587.14, 0.0, 10.00107, 9.998267 
8.451236e+2, 2.7505603e+2, -189970.7, -411941.13, -27232.504, 0.071131185, 0.25443625, -186678.5, 57798.66, 0.0, 10.001211, 9.998268 
8.451356e+2, 2.8505406e+2, -90837.516, -347287.2, -11559.063, 0.07689392, 0.24607287, -90317.56, 56177.816, 0.0, 10.001365, 9.997965 
8.451478e+2, 2.9505223e+2, 31398.941, -237492.47, -6938.9766, 0.0775701, 0.26634568, 31577.889, 80091.27, 0.0, 10.001531, 9.997966 
8.451601e+2, 3.0505022e+2, 145309.84, -95367.35, 1435.1038, 0.09123608, 0.24253646, 145318.4, 145318.4, 0.0, 10.001711, 9.998521 
8.4517264e+2, 3.150488e+2, 174706.52, -76945.53, -4102.481, 0.11427882, 0.24961925, 174773.39, 174773.39, 0.0, 10.001894, 9.998559 
8.549461e+2, 1.2505578e+2, -1667751.8, -1738584.1, -69608.02, 0.018908165, 0.1307908, -1625068.1, 89398.48, 0.0, 10.00053, 9.999578 
8.549597e+2, 1.3505562e+2, -1566128.8, -1623027.1, 55416.44, -0.05679451, 0.14132944, -1532285.5, 84183.15, 0.0, 10.000474, 9.999734 
8.5497355e+2, 1.4505519e+2, -1493662.9, -1560298.6, -32363.57, 0.013851824, 0.13688907, -1480532.1, 37941.758, 0.0, 10.000403, 9.99952 
8.5498536e+2, 1.5505496e+2, -1403524.8, -1465694.6, -32626.713, -0.007572405, 0.16149026, -1389545.5, 30931.838, 0.0, 10.000348, 9.999524 
8.5499704e+2, 1.6505466e+2, -1304188.5, -1360459.6, -49038.35, -0.016695606, 0.17641895, -1275787.6, 46693.94, 0.0, 10.000328, 9.999583 
8.5500866e+2, 1.7505428e+2, -1204120.6, -1261467.4, -43446.65, -0.0037251504, 0.17935775, -1180738.5, 43747.918, 0.0, 10.000342, 9.999583 
8.550203e+2, 1.8505397e+2, -1111665.6, -1172192.6, -41102.61, 0.0076297084, 0.1940945, -1090886.9, 35603.83, 0.0, 10.00033, 9.999529 
8.550317e+2, 1.9505374e+2, -1019366.25, -1076791.8, -36472.863, 0.014172644, 0.21834175, -1001660.3, 26834.285, 0.0, 10.00029, 9.999531 
8.550433e+2, 2.0505328e+2, -937314.06, -1017414.8, -36444.027, 0.020035217, 0.23461924, -923214.7, 7285.7725, 0.0, 10.000314, 9.999254 
8.5505474e+2, 2.1505262e+2, -826720.06, -913215.0, -37368.277, 0.026305402, 0.24098329, -812812.2, 19696.05, 0.0, 10.000401, 9.999255 
8.5506624e+2, 2.2505179e+2, -750557.3, -888495.56, -37236.887, 0.030304294, 0.26259547, -741147.06, -6629.2144, 0.0, 10.000521, 9.998694 
8.550777e+2, 2.3505083e+2, -629803.94, -779109.3, -35566.277, 0.031813856, 0.29617763, -621764.5, 14764.733, 0.0, 10.000675, 9.998698 
8.5508925e+2, 2.450494e+2, -549324.6, -749504.3, -33072.695, 0.03931971, 0.312253, -544002.06, -5457.448, 0.0, 10.0008135, 9.998161 
8.5510087e+2, 2.5504756e+2, -433047.94, -642370.1, -37030.39, 0.052719995, 0.30902854, -426690.13, 13873.76, 0.0, 10.000937, 9.998164 
8.5511273e+2, 2.6504558e+2, -306452.25, -515876.22, -22839.215, 0.06160835, 0.29240516, -303990.4, 38591.61, 0.0, 10.001071, 9.998295 
8.551247e+2, 2.7504358e+2, -187919.97, -407845.34, -21892.768, 0.06617168, 0.2602155, -185761.8, 58837.34, 0.0, 10.001211, 9.998296 
8.5513693e+2, 2.8504166e+2, -81988.625, -328692.1, -5309.538, 0.07343379, 0.24778354, -81874.41, 64742.047, 0.0, 10.001363, 9.998094 
8.551493e+2, 2.950398e+2, 39803.215, -219283.75, -655.853, 0.08308508, 0.2523449, 39804.875, 88438.97, 0.0, 10.001527, 9.998093 
8.551618e+2, 3.0503777e+2, 140504.94, -104317.72, 8707.277, 0.08913318, 0.22635749, 140814.22, 140814.22, 0.0, 10.001706, 9.998462 
8.551743e+2, 3.1503642e+2, 169657.02, -86357.234, 3307.0425, 0.089482434, 0.24063423, 169699.73, 169699.73, 0.0, 10.001889, 9.998497 
8.649468e+2, 1.2504289e+2, -1653961.3, -1732325.1, -58557.53, 0.023157157, 0.12527373, -1622686.1, 91906.32, 0.00000000000000000000885557, 10.000627, 9.999576 
8.6496013e+2, 1.3504274e+2, -1567695.6, -1621530.3, 55935.95, -0.06145447, 0.13518244, -1532537.4, 84056.95, 0.0, 10.000454, 9.999753 
8.6497396e+2, 1.4504239e+2, -1500807.1, -1560145.3, -29617.605, 0.01172637, 0.1363678, -1488554.3, 30044.55, 0.0, 10.0003395, 9.999553 
8.649855e+2, 1.5504223e+2, -1407644.0, -1464099.3, -25658.486, -0.018835353, 0.1646759, -1397725.1, 22876.781, 0.0, 10.000304, 9.999556 
8.649972e+2, 1.6504195e+2, -1307483.1, -1356776.3, -41762.234, -0.027303638, 0.17722842, -1283637.1, 38968.953, 0.0, 10.000283, 9.99963 
8.650089e+2, 1.7504153e+2, -1210667.0, -1259171.3, -42921.902, -0.0041996357, 0.17192797, -1185619.5, 38991.61, 0.0, 10.000275, 9.999631 
8.650206e+2, 1.8504128e+2, -1115584.5, -1167500.3, -46608.156, 0.01223348, 0.18630461, -1088193.3, 38421.566, 0.0, 10.000276, 9.999588 
8.650321e+2, 1.9504118e+2, -1016452.7, -1068775.5, -46004.145, 0.018961057, 0.21788692, -989691.5, 38925.723, 0.0, 10.000282, 9.999589 
8.6504364e+2, 2.0504075e+2, -932174.7, -1015883.4, -42478.23, 0.022643121, 0.23399162, -914395.25, 16227.495, 0.0, 10.000354, 9.999246 
8.650552e+2, 2.1504e+2, -814447.6, -908172.94, -41953.37, 0.024262384, 0.23285533, -798412.0, 34219.363, 0.0, 10.000488, 9.999248 
8.6506677e+2, 2.2503912e+2, -743863.06, -884059.6, -43357.65, 0.029999422, 0.25054368, -731537.75, 3103.4917, 0.0, 10.000562, 9.998705 
8.650784e+2, 2.3503818e+2, -643650.8, -784476.6, -44327.703, 0.039685614, 0.28374383, -630859.6, 5792.771, 0.0, 10.000575, 9.998709 
8.650901e+2, 2.4503681e+2, -563917.2, -754679.4, -34839.7, 0.048743583, 0.30350447, -557753.44, -19086.152, 0.0, 10.000706, 9.998178 
8.651019e+2, 2.5503504e+2, -429780.78, -638975.8, -29954.857, 0.057292294, 0.30795962, -425576.03, 15109.928, 0.0, 10.000953, 9.998179 
8.6511385e+2, 2.6503307e+2, -304570.75, -519368.47, -17108.248, 0.06439175, 0.29213855, -303216.66, 39487.684, 0.0, 10.001103, 9.998255 
8.651259e+2, 2.7503094e+2, -198335.77, -417199.38, -21333.027, 0.069989026, 0.25374776, -196275.78, 48446.773, 0.0, 10.001159, 9.998257 
8.651383e+2, 2.8502905e+2, -93566.54, -322907.13, -7088.613, 0.07994389, 0.23971896, -93347.65, 53391.875, 0.0, 10.001235, 9.998195 
8.6515087e+2, 2.9502732e+2, 18211.092, -218257.03, -4507.7515, 0.09385904, 0.24741064, 18296.992, 67052.34, 0.0, 10.001329, 9.998195 
8.6516345e+2, 3.050254e+2, 106687.58, -118389.04, 8537.704, 0.097594574, 0.22280648, 107010.97, 107010.97, 0.0, 10.001464, 9.998481 
8.651761e+2, 3.15024e+2, 132546.56, -102259.0, 8520.01, 0.089192495, 0.23353927, 132855.3, 132855.3, 0.0, 10.001626, 9.998513 
8.749473e+2, 1.250301e+2, -1658966.4, -1742923.6, -60287.523, 0.017389208, 0.114403196, -1627482.1, 87234.75, 0.0000000055054987, 10.000627, 9.999503 
8.7496054e+2, 1.3502996e+2, -1571237.6, -1628986.4, 48931.24, -0.060206387, 0.13056293, -1543296.6, 73422.57, 0.0, 10.000455, 9.9997015 
8.749743e+2, 1.4502968e+2, -1494795.1, -1547990.5, -31352.463, 0.018678388, 0.13684563, -1480278.1, 38444.83, 0.0, 10.00034, 9.999636 
8.7498575e+2, 1.5502955e+2, -1401846.9, -1452275.8, -27160.531, -0.02941454, 0.1607752, -1390001.1, 30724.387, 0.0, 10.000305, 9.999637 
8.749974e+2, 1.6502929e+2, -1310368.3, -1362978.6, -42362.363, -0.037862476, 0.17206824, -1286808.3, 35921.316, 0.0, 10.000283, 9.999587 
8.750093e+2, 1.7502885e+2, -1213464.9, -1265333.0, -43452.18, 0.0036646223, 0.16882245, -1188796.0, 35939.453, 0.0, 10.000276, 9.999589 
8.750209e+2, 1.8502857e+2, -1114999.4, -1166672.5, -46543.504, 0.022590317, 0.1836717, -1087602.3, 39137.23, 0.0, 10.000277, 9.999593 
8.7503237e+2, 1.9502847e+2, -1015914.9, -1068029.0, -45961.117, 0.015430036, 0.2140698, -989138.3, 39603.457, 0.0, 10.000283, 9.999594 
8.7504387e+2, 2.0502807e+2, -931335.7, -1014368.94, -37625.72, 0.014545276, 0.23261598, -916822.6, 13924.161, 0.0, 10.000355, 9.999256 
8.750556e+2, 2.1502738e+2, -813720.8, -906664.7, -37092.22, 0.02106939, 0.23731348, -800732.94, 32021.67, 0.0, 10.000488, 9.999258 
8.750673e+2, 2.2502643e+2, -745509.6, -887495.3, -42998.51, 0.028689737, 0.24645859, -733503.4, 1261.8297, 0.0, 10.000562, 9.998681 
8.750789e+2, 2.3502523e+2, -645016.94, -787758.4, -43908.14, 0.03734136, 0.25762442, -632592.06, 4186.5703, 0.0, 10.000576, 9.998686 
8.750908e+2, 2.4502392e+2, -554487.5, -735520.06, -25585.465, 0.046091076, 0.27852666, -550940.94, -12148.265, 0.0, 10.000707, 9.998308 
8.7510276e+2, 2.5502253e+2, -420598.44, -619902.1, -20780.984, 0.055133373, 0.30657247, -418454.7, 22352.715, 0.0, 10.000952, 9.998311 
8.75115e+2, 2.650206e+2, -312152.38, -534961.94, -15139.711, 0.06737968, 0.29312876, -311128.34, 31697.26, 0.0, 10.0011015, 9.998149 
8.751272e+2, 2.750182e+2, -205808.22, -432727.97, -19246.313, 0.082066804, 0.23566459, -204187.4, 40659.94, 0.0, 10.001159, 9.998151 
8.7513965e+2, 2.8501627e+2, -88390.625, -312264.7, -3460.7043, 0.095826834, 0.22229388, -88337.14, 58527.38, 0.0, 10.001235, 9.998268 
8.7515235e+2, 2.950148e+2, 23545.676, -207420.02, -860.06335, 0.10944092, 0.25090364, 23548.879, 72426.055, 0.0, 10.00133, 9.998269 
8.751651e+2, 3.0501303e+2, 113027.9, -105230.086, 14854.257, 0.11574775, 0.23111874, 114034.21, 114034.21, 0.0, 10.001464, 9.998571 
8.751779e+2, 3.1501156e+2, 138249.98, -89706.38, 14816.797, 0.111257836, 0.22732018, 139209.02, 139209.02, 0.0, 10.001622, 9.998602 
8.8494796e+2, 1.2501733e+2, -1653900.0, -1743937.9, -61339.344, 0.016375616, 0.108115375, -1622832.1, 92009.28, 0.00000006865042, 10.000677, 9.999472 
8.84961e+2, 1.3501719e+2, -1562728.9, -1626365.5, 44815.055, -0.06605896, 0.12500407, -1539585.4, 77258.555, 0.0, 10.000521, 9.999687 
8.8497466e+2, 1.4501694e+2, -1485531.9, -1539402.4, -31956.896, 0.018648105, 0.13409893, -1470673.0, 48174.58, 0.0, 10.000386, 9.999672 
8.8498604e+2, 1.5501681e+2, -1399848.1, -1447246.1, -31015.582, -0.032206297, 0.15431069, -1384513.6, 36336.363, 0.0, 10.000302, 9.999673 
8.849976e+2, 1.6501659e+2, -1314088.1, -1363235.1, -44142.438, -0.041084196, 0.16745266, -1288140.3, 34713.66, 0.0, 10.000253, 9.9996 
8.850095e+2, 1.7501622e+2, -1218992.5, -1266513.6, -41279.33, 0.002686211, 0.17151707, -1195123.8, 29735.299, 0.0, 10.000232, 9.999601 
8.8502115e+2, 1.8501598e+2, -1115886.0, -1163951.4, -39459.926, 0.02094914, 0.18705156, -1093716.4, 33146.395, 0.0, 10.0002575, 9.99962 
8.850326e+2, 1.9501585e+2, -1007337.8, -1060689.0, -37370.523, 0.010013708, 0.21171337, -988098.9, 40766.12, 0.0, 10.000329, 9.999622 
8.850442e+2, 2.0501542e+2, -937412.44, -1021822.94, -30330.045, 0.009899316, 0.22747144, -927644.6, 3225.5596, 0.0, 10.000333, 9.999215 
8.85056e+2, 2.150147e+2, -848911.44, -927949.9, -33757.066, 0.021958815, 0.23196901, -836456.56, -3578.213, 0.0, 10.000265, 9.999219 
8.850678e+2, 2.2501369e+2, -773315.25, -900224.94, -36351.746, 0.030163612, 0.23808064, -763640.3, -28750.984, 0.0, 10.000368, 9.998687 
8.8507944e+2, 2.3501244e+2, -635290.94, -782441.8, -35280.707, 0.034257457, 0.24391992, -627269.4, 9633.71, 0.0, 10.000641, 9.998692 
8.850915e+2, 2.4501115e+2, -540194.6, -728222.2, -20531.705, 0.0440872, 0.2663937, -537978.75, 938.1192, 0.0, 10.000804, 9.998311 
8.8510376e+2, 2.5500983e+2, -434065.72, -625983.06, -25291.865, 0.059816323, 0.30257055, -430788.6, 10142.224, 0.0, 10.000858, 9.998314 
8.851161e+2, 2.6500794e+2, -335228.1, -550492.8, -23603.264, 0.07529278, 0.29211497, -332670.44, 10278.647, 0.0, 10.000963, 9.998109 
8.8512844e+2, 2.7500546e+2, -214480.81, -441393.4, -22962.71, 0.089752585, 0.23243494, -212180.39, 32791.4, 0.0, 10.001119, 9.99811 
8.85141e+2, 2.8500348e+2, -81492.66, -304375.72, -5776.395, 0.10275195, 0.21473528, -81343.05, 65646.28, 0.0, 10.001264, 9.998308 
8.851538e+2, 2.95002e+2, 35097.74, -197324.9, -5886.747, 0.115379155, 0.23708569, 35246.742, 84248.49, 0.0, 10.001391, 9.998309 
8.8516665e+2, 3.050003e+2, 114071.72, -100022.31, 5484.448, 0.12233975, 0.22186115, 114212.125, 114212.125, 0.0, 10.0014515, 9.998613 
8.851795e+2, 3.14999e+2, 114968.79, -96375.29, 1765.2653, 0.12004994, 0.23145548, 114983.53, 114983.53, 0.0, 10.001444, 9.998642 
8.9494866e+2, 1.250046e+2, -1653318.3, -1743147.0, -61830.45, 0.018461954, 0.10615047, -1621810.8, 93154.84, 0.00000033535434, 10.000678, 9.999477 
8.9496136e+2, 1.3500445e+2, -1561374.4, -1623595.4, 38293.734, -0.07894845, 0.11875896, -1543146.5, 73822.06, 0.00000000007521531, 10.000521, 9.999706 
8.9497495e+2, 1.4500421e+2, -1486288.1, -1541155.6, -35669.867, 0.011746088, 0.12846196, -1468722.4, 50249.777, 0.0, 10.000387, 9.99966 
8.9498633e+2, 1.5500404e+2, -1400481.4, -1448860.0, -34426.36, -0.027589053, 0.14527656, -1382595.8, 38379.504, 0.0, 10.000302, 9.999661 
8.9499784e+2, 1.6500388e+2, -1309362.6, -1353792.3, -45062.152, -0.037263393, 0.16324075, -1281337.1, 41641.44, 0.0, 10.000254, 9.999665 
8.9500964e+2, 1.750037e+2, -1214310.6, -1257136.3, -42325.75, -0.007114091, 0.17999032, -1188289.5, 36692.48, 0.0, 10.000233, 9.999665 
8.950213e+2, 1.8500353e+2, -1112357.4, -1156917.6, -37053.52, 0.00729415, 0.19645803, -1091401.4, 35583.39, 0.0, 10.000258, 9.999669 
8.950328e+2, 1.9500336e+2, -1003824.06, -1053648.5, -34967.25, 0.0025995795, 0.21080728, -985802.3, 43184.617, 0.0, 10.00033, 9.99967 
8.950445e+2, 2.0500283e+2, -943692.5, -1035193.56, -33132.203, 0.008547748, 0.21862191, -932955.4, -1962.5157, 0.0, 10.000334, 9.999123 
8.950563e+2, 2.1500194e+2, -854960.5, -941071.9, -36534.332, 0.026687551, 0.21706493, -841548.94, -8546.343, 0.0, 10.000267, 9.999128 
8.9506817e+2, 2.2500093e+2, -770768.1, -895394.25, -26328.695, 0.034206554, 0.22547622, -765434.2, -30420.646, 0.0, 10.000369, 9.99872 
8.950801e+2, 2.3499982e+2, -633019.1, -777879.1, -25178.566, 0.03039639, 0.24218482, -628767.56, 8258.17, 0.0, 10.000641, 9.998723 
8.950923e+2, 2.4499851e+2, -548740.3, -746018.06, -18669.88, 0.04259703, 0.26668772, -546989.0, -7949.1406, 0.0, 10.000803, 9.99819 
8.9510477e+2, 2.5499701e+2, -442509.03, -643679.94, -23237.75, 0.0709347, 0.29604095, -439859.66, 1196.3505, 0.0, 10.000858, 9.998193 
8.951171e+2, 2.649951e+2, -333733.94, -547513.56, -17755.197, 0.08782884, 0.28905827, -332269.3, 10805.36, 0.0, 10.000963, 9.99813 
8.9512956e+2, 2.7499276e+2, -213018.75, -438313.6, -17036.37, 0.09315622, 0.24330753, -211737.77, 33358.14, 0.0, 10.001118, 9.998132 
8.951422e+2, 2.8499073e+2, -81286.17, -303693.97, -788.92865, 0.1010829, 0.21668269, -81283.375, 65830.6, 0.0, 10.001262, 9.998314 
8.951551e+2, 2.9498893e+2, 35076.836, -196781.67, -990.5005, 0.11205617, 0.20702349, 35081.066, 84210.01, 0.0, 10.001388, 9.998314 
8.95168e+2, 3.0498728e+2, 113134.445, -101242.01, 5371.2236, 0.117905006, 0.19594522, 113268.94, 113268.94, 0.0, 10.001448, 9.998607 
8.951809e+2, 3.1498638e+2, 113863.56, -97870.28, 1851.8195, 0.11603319, 0.24477346, 113879.76, 113879.76, 0.0, 10.001439, 9.998634 
9.0494937e+2, 1.24991916e+2, -1644373.6, -1742600.9, -54453.523, 0.017994717, 0.09553733, -1620157.0, 94932.38, 0.0000010631732, 10.000755, 9.999443 
9.0496176e+2, 1.3499182e+2, -1567280.1, -1628913.0, 36259.516, -0.087849826, 0.11894006, -1550510.8, 66581.195, 0.000000007369457, 10.000491, 9.999683 
9.049753e+2, 1.4499165e+2, -1495647.5, -1545436.9, -33443.813, 0.006886242, 0.1355184, -1478850.1, 40245.32, 0.0, 10.000322, 9.999661 
9.049866e+2, 1.5499143e+2, -1406677.1, -1451646.0, -31293.586, -0.029099992, 0.14680466, -1390628.0, 30471.227, 0.0, 10.00026, 9.999662 
9.049981e+2, 1.6499129e+2, -1302572.1, -1343424.5, -37566.51, -0.039635297, 0.16388512, -1280237.8, 42864.402, 0.0, 10.000271, 9.999727 
9.0500987e+2, 1.7499122e+2, -1191855.3, -1239185.9, -35102.02, -0.015037379, 0.18423861, -1173186.3, 51917.977, 0.0, 10.000357, 9.999728 
9.0502155e+2, 1.8499106e+2, -1098771.6, -1155122.1, -34426.164, -0.00036468063, 0.2008643, -1082460.9, 44645.824, 0.0, 10.000373, 9.999625 
9.050332e+2, 1.949908e+2, -1009608.94, -1061204.5, -39336.707, 0.001244331, 0.2120837, -988365.2, 40744.406, 0.0, 10.000311, 9.999627 
9.050448e+2, 2.0499016e+2, -949337.7, -1045116.3, -39681.063, 0.008659026, 0.21481253, -935033.94, -3917.4563, 0.0, 10.000326, 9.999058 
9.0505666e+2, 2.1498914e+2, -837445.06, -939847.0, -41295.16, 0.02329398, 0.2061732, -822867.4, 10259.987, 0.0, 10.00042, 9.9990635 
9.050686e+2, 2.249881e+2, -755958.0, -894282.25, -27807.963, 0.033080146, 0.21606639, -750577.0, -15438.282, 0.0, 10.000498, 9.998666 
9.0508074e+2, 2.3498704e+2, -648437.9, -791364.56, -33118.01, 0.03741677, 0.24267757, -641136.94, -3986.4478, 0.0, 10.000562, 9.998669 
9.050931e+2, 2.4498568e+2, -566669.4, -752772.56, -27070.809, 0.051587276, 0.26477832, -562811.56, -23646.656, 0.0, 10.000672, 9.998206 
9.051056e+2, 2.5498405e+2, -445266.88, -643110.44, -21556.313, 0.07559048, 0.2795463, -442945.4, -1763.3842, 0.0, 10.000832, 9.998209 
9.051181e+2, 2.6498213e+2, -332705.44, -547362.44, -10820.004, 0.08973449, 0.27311686, -332161.44, 11039.093, 0.0, 10.000972, 9.998126 
9.051307e+2, 2.7497998e+2, -217478.73, -440799.8, -12053.148, 0.09416843, 0.24317852, -216830.08, 28390.354, 0.0, 10.001089, 9.998128 
9.0514344e+2, 2.849779e+2, -96044.7, -313537.2, 372.38565, 0.10032454, 0.21542808, -96044.07, 51194.82, 0.0, 10.001173, 9.998289 
9.051564e+2, 2.9497588e+2, 9709.417, -211627.61, -2156.6892, 0.10818254, 0.1874516, 9730.43, 58986.406, 0.0, 10.001225, 9.99829 
9.0516937e+2, 3.0497432e+2, 89532.87, -106081.64, 1938.7351, 0.11616695, 0.1802699, 89552.08, 89552.08, 0.0, 10.001258, 9.998665 
9.051823e+2, 3.1497368e+2, 91352.99, -102360.54, 2910.6362, 0.12229755, 0.25418952, 91396.72, 91396.72, 0.0, 10.001258, 9.998691 
9.149501e+2, 1.2497927e+2, -1649336.9, -1753515.5, -58667.426, 0.014155986, 0.07690916, -1622971.4, 92240.945, 0.0000026057617, 10.000757, 9.999368 
9.1496223e+2, 1.3497937e+2, -1571980.0, -1638672.6, 25791.201, -0.0933417, 0.12536213, -1563169.9, 54044.082, 0.00000007607973, 10.000491, 9.999617 
9.149756e+2, 1.4497931e+2, -1494891.0, -1543976.1, -35993.305, 0.0035518566, 0.15515721, -1475869.1, 43347.723, 0.0, 10.000322, 9.999671 
9.149868e+2, 1.5497902e+2, -1405876.3, -1450181.3, -33880.684, -0.03678689, 0.15911534, -1387548.8, 33672.688, 0.0, 10.00026, 9.999672 
9.149983e+2, 1.6497885e+2, -1298396.0, -1335016.4, -34639.297, -0.048190232, 0.16960388, -1277525.3, 45699.07, 0.0, 10.000271, 9.999785 
9.1501015e+2, 1.7497878e+2, -1187592.8, -1230620.8, -32111.566, -0.021238536, 0.18431678, -1170454.4, 54771.258, 0.0, 10.000358, 9.999787 
9.150219e+2, 1.8497857e+2, -1108157.8, -1174887.3, -36954.59, -0.0022345535, 0.20025115, -1091734.5, 35494.016, 0.0, 10.000374, 9.99949 
9.150335e+2, 1.949782e+2, -1019017.8, -1081043.4, -41943.67, 0.0057304567, 0.21544535, -997866.75, 31366.166, 0.0, 10.000312, 9.999491 
9.1504514e+2, 2.0497747e+2, -952071.6, -1051082.8, -36499.633, 0.010103714, 0.21591653, -940070.9, -8829.928, 0.0, 10.000327, 9.999017 
9.1505694e+2, 2.1497633e+2, -840289.25, -946008.4, -38067.313, 0.011895599, 0.19915955, -828008.56, 5244.071, 0.0, 10.00042, 9.999021 
9.1506904e+2, 2.2497518e+2, -765679.75, -914679.9, -25616.537, 0.026760403, 0.20970947, -761398.7, -26133.945, 0.0, 10.000498, 9.998526 
9.150815e+2, 2.3497407e+2, -658183.4, -811770.25, -30775.438, 0.054810487, 0.24531505, -652246.1, -14968.834, 0.0, 10.000562, 9.9985285 
9.1509396e+2, 2.4497266e+2, -556272.7, -731269.5, -21137.666, 0.070638195, 0.2607644, -553755.7, -14463.724, 0.0, 10.000672, 9.998354 
9.1510636e+2, 2.5497094e+2, -434851.25, -621607.2, -15630.392, 0.07405579, 0.25357252, -433552.1, 7756.692, 0.0, 10.000832, 9.998357 
9.15119e+2, 2.6496908e+2, -334626.66, -551417.25, -6411.3574, 0.081380844, 0.24491377, -334437.22, 8889.343, 0.0, 10.000972, 9.998098 
9.151317e+2, 2.7496707e+2, -219657.6, -445089.9, -7592.934, 0.092558034, 0.2324181, -219402.14, 25943.203, 0.0, 10.001087, 9.998099 
9.1514456e+2, 2.84965e+2, -100408.32, -321942.1, 2347.969, 0.10007753, 0.21091203, -100383.44, 46980.652, 0.0, 10.001169, 9.998233 
9.1515756e+2, 2.949629e+2, 5208.5503, -219934.63, -54.802933, 0.10394551, 0.17781597, 5208.564, 54591.45, 0.0, 10.001221, 9.998236 
9.151706e+2, 3.0496135e+2, 97071.88, -89455.88, 2348.793, 0.11708634, 0.17440484, 97101.46, 97101.46, 0.0, 10.001253, 9.998782 
9.151837e+2, 3.14961e+2, 98910.695, -85799.234, 3261.1536, 0.13732988, 0.2593765, 98968.25, 98968.25, 0.0, 10.001254, 9.998807 
9.2495066e+2, 1.24966756e+2, -1674285.5, -1764645.9, -56840.65, 0.011761407, 0.06960734, -1646856.4, 68477.89, 0.000005355975, 10.000583, 9.999375 
9.2496264e+2, 1.3496691e+2, -1573870.8, -1637784.1, 27342.813, -0.09668755, 0.12076676, -1563769.6, 53566.07, 0.00000033393198, 10.000472, 9.999632 
9.249759e+2, 1.4496689e+2, -1488076.0, -1545073.0, -27808.818, 0.001443979, 0.15667607, -1476756.1, 42582.164, 0.0, 10.000389, 9.999632 
9.24987e+2, 1.5496656e+2, -1394914.6, -1449172.4, -29460.676, -0.04471647, 0.16174963, -1381994.6, 39348.773, 0.0, 10.000355, 9.999634 
9.249985e+2, 1.6496634e+2, -1286166.0, -1327616.1, -30028.326, -0.055334896, 0.16819586, -1270405.1, 52941.668, 0.0, 10.000349, 9.999798 
9.250105e+2, 1.749662e+2, -1185485.0, -1228055.0, -31018.734, -0.020611262, 0.17379679, -1169150.8, 56197.574, 0.0, 10.000366, 9.999801 
9.250223e+2, 1.8496595e+2, -1115192.3, -1188026.6, -39189.918, -0.00023385695, 0.18902591, -1098111.1, 29240.262, 0.0, 10.000368, 9.999402 
9.2503375e+2, 1.9496559e+2, -1019067.7, -1090815.8, -40794.02, 0.0023911337, 0.21185727, -1000617.7, 28738.543, 0.0, 10.000355, 9.999403 
9.250455e+2, 2.0496477e+2, -955826.5, -1066994.5, -33087.855, 0.0070927795, 0.21692422, -946723.7, -15358.562, 0.0, 10.000362, 9.99889 
9.2505735e+2, 2.1496351e+2, -853548.5, -966624.9, -41202.84, 0.015060585, 0.20186621, -840127.8, -6749.7524, 0.0, 10.000391, 9.998893 
9.250696e+2, 2.2496228e+2, -777126.25, -923007.56, -27902.586, 0.033630177, 0.20875226, -771971.5, -36580.434, 0.0, 10.000432, 9.9985 
9.250821e+2, 2.3496105e+2, -671006.75, -820681.94, -24717.729, 0.06281878, 0.23509738, -667030.44, -29626.176, 0.0, 10.000485, 9.998504 
9.250946e+2, 2.4495955e+2, -564808.3, -733658.94, -11449.2705, 0.07509328, 0.24350938, -564035.5, -24616.25, 0.0, 10.000607, 9.998369 
9.251072e+2, 2.549578e+2, -439245.0, -622117.9, -15851.236, 0.0703513, 0.23177657, -437881.22, 3554.864, 0.0, 10.000795, 9.998371 
9.251199e+2, 2.64956e+2, -338951.13, -546698.8, -11833.959, 0.076681085, 0.22347328, -338279.2, 5174.1025, 0.0, 10.000913, 9.998159 
9.2513275e+2, 2.7495408e+2, -233685.48, -444983.9, -6654.9775, 0.093745716, 0.21602426, -233476.1, 11994.846, 0.0, 10.000962, 9.99816 
9.251457e+2, 2.8495207e+2, -129871.64, -342738.56, 4522.615, 0.10389503, 0.20153546, -129775.59, 17713.787, 0.0, 10.000996, 9.998174 
9.251587e+2, 2.9495e+2, -30177.893, -243575.58, 1664.0468, 0.107672885, 0.17761508, -30164.918, 19343.75, 0.0, 10.001006, 9.998177 
9.2517173e+2, 3.0494848e+2, 70611.89, -90994.375, 2754.79, 0.120802134, 0.17058598, 70658.836, 70658.836, 0.0, 10.001023, 9.998881 
9.2518485e+2, 3.1494802e+2, 77225.664, -84866.516, 2302.1921, 0.1406383, 0.23709576, 77258.35, 77258.35, 0.0, 10.001057, 9.998908 
9.3495125e+2, 1.2495442e+2, -1668053.5, -1751658.5, -54847.8, 0.008824499, 0.07355565, -1640894.3, 74560.64, 0.000009813605, 10.000582, 9.999466 
9.349631e+2, 1.3495447e+2, -1567194.6, -1623948.6, 22803.566, -0.09785959, 0.1053592, -1559167.5, 58289.242, 0.0000009955157, 10.000472, 9.999726 
9.349763e+2, 1.4495444e+2, -1494341.8, -1558431.0, -29479.686, 0.0007017989, 0.14021337, -1482844.3, 36615.168, 0.00000000002439963, 10.00039, 9.999539 
9.349873e+2, 1.5495412e+2, -1401189.6, -1462467.1, -30945.32, -0.053164847, 0.15458237, -1388281.4, 33183.64, 0.0, 10.000356, 9.999542 
9.3499875e+2, 1.6495381e+2, -1288494.0, -1332657.6, -29539.56, -0.061412863, 0.15959874, -1273695.1, 49774.01, 0.0, 10.00035, 9.9997635 
9.350109e+2, 1.7495352e+2, -1187744.3, -1232991.4, -30627.803, -0.013335062, 0.15271209, -1172290.5, 53181.33, 0.0, 10.000367, 9.999766 
9.350227e+2, 1.8495321e+2, -1118157.3, -1194467.1, -39988.38, 0.005501528, 0.16721065, -1101041.3, 26433.94, 0.0, 10.000368, 9.999358 
9.35034e+2, 1.9495292e+2, -1021876.5, -1097006.9, -41608.133, -0.008735293, 0.20133978, -1003384.75, 26094.738, 0.0, 10.000356, 9.99936 
9.350457e+2, 2.049521e+2, -970517.44, -1097850.3, -32304.898, -0.00043083634, 0.21780495, -962790.44, -31301.531, 0.0, 10.000363, 9.998678 
9.3505794e+2, 2.1495074e+2, -868341.75, -997713.5, -40354.25, 0.032309934, 0.21409321, -856786.4, -23282.777, 0.0, 10.000392, 9.998679 
9.350702e+2, 2.2494936e+2, -770979.56, -910736.8, -26026.238, 0.053314693, 0.21313837, -766290.2, -30772.469, 0.0, 10.000434, 9.998584 
9.350825e+2, 2.3494793e+2, -664575.5, -808076.6, -22790.16, 0.06171843, 0.21244852, -661043.06, -23511.809, 0.0, 10.000488, 9.998589 
9.350951e+2, 2.4494636e+2, -572495.9, -750234.5, -4478.5723, 0.065296225, 0.21338032, -572383.1, -32836.53, 0.0, 10.000609, 9.998255 
9.351079e+2, 2.5494462e+2, -447377.13, -639031.1, -8699.927, 0.06427622, 0.21383087, -446983.0, -5419.1777, 0.0, 10.000794, 9.998256 
9.3512076e+2, 2.6494285e+2, -329190.94, -526101.0, -9989.308, 0.07526364, 0.20842654, -328685.47, 14895.207, 0.0, 10.000911, 9.9983015 
9.3513376e+2, 2.74941e+2, -223805.8, -424062.34, -4808.083, 0.09780535, 0.194441, -223690.42, 21906.77, 0.0, 10.000959, 9.998305 
9.351468e+2, 2.8493914e+2, -134655.1, -352169.44, 4988.981, 0.111612104, 0.18762684, -134540.73, 13074.0205, 0.0, 10.000993, 9.998111 
9.351598e+2, 2.9493722e+2, -35094.824, -253122.66, 2061.2366, 0.117966786, 0.18603799, -35075.34, 14558.079, 0.0, 10.001002, 9.998113 
9.3517286e+2, 3.0493557e+2, 75529.18, -79780.9, 3896.9849, 0.12629355, 0.16860598, 75626.91, 75626.91, 0.0, 10.001019, 9.998961 
9.3518585e+2, 3.1493476e+2, 81954.38, -73425.59, 3722.9048, 0.13330588, 0.18952219, 82043.53, 82043.53, 0.0, 10.001049, 9.99899 
9.449517e+2, 1.2494207e+2, -1676983.4, -1753729.8, -41287.79, 0.0020163946, 0.0648592, -1658990.0, 56584.79, 0.000016619406, 10.00051, 9.999486 
9.449636e+2, 1.3494204e+2, -1573152.6, -1624134.5, 24191.316, -0.09762836, 0.08687125, -1563500.9, 54076.43, 0.0000023427797, 10.00042, 9.99975 
9.449767e+2, 1.4494205e+2, -1496538.0, -1562616.5, -24538.902, 0.0029275364, 0.12500377, -1488422.1, 31157.63, 0.0000000053592455, 10.000389, 9.999512 
9.449876e+2, 1.5494178e+2, -1393078.8, -1461590.0, -21215.121, -0.057488423, 0.14812253, -1387041.3, 34543.66, 0.0, 10.000424, 9.999515 
9.449991e+2, 1.6494146e+2, -1286785.5, -1341676.5, -20501.53, -0.06733615, 0.15647867, -1279973.6, 43615.91, 0.0, 10.000404, 9.999675 
9.4501126e+2, 1.7494105e+2, -1199599.1, -1248491.1, -25828.54, -0.016154582, 0.1471112, -1188482.1, 37111.19, 0.0, 10.000328, 9.999679 
9.45023e+2, 1.8494064e+2, -1130461.9, -1210223.5, -36678.836, 0.0055567785, 0.1593093, -1116159.5, 11438.418, 0.0, 10.000327, 9.9992695 
9.4503444e+2, 1.9494022e+2, -1021777.25, -1106787.5, -41811.563, -0.0057410253, 0.19149122, -1004659.44, 24943.588, 0.0, 10.000399, 9.999271 
9.450462e+2, 2.0493934e+2, -965910.7, -1107366.0, -30582.262, 0.005527439, 0.20964278, -959582.0, -27968.693, 0.0, 10.000446, 9.998573 
9.450584e+2, 2.1493791e+2, -864729.44, -1007801.56, -30724.152, 0.041216917, 0.211062, -858410.6, -24781.775, 0.0, 10.000468, 9.998573 
9.450707e+2, 2.2493644e+2, -757819.7, -909300.5, -14630.035, 0.058420483, 0.2086895, -756419.6, -20776.002, 0.0, 10.0005455, 9.998539 
9.450831e+2, 2.3493491e+2, -639831.44, -801164.7, -21108.639, 0.05602684, 0.20028052, -637115.4, 542.4118, 0.0, 10.000681, 9.998544 
9.450957e+2, 2.4493325e+2, -555212.9, -744966.4, -5086.674, 0.05921061, 0.19591622, -555076.6, -15402.964, 0.0, 10.000741, 9.998227 
9.451087e+2, 2.5493145e+2, -459475.34, -647864.1, -2959.146, 0.06836042, 0.19307618, -459428.88, -17737.486, 0.0, 10.000725, 9.998229 
9.4512165e+2, 2.6492968e+2, -351994.1, -533808.56, -6456.1187, 0.08129422, 0.18965466, -351765.16, -8057.0586, 0.0, 10.000741, 9.998331 
9.4513464e+2, 2.7492794e+2, -246813.73, -431821.78, -9748.768, 0.09764054, 0.18349998, -246301.45, -577.74133, 0.0, 10.000788, 9.998335 
9.4514763e+2, 2.8492615e+2, -161731.2, -368140.9, -4143.82, 0.108944766, 0.18194312, -161648.05, -13906.97, 0.0, 10.00082, 9.998084 
9.451606e+2, 2.9492423e+2, -60601.867, -268355.03, -4543.4966, 0.11610833, 0.1827867, -60502.547, -10742.288, 0.0, 10.00084, 9.998087 
9.451737e+2, 3.0492255e+2, 52371.527, -83121.09, -2714.6611, 0.12360462, 0.16013597, 52425.895, 52425.895, 0.0, 10.000827, 9.999031 
9.4518673e+2, 3.1492165e+2, 46600.105, -82505.18, -3833.6455, 0.12906326, 0.16665995, 46713.84, 46713.84, 0.0, 10.000772, 9.999061 
9.5495206e+2, 1.24929756e+2, -1680380.8, -1761225.5, -38438.23, -0.009937954, 0.04352549, -1665022.6, 50671.215, 0.000026449812, 10.000511, 9.999434 
9.54964e+2, 1.3492967e+2, -1576896.4, -1631771.9, 20423.264, -0.09639638, 0.06505119, -1570129.8, 47567.2, 0.0000047469885, 10.000419, 9.999698 
9.549771e+2, 1.4492974e+2, -1494209.6, -1557792.4, -23300.373, 0.00786256, 0.11084148, -1486585.3, 33113.617, 0.000000046136613, 10.000388, 9.999545 
9.5498806e+2, 1.5492961e+2, -1390554.3, -1456615.8, -20025.42, -0.057717707, 0.14232697, -1384957.9, 36745.188, 0.0, 10.000425, 9.999549 
9.5499945e+2, 1.649293e+2, -1296711.3, -1362663.6, -23593.258, -0.073126145, 0.15879245, -1289140.3, 34567.465, 0.0, 10.000405, 9.999531 
9.550115e+2, 1.7492881e+2, -1209526.9, -1269484.5, -28950.012, -0.029119162, 0.15691422, -1197830.4, 27882.383, 0.0, 10.000329, 9.999534 
9.550233e+2, 1.8492824e+2, -1139722.8, -1229827.0, -34260.926, -0.0002025335, 0.16530704, -1128175.4, -456.21875, 0.0, 10.000328, 9.999134 
9.55035e+2, 1.9492754e+2, -1031129.9, -1126561.4, -39392.332, 0.011045811, 0.18236548, -1016970.4, 12756.396, 0.0, 10.0004, 9.999136 
9.5504683e+2, 2.049265e+2, -965964.06, -1107806.0, -30099.953, 0.024708107, 0.19259678, -959840.94, -28102.768, 0.0, 10.000447, 9.9985695 
9.550589e+2, 2.1492507e+2, -864663.5, -1008040.56, -30182.895, 0.041888453, 0.19306007, -858568.6, -24815.094, 0.0, 10.000469, 9.998571 
9.5507115e+2, 2.2492355e+2, -769688.1, -934272.94, -9868.327, 0.04914989, 0.1955363, -769098.56, -33329.844, 0.0, 10.000546, 9.998367 
9.550836e+2, 2.3492195e+2, -651988.75, -826466.44, -16099.007, 0.04578981, 0.19822592, -650515.75, -12732.04, 0.0, 10.00068, 9.99837 
9.550964e+2, 2.449202e+2, -551477.8, -737227.8, -5736.462, 0.056645963, 0.19071966, -551300.8, -11500.461, 0.0, 10.000741, 9.998281 
9.5510954e+2, 2.5491828e+2, -455358.25, -639589.7, -3501.7354, 0.08218306, 0.16969244, -455291.72, -13472.981, 0.0, 10.000726, 9.998285 
9.5512253e+2, 2.649165e+2, -357556.63, -545566.25, -4629.732, 0.09432766, 0.16728267, -357442.7, -13607.197, 0.0, 10.000741, 9.99825 
9.551354e+2, 2.7491492e+2, -252750.17, -443798.72, -7820.539, 0.092828855, 0.18244042, -252430.58, -6580.0796, 0.0, 10.000786, 9.998255 
9.5514834e+2, 2.849131e+2, -161800.45, -367515.03, -3166.159, 0.09589764, 0.18393606, -161751.73, -13883.427, 0.0, 10.000816, 9.998091 
9.551614e+2, 2.9491103e+2, -60695.754, -267597.47, -3341.5864, 0.10326797, 0.16872062, -60641.8, -10752.744, 0.0, 10.000835, 9.998095 
9.5517445e+2, 3.049094e+2, 55537.55, -75135.45, -4228.418, 0.113512, 0.14557083, 55674.234, 55674.234, 0.0, 10.000819, 9.999089 
9.5518744e+2, 3.1490868e+2, 49160.242, -74840.54, -5378.2686, 0.12615857, 0.16621248, 49393.074, 49393.074, 0.0, 10.000761, 9.999119 
9.649525e+2, 1.24917455e+2, -1685268.9, -1760126.1, -39562.2, -0.019413391, 0.031008404, -1668235.9, 47577.168, 0.00003990401, 10.0004635, 9.999465 
9.6496433e+2, 1.3491732e+2, -1578636.0, -1629389.1, 18825.209, -0.10011578, 0.043832324, -1572415.8, 45400.574, 0.000008636752, 10.000394, 9.999725 
9.649775e+2, 1.449174e+2, -1501150.5, -1566286.3, -20752.922, 0.0081284335, 0.092610784, -1495100.4, 24717.736, 0.00000019058375, 10.000363, 9.999498 
9.6498847e+2, 1.549173e+2, -1401108.5, -1466869.0, -23756.797, -0.053675424, 0.13194372, -1393424.0, 28398.307, 0.0, 10.000376, 9.999502 
9.6499985e+2, 1.6491696e+2, -1307331.4, -1384667.3, -32123.479, -0.07003556, 0.15468366, -1295728.8, 28098.969, 0.0, 10.000405, 9.999379 
9.650118e+2, 1.7491639e+2, -1202192.6, -1282826.3, -38071.652, -0.03195177, 0.15749127, -1187057.8, 38776.703, 0.0, 10.000453, 9.999383 
9.650237e+2, 1.8491565e+2, -1123167.3, -1229396.8, -39348.137, -0.0026507333, 0.1631877, -1110180.1, 17662.057, 0.0, 10.000475, 9.999066 
9.6503544e+2, 1.9491477e+2, -1025567.94, -1131401.8, -39492.137, 0.01535352, 0.16992487, -1012455.9, 17395.152, 0.0, 10.000471, 9.999068 
9.6504736e+2, 2.0491365e+2, -963988.1, -1115234.1, -30164.73, 0.029924883, 0.17932759, -958194.0, -26330.924, 0.0, 10.000498, 9.998494 
9.650594e+2, 2.1491225e+2, -857545.2, -1013021.8, -35834.504, 0.042019192, 0.18871684, -849683.56, -15805.126, 0.0, 10.000555, 9.998495 
9.6507174e+2, 2.2491065e+2, -770947.56, -942733.0, -14237.187, 0.04879293, 0.19040695, -769775.56, -33881.246, 0.0, 10.000572, 9.998297 
9.650843e+2, 2.3490888e+2, -676444.7, -846115.25, -13027.024, 0.04974981, 0.18220498, -675450.3, -37539.492, 0.0, 10.000546, 9.9983 
9.650971e+2, 2.4490705e+2, -573204.7, -746032.56, -760.3452, 0.060334347, 0.17186117, -573201.3, -33273.535, 0.0, 10.000585, 9.998295 
9.6511024e+2, 2.549052e+2, -459705.28, -639849.9, -1657.7512, 0.08082426, 0.15641697, -459690.03, -17744.75, 0.0, 10.000688, 9.9983015 
9.6512324e+2, 2.6490346e+2, -363215.2, -551256.6, -4264.044, 0.09285669, 0.15440196, -363118.53, -19156.494, 0.0, 10.000715, 9.998223 
9.651361e+2, 2.7490178e+2, -272629.88, -456355.0, -3715.6934, 0.096358106, 0.16449828, -272554.75, -26576.732, 0.0, 10.000662, 9.998227 
9.6514904e+2, 2.8489995e+2, -188362.13, -375677.2, 3811.453, 0.10032437, 0.16779631, -188284.61, -40288.766, 0.0, 10.000614, 9.998132 
9.6516204e+2, 2.9489803e+2, -96248.664, -279864.72, 6044.3613, 0.104457624, 0.16169024, -96049.91, -46034.34, 0.0, 10.000571, 9.998137 
9.6517503e+2, 3.048965e+2, 7167.0913, -97400.65, 1342.6738, 0.11046046, 0.14681113, 7184.3286, 7184.3286, 0.0, 10.0004835, 9.999098 
9.651879e+2, 3.1489587e+2, -9388.872, -102113.99, -3527.7332, 0.11745678, 0.17310503, -9254.853, -9254.853, 0.0, 10.000356, 9.999126 
9.749529e+2, 1.249052e+2, -1677632.0, -1744116.6, -36196.418, -0.027913708, 0.027309623, -1661729.3, 54202.773, 0.000057479218, 10.000462, 9.999576 
9.749646e+2, 1.34905e+2, -1571155.5, -1613870.5, 15959.405, -0.10901106, 0.023147231, -1565851.4, 52083.813, 0.000014404859, 10.000394, 9.999832 
9.749778e+2, 1.4490506e+2, -1510056.3, -1585057.8, -20459.258, 0.0035264692, 0.070317164, -1504838.4, 15098.708, 0.0000005546723, 10.000364, 9.99937 
9.749889e+2, 1.5490489e+2, -1410114.5, -1485770.5, -23488.17, -0.045570504, 0.11691992, -1403415.5, 18526.906, 0.0, 10.000376, 9.9993725 
9.750004e+2, 1.6490446e+2, -1318437.3, -1408011.0, -30549.143, -0.058213186, 0.14412665, -1309010.5, 14938.912, 0.0, 10.000406, 9.999219 
9.750123e+2, 1.7490374e+2, -1213223.1, -1306106.8, -36550.68, -0.024782285, 0.14885812, -1200565.1, 25392.969, 0.0, 10.000454, 9.999223 
9.750241e+2, 1.849029e+2, -1123256.3, -1229973.5, -39803.05, -0.001883766, 0.15296558, -1110045.9, 17920.863, 0.0, 10.000476, 9.999063 
9.7503585e+2, 1.9490197e+2, -1025526.56, -1131720.9, -39952.52, 0.0073109213, 0.15414438, -1012174.4, 17801.205, 0.0, 10.000472, 9.999065 
9.750477e+2, 2.0490085e+2, -974194.56, -1136816.6, -28370.2, 0.02129344, 0.16973677, -969387.3, -37399.605, 0.0, 10.000499, 9.998346 
9.750599e+2, 2.1489947e+2, -867891.7, -1034895.44, -33930.285, 0.041484307, 0.19776961, -861261.3, -27257.994, 0.0, 10.000556, 9.998345 
9.750723e+2, 2.2489776e+2, -768936.4, -939040.9, -15367.79, 0.05700728, 0.19322585, -767559.1, -31538.783, 0.0, 10.000573, 9.998322 
9.75085e+2, 2.3489566e+2, -674265.5, -842160.75, -14096.641, 0.067333676, 0.15267046, -673090.1, -35051.16, 0.0, 10.000548, 9.998326 
9.750978e+2, 2.4489383e+2, -574773.7, -749662.7, 3016.261, 0.06996962, 0.1396817, -574721.7, -34665.78, 0.0, 10.000586, 9.99827 
9.7511077e+2, 2.5489223e+2, -461660.2, -643693.4, 2296.7922, 0.064774945, 0.15273038, -461631.22, -19560.188, 0.0, 10.000687, 9.998276 
9.7512376e+2, 2.6489046e+2, -361956.28, -548135.44, -6045.738, 0.07731556, 0.15064144, -361760.16, -17672.395, 0.0, 10.000712, 9.998246 
9.751368e+2, 2.7488852e+2, -271223.06, -453092.56, -5431.3213, 0.10781027, 0.13058668, -271061.0, -24954.791, 0.0, 10.00066, 9.998251 
9.751499e+2, 2.8488678e+2, -183886.69, -365625.8, 2365.7449, 0.12112313, 0.13442634, -183855.89, -35732.242, 0.0, 10.00061, 9.998203 
9.751628e+2, 2.9488525e+2, -92310.08, -269862.4, 4674.098, 0.117949046, 0.16117367, -92187.12, -42047.16, 0.0, 10.000563, 9.998211 
9.7517556e+2, 3.0488387e+2, 3092.0732, -103846.125, -3010.7522, 0.11321039, 0.16288134, 3176.7712, 3176.7712, 0.0, 10.000474, 9.999058 
9.7518814e+2, 3.1488317e+2, -13144.665, -108610.5, -7484.4644, 0.10326156, 0.18658526, -12561.451, -12561.451, 0.0, 10.000349, 9.999085 
9.8495317e+2, 1.2489276e+2, -1693302.0, -1746351.5, -31083.303, -0.03410844, 0.0077991667, -1678964.4, 37088.305, 0.00007951568, 10.000331, 9.999623 
9.8496497e+2, 1.3489258e+2, -1568069.5, -1607689.1, 9820.747, -0.110653564, 0.003230239, -1565768.8, 52286.293, 0.000022398126, 10.000396, 9.999874 
9.8497814e+2, 1.4489265e+2, -1504198.6, -1590482.4, -26331.746, 0.0030315307, 0.052318778, -1496797.6, 23259.205, 0.0000013019285, 10.00044, 9.999295 
9.849894e+2, 1.548924e+2, -1402589.8, -1490275.9, -25215.3, -0.041622825, 0.09667611, -1395855.9, 26207.283, 0.0, 10.000463, 9.999299 
9.8500085e+2, 1.6489187e+2, -1315056.4, -1421181.4, -28093.182, -0.05364596, 0.12610005, -1308078.5, 15992.928, 0.0, 10.000493, 9.999086 
9.850128e+2, 1.7489108e+2, -1211284.6, -1320003.8, -32138.586, -0.023805808, 0.13749531, -1202494.8, 23586.492, 0.0, 10.000531, 9.99909 
9.8502463e+2, 1.848902e+2, -1117524.9, -1235493.9, -38596.27, -0.003467878, 0.14669697, -1106019.3, 22071.506, 0.0, 10.000551, 9.998988 
9.850363e+2, 1.9488923e+2, -1018992.6, -1136735.8, -44178.94, 0.0044087144, 0.15136476, -1004259.56, 25840.336, 0.0, 10.000552, 9.998992 
9.850483e+2, 2.0488805e+2, -967535.7, -1140598.1, -30230.41, 0.019973248, 0.1677423, -962407.0, -30294.432, 0.0, 10.000575, 9.998282 
9.850606e+2, 2.1488658e+2, -863093.0, -1039694.25, -29471.836, 0.044761147, 0.19386648, -858304.44, -24175.494, 0.0, 10.00062, 9.998281 
9.85073e+2, 2.248848e+2, -759493.44, -936124.94, -11508.363, 0.06163275, 0.18688934, -758746.75, -22600.164, 0.0, 10.000646, 9.998306 
9.850856e+2, 2.3488268e+2, -660446.5, -837014.75, -13494.143, 0.069762714, 0.14296679, -659421.1, -21255.676, 0.0, 10.00065, 9.998312 
9.8509836e+2, 2.4488081e+2, -571669.2, -749188.2, 3197.3093, 0.06962137, 0.12918232, -571611.6, -31429.166, 0.0, 10.000612, 9.9982605 
9.8511136e+2, 2.5487924e+2, -485457.72, -656184.3, 3399.575, 0.061145946, 0.14438511, -485390.06, -43192.688, 0.0, 10.000528, 9.998266 
9.8512435e+2, 2.6487744e+2, -395547.2, -560644.75, -6026.769, 0.07276447, 0.13893856, -395327.47, -51113.207, 0.0, 10.000466, 9.998279 
9.851374e+2, 2.7487543e+2, -302370.53, -464269.4, -4926.095, 0.104691505, 0.10967072, -302220.78, -55987.55, 0.0, 10.00043, 9.998284 
9.8515034e+2, 2.8487378e+2, -218137.33, -373537.22, 1160.1692, 0.1197866, 0.11649568, -218128.67, -69878.72, 0.0, 10.000339, 9.99828 
9.8516315e+2, 2.948725e+2, -141715.36, -284986.88, 3561.1643, 0.118976, 0.1590197, -141626.89, -91362.68, 0.0, 10.000186, 9.998287 
9.851758e+2, 3.0487126e+2, -48368.57, -121477.22, 395.62244, 0.11181085, 0.16654389, -48366.426, -48366.426, 0.0, 10.000091, 9.999122 
9.8518825e+2, 3.1487054e+2, -50918.914, -119436.54, 3318.288, 0.09448044, 0.18382782, -50758.586, -50758.586, 0.0, 10.000059, 9.99915 
9.9495345e+2, 1.2488014e+2, -1694640.8, -1749160.0, -22817.58, -0.039646294, -0.028023792, -1686351.4, 29823.025, 0.00010622788, 10.000331, 9.999605 
9.9496543e+2, 1.3488011e+2, -1570081.6, -1611741.1, 12018.528, -0.10508033, -0.0160502, -1566863.1, 51312.69, 0.00003292342, 10.000395, 9.999846 
9.9497867e+2, 1.448802e+2, -1505559.3, -1593444.8, -25650.22, 0.0066472725, 0.03864996, -1498620.8, 21556.377, 0.0000026281716, 10.00044, 9.999275 
9.949898e+2, 1.5487982e+2, -1403715.5, -1492865.3, -24587.346, -0.041938446, 0.071170375, -1397384.0, 24800.564, 0.00000000019976186, 10.0004635, 9.999282 
9.950013e+2, 1.6487925e+2, -1322383.4, -1436732.9, -26913.957, -0.056467086, 0.10049172, -1316365.4, 7827.979, 0.0, 10.000494, 9.99898 
9.950133e+2, 1.7487845e+2, -1218568.3, -1335557.4, -30988.828, -0.029066594, 0.12334409, -1210866.8, 15337.069, 0.0, 10.000532, 9.998982 
9.9502516e+2, 1.8487756e+2, -1127549.4, -1256730.8, -38904.12, -0.007499628, 0.14431776, -1116737.9, 11476.075, 0.0, 10.000552, 9.998842 
9.9503684e+2, 1.9487658e+2, -1028956.0, -1157880.8, -44490.555, 0.0064075724, 0.16143304, -1015093.4, 15130.452, 0.0, 10.000554, 9.998847 
9.950489e+2, 2.0487528e+2, -965999.9, -1137896.3, -28920.252, 0.025729893, 0.17331673, -961264.7, -29027.186, 0.0, 10.000576, 9.998301 
9.950612e+2, 2.1487361e+2, -861518.2, -1036876.0, -28070.705, 0.051712655, 0.17728758, -857134.3, -22879.041, 0.0, 10.000622, 9.9983 
9.950737e+2, 2.2487181e+2, -763233.94, -944352.44, -11533.035, 0.062720545, 0.17145362, -762502.5, -26229.666, 0.0, 10.000648, 9.99825 
9.9508613e+2, 2.3486988e+2, -664147.7, -845153.25, -13430.325, 0.057489578, 0.15243569, -663156.6, -24866.375, 0.0, 10.000652, 9.998256 
9.950989e+2, 2.4486801e+2, -571227.5, -748659.44, 101.75164, 0.0595035, 0.13972975, -571227.44, -30920.05, 0.0, 10.000613, 9.998263 
9.9511194e+2, 2.5486618e+2, -485161.56, -655678.56, 453.21387, 0.06916793, 0.13157955, -485160.38, -42836.14, 0.0, 10.000528, 9.99827 
9.951248e+2, 2.6486436e+2, -393175.44, -555373.9, -7239.6416, 0.07852168, 0.11953487, -392852.94, -48511.44, 0.0, 10.000464, 9.998316 
9.9513763e+2, 2.748625e+2, -300289.63, -458887.03, -6071.809, 0.08755311, 0.10114422, -300057.5, -53698.375, 0.0, 10.000425, 9.998324 
9.9515045e+2, 2.8486097e+2, -213384.78, -362338.9, -4115.1133, 0.09725322, 0.11325061, -213271.17, -64896.363, 0.0, 10.000333, 9.99836 
9.951632e+2, 2.9485974e+2, -136672.63, -273626.03, -1696.9524, 0.108061224, 0.15516122, -136651.61, -86263.23, 0.0, 10.000182, 9.998368 
9.9517584e+2, 3.048586e+2, -38432.387, -99646.37, -603.0502, 0.106125556, 0.15840973, -38426.445, -38426.445, 0.0, 10.000085, 9.999274 
9.9518824e+2, 3.1485793e+2, -41500.914, -97357.47, 2381.9612, 0.08985884, 0.16587237, -41399.52, -41399.52, 0.0, 10.000048, 9.999308 
1.00495376e+3, 1.2486779e+2, -1678174.1, -1746984.6, -18298.39, -0.048160106, -0.034447562, -1673610.8, 42683.656, 0.00013782152, 10.000468, 9.999554 
1.0049659e+3, 1.3486762e+2, -1570730.8, -1618845.6, 8264.659, -0.10214385, -0.02885794, -1569350.8, 48946.4, 0.000046236724, 10.000421, 9.999785 
1.0049791e+3, 1.4486767e+2, -1502753.9, -1593989.0, -27812.81, 0.009442283, 0.024733258, -1494943.8, 25355.045, 0.00000474816, 10.000467, 9.999258 
1.00499034e+3, 1.5486726e+2, -1384402.9, -1485433.4, -26868.691, -0.03920665, 0.05616262, -1377701.8, 44604.313, 0.000000004412824, 10.000604, 9.999265 
1.00500196e+3, 1.6486663e+2, -1310213.4, -1446657.4, -33800.832, -0.0541132, 0.08802935, -1302299.0, 22016.479, 0.0, 10.000646, 9.998838 
1.0050139e+3, 1.7486575e+2, -1219914.3, -1352039.5, -40614.13, -0.027771452, 0.117117986, -1208428.4, 17899.0, 0.0, 10.000592, 9.998841 
1.0050257e+3, 1.8486477e+2, -1126018.5, -1265689.5, -45756.582, -0.00601967, 0.14069419, -1112363.5, 15975.235, 0.0, 10.000605, 9.9987545 
1.0050375e+3, 1.948637e+2, -1015294.5, -1160812.4, -46910.336, 0.009523339, 0.1566552, -1001483.0, 28866.621, 0.0, 10.0006895, 9.998761 
1.0050496e+3, 2.0486234e+2, -942543.2, -1122928.9, -29755.832, 0.027971199, 0.16499783, -937761.5, -5397.781, 0.0, 10.000722, 9.998333 
1.0050619e+3, 2.1486065e+2, -847269.7, -1026245.5, -27959.027, 0.050302915, 0.16284715, -843003.7, -8622.344, 0.0, 10.000704, 9.998333 
1.0050743e+3, 2.2485887e+2, -757423.44, -942529.4, -9716.129, 0.058385424, 0.15794075, -756914.8, -20516.17, 0.0, 10.000692, 9.99824 
1.00508675e+3, 2.3485701e+2, -659454.3, -843810.8, -8366.352, 0.0511735, 0.14708553, -659075.44, -20659.75, 0.0, 10.000689, 9.998247 
1.0050994e+3, 2.4485517e+2, -572755.3, -746458.25, 2223.9937, 0.0552934, 0.1366283, -572726.8, -32294.227, 0.0, 10.00059, 9.998289 
1.0051124e+3, 2.5485334e+2, -503051.5, -661216.44, 3916.6082, 0.071166724, 0.12462255, -502954.56, -60505.203, 0.0, 10.000393, 9.998297 
1.0051252e+3, 2.648515e+2, -426781.66, -572256.2, -2213.9868, 0.08067272, 0.11245667, -426747.97, -82281.4, 0.0, 10.000237, 9.998309 
1.00513786e+3, 2.7484968e+2, -344625.1, -480882.1, -4642.0894, 0.08377191, 0.09781386, -344467.13, -97982.94, 0.0, 10.000124, 9.998318 
1.0051505e+3, 2.8484818e+2, -257477.83, -375464.13, -7370.626, 0.08951428, 0.109305516, -257019.17, -108519.51, 0.0, 9.999995, 9.998431 
1.0051631e+3, 2.9484698e+2, -178767.9, -285495.1, -5685.163, 0.09787551, 0.14605843, -178465.92, -127953.12, 0.0, 9.999858, 9.998442 
1.0051756e+3, 3.048459e+2, -86919.47, -117054.89, -6213.0615, 0.09996118, 0.14930314, -85688.77, -85688.77, 0.0, 9.999727, 9.999327 
1.0051881e+3, 3.1484532e+2, -103254.24, -121108.63, -10736.356, 0.09520005, 0.16077837, -98218.484, -98218.484, 0.0, 9.9995985, 9.999361 
1.0149541e+3, 1.24855734e+2, -1684274.8, -1759689.9, -15051.096, -0.06171653, -0.010377554, -1681381.9, 35030.41, 0.00017450533, 10.000468, 9.999467 
1.0149663e+3, 1.3485518e+2, -1577670.4, -1633192.8, 6198.371, -0.10210205, -0.03506254, -1576986.9, 41432.004, 0.000062540406, 10.00042, 9.999687 
1.0149796e+3, 1.4485508e+2, -1503897.0, -1596493.1, -22798.174, 0.011193504, 0.010395583, -1498588.3, 21833.313, 0.000007860604, 10.000467, 9.999242 
1.014991e+3, 1.5485474e+2, -1385488.0, -1487968.3, -21990.97, -0.033548173, 0.05157504, -1380968.4, 41459.086, 0.000000028517778, 10.000605, 9.999248 
1.01500265e+3, 1.6485406e+2, -1322545.4, -1472628.9, -36084.113, -0.04669198, 0.088718206, -1314320.5, 10116.921, 0.0, 10.000648, 9.99866 
1.0150145e+3, 1.7485303e+2, -1232307.1, -1378175.3, -42954.08, -0.020100595, 0.1188045, -1220598.3, 5853.3853, 0.0, 10.000593, 9.998661 
1.01502635e+3, 1.8485188e+2, -1127876.4, -1269977.4, -43007.758, 0.00077627314, 0.13584483, -1115873.6, 12591.265, 0.0, 10.000607, 9.998725 
1.0150382e+3, 1.9485064e+2, -1017018.0, -1164872.8, -44057.527, 0.013683639, 0.13718428, -1004885.4, 25591.768, 0.0, 10.00069, 9.998733 
1.01505026e+3, 2.0484924e+2, -939215.75, -1116491.8, -30818.613, 0.02669426, 0.14288677, -934010.94, -1519.7937, 0.0, 10.000724, 9.998377 
1.0150624e+3, 2.1484768e+2, -843910.6, -1019656.3, -28926.277, 0.04060661, 0.15049192, -839272.06, -4765.006, 0.0, 10.000705, 9.998378 
1.01507485e+3, 2.2484598e+2, -754950.9, -937622.0, -10116.069, 0.04859556, 0.14642565, -754392.3, -17868.475, 0.0, 10.000692, 9.998274 
1.0150874e+3, 2.3484406e+2, -657170.25, -839017.44, -8581.06, 0.05043731, 0.1274174, -656766.25, -18224.584, 0.0, 10.000688, 9.998281 
1.0151e+3, 2.4484229e+2, -569777.56, -740144.9, -5180.068, 0.05664312, 0.1203329, -569620.2, -29062.219, 0.0, 10.000589, 9.998333 
1.0151127e+3, 2.5484064e+2, -500054.6, -654775.44, -3433.6978, 0.06739527, 0.12333942, -499978.4, -57405.613, 0.0, 10.000391, 9.9983425 
1.01512544e+3, 2.648389e+2, -430707.94, -580005.9, -6203.432, 0.07923983, 0.11724317, -430450.63, -85861.0, 0.0, 10.000235, 9.998258 
1.015138e+3, 2.74837e+2, -348708.88, -488840.16, -8438.286, 0.092138425, 0.09924692, -348202.56, -101594.12, 0.0, 10.000121, 9.998265 
1.01515055e+3, 2.848354e+2, -253772.6, -367089.4, -12250.331, 0.09524438, 0.104631834, -252463.36, -103838.85, 0.0, 9.999991, 9.99849 
1.01516284e+3, 2.9483417e+2, -174973.47, -276624.4, -10469.362, 0.088346146, 0.1325076, -173906.4, -123268.875, 0.0, 9.999852, 9.998506 
1.0151753e+3, 3.0483314e+2, -90348.266, -123247.83, -10306.792, 0.093224175, 0.13963449, -87386.06, -87386.06, 0.0, 9.9997225, 9.999287 
1.0151878e+3, 3.1483272e+2, -106562.52, -127583.34, -14611.089, 0.108729616, 0.16688056, -99074.25, -99074.25, 0.0, 9.999596, 9.999318 
1.0249546e+3, 1.2484328e+2, -1673914.5, -1758724.5, -17724.492, -0.06462934, -0.01336232, -1670359.4, 46174.48, 0.0002164286, 10.000557, 9.999431 
1.02496676e+3, 1.3484272e+2, -1548190.4, -1624733.4, 1854.5249, -0.10381682, -0.032774538, -1548145.5, 70395.016, 0.00008198819, 10.000648, 9.999635 
1.0249801e+3, 1.4484255e+2, -1473969.0, -1589031.1, -25184.846, 0.006605863, 0.010740789, -1468698.0, 51845.793, 0.000012107449, 10.000704, 9.999179 
1.0249917e+3, 1.5484199e+2, -1374033.9, -1489466.3, -28151.174, -0.02720781, 0.036793847, -1367534.4, 55016.95, 0.00000009714164, 10.000714, 9.999184 
1.0250034e+3, 1.6484123e+2, -1316385.5, -1478582.3, -43807.89, -0.035550866, 0.07206327, -1305309.6, 19252.45, 0.0, 10.000729, 9.998579 
1.0250153e+3, 1.7484024e+2, -1216071.4, -1379376.3, -43388.914, -0.010770992, 0.114549495, -1205259.1, 21317.156, 0.0, 10.000744, 9.99858 
1.0250271e+3, 1.8483904e+2, -1108951.3, -1268054.8, -38078.914, 0.005718506, 0.13348238, -1100307.4, 28282.969, 0.0, 10.000768, 9.99866 
1.02503896e+3, 1.9483761e+2, -1004838.56, -1166106.1, -41839.98, 0.01151756, 0.12540448, -994629.7, 35974.438, 0.0, 10.000805, 9.998669 
1.0250509e+3, 2.0483622e+2, -927445.5, -1103982.9, -33949.824, 0.021156482, 0.13044825, -921141.75, 11476.444, 0.0, 10.000775, 9.998437 
1.0250631e+3, 2.1483482e+2, -843820.0, -1012442.4, -30828.434, 0.035632238, 0.14643691, -838360.56, -3728.0605, 0.0, 10.000675, 9.998442 
1.0250755e+3, 2.2483319e+2, -768974.06, -936945.4, -10368.59, 0.046840206, 0.14464733, -768336.44, -31688.012, 0.0, 10.000565, 9.99834 
1.025088e+3, 2.348313e+2, -687973.6, -846454.4, -6674.9185, 0.054565404, 0.12183846, -687693.0, -49026.973, 0.0, 10.000445, 9.998346 
1.0251005e+3, 2.4482957e+2, -606141.25, -753736.8, -6303.771, 0.05966768, 0.11286642, -605872.5, -65190.434, 0.0, 10.000323, 9.998367 
1.02511294e+3, 2.5482798e+2, -525702.5, -663095.1, -5662.486, 0.062110744, 0.11559678, -525469.56, -82773.03, 0.0, 10.000198, 9.998377 
1.02512546e+3, 2.6482624e+2, -456639.94, -588387.5, -5513.7544, 0.07466571, 0.10966816, -456409.56, -111696.63, 0.0, 10.00004, 9.998293 
1.02513805e+3, 2.7482438e+2, -385712.9, -502373.44, -1500.9082, 0.097674236, 0.09219947, -385693.6, -138962.17, 0.0, 9.99985, 9.998302 
1.0251505e+3, 2.8482282e+2, -293488.44, -387008.13, -2652.8628, 0.10294626, 0.098912224, -293413.25, -144665.94, 0.0, 9.999723, 9.998483 
1.02516256e+3, 2.9482162e+2, -203389.77, -291116.97, -6125.4136, 0.090109006, 0.12922531, -202964.13, -152203.84, 0.0, 9.999661, 9.998498 
1.0251749e+3, 3.048206e+2, -112172.234, -130352.29, -7565.9004, 0.08971441, 0.13657539, -109435.54, -109435.54, 0.0, 9.999558, 9.999316 
1.0251872e+3, 3.1482014e+2, -130181.78, -135542.63, -6786.8003, 0.0999763, 0.16008967, -125565.266, -125565.266, 0.0, 9.999419, 9.999348 
1.0349552e+3, 1.2483044e+2, -1673214.0, -1757385.8, -10061.293, -0.056129947, -0.04465591, -1672028.1, 44630.902, 0.0002637313, 10.000557, 9.99944 
1.0349674e+3, 1.348303e+2, -1548751.9, -1626117.5, 5101.5513, -0.1074153, -0.022089975, -1548416.9, 70244.81, 0.00010469639, 10.0006485, 9.999625 
1.0349807e+3, 1.4483011e+2, -1481670.1, -1605294.1, -24931.174, -0.004481074, 0.0259682, -1476831.6, 43833.41, 0.000017566988, 10.000704, 9.999067 
1.03499256e+3, 1.5482904e+2, -1381820.9, -1505827.4, -28012.371, -0.020243675, 0.011895562, -1375786.6, 46890.805, 0.00000023822265, 10.000714, 9.999072 
1.03500426e+3, 1.6482812e+2, -1315197.6, -1476414.0, -43481.477, -0.020770717, 0.038005948, -1304218.1, 20471.38, 0.0, 10.000729, 9.998594 
1.0350161e+3, 1.748274e+2, -1214805.0, -1377214.6, -43129.49, 0.00009818597, 0.104250886, -1204062.1, 22638.805, 0.0, 10.000745, 9.998594 
1.03502795e+3, 1.8482625e+2, -1115783.0, -1282705.1, -37120.113, 0.008760259, 0.13349342, -1107900.5, 20814.115, 0.0, 10.000769, 9.998559 
1.03503965e+3, 1.948247e+2, -1011850.06, -1180956.5, -40715.664, 0.0030463703, 0.121223725, -1002557.6, 28172.773, 0.0, 10.000806, 9.998567 
1.03505164e+3, 2.0482329e+2, -922023.0, -1092974.8, -37998.78, 0.011284249, 0.12752257, -913957.25, 18787.48, 0.0, 10.000776, 9.998513 
1.0350637e+3, 2.1482204e+2, -838043.6, -1000896.3, -34874.17, 0.03514117, 0.15039423, -830889.75, 3867.8787, 0.0, 10.000676, 9.99852 
1.0350761e+3, 2.2482052e+2, -762071.9, -923134.75, -15104.316, 0.052807033, 0.15223663, -760667.6, -23895.342, 0.0, 10.0005665, 9.998434 
1.0350885e+3, 2.3481874e+2, -681252.7, -832907.4, -11295.642, 0.06336604, 0.1298911, -680416.0, -41627.234, 0.0, 10.000446, 9.998439 
1.0351008e+3, 2.4481699e+2, -604444.8, -750465.44, -10972.413, 0.064244896, 0.113941856, -603624.9, -62820.066, 0.0, 10.000324, 9.99839 
1.035113e+3, 2.5481525e+2, -524231.1, -660041.5, -10130.462, 0.05505516, 0.10166831, -523479.6, -80659.17, 0.0, 10.000197, 9.998399 
1.0351255e+3, 2.6481354e+2, -448747.75, -571741.44, -12404.202, 0.06674377, 0.09035203, -447509.25, -102672.67, 0.0, 10.000038, 9.998408 
1.0351379e+3, 2.7481183e+2, -377868.47, -485442.0, -8375.194, 0.100607745, 0.0774344, -377220.3, -130367.1, 0.0, 9.999846, 9.998421 
1.0351503e+3, 2.848104e+2, -299294.78, -398065.84, -4579.049, 0.11250713, 0.09243423, -299082.94, -150214.75, 0.0, 9.999719, 9.998409 
1.03516236e+3, 2.9480922e+2, -209547.34, -302781.8, -7748.9414, 0.10176685, 0.13526823, -208907.7, -158026.42, 0.0, 9.999656, 9.998421 
1.0351744e+3, 3.048082e+2, -106431.766, -117543.44, -12134.26, 0.08857781, 0.13956368, -98641.91, -98641.91, 0.0, 9.999554, 9.999407 
1.0351864e+3, 3.1480762e+2, -123934.59, -122049.71, -11085.631, 0.07054545, 0.14169253, -111866.53, -111866.53, 0.0, 9.999416, 9.999442 
1.0449559e+3, 1.24817766e+2, -1634804.4, -1743023.4, -6000.88, -0.04806732, -0.05803494, -1634472.6, 82309.91, 0.00031664252, 10.000839, 9.999402 
1.04496814e+3, 1.3481764e+2, -1538519.3, -1627221.8, 2285.9204, -0.0991211, -0.02765127, -1538460.4, 80324.56, 0.00013079311, 10.000746, 9.999571 
1.0449815e+3, 1.4481741e+2, -1482002.0, -1612612.4, -26472.236, -0.005975781, 0.02147587, -1476840.6, 43948.195, 0.000024312307, 10.000733, 9.999002 
1.04499325e+3, 1.548162e+2, -1375541.1, -1509908.5, -26358.209, -0.02097077, -0.0013599186, -1370555.5, 52247.176, 0.0000004785213, 10.000789, 9.999008 
1.0450051e+3, 1.6481523e+2, -1300035.5, -1471140.0, -41134.0, -0.01991659, 0.023746783, -1290660.4, 34154.758, 0.0, 10.000842, 9.998575 
1.04501694e+3, 1.7481452e+2, -1193371.3, -1368722.4, -43320.25, 0.0028196643, 0.09708352, -1183252.9, 43573.156, 0.0, 10.000901, 9.998577 
1.0450287e+3, 1.848134e+2, -1105322.1, -1280138.0, -39464.01, 0.012120625, 0.1293695, -1096826.3, 32013.46, 0.0, 10.000853, 9.998536 
1.0450404e+3, 1.948118e+2, -1030722.5, -1192486.1, -37259.71, 0.005777269, 0.115661025, -1022552.94, 8303.13, 0.0, 10.000688, 9.998545 
1.0450523e+3, 2.0481044e+2, -940915.1, -1095128.0, -30932.82, 0.013520373, 0.12278952, -934941.8, -2071.5518, 0.0, 10.000617, 9.998574 
1.0450645e+3, 2.1480928e+2, -837485.7, -993454.56, -29116.857, 0.03711127, 0.14925322, -832227.3, 2654.826, 0.0, 10.000649, 9.998584 
1.0450766e+3, 2.2480784e+2, -754741.2, -912205.7, -15249.329, 0.052350845, 0.15202597, -753278.0, -16381.855, 0.0, 10.000586, 9.9985 
1.04508884e+3, 2.348061e+2, -680919.0, -825296.44, -13748.173, 0.058107924, 0.12729278, -679621.5, -40709.19, 0.0, 10.000417, 9.998505 
1.04510106e+3, 2.4480441e+2, -608486.1, -738607.94, -11478.235, 0.05927274, 0.108818375, -607481.4, -66553.734, 0.0, 10.000237, 9.998512 
1.0451131e+3, 2.548028e+2, -537447.75, -652413.25, -3486.0996, 0.05567543, 0.094180524, -537342.1, -94400.09, 0.0, 10.000048, 9.998523 
1.04512535e+3, 2.6480117e+2, -473876.28, -579657.44, -6520.376, 0.066301435, 0.08506555, -473475.88, -128518.73, 0.0, 9.999848, 9.9984455 
1.0451376e+3, 2.747996e+2, -405707.25, -494863.22, -8724.54, 0.0921494, 0.079101995, -404861.53, -157888.55, 0.0, 9.999639, 9.998455 
1.0451498e+3, 2.8479815e+2, -333538.38, -408433.16, -121.21707, 0.105157755, 0.092028745, -333538.2, -184550.47, 0.0, 9.999457, 9.998464 
1.04516186e+3, 2.9479694e+2, -255594.67, -318739.06, 6066.413, 0.10506717, 0.122916505, -255017.14, -204016.0, 0.0, 9.999314, 9.998475 
1.04517385e+3, 3.0479592e+2, -143052.9, -122962.01, 8605.193, 0.09009993, 0.12207122, -119780.195, -119780.195, 0.0, 9.99925, 9.999516 
1.04518555e+3, 3.147955e+2, -137959.64, -116474.25, 10579.467, 0.057291828, 0.12640588, -112139.46, -112139.46, 0.0, 9.999268, 9.999552 
1.0549569e+3, 1.248053e+2, -1640749.5, -1755718.6, -7078.256, -0.042314664, -0.053064264, -1640315.4, 76588.85, 0.0003754382, 10.000839, 9.999315 
1.0549691e+3, 1.3480482e+2, -1545725.6, -1642309.6, -1369.8711, -0.07879003, -0.049544822, -1545706.1, 73203.74, 0.00016041061, 10.000746, 9.999467 
1.0549822e+3, 1.4480448e+2, -1483432.6, -1615731.1, -24484.271, 0.0021825987, -0.0029439705, -1479046.8, 41867.88, 0.000032450233, 10.000733, 9.998981 
1.0549939e+3, 1.5480347e+2, -1376843.9, -1512860.9, -24588.904, -0.02963127, -0.003131613, -1372535.3, 50391.504, 0.0000008393984, 10.00079, 9.998988 
1.0550057e+3, 1.6480254e+2, -1303595.0, -1478877.9, -39305.156, -0.033209044, 0.029218858, -1295184.8, 29754.195, 0.0, 10.000843, 9.998523 
1.05501786e+3, 1.748017e+2, -1196855.0, -1376276.9, -41395.406, -0.0026243126, 0.09312856, -1187764.9, 39186.348, 0.0, 10.000901, 9.998526 
1.0550296e+3, 1.8480054e+2, -1101474.9, -1272504.1, -45822.266, 0.015634948, 0.12118521, -1089971.9, 38993.426, 0.0, 10.000853, 9.998589 
1.05504125e+3, 1.94799e+2, -1026653.56, -1184581.5, -43791.676, 0.019353198, 0.108600006, -1015323.44, 15657.526, 0.0, 10.0006895, 9.998598 
1.0550531e+3, 2.0479769e+2, -937455.1, -1088447.8, -30135.326, 0.027564064, 0.116191745, -931662.9, 1331.7788, 0.0, 10.000618, 9.99862 
1.0550652e+3, 2.1479659e+2, -834178.25, -986813.7, -28099.75, 0.041392323, 0.14314547, -829169.5, 5836.492, 0.0, 10.000649, 9.99863 
1.0550772e+3, 2.2479516e+2, -752291.2, -907160.7, -21618.688, 0.045528024, 0.14422955, -749330.0, -12310.127, 0.0, 10.000585, 9.998535 
1.0550891e+3, 2.3479341e+2, -678380.9, -819990.25, -20095.695, 0.039141845, 0.11440114, -675584.3, -36547.82, 0.0, 10.000416, 9.998542 
1.0551012e+3, 2.4479187e+2, -593430.25, -707288.3, -18552.885, 0.04490337, 0.097722724, -590483.4, -49432.934, 0.0, 10.0002365, 9.998729 
1.0551133e+3, 2.5479054e+2, -522260.13, -620712.0, -10453.052, 0.06358644, 0.09292788, -521162.53, -78101.195, 0.0, 10.000046, 9.998742 
1.0551252e+3, 2.6478913e+2, -476961.63, -585807.06, -14174.924, 0.073024295, 0.09321211, -475145.9, -130071.13, 0.0, 9.999846, 9.9984045 
1.0551371e+3, 2.7478758e+2, -409176.53, -501732.56, -16185.759, 0.07249723, 0.09618037, -406427.7, -159336.78, 0.0, 9.999637, 9.998409 
1.0551491e+3, 2.847861e+2, -321981.28, -384103.5, -5203.755, 0.08133391, 0.097334675, -321548.4, -172442.36, 0.0, 9.999455, 9.9986315 
1.0551611e+3, 2.947847e+2, -243548.36, -293480.63, 1181.9113, 0.10061881, 0.09380886, -243520.4, -192400.44, 0.0, 9.999312, 9.99865 
1.0551731e+3, 3.0478376e+2, -134771.81, -105389.69, 9656.167, 0.09417078, 0.085655235, -102500.39, -102500.39, 0.0, 9.9992485, 9.999638 
1.0551848e+3, 3.1478375e+2, -130118.11, -99296.86, 11535.499, 0.057856698, 0.119785756, -95457.68, -95457.68, 0.0, 9.999263, 9.999672 
1.0649579e+3, 1.24792926e+2, -1591150.0, -1736787.5, 971.6816, -0.040890574, -0.050250087, -1591143.6, 125881.58, 0.00044022893, 10.001202, 9.99927 
1.0649701e+3, 1.3479222e+2, -1506967.9, -1630213.1, 7743.179, -0.0695955, -0.06132512, -1506483.3, 112549.21, 0.0001936281, 10.00104, 9.999408 
1.064983e+3, 1.4479181e+2, -1458661.6, -1612512.8, -10812.346, 0.0034812943, -0.016649468, -1457905.5, 63132.473, 0.00004209593, 10.000942, 9.998902 
1.0649948e+3, 1.5479085e+2, -1366326.0, -1516674.3, -15696.605, -0.028859455, -0.004964828, -1364704.8, 58345.21, 0.0000013547506, 10.0009, 9.998907 
1.0650066e+3, 1.6478989e+2, -1304827.1, -1478411.8, -31540.434, -0.031818315, 0.028368115, -1299273.9, 25788.541, 0.0, 10.000832, 9.99853 
1.0650187e+3, 1.7478895e+2, -1221249.6, -1386767.4, -29123.8, 0.0005576683, 0.08175351, -1216274.6, 10800.624, 0.0, 10.00073, 9.998536 
1.0650304e+3, 1.8478777e+2, -1125606.4, -1283361.0, -34775.855, 0.01994551, 0.1076991, -1118280.5, 10808.794, 0.0, 10.000685, 9.998595 
1.065042e+3, 1.9478631e+2, -1023737.6, -1182280.3, -36380.992, 0.024041342, 0.10183415, -1015787.9, 15316.643, 0.0, 10.000706, 9.998606 
1.0650537e+3, 2.0478502e+2, -932748.44, -1081710.3, -24880.186, 0.031814095, 0.10992823, -928702.7, 4415.272, 0.0, 10.000632, 9.998659 
1.0650656e+3, 2.147839e+2, -859657.4, -994536.3, -23370.172, 0.04423018, 0.13097301, -855722.8, -20593.363, 0.0, 10.000456, 9.99867 
1.0650775e+3, 2.2478256e+2, -786941.5, -912067.56, -17696.09, 0.04470927, 0.13167055, -784486.94, -47344.223, 0.0, 10.000297, 9.99864 
1.0650893e+3, 2.3478097e+2, -708609.56, -822425.9, -11261.919, 0.032279454, 0.10720187, -707505.9, -68347.984, 0.0, 10.000157, 9.99865 
1.0651012e+3, 2.4477957e+2, -619492.6, -708165.8, -12065.305, 0.038042523, 0.094842985, -617880.25, -76709.7, 0.0, 10.000008, 9.998833 
1.06511325e+3, 2.547784e+2, -543759.7, -619252.3, -12705.276, 0.063429214, 0.09320597, -541678.75, -98498.39, 0.0, 9.999848, 9.998847 
1.065125e+3, 2.647771e+2, -496410.25, -583638.2, -16955.223, 0.07320391, 0.09555582, -493230.47, -148037.77, 0.0, 9.999664, 9.998507 
1.0651365e+3, 2.7477565e+2, -428320.44, -499252.25, -8339.37, 0.06590504, 0.09954369, -427353.2, -180145.56, 0.0, 9.999455, 9.998514 
1.06514834e+3, 2.8477424e+2, -337500.88, -382118.34, 8721.769, 0.0726448, 0.09613262, -335856.56, -186634.61, 0.0, 9.999309, 9.998715 
1.0651604e+3, 2.9477283e+2, -249429.3, -286763.8, 8576.339, 0.094958976, 0.08188027, -247553.42, -196317.89, 0.0, 9.999231, 9.998734 
1.0651723e+3, 3.0477184e+2, -148238.8, -103169.53, 13629.485, 0.0946751, 0.0655861, -99368.4, -99368.4, 0.0, 9.999119, 9.999715 
1.0651841e+3, 3.14772e+2, -166171.05, -107582.59, 11934.388, 0.0672584, 0.10744393, -105244.86, -105244.86, 0.0, 9.998978, 9.999752 
1.0749591e+3, 1.24780685e+2, -1591352.1, -1737524.6, -3492.4053, -0.044436615, -0.0496732, -1591268.8, 125876.31, 0.0005108164, 10.001203, 9.999266 
1.074971e+3, 1.3477996e+2, -1508196.3, -1632901.4, 1473.2572, -0.07194876, -0.06298529, -1508178.9, 110973.35, 0.00023041679, 10.00104, 9.99939 
1.07498385e+3, 1.4477944e+2, -1468436.8, -1633021.4, -12550.871, -0.002503222, -0.019626493, -1467485.1, 53673.316, 0.000053336094, 10.000942, 9.998762 
1.07499585e+3, 1.5477833e+2, -1376159.0, -1537422.6, -17548.635, -0.018664053, -0.0067861457, -1374271.5, 48900.605, 0.0000020676762, 10.000901, 9.998765 
1.07500754e+3, 1.647773e+2, -1300021.8, -1468864.6, -35575.105, -0.015723525, 0.021284001, -1292832.3, 32353.043, 0.0000000000166348, 10.000833, 9.998596 
1.07501954e+3, 1.7477632e+2, -1216108.8, -1376636.1, -33284.953, 0.012137402, 0.06293708, -1209480.9, 17717.152, 0.0, 10.000731, 9.998605 
1.07503116e+3, 1.8477514e+2, -1128174.5, -1289245.0, -34470.23, 0.024886565, 0.08884323, -1121107.6, 8104.061, 0.0, 10.000687, 9.998554 
1.0750426e+3, 1.9477378e+2, -1026387.6, -1188228.9, -35867.63, 0.019937593, 0.09535041, -1018794.8, 12431.711, 0.0, 10.000708, 9.998565 
1.0750543e+3, 2.0477247e+2, -930356.56, -1077158.6, -31698.102, 0.02634747, 0.10404418, -923804.6, 9435.542, 0.0, 10.000633, 9.998691 
1.0750662e+3, 2.1477127e+2, -857198.75, -989902.94, -30210.559, 0.045538463, 0.11291306, -850644.9, -15392.374, 0.0, 10.000457, 9.998701 
1.0750779e+3, 2.2477004e+2, -774744.8, -887193.8, -23173.95, 0.04962106, 0.11445727, -770156.25, -32891.61, 0.0, 10.000298, 9.99881 
1.0750895e+3, 2.3476876e+2, -696320.06, -797171.44, -16544.762, 0.03702631, 0.10540394, -693675.25, -54398.707, 0.0, 10.000157, 9.998823 
1.0751012e+3, 2.4476753e+2, -619972.25, -709184.7, -18020.07, 0.03834054, 0.09985237, -616469.9, -75181.82, 0.0, 10.000008, 9.998826 
1.07511304e+3, 2.5476632e+2, -544602.2, -620707.25, -18422.865, 0.055341948, 0.09500063, -540377.06, -97078.01, 0.0, 9.9998455, 9.998838 
1.0751247e+3, 2.6476508e+2, -480015.38, -549226.2, -24470.428, 0.06686784, 0.09242374, -472237.56, -126926.74, 0.0, 9.999661, 9.998745 
1.075136e+3, 2.747638e+2, -411363.63, -463976.97, -15895.344, 0.071673915, 0.089985095, -406934.28, -159611.08, 0.0, 9.9994545, 9.998756 
1.0751477e+3, 2.847625e+2, -337339.88, -381808.84, 5876.7964, 0.07827631, 0.08882757, -336576.34, -187240.69, 0.0, 9.999309, 9.998718 
1.0751595e+3, 2.9476124e+2, -249678.63, -287180.7, 5962.2305, 0.08792249, 0.08610066, -248753.55, -197405.44, 0.0, 9.99923, 9.998733 
1.0751714e+3, 3.047602e+2, -145983.3, -98614.85, 8627.6455, 0.091510646, 0.060703214, -97092.36, -97092.36, 0.0, 9.999119, 9.999746 
1.0751832e+3, 3.1476027e+2, -163117.78, -101752.23, 6753.633, 0.08440848, 0.08966831, -101017.74, -101017.74, 0.0, 9.998979, 9.999792 
1.0849603e+3, 1.2476856e+2, -1577206.0, -1740378.5, 4002.0088, -0.04548383, -0.049936466, -1577107.9, 140155.66, 0.0005868399, 10.001343, 9.999178 
1.0849723e+3, 1.3476773e+2, -1482089.5, -1631949.6, 1103.7129, -0.07139385, -0.061265055, -1482081.4, 137190.27, 0.00027068684, 10.001271, 9.999285 
1.08498484e+3, 1.4476715e+2, -1439627.9, -1624385.5, -12332.5625, -0.008668692, -0.018865861, -1438808.4, 82470.26, 0.00006622561, 10.0011635, 9.998714 
1.0849968e+3, 1.5476598e+2, -1365496.1, -1537567.8, -10588.827, -0.013687362, -0.008218534, -1364847.0, 58445.836, 0.000003027, 10.0009985, 9.998717 
1.0850085e+3, 1.6476485e+2, -1292630.1, -1467874.5, -27021.502, -0.007808286, 0.015980957, -1288558.3, 36748.387, 0.000000000186287, 10.000895, 9.998572 
1.0850202e+3, 1.747638e+2, -1198399.8, -1370693.5, -31795.502, 0.013684545, 0.051813196, -1192719.4, 34600.434, 0.0, 10.000865, 9.998581 
1.08503185e+3, 1.8476261e+2, -1111325.0, -1279243.8, -33780.332, 0.022311488, 0.07747945, -1104784.3, 24549.43, 0.0, 10.000794, 9.99857 
1.0850433e+3, 1.9476132e+2, -1029086.2, -1187562.8, -30955.383, 0.01587004, 0.08999267, -1023254.25, 8093.5845, 0.0, 10.000681, 9.998581 
1.0850548e+3, 2.0476009e+2, -938035.1, -1075001.0, -28002.113, 0.023086274, 0.100646675, -932531.4, 829.70105, 0.0, 10.000556, 9.998742 
1.08506665e+3, 2.147589e+2, -858870.94, -984524.94, -25174.666, 0.04550114, 0.10660775, -854014.9, -18641.658, 0.0, 10.00042, 9.998756 
1.0850783e+3, 2.2475772e+2, -774978.1, -874850.5, -20387.922, 0.05230444, 0.106881395, -770976.5, -33591.83, 0.0, 10.000243, 9.998921 
1.0850896e+3, 2.3475657e+2, -707725.1, -789937.6, -18503.6, 0.041668095, 0.0988054, -703752.5, -64357.16, 0.0, 10.000025, 9.998937 
1.0851012e+3, 2.4475548e+2, -642088.9, -708603.6, -18981.404, 0.039759263, 0.09567524, -637053.3, -95647.695, 0.0, 9.999807, 9.998926 
1.0851127e+3, 2.547544e+2, -574856.4, -623869.0, -11586.256, 0.048008077, 0.094486214, -572255.5, -128839.88, 0.0, 9.999589, 9.9989395 
1.0851242e+3, 2.6475325e+2, -506501.25, -550494.0, -17009.861, 0.05924395, 0.091072656, -500691.6, -155265.16, 0.0, 9.999431, 9.998847 
1.08513534e+3, 2.7475205e+2, -420974.78, -457157.63, -18792.076, 0.07306812, 0.08309783, -412980.94, -165542.8, 0.0, 9.999339, 9.998858 
1.085147e+3, 2.8475082e+2, -342465.25, -378936.06, 1609.5309, 0.0790001, 0.08098422, -342394.38, -192944.64, 0.0, 9.99925, 9.998766 
1.0851586e+3, 2.9474962e+2, -255486.67, -284808.88, 5198.37, 0.07734794, 0.081962645, -254592.36, -203131.19, 0.0, 9.999168, 9.998778 
1.0851704e+3, 3.047485e+2, -150948.23, -102361.59, 7012.8706, 0.08231004, 0.049220305, -101369.625, -101369.625, 0.0, 9.999091, 9.999734 
1.0851823e+3, 3.1474856e+2, -157037.19, -99373.016, 1261.6149, 0.09025076, 0.077590086, -99345.43, -99345.43, 0.0, 9.999023, 9.999786 
1.0949617e+3, 1.24756575e+2, -1589506.9, -1765545.9, 2206.451, -0.044594053, -0.05124052, -1589479.3, 127901.16, 0.00066826155, 10.00134, 9.999007 
1.0949735e+3, 1.3475561e+2, -1495629.0, -1660260.0, -1730.8658, -0.067876466, -0.056032404, -1495610.8, 123779.46, 0.00031450897, 10.001271, 9.99909 
1.094986e+3, 1.4475495e+2, -1436638.1, -1618622.1, -18557.854, -0.014953849, -0.014252591, -1434765.0, 86633.14, 0.000080840386, 10.001164, 9.998754 
1.0949978e+3, 1.5475376e+2, -1362288.3, -1531252.8, -17227.447, -0.014168543, -0.009332213, -1360549.8, 62862.27, 0.0000043066148, 10.0009985, 9.99876 
1.0950094e+3, 1.6475257e+2, -1300550.0, -1484726.4, -28651.475, -0.008313318, 0.012355772, -1296195.8, 29230.314, 0.0000000006358386, 10.000896, 9.998457 
1.09502114e+3, 1.747514e+2, -1206489.8, -1388002.4, -33237.703, 0.0052102013, 0.048318766, -1200594.9, 26845.729, 0.0, 10.000866, 9.998462 
1.0950326e+3, 1.847502e+2, -1106290.3, -1269300.5, -38325.184, 0.0122048445, 0.07357708, -1097729.3, 31725.533, 0.0, 10.000796, 9.998638 
1.09504394e+3, 1.9474897e+2, -1023803.4, -1177136.0, -35522.46, 0.011721426, 0.085708074, -1015973.7, 15494.696, 0.0, 10.000683, 9.998652 
1.0950554e+3, 2.0474783e+2, -932879.94, -1064801.6, -33401.316, 0.021882737, 0.09955769, -924905.1, 8575.549, 0.0, 10.000557, 9.998812 
1.09506704e+3, 2.1474677e+2, -853533.94, -973908.94, -30507.514, 0.04402752, 0.111627564, -846243.7, -10752.134, 0.0, 10.000421, 9.998829 
1.0950785e+3, 2.2474563e+2, -771079.06, -867210.7, -28766.244, 0.05265829, 0.108666055, -763128.7, -25625.918, 0.0, 10.000244, 9.998974 
1.0950897e+3, 2.3474441e+2, -703939.7, -782439.2, -26745.988, 0.046044074, 0.08772159, -695693.25, -56179.117, 0.0, 10.000026, 9.998988 
1.09510094e+3, 2.447434e+2, -627889.94, -679431.4, -27077.793, 0.042136617, 0.082692064, -616279.7, -74756.41, 0.0, 9.999808, 9.999126 
1.0951122e+3, 2.5474265e+2, -560310.56, -593947.25, -19616.209, 0.04132161, 0.09164412, -551289.94, -107759.98, 0.0, 9.99959, 9.9991455 
1.09512344e+3, 2.647416e+2, -508529.75, -554868.44, -20379.05, 0.050298747, 0.091369055, -500842.56, -155302.94, 0.0, 9.999431, 9.998817 
1.0951348e+3, 2.7474034e+2, -423346.0, -462109.75, -21905.57, 0.07015663, 0.07881966, -413478.78, -165926.31, 0.0, 9.999338, 9.998825 
1.0951461e+3, 2.8473908e+2, -336612.72, -366630.44, -1237.8138, 0.074896105, 0.07271053, -336561.75, -186997.56, 0.0, 9.9992485, 9.998852 
1.0951576e+3, 2.947379e+2, -249404.13, -271873.88, 2572.2695, 0.063210785, 0.06996958, -249113.42, -197538.67, 0.0, 9.9991665, 9.998869 
1.0951693e+3, 3.0473682e+2, -155078.14, -110966.74, 4857.292, 0.06721942, 0.031504728, -110438.22, -110438.22, 0.0, 9.99909, 9.999676 
1.0951812e+3, 3.147369e+2, -160178.2, -106652.695, -798.559, 0.08510435, 0.0742344, -106640.78, -106640.78, 0.0, 9.999026, 9.999736 
1.1049631e+3, 1.24744594e+2, -1542560.0, -1746020.3, -938.2927, -0.045450184, -0.053981382, -1542555.6, 174941.63, 0.00075576623, 10.0016775, 9.998979 
1.104975e+3, 1.347435e+2, -1483692.3, -1659539.1, 5204.6636, -0.06114997, -0.068026334, -1483538.4, 135969.97, 0.00036234639, 10.001376, 9.999044 
1.1049872e+3, 1.4474276e+2, -1434912.6, -1623125.5, -6378.6963, -0.017021865, -0.028724303, -1434696.6, 86820.18, 0.00009737699, 10.001201, 9.998705 
1.1049988e+3, 1.5474159e+2, -1344179.4, -1527740.1, -12282.229, -0.0154694505, -0.016312353, -1343361.3, 80169.24, 0.0000060098255, 10.001146, 9.998713 
1.10501036e+3, 1.6474037e+2, -1278699.1, -1475949.6, -22593.924, -0.010222017, 0.004498903, -1276144.3, 49400.656, 0.0000000015512864, 10.001055, 9.99844 
1.1050218e+3, 1.7473908e+2, -1199438.6, -1386177.4, -19532.816, 0.0008832568, 0.030296966, -1197417.4, 30142.865, 0.0, 10.000922, 9.998447 
1.1050333e+3, 1.8473788e+2, -1105653.9, -1265941.5, -23817.48, 0.009786859, 0.05504231, -1102189.6, 27384.738, 0.0, 10.000788, 9.998665 
1.1050447e+3, 1.9473676e+2, -1026000.3, -1174955.0, -24438.047, 0.015882732, 0.07728848, -1022093.4, 9493.598, 0.0, 10.000654, 9.998681 
1.1050559e+3, 2.047357e+2, -936272.4, -1063267.6, -26016.715, 0.024544483, 0.09599872, -931149.2, 2449.5376, 0.0, 10.000521, 9.998839 
1.1050673e+3, 2.1473467e+2, -856554.2, -972120.56, -26503.945, 0.036349516, 0.10708006, -850765.75, -15156.179, 0.0, 10.000387, 9.998857 
1.10507846e+3, 2.2473356e+2, -772416.75, -859298.2, -29396.326, 0.042381387, 0.10261662, -763405.25, -25784.748, 0.0, 10.000199, 9.999049 
1.1050897e+3, 2.347324e+2, -709342.75, -776431.3, -25784.633, 0.041943815, 0.07942915, -700577.9, -60946.504, 0.0, 9.999952, 9.999064 
1.1051007e+3, 2.447315e+2, -632549.1, -668816.5, -27790.727, 0.043151483, 0.07563748, -617499.2, -75859.73, 0.0, 9.999722, 9.999241 
1.10511184e+3, 2.547309e+2, -563827.44, -582688.1, -27134.885, 0.04601315, 0.08981379, -544530.9, -100886.56, 0.0, 9.999511, 9.999261 
1.1051228e+3, 2.6472995e+2, -519284.44, -558980.75, -25754.986, 0.05367274, 0.088889726, -506616.94, -160963.53, 0.0, 9.999352, 9.998826 
1.10513404e+3, 2.7472857e+2, -435383.25, -467228.88, -24399.42, 0.06680095, 0.06921853, -422170.72, -174503.81, 0.0, 9.999253, 9.998831 
1.1051453e+3, 2.847274e+2, -346364.03, -361589.3, -2683.418, 0.06870213, 0.06176611, -345904.9, -196226.61, 0.0, 9.999141, 9.998939 
1.1051566e+3, 2.9472634e+2, -265189.72, -269467.2, 966.3923, 0.058366932, 0.06389307, -264981.5, -213294.16, 0.0, 9.999015, 9.998958 
1.1051683e+3, 3.0472523e+2, -163795.63, -110298.234, 11662.917, 0.06207441, 0.017996257, -107866.18, -107866.18, 0.0, 9.99901, 9.999719 
1.10518016e+3, 3.1472537e+2, -138403.13, -89502.53, 13266.357, 0.07793676, 0.060626183, -86135.33, -86135.33, 0.0, 9.999147, 9.999795 
1.1149647e+3, 1.2473264e+2, -1534797.8, -1729967.0, -12261.424, -0.048733454, -0.058402568, -1534030.4, 183583.52, 0.00085056474, 10.001677, 9.999089 
1.1149764e+3, 1.347314e+2, -1477054.1, -1645682.0, -6378.8228, -0.05141737, -0.097383425, -1476813.3, 142812.27, 0.00041499882, 10.001375, 9.999141 
1.1149884e+3, 1.447306e+2, -1444538.9, -1643083.8, -8895.431, -0.015083327, -0.062340274, -1444141.1, 77493.19, 0.00011616446, 10.0012, 9.998569 
1.1149999e+3, 1.5472949e+2, -1354059.3, -1548592.5, -14707.876, -0.01766053, -0.029125277, -1352953.5, 70694.43, 0.000008247579, 10.001147, 9.9985695 
1.11501135e+3, 1.6472824e+2, -1272826.0, -1464344.0, -27889.865, -0.01360783, -0.0075256885, -1268847.1, 56815.39, 0.0000000033697685, 10.001057, 9.998519 
1.1150228e+3, 1.7472684e+2, -1193055.4, -1373591.1, -24913.1, 0.0005159811, -0.0021938935, -1189680.5, 37997.797, 0.0, 10.000924, 9.998533 
1.11503415e+3, 1.8472564e+2, -1106500.8, -1268326.4, -29265.14, 0.014813548, 0.021935645, -1101371.0, 28321.047, 0.0, 10.00079, 9.998648 
1.1150454e+3, 1.9472475e+2, -1026860.2, -1177379.8, -29834.738, 0.028093124, 0.064779714, -1021162.25, 10541.12, 0.0, 10.000656, 9.998664 
1.1150565e+3, 2.0472373e+2, -937147.8, -1065624.0, -31311.61, 0.030902639, 0.09008038, -929922.94, 3792.098, 0.0, 10.000523, 9.998823 
1.1150675e+3, 2.147226e+2, -857474.94, -974419.1, -31753.672, 0.022552239, 0.09325863, -849409.25, -13682.201, 0.0, 10.000388, 9.998841 
1.1150785e+3, 2.2472154e+2, -765648.1, -845609.5, -38737.953, 0.021708636, 0.08888178, -749959.4, -12221.638, 0.0, 10.0002, 9.999144 
1.1150895e+3, 2.3472056e+2, -702178.3, -761942.2, -35213.78, 0.029566338, 0.073699914, -685876.44, -46129.426, 0.0, 9.999953, 9.999164 
1.11510046e+3, 2.4471976e+2, -630430.7, -664809.1, -35795.93, 0.042708665, 0.074268855, -607910.75, -66156.625, 0.0, 9.9997225, 9.999269 
1.1151115e+3, 2.547192e+2, -561796.2, -578876.3, -34898.67, 0.061417162, 0.08903629, -534407.9, -90649.21, 0.0, 9.999512, 9.999287 
1.1151223e+3, 2.6471823e+2, -516048.7, -552688.2, -29380.084, 0.06868535, 0.08376801, -499744.72, -153976.98, 0.0, 9.999353, 9.99887 
1.1151332e+3, 2.747168e+2, -432140.47, -461028.84, -27762.434, 0.062818244, 0.0544807, -415289.5, -167507.95, 0.0, 9.999255, 9.998874 
1.1151443e+3, 2.8471568e+2, -340242.13, -349352.0, -7038.368, 0.060201377, 0.048243184, -336413.38, -186621.22, 0.0, 9.999142, 9.999022 
1.11515574e+3, 2.9471487e+2, -259061.56, -257004.19, -3332.1365, 0.06221327, 0.06350174, -254545.56, -202746.44, 0.0, 9.999016, 9.999043 
1.1151674e+3, 3.0471376e+2, -154558.53, -90946.38, 16776.553, 0.066269144, 0.008609151, -86793.055, -86793.055, 0.0, 9.999008, 9.999852 
1.1151792e+3, 3.1471395e+2, -127910.11, -66895.82, 18603.95, 0.0682029, 0.040808424, -61670.723, -61670.723, 0.0, 9.999144, 9.999952 
1.1249663e+3, 1.2472088e+2, -1551823.8, -1738491.6, 2323.0283, -0.051568914, -0.06820549, -1551794.9, 165933.5, 0.0009537465, 10.001562, 9.999085 
1.1249779e+3, 1.3471963e+2, -1449830.4, -1635087.1, -690.6194, -0.048508924, -0.10604934, -1449827.9, 169912.13, 0.00047316175, 10.001574, 9.999117 
1.1249896e+3, 1.4471877e+2, -1405769.4, -1631106.9, -4416.6353, -0.02100097, -0.07218269, -1405682.8, 116066.484, 0.00013752929, 10.001495, 9.9985075 
1.1250011e+3, 1.547176e+2, -1335767.1, -1546623.0, -4680.3496, -0.020401543, -0.03946905, -1335663.3, 88100.19, 0.00001111389, 10.001304, 9.9985075 
1.1250125e+3, 1.6471629e+2, -1260002.6, -1457868.6, -17867.842, -0.015208843, -0.020404782, -1258402.1, 67376.39, 0.0000000061074554, 10.001143, 9.998521 
1.1250238e+3, 1.7471483e+2, -1178845.5, -1366252.6, -21141.115, -0.002355569, -0.019912316, -1176490.3, 51304.316, 0.0, 10.00102, 9.998536 
1.1250349e+3, 1.8471366e+2, -1091283.3, -1261144.1, -28342.172, 0.012721564, 0.0051766266, -1086679.0, 43129.133, 0.0, 10.000896, 9.998646 
1.1250462e+3, 1.9471283e+2, -1010516.75, -1169625.8, -27932.537, 0.02917444, 0.055432253, -1005755.5, 26063.559, 0.0, 10.00077, 9.998662 
1.1250571e+3, 2.0471184e+2, -927252.1, -1058730.5, -30015.58, 0.034456592, 0.08214849, -920723.94, 13106.764, 0.0, 10.000582, 9.998841 
1.125068e+3, 2.1471068e+2, -865070.5, -975880.9, -28195.29, 0.0276718, 0.080295086, -858308.94, -22465.941, 0.0, 10.000327, 9.99886 
1.1250787e+3, 2.2470966e+2, -782331.9, -854142.4, -38888.97, 0.027305936, 0.07943921, -765307.56, -27454.0, 0.0, 10.000088, 9.999138 
1.12508945e+3, 2.3470879e+2, -714945.44, -768423.06, -43274.38, 0.034272928, 0.07687776, -690815.44, -50953.227, 0.0, 9.999867, 9.99916 
1.12510026e+3, 2.4470803e+2, -635104.44, -662730.1, -45914.72, 0.0457593, 0.07920173, -600969.8, -59100.77, 0.0, 9.999672, 9.999307 
1.125111e+3, 2.5470743e+2, -560202.56, -573633.25, -44359.645, 0.06215586, 0.083845444, -522052.84, -78178.99, 0.0, 9.999504, 9.999327 
1.1251217e+3, 2.6470643e+2, -505633.44, -537566.4, -33019.73, 0.06734516, 0.07274454, -484922.53, -139040.03, 0.0, 9.999383, 9.99896 
1.12513244e+3, 2.747051e+2, -416743.8, -443296.1, -27884.975, 0.0595868, 0.04257716, -399135.84, -151240.61, 0.0, 9.999317, 9.998965 
1.1251435e+3, 2.8470406e+2, -332506.38, -343317.78, -10754.985, 0.057930887, 0.039151832, -325875.0, -175970.1, 0.0, 9.999186, 9.999042 
1.1251548e+3, 2.9470333e+2, -262693.75, -256729.63, -12247.133, 0.06409805, 0.060758222, -247106.73, -195195.47, 0.0, 9.998982, 9.999061 
1.1251664e+3, 3.0470216e+2, -165175.89, -85238.01, 12912.046, 0.06900672, -0.006389331, -83204.125, -83204.125, 0.0, 9.99889, 9.9999485 
1.1251782e+3, 3.1470233e+2, -150536.8, -63837.67, 12056.001, 0.06863403, 0.015397606, -62192.44, -62192.44, 0.0, 9.998928, 10.000077 
1.1349679e+3, 1.24709345e+2, -1561098.4, -1756833.5, 2073.1624, -0.053864267, -0.0834848, -1561076.4, 156763.66, 0.0010656647, 10.001557, 9.998962 
1.13497935e+3, 1.3470821e+2, -1460212.8, -1656689.9, -558.86206, -0.05264124, -0.093989365, -1460211.1, 159640.25, 0.00053702114, 10.001574, 9.998969 
1.134991e+3, 1.4470729e+2, -1404984.1, -1629911.4, -11747.488, -0.03507493, -0.058261763, -1404372.3, 117489.125, 0.00016162105, 10.001496, 9.998516 
1.13500245e+3, 1.5470593e+2, -1334621.5, -1544630.3, -12427.639, -0.0238803, -0.047274314, -1333888.6, 89988.13, 0.000014669085, 10.001305, 9.998521 
1.1350137e+3, 1.6470453e+2, -1265155.4, -1469037.1, -23020.03, -0.015121329, -0.034106575, -1262588.5, 63303.887, 0.000000009421829, 10.001145, 9.998444 
1.13502465e+3, 1.747031e+2, -1184153.3, -1377875.4, -26181.758, -0.007774848, -0.022990724, -1180677.1, 47231.43, 0.0, 10.001022, 9.998456 
1.13503575e+3, 1.8470192e+2, -1090454.0, -1260035.0, -33452.285, 0.0035323198, 0.004594928, -1084093.6, 45828.855, 0.0, 10.000898, 9.998652 
1.1350468e+3, 1.9470103e+2, -1009365.0, -1167908.8, -32982.047, 0.019243306, 0.0491509, -1002777.4, 29156.453, 0.0, 10.0007715, 9.998673 
1.1350577e+3, 2.0470004e+2, -923453.06, -1051549.9, -39799.188, 0.03507601, 0.07212149, -912094.75, 21850.703, 0.0, 10.000585, 9.99889 
1.13506846e+3, 2.1469891e+2, -861137.3, -968500.25, -38008.14, 0.05100704, 0.06813035, -849044.0, -13086.736, 0.0, 10.00033, 9.99891 
1.1350791e+3, 2.2469793e+2, -789144.5, -869080.0, -47445.42, 0.058300428, 0.0741463, -767076.06, -29108.234, 0.0, 10.000091, 9.999035 
1.1350895e+3, 2.3469713e+2, -721916.8, -783630.2, -51574.156, 0.055401307, 0.08864642, -692673.3, -52696.543, 0.0, 9.999869, 9.999055 
1.1350998e+3, 2.4469633e+2, -631676.56, -656339.3, -52235.93, 0.052090507, 0.09017121, -590336.2, -48351.965, 0.0, 9.999675, 9.99935 
1.1351103e+3, 2.5469556e+2, -556406.94, -566488.9, -50467.81, 0.048733026, 0.07440713, -510728.97, -66739.13, 0.0, 9.999506, 9.999374 
1.13512084e+3, 2.6469457e+2, -496157.34, -518368.38, -35345.73, 0.05016739, 0.056109823, -470213.53, -124215.79, 0.0, 9.999384, 9.999091 
1.1351317e+3, 2.7469346e+2, -407283.5, -423617.97, -30051.957, 0.0568815, 0.03334708, -384308.72, -136300.73, 0.0, 9.999316, 9.999101 
1.1351427e+3, 2.846925e+2, -335685.9, -349918.6, -18190.303, 0.06143016, 0.034227982, -323269.47, -173252.78, 0.0, 9.999185, 9.998998 
1.1351537e+3, 2.9469174e+2, -265820.13, -263945.5, -19663.914, 0.06378428, 0.055816453, -245196.58, -193172.73, 0.0, 9.998985, 9.999011 
1.1351653e+3, 3.046904e+2, -160540.44, -76541.95, 14394.109, 0.069877364, -0.026580686, -74143.83, -74143.83, 0.0, 9.998893, 10.000008 
1.13517724e+3, 3.1469062e+2, -143785.1, -50202.76, 13667.858, 0.07799021, -0.010824344, -48247.402, -48247.402, 0.0, 9.998929, 10.000171 
1.1449696e+3, 1.24697834e+2, -1529997.0, -1751711.8, 3356.229, -0.05650143, -0.098071866, -1529946.3, 188005.17, 0.0011858052, 10.001815, 9.998873 
1.1449811e+3, 1.3469669e+2, -1452531.6, -1665294.9, 4029.5547, -0.04529396, -0.099078976, -1452455.4, 167508.13, 0.00060623867, 10.00168, 9.998858 
1.14499256e+3, 1.4469573e+2, -1390066.1, -1619503.1, -7645.8506, -0.036571648, -0.06399859, -1389811.6, 132162.28, 0.00018835878, 10.001586, 9.998544 
1.1450038e+3, 1.5469432e+2, -1301603.3, -1525167.4, -7399.008, -0.027844239, -0.05970985, -1301358.6, 122630.47, 0.000018936791, 10.001516, 9.998551 
1.1450149e+3, 1.6469291e+2, -1237786.4, -1463824.8, -19087.695, -0.017820789, -0.047734316, -1236185.9, 89819.09, 0.000000013934886, 10.0013685, 9.998371 
1.1450258e+3, 1.7469144e+2, -1172948.5, -1380790.3, -22241.379, -0.005094686, -0.031895235, -1170595.1, 57426.813, 0.0, 10.001136, 9.998381 
1.14503674e+3, 1.8469024e+2, -1080576.4, -1252899.8, -26892.23, 0.006792291, -0.0036935296, -1076477.1, 53559.16, 0.0, 10.000957, 9.998673 
1.1450476e+3, 1.9468935e+2, -998575.44, -1159849.1, -25583.473, 0.017648617, 0.036968075, -994614.3, 37433.21, 0.0, 10.000834, 9.998697 
1.14505835e+3, 2.0468837e+2, -909523.44, -1044576.3, -37394.945, 0.03336953, 0.061460726, -899860.5, 34198.313, 0.0, 10.00068, 9.998891 
1.145069e+3, 2.1468732e+2, -838238.3, -957169.2, -39440.848, 0.054486036, 0.06465259, -826347.5, 9722.703, 0.0, 10.000486, 9.998912 
1.14507936e+3, 2.2468634e+2, -769432.94, -866570.3, -50178.84, 0.065833606, 0.07431067, -748167.3, -10086.303, 0.0, 10.0002575, 9.998971 
1.1450895e+3, 2.3468547e+2, -709226.94, -784706.6, -51540.38, 0.06570863, 0.088931456, -683086.4, -42995.324, 0.0, 9.999989, 9.99899 
1.1450997e+3, 2.4468465e+2, -616101.5, -646146.2, -48724.523, 0.05983647, 0.089409515, -580136.06, -38037.316, 0.0, 9.999771, 9.9993725 
1.1451098e+3, 2.5468388e+2, -539478.94, -555223.5, -48690.73, 0.047946595, 0.07111497, -498028.2, -53924.402, 0.0, 9.99961, 9.999401 
1.1451203e+3, 2.646829e+2, -493731.06, -519805.25, -39824.36, 0.04863395, 0.04981392, -464864.16, -118752.39, 0.0, 9.999413, 9.999066 
1.145131e+3, 2.746817e+2, -429942.7, -437382.88, -46535.574, 0.06333361, 0.02348436, -386978.75, -138855.9, 0.0, 9.999174, 9.999074 
1.1451419e+3, 2.8468075e+2, -349946.5, -352622.5, -35104.406, 0.067615785, 0.024625823, -316154.6, -166023.19, 0.0, 9.99907, 9.999034 
1.1451527e+3, 2.9468006e+2, -243077.13, -248544.16, -30146.041, 0.06018679, 0.050309837, -215540.92, -163403.48, 0.0, 9.999123, 9.999049 
1.1451642e+3, 3.0467865e+2, -137248.48, -67909.805, 3984.2212, 0.06413456, -0.041247588, -67681.625, -67681.625, 0.0, 9.999064, 9.999983 
1.14517614e+3, 3.146788e+2, -149991.53, -51726.08, -3660.7273, 0.07988303, -0.025126046, -51589.89, -51589.89, 0.0, 9.998881, 10.000182 
1.15497135e+3, 1.24686405e+2, -1534473.4, -1760604.3, -3461.676, -0.060239512, -0.11240648, -1534420.4, 183641.72, 0.0013130474, 10.001813, 9.998814 
1.1549829e+3, 1.3468508e+2, -1458183.5, -1676954.5, -1397.7006, -0.026422372, -0.12112414, -1458174.6, 161901.3, 0.0006802244, 10.001679, 9.998779 
1.1549943e+3, 1.4468409e+2, -1386857.4, -1612928.6, -10748.339, -0.025315182, -0.089090854, -1386347.5, 135739.25, 0.00021757523, 10.001586, 9.9985895 
1.15500525e+3, 1.5468282e+2, -1298282.3, -1518631.4, -10598.487, -0.032397065, -0.076860435, -1297773.8, 126326.47, 0.000023929451, 10.001517, 9.998596 
1.1550161e+3, 1.646814e+2, -1242527.8, -1474277.6, -28132.41, -0.023513112, -0.061394885, -1239161.5, 86954.39, 0.000000023716384, 10.00137, 9.9983 
1.1550271e+3, 1.7467988e+2, -1177736.3, -1391456.1, -31385.121, 0.005426032, -0.046587843, -1173222.6, 54911.793, 0.0, 10.001139, 9.998307 
1.1550378e+3, 1.8467861e+2, -1078049.0, -1248324.9, -31968.88, 0.02218498, -0.019610265, -1072244.8, 57904.51, 0.0, 10.000958, 9.998704 
1.15504846e+3, 1.9467776e+2, -995811.7, -1154712.6, -30504.15, 0.024191359, 0.018970452, -990157.06, 42002.773, 0.0, 10.000836, 9.998733 
1.155059e+3, 2.0467684e+2, -912545.6, -1051383.6, -44794.598, 0.029407037, 0.050170086, -899347.75, 34822.895, 0.0, 10.000681, 9.998844 
1.15506925e+3, 2.1467589e+2, -841191.7, -963874.06, -46926.582, 0.038617954, 0.069577135, -825300.44, 10881.159, 0.0, 10.000488, 9.998865 
1.15507945e+3, 2.2467488e+2, -771126.0, -870774.8, -60334.773, 0.05045418, 0.079765, -742702.4, -4509.296, 0.0, 10.000259, 9.998941 
1.1550895e+3, 2.3467383e+2, -710840.75, -788815.06, -61683.656, 0.065396875, 0.078181505, -676856.2, -36651.277, 0.0, 9.999991, 9.9989605 
1.15509965e+3, 2.4467297e+2, -615648.6, -645973.0, -54822.68, 0.068800546, 0.077326246, -573930.06, -31717.41, 0.0, 9.999773, 9.999373 
1.1551096e+3, 2.5467235e+2, -538796.8, -554565.75, -54488.547, 0.059088737, 0.07356466, -491625.25, -47409.44, 0.0, 9.999613, 9.999405 
1.1551198e+3, 2.646713e+2, -505728.47, -545659.44, -48445.242, 0.06184018, 0.05327912, -473295.84, -127071.19, 0.0, 9.999416, 9.998888 
1.15513034e+3, 2.7466977e+2, -442223.0, -464182.4, -55091.324, 0.07829399, 0.01308795, -397027.9, -148788.22, 0.0, 9.999179, 9.998889 
1.155141e+3, 2.8466877e+2, -341544.0, -336317.56, -32917.348, 0.076057136, 0.010730552, -305909.84, -155660.84, 0.0, 9.999074, 9.999144 
1.1551517e+3, 2.9466826e+2, -234417.56, -231076.69, -27464.195, 0.053047106, 0.044236053, -205232.19, -152980.08, 0.0, 9.999125, 9.999169 
1.15516305e+3, 3.0466682e+2, -144638.95, -83615.31, -2295.2354, 0.051794432, -0.050831135, -83529.11, -83529.11, 0.0, 9.999065, 9.999876 
1.15517505e+3, 3.1466696e+2, -154677.05, -62178.71, -10353.118, 0.07459372, -0.025457839, -61034.074, -61034.074, 0.0, 9.998883, 10.000111 
1.16497315e+3, 1.2467504e+2, -1528944.8, -1752413.4, -4063.588, -0.06135202, -0.119823664, -1528870.9, 189301.72, 0.0014461256, 10.001828, 9.998861 
1.1649848e+3, 1.3467367e+2, -1429619.1, -1659945.8, 7773.09, -0.0247346, -0.13802278, -1429357.0, 190829.52, 0.0007584584, 10.001863, 9.998807 
1.1649959e+3, 1.446726e+2, -1355424.8, -1597810.6, -2100.419, -0.029851591, -0.11305454, -1355406.5, 166791.02, 0.00024917058, 10.001802, 9.998588 
1.1650068e+3, 1.5467134e+2, -1282855.1, -1511544.9, -6319.588, -0.027480038, -0.099654056, -1282680.6, 141530.27, 0.000029664654, 10.001626, 9.998592 
1.16501756e+3, 1.6466998e+2, -1231917.6, -1471630.0, -26785.283, -0.016730284, -0.07794878, -1228961.1, 97265.28, 0.00000004774233, 10.001454, 9.998277 
1.1650283e+3, 1.7466854e+2, -1157732.5, -1384445.5, -26590.098, 0.0054255994, -0.051233135, -1154655.6, 73588.88, 0.0, 10.001288, 9.998282 
1.1650388e+3, 1.846673e+2, -1056227.8, -1235002.9, -24595.744, 0.021194216, -0.024107857, -1052905.6, 77353.71, 0.0, 10.001097, 9.998728 
1.1650493e+3, 1.9466631e+2, -987669.9, -1147755.8, -23891.463, 0.028644152, 0.0012255897, -984180.3, 48090.152, 0.0, 10.00088, 9.998758 
1.16505966e+3, 2.0466536e+2, -917517.7, -1061874.3, -40084.383, 0.033655368, 0.031160492, -907134.06, 27147.615, 0.0, 10.000683, 9.998772 
1.1650697e+3, 2.1466447e+2, -843854.56, -973538.2, -44567.508, 0.03635836, 0.06265049, -830015.2, 6277.821, 0.0, 10.000506, 9.99879 
1.1650797e+3, 2.2466348e+2, -764384.44, -867431.3, -60582.574, 0.046019863, 0.07879207, -736378.56, 1926.0613, 0.0, 10.000306, 9.998941 
1.16508946e+3, 2.3466243e+2, -698346.75, -782396.0, -59900.64, 0.06390192, 0.07640132, -667199.3, -26883.037, 0.0, 10.000076, 9.998963 
1.1650994e+3, 2.4466151e+2, -604120.8, -646150.2, -50720.68, 0.07187861, 0.07276455, -570233.75, -27909.385, 0.0, 9.999878, 9.999321 
1.1651093e+3, 2.546608e+2, -527111.56, -554847.9, -54733.848, 0.06824958, 0.063456595, -484516.28, -40187.9, 0.0, 9.99972, 9.9993515 
1.1651194e+3, 2.6465964e+2, -486735.25, -547031.75, -48325.645, 0.07159164, 0.043499876, -459924.88, -113586.85, 0.0, 9.999593, 9.998793 
1.1651298e+3, 2.746581e+2, -401634.8, -455362.03, -48782.598, 0.08245213, 0.0107921595, -372808.25, -124454.56, 0.0, 9.999505, 9.998792 
1.1651403e+3, 2.8465703e+2, -298895.88, -312984.3, -23764.92, 0.07978604, 0.008945279, -281153.16, -130789.9, 0.0, 9.999356, 9.999167 
1.165151e+3, 2.946565e+2, -230528.86, -225898.2, -25073.297, 0.06231876, 0.034220986, -203033.56, -150667.28, 0.0, 9.999138, 9.999197 
1.1651621e+3, 3.04655e+2, -159601.66, -100471.36, -3693.3704, 0.055896584, -0.06593663, -100241.56, -100241.56, 0.0, 9.999005, 9.999788 
1.1651738e+3, 3.1465527e+2, -145060.33, -61912.047, -10265.351, 0.06246763, -0.017313357, -60663.453, -60663.453, 0.0, 9.99897, 10.00007 
1.174975e+3, 1.2466381e+2, -1518411.8, -1730157.1, -5247.172, -0.059557877, -0.119853005, -1518281.8, 200000.92, 0.0015842223, 10.001825, 9.999016 
1.1749864e+3, 1.3466245e+2, -1420230.6, -1640505.3, 8554.965, -0.04064892, -0.15006447, -1419898.8, 200396.19, 0.0008407167, 10.001862, 9.998941 
1.1749975e+3, 1.4466132e+2, -1359194.8, -1605858.1, -8996.946, -0.050731912, -0.13633245, -1358867.0, 163439.14, 0.0002831922, 10.001802, 9.998532 
1.1750086e+3, 1.5465994e+2, -1286538.5, -1519568.3, -13535.251, -0.013298303, -0.12792249, -1285755.0, 138565.94, 0.000036181405, 10.001626, 9.998537 
1.1750193e+3, 1.6465867e+2, -1230195.4, -1468588.0, -33523.035, 0.0025122014, -0.09721987, -1225571.0, 100765.08, 0.00000010132158, 10.001456, 9.998298 
1.1750294e+3, 1.7465748e+2, -1155843.5, -1381165.0, -33306.65, -0.004999824, -0.04597812, -1151023.3, 77328.68, 0.0, 10.00129, 9.998304 
1.1750398e+3, 1.8465626e+2, -1054855.4, -1232835.6, -33128.535, 0.0038771455, -0.0173071, -1048889.0, 81477.52, 0.0, 10.001099, 9.998742 
1.1750503e+3, 1.9465506e+2, -986095.7, -1145262.3, -32368.014, 0.030886035, -0.016256418, -979765.1, 52614.05, 0.0, 10.000882, 9.9987755 
1.1750604e+3, 2.0465398e+2, -924328.1, -1076745.9, -46986.004, 0.045781087, 0.004515846, -911007.8, 23384.014, 0.0, 10.000685, 9.998669 
1.1750703e+3, 2.1465306e+2, -850953.94, -988941.9, -51349.7, 0.04718517, 0.044207416, -833942.4, 2461.9412, 0.0, 10.000508, 9.998683 
1.1750801e+3, 2.2465214e+2, -762238.0, -863777.75, -69232.48, 0.052129004, 0.07157741, -727155.0, 11260.518, 0.0, 10.000309, 9.998966 
1.1750896e+3, 2.3465127e+2, -695609.1, -777764.75, -68573.71, 0.061231572, 0.083157025, -656751.06, -16325.917, 0.0, 10.00008, 9.998994 
1.17509924e+3, 2.4465027e+2, -611046.4, -661679.56, -56825.92, 0.06910635, 0.07542084, -574152.75, -31718.867, 0.0, 9.999883, 9.999212 
1.17510915e+3, 2.5464916e+2, -534321.8, -570837.0, -60486.504, 0.07537563, 0.041447338, -489397.47, -44955.98, 0.0, 9.9997225, 9.99924 
1.175119e+3, 2.64648e+2, -487695.38, -549946.3, -51314.05, 0.077926666, 0.021098638, -458804.78, -112352.93, 0.0, 9.999596, 9.998772 
1.1751291e+3, 2.746467e+2, -402354.6, -457809.28, -51441.03, 0.07591059, 0.015956935, -371644.06, -123179.04, 0.0, 9.999508, 9.998774 
1.17513955e+3, 2.8464562e+2, -302800.53, -321991.44, -31283.615, 0.07846338, 0.018478777, -279673.88, -129199.42, 0.0, 9.999359, 9.9991045 
1.1751504e+3, 2.946448e+2, -234757.16, -235211.97, -32777.816, 0.0868705, 0.020563945, -202205.95, -149725.83, 0.0, 9.99914, 9.999133 
1.1751614e+3, 3.0464312e+2, -164523.16, -110735.66, -4486.2915, 0.07536374, -0.086163476, -110364.03, -110364.03, 0.0, 9.999004, 9.999719 
1.1751726e+3, 3.1464374e+2, -146191.19, -63964.676, -10884.069, 0.043061905, 0.0007373932, -62548.383, -62548.383, 0.0, 9.998967, 10.000057 
1.1849768e+3, 1.24652624e+2, -1485508.1, -1705200.3, -255.36302, -0.06688626, -0.12024757, -1485507.9, 232884.31, 0.0017273793, 10.002014, 9.999096 
1.1849884e+3, 1.3465129e+2, -1397152.4, -1622720.1, 9806.017, -0.039715007, -0.15317601, -1396726.9, 223676.61, 0.0009271282, 10.001992, 9.999001 
1.1849993e+3, 1.4465015e+2, -1344742.3, -1596748.0, -15406.914, -0.054357044, -0.14566633, -1343803.8, 178610.67, 0.00031980837, 10.001894, 9.998551 
1.1850102e+3, 1.5464874e+2, -1277179.9, -1512890.6, -14978.796, -0.011367828, -0.14051065, -1276231.9, 148197.6, 0.0000435681, 10.001682, 9.998556 
1.1850207e+3, 1.6464749e+2, -1221718.5, -1459258.6, -30310.367, 0.0063457633, -0.11092104, -1217911.9, 108532.586, 0.00000019883093, 10.0014925, 9.998343 
1.1850308e+3, 1.7464638e+2, -1146304.1, -1371092.8, -28366.357, -0.0035771476, -0.05850743, -1142779.9, 85679.78, 0.0, 10.001332, 9.998353 
1.1850409e+3, 1.8464519e+2, -1047762.5, -1231582.9, -30082.045, 0.0034226794, -0.028848361, -1042964.8, 87509.055, 0.0, 10.001158, 9.998722 
1.1850511e+3, 1.9464396e+2, -976220.3, -1142736.6, -32476.504, 0.029310215, -0.027114242, -970110.44, 62376.477, 0.0, 10.00096, 9.9987545 
1.1850612e+3, 2.0464288e+2, -915272.3, -1075218.1, -45276.996, 0.045794938, -0.004403145, -903344.9, 31154.895, 0.0, 10.00076, 9.998642 
1.18507095e+3, 2.1464197e+2, -845705.9, -989107.75, -43814.496, 0.051799662, 0.038901776, -833378.6, 3133.8196, 0.0, 10.000557, 9.998658 
1.1850804e+3, 2.2464104e+2, -752145.75, -864422.25, -60431.49, 0.0568785, 0.06879517, -725800.8, 12723.099, 0.0, 10.000402, 9.998916 
1.1850897e+3, 2.346401e+2, -666477.5, -769208.9, -65972.29, 0.060835354, 0.081060566, -634232.4, 6301.5864, 0.0, 10.000304, 9.998944 
1.18509926e+3, 2.4463904e+2, -577930.3, -654953.4, -57585.59, 0.06659685, 0.07207457, -547165.3, -4621.8584, 0.0, 10.000151, 9.999129 
1.1851089e+3, 2.5463784e+2, -509741.34, -568262.4, -59534.555, 0.07443439, 0.03472234, -472665.28, -28112.885, 0.0, 9.999932, 9.999156 
1.1851188e+3, 2.646366e+2, -458818.06, -531047.56, -43770.094, 0.076889694, 0.013167639, -438186.9, -91623.95, 0.0, 9.999774, 9.998815 
1.1851287e+3, 2.7463537e+2, -373536.72, -438475.63, -39307.52, 0.072880216, 0.009432224, -355022.38, -106447.34, 0.0, 9.999683, 9.998821 
1.1851389e+3, 2.8463435e+2, -285481.72, -320143.6, -22508.318, 0.07550577, 0.012527286, -274405.16, -123820.86, 0.0, 9.999507, 9.999045 
1.18514955e+3, 2.9463342e+2, -225534.66, -237669.03, -24163.045, 0.08622676, 0.013498189, -206688.72, -154097.8, 0.0, 9.999233, 9.99907 
1.1851604e+3, 3.0463165e+2, -169821.7, -115555.03, 9573.853, 0.07876069, -0.09862342, -113915.52, -113915.52, 0.0, 9.998979, 9.999697 
1.1851715e+3, 3.146324e+2, -176825.27, -73652.336, 6304.2725, 0.054510415, 0.00050426065, -73268.55, -73268.55, 0.0, 9.998736, 10.000102 
1.19497865e+3, 1.2464153e+2, -1485742.8, -1705288.0, -4247.086, -0.08387221, -0.12199221, -1485660.6, 232840.16, 0.0018763061, 10.002012, 9.999097 
1.1949905e+3, 1.3464026e+2, -1398630.1, -1625974.8, 8579.387, -0.021881016, -0.14699762, -1398306.9, 222204.6, 0.0010180003, 10.001992, 9.998979 
1.1950012e+3, 1.4463913e+2, -1338381.9, -1583920.9, -23568.111, -0.040530276, -0.14053048, -1336140.1, 186381.97, 0.00035919753, 10.001894, 9.998639 
1.1950118e+3, 1.546378e+2, -1270765.0, -1500050.4, -23643.143, -0.02176002, -0.13758828, -1268352.4, 156183.92, 0.00005194898, 10.001683, 9.998644 
1.1950221e+3, 1.6463651e+2, -1216543.1, -1449155.8, -36928.082, -0.0053876624, -0.11920567, -1210821.5, 115729.766, 0.00000035173326, 10.001493, 9.998412 
1.1950322e+3, 1.7463523e+2, -1140910.5, -1360568.0, -34773.34, 0.009379206, -0.088607535, -1135537.0, 93030.11, 0.0, 10.001334, 9.998425 
1.1950422e+3, 1.8463406e+2, -1051526.8, -1240006.8, -37801.61, 0.019518372, -0.05859338, -1044227.9, 86353.484, 0.0, 10.00116, 9.998664 
1.195052e+3, 1.9463304e+2, -980210.4, -1151652.5, -40224.42, 0.02397881, -0.03155128, -971241.94, 61351.457, 0.0, 10.000962, 9.9986925 
1.1950618e+3, 2.0463206e+2, -911603.56, -1068296.1, -53138.594, 0.033909358, 0.0040344647, -895282.8, 39322.66, 0.0, 10.000762, 9.99869 
1.1950714e+3, 2.1463121e+2, -841604.75, -981449.2, -51612.95, 0.050296057, 0.046352517, -824618.9, 11998.507, 0.0, 10.00056, 9.998711 
1.19508095e+3, 2.2463019e+2, -760535.56, -882704.8, -64357.22, 0.06019217, 0.07029449, -732889.25, 5740.565, 0.0, 10.000405, 9.998789 
1.1950901e+3, 2.34629e+2, -675273.1, -788258.56, -69597.32, 0.06250908, 0.07053119, -642126.5, -1483.9884, 0.0, 10.000307, 9.998813 
1.19509935e+3, 2.4462785e+2, -581868.5, -664031.0, -65409.633, 0.06426101, 0.06293714, -545709.3, -3056.2126, 0.0, 10.000154, 9.999066 
1.19510874e+3, 2.5462675e+2, -513363.1, -576844.2, -67306.59, 0.06551503, 0.042411756, -470688.3, -26027.121, 0.0, 9.999936, 9.999096 
1.1951184e+3, 2.646255e+2, -451504.1, -516770.6, -46865.203, 0.068440154, 0.018970016, -427029.78, -80358.29, 0.0, 9.999777, 9.998912 
1.1951284e+3, 2.7462414e+2, -366130.6, -423402.25, -42215.984, 0.0731459, -0.008079104, -343754.66, -95070.766, 0.0, 9.999684, 9.998925 
1.1951384e+3, 2.8462312e+2, -289337.88, -328439.63, -31983.355, 0.071004644, -0.008135258, -271403.13, -120710.11, 0.0, 9.999507, 9.998988 
1.1951485e+3, 2.946223e+2, -229524.5, -246948.6, -33683.184, 0.061007135, 0.012416228, -203444.94, -150745.9, 0.0, 9.999237, 9.999005 
1.1951592e+3, 3.0462047e+2, -168024.25, -112872.23, 1076.9355, 0.06600938, -0.10387446, -112851.2, -112851.2, 0.0, 9.998982, 9.999714 
1.19517066e+3, 3.1462115e+2, -170278.45, -60445.86, -2322.667, 0.09460734, -0.014263947, -60396.76, -60396.76, 0.0, 9.998737, 10.000193 
1.2049808e+3, 1.2463065e+2, -1444824.9, -1689756.5, 19249.098, -0.08218822, -0.1393981, -1443321.4, 275284.75, 0.002031728, 10.002313, 9.999058 
1.2049927e+3, 1.3462941e+2, -1392728.4, -1629918.1, 31658.713, -0.014299071, -0.15484427, -1388575.5, 232041.19, 0.001113559, 10.002064, 9.998917 
1.2050032e+3, 1.4462827e+2, -1339764.1, -1584660.6, -6366.727, -0.040757827, -0.14764328, -1339598.8, 183029.06, 0.0004014388, 10.001886, 9.998637 
1.20501354e+3, 1.5462695e+2, -1256334.8, -1493026.0, -13630.722, -0.023801396, -0.14387295, -1255552.4, 169089.69, 0.000061428385, 10.001782, 9.998644 
1.2050237e+3, 1.6462567e+2, -1195990.3, -1431184.6, -32498.62, -0.007240994, -0.12634733, -1191582.4, 135074.38, 0.00000057087306, 10.001601, 9.998484 
1.2050336e+3, 1.7462446e+2, -1137322.3, -1350599.3, -30493.27, 0.010107867, -0.09852852, -1133048.1, 95623.54, 0.0, 10.001325, 9.998498 
1.20504335e+3, 1.846233e+2, -1062617.8, -1248691.1, -31353.629, 0.020777704, -0.06871107, -1057476.6, 73209.055, 0.0, 10.001099, 9.998633 
1.20505296e+3, 1.9462226e+2, -987185.2, -1158769.9, -31948.363, 0.023443107, -0.03919188, -981429.56, 51268.69, 0.0, 10.000932, 9.998658 
1.2050625e+3, 2.046213e+2, -908686.6, -1066711.6, -45034.94, 0.030301543, -0.0016136353, -896753.4, 37957.125, 0.0, 10.000782, 9.99869 
1.205072e+3, 2.1462046e+2, -828210.7, -974732.56, -47445.523, 0.042032424, 0.042299777, -814189.1, 22533.16, 0.0, 10.000651, 9.998712 
1.2050813e+3, 2.2461942e+2, -746053.94, -879767.2, -57200.676, 0.052900728, 0.06645313, -724923.5, 13811.297, 0.0, 10.000524, 9.998753 
1.2050904e+3, 2.3461817e+2, -664750.06, -787183.9, -55721.332, 0.06287039, 0.0652737, -643187.94, -2439.9072, 0.0, 10.000398, 9.9987755 
1.2050996e+3, 2.44617e+2, -569091.44, -664779.75, -50271.45, 0.066890486, 0.059493583, -547536.1, -4777.0854, 0.0, 10.000272, 9.999003 
1.20510876e+3, 2.5461587e+2, -486808.84, -570825.25, -52685.97, 0.064043395, 0.044318277, -461433.8, -16666.213, 0.0, 10.000149, 9.999035 
1.2051183e+3, 2.646146e+2, -422905.03, -497911.56, -35105.39, 0.06648691, 0.018404914, -409038.22, -62260.11, 0.0, 9.999952, 9.998957 
1.20512806e+3, 2.746132e+2, -364232.94, -416667.44, -34609.715, 0.07500738, -0.020074988, -347031.56, -98241.04, 0.0, 9.999673, 9.998976 
1.205138e+3, 2.8461218e+2, -293929.8, -332084.72, -24743.37, 0.07314599, -0.019609196, -281763.3, -130964.055, 0.0, 9.999483, 9.998975 
1.2051478e+3, 2.946115e+2, -207700.02, -238046.98, -23159.967, 0.05911351, 0.01453439, -195185.63, -142381.1, 0.0, 9.999395, 9.998989 
1.2051583e+3, 3.0460963e+2, -142134.55, -102506.42, 6948.1787, 0.068749234, -0.106390335, -101323.48, -101323.48, 0.0, 9.99917, 9.999695 
1.2051697e+3, 3.146102e+2, -160004.02, -48819.992, 209.4944, 0.114262275, -0.022398932, -48819.598, -48819.598, 0.0, 9.998779, 10.000251 
1.21498324e+3, 1.24620065e+2, -1450662.5, -1702021.3, 6215.2744, -0.061451953, -0.17174642, -1450508.9, 268198.6, 0.0021936102, 10.002313, 9.998974 
1.21499464e+3, 1.3461882e+2, -1400263.6, -1645842.8, 21541.26, -0.01724993, -0.17710398, -1398388.5, 222330.27, 0.0012136708, 10.002064, 9.998808 
1.21500485e+3, 1.4461759e+2, -1346043.0, -1598040.8, -10997.433, -0.055417668, -0.16747698, -1345563.9, 177167.28, 0.00044641417, 10.001886, 9.998547 
1.21501535e+3, 1.5461622e+2, -1262345.6, -1506038.6, -18039.729, -0.01763865, -0.15929724, -1261017.4, 163729.19, 0.00007201624, 10.001784, 9.998554 
1.2150254e+3, 1.6461504e+2, -1190978.6, -1421368.4, -43194.473, 0.00072242785, -0.13229825, -1183146.6, 143613.97, 0.0000008702971, 10.001602, 9.99855 
1.2150348e+3, 1.7461404e+2, -1131846.4, -1339970.3, -41377.95, -0.0012604477, -0.08857608, -1123921.6, 104851.43, 0.0, 10.001327, 9.99857 
1.2150443e+3, 1.8461291e+2, -1062760.6, -1249777.4, -38180.586, 0.007316082, -0.05946786, -1055266.3, 75520.4, 0.0, 10.001101, 9.998626 
1.21505395e+3, 1.9461167e+2, -987442.5, -1159999.3, -38470.305, 0.02741722, -0.049992416, -979254.3, 53546.984, 0.0, 10.000934, 9.99865 
1.2150633e+3, 2.046106e+2, -911891.56, -1073959.8, -50221.832, 0.034650467, -0.021089423, -897590.7, 37224.133, 0.0, 10.000784, 9.99864 
1.2150725e+3, 2.1460974e+2, -831365.44, -981908.2, -52475.164, 0.027103111, 0.027102336, -814879.4, 21947.479, 0.0, 10.000653, 9.998662 
1.21508166e+3, 2.2460875e+2, -742562.9, -873189.25, -61923.742, 0.035212148, 0.057418, -717874.06, 20964.797, 0.0, 10.000525, 9.998797 
1.2150908e+3, 2.3460765e+2, -660995.3, -780003.56, -60290.234, 0.061874244, 0.064973935, -635790.2, 5060.3525, 0.0, 10.000399, 9.998825 
1.2151e+3, 2.446065e+2, -573236.9, -674033.0, -54698.79, 0.07417261, 0.061515596, -549258.06, -6396.4883, 0.0, 10.000274, 9.9989395 
1.215109e+3, 2.5460526e+2, -491156.1, -580534.75, -56863.9, 0.06959684, 0.04076662, -463522.25, -18650.52, 0.0, 10.000151, 9.998967 
1.2151183e+3, 2.646039e+2, -422987.03, -499028.75, -44731.332, 0.07062314, 0.011714494, -402301.2, -55418.176, 0.0, 9.999955, 9.998948 
1.2151278e+3, 2.7460247e+2, -363883.47, -417324.78, -44307.297, 0.07786451, -0.026974661, -338863.13, -89967.99, 0.0, 9.999678, 9.998969 
1.2151375e+3, 2.846015e+2, -291568.13, -328393.38, -27508.621, 0.08091888, -0.022515688, -276878.66, -125975.336, 0.0, 9.999488, 9.998998 
1.21514745e+3, 2.9460096e+2, -205613.2, -234288.17, -25718.148, 0.07930111, 0.019403229, -190506.05, -137598.23, 0.0, 9.999396, 9.999015 
1.2151577e+3, 3.04599e+2, -145920.22, -110661.7, -6424.149, 0.086291805, -0.106567934, -109527.69, -109527.69, 0.0, 9.99917, 9.999639 
1.21516846e+3, 3.145995e+2, -157975.42, -45061.203, -13763.682, 0.11385334, -0.022475576, -43407.695, -43407.695, 0.0, 9.99878, 10.0002775 
1.2249856e+3, 1.2460968e+2, -1462082.3, -1713883.6, 7229.3315, -0.059711494, -0.19165577, -1461874.9, 256932.64, 0.0023606704, 10.002263, 9.998916 
1.2249968e+3, 1.3460842e+2, -1381911.5, -1645782.0, 27802.2, -0.015132524, -0.19102918, -1379014.0, 241805.33, 0.0013175874, 10.002229, 9.998728 
1.2250068e+3, 1.4460711e+2, -1321602.6, -1590282.4, -4070.283, -0.0586303, -0.18125866, -1321541.0, 201291.7, 0.0004937232, 10.002073, 9.998509 
1.2250172e+3, 1.5460579e+2, -1268402.6, -1512846.5, -7667.699, -0.013360546, -0.16740751, -1268162.4, 156685.98, 0.000083587045, 10.0017605, 9.998519 
1.225027e+3, 1.6460463e+2, -1199195.1, -1420194.0, -31773.488, 0.00421213, -0.137311, -1194717.6, 132144.38, 0.0000012652538, 10.001525, 9.998596 
1.225036e+3, 1.746037e+2, -1120469.0, -1328776.5, -31920.184, -0.008122422, -0.09348534, -1115687.4, 113186.32, 0.0, 10.001381, 9.99862 
1.2250453e+3, 1.8460257e+2, -1053241.8, -1247429.0, -30749.266, -0.0023423508, -0.06536375, -1048488.94, 82398.23, 0.0, 10.001177, 9.998605 
1.2250548e+3, 1.9460127e+2, -994087.8, -1165712.9, -32301.898, 0.023710817, -0.057884082, -988209.56, 44692.93, 0.0, 10.000899, 9.998626 
1.2250641e+3, 2.0460019e+2, -922351.2, -1078851.4, -38843.39, 0.03377886, -0.02961923, -913240.6, 21675.727, 0.0, 10.000712, 9.99864 
1.2250731e+3, 2.1459934e+2, -834676.9, -983089.6, -37278.285, 0.025519686, 0.019276125, -825839.5, 11088.868, 0.0, 10.000629, 9.998665 
1.2250821e+3, 2.2459841e+2, -737555.5, -864241.8, -45067.703, 0.032434035, 0.051042154, -723159.0, 15780.857, 0.0, 10.000532, 9.998855 
1.2250912e+3, 2.345974e+2, -654149.56, -769735.06, -42936.35, 0.057229564, 0.061139937, -639945.56, 1004.8494, 0.0, 10.000417, 9.998886 
1.2251002e+3, 2.4459626e+2, -571815.94, -678194.94, -36198.434, 0.06962152, 0.059423316, -560666.9, -17705.695, 0.0, 10.000305, 9.998895 
1.2251091e+3, 2.5459498e+2, -487169.03, -583717.6, -37159.086, 0.06740284, 0.03901407, -474523.66, -29551.355, 0.0, 10.000201, 9.99892 
1.2251183e+3, 2.645936e+2, -400874.63, -484531.34, -26047.441, 0.070213705, 0.007951926, -393427.44, -46443.484, 0.0, 10.000092, 9.998981 
1.2251276e+3, 2.7459216e+2, -317895.06, -390890.25, -22874.363, 0.07853803, -0.03516614, -311319.34, -62323.66, 0.0, 9.999976, 9.999006 
1.2251372e+3, 2.8459126e+2, -250178.84, -309948.53, -5767.3677, 0.087555, -0.027668783, -249627.42, -98624.055, 0.0, 9.999779, 9.998983 
1.22514695e+3, 2.945908e+2, -194019.83, -230585.1, -7169.886, 0.09769937, 0.025351152, -192664.17, -139656.94, 0.0, 9.999485, 9.998997 
1.225157e+3, 3.045887e+2, -155933.48, -132241.73, 984.94727, 0.10472597, -0.10314906, -132200.86, -132200.86, 0.0, 9.999175, 9.999488 
1.2251672e+3, 3.1458905e+2, -154779.95, -51002.44, -14047.891, 0.12146645, -0.02207067, -49134.465, -49134.465, 0.0, 9.998836, 10.000209 
1.2349877e+3, 1.2459956e+2, -1464760.1, -1719199.6, 1540.2228, -0.07720571, -0.19933923, -1464750.9, 254154.81, 0.0025307094, 10.002261, 9.99888 
1.23499915e+3, 1.3459827e+2, -1385364.4, -1653425.3, 25862.494, -0.008041493, -0.19648808, -1382892.0, 238025.88, 0.0014240493, 10.00223, 9.998675 
1.23500906e+3, 1.4459692e+2, -1320574.0, -1588649.4, -16017.896, -0.050356578, -0.18874273, -1319620.4, 203311.47, 0.00054276333, 10.002074, 9.99852 
1.2350189e+3, 1.5459567e+2, -1267298.4, -1511115.8, -20125.49, -0.011073744, -0.16823366, -1265648.4, 159298.47, 0.00009593835, 10.001761, 9.99853 
1.2350284e+3, 1.645945e+2, -1197296.5, -1416896.3, -37985.26, 0.0030760104, -0.14145444, -1190911.6, 136049.14, 0.0000017602412, 10.001527, 9.998618 
1.2350374e+3, 1.7459343e+2, -1118377.3, -1325069.9, -37755.92, -0.010721098, -0.11307933, -1111696.5, 117277.086, 0.0, 10.001383, 9.998645 
1.2350464e+3, 1.845923e+2, -1055603.0, -1252976.9, -41363.773, -0.008406345, -0.086194195, -1047285.0, 83702.23, 0.0, 10.001179, 9.998566 
1.2350557e+3, 1.945911e+2, -996429.94, -1171399.6, -42968.547, 0.012425356, -0.06293279, -986447.4, 46554.17, 0.0, 10.000902, 9.998587 
1.2350647e+3, 2.0459008e+2, -918818.06, -1072298.3, -42370.496, 0.027713163, -0.027462875, -907898.0, 27116.904, 0.0, 10.000714, 9.998685 
1.2350739e+3, 2.1458927e+2, -830991.3, -975942.8, -40429.906, 0.036775935, 0.018528054, -820477.25, 16549.598, 0.0, 10.000631, 9.9987135 
1.23508275e+3, 2.2458836e+2, -732696.2, -854528.4, -49363.64, 0.04402077, 0.04723701, -715206.0, 23831.873, 0.0, 10.000533, 9.998921 
1.2350915e+3, 2.3458739e+2, -649187.0, -759909.25, -47166.203, 0.048950206, 0.054019123, -631819.1, 9228.4375, 0.0, 10.000418, 9.998954 
1.2351003e+3, 2.4458627e+2, -573408.94, -682067.2, -39875.13, 0.053514052, 0.053394385, -560346.06, -17288.008, 0.0, 10.000306, 9.998868 
1.2351093e+3, 2.5458503e+2, -489227.44, -588350.25, -40548.043, 0.057591673, 0.038927853, -474753.88, -29684.342, 0.0, 10.000201, 9.998889 
1.2351183e+3, 2.6458365e+2, -395860.94, -474357.7, -29659.215, 0.06523927, 0.0069962973, -385914.78, -38833.594, 0.0, 10.000092, 9.999051 
1.2351276e+3, 2.745822e+2, -312312.22, -379746.78, -26383.863, 0.07710794, -0.04468723, -303216.38, -54123.887, 0.0, 9.999977, 9.9990835 
1.235137e+3, 2.8458133e+2, -253693.27, -317835.6, -15759.664, 0.09303641, -0.035114963, -250030.33, -98930.586, 0.0, 9.999781, 9.998929 
1.2351466e+3, 2.9458097e+2, -198001.02, -239548.39, -17316.242, 0.113744244, 0.03233196, -191730.33, -138627.13, 0.0, 9.999487, 9.998935 
1.23515636e+3, 3.0457872e+2, -172702.27, -167962.17, -10612.403, 0.12325659, -0.096262895, -159458.39, -159458.39, 0.0, 9.999178, 9.999242 
1.2351663e+3, 3.1457877e+2, -165215.34, -74194.82, -25578.115, 0.13630727, -0.019658247, -67499.484, -67499.484, 0.0, 9.998841, 10.000048 
1.2449901e+3, 1.2458958e+2, -1423090.1, -1696648.5, -3196.047, -0.08040763, -0.19915728, -1423052.8, 295950.28, 0.002701762, 10.00254, 9.9989 
1.2450013e+3, 1.3458824e+2, -1400915.5, -1660153.8, 28907.14, -0.0009739657, -0.19973254, -1397731.3, 223284.25, 0.0015319061, 10.002121, 9.998682 
1.245011e+3, 1.4458689e+2, -1353528.8, -1599568.9, -10193.822, -0.048058257, -0.19738474, -1353107.1, 169922.52, 0.00059303787, 10.001827, 9.998564 
1.2450206e+3, 1.5458572e+2, -1277744.8, -1510763.3, -12229.654, -0.01499652, -0.17099659, -1277104.6, 147939.05, 0.00010892868, 10.001668, 9.998577 
1.24502994e+3, 1.6458459e+2, -1202035.9, -1418135.1, -27062.268, -0.0016829526, -0.14364061, -1198698.4, 128358.96, 0.0000023447426, 10.001491, 9.998627 
1.2450387e+3, 1.7458348e+2, -1131129.1, -1330220.1, -28243.152, -0.009891827, -0.12048957, -1127200.1, 101870.5, 0.0, 10.001291, 9.998653 
1.2450476e+3, 1.8458238e+2, -1061814.0, -1250045.4, -31211.566, -0.0086185625, -0.09387661, -1056773.6, 74310.32, 0.0, 10.001111, 9.998618 
1.2450564e+3, 1.945813e+2, -985863.5, -1160081.3, -26245.465, 0.003312976, -0.065248065, -981995.56, 51101.656, 0.0, 10.000949, 9.998641 
1.2450654e+3, 2.0458034e+2, -914212.9, -1071122.0, -22112.918, 0.017981203, -0.027092585, -911156.1, 23953.97, 0.0, 10.0007515, 9.998674 
1.2450745e+3, 2.145795e+2, -848991.7, -985812.7, -24925.865, 0.036139786, 0.018722242, -844592.2, -7469.9346, 0.0, 10.000513, 9.998702 
1.2450833e+3, 2.2457857e+2, -751002.0, -855763.8, -32980.742, 0.046806503, 0.043446127, -741483.94, -2350.5598, 0.0, 10.000376, 9.998988 
1.2450919e+3, 2.3457758e+2, -653054.1, -753619.25, -30687.256, 0.048465755, 0.041430306, -644429.6, -3286.863, 0.0, 10.000358, 9.999025 
1.2451006e+3, 2.4457651e+2, -574250.7, -678942.2, -23426.516, 0.051260028, 0.039300043, -569247.7, -26094.934, 0.0, 10.000286, 9.9988985 
1.2451094e+3, 2.5457537e+2, -494177.34, -587298.5, -20102.459, 0.055325557, 0.031954084, -490023.06, -44859.594, 0.0, 10.000154, 9.998919 
1.2451184e+3, 2.6457408e+2, -399477.66, -469438.16, -6965.8174, 0.06339007, 0.0012808025, -398790.84, -51616.184, 0.0, 10.000039, 9.99911 
1.24512754e+3, 2.7457264e+2, -312535.8, -372938.44, -4903.683, 0.07630305, -0.055999197, -312140.3, -62954.465, 0.0, 9.999947, 9.999145 
1.24513686e+3, 2.8457177e+2, -250957.52, -319479.16, 1049.6368, 0.095167935, -0.043898035, -250941.44, -99748.66, 0.0, 9.999813, 9.998902 
1.24514624e+3, 2.9457146e+2, -179796.06, -234238.83, 1042.5969, 0.12089466, 0.035495903, -179776.1, -126580.33, 0.0, 9.999628, 9.998903 
1.2451558e+3, 3.045692e+2, -149080.33, -174824.25, 9910.511, 0.13436401, -0.089785, -145707.11, -145707.11, 0.0, 9.999419, 9.999078 
1.2451654e+3, 3.145691e+2, -121291.16, -60916.03, 953.1757, 0.15322927, -0.011692208, -60900.99, -60900.99, 0.0, 9.999178, 9.999976 
1.2549926e+3, 1.2457979e+2, -1418182.1, -1686860.0, -23541.996, -0.068964235, -0.19063768, -1416134.9, 302964.3, 0.002872962, 10.002541, 9.998968 
1.2550035e+3, 1.3457842e+2, -1396749.5, -1652045.9, 12363.44, 0.00590636, -0.20079173, -1396152.1, 224959.48, 0.001640651, 10.002122, 9.998737 
1.2550128e+3, 1.4457703e+2, -1348041.6, -1588650.3, -17201.535, -0.05195964, -0.20732239, -1346818.1, 176307.77, 0.0006444068, 10.001828, 9.998639 
1.2550223e+3, 1.54576e+2, -1272002.4, -1499513.4, -18849.887, -0.02518474, -0.17581245, -1270451.3, 154687.34, 0.00012257921, 10.00167, 9.998654 
1.2550312e+3, 1.6457495e+2, -1202312.4, -1419394.8, -35076.094, -0.010110833, -0.14395303, -1196785.5, 130365.97, 0.0000030126384, 10.0014925, 9.998617 
1.25504e+3, 1.7457387e+2, -1131618.9, -1331929.6, -36137.91, -0.005790439, -0.11586577, -1125298.8, 103865.89, 0.0, 10.001293, 9.998641 
1.2550487e+3, 1.8457283e+2, -1052023.5, -1230357.6, -37677.945, -0.0031763106, -0.08862267, -1044389.8, 86787.516, 0.0, 10.001113, 9.998753 
1.2550573e+3, 1.9457185e+2, -975575.94, -1139259.9, -32635.896, -0.0037828316, -0.06494199, -969308.8, 63880.465, 0.0, 10.00095, 9.998784 
1.2550661e+3, 2.045709e+2, -918716.2, -1080966.3, -31180.998, 0.004545072, -0.028495003, -912930.2, 22271.566, 0.0, 10.000753, 9.998607 
1.2550749e+3, 2.1457e+2, -854041.4, -996878.6, -33955.535, 0.023814727, 0.01990278, -846380.3, -9165.625, 0.0, 10.000515, 9.998626 
1.2550837e+3, 2.2456904e+2, -746280.1, -846479.75, -33964.59, 0.040884282, 0.03972459, -735852.4, 3373.8828, 0.0, 10.000377, 9.999052 
1.2550923e+3, 2.3456797e+2, -647895.06, -743219.06, -31214.59, 0.05540904, 0.023523215, -638583.25, 2652.747, 0.0, 10.000358, 9.999097 
1.255101e+3, 2.4456695e+2, -568391.1, -667006.8, -27960.484, 0.062270865, 0.017397197, -561015.1, -17769.785, 0.0, 10.000286, 9.998981 
1.2551096e+3, 2.5456595e+2, -488117.78, -575040.56, -24607.229, 0.06015857, 0.018314973, -481635.13, -36380.78, 0.0, 10.000154, 9.999003 
1.2551184e+3, 2.6456475e+2, -396226.72, -462942.72, -9858.522, 0.064379014, -0.009061254, -394800.44, -47535.758, 0.0, 10.000039, 9.999155 
1.2551275e+3, 2.745633e+2, -309630.0, -366737.66, -7629.386, 0.07582359, -0.0689734, -308628.3, -59352.32, 0.0, 9.999945, 9.999188 
1.2551366e+3, 2.8456253e+2, -251655.42, -320677.63, -4940.976, 0.093845144, -0.05392654, -251303.52, -100020.7, 0.0, 9.99981, 9.998896 
1.2551458e+3, 2.945623e+2, -180243.34, -235572.58, -4989.082, 0.11966834, 0.03475199, -179797.08, -126511.71, 0.0, 9.999628, 9.998895 
1.2551552e+3, 3.0456007e+2, -154878.55, -187537.47, 1876.5132, 0.13843806, -0.083955355, -154771.08, -154771.08, 0.0, 9.999421, 9.99899 
1.2551647e+3, 3.1455997e+2, -120127.11, -59071.27, -6873.0415, 0.17127842, 0.0034195995, -58307.137, -58307.137, 0.0, 9.999179, 9.999989 
1.2649952e+3, 1.24570236e+2, -1456110.5, -1706590.4, -4123.491, -0.05730495, -0.1982791, -1456042.6, 263149.5, 0.0030443578, 10.002288, 9.998954 
1.2650058e+3, 1.3456887e+2, -1390617.0, -1651578.5, 29633.26, 0.010895983, -0.20723575, -1387294.3, 233910.63, 0.0017503432, 10.002175, 9.998714 
1.2650147e+3, 1.4456744e+2, -1323591.0, -1573474.1, -3411.0234, -0.055197958, -0.21630418, -1323544.4, 199675.11, 0.00069703115, 10.001983, 9.998668 
1.2650238e+3, 1.5456654e+2, -1266527.0, -1493258.9, -8726.177, -0.027624922, -0.17535003, -1266191.6, 159039.28, 0.00013704965, 10.001693, 9.998685 
1.2650327e+3, 1.6456553e+2, -1206688.3, -1414269.5, -24003.492, -0.013057364, -0.1438387, -1203948.8, 123294.46, 0.0000037895563, 10.001432, 9.998681 
1.2650412e+3, 1.745644e+2, -1140419.9, -1328810.1, -19599.498, -0.010233529, -0.12782206, -1138402.5, 90854.195, 0.0, 10.001203, 9.998706 
1.2650499e+3, 1.845634e+2, -1067633.8, -1234540.1, -20837.494, -0.0071472484, -0.100834504, -1065071.6, 66197.26, 0.0, 10.000993, 9.998781 
1.2650582e+3, 1.9456258e+2, -995073.0, -1145560.9, -24572.934, -0.0051313476, -0.06322254, -991162.2, 42117.4, 0.0, 10.000804, 9.998811 
1.2650667e+3, 2.0456168e+2, -936358.94, -1086738.5, -25861.084, 0.0037226412, -0.025921483, -932035.8, 3255.8826, 0.0, 10.000622, 9.99863 
1.2650752e+3, 2.1456067e+2, -863195.75, -998666.25, -21733.756, 0.021139264, 0.0078465445, -859794.4, -22489.006, 0.0, 10.000442, 9.998648 
1.2650838e+3, 2.2455966e+2, -754364.94, -846242.7, -13634.469, 0.03852998, 0.022114648, -752384.3, -13067.272, 0.0, 10.000304, 9.999088 
1.2650926e+3, 2.3455869e+2, -665989.5, -747622.56, -13353.295, 0.05584841, 0.010949439, -663860.75, -22534.803, 0.0, 10.000216, 9.999135 
1.2651011e+3, 2.4455774e+2, -582073.5, -659892.6, -12046.199, 0.06314874, 0.0054545105, -580251.44, -36917.094, 0.0, 10.000134, 9.999104 
1.2651096e+3, 2.5455683e+2, -492596.53, -563004.9, -6066.476, 0.05868895, 0.0018470035, -492077.7, -46735.55, 0.0, 10.000063, 9.99913 
1.2651184e+3, 2.645557e+2, -409346.4, -468499.38, 7524.1006, 0.06437212, -0.024434758, -408404.38, -61052.617, 0.0, 9.999947, 9.999162 
1.2651274e+3, 2.7455437e+2, -333968.53, -378041.25, 6334.437, 0.08184129, -0.07635793, -333076.2, -83713.195, 0.0, 9.999777, 9.999191 
1.2651365e+3, 2.8455365e+2, -269109.44, -322659.1, 10292.984, 0.1003997, -0.057510536, -267199.13, -115829.68, 0.0, 9.999663, 9.998952 
1.2651455e+3, 2.9455346e+2, -177923.14, -227842.55, 15145.693, 0.12009321, 0.029720085, -173687.31, -120315.93, 0.0, 9.999617, 9.998953 
1.2651546e+3, 3.0455118e+2, -145102.8, -187349.3, 22383.781, 0.14176509, -0.09284801, -135449.02, -135449.02, 0.0, 9.999509, 9.998949 
1.2651643e+3, 3.14551e+2, -94529.52, -39795.523, 16759.387, 0.19196528, -0.0108499285, -35071.563, -35071.563, 0.0, 9.999326, 10.000051 
1.2749977e+3, 1.2456098e+2, -1462922.5, -1720825.5, -13429.263, -0.04532531, -0.22162783, -1462225.1, 257056.03, 0.003216271, 10.002287, 9.998857 
1.2750079e+3, 1.3455962e+2, -1397594.1, -1666739.4, 24703.717, 0.013991503, -0.2192251, -1395345.5, 225949.36, 0.0018611854, 10.002177, 9.99861 
1.2750167e+3, 1.4455818e+2, -1324782.6, -1576604.1, -14871.745, -0.057812724, -0.22445211, -1323907.4, 199402.77, 0.0007511169, 10.001985, 9.998646 
1.2750256e+3, 1.545574e+2, -1267515.1, -1495972.6, -20268.963, -0.02256107, -0.16963755, -1265730.9, 159589.63, 0.0001525157, 10.001695, 9.998667 
1.2750342e+3, 1.6455638e+2, -1197179.4, -1395199.0, -33204.086, -0.01072915, -0.14324403, -1191760.1, 135572.34, 0.000004722807, 10.001434, 9.998812 
1.2750423e+3, 1.745551e+2, -1130434.0, -1308798.9, -28638.432, -0.02315575, -0.15608141, -1125948.6, 103397.86, 0.0, 10.0012045, 9.998842 
1.2750506e+3, 1.8455413e+2, -1072984.6, -1246300.1, -28407.24, -0.020504715, -0.13023598, -1068447.3, 62911.26, 0.0, 10.000995, 9.9987 
1.2750591e+3, 1.9455354e+2, -1001007.8, -1158546.9, -31884.363, -0.0010141924, -0.060136676, -994799.44, 38568.54, 0.0, 10.000806, 9.998721 
1.2750673e+3, 2.0455268e+2, -928723.8, -1071535.4, -32778.4, 0.015081053, -0.019433731, -921559.8, 13820.002, 0.0, 10.000623, 9.9987335 
1.2750757e+3, 2.1455146e+2, -854843.25, -981980.2, -28607.125, 0.027738117, -0.017041413, -848702.9, -11308.581, 0.0, 10.000443, 9.998762 
1.2750842e+3, 2.2455044e+2, -753731.25, -845503.5, -17169.428, 0.039546832, -0.008974006, -750624.25, -11218.682, 0.0, 10.000306, 9.999093 
1.2750928e+3, 2.3454972e+2, -665638.44, -747293.5, -16551.303, 0.049892306, 0.0034803604, -662411.06, -20998.385, 0.0, 10.0002165, 9.999137 
1.2751012e+3, 2.4454889e+2, -571179.4, -637579.3, -14508.084, 0.05412597, 0.0031056495, -568147.9, -24728.006, 0.0, 10.000134, 9.999257 
1.2751096e+3, 2.5454798e+2, -481135.44, -539427.0, -8349.956, 0.051081847, -0.017314432, -479962.94, -34535.965, 0.0, 10.000062, 9.999292 
1.2751183e+3, 2.645469e+2, -411737.78, -473659.1, 1809.0774, 0.06331041, -0.044631727, -411684.97, -64248.8, 0.0, 9.999946, 9.999126 
1.2751274e+3, 2.7454573e+2, -336781.0, -384140.97, 601.59, 0.09389596, -0.07855853, -336773.34, -87326.24, 0.0, 9.999777, 9.99915 
1.2751362e+3, 2.8454506e+2, -261130.84, -306117.97, 8940.897, 0.1142909, -0.055100504, -259419.03, -107965.98, 0.0, 9.999662, 9.999067 
1.2751451e+3, 2.9454494e+2, -169902.81, -210746.45, 13964.887, 0.12189665, 0.020636296, -165584.61, -112130.41, 0.0, 9.999614, 9.999073 
1.2751544e+3, 3.0454254e+2, -145573.28, -187896.5, 16357.568, 0.14414121, -0.115408, -139988.23, -139988.23, 0.0, 9.999506, 9.998947 
1.2751639e+3, 3.1454217e+2, -87509.78, -25286.836, 10878.752, 0.21460553, -0.051154047, -23439.684, -23439.684, 0.0, 9.999325, 10.000151 
1.2850001e+3, 1.245521e+2, -1439672.0, -1721343.4, -5630.041, -0.04197142, -0.2318063, -1439559.5, 279807.4, 0.0033890037, 10.0025, 9.99875 
1.2850101e+3, 1.3455069e+2, -1409891.0, -1684418.5, 36410.836, 0.016552143, -0.2231155, -1405143.9, 216237.89, 0.0019731622, 10.002145, 9.998504 
1.2850185e+3, 1.4454918e+2, -1340508.5, -1579191.5, -1987.8344, -0.05860239, -0.2328222, -1340491.9, 182906.23, 0.0008066489, 10.001857, 9.99869 
1.2850273e+3, 1.5454845e+2, -1272321.6, -1492604.1, -2668.7722, -0.022966746, -0.17758548, -1272289.3, 153118.27, 0.00016903538, 10.001638, 9.998716 
1.2850356e+3, 1.6454749e+2, -1199656.1, -1392947.6, -16326.64, -0.012188388, -0.15039432, -1198286.8, 129132.02, 0.00000585612, 10.001404, 9.998841 
1.2850435e+3, 1.7454626e+2, -1136281.9, -1308128.0, -20044.246, -0.027254017, -0.16172412, -1133974.9, 95457.66, 0.0, 10.001151, 9.998873 
1.2850516e+3, 1.8454528e+2, -1087116.0, -1259320.8, -21638.154, -0.023877978, -0.1350231, -1084438.6, 47006.16, 0.0, 10.000926, 9.998644 
1.2850598e+3, 1.9454463e+2, -1016796.3, -1172765.3, -23212.473, 0.00039451066, -0.06481837, -1013415.0, 20040.04, 0.0, 10.000728, 9.998661 
1.285068e+3, 2.0454372e+2, -934279.25, -1067185.3, -23562.81, 0.01645829, -0.026127277, -930225.44, 5241.531, 0.0, 10.000556, 9.9987955 
1.2850761e+3, 2.1454254e+2, -854471.9, -974020.56, -22945.887, 0.02335143, -0.028447581, -850219.0, -12738.221, 0.0, 10.000414, 9.998831 
1.2850843e+3, 2.2454156e+2, -754594.6, -839377.3, -10068.412, 0.03363967, -0.023539005, -753415.4, -13923.995, 0.0, 10.000273, 9.99915 
1.2850928e+3, 2.3454086e+2, -673754.2, -744607.44, -5603.0415, 0.047429726, -0.012465227, -673313.9, -31815.955, 0.0, 10.0001335, 9.999195 
1.2851013e+3, 2.4454011e+2, -580175.94, -630426.56, -1934.2565, 0.05365658, -0.013760039, -580101.6, -36597.406, 0.0, 10.000024, 9.999359 
1.2851097e+3, 2.545393e+2, -490112.56, -531997.8, -212.93733, 0.050798148, -0.03435932, -490111.47, -44601.36, 0.0, 9.999951, 9.999397 
1.2851182e+3, 2.6453832e+2, -428960.72, -484524.63, 4543.619, 0.06484121, -0.05842166, -428591.63, -81072.836, 0.0, 9.99984, 9.999103 
1.2851271e+3, 2.7453718e+2, -352639.16, -395019.4, 3840.425, 0.09936949, -0.08492869, -352293.94, -102763.94, 0.0, 9.999682, 9.999121 
1.2851359e+3, 2.8453654e+2, -271830.7, -304551.22, 14215.606, 0.12232437, -0.06098137, -266517.44, -114981.46, 0.0, 9.999561, 9.999126 
1.2851448e+3, 2.9453638e+2, -184729.1, -210936.83, 14975.134, 0.13068497, 0.006987368, -177934.06, -124397.3, 0.0, 9.999482, 9.999134 
1.2851538e+3, 3.04534e+2, -165156.08, -200045.55, 11122.248, 0.15080014, -0.13072757, -161912.1, -161912.1, 0.0, 9.999384, 9.998921 
1.2851632e+3, 3.145336e+2, -91511.63, -18136.078, 3991.6355, 0.21968989, -0.06785657, -17919.572, -17919.572, 0.0, 9.99926, 10.000231 
1.2950025e+3, 1.2454364e+2, -1447758.5, -1738659.8, -24257.863, -0.04688529, -0.2285568, -1445749.5, 273699.4, 0.0035624073, 10.0025015, 9.998631 
1.2950124e+3, 1.3454211e+2, -1417519.0, -1700922.5, 22287.703, 0.018402807, -0.21895997, -1415777.0, 205688.5, 0.0020858154, 10.002147, 9.99839 
1.2950204e+3, 1.4454046e+2, -1332885.6, -1563921.8, -11064.614, -0.057764247, -0.24140333, -1332357.0, 191126.06, 0.00086324645, 10.001858, 9.998794 
1.2950288e+3, 1.5453972e+2, -1264047.0, -1476110.3, -11491.567, -0.02883296, -0.199082, -1263426.1, 162065.63, 0.0001865044, 10.00164, 9.998829 
1.295037e+3, 1.6453885e+2, -1204439.3, -1403634.8, -26434.443, -0.017465008, -0.16529408, -1200990.9, 126511.29, 0.0000072252774, 10.001406, 9.998767 
1.2950447e+3, 1.7453784e+2, -1141429.4, -1319678.6, -30016.822, -0.022815486, -0.14528047, -1136510.4, 93004.27, 0.0, 10.001153, 9.998793 
1.2950525e+3, 1.8453683e+2, -1089336.6, -1264770.5, -29518.057, -0.017577205, -0.11567997, -1084503.1, 47024.47, 0.0, 10.000928, 9.998606 
1.2950605e+3, 1.9453585e+2, -1019073.25, -1178189.4, -30892.682, -0.00092451915, -0.076986864, -1013285.9, 20254.742, 0.0, 10.00073, 9.998623 
1.2950684e+3, 2.0453487e+2, -932790.06, -1064643.1, -29163.332, 0.008032393, -0.04567707, -926627.75, 8925.425, 0.0, 10.000557, 9.998813 
1.2950765e+3, 2.1453391e+2, -852753.5, -970929.7, -28353.12, 0.008207351, -0.026888523, -846303.0, -8738.328, 0.0, 10.000415, 9.998852 
1.2950847e+3, 2.2453299e+2, -747248.8, -824562.3, -15336.33, 0.020875018, -0.0221415, -744317.75, -4743.325, 0.0, 10.000274, 9.999252 
1.295093e+3, 2.3453215e+2, -666050.7, -728945.25, -10752.492, 0.0481985, -0.036491085, -664263.25, -22681.621, 0.0, 10.0001335, 9.999303 
1.2951015e+3, 2.4453141e+2, -576743.5, -623509.6, -4563.8247, 0.06132044, -0.044549398, -576302.3, -32714.78, 0.0, 10.000024, 9.999407 
1.2951097e+3, 2.5453082e+2, -486860.56, -525343.44, -2624.086, 0.05741649, -0.04940728, -486682.44, -41090.76, 0.0, 9.99995, 9.999443 
1.295118e+3, 2.645299e+2, -430206.9, -487387.0, -726.5255, 0.06874236, -0.06606164, -430197.7, -82597.9, 0.0, 9.99984, 9.9990835 
1.2951267e+3, 2.745287e+2, -353815.06, -398029.5, -1431.3522, 0.0984795, -0.0952857, -353768.75, -104156.88, 0.0, 9.999683, 9.9991 
1.2951355e+3, 2.8452802e+2, -271420.5, -304229.06, 11804.648, 0.124597855, -0.07482278, -267614.63, -115996.22, 0.0, 9.999562, 9.999128 
1.2951444e+3, 2.945278e+2, -184692.61, -210853.25, 12730.212, 0.14578918, -0.011039916, -179520.45, -125901.09, 0.0, 9.999481, 9.999136 
1.2951532e+3, 3.0452552e+2, -169145.53, -208041.31, 7134.801, 0.16134761, -0.1391919, -167878.08, -167878.08, 0.0, 9.999382, 9.998868 
1.2951623e+3, 3.1452522e+2, -87881.19, -10630.889, 400.47034, 0.20803449, -0.061639488, -10628.8125, -10628.8125, 0.0, 9.999259, 10.000283 
1.305005e+3, 1.24535054e+2, -1464588.4, -1739631.8, -41846.26, -0.046678174, -0.2289386, -1458362.6, 261170.66, 0.0037353144, 10.002357, 9.9986925 
1.3050143e+3, 1.3453367e+2, -1406546.1, -1686816.3, 22954.906, 0.019492436, -0.21336417, -1404678.5, 216869.58, 0.002198173, 10.002185, 9.998468 
1.3050222e+3, 1.44532e+2, -1317247.8, -1549545.5, -5392.931, -0.058337927, -0.24574418, -1317122.6, 206443.06, 0.00092024496, 10.001937, 9.998854 
1.3050304e+3, 1.545312e+2, -1265747.0, -1470098.9, -10044.126, -0.033879317, -0.21478721, -1265254.5, 160319.84, 0.00020472471, 10.0016, 9.998889 
1.3050383e+3, 1.6453035e+2, -1218375.5, -1419474.0, -24867.81, -0.021114346, -0.17697446, -1215346.0, 112238.76, 0.000008878654, 10.00135, 9.998685 
1.305046e+3, 1.745295e+2, -1140793.3, -1329103.3, -29189.021, -0.01739079, -0.13406818, -1136372.6, 93224.21, 0.0, 10.001201, 9.998704 
1.3050535e+3, 1.8452847e+2, -1078282.8, -1254337.5, -28186.99, -0.009932368, -0.101957776, -1073880.1, 57729.754, 0.0, 10.000983, 9.998651 
1.3050613e+3, 1.9452733e+2, -1022341.06, -1173761.1, -23334.133, 0.00040193845, -0.08543986, -1018826.75, 14796.902, 0.0, 10.000682, 9.998675 
1.305069e+3, 2.0452628e+2, -949862.8, -1075465.6, -16011.338, 0.0037586193, -0.061660152, -947853.9, -12217.562, 0.0, 10.000452, 9.998789 
1.3050766e+3, 2.1452539e+2, -870752.7, -982590.56, -18925.717, -0.0007890076, -0.032868896, -867636.8, -29989.508, 0.0, 10.000305, 9.998824 
1.3050847e+3, 2.2452448e+2, -759579.4, -820706.7, -9035.06, 0.012803422, -0.029171316, -758271.94, -18615.293, 0.0, 10.000148, 9.999339 
1.305093e+3, 2.345236e+2, -682536.3, -726429.06, -5816.4727, 0.048053045, -0.057784498, -681778.6, -40115.066, 0.0, 9.999976, 9.999395 
1.3051015e+3, 2.4452285e+2, -600644.56, -633457.44, 1415.3635, 0.06697674, -0.07204517, -600583.6, -56914.414, 0.0, 9.999854, 9.99942 
1.3051096e+3, 2.545223e+2, -509609.44, -535272.75, 476.85056, 0.066133425, -0.07352036, -509600.56, -63927.387, 0.0, 9.999791, 9.999452 
1.3051179e+3, 2.6452145e+2, -442539.47, -492619.1, 1062.8928, 0.07629959, -0.08469812, -442516.9, -94835.945, 0.0, 9.999753, 9.999089 
1.3051264e+3, 2.7452034e+2, -344462.4, -392871.28, 1905.0962, 0.0999841, -0.105943866, -344387.56, -94695.0, 0.0, 9.999746, 9.9991045 
1.3051352e+3, 2.8451964e+2, -262305.66, -299648.28, 12711.8955, 0.1249813, -0.085773304, -258389.13, -106689.96, 0.0, 9.999625, 9.999129 
1.305144e+3, 2.9451934e+2, -201791.88, -219156.52, 13023.699, 0.15076184, -0.032026395, -194821.75, -141120.86, 0.0, 9.999365, 9.999134 
1.3051526e+3, 3.045171e+2, -195012.7, -226636.77, 11431.842, 0.16512, -0.15391815, -191313.02, -191313.02, 0.0, 9.999232, 9.998813 
1.3051616e+3, 3.145168e+2, -85441.32, -3929.071, 5148.657, 0.20729712, -0.067397, -3605.1475, -3605.1475, 0.0, 9.999252, 10.000332 
1.3150074e+3, 1.24526404e+2, -1448222.5, -1705791.0, -53541.97, -0.04120332, -0.23242316, -1437535.9, 282083.3, 0.003906043, 10.0023575, 9.998926 
1.3150166e+3, 1.3452539e+2, -1387921.6, -1648824.4, 15778.416, 0.019760977, -0.20639703, -1386970.9, 234658.42, 0.0023090318, 10.002187, 9.998729 
1.3150242e+3, 1.4452377e+2, -1315904.4, -1547462.6, -18608.113, -0.060408715, -0.24593551, -1314418.5, 209227.03, 0.000976971, 10.001939, 9.998868 
1.315032e+3, 1.5452288e+2, -1265083.4, -1469472.4, -23305.297, -0.038281478, -0.22486046, -1262459.8, 163195.4, 0.00022350362, 10.001602, 9.998893 
1.3150395e+3, 1.6452202e+2, -1224791.4, -1433499.6, -31316.063, -0.023291739, -0.18556823, -1220193.8, 107472.34, 0.000010883257, 10.001352, 9.998588 
1.3150471e+3, 1.745212e+2, -1147763.6, -1344087.9, -35145.26, -0.0110956915, -0.12795801, -1141661.8, 88016.914, 0.0, 10.001202, 9.998602 
1.3150546e+3, 1.8452021e+2, -1069413.1, -1236408.5, -39591.492, -0.0011044684, -0.09373934, -1060502.3, 71189.164, 0.0, 10.000984, 9.998774 
1.315062e+3, 1.9451906e+2, -1012395.6, -1153841.5, -34910.586, 0.0041940515, -0.09037744, -1004248.56, 29455.451, 0.0, 10.000684, 9.998812 
1.3150693e+3, 2.0451798e+2, -954316.6, -1085527.6, -22048.69, 0.0033786513, -0.07422484, -950710.7, -14994.172, 0.0, 10.000455, 9.998719 
1.315077e+3, 2.14517e+2, -875828.75, -993972.5, -24499.016, -0.00401717, -0.04606163, -870950.0, -33221.414, 0.0, 10.000308, 9.998745 
1.3150848e+3, 2.2451606e+2, -754438.2, -810944.3, -15475.888, 0.009168016, -0.044283543, -750477.3, -10739.359, 0.0, 10.000151, 9.999405 
1.315093e+3, 2.3451522e+2, -676802.06, -715380.2, -12188.902, 0.046997406, -0.076501146, -673273.6, -31529.945, 0.0, 9.999979, 9.999471 
1.3151014e+3, 2.4451444e+2, -602130.06, -637287.44, -960.4464, 0.07057652, -0.09641828, -602103.8, -58354.508, 0.0, 9.999856, 9.999393 
1.3151094e+3, 2.5451377e+2, -511365.3, -539505.25, -1485.3153, 0.076642804, -0.106340565, -511287.13, -65532.418, 0.0, 9.999792, 9.999423 
1.3151178e+3, 2.6451293e+2, -441000.66, -489626.97, 1249.3468, 0.08715828, -0.11391912, -440968.56, -93206.11, 0.0, 9.999753, 9.99911 
1.3151263e+3, 2.7451205e+2, -342975.72, -389497.2, 2376.5627, 0.10361401, -0.116784915, -342854.63, -93082.39, 0.0, 9.999743, 9.999129 
1.3151346e+3, 2.8451142e+2, -262840.9, -300553.03, 4181.4365, 0.12343541, -0.09386613, -262382.84, -110604.31, 0.0, 9.999623, 9.999125 
1.3151433e+3, 2.9451093e+2, -202113.88, -220373.22, 4018.1836, 0.1460635, -0.056164898, -201268.75, -147487.05, 0.0, 9.999367, 9.9991255 
1.3151518e+3, 3.0450866e+2, -199362.55, -235900.3, 12533.072, 0.16220853, -0.17481385, -195476.73, -195476.73, 0.0, 9.999231, 9.99875 
1.3151608e+3, 3.1450838e+2, -83742.414, 1030.1029, 7619.9175, 0.21600369, -0.082758166, 1709.5854, 1709.5854, 0.0, 9.999246, 10.00037 
1.3250098e+3, 1.2451822e+2, -1441316.6, -1695194.5, -22682.975, -0.03989528, -0.24364972, -1439306.0, 280393.4, 0.004073657, 10.002375, 9.99899 
1.3250189e+3, 1.3451742e+2, -1395811.8, -1642140.5, 38097.383, 0.017897734, -0.20612301, -1390054.1, 231652.89, 0.0024175402, 10.002089, 9.998821 
1.325026e+3, 1.4451581e+2, -1336543.1, -1564670.9, -7896.4473, -0.060811974, -0.24750297, -1336270.1, 187453.14, 0.0010328876, 10.00183, 9.998802 
1.3250336e+3, 1.5451483e+2, -1269998.0, -1479935.8, -18587.053, -0.03729974, -0.2278454, -1268365.1, 157368.94, 0.00024265106, 10.001604, 9.998819 
1.325041e+3, 1.6451393e+2, -1227542.5, -1432096.6, -24587.625, -0.02132828, -0.18867484, -1224628.5, 103116.88, 0.000013283229, 10.001323, 9.998611 
1.3250482e+3, 1.7451315e+2, -1179132.4, -1355734.0, -18924.129, -0.008308457, -0.12945868, -1177127.3, 52629.926, 0.0, 10.000973, 9.9986315 
1.3250554e+3, 1.8451217e+2, -1108705.3, -1259808.6, -22443.914, 0.00041645824, -0.09514318, -1105442.0, 26327.838, 0.0, 10.000734, 9.998733 
1.3250627e+3, 1.9451095e+2, -1023645.7, -1164031.9, -31215.145, 0.001879707, -0.09343504, -1017017.9, 16765.137, 0.0, 10.000628, 9.998768 
1.3250698e+3, 2.0450981e+2, -947527.25, -1082816.8, -21428.01, 0.0028983874, -0.081036836, -944214.44, -8418.517, 0.0, 10.0005045, 9.998713 
1.3250774e+3, 2.1450877e+2, -869074.06, -991002.56, -18474.838, 0.0043682638, -0.0590958, -866336.2, -28528.008, 0.0, 10.000357, 9.998741 
1.325085e+3, 2.2450781e+2, -746459.25, -808137.94, -9900.026, 0.017540487, -0.05943573, -744909.1, -5091.516, 0.0, 10.000211, 9.999394 
1.325093e+3, 2.3450698e+2, -664482.3, -710520.06, -13213.054, 0.04442349, -0.08892142, -660959.6, -19136.492, 0.0, 10.00007, 9.99946 
1.3251011e+3, 2.4450618e+2, -591035.3, -631154.7, -2425.024, 0.065188296, -0.1105686, -590889.3, -47060.383, 0.0, 9.99993, 9.999399 
1.3251093e+3, 2.5450543e+2, -510633.72, -538174.94, -407.58887, 0.07829354, -0.12754245, -510627.7, -64792.883, 0.0, 9.999794, 9.99943 
1.3251175e+3, 2.6450467e+2, -450120.3, -485378.94, 6082.9907, 0.09215442, -0.13514085, -449100.34, -101258.31, 0.0, 9.999654, 9.9991865 
1.3251258e+3, 2.7450395e+2, -371886.06, -394454.6, 10911.905, 0.1075701, -0.1296927, -367473.03, -117623.01, 0.0, 9.999508, 9.999208 
1.3251343e+3, 2.8450328e+2, -292730.7, -317224.6, 12391.252, 0.12374639, -0.106874384, -287555.5, -135699.44, 0.0, 9.999429, 9.999103 
1.3251425e+3, 2.945027e+2, -194710.1, -219926.84, 10378.672, 0.13931462, -0.07892291, -190987.89, -137127.17, 0.0, 9.999433, 9.999097 
1.325151e+3, 3.045005e+2, -197024.52, -231314.28, 17773.484, 0.15635097, -0.19365053, -189474.39, -189474.39, 0.0, 9.999234, 9.998779 
1.32516e+3, 3.1450018e+2, -140939.81, -11688.1875, 20261.248, 0.22491993, -0.107951, -8586.503, -8586.503, 0.0, 9.99879, 10.000502 
1.335012e+3, 1.24510564e+2, -1448585.6, -1710886.3, -38512.41, -0.042648364, -0.26206434, -1443048.0, 276725.13, 0.0042385682, 10.002377, 9.998881 
1.3350208e+3, 1.345098e+2, -1400744.8, -1653160.8, 26631.32, 0.013834649, -0.21264392, -1397965.6, 223815.1, 0.0025235927, 10.00209, 9.998746 
1.3350278e+3, 1.4450811e+2, -1346803.0, -1586615.4, -17195.934, -0.05968127, -0.25061685, -1345576.3, 178222.0, 0.0010875799, 10.001831, 9.9986515 
1.3350353e+3, 1.5450706e+2, -1280566.3, -1502545.4, -27591.646, -0.031121133, -0.22379266, -1277188.0, 148622.69, 0.00026189684, 10.001606, 9.998664 
1.3350424e+3, 1.6450612e+2, -1217414.5, -1411874.0, -38042.125, -0.015387637, -0.18623038, -1210237.3, 117585.055, 0.000016032998, 10.001326, 9.99875 
1.3350491e+3, 1.7450538e+2, -1167642.8, -1332970.4, -32547.104, -0.00905624, -0.13845211, -1161466.3, 68366.18, 0.00000000003443261, 10.000977, 9.998787 
1.3350561e+3, 1.8450435e+2, -1122437.5, -1289396.5, -27276.818, -0.005329461, -0.10604476, -1118094.3, 13750.862, 0.0, 10.000738, 9.9985285 
1.3350631e+3, 1.9450302e+2, -1038871.2, -1196553.5, -35441.9, -0.0065025417, -0.09467792, -1031271.25, 2589.242, 0.0, 10.000631, 9.998545 
1.3350703e+3, 2.0450176e+2, -943496.0, -1075244.6, -27091.57, 0.0022005187, -0.08222705, -938142.7, -2268.2078, 0.0, 10.000507, 9.998764 
1.3350779e+3, 2.1450068e+2, -864091.7, -981391.6, -24113.021, 0.023917688, -0.07204108, -859328.3, -21442.084, 0.0, 10.000359, 9.998807 
1.3350855e+3, 2.2449969e+2, -752406.8, -821197.4, -15174.32, 0.037437424, -0.07473082, -749208.25, -9312.574, 0.0, 10.000213, 9.999305 
1.3350931e+3, 2.3449886e+2, -670994.9, -724751.06, -18321.105, 0.0402282, -0.09529681, -665344.6, -23442.688, 0.0, 10.000072, 9.999362 
1.335101e+3, 2.4449803e+2, -588447.9, -626421.5, -7215.1543, 0.0510401, -0.114842385, -587123.2, -43215.2, 0.0, 9.999931, 9.999432 
1.335109e+3, 2.544973e+2, -507678.7, -532582.75, -5029.084, 0.07142575, -0.13754311, -506701.47, -60787.87, 0.0, 9.999796, 9.999469 
1.3351172e+3, 2.6449656e+2, -441400.84, -467589.25, 1185.9615, 0.09143437, -0.14872059, -441347.25, -93427.33, 0.0, 9.999655, 9.99931 
1.3351254e+3, 2.7449593e+2, -362908.16, -375899.03, 6055.9956, 0.11157585, -0.14476871, -360522.97, -110596.695, 0.0, 9.999507, 9.999337 
1.3351336e+3, 2.8449532e+2, -296190.88, -324011.4, 12866.521, 0.12552704, -0.124728285, -291152.72, -139220.61, 0.0, 9.999426, 9.999059 
1.3351418e+3, 2.9449466e+2, -199351.67, -228530.72, 11228.571, 0.13041148, -0.1000435, -195531.02, -141592.77, 0.0, 9.999427, 9.999041 
1.3351502e+3, 3.044925e+2, -189747.11, -215229.44, 2511.1523, 0.14742053, -0.21003865, -189502.0, -189502.0, 0.0, 9.9992285, 9.998893 
1.3351588e+3, 3.1449214e+2, -126095.67, 19286.46, 4948.3965, 0.23334777, -0.14159247, 19454.695, 19454.695, 0.0, 9.998788, 10.000716 
1.3450146e+3, 1.2450316e+2, -1441564.1, -1716695.5, -37401.684, -0.03813068, -0.27050966, -1436570.4, 283274.47, 0.0044024647, 10.002467, 9.998797 
1.3450228e+3, 1.3450238e+2, -1379831.4, -1648247.0, 33908.125, 0.005634967, -0.21640477, -1375614.1, 246238.6, 0.0026278205, 10.002258, 9.998698 
1.3450296e+3, 1.4450066e+2, -1332380.4, -1587268.9, -8415.844, -0.06581523, -0.2536178, -1332102.8, 191768.3, 0.0011408281, 10.001965, 9.998582 
1.3450369e+3, 1.544996e+2, -1290851.9, -1515145.5, -12940.061, -0.029102102, -0.21817312, -1290107.9, 135775.92, 0.00028088767, 10.00157, 9.998594 
1.3450436e+3, 1.6449861e+2, -1225705.6, -1420021.6, -24160.932, -0.011016637, -0.18139453, -1222746.5, 105149.36, 0.000018979208, 10.001287, 9.998712 
1.3450503e+3, 1.7449772e+2, -1146427.4, -1326588.6, -32832.36, -0.0088867415, -0.14499088, -1140630.6, 89276.13, 0.0000000014653116, 10.00114, 9.998752 
1.345057e+3, 1.8449658e+2, -1099990.4, -1292597.3, -29741.72, -0.0062220762, -0.11657341, -1095502.4, 36418.08, 0.0, 10.000954, 9.998402 
1.3450639e+3, 1.9449516e+2, -1035287.44, -1209236.9, -31300.34, -0.004827403, -0.100811355, -1029826.7, 4110.5825, 0.0, 10.000719, 9.998414 
1.3450709e+3, 2.0449388e+2, -938254.94, -1065187.0, -18583.574, 0.004339504, -0.08829169, -935590.2, 361.29855, 0.0, 10.000512, 9.998831 
1.3450782e+3, 2.1449283e+2, -861730.75, -971333.75, -15032.632, 0.023888376, -0.08310499, -859706.3, -21744.314, 0.0, 10.000338, 9.998886 
1.3450857e+3, 2.2449182e+2, -762829.9, -836294.25, -4886.005, 0.03675585, -0.087101825, -762506.4, -22534.98, 0.0, 10.000186, 9.999213 
1.3450931e+3, 2.344909e+2, -679320.1, -739555.56, -8447.385, 0.040923536, -0.10445235, -678157.9, -36179.047, 0.0, 10.000062, 9.999264 
1.3451008e+3, 2.4449006e+2, -588273.5, -623963.9, 1494.4222, 0.053295474, -0.12337401, -588211.06, -44225.67, 0.0, 9.999925, 9.999451 
1.3451089e+3, 2.544893e+2, -509659.78, -530386.6, 2388.8713, 0.07541679, -0.14860725, -509388.0, -63397.38, 0.0, 9.99977, 9.999495 
1.3451168e+3, 2.6448858e+2, -448268.06, -468025.38, 3514.9307, 0.093517885, -0.16158587, -447661.38, -99664.82, 0.0, 9.999597, 9.999333 
1.3451248e+3, 2.7448797e+2, -376898.2, -379722.78, 499.41272, 0.10729501, -0.1588695, -376812.5, -126809.94, 0.0, 9.9994, 9.999361 
1.3451329e+3, 2.8448734e+2, -331437.06, -344006.44, 6077.8115, 0.121898584, -0.14045043, -328978.94, -176970.16, 0.0, 9.999199, 9.99903 
1.3451411e+3, 2.9448664e+2, -265414.34, -264040.38, 5839.757, 0.1358753, -0.11679207, -258847.34, -204831.36, 0.0, 9.99899, 9.999006 
1.3451491e+3, 3.0448458e+2, -241758.77, -226902.03, -8534.973, 0.14896479, -0.2175157, -223015.52, -223015.52, 0.0, 9.998816, 9.999011 
1.3451575e+3, 3.144842e+2, -126632.125, 42822.13, -5405.3105, 0.21893935, -0.16388097, 42994.375, 42994.375, 0.0, 9.998683, 10.000927 
1.3550171e+3, 1.24496065e+2, -1446438.6, -1726688.6, -50172.535, -0.026025789, -0.26863834, -1437727.1, 282186.88, 0.0045679878, 10.002465, 9.99873 
1.355025e+3, 1.3449524e+2, -1381097.5, -1651366.0, 25253.875, -0.006787169, -0.2171567, -1378758.0, 243164.63, 0.0027314809, 10.002259, 9.998677 
1.3550314e+3, 1.4449348e+2, -1331640.6, -1586413.9, -23661.064, -0.07938373, -0.25633723, -1329461.9, 194479.47, 0.0011927416, 10.001966, 9.998588 
1.3550383e+3, 1.5449254e+2, -1289705.8, -1513606.4, -28403.691, -0.031333636, -0.21114181, -1286158.6, 139794.13, 0.00029931884, 10.001572, 9.998605 
1.355045e+3, 1.6449144e+2, -1240152.9, -1450880.1, -30709.094, -0.008276039, -0.17435987, -1235768.9, 92196.914, 0.00002192539, 10.001289, 9.998499 
1.3550514e+3, 1.7449023e+2, -1161800.3, -1359290.1, -38717.2, -0.007909375, -0.14914276, -1154481.1, 75498.91, 0.0000000068048798, 10.001142, 9.998527 
1.355058e+3, 1.8448888e+2, -1103491.3, -1300632.4, -38691.844, -0.0025168995, -0.12671964, -1096169.4, 35826.49, 0.0, 10.000956, 9.998346 
1.3550647e+3, 1.9448741e+2, -1037873.06, -1215513.3, -40283.906, 0.00651375, -0.11171585, -1029164.7, 4848.42, 0.0, 10.000722, 9.99837 
1.3550714e+3, 2.0448615e+2, -932308.25, -1053783.4, -25378.332, 0.009171909, -0.099131, -927219.44, 8807.3955, 0.0, 10.000515, 9.998908 
1.3550784e+3, 2.1448518e+2, -855221.5, -958778.1, -21640.756, 0.0047818115, -0.092352666, -850881.0, -12845.449, 0.0, 10.00034, 9.998971 
1.3550855e+3, 2.2448418e+2, -769039.75, -850083.5, -9557.06, 0.015992273, -0.09660258, -767928.0, -27883.229, 0.0, 10.000189, 9.999118 
1.3550933e+3, 2.3448314e+2, -686415.44, -754884.8, -12852.373, 0.04623293, -0.11633815, -684082.44, -42028.504, 0.0, 10.000063, 9.999159 
1.355101e+3, 2.4448222e+2, -587801.56, -623342.44, -3829.301, 0.07123786, -0.13612926, -587393.7, -43332.39, 0.0, 9.999925, 9.999455 
1.3551088e+3, 2.544815e+2, -508832.84, -528832.3, -2885.6091, 0.08956307, -0.16078833, -508424.8, -62358.766, 0.0, 9.999769, 9.999506 
1.3551165e+3, 2.6448074e+2, -453560.28, -479182.75, -3114.1528, 0.098052494, -0.17375113, -453187.22, -105115.055, 0.0, 9.999596, 9.999258 
1.3551241e+3, 2.7448004e+2, -382233.9, -391364.03, -6066.9233, 0.09497037, -0.17179048, -379206.38, -129127.28, 0.0, 9.999401, 9.999281 
1.355132e+3, 2.8447935e+2, -332640.94, -346877.1, -877.87213, 0.11280096, -0.15405476, -332587.0, -180500.77, 0.0, 9.999199, 9.999011 
1.3551402e+3, 2.9447863e+2, -267228.44, -267326.7, -1020.4706, 0.15442973, -0.1298263, -266255.9, -212161.67, 0.0, 9.998987, 9.998985 
1.3551481e+3, 3.0447677e+2, -233864.95, -209927.64, -12671.6045, 0.15994638, -0.21673875, -204465.9, -204465.9, 0.0, 9.998812, 9.99913 
1.3551557e+3, 3.1447643e+2, -112422.28, 72266.086, -8443.64, 0.18239968, -0.17319034, 72651.305, 72651.305, 0.0, 9.998682, 10.001131 
1.3650194e+3, 1.2448898e+2, -1476372.9, -1738780.5, -57633.54, -0.03507142, -0.26663753, -1464272.6, 255710.92, 0.0047382293, 10.002251, 9.99875 
1.3650273e+3, 1.3448824e+2, -1408828.9, -1656438.0, 28137.553, -0.0063074566, -0.21601537, -1405671.6, 216319.72, 0.0028363883, 10.002034, 9.998751 
1.3650334e+3, 1.4448647e+2, -1354466.3, -1598272.5, -21076.254, -0.06895336, -0.25811756, -1352657.8, 171352.11, 0.0012438492, 10.001814, 9.998579 
1.3650401e+3, 1.5448554e+2, -1286145.3, -1513137.0, -27612.379, -0.028678907, -0.21088627, -1282834.6, 143186.53, 0.0003170788, 10.001603, 9.998592 
1.3650464e+3, 1.644844e+2, -1234314.8, -1459383.5, -23391.559, -0.008332447, -0.17501615, -1231909.4, 96125.36, 0.00002472805, 10.001379, 9.998397 
1.3650526e+3, 1.7448302e+2, -1170148.6, -1375245.0, -22771.836, -0.00400501, -0.15428083, -1167650.8, 62399.62, 0.000000016360648, 10.001137, 9.998419 
1.365059e+3, 1.8448156e+2, -1111687.8, -1310421.9, -18526.383, 0.003005086, -0.13414319, -1109975.5, 22091.64, 0.0, 10.000926, 9.998293 
1.3650654e+3, 1.9448005e+2, -1036677.06, -1220503.4, -20764.996, 0.010603574, -0.11886501, -1034360.6, -275.9103, 0.0, 10.000755, 9.99832 
1.365072e+3, 2.0447874e+2, -924985.75, -1053220.1, -9243.869, 0.011758822, -0.1062235, -924322.8, 11775.842, 0.0, 10.000579, 9.99888 
1.3650787e+3, 2.1447775e+2, -849115.9, -958608.6, -13968.934, 0.0058236294, -0.099594474, -847361.8, -9254.291, 0.0, 10.000396, 9.998945 
1.3650858e+3, 2.244767e+2, -768437.56, -851791.4, -3382.807, 0.016429301, -0.10588092, -768300.5, -28183.55, 0.0, 10.000203, 9.999099 
1.3650933e+3, 2.344756e+2, -697376.5, -762195.1, -705.93835, 0.047204416, -0.13001384, -697368.9, -55242.24, 0.0, 9.999998, 9.99914 
1.3651009e+3, 2.4447463e+2, -608362.56, -637601.2, 9704.084, 0.07279478, -0.15138908, -605435.0, -61300.656, 0.0, 9.999804, 9.999415 
1.3651085e+3, 2.5447387e+2, -533163.94, -544974.06, 6422.615, 0.091761716, -0.17407411, -530344.3, -84204.89, 0.0, 9.999623, 9.999465 
1.3651161e+3, 2.6447308e+2, -475846.4, -497649.22, 4761.922, 0.0995749, -0.18529044, -474851.75, -126705.664, 0.0, 9.999477, 9.9991865 
1.3651235e+3, 2.7447233e+2, -391014.03, -403503.0, 1950.6805, 0.094298564, -0.18230154, -390716.47, -140562.61, 0.0, 9.999376, 9.999208 
1.3651313e+3, 2.8447166e+2, -335552.56, -341918.4, 4504.874, 0.112367146, -0.16285802, -333219.63, -181058.47, 0.0, 9.999153, 9.999065 
1.3651392e+3, 2.9447103e+2, -293488.66, -273117.6, 9473.491, 0.15693547, -0.13489425, -269392.97, -215224.63, 0.0, 9.998779, 9.999045 
1.3651468e+3, 3.0446935e+2, -272668.4, -226288.28, 4382.4556, 0.154995, -0.20807968, -225877.81, -225877.81, 0.0, 9.998537, 9.999149 
1.3651541e+3, 3.1446886e+2, -138970.5, 68781.25, 1840.8131, 0.16114083, -0.18255867, 68797.56, 68797.56, 0.0, 9.998461, 10.001213 
1.3750213e+3, 1.24481976e+2, -1468999.8, -1723775.4, -70080.76, -0.065438144, -0.26405987, -1450995.1, 269057.56, 0.0049160505, 10.002251, 9.998854 
1.3750292e+3, 1.3448139e+2, -1397134.8, -1632585.3, 19149.486, 0.006774065, -0.21322218, -1395587.5, 226471.02, 0.0029444871, 10.002034, 9.998915 
1.3750356e+3, 1.4447966e+2, -1356132.8, -1602230.6, -29895.467, -0.034853972, -0.25915995, -1352553.1, 171523.19, 0.0012949365, 10.001815, 9.998552 
1.3750416e+3, 1.5447864e+2, -1288350.8, -1518553.1, -36035.51, -0.021288749, -0.21715485, -1282841.6, 143246.84, 0.0003342444, 10.001605, 9.998555 
1.3750477e+3, 1.6447745e+2, -1233692.1, -1459078.0, -32945.9, -0.01130631, -0.18308656, -1228975.0, 99127.36, 0.000027345353, 10.001383, 9.998399 
1.3750538e+3, 1.744761e+2, -1169100.3, -1374095.4, -32300.96, 0.0026000172, -0.16041254, -1164131.0, 65986.484, 0.000000027808229, 10.00114, 9.9984255 
1.37506e+3, 1.8447465e+2, -1115234.3, -1318792.6, -25496.16, 0.01017596, -0.1389643, -1112089.4, 20044.754, 0.0, 10.000929, 9.998235 
1.3750662e+3, 1.9447307e+2, -1040329.94, -1229172.0, -27356.941, 0.0075457054, -0.122437365, -1036446.7, -2294.6318, 0.0, 10.000758, 9.99826 
1.3750726e+3, 2.0447168e+2, -933845.9, -1072694.9, -16236.222, 0.012019493, -0.10975743, -931972.56, 4194.428, 0.0, 10.000582, 9.998746 
1.3750793e+3, 2.1447054e+2, -858268.7, -978623.6, -20780.297, 0.026283095, -0.10492291, -854781.8, -16604.025, 0.0, 10.000399, 9.998807 
1.3750862e+3, 2.244694e+2, -764478.5, -844573.4, -10862.35, 0.03733537, -0.11496861, -763031.5, -22843.516, 0.0, 10.000206, 9.999147 
1.3750933e+3, 2.344683e+2, -692695.6, -753419.9, -8086.2373, 0.043915555, -0.14538114, -691637.25, -49440.33, 0.0, 10.000001, 9.999199 
1.3751005e+3, 2.4446729e+2, -614175.2, -650559.0, 3253.891, 0.05842055, -0.16898906, -613886.5, -69681.7, 0.0, 9.999806, 9.999326 
1.375108e+3, 2.5446647e+2, -539607.5, -559093.06, 196.1114, 0.08231921, -0.18839546, -539605.5, -93394.56, 0.0, 9.999625, 9.999368 
1.3751155e+3, 2.6446563e+2, -480868.9, -508344.38, 1573.8503, 0.09798134, -0.19622952, -480779.06, -132560.48, 0.0, 9.999477, 9.999114 
1.375123e+3, 2.7446482e+2, -396383.25, -414171.0, -877.3894, 0.10440689, -0.19060881, -396340.1, -146112.94, 0.0, 9.999373, 9.999138 
1.3751306e+3, 2.844642e+2, -327528.3, -324718.9, -8068.7686, 0.119827464, -0.1670861, -317933.47, -165699.55, 0.0, 9.999149, 9.9991865 
1.3751379e+3, 2.9446378e+2, -284287.72, -254233.88, -3833.513, 0.1438915, -0.13193122, -253752.61, -199513.8, 0.0, 9.998778, 9.999176 
1.375145e+3, 3.0446228e+2, -278372.47, -238132.9, 1910.9993, 0.13445894, -0.19149345, -238042.34, -238042.34, 0.0, 9.998535, 9.999069 
1.3751525e+3, 3.1446147e+2, -142839.52, 62083.87, 1239.8906, 0.15333353, -0.19062233, 62091.37, 62091.37, 0.0, 9.998454, 10.001171 
1.3850234e+3, 1.2447527e+2, -1460294.5, -1717951.3, -53126.14, -0.07959856, -0.26810476, -1449770.4, 270347.9, 0.0051032617, 10.002306, 9.998866 
1.3850312e+3, 1.344748e+2, -1402066.9, -1626676.3, 32090.266, 0.0044133686, -0.21412455, -1397572.1, 224550.92, 0.003057239, 10.001966, 9.998987 
1.3850375e+3, 1.4447312e+2, -1368478.5, -1607906.6, -15401.41, -0.023924876, -0.25912893, -1367491.8, 156648.55, 0.0013467348, 10.00173, 9.998554 
1.3850433e+3, 1.5447207e+2, -1285121.4, -1517076.9, -18834.51, -0.018808933, -0.219459, -1283602.0, 142550.52, 0.0003509688, 10.001629, 9.998553 
1.3850491e+3, 1.644708e+2, -1228264.4, -1465226.4, -20708.266, -0.012418973, -0.18771085, -1226468.4, 101698.55, 0.000029813278, 10.001458, 9.998319 
1.3850549e+3, 1.7446938e+2, -1165328.4, -1381558.6, -27060.86, 0.003946127, -0.16662809, -1161993.1, 68190.02, 0.000000039188958, 10.001207, 9.998342 
1.3850608e+3, 1.8446787e+2, -1101838.9, -1310790.3, -17949.064, 0.012426184, -0.14612833, -1100308.3, 31891.828, 0.0, 10.001015, 9.998248 
1.385067e+3, 1.9446631e+2, -1019016.7, -1216760.0, -14072.903, 0.008789983, -0.12992652, -1018020.2, 16197.139, 0.0, 10.000896, 9.998278 
1.3850732e+3, 2.0446485e+2, -921811.5, -1079304.6, -1974.0582, 0.015309157, -0.11729904, -921786.75, 14445.844, 0.0, 10.000719, 9.998633 
1.3850798e+3, 2.144636e+2, -856159.75, -990751.75, -5506.594, 0.035554785, -0.11209078, -855934.8, -17689.893, 0.0, 10.000471, 9.998689 
1.3850865e+3, 2.2446238e+2, -758544.75, -842468.1, 3655.729, 0.045817878, -0.123571396, -758385.8, -18129.78, 0.0, 10.000251, 9.999139 
1.3850933e+3, 2.3446125e+2, -682891.3, -748434.5, 1742.5769, 0.04318269, -0.15794982, -682845.0, -40579.91, 0.0, 10.000069, 9.9992 
1.3851002e+3, 2.4446025e+2, -608727.8, -652799.7, 11696.59, 0.05285219, -0.17884551, -605816.0, -61543.008, 0.0, 9.9998665, 9.999281 
1.3851075e+3, 2.544595e+2, -540778.8, -564809.44, 11954.873, 0.07714751, -0.18687111, -535844.56, -89565.73, 0.0, 9.99964, 9.99932 
1.385115e+3, 2.6445866e+2, -495659.47, -517204.44, 17001.635, 0.09573053, -0.1924689, -486304.8, -138018.03, 0.0, 9.999385, 9.999097 
1.3851222e+3, 2.7445772e+2, -438548.5, -435977.44, 18186.932, 0.108359404, -0.19664103, -419030.66, -168734.22, 0.0, 9.999092, 9.999123 
1.3851294e+3, 2.844571e+2, -369934.16, -339779.2, 7412.092, 0.12124184, -0.17669104, -338055.78, -185752.33, 0.0, 9.9988365, 9.999233 
1.3851365e+3, 2.9445678e+2, -302310.34, -257365.52, 5146.728, 0.13180238, -0.13529854, -256783.69, -202476.47, 0.0, 9.998632, 9.999224 
1.3851433e+3, 3.044555e+2, -309874.34, -252240.7, 11266.941, 0.12010709, -0.17639865, -250116.4, -250116.4, 0.0, 9.998316, 9.999078 
1.3851507e+3, 3.144545e+2, -225783.98, 26924.16, 18768.426, 0.1541792, -0.19349948, 28310.47, 28310.47, 0.0, 9.997866, 10.001212 
1.3950257e+3, 1.24468915e+2, -1466035.9, -1729878.8, -69522.18, -0.07756304, -0.27899447, -1448837.9, 271341.75, 0.005300489, 10.002305, 9.998786 
1.3950332e+3, 1.3446848e+2, -1403250.4, -1629930.4, 18434.914, -0.013379763, -0.21836944, -1401760.9, 220423.64, 0.0031755816, 10.001968, 9.998965 
1.3950391e+3, 1.4446686e+2, -1366122.4, -1603974.9, -20404.715, -0.036194004, -0.25784206, -1364384.6, 159816.81, 0.0013999565, 10.001733, 9.99858 
1.3950449e+3, 1.5446585e+2, -1282517.9, -1512469.6, -23181.54, -0.02131279, -0.21791716, -1280204.3, 146008.64, 0.0003674642, 10.001631, 9.998585 
1.3950506e+3, 1.6446449e+2, -1239397.1, -1489173.5, -30438.08, -0.011742025, -0.18899032, -1235741.4, 92486.69, 0.00003219316, 10.001461, 9.998155 
1.3950561e+3, 1.7446283e+2, -1177090.9, -1407024.9, -36836.22, 0.00006684687, -0.17297058, -1171333.8, 58913.37, 0.00000005013657, 10.00121, 9.998166 
1.3950619e+3, 1.8446122e+2, -1095988.8, -1299658.4, -22891.727, 0.009725647, -0.15564135, -1093447.5, 38817.3, 0.0, 10.001019, 9.998323 
1.395068e+3, 1.9445975e+2, -1012268.6, -1203613.5, -18664.406, 0.014109605, -0.14120005, -1010465.0, 23815.393, 0.0, 10.000899, 9.998367 
1.3950741e+3, 2.0445831e+2, -928042.7, -1093020.4, -11183.776, 0.021478705, -0.12872325, -927288.0, 9007.352, 0.0, 10.000722, 9.998539 
1.3950804e+3, 2.1445698e+2, -863093.7, -1006035.4, -14740.929, 0.033903766, -0.1210778, -861589.4, -23280.424, 0.0, 10.000473, 9.998583 
1.3950868e+3, 2.2445565e+2, -762656.7, -851969.5, -3091.4622, 0.042121813, -0.13171674, -762549.8, -22228.584, 0.0, 10.000254, 9.999073 
1.3950934e+3, 2.3445445e+2, -686769.8, -757372.3, -4688.8477, 0.044768307, -0.16784237, -686459.75, -44128.477, 0.0, 10.000072, 9.999138 
1.3951002e+3, 2.4445349e+2, -608850.06, -653792.8, 3814.671, 0.055642378, -0.18130422, -608528.56, -64189.535, 0.0, 9.999868, 9.999273 
1.3951072e+3, 2.544529e+2, -540920.3, -565451.7, 4165.9253, 0.07596942, -0.17018488, -540232.1, -93888.734, 0.0, 9.99964, 9.999316 
1.3951142e+3, 2.644521e+2, -493587.66, -513014.88, 6923.658, 0.092687055, -0.17457293, -491372.7, -143021.6, 0.0, 9.999384, 9.999127 
1.3951214e+3, 2.74451e+2, -436147.1, -431184.84, 8021.01, 0.10607456, -0.20021358, -425270.0, -174907.86, 0.0, 9.999091, 9.999157 
1.3951282e+3, 2.8445026e+2, -372040.9, -344436.72, 488.99045, 0.11642755, -0.19117919, -344428.06, -192057.95, 0.0, 9.9988365, 9.999202 
1.395135e+3, 2.9444999e+2, -305038.56, -263143.56, -1674.0337, 0.12021116, -0.14477272, -263076.78, -208702.67, 0.0, 9.9986315, 9.999186 
1.3951415e+3, 3.044489e+2, -303659.16, -239345.14, -4279.347, 0.11119585, -0.1627561, -239061.66, -239061.66, 0.0, 9.998315, 9.999167 
1.3951485e+3, 3.1444794e+2, -217748.75, 43673.938, 4126.7505, 0.16250296, -0.1895527, 43739.066, 43739.066, 0.0, 9.997864, 10.001328 
1.405028e+3, 1.24462895e+2, -1492933.4, -1754139.3, -45856.05, -0.08267825, -0.29768842, -1485117.0, 235120.36, 0.0055082403, 10.00217, 9.998683 
1.4050351e+3, 1.3446248e+2, -1388071.0, -1627687.3, 42046.465, -0.027287781, -0.23035851, -1380907.1, 241335.44, 0.0033006065, 10.002096, 9.998918 
1.4050409e+3, 1.4446089e+2, -1340327.6, -1593962.9, 812.9451, -0.03961617, -0.26270923, -1340325.0, 183934.33, 0.0014556336, 10.001923, 9.998557 
1.4050466e+3, 1.5445985e+2, -1281697.0, -1514050.0, -5695.33, -0.019654026, -0.22309633, -1281557.5, 144713.17, 0.00038406154, 10.001647, 9.998565 
1.405052e+3, 1.6445845e+2, -1249079.3, -1502758.6, -12480.322, -0.007863468, -0.1959048, -1248466.8, 79819.76, 0.00003454216, 10.001434, 9.998074 
1.4050575e+3, 1.7445667e+2, -1170898.4, -1413535.4, -12613.587, 0.00316923, -0.18293607, -1170244.4, 60062.34, 0.00000006103049, 10.001295, 9.99808 
1.405063e+3, 1.8445498e+2, -1087274.5, -1302090.4, 275.0067, 0.013521607, -0.16725616, -1087274.3, 45051.117, 0.0, 10.001108, 9.998262 
1.4050688e+3, 1.9445343e+2, -1021177.1, -1214391.1, -6741.9443, 0.020206694, -0.1525686, -1020942.1, 13399.246, 0.0, 10.000867, 9.998308 
1.4050749e+3, 2.0445195e+2, -937991.44, -1097531.1, -3200.7178, 0.02592194, -0.1416419, -937927.25, -1570.6249, 0.0, 10.000653, 9.99854 
1.4050809e+3, 2.1445058e+2, -862718.75, -1005239.8, 1026.4705, 0.031686764, -0.1379021, -862711.3, -24341.12, 0.0, 10.000475, 9.998587 
1.405087e+3, 2.2444926e+2, -761750.7, -858339.5, 17695.88, 0.038418055, -0.14606293, -758610.75, -18228.078, 0.0, 10.000291, 9.999011 
1.4050935e+3, 2.3444809e+2, -687387.06, -765085.6, 15530.173, 0.04617979, -0.1719406, -684397.94, -42004.836, 0.0, 10.0001, 9.99907 
1.4051001e+3, 2.4444716e+2, -611362.44, -655337.44, 20593.688, 0.059610415, -0.17888151, -603224.3, -58823.285, 0.0, 9.999853, 9.9992695 
1.4051068e+3, 2.5444663e+2, -556087.2, -572693.8, 20584.605, 0.079383396, -0.16559085, -542194.3, -95789.02, 0.0, 9.999537, 9.999316 
1.4051135e+3, 2.644458e+2, -513459.56, -520453.97, 22401.709, 0.09314658, -0.16903046, -494283.72, -145870.9, 0.0, 9.99924, 9.999145 
1.4051202e+3, 2.744447e+2, -452882.25, -436933.56, 22111.105, 0.10052114, -0.19586016, -421402.78, -170979.13, 0.0, 9.998968, 9.999176 
1.4051269e+3, 2.8444394e+2, -388324.75, -350081.94, 17995.506, 0.108344175, -0.1931807, -342945.66, -190513.6, 0.0, 9.998716, 9.99922 
1.4051335e+3, 2.9444355e+2, -324083.38, -270238.7, 19596.912, 0.113724515, -0.15735254, -263861.6, -209424.6, 0.0, 9.998493, 9.999203 
1.4051397e+3, 3.044427e+2, -324733.16, -237812.66, 9495.639, 0.10375515, -0.1573625, -236787.4, -236787.4, 0.0, 9.998121, 9.99927 
1.4051463e+3, 3.1444183e+2, -251299.94, 40097.707, 19239.854, 0.15361875, -0.18600465, 41362.547, 41362.547, 0.0, 9.997581, 10.00144 
1.41503e+3, 1.2445726e+2, -1501988.6, -1773282.3, -51743.68, -0.09538897, -0.32404763, -1492454.6, 227836.11, 0.0057284734, 10.002171, 9.998552 
1.4150369e+3, 1.3445683e+2, -1393271.5, -1639043.5, 38270.445, -0.037349332, -0.25002772, -1387450.1, 234846.53, 0.00343434, 10.002097, 9.99884 
1.4150429e+3, 1.4445524e+2, -1345253.0, -1604892.8, -10232.001, -0.034271985, -0.27369443, -1344850.4, 179463.27, 0.001515353, 10.001924, 9.998482 
1.4150482e+3, 1.5445413e+2, -1286252.6, -1524484.9, -16609.709, -0.014092538, -0.23486556, -1285100.1, 141225.52, 0.00040130108, 10.00165, 9.998493 
1.4150536e+3, 1.6445269e+2, -1248916.6, -1503476.4, -18455.854, -0.0010909587, -0.20833759, -1247585.5, 80756.27, 0.000036934056, 10.001437, 9.998068 
1.4150588e+3, 1.7445089e+2, -1170608.8, -1413937.4, -18234.033, 0.012995519, -0.19641249, -1169250.0, 61111.863, 0.00000007226826, 10.001298, 9.998076 
1.4150642e+3, 1.8444909e+2, -1100623.0, -1330807.0, -8919.856, 0.023588443, -0.18085863, -1100277.9, 32103.754, 0.0, 10.001111, 9.998065 
1.4150698e+3, 1.9444737e+2, -1035277.4, -1244768.6, -15869.371, 0.02694838, -0.16409802, -1034082.06, 318.08127, 0.0, 10.000871, 9.998098 
1.4150755e+3, 2.0444578e+2, -931081.06, -1084285.3, -10040.981, 0.028526615, -0.15609504, -930425.8, 5990.484, 0.0, 10.000657, 9.998631 
1.4150812e+3, 2.1444443e+2, -854604.7, -989431.8, -5550.0913, 0.028781183, -0.16234961, -854376.6, -15947.817, 0.0, 10.000478, 9.998694 
1.4150873e+3, 2.2444318e+2, -765863.25, -867760.44, 10803.296, 0.034606714, -0.16643289, -764730.44, -24289.855, 0.0, 10.000294, 9.998946 
1.4150935e+3, 2.3444214e+2, -692518.4, -776262.7, 8769.834, 0.047368392, -0.17044148, -691609.8, -49159.0, 0.0, 10.000101, 9.998994 
1.4151e+3, 2.4444123e+2, -611710.56, -656473.25, 9492.211, 0.064588584, -0.17166546, -609780.9, -65321.64, 0.0, 9.999854, 9.999262 
1.4151065e+3, 2.5444055e+2, -556044.0, -573097.6, 9326.868, 0.086944036, -0.17242754, -551933.7, -105468.93, 0.0, 9.999538, 9.999313 
1.4151128e+3, 2.6443973e+2, -513251.63, -520566.2, 12836.456, 0.09668493, -0.17525521, -503561.6, -155089.36, 0.0, 9.999241, 9.999145 
1.4151192e+3, 2.744388e+2, -452780.03, -437191.0, 12745.915, 0.09164231, -0.18407594, -430045.2, -179563.72, 0.0, 9.998968, 9.999175 
1.4151254e+3, 2.8443804e+2, -383850.63, -340961.28, 10364.65, 0.096899, -0.18330891, -338587.9, -186098.05, 0.0, 9.998716, 9.999284 
1.415132e+3, 2.944375e+2, -319787.13, -260895.75, 11963.498, 0.1116346, -0.17253675, -258558.22, -204061.78, 0.0, 9.998489, 9.9992695 
1.4151376e+3, 3.044369e+2, -317175.47, -221970.4, -9516.853, 0.09723084, -0.15949346, -221028.4, -221028.4, 0.0, 9.998119, 9.999381 
1.4151436e+3, 3.144362e+2, -243737.53, 54546.66, 1073.3236, 0.12783718, -0.18118718, 54550.52, 54550.52, 0.0, 9.997584, 10.001538 
1.4250322e+3, 1.24451995e+2, -1502754.6, -1780823.0, -48037.297, -0.10435385, -0.32023892, -1494689.9, 225651.6, 0.005965021, 10.002198, 9.9984865 
1.4250389e+3, 1.3445139e+2, -1397225.6, -1642695.6, 47656.94, -0.04792468, -0.26256162, -1388298.0, 234050.98, 0.0035795863, 10.002079, 9.998823 
1.4250448e+3, 1.4444977e+2, -1348175.5, -1609727.0, -2233.7742, -0.031275507, -0.2880985, -1348156.4, 176209.83, 0.0015810293, 10.001921, 9.998449 
1.4250499e+3, 1.5444861e+2, -1277439.3, -1523705.9, -6002.0903, -0.010586224, -0.25016895, -1277293.1, 149085.47, 0.00041995206, 10.001726, 9.998461 
1.4250551e+3, 1.6444714e+2, -1239302.0, -1503142.3, -5844.0146, 0.0025117884, -0.22168553, -1239172.6, 89222.16, 0.000039492217, 10.001524, 9.998028 
1.4250602e+3, 1.7444536e+2, -1171363.9, -1418571.6, -8616.842, 0.016093649, -0.20446903, -1171063.9, 59350.965, 0.00000008454083, 10.001312, 9.998036 
1.4250654e+3, 1.8444353e+2, -1104788.0, -1342460.4, 1957.2958, 0.026242875, -0.18743399, -1104772.0, 27663.168, 0.0, 10.001125, 9.997977 
1.4250708e+3, 1.9444168e+2, -1027475.25, -1250908.3, 3481.1292, 0.02928608, -0.17382914, -1027421.0, 7033.936, 0.0, 10.000968, 9.998009 
1.4250761e+3, 2.0444e+2, -911701.5, -1072647.5, 11147.355, 0.030236054, -0.17076418, -910933.1, 25538.707, 0.0, 10.000781, 9.99865 
1.4250818e+3, 2.144386e+2, -840883.6, -979614.25, 9388.213, 0.029501293, -0.18428764, -840251.2, -1766.8114, 0.0, 10.00056, 9.998722 
1.4250875e+3, 2.2443737e+2, -769890.8, -876580.56, 20557.855, 0.03558665, -0.18346465, -766066.6, -25570.643, 0.0, 10.000297, 9.998883 
1.4250936e+3, 2.3443648e+2, -714529.75, -794292.7, 18577.479, 0.050084554, -0.16729797, -710415.2, -67909.33, 0.0, 9.999983, 9.998926 
1.4250997e+3, 2.4443558e+2, -632998.0, -665286.56, 19220.295, 0.067395344, -0.1646972, -624041.3, -79526.7, 0.0, 9.999702, 9.999274 
1.425106e+3, 2.5443476e+2, -565663.06, -575660.4, 20168.146, 0.08779771, -0.18177897, -549883.3, -103362.0, 0.0, 9.999464, 9.9993305 
1.425112e+3, 2.6443392e+2, -515681.4, -518153.3, 25398.975, 0.094072126, -0.18675895, -491488.34, -142959.58, 0.0, 9.999209, 9.999175 
1.425118e+3, 2.744332e+2, -455469.06, -434803.56, 27279.377, 0.08384024, -0.18101126, -415965.6, -165429.19, 0.0, 9.998935, 9.999207 
1.4251241e+3, 2.844325e+2, -396235.94, -339162.8, 24724.969, 0.09026636, -0.1778499, -329941.47, -177397.38, 0.0, 9.998599, 9.999352 
1.4251302e+3, 2.9443192e+2, -358656.84, -271798.5, 26090.588, 0.11375918, -0.17721155, -264563.97, -210013.17, 0.0, 9.998191, 9.999338 
1.4251357e+3, 3.044315e+2, -353446.5, -240687.98, -899.4896, 0.09757894, -0.15060872, -240680.81, -240680.81, 0.0, 9.997877, 9.999368 
1.4251411e+3, 3.1443062e+2, -231210.89, 54973.402, 1525.9337, 0.115431815, -0.1839849, 54981.54, 54981.54, 0.0, 9.997696, 10.001486 
1.4350343e+3, 1.2444717e+2, -1503220.0, -1782083.8, -54651.625, -0.10963754, -0.2868005, -1492891.9, 227497.1, 0.006222031, 10.002198, 9.998478 
1.4350408e+3, 1.3444622e+2, -1394333.5, -1637183.4, 42185.7, -0.059339475, -0.26801914, -1387214.1, 235184.84, 0.0037388622, 10.00208, 9.998861 
1.4350468e+3, 1.4444448e+2, -1347639.0, -1609238.0, -10329.71, -0.030931521, -0.30593297, -1347231.8, 177184.92, 0.0016542807, 10.001922, 9.998453 
1.4350517e+3, 1.5444332e+2, -1276912.8, -1523476.8, -13916.021, -0.009149243, -0.26895636, -1276129.9, 150299.28, 0.00044086375, 10.001729, 9.998462 
1.4350566e+3, 1.6444185e+2, -1244415.4, -1514715.9, -14379.804, 0.003004406, -0.23588125, -1243652.5, 84792.945, 0.000042391872, 10.001527, 9.997948 
1.4350614e+3, 1.7444012e+2, -1176638.4, -1430506.4, -16915.766, 0.012500872, -0.2072825, -1175516.3, 54949.285, 0.00000010052836, 10.001315, 9.997954 
1.4350665e+3, 1.8443826e+2, -1103209.1, -1340102.4, -4343.3647, 0.021508882, -0.18728091, -1103129.5, 29356.258, 0.0, 10.001128, 9.9979925 
1.4350717e+3, 1.9443636e+2, -1025626.25, -1247984.5, -2517.1846, 0.027225384, -0.18185295, -1025597.8, 8907.942, 0.0, 10.000971, 9.998028 
1.435077e+3, 2.044346e+2, -914885.2, -1080140.8, 2933.046, 0.030982316, -0.18563001, -914833.1, 21690.094, 0.0, 10.000784, 9.998597 
1.4350824e+3, 2.1443309e+2, -844298.9, -987582.0, 1158.2815, 0.033614624, -0.20375097, -844289.5, -5752.5264, 0.0, 10.000562, 9.998667 
1.4350879e+3, 2.2443187e+2, -773971.1, -885977.6, 9205.299, 0.04104865, -0.19725662, -773219.6, -32670.576, 0.0, 10.000299, 9.998818 
1.4350936e+3, 2.3443109e+2, -718694.6, -803910.3, 7224.8496, 0.054106347, -0.16253798, -718086.44, -75528.09, 0.0, 9.999986, 9.998859 
1.4350995e+3, 2.4443018e+2, -630582.06, -661193.56, 10721.761, 0.067927584, -0.15795578, -627200.4, -82632.98, 0.0, 9.999705, 9.999302 
1.4351054e+3, 2.544292e+2, -563175.6, -571106.5, 11874.464, 0.08201673, -0.19358788, -554621.94, -108046.67, 0.0, 9.999466, 9.999362 
1.4351112e+3, 2.6442838e+2, -511531.3, -509850.94, 15995.232, 0.08540049, -0.20326781, -494673.84, -146091.17, 0.0, 9.999209, 9.999233 
1.435117e+3, 2.7442783e+2, -451382.53, -426404.94, 17879.225, 0.07690579, -0.18607318, -417084.63, -166495.8, 0.0, 9.998934, 9.999266 
1.4351226e+3, 2.8442726e+2, -391421.22, -329445.9, 10416.107, 0.087895416, -0.17649134, -327742.13, -175146.84, 0.0, 9.998598, 9.99942 
1.4351286e+3, 2.9442677e+2, -353647.56, -262244.0, 11295.367, 0.11933783, -0.1720461, -260868.84, -206268.13, 0.0, 9.998193, 9.999403 
1.4351337e+3, 3.0442646e+2, -362268.44, -259907.88, -7567.8037, 0.10399627, -0.13137999, -259351.39, -259351.39, 0.0, 9.997879, 9.999235 
1.4351387e+3, 3.1442517e+2, -244792.17, 26163.299, -2792.6921, 0.115326814, -0.19240698, 26192.08, 26192.08, 0.0, 9.997697, 10.001288 
1.4450364e+3, 1.2444211e+2, -1497082.5, -1771107.4, -49787.453, -0.114812285, -0.28905568, -1488317.0, 232120.84, 0.006501599, 10.002209, 9.998548 
1.4450428e+3, 1.3444111e+2, -1407714.1, -1631573.0, 52058.824, -0.060554467, -0.28597775, -1396199.9, 226247.7, 0.003913358, 10.001938, 9.998968 
1.4450487e+3, 1.4443944e+2, -1377920.3, -1630251.4, 1772.978, -0.019161284, -0.31974536, -1377907.8, 146556.78, 0.0017359345, 10.001743, 9.998394 
1.4450535e+3, 1.5443826e+2, -1291165.6, -1537713.8, -6916.8857, -0.009070152, -0.27850318, -1290971.8, 135505.94, 0.000464682, 10.001664, 9.998394 
1.4450581e+3, 1.6443676e+2, -1246967.1, -1519455.4, -11535.791, -0.0005489117, -0.24416663, -1246479.6, 82014.92, 0.000045794342, 10.001526, 9.997914 
1.4450628e+3, 1.7443494e+2, -1179580.3, -1435334.5, -10812.506, 0.0155290505, -0.21776536, -1179124.0, 51391.13, 0.00000012546444, 10.001311, 9.997922 
1.4450677e+3, 1.8443307e+2, -1101480.6, -1332449.0, 6444.7627, 0.026305504, -0.20088942, -1101301.0, 31234.303, 0.0, 10.001112, 9.998053 
1.4450726e+3, 1.944312e+2, -1026494.1, -1241029.9, 11344.496, 0.027541293, -0.20006874, -1025895.94, 8658.53, 0.0, 10.000935, 9.998093 
1.4450778e+3, 2.0442943e+2, -927630.56, -1097347.9, 14951.863, 0.029067345, -0.20296873, -926323.4, 10248.685, 0.0, 10.000745, 9.998497 
1.4450829e+3, 2.144279e+2, -855368.9, -1005315.25, 8690.972, 0.032495793, -0.21285152, -854866.9, -16279.953, 0.0, 10.000541, 9.998555 
1.4450882e+3, 2.2442669e+2, -769451.9, -880152.6, 15102.796, 0.04093631, -0.20178127, -767428.4, -26829.07, 0.0, 10.000316, 9.99885 
1.4450936e+3, 2.3442593e+2, -704467.8, -792581.06, 20353.04, 0.055255156, -0.16748674, -699993.75, -57385.652, 0.0, 10.000065, 9.9988985 
1.4450993e+3, 2.4442503e+2, -621674.75, -658376.0, 25923.027, 0.06667671, -0.16418034, -608264.56, -63647.42, 0.0, 9.999774, 9.999288 
1.4451048e+3, 2.54424e+2, -569763.7, -576226.44, 22923.307, 0.07368402, -0.20159696, -549845.1, -103219.42, 0.0, 9.99943, 9.999344 
1.4451103e+3, 2.6442325e+2, -523261.47, -506816.0, 25155.125, 0.07766548, -0.20796798, -488573.78, -139941.1, 0.0, 9.999093, 9.99931 
1.4451157e+3, 2.7442288e+2, -470106.94, -426038.53, 28439.045, 0.07939696, -0.18197657, -412096.56, -161459.45, 0.0, 9.998766, 9.999349 
1.4451212e+3, 2.844223e+2, -406709.5, -333701.63, 19928.88, 0.09003193, -0.17730169, -328615.94, -175972.64, 0.0, 9.998481, 9.999447 
1.4451265e+3, 2.9442167e+2, -343724.4, -254899.72, 17273.58, 0.10787081, -0.19251326, -251658.81, -197008.75, 0.0, 9.99825, 9.999426 
1.4451315e+3, 3.0442148e+2, -350508.75, -259328.0, 2457.041, 0.09449421, -0.13544996, -259261.83, -259261.83, 0.0, 9.997983, 9.999189 
1.4451367e+3, 3.1442028e+2, -253551.08, 8508.247, 15643.882, 0.12784438, -0.18552805, 9438.818, 9438.818, 0.0, 9.997696, 10.001167 
1.4550386e+3, 1.2443687e+2, -1487431.1, -1751326.3, -60705.727, -0.120591894, -0.3274658, -1474136.4, 246351.34, 0.0068028797, 10.002209, 9.998684 
1.4550449e+3, 1.3443612e+2, -1395703.0, -1607253.8, 40769.285, -0.051800806, -0.31620726, -1388118.0, 234376.48, 0.004102922, 10.00194, 9.999135 
1.4550507e+3, 1.4443468e+2, -1386235.0, -1648363.0, -2660.9019, 0.0038256575, -0.32952836, -1386208.0, 138301.2, 0.0018261482, 10.001745, 9.998269 
1.455055e+3, 1.5443346e+2, -1300592.1, -1558090.8, -10418.436, -0.01050459, -0.27906883, -1300171.3, 126352.53, 0.00049169204, 10.001667, 9.998254 
1.4550595e+3, 1.6443186e+2, -1246204.3, -1518740.6, -19818.494, -0.008263209, -0.24675085, -1244770.6, 83771.37, 0.0000497536, 10.001528, 9.997919 
1.4550643e+3, 1.7442992e+2, -1178287.3, -1433731.6, -19197.32, 0.024902487, -0.23569205, -1176852.6, 53710.816, 0.00000016567238, 10.001315, 9.997932 
1.4550689e+3, 1.84428e+2, -1094034.5, -1318134.1, -636.51495, 0.040277027, -0.22780438, -1094032.6, 38550.816, 0.0, 10.001116, 9.998149 
1.4550737e+3, 1.9442621e+2, -1018634.94, -1225698.9, 4522.741, 0.030038312, -0.22818244, -1018536.2, 16064.873, 0.0, 10.000937, 9.998197 
1.4550784e+3, 2.0442452e+2, -938101.3, -1119904.8, 7251.782, 0.024434783, -0.2227504, -937812.5, -1194.2406, 0.0, 10.000748, 9.9983425 
1.4550833e+3, 2.1442302e+2, -866997.94, -1030245.9, 1207.3536, 0.026210202, -0.21199602, -866989.0, -28354.809, 0.0, 10.000543, 9.9983835 
1.4550886e+3, 2.244218e+2, -760781.6, -862899.1, 6138.0845, 0.03532002, -0.1973601, -760414.0, -19766.98, 0.0, 10.000318, 9.998968 
1.4550938e+3, 2.34421e+2, -694518.94, -772600.1, 11400.272, 0.053488072, -0.18179965, -692888.5, -50233.266, 0.0, 10.000067, 9.999036 
1.4550988e+3, 2.444201e+2, -625649.25, -667226.8, 13740.751, 0.06357984, -0.18288492, -621518.5, -76854.38, 0.0, 9.999775, 9.999228 
1.455104e+3, 2.5441915e+2, -574589.44, -586761.5, 10695.31, 0.062831126, -0.20585099, -568369.8, -121696.84, 0.0, 9.999431, 9.999272 
1.4551093e+3, 2.644185e+2, -516658.25, -493647.4, 13570.954, 0.07067342, -0.20133048, -487361.1, -138681.92, 0.0, 9.999093, 9.9994 
1.4551146e+3, 2.7441826e+2, -462882.72, -411571.34, 16861.693, 0.09051389, -0.16929774, -406526.38, -155844.64, 0.0, 9.998767, 9.999449 
1.4551197e+3, 2.844176e+2, -407370.63, -335681.28, 11847.656, 0.09616274, -0.18020079, -333774.03, -181085.42, 0.0, 9.998482, 9.9994335 
1.4551246e+3, 2.9441652e+2, -344846.72, -257928.92, 9271.788, 0.080214396, -0.23711699, -256950.88, -202251.7, 0.0, 9.998252, 9.999405 
1.4551292e+3, 3.0441654e+2, -348200.34, -255162.97, -7709.077, 0.06983182, -0.161687, -254528.53, -254528.53, 0.0, 9.997985, 9.999218 
1.4551345e+3, 3.1441584e+2, -257337.23, 381.6176, 7363.365, 0.15162137, -0.16256742, 591.8272, 591.8272, 0.0, 9.997696, 10.001112 
1.4650407e+3, 1.2443202e+2, -1518764.8, -1769933.0, -32129.951, -0.10925798, -0.36831605, -1514719.8, 205812.94, 0.0071233953, 10.002009, 9.9986515 
1.4650467e+3, 1.3443142e+2, -1402237.8, -1612845.6, 53767.51, -0.056941837, -0.33854493, -1389305.1, 233233.14, 0.004306822, 10.001907, 9.999111 
1.4650525e+3, 1.4443012e+2, -1389222.6, -1657691.3, 6414.7173, 0.0065652602, -0.3349278, -1389069.4, 135482.89, 0.0019247683, 10.0017605, 9.998197 
1.4650568e+3, 1.544287e+2, -1318414.0, -1574948.1, 3517.4553, -0.0064173304, -0.29614472, -1318365.8, 108203.21, 0.0005218786, 10.001581, 9.9981785 
1.465061e+3, 1.6442703e+2, -1258410.3, -1522859.0, -4487.6245, -0.005881579, -0.26782188, -1258334.1, 70253.805, 0.0000541964, 10.001438, 9.997932 
1.4650655e+3, 1.7442515e+2, -1173655.4, -1429184.5, -3762.068, 0.021632995, -0.2515129, -1173600.0, 57008.51, 0.00000022299002, 10.001339, 9.9979515 
1.46507e+3, 1.8442328e+2, -1087457.8, -1315760.5, 8839.523, 0.035856016, -0.24169704, -1087116.0, 45512.234, 0.0, 10.001166, 9.99814 
1.4650746e+3, 1.9442147e+2, -1024323.25, -1229545.6, 5181.4136, 0.030255914, -0.24403897, -1024192.56, 10453.628, 0.0, 10.000905, 9.998185 
1.4650792e+3, 2.0441973e+2, -947523.25, -1123259.8, 9737.048, 0.027054572, -0.23960713, -946985.4, -10321.832, 0.0, 10.000679, 9.998351 
1.4650838e+3, 2.1441826e+2, -872638.7, -1031706.7, 16724.416, 0.028164515, -0.22877173, -870899.3, -32219.904, 0.0, 10.0005, 9.998393 
1.4650887e+3, 2.2441708e+2, -763998.5, -858779.2, 23167.813, 0.03549302, -0.21408069, -758638.56, -17946.736, 0.0, 10.000272, 9.999018 
1.4650938e+3, 2.3441634e+2, -703112.9, -770636.9, 21825.828, 0.050547373, -0.19860543, -696672.4, -53973.043, 0.0, 9.999983, 9.999089 
1.4650986e+3, 2.4441546e+2, -641864.94, -680799.5, 19032.549, 0.058314748, -0.19659103, -634107.0, -89398.86, 0.0, 9.999689, 9.999174 
1.4651033e+3, 2.5441453e+2, -584973.2, -598254.0, 16433.277, 0.056316942, -0.21220796, -573889.4, -127171.81, 0.0, 9.999388, 9.999213 
1.4651082e+3, 2.6441392e+2, -518724.97, -491543.9, 16856.234, 0.06386485, -0.20227718, -483481.84, -134758.02, 0.0, 9.999067, 9.999427 
1.4651133e+3, 2.7441376e+2, -467257.78, -410043.6, 14743.725, 0.08465352, -0.16793908, -406467.72, -155742.11, 0.0, 9.998722, 9.99948 
1.4651182e+3, 2.8441307e+2, -408649.0, -330834.9, 13910.795, 0.09005568, -0.18507984, -328422.84, -175690.3, 0.0, 9.998451, 9.999481 
1.4651228e+3, 2.9441187e+2, -337825.47, -248870.39, 16294.269, 0.07209281, -0.25663176, -245979.64, -191235.81, 0.0, 9.998277, 9.9994545 
1.4651272e+3, 3.0441204e+2, -340199.13, -241567.8, -1003.1356, 0.0676501, -0.17064868, -241557.6, -241557.6, 0.0, 9.997999, 9.999303 
1.4651324e+3, 3.1441146e+2, -270580.16, -7933.358, 19467.463, 0.16463959, -0.1707787, -6498.2646, -6498.2646, 0.0, 9.997615, 10.001094 
1.4750431e+3, 1.24427624e+2, -1532886.9, -1800220.9, -35807.56, -0.081390075, -0.41216263, -1528173.9, 192398.61, 0.007461449, 10.002011, 9.998444 
1.4750485e+3, 1.3442712e+2, -1416900.0, -1644201.0, 48810.152, -0.0759041, -0.35336596, -1406862.0, 215716.8, 0.0045245043, 10.00191, 9.998896 
1.475054e+3, 1.4442581e+2, -1390809.9, -1661902.5, -1208.6875, -0.010815426, -0.33622888, -1390804.5, 133788.75, 0.0020316239, 10.001763, 9.998168 
1.4750583e+3, 1.5442406e+2, -1319247.1, -1577699.5, -3817.3352, 0.0029420236, -0.32932103, -1319190.8, 107422.23, 0.0005551441, 10.001584, 9.998159 
1.4750627e+3, 1.6442232e+2, -1256589.5, -1520164.0, -8990.566, 0.006300225, -0.30687687, -1256283.1, 72349.22, 0.000059017875, 10.001442, 9.997951 
1.4750667e+3, 1.7442071e+2, -1171696.0, -1426196.6, -7879.516, 0.0059149736, -0.26535377, -1171452.3, 59197.8, 0.0000002932695, 10.001342, 9.997971 
1.4750709e+3, 1.8441892e+2, -1095066.6, -1332675.9, -974.66693, 0.013386256, -0.24297869, -1095062.6, 37606.664, 0.0, 10.001169, 9.998023 
1.4750755e+3, 1.9441694e+2, -1032637.9, -1248054.1, -4724.4526, 0.02816872, -0.24798928, -1032534.3, 2155.3296, 0.0, 10.000909, 9.998057 
1.47508e+3, 2.0441514e+2, -935547.2, -1099576.9, 2843.243, 0.036593165, -0.25360125, -935497.94, 1209.9628, 0.0, 10.000683, 9.998513 
1.4750844e+3, 2.1441363e+2, -859697.4, -1005783.8, 10161.179, 0.037905093, -0.26255113, -858994.0, -20271.408, 0.0, 10.000503, 9.99857 
1.475089e+3, 2.244125e+2, -764996.5, -861631.44, 12733.701, 0.04111549, -0.25117978, -763346.7, -22612.658, 0.0, 10.000274, 9.998998 
1.4750937e+3, 2.3441191e+2, -705086.8, -775434.3, 11317.642, 0.046450824, -0.21775475, -703310.9, -60570.21, 0.0, 9.999985, 9.999056 
1.4750983e+3, 2.4441108e+2, -645104.3, -688161.4, 8202.321, 0.05087228, -0.20550945, -643594.7, -98845.28, 0.0, 9.999691, 9.999124 
1.4751028e+3, 2.5441012e+2, -588455.6, -605995.94, 5701.793, 0.053622678, -0.22071345, -586765.1, -140005.19, 0.0, 9.999389, 9.99916 
1.4751074e+3, 2.6440945e+2, -521218.44, -497232.8, 4803.2637, 0.05694013, -0.2105126, -496306.7, -147539.78, 0.0, 9.999067, 9.999389 
1.4751118e+3, 2.7440923e+2, -469644.0, -415666.94, 2710.147, 0.06262482, -0.17727819, -415531.22, -164762.1, 0.0, 9.998723, 9.999441 
1.4751165e+3, 2.844086e+2, -401370.63, -316237.75, 7792.2935, 0.07226479, -0.19182803, -315530.4, -162754.9, 0.0, 9.998451, 9.999582 
1.4751211e+3, 2.9440764e+2, -330260.06, -232976.13, 10284.452, 0.08210492, -0.2524048, -231900.78, -177116.14, 0.0, 9.998275, 9.999566 
1.4751254e+3, 3.0440795e+2, -330922.06, -222199.7, -14490.946, 0.0864439, -0.16340385, -220301.44, -220301.44, 0.0, 9.997997, 9.999438 
1.4751299e+3, 3.1440708e+2, -269188.25, -6324.2407, 7649.0356, 0.16717914, -0.20668337, -6101.8506, -6101.8506, 0.0, 9.997619, 10.001103 
1.4850451e+3, 1.2442361e+2, -1525580.8, -1808125.9, -30821.172, -0.073732816, -0.4244554, -1522257.8, 198351.88, 0.007817738, 10.002114, 9.998339 
1.4850505e+3, 1.3442288e+2, -1417894.4, -1658419.6, 58277.22, -0.08399509, -0.3747352, -1404518.1, 218100.34, 0.004756172, 10.001965, 9.998771 
1.4850558e+3, 1.4442155e+2, -1391829.9, -1670459.5, 8005.6426, -0.011466252, -0.35006818, -1391600.1, 133033.55, 0.0021468382, 10.001793, 9.998094 
1.48506e+3, 1.5441974e+2, -1320911.5, -1586282.1, 1198.1259, 0.002409288, -0.34274027, -1320906.1, 105748.125, 0.00059159106, 10.001608, 9.998088 
1.485064e+3, 1.6441795e+2, -1250512.6, -1511400.5, -2347.354, 0.006153734, -0.32248008, -1250491.5, 78182.3, 0.0000641918, 10.00146, 9.998001 
1.485068e+3, 1.7441636e+2, -1165334.8, -1416590.3, 1331.954, 0.0062962254, -0.28663334, -1165327.6, 65363.387, 0.00000037325287, 10.001359, 9.998028 
1.4850721e+3, 1.844146e+2, -1090550.4, -1333671.0, 7805.37, 0.012668317, -0.26207516, -1090300.0, 42409.875, 0.0, 10.001216, 9.997993 
1.4850762e+3, 1.9441271e+2, -1018975.7, -1245332.4, 10138.779, 0.024345133, -0.25505906, -1018522.44, 16207.538, 0.0, 10.00102, 9.998021 
1.4850807e+3, 2.0441094e+2, -914791.75, -1080860.6, 17989.086, 0.03344893, -0.26004523, -912865.44, 23882.578, 0.0, 10.000789, 9.9985895 
1.485085e+3, 2.1440937e+2, -852572.5, -992842.4, 17951.346, 0.04009936, -0.28302106, -850311.56, -11549.036, 0.0, 10.000512, 9.998654 
1.4850894e+3, 2.244082e+2, -776389.6, -873662.06, 12877.622, 0.042395193, -0.27775797, -774713.6, -33939.453, 0.0, 10.000226, 9.998938 
1.4850935e+3, 2.3440756e+2, -718545.7, -789632.5, 8289.394, 0.038990274, -0.23994444, -717591.9, -74810.445, 0.0, 9.999927, 9.998985 
1.4850977e+3, 2.4440677e+2, -656456.1, -694107.94, 4288.5713, 0.04254916, -0.22184008, -655973.8, -111183.42, 0.0, 9.999617, 9.999118 
1.485102e+3, 2.5440586e+2, -603027.3, -613218.06, 4935.6377, 0.054371744, -0.22951834, -601028.8, -154228.25, 0.0, 9.999291, 9.999157 
1.4851063e+3, 2.6440522e+2, -531593.3, -500418.8, 7670.5015, 0.057233553, -0.21942158, -498633.72, -149826.22, 0.0, 9.99899, 9.999403 
1.4851105e+3, 2.744049e+2, -469492.03, -413804.16, 9127.67, 0.050395217, -0.19653918, -412346.22, -161536.1, 0.0, 9.998718, 9.999456 
1.4851147e+3, 2.8440428e+2, -408106.44, -315586.53, 14631.565, 0.060824092, -0.21316402, -313327.78, -160511.36, 0.0, 9.99839, 9.999616 
1.4851193e+3, 2.9440343e+2, -368962.44, -247608.89, 11184.7295, 0.088279866, -0.26315603, -246586.64, -191762.06, 0.0, 9.997993, 9.9996 
1.4851233e+3, 3.0440393e+2, -350058.88, -207482.48, -10389.006, 0.09527784, -0.16939975, -206729.45, -206729.45, 0.0, 9.997765, 9.99965 
1.4851275e+3, 3.14403e+2, -241012.55, 17233.357, 20216.047, 0.15712762, -0.24286544, 18806.332, 18806.332, 0.0, 9.99777, 10.001191 
1.4950472e+3, 1.2442002e+2, -1526156.5, -1809965.3, -35252.85, -0.08698056, -0.4066229, -1521843.1, 198800.67, 0.0081952335, 10.002116, 9.998326 
1.4950524e+3, 1.3441879e+2, -1420470.0, -1664340.6, 51415.22, -0.08150017, -0.40242282, -1410073.4, 212583.7, 0.005003208, 10.0019655, 9.99873 
1.4950578e+3, 1.444174e+2, -1400125.1, -1688436.4, 94.69734, 0.0042513898, -0.37600842, -1400125.0, 124547.85, 0.0022711838, 10.001794, 9.997971 
1.4950615e+3, 1.5441577e+2, -1329465.6, -1604987.1, -6387.839, -0.007938608, -0.33700725, -1329317.6, 97374.88, 0.00063171395, 10.001611, 9.997959 
1.4950654e+3, 1.6441397e+2, -1244654.9, -1500265.5, -6891.2437, -0.0061847065, -0.3152929, -1244469.3, 84243.086, 0.000069858055, 10.001463, 9.998076 
1.4950696e+3, 1.7441212e+2, -1158696.6, -1403851.6, -2893.377, 0.022212245, -0.3150589, -1158662.4, 72068.74, 0.00000046463128, 10.001362, 9.998115 
1.4950734e+3, 1.8441033e+2, -1086546.3, -1326427.3, 368.0836, 0.032967128, -0.29843524, -1086545.8, 46204.043, 0.0, 10.001219, 9.998042 
1.4950773e+3, 1.9440876e+2, -1015037.44, -1238365.8, 2640.6028, 0.018731724, -0.26521668, -1015006.2, 19760.996, 0.0, 10.001024, 9.998068 
1.4950813e+3, 2.0440711e+2, -914960.56, -1082368.9, 7649.3765, 0.017902456, -0.25921476, -914611.75, 22172.293, 0.0, 10.0007925, 9.998578 
1.4950855e+3, 2.1440545e+2, -852963.5, -994666.25, 7528.307, 0.03494285, -0.2905582, -852564.7, -13765.347, 0.0, 10.000515, 9.998641 
1.4950895e+3, 2.2440411e+2, -783126.44, -888628.44, 1926.2065, 0.039392408, -0.29415682, -783091.3, -42278.89, 0.0, 10.000228, 9.998835 
1.4950934e+3, 2.3440331e+2, -725801.5, -805714.56, -2527.034, 0.027985327, -0.2651235, -725721.7, -82899.836, 0.0, 9.999929, 9.998875 
1.4950973e+3, 2.4440248e+2, -653848.44, -689609.25, -7284.341, 0.03314648, -0.2453188, -652421.56, -107590.26, 0.0, 9.999619, 9.999148 
1.4951015e+3, 2.5440177e+2, -599978.56, -607578.06, -6569.0146, 0.05847664, -0.23846178, -596189.5, -149349.84, 0.0, 9.999293, 9.999196 
1.4951053e+3, 2.6440117e+2, -527085.6, -491731.3, -1905.7389, 0.06446846, -0.22886524, -491628.88, -142782.94, 0.0, 9.998992, 9.999463 
1.4951092e+3, 2.7440074e+2, -464976.7, -405034.72, -380.7847, 0.0472039, -0.22552846, -405032.3, -154183.17, 0.0, 9.998719, 9.9995165 
1.4951131e+3, 2.8440002e+2, -410414.75, -321069.8, 708.62494, 0.05503713, -0.2486468, -321064.2, -168208.38, 0.0, 9.998391, 9.9995775 
1.4951172e+3, 2.9439926e+2, -371474.28, -254090.8, -3214.5217, 0.0906993, -0.2879138, -254002.84, -199138.77, 0.0, 9.997997, 9.999555 
1.4951211e+3, 3.0439994e+2, -329510.8, -166221.6, -10743.974, 0.09465373, -0.18795103, -165517.72, -165517.72, 0.0, 9.997768, 9.999932 
1.4951251e+3, 3.1439906e+2, -229801.33, 39851.9, 22732.34, 0.13470732, -0.2779812, 41754.85, 41754.85, 0.0, 9.997771, 10.001348 
1.5050493e+3, 1.2441615e+2, -1520584.3, -1799823.9, -51913.535, -0.08609925, -0.39558032, -1511245.4, 209436.22, 0.008597475, 10.002124, 9.998391 
1.5050544e+3, 1.3441472e+2, -1440329.8, -1670649.6, 36028.195, -0.07739276, -0.41509634, -1434825.5, 187870.78, 0.0052676955, 10.001817, 9.998757 
1.5050596e+3, 1.4441338e+2, -1424896.5, -1697381.9, -3664.1467, 0.018162116, -0.38743904, -1424847.3, 99864.195, 0.0024058474, 10.001613, 9.997996 
1.5050632e+3, 1.5441187e+2, -1335207.0, -1604958.0, 1158.3254, -0.011230369, -0.3391304, -1335202.1, 91527.875, 0.0006761825, 10.001561, 9.997983 
1.5050668e+3, 1.644101e+2, -1241679.1, -1496012.8, 4367.13, -0.0145879965, -0.31749788, -1241604.3, 87145.32, 0.0000762831, 10.001472, 9.9981 
1.5050709e+3, 1.7440812e+2, -1160895.8, -1402185.6, 3183.693, 0.023451453, -0.3298499, -1160853.8, 69915.47, 0.00000057502143, 10.001337, 9.998137 
1.5050748e+3, 1.8440634e+2, -1083958.1, -1316447.6, 3009.5063, 0.036579452, -0.31875172, -1083919.1, 48868.457, 0.0, 10.001201, 9.998119 
1.5050784e+3, 1.9440487e+2, -1003531.44, -1223768.0, 7221.922, 0.015571629, -0.28195363, -1003294.9, 31508.79, 0.0, 10.001066, 9.998147 
1.5050821e+3, 2.044033e+2, -910401.06, -1086723.0, 6940.2856, 0.011279402, -0.27100867, -910128.3, 26691.705, 0.0, 10.000854, 9.998518 
1.505086e+3, 2.1440163e+2, -853761.5, -1002604.4, 2154.4097, 0.029141957, -0.29544944, -853730.3, -14894.464, 0.0, 10.000544, 9.998572 
1.5050897e+3, 2.2440027e+2, -779553.0, -884687.6, -1662.77, 0.036163058, -0.29905644, -779526.7, -38677.375, 0.0, 10.000245, 9.998853 
1.5050934e+3, 2.3439938e+2, -719749.56, -800191.6, 3217.0767, 0.029565033, -0.27901444, -719621.1, -76762.18, 0.0, 9.999962, 9.998897 
1.5050969e+3, 2.4439855e+2, -653272.56, -692324.1, -826.39124, 0.0350159, -0.2607072, -653255.1, -108386.66, 0.0, 9.999638, 9.99912 
1.5051007e+3, 2.543979e+2, -607323.06, -614646.94, -5969.292, 0.054888852, -0.24558935, -603982.0, -157105.38, 0.0, 9.99926, 9.999163 
1.5051043e+3, 2.6439726e+2, -536435.7, -496111.63, -3580.7834, 0.060835768, -0.2356191, -495796.13, -146913.14, 0.0, 9.998929, 9.999462 
1.5051077e+3, 2.7439672e+2, -473899.28, -409320.38, -6709.9014, 0.05034677, -0.2422919, -408630.56, -157743.72, 0.0, 9.99866, 9.999515 
1.5051115e+3, 2.8439593e+2, -408173.25, -320404.5, -8482.861, 0.05630281, -0.27199373, -319592.16, -166698.17, 0.0, 9.99841, 9.999572 
1.5051153e+3, 2.9439518e+2, -344824.25, -241608.17, -10106.115, 0.07931718, -0.31235582, -240627.97, -185725.69, 0.0, 9.998183, 9.99955 
1.5051188e+3, 3.0439594e+2, -297535.56, -141111.58, -15920.646, 0.08164249, -0.20627381, -139507.64, -139507.64, 0.0, 9.997948, 10.000018 
1.5051228e+3, 3.1439525e+2, -240937.11, 27420.346, 4384.385, 0.12916923, -0.2899482, 27491.957, 27491.957, 0.0, 9.997727, 10.001283 
1.5150516e+3, 1.2441209e+2, -1510807.5, -1780046.8, -60673.99, -0.07193935, -0.39148524, -1497766.1, 222956.0, 0.009026395, 10.002126, 9.998528 
1.5150562e+3, 1.3441074e+2, -1433702.1, -1657551.1, 23327.914, -0.0719987, -0.41331562, -1431296.9, 191438.67, 0.0055510993, 10.001819, 9.998847 
1.5150614e+3, 1.4440951e+2, -1412986.5, -1673548.8, -7058.4883, 0.030046487, -0.38480636, -1412795.5, 111953.375, 0.002551727, 10.001616, 9.998159 
1.5150647e+3, 1.5440804e+2, -1323238.8, -1581029.8, -1339.3726, -0.0077204946, -0.34875852, -1323231.8, 103534.6, 0.0007254567, 10.001563, 9.998146 
1.5150683e+3, 1.6440633e+2, -1243435.9, -1500590.8, -1125.9133, -0.019233042, -0.3287737, -1243430.9, 85354.4, 0.00008370529, 10.001475, 9.998069 
1.5150721e+3, 1.744044e+2, -1163595.5, -1408810.8, -2335.77, 0.010321219, -0.3314847, -1163573.3, 67231.61, 0.00000071310234, 10.00134, 9.998091 
1.5150759e+3, 1.8440261e+2, -1076603.8, -1302170.1, -2362.2068, 0.023884488, -0.32347012, -1076579.0, 56244.23, 0.0, 10.001204, 9.998217 
1.5150793e+3, 1.9440107e+2, -995704.4, -1208386.6, 2023.3002, 0.0147034535, -0.30499187, -995685.1, 39154.117, 0.0, 10.001068, 9.998253 
1.5150829e+3, 2.0439948e+2, -917837.56, -1103004.8, -4379.462, 0.013199022, -0.29501912, -917734.06, 19121.803, 0.0, 10.000855, 9.998405 
1.5150864e+3, 2.143979e+2, -862202.75, -1021165.3, -9376.028, 0.022529136, -0.29785252, -861651.6, -22779.533, 0.0, 10.000546, 9.998444 
1.51509e+3, 2.2439663e+2, -769880.2, -865748.3, -11999.247, 0.032585595, -0.29290533, -768401.1, -27516.084, 0.0, 10.000249, 9.998981 
1.5150934e+3, 2.343958e+2, -709015.2, -778986.6, -7009.6685, 0.04329825, -0.28193402, -708319.9, -65426.883, 0.0, 9.999965, 9.999041 
1.5150967e+3, 2.4439496e+2, -659123.6, -705593.44, -14276.043, 0.047707662, -0.26822218, -655088.3, -110186.125, 0.0, 9.99964, 9.999028 
1.5150999e+3, 2.543942e+2, -614200.44, -630096.6, -19486.766, 0.043593068, -0.25112107, -601103.2, -154191.6, 0.0, 9.999263, 9.999055 
1.515103e+3, 2.643935e+2, -540543.75, -505864.9, -13051.336, 0.0464551, -0.23998758, -501501.94, -152582.92, 0.0, 9.998933, 9.999394 
1.5151066e+3, 2.7439287e+2, -477914.5, -419081.13, -15857.351, 0.05942329, -0.24722508, -415079.28, -164155.61, 0.0, 9.998665, 9.999446 
1.51511e+3, 2.8439203e+2, -405910.44, -317306.75, -16396.43, 0.064176664, -0.28352746, -314369.88, -161438.48, 0.0, 9.998416, 9.999592 
1.5151133e+3, 2.9439116e+2, -342073.56, -237165.36, -18213.127, 0.054472577, -0.33668718, -234093.34, -179153.6, 0.0, 9.998187, 9.999579 
1.5151165e+3, 3.0439195e+2, -304794.0, -157179.95, -23745.578, 0.056477197, -0.22494179, -153454.22, -153454.22, 0.0, 9.997951, 9.999907 
1.5151206e+3, 3.143914e+2, -260028.11, -13374.15, -1204.6198, 0.13922475, -0.27815422, -13368.268, -13368.268, 0.0, 9.99773, 10.001001 
1.5250538e+3, 1.2440823e+2, -1519285.8, -1771908.8, -37918.176, -0.058297385, -0.40043005, -1513717.0, 207042.67, 0.009480747, 10.002017, 9.998634 
1.525058e+3, 1.3440694e+2, -1431388.5, -1650573.4, 38280.246, -0.07680949, -0.42088437, -1424895.3, 197876.95, 0.0058531812, 10.001812, 9.998898 
1.5250629e+3, 1.4440583e+2, -1404530.6, -1660031.6, 9222.704, 0.031189935, -0.38882592, -1404198.1, 120586.15, 0.002708946, 10.001635, 9.998242 
1.5250663e+3, 1.5440436e+2, -1326605.6, -1573406.5, 8953.572, -0.002436581, -0.36044398, -1326281.3, 100520.09, 0.00077962264, 10.001502, 9.998227 
1.5250698e+3, 1.6440268e+2, -1256900.3, -1507769.4, 5579.206, -0.015303527, -0.34133017, -1256776.3, 72043.68, 0.000092205315, 10.001388, 9.99806 
1.5250733e+3, 1.7440082e+2, -1171349.0, -1414088.3, 6246.185, 0.0055502118, -0.33666423, -1171188.4, 59650.98, 0.0000008739153, 10.001294, 9.9980755 
1.525077e+3, 1.8439905e+2, -1078544.0, -1293752.8, 4543.8906, 0.017161816, -0.3291398, -1078448.1, 54409.51, 0.0, 10.001151, 9.998299 
1.5250805e+3, 1.943975e+2, -1007702.7, -1204273.9, 7102.118, 0.014667964, -0.320894, -1007446.44, 27426.734, 0.0, 10.000945, 9.99834 
1.5250838e+3, 2.0439593e+2, -934437.44, -1111006.1, 683.0525, 0.014940065, -0.3112544, -934434.8, 2454.4653, 0.0, 10.000743, 9.9984045 
1.5250869e+3, 2.1439448e+2, -862512.25, -1022126.8, 3873.882, 0.019813683, -0.30168167, -862418.25, -23513.275, 0.0, 10.000549, 9.998435 
1.5250902e+3, 2.2439323e+2, -761749.8, -860182.2, -345.96576, 0.030049976, -0.2945816, -761748.6, -20830.732, 0.0, 10.0002985, 9.998995 
1.5250933e+3, 2.343923e+2, -706192.56, -775683.75, -5306.5605, 0.046576902, -0.2948839, -705789.7, -62863.383, 0.0, 9.999977, 9.999057 
1.5250964e+3, 2.4439141e+2, -655624.06, -705222.94, -16235.79, 0.050997153, -0.28573152, -650782.1, -105846.5, 0.0, 9.999673, 9.999015 
1.5250991e+3, 2.543907e+2, -597381.2, -623692.3, -15263.63, 0.03980326, -0.26413977, -590386.1, -143441.5, 0.0, 9.999388, 9.999039 
1.5251021e+3, 2.6438996e+2, -522182.5, -510139.34, -5028.1455, 0.040097706, -0.24956879, -508316.06, -159363.53, 0.0, 9.999117, 9.999275 
1.5251054e+3, 2.7438924e+2, -458397.72, -423569.5, -12396.887, 0.056114495, -0.25518048, -419607.6, -168648.84, 0.0, 9.99886, 9.99932 
1.5251085e+3, 2.8438827e+2, -376382.5, -304059.16, -14754.146, 0.060390286, -0.29307017, -301165.1, -148197.84, 0.0, 9.998625, 9.999581 
1.5251115e+3, 2.9438737e+2, -308523.7, -220790.58, -19039.791, 0.045757882, -0.35110983, -216836.77, -161861.44, 0.0, 9.998419, 9.999579 
1.5251145e+3, 3.0438808e+2, -281453.88, -154531.94, -26965.426, 0.04636529, -0.24382128, -149040.55, -149040.55, 0.0, 9.99815, 9.999828 
1.5251184e+3, 3.1438753e+2, -265320.53, -43105.133, 13.676368, 0.12528516, -0.28929558, -43105.133, -43105.133, 0.0, 9.997813, 10.000756 
1.535056e+3, 1.24404624e+2, -1514065.6, -1761965.6, -41941.977, -0.046426293, -0.42302442, -1507161.8, 213632.11, 0.009956889, 10.002021, 9.998702 
1.5350595e+3, 1.344034e+2, -1430481.6, -1649696.9, 29487.133, -0.0916837, -0.43754253, -1426584.5, 196221.31, 0.0061724978, 10.001815, 9.998903 
1.5350646e+3, 1.4440234e+2, -1404021.6, -1660079.8, 3213.4644, 0.021822441, -0.3990811, -1403981.4, 120835.89, 0.0028771062, 10.001638, 9.99824 
1.5350677e+3, 1.5440086e+2, -1326364.6, -1573954.5, 3400.7756, 0.004393125, -0.37424725, -1326317.9, 100516.66, 0.000838507, 10.001505, 9.998223 
1.5350711e+3, 1.6439916e+2, -1255819.5, -1506523.3, 1532.3738, -0.0031858962, -0.35520968, -1255810.1, 73043.15, 0.000101727834, 10.00139, 9.998069 
1.5350747e+3, 1.7439736e+2, -1170247.9, -1412822.5, 2501.8389, 0.008827288, -0.3452861, -1170222.0, 60650.57, 0.0000010362653, 10.001297, 9.998084 
1.5350781e+3, 1.8439564e+2, -1073645.5, -1284620.9, -3205.1755, 0.016112043, -0.33576292, -1073596.8, 59293.664, 0.0, 10.001154, 9.998361 
1.5350813e+3, 1.9439414e+2, -1002646.3, -1194889.1, -751.03864, 0.015253475, -0.32992274, -1002643.4, 32261.877, 0.0, 10.000948, 9.998404 
1.5350845e+3, 2.0439266e+2, -926880.94, -1096392.6, -6676.222, 0.016388368, -0.3199664, -926618.4, 10301.972, 0.0, 10.000747, 9.998504 
1.5350875e+3, 2.1439134e+2, -855051.1, -1007641.75, -3276.5232, 0.020861287, -0.30687663, -854980.8, -16046.164, 0.0, 10.000552, 9.998534 
1.5350905e+3, 2.2439006e+2, -768326.25, -874867.25, -11895.545, 0.028446715, -0.303836, -767014.2, -26066.305, 0.0, 10.000301, 9.998894 
1.5350933e+3, 2.3438889e+2, -713635.06, -792307.3, -16899.951, 0.039568376, -0.3175817, -710158.3, -67199.34, 0.0, 9.999981, 9.998941 
1.535096e+3, 2.4438791e+2, -651073.0, -697055.8, -26410.014, 0.045075506, -0.31296256, -639048.8, -94079.91, 0.0, 9.999677, 9.999069 
1.5350986e+3, 2.5438732e+2, -592218.6, -614366.9, -25172.72, 0.0431016, -0.28431565, -575791.8, -128815.81, 0.0, 9.9993925, 9.999101 
1.5351012e+3, 2.643866e+2, -533605.94, -535351.56, -13805.948, 0.041232146, -0.26415431, -520645.22, -171661.34, 0.0, 9.999123, 9.999101 
1.535104e+3, 2.7438572e+2, -470880.5, -450953.2, -21081.006, 0.040800717, -0.26645774, -437599.8, -186607.3, 0.0, 9.998865, 9.99913 
1.5351069e+3, 2.8438467e+2, -379054.88, -310830.0, -21551.75, 0.045268275, -0.30107108, -304592.28, -151590.17, 0.0, 9.998629, 9.999534 
1.53511e+3, 2.9438373e+2, -310521.44, -226051.42, -26036.354, 0.05197002, -0.355705, -218671.05, -163661.44, 0.0, 9.998423, 9.999542 
1.5351127e+3, 3.043843e+2, -284535.22, -162180.19, -38615.293, 0.05021127, -0.2628459, -151012.48, -151012.48, 0.0, 9.998154, 9.999775 
1.5351157e+3, 3.1438354e+2, -279479.97, -73901.93, -9565.544, 0.088376164, -0.32150984, -73457.805, -73457.805, 0.0, 9.997817, 10.000544 
1.545058e+3, 1.2440139e+2, -1493322.9, -1758170.3, -15562.377, -0.042913735, -0.4437615, -1492411.6, 228412.36, 0.010452642, 10.002194, 9.998644 
1.5450615e+3, 1.344002e+2, -1418722.6, -1658254.1, 40360.15, -0.10244447, -0.44123966, -1412104.9, 210731.47, 0.006508303, 10.001961, 9.998774 
1.5450661e+3, 1.4439912e+2, -1388131.5, -1648388.6, 11573.165, 0.017362501, -0.4001568, -1387617.9, 137230.33, 0.0030559867, 10.001732, 9.998275 
1.5450694e+3, 1.543975e+2, -1320468.3, -1566277.8, 15040.446, 0.0042453213, -0.39173117, -1319551.4, 107314.75, 0.0009019718, 10.001527, 9.998264 
1.5450725e+3, 1.6439585e+2, -1256699.8, -1501827.4, 18272.514, -0.001616572, -0.37417045, -1255345.1, 73539.33, 0.000112228045, 10.001364, 9.998113 
1.5450759e+3, 1.7439426e+2, -1173767.6, -1409494.8, 21540.51, 0.008233521, -0.34744745, -1171815.5, 59086.6, 0.0000011877057, 10.001253, 9.998128 
1.5450792e+3, 1.843926e+2, -1079160.8, -1285764.6, 11865.597, 0.016338347, -0.33505133, -1078481.5, 54438.008, 0.0, 10.001111, 9.998373 
1.5450823e+3, 1.9439097e+2, -1004795.4, -1194682.9, 9771.261, 0.020333873, -0.3436654, -1004293.94, 30641.703, 0.0, 10.00093, 9.998413 
1.5450852e+3, 2.0438951e+2, -924551.56, -1086386.0, -34.573544, 0.021193938, -0.33558524, -924551.56, 12398.848, 0.0, 10.000726, 9.998582 
1.545088e+3, 2.1438842e+2, -857748.4, -999729.3, 1625.9064, 0.01862762, -0.30875275, -857729.75, -18767.213, 0.0, 10.000496, 9.998615 
1.5450907e+3, 2.2438718e+2, -779084.8, -887558.7, -9372.825, 0.023212533, -0.30176055, -778280.94, -37305.508, 0.0, 10.000262, 9.998825 
1.5450932e+3, 2.3438585e+2, -713186.0, -800930.94, -12290.339, 0.03681533, -0.3236151, -711497.06, -68508.69, 0.0, 10.000024, 9.998861 
1.5450959e+3, 2.4438478e+2, -633517.94, -685053.9, -21177.873, 0.04531123, -0.32535928, -625931.9, -80932.82, 0.0, 9.9997835, 9.9991 
1.545098e+3, 2.5438416e+2, -568463.7, -598735.94, -22411.813, 0.046769295, -0.301237, -556555.56, -109549.94, 0.0, 9.999539, 9.999137 
1.5451004e+3, 2.6438347e+2, -509144.97, -527895.75, -6638.9453, 0.043787166, -0.27963403, -507032.38, -158019.2, 0.0, 9.999311, 9.99906 
1.5451029e+3, 2.7438262e+2, -439624.38, -441082.88, -3775.013, 0.036420606, -0.27252683, -436508.8, -185487.1, 0.0, 9.9991045, 9.999082 
1.5451056e+3, 2.8438157e+2, -355978.56, -308688.0, -2148.759, 0.040265303, -0.30276027, -308590.56, -155558.84, 0.0, 9.998828, 9.999452 
1.5451084e+3, 2.9438052e+2, -311611.84, -235531.33, -10628.342, 0.05475683, -0.36001894, -234074.45, -179034.25, 0.0, 9.998455, 9.99946 
1.5451108e+3, 3.043809e+2, -274779.4, -146929.47, -18166.367, 0.05161856, -0.2832937, -144398.3, -144398.3, 0.0, 9.998178, 9.999867 
1.5451135e+3, 3.143803e+2, -251169.27, -65115.348, 24316.082, 0.06675513, -0.34002218, -61989.89, -61989.89, 0.0, 9.9980345, 10.000499 
1.5550601e+3, 1.243986e+2, -1506064.3, -1785621.8, -20057.646, -0.048514273, -0.46193358, -1504632.5, 216217.14, 0.010971542, 10.002196, 9.998455 
1.5550633e+3, 1.3439742e+2, -1436942.4, -1696999.3, 30457.645, -0.109427385, -0.43269235, -1433422.9, 189440.53, 0.006862425, 10.001963, 9.998507 
1.5550679e+3, 1.4439622e+2, -1383389.0, -1639489.1, 2948.9373, 0.017442707, -0.39253244, -1383355.0, 141521.84, 0.0032463204, 10.001735, 9.998335 
1.5550707e+3, 1.5439437e+2, -1314246.0, -1554450.3, 6714.661, -0.0028174466, -0.41265625, -1314058.4, 112837.445, 0.0009703306, 10.00153, 9.998345 
1.5550739e+3, 1.6439277e+2, -1251033.9, -1491158.4, 13361.896, -0.010407823, -0.39800486, -1250292.6, 78620.66, 0.00012386087, 10.001367, 9.998185 
1.5550771e+3, 1.7439154e+2, -1168357.5, -1399312.9, 16999.547, 0.003758703, -0.34333697, -1167112.9, 63814.72, 0.0000013544981, 10.001256, 9.998197 
1.5550803e+3, 1.8438993e+2, -1081480.0, -1291563.1, 4865.646, 0.01771185, -0.3271601, -1081367.3, 51577.42, 0.0, 10.001114, 9.998333 
1.5550834e+3, 1.9438799e+2, -1007685.5, -1201692.6, 2830.5295, 0.029735878, -0.36199656, -1007644.25, 27319.904, 0.0, 10.000932, 9.998364 
1.5550861e+3, 2.0438649e+2, -920370.9, -1078809.9, -8570.733, 0.029164152, -0.35796925, -919908.56, 17070.95, 0.0, 10.000729, 9.998633 
1.5550885e+3, 2.143857e+2, -852990.94, -991129.6, -6886.7144, 0.013024284, -0.30744237, -852648.44, -13659.716, 0.0, 10.0005, 9.9986725 
1.555091e+3, 2.2438458e+2, -781386.94, -893755.8, -17913.012, 0.014340517, -0.28877226, -778600.5, -37599.96, 0.0, 10.000266, 9.998781 
1.5550934e+3, 2.3438317e+2, -716301.56, -808618.2, -20696.793, 0.038082875, -0.31352028, -711873.9, -68859.195, 0.0, 10.000028, 9.998808 
1.5550956e+3, 2.44382e+2, -632925.8, -684964.3, -29642.309, 0.051281143, -0.3234257, -619503.1, -74476.69, 0.0, 9.999786, 9.999099 
1.5550977e+3, 2.5438124e+2, -567532.9, -598140.06, -30761.873, 0.050625414, -0.3152579, -548478.2, -101444.33, 0.0, 9.999543, 9.99914 
1.5550998e+3, 2.643805e+2, -502826.1, -516174.34, -13537.259, 0.047608264, -0.29617357, -494407.13, -145366.28, 0.0, 9.999315, 9.999139 
1.5551022e+3, 2.7437994e+2, -433457.4, -429472.44, -10574.829, 0.042029597, -0.27346906, -420704.03, -169657.1, 0.0, 9.999108, 9.999161 
1.5551046e+3, 2.8437892e+2, -363816.38, -326221.3, -14918.672, 0.04436295, -0.29831767, -321020.63, -167963.95, 0.0, 9.998832, 9.9993305 
1.555107e+3, 2.9437762e+2, -319929.5, -254437.75, -24101.695, 0.05424958, -0.36447415, -246524.27, -191456.38, 0.0, 9.998461, 9.999329 
1.555109e+3, 3.0437785e+2, -258271.58, -114242.55, -23392.467, 0.050741643, -0.30581972, -110538.52, -110538.52, 0.0, 9.998182, 10.00009 
1.5551113e+3, 3.143777e+2, -242990.97, -48963.7, 21535.072, 0.058855716, -0.34415567, -46602.266, -46602.266, 0.0, 9.998036, 10.00061 
1.5650624e+3, 1.2439592e+2, -1512949.0, -1790482.5, -25625.982, -0.046723183, -0.45886478, -1510602.8, 210272.6, 0.0115225995, 10.002158, 9.99844 
1.5650652e+3, 1.343946e+2, -1445367.8, -1709903.8, 31879.578, -0.11114838, -0.43600002, -1441580.1, 181310.4, 0.0072392947, 10.001945, 9.998426 
1.5650697e+3, 1.443933e+2, -1380436.8, -1634679.4, 11573.417, 0.02140952, -0.40243572, -1379911.0, 144993.95, 0.003449955, 10.001742, 9.9983635 
1.5650722e+3, 1.5439156e+2, -1307173.6, -1547268.3, 11664.637, -0.0033748785, -0.41841808, -1306608.3, 120314.625, 0.00104445, 10.001564, 9.998377 
1.5650752e+3, 1.6438998e+2, -1244412.1, -1482918.4, 16969.75, -0.012404094, -0.40310994, -1243210.8, 85728.95, 0.00013699086, 10.001392, 9.998229 
1.5650783e+3, 1.7438877e+2, -1169387.0, -1394890.9, 18323.848, 0.0035868208, -0.35232934, -1167907.8, 63046.16, 0.0000015912761, 10.001229, 9.9982395 
1.5650815e+3, 1.8438719e+2, -1087562.5, -1289549.9, 5848.284, 0.017932544, -0.33694586, -1087393.3, 45577.54, 0.0, 10.001053, 9.998375 
1.5650842e+3, 1.943853e+2, -1015960.4, -1201118.6, 9891.129, 0.028648779, -0.36846265, -1015433.5, 19556.232, 0.0, 10.000857, 9.998404 
1.5650868e+3, 2.0438386e+2, -921123.5, -1074284.5, 2176.713, 0.029376896, -0.36277267, -921092.56, 15912.086, 0.0, 10.000705, 9.998675 
1.5650891e+3, 2.143831e+2, -834950.3, -977807.1, 2202.9373, 0.017935531, -0.3128853, -834916.4, 4097.1074, 0.0, 10.000605, 9.998713 
1.5650913e+3, 2.2438203e+2, -763575.94, -886468.8, -13484.256, 0.01996133, -0.29131162, -762113.75, -21088.78, 0.0, 10.000396, 9.998768 
1.5650934e+3, 2.3438068e+2, -714848.5, -809894.56, -14549.071, 0.03922299, -0.30846295, -712671.3, -69632.36, 0.0, 10.000048, 9.998788 
1.5650953e+3, 2.4437948e+2, -631374.6, -684120.3, -18516.967, 0.05046554, -0.31925806, -625523.2, -80472.28, 0.0, 9.999799, 9.999098 
1.5650971e+3, 2.543786e+2, -548074.0, -588804.06, -20071.186, 0.051125504, -0.32308194, -539845.56, -92786.5, 0.0, 9.99968, 9.999137 
1.5650992e+3, 2.6437786e+2, -478369.88, -501251.16, -8216.18, 0.051398285, -0.30982617, -475725.28, -126659.055, 0.0, 9.999472, 9.999166 
1.5651013e+3, 2.7437732e+2, -425810.13, -422763.16, -9846.688, 0.051483247, -0.28466734, -414322.78, -163251.06, 0.0, 9.999149, 9.9991865 
1.5651034e+3, 2.8437635e+2, -357181.34, -328491.6, -13719.36, 0.051011875, -0.303589, -322987.13, -169906.02, 0.0, 9.998903, 9.999279 
1.5651055e+3, 2.943751e+2, -281362.28, -241553.39, -17494.781, 0.047777917, -0.36063394, -234957.75, -179865.42, 0.0, 9.998753, 9.999275 
1.5651073e+3, 3.0437517e+2, -213456.8, -82776.734, -20750.902, 0.04715341, -0.31867194, -79560.805, -79560.805, 0.0, 9.998449, 10.000176 
1.5651093e+3, 3.1437516e+2, -255794.0, -57325.37, 14895.482, 0.065443926, -0.34967655, -56213.664, -56213.664, 0.0, 9.997959, 10.000588 
1.5750647e+3, 1.2439343e+2, -1502602.9, -1769486.8, -28570.62, -0.03927805, -0.43453085, -1499578.5, 221321.84, 0.01211553, 10.00216, 9.998584 
1.5750672e+3, 1.3439181e+2, -1438664.0, -1696597.4, 22722.205, -0.10791019, -0.45050207, -1436677.6, 186239.77, 0.0076441537, 10.001946, 9.998517 
1.5750715e+3, 1.4439045e+2, -1380461.9, -1635620.5, 3947.1553, 0.029207518, -0.4289947, -1380400.8, 144531.22, 0.0036693097, 10.001745, 9.998357 
1.575074e+3, 1.5438902e+2, -1308154.3, -1550287.5, 4361.2573, 0.0022912927, -0.40964076, -1308075.8, 118871.33, 0.0011253739, 10.001567, 9.998356 
1.5750767e+3, 1.643875e+2, -1243239.6, -1481469.1, 10300.733, -0.007945991, -0.3901346, -1242795.0, 86168.58, 0.00015191178, 10.001395, 9.998239 
1.5750797e+3, 1.7438594e+2, -1168303.9, -1393508.8, 11890.825, 0.0074488046, -0.37404272, -1167677.8, 63303.137, 0.0000019351096, 10.001231, 9.998248 
1.5750825e+3, 1.8438438e+2, -1078908.1, -1272443.6, -1635.3383, 0.016870629, -0.36395523, -1078894.4, 54103.26, 0.0, 10.001055, 9.998492 
1.5750849e+3, 1.9438294e+2, -1006911.3, -1183452.4, 2501.544, 0.017232541, -0.36346775, -1006875.9, 28136.523, 0.0, 10.00086, 9.998524 
1.5750875e+3, 2.0438164e+2, -918818.75, -1070623.9, -1771.147, 0.021973593, -0.3505242, -918798.06, 18227.904, 0.0, 10.000708, 9.9987 
1.5750898e+3, 2.1438067e+2, -833367.1, -975376.1, -1284.797, 0.03290793, -0.32475564, -833355.5, 5681.359, 0.0, 10.0006075, 9.998729 
1.575092e+3, 2.2437955e+2, -762412.7, -884998.0, -25601.86, 0.03941099, -0.30882338, -757280.6, -16231.726, 0.0, 10.000399, 9.998777 
1.5750936e+3, 2.3437837e+2, -713450.25, -808437.3, -27037.734, 0.04009549, -0.30846488, -706293.3, -63231.95, 0.0, 10.000052, 9.998796 
1.575095e+3, 2.4437723e+2, -631168.56, -685356.4, -22744.775, 0.04298965, -0.3131069, -622887.25, -77814.47, 0.0, 9.9998045, 9.999087 
1.575097e+3, 2.5437626e+2, -548253.2, -590471.5, -23537.078, 0.048099924, -0.3247757, -537746.06, -90664.48, 0.0, 9.999683, 9.999125 
1.5750986e+3, 2.643754e+2, -480023.3, -505941.06, -18769.82, 0.05479059, -0.3206486, -470173.44, -121083.73, 0.0, 9.9994755, 9.999132 
1.5751006e+3, 2.7437472e+2, -427260.38, -427420.78, -20926.592, 0.064587414, -0.30616173, -406413.8, -155317.2, 0.0, 9.999155, 9.999152 
1.5751024e+3, 2.8437382e+2, -355599.16, -326894.7, -18895.693, 0.06006016, -0.31855446, -317518.6, -164412.98, 0.0, 9.998908, 9.999289 
1.575104e+3, 2.9437283e+2, -279730.53, -239349.86, -22576.502, 0.034779973, -0.3486666, -229252.44, -174138.23, 0.0, 9.998755, 9.99929 
1.5751058e+3, 3.0437276e+2, -216317.11, -90015.11, -37786.03, 0.04011156, -0.32231888, -79573.766, -79573.766, 0.0, 9.998453, 10.000126 
1.5751076e+3, 3.1437266e+2, -265148.47, -78892.266, -976.3774, 0.08573124, -0.35622355, -78887.15, -78887.15, 0.0, 9.997967, 10.000438 
1.5850669e+3, 1.243909e+2, -1484952.3, -1746398.9, -21499.43, -0.04027915, -0.425845, -1483196.0, 237729.64, 0.012755513, 10.002223, 9.998711 
1.5850691e+3, 1.3438927e+2, -1440772.4, -1687832.3, 22510.62, -0.10568119, -0.4521467, -1438738.0, 184204.02, 0.008080295, 10.001893, 9.998602 
1.5850732e+3, 1.4438784e+2, -1392458.4, -1637362.9, 8884.9795, 0.0382974, -0.44168407, -1392136.4, 132820.25, 0.0039060588, 10.001647, 9.998391 
1.5850756e+3, 1.5438655e+2, -1313385.0, -1549577.1, 12614.116, 0.006970004, -0.41303116, -1312713.3, 114257.195, 0.0012136656, 10.001518, 9.9983835 
1.585078e+3, 1.6438502e+2, -1249371.5, -1481778.8, 18988.262, -0.0047560623, -0.3948598, -1247830.4, 81156.48, 0.0001685595, 10.001343, 9.9982605 
1.5850809e+3, 1.7438334e+2, -1185064.1, -1399380.8, 20799.596, 0.012237866, -0.3935413, -1183064.1, 47941.11, 0.0000023797534, 10.001109, 9.998266 
1.5850835e+3, 1.8438183e+2, -1089994.0, -1268370.5, 8076.175, 0.020204954, -0.38382977, -1089629.0, 43392.617, 0.0, 10.000939, 9.998575 
1.5850858e+3, 1.9438064e+2, -1002299.56, -1171568.1, 9269.963, 0.015488444, -0.36562547, -1001793.4, 33240.816, 0.0, 10.000853, 9.998609 
1.585088e+3, 2.0437948e+2, -913807.25, -1056873.9, 4554.1045, 0.021289151, -0.34850743, -913662.44, 23384.072, 0.0, 10.000695, 9.998799 
1.5850905e+3, 2.1437846e+2, -849816.4, -972082.9, 10719.583, 0.040927503, -0.33553323, -848883.7, -9826.348, 0.0, 10.000447, 9.998828 
1.5850922e+3, 2.2437738e+2, -777235.0, -887465.5, -10983.204, 0.049202666, -0.3244269, -776151.3, -35082.21, 0.0, 10.000278, 9.998817 
1.5850936e+3, 2.343763e+2, -688233.4, -792257.7, -10920.187, 0.042845026, -0.31907368, -687099.4, -44018.33, 0.0, 10.00021, 9.998831 
1.5850951e+3, 2.4437521e+2, -594278.56, -667942.06, -5193.7603, 0.04296181, -0.3183904, -593914.2, -48822.17, 0.0, 10.000061, 9.999083 
1.5850967e+3, 2.5437433e+2, -530604.75, -582695.3, -6139.0913, 0.050854906, -0.3243399, -529891.0, -82790.65, 0.0, 9.999809, 9.999116 
1.5850982e+3, 2.6437342e+2, -469530.03, -504687.06, -4775.2173, 0.058436714, -0.3214643, -468892.97, -119784.12, 0.0, 9.999566, 9.999096 
1.5850998e+3, 2.743726e+2, -404331.1, -420582.66, -7574.6216, 0.06648823, -0.31612468, -401348.16, -150231.19, 0.0, 9.999332, 9.999113 
1.5851015e+3, 2.8437167e+2, -332336.84, -323246.66, -5491.2134, 0.061962757, -0.32495067, -320663.53, -167537.3, 0.0, 9.999103, 9.999219 
1.585103e+3, 2.943708e+2, -267403.34, -240841.28, -15604.703, 0.039570067, -0.338107, -233631.05, -178496.8, 0.0, 9.998874, 9.999222 
1.5851043e+3, 3.043705e+2, -194292.34, -85931.18, -40735.617, 0.051305715, -0.3281575, -72325.875, -72325.875, 0.0, 9.998634, 10.000066 
1.5851058e+3, 3.1437045e+2, -213244.11, -67187.65, -2972.1284, 0.09096358, -0.34696028, -67127.195, -67127.195, 0.0, 9.998383, 10.000317 
1.595069e+3, 1.2438838e+2, -1477096.3, -1730587.4, -28230.35, -0.050870385, -0.43089715, -1473990.4, 246960.08, 0.013441269, 10.002226, 9.998819 
1.5950711e+3, 1.3438697e+2, -1435145.5, -1676926.8, 9108.404, -0.10467628, -0.44185865, -1434802.9, 188161.23, 0.008547444, 10.001896, 9.998676 
1.5950751e+3, 1.4438553e+2, -1387059.3, -1627280.4, 2831.9526, 0.048393823, -0.44131818, -1387025.9, 137952.69, 0.004160194, 10.001651, 9.99846 
1.595077e+3, 1.5438414e+2, -1308113.4, -1539720.9, 7282.863, 0.0105596725, -0.42803538, -1307884.6, 119108.26, 0.0013091589, 10.001522, 9.99845 
1.5950793e+3, 1.643826e+2, -1246842.0, -1477653.4, 9917.25, -0.0028593063, -0.41658825, -1246416.8, 82592.45, 0.00018659334, 10.001347, 9.998288 
1.595082e+3, 1.7438099e+2, -1182778.9, -1396038.8, 11704.855, 0.017819783, -0.41093847, -1182138.4, 48888.6, 0.0000028938316, 10.001113, 9.998288 
1.5950847e+3, 1.8437955e+2, -1086365.5, -1262216.8, 4348.4717, 0.02768131, -0.39680356, -1086258.0, 46784.875, 0.0, 10.000944, 9.998616 
1.5950868e+3, 1.9437845e+2, -998805.25, -1165331.0, 6027.3447, 0.022975527, -0.37469643, -998587.4, 36467.69, 0.0, 10.000855, 9.998651 
1.5950888e+3, 2.043774e+2, -901667.6, -1032542.56, -4302.8193, 0.026953366, -0.35644332, -901526.3, 35540.008, 0.0, 10.000697, 9.998966 
1.595091e+3, 2.1437654e+2, -837183.75, -946901.5, 1614.6459, 0.0421114, -0.34536663, -837159.94, 1915.0859, 0.0, 10.00045, 9.999001 
1.5950926e+3, 2.2437552e+2, -772351.4, -878424.06, -13616.799, 0.04958361, -0.33824742, -770631.25, -29545.402, 0.0, 10.000281, 9.9988785 
1.5950939e+3, 2.3437442e+2, -684091.1, -784510.94, -12891.581, 0.04729677, -0.33968586, -682462.56, -39364.387, 0.0, 10.000212, 9.998884 
1.5950952e+3, 2.4437343e+2, -594380.06, -669016.0, -13557.438, 0.049925707, -0.33450878, -591993.7, -46884.92, 0.0, 10.000063, 9.999076 
1.5950966e+3, 2.543727e+2, -530824.44, -584421.06, -14746.452, 0.05905238, -0.32201067, -527035.06, -79919.195, 0.0, 9.999813, 9.999104 
1.595098e+3, 2.643718e+2, -471696.16, -510778.75, -12649.297, 0.062208224, -0.31283185, -467959.44, -118835.23, 0.0, 9.999571, 9.999053 
1.5950991e+3, 2.743709e+2, -406931.66, -427445.03, -15393.652, 0.057264384, -0.3149515, -398690.66, -147557.28, 0.0, 9.999337, 9.999064 
1.5951005e+3, 2.843699e+2, -342250.53, -345407.66, -13107.1045, 0.056560826, -0.32304168, -330627.28, -177483.56, 0.0, 9.999107, 9.999065 
1.5951021e+3, 2.943689e+2, -277417.75, -263568.66, -23304.408, 0.061216105, -0.32901856, -246181.8, -191028.69, 0.0, 9.99888, 9.9990635 
1.5951033e+3, 3.0436832e+2, -198480.2, -96554.51, -49427.582, 0.07979545, -0.33644888, -76522.305, -76522.305, 0.0, 9.998641, 9.99999 
1.5951042e+3, 3.1436852e+2, -219116.63, -80847.875, -10287.047, 0.08105106, -0.32294658, -80086.73, -80086.73, 0.0, 9.998387, 10.000221 
1.6050711e+3, 1.2438609e+2, -1496576.4, -1741625.6, 168.63527, -0.04658654, -0.451219, -1496576.3, 224395.45, 0.01416758, 10.0021, 9.998803 
1.605073e+3, 1.3438478e+2, -1428138.8, -1677715.5, 21901.338, -0.10362433, -0.4484261, -1426231.4, 196753.3, 0.009042928, 10.0019655, 9.998636 
1.6050768e+3, 1.4438327e+2, -1363362.8, -1608584.8, 12760.139, 0.05039762, -0.4550983, -1362700.6, 162299.2, 0.004430615, 10.001785, 9.998523 
1.6050786e+3, 1.5438192e+2, -1298478.1, -1527586.4, 16964.275, 0.009770517, -0.44633117, -1297228.9, 129784.586, 0.0014114145, 10.001557, 9.998515 
1.6050807e+3, 1.6438043e+2, -1237418.1, -1464412.4, 20837.281, -0.004589904, -0.43618155, -1235521.1, 93507.77, 0.00020576516, 10.001375, 9.998364 
1.6050832e+3, 1.743789e+2, -1157249.8, -1375059.4, 26207.879, 0.016895266, -0.42758927, -1154140.6, 76904.97, 0.0000034510517, 10.001253, 9.9983635 
1.6050856e+3, 1.8437757e+2, -1066863.1, -1248687.9, 20130.295, 0.029595004, -0.40953144, -1064661.1, 68399.7, 0.0, 10.001062, 9.998651 
1.6050877e+3, 1.9437654e+2, -1007470.1, -1166017.8, 20509.262, 0.030435875, -0.38216737, -1004860.06, 30212.59, 0.0, 10.000783, 9.99868 
1.6050896e+3, 2.0437555e+2, -915097.56, -1029363.2, 6248.815, 0.033694524, -0.3646045, -914756.9, 22326.709, 0.0, 10.000566, 9.999051 
1.6050912e+3, 2.1437469e+2, -834713.75, -935959.1, 5179.8765, 0.040164124, -0.36188346, -834449.44, 4642.621, 0.0, 10.000427, 9.999085 
1.6050927e+3, 2.2437377e+2, -766992.25, -864559.06, -10137.724, 0.04618707, -0.35436085, -765950.0, -24848.043, 0.0, 10.000271, 9.998978 
1.6050941e+3, 2.343729e+2, -694930.9, -778437.56, -6393.873, 0.051793125, -0.34407774, -694444.2, -51331.71, 0.0, 10.000091, 9.998983 
1.6050953e+3, 2.4437201e+2, -609830.25, -674928.25, -6391.3184, 0.05684526, -0.33277783, -609208.7, -64086.58, 0.0, 9.999952, 9.999087 
1.6050965e+3, 2.5437126e+2, -522787.06, -580053.7, -6805.3135, 0.061453093, -0.32163987, -521989.44, -74860.05, 0.0, 9.999867, 9.999106 
1.6050975e+3, 2.6437035e+2, -447819.0, -501402.63, -4847.1084, 0.06292316, -0.3164175, -447384.06, -98245.79, 0.0, 9.999745, 9.999032 
1.6050987e+3, 2.7436936e+2, -373864.38, -414183.8, -6268.1904, 0.05949751, -0.32467368, -372912.4, -121764.11, 0.0, 9.999577, 9.999039 
1.6050997e+3, 2.8436834e+2, -304971.44, -329759.94, 32.94621, 0.059429716, -0.32593593, -304971.4, -151813.13, 0.0, 9.999375, 9.999043 
1.6051011e+3, 2.9436758e+2, -243539.83, -249410.7, -293.9817, 0.0645798, -0.3120085, -243525.16, -188359.02, 0.0, 9.999124, 9.9990425 
1.6051021e+3, 3.043667e+2, -171461.98, -98197.36, -22992.125, 0.09067852, -0.33964282, -91579.65, -91579.65, 0.0, 9.998891, 9.999858 
1.6051027e+3, 3.1436688e+2, -184603.67, -78656.664, 12121.351, 0.087388776, -0.31585935, -77287.555, -77287.555, 0.0, 9.998688, 10.000091 
1.6150735e+3, 1.24384075e+2, -1506169.5, -1762819.5, 524.2577, -0.029844563, -0.48476243, -1506168.5, 214820.25, 0.014930091, 10.002104, 9.998657 
1.615075e+3, 1.3438272e+2, -1438658.1, -1700662.6, 15802.222, -0.10275069, -0.47085097, -1437708.5, 185294.92, 0.009564833, 10.001968, 9.998478 
1.6150784e+3, 1.443811e+2, -1359253.8, -1601176.6, 3628.857, 0.04448032, -0.48211193, -1359199.3, 165820.67, 0.0047169235, 10.001789, 9.998572 
1.6150801e+3, 1.5437986e+2, -1293839.3, -1519314.1, 7796.539, 0.004535418, -0.4679919, -1293569.9, 133462.02, 0.0015205952, 10.001562, 9.998571 
1.615082e+3, 1.643785e+2, -1228356.3, -1446922.8, 15428.6, -0.010043859, -0.45389187, -1227272.5, 101773.37, 0.00022625244, 10.001379, 9.998483 
1.6150844e+3, 1.7437711e+2, -1148297.6, -1357377.1, 21275.293, 0.009543784, -0.44350386, -1146154.8, 84906.38, 0.0000040571203, 10.001255, 9.998485 
1.6150865e+3, 1.8437588e+2, -1064922.3, -1245468.0, 9693.882, 0.0260007, -0.42196584, -1064403.3, 68672.05, 0.0, 10.001064, 9.9986725 
1.6150884e+3, 1.9437495e+2, -1006042.4, -1164244.8, 9879.666, 0.037757143, -0.38810402, -1005427.75, 29659.152, 0.0, 10.000786, 9.998692 
1.6150902e+3, 2.0437393e+2, -914606.4, -1029686.25, 812.595, 0.041403055, -0.37298128, -914600.6, 22497.764, 0.0, 10.000569, 9.999047 
1.6150917e+3, 2.1437292e+2, -834593.25, -936879.0, 296.15002, 0.035031497, -0.38474452, -834592.4, 4516.06, 0.0, 10.000431, 9.999079 
1.615093e+3, 2.2437212e+2, -757304.2, -845554.7, -16438.66, 0.038921814, -0.3725903, -754341.56, -13223.998, 0.0, 10.000275, 9.999108 
1.6150942e+3, 2.3437166e+2, -684701.56, -758389.8, -12674.807, 0.056223396, -0.33296043, -682582.4, -39458.152, 0.0, 10.000094, 9.999121 
1.6150953e+3, 2.4437094e+2, -607542.0, -671353.0, -9086.637, 0.06364238, -0.31400782, -606273.3, -61140.836, 0.0, 9.999955, 9.999111 
1.6150962e+3, 2.5437e+2, -521355.72, -578053.0, -9060.311, 0.058131453, -0.32307324, -519943.06, -72801.68, 0.0, 9.99987, 9.99912 
1.6150972e+3, 2.6436895e+2, -447841.84, -502446.9, -10027.487, 0.06048282, -0.33168083, -446058.7, -96907.16, 0.0, 9.999748, 9.999024 
1.6150983e+3, 2.743679e+2, -373977.75, -415647.8, -11616.46, 0.07238908, -0.3449358, -370958.2, -119795.984, 0.0, 9.99958, 9.999028 
1.6150993e+3, 2.8436705e+2, -297429.9, -315361.06, -8475.385, 0.06984777, -0.33356568, -294058.0, -140887.42, 0.0, 9.999379, 9.999142 
1.6150999e+3, 2.943667e+2, -235449.33, -233665.64, -9252.068, 0.05018027, -0.28758752, -225262.53, -170088.39, 0.0, 9.999126, 9.99915 
1.615101e+3, 3.0436558e+2, -184552.23, -126842.914, -30157.336, 0.084351495, -0.33809048, -113959.625, -113959.625, 0.0, 9.998896, 9.9996605 
1.6151015e+3, 3.1436542e+2, -195077.9, -102564.04, 6356.0796, 0.10855468, -0.32476985, -102129.39, -102129.39, 0.0, 9.998695, 9.999925 
1.6250756e+3, 1.2438222e+2, -1478848.6, -1759520.3, 3937.0815, -0.024969898, -0.5060511, -1478793.4, 242211.84, 0.015727159, 10.00234, 9.998565 
1.625077e+3, 1.3438098e+2, -1436415.3, -1708930.3, 17498.715, -0.094892204, -0.4727461, -1435296.3, 187723.27, 0.0101132095, 10.0020275, 9.998392 
1.6250803e+3, 1.4437926e+2, -1354537.1, -1594385.4, 9538.365, 0.050261978, -0.4905766, -1354158.4, 170878.72, 0.005019992, 10.001804, 9.9986105 
1.6250816e+3, 1.5437797e+2, -1270598.6, -1503034.1, 12460.471, 0.00037908478, -0.48591346, -1269932.5, 157116.55, 0.0016376381, 10.001701, 9.998614 
1.6250834e+3, 1.6437663e+2, -1205293.8, -1425558.3, 15898.467, -0.017897824, -0.47520643, -1204152.1, 124910.29, 0.00024865236, 10.001495, 9.998573 
1.6250856e+3, 1.7437541e+2, -1156431.6, -1351093.5, 18928.441, 0.005496841, -0.45995337, -1154608.1, 76468.06, 0.00000475879, 10.001157, 9.998574 
1.6250876e+3, 1.8437426e+2, -1083429.0, -1249966.3, 7632.9497, 0.022829255, -0.4361282, -1083079.9, 50009.77, 0.0, 10.000919, 9.998711 
1.6250892e+3, 1.9437334e+2, -1000418.8, -1157783.3, 8918.392, 0.031903587, -0.4033615, -999915.0, 35186.33, 0.0, 10.000811, 9.998723 
1.6250908e+3, 2.0437238e+2, -896174.4, -1011036.7, 3771.6992, 0.03678435, -0.38757387, -896050.6, 41061.727, 0.0, 10.000656, 9.999133 
1.6250922e+3, 2.1437149e+2, -827261.2, -923404.4, 9818.234, 0.036635764, -0.396732, -826268.75, 12852.621, 0.0, 10.000441, 9.999166 
1.6250934e+3, 2.2437079e+2, -755064.06, -837736.0, -5295.169, 0.042083036, -0.3803129, -754726.3, -13596.681, 0.0, 10.000262, 9.9991665 
1.6250944e+3, 2.3437047e+2, -675414.5, -747756.4, -8003.5376, 0.054844253, -0.33374837, -674539.6, -31404.207, 0.0, 10.000133, 9.999174 
1.6250952e+3, 2.4436983e+2, -595445.5, -655342.0, -4492.216, 0.060450625, -0.31375608, -595110.44, -49967.51, 0.0, 9.999996, 9.999201 
1.625096e+3, 2.543689e+2, -517913.06, -566118.25, 779.30585, 0.056774806, -0.33015215, -517900.47, -70749.16, 0.0, 9.999851, 9.99921 
1.625097e+3, 2.6436785e+2, -453627.34, -501109.25, 1984.8777, 0.061748277, -0.34476405, -453544.5, -104383.28, 0.0, 9.999692, 9.999061 
1.6250978e+3, 2.7436683e+2, -382228.75, -416103.97, 3181.0693, 0.076998405, -0.36080715, -381932.6, -130760.61, 0.0, 9.99951, 9.999059 
1.6250986e+3, 2.8436607e+2, -299747.4, -317334.9, 4274.81, 0.074852385, -0.3415442, -298763.44, -145583.77, 0.0, 9.999368, 9.999132 
1.6250992e+3, 2.9436588e+2, -214490.0, -224741.3, -5463.319, 0.052821796, -0.2775448, -212124.31, -156942.48, 0.0, 9.999277, 9.999139 
1.6251001e+3, 3.0436447e+2, -145441.66, -107641.25, -24611.37, 0.09523027, -0.35456875, -95510.23, -95510.23, 0.0, 9.999165, 9.999661 
1.6251005e+3, 3.1436425e+2, -141914.86, -65906.39, 28765.74, 0.11658689, -0.34735182, -56247.332, -56247.332, 0.0, 9.999014, 10.000022 
1.635078e+3, 1.24380596e+2, -1481175.8, -1765582.1, -2306.6716, -0.034032296, -0.51293117, -1481157.1, 239863.36, 0.016557895, 10.002345, 9.998522 
1.6350792e+3, 1.3437958e+2, -1437505.3, -1712215.9, 4783.525, -0.080523334, -0.45508918, -1437422.0, 185610.73, 0.010688402, 10.002031, 9.998368 
1.6350822e+3, 1.4437777e+2, -1352354.9, -1590973.3, 4443.3394, 0.067239754, -0.4815137, -1352272.1, 172778.9, 0.0053406963, 10.001808, 9.998633 
1.6350834e+3, 1.5437627e+2, -1268293.8, -1499332.0, 8106.5806, -0.002843681, -0.50008625, -1268009.8, 159054.83, 0.0017634478, 10.001705, 9.998639 
1.6350849e+3, 1.6437487e+2, -1200932.1, -1417537.9, 3214.6846, -0.028175559, -0.4997641, -1200884.4, 128193.82, 0.00027359868, 10.001498, 9.998628 
1.6350868e+3, 1.7437376e+2, -1152039.8, -1343225.4, 5807.803, 0.0044850362, -0.47690552, -1151863.5, 79227.266, 0.000005604758, 10.001161, 9.998628 
1.6350883e+3, 1.8437268e+2, -1079559.3, -1243192.8, 2747.8892, 0.019937828, -0.4520074, -1079513.1, 53590.61, 0.0, 10.000923, 9.998756 
1.6350898e+3, 1.9437172e+2, -996913.8, -1151500.0, 4820.464, 0.013199687, -0.42755434, -996763.7, 38352.043, 0.0, 10.0008135, 9.998766 
1.6350913e+3, 2.0437092e+2, -884225.0, -987013.75, -4015.7922, 0.020122018, -0.40809032, -884068.3, 53057.152, 0.0, 10.000657, 9.999298 
1.6350926e+3, 2.1437037e+2, -814929.9, -898499.56, 1822.5754, 0.044685517, -0.3983394, -814890.1, 24240.945, 0.0, 10.000442, 9.999337 
1.6350937e+3, 2.243698e+2, -755946.25, -840319.44, -10083.886, 0.055277538, -0.37800652, -754757.8, -13619.462, 0.0, 10.000264, 9.999148 
1.6350944e+3, 2.343693e+2, -677267.3, -752635.2, -12317.758, 0.04773623, -0.34590456, -675305.25, -32158.916, 0.0, 10.000135, 9.99914 
1.635095e+3, 2.4436866e+2, -584600.6, -634017.44, -9214.161, 0.047447264, -0.33122426, -582938.5, -37784.668, 0.0, 9.999999, 9.999347 
1.6350959e+3, 2.5436795e+2, -506295.25, -543253.4, -3870.253, 0.057008553, -0.34263214, -505894.3, -58734.72, 0.0, 9.999855, 9.999367 
1.6350967e+3, 2.6436704e+2, -447919.44, -490534.66, -3999.381, 0.06633107, -0.3557348, -447547.34, -98379.37, 0.0, 9.999696, 9.999132 
1.6350974e+3, 2.7436602e+2, -377200.38, -406783.56, -3036.4634, 0.073738016, -0.3725525, -376891.9, -125713.65, 0.0, 9.999513, 9.999122 
1.635098e+3, 2.843653e+2, -307447.47, -334482.84, 1288.0902, 0.07461882, -0.3499831, -307386.22, -154200.1, 0.0, 9.999372, 9.999014 
1.6350988e+3, 2.9436502e+2, -223206.67, -244244.0, -8159.5747, 0.07119633, -0.28122565, -220412.9, -165223.14, 0.0, 9.999282, 9.999003 
1.6350995e+3, 3.0436334e+2, -131772.75, -80674.46, -29662.05, 0.122064926, -0.3881467, -67075.22, -67075.22, 0.0, 9.999168, 9.9998455 
1.6350995e+3, 3.143633e+2, -116884.19, -15298.46, 23822.22, 0.11226999, -0.3841732, -9989.513, -9989.513, 0.0, 9.999018, 10.000368 
1.6450804e+3, 1.2437901e+2, -1448663.4, -1744943.9, -7605.092, -0.035362214, -0.51184356, -1448468.3, 272567.72, 0.017420573, 10.002556, 9.998562 
1.6450813e+3, 1.34378e+2, -1407038.3, -1688371.1, -187.22095, -0.08078301, -0.45981878, -1407038.1, 216009.13, 0.011289107, 10.002207, 9.998446 
1.6450842e+3, 1.4437616e+2, -1333990.9, -1576457.4, 10062.162, 0.0640916, -0.49797994, -1333574.1, 191491.6, 0.0056783757, 10.001912, 9.998682 
1.6450849e+3, 1.5437473e+2, -1267478.1, -1493972.8, 15178.284, -0.008469035, -0.5111204, -1266465.5, 160612.64, 0.0018979618, 10.001691, 9.998682 
1.6450861e+3, 1.6437338e+2, -1206810.1, -1420762.3, 4177.841, -0.032643635, -0.5094876, -1206728.6, 122362.98, 0.00030132462, 10.001461, 9.998623 
1.6450879e+3, 1.7437224e+2, -1143676.5, -1340308.1, 1445.1353, 0.0053048916, -0.49015516, -1143665.9, 87438.88, 0.0000066039856, 10.0012245, 9.998616 
1.6450895e+3, 1.8437117e+2, -1060311.8, -1218476.5, 2636.2383, 0.022361007, -0.46797213, -1060267.9, 72849.43, 0.0, 10.000991, 9.998893 
1.6450907e+3, 1.9437036e+2, -995383.75, -1134689.0, 11843.319, 0.012576957, -0.44528872, -994384.0, 40743.566, 0.0, 10.000756, 9.998908 
1.6450918e+3, 2.0436965e+2, -902561.44, -991819.25, -48.98178, 0.016952999, -0.4236879, -902561.44, 34574.867, 0.0, 10.000516, 9.999332 
1.645093e+3, 2.1436922e+2, -838622.75, -907044.2, -5611.9785, 0.03965725, -0.40690094, -838165.5, 976.09534, 0.0, 10.000268, 9.999361 
1.6450939e+3, 2.2436872e+2, -768880.94, -832036.7, -13307.85, 0.050705932, -0.38490707, -766191.3, -25043.191, 0.0, 10.000114, 9.999277 
1.6450945e+3, 2.343683e+2, -676216.5, -737310.25, -3576.6104, 0.04652003, -0.35797417, -676007.9, -32852.99, 0.0, 10.000081, 9.99927 
1.645095e+3, 2.4436772e+2, -580681.7, -625861.56, 224.94682, 0.04766606, -0.34578672, -580680.56, -35518.99, 0.0, 10.000001, 9.999401 
1.6450958e+3, 2.5436708e+2, -502650.6, -536178.06, -3021.8052, 0.056469243, -0.3564707, -502380.4, -55213.426, 0.0, 9.999858, 9.999413 
1.6450964e+3, 2.6436624e+2, -442740.7, -481638.72, -9175.334, 0.06866651, -0.36710277, -440685.03, -91510.266, 0.0, 9.999705, 9.999187 
1.645097e+3, 2.7436537e+2, -369308.84, -396942.9, -9268.164, 0.082942694, -0.37797222, -366488.28, -115304.266, 0.0, 9.999542, 9.999174 
1.6450976e+3, 2.8436464e+2, -300082.53, -330215.63, 1817.7391, 0.083542965, -0.35349718, -299973.28, -146781.9, 0.0, 9.99942, 9.999019 
1.645098e+3, 2.9436436e+2, -215034.92, -240286.19, 2198.4114, 0.07259711, -0.2915664, -214844.95, -159649.47, 0.0, 9.999339, 9.999002 
1.6450989e+3, 3.043624e+2, -120655.52, -84040.81, -23514.004, 0.1317807, -0.4193091, -72547.7, -72547.7, 0.0, 9.999284, 9.999766 
1.6450988e+3, 3.1436247e+2, -74735.1, 15432.513, 8623.082, 0.12142012, -0.39669272, 16249.765, 16249.765, 0.0, 9.999265, 10.00046 
1.655083e+3, 1.2437754e+2, -1440399.4, -1727761.0, -15150.216, -0.031959344, -0.5012607, -1439602.9, 281448.3, 0.01831341, 10.002557, 9.99868 
1.6550834e+3, 1.3437635e+2, -1394461.0, -1663052.3, -13950.11, -0.09552786, -0.4858803, -1393738.5, 229324.22, 0.011912873, 10.002212, 9.998619 
1.6550858e+3, 1.4437446e+2, -1328664.8, -1566876.0, 800.1613, 0.04125109, -0.53891957, -1328662.1, 196418.44, 0.0060311556, 10.001918, 9.998746 
1.6550867e+3, 1.5437344e+2, -1263060.0, -1485934.8, 6242.814, -0.016663233, -0.51920503, -1262885.4, 164204.28, 0.002040319, 10.001694, 9.998736 
1.6550878e+3, 1.643722e+2, -1211092.4, -1430655.0, -5204.858, -0.03171109, -0.50501794, -1210969.0, 118133.195, 0.00033169176, 10.001464, 9.998554 
1.6550893e+3, 1.7437084e+2, -1148664.9, -1351779.4, -7611.2393, 0.007818155, -0.49984708, -1148380.0, 82737.91, 0.000007747774, 10.001227, 9.998537 
1.6550905e+3, 1.8436977e+2, -1044683.44, -1187023.8, -6265.515, 0.029832667, -0.48393828, -1044408.2, 88722.12, 0.0, 10.000994, 9.999108 
1.6550915e+3, 1.9436923e+2, -978756.6, -1100962.1, 2934.9355, 0.029309748, -0.4568507, -978686.2, 56450.77, 0.0, 10.000758, 9.99914 
1.6550924e+3, 2.0436859e+2, -909123.44, -1006268.0, -9364.805, 0.02672246, -0.4346335, -908228.94, 28915.93, 0.0, 10.000518, 9.999233 
1.655093e+3, 2.14368e+2, -846742.6, -925084.56, -14684.476, 0.021807184, -0.42204413, -844080.56, -4927.6973, 0.0, 10.000272, 9.999236 
1.6550937e+3, 2.2436757e+2, -749959.4, -794003.25, -14710.529, 0.02881305, -0.4005368, -745498.0, -4338.948, 0.0, 10.000118, 9.999537 
1.6550946e+3, 2.3436746e+2, -655890.1, -696041.94, -4325.127, 0.050871506, -0.36999482, -655429.5, -12268.113, 0.0, 10.000083, 9.999554 
1.6550952e+3, 2.4436702e+2, -583163.6, -631855.2, -4325.9736, 0.06053837, -0.357617, -582782.25, -37615.766, 0.0, 10.000003, 9.99936 
1.6550955e+3, 2.5436628e+2, -506740.5, -545643.8, -7668.0977, 0.05520105, -0.37168303, -505283.63, -58109.8, 0.0, 9.999861, 9.999348 
1.6550963e+3, 2.6436543e+2, -439793.72, -476798.47, -14531.166, 0.06877586, -0.37890524, -434769.7, -85587.63, 0.0, 9.999709, 9.99922 
1.6550969e+3, 2.743647e+2, -366013.06, -391597.1, -14596.827, 0.1036133, -0.37711862, -359396.22, -108206.484, 0.0, 9.999547, 9.99921 
1.6550972e+3, 2.843641e+2, -291097.63, -312972.2, -787.93146, 0.10082765, -0.35214034, -291069.28, -137873.33, 0.0, 9.999424, 9.999136 
1.6550973e+3, 2.9436374e+2, -206230.42, -222998.78, -400.8353, 0.05789935, -0.30865994, -206220.84, -151021.17, 0.0, 9.999342, 9.999121 
1.655098e+3, 3.0436158e+2, -143903.19, -133468.47, -23996.365, 0.1251417, -0.44804835, -114128.836, -114128.836, 0.0, 9.999287, 9.999426 
1.6550982e+3, 3.1436166e+2, -85056.44, -7353.4014, 7856.7314, 0.14304624, -0.38653436, -6566.949, -6566.949, 0.0, 9.999269, 10.000302 
1.6650859e+3, 1.2437633e+2, -1446695.9, -1726368.0, 12359.593, -0.0044813287, -0.50266856, -1446150.6, 274912.25, 0.019234147, 10.002498, 9.998717 
1.6650857e+3, 1.3437514e+2, -1365989.0, -1638416.5, 1806.2499, -0.094832614, -0.4969917, -1365977.0, 257096.55, 0.01255734, 10.002366, 9.998713 
1.6650878e+3, 1.4437321e+2, -1302208.8, -1558062.1, 7268.101, 0.02886242, -0.55628663, -1302002.5, 223089.08, 0.0063973893, 10.00212, 9.998708 
1.6650884e+3, 1.5437227e+2, -1261410.0, -1490497.5, 4672.089, -0.014231545, -0.52431643, -1261314.8, 165785.77, 0.0021897932, 10.00173, 9.998687 
1.6650893e+3, 1.6437107e+2, -1211571.9, -1421113.5, -2873.2793, -0.024870863, -0.5074362, -1211532.5, 117580.375, 0.00036457216, 10.00142, 9.99864 
1.6650903e+3, 1.7436972e+2, -1144843.6, -1339479.5, 7028.7466, 0.0055839266, -0.51131696, -1144590.1, 86537.914, 0.000009059679, 10.00121, 9.998629 
1.6650914e+3, 1.8436868e+2, -1049521.4, -1185818.0, 6122.331, 0.026424345, -0.4971731, -1049247.0, 83892.77, 0.0, 10.000946, 9.999138 
1.6650923e+3, 1.9436824e+2, -998148.0, -1107431.1, -441.18326, 0.034879405, -0.4627805, -998146.25, 36999.293, 0.0, 10.000614, 9.999164 
1.6650929e+3, 2.0436765e+2, -925579.25, -1011625.1, -12684.106, 0.033260703, -0.44034573, -923748.44, 13404.845, 0.0, 10.000396, 9.999254 
1.6650933e+3, 2.1436699e+2, -838717.5, -919037.6, -7799.8945, 0.019104589, -0.4362033, -837967.06, 1194.9921, 0.0, 10.0003195, 9.999254 
1.6650939e+3, 2.2436658e+2, -730769.1, -770102.3, -5704.1836, 0.022445558, -0.41833174, -729958.56, 11209.151, 0.0, 10.000189, 9.999666 
1.6650946e+3, 2.3436664e+2, -660663.8, -683130.8, -6604.4316, 0.047929164, -0.38545245, -658866.2, -15698.271, 0.0, 9.999987, 9.999688 
1.6650951e+3, 2.443663e+2, -605976.75, -640819.44, -10387.899, 0.06057488, -0.3701966, -603114.8, -57942.844, 0.0, 9.999839, 9.999376 
1.6650954e+3, 2.543656e+2, -520531.8, -551654.7, -8977.635, 0.057745777, -0.380711, -518127.8, -70948.3, 0.0, 9.999764, 9.9993515 
1.665096e+3, 2.643648e+2, -439291.75, -469991.7, -13122.141, 0.07408659, -0.3872815, -434447.34, -85259.664, 0.0, 9.999685, 9.999277 
1.6650964e+3, 2.743641e+2, -355147.7, -379790.4, -11828.743, 0.11155167, -0.38801557, -350388.78, -99193.85, 0.0, 9.999596, 9.999267 
1.6650967e+3, 2.8436357e+2, -272637.8, -295929.94, 3100.648, 0.107610844, -0.36346504, -272232.13, -119031.93, 0.0, 9.999517, 9.9992075 
1.6650967e+3, 2.9436326e+2, -184972.84, -205391.55, -479.36453, 0.060230464, -0.31965214, -184961.6, -129759.01, 0.0, 9.999457, 9.999185 
1.6650975e+3, 3.0436096e+2, -144043.7, -161015.36, -21915.979, 0.13620469, -0.46358442, -129028.055, -129028.055, 0.0, 9.999407, 9.999179 
1.6650975e+3, 3.1436086e+2, -74560.086, -5835.1904, 16372.291, 0.14758295, -0.39249945, -2134.1423, -2134.1423, 0.0, 9.999358, 10.000269 
1.6750887e+3, 1.2437545e+2, -1449145.3, -1732803.3, 11777.98, 0.042869758, -0.5134943, -1448657.1, 272413.47, 0.020177929, 10.002503, 9.998672 
1.6750881e+3, 1.3437441e+2, -1364977.6, -1636912.8, -3929.2305, -0.079339586, -0.4936845, -1364920.9, 258158.72, 0.013220325, 10.002369, 9.998722 
1.6750899e+3, 1.4437245e+2, -1311690.8, -1578614.1, -7363.8066, 0.026492635, -0.5511304, -1311487.8, 213610.72, 0.0067765256, 10.002122, 9.998567 
1.6750902e+3, 1.5437128e+2, -1271569.1, -1512834.9, -10396.08, -0.0016394045, -0.5266231, -1271122.0, 155988.48, 0.0023464474, 10.001734, 9.998533 
1.6750908e+3, 1.6437005e+2, -1195034.4, -1388017.6, -11526.037, -0.01244742, -0.516406, -1194348.5, 134774.72, 0.00040014452, 10.001424, 9.998866 
1.6750915e+3, 1.7436889e+2, -1126839.5, -1303074.1, -1201.3131, -0.0014105043, -0.5244773, -1126831.3, 104303.7, 0.00001061599, 10.001213, 9.9988785 
1.6750923e+3, 1.8436794e+2, -1059828.9, -1208135.6, -6429.976, 0.012361757, -0.50781703, -1059550.6, 73594.91, 0.0, 10.000949, 9.998984 
1.6750929e+3, 1.9436742e+2, -1010381.56, -1134038.9, -12927.434, 0.029543651, -0.46322972, -1009044.56, 26108.697, 0.0, 10.000617, 9.9989805 
1.6750933e+3, 2.0436677e+2, -915799.0, -992487.44, -16009.994, 0.036572535, -0.44090095, -912590.9, 24570.717, 0.0, 10.000399, 9.999385 
1.6750938e+3, 2.1436614e+2, -827984.9, -897552.6, -10413.162, 0.030957313, -0.4495141, -826459.6, 12709.648, 0.0, 10.000321, 9.999401 
1.675094e+3, 2.2436574e+2, -730627.25, -770620.6, -12691.612, 0.030987924, -0.43832293, -726939.6, 14234.703, 0.0, 10.000191, 9.999663 
1.6750945e+3, 2.343658e+2, -661103.25, -685238.9, -13728.173, 0.03780635, -0.4041664, -654892.8, -11718.12, 0.0, 9.99999, 9.999673 
1.6750948e+3, 2.4436554e+2, -600824.7, -631403.5, -12917.325, 0.048064314, -0.3834754, -596098.5, -50920.293, 0.0, 9.999843, 9.99944 
1.6750954e+3, 2.54365e+2, -515523.16, -542184.9, -11004.628, 0.06369072, -0.38369867, -511567.78, -64383.344, 0.0, 9.999767, 9.999416 
1.6750957e+3, 2.6436427e+2, -433709.1, -459341.28, -15738.763, 0.084238715, -0.3922578, -426228.38, -77036.195, 0.0, 9.999688, 9.999351 
1.675096e+3, 2.7436346e+2, -349522.34, -369277.3, -14585.133, 0.10740036, -0.410216, -341784.75, -90584.68, 0.0, 9.9995985, 9.999339 
1.6750962e+3, 2.8436297e+2, -270658.5, -292995.13, 1269.5435, 0.10427038, -0.38713118, -270586.56, -117381.85, 0.0, 9.999521, 9.999227 
1.6750963e+3, 2.9436284e+2, -184034.77, -204334.05, -2172.0498, 0.078316115, -0.32489, -183804.95, -128600.09, 0.0, 9.999459, 9.999192 
1.6750972e+3, 3.043605e+2, -155548.2, -185813.9, -23261.002, 0.16380239, -0.46581158, -142930.78, -142930.78, 0.0, 9.999409, 9.999008 
1.6750968e+3, 3.1436008e+2, -68490.45, 5672.4907, 13535.49, 0.1360738, -0.413008, 8065.632, 8065.632, 0.0, 9.999361, 10.000347 
1.6850916e+3, 1.2437469e+2, -1395652.1, -1718646.5, 26194.658, 0.051807262, -0.5374163, -1393541.6, 327534.9, 0.021138081, 10.002934, 9.99856 
1.6850908e+3, 1.3437381e+2, -1358364.1, -1639671.4, 417.25308, -0.061658613, -0.49496028, -1358363.5, 264721.22, 0.013899301, 10.002444, 9.998666 
1.685092e+3, 1.4437188e+2, -1326212.6, -1589388.6, -3156.5105, 0.037888937, -0.5445394, -1326174.8, 198928.89, 0.0071684015, 10.00204, 9.998532 
1.6850919e+3, 1.543706e+2, -1273209.4, -1517490.5, 1884.7485, 0.0006727567, -0.5275303, -1273194.9, 153922.16, 0.0025108194, 10.00174, 9.998497 
1.6850922e+3, 1.6436934e+2, -1189528.4, -1380135.6, 1966.6993, -0.013682591, -0.5199895, -1189508.0, 139621.86, 0.0004388093, 10.00144, 9.998912 
1.6850927e+3, 1.7436828e+2, -1133970.4, -1301002.5, -2503.7441, 0.0005011624, -0.5242789, -1133932.9, 97207.625, 0.000012516376, 10.001142, 9.998926 
1.6850932e+3, 1.8436734e+2, -1070399.3, -1215003.3, -11774.192, 0.013038066, -0.5083906, -1069446.9, 63703.984, 0.0, 10.000885, 9.998967 
1.6850935e+3, 1.9436672e+2, -1003351.75, -1133164.3, -7190.044, 0.023591274, -0.47030383, -1002954.75, 32204.875, 0.0, 10.000678, 9.998956 
1.6850938e+3, 2.0436609e+2, -903324.0, -979223.0, -2962.3884, 0.031195907, -0.45056218, -903208.56, 33959.33, 0.0, 10.000455, 9.999448 
1.6850941e+3, 2.1436554e+2, -839357.44, -895411.1, -3441.2908, 0.035245005, -0.45687145, -839147.0, 27.086756, 0.0, 10.000212, 9.999468 
1.6850944e+3, 2.2436514e+2, -754079.6, -786341.7, -9395.985, 0.0380102, -0.446796, -751542.6, -10363.698, 0.0, 10.000051, 9.999621 
1.6850945e+3, 2.3436509e+2, -664446.9, -692516.44, -13535.955, 0.038593814, -0.4178263, -658983.0, -15802.399, 0.0, 9.999993, 9.99962 
1.6850947e+3, 2.4436484e+2, -595430.44, -621482.2, -16010.956, 0.047469985, -0.39744008, -587816.0, -42631.652, 0.0, 9.99985, 9.999504 
1.685095e+3, 2.5436443e+2, -536040.25, -544243.2, -14356.618, 0.06838598, -0.39203414, -525210.7, -78021.43, 0.0, 9.999595, 9.999484 
1.6850953e+3, 2.643638e+2, -456206.88, -462221.97, -12892.002, 0.0910596, -0.39799097, -445976.28, -96780.27, 0.0, 9.999501, 9.999419 
1.6850956e+3, 2.7436307e+2, -342341.7, -358298.8, -11928.101, 0.11132655, -0.41690174, -335969.75, -84766.65, 0.0, 9.999618, 9.999404 
1.6850957e+3, 2.8436252e+2, -259165.73, -281047.16, -1257.0883, 0.10602725, -0.40083802, -259093.75, -105886.234, 0.0, 9.999574, 9.999282 
1.6850957e+3, 2.943623e+2, -201283.9, -207412.0, -2523.723, 0.08138084, -0.3535416, -200378.38, -145170.23, 0.0, 9.99932, 9.999237 
1.6850966e+3, 3.0435997e+2, -189347.72, -217259.88, -13895.709, 0.17780615, -0.48662606, -183609.56, -183609.56, 0.0, 9.999244, 9.998871 
1.6850962e+3, 3.1435952e+2, -57574.94, 22507.072, 23148.426, 0.13775057, -0.4254091, 28716.814, 28716.814, 0.0, 9.999388, 10.000449 
1.6950943e+3, 1.24374114e+2, -1407731.5, -1744319.8, 11808.419, 0.02033997, -0.57205856, -1407317.8, 313762.44, 0.022110628, 10.002936, 9.9983835 
1.6950934e+3, 1.3437341e+2, -1366707.4, -1657873.4, -18589.467, -0.042258896, -0.50063777, -1365525.4, 257562.97, 0.014592254, 10.002447, 9.998541 
1.6950944e+3, 1.4437158e+2, -1321416.5, -1580540.8, -15274.152, 0.062207114, -0.53657216, -1320519.3, 204587.84, 0.007572671, 10.002044, 9.998591 
1.6950937e+3, 1.543703e+2, -1267289.6, -1506738.5, -9844.6455, -0.0070999837, -0.52705073, -1266885.6, 160234.34, 0.002683379, 10.001746, 9.9985695 
1.6950935e+3, 1.6436902e+2, -1198093.8, -1399532.4, -9686.395, -0.028235365, -0.51842546, -1197629.0, 131503.92, 0.0004809482, 10.001446, 9.998777 
1.695094e+3, 1.7436792e+2, -1143949.6, -1323030.0, -13894.388, 0.010870108, -0.51136166, -1142878.0, 88266.36, 0.000014849569, 10.001145, 9.998775 
1.6950943e+3, 1.8436691e+2, -1062400.9, -1199466.0, -19830.342, 0.027794965, -0.49931565, -1059589.6, 73565.875, 0.0, 10.000888, 9.999074 
1.6950941e+3, 1.943662e+2, -994220.3, -1115310.3, -15036.286, 0.01693393, -0.4838453, -992381.1, 42783.44, 0.0, 10.000681, 9.999078 
1.6950941e+3, 2.0436555e+2, -903305.75, -980282.0, -12038.838, 0.017338261, -0.4691148, -901466.9, 35705.39, 0.0, 10.000458, 9.99944 
1.6950943e+3, 2.1436517e+2, -839988.06, -897933.7, -12339.357, 0.032031942, -0.4583854, -837469.9, 1706.6975, 0.0, 10.000216, 9.99945 
1.6950944e+3, 2.2436476e+2, -759508.06, -798762.9, -11572.101, 0.043417767, -0.44401154, -756350.6, -15168.976, 0.0, 10.000053, 9.999536 
1.6950946e+3, 2.3436452e+2, -670774.4, -706431.0, -15049.46, 0.049846474, -0.426667, -665271.7, -22085.719, 0.0, 9.999995, 9.999525 
1.6950946e+3, 2.4436417e+2, -591036.9, -613304.0, -24438.365, 0.058298256, -0.41215646, -575315.44, -30124.795, 0.0, 9.999852, 9.999559 
1.6950946e+3, 2.5436383e+2, -530638.3, -534625.75, -23178.88, 0.07176561, -0.40559167, -509367.56, -62173.17, 0.0, 9.999599, 9.999549 
1.6950949e+3, 2.6436332e+2, -451316.53, -453676.4, -8681.14, 0.09451993, -0.40445715, -443735.5, -94535.97, 0.0, 9.999506, 9.999476 
1.6950953e+3, 2.743628e+2, -338247.94, -350609.2, -6830.6187, 0.122600324, -0.4085111, -335216.75, -84012.2, 0.0, 9.999619, 9.999457 
1.6950953e+3, 2.8436223e+2, -253165.44, -269105.2, -9403.573, 0.11236916, -0.40497002, -248808.67, -95599.46, 0.0, 9.999575, 9.999365 
1.695095e+3, 2.943616e+2, -195677.19, -196736.17, -11616.2295, 0.07016782, -0.4050766, -184578.39, -129365.336, 0.0, 9.999323, 9.9993105 
1.6950959e+3, 3.043594e+2, -196764.05, -233760.55, -9013.036, 0.17872137, -0.5248374, -194685.13, -194685.13, 0.0, 9.999246, 9.998757 
1.6950957e+3, 3.143592e+2, -49550.523, 38760.36, 25912.482, 0.15213984, -0.42722747, 45802.18, 45802.18, 0.0, 9.999388, 10.000562 
1.7050971e+3, 1.2437392e+2, -1404004.8, -1750561.4, 10621.84, 0.017734837, -0.5847756, -1403679.5, 317402.13, 0.023094978, 10.003001, 9.998309 
1.7050959e+3, 1.3437328e+2, -1369175.0, -1661269.1, -16978.549, -0.03477428, -0.5036876, -1368191.5, 254898.14, 0.0152980285, 10.002442, 9.998518 
1.7050964e+3, 1.4437154e+2, -1314104.0, -1571785.0, 685.64307, 0.065229915, -0.5320886, -1314102.1, 211005.48, 0.007988725, 10.002074, 9.998636 
1.7050955e+3, 1.5437028e+2, -1235035.9, -1485640.5, 4698.6978, -0.008146813, -0.5239256, -1234947.8, 192172.08, 0.0028641522, 10.001946, 9.998617 
1.705095e+3, 1.6436897e+2, -1172927.9, -1398746.8, -1435.5923, -0.030159432, -0.517209, -1172918.8, 156214.44, 0.0005267183, 10.001669, 9.998674 
1.7050952e+3, 1.7436773e+2, -1143966.0, -1335720.0, -3840.9534, 0.012423918, -0.5125913, -1143889.0, 87257.23, 0.000017669796, 10.001202, 9.998659 
1.705095e+3, 1.8436666e+2, -1066910.3, -1202070.1, -5643.812, 0.03002117, -0.5014159, -1066675.0, 66483.19, 0.0, 10.00086, 9.999068 
1.7050947e+3, 1.9436595e+2, -994148.9, -1115224.0, -9593.731, 0.015991459, -0.48478624, -993393.44, 41773.62, 0.0, 10.000683, 9.999077 
1.7050944e+3, 2.0436533e+2, -895809.75, -971463.44, -11335.38, 0.014549892, -0.47031584, -894147.9, 43026.387, 0.0, 10.000489, 9.999485 
1.7050944e+3, 2.1436496e+2, -828860.6, -887341.1, -7655.106, 0.029355997, -0.46160543, -827875.2, 11302.651, 0.0, 10.000271, 9.999495 
1.7050944e+3, 2.2436453e+2, -765841.7, -809755.25, -1516.0618, 0.04492873, -0.44992185, -765789.44, -24606.385, 0.0, 10.000046, 9.999463 
1.7050946e+3, 2.3436417e+2, -703276.75, -731206.1, -4350.9595, 0.060489967, -0.43604058, -702614.6, -59425.867, 0.0, 9.999813, 9.999441 
1.7050944e+3, 2.4436377e+2, -610727.0, -620153.0, -13058.275, 0.06829765, -0.42194217, -601557.25, -56363.363, 0.0, 9.999708, 9.999581 
1.7050944e+3, 2.543635e+2, -504588.7, -518989.03, -14909.187, 0.06911986, -0.41164246, -495232.1, -48035.207, 0.0, 9.999767, 9.999575 
1.7050944e+3, 2.6436302e+2, -429083.75, -442067.2, -4436.6094, 0.092531614, -0.41124222, -427712.5, -78510.73, 0.0, 9.999658, 9.999482 
1.705095e+3, 2.743624e+2, -380366.75, -370463.97, -6550.532, 0.1373381, -0.42290533, -367204.03, -115996.74, 0.0, 9.9993305, 9.999458 
1.7050949e+3, 2.8436178e+2, -302969.2, -287503.88, -10659.669, 0.12638554, -0.42493188, -282067.53, -128855.35, 0.0, 9.99921, 9.999413 
1.7050943e+3, 2.9436123e+2, -189043.28, -188687.03, -15580.489, 0.06371288, -0.42492744, -173283.64, -118068.09, 0.0, 9.99935, 9.9993515 
1.7050952e+3, 3.0435926e+2, -198847.78, -239016.9, -14307.583, 0.17823541, -0.52005476, -194272.72, -194272.72, 0.0, 9.999252, 9.998717 
1.7050949e+3, 3.1435874e+2, -116611.13, 24004.385, 22283.748, 0.15600836, -0.44967097, 27451.262, 27451.262, 0.0, 9.998854, 10.000716 
1.7151004e+3, 1.24374144e+2, -1403788.4, -1748987.0, -7493.3755, 0.039043523, -0.57439476, -1403625.8, 317454.34, 0.024090363, 10.002998, 9.9983225 
1.7150983e+3, 1.3437347e+2, -1363965.5, -1651049.6, -38474.316, -0.038664628, -0.5040213, -1358898.6, 264189.5, 0.016015902, 10.002446, 9.998589 
1.7150983e+3, 1.443718e+2, -1311605.0, -1568032.0, -5567.1104, 0.047811277, -0.5309858, -1311484.3, 213621.05, 0.008416149, 10.00208, 9.99866 
1.7150976e+3, 1.543706e+2, -1233375.6, -1483068.4, -682.0084, -0.0029538465, -0.51841366, -1233373.8, 193742.78, 0.0030529583, 10.001948, 9.998634 
1.7150968e+3, 1.6436921e+2, -1178035.4, -1410197.1, -18626.049, -0.02017213, -0.5163399, -1176550.5, 152579.95, 0.00057611073, 10.001671, 9.998596 
1.7150964e+3, 1.7436774e+2, -1149104.0, -1347944.9, -21708.807, 0.0053737564, -0.5273485, -1146761.5, 84384.56, 0.00002102365, 10.001206, 9.998574 
1.7150958e+3, 1.8436658e+2, -1074290.1, -1219082.3, -13060.852, 0.020080332, -0.51426506, -1073121.5, 60037.465, 0.0, 10.000866, 9.99895 
1.7150955e+3, 1.94366e+2, -1002243.06, -1133205.6, -16078.842, 0.020380825, -0.47367156, -1000297.94, 34869.13, 0.0, 10.000687, 9.998953 
1.715095e+3, 2.0436539e+2, -889297.0, -958888.25, -19201.28, 0.022324387, -0.4547889, -884350.6, 52823.336, 0.0, 10.000491, 9.999571 
1.7150947e+3, 2.1436492e+2, -821409.2, -873011.94, -15625.057, 0.027167387, -0.4665394, -817046.75, 22131.072, 0.0, 10.000274, 9.999593 
1.7150944e+3, 2.2436441e+2, -769738.25, -819242.06, -10004.316, 0.0425971, -0.46435103, -767792.9, -26609.568, 0.0, 10.000051, 9.999396 
1.7150944e+3, 2.3436402e+2, -707972.6, -742467.3, -12553.891, 0.070303805, -0.44588983, -703887.56, -60698.336, 0.0, 9.999818, 9.999363 
1.7150943e+3, 2.4436362e+2, -611472.44, -623003.3, -10822.436, 0.077345066, -0.4268591, -604975.5, -59781.105, 0.0, 9.999712, 9.99956 
1.715094e+3, 2.543634e+2, -505570.1, -521876.6, -11875.965, 0.06050203, -0.41039965, -499318.0, -52120.836, 0.0, 9.999769, 9.999555 
1.715094e+3, 2.6436275e+2, -432197.06, -449403.0, -15196.029, 0.085116334, -0.41832983, -423337.78, -74134.57, 0.0, 9.99966, 9.999433 
1.7150944e+3, 2.7436182e+2, -383516.88, -378361.56, -18109.883, 0.15544556, -0.45914388, -362646.8, -111434.99, 0.0, 9.999334, 9.999403 
1.7150943e+3, 2.843612e+2, -301958.6, -286734.84, -5889.5522, 0.14776188, -0.46015778, -284722.4, -131505.4, 0.0, 9.999214, 9.999417 
1.7150936e+3, 2.9436108e+2, -188630.1, -188644.14, -9899.29, 0.061201483, -0.4144785, -178737.83, -123521.39, 0.0, 9.9993515, 9.9993515 
1.7150943e+3, 3.043595e+2, -196605.55, -235190.3, -27836.555, 0.17577516, -0.47326103, -182029.5, -182029.5, 0.0, 9.999253, 9.998744 
1.7150937e+3, 3.1435817e+2, -103318.86, 50434.69, 2878.3555, 0.15080753, -0.4878118, 50488.555, 50488.555, 0.0, 9.9988575, 10.000897 
1.7251033e+3, 1.24374844e+2, -1461976.4, -1772195.9, 11299.878, 0.0564075, -0.55023646, -1461565.4, 259509.11, 0.025095664, 10.002569, 9.998369 
1.7251009e+3, 1.3437402e+2, -1343003.6, -1629846.4, -20563.809, -0.037318703, -0.5056196, -1341536.9, 281546.3, 0.016745616, 10.002549, 9.998683 
1.7251004e+3, 1.443723e+2, -1282057.8, -1562150.8, 8727.917, 0.03944868, -0.5371829, -1281786.0, 243314.19, 0.008854771, 10.002324, 9.998583 
1.7250995e+3, 1.543711e+2, -1256205.9, -1504141.1, 4891.3843, 0.0062489035, -0.51823753, -1256109.4, 171002.6, 0.003249545, 10.001837, 9.998543 
1.7250985e+3, 1.6436967e+2, -1202215.9, -1422628.1, -14281.793, -0.008110708, -0.5125635, -1201294.4, 127831.89, 0.00062906195, 10.00151, 9.998588 
1.7250976e+3, 1.7436819e+2, -1123029.9, -1335916.9, -11900.464, 0.001408392, -0.5234549, -1122366.8, 108774.94, 0.00002497822, 10.0013895, 9.998568 
1.7250969e+3, 1.8436699e+2, -1039292.6, -1208512.3, 1095.2733, 0.011470988, -0.5121421, -1039285.56, 93869.336, 0.0, 10.001135, 9.998892 
1.7250963e+3, 1.943663e+2, -1003345.4, -1140676.9, 1883.7052, 0.021775734, -0.47574157, -1003319.56, 31844.225, 0.0, 10.0007105, 9.99889 
1.7250955e+3, 2.0436561e+2, -906618.56, -977721.9, -643.1943, 0.02856118, -0.45711952, -906612.75, 30558.717, 0.0, 10.00042, 9.9994755 
1.725095e+3, 2.143651e+2, -824958.9, -885714.3, -11504.521, 0.031559277, -0.46380964, -822853.4, 16322.716, 0.0, 10.0002985, 9.999493 
1.7250946e+3, 2.2436449e+2, -755710.25, -812287.44, -13301.875, 0.04488701, -0.46534878, -752738.9, -11556.62, 0.0, 10.000148, 9.999396 
1.7250943e+3, 2.3436394e+2, -687721.7, -732098.25, -10458.025, 0.070294335, -0.4623055, -685380.6, -42191.727, 0.0, 9.999956, 9.999367 
1.7250942e+3, 2.443635e+2, -609724.0, -627538.3, -2466.0586, 0.07685708, -0.44630393, -609388.94, -64194.516, 0.0, 9.999749, 9.999511 
1.7250936e+3, 2.5436336e+2, -545182.75, -547056.25, -6179.681, 0.061735325, -0.41625568, -539869.25, -92672.305, 0.0, 9.999526, 9.999498 
1.7250936e+3, 2.6436278e+2, -467850.13, -468354.13, -11962.906, 0.08714102, -0.41475385, -456136.56, -106933.91, 0.0, 9.999424, 9.9994135 
1.7250939e+3, 2.7436185e+2, -364409.84, -370951.6, -12553.43, 0.15669267, -0.45343235, -354708.16, -103497.09, 0.0, 9.9994755, 9.999385 
1.7250936e+3, 2.843611e+2, -283421.72, -280381.06, 1102.6698, 0.15127118, -0.46495304, -280023.3, -126805.86, 0.0, 9.999355, 9.9993925 
1.7250928e+3, 2.9436076e+2, -240274.75, -217226.94, -5426.9717, 0.07300939, -0.44016305, -216013.02, -160793.72, 0.0, 9.999015, 9.999316 
1.7250936e+3, 3.0435953e+2, -254318.28, -258856.06, -27287.27, 0.18966553, -0.46299616, -229205.73, -229205.73, 0.0, 9.998842, 9.998778 
1.7250922e+3, 3.1435806e+2, -92705.984, 68818.83, -1864.2279, 0.12596498, -0.49562818, 68840.336, 68840.336, 0.0, 9.998875, 10.001014 
1.735106e+3, 1.24376066e+2, -1456964.5, -1761887.9, 11160.12, 0.06698999, -0.5114055, -1456556.6, 264507.56, 0.026112983, 10.002571, 9.99844 
1.7351034e+3, 1.3437495e+2, -1335069.4, -1613639.8, -22253.191, -0.03134154, -0.50843626, -1333302.9, 289771.44, 0.017487902, 10.002551, 9.998795 
1.7351028e+3, 1.4437307e+2, -1294578.9, -1589045.5, -9015.564, 0.039397173, -0.55035466, -1294303.1, 230789.05, 0.0093043, 10.002326, 9.998398 
1.7351015e+3, 1.5437177e+2, -1269623.4, -1533385.6, -14007.941, 0.019294512, -0.5230797, -1268881.5, 158224.5, 0.0034534705, 10.001841, 9.998342 
1.7351002e+3, 1.6437037e+2, -1197832.4, -1415035.9, -19860.914, 0.005935793, -0.5059875, -1196031.3, 133089.03, 0.00068548496, 10.001514, 9.998638 
1.7350988e+3, 1.7436911e+2, -1117987.4, -1326654.6, -16645.41, 0.00018373839, -0.5017429, -1116668.0, 114465.2, 0.00002961696, 10.001392, 9.998631 
1.7350978e+3, 1.8436788e+2, -1039103.25, -1209378.6, -14341.266, 0.003935717, -0.49564722, -1037903.9, 95242.18, 0.0, 10.001139, 9.998885 
1.7350969e+3, 1.9436687e+2, -1003235.94, -1142264.4, -14207.761, 0.020221919, -0.49045703, -1001798.9, 33358.426, 0.0, 10.000716, 9.998877 
1.7350961e+3, 2.04366e+2, -924863.75, -1017550.1, -5773.339, 0.03319078, -0.47665334, -924505.5, 12661.345, 0.0, 10.000426, 9.9992 
1.7350955e+3, 2.1436548e+2, -844819.7, -928591.0, -15613.754, 0.041991293, -0.4537458, -842004.1, -2831.456, 0.0, 10.000304, 9.999196 
1.7350948e+3, 2.2436476e+2, -751047.75, -804136.8, -19788.994, 0.051458307, -0.45336, -744483.1, -3303.0232, 0.0, 10.000153, 9.999451 
1.7350942e+3, 2.3436396e+2, -681710.9, -721026.3, -17083.803, 0.060778644, -0.48494872, -675324.75, -32136.75, 0.0, 9.999961, 9.999441 
1.7350937e+3, 2.4436338e+2, -614975.9, -639816.06, -10224.167, 0.06704222, -0.4797852, -611308.94, -66114.75, 0.0, 9.999754, 9.999425 
1.7350933e+3, 2.5436336e+2, -551414.1, -561279.7, -13762.789, 0.072359785, -0.42908096, -541726.8, -94530.35, 0.0, 9.99953, 9.999399 
1.7350931e+3, 2.6436302e+2, -467118.06, -467985.1, -9952.215, 0.09822668, -0.40090266, -457589.94, -108389.33, 0.0, 9.999428, 9.999416 
1.7350933e+3, 2.743624e+2, -363384.03, -369872.9, -9948.8955, 0.1410875, -0.4069492, -356163.9, -104958.18, 0.0, 9.999478, 9.9993925 
1.7350928e+3, 2.843614e+2, -286951.28, -288718.5, -10421.183, 0.13694139, -0.4402226, -277376.3, -124162.03, 0.0, 9.999358, 9.999334 
1.7350921e+3, 2.9436016e+2, -244913.11, -227843.22, -17751.926, 0.09897295, -0.5010778, -216681.05, -161456.33, 0.0, 9.999018, 9.999244 
1.7350927e+3, 3.0435926e+2, -251395.08, -253877.64, -26407.139, 0.21949452, -0.48759526, -226200.06, -226200.06, 0.0, 9.998844, 9.998813 
1.7350908e+3, 3.1435835e+2, -89902.266, 73547.875, -6473.8677, 0.08246631, -0.4662429, 73803.89, 73803.89, 0.0, 9.9988785, 10.001046 
1.7451087e+3, 1.243773e+2, -1422186.5, -1746884.6, 28793.223, 0.058261234, -0.49794236, -1419653.0, 301399.8, 0.027146768, 10.0028305, 9.998417 
1.7451061e+3, 1.3437611e+2, -1342732.4, -1616177.4, -14050.568, -0.021463964, -0.5012488, -1342012.4, 281050.8, 0.018243046, 10.002497, 9.998802 
1.7451051e+3, 1.4437427e+2, -1316374.9, -1604528.8, -6843.1807, 0.05015577, -0.5420057, -1316212.4, 208868.53, 0.009763315, 10.002199, 9.998352 
1.7451034e+3, 1.5437281e+2, -1258065.8, -1533243.0, -1810.9471, 0.025097439, -0.52243334, -1258053.8, 169042.08, 0.0036636468, 10.001946, 9.99829 
1.7451018e+3, 1.6437136e+2, -1177379.0, -1410363.1, 390.4019, 0.011201423, -0.5080197, -1177378.4, 151732.4, 0.0007450982, 10.001679, 9.9985895 
1.7451005e+3, 1.7437007e+2, -1120753.0, -1333531.8, -4991.4053, 0.010320729, -0.50043106, -1120635.9, 110487.88, 0.00003499582, 10.0014, 9.998579 
1.7450991e+3, 1.8436877e+2, -1038670.2, -1216018.6, -12442.661, 0.013565437, -0.49491233, -1037801.5, 95335.67, 0.0, 10.001173, 9.998822 
1.7450978e+3, 1.9436765e+2, -964703.4, -1130996.1, -16817.531, 0.022749884, -0.49509907, -963019.6, 72129.69, 0.0, 10.001014, 9.99881 
1.7450967e+3, 2.0436665e+2, -879484.7, -1009209.8, -2615.7031, 0.032905746, -0.48350564, -879432.0, 57727.99, 0.0, 10.000797, 9.999077 
1.7450958e+3, 2.1436603e+2, -824203.6, -933044.75, -657.83905, 0.044317033, -0.45848742, -824199.6, 14967.37, 0.0, 10.000509, 9.999066 
1.7450951e+3, 2.2436525e+2, -741976.3, -807322.8, -3127.2449, 0.053195853, -0.45386055, -741827.0, -651.8534, 0.0, 10.00025, 9.999381 
1.7450942e+3, 2.3436444e+2, -677096.3, -726192.56, -11285.817, 0.05757382, -0.47909552, -674626.3, -31443.111, 0.0, 10.000026, 9.999373 
1.7450935e+3, 2.443638e+2, -609678.25, -641506.56, -9096.471, 0.0636967, -0.4767725, -607261.94, -62071.77, 0.0, 9.99981, 9.999385 
1.7450929e+3, 2.543636e+2, -543631.94, -561875.3, -8827.561, 0.07596658, -0.43936163, -540059.9, -92866.055, 0.0, 9.999604, 9.999358 
1.7450927e+3, 2.6436323e+2, -470442.7, -471409.8, 1973.0703, 0.103614956, -0.4096391, -468894.8, -119696.82, 0.0, 9.999414, 9.999397 
1.7450926e+3, 2.743628e+2, -397922.72, -388527.16, 461.06097, 0.14000465, -0.39785373, -388504.6, -137302.95, 0.0, 9.999251, 9.9993725 
1.745092e+3, 2.8436172e+2, -322236.25, -306378.63, -5659.224, 0.1304355, -0.436504, -304566.13, -151355.19, 0.0, 9.999121, 9.999327 
1.7450911e+3, 2.9436016e+2, -246177.47, -229382.6, -9640.08, 0.09139309, -0.5251719, -224995.34, -169771.11, 0.0, 9.999015, 9.999233 
1.7450915e+3, 3.0435964e+2, -248319.17, -242946.42, -10167.252, 0.22196811, -0.47655916, -235116.64, -235116.64, 0.0, 9.998827, 9.998896 
1.7450894e+3, 3.1435862e+2, -141198.39, 45754.84, 5827.271, 0.08306471, -0.4793848, 45936.297, 45936.297, 0.0, 9.998541, 10.001016 
1.755111e+3, 1.2437862e+2, -1430839.0, -1764857.5, 16626.443, 0.027825529, -0.50801617, -1430013.4, 291026.16, 0.02820003, 10.00283, 9.998295 
1.7551087e+3, 1.3437761e+2, -1349716.1, -1630859.6, -27374.371, -0.007721281, -0.48441517, -1347075.5, 275973.78, 0.019010184, 10.002497, 9.998702 
1.7551075e+3, 1.4437586e+2, -1310655.0, -1593174.0, -17033.967, 0.07130785, -0.51299477, -1309631.6, 215434.53, 0.010229628, 10.0022, 9.99843 
1.7551054e+3, 1.5437427e+2, -1251133.3, -1520321.3, -11952.401, 0.023672074, -0.5165167, -1250603.5, 176477.94, 0.003878522, 10.001951, 9.998378 
1.7551033e+3, 1.6437262e+2, -1187013.3, -1432209.9, -10572.796, 0.007796587, -0.51824546, -1186558.1, 142539.55, 0.0008073514, 10.001685, 9.998438 
1.755102e+3, 1.743711e+2, -1131644.0, -1357790.5, -15826.998, 0.03129731, -0.51861787, -1130541.8, 100571.72, 0.00004108452, 10.001405, 9.998411 
1.7551005e+3, 1.8436968e+2, -1046605.9, -1233981.8, -18738.816, 0.03959102, -0.5092934, -1044750.25, 88377.836, 0.000000000016639355, 10.001178, 9.998697 
1.7550988e+3, 1.9436862e+2, -972654.1, -1148906.9, -22693.143, 0.028941296, -0.490175, -969779.2, 65360.645, 0.0, 10.001019, 9.998686 
1.7550974e+3, 2.0436758e+2, -877701.06, -1006860.94, -12936.963, 0.027742987, -0.47820792, -876418.0, 60732.855, 0.0, 10.000802, 9.999092 
1.7550963e+3, 2.1436675e+2, -821988.7, -929818.5, -11172.328, 0.038883872, -0.4774018, -820843.3, 18315.92, 0.0, 10.000514, 9.999087 
1.7550953e+3, 2.2436595e+2, -754861.06, -835536.44, -11259.895, 0.050218586, -0.4663632, -753319.0, -12151.253, 0.0, 10.000254, 9.9991865 
1.7550942e+3, 2.3436537e+2, -691123.25, -756799.5, -19008.74, 0.060206443, -0.44588676, -686018.3, -42843.465, 0.0, 10.0000305, 9.999162 
1.7550933e+3, 2.4436466e+2, -609243.06, -642101.3, -16147.932, 0.06648803, -0.438521, -602635.9, -57453.168, 0.0, 9.999815, 9.99938 
1.7550924e+3, 2.54364e+2, -542382.3, -560757.2, -15794.476, 0.07241946, -0.44690484, -533297.56, -86108.19, 0.0, 9.999608, 9.999365 
1.755092e+3, 2.643634e+2, -472707.97, -477510.9, -3624.8413, 0.1029716, -0.43998897, -470761.28, -121566.06, 0.0, 9.999419, 9.999354 
1.7550918e+3, 2.7436295e+2, -400951.25, -395860.4, -4811.004, 0.15318501, -0.42514542, -392962.94, -141763.66, 0.0, 9.999254, 9.999321 
1.7550912e+3, 2.8436196e+2, -319855.9, -302371.88, -9131.504, 0.13180411, -0.45337, -298472.4, -145264.33, 0.0, 9.999123, 9.999354 
1.7550896e+3, 2.9436076e+2, -242911.42, -223760.83, -13429.873, 0.050268803, -0.5132087, -216842.27, -161623.58, 0.0, 9.999018, 9.99927 
1.7550902e+3, 3.0436066e+2, -238424.97, -223613.27, -20262.408, 0.19669767, -0.43036085, -209445.72, -209445.72, 0.0, 9.99883, 9.999027 
1.7550886e+3, 3.143589e+2, -148341.67, 30472.672, -12473.165, 0.12775846, -0.51940686, 31338.541, 31338.541, 0.0, 9.998541, 10.000912 
1.7651138e+3, 1.243801e+2, -1462340.4, -1785403.4, 21318.05, 0.018023567, -0.5185172, -1460939.8, 260084.88, 0.029275268, 10.002633, 9.998248 
1.7651112e+3, 1.3437915e+2, -1367868.0, -1642565.9, -18948.617, 0.0017479631, -0.48577848, -1366567.1, 256467.16, 0.019789457, 10.002386, 9.998674 
1.7651099e+3, 1.4437746e+2, -1309596.0, -1592346.8, -4214.283, 0.083321474, -0.5065104, -1309533.3, 215517.38, 0.010701914, 10.00221, 9.99843 
1.7651074e+3, 1.5437576e+2, -1225525.6, -1507527.6, -5833.8594, 0.03054911, -0.5203025, -1225405.0, 201661.38, 0.004096641, 10.002129, 9.998379 
1.7651053e+3, 1.6437404e+2, -1158035.5, -1429235.4, -11428.031, 0.013065626, -0.5258779, -1157554.9, 171528.52, 0.00087147695, 10.001934, 9.998337 
1.7651036e+3, 1.7437243e+2, -1111070.3, -1359765.9, -13144.327, 0.039489437, -0.52162975, -1110377.5, 120722.516, 0.000047732003, 10.001599, 9.998302 
1.7651019e+3, 1.8437096e+2, -1032845.7, -1236712.6, -8553.288, 0.047013484, -0.5089042, -1032487.5, 100627.99, 0.0000000004293444, 10.001314, 9.998612 
1.7650999e+3, 1.9436984e+2, -967470.2, -1155832.4, -10004.415, 0.030714223, -0.48802027, -966940.4, 68187.46, 0.0, 10.001097, 9.998599 
1.7650983e+3, 2.0436871e+2, -871416.7, -1005815.5, -3514.438, 0.028167622, -0.47998488, -871324.8, 65814.64, 0.0, 10.000855, 9.999073 
1.765097e+3, 2.1436773e+2, -813153.6, -927290.3, -5225.182, 0.043676265, -0.490536, -812914.9, 26233.691, 0.0, 10.000584, 9.99907 
1.7650956e+3, 2.243669e+2, -752462.0, -850943.94, -3109.8684, 0.055323493, -0.47590375, -752363.9, -11206.156, 0.0, 10.000343, 9.999037 
1.7650944e+3, 2.3436639e+2, -686016.44, -772165.4, -7509.915, 0.060477246, -0.43269926, -685366.7, -42201.418, 0.0, 10.000144, 9.999001 
1.7650932e+3, 2.4436563e+2, -595563.44, -636250.25, -4078.917, 0.06507586, -0.42248145, -595158.56, -49984.7, 0.0, 9.999914, 9.999372 
1.765092e+3, 2.5436476e+2, -537073.5, -558097.9, -4522.295, 0.07307063, -0.4527968, -536142.06, -88960.305, 0.0, 9.999646, 9.999364 
1.7650914e+3, 2.6436403e+2, -475398.06, -480276.7, 9978.106, 0.103270695, -0.45481518, -467565.4, -118377.33, 0.0, 9.999409, 9.99934 
1.7650911e+3, 2.743636e+2, -409311.16, -401610.03, 11079.444, 0.15019509, -0.4347691, -393731.13, -142539.23, 0.0, 9.999207, 9.999304 
1.7650901e+3, 2.8436264e+2, -340136.9, -311777.28, 7389.0923, 0.124893025, -0.46306518, -309967.56, -156766.48, 0.0, 9.998983, 9.999355 
1.7650884e+3, 2.943614e+2, -283777.34, -242354.9, 784.4053, 0.039783143, -0.52273196, -242340.06, -187127.86, 0.0, 9.998734, 9.999279 
1.7650889e+3, 3.0436176e+2, -261331.83, -197109.2, -2469.531, 0.19442873, -0.41359952, -197014.39, -197014.39, 0.0, 9.998513, 9.999361 
1.765087e+3, 3.1435996e+2, -181371.13, 17490.912, 11904.406, 0.13248397, -0.5409799, 18201.004, 18201.004, 0.0, 9.998304, 10.000936 
1.7751165e+3, 1.2438179e+2, -1461582.4, -1783075.9, 11720.586, 0.025491102, -0.52833563, -1461155.6, 259851.58, 0.030378198, 10.002631, 9.998265 
1.7751136e+3, 1.3438079e+2, -1365030.1, -1637466.5, -29042.94, 0.0065540457, -0.5045432, -1361968.4, 261049.16, 0.020584289, 10.00239, 9.998709 
1.775112e+3, 1.4437911e+2, -1314676.0, -1604408.0, -8433.136, 0.08611404, -0.5215145, -1314430.8, 210603.03, 0.011180918, 10.002214, 9.998346 
1.7751098e+3, 1.5437736e+2, -1231334.6, -1520599.4, -9583.901, 0.04545298, -0.53341144, -1231017.5, 196032.84, 0.0043172166, 10.002131, 9.998289 
1.7751074e+3, 1.643756e+2, -1161711.9, -1437825.3, -23855.557, 0.02669155, -0.5310671, -1159665.9, 169401.56, 0.0009367269, 10.001937, 9.998278 
1.7751053e+3, 1.7437413e+2, -1114495.4, -1368231.9, -26043.324, 0.035189915, -0.5101107, -1111849.9, 119233.6, 0.00005469773, 10.001604, 9.998243 
1.775103e+3, 1.8437263e+2, -1035969.8, -1244684.8, -17126.6, 0.03635585, -0.49432817, -1034573.8, 98525.52, 0.0000000022461928, 10.001319, 9.998556 
1.775101e+3, 1.9437131e+2, -970737.75, -1164067.5, -18159.496, 0.028227909, -0.48841423, -969046.8, 66066.445, 0.0, 10.0011015, 9.998542 
1.7750992e+3, 2.0437002e+2, -874810.2, -1014261.3, -13382.514, 0.033881865, -0.4884829, -873537.56, 63588.41, 0.0, 10.000859, 9.999014 
1.7750977e+3, 2.14369e+2, -816676.4, -935887.94, -15145.163, 0.057963822, -0.49816042, -814782.4, 24352.916, 0.0, 10.000587, 9.99901 
1.775096e+3, 2.2436808e+2, -759810.5, -867495.56, -10343.446, 0.06800461, -0.48261648, -758825.94, -17680.672, 0.0, 10.000347, 9.998922 
1.7750944e+3, 2.3436747e+2, -693699.7, -789465.4, -14371.195, 0.058440324, -0.43864575, -691589.56, -48435.008, 0.0, 10.000148, 9.998881 
1.7750931e+3, 2.4436666e+2, -596030.06, -638622.2, -13289.331, 0.0594238, -0.42784667, -592223.75, -47059.7, 0.0, 9.999918, 9.999354 
1.7750917e+3, 2.5436577e+2, -537306.0, -559954.2, -13743.205, 0.07776692, -0.45740783, -530822.5, -83650.97, 0.0, 9.99965, 9.999351 
1.7750908e+3, 2.643651e+2, -474490.78, -479695.38, 2910.3452, 0.10460686, -0.45480993, -473188.97, -124011.75, 0.0, 9.999413, 9.999343 
1.7750902e+3, 2.7436474e+2, -408290.53, -400689.56, 4100.239, 0.13058847, -0.42678288, -398899.38, -147719.25, 0.0, 9.999209, 9.99931 
1.775089e+3, 2.8436366e+2, -341360.03, -315435.75, -1544.6506, 0.1088101, -0.46533272, -315344.03, -162153.39, 0.0, 9.998986, 9.99933 
1.7750874e+3, 2.9436213e+2, -284801.2, -245493.36, -8025.356, 0.059562963, -0.55351794, -243917.98, -188712.53, 0.0, 9.998736, 9.999257 
1.7750876e+3, 3.043629e+2, -224261.48, -121216.61, -9717.349, 0.21504821, -0.42635372, -120308.25, -120308.25, 0.0, 9.998516, 9.999883 
1.775085e+3, 3.1436187e+2, -172532.14, 34715.434, -4655.5, 0.09777033, -0.52536273, 34819.96, 34819.96, 0.0, 9.998307, 10.001054 
1.7851192e+3, 1.243836e+2, -1470773.9, -1786550.5, 18260.736, 0.028420998, -0.5371134, -1469721.4, 251267.25, 0.031514455, 10.002566, 9.998272 
1.785116e+3, 1.3438258e+2, -1348552.4, -1627445.1, -25037.248, 0.006909198, -0.5177388, -1346322.5, 276676.7, 0.021398189, 10.0025015, 9.998722 
1.7851144e+3, 1.4438093e+2, -1296527.4, -1600147.6, -4276.914, 0.083109066, -0.5303818, -1296467.1, 228548.11, 0.011667826, 10.002364, 9.9983015 
1.7851119e+3, 1.543791e+2, -1232727.8, -1526220.3, -2708.5737, 0.049898874, -0.5430754, -1232702.8, 194329.64, 0.004539834, 10.002146, 9.998242 
1.7851093e+3, 1.6437736e+2, -1169119.0, -1446346.5, -20263.918, 0.03362108, -0.53741944, -1167645.6, 161404.27, 0.0010024497, 10.00191, 9.998231 
1.7851068e+3, 1.7437592e+2, -1110824.8, -1371702.9, -22670.48, 0.03846142, -0.50814474, -1108869.4, 122196.47, 0.00006171727, 10.001654, 9.998194 
1.7851044e+3, 1.8437439e+2, -1023823.1, -1241864.8, -9941.36, 0.038534734, -0.4910089, -1023370.8, 109711.09, 0.0000000068240182, 10.001418, 9.998527 
1.7851022e+3, 1.9437295e+2, -957049.44, -1160588.5, -9190.436, 0.032421645, -0.492474, -956635.3, 78461.06, 0.0, 10.00121, 9.998511 
1.7851001e+3, 2.0437157e+2, -871301.7, -1025906.94, -9232.08, 0.037923694, -0.49716175, -870752.3, 66357.74, 0.0, 10.000943, 9.998893 
1.7850983e+3, 2.143704e+2, -824322.25, -953798.56, -16674.479, 0.05923166, -0.50764906, -822209.3, 16911.635, 0.0, 10.000598, 9.998881 
1.7850964e+3, 2.243694e+2, -763595.94, -871765.9, -7320.3857, 0.06909484, -0.49276435, -763102.8, -21970.895, 0.0, 10.000334, 9.9988985 
1.7850947e+3, 2.3436876e+2, -691726.75, -790386.25, -4003.8662, 0.062437166, -0.44968626, -691564.56, -48423.113, 0.0, 10.000172, 9.998863 
1.785093e+3, 2.4436796e+2, -591459.7, -639008.56, -2705.5967, 0.060725577, -0.4353875, -591306.2, -46155.38, 0.0, 9.999962, 9.99933 
1.7850915e+3, 2.5436714e+2, -533057.9, -560731.8, -4730.305, 0.069933295, -0.45551884, -532271.6, -85113.77, 0.0, 9.999693, 9.999324 
1.7850903e+3, 2.6436648e+2, -477636.47, -480475.34, 11224.69, 0.09551587, -0.45058584, -467741.84, -118578.33, 0.0, 9.999389, 9.999349 
1.7850892e+3, 2.7436605e+2, -431843.9, -411304.22, 12516.928, 0.12907007, -0.42972872, -405383.22, -154216.3, 0.0, 9.999046, 9.999315 
1.7850877e+3, 2.84365e+2, -369599.03, -319284.22, 11469.438, 0.108628005, -0.4703654, -316793.06, -163615.78, 0.0, 9.998752, 9.999415 
1.785086e+3, 2.9436362e+2, -309852.03, -245529.94, 13911.897, 0.054759793, -0.55227834, -242649.95, -187459.13, 0.0, 9.998514, 9.999364 
1.785086e+3, 3.043646e+2, -229043.36, -97083.516, 11660.671, 0.21032126, -0.4227688, -96061.04, -96061.04, 0.0, 9.998371, 10.000117 
1.7850831e+3, 3.143638e+2, -189286.28, 2630.5073, -16414.488, 0.092922315, -0.5197747, 4024.3027, 4024.3027, 0.0, 9.998298, 10.000836 
1.7951216e+3, 1.24385595e+2, -1471806.8, -1788797.8, 15032.15, 0.024151066, -0.54444736, -1471095.5, 249872.75, 0.032682225, 10.002567, 9.998258 
1.7951186e+3, 1.3438456e+2, -1349621.5, -1629716.4, -28596.563, 0.0033548344, -0.5257653, -1346731.6, 276247.22, 0.022230543, 10.0025015, 9.998708 
1.7951165e+3, 1.4438294e+2, -1297417.6, -1602210.6, -13043.012, 0.07482243, -0.53342354, -1296860.5, 228134.05, 0.012162478, 10.002364, 9.998289 
1.795114e+3, 1.5438107e+2, -1233323.0, -1528027.4, -11564.076, 0.043829482, -0.54945326, -1232869.9, 194142.47, 0.0047642384, 10.002147, 9.99823 
1.7951113e+3, 1.6437928e+2, -1171854.4, -1452928.1, -30299.346, 0.03373312, -0.544879, -1168625.3, 160405.14, 0.0010682015, 10.001912, 9.998186 
1.7951086e+3, 1.743778e+2, -1113436.1, -1378502.4, -32648.438, 0.049000394, -0.5152954, -1109474.0, 121572.914, 0.00006858208, 10.0016575, 9.998147 
1.795106e+3, 1.8437624e+2, -1023847.7, -1243364.1, -17972.723, 0.052951414, -0.49844527, -1022385.9, 110677.234, 0.000000015228453, 10.001422, 9.998515 
1.7951035e+3, 1.9437478e+2, -957172.4, -1161912.5, -16961.898, 0.04273249, -0.50014406, -955776.7, 79300.516, 0.0, 10.001213, 9.998502 
1.795101e+3, 2.0437329e+2, -884043.5, -1053409.6, -21704.695, 0.040144783, -0.50609136, -881306.25, 55785.707, 0.0, 10.000945, 9.998704 
1.7950988e+3, 2.143719e+2, -837722.4, -983185.75, -29317.475, 0.04805584, -0.5188439, -832035.9, 7069.8335, 0.0, 10.000603, 9.998678 
1.7950967e+3, 2.243708e+2, -758717.5, -863225.0, -13326.067, 0.05898975, -0.50614816, -757045.0, -15927.281, 0.0, 10.000339, 9.998956 
1.7950949e+3, 2.343702e+2, -686233.0, -779891.1, -9526.696, 0.07195899, -0.46575496, -685273.8, -42147.676, 0.0, 10.000174, 9.998935 
1.795093e+3, 2.4436948e+2, -593801.2, -644646.4, -11901.518, 0.068606436, -0.4450094, -591153.25, -46018.598, 0.0, 9.999964, 9.999291 
1.7950909e+3, 2.543688e+2, -535699.7, -567313.3, -14201.79, 0.049646363, -0.4469244, -530256.9, -83115.695, 0.0, 9.999696, 9.999278 
1.7950894e+3, 2.6436815e+2, -476810.03, -480096.78, -900.1249, 0.075830944, -0.44216135, -476579.7, -127432.234, 0.0, 9.9993925, 9.99935 
1.7950885e+3, 2.7436748e+2, -431272.97, -411365.88, 348.5597, 0.14536364, -0.4442732, -411359.78, -160206.84, 0.0, 9.999049, 9.999314 
1.7950869e+3, 2.8436655e+2, -355999.63, -292170.0, 2695.5688, 0.12421629, -0.47859707, -292056.38, -138894.69, 0.0, 9.9987545, 9.999601 
1.7950842e+3, 2.9436582e+2, -293855.47, -213410.9, 5454.673, 0.02473034, -0.51843345, -213042.73, -157873.67, 0.0, 9.998517, 9.999584 
1.795084e+3, 3.0436674e+2, -231340.39, -103187.484, 9450.325, 0.17945519, -0.40344372, -102494.34, -102494.34, 0.0, 9.998374, 10.000074 
1.7950816e+3, 3.1436586e+2, -227690.03, -78347.03, -28771.47, 0.11802564, -0.49921674, -72995.84, -72995.84, 0.0, 9.9983015, 10.000279 
1.8051241e+3, 1.2438768e+2, -1484884.5, -1795032.3, 15545.501, 0.02655617, -0.54184943, -1484107.3, 236840.14, 0.03387297, 10.002478, 9.998257 
1.805121e+3, 1.3438648e+2, -1362185.6, -1635617.3, -27909.22, 0.0022848549, -0.5381958, -1359366.0, 263593.22, 0.023077281, 10.002416, 9.998707 
1.8051189e+3, 1.4438489e+2, -1311069.6, -1606016.3, -17339.545, 0.07148634, -0.5443257, -1310053.8, 214920.89, 0.012663681, 10.00226, 9.998311 
1.8051161e+3, 1.5438312e+2, -1255669.6, -1536157.5, -14436.232, 0.052200522, -0.554285, -1254928.5, 172063.06, 0.0049904073, 10.001984, 9.998252 
1.8051133e+3, 1.6438136e+2, -1187760.8, -1459073.1, -27167.395, 0.043767266, -0.54986626, -1185067.1, 143942.31, 0.0011338704, 10.001799, 9.998198 
1.8051103e+3, 1.7437978e+2, -1101502.5, -1371463.8, -25569.64, 0.04723169, -0.52859026, -1099102.0, 131924.47, 0.0000752009, 10.001737, 9.998156 
1.8051074e+3, 1.8437819e+2, -1011780.5, -1241565.4, -15257.736, 0.0499506, -0.51494116, -1010771.8, 122271.164, 0.000000026593373, 10.001525, 9.998477 
1.8051048e+3, 1.9437672e+2, -973398.9, -1174270.3, -17491.809, 0.052306585, -0.51324826, -971887.06, 63169.902, 0.0, 10.001123, 9.99846 
1.8051021e+3, 2.0437516e+2, -905979.0, -1077649.3, -18608.346, 0.050372608, -0.51626766, -903985.1, 33087.324, 0.0, 10.000855, 9.998579 
1.8050994e+3, 2.143737e+2, -824372.6, -991223.6, -21186.822, 0.043555558, -0.5265472, -821724.4, 17363.377, 0.0, 10.000759, 9.998547 
1.805097e+3, 2.243725e+2, -735458.44, -850957.44, -8111.051, 0.049905997, -0.51339036, -734891.6, 6208.9214, 0.0, 10.000496, 9.998963 
1.8050951e+3, 2.3437192e+2, -707635.8, -788297.0, -9208.884, 0.07151176, -0.47503707, -706597.8, -63489.215, 0.0, 10.00002, 9.99895 
1.8050928e+3, 2.443712e+2, -633262.4, -665561.0, -8833.465, 0.0691994, -0.45237976, -631004.3, -85887.41, 0.0, 9.999702, 9.999273 
1.8050905e+3, 2.5437057e+2, -553454.06, -578170.3, -9301.248, 0.041275755, -0.44776914, -550344.94, -103221.51, 0.0, 9.999585, 9.999256 
1.8050887e+3, 2.643699e+2, -476066.1, -467182.72, 2124.121, 0.06404491, -0.44744027, -466700.94, -117571.17, 0.0, 9.999345, 9.999461 
1.8050873e+3, 2.743692e+2, -437547.72, -400933.53, 11426.407, 0.13758162, -0.46643832, -397660.25, -146524.92, 0.0, 9.99895, 9.9994335 
1.8050854e+3, 2.8436846e+2, -374854.28, -296899.53, 17649.645, 0.11881822, -0.48956645, -293089.7, -139947.47, 0.0, 9.998608, 9.9996395 
1.8050826e+3, 2.9436818e+2, -314896.88, -217732.8, 8966.16, 0.019801166, -0.48743623, -216912.34, -161766.69, 0.0, 9.998349, 9.999635 
1.8050823e+3, 3.0436882e+2, -244049.45, -92237.97, 19084.318, 0.17440677, -0.4098551, -89875.625, -89875.625, 0.0, 9.998215, 10.000226 
1.80508e+3, 3.1436813e+2, -267524.16, -121742.375, -13841.598, 0.11706446, -0.50293463, -120439.79, -120439.79, 0.0, 9.998134, 10.000061 
1.8151267e+3, 1.2438991e+2, -1484425.5, -1793823.9, 12482.151, 0.033915456, -0.5293837, -1483922.8, 237002.6, 0.035080627, 10.002478, 9.998266 
1.8151234e+3, 1.3438843e+2, -1361443.5, -1634575.6, -30907.018, 0.0024928148, -0.5550507, -1357989.9, 264949.9, 0.023936015, 10.0024185, 9.998714 
1.8151212e+3, 1.4438684e+2, -1307405.3, -1599341.0, -27872.0, 0.07196955, -0.5629472, -1304768.0, 220186.86, 0.013171479, 10.002264, 9.998357 
1.8151183e+3, 1.5438527e+2, -1251940.5, -1529486.4, -25539.662, 0.074602045, -0.55764204, -1249609.9, 177359.89, 0.0052190083, 10.0019865, 9.998297 
1.8151152e+3, 1.6438355e+2, -1183195.5, -1450649.1, -30543.867, 0.06342335, -0.552398, -1179751.6, 149235.16, 0.0011998421, 10.0018015, 9.998255 
1.8151118e+3, 1.7438188e+2, -1096921.6, -1362928.5, -28206.873, 0.033295114, -0.54780525, -1093963.6, 137040.77, 0.00008165094, 10.001739, 9.998214 
1.8151088e+3, 1.8438022e+2, -1016482.7, -1252309.5, -29846.979, 0.02998013, -0.54016906, -1012763.8, 120257.484, 0.000000038391406, 10.001527, 9.998404 
1.815106e+3, 1.9437875e+2, -978565.9, -1186271.9, -32711.336, 0.06122318, -0.5314492, -973536.0, 61499.715, 0.0, 10.001127, 9.998376 
1.8151031e+3, 2.043772e+2, -910166.5, -1087537.8, -22758.447, 0.068260096, -0.5274945, -907292.9, 29758.68, 0.0, 10.000859, 9.99851 
1.8151002e+3, 2.143757e+2, -828935.8, -1001362.8, -24477.736, 0.04511443, -0.5309184, -825528.25, 13539.011, 0.0, 10.00076, 9.998477 
1.8150975e+3, 2.2437452e+2, -738466.6, -857896.1, -24680.686, 0.041570786, -0.5147989, -733567.2, 7513.362, 0.0, 10.000497, 9.998917 
1.815095e+3, 2.3437385e+2, -710206.8, -794974.56, -26505.744, 0.06147314, -0.47765875, -702601.25, -59512.14, 0.0, 10.000024, 9.998903 
1.8150926e+3, 2.4437308e+2, -632867.8, -666219.56, -13225.734, 0.06265647, -0.45750535, -628259.8, -83161.86, 0.0, 9.999706, 9.999268 
1.81509e+3, 2.5437242e+2, -553557.2, -579258.6, -12869.843, 0.044279244, -0.4579993, -548220.7, -101115.74, 0.0, 9.999587, 9.999249 
1.815088e+3, 2.6437172e+2, -460948.63, -436490.88, -11447.522, 0.059880488, -0.46616933, -431968.9, -82857.9, 0.0, 9.999346, 9.999672 
1.815086e+3, 2.7437115e+2, -421200.38, -367930.6, -3114.6711, 0.10579225, -0.49552307, -367749.1, -116634.34, 0.0, 9.998952, 9.99966 
1.8150838e+3, 2.8437063e+2, -381969.3, -312692.3, 7695.866, 0.092279255, -0.5026585, -311847.7, -158728.19, 0.0, 9.9986105, 9.999531 
1.8150811e+3, 2.9437062e+2, -322933.97, -235071.31, 372.74103, 0.039654244, -0.45956445, -235069.73, -179948.39, 0.0, 9.99835, 9.9995165 
1.8150806e+3, 3.043708e+2, -220536.95, -44345.582, 17250.191, 0.19478422, -0.44352534, -42672.57, -42672.57, 0.0, 9.998217, 10.000555 
1.8150778e+3, 3.1437075e+2, -259292.34, -106162.36, -27481.346, 0.08996528, -0.50275964, -101379.81, -101379.81, 0.0, 9.998138, 10.000167 
1.8251291e+3, 1.2439204e+2, -1488441.3, -1792171.0, 26612.727, 0.034453247, -0.5433802, -1486127.1, 234776.27, 0.0363064, 10.002438, 9.998296 
1.825126e+3, 1.3439064e+2, -1355981.5, -1629281.8, -16349.39, 0.010768718, -0.56285644, -1355006.9, 267910.25, 0.024808751, 10.00245, 9.9987335 
1.8251236e+3, 1.4438912e+2, -1297934.8, -1594641.4, -23550.107, 0.07723889, -0.5642881, -1296077.3, 228854.38, 0.01368808, 10.002333, 9.998355 
1.8251203e+3, 1.5438746e+2, -1241962.9, -1525047.5, -25923.676, 0.074341886, -0.56743675, -1239608.5, 187338.94, 0.005451592, 10.00206, 9.998291 
1.825117e+3, 1.643857e+2, -1177772.6, -1444194.6, -28850.783, 0.06102404, -0.5664312, -1174684.3, 154280.48, 0.0012669698, 10.001824, 9.998287 
1.8251136e+3, 1.7438409e+2, -1110087.0, -1365522.0, -28546.508, 0.033572324, -0.56063, -1106935.6, 124045.89, 0.0000881637, 10.001635, 9.998245 
1.8251102e+3, 1.8438245e+2, -1035736.6, -1264238.8, -37380.387, 0.02956627, -0.5516468, -1029777.06, 103221.19, 0.00000004824908, 10.001409, 9.998378 
1.825107e+3, 1.9438097e+2, -979200.2, -1189900.8, -37315.023, 0.05563538, -0.5412518, -972786.9, 62226.09, 0.0, 10.00114, 9.998344 
1.8251039e+3, 2.0437938e+2, -912961.4, -1091015.6, -19642.992, 0.06326187, -0.53662145, -910820.06, 26209.096, 0.0, 10.000851, 9.998489 
1.8251008e+3, 2.1437787e+2, -862665.3, -1019826.2, -18036.686, 0.048136022, -0.5411222, -860621.9, -21576.514, 0.0, 10.00054, 9.998456 
1.825098e+3, 2.2437668e+2, -771164.1, -873100.0, -19857.74, 0.04513177, -0.5232449, -767432.3, -26373.63, 0.0, 10.000272, 9.9989195 
1.825095e+3, 2.3437609e+2, -705356.5, -792029.75, -18689.67, 0.05591699, -0.479875, -701498.1, -58431.598, 0.0, 10.000056, 9.998907 
1.8250921e+3, 2.4437533e+2, -624518.44, -657184.94, 65.66925, 0.055397253, -0.46086934, -624518.3, -79443.234, 0.0, 9.999744, 9.9993105 
1.8250895e+3, 2.5437456e+2, -591141.8, -592383.1, 3859.1682, 0.04495895, -0.47359142, -587853.7, -140771.27, 0.0, 9.999309, 9.999292 
1.825087e+3, 2.6437387e+2, -512647.03, -458145.06, 246.94531, 0.059902947, -0.4884094, -458143.94, -109055.15, 0.0, 9.998979, 9.9997 
1.8250848e+3, 2.7437338e+2, -444353.13, -375961.22, -6506.9507, 0.09393581, -0.5123649, -375347.63, -124255.26, 0.0, 9.998781, 9.999686 
1.8250822e+3, 2.843731e+2, -401455.8, -307549.5, 525.0833, 0.08059972, -0.5031719, -307546.56, -154451.6, 0.0, 9.998416, 9.99966 
1.8250792e+3, 2.943734e+2, -383842.97, -247872.33, 13695.638, 0.043944653, -0.44299102, -246506.56, -191413.27, 0.0, 9.997862, 9.999662 
1.8250786e+3, 3.0437297e+2, -273602.63, -57338.426, 53629.703, 0.19138241, -0.498606, -44769.67, -44769.67, 0.0, 9.9978, 10.000666 
1.8250757e+3, 3.1437346e+2, -241507.33, -87351.4, -20126.201, 0.06791783, -0.51228267, -84767.09, -84767.09, 0.0, 9.998219, 10.000257 
1.8351315e+3, 1.2439411e+2, -1485044.4, -1786099.6, 26034.059, 0.025863873, -0.58349085, -1482809.6, 238071.36, 0.037556387, 10.002443, 9.998335 
1.8351285e+3, 1.3439316e+2, -1354463.9, -1625955.1, -16852.379, 0.027320324, -0.5618442, -1353421.8, 269469.2, 0.02570087, 10.00245, 9.998757 
1.835126e+3, 1.4439178e+2, -1301998.1, -1602915.4, -34078.387, 0.08750184, -0.5489125, -1298187.1, 226717.47, 0.014217793, 10.00233, 9.998301 
1.8351223e+3, 1.5438974e+2, -1245578.8, -1533585.3, -36700.65, 0.051699728, -0.5835784, -1240975.5, 185948.69, 0.005690783, 10.002063, 9.998232 
1.8351187e+3, 1.6438787e+2, -1177248.5, -1444538.4, -36627.1, 0.03695887, -0.59164745, -1172320.3, 156622.48, 0.0013364826, 10.001828, 9.998283 
1.8351154e+3, 1.7438643e+2, -1109783.6, -1365822.0, -35970.82, 0.047549628, -0.56730676, -1104826.0, 126131.83, 0.000095082636, 10.0016365, 9.998243 
1.8351118e+3, 1.8438487e+2, -1034436.8, -1262370.8, -47485.207, 0.047884423, -0.54984134, -1024940.0, 108033.805, 0.000000055274803, 10.00141, 9.99839 
1.8351081e+3, 1.9438337e+2, -977681.6, -1188112.8, -47410.457, 0.035818152, -0.54305524, -967493.25, 67495.5, 0.0, 10.001143, 9.998356 
1.8351045e+3, 2.0438175e+2, -911089.9, -1088529.0, -31102.006, 0.036091354, -0.54382193, -905796.2, 31209.158, 0.0, 10.000855, 9.998506 
1.8351014e+3, 2.1438016e+2, -861172.06, -1017644.06, -29484.44, 0.05264156, -0.55679494, -855800.6, -16778.51, 0.0, 10.000542, 9.99847 
1.8350983e+3, 2.24379e+2, -767647.1, -866542.75, -27744.635, 0.060102254, -0.5382922, -760395.25, -19360.17, 0.0, 10.000273, 9.998965 
1.835095e+3, 2.3437859e+2, -701815.1, -785562.94, -26246.824, 0.054329302, -0.48174557, -694269.2, -51227.875, 0.0, 10.000058, 9.998952 
1.8350919e+3, 2.443779e+2, -618204.9, -645094.75, -15164.619, 0.047248386, -0.46258333, -611383.3, -66334.44, 0.0, 9.999746, 9.999393 
1.8350887e+3, 2.5437704e+2, -584726.7, -580239.4, -11902.811, 0.04323239, -0.49409625, -570370.6, -123314.305, 0.0, 9.999312, 9.999375 
1.835086e+3, 2.6437625e+2, -522936.8, -480785.28, -7170.6133, 0.06368778, -0.5139264, -479598.84, -130535.125, 0.0, 9.998982, 9.999544 
1.8350837e+3, 2.743758e+2, -456313.47, -401674.2, -13661.24, 0.10130845, -0.5181666, -398448.9, -147380.02, 0.0, 9.998782, 9.99951 
1.8350805e+3, 2.8437576e+2, -376377.5, -256125.05, -19390.61, 0.08335643, -0.49189687, -253075.66, -100006.43, 0.0, 9.998417, 10.000012 
1.835077e+3, 2.9437637e+2, -355628.28, -190315.8, -5679.4497, 0.03239445, -0.43613267, -190120.9, -135058.72, 0.0, 9.997865, 10.000057 
1.8350762e+3, 3.0437526e+2, -280744.94, -74142.305, 68668.875, 0.16388482, -0.5744981, -53400.98, -53400.98, 0.0, 9.997806, 10.000549 
1.8350738e+3, 3.143764e+2, -234906.52, -75278.08, -15675.303, 0.05243194, -0.51222754, -73753.35, -73753.35, 0.0, 9.998224, 10.000338 
1.8451342e+3, 1.24396406e+2, -1430543.8, -1759825.9, 26130.705, 0.027171005, -0.6108206, -1428483.0, 292373.94, 0.03883764, 10.002842, 9.9983225 
1.845131e+3, 1.3439557e+2, -1375808.6, -1639534.8, -21291.932, 0.038784526, -0.5750824, -1374100.8, 248765.36, 0.026618557, 10.002316, 9.998728 
1.8451282e+3, 1.4439426e+2, -1341875.1, -1621726.3, -33234.09, 0.089686364, -0.5528064, -1337982.5, 186896.67, 0.014765603, 10.002052, 9.998304 
1.845124e+3, 1.5439215e+2, -1239093.8, -1529963.3, -31558.496, 0.033864174, -0.5959709, -1235709.1, 191190.72, 0.0059396694, 10.002108, 9.998235 
1.8451203e+3, 1.643903e+2, -1156809.5, -1430147.6, -35211.402, 0.019371182, -0.60498166, -1152346.4, 176572.02, 0.0014096296, 10.001951, 9.9983225 
1.8451169e+3, 1.7438896e+2, -1121897.6, -1367151.8, -32475.033, 0.055007532, -0.57240903, -1117670.4, 113261.79, 0.00010278079, 10.001535, 9.998282 
1.8451133e+3, 1.8438745e+2, -1054451.9, -1270377.4, -38072.54, 0.060384452, -0.55311364, -1047935.5, 85012.12, 0.00000006030829, 10.001267, 9.998403 
1.8451092e+3, 1.9438592e+2, -971130.3, -1183762.1, -38416.04, 0.028213816, -0.5523648, -964402.56, 70560.62, 0.0, 10.001185, 9.998364 
1.8451053e+3, 2.043843e+2, -901157.9, -1082188.3, -31035.262, 0.02217419, -0.5533487, -895985.06, 40994.79, 0.0, 10.000918, 9.998518 
1.8451019e+3, 2.1438278e+2, -878096.5, -1024308.94, -30551.537, 0.04983792, -0.5594087, -871969.44, -32973.387, 0.0, 10.000422, 9.998482 
1.8450986e+3, 2.2438167e+2, -795946.75, -874984.5, -22096.084, 0.062264945, -0.5401462, -790188.94, -49180.293, 0.0, 10.000058, 9.999009 
1.845095e+3, 2.3438123e+2, -726726.6, -792360.56, -20642.818, 0.05379055, -0.49005148, -720774.0, -77759.35, 0.0, 9.9998665, 9.998996 
1.8450914e+3, 2.4438055e+2, -638661.7, -652283.44, -19170.563, 0.044632766, -0.4726231, -625128.06, -80106.24, 0.0, 9.999597, 9.999415 
1.845088e+3, 2.5437972e+2, -596683.25, -583637.9, -21516.49, 0.039165504, -0.50154066, -567677.1, -120648.375, 0.0, 9.999222, 9.999394 
1.845085e+3, 2.6437894e+2, -544289.8, -487266.3, -9725.532, 0.06127344, -0.5238111, -485653.22, -136616.89, 0.0, 9.998821, 9.999576 
1.8450823e+3, 2.7437848e+2, -511510.9, -424836.63, -1372.266, 0.10482156, -0.5321273, -424814.9, -173772.86, 0.0, 9.998391, 9.999538 
1.8450788e+3, 2.8437862e+2, -416495.03, -261741.23, -8038.459, 0.08204691, -0.49549457, -261324.81, -108284.2, 0.0, 9.998084, 10.0001335 
1.8450747e+3, 2.9437953e+2, -334347.84, -166463.63, -12627.492, 0.011452472, -0.42419246, -165519.16, -110489.09, 0.0, 9.997954, 10.000177 
1.8450736e+3, 3.0437785e+2, -286233.7, -95425.81, 64229.95, 0.13134092, -0.6159964, -75819.32, -75819.32, 0.0, 9.99785, 10.0003805 
1.8450719e+3, 3.143792e+2, -300155.66, -77345.64, -33384.758, 0.06341087, -0.5171616, -72450.96, -72450.96, 0.0, 9.997652, 10.000598 
1.855137e+3, 1.2439897e+2, -1435368.4, -1769715.5, 6431.757, 0.036892466, -0.6262405, -1435244.6, 285585.9, 0.040156323, 10.002842, 9.998256 
1.8551335e+3, 1.3439792e+2, -1381124.5, -1652043.4, -41216.45, 0.044191744, -0.60232425, -1374992.8, 247848.95, 0.027566783, 10.002321, 9.998642 
1.8551302e+3, 1.4439663e+2, -1337650.3, -1614382.9, -32871.38, 0.0830909, -0.57541114, -1333799.3, 191055.63, 0.015335415, 10.002058, 9.998353 
1.8551262e+3, 1.5439472e+2, -1235294.6, -1522504.6, -29977.201, 0.020833813, -0.60461825, -1232199.1, 194675.11, 0.0062008454, 10.002108, 9.998286 
1.8551221e+3, 1.64393e+2, -1151657.0, -1419753.8, -50341.273, 0.0081901755, -0.6067144, -1142516.0, 186375.63, 0.0014874892, 10.001951, 9.998395 
1.8551186e+3, 1.7439172e+2, -1116189.0, -1356642.4, -48389.65, 0.055832278, -0.5760401, -1106816.3, 124088.086, 0.000111600515, 10.001539, 9.998353 
1.8551147e+3, 1.8439022e+2, -1053338.0, -1269547.8, -41996.863, 0.06693221, -0.56133544, -1045467.0, 87452.74, 0.00000006571913, 10.001272, 9.998407 
1.8551104e+3, 1.9438857e+2, -971024.5, -1184255.0, -41464.223, 0.032336634, -0.56877625, -963245.3, 71691.04, 0.0, 10.001186, 9.998362 
1.8551062e+3, 2.0438701e+2, -900697.06, -1081851.1, -48707.914, 0.020928044, -0.5649553, -888431.2, 48521.66, 0.0, 10.000919, 9.998521 
1.8551022e+3, 2.1438572e+2, -877253.94, -1023924.1, -48942.64, 0.039687935, -0.54948986, -862422.0, -23454.7, 0.0, 10.000425, 9.998484 
1.8550985e+3, 2.2438464e+2, -792599.44, -869618.7, -29586.646, 0.05191901, -0.529404, -782546.06, -41566.543, 0.0, 10.000063, 9.999044 
1.8550949e+3, 2.3438397e+2, -723648.25, -787161.0, -27170.93, 0.054328512, -0.504454, -713610.75, -70623.85, 0.0, 9.99987, 9.999031 
1.855091e+3, 2.4438326e+2, -641207.75, -658649.06, -32160.514, 0.04727097, -0.49054915, -616606.5, -71612.21, 0.0, 9.999599, 9.999371 
1.8550871e+3, 2.5438264e+2, -599637.44, -590889.25, -34980.844, 0.032610297, -0.49645638, -560010.06, -113009.875, 0.0, 9.999225, 9.999344 
1.8550837e+3, 2.643819e+2, -529154.56, -457110.38, -25266.254, 0.05275601, -0.5186555, -449132.75, -100125.6, 0.0, 9.998825, 9.999783 
1.8550807e+3, 2.7438137e+2, -495181.88, -392454.84, -17401.037, 0.10428271, -0.5534869, -389587.28, -138574.88, 0.0, 9.998396, 9.99976 
1.8550768e+3, 2.8438163e+2, -423706.34, -278361.97, -13571.696, 0.07643389, -0.5132855, -277105.56, -124095.8, 0.0, 9.99809, 10.000017 
1.8550724e+3, 2.9438275e+2, -344694.7, -189347.86, -16049.329, -0.018461298, -0.4085238, -187707.1, -132709.34, 0.0, 9.997958, 10.000019 
1.8550712e+3, 3.0438066e+2, -302062.28, -129645.164, 58111.063, 0.093706265, -0.6242247, -111888.3, -111888.3, 0.0, 9.997854, 10.000145 
1.8550698e+3, 3.1438187e+2, -268685.88, -12761.88, -52271.586, 0.10107985, -0.5129292, -2497.2834, -2497.2834, 0.0, 9.997654, 10.001041 
1.8651402e+3, 1.24401875e+2, -1447419.4, -1768440.6, 7486.28, 0.05967708, -0.61963475, -1447245.0, 273557.22, 0.041514024, 10.002729, 9.998318 
1.8651357e+3, 1.3440064e+2, -1334861.0, -1624139.8, -31330.316, 0.03034547, -0.61926585, -1331506.6, 291307.63, 0.02854696, 10.002631, 9.998683 
1.8651322e+3, 1.4439939e+2, -1293341.5, -1595465.0, -17267.316, 0.05660977, -0.5903409, -1292357.8, 232469.27, 0.015928667, 10.002382, 9.998325 
1.8651281e+3, 1.5439764e+2, -1261345.6, -1538787.1, -20802.643, 0.02393462, -0.59864795, -1259794.5, 167051.19, 0.006475788, 10.0019455, 9.998252 
1.865124e+3, 1.6439599e+2, -1185495.9, -1424575.0, -45493.74, 0.018046377, -0.5962439, -1177131.6, 151730.98, 0.0015707911, 10.00167, 9.998496 
1.86512e+3, 1.7439467e+2, -1101208.8, -1337246.8, -41557.16, 0.044404082, -0.58171064, -1094105.9, 136769.34, 0.0001217937, 10.001592, 9.998461 
1.8651159e+3, 1.8439314e+2, -1038402.6, -1260253.4, -33827.863, 0.05313498, -0.5748018, -1033359.2, 99531.15, 0.00000007494837, 10.001367, 9.998425 
1.8651114e+3, 1.9439153e+2, -1002794.75, -1198329.9, -32765.354, 0.039549295, -0.5794234, -997450.44, 37456.254, 0.0, 10.000964, 9.998371 
1.8651071e+3, 2.0439005e+2, -936016.94, -1097332.6, -42225.574, 0.031880446, -0.56837934, -925632.56, 11290.059, 0.0, 10.000672, 9.998532 
1.8651026e+3, 2.143889e+2, -863045.94, -1015835.75, -42568.773, 0.03276979, -0.5400762, -851986.4, -13050.211, 0.0, 10.00052, 9.998493 
1.8650983e+3, 2.243878e+2, -765370.4, -851768.2, -23183.727, 0.04020206, -0.5225752, -759542.44, -18594.176, 0.0, 10.000232, 9.999085 
1.8650946e+3, 2.3438698e+2, -734969.6, -788011.94, -20928.879, 0.05426234, -0.51948786, -727706.4, -84749.91, 0.0, 9.999775, 9.99907 
1.8650906e+3, 2.4438621e+2, -674376.9, -676115.2, -25755.906, 0.050675496, -0.5116687, -649475.5, -104511.39, 0.0, 9.99938, 9.999355 
1.8650863e+3, 2.543857e+2, -624664.75, -605331.7, -26936.268, 0.028903628, -0.5042359, -586379.94, -139410.36, 0.0, 9.999065, 9.99932 
1.8650824e+3, 2.6438507e+2, -533394.44, -450725.25, -21540.281, 0.04281436, -0.51952136, -445449.4, -96473.56, 0.0, 9.998762, 9.999855 
1.865079e+3, 2.7438465e+2, -480097.7, -376286.2, -24945.064, 0.09040047, -0.5540309, -370603.2, -119623.26, 0.0, 9.998464, 9.999837 
1.8650748e+3, 2.8438485e+2, -413347.72, -270748.6, -17058.486, 0.0673314, -0.51968664, -268736.38, -115759.3, 0.0, 9.998152, 10.000038 
1.8650703e+3, 2.943858e+2, -363051.0, -199378.5, -6867.8096, -0.015086392, -0.43264076, -199090.83, -144124.31, 0.0, 9.99784, 10.000006 
1.8650687e+3, 3.0438364e+2, -365352.3, -194381.6, 69277.48, 0.07635176, -0.63734514, -169834.61, -169834.61, 0.0, 9.997569, 9.999837 
1.8650673e+3, 3.1438485e+2, -298883.66, 11505.907, -58069.117, 0.093989074, -0.50093985, 22014.002, 22014.002, 0.0, 9.997282, 10.001386 
1.8751432e+3, 1.2440517e+2, -1435967.4, -1742987.5, 2683.0635, 0.09229886, -0.5931063, -1435944.0, 284827.44, 0.042906, 10.002728, 9.998493 
1.8751381e+3, 1.3440375e+2, -1324278.3, -1602291.9, -35687.156, -0.0014386668, -0.62593126, -1319770.4, 303013.1, 0.029556876, 10.002633, 9.9988365 
1.875134e+3, 1.4440253e+2, -1300250.0, -1610781.8, -33461.97, 0.011566466, -0.59746116, -1296685.3, 228110.34, 0.01654497, 10.002384, 9.99822 
1.8751302e+3, 1.5440093e+2, -1269724.3, -1556897.3, -37499.074, 0.04174511, -0.578899, -1264908.4, 161905.56, 0.006765209, 10.001946, 9.998129 
1.8751259e+3, 1.6439928e+2, -1176680.4, -1406938.6, -49430.496, 0.047268387, -0.57433486, -1166517.5, 162313.61, 0.0016600671, 10.001672, 9.998617 
1.8751213e+3, 1.7439781e+2, -1091356.3, -1317989.8, -44751.688, 0.021261726, -0.5892911, -1082839.5, 148005.0, 0.00013349493, 10.0015955, 9.998592 
1.8751168e+3, 1.8439624e+2, -1035951.8, -1256541.4, -48537.652, 0.019935312, -0.59313065, -1025744.1, 107115.27, 0.00000009512311, 10.001371, 9.998449 
1.8751125e+3, 1.9439481e+2, -1001048.9, -1196029.9, -47904.95, 0.049470212, -0.58451515, -989914.9, 44959.344, 0.0, 10.000968, 9.998386 
1.8751079e+3, 2.0439342e+2, -934531.94, -1095393.1, -48370.563, 0.054323934, -0.56398815, -921107.4, 15781.922, 0.0, 10.000675, 9.998546 
1.875103e+3, 2.1439233e+2, -862067.75, -1014641.3, -47990.47, 0.028924497, -0.5311167, -848228.2, -9325.372, 0.0, 10.000521, 9.998501 
1.8750985e+3, 2.2439119e+2, -762344.0, -846310.2, -39439.438, 0.027046874, -0.51940376, -746724.56, -5809.51, 0.0, 10.000234, 9.999123 
1.8750943e+3, 2.3439023e+2, -731755.8, -782441.25, -37616.742, 0.053371567, -0.5350659, -711741.4, -68817.766, 0.0, 9.999778, 9.999108 
1.87509e+3, 2.4438938e+2, -673594.25, -675870.6, -37254.2, 0.054729264, -0.53598404, -637460.9, -92529.266, 0.0, 9.999385, 9.999356 
1.8750854e+3, 2.543889e+2, -624198.2, -605979.56, -37998.344, 0.02785431, -0.5246041, -576013.9, -129076.58, 0.0, 9.999071, 9.999314 
1.875081e+3, 2.6438835e+2, -537193.94, -460277.88, -32249.76, 0.031220635, -0.5260828, -448545.6, -99602.65, 0.0, 9.998767, 9.999788 
1.8750772e+3, 2.7438816e+2, -484306.63, -386445.47, -35974.336, 0.06333779, -0.53423166, -374644.22, -123699.055, 0.0, 9.998467, 9.999766 
1.8750729e+3, 2.8438824e+2, -402554.1, -249515.39, -28493.777, 0.05488925, -0.51540565, -244382.39, -91439.15, 0.0, 9.998155, 10.000184 
1.8750685e+3, 2.9438868e+2, -353823.7, -181585.5, -17604.645, 0.020615377, -0.49642912, -179804.52, -124867.39, 0.0, 9.997844, 10.000128 
1.8750663e+3, 3.0438685e+2, -392041.13, -251523.05, 58917.99, 0.07793861, -0.6531229, -230088.78, -230088.78, 0.0, 9.997574, 9.999443 
1.8750641e+3, 3.1438813e+2, -281801.84, 45578.49, -76921.24, 0.043898053, -0.47112837, 62751.11, 62751.11, 0.0, 9.997286, 10.001619 
1.8851459e+3, 1.24408655e+2, -1425991.8, -1731808.4, 23559.457, 0.087597005, -0.57803136, -1424187.5, 296550.28, 0.044327244, 10.002779, 9.998546 
1.8851407e+3, 1.3440712e+2, -1320495.8, -1597519.9, -23824.49, -0.0034169327, -0.6244534, -1318461.8, 304288.63, 0.030593988, 10.002651, 9.99886 
1.8851364e+3, 1.4440593e+2, -1300397.8, -1606386.8, -34270.883, 0.0071901754, -0.59714985, -1296606.4, 228155.81, 0.017183522, 10.002367, 9.998259 
1.8851322e+3, 1.5440439e+2, -1277634.6, -1556606.4, -28092.355, 0.042060558, -0.575612, -1274833.9, 151946.22, 0.0070692445, 10.001877, 9.998163 
1.8851277e+3, 1.6440278e+2, -1188930.6, -1413962.3, -24023.355, 0.048043802, -0.5680285, -1186394.5, 142402.48, 0.0017555967, 10.001594, 9.998606 
1.885123e+3, 1.7440133e+2, -1095518.3, -1321934.9, -29793.506, 0.016382363, -0.5802083, -1091663.5, 139147.11, 0.00014669658, 10.001576, 9.998573 
1.8851182e+3, 1.8439977e+2, -1028341.2, -1244571.3, -50750.395, 0.0146896085, -0.5859895, -1017022.25, 115803.125, 0.0000001366546, 10.0013895, 9.998522 
1.8851136e+3, 1.9439831e+2, -993260.06, -1183718.6, -47090.438, 0.05111425, -0.5853495, -982253.1, 52586.613, 0.0, 10.000987, 9.998461 
1.8851086e+3, 2.0439698e+2, -940888.06, -1098619.1, -39620.17, 0.058769535, -0.56598336, -931495.25, 5359.2065, 0.0, 10.000634, 9.998542 
1.8851036e+3, 2.1439594e+2, -888213.94, -1028378.3, -40682.902, 0.0305154, -0.52540606, -877261.44, -38393.79, 0.0, 10.000348, 9.998489 
1.8850987e+3, 2.2439481e+2, -789557.44, -855974.44, -39999.273, 0.025856402, -0.514419, -770778.0, -29898.1, 0.0, 10.000034, 9.999151 
1.885094e+3, 2.3439375e+2, -743537.9, -784709.06, -39766.383, 0.050045766, -0.54179645, -719344.75, -76455.99, 0.0, 9.999684, 9.999136 
1.8850894e+3, 2.443929e+2, -675441.2, -672368.06, -35620.598, 0.054570068, -0.54773396, -638250.9, -93354.26, 0.0, 9.999355, 9.9993925 
1.8850845e+3, 2.5439247e+2, -624765.1, -601947.8, -33492.938, 0.036704727, -0.5318801, -577973.8, -131072.22, 0.0, 9.999051, 9.999351 
1.8850799e+3, 2.6439202e+2, -542479.94, -460922.38, -23994.79, 0.0335027, -0.52921575, -454386.7, -105480.27, 0.0, 9.998726, 9.999803 
1.8850753e+3, 2.7439183e+2, -497956.4, -391744.2, -22165.434, 0.041244432, -0.53674835, -387304.1, -136395.84, 0.0, 9.998371, 9.999775 
1.8850708e+3, 2.843918e+2, -416267.78, -251047.45, -14775.147, 0.034206443, -0.53204346, -249736.56, -96829.164, 0.0, 9.998042, 10.000227 
1.8850663e+3, 2.9439202e+2, -369946.38, -187451.52, -12176.661, 0.029075913, -0.5371043, -186642.63, -131739.28, 0.0, 9.997727, 10.000142 
1.8850636e+3, 3.043908e+2, -421037.2, -279963.56, 71987.45, 0.05858948, -0.6264842, -249715.3, -249715.3, 0.0, 9.997439, 9.999311 
1.8850611e+3, 3.143915e+2, -276089.3, 74833.36, -49239.43, 0.023326918, -0.495591, 81611.43, 81611.43, 0.0, 9.997213, 10.001854 
1.8951482e+3, 1.24412395e+2, -1430586.0, -1742815.5, 17624.89, 0.045873992, -0.57411593, -1429594.3, 291106.63, 0.045780357, 10.002787, 9.998467 
1.8951437e+3, 1.3441081e+2, -1328385.4, -1613116.1, -28895.287, 0.022122227, -0.61551327, -1325482.5, 297232.22, 0.03165952, 10.002649, 9.998752 
1.895139e+3, 1.4440961e+2, -1289479.6, -1582685.9, -52086.03, 0.04067111, -0.5900128, -1280501.8, 244224.69, 0.017844489, 10.002364, 9.998424 
1.8951339e+3, 1.5440807e+2, -1264273.1, -1530442.0, -46957.684, 0.025697175, -0.58782035, -1256231.8, 170512.02, 0.00738753, 10.001883, 9.998342 
1.8951291e+3, 1.6440652e+2, -1197772.1, -1434702.9, -26045.207, 0.02180502, -0.57625365, -1194942.9, 133817.31, 0.0018571934, 10.001602, 9.998461 
1.8951246e+3, 1.7440523e+2, -1107106.1, -1346627.9, -30488.738, 0.028663717, -0.5551405, -1103286.1, 127487.234, 0.00016122115, 10.001577, 9.9984045 
1.8951197e+3, 1.844037e+2, -1020588.75, -1228729.9, -65022.656, 0.03584832, -0.5545798, -1001945.7, 130842.625, 0.00000020674742, 10.001389, 9.9986315 
1.8951143e+3, 1.9440208e+2, -983735.1, -1165473.9, -62188.434, 0.044752177, -0.5821721, -964492.56, 70310.77, 0.0, 10.000991, 9.998585 
1.8951091e+3, 2.0440067e+2, -941611.2, -1101969.8, -50439.016, 0.045911614, -0.57406366, -927065.5, 9752.678, 0.0, 10.00064, 9.998517 
1.895104e+3, 2.1439973e+2, -890217.44, -1033670.1, -51012.05, 0.037122723, -0.52279717, -873927.4, -35096.473, 0.0, 10.000351, 9.998453 
1.8950987e+3, 2.2439863e+2, -788266.6, -854379.0, -52469.727, 0.036044028, -0.5077114, -759308.44, -18465.486, 0.0, 10.000036, 9.999162 
1.8950938e+3, 2.3439752e+2, -742077.3, -783274.75, -52261.965, 0.04423395, -0.5398774, -706501.1, -63648.92, 0.0, 9.999689, 9.999145 
1.8950887e+3, 2.443967e+2, -669924.1, -662650.3, -46511.29, 0.050136022, -0.5472323, -619633.94, -74774.31, 0.0, 9.999361, 9.999458 
1.8950838e+3, 2.5439638e+2, -619207.2, -591828.5, -44290.434, 0.05504543, -0.5266661, -559160.06, -112297.266, 0.0, 9.999055, 9.999418 
1.8950787e+3, 2.6439595e+2, -535974.44, -448749.97, -36719.367, 0.049208038, -0.5291961, -435350.47, -86483.62, 0.0, 9.998729, 9.999885 
1.8950735e+3, 2.7439559e+2, -491953.94, -380787.16, -35019.7, 0.023603773, -0.5604543, -370675.1, -119805.37, 0.0, 9.998376, 9.999849 
1.8950684e+3, 2.8439546e+2, -419875.84, -260265.16, -26483.643, 0.005083363, -0.5688938, -255985.56, -103115.336, 0.0, 9.998047, 10.000162 
1.8950638e+3, 2.9439577e+2, -375668.25, -201415.75, -24176.402, 0.011092675, -0.5566592, -198123.63, -143257.47, 0.0, 9.997734, 10.000044 
1.8950607e+3, 3.043954e+2, -411485.0, -261561.9, 63151.9, 0.018590625, -0.55757403, -238506.14, -238506.14, 0.0, 9.997443, 9.999436 
1.8950583e+3, 3.1439495e+2, -262016.4, 104209.164, -60551.684, 0.031787496, -0.5564182, 113961.09, 113961.09, 0.0, 9.9972105, 10.002058 
1.905151e+3, 1.2441637e+2, -1373722.5, -1717853.5, 31063.217, 0.016916702, -0.58533156, -1370941.0, 349720.13, 0.047271304, 10.003218, 9.99843 
1.9051462e+3, 1.3441476e+2, -1364629.9, -1638083.4, -12042.388, 0.033388585, -0.6235207, -1364100.5, 258575.44, 0.032756284, 10.002427, 9.998685 
1.9051415e+3, 1.4441362e+2, -1330572.1, -1594489.9, -26839.959, 0.057912104, -0.59234124, -1327870.1, 196817.22, 0.018527925, 10.002044, 9.998495 
1.9051358e+3, 1.5441215e+2, -1219223.3, -1499858.1, -28789.555, 0.018383358, -0.5889161, -1216300.3, 210403.08, 0.007718689, 10.002159, 9.998417 
1.9051306e+3, 1.6441065e+2, -1149383.1, -1417647.6, -13687.329, 0.010270238, -0.5764191, -1148686.6, 180033.02, 0.001963835, 10.001965, 9.998402 
1.9051263e+3, 1.7440929e+2, -1140647.4, -1370600.6, -11862.58, 0.03866804, -0.5545441, -1140037.0, 90697.086, 0.00017665364, 10.001383, 9.998333 
1.905121e+3, 1.8440776e+2, -1064921.6, -1245301.3, -41134.613, 0.0489595, -0.55076104, -1055984.0, 76765.195, 0.00000030333933, 10.001065, 9.9986725 
1.9051154e+3, 1.9440627e+2, -967734.9, -1152762.8, -44317.883, 0.03754741, -0.57201326, -957667.56, 77095.43, 0.0, 10.001081, 9.998628 
1.9051099e+3, 2.0440488e+2, -910139.5, -1083915.0, -42671.34, 0.036158316, -0.5647, -900226.8, 36550.664, 0.0, 10.000846, 9.998541 
1.9051044e+3, 2.1440385e+2, -897080.94, -1034669.0, -40214.367, 0.04723639, -0.5231404, -886189.25, -47398.62, 0.0, 10.000297, 9.998471 
1.9050989e+3, 2.2440274e+2, -808208.25, -866393.3, -35285.355, 0.049743053, -0.5083957, -791568.56, -50765.88, 0.0, 9.999912, 9.999138 
1.9050933e+3, 2.3440172e+2, -737291.75, -784072.2, -37998.74, 0.041176938, -0.5297593, -716061.25, -73249.73, 0.0, 9.999738, 9.999115 
1.905088e+3, 2.4440086e+2, -655643.8, -651788.2, -39255.754, 0.04299301, -0.5400126, -614412.94, -69593.805, 0.0, 9.999444, 9.999491 
1.9050828e+3, 2.5440043e+2, -624797.75, -590429.3, -40000.83, 0.05916275, -0.5373123, -564077.75, -117254.805, 0.0, 9.9990015, 9.999453 
1.9050774e+3, 2.6440004e+2, -552121.5, -454714.6, -35196.18, 0.05106515, -0.5391195, -443328.16, -94501.76, 0.0, 9.998613, 9.999899 
1.9050716e+3, 2.7439985e+2, -503628.3, -384893.94, -38519.33, 0.008402008, -0.55237824, -373492.47, -122664.91, 0.0, 9.998292, 9.99986 
1.9050664e+3, 2.843996e+2, -423860.34, -263084.06, -27995.33, -0.010327162, -0.57274026, -258348.81, -105519.46, 0.0, 9.998026, 10.000152 
1.9050616e+3, 2.9439956e+2, -366567.4, -199394.89, -21737.818, 0.01005174, -0.5935641, -196614.52, -141785.77, 0.0, 9.997809, 10.00002 
1.9050577e+3, 3.044e+2, -403869.6, -228739.39, 67728.9, -0.010744504, -0.5265776, -205602.88, -205602.88, 0.0, 9.997373, 9.999695 
1.9050555e+3, 3.1439918e+2, -334572.75, 70172.18, -47455.453, 0.034212355, -0.5909351, 75661.77, 75661.77, 0.0, 9.996711, 10.002064 
1.915154e+3, 1.2442065e+2, -1375083.9, -1718869.0, 1508.2477, -0.0020509812, -0.61144584, -1375077.3, 345540.8, 0.04879973, 10.003213, 9.998426 
1.9151486e+3, 1.3441902e+2, -1366338.5, -1643183.5, -41398.758, 0.031101165, -0.64730364, -1360280.4, 262353.38, 0.033883143, 10.002434, 9.998649 
1.9151436e+3, 1.4441797e+2, -1331053.5, -1597743.9, -24956.191, 0.05962538, -0.6033458, -1328738.3, 195906.31, 0.019231623, 10.002052, 9.998469 
1.9151379e+3, 1.5441668e+2, -1220901.8, -1503964.8, -24817.072, 0.019318266, -0.5794001, -1218742.4, 207916.27, 0.008060078, 10.002161, 9.998388 
1.9151327e+3, 1.6441515e+2, -1148280.0, -1415699.9, -34369.875, 0.012446234, -0.5689725, -1143933.3, 184741.88, 0.002073773, 10.001965, 9.998417 
1.9151276e+3, 1.744135e+2, -1138772.9, -1368374.1, -33950.203, 0.04637724, -0.57735777, -1133858.0, 96834.44, 0.00019241177, 10.001388, 9.998346 
1.9151221e+3, 1.8441199e+2, -1066195.6, -1249861.3, -41789.17, 0.05420657, -0.57314044, -1057134.5, 75573.445, 0.0000004124449, 10.001072, 9.99864 
1.9151165e+3, 1.9441085e+2, -970115.8, -1158606.5, -43497.39, 0.029361133, -0.55496, -960562.25, 74156.67, 0.0, 10.001083, 9.998588 
1.9151106e+3, 2.0440955e+2, -905538.44, -1075112.4, -61861.79, 0.029288948, -0.5385491, -885369.7, 51362.777, 0.0, 10.000847, 9.998602 
1.9151048e+3, 2.144083e+2, -891784.3, -1025289.5, -60559.676, 0.060647897, -0.5263056, -868407.06, -29659.982, 0.0, 10.000301, 9.998534 
1.915099e+3, 2.2440714e+2, -811571.2, -875284.75, -42229.64, 0.06670816, -0.51614845, -790530.0, -49770.516, 0.0, 9.999918, 9.999075 
1.9150932e+3, 2.344063e+2, -741710.2, -794628.5, -43917.652, 0.040606365, -0.5118559, -716897.06, -74129.92, 0.0, 9.999742, 9.999042 
1.9150874e+3, 2.4440536e+2, -655389.0, -652703.06, -54620.6, 0.033094388, -0.52650684, -599408.94, -54633.38, 0.0, 9.999449, 9.999484 
1.9150817e+3, 2.5440452e+2, -624552.44, -591853.3, -56017.793, 0.04919742, -0.5631565, -549847.9, -103065.42, 0.0, 9.999008, 9.999441 
1.915076e+3, 2.6440415e+2, -555250.75, -463208.13, -47074.375, 0.039171595, -0.55837244, -443396.63, -94611.14, 0.0, 9.99862, 9.999838 
1.9150698e+3, 2.7440447e+2, -506999.75, -393653.9, -50046.676, -0.0043925596, -0.513792, -374719.34, -123936.875, 0.0, 9.998298, 9.999798 
1.9150645e+3, 2.844041e+2, -420510.44, -257764.13, -36052.84, -0.012294309, -0.5450235, -250135.05, -97349.43, 0.0, 9.998032, 10.000187 
1.9150595e+3, 2.944033e+2, -362993.75, -193619.48, -30449.578, 0.025028875, -0.64696497, -188311.7, -133519.81, 0.0, 9.997814, 10.000058 
1.9150549e+3, 3.0440444e+2, -375432.03, -171066.0, 43514.914, -0.03039478, -0.5325057, -162186.34, -162186.34, 0.0, 9.997376, 10.000091 
1.915052e+3, 3.1440422e+2, -349165.9, 38447.426, -68529.97, 0.02978224, -0.5751523, 50206.76, 50206.76, 0.0, 9.996715, 10.001845 
1.9251572e+3, 1.2442559e+2, -1415706.3, -1744961.5, 17157.686, -0.0038842035, -0.6146502, -1414814.5, 305755.06, 0.050357446, 10.002951, 9.998372 
1.925151e+3, 1.3442399e+2, -1327686.9, -1632826.0, -28627.463, 0.015646648, -0.64141434, -1325024.4, 297561.13, 0.03503257, 10.002752, 9.998565 
1.9251457e+3, 1.444229e+2, -1273663.9, -1571086.8, -1980.7234, 0.043893572, -0.59558094, -1273650.6, 250946.06, 0.019949425, 10.002465, 9.998452 
1.9251403e+3, 1.5442148e+2, -1234360.0, -1512081.3, -559.19183, 0.029544381, -0.58327466, -1234358.9, 192252.83, 0.00840757, 10.002077, 9.998372 
1.9251347e+3, 1.644199e+2, -1175961.8, -1428102.4, -18961.31, 0.028479658, -0.5751155, -1174543.9, 154084.55, 0.002184992, 10.001772, 9.998423 
1.925129e+3, 1.7441836e+2, -1113104.0, -1355400.4, -20369.934, 0.043381203, -0.5740068, -1111403.5, 119241.484, 0.00020795391, 10.001564, 9.998349 
1.9251233e+3, 1.8441688e+2, -1036900.44, -1237369.0, -20972.54, 0.04818495, -0.56606585, -1034729.8, 97930.44, 0.0000005155152, 10.001282, 9.998623 
1.9251175e+3, 1.9441566e+2, -996533.9, -1173580.3, -21549.404, 0.04014232, -0.5514756, -993948.75, 40723.234, 0.0, 10.000914, 9.998566 
1.9251114e+3, 2.0441437e+2, -936297.0, -1087219.1, -47454.453, 0.04325332, -0.53694665, -922616.06, 14069.623, 0.0, 10.000627, 9.998624 
1.9251052e+3, 2.1441314e+2, -870442.4, -1012411.06, -50005.816, 0.060742512, -0.5241332, -854597.25, -15897.47, 0.0, 10.000439, 9.998555 
1.925099e+3, 2.2441198e+2, -784980.9, -871455.75, -32157.246, 0.06350001, -0.5113776, -774333.6, -33621.363, 0.0, 10.000142, 9.998993 
1.925093e+3, 2.344111e+2, -752857.56, -810065.9, -35606.867, 0.04761692, -0.5023888, -735788.44, -93067.63, 0.0, 9.99971, 9.998949 
1.9250868e+3, 2.444101e+2, -663807.5, -651384.25, -46637.75, 0.03880479, -0.52005094, -610546.3, -65816.555, 0.0, 9.99937, 9.99953 
1.9250807e+3, 2.544092e+2, -601759.2, -574867.94, -43910.9, 0.038096126, -0.5682763, -542390.25, -95653.586, 0.0, 9.999141, 9.999492 
1.9250745e+3, 2.6440886e+2, -530051.94, -458283.06, -34210.652, 0.021530101, -0.5630279, -444588.66, -95849.164, 0.0, 9.998826, 9.999771 
1.925068e+3, 2.744092e+2, -497295.25, -397200.1, -38142.16, -0.012535551, -0.5055106, -384322.44, -133586.06, 0.0, 9.998402, 9.9997225 
1.9250625e+3, 2.8440878e+2, -421925.13, -256155.92, -22401.137, -0.00954167, -0.5377573, -253182.11, -100442.02, 0.0, 9.998014, 10.000205 
1.9250573e+3, 2.944079e+2, -381333.03, -197761.89, -18148.404, 0.03246638, -0.6502897, -195984.89, -141237.89, 0.0, 9.997671, 10.000098 
1.925052e+3, 3.0440933e+2, -367405.9, -135674.98, 43737.98, -0.059117302, -0.5251486, -127694.51, -127694.51, 0.0, 9.997298, 10.00037 
1.9250488e+3, 3.1440932e+2, -349898.47, -5810.453, -71529.3, 0.026762065, -0.5726136, 8466.717, 8466.717, 0.0, 9.9969015, 10.001451 
1.9351602e+3, 1.24431215e+2, -1423374.3, -1760871.0, 7818.893, 0.008519658, -0.5976571, -1423193.3, 297322.2, 0.051934242, 10.00295, 9.998264 
1.9351536e+3, 1.3442963e+2, -1336829.9, -1653004.1, -36757.434, -0.012744768, -0.6073841, -1332612.8, 289918.38, 0.036193907, 10.002756, 9.9984255 
1.9351476e+3, 1.4442839e+2, -1274154.6, -1573368.6, -16614.92, 0.011299431, -0.5699322, -1273234.9, 251308.89, 0.020672923, 10.00247, 9.998436 
1.9351424e+3, 1.5442654e+2, -1234525.0, -1513735.0, -15504.195, 0.048550498, -0.59986293, -1233666.8, 192895.63, 0.008756633, 10.002082, 9.99836 
1.9351368e+3, 1.6442493e+2, -1175982.6, -1429557.1, -27438.664, 0.0574492, -0.59400386, -1173047.6, 155531.53, 0.0022959346, 10.001776, 9.998412 
1.9351305e+3, 1.7442384e+2, -1113269.6, -1357306.0, -28372.967, 0.029987505, -0.54555005, -1110014.3, 120577.23, 0.000223007, 10.001569, 9.998335 
1.9351244e+3, 1.844224e+2, -1036771.5, -1238715.1, -34516.53, 0.031397175, -0.530898, -1031034.9, 101571.53, 0.000000599565, 10.001287, 9.998612 
1.9351186e+3, 1.9442074e+2, -996667.25, -1175404.4, -35355.35, 0.06900159, -0.561183, -989927.9, 44694.39, 0.0, 10.000918, 9.998551 
1.9351125e+3, 2.044193e+2, -937019.25, -1090259.9, -54660.53, 0.076954916, -0.5588961, -919520.25, 17116.982, 0.0, 10.000631, 9.998602 
1.9351055e+3, 2.1441834e+2, -871364.56, -1015895.0, -56630.33, 0.047774836, -0.51677465, -851818.8, -13169.943, 0.0, 10.000443, 9.99853 
1.9350989e+3, 2.2441722e+2, -791912.9, -887421.56, -47409.117, 0.040762115, -0.4945491, -772376.06, -31714.754, 0.0, 10.000147, 9.998882 
1.9350928e+3, 2.3441607e+2, -760495.0, -827538.1, -51160.723, 0.061866038, -0.50088435, -732851.9, -90179.03, 0.0, 9.999716, 9.998828 
1.9350864e+3, 2.4441503e+2, -656435.44, -637828.44, -54942.504, 0.05948538, -0.52015597, -591407.3, -46725.17, 0.0, 9.999375, 9.999621 
1.9350797e+3, 2.5441438e+2, -593590.6, -559601.1, -51866.285, 0.025755426, -0.5535201, -522016.28, -75330.18, 0.0, 9.999146, 9.999596 
1.935073e+3, 2.6441398e+2, -534864.56, -469845.78, -49444.176, -0.0018058744, -0.55407715, -443180.97, -94491.88, 0.0, 9.998831, 9.999691 
1.9350666e+3, 2.7441394e+2, -503400.06, -411549.4, -53723.844, -0.016595084, -0.5269891, -386796.66, -136106.77, 0.0, 9.998406, 9.999622 
1.9350606e+3, 2.8441358e+2, -421505.44, -256980.52, -35437.05, -0.002643978, -0.54982597, -249672.36, -96978.93, 0.0, 9.998019, 10.000197 
1.9350551e+3, 2.9441327e+2, -378067.78, -192713.02, -31289.406, 0.03261726, -0.60362095, -187573.61, -132878.66, 0.0, 9.997676, 10.000132 
1.9350488e+3, 3.044145e+2, -355184.78, -111733.33, 28670.06, -0.09668802, -0.50763774, -108402.57, -108402.57, 0.0, 9.997302, 10.000533 
1.9350457e+3, 3.144146e+2, -388575.53, -87736.97, -74967.914, 0.023711573, -0.557899, -70090.34, -70090.34, 0.0, 9.996906, 10.000886 
1.945163e+3, 1.2443707e+2, -1436005.5, -1765174.1, 17579.352, 0.0126238, -0.5728856, -1435069.4, 285389.6, 0.05352074, 10.002855, 9.99828 
1.9451563e+3, 1.3443531e+2, -1320140.1, -1645270.1, -17004.607, -0.02430479, -0.5993476, -1319253.3, 303222.94, 0.03735767, 10.002883, 9.998416 
1.9451502e+3, 1.4443398e+2, -1245838.3, -1562255.0, -4991.6978, -0.004533489, -0.56940854, -1245759.5, 278729.88, 0.02139506, 10.002686, 9.998407 
1.9451447e+3, 1.544321e+2, -1219880.3, -1509802.0, -6405.9897, 0.050539814, -0.59906733, -1219738.9, 206769.25, 0.009103926, 10.0022, 9.998329 
1.9451387e+3, 1.644305e+2, -1162635.0, -1419032.5, -8951.2705, 0.06650735, -0.592134, -1162322.9, 166201.67, 0.002405855, 10.001853, 9.9984455 
1.9451322e+3, 1.7442946e+2, -1093614.9, -1343564.5, -6367.2407, 0.032313302, -0.54186636, -1093452.8, 137083.4, 0.0002375857, 10.001688, 9.998371 
1.9451259e+3, 1.8442799e+2, -1023258.44, -1241241.5, -20455.045, 0.032289058, -0.52956355, -1021355.56, 111195.88, 0.0000006629477, 10.001421, 9.998529 
1.9451198e+3, 1.9442616e+2, -987594.5, -1181147.3, -27899.53, 0.075396605, -0.56707937, -983653.2, 50916.184, 0.0, 10.001027, 9.998459 
1.9451131e+3, 2.0442466e+2, -925229.0, -1084875.6, -43472.316, 0.086069666, -0.5637779, -914158.94, 22425.977, 0.0, 10.000715, 9.998597 
1.9451061e+3, 2.144238e+2, -861931.5, -1011357.0, -44012.496, 0.055769056, -0.5107752, -849931.56, -11336.134, 0.0, 10.00051, 9.998528 
1.9450991e+3, 2.244227e+2, -783002.75, -883771.75, -38686.875, 0.0450661, -0.48752034, -769863.44, -29255.74, 0.0, 10.000213, 9.998875 
1.9450925e+3, 2.3442143e+2, -749531.25, -823271.94, -35357.637, 0.059920587, -0.5046387, -735317.5, -92697.19, 0.0, 9.999797, 9.9988165 
1.9450858e+3, 2.4442038e+2, -653086.06, -642380.56, -34849.375, 0.05833107, -0.5221508, -612475.25, -67845.336, 0.0, 9.999427, 9.999563 
1.9450788e+3, 2.5441983e+2, -602882.44, -570928.1, -43817.5, 0.033141416, -0.53875446, -540265.75, -93632.516, 0.0, 9.999114, 9.999533 
1.945072e+3, 2.6441938e+2, -534726.06, -462571.2, -46574.582, 0.0009014193, -0.5440822, -439735.38, -91098.695, 0.0, 9.998803, 9.999753 
1.9450648e+3, 2.7441913e+2, -486918.16, -395975.16, -39228.13, -0.032335144, -0.54661775, -381392.5, -130753.555, 0.0, 9.998489, 9.999688 
1.9450584e+3, 2.8441882e+2, -410651.1, -261185.9, -17103.0, -0.016767137, -0.5593016, -259253.81, -106612.336, 0.0, 9.9981365, 10.000111 
1.9450529e+3, 2.94419e+2, -372211.56, -197214.56, -19943.01, 0.037495364, -0.5595201, -194970.6, -140331.1, 0.0, 9.99775, 10.000064 
1.945046e+3, 3.044197e+2, -335393.3, -77391.5, 34493.8, -0.11836488, -0.52242213, -72859.43, -72859.43, 0.0, 9.9973345, 10.000752 
1.9450426e+3, 3.1442016e+2, -405338.88, -114030.32, -48213.13, 0.021887466, -0.5531943, -106258.16, -106258.16, 0.0, 9.996872, 10.000721 
1.9551659e+3, 1.24443196e+2, -1427059.8, -1746683.5, 16292.073, 0.0068145343, -0.5414195, -1426231.4, 294168.44, 0.05510992, 10.002863, 9.998404 
1.9551592e+3, 1.3444108e+2, -1313114.4, -1630285.4, -16578.975, -0.019894185, -0.6158588, -1312250.1, 310169.75, 0.038519535, 10.002886, 9.998519 
1.9551529e+3, 1.4443968e+2, -1248952.4, -1569170.5, -22578.605, -0.0045722513, -0.5925632, -1247368.1, 277065.0, 0.022113826, 10.0026865, 9.998361 
1.9551468e+3, 1.5443815e+2, -1222866.3, -1517961.9, -25147.266, 0.036041703, -0.5816416, -1220738.6, 205710.17, 0.009448931, 10.002207, 9.998271 
1.9551404e+3, 1.6443661e+2, -1156480.4, -1408618.3, -16146.803, 0.056472935, -0.57054293, -1155450.5, 173014.14, 0.0025148941, 10.001862, 9.998514 
1.955134e+3, 1.7443524e+2, -1087734.0, -1332765.9, -12837.475, 0.049493596, -0.56184864, -1087063.3, 143415.39, 0.0002518684, 10.001692, 9.998444 
1.9551274e+3, 1.8443361e+2, -1033868.8, -1264423.3, -34983.758, 0.04977281, -0.5603871, -1028677.4, 103818.0, 0.00000071117205, 10.001424, 9.998369 
1.9551206e+3, 1.944319e+2, -998920.7, -1206493.1, -42628.72, 0.0600589, -0.5691331, -990507.2, 44006.15, 0.0, 10.001033, 9.998283 
1.9551137e+3, 2.0443045e+2, -924040.75, -1084320.4, -51301.867, 0.071626246, -0.55225587, -909026.6, 27502.303, 0.0, 10.000722, 9.998599 
1.9551069e+3, 2.1442956e+2, -860524.06, -1009789.0, -51257.74, 0.08392857, -0.50607735, -844617.25, -6077.619, 0.0, 10.000514, 9.998538 
1.9550996e+3, 2.2442839e+2, -776353.3, -871305.06, -53440.453, 0.07525837, -0.48993948, -752346.06, -11794.275, 0.0, 10.0002165, 9.99896 
1.9550921e+3, 2.3442715e+2, -742441.9, -810332.1, -50406.215, 0.042008474, -0.5137629, -715616.5, -73052.805, 0.0, 9.999803, 9.998904 
1.955085e+3, 2.444261e+2, -666694.06, -672584.9, -46292.465, 0.03588634, -0.52615345, -623253.4, -78679.84, 0.0, 9.9994335, 9.999354 
1.9550782e+3, 2.5442553e+2, -618377.44, -604749.0, -54950.016, 0.059509873, -0.52341604, -556192.3, -109613.73, 0.0, 9.999119, 9.999299 
1.955071e+3, 2.6442498e+2, -520240.94, -434149.47, -57945.79, 0.028671015, -0.5326904, -405010.38, -56427.625, 0.0, 9.998808, 9.999947 
1.955063e+3, 2.7442464e+2, -470597.56, -363958.0, -50955.973, -0.05961685, -0.5653297, -343524.75, -92940.45, 0.0, 9.998495, 9.999907 
1.9550563e+3, 2.844245e+2, -421810.06, -285867.1, -31811.889, -0.051547453, -0.5667385, -278791.13, -126206.055, 0.0, 9.998141, 9.99994 
1.9550507e+3, 2.9442495e+2, -383934.0, -222453.89, -34356.758, 0.046501987, -0.51649714, -215448.05, -160866.72, 0.0, 9.997752, 9.99989 
1.9550432e+3, 3.0442482e+2, -316963.56, -40396.95, 16649.113, -0.124830835, -0.57017565, -39398.29, -39398.29, 0.0, 9.997337, 10.001006 
1.9550395e+3, 3.1442603e+2, -386061.6, -76780.836, -46813.82, 0.019203823, -0.5512917, -69850.24, -69850.24, 0.0, 9.9968815, 10.000974 
1.9651687e+3, 1.24449246e+2, -1372524.5, -1716831.8, 38958.25, -0.012435062, -0.55925, -1368171.5, 352168.2, 0.056699432, 10.003257, 9.998419 
1.9651622e+3, 1.3444725e+2, -1326650.8, -1637637.5, -506.78275, -0.0026217517, -0.61913174, -1326650.0, 295708.8, 0.039681073, 10.002797, 9.998509 
1.9651556e+3, 1.4444593e+2, -1269569.4, -1576499.6, -9187.876, 0.015045547, -0.59088624, -1269294.5, 255077.13, 0.022831904, 10.002534, 9.998383 
1.9651489e+3, 1.5444437e+2, -1175943.1, -1492225.4, -6465.6675, 0.022295052, -0.5868914, -1175811.0, 250576.47, 0.009793364, 10.002522, 9.998294 
1.9651422e+3, 1.6444275e+2, -1098986.3, -1386466.5, -2578.1968, 0.037175912, -0.5808612, -1098963.1, 229440.75, 0.0026236707, 10.002285, 9.998462 
1.965136e+3, 1.7444128e+2, -1081016.4, -1335757.3, -9455.628, 0.0591688, -0.57499325, -1080665.9, 149752.86, 0.0002660043, 10.001767, 9.998386 
1.9651291e+3, 1.8443967e+2, -1041829.0, -1274584.8, -31502.05, 0.06600562, -0.5670892, -1037640.75, 94795.07, 0.0000007473898, 10.001399, 9.998311 
1.9651218e+3, 1.9443808e+2, -976471.25, -1202239.9, -31303.428, 0.05504446, -0.55756885, -972211.3, 62241.86, 0.0, 10.001218, 9.998222 
1.9651145e+3, 2.0443662e+2, -892955.2, -1068358.9, -36788.387, 0.063405566, -0.53886163, -885551.8, 50917.223, 0.0, 10.000933, 9.998606 
1.9651075e+3, 2.1443553e+2, -859054.1, -1007920.2, -37270.984, 0.094947815, -0.51157814, -850244.1, -11763.104, 0.0, 10.000522, 9.998546 
1.9651e+3, 2.2443433e+2, -780344.56, -872921.1, -43083.54, 0.090793274, -0.5004295, -763396.8, -22903.47, 0.0, 10.00019, 9.99896 
1.965092e+3, 2.3443322e+2, -719938.0, -799565.25, -47206.8, 0.04397741, -0.5114041, -697997.25, -55493.086, 0.0, 9.99996, 9.998901 
1.9650845e+3, 2.4443221e+2, -644595.25, -669170.3, -44722.79, 0.03358996, -0.5167659, -610502.7, -65988.766, 0.0, 9.999619, 9.999288 
1.9650774e+3, 2.5443155e+2, -621401.06, -614251.25, -42090.793, 0.06371969, -0.51582724, -575583.8, -129063.484, 0.0, 9.999135, 9.999225 
1.9650698e+3, 2.644309e+2, -522578.25, -427986.56, -39028.508, 0.031851936, -0.5328079, -413962.6, -65437.227, 0.0, 9.998763, 10.00001 
1.9650614e+3, 2.7443054e+2, -462232.84, -352389.03, -43147.246, -0.06422183, -0.5757836, -337467.53, -86940.85, 0.0, 9.998522, 9.999972 
1.9650544e+3, 2.8443053e+2, -417329.03, -285413.88, -29951.635, -0.051219665, -0.5654523, -278931.8, -126405.94, 0.0, 9.998181, 9.999923 
1.9650486e+3, 2.9443124e+2, -389524.88, -226564.02, -20154.84, 0.06052389, -0.48931772, -224108.3, -169588.3, 0.0, 9.997722, 9.999876 
1.9650404e+3, 3.044304e+2, -333658.03, -60347.92, 22844.217, -0.13359468, -0.60840374, -58451.68, -58451.68, 0.0, 9.997276, 10.000897 
1.9650362e+3, 3.1443194e+2, -367802.38, -45238.824, -44582.12, 0.01100784, -0.5428329, -39190.453, -39190.453, 0.0, 9.99691, 10.001175 
1.9751716e+3, 1.2445528e+2, -1377946.5, -1729914.0, 20716.88, -0.045021195, -0.6239455, -1376731.3, 343546.63, 0.058294192, 10.003266, 9.998324 
1.9751653e+3, 1.3445392e+2, -1334212.9, -1655300.8, -18148.14, 0.026151776, -0.6096278, -1333190.4, 289102.16, 0.040848214, 10.002804, 9.998386 
1.9751586e+3, 1.444527e+2, -1263341.5, -1564680.4, -11129.277, 0.05242056, -0.56558925, -1262931.0, 261373.67, 0.02355414, 10.00254, 9.998462 
1.9751513e+3, 1.5445071e+2, -1168822.1, -1479031.3, -7315.0513, 0.009129307, -0.6134659, -1168649.8, 257674.14, 0.010139796, 10.002529, 9.998383 
1.9751443e+3, 1.6444893e+2, -1110178.1, -1411616.9, -21546.396, 0.009116158, -0.62117994, -1108645.9, 219696.03, 0.0027330357, 10.002291, 9.998287 
1.9751376e+3, 1.7444761e+2, -1093476.8, -1363429.3, -29190.371, 0.06152218, -0.58152235, -1090356.5, 139999.92, 0.0002801359, 10.001773, 9.998195 
1.9751304e+3, 1.8444614e+2, -1039014.44, -1270362.1, -39038.914, 0.08091849, -0.5508617, -1032604.4, 99768.336, 0.00000077122036, 10.001404, 9.998339 
1.975123e+3, 1.9444467e+2, -973157.7, -1196657.1, -38008.242, 0.05983216, -0.53312755, -966870.8, 67518.336, 0.0, 10.001222, 9.99826 
1.9751154e+3, 2.0444314e+2, -891900.5, -1067555.6, -51650.426, 0.060996193, -0.5237441, -877838.7, 58566.84, 0.0, 10.000937, 9.9986105 
1.975108e+3, 2.1444175e+2, -858064.9, -1007690.06, -52371.668, 0.08919993, -0.52685785, -841555.44, -3135.741, 0.0, 10.000527, 9.998546 
1.9751002e+3, 2.2444047e+2, -785741.56, -885978.25, -51717.22, 0.09208384, -0.51858735, -763842.44, -23409.77, 0.0, 10.0001955, 9.998868 
1.9750921e+3, 2.344396e+2, -726143.44, -813880.7, -55219.11, 0.06516349, -0.4976478, -699488.25, -57046.203, 0.0, 9.999964, 9.998802 
1.9750842e+3, 2.4443863e+2, -639215.4, -659488.4, -61809.81, 0.050659806, -0.4942733, -586716.4, -42264.91, 0.0, 9.999622, 9.999353 
1.9750763e+3, 2.544378e+2, -615327.25, -603415.06, -59797.12, 0.046098042, -0.5162282, -549278.1, -102819.07, 0.0, 9.999141, 9.999297 
1.9750683e+3, 2.6443708e+2, -526625.44, -438213.16, -48266.895, 0.0110270595, -0.5444466, -416967.97, -68502.875, 0.0, 9.998769, 9.999938 
1.9750603e+3, 2.7443674e+2, -467658.9, -365191.8, -52162.633, -0.04676615, -0.5776664, -343310.25, -92843.53, 0.0, 9.998527, 9.999883 
1.975053e+3, 2.8443685e+2, -407788.2, -267270.8, -46876.613, -0.016941866, -0.55531317, -253068.27, -100603.75, 0.0, 9.998186, 10.000047 
1.9750465e+3, 2.9443768e+2, -379329.22, -207502.63, -37926.086, 0.07878276, -0.4785215, -199503.83, -145047.39, 0.0, 9.997728, 10.000005 
1.9750376e+3, 3.0443627e+2, -366831.3, -130728.5, 6647.3438, -0.14450385, -0.6367456, -130541.5, -130541.5, 0.0, 9.997281, 10.000413 
1.975033e+3, 3.1443772e+2, -354910.9, -19466.703, -32764.098, -0.006093985, -0.5341161, -16296.471, -16296.471, 0.0, 9.996912, 10.001353 
1.985175e+3, 1.24462e+2, -1345739.6, -1728283.1, 27274.541, -0.049774263, -0.6519949, -1343804.9, 376405.44, 0.059905183, 10.003573, 9.998187 
1.9851683e+3, 1.3446054e+2, -1303359.0, -1657706.8, -14003.092, 0.03000518, -0.62878555, -1302806.4, 319420.2, 0.04202892, 10.003108, 9.998222 
1.9851613e+3, 1.4445935e+2, -1221664.0, -1538340.6, 4773.491, 0.054667525, -0.5777951, -1221592.1, 302646.94, 0.024285633, 10.002812, 9.99851 
1.9851539e+3, 1.544575e+2, -1136277.3, -1456377.4, 6962.5957, 0.0027090418, -0.6186875, -1136125.9, 290130.75, 0.010490902, 10.002728, 9.998441 
1.9851466e+3, 1.644557e+2, -1092278.1, -1414200.1, -22567.168, 0.0008433944, -0.62338316, -1090703.9, 237570.8, 0.0028440533, 10.002465, 9.998184 
1.9851395e+3, 1.7445427e+2, -1071683.9, -1365422.6, -26006.742, 0.060087517, -0.5853571, -1069399.1, 160891.9, 0.00029456127, 10.001979, 9.99808 
1.9851321e+3, 1.8445274e+2, -1016016.6, -1259545.4, -25536.26, 0.08562593, -0.552927, -1013367.7, 118940.445, 0.0000007914033, 10.001566, 9.998334 
1.9851242e+3, 1.9445132e+2, -969908.56, -1194974.1, -27289.074, 0.069571406, -0.5295549, -966647.06, 67677.1, 0.0, 10.0012455, 9.998259 
1.9851165e+3, 2.044498e+2, -888519.56, -1065614.9, -45608.164, 0.067302845, -0.5194773, -877464.06, 58876.355, 0.0, 10.000961, 9.9986105 
1.9851084e+3, 2.1444836e+2, -830222.75, -994308.4, -47214.18, 0.08171928, -0.52786124, -817607.2, 20747.674, 0.0, 10.000721, 9.998544 
1.9851004e+3, 2.2444706e+2, -758392.7, -873322.94, -44631.492, 0.084226616, -0.523121, -743096.5, -2728.3452, 0.0, 10.000388, 9.998861 
1.9850923e+3, 2.3444614e+2, -730469.6, -816772.3, -41886.402, 0.07373469, -0.5032494, -713483.56, -71105.76, 0.0, 9.99994, 9.998793 
1.985084e+3, 2.4444522e+2, -649171.0, -663183.0, -49360.63, 0.063063316, -0.49572074, -606321.7, -61934.695, 0.0, 9.999552, 9.999361 
1.9850756e+3, 2.544445e+2, -600646.9, -595413.9, -52364.17, 0.046259344, -0.5076116, -545600.9, -99207.11, 0.0, 9.999239, 9.999304 
1.9850671e+3, 2.6444378e+2, -511733.13, -437108.5, -40031.496, 0.008907705, -0.5313411, -419696.7, -71296.766, 0.0, 9.9988985, 9.999882 
1.9850588e+3, 2.7444336e+2, -474092.1, -375499.97, -42416.527, -0.037382822, -0.56597114, -359763.25, -109360.586, 0.0, 9.998516, 9.999816 
1.9850513e+3, 2.8444344e+2, -398925.13, -259869.19, -39960.582, -0.0054874592, -0.54517716, -249203.72, -96802.86, 0.0, 9.998236, 10.0000725 
1.9850443e+3, 2.9444426e+2, -331956.63, -182799.33, -39822.6, 0.076995574, -0.47248408, -172833.22, -118440.7, 0.0, 9.998048, 10.00002 
1.985035e+3, 3.0444285e+2, -363733.97, -165526.25, -6380.5957, -0.15034941, -0.61897373, -165321.06, -165321.06, 0.0, 9.99746, 10.000086 
1.9850297e+3, 3.1444386e+2, -386672.78, -7618.439, -4538.5273, -0.008944891, -0.5256962, -7564.1055, -7564.1055, 0.0, 9.996579, 10.001594 
1.9951788e+3, 1.24469385e+2, -1359038.1, -1755828.0, 8687.542, -0.03089129, -0.6468476, -1358848.0, 361288.66, 0.061545417, 10.003571, 9.997999 
1.9951713e+3, 1.3446721e+2, -1316333.1, -1688348.6, -31595.89, 0.010232845, -0.67465746, -1313668.8, 308491.47, 0.043232605, 10.00312, 9.998008 
1.9951639e+3, 1.444659e+2, -1218776.5, -1535582.3, 264.72812, 0.023981562, -0.62486726, -1218776.3, 305397.72, 0.02503264, 10.002827, 9.998524 
1.9951566e+3, 1.5446468e+2, -1134361.3, -1453225.6, 3157.4363, 0.0024506059, -0.6036711, -1134330.0, 291855.7, 0.010850317, 10.002731, 9.998462 
1.9951491e+3, 1.6446307e+2, -1095406.4, -1420809.4, -40644.418, 0.010918901, -0.58969516, -1090406.5, 237795.63, 0.0029583636, 10.002463, 9.99814 
1.9951414e+3, 1.7446123e+2, -1074329.0, -1372479.6, -44576.12, 0.054881167, -0.5866054, -1067807.3, 162415.3, 0.0003098211, 10.001984, 9.998031 
1.9951336e+3, 1.8445948e+2, -1017904.6, -1265614.6, -38039.805, 0.080529444, -0.5722472, -1012194.6, 120047.266, 0.00000083281077, 10.001573, 9.99829 
1.9951256e+3, 1.9445805e+2, -972189.8, -1201415.9, -39225.914, 0.08384028, -0.5457515, -965663.2, 68594.88, 0.0, 10.00125, 9.998213 
1.9951175e+3, 2.044566e+2, -888699.75, -1067511.0, -54583.234, 0.081767574, -0.52545524, -873354.75, 62919.0, 0.0, 10.000966, 9.998597 
1.9951092e+3, 2.1445534e+2, -830545.44, -996445.8, -55853.11, 0.072491854, -0.51508904, -813494.1, 24792.7, 0.0, 10.000726, 9.998528 
1.9951005e+3, 2.2445402e+2, -752760.0, -863076.44, -60736.426, 0.06748071, -0.51461405, -725873.5, 14426.652, 0.0, 10.000392, 9.998931 
1.9950922e+3, 2.3445283e+2, -724746.5, -806405.06, -58197.137, 0.06991925, -0.52774143, -694484.75, -52173.105, 0.0, 9.999945, 9.998863 
1.9950837e+3, 2.4445194e+2, -652272.56, -671359.2, -60893.527, 0.07082447, -0.52034223, -600179.06, -55858.29, 0.0, 9.9995575, 9.999303 
1.9950749e+3, 2.5445157e+2, -604353.8, -604780.75, -63583.184, 0.06349271, -0.4900114, -540983.75, -94658.695, 0.0, 9.999245, 9.999238 
1.9950661e+3, 2.64451e+2, -514352.3, -444160.78, -54101.094, 0.024735354, -0.49388984, -414769.03, -66438.58, 0.0, 9.998903, 9.999832 
1.9950573e+3, 2.7445042e+2, -477214.56, -383595.9, -56560.04, -0.036083512, -0.54059243, -356987.6, -106652.43, 0.0, 9.998521, 9.99976 
1.9950494e+3, 2.8445026e+2, -403070.38, -270233.56, -47283.906, -0.016615972, -0.53530174, -255121.77, -102786.05, 0.0, 9.998241, 10.0 
1.9950421e+3, 2.9445094e+2, -338114.75, -197333.92, -48708.67, 0.054921422, -0.47276106, -182124.42, -127795.26, 0.0, 9.998054, 9.999918 
1.9950323e+3, 3.0444998e+2, -376116.53, -192081.42, -41480.43, -0.1507922, -0.5533431, -183164.06, -183164.06, 0.0, 9.997462, 9.999904 
1.9950263e+3, 3.1445026e+2, -367409.03, 31406.096, -11432.406, -0.0019584286, -0.517385, 31733.547, 31733.547, 0.0, 9.99658, 10.001863 
2.0051827e+3, 1.2447696e+2, -1373900.0, -1763761.3, 13706.185, -0.004802355, -0.63415575, -1373418.6, 346643.88, 0.063225694, 10.00347, 9.9979925 
2.0051745e+3, 1.3447456e+2, -1247988.3, -1656598.0, -12612.863, -0.005574101, -0.6816442, -1247599.3, 374488.16, 0.044468734, 10.003629, 9.997979 
2.0051666e+3, 1.444731e+2, -1148469.3, -1518378.4, 10973.736, -0.0014824328, -0.63842463, -1148144.0, 375958.72, 0.02580235, 10.003402, 9.998364 
2.0051594e+3, 1.5447181e+2, -1149167.3, -1479208.3, -565.96893, 0.011283399, -0.60575986, -1149166.3, 276949.4, 0.0112224715, 10.002712, 9.998292 
2.0051517e+3, 1.6447021e+2, -1119298.9, -1424336.1, -45000.64, 0.028821263, -0.5861763, -1112798.6, 215333.78, 0.0030779804, 10.002267, 9.99821 
2.0051435e+3, 1.7446843e+2, -1048897.1, -1351192.4, -40065.332, 0.050576616, -0.58514607, -1043677.1, 186474.67, 0.0003265317, 10.002122, 9.99811 
2.0051351e+3, 1.8446669e+2, -980428.9, -1251531.0, -31259.41, 0.068391256, -0.57281095, -976871.2, 155299.88, 0.0000009170216, 10.001849, 9.998252 
2.0051269e+3, 1.9446519e+2, -950889.4, -1196211.9, -33128.684, 0.08175739, -0.54796755, -946494.4, 87693.65, 0.0, 10.001421, 9.998165 
2.0051186e+3, 2.0446375e+2, -875394.2, -1059878.1, -44272.086, 0.083404966, -0.52592796, -865320.0, 70883.96, 0.0, 10.001054, 9.998606 
2.0051098e+3, 2.1446253e+2, -824491.75, -992333.25, -44018.164, 0.06990722, -0.5095209, -813648.1, 24568.477, 0.0, 10.000764, 9.998536 
2.005101e+3, 2.2446126e+2, -743177.25, -849242.5, -53744.574, 0.063350126, -0.50826186, -720705.3, 19524.008, 0.0, 10.000421, 9.999011 
2.005092e+3, 2.3446012e+2, -709626.1, -789850.2, -51259.32, 0.06780724, -0.52753866, -684649.8, -42409.68, 0.0, 10.0000105, 9.998944 
2.0050833e+3, 2.4445918e+2, -646414.0, -672875.4, -50080.38, 0.07001488, -0.52449286, -607846.06, -63596.68, 0.0, 9.999618, 9.999263 
2.0050742e+3, 2.5445879e+2, -607641.1, -611504.6, -51444.914, 0.063261345, -0.49497187, -558091.7, -111837.055, 0.0, 9.999246, 9.99919 
2.0050651e+3, 2.6445824e+2, -521307.8, -452991.75, -42527.47, 0.027767988, -0.48843727, -432602.97, -84343.03, 0.0, 9.998881, 9.999781 
2.0050558e+3, 2.7445778e+2, -479750.6, -390574.47, -44553.9, -0.02719621, -0.5146334, -372129.63, -121866.06, 0.0, 9.998529, 9.999706 
2.0050476e+3, 2.844575e+2, -404619.06, -270727.13, -27919.926, -0.012218519, -0.52125686, -265138.38, -112872.695, 0.0, 9.998231, 10.0 
2.00504e+3, 2.9445776e+2, -354977.53, -206614.5, -25979.574, 0.0443761, -0.49972367, -202196.81, -147933.89, 0.0, 9.997945, 9.999906 
2.00503e+3, 3.0445746e+2, -392087.06, -200398.58, -29439.676, -0.13337892, -0.5151912, -195979.11, -195979.11, 0.0, 9.997358, 9.999895 
2.0050228e+3, 3.1445748e+2, -360994.03, 37648.086, 35957.01, -0.0069091325, -0.50666964, 40865.395, 40865.395, 0.0, 9.996613, 10.001889 
2.0151864e+3, 1.2448477e+2, -1362453.1, -1740278.8, 16391.395, 0.026393764, -0.61512524, -1361743.4, 358244.03, 0.064955264, 10.003483, 9.998149 
2.0151779e+3, 1.3448262e+2, -1238551.5, -1636187.4, -8077.1235, -0.018081678, -0.6524878, -1238387.5, 383620.6, 0.045745816, 10.003632, 9.998118 
2.0151699e+3, 1.4448096e+2, -1171314.0, -1566751.1, -13735.336, -0.02240959, -0.6210216, -1170837.5, 353187.53, 0.02660151, 10.003402, 9.998033 
2.0151623e+3, 1.5447895e+2, -1173169.3, -1531184.5, -26738.703, 0.028322991, -0.6239193, -1171183.3, 254862.86, 0.011611653, 10.002718, 9.997933 
2.0151542e+3, 1.6447718e+2, -1106452.4, -1399734.8, -51679.938, 0.05382191, -0.61079794, -1097612.3, 230452.72, 0.0032048475, 10.0022745, 9.998377 
2.0151456e+3, 1.7447588e+2, -1034649.9, -1322984.9, -45762.918, 0.046987377, -0.58102036, -1027560.94, 202517.9, 0.00034520094, 10.002126, 9.998302 
2.0151368e+3, 1.8447435e+2, -982896.25, -1257682.4, -47063.74, 0.049453743, -0.55559576, -975059.0, 157036.75, 0.0000010607014, 10.001852, 9.99821 
2.0151281e+3, 1.9447273e+2, -954293.94, -1204598.0, -49214.67, 0.06397748, -0.536828, -944965.06, 89149.01, 0.0, 10.001425, 9.998107 
2.0151195e+3, 2.044712e+2, -873052.1, -1056418.6, -55239.152, 0.072709724, -0.5211456, -857697.1, 78433.984, 0.0, 10.001059, 9.998629 
2.0151106e+3, 2.1446995e+2, -822248.0, -988780.06, -54494.492, 0.07352169, -0.5109407, -806000.8, 32143.564, 0.0, 10.000767, 9.998561 
2.0151015e+3, 2.244688e+2, -736940.5, -837448.06, -68620.02, 0.07119866, -0.5038451, -702140.5, 38015.56, 0.0, 10.000423, 9.999092 
2.0150921e+3, 2.3446792e+2, -703127.4, -777812.44, -66225.03, 0.067168646, -0.5031625, -664442.1, -22278.445, 0.0, 10.000014, 9.999025 
2.0150828e+3, 2.4446695e+2, -647615.8, -677132.25, -63789.16, 0.06072981, -0.5088105, -596899.94, -52726.586, 0.0, 9.999623, 9.999232 
2.0150733e+3, 2.5446606e+2, -609660.56, -617349.8, -65131.05, 0.04586489, -0.522045, -548260.75, -102077.68, 0.0, 9.999251, 9.999149 
2.0150639e+3, 2.644655e+2, -524512.1, -461362.03, -55747.22, 0.018332379, -0.51402855, -428868.88, -80679.94, 0.0, 9.998887, 9.9997225 
2.0150545e+3, 2.744655e+2, -482855.8, -398674.34, -57141.234, -0.0109168505, -0.48797652, -369795.0, -119606.445, 0.0, 9.998535, 9.999649 
2.015046e+3, 2.8446513e+2, -399453.34, -261567.61, -38766.29, 0.0069871442, -0.50339955, -251415.95, -99224.4, 0.0, 9.998236, 10.000062 
2.015038e+3, 2.9446477e+2, -350028.4, -197582.4, -39438.68, 0.044207852, -0.5529716, -187983.77, -133789.14, 0.0, 9.997948, 9.999968 
2.0150277e+3, 3.044652e+2, -379518.5, -175075.88, -59454.523, -0.0976024, -0.5030746, -159043.06, -159043.06, 0.0, 9.99736, 10.00007 
2.0150194e+3, 3.1446564e+2, -378352.38, 11.62331, 23995.717, -0.026038783, -0.47217944, 1527.3517, 1527.3517, 0.0, 9.996616, 10.001631 
2.0251901e+3, 1.24492615e+2, -1296391.6, -1706647.8, 26355.717, 0.03315589, -0.6094314, -1294705.4, 425205.7, 0.0667436, 10.003976, 9.998147 
2.0251818e+3, 1.3449049e+2, -1236862.9, -1637013.5, -7868.856, 0.00034687246, -0.64202696, -1236708.1, 385222.94, 0.047070254, 10.003658, 9.998099 
2.0251733e+3, 1.4448877e+2, -1188687.3, -1580256.4, -25807.762, -0.005271461, -0.612774, -1186993.6, 336954.66, 0.02743433, 10.0033045, 9.997986 
2.0251651e+3, 1.5448663e+2, -1150565.6, -1525916.1, -18707.736, 0.03206945, -0.6242043, -1149635.5, 276335.53, 0.01202056, 10.002903, 9.997879 
2.0251566e+3, 1.644848e+2, -1070227.3, -1383048.9, -27896.902, 0.05141496, -0.6146167, -1067759.0, 260231.64, 0.0033402527, 10.00253, 9.998366 
2.0251477e+3, 1.7448351e+2, -1025127.06, -1319290.9, -36376.094, 0.04690298, -0.5819827, -1020695.56, 209308.6, 0.0003661045, 10.002197, 9.998292 
2.0251387e+3, 1.8448201e+2, -979922.75, -1249863.4, -48087.734, 0.04746039, -0.55551577, -971612.2, 160408.48, 0.0000012791296, 10.001847, 9.998264 
2.0251295e+3, 1.9448043e+2, -943425.5, -1193069.6, -42975.14, 0.0550517, -0.5380536, -936234.6, 97803.84, 0.0, 10.001474, 9.998161 
2.0251206e+3, 2.0447896e+2, -865703.25, -1049189.9, -42741.117, 0.064174324, -0.52150875, -856235.75, 79819.34, 0.0, 10.001095, 9.998659 
2.0251113e+3, 2.1447778e+2, -829240.1, -988887.44, -42161.418, 0.074455865, -0.50770074, -818789.75, 19278.215, 0.0, 10.000707, 9.998588 
2.025102e+3, 2.2447665e+2, -745178.4, -836481.6, -58734.285, 0.073900536, -0.49938884, -716440.56, 23638.682, 0.0, 10.000347, 9.999134 
2.0250921e+3, 2.3447582e+2, -699325.1, -771272.7, -59843.785, 0.061792284, -0.50056404, -665474.9, -23388.297, 0.0, 10.000022, 9.999065 
2.0250823e+3, 2.4447486e+2, -637231.7, -667500.94, -57068.875, 0.05216489, -0.507798, -593324.7, -49228.703, 0.0, 9.999677, 9.999271 
2.0250726e+3, 2.5447398e+2, -599125.94, -607919.0, -52841.14, 0.041182183, -0.5215325, -550498.75, -104393.234, 0.0, 9.999307, 9.999186 
2.0250627e+3, 2.6447347e+2, -517006.75, -460072.25, -38332.836, 0.018417774, -0.511087, -440792.34, -92681.23, 0.0, 9.99895, 9.9997 
2.0250532e+3, 2.7447352e+2, -473981.6, -397007.44, -37081.066, -0.0075370683, -0.4809431, -382050.5, -131939.78, 0.0, 9.998609, 9.999624 
2.0250443e+3, 2.8447312e+2, -407466.88, -261762.44, -21821.64, 0.005030445, -0.49928293, -258564.48, -106450.47, 0.0, 9.998167, 10.0000925 
2.0250356e+3, 2.944727e+2, -397486.84, -215057.11, -26567.03, 0.03393573, -0.55495304, -211266.94, -157149.66, 0.0, 9.997601, 10.000013 
2.0250253e+3, 3.0447337e+2, -393838.2, -159294.45, -48272.465, -0.05929481, -0.4962734, -149747.86, -149747.86, 0.0, 9.997167, 10.00027 
2.025016e+3, 3.1447375e+2, -355729.44, -22647.188, 44973.563, -0.03652602, -0.48400232, -16681.596, -16681.596, 0.0, 9.996918, 10.001328 
2.035194e+3, 1.2450053e+2, -1306001.5, -1728270.8, 13361.338, 0.015736474, -0.6185421, -1305579.1, 414253.97, 0.06859917, 10.003986, 9.997989 
2.0351858e+3, 1.3449824e+2, -1248255.4, -1662254.4, -19620.135, 0.046946347, -0.64877445, -1247327.6, 374527.9, 0.04844632, 10.003663, 9.997925 
2.035177e+3, 1.4449662e+2, -1174088.5, -1549717.0, -40577.19, 0.046814725, -0.61259794, -1169755.1, 354117.06, 0.028302716, 10.003307, 9.998196 
2.035168e+3, 1.5449487e+2, -1133968.1, -1492919.8, -34161.438, 0.02316592, -0.60780597, -1130746.0, 295144.47, 0.012450322, 10.00291, 9.998104 
2.0351589e+3, 1.6449304e+2, -1082070.8, -1409703.5, -41033.99, 0.02315838, -0.59917665, -1077009.6, 250899.92, 0.0034848975, 10.002537, 9.998181 
2.03515e+3, 1.7449135e+2, -1039174.75, -1349595.5, -48978.617, 0.049871705, -0.5878317, -1031630.2, 198297.45, 0.0003893878, 10.0022, 9.998084 
2.0351407e+3, 1.8448968e+2, -969933.94, -1230010.1, -61911.996, 0.061185885, -0.5715931, -955947.7, 175997.9, 0.0000015848547, 10.001849, 9.998401 
2.035131e+3, 1.9448832e+2, -932129.3, -1170807.4, -56849.816, 0.05444909, -0.5509656, -919280.2, 114681.016, 0.0, 10.001477, 9.998314 
2.0351215e+3, 2.04487e+2, -862909.2, -1044705.7, -57142.453, 0.057673004, -0.52664244, -846440.06, 89535.88, 0.0, 10.001099, 9.99869 
2.0351121e+3, 2.1448597e+2, -827117.3, -985705.0, -56406.156, 0.07260373, -0.4997982, -809101.5, 28886.037, 0.0, 10.00071, 9.998609 
2.0351021e+3, 2.2448483e+2, -744797.3, -836940.8, -70750.79, 0.07145567, -0.49491876, -706439.94, 33559.33, 0.0, 10.000351, 9.99913 
2.035092e+3, 2.3448375e+2, -699359.75, -772566.75, -71508.51, 0.051748734, -0.51926345, -655630.94, -13621.818, 0.0, 10.000026, 9.999057 
2.035082e+3, 2.4448287e+2, -629404.75, -652711.56, -70502.15, 0.0442256, -0.52086735, -569599.4, -25581.654, 0.0, 9.9996805, 9.9993725 
2.0350718e+3, 2.5448254e+2, -590894.25, -592390.2, -66423.68, 0.048512824, -0.49379435, -525214.3, -79191.89, 0.0, 9.999311, 9.999291 
2.0350617e+3, 2.644821e+2, -515999.06, -459526.25, -51211.39, 0.02750664, -0.48049408, -429282.72, -81255.53, 0.0, 9.998955, 9.999702 
2.0350517e+3, 2.744817e+2, -473760.94, -397844.34, -49940.9, -0.016723273, -0.49345228, -373073.66, -123042.914, 0.0, 9.998612, 9.999618 
2.0350422e+3, 2.8448135e+2, -407351.63, -262619.1, -43170.824, -0.017741805, -0.50804806, -250720.33, -98686.61, 0.0, 9.99817, 10.000087 
2.0350331e+3, 2.9448152e+2, -395551.2, -211855.3, -48954.875, 0.013050687, -0.5051714, -199623.34, -145591.67, 0.0, 9.997602, 10.000035 
2.035023e+3, 3.0448177e+2, -377613.88, -126745.23, -58927.793, -0.018494079, -0.4978362, -113592.92, -113592.92, 0.0, 9.9971695, 10.000493 
2.035013e+3, 3.1448212e+2, -379492.8, -74572.19, 33031.926, -0.035203967, -0.51214564, -71034.89, -71034.89, 0.0, 9.996926, 10.000969 
2.0451982e+3, 1.2450892e+2, -1241551.1, -1705320.1, 33720.12, 0.017787455, -0.63526654, -1239112.3, 480637.9, 0.0705243, 10.004514, 9.997898 
2.0451899e+3, 1.3450661e+2, -1241547.4, -1670502.5, 6577.1313, 0.067395456, -0.65769, -1241446.5, 380326.9, 0.04987525, 10.003769, 9.997816 
2.0451806e+3, 1.4450498e+2, -1177383.4, -1552324.9, -9934.207, 0.06629149, -0.61494476, -1177120.4, 346670.03, 0.029206946, 10.003294, 9.998182 
2.045171e+3, 1.5450333e+2, -1100720.0, -1477725.0, -19860.045, 0.02071044, -0.6004352, -1099676.8, 326131.22, 0.012900946, 10.003149, 9.998092 
2.0451614e+3, 1.6450147e+2, -1044497.44, -1394491.9, -37089.86, 0.01346662, -0.5906273, -1040610.1, 287217.1, 0.0036389919, 10.0028105, 9.998154 
2.045152e+3, 1.7449966e+2, -1036259.0, -1351718.3, -33257.168, 0.050904732, -0.58847964, -1032791.0, 197055.45, 0.00041515523, 10.002237, 9.998051 
2.0451425e+3, 1.84498e+2, -974727.56, -1225691.5, -38237.54, 0.06532696, -0.57412785, -969030.94, 162833.48, 0.0000019870433, 10.001789, 9.998459 
2.0451325e+3, 1.9449675e+2, -925696.2, -1160784.4, -40117.72, 0.05225427, -0.5465592, -919038.7, 114840.12, 0.0, 10.001493, 9.998374 
2.0451225e+3, 2.0449549e+2, -854895.8, -1036103.06, -46793.3, 0.05181576, -0.5221979, -843525.8, 92367.16, 0.0, 10.001135, 9.99873 
2.0451127e+3, 2.1449442e+2, -826213.6, -981033.5, -45638.44, 0.06649492, -0.50364727, -813761.6, 24143.113, 0.0, 10.0007, 9.998645 
2.0451024e+3, 2.244933e+2, -748666.06, -830880.94, -54909.098, 0.06700524, -0.5013353, -721181.75, 18734.459, 0.0, 10.000292, 9.999199 
2.045092e+3, 2.3449233e+2, -710333.3, -770056.4, -50527.516, 0.050985187, -0.5209908, -681502.94, -39577.77, 0.0, 9.999919, 9.999124 
2.0450814e+3, 2.4449158e+2, -645840.2, -658424.0, -49765.06, 0.04236504, -0.51555145, -601970.9, -58037.95, 0.0, 9.99956, 9.99939 
2.045071e+3, 2.5449133e+2, -603570.2, -597067.3, -52750.887, 0.041012093, -0.4796284, -547467.75, -101530.875, 0.0, 9.99922, 9.999302 
2.0450607e+3, 2.644909e+2, -523553.5, -451942.4, -38442.17, 0.026032366, -0.4712759, -435213.78, -87272.16, 0.0, 9.998857, 9.999801 
2.0450504e+3, 2.7449042e+2, -488172.28, -393078.5, -29498.064, -0.0011390838, -0.5024515, -384671.47, -134725.84, 0.0, 9.998466, 9.99972 
2.0450403e+3, 2.8449023e+2, -433807.6, -278762.44, -25607.977, -0.010839166, -0.5043054, -274642.38, -122695.34, 0.0, 9.998005, 10.000053 
2.0450303e+3, 2.9449072e+2, -413612.97, -223323.25, -34056.137, -0.011404012, -0.46128485, -217411.88, -163469.86, 0.0, 9.997493, 10.000009 
2.0450203e+3, 3.0449045e+2, -373511.97, -112791.96, -41193.184, -0.00018502962, -0.51591617, -106438.37, -106438.37, 0.0, 9.9971485, 10.000597 
2.04501e+3, 3.1449106e+2, -387368.25, -81442.234, 35100.797, -0.016913773, -0.5099129, -77466.57, -77466.57, 0.0, 9.996888, 10.000939 
2.0552029e+3, 1.2451781e+2, -1243696.4, -1709843.4, 6209.875, 0.036370683, -0.6597048, -1243613.6, 476048.16, 0.07251392, 10.004522, 9.997862 
2.0551936e+3, 1.3451558e+2, -1243629.8, -1677482.8, -20740.87, 0.06305618, -0.6693186, -1242640.5, 379044.16, 0.05135517, 10.003782, 9.997763 
2.0551838e+3, 1.4451388e+2, -1191497.0, -1585311.1, -16962.117, 0.055046245, -0.6205371, -1190767.9, 332935.13, 0.030146558, 10.003306, 9.9979515 
2.0551741e+3, 1.5451202e+2, -1116541.4, -1512314.9, -25534.11, 0.023865608, -0.6015483, -1114900.8, 310822.53, 0.013372168, 10.003154, 9.997853 
2.0551643e+3, 1.6451015e+2, -1036462.8, -1378612.0, -57874.65, 0.0207754, -0.5883268, -1026938.44, 300804.78, 0.0038025365, 10.002812, 9.998262 
2.0551543e+3, 1.7450847e+2, -1026749.25, -1333587.6, -54868.98, 0.050014943, -0.5841778, -1017232.7, 212527.73, 0.0004435064, 10.002242, 9.998174 
2.0551443e+3, 1.8450691e+2, -975614.0, -1229162.4, -49925.227, 0.06038911, -0.56390584, -966137.6, 165639.6, 0.0000024928308, 10.001794, 9.998433 
2.055134e+3, 1.9450574e+2, -927682.9, -1165918.0, -51123.234, 0.04830706, -0.525813, -917175.7, 116615.63, 0.0, 10.001496, 9.998339 
2.0551236e+3, 2.045044e+2, -851571.5, -1030105.0, -62588.695, 0.046321675, -0.50869834, -831815.8, 103990.34, 0.0, 10.001137, 9.998772 
2.0551133e+3, 2.145031e+2, -822719.1, -974932.75, -61513.754, 0.056236334, -0.5186984, -800967.94, 36851.78, 0.0, 10.000703, 9.998687 
2.0551027e+3, 2.2450204e+2, -738891.75, -811898.0, -68749.51, 0.0606368, -0.5180202, -697555.44, 42274.836, 0.0, 10.000296, 9.999329 
2.055092e+3, 2.3450151e+2, -700237.5, -750465.56, -64156.633, 0.058909338, -0.50611424, -656454.6, -14619.49, 0.0, 9.999923, 9.999258 
2.0550811e+3, 2.4450089e+2, -650029.44, -668721.7, -62318.418, 0.046148162, -0.49243465, -596360.2, -52518.18, 0.0, 9.999565, 9.999318 
2.0550701e+3, 2.5450033e+2, -608998.8, -609912.75, -65179.52, 0.01907158, -0.47873157, -544274.7, -98425.28, 0.0, 9.999225, 9.999213 
2.0550594e+3, 2.644998e+2, -509772.13, -424872.3, -52956.34, 0.014274179, -0.48287722, -399451.97, -51597.027, 0.0, 9.998861, 9.999985 
2.0550494e+3, 2.744996e+2, -473272.2, -363673.0, -44649.855, 0.038176984, -0.50829554, -347785.9, -97929.88, 0.0, 9.99847, 9.999921 
2.0550388e+3, 2.844997e+2, -438038.97, -288571.25, -45422.9, 0.024782863, -0.48835072, -275850.03, -123995.35, 0.0, 9.998008, 9.999987 
2.0550276e+3, 2.9450032e+2, -419692.56, -236230.38, -52667.133, -0.03903765, -0.42195708, -222186.14, -168337.22, 0.0, 9.997492, 9.999922 
2.0550174e+3, 3.0449927e+2, -375114.16, -117236.516, -50920.945, -0.0043544862, -0.5514701, -107545.75, -107545.75, 0.0, 9.997151, 10.0005665 
2.0550074e+3, 3.145006e+2, -362637.25, -32637.523, 8963.1, 0.02375559, -0.4698023, -32394.256, -32394.256, 0.0, 9.996897, 10.001271 
2.0652078e+3, 1.245274e+2, -1208012.6, -1705100.3, 20465.959, 0.05400623, -0.6650518, -1207171.4, 512396.56, 0.07455873, 10.004857, 9.997735 
2.0651975e+3, 1.345252e+2, -1174730.5, -1657856.5, -11565.15, 0.052195024, -0.6587679, -1174453.8, 447137.0, 0.05288075, 10.004356, 9.997621 
2.0651872e+3, 1.4452335e+2, -1127151.9, -1568622.9, 1031.2295, 0.038793474, -0.60819197, -1127149.4, 396461.13, 0.031119075, 10.003834, 9.99781 
2.0651776e+3, 1.5452126e+2, -1108098.8, -1524117.1, -617.17737, 0.03146403, -0.5991392, -1108097.9, 317535.72, 0.01386304, 10.003284, 9.997708 
2.0651673e+3, 1.645193e+2, -1035836.8, -1373339.3, -36664.625, 0.033110697, -0.5881099, -1031899.7, 295754.6, 0.0039753728, 10.002797, 9.998305 
2.0651565e+3, 1.7451775e+2, -1002090.7, -1315959.3, -39633.258, 0.04436054, -0.5769248, -997163.44, 232506.67, 0.00047454174, 10.002388, 9.998223 
2.065146e+3, 1.8451624e+2, -952979.5, -1219511.3, -33418.477, 0.049482584, -0.5534948, -948853.3, 182833.0, 0.0000031175111, 10.001957, 9.998421 
2.0651355e+3, 1.9451503e+2, -928550.75, -1168223.8, -33771.973, 0.047239136, -0.51668334, -923882.94, 109817.945, 0.0, 10.0015, 9.99832 
2.0651248e+3, 2.0451368e+2, -855640.0, -1021777.2, -44828.848, 0.046889354, -0.5033355, -844315.7, 91399.875, 0.0, 10.001067, 9.998861 
2.0651138e+3, 2.1451241e+2, -822735.75, -964472.8, -40667.727, 0.04883096, -0.52036023, -811896.2, 25832.273, 0.0, 10.00066, 9.998778 
2.0651028e+3, 2.2451138e+2, -744084.94, -813593.4, -49311.016, 0.0527338, -0.5209289, -718511.44, 21227.195, 0.0, 10.000258, 9.999334 
2.0650917e+3, 2.3451093e+2, -708958.94, -754775.25, -54953.0, 0.059458975, -0.5024187, -672330.44, -30587.025, 0.0, 9.999866, 9.999254 
2.0650806e+3, 2.445104e+2, -648975.3, -653659.6, -49319.62, 0.049299337, -0.48595512, -601942.25, -58192.73, 0.0, 9.999513, 9.999446 
2.0650694e+3, 2.5450993e+2, -601692.75, -591354.7, -36258.234, 0.018071715, -0.47576308, -559898.9, -114143.414, 0.0, 9.999212, 9.999345 
2.0650584e+3, 2.645095e+2, -518791.0, -426676.47, -26966.385, 0.013815755, -0.48190457, -419362.78, -71602.35, 0.0, 9.998791, 10.000006 
2.0650476e+3, 2.745093e+2, -509549.13, -379729.94, -33199.16, 0.043072764, -0.5037991, -371732.5, -121970.914, 0.0, 9.998217, 9.999931 
2.0650366e+3, 2.845095e+2, -469584.97, -291738.16, -33382.156, 0.030293595, -0.47704875, -285678.72, -133919.5, 0.0, 9.997741, 10.000092 
2.065025e+3, 2.9451028e+2, -426998.7, -229499.14, -25159.49, -0.035337005, -0.40914267, -226344.45, -172592.28, 0.0, 9.997399, 10.0000105 
2.0650147e+3, 3.0450898e+2, -407412.16, -154049.08, -21215.654, 0.00899113, -0.55667365, -152284.84, -152284.84, 0.0, 9.997024, 10.000374 
2.065004e+3, 3.1451046e+2, -394107.56, -11403.53, 11073.646, 0.021357607, -0.4427319, -11083.38, -11083.38, 0.0, 9.996527, 10.001595 
2.0752129e+3, 1.2453768e+2, -1222377.1, -1735231.4, 1209.5856, 0.069362715, -0.65494305, -1222374.3, 497094.22, 0.07664779, 10.004862, 9.9975195 
2.0752017e+3, 1.3453545e+2, -1189078.8, -1690741.0, -29877.492, 0.034907784, -0.6273513, -1187305.6, 434186.03, 0.05444302, 10.004367, 9.997391 
2.075191e+3, 1.4453343e+2, -1130651.5, -1578228.0, -19319.52, 0.017526926, -0.5787704, -1129819.1, 393694.0, 0.03211882, 10.003844, 9.997742 
2.0751807e+3, 1.5453103e+2, -1111815.5, -1533404.9, -21246.852, 0.042833827, -0.5937394, -1110747.5, 314791.25, 0.014371255, 10.003289, 9.997643 
2.0751701e+3, 1.6452897e+2, -1037057.0, -1377264.9, -52290.844, 0.04983368, -0.5902013, -1029201.1, 298359.3, 0.004157122, 10.002801, 9.998278 
2.075159e+3, 1.745275e+2, -1002959.6, -1319532.9, -55030.98, 0.03388132, -0.5671099, -993666.2, 235909.2, 0.0005083953, 10.002394, 9.998198 
2.0751478e+3, 1.8452598e+2, -952871.5, -1220919.6, -50446.055, 0.032657515, -0.5429107, -943692.0, 187899.7, 0.0000038992757, 10.001962, 9.998409 
2.0751369e+3, 1.9452465e+2, -928910.56, -1170042.4, -50647.383, 0.048839863, -0.51832, -918704.56, 114902.84, 0.0, 10.001503, 9.998307 
2.0751257e+3, 2.0452334e+2, -846238.2, -1003119.0, -59888.97, 0.05320914, -0.5055665, -825989.25, 109632.16, 0.0, 10.001068, 9.998989 
2.0751145e+3, 2.1452232e+2, -812936.7, -945199.44, -55604.594, 0.043821316, -0.5093669, -792666.5, 44964.76, 0.0, 10.000662, 9.99891 
2.075103e+3, 2.2452131e+2, -752132.4, -831675.2, -63833.83, 0.04307693, -0.51071125, -716693.94, 22947.672, 0.0, 10.000262, 9.999209 
2.0750916e+3, 2.3452054e+2, -718208.06, -775341.0, -69239.23, 0.052772686, -0.5095281, -671873.8, -30223.59, 0.0, 9.999869, 9.999113 
2.0750801e+3, 2.4452005e+2, -626321.4, -607934.56, -60416.09, 0.05183778, -0.49552384, -556016.4, -12360.655, 0.0, 9.999516, 9.999759 
2.0750687e+3, 2.545201e+2, -577298.1, -541911.75, -47256.637, 0.03717714, -0.47059664, -509144.66, -63489.0, 0.0, 9.999215, 9.999684 
2.0750572e+3, 2.645198e+2, -528585.7, -448281.53, -48127.7, 0.024037445, -0.4685289, -425756.13, -78097.445, 0.0, 9.998794, 9.999857 
2.0750457e+3, 2.7451947e+2, -521611.0, -406093.6, -55147.934, 0.014021386, -0.48889652, -383993.9, -134331.06, 0.0, 9.99822, 9.99975 
2.0750342e+3, 2.8451964e+2, -450086.03, -252567.67, -47074.164, 0.006335743, -0.47052985, -241922.31, -90260.96, 0.0, 9.997745, 10.0003605 
2.0750228e+3, 2.945205e+2, -408447.6, -192482.19, -37602.86, -0.00068233284, -0.42386255, -186122.25, -132469.66, 0.0, 9.997404, 10.000264 
2.075012e+3, 3.045195e+2, -432815.1, -208137.94, -39777.598, 0.038321286, -0.52972156, -201303.48, -201303.48, 0.0, 9.997027, 10.000002 
2.075e+3, 3.1452048e+2, -372016.97, 34054.07, -22971.227, -0.020604353, -0.43356177, 35349.41, 35349.41, 0.0, 9.996526, 10.001908 
2.0852178e+3, 1.245485e+2, -1202956.4, -1729918.1, 10269.577, 0.084231995, -0.61984086, -1202756.3, 516608.03, 0.07876634, 10.005039, 9.997469 
2.085206e+3, 1.3454595e+2, -1139991.6, -1671614.4, -8370.344, 0.031426586, -0.61691093, -1139859.9, 481529.9, 0.05602944, 10.004759, 9.997332 
2.0851949e+3, 1.4454381e+2, -1077839.5, -1556415.5, -883.8195, 0.009660275, -0.57733107, -1077837.9, 445574.34, 0.033137277, 10.004244, 9.997697 
2.0851843e+3, 1.5454149e+2, -1091102.8, -1527956.9, -2015.7985, 0.048590302, -0.5802232, -1091093.5, 334343.66, 0.014892742, 10.003457, 9.997599 
2.0851731e+3, 1.6453938e+2, -1030186.8, -1385426.9, -23204.162, 0.058658183, -0.572143, -1028677.56, 298781.72, 0.0043465937, 10.0029, 9.998173 
2.0851614e+3, 1.7453776e+2, -977967.9, -1319519.8, -31760.574, 0.03266943, -0.55309755, -975039.56, 254436.5, 0.0005450198, 10.002619, 9.998088 
2.0851496e+3, 1.8453617e+2, -921540.75, -1199590.4, -36843.848, 0.029320793, -0.53327936, -916741.5, 214751.5, 0.000004891204, 10.0021515, 9.998464 
2.0851384e+3, 1.9453484e+2, -930803.75, -1164142.8, -32676.643, 0.0533057, -0.5136834, -926314.1, 107193.88, 0.0, 10.001462, 9.998366 
2.085127e+3, 2.0453356e+2, -863126.2, -1010550.2, -35768.89, 0.058156222, -0.5019931, -854906.06, 80615.48, 0.0, 10.000952, 9.998994 
2.085115e+3, 2.145326e+2, -814010.94, -945561.9, -41259.63, 0.040258303, -0.50159127, -802141.25, 35390.008, 0.0, 10.000656, 9.998909 
2.0851032e+3, 2.2453164e+2, -746852.2, -822963.8, -51840.047, 0.037125327, -0.50061, -720599.1, 18942.111, 0.0, 10.000275, 9.999262 
2.0850913e+3, 2.345309e+2, -726438.56, -773369.8, -43724.34, 0.05187993, -0.5003614, -700281.06, -58731.65, 0.0, 9.999789, 9.999164 
2.0850796e+3, 2.4453044e+2, -644424.75, -603805.5, -31553.088, 0.054345574, -0.49132714, -586590.75, -43036.344, 0.0, 9.999338, 9.999872 
2.085068e+3, 2.545305e+2, -610946.25, -545112.2, -34871.855, 0.04140607, -0.47430405, -530075.3, -84521.8, 0.0, 9.998931, 9.999799 
2.0850559e+3, 2.6453036e+2, -561515.2, -457020.63, -41239.434, 0.026137017, -0.4698625, -442706.13, -95150.875, 0.0, 9.99854, 9.999918 
2.0850436e+3, 2.7453017e+2, -523594.8, -400546.4, -31042.111, 0.009290133, -0.47933918, -393158.78, -143600.72, 0.0, 9.998181, 9.999806 
2.0850317e+3, 2.8453034e+2, -438715.66, -236386.52, -18213.053, 0.0013440229, -0.47060475, -234760.1, -83203.12, 0.0, 9.997779, 10.000454 
2.08502e+3, 2.9453102e+2, -421813.8, -191235.52, -23567.262, 0.0021938423, -0.4485883, -188851.38, -135301.6, 0.0, 9.997281, 10.000331 
2.0850088e+3, 3.0453068e+2, -466624.75, -226401.05, -20310.559, 0.039856546, -0.49097732, -224695.92, -224695.92, 0.0, 9.996805, 9.999983 
2.0849966e+3, 3.1453112e+2, -380378.16, 47658.383, 10983.841, -0.019447105, -0.4473356, 47940.05, 47940.05, 0.0, 9.996395, 10.002064 
2.0952232e+3, 1.24559894e+2, -1196979.6, -1716083.0, -1157.1659, 0.0978049, -0.5626309, -1196977.0, 522278.38, 0.08089738, 10.005048, 9.997562 
2.095211e+3, 1.3455679e+2, -1134690.6, -1658877.5, -18868.21, 0.0400768, -0.6262889, -1134012.4, 487272.56, 0.057627805, 10.00476, 9.99742 
2.095199e+3, 1.4455451e+2, -1079775.5, -1560543.9, -29112.6, 0.013549994, -0.6022105, -1078019.1, 445288.66, 0.03416668, 10.004246, 9.997669 
2.0951878e+3, 1.5455261e+2, -1092094.1, -1532233.5, -31542.668, 0.048908472, -0.55904067, -1089845.1, 335483.66, 0.015423303, 10.003467, 9.997566 
2.095176e+3, 1.6455057e+2, -1041813.0, -1412099.3, -34795.414, 0.059920516, -0.53507006, -1038571.7, 288779.16, 0.004541982, 10.00291, 9.997987 
2.095164e+3, 1.7454855e+2, -991296.9, -1348201.6, -42200.73, 0.039909102, -0.5350681, -986374.9, 242997.13, 0.00058404374, 10.002622, 9.997891 
2.0951521e+3, 1.8454683e+2, -913667.06, -1183991.4, -61867.977, 0.038482085, -0.5245937, -900180.5, 231209.77, 0.0000061235637, 10.002152, 9.998571 
2.0951399e+3, 1.9454563e+2, -921440.06, -1146525.4, -58450.17, 0.060191344, -0.5034743, -907166.9, 126236.086, 0.0, 10.001468, 9.998486 
2.095128e+3, 2.0454434e+2, -870489.1, -1027989.44, -47237.586, 0.06155483, -0.4930244, -857408.0, 78008.31, 0.0, 10.000958, 9.998872 
2.0951158e+3, 2.145432e+2, -822750.9, -965181.3, -51742.445, 0.03797728, -0.4965328, -805938.3, 31490.115, 0.0, 10.000661, 9.998774 
2.0951036e+3, 2.2454232e+2, -731233.56, -791570.25, -69365.875, 0.034740545, -0.49041218, -685759.6, 53678.05, 0.0, 10.000277, 9.999478 
2.0950913e+3, 2.3454197e+2, -709689.94, -739802.3, -61595.9, 0.056289315, -0.47548586, -661336.8, -19895.365, 0.0, 9.999792, 9.999394 
2.0950788e+3, 2.4454151e+2, -650125.2, -617118.0, -46792.363, 0.056554805, -0.47387296, -584004.1, -40558.043, 0.0, 9.999343, 9.99978 
2.0950666e+3, 2.5454116e+2, -618071.25, -561269.06, -50121.625, 0.030954726, -0.4870948, -532061.1, -86611.695, 0.0, 9.998935, 9.999686 
2.0950542e+3, 2.6454106e+2, -542707.0, -419186.34, -55021.004, 0.020285418, -0.48565885, -398232.4, -50781.785, 0.0, 9.998543, 10.000178 
2.095042e+3, 2.7454135e+2, -503377.8, -359663.84, -44309.836, 0.028165895, -0.47406322, -347100.53, -97652.67, 0.0, 9.998183, 10.000087 
2.0950298e+3, 2.845415e+2, -444422.8, -249428.16, -36978.82, 0.014704214, -0.4771603, -242651.03, -91204.15, 0.0, 9.997782, 10.000364 
2.0950171e+3, 2.9454178e+2, -429708.03, -209027.11, -43657.727, -0.026384775, -0.48481736, -200704.11, -147259.47, 0.0, 9.997285, 10.000208 
2.0950054e+3, 3.0454242e+2, -442798.8, -177986.03, -36606.2, 0.013616229, -0.4387822, -173018.97, -173018.97, 0.0, 9.996808, 10.000315 
2.0949934e+3, 3.145425e+2, -384252.0, 39389.215, -13265.025, 0.024706224, -0.46390924, 39804.164, 39804.164, 0.0, 9.996394, 10.002008 
2.1052283e+3, 1.245714e+2, -1146854.5, -1682667.9, 20344.914, 0.09332481, -0.5481984, -1146083.1, 573061.2, 0.083025225, 10.005393, 9.997645 
2.1052161e+3, 1.3456832e+2, -1131324.5, -1647886.9, 2850.782, 0.06620957, -0.6165784, -1131308.8, 489864.03, 0.059226867, 10.004754, 9.997498 
2.1052036e+3, 1.4456601e+2, -1090187.0, -1573951.1, -13666.816, 0.043411583, -0.59514475, -1089801.3, 433394.44, 0.03519943, 10.004214, 9.997591 
2.1051913e+3, 1.5456407e+2, -1051405.8, -1521607.9, -20406.443, 0.05184461, -0.54797804, -1050521.8, 374695.63, 0.015958209, 10.003794, 9.99748 
2.105179e+3, 1.6456197e+2, -996178.9, -1396693.4, -17683.842, 0.056423955, -0.52218324, -995399.6, 331840.63, 0.0047409055, 10.003256, 9.997924 
2.1051668e+3, 1.7455989e+2, -1001314.2, -1359860.5, -15730.34, 0.05396595, -0.52301264, -1000625.4, 228636.83, 0.00062479224, 10.002584, 9.997828 
2.1051542e+3, 1.8455811e+2, -926588.3, -1192389.9, -35710.973, 0.052603107, -0.5136039, -921874.06, 209406.78, 0.0000075799267, 10.002075, 9.998549 
2.1051416e+3, 1.9455686e+2, -880729.6, -1128995.0, -42937.113, 0.05368918, -0.4936709, -873513.44, 159780.14, 0.0, 10.001759, 9.998466 
2.1051289e+3, 2.0455557e+2, -820538.6, -1001827.4, -31480.955, 0.051748175, -0.4852314, -815227.5, 120079.56, 0.0, 10.001294, 9.998889 
2.1051164e+3, 2.145544e+2, -822065.56, -962919.06, -25406.451, 0.04543326, -0.49187067, -817623.0, 19696.379, 0.0, 10.000659, 9.99879 
2.1051037e+3, 2.2455356e+2, -750676.5, -795083.06, -42767.957, 0.04495094, -0.48501632, -724691.8, 14636.343, 0.0, 10.00012, 9.999528 
2.1050908e+3, 2.3455329e+2, -720580.0, -739243.75, -48561.887, 0.0522271, -0.464527, -680461.5, -39130.754, 0.0, 9.999695, 9.999444 
2.1050781e+3, 2.4455285e+2, -658621.4, -615563.6, -34817.04, 0.047715854, -0.46626562, -596156.94, -52821.9, 0.0, 9.999262, 9.999828 
2.1050654e+3, 2.5455242e+2, -631736.9, -562920.8, -26893.771, 0.02849623, -0.49290377, -553657.5, -108318.47, 0.0, 9.998821, 9.999729 
2.1050528e+3, 2.6455235e+2, -565883.44, -419291.8, -32376.127, 0.021379825, -0.49319148, -412459.66, -65120.12, 0.0, 9.998338, 10.000275 
2.1050401e+3, 2.7455285e+2, -551229.8, -371287.6, -34788.785, 0.029994717, -0.472173, -364795.97, -115461.195, 0.0, 9.9978075, 10.000187 
2.1050273e+3, 2.8455305e+2, -503243.47, -275266.97, -29676.396, 0.01657838, -0.4777698, -271467.22, -120133.73, 0.0, 9.99737, 10.000384 
2.1050142e+3, 2.9455325e+2, -462199.34, -221130.6, -26931.45, -0.026254531, -0.4933999, -218158.53, -164826.34, 0.0, 9.997048, 10.000237 
2.105002e+3, 3.0455422e+2, -434808.56, -130952.766, -12204.739, 0.012139426, -0.43356538, -130463.336, -130463.336, 0.0, 9.996679, 10.000699 
2.1049897e+3, 3.1455448e+2, -430637.66, -5462.8765, 4158.1055, 0.037087105, -0.48311552, -5422.215, -5422.215, 0.0, 9.996175, 10.001804 
2.1152334e+3, 1.2458306e+2, -1142910.9, -1673933.6, -2652.9355, 0.071353585, -0.5734473, -1142897.6, 576133.0, 0.08513531, 10.005401, 9.997708 
2.1152212e+3, 1.3458057e+2, -1127699.0, -1639402.4, -20132.0, 0.1081769, -0.58894193, -1126908.3, 494145.22, 0.060812615, 10.004758, 9.997555 
2.1152082e+3, 1.4457832e+2, -1099257.3, -1593606.0, -29502.217, 0.09683536, -0.5583608, -1097502.9, 425573.1, 0.03622424, 10.004216, 9.997457 
2.1151951e+3, 1.5457588e+2, -1060886.9, -1542757.5, -36061.6, 0.056719072, -0.546415, -1058203.1, 366899.7, 0.016490392, 10.0037985, 9.9973345 
2.1151821e+3, 1.6457361e+2, -991957.5, -1389716.0, -42406.383, 0.048206255, -0.53190285, -987486.7, 339640.53, 0.0049402528, 10.003262, 9.997971 
2.1151695e+3, 1.7457175e+2, -996437.4, -1351857.9, -40978.7, 0.07430783, -0.51663977, -991773.9, 237372.81, 0.00066643907, 10.002591, 9.997881 
2.1151565e+3, 1.8456998e+2, -935979.4, -1213855.5, -48055.04, 0.0711587, -0.5003754, -927903.56, 203261.48, 0.000009223164, 10.002082, 9.998401 
2.1151431e+3, 1.9456856e+2, -891299.2, -1152399.6, -54377.64, 0.03425885, -0.48393545, -880427.0, 152753.06, 0.0, 10.001762, 9.998303 
2.1151298e+3, 2.0456721e+2, -810144.6, -981345.7, -54402.457, 0.029379787, -0.47849056, -794319.94, 140873.97, 0.0, 10.001297, 9.999029 
2.1151172e+3, 2.1456616e+2, -810893.75, -940777.4, -48851.75, 0.062009163, -0.4879676, -794571.0, 42633.344, 0.0, 10.000661, 9.998941 
2.115104e+3, 2.2456531e+2, -758238.56, -812112.2, -58769.832, 0.06693655, -0.48437196, -720526.44, 18686.594, 0.0, 10.000124, 9.999411 
2.1150906e+3, 2.3456492e+2, -729013.94, -758317.5, -63993.098, 0.039768588, -0.46687278, -678016.75, -36799.08, 0.0, 9.9997, 9.999311 
2.1150771e+3, 2.4456449e+2, -645405.9, -589570.2, -51044.93, 0.02819282, -0.4681367, -559307.4, -16085.717, 0.0, 9.999266, 10.000006 
2.1150643e+3, 2.5456426e+2, -618015.8, -535764.75, -43325.887, 0.0336684, -0.4915013, -517153.84, -71931.125, 0.0, 9.998825, 9.999915 
2.115051e+3, 2.6456428e+2, -570356.94, -429960.1, -52340.277, 0.028991666, -0.4924832, -412595.25, -65372.67, 0.0, 9.998342, 10.000201 
2.1150376e+3, 2.7456462e+2, -556636.7, -383910.66, -55049.42, 0.014673766, -0.47456694, -367857.8, -118638.266, 0.0, 9.997812, 10.000099 
2.1150246e+3, 2.845649e+2, -493941.1, -257228.17, -42916.777, 0.0070111225, -0.4727169, -249687.44, -98469.9, 0.0, 9.997373, 10.000508 
2.1150117e+3, 2.945654e+2, -449161.3, -195100.55, -39242.594, 0.00227954, -0.47253257, -189177.17, -135964.2, 0.0, 9.997051, 10.000417 
2.114999e+3, 3.045661e+2, -404030.13, -68062.17, -30636.2, 0.03497826, -0.47718394, -65291.37, -65291.37, 0.0, 9.996681, 10.001131 
2.1149859e+3, 3.1456727e+2, -455411.56, -58117.656, -21643.81, 0.018739497, -0.47014424, -56942.02, -56942.02, 0.0, 9.996178, 10.001443 
2.125239e+3, 1.24595664e+2, -1109831.3, -1669406.4, 27129.648, 0.0707452, -0.5865941, -1108519.0, 610388.0, 0.087210946, 10.005718, 9.997589 
2.1252261e+3, 1.3459331e+2, -1122769.8, -1650239.5, -1627.7201, 0.1283982, -0.575859, -1122764.8, 498164.63, 0.06236695, 10.004862, 9.997429 
2.1252128e+3, 1.4459103e+2, -1098813.4, -1597943.8, -821.32416, 0.12257203, -0.54004586, -1098812.0, 424140.5, 0.037226032, 10.004246, 9.997411 
2.1251993e+3, 1.545884e+2, -1046409.94, -1540368.0, 152.26291, 0.06967275, -0.54251605, -1046409.9, 378571.0, 0.017010711, 10.003924, 9.997289 
2.1251856e+3, 1.6458601e+2, -968334.3, -1389437.3, -17047.613, 0.05443817, -0.5315284, -967645.3, 359361.0, 0.0051362677, 10.003476, 9.997868 
2.1251723e+3, 1.7458414e+2, -962035.3, -1346855.4, -27923.986, 0.08134092, -0.5067654, -960019.6, 269006.63, 0.0007080475, 10.00288, 9.997775 
2.1251588e+3, 1.8458235e+2, -900614.44, -1194694.4, -27835.855, 0.07703566, -0.4886074, -898002.9, 233041.95, 0.000011018927, 10.002317, 9.998418 
2.1251447e+3, 1.9458087e+2, -884586.5, -1146736.6, -21261.566, 0.036380358, -0.47931647, -882873.25, 150186.7, 0.0, 10.001801, 9.998323 
2.1251313e+3, 2.0457952e+2, -819621.2, -990006.56, -27933.879, 0.029635519, -0.47413334, -815158.44, 119915.38, 0.0, 10.001251, 9.998991 
2.125118e+3, 2.1457851e+2, -813579.3, -946597.7, -37308.89, 0.06297625, -0.47546953, -803829.56, 33254.652, 0.0, 10.000665, 9.9988985 
2.1251042e+3, 2.2457762e+2, -753062.8, -802499.1, -42614.64, 0.06797149, -0.4748683, -728516.44, 10576.648, 0.0, 10.000131, 9.999473 
2.12509e+3, 2.3457712e+2, -730290.94, -751799.4, -33670.855, 0.04012937, -0.47338277, -705698.56, -64600.5, 0.0, 9.999661, 9.999373 
2.1250764e+3, 2.4457674e+2, -659586.25, -589327.75, -19862.396, 0.027846664, -0.47612378, -584101.3, -41000.043, 0.0, 9.99914, 10.000067 
2.125063e+3, 2.5457674e+2, -652979.1, -545841.2, -22100.348, 0.032576326, -0.48508328, -541461.4, -96361.05, 0.0, 9.998558, 9.999973 
2.1250494e+3, 2.645767e+2, -602179.75, -446456.47, -29397.367, 0.02611516, -0.4906133, -441091.66, -93991.13, 0.0, 9.99813, 10.000189 
2.1250354e+3, 2.7457684e+2, -549229.0, -382598.3, -27082.002, 0.009432432, -0.495279, -378307.25, -129207.1, 0.0, 9.997874, 10.000077 
2.125022e+3, 2.845773e+2, -492320.16, -245763.45, -19738.455, 0.008786376, -0.4767705, -244193.27, -93096.98, 0.0, 9.997339, 10.000602 
2.1250086e+3, 2.945784e+2, -516851.2, -213581.25, -17757.629, 0.020258702, -0.4264258, -212545.02, -159459.33, 0.0, 9.996528, 10.000541 
2.1249953e+3, 3.0457836e+2, -472877.72, -94077.54, -14176.065, 0.037956055, -0.51183456, -93547.766, -93547.766, 0.0, 9.99618, 10.001193 
2.1249819e+3, 3.1458005e+2, -449460.47, -59373.566, -36092.836, 0.020962434, -0.45671028, -56062.184, -56062.184, 0.0, 9.996239, 10.001403 
2.1352449e+3, 1.24609195e+2, -1130262.5, -1708815.4, -3774.665, 0.08837321, -0.58937514, -1130237.9, 588535.8, 0.089235485, 10.005714, 9.997295 
2.1352309e+3, 1.3460656e+2, -1141691.4, -1693772.4, -32659.527, 0.1282732, -0.57599264, -1139766.0, 481034.28, 0.06387501, 10.004873, 9.997127 
2.135217e+3, 1.4460416e+2, -1095095.0, -1593179.9, -13541.643, 0.12257814, -0.5386372, -1094727.0, 428098.03, 0.038193602, 10.004261, 9.9974375 
2.1352033e+3, 1.546016e+2, -1042943.44, -1534597.1, -12171.932, 0.090035625, -0.5363732, -1042642.25, 382209.4, 0.017512381, 10.003931, 9.997327 
2.1351892e+3, 1.6459917e+2, -985373.44, -1425864.4, -39139.73, 0.07386918, -0.5216387, -981922.75, 344954.9, 0.0053258575, 10.003478, 9.997618 
2.135175e+3, 1.7459705e+2, -979930.9, -1385317.8, -50170.715, 0.075538956, -0.49353817, -973814.06, 255086.77, 0.00074871694, 10.002883, 9.99751 
2.1351609e+3, 1.8459518e+2, -888284.06, -1170411.9, -47117.125, 0.07086814, -0.47827438, -880623.25, 250297.05, 0.0000129273485, 10.002321, 9.998584 
2.135147e+3, 1.9459379e+2, -871263.06, -1120122.9, -40555.574, 0.058810186, -0.47980487, -864820.7, 168112.84, 0.0, 10.001802, 9.998506 
2.1351326e+3, 2.0459244e+2, -834322.8, -1021713.06, -49738.938, 0.051145002, -0.47195935, -821939.0, 113008.2, 0.0, 10.001255, 9.998773 
2.1351184e+3, 2.1459137e+2, -829323.0, -980956.9, -58785.246, 0.048744537, -0.45429564, -809202.9, 27756.451, 0.0, 10.0006695, 9.998662 
2.1351042e+3, 2.2459045e+2, -736384.94, -769488.56, -60029.734, 0.048930075, -0.4568008, -690666.94, 48301.676, 0.0, 10.000135, 9.999698 
2.1350898e+3, 2.345899e+2, -712675.94, -716374.6, -51009.996, 0.052688748, -0.4842336, -663481.75, -22509.31, 0.0, 9.999664, 9.999617 
2.1350756e+3, 2.4458958e+2, -663328.25, -598262.1, -41481.855, 0.04579694, -0.49001488, -578077.6, -35103.145, 0.0, 9.999143, 10.000006 
2.1350615e+3, 2.5458977e+2, -657562.9, -556721.2, -43786.785, 0.025040789, -0.47351635, -540362.25, -95389.805, 0.0, 9.998562, 9.999898 
2.1350473e+3, 2.6458964e+2, -598194.56, -439687.63, -39611.168, 0.012885961, -0.487846, -430339.97, -83366.016, 0.0, 9.998135, 10.000235 
2.1350335e+3, 2.745894e+2, -545340.7, -376257.6, -37547.1, 0.013985242, -0.53455126, -368294.75, -119317.61, 0.0, 9.997879, 10.00012 
2.1350193e+3, 2.8459015e+2, -488167.56, -238426.81, -50424.71, 0.021571167, -0.48948115, -228629.97, -77659.69, 0.0, 9.997343, 10.000651 
2.1350051e+3, 2.9459217e+2, -512887.13, -205981.27, -47347.438, 0.027377486, -0.35402203, -198842.86, -145891.92, 0.0, 9.996529, 10.000593 
2.1349914e+3, 3.04591e+2, -495125.9, -141220.63, -13295.6, 0.02022879, -0.5395517, -140721.84, -140721.84, 0.0, 9.9961815, 10.00087 
2.1349785e+3, 3.1459275e+2, -424542.25, -9437.714, -36807.2, 0.046831984, -0.44576436, -6199.294, -6199.294, 0.0, 9.996244, 10.001745 
2.1452507e+3, 1.2462322e+2, -1142942.8, -1729740.5, 5810.722, 0.10703317, -0.5832125, -1142885.3, 575751.4, 0.09119489, 10.005698, 9.997152 
2.1452361e+3, 1.3462047e+2, -1086608.1, -1681301.3, -12427.665, 0.12328935, -0.56607914, -1086348.5, 534316.25, 0.065328985, 10.005357, 9.996977 
2.1452214e+3, 1.4461792e+2, -1022207.9, -1567440.9, 10260.824, 0.11639716, -0.52994674, -1022014.9, 500676.22, 0.03912267, 10.004836, 9.997335 
2.1452075e+3, 1.5461525e+2, -1021961.3, -1535165.0, 1885.346, 0.1084055, -0.53071964, -1021954.4, 402764.25, 0.017992387, 10.004128, 9.997226 
2.1451929e+3, 1.6461271e+2, -986711.8, -1430912.4, -25139.201, 0.0959619, -0.51662153, -985293.6, 341451.56, 0.005506994, 10.003491, 9.997576 
2.145178e+3, 1.746106e+2, -975605.7, -1387811.0, -20974.959, 0.076879516, -0.48640728, -974541.1, 254227.44, 0.00078764785, 10.002935, 9.997467 
2.1451633e+3, 1.8460864e+2, -888139.7, -1181370.3, -18100.451, 0.06795151, -0.47154486, -887026.6, 243762.27, 0.000014882025, 10.002372, 9.998483 
2.1451487e+3, 1.9460711e+2, -878782.7, -1135196.9, -32732.178, 0.071117915, -0.4761923, -874670.25, 158133.34, 0.0, 10.001802, 9.998402 
2.145134e+3, 2.0460571e+2, -831777.8, -1017931.6, -44809.93, 0.06444733, -0.46768278, -821553.0, 113264.73, 0.0, 10.001264, 9.998794 
2.1451192e+3, 2.1460474e+2, -814822.06, -971217.5, -35498.066, 0.046205554, -0.44498983, -807142.0, 29687.113, 0.0, 10.000759, 9.998684 
2.1451043e+3, 2.2460385e+2, -726962.2, -761394.0, -34621.43, 0.040951498, -0.44674537, -705512.5, 33325.406, 0.0, 10.000187, 9.999727 
2.1450897e+3, 2.3460329e+2, -729746.1, -721074.8, -41655.523, 0.05191555, -0.47808638, -683529.94, -42688.35, 0.0, 9.999534, 9.999646 
2.1450748e+3, 2.4460296e+2, -688682.6, -609992.1, -36706.465, 0.04797306, -0.4857946, -595528.3, -52684.8, 0.0, 9.998969, 10.000008 
2.14506e+3, 2.5460315e+2, -665938.2, -560700.25, -33617.895, 0.02452568, -0.46991447, -550877.9, -106036.125, 0.0, 9.998505, 9.999897 
2.1450454e+3, 2.6460302e+2, -613265.2, -435442.6, -21031.28, 0.012162748, -0.48579845, -432989.06, -86146.04, 0.0, 9.997983, 10.000336 
2.145031e+3, 2.7460286e+2, -609212.25, -395335.1, -15086.646, 0.018089293, -0.5323183, -394276.16, -145431.11, 0.0, 9.997393, 10.000222 
2.1450166e+3, 2.8460377e+2, -532033.7, -256418.52, -27709.47, 0.0305307, -0.48423085, -253660.3, -102823.15, 0.0, 9.99703, 10.000678 
2.1450019e+3, 2.9460576e+2, -456896.1, -179511.5, -26181.178, 0.0355614, -0.35055014, -177062.0, -124244.2, 0.0, 9.996916, 10.000587 
2.1449876e+3, 3.0460438e+2, -497752.03, -176942.06, 2332.9453, 0.0012374166, -0.54181856, -176925.11, -176925.11, 0.0, 9.996314, 10.00056 
2.1449743e+3, 3.1460607e+2, -542829.75, -13075.463, -13406.375, 0.061559178, -0.42455986, -12736.407, -12736.407, 0.0, 9.995206, 10.002218 
2.1552566e+3, 1.2463777e+2, -1143944.8, -1731512.4, -7681.355, 0.12577702, -0.5697562, -1143844.3, 574651.1, 0.093077295, 10.005706, 9.997138 
2.1552415e+3, 1.3463506e+2, -1087879.0, -1683900.0, -25567.531, 0.1135158, -0.5470621, -1086784.3, 533738.56, 0.06672373, 10.005361, 9.996959 
2.1552263e+3, 1.4463235e+2, -1037601.7, -1600933.0, -15530.564, 0.104270935, -0.51467526, -1037173.8, 485376.6, 0.04001107, 10.004839, 9.997106 
2.1552117e+3, 1.5462933e+2, -1038240.3, -1570063.0, -24523.9, 0.12470177, -0.52551454, -1037111.8, 387469.72, 0.01844889, 10.00413, 9.996986 
2.1551968e+3, 1.646267e+2, -976297.3, -1410107.9, -46121.227, 0.1202296, -0.5160941, -971448.06, 355160.7, 0.005678194, 10.003493, 9.997719 
2.1551812e+3, 1.7462476e+2, -963701.5, -1364921.6, -42022.19, 0.08473725, -0.48495105, -959347.5, 269282.1, 0.0008241895, 10.002941, 9.9976225 
2.1551658e+3, 1.8462272e+2, -912545.4, -1234048.8, -39452.29, 0.06796271, -0.46803066, -907774.94, 222875.83, 0.000016789034, 10.002378, 9.998119 
2.1551506e+3, 1.9462083e+2, -905122.0, -1191288.6, -53705.883, 0.07360709, -0.4685586, -895374.8, 137295.42, 0.0, 10.001806, 9.998015 
2.1551353e+3, 2.0461935e+2, -814428.5, -982954.06, -63257.727, 0.06982903, -0.46150872, -793326.44, 141359.05, 0.0, 10.001266, 9.999034 
2.15512e+3, 2.1461855e+2, -796070.9, -933080.7, -53979.688, 0.05467466, -0.44732752, -777359.2, 59334.605, 0.0, 10.000761, 9.998946 
2.1551044e+3, 2.2461776e+2, -738256.25, -785864.2, -58649.355, 0.0434048, -0.444349, -698764.25, 39937.06, 0.0, 10.000189, 9.999559 
2.155089e+3, 2.3461722e+2, -741970.25, -748039.25, -65789.164, 0.038052354, -0.45508435, -679145.6, -38439.887, 0.0, 9.999538, 9.99946 
2.1550737e+3, 2.4461684e+2, -683723.8, -601387.7, -54103.06, 0.034810293, -0.46402457, -574570.8, -31861.932, 0.0, 9.998974, 10.000066 
2.1550585e+3, 2.546168e+2, -660463.1, -550860.1, -50831.887, 0.03060969, -0.47470233, -530914.9, -86206.0, 0.0, 9.998509, 9.999964 
2.1550435e+3, 2.6461685e+2, -602340.6, -414146.66, -43299.633, 0.023389013, -0.48436874, -404662.25, -57954.047, 0.0, 9.997987, 10.000482 
2.1550286e+3, 2.7461728e+2, -598304.2, -373714.84, -37664.715, 0.02127889, -0.4879872, -367566.6, -118862.26, 0.0, 9.997395, 10.000371 
2.1550137e+3, 2.8461802e+2, -531162.8, -255762.06, -33011.305, 0.035480488, -0.4614203, -251860.39, -101162.77, 0.0, 9.997033, 10.000682 
2.1549991e+3, 2.946191e+2, -460199.1, -188724.44, -31179.496, 0.04484881, -0.41871125, -185189.44, -132502.27, 0.0, 9.996924, 10.000522 
2.1549836e+3, 3.0461845e+2, -519400.22, -223417.1, -40071.043, -0.019221932, -0.5157487, -218088.11, -218088.11, 0.0, 9.996318, 10.000239 
2.1549694e+3, 3.1461978e+2, -503149.97, 70410.13, -45167.48, 0.0602343, -0.40896523, 73945.26, 73945.26, 0.0, 9.995198, 10.002797 
2.1652624e+3, 1.2465286e+2, -1119878.4, -1728642.1, 9765.725, 0.13705294, -0.54340905, -1119721.8, 598627.0, 0.09486972, 10.005944, 9.997042 
2.1652468e+3, 1.3464989e+2, -1064930.4, -1682457.4, -12604.629, 0.11130119, -0.5366392, -1064673.1, 555705.25, 0.06804963, 10.005585, 9.99686 
2.1652313e+3, 1.4464703e+2, -1019136.1, -1594157.4, -13777.622, 0.10127363, -0.5133166, -1018806.2, 503601.2, 0.040852346, 10.004989, 9.997079 
2.165216e+3, 1.54644e+2, -1040922.9, -1574058.3, -9215.164, 0.13571467, -0.5226242, -1040763.6, 383674.72, 0.018878175, 10.004127, 9.99696 
2.1652003e+3, 1.6464135e+2, -978390.56, -1415034.5, -17247.982, 0.13386934, -0.51136047, -977710.3, 348755.28, 0.0058378065, 10.003499, 9.997681 
2.165184e+3, 1.7463937e+2, -936646.7, -1356067.5, -27064.11, 0.08734494, -0.4781381, -934907.5, 293579.0, 0.0008577964, 10.003148, 9.9975815 
2.1651682e+3, 1.8463728e+2, -885019.4, -1230781.9, -30310.676, 0.06674486, -0.46198332, -882382.3, 248126.06, 0.000018546296, 10.002613, 9.998027 
2.1651526e+3, 1.9463526e+2, -903379.5, -1201207.9, -24535.002, 0.07709847, -0.4663095, -901371.8, 131157.63, 0.0, 10.001867, 9.997917 
2.1651368e+3, 2.0463371e+2, -822893.8, -985533.2, -27273.629, 0.07547579, -0.46169344, -818442.06, 116103.27, 0.0, 10.001204, 9.999044 
2.1651205e+3, 2.146329e+2, -813688.1, -939882.2, -36410.67, 0.059488088, -0.44846424, -803936.2, 32617.143, 0.0, 10.000634, 9.99896 
2.1651044e+3, 2.2463213e+2, -751796.2, -791962.4, -46199.145, 0.04430657, -0.44529495, -721503.8, 17056.797, 0.0, 10.000096, 9.999561 
2.1650884e+3, 2.346316e+2, -734302.6, -744532.56, -40164.445, 0.031782843, -0.4547583, -698928.75, -58363.73, 0.0, 9.999594, 9.999456 
2.1650726e+3, 2.446312e+2, -675893.94, -596262.06, -22765.457, 0.03131342, -0.4648118, -590213.25, -47644.832, 0.0, 9.999023, 10.000076 
2.165057e+3, 2.5463113e+2, -679540.1, -558432.75, -23808.053, 0.040821545, -0.4777188, -553920.5, -109351.75, 0.0, 9.998374, 9.999976 
2.1650416e+3, 2.6463133e+2, -626015.7, -423269.44, -21622.87, 0.033258945, -0.47691178, -420989.03, -74421.96, 0.0, 9.997816, 10.0005 
2.1650259e+3, 2.7463195e+2, -600608.7, -372794.28, -25306.564, 0.01633752, -0.46068928, -370017.0, -121455.914, 0.0, 9.997372, 10.000388 
2.1650107e+3, 2.8463253e+2, -544364.5, -253512.63, -16658.975, 0.033477664, -0.45554677, -252561.56, -102005.664, 0.0, 9.996907, 10.000757 
2.1649958e+3, 2.9463318e+2, -539031.0, -220263.95, -10114.811, 0.061823804, -0.4659403, -219943.31, -167393.56, 0.0, 9.996358, 10.000577 
2.1649794e+3, 3.0463353e+2, -594571.5, -254000.23, -14953.205, -0.015770987, -0.46690091, -253344.95, -253344.95, 0.0, 9.99578, 10.000288 
2.1649645e+3, 3.146342e+2, -477721.47, 88318.8, 19782.791, 0.037266694, -0.42925495, 89009.35, 89009.35, 0.0, 9.995351, 10.002846 
2.1752685e+3, 1.2466851e+2, -1131911.6, -1754709.1, -4354.3213, 0.1412102, -0.5066111, -1131881.3, 586315.2, 0.09655911, 10.005947, 9.996862 
2.1752524e+3, 1.3466503e+2, -1077798.9, -1709371.0, -25854.252, 0.115238965, -0.5339731, -1076742.3, 543488.94, 0.06929434, 10.005582, 9.996677 
2.175236e+3, 1.4466201e+2, -1009566.44, -1572854.6, -44604.605, 0.10593669, -0.5245328, -1006056.25, 516205.25, 0.041637722, 10.004987, 9.997228 
2.1752203e+3, 1.5465924e+2, -1029018.2, -1550621.5, -41618.527, 0.1417949, -0.5217367, -1025718.3, 398570.78, 0.019276176, 10.004133, 9.997119 
2.1752039e+3, 1.6465667e+2, -992193.94, -1446203.6, -31242.475, 0.13768649, -0.5026985, -990054.06, 336261.7, 0.0059846696, 10.003508, 9.997464 
2.1751873e+3, 1.7465448e+2, -952464.75, -1389813.6, -40040.445, 0.0847921, -0.46641245, -948829.2, 279510.1, 0.00088817236, 10.00315, 9.997351 
2.1751706e+3, 1.8465231e+2, -874025.44, -1208379.5, -57496.65, 0.06407954, -0.45366633, -864414.44, 265947.47, 0.000020075104, 10.002613, 9.998182 
2.1751542e+3, 1.9465032e+2, -891159.94, -1177006.5, -52378.57, 0.081352994, -0.46913725, -881864.4, 150517.16, 0.0, 10.00187, 9.998083 
2.175138e+3, 2.0464873e+2, -837413.6, -1017207.56, -48520.344, 0.08128927, -0.46776092, -825155.4, 109242.33, 0.0, 10.001207, 9.998826 
2.1751213e+3, 2.1464776e+2, -829407.2, -973917.6, -57226.996, 0.060612977, -0.4482076, -809490.06, 26917.914, 0.0, 10.000638, 9.998725 
2.1751048e+3, 2.246469e+2, -740166.4, -769262.44, -64694.36, 0.04357613, -0.4493533, -688404.5, 50011.547, 0.0, 10.0001, 9.999717 
2.175088e+3, 2.3464635e+2, -722114.75, -720498.75, -58795.418, 0.032539785, -0.4765037, -662505.75, -22086.004, 0.0, 9.999598, 9.999621 
2.1750715e+3, 2.44646e+2, -678390.2, -602775.94, -46933.54, 0.03697976, -0.48750278, -580315.9, -37893.316, 0.0, 9.999027, 10.0000305 
2.1750556e+3, 2.546461e+2, -682399.75, -565885.6, -48359.76, 0.05487575, -0.47866103, -548429.06, -104007.1, 0.0, 9.998378, 9.999924 
2.1750394e+3, 2.6464635e+2, -633282.94, -439743.4, -38933.086, 0.041706935, -0.4633798, -432205.1, -85784.945, 0.0, 9.99782, 10.000386 
2.175023e+3, 2.7464685e+2, -608246.56, -390202.7, -41487.4, 0.0030554947, -0.4508924, -382575.66, -134159.77, 0.0, 9.9973755, 10.000268 
2.1750076e+3, 2.8464723e+2, -534166.7, -233836.64, -37724.695, 0.024188599, -0.4671704, -229170.52, -78757.75, 0.0, 9.996911, 10.000892 
2.1749924e+3, 2.9464787e+2, -527055.06, -196478.27, -34193.08, 0.08565823, -0.49203578, -192978.58, -140572.25, 0.0, 9.99636, 10.000741 
2.1749756e+3, 3.0464947e+2, -564030.8, -191155.36, -33530.8, 0.01181543, -0.39362884, -188164.1, -188164.1, 0.0, 9.99578, 10.00072 
2.1749595e+3, 3.1464964e+2, -515994.47, 7336.5137, 21729.588, -0.013392117, -0.4532514, 8237.213, 8237.213, 0.0, 9.995356, 10.002288 
2.1852744e+3, 1.2468423e+2, -1104309.6, -1734041.3, -362.92413, 0.13823433, -0.4926399, -1104309.5, 613733.75, 0.0981374, 10.006144, 9.996908 
2.1852581e+3, 1.3468063e+2, -1091097.5, -1710339.8, -6413.963, 0.1335816, -0.5355972, -1091031.0, 529047.75, 0.07045054, 10.005466, 9.996725 
2.1852413e+3, 1.4467761e+2, -1022125.56, -1575516.8, -25145.246, 0.1244156, -0.52842236, -1020985.4, 501123.47, 0.042362615, 10.004888, 9.997255 
2.1852243e+3, 1.5467505e+2, -984507.1, -1525696.1, -31856.77, 0.13480039, -0.5096918, -982638.4, 441496.5, 0.019641483, 10.0044365, 9.997143 
2.1852073e+3, 1.6467248e+2, -942795.8, -1422026.0, -15601.264, 0.12680304, -0.4902793, -942288.44, 383872.8, 0.006118843, 10.003851, 9.997463 
2.1851905e+3, 1.7467012e+2, -958394.06, -1392947.8, -8567.332, 0.09521934, -0.4710247, -958225.2, 269960.97, 0.0009154211, 10.003112, 9.997346 
2.1851733e+3, 1.8466793e+2, -898384.9, -1222039.6, -27725.047, 0.07844622, -0.4591633, -896027.06, 234181.86, 0.000021349408, 10.002456, 9.998162 
2.1851562e+3, 1.946661e+2, -889039.3, -1178018.0, -36781.02, 0.079628296, -0.4575596, -884431.3, 147796.05, 0.0, 10.001896, 9.998062 
2.1851392e+3, 2.0466445e+2, -826194.2, -1016974.6, -32187.863, 0.07384424, -0.45641014, -820909.94, 113333.98, 0.0, 10.001309, 9.998777 
2.1851218e+3, 2.1466324e+2, -824953.8, -977217.0, -27925.787, 0.059325945, -0.45629793, -819993.6, 16262.586, 0.0, 10.000695, 9.998674 
2.1851048e+3, 2.2466229e+2, -741058.8, -769512.6, -32377.457, 0.046995994, -0.46240002, -719920.44, 18344.559, 0.0, 10.000096, 9.999716 
2.1850877e+3, 2.3466186e+2, -734465.7, -726293.2, -38931.05, 0.039105445, -0.4784419, -691234.56, -50966.71, 0.0, 9.999515, 9.99962 
2.1850705e+3, 2.4466157e+2, -691823.8, -613648.9, -35191.027, 0.042554293, -0.48146188, -600141.3, -57870.977, 0.0, 9.998956, 9.9999895 
2.185054e+3, 2.5466168e+2, -679620.44, -569753.75, -36430.047, 0.05497416, -0.46717408, -558771.8, -114501.805, 0.0, 9.998422, 9.999876 
2.1850371e+3, 2.646619e+2, -630853.0, -439847.5, -21376.992, 0.043737266, -0.4523941, -437484.25, -91215.56, 0.0, 9.997845, 10.000373 
2.1850204e+3, 2.746623e+2, -632475.1, -403161.22, -15737.186, 0.014906699, -0.44946772, -402086.28, -153820.9, 0.0, 9.997218, 10.000254 
2.1850044e+3, 2.8466263e+2, -577158.4, -259138.05, -14661.766, 0.029430646, -0.46326557, -258463.52, -108201.23, 0.0, 9.996638, 10.000849 
2.1849883e+3, 2.9466346e+2, -562270.8, -213913.03, -26543.111, 0.0672389, -0.46623066, -211902.19, -159647.84, 0.0, 9.996122, 10.000734 
2.1849714e+3, 3.0466506e+2, -554552.44, -141109.97, -29383.385, 0.012414167, -0.39016137, -139032.13, -139032.13, 0.0, 9.995651, 10.001125 
2.1849546e+3, 3.1466544e+2, -564181.44, -60273.984, 36593.63, -0.022355765, -0.46573544, -57630.434, -57630.434, 0.0, 9.995218, 10.001889 
2.1952805e+3, 1.2470008e+2, -1089901.6, -1700438.8, -23904.738, 0.12742257, -0.49956948, -1088967.1, 628921.4, 0.09960794, 10.006142, 9.997153 
2.195264e+3, 1.3469675e+2, -1076038.5, -1674618.9, -30581.21, 0.16542765, -0.54119384, -1074480.1, 545440.75, 0.07152288, 10.005462, 9.996974 
2.1952464e+3, 1.446939e+2, -1029358.3, -1590147.0, -41938.76, 0.155451, -0.52574205, -1026239.25, 495710.2, 0.043031506, 10.004884, 9.997159 
2.1952285e+3, 1.5469143e+2, -992216.9, -1541913.5, -48388.285, 0.11485689, -0.48744646, -987989.94, 435985.63, 0.019977283, 10.004435, 9.997033 
2.1952109e+3, 1.6468883e+2, -929238.25, -1394237.4, -42674.855, 0.101860374, -0.4744253, -925354.25, 400647.84, 0.006242001, 10.003851, 9.997655 
2.1951939e+3, 1.7468631e+2, -943979.3, -1364095.1, -36362.797, 0.11772596, -0.49064055, -940855.2, 287172.06, 0.0009401602, 10.003115, 9.997544 
2.195176e+3, 1.8468413e+2, -911216.2, -1250189.8, -48967.402, 0.10855256, -0.47725624, -904284.25, 225765.47, 0.000022413657, 10.0024605, 9.997969 
2.195158e+3, 1.9468254e+2, -902725.25, -1208075.8, -57552.918, 0.07198009, -0.43229222, -892237.8, 139829.4, 0.0, 10.001901, 9.997854 
2.1951401e+3, 2.0468086e+2, -817824.44, -1001223.6, -54839.742, 0.05371451, -0.42860433, -802677.4, 131406.78, 0.0, 10.001314, 9.998885 
2.1951225e+3, 2.1467932e+2, -816288.75, -960466.7, -50609.07, 0.055473838, -0.47238144, -800297.7, 35800.844, 0.0, 10.000698, 9.998789 
2.195105e+3, 2.2467831e+2, -751608.4, -792688.7, -54066.496, 0.054245234, -0.4839631, -714311.9, 23795.967, 0.0, 10.000099, 9.999557 
2.1950872e+3, 2.3467809e+2, -745540.4, -750860.0, -60516.844, 0.051222082, -0.46113512, -687624.94, -47515.355, 0.0, 9.999519, 9.999451 
2.1950696e+3, 2.4467786e+2, -694357.8, -620550.56, -55231.89, 0.04792516, -0.44740546, -591028.0, -48915.887, 0.0, 9.9989605, 9.999941 
2.1950522e+3, 2.5467783e+2, -682455.3, -577245.25, -56537.92, 0.040864024, -0.44361004, -552624.5, -108511.13, 0.0, 9.998426, 9.999824 
2.1950349e+3, 2.6467788e+2, -624817.75, -428782.88, -45226.785, 0.039220974, -0.44422308, -418851.78, -72738.55, 0.0, 9.9978485, 10.000447 
2.1950181e+3, 2.746782e+2, -626135.2, -391325.8, -39932.035, 0.05186523, -0.4566066, -384720.72, -136610.58, 0.0, 9.997221, 10.000335 
2.1950012e+3, 2.8467873e+2, -592812.06, -292619.2, -35108.523, 0.04896251, -0.4430415, -288567.8, -138462.7, 0.0, 9.99664, 10.000619 
2.194984e+3, 2.946799e+2, -574512.2, -240393.52, -46531.832, 0.005413972, -0.3871139, -234034.19, -181939.8, 0.0, 9.996124, 10.000553 
2.1949668e+3, 3.0468014e+2, -528182.25, -87633.68, -47174.746, -0.014009532, -0.462652, -82638.76, -82638.76, 0.0, 9.995654, 10.0014925 
2.1949501e+3, 3.1468186e+2, -577744.3, -90303.73, 26587.568, 0.0127493385, -0.43400306, -88857.79, -88857.79, 0.0, 9.995224, 10.001681 
2.2052866e+3, 1.2471672e+2, -1086437.3, -1699503.1, 9694.192, 0.12411764, -0.5154551, -1086284.0, 631441.1, 0.10098222, 10.006183, 9.997141 
2.2052693e+3, 1.3471358e+2, -1088338.9, -1681888.3, -12927.464, 0.17181836, -0.5365849, -1088057.5, 531698.94, 0.07252286, 10.005382, 9.996962 
2.2052512e+3, 1.4471081e+2, -1041992.94, -1589167.1, -16614.174, 0.16398154, -0.51516294, -1041488.94, 480295.53, 0.043653272, 10.004766, 9.99722 
2.205233e+3, 1.5470833e+2, -998801.6, -1537925.8, -10778.638, 0.117337905, -0.48338905, -998586.2, 425224.2, 0.02028857, 10.004361, 9.997095 
2.2052148e+3, 1.6470575e+2, -932757.1, -1395355.1, -15368.466, 0.10230073, -0.4709649, -932247.06, 393589.53, 0.006356315, 10.003826, 9.997658 
2.205197e+3, 1.747033e+2, -938854.6, -1361316.6, -24023.129, 0.12012277, -0.48152843, -937492.94, 290368.28, 0.00096326123, 10.003151, 9.997544 
2.2051787e+3, 1.8470109e+2, -900011.9, -1247437.6, -32016.303, 0.110309795, -0.47009465, -897086.1, 232797.84, 0.000023369355, 10.002551, 9.997943 
2.20516e+3, 1.9469938e+2, -885026.6, -1202532.6, -27839.617, 0.07017582, -0.4348603, -882604.1, 149298.58, 0.0, 10.002037, 9.997827 
2.2051416e+3, 2.046977e+2, -804160.94, -998352.3, -28662.645, 0.052610148, -0.4285063, -800018.7, 133901.06, 0.0, 10.001426, 9.99885 
2.2051233e+3, 2.1469626e+2, -817808.44, -965165.06, -36322.977, 0.060150962, -0.45646843, -809341.44, 26591.684, 0.0, 10.000707, 9.998751 
2.205105e+3, 2.246952e+2, -761188.94, -808303.1, -39161.484, 0.059404064, -0.46462303, -739045.25, -1102.2737, 0.0, 10.000083, 9.999455 
2.2050866e+3, 2.346948e+2, -746008.94, -762536.25, -40952.18, 0.050630834, -0.4510923, -712495.0, -72548.07, 0.0, 9.999567, 9.999346 
2.2050686e+3, 2.4469449e+2, -691727.7, -623625.94, -34290.633, 0.044668216, -0.43743676, -609351.75, -67401.46, 0.0, 9.999001, 9.9999 
2.2050506e+3, 2.546945e+2, -692659.3, -586475.1, -35335.246, 0.038820993, -0.42613026, -575791.44, -131840.11, 0.0, 9.998378, 9.999782 
2.2050327e+3, 2.6469448e+2, -637692.5, -434216.34, -27995.338, 0.039944362, -0.43119666, -430434.84, -84482.98, 0.0, 9.99776, 10.000452 
2.2050151e+3, 2.746947e+2, -639865.0, -397419.47, -29069.719, 0.056359038, -0.4539369, -393982.66, -146032.95, 0.0, 9.997128, 10.000337 
2.2049975e+3, 2.8469542e+2, -612560.9, -301527.13, -15317.231, 0.04771574, -0.42358887, -300774.63, -150831.67, 0.0, 9.996505, 10.000622 
2.2049798e+3, 2.9469684e+2, -600134.9, -251314.14, -7630.869, -0.008924401, -0.34037343, -251147.28, -199217.86, 0.0, 9.995945, 10.000563 
2.2049624e+3, 3.0469605e+2, -564775.0, -124255.66, -20852.07, -0.0035173523, -0.5109021, -123270.83, -123270.83, 0.0, 9.995487, 10.00132 
2.2049451e+3, 3.1469858e+2, -587053.7, -69392.99, 16625.893, 0.004417917, -0.38101366, -68859.56, -68859.56, 0.0, 9.995053, 10.001905 
2.2152928e+3, 1.24734156e+2, -1104816.8, -1735949.5, -18347.125, 0.1273878, -0.53972745, -1104283.8, 613269.44, 0.102269806, 10.006172, 9.996883 
2.2152744e+3, 1.3473113e+2, -1105907.4, -1720385.8, -41019.42, 0.15328969, -0.52213675, -1103181.3, 516403.97, 0.073458284, 10.005381, 9.996699 
2.2152558e+3, 1.4472836e+2, -1028042.25, -1560020.4, -31253.535, 0.15087159, -0.49708423, -1026212.44, 495401.3, 0.044233564, 10.004771, 9.997419 
2.2152376e+3, 1.5472579e+2, -984142.7, -1507548.0, -25906.951, 0.14079173, -0.49580055, -982863.5, 440775.84, 0.020578817, 10.004362, 9.997304 
2.2152187e+3, 1.6472328e+2, -945038.6, -1421688.8, -40430.316, 0.12606767, -0.47860274, -941633.56, 384031.25, 0.0064636106, 10.003827, 9.9974785 
2.2151999e+3, 1.7472106e+2, -951448.25, -1389139.0, -49277.02, 0.103233814, -0.44571996, -945969.0, 281719.28, 0.0009856035, 10.003156, 9.997353 
2.2151808e+3, 1.8471876e+2, -890049.25, -1228696.4, -51305.93, 0.08538723, -0.43960366, -882446.94, 247264.98, 0.00002434694, 10.002557, 9.99807 
2.215162e+3, 1.9471659e+2, -875052.6, -1183060.0, -46896.125, 0.07376607, -0.46363327, -868070.7, 163663.1, 0.0, 10.00204, 9.99796 
2.215143e+3, 2.0471492e+2, -816476.5, -1024959.75, -55273.375, 0.0693376, -0.45425522, -802728.9, 131021.84, 0.0, 10.001429, 9.998667 
2.215124e+3, 2.1471404e+2, -830688.1, -993331.7, -62939.55, 0.07284177, -0.40973338, -809176.94, 26583.537, 0.0, 10.0007105, 9.998557 
2.2151053e+3, 2.2471297e+2, -763970.9, -815815.25, -58461.895, 0.062451538, -0.40614617, -725941.9, 11829.011, 0.0, 10.000089, 9.999403 
2.2150862e+3, 2.3471195e+2, -748650.4, -769655.3, -60125.523, 0.037397567, -0.44827023, -698117.0, -58336.81, 0.0, 9.999572, 9.999295 
2.2150674e+3, 2.4471143e+2, -694074.75, -629921.6, -57617.633, 0.03288826, -0.45079866, -596053.5, -54268.195, 0.0, 9.999004, 9.999856 
2.2150491e+3, 2.5471163e+2, -694847.75, -592310.4, -58525.832, 0.04862828, -0.41440699, -565773.2, -121988.81, 0.0, 9.998381, 9.999742 
2.2150305e+3, 2.6471165e+2, -642280.2, -445051.84, -52003.633, 0.04567329, -0.4133258, -432179.97, -86394.89, 0.0, 9.997763, 10.000378 
2.215012e+3, 2.747117e+2, -644759.5, -409181.94, -54059.97, 0.027782148, -0.44235632, -397368.72, -149584.02, 0.0, 9.997131, 10.000255 
2.2149938e+3, 2.8471255e+2, -596084.94, -268488.0, -37490.35, 0.025418287, -0.40547583, -264252.34, -114475.9, 0.0, 9.996508, 10.000849 
2.2149761e+3, 2.947142e+2, -586718.56, -224058.0, -27931.516, 0.02497305, -0.3254695, -221919.38, -170159.33, 0.0, 9.995945, 10.0007515 
2.2149582e+3, 3.0471274e+2, -616903.8, -233320.69, -38309.86, 0.044003233, -0.53329116, -229531.95, -229531.95, 0.0, 9.995489, 10.000571 
2.2149397e+3, 3.1471518e+2, -535566.44, 35226.41, -7488.81, -0.046487078, -0.34202108, 35324.65, 35324.65, 0.0, 9.99506, 10.002623 
2.225299e+3, 1.2475235e+2, -1131381.4, -1751358.1, 368.0438, 0.13386951, -0.5447605, -1131381.3, 585994.06, 0.10347248, 10.005983, 9.996867 
2.2252798e+3, 1.3474952e+2, -1082860.9, -1709172.8, -4660.5923, 0.13998099, -0.50696754, -1082826.1, 536579.75, 0.07432921, 10.005562, 9.996687 
2.2252607e+3, 1.4474677e+2, -996172.25, -1548899.6, 8405.704, 0.13679111, -0.47836494, -996044.44, 525390.06, 0.04477268, 10.005027, 9.997372 
2.225242e+3, 1.5474401e+2, -987455.5, -1514559.1, -4039.631, 0.14597061, -0.48847398, -987424.56, 436037.1, 0.020849258, 10.004366, 9.997253 
2.2252226e+3, 1.6474141e+2, -952410.9, -1428870.9, -23867.973, 0.13342617, -0.4765426, -951218.2, 374269.75, 0.0065651583, 10.003794, 9.997444 
2.225203e+3, 1.7473918e+2, -929522.44, -1382285.4, -21692.72, 0.09414533, -0.44158316, -928485.5, 299026.0, 0.0010078596, 10.0033245, 9.997318 
2.2251834e+3, 1.847369e+2, -862810.75, -1213776.0, -24039.281, 0.073552825, -0.43348506, -861171.8, 268363.16, 0.000025475509, 10.002738, 9.998084 
2.225164e+3, 1.9473472e+2, -876593.94, -1181940.0, -29042.18, 0.074332826, -0.45652866, -873856.2, 157700.28, 0.0, 10.002024, 9.997974 
2.2251445e+3, 2.0473303e+2, -830731.8, -1041044.94, -39710.176, 0.07376633, -0.44654715, -823483.75, 110090.04, 0.0, 10.001372, 9.998582 
2.2251247e+3, 2.1473205e+2, -825023.8, -1000265.6, -40112.74, 0.07160255, -0.40101415, -816278.5, 19306.082, 0.0, 10.000793, 9.998468 
2.2251052e+3, 2.2473094e+2, -753968.2, -821475.94, -30176.377, 0.061029878, -0.3948868, -742445.8, -4849.855, 0.0, 10.000205, 9.999307 
2.2250856e+3, 2.3472984e+2, -750735.3, -781339.06, -35564.695, 0.041742757, -0.4333647, -727320.4, -87714.24, 0.0, 9.999606, 9.999197 
2.2250664e+3, 2.4472927e+2, -706380.06, -640445.56, -39742.703, 0.03670723, -0.43564913, -621776.4, -80164.27, 0.0, 9.998942, 9.999812 
2.2250473e+3, 2.547294e+2, -724205.5, -610705.8, -40922.16, 0.04580735, -0.40216413, -597490.2, -153878.33, 0.0, 9.9982, 9.999701 
2.2250281e+3, 2.647294e+2, -672035.75, -458791.8, -27741.82, 0.039428964, -0.39917699, -455241.88, -109629.39, 0.0, 9.997559, 10.00038 
2.225009e+3, 2.7472952e+2, -657366.44, -414503.44, -23928.166, 0.019803794, -0.42199704, -412168.34, -164557.03, 0.0, 9.997045, 10.000258 
2.2249903e+3, 2.8473032e+2, -592295.8, -256313.4, -10274.218, 0.014800354, -0.39684612, -255999.52, -106395.805, 0.0, 9.996491, 10.000938 
2.2249717e+3, 2.9473174e+2, -598733.9, -225329.25, -11909.076, 0.015478676, -0.3457881, -224949.81, -173360.45, 0.0, 9.995847, 10.000789 
2.2249539e+3, 3.0473083e+2, -683444.94, -296455.44, -8318.805, 0.05367286, -0.4818655, -296276.7, -296276.7, 0.0, 9.995169, 10.000291 
2.2249344e+3, 3.147326e+2, -580460.3, 69729.84, 46608.71, -0.05067966, -0.3329556, 73053.984, 73053.984, 0.0, 9.9945135, 10.003121 
2.2353049e+3, 1.2477132e+2, -1120575.1, -1722785.5, -14893.704, 0.14156356, -0.5326116, -1120207.0, 596984.0, 0.104593284, 10.005973, 9.997069 
2.2352853e+3, 1.3476872e+2, -1069870.1, -1679019.8, -19763.902, 0.13162579, -0.49131235, -1069229.5, 549989.0, 0.07513792, 10.00556, 9.996897 
2.2352657e+3, 1.4476596e+2, -1015324.3, -1590873.6, -15602.303, 0.121815115, -0.4591368, -1014901.7, 506345.38, 0.045273095, 10.005028, 9.997085 
2.2352462e+3, 1.5476298e+2, -1007547.75, -1558141.3, -28578.918, 0.13351977, -0.46300268, -1006068.3, 417209.0, 0.021102253, 10.004368, 9.996955 
2.2352263e+3, 1.6476013e+2, -944871.8, -1414457.0, -41411.805, 0.12514152, -0.4654631, -941247.75, 384058.16, 0.0066624135, 10.003798, 9.997542 
2.2352064e+3, 1.7475764e+2, -921730.1, -1366978.9, -39183.965, 0.09219581, -0.46646178, -918308.06, 309022.7, 0.0010305197, 10.003326, 9.997423 
2.2351861e+3, 1.8475544e+2, -869803.8, -1229010.4, -50528.313, 0.07371669, -0.4495765, -862831.5, 266521.63, 0.00002688948, 10.002739, 9.99798 
2.235166e+3, 1.9475375e+2, -883681.8, -1197840.1, -55783.082, 0.07187745, -0.41543278, -874070.8, 157300.31, 0.0, 10.002027, 9.997865 
2.2351457e+3, 2.0475198e+2, -829594.9, -1040357.2, -61320.367, 0.06646612, -0.40747178, -813052.4, 120336.84, 0.0, 10.001377, 9.998586 
2.2351255e+3, 2.1475033e+2, -823697.56, -999334.75, -61456.207, 0.056813683, -0.42883015, -804329.56, 31076.057, 0.0, 10.000799, 9.998473 
2.2351055e+3, 2.2474909e+2, -763577.6, -843123.4, -52296.805, 0.055277225, -0.42863715, -737647.9, -229.55244, 0.0, 10.00021, 9.999157 
2.2350857e+3, 2.3474845e+2, -761064.2, -804109.94, -57824.02, 0.0630639, -0.4063756, -720887.4, -81462.26, 0.0, 9.99961, 9.999041 
2.2350657e+3, 2.4474792e+2, -709312.4, -647961.5, -67352.85, 0.05550384, -0.39285457, -604627.56, -63196.438, 0.0, 9.998946, 9.99976 
2.2350454e+3, 2.547477e+2, -726779.4, -617876.94, -69092.336, 0.030114418, -0.38998735, -584358.4, -140924.13, 0.0, 9.998206, 9.99965 
2.2350253e+3, 2.6474768e+2, -666529.0, -448817.22, -47838.97, 0.021258917, -0.3885239, -438769.06, -93334.56, 0.0, 9.997562, 10.000447 
2.2350061e+3, 2.747481e+2, -651607.3, -403489.38, -43225.41, 0.032549098, -0.3914886, -396174.6, -148744.63, 0.0, 9.997046, 10.000335 
2.2349869e+3, 2.8474855e+2, -595918.0, -264732.66, -34886.05, 0.015676318, -0.39793372, -261097.77, -111672.375, 0.0, 9.996493, 10.00088 
2.234967e+3, 2.9474935e+2, -606437.56, -243241.53, -38110.703, -0.039017286, -0.40549037, -239285.61, -187867.11, 0.0, 9.995852, 10.000664 
2.2349484e+3, 3.0475032e+2, -669633.0, -268808.9, -33881.06, 0.024416622, -0.35197872, -265965.16, -265965.16, 0.0, 9.995171, 10.000481 
2.2349295e+3, 3.147509e+2, -567739.6, 96770.81, 3299.4292, -0.0060351915, -0.3494035, 96787.195, 96787.195, 0.0, 9.994507, 10.003312 
2.245311e+3, 1.24791e+2, -1123215.0, -1722753.5, 15548.323, 0.14531958, -0.51506996, -1122812.0, 594187.8, 0.105644085, 10.005955, 9.997078 
2.2452907e+3, 1.3478842e+2, -1073324.8, -1679266.4, -742.95087, 0.121102124, -0.47268367, -1073323.9, 545703.06, 0.07589548, 10.005534, 9.996906 
2.2452705e+3, 1.447856e+2, -1017819.6, -1602279.0, -3253.5664, 0.10714483, -0.44195098, -1017801.5, 503254.5, 0.045743152, 10.005058, 9.99699 
2.2452505e+3, 1.547825e+2, -992263.9, -1561247.5, -2456.9038, 0.12504539, -0.44790244, -992253.25, 430834.2, 0.021342136, 10.004524, 9.996857 
2.2452302e+3, 1.6477957e+2, -924808.7, -1401664.6, -9746.61, 0.122021735, -0.45428482, -924609.5, 400507.06, 0.006756677, 10.003925, 9.997568 
2.2452095e+3, 1.7477705e+2, -930389.7, -1367979.1, -13826.751, 0.09357974, -0.46171698, -929953.25, 297187.94, 0.0010538278, 10.003255, 9.99745 
2.2451887e+3, 1.847748e+2, -893143.5, -1248767.1, -30406.664, 0.07613361, -0.4466466, -890562.4, 238601.52, 0.000028719203, 10.002617, 9.997903 
2.245168e+3, 1.9477306e+2, -890836.94, -1210164.0, -33861.363, 0.07142267, -0.4084224, -887285.8, 143896.89, 0.0, 10.002017, 9.997784 
2.2451472e+3, 2.0477124e+2, -817044.75, -1034084.75, -34630.08, 0.06377168, -0.40106755, -811653.25, 121548.1, 0.0, 10.001465, 9.998586 
2.2451262e+3, 2.1476953e+2, -799642.0, -987526.9, -35625.844, 0.052622695, -0.42885497, -793113.6, 42104.453, 0.0, 10.000965, 9.998473 
2.2451057e+3, 2.2476827e+2, -752180.1, -846006.9, -30177.238, 0.052235976, -0.42588198, -743312.44, -6081.487, 0.0, 10.000327, 9.999079 
2.2450852e+3, 2.3476769e+2, -777586.9, -820743.44, -30368.47, 0.064248204, -0.39078993, -761911.06, -122673.33, 0.0, 9.9995365, 9.9989605 
2.2450645e+3, 2.4476708e+2, -720198.94, -659842.0, -34199.11, 0.05542391, -0.37523344, -644409.94, -103165.43, 0.0, 9.998903, 9.999697 
2.2450435e+3, 2.5476673e+2, -697497.3, -610705.06, -36935.58, 0.022610068, -0.38033202, -597114.75, -153865.55, 0.0, 9.99844, 9.999585 
2.245023e+3, 2.647667e+2, -637457.4, -434939.78, -23206.951, 0.0128689585, -0.3773789, -432314.47, -87065.01, 0.0, 9.997766, 10.000443 
2.2450031e+3, 2.7476716e+2, -679572.7, -416650.34, -24132.291, 0.030939978, -0.3739821, -414453.72, -167209.89, 0.0, 9.996857, 10.000334 
2.2449832e+3, 2.8476748e+2, -644891.94, -293101.97, -12042.549, 0.012159793, -0.39329195, -292690.22, -143449.39, 0.0, 9.996181, 10.000834 
2.2449626e+3, 2.9476804e+2, -621871.2, -255167.0, -14341.182, -0.054020897, -0.41832533, -254607.0, -203370.16, 0.0, 9.995769, 10.000621 
2.2449435e+3, 3.0476987e+2, -639484.75, -205420.45, -3106.6409, 0.005337013, -0.30148876, -205398.22, -205398.22, 0.0, 9.99517, 10.000916 
2.2449239e+3, 3.147701e+2, -617267.75, 46650.023, 29449.824, -0.0007174915, -0.3745338, 47953.79, 47953.79, 0.0, 9.994284, 10.003074 
2.2553168e+3, 1.24811366e+2, -1135168.3, -1748851.1, -325.09592, 0.14477646, -0.49428594, -1135168.1, 581633.8, 0.10663738, 10.005953, 9.9969 
2.2552961e+3, 1.3480863e+2, -1085711.4, -1705910.3, -15947.503, 0.10764401, -0.45083266, -1085301.5, 533529.4, 0.076614566, 10.00553, 9.996726 
2.2552754e+3, 1.448057e+2, -1013328.5, -1591881.1, -22832.693, 0.0919713, -0.42586887, -1012428.8, 508432.1, 0.04619187, 10.005055, 9.997065 
2.2552548e+3, 1.5480256e+2, -987427.44, -1549905.5, -22422.201, 0.11990581, -0.44183514, -986535.0, 436357.0, 0.021572806, 10.0045185, 9.996939 
2.2552341e+3, 1.6479972e+2, -929365.1, -1410564.1, -34945.215, 0.123432525, -0.44285497, -926840.6, 398079.53, 0.006848599, 10.003921, 9.997511 
2.255213e+3, 1.7479733e+2, -934095.44, -1376719.3, -39259.313, 0.09784275, -0.42963195, -930640.25, 296303.0, 0.001077814, 10.003257, 9.99739 
2.2551914e+3, 1.8479492e+2, -896151.2, -1256863.1, -53038.56, 0.08047329, -0.42618468, -888514.2, 240453.33, 0.000031062955, 10.002623, 9.997846 
2.2551699e+3, 1.9479266e+2, -893995.44, -1218492.9, -56229.7, 0.072560124, -0.4334451, -884528.06, 146463.11, 0.0, 10.002023, 9.9977255 
2.2551487e+3, 2.0479082e+2, -817597.06, -1036690.4, -53101.97, 0.06531396, -0.42520902, -805405.06, 127605.04, 0.0, 10.001469, 9.998568 
2.2551271e+3, 2.147896e+2, -800497.94, -990112.44, -54092.652, 0.058494773, -0.4019782, -786151.94, 48870.316, 0.0, 10.000967, 9.998456 
2.255106e+3, 2.2478844e+2, -752835.9, -848373.6, -59370.574, 0.051634397, -0.3882296, -724402.8, 12631.438, 0.0, 10.000329, 9.9990635 
2.2550845e+3, 2.347875e+2, -777655.0, -822722.06, -59982.41, 0.045597512, -0.38666025, -736113.2, -97068.81, 0.0, 9.999542, 9.998945 
2.2550632e+3, 2.4478674e+2, -724940.9, -671572.7, -51868.703, 0.036938414, -0.3821115, -639926.7, -98873.94, 0.0, 9.998909, 9.999615 
2.255042e+3, 2.5478643e+2, -703105.6, -623753.25, -54471.586, 0.02312865, -0.37291402, -596039.9, -152982.81, 0.0, 9.998444, 9.999495 
2.2550207e+3, 2.6478633e+2, -642981.5, -447442.78, -57478.76, 0.013925122, -0.36576375, -431798.5, -86740.66, 0.0, 9.997768, 10.000358 
2.2549997e+3, 2.7478665e+2, -685268.8, -429754.38, -58940.938, 0.014279336, -0.37038288, -416813.53, -169759.97, 0.0, 9.99686, 10.000244 
2.2549793e+3, 2.8478697e+2, -647381.6, -299424.6, -28963.436, 0.004137338, -0.38294762, -297030.2, -147979.58, 0.0, 9.996183, 10.000792 
2.2549587e+3, 2.9478776e+2, -619206.25, -250501.13, -30467.102, -0.028394891, -0.38164, -248000.52, -196955.69, 0.0, 9.9957695, 10.000654 
2.2549388e+3, 3.0478927e+2, -591029.94, -105326.98, -34984.266, -0.004074669, -0.3342336, -102820.07, -102820.07, 0.0, 9.99517, 10.001604 
2.2549178e+3, 3.1479067e+2, -666283.2, -56050.105, -18750.568, -0.032570597, -0.35208, -55474.5, -55474.5, 0.0, 9.994286, 10.002369 
2.2653228e+3, 1.24832265e+2, -1123041.6, -1745059.3, 10891.17, 0.13248369, -0.4568005, -1122851.0, 593748.44, 0.107566714, 10.006065, 9.996871 
2.2653018e+3, 1.348293e+2, -1075006.1, -1703141.9, 5833.4707, 0.10736489, -0.4324629, -1074951.9, 543678.25, 0.07729234, 10.005628, 9.996697 
2.2652803e+3, 1.4482631e+2, -1015607.1, -1587330.8, -4896.0205, 0.09546183, -0.41477245, -1015565.2, 505095.25, 0.04661789, 10.005019, 9.997111 
2.2652593e+3, 1.548233e+2, -1026222.9, -1563488.6, -7329.2163, 0.11840704, -0.42332336, -1026122.94, 396567.25, 0.021793118, 10.004226, 9.996985 
2.2652377e+3, 1.6482043e+2, -975243.4, -1438649.1, -15618.412, 0.12064103, -0.42536917, -974717.6, 350000.7, 0.00693729, 10.003632, 9.997456 
2.2652161e+3, 1.748179e+2, -938527.8, -1384844.4, -19982.031, 0.09728603, -0.42182228, -937635.0, 289107.8, 0.001102139, 10.003255, 9.997334 
2.265194e+3, 1.8481544e+2, -876461.3, -1247634.8, -35668.81, 0.080345795, -0.42048442, -873064.7, 255702.89, 0.00003393106, 10.002762, 9.997841 
2.2651722e+3, 1.9481322e+2, -876993.8, -1210552.3, -35837.69, 0.07116667, -0.42252377, -873186.9, 157603.95, 0.0, 10.002143, 9.997721 
2.2651501e+3, 2.0481138e+2, -817012.1, -1039873.6, -31086.69, 0.06484925, -0.4103667, -812757.1, 120052.46, 0.0, 10.00149, 9.998533 
2.2651282e+3, 2.1481016e+2, -826843.44, -1006229.06, -33672.758, 0.061199874, -0.3840333, -820730.94, 14090.8125, 0.0, 10.000803, 9.998423 
2.2651061e+3, 2.2480893e+2, -773779.2, -862123.75, -42289.094, 0.05017144, -0.37370694, -756799.56, -19965.102, 0.0, 10.000203, 9.999028 
2.265084e+3, 2.3480783e+2, -757778.56, -816876.8, -44648.22, 0.032408684, -0.38258526, -733786.94, -94940.87, 0.0, 9.999697, 9.99891 
2.265062e+3, 2.448071e+2, -705596.3, -662370.5, -34375.53, 0.024199158, -0.37535205, -643378.06, -102523.67, 0.0, 9.999044, 9.999611 
2.2650403e+3, 2.5480694e+2, -733826.44, -638829.9, -31097.324, 0.023256253, -0.35052398, -629555.56, -186698.33, 0.0, 9.998237, 9.99949 
2.2650185e+3, 2.6480678e+2, -665298.2, -458798.1, -29045.709, 0.011257667, -0.35105914, -454790.38, -109931.71, 0.0, 9.997621, 10.000349 
2.2649966e+3, 2.7480677e+2, -637951.3, -408406.84, -25480.05, -0.005675271, -0.38418698, -405612.5, -158755.39, 0.0, 9.997193, 10.000228 
2.2649753e+3, 2.8480726e+2, -616953.6, -287953.34, 4004.802, -0.0047580674, -0.37870252, -287904.6, -139051.94, 0.0, 9.9964075, 10.000761 
2.2649546e+3, 2.9480857e+2, -690189.25, -283014.34, 4021.3452, -0.002102714, -0.32106194, -282974.63, -232132.73, 0.0, 9.995278, 10.000666 
2.2649333e+3, 3.0480918e+2, -651239.56, -109755.52, -11619.334, -0.021102456, -0.37713507, -109506.31, -109506.31, 0.0, 9.994654, 10.0018215 
2.2649118e+3, 3.1481138e+2, -639053.94, -48274.406, -25663.666, -0.048333175, -0.33331245, -47161.664, -47161.664, 0.0, 9.994497, 10.002319 
2.2753286e+3, 1.24853715e+2, -1117404.4, -1731016.1, -5092.173, 0.10885128, -0.40436196, -1117362.1, 599030.1, 0.10840003, 10.006065, 9.996968 
2.2753073e+3, 1.3485047e+2, -1070402.5, -1689423.0, -9732.848, 0.117936954, -0.4172192, -1070249.6, 548174.9, 0.07790392, 10.005615, 9.9967985 
2.2752856e+3, 1.4484745e+2, -1016477.7, -1587358.3, -33619.516, 0.114914104, -0.40824088, -1014504.7, 505949.84, 0.047005054, 10.00501, 9.997118 
2.2752634e+3, 1.548447e+2, -1024844.1, -1562622.3, -36959.652, 0.11989481, -0.393506, -1022315.94, 400166.06, 0.02199511, 10.004232, 9.996989 
2.2752415e+3, 1.6484173e+2, -977941.94, -1447039.5, -29971.383, 0.11377432, -0.4022235, -976034.75, 348476.25, 0.0070199477, 10.003641, 9.997395 
2.2752193e+3, 1.7483875e+2, -942638.44, -1393883.4, -33924.277, 0.09193537, -0.4362311, -940102.25, 286437.44, 0.0011260561, 10.003255, 9.997273 
2.2751968e+3, 1.8483633e+2, -874493.1, -1243554.8, -58601.297, 0.07589604, -0.4282559, -865411.6, 263152.4, 0.000037226386, 10.002759, 9.997871 
2.2751741e+3, 1.9483466e+2, -874392.94, -1206132.5, -58887.965, 0.06733143, -0.37759843, -864249.7, 166332.31, 0.000000000000000002497382, 10.002145, 9.997751 
2.2751516e+3, 2.0483291e+2, -819836.0, -1047398.4, -56588.973, 0.062414806, -0.35887957, -806540.56, 126059.62, 0.0, 10.001494, 9.998481 
2.275129e+3, 2.148312e+2, -829773.06, -1014263.1, -58964.566, 0.060609855, -0.37498906, -812537.6, 22079.145, 0.0, 10.000809, 9.998366 
2.2751062e+3, 2.2482973e+2, -777439.4, -871457.1, -61114.53, 0.04772394, -0.381413, -747345.56, -10713.859, 0.0, 10.000208, 9.998962 
2.2750835e+3, 2.3482871e+2, -761792.4, -826375.6, -63497.49, 0.02435655, -0.378353, -722847.2, -84204.13, 0.0, 9.9997, 9.998844 
2.275061e+3, 2.4482812e+2, -700562.8, -653090.3, -64653.496, 0.016947705, -0.3549937, -607953.6, -67303.79, 0.0, 9.999047, 9.999675 
2.2750385e+3, 2.5482818e+2, -728055.56, -628454.25, -61352.547, 0.0227597, -0.31327358, -599234.44, -156584.36, 0.0, 9.99824, 9.99956 
2.2750159e+3, 2.648279e+2, -660476.1, -450321.78, -45696.8, 0.0047043017, -0.33367294, -440815.3, -96162.81, 0.0, 9.997624, 10.000407 
2.2749934e+3, 2.7482745e+2, -633783.06, -401151.38, -42752.13, -0.029322444, -0.41618195, -393543.34, -146888.31, 0.0, 9.997196, 10.0002775 
2.2749718e+3, 2.8482825e+2, -618630.75, -292016.13, -39164.805, -0.014589237, -0.38000706, -287385.47, -138738.05, 0.0, 9.996408, 10.000734 
2.27495e+3, 2.948304e+2, -691597.5, -285973.6, -38170.04, 0.024652917, -0.23475756, -282412.97, -231784.6, 0.0, 9.995276, 10.000648 
2.2749278e+3, 3.0482948e+2, -671185.56, -151595.88, -18817.61, -0.04707577, -0.43317765, -150915.27, -150915.27, 0.0, 9.994653, 10.001535 
2.2749062e+3, 3.1483182e+2, -588505.25, 54556.89, -9405.408, -0.05198486, -0.3444435, 54694.426, 54694.426, 0.0, 9.994503, 10.003024 
2.2853345e+3, 1.2487542e+2, -1080345.6, -1696431.8, 8692.473, 0.09212015, -0.38163203, -1080223.0, 635958.7, 0.10909061, 10.006285, 9.997115 
2.285313e+3, 1.3487224e+2, -1101312.9, -1688337.1, 8022.691, 0.12941325, -0.4045388, -1101203.3, 517009.38, 0.0784104, 10.005315, 9.996949 
2.2852905e+3, 1.4486925e+2, -1057465.1, -1605373.3, -5634.063, 0.1291666, -0.4005664, -1057407.1, 462834.7, 0.04732635, 10.004707, 9.997138 
2.2852679e+3, 1.5486652e+2, -987983.7, -1541991.9, -7766.9253, 0.1090278, -0.38347715, -987874.8, 434394.13, 0.022164652, 10.004484, 9.997008 
2.285245e+3, 1.6486354e+2, -934156.1, -1428909.9, -3884.986, 0.09822434, -0.39201534, -934125.6, 390172.47, 0.007091421, 10.003962, 9.997363 
2.2852224e+3, 1.748605e+2, -964355.6, -1407796.1, -6462.411, 0.09354318, -0.4282701, -964261.44, 262066.08, 0.0011483129, 10.003123, 9.997239 
2.2851995e+3, 1.8485808e+2, -913034.44, -1260358.3, -27418.13, 0.08363082, -0.42011875, -910883.4, 217468.64, 0.000040776646, 10.00249, 9.997884 
2.2851762e+3, 1.9485646e+2, -883924.94, -1208661.3, -29437.041, 0.06952976, -0.36653313, -881278.06, 149091.39, 0.00000000020988672, 10.002073, 9.9977665 
2.2851531e+3, 2.048547e+2, -810286.2, -1046797.6, -31812.451, 0.061515074, -0.34683752, -806081.94, 126305.695, 0.0, 10.00158, 9.998443 
2.2851299e+3, 2.1485291e+2, -803778.75, -1005970.2, -33737.234, 0.059110872, -0.36440963, -798298.0, 36106.883, 0.0, 10.001008, 9.998325 
2.2851065e+3, 2.2485141e+2, -763740.75, -871039.2, -35950.2, 0.047067046, -0.3706648, -752809.3, -16388.861, 0.0, 10.000332, 9.998904 
2.2850832e+3, 2.3485035e+2, -788643.56, -845460.8, -37835.56, 0.026508445, -0.36526242, -769738.56, -131306.08, 0.0, 9.999544, 9.998787 
2.2850598e+3, 2.4484976e+2, -718795.44, -651987.25, -38895.652, 0.017816998, -0.34290582, -634120.44, -93681.37, 0.0, 9.998882, 9.999761 
2.2850366e+3, 2.5484985e+2, -705917.0, -607194.8, -34113.42, 0.01721511, -0.30628002, -596553.9, -154115.56, 0.0, 9.99835, 9.999652 
2.2850135e+3, 2.648496e+2, -656388.06, -449412.34, -19303.24, -0.004617858, -0.32590795, -447627.47, -103187.27, 0.0, 9.997659, 10.000395 
2.2849905e+3, 2.7484924e+2, -691058.94, -429876.9, -21517.244, -0.036883667, -0.39949176, -428116.1, -181673.56, 0.0, 9.996811, 10.000265 
2.2849678e+3, 2.8485003e+2, -638204.44, -293896.97, -20317.537, -0.02075522, -0.36621618, -292702.2, -144267.34, 0.0, 9.9962435, 10.000799 
2.2849455e+3, 2.9485205e+2, -596192.4, -235290.48, -13582.127, 0.012171087, -0.24179813, -234780.05, -184363.61, 0.0, 9.995913, 10.000689 
2.2849223e+3, 3.0485108e+2, -650442.9, -164693.42, 4965.6265, -0.061659493, -0.43369612, -164642.67, -164642.67, 0.0, 9.994897, 10.0013275 
2.2849004e+3, 3.1485337e+2, -719778.4, 45606.926, 52179.484, -0.038425904, -0.33366495, 49147.836, 49147.836, 0.0, 9.993373, 10.003505 
2.2953407e+3, 1.24897435e+2, -1070963.4, -1673563.0, -24119.098, 0.08007796, -0.38505384, -1069999.6, 645967.9, 0.10959466, 10.00627, 9.997299 
2.2953184e+3, 1.3489458e+2, -1088650.3, -1661152.8, -26050.691, 0.14146107, -0.3936104, -1087467.4, 530527.2, 0.078775235, 10.005321, 9.997135 
2.2952954e+3, 1.4489168e+2, -1054679.5, -1601832.3, -14404.141, 0.13839884, -0.39149278, -1054300.6, 465722.0, 0.0475555, 10.004717, 9.997159 
2.2952719e+3, 1.548888e+2, -986888.44, -1539124.3, -16268.052, 0.08644023, -0.3912047, -986409.6, 435641.3, 0.022286726, 10.00448, 9.997031 
2.2952488e+3, 1.648859e+2, -936128.4, -1432258.0, -35038.11, 0.074604124, -0.39351436, -933666.1, 390413.47, 0.0071455957, 10.003956, 9.997345 
2.2952256e+3, 1.7488313e+2, -965201.25, -1410941.1, -37976.637, 0.10152237, -0.39957184, -961988.9, 264117.8, 0.0011673318, 10.003127, 9.997217 
2.2952022e+3, 1.8488063e+2, -912718.3, -1261759.5, -43109.85, 0.10241525, -0.39739966, -907472.7, 220659.13, 0.000044358083, 10.002497, 9.997872 
2.2951785e+3, 1.9487856e+2, -884010.7, -1210114.0, -44732.164, 0.07707836, -0.38748756, -877986.0, 152167.19, 0.0000000020348991, 10.002076, 9.997757 
2.2951545e+3, 2.0487674e+2, -812519.75, -1052238.5, -52776.508, 0.061942767, -0.37186193, -801414.9, 130757.04, 0.0, 10.001581, 9.998405 
2.2951308e+3, 2.1487531e+2, -806143.8, -1011477.06, -54770.055, 0.056606185, -0.35186666, -792448.1, 41738.16, 0.0, 10.001009, 9.998289 
2.295107e+3, 2.248739e+2, -767416.0, -879653.1, -65082.78, 0.048059937, -0.3420381, -737598.2, -1397.0908, 0.0, 10.000333, 9.998846 
2.2950828e+3, 2.348727e+2, -791822.75, -853855.8, -67284.63, 0.038319256, -0.34389815, -748749.9, -110535.11, 0.0, 9.99955, 9.998728 
2.2950588e+3, 2.4487196e+2, -711054.7, -637712.3, -59015.83, 0.026303021, -0.33933264, -604902.25, -64679.754, 0.0, 9.998887, 9.999858 
2.295035e+3, 2.548719e+2, -698303.56, -592642.9, -54532.7, 0.0061940937, -0.3295005, -569546.56, -127324.18, 0.0, 9.998353, 9.999752 
2.295011e+3, 2.648719e+2, -662103.7, -462086.25, -51693.535, -0.01664323, -0.3270172, -449516.25, -105294.17, 0.0, 9.997661, 10.000309 
2.2949873e+3, 2.748721e+2, -696215.25, -441486.88, -53139.668, -0.028275022, -0.33289978, -430845.78, -184625.81, 0.0, 9.996812, 10.000186 
2.294964e+3, 2.8487253e+2, -627514.8, -272867.53, -33428.754, -0.023791077, -0.33826143, -269744.06, -121528.555, 0.0, 9.996246, 10.000943 
2.294941e+3, 2.9487336e+2, -588855.7, -222344.38, -29048.707, -0.041388847, -0.34692878, -220056.34, -169849.27, 0.0, 9.995919, 10.000775 
2.2949173e+3, 3.04874e+2, -660356.3, -185786.17, -56621.05, -0.06342485, -0.37246308, -179124.22, -179124.22, 0.0, 9.994896, 10.0011835 
2.294894e+3, 3.1487578e+2, -709671.4, 69357.56, 27206.043, -0.022111233, -0.31306276, 70306.52, 70306.52, 0.0, 9.99336, 10.003675 
2.3053469e+3, 1.2492027e+2, -1101240.8, -1689480.4, 12117.089, 0.0868225, -0.39841843, -1100991.3, 614753.1, 0.10987929, 10.006046, 9.997283 
2.3053235e+3, 1.3491768e+2, -1055724.5, -1644715.1, -864.81305, 0.121166915, -0.37888473, -1055723.3, 562045.9, 0.07897292, 10.005573, 9.997125 
2.3052998e+3, 1.4491482e+2, -1016250.4, -1578256.4, 13420.327, 0.11507402, -0.372251, -1015930.1, 503866.47, 0.047674548, 10.004981, 9.997191 
2.3052764e+3, 1.549118e+2, -1013191.25, -1547944.0, 12584.105, 0.08404673, -0.3898566, -1012895.3, 408930.72, 0.022350319, 10.004281, 9.997065 
2.3052524e+3, 1.6490887e+2, -975625.2, -1451498.9, -12244.673, 0.07839875, -0.3956083, -975310.3, 348544.53, 0.0071772165, 10.003686, 9.99734 
2.3052287e+3, 1.7490622e+2, -955616.4, -1406270.6, -14609.941, 0.09653528, -0.3901356, -955143.25, 270738.0, 0.0011814176, 10.003196, 9.997214 
2.3052046e+3, 1.8490376e+2, -888352.25, -1245499.0, -12559.261, 0.097895436, -0.38550812, -887911.1, 239994.88, 0.0000476708, 10.002648, 9.99791 
2.3051804e+3, 1.9490166e+2, -886823.8, -1207220.4, -11420.731, 0.08231462, -0.38288772, -886417.2, 143510.14, 0.000000006496825, 10.002042, 9.997791 
2.305156e+3, 2.0489977e+2, -839158.7, -1070479.6, -22089.777, 0.06855033, -0.37097603, -837068.1, 94878.38, 0.0, 10.001425, 9.998354 
2.3051316e+3, 2.148983e+2, -841106.44, -1033809.06, -25617.281, 0.05619693, -0.35050842, -837759.06, -3797.3923, 0.0, 10.000795, 9.998237 
2.3051071e+3, 2.2489691e+2, -786408.2, -888321.06, -37003.754, 0.046446905, -0.33514157, -774389.75, -38413.258, 0.0, 10.000203, 9.998848 
2.3050822e+3, 2.3489581e+2, -776999.3, -846284.3, -34795.434, 0.04140211, -0.32688656, -762541.6, -124552.38, 0.0, 9.999652, 9.99873 
2.3050578e+3, 2.4489503e+2, -695893.8, -628511.5, -27392.137, 0.029768541, -0.32795218, -618781.2, -78783.875, 0.0, 9.998985, 9.999872 
2.3050332e+3, 2.5489476e+2, -720305.5, -601580.44, -29382.727, 0.006189782, -0.33838484, -594706.6, -152708.08, 0.0, 9.998197, 9.999764 
2.3050085e+3, 2.6489478e+2, -681239.7, -476358.72, -28864.035, -0.016188433, -0.33018732, -472369.94, -128372.0, 0.0, 9.997553, 10.000261 
2.3049842e+3, 2.7489522e+2, -663423.0, -430586.88, -26804.951, -0.024906535, -0.30784526, -427540.84, -181546.67, 0.0, 9.997061, 10.00014 
2.3049602e+3, 2.848955e+2, -613368.44, -258576.8, -10255.164, -0.036178783, -0.32918492, -258280.63, -110289.58, 0.0, 9.996313, 10.001008 
2.304936e+3, 2.9489595e+2, -677083.3, -257030.34, -13766.941, -0.083026946, -0.38544503, -256579.63, -206594.03, 0.0, 9.995283, 10.000842 
2.304912e+3, 3.0489728e+2, -700432.5, -190391.56, -40271.547, -0.03817951, -0.3500788, -187231.39, -187231.39, 0.0, 9.99456, 10.001312 
2.3048875e+3, 3.148987e+2, -620658.1, 61127.38, 67243.08, -0.038122952, -0.33986753, 67696.14, 67696.14, 0.0, 9.994193, 10.003216 
2.315353e+3, 1.2494391e+2, -1112995.4, -1714238.0, -5317.3706, 0.108833164, -0.42002806, -1112948.4, 602564.1, 0.10992333, 10.006047, 9.997092 
2.3153286e+3, 1.3494152e+2, -1067385.0, -1672235.1, -18124.617, 0.071195416, -0.3606401, -1066842.4, 550693.9, 0.078988925, 10.005576, 9.996935 
2.3153044e+3, 1.4493869e+2, -1013136.6, -1573756.6, -12225.183, 0.06260117, -0.34419551, -1012870.2, 506693.6, 0.04767448, 10.004988, 9.997221 
2.3152807e+3, 1.549355e+2, -1010184.2, -1543337.1, -13683.646, 0.0999104, -0.38032055, -1009833.25, 411760.88, 0.022349915, 10.004286, 9.997095 
2.3152566e+3, 1.6493246e+2, -975027.25, -1451599.6, -30913.174, 0.10648925, -0.39813706, -973030.44, 350593.44, 0.007183045, 10.003689, 9.997339 
2.3152317e+3, 1.7492977e+2, -954758.2, -1405633.8, -33064.363, 0.07923153, -0.39848676, -952346.3, 273304.88, 0.0011891421, 10.003199, 9.997219 
2.315207e+3, 1.8492745e+2, -883238.4, -1235969.3, -35187.676, 0.07189376, -0.38350695, -879762.4, 247912.27, 0.000050385515, 10.00265, 9.997974 
2.3151827e+3, 1.9492568e+2, -881852.6, -1197916.1, -34104.703, 0.0854012, -0.35393238, -878214.5, 151477.86, 0.000000012642861, 10.002044, 9.997855 
2.3151577e+3, 2.0492375e+2, -843752.1, -1081226.5, -45494.02, 0.080804326, -0.3457654, -835335.0, 96376.89, 0.0, 10.001428, 9.998281 
2.3151323e+3, 2.1492185e+2, -845594.06, -1044634.25, -48892.316, 0.057474397, -0.36038527, -834232.7, -501.1818, 0.0, 10.000799, 9.998162 
2.3151071e+3, 2.249204e+2, -782316.56, -881274.25, -57376.523, 0.042142093, -0.3491742, -756031.2, -20284.256, 0.0, 10.000207, 9.998896 
2.3150821e+3, 2.3491964e+2, -773002.06, -839042.06, -55446.61, 0.035895143, -0.31366187, -741488.0, -103731.586, 0.0, 9.999654, 9.998779 
2.3150566e+3, 2.449189e+2, -700507.25, -639305.6, -56961.84, 0.028362803, -0.30863371, -605245.3, -65481.42, 0.0, 9.998988, 9.999798 
2.3150314e+3, 2.549184e+2, -725172.3, -613425.8, -59241.65, 0.016673826, -0.33337063, -587865.7, -146098.44, 0.0, 9.998202, 9.999681 
2.3150064e+3, 2.6491827e+2, -681932.3, -479297.7, -48080.527, -0.0037435915, -0.33593166, -468468.06, -124699.81, 0.0, 9.997557, 10.00024 
2.3149812e+3, 2.749186e+2, -664785.7, -434639.88, -45693.855, -0.026935838, -0.32492518, -425899.63, -180133.8, 0.0, 9.997064, 10.000112 
2.3149563e+3, 2.849189e+2, -614978.56, -262364.72, -49794.973, -0.057947952, -0.33855373, -255467.75, -107705.766, 0.0, 9.996313, 10.000983 
2.3149309e+3, 2.949197e+2, -674488.25, -251535.92, -54348.785, -0.11328132, -0.35519186, -244663.83, -194911.45, 0.0, 9.99528, 10.000883 
2.3149072e+3, 3.049208e+2, -671417.3, -130714.08, -55319.773, 0.015019102, -0.370261, -125112.305, -125112.305, 0.0, 9.99456, 10.001724 
2.3148814e+3, 3.1492263e+2, -699560.5, -106246.62, 30220.684, -0.075941265, -0.3530672, -104711.29, -104711.29, 0.0, 9.994205, 10.002062 
2.3253591e+3, 1.24968365e+2, -1105819.5, -1714118.6, 7338.458, 0.097793765, -0.3943064, -1105731.0, 609543.06, 0.10971342, 10.006119, 9.997058 
2.325334e+3, 1.3496575e+2, -1043875.44, -1663301.1, 4698.4644, 0.048123688, -0.35466886, -1043839.8, 573459.9, 0.078813195, 10.005767, 9.996903 
2.325309e+3, 1.4496283e+2, -985477.75, -1561159.3, 2785.3328, 0.039548155, -0.34505668, -985464.3, 533863.56, 0.047548607, 10.005196, 9.997205 
2.325285e+3, 1.549597e+2, -993911.8, -1536446.6, -2153.668, 0.089798465, -0.37466848, -993903.25, 427454.47, 0.022281332, 10.004409, 9.997082 
2.32526e+3, 1.649567e+2, -961922.6, -1435915.9, -9886.081, 0.1026836, -0.39017653, -961716.5, 361670.4, 0.007160561, 10.003743, 9.997419 
2.3252349e+3, 1.7495407e+2, -948527.5, -1393213.1, -6960.8525, 0.07426027, -0.39216304, -948418.56, 276995.13, 0.0011893713, 10.003204, 9.997299 
2.3252095e+3, 1.849518e+2, -886598.2, -1235689.3, -12583.676, 0.06830227, -0.37590298, -886145.2, 241291.39, 0.000052244875, 10.002623, 9.997989 
2.3251846e+3, 1.9495007e+2, -888170.06, -1198892.8, -15838.91, 0.08621421, -0.34229362, -887364.8, 142088.98, 0.000000017833118, 10.001995, 9.99787 
2.3251589e+3, 2.0494817e+2, -847142.4, -1080253.8, -25305.742, 0.08048144, -0.33529717, -844426.94, 87046.36, 0.0, 10.001396, 9.9983015 
2.3251331e+3, 2.1494621e+2, -840301.6, -1039456.5, -22303.889, 0.05043693, -0.35644287, -837834.3, -4340.8286, 0.0, 10.000827, 9.998182 
2.3251075e+3, 2.249448e+2, -780307.4, -873468.25, -28155.143, 0.036560956, -0.34703097, -772459.44, -36950.805, 0.0, 10.000194, 9.998954 
2.3250815e+3, 2.3494409e+2, -792359.2, -841536.7, -25613.506, 0.039762225, -0.30825448, -781442.2, -143925.19, 0.0, 9.999495, 9.998837 
2.3250556e+3, 2.449434e+2, -719573.44, -652950.7, -27017.295, 0.031893652, -0.3018377, -643371.7, -103847.44, 0.0, 9.998879, 9.999756 
2.3250295e+3, 2.5494283e+2, -707283.0, -609834.56, -26892.605, 0.011260175, -0.32718027, -602905.75, -161377.27, 0.0, 9.998349, 9.999635 
2.3250039e+3, 2.6494265e+2, -665456.0, -464752.66, -13027.507, -0.0066822493, -0.3337495, -463910.56, -120380.69, 0.0, 9.997644, 10.000297 
2.3249783e+3, 2.7494296e+2, -707298.75, -448633.88, -5409.3604, -0.01855303, -0.32934317, -448520.8, -202993.42, 0.0, 9.996747, 10.000167 
2.3249523e+3, 2.8494343e+2, -661837.44, -286566.28, -9067.855, -0.058601394, -0.33167955, -286347.28, -138825.1, 0.0, 9.996001, 10.000966 
2.324926e+3, 2.9494447e+2, -648005.5, -237947.39, -12728.344, -0.13560043, -0.32105237, -237552.69, -188042.48, 0.0, 9.995461, 10.000888 
2.3249018e+3, 3.0494505e+2, -611461.56, -70560.375, -16701.523, 0.013746574, -0.40225515, -70045.17, -70045.17, 0.0, 9.99484, 10.002002 
2.3248753e+3, 3.1494746e+2, -762068.94, -164802.28, 31077.555, -0.075955555, -0.35044414, -163189.58, -163189.58, 0.0, 9.9939, 10.001806 
2.3353648e+3, 1.24993645e+2, -1097586.5, -1700905.6, -4771.0444, 0.057225775, -0.3289921, -1097548.8, 617480.2, 0.1092424, 10.006133, 9.997153 
2.3353398e+3, 1.3499042e+2, -1036684.8, -1648998.6, -7990.6636, 0.048421074, -0.35937554, -1036580.56, 580478.3, 0.07843756, 10.005771, 9.997001 
2.3353145e+3, 1.4498729e+2, -989525.7, -1571334.9, -25966.99, 0.04168061, -0.37079594, -988369.06, 530719.3, 0.047289543, 10.005197, 9.997137 
2.3352891e+3, 1.5498437e+2, -997478.6, -1545644.8, -31328.209, 0.055822127, -0.37230393, -995693.94, 425422.56, 0.022139387, 10.004412, 9.997019 
2.3352635e+3, 1.6498159e+2, -951454.2, -1415588.3, -29989.648, 0.0702219, -0.3728149, -949524.5, 373619.5, 0.007107184, 10.003748, 9.997558 
2.335238e+3, 1.7497909e+2, -938627.9, -1373384.9, -27161.928, 0.08068341, -0.37226048, -936937.5, 288231.4, 0.0011813488, 10.003205, 9.997437 
2.3352124e+3, 1.849768e+2, -889616.6, -1242460.8, -36043.188, 0.08502473, -0.36322314, -885972.44, 241219.56, 0.000053136322, 10.002622, 9.997944 
2.3351865e+3, 1.9497487e+2, -890834.44, -1205251.3, -38994.18, 0.08453477, -0.34724298, -886070.56, 143141.11, 0.000000019606611, 10.001996, 9.9978285 
2.3351602e+3, 2.04973e+2, -839710.7, -1065879.8, -46368.85, 0.06821094, -0.33863956, -830573.4, 100657.47, 0.0, 10.001398, 9.9984 
2.3351339e+3, 2.1497136e+2, -832712.6, -1024771.25, -43153.164, 0.035337333, -0.33872962, -823462.2, 9785.745, 0.0, 10.000829, 9.998284 
2.3351075e+3, 2.2497001e+2, -775595.44, -864972.75, -54338.543, 0.029728368, -0.32924995, -749929.6, -14667.594, 0.0, 10.000196, 9.999012 
2.3350811e+3, 2.3496918e+2, -787448.2, -832974.9, -51911.094, 0.05244254, -0.31101373, -753528.75, -116257.34, 0.0, 9.999499, 9.998896 
2.3350547e+3, 2.4496846e+2, -720244.56, -655851.8, -47148.67, 0.039878007, -0.30735582, -630955.25, -91676.41, 0.0, 9.998883, 9.999735 
2.3350276e+3, 2.5496805e+2, -708209.0, -612925.8, -46859.895, -0.0100372415, -0.31935728, -593742.5, -152459.98, 0.0, 9.998351, 9.999613 
2.3350012e+3, 2.6496792e+2, -656190.25, -446463.28, -47169.6, -0.02474739, -0.3234908, -436342.75, -93059.54, 0.0, 9.997646, 10.0004225 
2.3349752e+3, 2.7496833e+2, -697144.44, -428975.2, -40631.938, -0.00039361237, -0.32201737, -422954.0, -177674.64, 0.0, 9.99675, 10.000302 
2.3349485e+3, 2.84969e+2, -663060.5, -290037.1, -30308.717, -0.03852639, -0.30865344, -287590.5, -140318.42, 0.0, 9.996002, 10.000943 
2.3349214e+3, 2.9497018e+2, -651102.6, -244891.17, -30881.871, -0.14935812, -0.28159168, -242556.83, -193297.48, 0.0, 9.9954605, 10.000841 
2.334896e+3, 3.0496994e+2, -602482.75, -52545.805, -49513.56, -0.044851154, -0.4474969, -48123.414, -48123.414, 0.0, 9.99484, 10.002127 
2.3348698e+3, 3.149727e+2, -709788.06, -57201.73, -41765.273, -0.018641075, -0.37577257, -54539.63, -54539.63, 0.0, 9.993901, 10.002546 
2.3453708e+3, 1.250192e+2, -1037477.75, -1674114.4, 22983.693, 0.042804807, -0.305322, -1036649.06, 678130.94, 0.108508594, 10.006602, 9.997132 
2.3453455e+3, 1.3501585e+2, -1026373.0, -1645257.8, 13639.672, 0.047913544, -0.34555882, -1026072.56, 590738.0, 0.07785818, 10.005854, 9.996985 
2.3453195e+3, 1.4501263e+2, -991685.8, -1566094.9, -8987.607, 0.04227277, -0.36716682, -991545.25, 527295.4, 0.046892602, 10.005156, 9.99719 
2.3452932e+3, 1.5500967e+2, -979648.25, -1530548.8, -6447.9746, 0.044117082, -0.37751144, -979572.8, 441296.22, 0.021920243, 10.004513, 9.997072 
2.3452671e+3, 1.6500698e+2, -934834.1, -1400784.3, -875.3231, 0.058483757, -0.3744862, -934832.5, 388063.13, 0.0070210835, 10.003837, 9.997616 
2.3452412e+3, 1.750047e+2, -945553.2, -1369767.5, -4166.7554, 0.08158677, -0.35882366, -945512.25, 279406.44, 0.0011647857, 10.003131, 9.997496 
2.3452148e+3, 1.8500248e+2, -905462.75, -1242242.4, -11555.14, 0.08762666, -0.3494219, -905066.75, 221874.44, 0.000053067106, 10.002482, 9.998011 
2.3451883e+3, 1.9500045e+2, -901780.75, -1202728.9, -7078.659, 0.0776686, -0.34759203, -901614.4, 127346.95, 0.000000017443154, 10.00189, 9.997894 
2.3451614e+3, 2.049986e+2, -852659.5, -1072227.1, -13134.726, 0.06020271, -0.33977395, -851876.56, 79103.89, 0.0, 10.001312, 9.998396 
2.3451345e+3, 2.1499707e+2, -844763.9, -1030466.25, -17929.219, 0.03464948, -0.3270826, -843048.7, -10051.739, 0.0, 10.000749, 9.998282 
2.3451075e+3, 2.2499582e+2, -776924.44, -855842.4, -35913.367, 0.030344428, -0.3138057, -763028.2, -28017.766, 0.0, 10.000149, 9.999097 
2.3450805e+3, 2.34995e+2, -779861.8, -819444.3, -31497.848, 0.048815697, -0.30112827, -762453.5, -125434.266, 0.0, 9.999511, 9.998981 
2.3450534e+3, 2.4499433e+2, -725432.2, -653541.7, -22419.838, 0.039099954, -0.2992012, -647122.9, -108096.76, 0.0, 9.998829, 9.999776 
2.3450258e+3, 2.5499395e+2, -741837.9, -624044.94, -17531.725, -0.0016850443, -0.30830565, -621491.0, -180461.5, 0.0, 9.998101, 9.999656 
2.3449987e+3, 2.6499397e+2, -685717.2, -457128.63, -23923.902, -0.021996018, -0.30750751, -454651.63, -111622.195, 0.0, 9.997431, 10.000452 
2.3449717e+3, 2.749944e+2, -685361.7, -418943.6, -25495.662, -0.015232883, -0.3003306, -416525.66, -171501.17, 0.0, 9.996815, 10.000339 
2.3449446e+3, 2.8499502e+2, -643382.5, -267078.75, -11246.382, -0.040685464, -0.30233538, -266742.9, -119725.05, 0.0, 9.996082, 10.001061 
2.344917e+3, 2.94996e+2, -678875.1, -248550.22, 27.221172, -0.11571989, -0.30737725, -248550.22, -199542.94, 0.0, 9.995232, 10.000926 
2.3448904e+3, 3.049966e+2, -637315.9, -68291.98, -17973.873, -0.07233893, -0.38845238, -67724.8, -67724.8, 0.0, 9.994599, 10.002132 
2.3448637e+3, 3.1499878e+2, -654811.2, -1571.4026, -27851.348, -0.014547266, -0.38174245, -386.09113, -386.09113, 0.0, 9.994156, 10.002804 
2.3553777e+3, 1.2504508e+2, -1042018.6, -1688596.6, -2793.4932, 0.049595535, -0.316185, -1042006.56, 672520.1, 0.10751676, 10.0066185, 9.997014 
2.3553513e+3, 1.3504204e+2, -1033332.3, -1662340.5, -12486.908, 0.04614204, -0.31537512, -1033084.5, 583470.3, 0.07708015, 10.005853, 9.996869 
2.3553248e+3, 1.4503881e+2, -981693.8, -1545286.5, -31948.79, 0.041594762, -0.33835194, -979888.5, 538696.25, 0.04636158, 10.005154, 9.997336 
2.3552978e+3, 1.550356e+2, -969244.44, -1509747.5, -30041.172, 0.05211484, -0.38961914, -967579.9, 453035.22, 0.021625696, 10.004514, 9.997215 
2.355271e+3, 1.650329e+2, -936109.25, -1404730.5, -27007.79, 0.06493405, -0.39299408, -934557.8, 388083.94, 0.006902723, 10.003839, 9.997589 
2.3552442e+3, 1.7503086e+2, -946591.5, -1373072.1, -30217.5, 0.07706421, -0.35116813, -944461.1, 280202.1, 0.001139804, 10.003133, 9.997474 
2.3552173e+3, 1.8502876e+2, -893678.4, -1219115.1, -33336.758, 0.0771263, -0.33443803, -890298.56, 236385.56, 0.00005205263, 10.002485, 9.998169 
2.3551899e+3, 1.950268e+2, -890096.4, -1179883.6, -28985.855, 0.065860994, -0.34325096, -887225.5, 141477.47, 0.000000012769815, 10.001894, 9.998052 
2.3551627e+3, 2.0502493e+2, -859814.56, -1088423.9, -33912.633, 0.056212626, -0.33874395, -854889.94, 75832.52, 0.0, 10.001315, 9.998285 
2.3551352e+3, 2.1502334e+2, -851974.5, -1046511.9, -38615.0, 0.0475581, -0.32166475, -844589.9, -11849.044, 0.0, 10.000751, 9.998173 
2.3551077e+3, 2.2502217e+2, -769263.75, -841111.8, -59397.164, 0.037765156, -0.30068374, -735771.94, -1017.9589, 0.0, 10.000151, 9.999198 
2.3550798e+3, 2.3502155e+2, -771979.7, -804440.2, -55417.305, 0.02886979, -0.2784966, -730464.8, -93704.25, 0.0, 9.999515, 9.9990835 
2.355052e+3, 2.4502096e+2, -718414.56, -640339.2, -49828.215, 0.029883843, -0.2775012, -616077.6, -77311.15, 0.0, 9.998833, 9.999866 
2.3550244e+3, 2.550206e+2, -734299.1, -609927.94, -45196.72, 0.03593157, -0.2947773, -595238.4, -154468.53, 0.0, 9.998105, 9.999752 
2.3549964e+3, 2.650207e+2, -690667.94, -468637.7, -47683.176, 0.0007871209, -0.2858507, -458830.44, -116061.57, 0.0, 9.997434, 10.000373 
2.354968e+3, 2.7502126e+2, -690122.1, -429536.88, -49258.81, -0.063793056, -0.2630832, -420536.28, -175773.19, 0.0, 9.996816, 10.000267 
2.3549402e+3, 2.8502145e+2, -625427.94, -230225.11, -44056.27, -0.06467093, -0.31330588, -225373.39, -78613.33, 0.0, 9.996081, 10.001316 
2.354913e+3, 2.9502183e+2, -663722.44, -218209.05, -32410.13, -0.033365592, -0.40353018, -215863.64, -167108.66, 0.0, 9.995234, 10.001134 
2.354885e+3, 3.0502513e+2, -646708.4, -88651.83, -35163.02, -0.06964554, -0.21793737, -86444.94, -86444.94, 0.0, 9.9946, 10.001993 
2.3548572e+3, 3.1502542e+2, -677963.25, -50267.188, -21532.639, -0.08565414, -0.389586, -49529.395, -49529.395, 0.0, 9.994157, 10.00247 
2.3653843e+3, 1.2507188e+2, -998214.5, -1673956.0, 13752.952, 0.035581667, -0.30760527, -997934.7, 716329.5, 0.10627552, 10.006979, 9.996951 
2.3653571e+3, 1.3506857e+2, -1028809.9, -1666839.5, 7573.344, 0.05652951, -0.3250171, -1028720.0, 587575.2, 0.07611326, 10.005912, 9.99681 
2.3653299e+3, 1.4506544e+2, -982707.56, -1529794.0, 1102.6572, 0.05464328, -0.3442397, -982705.3, 535619.3, 0.045704715, 10.005077, 9.997478 
2.3653023e+3, 1.5506259e+2, -964266.6, -1491289.9, 3089.6086, 0.0472916, -0.3715339, -964248.56, 456102.78, 0.02126064, 10.004481, 9.997356 
2.3652747e+3, 1.6506e+2, -931289.44, -1395615.3, 6316.2773, 0.054644715, -0.3736245, -931203.56, 391173.25, 0.0067537744, 10.003845, 9.997646 
2.3652473e+3, 1.7505781e+2, -937929.1, -1362078.4, 8679.657, 0.072873816, -0.35181728, -937751.56, 286647.8, 0.0011064962, 10.003166, 9.997532 
2.3652197e+3, 1.850557e+2, -883832.44, -1207934.6, 7948.0415, 0.07488494, -0.34169436, -883637.6, 242782.66, 0.000050042654, 10.002528, 9.998224 
2.3651919e+3, 1.9505385e+2, -880798.1, -1168891.1, 4367.99, 0.06201435, -0.3442921, -880731.94, 147706.08, 0.000000007665355, 10.001933, 9.998106 
2.365164e+3, 2.0505208e+2, -860662.2, -1086588.3, -640.79675, 0.055017587, -0.3349864, -860660.4, 69796.484, 0.0, 10.001303, 9.998302 
2.365136e+3, 2.1505053e+2, -867016.44, -1051291.0, 3582.2004, 0.05321289, -0.31427816, -866946.9, -34471.734, 0.0, 10.00064, 9.998192 
2.365108e+3, 2.2504939e+2, -783211.25, -844190.1, -14288.931, 0.0423937, -0.2917861, -780029.06, -45540.91, 0.0, 10.000042, 9.9992285 
2.3650794e+3, 2.3504879e+2, -770599.5, -799819.5, -15514.43, 0.024866518, -0.27060866, -763898.7, -127403.984, 0.0, 9.99951, 9.999117 
2.3650508e+3, 2.4504825e+2, -709817.0, -631770.5, -20405.064, 0.024884362, -0.266054, -626757.6, -88257.39, 0.0, 9.998876, 9.999903 
2.3650225e+3, 2.5504804e+2, -726792.6, -601393.4, -19923.953, 0.037166767, -0.27379748, -598303.9, -157801.3, 0.0, 9.998138, 9.999794 
2.3649937e+3, 2.6504818e+2, -694956.8, -465078.47, -18473.484, 0.002161471, -0.26078135, -463603.38, -121102.67, 0.0, 9.997383, 10.000421 
2.3649646e+3, 2.7504873e+2, -716253.25, -436510.16, -10549.491, -0.06629614, -0.24295871, -436112.88, -191618.3, 0.0, 9.996615, 10.000314 
2.3649363e+3, 2.850487e+2, -651300.6, -246502.36, -15191.996, -0.0614059, -0.3176154, -245933.02, -99439.21, 0.0, 9.995924, 10.001279 
2.3649082e+3, 2.950487e+2, -662150.1, -221739.42, -26226.71, -0.020143, -0.43982434, -220183.11, -171690.69, 0.0, 9.995265, 10.001094 
2.3648797e+3, 3.0505306e+2, -645531.5, -87710.31, -22204.734, -0.06746939, -0.14641857, -86827.83, -86827.83, 0.0, 9.994609, 10.001995 
2.3648511e+3, 3.1505254e+2, -698414.2, -78283.9, 25680.908, -0.10198987, -0.4008335, -77222.22, -77222.22, 0.0, 9.994099, 10.002304 
2.3753908e+3, 1.2509952e+2, -1000107.5, -1678638.0, -21269.13, 0.0037497226, -0.2849214, -999441.44, 714551.7, 0.10479566, 10.00697, 9.99692 
2.3753633e+3, 1.3509552e+2, -1029949.3, -1671097.6, -28636.268, 0.076228134, -0.36886895, -1028672.8, 587358.44, 0.0749661, 10.00591, 9.996783 
2.3753352e+3, 1.4509253e+2, -972619.06, -1511318.3, -19522.867, 0.07841583, -0.37887973, -971912.44, 546147.25, 0.044928063, 10.005083, 9.997605 
2.3753066e+3, 1.5509062e+2, -953763.4, -1471944.0, -18256.229, 0.030877737, -0.3259584, -953121.0, 466956.97, 0.020828696, 10.004489, 9.997487 
2.3752783e+3, 1.6508822e+2, -921713.8, -1377630.9, -18701.195, 0.029593848, -0.32070503, -920948.0, 401153.22, 0.006575864, 10.003851, 9.997768 
2.3752505e+3, 1.7508554e+2, -929139.3, -1344690.0, -16553.326, 0.06886795, -0.36045676, -928480.94, 295646.56, 0.0010651533, 10.003167, 9.997652 
2.3752221e+3, 1.8508328e+2, -887236.3, -1215736.3, -14151.764, 0.080081224, -0.36934325, -886627.75, 239522.02, 0.000047060163, 10.002529, 9.998172 
2.3751938e+3, 1.9508159e+2, -883851.3, -1176208.4, -17610.723, 0.06537704, -0.35037735, -882794.3, 145372.27, 0.000000003596552, 10.001934, 9.998056 
2.3751652e+3, 2.0507997e+2, -851037.25, -1067848.5, -25173.625, 0.056161445, -0.3286145, -848152.75, 82031.23, 0.0, 10.001306, 9.998431 
2.3751368e+3, 2.1507859e+2, -857271.0, -1032487.3, -20891.969, 0.051528364, -0.30452317, -854814.4, -22614.203, 0.0, 10.000643, 9.998321 
2.3751079e+3, 2.2507744e+2, -785946.4, -851269.44, -34032.72, 0.044308186, -0.2866475, -771438.0, -37224.656, 0.0, 10.000046, 9.999179 
2.3750788e+3, 2.3507667e+2, -773330.25, -806692.1, -35537.426, 0.0363871, -0.27744025, -750753.56, -114531.445, 0.0, 9.999513, 9.999069 
2.3750496e+3, 2.450762e+2, -710890.3, -635235.75, -48295.832, 0.023617404, -0.2646814, -611716.56, -73488.914, 0.0, 9.9988785, 9.999879 
2.3750202e+3, 2.5507623e+2, -727797.94, -604703.2, -48106.65, 0.0016677825, -0.24500258, -588133.2, -147905.16, 0.0, 9.998141, 9.999771 
2.374991e+3, 2.6507646e+2, -683157.4, -441501.38, -47974.36, -0.017508985, -0.23244312, -432325.75, -90100.45, 0.0, 9.997384, 10.000583 
2.3749617e+3, 2.7507687e+2, -705326.1, -414936.97, -39293.027, -0.02226855, -0.24163546, -409714.1, -165494.64, 0.0, 9.996617, 10.000462 
2.3749323e+3, 2.8507674e+2, -675305.5, -297210.0, -40651.266, -0.0317032, -0.31511337, -292888.75, -146669.16, 0.0, 9.995925, 10.000931 
2.3749028e+3, 2.9507667e+2, -683228.5, -266240.38, -53570.74, -0.079075836, -0.4118393, -259468.11, -211248.31, 0.0, 9.995266, 10.000789 
2.3748742e+3, 3.0508035e+2, -635523.25, -67278.47, -45362.906, -0.06343661, -0.18139212, -63679.945, -63679.945, 0.0, 9.994608, 10.002137 
2.3748454e+3, 3.1508058e+2, -691791.2, -65283.195, 34434.9, -0.0737625, -0.3688219, -63396.227, -63396.227, 0.0, 9.9941, 10.002394 
2.385398e+3, 1.2512782e+2, -1014731.9, -1683666.6, 16513.928, 0.017132614, -0.30716473, -1014324.44, 699391.06, 0.10308884, 10.006836, 9.996944 
2.3853691e+3, 1.351241e+2, -1030080.9, -1667951.3, 15084.382, 0.061491463, -0.36658934, -1029724.3, 586026.94, 0.07364431, 10.005889, 9.996813 
2.38534e+3, 1.451212e+2, -961821.44, -1508539.8, 38006.254, 0.05965691, -0.36690685, -959192.0, 558587.2, 0.04403404, 10.00517, 9.9975815 
2.385311e+3, 1.5511923e+2, -930555.4, -1462756.6, 29790.145, 0.030700892, -0.31606567, -928893.06, 490905.2, 0.020331709, 10.004662, 9.997465 
2.3852822e+3, 1.6511683e+2, -898759.06, -1359079.5, 14447.332, 0.031717613, -0.3132953, -898306.1, 423515.47, 0.0063708234, 10.00398, 9.997832 
2.3852535e+3, 1.7511417e+2, -929267.9, -1337091.4, 12477.114, 0.058311462, -0.35682517, -928886.5, 294960.8, 0.0010168164, 10.003136, 9.997717 
2.3852246e+3, 1.8511194e+2, -899405.2, -1221040.5, 21932.918, 0.07078985, -0.36648035, -897916.44, 227952.92, 0.000043354004, 10.002445, 9.998174 
2.3851958e+3, 1.9511028e+2, -888930.56, -1178008.3, 21821.621, 0.07035182, -0.34495547, -887292.6, 140593.63, 0.0000000010889621, 10.001899, 9.99806 
2.3851664e+3, 2.051087e+2, -844214.56, -1054500.6, 11505.635, 0.06511959, -0.32212842, -843586.94, 86316.1, 0.0, 10.001312, 9.998518 
2.3851372e+3, 2.1510741e+2, -845047.06, -1016326.25, 12136.013, 0.054929446, -0.29870778, -844191.44, -12273.258, 0.0, 10.000686, 9.998409 
2.3851079e+3, 2.2510628e+2, -789857.6, -855975.2, -431.62997, 0.045744695, -0.2812167, -789854.8, -55923.652, 0.0, 10.000034, 9.999151 
2.3850784e+3, 2.3510547e+2, -797793.5, -820908.7, -433.9999, 0.039330628, -0.2712545, -797785.4, -161844.69, 0.0, 9.999357, 9.999045 
2.3850483e+3, 2.4510501e+2, -733603.94, -641340.75, -13078.886, 0.02412913, -0.25705522, -639522.56, -101576.42, 0.0, 9.998705, 9.999919 
2.3850183e+3, 2.5510508e+2, -734739.75, -603050.75, -8287.377, -0.0035590436, -0.23723653, -602531.25, -162585.28, 0.0, 9.9980755, 9.999812 
2.3849882e+3, 2.6510528e+2, -677286.94, -441302.25, -14347.665, -0.018336577, -0.22667542, -440433.13, -98489.47, 0.0, 9.997439, 10.000556 
2.3849586e+3, 2.751057e+2, -683518.6, -407379.28, -19866.219, -0.010133929, -0.23371792, -405957.34, -162018.89, 0.0, 9.996782, 10.000433 
2.3849285e+3, 2.8510576e+2, -642198.9, -276146.8, -10872.857, -0.030624505, -0.28911275, -275824.16, -129887.31, 0.0, 9.996133, 10.000974 
2.3848979e+3, 2.951059e+2, -650198.1, -247244.6, 3846.0547, -0.10765173, -0.3694327, -247207.88, -199273.23, 0.0, 9.995483, 10.000813 
2.3848692e+3, 3.0510858e+2, -669382.56, -146442.78, -8580.562, -0.033656392, -0.20796512, -146302.03, -146302.03, 0.0, 9.994649, 10.001573 
2.384839e+3, 3.1510904e+2, -716254.0, -19023.773, 28713.82, -0.090325706, -0.31974125, -17843.258, -17843.258, 0.0, 9.993685, 10.002911 
2.395405e+3, 1.2515683e+2, -1009676.7, -1673826.1, -15931.453, 0.06607725, -0.36433753, -1009294.75, 704136.25, 0.10116979, 10.006823, 9.997026 
2.3953745e+3, 1.3515417e+2, -1020755.56, -1655048.0, -17612.86, 0.016807344, -0.32484925, -1020266.9, 595189.7, 0.07215577, 10.005912, 9.996892 
2.3953445e+3, 1.4515132e+2, -969411.3, -1531774.8, 19768.777, 0.0044347593, -0.3164705, -968717.25, 548767.0, 0.043027725, 10.005193, 9.99741 
2.3953159e+3, 1.5514845e+2, -942655.5, -1487907.6, 10930.155, 0.044394877, -0.3386226, -942436.5, 477075.78, 0.019774524, 10.004655, 9.997297 
2.3952864e+3, 1.6514586e+2, -899488.5, -1359374.4, -16824.918, 0.057284843, -0.34581074, -898873.8, 422663.78, 0.0061425967, 10.00397, 9.997836 
2.3952563e+3, 1.7514369e+2, -927445.6, -1335833.0, -18658.314, 0.041422937, -0.3412434, -926594.94, 296964.03, 0.0009635222, 10.003144, 9.997724 
2.3952268e+3, 1.8514164e+2, -894763.75, -1214411.8, 1688.545, 0.048222702, -0.33551398, -894754.8, 230824.53, 0.000039368104, 10.002456, 9.998216 
2.3951975e+3, 1.9513986e+2, -885485.8, -1171986.3, 1520.6449, 0.07670064, -0.3289257, -885477.7, 142119.47, 0.0000000001152025, 10.001902, 9.998101 
2.395168e+3, 2.0513824e+2, -841488.6, -1049404.0, -11717.148, 0.08128524, -0.31555, -840830.4, 88783.97, 0.0, 10.001312, 9.998554 
2.395138e+3, 2.1513692e+2, -842104.44, -1011014.56, -11078.713, 0.063032284, -0.29699758, -841380.94, -9751.59, 0.0, 10.000687, 9.998446 
2.3951079e+3, 2.2513585e+2, -790504.94, -858452.56, -25673.703, 0.04658579, -0.2755971, -781895.2, -48253.227, 0.0, 10.000036, 9.999134 
2.3950776e+3, 2.3513517e+2, -798166.1, -822913.5, -26079.023, 0.03346042, -0.25209174, -781674.2, -146023.4, 0.0, 9.99936, 9.999031 
2.3950471e+3, 2.451347e+2, -726441.25, -627753.5, -36918.664, 0.026331477, -0.24315985, -615471.06, -77814.88, 0.0, 9.998708, 10.000012 
2.3950166e+3, 2.5513455e+2, -727719.1, -589860.56, -32122.033, 0.0212248, -0.250682, -582743.3, -143086.36, 0.0, 9.998078, 9.999903 
2.3949859e+3, 2.6513466e+2, -692704.7, -474523.9, -39627.12, -0.00077543705, -0.24339092, -467549.56, -125893.375, 0.0, 9.997441, 10.000328 
2.3949549e+3, 2.751352e+2, -697801.7, -438294.53, -45080.723, -0.030501798, -0.2189992, -430686.34, -187034.3, 0.0, 9.996785, 10.000221 
2.3949243e+3, 2.8513575e+2, -611553.0, -213619.64, -35955.59, -0.058352876, -0.23902468, -210396.94, -64751.06, 0.0, 9.996135, 10.001404 
2.3948936e+3, 2.9513633e+2, -625479.7, -197405.8, -21985.707, -0.10583343, -0.3126946, -196279.58, -148642.38, 0.0, 9.995487, 10.001155 
2.3948643e+3, 3.0513775e+2, -762017.56, -339230.84, -46355.82, 0.021700146, -0.22749314, -334207.9, -334207.9, 0.0, 9.994648, 10.00025 
2.3948322e+3, 3.1513757e+2, -644451.44, 131160.89, -29312.586, -0.14444324, -0.27685547, 132267.11, 132267.11, 0.0, 9.993675, 10.003949 
2.4054119e+3, 1.2518722e+2, -1036352.6, -1686069.6, 16660.24, 0.07435064, -0.35699314, -1035925.7, 677208.4, 0.0990558, 10.006602, 9.997038 
2.4053803e+3, 1.3518469e+2, -952352.2, -1618207.0, 11158.118, -0.0069411173, -0.30552837, -952165.25, 662992.9, 0.0705147, 10.006403, 9.996907 
2.4053499e+3, 1.4518179e+2, -908953.9, -1509216.6, 37019.36, -0.018498855, -0.30021155, -906679.44, 610506.8, 0.041921705, 10.005656, 9.997342 
2.4053203e+3, 1.5517867e+2, -984328.56, -1515754.6, 35606.863, 0.05367539, -0.34063634, -981953.44, 437263.4, 0.019167673, 10.004395, 9.997231 
2.4052903e+3, 1.6517602e+2, -945890.8, -1383372.3, 24706.25, 0.07105543, -0.34879008, -944499.94, 376742.88, 0.005897694, 10.003658, 9.997821 
2.4052595e+3, 1.7517398e+2, -889638.56, -1318909.3, 21015.908, 0.03341298, -0.3282335, -888612.2, 334650.9, 0.0009078819, 10.003411, 9.997709 
2.4052292e+3, 1.8517198e+2, -841248.5, -1186181.9, 31493.215, 0.034914546, -0.31771237, -838396.6, 286886.4, 0.00003557309, 10.002816, 9.998235 
2.4051994e+3, 1.9517015e+2, -885318.9, -1169140.8, 29316.068, 0.07380238, -0.31685764, -882322.44, 144978.77, 0.000000000004061441, 10.001894, 9.998123 
2.4051692e+3, 2.0516852e+2, -862654.94, -1053980.5, 20447.732, 0.08499513, -0.30787453, -860494.0, 68824.35, 0.0, 10.001145, 9.998602 
2.4051386e+3, 2.1516722e+2, -857493.75, -1012824.9, 21447.514, 0.06979842, -0.2927992, -854586.75, -23253.71, 0.0, 10.00056, 9.998494 
2.4051079e+3, 2.2516619e+2, -803859.44, -865671.8, 5408.3037, 0.05421663, -0.2689285, -803389.75, -70044.45, 0.0, 9.999951, 9.999125 
2.4050769e+3, 2.3516555e+2, -804777.8, -826640.8, 5409.3994, 0.03998115, -0.23690826, -803512.6, -168158.98, 0.0, 9.99932, 9.999023 
2.405046e+3, 2.4516508e+2, -729775.7, -632663.94, -9181.709, 0.031135047, -0.22754389, -631803.44, -94444.08, 0.0, 9.998702, 9.99998 
2.4050146e+3, 2.5516483e+2, -728379.2, -593348.06, -13948.791, 0.024439868, -0.24261518, -591922.2, -152560.86, 0.0, 9.998091, 9.999871 
2.4049832e+3, 2.651649e+2, -690537.1, -468035.47, -17714.912, 0.001456699, -0.23903833, -466633.9, -125272.91, 0.0, 9.997437, 10.000374 
2.4049516e+3, 2.751655e+2, -699887.94, -432889.72, -2532.995, -0.029968405, -0.2126837, -432865.7, -189509.3, 0.0, 9.996748, 10.000274 
2.4049205e+3, 2.8516623e+2, -616480.44, -213657.19, 793.4366, -0.060595613, -0.21654215, -213655.63, -68307.1, 0.0, 9.996095, 10.001421 
2.4048889e+3, 2.951671e+2, -630096.75, -198828.89, -17830.494, -0.10756797, -0.26650268, -198092.95, -150755.33, 0.0, 9.995454, 10.00116 
2.4048589e+3, 3.0516788e+2, -780702.9, -369669.44, -20815.21, 0.034802034, -0.23152368, -368618.03, -368618.03, 0.0, 9.994616, 10.000055 
2.4048257e+3, 3.151675e+2, -640846.0, 168553.4, 54265.813, -0.1567832, -0.28428006, 172175.42, 172175.42, 0.0, 9.993551, 10.004263 
2.4154182e+3, 1.2521888e+2, -1035483.4, -1692890.3, 9691.658, 0.04768124, -0.29917777, -1035340.5, 677485.4, 0.09676587, 10.006625, 9.996974 
2.4153867e+3, 1.3521573e+2, -956588.7, -1627280.4, 4135.166, -0.013539082, -0.30453795, -956563.2, 658292.25, 0.06874403, 10.006387, 9.996853 
2.4153554e+3, 1.4521268e+2, -909089.75, -1508327.0, -8140.651, -0.014456813, -0.3112373, -908979.2, 607905.4, 0.040737938, 10.00564, 9.997357 
2.4153247e+3, 1.5520984e+2, -980811.44, -1512883.9, -10049.269, 0.05872858, -0.3242604, -980621.7, 438290.56, 0.018527068, 10.004409, 9.997244 
2.4152939e+3, 1.6520725e+2, -946220.8, -1389022.5, 15796.856, 0.07433729, -0.32642114, -945657.94, 375279.97, 0.0056443764, 10.003675, 9.997774 
2.4152629e+3, 1.7520504e+2, -892384.44, -1325243.3, 11669.857, 0.03311127, -0.3184369, -892070.06, 330889.9, 0.0008526326, 10.003411, 9.997667 
2.4152319e+3, 1.8520296e+2, -842534.6, -1188528.9, -2835.2837, 0.029694252, -0.31207484, -842511.4, 282469.2, 0.000032342843, 10.002811, 9.998221 
2.4152012e+3, 1.9520116e+2, -885319.7, -1170524.9, -4759.371, 0.062080238, -0.30817258, -885240.3, 141758.13, 0.000000000003904099, 10.001897, 9.998114 
2.4151702e+3, 2.0519955e+2, -858213.75, -1046844.1, -1283.9048, 0.07700137, -0.2989632, -858205.0, 70810.195, 0.0, 10.001152, 9.998649 
2.4151392e+3, 2.1519828e+2, -853338.56, -1005853.2, -299.48157, 0.075003386, -0.2859409, -853337.94, -22308.355, 0.0, 10.000564, 9.998541 
2.415108e+3, 2.2519726e+2, -804254.44, -867877.06, -18081.248, 0.06813803, -0.26095083, -799474.9, -66433.39, 0.0, 9.999954, 9.999109 
2.4150763e+3, 2.3519665e+2, -805268.7, -829011.2, -18337.068, 0.058358088, -0.2259559, -795295.56, -160245.98, 0.0, 9.999324, 9.999007 
2.4150445e+3, 2.4519613e+2, -740718.06, -656818.0, -32386.031, 0.03821555, -0.21045083, -645771.2, -108715.125, 0.0, 9.998705, 9.999814 
2.4150124e+3, 2.5519586e+2, -738886.6, -616556.1, -37543.492, 0.0057259966, -0.21329229, -605953.0, -166893.47, 0.0, 9.998094, 9.999712 
2.4149805e+3, 2.65196e+2, -668439.4, -423199.88, -44208.598, -0.011661213, -0.21366565, -415473.9, -74415.51, 0.0, 9.997438, 10.000682 
2.4149485e+3, 2.7519658e+2, -678296.06, -389066.75, -28574.234, -0.008721292, -0.21483663, -386270.8, -143218.97, 0.0, 9.996749, 10.000576 
2.4149165e+3, 2.851972e+2, -645423.0, -274465.9, -24170.078, -0.0373095, -0.22262475, -272897.72, -127852.45, 0.0, 9.996096, 10.001005 
2.4148843e+3, 2.9519805e+2, -653842.94, -248795.23, -43878.69, -0.112526625, -0.23225383, -244096.38, -197059.73, 0.0, 9.995454, 10.000817 
2.4148533e+3, 3.0519903e+2, -711540.56, -226331.84, -58930.76, 0.0034913134, -0.2173847, -219277.02, -219277.02, 0.0, 9.994614, 10.001042 
2.4148196e+3, 3.1519976e+2, -685135.8, 76180.56, -4473.6904, -0.11512326, -0.24621603, 76206.85, 76206.85, 0.0, 9.993549, 10.003632 
2.4254248e+3, 1.2525095e+2, -966589.8, -1655399.6, 36951.523, 0.031689852, -0.2756679, -964613.25, 747900.2, 0.09431905, 10.007111, 9.997024 
2.4253929e+3, 1.3524769e+2, -1003072.8, -1646299.9, 39627.855, 0.0016950162, -0.29386038, -1000640.6, 613902.5, 0.066870876, 10.006012, 9.996903 
2.4253608e+3, 1.4524461e+2, -967276.7, -1542465.3, 23502.043, 0.0022504234, -0.3049349, -966318.0, 550254.56, 0.03950172, 10.005242, 9.997312 
2.4253294e+3, 1.5524176e+2, -932070.56, -1493612.1, 17614.844, 0.04979888, -0.3134401, -931518.56, 487082.06, 0.017869195, 10.00477, 9.997201 
2.4252976e+3, 1.6523917e+2, -881783.25, -1358696.6, 53922.14, 0.06097704, -0.31313294, -875762.56, 444863.78, 0.0053903596, 10.004127, 9.997765 
2.425266e+3, 1.7523694e+2, -904752.75, -1331701.5, 52090.336, 0.034613173, -0.30523214, -898489.3, 324159.03, 0.0008000383, 10.003331, 9.99766 
2.4252346e+3, 1.8523481e+2, -868794.7, -1203420.4, 30220.295, 0.031034602, -0.30154335, -866087.4, 258581.95, 0.000029880799, 10.002645, 9.9981985 
2.4252029e+3, 1.9523294e+2, -864292.6, -1162631.8, 27093.445, 0.049483433, -0.302798, -861852.1, 164835.84, 0.0000000000084542815, 10.002053, 9.998091 
2.4251714e+3, 2.0523132e+2, -824922.25, -1032970.25, 30618.375, 0.06629161, -0.29122967, -820509.75, 108195.21, 0.0, 10.001392, 9.998627 
2.4251398e+3, 2.1523012e+2, -839806.3, -1001065.44, 25868.967, 0.08074441, -0.26849902, -835758.06, -5039.286, 0.0, 10.000668, 9.998523 
2.425108e+3, 2.252291e+2, -799782.75, -861454.1, 7576.7354, 0.07778498, -0.24562837, -798865.5, -66134.92, 0.0, 9.9999695, 9.999145 
2.4250756e+3, 2.3522837e+2, -806908.6, -825593.6, 11055.085, 0.060824472, -0.22411741, -801777.1, -167037.92, 0.0, 9.999297, 9.999042 
2.4250433e+3, 2.4522783e+2, -751394.0, -668223.75, 4445.1055, 0.03820349, -0.21060963, -667986.8, -131240.8, 0.0, 9.998662, 9.999755 
2.4250105e+3, 2.552276e+2, -747430.3, -626409.9, 7011.883, 0.0067516095, -0.20367059, -626005.0, -187255.33, 0.0, 9.998064, 9.999658 
2.4249777e+3, 2.6522774e+2, -663754.8, -411902.13, -7857.7725, -0.011125369, -0.2025852, -411657.22, -70908.75, 0.0, 9.997435, 10.00076 
2.4249454e+3, 2.7522832e+2, -672211.06, -377784.6, -10444.906, -0.007640936, -0.21267523, -377414.53, -134672.77, 0.0, 9.9967575, 10.000648 
2.4249126e+3, 2.8522903e+2, -661573.2, -292351.38, -2052.306, -0.028917937, -0.20875475, -292339.97, -147605.6, 0.0, 9.996031, 10.000912 
2.4248797e+3, 2.9523018e+2, -676011.1, -261042.05, 3380.9739, -0.096443884, -0.1794863, -261014.5, -214290.98, 0.0, 9.995313, 10.000799 
2.4248476e+3, 3.0523068e+2, -658712.7, -135683.44, -22188.09, -0.019766679, -0.24239242, -134743.86, -134743.86, 0.0, 9.994699, 10.001622 
2.4248137e+3, 3.1523252e+2, -661722.44, 8419.707, 446.48495, -0.08812193, -0.21306671, 8420.004, 8420.004, 0.0, 9.994053, 10.002922 
2.435432e+3, 1.252835e+2, -955236.1, -1636060.8, 254.48741, 0.024418274, -0.27800325, -955236.06, 756959.8, 0.09173571, 10.00711, 9.9971695 
2.4353991e+3, 1.3528058e+2, -991409.56, -1626382.0, 1917.4044, 0.034534134, -0.27717543, -991403.8, 622818.0, 0.064919345, 10.006024, 9.997034 
2.4353665e+3, 1.4527752e+2, -971981.2, -1558434.8, 6495.2373, 0.028677467, -0.28636396, -971909.25, 544341.8, 0.038233154, 10.005258, 9.997195 
2.4353337e+3, 1.5527444e+2, -938169.0, -1508810.9, 229.45518, 0.027850527, -0.30733907, -938168.94, 480113.0, 0.01720588, 10.004774, 9.997097 
2.4353015e+3, 1.6527179e+2, -880350.0, -1356590.6, 24609.191, 0.03271828, -0.3069376, -879081.75, 441226.3, 0.0051408675, 10.004127, 9.99778 
2.4352695e+3, 1.7526968e+2, -903262.4, -1329743.4, 22721.691, 0.037763827, -0.28822002, -902055.2, 320273.16, 0.00075144705, 10.003334, 9.997674 
2.4352373e+3, 1.8526754e+2, -871323.8, -1209998.4, 8283.922, 0.03806845, -0.28652456, -871121.3, 253228.31, 0.000028194901, 10.002647, 9.998154 
2.4352048e+3, 1.9526547e+2, -866800.56, -1169046.6, 5114.653, 0.035645723, -0.30094704, -866714.06, 159656.14, 0.00000000002968512, 10.002056, 9.998047 
2.4351726e+3, 2.0526384e+2, -831433.6, -1047535.1, 3715.6453, 0.052924275, -0.28460306, -831369.8, 97017.89, 0.0, 10.001394, 9.998528 
2.4351406e+3, 2.1526273e+2, -846033.8, -1014888.94, -892.20374, 0.086959794, -0.24107258, -846029.1, -15628.257, 0.0, 10.000669, 9.998428 
2.435108e+3, 2.2526164e+2, -793914.06, -850642.8, -17423.283, 0.08319377, -0.223593, -788990.2, -56577.25, 0.0, 9.999973, 9.999218 
2.4350747e+3, 2.3526073e+2, -800784.9, -814511.75, -14359.017, 0.04749057, -0.23101741, -791733.25, -157310.67, 0.0, 9.999302, 9.999117 
2.4350418e+3, 2.4526013e+2, -748210.4, -663027.0, -18301.732, 0.03124453, -0.22732267, -659261.3, -122831.914, 0.0, 9.998666, 9.99979 
2.4350087e+3, 2.5526e+2, -744379.4, -621382.75, -15635.424, 0.027369501, -0.21376616, -619426.25, -180994.19, 0.0, 9.998067, 9.999692 
2.4349754e+3, 2.6526013e+2, -674848.6, -436132.88, -33758.465, 0.0027904292, -0.2059083, -431450.7, -91019.24, 0.0, 9.997437, 10.000594 
2.4349418e+3, 2.7526066e+2, -683136.5, -401856.06, -37524.06, -0.027471704, -0.20639406, -396936.22, -154509.67, 0.0, 9.99676, 10.000483 
2.4349087e+3, 2.852617e+2, -645666.44, -260022.47, -30214.783, -0.03567666, -0.17439337, -257669.53, -113253.375, 0.0, 9.996031, 10.001135 
2.4348752e+3, 2.9526344e+2, -655442.2, -218188.86, -21965.264, -0.058912244, -0.1071459, -217088.22, -170689.83, 0.0, 9.99531, 10.001097 
2.434842e+3, 3.0526277e+2, -648456.56, -115053.05, -46707.418, -0.035712585, -0.310123, -110994.01, -110994.01, 0.0, 9.994699, 10.001765 
2.4348079e+3, 3.152654e+2, -715506.94, -106422.21, -1429.1438, -0.0800796, -0.20928794, -106418.85, -106418.85, 0.0, 9.994064, 10.002129 
2.4454387e+3, 1.2531713e+2, -953208.7, -1644799.3, 34156.766, 0.013180109, -0.27412328, -951525.8, 760341.1, 0.08903526, 10.007151, 9.997082 
2.4454056e+3, 1.353142e+2, -959830.0, -1619899.5, 22869.916, 0.04805232, -0.26620305, -959038.56, 654855.06, 0.06290372, 10.006286, 9.996952 
2.4453719e+3, 1.4531113e+2, -935544.56, -1541603.0, 38459.695, 0.04206226, -0.2703021, -933113.75, 582809.4, 0.03694067, 10.00552, 9.997184 
2.4453384e+3, 1.5530805e+2, -927754.25, -1504850.8, 38995.996, 0.018234551, -0.2880195, -925131.1, 492822.7, 0.016540725, 10.004851, 9.997085 
2.4453054e+3, 1.6530536e+2, -882720.7, -1363554.8, 56858.34, 0.021007903, -0.29010764, -876088.75, 443891.66, 0.004897093, 10.004137, 9.997726 
2.445273e+3, 1.7530312e+2, -899969.44, -1333645.5, 49935.848, 0.043132793, -0.27872977, -894293.8, 327707.97, 0.0007068291, 10.003382, 9.9976225 
2.44524e+3, 1.853009e+2, -866094.94, -1211444.4, 39576.73, 0.046441086, -0.2775171, -861617.56, 262406.03, 0.000027088983, 10.002703, 9.998116 
2.4452068e+3, 1.9529888e+2, -864168.94, -1171190.1, 36308.273, 0.03444924, -0.28619725, -859933.5, 166110.72, 0.00000000008671795, 10.002092, 9.9980135 
2.4451739e+3, 2.0529723e+2, -830293.75, -1045800.4, 33504.52, 0.049726352, -0.2687219, -825205.0, 102856.75, 0.0, 10.0014, 9.998535 
2.4451411e+3, 2.1529607e+2, -850482.56, -1015822.2, 36432.266, 0.08848269, -0.2287265, -842810.8, -12735.763, 0.0, 10.000635, 9.998437 
2.4451078e+3, 2.2529496e+2, -792539.6, -850475.2, 25305.25, 0.08428182, -0.21419035, -783043.3, -50956.105, 0.0, 9.999988, 9.999211 
2.445074e+3, 2.35294e+2, -780554.56, -804977.6, 22116.682, 0.043970745, -0.22356926, -767502.1, -133405.17, 0.0, 9.999444, 9.999112 
2.4450403e+3, 2.4529338e+2, -732554.94, -652735.4, 10809.367, 0.030483512, -0.22389904, -651297.44, -115193.5, 0.0, 9.998764, 9.999812 
2.4450068e+3, 2.5529322e+2, -758290.0, -624719.75, 12483.758, 0.035841417, -0.215729, -623563.0, -185456.16, 0.0, 9.997959, 9.99972 
2.4449728e+3, 2.652934e+2, -696258.56, -448069.5, 3456.9807, 0.011318435, -0.20226015, -448021.38, -107915.63, 0.0, 9.9973, 10.000576 
2.4449384e+3, 2.7529404e+2, -681689.56, -402152.94, 10142.753, -0.026323479, -0.18842536, -401785.4, -159685.5, 0.0, 9.9967785, 10.00047 
2.4449046e+3, 2.8529498e+2, -635682.9, -253214.63, 8104.656, -0.035929, -0.166981, -253042.97, -108952.11, 0.0, 9.996094, 10.001149 
2.4448706e+3, 2.9529646e+2, -666276.3, -223091.17, 680.6922, -0.057531882, -0.12889795, -223090.13, -177013.92, 0.0, 9.995236, 10.001098 
2.4448366e+3, 3.0529654e+2, -661136.2, -118380.84, -33990.43, -0.022844182, -0.25747377, -116260.45, -116260.45, 0.0, 9.994602, 10.001787 
2.4448021e+3, 3.1529912e+2, -689353.8, -96069.17, 25645.547, -0.064636976, -0.16339637, -94962.67, -94962.67, 0.0, 9.994257, 10.002106 
2.4554458e+3, 1.2535174e+2, -968807.1, -1682032.3, 4036.5464, -0.0029128902, -0.26715338, -968784.25, 742743.5, 0.08623372, 10.007151, 9.9968 
2.4554116e+3, 1.3534856e+2, -975975.06, -1658660.8, -7148.4385, 0.044538632, -0.25759006, -975900.2, 637658.2, 0.0608288, 10.006284, 9.996687 
2.4553774e+3, 1.4534546e+2, -929664.2, -1532431.4, 14477.004, 0.043973774, -0.25408852, -929316.7, 586271.75, 0.035622485, 10.005524, 9.997246 
2.4553433e+3, 1.5534261e+2, -921931.3, -1496079.4, 14241.158, 0.018929461, -0.25756395, -921578.3, 496038.38, 0.015870133, 10.004861, 9.997142 
2.4553096e+3, 1.6533981e+2, -890071.1, -1381632.9, 28682.79, 0.023332074, -0.2650621, -888403.1, 431240.78, 0.0046562376, 10.004145, 9.9976 
2.4552761e+3, 1.7533723e+2, -907357.4, -1350954.6, 21841.201, 0.049883086, -0.27666402, -906284.56, 315384.22, 0.00066459004, 10.003387, 9.997502 
2.4552427e+3, 1.8533495e+2, -868155.8, -1217370.4, 16772.428, 0.05594492, -0.27372214, -867352.06, 256339.23, 0.000026177097, 10.002707, 9.998075 
2.455209e+3, 1.953331e+2, -866211.1, -1176479.5, 13392.506, 0.044949196, -0.25867468, -865634.1, 160076.22, 0.00000000016280782, 10.002094, 9.997978 
2.4551752e+3, 2.0533146e+2, -822840.0, -1031598.75, 4939.936, 0.055820603, -0.24421218, -822723.2, 105004.29, 0.0, 10.001403, 9.998632 
2.4551415e+3, 2.1533015e+2, -842776.1, -1001707.75, 8109.842, 0.0851375, -0.23111464, -842363.4, -12621.806, 0.0, 10.000641, 9.998532 
2.4551077e+3, 2.2532903e+2, -798569.3, -864806.1, 5001.4307, 0.081137285, -0.21657251, -798193.8, -66440.19, 0.0, 9.999992, 9.999112 
2.4550734e+3, 2.3532821e+2, -786690.44, -819064.94, 1196.9609, 0.049864177, -0.20224346, -786646.25, -152883.72, 0.0, 9.999448, 9.999016 
2.455039e+3, 2.4532755e+2, -732054.4, -652893.8, -19743.1, 0.03558537, -0.20107512, -648243.06, -112473.08, 0.0, 9.998767, 9.999811 
2.4550046e+3, 2.553272e+2, -756922.1, -623130.75, -18082.877, 0.031765163, -0.2098464, -620729.8, -182955.48, 0.0, 9.997962, 9.99973 
2.45497e+3, 2.653275e+2, -687241.1, -430378.38, -16758.229, 0.014425403, -0.19157463, -429289.63, -89518.07, 0.0, 9.997301, 10.000698 
2.4549356e+3, 2.753285e+2, -672398.0, -383770.97, -9847.567, -0.003688545, -0.1583146, -383435.38, -141673.44, 0.0, 9.996779, 10.000597 
2.4549006e+3, 2.8532887e+2, -649960.5, -283498.72, -24641.92, -0.029862806, -0.18787213, -281849.16, -138090.3, 0.0, 9.996094, 10.000943 
2.4548654e+3, 2.953291e+2, -688029.94, -269134.25, -32539.096, -0.0946901, -0.24985845, -266621.75, -220863.94, 0.0, 9.995237, 10.000782 
2.4548317e+3, 3.0533198e+2, -670511.1, -138613.14, -50067.258, 0.021466954, -0.07328283, -133941.38, -133941.38, 0.0, 9.994602, 10.00165 
2.4547964e+3, 3.1533256e+2, -633551.1, 18760.998, 15805.055, -0.05814766, -0.18056293, 19143.717, 19143.717, 0.0, 9.994258, 10.002894 
2.4654531e+3, 1.253871e+2, -959828.6, -1689050.9, 12691.944, 0.019773275, -0.24402873, -959607.75, 751574.44, 0.08334038, 10.007249, 9.996699 
2.4654177e+3, 1.3538359e+2, -982829.8, -1673241.9, 12446.962, 0.04071827, -0.25506046, -982605.5, 630610.9, 0.05869149, 10.006269, 9.996593 
2.4653828e+3, 1.4538045e+2, -930371.1, -1536071.4, 48311.91, 0.03688274, -0.2510558, -926541.9, 588705.1, 0.034269333, 10.005528, 9.997218 
2.4653481e+3, 1.5537773e+2, -902075.56, -1489352.5, 42100.59, 0.028877286, -0.23629054, -899072.8, 518200.6, 0.015185264, 10.0050125, 9.997114 
2.4653137e+3, 1.6537488e+2, -866843.6, -1381590.1, 48090.625, 0.035537794, -0.24309212, -862389.3, 456911.97, 0.004412564, 10.004355, 9.997497 
2.4652798e+3, 1.7537203e+2, -886707.0, -1351506.9, 42621.67, 0.051424574, -0.2691644, -882830.94, 338497.88, 0.0006221093, 10.003578, 9.997405 
2.4652454e+3, 1.8536969e+2, -851672.2, -1212751.1, 42139.98, 0.05708913, -0.26651222, -846819.44, 276532.75, 0.000025000976, 10.002837, 9.998042 
2.4652112e+3, 1.9536792e+2, -862985.9, -1178098.0, 38902.035, 0.05465314, -0.2397473, -858254.3, 167116.1, 0.00000000021615258, 10.002131, 9.997948 
2.4651767e+3, 2.0536625e+2, -815254.1, -1028321.1, 24905.51, 0.06294996, -0.22566102, -812381.6, 115005.94, 0.0, 10.001459, 9.998627 
2.4651423e+3, 2.1536484e+2, -817688.6, -989467.7, 19844.553, 0.08007001, -0.22306654, -815425.94, 13976.545, 0.0, 10.000815, 9.998531 
2.4651077e+3, 2.2536367e+2, -779270.9, -852294.94, 19651.188, 0.077561, -0.2131305, -774318.5, -42903.855, 0.0, 10.000114, 9.999138 
2.465073e+3, 2.3536289e+2, -797586.9, -820738.44, 25083.83, 0.05981581, -0.19848898, -781536.6, -148113.48, 0.0, 9.99936, 9.999045 
2.4650379e+3, 2.4536225e+2, -732996.5, -648452.44, 10030.819, 0.042949487, -0.19726294, -647278.6, -111848.54, 0.0, 9.998742, 9.999852 
2.4650027e+3, 2.5536194e+2, -713737.1, -597302.5, 14078.432, 0.022954822, -0.20609343, -595624.44, -158190.48, 0.0, 9.9982395, 9.999772 
2.4649672e+3, 2.6536226e+2, -656049.5, -413997.72, 9429.479, 0.011054398, -0.18810052, -413630.94, -74199.914, 0.0, 9.997512, 10.000709 
2.4649324e+3, 2.7536324e+2, -698137.06, -394701.5, 8076.354, 0.016074501, -0.15486164, -394486.7, -153065.14, 0.0, 9.996598, 10.000608 
2.4648967e+3, 2.853636e+2, -671002.7, -291911.34, -1322.8888, -0.019847242, -0.1869582, -291906.75, -148487.95, 0.0, 9.995945, 10.000956 
2.4648604e+3, 2.953638e+2, -653146.06, -253838.88, 6736.542, -0.11803695, -0.25500923, -253725.25, -208306.8, 0.0, 9.995485, 10.000766 
2.4648267e+3, 3.053668e+2, -648001.44, -148918.38, 4294.897, 0.045220815, -0.052635968, -148881.42, -148881.42, 0.0, 9.994851, 10.001457 
2.4647903e+3, 3.153667e+2, -651662.94, 32480.473, 43587.465, -0.06387793, -0.21324377, 35246.293, 35246.293, 0.0, 9.994041, 10.003092 
2.4754608e+3, 1.2542318e+2, -958660.56, -1685558.6, -20978.092, 0.0739538, -0.20686828, -958055.6, 752774.56, 0.08035424, 10.00722, 9.996738 
2.4754238e+3, 1.354193e+2, -976657.75, -1667418.6, -22379.607, 0.034544665, -0.25913954, -975933.5, 636934.25, 0.056480907, 10.006288, 9.996626 
2.4753879e+3, 1.4541607e+2, -932862.9, -1550983.9, 29009.885, 0.021244854, -0.26031557, -931504.3, 583394.75, 0.032867115, 10.005558, 9.997103 
2.4753533e+3, 1.5541346e+2, -908041.44, -1505096.6, 22601.973, 0.04700329, -0.22226831, -907187.06, 509736.94, 0.014475003, 10.005019, 9.997004 
2.4753183e+3, 1.6541056e+2, -873017.56, -1395225.8, 19103.078, 0.05627332, -0.22282198, -872319.7, 446632.63, 0.0041597374, 10.004355, 9.997405 
2.4752831e+3, 1.7540756e+2, -891910.25, -1364119.0, 13543.207, 0.047844127, -0.2560878, -891522.2, 329459.84, 0.00057705684, 10.003583, 9.997318 
2.475248e+3, 1.8540514e+2, -852989.25, -1217652.0, 15765.28, 0.05042022, -0.2565179, -852308.94, 270697.34, 0.000023236666, 10.002844, 9.998007 
2.4752134e+3, 1.9540334e+2, -864646.2, -1183173.1, 12717.184, 0.06331486, -0.22969587, -864139.25, 160885.28, 0.00000000023303823, 10.002136, 9.997912 
2.4751782e+3, 2.0540163e+2, -822788.94, -1045294.0, 1026.9388, 0.070826195, -0.2126473, -822784.2, 104258.04, 0.0, 10.001462, 9.99851 
2.4751431e+3, 2.1540013e+2, -824696.9, -1005098.2, -4015.8152, 0.07320814, -0.20444675, -824607.5, 4450.452, 0.0, 10.000817, 9.998425 
2.4751076e+3, 2.253989e+2, -768833.8, -832075.4, -8371.182, 0.07360231, -0.2042026, -767744.5, -36673.992, 0.0, 10.000117, 9.999276 
2.4750723e+3, 2.3539802e+2, -786686.1, -799931.7, -3060.5466, 0.073658705, -0.21236292, -786013.1, -152934.17, 0.0, 9.999365, 9.9991865 
2.4750367e+3, 2.453975e+2, -727258.1, -638092.25, -9018.209, 0.052270904, -0.21207187, -637189.3, -102104.84, 0.0, 9.998746, 9.999923 
2.4750005e+3, 2.553974e+2, -708878.56, -588631.9, -5893.7524, 0.008926848, -0.20428064, -588343.7, -151257.8, 0.0, 9.998242, 9.999832 
2.4749646e+3, 2.6539764e+2, -663757.0, -430963.0, -25684.324, 0.0011184916, -0.1920274, -428162.94, -89078.52, 0.0, 9.997514, 10.000592 
2.474929e+3, 2.753983e+2, -705955.56, -411563.34, -25873.81, 0.03264271, -0.17923862, -409306.63, -168227.45, 0.0, 9.996598, 10.000494 
2.4748929e+3, 2.853992e+2, -655058.0, -259531.94, -18977.912, -0.0060104593, -0.16301827, -258623.44, -115552.555, 0.0, 9.995945, 10.00118 
2.4748558e+3, 2.9540056e+2, -632737.5, -213049.53, -12134.026, -0.12713307, -0.13765465, -212699.0, -167641.3, 0.0, 9.995489, 10.001046 
2.4748215e+3, 3.0540085e+2, -665068.75, -185584.7, -25000.602, 0.046485793, -0.21029676, -184284.69, -184284.69, 0.0, 9.994853, 10.001206 
2.4747841e+3, 3.1540275e+2, -676359.1, -18381.84, -19948.404, -0.06638068, -0.13674523, -17777.604, -17777.604, 0.0, 9.994035, 10.002748 
2.4854678e+3, 1.2545957e+2, -1032799.2, -1734186.3, 10624.554, 0.092379525, -0.20399992, -1032638.25, 677836.1, 0.077258386, 10.006696, 9.996643 
2.4854304e+3, 1.3545576e+2, -912142.25, -1644994.3, 762.7697, 0.030120581, -0.23995839, -912141.44, 700370.44, 0.054177225, 10.006788, 9.996537 
2.4853937e+3, 1.4545244e+2, -840508.2, -1506107.5, 37257.547, 0.014661131, -0.24333842, -838429.1, 676114.6, 0.031398885, 10.006213, 9.997094 
2.4853584e+3, 1.5544967e+2, -895825.75, -1500358.4, 37432.234, 0.056362096, -0.2219102, -893516.75, 523052.88, 0.013728676, 10.00511, 9.996992 
2.4853228e+3, 1.6544671e+2, -889478.2, -1414606.3, 42103.797, 0.06748218, -0.22214822, -886123.8, 432474.8, 0.0038929002, 10.0042925, 9.997301 
2.4852869e+3, 1.7544374e+2, -879490.5, -1368631.5, 35271.21, 0.048834756, -0.2411233, -876960.25, 343668.5, 0.0005282327, 10.003716, 9.997222 
2.485251e+3, 1.8544129e+2, -826751.9, -1203696.5, 35638.508, 0.0517173, -0.23933893, -823412.0, 299241.34, 0.000020785536, 10.003021, 9.998015 
2.4852155e+3, 1.9543941e+2, -850410.8, -1174698.1, 35374.707, 0.07406187, -0.22042538, -846596.9, 178075.0, 0.00000000017417703, 10.002231, 9.997923 
2.4851798e+3, 2.0543768e+2, -816271.7, -1042232.56, 32630.162, 0.080891095, -0.2071263, -811654.06, 115035.52, 0.0, 10.001511, 9.998507 
2.4851438e+3, 2.1543616e+2, -820245.3, -1002743.6, 35389.06, 0.07391171, -0.19943564, -813623.2, 15082.179, 0.0, 10.00085, 9.998424 
2.4851076e+3, 2.2543487e+2, -754443.06, -821816.06, 28746.563, 0.07162402, -0.20513168, -743844.75, -13126.545, 0.0, 10.000205, 9.999303 
2.4850717e+3, 2.3543394e+2, -754271.2, -780333.5, 25606.373, 0.07503372, -0.22275117, -738570.9, -105843.74, 0.0, 9.999574, 9.999219 
2.4850354e+3, 2.4543348e+2, -707307.1, -618583.3, 17156.672, 0.05763069, -0.2184919, -615381.25, -80649.74, 0.0, 9.998843, 10.000009 
2.4849989e+3, 2.5543365e+2, -734307.44, -591485.3, 21301.227, 0.018775031, -0.19671874, -588376.06, -151645.31, 0.0, 9.998031, 9.999913 
2.4849622e+3, 2.6543385e+2, -688036.0, -448252.44, 1979.131, 0.0053557614, -0.18984555, -448236.1, -109506.195, 0.0, 9.997374, 10.00054 
2.4849255e+3, 2.7543423e+2, -676163.9, -402278.63, 6162.374, 0.023556465, -0.1957281, -402140.03, -161412.44, 0.0, 9.996827, 10.000445 
2.4848887e+3, 2.854354e+2, -626200.44, -236610.4, 13040.206, -0.005448221, -0.15398315, -236174.42, -93457.695, 0.0, 9.996107, 10.001258 
2.4848513e+3, 2.9543737e+2, -656163.25, -211584.9, 8737.375, -0.09916237, -0.0740564, -211413.27, -166716.19, 0.0, 9.995276, 10.001157 
2.4848162e+3, 3.0543637e+2, -695435.06, -196349.28, -2178.8196, 0.03708568, -0.28604275, -196339.77, -196339.77, 0.0, 9.994631, 10.001238 
2.484778e+3, 3.1543943e+2, -670836.4, -2759.7205, 14697.3, -0.069588654, -0.091081716, -2436.5447, -2436.5447, 0.0, 9.9940195, 10.002861 
2.4954744e+3, 1.2549634e+2, -1038931.8, -1760903.5, 13355.416, 0.080661885, -0.22809617, -1038684.8, 671429.44, 0.07402337, 10.006728, 9.996445 
2.495437e+3, 1.3549297e+2, -924964.75, -1673721.3, 1653.7988, 0.026297843, -0.1995562, -924961.06, 687187.6, 0.051757034, 10.006773, 9.996348 
2.4953999e+3, 1.4548959e+2, -837604.44, -1498940.4, -2955.1658, 0.0149709, -0.20353526, -837591.25, 676589.94, 0.029850245, 10.006195, 9.997155 
2.4953635e+3, 1.5548636e+2, -890594.2, -1492061.8, -2758.916, 0.05760975, -0.23390129, -890581.56, 525628.8, 0.012940097, 10.005115, 9.997047 
2.4953268e+3, 1.6548333e+2, -896207.56, -1431940.6, 20464.46, 0.07015131, -0.23894584, -895426.94, 422813.22, 0.0036106284, 10.004303, 9.997178 
2.4952905e+3, 1.7548056e+2, -886790.44, -1385148.4, 13414.132, 0.053650018, -0.22453824, -886429.6, 333839.63, 0.0004757879, 10.003719, 9.997108 
2.4952541e+3, 1.8547815e+2, -823738.3, -1198369.6, 6210.7495, 0.059999526, -0.21534908, -823635.4, 298658.13, 0.000017741677, 10.003023, 9.998053 
2.4952178e+3, 1.9547616e+2, -846713.0, -1168430.8, 6144.8833, 0.0866068, -0.21097012, -846595.7, 177716.73, 0.00000000005180779, 10.0022335, 9.997966 
2.4951814e+3, 2.0547438e+2, -808856.56, -1028644.06, 8069.4546, 0.09295921, -0.2085201, -808560.7, 117769.26, 0.0, 10.001515, 9.998599 
2.4951446e+3, 2.154729e+2, -813215.06, -989902.4, 10902.218, 0.08152363, -0.20844397, -812544.94, 15800.101, 0.0, 10.0008545, 9.99851 
2.495108e+3, 2.2547159e+2, -760405.3, -835605.56, 5168.669, 0.07115737, -0.21563959, -760051.7, -29693.672, 0.0, 10.000209, 9.999208 
2.495071e+3, 2.3547058e+2, -759806.1, -792917.6, 1281.4332, 0.06370543, -0.2291413, -759756.56, -127388.64, 0.0, 9.999576, 9.999133 
2.4950342e+3, 2.4547024e+2, -700366.4, -605182.7, -13676.846, 0.059312537, -0.2164172, -603256.44, -68884.86, 0.0, 9.998844, 10.000101 
2.4949971e+3, 2.5547057e+2, -727268.56, -578053.7, -8943.697, 0.052670915, -0.18377863, -577519.56, -141150.86, 0.0, 9.998033, 10.000006 
2.4949597e+3, 2.654708e+2, -687492.3, -448273.78, -18827.45, 0.02327327, -0.18174075, -446801.06, -108433.24, 0.0, 9.9973755, 10.00054 
2.4949218e+3, 2.75471e+2, -674760.7, -401132.03, -15923.35, -0.012823873, -0.20406713, -400208.5, -159841.48, 0.0, 9.996832, 10.000453 
2.4948847e+3, 2.8547215e+2, -631505.6, -248726.9, -19338.703, -0.018204955, -0.16050008, -247752.36, -105395.7, 0.0, 9.996108, 10.001175 
2.4948472e+3, 2.954742e+2, -661311.44, -221957.16, -21140.313, -0.031673178, -0.06714468, -220942.3, -176605.11, 0.0, 9.995273, 10.001089 
2.4948104e+3, 3.054734e+2, -673705.56, -150758.88, -24271.037, 0.014707648, -0.27322468, -149634.83, -149634.83, 0.0, 9.994626, 10.0015545 
2.4947722e+3, 3.1547624e+2, -635709.9, 69478.45, 4545.614, -0.07091087, -0.13278554, 69507.76, 69507.76, 0.0, 9.9940195, 10.003359 
2.5054812e+3, 1.2553397e+2, -955756.8, -1720017.8, 30191.025, 0.069027975, -0.21112521, -954566.0, 755180.3, 0.07062367, 10.007329, 9.996435 
2.505444e+3, 1.3553047e+2, -974481.06, -1699969.6, 29682.533, 0.04583482, -0.19487765, -973268.7, 638513.25, 0.049205735, 10.006404, 9.9963455 
2.505406e+3, 1.4552703e+2, -908112.5, -1535805.4, 17553.576, 0.035542674, -0.20231101, -907621.94, 606192.9, 0.028216872, 10.005699, 9.997136 
2.5053683e+3, 1.555238e+2, -881365.56, -1489688.6, 12424.057, 0.05640032, -0.22976059, -881111.9, 534732.2, 0.012111196, 10.005187, 9.997027 
2.5053313e+3, 1.655208e+2, -865165.44, -1417162.3, 40647.406, 0.06563582, -0.23077412, -862188.3, 455685.44, 0.0033159237, 10.00452, 9.997173 
2.505294e+3, 1.7551808e+2, -885103.56, -1384025.6, 41194.004, 0.06075903, -0.21095604, -881725.2, 338177.3, 0.00042111473, 10.003733, 9.9971075 
2.505257e+3, 1.8551566e+2, -823983.94, -1195635.9, 35505.508, 0.06913527, -0.20410237, -820622.3, 301304.53, 0.0000143640455, 10.003012, 9.9980755 
2.50522e+3, 1.9551359e+2, -828518.0, -1156481.8, 34053.78, 0.08988138, -0.20863293, -825019.4, 198926.92, 0.0000000000010010511, 10.002348, 9.997992 
2.505183e+3, 2.0551181e+2, -786914.75, -1014295.75, 33888.246, 0.094502024, -0.20792228, -781971.6, 143991.97, 0.0, 10.001653, 9.99863 
2.5051454e+3, 2.1551041e+2, -799682.94, -979148.2, 31677.79, 0.08517772, -0.20331861, -794255.56, 33722.277, 0.0, 10.000933, 9.998545 
2.505108e+3, 2.2550914e+2, -758175.6, -829991.9, 29194.432, 0.0735275, -0.20974739, -747805.2, -17814.822, 0.0, 10.000207, 9.999246 
2.5050706e+3, 2.3550813e+2, -771779.56, -793918.7, 34998.38, 0.06203468, -0.22614463, -746141.9, -114141.74, 0.0, 9.9994755, 9.999173 
2.505033e+3, 2.4550778e+2, -702601.75, -603478.25, 20587.275, 0.059537526, -0.21696557, -599372.5, -65368.64, 0.0, 9.99882, 10.000123 
2.5049952e+3, 2.5550812e+2, -698858.8, -561248.0, 19665.916, 0.05985166, -0.1867633, -558492.75, -122491.695, 0.0, 9.998218, 10.0000305 
2.504957e+3, 2.6550838e+2, -662528.94, -433653.8, 10576.116, 0.030736465, -0.17863666, -433166.16, -95166.766, 0.0, 9.997539, 10.000561 
2.5049186e+3, 2.7550873e+2, -676536.1, -399322.25, 14257.164, -0.009940813, -0.19125861, -398590.9, -158593.4, 0.0, 9.996811, 10.000474 
2.5048807e+3, 2.855097e+2, -637832.9, -261368.73, 5765.0806, -0.012503721, -0.16298293, -261280.47, -119291.305, 0.0, 9.996109, 10.001086 
2.5048426e+3, 2.955114e+2, -648386.2, -225566.13, 4077.1863, -0.019113945, -0.09657905, -225526.81, -181553.23, 0.0, 9.995406, 10.0009985 
2.504805e+3, 3.0551133e+2, -644258.0, -126667.84, -2874.636, 0.00798485, -0.22438107, -126651.875, -126651.875, 0.0, 9.994788, 10.00164 
2.5047663e+3, 3.1551358e+2, -607402.56, 69634.97, 12139.835, -0.057981137, -0.15227048, 69852.58, 69852.58, 0.0, 9.994276, 10.003234 
2.5154883e+3, 1.255724e+2, -944664.75, -1700516.1, -1746.5082, 0.056593593, -0.16179885, -944660.75, 764710.25, 0.067059256, 10.007321, 9.996576 
2.5154504e+3, 1.3556828e+2, -962279.3, -1679207.8, -2681.5012, 0.08501207, -0.22037809, -962269.25, 649141.8, 0.04653335, 10.006411, 9.996485 
2.515412e+3, 1.4556484e+2, -911879.56, -1549499.6, -1168.8384, 0.07301583, -0.23295346, -911877.44, 601566.94, 0.026512647, 10.005711, 9.997039 
2.5153735e+3, 1.55562e+2, -886947.5, -1503239.0, -7122.178, 0.052385587, -0.21095538, -886865.25, 528605.7, 0.011253935, 10.005187, 9.996936 
2.5153357e+3, 1.655591e+2, -859165.8, -1404889.9, 11228.043, 0.05468911, -0.20057487, -858934.9, 458564.72, 0.0030157706, 10.004518, 9.99726 
2.5152978e+3, 1.7555627e+2, -878820.3, -1371532.0, 12032.547, 0.06988193, -0.19984867, -878526.7, 341001.97, 0.00036653684, 10.003732, 9.997195 
2.5152603e+3, 1.8555377e+2, -823713.75, -1195933.1, 10796.518, 0.07873845, -0.20451494, -823400.8, 298152.7, 0.000011028373, 10.003013, 9.998075 
2.515222e+3, 1.9555166e+2, -828504.9, -1157049.1, 9213.961, 0.08404483, -0.21370353, -828246.7, 195327.05, 0.0, 10.002348, 9.997989 
2.5151843e+3, 2.0554994e+2, -789466.3, -1020238.06, 7111.4185, 0.08611824, -0.2053168, -789247.4, 136343.34, 0.0, 10.001653, 9.9985895 
2.5151464e+3, 2.1554868e+2, -801263.7, -983095.75, 5060.813, 0.0849637, -0.1836044, -801122.94, 26480.93, 0.0, 10.000933, 9.998519 
2.5151083e+3, 2.255475e+2, -746742.4, -807433.25, 2111.3345, 0.07864158, -0.1878718, -746669.0, -17053.69, 0.0, 10.00021, 9.999401 
2.51507e+3, 2.3554654e+2, -760588.6, -772360.9, 7789.334, 0.06966211, -0.21501404, -756711.56, -125087.44, 0.0, 9.99948, 9.99932 
2.5150317e+3, 2.4554609e+2, -706098.7, -612163.44, -2239.5283, 0.057821818, -0.22060528, -612110.1, -78481.43, 0.0, 9.998823, 10.000064 
2.5149933e+3, 2.555462e+2, -701929.5, -568953.1, -3917.4167, 0.03939525, -0.20570683, -568837.8, -133209.77, 0.0, 9.99822, 9.999978 
2.5149545e+3, 2.6554665e+2, -659970.44, -429370.97, -17491.83, 0.028098943, -0.18012922, -428051.72, -90426.86, 0.0, 9.99754, 10.00059 
2.514916e+3, 2.755474e+2, -674505.8, -395728.84, -13255.843, 0.034087352, -0.15608758, -395099.94, -155480.75, 0.0, 9.996811, 10.000501 
2.514877e+3, 2.8554797e+2, -645193.6, -277358.22, -21014.34, 0.011501835, -0.16186386, -276161.56, -134547.0, 0.0, 9.996109, 10.000978 
2.5148374e+3, 2.9554883e+2, -656623.6, -244164.19, -22804.49, -0.0661185, -0.16556455, -242907.19, -199300.42, 0.0, 9.995409, 10.000871 
2.5147998e+3, 3.055502e+2, -655952.75, -152200.38, -24113.127, 0.01934991, -0.13498147, -151048.78, -151048.78, 0.0, 9.994791, 10.001465 
2.5147608e+3, 3.1555143e+2, -667462.7, -56331.844, -14395.314, -0.04223209, -0.15226093, -55992.95, -55992.95, 0.0, 9.994279, 10.002369 
2.5254956e+3, 1.2561113e+2, -945537.0, -1700452.9, 28819.434, 0.066393286, -0.16943197, -944438.4, 764553.25, 0.06336195, 10.007284, 9.996593 
2.525457e+3, 1.3560721e+2, -939671.9, -1667009.1, 21057.352, 0.09671029, -0.21047404, -939062.75, 671966.8, 0.043776546, 10.006554, 9.996499 
2.525418e+3, 1.4560373e+2, -900253.7, -1553833.1, 25649.46, 0.084279254, -0.22102238, -899248.6, 613814.75, 0.024767702, 10.005829, 9.99695 
2.5253788e+3, 1.5560071e+2, -903650.0, -1519713.6, 19761.129, 0.061995827, -0.20897278, -903016.8, 512075.78, 0.010386511, 10.005106, 9.99686 
2.52534e+3, 1.6559781e+2, -870761.06, -1396392.0, 35385.46, 0.06388501, -0.20049712, -868389.6, 448731.56, 0.0027184696, 10.004378, 9.997384 
2.525302e+3, 1.7559515e+2, -881970.75, -1359342.8, 38484.125, 0.07992422, -0.19561529, -878888.25, 340259.66, 0.00031455493, 10.0036545, 9.997314 
2.525263e+3, 1.8559273e+2, -836379.75, -1204007.8, 39577.12, 0.0858421, -0.19677024, -832167.4, 289004.72, 0.000008091692, 10.002937, 9.998054 
2.5252247e+3, 1.9559062e+2, -846935.25, -1166832.4, 36235.344, 0.08496908, -0.20266844, -842882.2, 180310.72, 0.0, 10.002228, 9.997978 
2.5251856e+3, 2.0558892e+2, -796654.56, -1010179.3, 39384.313, 0.08495761, -0.19738829, -789621.9, 135587.81, 0.0, 10.001549, 9.998708 
2.5251472e+3, 2.1558768e+2, -799066.8, -968535.2, 48071.555, 0.08516759, -0.18411086, -786380.44, 40841.527, 0.0, 10.000894, 9.998637 
2.5251085e+3, 2.255866e+2, -743779.44, -801062.94, 44221.793, 0.080696076, -0.18654642, -719734.25, 9498.164, 0.0, 10.000212, 9.999442 
2.5250697e+3, 2.3558576e+2, -753854.25, -764108.8, 41573.793, 0.074216515, -0.20275961, -717092.75, -85852.76, 0.0, 9.999509, 9.999362 
2.5250304e+3, 2.455853e+2, -711357.1, -617406.3, 31039.615, 0.060766846, -0.20943882, -608077.7, -74832.94, 0.0, 9.998802, 10.000036 
2.5249913e+3, 2.5558525e+2, -721518.0, -580543.9, 31417.275, 0.037502903, -0.20687498, -573859.2, -138613.53, 0.0, 9.998098, 9.999955 
2.524952e+3, 2.6558566e+2, -673415.94, -434239.78, 16981.756, 0.02887833, -0.18438451, -433040.06, -95797.15, 0.0, 9.997444, 10.000602 
2.524913e+3, 2.7558652e+2, -673046.6, -393252.44, 19453.07, 0.04341738, -0.1526537, -391906.4, -152669.92, 0.0, 9.996817, 10.000513 
2.524873e+3, 2.8558722e+2, -626563.3, -264492.5, 18144.55, 0.017495943, -0.14664622, -263585.5, -122354.945, 0.0, 9.996223, 10.00101 
2.524833e+3, 2.9558817e+2, -619603.44, -225585.22, 26940.07, -0.07025116, -0.1444827, -223751.78, -180529.83, 0.0, 9.995664, 10.0008745 
2.5247946e+3, 3.0558896e+2, -658819.94, -202492.16, 17799.88, 0.038747597, -0.14797816, -201798.89, -201798.89, 0.0, 9.994986, 10.001024 
2.524755e+3, 3.1559017e+2, -670033.56, -27094.217, -10067.467, -0.04064408, -0.11986137, -26936.615, -26936.615, 0.0, 9.994132, 10.00264 
2.5355032e+3, 1.2565024e+2, -948275.7, -1712949.6, 2476.8545, 0.09260875, -0.22238335, -948267.7, 760340.06, 0.05958249, 10.007284, 9.996505 
2.5354633e+3, 1.3564718e+2, -944055.56, -1681118.8, -4827.4136, 0.084700294, -0.16979142, -944023.94, 666614.0, 0.040983215, 10.006553, 9.996403 
2.5354236e+3, 1.4564365e+2, -905123.7, -1567736.6, -544.8532, 0.07356121, -0.17341998, -905123.25, 607549.25, 0.023016457, 10.005831, 9.996855 
2.535384e+3, 1.5563993e+2, -907966.94, -1530480.4, -6838.9805, 0.083339944, -0.22206256, -907891.9, 506817.16, 0.009526898, 10.005107, 9.996787 
2.5353447e+3, 1.6563694e+2, -860070.0, -1375187.4, 8689.177, 0.090308785, -0.22668998, -859923.44, 456814.75, 0.002431045, 10.004379, 9.99753 
2.5353053e+3, 1.7563467e+2, -872024.4, -1339605.1, 11567.327, 0.09034545, -0.1975239, -871738.4, 347021.97, 0.0002671182, 10.003655, 9.997451 
2.535266e+3, 1.8563248e+2, -839484.44, -1211456.0, 13171.003, 0.09060964, -0.18127257, -839018.6, 281764.1, 0.0000057652073, 10.002939, 9.998003 
2.535227e+3, 1.9563043e+2, -848493.5, -1171013.0, 10120.397, 0.092083775, -0.1758061, -848176.25, 174627.72, 0.0, 10.00223, 9.99795 
2.5351876e+3, 2.0562871e+2, -778505.7, -973439.9, 15083.211, 0.090303876, -0.18463114, -777345.5, 147475.13, 0.0, 10.00155, 9.9989605 
2.535148e+3, 2.1562739e+2, -782319.94, -934568.5, 23506.336, 0.08523656, -0.20513111, -778773.3, 48059.223, 0.0, 10.000895, 9.998871 
2.5351086e+3, 2.256264e+2, -749057.25, -812810.56, 17789.793, 0.07963391, -0.20486239, -744429.1, -15587.224, 0.0, 10.000213, 9.999362 
2.535069e+3, 2.3562582e+2, -758634.5, -774708.25, 14734.594, 0.075581685, -0.18839943, -749887.5, -119039.55, 0.0, 9.999509, 9.99929 
2.5350294e+3, 2.4562544e+2, -711398.6, -618493.7, 4262.389, 0.06843276, -0.18320414, -618298.5, -85446.266, 0.0, 9.998804, 10.00003 
2.5349894e+3, 2.556253e+2, -721237.4, -581234.0, 4897.7827, 0.05423396, -0.19013157, -581062.9, -146208.69, 0.0, 9.998101, 9.999951 
2.5349492e+3, 2.6562545e+2, -674201.94, -436962.66, -6918.0283, 0.032511156, -0.19200121, -436761.1, -99907.23, 0.0, 9.997446, 10.000585 
2.5349092e+3, 2.7562603e+2, -673229.7, -394958.06, -4567.62, 0.015661355, -0.18322155, -394883.13, -156033.3, 0.0, 9.9968195, 10.000502 
2.534869e+3, 2.8562745e+2, -614531.0, -240680.78, -3536.5679, 0.004968364, -0.11583369, -240647.33, -99810.15, 0.0, 9.996225, 10.001174 
2.5348288e+3, 2.956294e+2, -610190.1, -207171.97, 5676.994, -0.02788911, -0.025771108, -207092.02, -164273.48, 0.0, 9.995666, 10.001001 
2.53479e+3, 3.0562744e+2, -709717.7, -309345.38, -12493.861, 0.06586907, -0.27431694, -308955.88, -308955.88, 0.0, 9.9949875, 10.000292 
2.534749e+3, 3.1563e+2, -552543.75, 215558.98, -72799.43, -0.048669633, -0.046219382, 222397.89, 222397.89, 0.0, 9.994132, 10.00431 
2.5455105e+3, 1.256905e+2, -935499.06, -1704409.8, 17650.07, 0.10079264, -0.22014405, -935094.1, 773119.0, 0.05576672, 10.007339, 9.996538 
2.54547e+3, 1.3568729e+2, -941872.5, -1677503.9, 18838.137, 0.08937165, -0.1833933, -941390.44, 668853.8, 0.038190402, 10.00654, 9.996433 
2.5454292e+3, 1.4568381e+2, -914872.56, -1577758.4, 30118.742, 0.078400314, -0.18207753, -913506.94, 598771.9, 0.021283653, 10.005779, 9.99681 
2.5453892e+3, 1.5568025e+2, -918525.2, -1539271.8, 26662.88, 0.09109683, -0.21028325, -917382.06, 496932.63, 0.008687462, 10.005049, 9.996754 
2.545349e+3, 1.656773e+2, -861045.1, -1365777.6, 41677.566, 0.098910615, -0.21480703, -857626.8, 458716.8, 0.0021578125, 10.004331, 9.997617 
2.545309e+3, 1.7567495e+2, -870151.9, -1329066.9, 40133.387, 0.098033406, -0.20077683, -866668.56, 351697.3, 0.00022511145, 10.003629, 9.997535 
2.5452688e+3, 1.8567277e+2, -839442.25, -1207490.3, 43030.094, 0.094879106, -0.18514384, -834478.3, 285909.47, 0.0000040749073, 10.002925, 9.998035 
2.545229e+3, 1.9567089e+2, -846819.6, -1164992.8, 45221.54, 0.09144426, -0.16951628, -840517.1, 181891.2, 0.0, 10.002222, 9.997993 
2.5451887e+3, 2.0566927e+2, -782769.5, -963915.2, 45923.098, 0.09122708, -0.17482421, -771792.5, 152631.58, 0.0, 10.001474, 9.999061 
2.545149e+3, 2.15668e+2, -804800.3, -934006.2, 43285.613, 0.09259644, -0.19653627, -791639.6, 34795.215, 0.0, 10.000694, 9.99897 
2.5451085e+3, 2.2566704e+2, -777348.1, -823038.8, 38825.074, 0.08402621, -0.19983692, -755145.75, -26701.854, 0.0, 10.000008, 9.99939 
2.5450683e+3, 2.3566644e+2, -773920.56, -778809.94, 43285.27, 0.06997037, -0.18885778, -733011.0, -102560.6, 0.0, 9.9993925, 9.999316 
2.5450277e+3, 2.4566609e+2, -717770.94, -624150.4, 34862.516, 0.06402465, -0.17919001, -612594.56, -80140.01, 0.0, 9.998775, 10.000003 
2.5449875e+3, 2.5566605e+2, -716158.56, -580956.5, 33893.56, 0.060122788, -0.17353228, -572935.6, -138479.73, 0.0, 9.998149, 9.999928 
2.5449467e+3, 2.6566616e+2, -660293.8, -432930.97, 23073.002, 0.036816686, -0.17545216, -430613.13, -94157.26, 0.0, 9.997556, 10.000557 
2.544906e+3, 2.756666e+2, -651086.5, -387482.3, 24083.004, 0.008973299, -0.17779313, -385300.16, -146847.27, 0.0, 9.996988, 10.00047 
2.5448656e+3, 2.856679e+2, -616086.0, -255978.4, 9083.833, 0.0067995586, -0.11149675, -255749.4, -115307.99, 0.0, 9.99628, 10.001041 
2.5448248e+3, 2.9566985e+2, -646095.25, -236064.77, -3979.79, -0.0025671346, -0.010496457, -236026.14, -193602.55, 0.0, 9.995471, 10.0008955 
2.5447848e+3, 3.05668e+2, -699222.8, -278980.5, 11645.048, 0.063091174, -0.25450692, -278658.06, -278658.06, 0.0, 9.994953, 10.000515 
2.544743e+3, 3.1567058e+2, -501658.3, 213112.52, 3945.7615, -0.04491065, -0.041466128, 213134.3, 213134.3, 0.0, 9.994601, 10.004064 
2.5555176e+3, 1.257318e+2, -924680.9, -1686625.5, -9984.1, 0.09368145, -0.17310387, -924550.06, 783258.56, 0.051943198, 10.00733, 9.996671 
2.5554764e+3, 1.3572764e+2, -932968.06, -1659755.5, -9245.713, 0.1074611, -0.24380928, -932850.44, 676997.44, 0.035416134, 10.006527, 9.996562 
2.555435e+3, 1.4572427e+2, -915972.25, -1581314.8, 3499.4082, 0.095638365, -0.23788044, -915953.8, 595927.9, 0.019580493, 10.005772, 9.996791 
2.5553942e+3, 1.5572159e+2, -918973.3, -1541380.9, 4.8598676, 0.08673366, -0.17603464, -918973.3, 494936.84, 0.007874158, 10.005047, 9.996741 
2.5553533e+3, 1.6571875e+2, -859219.4, -1362643.1, 15993.44, 0.09195628, -0.16950753, -858711.75, 457226.4, 0.0019004958, 10.00433, 9.99764 
2.5553125e+3, 1.7571594e+2, -868369.06, -1325194.1, 14275.815, 0.103016384, -0.20493406, -867923.4, 350041.1, 0.00018834483, 10.003625, 9.997564 
2.5552717e+3, 1.8571366e+2, -832815.44, -1193819.4, 17031.191, 0.09837454, -0.20645504, -832013.7, 287973.6, 0.0000029076905, 10.002923, 9.998132 
2.555231e+3, 1.9571193e+2, -840246.56, -1151928.8, 18783.678, 0.08333663, -0.18283427, -839118.6, 182887.67, 0.0, 10.002222, 9.998084 
2.5551903e+3, 2.0571055e+2, -786012.75, -971444.25, 16815.697, 0.08813168, -0.16738607, -784500.2, 139520.02, 0.0, 10.001475, 9.99901 
2.5551498e+3, 2.1570954e+2, -807108.2, -939478.94, 14824.965, 0.10698122, -0.1587938, -805468.2, 20560.834, 0.0, 10.000694, 9.998934 
2.5551087e+3, 2.2570851e+2, -768786.5, -806404.25, 16022.363, 0.09334871, -0.17256933, -762887.3, -34848.695, 0.0, 10.00001, 9.999504 
2.5550672e+3, 2.357076e+2, -765857.7, -763610.0, 19978.236, 0.05680276, -0.20462221, -744724.0, -114676.42, 0.0, 9.999397, 9.99942 
2.5550264e+3, 2.4570724e+2, -720982.7, -632193.0, 11033.225, 0.047492716, -0.19716017, -630842.5, -98790.586, 0.0, 9.998777, 9.999948 
2.5549856e+3, 2.557075e+2, -719356.7, -588725.2, 10087.952, 0.05478764, -0.15727226, -587950.75, -153899.58, 0.0, 9.998151, 9.999875 
2.5549445e+3, 2.6570782e+2, -663287.0, -440200.7, 1264.2708, 0.041878868, -0.13382876, -440193.53, -104144.49, 0.0, 9.997558, 10.000507 
2.554903e+3, 2.7570823e+2, -655100.25, -397003.1, 1543.8439, 0.024538863, -0.13363408, -396993.84, -158948.22, 0.0, 9.99699, 10.000405 
2.554862e+3, 2.8570858e+2, -647586.5, -322214.1, -22232.758, 0.02344318, -0.13597752, -320701.94, -180658.16, 0.0, 9.996281, 10.000587 
2.5548202e+3, 2.9570934e+2, -670949.5, -287741.6, -33444.027, 0.0031217975, -0.108048484, -284844.7, -242806.11, 0.0, 9.995469, 10.000544 
2.5547794e+3, 3.057108e+2, -612825.9, -100126.19, -1392.8749, 0.027549943, -0.07292257, -100122.41, -100122.41, 0.0, 9.994952, 10.001745 
2.554738e+3, 3.1571236e+2, -688355.3, -177017.4, -977.3683, -0.029889954, -0.0720782, -177015.53, -177015.53, 0.0, 9.994611, 10.00138 
2.565525e+3, 1.2577346e+2, -934631.5, -1691766.5, 17267.44, 0.0932527, -0.17569475, -934237.94, 773162.56, 0.04813123, 10.007231, 9.99668 
2.565483e+3, 1.3576938e+2, -964719.56, -1674291.8, 10833.488, 0.11905669, -0.24049607, -964554.25, 644885.25, 0.032667637, 10.00628, 9.996581 
2.5654408e+3, 1.4576606e+2, -944238.44, -1585700.6, 31673.373, 0.10978776, -0.23216838, -942678.3, 568794.3, 0.017909622, 10.005526, 9.996878 
2.5653988e+3, 1.5576346e+2, -929381.2, -1536776.9, 34802.26, 0.09471411, -0.17028342, -927393.6, 486106.6, 0.0070884125, 10.004932, 9.996827 
2.5653574e+3, 1.6576067e+2, -872446.8, -1366101.4, 50784.598, 0.0963226, -0.16504405, -867276.5, 448251.3, 0.0016590941, 10.004229, 9.997664 
2.5653163e+3, 1.7575784e+2, -892776.25, -1333320.1, 49083.344, 0.106338695, -0.20308562, -887373.8, 330180.4, 0.0001560768, 10.003445, 9.997594 
2.5652745e+3, 1.8575561e+2, -858027.2, -1201118.6, 51927.348, 0.10230411, -0.2035724, -850340.2, 269236.66, 0.0000021053752, 10.002731, 9.998173 
2.565233e+3, 1.9575395e+2, -858641.0, -1155540.6, 49315.668, 0.08886813, -0.17568576, -850663.9, 170931.28, 0.0, 10.002075, 9.99813 
2.5651917e+3, 2.0575263e+2, -796135.06, -970338.25, 46754.24, 0.091458745, -0.15830046, -784379.94, 139228.53, 0.0, 10.001383, 9.999061 
2.5651503e+3, 2.1575166e+2, -808360.06, -934396.94, 51562.63, 0.10551203, -0.1495569, -789953.5, 35663.332, 0.0, 10.000665, 9.998981 
2.5651085e+3, 2.2575064e+2, -772698.9, -810913.3, 54317.086, 0.08940236, -0.16379817, -734226.3, -6599.7847, 0.0, 9.999997, 9.999477 
2.5650665e+3, 2.3574968e+2, -771552.7, -768150.56, 48200.203, 0.05250749, -0.19699176, -721621.44, -91985.37, 0.0, 9.999369, 9.999401 
2.565025e+3, 2.4574932e+2, -721668.44, -632707.6, 37496.496, 0.03992787, -0.1882695, -619011.6, -87370.96, 0.0, 9.998777, 9.999943 
2.5649834e+3, 2.557496e+2, -711125.4, -585041.6, 39639.305, 0.041225076, -0.14448777, -573615.06, -139975.13, 0.0, 9.998212, 9.999869 
2.5649416e+3, 2.6574996e+2, -666049.4, -446001.4, 30895.844, 0.0377733, -0.11432869, -441745.78, -106108.34, 0.0, 9.997561, 10.000464 
2.5649e+3, 2.757504e+2, -679050.0, -413161.97, 30943.969, 0.042702015, -0.10722339, -409608.22, -171974.63, 0.0, 9.996849, 10.0003605 
2.564858e+3, 2.8575048e+2, -663425.75, -338598.0, 20099.998, 0.037129607, -0.12917642, -337358.94, -197724.5, 0.0, 9.996213, 10.000506 
2.5648153e+3, 2.9575083e+2, -655757.4, -288900.6, 38065.28, -0.009270859, -0.13536339, -284992.53, -243358.66, 0.0, 9.995614, 10.000463 
2.5647742e+3, 3.0575332e+2, -590665.8, -79126.87, 41493.418, 0.02759783, 0.0081251925, -75782.99, -75782.99, 0.0, 9.995064, 10.001834 
2.5647324e+3, 3.157546e+2, -716790.3, -237103.63, -35605.67, -0.016210087, -0.034049343, -234475.13, -234475.13, 0.0, 9.9946165, 10.000965 
2.575532e+3, 1.2581551e+2, -942089.94, -1707005.9, -16491.023, 0.097540826, -0.21893115, -941734.56, 765253.75, 0.044354815, 10.0072, 9.996586 
2.5754893e+3, 1.3581236e+2, -968696.8, -1686398.9, -22292.102, 0.12457519, -0.18117505, -968005.06, 641014.8, 0.029954128, 10.006276, 9.996501 
2.5754464e+3, 1.458091e+2, -930890.56, -1561423.0, 10451.874, 0.12094334, -0.17369758, -930717.3, 580335.2, 0.016273228, 10.00553, 9.997044 
2.575404e+3, 1.5580587e+2, -918106.5, -1513988.1, 12676.125, 0.11297704, -0.18966155, -917836.94, 495247.8, 0.0063306526, 10.00493, 9.996986 
2.5753614e+3, 1.6580305e+2, -871316.9, -1363999.1, 21767.17, 0.110291764, -0.1961912, -870357.06, 444755.44, 0.001433354, 10.004226, 9.997682 
2.5753194e+3, 1.758006e+2, -891043.94, -1330718.1, 20136.658, 0.10792834, -0.19622192, -890123.6, 327012.03, 0.00012767671, 10.003446, 9.997613 
2.5752774e+3, 1.8579857e+2, -858866.0, -1203975.9, 27510.025, 0.10661313, -0.17883556, -856686.9, 262469.9, 0.0000015362658, 10.002733, 9.998154 
2.575235e+3, 1.9579692e+2, -858828.25, -1156374.8, 24956.963, 0.106796205, -0.14894058, -856749.44, 164425.77, 0.0, 10.002074, 9.998126 
2.5751927e+3, 2.057955e+2, -786747.9, -951742.3, 20040.428, 0.10025825, -0.14762984, -784348.6, 138840.52, 0.0, 10.001384, 9.999189 
2.5751507e+3, 2.1579437e+2, -800090.2, -918891.2, 24803.271, 0.08815494, -0.16786629, -795119.7, 30078.77, 0.0, 10.000669, 9.999086 
2.575108e+3, 2.257934e+2, -783553.56, -835132.44, 30648.498, 0.072920814, -0.17233306, -769287.7, -42079.9, 0.0, 10.000002, 9.9993105 
2.575066e+3, 2.3579267e+2, -781308.5, -789585.9, 24573.883, 0.057399064, -0.16616571, -760527.25, -131311.34, 0.0, 9.999372, 9.999254 
2.5750238e+3, 2.4579231e+2, -719187.9, -628639.1, 16064.177, 0.04093838, -0.15289353, -625873.6, -94652.73, 0.0, 9.998779, 9.99997 
2.5749815e+3, 2.5579235e+2, -708448.6, -580851.44, 17615.97, 0.01863875, -0.1348906, -578464.06, -145241.67, 0.0, 9.998215, 9.999898 
2.5749388e+3, 2.6579258e+2, -669066.6, -453217.13, 3584.4436, 0.02435247, -0.11765059, -453157.63, -117936.29, 0.0, 9.997563, 10.000416 
2.574897e+3, 2.7579305e+2, -681220.0, -418062.3, 4295.1465, 0.06307314, -0.10060552, -417992.22, -180775.06, 0.0, 9.996848, 10.000329 
2.5748542e+3, 2.857936e+2, -642818.56, -296307.2, -2447.1125, 0.047036797, -0.08873871, -296289.9, -157076.67, 0.0, 9.996213, 10.000798 
2.5748107e+3, 2.9579434e+2, -642542.6, -262722.22, 15657.205, -0.040637802, -0.085099906, -262077.88, -220869.33, 0.0, 9.995617, 10.000643 
2.5747696e+3, 3.057955e+2, -670440.25, -245875.56, 22762.799, 0.067075804, -0.022142068, -244658.64, -244658.64, 0.0, 9.995067, 10.000689 
2.574727e+3, 3.1579617e+2, -549972.94, 109076.055, -63924.973, -0.020441778, -0.02089727, 115219.25, 115219.25, 0.0, 9.994614, 10.0033455 
2.585539e+3, 1.2585883e+2, -987096.1, -1724294.8, 5079.5405, 0.11325813, -0.20447655, -987061.1, 719503.9, 0.040643092, 10.006828, 9.996646 
2.585495e+3, 1.3585573e+2, -973524.7, -1681930.0, 8960.834, 0.115817845, -0.16749494, -973411.4, 635184.9, 0.027291242, 10.006199, 9.996568 
2.5854516e+3, 1.4585252e+2, -926716.9, -1546495.0, 48212.277, 0.11172818, -0.162419, -922988.9, 587639.1, 0.014677875, 10.005499, 9.99716 
2.585409e+3, 1.5584938e+2, -933660.06, -1509459.6, 46968.902, 0.12014797, -0.18201558, -929853.9, 482805.0, 0.005603251, 10.004769, 9.997093 
2.5853658e+3, 1.6584659e+2, -897767.1, -1380584.5, 50120.566, 0.118194506, -0.18709834, -892619.06, 422067.28, 0.0012237895, 10.004062, 9.997645 
2.585323e+3, 1.7584418e+2, -903598.25, -1339122.5, 44555.18, 0.10530581, -0.18125574, -899086.9, 317623.22, 0.000102820115, 10.003372, 9.99759 
2.5852796e+3, 1.8584214e+2, -861637.8, -1194046.8, 56252.516, 0.1025787, -0.16567999, -852376.44, 266354.5, 0.0000011114956, 10.002668, 9.998251 
2.585237e+3, 1.958405e+2, -869598.9, -1150976.0, 61389.62, 0.10825664, -0.14425315, -856788.4, 163960.13, 0.0, 10.001958, 9.998217 
2.585194e+3, 2.0583908e+2, -799190.7, -963724.6, 53841.203, 0.0971442, -0.14430873, -783138.1, 139624.28, 0.0, 10.0013275, 9.999133 
2.5851512e+3, 2.1583794e+2, -791066.25, -919749.75, 45418.957, 0.07313112, -0.1601777, -776650.56, 48121.836, 0.0, 10.000756, 9.999038 
2.5851083e+3, 2.2583693e+2, -765061.56, -827410.75, 51610.176, 0.05945528, -0.16494516, -735941.3, -9159.13, 0.0, 10.000137, 9.999296 
2.5850654e+3, 2.3583615e+2, -766501.56, -784024.5, 56170.855, 0.055273704, -0.16137788, -718412.94, -89622.234, 0.0, 9.999483, 9.999237 
2.5850224e+3, 2.4583583e+2, -723452.8, -637199.1, 47750.69, 0.04257173, -0.13980795, -615982.75, -85187.09, 0.0, 9.998781, 9.999909 
2.5849795e+3, 2.5583595e+2, -737061.94, -600199.2, 42451.48, 0.019096594, -0.107912034, -588101.2, -155304.27, 0.0, 9.998046, 9.9998455 
2.5849366e+3, 2.658361e+2, -684305.1, -461553.44, 28496.617, 0.023100136, -0.09435731, -457965.66, -123169.03, 0.0, 9.997466, 10.000403 
2.5848937e+3, 2.7583644e+2, -661573.44, -409313.66, 31707.732, 0.059119966, -0.09028497, -405389.2, -168595.53, 0.0, 9.99699, 10.000319 
2.5848505e+3, 2.85837e+2, -611734.9, -280026.75, 13245.15, 0.04227061, -0.075217485, -279498.72, -140709.4, 0.0, 9.996423, 10.000808 
2.584806e+3, 2.9583782e+2, -618072.7, -252279.36, 8905.589, -0.043058075, -0.064511456, -252062.67, -211279.0, 0.0, 9.995792, 10.000629 
2.5847647e+3, 3.0583873e+2, -685165.1, -278130.94, 46770.027, 0.07617102, -0.012224505, -272826.0, -272826.0, 0.0, 9.995076, 10.000462 
2.584721e+3, 3.158386e+2, -562512.6, 172905.6, 10799.407, -0.030269995, -0.07396531, 173064.16, 173064.16, 0.0, 9.994233, 10.003964 
2.595546e+3, 1.2590331e+2, -976636.7, -1700392.1, -16833.016, 0.13621126, -0.1415135, -976245.4, 729885.9, 0.037021812, 10.006797, 9.996827 
2.5955012e+3, 1.3589948e+2, -961585.25, -1657266.1, -14529.311, 0.09468863, -0.1945158, -961281.94, 646886.7, 0.024698295, 10.006185, 9.996745 
2.5954568e+3, 1.4589638e+2, -922156.94, -1538043.0, 21012.895, 0.08559164, -0.1920495, -921440.8, 588758.2, 0.013135041, 10.005492, 9.997223 
2.5954136e+3, 1.558939e+2, -930962.7, -1502734.8, 19843.643, 0.117492504, -0.15053321, -930274.8, 481948.34, 0.004911523, 10.004759, 9.997146 
2.5953698e+3, 1.6589122e+2, -905101.8, -1394875.0, 24483.86, 0.12034294, -0.14238171, -903880.94, 410369.2, 0.0010318022, 10.004054, 9.997552 
2.595326e+3, 1.7588851e+2, -908326.3, -1349299.6, 19046.45, 0.09860432, -0.15804467, -907505.2, 308772.56, 0.000081372455, 10.003371, 9.997522 
2.5952822e+3, 1.8588634e+2, -847597.56, -1166232.0, 29892.98, 0.09079973, -0.16273454, -844817.4, 273481.9, 0.0000007755459, 10.002671, 9.998443 
2.5952387e+3, 1.9588469e+2, -857545.56, -1127712.0, 35033.637, 0.09416331, -0.16049312, -853076.56, 167238.72, 0.0, 10.001963, 9.998376 
2.5951952e+3, 2.0588335e+2, -814665.9, -997469.25, 32426.107, 0.083088376, -0.14769474, -809084.44, 113244.08, 0.0, 10.001331, 9.9989 
2.5951517e+3, 2.1588233e+2, -804601.1, -948870.8, 24153.834, 0.06090266, -0.12800051, -800664.7, 23673.969, 0.0, 10.000758, 9.998838 
2.595108e+3, 2.2588119e+2, -756771.75, -811102.4, 27370.787, 0.04871046, -0.1427382, -745373.94, -19024.115, 0.0, 10.000138, 9.999409 
2.5950646e+3, 2.3588009e+2, -759557.56, -770799.4, 31044.752, 0.045162786, -0.18183713, -733628.94, -105268.39, 0.0, 9.999486, 9.999328 
2.595021e+3, 2.4587986e+2, -734031.75, -660335.2, 19706.285, 0.04489623, -0.148325, -655396.7, -125031.74, 0.0, 9.998784, 9.999751 
2.5949776e+3, 2.5588033e+2, -746909.8, -621495.75, 15324.797, 0.04313712, -0.0636148, -619650.3, -187286.7, 0.0, 9.998047, 9.9997 
2.594934e+3, 2.658805e+2, -683141.44, -459941.84, 10379.935, 0.033695016, -0.04385638, -459460.2, -125096.8, 0.0, 9.997467, 10.000416 
2.5948903e+3, 2.758805e+2, -661116.9, -409717.66, 12938.308, 0.02926935, -0.07503756, -409053.53, -172690.36, 0.0, 9.996993, 10.000316 
2.5948465e+3, 2.8588063e+2, -631936.0, -323294.0, -11112.773, 0.022560343, -0.09029517, -322894.4, -184531.34, 0.0, 9.996426, 10.00051 
2.5948024e+3, 2.9588112e+2, -632760.7, -283537.3, -15763.312, -0.014748675, -0.077889025, -282827.25, -242467.14, 0.0, 9.995792, 10.000417 
2.5947595e+3, 3.0588302e+2, -632960.56, -169880.3, 16416.625, 0.050215214, 0.041649334, -169299.05, -169299.05, 0.0, 9.995073, 10.001207 
2.5947154e+3, 3.1588292e+2, -672502.94, -54730.63, -27670.107, -0.029118564, -0.08075443, -53493.758, -53493.758, 0.0, 9.994225, 10.002407 
2.6055524e+3, 1.2594806e+2, -1029167.6, -1716094.6, 21201.49, 0.13975658, -0.13262661, -1028513.9, 677180.3, 0.033507027, 10.006353, 9.996931 
2.605507e+3, 1.3594449e+2, -991716.94, -1660735.5, 17897.475, 0.092244044, -0.16969489, -991238.5, 616490.7, 0.022192372, 10.005911, 9.996852 
2.605462e+3, 1.459414e+2, -954258.94, -1548267.1, 42340.58, 0.08162368, -0.17150432, -951256.06, 558502.94, 0.011657255, 10.005241, 9.997272 
2.605418e+3, 1.559388e+2, -976036.75, -1519095.1, 40079.91, 0.11748997, -0.14804834, -973094.6, 438689.44, 0.0042618117, 10.004424, 9.997193 
2.6053736e+3, 1.6593616e+2, -944266.25, -1410101.3, 54592.863, 0.11956722, -0.13885516, -937953.9, 375856.75, 0.0008589196, 10.003772, 9.997582 
2.6053292e+3, 1.759336e+2, -925669.06, -1353275.6, 56843.434, 0.09355349, -0.14124216, -918241.6, 297595.53, 0.000063243526, 10.003237, 9.997558 
2.6052848e+3, 1.8593146e+2, -851104.5, -1163092.1, 62468.727, 0.08605804, -0.14672612, -839061.4, 278796.84, 0.0000005058523, 10.00263, 9.998482 
2.6052406e+3, 1.9592975e+2, -853182.44, -1121463.3, 57149.79, 0.092690125, -0.15390223, -841515.6, 178358.64, 0.0, 10.001978, 9.99841 
2.6051965e+3, 2.0592833e+2, -816298.75, -1004679.06, 59813.055, 0.07719471, -0.1458732, -798912.1, 122975.99, 0.0, 10.001351, 9.99884 
2.605152e+3, 2.1592723e+2, -810781.56, -957813.4, 62603.14, 0.045609985, -0.1278833, -787737.94, 36161.316, 0.0, 10.000745, 9.998781 
2.605108e+3, 2.2592612e+2, -761050.1, -816110.0, 62859.188, 0.037919987, -0.13548598, -719956.6, 5953.8647, 0.0, 10.000125, 9.999379 
2.6050642e+3, 2.3592511e+2, -759830.75, -773421.75, 56314.297, 0.048898865, -0.16211848, -709903.44, -81982.81, 0.0, 9.999498, 9.999302 
2.60502e+3, 2.4592479e+2, -720000.6, -658185.3, 44850.08, 0.050217625, -0.13280459, -634624.5, -104698.836, 0.0, 9.998903, 9.999706 
2.6049757e+3, 2.559251e+2, -709738.7, -608449.94, 48719.996, 0.04055278, -0.062381182, -588819.9, -156894.1, 0.0, 9.998326, 9.999653 
2.6049313e+3, 2.659252e+2, -662223.94, -460068.8, 44271.36, 0.027431574, -0.03917185, -450798.63, -116872.55, 0.0, 9.997658, 10.000321 
2.6048872e+3, 2.7592522e+2, -676852.3, -426389.72, 38441.05, 0.02334151, -0.056300115, -420622.56, -184696.64, 0.0, 9.996926, 10.000233 
2.6048428e+3, 2.859252e+2, -642395.44, -328382.0, 25080.467, 0.02286324, -0.082616724, -326391.44, -188464.38, 0.0, 9.996358, 10.000506 
2.604798e+3, 2.9592544e+2, -618305.5, -275999.97, 42024.574, -0.007204997, -0.09502997, -270916.16, -230990.2, 0.0, 9.995894, 10.000417 
2.6047543e+3, 3.059277e+2, -616381.56, -162735.36, 38698.71, 0.02990431, 0.05915089, -159457.81, -159457.81, 0.0, 9.995194, 10.001197 
2.60471e+3, 3.159277e+2, -668324.9, -80069.44, -40999.203, -0.0035251596, -0.049602088, -77225.695, -77225.695, 0.0, 9.994374, 10.00216 
2.6155585e+3, 1.2599312e+2, -1025590.3, -1710329.8, 4387.3057, 0.12818334, -0.16939528, -1025562.2, 679691.25, 0.030107046, 10.006339, 9.996979 
2.615513e+3, 1.3599068e+2, -991240.0, -1656529.3, -49.732555, 0.10363601, -0.098568186, -991240.0, 616038.5, 0.019785278, 10.005881, 9.996896 
2.6154673e+3, 1.4598757e+2, -954652.1, -1547284.3, 11937.932, 0.09487265, -0.107201196, -954411.75, 554896.94, 0.010254288, 10.005223, 9.997289 
2.6154223e+3, 1.559841e+2, -973569.6, -1515195.1, 10709.175, 0.11926566, -0.17033538, -973357.94, 437983.25, 0.003659055, 10.004425, 9.997221 
2.6153773e+3, 1.6598143e+2, -934647.2, -1391649.4, 34650.566, 0.11618309, -0.17134482, -932034.9, 381332.75, 0.00070598547, 10.003776, 9.997708 
2.6153323e+3, 1.7597944e+2, -917944.56, -1337425.4, 36188.29, 0.08972937, -0.13116355, -914845.56, 300543.22, 0.00004826116, 10.003235, 9.997669 
2.6152873e+3, 1.8597746e+2, -858510.5, -1178550.5, 37935.066, 0.087561294, -0.11923601, -854075.4, 263332.97, 0.0000003029616, 10.002628, 9.998379 
2.6152426e+3, 1.9597565e+2, -858944.5, -1133992.8, 33035.594, 0.102923326, -0.12611932, -855032.3, 164393.33, 0.0, 10.001978, 9.998325 
2.615198e+3, 2.0597403e+2, -810256.44, -993307.1, 37214.05, 0.07856582, -0.13931707, -802980.06, 118461.05, 0.0, 10.001354, 9.998918 
2.6151526e+3, 2.1597265e+2, -806064.1, -949460.06, 39719.62, 0.026244752, -0.15749517, -795797.1, 27657.139, 0.0, 10.000749, 9.998838 
2.615108e+3, 2.259717e+2, -772348.25, -840968.3, 39272.676, 0.027051723, -0.14170988, -754509.25, -29044.926, 0.0, 10.000129, 9.999208 
2.6150638e+3, 2.3597117e+2, -769434.5, -794675.8, 32813.21, 0.06683498, -0.10374607, -746898.56, -119427.47, 0.0, 9.999501, 9.999156 
2.6150188e+3, 2.4597059e+2, -715642.4, -650223.2, 23068.656, 0.058142222, -0.09457737, -642906.75, -113428.84, 0.0, 9.998905, 9.999762 
2.6149735e+3, 2.5597015e+2, -706558.4, -603050.25, 26270.412, 0.010018715, -0.10480602, -596764.5, -165280.92, 0.0, 9.998329, 9.99969 
2.6149288e+3, 2.6597014e+2, -676814.0, -491325.34, 16269.067, 0.0041994145, -0.08099595, -489909.2, -156424.3, 0.0, 9.997659, 10.000108 
2.6148844e+3, 2.759706e+2, -689028.9, -451810.9, 11488.514, 0.042642597, -0.034162663, -451255.8, -215773.77, 0.0, 9.996924, 10.00006 
2.6148394e+3, 2.8597078e+2, -621982.1, -286298.9, 7717.242, 0.043642595, -0.051128887, -286121.6, -148640.33, 0.0, 9.996356, 10.000798 
2.6147938e+3, 2.9597083e+2, -603413.56, -246482.33, 23723.998, -0.022642434, -0.11455494, -244912.38, -205431.55, 0.0, 9.995897, 10.00062 
2.6147494e+3, 3.0597267e+2, -674764.56, -284947.63, 5316.7983, 0.01664841, 0.03819246, -284875.13, -284875.13, 0.0, 9.995195, 10.000359 
2.6147044e+3, 3.159721e+2, -575487.75, 112162.914, -32375.596, 0.032001868, -0.05543373, 113683.84, 113683.84, 0.0, 9.994374, 10.003481 
2.6255646e+3, 1.2603916e+2, -1049733.8, -1708945.8, 23041.164, 0.12521788, -0.15956804, -1048929.4, 655874.44, 0.026830157, 10.006091, 9.997107 
2.6255184e+3, 1.3603702e+2, -1050457.4, -1671962.5, 23085.605, 0.10649734, -0.071750045, -1049601.1, 557224.94, 0.017485568, 10.005398, 9.997022 
2.6254722e+3, 1.4603396e+2, -1005214.0, -1561694.0, 38114.79, 0.09518478, -0.08525491, -1002615.56, 506239.9, 0.008932464, 10.004827, 9.997379 
2.6254267e+3, 1.5603039e+2, -980037.5, -1508196.5, 41362.484, 0.11284764, -0.16788985, -976817.8, 434070.9, 0.0031058257, 10.004338, 9.997309 
2.6253808e+3, 1.6602775e+2, -939407.3, -1388201.3, 64474.445, 0.110757895, -0.17018595, -930328.44, 382586.03, 0.00057272654, 10.003722, 9.997756 
2.6253352e+3, 1.7602591e+2, -945620.75, -1345392.9, 60329.207, 0.09025428, -0.11836849, -936714.94, 278219.06, 0.000036096004, 10.003026, 9.997713 
2.62529e+3, 1.8602395e+2, -891352.2, -1198498.3, 62792.035, 0.08719853, -0.10480705, -879011.0, 237942.53, 0.00000016598092, 10.002424, 9.998338 
2.6252443e+3, 1.9602203e+2, -874459.75, -1145014.8, 61450.633, 0.097334646, -0.11769482, -861156.7, 157815.38, 0.0, 10.00189, 9.99829 
2.625199e+3, 2.0602037e+2, -809381.9, -993073.0, 64667.18, 0.073111586, -0.13324331, -788900.0, 132087.94, 0.0, 10.001365, 9.998913 
2.625153e+3, 2.1601897e+2, -792633.6, -943098.8, 60753.395, 0.024850782, -0.15095389, -771166.06, 51834.883, 0.0, 10.000845, 9.998834 
2.6251078e+3, 2.2601804e+2, -760475.4, -840810.8, 59756.156, 0.025272673, -0.13093477, -728641.4, -3630.398, 0.0, 10.000237, 9.999155 
2.625063e+3, 2.3601753e+2, -762842.9, -796115.2, 61879.88, 0.061385952, -0.08512736, -715401.9, -88384.01, 0.0, 9.99957, 9.999111 
2.6250175e+3, 2.4601685e+2, -708705.8, -646219.06, 55359.465, 0.05270003, -0.085147224, -613895.0, -84869.555, 0.0, 9.998954, 9.999764 
2.624972e+3, 2.5601617e+2, -700550.25, -600586.8, 54089.273, 0.007309908, -0.117952876, -576921.94, -145889.42, 0.0, 9.998375, 9.999684 
2.6249263e+3, 2.6601616e+2, -665770.75, -499054.94, 43096.363, 0.0020849747, -0.09161466, -488573.44, -155539.25, 0.0, 9.997793, 9.999989 
2.624881e+3, 2.7601665e+2, -656905.3, -447835.66, 45614.43, 0.040637568, -0.023554413, -438316.97, -203286.03, 0.0, 9.997198, 9.999954 
2.6248357e+3, 2.8601676e+2, -586675.1, -270788.4, 35668.133, 0.03977448, -0.042251542, -266811.03, -129780.22, 0.0, 9.996608, 10.000782 
2.6247892e+3, 2.9601657e+2, -587919.0, -242079.08, 26805.986, -0.03128918, -0.12587413, -240013.67, -200981.58, 0.0, 9.996018, 10.000591 
2.6247448e+3, 3.0601838e+2, -652452.3, -289690.72, 22022.68, 0.035476837, 0.031007025, -288358.66, -288358.66, 0.0, 9.995418, 10.000218 
2.624699e+3, 3.160173e+2, -508463.2, 154563.83, 31506.719, 0.030218882, -0.09884961, 156057.66, 156057.66, 0.0, 9.994796, 10.003567 
2.6355708e+3, 1.2608616e+2, -1036915.2, -1684191.8, -1353.0923, 0.12771003, -0.1097082, -1036912.3, 667433.25, 0.023693154, 10.006079, 9.997286 
2.6355237e+3, 1.3608359e+2, -1037930.94, -1647118.3, -1167.1447, 0.10092594, -0.08340253, -1037928.7, 568442.44, 0.015304258, 10.005391, 9.997196 
2.635477e+3, 1.4608064e+2, -995004.5, -1541623.1, 20002.645, 0.08431761, -0.09975973, -994273.5, 514125.53, 0.007697619, 10.004824, 9.99752 
2.6354307e+3, 1.560776e+2, -971869.8, -1490426.3, 21989.986, 0.099487476, -0.14430206, -970938.94, 439488.22, 0.0026035414, 10.004331, 9.997437 
2.6353842e+3, 1.660751e+2, -942372.9, -1393571.6, 38212.914, 0.10346778, -0.13963154, -939159.44, 373292.38, 0.00045817008, 10.0037155, 9.997724 
2.635338e+3, 1.7607306e+2, -947341.6, -1349523.3, 34995.773, 0.09424888, -0.10220856, -944319.2, 270153.63, 0.000026377018, 10.003025, 9.997686 
2.635292e+3, 1.8607095e+2, -890887.06, -1198915.0, 42953.895, 0.08463641, -0.101666085, -885009.4, 231484.34, 0.00000008213487, 10.002428, 9.998335 
2.6352462e+3, 1.9606891e+2, -874450.4, -1146224.5, 41469.293, 0.07647679, -0.12682757, -868263.5, 150250.06, 0.0, 10.001893, 9.9982815 
2.6352e+3, 2.0606735e+2, -815116.4, -1005871.1, 45247.293, 0.06158217, -0.12736936, -804927.8, 115600.9, 0.0, 10.001366, 9.998826 
2.635154e+3, 2.1606621e+2, -797282.94, -953465.75, 40986.355, 0.04123565, -0.11155695, -787180.5, 35359.13, 0.0, 10.000845, 9.998764 
2.6351082e+3, 2.2606513e+2, -757137.2, -834411.1, 34949.953, 0.031780686, -0.105105996, -743675.06, -19124.316, 0.0, 10.000237, 9.999201 
2.6350623e+3, 2.3606421e+2, -759786.56, -790539.9, 36913.94, 0.031765744, -0.10485925, -735174.7, -108613.76, 0.0, 9.99957, 9.99915 
2.6350164e+3, 2.4606353e+2, -712382.06, -654962.6, 33369.184, 0.03431618, -0.10320805, -639652.5, -111084.23, 0.0, 9.998956, 9.999704 
2.6349705e+3, 2.5606313e+2, -704060.7, -609131.1, 32179.043, 0.033169687, -0.10104084, -599251.4, -168678.81, 0.0, 9.998378, 9.999625 
2.634924e+3, 2.660631e+2, -667622.0, -503908.34, 20593.443, 0.021004686, -0.07068421, -501357.66, -168783.69, 0.0, 9.997795, 9.999955 
2.634878e+3, 2.7606338e+2, -660021.06, -455880.25, 23198.635, 0.015428451, -0.024945041, -453277.16, -218704.55, 0.0, 9.997202, 9.999898 
2.6348317e+3, 2.860631e+2, -610455.5, -321623.88, 13011.242, 0.009873555, -0.056863423, -321038.94, -184462.95, 0.0, 9.996612, 10.000432 
2.6347855e+3, 2.9606268e+2, -606825.75, -281705.13, 3410.0532, -0.032116678, -0.12898225, -281669.34, -243089.23, 0.0, 9.996017, 10.00032 
2.6347405e+3, 3.0606478e+2, -609675.0, -202403.42, -174.48146, 0.08893417, 0.03619519, -202403.34, -202403.34, 0.0, 9.995421, 10.000817 
2.634693e+3, 3.1606424e+2, -610149.8, -60345.137, -36905.715, -0.0034410688, -0.0895955, -57878.9, -57878.9, 0.0, 9.994807, 10.002088 
2.6455766e+3, 1.261337e+2, -1064493.4, -1688134.0, 36781.855, 0.12851681, -0.09442644, -1062331.5, 641549.44, 0.020722663, 10.005827, 9.997378 
2.645529e+3, 1.361311e+2, -1047581.7, -1641738.5, 32946.84, 0.096366085, -0.078683004, -1045760.4, 560146.06, 0.01325757, 10.005272, 9.99729 
2.6454815e+3, 1.4612825e+2, -1015339.44, -1548079.3, 49572.746, 0.07678226, -0.09023088, -1010765.9, 497167.66, 0.0065573696, 10.004667, 9.997549 
2.6454344e+3, 1.5612538e+2, -1012052.7, -1505381.1, 43230.87, 0.09103151, -0.11962815, -1008293.0, 401667.5, 0.0021537337, 10.004037, 9.997474 
2.6453876e+3, 1.6612288e+2, -972336.8, -1398828.0, 59189.137, 0.09732517, -0.11975185, -964274.8, 347709.9, 0.00036127973, 10.003473, 9.997803 
2.6453412e+3, 1.7612074e+2, -952946.2, -1344611.9, 63070.273, 0.09302984, -0.101034895, -943040.44, 270965.7, 0.000018812569, 10.002957, 9.997751 
2.6452944e+3, 1.8611862e+2, -897731.1, -1208309.0, 73099.6, 0.08296095, -0.100713424, -881386.2, 234640.98, 0.000000036221024, 10.002411, 9.998277 
2.645248e+3, 1.9611666e+2, -884583.0, -1155520.4, 67499.266, 0.07056747, -0.11331381, -868698.1, 149348.72, 0.0, 10.001847, 9.998238 
2.645201e+3, 2.0611508e+2, -827830.75, -1010655.06, 73621.03, 0.05821794, -0.112073, -801870.7, 118191.39, 0.0, 10.001276, 9.998835 
2.645155e+3, 2.161139e+2, -817631.75, -961819.4, 75258.5, 0.04513387, -0.1011106, -785507.7, 36565.613, 0.0, 10.000703, 9.998774 
2.645108e+3, 2.261128e+2, -771096.5, -839674.94, 67725.125, 0.035095945, -0.09731603, -729474.94, -5390.5366, 0.0, 10.000138, 9.99921 
2.645062e+3, 2.3611185e+2, -758491.1, -789721.0, 67169.33, 0.02925578, -0.09965572, -705145.6, -79051.164, 0.0, 9.999581, 9.999149 
2.645015e+3, 2.461111e+2, -708574.9, -666390.56, 61345.797, 0.03285627, -0.09779645, -622612.2, -94509.73, 0.0, 9.999042, 9.999583 
2.6449686e+3, 2.5611064e+2, -693027.7, -614762.6, 55366.027, 0.03830219, -0.091766596, -586095.8, -155987.94, 0.0, 9.998504, 9.999524 
2.6449218e+3, 2.6611048e+2, -642894.94, -490351.25, 43582.28, 0.025042048, -0.066236325, -478777.72, -146667.98, 0.0, 9.997961, 9.999968 
2.644875e+3, 2.7611065e+2, -629369.75, -441611.53, 48851.77, 0.011348906, -0.03350113, -429661.63, -195552.92, 0.0, 9.9974165, 9.999892 
2.6448283e+3, 2.8611025e+2, -603026.4, -339558.47, 42994.605, 0.002298866, -0.06633484, -332719.8, -196606.53, 0.0, 9.996758, 10.000237 
2.6447812e+3, 2.9610977e+2, -616497.94, -300542.38, 45929.043, -0.034797657, -0.124864675, -294001.3, -255882.72, 0.0, 9.996016, 10.000191 
2.644736e+3, 3.0611184e+2, -547702.7, -123303.664, 49679.0, 0.08453613, 0.022022013, -117565.945, -117565.945, 0.0, 9.995638, 10.001254 
2.644688e+3, 3.1611204e+2, -573604.0, -116173.44, -38078.457, -0.00964396, -0.06953082, -113025.3, -113025.3, 0.0, 9.995377, 10.001429 
2.655582e+3, 1.2618175e+2, -1061972.6, -1684004.0, 15545.816, 0.12735364, -0.10814776, -1061584.4, 641826.0, 0.017947238, 10.005815, 9.997414 
2.6555339e+3, 1.3617952e+2, -1046489.7, -1639014.9, 11702.346, 0.092166364, -0.05846158, -1046258.7, 559173.6, 0.011363193, 10.005259, 9.997316 
2.655486e+3, 1.4617676e+2, -1021674.0, -1560999.5, 25843.436, 0.071473, -0.059365593, -1020438.44, 487020.84, 0.005519854, 10.004658, 9.997466 
2.6554385e+3, 1.5617375e+2, -1016017.0, -1513644.0, 20180.096, 0.08584658, -0.09348043, -1015200.0, 394288.5, 0.0017577452, 10.004032, 9.99742 
2.655391e+3, 1.6617116e+2, -960947.7, -1375669.8, 39948.902, 0.091637634, -0.109262854, -957134.56, 354378.66, 0.00028103677, 10.003472, 9.997964 
2.6553437e+3, 1.7616895e+2, -943645.5, -1325866.1, 43392.688, 0.08683729, -0.113684684, -938781.1, 274753.0, 0.000013158939, 10.002957, 9.997881 
2.6552966e+3, 1.8616694e+2, -905649.5, -1225359.1, 51955.45, 0.08218592, -0.101795524, -897418.25, 218135.78, 0.000000014940222, 10.002411, 9.99816 
2.6552495e+3, 1.9616519e+2, -890365.25, -1168247.8, 46623.57, 0.0787356, -0.07985315, -882751.25, 134820.89, 0.0, 10.001847, 9.998152 
2.6552024e+3, 2.0616353e+2, -821718.75, -998798.3, 52433.215, 0.06199954, -0.088654876, -807357.94, 112230.3, 0.0, 10.001278, 9.998917 
2.6551554e+3, 2.1616203e+2, -812424.56, -951685.75, 53917.23, 0.035979185, -0.11692647, -793989.94, 27612.078, 0.0, 10.000703, 9.998844 
2.6551083e+3, 2.2616103e+2, -773180.1, -845139.6, 46863.926, 0.03557834, -0.105701774, -750077.1, -26465.178, 0.0, 10.000141, 9.999173 
2.6550612e+3, 2.3616041e+2, -761345.3, -797296.8, 46243.594, 0.053635858, -0.070430055, -729706.56, -104087.945, 0.0, 9.999586, 9.999096 
2.655014e+3, 2.4615952e+2, -721265.56, -693896.9, 40951.207, 0.0475225, -0.06992464, -664404.1, -136775.88, 0.0, 9.999044, 9.999394 
2.654967e+3, 2.561586e+2, -703445.6, -637356.25, 34784.47, 0.021497265, -0.09064239, -622422.7, -192784.14, 0.0, 9.998506, 9.99937 
2.6549196e+3, 2.6615828e+2, -639106.44, -483590.66, 22816.229, 0.014175644, -0.07886718, -480312.34, -148670.72, 0.0, 9.997963, 10.000014 
2.6548725e+3, 2.7615845e+2, -626180.9, -436093.38, 27586.598, 0.029794054, -0.04977395, -432170.78, -198531.44, 0.0, 9.997419, 9.99993 
2.6548252e+3, 2.8615817e+2, -605813.94, -346128.72, 14855.143, 0.017998809, -0.07026942, -345281.7, -209639.08, 0.0, 9.996758, 10.000194 
2.6547772e+3, 2.9615784e+2, -616279.1, -300723.5, 20821.518, -0.04109435, -0.11144015, -299355.56, -261708.42, 0.0, 9.996016, 10.000191 
2.6547307e+3, 3.061596e+2, -529272.7, -87192.69, 44485.902, 0.01542457, -0.012878891, -82760.56, -82760.56, 0.0, 9.995645, 10.0015 
2.654684e+3, 3.161603e+2, -547883.6, -67376.91, -77454.57, 0.028270341, -0.075465396, -55200.305, -55200.305, 0.0, 9.995392, 10.00176 
2.6655877e+3, 1.262304e+2, -1097614.9, -1694434.4, 25437.963, 0.11994038, -0.101721995, -1096532.6, 606401.6, 0.015385784, 10.005523, 9.99748 
2.6655388e+3, 1.3622817e+2, -1089966.3, -1653463.4, 22554.746, 0.089024425, -0.05637204, -1089065.0, 515891.03, 0.009632599, 10.004921, 9.997378 
2.6654902e+3, 1.4622553e+2, -1060098.1, -1573864.5, 42719.53, 0.070414506, -0.051769093, -1056570.3, 450411.97, 0.004589717, 10.004367, 9.997517 
2.6654425e+3, 1.5622269e+2, -1038712.5, -1517771.5, 45979.316, 0.08548753, -0.074468814, -1034339.44, 374670.94, 0.0014152577, 10.003849, 9.9974785 
2.6653942e+3, 1.6622016e+2, -976263.94, -1373490.5, 67611.09, 0.08813216, -0.09129127, -965071.4, 345963.06, 0.00021596697, 10.00333, 9.998045 
2.6653466e+3, 1.7621793e+2, -959256.56, -1323823.3, 65253.996, 0.077964775, -0.1044273, -947928.7, 265126.2, 0.000009125485, 10.002813, 9.997963 
2.665299e+3, 1.8621592e+2, -921967.6, -1228569.6, 76829.336, 0.07332128, -0.098380886, -903792.8, 211281.69, 0.000000005798, 10.002282, 9.9981985 
2.6652512e+3, 1.9621417e+2, -902912.5, -1170701.5, 81540.96, 0.07341781, -0.079969734, -880037.56, 137055.02, 0.0, 10.001749, 9.998181 
2.6652035e+3, 2.062125e+2, -830129.94, -1008022.6, 85794.7, 0.06299362, -0.08591231, -795495.6, 123613.03, 0.0, 10.0012455, 9.998867 
2.665156e+3, 2.1621102e+2, -807149.75, -953238.7, 77216.664, 0.045302633, -0.108193174, -773902.6, 47219.95, 0.0, 10.000761, 9.998803 
2.6651084e+3, 2.2620992e+2, -759585.6, -839501.2, 67102.42, 0.0430388, -0.101607725, -721445.0, 1688.0026, 0.0, 10.000241, 9.999162 
2.6650608e+3, 2.362092e+2, -746179.3, -791358.0, 68813.3, 0.05302189, -0.076551, -696342.5, -71202.13, 0.0, 9.9997, 9.999081 
2.665013e+3, 2.462083e+2, -707606.0, -696682.25, 69467.83, 0.047461737, -0.07261906, -632461.94, -105311.67, 0.0, 9.999182, 9.999308 
2.6649657e+3, 2.5620738e+2, -683746.4, -636326.7, 70167.66, 0.026853861, -0.08210776, -585971.3, -156810.58, 0.0, 9.99868, 9.999291 
2.6649177e+3, 2.6620692e+2, -618531.7, -476935.7, 55067.977, 0.019138968, -0.07928826, -458040.66, -126875.66, 0.0, 9.998121, 9.999982 
2.6648697e+3, 2.7620685e+2, -614263.5, -432876.13, 53237.14, 0.032814864, -0.071719654, -418405.5, -185240.89, 0.0, 9.997515, 9.999904 
2.6648217e+3, 2.8620666e+2, -581698.9, -334887.78, 36361.18, 0.016183957, -0.0793464, -329642.38, -194475.84, 0.0, 9.996928, 10.000187 
2.664773e+3, 2.9620662e+2, -567178.8, -274783.3, 45961.953, -0.053071503, -0.08743858, -267728.72, -230560.83, 0.0, 9.9963455, 10.000209 
2.6647264e+3, 3.0620757e+2, -525182.6, -81395.0, 68192.016, 0.021583721, -0.072060265, -71153.04, -71153.04, 0.0, 9.995659, 10.001533 
2.664679e+3, 3.1620887e+2, -580664.4, -62771.605, -63916.344, 0.04270069, -0.08174821, -54999.918, -54999.918, 0.0, 9.995083, 10.001937 
2.675593e+3, 1.2627965e+2, -1093527.9, -1685494.9, 3397.02, 0.10590804, -0.078490034, -1093508.4, 608944.2, 0.013042696, 10.0055065, 9.997551 
2.6755437e+3, 1.3627714e+2, -1083718.9, -1642523.5, 663.75995, 0.08624299, -0.069387645, -1083718.1, 520758.94, 0.00806746, 10.00492, 9.997455 
2.6754946e+3, 1.4627461e+2, -1048573.8, -1551225.6, 23300.361, 0.07269854, -0.063631065, -1047496.0, 459005.94, 0.0037660836, 10.004367, 9.997674 
2.675446e+3, 1.5627217e+2, -1029447.7, -1497678.5, 26586.275, 0.088958226, -0.06183539, -1027942.94, 380583.25, 0.00112361, 10.003841, 9.997622 
2.6753974e+3, 1.6626982e+2, -976785.44, -1373622.3, 48334.496, 0.086303435, -0.06689689, -970983.2, 339565.4, 0.00016407586, 10.003323, 9.998049 
2.675349e+3, 1.7626764e+2, -957584.25, -1320074.4, 45939.28, 0.06657446, -0.07589222, -951852.9, 260715.8, 0.0000063491566, 10.00281, 9.997992 
2.6753008e+3, 1.8626553e+2, -910700.06, -1205461.1, 56897.94, 0.0569406, -0.09111122, -900098.3, 214490.48, 0.0000000017280947, 10.002281, 9.99836 
2.6752526e+3, 1.9626357e+2, -894623.3, -1153798.4, 61699.23, 0.055009745, -0.109967135, -880684.8, 135923.19, 0.0, 10.001748, 9.998299 
2.675205e+3, 2.06262e+2, -842743.0, -1034985.75, 67549.375, 0.061582517, -0.101393536, -821381.5, 97241.88, 0.0, 10.001246, 9.998682 
2.675157e+3, 2.162608e+2, -817460.1, -975852.8, 58778.99, 0.07232698, -0.077015296, -798030.8, 22604.635, 0.0, 10.000763, 9.998649 
2.6751086e+3, 2.2625948e+2, -758459.44, -838064.1, 46838.563, 0.05651101, -0.08685902, -736795.7, -14147.796, 0.0, 10.000243, 9.999172 
2.6750603e+3, 2.3625821e+2, -744991.06, -789591.1, 48558.594, 0.027110359, -0.11748761, -713856.75, -89197.12, 0.0, 9.9997, 9.999094 
2.6750124e+3, 2.462574e+2, -707144.1, -696853.3, 50533.914, 0.033345085, -0.1049163, -651203.5, -124535.04, 0.0, 9.999184, 9.999307 
2.6749644e+3, 2.5625697e+2, -683875.0, -638174.56, 50815.09, 0.054650497, -0.06508428, -605308.5, -176634.06, 0.0, 9.998684, 9.999278 
2.674916e+3, 2.662564e+2, -626660.44, -494811.66, 32129.025, 0.039473977, -0.06709756, -487399.16, -156719.23, 0.0, 9.998123, 9.99986 
2.6748672e+3, 2.762558e+2, -621271.5, -448325.72, 30431.658, 0.018434994, -0.099287264, -443127.2, -210442.69, 0.0, 9.997517, 9.999799 
2.6748183e+3, 2.8625572e+2, -579266.44, -331081.8, 14317.416, -0.004241742, -0.09406232, -330258.6, -195573.45, 0.0, 9.996931, 10.000214 
2.6747692e+3, 2.9625618e+2, -564320.06, -270584.06, 23154.697, -0.069864795, -0.054170176, -268770.0, -232089.1, 0.0, 9.996349, 10.0002365 
2.6747227e+3, 3.0625585e+2, -540549.3, -113418.76, 39629.348, 0.11184089, -0.15795511, -109773.05, -109773.05, 0.0, 9.995656, 10.001315 
2.6746732e+3, 3.1625786e+2, -581010.94, -60424.3, -38702.45, -0.017357988, -0.07089036, -57562.74, -57562.74, 0.0, 9.99507, 10.001959 
2.685598e+3, 1.2632944e+2, -1144423.8, -1705824.8, 30651.111, 0.09707733, -0.064610384, -1142755.3, 559209.94, 0.010911526, 10.005124, 9.997594 
2.6855484e+3, 1.3632683e+2, -1104941.3, -1645975.5, 26234.156, 0.0690967, -0.069436386, -1103672.1, 500318.6, 0.0066619404, 10.00474, 9.997517 
2.6854986e+3, 1.463244e+2, -1064885.0, -1542960.9, 44196.22, 0.05992869, -0.06400588, -1060833.6, 445181.06, 0.0030435042, 10.004186, 9.997816 
2.6854497e+3, 1.5632218e+2, -1064487.8, -1499104.8, 46582.793, 0.087647215, -0.053482477, -1059551.0, 348485.63, 0.00087822607, 10.003536, 9.997757 
2.6854005e+3, 1.6631992e+2, -1017322.25, -1385755.0, 73818.766, 0.08565794, -0.05970025, -1003082.4, 306975.72, 0.00012313991, 10.0030155, 9.998112 
2.6853517e+3, 1.7631772e+2, -986914.94, -1326956.6, 74673.26, 0.060461625, -0.0759089, -971239.3, 240839.11, 0.0000044684857, 10.002579, 9.998054 
2.6853028e+3, 1.8631567e+2, -932568.9, -1210606.3, 80444.68, 0.05357676, -0.08986108, -910971.44, 203126.48, 0.0000000002885943, 10.002111, 9.998404 
2.6852542e+3, 1.963138e+2, -910119.4, -1156375.5, 77121.81, 0.059453133, -0.10305219, -887960.5, 128155.555, 0.0, 10.001624, 9.998338 
2.685206e+3, 2.0631221e+2, -858444.75, -1046453.4, 87862.1, 0.06787854, -0.09604787, -823776.75, 94354.766, 0.0, 10.001159, 9.998644 
2.6851574e+3, 2.1631092e+2, -828349.7, -984886.0, 89088.51, 0.07684306, -0.07653294, -788031.7, 32112.69, 0.0, 10.000708, 9.998611 
2.6851088e+3, 2.2630951e+2, -761669.94, -845816.2, 76243.664, 0.06083864, -0.089903556, -716661.25, 5496.6, 0.0, 10.000251, 9.999113 
2.68506e+3, 2.3630814e+2, -736088.9, -790421.7, 72448.984, 0.032463986, -0.12393664, -685880.44, -61709.707, 0.0, 9.999786, 9.999045 
2.6850113e+3, 2.4630736e+2, -695105.56, -690564.25, 71393.1, 0.04006946, -0.10562127, -621405.7, -95226.664, 0.0, 9.999268, 9.999308 
2.6849627e+3, 2.5630704e+2, -680911.25, -636867.6, 71754.48, 0.06342609, -0.05469828, -583831.7, -155648.14, 0.0, 9.998709, 9.999273 
2.6849142e+3, 2.663063e+2, -619798.0, -500538.06, 54435.117, 0.04675532, -0.06608409, -479428.22, -149237.81, 0.0, 9.998213, 9.999776 
2.6848647e+3, 2.763054e+2, -592298.5, -441539.16, 55092.46, 0.022074422, -0.119058274, -423552.5, -191354.44, 0.0, 9.997749, 9.999732 
2.6848155e+3, 2.8630543e+2, -534963.9, -307705.25, 38463.926, -0.0030071868, -0.10481534, -301371.7, -167173.8, 0.0, 9.99723, 10.000228 
2.6847655e+3, 2.9630616e+2, -519175.22, -251140.73, 44600.918, -0.07085068, -0.03978653, -243914.0, -207723.19, 0.0, 9.996673, 10.000213 
2.6847184e+3, 3.063053e+2, -523058.66, -137772.61, 45601.61, 0.12388079, -0.1759309, -132448.86, -132448.86, 0.0, 9.99592, 10.0010195 
2.684668e+3, 3.1630743e+2, -577943.2, -27817.232, -11514.837, -0.056619704, -0.048986908, -27576.318, -27576.318, 0.0, 9.994961, 10.0022335 
2.695603e+3, 1.2637974e+2, -1140984.6, -1701876.1, 15852.363, 0.09122033, -0.058296088, -1140536.9, 560935.4, 0.008982328, 10.005127, 9.99762 
2.6955524e+3, 1.363772e+2, -1102181.9, -1639987.1, 10193.208, 0.03989872, -0.059405066, -1101988.8, 501508.9, 0.0054073078, 10.004731, 9.997563 
2.6955023e+3, 1.4637485e+2, -1057785.3, -1527064.5, 19616.395, 0.034552075, -0.05526383, -1056966.6, 448554.03, 0.002414361, 10.004175, 9.9979315 
2.695453e+3, 1.5637271e+2, -1056575.4, -1482416.5, 23135.309, 0.08181222, -0.048460297, -1055322.1, 352219.4, 0.0006736691, 10.003532, 9.997875 
2.6954037e+3, 1.6637042e+2, -1009994.8, -1371006.5, 57288.902, 0.085741416, -0.06708177, -1001121.75, 308441.28, 0.00009101029, 10.003015, 9.998215 
2.695354e+3, 1.7636816e+2, -981355.56, -1315797.3, 57883.69, 0.058581803, -0.10066796, -971620.7, 239963.33, 0.0000031725767, 10.002579, 9.998132 
2.695305e+3, 1.8636632e+2, -937118.25, -1220767.6, 62089.473, 0.06183575, -0.09349569, -924122.56, 189479.34, 0.000000000007316074, 10.002111, 9.998335 
2.6952562e+3, 1.963648e+2, -912311.44, -1162196.9, 59002.05, 0.084716916, -0.063148744, -899080.6, 116536.484, 0.0, 10.001628, 9.998298 
2.695207e+3, 2.063631e+2, -851534.56, -1033139.44, 71029.234, 0.080686815, -0.072539866, -827053.7, 90579.67, 0.0, 10.001161, 9.998735 
2.6951578e+3, 2.1636137e+2, -823874.2, -975863.3, 72229.94, 0.059388634, -0.10498519, -795024.44, 24624.979, 0.0, 10.000707, 9.998675 
2.695109e+3, 2.2636002e+2, -771297.0, -866682.75, 58923.855, 0.057010077, -0.108687505, -743183.4, -21520.566, 0.0, 10.000252, 9.99897 
2.6950598e+3, 2.3635899e+2, -743707.56, -807835.56, 54422.434, 0.06810055, -0.095490195, -712605.9, -88932.164, 0.0, 9.99979, 9.998924 
2.6950106e+3, 2.4635816e+2, -694538.8, -690470.6, 50129.918, 0.066363275, -0.075533845, -642333.56, -116651.35, 0.0, 9.9992695, 9.999309 
2.6949614e+3, 2.5635758e+2, -681015.4, -637819.06, 51074.633, 0.052112468, -0.052068766, -603963.7, -176275.3, 0.0, 9.99871, 9.999268 
2.6949123e+3, 2.6635668e+2, -623319.06, -508866.84, 36943.2, 0.041267548, -0.076626055, -497978.16, -168281.53, 0.0, 9.998215, 9.999719 
2.6948625e+3, 2.763557e+2, -594341.0, -447160.2, 37074.473, 0.045387417, -0.13062213, -438348.75, -206643.52, 0.0, 9.997753, 9.999693 
2.6948127e+3, 2.8635573e+2, -534897.7, -309122.72, 17561.996, 0.02084017, -0.1116755, -307764.8, -174059.94, 0.0, 9.997234, 10.000218 
2.6947623e+3, 2.9635647e+2, -524776.25, -264675.34, 22637.807, -0.057285033, -0.044442765, -262719.75, -227022.02, 0.0, 9.996678, 10.000118 
2.6947138e+3, 3.0635598e+2, -550056.06, -195074.53, 10989.174, 0.047655437, -0.11522397, -194734.67, -194734.67, 0.0, 9.995923, 10.000626 
2.694663e+3, 3.16357e+2, -542067.0, 44687.9, -52067.203, -0.020350024, -0.07222231, 49272.395, 49272.395, 0.0, 9.994962, 10.002736 
2.7056077e+3, 1.2643039e+2, -1157592.0, -1705691.9, 29642.74, 0.061844733, -0.059893794, -1155993.5, 544982.44, 0.0072481874, 10.004986, 9.997661 
2.7055568e+3, 1.3642797e+2, -1149169.3, -1655675.9, 23764.564, 0.041231785, -0.053943716, -1148056.6, 454943.97, 0.0042960485, 10.004374, 9.997626 
2.7055064e+3, 1.4642574e+2, -1098759.5, -1528646.6, 32882.457, 0.034233294, -0.04970054, -1096258.9, 408763.7, 0.0018712414, 10.003816, 9.998092 
2.705456e+3, 1.564237e+2, -1080201.8, -1476676.4, 39890.363, 0.061715912, -0.047289476, -1076228.1, 330813.84, 0.0005046399, 10.003298, 9.998025 
2.705406e+3, 1.6642153e+2, -1031684.8, -1373122.1, 78096.66, 0.07127371, -0.064167194, -1014669.75, 294392.63, 0.000065794164, 10.002833, 9.998285 
2.7053565e+3, 1.7641939e+2, -1002396.44, -1317985.1, 76195.15, 0.06454874, -0.09235828, -984963.06, 226119.36, 0.0000022107067, 10.002403, 9.9981985 
2.705307e+3, 1.8641756e+2, -954834.5, -1227561.5, 82779.33, 0.07179556, -0.08558052, -931675.56, 181424.58, 0.0, 10.0019865, 9.998347 
2.7052575e+3, 1.9641605e+2, -918086.94, -1162503.8, 84912.49, 0.08905339, -0.05841172, -891483.3, 123632.195, 0.0, 10.001579, 9.998318 
2.705208e+3, 2.0641434e+2, -850824.44, -1027771.25, 95900.57, 0.08493225, -0.07118002, -808820.06, 108311.63, 0.0, 10.001147, 9.998777 
2.7051586e+3, 2.164126e+2, -823612.8, -973131.0, 92821.89, 0.066961534, -0.10761238, -779187.94, 39959.56, 0.0, 10.000701, 9.998694 
2.705109e+3, 2.2641127e+2, -781112.25, -886887.44, 78165.234, 0.067099206, -0.10094237, -739623.44, -18462.313, 0.0, 10.000255, 9.998829 
2.70506e+3, 2.3641028e+2, -748857.1, -821855.9, 73849.88, 0.08082796, -0.06894169, -702979.25, -79806.64, 0.0, 9.999808, 9.998817 
2.70501e+3, 2.4640936e+2, -671613.2, -671273.75, 71601.6, 0.07579065, -0.057431966, -599841.6, -74660.0, 0.0, 9.999395, 9.999378 
2.70496e+3, 2.564086e+2, -636306.2, -611216.8, 76797.375, 0.05399013, -0.058104396, -545946.25, -118757.9, 0.0, 9.998998, 9.99931 
2.70491e+3, 2.664077e+2, -605042.06, -517454.63, 56255.113, 0.037982307, -0.07829966, -489956.5, -160759.38, 0.0, 9.998418, 9.999559 
2.70486e+3, 2.7640676e+2, -607449.06, -467558.4, 48875.906, 0.0403707, -0.11155458, -452173.78, -220967.6, 0.0, 9.997727, 9.999563 
2.7048102e+3, 2.864067e+2, -526499.75, -303007.94, 31831.988, 0.032061316, -0.0959205, -298562.53, -165356.06, 0.0, 9.997286, 10.000233 
2.7047592e+3, 2.9640725e+2, -480304.4, -243134.63, 36880.97, -0.023191461, -0.04664335, -237531.83, -202331.58, 0.0, 9.996987, 10.000115 
2.704709e+3, 3.0640683e+2, -519002.56, -194609.56, 20789.697, -0.009204848, -0.106047444, -193282.63, -193282.63, 0.0, 9.996203, 10.000491 
2.7046582e+3, 3.1640738e+2, -516528.2, 48354.625, 4074.8857, -0.0042294506, -0.09206769, 48384.02, 48384.02, 0.0, 9.995178, 10.002655 
2.715612e+3, 1.2648143e+2, -1155349.9, -1700668.9, 7058.657, 0.014100476, -0.06798, -1155258.6, 545217.1, 0.0057076016, 10.004975, 9.997701 
2.7155614e+3, 1.3647914e+2, -1147225.4, -1648015.8, 1941.0245, 0.06693094, -0.051640037, -1147217.9, 455281.7, 0.0033240137, 10.004352, 9.99769 
2.71551e+3, 1.4647707e+2, -1086600.0, -1501872.8, 14027.906, 0.053644102, -0.046689842, -1086126.6, 418393.44, 0.0014085702, 10.003805, 9.998282 
2.715459e+3, 1.5647516e+2, -1067080.1, -1451747.6, 21355.822, 0.029074997, -0.049759705, -1065898.1, 340639.84, 0.00036665794, 10.003305, 9.998194 
2.7154085e+3, 1.6647324e+2, -1028190.5, -1367907.4, 62183.492, 0.044629324, -0.052481096, -1017165.9, 291390.38, 0.000045955265, 10.00284, 9.99832 
2.715359e+3, 1.7647137e+2, -999326.5, -1311480.6, 60261.715, 0.07742297, -0.055429284, -988096.9, 222477.06, 0.000001439657, 10.0024, 9.998246 
2.715309e+3, 1.8646942e+2, -949715.1, -1216886.6, 67779.26, 0.082773276, -0.06807802, -933503.75, 179088.89, 0.0, 10.001984, 9.998423 
2.715259e+3, 1.9646753e+2, -913407.25, -1153336.6, 69839.32, 0.07387296, -0.08561834, -894558.9, 120052.15, 0.0, 10.001579, 9.998382 
2.715209e+3, 2.0646593e+2, -851846.06, -1030784.06, 79364.516, 0.08167287, -0.08918696, -821718.1, 94908.12, 0.0, 10.001148, 9.998756 
2.7151594e+3, 2.1646456e+2, -825569.5, -978162.44, 75995.72, 0.09764037, -0.08509612, -794178.94, 24459.87, 0.0, 10.000703, 9.99866 
2.7151096e+3, 2.2646326e+2, -790520.5, -907414.6, 61345.56, 0.08955869, -0.06844728, -764236.6, -43583.5, 0.0, 10.000257, 9.998689 
2.7150592e+3, 2.3646203e+2, -755476.3, -836329.44, 57391.742, 0.070868514, -0.045439098, -725702.3, -103034.72, 0.0, 9.999809, 9.998719 
2.7150092e+3, 2.4646097e+2, -662524.75, -653350.2, 56843.492, 0.069101825, -0.051275704, -600909.2, -76231.77, 0.0, 9.999397, 9.999501 
2.714959e+3, 2.564601e+2, -630268.1, -600181.5, 60386.773, 0.06891761, -0.07189678, -552992.5, -126308.9, 0.0, 9.999002, 9.999384 
2.7149084e+3, 2.664593e+2, -623874.0, -557481.7, 29813.47, 0.035953455, -0.070204824, -546059.2, -217367.27, 0.0, 9.99842, 9.999286 
2.7148575e+3, 2.7645856e+2, -624038.25, -502157.2, 24510.094, 0.0042418363, -0.059709456, -497412.94, -266712.03, 0.0, 9.9977255, 9.999328 
2.714807e+3, 2.8645828e+2, -524143.4, -298874.06, 20577.152, 0.02998388, -0.055866607, -297009.88, -164307.14, 0.0, 9.997287, 10.000262 
2.7147567e+3, 2.9645848e+2, -473387.22, -230470.66, 21973.2, 0.03442476, -0.047206864, -228499.06, -193800.47, 0.0, 9.996992, 10.000201 
2.7147046e+3, 3.0645767e+2, -508284.6, -173320.25, -20900.6, -0.04416293, -0.15787785, -172021.17, -172021.17, 0.0, 9.996204, 10.000638 
2.7146527e+3, 3.1645918e+2, -572404.1, -70204.56, 39405.125, -0.039164405, -0.056403503, -67131.445, -67131.445, 0.0, 9.995187, 10.001837 
2.7256164e+3, 1.2653321e+2, -1199420.6, -1704048.1, 24556.818, -0.00015897208, -0.06469581, -1198228.4, 501740.2, 0.004362134, 10.004589, 9.997863 
2.7255654e+3, 1.3653104e+2, -1220015.3, -1665433.4, 29457.248, 0.0607769, -0.05250817, -1218075.5, 383915.53, 0.0024894127, 10.003773, 9.9978485 
2.7255136e+3, 1.4652905e+2, -1139340.0, -1515882.3, 54518.34, 0.047456883, -0.04915196, -1131605.4, 372405.22, 0.0010224538, 10.003395, 9.998382 
2.725462e+3, 1.5652725e+2, -1065302.6, -1439913.1, 54339.813, 0.018145053, -0.05210287, -1057579.5, 348448.2, 0.00025605471, 10.003273, 9.998289 
2.725411e+3, 1.6652541e+2, -1029088.44, -1363544.5, 85067.12, 0.033411935, -0.05134497, -1008695.5, 299349.75, 0.000030382742, 10.002816, 9.99836 
2.7253607e+3, 1.7652366e+2, -1028283.5, -1318976.1, 84398.484, 0.069011614, -0.048615556, -1005556.44, 204505.78, 0.0000008235445, 10.002176, 9.9983015 
2.7253106e+3, 1.8652177e+2, -971381.06, -1213154.6, 100591.875, 0.07864935, -0.063106336, -935002.7, 177077.4, 0.0, 10.001777, 9.998547 
2.7252603e+3, 1.9651991e+2, -915995.8, -1142977.5, 104643.13, 0.074768595, -0.0874149, -875115.8, 138981.83, 0.0, 10.001516, 9.998482 
2.7252102e+3, 2.0651834e+2, -863552.4, -1043924.5, 108554.85, 0.08695816, -0.08881164, -812608.4, 103504.42, 0.0, 10.001104, 9.998687 
2.72516e+3, 2.1651699e+2, -843508.8, -992664.7, 102373.24, 0.10747783, -0.076604895, -791429.2, 26696.668, 0.0, 10.0006075, 9.998606 
2.7251098e+3, 2.2651568e+2, -791431.2, -906191.1, 96633.66, 0.1002541, -0.056392495, -736425.56, -16285.369, 0.0, 10.000246, 9.9987 
2.725059e+3, 2.3651446e+2, -733632.4, -824925.44, 102721.93, 0.07993833, -0.03291343, -666871.6, -44716.96, 0.0, 9.999959, 9.998724 
2.7250084e+3, 2.4651335e+2, -653844.56, -657513.7, 92697.53, 0.07426329, -0.039918665, -562963.44, -38798.348, 0.0, 9.999496, 9.999423 
2.724958e+3, 2.565124e+2, -646076.9, -615871.75, 80873.03, 0.069697686, -0.062749915, -548703.2, -122530.91, 0.0, 9.998932, 9.999309 
2.7249068e+3, 2.6651153e+2, -610416.25, -560000.56, 53078.84, 0.036446255, -0.057270434, -526447.9, -198266.69, 0.0, 9.998555, 9.999201 
2.7248552e+3, 2.7651078e+2, -549901.3, -474664.5, 61531.07, 0.0069679595, -0.039626572, -440163.44, -209972.8, 0.0, 9.998275, 9.999249 
2.7248046e+3, 2.8651035e+2, -477475.28, -285879.66, 54839.113, 0.022906894, -0.040682063, -271293.84, -139100.0, 0.0, 9.997652, 10.000174 
2.7247533e+3, 2.9651037e+2, -502542.7, -249594.45, 45251.594, 0.010727849, -0.042381972, -241742.81, -207551.39, 0.0, 9.996818, 10.000153 
2.7247012e+3, 3.0650964e+2, -481030.16, -144913.47, -8415.112, -0.0038437878, -0.14902417, -144702.92, -144702.92, 0.0, 9.996328, 10.000772 
2.724648e+3, 3.1651136e+2, -471742.44, -72392.766, 74940.47, -0.06650689, -0.035097007, -58792.867, -58792.867, 0.0, 9.9961, 10.001379 
2.735621e+3, 1.2658566e+2, -1181523.1, -1667263.3, -4766.5835, 0.010787188, -0.05251288, -1181476.4, 517978.63, 0.003213755, 10.004584, 9.998119 
2.7355686e+3, 1.3658358e+2, -1201987.1, -1632095.1, 3255.9817, 0.027988093, -0.05663598, -1201962.5, 399513.25, 0.0017906901, 10.003786, 9.998072 
2.7355167e+3, 1.4658168e+2, -1136941.3, -1513578.6, 50479.31, 0.020656653, -0.056285605, -1130293.1, 373201.38, 0.0007093004, 10.003403, 9.998395 
2.7354652e+3, 1.5657994e+2, -1065598.5, -1437799.8, 47228.203, 0.02539876, -0.054084525, -1059699.3, 345812.06, 0.0001696354, 10.003259, 9.998311 
2.735414e+3, 1.6657808e+2, -1027975.1, -1359396.0, 61257.586, 0.034577165, -0.059251036, -1017015.1, 290514.16, 0.000018432016, 10.002806, 9.998394 
2.7353626e+3, 1.7657623e+2, -1023285.0, -1310681.3, 63037.074, 0.041436795, -0.06805378, -1010066.5, 199480.58, 0.00000037747915, 10.002183, 9.998356 
2.735312e+3, 1.865746e+2, -959397.44, -1190385.5, 91287.57, 0.061432872, -0.06861401, -927676.4, 183886.05, 0.0, 10.001784, 9.9987 
2.7352616e+3, 1.9657318e+2, -907833.2, -1126204.5, 93510.01, 0.089871, -0.06569244, -873263.44, 140312.34, 0.0, 10.001514, 9.998598 
2.7352113e+3, 2.0657152e+2, -871805.56, -1061476.6, 89844.016, 0.09953127, -0.07206755, -836005.25, 79586.58, 0.0, 10.001103, 9.998568 
2.7351606e+3, 2.1656984e+2, -848244.9, -1003702.75, 85147.43, 0.0977548, -0.08245172, -810683.44, 6925.2065, 0.0, 10.00061, 9.998529 
2.73511e+3, 2.2656858e+2, -780664.2, -885219.1, 86287.29, 0.10019574, -0.06367771, -732053.5, -12431.074, 0.0, 10.000251, 9.998843 
2.7350593e+3, 2.365676e+2, -726980.3, -812348.7, 90353.47, 0.10665389, -0.029572882, -669736.06, -48102.27, 0.0, 9.999962, 9.99881 
2.735008e+3, 2.465665e+2, -673530.9, -699224.1, 71079.78, 0.090283364, -0.022880461, -614146.1, -90501.37, 0.0, 9.999497, 9.999137 
2.7349567e+3, 2.565654e+2, -662235.8, -649858.25, 61026.52, 0.055644207, -0.030738963, -594707.5, -169052.94, 0.0, 9.998932, 9.999077 
2.7349052e+3, 2.6656434e+2, -603054.2, -545607.44, 42860.844, 0.040104266, -0.0401526, -522735.44, -195070.3, 0.0, 9.998557, 9.9993 
2.734854e+3, 2.7656335e+2, -543840.2, -464326.03, 48748.734, 0.05097484, -0.05350437, -441177.88, -211502.38, 0.0, 9.9982815, 9.999318 
2.7348018e+3, 2.865629e+2, -492603.47, -318674.4, 23190.996, 0.009564826, -0.05178642, -315635.3, -183955.52, 0.0, 9.997656, 9.999948 
2.7347487e+3, 2.965629e+2, -517903.25, -280044.13, 15323.461, -0.10255189, -0.030455174, -279061.0, -245382.33, 0.0, 9.996808, 9.999949 
2.7346984e+3, 3.065628e+2, -473388.25, -130094.37, -17284.117, 0.11997871, -0.06959576, -129226.34, -129226.34, 0.0, 9.996329, 10.0008745 
2.7346438e+3, 3.1656355e+2, -472214.94, -78598.49, 18281.932, -0.0962376, -0.066835, -77751.195, -77751.195, 0.0, 9.99612, 10.001328 
2.7456254e+3, 1.2663874e+2, -1225085.3, -1681372.0, 29249.396, 0.013292268, -0.061703984, -1223217.9, 475717.0, 0.0022629253, 10.0042515, 9.998181 
2.745572e+3, 1.3663678e+2, -1195683.0, -1621610.0, 26771.275, 0.0021777218, -0.058260355, -1194006.9, 406947.22, 0.0012250175, 10.0037985, 9.9981365 
2.7455196e+3, 1.4663497e+2, -1152510.8, -1518530.4, 78281.484, -0.0022360634, -0.052253522, -1136471.4, 366500.75, 0.00046481926, 10.003286, 9.998416 
2.745468e+3, 1.566333e+2, -1136020.9, -1466671.5, 74949.445, 0.02364531, -0.045323744, -1119825.1, 285163.78, 0.00010455116, 10.002756, 9.998355 
2.7454162e+3, 1.6663148e+2, -1071714.4, -1364652.5, 91823.484, 0.033287793, -0.056305632, -1045311.4, 261694.98, 0.000009845442, 10.00244, 9.998532 
2.7453646e+3, 1.7662963e+2, -1006070.4, -1288471.8, 100219.76, 0.029167486, -0.076393105, -974119.0, 234904.44, 0.00000012200492, 10.002246, 9.998477 
2.7453136e+3, 1.866281e+2, -952137.25, -1187602.6, 123649.734, 0.0542254, -0.0725585, -899135.56, 211902.56, 0.0, 10.001841, 9.998691 
2.7452633e+3, 1.966268e+2, -935195.6, -1138460.9, 114958.766, 0.09643876, -0.056340836, -883385.44, 129665.32, 0.0, 10.001325, 9.998605 
2.745212e+3, 2.0662516e+2, -881727.44, -1058237.3, 117052.0, 0.10331929, -0.06449936, -823387.4, 91679.26, 0.0, 10.001004, 9.998636 
2.745161e+3, 2.1662343e+2, -818594.75, -982953.0, 124665.06, 0.08992504, -0.08511772, -751459.5, 65624.04, 0.0, 10.00079, 9.998584 
2.74511e+3, 2.2662215e+2, -762965.44, -881889.4, 120120.914, 0.09641229, -0.06702339, -688394.75, 30702.639, 0.0, 10.000398, 9.998794 
2.745059e+3, 2.3662117e+2, -738353.6, -823050.25, 110220.65, 0.11606427, -0.028642211, -662625.8, -41516.977, 0.0, 9.999909, 9.99876 
2.7450076e+3, 2.4662001e+2, -669019.75, -706582.75, 94228.19, 0.098942585, -0.01995185, -591719.5, -68598.83, 0.0, 9.999574, 9.999048 
2.7449557e+3, 2.5661883e+2, -612026.7, -632548.8, 98175.66, 0.055587806, -0.026562028, -523577.34, -98445.3, 0.0, 9.9993105, 9.999011 
2.744904e+3, 2.6661783e+2, -565433.5, -522939.0, 80710.02, 0.041422218, -0.03041692, -460726.38, -133584.23, 0.0, 9.998799, 9.999337 
2.744852e+3, 2.7661693e+2, -561556.8, -470370.7, 80485.62, 0.05974306, -0.03614833, -423461.53, -194310.48, 0.0, 9.998153, 9.999337 
2.7447993e+3, 2.8661636e+2, -498288.84, -333493.6, 52261.42, 0.012222287, -0.04058835, -318317.53, -187160.5, 0.0, 9.997672, 9.999836 
2.7447453e+3, 2.9661608e+2, -459505.75, -268634.1, 53886.176, -0.113630585, -0.03342316, -254471.92, -221312.44, 0.0, 9.997286, 9.999795 
2.744695e+3, 3.066163e+2, -427627.72, -150612.08, 8580.934, 0.112366565, -0.012632372, -150346.52, -150346.52, 0.0, 9.996831, 10.000491 
2.7446395e+3, 3.1661618e+2, -434107.6, -15873.737, -865.43115, -0.11084758, -0.06296298, -15871.946, -15871.946, 0.0, 9.996195, 10.001721 
2.7556294e+3, 1.2669238e+2, -1232761.0, -1695889.1, 11938.135, 0.009080894, -0.086940065, -1232453.5, 465955.2, 0.0015063743, 10.004241, 9.998087 
2.7555755e+3, 1.3669062e+2, -1199549.9, -1631536.9, 10096.827, -0.018804772, -0.057093818, -1199314.0, 401112.63, 0.00078722124, 10.003802, 9.998068 
2.7555224e+3, 1.4668891e+2, -1149819.8, -1515604.3, 58746.754, -0.022618687, -0.038911838, -1140616.4, 361827.75, 0.00028342503, 10.003296, 9.998432 
2.7554706e+3, 1.5668729e+2, -1131084.5, -1458412.8, 57169.418, 0.014061864, -0.02776535, -1121387.0, 283073.78, 0.000058262318, 10.002762, 9.998409 
2.7554187e+3, 1.6668557e+2, -1056032.6, -1332739.8, 84674.0, 0.030091215, -0.044231817, -1032178.3, 274298.47, 0.0000044041435, 10.002441, 9.998752 
2.7553666e+3, 1.7668384e+2, -995655.4, -1265587.3, 90805.82, 0.030088719, -0.075082965, -967951.44, 240540.47, 0.000000024025011, 10.002238, 9.998638 
2.7553153e+3, 1.8668224e+2, -963941.75, -1211696.8, 103953.26, 0.055509403, -0.07524018, -926103.7, 184403.75, 0.0, 10.001837, 9.9985285 
2.7552643e+3, 1.9668077e+2, -940970.5, -1151950.1, 97373.21, 0.09524168, -0.0588234, -902899.75, 109622.805, 0.0, 10.001329, 9.99851 
2.755213e+3, 2.0667925e+2, -864827.8, -1024571.7, 109154.39, 0.099033326, -0.06520318, -809443.7, 105093.336, 0.0, 10.001008, 9.998866 
2.7551615e+3, 2.1667777e+2, -807459.6, -960241.2, 114713.92, 0.08256398, -0.083563805, -746028.6, 70521.984, 0.0, 10.00079, 9.99874 
2.75511e+3, 2.266764e+2, -779467.7, -916879.8, 101355.01, 0.088474326, -0.06653327, -725726.3, -7161.0703, 0.0, 10.000399, 9.998554 
2.7550587e+3, 2.3667516e+2, -750796.6, -849594.7, 93101.47, 0.1089753, -0.031166524, -694800.44, -74220.625, 0.0, 9.99991, 9.998578 
2.755007e+3, 2.4667388e+2, -661864.4, -692413.94, 84677.51, 0.10072187, -0.03159841, -591095.0, -68502.0, 0.0, 9.999575, 9.9991455 
2.754955e+3, 2.566727e+2, -605420.7, -620086.5, 86197.31, 0.06923447, -0.049993742, -526244.94, -101640.35, 0.0, 9.999314, 9.999096 
2.7549025e+3, 2.6667196e+2, -567791.6, -528798.1, 56163.45, 0.039478023, -0.027319485, -488843.56, -162231.48, 0.0, 9.998801, 9.999297 
2.7548498e+3, 2.7667153e+2, -564853.7, -476780.13, 57381.246, 0.030189727, 0.015048055, -448485.4, -219868.47, 0.0, 9.998149, 9.999296 
2.754797e+3, 2.8667074e+2, -499027.63, -334902.6, 38006.73, 0.032911394, -0.006558669, -326528.56, -195903.2, 0.0, 9.99767, 9.999829 
2.7547437e+3, 2.9666993e+2, -467107.53, -286857.34, 40441.23, -0.012627503, -0.054991677, -278199.72, -245565.64, 0.0, 9.997294, 9.999667 
2.75469e+3, 3.066701e+2, -491452.8, -285835.8, -12610.101, -0.044908285, 0.023276044, -285065.34, -285065.34, 0.0, 9.99684, 9.999559 
2.754636e+3, 3.1666923e+2, -364502.53, 127768.375, 13832.433, -0.058485463, -0.025488045, 128156.75, 128156.75, 0.0, 9.996195, 10.00271 
2.7656335e+3, 1.2674677e+2, -1290422.1, -1708049.1, 27103.17, 0.020632328, -0.07293245, -1288670.5, 409205.75, 0.0009349838, 10.003777, 9.998227 
2.765579e+3, 1.3674499e+2, -1219232.3, -1628414.5, 38240.297, -0.032384805, -0.056052227, -1215689.1, 384204.3, 0.0004680194, 10.003613, 9.998179 
2.7655253e+3, 1.4674328e+2, -1167340.5, -1529795.8, 81043.42, -0.03889525, -0.03932761, -1150044.8, 351866.44, 0.00015749612, 10.003202, 9.998379 
2.765473e+3, 1.5674166e+2, -1146331.5, -1467358.0, 76413.98, 0.007471316, -0.023724742, -1129070.8, 274857.9, 0.000028159518, 10.002666, 9.998393 
2.7654207e+3, 1.6674002e+2, -1075396.3, -1328611.5, 105936.4, 0.027720552, -0.03690548, -1036922.0, 269021.63, 0.0000015734015, 10.002253, 9.99887 
2.7653685e+3, 1.7673846e+2, -1036647.94, -1274251.6, 104703.29, 0.028913194, -0.06493826, -997093.7, 210863.17, 0.0000000017471812, 10.001911, 9.998735 
2.765317e+3, 1.8673684e+2, -994269.3, -1228599.0, 118758.42, 0.05294067, -0.06795901, -944607.4, 165365.19, 0.0, 10.00164, 9.998506 
2.7652657e+3, 1.967353e+2, -930173.0, -1147673.8, 121401.445, 0.09022867, -0.057530064, -875935.75, 136053.17, 0.0, 10.0014105, 9.998499 
2.7652138e+3, 2.0673381e+2, -857268.5, -1019807.25, 127374.516, 0.09844901, -0.05902391, -787445.25, 126557.84, 0.0, 10.001059, 9.998874 
2.7651623e+3, 2.1673244e+2, -827452.8, -966943.2, 117069.05, 0.090094216, -0.06693401, -760927.8, 55087.777, 0.0, 10.000642, 9.998765 
2.7651107e+3, 2.2673105e+2, -782818.5, -908479.4, 111933.91, 0.09083345, -0.05832391, -717286.75, 743.33716, 0.0, 10.000336, 9.998641 
2.7650586e+3, 2.3672971e+2, -721536.44, -827848.56, 126926.43, 0.0992928, -0.040786102, -637084.75, -17039.799, 0.0, 10.000082, 9.998643 
2.7650067e+3, 2.4672846e+2, -651182.06, -694823.7, 118365.59, 0.09455782, -0.036745157, -552642.75, -30584.574, 0.0, 9.999684, 9.999075 
2.7649543e+3, 2.5672737e+2, -623313.06, -632933.5, 106078.82, 0.075475015, -0.039560545, -521935.47, -97865.68, 0.0, 9.999212, 9.999055 
2.7649012e+3, 2.6672664e+2, -559634.25, -516030.13, 72378.484, 0.041079123, -0.015634079, -462241.34, -136164.42, 0.0, 9.998823, 9.9993725 
2.764848e+3, 2.7672622e+2, -516087.3, -446965.0, 82095.445, 0.018041704, 0.021073451, -392452.4, -164371.16, 0.0, 9.998461, 9.999348 
2.7647948e+3, 2.867254e+2, -464512.2, -328196.88, 62314.895, 0.030664997, -0.000101021215, -304004.06, -173913.64, 0.0, 9.997953, 9.999736 
2.764741e+3, 2.9672453e+2, -465932.3, -298641.84, 59643.887, 0.008414615, -0.045080252, -279554.8, -247454.19, 0.0, 9.997358, 9.999554 
2.7646866e+3, 3.0672482e+2, -477145.56, -310691.78, 40386.445, -0.07419763, 0.06460374, -301410.38, -301410.38, 0.0, 9.997079, 9.999271 
2.7646327e+3, 3.167232e+2, -253477.0, 211057.06, 61244.777, -0.04506847, -0.0303351, 218995.97, 218995.97, 0.0, 9.996832, 10.0029745 
2.7756372e+3, 1.2680182e+2, -1262753.9, -1659274.1, 22178.334, 0.043383695, -0.028838022, -1261517.3, 435820.97, 0.0005315278, 10.003811, 9.998546 
2.7755824e+3, 1.3679992e+2, -1202900.8, -1593319.6, 29646.797, -0.040337343, -0.055411294, -1200662.4, 398692.78, 0.00025226976, 10.003606, 9.998425 
2.7755284e+3, 1.467981e+2, -1176264.0, -1547362.0, 60491.434, -0.05169901, -0.050797127, -1166652.5, 334721.28, 0.00007721653, 10.003196, 9.998262 
2.7754757e+3, 1.5679641e+2, -1150128.6, -1478756.0, 57901.72, 0.0031970816, -0.030768557, -1140225.3, 263167.22, 0.000011151193, 10.00268, 9.998309 
2.775423e+3, 1.6679488e+2, -1071377.5, -1324320.0, 93519.32, 0.02558115, -0.033307362, -1040556.5, 264850.3, 0.00000042374444, 10.002268, 9.998893 
2.7753705e+3, 1.7679346e+2, -1032295.56, -1267971.1, 92742.93, 0.02537296, -0.047201972, -1000176.7, 207241.64, 0.00000000000031093438, 10.001921, 9.9987755 
2.7753183e+3, 1.8679191e+2, -987131.2, -1214862.3, 110281.41, 0.046775077, -0.05206261, -942480.7, 166952.84, 0.0, 10.001643, 9.998599 
2.7752665e+3, 1.9679034e+2, -927410.9, -1141426.0, 111578.59, 0.081053354, -0.0522605, -879820.9, 131629.14, 0.0, 10.001407, 9.998545 
2.775215e+3, 2.0678885e+2, -871735.2, -1049977.6, 111726.09, 0.101377144, -0.046175104, -817939.25, 95525.71, 0.0, 10.001058, 9.998668 
2.775163e+3, 2.1678744e+2, -833673.94, -980963.8, 102776.29, 0.11245136, -0.03710393, -780881.0, 34597.516, 0.0, 10.000646, 9.998668 
2.775111e+3, 2.2678609e+2, -754938.75, -851483.7, 102910.4, 0.10284991, -0.04332888, -689541.6, 27950.045, 0.0, 10.000338, 9.999032 
2.7750584e+3, 2.3678482e+2, -701275.25, -786439.0, 115926.266, 0.085339226, -0.056582555, -620357.6, -853.4967, 0.0, 10.000083, 9.998928 
2.775006e+3, 2.4678373e+2, -668442.44, -731454.7, 100283.03, 0.079982415, -0.034621928, -594832.8, -73316.46, 0.0, 9.999685, 9.998824 
2.7749532e+3, 2.567828e+2, -635264.75, -658169.56, 88857.84, 0.073990904, 0.005430251, -557124.3, -133596.63, 0.0, 9.999212, 9.998883 
2.7749e+3, 2.667819e+2, -546761.7, -489360.8, 59032.56, 0.046472877, 0.0036151935, -452421.66, -126884.914, 0.0, 9.998822, 9.999557 
2.7748463e+3, 2.7678102e+2, -506262.13, -427719.3, 67464.62, 0.02433778, -0.021596536, -388928.47, -161384.22, 0.0, 9.998465, 9.999479 
2.7747923e+3, 2.8678036e+2, -477408.25, -356296.28, 39657.285, 0.0030387177, -0.02142991, -344466.3, -214914.11, 0.0, 9.997957, 9.999543 
2.7747375e+3, 2.9677996e+2, -472469.38, -312207.84, 39122.387, -0.05853504, 0.0022108743, -303167.4, -271608.88, 0.0, 9.997356, 9.999463 
2.7746844e+3, 3.067804e+2, -448025.28, -251044.83, 38699.457, 0.03925559, 0.10387841, -243714.58, -243714.58, 0.0, 9.997081, 9.999681 
2.7746287e+3, 3.1677866e+2, -306898.28, 99664.75, -86705.0, -0.11055071, -0.033534, 117383.53, 117383.53, 0.0, 9.996829, 10.0022135 
2.785641e+3, 1.2685701e+2, -1243905.9, -1652414.0, 43465.03, 0.020002749, -0.027047105, -1239332.5, 457464.7, 0.00027005732, 10.00395, 9.998526 
2.7855858e+3, 1.3685507e+2, -1267232.5, -1623247.4, 31572.52, -0.026023164, -0.057054676, -1264454.1, 334360.72, 0.00011939084, 10.00316, 9.998433 
2.7855313e+3, 1.4685336e+2, -1222144.5, -1557674.8, 71604.875, -0.042341143, -0.048793893, -1207502.4, 293330.28, 0.00003157788, 10.002831, 9.998367 
2.785478e+3, 1.5685184e+2, -1135317.9, -1461461.5, 82327.93, -0.012658046, -0.022013227, -1115714.3, 287135.47, 0.0000033549736, 10.00274, 9.998399 
2.785425e+3, 1.6685028e+2, -1049814.4, -1315544.6, 118136.81, 0.008910668, -0.028763454, -1004889.0, 299975.25, 0.00000007042765, 10.002425, 9.998877 
2.7853724e+3, 1.7684875e+2, -1020453.4, -1262680.1, 115016.125, 0.020503182, -0.05158471, -974542.3, 232334.52, 0.0, 10.002007, 9.998769 
2.7853197e+3, 1.8684727e+2, -992384.7, -1214718.4, 130036.55, 0.04693428, -0.049774952, -932473.8, 176417.67, 0.0, 10.001598, 9.998621 
2.7852678e+3, 1.9684586e+2, -955054.2, -1150548.6, 126695.016, 0.082060404, -0.036210265, -892782.25, 118124.55, 0.0, 10.001202, 9.998581 
2.7852157e+3, 2.0684436e+2, -886121.1, -1048936.6, 138335.66, 0.0992481, -0.035551902, -807017.25, 105904.31, 0.0, 10.000927, 9.998736 
2.7851635e+3, 2.1684287e+2, -819734.25, -967147.75, 147741.11, 0.10612824, -0.040699247, -728334.56, 86601.016, 0.0, 10.000713, 9.998729 
2.7851108e+3, 2.2684158e+2, -750094.1, -849057.56, 134548.75, 0.09763681, -0.043957278, -656216.8, 60731.492, 0.0, 10.000373, 9.99903 
2.7850583e+3, 2.3684041e+2, -716514.06, -791147.6, 118970.87, 0.08388893, -0.04661601, -629144.8, -10184.908, 0.0, 9.9999695, 9.998949 
2.7850053e+3, 2.4683937e+2, -669393.0, -720704.8, 108620.62, 0.07725671, -0.026521398, -583439.44, -62467.93, 0.0, 9.999634, 9.998921 
2.7849525e+3, 2.5683847e+2, -613458.6, -637541.2, 122575.49, 0.06748134, 0.006233382, -502334.4, -79351.875, 0.0, 9.999322, 9.99897 
2.7848986e+3, 2.6683763e+2, -529068.1, -480083.34, 92541.664, 0.043020036, 0.006985411, -408847.78, -83856.71, 0.0, 9.998943, 9.99956 
2.7848446e+3, 2.7683678e+2, -496803.44, -422419.28, 86514.06, 0.027900402, -0.01206578, -365441.66, -138443.45, 0.0, 9.9985285, 9.999484 
2.78479e+3, 2.8683606e+2, -449392.94, -346268.47, 58736.855, -0.0012410108, -0.017447444, -319672.66, -190665.72, 0.0, 9.998167, 9.999509 
2.784735e+3, 2.9683557e+2, -403163.63, -277711.44, 71131.68, -0.077802114, -0.0020390418, -245599.38, -214584.95, 0.0, 9.997831, 9.999469 
2.784682e+3, 3.0683634e+2, -376198.9, -191271.7, 71662.48, 0.04442697, 0.12036957, -166752.28, -166752.28, 0.0, 9.997468, 9.999904 
2.7846256e+3, 3.1683475e+2, -286901.8, 58263.883, -97725.16, -0.11511368, -0.016237741, 84011.68, 84011.68, 0.0, 9.997189, 10.001755 
2.795644e+3, 1.2691244e+2, -1268198.1, -1696743.4, 12898.479, -0.038527317, -0.0572877, -1267810.3, 428442.94, 0.00011800271, 10.003922, 9.998235 
2.795589e+3, 1.3691048e+2, -1277085.0, -1648169.8, 7847.6216, 0.0060130735, -0.060251545, -1276919.0, 321353.44, 0.000046695113, 10.003178, 9.998255 
2.795534e+3, 1.4690903e+2, -1200163.5, -1516170.6, 69374.62, -0.016320683, -0.035957456, -1185604.1, 314683.72, 0.000009788546, 10.002848, 9.998645 
2.7954802e+3, 1.5690787e+2, -1120341.5, -1429335.4, 76722.15, -0.039308384, -0.000028434399, -1102340.4, 299960.63, 0.00000067164456, 10.002734, 9.998623 
2.795427e+3, 1.669062e+2, -1055094.9, -1324358.1, 102271.66, -0.019848647, -0.023733834, -1020655.0, 283661.3, 0.0000000035986794, 10.002415, 9.998822 
2.795374e+3, 1.7690432e+2, -1025179.4, -1271018.1, 99770.47, 0.014763095, -0.075113535, -989784.75, 216547.53, 0.0, 10.001998, 9.998716 
2.7953216e+3, 1.8690294e+2, -995971.25, -1222363.0, 115556.805, 0.052523978, -0.05893464, -947405.94, 160940.48, 0.0, 10.001598, 9.9985695 
2.7952692e+3, 1.9690184e+2, -952352.7, -1146527.1, 113581.984, 0.0922037, -0.010843513, -900018.4, 110340.914, 0.0, 10.001206, 9.998607 
2.7952164e+3, 2.0690036e+2, -863501.8, -1002923.8, 130812.08, 0.09190651, -0.027820535, -784985.2, 127387.92, 0.0, 10.000929, 9.999052 
2.7951637e+3, 2.1689875e+2, -806910.3, -940262.7, 138380.8, 0.071187414, -0.07521005, -719980.0, 94407.01, 0.0, 10.0007105, 9.998915 
2.795111e+3, 2.2689751e+2, -777209.2, -905819.44, 119268.94, 0.07606625, -0.058424175, -706014.44, 10385.674, 0.0, 10.000374, 9.998641 
2.7950585e+3, 2.3689646e+2, -732342.4, -824745.94, 104454.39, 0.095648915, -0.0113428105, -664328.06, -45915.76, 0.0, 9.999971, 9.998719 
2.795005e+3, 2.4689536e+2, -638343.9, -656631.5, 97150.586, 0.08616901, -0.013810562, -549907.75, -29483.951, 0.0, 9.999634, 9.999362 
2.7949515e+3, 2.5689432e+2, -589998.94, -589478.8, 110264.96, 0.054802995, -0.03845014, -479473.63, -57039.313, 0.0, 9.999323, 9.9993 
2.7948973e+3, 2.668938e+2, -542381.8, -508610.34, 77009.305, 0.030120721, -0.0046827095, -446657.25, -122217.39, 0.0, 9.998945, 9.999365 
2.794843e+3, 2.768936e+2, -506018.16, -442043.94, 71236.67, 0.027724208, 0.05368769, -395942.38, -169499.58, 0.0, 9.9985285, 9.999351 
2.7947882e+3, 2.868925e+2, -440742.63, -328633.6, 46056.594, 0.019157777, 0.012149865, -312139.38, -183684.83, 0.0, 9.998167, 9.999631 
2.794733e+3, 2.968912e+2, -395922.9, -264143.22, 59473.953, -0.04567241, -0.06396003, -241271.45, -210802.84, 0.0, 9.997836, 9.99956 
2.794678e+3, 3.0689257e+2, -374242.94, -189254.2, 56004.62, -0.07062362, 0.11498393, -173620.3, -173620.3, 0.0, 9.997475, 9.999916 
2.7946234e+3, 3.1689125e+2, -290440.0, 47069.914, -4822.211, -0.049925357, 0.0033302724, 47138.797, 47138.797, 0.0, 9.997206, 10.001669 
2.8056479e+3, 1.2696855e+2, -1358373.4, -1728538.4, 17406.307, -0.022087852, -0.044945713, -1357556.6, 338146.78, 0.000040909137, 10.003254, 9.998339 
2.8055918e+3, 1.3696642e+2, -1282715.4, -1640571.3, 37439.816, -0.011181073, -0.07468538, -1278840.4, 318883.75, 0.000013370687, 10.003097, 9.998345 
2.805537e+3, 1.4696504e+2, -1212750.0, -1520432.1, 100252.98, -0.030413028, -0.046691626, -1182967.3, 316771.6, 0.000001926778, 10.002755, 9.998659 
2.8054827e+3, 1.5696406e+2, -1175249.4, -1451326.8, 90257.99, -0.032923527, 0.0066090873, -1148360.3, 253390.08, 0.000000061834285, 10.002339, 9.998661 
2.805429e+3, 1.669625e+2, -1109834.4, -1340443.3, 113814.77, -0.010623561, -0.013781419, -1063123.6, 240641.3, 0.0, 10.001996, 9.998913 
2.8053758e+3, 1.7696069e+2, -1063125.0, -1278981.8, 121449.26, 0.017843755, -0.068430245, -1008577.3, 197203.14, 0.0, 10.001696, 9.998807 
2.8053227e+3, 1.8695931e+2, -1010041.4, -1220742.9, 148438.67, 0.046483055, -0.059522014, -933367.9, 174426.5, 0.0, 10.001468, 9.998643 
2.80527e+3, 1.9695817e+2, -937717.4, -1131717.6, 154321.2, 0.07691995, -0.020193962, -852442.8, 157364.22, 0.0, 10.001276, 9.998673 
2.805217e+3, 2.069568e+2, -860089.3, -1000352.06, 158642.69, 0.08361638, -0.029512716, -756767.75, 155052.19, 0.0, 10.000951, 9.999058 
2.8051642e+3, 2.1695535e+2, -827692.56, -948384.06, 144804.64, 0.07683788, -0.062133692, -731162.56, 82670.09, 0.0, 10.000562, 9.99893 
2.805111e+3, 2.2695406e+2, -788135.94, -907076.3, 138838.34, 0.078208275, -0.051757894, -696567.1, 19278.945, 0.0, 10.000283, 9.998674 
2.805058e+3, 2.3695289e+2, -717305.0, -812348.1, 153690.72, 0.0869163, -0.020369535, -603956.6, 13902.644, 0.0, 10.000055, 9.998762 
2.8050044e+3, 2.4695183e+2, -621285.1, -641568.56, 136204.84, 0.081765026, -0.023898518, -494844.94, 25025.262, 0.0, 9.999724, 9.999421 
2.8049508e+3, 2.5695086e+2, -583563.94, -580703.3, 121042.09, 0.06179661, -0.043097686, -461083.1, -39203.637, 0.0, 9.999345, 9.99935 
2.8048962e+3, 2.669504e+2, -525040.06, -503637.94, 87481.21, 0.028612943, -0.005858265, -426205.72, -102320.86, 0.0, 9.999081, 9.999332 
2.8048414e+3, 2.7695018e+2, -458356.22, -420221.06, 93045.0, 0.0097464835, 0.055375937, -344310.0, -118421.68, 0.0, 9.998863, 9.999337 
2.8047866e+3, 2.869491e+2, -389810.88, -298996.53, 65382.344, 0.018945701, 0.012012155, -264800.53, -136900.58, 0.0, 9.998497, 9.999675 
2.8047308e+3, 2.9694778e+2, -366549.7, -250209.69, 73814.5, -0.01567092, -0.068882175, -214399.2, -184485.47, 0.0, 9.99804, 9.9995575 
2.804675e+3, 3.0694905e+2, -345400.72, -204256.81, 57980.04, -0.11306188, 0.11526598, -183493.75, -183493.75, 0.0, 9.997798, 9.999656 
2.8046206e+3, 3.169476e+2, -230295.36, 90502.7, 2649.022, -0.031653248, 0.009648185, 90524.58, 90524.58, 0.0, 9.997559, 10.001796 
2.8156513e+3, 1.2702526e+2, -1330732.1, -1669972.1, 11526.237, 0.049679358, -0.0007834883, -1330340.9, 364807.84, 0.000009398705, 10.003248, 9.998744 
2.8155944e+3, 1.3702284e+2, -1262577.1, -1598774.3, 28597.572, -0.06933182, -0.09813274, -1260161.9, 337008.34, 0.0000021889277, 10.003096, 9.998633 
2.815539e+3, 1.4702141e+2, -1227027.0, -1550524.4, 83690.984, -0.07582804, -0.07601049, -1206658.0, 292527.6, 0.00000016251443, 10.002755, 9.998453 
2.8154853e+3, 1.5702048e+2, -1183217.1, -1468293.5, 75803.984, 0.0017956248, 0.000729053, -1164313.8, 236884.0, 0.0000000005064632, 10.00234, 9.998545 
2.8154314e+3, 1.6701919e+2, -1094614.5, -1310289.9, 102737.28, 0.029630553, 0.00073743943, -1053509.5, 249700.47, 0.0, 10.002001, 9.999118 
2.8153774e+3, 1.7701776e+2, -1047166.2, -1248337.0, 110573.23, 0.027140856, -0.035532746, -998272.94, 206948.97, 0.0, 10.001705, 9.999014 
2.815324e+3, 1.8701631e+2, -996738.44, -1194452.9, 140819.42, 0.029808817, -0.05335426, -923540.9, 183694.97, 0.0, 10.0014715, 9.998822 
2.8152707e+3, 1.9701488e+2, -931773.5, -1118959.5, 145257.14, 0.038245507, -0.060828935, -852568.1, 156682.11, 0.0, 10.001273, 9.998763 
2.8152177e+3, 2.0701368e+2, -880415.5, -1042707.4, 143620.42, 0.07507776, -0.03866263, -796602.4, 114659.81, 0.0, 10.000951, 9.998769 
2.815165e+3, 2.1701263e+2, -837207.7, -969050.44, 131363.33, 0.121541075, -0.004365593, -756153.06, 57119.77, 0.0, 10.000565, 9.998788 
2.8151116e+3, 2.2701122e+2, -757227.25, -843658.44, 130498.055, 0.10222757, -0.026502103, -662975.3, 52311.082, 0.0, 10.000285, 9.99911 
2.8150576e+3, 2.3700967e+2, -696808.7, -770326.5, 143898.73, 0.05595209, -0.07341942, -585048.0, 32252.9, 0.0, 10.000056, 9.999051 
2.815004e+3, 2.4700876e+2, -644363.56, -690205.6, 121754.016, 0.064105175, -0.05528674, -543391.9, -24081.076, 0.0, 9.999725, 9.999087 
2.81495e+3, 2.5700817e+2, -599864.94, -615212.94, 107624.89, 0.08889252, -0.006041432, -499640.8, -78322.93, 0.0, 9.999346, 9.999113 
2.8148952e+3, 2.6700738e+2, -515650.94, -484643.0, 79417.445, 0.038420677, 0.0024436796, -419230.3, -95904.12, 0.0, 9.999082, 9.999463 
2.8148395e+3, 2.7700657e+2, -450516.8, -405205.38, 83617.89, -0.027262133, -0.011008844, -341228.34, -115893.36, 0.0, 9.998868, 9.999439 
2.8147846e+3, 2.8700584e+2, -392162.13, -305122.16, 48472.79, -0.0031704535, -0.019070413, -283499.22, -156156.1, 0.0, 9.9985, 9.999632 
2.814729e+3, 2.9700536e+2, -374650.4, -267650.44, 58577.83, 0.011222761, -0.01252205, -241818.14, -212468.8, 0.0, 9.99804, 9.999439 
2.8146732e+3, 3.0700576e+2, -385768.97, -289433.2, 53005.113, -0.07593771, 0.12514815, -265979.25, -265979.25, 0.0, 9.997803, 9.99907 
2.8146178e+3, 3.1700367e+2, -199795.52, 154001.31, -82565.14, -0.066709206, 0.0036598223, 172320.84, 172320.84, 0.0, 9.997553, 10.002238 
2.8256541e+3, 1.2708172e+2, -1395514.1, -1687905.5, 29844.393, 0.03316879, -0.007614624, -1392499.0, 302096.4, 0.000000966965, 10.002747, 9.998861 
2.8255972e+3, 1.3707963e+2, -1299790.4, -1602485.0, 26239.563, -0.05470925, -0.08614672, -1297532.6, 299081.34, 0.000000116965474, 10.00278, 9.998759 
2.8255415e+3, 1.4707825e+2, -1256518.6, -1551141.8, 78759.086, -0.059920743, -0.070537604, -1236786.3, 261842.39, 0.0000000014119189, 10.002497, 9.998573 
2.8254873e+3, 1.5707725e+2, -1213378.5, -1471182.3, 92636.664, 0.006863696, -0.011605975, -1183544.0, 217097.11, 0.0, 10.002085, 9.998648 
2.825433e+3, 1.6707608e+2, -1115024.4, -1319789.3, 123215.58, 0.030636417, -0.00420688, -1057206.1, 245446.44, 0.0, 10.001862, 9.99912 
2.8253788e+3, 1.7707485e+2, -1041614.9, -1242582.3, 117029.6, 0.027253384, -0.021231426, -987849.06, 216814.4, 0.0, 10.001732, 9.99904 
2.825325e+3, 1.8707348e+2, -990819.6, -1180766.0, 136776.52, 0.02737852, -0.036238927, -919276.4, 187399.9, 0.0, 10.001468, 9.998917 
2.8252718e+3, 1.970721e+2, -944928.7, -1115498.9, 135358.1, 0.031972215, -0.049422085, -870228.25, 138461.48, 0.0, 10.0011425, 9.998849 
2.8252184e+3, 2.0707086e+2, -890480.06, -1045083.0, 145139.06, 0.07081823, -0.03658726, -803340.5, 107361.59, 0.0, 10.000873, 9.998789 
2.8251654e+3, 2.1706972e+2, -825584.3, -959128.75, 154308.67, 0.12295753, -0.0117342, -724220.56, 88492.945, 0.0, 10.000628, 9.998824 
2.8251117e+3, 2.2706842e+2, -740795.25, -826391.06, 144309.52, 0.10592637, -0.029125748, -633071.06, 81654.81, 0.0, 10.0003605, 9.999191 
2.8250575e+3, 2.3706704e+2, -689153.7, -758750.0, 131835.33, 0.060180034, -0.0662682, -587601.3, 29137.076, 0.0, 10.000076, 9.99912 
2.8250036e+3, 2.4706607e+2, -635618.94, -687279.6, 115088.21, 0.06305673, -0.055139698, -543498.0, -24749.541, 0.0, 9.999792, 9.999074 
2.8249493e+3, 2.5706533e+2, -577967.25, -605252.94, 125029.266, 0.0802984, -0.019585773, -465838.7, -45081.766, 0.0, 9.9995, 9.999105 
2.8248942e+3, 2.6706454e+2, -488022.72, -470787.16, 101659.516, 0.035033546, -0.0119569525, -377380.8, -54615.39, 0.0, 9.99927, 9.999467 
2.8248388e+3, 2.7706376e+2, -422265.53, -392439.56, 95155.36, -0.019387405, -0.020899024, -311035.7, -86261.83, 0.0, 9.999066, 9.999431 
2.8247833e+3, 2.8706306e+2, -345045.1, -294629.8, 50018.46, -0.0071851797, -0.021957528, -263826.1, -137044.0, 0.0, 9.9988785, 9.999521 
2.824727e+3, 2.9706252e+2, -285607.75, -233393.92, 55359.73, -0.013408357, -0.006591623, -198294.05, -169505.42, 0.0, 9.998692, 9.999359 
2.8246713e+3, 3.070627e+2, -315446.66, -255748.11, 77768.52, -0.0468723, 0.10632417, -202297.19, -202297.19, 0.0, 9.998288, 9.999066 
2.8246152e+3, 3.1706062e+2, -174039.22, 144599.52, -51838.777, -0.06516542, -0.0091848895, 152820.94, 152820.94, 0.0, 9.997827, 10.00204 
2.8356558e+3, 1.271381e+2, -1396650.1, -1701030.6, 31863.922, -0.048692666, -0.05193406, -1393350.3, 300692.06, 0.000000016734337, 10.002792, 9.99875 
2.8356004e+3, 1.3713674e+2, -1303134.8, -1604240.0, 24929.78, 0.017335407, -0.045020025, -1301084.6, 294970.47, 0.00000000000042985277, 10.002757, 9.998759 
2.8355446e+3, 1.4713551e+2, -1232464.6, -1497689.3, 63353.023, 0.0027131424, -0.037589684, -1218108.8, 279959.16, 0.0, 10.0024805, 9.998948 
2.835489e+3, 1.5713437e+2, -1191947.0, -1430982.1, 78693.164, -0.0142926555, -0.02952722, -1168366.5, 231713.97, 0.0, 10.002102, 9.998916 
2.8354347e+3, 1.6713317e+2, -1125322.9, -1344624.6, 117728.24, -0.00078380294, -0.025454499, -1074091.0, 228001.77, 0.0, 10.001875, 9.998943 
2.8353804e+3, 1.7713195e+2, -1051457.8, -1262451.3, 110443.94, 0.020133767, -0.022915471, -1004221.3, 199883.42, 0.0, 10.001728, 9.998905 
2.8353268e+3, 1.8713084e+2, -990084.7, -1179241.5, 124402.6, 0.03741848, -0.008827872, -928390.6, 177725.0, 0.0, 10.001467, 9.998928 
2.8352728e+3, 1.9712977e+2, -938448.4, -1103635.5, 123771.12, 0.054477677, 0.008813272, -872243.44, 135882.36, 0.0, 10.001148, 9.998928 
2.8352192e+3, 2.071283e+2, -868849.06, -1001016.75, 135801.52, 0.06938848, -0.025677495, -783906.0, 126233.57, 0.0, 10.0008745, 9.99909 
2.835166e+3, 2.1712665e+2, -812838.4, -932149.0, 144493.3, 0.08203631, -0.080745704, -716170.06, 95984.52, 0.0, 10.000625, 9.999012 
2.835112e+3, 2.2712567e+2, -759504.8, -865516.56, 133489.39, 0.09099962, -0.05652228, -668882.56, 45281.844, 0.0, 10.0003605, 9.998923 
2.835058e+3, 2.37125e+2, -698929.94, -779728.8, 121080.445, 0.099930584, 0.00090206496, -611686.94, 4484.744, 0.0, 10.000078, 9.998976 
2.835003e+3, 2.4712378e+2, -614118.25, -643111.7, 104192.77, 0.07756603, -0.025425097, -523418.53, -5235.0527, 0.0, 9.999793, 9.999377 
2.8349483e+3, 2.5712237e+2, -562713.8, -574239.2, 114633.6, 0.03382936, -0.08588976, -453698.13, -33501.418, 0.0, 9.999502, 9.999318 
2.8348932e+3, 2.6712188e+2, -497000.56, -490369.63, 94118.734, 0.018628139, -0.04845297, -399507.97, -77305.6, 0.0, 9.999272, 9.999332 
2.834838e+3, 2.771218e+2, -431170.22, -411926.22, 87321.75, 0.035282243, 0.029152574, -333697.94, -109493.28, 0.0, 9.999069, 9.999296 
2.834782e+3, 2.8712073e+2, -358267.03, -323277.7, 43078.453, 0.0064753466, 0.0050400468, -294277.03, -168060.13, 0.0, 9.998882, 9.999323 
2.8347248e+3, 2.971193e+2, -286171.47, -237093.3, 46122.223, -0.09499712, -0.05307747, -209388.47, -181156.42, 0.0, 9.998701, 9.99933 
2.8346696e+3, 3.0711973e+2, -268351.84, -159794.05, 58055.438, -0.024293426, 0.052133817, -134595.7, -134595.7, 0.0, 9.998293, 9.999724 
2.834613e+3, 3.1711867e+2, -254509.53, -19338.879, -39914.035, -0.05007144, -0.009829444, -12749.171, -12749.171, 0.0, 9.997816, 10.0009165 
2.8456584e+3, 1.2719525e+2, -1360369.6, -1681388.9, 35895.402, -0.06295769, -0.05300801, -1356404.9, 337076.94, 0.0, 10.003033, 9.998768 
2.845603e+3, 1.3719387e+2, -1410076.8, -1650407.9, 40866.438, 0.035801895, -0.05147374, -1403317.9, 192177.58, 0.0, 10.002, 9.998806 
2.8455466e+3, 1.4719275e+2, -1313532.1, -1523440.3, 86549.92, 0.017098283, -0.04189568, -1282448.6, 215058.48, 0.0, 10.001868, 9.999066 
2.845491e+3, 1.5719177e+2, -1181064.1, -1416734.5, 83443.25, -0.020012556, -0.029542409, -1154511.3, 245006.4, 0.0, 10.002139, 9.998995 
2.8454363e+3, 1.6719058e+2, -1124968.3, -1354453.3, 112860.516, -0.0036197032, -0.021001764, -1078765.6, 222764.63, 0.0, 10.001924, 9.998851 
2.845382e+3, 1.7718934e+2, -1088415.6, -1284829.0, 112104.14, 0.029860057, -0.013797567, -1037585.8, 165957.52, 0.0, 10.001496, 9.998862 
2.845328e+3, 1.8718824e+2, -1006257.4, -1175304.3, 135020.06, 0.044354323, -0.0034641426, -931486.6, 174067.31, 0.0, 10.0013075, 9.999031 
2.845274e+3, 1.971872e+2, -921864.25, -1085857.5, 138770.11, 0.05290664, 0.0074459976, -842675.94, 164887.55, 0.0, 10.001222, 9.999014 
2.84522e+3, 2.0718578e+2, -862984.5, -997383.44, 133671.14, 0.06538363, -0.022718497, -780572.0, 129004.61, 0.0, 10.000914, 9.999096 
2.845166e+3, 2.1718423e+2, -827062.4, -934633.8, 123210.414, 0.077516206, -0.069843315, -746409.56, 65181.516, 0.0, 10.00051, 9.999049 
2.845112e+3, 2.271833e+2, -763544.4, -854779.2, 127801.58, 0.08541145, -0.048795238, -673462.9, 40137.273, 0.0, 10.000279, 9.999036 
2.8450578e+3, 2.3718268e+2, -686566.56, -763101.25, 141311.72, 0.09453499, 0.0020397117, -578432.44, 37174.203, 0.0, 10.000118, 9.999069 
2.845003e+3, 2.4718149e+2, -603632.5, -635910.9, 115525.84, 0.077711046, -0.026274744, -503123.94, 14494.126, 0.0, 9.999858, 9.999395 
2.844948e+3, 2.571801e+2, -554069.2, -566526.8, 106227.95, 0.04111858, -0.08757525, -453887.56, -34256.34, 0.0, 9.999548, 9.999349 
2.8448924e+3, 2.6717967e+2, -480444.16, -476972.03, 92989.28, 0.023625532, -0.049811184, -385702.6, -64066.28, 0.0, 9.999365, 9.999379 
2.844837e+3, 2.7717963e+2, -406192.9, -397357.2, 98559.25, 0.035641305, 0.028944235, -303116.8, -79478.914, 0.0, 9.999231, 9.999318 
2.8447807e+3, 2.871785e+2, -345542.7, -327217.9, 62987.984, 0.004708868, 0.005315049, -272729.4, -147078.83, 0.0, 9.999015, 9.999231 
2.8447235e+3, 2.9717696e+2, -275575.25, -231481.48, 73885.49, -0.10130132, -0.05293517, -176423.69, -148757.02, 0.0, 9.998774, 9.999332 
2.844668e+3, 3.0717748e+2, -171329.67, -79102.125, 70247.29, -0.021072486, 0.04232874, -41185.18, -41185.18, 0.0, 9.998816, 10.000026 
2.8446108e+3, 3.1717685e+2, -152419.66, -52771.93, -59446.867, -0.068838835, 0.002256605, -25030.674, -25030.674, 0.0, 9.998876, 10.000175 
2.8556615e+3, 1.2725309e+2, -1360974.1, -1669069.5, -4829.156, -0.02908066, -0.021860704, -1360898.5, 332016.75, 0.0, 10.002974, 9.998881 
2.8556046e+3, 1.3725105e+2, -1395863.3, -1635334.5, 11500.635, 0.011565131, -0.09608284, -1395312.3, 199622.3, 0.0, 10.002062, 9.99888 
2.855548e+3, 1.4725001e+2, -1312744.9, -1533765.4, 96458.91, -0.0058173924, -0.07509337, -1276569.0, 220376.44, 0.0, 10.001918, 9.998972 
2.8554928e+3, 1.5724944e+2, -1187708.3, -1428598.1, 87595.04, -0.01270396, -0.0141924145, -1159224.1, 239728.56, 0.0, 10.0021305, 9.998919 
2.8554383e+3, 1.6724831e+2, -1128168.5, -1359021.8, 96144.625, 0.01649717, 0.0048913476, -1093371.8, 207593.19, 0.0, 10.001913, 9.998825 
2.8553835e+3, 1.7724696e+2, -1084905.3, -1280126.8, 98716.99, 0.052915063, 0.0045462092, -1043689.06, 159290.05, 0.0, 10.001507, 9.99889 
2.8553292e+3, 1.8724565e+2, -992922.7, -1149029.1, 131955.27, 0.04801467, -0.018022351, -917664.1, 187327.13, 0.0, 10.001312, 9.99921 
2.855275e+3, 1.9724439e+2, -917382.5, -1074801.6, 132777.5, 0.029151438, -0.047735885, -841738.4, 165263.9, 0.0, 10.001213, 9.999094 
2.8552207e+3, 2.0724335e+2, -882790.3, -1037922.3, 118208.57, 0.05971766, -0.025558198, -818971.2, 90041.69, 0.0, 10.00091, 9.998819 
2.8551668e+3, 2.1724245e+2, -833627.4, -949175.4, 110431.85, 0.10765849, 0.016566556, -766769.8, 44253.375, 0.0, 10.000513, 9.998948 
2.855112e+3, 2.2724131e+2, -729982.4, -785899.25, 122123.25, 0.08739996, -0.00949539, -632658.06, 80375.23, 0.0, 10.000281, 9.999508 
2.8550574e+3, 2.3724008e+2, -664748.6, -718057.9, 134090.31, 0.042872973, -0.062639564, -554689.4, 60353.74, 0.0, 10.000118, 9.999379 
2.8550026e+3, 2.472392e+2, -622563.1, -675776.94, 103648.516, 0.064661436, -0.05546835, -542160.94, -25108.824, 0.0, 9.999859, 9.999122 
2.8549477e+3, 2.572385e+2, -564722.6, -589384.44, 95648.4, 0.1037607, -0.022084992, -480613.56, -61553.164, 0.0, 9.99955, 9.999191 
2.8548917e+3, 2.672378e+2, -463988.2, -443359.97, 88074.71, 0.04912305, -0.016342217, -364997.5, -43930.09, 0.0, 9.999366, 9.99961 
2.8548354e+3, 2.7723715e+2, -393097.53, -370728.1, 92029.34, -0.02241424, -0.024746187, -289206.3, -66132.375, 0.0, 9.999232, 9.999501 
2.8547797e+3, 2.8723633e+2, -344182.97, -324323.44, 53865.01, -0.011740496, -0.022555828, -279480.6, -154397.39, 0.0, 9.999013, 9.999253 
2.8547227e+3, 2.9723564e+2, -274373.8, -228466.97, 68302.98, -0.025119197, -0.0041204276, -179363.77, -152271.69, 0.0, 9.998771, 9.999355 
2.8546664e+3, 3.0723602e+2, -178346.4, -95454.82, 77665.1, -0.047269173, 0.084235266, -48868.68, -48868.68, 0.0, 9.998823, 9.99991 
2.8546095e+3, 3.172349e+2, -162501.02, -80468.27, -105870.555, -0.08461925, 0.0063640308, -7946.4673, -7946.4673, 0.0, 9.998899, 9.999977 
2.8656644e+3, 1.2731068e+2, -1520660.8, -1737665.0, 1834.5099, 0.01307325, -0.020823631, -1520645.3, 171706.06, 0.0, 10.001842, 9.998957 
2.8656065e+3, 1.3730884e+2, -1311303.6, -1588880.1, 13559.748, -0.01885259, -0.08271887, -1310642.8, 283726.1, 0.0, 10.002619, 9.99893 
2.86555e+3, 1.4730777e+2, -1254200.4, -1513819.5, 90533.84, -0.023092968, -0.06400433, -1225747.8, 270632.2, 0.0, 10.0023575, 9.998896 
2.865495e+3, 1.5730703e+2, -1258472.8, -1466900.6, 83980.87, 0.019025344, -0.011338064, -1228846.0, 169542.34, 0.0, 10.001664, 9.998879 
2.86544e+3, 1.6730586e+2, -1184508.9, -1378639.9, 99908.766, 0.040079437, 0.0015914976, -1142278.0, 158122.94, 0.0, 10.001495, 9.998891 
2.865385e+3, 1.7730454e+2, -1073640.9, -1266593.1, 107073.664, 0.045396876, -0.003290021, -1025990.6, 176424.31, 0.0, 10.00155, 9.998961 
2.8653303e+3, 1.8730336e+2, -993908.5, -1141397.8, 133544.73, 0.044925082, -0.02006205, -915099.94, 189325.95, 0.0, 10.001271, 9.999281 
2.8652757e+3, 1.9730225e+2, -963981.9, -1088460.9, 128297.36, 0.044139568, -0.040616754, -883624.1, 122811.29, 0.0, 10.000857, 9.999171 
2.8652215e+3, 2.0730127e+2, -908340.06, -1041976.75, 129832.45, 0.06550066, -0.020137547, -829140.75, 79304.88, 0.0, 10.000702, 9.998892 
2.865167e+3, 2.1730039e+2, -807681.8, -926369.1, 145144.5, 0.09430659, 0.017282758, -710217.94, 100237.94, 0.0, 10.0006485, 9.999039 
2.8651124e+3, 2.2729936e+2, -706397.9, -760418.06, 145052.27, 0.077381015, -0.007659107, -585862.4, 126602.36, 0.0, 10.000385, 9.999632 
2.865057e+3, 2.372983e+2, -669626.94, -708475.9, 133446.31, 0.04502747, -0.05872024, -554198.8, 60274.19, 0.0, 10.000036, 9.999484 
2.8650022e+3, 2.4729745e+2, -622416.6, -677529.94, 110155.04, 0.06298104, -0.050104596, -536423.75, -19942.06, 0.0, 9.999869, 9.9991045 
2.864947e+3, 2.5729674e+2, -535088.4, -574971.4, 120190.01, 0.09282986, -0.014402311, -433196.78, -14706.544, 0.0, 9.999754, 9.999191 
2.864891e+3, 2.6729608e+2, -437779.38, -423314.53, 108897.72, 0.04395612, -0.009878755, -321409.3, -912.40955, 0.0, 9.999516, 9.999676 
2.8648347e+3, 2.7729547e+2, -392591.16, -363869.97, 100467.56, -0.015819123, -0.021226116, -276741.84, -54239.02, 0.0, 9.99921, 9.9995575 
2.8647786e+3, 2.8729466e+2, -318582.4, -313042.9, 63496.582, 0.0041456195, -0.021768732, -252255.7, -127743.49, 0.0, 9.999196, 9.999241 
2.8647217e+3, 2.9729387e+2, -190991.44, -188566.39, 74307.37, -0.0011634155, -0.006077224, -115461.65, -88940.06, 0.0, 9.999347, 9.999351 
2.864665e+3, 3.0729425e+2, -137508.03, -86203.99, 84234.74, -0.06523251, 0.082885176, -23801.943, -23801.943, 0.0, 9.999151, 9.999814 
2.8646085e+3, 3.17293e+2, -130456.47, -49792.117, -91959.17, -0.07336811, 0.0013716874, 10290.715, 10290.715, 0.0, 9.999055, 10.000112 
2.8756666e+3, 1.2736817e+2, -1510770.5, -1727518.8, 30704.834, 0.061425645, -0.041273795, -1506504.8, 185284.33, 0.0, 10.001885, 9.999005 
2.8756085e+3, 1.3736717e+2, -1311185.5, -1585691.6, 29731.41, -0.055775605, -0.022724599, -1308002.3, 285796.47, 0.0, 10.002605, 9.998959 
2.875552e+3, 1.4736593e+2, -1260729.1, -1524245.0, 62870.617, -0.036643166, -0.018272584, -1246497.8, 249313.36, 0.0, 10.002343, 9.998832 
2.875497e+3, 1.5736458e+2, -1257815.3, -1468187.8, 64048.023, 0.07031478, -0.019368997, -1239850.0, 157974.52, 0.0, 10.001675, 9.998865 
2.8754416e+3, 1.6736332e+2, -1173473.8, -1358339.1, 102545.85, 0.066003606, -0.02613982, -1127850.5, 171987.2, 0.0, 10.001506, 9.999026 
2.875386e+3, 1.7736208e+2, -1066996.9, -1252234.1, 105309.85, 0.0113343755, -0.033655662, -1019371.5, 182479.05, 0.0, 10.001547, 9.999062 
2.8753313e+3, 1.8736133e+2, -996365.25, -1145718.6, 117532.9, 0.03647472, -0.010419054, -931791.8, 172066.14, 0.0, 10.001267, 9.999253 
2.875277e+3, 1.9736075e+2, -958882.75, -1077930.4, 115865.49, 0.09392285, 0.022813927, -888145.7, 117717.625, 0.0, 10.000857, 9.999244 
2.8752223e+3, 2.0735952e+2, -881129.7, -985623.75, 128238.945, 0.08037966, -0.008519305, -794903.0, 112972.06, 0.0, 10.000701, 9.999279 
2.875167e+3, 2.173581e+2, -790315.7, -889631.94, 140515.97, 0.038408373, -0.06307144, -690941.4, 118947.69, 0.0, 10.000645, 9.999293 
2.8751123e+3, 2.273575e+2, -721415.7, -791630.06, 131463.05, 0.057143375, -0.039703727, -620452.9, 91441.49, 0.0, 10.000384, 9.999418 
2.8750578e+3, 2.3735729e+2, -675889.2, -722038.8, 122640.17, 0.10083138, 0.013173743, -574171.94, 39724.31, 0.0, 10.000037, 9.999391 
2.875002e+3, 2.4735622e+2, -605919.75, -643900.0, 106114.8, 0.07060723, -0.012310134, -517109.25, -1202.394, 0.0, 9.99987, 9.999335 
2.8749457e+3, 2.5735483e+2, -524239.9, -553328.0, 114656.6, 0.0047706855, -0.06689053, -423208.6, -5287.6978, 0.0, 9.999757, 9.999339 
2.87489e+3, 2.673545e+2, -445362.28, -439659.53, 97318.805, 0.00865178, -0.029697808, -345150.3, -25225.56, 0.0, 9.9995165, 9.999563 
2.8748345e+3, 2.773546e+2, -398382.3, -376583.6, 90719.59, 0.059171345, 0.043203555, -296110.97, -74186.59, 0.0, 9.999211, 9.999471 
2.8747782e+3, 2.8735337e+2, -321927.84, -320974.72, 69793.945, 0.051411055, 0.009016871, -251655.7, -127718.05, 0.0, 9.9992, 9.999186 
2.8747207e+3, 2.973517e+2, -192286.25, -193492.23, 75160.25, -0.036871385, -0.062077034, -117726.57, -91770.84, 0.0, 9.999356, 9.999312 
2.874664e+3, 3.0735213e+2, -144493.52, -98828.94, 71018.43, -0.0682505, 0.037512336, -47062.76, -47062.76, 0.0, 9.999145, 9.99973 
2.8746074e+3, 3.173512e+2, -94941.16, 25076.455, -31393.928, -0.06042474, -0.009906839, 32792.35, 32792.35, 0.0, 9.999048, 10.00063 
2.8856683e+3, 1.2742577e+2, -1491548.9, -1714765.5, 33515.61, 0.05509127, -0.028464869, -1486625.1, 204600.19, 0.0, 10.002003, 9.999037 
2.8856108e+3, 1.3742496e+2, -1399124.0, -1620253.5, 24742.08, -0.030405354, 0.002629497, -1396389.4, 196844.38, 0.0, 10.001968, 9.999028 
2.885554e+3, 1.474237e+2, -1326141.9, -1537903.0, 45046.3, -0.014954914, -0.006641798, -1316957.9, 178287.84, 0.0, 10.001818, 9.99899 
2.8854984e+3, 1.5742227e+2, -1255695.0, -1451568.8, 63395.06, 0.074191384, -0.03177577, -1236967.5, 160291.56, 0.0, 10.001622, 9.999004 
2.885443e+3, 1.6742115e+2, -1176063.1, -1351976.3, 113380.14, 0.069493696, -0.034291726, -1120522.6, 178748.3, 0.0, 10.001455, 9.999094 
2.8853875e+3, 1.7742014e+2, -1099049.5, -1259084.0, 109541.2, 0.020881493, -0.0267391, -1043412.7, 157869.08, 0.0, 10.00129, 9.999138 
2.8853324e+3, 1.8741943e+2, -1026597.0, -1150831.8, 116683.84, 0.045542847, -0.0052671335, -956526.3, 146762.38, 0.0, 10.00102, 9.999337 
2.885278e+3, 1.9741887e+2, -972365.0, -1072057.8, 124293.85, 0.10089102, 0.020469064, -888294.9, 116999.055, 0.0, 10.000711, 9.999354 
2.8852227e+3, 2.0741782e+2, -893734.94, -969351.6, 136792.03, 0.0858679, -0.009538441, -789622.44, 117681.45, 0.0, 10.000519, 9.999479 
2.8851673e+3, 2.1741661e+2, -818393.44, -885167.3, 135267.28, 0.041749123, -0.06048157, -712453.7, 96861.74, 0.0, 10.000376, 9.999453 
2.8851122e+3, 2.2741613e+2, -741221.2, -798999.3, 129590.12, 0.055266123, -0.035046328, -637339.1, 73981.016, 0.0, 10.00024, 9.999437 
2.8850576e+3, 2.3741594e+2, -663250.3, -711119.9, 138023.36, 0.09414415, 0.020753836, -547101.8, 66220.21, 0.0, 10.000105, 9.999433 
2.8850016e+3, 2.4741498e+2, -582065.94, -621635.5, 122399.26, 0.06730044, -0.001248161, -477862.75, 37469.047, 0.0, 9.99999, 9.999429 
2.8849456e+3, 2.5741372e+2, -497178.6, -529407.56, 120976.625, 0.007104929, -0.05281492, -391247.9, 26096.736, 0.0, 9.9999, 9.999433 
2.8848895e+3, 2.6741335e+2, -425170.3, -431885.13, 98575.76, 0.006878147, -0.020435862, -329894.8, -10546.171, 0.0, 9.999667, 9.999542 
2.8848335e+3, 2.7741337e+2, -390735.47, -376336.38, 99367.73, 0.052280415, 0.044461966, -283907.72, -62558.47, 0.0, 9.999281, 9.999437 
2.8847775e+3, 2.8741223e+2, -307176.34, -340603.84, 98735.66, 0.06895191, 0.0325638, -223749.78, -100387.81, 0.0, 9.999421, 9.998942 
2.8847206e+3, 2.9741064e+2, -117207.52, -181376.83, 85408.92, 0.012942725, -0.004137028, -58055.62, -32676.277, 0.0, 9.999981, 9.999093 
2.8846633e+3, 3.074101e+2, -30973.44, -78538.91, 45685.26, -0.07055673, 0.024669684, -3251.206, -3251.206, 0.0, 10.000075, 9.999422 
2.8846067e+3, 3.174094e+2, 22644.162, 18744.576, -2714.1958, -0.08296692, 0.035452038, 24036.309, 24036.309, 0.0, 10.000127, 10.00007 
2.8956696e+3, 1.2748353e+2, -1486440.8, -1710938.0, 33046.543, 0.0078044026, 0.008793292, -1481677.4, 208982.83, 0.0, 10.002032, 9.999048 
2.8956133e+3, 1.3748235e+2, -1395000.3, -1607420.0, 23125.473, 0.04455018, 0.00004941143, -1392511.8, 200160.77, 0.0, 10.001949, 9.9991255 
2.8955564e+3, 1.474812e+2, -1304475.8, -1490463.6, 38021.043, 0.033692006, -0.02181266, -1297003.4, 197679.36, 0.0, 10.001806, 9.999322 
2.8954998e+3, 1.574801e+2, -1236212.9, -1413555.1, 56636.656, 0.0384345, -0.04719539, -1219668.6, 177023.63, 0.0, 10.001632, 9.999261 
2.895444e+3, 1.6747929e+2, -1174175.1, -1349698.1, 107140.2, 0.054784432, -0.025941076, -1123440.8, 175260.1, 0.0, 10.001461, 9.999106 
2.895389e+3, 1.7747863e+2, -1095906.8, -1251648.3, 101928.32, 0.06764213, 0.012175649, -1045507.3, 155201.66, 0.0, 10.001286, 9.999191 
2.8953335e+3, 1.8747768e+2, -1014334.7, -1125424.9, 104688.09, 0.06857895, -0.004803549, -951368.75, 151349.23, 0.0, 10.0010195, 9.999513 
2.895278e+3, 1.9747666e+2, -962027.25, -1051957.4, 113911.36, 0.06819051, -0.041256387, -884527.4, 120199.61, 0.0, 10.000716, 9.99949 
2.895223e+3, 2.0747617e+2, -891291.9, -965532.3, 131105.39, 0.08393075, -0.020812957, -792153.0, 114578.98, 0.0, 10.000524, 9.999503 
2.895168e+3, 2.174759e+2, -813147.9, -874490.2, 129834.09, 0.10149546, 0.020044003, -710411.3, 98324.04, 0.0, 10.000376, 9.999527 
2.8951126e+3, 2.2747518e+2, -724454.44, -764533.6, 124345.48, 0.069060266, 0.003034833, -618544.06, 92198.12, 0.0, 10.000241, 9.999674 
2.8950566e+3, 2.3747429e+2, -651733.4, -687464.94, 132609.73, 0.023973659, -0.03514449, -535791.3, 76958.92, 0.0, 10.000106, 9.999595 
2.8950015e+3, 2.4747378e+2, -585252.2, -628456.3, 118577.26, 0.054934565, -0.014868335, -486325.38, 28430.994, 0.0, 9.999991, 9.999382 
2.894946e+3, 2.5747344e+2, -494401.22, -524531.5, 117390.18, 0.10222129, 0.029720934, -391113.44, 25647.97, 0.0, 9.999903, 9.999465 
2.894889e+3, 2.674727e+2, -419891.03, -422410.25, 84191.54, 0.037203107, 0.017473916, -336949.7, -18181.018, 0.0, 9.999671, 9.999606 
2.894832e+3, 2.7747172e+2, -388505.78, -373323.06, 86002.09, -0.042838745, -0.022456389, -294577.94, -73799.93, 0.0, 9.999287, 9.999456 
2.8947765e+3, 2.874712e+2, -338323.4, -404028.94, 120817.05, 0.057631955, 0.049097415, -245972.08, -123186.88, 0.0, 9.999418, 9.998507 
2.894722e+3, 2.9747084e+2, -146395.3, -240946.28, 102851.33, 0.15595996, 0.17512363, -80474.63, -55682.79, 0.0, 9.999978, 9.998684 
2.8946632e+3, 3.0746803e+2, -68269.555, -158311.0, 38596.145, -0.07758422, 0.02870223, -53989.953, -53989.953, 0.0, 10.000086, 9.998868 
2.8946063e+3, 3.17468e+2, -106145.88, -254665.38, 77815.61, -0.12823138, 0.18196176, -72842.73, -72842.73, 0.0, 10.000154, 9.998179 
2.9056713e+3, 1.2754115e+2, -1481993.6, -1699296.5, 29973.299, -0.0036028347, 0.011741025, -1477935.1, 212160.47, 0.0, 10.002021, 9.999133 
2.9056153e+3, 1.3753995e+2, -1477115.1, -1634671.9, 29651.91, 0.07852281, -0.0077159046, -1471719.5, 120388.9, 0.0, 10.001332, 9.999236 
2.905558e+3, 1.47539e+2, -1362484.4, -1500328.5, 51369.715, 0.055327363, -0.02404141, -1345446.5, 148670.06, 0.0, 10.001329, 9.999484 
2.9055008e+3, 1.5753818e+2, -1235506.1, -1398584.1, 56367.105, 0.025260769, -0.038007714, -1217919.8, 178203.69, 0.0, 10.001574, 9.9993925 
2.9054454e+3, 1.6753748e+2, -1185984.5, -1350513.4, 94651.586, 0.047783103, -0.014991917, -1142844.1, 155287.0, 0.0, 10.001359, 9.99915 
2.9053903e+3, 1.7753682e+2, -1137415.6, -1264049.6, 92594.02, 0.082820825, 0.020868577, -1088560.0, 111579.164, 0.0, 10.000967, 9.999261 
2.9053342e+3, 1.8753591e+2, -1030216.3, -1117452.9, 97847.52, 0.07701501, -0.0022772232, -966705.25, 135442.28, 0.0, 10.000842, 9.999653 
2.9052785e+3, 1.9753496e+2, -940282.8, -1028664.3, 104403.3, 0.0588144, -0.046399742, -871103.06, 133052.58, 0.0, 10.00081, 9.999605 
2.9052234e+3, 2.0753461e+2, -880961.6, -954506.9, 119845.74, 0.07722146, -0.019878311, -792373.9, 113785.625, 0.0, 10.000567, 9.999558 
2.9051685e+3, 2.1753453e+2, -825906.8, -871790.8, 122142.89, 0.10557986, 0.033244923, -724570.0, 83591.41, 0.0, 10.00025, 9.999606 
2.9051125e+3, 2.2753389e+2, -726606.25, -746506.25, 118033.0, 0.06968733, 0.011064898, -618104.6, 92062.92, 0.0, 10.000144, 9.999845 
2.9050568e+3, 2.3753303e+2, -639252.56, -664073.7, 120753.445, 0.016216723, -0.03938631, -530273.6, 81901.56, 0.0, 10.000116, 9.99975 
2.9050013e+3, 2.475328e+2, -583261.56, -604427.7, 114033.9, 0.05302071, -0.008251213, -479320.7, 34858.004, 0.0, 9.999907, 9.999588 
2.904946e+3, 2.5753286e+2, -525313.56, -516339.63, 132154.13, 0.11105455, 0.05612041, -388596.3, 27583.762, 0.0, 9.999593, 9.99967 
2.9048887e+3, 2.675323e+2, -411898.75, -394628.88, 111655.21, 0.04417343, 0.03626518, -291275.2, 26911.037, 0.0, 9.999626, 9.999818 
2.9048312e+3, 2.7753133e+2, -284814.03, -291818.56, 122397.04, -0.04022656, -0.02100307, -165869.17, 54325.99, 0.0, 9.999869, 9.999731 
2.9047748e+3, 2.8753132e+2, -485265.4, -380066.25, 167276.06, 0.035737757, 0.046685938, -257314.78, -135118.27, 0.0, 9.998011, 9.999344 
2.9156733e+3, 1.275987e+2, -1476675.8, -1680155.8, 3418.383, 0.011197797, -0.010367707, -1476618.4, 212913.06, 0.0, 10.001987, 9.999281 
2.9156163e+3, 1.3759774e+2, -1466490.0, -1616127.6, 13403.576, 0.07911741, -0.018826447, -1465298.9, 126242.734, 0.0, 10.001347, 9.999356 
2.915559e+3, 1.4759706e+2, -1358789.0, -1495869.0, 61743.555, 0.05552445, -0.015833735, -1335079.4, 158468.44, 0.0, 10.001343, 9.999509 
2.9155025e+3, 1.5759645e+2, -1234755.9, -1394885.5, 60509.59, 0.030604262, -0.008757677, -1214462.5, 181090.39, 0.0, 10.001563, 9.999422 
2.9154465e+3, 1.6759564e+2, -1182304.9, -1341530.8, 79865.57, 0.046663683, -0.0021785265, -1149149.4, 148412.36, 0.0, 10.001352, 9.999216 
2.9153907e+3, 1.7759475e+2, -1131451.8, -1252397.6, 81903.266, 0.07030753, 0.0036654756, -1090115.4, 109456.48, 0.0, 10.000969, 9.999339 
2.915335e+3, 1.8759418e+2, -1022142.4, -1101186.8, 97292.26, 0.07319762, 0.0025862958, -956651.3, 144925.83, 0.0, 10.000843, 9.999764 
2.9152793e+3, 1.9759373e+2, -934033.4, -1014805.56, 100809.85, 0.070795424, -0.00083433563, -865820.8, 137759.45, 0.0, 10.000805, 9.999703 
2.9152235e+3, 2.0759313e+2, -875324.5, -942723.0, 107382.266, 0.06493338, -0.00851198, -796477.75, 109108.59, 0.0, 10.0005665, 9.99964 
2.915168e+3, 2.1759252e+2, -819740.2, -859760.5, 112788.83, 0.05565607, -0.016466578, -725200.25, 82392.81, 0.0, 10.000252, 9.999688 
2.9151127e+3, 2.2759227e+2, -718710.6, -730714.94, 117139.336, 0.058941633, -0.00818954, -607419.8, 102176.02, 0.0, 10.000146, 9.999952 
2.9150572e+3, 2.3759218e+2, -628447.1, -642081.9, 117811.04, 0.07051189, 0.006594857, -517256.4, 94340.414, 0.0, 10.000118, 9.999901 
2.915001e+3, 2.4759208e+2, -551439.9, -538572.44, 102350.68, 0.05947259, 0.01696328, -442453.47, 71145.445, 0.0, 9.999907, 10.000041 
2.9149446e+3, 2.5759202e+2, -499528.47, -463073.78, 122816.414, 0.029182129, 0.024691207, -357139.53, 58461.273, 0.0, 9.999593, 10.000036 
2.9148883e+3, 2.6759204e+2, -387926.47, -345258.25, 119583.24, 0.028032532, 0.03660665, -245121.0, 72480.35, 0.0, 9.999627, 10.000155 
2.9148316e+3, 2.7759218e+2, -247188.6, -216544.94, 122195.055, 0.063614525, 0.05334948, -108714.86, 110885.57, 0.0, 9.999881, 10.000244 
2.9147723e+3, 2.875926e+2, -338218.53, -79347.98, 32869.82, -0.0000010728993, 0.023262661, -75239.57, 46356.594, 0.0, 9.998021, 10.00141 
2.9256752e+3, 1.2765667e+2, -1577536.0, -1720788.8, 3547.007, 0.050804123, -0.009552507, -1577448.3, 111515.59, 0.0, 10.00126, 9.999352 
2.9256174e+3, 1.3765578e+2, -1466957.6, -1610423.5, 12655.226, 0.062220734, -0.015525788, -1465849.9, 125123.26, 0.0, 10.001317, 9.999411 
2.9255602e+3, 1.4765508e+2, -1371224.8, -1503612.9, 66492.414, 0.0439917, -0.015520834, -1343595.0, 149384.48, 0.0, 10.001264, 9.999495 
2.9255038e+3, 1.5765443e+2, -1293159.0, -1419794.6, 60793.336, 0.048457358, -0.01194076, -1268698.9, 126286.32, 0.0, 10.001146, 9.999454 
2.9254475e+3, 1.6765375e+2, -1217215.5, -1338843.9, 75558.78, 0.05845361, -0.004742778, -1181037.5, 115955.21, 0.0, 10.001026, 9.9993925 
2.9253915e+3, 1.7765306e+2, -1135267.6, -1240966.1, 86197.04, 0.06390938, 0.0033911362, -1087008.1, 111992.586, 0.0, 10.000883, 9.99946 
2.9253355e+3, 1.8765253e+2, -1044926.7, -1115580.4, 100351.4, 0.06918742, 0.0036214248, -973865.6, 127140.04, 0.0, 10.000699, 9.999736 
2.9252797e+3, 1.9765206e+2, -977160.8, -1034544.8, 94477.97, 0.07536529, 0.0009073661, -907114.2, 95895.04, 0.0, 10.000503, 9.999715 
2.925224e+3, 2.0765154e+2, -889632.56, -934849.0, 98765.07, 0.060850676, -0.0077146003, -810921.1, 94093.41, 0.0, 10.000402, 9.999774 
2.925168e+3, 2.1765104e+2, -800549.8, -837733.6, 108207.94, 0.038709126, -0.01734266, -709348.2, 97671.805, 0.0, 10.000327, 9.9998045 
2.9251125e+3, 2.2765096e+2, -724833.0, -722210.25, 113157.77, 0.057746094, -0.003259808, -610356.25, 98665.1, 0.0, 10.000052, 10.000057 
2.925057e+3, 2.3765105e+2, -677089.6, -651051.8, 114997.15, 0.09293256, 0.019268569, -548338.94, 62681.918, 0.0, 9.999719, 10.000033 
2.9250005e+3, 2.4765109e+2, -567316.4, -513164.97, 92593.08, 0.0531092, 0.021986958, -443770.1, 69251.29, 0.0, 9.999651, 10.0003395 
2.9249433e+3, 2.5765124e+2, -475013.7, -417126.53, 99965.984, -0.019525774, 0.019646166, -341998.34, 73022.67, 0.0, 9.99961, 10.000346 
2.9248875e+3, 2.6765183e+2, -419930.84, -306985.06, 104503.44, 0.03131894, 0.047158916, -244671.78, 72344.516, 0.0, 9.999172, 10.00064 
2.9248318e+3, 2.776526e+2, -388246.94, -236170.58, 118755.01, 0.14220172, 0.077610925, -171196.14, 47813.586, 0.0, 9.998696, 10.000685 
2.9247704e+3, 2.876531e+2, -75405.85, 89540.766, -77843.58, -0.048116885, 0.013793141, 120475.875, 241480.02, 0.0, 9.999627, 10.001807 
2.935677e+3, 1.2771492e+2, -1580449.4, -1720453.1, 4870.0425, 0.10844724, 0.0073931995, -1580280.3, 108113.734, 0.0, 10.001234, 9.999367 
2.9356182e+3, 1.37714e+2, -1465775.0, -1609804.8, 14289.047, 0.030903233, -0.0018099006, -1464371.1, 126032.25, 0.0, 10.001326, 9.999411 
2.935561e+3, 1.477131e+2, -1373717.1, -1510162.8, 62317.13, 0.022861736, -0.022183172, -1349539.9, 142872.05, 0.0, 10.001269, 9.999447 
2.9355052e+3, 1.5771218e+2, -1292341.1, -1415488.4, 57233.668, 0.07575016, -0.041771363, -1269849.3, 124570.74, 0.0, 10.001135, 9.999489 
2.9354486e+3, 1.6771182e+2, -1199579.9, -1300061.0, 70557.63, 0.080114186, -0.019857317, -1163203.5, 133220.47, 0.0, 10.001017, 9.999663 
2.935392e+3, 1.7771168e+2, -1125084.8, -1218764.1, 80159.7, 0.06240942, 0.01804298, -1079083.0, 119343.15, 0.0, 10.000878, 9.999616 
2.935336e+3, 1.8771093e+2, -1055314.4, -1137656.5, 92559.52, 0.064463116, 0.0012505642, -995182.3, 105251.03, 0.0, 10.000701, 9.999584 
2.93528e+3, 1.9770998e+2, -980883.56, -1043481.0, 88765.24, 0.07194429, -0.03688322, -918060.7, 84381.39, 0.0, 10.000507, 9.999651 
2.9352242e+3, 2.0770982e+2, -876793.8, -908091.4, 96294.34, 0.064486764, -0.016245382, -794885.0, 109558.88, 0.0, 10.0004015, 9.999959 
2.935168e+3, 2.1771005e+2, -791024.56, -816497.9, 103058.32, 0.05348458, 0.026863761, -699918.9, 106523.76, 0.0, 10.0003195, 9.999954 
2.9351124e+3, 2.277099e+2, -717873.94, -707219.3, 99629.4, 0.06485312, 0.024210017, -612774.94, 95669.47, 0.0, 10.000049, 10.000162 
2.9350567e+3, 2.3770964e+2, -669202.3, -635302.1, 106159.55, 0.082307205, 0.00061840395, -544748.0, 65699.18, 0.0, 9.999721, 10.000141 
2.935e+3, 2.4770986e+2, -556435.44, -491778.5, 93344.06, 0.03394445, 0.008174933, -425323.16, 87122.9, 0.0, 9.999656, 10.000485 
2.9349425e+3, 2.5771055e+2, -455071.66, -377828.38, 92570.086, -0.035287555, 0.041503977, -316146.22, 98294.55, 0.0, 9.999618, 10.000612 
2.9348868e+3, 2.677116e+2, -373612.53, -211643.8, 81881.8, 0.05472846, 0.0681299, -177462.64, 138968.17, 0.0, 9.999174, 10.001295 
2.9348308e+3, 2.7771243e+2, -361732.78, -183687.05, 113185.85, 0.18725176, 0.04643113, -128709.54, 89713.69, 0.0, 9.998705, 10.001041 
2.9347694e+3, 2.8771323e+2, -141532.86, -51149.242, -12632.323, -0.118399635, 0.058012486, -49416.906, 70999.516, 0.0, 9.999646, 10.000829 
2.945678e+3, 1.2777293e+2, -1656496.1, -1745365.3, 1408.2788, 0.13698262, 0.027643412, -1656473.9, 31352.518, 0.0, 10.000659, 9.999475 
2.9456195e+3, 1.3777211e+2, -1465754.4, -1598135.0, 12279.939, 0.033117484, 0.015062979, -1464625.0, 125209.7, 0.0, 10.001274, 9.9995165 
2.945562e+3, 1.477713e+2, -1385557.5, -1509928.1, 46105.996, 0.022212664, -0.00142176, -1370329.8, 121512.33, 0.0, 10.001161, 9.999502 
2.945506e+3, 1.5777045e+2, -1345634.0, -1435505.5, 49260.957, 0.079389244, -0.018912561, -1323892.5, 69957.24, 0.0, 10.000743, 9.999541 
2.9454494e+3, 1.6777019e+2, -1246279.9, -1310905.6, 62016.605, 0.09099038, 0.0035959417, -1208663.0, 87189.71, 0.0, 10.000643, 9.999771 
2.9453927e+3, 1.7777014e+2, -1156367.0, -1223987.4, 60990.84, 0.077778615, 0.038983252, -1120441.9, 77411.96, 0.0, 10.000619, 9.999706 
2.9453367e+3, 1.8776938e+2, -1068338.5, -1138508.1, 79725.44, 0.06888162, 0.014842889, -1016319.44, 83541.54, 0.0, 10.000585, 9.999636 
2.9452804e+3, 1.9776842e+2, -971418.1, -1033714.8, 88905.69, 0.064277574, -0.030157719, -908362.2, 93507.54, 0.0, 10.0005455, 9.999702 
2.9452243e+3, 2.0776829e+2, -893042.44, -913923.94, 88795.89, 0.06567252, -0.0093856845, -814075.56, 89795.93, 0.0, 10.0002775, 9.999981 
2.9451683e+3, 2.177686e+2, -841363.9, -836480.06, 85668.23, 0.06849508, 0.039686408, -753219.0, 52650.75, 0.0, 9.999951, 9.999996 
2.9451123e+3, 2.2776857e+2, -732105.5, -699250.3, 81620.02, 0.06638061, 0.038328443, -632421.1, 75449.016, 0.0, 9.999883, 10.0002985 
2.945056e+3, 2.3776837e+2, -639577.8, -609375.2, 90914.95, 0.06153777, 0.0069115367, -532315.9, 77556.11, 0.0, 9.999869, 10.00025 
2.9449996e+3, 2.4776854e+2, -548170.9, -483683.88, 75819.94, 0.032841407, 0.003966825, -433536.22, 78334.93, 0.0, 9.999689, 10.000527 
2.9449424e+3, 2.5776932e+2, -468440.1, -372272.1, 63875.973, -0.0013809963, 0.040024597, -340404.78, 73460.21, 0.0, 9.999469, 10.000725 
2.9448858e+3, 2.677707e+2, -338774.63, -178012.02, 22032.385, 0.0527062, 0.08413666, -175047.17, 140804.75, 0.0, 9.999332, 10.001454 
2.944829e+3, 2.7777144e+2, -284135.0, -156670.14, 28093.557, 0.11962445, 0.0446438, -150752.94, 67092.62, 0.0, 9.999271, 10.000959 
2.9447696e+3, 2.8777248e+2, -74748.336, -45811.348, -28657.031, -0.06321189, 0.11489252, -28177.463, 91659.21, 0.0, 10.000216, 10.000592 
2.9556784e+3, 1.278308e+2, -1638763.8, -1715800.0, 26793.162, 0.14168818, 0.05573885, -1630361.5, 56898.742, 0.0, 10.000691, 9.999661 
2.9556206e+3, 1.3783014e+2, -1459633.8, -1574486.4, 27162.004, 0.062091563, 0.038325585, -1453534.0, 135732.66, 0.0, 10.001228, 9.999701 
2.9555634e+3, 1.478297e+2, -1381465.5, -1492755.9, 29712.566, 0.038529996, 0.043439493, -1374029.6, 117241.055, 0.0, 10.001122, 9.999639 
2.9555064e+3, 1.5782918e+2, -1341538.0, -1426009.0, 38073.72, 0.06520829, 0.04792532, -1326910.1, 66365.336, 0.0, 10.000738, 9.999609 
2.9554498e+3, 1.6782881e+2, -1246901.3, -1313929.6, 62237.145, 0.0943224, 0.05831004, -1209728.4, 85551.18, 0.0, 10.000649, 9.999747 
2.9553935e+3, 1.7782845e+2, -1152968.6, -1217873.5, 59803.723, 0.10789074, 0.06371994, -1117379.5, 79904.13, 0.0, 10.000623, 9.999746 
2.9553372e+3, 1.8782787e+2, -1052767.8, -1105154.8, 78442.79, 0.08146478, 0.042280477, -996260.75, 103027.875, 0.0, 10.00058, 9.999867 
2.9552808e+3, 1.9782732e+2, -962376.2, -1012314.06, 84465.94, 0.05372954, 0.017611733, -899265.94, 102026.83, 0.0, 10.000534, 9.999855 
2.9552245e+3, 2.0782694e+2, -902544.56, -933095.7, 75041.016, 0.064488076, 0.0124561535, -841240.1, 62057.457, 0.0, 10.000274, 9.99985 
2.9551682e+3, 2.1782672e+2, -844603.0, -844644.56, 77312.09, 0.08189529, 0.02387708, -767311.7, 37989.46, 0.0, 9.999957, 9.999938 
2.955112e+3, 2.2782697e+2, -719812.94, -674401.6, 81785.086, 0.061924353, 0.040158022, -612228.9, 95069.75, 0.0, 9.999885, 10.000469 
2.9550555e+3, 2.378272e+2, -631352.06, -592226.8, 87621.81, 0.031247929, 0.03652824, -522010.38, 87285.15, 0.0, 9.999868, 10.000368 
2.954999e+3, 2.4782714e+2, -551042.8, -489899.7, 66946.09, 0.050172016, 0.008219712, -446875.06, 64421.637, 0.0, 9.999689, 10.000485 
2.9549426e+3, 2.578276e+2, -470290.5, -377409.56, 56430.215, 0.081579916, 0.015991608, -350767.28, 62526.133, 0.0, 9.999474, 10.000689 
2.9548845e+3, 2.6782918e+2, -361752.3, -226965.94, 20513.668, 0.020340785, 0.096558645, -223913.03, 91366.38, 0.0, 9.999337, 10.001116 
2.954826e+3, 2.7782962e+2, -319682.8, -231911.11, 33147.375, -0.070875116, 0.073934615, -220799.53, -3522.7976, 0.0, 9.999279, 10.000439 
2.9547715e+3, 2.878298e+2, -51297.85, 4265.601, 23157.578, 0.11197522, 0.0807169, 12651.509, 131926.89, 0.0, 10.000217, 10.000932 
2.9656786e+3, 1.2788822e+2, -1583097.4, -1676341.3, 11903.037, 0.1007396, 0.044426106, -1581601.9, 105096.984, 0.0, 10.001018, 9.999775 
2.965622e+3, 1.3788758e+2, -1577831.9, -1620539.0, 12106.959, 0.11236547, 0.020865856, -1574638.5, 14065.897, 0.0, 10.000367, 9.999801 
2.965564e+3, 1.4788719e+2, -1475760.8, -1521212.1, 13082.948, 0.08160934, 0.017235328, -1472264.0, 18443.902, 0.0, 10.000401, 9.999792 
2.9655072e+3, 1.5788688e+2, -1349911.9, -1413945.6, 27131.123, 0.07444178, 0.02319208, -1339962.4, 52748.445, 0.0, 10.000609, 9.999756 
2.9654506e+3, 1.6788647e+2, -1248829.0, -1317350.4, 53688.305, 0.087129965, 0.026002184, -1219401.1, 75314.07, 0.0, 10.000644, 9.999728 
2.965394e+3, 1.7788607e+2, -1160548.9, -1220317.0, 49008.543, 0.099826254, 0.030433659, -1133031.8, 63687.84, 0.0, 10.000561, 9.999762 
2.9653373e+3, 1.8788575e+2, -1072757.1, -1102722.1, 60335.305, 0.08477401, 0.026885962, -1025571.9, 73150.16, 0.0, 10.000387, 9.999979 
2.965281e+3, 1.9788544e+2, -1008289.4, -1030297.2, 56169.734, 0.061298735, 0.016513387, -962055.8, 38668.227, 0.0, 10.000198, 9.999894 
2.9652247e+3, 2.0788513e+2, -909702.3, -936161.5, 50636.645, 0.06935833, 0.01834093, -870595.56, 32132.324, 0.0, 10.00022, 9.999857 
2.9651684e+3, 2.1788496e+2, -791132.0, -822059.56, 64275.402, 0.08742754, 0.031828064, -740486.4, 64244.785, 0.0, 10.000335, 9.999913 
2.9651117e+3, 2.2788505e+2, -686586.2, -677305.7, 52409.84, 0.0586445, 0.044629484, -629331.06, 77399.01, 0.0, 10.00019, 10.000304 
2.9650548e+3, 2.3788515e+2, -630145.7, -599276.56, 34528.96, 0.016273735, 0.040000774, -576889.5, 31839.006, 0.0, 9.999905, 10.000305 
2.9649988e+3, 2.4788514e+2, -535945.8, -482223.78, 13575.906, 0.05540897, 0.015324652, -478987.97, 31741.11, 0.0, 9.999785, 10.000495 
2.9649425e+3, 2.5788558e+2, -424621.63, -363463.2, 7940.746, 0.11664796, 0.023076134, -362449.0, 50276.473, 0.0, 9.999815, 10.000623 
2.9648837e+3, 2.6788688e+2, -295079.38, -237803.78, -25781.422, 0.0075265607, 0.098556966, -227908.4, 86805.73, 0.0, 9.999976, 10.000736 
2.964825e+3, 2.7788696e+2, -222833.64, -218539.95, -3943.1006, -0.1527849, 0.07519409, -216197.16, 517.8138, 0.0, 10.000084, 10.000147 
2.964772e+3, 2.8788662e+2, -38829.793, 15669.968, 19938.703, 0.17519528, 0.048233688, 22185.57, 140903.0, 0.0, 10.000278, 10.000985 
2.975679e+3, 1.2794504e+2, -1574426.0, -1666190.5, -20442.898, 0.02876734, -0.013352191, -1570077.9, 116065.414, 0.0, 10.001054, 9.999826 
2.9756227e+3, 1.379444e+2, -1576806.6, -1613103.8, -2003.5381, 0.17803662, -0.04005195, -1576696.4, 11452.003, 0.0, 10.000345, 9.999862 
2.9755652e+3, 1.4794388e+2, -1462889.4, -1494269.4, 20961.912, 0.14167486, -0.071106635, -1452395.9, 37756.813, 0.0, 10.0004, 9.999977 
2.9755077e+3, 1.5794367e+2, -1336633.9, -1383805.9, 32503.285, 0.09550281, -0.076917276, -1320060.6, 72093.6, 0.0, 10.000599, 9.999968 
2.9754508e+3, 1.679433e+2, -1253679.5, -1321631.1, 50111.31, 0.06599618, -0.0764553, -1227112.0, 67046.28, 0.0, 10.000619, 9.999711 
2.975394e+3, 1.7794313e+2, -1164211.9, -1222852.5, 43390.316, 0.05699029, -0.04837962, -1141164.3, 54996.363, 0.0, 10.00054, 9.999755 
2.9753375e+3, 1.8794309e+2, -1073453.4, -1102594.9, 51646.504, 0.07828852, -0.025600703, -1034361.56, 63799.164, 0.0, 10.0003805, 9.999983 
2.9752812e+3, 1.9794276e+2, -1010919.6, -1037351.7, 50919.445, 0.08248864, -0.031453863, -971529.06, 28634.21, 0.0, 10.000205, 9.999843 
2.975225e+3, 2.0794292e+2, -898991.2, -914895.5, 53895.54, 0.07909274, 0.007935291, -852464.3, 49698.09, 0.0, 10.000225, 10.000001 
2.9751685e+3, 2.1794327e+2, -791311.9, -821511.8, 65373.59, 0.086880974, 0.061465286, -739317.0, 64842.85, 0.0, 10.00033, 9.999919 
2.975112e+3, 2.2794285e+2, -720734.4, -747617.44, 42586.082, 0.056516718, 0.052398965, -689518.9, 16645.56, 0.0, 10.000187, 9.999823 
2.9750547e+3, 2.3794226e+2, -647418.5, -634863.75, 24730.887, 0.0140571045, 0.021164589, -615626.0, -7455.585, 0.0, 9.999903, 10.000061 
2.9749984e+3, 2.4794252e+2, -531654.3, -473416.06, 12840.498, 0.04739158, 0.028004462, -470710.66, 39457.402, 0.0, 9.999785, 10.000555 
2.974942e+3, 2.5794327e+2, -430254.06, -376209.25, 11201.595, 0.102919646, 0.06214548, -373979.53, 38181.64, 0.0, 9.99982, 10.000534 
2.974884e+3, 2.679438e+2, -321263.6, -294306.75, -17814.184, 0.016305892, 0.08626213, -285446.56, 28710.002, 0.0, 9.999985, 10.000344 
2.974825e+3, 2.7794352e+2, -220239.98, -216345.47, -1369.3726, -0.12389311, 0.052695565, -215912.17, 247.39108, 0.0, 10.000101, 10.000152 
2.974772e+3, 2.879433e+2, -69276.484, -46467.18, 36513.766, 0.14686635, 0.034935858, -19618.45, 98541.57, 0.0, 10.00028, 10.000553 
2.9856804e+3, 1.2800495e+2, -1509345.9, -1636339.4, -15511.16, 0.058862664, 0.18275008, -1507478.8, 178076.19, 0.0, 10.001511, 9.999811 
2.9856217e+3, 1.380042e+2, -1615322.0, -1622136.0, 18450.191, 0.090220824, 0.14087465, -1599966.9, -12405.123, 0.0, 10.000047, 9.999942 
2.9855648e+3, 1.4800392e+2, -1533574.3, -1538974.1, 57297.5, 0.088154785, 0.1368701, -1478913.1, 10651.258, 0.0, 9.999965, 9.999878 
2.9855075e+3, 1.5800339e+2, -1458924.4, -1461290.5, 34973.793, 0.093460724, 0.114800625, -1425113.6, -33543.867, 0.0, 9.999845, 9.999796 
2.9854515e+3, 1.6800325e+2, -1353534.4, -1369387.0, 43677.98, 0.12472755, 0.14500827, -1317069.4, -23498.105, 0.0, 9.999938, 9.999709 
2.985395e+3, 1.7800288e+2, -1220460.4, -1254127.5, 39288.51, 0.1294202, 0.15424208, -1194551.0, 1023.8647, 0.0, 10.000177, 9.999712 
2.985338e+3, 1.8800186e+2, -1097411.8, -1130646.0, 33529.293, 0.077187024, 0.09132216, -1076607.8, 20977.008, 0.0, 10.000292, 9.999832 
2.985281e+3, 1.9800104e+2, -980727.3, -1025682.9, 33167.1, 0.04391696, 0.043196246, -963138.8, 36453.723, 0.0, 10.000425, 9.999817 
2.9852247e+3, 2.0800088e+2, -867882.56, -905614.7, 27790.47, 0.056438144, 0.056454916, -853159.4, 48435.51, 0.0, 10.000462, 9.999952 
2.9851684e+3, 2.1800101e+2, -792313.0, -827824.56, 19899.652, 0.06930005, 0.09055896, -783399.25, 20195.762, 0.0, 10.000346, 9.999868 
2.9851118e+3, 2.2800046e+2, -713753.7, -745046.56, 15013.521, 0.060022373, 0.07041984, -707715.6, -2114.9978, 0.0, 10.000237, 9.999817 
2.9850549e+3, 2.3799972e+2, -610146.7, -629791.0, 26309.713, 0.036169294, 0.030232212, -591885.5, 15722.265, 0.0, 10.000213, 9.999948 
2.984998e+3, 2.4799988e+2, -484123.72, -480441.38, 6707.5713, 0.033403423, 0.044751924, -475326.88, 34280.016, 0.0, 10.000239, 10.000289 
2.9849413e+3, 2.5800034e+2, -380789.97, -380540.7, -14266.658, 0.05292266, 0.07832484, -366398.13, 45204.95, 0.0, 10.0002775, 10.000285 
2.984884e+3, 2.6800033e+2, -281729.28, -296930.53, -34358.957, 0.035555057, 0.07282443, -254140.3, 59462.12, 0.0, 10.000345, 10.000155 
2.984826e+3, 2.780001e+2, -166892.66, -195591.52, -7084.5723, -0.04214659, 0.050191876, -165239.05, 50364.836, 0.0, 10.000486, 10.0001135 
2.9847714e+3, 2.8799933e+2, -31754.639, -117904.8, 21664.938, 0.061076254, 0.0026956187, -26613.207, 90997.4, 0.0, 10.000914, 9.999772 
2.995681e+3, 1.2806116e+2, -1651298.3, -1723350.3, -9258.921, -0.019886002, -0.07106626, -1650127.5, 34874.01, 0.0, 10.000603, 9.99966 
2.9956222e+3, 1.3806078e+2, -1669743.9, -1651628.1, -4983.732, 0.13951123, -0.0688222, -1650347.6, -63342.082, 0.0, 9.999674, 9.999926 
2.9955646e+3, 1.4806125e+2, -1490862.6, -1572018.6, 9488.631, 0.11478262, 0.03150778, -1489768.0, -765.63104, 0.0, 10.000472, 9.999415 
2.9955074e+3, 1.5806043e+2, -1300268.5, -1444650.3, -39112.836, 0.095990755, 0.03399528, -1290353.8, 100658.41, 0.0, 10.001176, 9.999276 
2.9954502e+3, 1.680591e+2, -1202311.4, -1300037.8, -6326.338, 0.030177537, -0.035026196, -1201903.5, 91121.164, 0.0, 10.000972, 9.999696 
2.9953945e+3, 1.7805935e+2, -1163379.3, -1238620.8, -2648.1667, 0.09126065, 0.035887156, -1163286.1, 31735.04, 0.0, 10.000601, 9.999624 
2.995338e+3, 1.8805812e+2, -1070988.4, -1151546.6, 22133.713, 0.098401725, -0.025292853, -1065307.6, 31725.428, 0.0, 10.000599, 9.99955 
2.9952812e+3, 1.9805802e+2, -991779.5, -1037955.7, 33491.867, 0.04286021, 0.010567244, -974188.8, 24845.107, 0.0, 10.000366, 9.999767 
2.9952255e+3, 2.0805813e+2, -919217.4, -958181.3, 23090.0, 0.10906195, 0.06751968, -908488.5, -7454.004, 0.0, 10.000222, 9.999709 
2.9951683e+3, 2.1805757e+2, -794726.3, -841022.44, 2899.827, 0.021186193, 0.060268637, -794545.4, 8496.5625, 0.0, 10.00038, 9.999763 
2.9951116e+3, 2.280575e+2, -693424.9, -684430.1, -8916.329, 0.021124616, 0.06126854, -678941.1, 26101.01, 0.0, 10.000157, 10.000272 
2.9950553e+3, 2.3805739e+2, -596628.94, -621084.56, 13750.354, 0.07106706, 0.049980696, -590455.9, 16586.258, 0.0, 10.000296, 9.999968 
2.9949978e+3, 2.4805716e+2, -519204.44, -561850.5, 7510.7188, 0.011353913, 0.062942185, -517920.34, -8874.64, 0.0, 10.000277, 9.999711 
2.9949403e+3, 2.580568e+2, -409345.25, -441099.1, -12685.007, -0.035926025, 0.07097094, -404900.1, 6150.927, 0.0, 10.000282, 9.9998665 
2.9948846e+3, 2.6805657e+2, -281262.66, -297532.22, -29503.438, 0.06515735, 0.058594562, -258793.08, 54258.58, 0.0, 10.000351, 10.000149 
2.9948276e+3, 2.780567e+2, -176610.77, -214223.66, 3127.9749, 0.09143323, 0.06536431, -176352.4, 38696.0, 0.0, 10.000486, 9.999982 
2.9947707e+3, 2.8805578e+2, -97489.07, -250998.9, 46535.96, -0.07834706, 0.056205347, -84483.68, 32575.64, 0.0, 10.000909, 9.9988575 
